# vtk DataFile Version 2.0
Time step 110
ASCII
DATASET UNSTRUCTURED_GRID
POINTS 4650 float
208813.0 241509.0 0
215618.0 241324.0 0
219575.0 241716.0 0
247366.0 240696.0 0
284603.0 242444.0 0
294967.0 240711.0 0
205328.0 243468.0 0
212283.0 243489.0 0
223102.0 243544.0 0
233595.0 244961.0 0
237000.0 242870.0 0
240514.0 244776.0 0
243932.0 242729.0 0
247416.0 244682.0 0
250846.0 242651.0 0
254298.0 244626.0 0
257738.0 242615.0 0
261185.0 244613.0 0
274451.0 244272.0 0
281150.0 244425.0 0
287968.0 244572.0 0
291457.0 242625.0 0
294881.0 244691.0 0
298399.0 242790.0 0
201849.0 245442.0 0
205365.0 247442.0 0
208841.0 245489.0 0
212337.0 247466.0 0
215765.0 245448.0 0
219732.0 245699.0 0
223261.0 247517.0 0
226690.0 245254.0 0
230217.0 247087.0 0
237117.0 246850.0 0
244006.0 246714.0 0
250877.0 246643.0 0
257732.0 246609.0 0
265037.0 245597.0 0
271036.0 246319.0 0
277763.0 246480.0 0
284518.0 246548.0 0
291370.0 246605.0 0
298310.0 246770.0 0
201896.0 249419.0 0
208885.0 249441.0 0
215821.0 249436.0 0
219810.0 249674.0 0
226844.0 249228.0 0
233740.0 248940.0 0
240621.0 248756.0 0
247476.0 248665.0 0
254313.0 248618.0 0
261138.0 248595.0 0
267732.0 248504.0 0
274373.0 248490.0 0
281124.0 248573.0 0
287921.0 248569.0 0
294730.0 248647.0 0
205424.0 251388.0 0
212352.0 251421.0 0
223377.0 251469.0 0
230372.0 251058.0 0
237260.0 250816.0 0
240745.0 252727.0 0
244097.0 250690.0 0
247545.0 252643.0 0
250918.0 250628.0 0
254330.0 252608.0 0
257721.0 250603.0 0
261069.0 252639.0 0
264449.0 250666.0 0
267772.0 252682.0 0
271070.0 250602.0 0
274424.0 252634.0 0
277743.0 250575.0 0
281142.0 252571.0 0
284522.0 250567.0 0
287899.0 252568.0 0
291295.0 250594.0 0
294634.0 252639.0 0
298010.0 250720.0 0
201995.0 253369.0 0
205409.0 255325.0 0
208880.0 253377.0 0
215805.0 253403.0 0
219777.0 253629.0 0
226984.0 253177.0 0
230633.0 254981.0 0
233925.0 252888.0 0
237421.0 254775.0 0
244198.0 254663.0 0
250964.0 254611.0 0
257703.0 254613.0 0
264415.0 254658.0 0
271108.0 254666.0 0
277800.0 254599.0 0
284523.0 254560.0 0
291257.0 254585.0 0
298007.0 254655.0 0
201993.0 257310.0 0
208782.0 257295.0 0
212326.0 255365.0 0
215779.0 257342.0 0
219743.0 257572.0 0
223333.0 255401.0 0
227392.0 257079.0 0
234132.0 256840.0 0
240877.0 256692.0 0
247620.0 256618.0 0
254351.0 256598.0 0
261062.0 256628.0 0
267764.0 256661.0 0
274464.0 256626.0 0
281168.0 256566.0 0
287888.0 256554.0 0
294627.0 256596.0 0
205364.0 259267.0 0
212085.0 259275.0 0
224221.0 259194.0 0
230884.0 258922.0 0
237585.0 258736.0 0
244300.0 258632.0 0
247696.0 260589.0 0
251015.0 258591.0 0
254388.0 260577.0 0
257719.0 258600.0 0
261077.0 260603.0 0
264417.0 258635.0 0
271119.0 258636.0 0
277822.0 258583.0 0
281177.0 260542.0 0
284529.0 258542.0 0
287891.0 260518.0 0
291255.0 258548.0 0
294629.0 260533.0 0
298008.0 258584.0 0
201991.0 261254.0 0
208685.0 261248.0 0
215332.0 261223.0 0
221086.0 261247.0 0
224519.0 263132.0 0
227684.0 261022.0 0
231106.0 262876.0 0
234328.0 260796.0 0
237735.0 262695.0 0
241004.0 260656.0 0
244395.0 262596.0 0
251070.0 262561.0 0
257748.0 262572.0 0
264431.0 262598.0 0
267772.0 260624.0 0
271126.0 262593.0 0
274474.0 260595.0 0
277827.0 262546.0 0
284534.0 262501.0 0
291259.0 262490.0 0
298008.0 262503.0 0
201988.0 265198.0 0
205324.0 263221.0 0
208619.0 265215.0 0
211961.0 263235.0 0
215043.0 265425.0 0
218215.0 263539.0 0
221480.0 265325.0 0
227920.0 264974.0 0
234495.0 264753.0 0
241115.0 264615.0 0
247766.0 264551.0 0
254429.0 264544.0 0
261100.0 264565.0 0
267782.0 264577.0 0
274476.0 264547.0 0
281179.0 264493.0 0
287895.0 264457.0 0
294632.0 264453.0 0
205296.0 267173.0 0
211819.0 267298.0 0
218315.0 267414.0 0
224791.0 267112.0 0
231284.0 266831.0 0
237857.0 266651.0 0
244476.0 266550.0 0
251121.0 266519.0 0
257778.0 266531.0 0
264447.0 266550.0 0
271129.0 266538.0 0
277825.0 266489.0 0
284534.0 266436.0 0
287895.0 268373.0 0
291262.0 266409.0 0
294634.0 268354.0 0
298009.0 266408.0 0
201987.0 269133.0 0
208563.0 269194.0 0
215098.0 269341.0 0
221629.0 269247.0 0
228108.0 268936.0 0
231414.0 270785.0 0
234623.0 268707.0 0
237941.0 270597.0 0
241200.0 268564.0 0
244532.0 270490.0 0
247822.0 268500.0 0
251159.0 270462.0 0
254465.0 268496.0 0
257801.0 270476.0 0
261120.0 268516.0 0
264457.0 270491.0 0
267789.0 268519.0 0
271128.0 270471.0 0
274474.0 268483.0 0
277820.0 270413.0 0
281176.0 268422.0 0
284531.0 270347.0 0
291263.0 270305.0 0
298009.0 270294.0 0
201986.0 273046.0 0
205284.0 271115.0 0
208596.0 273116.0 0
211861.0 271230.0 0
215212.0 273230.0 0
218430.0 271293.0 0
221766.0 273160.0 0
224936.0 271050.0 0
228226.0 272877.0 0
234699.0 272652.0 0
241251.0 272498.0 0
247857.0 272431.0 0
254488.0 272433.0 0
261132.0 272453.0 0
267790.0 272451.0 0
274468.0 272404.0 0
281170.0 272329.0 0
287894.0 272264.0 0
294635.0 272233.0 0
205304.0 275014.0 0
211948.0 275111.0 0
218604.0 275181.0 0
225071.0 274971.0 0
231471.0 274730.0 0
237980.0 274527.0 0
244557.0 274410.0 0
251176.0 274386.0 0
257811.0 274407.0 0
264458.0 274421.0 0
271122.0 274392.0 0
277811.0 274317.0 0
281162.0 276212.0 0
284527.0 274233.0 0
287893.0 276131.0 0
291263.0 274178.0 0
294637.0 276090.0 0
298010.0 274161.0 0
201987.0 276918.0 0
208653.0 276983.0 0
215343.0 277080.0 0
222036.0 277096.0 0
228254.0 276830.0 0
231468.0 278652.0 0
234719.0 276578.0 0
237967.0 278433.0 0
241260.0 276410.0 0
244542.0 278300.0 0
247862.0 276340.0 0
251165.0 278288.0 0
254490.0 276351.0 0
257802.0 278320.0 0
261130.0 276377.0 0
264448.0 278338.0 0
267783.0 276372.0 0
271110.0 278298.0 0
274457.0 276308.0 0
277801.0 278201.0 0
284524.0 278095.0 0
291265.0 278026.0 0
298011.0 278006.0 0
201987.0 280748.0 0
205331.0 278862.0 0
208706.0 280800.0 0
212038.0 278943.0 0
215459.0 280884.0 0
218779.0 279018.0 0
222262.0 280919.0 0
225929.0 279826.0 0
234682.0 280481.0 0
241217.0 280294.0 0
247830.0 280220.0 0
254466.0 280249.0 0
261112.0 280286.0 0
267767.0 280280.0 0
274444.0 280196.0 0
281157.0 280071.0 0
287895.0 279971.0 0
294640.0 279924.0 0
205353.0 282665.0 0
212109.0 282730.0 0
218909.0 282804.0 0
226015.0 283711.0 0
229360.0 281798.0 0
232790.0 283758.0 0
237896.0 282312.0 0
244476.0 282151.0 0
247748.0 284065.0 0
251117.0 282164.0 0
257768.0 282213.0 0
264425.0 282241.0 0
271092.0 282191.0 0
277792.0 282062.0 0
281160.0 283903.0 0
284527.0 281929.0 0
287907.0 283785.0 0
291272.0 281850.0 0
294647.0 283737.0 0
298011.0 281831.0 0
201988.0 284538.0 0
205363.0 286429.0 0
208741.0 284575.0 0
212143.0 286480.0 0
215534.0 284649.0 0
218957.0 286574.0 0
222345.0 284735.0 0
229426.0 285675.0 0
236230.0 285700.0 0
241109.0 284148.0 0
244339.0 285940.0 0
251020.0 286008.0 0
254407.0 284120.0 0
257708.0 286079.0 0
261076.0 284174.0 0
264389.0 286128.0 0
267742.0 284175.0 0
271070.0 286066.0 0
274431.0 284063.0 0
277793.0 285896.0 0
284545.0 285734.0 0
291290.0 285651.0 0
298013.0 285638.0 0
201987.0 288298.0 0
208746.0 288316.0 0
215549.0 288388.0 0
222372.0 288520.0 0
226065.0 287585.0 0
232844.0 287613.0 0
239676.0 287641.0 0
247589.0 287868.0 0
254314.0 287957.0 0
261017.0 288039.0 0
267708.0 288058.0 0
274425.0 287905.0 0
281183.0 287702.0 0
287940.0 287573.0 0
294663.0 287532.0 0
205354.0 290167.0 0
212129.0 290202.0 0
218951.0 290315.0 0
226086.0 291459.0 0
229463.0 289538.0 0
232883.0 291446.0 0
236275.0 289531.0 0
240599.0 291324.0 0
244041.0 289609.0 0
247412.0 291599.0 0
250886.0 289806.0 0
254192.0 291757.0 0
257617.0 289914.0 0
260924.0 291877.0 0
264333.0 289996.0 0
271050.0 289920.0 0
274443.0 291713.0 0
277818.0 289697.0 0
281254.0 291461.0 0
284597.0 289508.0 0
288014.0 291338.0 0
291329.0 289432.0 0
294689.0 291317.0 0
298014.0 289433.0 0
201986.0 292039.0 0
205327.0 293894.0 0
208709.0 292033.0 0
212039.0 293898.0 0
215507.0 292098.0 0
218884.0 294023.0 0
222350.0 292264.0 0
229493.0 293383.0 0
237232.0 293175.0 0
243977.0 293362.0 0
250748.0 293568.0 0
257490.0 293719.0 0
264231.0 293839.0 0
267660.0 291930.0 0
271039.0 293737.0 0
277902.0 293454.0 0
284725.0 293248.0 0
291390.0 293208.0 0
298016.0 293223.0 0
201984.0 295775.0 0
208641.0 295751.0 0
215326.0 295761.0 0
222299.0 295959.0 0
226106.0 295336.0 0
230660.0 296965.0 0
233917.0 295060.0 0
237297.0 296992.0 0
240608.0 295141.0 0
247325.0 295356.0 0
254053.0 295536.0 0
260770.0 295688.0 0
267537.0 295789.0 0
274498.0 295464.0 0
281479.0 295160.0 0
284900.0 297003.0 0
288123.0 295103.0 0
291461.0 296990.0 0
294723.0 295102.0 0
298018.0 297014.0 0
201982.0 299510.0 0
205292.0 297625.0 0
208566.0 299482.0 0
211913.0 297610.0 0
215124.0 299483.0 0
218515.0 297636.0 0
221575.0 299491.0 0
227478.0 298904.0 0
234037.0 298879.0 0
240627.0 298957.0 0
243948.0 297144.0 0
247253.0 299135.0 0
250634.0 297337.0 0
253902.0 299319.0 0
257325.0 297512.0 0
260551.0 299503.0 0
264016.0 297659.0 0
267196.0 299616.0 0
270963.0 297489.0 0
275323.0 299007.0 0
278338.0 297093.0 0
281746.0 298919.0 0
288238.0 298887.0 0
294757.0 298893.0 0
205259.0 301362.0 0
211799.0 301352.0 0
218277.0 301373.0 0
224624.0 301147.0 0
230843.0 300805.0 0
237358.0 300818.0 0
243920.0 300943.0 0
250517.0 301122.0 0
257119.0 301313.0 0
263707.0 301514.0 0
272374.0 300823.0 0
278660.0 300853.0 0
285063.0 300796.0 0
291528.0 300785.0 0
298020.0 300806.0 0
201980.0 303246.0 0
208506.0 303226.0 0
214997.0 303236.0 0
221446.0 303216.0 0
227797.0 302856.0 0
231003.0 304694.0 0
234143.0 302721.0 0
237402.0 304655.0 0
240638.0 302779.0 0
243884.0 304756.0 0
247178.0 302931.0 0
253732.0 303118.0 0
260260.0 303342.0 0
266314.0 304035.0 0
269398.0 302482.0 0
272502.0 304579.0 0
275599.0 302764.0 0
278814.0 304648.0 0
281931.0 302722.0 0
285170.0 304606.0 0
288334.0 302689.0 0
291578.0 304586.0 0
294786.0 302689.0 0
298022.0 304597.0 0
201978.0 306979.0 0
205235.0 305101.0 0
208470.0 306966.0 0
211729.0 305100.0 0
214945.0 306974.0 0
218198.0 305109.0 0
221423.0 306932.0 0
224652.0 304945.0 0
227847.0 306706.0 0
234215.0 306578.0 0
240632.0 306607.0 0
247095.0 306743.0 0
250393.0 304926.0 0
253556.0 306941.0 0
256881.0 305141.0 0
259897.0 307265.0 0
263132.0 305594.0 0
269340.0 306259.0 0
275671.0 306528.0 0
282018.0 306528.0 0
288392.0 306495.0 0
294805.0 306485.0 0
205220.0 308834.0 0
211696.0 308834.0 0
218172.0 308827.0 0
224640.0 308707.0 0
231036.0 308537.0 0
237417.0 308494.0 0
243834.0 308576.0 0
250267.0 308746.0 0
256645.0 309012.0 0
262928.0 309462.0 0
266138.0 307855.0 0
269256.0 309999.0 0
272479.0 308314.0 0
278851.0 308428.0 0
285216.0 308409.0 0
291605.0 308384.0 0
298023.0 308382.0 0
201977.0 310701.0 0
205212.0 312552.0 0
208452.0 310694.0 0
211681.0 312551.0 0
214924.0 310694.0 0
218152.0 312537.0 0
221400.0 310649.0 0
224612.0 312452.0 0
227837.0 310503.0 0
231018.0 312342.0 0
234220.0 310410.0 0
237393.0 312316.0 0
240604.0 310433.0 0
243772.0 312394.0 0
247007.0 310562.0 0
250149.0 312572.0 0
253392.0 310784.0 0
259714.0 311135.0 0
266030.0 311634.0 0
272421.0 312037.0 0
275651.0 310272.0 0
278828.0 312185.0 0
282033.0 310313.0 0
285216.0 312192.0 0
288412.0 310289.0 0
291611.0 312167.0 0
294814.0 310271.0 0
298024.0 312154.0 0
201976.0 314410.0 0
208442.0 314404.0 0
214908.0 314401.0 0
221372.0 314363.0 0
227803.0 314271.0 0
234187.0 314215.0 0
240554.0 314247.0 0
246918.0 314378.0 0
253269.0 314611.0 0
256493.0 312859.0 0
259601.0 314958.0 0
262814.0 313278.0 0
265954.0 315395.0 0
269184.0 313733.0 0
275600.0 314003.0 0
282006.0 314076.0 0
288404.0 314063.0 0
294813.0 314039.0 0
205208.0 316254.0 0
211669.0 316253.0 0
218130.0 316240.0 0
224574.0 316184.0 0
230976.0 316120.0 0
237344.0 316116.0 0
243698.0 316202.0 0
250047.0 316385.0 0
256386.0 316672.0 0
262733.0 317059.0 0
269123.0 317464.0 0
272361.0 315759.0 0
275542.0 317730.0 0
278780.0 315926.0 0
281961.0 317820.0 0
285189.0 315952.0 0
288378.0 317813.0 0
291600.0 315927.0 0
294806.0 317784.0 0
298024.0 315906.0 0
201976.0 318102.0 0
205204.0 319940.0 0
208435.0 318099.0 0
211657.0 319941.0 0
214891.0 318096.0 0
218104.0 319934.0 0
221339.0 318071.0 0
224531.0 319904.0 0
227757.0 318019.0 0
230922.0 319876.0 0
234135.0 317996.0 0
237279.0 319896.0 0
240487.0 318043.0 0
243618.0 319992.0 0
246830.0 318179.0 0
249953.0 320175.0 0
253169.0 318412.0 0
256295.0 320453.0 0
259515.0 318744.0 0
265891.0 319141.0 0
272302.0 319483.0 0
278723.0 319658.0 0
285146.0 319690.0 0
291579.0 319663.0 0
298024.0 319635.0 0
201975.0 321778.0 0
208427.0 321778.0 0
214872.0 321781.0 0
221303.0 321771.0 0
227705.0 321750.0 0
234071.0 321755.0 0
240411.0 321819.0 0
246740.0 321959.0 0
253075.0 322185.0 0
259434.0 322499.0 0
262663.0 320814.0 0
265827.0 322870.0 0
269064.0 321191.0 0
272243.0 323205.0 0
275482.0 321455.0 0
281906.0 321549.0 0
288343.0 321539.0 0
294794.0 321503.0 0
201974.0 325436.0 0
205200.0 323609.0 0
208420.0 325442.0 0
211645.0 323616.0 0
214853.0 325456.0 0
218076.0 323621.0 0
221266.0 325463.0 0
224486.0 323614.0 0
227651.0 325468.0 0
230862.0 323614.0 0
234003.0 325497.0 0
237206.0 323656.0 0
240329.0 325576.0 0
243532.0 323761.0 0
246645.0 325717.0 0
249857.0 323941.0 0
256203.0 324203.0 0
262587.0 324542.0 0
269002.0 324909.0 0
275420.0 325179.0 0
278663.0 323383.0 0
281848.0 325266.0 0
285098.0 323408.0 0
288304.0 325240.0 0
291554.0 323371.0 0
294782.0 325194.0 0
298024.0 323337.0 0
205197.0 327261.0 0
211633.0 327278.0 0
218050.0 327298.0 0
224441.0 327312.0 0
230800.0 327337.0 0
237130.0 327398.0 0
243440.0 327511.0 0
249751.0 327683.0 0
252974.0 325931.0 0
256093.0 327925.0 0
259341.0 326223.0 0
262490.0 328242.0 0
265753.0 326580.0 0
272179.0 326926.0 0
278600.0 327103.0 0
285048.0 327108.0 0
291529.0 327053.0 0
298024.0 327013.0 0
201974.0 329076.0 0
205195.0 330895.0 0
208414.0 329091.0 0
211623.0 330927.0 0
214836.0 329119.0 0
218026.0 330964.0 0
221232.0 329144.0 0
224399.0 330999.0 0
227599.0 329172.0 0
233934.0 329223.0 0
240243.0 329315.0 0
246541.0 329457.0 0
252853.0 329654.0 0
259218.0 329918.0 0
265653.0 330262.0 0
268928.0 328613.0 0
272105.0 330642.0 0
275354.0 328904.0 0
278536.0 330820.0 0
281791.0 328971.0 0
285005.0 330787.0 0
288269.0 328917.0 0
291510.0 330708.0 0
294771.0 328857.0 0
298024.0 330663.0 0
201973.0 332696.0 0
208411.0 332723.0 0
214822.0 332770.0 0
221202.0 332816.0 0
227550.0 332864.0 0
230741.0 331046.0 0
233867.0 332935.0 0
237053.0 331124.0 0
240157.0 333040.0 0
243344.0 331244.0 0
246431.0 333183.0 0
249632.0 331409.0 0
252711.0 333363.0 0
255950.0 331623.0 0
259039.0 333585.0 0
262351.0 331909.0 0
268828.0 332291.0 0
275282.0 332630.0 0
281741.0 332661.0 0
288246.0 332569.0 0
294765.0 332495.0 0
205194.0 334510.0 0
211619.0 334561.0 0
218008.0 334621.0 0
224362.0 334676.0 0
230686.0 334742.0 0
236979.0 334837.0 0
243246.0 334967.0 0
249502.0 335127.0 0
255773.0 335313.0 0
262111.0 335534.0 0
265497.0 333902.0 0
268667.0 335917.0 0
272010.0 334349.0 0
278480.0 334532.0 0
284984.0 334443.0 0
288251.0 336198.0 0
291504.0 334338.0 0
294768.0 336111.0 0
298024.0 334290.0 0
302245.0 335157.0 0
201973.0 336292.0 0
205197.0 338101.0 0
208411.0 336336.0 0
211620.0 338178.0 0
214815.0 336409.0 0
217998.0 338267.0 0
221178.0 336478.0 0
224334.0 338343.0 0
227508.0 336546.0 0
230638.0 338428.0 0
233806.0 336634.0 0
236910.0 338540.0 0
240074.0 336754.0 0
243151.0 338681.0 0
246318.0 336902.0 0
252554.0 337071.0 0
258811.0 337253.0 0
265149.0 337464.0 0
271872.0 338029.0 0
275210.0 336354.0 0
278488.0 338227.0 0
281729.0 336331.0 0
285013.0 338078.0 0
291522.0 337951.0 0
298025.0 337901.0 0
201973.0 339863.0 0
208417.0 339927.0 0
214818.0 340035.0 0
221165.0 340131.0 0
227475.0 340217.0 0
233753.0 340323.0 0
239997.0 340459.0 0
246208.0 340618.0 0
249369.0 338843.0 0
252396.0 340786.0 0
255580.0 339012.0 0
258571.0 340948.0 0
261809.0 339181.0 0
264742.0 341097.0 0
268104.0 339366.0 0
270778.0 341313.0 0
275248.0 340046.0 0
281807.0 339983.0 0
288299.0 339815.0 0
291561.0 341559.0 0
294782.0 339715.0 0
298026.0 341499.0 0
201972.0 343402.0 0
205202.0 341665.0 0
208430.0 343492.0 0
211631.0 341776.0 0
214832.0 343646.0 0
218000.0 341903.0 0
221165.0 343777.0 0
224317.0 342002.0 0
227455.0 343880.0 0
230601.0 342103.0 0
233712.0 344003.0 0
236851.0 342233.0 0
243063.0 342390.0 0
249241.0 342561.0 0
255392.0 342729.0 0
261516.0 342881.0 0
267547.0 343046.0 0
273433.0 343006.0 0
278666.0 341921.0 0
282022.0 343645.0 0
285119.0 341708.0 0
288382.0 343440.0 0
294803.0 343313.0 0
302175.0 343242.0 0
205210.0 345196.0 0
211651.0 345351.0 0
218015.0 345531.0 0
224314.0 345652.0 0
230579.0 345769.0 0
236805.0 345918.0 0
239930.0 344157.0 0
242986.0 346095.0 0
246106.0 344332.0 0
249123.0 346282.0 0
252246.0 344509.0 0
255221.0 346461.0 0
258352.0 344674.0 0
264394.0 344830.0 0
270362.0 344965.0 0
273309.0 346650.0 0
276257.0 344422.0 0
279254.0 345831.0 0
285272.0 345372.0 0
291614.0 345172.0 0
294827.0 346911.0 0
298028.0 345089.0 0
201972.0 346907.0 0
205219.0 348691.0 0
208448.0 347025.0 0
211681.0 348897.0 0
214859.0 347242.0 0
218045.0 349150.0 0
221179.0 347415.0 0
224329.0 349295.0 0
227452.0 347533.0 0
233688.0 347674.0 0
239877.0 347850.0 0
246016.0 348045.0 0
252112.0 348239.0 0
258167.0 348416.0 0
261271.0 346625.0 0
264182.0 348569.0 0
267268.0 346769.0 0
270227.0 348607.0 0
276332.0 348127.0 0
282320.0 347443.0 0
285426.0 349093.0 0
288477.0 347087.0 0
291664.0 348794.0 0
298029.0 348668.0 0
201972.0 350375.0 0
208468.0 350519.0 0
214897.0 350816.0 0
221211.0 351048.0 0
227471.0 351178.0 0
230577.0 349426.0 0
233687.0 351338.0 0
236778.0 349597.0 0
239840.0 351541.0 0
242922.0 349798.0 0
249017.0 350005.0 0
255074.0 350199.0 0
261100.0 350366.0 0
267136.0 350459.0 0
273259.0 350262.0 0
276296.0 351792.0 0
279354.0 349610.0 0
282395.0 351182.0 0
288553.0 350753.0 0
294845.0 350502.0 0
298031.0 352230.0 0
197757.0 354784.0 0
201970.0 353808.0 0
205226.0 352145.0 0
208469.0 353969.0 0
211709.0 352405.0 0
214935.0 354361.0 0
218090.0 352762.0 0
221265.0 354675.0 0
224368.0 352930.0 0
230605.0 353075.0 0
236773.0 353274.0 0
242870.0 353502.0 0
245936.0 351759.0 0
248919.0 353727.0 0
251991.0 351969.0 0
254947.0 353930.0 0
258021.0 352154.0 0
260974.0 354086.0 0
264053.0 352281.0 0
267041.0 354129.0 0
270146.0 352239.0 0
273180.0 353886.0 0
279326.0 353311.0 0
285467.0 352783.0 0
288563.0 354394.0 0
291694.0 352413.0 0
294852.0 354076.0 0
205182.0 355564.0 0
211703.0 355858.0 0
218145.0 356364.0 0
224451.0 356551.0 0
227527.0 354812.0 0
230679.0 356717.0 0
233719.0 354999.0 0
236793.0 356956.0 0
239821.0 355235.0 0
245863.0 355475.0 0
251878.0 355695.0 0
257898.0 355875.0 0
263948.0 355974.0 0
270054.0 355880.0 0
276210.0 355442.0 0
279241.0 356968.0 0
282368.0 354862.0 0
285433.0 356427.0 0
291686.0 356001.0 0
294842.0 357609.0 0
298031.0 355761.0 0
201966.0 357230.0 0
205103.0 359012.0 0
208328.0 357363.0 0
211375.0 359182.0 0
214945.0 357846.0 0
218232.0 359934.0 0
221366.0 358288.0 0
227654.0 358431.0 0
233787.0 358665.0 0
239815.0 358940.0 0
242826.0 357213.0 0
245790.0 359199.0 0
248823.0 357450.0 0
251760.0 359415.0 0
254825.0 357650.0 0
260859.0 357788.0 0
266941.0 357795.0 0
269941.0 359536.0 0
273072.0 357524.0 0
276091.0 359082.0 0
282286.0 358496.0 0
285352.0 360027.0 0
288523.0 357994.0 0
291648.0 359539.0 0
298031.0 359246.0 0
201963.0 360657.0 0
208129.0 360830.0 0
216805.0 362819.0 0
221673.0 361850.0 0
224647.0 360144.0 0
227864.0 362058.0 0
230807.0 360365.0 0
236832.0 360653.0 0
242786.0 360939.0 0
248718.0 361178.0 0
254685.0 361358.0 0
257770.0 359579.0 0
260726.0 361471.0 0
263836.0 359653.0 0
266823.0 361465.0 0
272942.0 361174.0 0
279121.0 360593.0 0
282170.0 362092.0 0
288445.0 361543.0 0
294818.0 361082.0 0
298031.0 362670.0 0
201961.0 364071.0 0
205033.0 362531.0 0
211029.0 362679.0 0
214237.0 361013.0 0
216795.0 366305.0 0
219573.0 364212.0 0
224981.0 363751.0 0
230963.0 364045.0 0
233879.0 362354.0 0
236875.0 364378.0 0
239815.0 362666.0 0
242744.0 364687.0 0
245712.0 362938.0 0
251619.0 363136.0 0
257609.0 363265.0 0
263697.0 363320.0 0
269809.0 363210.0 0
272801.0 364838.0 0
275953.0 362714.0 0
278992.0 364195.0 0
285242.0 363584.0 0
288352.0 365031.0 0
291584.0 363008.0 0
294787.0 364475.0 0
205003.0 366121.0 0
207981.0 364404.0 0
210877.0 366281.0 0
213827.0 364570.0 0
219819.0 367837.0 0
222488.0 365735.0 0
225432.0 367575.0 0
228103.0 365741.0 0
233972.0 366077.0 0
239810.0 366419.0 0
245629.0 366701.0 0
248601.0 364922.0 0
251460.0 366876.0 0
254500.0 365059.0 0
257365.0 366930.0 0
260544.0 365129.0 0
263503.0 366955.0 0
266681.0 365135.0 0
269668.0 366906.0 0
275826.0 366337.0 0
278893.0 367778.0 0
282056.0 365661.0 0
285137.0 367104.0 0
291524.0 366391.0 0
294760.0 367783.0 0
298031.0 366028.0 0
201963.0 367412.0 0
207946.0 368016.0 0
213895.0 368082.0 0
216981.0 369781.0 0
222766.0 369511.0 0
228362.0 369540.0 0
231115.0 367777.0 0
234046.0 369843.0 0
236908.0 368135.0 0
242693.0 368462.0 0
248478.0 368693.0 0
254293.0 368785.0 0
260209.0 368736.0 0
266496.0 368782.0 0
272687.0 368510.0 0
275785.0 369946.0 0
281958.0 369210.0 0
288263.0 368447.0 0
294808.0 371011.0 0
298033.0 369328.0 0
201960.0 370567.0 0
205031.0 369760.0 0
208140.0 371561.0 0
211002.0 369815.0 0
214111.0 371564.0 0
217186.0 373301.0 0
220005.0 371448.0 0
222932.0 373240.0 0
225659.0 371378.0 0
231250.0 371578.0 0
236917.0 371926.0 0
239789.0 370201.0 0
242628.0 372262.0 0
245538.0 370490.0 0
248354.0 372491.0 0
251299.0 370648.0 0
254099.0 372554.0 0
257101.0 370637.0 0
259878.0 372423.0 0
263007.0 370468.0 0
265670.0 372150.0 0
269559.0 370615.0 0
272775.0 372177.0 0
278880.0 371372.0 0
281948.0 372769.0 0
285039.0 370581.0 0
288214.0 371750.0 0
291481.0 369675.0 0
294743.0 374246.0 0
298037.0 372610.0 0
198141.0 378436.0 0
200782.0 376789.0 0
201962.0 373534.0 0
205370.0 373362.0 0
208524.0 375099.0 0
211276.0 373314.0 0
214373.0 375074.0 0
220167.0 375081.0 0
225778.0 375166.0 0
228507.0 373358.0 0
231309.0 375410.0 0
234090.0 373656.0 0
239745.0 374012.0 0
245439.0 374304.0 0
251152.0 374450.0 0
256883.0 374401.0 0
262596.0 374165.0 0
268115.0 373786.0 0
270741.0 374973.0 0
275927.0 373588.0 0
278945.0 375022.0 0
285096.0 374003.0 0
288688.0 374862.0 0
291601.0 372845.0 0
297656.0 375795.0 0
300110.0 377356.0 0
195444.0 380117.0 0
201521.0 379327.0 0
203842.0 376324.0 0
206576.0 377443.0 0
211622.0 376847.0 0
214639.0 378640.0 0
217389.0 376874.0 0
220297.0 378752.0 0
223040.0 376971.0 0
228555.0 377185.0 0
234075.0 377499.0 0
236892.0 375752.0 0
239670.0 377846.0 0
242544.0 376086.0 0
245327.0 378133.0 0
248232.0 376310.0 0
253943.0 376354.0 0
259647.0 376196.0 0
265245.0 375898.0 0
268037.0 377435.0 0
273512.0 376100.0 0
276311.0 377464.0 0
282021.0 376262.0 0
283666.0 378818.0 0
286125.0 376938.0 0
289178.0 378316.0 0
291821.0 376208.0 0
294669.0 377706.0 0
299797.0 380424.0 0
302806.0 379025.0 0
305677.0 380810.0 0
189655.0 383731.0 0
192610.0 381886.0 0
195668.0 382979.0 0
198643.0 381291.0 0
201638.0 382247.0 0
204361.0 379836.0 0
209257.0 378923.0 0
212066.0 380551.0 0
217569.0 380508.0 0
223081.0 380735.0 0
225814.0 378966.0 0
228515.0 381027.0 0
231285.0 379259.0 0
236821.0 379600.0 0
242437.0 379925.0 0
248112.0 380137.0 0
251024.0 378267.0 0
253835.0 380159.0 0
256737.0 378199.0 0
259551.0 379990.0 0
262397.0 377956.0 0
265236.0 379610.0 0
270909.0 378683.0 0
273723.0 379956.0 0
279207.0 378740.0 0
281344.0 380869.0 0
286548.0 380419.0 0
291985.0 379788.0 0
294594.0 381418.0 0
297139.0 379415.0 0
300033.0 383345.0 0
302835.0 381989.0 0
305763.0 383801.0 0
308571.0 382622.0 0
186754.0 385551.0 0
192549.0 384790.0 0
195463.0 385853.0 0
198622.0 384280.0 0
201529.0 385255.0 0
206964.0 381286.0 0
209531.0 382659.0 0
214924.0 382308.0 0
220368.0 382483.0 0
225759.0 382793.0 0
231186.0 383118.0 0
233994.0 381357.0 0
236697.0 383459.0 0
239561.0 381696.0 0
245207.0 381969.0 0
250925.0 382075.0 0
256687.0 381984.0 0
262432.0 381699.0 0
265385.0 383290.0 0
268163.0 381078.0 0
271062.0 382421.0 0
273901.0 383779.0 0
276538.0 381292.0 0
279003.0 383024.0 0
284039.0 382508.0 0
289324.0 381905.0 0
291988.0 383448.0 0
294665.0 385016.0 0
297233.0 383079.0 0
300024.0 386187.0 0
302957.0 385054.0 0
308668.0 385693.0 0
311446.0 384419.0 0
314304.0 386209.0 0
183874.0 387356.0 0
186726.0 388685.0 0
189649.0 386779.0 0
192649.0 387801.0 0
198377.0 387274.0 0
201151.0 388239.0 0
204447.0 383362.0 0
206933.0 385110.0 0
209526.0 386123.0 0
212309.0 384201.0 0
215084.0 385992.0 0
217709.0 384231.0 0
220311.0 386303.0 0
223020.0 384551.0 0
228395.0 384881.0 0
233846.0 385222.0 0
239411.0 385549.0 0
242307.0 383770.0 0
245081.0 385797.0 0
248006.0 383953.0 0
250870.0 385844.0 0
253795.0 383934.0 0
256745.0 385710.0 0
259608.0 383733.0 0
262594.0 385398.0 0
268344.0 384771.0 0
271250.0 386196.0 0
276576.0 385301.0 0
281643.0 384690.0 0
284388.0 386272.0 0
286790.0 384071.0 0
289523.0 385604.0 0
292255.0 387128.0 0
297375.0 386579.0 0
302959.0 388092.0 0
305851.0 386835.0 0
308606.0 388826.0 0
311494.0 387519.0 0
317146.0 387991.0 0
178288.0 390843.0 0
181071.0 389108.0 0
183932.0 390621.0 0
189680.0 389797.0 0
192782.0 390702.0 0
195812.0 388902.0 0
199216.0 390569.0 0
204259.0 386861.0 0
206538.0 388920.0 0
209471.0 389130.0 0
212402.0 387727.0 0
217608.0 388047.0 0
222883.0 388398.0 0
225626.0 386642.0 0
228203.0 388751.0 0
231010.0 386986.0 0
236517.0 387320.0 0
242159.0 387609.0 0
247922.0 387732.0 0
253833.0 387641.0 0
259768.0 387419.0 0
262819.0 389081.0 0
265598.0 386985.0 0
268565.0 388515.0 0
274058.0 387676.0 0
276811.0 389226.0 0
279247.0 386924.0 0
281988.0 388509.0 0
287193.0 387817.0 0
290064.0 389338.0 0
294975.0 388631.0 0
297723.0 389988.0 0
300211.0 389300.0 0
302594.0 391378.0 0
305638.0 389924.0 0
308603.0 391914.0 0
311519.0 390599.0 0
314365.0 389361.0 0
317116.0 391261.0 0
319917.0 389721.0 0
322706.0 391452.0 0
175284.0 392705.0 0
178107.0 393795.0 0
181276.0 392339.0 0
184195.0 394026.0 0
186771.0 391856.0 0
189772.0 392784.0 0
192777.0 393554.0 0
196006.0 391610.0 0
198741.0 393661.0 0
203204.0 390135.0 0
205332.0 392339.0 0
208491.0 392103.0 0
211818.0 391295.0 0
214822.0 389739.0 0
217298.0 391796.0 0
220138.0 390134.0 0
225437.0 390512.0 0
230749.0 390868.0 0
233621.0 389090.0 0
236277.0 391162.0 0
239230.0 389391.0 0
242005.0 391426.0 0
244968.0 389598.0 0
247888.0 391444.0 0
250877.0 389542.0 0
256888.0 389368.0 0
259984.0 391067.0 0
265842.0 390710.0 0
271462.0 390025.0 0
274308.0 391562.0 0
279581.0 390790.0 0
284803.0 390032.0 0
287702.0 391501.0 0
293024.0 390848.0 0
296122.0 392293.0 0
299637.0 392932.0 0
305621.0 392867.0 0
308568.0 395038.0 0
311552.0 393685.0 0
314394.0 392568.0 0
319778.0 392899.0 0
325711.0 393334.0 0
169172.0 396529.0 0
172254.0 394601.0 0
175127.0 395617.0 0
180732.0 395329.0 0
182974.0 396898.0 0
187346.0 395048.0 0
190546.0 395936.0 0
195639.0 394430.0 0
201819.0 392854.0 0
207252.0 395129.0 0
210781.0 394623.0 0
214214.0 393297.0 0
219937.0 393888.0 0
222703.0 392246.0 0
225150.0 394429.0 0
227922.0 392652.0 0
233317.0 392952.0 0
239022.0 393194.0 0
244882.0 393350.0 0
250963.0 393153.0 0
253948.0 391266.0 0
254151.0 394822.0 0
257091.0 392969.0 0
260199.0 394707.0 0
263059.0 392770.0 0
266087.0 394466.0 0
268807.0 392309.0 0
271728.0 393861.0 0
277145.0 393106.0 0
280008.0 394620.0 0
282409.0 392305.0 0
285315.0 393742.0 0
290718.0 392921.0 0
293914.0 394286.0 0
297436.0 395357.0 0
300559.0 396518.0 0
302690.0 394491.0 0
305726.0 395829.0 0
311092.0 396761.0 0
314291.0 395826.0 0
317043.0 394691.0 0
319861.0 396036.0 0
322753.0 394268.0 0
325963.0 396234.0 0
328781.0 395254.0 0
165967.0 398527.0 0
168619.0 399341.0 0
172008.0 397497.0 0
174804.0 398538.0 0
177934.0 396954.0 0
180467.0 398932.0 0
185661.0 397594.0 0
188623.0 398380.0 0
191851.0 399090.0 0
193760.0 396775.0 0
197417.0 396802.0 0
200686.0 396146.0 0
203877.0 395437.0 0
208421.0 397868.0 0
211303.0 397713.0 0
214031.0 396507.0 0
217046.0 395333.0 0
222387.0 396126.0 0
227562.0 396588.0 0
230402.0 394762.0 0
232932.0 396802.0 0
235971.0 394960.0 0
238767.0 396906.0 0
241881.0 395205.0 0
247940.0 395050.0 0
251213.0 396667.0 0
257271.0 396569.0 0
263269.0 396467.0 0
269061.0 396124.0 0
274653.0 395420.0 0
277589.0 396945.0 0
282921.0 396060.0 0
285924.0 397371.0 0
288338.0 395083.0 0
291547.0 396319.0 0
295006.0 397412.0 0
298358.0 398760.0 0
303811.0 397861.0 0
307613.0 398366.0 0
313996.0 398753.0 0
317215.0 398142.0 0
320446.0 398999.0 0
323094.0 396959.0 0
326563.0 398950.0 0
329298.0 398215.0 0
331881.0 397187.0 0
334716.0 398988.0 0
162896.0 400450.0 0
165545.0 401498.0 0
171306.0 400225.0 0
174020.0 401290.0 0
177502.0 400029.0 0
180108.0 402239.0 0
183322.0 400182.0 0
186481.0 400933.0 0
189833.0 401475.0 0
195471.0 399357.0 0
199009.0 399324.0 0
202214.0 398815.0 0
205284.0 398280.0 0
213485.0 400085.0 0
216502.0 398885.0 0
219527.0 397634.0 0
224773.0 398381.0 0
230006.0 398679.0 0
235580.0 398683.0 0
241722.0 398885.0 0
244891.0 397020.0 0
245682.0 400326.0 0
248348.0 398484.0 0
251421.0 400287.0 0
254319.0 398417.0 0
257339.0 400194.0 0
260341.0 398347.0 0
266299.0 398234.0 0
269306.0 399927.0 0
272043.0 397649.0 0
275104.0 399224.0 0
280535.0 398420.0 0
283503.0 399769.0 0
289108.0 398509.0 0
292474.0 399511.0 0
295875.0 400601.0 0
299307.0 402151.0 0
301618.0 399893.0 0
305235.0 400662.0 0
308677.0 401700.0 0
310621.0 399480.0 0
316009.0 401274.0 0
319055.0 401485.0 0
323728.0 399575.0 0
329017.0 401341.0 0
332037.0 400443.0 0
337311.0 400594.0 0
340286.0 402441.0 0
154435.0 405752.0 0
159986.0 402278.0 0
162689.0 403591.0 0
165558.0 404572.0 0
168319.0 402323.0 0
171201.0 403291.0 0
176799.0 402717.0 0
183090.0 403068.0 0
185849.0 403801.0 0
188685.0 404183.0 0
193453.0 401797.0 0
197058.0 402051.0 0
200504.0 402025.0 0
203726.0 401624.0 0
206932.0 401108.0 0
210162.0 400843.0 0
215740.0 402437.0 0
218887.0 401289.0 0
221934.0 399989.0 0
224348.0 402346.0 0
227170.0 400554.0 0
229629.0 402634.0 0
232513.0 400665.0 0
238396.0 400470.0 0
243152.0 401910.0 0
248625.0 402192.0 0
254404.0 402094.0 0
260297.0 401977.0 0
263223.0 403747.0 0
263386.0 400149.0 0
266438.0 401972.0 0
272405.0 401283.0 0
278142.0 400754.0 0
281059.0 402234.0 0
286670.0 400861.0 0
289972.0 401798.0 0
293340.0 402694.0 0
296782.0 403666.0 0
302547.0 403033.0 0
305694.0 403728.0 0
308629.0 404689.0 0
312589.0 401649.0 0
322315.0 402023.0 0
325851.0 402024.0 0
328057.0 404379.0 0
331316.0 403647.0 0
334425.0 402647.0 0
337354.0 403451.0 0
343132.0 404231.0 0
151559.0 407545.0 0
157165.0 404046.0 0
159913.0 405522.0 0
162817.0 406725.0 0
168545.0 405422.0 0
171668.0 406377.0 0
174196.0 404451.0 0
175126.0 407263.0 0
177773.0 405223.0 0
180758.0 405539.0 0
183712.0 406427.0 0
191851.0 404402.0 0
195241.0 404644.0 0
198729.0 404906.0 0
202114.0 404823.0 0
205523.0 404316.0 0
208893.0 403897.0 0
212359.0 403307.0 0
218032.0 404849.0 0
221262.0 403721.0 0
226717.0 404719.0 0
232401.0 404598.0 0
235182.0 402342.0 0
237676.0 404158.0 0
240445.0 403054.0 0
242653.0 405597.0 0
245773.0 404061.0 0
248637.0 405931.0 0
251518.0 404021.0 0
254334.0 405845.0 0
257311.0 403897.0 0
260203.0 405686.0 0
266078.0 405505.0 0
269568.0 403674.0 0
275700.0 402957.0 0
278488.0 404669.0 0
284251.0 403327.0 0
287527.0 404247.0 0
290859.0 405052.0 0
294155.0 405839.0 0
300368.0 405637.0 0
303636.0 406337.0 0
306799.0 407119.0 0
311534.0 404270.0 0
314858.0 404235.0 0
318003.0 404355.0 0
321135.0 404614.0 0
324537.0 404638.0 0
330172.0 406785.0 0
333383.0 406023.0 0
336358.0 405969.0 0
339932.0 405448.0 0
342502.0 407156.0 0
345974.0 406027.0 0
148609.0 409390.0 0
151530.0 410579.0 0
154491.0 408835.0 0
157277.0 407417.0 0
160138.0 408789.0 0
165881.0 407627.0 0
169073.0 408444.0 0
172458.0 409235.0 0
178415.0 408198.0 0
181460.0 408939.0 0
186764.0 407006.0 0
189964.0 407243.0 0
193281.0 407350.0 0
196740.0 407539.0 0
200321.0 407831.0 0
204002.0 407366.0 0
207548.0 406950.0 0
211080.0 406411.0 0
214605.0 405727.0 0
216845.0 408191.0 0
220328.0 407335.0 0
223613.0 406187.0 0
229520.0 406412.0 0
235255.0 406208.0 0
239338.0 406915.0 0
245626.0 407639.0 0
251412.0 407812.0 0
257116.0 407621.0 0
263113.0 407475.0 0
266068.0 409390.0 0
268752.0 406983.0 0
271973.0 407309.0 0
273030.0 404547.0 0
275642.0 407062.0 0
281817.0 405819.0 0
285183.0 406796.0 0
288648.0 407563.0 0
292080.0 408325.0 0
295481.0 409029.0 0
297439.0 406524.0 0
302094.0 409079.0 0
305259.0 409732.0 0
310295.0 407427.0 0
313495.0 407143.0 0
316724.0 407247.0 0
319940.0 407406.0 0
323264.0 407382.0 0
326700.0 407157.0 0
328779.0 409685.0 0
332237.0 409287.0 0
335393.0 408913.0 0
338824.0 408122.0 0
344168.0 409433.0 0
346818.0 408910.0 0
349293.0 408062.0 0
352278.0 409942.0 0
142697.0 413091.0 0
145632.0 411251.0 0
148498.0 412456.0 0
151471.0 413534.0 0
154588.0 411788.0 0
157450.0 410759.0 0
160428.0 411975.0 0
163191.0 409818.0 0
166407.0 410617.0 0
169736.0 411333.0 0
173072.0 412162.0 0
175814.0 410253.0 0
179083.0 411359.0 0
184472.0 409701.0 0
187611.0 410024.0 0
190892.0 410171.0 0
194133.0 410277.0 0
197248.0 410457.0 0
200043.0 410953.0 0
203013.0 410345.0 0
206330.0 409975.0 0
209781.0 409497.0 0
213302.0 408900.0 0
219015.0 410708.0 0
222652.0 409867.0 0
226078.0 408586.0 0
229236.0 409603.0 0
232595.0 408638.0 0
236292.0 409258.0 0
242559.0 409054.0 0
248411.0 409694.0 0
254204.0 409659.0 0
256954.0 411459.0 0
259846.0 409343.0 0
262506.0 410968.0 0
269700.0 410111.0 0
273246.0 410261.0 0
276455.0 410617.0 0
279158.0 408125.0 0
282735.0 409284.0 0
286451.0 410075.0 0
290072.0 410799.0 0
293590.0 411533.0 0
299041.0 409143.0 0
303787.0 412468.0 0
308641.0 410069.0 0
312094.0 410187.0 0
315345.0 410140.0 0
318618.0 410246.0 0
321952.0 410232.0 0
325341.0 410026.0 0
330825.0 412225.0 0
334352.0 412020.0 0
337717.0 411126.0 0
341044.0 410209.0 0
346741.0 412028.0 0
349613.0 411221.0 0
355163.0 411753.0 0
139779.0 414920.0 0
142739.0 416295.0 0
145610.0 414402.0 0
148650.0 415553.0 0
154554.0 414534.0 0
157596.0 414074.0 0
163634.0 412826.0 0
166917.0 413535.0 0
170204.0 414243.0 0
176435.0 413311.0 0
179746.0 414611.0 0
182193.0 412374.0 0
185263.0 412880.0 0
188586.0 412943.0 0
191949.0 413129.0 0
195182.0 413378.0 0
198235.0 413810.0 0
201610.0 413684.0 0
204878.0 413115.0 0
208311.0 412632.0 0
211826.0 412072.0 0
215396.0 411426.0 0
220542.0 413493.0 0
223809.0 412958.0 0
227039.0 412321.0 0
230747.0 412385.0 0
234104.0 412094.0 0
237602.0 412642.0 0
239614.0 410255.0 0
241966.0 412768.0 0
245287.0 411333.0 0
248324.0 413454.0 0
251285.0 411598.0 0
254107.0 413538.0 0
259697.0 413191.0 0
264794.0 412710.0 0
267758.0 412881.0 0
271018.0 413320.0 0
274209.0 413669.0 0
279634.0 411481.0 0
282550.0 412532.0 0
285500.0 413000.0 0
288606.0 413448.0 0
297173.0 411938.0 0
300586.0 412197.0 0
307136.0 412818.0 0
310543.0 412993.0 0
313928.0 413098.0 0
317233.0 413128.0 0
320576.0 413122.0 0
323958.0 412965.0 0
327365.0 412641.0 0
332182.0 415024.0 0
335138.0 414952.0 0
337804.0 414029.0 0
340759.0 413248.0 0
343772.0 412542.0 0
346437.0 415084.0 0
349476.0 414340.0 0
352427.0 413194.0 0
355208.0 415083.0 0
357978.0 413522.0 0
363377.0 416900.0 0
133981.0 418556.0 0
136874.0 416741.0 0
139891.0 418173.0 0
145825.0 417539.0 0
151797.0 416563.0 0
155153.0 417215.0 0
160835.0 415034.0 0
164114.0 415817.0 0
167377.0 416502.0 0
170657.0 417176.0 0
173522.0 415075.0 0
176804.0 416381.0 0
182973.0 415831.0 0
186392.0 415774.0 0
189845.0 415863.0 0
193205.0 416203.0 0
199753.0 416652.0 0
203232.0 416348.0 0
206652.0 415807.0 0
210143.0 415279.0 0
213654.0 414700.0 0
217141.0 414080.0 0
225486.0 415910.0 0
228822.0 415520.0 0
232306.0 415473.0 0
235667.0 415498.0 0
239255.0 415520.0 0
245366.0 414898.0 0
251167.0 415422.0 0
256986.0 415347.0 0
262269.0 414966.0 0
265508.0 415998.0 0
277337.0 414235.0 0
280417.0 415154.0 0
283686.0 415890.0 0
286973.0 416326.0 0
291916.0 414114.0 0
295395.0 414623.0 0
298867.0 415023.0 0
302264.0 415363.0 0
305629.0 415613.0 0
309043.0 415829.0 0
312444.0 415971.0 0
315822.0 416057.0 0
319167.0 416056.0 0
322506.0 415962.0 0
325820.0 415723.0 0
329065.0 415357.0 0
337398.0 417394.0 0
340392.0 416455.0 0
343419.0 415693.0 0
349150.0 417437.0 0
352247.0 416400.0 0
357915.0 416942.0 0
360728.0 415258.0 0
366217.0 418663.0 0
131114.0 420361.0 0
137079.0 420042.0 0
140246.0 421426.0 0
143015.0 419486.0 0
146216.0 420669.0 0
149007.0 418622.0 0
152283.0 419494.0 0
155486.0 420128.0 0
158179.0 417303.0 0
161347.0 418136.0 0
164525.0 418857.0 0
167695.0 419484.0 0
173964.0 418026.0 0
177250.0 419672.0 0
179815.0 417836.0 0
182129.0 419299.0 0
185024.0 418901.0 0
188075.0 418687.0 0
191382.0 418934.0 0
196344.0 416681.0 0
201299.0 419385.0 0
204832.0 419010.0 0
208325.0 418500.0 0
211824.0 417984.0 0
215299.0 417446.0 0
218726.0 416917.0 0
222113.0 416426.0 0
230447.0 418724.0 0
233887.0 418702.0 0
237375.0 418658.0 0
240866.0 418889.0 0
242482.0 416056.0 0
248053.0 417420.0 0
254304.0 417419.0 0
257054.0 419757.0 0
259657.0 417311.0 0
262923.0 418529.0 0
268725.0 416303.0 0
271981.0 416722.0 0
275201.0 417191.0 0
278390.0 417880.0 0
281706.0 418584.0 0
285113.0 419146.0 0
290262.0 416828.0 0
293669.0 417331.0 0
297133.0 417772.0 0
300600.0 418155.0 0
304063.0 418453.0 0
307509.0 418667.0 0
310952.0 418844.0 0
314376.0 418961.0 0
317777.0 419013.0 0
321145.0 418973.0 0
324473.0 418824.0 0
327747.0 418547.0 0
330957.0 418209.0 0
334125.0 417983.0 0
339792.0 419735.0 0
342929.0 418893.0 0
346038.0 418193.0 0
351858.0 419595.0 0
354972.0 418396.0 0
360426.0 418845.0 0
363147.0 420012.0 0
366286.0 421707.0 0
369200.0 420522.0 0
126449.0 423237.0 0
129140.0 422799.0 0
134325.0 421907.0 0
137537.0 423369.0 0
143461.0 422691.0 0
149462.0 421678.0 0
152691.0 422532.0 0
158555.0 420504.0 0
161657.0 421256.0 0
164749.0 421918.0 0
170856.0 420096.0 0
174030.0 420852.0 0
180114.0 421887.0 0
183621.0 422220.0 0
186848.0 422038.0 0
189777.0 421617.0 0
194386.0 419583.0 0
197784.0 419586.0 0
202828.0 422102.0 0
206381.0 421713.0 0
209895.0 421247.0 0
213385.0 420773.0 0
216843.0 420296.0 0
220271.0 419832.0 0
223685.0 419378.0 0
227067.0 418978.0 0
244684.0 418677.0 0
249057.0 421229.0 0
251322.0 418989.0 0
253895.0 421335.0 0
260382.0 421043.0 0
266326.0 419309.0 0
269697.0 419702.0 0
273046.0 420163.0 0
276362.0 420718.0 0
279732.0 421326.0 0
288499.0 419620.0 0
291918.0 420082.0 0
295385.0 420520.0 0
298881.0 420914.0 0
302394.0 421243.0 0
305905.0 421501.0 0
309398.0 421698.0 0
312880.0 421849.0 0
316347.0 421940.0 0
319787.0 421964.0 0
323179.0 421898.0 0
326513.0 421701.0 0
329808.0 421384.0 0
333079.0 421047.0 0
336448.0 420473.0 0
338918.0 422830.0 0
342279.0 422104.0 0
345492.0 421346.0 0
348682.0 420572.0 0
351351.0 422815.0 0
354522.0 421702.0 0
357608.0 420441.0 0
360276.0 422490.0 0
363276.0 422824.0 0
369161.0 423663.0 0
372145.0 422368.0 0
375116.0 424227.0 0
120503.0 426969.0 0
123505.0 425087.0 0
126614.0 426103.0 0
132016.0 424080.0 0
135043.0 425450.0 0
140763.0 424719.0 0
144008.0 425948.0 0
146708.0 423827.0 0
149955.0 424815.0 0
153202.0 425657.0 0
155880.0 423188.0 0
158996.0 423735.0 0
162141.0 424450.0 0
167812.0 422487.0 0
170836.0 423031.0 0
173823.0 423689.0 0
176961.0 422818.0 0
182071.0 425027.0 0
185734.0 425075.0 0
189461.0 424898.0 0
192516.0 422525.0 0
195802.0 422563.0 0
199276.0 422388.0 0
207857.0 424475.0 0
211384.0 424059.0 0
214878.0 423633.0 0
218344.0 423207.0 0
221788.0 422791.0 0
225208.0 422409.0 0
228610.0 422106.0 0
232020.0 421942.0 0
235480.0 421880.0 0
238931.0 421919.0 0
242483.0 421854.0 0
245862.0 421829.0 0
251250.0 424160.0 0
257878.0 423581.0 0
263823.0 422025.0 0
267375.0 422632.0 0
270859.0 423091.0 0
274303.0 423596.0 0
277749.0 424132.0 0
283173.0 421897.0 0
286636.0 422405.0 0
290107.0 422859.0 0
293601.0 423285.0 0
297121.0 423677.0 0
300663.0 424019.0 0
304213.0 424305.0 0
307760.0 424535.0 0
311298.0 424711.0 0
314827.0 424835.0 0
318345.0 424905.0 0
321840.0 424913.0 0
325297.0 424819.0 0
328678.0 424548.0 0
332037.0 424164.0 0
335477.0 423535.0 0
341478.0 425205.0 0
344843.0 424508.0 0
348117.0 423728.0 0
354000.0 425015.0 0
357176.0 423823.0 0
362699.0 425610.0 0
366038.0 424817.0 0
368914.0 426752.0 0
372087.0 425527.0 0
378127.0 426110.0 0
117436.0 428888.0 0
123586.0 428184.0 0
126735.0 429137.0 0
129559.0 426452.0 0
132531.0 427666.0 0
138179.0 426806.0 0
141381.0 428090.0 0
147270.0 427053.0 0
150546.0 428016.0 0
156429.0 426352.0 0
159632.0 426982.0 0
162886.0 427650.0 0
165311.0 425083.0 0
168517.0 425644.0 0
171799.0 426183.0 0
175463.0 426102.0 0
178801.0 425371.0 0
193253.0 425428.0 0
196975.0 425357.0 0
200650.0 425141.0 0
204279.0 424842.0 0
212841.0 426924.0 0
216346.0 426543.0 0
219827.0 426164.0 0
223284.0 425805.0 0
226722.0 425494.0 0
230154.0 425268.0 0
233605.0 425136.0 0
237079.0 425100.0 0
240605.0 425053.0 0
244136.0 425030.0 0
247742.0 424796.0 0
252681.0 427721.0 0
254707.0 424720.0 0
261386.0 424742.0 0
265062.0 425411.0 0
268683.0 425971.0 0
272233.0 426470.0 0
281225.0 424667.0 0
284729.0 425177.0 0
288248.0 425641.0 0
291779.0 426065.0 0
295326.0 426453.0 0
298891.0 426801.0 0
302468.0 427102.0 0
306050.0 427354.0 0
309628.0 427555.0 0
323941.0 427825.0 0
327508.0 427702.0 0
330956.0 427331.0 0
334497.0 426605.0 0
338026.0 425882.0 0
344111.0 427623.0 0
347472.0 426900.0 0
350762.0 426043.0 0
356593.0 427247.0 0
359687.0 426040.0 0
362388.0 428684.0 0
365620.0 427803.0 0
371901.0 428626.0 0
375074.0 427390.0 0
378126.0 429278.0 0
381193.0 428028.0 0
114319.0 430838.0 0
117390.0 432119.0 0
120506.0 430153.0 0
123665.0 431302.0 0
129798.0 429923.0 0
132906.0 431129.0 0
135610.0 428966.0 0
138774.0 430263.0 0
144627.0 429270.0 0
147911.0 430332.0 0
153835.0 428845.0 0
157130.0 429555.0 0
160449.0 430194.0 0
166205.0 428226.0 0
169622.0 428701.0 0
173276.0 428826.0 0
176902.0 428655.0 0
180295.0 428234.0 0
183751.0 427966.0 0
187380.0 427883.0 0
190957.0 427982.0 0
194748.0 428190.0 0
198461.0 428108.0 0
202120.0 427908.0 0
205735.0 427631.0 0
209308.0 427296.0 0
217807.0 429497.0 0
221303.0 429166.0 0
224780.0 428864.0 0
228245.0 428615.0 0
231713.0 428437.0 0
235194.0 428337.0 0
238707.0 428274.0 0
242235.0 428225.0 0
245796.0 428096.0 0
249306.0 427878.0 0
256267.0 427817.0 0
259616.0 427849.0 0
263083.0 428282.0 0
266645.0 428828.0 0
270223.0 429346.0 0
275756.0 426973.0 0
279279.0 427477.0 0
282815.0 427968.0 0
286367.0 428431.0 0
289931.0 428858.0 0
293506.0 429246.0 0
297095.0 429597.0 0
300693.0 429906.0 0
313202.0 427706.0 0
316776.0 427802.0 0
320358.0 427848.0 0
329772.0 430549.0 0
333499.0 429675.0 0
337140.0 428900.0 0
340673.0 428265.0 0
346845.0 430056.0 0
350164.0 429279.0 0
353414.0 428343.0 0
356123.0 430635.0 0
359273.0 429495.0 0
365358.0 430867.0 0
368635.0 429791.0 0
371712.0 431701.0 0
374960.0 430507.0 0
381246.0 431207.0 0
384319.0 429983.0 0
387496.0 431970.0 0
107971.0 434809.0 0
111162.0 432813.0 0
114240.0 434103.0 0
120545.0 433336.0 0
123761.0 434461.0 0
126853.0 432303.0 0
130033.0 433293.0 0
136091.0 432423.0 0
139330.0 433710.0 0
141998.0 431490.0 0
145281.0 432623.0 0
151230.0 431258.0 0
154584.0 432056.0 0
157975.0 432746.0 0
163842.0 430788.0 0
167331.0 431258.0 0
170966.0 431493.0 0
174620.0 431534.0 0
178210.0 431392.0 0
181712.0 431096.0 0
185239.0 430890.0 0
188808.0 430880.0 0
192459.0 430918.0 0
196197.0 431010.0 0
199892.0 430920.0 0
203546.0 430730.0 0
207161.0 430472.0 0
210740.0 430168.0 0
214287.0 429836.0 0
226289.0 431957.0 0
229784.0 431757.0 0
233283.0 431616.0 0
236799.0 431523.0 0
240330.0 431457.0 0
243878.0 431370.0 0
247413.0 431243.0 0
250898.0 431121.0 0
254359.0 431058.0 0
257845.0 431184.0 0
261274.0 431384.0 0
264758.0 431786.0 0
268299.0 432259.0 0
273786.0 429836.0 0
277345.0 430319.0 0
280909.0 430790.0 0
284485.0 431243.0 0
288073.0 431667.0 0
291673.0 432056.0 0
295283.0 432409.0 0
298901.0 432725.0 0
304298.0 430173.0 0
307904.0 430393.0 0
311508.0 430565.0 0
315112.0 430688.0 0
318722.0 430747.0 0
322354.0 430754.0 0
326024.0 430671.0 0
333332.0 432715.0 0
336627.0 431883.0 0
340046.0 431285.0 0
343467.0 430709.0 0
349610.0 432511.0 0
352900.0 431655.0 0
358899.0 432893.0 0
362107.0 431866.0 0
365098.0 433985.0 0
368419.0 432862.0 0
374838.0 433607.0 0
378083.0 432412.0 0
381253.0 434363.0 0
384418.0 433180.0 0
390711.0 433982.0 0
104757.0 436821.0 0
111056.0 436108.0 0
114202.0 437371.0 0
117391.0 435349.0 0
120608.0 436533.0 0
127014.0 435512.0 0
130302.0 436598.0 0
133270.0 434519.0 0
136568.0 435846.0 0
142619.0 434894.0 0
145979.0 435977.0 0
148616.0 433633.0 0
152009.0 434506.0 0
155452.0 435258.0 0
161419.0 433341.0 0
164949.0 433833.0 0
168578.0 434149.0 0
172240.0 434308.0 0
175890.0 434323.0 0
179500.0 434195.0 0
183058.0 433988.0 0
186619.0 433870.0 0
190236.0 433842.0 0
193902.0 433855.0 0
197617.0 433875.0 0
201306.0 433775.0 0
204961.0 433594.0 0
208582.0 433357.0 0
212173.0 433082.0 0
215735.0 432787.0 0
219272.0 432490.0 0
222788.0 432207.0 0
238408.0 434713.0 0
241958.0 434637.0 0
245505.0 434552.0 0
249027.0 434464.0 0
252523.0 434403.0 0
255998.0 434439.0 0
259477.0 434609.0 0
262948.0 434877.0 0
271865.0 432732.0 0
275439.0 433195.0 0
279021.0 433648.0 0
282614.0 434085.0 0
286219.0 434501.0 0
289836.0 434887.0 0
293465.0 435242.0 0
302526.0 433002.0 0
306153.0 433239.0 0
309776.0 433431.0 0
313390.0 433580.0 0
316986.0 433676.0 0
320549.0 433717.0 0
324046.0 433719.0 0
327397.0 433631.0 0
330449.0 433671.0 0
336061.0 435021.0 0
339462.0 434352.0 0
342870.0 433799.0 0
346262.0 433210.0 0
349045.0 435740.0 0
352386.0 434965.0 0
355666.0 434007.0 0
358472.0 436287.0 0
361776.0 435111.0 0
368177.0 435960.0 0
371533.0 434791.0 0
374692.0 436714.0 0
378006.0 435534.0 0
384459.0 436364.0 0
387627.0 435195.0 0
390860.0 437245.0 0
393955.0 436013.0 0
101521.0 438845.0 0
107850.0 438134.0 0
110995.0 439415.0 0
117405.0 438585.0 0
120657.0 439739.0 0
123881.0 437648.0 0
127206.0 438723.0 0
133661.0 437859.0 0
137085.0 439253.0 0
139903.0 437147.0 0
143299.0 438288.0 0
149414.0 436925.0 0
152904.0 437740.0 0
158946.0 435897.0 0
162505.0 436417.0 0
166136.0 436798.0 0
169805.0 437042.0 0
173483.0 437161.0 0
177149.0 437158.0 0
180782.0 437056.0 0
184381.0 436925.0 0
187994.0 436840.0 0
191643.0 436810.0 0
195324.0 436799.0 0
199031.0 436774.0 0
202719.0 436667.0 0
206380.0 436496.0 0
210012.0 436280.0 0
213615.0 436035.0 0
217193.0 435776.0 0
220749.0 435519.0 0
224288.0 435281.0 0
227815.0 435076.0 0
231339.0 434914.0 0
234868.0 434797.0 0
266455.0 435256.0 0
270001.0 435681.0 0
273572.0 436115.0 0
277159.0 436545.0 0
280761.0 436964.0 0
297102.0 435562.0 0
300744.0 435846.0 0
304392.0 436094.0 0
308039.0 436304.0 0
311678.0 436477.0 0
315304.0 436611.0 0
318907.0 436701.0 0
322462.0 436766.0 0
325946.0 436815.0 0
329320.0 436803.0 0
332724.0 436199.0 0
338803.0 437458.0 0
342231.0 436911.0 0
345649.0 436365.0 0
351825.0 438276.0 0
355172.0 437391.0 0
361384.0 438393.0 0
364785.0 437148.0 0
367903.0 439081.0 0
371320.0 437894.0 0
377897.0 438654.0 0
381212.0 437507.0 0
384436.0 439546.0 0
387684.0 438418.0 0
394105.0 439321.0 0
397218.0 438056.0 0
400484.0 440102.0 0
98267.6 440881.0 0
101393.0 442229.0 0
104627.0 440174.0 0
107780.0 441478.0 0
114187.0 440655.0 0
117425.0 441842.0 0
123949.0 440833.0 0
127255.0 441893.0 0
130600.0 439845.0 0
134098.0 441151.0 0
140575.0 440554.0 0
144154.0 441638.0 0
146790.0 439300.0 0
150343.0 440195.0 0
156436.0 438438.0 0
160020.0 439009.0 0
163658.0 439447.0 0
167335.0 439759.0 0
171032.0 439954.0 0
174731.0 440043.0 0
178416.0 440037.0 0
182075.0 439966.0 0
185719.0 439877.0 0
189372.0 439816.0 0
193048.0 439782.0 0
196744.0 439754.0 0
200451.0 439702.0 0
204143.0 439592.0 0
207812.0 439433.0 0
211456.0 439239.0 0
215074.0 439022.0 0
218669.0 438798.0 0
222245.0 438581.0 0
225806.0 438383.0 0
229358.0 438216.0 0
232909.0 438084.0 0
236462.0 437985.0 0
240021.0 437908.0 0
243580.0 437839.0 0
247127.0 437776.0 0
250654.0 437729.0 0
254155.0 437737.0 0
257646.0 437840.0 0
261142.0 438049.0 0
264647.0 438340.0 0
268179.0 438698.0 0
271740.0 439088.0 0
275325.0 439487.0 0
278929.0 439883.0 0
284377.0 437366.0 0
288006.0 437746.0 0
291648.0 438098.0 0
295300.0 438419.0 0
298959.0 438708.0 0
302623.0 438964.0 0
306290.0 439186.0 0
309955.0 439373.0 0
313612.0 439532.0 0
317258.0 439656.0 0
320885.0 439755.0 0
324493.0 439839.0 0
328090.0 439883.0 0
331671.0 439539.0 0
335343.0 438179.0 0
338115.0 440561.0 0
341536.0 440037.0 0
344971.0 439523.0 0
348411.0 438956.0 0
354598.0 440798.0 0
357989.0 439716.0 0
360967.0 441678.0 0
364455.0 440336.0 0
371156.0 441009.0 0
374535.0 439829.0 0
377764.0 441783.0 0
381123.0 440654.0 0
387657.0 441649.0 0
390915.0 440514.0 0
397346.0 441420.0 0
403747.0 442147.0 0
91718.7 444980.0 0
94999.3 442927.0 0
98149.0 444294.0 0
104561.0 443554.0 0
107770.0 444852.0 0
110976.0 442747.0 0
114211.0 443970.0 0
120693.0 442972.0 0
123973.0 444053.0 0
130536.0 442970.0 0
133666.0 444206.0 0
137743.0 442632.0 0
141495.0 443880.0 0
147778.0 442595.0 0
151376.0 443471.0 0
153909.0 440966.0 0
157512.0 441600.0 0
161158.0 442099.0 0
164842.0 442469.0 0
168553.0 442727.0 0
172277.0 442885.0 0
175999.0 442955.0 0
179705.0 442955.0 0
183395.0 442907.0 0
187076.0 442847.0 0
190762.0 442799.0 0
194462.0 442763.0 0
198173.0 442722.0 0
201885.0 442657.0 0
205584.0 442549.0 0
209263.0 442404.0 0
212919.0 442231.0 0
216552.0 442044.0 0
220164.0 441853.0 0
223760.0 441671.0 0
227343.0 441509.0 0
230918.0 441374.0 0
234491.0 441267.0 0
238065.0 441185.0 0
241637.0 441120.0 0
245203.0 441070.0 0
248755.0 441036.0 0
252287.0 441038.0 0
255805.0 441103.0 0
259318.0 441253.0 0
262838.0 441485.0 0
266373.0 441779.0 0
269931.0 442118.0 0
273513.0 442479.0 0
282551.0 440269.0 0
286188.0 440636.0 0
289838.0 440981.0 0
293501.0 441300.0 0
297173.0 441590.0 0
300851.0 441851.0 0
304533.0 442081.0 0
308217.0 442280.0 0
311898.0 442450.0 0
315574.0 442591.0 0
319241.0 442709.0 0
322901.0 442806.0 0
326569.0 442863.0 0
330264.0 442819.0 0
334623.0 441088.0 0
344119.0 442704.0 0
347606.0 442175.0 0
351114.0 441564.0 0
353739.0 444159.0 0
357416.0 443200.0 0
364477.0 443476.0 0
367788.0 442202.0 0
374391.0 442985.0 0
380983.0 443816.0 0
384343.0 442738.0 0
390861.0 443802.0 0
394133.0 442647.0 0
397327.0 444806.0 0
400575.0 443527.0 0
406998.0 444186.0 0
88422.9 447042.0 0
94893.9 446369.0 0
98109.5 447738.0 0
101340.0 445643.0 0
104569.0 446968.0 0
111016.0 446114.0 0
114284.0 447327.0 0
117472.0 445140.0 0
120751.0 446258.0 0
124036.0 447337.0 0
127243.0 445113.0 0
130463.0 446246.0 0
136589.0 445573.0 0
139631.0 446543.0 0
145250.0 444947.0 0
148873.0 445953.0 0
154994.0 444190.0 0
158644.0 444758.0 0
162335.0 445184.0 0
166058.0 445495.0 0
169802.0 445708.0 0
214402.0 445257.0 0
218050.0 445097.0 0
221680.0 444938.0 0
225295.0 444789.0 0
228898.0 444658.0 0
232494.0 444550.0 0
236087.0 444465.0 0
239676.0 444402.0 0
243259.0 444356.0 0
246833.0 444330.0 0
250393.0 444332.0 0
253940.0 444379.0 0
257477.0 444488.0 0
261016.0 444667.0 0
264564.0 444910.0 0
268128.0 445199.0 0
277117.0 442846.0 0
280741.0 443210.0 0
284382.0 443562.0 0
288039.0 443896.0 0
291709.0 444209.0 0
295390.0 444498.0 0
299080.0 444759.0 0
302774.0 444994.0 0
306471.0 445201.0 0
310169.0 445379.0 0
313864.0 445532.0 0
317552.0 445658.0 0
321231.0 445764.0 0
324903.0 445843.0 0
328549.0 445888.0 0
333547.0 443767.0 0
337154.0 443629.0 0
340648.0 443193.0 0
346553.0 445413.0 0
350115.0 444839.0 0
358528.0 446370.0 0
361341.0 444771.0 0
367741.0 445408.0 0
371048.0 444190.0 0
374229.0 446227.0 0
377599.0 444947.0 0
384171.0 445950.0 0
387537.0 444896.0 0
390682.0 447119.0 0
394026.0 446001.0 0
400490.0 446981.0 0
403783.0 445646.0 0
406962.0 447772.0 0
410234.0 446218.0 0
85109.3 449116.0 0
91620.9 448451.0 0
94863.0 449838.0 0
101363.0 449089.0 0
104653.0 450419.0 0
107832.0 448263.0 0
111120.0 449525.0 0
117573.0 448490.0 0
120877.0 449601.0 0
127316.0 448419.0 0
130610.0 449582.0 0
133653.0 447569.0 0
136982.0 448954.0 0
142975.0 447370.0 0
146465.0 448443.0 0
152482.0 446781.0 0
156122.0 447428.0 0
159817.0 447910.0 0
163552.0 448266.0 0
173552.0 445838.0 0
177296.0 445898.0 0
181028.0 445902.0 0
184747.0 445873.0 0
188458.0 445832.0 0
192173.0 445794.0 0
195893.0 445757.0 0
199618.0 445710.0 0
203338.0 445639.0 0
207046.0 445537.0 0
210734.0 445407.0 0
234086.0 447745.0 0
237695.0 447682.0 0
241298.0 447639.0 0
244893.0 447616.0 0
248478.0 447619.0 0
252052.0 447656.0 0
255616.0 447740.0 0
271712.0 445518.0 0
275317.0 445853.0 0
278943.0 446191.0 0
282587.0 446524.0 0
286248.0 446845.0 0
289924.0 447149.0 0
293613.0 447432.0 0
297311.0 447692.0 0
301016.0 447928.0 0
304725.0 448139.0 0
308436.0 448324.0 0
332002.0 446348.0 0
335758.0 446544.0 0
339436.0 446319.0 0
343010.0 445904.0 0
352273.0 447634.0 0
355556.0 447089.0 0
358028.0 449939.0 0
361369.0 448225.0 0
364506.0 446823.0 0
367635.0 448710.0 0
370919.0 447467.0 0
377369.0 448158.0 0
380779.0 447009.0 0
383913.0 449195.0 0
387308.0 448175.0 0
393771.0 449387.0 0
397146.0 448226.0 0
400207.0 450473.0 0
403609.0 449176.0 0
410093.0 449917.0 0
413442.0 448234.0 0
416638.0 450237.0 0
81778.9 451201.0 0
85023.2 452646.0 0
88330.8 450543.0 0
91597.9 451948.0 0
98146.9 451211.0 0
101467.0 452569.0 0
107970.0 451719.0 0
111311.0 452982.0 0
114430.0 450734.0 0
117756.0 451893.0 0
124193.0 450678.0 0
127535.0 451755.0 0
134022.0 450850.0 0
140434.0 449929.0 0
143906.0 450825.0 0
150007.0 449386.0 0
167315.0 448524.0 0
171090.0 448702.0 0
174865.0 448812.0 0
178632.0 448867.0 0
182388.0 448878.0 0
186133.0 448862.0 0
189871.0 448834.0 0
193608.0 448803.0 0
197346.0 448767.0 0
201083.0 448718.0 0
204812.0 448649.0 0
208529.0 448556.0 0
212228.0 448442.0 0
215908.0 448314.0 0
219570.0 448181.0 0
223217.0 448051.0 0
226849.0 447931.0 0
230472.0 447828.0 0
259177.0 447880.0 0
262743.0 448077.0 0
266319.0 448322.0 0
269911.0 448602.0 0
273521.0 448902.0 0
277150.0 449213.0 0
280798.0 449524.0 0
284464.0 449828.0 0
288145.0 450120.0 0
291840.0 450395.0 0
295545.0 450651.0 0
312147.0 448485.0 0
315856.0 448620.0 0
319556.0 448734.0 0
323247.0 448826.0 0
326919.0 448914.0 0
330507.0 449174.0 0
334207.0 449330.0 0
337987.0 449313.0 0
341687.0 449061.0 0
345291.0 448673.0 0
348814.0 448185.0 0
354617.0 450580.0 0
357071.0 453512.0 0
361132.0 451470.0 0
364382.0 450330.0 0
367381.0 452020.0 0
370714.0 450844.0 0
373988.0 449591.0 0
377065.0 451390.0 0
380499.0 450233.0 0
386972.0 451495.0 0
390376.0 450472.0 0
396790.0 451687.0 0
403193.0 452745.0 0
406667.0 451394.0 0
409643.0 453661.0 0
413192.0 452031.0 0
421233.0 453071.0 0
75084.8 455391.0 0
78437.6 453292.0 0
81703.3 454765.0 0
88313.4 454069.0 0
91650.1 455466.0 0
94910.2 453333.0 0
98262.3 454713.0 0
104820.0 453907.0 0
108201.0 455214.0 0
114670.0 454191.0 0
118047.0 455346.0 0
121097.0 452994.0 0
124461.0 454048.0 0
130958.0 452856.0 0
134518.0 454011.0 0
137592.0 452241.0 0
141098.0 453270.0 0
147499.0 451973.0 0
153608.0 450124.0 0
157297.0 450659.0 0
161042.0 451052.0 0
164823.0 451344.0 0
168622.0 451560.0 0
172424.0 451712.0 0
176222.0 451810.0 0
180011.0 451861.0 0
183787.0 451878.0 0
187554.0 451873.0 0
191313.0 451855.0 0
195069.0 451830.0 0
198821.0 451796.0 0
202569.0 451750.0 0
206308.0 451686.0 0
210034.0 451605.0 0
213744.0 451508.0 0
217436.0 451402.0 0
221113.0 451294.0 0
224774.0 451190.0 0
228424.0 451097.0 0
232063.0 451019.0 0
235695.0 450960.0 0
239319.0 450919.0 0
242936.0 450898.0 0
246544.0 450900.0 0
250143.0 450931.0 0
253733.0 450999.0 0
257319.0 451112.0 0
260905.0 451273.0 0
264498.0 451480.0 0
268102.0 451722.0 0
271721.0 451989.0 0
275357.0 452271.0 0
279011.0 452559.0 0
282681.0 452844.0 0
286368.0 453122.0 0
299260.0 450886.0 0
302980.0 451099.0 0
306705.0 451287.0 0
310430.0 451453.0 0
314156.0 451594.0 0
317877.0 451716.0 0
321592.0 451818.0 0
325292.0 451914.0 0
328961.0 452081.0 0
332680.0 452210.0 0
336445.0 452227.0 0
340221.0 452121.0 0
343929.0 451869.0 0
347555.0 451515.0 0
351093.0 451033.0 0
353376.0 453914.0 0
360518.0 454406.0 0
363999.0 454002.0 0
367196.0 455104.0 0
370495.0 454265.0 0
373694.0 453126.0 0
376729.0 454578.0 0
380156.0 453482.0 0
383564.0 452483.0 0
389929.0 453875.0 0
393361.0 452819.0 0
396248.0 455204.0 0
399722.0 454015.0 0
406084.0 455054.0 0
415072.0 455163.0 0
418010.0 453639.0 0
424468.0 455106.0 0
71725.3 457495.0 0
78370.6 456895.0 0
85012.8 456205.0 0
88367.2 457615.0 0
95031.8 456852.0 0
98456.3 458239.0 0
101653.0 456079.0 0
105077.0 457426.0 0
111604.0 456484.0 0
115031.0 457690.0 0
121439.0 456426.0 0
124860.0 457436.0 0
127870.0 455070.0 0
131348.0 456061.0 0
134883.0 457083.0 0
138108.0 455631.0 0
141645.0 456562.0 0
144701.0 454150.0 0
151065.0 452853.0 0
154760.0 453438.0 0
158527.0 453860.0 0
162332.0 454177.0 0
166156.0 454422.0 0
169985.0 454608.0 0
173809.0 454742.0 0
177625.0 454831.0 0
181430.0 454882.0 0
185224.0 454904.0 0
189008.0 454907.0 0
192784.0 454897.0 0
196554.0 454877.0 0
200320.0 454848.0 0
204078.0 454807.0 0
207826.0 454752.0 0
211562.0 454684.0 0
215282.0 454604.0 0
218987.0 454519.0 0
222677.0 454434.0 0
226353.0 454355.0 0
230019.0 454287.0 0
233674.0 454232.0 0
237321.0 454195.0 0
240960.0 454176.0 0
244591.0 454179.0 0
248214.0 454205.0 0
251830.0 454263.0 0
255440.0 454356.0 0
259048.0 454490.0 0
262660.0 454665.0 0
266280.0 454874.0 0
269912.0 455110.0 0
273558.0 455364.0 0
277219.0 455628.0 0
290069.0 453387.0 0
293782.0 453637.0 0
297505.0 453868.0 0
301236.0 454080.0 0
304973.0 454270.0 0
308712.0 454438.0 0
312454.0 454584.0 0
316196.0 454710.0 0
319933.0 454817.0 0
323661.0 454916.0 0
327377.0 455037.0 0
331115.0 455136.0 0
334887.0 455173.0 0
338675.0 455120.0 0
342452.0 454978.0 0
346176.0 454738.0 0
349826.0 454417.0 0
355353.0 456835.0 0
358887.0 457058.0 0
373024.0 456910.0 0
376329.0 457576.0 0
379727.0 456769.0 0
383096.0 455831.0 0
386501.0 454871.0 0
389283.0 457335.0 0
392771.0 456307.0 0
399061.0 457613.0 0
402571.0 456373.0 0
408676.0 457560.0 0
411962.0 456413.0 0
418011.0 457550.0 0
421253.0 456524.0 0
424408.0 458720.0 0
427694.0 457132.0 0
68364.0 459600.0 0
75032.7 459037.0 0
78376.4 460534.0 0
81697.6 458359.0 0
85065.8 459787.0 0
91769.7 459002.0 0
95221.7 460389.0 0
101921.0 459614.0 0
108533.0 458746.0 0
112023.0 460024.0 0
118482.0 458842.0 0
121955.0 459896.0 0
128319.0 458384.0 0
131807.0 459275.0 0
135369.0 460024.0 0
138820.0 459150.0 0
145245.0 457279.0 0
148442.0 455575.0 0
152206.0 456245.0 0
156017.0 456694.0 0
159855.0 457030.0 0
163704.0 457296.0 0
167555.0 457509.0 0
171401.0 457673.0 0
175239.0 457794.0 0
179068.0 457877.0 0
182886.0 457928.0 0
186694.0 457955.0 0
190492.0 457964.0 0
194282.0 457961.0 0
198065.0 457947.0 0
201842.0 457924.0 0
205610.0 457891.0 0
209367.0 457846.0 0
213112.0 457791.0 0
216843.0 457729.0 0
220560.0 457664.0 0
224263.0 457601.0 0
227954.0 457544.0 0
231634.0 457499.0 0
235305.0 457467.0 0
238967.0 457451.0 0
242621.0 457454.0 0
246267.0 457478.0 0
249907.0 457528.0 0
253541.0 457608.0 0
257172.0 457722.0 0
260805.0 457871.0 0
264442.0 458052.0 0
280897.0 455894.0 0
284590.0 456155.0 0
288297.0 456409.0 0
292018.0 456649.0 0
295750.0 456875.0 0
299491.0 457083.0 0
303239.0 457272.0 0
306992.0 457442.0 0
310749.0 457590.0 0
314507.0 457719.0 0
318265.0 457830.0 0
322018.0 457929.0 0
325766.0 458027.0 0
329526.0 458109.0 0
333304.0 458148.0 0
337096.0 458127.0 0
340885.0 458039.0 0
344650.0 457886.0 0
348362.0 457679.0 0
351978.0 457427.0 0
357262.0 459769.0 0
362393.0 457516.0 0
365736.0 457870.0 0
369482.0 457685.0 0
378705.0 460081.0 0
382285.0 459254.0 0
385792.0 458313.0 0
391997.0 459829.0 0
395542.0 458766.0 0
401791.0 460073.0 0
405272.0 458828.0 0
411406.0 460183.0 0
414763.0 458951.0 0
421047.0 460114.0 0
427606.0 460827.0 0
430937.0 459165.0 0
434206.0 461212.0 0
65001.4 461706.0 0
68361.9 463342.0 0
71695.9 461189.0 0
75058.8 462726.0 0
81755.8 461984.0 0
85172.1 463392.0 0
88480.9 461179.0 0
91945.9 462554.0 0
98721.7 461785.0 0
102281.0 463164.0 0
105431.0 460972.0 0
108988.0 462306.0 0
115539.0 461227.0 0
119093.0 462372.0 0
125465.0 460849.0 0
129028.0 461724.0 0
132668.0 462477.0 0
142488.0 459833.0 0
146274.0 460189.0 0
149769.0 459134.0 0
153573.0 459580.0 0
157422.0 459917.0 0
161283.0 460195.0 0
165146.0 460425.0 0
169006.0 460613.0 0
172861.0 460760.0 0
176708.0 460871.0 0
180547.0 460949.0 0
184375.0 461001.0 0
188194.0 461031.0 0
192004.0 461046.0 0
195805.0 461049.0 0
199600.0 461042.0 0
203386.0 461026.0 0
207164.0 461001.0 0
210930.0 460967.0 0
214685.0 460926.0 0
218426.0 460881.0 0
222155.0 460835.0 0
225871.0 460793.0 0
229576.0 460757.0 0
233270.0 460733.0 0
236956.0 460722.0 0
240633.0 460727.0 0
244303.0 460750.0 0
268089.0 458260.0 0
271747.0 458488.0 0
275419.0 458728.0 0
279105.0 458974.0 0
282806.0 459219.0 0
286521.0 459459.0 0
290250.0 459689.0 0
293990.0 459907.0 0
297741.0 460110.0 0
301500.0 460297.0 0
305266.0 460465.0 0
309037.0 460614.0 0
312811.0 460745.0 0
316587.0 460858.0 0
320363.0 460957.0 0
324135.0 461047.0 0
327913.0 461119.0 0
331700.0 461161.0 0
335497.0 461157.0 0
339292.0 461102.0 0
343073.0 460999.0 0
346826.0 460856.0 0
350528.0 460702.0 0
354125.0 460546.0 0
360519.0 460823.0 0
364077.0 460954.0 0
367782.0 460840.0 0
371481.0 460475.0 0
374918.0 460395.0 0
381130.0 462604.0 0
384816.0 461761.0 0
388426.0 460825.0 0
398261.0 461256.0 0
404515.0 462589.0 0
407996.0 461371.0 0
414304.0 462700.0 0
417712.0 461374.0 0
420777.0 463816.0 0
424209.0 462387.0 0
430839.0 462912.0 0
437499.0 463274.0 0
58275.3 465919.0 0
61639.9 463812.0 0
65030.3 465495.0 0
71748.9 464930.0 0
78452.5 464210.0 0
81877.0 465643.0 0
88622.5 464760.0 0
95469.0 463940.0 0
99078.9 465334.0 0
105904.0 464532.0 0
109572.0 465886.0 0
112579.0 463600.0 0
116204.0 464772.0 0
122685.0 463380.0 0
126338.0 464248.0 0
130062.0 465011.0 0
136448.0 462854.0 0
140016.0 462602.0 0
143798.0 462969.0 0
147633.0 463065.0 0
151258.0 462594.0 0
155065.0 462873.0 0
158911.0 463136.0 0
162771.0 463371.0 0
166634.0 463572.0 0
170497.0 463739.0 0
174357.0 463871.0 0
247966.0 460796.0 0
251623.0 460866.0 0
255277.0 460965.0 0
258931.0 461094.0 0
262587.0 461251.0 0
266250.0 461435.0 0
269923.0 461638.0 0
273606.0 461856.0 0
277303.0 462082.0 0
281013.0 462310.0 0
284737.0 462536.0 0
288474.0 462755.0 0
292223.0 462965.0 0
295983.0 463161.0 0
299754.0 463343.0 0
303532.0 463509.0 0
307316.0 463658.0 0
311105.0 463790.0 0
357281.0 463058.0 0
362401.0 464212.0 0
366141.0 464079.0 0
369892.0 463810.0 0
373569.0 463589.0 0
377312.0 463190.0 0
387372.0 464298.0 0
391052.0 463357.0 0
394682.0 462350.0 0
397363.0 464899.0 0
400970.0 463780.0 0
407300.0 465134.0 0
410828.0 463934.0 0
413771.0 466442.0 0
417308.0 465144.0 0
423938.0 466117.0 0
427415.0 464558.0 0
434109.0 464998.0 0
440815.0 465350.0 0
54905.6 468029.0 0
61698.1 467643.0 0
68447.7 467134.0 0
75162.0 466458.0 0
78603.1 467927.0 0
85331.4 467030.0 0
88805.9 468378.0 0
92093.2 466107.0 0
95540.7 467470.0 0
102768.0 466714.0 0
106504.0 468105.0 0
113284.0 467200.0 0
117066.0 468256.0 0
119919.0 465908.0 0
123684.0 466816.0 0
127472.0 467597.0 0
133889.0 465559.0 0
137734.0 465810.0 0
141439.0 465858.0 0
145267.0 466047.0 0
149098.0 466058.0 0
152795.0 465947.0 0
178210.0 463973.0 0
182056.0 464047.0 0
185894.0 464099.0 0
189722.0 464132.0 0
193542.0 464152.0 0
197354.0 464161.0 0
201158.0 464161.0 0
204954.0 464153.0 0
208740.0 464138.0 0
212516.0 464116.0 0
216280.0 464089.0 0
220032.0 464060.0 0
223772.0 464032.0 0
227501.0 464009.0 0
231219.0 463993.0 0
234928.0 463989.0 0
238628.0 463997.0 0
242320.0 464021.0 0
246006.0 464064.0 0
249686.0 464128.0 0
253363.0 464216.0 0
257038.0 464329.0 0
260714.0 464468.0 0
264395.0 464630.0 0
268082.0 464813.0 0
271780.0 465010.0 0
275488.0 465217.0 0
279209.0 465429.0 0
282942.0 465640.0 0
286688.0 465847.0 0
290446.0 466047.0 0
294216.0 466236.0 0
314898.0 463904.0 0
318691.0 464003.0 0
322485.0 464090.0 0
326281.0 464160.0 0
330083.0 464205.0 0
333889.0 464215.0 0
337695.0 464182.0 0
341494.0 464107.0 0
345281.0 463993.0 0
349064.0 463854.0 0
352877.0 463704.0 0
355441.0 466212.0 0
359280.0 465901.0 0
364673.0 467459.0 0
368395.0 467156.0 0
372144.0 466842.0 0
375948.0 466422.0 0
379784.0 465850.0 0
383624.0 465148.0 0
389961.0 466860.0 0
393694.0 465920.0 0
400071.0 467470.0 0
403714.0 466326.0 0
406530.0 468868.0 0
410176.0 467673.0 0
416797.0 468900.0 0
420398.0 467558.0 0
427169.0 468328.0 0
430669.0 466684.0 0
433975.0 468809.0 0
437409.0 467097.0 0
440720.0 469212.0 0
444147.0 467436.0 0
51529.0 470144.0 0
58359.4 469793.0 0
65147.8 469331.0 0
68622.6 470977.0 0
71887.3 468722.0 0
75349.4 470238.0 0
82072.1 469343.0 0
85563.7 470709.0 0
92280.0 469723.0 0
95734.7 471099.0 0
98932.0 468856.0 0
102265.0 470205.0 0
110312.0 469479.0 0
114357.0 470744.0 0
121088.0 469399.0 0
124911.0 470236.0 0
131319.0 468220.0 0
135207.0 468651.0 0
139064.0 468906.0 0
142880.0 469029.0 0
156595.0 466147.0 0
160432.0 466363.0 0
164288.0 466563.0 0
168151.0 466739.0 0
172017.0 466886.0 0
175881.0 467006.0 0
179741.0 467099.0 0
183594.0 467170.0 0
187439.0 467222.0 0
191276.0 467259.0 0
195105.0 467283.0 0
198926.0 467298.0 0
202739.0 467306.0 0
206544.0 467306.0 0
210339.0 467301.0 0
214124.0 467291.0 0
217897.0 467278.0 0
221660.0 467265.0 0
225411.0 467254.0 0
229152.0 467248.0 0
232884.0 467251.0 0
236606.0 467265.0 0
240321.0 467291.0 0
244029.0 467333.0 0
247732.0 467394.0 0
251430.0 467474.0 0
255126.0 467575.0 0
258822.0 467699.0 0
262520.0 467844.0 0
266225.0 468008.0 0
269936.0 468187.0 0
273658.0 468377.0 0
277390.0 468572.0 0
297996.0 466413.0 0
301786.0 466575.0 0
305583.0 466722.0 0
309386.0 466853.0 0
313193.0 466968.0 0
317004.0 467069.0 0
320817.0 467155.0 0
324632.0 467225.0 0
328449.0 467274.0 0
332270.0 467295.0 0
336091.0 467281.0 0
339909.0 467226.0 0
343722.0 467131.0 0
347531.0 466989.0 0
351369.0 466772.0 0
357576.0 469170.0 0
361342.0 468729.0 0
367051.0 470637.0 0
370778.0 470191.0 0
374578.0 469721.0 0
378429.0 469154.0 0
382300.0 468480.0 0
386159.0 467722.0 0
396363.0 468518.0 0
399070.0 471139.0 0
402826.0 470042.0 0
409426.0 471402.0 0
413136.0 470181.0 0
419894.0 471317.0 0
423574.0 469883.0 0
430520.0 470475.0 0
437271.0 470961.0 0
444041.0 471342.0 0
447490.0 469529.0 0
450846.0 471630.0 0
48144.9 472263.0 0
55010.4 471944.0 0
58521.5 473707.0 0
61841.1 471520.0 0
65352.7 473212.0 0
72116.0 472569.0 0
78839.6 471687.0 0
82355.2 473084.0 0
89064.2 472045.0 0
92572.1 473394.0 0
99175.4 472498.0 0
102609.0 473886.0 0
105539.0 471513.0 0
108797.0 472692.0 0
118259.0 471656.0 0
122392.0 472920.0 0
128767.0 470913.0 0
132668.0 471429.0 0
136572.0 471805.0 0
146731.0 469152.0 0
150547.0 469200.0 0
154309.0 469243.0 0
158122.0 469412.0 0
161965.0 469595.0 0
165824.0 469768.0 0
169692.0 469922.0 0
173562.0 470054.0 0
177432.0 470162.0 0
181297.0 470249.0 0
185157.0 470318.0 0
189009.0 470370.0 0
192854.0 470410.0 0
196692.0 470439.0 0
200522.0 470461.0 0
204343.0 470476.0 0
208156.0 470485.0 0
211960.0 470490.0 0
215753.0 470492.0 0
219536.0 470492.0 0
223309.0 470494.0 0
227072.0 470499.0 0
230825.0 470510.0 0
234569.0 470530.0 0
238306.0 470560.0 0
242036.0 470603.0 0
245759.0 470662.0 0
249479.0 470737.0 0
253195.0 470830.0 0
256911.0 470943.0 0
260628.0 471074.0 0
264349.0 471222.0 0
281133.0 468769.0 0
284889.0 468964.0 0
288656.0 469154.0 0
292436.0 469335.0 0
296226.0 469505.0 0
300026.0 469663.0 0
303834.0 469807.0 0
307650.0 469936.0 0
311471.0 470052.0 0
315297.0 470153.0 0
319128.0 470239.0 0
322961.0 470311.0 0
326797.0 470364.0 0
330637.0 470394.0 0
334478.0 470393.0 0
338320.0 470356.0 0
342163.0 470275.0 0
346011.0 470141.0 0
349881.0 469918.0 0
353750.0 469489.0 0
369540.0 473644.0 0
373284.0 473108.0 0
377098.0 472519.0 0
380964.0 471853.0 0
384848.0 471118.0 0
388735.0 470316.0 0
392580.0 469457.0 0
401850.0 473748.0 0
405664.0 472578.0 0
412374.0 473924.0 0
416156.0 472657.0 0
423701.0 473669.0 0
427092.0 472107.0 0
433803.0 472671.0 0
440576.0 473117.0 0
447372.0 473470.0 0
454216.0 473739.0 0
51652.4 474099.0 0
55188.7 475898.0 0
62063.0 475435.0 0
68890.5 474875.0 0
75630.5 474065.0 0
79180.6 475483.0 0
85882.1 474434.0 0
89423.0 475751.0 0
96087.0 474780.0 0
99613.3 476188.0 0
106064.0 475223.0 0
109592.0 476358.0 0
112159.0 473596.0 0
115753.0 474310.0 0
126245.0 473660.0 0
130143.0 474225.0 0
140460.0 472048.0 0
144324.0 472197.0 0
148179.0 472321.0 0
152007.0 472415.0 0
155818.0 472518.0 0
159655.0 472672.0 0
163511.0 472833.0 0
167379.0 472985.0 0
171254.0 473122.0 0
175131.0 473240.0 0
179007.0 473340.0 0
182879.0 473422.0 0
186745.0 473489.0 0
190604.0 473542.0 0
194457.0 473585.0 0
198302.0 473620.0 0
202140.0 473648.0 0
205969.0 473670.0 0
209790.0 473688.0 0
213602.0 473704.0 0
217404.0 473717.0 0
221196.0 473731.0 0
224979.0 473747.0 0
228753.0 473767.0 0
232519.0 473793.0 0
236276.0 473828.0 0
268076.0 471385.0 0
271810.0 471558.0 0
275555.0 471739.0 0
279309.0 471922.0 0
283075.0 472105.0 0
286852.0 472284.0 0
290641.0 472457.0 0
294440.0 472620.0 0
298250.0 472773.0 0
302069.0 472913.0 0
305896.0 473041.0 0
309730.0 473155.0 0
313570.0 473256.0 0
317415.0 473343.0 0
321266.0 473416.0 0
325120.0 473473.0 0
328978.0 473509.0 0
332841.0 473518.0 0
336706.0 473495.0 0
340573.0 473431.0 0
344439.0 473312.0 0
348310.0 473113.0 0
352192.0 472798.0 0
356009.0 472459.0 0
359812.0 472104.0 0
363545.0 471510.0 0
375840.0 475964.0 0
379655.0 475288.0 0
383521.0 474553.0 0
387417.0 473765.0 0
391327.0 472943.0 0
395224.0 472094.0 0
397895.0 474746.0 0
404707.0 476276.0 0
408557.0 475123.0 0
416887.0 476388.0 0
420305.0 475093.0 0
426895.0 475999.0 0
430342.0 474355.0 0
433586.0 476596.0 0
437080.0 474873.0 0
440372.0 477050.0 0
443899.0 475301.0 0
450708.0 475604.0 0
58752.4 477659.0 0
65639.3 477133.0 0
69248.6 478824.0 0
72446.4 476478.0 0
76034.6 477926.0 0
82741.1 476876.0 0
86295.3 478200.0 0
92990.7 477094.0 0
96576.1 478485.0 0
103171.0 477581.0 0
106801.0 478903.0 0
113207.0 477186.0 0
116873.0 477860.0 0
119486.0 475114.0 0
123762.0 476467.0 0
127656.0 477074.0 0
134064.0 474667.0 0
137987.0 475000.0 0
141894.0 475233.0 0
145778.0 475400.0 0
149646.0 475539.0 0
153498.0 475660.0 0
157345.0 475786.0 0
161205.0 475931.0 0
165077.0 476077.0 0
168957.0 476214.0 0
172840.0 476338.0 0
176724.0 476446.0 0
180606.0 476539.0 0
184484.0 476618.0 0
188356.0 476684.0 0
192223.0 476739.0 0
196082.0 476786.0 0
240026.0 473874.0 0
243771.0 473932.0 0
247511.0 474004.0 0
251247.0 474092.0 0
254982.0 474196.0 0
258717.0 474316.0 0
262455.0 474452.0 0
266197.0 474601.0 0
269946.0 474760.0 0
273703.0 474927.0 0
277469.0 475098.0 0
281245.0 475270.0 0
285032.0 475439.0 0
288830.0 475603.0 0
292638.0 475759.0 0
296457.0 475906.0 0
300285.0 476042.0 0
304122.0 476167.0 0
307968.0 476279.0 0
311820.0 476379.0 0
315679.0 476466.0 0
319544.0 476540.0 0
323415.0 476599.0 0
327291.0 476640.0 0
331172.0 476658.0 0
335058.0 476647.0 0
338947.0 476599.0 0
342841.0 476501.0 0
346734.0 476336.0 0
350622.0 476083.0 0
354482.0 475776.0 0
358328.0 475432.0 0
362153.0 474996.0 0
365897.0 474304.0 0
372061.0 476591.0 0
382215.0 478059.0 0
386085.0 477260.0 0
389980.0 476442.0 0
393888.0 475612.0 0
396457.0 478304.0 0
400555.0 477403.0 0
409928.0 478636.0 0
413430.0 477565.0 0
419911.0 478949.0 0
423420.0 477546.0 0
430110.0 478313.0 0
436826.0 478844.0 0
62345.1 479382.0 0
65960.3 481077.0 0
79623.8 479316.0 0
83196.0 480739.0 0
89888.9 479466.0 0
93514.3 480806.0 0
100186.0 479889.0 0
103868.0 481252.0 0
110487.0 479972.0 0
114225.0 480740.0 0
120664.0 478521.0 0
131580.0 477549.0 0
135514.0 477936.0 0
139447.0 478236.0 0
143365.0 478461.0 0
147264.0 478637.0 0
151150.0 478786.0 0
155026.0 478922.0 0
158900.0 479057.0 0
162780.0 479196.0 0
166667.0 479331.0 0
199935.0 476825.0 0
203780.0 476860.0 0
207617.0 476890.0 0
211445.0 476917.0 0
215265.0 476942.0 0
219075.0 476967.0 0
222877.0 476993.0 0
226670.0 477023.0 0
230455.0 477056.0 0
234232.0 477097.0 0
238003.0 477146.0 0
241767.0 477205.0 0
245526.0 477277.0 0
249282.0 477361.0 0
253035.0 477459.0 0
256788.0 477571.0 0
260543.0 477696.0 0
264301.0 477834.0 0
268064.0 477981.0 0
271834.0 478136.0 0
275611.0 478295.0 0
279398.0 478456.0 0
283195.0 478616.0 0
287002.0 478771.0 0
290819.0 478921.0 0
294646.0 479062.0 0
298483.0 479193.0 0
302329.0 479314.0 0
349036.0 479369.0 0
352941.0 479090.0 0
356842.0 478750.0 0
360720.0 478381.0 0
364559.0 477866.0 0
368312.0 477221.0 0
374576.0 479491.0 0
378391.0 478800.0 0
388648.0 479994.0 0
392542.0 479157.0 0
398965.0 481088.0 0
402738.0 480421.0 0
406377.0 479616.0 0
412744.0 481360.0 0
416352.0 480217.0 0
422999.0 481471.0 0
426579.0 479944.0 0
440182.0 480995.0 0
74901.2 481688.0 0
79025.6 483159.0 0
86821.3 481982.0 0
90449.9 483172.0 0
97138.5 482206.0 0
100810.0 483579.0 0
107643.0 482605.0 0
111491.0 483596.0 0
118046.0 481326.0 0
121919.0 481848.0 0
125225.0 479996.0 0
129136.0 480488.0 0
133067.0 480897.0 0
137009.0 481236.0 0
140949.0 481508.0 0
144877.0 481724.0 0
148791.0 481902.0 0
170557.0 479456.0 0
174449.0 479570.0 0
178340.0 479671.0 0
182228.0 479759.0 0
186112.0 479835.0 0
189991.0 479902.0 0
193864.0 479959.0 0
197730.0 480010.0 0
201589.0 480055.0 0
205441.0 480096.0 0
209285.0 480134.0 0
213120.0 480170.0 0
216948.0 480205.0 0
220767.0 480241.0 0
224578.0 480279.0 0
228381.0 480320.0 0
232177.0 480367.0 0
235966.0 480420.0 0
239749.0 480482.0 0
243527.0 480553.0 0
247301.0 480635.0 0
251072.0 480730.0 0
254842.0 480836.0 0
258613.0 480953.0 0
262386.0 481082.0 0
266164.0 481219.0 0
269946.0 481364.0 0
273736.0 481513.0 0
277534.0 481664.0 0
306184.0 479424.0 0
310047.0 479522.0 0
313917.0 479609.0 0
317795.0 479683.0 0
321680.0 479743.0 0
325572.0 479787.0 0
329471.0 479811.0 0
333377.0 479810.0 0
337289.0 479777.0 0
341204.0 479702.0 0
345124.0 479568.0 0
355328.0 482055.0 0
359258.0 481728.0 0
363154.0 481323.0 0
366989.0 480772.0 0
370776.0 480141.0 0
377102.0 482369.0 0
380931.0 481634.0 0
384772.0 480824.0 0
395092.0 481919.0 0
401499.0 484062.0 0
405319.0 483310.0 0
409072.0 482395.0 0
415672.0 484039.0 0
419359.0 482818.0 0
75858.6 485546.0 0
82707.8 484647.0 0
86468.9 485824.0 0
94061.4 484549.0 0
97731.8 485939.0 0
101476.0 487277.0 0
104542.0 484896.0 0
108642.0 486328.0 0
115434.0 484196.0 0
119350.0 484728.0 0
126739.0 483504.0 0
130659.0 483913.0 0
134599.0 484263.0 0
138548.0 484561.0 0
152695.0 482057.0 0
156592.0 482199.0 0
160486.0 482336.0 0
164383.0 482469.0 0
168281.0 482596.0 0
172181.0 482713.0 0
176081.0 482820.0 0
179979.0 482916.0 0
183873.0 483000.0 0
187763.0 483076.0 0
191648.0 483143.0 0
195526.0 483203.0 0
199399.0 483258.0 0
203264.0 483308.0 0
207122.0 483356.0 0
210973.0 483402.0 0
214815.0 483447.0 0
218650.0 483491.0 0
222478.0 483537.0 0
226298.0 483586.0 0
230111.0 483639.0 0
233917.0 483697.0 0
237718.0 483761.0 0
241514.0 483834.0 0
245305.0 483916.0 0
249093.0 484008.0 0
252880.0 484110.0 0
256667.0 484222.0 0
281340.0 481815.0 0
285156.0 481962.0 0
288982.0 482105.0 0
292817.0 482240.0 0
296662.0 482367.0 0
300516.0 482485.0 0
304379.0 482592.0 0
308251.0 482688.0 0
312131.0 482773.0 0
316019.0 482846.0 0
319916.0 482907.0 0
323820.0 482952.0 0
327733.0 482980.0 0
331656.0 482987.0 0
335586.0 482966.0 0
339524.0 482910.0 0
343470.0 482808.0 0
347414.0 482650.0 0
351358.0 482416.0 0
365601.0 484287.0 0
369440.0 483713.0 0
373274.0 483048.0 0
379635.0 485247.0 0
383468.0 484456.0 0
387326.0 483600.0 0
391208.0 482759.0 0
397638.0 484757.0 0
404215.0 486958.0 0
408100.0 486085.0 0
411924.0 485116.0 0
418660.0 486700.0 0
79567.8 487090.0 0
90204.4 486887.0 0
93839.1 488280.0 0
97439.6 489669.0 0
112928.0 487087.0 0
123272.0 485147.0 0
128296.0 487000.0 0
142495.0 484808.0 0
146433.0 485014.0 0
150361.0 485191.0 0
154280.0 485347.0 0
158193.0 485491.0 0
162103.0 485627.0 0
166012.0 485756.0 0
169922.0 485876.0 0
173830.0 485987.0 0
177737.0 486088.0 0
181640.0 486180.0 0
185540.0 486263.0 0
189436.0 486338.0 0
193326.0 486407.0 0
197210.0 486470.0 0
201088.0 486530.0 0
204959.0 486586.0 0
208823.0 486641.0 0
212680.0 486694.0 0
216529.0 486747.0 0
220372.0 486801.0 0
224207.0 486856.0 0
228036.0 486915.0 0
260455.0 484343.0 0
264246.0 484473.0 0
268041.0 484609.0 0
271843.0 484749.0 0
275651.0 484892.0 0
279467.0 485034.0 0
283292.0 485175.0 0
287126.0 485311.0 0
290969.0 485441.0 0
294822.0 485564.0 0
298683.0 485678.0 0
302554.0 485782.0 0
306433.0 485876.0 0
310321.0 485959.0 0
314218.0 486031.0 0
318123.0 486091.0 0
322038.0 486137.0 0
325961.0 486168.0 0
329895.0 486180.0 0
333839.0 486168.0 0
337792.0 486128.0 0
341752.0 486052.0 0
345718.0 485932.0 0
349686.0 485755.0 0
353819.0 485338.0 0
357769.0 485052.0 0
361703.0 484725.0 0
371935.0 486635.0 0
375786.0 485965.0 0
382168.0 488145.0 0
386011.0 487264.0 0
389876.0 486401.0 0
393758.0 485564.0 0
407114.0 489758.0 0
410988.0 488832.0 0
414844.0 487852.0 0
84494.2 489208.0 0
90674.2 490647.0 0
94346.2 492079.0 0
101015.0 490977.0 0
105414.0 488524.0 0
110312.0 489857.0 0
116848.0 487655.0 0
120777.0 488114.0 0
124712.0 488447.0 0
132227.0 487340.0 0
136176.0 487642.0 0
140132.0 487905.0 0
144085.0 488132.0 0
148032.0 488329.0 0
151971.0 488501.0 0
155902.0 488657.0 0
159827.0 488800.0 0
163749.0 488933.0 0
167669.0 489057.0 0
171587.0 489173.0 0
175502.0 489279.0 0
179415.0 489376.0 0
183324.0 489466.0 0
187229.0 489548.0 0
191130.0 489623.0 0
195025.0 489694.0 0
198914.0 489761.0 0
231859.0 486977.0 0
235676.0 487046.0 0
239488.0 487121.0 0
243296.0 487204.0 0
247100.0 487295.0 0
250903.0 487394.0 0
254704.0 487502.0 0
258506.0 487618.0 0
262311.0 487741.0 0
266119.0 487870.0 0
269932.0 488003.0 0
273751.0 488139.0 0
277577.0 488274.0 0
281410.0 488408.0 0
285252.0 488539.0 0
289103.0 488664.0 0
292962.0 488782.0 0
296831.0 488893.0 0
300708.0 488995.0 0
304594.0 489087.0 0
308488.0 489168.0 0
312392.0 489239.0 0
316304.0 489298.0 0
320226.0 489344.0 0
324157.0 489376.0 0
328098.0 489392.0 0
332050.0 489387.0 0
336011.0 489361.0 0
339980.0 489305.0 0
343954.0 489219.0 0
347928.0 489092.0 0
352270.0 488593.0 0
356235.0 488365.0 0
360193.0 488094.0 0
364144.0 487753.0 0
368055.0 487279.0 0
378321.0 488901.0 0
384711.0 490991.0 0
388557.0 490091.0 0
392429.0 489231.0 0
396318.0 488411.0 0
400220.0 487662.0 0
409973.0 492563.0 0
413869.0 491682.0 0
87070.7 492219.0 0
91223.7 494479.0 0
98018.3 493476.0 0
104595.0 492157.0 0
108244.0 493044.0 0
114380.0 490618.0 0
118323.0 491115.0 0
122274.0 491497.0 0
126223.0 491762.0 0
129900.0 490484.0 0
133841.0 490770.0 0
137797.0 491032.0 0
141758.0 491269.0 0
145718.0 491479.0 0
149672.0 491665.0 0
153619.0 491833.0 0
157559.0 491986.0 0
161494.0 492126.0 0
165424.0 492256.0 0
169352.0 492376.0 0
202797.0 489825.0 0
206674.0 489887.0 0
210543.0 489948.0 0
214406.0 490009.0 0
218261.0 490070.0 0
222111.0 490132.0 0
225954.0 490196.0 0
229791.0 490264.0 0
233624.0 490336.0 0
237451.0 490413.0 0
241274.0 490498.0 0
245094.0 490589.0 0
248911.0 490687.0 0
252727.0 490793.0 0
256542.0 490906.0 0
260359.0 491024.0 0
264179.0 491148.0 0
268003.0 491275.0 0
271833.0 491404.0 0
275668.0 491534.0 0
279511.0 491662.0 0
283361.0 491788.0 0
287219.0 491908.0 0
291085.0 492023.0 0
294959.0 492131.0 0
298842.0 492230.0 0
350646.0 491827.0 0
354625.0 491665.0 0
358601.0 491448.0 0
362580.0 491174.0 0
366560.0 490822.0 0
370589.0 490199.0 0
374471.0 489587.0 0
391110.0 492935.0 0
394999.0 492085.0 0
398901.0 491288.0 0
402859.0 490528.0 0
87636.4 496152.0 0
94951.3 495909.0 0
101726.0 494752.0 0
105553.0 495868.0 0
112019.0 493644.0 0
115924.0 494162.0 0
119876.0 494572.0 0
131547.0 493960.0 0
135497.0 494204.0 0
139459.0 494435.0 0
143424.0 494650.0 0
147388.0 494845.0 0
173276.0 492487.0 0
177198.0 492590.0 0
181116.0 492685.0 0
185030.0 492772.0 0
188939.0 492854.0 0
192844.0 492931.0 0
196743.0 493004.0 0
200637.0 493075.0 0
204525.0 493144.0 0
208406.0 493212.0 0
212281.0 493280.0 0
216149.0 493347.0 0
220011.0 493415.0 0
223867.0 493485.0 0
227717.0 493557.0 0
231563.0 493633.0 0
235405.0 493713.0 0
239242.0 493799.0 0
243075.0 493891.0 0
246906.0 493990.0 0
250735.0 494095.0 0
254564.0 494205.0 0
258393.0 494321.0 0
262224.0 494440.0 0
266058.0 494563.0 0
269898.0 494687.0 0
302734.0 492320.0 0
306634.0 492400.0 0
310543.0 492470.0 0
314461.0 492528.0 0
318388.0 492575.0 0
322324.0 492608.0 0
326270.0 492625.0 0
330225.0 492627.0 0
334190.0 492610.0 0
338162.0 492572.0 0
342138.0 492512.0 0
346112.0 492428.0 0
348949.0 495060.0 0
352934.0 494954.0 0
356922.0 494791.0 0
360909.0 494577.0 0
364891.0 494306.0 0
369188.0 493713.0 0
373108.0 493200.0 0
377001.0 492569.0 0
380871.0 491841.0 0
387243.0 493833.0 0
393692.0 495787.0 0
397606.0 494957.0 0
401556.0 494130.0 0
405650.0 493299.0 0
91847.7 498343.0 0
98706.4 497297.0 0
102596.0 498459.0 0
123842.0 494885.0 0
127803.0 495099.0 0
133233.0 497431.0 0
151348.0 495024.0 0
155301.0 495186.0 0
159247.0 495335.0 0
163189.0 495472.0 0
167126.0 495598.0 0
171059.0 495714.0 0
174989.0 495822.0 0
178915.0 495921.0 0
182837.0 496014.0 0
186755.0 496101.0 0
190669.0 496183.0 0
194578.0 496261.0 0
198481.0 496338.0 0
202379.0 496413.0 0
206271.0 496487.0 0
210156.0 496561.0 0
214035.0 496634.0 0
217908.0 496708.0 0
221776.0 496783.0 0
225638.0 496859.0 0
229496.0 496938.0 0
233350.0 497021.0 0
237201.0 497109.0 0
241047.0 497203.0 0
244891.0 497302.0 0
273742.0 494812.0 0
277593.0 494935.0 0
281451.0 495057.0 0
285316.0 495173.0 0
289189.0 495285.0 0
293069.0 495390.0 0
296958.0 495487.0 0
300855.0 495575.0 0
304760.0 495655.0 0
308673.0 495724.0 0
312595.0 495782.0 0
316526.0 495828.0 0
320466.0 495862.0 0
324415.0 495883.0 0
328372.0 495888.0 0
332338.0 495879.0 0
336310.0 495854.0 0
340285.0 495815.0 0
344257.0 495763.0 0
367585.0 497126.0 0
371646.0 496793.0 0
375597.0 496236.0 0
379521.0 495574.0 0
383405.0 494827.0 0
389807.0 496685.0 0
400325.0 497773.0 0
404325.0 496922.0 0
408416.0 496147.0 0
88285.4 500085.0 0
95588.0 499763.0 0
99663.6 501086.0 0
109516.0 496723.0 0
113489.0 497242.0 0
117497.0 497677.0 0
121486.0 498021.0 0
125470.0 498280.0 0
129441.0 498461.0 0
137191.0 497644.0 0
141157.0 497851.0 0
145127.0 498048.0 0
149094.0 498232.0 0
153057.0 498403.0 0
157013.0 498560.0 0
160964.0 498704.0 0
164910.0 498837.0 0
168852.0 498959.0 0
172790.0 499071.0 0
176724.0 499176.0 0
180654.0 499273.0 0
184580.0 499365.0 0
188501.0 499451.0 0
192418.0 499534.0 0
196330.0 499615.0 0
200237.0 499694.0 0
204138.0 499774.0 0
208033.0 499853.0 0
211922.0 499933.0 0
215806.0 500012.0 0
248732.0 497407.0 0
252572.0 497516.0 0
256412.0 497630.0 0
260253.0 497747.0 0
264098.0 497866.0 0
267946.0 497987.0 0
271799.0 498108.0 0
275658.0 498228.0 0
279523.0 498345.0 0
283395.0 498459.0 0
287274.0 498568.0 0
291161.0 498670.0 0
295055.0 498766.0 0
298956.0 498853.0 0
302866.0 498932.0 0
306784.0 499000.0 0
310709.0 499059.0 0
314643.0 499106.0 0
318586.0 499141.0 0
322536.0 499164.0 0
326494.0 499173.0 0
330460.0 499170.0 0
334430.0 499154.0 0
338404.0 499129.0 0
342374.0 499100.0 0
347189.0 498307.0 0
351175.0 498244.0 0
355169.0 498128.0 0
359163.0 497968.0 0
363150.0 497766.0 0
374115.0 499873.0 0
378115.0 499270.0 0
382075.0 498596.0 0
385980.0 497793.0 0
392412.0 499540.0 0
396301.0 498642.0 0
403079.0 500600.0 0
407022.0 499832.0 0
92462.1 502245.0 0
96600.3 503583.0 0
106695.0 499530.0 0
111038.0 500325.0 0
115109.0 500789.0 0
119155.0 501177.0 0
123166.0 501471.0 0
127155.0 501689.0 0
131128.0 501850.0 0
134955.0 500902.0 0
138918.0 501090.0 0
142889.0 501279.0 0
146861.0 501463.0 0
150830.0 501639.0 0
154794.0 501803.0 0
158752.0 501955.0 0
162706.0 502095.0 0
166655.0 502222.0 0
170601.0 502340.0 0
174543.0 502449.0 0
178480.0 502551.0 0
182413.0 502647.0 0
186341.0 502736.0 0
190266.0 502823.0 0
219683.0 500091.0 0
223556.0 500171.0 0
227425.0 500253.0 0
231290.0 500338.0 0
235152.0 500428.0 0
239010.0 500523.0 0
242865.0 500624.0 0
246717.0 500730.0 0
250568.0 500840.0 0
254418.0 500953.0 0
258269.0 501068.0 0
262122.0 501185.0 0
265979.0 501303.0 0
269840.0 501421.0 0
273707.0 501538.0 0
277579.0 501653.0 0
281457.0 501764.0 0
285342.0 501871.0 0
289234.0 501972.0 0
293133.0 502066.0 0
297040.0 502153.0 0
300954.0 502231.0 0
304875.0 502299.0 0
308804.0 502358.0 0
312741.0 502406.0 0
316685.0 502443.0 0
320637.0 502468.0 0
324596.0 502481.0 0
328561.0 502483.0 0
332531.0 502474.0 0
336503.0 502459.0 0
340473.0 502442.0 0
345376.0 501580.0 0
349361.0 501544.0 0
353357.0 501464.0 0
357355.0 501349.0 0
361346.0 501204.0 0
365912.0 500534.0 0
369902.0 500266.0 0
380642.0 502306.0 0
384711.0 501576.0 0
388608.0 500727.0 0
395065.0 502386.0 0
399029.0 501420.0 0
103695.0 502142.0 0
108207.0 503087.0 0
112683.0 503886.0 0
116790.0 504323.0 0
120868.0 504673.0 0
124895.0 504925.0 0
136707.0 504374.0 0
140676.0 504545.0 0
144651.0 504721.0 0
148624.0 504898.0 0
152592.0 505068.0 0
156556.0 505227.0 0
160515.0 505373.0 0
194186.0 502907.0 0
198100.0 502991.0 0
202010.0 503074.0 0
205914.0 503159.0 0
209812.0 503243.0 0
213704.0 503328.0 0
217591.0 503412.0 0
221473.0 503496.0 0
225351.0 503580.0 0
229226.0 503667.0 0
233097.0 503758.0 0
236966.0 503854.0 0
240832.0 503956.0 0
244694.0 504064.0 0
248554.0 504175.0 0
252412.0 504289.0 0
256272.0 504404.0 0
260133.0 504520.0 0
263997.0 504636.0 0
267866.0 504752.0 0
271739.0 504867.0 0
275617.0 504979.0 0
279502.0 505089.0 0
283392.0 505194.0 0
343521.0 504885.0 0
347505.0 504863.0 0
351500.0 504808.0 0
355498.0 504726.0 0
359491.0 504625.0 0
364157.0 503934.0 0
368149.0 503744.0 0
372294.0 503363.0 0
376615.0 502929.0 0
387398.0 504530.0 0
391291.0 503626.0 0
397828.0 505131.0 0
401723.0 504275.0 0
405708.0 503577.0 0
93916.4 506508.0 0
100793.0 504848.0 0
105234.0 505712.0 0
109833.0 506621.0 0
128881.0 505120.0 0
132857.0 505265.0 0
138487.0 507849.0 0
164471.0 505506.0 0
168423.0 505628.0 0
172372.0 505742.0 0
176317.0 505848.0 0
180257.0 505948.0 0
184192.0 506041.0 0
188122.0 506130.0 0
192048.0 506216.0 0
195970.0 506303.0 0
199887.0 506390.0 0
203798.0 506478.0 0
207704.0 506567.0 0
211605.0 506657.0 0
215500.0 506746.0 0
219390.0 506834.0 0
223276.0 506921.0 0
227159.0 507009.0 0
231039.0 507100.0 0
234917.0 507196.0 0
238792.0 507300.0 0
242663.0 507409.0 0
246531.0 507523.0 0
250397.0 507639.0 0
287290.0 505293.0 0
291194.0 505387.0 0
295105.0 505473.0 0
299023.0 505551.0 0
302948.0 505621.0 0
306880.0 505680.0 0
310820.0 505730.0 0
314766.0 505769.0 0
318720.0 505796.0 0
322679.0 505812.0 0
326645.0 505818.0 0
330614.0 505814.0 0
334586.0 505805.0 0
338558.0 505796.0 0
357600.0 508037.0 0
362336.0 507333.0 0
366331.0 507205.0 0
370507.0 506876.0 0
374754.0 506423.0 0
379129.0 505980.0 0
383258.0 505276.0 0
394075.0 506470.0 0
98296.6 507952.0 0
102376.0 508473.0 0
106881.0 509264.0 0
114367.0 507441.0 0
118517.0 507851.0 0
122637.0 508165.0 0
126650.0 508400.0 0
130641.0 508569.0 0
134621.0 508704.0 0
142462.0 508010.0 0
146438.0 508181.0 0
150409.0 508354.0 0
154376.0 508520.0 0
158340.0 508673.0 0
162299.0 508811.0 0
166257.0 508937.0 0
170213.0 509054.0 0
174166.0 509164.0 0
178113.0 509268.0 0
182054.0 509366.0 0
185990.0 509457.0 0
189921.0 509545.0 0
193848.0 509632.0 0
197770.0 509721.0 0
201688.0 509813.0 0
205600.0 509906.0 0
209508.0 510000.0 0
213411.0 510093.0 0
217309.0 510186.0 0
221203.0 510277.0 0
225093.0 510367.0 0
254263.0 507754.0 0
258131.0 507870.0 0
262002.0 507985.0 0
265877.0 508100.0 0
269756.0 508213.0 0
273640.0 508324.0 0
277530.0 508432.0 0
281426.0 508536.0 0
285328.0 508635.0 0
289237.0 508728.0 0
293152.0 508814.0 0
297074.0 508893.0 0
301003.0 508963.0 0
304939.0 509024.0 0
308881.0 509075.0 0
312830.0 509116.0 0
316786.0 509147.0 0
320747.0 509166.0 0
324713.0 509175.0 0
328683.0 509175.0 0
332656.0 509169.0 0
336630.0 509163.0 0
341634.0 508223.0 0
345617.0 508207.0 0
349610.0 508168.0 0
353606.0 508109.0 0
360461.0 510743.0 0
364456.0 510651.0 0
368672.0 510374.0 0
372956.0 509955.0 0
377240.0 509480.0 0
381746.0 508953.0 0
385906.0 508229.0 0
390164.0 507438.0 0
398997.0 508829.0 0
402963.0 507992.0 0
99925.5 511609.0 0
111491.0 510168.0 0
116093.0 510989.0 0
120304.0 511366.0 0
124406.0 511678.0 0
128446.0 511884.0 0
132436.0 512038.0 0
136415.0 512167.0 0
140292.0 511331.0 0
144270.0 511489.0 0
148243.0 511663.0 0
152212.0 511835.0 0
156179.0 511995.0 0
160144.0 512140.0 0
164105.0 512268.0 0
168067.0 512386.0 0
172027.0 512498.0 0
175982.0 512607.0 0
179931.0 512711.0 0
183872.0 512806.0 0
187808.0 512895.0 0
191739.0 512982.0 0
195664.0 513072.0 0
199585.0 513164.0 0
228980.0 510457.0 0
232865.0 510551.0 0
236749.0 510654.0 0
240627.0 510766.0 0
244502.0 510883.0 0
248373.0 511002.0 0
252244.0 511120.0 0
256118.0 511236.0 0
259994.0 511351.0 0
263874.0 511464.0 0
267758.0 511576.0 0
271647.0 511686.0 0
275542.0 511794.0 0
279442.0 511897.0 0
283349.0 511996.0 0
287262.0 512089.0 0
291181.0 512176.0 0
295107.0 512255.0 0
299040.0 512326.0 0
302979.0 512389.0 0
306925.0 512442.0 0
310877.0 512486.0 0
314835.0 512519.0 0
318798.0 512542.0 0
322766.0 512554.0 0
326738.0 512557.0 0
330713.0 512553.0 0
334690.0 512548.0 0
339721.0 511593.0 0
343704.0 511578.0 0
347696.0 511548.0 0
351691.0 511503.0 0
355685.0 511450.0 0
379848.0 512451.0 0
384385.0 511917.0 0
388637.0 511118.0 0
392949.0 510296.0 0
401671.0 511738.0 0
104069.0 512073.0 0
108547.0 512841.0 0
113201.0 513722.0 0
117887.0 514520.0 0
122075.0 514908.0 0
126225.0 515189.0 0
130270.0 515385.0 0
142117.0 514820.0 0
146090.0 514993.0 0
150060.0 515171.0 0
154032.0 515338.0 0
158002.0 515492.0 0
161970.0 515628.0 0
165932.0 515741.0 0
203502.0 513259.0 0
207415.0 513357.0 0
211324.0 513456.0 0
215230.0 513553.0 0
219132.0 513648.0 0
223030.0 513740.0 0
226924.0 513831.0 0
230814.0 513923.0 0
234703.0 514021.0 0
238588.0 514134.0 0
242468.0 514256.0 0
246342.0 514381.0 0
250217.0 514501.0 0
254094.0 514618.0 0
257974.0 514733.0 0
261858.0 514846.0 0
265747.0 514958.0 0
269640.0 515067.0 0
273538.0 515174.0 0
277442.0 515277.0 0
281353.0 515376.0 0
285269.0 515469.0 0
289193.0 515557.0 0
293122.0 515637.0 0
337787.0 514993.0 0
341772.0 514977.0 0
345764.0 514951.0 0
349758.0 514915.0 0
353753.0 514873.0 0
358552.0 514169.0 0
362547.0 514099.0 0
366773.0 513850.0 0
371124.0 513477.0 0
375435.0 513026.0 0
387120.0 514806.0 0
391412.0 513979.0 0
396572.0 511957.0 0
101645.0 515234.0 0
105785.0 515716.0 0
110265.0 516424.0 0
114992.0 517267.0 0
134262.0 515530.0 0
138241.0 515648.0 0
143931.0 518334.0 0
169900.0 515851.0 0
173861.0 515964.0 0
177819.0 516072.0 0
181770.0 516175.0 0
185712.0 516269.0 0
189645.0 516355.0 0
193570.0 516444.0 0
197491.0 516535.0 0
201409.0 516631.0 0
205325.0 516730.0 0
209240.0 516833.0 0
213152.0 516934.0 0
217063.0 517033.0 0
220971.0 517129.0 0
224873.0 517224.0 0
228770.0 517313.0 0
232662.0 517406.0 0
236549.0 517513.0 0
240432.0 517640.0 0
244305.0 517775.0 0
248181.0 517899.0 0
252061.0 518018.0 0
255944.0 518133.0 0
297059.0 515710.0 0
301002.0 515774.0 0
304951.0 515830.0 0
308907.0 515876.0 0
312868.0 515912.0 0
316835.0 515938.0 0
320806.0 515954.0 0
324781.0 515961.0 0
328758.0 515959.0 0
332740.0 515952.0 0
335836.0 518421.0 0
339824.0 518402.0 0
343816.0 518379.0 0
347811.0 518348.0 0
351808.0 518312.0 0
356619.0 517614.0 0
360616.0 517557.0 0
364851.0 517327.0 0
369221.0 516972.0 0
373613.0 516569.0 0
378046.0 516005.0 0
382476.0 515423.0 0
395822.0 515856.0 0
399749.0 515206.0 0
119252.0 518255.0 0
123349.0 518675.0 0
127373.0 518992.0 0
131399.0 519191.0 0
135394.0 519335.0 0
139386.0 519438.0 0
147910.0 518527.0 0
151890.0 518700.0 0
155870.0 518862.0 0
159848.0 519008.0 0
163821.0 519135.0 0
167784.0 519223.0 0
171750.0 519339.0 0
175717.0 519450.0 0
179680.0 519559.0 0
183636.0 519663.0 0
187578.0 519752.0 0
191496.0 519843.0 0
195410.0 519930.0 0
199324.0 520025.0 0
203239.0 520123.0 0
207155.0 520224.0 0
211073.0 520332.0 0
214994.0 520432.0 0
218913.0 520531.0 0
222829.0 520630.0 0
226739.0 520726.0 0
230636.0 520812.0 0
259831.0 518246.0 0
263722.0 518357.0 0
267618.0 518466.0 0
271520.0 518573.0 0
275427.0 518676.0 0
279340.0 518774.0 0
283260.0 518869.0 0
287186.0 518957.0 0
291119.0 519039.0 0
295059.0 519113.0 0
299006.0 519179.0 0
302959.0 519237.0 0
306919.0 519286.0 0
310884.0 519325.0 0
314855.0 519354.0 0
318830.0 519374.0 0
322810.0 519385.0 0
326793.0 519387.0 0
330778.0 519377.0 0
354671.0 521081.0 0
358670.0 521029.0 0
362913.0 520810.0 0
367299.0 520468.0 0
371713.0 520080.0 0
376240.0 519566.0 0
380540.0 519099.0 0
384517.0 518838.0 0
388482.0 518552.0 0
392392.0 517851.0 0
142426.0 522013.0 0
169632.0 522729.0 0
173617.0 522843.0 0
177595.0 522955.0 0
181571.0 523064.0 0
185554.0 523165.0 0
197067.0 523530.0 0
201053.0 523591.0 0
234520.0 520913.0 0
238394.0 521031.0 0
242261.0 521186.0 0
246138.0 521315.0 0
250020.0 521435.0 0
253905.0 521551.0 0
257793.0 521664.0 0
261686.0 521775.0 0
265584.0 521884.0 0
269487.0 521990.0 0
273395.0 522093.0 0
277310.0 522192.0 0
281232.0 522287.0 0
285161.0 522376.0 0
289097.0 522459.0 0
293040.0 522535.0 0
296991.0 522604.0 0
300948.0 522664.0 0
304912.0 522715.0 0
308882.0 522758.0 0
312857.0 522790.0 0
316838.0 522814.0 0
320823.0 522828.0 0
324813.0 522833.0 0
328808.0 522828.0 0
333870.0 521875.0 0
337860.0 521854.0 0
341854.0 521832.0 0
345851.0 521804.0 0
349850.0 521770.0 0
192814.0 523588.0 0
205024.0 523660.0 0
208981.0 523741.0 0
212922.0 523845.0 0
216854.0 523946.0 0
220783.0 524046.0 0
224715.0 524146.0 0
228657.0 524246.0 0
232618.0 524392.0 0
236597.0 524566.0 0
POINT_DATA 4650
SCALARS Radius float 1
LOOKUP_TABLE default
4000.0 4000.0 4000.0 4000.0 4000.0 4000.0 4000.0 4000.0 4000.0 4000.0 4000.0 4000.0 4000.0 4000.0 4000.0 4000.0 4000.0 4000.0 4000.0 4000.0 4000.0 4000.0 4000.0 4000.0 4000.0 4000.0 4000.0 4000.0 4000.0 4000.0 4000.0 4000.0 4000.0 4000.0 4000.0 4000.0 4000.0 4000.0 4000.0 4000.0 4000.0 4000.0 4000.0 4000.0 4000.0 4000.0 4000.0 4000.0 4000.0 4000.0 4000.0 4000.0 4000.0 4000.0 4000.0 4000.0 4000.0 4000.0 4000.0 4000.0 4000.0 4000.0 4000.0 4000.0 4000.0 4000.0 4000.0 4000.0 4000.0 4000.0 4000.0 4000.0 4000.0 4000.0 4000.0 4000.0 4000.0 4000.0 4000.0 4000.0 4000.0 4000.0 4000.0 4000.0 4000.0 4000.0 4000.0 4000.0 4000.0 4000.0 4000.0 4000.0 4000.0 4000.0 4000.0 4000.0 4000.0 4000.0 4000.0 4000.0 4000.0 4000.0 4000.0 4000.0 4000.0 4000.0 4000.0 4000.0 4000.0 4000.0 4000.0 4000.0 4000.0 4000.0 4000.0 4000.0 4000.0 4000.0 4000.0 4000.0 4000.0 4000.0 4000.0 4000.0 4000.0 4000.0 4000.0 4000.0 4000.0 4000.0 4000.0 4000.0 4000.0 4000.0 4000.0 4000.0 4000.0 4000.0 4000.0 4000.0 4000.0 4000.0 4000.0 4000.0 4000.0 4000.0 4000.0 4000.0 4000.0 4000.0 4000.0 4000.0 4000.0 4000.0 4000.0 4000.0 4000.0 4000.0 4000.0 4000.0 4000.0 4000.0 4000.0 4000.0 4000.0 4000.0 4000.0 4000.0 4000.0 4000.0 4000.0 4000.0 4000.0 4000.0 4000.0 4000.0 4000.0 4000.0 4000.0 4000.0 4000.0 4000.0 4000.0 4000.0 4000.0 4000.0 4000.0 4000.0 4000.0 4000.0 4000.0 4000.0 4000.0 4000.0 4000.0 4000.0 4000.0 4000.0 4000.0 4000.0 4000.0 4000.0 4000.0 4000.0 4000.0 4000.0 4000.0 4000.0 4000.0 4000.0 4000.0 4000.0 4000.0 4000.0 4000.0 4000.0 4000.0 4000.0 4000.0 4000.0 4000.0 4000.0 4000.0 4000.0 4000.0 4000.0 4000.0 4000.0 4000.0 4000.0 4000.0 4000.0 4000.0 4000.0 4000.0 4000.0 4000.0 4000.0 4000.0 4000.0 4000.0 4000.0 4000.0 4000.0 4000.0 4000.0 4000.0 4000.0 4000.0 4000.0 4000.0 4000.0 4000.0 4000.0 4000.0 4000.0 4000.0 4000.0 4000.0 4000.0 4000.0 4000.0 4000.0 4000.0 4000.0 4000.0 4000.0 4000.0 4000.0 4000.0 4000.0 4000.0 4000.0 4000.0 4000.0 4000.0 4000.0 4000.0 4000.0 4000.0 4000.0 4000.0 4000.0 4000.0 4000.0 4000.0 4000.0 4000.0 4000.0 4000.0 4000.0 4000.0 4000.0 4000.0 4000.0 4000.0 4000.0 4000.0 4000.0 4000.0 4000.0 4000.0 4000.0 4000.0 4000.0 4000.0 4000.0 4000.0 4000.0 4000.0 4000.0 4000.0 4000.0 4000.0 4000.0 4000.0 4000.0 4000.0 4000.0 4000.0 4000.0 4000.0 4000.0 4000.0 4000.0 4000.0 4000.0 4000.0 4000.0 4000.0 4000.0 4000.0 4000.0 4000.0 4000.0 4000.0 4000.0 4000.0 4000.0 4000.0 4000.0 4000.0 4000.0 4000.0 4000.0 4000.0 4000.0 4000.0 4000.0 4000.0 4000.0 4000.0 4000.0 4000.0 4000.0 4000.0 4000.0 4000.0 4000.0 4000.0 4000.0 4000.0 4000.0 4000.0 4000.0 4000.0 4000.0 4000.0 4000.0 4000.0 4000.0 4000.0 4000.0 4000.0 4000.0 4000.0 4000.0 4000.0 4000.0 4000.0 4000.0 4000.0 4000.0 4000.0 4000.0 4000.0 4000.0 4000.0 4000.0 4000.0 4000.0 4000.0 4000.0 4000.0 4000.0 4000.0 4000.0 4000.0 4000.0 4000.0 4000.0 4000.0 4000.0 4000.0 4000.0 4000.0 4000.0 4000.0 4000.0 4000.0 4000.0 4000.0 4000.0 4000.0 4000.0 4000.0 4000.0 4000.0 4000.0 4000.0 4000.0 4000.0 4000.0 4000.0 4000.0 4000.0 4000.0 4000.0 4000.0 4000.0 4000.0 4000.0 4000.0 4000.0 4000.0 4000.0 4000.0 4000.0 4000.0 4000.0 4000.0 4000.0 4000.0 4000.0 4000.0 4000.0 4000.0 4000.0 4000.0 4000.0 4000.0 4000.0 4000.0 4000.0 4000.0 4000.0 4000.0 4000.0 4000.0 4000.0 4000.0 4000.0 4000.0 4000.0 4000.0 4000.0 4000.0 4000.0 4000.0 4000.0 4000.0 4000.0 4000.0 4000.0 4000.0 4000.0 4000.0 4000.0 4000.0 4000.0 4000.0 4000.0 4000.0 4000.0 4000.0 4000.0 4000.0 4000.0 4000.0 4000.0 4000.0 4000.0 4000.0 4000.0 4000.0 4000.0 4000.0 4000.0 4000.0 4000.0 4000.0 4000.0 4000.0 4000.0 4000.0 4000.0 4000.0 4000.0 4000.0 4000.0 4000.0 4000.0 4000.0 4000.0 4000.0 4000.0 4000.0 4000.0 4000.0 4000.0 4000.0 4000.0 4000.0 4000.0 4000.0 4000.0 4000.0 4000.0 4000.0 4000.0 4000.0 4000.0 4000.0 4000.0 4000.0 4000.0 4000.0 4000.0 4000.0 4000.0 4000.0 4000.0 4000.0 4000.0 4000.0 4000.0 4000.0 4000.0 4000.0 4000.0 4000.0 4000.0 4000.0 4000.0 4000.0 4000.0 4000.0 4000.0 4000.0 4000.0 4000.0 4000.0 4000.0 4000.0 4000.0 4000.0 4000.0 4000.0 4000.0 4000.0 4000.0 4000.0 4000.0 4000.0 4000.0 4000.0 4000.0 4000.0 4000.0 4000.0 4000.0 4000.0 4000.0 4000.0 4000.0 4000.0 4000.0 4000.0 4000.0 4000.0 4000.0 4000.0 4000.0 4000.0 4000.0 4000.0 4000.0 4000.0 4000.0 4000.0 4000.0 4000.0 4000.0 4000.0 4000.0 4000.0 4000.0 4000.0 4000.0 4000.0 4000.0 4000.0 4000.0 4000.0 4000.0 4000.0 4000.0 4000.0 4000.0 4000.0 4000.0 4000.0 4000.0 4000.0 4000.0 4000.0 4000.0 4000.0 4000.0 4000.0 4000.0 4000.0 4000.0 4000.0 4000.0 4000.0 4000.0 4000.0 4000.0 4000.0 4000.0 4000.0 4000.0 4000.0 4000.0 4000.0 4000.0 4000.0 4000.0 4000.0 4000.0 4000.0 4000.0 4000.0 4000.0 4000.0 4000.0 4000.0 4000.0 4000.0 4000.0 4000.0 4000.0 4000.0 4000.0 4000.0 4000.0 4000.0 4000.0 4000.0 4000.0 4000.0 4000.0 4000.0 4000.0 4000.0 4000.0 4000.0 4000.0 4000.0 4000.0 4000.0 4000.0 4000.0 4000.0 4000.0 4000.0 4000.0 4000.0 4000.0 4000.0 4000.0 4000.0 4000.0 4000.0 4000.0 4000.0 4000.0 4000.0 4000.0 4000.0 4000.0 4000.0 4000.0 4000.0 4000.0 4000.0 4000.0 4000.0 4000.0 4000.0 4000.0 4000.0 4000.0 4000.0 4000.0 4000.0 4000.0 4000.0 4000.0 4000.0 4000.0 4000.0 4000.0 4000.0 4000.0 4000.0 4000.0 4000.0 4000.0 4000.0 4000.0 4000.0 4000.0 4000.0 4000.0 4000.0 4000.0 4000.0 4000.0 4000.0 4000.0 4000.0 4000.0 4000.0 4000.0 4000.0 4000.0 4000.0 4000.0 4000.0 4000.0 4000.0 4000.0 4000.0 4000.0 4000.0 4000.0 4000.0 4000.0 4000.0 4000.0 4000.0 4000.0 4000.0 4000.0 4000.0 4000.0 4000.0 4000.0 4000.0 4000.0 4000.0 4000.0 4000.0 4000.0 4000.0 4000.0 4000.0 4000.0 4000.0 4000.0 4000.0 4000.0 4000.0 4000.0 4000.0 4000.0 4000.0 4000.0 4000.0 4000.0 4000.0 4000.0 4000.0 4000.0 4000.0 4000.0 4000.0 4000.0 4000.0 4000.0 4000.0 4000.0 4000.0 4000.0 4000.0 4000.0 4000.0 4000.0 4000.0 4000.0 4000.0 4000.0 4000.0 4000.0 4000.0 4000.0 4000.0 4000.0 4000.0 4000.0 4000.0 4000.0 4000.0 4000.0 4000.0 4000.0 4000.0 4000.0 4000.0 4000.0 4000.0 4000.0 4000.0 4000.0 4000.0 4000.0 4000.0 4000.0 4000.0 4000.0 4000.0 4000.0 4000.0 4000.0 4000.0 4000.0 4000.0 4000.0 4000.0 4000.0 4000.0 4000.0 4000.0 4000.0 4000.0 4000.0 4000.0 4000.0 4000.0 4000.0 4000.0 4000.0 4000.0 4000.0 4000.0 4000.0 4000.0 4000.0 4000.0 4000.0 4000.0 4000.0 4000.0 4000.0 4000.0 4000.0 4000.0 4000.0 4000.0 4000.0 4000.0 4000.0 4000.0 4000.0 4000.0 4000.0 4000.0 4000.0 4000.0 4000.0 4000.0 4000.0 4000.0 4000.0 4000.0 4000.0 4000.0 4000.0 4000.0 4000.0 4000.0 4000.0 4000.0 4000.0 4000.0 4000.0 4000.0 4000.0 4000.0 4000.0 4000.0 4000.0 4000.0 4000.0 4000.0 4000.0 4000.0 4000.0 4000.0 4000.0 4000.0 4000.0 4000.0 4000.0 4000.0 4000.0 4000.0 4000.0 4000.0 4000.0 4000.0 4000.0 4000.0 4000.0 4000.0 4000.0 4000.0 4000.0 4000.0 4000.0 4000.0 4000.0 4000.0 4000.0 4000.0 4000.0 4000.0 4000.0 4000.0 4000.0 4000.0 4000.0 4000.0 4000.0 4000.0 4000.0 4000.0 4000.0 4000.0 4000.0 4000.0 4000.0 4000.0 4000.0 4000.0 4000.0 4000.0 4000.0 4000.0 4000.0 4000.0 4000.0 4000.0 4000.0 4000.0 4000.0 4000.0 4000.0 4000.0 4000.0 4000.0 4000.0 4000.0 4000.0 4000.0 4000.0 4000.0 4000.0 4000.0 4000.0 4000.0 4000.0 4000.0 4000.0 4000.0 4000.0 4000.0 4000.0 4000.0 4000.0 4000.0 4000.0 4000.0 4000.0 4000.0 4000.0 4000.0 4000.0 4000.0 4000.0 4000.0 4000.0 4000.0 4000.0 4000.0 4000.0 4000.0 4000.0 4000.0 4000.0 4000.0 4000.0 4000.0 4000.0 4000.0 4000.0 4000.0 4000.0 4000.0 4000.0 4000.0 4000.0 4000.0 4000.0 4000.0 4000.0 4000.0 4000.0 4000.0 4000.0 4000.0 4000.0 4000.0 4000.0 4000.0 4000.0 4000.0 4000.0 4000.0 4000.0 4000.0 4000.0 4000.0 4000.0 4000.0 4000.0 4000.0 4000.0 4000.0 4000.0 4000.0 4000.0 4000.0 4000.0 4000.0 4000.0 4000.0 4000.0 4000.0 4000.0 4000.0 4000.0 4000.0 4000.0 4000.0 4000.0 4000.0 4000.0 4000.0 4000.0 4000.0 4000.0 4000.0 4000.0 4000.0 4000.0 4000.0 4000.0 4000.0 4000.0 4000.0 4000.0 4000.0 4000.0 4000.0 4000.0 4000.0 4000.0 4000.0 4000.0 4000.0 4000.0 4000.0 4000.0 4000.0 4000.0 4000.0 4000.0 4000.0 4000.0 4000.0 4000.0 4000.0 4000.0 4000.0 4000.0 4000.0 4000.0 4000.0 4000.0 4000.0 4000.0 4000.0 4000.0 4000.0 4000.0 4000.0 4000.0 4000.0 4000.0 4000.0 4000.0 4000.0 4000.0 4000.0 4000.0 4000.0 4000.0 4000.0 4000.0 4000.0 4000.0 4000.0 4000.0 4000.0 4000.0 4000.0 4000.0 4000.0 4000.0 4000.0 4000.0 4000.0 4000.0 4000.0 4000.0 4000.0 4000.0 4000.0 4000.0 4000.0 4000.0 4000.0 4000.0 4000.0 4000.0 4000.0 4000.0 4000.0 4000.0 4000.0 4000.0 4000.0 4000.0 4000.0 4000.0 4000.0 4000.0 4000.0 4000.0 4000.0 4000.0 4000.0 4000.0 4000.0 4000.0 4000.0 4000.0 4000.0 4000.0 4000.0 4000.0 4000.0 4000.0 4000.0 4000.0 4000.0 4000.0 4000.0 4000.0 4000.0 4000.0 4000.0 4000.0 4000.0 4000.0 4000.0 4000.0 4000.0 4000.0 4000.0 4000.0 4000.0 4000.0 4000.0 4000.0 4000.0 4000.0 4000.0 4000.0 4000.0 4000.0 4000.0 4000.0 4000.0 4000.0 4000.0 4000.0 4000.0 4000.0 4000.0 4000.0 4000.0 4000.0 4000.0 4000.0 4000.0 4000.0 4000.0 4000.0 4000.0 4000.0 4000.0 4000.0 4000.0 4000.0 4000.0 4000.0 4000.0 4000.0 4000.0 4000.0 4000.0 4000.0 4000.0 4000.0 4000.0 4000.0 4000.0 4000.0 4000.0 4000.0 4000.0 4000.0 4000.0 4000.0 4000.0 4000.0 4000.0 4000.0 4000.0 4000.0 4000.0 4000.0 4000.0 4000.0 4000.0 4000.0 4000.0 4000.0 4000.0 4000.0 4000.0 4000.0 4000.0 4000.0 4000.0 4000.0 4000.0 4000.0 4000.0 4000.0 4000.0 4000.0 4000.0 4000.0 4000.0 4000.0 4000.0 4000.0 4000.0 4000.0 4000.0 4000.0 4000.0 4000.0 4000.0 4000.0 4000.0 4000.0 4000.0 4000.0 4000.0 4000.0 4000.0 4000.0 4000.0 4000.0 4000.0 4000.0 4000.0 4000.0 4000.0 4000.0 4000.0 4000.0 4000.0 4000.0 4000.0 4000.0 4000.0 4000.0 4000.0 4000.0 4000.0 4000.0 4000.0 4000.0 4000.0 4000.0 4000.0 4000.0 4000.0 4000.0 4000.0 4000.0 4000.0 4000.0 4000.0 4000.0 4000.0 4000.0 4000.0 4000.0 4000.0 4000.0 4000.0 4000.0 4000.0 4000.0 4000.0 4000.0 4000.0 4000.0 4000.0 4000.0 4000.0 4000.0 4000.0 4000.0 4000.0 4000.0 4000.0 4000.0 4000.0 4000.0 4000.0 4000.0 4000.0 4000.0 4000.0 4000.0 4000.0 4000.0 4000.0 4000.0 4000.0 4000.0 4000.0 4000.0 4000.0 4000.0 4000.0 4000.0 4000.0 4000.0 4000.0 4000.0 4000.0 4000.0 4000.0 4000.0 4000.0 4000.0 4000.0 4000.0 4000.0 4000.0 4000.0 4000.0 4000.0 4000.0 4000.0 4000.0 4000.0 4000.0 4000.0 4000.0 4000.0 4000.0 4000.0 4000.0 4000.0 4000.0 4000.0 4000.0 4000.0 4000.0 4000.0 4000.0 4000.0 4000.0 4000.0 4000.0 4000.0 4000.0 4000.0 4000.0 4000.0 4000.0 4000.0 4000.0 4000.0 4000.0 4000.0 4000.0 4000.0 4000.0 4000.0 4000.0 4000.0 4000.0 4000.0 4000.0 4000.0 4000.0 4000.0 4000.0 4000.0 4000.0 4000.0 4000.0 4000.0 4000.0 4000.0 4000.0 4000.0 4000.0 4000.0 4000.0 4000.0 4000.0 4000.0 4000.0 4000.0 4000.0 4000.0 4000.0 4000.0 4000.0 4000.0 4000.0 4000.0 4000.0 4000.0 4000.0 4000.0 4000.0 4000.0 4000.0 4000.0 4000.0 4000.0 4000.0 4000.0 4000.0 4000.0 4000.0 4000.0 4000.0 4000.0 4000.0 4000.0 4000.0 4000.0 4000.0 4000.0 4000.0 4000.0 4000.0 4000.0 4000.0 4000.0 4000.0 4000.0 4000.0 4000.0 4000.0 4000.0 4000.0 4000.0 4000.0 4000.0 4000.0 4000.0 4000.0 4000.0 4000.0 4000.0 4000.0 4000.0 4000.0 4000.0 4000.0 4000.0 4000.0 4000.0 4000.0 4000.0 4000.0 4000.0 4000.0 4000.0 4000.0 4000.0 4000.0 4000.0 4000.0 4000.0 4000.0 4000.0 4000.0 4000.0 4000.0 4000.0 4000.0 4000.0 4000.0 4000.0 4000.0 4000.0 4000.0 4000.0 4000.0 4000.0 4000.0 4000.0 4000.0 4000.0 4000.0 4000.0 4000.0 4000.0 4000.0 4000.0 4000.0 4000.0 4000.0 4000.0 4000.0 4000.0 4000.0 4000.0 4000.0 4000.0 4000.0 4000.0 4000.0 4000.0 4000.0 4000.0 4000.0 4000.0 4000.0 4000.0 4000.0 4000.0 4000.0 4000.0 4000.0 4000.0 4000.0 4000.0 4000.0 4000.0 4000.0 4000.0 4000.0 4000.0 4000.0 4000.0 4000.0 4000.0 4000.0 4000.0 4000.0 4000.0 4000.0 4000.0 4000.0 4000.0 4000.0 4000.0 4000.0 4000.0 4000.0 4000.0 4000.0 4000.0 4000.0 4000.0 4000.0 4000.0 4000.0 4000.0 4000.0 4000.0 4000.0 4000.0 4000.0 4000.0 4000.0 4000.0 4000.0 4000.0 4000.0 4000.0 4000.0 4000.0 4000.0 4000.0 4000.0 4000.0 4000.0 4000.0 4000.0 4000.0 4000.0 4000.0 4000.0 4000.0 4000.0 4000.0 4000.0 4000.0 4000.0 4000.0 4000.0 4000.0 4000.0 4000.0 4000.0 4000.0 4000.0 4000.0 4000.0 4000.0 4000.0 4000.0 4000.0 4000.0 4000.0 4000.0 4000.0 4000.0 4000.0 4000.0 4000.0 4000.0 4000.0 4000.0 4000.0 4000.0 4000.0 4000.0 4000.0 4000.0 4000.0 4000.0 4000.0 4000.0 4000.0 4000.0 4000.0 4000.0 4000.0 4000.0 4000.0 4000.0 4000.0 4000.0 4000.0 4000.0 4000.0 4000.0 4000.0 4000.0 4000.0 4000.0 4000.0 4000.0 4000.0 4000.0 4000.0 4000.0 4000.0 4000.0 4000.0 4000.0 4000.0 4000.0 4000.0 4000.0 4000.0 4000.0 4000.0 4000.0 4000.0 4000.0 4000.0 4000.0 4000.0 4000.0 4000.0 4000.0 4000.0 4000.0 4000.0 4000.0 4000.0 4000.0 4000.0 4000.0 4000.0 4000.0 4000.0 4000.0 4000.0 4000.0 4000.0 4000.0 4000.0 4000.0 4000.0 4000.0 4000.0 4000.0 4000.0 4000.0 4000.0 4000.0 4000.0 4000.0 4000.0 4000.0 4000.0 4000.0 4000.0 4000.0 4000.0 4000.0 4000.0 4000.0 4000.0 4000.0 4000.0 4000.0 4000.0 4000.0 4000.0 4000.0 4000.0 4000.0 4000.0 4000.0 4000.0 4000.0 4000.0 4000.0 4000.0 4000.0 4000.0 4000.0 4000.0 4000.0 4000.0 4000.0 4000.0 4000.0 4000.0 4000.0 4000.0 4000.0 4000.0 4000.0 4000.0 4000.0 4000.0 4000.0 4000.0 4000.0 4000.0 4000.0 4000.0 4000.0 4000.0 4000.0 4000.0 4000.0 4000.0 4000.0 4000.0 4000.0 4000.0 4000.0 4000.0 4000.0 4000.0 4000.0 4000.0 4000.0 4000.0 4000.0 4000.0 4000.0 4000.0 4000.0 4000.0 4000.0 4000.0 4000.0 4000.0 4000.0 4000.0 4000.0 4000.0 4000.0 4000.0 4000.0 4000.0 4000.0 4000.0 4000.0 4000.0 4000.0 4000.0 4000.0 4000.0 4000.0 4000.0 4000.0 4000.0 4000.0 4000.0 4000.0 4000.0 4000.0 4000.0 4000.0 4000.0 4000.0 4000.0 4000.0 4000.0 4000.0 4000.0 4000.0 4000.0 4000.0 4000.0 4000.0 4000.0 4000.0 4000.0 4000.0 4000.0 4000.0 4000.0 4000.0 4000.0 4000.0 4000.0 4000.0 4000.0 4000.0 4000.0 4000.0 4000.0 4000.0 4000.0 4000.0 4000.0 4000.0 4000.0 4000.0 4000.0 4000.0 4000.0 4000.0 4000.0 4000.0 4000.0 4000.0 4000.0 4000.0 4000.0 4000.0 4000.0 4000.0 4000.0 4000.0 4000.0 4000.0 4000.0 4000.0 4000.0 4000.0 4000.0 4000.0 4000.0 4000.0 4000.0 4000.0 4000.0 4000.0 4000.0 4000.0 4000.0 4000.0 4000.0 4000.0 4000.0 4000.0 4000.0 4000.0 4000.0 4000.0 4000.0 4000.0 4000.0 4000.0 4000.0 4000.0 4000.0 4000.0 4000.0 4000.0 4000.0 4000.0 4000.0 4000.0 4000.0 4000.0 4000.0 4000.0 4000.0 4000.0 4000.0 4000.0 4000.0 4000.0 4000.0 4000.0 4000.0 4000.0 4000.0 4000.0 4000.0 4000.0 4000.0 4000.0 4000.0 4000.0 4000.0 4000.0 4000.0 4000.0 4000.0 4000.0 4000.0 4000.0 4000.0 4000.0 4000.0 4000.0 4000.0 4000.0 4000.0 4000.0 4000.0 4000.0 4000.0 4000.0 4000.0 4000.0 4000.0 4000.0 4000.0 4000.0 4000.0 4000.0 4000.0 4000.0 4000.0 4000.0 4000.0 4000.0 4000.0 4000.0 4000.0 4000.0 4000.0 4000.0 4000.0 4000.0 4000.0 4000.0 4000.0 4000.0 4000.0 4000.0 4000.0 4000.0 4000.0 4000.0 4000.0 4000.0 4000.0 4000.0 4000.0 4000.0 4000.0 4000.0 4000.0 4000.0 4000.0 4000.0 4000.0 4000.0 4000.0 4000.0 4000.0 4000.0 4000.0 4000.0 4000.0 4000.0 4000.0 4000.0 4000.0 4000.0 4000.0 4000.0 4000.0 4000.0 4000.0 4000.0 4000.0 4000.0 4000.0 4000.0 4000.0 4000.0 4000.0 4000.0 4000.0 4000.0 4000.0 4000.0 4000.0 4000.0 4000.0 4000.0 4000.0 4000.0 4000.0 4000.0 4000.0 4000.0 4000.0 4000.0 4000.0 4000.0 4000.0 4000.0 4000.0 4000.0 4000.0 4000.0 4000.0 4000.0 4000.0 4000.0 4000.0 4000.0 4000.0 4000.0 4000.0 4000.0 4000.0 4000.0 4000.0 4000.0 4000.0 4000.0 4000.0 4000.0 4000.0 4000.0 4000.0 4000.0 4000.0 4000.0 4000.0 4000.0 4000.0 4000.0 4000.0 4000.0 4000.0 4000.0 4000.0 4000.0 4000.0 4000.0 4000.0 4000.0 4000.0 4000.0 4000.0 4000.0 4000.0 4000.0 4000.0 4000.0 4000.0 4000.0 4000.0 4000.0 4000.0 4000.0 4000.0 4000.0 4000.0 4000.0 4000.0 4000.0 4000.0 4000.0 4000.0 4000.0 4000.0 4000.0 4000.0 4000.0 4000.0 4000.0 4000.0 4000.0 4000.0 4000.0 4000.0 4000.0 4000.0 4000.0 4000.0 4000.0 4000.0 4000.0 4000.0 4000.0 4000.0 4000.0 4000.0 4000.0 4000.0 4000.0 4000.0 4000.0 4000.0 4000.0 4000.0 4000.0 4000.0 4000.0 4000.0 4000.0 4000.0 4000.0 4000.0 4000.0 4000.0 4000.0 4000.0 4000.0 4000.0 4000.0 4000.0 4000.0 4000.0 4000.0 4000.0 4000.0 4000.0 4000.0 4000.0 4000.0 4000.0 4000.0 4000.0 4000.0 4000.0 4000.0 4000.0 4000.0 4000.0 4000.0 4000.0 4000.0 4000.0 4000.0 4000.0 4000.0 4000.0 4000.0 4000.0 4000.0 4000.0 4000.0 4000.0 4000.0 4000.0 4000.0 4000.0 4000.0 4000.0 4000.0 4000.0 4000.0 4000.0 4000.0 4000.0 4000.0 4000.0 4000.0 4000.0 4000.0 4000.0 4000.0 4000.0 4000.0 4000.0 4000.0 4000.0 4000.0 4000.0 4000.0 4000.0 4000.0 4000.0 4000.0 4000.0 4000.0 4000.0 4000.0 4000.0 4000.0 4000.0 4000.0 4000.0 4000.0 4000.0 4000.0 4000.0 4000.0 4000.0 4000.0 4000.0 4000.0 4000.0 4000.0 4000.0 4000.0 4000.0 4000.0 4000.0 4000.0 4000.0 4000.0 4000.0 4000.0 4000.0 4000.0 4000.0 4000.0 4000.0 4000.0 4000.0 4000.0 4000.0 4000.0 4000.0 4000.0 4000.0 4000.0 4000.0 4000.0 4000.0 4000.0 4000.0 4000.0 4000.0 4000.0 4000.0 4000.0 4000.0 4000.0 4000.0 4000.0 4000.0 4000.0 4000.0 4000.0 4000.0 4000.0 4000.0 4000.0 4000.0 4000.0 4000.0 4000.0 4000.0 4000.0 4000.0 4000.0 4000.0 4000.0 4000.0 4000.0 4000.0 4000.0 4000.0 4000.0 4000.0 4000.0 4000.0 4000.0 4000.0 4000.0 4000.0 4000.0 4000.0 4000.0 4000.0 4000.0 4000.0 4000.0 4000.0 4000.0 4000.0 4000.0 4000.0 4000.0 4000.0 4000.0 4000.0 4000.0 4000.0 4000.0 4000.0 4000.0 4000.0 4000.0 4000.0 4000.0 4000.0 4000.0 4000.0 4000.0 4000.0 4000.0 4000.0 4000.0 4000.0 4000.0 4000.0 4000.0 4000.0 4000.0 4000.0 4000.0 4000.0 4000.0 4000.0 4000.0 4000.0 4000.0 4000.0 4000.0 4000.0 4000.0 4000.0 4000.0 4000.0 4000.0 4000.0 4000.0 4000.0 4000.0 4000.0 4000.0 4000.0 4000.0 4000.0 4000.0 4000.0 4000.0 4000.0 4000.0 4000.0 4000.0 4000.0 4000.0 4000.0 4000.0 4000.0 4000.0 4000.0 4000.0 4000.0 4000.0 4000.0 4000.0 4000.0 4000.0 4000.0 4000.0 4000.0 4000.0 4000.0 4000.0 4000.0 4000.0 4000.0 4000.0 4000.0 4000.0 4000.0 4000.0 4000.0 4000.0 4000.0 4000.0 4000.0 4000.0 4000.0 4000.0 4000.0 4000.0 4000.0 4000.0 4000.0 4000.0 4000.0 4000.0 4000.0 4000.0 4000.0 4000.0 4000.0 4000.0 4000.0 4000.0 4000.0 4000.0 4000.0 4000.0 4000.0 4000.0 4000.0 4000.0 4000.0 4000.0 4000.0 4000.0 4000.0 4000.0 4000.0 4000.0 4000.0 4000.0 4000.0 4000.0 4000.0 4000.0 4000.0 4000.0 4000.0 4000.0 4000.0 4000.0 4000.0 4000.0 4000.0 4000.0 4000.0 4000.0 4000.0 4000.0 4000.0 4000.0 4000.0 4000.0 4000.0 4000.0 4000.0 4000.0 4000.0 4000.0 4000.0 4000.0 4000.0 4000.0 4000.0 4000.0 4000.0 4000.0 4000.0 4000.0 4000.0 4000.0 4000.0 4000.0 4000.0 4000.0 4000.0 4000.0 4000.0 4000.0 4000.0 4000.0 4000.0 4000.0 4000.0 4000.0 4000.0 4000.0 4000.0 4000.0 4000.0 4000.0 4000.0 4000.0 4000.0 4000.0 4000.0 4000.0 4000.0 4000.0 4000.0 4000.0 4000.0 4000.0 4000.0 4000.0 4000.0 4000.0 4000.0 4000.0 4000.0 4000.0 4000.0 4000.0 4000.0 4000.0 4000.0 4000.0 4000.0 4000.0 4000.0 4000.0 4000.0 4000.0 4000.0 4000.0 4000.0 4000.0 4000.0 4000.0 4000.0 4000.0 4000.0 4000.0 4000.0 4000.0 4000.0 4000.0 4000.0 4000.0 4000.0 4000.0 4000.0 4000.0 4000.0 4000.0 4000.0 4000.0 4000.0 4000.0 4000.0 4000.0 4000.0 4000.0 4000.0 4000.0 4000.0 4000.0 4000.0 4000.0 4000.0 4000.0 4000.0 4000.0 4000.0 4000.0 4000.0 4000.0 4000.0 4000.0 4000.0 4000.0 4000.0 4000.0 4000.0 4000.0 4000.0 4000.0 4000.0 4000.0 4000.0 4000.0 4000.0 4000.0 4000.0 4000.0 4000.0 4000.0 4000.0 4000.0 4000.0 4000.0 4000.0 4000.0 4000.0 4000.0 4000.0 4000.0 4000.0 4000.0 4000.0 4000.0 4000.0 4000.0 4000.0 4000.0 4000.0 4000.0 4000.0 4000.0 4000.0 4000.0 4000.0 4000.0 4000.0 4000.0 4000.0 4000.0 4000.0 4000.0 4000.0 4000.0 4000.0 4000.0 4000.0 4000.0 4000.0 4000.0 4000.0 4000.0 4000.0 4000.0 4000.0 4000.0 4000.0 4000.0 4000.0 4000.0 4000.0 4000.0 4000.0 4000.0 4000.0 4000.0 4000.0 4000.0 4000.0 4000.0 4000.0 4000.0 4000.0 4000.0 4000.0 4000.0 4000.0 4000.0 4000.0 4000.0 4000.0 4000.0 4000.0 4000.0 4000.0 4000.0 4000.0 4000.0 4000.0 4000.0 4000.0 4000.0 4000.0 4000.0 4000.0 4000.0 4000.0 4000.0 4000.0 4000.0 4000.0 4000.0 4000.0 4000.0 4000.0 4000.0 4000.0 4000.0 4000.0 4000.0 4000.0 4000.0 4000.0 4000.0 4000.0 4000.0 4000.0 4000.0 4000.0 4000.0 4000.0 4000.0 4000.0 4000.0 4000.0 4000.0 4000.0 4000.0 4000.0 4000.0 4000.0 4000.0 4000.0 4000.0 4000.0 4000.0 4000.0 4000.0 4000.0 4000.0 4000.0 4000.0 4000.0 4000.0 4000.0 4000.0 4000.0 4000.0 4000.0 4000.0 4000.0 4000.0 4000.0 4000.0 4000.0 4000.0 4000.0 4000.0 4000.0 4000.0 4000.0 4000.0 4000.0 4000.0 4000.0 4000.0 4000.0 4000.0 4000.0 4000.0 4000.0 4000.0 4000.0 4000.0 4000.0 4000.0 4000.0 4000.0 4000.0 4000.0 4000.0 4000.0 4000.0 4000.0 4000.0 4000.0 4000.0 4000.0 4000.0 4000.0 4000.0 4000.0 4000.0 4000.0 4000.0 4000.0 4000.0 4000.0 4000.0 4000.0 4000.0 4000.0 4000.0 4000.0 4000.0 4000.0 4000.0 4000.0 4000.0 4000.0 4000.0 4000.0 4000.0 4000.0 4000.0 4000.0 4000.0 4000.0 4000.0 4000.0 4000.0 4000.0 4000.0 4000.0 4000.0 4000.0 4000.0 4000.0 4000.0 4000.0 4000.0 4000.0 4000.0 4000.0 4000.0 4000.0 4000.0 4000.0 4000.0 4000.0 4000.0 4000.0 4000.0 4000.0 4000.0 4000.0 4000.0 4000.0 4000.0 4000.0 4000.0 4000.0 4000.0 4000.0 4000.0 4000.0 4000.0 4000.0 4000.0 4000.0 4000.0 4000.0 4000.0 4000.0 4000.0 4000.0 4000.0 4000.0 4000.0 4000.0 4000.0 4000.0 4000.0 4000.0 4000.0 4000.0 4000.0 4000.0 4000.0 4000.0 4000.0 4000.0 4000.0 4000.0 4000.0 4000.0 4000.0 4000.0 4000.0 4000.0 4000.0 4000.0 4000.0 4000.0 4000.0 4000.0 4000.0 4000.0 4000.0 4000.0 4000.0 4000.0 4000.0 4000.0 4000.0 4000.0 4000.0 4000.0 4000.0 4000.0 4000.0 4000.0 4000.0 4000.0 4000.0 4000.0 4000.0 4000.0 4000.0 4000.0 4000.0 4000.0 4000.0 4000.0 4000.0 4000.0 4000.0 4000.0 4000.0 4000.0 4000.0 4000.0 4000.0 4000.0 4000.0 4000.0 4000.0 4000.0 4000.0 4000.0 4000.0 4000.0 4000.0 4000.0 4000.0 4000.0 4000.0 4000.0 4000.0 4000.0 4000.0 4000.0 4000.0 4000.0 4000.0 4000.0 4000.0 4000.0 4000.0 4000.0 4000.0 4000.0 4000.0 4000.0 4000.0 4000.0 4000.0 4000.0 4000.0 4000.0 4000.0 4000.0 4000.0 4000.0 4000.0 4000.0 4000.0 4000.0 4000.0 4000.0 4000.0 4000.0 4000.0 4000.0 4000.0 4000.0 4000.0 4000.0 4000.0 4000.0 4000.0 4000.0 4000.0 4000.0 4000.0 4000.0 4000.0 4000.0 4000.0 4000.0 4000.0 4000.0 4000.0 4000.0 4000.0 4000.0 4000.0 4000.0 4000.0 4000.0 4000.0 4000.0 4000.0 4000.0 4000.0 4000.0 4000.0 4000.0 4000.0 4000.0 4000.0 4000.0 4000.0 4000.0 4000.0 4000.0 4000.0 4000.0 4000.0 4000.0 4000.0 4000.0 4000.0 4000.0 4000.0 4000.0 4000.0 4000.0 4000.0 4000.0 4000.0 4000.0 4000.0 4000.0 4000.0 4000.0 4000.0 4000.0 4000.0 4000.0 4000.0 4000.0 4000.0 4000.0 4000.0 4000.0 4000.0 4000.0 4000.0 4000.0 4000.0 4000.0 4000.0 4000.0 4000.0 4000.0 4000.0 4000.0 4000.0 4000.0 4000.0 4000.0 4000.0 4000.0 4000.0 4000.0 4000.0 4000.0 4000.0 4000.0 4000.0 4000.0 4000.0 4000.0 4000.0 4000.0 4000.0 4000.0 4000.0 4000.0 4000.0 4000.0 4000.0 4000.0 4000.0 4000.0 4000.0 4000.0 4000.0 4000.0 4000.0 4000.0 4000.0 4000.0 4000.0 4000.0 4000.0 4000.0 4000.0 4000.0 4000.0 4000.0 4000.0 4000.0 4000.0 4000.0 4000.0 4000.0 4000.0 4000.0 4000.0 4000.0 4000.0 4000.0 4000.0 4000.0 4000.0 4000.0 4000.0 4000.0 4000.0 4000.0 4000.0 4000.0 4000.0 4000.0 4000.0 4000.0 4000.0 4000.0 4000.0 4000.0 4000.0 4000.0 4000.0 4000.0 4000.0 4000.0 4000.0 4000.0 4000.0 4000.0 4000.0 4000.0 4000.0 4000.0 4000.0 4000.0 4000.0 4000.0 4000.0 4000.0 4000.0 4000.0 4000.0 4000.0 4000.0 4000.0 4000.0 4000.0 4000.0 4000.0 4000.0 4000.0 4000.0 4000.0 4000.0 4000.0 4000.0 4000.0 4000.0 4000.0 4000.0 4000.0 4000.0 4000.0 4000.0 4000.0 4000.0 4000.0 4000.0 4000.0 4000.0 4000.0 4000.0 4000.0 4000.0 4000.0 4000.0 4000.0 4000.0 4000.0 4000.0 4000.0 4000.0 4000.0 4000.0 4000.0 4000.0 4000.0 4000.0 4000.0 4000.0 4000.0 4000.0 4000.0 4000.0 4000.0 4000.0 4000.0 4000.0 4000.0 4000.0 4000.0 4000.0 4000.0 4000.0 4000.0 4000.0 4000.0 4000.0 4000.0 4000.0 4000.0 4000.0 4000.0 4000.0 4000.0 4000.0 4000.0 4000.0 4000.0 4000.0 4000.0 4000.0 4000.0 4000.0 4000.0 4000.0 4000.0 4000.0 4000.0 4000.0 4000.0 4000.0 4000.0 4000.0 4000.0 4000.0 4000.0 4000.0 4000.0 4000.0 4000.0 4000.0 4000.0 4000.0 4000.0 4000.0 4000.0 4000.0 4000.0 4000.0 4000.0 4000.0 4000.0 4000.0 4000.0 4000.0 4000.0 4000.0 4000.0 4000.0 4000.0 4000.0 4000.0 4000.0 4000.0 4000.0 4000.0 4000.0 4000.0 4000.0 4000.0 4000.0 4000.0 4000.0 4000.0 4000.0 4000.0 4000.0 4000.0 4000.0 4000.0 4000.0 4000.0 4000.0 4000.0 4000.0 4000.0 4000.0 4000.0 4000.0 4000.0 4000.0 4000.0 4000.0 4000.0 4000.0 4000.0 4000.0 4000.0 4000.0 4000.0 4000.0 4000.0 4000.0 4000.0 4000.0 4000.0 4000.0 4000.0 4000.0 4000.0 4000.0 4000.0 4000.0 4000.0 4000.0 4000.0 4000.0 4000.0 4000.0 4000.0 4000.0 4000.0 4000.0 4000.0 4000.0 4000.0 4000.0 4000.0 4000.0 4000.0 4000.0 4000.0 4000.0 4000.0 4000.0 4000.0 4000.0 4000.0 4000.0 4000.0 4000.0 4000.0 4000.0 4000.0 4000.0 4000.0 4000.0 4000.0 4000.0 4000.0 4000.0 4000.0 4000.0 4000.0 4000.0 4000.0 4000.0 4000.0 4000.0 4000.0 4000.0 4000.0 4000.0 4000.0 4000.0 4000.0 4000.0 4000.0 4000.0 4000.0 4000.0 4000.0 4000.0 4000.0 4000.0 4000.0 4000.0 4000.0 4000.0 4000.0 4000.0 4000.0 4000.0 4000.0 4000.0 4000.0 4000.0 4000.0 4000.0 4000.0 4000.0 4000.0 4000.0 4000.0 4000.0 4000.0 4000.0 4000.0 4000.0 4000.0 4000.0 4000.0 4000.0 4000.0 4000.0 4000.0 4000.0 4000.0 4000.0 4000.0 4000.0 4000.0 4000.0 4000.0 4000.0 4000.0 4000.0 4000.0 4000.0 4000.0 4000.0 4000.0 4000.0 4000.0 4000.0 4000.0 4000.0 4000.0 4000.0 4000.0 4000.0 4000.0 4000.0 4000.0 4000.0 4000.0 4000.0 4000.0 4000.0 4000.0 4000.0 4000.0 4000.0 4000.0 4000.0 4000.0 4000.0 4000.0 4000.0 4000.0 4000.0 4000.0 4000.0 4000.0 4000.0 4000.0 4000.0 4000.0 4000.0 4000.0 4000.0 4000.0 4000.0 4000.0 4000.0 4000.0 4000.0 4000.0 4000.0 4000.0 4000.0 4000.0 4000.0 4000.0 4000.0 4000.0 4000.0 4000.0 4000.0 4000.0 4000.0 4000.0 4000.0 4000.0 4000.0 4000.0 4000.0 4000.0 4000.0 4000.0 4000.0 4000.0 4000.0 4000.0 4000.0 4000.0 4000.0 4000.0 4000.0 4000.0 4000.0 4000.0 4000.0 4000.0 4000.0 4000.0 4000.0 4000.0 4000.0 4000.0 4000.0 4000.0 4000.0 4000.0 4000.0 4000.0 4000.0 4000.0 4000.0 4000.0 4000.0 4000.0 4000.0 4000.0 4000.0 4000.0 4000.0 4000.0 4000.0 4000.0 4000.0 4000.0 4000.0 4000.0 4000.0 4000.0 4000.0 4000.0 4000.0 4000.0 4000.0 4000.0 4000.0 4000.0 4000.0 4000.0 4000.0 4000.0 4000.0 4000.0 4000.0 4000.0 4000.0 4000.0 4000.0 4000.0 4000.0 4000.0 4000.0 4000.0 4000.0 4000.0 4000.0 4000.0 4000.0 4000.0 4000.0 4000.0 4000.0 4000.0 4000.0 4000.0 4000.0 4000.0 4000.0 4000.0 4000.0 4000.0 4000.0 4000.0 4000.0 4000.0 4000.0 4000.0 4000.0 4000.0 4000.0 4000.0 4000.0 4000.0 4000.0 4000.0 4000.0 4000.0 4000.0 4000.0 4000.0 4000.0 4000.0 4000.0 4000.0 4000.0 4000.0 4000.0 4000.0 4000.0 4000.0 4000.0 4000.0 4000.0 4000.0 4000.0 4000.0 4000.0 4000.0 4000.0 4000.0 4000.0 4000.0 4000.0 4000.0 4000.0 4000.0 4000.0 4000.0 4000.0 4000.0 4000.0 4000.0 4000.0 4000.0 4000.0 4000.0 4000.0 4000.0 4000.0 4000.0 4000.0 4000.0 4000.0 4000.0 4000.0 4000.0 4000.0 4000.0 4000.0 4000.0 4000.0 4000.0 4000.0 4000.0 4000.0 4000.0 4000.0 4000.0 4000.0 4000.0 4000.0 4000.0 4000.0 4000.0 4000.0 4000.0 4000.0 4000.0 4000.0 4000.0 4000.0 4000.0 4000.0 4000.0 4000.0 4000.0 4000.0 4000.0 4000.0 4000.0 4000.0 4000.0 4000.0 4000.0 4000.0 4000.0 4000.0 4000.0 4000.0 4000.0 4000.0 4000.0 4000.0 4000.0 4000.0 4000.0 4000.0 4000.0 4000.0 4000.0 4000.0 4000.0 4000.0 4000.0 4000.0 4000.0 4000.0 4000.0 4000.0 4000.0 4000.0 4000.0 4000.0 4000.0 4000.0 4000.0 4000.0 4000.0 4000.0 4000.0 4000.0 4000.0 4000.0 4000.0 4000.0 4000.0 4000.0 4000.0 4000.0 4000.0 4000.0 4000.0 4000.0 4000.0 4000.0 4000.0 4000.0 4000.0 4000.0 4000.0 4000.0 4000.0 4000.0 4000.0 4000.0 4000.0 4000.0 4000.0 4000.0 4000.0 4000.0 4000.0 4000.0 4000.0 4000.0 4000.0 4000.0 4000.0 4000.0 4000.0 4000.0 4000.0 4000.0 4000.0 4000.0 4000.0 4000.0 4000.0 4000.0 4000.0 4000.0 4000.0 4000.0 4000.0 4000.0 4000.0 4000.0 4000.0 4000.0 4000.0 4000.0 4000.0 4000.0 4000.0 4000.0 4000.0 4000.0 4000.0 4000.0 4000.0 4000.0 4000.0 4000.0 4000.0 4000.0 4000.0 4000.0 4000.0 4000.0 4000.0 4000.0 4000.0 4000.0 4000.0 4000.0 4000.0 4000.0 4000.0 4000.0 4000.0 4000.0 4000.0 4000.0 4000.0 4000.0 4000.0 4000.0 4000.0 4000.0 4000.0 4000.0 4000.0 4000.0 4000.0 4000.0 4000.0 4000.0 4000.0 4000.0 4000.0 4000.0 4000.0 4000.0 4000.0 4000.0 4000.0 4000.0 4000.0 4000.0 4000.0 4000.0 4000.0 4000.0 4000.0 4000.0 4000.0 4000.0 4000.0 4000.0 4000.0 4000.0 4000.0 4000.0 4000.0 4000.0 4000.0 4000.0 4000.0 4000.0 4000.0 4000.0 4000.0 4000.0 4000.0 4000.0 4000.0 4000.0 4000.0 4000.0 4000.0 4000.0 4000.0 4000.0 4000.0 4000.0 4000.0 4000.0 4000.0 4000.0 4000.0 4000.0 4000.0 4000.0 4000.0 4000.0 4000.0 4000.0 4000.0 4000.0 4000.0 4000.0 4000.0 4000.0 4000.0 4000.0 4000.0 4000.0 4000.0 4000.0 4000.0 4000.0 4000.0 4000.0 4000.0 4000.0 4000.0 4000.0 4000.0 4000.0 4000.0 4000.0 4000.0 4000.0 4000.0 4000.0 4000.0 4000.0 4000.0 4000.0 4000.0 4000.0 4000.0 4000.0 4000.0 4000.0 4000.0 4000.0 4000.0 4000.0 4000.0 4000.0 4000.0 4000.0 4000.0 4000.0 4000.0 4000.0 4000.0 4000.0 4000.0 4000.0 4000.0 4000.0 4000.0 4000.0 4000.0 4000.0 4000.0 4000.0 4000.0 4000.0 4000.0 4000.0 4000.0 4000.0 4000.0 4000.0 4000.0 4000.0 4000.0 4000.0 4000.0 4000.0 4000.0 4000.0 4000.0 4000.0 4000.0 4000.0 4000.0 4000.0 4000.0 4000.0 4000.0 4000.0 4000.0 4000.0 4000.0 4000.0 4000.0 4000.0 4000.0 4000.0 4000.0 4000.0 4000.0 4000.0 4000.0 4000.0 4000.0 4000.0 4000.0 4000.0 4000.0 4000.0 4000.0 4000.0 4000.0 4000.0 4000.0 4000.0 4000.0 4000.0 4000.0 4000.0 4000.0 4000.0 4000.0 4000.0 4000.0 4000.0 4000.0 4000.0 4000.0 4000.0 4000.0 4000.0 4000.0 4000.0 4000.0 4000.0 4000.0 4000.0 4000.0 4000.0 4000.0 4000.0 4000.0 4000.0 4000.0 4000.0 4000.0 4000.0 4000.0 4000.0 4000.0 4000.0 4000.0 4000.0 4000.0 4000.0 4000.0 4000.0 4000.0 4000.0 4000.0 4000.0 4000.0 4000.0 4000.0 4000.0 4000.0 4000.0 4000.0 4000.0 4000.0 4000.0 4000.0 4000.0 4000.0 4000.0 4000.0 4000.0 4000.0 4000.0 4000.0 4000.0 4000.0 4000.0 4000.0 4000.0 4000.0 4000.0 4000.0 4000.0 4000.0 4000.0 4000.0 4000.0 4000.0 4000.0 4000.0 4000.0 4000.0 4000.0 4000.0 4000.0 4000.0 4000.0 4000.0 4000.0 4000.0 4000.0 4000.0 4000.0 4000.0 4000.0 4000.0 4000.0 4000.0 4000.0 4000.0 4000.0 4000.0 4000.0 4000.0 4000.0 4000.0 4000.0 4000.0 4000.0 4000.0 4000.0 4000.0 4000.0 4000.0 4000.0 4000.0 4000.0 4000.0 4000.0 4000.0 4000.0 4000.0 4000.0 4000.0 4000.0 4000.0 4000.0 4000.0 4000.0 4000.0 4000.0 4000.0 4000.0 4000.0 4000.0 4000.0 4000.0 4000.0 4000.0 4000.0 4000.0 4000.0 4000.0 4000.0 4000.0 4000.0 4000.0 4000.0 4000.0 4000.0 4000.0 4000.0 4000.0 4000.0 4000.0 4000.0 4000.0 4000.0 4000.0 4000.0 4000.0 4000.0 4000.0 4000.0 4000.0 4000.0 4000.0 4000.0 4000.0 4000.0 4000.0 4000.0 4000.0 4000.0 4000.0 4000.0 4000.0 4000.0 4000.0 4000.0 4000.0 4000.0 4000.0 4000.0 4000.0 4000.0 4000.0 4000.0 4000.0 4000.0 4000.0 4000.0 4000.0 4000.0 4000.0 4000.0 4000.0 4000.0 4000.0 4000.0 4000.0 4000.0 4000.0 4000.0 4000.0 4000.0 4000.0 4000.0 4000.0 4000.0 4000.0 4000.0 4000.0 4000.0 4000.0 4000.0 4000.0 4000.0 4000.0 4000.0 4000.0 4000.0 4000.0 4000.0 4000.0 4000.0 4000.0 4000.0 4000.0 4000.0 4000.0 4000.0 4000.0 4000.0 4000.0 4000.0 4000.0 4000.0 4000.0 4000.0 4000.0 4000.0 4000.0 4000.0 4000.0 4000.0 4000.0 4000.0 4000.0 4000.0 4000.0 4000.0 4000.0 4000.0 4000.0 4000.0 4000.0 4000.0 4000.0 4000.0 4000.0 4000.0 4000.0 4000.0 4000.0 4000.0 4000.0 4000.0 4000.0 4000.0 4000.0 4000.0 4000.0 4000.0 4000.0 4000.0 4000.0 4000.0 4000.0 4000.0 4000.0 4000.0 4000.0 4000.0 4000.0 4000.0 4000.0 4000.0 4000.0 4000.0 4000.0 4000.0 4000.0 4000.0 4000.0 4000.0 4000.0 4000.0 4000.0 4000.0 4000.0 4000.0 4000.0 4000.0 4000.0 4000.0 4000.0 4000.0 4000.0 4000.0 4000.0 4000.0 4000.0 4000.0 4000.0 4000.0 4000.0 4000.0 4000.0 4000.0 4000.0 4000.0 4000.0 4000.0 4000.0 4000.0 4000.0 4000.0 4000.0 4000.0 4000.0 4000.0 4000.0 4000.0 4000.0 4000.0 4000.0 4000.0 4000.0 4000.0 4000.0 4000.0 4000.0 4000.0 4000.0 4000.0 4000.0 4000.0 4000.0 4000.0 4000.0 4000.0 4000.0 4000.0 4000.0 4000.0 4000.0 4000.0 4000.0 4000.0 4000.0 4000.0 4000.0 4000.0 4000.0 4000.0 4000.0 4000.0 4000.0 4000.0 4000.0 4000.0 4000.0 4000.0 4000.0 4000.0 4000.0 4000.0 4000.0 4000.0 4000.0 4000.0 4000.0 4000.0 4000.0 4000.0 4000.0 4000.0 4000.0 4000.0 4000.0 4000.0 4000.0 4000.0 4000.0 4000.0 4000.0 4000.0 4000.0 4000.0 4000.0 4000.0 4000.0 4000.0 4000.0 4000.0 4000.0 4000.0 4000.0 4000.0 4000.0 4000.0 4000.0 4000.0 4000.0 4000.0 4000.0 4000.0 4000.0 4000.0 4000.0 4000.0 4000.0 4000.0 4000.0 4000.0 4000.0 4000.0 4000.0 4000.0 4000.0 4000.0 4000.0 4000.0 4000.0 4000.0 4000.0 4000.0 4000.0 4000.0 4000.0 4000.0 4000.0 4000.0 4000.0 4000.0 4000.0 4000.0 4000.0 4000.0 4000.0 4000.0 4000.0 4000.0 4000.0 4000.0 4000.0 4000.0 4000.0 4000.0 4000.0 4000.0 4000.0 4000.0 4000.0 4000.0 4000.0 4000.0 4000.0 4000.0 4000.0 4000.0 4000.0 4000.0 4000.0 4000.0 4000.0 4000.0 4000.0 4000.0 4000.0 4000.0 4000.0 4000.0 4000.0 4000.0 4000.0 4000.0 4000.0 4000.0 4000.0 4000.0 4000.0 4000.0 4000.0 4000.0 4000.0 4000.0 4000.0 4000.0 4000.0 4000.0 4000.0 4000.0 4000.0 4000.0 4000.0 4000.0 4000.0 4000.0 4000.0 4000.0 4000.0 4000.0 4000.0 4000.0 4000.0 4000.0 4000.0 4000.0 4000.0 4000.0 4000.0 4000.0 4000.0 4000.0 4000.0 4000.0 4000.0 4000.0 4000.0 4000.0 4000.0 4000.0 4000.0 4000.0 4000.0 4000.0 4000.0 4000.0 4000.0 4000.0 4000.0 4000.0 4000.0 4000.0 4000.0 4000.0 4000.0 4000.0 4000.0 4000.0 4000.0 4000.0 4000.0 4000.0 4000.0 4000.0 4000.0 4000.0 4000.0 4000.0 4000.0 4000.0 4000.0 4000.0 4000.0 4000.0 SCALARS Mass float 1
LOOKUP_TABLE default
11309700000.0 11309700000.0 11309700000.0 11309700000.0 11309700000.0 11309700000.0 11309700000.0 11309700000.0 11309700000.0 11309700000.0 11309700000.0 11309700000.0 11309700000.0 11309700000.0 11309700000.0 11309700000.0 11309700000.0 11309700000.0 11309700000.0 11309700000.0 11309700000.0 11309700000.0 11309700000.0 11309700000.0 11309700000.0 11309700000.0 11309700000.0 11309700000.0 11309700000.0 11309700000.0 11309700000.0 11309700000.0 11309700000.0 11309700000.0 11309700000.0 11309700000.0 11309700000.0 11309700000.0 11309700000.0 11309700000.0 11309700000.0 11309700000.0 11309700000.0 11309700000.0 11309700000.0 11309700000.0 11309700000.0 11309700000.0 11309700000.0 11309700000.0 11309700000.0 11309700000.0 11309700000.0 11309700000.0 11309700000.0 11309700000.0 11309700000.0 11309700000.0 11309700000.0 11309700000.0 11309700000.0 11309700000.0 11309700000.0 11309700000.0 11309700000.0 11309700000.0 11309700000.0 11309700000.0 11309700000.0 11309700000.0 11309700000.0 11309700000.0 11309700000.0 11309700000.0 11309700000.0 11309700000.0 11309700000.0 11309700000.0 11309700000.0 11309700000.0 11309700000.0 11309700000.0 11309700000.0 11309700000.0 11309700000.0 11309700000.0 11309700000.0 11309700000.0 11309700000.0 11309700000.0 11309700000.0 11309700000.0 11309700000.0 11309700000.0 11309700000.0 11309700000.0 11309700000.0 11309700000.0 11309700000.0 11309700000.0 11309700000.0 11309700000.0 11309700000.0 11309700000.0 11309700000.0 11309700000.0 11309700000.0 11309700000.0 11309700000.0 11309700000.0 11309700000.0 11309700000.0 11309700000.0 11309700000.0 11309700000.0 11309700000.0 11309700000.0 11309700000.0 11309700000.0 11309700000.0 11309700000.0 11309700000.0 11309700000.0 11309700000.0 11309700000.0 11309700000.0 11309700000.0 11309700000.0 11309700000.0 11309700000.0 11309700000.0 11309700000.0 11309700000.0 11309700000.0 11309700000.0 11309700000.0 11309700000.0 11309700000.0 11309700000.0 11309700000.0 11309700000.0 11309700000.0 11309700000.0 11309700000.0 11309700000.0 11309700000.0 11309700000.0 11309700000.0 11309700000.0 11309700000.0 11309700000.0 11309700000.0 11309700000.0 11309700000.0 11309700000.0 11309700000.0 11309700000.0 11309700000.0 11309700000.0 11309700000.0 11309700000.0 11309700000.0 11309700000.0 11309700000.0 11309700000.0 11309700000.0 11309700000.0 11309700000.0 11309700000.0 11309700000.0 11309700000.0 11309700000.0 11309700000.0 11309700000.0 11309700000.0 11309700000.0 11309700000.0 11309700000.0 11309700000.0 11309700000.0 11309700000.0 11309700000.0 11309700000.0 11309700000.0 11309700000.0 11309700000.0 11309700000.0 11309700000.0 11309700000.0 11309700000.0 11309700000.0 11309700000.0 11309700000.0 11309700000.0 11309700000.0 11309700000.0 11309700000.0 11309700000.0 11309700000.0 11309700000.0 11309700000.0 11309700000.0 11309700000.0 11309700000.0 11309700000.0 11309700000.0 11309700000.0 11309700000.0 11309700000.0 11309700000.0 11309700000.0 11309700000.0 11309700000.0 11309700000.0 11309700000.0 11309700000.0 11309700000.0 11309700000.0 11309700000.0 11309700000.0 11309700000.0 11309700000.0 11309700000.0 11309700000.0 11309700000.0 11309700000.0 11309700000.0 11309700000.0 11309700000.0 11309700000.0 11309700000.0 11309700000.0 11309700000.0 11309700000.0 11309700000.0 11309700000.0 11309700000.0 11309700000.0 11309700000.0 11309700000.0 11309700000.0 11309700000.0 11309700000.0 11309700000.0 11309700000.0 11309700000.0 11309700000.0 11309700000.0 11309700000.0 11309700000.0 11309700000.0 11309700000.0 11309700000.0 11309700000.0 11309700000.0 11309700000.0 11309700000.0 11309700000.0 11309700000.0 11309700000.0 11309700000.0 11309700000.0 11309700000.0 11309700000.0 11309700000.0 11309700000.0 11309700000.0 11309700000.0 11309700000.0 11309700000.0 11309700000.0 11309700000.0 11309700000.0 11309700000.0 11309700000.0 11309700000.0 11309700000.0 11309700000.0 11309700000.0 11309700000.0 11309700000.0 11309700000.0 11309700000.0 11309700000.0 11309700000.0 11309700000.0 11309700000.0 11309700000.0 11309700000.0 11309700000.0 11309700000.0 11309700000.0 11309700000.0 11309700000.0 11309700000.0 11309700000.0 11309700000.0 11309700000.0 11309700000.0 11309700000.0 11309700000.0 11309700000.0 11309700000.0 11309700000.0 11309700000.0 11309700000.0 11309700000.0 11309700000.0 11309700000.0 11309700000.0 11309700000.0 11309700000.0 11309700000.0 11309700000.0 11309700000.0 11309700000.0 11309700000.0 11309700000.0 11309700000.0 11309700000.0 11309700000.0 11309700000.0 11309700000.0 11309700000.0 11309700000.0 11309700000.0 11309700000.0 11309700000.0 11309700000.0 11309700000.0 11309700000.0 11309700000.0 11309700000.0 11309700000.0 11309700000.0 11309700000.0 11309700000.0 11309700000.0 11309700000.0 11309700000.0 11309700000.0 11309700000.0 11309700000.0 11309700000.0 11309700000.0 11309700000.0 11309700000.0 11309700000.0 11309700000.0 11309700000.0 11309700000.0 11309700000.0 11309700000.0 11309700000.0 11309700000.0 11309700000.0 11309700000.0 11309700000.0 11309700000.0 11309700000.0 11309700000.0 11309700000.0 11309700000.0 11309700000.0 11309700000.0 11309700000.0 11309700000.0 11309700000.0 11309700000.0 11309700000.0 11309700000.0 11309700000.0 11309700000.0 11309700000.0 11309700000.0 11309700000.0 11309700000.0 11309700000.0 11309700000.0 11309700000.0 11309700000.0 11309700000.0 11309700000.0 11309700000.0 11309700000.0 11309700000.0 11309700000.0 11309700000.0 11309700000.0 11309700000.0 11309700000.0 11309700000.0 11309700000.0 11309700000.0 11309700000.0 11309700000.0 11309700000.0 11309700000.0 11309700000.0 11309700000.0 11309700000.0 11309700000.0 11309700000.0 11309700000.0 11309700000.0 11309700000.0 11309700000.0 11309700000.0 11309700000.0 11309700000.0 11309700000.0 11309700000.0 11309700000.0 11309700000.0 11309700000.0 11309700000.0 11309700000.0 11309700000.0 11309700000.0 11309700000.0 11309700000.0 11309700000.0 11309700000.0 11309700000.0 11309700000.0 11309700000.0 11309700000.0 11309700000.0 11309700000.0 11309700000.0 11309700000.0 11309700000.0 11309700000.0 11309700000.0 11309700000.0 11309700000.0 11309700000.0 11309700000.0 11309700000.0 11309700000.0 11309700000.0 11309700000.0 11309700000.0 11309700000.0 11309700000.0 11309700000.0 11309700000.0 11309700000.0 11309700000.0 11309700000.0 11309700000.0 11309700000.0 11309700000.0 11309700000.0 11309700000.0 11309700000.0 11309700000.0 11309700000.0 11309700000.0 11309700000.0 11309700000.0 11309700000.0 11309700000.0 11309700000.0 11309700000.0 11309700000.0 11309700000.0 11309700000.0 11309700000.0 11309700000.0 11309700000.0 11309700000.0 11309700000.0 11309700000.0 11309700000.0 11309700000.0 11309700000.0 11309700000.0 11309700000.0 11309700000.0 11309700000.0 11309700000.0 11309700000.0 11309700000.0 11309700000.0 11309700000.0 11309700000.0 11309700000.0 11309700000.0 11309700000.0 11309700000.0 11309700000.0 11309700000.0 11309700000.0 11309700000.0 11309700000.0 11309700000.0 11309700000.0 11309700000.0 11309700000.0 11309700000.0 11309700000.0 11309700000.0 11309700000.0 11309700000.0 11309700000.0 11309700000.0 11309700000.0 11309700000.0 11309700000.0 11309700000.0 11309700000.0 11309700000.0 11309700000.0 11309700000.0 11309700000.0 11309700000.0 11309700000.0 11309700000.0 11309700000.0 11309700000.0 11309700000.0 11309700000.0 11309700000.0 11309700000.0 11309700000.0 11309700000.0 11309700000.0 11309700000.0 11309700000.0 11309700000.0 11309700000.0 11309700000.0 11309700000.0 11309700000.0 11309700000.0 11309700000.0 11309700000.0 11309700000.0 11309700000.0 11309700000.0 11309700000.0 11309700000.0 11309700000.0 11309700000.0 11309700000.0 11309700000.0 11309700000.0 11309700000.0 11309700000.0 11309700000.0 11309700000.0 11309700000.0 11309700000.0 11309700000.0 11309700000.0 11309700000.0 11309700000.0 11309700000.0 11309700000.0 11309700000.0 11309700000.0 11309700000.0 11309700000.0 11309700000.0 11309700000.0 11309700000.0 11309700000.0 11309700000.0 11309700000.0 11309700000.0 11309700000.0 11309700000.0 11309700000.0 11309700000.0 11309700000.0 11309700000.0 11309700000.0 11309700000.0 11309700000.0 11309700000.0 11309700000.0 11309700000.0 11309700000.0 11309700000.0 11309700000.0 11309700000.0 11309700000.0 11309700000.0 11309700000.0 11309700000.0 11309700000.0 11309700000.0 11309700000.0 11309700000.0 11309700000.0 11309700000.0 11309700000.0 11309700000.0 11309700000.0 11309700000.0 11309700000.0 11309700000.0 11309700000.0 11309700000.0 11309700000.0 11309700000.0 11309700000.0 11309700000.0 11309700000.0 11309700000.0 11309700000.0 11309700000.0 11309700000.0 11309700000.0 11309700000.0 11309700000.0 11309700000.0 11309700000.0 11309700000.0 11309700000.0 11309700000.0 11309700000.0 11309700000.0 11309700000.0 11309700000.0 11309700000.0 11309700000.0 11309700000.0 11309700000.0 11309700000.0 11309700000.0 11309700000.0 11309700000.0 11309700000.0 11309700000.0 11309700000.0 11309700000.0 11309700000.0 11309700000.0 11309700000.0 11309700000.0 11309700000.0 11309700000.0 11309700000.0 11309700000.0 11309700000.0 11309700000.0 11309700000.0 11309700000.0 11309700000.0 11309700000.0 11309700000.0 11309700000.0 11309700000.0 11309700000.0 11309700000.0 11309700000.0 11309700000.0 11309700000.0 11309700000.0 11309700000.0 11309700000.0 11309700000.0 11309700000.0 11309700000.0 11309700000.0 11309700000.0 11309700000.0 11309700000.0 11309700000.0 11309700000.0 11309700000.0 11309700000.0 11309700000.0 11309700000.0 11309700000.0 11309700000.0 11309700000.0 11309700000.0 11309700000.0 11309700000.0 11309700000.0 11309700000.0 11309700000.0 11309700000.0 11309700000.0 11309700000.0 11309700000.0 11309700000.0 11309700000.0 11309700000.0 11309700000.0 11309700000.0 11309700000.0 11309700000.0 11309700000.0 11309700000.0 11309700000.0 11309700000.0 11309700000.0 11309700000.0 11309700000.0 11309700000.0 11309700000.0 11309700000.0 11309700000.0 11309700000.0 11309700000.0 11309700000.0 11309700000.0 11309700000.0 11309700000.0 11309700000.0 11309700000.0 11309700000.0 11309700000.0 11309700000.0 11309700000.0 11309700000.0 11309700000.0 11309700000.0 11309700000.0 11309700000.0 11309700000.0 11309700000.0 11309700000.0 11309700000.0 11309700000.0 11309700000.0 11309700000.0 11309700000.0 11309700000.0 11309700000.0 11309700000.0 11309700000.0 11309700000.0 11309700000.0 11309700000.0 11309700000.0 11309700000.0 11309700000.0 11309700000.0 11309700000.0 11309700000.0 11309700000.0 11309700000.0 11309700000.0 11309700000.0 11309700000.0 11309700000.0 11309700000.0 11309700000.0 11309700000.0 11309700000.0 11309700000.0 11309700000.0 11309700000.0 11309700000.0 11309700000.0 11309700000.0 11309700000.0 11309700000.0 11309700000.0 11309700000.0 11309700000.0 11309700000.0 11309700000.0 11309700000.0 11309700000.0 11309700000.0 11309700000.0 11309700000.0 11309700000.0 11309700000.0 11309700000.0 11309700000.0 11309700000.0 11309700000.0 11309700000.0 11309700000.0 11309700000.0 11309700000.0 11309700000.0 11309700000.0 11309700000.0 11309700000.0 11309700000.0 11309700000.0 11309700000.0 11309700000.0 11309700000.0 11309700000.0 11309700000.0 11309700000.0 11309700000.0 11309700000.0 11309700000.0 11309700000.0 11309700000.0 11309700000.0 11309700000.0 11309700000.0 11309700000.0 11309700000.0 11309700000.0 11309700000.0 11309700000.0 11309700000.0 11309700000.0 11309700000.0 11309700000.0 11309700000.0 11309700000.0 11309700000.0 11309700000.0 11309700000.0 11309700000.0 11309700000.0 11309700000.0 11309700000.0 11309700000.0 11309700000.0 11309700000.0 11309700000.0 11309700000.0 11309700000.0 11309700000.0 11309700000.0 11309700000.0 11309700000.0 11309700000.0 11309700000.0 11309700000.0 11309700000.0 11309700000.0 11309700000.0 11309700000.0 11309700000.0 11309700000.0 11309700000.0 11309700000.0 11309700000.0 11309700000.0 11309700000.0 11309700000.0 11309700000.0 11309700000.0 11309700000.0 11309700000.0 11309700000.0 11309700000.0 11309700000.0 11309700000.0 11309700000.0 11309700000.0 11309700000.0 11309700000.0 11309700000.0 11309700000.0 11309700000.0 11309700000.0 11309700000.0 11309700000.0 11309700000.0 11309700000.0 11309700000.0 11309700000.0 11309700000.0 11309700000.0 11309700000.0 11309700000.0 11309700000.0 11309700000.0 11309700000.0 11309700000.0 11309700000.0 11309700000.0 11309700000.0 11309700000.0 11309700000.0 11309700000.0 11309700000.0 11309700000.0 11309700000.0 11309700000.0 11309700000.0 11309700000.0 11309700000.0 11309700000.0 11309700000.0 11309700000.0 11309700000.0 11309700000.0 11309700000.0 11309700000.0 11309700000.0 11309700000.0 11309700000.0 11309700000.0 11309700000.0 11309700000.0 11309700000.0 11309700000.0 11309700000.0 11309700000.0 11309700000.0 11309700000.0 11309700000.0 11309700000.0 11309700000.0 11309700000.0 11309700000.0 11309700000.0 11309700000.0 11309700000.0 11309700000.0 11309700000.0 11309700000.0 11309700000.0 11309700000.0 11309700000.0 11309700000.0 11309700000.0 11309700000.0 11309700000.0 11309700000.0 11309700000.0 11309700000.0 11309700000.0 11309700000.0 11309700000.0 11309700000.0 11309700000.0 11309700000.0 11309700000.0 11309700000.0 11309700000.0 11309700000.0 11309700000.0 11309700000.0 11309700000.0 11309700000.0 11309700000.0 11309700000.0 11309700000.0 11309700000.0 11309700000.0 11309700000.0 11309700000.0 11309700000.0 11309700000.0 11309700000.0 11309700000.0 11309700000.0 11309700000.0 11309700000.0 11309700000.0 11309700000.0 11309700000.0 11309700000.0 11309700000.0 11309700000.0 11309700000.0 11309700000.0 11309700000.0 11309700000.0 11309700000.0 11309700000.0 11309700000.0 11309700000.0 11309700000.0 11309700000.0 11309700000.0 11309700000.0 11309700000.0 11309700000.0 11309700000.0 11309700000.0 11309700000.0 11309700000.0 11309700000.0 11309700000.0 11309700000.0 11309700000.0 11309700000.0 11309700000.0 11309700000.0 11309700000.0 11309700000.0 11309700000.0 11309700000.0 11309700000.0 11309700000.0 11309700000.0 11309700000.0 11309700000.0 11309700000.0 11309700000.0 11309700000.0 11309700000.0 11309700000.0 11309700000.0 11309700000.0 11309700000.0 11309700000.0 11309700000.0 11309700000.0 11309700000.0 11309700000.0 11309700000.0 11309700000.0 11309700000.0 11309700000.0 11309700000.0 11309700000.0 11309700000.0 11309700000.0 11309700000.0 11309700000.0 11309700000.0 11309700000.0 11309700000.0 11309700000.0 11309700000.0 11309700000.0 11309700000.0 11309700000.0 11309700000.0 11309700000.0 11309700000.0 11309700000.0 11309700000.0 11309700000.0 11309700000.0 11309700000.0 11309700000.0 11309700000.0 11309700000.0 11309700000.0 11309700000.0 11309700000.0 11309700000.0 11309700000.0 11309700000.0 11309700000.0 11309700000.0 11309700000.0 11309700000.0 11309700000.0 11309700000.0 11309700000.0 11309700000.0 11309700000.0 11309700000.0 11309700000.0 11309700000.0 11309700000.0 11309700000.0 11309700000.0 11309700000.0 11309700000.0 11309700000.0 11309700000.0 11309700000.0 11309700000.0 11309700000.0 11309700000.0 11309700000.0 11309700000.0 11309700000.0 11309700000.0 11309700000.0 11309700000.0 11309700000.0 11309700000.0 11309700000.0 11309700000.0 11309700000.0 11309700000.0 11309700000.0 11309700000.0 11309700000.0 11309700000.0 11309700000.0 11309700000.0 11309700000.0 11309700000.0 11309700000.0 11309700000.0 11309700000.0 11309700000.0 11309700000.0 11309700000.0 11309700000.0 11309700000.0 11309700000.0 11309700000.0 11309700000.0 11309700000.0 11309700000.0 11309700000.0 11309700000.0 11309700000.0 11309700000.0 11309700000.0 11309700000.0 11309700000.0 11309700000.0 11309700000.0 11309700000.0 11309700000.0 11309700000.0 11309700000.0 11309700000.0 11309700000.0 11309700000.0 11309700000.0 11309700000.0 11309700000.0 11309700000.0 11309700000.0 11309700000.0 11309700000.0 11309700000.0 11309700000.0 11309700000.0 11309700000.0 11309700000.0 11309700000.0 11309700000.0 11309700000.0 11309700000.0 11309700000.0 11309700000.0 11309700000.0 11309700000.0 11309700000.0 11309700000.0 11309700000.0 11309700000.0 11309700000.0 11309700000.0 11309700000.0 11309700000.0 11309700000.0 11309700000.0 11309700000.0 11309700000.0 11309700000.0 11309700000.0 11309700000.0 11309700000.0 11309700000.0 11309700000.0 11309700000.0 11309700000.0 11309700000.0 11309700000.0 11309700000.0 11309700000.0 11309700000.0 11309700000.0 11309700000.0 11309700000.0 11309700000.0 11309700000.0 11309700000.0 11309700000.0 11309700000.0 11309700000.0 11309700000.0 11309700000.0 11309700000.0 11309700000.0 11309700000.0 11309700000.0 11309700000.0 11309700000.0 11309700000.0 11309700000.0 11309700000.0 11309700000.0 11309700000.0 11309700000.0 11309700000.0 11309700000.0 11309700000.0 11309700000.0 11309700000.0 11309700000.0 11309700000.0 11309700000.0 11309700000.0 11309700000.0 11309700000.0 11309700000.0 11309700000.0 11309700000.0 11309700000.0 11309700000.0 11309700000.0 11309700000.0 11309700000.0 11309700000.0 11309700000.0 11309700000.0 11309700000.0 11309700000.0 11309700000.0 11309700000.0 11309700000.0 11309700000.0 11309700000.0 11309700000.0 11309700000.0 11309700000.0 11309700000.0 11309700000.0 11309700000.0 11309700000.0 11309700000.0 11309700000.0 11309700000.0 11309700000.0 11309700000.0 11309700000.0 11309700000.0 11309700000.0 11309700000.0 11309700000.0 11309700000.0 11309700000.0 11309700000.0 11309700000.0 11309700000.0 11309700000.0 11309700000.0 11309700000.0 11309700000.0 11309700000.0 11309700000.0 11309700000.0 11309700000.0 11309700000.0 11309700000.0 11309700000.0 11309700000.0 11309700000.0 11309700000.0 11309700000.0 11309700000.0 11309700000.0 11309700000.0 11309700000.0 11309700000.0 11309700000.0 11309700000.0 11309700000.0 11309700000.0 11309700000.0 11309700000.0 11309700000.0 11309700000.0 11309700000.0 11309700000.0 11309700000.0 11309700000.0 11309700000.0 11309700000.0 11309700000.0 11309700000.0 11309700000.0 11309700000.0 11309700000.0 11309700000.0 11309700000.0 11309700000.0 11309700000.0 11309700000.0 11309700000.0 11309700000.0 11309700000.0 11309700000.0 11309700000.0 11309700000.0 11309700000.0 11309700000.0 11309700000.0 11309700000.0 11309700000.0 11309700000.0 11309700000.0 11309700000.0 11309700000.0 11309700000.0 11309700000.0 11309700000.0 11309700000.0 11309700000.0 11309700000.0 11309700000.0 11309700000.0 11309700000.0 11309700000.0 11309700000.0 11309700000.0 11309700000.0 11309700000.0 11309700000.0 11309700000.0 11309700000.0 11309700000.0 11309700000.0 11309700000.0 11309700000.0 11309700000.0 11309700000.0 11309700000.0 11309700000.0 11309700000.0 11309700000.0 11309700000.0 11309700000.0 11309700000.0 11309700000.0 11309700000.0 11309700000.0 11309700000.0 11309700000.0 11309700000.0 11309700000.0 11309700000.0 11309700000.0 11309700000.0 11309700000.0 11309700000.0 11309700000.0 11309700000.0 11309700000.0 11309700000.0 11309700000.0 11309700000.0 11309700000.0 11309700000.0 11309700000.0 11309700000.0 11309700000.0 11309700000.0 11309700000.0 11309700000.0 11309700000.0 11309700000.0 11309700000.0 11309700000.0 11309700000.0 11309700000.0 11309700000.0 11309700000.0 11309700000.0 11309700000.0 11309700000.0 11309700000.0 11309700000.0 11309700000.0 11309700000.0 11309700000.0 11309700000.0 11309700000.0 11309700000.0 11309700000.0 11309700000.0 11309700000.0 11309700000.0 11309700000.0 11309700000.0 11309700000.0 11309700000.0 11309700000.0 11309700000.0 11309700000.0 11309700000.0 11309700000.0 11309700000.0 11309700000.0 11309700000.0 11309700000.0 11309700000.0 11309700000.0 11309700000.0 11309700000.0 11309700000.0 11309700000.0 11309700000.0 11309700000.0 11309700000.0 11309700000.0 11309700000.0 11309700000.0 11309700000.0 11309700000.0 11309700000.0 11309700000.0 11309700000.0 11309700000.0 11309700000.0 11309700000.0 11309700000.0 11309700000.0 11309700000.0 11309700000.0 11309700000.0 11309700000.0 11309700000.0 11309700000.0 11309700000.0 11309700000.0 11309700000.0 11309700000.0 11309700000.0 11309700000.0 11309700000.0 11309700000.0 11309700000.0 11309700000.0 11309700000.0 11309700000.0 11309700000.0 11309700000.0 11309700000.0 11309700000.0 11309700000.0 11309700000.0 11309700000.0 11309700000.0 11309700000.0 11309700000.0 11309700000.0 11309700000.0 11309700000.0 11309700000.0 11309700000.0 11309700000.0 11309700000.0 11309700000.0 11309700000.0 11309700000.0 11309700000.0 11309700000.0 11309700000.0 11309700000.0 11309700000.0 11309700000.0 11309700000.0 11309700000.0 11309700000.0 11309700000.0 11309700000.0 11309700000.0 11309700000.0 11309700000.0 11309700000.0 11309700000.0 11309700000.0 11309700000.0 11309700000.0 11309700000.0 11309700000.0 11309700000.0 11309700000.0 11309700000.0 11309700000.0 11309700000.0 11309700000.0 11309700000.0 11309700000.0 11309700000.0 11309700000.0 11309700000.0 11309700000.0 11309700000.0 11309700000.0 11309700000.0 11309700000.0 11309700000.0 11309700000.0 11309700000.0 11309700000.0 11309700000.0 11309700000.0 11309700000.0 11309700000.0 11309700000.0 11309700000.0 11309700000.0 11309700000.0 11309700000.0 11309700000.0 11309700000.0 11309700000.0 11309700000.0 11309700000.0 11309700000.0 11309700000.0 11309700000.0 11309700000.0 11309700000.0 11309700000.0 11309700000.0 11309700000.0 11309700000.0 11309700000.0 11309700000.0 11309700000.0 11309700000.0 11309700000.0 11309700000.0 11309700000.0 11309700000.0 11309700000.0 11309700000.0 11309700000.0 11309700000.0 11309700000.0 11309700000.0 11309700000.0 11309700000.0 11309700000.0 11309700000.0 11309700000.0 11309700000.0 11309700000.0 11309700000.0 11309700000.0 11309700000.0 11309700000.0 11309700000.0 11309700000.0 11309700000.0 11309700000.0 11309700000.0 11309700000.0 11309700000.0 11309700000.0 11309700000.0 11309700000.0 11309700000.0 11309700000.0 11309700000.0 11309700000.0 11309700000.0 11309700000.0 11309700000.0 11309700000.0 11309700000.0 11309700000.0 11309700000.0 11309700000.0 11309700000.0 11309700000.0 11309700000.0 11309700000.0 11309700000.0 11309700000.0 11309700000.0 11309700000.0 11309700000.0 11309700000.0 11309700000.0 11309700000.0 11309700000.0 11309700000.0 11309700000.0 11309700000.0 11309700000.0 11309700000.0 11309700000.0 11309700000.0 11309700000.0 11309700000.0 11309700000.0 11309700000.0 11309700000.0 11309700000.0 11309700000.0 11309700000.0 11309700000.0 11309700000.0 11309700000.0 11309700000.0 11309700000.0 11309700000.0 11309700000.0 11309700000.0 11309700000.0 11309700000.0 11309700000.0 11309700000.0 11309700000.0 11309700000.0 11309700000.0 11309700000.0 11309700000.0 11309700000.0 11309700000.0 11309700000.0 11309700000.0 11309700000.0 11309700000.0 11309700000.0 11309700000.0 11309700000.0 11309700000.0 11309700000.0 11309700000.0 11309700000.0 11309700000.0 11309700000.0 11309700000.0 11309700000.0 11309700000.0 11309700000.0 11309700000.0 11309700000.0 11309700000.0 11309700000.0 11309700000.0 11309700000.0 11309700000.0 11309700000.0 11309700000.0 11309700000.0 11309700000.0 11309700000.0 11309700000.0 11309700000.0 11309700000.0 11309700000.0 11309700000.0 11309700000.0 11309700000.0 11309700000.0 11309700000.0 11309700000.0 11309700000.0 11309700000.0 11309700000.0 11309700000.0 11309700000.0 11309700000.0 11309700000.0 11309700000.0 11309700000.0 11309700000.0 11309700000.0 11309700000.0 11309700000.0 11309700000.0 11309700000.0 11309700000.0 11309700000.0 11309700000.0 11309700000.0 11309700000.0 11309700000.0 11309700000.0 11309700000.0 11309700000.0 11309700000.0 11309700000.0 11309700000.0 11309700000.0 11309700000.0 11309700000.0 11309700000.0 11309700000.0 11309700000.0 11309700000.0 11309700000.0 11309700000.0 11309700000.0 11309700000.0 11309700000.0 11309700000.0 11309700000.0 11309700000.0 11309700000.0 11309700000.0 11309700000.0 11309700000.0 11309700000.0 11309700000.0 11309700000.0 11309700000.0 11309700000.0 11309700000.0 11309700000.0 11309700000.0 11309700000.0 11309700000.0 11309700000.0 11309700000.0 11309700000.0 11309700000.0 11309700000.0 11309700000.0 11309700000.0 11309700000.0 11309700000.0 11309700000.0 11309700000.0 11309700000.0 11309700000.0 11309700000.0 11309700000.0 11309700000.0 11309700000.0 11309700000.0 11309700000.0 11309700000.0 11309700000.0 11309700000.0 11309700000.0 11309700000.0 11309700000.0 11309700000.0 11309700000.0 11309700000.0 11309700000.0 11309700000.0 11309700000.0 11309700000.0 11309700000.0 11309700000.0 11309700000.0 11309700000.0 11309700000.0 11309700000.0 11309700000.0 11309700000.0 11309700000.0 11309700000.0 11309700000.0 11309700000.0 11309700000.0 11309700000.0 11309700000.0 11309700000.0 11309700000.0 11309700000.0 11309700000.0 11309700000.0 11309700000.0 11309700000.0 11309700000.0 11309700000.0 11309700000.0 11309700000.0 11309700000.0 11309700000.0 11309700000.0 11309700000.0 11309700000.0 11309700000.0 11309700000.0 11309700000.0 11309700000.0 11309700000.0 11309700000.0 11309700000.0 11309700000.0 11309700000.0 11309700000.0 11309700000.0 11309700000.0 11309700000.0 11309700000.0 11309700000.0 11309700000.0 11309700000.0 11309700000.0 11309700000.0 11309700000.0 11309700000.0 11309700000.0 11309700000.0 11309700000.0 11309700000.0 11309700000.0 11309700000.0 11309700000.0 11309700000.0 11309700000.0 11309700000.0 11309700000.0 11309700000.0 11309700000.0 11309700000.0 11309700000.0 11309700000.0 11309700000.0 11309700000.0 11309700000.0 11309700000.0 11309700000.0 11309700000.0 11309700000.0 11309700000.0 11309700000.0 11309700000.0 11309700000.0 11309700000.0 11309700000.0 11309700000.0 11309700000.0 11309700000.0 11309700000.0 11309700000.0 11309700000.0 11309700000.0 11309700000.0 11309700000.0 11309700000.0 11309700000.0 11309700000.0 11309700000.0 11309700000.0 11309700000.0 11309700000.0 11309700000.0 11309700000.0 11309700000.0 11309700000.0 11309700000.0 11309700000.0 11309700000.0 11309700000.0 11309700000.0 11309700000.0 11309700000.0 11309700000.0 11309700000.0 11309700000.0 11309700000.0 11309700000.0 11309700000.0 11309700000.0 11309700000.0 11309700000.0 11309700000.0 11309700000.0 11309700000.0 11309700000.0 11309700000.0 11309700000.0 11309700000.0 11309700000.0 11309700000.0 11309700000.0 11309700000.0 11309700000.0 11309700000.0 11309700000.0 11309700000.0 11309700000.0 11309700000.0 11309700000.0 11309700000.0 11309700000.0 11309700000.0 11309700000.0 11309700000.0 11309700000.0 11309700000.0 11309700000.0 11309700000.0 11309700000.0 11309700000.0 11309700000.0 11309700000.0 11309700000.0 11309700000.0 11309700000.0 11309700000.0 11309700000.0 11309700000.0 11309700000.0 11309700000.0 11309700000.0 11309700000.0 11309700000.0 11309700000.0 11309700000.0 11309700000.0 11309700000.0 11309700000.0 11309700000.0 11309700000.0 11309700000.0 11309700000.0 11309700000.0 11309700000.0 11309700000.0 11309700000.0 11309700000.0 11309700000.0 11309700000.0 11309700000.0 11309700000.0 11309700000.0 11309700000.0 11309700000.0 11309700000.0 11309700000.0 11309700000.0 11309700000.0 11309700000.0 11309700000.0 11309700000.0 11309700000.0 11309700000.0 11309700000.0 11309700000.0 11309700000.0 11309700000.0 11309700000.0 11309700000.0 11309700000.0 11309700000.0 11309700000.0 11309700000.0 11309700000.0 11309700000.0 11309700000.0 11309700000.0 11309700000.0 11309700000.0 11309700000.0 11309700000.0 11309700000.0 11309700000.0 11309700000.0 11309700000.0 11309700000.0 11309700000.0 11309700000.0 11309700000.0 11309700000.0 11309700000.0 11309700000.0 11309700000.0 11309700000.0 11309700000.0 11309700000.0 11309700000.0 11309700000.0 11309700000.0 11309700000.0 11309700000.0 11309700000.0 11309700000.0 11309700000.0 11309700000.0 11309700000.0 11309700000.0 11309700000.0 11309700000.0 11309700000.0 11309700000.0 11309700000.0 11309700000.0 11309700000.0 11309700000.0 11309700000.0 11309700000.0 11309700000.0 11309700000.0 11309700000.0 11309700000.0 11309700000.0 11309700000.0 11309700000.0 11309700000.0 11309700000.0 11309700000.0 11309700000.0 11309700000.0 11309700000.0 11309700000.0 11309700000.0 11309700000.0 11309700000.0 11309700000.0 11309700000.0 11309700000.0 11309700000.0 11309700000.0 11309700000.0 11309700000.0 11309700000.0 11309700000.0 11309700000.0 11309700000.0 11309700000.0 11309700000.0 11309700000.0 11309700000.0 11309700000.0 11309700000.0 11309700000.0 11309700000.0 11309700000.0 11309700000.0 11309700000.0 11309700000.0 11309700000.0 11309700000.0 11309700000.0 11309700000.0 11309700000.0 11309700000.0 11309700000.0 11309700000.0 11309700000.0 11309700000.0 11309700000.0 11309700000.0 11309700000.0 11309700000.0 11309700000.0 11309700000.0 11309700000.0 11309700000.0 11309700000.0 11309700000.0 11309700000.0 11309700000.0 11309700000.0 11309700000.0 11309700000.0 11309700000.0 11309700000.0 11309700000.0 11309700000.0 11309700000.0 11309700000.0 11309700000.0 11309700000.0 11309700000.0 11309700000.0 11309700000.0 11309700000.0 11309700000.0 11309700000.0 11309700000.0 11309700000.0 11309700000.0 11309700000.0 11309700000.0 11309700000.0 11309700000.0 11309700000.0 11309700000.0 11309700000.0 11309700000.0 11309700000.0 11309700000.0 11309700000.0 11309700000.0 11309700000.0 11309700000.0 11309700000.0 11309700000.0 11309700000.0 11309700000.0 11309700000.0 11309700000.0 11309700000.0 11309700000.0 11309700000.0 11309700000.0 11309700000.0 11309700000.0 11309700000.0 11309700000.0 11309700000.0 11309700000.0 11309700000.0 11309700000.0 11309700000.0 11309700000.0 11309700000.0 11309700000.0 11309700000.0 11309700000.0 11309700000.0 11309700000.0 11309700000.0 11309700000.0 11309700000.0 11309700000.0 11309700000.0 11309700000.0 11309700000.0 11309700000.0 11309700000.0 11309700000.0 11309700000.0 11309700000.0 11309700000.0 11309700000.0 11309700000.0 11309700000.0 11309700000.0 11309700000.0 11309700000.0 11309700000.0 11309700000.0 11309700000.0 11309700000.0 11309700000.0 11309700000.0 11309700000.0 11309700000.0 11309700000.0 11309700000.0 11309700000.0 11309700000.0 11309700000.0 11309700000.0 11309700000.0 11309700000.0 11309700000.0 11309700000.0 11309700000.0 11309700000.0 11309700000.0 11309700000.0 11309700000.0 11309700000.0 11309700000.0 11309700000.0 11309700000.0 11309700000.0 11309700000.0 11309700000.0 11309700000.0 11309700000.0 11309700000.0 11309700000.0 11309700000.0 11309700000.0 11309700000.0 11309700000.0 11309700000.0 11309700000.0 11309700000.0 11309700000.0 11309700000.0 11309700000.0 11309700000.0 11309700000.0 11309700000.0 11309700000.0 11309700000.0 11309700000.0 11309700000.0 11309700000.0 11309700000.0 11309700000.0 11309700000.0 11309700000.0 11309700000.0 11309700000.0 11309700000.0 11309700000.0 11309700000.0 11309700000.0 11309700000.0 11309700000.0 11309700000.0 11309700000.0 11309700000.0 11309700000.0 11309700000.0 11309700000.0 11309700000.0 11309700000.0 11309700000.0 11309700000.0 11309700000.0 11309700000.0 11309700000.0 11309700000.0 11309700000.0 11309700000.0 11309700000.0 11309700000.0 11309700000.0 11309700000.0 11309700000.0 11309700000.0 11309700000.0 11309700000.0 11309700000.0 11309700000.0 11309700000.0 11309700000.0 11309700000.0 11309700000.0 11309700000.0 11309700000.0 11309700000.0 11309700000.0 11309700000.0 11309700000.0 11309700000.0 11309700000.0 11309700000.0 11309700000.0 11309700000.0 11309700000.0 11309700000.0 11309700000.0 11309700000.0 11309700000.0 11309700000.0 11309700000.0 11309700000.0 11309700000.0 11309700000.0 11309700000.0 11309700000.0 11309700000.0 11309700000.0 11309700000.0 11309700000.0 11309700000.0 11309700000.0 11309700000.0 11309700000.0 11309700000.0 11309700000.0 11309700000.0 11309700000.0 11309700000.0 11309700000.0 11309700000.0 11309700000.0 11309700000.0 11309700000.0 11309700000.0 11309700000.0 11309700000.0 11309700000.0 11309700000.0 11309700000.0 11309700000.0 11309700000.0 11309700000.0 11309700000.0 11309700000.0 11309700000.0 11309700000.0 11309700000.0 11309700000.0 11309700000.0 11309700000.0 11309700000.0 11309700000.0 11309700000.0 11309700000.0 11309700000.0 11309700000.0 11309700000.0 11309700000.0 11309700000.0 11309700000.0 11309700000.0 11309700000.0 11309700000.0 11309700000.0 11309700000.0 11309700000.0 11309700000.0 11309700000.0 11309700000.0 11309700000.0 11309700000.0 11309700000.0 11309700000.0 11309700000.0 11309700000.0 11309700000.0 11309700000.0 11309700000.0 11309700000.0 11309700000.0 11309700000.0 11309700000.0 11309700000.0 11309700000.0 11309700000.0 11309700000.0 11309700000.0 11309700000.0 11309700000.0 11309700000.0 11309700000.0 11309700000.0 11309700000.0 11309700000.0 11309700000.0 11309700000.0 11309700000.0 11309700000.0 11309700000.0 11309700000.0 11309700000.0 11309700000.0 11309700000.0 11309700000.0 11309700000.0 11309700000.0 11309700000.0 11309700000.0 11309700000.0 11309700000.0 11309700000.0 11309700000.0 11309700000.0 11309700000.0 11309700000.0 11309700000.0 11309700000.0 11309700000.0 11309700000.0 11309700000.0 11309700000.0 11309700000.0 11309700000.0 11309700000.0 11309700000.0 11309700000.0 11309700000.0 11309700000.0 11309700000.0 11309700000.0 11309700000.0 11309700000.0 11309700000.0 11309700000.0 11309700000.0 11309700000.0 11309700000.0 11309700000.0 11309700000.0 11309700000.0 11309700000.0 11309700000.0 11309700000.0 11309700000.0 11309700000.0 11309700000.0 11309700000.0 11309700000.0 11309700000.0 11309700000.0 11309700000.0 11309700000.0 11309700000.0 11309700000.0 11309700000.0 11309700000.0 11309700000.0 11309700000.0 11309700000.0 11309700000.0 11309700000.0 11309700000.0 11309700000.0 11309700000.0 11309700000.0 11309700000.0 11309700000.0 11309700000.0 11309700000.0 11309700000.0 11309700000.0 11309700000.0 11309700000.0 11309700000.0 11309700000.0 11309700000.0 11309700000.0 11309700000.0 11309700000.0 11309700000.0 11309700000.0 11309700000.0 11309700000.0 11309700000.0 11309700000.0 11309700000.0 11309700000.0 11309700000.0 11309700000.0 11309700000.0 11309700000.0 11309700000.0 11309700000.0 11309700000.0 11309700000.0 11309700000.0 11309700000.0 11309700000.0 11309700000.0 11309700000.0 11309700000.0 11309700000.0 11309700000.0 11309700000.0 11309700000.0 11309700000.0 11309700000.0 11309700000.0 11309700000.0 11309700000.0 11309700000.0 11309700000.0 11309700000.0 11309700000.0 11309700000.0 11309700000.0 11309700000.0 11309700000.0 11309700000.0 11309700000.0 11309700000.0 11309700000.0 11309700000.0 11309700000.0 11309700000.0 11309700000.0 11309700000.0 11309700000.0 11309700000.0 11309700000.0 11309700000.0 11309700000.0 11309700000.0 11309700000.0 11309700000.0 11309700000.0 11309700000.0 11309700000.0 11309700000.0 11309700000.0 11309700000.0 11309700000.0 11309700000.0 11309700000.0 11309700000.0 11309700000.0 11309700000.0 11309700000.0 11309700000.0 11309700000.0 11309700000.0 11309700000.0 11309700000.0 11309700000.0 11309700000.0 11309700000.0 11309700000.0 11309700000.0 11309700000.0 11309700000.0 11309700000.0 11309700000.0 11309700000.0 11309700000.0 11309700000.0 11309700000.0 11309700000.0 11309700000.0 11309700000.0 11309700000.0 11309700000.0 11309700000.0 11309700000.0 11309700000.0 11309700000.0 11309700000.0 11309700000.0 11309700000.0 11309700000.0 11309700000.0 11309700000.0 11309700000.0 11309700000.0 11309700000.0 11309700000.0 11309700000.0 11309700000.0 11309700000.0 11309700000.0 11309700000.0 11309700000.0 11309700000.0 11309700000.0 11309700000.0 11309700000.0 11309700000.0 11309700000.0 11309700000.0 11309700000.0 11309700000.0 11309700000.0 11309700000.0 11309700000.0 11309700000.0 11309700000.0 11309700000.0 11309700000.0 11309700000.0 11309700000.0 11309700000.0 11309700000.0 11309700000.0 11309700000.0 11309700000.0 11309700000.0 11309700000.0 11309700000.0 11309700000.0 11309700000.0 11309700000.0 11309700000.0 11309700000.0 11309700000.0 11309700000.0 11309700000.0 11309700000.0 11309700000.0 11309700000.0 11309700000.0 11309700000.0 11309700000.0 11309700000.0 11309700000.0 11309700000.0 11309700000.0 11309700000.0 11309700000.0 11309700000.0 11309700000.0 11309700000.0 11309700000.0 11309700000.0 11309700000.0 11309700000.0 11309700000.0 11309700000.0 11309700000.0 11309700000.0 11309700000.0 11309700000.0 11309700000.0 11309700000.0 11309700000.0 11309700000.0 11309700000.0 11309700000.0 11309700000.0 11309700000.0 11309700000.0 11309700000.0 11309700000.0 11309700000.0 11309700000.0 11309700000.0 11309700000.0 11309700000.0 11309700000.0 11309700000.0 11309700000.0 11309700000.0 11309700000.0 11309700000.0 11309700000.0 11309700000.0 11309700000.0 11309700000.0 11309700000.0 11309700000.0 11309700000.0 11309700000.0 11309700000.0 11309700000.0 11309700000.0 11309700000.0 11309700000.0 11309700000.0 11309700000.0 11309700000.0 11309700000.0 11309700000.0 11309700000.0 11309700000.0 11309700000.0 11309700000.0 11309700000.0 11309700000.0 11309700000.0 11309700000.0 11309700000.0 11309700000.0 11309700000.0 11309700000.0 11309700000.0 11309700000.0 11309700000.0 11309700000.0 11309700000.0 11309700000.0 11309700000.0 11309700000.0 11309700000.0 11309700000.0 11309700000.0 11309700000.0 11309700000.0 11309700000.0 11309700000.0 11309700000.0 11309700000.0 11309700000.0 11309700000.0 11309700000.0 11309700000.0 11309700000.0 11309700000.0 11309700000.0 11309700000.0 11309700000.0 11309700000.0 11309700000.0 11309700000.0 11309700000.0 11309700000.0 11309700000.0 11309700000.0 11309700000.0 11309700000.0 11309700000.0 11309700000.0 11309700000.0 11309700000.0 11309700000.0 11309700000.0 11309700000.0 11309700000.0 11309700000.0 11309700000.0 11309700000.0 11309700000.0 11309700000.0 11309700000.0 11309700000.0 11309700000.0 11309700000.0 11309700000.0 11309700000.0 11309700000.0 11309700000.0 11309700000.0 11309700000.0 11309700000.0 11309700000.0 11309700000.0 11309700000.0 11309700000.0 11309700000.0 11309700000.0 11309700000.0 11309700000.0 11309700000.0 11309700000.0 11309700000.0 11309700000.0 11309700000.0 11309700000.0 11309700000.0 11309700000.0 11309700000.0 11309700000.0 11309700000.0 11309700000.0 11309700000.0 11309700000.0 11309700000.0 11309700000.0 11309700000.0 11309700000.0 11309700000.0 11309700000.0 11309700000.0 11309700000.0 11309700000.0 11309700000.0 11309700000.0 11309700000.0 11309700000.0 11309700000.0 11309700000.0 11309700000.0 11309700000.0 11309700000.0 11309700000.0 11309700000.0 11309700000.0 11309700000.0 11309700000.0 11309700000.0 11309700000.0 11309700000.0 11309700000.0 11309700000.0 11309700000.0 11309700000.0 11309700000.0 11309700000.0 11309700000.0 11309700000.0 11309700000.0 11309700000.0 11309700000.0 11309700000.0 11309700000.0 11309700000.0 11309700000.0 11309700000.0 11309700000.0 11309700000.0 11309700000.0 11309700000.0 11309700000.0 11309700000.0 11309700000.0 11309700000.0 11309700000.0 11309700000.0 11309700000.0 11309700000.0 11309700000.0 11309700000.0 11309700000.0 11309700000.0 11309700000.0 11309700000.0 11309700000.0 11309700000.0 11309700000.0 11309700000.0 11309700000.0 11309700000.0 11309700000.0 11309700000.0 11309700000.0 11309700000.0 11309700000.0 11309700000.0 11309700000.0 11309700000.0 11309700000.0 11309700000.0 11309700000.0 11309700000.0 11309700000.0 11309700000.0 11309700000.0 11309700000.0 11309700000.0 11309700000.0 11309700000.0 11309700000.0 11309700000.0 11309700000.0 11309700000.0 11309700000.0 11309700000.0 11309700000.0 11309700000.0 11309700000.0 11309700000.0 11309700000.0 11309700000.0 11309700000.0 11309700000.0 11309700000.0 11309700000.0 11309700000.0 11309700000.0 11309700000.0 11309700000.0 11309700000.0 11309700000.0 11309700000.0 11309700000.0 11309700000.0 11309700000.0 11309700000.0 11309700000.0 11309700000.0 11309700000.0 11309700000.0 11309700000.0 11309700000.0 11309700000.0 11309700000.0 11309700000.0 11309700000.0 11309700000.0 11309700000.0 11309700000.0 11309700000.0 11309700000.0 11309700000.0 11309700000.0 11309700000.0 11309700000.0 11309700000.0 11309700000.0 11309700000.0 11309700000.0 11309700000.0 11309700000.0 11309700000.0 11309700000.0 11309700000.0 11309700000.0 11309700000.0 11309700000.0 11309700000.0 11309700000.0 11309700000.0 11309700000.0 11309700000.0 11309700000.0 11309700000.0 11309700000.0 11309700000.0 11309700000.0 11309700000.0 11309700000.0 11309700000.0 11309700000.0 11309700000.0 11309700000.0 11309700000.0 11309700000.0 11309700000.0 11309700000.0 11309700000.0 11309700000.0 11309700000.0 11309700000.0 11309700000.0 11309700000.0 11309700000.0 11309700000.0 11309700000.0 11309700000.0 11309700000.0 11309700000.0 11309700000.0 11309700000.0 11309700000.0 11309700000.0 11309700000.0 11309700000.0 11309700000.0 11309700000.0 11309700000.0 11309700000.0 11309700000.0 11309700000.0 11309700000.0 11309700000.0 11309700000.0 11309700000.0 11309700000.0 11309700000.0 11309700000.0 11309700000.0 11309700000.0 11309700000.0 11309700000.0 11309700000.0 11309700000.0 11309700000.0 11309700000.0 11309700000.0 11309700000.0 11309700000.0 11309700000.0 11309700000.0 11309700000.0 11309700000.0 11309700000.0 11309700000.0 11309700000.0 11309700000.0 11309700000.0 11309700000.0 11309700000.0 11309700000.0 11309700000.0 11309700000.0 11309700000.0 11309700000.0 11309700000.0 11309700000.0 11309700000.0 11309700000.0 11309700000.0 11309700000.0 11309700000.0 11309700000.0 11309700000.0 11309700000.0 11309700000.0 11309700000.0 11309700000.0 11309700000.0 11309700000.0 11309700000.0 11309700000.0 11309700000.0 11309700000.0 11309700000.0 11309700000.0 11309700000.0 11309700000.0 11309700000.0 11309700000.0 11309700000.0 11309700000.0 11309700000.0 11309700000.0 11309700000.0 11309700000.0 11309700000.0 11309700000.0 11309700000.0 11309700000.0 11309700000.0 11309700000.0 11309700000.0 11309700000.0 11309700000.0 11309700000.0 11309700000.0 11309700000.0 11309700000.0 11309700000.0 11309700000.0 11309700000.0 11309700000.0 11309700000.0 11309700000.0 11309700000.0 11309700000.0 11309700000.0 11309700000.0 11309700000.0 11309700000.0 11309700000.0 11309700000.0 11309700000.0 11309700000.0 11309700000.0 11309700000.0 11309700000.0 11309700000.0 11309700000.0 11309700000.0 11309700000.0 11309700000.0 11309700000.0 11309700000.0 11309700000.0 11309700000.0 11309700000.0 11309700000.0 11309700000.0 11309700000.0 11309700000.0 11309700000.0 11309700000.0 11309700000.0 11309700000.0 11309700000.0 11309700000.0 11309700000.0 11309700000.0 11309700000.0 11309700000.0 11309700000.0 11309700000.0 11309700000.0 11309700000.0 11309700000.0 11309700000.0 11309700000.0 11309700000.0 11309700000.0 11309700000.0 11309700000.0 11309700000.0 11309700000.0 11309700000.0 11309700000.0 11309700000.0 11309700000.0 11309700000.0 11309700000.0 11309700000.0 11309700000.0 11309700000.0 11309700000.0 11309700000.0 11309700000.0 11309700000.0 11309700000.0 11309700000.0 11309700000.0 11309700000.0 11309700000.0 11309700000.0 11309700000.0 11309700000.0 11309700000.0 11309700000.0 11309700000.0 11309700000.0 11309700000.0 11309700000.0 11309700000.0 11309700000.0 11309700000.0 11309700000.0 11309700000.0 11309700000.0 11309700000.0 11309700000.0 11309700000.0 11309700000.0 11309700000.0 11309700000.0 11309700000.0 11309700000.0 11309700000.0 11309700000.0 11309700000.0 11309700000.0 11309700000.0 11309700000.0 11309700000.0 11309700000.0 11309700000.0 11309700000.0 11309700000.0 11309700000.0 11309700000.0 11309700000.0 11309700000.0 11309700000.0 11309700000.0 11309700000.0 11309700000.0 11309700000.0 11309700000.0 11309700000.0 11309700000.0 11309700000.0 11309700000.0 11309700000.0 11309700000.0 11309700000.0 11309700000.0 11309700000.0 11309700000.0 11309700000.0 11309700000.0 11309700000.0 11309700000.0 11309700000.0 11309700000.0 11309700000.0 11309700000.0 11309700000.0 11309700000.0 11309700000.0 11309700000.0 11309700000.0 11309700000.0 11309700000.0 11309700000.0 11309700000.0 11309700000.0 11309700000.0 11309700000.0 11309700000.0 11309700000.0 11309700000.0 11309700000.0 11309700000.0 11309700000.0 11309700000.0 11309700000.0 11309700000.0 11309700000.0 11309700000.0 11309700000.0 11309700000.0 11309700000.0 11309700000.0 11309700000.0 11309700000.0 11309700000.0 11309700000.0 11309700000.0 11309700000.0 11309700000.0 11309700000.0 11309700000.0 11309700000.0 11309700000.0 11309700000.0 11309700000.0 11309700000.0 11309700000.0 11309700000.0 11309700000.0 11309700000.0 11309700000.0 11309700000.0 11309700000.0 11309700000.0 11309700000.0 11309700000.0 11309700000.0 11309700000.0 11309700000.0 11309700000.0 11309700000.0 11309700000.0 11309700000.0 11309700000.0 11309700000.0 11309700000.0 11309700000.0 11309700000.0 11309700000.0 11309700000.0 11309700000.0 11309700000.0 11309700000.0 11309700000.0 11309700000.0 11309700000.0 11309700000.0 11309700000.0 11309700000.0 11309700000.0 11309700000.0 11309700000.0 11309700000.0 11309700000.0 11309700000.0 11309700000.0 11309700000.0 11309700000.0 11309700000.0 11309700000.0 11309700000.0 11309700000.0 11309700000.0 11309700000.0 11309700000.0 11309700000.0 11309700000.0 11309700000.0 11309700000.0 11309700000.0 11309700000.0 11309700000.0 11309700000.0 11309700000.0 11309700000.0 11309700000.0 11309700000.0 11309700000.0 11309700000.0 11309700000.0 11309700000.0 11309700000.0 11309700000.0 11309700000.0 11309700000.0 11309700000.0 11309700000.0 11309700000.0 11309700000.0 11309700000.0 11309700000.0 11309700000.0 11309700000.0 11309700000.0 11309700000.0 11309700000.0 11309700000.0 11309700000.0 11309700000.0 11309700000.0 11309700000.0 11309700000.0 11309700000.0 11309700000.0 11309700000.0 11309700000.0 11309700000.0 11309700000.0 11309700000.0 11309700000.0 11309700000.0 11309700000.0 11309700000.0 11309700000.0 11309700000.0 11309700000.0 11309700000.0 11309700000.0 11309700000.0 11309700000.0 11309700000.0 11309700000.0 11309700000.0 11309700000.0 11309700000.0 11309700000.0 11309700000.0 11309700000.0 11309700000.0 11309700000.0 11309700000.0 11309700000.0 11309700000.0 11309700000.0 11309700000.0 11309700000.0 11309700000.0 11309700000.0 11309700000.0 11309700000.0 11309700000.0 11309700000.0 11309700000.0 11309700000.0 11309700000.0 11309700000.0 11309700000.0 11309700000.0 11309700000.0 11309700000.0 11309700000.0 11309700000.0 11309700000.0 11309700000.0 11309700000.0 11309700000.0 11309700000.0 11309700000.0 11309700000.0 11309700000.0 11309700000.0 11309700000.0 11309700000.0 11309700000.0 11309700000.0 11309700000.0 11309700000.0 11309700000.0 11309700000.0 11309700000.0 11309700000.0 11309700000.0 11309700000.0 11309700000.0 11309700000.0 11309700000.0 11309700000.0 11309700000.0 11309700000.0 11309700000.0 11309700000.0 11309700000.0 11309700000.0 11309700000.0 11309700000.0 11309700000.0 11309700000.0 11309700000.0 11309700000.0 11309700000.0 11309700000.0 11309700000.0 11309700000.0 11309700000.0 11309700000.0 11309700000.0 11309700000.0 11309700000.0 11309700000.0 11309700000.0 11309700000.0 11309700000.0 11309700000.0 11309700000.0 11309700000.0 11309700000.0 11309700000.0 11309700000.0 11309700000.0 11309700000.0 11309700000.0 11309700000.0 11309700000.0 11309700000.0 11309700000.0 11309700000.0 11309700000.0 11309700000.0 11309700000.0 11309700000.0 11309700000.0 11309700000.0 11309700000.0 11309700000.0 11309700000.0 11309700000.0 11309700000.0 11309700000.0 11309700000.0 11309700000.0 11309700000.0 11309700000.0 11309700000.0 11309700000.0 11309700000.0 11309700000.0 11309700000.0 11309700000.0 11309700000.0 11309700000.0 11309700000.0 11309700000.0 11309700000.0 11309700000.0 11309700000.0 11309700000.0 11309700000.0 11309700000.0 11309700000.0 11309700000.0 11309700000.0 11309700000.0 11309700000.0 11309700000.0 11309700000.0 11309700000.0 11309700000.0 11309700000.0 11309700000.0 11309700000.0 11309700000.0 11309700000.0 11309700000.0 11309700000.0 11309700000.0 11309700000.0 11309700000.0 11309700000.0 11309700000.0 11309700000.0 11309700000.0 11309700000.0 11309700000.0 11309700000.0 11309700000.0 11309700000.0 11309700000.0 11309700000.0 11309700000.0 11309700000.0 11309700000.0 11309700000.0 11309700000.0 11309700000.0 11309700000.0 11309700000.0 11309700000.0 11309700000.0 11309700000.0 11309700000.0 11309700000.0 11309700000.0 11309700000.0 11309700000.0 11309700000.0 11309700000.0 11309700000.0 11309700000.0 11309700000.0 11309700000.0 11309700000.0 11309700000.0 11309700000.0 11309700000.0 11309700000.0 11309700000.0 11309700000.0 11309700000.0 11309700000.0 11309700000.0 11309700000.0 11309700000.0 11309700000.0 11309700000.0 11309700000.0 11309700000.0 11309700000.0 11309700000.0 11309700000.0 11309700000.0 11309700000.0 11309700000.0 11309700000.0 11309700000.0 11309700000.0 11309700000.0 11309700000.0 11309700000.0 11309700000.0 11309700000.0 11309700000.0 11309700000.0 11309700000.0 11309700000.0 11309700000.0 11309700000.0 11309700000.0 11309700000.0 11309700000.0 11309700000.0 11309700000.0 11309700000.0 11309700000.0 11309700000.0 11309700000.0 11309700000.0 11309700000.0 11309700000.0 11309700000.0 11309700000.0 11309700000.0 11309700000.0 11309700000.0 11309700000.0 11309700000.0 11309700000.0 11309700000.0 11309700000.0 11309700000.0 11309700000.0 11309700000.0 11309700000.0 11309700000.0 11309700000.0 11309700000.0 11309700000.0 11309700000.0 11309700000.0 11309700000.0 11309700000.0 11309700000.0 11309700000.0 11309700000.0 11309700000.0 11309700000.0 11309700000.0 11309700000.0 11309700000.0 11309700000.0 11309700000.0 11309700000.0 11309700000.0 11309700000.0 11309700000.0 11309700000.0 11309700000.0 11309700000.0 11309700000.0 11309700000.0 11309700000.0 11309700000.0 11309700000.0 11309700000.0 11309700000.0 11309700000.0 11309700000.0 11309700000.0 11309700000.0 11309700000.0 11309700000.0 11309700000.0 11309700000.0 11309700000.0 11309700000.0 11309700000.0 11309700000.0 11309700000.0 11309700000.0 11309700000.0 11309700000.0 11309700000.0 11309700000.0 11309700000.0 11309700000.0 11309700000.0 11309700000.0 11309700000.0 11309700000.0 11309700000.0 11309700000.0 11309700000.0 11309700000.0 11309700000.0 11309700000.0 11309700000.0 11309700000.0 11309700000.0 11309700000.0 11309700000.0 11309700000.0 11309700000.0 11309700000.0 11309700000.0 11309700000.0 11309700000.0 11309700000.0 11309700000.0 11309700000.0 11309700000.0 11309700000.0 11309700000.0 11309700000.0 11309700000.0 11309700000.0 11309700000.0 11309700000.0 11309700000.0 11309700000.0 11309700000.0 11309700000.0 11309700000.0 11309700000.0 11309700000.0 11309700000.0 11309700000.0 11309700000.0 11309700000.0 11309700000.0 11309700000.0 11309700000.0 11309700000.0 11309700000.0 11309700000.0 11309700000.0 11309700000.0 11309700000.0 11309700000.0 11309700000.0 11309700000.0 11309700000.0 11309700000.0 11309700000.0 11309700000.0 11309700000.0 11309700000.0 11309700000.0 11309700000.0 11309700000.0 11309700000.0 11309700000.0 11309700000.0 11309700000.0 11309700000.0 11309700000.0 11309700000.0 11309700000.0 11309700000.0 11309700000.0 11309700000.0 11309700000.0 11309700000.0 11309700000.0 11309700000.0 11309700000.0 11309700000.0 11309700000.0 11309700000.0 11309700000.0 11309700000.0 11309700000.0 11309700000.0 11309700000.0 11309700000.0 11309700000.0 11309700000.0 11309700000.0 11309700000.0 11309700000.0 11309700000.0 11309700000.0 11309700000.0 11309700000.0 11309700000.0 11309700000.0 11309700000.0 11309700000.0 11309700000.0 11309700000.0 11309700000.0 11309700000.0 11309700000.0 11309700000.0 11309700000.0 11309700000.0 11309700000.0 11309700000.0 11309700000.0 11309700000.0 11309700000.0 11309700000.0 11309700000.0 11309700000.0 11309700000.0 11309700000.0 11309700000.0 11309700000.0 11309700000.0 11309700000.0 11309700000.0 11309700000.0 11309700000.0 11309700000.0 11309700000.0 11309700000.0 11309700000.0 11309700000.0 11309700000.0 11309700000.0 11309700000.0 11309700000.0 11309700000.0 11309700000.0 11309700000.0 11309700000.0 11309700000.0 11309700000.0 11309700000.0 11309700000.0 11309700000.0 11309700000.0 11309700000.0 11309700000.0 11309700000.0 11309700000.0 11309700000.0 11309700000.0 11309700000.0 11309700000.0 11309700000.0 11309700000.0 11309700000.0 11309700000.0 11309700000.0 11309700000.0 11309700000.0 11309700000.0 11309700000.0 11309700000.0 11309700000.0 11309700000.0 11309700000.0 11309700000.0 11309700000.0 11309700000.0 11309700000.0 11309700000.0 11309700000.0 11309700000.0 11309700000.0 11309700000.0 11309700000.0 11309700000.0 11309700000.0 11309700000.0 11309700000.0 11309700000.0 11309700000.0 11309700000.0 11309700000.0 11309700000.0 11309700000.0 11309700000.0 11309700000.0 11309700000.0 11309700000.0 11309700000.0 11309700000.0 11309700000.0 11309700000.0 11309700000.0 11309700000.0 11309700000.0 11309700000.0 11309700000.0 11309700000.0 11309700000.0 11309700000.0 11309700000.0 11309700000.0 11309700000.0 11309700000.0 11309700000.0 11309700000.0 11309700000.0 11309700000.0 11309700000.0 11309700000.0 11309700000.0 11309700000.0 11309700000.0 11309700000.0 11309700000.0 11309700000.0 11309700000.0 11309700000.0 11309700000.0 11309700000.0 11309700000.0 11309700000.0 11309700000.0 11309700000.0 11309700000.0 11309700000.0 11309700000.0 11309700000.0 11309700000.0 11309700000.0 11309700000.0 11309700000.0 11309700000.0 11309700000.0 11309700000.0 11309700000.0 11309700000.0 11309700000.0 11309700000.0 11309700000.0 11309700000.0 11309700000.0 11309700000.0 11309700000.0 11309700000.0 11309700000.0 11309700000.0 11309700000.0 11309700000.0 11309700000.0 11309700000.0 11309700000.0 11309700000.0 11309700000.0 11309700000.0 11309700000.0 11309700000.0 11309700000.0 11309700000.0 11309700000.0 11309700000.0 11309700000.0 11309700000.0 11309700000.0 11309700000.0 11309700000.0 11309700000.0 11309700000.0 11309700000.0 11309700000.0 11309700000.0 11309700000.0 11309700000.0 11309700000.0 11309700000.0 11309700000.0 11309700000.0 11309700000.0 11309700000.0 11309700000.0 11309700000.0 11309700000.0 11309700000.0 11309700000.0 11309700000.0 11309700000.0 11309700000.0 11309700000.0 11309700000.0 11309700000.0 11309700000.0 11309700000.0 11309700000.0 11309700000.0 11309700000.0 11309700000.0 11309700000.0 11309700000.0 11309700000.0 11309700000.0 11309700000.0 11309700000.0 11309700000.0 11309700000.0 11309700000.0 11309700000.0 11309700000.0 11309700000.0 11309700000.0 11309700000.0 11309700000.0 11309700000.0 11309700000.0 11309700000.0 11309700000.0 11309700000.0 11309700000.0 11309700000.0 11309700000.0 11309700000.0 11309700000.0 11309700000.0 11309700000.0 11309700000.0 11309700000.0 11309700000.0 11309700000.0 11309700000.0 11309700000.0 11309700000.0 11309700000.0 11309700000.0 11309700000.0 11309700000.0 11309700000.0 11309700000.0 11309700000.0 11309700000.0 11309700000.0 11309700000.0 11309700000.0 11309700000.0 11309700000.0 11309700000.0 11309700000.0 11309700000.0 11309700000.0 11309700000.0 11309700000.0 11309700000.0 11309700000.0 11309700000.0 11309700000.0 11309700000.0 11309700000.0 11309700000.0 11309700000.0 11309700000.0 11309700000.0 11309700000.0 11309700000.0 11309700000.0 11309700000.0 11309700000.0 11309700000.0 11309700000.0 11309700000.0 11309700000.0 11309700000.0 11309700000.0 11309700000.0 11309700000.0 11309700000.0 11309700000.0 11309700000.0 11309700000.0 11309700000.0 11309700000.0 11309700000.0 11309700000.0 11309700000.0 11309700000.0 11309700000.0 11309700000.0 11309700000.0 11309700000.0 11309700000.0 11309700000.0 11309700000.0 11309700000.0 11309700000.0 11309700000.0 11309700000.0 11309700000.0 11309700000.0 11309700000.0 11309700000.0 11309700000.0 11309700000.0 11309700000.0 11309700000.0 11309700000.0 11309700000.0 11309700000.0 11309700000.0 11309700000.0 11309700000.0 11309700000.0 11309700000.0 11309700000.0 11309700000.0 11309700000.0 11309700000.0 11309700000.0 11309700000.0 11309700000.0 11309700000.0 11309700000.0 11309700000.0 11309700000.0 11309700000.0 11309700000.0 11309700000.0 11309700000.0 11309700000.0 11309700000.0 11309700000.0 11309700000.0 11309700000.0 11309700000.0 11309700000.0 11309700000.0 11309700000.0 11309700000.0 11309700000.0 11309700000.0 11309700000.0 11309700000.0 11309700000.0 11309700000.0 11309700000.0 11309700000.0 11309700000.0 11309700000.0 11309700000.0 11309700000.0 11309700000.0 11309700000.0 11309700000.0 11309700000.0 11309700000.0 11309700000.0 11309700000.0 11309700000.0 11309700000.0 11309700000.0 11309700000.0 11309700000.0 11309700000.0 11309700000.0 11309700000.0 11309700000.0 11309700000.0 11309700000.0 11309700000.0 11309700000.0 11309700000.0 11309700000.0 11309700000.0 11309700000.0 11309700000.0 11309700000.0 11309700000.0 11309700000.0 11309700000.0 11309700000.0 11309700000.0 11309700000.0 11309700000.0 11309700000.0 11309700000.0 11309700000.0 11309700000.0 11309700000.0 11309700000.0 11309700000.0 11309700000.0 11309700000.0 11309700000.0 11309700000.0 11309700000.0 11309700000.0 11309700000.0 11309700000.0 11309700000.0 11309700000.0 11309700000.0 11309700000.0 11309700000.0 11309700000.0 11309700000.0 11309700000.0 11309700000.0 11309700000.0 11309700000.0 11309700000.0 11309700000.0 11309700000.0 11309700000.0 11309700000.0 11309700000.0 11309700000.0 11309700000.0 11309700000.0 11309700000.0 11309700000.0 11309700000.0 11309700000.0 11309700000.0 11309700000.0 11309700000.0 11309700000.0 11309700000.0 11309700000.0 11309700000.0 11309700000.0 11309700000.0 11309700000.0 11309700000.0 11309700000.0 11309700000.0 11309700000.0 11309700000.0 11309700000.0 11309700000.0 11309700000.0 11309700000.0 11309700000.0 11309700000.0 11309700000.0 11309700000.0 11309700000.0 11309700000.0 11309700000.0 11309700000.0 11309700000.0 11309700000.0 11309700000.0 11309700000.0 11309700000.0 11309700000.0 11309700000.0 11309700000.0 11309700000.0 11309700000.0 11309700000.0 11309700000.0 11309700000.0 11309700000.0 11309700000.0 11309700000.0 11309700000.0 11309700000.0 11309700000.0 11309700000.0 11309700000.0 11309700000.0 11309700000.0 11309700000.0 11309700000.0 11309700000.0 11309700000.0 11309700000.0 11309700000.0 11309700000.0 11309700000.0 11309700000.0 11309700000.0 11309700000.0 11309700000.0 11309700000.0 11309700000.0 11309700000.0 11309700000.0 11309700000.0 11309700000.0 11309700000.0 11309700000.0 11309700000.0 11309700000.0 11309700000.0 11309700000.0 11309700000.0 11309700000.0 11309700000.0 11309700000.0 11309700000.0 11309700000.0 11309700000.0 11309700000.0 11309700000.0 11309700000.0 11309700000.0 11309700000.0 11309700000.0 11309700000.0 11309700000.0 11309700000.0 11309700000.0 11309700000.0 11309700000.0 11309700000.0 11309700000.0 11309700000.0 11309700000.0 11309700000.0 11309700000.0 11309700000.0 11309700000.0 11309700000.0 11309700000.0 11309700000.0 11309700000.0 11309700000.0 11309700000.0 11309700000.0 11309700000.0 11309700000.0 11309700000.0 11309700000.0 11309700000.0 11309700000.0 11309700000.0 11309700000.0 11309700000.0 11309700000.0 11309700000.0 11309700000.0 11309700000.0 11309700000.0 11309700000.0 11309700000.0 11309700000.0 11309700000.0 11309700000.0 11309700000.0 11309700000.0 11309700000.0 11309700000.0 11309700000.0 11309700000.0 11309700000.0 11309700000.0 11309700000.0 11309700000.0 11309700000.0 11309700000.0 11309700000.0 11309700000.0 11309700000.0 11309700000.0 11309700000.0 11309700000.0 11309700000.0 11309700000.0 11309700000.0 11309700000.0 11309700000.0 11309700000.0 11309700000.0 11309700000.0 11309700000.0 11309700000.0 11309700000.0 11309700000.0 11309700000.0 11309700000.0 11309700000.0 11309700000.0 11309700000.0 11309700000.0 11309700000.0 11309700000.0 11309700000.0 11309700000.0 11309700000.0 11309700000.0 11309700000.0 11309700000.0 11309700000.0 11309700000.0 11309700000.0 11309700000.0 11309700000.0 11309700000.0 11309700000.0 11309700000.0 11309700000.0 11309700000.0 11309700000.0 11309700000.0 11309700000.0 11309700000.0 11309700000.0 11309700000.0 11309700000.0 11309700000.0 11309700000.0 11309700000.0 11309700000.0 11309700000.0 11309700000.0 11309700000.0 11309700000.0 11309700000.0 11309700000.0 11309700000.0 11309700000.0 11309700000.0 11309700000.0 11309700000.0 11309700000.0 11309700000.0 11309700000.0 11309700000.0 11309700000.0 11309700000.0 11309700000.0 11309700000.0 11309700000.0 11309700000.0 11309700000.0 11309700000.0 11309700000.0 11309700000.0 11309700000.0 11309700000.0 11309700000.0 11309700000.0 11309700000.0 11309700000.0 11309700000.0 11309700000.0 11309700000.0 11309700000.0 11309700000.0 11309700000.0 11309700000.0 11309700000.0 11309700000.0 11309700000.0 11309700000.0 11309700000.0 11309700000.0 11309700000.0 11309700000.0 11309700000.0 11309700000.0 11309700000.0 11309700000.0 11309700000.0 11309700000.0 11309700000.0 11309700000.0 11309700000.0 11309700000.0 11309700000.0 11309700000.0 11309700000.0 11309700000.0 11309700000.0 11309700000.0 11309700000.0 11309700000.0 11309700000.0 11309700000.0 11309700000.0 11309700000.0 11309700000.0 11309700000.0 11309700000.0 11309700000.0 11309700000.0 11309700000.0 11309700000.0 11309700000.0 11309700000.0 11309700000.0 11309700000.0 11309700000.0 11309700000.0 11309700000.0 11309700000.0 11309700000.0 11309700000.0 11309700000.0 11309700000.0 11309700000.0 11309700000.0 11309700000.0 11309700000.0 11309700000.0 11309700000.0 11309700000.0 11309700000.0 11309700000.0 11309700000.0 11309700000.0 11309700000.0 11309700000.0 11309700000.0 11309700000.0 11309700000.0 11309700000.0 11309700000.0 11309700000.0 11309700000.0 11309700000.0 11309700000.0 11309700000.0 11309700000.0 11309700000.0 11309700000.0 11309700000.0 11309700000.0 11309700000.0 11309700000.0 11309700000.0 11309700000.0 11309700000.0 11309700000.0 11309700000.0 11309700000.0 11309700000.0 11309700000.0 11309700000.0 11309700000.0 11309700000.0 11309700000.0 11309700000.0 11309700000.0 11309700000.0 11309700000.0 11309700000.0 11309700000.0 11309700000.0 11309700000.0 11309700000.0 11309700000.0 11309700000.0 11309700000.0 11309700000.0 11309700000.0 11309700000.0 11309700000.0 11309700000.0 11309700000.0 11309700000.0 11309700000.0 11309700000.0 11309700000.0 11309700000.0 11309700000.0 11309700000.0 11309700000.0 11309700000.0 11309700000.0 11309700000.0 11309700000.0 11309700000.0 11309700000.0 11309700000.0 11309700000.0 11309700000.0 11309700000.0 11309700000.0 11309700000.0 11309700000.0 11309700000.0 11309700000.0 11309700000.0 11309700000.0 11309700000.0 11309700000.0 11309700000.0 11309700000.0 11309700000.0 11309700000.0 11309700000.0 11309700000.0 11309700000.0 11309700000.0 11309700000.0 11309700000.0 11309700000.0 11309700000.0 11309700000.0 11309700000.0 11309700000.0 11309700000.0 11309700000.0 11309700000.0 11309700000.0 11309700000.0 11309700000.0 11309700000.0 11309700000.0 11309700000.0 11309700000.0 11309700000.0 11309700000.0 11309700000.0 11309700000.0 11309700000.0 11309700000.0 11309700000.0 11309700000.0 11309700000.0 11309700000.0 11309700000.0 11309700000.0 11309700000.0 11309700000.0 11309700000.0 11309700000.0 11309700000.0 11309700000.0 11309700000.0 11309700000.0 11309700000.0 11309700000.0 11309700000.0 11309700000.0 11309700000.0 11309700000.0 11309700000.0 11309700000.0 11309700000.0 11309700000.0 11309700000.0 11309700000.0 11309700000.0 11309700000.0 11309700000.0 11309700000.0 11309700000.0 11309700000.0 11309700000.0 11309700000.0 11309700000.0 11309700000.0 11309700000.0 11309700000.0 11309700000.0 11309700000.0 11309700000.0 11309700000.0 11309700000.0 11309700000.0 11309700000.0 11309700000.0 11309700000.0 11309700000.0 11309700000.0 11309700000.0 11309700000.0 11309700000.0 11309700000.0 11309700000.0 11309700000.0 11309700000.0 11309700000.0 11309700000.0 11309700000.0 11309700000.0 11309700000.0 11309700000.0 11309700000.0 11309700000.0 11309700000.0 11309700000.0 11309700000.0 11309700000.0 11309700000.0 11309700000.0 11309700000.0 11309700000.0 11309700000.0 11309700000.0 11309700000.0 11309700000.0 11309700000.0 11309700000.0 11309700000.0 11309700000.0 11309700000.0 11309700000.0 11309700000.0 11309700000.0 11309700000.0 11309700000.0 11309700000.0 11309700000.0 11309700000.0 11309700000.0 11309700000.0 11309700000.0 11309700000.0 11309700000.0 11309700000.0 11309700000.0 11309700000.0 11309700000.0 11309700000.0 11309700000.0 11309700000.0 11309700000.0 11309700000.0 11309700000.0 11309700000.0 11309700000.0 11309700000.0 11309700000.0 11309700000.0 11309700000.0 11309700000.0 11309700000.0 11309700000.0 11309700000.0 11309700000.0 11309700000.0 11309700000.0 11309700000.0 11309700000.0 11309700000.0 11309700000.0 11309700000.0 11309700000.0 11309700000.0 11309700000.0 11309700000.0 11309700000.0 11309700000.0 11309700000.0 11309700000.0 11309700000.0 11309700000.0 11309700000.0 11309700000.0 11309700000.0 11309700000.0 11309700000.0 11309700000.0 11309700000.0 11309700000.0 11309700000.0 11309700000.0 11309700000.0 11309700000.0 11309700000.0 11309700000.0 11309700000.0 11309700000.0 11309700000.0 11309700000.0 11309700000.0 11309700000.0 11309700000.0 11309700000.0 11309700000.0 11309700000.0 11309700000.0 11309700000.0 11309700000.0 11309700000.0 11309700000.0 11309700000.0 11309700000.0 11309700000.0 11309700000.0 11309700000.0 11309700000.0 11309700000.0 11309700000.0 11309700000.0 11309700000.0 11309700000.0 11309700000.0 11309700000.0 11309700000.0 11309700000.0 11309700000.0 11309700000.0 11309700000.0 11309700000.0 11309700000.0 11309700000.0 11309700000.0 11309700000.0 11309700000.0 11309700000.0 11309700000.0 11309700000.0 11309700000.0 11309700000.0 11309700000.0 
SCALARS Velocity float 1
LOOKUP_TABLE default
1.07671 1.03811 1.08882 1.07468 1.05744 1.0644 1.09596 1.05208 1.07748 1.07608 1.07555 1.07468 1.07459 1.07443 1.07455 1.0746 1.0761 1.07716 1.06806 1.06807 1.08124 1.07399 1.06518 1.05823 1.08464 1.10266 1.09231 1.07571 1.08364 1.08769 1.07833 1.08156 1.07667 1.07531 1.0744 1.07426 1.07579 1.06126 1.07679 1.06652 1.08939 1.07414 1.05917 1.0836 1.08542 1.08396 1.08654 1.08102 1.07584 1.07469 1.07412 1.07454 1.07711 1.07002 1.07595 1.08547 1.08005 1.06724 1.08985 1.08576 1.07857 1.07685 1.07537 1.07458 1.0742 1.07386 1.07402 1.0743 1.07561 1.07535 1.07684 1.07854 1.07089 1.08331 1.0908 1.08396 1.08028 1.07773 1.07368 1.06761 1.0627 1.08539 1.08339 1.08067 1.08846 1.08619 1.08042 1.07707 1.07645 1.07529 1.07393 1.07379 1.07436 1.07689 1.08366 1.08169 1.08012 1.07268 1.06529 1.07992 1.0873 1.08476 1.09176 1.08555 1.07872 1.0796 1.07595 1.07426 1.07352 1.07392 1.07551 1.0798 1.08283 1.08166 1.07653 1.06872 1.08217 1.08851 1.08046 1.07706 1.07477 1.0735 1.07306 1.07341 1.07369 1.07446 1.07582 1.07752 1.08212 1.08161 1.08036 1.07887 1.07573 1.0726 1.06987 1.06738 1.08057 1.08771 1.08899 1.08462 1.08059 1.07872 1.07678 1.07556 1.07418 1.0737 1.0729 1.073 1.07449 1.07754 1.07963 1.08093 1.08186 1.08083 1.07791 1.07275 1.06895 1.08236 1.08422 1.08547 1.08748 1.08361 1.08428 1.0821 1.07861 1.07506 1.073 1.07248 1.07342 1.07578 1.07909 1.08082 1.07931 1.07526 1.07075 1.08392 1.08311 1.08323 1.08047 1.07648 1.07347 1.07217 1.07251 1.07428 1.07724 1.07997 1.07991 1.07715 1.07486 1.07289 1.07128 1.07 1.08272 1.08355 1.08306 1.08194 1.07834 1.07594 1.07443 1.07259 1.07216 1.07131 1.07179 1.07189 1.07299 1.07385 1.07548 1.07679 1.0785 1.07924 1.07991 1.07909 1.07842 1.07645 1.07285 1.07056 1.0823 1.08294 1.08259 1.08278 1.08254 1.08267 1.0819 1.08043 1.07793 1.0736 1.07116 1.07099 1.07239 1.07499 1.07798 1.07923 1.07763 1.07437 1.07141 1.08212 1.08218 1.08219 1.08058 1.07518 1.07159 1.07032 1.07114 1.07323 1.0763 1.07879 1.07842 1.07687 1.0757 1.07364 1.0725 1.07108 1.07062 1.08158 1.08178 1.08185 1.08182 1.07723 1.07484 1.07279 1.07052 1.07001 1.06927 1.07011 1.07032 1.07164 1.07241 1.07436 1.07578 1.07762 1.07869 1.07883 1.0779 1.07479 1.07176 1.07021 1.08063 1.08124 1.08085 1.08141 1.0811 1.08149 1.08183 1.0704 1.0722 1.06871 1.06926 1.07072 1.07351 1.07747 1.07873 1.07602 1.07258 1.0703 1.08017 1.08049 1.08105 1.07033 1.06968 1.06851 1.06949 1.06826 1.06857 1.06946 1.07127 1.07514 1.07909 1.07743 1.0749 1.07357 1.07109 1.0706 1.06909 1.06935 1.07943 1.07886 1.07972 1.07937 1.08029 1.08016 1.08092 1.06932 1.06713 1.06718 1.06749 1.06849 1.06952 1.06959 1.07223 1.07418 1.07754 1.08031 1.07892 1.07681 1.07187 1.06901 1.06814 1.07799 1.07832 1.07913 1.07961 1.0701 1.06783 1.0657 1.06792 1.06787 1.07024 1.07776 1.07921 1.07319 1.06913 1.06755 1.07726 1.07787 1.07899 1.0696 1.06868 1.06682 1.06606 1.06776 1.06626 1.06621 1.06707 1.06625 1.06733 1.06724 1.07239 1.08301 1.07871 1.07562 1.07052 1.06952 1.06681 1.06713 1.06595 1.06673 1.07633 1.07547 1.07655 1.07585 1.07759 1.07776 1.07805 1.06763 1.06886 1.06601 1.06566 1.06576 1.06838 1.07758 1.08846 1.07332 1.06653 1.06539 1.06526 1.07453 1.07466 1.07513 1.07638 1.06862 1.07093 1.07 1.06806 1.06703 1.06554 1.06507 1.06642 1.07204 1.0751 1.06635 1.06499 1.06501 1.06403 1.06448 1.06375 1.07266 1.07362 1.07283 1.07393 1.07358 1.07505 1.07324 1.07161 1.06906 1.06677 1.06591 1.06545 1.06506 1.06457 1.06484 1.06594 1.07156 1.07484 1.10058 1.06511 1.06799 1.06623 1.064 1.06308 1.07176 1.07228 1.07313 1.07205 1.06988 1.06764 1.06598 1.06513 1.06407 1.073 1.05479 1.06738 1.06475 1.06282 1.06202 1.07075 1.07104 1.07182 1.07198 1.07053 1.06905 1.06843 1.06731 1.06666 1.06601 1.06557 1.06483 1.06307 1.03685 1.03889 1.05336 1.06436 1.06511 1.06577 1.06362 1.06309 1.06122 1.06143 1.05981 1.06882 1.06987 1.06912 1.07043 1.06982 1.07118 1.07013 1.07066 1.06928 1.06783 1.06649 1.06547 1.06518 1.06429 1.06404 1.05595 1.04061 1.04285 1.05981 1.0634 1.06123 1.05913 1.06794 1.0684 1.06905 1.06895 1.06805 1.06688 1.06579 1.06459 1.06021 1.04561 1.04044 1.04515 1.05146 1.06085 1.06094 1.05864 1.05683 1.06696 1.06607 1.06712 1.06631 1.06766 1.06682 1.06807 1.06705 1.0678 1.06682 1.06705 1.06622 1.06609 1.06525 1.06493 1.06329 1.06217 1.05424 1.04502 1.05046 1.0559 1.05669 1.05951 1.05698 1.05806 1.05486 1.05584 1.05288 1.06535 1.06522 1.06548 1.06589 1.06611 1.06601 1.06543 1.06402 1.0608 1.05841 1.05462 1.04924 1.04867 1.04762 1.05316 1.05523 1.05371 1.05143 1.06451 1.06438 1.06458 1.06497 1.06532 1.06529 1.06446 1.06228 1.05804 1.05205 1.04991 1.05042 1.05137 1.05311 1.05097 1.05235 1.04854 1.04997 1.04599 1.04792 1.06424 1.06359 1.06371 1.06287 1.06347 1.06244 1.06363 1.06267 1.06415 1.06347 1.06466 1.06406 1.06452 1.0636 1.06318 1.06169 1.06025 1.0584 1.05574 1.05167 1.05091 1.05004 1.04734 1.04419 1.04209 1.06392 1.06294 1.06183 1.06126 1.06181 1.06294 1.06345 1.06254 1.06023 1.05712 1.05447 1.05442 1.05218 1.05187 1.0502 1.04673 1.04275 1.03974 1.06451 1.06358 1.06307 1.06206 1.06071 1.06046 1.0588 1.06004 1.05903 1.06117 1.06087 1.06257 1.06234 1.06281 1.06217 1.06146 1.05907 1.05669 1.05474 1.04945 1.04724 1.04235 1.04199 1.03651 1.03777 1.03299 1.03561 1.06449 1.06207 1.05876 1.05713 1.05846 1.0609 1.06219 1.06156 1.0605 1.05981 1.05846 1.05867 1.05718 1.05337 1.04442 1.0363 1.03101 1.02883 1.06597 1.06637 1.06414 1.06312 1.06029 1.05757 1.05636 1.05394 1.05584 1.05842 1.06119 1.06211 1.06101 1.05956 1.05992 1.05796 1.05558 1.04896 1.04118 1.03761 1.03031 1.03001 1.02435 1.02613 1.02213 1.06826 1.06642 1.06097 1.05401 1.05195 1.05517 1.05528 1.05889 1.05988 1.06171 1.06246 1.06212 1.06219 1.06052 1.06003 1.06006 1.06231 1.04856 1.03233 1.02371 1.01971 1.06929 1.06564 1.05707 1.05014 1.0509 1.05637 1.0614 1.0634 1.06226 1.05936 1.06202 1.06801 1.05872 1.03702 1.02447 1.01831 1.01847 1.01426 1.01605 0.893832 1.07109 1.07297 1.07005 1.06983 1.06305 1.05732 1.05146 1.04549 1.04699 1.04556 1.05132 1.05321 1.05839 1.06107 1.06325 1.06442 1.06234 1.05844 1.06399 1.04822 1.03234 1.02696 1.01953 1.01416 1.01108 1.07361 1.07473 1.06711 1.04882 1.04079 1.04625 1.0564 1.06432 1.06535 1.06769 1.06559 1.06704 1.06264 1.06553 1.06004 1.04852 1.05097 1.02217 1.01483 1.01176 1.01038 1.00745 1.07428 1.07624 1.07959 1.07585 1.07435 1.05905 1.0461 1.0398 1.03288 1.03871 1.03993 1.04919 1.06068 1.06784 1.07017 1.06963 1.06567 1.02393 1.02701 1.02047 1.01659 1.01262 1.00774 0.893832 1.07753 1.08399 1.06337 1.0326 1.03005 1.04422 1.05397 1.05992 1.06543 1.07035 1.0714 1.07491 1.07295 1.07106 1.05078 1.02589 1.00271 1.01545 1.01335 1.01129 1.00784 1.00493 1.0709 1.07418 1.08308 1.0942 1.08731 1.07204 1.04324 1.02279 1.02261 1.03209 1.05096 1.0664 1.07493 1.07753 1.07484 1.07277 1.06539 1.04874 1.01169 1.01071 1.00799 1.01218 1.01648 1.00534 1.06125 1.08254 1.11016 1.03863 1.00925 1.0192 1.02345 1.03863 1.04812 1.05904 1.07241 1.07848 1.07759 1.06406 1.02894 1.01315 1.00943 1.00247 1.01638 1.01544 1.01013 0.893832 1.04155 1.06312 1.07373 1.10488 1.15109 1.08716 1.02818 1.00852 1.00715 1.03376 1.05802 1.06687 1.0733 1.07721 1.08024 1.08008 1.0788 1.07343 1.06433 1.04851 1.02856 1.00083 1.00599 1.03231 1.03392 1.03433 1.03924 1.10937 1.11221 0.987618 0.993322 0.99932 1.01669 1.03142 1.04607 1.06638 1.07757 1.08102 1.0744 1.04781 1.00658 0.986484 0.992971 1.01068 1.06859 1.06746 1.01988 1.02149 1.03833 1.03426 1.0322 1.22171 1.15564 1.00271 0.985577 1.016 1.04411 1.05656 1.06407 1.07213 1.07546 1.07978 1.07992 1.06597 1.04486 1.02182 0.989116 0.98344 1.03111 1.0703 1.12482 1.03817 1.00072 1.05334 0.928234 0.999797 0.981388 1.0029 1.00425 1.02998 1.05355 1.06854 1.07703 1.0805 1.08135 1.0772 1.07125 1.00447 0.960059 0.967599 1.14394 1.11812 1.0631 0.961385 1.06708 1.12827 1.15867 0.860999 0.675887 1.02224 1.01063 1.01715 1.02614 1.04042 1.04757 1.05966 1.07065 1.0785 1.08337 1.04011 0.97824 0.95436 0.920056 1.05521 1.23062 1.19502 1.15575 1.12299 1.11382 1.11628 1.10516 0.800907 0.915866 0.968489 1.01522 1.01423 1.03263 1.0525 1.06341 1.06648 1.07143 1.07206 1.08218 1.09128 1.08648 1.04118 0.918036 0.907072 0.979339 1.1521 1.22033 1.10478 1.03501 0.868225 1.13209 1.01919 0.900886 0.91243 0.9824 1.00786 1.00351 1.0169 1.03703 1.05748 1.07043 1.07209 1.11714 0.946732 0.873503 1.04038 1.42126 0.913132 1.05172 0.671035 1.20019 1.12129 1.07051 0.997191 0.93083 0.877457 0.918102 0.945399 0.983633 1.00008 1.01853 1.02107 1.04211 1.05236 1.06565 1.07727 1.07643 1.08329 1.07132 1.09629 1.04516 0.92763 0.902958 1.23201 1.31751 1.65332 1.19687 0.929078 1.14078 0.621764 0.636266 0.565511 1.29862 1.13598 1.04889 0.990111 0.907392 0.935749 0.958113 0.95982 0.979576 0.997076 1.0305 1.07153 1.09211 1.1026 0.98846 0.866049 0.911171 1.15801 1.67013 1.1791 0.831772 1.33404 0.123072 0.619882 0.76144 1.11402 1.03184 1.07032 0.960989 0.927631 0.912134 0.921229 0.944326 0.952011 0.972136 0.966226 1.00017 1.01797 1.05203 1.09349 1.10685 1.07334 0.956964 0.930204 1.0125 1.92069 1.6296 1.67044 1.25005 1.37013 1.47628 0.60155 0.509739 0.484541 0.695638 0.580874 0.486046 0.647522 0.731119 1.18159 1.08563 0.969333 0.910038 0.934022 0.936896 0.939995 0.941142 0.9388 0.97337 1.05765 1.08719 1.11853 1.11508 1.10876 1.09193 1.02344 0.905823 0.952949 1.80833 1.29197 0.455915 1.13554 1.15951 1.60612 0.846725 0.630739 0.461497 0.470038 0.700977 0.670489 0.681865 0.619171 0.739455 1.07173 1.00644 0.918622 0.926183 0.945021 0.925761 0.925981 0.90536 0.932556 1.00705 1.11286 1.12466 1.05295 0.978312 0.940584 0.922549 1.09591 1.32954 0.80394 0.316903 0.899212 0.922184 0.99246 1.22739 0.728928 0.192018 0.497979 0.491376 0.554508 0.708016 0.760423 0.717688 0.696662 0.921416 1.11656 1.26403 1.10439 1.02957 0.963366 0.842027 0.892901 0.941887 0.949682 0.938066 0.901059 0.897822 0.951458 1.01814 1.08573 1.14146 1.1378 1.09606 1.08021 1.00143 0.927686 0.962151 0.936102 0.548504 0.533258 0.54105 0.798347 0.911384 1.14061 0.374029 0.253549 0.43001 0.521832 0.600915 0.71523 0.686308 0.642509 0.804753 0.844416 0.787526 0.930407 1.41621 1.03812 0.848204 0.816338 0.930769 0.942982 0.946041 0.938649 0.921546 0.876127 0.937082 1.15427 1.13046 1.02534 0.958463 0.948915 0.929458 0.937848 0.847654 0.714284 0.653187 0.699072 0.818421 0.983465 1.18607 0.637852 0.607488 0.467474 0.520468 0.512565 0.592615 0.633953 0.625027 0.623612 0.670478 0.784107 0.693351 0.572743 0.594074 0.590641 0.538611 0.624168 0.757102 1.35773 0.886063 0.698337 0.867374 0.901796 0.937737 0.932653 0.94013 0.92733 0.895864 0.874198 0.88464 0.952245 1.05327 1.23392 1.13092 1.02448 0.942596 0.95191 0.942085 0.905033 0.753991 0.725166 0.789903 0.863626 0.902696 0.891726 0.543079 0.483577 0.527474 0.613773 0.63426 0.621586 0.684568 0.639399 0.691679 0.706581 0.630377 0.414249 0.522877 0.343476 1.01676 0.694062 0.900366 0.97823 0.924511 0.924757 0.916394 0.94006 0.919313 0.90294 1.16261 1.04681 1.02857 0.817299 0.914942 0.888948 0.948343 1.00133 0.949392 0.980451 0.846786 0.795902 0.749775 0.777982 0.839566 0.887065 0.916745 0.995509 0.813702 0.54832 0.593794 0.59635 0.650559 0.671723 0.650328 0.636085 0.607722 0.631213 0.606456 0.621384 0.632211 0.944364 0.800387 0.557273 0.470206 0.6261 0.371281 0.68815 0.786103 0.693896 0.779721 0.954562 0.984247 0.956527 0.894436 0.929078 0.939724 0.958283 0.943416 1.10921 1.01841 1.2835 0.763565 0.841907 0.972668 1.02382 0.938918 0.879623 0.776435 0.791991 0.809603 0.847122 0.882598 0.839787 1.0888 0.763844 0.794303 0.743004 0.676272 0.659064 0.588412 0.588297 0.541897 0.514541 0.649686 0.726981 0.555275 0.671379 1.22409 0.451783 0.841392 0.895046 1.07222 0.666339 0.798967 0.756517 0.765212 0.903456 0.908865 0.894914 0.894471 0.939098 1.05294 1.34646 1.3388 1.16574 0.764104 0.915366 0.787242 0.723112 0.877423 1.10715 1.15178 1.10049 1.02863 0.822655 0.802706 0.810044 0.827333 0.802854 0.604308 0.941479 0.933317 0.556816 0.845279 0.725131 0.740386 0.618849 0.573816 0.559558 0.52572 0.544158 0.332478 0.605313 0.672575 0.739227 0.805924 0.862784 1.47875 0.326062 0.652883 1.02152 0.701104 0.760136 0.75961 0.829471 0.802946 0.856873 0.861043 0.865322 0.870329 0.887793 0.923221 0.899074 0.968704 1.3738 0.775492 0.99253 0.883832 0.636233 0.592112 0.993458 1.29505 1.32593 0.968979 0.916964 0.783293 0.805304 0.858971 0.943464 0.771504 0.554039 0.102925 0.61137 0.731505 0.633748 0.607708 0.572546 0.579075 0.580131 0.569379 0.306544 0.527369 0.635978 0.745075 0.690795 0.632065 0.897837 0.429663 0.290734 0.439036 0.335529 0.289849 0.533313 0.660025 0.801242 0.807674 0.826817 0.837768 0.827356 0.849497 0.859028 0.967752 1.12688 1.28972 0.434961 0.438006 0.411958 0.586696 0.837999 0.757937 0.764695 0.737289 1.12087 1.42197 1.21883 1.21391 0.825573 0.811829 0.811829 0.772283 0.575172 0.709828 0.446073 0.243835 0.492289 0.592231 0.637174 0.674379 0.596032 0.596194 0.644849 0.61937 0.646203 0.594465 0.492825 0.689207 0.337602 0.648249 0.843043 0.59618 0.484503 0.187244 0.202217 0.249419 0.460148 0.745347 0.506038 0.624795 0.872357 0.798758 0.81014 0.813084 0.808091 0.780247 0.793585 0.852139 0.924577 0.941621 0.953341 0.271388 0.624243 0.757486 0.907574 0.812225 0.845394 0.407138 1.608 0.85 1.07912 0.937686 0.944728 0.881649 0.836155 0.814982 0.727218 0.634108 0.0911927 0.255307 0.462382 0.50824 0.586769 0.616307 0.488126 0.532035 0.494359 0.622431 0.661623 0.622893 0.656223 0.52433 0.335371 0.358503 0.464251 0.387466 0.717746 1.10476 0.431386 0.5184 0.431633 0.18743 0.124314 0.246751 0.336586 0.590945 0.641385 0.698322 0.557866 0.590957 0.975309 0.824527 0.80367 0.793278 0.788329 0.760027 0.8583 0.871964 0.744585 0.921465 0.392027 0.49561 0.455463 0.703505 0.855931 0.859858 0.746878 0.415811 0.422532 0.391167 1.31312 1.27565 1.16604 1.06252 0.960876 0.735552 0.710423 0.455974 0.123408 0.362105 0.433963 0.47618 0.570477 0.302677 0.405933 0.369277 0.56032 0.524324 0.597251 0.420627 0.33746 0.299467 0.32191 0.30486 0.842061 0.454359 0.397179 0.313664 0.120015 0.164484 0.481429 0.526118 0.695969 0.504615 0.533873 0.496587 1.03043 0.944624 0.811941 0.766974 0.755835 0.7655 0.482778 0.590771 0.735439 0.548336 0.532641 0.355623 0.618806 0.545407 0.409866 0.470882 0.636131 0.709142 0.947194 0.609731 0.721315 0.501348 0.345122 0.88871 0.954713 0.70766 0.605418 0.846587 0.820902 0.583151 0.517927 0.3188 0.379597 0.378611 0.426715 0.452148 0.337795 0.516548 0.273717 0.409746 0.530493 0.427496 0.475092 0.50408 0.571909 0.397811 0.144538 0.62815 0.439343 0.3306 0.208927 0.452216 0.0434369 0.618816 0.583717 0.42829 0.208438 0.150167 0.207691 0.615196 0.582547 0.517735 0.350247 0.904875 0.78022 0.703017 0.68118 0.673987 0.645384 0.641235 0.586665 0.504197 0.494622 0.412667 0.487975 0.735907 0.98659 0.566341 0.668892 0.813209 0.800653 0.0568475 0.231316 0.792101 0.815764 0.820535 0.77053 0.677233 0.593294 0.554739 0.41821 0.399555 0.403736 0.489893 0.433901 0.352402 0.224971 0.42953 0.378272 0.399674 0.642779 0.447157 0.513262 0.845832 0.386842 0.152662 0.143934 0.00393783 0.177062 0.114082 0.236453 0.592862 0.536094 0.555199 0.456833 0.294811 0.33685 0.554177 0.571153 0.532192 0.57563 0.788047 1.12537 0.690316 0.594008 0.58845 0.603163 0.601253 0.544841 0.5444 0.546583 0.50298 0.463431 0.47745 0.586118 0.474256 0.657422 0.556803 0.526681 0.616753 0.721755 0.509417 0.618066 0.654371 0.437507 0.199098 0.586094 0.689666 0.753648 0.741266 0.706371 0.662003 0.615623 0.576141 0.483461 0.41977 0.451599 0.435502 0.306199 0.144592 0.362943 0.311901 0.371586 0.374397 0.262011 0.896888 0.638599 0.510513 0.230193 1.22555 2.01747 0.348812 0.140107 0.0720218 0.0768101 0.195905 0.516791 0.563001 0.553121 0.335121 0.300546 0.359956 0.40911 0.797922 1.42583 1.71032 0.943525 0.454902 0.515078 0.561173 0.580254 0.57299 0.569973 0.587498 0.590916 0.660582 0.719477 1.15658 1.07012 0.32071 0.712192 0.705589 0.628224 0.603202 0.49067 0.36286 0.571796 0.656967 0.686394 0.68272 0.671026 0.653062 0.645226 0.598572 0.577835 0.492132 0.463644 0.401263 0.265729 0.165478 0.313004 0.3852 0.325239 0.291419 0.311013 0.275085 0.12441 0.418633 1.1619 0.173266 0.112949 0.017717 0.548343 0.853726 0.616853 0.815243 0.409271 0.0859612 0.0372774 0.043004 0.145392 0.272738 0.362906 0.503544 0.55556 0.437824 0.349186 0.274785 0.227532 0.294845 0.392973 0.432597 1.75201 0.656647 0.490042 0.55714 0.579206 0.584956 0.587726 0.588749 0.583117 0.576011 0.530481 0.48433 0.499449 0.568209 0.9349 0.326302 0.430315 0.64285 0.668732 0.679526 0.608219 0.541677 0.424456 0.393199 0.481685 0.582251 0.621151 0.639575 0.641519 0.64127 0.635513 0.662111 0.626581 0.660322 0.528957 0.355641 0.344605 0.305805 0.462153 0.387379 0.269839 0.491704 0.553168 0.250955 0.698147 0.328763 0.075758 0.00861096 0.352622 0.363506 0.0893219 1.10886 0.552547 0.213369 0.13653 0.0748576 0.217985 0.40956 0.504508 0.514134 0.492206 0.410481 0.322758 0.342319 0.395439 1.28248 0.647306 0.55508 0.522195 0.590872 0.596058 0.596317 0.589576 0.581003 0.561538 0.532313 0.529695 0.574896 0.710186 0.682404 0.37116 0.753281 0.561332 0.58128 0.609316 0.608016 0.490192 0.475394 0.491035 0.534161 0.574422 0.597464 0.599512 0.607474 0.62217 0.827708 0.483113 0.371035 0.37975 0.411279 0.525469 0.39158 0.360839 0.468862 0.540814 0.0537267 0.0730985 0.141218 0.058356 0.0822492 0.0760903 0.234514 0.170843 0.245671 0.0958063 0.59536 0.297407 0.318219 0.179348 0.0678546 0.182603 0.334475 0.438088 0.508138 0.460397 0.399716 0.391273 0.420416 0.370865 0.413323 0.362829 0.25973 0.868211 0.664689 0.599915 0.582237 0.585809 0.599314 0.595319 0.588844 0.578052 0.564629 0.557796 0.574447 0.636918 0.645302 0.73122 0.649173 0.581028 0.514497 0.546075 0.567843 0.561052 0.528148 0.513671 0.516471 0.52972 0.54823 0.562908 0.571512 0.630653 0.639579 0.632081 0.710924 0.608235 0.455362 0.565453 0.490934 0.399078 0.432378 0.407054 0.373837 0.204445 0.151139 0.196 0.114727 0.134475 0.115422 0.160363 0.102389 0.147098 0.125388 0.111334 0.157586 0.239888 0.364067 0.113182 0.0560552 0.133245 0.169339 0.281069 0.397442 0.482103 0.492657 0.451076 0.447408 0.44368 0.420219 0.436567 0.398779 0.270742 0.348988 0.709948 0.651244 0.609169 0.594169 0.59452 0.598482 0.588576 0.582292 0.5783 0.582552 0.607526 0.625238 0.678557 0.547337 0.485544 0.567308 0.540469 0.524433 0.542327 0.563754 0.542956 0.532348 0.532143 0.534063 0.539974 0.547483 0.551859 0.574122 0.585872 0.574924 0.606925 0.623198 0.693556 1.07189 0.464218 0.355558 0.54182 0.573062 0.450852 0.427184 0.386735 0.299904 0.338094 0.276333 0.230329 0.181477 0.22419 0.196875 0.227256 0.0957951 0.0866708 0.0781788 0.108873 0.131197 0.280251 0.297139 0.169628 0.10585 0.120266 0.322501 0.280485 0.392503 0.47517 0.513497 0.491978 0.478584 0.468819 0.456742 0.444883 0.417469 0.371039 0.398654 0.463049 0.627263 0.620139 0.600836 0.598146 0.596944 0.597325 0.595281 0.592949 0.597632 0.603442 0.635175 0.604479 0.528527 0.499199 0.541134 0.538973 0.549814 0.54854 0.541121 0.539595 0.540737 0.54016 0.539213 0.546542 0.556836 0.567062 0.560952 0.580217 0.525751 0.596704 1.24249 0.73294 0.258965 0.438518 0.5229 0.499426 0.471865 0.41362 0.392232 0.30475 0.362665 0.359033 0.296702 0.305852 0.270295 0.222829 0.226948 0.245685 0.230698 0.107786 0.0950645 0.0666554 0.0732429 0.116211 0.226894 0.325426 0.268495 0.3414 0.129589 0.33553 0.422786 0.492994 0.515247 0.52492 0.504724 0.485608 0.476505 0.456189 0.433885 0.420803 0.427162 0.460829 0.516274 0.587403 0.597062 0.593733 0.592692 0.590009 0.590876 0.591609 0.591912 0.590372 0.588866 0.590033 0.538474 0.543185 0.545671 0.545312 0.544493 0.540734 0.544929 0.537326 0.541384 0.535461 0.578152 0.593865 0.576084 0.981154 0.344807 0.369659 0.409856 0.458584 0.476775 0.406375 0.354486 0.275843 0.381311 0.33039 0.332082 0.276777 0.261578 0.248529 0.237367 0.232089 0.233989 0.214478 0.108296 0.107669 0.121638 0.0843056 0.0233935 0.0477745 0.183588 0.257297 0.383959 0.611912 0.55552 0.618644 0.502773 0.55329 0.512552 0.536037 0.531544 0.500694 0.485346 0.466033 0.452982 0.44311 0.446026 0.467616 0.495349 0.531961 0.567889 0.579306 0.581165 0.580181 0.582354 0.58649 0.589679 0.591598 0.592119 0.593442 0.59679 0.598868 0.608655 0.594879 0.571565 0.5367 0.520266 0.546583 0.546441 0.545107 0.545456 0.54674 0.547736 0.544716 0.542921 0.543075 0.53629 0.535168 0.53476 0.54576 0.536722 0.545538 0.596482 0.63404 0.767911 0.553993 0.0644748 0.380518 0.483001 0.471686 0.481034 0.416826 0.329164 0.268136 0.253186 0.293464 0.20797 0.253616 0.184182 0.230319 0.236242 0.249036 0.238336 0.210085 0.0543928 0.0909704 0.0968463 0.0685229 0.0472154 0.0553473 0.0832556 0.120552 0.230009 0.367299 0.912713 0.850444 0.75887 0.624058 0.563155 0.523174 0.528861 0.533643 0.511179 0.486495 0.471231 0.463372 0.454193 0.455701 0.470062 0.488846 0.508914 0.533053 0.554855 0.562817 0.567768 0.571531 0.57805 0.583647 0.587528 0.590739 0.592989 0.595926 0.598065 0.601938 0.597187 0.588342 0.574005 0.557981 0.548626 0.553667 0.551295 0.549416 0.549064 0.54805 0.545523 0.544607 0.542364 0.536509 0.533401 0.539542 0.551824 0.548835 0.570975 0.585768 0.679094 0.593461 0.529881 0.620286 0.344145 0.384387 0.345845 0.267183 0.25524 0.0635177 0.139371 0.128885 0.176682 0.224397 0.231595 0.24641 0.237853 0.209048 0.180206 0.0320075 0.0893069 0.057142 0.0496608 0.0604772 0.0889375 0.108277 0.126701 0.20367 0.301427 0.369882 0.550787 1.13318 1.27006 0.482027 0.582011 0.509182 0.51249 0.501369 0.483596 0.469103 0.567629 0.57479 0.580527 0.585493 0.589788 0.593325 0.59618 0.59888 0.598994 0.595958 0.588906 0.57889 0.568406 0.560189 0.556964 0.554446 0.549163 0.550642 0.550576 0.546123 0.54451 0.543109 0.54269 0.538638 0.5526 0.555252 0.569407 0.561442 0.572294 0.498311 0.428821 0.864785 0.352871 0.306288 0.344505 0.386736 0.372119 0.379239 0.082676 0.108422 0.0959124 0.0804105 0.185265 0.232351 0.221155 0.228885 0.187878 0.183454 0.141346 0.170355 0.0216873 0.0601285 0.0722069 0.0653173 0.0588535 0.0551644 0.0642264 0.153223 0.209217 0.376056 0.34509 0.576307 0.456264 0.515538 0.557351 0.515753 0.503788 0.481629 0.470776 0.465109 0.460863 0.462899 0.471065 0.482481 0.498138 0.514968 0.529508 0.543351 0.551596 0.56019 0.592858 0.595835 0.597217 0.596485 0.592636 0.58609 0.577746 0.553821 0.552791 0.552002 0.553165 0.551503 0.548524 0.545473 0.549543 0.548421 0.552822 0.555265 0.47701 0.662615 0.461343 0.357062 0.355219 0.363408 0.105803 0.252077 0.224665 0.154556 0.131023 0.051116 0.0878105 0.130485 0.202275 0.234711 0.245997 0.21925 0.188913 0.143627 0.209707 0.273452 0.0278414 0.0169744 0.0442197 0.0453309 0.0854233 0.0912018 0.0726078 0.0604207 0.0995667 0.126506 0.257182 0.22413 0.130737 0.844434 0.57284 0.464757 0.45975 0.458017 0.463263 0.468463 0.471658 0.479183 0.490673 0.502163 0.513342 0.52467 0.536929 0.546983 0.556403 0.56477 0.572065 0.578209 0.583984 0.588935 0.569595 0.563342 0.559568 0.557913 0.557077 0.555704 0.555167 0.554673 0.55394 0.551277 0.551662 0.56396 0.554568 0.550144 0.479019 0.38071 0.42308 0.439741 0.584873 0.504249 0.423697 0.412619 0.264367 0.157786 0.439038 0.23482 0.201289 0.186795 0.15121 0.0657608 0.0627587 0.167069 0.223273 0.229709 0.206482 0.154356 0.119595 0.180083 0.838728 0.0238071 0.0109288 0.0242148 0.0336238 0.0806141 0.0848757 0.114082 0.0893039 0.0998122 0.0593956 0.121392 0.162713 0.185828 0.12533 0.249178 0.429152 0.680969 0.545342 0.495279 0.491317 0.462134 0.450462 0.45124 0.460066 0.468452 0.47274 0.477029 0.484157 0.492861 0.502023 0.512146 0.523282 0.534732 0.544964 0.554162 0.562815 0.570499 0.57711 0.583066 0.587998 0.591942 0.594232 0.594606 0.592807 0.588366 0.582241 0.575616 0.569541 0.565015 0.561955 0.56082 0.559848 0.558508 0.556995 0.556737 0.554246 0.55609 0.557155 0.555452 0.548244 0.529562 0.477177 0.417935 0.364161 0.410261 0.491519 0.602666 0.565284 0.601379 0.46757 0.320592 0.50709 0.364688 0.345269 0.249902 0.238835 0.168594 0.0808645 0.0802352 0.207534 0.248511 0.256308 0.210776 0.1894 0.608166 0.698628 0.740343 0.0517163 0.0287262 0.00754419 0.0486232 0.1081 0.156518 0.133068 0.13839 0.0280326 0.0624479 0.144794 0.231987 0.186242 0.25858 0.328979 0.483036 0.583323 0.618115 0.575502 0.540564 0.46937 0.447705 0.450795 0.457534 0.468906 0.475864 0.479017 0.482202 0.487473 0.494935 0.503728 0.513441 0.523786 0.534346 0.544299 0.553335 0.562003 0.569955 0.576805 0.582499 0.587013 0.590377 0.592066 0.591602 0.589105 0.58487 0.579698 0.57469 0.570115 0.56635 0.563816 0.562667 0.561927 0.557066 0.555936 0.556908 0.555996 0.55649 0.551119 0.538312 0.516438 0.481077 0.420881 0.394922 0.378022 0.431113 0.522364 0.623227 0.694341 0.850819 0.386098 0.0803342 0.266344 0.0857319 0.117237 0.0356059 0.142115 0.173797 0.257439 0.247692 0.181017 0.459783 0.52313 0.486158 0.691097 0.585159 0.620028 0.0641937 0.0424941 0.0486692 0.0296074 0.0190756 0.0809583 0.163016 0.195257 0.145632 0.118766 0.196962 0.230152 0.30841 0.344309 0.365164 0.508667 0.606215 0.674697 0.577649 0.508831 0.465121 0.461061 0.465385 0.473438 0.481158 0.483496 0.485024 0.487975 0.492561 0.498941 0.506921 0.516005 0.525495 0.535097 0.544541 0.553589 0.56224 0.570001 0.576594 0.581867 0.585844 0.5886 0.589692 0.588843 0.586318 0.582501 0.57816 0.574257 0.570668 0.560807 0.559283 0.559384 0.558833 0.558886 0.556423 0.553441 0.544681 0.534038 0.510276 0.474268 0.436423 0.399118 0.382517 0.407626 0.463444 0.564535 0.688099 0.840506 1.26056 0.763096 0.717742 0.641376 0.342586 0.153846 0.0639047 0.111587 0.242191 0.296989 0.253034 0.255196 0.358863 0.395569 0.317388 0.50175 0.514187 0.440079 0.0805697 0.0726686 0.0638537 0.0623527 0.0415861 0.0350966 0.0611719 0.119851 0.221003 0.333813 0.225907 0.268258 0.154189 0.322885 0.314254 0.350242 0.381566 0.527983 0.4582 0.622723 0.555338 0.505372 0.484486 0.482124 0.484466 0.489076 0.491005 0.491095 0.491927 0.494153 0.497943 0.503396 0.510585 0.518953 0.527728 0.536774 0.545835 0.554601 0.562844 0.570181 0.576279 0.581033 0.584544 0.586713 0.58742 0.567556 0.565256 0.564081 0.563517 0.562383 0.561391 0.559971 0.558643 0.555651 0.551232 0.541751 0.527532 0.506718 0.477241 0.438454 0.414319 0.393854 0.394483 0.424411 0.45429 0.538056 0.66304 0.966046 1.9665 1.28366 0.817665 0.639611 0.415331 0.244486 0.181352 0.0582548 0.159686 0.317733 0.253994 0.330084 0.195989 0.191168 0.163874 0.363347 0.416617 0.400074 0.0961613 0.0929871 0.0891396 0.0819272 0.0572964 0.070923 0.0711278 0.290972 0.456618 0.411924 0.490759 0.257012 0.311639 0.355705 0.325156 0.38253 0.320994 0.457415 0.43467 0.422684 0.590117 0.547562 0.520593 0.504952 0.502191 0.501111 0.49986 0.586516 0.584157 0.580835 0.577243 0.573921 0.570925 0.568577 0.566688 0.56523 0.563906 0.562594 0.560894 0.558354 0.554402 0.54808 0.53843 0.525455 0.506013 1.62851 1.32005 0.919695 0.670806 0.42285 0.265692 0.104059 0.220931 0.320058 0.360823 0.305989 0.211722 0.211626 0.135037 0.0509715 0.250808 0.385817 0.364622 0.390591 0.125722 0.0961822 0.0778493 0.0719712 0.0661626 0.0953288 0.14887 0.158635 0.44822 0.55261 0.595473 0.472575 0.8057 0.545749 0.410823 0.317912 0.36239 0.375336 0.41328 0.418241 0.438885 0.55765 0.498366 0.497283 0.497447 0.499308 0.502749 0.507904 0.514614 0.522276 0.53048 0.539018 0.547582 0.555855 0.563515 0.570275 0.575876 0.580144 0.583138 0.584947 0.585407 0.584418 0.582378 0.579605 0.576454 0.573693 0.571339 0.569077 0.567047 0.565115 0.563156 0.560872 0.557681 0.553313 0.480739 0.452623 0.423763 0.400394 0.395285 0.41067 0.427898 0.449944 0.538756 0.821638 1.62342 1.18109 1.47912 1.37437 0.917454 0.600458 0.425768 0.308583 0.181323 0.209157 0.339405 0.297756 0.223574 0.223372 0.200412 0.225642 0.205365 0.355788 0.320079 0.338097 0.368368 0.380364 0.389688 0.137727 0.109254 0.0727653 0.0615859 0.0757305 0.0596766 0.0984903 0.133876 0.327409 0.450198 0.599763 0.72331 0.872247 0.959708 0.377233 0.320755 0.336501 0.364222 0.38493 0.407583 0.549835 0.531642 0.520981 0.515092 0.509512 0.506268 0.503775 0.502066 0.502077 0.503883 0.507398 0.512313 0.518435 0.525558 0.533354 0.541425 0.549436 0.557099 0.5641 0.570282 0.57543 0.579317 0.581895 0.58328 0.583567 0.582664 0.580748 0.578361 0.575848 0.573422 0.571027 0.568581 0.566235 0.546703 0.536794 0.523067 0.506172 0.485707 0.462332 0.441215 0.424443 0.415816 0.42523 0.447953 0.495331 0.566755 0.725867 1.242 0.888789 1.5527 0.846198 0.634894 0.528052 0.398602 0.302197 0.153723 0.363587 0.355202 0.202778 0.350618 0.297659 0.403693 0.30531 0.355189 0.367235 0.386217 0.38655 0.381593 0.137592 0.127581 0.114633 0.105988 0.0707254 0.0520761 0.0894796 0.127156 0.236122 0.324296 0.479722 0.476474 0.822522 0.887401 0.340275 0.288323 0.262789 0.309599 0.374901 0.434078 0.493559 0.550521 0.549173 0.536579 0.527674 0.520055 0.514784 0.510888 0.507359 0.505531 0.505781 0.507911 0.511454 0.516197 0.522077 0.528834 0.536125 0.543637 0.551099 0.558203 0.564673 0.570326 0.575015 0.578498 0.580671 0.581746 0.581859 0.580978 0.579302 0.577226 0.574881 0.563671 0.560777 0.557061 0.552143 0.545425 0.53667 0.524399 0.508306 0.490445 0.473012 0.457814 0.445951 0.439433 0.449649 0.474877 0.523714 0.586166 0.697447 0.649779 0.523088 0.594522 0.667296 0.556446 0.405711 0.314006 0.192272 0.355673 0.463807 0.38508 0.474671 0.447538 0.629436 0.573514 0.384149 0.385639 0.382059 0.375625 0.139045 0.108169 0.0841965 0.0513054 0.0430889 0.0821632 0.108503 0.248915 0.359883 0.332078 0.427642 0.569738 1.07131 0.110385 0.311375 0.252037 0.405063 0.433785 0.473834 0.515744 0.545956 0.544076 0.535852 0.528908 0.522485 0.517284 0.512539 0.509353 0.508334 0.509251 0.511585 0.51501 0.519595 0.52523 0.531708 0.538672 0.545747 0.552661 0.5592 0.565167 0.57035 0.574523 0.572374 0.569863 0.567219 0.564256 0.560797 0.556677 0.551649 0.544998 0.536531 0.526067 0.512965 0.497179 0.481842 0.471398 0.466057 0.464795 0.47204 0.489703 0.517652 0.551549 0.587148 0.600087 0.245984 0.449122 0.92588 1.51066 0.612128 0.622018 0.420478 0.391153 0.435194 0.402514 0.460824 0.614214 0.492103 0.755165 0.734603 0.585885 0.499735 0.435471 0.388845 0.385237 0.386774 0.37866 0.085729 0.0731747 0.063475 0.036756 0.0332033 0.114246 0.206172 0.270827 0.231557 0.237124 0.203461 0.800942 0.562264 0.533772 0.293962 0.195208 0.339156 0.400972 0.438631 0.467166 0.497533 0.524364 0.539696 0.53859 0.533795 0.528124 0.522413 0.517268 0.513303 0.511202 0.510979 0.512155 0.514365 0.577582 0.579485 0.580287 0.580222 0.579413 0.577858 0.575774 0.573383 0.570734 0.567915 0.564797 0.561141 0.556744 0.551522 0.545227 0.5374 0.527954 0.517037 0.504509 0.491367 0.481136 0.477658 0.480386 0.486533 0.49842 0.515447 0.536428 0.539496 0.461541 0.422047 0.254038 0.618395 1.06462 0.924258 0.235561 0.592136 0.411984 0.446487 0.437718 0.447953 0.76743 0.840494 0.805934 0.598106 0.627895 0.552209 0.375432 0.084939 0.0881436 0.0365563 0.163915 0.190059 0.172587 0.138274 0.0399728 0.482105 0.682403 0.657179 0.295697 0.397517 0.438014 0.465467 0.48769 0.508957 0.526617 0.535263 0.534642 0.530872 0.517812 0.52253 0.528177 0.534444 0.541042 0.547668 0.554048 0.560057 0.565544 0.570242 0.573953 0.576616 0.578242 0.578869 0.578632 0.577694 0.576112 0.573995 0.571471 0.568534 0.565218 0.561497 0.55713 0.551933 0.545849 0.538709 0.530334 0.52095 0.351518 0.357364 0.467425 0.781417 1.1097 0.422754 0.2254 0.517257 0.359456 0.409138 0.567659 0.875139 0.86282 0.568034 0.574901 0.568268 0.611848 0.360625 0.660551 0.542726 0.165009 0.165129 0.105803 0.0510715 0.122392 0.593012 0.632881 0.67756 0.227632 0.286451 0.384724 0.434874 0.460478 0.48067 0.49969 0.525937 0.521001 0.516757 0.513943 0.512788 0.51299 0.514283 0.516793 0.520525 0.525258 0.530793 0.536896 0.543198 0.54936 0.555262 0.560817 0.565824 0.570031 0.573303 0.575613 0.576963 0.57737 0.576927 0.575807 0.574125 0.571888 0.569113 0.5658 0.561968 0.510863 0.500503 0.491171 0.485939 0.487299 0.492718 0.499524 0.511211 0.52536 0.53336 0.490557 0.443939 0.607334 0.869874 0.826657 0.434994 0.2695 0.512369 0.515298 0.45276 0.690532 0.677937 0.60332 0.392908 0.484093 0.545003 0.550645 0.629333 0.121269 0.0861316 0.156173 0.111103 0.661403 0.625943 0.612425 0.301527 0.367749 0.418199 0.45111 0.516137 0.52747 0.531761 0.53074 0.527536 0.523505 0.519603 0.516453 0.514634 0.514088 0.514587 0.516208 0.518981 0.522879 0.527751 0.533293 0.539164 0.545057 0.550822 0.556382 0.561534 0.566036 0.569759 0.572637 0.574607 0.575639 0.575783 0.575139 0.55761 0.552572 0.546775 0.540215 0.532816 0.52467 0.516236 0.507998 0.500373 0.494654 0.492733 0.495196 0.500371 0.509148 0.514012 0.506546 0.496275 0.42793 0.356217 0.8335 0.705354 0.422746 0.370443 0.516098 0.461795 0.395245 0.533481 0.515579 0.450654 0.375785 0.274387 0.454178 0.673166 0.648656 0.642323 0.557328 0.675944 0.349242 0.472454 0.491626 0.506909 0.519616 0.526544 0.528643 0.527489 0.524773 0.521592 0.518635 0.516385 0.51514 0.514916 0.515762 0.517814 0.521059 0.52526 0.530158 0.535546 0.541123 0.546708 0.552219 0.557457 0.573827 0.571931 0.569441 0.566332 0.562617 0.558317 0.553418 0.547878 0.541756 0.535146 0.52806 0.520756 0.513806 0.507564 0.502408 0.49916 0.498623 0.500419 0.503954 0.507154 0.507628 0.488805 0.448173 0.42788 0.44376 0.528162 0.692875 0.68403 0.466836 0.308569 0.454598 0.467663 0.483708 0.360019 0.228665 0.188046 1.02842 0.56718 0.541762 0.616031 0.741021 0.608999 0.593676 0.601037 0.629684 0.389645 0.430176 0.460247 0.483135 0.499194 0.512281 0.521729 0.525329 0.526149 0.524898 0.522617 0.520095 0.517693 0.515841 0.514914 0.51522 0.516783 0.519436 0.562159 0.566187 0.569487 0.571981 0.573581 0.574273 0.574134 0.573254 0.5717 0.569513 0.566687 0.563208 0.559111 0.554439 0.549196 0.54343 0.537322 0.531042 0.524664 0.518462 0.512956 0.508466 0.505187 0.503375 0.502881 0.502393 0.50012 0.500543 0.491988 0.466582 0.446973 0.466837 0.500608 0.594089 0.712508 0.753733 0.451168 0.388507 0.467115 0.499547 0.554148 0.62167 0.205429 0.0647278 0.852247 0.473746 0.532863 0.641829 0.65915 0.559237 0.578608 0.596898 0.606132 0.359567 0.403772 0.447716 0.475507 0.493913 0.50606 0.516638 0.522129 0.524258 0.524303 0.522639 0.523002 0.527366 0.532322 0.537591 0.542938 0.548311 0.553566 0.558419 0.562684 0.566307 0.569211 0.571293 0.572492 0.572831 0.572384 0.57122 0.569375 0.566867 0.563696 0.559873 0.555464 0.550559 0.545207 0.539508 0.533698 0.527989 0.469881 0.486218 0.541435 0.63044 0.700274 0.732987 0.65994 0.472371 0.521649 0.575212 0.517702 0.818539 0.411415 0.463816 0.510566 0.691356 0.564203 0.584253 0.38574 0.434033 0.470318 0.490608 0.503347 0.520458 0.518228 0.51602 0.514461 0.514181 0.515332 0.517551 0.520637 0.524675 0.529297 0.534329 0.539471 0.54468 0.549879 0.554817 0.559271 0.563156 0.566393 0.568871 0.570511 0.571299 0.571276 0.5705 0.569017 0.566861 0.564043 0.522461 0.517351 0.513065 0.509899 0.507836 0.50649 0.504657 0.500666 0.495751 0.492063 0.473973 0.468195 0.46083 0.475239 0.509924 0.568059 0.641844 0.743005 0.740964 0.67277 0.557842 0.437484 0.452689 0.489529 0.551232 0.342499 0.37549 0.585808 0.347219 0.597632 0.613594 0.425932 0.512547 0.518935 0.522103 0.52302 0.521857 0.519906 0.517765 0.515801 0.513976 0.513152 0.513856 0.515452 0.518119 0.521836 0.526095 0.531004 0.536138 0.541282 0.546403 0.551363 0.555955 0.560057 0.563578 0.566393 0.568407 0.560568 0.55648 0.551884 0.546906 0.541632 0.536201 0.530848 0.525769 0.521064 0.516905 0.513566 0.511225 0.509731 0.508089 0.504619 0.498126 0.493482 0.481071 0.479984 0.714341 0.754474 0.797723 0.865109 0.910076 0.418075 0.474603 0.438209 0.176662 0.762397 0.319743 0.511431 0.602062 0.648387 0.576326 0.582269 0.600982 0.612234 0.466987 0.48807 0.502097 0.509922 0.515527 0.519591 0.521326 0.520597 0.518726 0.51704 0.514687 0.513198 0.513514 0.513986 0.514268 0.516277 0.519075 0.522796 0.527382 0.532578 0.537884 0.569595 0.569975 0.569586 0.568471 0.566669 0.56421 0.561117 0.557417 0.553179 0.548526 0.543603 0.538532 0.533464 0.528605 0.524114 0.520105 0.516707 0.514043 0.51214 0.510556 0.508239 0.503776 0.498706 0.489826 0.485842 0.451399 0.464217 0.488787 0.52767 0.577987 0.778479 0.852346 0.907828 0.908145 0.38109 0.402118 0.381365 0.33358 0.285359 0.10712 0.473377 0.597974 0.637269 0.57288 0.582645 0.595065 0.602232 0.460906 0.486939 0.501209 0.508438 0.512638 0.51685 0.519069 0.518656 0.517401 0.515277 0.513469 0.512526 0.51304 0.513793 0.514785 0.543056 0.54803 0.552724 0.557019 0.560787 0.563892 0.566231 0.567772 0.568521 0.568506 0.567759 0.566315 0.564207 0.56148 0.558175 0.554339 0.550053 0.545448 0.540677 0.535877 0.531197 0.5268 0.522827 0.519395 0.516579 0.514378 0.512604 0.510688 0.50776 0.503916 0.499015 0.492793 0.447533 0.455569 0.474097 0.500251 0.531865 0.660828 0.70476 0.84067 0.888251 0.874 0.330887 0.400516 0.467085 0.499279 0.602394 0.61822 0.579909 0.584954 0.486087 0.499067 0.507306 0.510382 0.513762 0.516435 0.516226 0.516628 0.517576 0.520403 0.523948 0.528695 0.534133 0.539585 0.544725 0.549537 0.554008 0.558022 0.561395 0.564011 0.565853 0.566936 0.567275 0.566888 0.565802 0.564047 0.561671 0.558729 0.555276 0.551375 0.54712 0.448422 0.452893 0.463986 0.481389 0.50111 0.614284 0.649555 0.726259 0.800139 0.864697 0.838349 0.329403 0.331638 0.274166 0.738201 0.56317 0.516092 0.51398 0.584695 0.586694 0.49838 0.515008 0.513965 0.51257 0.512905 0.513914 0.510872 0.512971 0.51677 0.51834 0.520258 0.522147 0.525465 0.530172 0.535749 0.541221 0.546287 0.550982 0.55524 0.558883 0.561765 0.563867 0.565227 0.565883 0.542641 0.53808 0.53358 0.529278 0.525307 0.521794 0.518846 0.516483 0.514595 0.512844 0.510776 0.508044 0.505081 0.500395 0.48228 0.579403 0.602532 0.683666 0.748868 0.791423 0.818013 0.825745 0.746857 0.651524 0.539637 0.599211 0.613265 0.586091 0.578603 0.577115 0.57128 0.50585 0.50871 0.510974 0.513417 0.513894 0.512946 0.512658 0.513768 0.516471 0.513282 0.511527 0.513217 0.512808 0.516555 0.520032 0.522415 0.524435 0.527346 0.531938 0.5374 0.542795 0.547832 0.565844 0.565114 0.563715 0.561688 0.55909 0.555986 0.552444 0.548538 0.544368 0.540055 0.535734 0.531544 0.527604 0.524026 0.520923 0.518388 0.516411 0.514783 0.513219 0.511444 0.509627 0.507035 0.449288 0.452773 0.459734 0.469962 0.554023 0.568788 0.645386 0.713161 0.747901 0.779832 0.799279 0.874849 0.695128 0.784586 0.76762 0.525843 0.599738 0.614575 0.574495 0.57153 0.569006 0.563782 0.504585 0.507744 0.508856 0.510703 0.512148 0.512433 0.51379 0.514462 0.514847 0.513501 0.513274 0.512434 0.511585 0.513869 0.516073 0.520421 0.55241 0.556334 0.55945 0.561797 0.563404 0.564325 0.5646 0.564218 0.563179 0.561506 0.55925 0.556479 0.553268 0.549689 0.545825 0.541774 0.537649 0.533581 0.529694 0.526096 0.522883 0.520157 0.518006 0.51639 0.51512 0.513935 0.512897 0.511919 0.450401 0.452892 0.457789 0.464643 0.471905 0.746964 0.775726 0.76941 0.863905 0.791493 0.718001 0.575588 0.539637 0.606318 0.600932 0.567757 0.566663 0.506678 0.506785 0.508879 0.511369 0.514172 0.513637 0.513594 0.523541 0.526408 0.529454 0.53387 0.539033 0.544424 0.549451 0.553737 0.557055 0.559612 0.561426 0.562579 0.563142 0.563083 0.562394 0.561081 0.559176 0.55674 0.553851 0.550584 0.547014 0.543229 0.539324 0.535404 0.451802 0.453495 0.457128 0.46204 0.466814 0.536146 0.545741 0.619839 0.679051 0.721222 0.759523 0.749833 0.787056 0.792805 0.811406 0.586984 0.557265 0.562449 0.558222 0.505069 0.512322 0.5096 0.514407 0.512245 0.511619 0.511859 0.512966 0.518324 0.520567 0.524235 0.527874 0.531465 0.535708 0.540656 0.546281 0.551128 0.554494 0.557317 0.559286 0.560595 0.561427 0.561682 0.561331 0.531588 0.527993 0.524717 0.521848 0.519489 0.517726 0.516519 0.515702 0.514965 0.514591 0.453327 0.454187 0.456953 0.460873 0.464227 0.524898 0.530896 0.603298 0.658598 0.694844 0.728834 0.758433 0.706658 0.592102 0.677719 0.667889 0.626868 0.595946 0.588878 0.584302 0.506796 0.51105 0.514816 0.515053 0.509829 0.512925 0.509857 0.511198 0.512862 0.512667 0.511213 0.511887 0.515924 0.519171 0.521612 0.52556 0.529441 0.533248 0.537432 0.542292 0.548716 0.55169 0.560367 0.558817 0.55673 0.554171 0.551215 0.547941 0.544426 0.540755 0.537015 0.533308 0.529743 0.526425 0.523452 0.520924 0.518947 0.517591 0.51684 0.516481 0.515804 0.518517 0.523405 0.59425 0.647368 0.682351 0.709811 0.672468 0.693429 0.718918 0.722392 0.505936 0.507213 0.51152 0.510753 0.512097 0.509991 0.514943 0.516166 0.554729 0.557063 0.558368 0.559415 0.559948 0.55993 0.559324 0.558131 0.556394 0.554179 0.551555 0.548591 0.545362 0.541943 0.538413 0.534853 0.531358 0.528035 0.524995 0.522339 0.520159 0.518552 0.517585 0.517222 0.517096 0.454805 0.454687 0.456464 0.459756 0.463171 0.620217 0.520584 0.527007 0.531452 0.535245 0.539505 0.545008 0.543428 0.544007 0.544388 
SCALARS Axial_Stress float 1
LOOKUP_TABLE default
-67992800000.0 -107194000000.0 -140307000000.0 -73863400000.0 -87721000000.0 -55184100000.0 -71343800000.0 -161346000000.0 -164349000000.0 -80014700000.0 -63356800000.0 -137203000000.0 -104953000000.0 -219576000000.0 -117547000000.0 -231464000000.0 -87418100000.0 -152048000000.0 -90369500000.0 -164883000000.0 -188396000000.0 -66806400000.0 -138084000000.0 -52987000000.0 -58130600000.0 -210347000000.0 -212244000000.0 -235245000000.0 -139310000000.0 -198512000000.0 -271124000000.0 -157991000000.0 -179836000000.0 -235823000000.0 -291123000000.0 -316908000000.0 -309666000000.0 -132141000000.0 -166764000000.0 -323648000000.0 -277563000000.0 -343270000000.0 -126936000000.0 -168992000000.0 -350178000000.0 -116212000000.0 -171641000000.0 -272012000000.0 -303734000000.0 -374390000000.0 -408762000000.0 -407683000000.0 -417199000000.0 -409724000000.0 -396602000000.0 -450786000000.0 -405463000000.0 -576171000000.0 -406661000000.0 -298414000000.0 -270448000000.0 -306135000000.0 -481371000000.0 -603103000000.0 -500364000000.0 -604815000000.0 -505383000000.0 -592087000000.0 -485872000000.0 -733077000000.0 -737888000000.0 -906311000000.0 -632312000000.0 -765716000000.0 -525648000000.0 -610517000000.0 -544179000000.0 -648582000000.0 -589206000000.0 -843167000000.0 -675911000000.0 -436715000000.0 -702126000000.0 -435497000000.0 -290520000000.0 -311224000000.0 -285537000000.0 -783815000000.0 -591562000000.0 -722197000000.0 -708101000000.0 -697224000000.0 -745896000000.0 -865920000000.0 -945077000000.0 -789408000000.0 -722897000000.0 -805582000000.0 -614827000000.0 -537003000000.0 -839631000000.0 -380944000000.0 -416531000000.0 -354558000000.0 -402008000000.0 -982130000000.0 -871454000000.0 -823099000000.0 -799607000000.0 -802781000000.0 -870329000000.0 -954368000000.0 -911642000000.0 -822430000000.0 -834540000000.0 -922341000000.0 -949390000000.0 -1.07491e+12 -1.31555e+12 -1.05223e+12 -958509000000.0 -910071000000.0 -988919000000.0 -888364000000.0 -972621000000.0 -906122000000.0 -996504000000.0 -964361000000.0 -986586000000.0 -929074000000.0 -976409000000.0 -900290000000.0 -984692000000.0 -939249000000.0 -1.02769e+12 -656084000000.0 -650873000000.0 -1.08641e+12 -1.30411e+12 -1.41994e+12 -1.40274e+12 -1.26395e+12 -1.29638e+12 -1.11503e+12 -1.17686e+12 -1.03495e+12 -1.10421e+12 -1.06105e+12 -1.05063e+12 -1.06726e+12 -1.02848e+12 -1.073e+12 -1.01005e+12 -1.05103e+12 -1.04457e+12 -1.06769e+12 -728553000000.0 -772167000000.0 -1.17571e+12 -1.25273e+12 -1.19381e+12 -1.99568e+12 -2.49966e+12 -1.99449e+12 -1.47184e+12 -1.33681e+12 -1.23436e+12 -1.1664e+12 -1.12657e+12 -1.11795e+12 -1.12315e+12 -1.11519e+12 -1.10693e+12 -1.11869e+12 -1.14396e+12 -1.38205e+12 -1.70116e+12 -2.07659e+12 -1.7572e+12 -1.50802e+12 -1.37984e+12 -1.28722e+12 -1.22157e+12 -1.18473e+12 -1.17408e+12 -1.17107e+12 -1.16649e+12 -1.17385e+12 -1.24549e+12 -1.19329e+12 -1.26468e+12 -816035000000.0 -900837000000.0 -1.56849e+12 -1.86157e+12 -1.90655e+12 -1.71961e+12 -1.72376e+12 -1.53931e+12 -1.56453e+12 -1.42041e+12 -1.46126e+12 -1.33376e+12 -1.37209e+12 -1.26941e+12 -1.31008e+12 -1.23488e+12 -1.27836e+12 -1.22278e+12 -1.26978e+12 -1.22026e+12 -1.27723e+12 -1.22764e+12 -1.29666e+12 -1.31801e+12 -911556000000.0 -1.04626e+12 -1.59186e+12 -1.68243e+12 -1.71463e+12 -1.7692e+12 -1.9026e+12 -1.89072e+12 -1.88594e+12 -1.91546e+12 -1.7187e+12 -1.59595e+12 -1.49268e+12 -1.40228e+12 -1.34444e+12 -1.319e+12 -1.32171e+12 -1.34335e+12 -1.36988e+12 -1.38838e+12 -1.71571e+12 -1.74176e+12 -1.72869e+12 -2.12801e+12 -1.86985e+12 -1.73957e+12 -1.62948e+12 -1.51306e+12 -1.42532e+12 -1.37476e+12 -1.36302e+12 -1.38338e+12 -1.45614e+12 -1.41704e+12 -1.49501e+12 -1.444e+12 -1.51604e+12 -1.01159e+12 -1.17543e+12 -1.76262e+12 -1.74379e+12 -1.54473e+12 -1.94698e+12 -1.96966e+12 -1.88512e+12 -1.90378e+12 -1.76245e+12 -1.79765e+12 -1.64424e+12 -1.64276e+12 -1.5239e+12 -1.52737e+12 -1.44293e+12 -1.45807e+12 -1.4056e+12 -1.44567e+12 -1.41664e+12 -1.48431e+12 -1.53767e+12 -1.57388e+12 -1.11409e+12 -1.29224e+12 -1.806e+12 -1.83652e+12 -1.7825e+12 -1.75584e+12 -1.66768e+12 -1.37708e+12 -1.04466e+12 -1.97562e+12 -1.91936e+12 -1.7874e+12 -1.63031e+12 -1.52603e+12 -1.47605e+12 -1.5017e+12 -1.56736e+12 -1.624e+12 -1.65052e+12 -1.89322e+12 -1.84133e+12 -1.65427e+12 -1.24671e+12 -1.11769e+12 -1.14441e+12 -2.00125e+12 -1.97711e+12 -1.91266e+12 -1.75459e+12 -1.61135e+12 -1.52297e+12 -1.51154e+12 -1.57867e+12 -1.67857e+12 -1.66133e+12 -1.76106e+12 -1.71149e+12 -1.79691e+12 -1.2178e+12 -1.40101e+12 -2.00085e+12 -1.924e+12 -1.93134e+12 -1.80742e+12 -1.75981e+12 -1.52695e+12 -1.28614e+12 -1.1633e+12 -2.00048e+12 -2.19169e+12 -1.81809e+12 -1.71142e+12 -1.67969e+12 -1.59132e+12 -1.56221e+12 -1.52025e+12 -1.55054e+12 -1.57184e+12 -1.66363e+12 -1.79236e+12 -1.86276e+12 -1.32212e+12 -1.50802e+12 -2.04257e+12 -1.91927e+12 -1.66365e+12 -1.27871e+12 -1.31731e+12 -1.12453e+12 -1.91291e+12 -1.77888e+12 -1.63773e+12 -1.51742e+12 -1.61698e+12 -1.79292e+12 -1.91383e+12 -1.96241e+12 -2.15107e+12 -2.06282e+12 -1.87437e+12 -1.22884e+12 -1.33204e+12 -1.34193e+12 -1.32936e+12 -1.45682e+12 -1.6219e+12 -1.81798e+12 -1.86355e+12 -1.85021e+12 -1.74307e+12 -1.68059e+12 -1.56393e+12 -1.54129e+12 -1.6168e+12 -1.73285e+12 -1.90787e+12 -1.93928e+12 -2.11536e+12 -2.04065e+12 -2.14333e+12 -1.42431e+12 -1.61283e+12 -2.33268e+12 -2.22445e+12 -2.30359e+12 -2.04236e+12 -1.88704e+12 -1.77638e+12 -1.28121e+12 -1.63882e+12 -1.82885e+12 -1.90638e+12 -1.82952e+12 -1.54966e+12 -1.40713e+12 -1.48452e+12 -1.69314e+12 -2.19586e+12 -2.23343e+12 -1.52072e+12 -1.71205e+12 -2.42802e+12 -2.41443e+12 -1.70942e+12 -1.04023e+12 -1.91689e+12 -1.80006e+12 -1.98849e+12 -1.85357e+12 -1.97016e+12 -1.94714e+12 -1.77388e+12 -1.25816e+12 -1.48846e+12 -2.30324e+12 -2.44911e+12 -2.33011e+12 -2.42214e+12 -2.32741e+12 -1.60974e+12 -1.80432e+12 -2.52081e+12 -2.62229e+12 -2.54041e+12 -2.72473e+12 -2.73836e+12 -3.29175e+12 -1.86245e+12 -2.12488e+12 -2.11417e+12 -2.03626e+12 -2.15149e+12 -2.05499e+12 -2.1081e+12 -1.95124e+12 -1.89996e+12 -1.65664e+12 -1.5656e+12 -1.5016e+12 -3.15931e+12 -2.65102e+12 -2.65702e+12 -2.52959e+12 -2.50213e+12 -2.69744e+12 -2.75038e+12 -3.00571e+12 -3.09633e+12 -2.23987e+12 -2.23648e+12 -2.24138e+12 -2.2355e+12 -2.13417e+12 -1.6746e+12 -3.53598e+12 -2.97432e+12 -2.67559e+12 -2.59453e+12 -1.69323e+12 -1.89191e+12 -2.79588e+12 -2.91227e+12 -3.16003e+12 -2.67213e+12 -2.62422e+12 -2.3715e+12 -2.46288e+12 -2.33953e+12 -2.43926e+12 -2.34048e+12 -2.30413e+12 -2.0663e+12 -3.23948e+12 -3.56011e+12 -3.44438e+12 -3.28901e+12 -3.08751e+12 -2.8715e+12 -2.84123e+12 -2.70534e+12 -2.7469e+12 -2.66052e+12 -1.77495e+12 -1.97744e+12 -2.85511e+12 -2.93943e+12 -2.90735e+12 -3.00544e+12 -3.03865e+12 -3.05557e+12 -2.95678e+12 -2.81937e+12 -2.63685e+12 -2.54639e+12 -2.52848e+12 -2.42542e+12 -2.51022e+12 -2.36256e+12 -2.65084e+12 -2.80776e+12 -3.34934e+12 -3.24744e+12 -2.99077e+12 -2.84714e+12 -2.80016e+12 -2.99043e+12 -3.01928e+12 -3.06118e+12 -2.98296e+12 -2.80096e+12 -2.68053e+12 -2.6294e+12 -2.61702e+12 -2.67919e+12 -2.90868e+12 -3.11252e+12 -3.19635e+12 -3.28206e+12 -3.1215e+12 -2.95607e+12 -2.87548e+12 -1.85765e+12 -2.06091e+12 -3.10715e+12 -3.05694e+12 -3.11624e+12 -3.08072e+12 -3.12175e+12 -3.07558e+12 -3.05845e+12 -2.93957e+12 -2.94502e+12 -2.81856e+12 -2.85865e+12 -2.74078e+12 -2.81147e+12 -2.7131e+12 -2.80987e+12 -2.73727e+12 -2.84567e+12 -3.07348e+12 -3.19543e+12 -3.19446e+12 -3.13155e+12 -3.05744e+12 -3.03556e+12 -2.95704e+12 -2.98062e+12 -2.91936e+12 -1.94125e+12 -2.14212e+12 -3.1622e+12 -3.16516e+12 -3.14326e+12 -3.05638e+12 -2.97294e+12 -2.91396e+12 -2.89208e+12 -2.91295e+12 -2.86462e+12 -2.97854e+12 -2.99144e+12 -3.09336e+12 -3.1463e+12 -3.16694e+12 -3.09973e+12 -3.04145e+12 -3.01864e+12 -3.21395e+12 -3.21266e+12 -3.20322e+12 -3.15372e+12 -3.07812e+12 -3.01662e+12 -2.98083e+12 -2.97863e+12 -3.00994e+12 -3.07243e+12 -3.14793e+12 -3.16628e+12 -3.1629e+12 -3.14246e+12 -3.13333e+12 -3.09409e+12 -3.10831e+12 -3.06573e+12 -3.10097e+12 -2.0242e+12 -2.2222e+12 -3.31738e+12 -3.26392e+12 -3.31079e+12 -3.25717e+12 -3.29589e+12 -3.23207e+12 -3.25775e+12 -3.17309e+12 -3.20579e+12 -3.11467e+12 -3.16251e+12 -3.07229e+12 -3.13629e+12 -3.05479e+12 -3.13027e+12 -3.06347e+12 -3.13909e+12 -3.09209e+12 -3.13862e+12 -3.16767e+12 -3.15779e+12 -3.14137e+12 -3.13621e+12 -2.105e+12 -2.30259e+12 -3.36529e+12 -3.35408e+12 -3.33062e+12 -3.28942e+12 -3.24866e+12 -3.21889e+12 -3.20429e+12 -3.20133e+12 -3.20034e+12 -3.15586e+12 -3.19645e+12 -3.17351e+12 -3.18061e+12 -3.1702e+12 -3.16264e+12 -3.16439e+12 -3.17136e+12 -2.38458e+12 -3.42053e+12 -3.46746e+12 -3.41073e+12 -3.45378e+12 -3.39436e+12 -3.43332e+12 -3.36532e+12 -3.40448e+12 -3.32946e+12 -3.37665e+12 -3.29955e+12 -3.35648e+12 -3.28085e+12 -3.34538e+12 -3.27187e+12 -3.26283e+12 -3.24322e+12 -3.20893e+12 -3.17583e+12 -3.17233e+12 -3.18624e+12 -3.18179e+12 -3.21463e+12 -3.19793e+12 -3.23603e+12 -2.18313e+12 -3.5246e+12 -3.51201e+12 -3.49535e+12 -3.47357e+12 -3.44942e+12 -3.42964e+12 -3.41746e+12 -3.40995e+12 -3.33487e+12 -3.38909e+12 -3.31002e+12 -3.33662e+12 -3.26148e+12 -3.18961e+12 -3.17724e+12 -3.21701e+12 -3.25703e+12 -2.25918e+12 -2.46941e+12 -3.62996e+12 -3.57064e+12 -3.614e+12 -3.55467e+12 -3.59669e+12 -3.53707e+12 -3.58078e+12 -3.51748e+12 -3.49956e+12 -3.48708e+12 -3.48086e+12 -3.47284e+12 -3.42855e+12 -3.3315e+12 -3.2454e+12 -3.17458e+12 -3.16349e+12 -3.15873e+12 -3.20024e+12 -3.24924e+12 -3.26392e+12 -3.32185e+12 -3.30275e+12 -2.33473e+12 -2.55833e+12 -3.67475e+12 -3.65541e+12 -3.63988e+12 -3.62777e+12 -3.56573e+12 -3.61792e+12 -3.55402e+12 -3.61198e+12 -3.54786e+12 -3.61132e+12 -3.5458e+12 -3.61246e+12 -3.53336e+12 -3.5924e+12 -3.44094e+12 -3.27303e+12 -3.10402e+12 -3.20045e+12 -3.32215e+12 -3.38138e+12 -3.73671e+12 -3.71606e+12 -3.69665e+12 -3.68565e+12 -3.6783e+12 -3.67352e+12 -3.67291e+12 -3.67745e+12 -3.6824e+12 -3.65445e+12 -3.39585e+12 -3.2069e+12 -3.08962e+12 -3.09139e+12 -3.2929e+12 -3.40632e+12 -3.40399e+12 -3.48188e+12 -2.41206e+12 -9035750000.0 -2.65245e+12 -3.84493e+12 -3.77968e+12 -3.81762e+12 -3.75473e+12 -3.79341e+12 -3.74005e+12 -3.78693e+12 -3.7347e+12 -3.78707e+12 -3.73212e+12 -3.78887e+12 -3.73209e+12 -3.79323e+12 -3.73653e+12 -3.74694e+12 -3.75941e+12 -3.73221e+12 -2.4727e+12 -2.91438e+12 -3.00523e+12 -3.21096e+12 -3.37785e+12 -3.51546e+12 -2.49276e+12 -2.75244e+12 -3.88544e+12 -3.85125e+12 -3.83576e+12 -3.83757e+12 -3.84249e+12 -3.84822e+12 -3.85665e+12 -3.80287e+12 -3.87244e+12 -3.82159e+12 -3.90508e+12 -3.85116e+12 -3.96999e+12 -3.8299e+12 -4.63778e+12 -2.35578e+12 -3.28652e+12 -3.53543e+12 -3.65203e+12 -3.60644e+12 -2.5784e+12 -2.85817e+12 -3.95481e+12 -3.99242e+12 -3.91828e+12 -3.94335e+12 -3.88464e+12 -3.92447e+12 -3.88315e+12 -3.93538e+12 -3.89178e+12 -3.94935e+12 -3.90074e+12 -3.90973e+12 -3.92201e+12 -3.94675e+12 -4.00515e+12 -4.33062e+12 -4.89304e+12 -2.77302e+12 -3.4664e+12 -3.53961e+12 -3.68974e+12 -3.75048e+12 -9035750000.0 -4.06709e+12 -4.01819e+12 -3.96671e+12 -3.97211e+12 -3.99212e+12 -4.01003e+12 -3.96141e+12 -4.02354e+12 -3.97262e+12 -4.03615e+12 -3.98957e+12 -4.06157e+12 -4.03044e+12 -4.19571e+12 -4.69485e+12 -4.65409e+12 -4.50214e+12 -3.94577e+12 -3.71686e+12 -3.80431e+12 -3.90655e+12 -2.67142e+12 -2.9685e+12 -4.18433e+12 -4.10197e+12 -4.11929e+12 -4.02931e+12 -4.03222e+12 -4.00177e+12 -4.05002e+12 -4.02667e+12 -4.05327e+12 -4.0729e+12 -4.08562e+12 -4.1007e+12 -4.14927e+12 -4.15172e+12 -4.29328e+12 -4.415e+12 -4.52314e+12 -4.31489e+12 -3.95025e+12 -3.98539e+12 -3.85663e+12 -3.96491e+12 -2.77624e+12 -3.08214e+12 -4.2201e+12 -4.10519e+12 -4.05841e+12 -4.10981e+12 -4.08804e+12 -4.15622e+12 -4.11822e+12 -4.18413e+12 -4.1358e+12 -4.14641e+12 -4.17049e+12 -4.24761e+12 -4.39245e+12 -4.41317e+12 -4.23468e+12 -4.09148e+12 -4.08432e+12 -4.04618e+12 -4.06888e+12 -2.89816e+12 -9035750000.0 -3.22489e+12 -4.32035e+12 -4.33842e+12 -4.22126e+12 -4.15679e+12 -4.0632e+12 -4.07371e+12 -4.1107e+12 -4.18211e+12 -4.22797e+12 -4.24596e+12 -4.1959e+12 -4.25252e+12 -4.2069e+12 -4.26624e+12 -4.24389e+12 -4.30704e+12 -4.32745e+12 -4.35863e+12 -4.3975e+12 -4.30833e+12 -4.14429e+12 -4.11569e+12 -4.17607e+12 -4.13037e+12 -4.23301e+12 -4.57532e+12 -4.25641e+12 -4.00838e+12 -4.14768e+12 -4.18667e+12 -4.29009e+12 -4.26461e+12 -4.3379e+12 -4.29379e+12 -4.3018e+12 -4.30508e+12 -4.31761e+12 -4.34249e+12 -4.32792e+12 -4.20816e+12 -4.17791e+12 -4.15747e+12 -4.20445e+12 -4.27121e+12 -4.3877e+12 -3.03939e+12 -3.3745e+12 -4.83407e+12 -4.68214e+12 -4.80633e+12 -3.91438e+12 -3.17984e+12 -3.99706e+12 -4.2942e+12 -4.37872e+12 -4.39487e+12 -4.35004e+12 -4.39885e+12 -4.3521e+12 -4.39597e+12 -4.3502e+12 -4.35057e+12 -4.33527e+12 -4.27581e+12 -4.25252e+12 -4.19679e+12 -4.21433e+12 -4.28407e+12 -4.28175e+12 -4.40313e+12 -3.19396e+12 -3.52271e+12 -4.95844e+12 -5.85159e+12 -3.60941e+12 -4.24617e+12 -4.43852e+12 -4.41514e+12 -4.43874e+12 -4.43952e+12 -4.44284e+12 -4.42968e+12 -4.38115e+12 -4.38988e+12 -4.35502e+12 -4.31238e+12 -4.20263e+12 -4.20754e+12 -4.27439e+12 -4.39028e+12 -4.53879e+12 -3.35648e+12 -3.68808e+12 -4.99817e+12 -5.16386e+12 -5.06106e+12 -5.73218e+12 -5.46886e+12 -4.28008e+12 -4.52836e+12 -4.48385e+12 -4.52201e+12 -4.47909e+12 -4.50686e+12 -4.4766e+12 -4.48376e+12 -4.44546e+12 -4.36595e+12 -4.20504e+12 -4.1262e+12 -4.18213e+12 -4.24159e+12 -4.37298e+12 -4.51704e+12 -4.54721e+12 -4.69813e+12 -5.00809e+12 -5.14215e+12 -5.36453e+12 -5.58635e+12 -5.42266e+12 -4.87958e+12 -4.80312e+12 -4.51496e+12 -4.56994e+12 -4.54133e+12 -4.52783e+12 -4.51012e+12 -4.54344e+12 -4.52293e+12 -4.56257e+12 -4.42824e+12 -4.34163e+12 -4.27164e+12 -4.05731e+12 -4.17109e+12 -4.33228e+12 -4.3602e+12 -4.48983e+12 -4.70976e+12 -4.87205e+12 -3.50446e+12 -3.85736e+12 -5.2278e+12 -5.53071e+12 -5.54647e+12 -5.12735e+12 -4.76366e+12 -4.60434e+12 -4.62943e+12 -4.58364e+12 -4.54955e+12 -4.54705e+12 -4.58013e+12 -4.60742e+12 -4.02741e+12 -3.9907e+12 -4.24307e+12 -4.50161e+12 -4.68035e+12 -5.17336e+12 -3.69121e+12 -4.18041e+12 -4.69266e+12 -5.29575e+12 -5.41396e+12 -5.51147e+12 -5.52233e+12 -5.3981e+12 -5.23081e+12 -4.99853e+12 -4.7339e+12 -4.62229e+12 -4.5809e+12 -4.57069e+12 -4.55356e+12 -4.56011e+12 -4.56953e+12 -4.60165e+12 -4.62593e+12 -4.68858e+12 -4.65583e+12 -4.85818e+12 -3.40786e+12 -3.7494e+12 -4.463e+12 -4.65591e+12 -4.67761e+12 -4.89558e+12 -4.86185e+12 -5.73624e+12 -3.77158e+12 -5.17066e+12 -5.50957e+12 -4.53835e+12 -4.69427e+12 -5.14426e+12 -5.47657e+12 -5.56258e+12 -5.42276e+12 -5.10087e+12 -4.90273e+12 -4.81904e+12 -4.69706e+12 -4.6006e+12 -4.56176e+12 -4.57748e+12 -4.65318e+12 -4.83442e+12 -5.49415e+12 -5.22355e+12 -4.37204e+12 -4.59048e+12 -4.6616e+12 -5.79012e+12 -5.50473e+12 -5.46579e+12 -5.00897e+12 -5.04134e+12 -7.15045e+12 -6.32652e+12 -5.91569e+12 -5.49316e+12 -5.60186e+12 -5.55042e+12 -5.45367e+12 -5.28846e+12 -4.97776e+12 -4.7404e+12 -4.65322e+12 -4.6091e+12 -4.57646e+12 -4.56051e+12 -4.56293e+12 -4.61599e+12 -4.75621e+12 -5.22694e+12 -5.38301e+12 -4.69126e+12 -4.70038e+12 -4.34109e+12 -5.98507e+12 -5.92631e+12 -6.15884e+12 -5.98512e+12 -6.07529e+12 -7.32385e+12 -5.02892e+12 -4.97797e+12 -4.75596e+12 -4.81711e+12 -7.40393e+12 -7.35596e+12 -7.21224e+12 -6.6414e+12 -5.86263e+12 -5.87874e+12 -5.58075e+12 -5.30926e+12 -5.14722e+12 -5.00668e+12 -4.86343e+12 -4.6683e+12 -4.57187e+12 -4.5671e+12 -4.58846e+12 -4.6528e+12 -4.69735e+12 -4.85095e+12 -4.98581e+12 -5.17439e+12 -5.05161e+12 -4.80085e+12 -4.38669e+12 -5.85595e+12 -6.25259e+12 -6.16465e+12 -6.45098e+12 -6.33923e+12 -7.30917e+12 -7.72443e+12 -7.73537e+12 -4.91402e+12 -4.71302e+12 -7.45147e+12 -7.48863e+12 -7.17955e+12 -7.12637e+12 -6.08992e+12 -6.233e+12 -5.82712e+12 -5.45515e+12 -5.15101e+12 -4.8792e+12 -4.75946e+12 -4.66562e+12 -4.60613e+12 -4.55546e+12 -4.61849e+12 -4.76721e+12 -5.00004e+12 -5.04829e+12 -5.13667e+12 -4.94507e+12 -4.71998e+12 -4.44822e+12 -5.4665e+12 -6.04455e+12 -6.17894e+12 -6.35482e+12 -6.69733e+12 -6.37713e+12 -7.01781e+12 -7.72409e+12 -7.67908e+12 -4.93108e+12 -4.87615e+12 -4.71648e+12 -7.26294e+12 -7.33814e+12 -7.23407e+12 -7.25698e+12 -7.24281e+12 -6.76975e+12 -5.87732e+12 -6.33199e+12 -6.21829e+12 -6.02035e+12 -5.65806e+12 -5.43182e+12 -5.28223e+12 -5.0141e+12 -4.75305e+12 -4.59003e+12 -4.55979e+12 -4.55231e+12 -4.58451e+12 -4.66636e+12 -4.71104e+12 -4.80784e+12 -4.88332e+12 -4.94302e+12 -4.98169e+12 -4.83182e+12 -4.97933e+12 -5.74872e+12 -5.81498e+12 -6.06341e+12 -6.15542e+12 -6.36985e+12 -6.46781e+12 -7.54422e+12 -7.70282e+12 -7.4312e+12 -7.5987e+12 -4.87101e+12 -4.65148e+12 -4.80465e+12 -7.18259e+12 -7.10507e+12 -7.02825e+12 -6.96766e+12 -6.24528e+12 -6.90436e+12 -5.29448e+12 -6.92747e+12 -6.54663e+12 -5.66851e+12 -5.28252e+12 -5.14434e+12 -4.99973e+12 -4.87216e+12 -4.64551e+12 -4.53513e+12 -4.6173e+12 -4.75884e+12 -4.86549e+12 -4.86335e+12 -4.92748e+12 -4.83819e+12 -4.85413e+12 -5.05131e+12 -5.37762e+12 -5.58101e+12 -5.93393e+12 -6.08842e+12 -6.69218e+12 -6.79495e+12 -6.76392e+12 -7.06951e+12 -7.32664e+12 -7.15114e+12 -7.40473e+12 -7.49903e+12 -7.40171e+12 -4.96585e+12 -4.85254e+12 -4.64296e+12 -7.5824e+12 -7.07574e+12 -6.46738e+12 -7.13503e+12 -7.23372e+12 -7.24165e+12 -6.96636e+12 -7.28982e+12 -6.35036e+12 -6.26536e+12 -6.37638e+12 -6.28841e+12 -6.01951e+12 -5.7285e+12 -5.47499e+12 -5.12714e+12 -4.83315e+12 -4.72362e+12 -4.61566e+12 -4.57031e+12 -4.48695e+12 -4.54099e+12 -4.64774e+12 -4.70516e+12 -4.81389e+12 -4.8283e+12 -4.79837e+12 -4.80324e+12 -4.8689e+12 -5.29839e+12 -5.75386e+12 -5.98065e+12 -6.24715e+12 -6.391e+12 -6.04255e+12 -7.22254e+12 -7.09937e+12 -7.29889e+12 -7.33207e+12 -7.6051e+12 -4.47428e+12 -4.21831e+12 -4.47117e+12 -7.52025e+12 -7.1428e+12 -7.20225e+12 -6.84219e+12 -7.06814e+12 -7.4675e+12 -6.54238e+12 -6.09959e+12 -5.09862e+12 -5.8056e+12 -5.59521e+12 -5.30372e+12 -5.02054e+12 -4.93256e+12 -4.68246e+12 -4.53228e+12 -4.51005e+12 -4.72083e+12 -4.77273e+12 -4.82195e+12 -4.81499e+12 -4.76431e+12 -4.76536e+12 -4.67117e+12 -4.72118e+12 -4.78401e+12 -5.04359e+12 -5.24453e+12 -5.5107e+12 -5.74898e+12 -6.21546e+12 -6.34305e+12 -6.1428e+12 -6.24459e+12 -6.94008e+12 -7.2317e+12 -6.81853e+12 -6.81501e+12 -7.0374e+12 -7.35951e+12 -7.47698e+12 -7.01982e+12 -4.33482e+12 -4.30766e+12 -7.22144e+12 -7.20684e+12 -7.21361e+12 -7.46933e+12 -7.03791e+12 -6.71619e+12 -6.97402e+12 -7.03689e+12 -7.21346e+12 -7.06875e+12 -6.69757e+12 -6.13062e+12 -6.18541e+12 -6.85803e+12 -6.15293e+12 -5.96158e+12 -5.20931e+12 -4.81426e+12 -4.76945e+12 -4.62946e+12 -4.60945e+12 -4.52225e+12 -4.37572e+12 -4.62279e+12 -4.88883e+12 -4.78243e+12 -4.66593e+12 -4.60159e+12 -4.85231e+12 -5.00862e+12 -5.46402e+12 -5.72675e+12 -6.0154e+12 -6.20625e+12 -6.14294e+12 -6.08591e+12 -6.51807e+12 -6.19497e+12 -7.04134e+12 -6.21088e+12 -7.22468e+12 -7.22262e+12 -7.26028e+12 -7.26146e+12 -4.6162e+12 -4.58153e+12 -4.63764e+12 -7.44132e+12 -7.20245e+12 -7.39151e+12 -7.38839e+12 -6.43838e+12 -6.60133e+12 -6.04042e+12 -6.54357e+12 -6.84314e+12 -6.78896e+12 -6.42331e+12 -6.3116e+12 -6.38991e+12 -5.83601e+12 -5.51835e+12 -4.84392e+12 -4.66044e+12 -4.68697e+12 -3.66215e+12 -4.2256e+12 -5.17171e+12 -4.96823e+12 -4.84783e+12 -4.81628e+12 -4.76472e+12 -4.69094e+12 -4.54427e+12 -4.44806e+12 -4.83448e+12 -4.81737e+12 -5.15857e+12 -5.35153e+12 -6.00887e+12 -6.11474e+12 -6.22235e+12 -5.81101e+12 -6.27406e+12 -5.93242e+12 -5.84755e+12 -7.05316e+12 -6.65579e+12 -6.48982e+12 -7.35763e+12 -7.41617e+12 -7.22049e+12 -4.76653e+12 -4.81479e+12 -4.8686e+12 -4.80817e+12 -7.52132e+12 -7.3897e+12 -7.37559e+12 -7.48573e+12 -7.31463e+12 -6.65565e+12 -6.9801e+12 -6.78434e+12 -6.54422e+12 -6.57295e+12 -6.54143e+12 -6.30356e+12 -6.30099e+12 -6.61108e+12 -5.88335e+12 -5.45129e+12 -5.08047e+12 -4.49762e+12 -4.64913e+12 -4.39308e+12 -4.50283e+12 -4.59371e+12 -5.72769e+12 -4.95703e+12 -4.75161e+12 -4.68498e+12 -4.64404e+12 -4.55104e+12 -4.31299e+12 -4.95287e+12 -4.91887e+12 -4.89305e+12 -5.70404e+12 -5.9243e+12 -6.19943e+12 -6.1783e+12 -6.2034e+12 -6.66587e+12 -7.21327e+12 -6.58698e+12 -7.04256e+12 -7.43991e+12 -7.16016e+12 -7.13288e+12 -6.42551e+12 -7.44677e+12 -4.64227e+12 -4.68375e+12 -4.80701e+12 -7.40626e+12 -7.31299e+12 -7.35898e+12 -7.31523e+12 -7.42754e+12 -6.96094e+12 -6.84134e+12 -6.73207e+12 -6.96757e+12 -6.75579e+12 -6.60283e+12 -6.38118e+12 -6.18501e+12 -6.22675e+12 -6.25717e+12 -6.13275e+12 -5.40224e+12 -4.97181e+12 -4.16041e+12 -4.11159e+12 -4.88129e+12 -5.97347e+12 -5.30256e+12 -4.91161e+12 -5.18212e+12 -4.87271e+12 -4.82512e+12 -4.68794e+12 -4.65676e+12 -4.54625e+12 -4.46142e+12 -3.68609e+12 -4.74382e+12 -4.36584e+12 -5.31687e+12 -5.6268e+12 -6.04895e+12 -6.52793e+12 -4.97419e+12 -6.13508e+12 -6.67737e+12 -6.58751e+12 -6.81463e+12 -6.76291e+12 -6.81555e+12 -7.0026e+12 -6.909e+12 -6.62663e+12 -6.86599e+12 -7.3791e+12 -6.64016e+12 -3.69673e+12 -4.53079e+12 -7.26003e+12 -7.39865e+12 -7.22106e+12 -7.20027e+12 -7.19946e+12 -7.13498e+12 -6.91828e+12 -6.9919e+12 -6.60613e+12 -6.9433e+12 -6.62209e+12 -6.3574e+12 -5.97604e+12 -5.20375e+12 -5.86978e+12 -6.01204e+12 -5.89462e+12 -5.71167e+12 -5.29924e+12 -4.85056e+12 -4.40766e+12 -4.28897e+12 -4.73431e+12 -3.68506e+12 -4.91209e+12 -4.62915e+12 -4.65738e+12 -4.38994e+12 -3.56551e+12 -5.5998e+12 -5.33885e+12 -5.52813e+12 -3.05402e+12 -4.8254e+12 -5.08037e+12 -5.55822e+12 -5.99448e+12 -6.36954e+12 -6.82505e+12 -5.65241e+12 -6.26757e+12 -6.96989e+12 -6.61016e+12 -6.71103e+12 -6.82027e+12 -6.87308e+12 -6.88289e+12 -6.68637e+12 -6.51971e+12 -6.84751e+12 -6.74239e+12 -6.94515e+12 -7.11565e+12 -4.1651e+12 -4.60089e+12 -4.44784e+12 -4.5112e+12 -7.21084e+12 -7.23471e+12 -7.08223e+12 -6.89857e+12 -6.79004e+12 -7.01752e+12 -6.9223e+12 -6.79185e+12 -6.73087e+12 -6.85062e+12 -6.71209e+12 -6.65624e+12 -6.49991e+12 -6.45513e+12 -6.38877e+12 -6.19928e+12 -6.87067e+12 -6.30419e+12 -6.16879e+12 -5.90152e+12 -5.6141e+12 -4.47266e+12 -3.62838e+12 -3.16494e+12 -5.50081e+12 -2.89656e+12 -4.3714e+12 -4.79162e+12 -4.41389e+12 -4.51391e+12 -4.51012e+12 -4.70692e+12 -4.75729e+12 -5.21778e+12 -4.53565e+12 -4.56103e+12 -4.38767e+12 -4.07789e+12 -4.34394e+12 -5.29269e+12 -5.78414e+12 -6.18853e+12 -5.96315e+12 -6.49891e+12 -6.6439e+12 -6.52717e+12 -6.65016e+12 -6.72662e+12 -6.72318e+12 -6.24912e+12 -5.87453e+12 -6.52994e+12 -6.8869e+12 -7.18764e+12 -7.38851e+12 -4.65383e+12 -4.35185e+12 -6.84047e+12 -7.05505e+12 -7.03288e+12 -7.08722e+12 -6.08207e+12 -6.72135e+12 -6.63684e+12 -6.64533e+12 -6.53835e+12 -6.22631e+12 -6.23138e+12 -6.13879e+12 -6.37406e+12 -6.45381e+12 -6.414e+12 -6.62578e+12 -6.46721e+12 -6.0276e+12 -5.78785e+12 -5.47808e+12 -5.08855e+12 -4.75872e+12 -4.761e+12 -3.66462e+12 -4.45262e+12 -3.86445e+12 -4.93785e+12 -5.64669e+12 -3.48717e+12 -4.17711e+12 -4.03467e+12 -4.43037e+12 -4.18986e+12 -4.56906e+12 -6.0513e+12 -5.0738e+12 -5.03717e+12 -4.82638e+12 -5.18193e+12 -5.98822e+12 -5.95331e+12 -5.46921e+12 -5.9467e+12 -6.06748e+12 -6.2162e+12 -6.30654e+12 -6.42651e+12 -6.43254e+12 -6.5095e+12 -6.5187e+12 -6.44633e+12 -6.64516e+12 -7.0755e+12 -6.5457e+12 -6.77657e+12 -6.88401e+12 -6.88405e+12 -7.13117e+12 -7.24739e+12 -7.02925e+12 -4.63646e+12 -4.67061e+12 -4.07327e+12 -4.22985e+12 -6.59823e+12 -6.81113e+12 -7.03438e+12 -6.40626e+12 -6.53156e+12 -6.47316e+12 -6.44675e+12 -6.44714e+12 -6.69142e+12 -6.60663e+12 -5.06833e+12 -6.14701e+12 -6.33465e+12 -6.37082e+12 -6.20431e+12 -5.98064e+12 -5.65965e+12 -5.41637e+12 -5.15317e+12 -4.87747e+12 -4.41271e+12 -4.15855e+12 -4.44479e+12 -4.58605e+12 -4.45003e+12 -4.21691e+12 -4.0101e+12 -4.34654e+12 -4.97358e+12 -5.33179e+12 -4.86589e+12 -5.50295e+12 -5.92025e+12 -5.77946e+12 -5.6466e+12 -5.74326e+12 -5.8519e+12 -5.97903e+12 -5.97697e+12 -6.07467e+12 -6.1491e+12 -6.25244e+12 -6.30656e+12 -6.38062e+12 -6.43789e+12 -6.5008e+12 -6.97316e+12 -6.72928e+12 -6.72781e+12 -6.83632e+12 -6.95128e+12 -6.72676e+12 -4.49976e+12 -4.49482e+12 -3.50737e+12 -6.30654e+12 -6.33809e+12 -6.59193e+12 -6.57042e+12 -6.77767e+12 -6.58124e+12 -6.34769e+12 -6.16821e+12 -6.42387e+12 -6.35734e+12 -6.29722e+12 -6.44636e+12 -6.05186e+12 -5.89632e+12 -6.43736e+12 -5.97582e+12 -6.5647e+12 -6.51978e+12 -6.27254e+12 -5.77522e+12 -5.55792e+12 -5.3073e+12 -5.10458e+12 -4.91054e+12 -4.78483e+12 -4.72456e+12 -4.25151e+12 -4.47736e+12 -4.31888e+12 -4.69739e+12 -5.89259e+12 -2.71234e+12 -3.67363e+12 -3.24395e+12 -4.03502e+12 -4.62649e+12 -4.77824e+12 -4.811e+12 -4.82398e+12 -5.10742e+12 -5.42582e+12 -5.57315e+12 -5.62034e+12 -5.62197e+12 -5.6663e+12 -5.76395e+12 -5.84583e+12 -5.86721e+12 -5.93095e+12 -5.99591e+12 -6.06491e+12 -6.1198e+12 -6.19401e+12 -6.26618e+12 -6.40801e+12 -6.77564e+12 -6.64114e+12 -6.58836e+12 -6.68634e+12 -6.65223e+12 -6.677e+12 -6.30276e+12 -6.83333e+12 -7.12187e+12 -4.45658e+12 -4.28407e+12 -5.07166e+12 -5.80583e+12 -6.00028e+12 -6.34375e+12 -6.4941e+12 -6.42363e+12 -6.17296e+12 -6.36594e+12 -6.40263e+12 -6.33879e+12 -6.57063e+12 -4.95291e+12 -6.0474e+12 -5.71289e+12 -6.73369e+12 -6.15711e+12 -5.99743e+12 -5.37911e+12 -5.20313e+12 -5.02149e+12 -4.87136e+12 -4.7456e+12 -4.64149e+12 -4.46775e+12 -4.3179e+12 -3.69267e+12 -3.63957e+12 -4.72046e+12 -3.01938e+12 -3.76022e+12 -4.68755e+12 -4.60139e+12 -4.70479e+12 -4.88503e+12 -5.08093e+12 -5.54999e+12 -5.50194e+12 -5.51298e+12 -5.56829e+12 -5.63702e+12 -5.69547e+12 -5.72905e+12 -5.77599e+12 -5.8164e+12 -5.85407e+12 -5.88634e+12 -5.96934e+12 -6.08379e+12 -6.32192e+12 -6.51205e+12 -6.27333e+12 -6.40576e+12 -6.46881e+12 -6.5756e+12 -6.3891e+12 -6.42583e+12 -6.38223e+12 -5.4625e+12 -7.08651e+12 -6.90569e+12 -4.32194e+12 -4.1477e+12 -3.93844e+12 -4.31485e+12 -6.41218e+12 -5.80112e+12 -5.91204e+12 -6.07298e+12 -6.08603e+12 -6.32006e+12 -6.29058e+12 -6.22264e+12 -6.26408e+12 -6.19588e+12 -6.34947e+12 -6.5002e+12 -6.73119e+12 -7.13838e+12 -6.58689e+12 -5.26971e+12 -5.23379e+12 -4.1304e+12 -5.91172e+12 -5.78373e+12 -5.56261e+12 -4.9222e+12 -4.79989e+12 -4.68769e+12 -4.58055e+12 -4.45611e+12 -4.342e+12 -4.26735e+12 -4.30213e+12 -4.34563e+12 -4.55269e+12 -4.44965e+12 -4.8601e+12 -2.83394e+12 -2.57641e+12 -4.09356e+12 -4.39695e+12 -4.48814e+12 -4.65438e+12 -4.8074e+12 -5.22871e+12 -5.32615e+12 -5.33969e+12 -5.34917e+12 -5.38557e+12 -5.43622e+12 -5.49099e+12 -5.54065e+12 -5.57396e+12 -5.60562e+12 -5.61628e+12 -5.61502e+12 -5.59646e+12 -5.70682e+12 -5.89744e+12 -6.12315e+12 -6.0638e+12 -6.20869e+12 -6.31109e+12 -6.13908e+12 -6.12406e+12 -6.21496e+12 -6.89039e+12 -6.56084e+12 -6.66178e+12 -3.94923e+12 -3.65695e+12 -6.30365e+12 -5.93095e+12 -5.51544e+12 -5.84813e+12 -5.89739e+12 -5.87597e+12 -6.07735e+12 -6.04086e+12 -6.14022e+12 -6.1241e+12 -6.21412e+12 -6.45468e+12 -6.60126e+12 -6.75052e+12 -6.34694e+12 -5.66135e+12 -5.00343e+12 -5.11256e+12 -5.08506e+12 -5.02273e+12 -4.62627e+12 -4.52417e+12 -4.42031e+12 -4.32356e+12 -4.24687e+12 -4.22215e+12 -4.22123e+12 -4.31497e+12 -4.26399e+12 -4.36202e+12 -3.97439e+12 -3.59417e+12 -4.45332e+12 -2.92351e+12 -3.85252e+12 -4.20976e+12 -4.39155e+12 -4.93648e+12 -5.04644e+12 -5.11969e+12 -5.15897e+12 -5.19763e+12 -5.24181e+12 -5.28889e+12 -5.3412e+12 -5.38712e+12 -5.36427e+12 -5.21957e+12 -5.3558e+12 -5.71458e+12 -5.92278e+12 -5.84615e+12 -6.00484e+12 -6.10217e+12 -5.9782e+12 -5.72188e+12 -6.03297e+12 -6.26918e+12 -6.31092e+12 -6.43197e+12 -6.18547e+12 -3.71416e+12 -3.42645e+12 -5.74792e+12 -6.01255e+12 -5.84522e+12 -5.60657e+12 -5.63998e+12 -5.77399e+12 -5.67866e+12 -5.846e+12 -5.81423e+12 -5.99122e+12 -5.95322e+12 -5.93991e+12 -6.27208e+12 -6.2829e+12 -5.96597e+12 -5.6892e+12 -5.47024e+12 -5.17908e+12 -4.9985e+12 -4.9593e+12 -5.08554e+12 -5.01243e+12 -4.92478e+12 -4.83464e+12 -4.73461e+12 -4.37118e+12 -4.28407e+12 -4.20748e+12 -4.15753e+12 -4.13273e+12 -4.15666e+12 -4.15212e+12 -4.17943e+12 -4.05836e+12 -3.81304e+12 -3.73177e+12 -3.34351e+12 -3.59939e+12 -3.94224e+12 -4.15888e+12 -4.54776e+12 -4.67548e+12 -4.78463e+12 -4.8756e+12 -4.94374e+12 -4.99562e+12 -5.04469e+12 -5.092e+12 -5.41223e+12 -5.41828e+12 -5.39831e+12 -3.94058e+12 -4.81453e+12 -5.39871e+12 -5.66877e+12 -5.68337e+12 -5.81581e+12 -5.91512e+12 -5.70308e+12 -5.68892e+12 -5.9641e+12 -6.12664e+12 -5.94373e+12 -6.08304e+12 -5.92475e+12 -3.47663e+12 -3.25926e+12 -3.05176e+12 -3.22517e+12 -5.49926e+12 -5.63554e+12 -5.48485e+12 -5.6328e+12 -5.43179e+12 -5.50302e+12 -5.37089e+12 -5.61929e+12 -5.56297e+12 -5.77314e+12 -5.7385e+12 -5.70512e+12 -5.9573e+12 -5.9135e+12 -5.68375e+12 -5.50508e+12 -5.36076e+12 -5.11831e+12 -4.92112e+12 -4.95809e+12 -4.85516e+12 -4.87105e+12 -4.80066e+12 -4.72662e+12 -4.64684e+12 -4.55687e+12 -4.46273e+12 -4.09539e+12 -4.0536e+12 -4.0409e+12 -4.03144e+12 -4.03618e+12 -3.97567e+12 -3.86318e+12 -3.77824e+12 -3.57904e+12 -3.68663e+12 -3.57444e+12 -3.73381e+12 -3.93206e+12 -4.30777e+12 -4.43575e+12 -4.54524e+12 -4.63964e+12 -4.71934e+12 -4.78446e+12 -4.84054e+12 -4.89125e+12 -5.14022e+12 -5.19033e+12 -5.22786e+12 -5.24569e+12 -5.23273e+12 -5.14799e+12 -4.91804e+12 -5.5225e+12 -5.48716e+12 -5.49129e+12 -5.56654e+12 -5.48666e+12 -5.59864e+12 -5.46389e+12 -5.74743e+12 -5.63766e+12 -5.81032e+12 -5.73543e+12 -5.84771e+12 -5.60827e+12 -5.6695e+12 -3.05982e+12 -2.89867e+12 -5.27163e+12 -5.18691e+12 -5.4027e+12 -5.27484e+12 -5.31702e+12 -5.15239e+12 -5.3389e+12 -5.14511e+12 -5.28501e+12 -5.23132e+12 -5.51943e+12 -5.48717e+12 -5.45484e+12 -5.66329e+12 -5.60008e+12 -5.43493e+12 -5.29359e+12 -5.17672e+12 -5.02239e+12 -4.84662e+12 -4.78635e+12 -4.73245e+12 -4.6818e+12 -4.67029e+12 -4.61336e+12 -4.54805e+12 -4.47378e+12 -4.39332e+12 -4.31109e+12 -4.23115e+12 -4.15644e+12 -3.91263e+12 -3.88018e+12 -3.8222e+12 -3.75296e+12 -3.65149e+12 -3.59067e+12 -3.64095e+12 -3.64988e+12 -4.09034e+12 -4.21545e+12 -4.32367e+12 -4.41825e+12 -4.50106e+12 -4.57129e+12 -4.63311e+12 -4.93956e+12 -4.99325e+12 -5.04656e+12 -5.09257e+12 -5.1443e+12 -5.20704e+12 -5.27334e+12 -5.38065e+12 -6.33611e+12 -5.63939e+12 -5.4381e+12 -5.38269e+12 -5.40454e+12 -5.18808e+12 -5.25288e+12 -5.36314e+12 -5.11578e+12 -5.4145e+12 -5.46591e+12 -5.61381e+12 -5.40374e+12 -5.51968e+12 -5.36574e+12 -5.4166e+12 -5.15974e+12 -2.87382e+12 -2.74958e+12 -5.06301e+12 -4.98509e+12 -5.08362e+12 -4.95985e+12 -5.11024e+12 -4.91106e+12 -4.96052e+12 -4.65124e+12 -4.99127e+12 -4.90888e+12 -5.20248e+12 -5.18874e+12 -5.40203e+12 -5.32233e+12 -5.19886e+12 -5.08254e+12 -4.98133e+12 -4.87301e+12 -4.75206e+12 -4.65219e+12 -4.57936e+12 -4.53736e+12 -4.50234e+12 -4.48485e+12 -4.43692e+12 -4.37729e+12 -4.31048e+12 -4.23984e+12 -4.16696e+12 -4.09584e+12 -4.03163e+12 -3.9798e+12 -3.9466e+12 -3.92422e+12 -3.76393e+12 -3.89811e+12 -4.01818e+12 -4.12115e+12 -4.21198e+12 -4.68974e+12 -4.73798e+12 -4.78535e+12 -4.83917e+12 -4.88607e+12 -4.92342e+12 -4.96588e+12 -5.01535e+12 -5.07169e+12 -5.4937e+12 -5.64233e+12 -5.42082e+12 -5.27562e+12 -5.2002e+12 -4.90027e+12 -4.96793e+12 -5.01806e+12 -5.26876e+12 -5.04919e+12 -5.25265e+12 -5.23778e+12 -5.30785e+12 -5.08995e+12 -5.12259e+12 -4.89945e+12 -2.71298e+12 -2.56745e+12 -2.60316e+12 -4.64642e+12 -4.85851e+12 -4.78959e+12 -4.89972e+12 -4.81181e+12 -4.82639e+12 -4.72447e+12 -4.62289e+12 -3.98507e+12 -4.53209e+12 -4.54497e+12 -4.89194e+12 -4.9095e+12 -5.14039e+12 -5.06818e+12 -4.96776e+12 -4.86951e+12 -4.7815e+12 -4.69842e+12 -4.61233e+12 -4.52731e+12 -4.4461e+12 -4.39178e+12 -4.35735e+12 -4.32991e+12 -4.30846e+12 -4.26647e+12 -4.21359e+12 -4.15452e+12 -4.09088e+12 -4.02528e+12 -3.96262e+12 -3.90695e+12 -3.86294e+12 -3.82957e+12 -3.80571e+12 -3.77811e+12 -3.74176e+12 -3.69648e+12 -3.63249e+12 -3.57934e+12 -3.56382e+12 -3.60383e+12 -3.65276e+12 -3.74442e+12 -3.84487e+12 -3.93908e+12 -4.02312e+12 -4.29391e+12 -4.36593e+12 -4.42769e+12 -4.48624e+12 -4.54071e+12 -4.5851e+12 -4.62953e+12 -4.67961e+12 -4.72143e+12 -4.75076e+12 -4.76597e+12 -4.77562e+12 -4.79371e+12 -4.35157e+12 -5.53277e+12 -5.59519e+12 -5.29941e+12 -5.11581e+12 -4.97635e+12 -4.43972e+12 -4.59929e+12 -4.15738e+12 -4.7306e+12 -5.00133e+12 -5.12797e+12 -5.02859e+12 -5.06197e+12 -4.86793e+12 -4.88057e+12 -4.63179e+12 -2.41172e+12 -2.31068e+12 -2.4598e+12 -4.424e+12 -4.58513e+12 -4.52094e+12 -4.71741e+12 -4.65107e+12 -4.72146e+12 -4.66778e+12 -4.70388e+12 -5.19263e+12 -3.37378e+12 -3.75424e+12 -4.61577e+12 -4.60476e+12 -4.87596e+12 -4.81215e+12 -4.73204e+12 -4.65008e+12 -4.57348e+12 -4.50704e+12 -4.44483e+12 -4.38163e+12 -4.3148e+12 -4.25628e+12 -4.21486e+12 -4.1859e+12 -4.16242e+12 -4.13916e+12 -4.10172e+12 -4.05464e+12 -4.00132e+12 -3.9437e+12 -3.88555e+12 -3.8306e+12 -3.78211e+12 -3.74194e+12 -3.70982e+12 -3.68045e+12 -3.6499e+12 -3.6154e+12 -3.57226e+12 -3.53029e+12 -3.50548e+12 -3.51549e+12 -3.56055e+12 -3.61951e+12 -3.69538e+12 -3.77474e+12 -4.09926e+12 -4.16993e+12 -4.23217e+12 -4.28684e+12 -4.34148e+12 -4.39306e+12 -4.43527e+12 -4.47671e+12 -4.52177e+12 -4.56528e+12 -4.59923e+12 -4.61124e+12 -4.57409e+12 -3.94663e+12 -5.79287e+12 -5.09191e+12 -4.87535e+12 -4.63935e+12 -3.83225e+12 -3.09885e+12 -4.77965e+12 -4.89833e+12 -4.94255e+12 -4.88552e+12 -4.8693e+12 -4.64475e+12 -4.63517e+12 -4.36188e+12 -4.32553e+12 -2.22341e+12 -2.1515e+12 -4.19134e+12 -4.14113e+12 -4.36933e+12 -4.30472e+12 -4.46406e+12 -4.41536e+12 -4.5859e+12 -4.54586e+12 -4.56374e+12 -4.70083e+12 -4.95692e+12 -5.69026e+12 -5.13587e+12 -4.15695e+12 -4.29376e+12 -4.54426e+12 -4.47482e+12 -4.41456e+12 -4.35377e+12 -4.30184e+12 -3.84987e+12 -3.79861e+12 -3.74744e+12 -3.69909e+12 -3.65586e+12 -3.61909e+12 -3.58693e+12 -3.55721e+12 -3.52695e+12 -3.49408e+12 -3.46169e+12 -3.4379e+12 -3.43453e+12 -3.45877e+12 -3.5057e+12 -3.56214e+12 -3.85059e+12 -3.91964e+12 -3.98378e+12 -4.04451e+12 -4.09851e+12 -4.14774e+12 -4.19826e+12 -4.2467e+12 -4.28831e+12 -4.32995e+12 -4.3761e+12 -4.42874e+12 -4.47907e+12 -4.51287e+12 -4.39468e+12 -5.60651e+12 -5.6267e+12 -5.3403e+12 -4.76718e+12 -4.45788e+12 -5.49825e+12 -5.01937e+12 -4.88603e+12 -4.8797e+12 -4.81449e+12 -4.90555e+12 -4.70902e+12 -4.66807e+12 -4.45772e+12 -4.4069e+12 -4.03984e+12 -3.95513e+12 -3.47748e+12 -1.97766e+12 -1.98567e+12 -3.94617e+12 -3.89878e+12 -4.08052e+12 -4.01959e+12 -4.24969e+12 -4.20867e+12 -4.37681e+12 -4.37413e+12 -4.69187e+12 -4.89366e+12 -5.32097e+12 -5.16682e+12 -4.58181e+12 -4.20679e+12 -4.2755e+12 -4.19628e+12 -4.14792e+12 -4.1124e+12 -4.25837e+12 -4.21475e+12 -4.16665e+12 -4.11852e+12 -4.07623e+12 -4.04416e+12 -4.02012e+12 -3.99917e+12 -3.97508e+12 -3.94065e+12 -3.89802e+12 -3.49466e+12 -3.46437e+12 -3.43601e+12 -3.40819e+12 -3.38183e+12 -3.36075e+12 -3.35205e+12 -3.62552e+12 -3.69055e+12 -3.75284e+12 -3.81013e+12 -3.86456e+12 -3.91665e+12 -3.96422e+12 -4.00932e+12 -4.05621e+12 -4.10145e+12 -4.14285e+12 -4.7963e+12 -5.16062e+12 -5.14693e+12 -4.97454e+12 -4.416e+12 -4.63561e+12 -4.0088e+12 -5.21273e+12 -4.81433e+12 -4.90935e+12 -4.80706e+12 -4.84379e+12 -4.77173e+12 -4.60666e+12 -4.52197e+12 -4.22151e+12 -4.13679e+12 -3.81037e+12 -3.64541e+12 -2.81368e+12 -1.67547e+12 -1.26406e+12 -1.82509e+12 -3.43248e+12 -3.69236e+12 -3.64658e+12 -3.84243e+12 -3.7788e+12 -3.97689e+12 -3.94498e+12 -4.17884e+12 -4.1659e+12 -4.43642e+12 -4.55729e+12 -4.88123e+12 -4.73597e+12 -4.32198e+12 -4.03209e+12 -4.08049e+12 -4.05567e+12 -4.03139e+12 -4.00198e+12 -3.96864e+12 -3.93448e+12 -3.90382e+12 -3.8792e+12 -3.8587e+12 -3.83848e+12 -3.81413e+12 -3.78213e+12 -3.74377e+12 -3.70081e+12 -3.65539e+12 -3.61013e+12 -3.56724e+12 -3.52868e+12 -3.36217e+12 -3.39228e+12 -3.43671e+12 -3.487e+12 -3.54052e+12 -3.59472e+12 -3.64659e+12 -3.69492e+12 -3.74111e+12 -3.78583e+12 -3.8284e+12 -4.18395e+12 -4.23292e+12 -4.28612e+12 -4.32866e+12 -4.33045e+12 -4.55386e+12 -4.62937e+12 -4.77013e+12 -4.77325e+12 -4.67057e+12 -4.57752e+12 -3.97567e+12 -2.71798e+12 -4.94292e+12 -4.60998e+12 -4.78573e+12 -4.64947e+12 -4.60548e+12 -4.85028e+12 -4.72046e+12 -4.42494e+12 -4.31374e+12 -3.9402e+12 -3.40807e+12 -3.12427e+12 -2.16316e+12 -1.88116e+12 -2.48158e+12 -1.50246e+12 -1.66443e+12 -3.16681e+12 -3.38636e+12 -3.33893e+12 -3.59424e+12 -3.52768e+12 -3.72555e+12 -3.6787e+12 -3.93405e+12 -3.9473e+12 -4.19864e+12 -4.28676e+12 -4.61922e+12 -4.5149e+12 -4.45455e+12 -4.1718e+12 -3.65997e+12 -3.88241e+12 -3.8479e+12 -3.84583e+12 -3.84114e+12 -3.83751e+12 -3.83416e+12 -3.82357e+12 -3.80582e+12 -3.78379e+12 -3.76036e+12 -3.73805e+12 -3.71818e+12 -3.69941e+12 -3.67939e+12 -3.65562e+12 -3.6263e+12 -3.59202e+12 -3.55375e+12 -3.51338e+12 -3.47322e+12 -3.43526e+12 -3.40077e+12 -3.36996e+12 -3.34218e+12 -3.31665e+12 -3.29348e+12 -3.27453e+12 -3.26366e+12 -3.26545e+12 -3.28269e+12 -3.31399e+12 -3.35439e+12 -3.39831e+12 -3.44374e+12 -3.48915e+12 -3.53276e+12 -3.57385e+12 -3.87078e+12 -3.91397e+12 -3.95573e+12 -3.99547e+12 -4.0374e+12 -4.08626e+12 -4.13143e+12 -4.16299e+12 -4.29426e+12 -4.36188e+12 -4.39439e+12 -4.45679e+12 -4.43338e+12 -4.31618e+12 -4.22439e+12 -3.89984e+12 -5.20283e+12 -3.24156e+12 -5.78355e+12 -4.72817e+12 -4.05903e+12 -5.07453e+12 -4.79838e+12 -4.57448e+12 -4.19537e+12 -4.05867e+12 -3.72824e+12 -3.5888e+12 -2.88429e+12 -3.6504e+12 -3.1206e+12 -2.2596e+12 -1.34357e+12 -2.88922e+12 -3.11988e+12 -3.07666e+12 -3.2734e+12 -3.18838e+12 -3.45875e+12 -3.3895e+12 -3.64641e+12 -3.64679e+12 -4.00922e+12 -4.13746e+12 -4.39895e+12 -4.52592e+12 -4.75177e+12 -3.64735e+12 -3.92152e+12 -3.85988e+12 -3.44064e+12 -3.47196e+12 -3.5313e+12 -3.57502e+12 -3.60367e+12 -3.6247e+12 -3.63418e+12 -3.6326e+12 -3.62316e+12 -3.60915e+12 -3.59281e+12 -3.57573e+12 -3.55866e+12 -3.54101e+12 -3.52178e+12 -3.49953e+12 -3.47303e+12 -3.44228e+12 -3.40801e+12 -3.37212e+12 -3.33668e+12 -3.3032e+12 -3.27262e+12 -3.24508e+12 -3.22039e+12 -3.19856e+12 -3.18056e+12 -3.16858e+12 -3.1656e+12 -3.17401e+12 -3.19438e+12 -3.22459e+12 -3.26055e+12 -3.29859e+12 -3.33723e+12 -3.6134e+12 -3.65228e+12 -3.69083e+12 -3.7305e+12 -3.77015e+12 -3.80772e+12 -3.84401e+12 -3.88543e+12 -3.92947e+12 -3.972e+12 -4.05362e+12 -4.11331e+12 -4.14412e+12 -4.15754e+12 -4.17251e+12 -4.12852e+12 -3.95997e+12 -4.16746e+12 -4.37095e+12 -2.95506e+12 -5.70196e+12 -5.13222e+12 -4.6531e+12 -4.37961e+12 -4.02041e+12 -3.86469e+12 -3.34378e+12 -3.17753e+12 -2.94057e+12 -3.4921e+12 -2.78509e+12 -3.84905e+12 -3.22632e+12 -1.8974e+12 -1.18355e+12 -2.60128e+12 -2.56842e+12 -2.84788e+12 -2.80601e+12 -3.01684e+12 -2.92321e+12 -3.09532e+12 -3.32545e+12 -3.27372e+12 -3.66489e+12 -3.75599e+12 -4.3379e+12 -4.70171e+12 -5.06863e+12 -2.97948e+12 -4.46396e+12 -2.3423e+12 -2.92756e+12 -3.15657e+12 -3.28492e+12 -3.35948e+12 -3.40818e+12 -3.43716e+12 -3.45086e+12 -3.45384e+12 -3.44948e+12 -3.44075e+12 -3.42901e+12 -3.41523e+12 -3.40005e+12 -3.38377e+12 -3.36604e+12 -3.34567e+12 -3.32164e+12 -3.29385e+12 -3.26324e+12 -3.23159e+12 -3.20045e+12 -3.17106e+12 -3.14413e+12 -3.11993e+12 -3.09862e+12 -3.08076e+12 -3.06775e+12 -3.06161e+12 -3.06418e+12 -3.07632e+12 -3.09747e+12 -3.37552e+12 -3.41238e+12 -3.44746e+12 -3.48175e+12 -3.51582e+12 -3.55074e+12 -3.58676e+12 -3.62234e+12 -3.65485e+12 -3.68836e+12 -3.72682e+12 -3.76747e+12 -3.82352e+12 -3.87337e+12 -3.90753e+12 -3.93572e+12 -3.95497e+12 -3.96524e+12 -3.94223e+12 -3.80286e+12 -5.60598e+12 -3.53903e+12 -4.4909e+12 -4.59194e+12 -4.7367e+12 -4.4785e+12 -4.21739e+12 -3.60625e+12 -3.47757e+12 -3.01368e+12 -2.95842e+12 -2.92764e+12 -3.14547e+12 -2.95369e+12 -2.68379e+12 -1.59623e+12 -1.3353e+12 -1.02221e+12 -1.98036e+12 -2.29849e+12 -2.27237e+12 -2.54386e+12 -2.51889e+12 -2.75211e+12 -2.65833e+12 -2.79885e+12 -2.68107e+12 -2.99946e+12 -2.90527e+12 -3.28882e+12 -3.28481e+12 -3.93849e+12 -4.21052e+12 -4.48306e+12 -3.94173e+12 -4.2437e+12 -2.20651e+12 -2.79241e+12 -3.00894e+12 -3.12383e+12 -3.19487e+12 -3.23899e+12 -3.26496e+12 -3.27887e+12 -3.28328e+12 -3.28198e+12 -3.27667e+12 -3.26776e+12 -3.25602e+12 -3.24251e+12 -3.22799e+12 -3.21202e+12 -3.19349e+12 -3.17161e+12 -3.14653e+12 -3.1194e+12 -3.09164e+12 -3.0644e+12 -3.03865e+12 -3.01511e+12 -2.99419e+12 -2.9763e+12 -3.12541e+12 -3.15702e+12 -3.18983e+12 -3.22273e+12 -3.25506e+12 -3.28614e+12 -3.31625e+12 -3.34594e+12 -3.37588e+12 -3.40691e+12 -3.43876e+12 -3.46861e+12 -3.49605e+12 -3.52524e+12 -3.56095e+12 -3.60329e+12 -3.64221e+12 -3.67521e+12 -3.70351e+12 -3.73694e+12 -3.76819e+12 -3.79174e+12 -3.81824e+12 -3.61228e+12 -2.53188e+12 -3.62789e+12 -3.85045e+12 -3.72738e+12 -4.26153e+12 -3.99885e+12 -3.8972e+12 -3.74641e+12 -3.09663e+12 -2.6869e+12 -2.71493e+12 -2.5986e+12 -2.62112e+12 -2.37391e+12 -2.55865e+12 -2.2398e+12 -1.10538e+12 -671241000000.0 -854824000000.0 -1.65269e+12 -1.95399e+12 -2.25986e+12 -2.25413e+12 -2.50633e+12 -2.46152e+12 -2.23944e+12 -2.55801e+12 -2.40963e+12 -2.82137e+12 -2.87631e+12 -3.43025e+12 -3.66234e+12 -3.83296e+12 -4.377e+12 -3.22473e+12 -3.74423e+12 -3.73017e+12 -2.37444e+12 -2.78226e+12 -2.91697e+12 -2.99517e+12 -3.04632e+12 -3.07945e+12 -3.10105e+12 -2.96236e+12 -2.95383e+12 -2.95219e+12 -2.95832e+12 -2.97215e+12 -2.99264e+12 -3.01781e+12 -3.04532e+12 -3.07345e+12 -3.10138e+12 -3.12851e+12 -3.1547e+12 -3.18032e+12 -3.20567e+12 -3.23141e+12 -3.25817e+12 -3.28461e+12 -3.30831e+12 -2.87421e+12 -2.23149e+12 -3.02583e+12 -3.28641e+12 -3.77361e+12 -3.8414e+12 -3.39225e+12 -3.29288e+12 -3.18986e+12 -2.76798e+12 -2.71028e+12 -2.35812e+12 -2.46262e+12 -2.08369e+12 -2.16137e+12 -1.93984e+12 -2.12328e+12 -1.8662e+12 -902315000000.0 -481055000000.0 -1.31218e+12 -1.61705e+12 -1.94263e+12 -1.95184e+12 -2.26784e+12 -2.32129e+12 -2.54237e+12 -2.72782e+12 -2.07448e+12 -1.92898e+12 -2.28851e+12 -2.75872e+12 -2.76578e+12 -3.10953e+12 -3.27676e+12 -3.82332e+12 -3.64496e+12 -3.32859e+12 -3.3405e+12 -3.13514e+12 -2.61249e+12 -3.11279e+12 -3.11787e+12 -3.11878e+12 -3.11549e+12 -3.1082e+12 -3.09801e+12 -3.08639e+12 -3.07378e+12 -3.05947e+12 -3.04257e+12 -3.02266e+12 -3.00024e+12 -2.97639e+12 -2.9521e+12 -2.92825e+12 -2.90577e+12 -2.8854e+12 -2.86761e+12 -2.85303e+12 -2.8427e+12 -2.83786e+12 -2.8394e+12 -2.84752e+12 -2.86168e+12 -2.88068e+12 -2.90286e+12 -2.92647e+12 -2.95037e+12 -2.97386e+12 -2.99642e+12 -3.01818e+12 -3.03942e+12 -3.33024e+12 -3.35624e+12 -3.38849e+12 -3.41813e+12 -3.44444e+12 -3.46869e+12 -3.49398e+12 -3.52541e+12 -3.55376e+12 -3.57445e+12 -3.50059e+12 -2.89662e+12 -3.47525e+12 -2.01049e+12 -2.69395e+12 -3.12703e+12 -3.32171e+12 -3.36856e+12 -3.44536e+12 -2.93108e+12 -2.8434e+12 -2.3215e+12 -2.32042e+12 -1.94052e+12 -1.99993e+12 -1.63325e+12 -1.76368e+12 -1.46232e+12 -1.75336e+12 -1.50708e+12 -1.55069e+12 -1.22174e+12 -697712000000.0 -289304000000.0 -959152000000.0 -1.27377e+12 -1.22354e+12 -1.59006e+12 -1.60037e+12 -1.97814e+12 -2.04193e+12 -2.44584e+12 -2.64379e+12 -3.00695e+12 -3.25499e+12 -1.88857e+12 -2.19692e+12 -2.52478e+12 -2.78183e+12 -3.32519e+12 -3.30009e+12 -3.23956e+12 -3.03192e+12 -2.75905e+12 -2.82008e+12 -2.86464e+12 -2.89793e+12 -2.92295e+12 -2.93996e+12 -2.95027e+12 -2.95643e+12 -2.95855e+12 -2.95622e+12 -2.94999e+12 -2.94145e+12 -2.93178e+12 -2.92088e+12 -2.90807e+12 -2.89271e+12 -2.87475e+12 -2.85489e+12 -2.83396e+12 -2.81265e+12 -2.79179e+12 -2.77229e+12 -2.75484e+12 -2.73999e+12 -2.72845e+12 -2.72121e+12 -2.71916e+12 -2.7227e+12 -2.73162e+12 -2.74518e+12 -2.76222e+12 -2.78132e+12 -2.80125e+12 -3.06038e+12 -3.08159e+12 -3.10337e+12 -3.12381e+12 -3.14072e+12 -3.15703e+12 -3.17874e+12 -3.20194e+12 -3.2215e+12 -3.23891e+12 -3.25627e+12 -3.27988e+12 -3.3191e+12 -3.3638e+12 -3.43879e+12 -3.15561e+12 -3.4215e+12 -2.21967e+12 -2.66731e+12 -2.85844e+12 -2.92579e+12 -2.95515e+12 -2.97966e+12 -2.35974e+12 -1.80452e+12 -1.86258e+12 -1.54148e+12 -1.57667e+12 -1.0755e+12 -1.1994e+12 -1.45571e+12 -1.17261e+12 -868536000000.0 -504437000000.0 -312134000000.0 -95543900000.0 -605149000000.0 -571639000000.0 -924009000000.0 -867516000000.0 -1.18419e+12 -1.65069e+12 -1.71415e+12 -2.14952e+12 -2.28447e+12 -2.84629e+12 -3.00048e+12 -3.48781e+12 -3.61418e+12 -2.64929e+12 -2.22796e+12 -2.86336e+12 -2.90468e+12 -2.91947e+12 -2.94063e+12 -2.81223e+12 -2.63488e+12 -2.6663e+12 -2.69495e+12 -2.7224e+12 -2.74676e+12 -2.76649e+12 -2.78072e+12 -2.79093e+12 -2.79755e+12 -2.80001e+12 -2.79819e+12 -2.79319e+12 -2.78652e+12 -2.77864e+12 -2.76922e+12 -2.75771e+12 -2.74376e+12 -2.72773e+12 -2.71024e+12 -2.69182e+12 -2.67309e+12 -2.65491e+12 -2.63811e+12 -2.62332e+12 -2.61111e+12 -2.60222e+12 -2.59743e+12 -2.59726e+12 -2.60179e+12 -2.61063e+12 -2.82123e+12 -2.84058e+12 -2.85893e+12 -2.87641e+12 -2.89326e+12 -2.90954e+12 -2.92583e+12 -2.94206e+12 -2.95609e+12 -2.9665e+12 -2.9773e+12 -2.99172e+12 -3.00543e+12 -3.01553e+12 -3.02539e+12 -3.03705e+12 -3.06214e+12 -3.09199e+12 -3.16518e+12 -2.9235e+12 -2.41043e+12 -2.55395e+12 -2.60026e+12 -2.59083e+12 -2.57944e+12 -2.56003e+12 -2.48047e+12 -1.29192e+12 -1.4979e+12 -998295000000.0 -1.00605e+12 -1.80103e+12 -1.59788e+12 -1.14781e+12 -838665000000.0 -565671000000.0 -104380000000.0 -250740000000.0 -220840000000.0 -518628000000.0 -774515000000.0 -1.24457e+12 -1.38335e+12 -1.81555e+12 -1.95787e+12 -2.42163e+12 -2.51997e+12 -3.04562e+12 -2.92418e+12 -3.16809e+12 -2.74975e+12 -2.4132e+12 -2.50703e+12 -2.85276e+12 -2.73103e+12 -2.67198e+12 -2.60609e+12 -2.52759e+12 -2.53472e+12 -2.55264e+12 -2.57345e+12 -2.59352e+12 -2.61029e+12 -2.62352e+12 -2.63364e+12 -2.64023e+12 -2.64279e+12 -2.64166e+12 -2.63815e+12 -2.63314e+12 -2.62671e+12 -2.61852e+12 -2.60815e+12 -2.59562e+12 -2.58143e+12 -2.566e+12 -2.54972e+12 -2.53329e+12 -2.51755e+12 -2.62298e+12 -2.63775e+12 -2.65378e+12 -2.67021e+12 -2.68642e+12 -2.70179e+12 -2.71603e+12 -2.72933e+12 -2.74168e+12 -2.75312e+12 -2.76414e+12 -2.77445e+12 -2.78204e+12 -2.78655e+12 -2.79194e+12 -2.79978e+12 -2.80424e+12 -2.80638e+12 -2.81212e+12 -2.83028e+12 -2.86452e+12 -2.86999e+12 -2.8335e+12 -2.88827e+12 -3.05757e+12 -3.04187e+12 -2.32969e+12 -2.33407e+12 -2.27851e+12 -2.23392e+12 -2.18118e+12 -1.94848e+12 -1.60054e+12 -1.19834e+12 -1.05865e+12 -1.98086e+12 -1.91422e+12 -1.17625e+12 -1.13977e+12 -803339000000.0 -790300000000.0 -503461000000.0 -395218000000.0 -182611000000.0 -185094000000.0 -433616000000.0 -191416000000.0 -674915000000.0 -944801000000.0 -1.42882e+12 -1.55622e+12 -2.08628e+12 -2.14915e+12 -2.52005e+12 -2.30229e+12 -2.61667e+12 -2.51341e+12 -2.71792e+12 -1.83482e+12 -2.08585e+12 -2.5663e+12 -2.57047e+12 -2.53589e+12 -2.48626e+12 -2.45619e+12 -2.41875e+12 -2.38466e+12 -2.38886e+12 -2.4037e+12 -2.42205e+12 -2.43995e+12 -2.45526e+12 -2.46789e+12 -2.47772e+12 -2.48417e+12 -2.48696e+12 -2.48677e+12 -2.50315e+12 -2.49066e+12 -2.48072e+12 -2.47396e+12 -2.47092e+12 -2.47184e+12 -2.47659e+12 -2.48468e+12 -2.49538e+12 -2.50771e+12 -2.52071e+12 -2.53373e+12 -2.54623e+12 -2.55767e+12 -2.56787e+12 -2.57699e+12 -2.58483e+12 -2.59138e+12 -2.59709e+12 -2.60152e+12 -2.60332e+12 -2.60316e+12 -2.60403e+12 -2.6037e+12 -2.59883e+12 -2.59486e+12 -2.58859e+12 -2.59801e+12 -2.60226e+12 -2.57738e+12 -2.62697e+12 -2.68815e+12 -2.72422e+12 -2.63572e+12 -2.24159e+12 -2.03983e+12 -1.98573e+12 -1.95569e+12 -1.9287e+12 -1.56785e+12 -1.20704e+12 -2.08163e+12 -2.04255e+12 -1.3594e+12 -1.25471e+12 -603294000000.0 -232560000000.0 -151645000000.0 -126157000000.0 -1.15929e+12 -954353000000.0 -1.82373e+12 -1.91857e+12 -2.10603e+12 -1.93889e+12 -2.07849e+12 -2.06108e+12 -2.63613e+12 -2.20037e+12 -2.25825e+12 -2.28167e+12 -2.2843e+12 -2.27148e+12 -2.25791e+12 -2.2412e+12 -2.23015e+12 -2.23757e+12 -2.25255e+12 -2.48464e+12 -2.48103e+12 -2.47583e+12 -2.46865e+12 -2.45931e+12 -2.44817e+12 -2.43563e+12 -2.42194e+12 -2.40756e+12 -2.39324e+12 -2.37963e+12 -2.36727e+12 -2.35672e+12 -2.3486e+12 -2.34341e+12 -2.34145e+12 -2.34275e+12 -2.34707e+12 -2.35395e+12 -2.36269e+12 -2.37244e+12 -2.3824e+12 -2.39205e+12 -2.4009e+12 -2.40847e+12 -2.4147e+12 -2.41967e+12 -2.42308e+12 -2.28167e+12 -2.3021e+12 -2.39826e+12 -2.41622e+12 -2.37588e+12 -2.29976e+12 -2.03344e+12 -2.05773e+12 -1.71356e+12 -1.68489e+12 -1.25083e+12 -1.89343e+12 -2.14696e+12 -1.56182e+12 -1.47038e+12 -573164000000.0 -577567000000.0 -127313000000.0 -194844000000.0 -406051000000.0 -1.35317e+12 -1.84389e+12 -1.8262e+12 -1.71428e+12 -1.23785e+12 -1.15113e+12 -2.26065e+12 -2.42028e+12 -1.57854e+12 -1.82683e+12 -1.93322e+12 -1.99971e+12 -2.04378e+12 -2.06601e+12 -2.0713e+12 -2.27007e+12 -2.28664e+12 -2.30104e+12 -2.3133e+12 -2.32299e+12 -2.32947e+12 -2.33267e+12 -2.33343e+12 -2.33251e+12 -2.33004e+12 -2.32576e+12 -2.3194e+12 -2.3111e+12 -2.30128e+12 -2.29014e+12 -2.27795e+12 -2.26532e+12 -2.25286e+12 -2.24103e+12 -2.23034e+12 -2.22134e+12 -2.21456e+12 -2.21036e+12 -2.20883e+12 -2.2099e+12 -2.21331e+12 -2.21861e+12 -2.22516e+12 -2.23221e+12 -2.42491e+12 -2.42551e+12 -2.42465e+12 -2.42183e+12 -2.41785e+12 -2.41146e+12 -2.39844e+12 -2.38512e+12 -2.37068e+12 -2.34348e+12 -2.32343e+12 -2.13276e+12 -2.13714e+12 -2.12037e+12 -2.10732e+12 -2.03129e+12 -1.77708e+12 -1.79666e+12 -1.74593e+12 -1.43173e+12 -1.24549e+12 -1.5231e+12 -1.61532e+12 -903191000000.0 -795766000000.0 -121479000000.0 -340882000000.0 -780025000000.0 -1.56517e+12 -1.33036e+12 -1.23831e+12 -1.63789e+12 -762546000000.0 -1.7989e+12 -2.01696e+12 -1.38843e+12 -1.60391e+12 -1.70845e+12 -1.78378e+12 -2.07204e+12 -2.07057e+12 -2.07297e+12 -2.08443e+12 -2.10064e+12 -2.11783e+12 -2.13356e+12 -2.1476e+12 -2.15985e+12 -2.1696e+12 -2.17614e+12 -2.17977e+12 -2.18142e+12 -2.18152e+12 -2.17993e+12 -2.17635e+12 -2.17076e+12 -2.1635e+12 -2.15479e+12 -2.14483e+12 -2.13406e+12 -2.12301e+12 -2.11208e+12 -2.10166e+12 -2.09224e+12 -2.08435e+12 -2.0784e+12 -2.07458e+12 -2.23912e+12 -2.24544e+12 -2.25069e+12 -2.2545e+12 -2.25689e+12 -2.25784e+12 -2.25703e+12 -2.25443e+12 -2.2504e+12 -2.24498e+12 -2.23808e+12 -2.22854e+12 -2.21203e+12 -2.18856e+12 -2.16273e+12 -2.12275e+12 -2.06385e+12 -1.9863e+12 -1.87332e+12 -1.81133e+12 -1.7665e+12 -1.76922e+12 -1.48396e+12 -1.50398e+12 -1.5001e+12 -1.48358e+12 -1.22114e+12 -804824000000.0 -1.0411e+12 -1.04187e+12 -139153000000.0 -109849000000.0 -1.35409e+12 -1.39115e+12 -1.56862e+12 -1.54906e+12 -2.16289e+12 -1.23337e+12 -1.83626e+12 -1.86666e+12 -1.88416e+12 -1.89602e+12 -1.90529e+12 -1.91612e+12 -1.93117e+12 -1.9485e+12 -1.96537e+12 -1.98089e+12 -1.99515e+12 -2.00764e+12 -2.01734e+12 -2.02389e+12 -2.02809e+12 -2.03062e+12 -2.03153e+12 -2.03055e+12 -2.02754e+12 -2.02271e+12 -2.01634e+12 -2.00859e+12 -1.99977e+12 -2.07293e+12 -2.0733e+12 -2.07541e+12 -2.07885e+12 -2.08302e+12 -2.08728e+12 -2.09111e+12 -2.09413e+12 -2.0959e+12 -2.09614e+12 -2.09489e+12 -2.09208e+12 -2.08739e+12 -2.0808e+12 -2.07261e+12 -2.06298e+12 -2.05132e+12 -2.03442e+12 -2.00781e+12 -1.97245e+12 -1.92737e+12 -1.85799e+12 -1.75738e+12 -1.58601e+12 -2.08125e+12 -1.94683e+12 -1.85681e+12 -1.51794e+12 -1.48094e+12 -1.24686e+12 -1.28172e+12 -1.29607e+12 -1.28105e+12 -731832000000.0 -686439000000.0 -358052000000.0 -246243000000.0 -997345000000.0 -1.09251e+12 -1.80873e+12 -1.20873e+12 -933335000000.0 -1.67381e+12 -1.82438e+12 -1.92008e+12 -1.41624e+12 -1.51646e+12 -1.59243e+12 -1.64654e+12 -1.68308e+12 -1.70874e+12 -1.72833e+12 -1.74442e+12 -1.76023e+12 -1.77801e+12 -1.79607e+12 -1.81301e+12 -1.82895e+12 -1.84369e+12 -1.85626e+12 -1.8658e+12 -1.87263e+12 -1.87757e+12 -1.99033e+12 -1.98059e+12 -1.97082e+12 -1.96141e+12 -1.95286e+12 -1.9456e+12 -1.93993e+12 -1.93597e+12 -1.93371e+12 -1.93298e+12 -1.93349e+12 -1.93484e+12 -1.93648e+12 -1.93788e+12 -1.93865e+12 -1.93843e+12 -1.93687e+12 -1.93376e+12 -1.92915e+12 -1.9229e+12 -1.91473e+12 -1.90456e+12 -1.89258e+12 -1.87882e+12 -1.86171e+12 -1.83659e+12 -1.79987e+12 -1.75152e+12 -1.68392e+12 -1.58663e+12 -1.42007e+12 -2.02385e+12 -1.83102e+12 -1.65495e+12 -1.48963e+12 -1.39875e+12 -1.2033e+12 -1.0553e+12 -1.1069e+12 -1.11235e+12 -1.10405e+12 -1.09681e+12 -449663000000.0 -106520000000.0 -269505000000.0 -640118000000.0 -1.17049e+12 -1.98792e+12 -1.58662e+12 -1.24875e+12 -1.43664e+12 -1.58577e+12 -1.65773e+12 -1.09174e+12 -1.25052e+12 -1.34405e+12 -1.41746e+12 -1.47181e+12 -1.51139e+12 -1.54228e+12 -1.56666e+12 -1.58634e+12 -1.60546e+12 -1.6249e+12 -1.88084e+12 -1.8823e+12 -1.88174e+12 -1.87926e+12 -1.87513e+12 -1.86954e+12 -1.86275e+12 -1.85509e+12 -1.8468e+12 -1.83804e+12 -1.82904e+12 -1.82024e+12 -1.81207e+12 -1.8049e+12 -1.79899e+12 -1.79444e+12 -1.79119e+12 -1.78904e+12 -1.78768e+12 -1.78674e+12 -1.78574e+12 -1.78427e+12 -1.782e+12 -1.77866e+12 -1.77396e+12 -1.76777e+12 -1.88566e+12 -1.71864e+12 -1.51753e+12 -1.29035e+12 -939681000000.0 -1.33702e+12 -1.25302e+12 -929805000000.0 -950778000000.0 -998626000000.0 -1.00683e+12 -170654000000.0 -714442000000.0 -1.21132e+12 -993366000000.0 -1.0579e+12 -1.10174e+12 -1.23501e+12 -962364000000.0 -1.09817e+12 -1.18717e+12 -1.25677e+12 -1.30842e+12 -1.64338e+12 -1.66096e+12 -1.67771e+12 -1.69283e+12 -1.70531e+12 -1.71497e+12 -1.72241e+12 -1.72804e+12 -1.73187e+12 -1.73364e+12 -1.7334e+12 -1.73141e+12 -1.72791e+12 -1.72318e+12 -1.71749e+12 -1.71093e+12 -1.70351e+12 -1.69534e+12 -1.68669e+12 -1.67798e+12 -1.66964e+12 -1.66206e+12 -1.65548e+12 -1.64998e+12 -1.64542e+12 -1.64155e+12 -1.76009e+12 -1.75075e+12 -1.73947e+12 -1.72611e+12 -1.71068e+12 -1.6927e+12 -1.66963e+12 -1.63682e+12 -1.59158e+12 -1.53006e+12 -1.44453e+12 -1.29465e+12 -1.7085e+12 -1.58125e+12 -1.4065e+12 -1.20077e+12 -933108000000.0 -1.24044e+12 -1.01798e+12 -908657000000.0 -853183000000.0 -884600000000.0 -793507000000.0 -795903000000.0 -974642000000.0 -789785000000.0 -448206000000.0 -559698000000.0 -926797000000.0 -1.34854e+12 -1.4035e+12 -841751000000.0 -1.3496e+12 -1.38286e+12 -1.40814e+12 -1.42986e+12 -1.45116e+12 -1.47143e+12 -1.49075e+12 -1.50958e+12 -1.52719e+12 -1.54254e+12 -1.55518e+12 -1.5653e+12 -1.57338e+12 -1.5795e+12 -1.58344e+12 -1.5853e+12 -1.58532e+12 -1.58383e+12 -1.58115e+12 -1.57757e+12 -1.57308e+12 -1.56745e+12 -1.56056e+12 -1.55251e+12 -1.54361e+12 -1.6381e+12 -1.63471e+12 -1.631e+12 -1.62666e+12 -1.62144e+12 -1.61513e+12 -1.60752e+12 -1.59853e+12 -1.58808e+12 -1.57598e+12 -1.56197e+12 -1.54586e+12 -1.52739e+12 -1.50551e+12 -1.47719e+12 -1.43867e+12 -1.38728e+12 -1.31821e+12 -1.1919e+12 -1.21099e+12 -703609000000.0 -613828000000.0 -527287000000.0 -479133000000.0 -697100000000.0 -822525000000.0 -702349000000.0 -358739000000.0 -103912000000.0 -346161000000.0 -544147000000.0 -490829000000.0 -686836000000.0 -860478000000.0 -1.00176e+12 -1.12124e+12 -1.17398e+12 -962381000000.0 -1.04354e+12 -1.10509e+12 -1.15432e+12 -1.19501e+12 -1.22594e+12 -1.25084e+12 -1.27429e+12 -1.29666e+12 -1.31808e+12 -1.339e+12 -1.3592e+12 -1.3777e+12 -1.39354e+12 -1.40656e+12 -1.41736e+12 -1.42573e+12 -1.43164e+12 -1.43522e+12 -1.43697e+12 -1.43728e+12 -1.53435e+12 -1.52529e+12 -1.51689e+12 -1.50935e+12 -1.50261e+12 -1.49645e+12 -1.49062e+12 -1.48486e+12 -1.47889e+12 -1.47244e+12 -1.46527e+12 -1.45721e+12 -1.44811e+12 -1.43783e+12 -1.4263e+12 -1.4134e+12 -1.39891e+12 -1.38265e+12 -1.36439e+12 -1.3436e+12 -1.31891e+12 -1.28755e+12 -1.24678e+12 -1.19448e+12 -1.09608e+12 -1.50487e+12 -1.41982e+12 -1.27884e+12 -1.10428e+12 -867405000000.0 -478853000000.0 -399429000000.0 -217993000000.0 -350468000000.0 -591622000000.0 -771812000000.0 -552627000000.0 -246010000000.0 -116077000000.0 -249593000000.0 -663651000000.0 -541416000000.0 -651831000000.0 -735363000000.0 -833418000000.0 -934864000000.0 -964000000000.0 -734869000000.0 -838788000000.0 -907370000000.0 -961671000000.0 -1.00671e+12 -1.04124e+12 -1.06859e+12 -1.09413e+12 -1.11887e+12 -1.14251e+12 -1.16575e+12 -1.18842e+12 -1.20989e+12 -1.2293e+12 -1.24607e+12 -1.43654e+12 -1.43515e+12 -1.43314e+12 -1.4299e+12 -1.42493e+12 -1.41804e+12 -1.40937e+12 -1.39939e+12 -1.38892e+12 -1.37875e+12 -1.36933e+12 -1.36061e+12 -1.35236e+12 -1.34434e+12 -1.33631e+12 -1.32807e+12 -1.31943e+12 -1.3102e+12 -1.30025e+12 -1.28947e+12 -1.27776e+12 -1.26504e+12 -1.25125e+12 -1.23625e+12 -1.21988e+12 -1.20204e+12 -1.18253e+12 -1.16073e+12 -1.13529e+12 -1.10422e+12 -1.06599e+12 -992711000000.0 -1.29012e+12 -1.24228e+12 -1.13735e+12 -999659000000.0 -803024000000.0 -1.07417e+12 -794248000000.0 -288351000000.0 -159285000000.0 -298051000000.0 -585397000000.0 -801032000000.0 -630289000000.0 -636075000000.0 -516131000000.0 -544973000000.0 -588866000000.0 -701542000000.0 -634876000000.0 -720041000000.0 -777094000000.0 -822834000000.0 -856944000000.0 -883776000000.0 -910440000000.0 -1.26032e+12 -1.27138e+12 -1.27921e+12 -1.28402e+12 -1.28673e+12 -1.28827e+12 -1.2891e+12 -1.28978e+12 -1.29052e+12 -1.29058e+12 -1.28859e+12 -1.28376e+12 -1.27587e+12 -1.26533e+12 -1.25331e+12 -1.24121e+12 -1.22997e+12 -1.21942e+12 -1.20928e+12 -1.19926e+12 -1.18911e+12 -1.17867e+12 -1.1678e+12 -1.1564e+12 -1.07664e+12 -1.05643e+12 -984179000000.0 -884724000000.0 -734622000000.0 -923896000000.0 -721997000000.0 -559614000000.0 -371612000000.0 -70206400000.0 -256955000000.0 -689944000000.0 -493660000000.0 -119316000000.0 -65868500000.0 -331376000000.0 -505453000000.0 -554949000000.0 -748150000000.0 -774614000000.0 -538033000000.0 -937702000000.0 -964165000000.0 -989787000000.0 -1.01465e+12 -1.03855e+12 -1.06118e+12 -1.08268e+12 -1.10167e+12 -1.1168e+12 -1.12712e+12 -1.13311e+12 -1.13586e+12 -1.13732e+12 -1.13874e+12 -1.14076e+12 -1.14418e+12 -1.14826e+12 -1.15117e+12 -1.15014e+12 -1.14411e+12 -1.13318e+12 -1.11913e+12 -1.10443e+12 -1.14438e+12 -1.1317e+12 -1.11831e+12 -1.10416e+12 -1.08925e+12 -1.07351e+12 -1.05687e+12 -1.03926e+12 -1.02075e+12 -1.00135e+12 -980493000000.0 -957219000000.0 -930545000000.0 -877358000000.0 -652574000000.0 -762364000000.0 -597638000000.0 -502777000000.0 -424594000000.0 -275229000000.0 -256170000000.0 -100363000000.0 -39079100000.0 -227229000000.0 -401993000000.0 -415463000000.0 -418463000000.0 -482486000000.0 -501739000000.0 -571350000000.0 -602412000000.0 -606608000000.0 -649906000000.0 -677501000000.0 -698713000000.0 -722176000000.0 -752059000000.0 -782211000000.0 -811234000000.0 -838826000000.0 -863239000000.0 -888621000000.0 -915177000000.0 -940403000000.0 -961742000000.0 -975706000000.0 -983763000000.0 -986275000000.0 -986016000000.0 -986046000000.0 -987905000000.0 -992691000000.0 -1.00082e+12 -1.09127e+12 -1.07905e+12 -1.06723e+12 -1.05541e+12 -1.04332e+12 -1.03078e+12 -1.01769e+12 -1.00403e+12 -989787000000.0 -974974000000.0 -959611000000.0 -943718000000.0 -927334000000.0 -910500000000.0 -893217000000.0 -875484000000.0 -857433000000.0 -839417000000.0 -821971000000.0 -804542000000.0 -786698000000.0 -749557000000.0 -869159000000.0 -867238000000.0 -821285000000.0 -755213000000.0 -593849000000.0 -499140000000.0 -388112000000.0 -372292000000.0 -305501000000.0 -235788000000.0 -167495000000.0 -108917000000.0 -421395000000.0 -241745000000.0 -47071800000.0 -396444000000.0 -298499000000.0 -322901000000.0 -311801000000.0 -361782000000.0 -410539000000.0 -451257000000.0 -451356000000.0 -498689000000.0 -509113000000.0 -516294000000.0 -531522000000.0 -556107000000.0 -595266000000.0 -630210000000.0 -662504000000.0 -685533000000.0 -710081000000.0 -739814000000.0 -774105000000.0 -805905000000.0 -825010000000.0 -836263000000.0 -1.01025e+12 -1.01735e+12 -1.01575e+12 -1.00483e+12 -987691000000.0 -968540000000.0 -953170000000.0 -939409000000.0 -926162000000.0 -912810000000.0 -898990000000.0 -884499000000.0 -869264000000.0 -853301000000.0 -836679000000.0 -819496000000.0 -801860000000.0 -783870000000.0 -765622000000.0 -747231000000.0 -728808000000.0 -710437000000.0 -692248000000.0 -674604000000.0 -658350000000.0 -645277000000.0 -634080000000.0 -609771000000.0 -669322000000.0 -677252000000.0 -650166000000.0 -609462000000.0 -544176000000.0 -233830000000.0 -149286000000.0 -138921000000.0 -98942200000.0 -247379000000.0 -133474000000.0 -235784000000.0 -232320000000.0 -199240000000.0 -162836000000.0 -184529000000.0 -204050000000.0 -401187000000.0 -362644000000.0 -338106000000.0 -340583000000.0 -355117000000.0 -384302000000.0 -448390000000.0 -840040000000.0 -836911000000.0 -832658000000.0 -831503000000.0 -836152000000.0 -845149000000.0 -861744000000.0 -880639000000.0 -893849000000.0 -884309000000.0 -862099000000.0 -833413000000.0 -815281000000.0 -800192000000.0 -785913000000.0 -771414000000.0 -756174000000.0 -739946000000.0 -722667000000.0 -704402000000.0 -685293000000.0 -665523000000.0 -645300000000.0 -624825000000.0 -477604000000.0 -488092000000.0 -472807000000.0 -448969000000.0 -411745000000.0 -423011000000.0 -369648000000.0 -299458000000.0 -254662000000.0 -260706000000.0 -100381000000.0 -64534400000.0 -178749000000.0 -39076100000.0 -33406000000.0 -75676100000.0 -80467200000.0 -242280000000.0 -330070000000.0 -219333000000.0 -491822000000.0 -507149000000.0 -528258000000.0 -552909000000.0 -594531000000.0 -648584000000.0 -676340000000.0 -691841000000.0 -695921000000.0 -694281000000.0 -681417000000.0 -671622000000.0 -675164000000.0 -682814000000.0 -697514000000.0 -732655000000.0 -769938000000.0 -784053000000.0 -751317000000.0 -697847000000.0 -676458000000.0 -660594000000.0 -646020000000.0 -604281000000.0 -583852000000.0 -563731000000.0 -544104000000.0 -525136000000.0 -507079000000.0 -490533000000.0 -477094000000.0 -472040000000.0 -459474000000.0 -294287000000.0 -301453000000.0 -290729000000.0 -277157000000.0 -256763000000.0 -253051000000.0 -225535000000.0 -189350000000.0 -165180000000.0 -143397000000.0 -180713000000.0 -130385000000.0 -166537000000.0 -112458000000.0 -51698300000.0 -52398200000.0 -58915200000.0 -68176700000.0 -81162100000.0 -130195000000.0 -145721000000.0 -146118000000.0 -150566000000.0 -166718000000.0 -199627000000.0 -360579000000.0 -332735000000.0 -344459000000.0 -361564000000.0 -387313000000.0 -478903000000.0 -524150000000.0 -557701000000.0 -556293000000.0 -553782000000.0 -545565000000.0 -505188000000.0 -508408000000.0 -515862000000.0 -523138000000.0 -548111000000.0 -638984000000.0 -631036000000.0 -614881000000.0 -597254000000.0 -578112000000.0 -557584000000.0 -535902000000.0 -513347000000.0 -490229000000.0 -466863000000.0 -443547000000.0 -420556000000.0 -398165000000.0 -376645000000.0 -356231000000.0 -337101000000.0 -319470000000.0 -303972000000.0 -293248000000.0 -298412000000.0 -84086200000.0 -77339400000.0 -67234000000.0 -59990000000.0 -54675800000.0 -50331900000.0 -87141300000.0 -126366000000.0 -137731000000.0 -134640000000.0 -86851300000.0 -107555000000.0 -148753000000.0 -162868000000.0 -156092000000.0 -112403000000.0 -102799000000.0 -158734000000.0 -679479000000.0 -705524000000.0 -555078000000.0 -532809000000.0 -518448000000.0 -505392000000.0 -491224000000.0 -475040000000.0 -456570000000.0 -435866000000.0 -413172000000.0 -388848000000.0 -363309000000.0 -336987000000.0 -310317000000.0 -283719000000.0 -257592000000.0 -232317000000.0 -208264000000.0 -185765000000.0 -165018000000.0 -145940000000.0 -127939000000.0 -109693000000.0 -89816600000.0 -121789000000.0 -121081000000.0 -106837000000.0 -95805800000.0 -89607700000.0 -62470500000.0 -217223000000.0 -276193000000.0 -320764000000.0 -342999000000.0 -343579000000.0 -317378000000.0 -258371000000.0 -180060000000.0 -106383000000.0 
SCALARS Shear_Stress float 1
LOOKUP_TABLE default
45200300000.0 53273500000.0 36621700000.0 20963600000.0 22379000000.0 49420200000.0 62814600000.0 10159900000.0 3651980000.0 34301200000.0 42482200000.0 6905210000.0 13607600000.0 1483420000.0 16335500000.0 69657900000.0 5164060000.0 21942700000.0 20253700000.0 57736800000.0 60040300000.0 44829100000.0 129021000000.0 48821000000.0 58115900000.0 148834000000.0 115126000000.0 102492000000.0 38824900000.0 4069300000.0 78942800000.0 3352070000.0 3386990000.0 53008100000.0 11288600000.0 70814600000.0 99122100000.0 24994600000.0 50641800000.0 128106000000.0 112157000000.0 57739400000.0 125986000000.0 147556000000.0 175222000000.0 90387000000.0 134437000000.0 82554800000.0 62874100000.0 24506200000.0 65313100000.0 124476000000.0 122768000000.0 114787000000.0 156251000000.0 187534000000.0 164079000000.0 105559000000.0 159429000000.0 168980000000.0 217630000000.0 144060000000.0 6129970000.0 92315100000.0 78850100000.0 139685000000.0 132819000000.0 207928000000.0 197277000000.0 298402000000.0 291072000000.0 339690000000.0 257376000000.0 311980000000.0 224261000000.0 252052000000.0 221452000000.0 249685000000.0 207034000000.0 244528000000.0 652586000.0 122264000000.0 26041000000.0 225311000000.0 130996000000.0 139235000000.0 241693000000.0 11932700000.0 10733600000.0 103680000000.0 154386000000.0 206532000000.0 298272000000.0 303537000000.0 341962000000.0 309914000000.0 252568000000.0 236684000000.0 114410000000.0 93710300000.0 18042400000.0 236014000000.0 234438000000.0 198893000000.0 296542000000.0 53178900000.0 143886000000.0 176693000000.0 209863000000.0 277454000000.0 293483000000.0 268111000000.0 302739000000.0 289356000000.0 236257000000.0 124337000000.0 138401000000.0 144699000000.0 125888000000.0 195520000000.0 214794000000.0 224252000000.0 259558000000.0 261207000000.0 287501000000.0 294110000000.0 275925000000.0 266612000000.0 241219000000.0 271768000000.0 238597000000.0 242317000000.0 177042000000.0 159838000000.0 70173000000.0 139023000000.0 30663300000.0 266660000000.0 186879000000.0 266192000000.0 385580000000.0 298150000000.0 342110000000.0 270192000000.0 299090000000.0 253726000000.0 272942000000.0 279991000000.0 283551000000.0 245464000000.0 230309000000.0 211608000000.0 236361000000.0 214475000000.0 179535000000.0 96258300000.0 173787000000.0 2079580000.0 266947000000.0 395226000000.0 374003000000.0 635288000000.0 551738000000.0 667136000000.0 423658000000.0 359779000000.0 303287000000.0 279493000000.0 282525000000.0 261373000000.0 216770000000.0 195309000000.0 171250000000.0 107155000000.0 23799400000.0 326272000000.0 575648000000.0 257798000000.0 587836000000.0 428639000000.0 350856000000.0 289777000000.0 276759000000.0 269168000000.0 234136000000.0 192315000000.0 160273000000.0 107180000000.0 35312600000.0 33273700000.0 28117000000.0 222339000000.0 32038200000.0 437916000000.0 312229000000.0 419017000000.0 514881000000.0 495962000000.0 414448000000.0 362566000000.0 317751000000.0 272250000000.0 271371000000.0 253365000000.0 265812000000.0 248304000000.0 247187000000.0 221470000000.0 205793000000.0 171475000000.0 159392000000.0 107317000000.0 104436000000.0 34299500000.0 32116200000.0 281040000000.0 132332000000.0 283357000000.0 196164000000.0 270284000000.0 99571400000.0 230310000000.0 462811000000.0 472010000000.0 565597000000.0 422289000000.0 296749000000.0 234910000000.0 235271000000.0 226643000000.0 190280000000.0 121542000000.0 37437800000.0 37435400000.0 85245500000.0 96469100000.0 27276300000.0 35284100000.0 700137000000.0 479095000000.0 337848000000.0 217288000000.0 208793000000.0 215280000000.0 201195000000.0 144898000000.0 51166800000.0 34196500000.0 40153000000.0 111345000000.0 99133200000.0 142939000000.0 344301000000.0 292988000000.0 36778100000.0 123286000000.0 13392500000.0 491749000000.0 372992000000.0 389346000000.0 287055000000.0 245538000000.0 116754000000.0 168735000000.0 140883000000.0 186604000000.0 162547000000.0 193042000000.0 168295000000.0 167048000000.0 109403000000.0 77067700000.0 13756200000.0 118902000000.0 164471000000.0 405359000000.0 452635000000.0 107000000000.0 240458000000.0 193125000000.0 332221000000.0 237431000000.0 221315000000.0 11840900000.0 271698000000.0 179755000000.0 71125200000.0 112489000000.0 138199000000.0 134306000000.0 20140100000.0 116191000000.0 185108000000.0 193396000000.0 278715000000.0 374472000000.0 420112000000.0 37363000000.0 168365000000.0 269999000000.0 163170000000.0 54890300000.0 59950300000.0 44252100000.0 78122500000.0 118356000000.0 59621100000.0 95250400000.0 215955000000.0 204073000000.0 253590000000.0 220990000000.0 223761000000.0 455440000000.0 579403000000.0 388847000000.0 392768000000.0 496032000000.0 475817000000.0 483781000000.0 247181000000.0 120921000000.0 386166000000.0 68955100000.0 372481000000.0 123729000000.0 6166950000.0 39444200000.0 55893200000.0 45874300000.0 90876300000.0 18983900000.0 60206500000.0 206091000000.0 295207000000.0 254666000000.0 482703000000.0 650857000000.0 475660000000.0 561963000000.0 359104000000.0 31539700000.0 247301000000.0 496639000000.0 347293000000.0 153892000000.0 55184600000.0 33434600000.0 189419000000.0 343218000000.0 302332000000.0 213353000000.0 405799000000.0 563881000000.0 578346000000.0 17834800000.0 187921000000.0 430853000000.0 428908000000.0 310497000000.0 737688000000.0 500137000000.0 305751000000.0 263163000000.0 163334000000.0 168295000000.0 64738500000.0 173663000000.0 421153000000.0 367876000000.0 525951000000.0 383824000000.0 260587000000.0 231458000000.0 151886000000.0 478780000000.0 661631000000.0 334532000000.0 441038000000.0 463938000000.0 678462000000.0 842344000000.0 532134000000.0 393863000000.0 309486000000.0 381000000000.0 355227000000.0 224101000000.0 188472000000.0 70719100000.0 455700000000.0 733371000000.0 302499000000.0 139132000000.0 446972000000.0 630182000000.0 309202000000.0 464767000000.0 894193000000.0 154348000000.0 104472000000.0 241198000000.0 37502400000.0 116481000000.0 313729000000.0 260118000000.0 175956000000.0 213050000000.0 871104000000.0 345918000000.0 63248600000.0 116457000000.0 9296180000.0 54070900000.0 402398000000.0 586860000000.0 222411000000.0 160177000000.0 244816000000.0 108198000000.0 377375000000.0 128005000000.0 194383000000.0 64124900000.0 9203950000.0 166780000000.0 132713000000.0 227977000000.0 134819000000.0 174119000000.0 43154100000.0 99349500000.0 238765000000.0 751861000000.0 105948000000.0 301194000000.0 67140900000.0 57769500000.0 48331100000.0 121959000000.0 67641300000.0 20890900000.0 814862000000.0 250210000000.0 117636000000.0 1261670000.0 60888400000.0 6217550000.0 97924400000.0 213313000000.0 190973000000.0 160325000000.0 108320000000.0 364279000000.0 556597000000.0 62004700000.0 11175000000.0 4281700000.0 697314000000.0 450581000000.0 249381000000.0 235938000000.0 129861000000.0 130203000000.0 30973400000.0 51518900000.0 229733000000.0 871212000000.0 658040000000.0 231931000000.0 237221000000.0 264606000000.0 256276000000.0 248729000000.0 182503000000.0 177721000000.0 125266000000.0 347908000000.0 551287000000.0 63600600000.0 34790000000.0 14940500000.0 25316400000.0 20309000000.0 67925100000.0 198661000000.0 341419000000.0 342849000000.0 222226000000.0 163522000000.0 106255000000.0 236598000000.0 241939000000.0 663282000000.0 894488000000.0 282978000000.0 179107000000.0 260974000000.0 221968000000.0 159501000000.0 51003200000.0 36975100000.0 73296400000.0 78990800000.0 319921000000.0 291679000000.0 221878000000.0 236954000000.0 452519000000.0 515893000000.0 405226000000.0 124120000000.0 95074800000.0 193058000000.0 233494000000.0 187451000000.0 361027000000.0 570121000000.0 67106000000.0 50796500000.0 67532600000.0 65922300000.0 80962700000.0 60744000000.0 39351500000.0 193075000000.0 226956000000.0 294075000000.0 276967000000.0 268877000000.0 267222000000.0 250084000000.0 301830000000.0 349484000000.0 483714000000.0 238736000000.0 37315400000.0 89313200000.0 113198000000.0 192780000000.0 170512000000.0 194821000000.0 149066000000.0 147850000000.0 403643000000.0 604055000000.0 77123500000.0 83158400000.0 49042000000.0 124202000000.0 239545000000.0 269686000000.0 282284000000.0 329465000000.0 394349000000.0 336778000000.0 331610000000.0 159804000000.0 77435300000.0 43512700000.0 118364000000.0 131322000000.0 98641000000.0 92817700000.0 88804300000.0 77299500000.0 23521800000.0 169880000000.0 245499000000.0 269693000000.0 290195000000.0 301221000000.0 215783000000.0 59419600000.0 26494000000.0 29646300000.0 62122400000.0 59096200000.0 97049000000.0 53766700000.0 80630300000.0 24485400000.0 469696000000.0 644210000000.0 119252000000.0 101224000000.0 103759000000.0 90202000000.0 72551600000.0 40584300000.0 16269500000.0 89149300000.0 134431000000.0 196974000000.0 213372000000.0 248777000000.0 246320000000.0 266484000000.0 245940000000.0 268140000000.0 210344000000.0 223499000000.0 102794000000.0 29230100000.0 34333700000.0 27133600000.0 2933880000.0 550600000000.0 686713000000.0 122325000000.0 93979200000.0 35239900000.0 69759100000.0 165627000000.0 220703000000.0 231379000000.0 199818000000.0 127462000000.0 125361000000.0 43546000000.0 40385700000.0 30996300000.0 29788100000.0 12744500000.0 27592100000.0 62867900000.0 731600000000.0 145306000000.0 142531000000.0 115985000000.0 97409700000.0 69138600000.0 31848500000.0 12605900000.0 58427700000.0 111719000000.0 143331000000.0 185893000000.0 195965000000.0 217036000000.0 199554000000.0 197678000000.0 128825000000.0 37921700000.0 5538100000.0 34137500000.0 18266200000.0 29637400000.0 39479700000.0 110468000000.0 92483000000.0 153801000000.0 637760000000.0 172946000000.0 128196000000.0 67182000000.0 10885300000.0 97173100000.0 165932000000.0 195572000000.0 166471000000.0 142343000000.0 64832500000.0 39409200000.0 59537400000.0 35344500000.0 24026900000.0 3765240000.0 108594000000.0 181876000000.0 722915000000.0 780762000000.0 205280000000.0 164686000000.0 142707000000.0 101814000000.0 66236300000.0 29321700000.0 10787300000.0 51967900000.0 128869000000.0 180520000000.0 184787000000.0 117551000000.0 36794800000.0 154934000000.0 64864800000.0 4962440000.0 34958800000.0 23677100000.0 80019500000.0 186432000000.0 194141000000.0 261458000000.0 238120000000.0 797069000000.0 836820000000.0 192000000000.0 107997000000.0 26604400000.0 49196800000.0 88664100000.0 121327000000.0 154631000000.0 175997000000.0 188262000000.0 191143000000.0 164847000000.0 138529000000.0 53208000000.0 26566300000.0 170894000000.0 216368000000.0 10975000000.0 155182000000.0 268612000000.0 301448000000.0 245854000000.0 161845000000.0 65566600000.0 12630700000.0 85033600000.0 151453000000.0 195060000000.0 192363000000.0 110657000000.0 122250000000.0 358747000000.0 635681000000.0 106253000000.0 99383200000.0 259865000000.0 304457000000.0 312358000000.0 326581000000.0 850632000000.0 9035750000.0 902347000000.0 298082000000.0 227973000000.0 188219000000.0 116575000000.0 64198300000.0 22566300000.0 16780200000.0 49609700000.0 85346000000.0 119600000000.0 154991000000.0 181047000000.0 212282000000.0 214532000000.0 196687000000.0 90002900000.0 234712000000.0 856804000000.0 145231000000.0 155626000000.0 231800000000.0 276394000000.0 308557000000.0 878848000000.0 978975000000.0 276232000000.0 128298000000.0 16151400000.0 52638600000.0 122529000000.0 193331000000.0 247299000000.0 237791000000.0 268890000000.0 211267000000.0 246788000000.0 94074100000.0 154799000000.0 395796000000.0 83606400000.0 551465000000.0 208713000000.0 255071000000.0 247229000000.0 307712000000.0 886492000000.0 1.06631e+12 364530000000.0 340349000000.0 225219000000.0 144870000000.0 60966800000.0 6712260000.0 23128200000.0 57036300000.0 88565100000.0 129489000000.0 164091000000.0 236120000000.0 287716000000.0 312259000000.0 317069000000.0 408220000000.0 563287000000.0 76552000000.0 75302400000.0 145405000000.0 129010000000.0 257720000000.0 9035750000.0 445487000000.0 277933000000.0 54731200000.0 30100800000.0 93550300000.0 179332000000.0 211866000000.0 265466000000.0 283433000000.0 333401000000.0 334125000000.0 385073000000.0 371327000000.0 448484000000.0 295841000000.0 247648000000.0 1.08506e+12 1.05776e+12 83215800000.0 155338000000.0 204120000000.0 888125000000.0 1.16033e+12 535845000000.0 422646000000.0 353317000000.0 170592000000.0 46390900000.0 4694570000.0 32232100000.0 59981600000.0 141252000000.0 238844000000.0 321299000000.0 381675000000.0 433663000000.0 445259000000.0 437754000000.0 417167000000.0 192004000000.0 433324000000.0 569392000000.0 296583000000.0 16547500000.0 75954800000.0 903804000000.0 1.25062e+12 517346000000.0 221166000000.0 10897800000.0 56415000000.0 99491300000.0 163005000000.0 205021000000.0 281461000000.0 303564000000.0 372401000000.0 420120000000.0 434997000000.0 302195000000.0 139717000000.0 285972000000.0 575127000000.0 398014000000.0 110062000000.0 179455000000.0 952156000000.0 9035750000.0 1.2716e+12 608415000000.0 637162000000.0 470365000000.0 352571000000.0 47948000000.0 12364800000.0 16260000000.0 110638000000.0 252716000000.0 356417000000.0 363445000000.0 407253000000.0 409621000000.0 418405000000.0 425467000000.0 378769000000.0 357415000000.0 249004000000.0 158344000000.0 161398000000.0 344082000000.0 224477000000.0 59720500000.0 54850200000.0 212351000000.0 486846000000.0 753095000000.0 115636000000.0 36590900000.0 45293400000.0 162161000000.0 213763000000.0 334030000000.0 348205000000.0 415057000000.0 423085000000.0 386692000000.0 300064000000.0 193378000000.0 229257000000.0 217227000000.0 241183000000.0 112114000000.0 130508000000.0 320865000000.0 1.04434e+12 1.22541e+12 194287000000.0 439956000000.0 463454000000.0 955002000000.0 927925000000.0 126954000000.0 96973100000.0 313606000000.0 439148000000.0 428721000000.0 483131000000.0 445838000000.0 439941000000.0 401296000000.0 322098000000.0 245158000000.0 252454000000.0 205436000000.0 204336000000.0 123880000000.0 5455590000.0 45968000000.0 275237000000.0 1.18172e+12 1.20258e+12 51023100000.0 81856900000.0 232689000000.0 22628600000.0 285272000000.0 292342000000.0 444814000000.0 517572000000.0 505977000000.0 392014000000.0 341907000000.0 258048000000.0 256207000000.0 245418000000.0 255310000000.0 140979000000.0 46516000000.0 174950000000.0 496687000000.0 1.34266e+12 1.30427e+12 136619000000.0 89737700000.0 565168000000.0 4850230000.0 930993000000.0 270812000000.0 473461000000.0 451804000000.0 568490000000.0 544279000000.0 612959000000.0 566830000000.0 495848000000.0 299185000000.0 177096000000.0 319389000000.0 292700000000.0 185396000000.0 90903800000.0 77790600000.0 324895000000.0 467200000000.0 703932000000.0 465818000000.0 229224000000.0 236023000000.0 224659000000.0 373221000000.0 1.13655e+12 870198000000.0 522078000000.0 600898000000.0 649735000000.0 655339000000.0 588970000000.0 588953000000.0 454774000000.0 387794000000.0 154892000000.0 57209200000.0 184380000000.0 352348000000.0 155963000000.0 126641000000.0 12812300000.0 134104000000.0 682432000000.0 887943000000.0 1.49363e+12 1.57507e+12 217029000000.0 65583300000.0 28719800000.0 737334000000.0 815810000000.0 654037000000.0 738064000000.0 687762000000.0 702737000000.0 677500000000.0 574577000000.0 303242000000.0 276793000000.0 271136000000.0 220426000000.0 75372400000.0 532102000000.0 855603000000.0 1.53206e+12 1.73004e+12 705569000000.0 134404000000.0 105979000000.0 59454900000.0 178020000000.0 367994000000.0 652885000000.0 809418000000.0 831567000000.0 790442000000.0 743845000000.0 777087000000.0 734415000000.0 749938000000.0 685249000000.0 685569000000.0 559981000000.0 569724000000.0 204974000000.0 155644000000.0 142194000000.0 313510000000.0 287043000000.0 44762000000.0 173485000000.0 827748000000.0 937116000000.0 209466000000.0 1.63721e+12 452577000000.0 280899000000.0 1.65405e+12 507503000000.0 33790400000.0 118497000000.0 185251000000.0 457571000000.0 802426000000.0 865028000000.0 902217000000.0 857105000000.0 819152000000.0 792672000000.0 749208000000.0 690777000000.0 649262000000.0 651755000000.0 1.37593e+12 592146000000.0 545382000000.0 624975000000.0 416209000000.0 517812000000.0 195635000000.0 120624000000.0 229613000000.0 576336000000.0 521269000000.0 1.23932e+12 198575000000.0 319656000000.0 346004000000.0 593848000000.0 698862000000.0 894332000000.0 916406000000.0 871098000000.0 872650000000.0 831008000000.0 823964000000.0 789711000000.0 735687000000.0 722357000000.0 753022000000.0 585158000000.0 1.60936e+12 1.29954e+12 513441000000.0 36364100000.0 561343000000.0 341961000000.0 155303000000.0 347009000000.0 408798000000.0 243374000000.0 398836000000.0 456068000000.0 235141000000.0 549668000000.0 308601000000.0 557890000000.0 685676000000.0 838322000000.0 558670000000.0 520661000000.0 804589000000.0 850540000000.0 918538000000.0 932445000000.0 913724000000.0 860669000000.0 784535000000.0 756389000000.0 699656000000.0 719529000000.0 701811000000.0 755405000000.0 613587000000.0 930621000000.0 1.27256e+12 456110000000.0 592103000000.0 350098000000.0 478416000000.0 519562000000.0 1.0538e+12 195005000000.0 95023700000.0 198478000000.0 486447000000.0 455426000000.0 265105000000.0 311019000000.0 258138000000.0 581756000000.0 1.26882e+12 419237000000.0 549383000000.0 769927000000.0 893847000000.0 950039000000.0 942913000000.0 924451000000.0 894078000000.0 820495000000.0 687548000000.0 629238000000.0 612971000000.0 559052000000.0 595786000000.0 925380000000.0 1.13946e+12 1.10855e+12 1.10055e+12 686548000000.0 566641000000.0 627274000000.0 482952000000.0 1.06672e+12 32115500000.0 30240900000.0 23743400000.0 462608000000.0 496664000000.0 615777000000.0 85335100000.0 288321000000.0 536008000000.0 439167000000.0 338777000000.0 456061000000.0 1.6341e+12 199611000000.0 463840000000.0 714959000000.0 772343000000.0 844012000000.0 868106000000.0 944236000000.0 951001000000.0 874808000000.0 858314000000.0 771939000000.0 715030000000.0 525434000000.0 561846000000.0 442955000000.0 544788000000.0 506490000000.0 693560000000.0 941431000000.0 1.34509e+12 821857000000.0 720243000000.0 615366000000.0 686148000000.0 682775000000.0 748292000000.0 144637000000.0 106179000000.0 109712000000.0 185148000000.0 656759000000.0 18218700000.0 495964000000.0 369209000000.0 393365000000.0 618679000000.0 991934000000.0 1.24729e+12 322221000000.0 1.22169e+12 180891000000.0 652041000000.0 748446000000.0 892448000000.0 929497000000.0 998444000000.0 974477000000.0 889627000000.0 814875000000.0 555237000000.0 338704000000.0 392176000000.0 462921000000.0 589061000000.0 781210000000.0 1.16532e+12 1.15163e+12 1.02666e+12 852225000000.0 589222000000.0 419834000000.0 691597000000.0 543594000000.0 844959000000.0 378338000000.0 536161000000.0 73526700000.0 240486000000.0 560107000.0 451655000000.0 440699000000.0 61768700000.0 220570000000.0 49752000000.0 275138000000.0 83661700000.0 41719900000.0 34634800000.0 73953000000.0 1.0463e+12 223266000000.0 930408000000.0 484329000000.0 89579100000.0 422601000000.0 508447000000.0 400665000000.0 761114000000.0 1.02101e+12 993050000000.0 937905000000.0 787241000000.0 791781000000.0 728916000000.0 660140000000.0 268654000000.0 283963000000.0 251093000000.0 306656000000.0 634547000000.0 965337000000.0 1.07724e+12 987320000000.0 709004000000.0 491858000000.0 199964000000.0 99516700000.0 407261000000.0 571112000000.0 662782000000.0 218827000000.0 58347600000.0 53946800000.0 232351000000.0 163927000000.0 187494000000.0 379878000000.0 283534000000.0 260391000000.0 320078000000.0 251659000000.0 37842400000.0 198412000000.0 744858000000.0 713594000000.0 358861000000.0 811223000000.0 983932000000.0 1.10575e+12 1.05555e+12 910126000000.0 568455000000.0 445193000000.0 4766630000.0 106678000000.0 100910000000.0 164953000000.0 265786000000.0 443568000000.0 658156000000.0 848289000000.0 850096000000.0 1.03585e+12 937575000000.0 825622000000.0 606545000000.0 215830000000.0 110032000000.0 53663800000.0 345958000000.0 18888800000.0 77532500000.0 957260000000.0 374020000000.0 731266000000.0 238752000000.0 768438000000.0 236886000000.0 363411000000.0 452693000000.0 69550500000.0 234139000000.0 353627000000.0 347993000000.0 724350000000.0 1.02707e+12 369389000000.0 158936000000.0 430734000000.0 475915000000.0 63034200000.0 144435000000.0 852607000000.0 376811000000.0 280662000000.0 517611000000.0 1.00099e+12 1.11075e+12 1.01978e+12 933902000000.0 610129000000.0 173618000000.0 501943000000.0 175134000000.0 116917000000.0 186698000000.0 391553000000.0 853705000000.0 955273000000.0 949979000000.0 769423000000.0 424404000000.0 271083000000.0 126376000000.0 389784000000.0 192290000000.0 509282000000.0 360509000000.0 303508000000.0 484624000000.0 299262000000.0 708377000000.0 168943000000.0 208558000000.0 770054000000.0 1.2962e+12 586837000000.0 78583800000.0 33985200000.0 7939900000.0 482047000000.0 380390000000.0 615064000000.0 446619000000.0 780412000000.0 308233000000.0 185183000000.0 388411000000.0 588928000000.0 197015000000.0 449615000000.0 708663000000.0 1.18821e+12 1.08494e+12 422784000000.0 311835000000.0 250995000000.0 84072500000.0 144272000000.0 397313000000.0 294986000000.0 369369000000.0 221891000000.0 594948000000.0 796653000000.0 485103000000.0 810830000000.0 944274000000.0 607167000000.0 28180600000.0 295041000000.0 523725000000.0 722617000000.0 270087000000.0 878137000000.0 1.35284e+12 135177000000.0 83499900000.0 198768000000.0 80067700000.0 124903000000.0 86125500000.0 331630000000.0 519040000000.0 163639000000.0 610209000000.0 14259800000.0 102951000000.0 38413700000.0 102182000000.0 412553000000.0 49868400000.0 422787000000.0 559844000000.0 662964000000.0 376359000000.0 71715600000.0 343456000000.0 353009000000.0 137789000000.0 179380000000.0 526307000000.0 870096000000.0 1.00101e+12 1.16182e+12 638998000000.0 1.10531e+12 325097000000.0 758975000000.0 584094000000.0 506922000000.0 373710000000.0 355147000000.0 179537000000.0 117921000000.0 273380000000.0 1.03991e+12 735184000000.0 225504000000.0 98823100000.0 367214000000.0 919309000000.0 247370000000.0 307276000000.0 137193000000.0 1.13678e+12 507534000000.0 446192000000.0 351091000000.0 124239000000.0 1.16982e+12 249803000000.0 290330000000.0 250527000000.0 741779000000.0 63276300000.0 172739000000.0 145881000000.0 357738000000.0 162398000000.0 391311000000.0 410192000000.0 647615000000.0 249284000000.0 254948000000.0 75075000000.0 46045600000.0 81910900000.0 52470300000.0 254498000000.0 187927000000.0 170986000000.0 593151000000.0 1.2533e+12 1.41265e+12 580842000000.0 724990000000.0 1.77679e+12 214912000000.0 318184000000.0 722267000000.0 694765000000.0 738660000000.0 483721000000.0 366786000000.0 620308000000.0 90949700000.0 1.25535e+12 415105000000.0 421489000000.0 190682000000.0 129743000000.0 150870000000.0 950305000000.0 98208800000.0 220884000000.0 370296000000.0 200783000000.0 129508000000.0 145566000000.0 380230000000.0 124948000000.0 667203000000.0 192943000000.0 305671000000.0 1.14249e+12 344415000000.0 303415000000.0 380504000000.0 479545000000.0 438394000000.0 15982900000.0 307895000000.0 445402000000.0 586108000000.0 252041000000.0 666272000000.0 54082400000.0 81399700000.0 342425000000.0 834734000000.0 1.07528e+12 907294000000.0 569597000000.0 401286000000.0 202391000000.0 133945000000.0 252383000000.0 809932000000.0 567337000000.0 357255000000.0 914223000000.0 411928000000.0 702365000000.0 763681000000.0 53637600000.0 103261000000.0 171259000000.0 362632000000.0 829006000000.0 615570000000.0 286247000000.0 109019000000.0 33459900000.0 58936400000.0 263517000000.0 190933000000.0 891565000000.0 63079500000.0 318909000000.0 260389000000.0 88158100000.0 110060000000.0 240262000000.0 276369000000.0 212228000000.0 198889000000.0 273854000000.0 767240000000.0 756820000000.0 550784000000.0 603741000000.0 559096000000.0 400836000000.0 412849000000.0 143715000000.0 255143000000.0 767023000000.0 476285000000.0 284522000000.0 336771000000.0 519548000000.0 647202000000.0 746244000000.0 433262000000.0 133414000000.0 245922000000.0 30942200000.0 37829000000.0 208375000000.0 469903000000.0 431057000000.0 488589000000.0 42594700000.0 173663000000.0 239340000000.0 546407000000.0 365008000000.0 1.01988e+12 497402000000.0 1.07577e+12 388992000000.0 492749000000.0 591316000000.0 915637000000.0 949387000000.0 736000000000.0 603459000000.0 845758000000.0 326205000000.0 1.10971e+12 746522000000.0 1.0317e+12 1.03941e+12 618386000000.0 478095000000.0 219699000000.0 288494000000.0 152118000000.0 113144000000.0 127421000000.0 58710600000.0 170077000000.0 206816000000.0 557017000000.0 1.01193e+12 713903000000.0 52102600000.0 44813100000.0 68336300000.0 605389000000.0 409996000000.0 174755000000.0 184381000000.0 294597000000.0 629119000000.0 349637000000.0 470722000000.0 592185000000.0 679144000000.0 609224000000.0 443045000000.0 726432000000.0 130319000000.0 163949000000.0 13901700000.0 367787000000.0 137740000000.0 56844700000.0 41167500000.0 158189000000.0 289145000000.0 416940000000.0 513243000000.0 593234000000.0 739989000000.0 43330200000.0 840770000000.0 877966000000.0 332622000000.0 1.08685e+12 27557000000.0 1.12146e+12 708307000000.0 961720000000.0 1.09632e+12 503454000000.0 1.37264e+12 767407000000.0 988961000000.0 651337000000.0 460844000000.0 709949000000.0 622610000000.0 217156000000.0 112222000000.0 63597000000.0 65402000000.0 45835800000.0 5480790000.0 121433000000.0 190899000000.0 316433000000.0 771081000000.0 466243000000.0 25546600000.0 119654000000.0 201654000000.0 64832600000.0 135519000000.0 29155300000.0 89892100000.0 694503000000.0 66824400000.0 451258000000.0 422688000000.0 145877000000.0 300518000000.0 443315000000.0 563619000000.0 492176000000.0 551558000000.0 620900000000.0 787808000000.0 746284000000.0 126480000000.0 154219000000.0 490675000000.0 230783000000.0 109648000000.0 209188000000.0 227061000000.0 127945000000.0 160827000000.0 85787900000.0 178490000000.0 702765000000.0 777877000000.0 541621000000.0 422098000000.0 686000000000.0 690680000000.0 50177200000.0 1.02363e+12 887819000000.0 105323000000.0 1.15148e+12 642928000000.0 136674000000.0 288629000000.0 61499900000.0 112562000000.0 70902300000.0 27373600000.0 1054050000.0 66813800000.0 37545900000.0 29637200000.0 25739100000.0 77442600000.0 216607000000.0 502676000000.0 58413400000.0 151938000000.0 144240000000.0 204117000000.0 109832000000.0 226073000000.0 985630000000.0 146230000000.0 359482000000.0 104913000000.0 179600000000.0 253353000000.0 335362000000.0 413240000000.0 489862000000.0 342023000000.0 306285000000.0 259306000000.0 366491000000.0 468488000000.0 1.09479e+12 684233000000.0 808036000000.0 589457000000.0 1.21218e+12 426736000000.0 376617000000.0 114606000000.0 359383000000.0 313158000000.0 179408000000.0 85470900000.0 86501900000.0 267382000000.0 369525000000.0 688590000000.0 365351000000.0 385549000000.0 599157000000.0 279075000000.0 1.08596e+12 853996000000.0 1.06974e+12 808635000000.0 241240000000.0 803073000000.0 761610000000.0 906040000000.0 707636000000.0 256041000000.0 77424500000.0 240524000000.0 13072000000.0 82724600000.0 129902000000.0 134370000000.0 92591700000.0 91293600000.0 62113500000.0 22686500000.0 57482000000.0 170398000000.0 311701000000.0 347572000000.0 50267400000.0 90167300000.0 25715200000.0 99819400000.0 174215000000.0 54438300000.0 1.0266e+12 739176000000.0 130714000000.0 386881000000.0 437177000000.0 1.65712e+12 154742000000.0 119686000000.0 243480000000.0 383719000000.0 335462000000.0 227600000000.0 32722600000.0 22298400000.0 629335000000.0 1.05337e+12 1.05861e+12 42296100000.0 827304000000.0 489827000000.0 296932000000.0 217833000000.0 384367000000.0 310562000000.0 156982000000.0 13654400000.0 140023000000.0 270598000000.0 475831000000.0 666336000000.0 476624000000.0 584392000000.0 342974000000.0 354755000000.0 580921000000.0 58080500000.0 486367000000.0 578386000000.0 535927000000.0 284850000000.0 102903000000.0 31412500000.0 77232200000.0 159525000000.0 200454000000.0 194152000000.0 163920000000.0 154510000000.0 122190000000.0 43041200000.0 82847800000.0 169312000000.0 187974000000.0 93232200000.0 259971000000.0 395620000000.0 197099000000.0 158997000000.0 237810000000.0 168776000000.0 5392730000.0 161891000000.0 1.15692e+12 439770000000.0 325466000000.0 279688000000.0 204001000000.0 188301000000.0 318151000000.0 400167000000.0 805273000000.0 396019000000.0 139904000000.0 178475000000.0 289196000000.0 279868000000.0 232805000000.0 150290000000.0 182730000000.0 40911200000.0 40993400000.0 105778000000.0 124210000000.0 141994000000.0 13900600000.0 965873000000.0 1.11968e+12 426289000000.0 18274500000.0 288724000000.0 330173000000.0 141999000000.0 15006200000.0 162749000000.0 332497000000.0 508416000000.0 629485000000.0 566170000000.0 495791000000.0 262534000000.0 486234000000.0 640530000000.0 1.13691e+12 1.10266e+12 35805100000.0 24850500000.0 262275000000.0 305340000000.0 218338000000.0 87098600000.0 814159000.0 29970200000.0 95681800000.0 174184000000.0 227968000000.0 249132000000.0 252471000000.0 244648000000.0 233547000000.0 198850000000.0 139414000000.0 12328500000.0 47654300000.0 120407000000.0 401823000000.0 465354000000.0 322519000000.0 271325000000.0 81358600000.0 24751900000.0 463780000000.0 392290000000.0 569095000000.0 392514000000.0 133365000000.0 121880000000.0 486145000000.0 476074000000.0 954329000000.0 424090000000.0 157323000000.0 3680180000.0 213001000000.0 220866000000.0 87071300000.0 57987200000.0 81022300000.0 7316090000.0 63182100000.0 481778000000.0 529385000000.0 330470000000.0 1.38539e+12 967270000000.0 716208000000.0 521110000000.0 108390000000.0 42448100000.0 200371000000.0 359297000000.0 494025000000.0 537939000000.0 506455000000.0 330880000000.0 267583000000.0 19347400000.0 50170600000.0 832293000000.0 28625600000.0 86984500000.0 228855000000.0 71733000000.0 99728300000.0 86243500000.0 19655300000.0 83911600000.0 131362000000.0 188628000000.0 241187000000.0 277351000000.0 293765000000.0 297499000000.0 348209000000.0 141517000000.0 134216000000.0 598798000000.0 627071000000.0 536273000000.0 366737000000.0 232548000000.0 154237000000.0 807207000000.0 426655000000.0 674360000000.0 629720000000.0 446204000000.0 501414000000.0 67762600000.0 74092100000.0 449299000000.0 460869000000.0 609459000000.0 277067000000.0 53373200000.0 266537000000.0 149688000000.0 86478400000.0 163863000000.0 202259000000.0 147167000000.0 149819000000.0 217977000000.0 537516000000.0 680221000000.0 434028000000.0 103036000000.0 150275000000.0 293231000000.0 455455000000.0 900438000000.0 708614000000.0 567752000000.0 426924000000.0 270210000000.0 69212500000.0 219790000000.0 355781000000.0 445512000000.0 473021000000.0 403539000000.0 333379000000.0 219096000000.0 300825000000.0 761239000000.0 721566000000.0 1.20161e+12 622424000000.0 188791000000.0 88906000000.0 111076000000.0 52855200000.0 28227700000.0 102027000000.0 157989000000.0 206161000000.0 251685000000.0 286190000000.0 304010000000.0 332184000000.0 360432000000.0 1.35219e+12 1.49629e+12 1.14585e+12 787089000000.0 416434000000.0 232534000000.0 41716700000.0 45635200000.0 335417000000.0 709255000000.0 766566000000.0 805020000000.0 673714000000.0 537138000000.0 11614900000.0 24846100000.0 14564100000.0 38234500000.0 446070000000.0 606333000000.0 698429000000.0 517597000000.0 203101000000.0 34640800000.0 30130400000.0 3040460000.0 98003900000.0 216139000000.0 253758000000.0 293366000000.0 327869000000.0 574281000000.0 723919000000.0 708413000000.0 541640000000.0 272012000000.0 189587000000.0 405344000000.0 579143000000.0 776237000000.0 660476000000.0 530798000000.0 391483000000.0 239862000000.0 83934600000.0 330814000000.0 396769000000.0 396938000000.0 361897000000.0 300930000000.0 323041000000.0 488450000000.0 671102000000.0 833261000000.0 785181000000.0 869348000000.0 542127000000.0 269610000000.0 76833500000.0 33267400000.0 30423700000.0 99963400000.0 163708000000.0 215512000000.0 257817000000.0 294735000000.0 309191000000.0 325282000000.0 337608000000.0 359356000000.0 422659000000.0 567795000000.0 907609000000.0 14631900000.0 666977000000.0 703635000000.0 586965000000.0 297391000000.0 122772000000.0 42655600000.0 433642000000.0 784815000000.0 864410000000.0 854541000000.0 713086000000.0 738708000000.0 555197000000.0 44864800000.0 5597190000.0 430059000000.0 547136000000.0 594336000000.0 737200000000.0 668777000000.0 601406000000.0 278082000000.0 179185000000.0 89950700000.0 224090000000.0 199696000000.0 290610000000.0 370474000000.0 394320000000.0 600787000000.0 744929000000.0 787778000000.0 736727000000.0 565080000000.0 350305000000.0 348225000000.0 465194000000.0 599792000000.0 705687000000.0 615084000000.0 492635000000.0 355732000000.0 209688000000.0 60272800000.0 85301000000.0 221218000000.0 328005000000.0 335087000000.0 418245000000.0 554531000000.0 714955000000.0 797401000000.0 753721000000.0 687067000000.0 135655000000.0 60194200000.0 11287300000.0 82959000000.0 150503000000.0 210105000000.0 258733000000.0 319543000000.0 327721000000.0 316679000000.0 279500000000.0 196928000000.0 26243600000.0 319663000000.0 863171000000.0 484764000000.0 633520000000.0 623099000000.0 569745000000.0 455451000000.0 364952000000.0 194369000000.0 59804600000.0 89481500000.0 521432000000.0 996287000000.0 944277000000.0 1.01253e+12 900743000000.0 726859000000.0 546133000000.0 527989000000.0 54618000000.0 22681400000.0 410461000000.0 495126000000.0 679963000000.0 802096000000.0 857848000000.0 979747000000.0 623587000000.0 425519000000.0 154155000000.0 258651000000.0 317465000000.0 402319000000.0 471256000000.0 613716000000.0 750200000000.0 818501000000.0 819255000000.0 738515000000.0 578804000000.0 448384000000.0 443979000000.0 519145000000.0 602314000000.0 647448000000.0 568496000000.0 453789000000.0 322751000000.0 183042000000.0 41924400000.0 92650100000.0 211179000000.0 300499000000.0 344972000000.0 350265000000.0 465362000000.0 269959000000.0 136701000000.0 38811900000.0 45564700000.0 296496000000.0 325845000000.0 344117000000.0 345450000000.0 326267000000.0 277741000000.0 176565000000.0 9185240000.0 224379000000.0 101232000000.0 244622000000.0 656467000000.0 549985000000.0 480189000000.0 263350000000.0 110754000000.0 704426000000.0 915050000000.0 1.2251e+12 1.11934e+12 1.03919e+12 904946000000.0 850874000000.0 686240000000.0 493314000000.0 44210700000.0 22629500000.0 42484500000.0 393815000000.0 399878000000.0 461607000000.0 590588000000.0 681439000000.0 891359000000.0 939059000000.0 1.23363e+12 1.62743e+12 462393000000.0 472257000000.0 401498000000.0 446930000000.0 502657000000.0 622016000000.0 738444000000.0 824005000000.0 855613000000.0 827125000000.0 733934000000.0 610091000000.0 519429000000.0 510298000000.0 552305000000.0 595871000000.0 600703000000.0 525646000000.0 416699000000.0 291719000000.0 159277000000.0 27773900000.0 94130900000.0 196788000000.0 269112000000.0 308409000000.0 320673000000.0 334726000000.0 381313000000.0 472684000000.0 606077000000.0 715137000000.0 738501000000.0 673292000000.0 563038000000.0 393919000000.0 238628000000.0 114076000000.0 11555600000.0 121282000000.0 188496000000.0 245602000000.0 290763000000.0 325930000000.0 352022000000.0 365297000000.0 363796000000.0 348961000000.0 318899000000.0 284347000000.0 290475000000.0 382073000000.0 116397000000.0 1.1452e+12 468217000000.0 389994000000.0 405110000000.0 370259000000.0 227141000000.0 135421000000.0 1.52591e+12 1.30217e+12 1.10141e+12 1.07302e+12 1.08434e+12 1.00096e+12 776422000000.0 634304000000.0 451207000000.0 22880200000.0 80725200000.0 60559900000.0 402958000000.0 434384000000.0 476482000000.0 517381000000.0 573129000000.0 750289000000.0 765942000000.0 952492000000.0 674303000000.0 1.43498e+12 1.1173e+12 447825000000.0 473081000000.0 493683000000.0 596980000000.0 713751000000.0 808533000000.0 866157000000.0 872353000000.0 824729000000.0 737547000000.0 637789000000.0 568731000000.0 554366000000.0 571122000000.0 582810000000.0 560151000000.0 484986000000.0 380496000000.0 261516000000.0 137244000000.0 16487300000.0 92508000000.0 181532000000.0 245518000000.0 285695000000.0 316031000000.0 355875000000.0 421040000000.0 517761000000.0 619455000000.0 678842000000.0 662852000000.0 581942000000.0 466148000000.0 326278000000.0 194012000000.0 77034500000.0 153216000000.0 218442000000.0 272987000000.0 315309000000.0 345876000000.0 367913000000.0 380202000000.0 383568000000.0 378052000000.0 373935000000.0 402769000000.0 494543000000.0 165478000000.0 1.07264e+12 282022000000.0 326480000000.0 335728000000.0 656668000000.0 1.02432e+12 863264000000.0 1.1099e+12 961272000000.0 1.01536e+12 910179000000.0 669900000000.0 557210000000.0 494620000000.0 403855000000.0 86791700000.0 102475000000.0 423321000000.0 443253000000.0 430129000000.0 448310000000.0 497246000000.0 513392000000.0 612240000000.0 629934000000.0 615194000000.0 712986000000.0 550272000000.0 196702000000.0 724755000000.0 609993000000.0 368383000000.0 553137000000.0 662539000000.0 776075000000.0 856539000000.0 889605000000.0 232169000000.0 117196000000.0 7201620000.0 90519300000.0 170523000000.0 231189000000.0 278302000000.0 323130000000.0 378420000000.0 451590000000.0 534005000000.0 600162000000.0 619573000000.0 579028000000.0 492314000000.0 381966000000.0 78843700000.0 20828700000.0 107222000000.0 181237000000.0 243344000000.0 293716000000.0 331781000000.0 359079000000.0 377602000000.0 387983000000.0 386844000000.0 378754000000.0 368703000000.0 310139000000.0 97098200000.0 505082000000.0 435154000000.0 283811000000.0 293163000000.0 400214000000.0 803467000000.0 741953000000.0 865639000000.0 892271000000.0 676562000000.0 1.03765e+12 894006000000.0 787276000000.0 633112000000.0 562116000000.0 414713000000.0 334875000000.0 232569000000.0 202917000000.0 124393000000.0 438093000000.0 478406000000.0 457058000000.0 455315000000.0 458563000000.0 450113000000.0 517498000000.0 521182000000.0 577688000000.0 652435000000.0 480170000000.0 455064000000.0 365089000000.0 156568000000.0 412535000000.0 565682000000.0 728651000000.0 836510000000.0 875202000000.0 821664000000.0 740617000000.0 657783000000.0 601894000000.0 579984000000.0 574674000000.0 562422000000.0 522059000000.0 445067000000.0 344439000000.0 225869000000.0 279299000000.0 333405000000.0 394792000000.0 462208000000.0 523401000000.0 557834000000.0 260820000000.0 144430000000.0 38639600000.0 55233700000.0 136832000000.0 206160000000.0 263716000000.0 309739000000.0 344569000000.0 369456000000.0 386694000000.0 351451000000.0 785800000000.0 510355000000.0 318785000000.0 707102000000.0 1.25508e+12 462669000000.0 610587000000.0 272313000000.0 758322000000.0 608853000000.0 1.01041e+12 980091000000.0 795073000000.0 710303000000.0 488952000000.0 457125000000.0 338113000000.0 326920000000.0 33545600000.0 275409000000.0 120477000000.0 130819000000.0 452506000000.0 449326000000.0 505455000000.0 492552000000.0 491649000000.0 433720000000.0 401407000000.0 437897000000.0 416697000000.0 543014000000.0 653945000000.0 1.00493e+12 347579000000.0 408612000000.0 104066000000.0 892778000000.0 902448000000.0 871543000000.0 811873000000.0 738503000000.0 668391000000.0 617257000000.0 587798000000.0 566675000000.0 536628000000.0 484060000000.0 405547000000.0 309291000000.0 204226000000.0 98372500000.0 1637370000.0 90403500000.0 164733000000.0 548938000000.0 495063000000.0 408869000000.0 306267000000.0 198044000000.0 93653900000.0 2661010000.0 89286600000.0 165162000000.0 229456000000.0 282444000000.0 396505000000.0 395803000000.0 384588000000.0 348017000000.0 181652000000.0 430744000000.0 710641000000.0 734409000000.0 458070000000.0 152670000000.0 161107000000.0 267360000000.0 356997000000.0 1.22087e+12 433368000000.0 1.19893e+12 436279000000.0 218129000000.0 1.10886e+12 914425000000.0 541329000000.0 515325000000.0 334514000000.0 215459000000.0 195487000000.0 42903100000.0 246732000000.0 325882000000.0 118578000000.0 130449000000.0 439256000000.0 515304000000.0 585608000000.0 541477000000.0 551843000000.0 472371000000.0 429674000000.0 371095000000.0 323629000000.0 429064000000.0 507200000000.0 998705000000.0 1.53529e+12 664632000000.0 820322000000.0 107446000000.0 383956000000.0 634983000000.0 796538000000.0 884639000000.0 913868000000.0 899882000000.0 857744000000.0 797239000000.0 729259000000.0 666543000000.0 617748000000.0 581661000000.0 548293000000.0 505944000000.0 446133000000.0 367476000000.0 275667000000.0 177606000000.0 80094900000.0 11386200000.0 93114800000.0 163953000000.0 225777000000.0 282972000000.0 340340000000.0 399262000000.0 454352000000.0 493533000000.0 503059000000.0 475675000000.0 415027000000.0 331660000000.0 236912000000.0 138998000000.0 44177500000.0 43782200000.0 123001000000.0 324739000000.0 357963000000.0 383002000000.0 400308000000.0 407610000000.0 407817000000.0 389419000000.0 331844000000.0 480794000000.0 667622000000.0 736174000000.0 647556000000.0 401671000000.0 102350000000.0 135098000000.0 116402000000.0 783682000000.0 1.05571e+12 567313000000.0 134361000000.0 740769000000.0 1.24612e+12 724921000000.0 584971000000.0 316343000000.0 332356000000.0 193046000000.0 199067000000.0 16844500000.0 855754000000.0 1.16336e+12 188435000000.0 92493800000.0 401776000000.0 498761000000.0 590712000000.0 626901000000.0 639276000000.0 546781000000.0 522604000000.0 373440000000.0 339988000000.0 330809000000.0 420538000000.0 702596000000.0 1.03112e+12 1.62376e+12 360984000000.0 790923000000.0 1.39626e+12 226612000000.0 567326000000.0 776124000000.0 879004000000.0 915992000000.0 911445000000.0 880252000000.0 831981000000.0 772839000000.0 710946000000.0 654012000000.0 605847000000.0 564425000000.0 522715000000.0 472624000000.0 408685000000.0 330766000000.0 243437000000.0 152180000000.0 62227600000.0 22157900000.0 98429800000.0 166351000000.0 227756000000.0 285299000000.0 340510000000.0 391536000000.0 431775000000.0 451495000000.0 442753000000.0 403862000000.0 340123000000.0 260259000000.0 172628000000.0 83462200000.0 192475000000.0 252172000000.0 301951000000.0 342473000000.0 374211000000.0 399997000000.0 418760000000.0 427831000000.0 424722000000.0 411949000000.0 492336000000.0 625113000000.0 713093000000.0 710851000000.0 603765000000.0 374146000000.0 38034800000.0 640314000000.0 333988000000.0 1.0918e+12 506757000000.0 132904000000.0 166894000000.0 260701000000.0 186503000000.0 198146000000.0 51856100000.0 15428900000.0 1.01708e+12 1.06449e+12 1.00187e+12 149448000000.0 196942000000.0 139487000000.0 67006700000.0 344285000000.0 389211000000.0 464204000000.0 549919000000.0 681756000000.0 746455000000.0 649864000000.0 471402000000.0 393031000000.0 281632000000.0 295882000000.0 546301000000.0 717269000000.0 1.18597e+12 7378450000.0 1.35803e+12 58999800000.0 596612000000.0 775171000000.0 868076000000.0 900881000000.0 900670000000.0 879578000000.0 843913000000.0 796577000000.0 741718000000.0 685129000000.0 632088000000.0 584398000000.0 539548000000.0 492332000000.0 437395000000.0 371658000000.0 295640000000.0 212897000000.0 127853000000.0 44671600000.0 33515800000.0 105015000000.0 169830000000.0 229094000000.0 283720000000.0 332972000000.0 373355000000.0 398664000000.0 402297000000.0 380657000000.0 335030000000.0 2655670000.0 82998100000.0 155808000000.0 220344000000.0 276310000000.0 323900000000.0 363232000000.0 395407000000.0 419998000000.0 438372000000.0 447479000000.0 452675000000.0 505937000000.0 590264000000.0 657749000000.0 673383000000.0 616084000000.0 470927000000.0 174068000000.0 462237000000.0 245213000000.0 957137000000.0 5575120000.0 406355000000.0 608039000000.0 248380000000.0 178273000000.0 185019000000.0 114475000000.0 220434000000.0 499537000000.0 472401000000.0 464662000000.0 131255000000.0 172459000000.0 103423000000.0 72189000000.0 40947000000.0 209883000000.0 274364000000.0 295344000000.0 456503000000.0 547896000000.0 677351000000.0 840824000000.0 792526000000.0 827209000000.0 632945000000.0 572773000000.0 404155000000.0 330752000000.0 410704000000.0 572183000000.0 871491000000.0 828781000000.0 1.0851e+12 179249000000.0 560414000000.0 759640000000.0 829233000000.0 850630000000.0 848625000000.0 829723000000.0 797309000000.0 754495000000.0 705032000000.0 653498000000.0 603775000000.0 556611000000.0 509620000000.0 458961000000.0 401316000000.0 335260000000.0 261806000000.0 183825000000.0 104712000000.0 27660100000.0 44876500000.0 111667000000.0 172577000000.0 227825000000.0 276982000000.0 270780000000.0 194887000000.0 113721000000.0 32095500000.0 46749100000.0 120749000000.0 188527000000.0 249236000000.0 302364000000.0 347591000000.0 385620000000.0 417025000000.0 441830000000.0 459630000000.0 475027000000.0 507384000000.0 558360000000.0 607257000000.0 624378000000.0 595854000000.0 515152000000.0 368198000000.0 93908800000.0 735799000000.0 1.28696e+12 87292600000.0 216498000000.0 477850000000.0 231803000000.0 664073000000.0 380983000000.0 247021000000.0 31827000000.0 318501000000.0 524053000000.0 191750000000.0 450133000000.0 114817000000.0 232553000000.0 178131000000.0 57801500000.0 5111970000.0 20932500000.0 160219000000.0 197689000000.0 342029000000.0 403185000000.0 642645000000.0 1.04549e+12 1.21677e+12 798106000000.0 728627000000.0 461241000000.0 679968000000.0 428942000000.0 592166000000.0 869449000000.0 855667000000.0 16249300000.0 826316000000.0 674034000000.0 174902000000.0 481748000000.0 668398000000.0 746480000000.0 779484000000.0 786436000000.0 774449000000.0 317972000000.0 346884000000.0 358840000000.0 350004000000.0 319587000000.0 270326000000.0 207235000000.0 135598000000.0 60066200000.0 15548500000.0 88587300000.0 157325000000.0 220799000000.0 278246000000.0 328996000000.0 372240000000.0 408140000000.0 438242000000.0 1.7155e+12 395322000000.0 167170000000.0 79980700000.0 448605000000.0 727859000000.0 460095000000.0 297106000000.0 146154000000.0 93640300000.0 120293000000.0 177958000000.0 189301000000.0 53633600000.0 48045600000.0 288016000000.0 249890000000.0 164894000000.0 64295900000.0 9159800000.0 123734000000.0 125649000000.0 218555000000.0 268819000000.0 471204000000.0 507417000000.0 689510000000.0 625377000000.0 1.28634e+12 1.18662e+12 605713000000.0 925502000000.0 512793000000.0 674938000000.0 819470000000.0 1.09028e+12 845549000000.0 434317000000.0 768470000000.0 463017000000.0 26679800000.0 747940000000.0 710398000000.0 665764000000.0 618451000000.0 571313000000.0 524496000000.0 476047000000.0 423409000000.0 364788000000.0 299768000000.0 229474000000.0 156203000000.0 82666100000.0 11395300000.0 55662100000.0 117417000000.0 173426000000.0 223133000000.0 265102000000.0 296748000000.0 314668000000.0 315504000000.0 297489000000.0 261559000000.0 210783000000.0 149305000000.0 81436800000.0 10912600000.0 59454200000.0 127638000000.0 192170000000.0 251899000000.0 462095000000.0 481016000000.0 508093000000.0 544597000000.0 577456000000.0 592864000000.0 585122000000.0 557992000000.0 546409000000.0 646975000000.0 1.10321e+12 536159000000.0 185928000000.0 612993000000.0 28077900000.0 467456000000.0 743800000000.0 824469000000.0 691517000000.0 528226000000.0 314434000000.0 84101200000.0 76651100000.0 138993000000.0 81640000000.0 234146000000.0 271151000000.0 479366000000.0 303077000000.0 120306000000.0 80014000000.0 30792100000.0 83518700000.0 27130100000.0 91252300000.0 97733900000.0 31248800000.0 90282800000.0 122687000000.0 313786000000.0 347578000000.0 453305000000.0 329760000000.0 436669000000.0 130611000000.0 935110000000.0 823488000000.0 508234000000.0 699516000000.0 1.02221e+12 1.06347e+12 889811000000.0 687130000000.0 424620000000.0 589973000000.0 675248000000.0 716878000000.0 729956000000.0 722440000000.0 699596000000.0 665623000000.0 624819000000.0 580886000000.0 535744000000.0 489299000000.0 440166000000.0 386820000000.0 328418000000.0 265197000000.0 198382000000.0 129849000000.0 61766300000.0 3832330000.0 65352000000.0 121681000000.0 171924000000.0 214933000000.0 248882000000.0 271214000000.0 279274000000.0 271240000000.0 246805000000.0 207493000000.0 156281000000.0 96765200000.0 32489700000.0 306158000000.0 354169000000.0 395250000000.0 429581000000.0 458532000000.0 483526000000.0 507984000000.0 534130000000.0 560294000000.0 579079000000.0 583869000000.0 578551000000.0 583500000000.0 672148000000.0 1.10865e+12 403567000000.0 138946000000.0 393064000000.0 305042000000.0 644699000000.0 806291000000.0 830875000000.0 718363000000.0 329580000000.0 394870000000.0 187542000000.0 332607000000.0 279075000000.0 600731000000.0 580384000000.0 117900000000.0 17559900000.0 64093400000.0 85680800000.0 85282400000.0 52530100000.0 48081200000.0 58168900000.0 83426900000.0 64274400000.0 44779000000.0 186649000000.0 182023000000.0 372292000000.0 341617000000.0 193339000000.0 18829500000.0 269031000000.0 606689000000.0 913152000000.0 348134000000.0 891992000000.0 1.01773e+12 1.00492e+12 683578000000.0 432537000000.0 244289000000.0 439661000000.0 561108000000.0 632817000000.0 669670000000.0 681136000000.0 673929000000.0 652675000000.0 621226000000.0 583342000000.0 541864000000.0 498075000000.0 451871000000.0 402532000000.0 349403000000.0 292299000000.0 231671000000.0 168610000000.0 104757000000.0 42003800000.0 17930000000.0 73700600000.0 124127000000.0 167957000000.0 203719000000.0 229529000000.0 243225000000.0 243016000000.0 228123000000.0 199085000000.0 33651900000.0 99492500000.0 163445000000.0 224145000000.0 280467000000.0 331461000000.0 376560000000.0 415479000000.0 448697000000.0 477897000000.0 505529000000.0 532573000000.0 559301000000.0 582802000000.0 600260000000.0 617512000000.0 652079000000.0 741812000000.0 837326000000.0 448624000000.0 49441600000.0 372330000000.0 646788000000.0 769936000000.0 811665000000.0 744311000000.0 577508000000.0 376379000000.0 434242000000.0 595387000000.0 586567000000.0 149464000000.0 13573700000.0 20856300000.0 13517400000.0 118777000000.0 52244700000.0 8178410000.0 5801620000.0 81449100000.0 45186900000.0 42390300000.0 106942000000.0 218435000000.0 333286000000.0 271533000000.0 230215000000.0 106701000000.0 54136800000.0 715069000000.0 147521000000.0 685184000000.0 872533000000.0 881464000000.0 721496000000.0 614936000000.0 456791000000.0 384905000000.0 479690000000.0 556395000000.0 605911000000.0 631597000000.0 637859000000.0 628663000000.0 607282000000.0 577034000000.0 540984000000.0 501161000000.0 458395000000.0 412737000000.0 363932000000.0 311800000000.0 256567000000.0 198903000000.0 139854000000.0 80846800000.0 23490300000.0 30745600000.0 80592100000.0 157815000000.0 107105000000.0 49902500000.0 11021900000.0 73310800000.0 135142000000.0 195094000000.0 252012000000.0 304908000000.0 352933000000.0 395523000000.0 432997000000.0 466544000000.0 497900000000.0 527916000000.0 556791000000.0 585460000000.0 612251000000.0 633596000000.0 647298000000.0 678767000000.0 720588000000.0 530530000000.0 405922000000.0 327694000000.0 362973000000.0 366376000000.0 547140000000.0 687025000000.0 771148000000.0 772515000000.0 622521000000.0 537654000000.0 551299000000.0 584788000000.0 397028000000.0 294087000000.0 239960000000.0 178635000000.0 213965000000.0 103468000000.0 71034700000.0 100877000000.0 17142300000.0 23001200000.0 111012000000.0 19001400000.0 183565000000.0 65488000000.0 15854000000.0 132270000000.0 343375000000.0 319106000000.0 264151000000.0 172514000000.0 28515800000.0 206809000000.0 560152000000.0 264648000000.0 678371000000.0 959146000000.0 938168000000.0 827720000000.0 693307000000.0 587952000000.0 492517000000.0 462461000000.0 508376000000.0 552517000000.0 582403000000.0 596626000000.0 596612000000.0 584355000000.0 562118000000.0 532509000000.0 497748000000.0 459174000000.0 124794000000.0 161918000000.0 190359000000.0 208443000000.0 214559000000.0 207597000000.0 187514000000.0 155436000000.0 113346000000.0 63674800000.0 8873310000.0 48800600000.0 107425000000.0 165466000000.0 221621000000.0 274847000000.0 324442000000.0 369873000000.0 410956000000.0 448470000000.0 484046000000.0 518415000000.0 551212000000.0 582466000000.0 610743000000.0 637747000000.0 666600000000.0 687565000000.0 680706000000.0 572138000000.0 517182000000.0 519341000000.0 330016000000.0 141254000000.0 187678000000.0 448098000000.0 587536000000.0 648126000000.0 664458000000.0 492809000000.0 337368000000.0 454389000000.0 439948000000.0 241422000000.0 271389000000.0 240604000000.0 41449600000.0 46941500000.0 64448100000.0 19674800000.0 143192000000.0 372841000000.0 338257000000.0 423728000000.0 676147000000.0 244733000000.0 412318000000.0 699659000000.0 817876000000.0 870886000000.0 846102000000.0 758968000000.0 658444000000.0 577347000000.0 517353000000.0 499556000000.0 519194000000.0 541550000000.0 417310000000.0 372323000000.0 324408000000.0 273868000000.0 221130000000.0 166852000000.0 112053000000.0 58038600000.0 6148340000.0 42351900000.0 86203900000.0 124069000000.0 154504000000.0 175992000000.0 187101000000.0 186737000000.0 174445000000.0 150681000000.0 116785000000.0 74640500000.0 26368900000.0 25932100000.0 80382400000.0 135423000000.0 189770000000.0 242289000000.0 292122000000.0 338870000000.0 634501000000.0 624049000000.0 669154000000.0 561450000000.0 222512000000.0 60383000000.0 274162000000.0 345764000000.0 493607000000.0 559115000000.0 148236000000.0 340915000000.0 402267000000.0 117226000000.0 215118000000.0 226845000000.0 221923000000.0 86774700000.0 156261000000.0 202733000000.0 58012800000.0 426073000000.0 383342000000.0 557157000000.0 444805000000.0 623309000000.0 605603000000.0 799907000000.0 226633000000.0 594647000000.0 721967000000.0 777742000000.0 760840000000.0 698014000000.0 625507000000.0 556375000000.0 560920000000.0 555127000000.0 539823000000.0 516595000000.0 487303000000.0 453397000000.0 415691000000.0 374647000000.0 330692000000.0 284259000000.0 235811000000.0 185917000000.0 135331000000.0 85037700000.0 36135300000.0 10281500000.0 53063200000.0 90952700000.0 122624000000.0 146708000000.0 161849000000.0 166902000000.0 161225000000.0 144858000000.0 118562000000.0 83737200000.0 42129900000.0 4419130000.0 382457000000.0 423209000000.0 462245000000.0 500519000000.0 537869000000.0 575047000000.0 612707000000.0 646091000000.0 671967000000.0 689298000000.0 683538000000.0 883362000000.0 715946000000.0 483478000000.0 221237000000.0 145185000000.0 244862000000.0 297490000000.0 369318000000.0 328235000000.0 197190000000.0 157162000000.0 22137400000.0 34298400000.0 89246300000.0 22361100000.0 32427200000.0 55452300000.0 506630000000.0 665133000000.0 823823000000.0 751166000000.0 283628000000.0 794110000000.0 781151000000.0 208403000000.0 518874000000.0 642814000000.0 693771000000.0 564981000000.0 523771000000.0 509251000000.0 514190000000.0 521853000000.0 525442000000.0 522434000000.0 511920000000.0 494058000000.0 469953000000.0 440869000000.0 407656000000.0 370791000000.0 330713000000.0 288000000000.0 243333000000.0 197375000000.0 150753000000.0 104213000000.0 58619400000.0 14851300000.0 26164000000.0 63355400000.0 95520000000.0 121386000000.0 139674000000.0 149214000000.0 149162000000.0 54116700000.0 105374000000.0 156906000000.0 207672000000.0 256782000000.0 303678000000.0 348316000000.0 391065000000.0 432613000000.0 473709000000.0 514635000000.0 555818000000.0 598125000000.0 638513000000.0 673749000000.0 702722000000.0 703936000000.0 683639000000.0 688558000000.0 365126000000.0 206521000000.0 242023000000.0 184791000000.0 183091000000.0 328732000000.0 384862000000.0 173672000000.0 531639000000.0 499397000000.0 285859000000.0 80573200000.0 49077600000.0 545670000000.0 407171000000.0 228397000000.0 546437000000.0 779810000000.0 191693000000.0 685067000000.0 642531000000.0 590596000000.0 545390000000.0 513918000000.0 498732000000.0 494683000000.0 492958000000.0 488939000000.0 480353000000.0 466160000000.0 446431000000.0 421870000000.0 393125000000.0 360488000000.0 324295000000.0 285200000000.0 244024000000.0 201546000000.0 158460000000.0 115460000000.0 73254900000.0 32499800000.0 139232000000.0 119804000000.0 91850200000.0 56770800000.0 16154700000.0 28407600000.0 75400800000.0 123492000000.0 171639000000.0 219048000000.0 265136000000.0 309686000000.0 352993000000.0 395702000000.0 438411000000.0 481384000000.0 524819000000.0 569165000000.0 612803000000.0 651291000000.0 680272000000.0 689505000000.0 675014000000.0 604493000000.0 943086000000.0 770859000000.0 616992000000.0 311387000000.0 223602000000.0 94718000000.0 146721000000.0 252990000000.0 276437000000.0 524662000000.0 437622000000.0 196932000000.0 78895400000.0 418758000000.0 273485000000.0 107159000000.0 836812000000.0 290138000000.0 600268000000.0 698557000000.0 673964000000.0 462159000000.0 573516000000.0 618694000000.0 615976000000.0 586918000000.0 549152000000.0 514602000000.0 488922000000.0 473048000000.0 463541000000.0 455776000000.0 446666000000.0 434204000000.0 417538000000.0 396726000000.0 372028000000.0 343553000000.0 311402000000.0 6161900000.0 41948700000.0 73876100000.0 100791000000.0 121444000000.0 134613000000.0 139305000000.0 134971000000.0 121651000000.0 99983500000.0 71064100000.0 36249700000.0 3033400000.0 45415200000.0 89637300000.0 134628000000.0 179584000000.0 223970000000.0 267516000000.0 310317000000.0 352827000000.0 395612000000.0 438949000000.0 482637000000.0 526364000000.0 569577000000.0 608689000000.0 636669000000.0 642153000000.0 614921000000.0 502251000000.0 900541000000.0 776237000000.0 687340000000.0 520772000000.0 304679000000.0 86780800000.0 46664800000.0 98260300000.0 212411000000.0 279938000000.0 466411000000.0 335609000000.0 73490300000.0 35177600000.0 302569000000.0 185730000000.0 40261000000.0 400542000000.0 504304000000.0 573979000000.0 646195000000.0 581410000000.0 185281000000.0 410070000000.0 506980000000.0 547806000000.0 549570000000.0 529698000000.0 501044000000.0 473211000000.0 451078000000.0 434935000000.0 422573000000.0 275980000000.0 238090000000.0 198669000000.0 158628000000.0 118790000000.0 79840000000.0 42265700000.0 6408800000.0 27321200000.0 58274400000.0 85513700000.0 107848000000.0 123963000000.0 132658000000.0 133133000000.0 125169000000.0 109138000000.0 85885900000.0 56556500000.0 22417000000.0 15278000000.0 55364600000.0 96825300000.0 138853000000.0 180891000000.0 222631000000.0 815479000000.0 762196000000.0 692066000000.0 620849000000.0 431864000000.0 507870000000.0 186083000000.0 126832000000.0 243860000000.0 382817000000.0 522296000000.0 20705800000.0 322482000000.0 423642000000.0 509106000000.0 189043000000.0 292217000000.0 504315000000.0 177289000000.0 362621000000.0 444108000000.0 479498000000.0 483740000000.0 411409000000.0 399081000000.0 384012000000.0 365777000000.0 344478000000.0 320019000000.0 291964000000.0 260262000000.0 225593000000.0 188963000000.0 151528000000.0 114342000000.0 78263800000.0 43799800000.0 11062000000.0 19988200000.0 49207600000.0 76036400000.0 99422700000.0 117939000000.0 130097000000.0 134761000000.0 131443000000.0 120336000000.0 102139000000.0 77833400000.0 264047000000.0 305389000000.0 347034000000.0 389208000000.0 431711000000.0 473773000000.0 514107000000.0 549859000000.0 575346000000.0 579251000000.0 547621000000.0 423298000000.0 702624000000.0 711059000000.0 649243000000.0 553023000000.0 370574000000.0 534115000000.0 236408000000.0 101800000000.0 554471000.0 10866600000.0 194777000000.0 330264000000.0 498085000000.0 439124000000.0 183681000000.0 340308000000.0 548662000000.0 575058000000.0 490668000000.0 164322000000.0 468387000000.0 444991000000.0 422270000000.0 403120000000.0 387451000000.0 374003000000.0 360868000000.0 346426000000.0 329798000000.0 311055000000.0 290037000000.0 265786000000.0 237868000000.0 206557000000.0 172676000000.0 137534000000.0 102428000000.0 68581800000.0 36807900000.0 7253970000.0 20544200000.0 47165200000.0 72724200000.0 96524200000.0 117049000000.0 48535300000.0 15383500000.0 20549100000.0 58310800000.0 97117400000.0 136395000000.0 175792000000.0 215168000000.0 254598000000.0 294292000000.0 334368000000.0 374569000000.0 413985000000.0 450913000000.0 482716000000.0 504882000000.0 507697000000.0 477700000000.0 361531000000.0 583695000000.0 337203000000.0 208719000000.0 42096800000.0 82323400000.0 54996400000.0 437470000000.0 393774000000.0 213778000000.0 16861600000.0 240228000000.0 245480000000.0 302341000000.0 350771000000.0 434885000000.0 504580000000.0 516079000000.0 408855000000.0 316851000000.0 385023000000.0 414476000000.0 415950000000.0 401128000000.0 381537000000.0 363265000000.0 347393000000.0 333265000000.0 319508000000.0 304589000000.0 288855000000.0 272596000000.0 254388000000.0 233188000000.0 208913000000.0 181023000000.0 149953000000.0 116980000000.0 83550300000.0 51228100000.0 132369000000.0 140820000000.0 141558000000.0 134660000000.0 120807000000.0 100917000000.0 75997800000.0 47076800000.0 15128200000.0 18971400000.0 54472700000.0 90792400000.0 127538000000.0 164489000000.0 201572000000.0 238813000000.0 276206000000.0 313487000000.0 349863000000.0 383645000000.0 412062000000.0 431165000000.0 434282000000.0 410059000000.0 312694000000.0 583641000000.0 639256000000.0 600110000000.0 508433000000.0 331320000000.0 222463000000.0 178182000000.0 42207900000.0 7923390000.0 51479500000.0 236635000000.0 311264000000.0 141260000000.0 88405600000.0 68506700000.0 436687000000.0 249648000000.0 310502000000.0 366433000000.0 422841000000.0 424433000000.0 319152000000.0 147562000000.0 272273000000.0 327553000000.0 347122000000.0 342213000000.0 326978000000.0 311570000000.0 298587000000.0 286873000000.0 274103000000.0 259304000000.0 243349000000.0 227759000000.0 212275000000.0 195020000000.0 21347300000.0 5499290000.0 29773400000.0 52833200000.0 75965400000.0 99344800000.0 121567000000.0 140061000000.0 152233000000.0 156621000000.0 153232000000.0 142941000000.0 126737000000.0 105586000000.0 80419500000.0 52116500000.0 21472100000.0 10820900000.0 44189700000.0 78206200000.0 112586000000.0 147150000000.0 181772000000.0 216304000000.0 250427000000.0 283467000000.0 314171000000.0 340279000000.0 358293000000.0 363178000000.0 346790000000.0 271342000000.0 468318000000.0 550999000000.0 536556000000.0 463242000000.0 301474000000.0 491975000000.0 357148000000.0 107012000000.0 47210800000.0 1876030000.0 58758300000.0 363451000000.0 393186000000.0 312925000000.0 212582000000.0 258907000000.0 294901000000.0 338798000000.0 129272000000.0 230754000000.0 268244000000.0 272492000000.0 260677000000.0 247240000000.0 237824000000.0 174318000000.0 149343000000.0 120955000000.0 90165200000.0 58325300000.0 27073100000.0 1893300000.0 27161400000.0 48508600000.0 67335700000.0 86443000000.0 107989000000.0 131465000000.0 153530000000.0 169892000000.0 177830000000.0 177260000000.0 169660000000.0 156295000000.0 138173000000.0 116152000000.0 91006000000.0 63444700000.0 34097500000.0 362220000000.0 452638000000.0 458314000000.0 407858000000.0 272576000000.0 391900000000.0 321212000000.0 218879000000.0 154084000000.0 34489400000.0 7456450000.0 304264000000.0 236368000000.0 54141100000.0 6491330000.0 184198000000.0 249542000000.0 234490000000.0 319254000000.0 239969000000.0 111231000000.0 231249000000.0 223579000000.0 211480000000.0 195632000000.0 178319000000.0 161516000000.0 147498000000.0 132353000000.0 111794000000.0 86262100000.0 57570900000.0 27323000000.0 2882450000.0 31349800000.0 56413300000.0 76617500000.0 92181700000.0 105775000000.0 122930000000.0 146416000000.0 172747000000.0 194640000000.0 206561000000.0 3501310000.0 27908800000.0 59799200000.0 91911900000.0 124015000000.0 155842000000.0 186998000000.0 216840000000.0 244398000000.0 268357000000.0 286344000000.0 294563000000.0 287352000000.0 233406000000.0 239329000000.0 310844000000.0 271999000000.0 200633000000.0 150094000000.0 96195000000.0 95554600000.0 6492610000.0 11253300000.0 100418000000.0 170716000000.0 174750000000.0 201063000000.0 240338000000.0 252028000000.0 241258000000.0 170643000000.0 186484000000.0 198876000000.0 186948000000.0 173789000000.0 164902000000.0 163668000000.0 165698000000.0 162962000000.0 149579000000.0 126878000000.0 106038000000.0 91136700000.0 78011800000.0 62565900000.0 42334400000.0 18349800000.0 9041180000.0 37742000000.0 65339500000.0 90173000000.0 111477000000.0 127129000000.0 208070000000.0 202158000000.0 190660000000.0 174711000000.0 155114000000.0 132527000000.0 107547000000.0 80722500000.0 52547400000.0 23448300000.0 6217900000.0 36147300000.0 66044500000.0 95567900000.0 124266000000.0 151492000000.0 176357000000.0 197903000000.0 215593000000.0 227517000000.0 229701000000.0 196518000000.0 269047000000.0 353811000000.0 370591000000.0 340348000000.0 225167000000.0 221235000000.0 157899000000.0 133825000000.0 92377100000.0 79702100000.0 49045000000.0 73577900000.0 217233000000.0 181047000000.0 15412000000.0 169128000000.0 131000000000.0 154147000000.0 163534000000.0 173060000000.0 148399000000.0 99885000000.0 88236800000.0 128915000000.0 111096000000.0 97222300000.0 89728400000.0 84327700000.0 96482000000.0 109418000000.0 103505000000.0 79729100000.0 52604100000.0 29194500000.0 14602300000.0 1345590000.0 16812100000.0 35206100000.0 136938000000.0 146330000000.0 166245000000.0 197147000000.0 227249000000.0 244586000000.0 247123000000.0 241644000000.0 230917000000.0 216216000000.0 198251000000.0 177536000000.0 154534000000.0 129692000000.0 103440000000.0 76183500000.0 48294300000.0 20108000000.0 8048920000.0 35811900000.0 62722700000.0 88163600000.0 111297000000.0 131141000000.0 147179000000.0 161286000000.0 172190000000.0 158701000000.0 188494000000.0 260161000000.0 281084000000.0 266992000000.0 199985000000.0 65538500000.0 39616000000.0 49735200000.0 23220100000.0 97636800000.0 41916400000.0 101868000000.0 102476000000.0 97618000000.0 99418000000.0 114589000000.0 112117000000.0 39379900000.0 38504400000.0 23101100000.0 23185200000.0 16401600000.0 6648720000.0 39712800000.0 54599100000.0 77884900000.0 103076000000.0 125688000000.0 146403000000.0 167216000000.0 179547000000.0 184486000000.0 193651000000.0 225658000000.0 268206000000.0 294560000000.0 295934000000.0 289162000000.0 278023000000.0 263679000000.0 246588000000.0 227049000000.0 205356000000.0 181847000000.0 156889000000.0 130858000000.0 104130000000.0 77069400000.0 118550000000.0 172941000000.0 193633000000.0 191141000000.0 153880000000.0 150702000000.0 162027000000.0 121210000000.0 94617000000.0 80576400000.0 46422100000.0 30007500000.0 62875800000.0 14742200000.0 7679790000.0 34976700000.0 36071300000.0 78404700000.0 44498500000.0 77097300000.0 54985300000.0 33405800000.0 10836100000.0 24283700000.0 54791100000.0 75489400000.0 93834700000.0 104517000000.0 117392000000.0 127392000000.0 145478000000.0 162950000000.0 176333000000.0 198075000000.0 224563000000.0 235412000000.0 243821000000.0 262193000000.0 316749000000.0 360765000000.0 355371000000.0 344988000000.0 332474000000.0 50030700000.0 23382700000.0 2449220000.0 26936800000.0 49393300000.0 68924300000.0 84579600000.0 96497500000.0 112528000000.0 117820000000.0 56613900000.0 92101300000.0 108993000000.0 115348000000.0 101787000000.0 85255700000.0 100264000000.0 78497300000.0 60979200000.0 49183100000.0 53595900000.0 42836200000.0 7821630000.0 3152330000.0 39957600000.0 41900800000.0 48908700000.0 46610600000.0 34917400000.0 53273300000.0 21043500000.0 22634100000.0 27860600000.0 43109900000.0 75784600000.0 13342000000.0 15973200000.0 20311800000.0 45639200000.0 98320900000.0 165474000000.0 202676000000.0 198766000000.0 199875000000.0 198932000000.0 192848000000.0 200478000000.0 200549000000.0 213568000000.0 239317000000.0 280015000000.0 307004000000.0 317932000000.0 301203000000.0 282255000000.0 261208000000.0 238307000000.0 213876000000.0 188286000000.0 161927000000.0 135196000000.0 108480000000.0 82170800000.0 56671200000.0 32409000000.0 9850610000.0 10460600000.0 27832200000.0 41367300000.0 50822800000.0 70329300000.0 24460500000.0 37840700000.0 30571700000.0 24153100000.0 21111200000.0 17916700000.0 13329300000.0 51637100000.0 72510200000.0 67504500000.0 33680600000.0 17843500000.0 23620200000.0 41160800000.0 34475000000.0 7901940000.0 23653800000.0 33535900000.0 350365000000.0 374424000000.0 446330000000.0 421444000000.0 406753000000.0 393672000000.0 379509000000.0 363263000000.0 344629000000.0 323649000000.0 300570000000.0 275752000000.0 249619000000.0 222617000000.0 195195000000.0 167799000000.0 140861000000.0 114802000000.0 90021700000.0 66871500000.0 45577200000.0 26081300000.0 7798790000.0 10640200000.0 30766000000.0 1575550000.0 13642400000.0 27325700000.0 37487000000.0 42810900000.0 48310700000.0 92825900000.0 152492000000.0 200827000000.0 224765000000.0 227197000000.0 203408000000.0 143810000000.0 65896000000.0 8569510000.0 