# vtk DataFile Version 2.0
Time step 32
ASCII
DATASET UNSTRUCTURED_GRID
POINTS 4650 float
103135.0 437893.0 0
106916.0 435524.0 0
110669.0 434476.0 0
114585.0 434575.0 0
118511.0 434568.0 0
122448.0 434563.0 0
126393.0 434561.0 0
130346.0 434559.0 0
134306.0 434557.0 0
138272.0 434556.0 0
142243.0 434555.0 0
146215.0 434554.0 0
150189.0 434554.0 0
154164.0 434553.0 0
158142.0 434553.0 0
162122.0 434553.0 0
166103.0 434552.0 0
170087.0 434552.0 0
174073.0 434552.0 0
178061.0 434552.0 0
182050.0 434552.0 0
186041.0 434552.0 0
190033.0 434551.0 0
194026.0 434551.0 0
198020.0 434551.0 0
202016.0 434551.0 0
206012.0 434551.0 0
210009.0 434551.0 0
214007.0 434551.0 0
218005.0 434551.0 0
222003.0 434551.0 0
226002.0 434551.0 0
230002.0 434551.0 0
234001.0 434551.0 0
238001.0 434551.0 0
242000.0 434551.0 0
246000.0 434551.0 0
250000.0 434551.0 0
254000.0 434551.0 0
258000.0 434551.0 0
261999.0 434551.0 0
265999.0 434551.0 0
269998.0 434551.0 0
273998.0 434551.0 0
277997.0 434551.0 0
281995.0 434551.0 0
285993.0 434551.0 0
289991.0 434551.0 0
293988.0 434551.0 0
297984.0 434551.0 0
301980.0 434551.0 0
305974.0 434551.0 0
309967.0 434551.0 0
313959.0 434552.0 0
317950.0 434552.0 0
321939.0 434552.0 0
325927.0 434552.0 0
329913.0 434552.0 0
333897.0 434552.0 0
337878.0 434553.0 0
341858.0 434553.0 0
345836.0 434553.0 0
349811.0 434554.0 0
353785.0 434554.0 0
357757.0 434555.0 0
361728.0 434556.0 0
365694.0 434557.0 0
369654.0 434559.0 0
373607.0 434561.0 0
377552.0 434563.0 0
381489.0 434568.0 0
385415.0 434575.0 0
389331.0 434476.0 0
393084.0 435524.0 0
396865.0 437893.0 0
99747.1 440002.0 0
106789.0 439349.0 0
110604.0 438483.0 0
114522.0 438583.0 0
118445.0 438571.0 0
122376.0 438566.0 0
126312.0 438562.0 0
130255.0 438558.0 0
134203.0 438556.0 0
138159.0 438554.0 0
142122.0 438553.0 0
146091.0 438553.0 0
150067.0 438552.0 0
154048.0 438552.0 0
158033.0 438552.0 0
162022.0 438551.0 0
166014.0 438551.0 0
170009.0 438551.0 0
174005.0 438551.0 0
178003.0 438551.0 0
182001.0 438551.0 0
186001.0 438551.0 0
190000.0 438551.0 0
194000.0 438551.0 0
198000.0 438551.0 0
202000.0 438551.0 0
206000.0 438551.0 0
210000.0 438551.0 0
214000.0 438551.0 0
218000.0 438551.0 0
222000.0 438551.0 0
226000.0 438551.0 0
230000.0 438551.0 0
234000.0 438551.0 0
238000.0 438551.0 0
242000.0 438551.0 0
246000.0 438551.0 0
250000.0 438551.0 0
254000.0 438551.0 0
258000.0 438551.0 0
262000.0 438551.0 0
266000.0 438551.0 0
270000.0 438551.0 0
274000.0 438551.0 0
278000.0 438551.0 0
282000.0 438551.0 0
286000.0 438551.0 0
290000.0 438551.0 0
294000.0 438551.0 0
298000.0 438551.0 0
302000.0 438551.0 0
306000.0 438551.0 0
310000.0 438551.0 0
313999.0 438551.0 0
317999.0 438551.0 0
321997.0 438551.0 0
325995.0 438551.0 0
329991.0 438551.0 0
333986.0 438551.0 0
337978.0 438551.0 0
341967.0 438552.0 0
345952.0 438552.0 0
349933.0 438552.0 0
353909.0 438553.0 0
357878.0 438553.0 0
361841.0 438554.0 0
365797.0 438556.0 0
369745.0 438558.0 0
373688.0 438562.0 0
377624.0 438566.0 0
381555.0 438571.0 0
385478.0 438583.0 0
389396.0 438483.0 0
393211.0 439349.0 0
400253.0 440002.0 0
102158.0 442999.0 0
106095.0 443103.0 0
110046.0 442562.0 0
114046.0 442554.0 0
118044.0 442554.0 0
122043.0 442553.0 0
126041.0 442553.0 0
130038.0 442553.0 0
134035.0 442552.0 0
138032.0 442552.0 0
142029.0 442552.0 0
146025.0 442552.0 0
150022.0 442552.0 0
154018.0 442551.0 0
158015.0 442551.0 0
162013.0 442551.0 0
166010.0 442551.0 0
170008.0 442551.0 0
174006.0 442551.0 0
178005.0 442551.0 0
182003.0 442551.0 0
186003.0 442551.0 0
190002.0 442551.0 0
194001.0 442551.0 0
198001.0 442551.0 0
202001.0 442551.0 0
206000.0 442551.0 0
210000.0 442551.0 0
214000.0 442551.0 0
218000.0 442551.0 0
222000.0 442551.0 0
226000.0 442551.0 0
230000.0 442551.0 0
234000.0 442551.0 0
238000.0 442551.0 0
242000.0 442551.0 0
246000.0 442551.0 0
250000.0 442551.0 0
254000.0 442551.0 0
258000.0 442551.0 0
262000.0 442551.0 0
266000.0 442551.0 0
270000.0 442551.0 0
274000.0 442551.0 0
278000.0 442551.0 0
282000.0 442551.0 0
286000.0 442551.0 0
290000.0 442551.0 0
294000.0 442551.0 0
297999.0 442551.0 0
301999.0 442551.0 0
305999.0 442551.0 0
309998.0 442551.0 0
313997.0 442551.0 0
317997.0 442551.0 0
321995.0 442551.0 0
325994.0 442551.0 0
329992.0 442551.0 0
333990.0 442551.0 0
337987.0 442551.0 0
341985.0 442551.0 0
345982.0 442551.0 0
349978.0 442552.0 0
353975.0 442552.0 0
357971.0 442552.0 0
361968.0 442552.0 0
365965.0 442552.0 0
369962.0 442553.0 0
373959.0 442553.0 0
377957.0 442553.0 0
381956.0 442554.0 0
385954.0 442554.0 0
389954.0 442562.0 0
393905.0 443103.0 0
397842.0 442999.0 0
101878.0 446898.0 0
105921.0 446953.0 0
109998.0 446561.0 0
114000.0 446553.0 0
118000.0 446554.0 0
122000.0 446553.0 0
126000.0 446553.0 0
130000.0 446552.0 0
134000.0 446552.0 0
138000.0 446552.0 0
142000.0 446552.0 0
146000.0 446552.0 0
150000.0 446551.0 0
154000.0 446551.0 0
158000.0 446551.0 0
162000.0 446551.0 0
166000.0 446551.0 0
170000.0 446551.0 0
174000.0 446551.0 0
178000.0 446551.0 0
182000.0 446551.0 0
186000.0 446551.0 0
190000.0 446551.0 0
194000.0 446551.0 0
198000.0 446551.0 0
202000.0 446551.0 0
206000.0 446551.0 0
210000.0 446551.0 0
214000.0 446551.0 0
218000.0 446551.0 0
222000.0 446551.0 0
226000.0 446551.0 0
230000.0 446551.0 0
234000.0 446551.0 0
238000.0 446551.0 0
242000.0 446551.0 0
246000.0 446551.0 0
250000.0 446551.0 0
254000.0 446551.0 0
258000.0 446551.0 0
262000.0 446551.0 0
266000.0 446551.0 0
270000.0 446551.0 0
274000.0 446551.0 0
278000.0 446551.0 0
282000.0 446551.0 0
286000.0 446551.0 0
290000.0 446551.0 0
294000.0 446551.0 0
298000.0 446551.0 0
302000.0 446551.0 0
306000.0 446551.0 0
310000.0 446551.0 0
314000.0 446551.0 0
318000.0 446551.0 0
322000.0 446551.0 0
326000.0 446551.0 0
330000.0 446551.0 0
334000.0 446551.0 0
338000.0 446551.0 0
342000.0 446551.0 0
346000.0 446551.0 0
350000.0 446551.0 0
354000.0 446552.0 0
358000.0 446552.0 0
362000.0 446552.0 0
366000.0 446552.0 0
370000.0 446552.0 0
374000.0 446553.0 0
378000.0 446553.0 0
382000.0 446554.0 0
386000.0 446553.0 0
390002.0 446561.0 0
394079.0 446953.0 0
398122.0 446898.0 0
102014.0 450830.0 0
106016.0 450840.0 0
110005.0 450560.0 0
114004.0 450553.0 0
118003.0 450553.0 0
122003.0 450553.0 0
126002.0 450553.0 0
130002.0 450552.0 0
134002.0 450552.0 0
138001.0 450552.0 0
142001.0 450552.0 0
146001.0 450551.0 0
150000.0 450551.0 0
154000.0 450551.0 0
158000.0 450551.0 0
162000.0 450551.0 0
166000.0 450551.0 0
170000.0 450551.0 0
174000.0 450551.0 0
178000.0 450551.0 0
182000.0 450551.0 0
186000.0 450551.0 0
190000.0 450551.0 0
194000.0 450551.0 0
198000.0 450551.0 0
202000.0 450551.0 0
206000.0 450551.0 0
210000.0 450551.0 0
214000.0 450551.0 0
218000.0 450551.0 0
222000.0 450551.0 0
226000.0 450551.0 0
230000.0 450551.0 0
234000.0 450551.0 0
238000.0 450551.0 0
242000.0 450551.0 0
246000.0 450551.0 0
250000.0 450551.0 0
254000.0 450551.0 0
258000.0 450551.0 0
262000.0 450551.0 0
266000.0 450551.0 0
270000.0 450551.0 0
274000.0 450551.0 0
278000.0 450551.0 0
282000.0 450551.0 0
286000.0 450551.0 0
290000.0 450551.0 0
294000.0 450551.0 0
298000.0 450551.0 0
302000.0 450551.0 0
306000.0 450551.0 0
310000.0 450551.0 0
314000.0 450551.0 0
318000.0 450551.0 0
322000.0 450551.0 0
326000.0 450551.0 0
330000.0 450551.0 0
334000.0 450551.0 0
338000.0 450551.0 0
342000.0 450551.0 0
346000.0 450551.0 0
350000.0 450551.0 0
353999.0 450551.0 0
357999.0 450552.0 0
361999.0 450552.0 0
365998.0 450552.0 0
369998.0 450552.0 0
373998.0 450553.0 0
377997.0 450553.0 0
381997.0 450553.0 0
385996.0 450553.0 0
389995.0 450560.0 0
393984.0 450840.0 0
397986.0 450830.0 0
101995.0 454790.0 0
105998.0 454757.0 0
110000.0 454560.0 0
114000.0 454553.0 0
118000.0 454553.0 0
122000.0 454553.0 0
126000.0 454552.0 0
130000.0 454552.0 0
134000.0 454552.0 0
138000.0 454552.0 0
142000.0 454551.0 0
146000.0 454551.0 0
150000.0 454551.0 0
154000.0 454551.0 0
158000.0 454551.0 0
162000.0 454551.0 0
166000.0 454551.0 0
170000.0 454551.0 0
174000.0 454551.0 0
178000.0 454551.0 0
182000.0 454551.0 0
186000.0 454551.0 0
190000.0 454551.0 0
194000.0 454551.0 0
198000.0 454551.0 0
202000.0 454551.0 0
206000.0 454551.0 0
210000.0 454551.0 0
214000.0 454551.0 0
218000.0 454551.0 0
222000.0 454551.0 0
226000.0 454551.0 0
230000.0 454551.0 0
234000.0 454551.0 0
238000.0 454551.0 0
242000.0 454551.0 0
246000.0 454551.0 0
250000.0 454551.0 0
254000.0 454551.0 0
258000.0 454551.0 0
262000.0 454551.0 0
266000.0 454551.0 0
270000.0 454551.0 0
274000.0 454551.0 0
278000.0 454551.0 0
282000.0 454551.0 0
286000.0 454551.0 0
290000.0 454551.0 0
294000.0 454551.0 0
298000.0 454551.0 0
302000.0 454551.0 0
306000.0 454551.0 0
310000.0 454551.0 0
314000.0 454551.0 0
318000.0 454551.0 0
322000.0 454551.0 0
326000.0 454551.0 0
330000.0 454551.0 0
334000.0 454551.0 0
338000.0 454551.0 0
342000.0 454551.0 0
346000.0 454551.0 0
350000.0 454551.0 0
354000.0 454551.0 0
358000.0 454551.0 0
362000.0 454552.0 0
366000.0 454552.0 0
370000.0 454552.0 0
374000.0 454552.0 0
378000.0 454553.0 0
382000.0 454553.0 0
386000.0 454553.0 0
390000.0 454560.0 0
394002.0 454757.0 0
398005.0 454790.0 0
102001.0 458764.0 0
106000.0 458695.0 0
110000.0 458559.0 0
114000.0 458553.0 0
118000.0 458553.0 0
122000.0 458552.0 0
126000.0 458552.0 0
130000.0 458552.0 0
134000.0 458552.0 0
138000.0 458552.0 0
142000.0 458551.0 0
146000.0 458551.0 0
150000.0 458551.0 0
154000.0 458551.0 0
158000.0 458551.0 0
162000.0 458551.0 0
166000.0 458551.0 0
170000.0 458551.0 0
174000.0 458551.0 0
178000.0 458551.0 0
182000.0 458551.0 0
186000.0 458551.0 0
190000.0 458551.0 0
194000.0 458551.0 0
198000.0 458551.0 0
202000.0 458551.0 0
206000.0 458551.0 0
210000.0 458551.0 0
214000.0 458551.0 0
218000.0 458551.0 0
222000.0 458551.0 0
226000.0 458551.0 0
230000.0 458551.0 0
234000.0 458551.0 0
238000.0 458551.0 0
242000.0 458551.0 0
246000.0 458551.0 0
250000.0 458551.0 0
254000.0 458551.0 0
258000.0 458551.0 0
262000.0 458551.0 0
266000.0 458551.0 0
270000.0 458551.0 0
274000.0 458551.0 0
278000.0 458551.0 0
282000.0 458551.0 0
286000.0 458551.0 0
290000.0 458551.0 0
294000.0 458551.0 0
298000.0 458551.0 0
302000.0 458551.0 0
306000.0 458551.0 0
310000.0 458551.0 0
314000.0 458551.0 0
318000.0 458551.0 0
322000.0 458551.0 0
326000.0 458551.0 0
330000.0 458551.0 0
334000.0 458551.0 0
338000.0 458551.0 0
342000.0 458551.0 0
346000.0 458551.0 0
350000.0 458551.0 0
354000.0 458551.0 0
358000.0 458551.0 0
362000.0 458552.0 0
366000.0 458552.0 0
370000.0 458552.0 0
374000.0 458552.0 0
378000.0 458552.0 0
382000.0 458553.0 0
386000.0 458553.0 0
390000.0 458559.0 0
394000.0 458695.0 0
397999.0 458764.0 0
102000.0 462743.0 0
106000.0 462649.0 0
110000.0 462558.0 0
114000.0 462553.0 0
118000.0 462553.0 0
122000.0 462552.0 0
126000.0 462552.0 0
130000.0 462552.0 0
134000.0 462552.0 0
138000.0 462551.0 0
142000.0 462551.0 0
146000.0 462551.0 0
150000.0 462551.0 0
154000.0 462551.0 0
158000.0 462551.0 0
162000.0 462551.0 0
166000.0 462551.0 0
170000.0 462551.0 0
174000.0 462551.0 0
178000.0 462551.0 0
182000.0 462551.0 0
186000.0 462551.0 0
190000.0 462551.0 0
194000.0 462551.0 0
198000.0 462551.0 0
202000.0 462551.0 0
206000.0 462551.0 0
210000.0 462551.0 0
214000.0 462551.0 0
218000.0 462551.0 0
222000.0 462551.0 0
226000.0 462551.0 0
230000.0 462551.0 0
234000.0 462551.0 0
238000.0 462551.0 0
242000.0 462551.0 0
246000.0 462551.0 0
250000.0 462551.0 0
254000.0 462551.0 0
258000.0 462551.0 0
262000.0 462551.0 0
266000.0 462551.0 0
270000.0 462551.0 0
274000.0 462551.0 0
278000.0 462551.0 0
282000.0 462551.0 0
286000.0 462551.0 0
290000.0 462551.0 0
294000.0 462551.0 0
298000.0 462551.0 0
302000.0 462551.0 0
306000.0 462551.0 0
310000.0 462551.0 0
314000.0 462551.0 0
318000.0 462551.0 0
322000.0 462551.0 0
326000.0 462551.0 0
330000.0 462551.0 0
334000.0 462551.0 0
338000.0 462551.0 0
342000.0 462551.0 0
346000.0 462551.0 0
350000.0 462551.0 0
354000.0 462551.0 0
358000.0 462551.0 0
362000.0 462551.0 0
366000.0 462552.0 0
370000.0 462552.0 0
374000.0 462552.0 0
378000.0 462552.0 0
382000.0 462553.0 0
386000.0 462553.0 0
390000.0 462558.0 0
394000.0 462649.0 0
398000.0 462743.0 0
102000.0 466722.0 0
106000.0 466617.0 0
110000.0 466557.0 0
114000.0 466552.0 0
118000.0 466552.0 0
122000.0 466552.0 0
126000.0 466552.0 0
130000.0 466552.0 0
134000.0 466551.0 0
138000.0 466551.0 0
142000.0 466551.0 0
146000.0 466551.0 0
150000.0 466551.0 0
154000.0 466551.0 0
158000.0 466551.0 0
162000.0 466551.0 0
166000.0 466551.0 0
170000.0 466551.0 0
174000.0 466551.0 0
178000.0 466551.0 0
182000.0 466551.0 0
186000.0 466551.0 0
190000.0 466551.0 0
194000.0 466551.0 0
198000.0 466551.0 0
202000.0 466551.0 0
206000.0 466551.0 0
210000.0 466551.0 0
214000.0 466551.0 0
218000.0 466551.0 0
222000.0 466551.0 0
226000.0 466551.0 0
230000.0 466551.0 0
234000.0 466551.0 0
238000.0 466551.0 0
242000.0 466551.0 0
246000.0 466551.0 0
250000.0 466551.0 0
254000.0 466551.0 0
258000.0 466551.0 0
262000.0 466551.0 0
266000.0 466551.0 0
270000.0 466551.0 0
274000.0 466551.0 0
278000.0 466551.0 0
282000.0 466551.0 0
286000.0 466551.0 0
290000.0 466551.0 0
294000.0 466551.0 0
298000.0 466551.0 0
302000.0 466551.0 0
306000.0 466551.0 0
310000.0 466551.0 0
314000.0 466551.0 0
318000.0 466551.0 0
322000.0 466551.0 0
326000.0 466551.0 0
330000.0 466551.0 0
334000.0 466551.0 0
338000.0 466551.0 0
342000.0 466551.0 0
346000.0 466551.0 0
350000.0 466551.0 0
354000.0 466551.0 0
358000.0 466551.0 0
362000.0 466551.0 0
366000.0 466551.0 0
370000.0 466552.0 0
374000.0 466552.0 0
378000.0 466552.0 0
382000.0 466552.0 0
386000.0 466552.0 0
390000.0 466557.0 0
394000.0 466617.0 0
398000.0 466722.0 0
102000.0 470701.0 0
106000.0 470596.0 0
110000.0 470556.0 0
114000.0 470552.0 0
118000.0 470552.0 0
122000.0 470552.0 0
126000.0 470552.0 0
130000.0 470551.0 0
134000.0 470551.0 0
138000.0 470551.0 0
142000.0 470551.0 0
146000.0 470551.0 0
150000.0 470551.0 0
154000.0 470551.0 0
158000.0 470551.0 0
162000.0 470551.0 0
166000.0 470551.0 0
170000.0 470551.0 0
174000.0 470551.0 0
178000.0 470551.0 0
182000.0 470551.0 0
186000.0 470551.0 0
190000.0 470551.0 0
194000.0 470551.0 0
198000.0 470551.0 0
202000.0 470551.0 0
206000.0 470551.0 0
210000.0 470551.0 0
214000.0 470551.0 0
218000.0 470551.0 0
222000.0 470551.0 0
226000.0 470551.0 0
230000.0 470551.0 0
234000.0 470551.0 0
238000.0 470551.0 0
242000.0 470551.0 0
246000.0 470551.0 0
250000.0 470551.0 0
254000.0 470551.0 0
258000.0 470551.0 0
262000.0 470551.0 0
266000.0 470551.0 0
270000.0 470551.0 0
274000.0 470551.0 0
278000.0 470551.0 0
282000.0 470551.0 0
286000.0 470551.0 0
290000.0 470551.0 0
294000.0 470551.0 0
298000.0 470551.0 0
302000.0 470551.0 0
306000.0 470551.0 0
310000.0 470551.0 0
314000.0 470551.0 0
318000.0 470551.0 0
322000.0 470551.0 0
326000.0 470551.0 0
330000.0 470551.0 0
334000.0 470551.0 0
338000.0 470551.0 0
342000.0 470551.0 0
346000.0 470551.0 0
350000.0 470551.0 0
354000.0 470551.0 0
358000.0 470551.0 0
362000.0 470551.0 0
366000.0 470551.0 0
370000.0 470551.0 0
374000.0 470552.0 0
378000.0 470552.0 0
382000.0 470552.0 0
386000.0 470552.0 0
390000.0 470556.0 0
394000.0 470596.0 0
398000.0 470701.0 0
102000.0 474680.0 0
106000.0 474581.0 0
110000.0 474555.0 0
114000.0 474552.0 0
118000.0 474552.0 0
122000.0 474552.0 0
126000.0 474552.0 0
130000.0 474551.0 0
134000.0 474551.0 0
138000.0 474551.0 0
142000.0 474551.0 0
146000.0 474551.0 0
150000.0 474551.0 0
154000.0 474551.0 0
158000.0 474551.0 0
162000.0 474551.0 0
166000.0 474551.0 0
170000.0 474551.0 0
174000.0 474551.0 0
178000.0 474551.0 0
182000.0 474551.0 0
186000.0 474551.0 0
190000.0 474551.0 0
194000.0 474551.0 0
198000.0 474551.0 0
202000.0 474551.0 0
206000.0 474551.0 0
210000.0 474551.0 0
214000.0 474551.0 0
218000.0 474551.0 0
222000.0 474551.0 0
226000.0 474551.0 0
230000.0 474551.0 0
234000.0 474551.0 0
238000.0 474551.0 0
242000.0 474551.0 0
246000.0 474551.0 0
250000.0 474551.0 0
254000.0 474551.0 0
258000.0 474551.0 0
262000.0 474551.0 0
266000.0 474551.0 0
270000.0 474551.0 0
274000.0 474551.0 0
278000.0 474551.0 0
282000.0 474551.0 0
286000.0 474551.0 0
290000.0 474551.0 0
294000.0 474551.0 0
298000.0 474551.0 0
302000.0 474551.0 0
306000.0 474551.0 0
310000.0 474551.0 0
314000.0 474551.0 0
318000.0 474551.0 0
322000.0 474551.0 0
326000.0 474551.0 0
330000.0 474551.0 0
334000.0 474551.0 0
338000.0 474551.0 0
342000.0 474551.0 0
346000.0 474551.0 0
350000.0 474551.0 0
354000.0 474551.0 0
358000.0 474551.0 0
362000.0 474551.0 0
366000.0 474551.0 0
370000.0 474551.0 0
374000.0 474552.0 0
378000.0 474552.0 0
382000.0 474552.0 0
386000.0 474552.0 0
390000.0 474555.0 0
394000.0 474581.0 0
398000.0 474680.0 0
102000.0 478661.0 0
106000.0 478570.0 0
110000.0 478554.0 0
114000.0 478552.0 0
118000.0 478552.0 0
122000.0 478552.0 0
126000.0 478551.0 0
130000.0 478551.0 0
134000.0 478551.0 0
138000.0 478551.0 0
142000.0 478551.0 0
146000.0 478551.0 0
150000.0 478551.0 0
154000.0 478551.0 0
158000.0 478551.0 0
162000.0 478551.0 0
166000.0 478551.0 0
170000.0 478551.0 0
174000.0 478551.0 0
178000.0 478551.0 0
182000.0 478551.0 0
186000.0 478551.0 0
190000.0 478551.0 0
194000.0 478551.0 0
198000.0 478551.0 0
202000.0 478551.0 0
206000.0 478551.0 0
210000.0 478551.0 0
214000.0 478551.0 0
218000.0 478551.0 0
222000.0 478551.0 0
226000.0 478551.0 0
230000.0 478551.0 0
234000.0 478551.0 0
238000.0 478551.0 0
242000.0 478551.0 0
246000.0 478551.0 0
250000.0 478551.0 0
254000.0 478551.0 0
258000.0 478551.0 0
262000.0 478551.0 0
266000.0 478551.0 0
270000.0 478551.0 0
274000.0 478551.0 0
278000.0 478551.0 0
282000.0 478551.0 0
286000.0 478551.0 0
290000.0 478551.0 0
294000.0 478551.0 0
298000.0 478551.0 0
302000.0 478551.0 0
306000.0 478551.0 0
310000.0 478551.0 0
314000.0 478551.0 0
318000.0 478551.0 0
322000.0 478551.0 0
326000.0 478551.0 0
330000.0 478551.0 0
334000.0 478551.0 0
338000.0 478551.0 0
342000.0 478551.0 0
346000.0 478551.0 0
350000.0 478551.0 0
354000.0 478551.0 0
358000.0 478551.0 0
362000.0 478551.0 0
366000.0 478551.0 0
370000.0 478551.0 0
374000.0 478551.0 0
378000.0 478552.0 0
382000.0 478552.0 0
386000.0 478552.0 0
390000.0 478554.0 0
394000.0 478570.0 0
398000.0 478661.0 0
102000.0 482642.0 0
106000.0 482563.0 0
110000.0 482553.0 0
114000.0 482552.0 0
118000.0 482552.0 0
122000.0 482551.0 0
126000.0 482551.0 0
130000.0 482551.0 0
134000.0 482551.0 0
138000.0 482551.0 0
142000.0 482551.0 0
146000.0 482551.0 0
150000.0 482551.0 0
154000.0 482551.0 0
158000.0 482551.0 0
162000.0 482551.0 0
166000.0 482551.0 0
170000.0 482551.0 0
174000.0 482551.0 0
178000.0 482551.0 0
182000.0 482551.0 0
186000.0 482551.0 0
190000.0 482551.0 0
194000.0 482551.0 0
198000.0 482551.0 0
202000.0 482551.0 0
206000.0 482551.0 0
210000.0 482551.0 0
214000.0 482551.0 0
218000.0 482551.0 0
222000.0 482551.0 0
226000.0 482551.0 0
230000.0 482551.0 0
234000.0 482551.0 0
238000.0 482551.0 0
242000.0 482551.0 0
246000.0 482551.0 0
250000.0 482551.0 0
254000.0 482551.0 0
258000.0 482551.0 0
262000.0 482551.0 0
266000.0 482551.0 0
270000.0 482551.0 0
274000.0 482551.0 0
278000.0 482551.0 0
282000.0 482551.0 0
286000.0 482551.0 0
290000.0 482551.0 0
294000.0 482551.0 0
298000.0 482551.0 0
302000.0 482551.0 0
306000.0 482551.0 0
310000.0 482551.0 0
314000.0 482551.0 0
318000.0 482551.0 0
322000.0 482551.0 0
326000.0 482551.0 0
330000.0 482551.0 0
334000.0 482551.0 0
338000.0 482551.0 0
342000.0 482551.0 0
346000.0 482551.0 0
350000.0 482551.0 0
354000.0 482551.0 0
358000.0 482551.0 0
362000.0 482551.0 0
366000.0 482551.0 0
370000.0 482551.0 0
374000.0 482551.0 0
378000.0 482551.0 0
382000.0 482552.0 0
386000.0 482552.0 0
390000.0 482553.0 0
394000.0 482563.0 0
398000.0 482642.0 0
102000.0 486626.0 0
106000.0 486559.0 0
110000.0 486553.0 0
114000.0 486552.0 0
118000.0 486551.0 0
122000.0 486551.0 0
126000.0 486551.0 0
130000.0 486551.0 0
134000.0 486551.0 0
138000.0 486551.0 0
142000.0 486551.0 0
146000.0 486551.0 0
150000.0 486551.0 0
154000.0 486551.0 0
158000.0 486551.0 0
162000.0 486551.0 0
166000.0 486551.0 0
170000.0 486551.0 0
174000.0 486551.0 0
178000.0 486551.0 0
182000.0 486551.0 0
186000.0 486551.0 0
190000.0 486551.0 0
194000.0 486551.0 0
198000.0 486551.0 0
202000.0 486551.0 0
206000.0 486551.0 0
210000.0 486551.0 0
214000.0 486551.0 0
218000.0 486551.0 0
222000.0 486551.0 0
226000.0 486551.0 0
230000.0 486551.0 0
234000.0 486551.0 0
238000.0 486551.0 0
242000.0 486551.0 0
246000.0 486551.0 0
250000.0 486551.0 0
254000.0 486551.0 0
258000.0 486551.0 0
262000.0 486551.0 0
266000.0 486551.0 0
270000.0 486551.0 0
274000.0 486551.0 0
278000.0 486551.0 0
282000.0 486551.0 0
286000.0 486551.0 0
290000.0 486551.0 0
294000.0 486551.0 0
298000.0 486551.0 0
302000.0 486551.0 0
306000.0 486551.0 0
310000.0 486551.0 0
314000.0 486551.0 0
318000.0 486551.0 0
322000.0 486551.0 0
326000.0 486551.0 0
330000.0 486551.0 0
334000.0 486551.0 0
338000.0 486551.0 0
342000.0 486551.0 0
346000.0 486551.0 0
350000.0 486551.0 0
354000.0 486551.0 0
358000.0 486551.0 0
362000.0 486551.0 0
366000.0 486551.0 0
370000.0 486551.0 0
374000.0 486551.0 0
378000.0 486551.0 0
382000.0 486551.0 0
386000.0 486552.0 0
390000.0 486553.0 0
394000.0 486559.0 0
398000.0 486626.0 0
102000.0 490611.0 0
106000.0 490556.0 0
110000.0 490552.0 0
114000.0 490551.0 0
118000.0 490551.0 0
122000.0 490551.0 0
126000.0 490551.0 0
130000.0 490551.0 0
134000.0 490551.0 0
138000.0 490551.0 0
142000.0 490551.0 0
146000.0 490551.0 0
150000.0 490551.0 0
154000.0 490551.0 0
158000.0 490551.0 0
162000.0 490551.0 0
166000.0 490551.0 0
170000.0 490551.0 0
174000.0 490551.0 0
178000.0 490551.0 0
182000.0 490551.0 0
186000.0 490551.0 0
190000.0 490551.0 0
194000.0 490551.0 0
198000.0 490551.0 0
202000.0 490551.0 0
206000.0 490551.0 0
210000.0 490551.0 0
214000.0 490551.0 0
218000.0 490551.0 0
222000.0 490551.0 0
226000.0 490551.0 0
230000.0 490551.0 0
234000.0 490551.0 0
238000.0 490551.0 0
242000.0 490551.0 0
246000.0 490551.0 0
250000.0 490551.0 0
254000.0 490551.0 0
258000.0 490551.0 0
262000.0 490551.0 0
266000.0 490551.0 0
270000.0 490551.0 0
274000.0 490551.0 0
278000.0 490551.0 0
282000.0 490551.0 0
286000.0 490551.0 0
290000.0 490551.0 0
294000.0 490551.0 0
298000.0 490551.0 0
302000.0 490551.0 0
306000.0 490551.0 0
310000.0 490551.0 0
314000.0 490551.0 0
318000.0 490551.0 0
322000.0 490551.0 0
326000.0 490551.0 0
330000.0 490551.0 0
334000.0 490551.0 0
338000.0 490551.0 0
342000.0 490551.0 0
346000.0 490551.0 0
350000.0 490551.0 0
354000.0 490551.0 0
358000.0 490551.0 0
362000.0 490551.0 0
366000.0 490551.0 0
370000.0 490551.0 0
374000.0 490551.0 0
378000.0 490551.0 0
382000.0 490551.0 0
386000.0 490551.0 0
390000.0 490552.0 0
394000.0 490556.0 0
398000.0 490611.0 0
102000.0 494599.0 0
106000.0 494554.0 0
110000.0 494552.0 0
114000.0 494551.0 0
118000.0 494551.0 0
122000.0 494551.0 0
126000.0 494551.0 0
130000.0 494551.0 0
134000.0 494551.0 0
138000.0 494551.0 0
142000.0 494551.0 0
146000.0 494551.0 0
150000.0 494551.0 0
154000.0 494551.0 0
158000.0 494551.0 0
162000.0 494551.0 0
166000.0 494551.0 0
170000.0 494551.0 0
174000.0 494551.0 0
178000.0 494551.0 0
182000.0 494551.0 0
186000.0 494551.0 0
190000.0 494551.0 0
194000.0 494551.0 0
198000.0 494551.0 0
202000.0 494551.0 0
206000.0 494551.0 0
210000.0 494551.0 0
214000.0 494551.0 0
218000.0 494551.0 0
222000.0 494551.0 0
226000.0 494551.0 0
230000.0 494551.0 0
234000.0 494551.0 0
238000.0 494551.0 0
242000.0 494551.0 0
246000.0 494551.0 0
250000.0 494551.0 0
254000.0 494551.0 0
258000.0 494551.0 0
262000.0 494551.0 0
266000.0 494551.0 0
270000.0 494551.0 0
274000.0 494551.0 0
278000.0 494551.0 0
282000.0 494551.0 0
286000.0 494551.0 0
290000.0 494551.0 0
294000.0 494551.0 0
298000.0 494551.0 0
302000.0 494551.0 0
306000.0 494551.0 0
310000.0 494551.0 0
314000.0 494551.0 0
318000.0 494551.0 0
322000.0 494551.0 0
326000.0 494551.0 0
330000.0 494551.0 0
334000.0 494551.0 0
338000.0 494551.0 0
342000.0 494551.0 0
346000.0 494551.0 0
350000.0 494551.0 0
354000.0 494551.0 0
358000.0 494551.0 0
362000.0 494551.0 0
366000.0 494551.0 0
370000.0 494551.0 0
374000.0 494551.0 0
378000.0 494551.0 0
382000.0 494551.0 0
386000.0 494551.0 0
390000.0 494552.0 0
394000.0 494554.0 0
398000.0 494599.0 0
102000.0 498588.0 0
106000.0 498553.0 0
110000.0 498552.0 0
114000.0 498551.0 0
118000.0 498551.0 0
122000.0 498551.0 0
126000.0 498551.0 0
130000.0 498551.0 0
134000.0 498551.0 0
138000.0 498551.0 0
142000.0 498551.0 0
146000.0 498551.0 0
150000.0 498551.0 0
154000.0 498551.0 0
158000.0 498551.0 0
162000.0 498551.0 0
166000.0 498551.0 0
170000.0 498551.0 0
174000.0 498551.0 0
178000.0 498551.0 0
182000.0 498551.0 0
186000.0 498551.0 0
190000.0 498551.0 0
194000.0 498551.0 0
198000.0 498551.0 0
202000.0 498551.0 0
206000.0 498551.0 0
210000.0 498551.0 0
214000.0 498551.0 0
218000.0 498551.0 0
222000.0 498551.0 0
226000.0 498551.0 0
230000.0 498551.0 0
234000.0 498551.0 0
238000.0 498551.0 0
242000.0 498551.0 0
246000.0 498551.0 0
250000.0 498551.0 0
254000.0 498551.0 0
258000.0 498551.0 0
262000.0 498551.0 0
266000.0 498551.0 0
270000.0 498551.0 0
274000.0 498551.0 0
278000.0 498551.0 0
282000.0 498551.0 0
286000.0 498551.0 0
290000.0 498551.0 0
294000.0 498551.0 0
298000.0 498551.0 0
302000.0 498551.0 0
306000.0 498551.0 0
310000.0 498551.0 0
314000.0 498551.0 0
318000.0 498551.0 0
322000.0 498551.0 0
326000.0 498551.0 0
330000.0 498551.0 0
334000.0 498551.0 0
338000.0 498551.0 0
342000.0 498551.0 0
346000.0 498551.0 0
350000.0 498551.0 0
354000.0 498551.0 0
358000.0 498551.0 0
362000.0 498551.0 0
366000.0 498551.0 0
370000.0 498551.0 0
374000.0 498551.0 0
378000.0 498551.0 0
382000.0 498551.0 0
386000.0 498551.0 0
390000.0 498552.0 0
394000.0 498553.0 0
398000.0 498588.0 0
102000.0 502580.0 0
106000.0 502552.0 0
110000.0 502552.0 0
114000.0 502551.0 0
118000.0 502551.0 0
122000.0 502551.0 0
126000.0 502551.0 0
130000.0 502551.0 0
134000.0 502551.0 0
138000.0 502551.0 0
142000.0 502551.0 0
146000.0 502551.0 0
150000.0 502551.0 0
154000.0 502551.0 0
158000.0 502551.0 0
162000.0 502551.0 0
166000.0 502551.0 0
170000.0 502551.0 0
174000.0 502551.0 0
178000.0 502551.0 0
182000.0 502551.0 0
186000.0 502551.0 0
190000.0 502551.0 0
194000.0 502551.0 0
198000.0 502551.0 0
202000.0 502551.0 0
206000.0 502551.0 0
210000.0 502551.0 0
214000.0 502551.0 0
218000.0 502551.0 0
222000.0 502551.0 0
226000.0 502551.0 0
230000.0 502551.0 0
234000.0 502551.0 0
238000.0 502551.0 0
242000.0 502551.0 0
246000.0 502551.0 0
250000.0 502551.0 0
254000.0 502551.0 0
258000.0 502551.0 0
262000.0 502551.0 0
266000.0 502551.0 0
270000.0 502551.0 0
274000.0 502551.0 0
278000.0 502551.0 0
282000.0 502551.0 0
286000.0 502551.0 0
290000.0 502551.0 0
294000.0 502551.0 0
298000.0 502551.0 0
302000.0 502551.0 0
306000.0 502551.0 0
310000.0 502551.0 0
314000.0 502551.0 0
318000.0 502551.0 0
322000.0 502551.0 0
326000.0 502551.0 0
330000.0 502551.0 0
334000.0 502551.0 0
338000.0 502551.0 0
342000.0 502551.0 0
346000.0 502551.0 0
350000.0 502551.0 0
354000.0 502551.0 0
358000.0 502551.0 0
362000.0 502551.0 0
366000.0 502551.0 0
370000.0 502551.0 0
374000.0 502551.0 0
378000.0 502551.0 0
382000.0 502551.0 0
386000.0 502551.0 0
390000.0 502552.0 0
394000.0 502552.0 0
398000.0 502580.0 0
102000.0 506573.0 0
106000.0 506552.0 0
110000.0 506552.0 0
114000.0 506551.0 0
118000.0 506551.0 0
122000.0 506551.0 0
126000.0 506551.0 0
130000.0 506551.0 0
134000.0 506551.0 0
138000.0 506551.0 0
142000.0 506551.0 0
146000.0 506551.0 0
150000.0 506551.0 0
154000.0 506551.0 0
158000.0 506551.0 0
162000.0 506551.0 0
166000.0 506551.0 0
170000.0 506551.0 0
174000.0 506551.0 0
178000.0 506551.0 0
182000.0 506551.0 0
186000.0 506551.0 0
190000.0 506551.0 0
194000.0 506551.0 0
198000.0 506551.0 0
202000.0 506551.0 0
206000.0 506551.0 0
210000.0 506551.0 0
214000.0 506551.0 0
218000.0 506551.0 0
222000.0 506551.0 0
226000.0 506551.0 0
230000.0 506551.0 0
234000.0 506551.0 0
238000.0 506551.0 0
242000.0 506551.0 0
246000.0 506551.0 0
250000.0 506551.0 0
254000.0 506551.0 0
258000.0 506551.0 0
262000.0 506551.0 0
266000.0 506551.0 0
270000.0 506551.0 0
274000.0 506551.0 0
278000.0 506551.0 0
282000.0 506551.0 0
286000.0 506551.0 0
290000.0 506551.0 0
294000.0 506551.0 0
298000.0 506551.0 0
302000.0 506551.0 0
306000.0 506551.0 0
310000.0 506551.0 0
314000.0 506551.0 0
318000.0 506551.0 0
322000.0 506551.0 0
326000.0 506551.0 0
330000.0 506551.0 0
334000.0 506551.0 0
338000.0 506551.0 0
342000.0 506551.0 0
346000.0 506551.0 0
350000.0 506551.0 0
354000.0 506551.0 0
358000.0 506551.0 0
362000.0 506551.0 0
366000.0 506551.0 0
370000.0 506551.0 0
374000.0 506551.0 0
378000.0 506551.0 0
382000.0 506551.0 0
386000.0 506551.0 0
390000.0 506552.0 0
394000.0 506552.0 0
398000.0 506573.0 0
102000.0 510567.0 0
106000.0 510551.0 0
110000.0 510551.0 0
114000.0 510551.0 0
118000.0 510551.0 0
122000.0 510551.0 0
126000.0 510551.0 0
130000.0 510551.0 0
134000.0 510551.0 0
138000.0 510551.0 0
142000.0 510551.0 0
146000.0 510551.0 0
150000.0 510551.0 0
154000.0 510551.0 0
158000.0 510551.0 0
162000.0 510551.0 0
166000.0 510551.0 0
170000.0 510551.0 0
174000.0 510551.0 0
178000.0 510551.0 0
182000.0 510551.0 0
186000.0 510551.0 0
190000.0 510551.0 0
194000.0 510551.0 0
198000.0 510551.0 0
202000.0 510551.0 0
206000.0 510551.0 0
210000.0 510551.0 0
214000.0 510551.0 0
218000.0 510551.0 0
222000.0 510551.0 0
226000.0 510551.0 0
230000.0 510551.0 0
234000.0 510551.0 0
238000.0 510551.0 0
242000.0 510551.0 0
246000.0 510551.0 0
250000.0 510551.0 0
254000.0 510551.0 0
258000.0 510551.0 0
262000.0 510551.0 0
266000.0 510551.0 0
270000.0 510551.0 0
274000.0 510551.0 0
278000.0 510551.0 0
282000.0 510551.0 0
286000.0 510551.0 0
290000.0 510551.0 0
294000.0 510551.0 0
298000.0 510551.0 0
302000.0 510551.0 0
306000.0 510551.0 0
310000.0 510551.0 0
314000.0 510551.0 0
318000.0 510551.0 0
322000.0 510551.0 0
326000.0 510551.0 0
330000.0 510551.0 0
334000.0 510551.0 0
338000.0 510551.0 0
342000.0 510551.0 0
346000.0 510551.0 0
350000.0 510551.0 0
354000.0 510551.0 0
358000.0 510551.0 0
362000.0 510551.0 0
366000.0 510551.0 0
370000.0 510551.0 0
374000.0 510551.0 0
378000.0 510551.0 0
382000.0 510551.0 0
386000.0 510551.0 0
390000.0 510551.0 0
394000.0 510551.0 0
398000.0 510567.0 0
102000.0 514563.0 0
106000.0 514551.0 0
110000.0 514551.0 0
114000.0 514551.0 0
118000.0 514551.0 0
122000.0 514551.0 0
126000.0 514551.0 0
130000.0 514551.0 0
134000.0 514551.0 0
138000.0 514551.0 0
142000.0 514551.0 0
146000.0 514551.0 0
150000.0 514551.0 0
154000.0 514551.0 0
158000.0 514551.0 0
162000.0 514551.0 0
166000.0 514551.0 0
170000.0 514551.0 0
174000.0 514551.0 0
178000.0 514551.0 0
182000.0 514551.0 0
186000.0 514551.0 0
190000.0 514551.0 0
194000.0 514551.0 0
198000.0 514551.0 0
202000.0 514551.0 0
206000.0 514551.0 0
210000.0 514551.0 0
214000.0 514551.0 0
218000.0 514551.0 0
222000.0 514551.0 0
226000.0 514551.0 0
230000.0 514551.0 0
234000.0 514551.0 0
238000.0 514551.0 0
242000.0 514551.0 0
246000.0 514551.0 0
250000.0 514551.0 0
254000.0 514551.0 0
258000.0 514551.0 0
262000.0 514551.0 0
266000.0 514551.0 0
270000.0 514551.0 0
274000.0 514551.0 0
278000.0 514551.0 0
282000.0 514551.0 0
286000.0 514551.0 0
290000.0 514551.0 0
294000.0 514551.0 0
298000.0 514551.0 0
302000.0 514551.0 0
306000.0 514551.0 0
310000.0 514551.0 0
314000.0 514551.0 0
318000.0 514551.0 0
322000.0 514551.0 0
326000.0 514551.0 0
330000.0 514551.0 0
334000.0 514551.0 0
338000.0 514551.0 0
342000.0 514551.0 0
346000.0 514551.0 0
350000.0 514551.0 0
354000.0 514551.0 0
358000.0 514551.0 0
362000.0 514551.0 0
366000.0 514551.0 0
370000.0 514551.0 0
374000.0 514551.0 0
378000.0 514551.0 0
382000.0 514551.0 0
386000.0 514551.0 0
390000.0 514551.0 0
394000.0 514551.0 0
398000.0 514563.0 0
102000.0 518559.0 0
106000.0 518551.0 0
110000.0 518551.0 0
114000.0 518551.0 0
118000.0 518551.0 0
122000.0 518551.0 0
126000.0 518551.0 0
130000.0 518551.0 0
134000.0 518551.0 0
138000.0 518551.0 0
142000.0 518551.0 0
146000.0 518551.0 0
150000.0 518551.0 0
154000.0 518551.0 0
158000.0 518551.0 0
162000.0 518551.0 0
166000.0 518551.0 0
170000.0 518551.0 0
174000.0 518551.0 0
178000.0 518551.0 0
182000.0 518551.0 0
186000.0 518551.0 0
190000.0 518551.0 0
194000.0 518551.0 0
198000.0 518551.0 0
202000.0 518551.0 0
206000.0 518551.0 0
210000.0 518551.0 0
214000.0 518551.0 0
218000.0 518551.0 0
222000.0 518551.0 0
226000.0 518551.0 0
230000.0 518551.0 0
234000.0 518551.0 0
238000.0 518551.0 0
242000.0 518551.0 0
246000.0 518551.0 0
250000.0 518551.0 0
254000.0 518551.0 0
258000.0 518551.0 0
262000.0 518551.0 0
266000.0 518551.0 0
270000.0 518551.0 0
274000.0 518551.0 0
278000.0 518551.0 0
282000.0 518551.0 0
286000.0 518551.0 0
290000.0 518551.0 0
294000.0 518551.0 0
298000.0 518551.0 0
302000.0 518551.0 0
306000.0 518551.0 0
310000.0 518551.0 0
314000.0 518551.0 0
318000.0 518551.0 0
322000.0 518551.0 0
326000.0 518551.0 0
330000.0 518551.0 0
334000.0 518551.0 0
338000.0 518551.0 0
342000.0 518551.0 0
346000.0 518551.0 0
350000.0 518551.0 0
354000.0 518551.0 0
358000.0 518551.0 0
362000.0 518551.0 0
366000.0 518551.0 0
370000.0 518551.0 0
374000.0 518551.0 0
378000.0 518551.0 0
382000.0 518551.0 0
386000.0 518551.0 0
390000.0 518551.0 0
394000.0 518551.0 0
398000.0 518559.0 0
102000.0 522557.0 0
106000.0 522551.0 0
110000.0 522551.0 0
114000.0 522551.0 0
118000.0 522551.0 0
122000.0 522551.0 0
126000.0 522551.0 0
130000.0 522551.0 0
134000.0 522551.0 0
138000.0 522551.0 0
142000.0 522551.0 0
146000.0 522551.0 0
150000.0 522551.0 0
154000.0 522551.0 0
158000.0 522551.0 0
162000.0 522551.0 0
166000.0 522551.0 0
170000.0 522551.0 0
174000.0 522551.0 0
178000.0 522551.0 0
182000.0 522551.0 0
186000.0 522551.0 0
190000.0 522551.0 0
194000.0 522551.0 0
198000.0 522551.0 0
202000.0 522551.0 0
206000.0 522551.0 0
210000.0 522551.0 0
214000.0 522551.0 0
218000.0 522551.0 0
222000.0 522551.0 0
226000.0 522551.0 0
230000.0 522551.0 0
234000.0 522551.0 0
238000.0 522551.0 0
242000.0 522551.0 0
246000.0 522551.0 0
250000.0 522551.0 0
254000.0 522551.0 0
258000.0 522551.0 0
262000.0 522551.0 0
266000.0 522551.0 0
270000.0 522551.0 0
274000.0 522551.0 0
278000.0 522551.0 0
282000.0 522551.0 0
286000.0 522551.0 0
290000.0 522551.0 0
294000.0 522551.0 0
298000.0 522551.0 0
302000.0 522551.0 0
306000.0 522551.0 0
310000.0 522551.0 0
314000.0 522551.0 0
318000.0 522551.0 0
322000.0 522551.0 0
326000.0 522551.0 0
330000.0 522551.0 0
334000.0 522551.0 0
338000.0 522551.0 0
342000.0 522551.0 0
346000.0 522551.0 0
350000.0 522551.0 0
354000.0 522551.0 0
358000.0 522551.0 0
362000.0 522551.0 0
366000.0 522551.0 0
370000.0 522551.0 0
374000.0 522551.0 0
378000.0 522551.0 0
382000.0 522551.0 0
386000.0 522551.0 0
390000.0 522551.0 0
394000.0 522551.0 0
398000.0 522557.0 0
102000.0 526555.0 0
106000.0 526551.0 0
110000.0 526551.0 0
114000.0 526551.0 0
118000.0 526551.0 0
122000.0 526551.0 0
126000.0 526551.0 0
130000.0 526551.0 0
134000.0 526551.0 0
138000.0 526551.0 0
142000.0 526551.0 0
146000.0 526551.0 0
150000.0 526551.0 0
154000.0 526551.0 0
158000.0 526551.0 0
162000.0 526551.0 0
166000.0 526551.0 0
170000.0 526551.0 0
174000.0 526551.0 0
178000.0 526551.0 0
182000.0 526551.0 0
186000.0 526551.0 0
190000.0 526551.0 0
194000.0 526551.0 0
198000.0 526551.0 0
202000.0 526551.0 0
206000.0 526551.0 0
210000.0 526551.0 0
214000.0 526551.0 0
218000.0 526551.0 0
222000.0 526551.0 0
226000.0 526551.0 0
230000.0 526551.0 0
234000.0 526551.0 0
238000.0 526551.0 0
242000.0 526551.0 0
246000.0 526551.0 0
250000.0 526551.0 0
254000.0 526551.0 0
258000.0 526551.0 0
262000.0 526551.0 0
266000.0 526551.0 0
270000.0 526551.0 0
274000.0 526551.0 0
278000.0 526551.0 0
282000.0 526551.0 0
286000.0 526551.0 0
290000.0 526551.0 0
294000.0 526551.0 0
298000.0 526551.0 0
302000.0 526551.0 0
306000.0 526551.0 0
310000.0 526551.0 0
314000.0 526551.0 0
318000.0 526551.0 0
322000.0 526551.0 0
326000.0 526551.0 0
330000.0 526551.0 0
334000.0 526551.0 0
338000.0 526551.0 0
342000.0 526551.0 0
346000.0 526551.0 0
350000.0 526551.0 0
354000.0 526551.0 0
358000.0 526551.0 0
362000.0 526551.0 0
366000.0 526551.0 0
370000.0 526551.0 0
374000.0 526551.0 0
378000.0 526551.0 0
382000.0 526551.0 0
386000.0 526551.0 0
390000.0 526551.0 0
394000.0 526551.0 0
398000.0 526555.0 0
102000.0 530554.0 0
106000.0 530551.0 0
110000.0 530551.0 0
114000.0 530551.0 0
118000.0 530551.0 0
122000.0 530551.0 0
126000.0 530551.0 0
130000.0 530551.0 0
134000.0 530551.0 0
138000.0 530551.0 0
142000.0 530551.0 0
146000.0 530551.0 0
150000.0 530551.0 0
154000.0 530551.0 0
158000.0 530551.0 0
162000.0 530551.0 0
166000.0 530551.0 0
170000.0 530551.0 0
174000.0 530551.0 0
178000.0 530551.0 0
182000.0 530551.0 0
186000.0 530551.0 0
190000.0 530551.0 0
194000.0 530551.0 0
198000.0 530551.0 0
202000.0 530551.0 0
206000.0 530551.0 0
210000.0 530551.0 0
214000.0 530551.0 0
218000.0 530551.0 0
222000.0 530551.0 0
226000.0 530551.0 0
230000.0 530551.0 0
234000.0 530551.0 0
238000.0 530551.0 0
242000.0 530551.0 0
246000.0 530551.0 0
250000.0 530551.0 0
254000.0 530551.0 0
258000.0 530551.0 0
262000.0 530551.0 0
266000.0 530551.0 0
270000.0 530551.0 0
274000.0 530551.0 0
278000.0 530551.0 0
282000.0 530551.0 0
286000.0 530551.0 0
290000.0 530551.0 0
294000.0 530551.0 0
298000.0 530551.0 0
302000.0 530551.0 0
306000.0 530551.0 0
310000.0 530551.0 0
314000.0 530551.0 0
318000.0 530551.0 0
322000.0 530551.0 0
326000.0 530551.0 0
330000.0 530551.0 0
334000.0 530551.0 0
338000.0 530551.0 0
342000.0 530551.0 0
346000.0 530551.0 0
350000.0 530551.0 0
354000.0 530551.0 0
358000.0 530551.0 0
362000.0 530551.0 0
366000.0 530551.0 0
370000.0 530551.0 0
374000.0 530551.0 0
378000.0 530551.0 0
382000.0 530551.0 0
386000.0 530551.0 0
390000.0 530551.0 0
394000.0 530551.0 0
398000.0 530554.0 0
102000.0 534553.0 0
106000.0 534551.0 0
110000.0 534551.0 0
114000.0 534551.0 0
118000.0 534551.0 0
122000.0 534551.0 0
126000.0 534551.0 0
130000.0 534551.0 0
134000.0 534551.0 0
138000.0 534551.0 0
142000.0 534551.0 0
146000.0 534551.0 0
150000.0 534551.0 0
154000.0 534551.0 0
158000.0 534551.0 0
162000.0 534551.0 0
166000.0 534551.0 0
170000.0 534551.0 0
174000.0 534551.0 0
178000.0 534551.0 0
182000.0 534551.0 0
186000.0 534551.0 0
190000.0 534551.0 0
194000.0 534551.0 0
198000.0 534551.0 0
202000.0 534551.0 0
206000.0 534551.0 0
210000.0 534551.0 0
214000.0 534551.0 0
218000.0 534551.0 0
222000.0 534551.0 0
226000.0 534551.0 0
230000.0 534551.0 0
234000.0 534551.0 0
238000.0 534551.0 0
242000.0 534551.0 0
246000.0 534551.0 0
250000.0 534551.0 0
254000.0 534551.0 0
258000.0 534551.0 0
262000.0 534551.0 0
266000.0 534551.0 0
270000.0 534551.0 0
274000.0 534551.0 0
278000.0 534551.0 0
282000.0 534551.0 0
286000.0 534551.0 0
290000.0 534551.0 0
294000.0 534551.0 0
298000.0 534551.0 0
302000.0 534551.0 0
306000.0 534551.0 0
310000.0 534551.0 0
314000.0 534551.0 0
318000.0 534551.0 0
322000.0 534551.0 0
326000.0 534551.0 0
330000.0 534551.0 0
334000.0 534551.0 0
338000.0 534551.0 0
342000.0 534551.0 0
346000.0 534551.0 0
350000.0 534551.0 0
354000.0 534551.0 0
358000.0 534551.0 0
362000.0 534551.0 0
366000.0 534551.0 0
370000.0 534551.0 0
374000.0 534551.0 0
378000.0 534551.0 0
382000.0 534551.0 0
386000.0 534551.0 0
390000.0 534551.0 0
394000.0 534551.0 0
398000.0 534553.0 0
102000.0 538552.0 0
106000.0 538551.0 0
110000.0 538551.0 0
114000.0 538551.0 0
118000.0 538551.0 0
122000.0 538551.0 0
126000.0 538551.0 0
130000.0 538551.0 0
134000.0 538551.0 0
138000.0 538551.0 0
142000.0 538551.0 0
146000.0 538551.0 0
150000.0 538551.0 0
154000.0 538551.0 0
158000.0 538551.0 0
162000.0 538551.0 0
166000.0 538551.0 0
170000.0 538551.0 0
174000.0 538551.0 0
178000.0 538551.0 0
182000.0 538551.0 0
186000.0 538551.0 0
190000.0 538551.0 0
194000.0 538551.0 0
198000.0 538551.0 0
202000.0 538551.0 0
206000.0 538551.0 0
210000.0 538551.0 0
214000.0 538551.0 0
218000.0 538551.0 0
222000.0 538551.0 0
226000.0 538551.0 0
230000.0 538551.0 0
234000.0 538551.0 0
238000.0 538551.0 0
242000.0 538551.0 0
246000.0 538551.0 0
250000.0 538551.0 0
254000.0 538551.0 0
258000.0 538551.0 0
262000.0 538551.0 0
266000.0 538551.0 0
270000.0 538551.0 0
274000.0 538551.0 0
278000.0 538551.0 0
282000.0 538551.0 0
286000.0 538551.0 0
290000.0 538551.0 0
294000.0 538551.0 0
298000.0 538551.0 0
302000.0 538551.0 0
306000.0 538551.0 0
310000.0 538551.0 0
314000.0 538551.0 0
318000.0 538551.0 0
322000.0 538551.0 0
326000.0 538551.0 0
330000.0 538551.0 0
334000.0 538551.0 0
338000.0 538551.0 0
342000.0 538551.0 0
346000.0 538551.0 0
350000.0 538551.0 0
354000.0 538551.0 0
358000.0 538551.0 0
362000.0 538551.0 0
366000.0 538551.0 0
370000.0 538551.0 0
374000.0 538551.0 0
378000.0 538551.0 0
382000.0 538551.0 0
386000.0 538551.0 0
390000.0 538551.0 0
394000.0 538551.0 0
398000.0 538552.0 0
102000.0 542552.0 0
106000.0 542551.0 0
110000.0 542551.0 0
114000.0 542551.0 0
118000.0 542551.0 0
122000.0 542551.0 0
126000.0 542551.0 0
130000.0 542551.0 0
134000.0 542551.0 0
138000.0 542551.0 0
142000.0 542551.0 0
146000.0 542551.0 0
150000.0 542551.0 0
154000.0 542551.0 0
158000.0 542551.0 0
162000.0 542551.0 0
166000.0 542551.0 0
170000.0 542551.0 0
174000.0 542551.0 0
178000.0 542551.0 0
182000.0 542551.0 0
186000.0 542551.0 0
190000.0 542551.0 0
194000.0 542551.0 0
198000.0 542551.0 0
202000.0 542551.0 0
206000.0 542551.0 0
210000.0 542551.0 0
214000.0 542551.0 0
218000.0 542551.0 0
222000.0 542551.0 0
226000.0 542551.0 0
230000.0 542551.0 0
234000.0 542551.0 0
238000.0 542551.0 0
242000.0 542551.0 0
246000.0 542551.0 0
250000.0 542551.0 0
254000.0 542551.0 0
258000.0 542551.0 0
262000.0 542551.0 0
266000.0 542551.0 0
270000.0 542551.0 0
274000.0 542551.0 0
278000.0 542551.0 0
282000.0 542551.0 0
286000.0 542551.0 0
290000.0 542551.0 0
294000.0 542551.0 0
298000.0 542551.0 0
302000.0 542551.0 0
306000.0 542551.0 0
310000.0 542551.0 0
314000.0 542551.0 0
318000.0 542551.0 0
322000.0 542551.0 0
326000.0 542551.0 0
330000.0 542551.0 0
334000.0 542551.0 0
338000.0 542551.0 0
342000.0 542551.0 0
346000.0 542551.0 0
350000.0 542551.0 0
354000.0 542551.0 0
358000.0 542551.0 0
362000.0 542551.0 0
366000.0 542551.0 0
370000.0 542551.0 0
374000.0 542551.0 0
378000.0 542551.0 0
382000.0 542551.0 0
386000.0 542551.0 0
390000.0 542551.0 0
394000.0 542551.0 0
398000.0 542552.0 0
102000.0 546552.0 0
106000.0 546551.0 0
110000.0 546551.0 0
114000.0 546551.0 0
118000.0 546551.0 0
122000.0 546551.0 0
126000.0 546551.0 0
130000.0 546551.0 0
134000.0 546551.0 0
138000.0 546551.0 0
142000.0 546551.0 0
146000.0 546551.0 0
150000.0 546551.0 0
154000.0 546551.0 0
158000.0 546551.0 0
162000.0 546551.0 0
166000.0 546551.0 0
170000.0 546551.0 0
174000.0 546551.0 0
178000.0 546551.0 0
182000.0 546551.0 0
186000.0 546551.0 0
190000.0 546551.0 0
194000.0 546551.0 0
198000.0 546551.0 0
202000.0 546551.0 0
206000.0 546551.0 0
210000.0 546551.0 0
214000.0 546551.0 0
218000.0 546551.0 0
222000.0 546551.0 0
226000.0 546551.0 0
230000.0 546551.0 0
234000.0 546551.0 0
238000.0 546551.0 0
242000.0 546551.0 0
246000.0 546551.0 0
250000.0 546551.0 0
254000.0 546551.0 0
258000.0 546551.0 0
262000.0 546551.0 0
266000.0 546551.0 0
270000.0 546551.0 0
274000.0 546551.0 0
278000.0 546551.0 0
282000.0 546551.0 0
286000.0 546551.0 0
290000.0 546551.0 0
294000.0 546551.0 0
298000.0 546551.0 0
302000.0 546551.0 0
306000.0 546551.0 0
310000.0 546551.0 0
314000.0 546551.0 0
318000.0 546551.0 0
322000.0 546551.0 0
326000.0 546551.0 0
330000.0 546551.0 0
334000.0 546551.0 0
338000.0 546551.0 0
342000.0 546551.0 0
346000.0 546551.0 0
350000.0 546551.0 0
354000.0 546551.0 0
358000.0 546551.0 0
362000.0 546551.0 0
366000.0 546551.0 0
370000.0 546551.0 0
374000.0 546551.0 0
378000.0 546551.0 0
382000.0 546551.0 0
386000.0 546551.0 0
390000.0 546551.0 0
394000.0 546551.0 0
398000.0 546552.0 0
102000.0 550552.0 0
106000.0 550551.0 0
110000.0 550551.0 0
114000.0 550551.0 0
118000.0 550551.0 0
122000.0 550551.0 0
126000.0 550551.0 0
130000.0 550551.0 0
134000.0 550551.0 0
138000.0 550551.0 0
142000.0 550551.0 0
146000.0 550551.0 0
150000.0 550551.0 0
154000.0 550551.0 0
158000.0 550551.0 0
162000.0 550551.0 0
166000.0 550551.0 0
170000.0 550551.0 0
174000.0 550551.0 0
178000.0 550551.0 0
182000.0 550551.0 0
186000.0 550551.0 0
190000.0 550551.0 0
194000.0 550551.0 0
198000.0 550551.0 0
202000.0 550551.0 0
206000.0 550551.0 0
210000.0 550551.0 0
214000.0 550551.0 0
218000.0 550551.0 0
222000.0 550551.0 0
226000.0 550551.0 0
230000.0 550551.0 0
234000.0 550551.0 0
238000.0 550551.0 0
242000.0 550551.0 0
246000.0 550551.0 0
250000.0 550551.0 0
254000.0 550551.0 0
258000.0 550551.0 0
262000.0 550551.0 0
266000.0 550551.0 0
270000.0 550551.0 0
274000.0 550551.0 0
278000.0 550551.0 0
282000.0 550551.0 0
286000.0 550551.0 0
290000.0 550551.0 0
294000.0 550551.0 0
298000.0 550551.0 0
302000.0 550551.0 0
306000.0 550551.0 0
310000.0 550551.0 0
314000.0 550551.0 0
318000.0 550551.0 0
322000.0 550551.0 0
326000.0 550551.0 0
330000.0 550551.0 0
334000.0 550551.0 0
338000.0 550551.0 0
342000.0 550551.0 0
346000.0 550551.0 0
350000.0 550551.0 0
354000.0 550551.0 0
358000.0 550551.0 0
362000.0 550551.0 0
366000.0 550551.0 0
370000.0 550551.0 0
374000.0 550551.0 0
378000.0 550551.0 0
382000.0 550551.0 0
386000.0 550551.0 0
390000.0 550551.0 0
394000.0 550551.0 0
398000.0 550552.0 0
102000.0 554551.0 0
106000.0 554551.0 0
110000.0 554551.0 0
114000.0 554551.0 0
118000.0 554551.0 0
122000.0 554551.0 0
126000.0 554551.0 0
130000.0 554551.0 0
134000.0 554551.0 0
138000.0 554551.0 0
142000.0 554551.0 0
146000.0 554551.0 0
150000.0 554551.0 0
154000.0 554551.0 0
158000.0 554551.0 0
162000.0 554551.0 0
166000.0 554551.0 0
170000.0 554551.0 0
174000.0 554551.0 0
178000.0 554551.0 0
182000.0 554551.0 0
186000.0 554551.0 0
190000.0 554551.0 0
194000.0 554551.0 0
198000.0 554551.0 0
202000.0 554551.0 0
206000.0 554551.0 0
210000.0 554551.0 0
214000.0 554551.0 0
218000.0 554551.0 0
222000.0 554551.0 0
226000.0 554551.0 0
230000.0 554551.0 0
234000.0 554551.0 0
238000.0 554551.0 0
242000.0 554551.0 0
246000.0 554551.0 0
250000.0 554551.0 0
254000.0 554551.0 0
258000.0 554551.0 0
262000.0 554551.0 0
266000.0 554551.0 0
270000.0 554551.0 0
274000.0 554551.0 0
278000.0 554551.0 0
282000.0 554551.0 0
286000.0 554551.0 0
290000.0 554551.0 0
294000.0 554551.0 0
298000.0 554551.0 0
302000.0 554551.0 0
306000.0 554551.0 0
310000.0 554551.0 0
314000.0 554551.0 0
318000.0 554551.0 0
322000.0 554551.0 0
326000.0 554551.0 0
330000.0 554551.0 0
334000.0 554551.0 0
338000.0 554551.0 0
342000.0 554551.0 0
346000.0 554551.0 0
350000.0 554551.0 0
354000.0 554551.0 0
358000.0 554551.0 0
362000.0 554551.0 0
366000.0 554551.0 0
370000.0 554551.0 0
374000.0 554551.0 0
378000.0 554551.0 0
382000.0 554551.0 0
386000.0 554551.0 0
390000.0 554551.0 0
394000.0 554551.0 0
398000.0 554551.0 0
102000.0 558551.0 0
106000.0 558551.0 0
110000.0 558551.0 0
114000.0 558551.0 0
118000.0 558551.0 0
122000.0 558551.0 0
126000.0 558551.0 0
130000.0 558551.0 0
134000.0 558551.0 0
138000.0 558551.0 0
142000.0 558551.0 0
146000.0 558551.0 0
150000.0 558551.0 0
154000.0 558551.0 0
158000.0 558551.0 0
162000.0 558551.0 0
166000.0 558551.0 0
170000.0 558551.0 0
174000.0 558551.0 0
178000.0 558551.0 0
182000.0 558551.0 0
186000.0 558551.0 0
190000.0 558551.0 0
194000.0 558551.0 0
198000.0 558551.0 0
202000.0 558551.0 0
206000.0 558551.0 0
210000.0 558551.0 0
214000.0 558551.0 0
218000.0 558551.0 0
222000.0 558551.0 0
226000.0 558551.0 0
230000.0 558551.0 0
234000.0 558551.0 0
238000.0 558551.0 0
242000.0 558551.0 0
246000.0 558551.0 0
250000.0 558551.0 0
254000.0 558551.0 0
258000.0 558551.0 0
262000.0 558551.0 0
266000.0 558551.0 0
270000.0 558551.0 0
274000.0 558551.0 0
278000.0 558551.0 0
282000.0 558551.0 0
286000.0 558551.0 0
290000.0 558551.0 0
294000.0 558551.0 0
298000.0 558551.0 0
302000.0 558551.0 0
306000.0 558551.0 0
310000.0 558551.0 0
314000.0 558551.0 0
318000.0 558551.0 0
322000.0 558551.0 0
326000.0 558551.0 0
330000.0 558551.0 0
334000.0 558551.0 0
338000.0 558551.0 0
342000.0 558551.0 0
346000.0 558551.0 0
350000.0 558551.0 0
354000.0 558551.0 0
358000.0 558551.0 0
362000.0 558551.0 0
366000.0 558551.0 0
370000.0 558551.0 0
374000.0 558551.0 0
378000.0 558551.0 0
382000.0 558551.0 0
386000.0 558551.0 0
390000.0 558551.0 0
394000.0 558551.0 0
398000.0 558551.0 0
102000.0 562551.0 0
106000.0 562551.0 0
110000.0 562551.0 0
114000.0 562551.0 0
118000.0 562551.0 0
122000.0 562551.0 0
126000.0 562551.0 0
130000.0 562551.0 0
134000.0 562551.0 0
138000.0 562551.0 0
142000.0 562551.0 0
146000.0 562551.0 0
150000.0 562551.0 0
154000.0 562551.0 0
158000.0 562551.0 0
162000.0 562551.0 0
166000.0 562551.0 0
170000.0 562551.0 0
174000.0 562551.0 0
178000.0 562551.0 0
182000.0 562551.0 0
186000.0 562551.0 0
190000.0 562551.0 0
194000.0 562551.0 0
198000.0 562551.0 0
202000.0 562551.0 0
206000.0 562551.0 0
210000.0 562551.0 0
214000.0 562551.0 0
218000.0 562551.0 0
222000.0 562551.0 0
226000.0 562551.0 0
230000.0 562551.0 0
234000.0 562551.0 0
238000.0 562551.0 0
242000.0 562551.0 0
246000.0 562551.0 0
250000.0 562551.0 0
254000.0 562551.0 0
258000.0 562551.0 0
262000.0 562551.0 0
266000.0 562551.0 0
270000.0 562551.0 0
274000.0 562551.0 0
278000.0 562551.0 0
282000.0 562551.0 0
286000.0 562551.0 0
290000.0 562551.0 0
294000.0 562551.0 0
298000.0 562551.0 0
302000.0 562551.0 0
306000.0 562551.0 0
310000.0 562551.0 0
314000.0 562551.0 0
318000.0 562551.0 0
322000.0 562551.0 0
326000.0 562551.0 0
330000.0 562551.0 0
334000.0 562551.0 0
338000.0 562551.0 0
342000.0 562551.0 0
346000.0 562551.0 0
350000.0 562551.0 0
354000.0 562551.0 0
358000.0 562551.0 0
362000.0 562551.0 0
366000.0 562551.0 0
370000.0 562551.0 0
374000.0 562551.0 0
378000.0 562551.0 0
382000.0 562551.0 0
386000.0 562551.0 0
390000.0 562551.0 0
394000.0 562551.0 0
398000.0 562551.0 0
102000.0 566551.0 0
106000.0 566551.0 0
110000.0 566551.0 0
114000.0 566551.0 0
118000.0 566551.0 0
122000.0 566551.0 0
126000.0 566551.0 0
130000.0 566551.0 0
134000.0 566551.0 0
138000.0 566551.0 0
142000.0 566551.0 0
146000.0 566551.0 0
150000.0 566551.0 0
154000.0 566551.0 0
158000.0 566551.0 0
162000.0 566551.0 0
166000.0 566551.0 0
170000.0 566551.0 0
174000.0 566551.0 0
178000.0 566551.0 0
182000.0 566551.0 0
186000.0 566551.0 0
190000.0 566551.0 0
194000.0 566551.0 0
198000.0 566551.0 0
202000.0 566551.0 0
206000.0 566551.0 0
210000.0 566551.0 0
214000.0 566551.0 0
218000.0 566551.0 0
222000.0 566551.0 0
226000.0 566551.0 0
230000.0 566551.0 0
234000.0 566551.0 0
238000.0 566551.0 0
242000.0 566551.0 0
246000.0 566551.0 0
250000.0 566551.0 0
254000.0 566551.0 0
258000.0 566551.0 0
262000.0 566551.0 0
266000.0 566551.0 0
270000.0 566551.0 0
274000.0 566551.0 0
278000.0 566551.0 0
282000.0 566551.0 0
286000.0 566551.0 0
290000.0 566551.0 0
294000.0 566551.0 0
298000.0 566551.0 0
302000.0 566551.0 0
306000.0 566551.0 0
310000.0 566551.0 0
314000.0 566551.0 0
318000.0 566551.0 0
322000.0 566551.0 0
326000.0 566551.0 0
330000.0 566551.0 0
334000.0 566551.0 0
338000.0 566551.0 0
342000.0 566551.0 0
346000.0 566551.0 0
350000.0 566551.0 0
354000.0 566551.0 0
358000.0 566551.0 0
362000.0 566551.0 0
366000.0 566551.0 0
370000.0 566551.0 0
374000.0 566551.0 0
378000.0 566551.0 0
382000.0 566551.0 0
386000.0 566551.0 0
390000.0 566551.0 0
394000.0 566551.0 0
398000.0 566551.0 0
102000.0 570551.0 0
106000.0 570551.0 0
110000.0 570551.0 0
114000.0 570551.0 0
118000.0 570551.0 0
122000.0 570551.0 0
126000.0 570551.0 0
130000.0 570551.0 0
134000.0 570551.0 0
138000.0 570551.0 0
142000.0 570551.0 0
146000.0 570551.0 0
150000.0 570551.0 0
154000.0 570551.0 0
158000.0 570551.0 0
162000.0 570551.0 0
166000.0 570551.0 0
170000.0 570551.0 0
174000.0 570551.0 0
178000.0 570551.0 0
182000.0 570551.0 0
186000.0 570551.0 0
190000.0 570551.0 0
194000.0 570551.0 0
198000.0 570551.0 0
202000.0 570551.0 0
206000.0 570551.0 0
210000.0 570551.0 0
214000.0 570551.0 0
218000.0 570551.0 0
222000.0 570551.0 0
226000.0 570551.0 0
230000.0 570551.0 0
234000.0 570551.0 0
238000.0 570551.0 0
242000.0 570551.0 0
246000.0 570551.0 0
250000.0 570551.0 0
254000.0 570551.0 0
258000.0 570551.0 0
262000.0 570551.0 0
266000.0 570551.0 0
270000.0 570551.0 0
274000.0 570551.0 0
278000.0 570551.0 0
282000.0 570551.0 0
286000.0 570551.0 0
290000.0 570551.0 0
294000.0 570551.0 0
298000.0 570551.0 0
302000.0 570551.0 0
306000.0 570551.0 0
310000.0 570551.0 0
314000.0 570551.0 0
318000.0 570551.0 0
322000.0 570551.0 0
326000.0 570551.0 0
330000.0 570551.0 0
334000.0 570551.0 0
338000.0 570551.0 0
342000.0 570551.0 0
346000.0 570551.0 0
350000.0 570551.0 0
354000.0 570551.0 0
358000.0 570551.0 0
362000.0 570551.0 0
366000.0 570551.0 0
370000.0 570551.0 0
374000.0 570551.0 0
378000.0 570551.0 0
382000.0 570551.0 0
386000.0 570551.0 0
390000.0 570551.0 0
394000.0 570551.0 0
398000.0 570551.0 0
102000.0 574551.0 0
106000.0 574551.0 0
110000.0 574551.0 0
114000.0 574551.0 0
118000.0 574551.0 0
122000.0 574551.0 0
126000.0 574551.0 0
130000.0 574551.0 0
134000.0 574551.0 0
138000.0 574551.0 0
142000.0 574551.0 0
146000.0 574551.0 0
150000.0 574551.0 0
154000.0 574551.0 0
158000.0 574551.0 0
162000.0 574551.0 0
166000.0 574551.0 0
170000.0 574551.0 0
174000.0 574551.0 0
178000.0 574551.0 0
182000.0 574551.0 0
186000.0 574551.0 0
190000.0 574551.0 0
194000.0 574551.0 0
198000.0 574551.0 0
202000.0 574551.0 0
206000.0 574551.0 0
210000.0 574551.0 0
214000.0 574551.0 0
218000.0 574551.0 0
222000.0 574551.0 0
226000.0 574551.0 0
230000.0 574551.0 0
234000.0 574551.0 0
238000.0 574551.0 0
242000.0 574551.0 0
246000.0 574551.0 0
250000.0 574551.0 0
254000.0 574551.0 0
258000.0 574551.0 0
262000.0 574551.0 0
266000.0 574551.0 0
270000.0 574551.0 0
274000.0 574551.0 0
278000.0 574551.0 0
282000.0 574551.0 0
286000.0 574551.0 0
290000.0 574551.0 0
294000.0 574551.0 0
298000.0 574551.0 0
302000.0 574551.0 0
306000.0 574551.0 0
310000.0 574551.0 0
314000.0 574551.0 0
318000.0 574551.0 0
322000.0 574551.0 0
326000.0 574551.0 0
330000.0 574551.0 0
334000.0 574551.0 0
338000.0 574551.0 0
342000.0 574551.0 0
346000.0 574551.0 0
350000.0 574551.0 0
354000.0 574551.0 0
358000.0 574551.0 0
362000.0 574551.0 0
366000.0 574551.0 0
370000.0 574551.0 0
374000.0 574551.0 0
378000.0 574551.0 0
382000.0 574551.0 0
386000.0 574551.0 0
390000.0 574551.0 0
394000.0 574551.0 0
398000.0 574551.0 0
102000.0 578551.0 0
106000.0 578551.0 0
110000.0 578551.0 0
114000.0 578551.0 0
118000.0 578551.0 0
122000.0 578551.0 0
126000.0 578551.0 0
130000.0 578551.0 0
134000.0 578551.0 0
138000.0 578551.0 0
142000.0 578551.0 0
146000.0 578551.0 0
150000.0 578551.0 0
154000.0 578551.0 0
158000.0 578551.0 0
162000.0 578551.0 0
166000.0 578551.0 0
170000.0 578551.0 0
174000.0 578551.0 0
178000.0 578551.0 0
182000.0 578551.0 0
186000.0 578551.0 0
190000.0 578551.0 0
194000.0 578551.0 0
198000.0 578551.0 0
202000.0 578551.0 0
206000.0 578551.0 0
210000.0 578551.0 0
214000.0 578551.0 0
218000.0 578551.0 0
222000.0 578551.0 0
226000.0 578551.0 0
230000.0 578551.0 0
234000.0 578551.0 0
238000.0 578551.0 0
242000.0 578551.0 0
246000.0 578551.0 0
250000.0 578551.0 0
254000.0 578551.0 0
258000.0 578551.0 0
262000.0 578551.0 0
266000.0 578551.0 0
270000.0 578551.0 0
274000.0 578551.0 0
278000.0 578551.0 0
282000.0 578551.0 0
286000.0 578551.0 0
290000.0 578551.0 0
294000.0 578551.0 0
298000.0 578551.0 0
302000.0 578551.0 0
306000.0 578551.0 0
310000.0 578551.0 0
314000.0 578551.0 0
318000.0 578551.0 0
322000.0 578551.0 0
326000.0 578551.0 0
330000.0 578551.0 0
334000.0 578551.0 0
338000.0 578551.0 0
342000.0 578551.0 0
346000.0 578551.0 0
350000.0 578551.0 0
354000.0 578551.0 0
358000.0 578551.0 0
362000.0 578551.0 0
366000.0 578551.0 0
370000.0 578551.0 0
374000.0 578551.0 0
378000.0 578551.0 0
382000.0 578551.0 0
386000.0 578551.0 0
390000.0 578551.0 0
394000.0 578551.0 0
398000.0 578551.0 0
102000.0 582551.0 0
106000.0 582551.0 0
110000.0 582551.0 0
114000.0 582551.0 0
118000.0 582551.0 0
122000.0 582551.0 0
126000.0 582551.0 0
130000.0 582551.0 0
134000.0 582551.0 0
138000.0 582551.0 0
142000.0 582551.0 0
146000.0 582551.0 0
150000.0 582551.0 0
154000.0 582551.0 0
158000.0 582551.0 0
162000.0 582551.0 0
166000.0 582551.0 0
170000.0 582551.0 0
174000.0 582551.0 0
178000.0 582551.0 0
182000.0 582551.0 0
186000.0 582551.0 0
190000.0 582551.0 0
194000.0 582551.0 0
198000.0 582551.0 0
202000.0 582551.0 0
206000.0 582551.0 0
210000.0 582551.0 0
214000.0 582551.0 0
218000.0 582551.0 0
222000.0 582551.0 0
226000.0 582551.0 0
230000.0 582551.0 0
234000.0 582551.0 0
238000.0 582551.0 0
242000.0 582551.0 0
246000.0 582551.0 0
250000.0 582551.0 0
254000.0 582551.0 0
258000.0 582551.0 0
262000.0 582551.0 0
266000.0 582551.0 0
270000.0 582551.0 0
274000.0 582551.0 0
278000.0 582551.0 0
282000.0 582551.0 0
286000.0 582551.0 0
290000.0 582551.0 0
294000.0 582551.0 0
298000.0 582551.0 0
302000.0 582551.0 0
306000.0 582551.0 0
310000.0 582551.0 0
314000.0 582551.0 0
318000.0 582551.0 0
322000.0 582551.0 0
326000.0 582551.0 0
330000.0 582551.0 0
334000.0 582551.0 0
338000.0 582551.0 0
342000.0 582551.0 0
346000.0 582551.0 0
350000.0 582551.0 0
354000.0 582551.0 0
358000.0 582551.0 0
362000.0 582551.0 0
366000.0 582551.0 0
370000.0 582551.0 0
374000.0 582551.0 0
378000.0 582551.0 0
382000.0 582551.0 0
386000.0 582551.0 0
390000.0 582551.0 0
394000.0 582551.0 0
398000.0 582551.0 0
102000.0 586551.0 0
106000.0 586551.0 0
110000.0 586551.0 0
114000.0 586551.0 0
118000.0 586551.0 0
122000.0 586551.0 0
126000.0 586551.0 0
130000.0 586551.0 0
134000.0 586551.0 0
138000.0 586551.0 0
142000.0 586551.0 0
146000.0 586551.0 0
150000.0 586551.0 0
154000.0 586551.0 0
158000.0 586551.0 0
162000.0 586551.0 0
166000.0 586551.0 0
170000.0 586551.0 0
174000.0 586551.0 0
178000.0 586551.0 0
182000.0 586551.0 0
186000.0 586551.0 0
190000.0 586551.0 0
194000.0 586551.0 0
198000.0 586551.0 0
202000.0 586551.0 0
206000.0 586551.0 0
210000.0 586551.0 0
214000.0 586551.0 0
218000.0 586551.0 0
222000.0 586551.0 0
226000.0 586551.0 0
230000.0 586551.0 0
234000.0 586551.0 0
238000.0 586551.0 0
242000.0 586551.0 0
246000.0 586551.0 0
250000.0 586551.0 0
254000.0 586551.0 0
258000.0 586551.0 0
262000.0 586551.0 0
266000.0 586551.0 0
270000.0 586551.0 0
274000.0 586551.0 0
278000.0 586551.0 0
282000.0 586551.0 0
286000.0 586551.0 0
290000.0 586551.0 0
294000.0 586551.0 0
298000.0 586551.0 0
302000.0 586551.0 0
306000.0 586551.0 0
310000.0 586551.0 0
314000.0 586551.0 0
318000.0 586551.0 0
322000.0 586551.0 0
326000.0 586551.0 0
330000.0 586551.0 0
334000.0 586551.0 0
338000.0 586551.0 0
342000.0 586551.0 0
346000.0 586551.0 0
350000.0 586551.0 0
354000.0 586551.0 0
358000.0 586551.0 0
362000.0 586551.0 0
366000.0 586551.0 0
370000.0 586551.0 0
374000.0 586551.0 0
378000.0 586551.0 0
382000.0 586551.0 0
386000.0 586551.0 0
390000.0 586551.0 0
394000.0 586551.0 0
398000.0 586551.0 0
102000.0 590551.0 0
106000.0 590551.0 0
110000.0 590551.0 0
114000.0 590551.0 0
118000.0 590551.0 0
122000.0 590551.0 0
126000.0 590551.0 0
130000.0 590551.0 0
134000.0 590551.0 0
138000.0 590551.0 0
142000.0 590551.0 0
146000.0 590551.0 0
150000.0 590551.0 0
154000.0 590551.0 0
158000.0 590551.0 0
162000.0 590551.0 0
166000.0 590551.0 0
170000.0 590551.0 0
174000.0 590551.0 0
178000.0 590551.0 0
182000.0 590551.0 0
186000.0 590551.0 0
190000.0 590551.0 0
194000.0 590551.0 0
198000.0 590551.0 0
202000.0 590551.0 0
206000.0 590551.0 0
210000.0 590551.0 0
214000.0 590551.0 0
218000.0 590551.0 0
222000.0 590551.0 0
226000.0 590551.0 0
230000.0 590551.0 0
234000.0 590551.0 0
238000.0 590551.0 0
242000.0 590551.0 0
246000.0 590551.0 0
250000.0 590551.0 0
254000.0 590551.0 0
258000.0 590551.0 0
262000.0 590551.0 0
266000.0 590551.0 0
270000.0 590551.0 0
274000.0 590551.0 0
278000.0 590551.0 0
282000.0 590551.0 0
286000.0 590551.0 0
290000.0 590551.0 0
294000.0 590551.0 0
298000.0 590551.0 0
302000.0 590551.0 0
306000.0 590551.0 0
310000.0 590551.0 0
314000.0 590551.0 0
318000.0 590551.0 0
322000.0 590551.0 0
326000.0 590551.0 0
330000.0 590551.0 0
334000.0 590551.0 0
338000.0 590551.0 0
342000.0 590551.0 0
346000.0 590551.0 0
350000.0 590551.0 0
354000.0 590551.0 0
358000.0 590551.0 0
362000.0 590551.0 0
366000.0 590551.0 0
370000.0 590551.0 0
374000.0 590551.0 0
378000.0 590551.0 0
382000.0 590551.0 0
386000.0 590551.0 0
390000.0 590551.0 0
394000.0 590551.0 0
398000.0 590551.0 0
102000.0 594551.0 0
106000.0 594551.0 0
110000.0 594551.0 0
114000.0 594551.0 0
118000.0 594551.0 0
122000.0 594551.0 0
126000.0 594551.0 0
130000.0 594551.0 0
134000.0 594551.0 0
138000.0 594551.0 0
142000.0 594551.0 0
146000.0 594551.0 0
150000.0 594551.0 0
154000.0 594551.0 0
158000.0 594551.0 0
162000.0 594551.0 0
166000.0 594551.0 0
170000.0 594551.0 0
174000.0 594551.0 0
178000.0 594551.0 0
182000.0 594551.0 0
186000.0 594551.0 0
190000.0 594551.0 0
194000.0 594551.0 0
198000.0 594551.0 0
202000.0 594551.0 0
206000.0 594551.0 0
210000.0 594551.0 0
214000.0 594551.0 0
218000.0 594551.0 0
222000.0 594551.0 0
226000.0 594551.0 0
230000.0 594551.0 0
234000.0 594551.0 0
238000.0 594551.0 0
242000.0 594551.0 0
246000.0 594551.0 0
250000.0 594551.0 0
254000.0 594551.0 0
258000.0 594551.0 0
262000.0 594551.0 0
266000.0 594551.0 0
270000.0 594551.0 0
274000.0 594551.0 0
278000.0 594551.0 0
282000.0 594551.0 0
286000.0 594551.0 0
290000.0 594551.0 0
294000.0 594551.0 0
298000.0 594551.0 0
302000.0 594551.0 0
306000.0 594551.0 0
310000.0 594551.0 0
314000.0 594551.0 0
318000.0 594551.0 0
322000.0 594551.0 0
326000.0 594551.0 0
330000.0 594551.0 0
334000.0 594551.0 0
338000.0 594551.0 0
342000.0 594551.0 0
346000.0 594551.0 0
350000.0 594551.0 0
354000.0 594551.0 0
358000.0 594551.0 0
362000.0 594551.0 0
366000.0 594551.0 0
370000.0 594551.0 0
374000.0 594551.0 0
378000.0 594551.0 0
382000.0 594551.0 0
386000.0 594551.0 0
390000.0 594551.0 0
394000.0 594551.0 0
398000.0 594551.0 0
102000.0 598551.0 0
106000.0 598551.0 0
110000.0 598551.0 0
114000.0 598551.0 0
118000.0 598551.0 0
122000.0 598551.0 0
126000.0 598551.0 0
130000.0 598551.0 0
134000.0 598551.0 0
138000.0 598551.0 0
142000.0 598551.0 0
146000.0 598551.0 0
150000.0 598551.0 0
154000.0 598551.0 0
158000.0 598551.0 0
162000.0 598551.0 0
166000.0 598551.0 0
170000.0 598551.0 0
174000.0 598551.0 0
178000.0 598551.0 0
182000.0 598551.0 0
186000.0 598551.0 0
190000.0 598551.0 0
194000.0 598551.0 0
198000.0 598551.0 0
202000.0 598551.0 0
206000.0 598551.0 0
210000.0 598551.0 0
214000.0 598551.0 0
218000.0 598551.0 0
222000.0 598551.0 0
226000.0 598551.0 0
230000.0 598551.0 0
234000.0 598551.0 0
238000.0 598551.0 0
242000.0 598551.0 0
246000.0 598551.0 0
250000.0 598551.0 0
254000.0 598551.0 0
258000.0 598551.0 0
262000.0 598551.0 0
266000.0 598551.0 0
270000.0 598551.0 0
274000.0 598551.0 0
278000.0 598551.0 0
282000.0 598551.0 0
286000.0 598551.0 0
290000.0 598551.0 0
294000.0 598551.0 0
298000.0 598551.0 0
302000.0 598551.0 0
306000.0 598551.0 0
310000.0 598551.0 0
314000.0 598551.0 0
318000.0 598551.0 0
322000.0 598551.0 0
326000.0 598551.0 0
330000.0 598551.0 0
334000.0 598551.0 0
338000.0 598551.0 0
342000.0 598551.0 0
346000.0 598551.0 0
350000.0 598551.0 0
354000.0 598551.0 0
358000.0 598551.0 0
362000.0 598551.0 0
366000.0 598551.0 0
370000.0 598551.0 0
374000.0 598551.0 0
378000.0 598551.0 0
382000.0 598551.0 0
386000.0 598551.0 0
390000.0 598551.0 0
394000.0 598551.0 0
398000.0 598551.0 0
102000.0 602551.0 0
106000.0 602551.0 0
110000.0 602551.0 0
114000.0 602551.0 0
118000.0 602551.0 0
122000.0 602551.0 0
126000.0 602551.0 0
130000.0 602551.0 0
134000.0 602551.0 0
138000.0 602551.0 0
142000.0 602551.0 0
146000.0 602551.0 0
150000.0 602551.0 0
154000.0 602551.0 0
158000.0 602551.0 0
162000.0 602551.0 0
166000.0 602551.0 0
170000.0 602551.0 0
174000.0 602551.0 0
178000.0 602551.0 0
182000.0 602551.0 0
186000.0 602551.0 0
190000.0 602551.0 0
194000.0 602551.0 0
198000.0 602551.0 0
202000.0 602551.0 0
206000.0 602551.0 0
210000.0 602551.0 0
214000.0 602551.0 0
218000.0 602551.0 0
222000.0 602551.0 0
226000.0 602551.0 0
230000.0 602551.0 0
234000.0 602551.0 0
238000.0 602551.0 0
242000.0 602551.0 0
246000.0 602551.0 0
250000.0 602551.0 0
254000.0 602551.0 0
258000.0 602551.0 0
262000.0 602551.0 0
266000.0 602551.0 0
270000.0 602551.0 0
274000.0 602551.0 0
278000.0 602551.0 0
282000.0 602551.0 0
286000.0 602551.0 0
290000.0 602551.0 0
294000.0 602551.0 0
298000.0 602551.0 0
302000.0 602551.0 0
306000.0 602551.0 0
310000.0 602551.0 0
314000.0 602551.0 0
318000.0 602551.0 0
322000.0 602551.0 0
326000.0 602551.0 0
330000.0 602551.0 0
334000.0 602551.0 0
338000.0 602551.0 0
342000.0 602551.0 0
346000.0 602551.0 0
350000.0 602551.0 0
354000.0 602551.0 0
358000.0 602551.0 0
362000.0 602551.0 0
366000.0 602551.0 0
370000.0 602551.0 0
374000.0 602551.0 0
378000.0 602551.0 0
382000.0 602551.0 0
386000.0 602551.0 0
390000.0 602551.0 0
394000.0 602551.0 0
398000.0 602551.0 0
102000.0 606551.0 0
106000.0 606551.0 0
110000.0 606551.0 0
114000.0 606551.0 0
118000.0 606551.0 0
122000.0 606551.0 0
126000.0 606551.0 0
130000.0 606551.0 0
134000.0 606551.0 0
138000.0 606551.0 0
142000.0 606551.0 0
146000.0 606551.0 0
150000.0 606551.0 0
154000.0 606551.0 0
158000.0 606551.0 0
162000.0 606551.0 0
166000.0 606551.0 0
170000.0 606551.0 0
174000.0 606551.0 0
178000.0 606551.0 0
182000.0 606551.0 0
186000.0 606551.0 0
190000.0 606551.0 0
194000.0 606551.0 0
198000.0 606551.0 0
202000.0 606551.0 0
206000.0 606551.0 0
210000.0 606551.0 0
214000.0 606551.0 0
218000.0 606551.0 0
222000.0 606551.0 0
226000.0 606551.0 0
230000.0 606551.0 0
234000.0 606551.0 0
238000.0 606551.0 0
242000.0 606551.0 0
246000.0 606551.0 0
250000.0 606551.0 0
254000.0 606551.0 0
258000.0 606551.0 0
262000.0 606551.0 0
266000.0 606551.0 0
270000.0 606551.0 0
274000.0 606551.0 0
278000.0 606551.0 0
282000.0 606551.0 0
286000.0 606551.0 0
290000.0 606551.0 0
294000.0 606551.0 0
298000.0 606551.0 0
302000.0 606551.0 0
306000.0 606551.0 0
310000.0 606551.0 0
314000.0 606551.0 0
318000.0 606551.0 0
322000.0 606551.0 0
326000.0 606551.0 0
330000.0 606551.0 0
334000.0 606551.0 0
338000.0 606551.0 0
342000.0 606551.0 0
346000.0 606551.0 0
350000.0 606551.0 0
354000.0 606551.0 0
358000.0 606551.0 0
362000.0 606551.0 0
366000.0 606551.0 0
370000.0 606551.0 0
374000.0 606551.0 0
378000.0 606551.0 0
382000.0 606551.0 0
386000.0 606551.0 0
390000.0 606551.0 0
394000.0 606551.0 0
398000.0 606551.0 0
102000.0 610551.0 0
106000.0 610551.0 0
110000.0 610551.0 0
114000.0 610551.0 0
118000.0 610551.0 0
122000.0 610551.0 0
126000.0 610551.0 0
130000.0 610551.0 0
134000.0 610551.0 0
138000.0 610551.0 0
142000.0 610551.0 0
146000.0 610551.0 0
150000.0 610551.0 0
154000.0 610551.0 0
158000.0 610551.0 0
162000.0 610551.0 0
166000.0 610551.0 0
170000.0 610551.0 0
174000.0 610551.0 0
178000.0 610551.0 0
182000.0 610551.0 0
186000.0 610551.0 0
190000.0 610551.0 0
194000.0 610551.0 0
198000.0 610551.0 0
202000.0 610551.0 0
206000.0 610551.0 0
210000.0 610551.0 0
214000.0 610551.0 0
218000.0 610551.0 0
222000.0 610551.0 0
226000.0 610551.0 0
230000.0 610551.0 0
234000.0 610551.0 0
238000.0 610551.0 0
242000.0 610551.0 0
246000.0 610551.0 0
250000.0 610551.0 0
254000.0 610551.0 0
258000.0 610551.0 0
262000.0 610551.0 0
266000.0 610551.0 0
270000.0 610551.0 0
274000.0 610551.0 0
278000.0 610551.0 0
282000.0 610551.0 0
286000.0 610551.0 0
290000.0 610551.0 0
294000.0 610551.0 0
298000.0 610551.0 0
302000.0 610551.0 0
306000.0 610551.0 0
310000.0 610551.0 0
314000.0 610551.0 0
318000.0 610551.0 0
322000.0 610551.0 0
326000.0 610551.0 0
330000.0 610551.0 0
334000.0 610551.0 0
338000.0 610551.0 0
342000.0 610551.0 0
346000.0 610551.0 0
350000.0 610551.0 0
354000.0 610551.0 0
358000.0 610551.0 0
362000.0 610551.0 0
366000.0 610551.0 0
370000.0 610551.0 0
374000.0 610551.0 0
378000.0 610551.0 0
382000.0 610551.0 0
386000.0 610551.0 0
390000.0 610551.0 0
394000.0 610551.0 0
398000.0 610551.0 0
102000.0 614551.0 0
106000.0 614551.0 0
110000.0 614551.0 0
114000.0 614551.0 0
118000.0 614551.0 0
122000.0 614551.0 0
126000.0 614551.0 0
130000.0 614551.0 0
134000.0 614551.0 0
138000.0 614551.0 0
142000.0 614551.0 0
146000.0 614551.0 0
150000.0 614551.0 0
154000.0 614551.0 0
158000.0 614551.0 0
162000.0 614551.0 0
166000.0 614551.0 0
170000.0 614551.0 0
174000.0 614551.0 0
178000.0 614551.0 0
182000.0 614551.0 0
186000.0 614551.0 0
190000.0 614551.0 0
194000.0 614551.0 0
198000.0 614551.0 0
202000.0 614551.0 0
206000.0 614551.0 0
210000.0 614551.0 0
214000.0 614551.0 0
218000.0 614551.0 0
222000.0 614551.0 0
226000.0 614551.0 0
230000.0 614551.0 0
234000.0 614551.0 0
238000.0 614551.0 0
242000.0 614551.0 0
246000.0 614551.0 0
250000.0 614551.0 0
254000.0 614551.0 0
258000.0 614551.0 0
262000.0 614551.0 0
266000.0 614551.0 0
270000.0 614551.0 0
274000.0 614551.0 0
278000.0 614551.0 0
282000.0 614551.0 0
286000.0 614551.0 0
290000.0 614551.0 0
294000.0 614551.0 0
298000.0 614551.0 0
302000.0 614551.0 0
306000.0 614551.0 0
310000.0 614551.0 0
314000.0 614551.0 0
318000.0 614551.0 0
322000.0 614551.0 0
326000.0 614551.0 0
330000.0 614551.0 0
334000.0 614551.0 0
338000.0 614551.0 0
342000.0 614551.0 0
346000.0 614551.0 0
350000.0 614551.0 0
354000.0 614551.0 0
358000.0 614551.0 0
362000.0 614551.0 0
366000.0 614551.0 0
370000.0 614551.0 0
374000.0 614551.0 0
378000.0 614551.0 0
382000.0 614551.0 0
386000.0 614551.0 0
390000.0 614551.0 0
394000.0 614551.0 0
398000.0 614551.0 0
102000.0 618551.0 0
106000.0 618551.0 0
110000.0 618551.0 0
114000.0 618551.0 0
118000.0 618551.0 0
122000.0 618551.0 0
126000.0 618551.0 0
130000.0 618551.0 0
134000.0 618551.0 0
138000.0 618551.0 0
142000.0 618551.0 0
146000.0 618551.0 0
150000.0 618551.0 0
154000.0 618551.0 0
158000.0 618551.0 0
162000.0 618551.0 0
166000.0 618551.0 0
170000.0 618551.0 0
174000.0 618551.0 0
178000.0 618551.0 0
182000.0 618551.0 0
186000.0 618551.0 0
190000.0 618551.0 0
194000.0 618551.0 0
198000.0 618551.0 0
202000.0 618551.0 0
206000.0 618551.0 0
210000.0 618551.0 0
214000.0 618551.0 0
218000.0 618551.0 0
222000.0 618551.0 0
226000.0 618551.0 0
230000.0 618551.0 0
234000.0 618551.0 0
238000.0 618551.0 0
242000.0 618551.0 0
246000.0 618551.0 0
250000.0 618551.0 0
254000.0 618551.0 0
258000.0 618551.0 0
262000.0 618551.0 0
266000.0 618551.0 0
270000.0 618551.0 0
274000.0 618551.0 0
278000.0 618551.0 0
282000.0 618551.0 0
286000.0 618551.0 0
290000.0 618551.0 0
294000.0 618551.0 0
298000.0 618551.0 0
302000.0 618551.0 0
306000.0 618551.0 0
310000.0 618551.0 0
314000.0 618551.0 0
318000.0 618551.0 0
322000.0 618551.0 0
326000.0 618551.0 0
330000.0 618551.0 0
334000.0 618551.0 0
338000.0 618551.0 0
342000.0 618551.0 0
346000.0 618551.0 0
350000.0 618551.0 0
354000.0 618551.0 0
358000.0 618551.0 0
362000.0 618551.0 0
366000.0 618551.0 0
370000.0 618551.0 0
374000.0 618551.0 0
378000.0 618551.0 0
382000.0 618551.0 0
386000.0 618551.0 0
390000.0 618551.0 0
394000.0 618551.0 0
398000.0 618551.0 0
102000.0 622551.0 0
106000.0 622551.0 0
110000.0 622551.0 0
114000.0 622551.0 0
118000.0 622551.0 0
122000.0 622551.0 0
126000.0 622551.0 0
130000.0 622551.0 0
134000.0 622551.0 0
138000.0 622551.0 0
142000.0 622551.0 0
146000.0 622551.0 0
150000.0 622551.0 0
154000.0 622551.0 0
158000.0 622551.0 0
162000.0 622551.0 0
166000.0 622551.0 0
170000.0 622551.0 0
174000.0 622551.0 0
178000.0 622551.0 0
182000.0 622551.0 0
186000.0 622551.0 0
190000.0 622551.0 0
194000.0 622551.0 0
198000.0 622551.0 0
202000.0 622551.0 0
206000.0 622551.0 0
210000.0 622551.0 0
214000.0 622551.0 0
218000.0 622551.0 0
222000.0 622551.0 0
226000.0 622551.0 0
230000.0 622551.0 0
234000.0 622551.0 0
238000.0 622551.0 0
242000.0 622551.0 0
246000.0 622551.0 0
250000.0 622551.0 0
254000.0 622551.0 0
258000.0 622551.0 0
262000.0 622551.0 0
266000.0 622551.0 0
270000.0 622551.0 0
274000.0 622551.0 0
278000.0 622551.0 0
282000.0 622551.0 0
286000.0 622551.0 0
290000.0 622551.0 0
294000.0 622551.0 0
298000.0 622551.0 0
302000.0 622551.0 0
306000.0 622551.0 0
310000.0 622551.0 0
314000.0 622551.0 0
318000.0 622551.0 0
322000.0 622551.0 0
326000.0 622551.0 0
330000.0 622551.0 0
334000.0 622551.0 0
338000.0 622551.0 0
342000.0 622551.0 0
346000.0 622551.0 0
350000.0 622551.0 0
354000.0 622551.0 0
358000.0 622551.0 0
362000.0 622551.0 0
366000.0 622551.0 0
370000.0 622551.0 0
374000.0 622551.0 0
378000.0 622551.0 0
382000.0 622551.0 0
386000.0 622551.0 0
390000.0 622551.0 0
394000.0 622551.0 0
398000.0 622551.0 0
102000.0 626551.0 0
106000.0 626551.0 0
110000.0 626551.0 0
114000.0 626551.0 0
118000.0 626551.0 0
122000.0 626551.0 0
126000.0 626551.0 0
130000.0 626551.0 0
134000.0 626551.0 0
138000.0 626551.0 0
142000.0 626551.0 0
146000.0 626551.0 0
150000.0 626551.0 0
154000.0 626551.0 0
158000.0 626551.0 0
162000.0 626551.0 0
166000.0 626551.0 0
170000.0 626551.0 0
174000.0 626551.0 0
178000.0 626551.0 0
182000.0 626551.0 0
186000.0 626551.0 0
190000.0 626551.0 0
194000.0 626551.0 0
198000.0 626551.0 0
202000.0 626551.0 0
206000.0 626551.0 0
210000.0 626551.0 0
214000.0 626551.0 0
218000.0 626551.0 0
222000.0 626551.0 0
226000.0 626551.0 0
230000.0 626551.0 0
234000.0 626551.0 0
238000.0 626551.0 0
242000.0 626551.0 0
246000.0 626551.0 0
250000.0 626551.0 0
254000.0 626551.0 0
258000.0 626551.0 0
262000.0 626551.0 0
266000.0 626551.0 0
270000.0 626551.0 0
274000.0 626551.0 0
278000.0 626551.0 0
282000.0 626551.0 0
286000.0 626551.0 0
290000.0 626551.0 0
294000.0 626551.0 0
298000.0 626551.0 0
302000.0 626551.0 0
306000.0 626551.0 0
310000.0 626551.0 0
314000.0 626551.0 0
318000.0 626551.0 0
322000.0 626551.0 0
326000.0 626551.0 0
330000.0 626551.0 0
334000.0 626551.0 0
338000.0 626551.0 0
342000.0 626551.0 0
346000.0 626551.0 0
350000.0 626551.0 0
354000.0 626551.0 0
358000.0 626551.0 0
362000.0 626551.0 0
366000.0 626551.0 0
370000.0 626551.0 0
374000.0 626551.0 0
378000.0 626551.0 0
382000.0 626551.0 0
386000.0 626551.0 0
390000.0 626551.0 0
394000.0 626551.0 0
398000.0 626551.0 0
102000.0 630551.0 0
106000.0 630551.0 0
110000.0 630551.0 0
114000.0 630551.0 0
118000.0 630551.0 0
122000.0 630551.0 0
126000.0 630551.0 0
130000.0 630551.0 0
134000.0 630551.0 0
138000.0 630551.0 0
142000.0 630551.0 0
146000.0 630551.0 0
150000.0 630551.0 0
154000.0 630551.0 0
158000.0 630551.0 0
162000.0 630551.0 0
166000.0 630551.0 0
170000.0 630551.0 0
174000.0 630551.0 0
178000.0 630551.0 0
182000.0 630551.0 0
186000.0 630551.0 0
190000.0 630551.0 0
194000.0 630551.0 0
198000.0 630551.0 0
202000.0 630551.0 0
206000.0 630551.0 0
210000.0 630551.0 0
214000.0 630551.0 0
218000.0 630551.0 0
222000.0 630551.0 0
226000.0 630551.0 0
230000.0 630551.0 0
234000.0 630551.0 0
238000.0 630551.0 0
242000.0 630551.0 0
246000.0 630551.0 0
250000.0 630551.0 0
254000.0 630551.0 0
258000.0 630551.0 0
262000.0 630551.0 0
266000.0 630551.0 0
270000.0 630551.0 0
274000.0 630551.0 0
278000.0 630551.0 0
282000.0 630551.0 0
286000.0 630551.0 0
290000.0 630551.0 0
294000.0 630551.0 0
298000.0 630551.0 0
302000.0 630551.0 0
306000.0 630551.0 0
310000.0 630551.0 0
314000.0 630551.0 0
318000.0 630551.0 0
322000.0 630551.0 0
326000.0 630551.0 0
330000.0 630551.0 0
334000.0 630551.0 0
338000.0 630551.0 0
342000.0 630551.0 0
346000.0 630551.0 0
350000.0 630551.0 0
354000.0 630551.0 0
358000.0 630551.0 0
362000.0 630551.0 0
366000.0 630551.0 0
370000.0 630551.0 0
374000.0 630551.0 0
378000.0 630551.0 0
382000.0 630551.0 0
386000.0 630551.0 0
390000.0 630551.0 0
394000.0 630551.0 0
398000.0 630551.0 0
102000.0 634551.0 0
106000.0 634551.0 0
110000.0 634551.0 0
114000.0 634551.0 0
118000.0 634551.0 0
122000.0 634551.0 0
126000.0 634551.0 0
130000.0 634551.0 0
134000.0 634551.0 0
138000.0 634551.0 0
142000.0 634551.0 0
146000.0 634551.0 0
150000.0 634551.0 0
154000.0 634551.0 0
158000.0 634551.0 0
162000.0 634551.0 0
166000.0 634551.0 0
170000.0 634551.0 0
174000.0 634551.0 0
178000.0 634551.0 0
182000.0 634551.0 0
186000.0 634551.0 0
190000.0 634551.0 0
194000.0 634551.0 0
198000.0 634551.0 0
202000.0 634551.0 0
206000.0 634551.0 0
210000.0 634551.0 0
214000.0 634551.0 0
218000.0 634551.0 0
222000.0 634551.0 0
226000.0 634551.0 0
230000.0 634551.0 0
234000.0 634551.0 0
238000.0 634551.0 0
242000.0 634551.0 0
246000.0 634551.0 0
250000.0 634551.0 0
254000.0 634551.0 0
258000.0 634551.0 0
262000.0 634551.0 0
266000.0 634551.0 0
270000.0 634551.0 0
274000.0 634551.0 0
278000.0 634551.0 0
282000.0 634551.0 0
286000.0 634551.0 0
290000.0 634551.0 0
294000.0 634551.0 0
298000.0 634551.0 0
302000.0 634551.0 0
306000.0 634551.0 0
310000.0 634551.0 0
314000.0 634551.0 0
318000.0 634551.0 0
322000.0 634551.0 0
326000.0 634551.0 0
330000.0 634551.0 0
334000.0 634551.0 0
338000.0 634551.0 0
342000.0 634551.0 0
346000.0 634551.0 0
350000.0 634551.0 0
354000.0 634551.0 0
358000.0 634551.0 0
362000.0 634551.0 0
366000.0 634551.0 0
370000.0 634551.0 0
374000.0 634551.0 0
378000.0 634551.0 0
382000.0 634551.0 0
386000.0 634551.0 0
390000.0 634551.0 0
394000.0 634551.0 0
398000.0 634551.0 0
102000.0 638551.0 0
106000.0 638551.0 0
110000.0 638551.0 0
114000.0 638551.0 0
118000.0 638551.0 0
122000.0 638551.0 0
126000.0 638551.0 0
130000.0 638551.0 0
134000.0 638551.0 0
138000.0 638551.0 0
142000.0 638551.0 0
146000.0 638551.0 0
150000.0 638551.0 0
154000.0 638551.0 0
158000.0 638551.0 0
162000.0 638551.0 0
166000.0 638551.0 0
170000.0 638551.0 0
174000.0 638551.0 0
178000.0 638551.0 0
182000.0 638551.0 0
186000.0 638551.0 0
190000.0 638551.0 0
194000.0 638551.0 0
198000.0 638551.0 0
202000.0 638551.0 0
206000.0 638551.0 0
210000.0 638551.0 0
214000.0 638551.0 0
218000.0 638551.0 0
222000.0 638551.0 0
226000.0 638551.0 0
230000.0 638551.0 0
234000.0 638551.0 0
238000.0 638551.0 0
242000.0 638551.0 0
246000.0 638551.0 0
250000.0 638551.0 0
254000.0 638551.0 0
258000.0 638551.0 0
262000.0 638551.0 0
266000.0 638551.0 0
270000.0 638551.0 0
274000.0 638551.0 0
278000.0 638551.0 0
282000.0 638551.0 0
286000.0 638551.0 0
290000.0 638551.0 0
294000.0 638551.0 0
298000.0 638551.0 0
302000.0 638551.0 0
306000.0 638551.0 0
310000.0 638551.0 0
314000.0 638551.0 0
318000.0 638551.0 0
322000.0 638551.0 0
326000.0 638551.0 0
330000.0 638551.0 0
334000.0 638551.0 0
338000.0 638551.0 0
342000.0 638551.0 0
346000.0 638551.0 0
350000.0 638551.0 0
354000.0 638551.0 0
358000.0 638551.0 0
362000.0 638551.0 0
366000.0 638551.0 0
370000.0 638551.0 0
374000.0 638551.0 0
378000.0 638551.0 0
382000.0 638551.0 0
386000.0 638551.0 0
390000.0 638551.0 0
394000.0 638551.0 0
398000.0 638551.0 0
102000.0 642551.0 0
106000.0 642551.0 0
110000.0 642551.0 0
114000.0 642551.0 0
118000.0 642551.0 0
122000.0 642551.0 0
126000.0 642551.0 0
130000.0 642551.0 0
134000.0 642551.0 0
138000.0 642551.0 0
142000.0 642551.0 0
146000.0 642551.0 0
150000.0 642551.0 0
154000.0 642551.0 0
158000.0 642551.0 0
162000.0 642551.0 0
166000.0 642551.0 0
170000.0 642551.0 0
174000.0 642551.0 0
178000.0 642551.0 0
182000.0 642551.0 0
186000.0 642551.0 0
190000.0 642551.0 0
194000.0 642551.0 0
198000.0 642551.0 0
202000.0 642551.0 0
206000.0 642551.0 0
210000.0 642551.0 0
214000.0 642551.0 0
218000.0 642551.0 0
222000.0 642551.0 0
226000.0 642551.0 0
230000.0 642551.0 0
234000.0 642551.0 0
238000.0 642551.0 0
242000.0 642551.0 0
246000.0 642551.0 0
250000.0 642551.0 0
254000.0 642551.0 0
258000.0 642551.0 0
262000.0 642551.0 0
266000.0 642551.0 0
270000.0 642551.0 0
274000.0 642551.0 0
278000.0 642551.0 0
282000.0 642551.0 0
286000.0 642551.0 0
290000.0 642551.0 0
294000.0 642551.0 0
298000.0 642551.0 0
302000.0 642551.0 0
306000.0 642551.0 0
310000.0 642551.0 0
314000.0 642551.0 0
318000.0 642551.0 0
322000.0 642551.0 0
326000.0 642551.0 0
330000.0 642551.0 0
334000.0 642551.0 0
338000.0 642551.0 0
342000.0 642551.0 0
346000.0 642551.0 0
350000.0 642551.0 0
354000.0 642551.0 0
358000.0 642551.0 0
362000.0 642551.0 0
366000.0 642551.0 0
370000.0 642551.0 0
374000.0 642551.0 0
378000.0 642551.0 0
382000.0 642551.0 0
386000.0 642551.0 0
390000.0 642551.0 0
394000.0 642551.0 0
398000.0 642551.0 0
102000.0 646551.0 0
106000.0 646551.0 0
110000.0 646551.0 0
114000.0 646551.0 0
118000.0 646551.0 0
122000.0 646551.0 0
126000.0 646551.0 0
130000.0 646551.0 0
134000.0 646551.0 0
138000.0 646551.0 0
142000.0 646551.0 0
146000.0 646551.0 0
150000.0 646551.0 0
154000.0 646551.0 0
158000.0 646551.0 0
162000.0 646551.0 0
166000.0 646551.0 0
170000.0 646551.0 0
174000.0 646551.0 0
178000.0 646551.0 0
182000.0 646551.0 0
186000.0 646551.0 0
190000.0 646551.0 0
194000.0 646551.0 0
198000.0 646551.0 0
202000.0 646551.0 0
206000.0 646551.0 0
210000.0 646551.0 0
214000.0 646551.0 0
218000.0 646551.0 0
222000.0 646551.0 0
226000.0 646551.0 0
230000.0 646551.0 0
234000.0 646551.0 0
238000.0 646551.0 0
242000.0 646551.0 0
246000.0 646551.0 0
250000.0 646551.0 0
254000.0 646551.0 0
258000.0 646551.0 0
262000.0 646551.0 0
266000.0 646551.0 0
270000.0 646551.0 0
274000.0 646551.0 0
278000.0 646551.0 0
282000.0 646551.0 0
286000.0 646551.0 0
290000.0 646551.0 0
294000.0 646551.0 0
298000.0 646551.0 0
302000.0 646551.0 0
306000.0 646551.0 0
310000.0 646551.0 0
314000.0 646551.0 0
318000.0 646551.0 0
322000.0 646551.0 0
326000.0 646551.0 0
330000.0 646551.0 0
334000.0 646551.0 0
338000.0 646551.0 0
342000.0 646551.0 0
346000.0 646551.0 0
350000.0 646551.0 0
354000.0 646551.0 0
358000.0 646551.0 0
362000.0 646551.0 0
366000.0 646551.0 0
370000.0 646551.0 0
374000.0 646551.0 0
378000.0 646551.0 0
382000.0 646551.0 0
386000.0 646551.0 0
390000.0 646551.0 0
394000.0 646551.0 0
398000.0 646551.0 0
102000.0 650551.0 0
106000.0 650551.0 0
110000.0 650551.0 0
114000.0 650551.0 0
118000.0 650551.0 0
122000.0 650551.0 0
126000.0 650551.0 0
130000.0 650551.0 0
134000.0 650551.0 0
138000.0 650551.0 0
142000.0 650551.0 0
146000.0 650551.0 0
150000.0 650551.0 0
154000.0 650551.0 0
158000.0 650551.0 0
162000.0 650551.0 0
166000.0 650551.0 0
170000.0 650551.0 0
174000.0 650551.0 0
178000.0 650551.0 0
182000.0 650551.0 0
186000.0 650551.0 0
190000.0 650551.0 0
194000.0 650551.0 0
198000.0 650551.0 0
202000.0 650551.0 0
206000.0 650551.0 0
210000.0 650551.0 0
214000.0 650551.0 0
218000.0 650551.0 0
222000.0 650551.0 0
226000.0 650551.0 0
230000.0 650551.0 0
234000.0 650551.0 0
238000.0 650551.0 0
242000.0 650551.0 0
246000.0 650551.0 0
250000.0 650551.0 0
254000.0 650551.0 0
258000.0 650551.0 0
262000.0 650551.0 0
266000.0 650551.0 0
270000.0 650551.0 0
274000.0 650551.0 0
278000.0 650551.0 0
282000.0 650551.0 0
286000.0 650551.0 0
290000.0 650551.0 0
294000.0 650551.0 0
298000.0 650551.0 0
302000.0 650551.0 0
306000.0 650551.0 0
310000.0 650551.0 0
314000.0 650551.0 0
318000.0 650551.0 0
322000.0 650551.0 0
326000.0 650551.0 0
330000.0 650551.0 0
334000.0 650551.0 0
338000.0 650551.0 0
342000.0 650551.0 0
346000.0 650551.0 0
350000.0 650551.0 0
354000.0 650551.0 0
358000.0 650551.0 0
362000.0 650551.0 0
366000.0 650551.0 0
370000.0 650551.0 0
374000.0 650551.0 0
378000.0 650551.0 0
382000.0 650551.0 0
386000.0 650551.0 0
390000.0 650551.0 0
394000.0 650551.0 0
398000.0 650551.0 0
102000.0 654551.0 0
106000.0 654551.0 0
110000.0 654551.0 0
114000.0 654551.0 0
118000.0 654551.0 0
122000.0 654551.0 0
126000.0 654551.0 0
130000.0 654551.0 0
134000.0 654551.0 0
138000.0 654551.0 0
142000.0 654551.0 0
146000.0 654551.0 0
150000.0 654551.0 0
154000.0 654551.0 0
158000.0 654551.0 0
162000.0 654551.0 0
166000.0 654551.0 0
170000.0 654551.0 0
174000.0 654551.0 0
178000.0 654551.0 0
182000.0 654551.0 0
186000.0 654551.0 0
190000.0 654551.0 0
194000.0 654551.0 0
198000.0 654551.0 0
202000.0 654551.0 0
206000.0 654551.0 0
210000.0 654551.0 0
214000.0 654551.0 0
218000.0 654551.0 0
222000.0 654551.0 0
226000.0 654551.0 0
230000.0 654551.0 0
234000.0 654551.0 0
238000.0 654551.0 0
242000.0 654551.0 0
246000.0 654551.0 0
250000.0 654551.0 0
254000.0 654551.0 0
258000.0 654551.0 0
262000.0 654551.0 0
266000.0 654551.0 0
270000.0 654551.0 0
274000.0 654551.0 0
278000.0 654551.0 0
282000.0 654551.0 0
286000.0 654551.0 0
290000.0 654551.0 0
294000.0 654551.0 0
298000.0 654551.0 0
302000.0 654551.0 0
306000.0 654551.0 0
310000.0 654551.0 0
314000.0 654551.0 0
318000.0 654551.0 0
322000.0 654551.0 0
326000.0 654551.0 0
330000.0 654551.0 0
334000.0 654551.0 0
338000.0 654551.0 0
342000.0 654551.0 0
346000.0 654551.0 0
350000.0 654551.0 0
354000.0 654551.0 0
358000.0 654551.0 0
362000.0 654551.0 0
366000.0 654551.0 0
370000.0 654551.0 0
374000.0 654551.0 0
378000.0 654551.0 0
382000.0 654551.0 0
386000.0 654551.0 0
390000.0 654551.0 0
394000.0 654551.0 0
398000.0 654551.0 0
102000.0 658551.0 0
106000.0 658551.0 0
110000.0 658551.0 0
114000.0 658551.0 0
118000.0 658551.0 0
122000.0 658551.0 0
126000.0 658551.0 0
130000.0 658551.0 0
134000.0 658551.0 0
138000.0 658551.0 0
142000.0 658551.0 0
146000.0 658551.0 0
150000.0 658551.0 0
154000.0 658551.0 0
158000.0 658551.0 0
162000.0 658551.0 0
166000.0 658551.0 0
170000.0 658551.0 0
174000.0 658551.0 0
178000.0 658551.0 0
182000.0 658551.0 0
186000.0 658551.0 0
190000.0 658551.0 0
194000.0 658551.0 0
198000.0 658551.0 0
202000.0 658551.0 0
206000.0 658551.0 0
210000.0 658551.0 0
214000.0 658551.0 0
218000.0 658551.0 0
222000.0 658551.0 0
226000.0 658551.0 0
230000.0 658551.0 0
234000.0 658551.0 0
238000.0 658551.0 0
242000.0 658551.0 0
246000.0 658551.0 0
250000.0 658551.0 0
254000.0 658551.0 0
258000.0 658551.0 0
262000.0 658551.0 0
266000.0 658551.0 0
270000.0 658551.0 0
274000.0 658551.0 0
278000.0 658551.0 0
282000.0 658551.0 0
286000.0 658551.0 0
290000.0 658551.0 0
294000.0 658551.0 0
298000.0 658551.0 0
302000.0 658551.0 0
306000.0 658551.0 0
310000.0 658551.0 0
314000.0 658551.0 0
318000.0 658551.0 0
322000.0 658551.0 0
326000.0 658551.0 0
330000.0 658551.0 0
334000.0 658551.0 0
338000.0 658551.0 0
342000.0 658551.0 0
346000.0 658551.0 0
350000.0 658551.0 0
354000.0 658551.0 0
358000.0 658551.0 0
362000.0 658551.0 0
366000.0 658551.0 0
370000.0 658551.0 0
374000.0 658551.0 0
378000.0 658551.0 0
382000.0 658551.0 0
386000.0 658551.0 0
390000.0 658551.0 0
394000.0 658551.0 0
398000.0 658551.0 0
102000.0 662551.0 0
106000.0 662551.0 0
110000.0 662551.0 0
114000.0 662551.0 0
118000.0 662551.0 0
122000.0 662551.0 0
126000.0 662551.0 0
130000.0 662551.0 0
134000.0 662551.0 0
138000.0 662551.0 0
142000.0 662551.0 0
146000.0 662551.0 0
150000.0 662551.0 0
154000.0 662551.0 0
158000.0 662551.0 0
162000.0 662551.0 0
166000.0 662551.0 0
170000.0 662551.0 0
174000.0 662551.0 0
178000.0 662551.0 0
182000.0 662551.0 0
186000.0 662551.0 0
190000.0 662551.0 0
194000.0 662551.0 0
198000.0 662551.0 0
202000.0 662551.0 0
206000.0 662551.0 0
210000.0 662551.0 0
214000.0 662551.0 0
218000.0 662551.0 0
222000.0 662551.0 0
226000.0 662551.0 0
230000.0 662551.0 0
234000.0 662551.0 0
238000.0 662551.0 0
242000.0 662551.0 0
246000.0 662551.0 0
250000.0 662551.0 0
254000.0 662551.0 0
258000.0 662551.0 0
262000.0 662551.0 0
266000.0 662551.0 0
270000.0 662551.0 0
274000.0 662551.0 0
278000.0 662551.0 0
282000.0 662551.0 0
286000.0 662551.0 0
290000.0 662551.0 0
294000.0 662551.0 0
298000.0 662551.0 0
302000.0 662551.0 0
306000.0 662551.0 0
310000.0 662551.0 0
314000.0 662551.0 0
318000.0 662551.0 0
322000.0 662551.0 0
326000.0 662551.0 0
330000.0 662551.0 0
334000.0 662551.0 0
338000.0 662551.0 0
342000.0 662551.0 0
346000.0 662551.0 0
350000.0 662551.0 0
354000.0 662551.0 0
358000.0 662551.0 0
362000.0 662551.0 0
366000.0 662551.0 0
370000.0 662551.0 0
374000.0 662551.0 0
378000.0 662551.0 0
382000.0 662551.0 0
386000.0 662551.0 0
390000.0 662551.0 0
394000.0 662551.0 0
398000.0 662551.0 0
102000.0 666551.0 0
106000.0 666551.0 0
110000.0 666551.0 0
114000.0 666551.0 0
118000.0 666551.0 0
122000.0 666551.0 0
126000.0 666551.0 0
130000.0 666551.0 0
134000.0 666551.0 0
138000.0 666551.0 0
142000.0 666551.0 0
146000.0 666551.0 0
150000.0 666551.0 0
154000.0 666551.0 0
158000.0 666551.0 0
162000.0 666551.0 0
166000.0 666551.0 0
170000.0 666551.0 0
174000.0 666551.0 0
178000.0 666551.0 0
182000.0 666551.0 0
186000.0 666551.0 0
190000.0 666551.0 0
194000.0 666551.0 0
198000.0 666551.0 0
202000.0 666551.0 0
206000.0 666551.0 0
210000.0 666551.0 0
214000.0 666551.0 0
218000.0 666551.0 0
222000.0 666551.0 0
226000.0 666551.0 0
230000.0 666551.0 0
234000.0 666551.0 0
238000.0 666551.0 0
242000.0 666551.0 0
246000.0 666551.0 0
250000.0 666551.0 0
254000.0 666551.0 0
258000.0 666551.0 0
262000.0 666551.0 0
266000.0 666551.0 0
270000.0 666551.0 0
274000.0 666551.0 0
278000.0 666551.0 0
282000.0 666551.0 0
286000.0 666551.0 0
290000.0 666551.0 0
294000.0 666551.0 0
298000.0 666551.0 0
302000.0 666551.0 0
306000.0 666551.0 0
310000.0 666551.0 0
314000.0 666551.0 0
318000.0 666551.0 0
322000.0 666551.0 0
326000.0 666551.0 0
330000.0 666551.0 0
334000.0 666551.0 0
338000.0 666551.0 0
342000.0 666551.0 0
346000.0 666551.0 0
350000.0 666551.0 0
354000.0 666551.0 0
358000.0 666551.0 0
362000.0 666551.0 0
366000.0 666551.0 0
370000.0 666551.0 0
374000.0 666551.0 0
378000.0 666551.0 0
382000.0 666551.0 0
386000.0 666551.0 0
390000.0 666551.0 0
394000.0 666551.0 0
398000.0 666551.0 0
102000.0 670551.0 0
106000.0 670551.0 0
110000.0 670551.0 0
114000.0 670551.0 0
118000.0 670551.0 0
122000.0 670551.0 0
126000.0 670551.0 0
130000.0 670551.0 0
134000.0 670551.0 0
138000.0 670551.0 0
142000.0 670551.0 0
146000.0 670551.0 0
150000.0 670551.0 0
154000.0 670551.0 0
158000.0 670551.0 0
162000.0 670551.0 0
166000.0 670551.0 0
170000.0 670551.0 0
174000.0 670551.0 0
178000.0 670551.0 0
182000.0 670551.0 0
186000.0 670551.0 0
190000.0 670551.0 0
194000.0 670551.0 0
198000.0 670551.0 0
202000.0 670551.0 0
206000.0 670551.0 0
210000.0 670551.0 0
214000.0 670551.0 0
218000.0 670551.0 0
222000.0 670551.0 0
226000.0 670551.0 0
230000.0 670551.0 0
234000.0 670551.0 0
238000.0 670551.0 0
242000.0 670551.0 0
246000.0 670551.0 0
250000.0 670551.0 0
254000.0 670551.0 0
258000.0 670551.0 0
262000.0 670551.0 0
266000.0 670551.0 0
270000.0 670551.0 0
274000.0 670551.0 0
278000.0 670551.0 0
282000.0 670551.0 0
286000.0 670551.0 0
290000.0 670551.0 0
294000.0 670551.0 0
298000.0 670551.0 0
302000.0 670551.0 0
306000.0 670551.0 0
310000.0 670551.0 0
314000.0 670551.0 0
318000.0 670551.0 0
322000.0 670551.0 0
326000.0 670551.0 0
330000.0 670551.0 0
334000.0 670551.0 0
338000.0 670551.0 0
342000.0 670551.0 0
346000.0 670551.0 0
350000.0 670551.0 0
354000.0 670551.0 0
358000.0 670551.0 0
362000.0 670551.0 0
366000.0 670551.0 0
370000.0 670551.0 0
374000.0 670551.0 0
378000.0 670551.0 0
382000.0 670551.0 0
386000.0 670551.0 0
390000.0 670551.0 0
394000.0 670551.0 0
398000.0 670551.0 0
102000.0 674551.0 0
106000.0 674551.0 0
110000.0 674551.0 0
114000.0 674551.0 0
118000.0 674551.0 0
122000.0 674551.0 0
126000.0 674551.0 0
130000.0 674551.0 0
134000.0 674551.0 0
138000.0 674551.0 0
142000.0 674551.0 0
146000.0 674551.0 0
150000.0 674551.0 0
154000.0 674551.0 0
158000.0 674551.0 0
162000.0 674551.0 0
166000.0 674551.0 0
170000.0 674551.0 0
174000.0 674551.0 0
178000.0 674551.0 0
182000.0 674551.0 0
186000.0 674551.0 0
190000.0 674551.0 0
194000.0 674551.0 0
198000.0 674551.0 0
202000.0 674551.0 0
206000.0 674551.0 0
210000.0 674551.0 0
214000.0 674551.0 0
218000.0 674551.0 0
222000.0 674551.0 0
226000.0 674551.0 0
230000.0 674551.0 0
234000.0 674551.0 0
238000.0 674551.0 0
242000.0 674551.0 0
246000.0 674551.0 0
250000.0 674551.0 0
254000.0 674551.0 0
258000.0 674551.0 0
262000.0 674551.0 0
266000.0 674551.0 0
270000.0 674551.0 0
274000.0 674551.0 0
278000.0 674551.0 0
282000.0 674551.0 0
286000.0 674551.0 0
290000.0 674551.0 0
294000.0 674551.0 0
298000.0 674551.0 0
302000.0 674551.0 0
306000.0 674551.0 0
310000.0 674551.0 0
314000.0 674551.0 0
318000.0 674551.0 0
322000.0 674551.0 0
326000.0 674551.0 0
330000.0 674551.0 0
334000.0 674551.0 0
338000.0 674551.0 0
342000.0 674551.0 0
346000.0 674551.0 0
350000.0 674551.0 0
354000.0 674551.0 0
358000.0 674551.0 0
362000.0 674551.0 0
366000.0 674551.0 0
370000.0 674551.0 0
374000.0 674551.0 0
378000.0 674551.0 0
382000.0 674551.0 0
386000.0 674551.0 0
390000.0 674551.0 0
394000.0 674551.0 0
398000.0 674551.0 0
102000.0 678551.0 0
106000.0 678551.0 0
110000.0 678551.0 0
114000.0 678551.0 0
118000.0 678551.0 0
122000.0 678551.0 0
126000.0 678551.0 0
130000.0 678551.0 0
134000.0 678551.0 0
138000.0 678551.0 0
142000.0 678551.0 0
146000.0 678551.0 0
150000.0 678551.0 0
154000.0 678551.0 0
158000.0 678551.0 0
162000.0 678551.0 0
166000.0 678551.0 0
170000.0 678551.0 0
174000.0 678551.0 0
178000.0 678551.0 0
182000.0 678551.0 0
186000.0 678551.0 0
190000.0 678551.0 0
194000.0 678551.0 0
198000.0 678551.0 0
202000.0 678551.0 0
206000.0 678551.0 0
210000.0 678551.0 0
214000.0 678551.0 0
218000.0 678551.0 0
222000.0 678551.0 0
226000.0 678551.0 0
230000.0 678551.0 0
234000.0 678551.0 0
238000.0 678551.0 0
242000.0 678551.0 0
246000.0 678551.0 0
250000.0 678551.0 0
254000.0 678551.0 0
258000.0 678551.0 0
262000.0 678551.0 0
266000.0 678551.0 0
270000.0 678551.0 0
274000.0 678551.0 0
278000.0 678551.0 0
282000.0 678551.0 0
286000.0 678551.0 0
290000.0 678551.0 0
294000.0 678551.0 0
298000.0 678551.0 0
302000.0 678551.0 0
306000.0 678551.0 0
310000.0 678551.0 0
314000.0 678551.0 0
318000.0 678551.0 0
322000.0 678551.0 0
326000.0 678551.0 0
330000.0 678551.0 0
334000.0 678551.0 0
338000.0 678551.0 0
342000.0 678551.0 0
346000.0 678551.0 0
350000.0 678551.0 0
354000.0 678551.0 0
358000.0 678551.0 0
362000.0 678551.0 0
366000.0 678551.0 0
370000.0 678551.0 0
374000.0 678551.0 0
378000.0 678551.0 0
382000.0 678551.0 0
386000.0 678551.0 0
390000.0 678551.0 0
394000.0 678551.0 0
398000.0 678551.0 0
POINT_DATA 4650
SCALARS Radius float 1
LOOKUP_TABLE default
4000.0 4000.0 4000.0 4000.0 4000.0 4000.0 4000.0 4000.0 4000.0 4000.0 4000.0 4000.0 4000.0 4000.0 4000.0 4000.0 4000.0 4000.0 4000.0 4000.0 4000.0 4000.0 4000.0 4000.0 4000.0 4000.0 4000.0 4000.0 4000.0 4000.0 4000.0 4000.0 4000.0 4000.0 4000.0 4000.0 4000.0 4000.0 4000.0 4000.0 4000.0 4000.0 4000.0 4000.0 4000.0 4000.0 4000.0 4000.0 4000.0 4000.0 4000.0 4000.0 4000.0 4000.0 4000.0 4000.0 4000.0 4000.0 4000.0 4000.0 4000.0 4000.0 4000.0 4000.0 4000.0 4000.0 4000.0 4000.0 4000.0 4000.0 4000.0 4000.0 4000.0 4000.0 4000.0 4000.0 4000.0 4000.0 4000.0 4000.0 4000.0 4000.0 4000.0 4000.0 4000.0 4000.0 4000.0 4000.0 4000.0 4000.0 4000.0 4000.0 4000.0 4000.0 4000.0 4000.0 4000.0 4000.0 4000.0 4000.0 4000.0 4000.0 4000.0 4000.0 4000.0 4000.0 4000.0 4000.0 4000.0 4000.0 4000.0 4000.0 4000.0 4000.0 4000.0 4000.0 4000.0 4000.0 4000.0 4000.0 4000.0 4000.0 4000.0 4000.0 4000.0 4000.0 4000.0 4000.0 4000.0 4000.0 4000.0 4000.0 4000.0 4000.0 4000.0 4000.0 4000.0 4000.0 4000.0 4000.0 4000.0 4000.0 4000.0 4000.0 4000.0 4000.0 4000.0 4000.0 4000.0 4000.0 4000.0 4000.0 4000.0 4000.0 4000.0 4000.0 4000.0 4000.0 4000.0 4000.0 4000.0 4000.0 4000.0 4000.0 4000.0 4000.0 4000.0 4000.0 4000.0 4000.0 4000.0 4000.0 4000.0 4000.0 4000.0 4000.0 4000.0 4000.0 4000.0 4000.0 4000.0 4000.0 4000.0 4000.0 4000.0 4000.0 4000.0 4000.0 4000.0 4000.0 4000.0 4000.0 4000.0 4000.0 4000.0 4000.0 4000.0 4000.0 4000.0 4000.0 4000.0 4000.0 4000.0 4000.0 4000.0 4000.0 4000.0 4000.0 4000.0 4000.0 4000.0 4000.0 4000.0 4000.0 4000.0 4000.0 4000.0 4000.0 4000.0 4000.0 4000.0 4000.0 4000.0 4000.0 4000.0 4000.0 4000.0 4000.0 4000.0 4000.0 4000.0 4000.0 4000.0 4000.0 4000.0 4000.0 4000.0 4000.0 4000.0 4000.0 4000.0 4000.0 4000.0 4000.0 4000.0 4000.0 4000.0 4000.0 4000.0 4000.0 4000.0 4000.0 4000.0 4000.0 4000.0 4000.0 4000.0 4000.0 4000.0 4000.0 4000.0 4000.0 4000.0 4000.0 4000.0 4000.0 4000.0 4000.0 4000.0 4000.0 4000.0 4000.0 4000.0 4000.0 4000.0 4000.0 4000.0 4000.0 4000.0 4000.0 4000.0 4000.0 4000.0 4000.0 4000.0 4000.0 4000.0 4000.0 4000.0 4000.0 4000.0 4000.0 4000.0 4000.0 4000.0 4000.0 4000.0 4000.0 4000.0 4000.0 4000.0 4000.0 4000.0 4000.0 4000.0 4000.0 4000.0 4000.0 4000.0 4000.0 4000.0 4000.0 4000.0 4000.0 4000.0 4000.0 4000.0 4000.0 4000.0 4000.0 4000.0 4000.0 4000.0 4000.0 4000.0 4000.0 4000.0 4000.0 4000.0 4000.0 4000.0 4000.0 4000.0 4000.0 4000.0 4000.0 4000.0 4000.0 4000.0 4000.0 4000.0 4000.0 4000.0 4000.0 4000.0 4000.0 4000.0 4000.0 4000.0 4000.0 4000.0 4000.0 4000.0 4000.0 4000.0 4000.0 4000.0 4000.0 4000.0 4000.0 4000.0 4000.0 4000.0 4000.0 4000.0 4000.0 4000.0 4000.0 4000.0 4000.0 4000.0 4000.0 4000.0 4000.0 4000.0 4000.0 4000.0 4000.0 4000.0 4000.0 4000.0 4000.0 4000.0 4000.0 4000.0 4000.0 4000.0 4000.0 4000.0 4000.0 4000.0 4000.0 4000.0 4000.0 4000.0 4000.0 4000.0 4000.0 4000.0 4000.0 4000.0 4000.0 4000.0 4000.0 4000.0 4000.0 4000.0 4000.0 4000.0 4000.0 4000.0 4000.0 4000.0 4000.0 4000.0 4000.0 4000.0 4000.0 4000.0 4000.0 4000.0 4000.0 4000.0 4000.0 4000.0 4000.0 4000.0 4000.0 4000.0 4000.0 4000.0 4000.0 4000.0 4000.0 4000.0 4000.0 4000.0 4000.0 4000.0 4000.0 4000.0 4000.0 4000.0 4000.0 4000.0 4000.0 4000.0 4000.0 4000.0 4000.0 4000.0 4000.0 4000.0 4000.0 4000.0 4000.0 4000.0 4000.0 4000.0 4000.0 4000.0 4000.0 4000.0 4000.0 4000.0 4000.0 4000.0 4000.0 4000.0 4000.0 4000.0 4000.0 4000.0 4000.0 4000.0 4000.0 4000.0 4000.0 4000.0 4000.0 4000.0 4000.0 4000.0 4000.0 4000.0 4000.0 4000.0 4000.0 4000.0 4000.0 4000.0 4000.0 4000.0 4000.0 4000.0 4000.0 4000.0 4000.0 4000.0 4000.0 4000.0 4000.0 4000.0 4000.0 4000.0 4000.0 4000.0 4000.0 4000.0 4000.0 4000.0 4000.0 4000.0 4000.0 4000.0 4000.0 4000.0 4000.0 4000.0 4000.0 4000.0 4000.0 4000.0 4000.0 4000.0 4000.0 4000.0 4000.0 4000.0 4000.0 4000.0 4000.0 4000.0 4000.0 4000.0 4000.0 4000.0 4000.0 4000.0 4000.0 4000.0 4000.0 4000.0 4000.0 4000.0 4000.0 4000.0 4000.0 4000.0 4000.0 4000.0 4000.0 4000.0 4000.0 4000.0 4000.0 4000.0 4000.0 4000.0 4000.0 4000.0 4000.0 4000.0 4000.0 4000.0 4000.0 4000.0 4000.0 4000.0 4000.0 4000.0 4000.0 4000.0 4000.0 4000.0 4000.0 4000.0 4000.0 4000.0 4000.0 4000.0 4000.0 4000.0 4000.0 4000.0 4000.0 4000.0 4000.0 4000.0 4000.0 4000.0 4000.0 4000.0 4000.0 4000.0 4000.0 4000.0 4000.0 4000.0 4000.0 4000.0 4000.0 4000.0 4000.0 4000.0 4000.0 4000.0 4000.0 4000.0 4000.0 4000.0 4000.0 4000.0 4000.0 4000.0 4000.0 4000.0 4000.0 4000.0 4000.0 4000.0 4000.0 4000.0 4000.0 4000.0 4000.0 4000.0 4000.0 4000.0 4000.0 4000.0 4000.0 4000.0 4000.0 4000.0 4000.0 4000.0 4000.0 4000.0 4000.0 4000.0 4000.0 4000.0 4000.0 4000.0 4000.0 4000.0 4000.0 4000.0 4000.0 4000.0 4000.0 4000.0 4000.0 4000.0 4000.0 4000.0 4000.0 4000.0 4000.0 4000.0 4000.0 4000.0 4000.0 4000.0 4000.0 4000.0 4000.0 4000.0 4000.0 4000.0 4000.0 4000.0 4000.0 4000.0 4000.0 4000.0 4000.0 4000.0 4000.0 4000.0 4000.0 4000.0 4000.0 4000.0 4000.0 4000.0 4000.0 4000.0 4000.0 4000.0 4000.0 4000.0 4000.0 4000.0 4000.0 4000.0 4000.0 4000.0 4000.0 4000.0 4000.0 4000.0 4000.0 4000.0 4000.0 4000.0 4000.0 4000.0 4000.0 4000.0 4000.0 4000.0 4000.0 4000.0 4000.0 4000.0 4000.0 4000.0 4000.0 4000.0 4000.0 4000.0 4000.0 4000.0 4000.0 4000.0 4000.0 4000.0 4000.0 4000.0 4000.0 4000.0 4000.0 4000.0 4000.0 4000.0 4000.0 4000.0 4000.0 4000.0 4000.0 4000.0 4000.0 4000.0 4000.0 4000.0 4000.0 4000.0 4000.0 4000.0 4000.0 4000.0 4000.0 4000.0 4000.0 4000.0 4000.0 4000.0 4000.0 4000.0 4000.0 4000.0 4000.0 4000.0 4000.0 4000.0 4000.0 4000.0 4000.0 4000.0 4000.0 4000.0 4000.0 4000.0 4000.0 4000.0 4000.0 4000.0 4000.0 4000.0 4000.0 4000.0 4000.0 4000.0 4000.0 4000.0 4000.0 4000.0 4000.0 4000.0 4000.0 4000.0 4000.0 4000.0 4000.0 4000.0 4000.0 4000.0 4000.0 4000.0 4000.0 4000.0 4000.0 4000.0 4000.0 4000.0 4000.0 4000.0 4000.0 4000.0 4000.0 4000.0 4000.0 4000.0 4000.0 4000.0 4000.0 4000.0 4000.0 4000.0 4000.0 4000.0 4000.0 4000.0 4000.0 4000.0 4000.0 4000.0 4000.0 4000.0 4000.0 4000.0 4000.0 4000.0 4000.0 4000.0 4000.0 4000.0 4000.0 4000.0 4000.0 4000.0 4000.0 4000.0 4000.0 4000.0 4000.0 4000.0 4000.0 4000.0 4000.0 4000.0 4000.0 4000.0 4000.0 4000.0 4000.0 4000.0 4000.0 4000.0 4000.0 4000.0 4000.0 4000.0 4000.0 4000.0 4000.0 4000.0 4000.0 4000.0 4000.0 4000.0 4000.0 4000.0 4000.0 4000.0 4000.0 4000.0 4000.0 4000.0 4000.0 4000.0 4000.0 4000.0 4000.0 4000.0 4000.0 4000.0 4000.0 4000.0 4000.0 4000.0 4000.0 4000.0 4000.0 4000.0 4000.0 4000.0 4000.0 4000.0 4000.0 4000.0 4000.0 4000.0 4000.0 4000.0 4000.0 4000.0 4000.0 4000.0 4000.0 4000.0 4000.0 4000.0 4000.0 4000.0 4000.0 4000.0 4000.0 4000.0 4000.0 4000.0 4000.0 4000.0 4000.0 4000.0 4000.0 4000.0 4000.0 4000.0 4000.0 4000.0 4000.0 4000.0 4000.0 4000.0 4000.0 4000.0 4000.0 4000.0 4000.0 4000.0 4000.0 4000.0 4000.0 4000.0 4000.0 4000.0 4000.0 4000.0 4000.0 4000.0 4000.0 4000.0 4000.0 4000.0 4000.0 4000.0 4000.0 4000.0 4000.0 4000.0 4000.0 4000.0 4000.0 4000.0 4000.0 4000.0 4000.0 4000.0 4000.0 4000.0 4000.0 4000.0 4000.0 4000.0 4000.0 4000.0 4000.0 4000.0 4000.0 4000.0 4000.0 4000.0 4000.0 4000.0 4000.0 4000.0 4000.0 4000.0 4000.0 4000.0 4000.0 4000.0 4000.0 4000.0 4000.0 4000.0 4000.0 4000.0 4000.0 4000.0 4000.0 4000.0 4000.0 4000.0 4000.0 4000.0 4000.0 4000.0 4000.0 4000.0 4000.0 4000.0 4000.0 4000.0 4000.0 4000.0 4000.0 4000.0 4000.0 4000.0 4000.0 4000.0 4000.0 4000.0 4000.0 4000.0 4000.0 4000.0 4000.0 4000.0 4000.0 4000.0 4000.0 4000.0 4000.0 4000.0 4000.0 4000.0 4000.0 4000.0 4000.0 4000.0 4000.0 4000.0 4000.0 4000.0 4000.0 4000.0 4000.0 4000.0 4000.0 4000.0 4000.0 4000.0 4000.0 4000.0 4000.0 4000.0 4000.0 4000.0 4000.0 4000.0 4000.0 4000.0 4000.0 4000.0 4000.0 4000.0 4000.0 4000.0 4000.0 4000.0 4000.0 4000.0 4000.0 4000.0 4000.0 4000.0 4000.0 4000.0 4000.0 4000.0 4000.0 4000.0 4000.0 4000.0 4000.0 4000.0 4000.0 4000.0 4000.0 4000.0 4000.0 4000.0 4000.0 4000.0 4000.0 4000.0 4000.0 4000.0 4000.0 4000.0 4000.0 4000.0 4000.0 4000.0 4000.0 4000.0 4000.0 4000.0 4000.0 4000.0 4000.0 4000.0 4000.0 4000.0 4000.0 4000.0 4000.0 4000.0 4000.0 4000.0 4000.0 4000.0 4000.0 4000.0 4000.0 4000.0 4000.0 4000.0 4000.0 4000.0 4000.0 4000.0 4000.0 4000.0 4000.0 4000.0 4000.0 4000.0 4000.0 4000.0 4000.0 4000.0 4000.0 4000.0 4000.0 4000.0 4000.0 4000.0 4000.0 4000.0 4000.0 4000.0 4000.0 4000.0 4000.0 4000.0 4000.0 4000.0 4000.0 4000.0 4000.0 4000.0 4000.0 4000.0 4000.0 4000.0 4000.0 4000.0 4000.0 4000.0 4000.0 4000.0 4000.0 4000.0 4000.0 4000.0 4000.0 4000.0 4000.0 4000.0 4000.0 4000.0 4000.0 4000.0 4000.0 4000.0 4000.0 4000.0 4000.0 4000.0 4000.0 4000.0 4000.0 4000.0 4000.0 4000.0 4000.0 4000.0 4000.0 4000.0 4000.0 4000.0 4000.0 4000.0 4000.0 4000.0 4000.0 4000.0 4000.0 4000.0 4000.0 4000.0 4000.0 4000.0 4000.0 4000.0 4000.0 4000.0 4000.0 4000.0 4000.0 4000.0 4000.0 4000.0 4000.0 4000.0 4000.0 4000.0 4000.0 4000.0 4000.0 4000.0 4000.0 4000.0 4000.0 4000.0 4000.0 4000.0 4000.0 4000.0 4000.0 4000.0 4000.0 4000.0 4000.0 4000.0 4000.0 4000.0 4000.0 4000.0 4000.0 4000.0 4000.0 4000.0 4000.0 4000.0 4000.0 4000.0 4000.0 4000.0 4000.0 4000.0 4000.0 4000.0 4000.0 4000.0 4000.0 4000.0 4000.0 4000.0 4000.0 4000.0 4000.0 4000.0 4000.0 4000.0 4000.0 4000.0 4000.0 4000.0 4000.0 4000.0 4000.0 4000.0 4000.0 4000.0 4000.0 4000.0 4000.0 4000.0 4000.0 4000.0 4000.0 4000.0 4000.0 4000.0 4000.0 4000.0 4000.0 4000.0 4000.0 4000.0 4000.0 4000.0 4000.0 4000.0 4000.0 4000.0 4000.0 4000.0 4000.0 4000.0 4000.0 4000.0 4000.0 4000.0 4000.0 4000.0 4000.0 4000.0 4000.0 4000.0 4000.0 4000.0 4000.0 4000.0 4000.0 4000.0 4000.0 4000.0 4000.0 4000.0 4000.0 4000.0 4000.0 4000.0 4000.0 4000.0 4000.0 4000.0 4000.0 4000.0 4000.0 4000.0 4000.0 4000.0 4000.0 4000.0 4000.0 4000.0 4000.0 4000.0 4000.0 4000.0 4000.0 4000.0 4000.0 4000.0 4000.0 4000.0 4000.0 4000.0 4000.0 4000.0 4000.0 4000.0 4000.0 4000.0 4000.0 4000.0 4000.0 4000.0 4000.0 4000.0 4000.0 4000.0 4000.0 4000.0 4000.0 4000.0 4000.0 4000.0 4000.0 4000.0 4000.0 4000.0 4000.0 4000.0 4000.0 4000.0 4000.0 4000.0 4000.0 4000.0 4000.0 4000.0 4000.0 4000.0 4000.0 4000.0 4000.0 4000.0 4000.0 4000.0 4000.0 4000.0 4000.0 4000.0 4000.0 4000.0 4000.0 4000.0 4000.0 4000.0 4000.0 4000.0 4000.0 4000.0 4000.0 4000.0 4000.0 4000.0 4000.0 4000.0 4000.0 4000.0 4000.0 4000.0 4000.0 4000.0 4000.0 4000.0 4000.0 4000.0 4000.0 4000.0 4000.0 4000.0 4000.0 4000.0 4000.0 4000.0 4000.0 4000.0 4000.0 4000.0 4000.0 4000.0 4000.0 4000.0 4000.0 4000.0 4000.0 4000.0 4000.0 4000.0 4000.0 4000.0 4000.0 4000.0 4000.0 4000.0 4000.0 4000.0 4000.0 4000.0 4000.0 4000.0 4000.0 4000.0 4000.0 4000.0 4000.0 4000.0 4000.0 4000.0 4000.0 4000.0 4000.0 4000.0 4000.0 4000.0 4000.0 4000.0 4000.0 4000.0 4000.0 4000.0 4000.0 4000.0 4000.0 4000.0 4000.0 4000.0 4000.0 4000.0 4000.0 4000.0 4000.0 4000.0 4000.0 4000.0 4000.0 4000.0 4000.0 4000.0 4000.0 4000.0 4000.0 4000.0 4000.0 4000.0 4000.0 4000.0 4000.0 4000.0 4000.0 4000.0 4000.0 4000.0 4000.0 4000.0 4000.0 4000.0 4000.0 4000.0 4000.0 4000.0 4000.0 4000.0 4000.0 4000.0 4000.0 4000.0 4000.0 4000.0 4000.0 4000.0 4000.0 4000.0 4000.0 4000.0 4000.0 4000.0 4000.0 4000.0 4000.0 4000.0 4000.0 4000.0 4000.0 4000.0 4000.0 4000.0 4000.0 4000.0 4000.0 4000.0 4000.0 4000.0 4000.0 4000.0 4000.0 4000.0 4000.0 4000.0 4000.0 4000.0 4000.0 4000.0 4000.0 4000.0 4000.0 4000.0 4000.0 4000.0 4000.0 4000.0 4000.0 4000.0 4000.0 4000.0 4000.0 4000.0 4000.0 4000.0 4000.0 4000.0 4000.0 4000.0 4000.0 4000.0 4000.0 4000.0 4000.0 4000.0 4000.0 4000.0 4000.0 4000.0 4000.0 4000.0 4000.0 4000.0 4000.0 4000.0 4000.0 4000.0 4000.0 4000.0 4000.0 4000.0 4000.0 4000.0 4000.0 4000.0 4000.0 4000.0 4000.0 4000.0 4000.0 4000.0 4000.0 4000.0 4000.0 4000.0 4000.0 4000.0 4000.0 4000.0 4000.0 4000.0 4000.0 4000.0 4000.0 4000.0 4000.0 4000.0 4000.0 4000.0 4000.0 4000.0 4000.0 4000.0 4000.0 4000.0 4000.0 4000.0 4000.0 4000.0 4000.0 4000.0 4000.0 4000.0 4000.0 4000.0 4000.0 4000.0 4000.0 4000.0 4000.0 4000.0 4000.0 4000.0 4000.0 4000.0 4000.0 4000.0 4000.0 4000.0 4000.0 4000.0 4000.0 4000.0 4000.0 4000.0 4000.0 4000.0 4000.0 4000.0 4000.0 4000.0 4000.0 4000.0 4000.0 4000.0 4000.0 4000.0 4000.0 4000.0 4000.0 4000.0 4000.0 4000.0 4000.0 4000.0 4000.0 4000.0 4000.0 4000.0 4000.0 4000.0 4000.0 4000.0 4000.0 4000.0 4000.0 4000.0 4000.0 4000.0 4000.0 4000.0 4000.0 4000.0 4000.0 4000.0 4000.0 4000.0 4000.0 4000.0 4000.0 4000.0 4000.0 4000.0 4000.0 4000.0 4000.0 4000.0 4000.0 4000.0 4000.0 4000.0 4000.0 4000.0 4000.0 4000.0 4000.0 4000.0 4000.0 4000.0 4000.0 4000.0 4000.0 4000.0 4000.0 4000.0 4000.0 4000.0 4000.0 4000.0 4000.0 4000.0 4000.0 4000.0 4000.0 4000.0 4000.0 4000.0 4000.0 4000.0 4000.0 4000.0 4000.0 4000.0 4000.0 4000.0 4000.0 4000.0 4000.0 4000.0 4000.0 4000.0 4000.0 4000.0 4000.0 4000.0 4000.0 4000.0 4000.0 4000.0 4000.0 4000.0 4000.0 4000.0 4000.0 4000.0 4000.0 4000.0 4000.0 4000.0 4000.0 4000.0 4000.0 4000.0 4000.0 4000.0 4000.0 4000.0 4000.0 4000.0 4000.0 4000.0 4000.0 4000.0 4000.0 4000.0 4000.0 4000.0 4000.0 4000.0 4000.0 4000.0 4000.0 4000.0 4000.0 4000.0 4000.0 4000.0 4000.0 4000.0 4000.0 4000.0 4000.0 4000.0 4000.0 4000.0 4000.0 4000.0 4000.0 4000.0 4000.0 4000.0 4000.0 4000.0 4000.0 4000.0 4000.0 4000.0 4000.0 4000.0 4000.0 4000.0 4000.0 4000.0 4000.0 4000.0 4000.0 4000.0 4000.0 4000.0 4000.0 4000.0 4000.0 4000.0 4000.0 4000.0 4000.0 4000.0 4000.0 4000.0 4000.0 4000.0 4000.0 4000.0 4000.0 4000.0 4000.0 4000.0 4000.0 4000.0 4000.0 4000.0 4000.0 4000.0 4000.0 4000.0 4000.0 4000.0 4000.0 4000.0 4000.0 4000.0 4000.0 4000.0 4000.0 4000.0 4000.0 4000.0 4000.0 4000.0 4000.0 4000.0 4000.0 4000.0 4000.0 4000.0 4000.0 4000.0 4000.0 4000.0 4000.0 4000.0 4000.0 4000.0 4000.0 4000.0 4000.0 4000.0 4000.0 4000.0 4000.0 4000.0 4000.0 4000.0 4000.0 4000.0 4000.0 4000.0 4000.0 4000.0 4000.0 4000.0 4000.0 4000.0 4000.0 4000.0 4000.0 4000.0 4000.0 4000.0 4000.0 4000.0 4000.0 4000.0 4000.0 4000.0 4000.0 4000.0 4000.0 4000.0 4000.0 4000.0 4000.0 4000.0 4000.0 4000.0 4000.0 4000.0 4000.0 4000.0 4000.0 4000.0 4000.0 4000.0 4000.0 4000.0 4000.0 4000.0 4000.0 4000.0 4000.0 4000.0 4000.0 4000.0 4000.0 4000.0 4000.0 4000.0 4000.0 4000.0 4000.0 4000.0 4000.0 4000.0 4000.0 4000.0 4000.0 4000.0 4000.0 4000.0 4000.0 4000.0 4000.0 4000.0 4000.0 4000.0 4000.0 4000.0 4000.0 4000.0 4000.0 4000.0 4000.0 4000.0 4000.0 4000.0 4000.0 4000.0 4000.0 4000.0 4000.0 4000.0 4000.0 4000.0 4000.0 4000.0 4000.0 4000.0 4000.0 4000.0 4000.0 4000.0 4000.0 4000.0 4000.0 4000.0 4000.0 4000.0 4000.0 4000.0 4000.0 4000.0 4000.0 4000.0 4000.0 4000.0 4000.0 4000.0 4000.0 4000.0 4000.0 4000.0 4000.0 4000.0 4000.0 4000.0 4000.0 4000.0 4000.0 4000.0 4000.0 4000.0 4000.0 4000.0 4000.0 4000.0 4000.0 4000.0 4000.0 4000.0 4000.0 4000.0 4000.0 4000.0 4000.0 4000.0 4000.0 4000.0 4000.0 4000.0 4000.0 4000.0 4000.0 4000.0 4000.0 4000.0 4000.0 4000.0 4000.0 4000.0 4000.0 4000.0 4000.0 4000.0 4000.0 4000.0 4000.0 4000.0 4000.0 4000.0 4000.0 4000.0 4000.0 4000.0 4000.0 4000.0 4000.0 4000.0 4000.0 4000.0 4000.0 4000.0 4000.0 4000.0 4000.0 4000.0 4000.0 4000.0 4000.0 4000.0 4000.0 4000.0 4000.0 4000.0 4000.0 4000.0 4000.0 4000.0 4000.0 4000.0 4000.0 4000.0 4000.0 4000.0 4000.0 4000.0 4000.0 4000.0 4000.0 4000.0 4000.0 4000.0 4000.0 4000.0 4000.0 4000.0 4000.0 4000.0 4000.0 4000.0 4000.0 4000.0 4000.0 4000.0 4000.0 4000.0 4000.0 4000.0 4000.0 4000.0 4000.0 4000.0 4000.0 4000.0 4000.0 4000.0 4000.0 4000.0 4000.0 4000.0 4000.0 4000.0 4000.0 4000.0 4000.0 4000.0 4000.0 4000.0 4000.0 4000.0 4000.0 4000.0 4000.0 4000.0 4000.0 4000.0 4000.0 4000.0 4000.0 4000.0 4000.0 4000.0 4000.0 4000.0 4000.0 4000.0 4000.0 4000.0 4000.0 4000.0 4000.0 4000.0 4000.0 4000.0 4000.0 4000.0 4000.0 4000.0 4000.0 4000.0 4000.0 4000.0 4000.0 4000.0 4000.0 4000.0 4000.0 4000.0 4000.0 4000.0 4000.0 4000.0 4000.0 4000.0 4000.0 4000.0 4000.0 4000.0 4000.0 4000.0 4000.0 4000.0 4000.0 4000.0 4000.0 4000.0 4000.0 4000.0 4000.0 4000.0 4000.0 4000.0 4000.0 4000.0 4000.0 4000.0 4000.0 4000.0 4000.0 4000.0 4000.0 4000.0 4000.0 4000.0 4000.0 4000.0 4000.0 4000.0 4000.0 4000.0 4000.0 4000.0 4000.0 4000.0 4000.0 4000.0 4000.0 4000.0 4000.0 4000.0 4000.0 4000.0 4000.0 4000.0 4000.0 4000.0 4000.0 4000.0 4000.0 4000.0 4000.0 4000.0 4000.0 4000.0 4000.0 4000.0 4000.0 4000.0 4000.0 4000.0 4000.0 4000.0 4000.0 4000.0 4000.0 4000.0 4000.0 4000.0 4000.0 4000.0 4000.0 4000.0 4000.0 4000.0 4000.0 4000.0 4000.0 4000.0 4000.0 4000.0 4000.0 4000.0 4000.0 4000.0 4000.0 4000.0 4000.0 4000.0 4000.0 4000.0 4000.0 4000.0 4000.0 4000.0 4000.0 4000.0 4000.0 4000.0 4000.0 4000.0 4000.0 4000.0 4000.0 4000.0 4000.0 4000.0 4000.0 4000.0 4000.0 4000.0 4000.0 4000.0 4000.0 4000.0 4000.0 4000.0 4000.0 4000.0 4000.0 4000.0 4000.0 4000.0 4000.0 4000.0 4000.0 4000.0 4000.0 4000.0 4000.0 4000.0 4000.0 4000.0 4000.0 4000.0 4000.0 4000.0 4000.0 4000.0 4000.0 4000.0 4000.0 4000.0 4000.0 4000.0 4000.0 4000.0 4000.0 4000.0 4000.0 4000.0 4000.0 4000.0 4000.0 4000.0 4000.0 4000.0 4000.0 4000.0 4000.0 4000.0 4000.0 4000.0 4000.0 4000.0 4000.0 4000.0 4000.0 4000.0 4000.0 4000.0 4000.0 4000.0 4000.0 4000.0 4000.0 4000.0 4000.0 4000.0 4000.0 4000.0 4000.0 4000.0 4000.0 4000.0 4000.0 4000.0 4000.0 4000.0 4000.0 4000.0 4000.0 4000.0 4000.0 4000.0 4000.0 4000.0 4000.0 4000.0 4000.0 4000.0 4000.0 4000.0 4000.0 4000.0 4000.0 4000.0 4000.0 4000.0 4000.0 4000.0 4000.0 4000.0 4000.0 4000.0 4000.0 4000.0 4000.0 4000.0 4000.0 4000.0 4000.0 4000.0 4000.0 4000.0 4000.0 4000.0 4000.0 4000.0 4000.0 4000.0 4000.0 4000.0 4000.0 4000.0 4000.0 4000.0 4000.0 4000.0 4000.0 4000.0 4000.0 4000.0 4000.0 4000.0 4000.0 4000.0 4000.0 4000.0 4000.0 4000.0 4000.0 4000.0 4000.0 4000.0 4000.0 4000.0 4000.0 4000.0 4000.0 4000.0 4000.0 4000.0 4000.0 4000.0 4000.0 4000.0 4000.0 4000.0 4000.0 4000.0 4000.0 4000.0 4000.0 4000.0 4000.0 4000.0 4000.0 4000.0 4000.0 4000.0 4000.0 4000.0 4000.0 4000.0 4000.0 4000.0 4000.0 4000.0 4000.0 4000.0 4000.0 4000.0 4000.0 4000.0 4000.0 4000.0 4000.0 4000.0 4000.0 4000.0 4000.0 4000.0 4000.0 4000.0 4000.0 4000.0 4000.0 4000.0 4000.0 4000.0 4000.0 4000.0 4000.0 4000.0 4000.0 4000.0 4000.0 4000.0 4000.0 4000.0 4000.0 4000.0 4000.0 4000.0 4000.0 4000.0 4000.0 4000.0 4000.0 4000.0 4000.0 4000.0 4000.0 4000.0 4000.0 4000.0 4000.0 4000.0 4000.0 4000.0 4000.0 4000.0 4000.0 4000.0 4000.0 4000.0 4000.0 4000.0 4000.0 4000.0 4000.0 4000.0 4000.0 4000.0 4000.0 4000.0 4000.0 4000.0 4000.0 4000.0 4000.0 4000.0 4000.0 4000.0 4000.0 4000.0 4000.0 4000.0 4000.0 4000.0 4000.0 4000.0 4000.0 4000.0 4000.0 4000.0 4000.0 4000.0 4000.0 4000.0 4000.0 4000.0 4000.0 4000.0 4000.0 4000.0 4000.0 4000.0 4000.0 4000.0 4000.0 4000.0 4000.0 4000.0 4000.0 4000.0 4000.0 4000.0 4000.0 4000.0 4000.0 4000.0 4000.0 4000.0 4000.0 4000.0 4000.0 4000.0 4000.0 4000.0 4000.0 4000.0 4000.0 4000.0 4000.0 4000.0 4000.0 4000.0 4000.0 4000.0 4000.0 4000.0 4000.0 4000.0 4000.0 4000.0 4000.0 4000.0 4000.0 4000.0 4000.0 4000.0 4000.0 4000.0 4000.0 4000.0 4000.0 4000.0 4000.0 4000.0 4000.0 4000.0 4000.0 4000.0 4000.0 4000.0 4000.0 4000.0 4000.0 4000.0 4000.0 4000.0 4000.0 4000.0 4000.0 4000.0 4000.0 4000.0 4000.0 4000.0 4000.0 4000.0 4000.0 4000.0 4000.0 4000.0 4000.0 4000.0 4000.0 4000.0 4000.0 4000.0 4000.0 4000.0 4000.0 4000.0 4000.0 4000.0 4000.0 4000.0 4000.0 4000.0 4000.0 4000.0 4000.0 4000.0 4000.0 4000.0 4000.0 4000.0 4000.0 4000.0 4000.0 4000.0 4000.0 4000.0 4000.0 4000.0 4000.0 4000.0 4000.0 4000.0 4000.0 4000.0 4000.0 4000.0 4000.0 4000.0 4000.0 4000.0 4000.0 4000.0 4000.0 4000.0 4000.0 4000.0 4000.0 4000.0 4000.0 4000.0 4000.0 4000.0 4000.0 4000.0 4000.0 4000.0 4000.0 4000.0 4000.0 4000.0 4000.0 4000.0 4000.0 4000.0 4000.0 4000.0 4000.0 4000.0 4000.0 4000.0 4000.0 4000.0 4000.0 4000.0 4000.0 4000.0 4000.0 4000.0 4000.0 4000.0 4000.0 4000.0 4000.0 4000.0 4000.0 4000.0 4000.0 4000.0 4000.0 4000.0 4000.0 4000.0 4000.0 4000.0 4000.0 4000.0 4000.0 4000.0 4000.0 4000.0 4000.0 4000.0 4000.0 4000.0 4000.0 4000.0 4000.0 4000.0 4000.0 4000.0 4000.0 4000.0 4000.0 4000.0 4000.0 4000.0 4000.0 4000.0 4000.0 4000.0 4000.0 4000.0 4000.0 4000.0 4000.0 4000.0 4000.0 4000.0 4000.0 4000.0 4000.0 4000.0 4000.0 4000.0 4000.0 4000.0 4000.0 4000.0 4000.0 4000.0 4000.0 4000.0 4000.0 4000.0 4000.0 4000.0 4000.0 4000.0 4000.0 4000.0 4000.0 4000.0 4000.0 4000.0 4000.0 4000.0 4000.0 4000.0 4000.0 4000.0 4000.0 4000.0 4000.0 4000.0 4000.0 4000.0 4000.0 4000.0 4000.0 4000.0 4000.0 4000.0 4000.0 4000.0 4000.0 4000.0 4000.0 4000.0 4000.0 4000.0 4000.0 4000.0 4000.0 4000.0 4000.0 4000.0 4000.0 4000.0 4000.0 4000.0 4000.0 4000.0 4000.0 4000.0 4000.0 4000.0 4000.0 4000.0 4000.0 4000.0 4000.0 4000.0 4000.0 4000.0 4000.0 4000.0 4000.0 4000.0 4000.0 4000.0 4000.0 4000.0 4000.0 4000.0 4000.0 4000.0 4000.0 4000.0 4000.0 4000.0 4000.0 4000.0 4000.0 4000.0 4000.0 4000.0 4000.0 4000.0 4000.0 4000.0 4000.0 4000.0 4000.0 4000.0 4000.0 4000.0 4000.0 4000.0 4000.0 4000.0 4000.0 4000.0 4000.0 4000.0 4000.0 4000.0 4000.0 4000.0 4000.0 4000.0 4000.0 4000.0 4000.0 4000.0 4000.0 4000.0 4000.0 4000.0 4000.0 4000.0 4000.0 4000.0 4000.0 4000.0 4000.0 4000.0 4000.0 4000.0 4000.0 4000.0 4000.0 4000.0 4000.0 4000.0 4000.0 4000.0 4000.0 4000.0 4000.0 4000.0 4000.0 4000.0 4000.0 4000.0 4000.0 4000.0 4000.0 4000.0 4000.0 4000.0 4000.0 4000.0 4000.0 4000.0 4000.0 4000.0 4000.0 4000.0 4000.0 4000.0 4000.0 4000.0 4000.0 4000.0 4000.0 4000.0 4000.0 4000.0 4000.0 4000.0 4000.0 4000.0 4000.0 4000.0 4000.0 4000.0 4000.0 4000.0 4000.0 4000.0 4000.0 4000.0 4000.0 4000.0 4000.0 4000.0 4000.0 4000.0 4000.0 4000.0 4000.0 4000.0 4000.0 4000.0 4000.0 4000.0 4000.0 4000.0 4000.0 4000.0 4000.0 4000.0 4000.0 4000.0 4000.0 4000.0 4000.0 4000.0 4000.0 4000.0 4000.0 4000.0 4000.0 4000.0 4000.0 4000.0 4000.0 4000.0 4000.0 4000.0 4000.0 4000.0 4000.0 4000.0 4000.0 4000.0 4000.0 4000.0 4000.0 4000.0 4000.0 4000.0 4000.0 4000.0 4000.0 4000.0 4000.0 4000.0 4000.0 4000.0 4000.0 4000.0 4000.0 4000.0 4000.0 4000.0 4000.0 4000.0 4000.0 4000.0 4000.0 4000.0 4000.0 4000.0 4000.0 4000.0 4000.0 4000.0 4000.0 4000.0 4000.0 4000.0 4000.0 4000.0 4000.0 4000.0 4000.0 4000.0 4000.0 4000.0 4000.0 4000.0 4000.0 4000.0 4000.0 4000.0 4000.0 4000.0 4000.0 4000.0 4000.0 4000.0 4000.0 4000.0 4000.0 4000.0 4000.0 4000.0 4000.0 4000.0 4000.0 4000.0 4000.0 4000.0 4000.0 4000.0 4000.0 4000.0 4000.0 4000.0 4000.0 4000.0 4000.0 4000.0 4000.0 4000.0 4000.0 4000.0 4000.0 4000.0 4000.0 4000.0 4000.0 4000.0 4000.0 4000.0 4000.0 4000.0 4000.0 4000.0 4000.0 4000.0 4000.0 4000.0 4000.0 4000.0 4000.0 4000.0 4000.0 4000.0 4000.0 4000.0 4000.0 4000.0 4000.0 4000.0 4000.0 4000.0 4000.0 4000.0 4000.0 4000.0 4000.0 4000.0 4000.0 4000.0 4000.0 4000.0 4000.0 4000.0 4000.0 4000.0 4000.0 4000.0 4000.0 4000.0 4000.0 4000.0 4000.0 4000.0 4000.0 4000.0 4000.0 4000.0 4000.0 4000.0 4000.0 4000.0 4000.0 4000.0 4000.0 4000.0 4000.0 4000.0 4000.0 4000.0 4000.0 4000.0 4000.0 4000.0 4000.0 4000.0 4000.0 4000.0 4000.0 4000.0 4000.0 4000.0 4000.0 4000.0 4000.0 4000.0 4000.0 4000.0 4000.0 4000.0 4000.0 4000.0 4000.0 4000.0 4000.0 4000.0 4000.0 4000.0 4000.0 4000.0 4000.0 4000.0 4000.0 4000.0 4000.0 4000.0 4000.0 4000.0 4000.0 4000.0 4000.0 4000.0 4000.0 4000.0 4000.0 4000.0 4000.0 4000.0 4000.0 4000.0 4000.0 4000.0 4000.0 4000.0 4000.0 4000.0 4000.0 4000.0 4000.0 4000.0 4000.0 4000.0 4000.0 4000.0 4000.0 4000.0 4000.0 4000.0 4000.0 4000.0 4000.0 4000.0 4000.0 4000.0 4000.0 4000.0 4000.0 4000.0 4000.0 4000.0 4000.0 4000.0 4000.0 4000.0 4000.0 4000.0 4000.0 4000.0 4000.0 4000.0 4000.0 4000.0 4000.0 4000.0 4000.0 4000.0 4000.0 4000.0 4000.0 4000.0 4000.0 4000.0 4000.0 4000.0 4000.0 4000.0 4000.0 4000.0 4000.0 4000.0 4000.0 4000.0 4000.0 4000.0 4000.0 4000.0 4000.0 4000.0 4000.0 4000.0 4000.0 4000.0 4000.0 4000.0 4000.0 4000.0 4000.0 4000.0 4000.0 4000.0 4000.0 4000.0 4000.0 4000.0 4000.0 4000.0 4000.0 4000.0 4000.0 4000.0 4000.0 4000.0 4000.0 4000.0 4000.0 4000.0 4000.0 4000.0 4000.0 4000.0 4000.0 4000.0 4000.0 4000.0 4000.0 4000.0 4000.0 4000.0 4000.0 4000.0 4000.0 4000.0 4000.0 4000.0 4000.0 4000.0 4000.0 4000.0 4000.0 4000.0 4000.0 4000.0 4000.0 4000.0 4000.0 4000.0 4000.0 4000.0 4000.0 4000.0 4000.0 4000.0 4000.0 4000.0 4000.0 4000.0 4000.0 4000.0 4000.0 4000.0 4000.0 4000.0 4000.0 4000.0 4000.0 4000.0 4000.0 4000.0 4000.0 4000.0 4000.0 4000.0 4000.0 4000.0 4000.0 4000.0 4000.0 4000.0 4000.0 4000.0 4000.0 4000.0 4000.0 4000.0 4000.0 4000.0 4000.0 4000.0 4000.0 4000.0 4000.0 4000.0 4000.0 4000.0 4000.0 4000.0 4000.0 4000.0 4000.0 4000.0 4000.0 4000.0 4000.0 4000.0 4000.0 4000.0 4000.0 4000.0 4000.0 4000.0 4000.0 4000.0 4000.0 4000.0 4000.0 4000.0 4000.0 4000.0 4000.0 4000.0 4000.0 4000.0 4000.0 4000.0 4000.0 4000.0 4000.0 4000.0 4000.0 4000.0 4000.0 4000.0 4000.0 4000.0 4000.0 4000.0 4000.0 4000.0 4000.0 4000.0 4000.0 4000.0 4000.0 4000.0 4000.0 4000.0 4000.0 4000.0 4000.0 4000.0 4000.0 4000.0 4000.0 4000.0 4000.0 4000.0 4000.0 4000.0 4000.0 4000.0 4000.0 4000.0 4000.0 4000.0 4000.0 4000.0 4000.0 4000.0 4000.0 4000.0 4000.0 4000.0 4000.0 4000.0 4000.0 4000.0 4000.0 4000.0 4000.0 4000.0 4000.0 4000.0 4000.0 4000.0 4000.0 4000.0 4000.0 4000.0 4000.0 4000.0 4000.0 4000.0 4000.0 4000.0 4000.0 4000.0 4000.0 4000.0 4000.0 4000.0 4000.0 4000.0 4000.0 4000.0 4000.0 4000.0 4000.0 4000.0 4000.0 4000.0 4000.0 4000.0 4000.0 4000.0 4000.0 4000.0 4000.0 4000.0 4000.0 4000.0 4000.0 4000.0 4000.0 4000.0 4000.0 4000.0 4000.0 4000.0 4000.0 4000.0 4000.0 4000.0 4000.0 4000.0 4000.0 4000.0 4000.0 4000.0 4000.0 4000.0 4000.0 4000.0 4000.0 4000.0 4000.0 4000.0 4000.0 4000.0 4000.0 4000.0 4000.0 4000.0 4000.0 4000.0 4000.0 4000.0 4000.0 4000.0 4000.0 4000.0 4000.0 4000.0 4000.0 4000.0 4000.0 4000.0 4000.0 4000.0 4000.0 4000.0 4000.0 4000.0 4000.0 4000.0 4000.0 4000.0 4000.0 4000.0 4000.0 4000.0 4000.0 4000.0 4000.0 4000.0 4000.0 4000.0 4000.0 4000.0 4000.0 4000.0 4000.0 4000.0 4000.0 4000.0 4000.0 4000.0 4000.0 4000.0 4000.0 4000.0 4000.0 4000.0 4000.0 4000.0 4000.0 4000.0 4000.0 4000.0 4000.0 4000.0 4000.0 4000.0 4000.0 4000.0 4000.0 4000.0 4000.0 4000.0 4000.0 4000.0 4000.0 4000.0 4000.0 4000.0 4000.0 4000.0 4000.0 4000.0 4000.0 4000.0 4000.0 4000.0 4000.0 4000.0 4000.0 4000.0 4000.0 4000.0 4000.0 4000.0 4000.0 4000.0 4000.0 4000.0 4000.0 4000.0 4000.0 4000.0 4000.0 4000.0 4000.0 4000.0 4000.0 4000.0 4000.0 4000.0 4000.0 4000.0 4000.0 4000.0 4000.0 4000.0 4000.0 4000.0 4000.0 4000.0 4000.0 4000.0 4000.0 4000.0 4000.0 4000.0 4000.0 4000.0 4000.0 4000.0 4000.0 4000.0 4000.0 4000.0 4000.0 4000.0 4000.0 4000.0 4000.0 4000.0 4000.0 4000.0 4000.0 4000.0 4000.0 4000.0 4000.0 4000.0 4000.0 4000.0 4000.0 4000.0 4000.0 4000.0 4000.0 4000.0 4000.0 4000.0 4000.0 4000.0 4000.0 4000.0 4000.0 4000.0 4000.0 4000.0 4000.0 4000.0 4000.0 4000.0 4000.0 4000.0 4000.0 4000.0 4000.0 4000.0 4000.0 4000.0 4000.0 4000.0 4000.0 4000.0 4000.0 4000.0 4000.0 4000.0 4000.0 4000.0 4000.0 4000.0 4000.0 4000.0 4000.0 4000.0 4000.0 4000.0 4000.0 4000.0 4000.0 4000.0 4000.0 4000.0 4000.0 4000.0 4000.0 4000.0 4000.0 4000.0 4000.0 4000.0 4000.0 4000.0 4000.0 4000.0 4000.0 4000.0 4000.0 4000.0 4000.0 4000.0 4000.0 4000.0 4000.0 4000.0 4000.0 4000.0 4000.0 4000.0 4000.0 4000.0 4000.0 4000.0 4000.0 4000.0 4000.0 4000.0 4000.0 4000.0 4000.0 4000.0 4000.0 4000.0 4000.0 4000.0 4000.0 4000.0 4000.0 4000.0 4000.0 4000.0 4000.0 4000.0 4000.0 4000.0 4000.0 4000.0 4000.0 4000.0 4000.0 4000.0 4000.0 4000.0 4000.0 4000.0 4000.0 4000.0 4000.0 4000.0 4000.0 4000.0 4000.0 4000.0 4000.0 4000.0 4000.0 4000.0 4000.0 4000.0 4000.0 4000.0 4000.0 4000.0 4000.0 4000.0 4000.0 4000.0 4000.0 4000.0 4000.0 4000.0 4000.0 4000.0 4000.0 4000.0 4000.0 4000.0 4000.0 4000.0 4000.0 4000.0 4000.0 4000.0 4000.0 4000.0 4000.0 4000.0 4000.0 4000.0 4000.0 4000.0 4000.0 4000.0 4000.0 4000.0 4000.0 4000.0 4000.0 4000.0 4000.0 4000.0 4000.0 4000.0 4000.0 4000.0 4000.0 4000.0 4000.0 4000.0 4000.0 4000.0 4000.0 4000.0 4000.0 4000.0 4000.0 4000.0 4000.0 4000.0 4000.0 4000.0 4000.0 4000.0 4000.0 4000.0 4000.0 4000.0 4000.0 4000.0 4000.0 4000.0 4000.0 4000.0 4000.0 4000.0 4000.0 4000.0 4000.0 4000.0 4000.0 4000.0 4000.0 4000.0 4000.0 4000.0 4000.0 4000.0 4000.0 4000.0 4000.0 4000.0 4000.0 4000.0 4000.0 4000.0 4000.0 4000.0 4000.0 4000.0 4000.0 4000.0 4000.0 4000.0 4000.0 4000.0 4000.0 4000.0 4000.0 4000.0 4000.0 4000.0 4000.0 4000.0 4000.0 4000.0 4000.0 4000.0 4000.0 4000.0 4000.0 4000.0 4000.0 4000.0 4000.0 4000.0 4000.0 4000.0 4000.0 4000.0 4000.0 4000.0 4000.0 4000.0 4000.0 4000.0 4000.0 4000.0 4000.0 4000.0 4000.0 4000.0 4000.0 4000.0 4000.0 4000.0 4000.0 4000.0 4000.0 4000.0 4000.0 4000.0 4000.0 4000.0 4000.0 4000.0 4000.0 4000.0 4000.0 4000.0 4000.0 4000.0 4000.0 4000.0 4000.0 4000.0 4000.0 4000.0 4000.0 4000.0 4000.0 4000.0 4000.0 4000.0 4000.0 4000.0 4000.0 4000.0 4000.0 4000.0 4000.0 4000.0 4000.0 4000.0 4000.0 4000.0 4000.0 4000.0 4000.0 4000.0 4000.0 4000.0 4000.0 4000.0 4000.0 4000.0 4000.0 4000.0 4000.0 4000.0 4000.0 4000.0 4000.0 4000.0 4000.0 4000.0 4000.0 4000.0 4000.0 4000.0 4000.0 4000.0 4000.0 4000.0 4000.0 4000.0 4000.0 4000.0 4000.0 4000.0 4000.0 4000.0 4000.0 4000.0 4000.0 4000.0 4000.0 4000.0 4000.0 4000.0 4000.0 4000.0 4000.0 4000.0 4000.0 4000.0 4000.0 4000.0 4000.0 4000.0 4000.0 4000.0 4000.0 4000.0 4000.0 4000.0 4000.0 4000.0 4000.0 4000.0 4000.0 4000.0 4000.0 4000.0 4000.0 4000.0 4000.0 4000.0 4000.0 4000.0 4000.0 4000.0 4000.0 4000.0 4000.0 4000.0 4000.0 4000.0 4000.0 4000.0 4000.0 4000.0 4000.0 4000.0 4000.0 4000.0 4000.0 4000.0 4000.0 4000.0 4000.0 4000.0 4000.0 4000.0 4000.0 4000.0 4000.0 4000.0 4000.0 4000.0 4000.0 4000.0 4000.0 4000.0 4000.0 4000.0 4000.0 4000.0 4000.0 4000.0 4000.0 4000.0 4000.0 4000.0 4000.0 4000.0 4000.0 4000.0 4000.0 4000.0 4000.0 4000.0 4000.0 4000.0 4000.0 4000.0 4000.0 4000.0 4000.0 4000.0 4000.0 4000.0 4000.0 4000.0 4000.0 4000.0 4000.0 4000.0 4000.0 4000.0 4000.0 4000.0 4000.0 4000.0 4000.0 4000.0 4000.0 4000.0 4000.0 4000.0 4000.0 4000.0 4000.0 4000.0 4000.0 4000.0 4000.0 4000.0 4000.0 4000.0 4000.0 4000.0 4000.0 4000.0 4000.0 4000.0 4000.0 4000.0 4000.0 4000.0 4000.0 4000.0 4000.0 4000.0 4000.0 4000.0 4000.0 4000.0 4000.0 4000.0 4000.0 4000.0 4000.0 4000.0 4000.0 4000.0 4000.0 4000.0 4000.0 4000.0 4000.0 4000.0 4000.0 4000.0 4000.0 4000.0 4000.0 4000.0 4000.0 4000.0 4000.0 4000.0 4000.0 4000.0 4000.0 4000.0 4000.0 4000.0 4000.0 4000.0 4000.0 4000.0 4000.0 4000.0 4000.0 4000.0 4000.0 4000.0 4000.0 4000.0 4000.0 4000.0 4000.0 4000.0 4000.0 4000.0 4000.0 4000.0 4000.0 4000.0 4000.0 4000.0 4000.0 4000.0 4000.0 4000.0 4000.0 4000.0 4000.0 4000.0 4000.0 4000.0 4000.0 4000.0 4000.0 4000.0 4000.0 4000.0 4000.0 4000.0 4000.0 4000.0 4000.0 4000.0 4000.0 4000.0 4000.0 4000.0 4000.0 4000.0 4000.0 4000.0 4000.0 4000.0 4000.0 4000.0 4000.0 4000.0 4000.0 4000.0 4000.0 4000.0 4000.0 4000.0 4000.0 4000.0 4000.0 4000.0 4000.0 4000.0 4000.0 4000.0 4000.0 4000.0 4000.0 4000.0 4000.0 4000.0 4000.0 4000.0 4000.0 4000.0 4000.0 4000.0 4000.0 4000.0 4000.0 4000.0 4000.0 4000.0 4000.0 4000.0 4000.0 4000.0 4000.0 4000.0 4000.0 4000.0 4000.0 4000.0 4000.0 4000.0 4000.0 4000.0 4000.0 4000.0 4000.0 4000.0 4000.0 4000.0 4000.0 4000.0 4000.0 4000.0 4000.0 4000.0 4000.0 4000.0 4000.0 4000.0 4000.0 4000.0 4000.0 4000.0 4000.0 4000.0 4000.0 4000.0 4000.0 4000.0 4000.0 4000.0 4000.0 4000.0 4000.0 4000.0 4000.0 4000.0 4000.0 4000.0 4000.0 4000.0 4000.0 4000.0 4000.0 4000.0 4000.0 4000.0 4000.0 4000.0 4000.0 4000.0 4000.0 4000.0 4000.0 4000.0 4000.0 4000.0 4000.0 4000.0 4000.0 4000.0 4000.0 4000.0 4000.0 4000.0 4000.0 4000.0 4000.0 4000.0 4000.0 4000.0 4000.0 4000.0 4000.0 4000.0 4000.0 4000.0 4000.0 4000.0 4000.0 4000.0 4000.0 4000.0 4000.0 4000.0 4000.0 4000.0 4000.0 4000.0 4000.0 4000.0 4000.0 4000.0 4000.0 4000.0 4000.0 4000.0 4000.0 4000.0 4000.0 4000.0 4000.0 4000.0 4000.0 4000.0 4000.0 4000.0 4000.0 4000.0 4000.0 4000.0 4000.0 4000.0 4000.0 4000.0 4000.0 4000.0 4000.0 4000.0 4000.0 4000.0 4000.0 4000.0 4000.0 4000.0 4000.0 4000.0 4000.0 4000.0 4000.0 4000.0 4000.0 4000.0 4000.0 4000.0 4000.0 4000.0 4000.0 4000.0 4000.0 4000.0 4000.0 4000.0 4000.0 4000.0 4000.0 4000.0 4000.0 4000.0 4000.0 4000.0 4000.0 4000.0 4000.0 4000.0 4000.0 4000.0 4000.0 4000.0 4000.0 4000.0 4000.0 4000.0 4000.0 4000.0 4000.0 4000.0 4000.0 4000.0 4000.0 4000.0 4000.0 4000.0 4000.0 4000.0 4000.0 4000.0 4000.0 4000.0 4000.0 4000.0 4000.0 4000.0 4000.0 4000.0 4000.0 4000.0 4000.0 4000.0 4000.0 4000.0 4000.0 4000.0 4000.0 4000.0 4000.0 4000.0 4000.0 4000.0 4000.0 4000.0 4000.0 4000.0 4000.0 4000.0 4000.0 4000.0 4000.0 4000.0 4000.0 4000.0 4000.0 4000.0 4000.0 4000.0 4000.0 4000.0 4000.0 4000.0 4000.0 4000.0 4000.0 4000.0 4000.0 4000.0 4000.0 4000.0 4000.0 4000.0 4000.0 4000.0 4000.0 4000.0 4000.0 4000.0 4000.0 4000.0 4000.0 4000.0 4000.0 4000.0 4000.0 4000.0 4000.0 4000.0 4000.0 4000.0 4000.0 4000.0 4000.0 4000.0 4000.0 4000.0 4000.0 4000.0 4000.0 4000.0 4000.0 4000.0 4000.0 4000.0 4000.0 4000.0 4000.0 4000.0 4000.0 4000.0 4000.0 4000.0 4000.0 4000.0 4000.0 4000.0 4000.0 4000.0 4000.0 4000.0 4000.0 4000.0 4000.0 4000.0 4000.0 4000.0 4000.0 4000.0 4000.0 4000.0 4000.0 4000.0 4000.0 4000.0 4000.0 4000.0 4000.0 SCALARS Mass float 1
LOOKUP_TABLE default
11309700000.0 11309700000.0 11309700000.0 11309700000.0 11309700000.0 11309700000.0 11309700000.0 11309700000.0 11309700000.0 11309700000.0 11309700000.0 11309700000.0 11309700000.0 11309700000.0 11309700000.0 11309700000.0 11309700000.0 11309700000.0 11309700000.0 11309700000.0 11309700000.0 11309700000.0 11309700000.0 11309700000.0 11309700000.0 11309700000.0 11309700000.0 11309700000.0 11309700000.0 11309700000.0 11309700000.0 11309700000.0 11309700000.0 11309700000.0 11309700000.0 11309700000.0 11309700000.0 11309700000.0 11309700000.0 11309700000.0 11309700000.0 11309700000.0 11309700000.0 11309700000.0 11309700000.0 11309700000.0 11309700000.0 11309700000.0 11309700000.0 11309700000.0 11309700000.0 11309700000.0 11309700000.0 11309700000.0 11309700000.0 11309700000.0 11309700000.0 11309700000.0 11309700000.0 11309700000.0 11309700000.0 11309700000.0 11309700000.0 11309700000.0 11309700000.0 11309700000.0 11309700000.0 11309700000.0 11309700000.0 11309700000.0 11309700000.0 11309700000.0 11309700000.0 11309700000.0 11309700000.0 11309700000.0 11309700000.0 11309700000.0 11309700000.0 11309700000.0 11309700000.0 11309700000.0 11309700000.0 11309700000.0 11309700000.0 11309700000.0 11309700000.0 11309700000.0 11309700000.0 11309700000.0 11309700000.0 11309700000.0 11309700000.0 11309700000.0 11309700000.0 11309700000.0 11309700000.0 11309700000.0 11309700000.0 11309700000.0 11309700000.0 11309700000.0 11309700000.0 11309700000.0 11309700000.0 11309700000.0 11309700000.0 11309700000.0 11309700000.0 11309700000.0 11309700000.0 11309700000.0 11309700000.0 11309700000.0 11309700000.0 11309700000.0 11309700000.0 11309700000.0 11309700000.0 11309700000.0 11309700000.0 11309700000.0 11309700000.0 11309700000.0 11309700000.0 11309700000.0 11309700000.0 11309700000.0 11309700000.0 11309700000.0 11309700000.0 11309700000.0 11309700000.0 11309700000.0 11309700000.0 11309700000.0 11309700000.0 11309700000.0 11309700000.0 11309700000.0 11309700000.0 11309700000.0 11309700000.0 11309700000.0 11309700000.0 11309700000.0 11309700000.0 11309700000.0 11309700000.0 11309700000.0 11309700000.0 11309700000.0 11309700000.0 11309700000.0 11309700000.0 11309700000.0 11309700000.0 11309700000.0 11309700000.0 11309700000.0 11309700000.0 11309700000.0 11309700000.0 11309700000.0 11309700000.0 11309700000.0 11309700000.0 11309700000.0 11309700000.0 11309700000.0 11309700000.0 11309700000.0 11309700000.0 11309700000.0 11309700000.0 11309700000.0 11309700000.0 11309700000.0 11309700000.0 11309700000.0 11309700000.0 11309700000.0 11309700000.0 11309700000.0 11309700000.0 11309700000.0 11309700000.0 11309700000.0 11309700000.0 11309700000.0 11309700000.0 11309700000.0 11309700000.0 11309700000.0 11309700000.0 11309700000.0 11309700000.0 11309700000.0 11309700000.0 11309700000.0 11309700000.0 11309700000.0 11309700000.0 11309700000.0 11309700000.0 11309700000.0 11309700000.0 11309700000.0 11309700000.0 11309700000.0 11309700000.0 11309700000.0 11309700000.0 11309700000.0 11309700000.0 11309700000.0 11309700000.0 11309700000.0 11309700000.0 11309700000.0 11309700000.0 11309700000.0 11309700000.0 11309700000.0 11309700000.0 11309700000.0 11309700000.0 11309700000.0 11309700000.0 11309700000.0 11309700000.0 11309700000.0 11309700000.0 11309700000.0 11309700000.0 11309700000.0 11309700000.0 11309700000.0 11309700000.0 11309700000.0 11309700000.0 11309700000.0 11309700000.0 11309700000.0 11309700000.0 11309700000.0 11309700000.0 11309700000.0 11309700000.0 11309700000.0 11309700000.0 11309700000.0 11309700000.0 11309700000.0 11309700000.0 11309700000.0 11309700000.0 11309700000.0 11309700000.0 11309700000.0 11309700000.0 11309700000.0 11309700000.0 11309700000.0 11309700000.0 11309700000.0 11309700000.0 11309700000.0 11309700000.0 11309700000.0 11309700000.0 11309700000.0 11309700000.0 11309700000.0 11309700000.0 11309700000.0 11309700000.0 11309700000.0 11309700000.0 11309700000.0 11309700000.0 11309700000.0 11309700000.0 11309700000.0 11309700000.0 11309700000.0 11309700000.0 11309700000.0 11309700000.0 11309700000.0 11309700000.0 11309700000.0 11309700000.0 11309700000.0 11309700000.0 11309700000.0 11309700000.0 11309700000.0 11309700000.0 11309700000.0 11309700000.0 11309700000.0 11309700000.0 11309700000.0 11309700000.0 11309700000.0 11309700000.0 11309700000.0 11309700000.0 11309700000.0 11309700000.0 11309700000.0 11309700000.0 11309700000.0 11309700000.0 11309700000.0 11309700000.0 11309700000.0 11309700000.0 11309700000.0 11309700000.0 11309700000.0 11309700000.0 11309700000.0 11309700000.0 11309700000.0 11309700000.0 11309700000.0 11309700000.0 11309700000.0 11309700000.0 11309700000.0 11309700000.0 11309700000.0 11309700000.0 11309700000.0 11309700000.0 11309700000.0 11309700000.0 11309700000.0 11309700000.0 11309700000.0 11309700000.0 11309700000.0 11309700000.0 11309700000.0 11309700000.0 11309700000.0 11309700000.0 11309700000.0 11309700000.0 11309700000.0 11309700000.0 11309700000.0 11309700000.0 11309700000.0 11309700000.0 11309700000.0 11309700000.0 11309700000.0 11309700000.0 11309700000.0 11309700000.0 11309700000.0 11309700000.0 11309700000.0 11309700000.0 11309700000.0 11309700000.0 11309700000.0 11309700000.0 11309700000.0 11309700000.0 11309700000.0 11309700000.0 11309700000.0 11309700000.0 11309700000.0 11309700000.0 11309700000.0 11309700000.0 11309700000.0 11309700000.0 11309700000.0 11309700000.0 11309700000.0 11309700000.0 11309700000.0 11309700000.0 11309700000.0 11309700000.0 11309700000.0 11309700000.0 11309700000.0 11309700000.0 11309700000.0 11309700000.0 11309700000.0 11309700000.0 11309700000.0 11309700000.0 11309700000.0 11309700000.0 11309700000.0 11309700000.0 11309700000.0 11309700000.0 11309700000.0 11309700000.0 11309700000.0 11309700000.0 11309700000.0 11309700000.0 11309700000.0 11309700000.0 11309700000.0 11309700000.0 11309700000.0 11309700000.0 11309700000.0 11309700000.0 11309700000.0 11309700000.0 11309700000.0 11309700000.0 11309700000.0 11309700000.0 11309700000.0 11309700000.0 11309700000.0 11309700000.0 11309700000.0 11309700000.0 11309700000.0 11309700000.0 11309700000.0 11309700000.0 11309700000.0 11309700000.0 11309700000.0 11309700000.0 11309700000.0 11309700000.0 11309700000.0 11309700000.0 11309700000.0 11309700000.0 11309700000.0 11309700000.0 11309700000.0 11309700000.0 11309700000.0 11309700000.0 11309700000.0 11309700000.0 11309700000.0 11309700000.0 11309700000.0 11309700000.0 11309700000.0 11309700000.0 11309700000.0 11309700000.0 11309700000.0 11309700000.0 11309700000.0 11309700000.0 11309700000.0 11309700000.0 11309700000.0 11309700000.0 11309700000.0 11309700000.0 11309700000.0 11309700000.0 11309700000.0 11309700000.0 11309700000.0 11309700000.0 11309700000.0 11309700000.0 11309700000.0 11309700000.0 11309700000.0 11309700000.0 11309700000.0 11309700000.0 11309700000.0 11309700000.0 11309700000.0 11309700000.0 11309700000.0 11309700000.0 11309700000.0 11309700000.0 11309700000.0 11309700000.0 11309700000.0 11309700000.0 11309700000.0 11309700000.0 11309700000.0 11309700000.0 11309700000.0 11309700000.0 11309700000.0 11309700000.0 11309700000.0 11309700000.0 11309700000.0 11309700000.0 11309700000.0 11309700000.0 11309700000.0 11309700000.0 11309700000.0 11309700000.0 11309700000.0 11309700000.0 11309700000.0 11309700000.0 11309700000.0 11309700000.0 11309700000.0 11309700000.0 11309700000.0 11309700000.0 11309700000.0 11309700000.0 11309700000.0 11309700000.0 11309700000.0 11309700000.0 11309700000.0 11309700000.0 11309700000.0 11309700000.0 11309700000.0 11309700000.0 11309700000.0 11309700000.0 11309700000.0 11309700000.0 11309700000.0 11309700000.0 11309700000.0 11309700000.0 11309700000.0 11309700000.0 11309700000.0 11309700000.0 11309700000.0 11309700000.0 11309700000.0 11309700000.0 11309700000.0 11309700000.0 11309700000.0 11309700000.0 11309700000.0 11309700000.0 11309700000.0 11309700000.0 11309700000.0 11309700000.0 11309700000.0 11309700000.0 11309700000.0 11309700000.0 11309700000.0 11309700000.0 11309700000.0 11309700000.0 11309700000.0 11309700000.0 11309700000.0 11309700000.0 11309700000.0 11309700000.0 11309700000.0 11309700000.0 11309700000.0 11309700000.0 11309700000.0 11309700000.0 11309700000.0 11309700000.0 11309700000.0 11309700000.0 11309700000.0 11309700000.0 11309700000.0 11309700000.0 11309700000.0 11309700000.0 11309700000.0 11309700000.0 11309700000.0 11309700000.0 11309700000.0 11309700000.0 11309700000.0 11309700000.0 11309700000.0 11309700000.0 11309700000.0 11309700000.0 11309700000.0 11309700000.0 11309700000.0 11309700000.0 11309700000.0 11309700000.0 11309700000.0 11309700000.0 11309700000.0 11309700000.0 11309700000.0 11309700000.0 11309700000.0 11309700000.0 11309700000.0 11309700000.0 11309700000.0 11309700000.0 11309700000.0 11309700000.0 11309700000.0 11309700000.0 11309700000.0 11309700000.0 11309700000.0 11309700000.0 11309700000.0 11309700000.0 11309700000.0 11309700000.0 11309700000.0 11309700000.0 11309700000.0 11309700000.0 11309700000.0 11309700000.0 11309700000.0 11309700000.0 11309700000.0 11309700000.0 11309700000.0 11309700000.0 11309700000.0 11309700000.0 11309700000.0 11309700000.0 11309700000.0 11309700000.0 11309700000.0 11309700000.0 11309700000.0 11309700000.0 11309700000.0 11309700000.0 11309700000.0 11309700000.0 11309700000.0 11309700000.0 11309700000.0 11309700000.0 11309700000.0 11309700000.0 11309700000.0 11309700000.0 11309700000.0 11309700000.0 11309700000.0 11309700000.0 11309700000.0 11309700000.0 11309700000.0 11309700000.0 11309700000.0 11309700000.0 11309700000.0 11309700000.0 11309700000.0 11309700000.0 11309700000.0 11309700000.0 11309700000.0 11309700000.0 11309700000.0 11309700000.0 11309700000.0 11309700000.0 11309700000.0 11309700000.0 11309700000.0 11309700000.0 11309700000.0 11309700000.0 11309700000.0 11309700000.0 11309700000.0 11309700000.0 11309700000.0 11309700000.0 11309700000.0 11309700000.0 11309700000.0 11309700000.0 11309700000.0 11309700000.0 11309700000.0 11309700000.0 11309700000.0 11309700000.0 11309700000.0 11309700000.0 11309700000.0 11309700000.0 11309700000.0 11309700000.0 11309700000.0 11309700000.0 11309700000.0 11309700000.0 11309700000.0 11309700000.0 11309700000.0 11309700000.0 11309700000.0 11309700000.0 11309700000.0 11309700000.0 11309700000.0 11309700000.0 11309700000.0 11309700000.0 11309700000.0 11309700000.0 11309700000.0 11309700000.0 11309700000.0 11309700000.0 11309700000.0 11309700000.0 11309700000.0 11309700000.0 11309700000.0 11309700000.0 11309700000.0 11309700000.0 11309700000.0 11309700000.0 11309700000.0 11309700000.0 11309700000.0 11309700000.0 11309700000.0 11309700000.0 11309700000.0 11309700000.0 11309700000.0 11309700000.0 11309700000.0 11309700000.0 11309700000.0 11309700000.0 11309700000.0 11309700000.0 11309700000.0 11309700000.0 11309700000.0 11309700000.0 11309700000.0 11309700000.0 11309700000.0 11309700000.0 11309700000.0 11309700000.0 11309700000.0 11309700000.0 11309700000.0 11309700000.0 11309700000.0 11309700000.0 11309700000.0 11309700000.0 11309700000.0 11309700000.0 11309700000.0 11309700000.0 11309700000.0 11309700000.0 11309700000.0 11309700000.0 11309700000.0 11309700000.0 11309700000.0 11309700000.0 11309700000.0 11309700000.0 11309700000.0 11309700000.0 11309700000.0 11309700000.0 11309700000.0 11309700000.0 11309700000.0 11309700000.0 11309700000.0 11309700000.0 11309700000.0 11309700000.0 11309700000.0 11309700000.0 11309700000.0 11309700000.0 11309700000.0 11309700000.0 11309700000.0 11309700000.0 11309700000.0 11309700000.0 11309700000.0 11309700000.0 11309700000.0 11309700000.0 11309700000.0 11309700000.0 11309700000.0 11309700000.0 11309700000.0 11309700000.0 11309700000.0 11309700000.0 11309700000.0 11309700000.0 11309700000.0 11309700000.0 11309700000.0 11309700000.0 11309700000.0 11309700000.0 11309700000.0 11309700000.0 11309700000.0 11309700000.0 11309700000.0 11309700000.0 11309700000.0 11309700000.0 11309700000.0 11309700000.0 11309700000.0 11309700000.0 11309700000.0 11309700000.0 11309700000.0 11309700000.0 11309700000.0 11309700000.0 11309700000.0 11309700000.0 11309700000.0 11309700000.0 11309700000.0 11309700000.0 11309700000.0 11309700000.0 11309700000.0 11309700000.0 11309700000.0 11309700000.0 11309700000.0 11309700000.0 11309700000.0 11309700000.0 11309700000.0 11309700000.0 11309700000.0 11309700000.0 11309700000.0 11309700000.0 11309700000.0 11309700000.0 11309700000.0 11309700000.0 11309700000.0 11309700000.0 11309700000.0 11309700000.0 11309700000.0 11309700000.0 11309700000.0 11309700000.0 11309700000.0 11309700000.0 11309700000.0 11309700000.0 11309700000.0 11309700000.0 11309700000.0 11309700000.0 11309700000.0 11309700000.0 11309700000.0 11309700000.0 11309700000.0 11309700000.0 11309700000.0 11309700000.0 11309700000.0 11309700000.0 11309700000.0 11309700000.0 11309700000.0 11309700000.0 11309700000.0 11309700000.0 11309700000.0 11309700000.0 11309700000.0 11309700000.0 11309700000.0 11309700000.0 11309700000.0 11309700000.0 11309700000.0 11309700000.0 11309700000.0 11309700000.0 11309700000.0 11309700000.0 11309700000.0 11309700000.0 11309700000.0 11309700000.0 11309700000.0 11309700000.0 11309700000.0 11309700000.0 11309700000.0 11309700000.0 11309700000.0 11309700000.0 11309700000.0 11309700000.0 11309700000.0 11309700000.0 11309700000.0 11309700000.0 11309700000.0 11309700000.0 11309700000.0 11309700000.0 11309700000.0 11309700000.0 11309700000.0 11309700000.0 11309700000.0 11309700000.0 11309700000.0 11309700000.0 11309700000.0 11309700000.0 11309700000.0 11309700000.0 11309700000.0 11309700000.0 11309700000.0 11309700000.0 11309700000.0 11309700000.0 11309700000.0 11309700000.0 11309700000.0 11309700000.0 11309700000.0 11309700000.0 11309700000.0 11309700000.0 11309700000.0 11309700000.0 11309700000.0 11309700000.0 11309700000.0 11309700000.0 11309700000.0 11309700000.0 11309700000.0 11309700000.0 11309700000.0 11309700000.0 11309700000.0 11309700000.0 11309700000.0 11309700000.0 11309700000.0 11309700000.0 11309700000.0 11309700000.0 11309700000.0 11309700000.0 11309700000.0 11309700000.0 11309700000.0 11309700000.0 11309700000.0 11309700000.0 11309700000.0 11309700000.0 11309700000.0 11309700000.0 11309700000.0 11309700000.0 11309700000.0 11309700000.0 11309700000.0 11309700000.0 11309700000.0 11309700000.0 11309700000.0 11309700000.0 11309700000.0 11309700000.0 11309700000.0 11309700000.0 11309700000.0 11309700000.0 11309700000.0 11309700000.0 11309700000.0 11309700000.0 11309700000.0 11309700000.0 11309700000.0 11309700000.0 11309700000.0 11309700000.0 11309700000.0 11309700000.0 11309700000.0 11309700000.0 11309700000.0 11309700000.0 11309700000.0 11309700000.0 11309700000.0 11309700000.0 11309700000.0 11309700000.0 11309700000.0 11309700000.0 11309700000.0 11309700000.0 11309700000.0 11309700000.0 11309700000.0 11309700000.0 11309700000.0 11309700000.0 11309700000.0 11309700000.0 11309700000.0 11309700000.0 11309700000.0 11309700000.0 11309700000.0 11309700000.0 11309700000.0 11309700000.0 11309700000.0 11309700000.0 11309700000.0 11309700000.0 11309700000.0 11309700000.0 11309700000.0 11309700000.0 11309700000.0 11309700000.0 11309700000.0 11309700000.0 11309700000.0 11309700000.0 11309700000.0 11309700000.0 11309700000.0 11309700000.0 11309700000.0 11309700000.0 11309700000.0 11309700000.0 11309700000.0 11309700000.0 11309700000.0 11309700000.0 11309700000.0 11309700000.0 11309700000.0 11309700000.0 11309700000.0 11309700000.0 11309700000.0 11309700000.0 11309700000.0 11309700000.0 11309700000.0 11309700000.0 11309700000.0 11309700000.0 11309700000.0 11309700000.0 11309700000.0 11309700000.0 11309700000.0 11309700000.0 11309700000.0 11309700000.0 11309700000.0 11309700000.0 11309700000.0 11309700000.0 11309700000.0 11309700000.0 11309700000.0 11309700000.0 11309700000.0 11309700000.0 11309700000.0 11309700000.0 11309700000.0 11309700000.0 11309700000.0 11309700000.0 11309700000.0 11309700000.0 11309700000.0 11309700000.0 11309700000.0 11309700000.0 11309700000.0 11309700000.0 11309700000.0 11309700000.0 11309700000.0 11309700000.0 11309700000.0 11309700000.0 11309700000.0 11309700000.0 11309700000.0 11309700000.0 11309700000.0 11309700000.0 11309700000.0 11309700000.0 11309700000.0 11309700000.0 11309700000.0 11309700000.0 11309700000.0 11309700000.0 11309700000.0 11309700000.0 11309700000.0 11309700000.0 11309700000.0 11309700000.0 11309700000.0 11309700000.0 11309700000.0 11309700000.0 11309700000.0 11309700000.0 11309700000.0 11309700000.0 11309700000.0 11309700000.0 11309700000.0 11309700000.0 11309700000.0 11309700000.0 11309700000.0 11309700000.0 11309700000.0 11309700000.0 11309700000.0 11309700000.0 11309700000.0 11309700000.0 11309700000.0 11309700000.0 11309700000.0 11309700000.0 11309700000.0 11309700000.0 11309700000.0 11309700000.0 11309700000.0 11309700000.0 11309700000.0 11309700000.0 11309700000.0 11309700000.0 11309700000.0 11309700000.0 11309700000.0 11309700000.0 11309700000.0 11309700000.0 11309700000.0 11309700000.0 11309700000.0 11309700000.0 11309700000.0 11309700000.0 11309700000.0 11309700000.0 11309700000.0 11309700000.0 11309700000.0 11309700000.0 11309700000.0 11309700000.0 11309700000.0 11309700000.0 11309700000.0 11309700000.0 11309700000.0 11309700000.0 11309700000.0 11309700000.0 11309700000.0 11309700000.0 11309700000.0 11309700000.0 11309700000.0 11309700000.0 11309700000.0 11309700000.0 11309700000.0 11309700000.0 11309700000.0 11309700000.0 11309700000.0 11309700000.0 11309700000.0 11309700000.0 11309700000.0 11309700000.0 11309700000.0 11309700000.0 11309700000.0 11309700000.0 11309700000.0 11309700000.0 11309700000.0 11309700000.0 11309700000.0 11309700000.0 11309700000.0 11309700000.0 11309700000.0 11309700000.0 11309700000.0 11309700000.0 11309700000.0 11309700000.0 11309700000.0 11309700000.0 11309700000.0 11309700000.0 11309700000.0 11309700000.0 11309700000.0 11309700000.0 11309700000.0 11309700000.0 11309700000.0 11309700000.0 11309700000.0 11309700000.0 11309700000.0 11309700000.0 11309700000.0 11309700000.0 11309700000.0 11309700000.0 11309700000.0 11309700000.0 11309700000.0 11309700000.0 11309700000.0 11309700000.0 11309700000.0 11309700000.0 11309700000.0 11309700000.0 11309700000.0 11309700000.0 11309700000.0 11309700000.0 11309700000.0 11309700000.0 11309700000.0 11309700000.0 11309700000.0 11309700000.0 11309700000.0 11309700000.0 11309700000.0 11309700000.0 11309700000.0 11309700000.0 11309700000.0 11309700000.0 11309700000.0 11309700000.0 11309700000.0 11309700000.0 11309700000.0 11309700000.0 11309700000.0 11309700000.0 11309700000.0 11309700000.0 11309700000.0 11309700000.0 11309700000.0 11309700000.0 11309700000.0 11309700000.0 11309700000.0 11309700000.0 11309700000.0 11309700000.0 11309700000.0 11309700000.0 11309700000.0 11309700000.0 11309700000.0 11309700000.0 11309700000.0 11309700000.0 11309700000.0 11309700000.0 11309700000.0 11309700000.0 11309700000.0 11309700000.0 11309700000.0 11309700000.0 11309700000.0 11309700000.0 11309700000.0 11309700000.0 11309700000.0 11309700000.0 11309700000.0 11309700000.0 11309700000.0 11309700000.0 11309700000.0 11309700000.0 11309700000.0 11309700000.0 11309700000.0 11309700000.0 11309700000.0 11309700000.0 11309700000.0 11309700000.0 11309700000.0 11309700000.0 11309700000.0 11309700000.0 11309700000.0 11309700000.0 11309700000.0 11309700000.0 11309700000.0 11309700000.0 11309700000.0 11309700000.0 11309700000.0 11309700000.0 11309700000.0 11309700000.0 11309700000.0 11309700000.0 11309700000.0 11309700000.0 11309700000.0 11309700000.0 11309700000.0 11309700000.0 11309700000.0 11309700000.0 11309700000.0 11309700000.0 11309700000.0 11309700000.0 11309700000.0 11309700000.0 11309700000.0 11309700000.0 11309700000.0 11309700000.0 11309700000.0 11309700000.0 11309700000.0 11309700000.0 11309700000.0 11309700000.0 11309700000.0 11309700000.0 11309700000.0 11309700000.0 11309700000.0 11309700000.0 11309700000.0 11309700000.0 11309700000.0 11309700000.0 11309700000.0 11309700000.0 11309700000.0 11309700000.0 11309700000.0 11309700000.0 11309700000.0 11309700000.0 11309700000.0 11309700000.0 11309700000.0 11309700000.0 11309700000.0 11309700000.0 11309700000.0 11309700000.0 11309700000.0 11309700000.0 11309700000.0 11309700000.0 11309700000.0 11309700000.0 11309700000.0 11309700000.0 11309700000.0 11309700000.0 11309700000.0 11309700000.0 11309700000.0 11309700000.0 11309700000.0 11309700000.0 11309700000.0 11309700000.0 11309700000.0 11309700000.0 11309700000.0 11309700000.0 11309700000.0 11309700000.0 11309700000.0 11309700000.0 11309700000.0 11309700000.0 11309700000.0 11309700000.0 11309700000.0 11309700000.0 11309700000.0 11309700000.0 11309700000.0 11309700000.0 11309700000.0 11309700000.0 11309700000.0 11309700000.0 11309700000.0 11309700000.0 11309700000.0 11309700000.0 11309700000.0 11309700000.0 11309700000.0 11309700000.0 11309700000.0 11309700000.0 11309700000.0 11309700000.0 11309700000.0 11309700000.0 11309700000.0 11309700000.0 11309700000.0 11309700000.0 11309700000.0 11309700000.0 11309700000.0 11309700000.0 11309700000.0 11309700000.0 11309700000.0 11309700000.0 11309700000.0 11309700000.0 11309700000.0 11309700000.0 11309700000.0 11309700000.0 11309700000.0 11309700000.0 11309700000.0 11309700000.0 11309700000.0 11309700000.0 11309700000.0 11309700000.0 11309700000.0 11309700000.0 11309700000.0 11309700000.0 11309700000.0 11309700000.0 11309700000.0 11309700000.0 11309700000.0 11309700000.0 11309700000.0 11309700000.0 11309700000.0 11309700000.0 11309700000.0 11309700000.0 11309700000.0 11309700000.0 11309700000.0 11309700000.0 11309700000.0 11309700000.0 11309700000.0 11309700000.0 11309700000.0 11309700000.0 11309700000.0 11309700000.0 11309700000.0 11309700000.0 11309700000.0 11309700000.0 11309700000.0 11309700000.0 11309700000.0 11309700000.0 11309700000.0 11309700000.0 11309700000.0 11309700000.0 11309700000.0 11309700000.0 11309700000.0 11309700000.0 11309700000.0 11309700000.0 11309700000.0 11309700000.0 11309700000.0 11309700000.0 11309700000.0 11309700000.0 11309700000.0 11309700000.0 11309700000.0 11309700000.0 11309700000.0 11309700000.0 11309700000.0 11309700000.0 11309700000.0 11309700000.0 11309700000.0 11309700000.0 11309700000.0 11309700000.0 11309700000.0 11309700000.0 11309700000.0 11309700000.0 11309700000.0 11309700000.0 11309700000.0 11309700000.0 11309700000.0 11309700000.0 11309700000.0 11309700000.0 11309700000.0 11309700000.0 11309700000.0 11309700000.0 11309700000.0 11309700000.0 11309700000.0 11309700000.0 11309700000.0 11309700000.0 11309700000.0 11309700000.0 11309700000.0 11309700000.0 11309700000.0 11309700000.0 11309700000.0 11309700000.0 11309700000.0 11309700000.0 11309700000.0 11309700000.0 11309700000.0 11309700000.0 11309700000.0 11309700000.0 11309700000.0 11309700000.0 11309700000.0 11309700000.0 11309700000.0 11309700000.0 11309700000.0 11309700000.0 11309700000.0 11309700000.0 11309700000.0 11309700000.0 11309700000.0 11309700000.0 11309700000.0 11309700000.0 11309700000.0 11309700000.0 11309700000.0 11309700000.0 11309700000.0 11309700000.0 11309700000.0 11309700000.0 11309700000.0 11309700000.0 11309700000.0 11309700000.0 11309700000.0 11309700000.0 11309700000.0 11309700000.0 11309700000.0 11309700000.0 11309700000.0 11309700000.0 11309700000.0 11309700000.0 11309700000.0 11309700000.0 11309700000.0 11309700000.0 11309700000.0 11309700000.0 11309700000.0 11309700000.0 11309700000.0 11309700000.0 11309700000.0 11309700000.0 11309700000.0 11309700000.0 11309700000.0 11309700000.0 11309700000.0 11309700000.0 11309700000.0 11309700000.0 11309700000.0 11309700000.0 11309700000.0 11309700000.0 11309700000.0 11309700000.0 11309700000.0 11309700000.0 11309700000.0 11309700000.0 11309700000.0 11309700000.0 11309700000.0 11309700000.0 11309700000.0 11309700000.0 11309700000.0 11309700000.0 11309700000.0 11309700000.0 11309700000.0 11309700000.0 11309700000.0 11309700000.0 11309700000.0 11309700000.0 11309700000.0 11309700000.0 11309700000.0 11309700000.0 11309700000.0 11309700000.0 11309700000.0 11309700000.0 11309700000.0 11309700000.0 11309700000.0 11309700000.0 11309700000.0 11309700000.0 11309700000.0 11309700000.0 11309700000.0 11309700000.0 11309700000.0 11309700000.0 11309700000.0 11309700000.0 11309700000.0 11309700000.0 11309700000.0 11309700000.0 11309700000.0 11309700000.0 11309700000.0 11309700000.0 11309700000.0 11309700000.0 11309700000.0 11309700000.0 11309700000.0 11309700000.0 11309700000.0 11309700000.0 11309700000.0 11309700000.0 11309700000.0 11309700000.0 11309700000.0 11309700000.0 11309700000.0 11309700000.0 11309700000.0 11309700000.0 11309700000.0 11309700000.0 11309700000.0 11309700000.0 11309700000.0 11309700000.0 11309700000.0 11309700000.0 11309700000.0 11309700000.0 11309700000.0 11309700000.0 11309700000.0 11309700000.0 11309700000.0 11309700000.0 11309700000.0 11309700000.0 11309700000.0 11309700000.0 11309700000.0 11309700000.0 11309700000.0 11309700000.0 11309700000.0 11309700000.0 11309700000.0 11309700000.0 11309700000.0 11309700000.0 11309700000.0 11309700000.0 11309700000.0 11309700000.0 11309700000.0 11309700000.0 11309700000.0 11309700000.0 11309700000.0 11309700000.0 11309700000.0 11309700000.0 11309700000.0 11309700000.0 11309700000.0 11309700000.0 11309700000.0 11309700000.0 11309700000.0 11309700000.0 11309700000.0 11309700000.0 11309700000.0 11309700000.0 11309700000.0 11309700000.0 11309700000.0 11309700000.0 11309700000.0 11309700000.0 11309700000.0 11309700000.0 11309700000.0 11309700000.0 11309700000.0 11309700000.0 11309700000.0 11309700000.0 11309700000.0 11309700000.0 11309700000.0 11309700000.0 11309700000.0 11309700000.0 11309700000.0 11309700000.0 11309700000.0 11309700000.0 11309700000.0 11309700000.0 11309700000.0 11309700000.0 11309700000.0 11309700000.0 11309700000.0 11309700000.0 11309700000.0 11309700000.0 11309700000.0 11309700000.0 11309700000.0 11309700000.0 11309700000.0 11309700000.0 11309700000.0 11309700000.0 11309700000.0 11309700000.0 11309700000.0 11309700000.0 11309700000.0 11309700000.0 11309700000.0 11309700000.0 11309700000.0 11309700000.0 11309700000.0 11309700000.0 11309700000.0 11309700000.0 11309700000.0 11309700000.0 11309700000.0 11309700000.0 11309700000.0 11309700000.0 11309700000.0 11309700000.0 11309700000.0 11309700000.0 11309700000.0 11309700000.0 11309700000.0 11309700000.0 11309700000.0 11309700000.0 11309700000.0 11309700000.0 11309700000.0 11309700000.0 11309700000.0 11309700000.0 11309700000.0 11309700000.0 11309700000.0 11309700000.0 11309700000.0 11309700000.0 11309700000.0 11309700000.0 11309700000.0 11309700000.0 11309700000.0 11309700000.0 11309700000.0 11309700000.0 11309700000.0 11309700000.0 11309700000.0 11309700000.0 11309700000.0 11309700000.0 11309700000.0 11309700000.0 11309700000.0 11309700000.0 11309700000.0 11309700000.0 11309700000.0 11309700000.0 11309700000.0 11309700000.0 11309700000.0 11309700000.0 11309700000.0 11309700000.0 11309700000.0 11309700000.0 11309700000.0 11309700000.0 11309700000.0 11309700000.0 11309700000.0 11309700000.0 11309700000.0 11309700000.0 11309700000.0 11309700000.0 11309700000.0 11309700000.0 11309700000.0 11309700000.0 11309700000.0 11309700000.0 11309700000.0 11309700000.0 11309700000.0 11309700000.0 11309700000.0 11309700000.0 11309700000.0 11309700000.0 11309700000.0 11309700000.0 11309700000.0 11309700000.0 11309700000.0 11309700000.0 11309700000.0 11309700000.0 11309700000.0 11309700000.0 11309700000.0 11309700000.0 11309700000.0 11309700000.0 11309700000.0 11309700000.0 11309700000.0 11309700000.0 11309700000.0 11309700000.0 11309700000.0 11309700000.0 11309700000.0 11309700000.0 11309700000.0 11309700000.0 11309700000.0 11309700000.0 11309700000.0 11309700000.0 11309700000.0 11309700000.0 11309700000.0 11309700000.0 11309700000.0 11309700000.0 11309700000.0 11309700000.0 11309700000.0 11309700000.0 11309700000.0 11309700000.0 11309700000.0 11309700000.0 11309700000.0 11309700000.0 11309700000.0 11309700000.0 11309700000.0 11309700000.0 11309700000.0 11309700000.0 11309700000.0 11309700000.0 11309700000.0 11309700000.0 11309700000.0 11309700000.0 11309700000.0 11309700000.0 11309700000.0 11309700000.0 11309700000.0 11309700000.0 11309700000.0 11309700000.0 11309700000.0 11309700000.0 11309700000.0 11309700000.0 11309700000.0 11309700000.0 11309700000.0 11309700000.0 11309700000.0 11309700000.0 11309700000.0 11309700000.0 11309700000.0 11309700000.0 11309700000.0 11309700000.0 11309700000.0 11309700000.0 11309700000.0 11309700000.0 11309700000.0 11309700000.0 11309700000.0 11309700000.0 11309700000.0 11309700000.0 11309700000.0 11309700000.0 11309700000.0 11309700000.0 11309700000.0 11309700000.0 11309700000.0 11309700000.0 11309700000.0 11309700000.0 11309700000.0 11309700000.0 11309700000.0 11309700000.0 11309700000.0 11309700000.0 11309700000.0 11309700000.0 11309700000.0 11309700000.0 11309700000.0 11309700000.0 11309700000.0 11309700000.0 11309700000.0 11309700000.0 11309700000.0 11309700000.0 11309700000.0 11309700000.0 11309700000.0 11309700000.0 11309700000.0 11309700000.0 11309700000.0 11309700000.0 11309700000.0 11309700000.0 11309700000.0 11309700000.0 11309700000.0 11309700000.0 11309700000.0 11309700000.0 11309700000.0 11309700000.0 11309700000.0 11309700000.0 11309700000.0 11309700000.0 11309700000.0 11309700000.0 11309700000.0 11309700000.0 11309700000.0 11309700000.0 11309700000.0 11309700000.0 11309700000.0 11309700000.0 11309700000.0 11309700000.0 11309700000.0 11309700000.0 11309700000.0 11309700000.0 11309700000.0 11309700000.0 11309700000.0 11309700000.0 11309700000.0 11309700000.0 11309700000.0 11309700000.0 11309700000.0 11309700000.0 11309700000.0 11309700000.0 11309700000.0 11309700000.0 11309700000.0 11309700000.0 11309700000.0 11309700000.0 11309700000.0 11309700000.0 11309700000.0 11309700000.0 11309700000.0 11309700000.0 11309700000.0 11309700000.0 11309700000.0 11309700000.0 11309700000.0 11309700000.0 11309700000.0 11309700000.0 11309700000.0 11309700000.0 11309700000.0 11309700000.0 11309700000.0 11309700000.0 11309700000.0 11309700000.0 11309700000.0 11309700000.0 11309700000.0 11309700000.0 11309700000.0 11309700000.0 11309700000.0 11309700000.0 11309700000.0 11309700000.0 11309700000.0 11309700000.0 11309700000.0 11309700000.0 11309700000.0 11309700000.0 11309700000.0 11309700000.0 11309700000.0 11309700000.0 11309700000.0 11309700000.0 11309700000.0 11309700000.0 11309700000.0 11309700000.0 11309700000.0 11309700000.0 11309700000.0 11309700000.0 11309700000.0 11309700000.0 11309700000.0 11309700000.0 11309700000.0 11309700000.0 11309700000.0 11309700000.0 11309700000.0 11309700000.0 11309700000.0 11309700000.0 11309700000.0 11309700000.0 11309700000.0 11309700000.0 11309700000.0 11309700000.0 11309700000.0 11309700000.0 11309700000.0 11309700000.0 11309700000.0 11309700000.0 11309700000.0 11309700000.0 11309700000.0 11309700000.0 11309700000.0 11309700000.0 11309700000.0 11309700000.0 11309700000.0 11309700000.0 11309700000.0 11309700000.0 11309700000.0 11309700000.0 11309700000.0 11309700000.0 11309700000.0 11309700000.0 11309700000.0 11309700000.0 11309700000.0 11309700000.0 11309700000.0 11309700000.0 11309700000.0 11309700000.0 11309700000.0 11309700000.0 11309700000.0 11309700000.0 11309700000.0 11309700000.0 11309700000.0 11309700000.0 11309700000.0 11309700000.0 11309700000.0 11309700000.0 11309700000.0 11309700000.0 11309700000.0 11309700000.0 11309700000.0 11309700000.0 11309700000.0 11309700000.0 11309700000.0 11309700000.0 11309700000.0 11309700000.0 11309700000.0 11309700000.0 11309700000.0 11309700000.0 11309700000.0 11309700000.0 11309700000.0 11309700000.0 11309700000.0 11309700000.0 11309700000.0 11309700000.0 11309700000.0 11309700000.0 11309700000.0 11309700000.0 11309700000.0 11309700000.0 11309700000.0 11309700000.0 11309700000.0 11309700000.0 11309700000.0 11309700000.0 11309700000.0 11309700000.0 11309700000.0 11309700000.0 11309700000.0 11309700000.0 11309700000.0 11309700000.0 11309700000.0 11309700000.0 11309700000.0 11309700000.0 11309700000.0 11309700000.0 11309700000.0 11309700000.0 11309700000.0 11309700000.0 11309700000.0 11309700000.0 11309700000.0 11309700000.0 11309700000.0 11309700000.0 11309700000.0 11309700000.0 11309700000.0 11309700000.0 11309700000.0 11309700000.0 11309700000.0 11309700000.0 11309700000.0 11309700000.0 11309700000.0 11309700000.0 11309700000.0 11309700000.0 11309700000.0 11309700000.0 11309700000.0 11309700000.0 11309700000.0 11309700000.0 11309700000.0 11309700000.0 11309700000.0 11309700000.0 11309700000.0 11309700000.0 11309700000.0 11309700000.0 11309700000.0 11309700000.0 11309700000.0 11309700000.0 11309700000.0 11309700000.0 11309700000.0 11309700000.0 11309700000.0 11309700000.0 11309700000.0 11309700000.0 11309700000.0 11309700000.0 11309700000.0 11309700000.0 11309700000.0 11309700000.0 11309700000.0 11309700000.0 11309700000.0 11309700000.0 11309700000.0 11309700000.0 11309700000.0 11309700000.0 11309700000.0 11309700000.0 11309700000.0 11309700000.0 11309700000.0 11309700000.0 11309700000.0 11309700000.0 11309700000.0 11309700000.0 11309700000.0 11309700000.0 11309700000.0 11309700000.0 11309700000.0 11309700000.0 11309700000.0 11309700000.0 11309700000.0 11309700000.0 11309700000.0 11309700000.0 11309700000.0 11309700000.0 11309700000.0 11309700000.0 11309700000.0 11309700000.0 11309700000.0 11309700000.0 11309700000.0 11309700000.0 11309700000.0 11309700000.0 11309700000.0 11309700000.0 11309700000.0 11309700000.0 11309700000.0 11309700000.0 11309700000.0 11309700000.0 11309700000.0 11309700000.0 11309700000.0 11309700000.0 11309700000.0 11309700000.0 11309700000.0 11309700000.0 11309700000.0 11309700000.0 11309700000.0 11309700000.0 11309700000.0 11309700000.0 11309700000.0 11309700000.0 11309700000.0 11309700000.0 11309700000.0 11309700000.0 11309700000.0 11309700000.0 11309700000.0 11309700000.0 11309700000.0 11309700000.0 11309700000.0 11309700000.0 11309700000.0 11309700000.0 11309700000.0 11309700000.0 11309700000.0 11309700000.0 11309700000.0 11309700000.0 11309700000.0 11309700000.0 11309700000.0 11309700000.0 11309700000.0 11309700000.0 11309700000.0 11309700000.0 11309700000.0 11309700000.0 11309700000.0 11309700000.0 11309700000.0 11309700000.0 11309700000.0 11309700000.0 11309700000.0 11309700000.0 11309700000.0 11309700000.0 11309700000.0 11309700000.0 11309700000.0 11309700000.0 11309700000.0 11309700000.0 11309700000.0 11309700000.0 11309700000.0 11309700000.0 11309700000.0 11309700000.0 11309700000.0 11309700000.0 11309700000.0 11309700000.0 11309700000.0 11309700000.0 11309700000.0 11309700000.0 11309700000.0 11309700000.0 11309700000.0 11309700000.0 11309700000.0 11309700000.0 11309700000.0 11309700000.0 11309700000.0 11309700000.0 11309700000.0 11309700000.0 11309700000.0 11309700000.0 11309700000.0 11309700000.0 11309700000.0 11309700000.0 11309700000.0 11309700000.0 11309700000.0 11309700000.0 11309700000.0 11309700000.0 11309700000.0 11309700000.0 11309700000.0 11309700000.0 11309700000.0 11309700000.0 11309700000.0 11309700000.0 11309700000.0 11309700000.0 11309700000.0 11309700000.0 11309700000.0 11309700000.0 11309700000.0 11309700000.0 11309700000.0 11309700000.0 11309700000.0 11309700000.0 11309700000.0 11309700000.0 11309700000.0 11309700000.0 11309700000.0 11309700000.0 11309700000.0 11309700000.0 11309700000.0 11309700000.0 11309700000.0 11309700000.0 11309700000.0 11309700000.0 11309700000.0 11309700000.0 11309700000.0 11309700000.0 11309700000.0 11309700000.0 11309700000.0 11309700000.0 11309700000.0 11309700000.0 11309700000.0 11309700000.0 11309700000.0 11309700000.0 11309700000.0 11309700000.0 11309700000.0 11309700000.0 11309700000.0 11309700000.0 11309700000.0 11309700000.0 11309700000.0 11309700000.0 11309700000.0 11309700000.0 11309700000.0 11309700000.0 11309700000.0 11309700000.0 11309700000.0 11309700000.0 11309700000.0 11309700000.0 11309700000.0 11309700000.0 11309700000.0 11309700000.0 11309700000.0 11309700000.0 11309700000.0 11309700000.0 11309700000.0 11309700000.0 11309700000.0 11309700000.0 11309700000.0 11309700000.0 11309700000.0 11309700000.0 11309700000.0 11309700000.0 11309700000.0 11309700000.0 11309700000.0 11309700000.0 11309700000.0 11309700000.0 11309700000.0 11309700000.0 11309700000.0 11309700000.0 11309700000.0 11309700000.0 11309700000.0 11309700000.0 11309700000.0 11309700000.0 11309700000.0 11309700000.0 11309700000.0 11309700000.0 11309700000.0 11309700000.0 11309700000.0 11309700000.0 11309700000.0 11309700000.0 11309700000.0 11309700000.0 11309700000.0 11309700000.0 11309700000.0 11309700000.0 11309700000.0 11309700000.0 11309700000.0 11309700000.0 11309700000.0 11309700000.0 11309700000.0 11309700000.0 11309700000.0 11309700000.0 11309700000.0 11309700000.0 11309700000.0 11309700000.0 11309700000.0 11309700000.0 11309700000.0 11309700000.0 11309700000.0 11309700000.0 11309700000.0 11309700000.0 11309700000.0 11309700000.0 11309700000.0 11309700000.0 11309700000.0 11309700000.0 11309700000.0 11309700000.0 11309700000.0 11309700000.0 11309700000.0 11309700000.0 11309700000.0 11309700000.0 11309700000.0 11309700000.0 11309700000.0 11309700000.0 11309700000.0 11309700000.0 11309700000.0 11309700000.0 11309700000.0 11309700000.0 11309700000.0 11309700000.0 11309700000.0 11309700000.0 11309700000.0 11309700000.0 11309700000.0 11309700000.0 11309700000.0 11309700000.0 11309700000.0 11309700000.0 11309700000.0 11309700000.0 11309700000.0 11309700000.0 11309700000.0 11309700000.0 11309700000.0 11309700000.0 11309700000.0 11309700000.0 11309700000.0 11309700000.0 11309700000.0 11309700000.0 11309700000.0 11309700000.0 11309700000.0 11309700000.0 11309700000.0 11309700000.0 11309700000.0 11309700000.0 11309700000.0 11309700000.0 11309700000.0 11309700000.0 11309700000.0 11309700000.0 11309700000.0 11309700000.0 11309700000.0 11309700000.0 11309700000.0 11309700000.0 11309700000.0 11309700000.0 11309700000.0 11309700000.0 11309700000.0 11309700000.0 11309700000.0 11309700000.0 11309700000.0 11309700000.0 11309700000.0 11309700000.0 11309700000.0 11309700000.0 11309700000.0 11309700000.0 11309700000.0 11309700000.0 11309700000.0 11309700000.0 11309700000.0 11309700000.0 11309700000.0 11309700000.0 11309700000.0 11309700000.0 11309700000.0 11309700000.0 11309700000.0 11309700000.0 11309700000.0 11309700000.0 11309700000.0 11309700000.0 11309700000.0 11309700000.0 11309700000.0 11309700000.0 11309700000.0 11309700000.0 11309700000.0 11309700000.0 11309700000.0 11309700000.0 11309700000.0 11309700000.0 11309700000.0 11309700000.0 11309700000.0 11309700000.0 11309700000.0 11309700000.0 11309700000.0 11309700000.0 11309700000.0 11309700000.0 11309700000.0 11309700000.0 11309700000.0 11309700000.0 11309700000.0 11309700000.0 11309700000.0 11309700000.0 11309700000.0 11309700000.0 11309700000.0 11309700000.0 11309700000.0 11309700000.0 11309700000.0 11309700000.0 11309700000.0 11309700000.0 11309700000.0 11309700000.0 11309700000.0 11309700000.0 11309700000.0 11309700000.0 11309700000.0 11309700000.0 11309700000.0 11309700000.0 11309700000.0 11309700000.0 11309700000.0 11309700000.0 11309700000.0 11309700000.0 11309700000.0 11309700000.0 11309700000.0 11309700000.0 11309700000.0 11309700000.0 11309700000.0 11309700000.0 11309700000.0 11309700000.0 11309700000.0 11309700000.0 11309700000.0 11309700000.0 11309700000.0 11309700000.0 11309700000.0 11309700000.0 11309700000.0 11309700000.0 11309700000.0 11309700000.0 11309700000.0 11309700000.0 11309700000.0 11309700000.0 11309700000.0 11309700000.0 11309700000.0 11309700000.0 11309700000.0 11309700000.0 11309700000.0 11309700000.0 11309700000.0 11309700000.0 11309700000.0 11309700000.0 11309700000.0 11309700000.0 11309700000.0 11309700000.0 11309700000.0 11309700000.0 11309700000.0 11309700000.0 11309700000.0 11309700000.0 11309700000.0 11309700000.0 11309700000.0 11309700000.0 11309700000.0 11309700000.0 11309700000.0 11309700000.0 11309700000.0 11309700000.0 11309700000.0 11309700000.0 11309700000.0 11309700000.0 11309700000.0 11309700000.0 11309700000.0 11309700000.0 11309700000.0 11309700000.0 11309700000.0 11309700000.0 11309700000.0 11309700000.0 11309700000.0 11309700000.0 11309700000.0 11309700000.0 11309700000.0 11309700000.0 11309700000.0 11309700000.0 11309700000.0 11309700000.0 11309700000.0 11309700000.0 11309700000.0 11309700000.0 11309700000.0 11309700000.0 11309700000.0 11309700000.0 11309700000.0 11309700000.0 11309700000.0 11309700000.0 11309700000.0 11309700000.0 11309700000.0 11309700000.0 11309700000.0 11309700000.0 11309700000.0 11309700000.0 11309700000.0 11309700000.0 11309700000.0 11309700000.0 11309700000.0 11309700000.0 11309700000.0 11309700000.0 11309700000.0 11309700000.0 11309700000.0 11309700000.0 11309700000.0 11309700000.0 11309700000.0 11309700000.0 11309700000.0 11309700000.0 11309700000.0 11309700000.0 11309700000.0 11309700000.0 11309700000.0 11309700000.0 11309700000.0 11309700000.0 11309700000.0 11309700000.0 11309700000.0 11309700000.0 11309700000.0 11309700000.0 11309700000.0 11309700000.0 11309700000.0 11309700000.0 11309700000.0 11309700000.0 11309700000.0 11309700000.0 11309700000.0 11309700000.0 11309700000.0 11309700000.0 11309700000.0 11309700000.0 11309700000.0 11309700000.0 11309700000.0 11309700000.0 11309700000.0 11309700000.0 11309700000.0 11309700000.0 11309700000.0 11309700000.0 11309700000.0 11309700000.0 11309700000.0 11309700000.0 11309700000.0 11309700000.0 11309700000.0 11309700000.0 11309700000.0 11309700000.0 11309700000.0 11309700000.0 11309700000.0 11309700000.0 11309700000.0 11309700000.0 11309700000.0 11309700000.0 11309700000.0 11309700000.0 11309700000.0 11309700000.0 11309700000.0 11309700000.0 11309700000.0 11309700000.0 11309700000.0 11309700000.0 11309700000.0 11309700000.0 11309700000.0 11309700000.0 11309700000.0 11309700000.0 11309700000.0 11309700000.0 11309700000.0 11309700000.0 11309700000.0 11309700000.0 11309700000.0 11309700000.0 11309700000.0 11309700000.0 11309700000.0 11309700000.0 11309700000.0 11309700000.0 11309700000.0 11309700000.0 11309700000.0 11309700000.0 11309700000.0 11309700000.0 11309700000.0 11309700000.0 11309700000.0 11309700000.0 11309700000.0 11309700000.0 11309700000.0 11309700000.0 11309700000.0 11309700000.0 11309700000.0 11309700000.0 11309700000.0 11309700000.0 11309700000.0 11309700000.0 11309700000.0 11309700000.0 11309700000.0 11309700000.0 11309700000.0 11309700000.0 11309700000.0 11309700000.0 11309700000.0 11309700000.0 11309700000.0 11309700000.0 11309700000.0 11309700000.0 11309700000.0 11309700000.0 11309700000.0 11309700000.0 11309700000.0 11309700000.0 11309700000.0 11309700000.0 11309700000.0 11309700000.0 11309700000.0 11309700000.0 11309700000.0 11309700000.0 11309700000.0 11309700000.0 11309700000.0 11309700000.0 11309700000.0 11309700000.0 11309700000.0 11309700000.0 11309700000.0 11309700000.0 11309700000.0 11309700000.0 11309700000.0 11309700000.0 11309700000.0 11309700000.0 11309700000.0 11309700000.0 11309700000.0 11309700000.0 11309700000.0 11309700000.0 11309700000.0 11309700000.0 11309700000.0 11309700000.0 11309700000.0 11309700000.0 11309700000.0 11309700000.0 11309700000.0 11309700000.0 11309700000.0 11309700000.0 11309700000.0 11309700000.0 11309700000.0 11309700000.0 11309700000.0 11309700000.0 11309700000.0 11309700000.0 11309700000.0 11309700000.0 11309700000.0 11309700000.0 11309700000.0 11309700000.0 11309700000.0 11309700000.0 11309700000.0 11309700000.0 11309700000.0 11309700000.0 11309700000.0 11309700000.0 11309700000.0 11309700000.0 11309700000.0 11309700000.0 11309700000.0 11309700000.0 11309700000.0 11309700000.0 11309700000.0 11309700000.0 11309700000.0 11309700000.0 11309700000.0 11309700000.0 11309700000.0 11309700000.0 11309700000.0 11309700000.0 11309700000.0 11309700000.0 11309700000.0 11309700000.0 11309700000.0 11309700000.0 11309700000.0 11309700000.0 11309700000.0 11309700000.0 11309700000.0 11309700000.0 11309700000.0 11309700000.0 11309700000.0 11309700000.0 11309700000.0 11309700000.0 11309700000.0 11309700000.0 11309700000.0 11309700000.0 11309700000.0 11309700000.0 11309700000.0 11309700000.0 11309700000.0 11309700000.0 11309700000.0 11309700000.0 11309700000.0 11309700000.0 11309700000.0 11309700000.0 11309700000.0 11309700000.0 11309700000.0 11309700000.0 11309700000.0 11309700000.0 11309700000.0 11309700000.0 11309700000.0 11309700000.0 11309700000.0 11309700000.0 11309700000.0 11309700000.0 11309700000.0 11309700000.0 11309700000.0 11309700000.0 11309700000.0 11309700000.0 11309700000.0 11309700000.0 11309700000.0 11309700000.0 11309700000.0 11309700000.0 11309700000.0 11309700000.0 11309700000.0 11309700000.0 11309700000.0 11309700000.0 11309700000.0 11309700000.0 11309700000.0 11309700000.0 11309700000.0 11309700000.0 11309700000.0 11309700000.0 11309700000.0 11309700000.0 11309700000.0 11309700000.0 11309700000.0 11309700000.0 11309700000.0 11309700000.0 11309700000.0 11309700000.0 11309700000.0 11309700000.0 11309700000.0 11309700000.0 11309700000.0 11309700000.0 11309700000.0 11309700000.0 11309700000.0 11309700000.0 11309700000.0 11309700000.0 11309700000.0 11309700000.0 11309700000.0 11309700000.0 11309700000.0 11309700000.0 11309700000.0 11309700000.0 11309700000.0 11309700000.0 11309700000.0 11309700000.0 11309700000.0 11309700000.0 11309700000.0 11309700000.0 11309700000.0 11309700000.0 11309700000.0 11309700000.0 11309700000.0 11309700000.0 11309700000.0 11309700000.0 11309700000.0 11309700000.0 11309700000.0 11309700000.0 11309700000.0 11309700000.0 11309700000.0 11309700000.0 11309700000.0 11309700000.0 11309700000.0 11309700000.0 11309700000.0 11309700000.0 11309700000.0 11309700000.0 11309700000.0 11309700000.0 11309700000.0 11309700000.0 11309700000.0 11309700000.0 11309700000.0 11309700000.0 11309700000.0 11309700000.0 11309700000.0 11309700000.0 11309700000.0 11309700000.0 11309700000.0 11309700000.0 11309700000.0 11309700000.0 11309700000.0 11309700000.0 11309700000.0 11309700000.0 11309700000.0 11309700000.0 11309700000.0 11309700000.0 11309700000.0 11309700000.0 11309700000.0 11309700000.0 11309700000.0 11309700000.0 11309700000.0 11309700000.0 11309700000.0 11309700000.0 11309700000.0 11309700000.0 11309700000.0 11309700000.0 11309700000.0 11309700000.0 11309700000.0 11309700000.0 11309700000.0 11309700000.0 11309700000.0 11309700000.0 11309700000.0 11309700000.0 11309700000.0 11309700000.0 11309700000.0 11309700000.0 11309700000.0 11309700000.0 11309700000.0 11309700000.0 11309700000.0 11309700000.0 11309700000.0 11309700000.0 11309700000.0 11309700000.0 11309700000.0 11309700000.0 11309700000.0 11309700000.0 11309700000.0 11309700000.0 11309700000.0 11309700000.0 11309700000.0 11309700000.0 11309700000.0 11309700000.0 11309700000.0 11309700000.0 11309700000.0 11309700000.0 11309700000.0 11309700000.0 11309700000.0 11309700000.0 11309700000.0 11309700000.0 11309700000.0 11309700000.0 11309700000.0 11309700000.0 11309700000.0 11309700000.0 11309700000.0 11309700000.0 11309700000.0 11309700000.0 11309700000.0 11309700000.0 11309700000.0 11309700000.0 11309700000.0 11309700000.0 11309700000.0 11309700000.0 11309700000.0 11309700000.0 11309700000.0 11309700000.0 11309700000.0 11309700000.0 11309700000.0 11309700000.0 11309700000.0 11309700000.0 11309700000.0 11309700000.0 11309700000.0 11309700000.0 11309700000.0 11309700000.0 11309700000.0 11309700000.0 11309700000.0 11309700000.0 11309700000.0 11309700000.0 11309700000.0 11309700000.0 11309700000.0 11309700000.0 11309700000.0 11309700000.0 11309700000.0 11309700000.0 11309700000.0 11309700000.0 11309700000.0 11309700000.0 11309700000.0 11309700000.0 11309700000.0 11309700000.0 11309700000.0 11309700000.0 11309700000.0 11309700000.0 11309700000.0 11309700000.0 11309700000.0 11309700000.0 11309700000.0 11309700000.0 11309700000.0 11309700000.0 11309700000.0 11309700000.0 11309700000.0 11309700000.0 11309700000.0 11309700000.0 11309700000.0 11309700000.0 11309700000.0 11309700000.0 11309700000.0 11309700000.0 11309700000.0 11309700000.0 11309700000.0 11309700000.0 11309700000.0 11309700000.0 11309700000.0 11309700000.0 11309700000.0 11309700000.0 11309700000.0 11309700000.0 11309700000.0 11309700000.0 11309700000.0 11309700000.0 11309700000.0 11309700000.0 11309700000.0 11309700000.0 11309700000.0 11309700000.0 11309700000.0 11309700000.0 11309700000.0 11309700000.0 11309700000.0 11309700000.0 11309700000.0 11309700000.0 11309700000.0 11309700000.0 11309700000.0 11309700000.0 11309700000.0 11309700000.0 11309700000.0 11309700000.0 11309700000.0 11309700000.0 11309700000.0 11309700000.0 11309700000.0 11309700000.0 11309700000.0 11309700000.0 11309700000.0 11309700000.0 11309700000.0 11309700000.0 11309700000.0 11309700000.0 11309700000.0 11309700000.0 11309700000.0 11309700000.0 11309700000.0 11309700000.0 11309700000.0 11309700000.0 11309700000.0 11309700000.0 11309700000.0 11309700000.0 11309700000.0 11309700000.0 11309700000.0 11309700000.0 11309700000.0 11309700000.0 11309700000.0 11309700000.0 11309700000.0 11309700000.0 11309700000.0 11309700000.0 11309700000.0 11309700000.0 11309700000.0 11309700000.0 11309700000.0 11309700000.0 11309700000.0 11309700000.0 11309700000.0 11309700000.0 11309700000.0 11309700000.0 11309700000.0 11309700000.0 11309700000.0 11309700000.0 11309700000.0 11309700000.0 11309700000.0 11309700000.0 11309700000.0 11309700000.0 11309700000.0 11309700000.0 11309700000.0 11309700000.0 11309700000.0 11309700000.0 11309700000.0 11309700000.0 11309700000.0 11309700000.0 11309700000.0 11309700000.0 11309700000.0 11309700000.0 11309700000.0 11309700000.0 11309700000.0 11309700000.0 11309700000.0 11309700000.0 11309700000.0 11309700000.0 11309700000.0 11309700000.0 11309700000.0 11309700000.0 11309700000.0 11309700000.0 11309700000.0 11309700000.0 11309700000.0 11309700000.0 11309700000.0 11309700000.0 11309700000.0 11309700000.0 11309700000.0 11309700000.0 11309700000.0 11309700000.0 11309700000.0 11309700000.0 11309700000.0 11309700000.0 11309700000.0 11309700000.0 11309700000.0 11309700000.0 11309700000.0 11309700000.0 11309700000.0 11309700000.0 11309700000.0 11309700000.0 11309700000.0 11309700000.0 11309700000.0 11309700000.0 11309700000.0 11309700000.0 11309700000.0 11309700000.0 11309700000.0 11309700000.0 11309700000.0 11309700000.0 11309700000.0 11309700000.0 11309700000.0 11309700000.0 11309700000.0 11309700000.0 11309700000.0 11309700000.0 11309700000.0 11309700000.0 11309700000.0 11309700000.0 11309700000.0 11309700000.0 11309700000.0 11309700000.0 11309700000.0 11309700000.0 11309700000.0 11309700000.0 11309700000.0 11309700000.0 11309700000.0 11309700000.0 11309700000.0 11309700000.0 11309700000.0 11309700000.0 11309700000.0 11309700000.0 11309700000.0 11309700000.0 11309700000.0 11309700000.0 11309700000.0 11309700000.0 11309700000.0 11309700000.0 11309700000.0 11309700000.0 11309700000.0 11309700000.0 11309700000.0 11309700000.0 11309700000.0 11309700000.0 11309700000.0 11309700000.0 11309700000.0 11309700000.0 11309700000.0 11309700000.0 11309700000.0 11309700000.0 11309700000.0 11309700000.0 11309700000.0 11309700000.0 11309700000.0 11309700000.0 11309700000.0 11309700000.0 11309700000.0 11309700000.0 11309700000.0 11309700000.0 11309700000.0 11309700000.0 11309700000.0 11309700000.0 11309700000.0 11309700000.0 11309700000.0 11309700000.0 11309700000.0 11309700000.0 11309700000.0 11309700000.0 11309700000.0 11309700000.0 11309700000.0 11309700000.0 11309700000.0 11309700000.0 11309700000.0 11309700000.0 11309700000.0 11309700000.0 11309700000.0 11309700000.0 11309700000.0 11309700000.0 11309700000.0 11309700000.0 11309700000.0 11309700000.0 11309700000.0 11309700000.0 11309700000.0 11309700000.0 11309700000.0 11309700000.0 11309700000.0 11309700000.0 11309700000.0 11309700000.0 11309700000.0 11309700000.0 11309700000.0 11309700000.0 11309700000.0 11309700000.0 11309700000.0 11309700000.0 11309700000.0 11309700000.0 11309700000.0 11309700000.0 11309700000.0 11309700000.0 11309700000.0 11309700000.0 11309700000.0 11309700000.0 11309700000.0 11309700000.0 11309700000.0 11309700000.0 11309700000.0 11309700000.0 11309700000.0 11309700000.0 11309700000.0 11309700000.0 11309700000.0 11309700000.0 11309700000.0 11309700000.0 11309700000.0 11309700000.0 11309700000.0 11309700000.0 11309700000.0 11309700000.0 11309700000.0 11309700000.0 11309700000.0 11309700000.0 11309700000.0 11309700000.0 11309700000.0 11309700000.0 11309700000.0 11309700000.0 11309700000.0 11309700000.0 11309700000.0 11309700000.0 11309700000.0 11309700000.0 11309700000.0 11309700000.0 11309700000.0 11309700000.0 11309700000.0 11309700000.0 11309700000.0 11309700000.0 11309700000.0 11309700000.0 11309700000.0 11309700000.0 11309700000.0 11309700000.0 11309700000.0 11309700000.0 11309700000.0 11309700000.0 11309700000.0 11309700000.0 11309700000.0 11309700000.0 11309700000.0 11309700000.0 11309700000.0 11309700000.0 11309700000.0 11309700000.0 11309700000.0 11309700000.0 11309700000.0 11309700000.0 11309700000.0 11309700000.0 11309700000.0 11309700000.0 11309700000.0 11309700000.0 11309700000.0 11309700000.0 11309700000.0 11309700000.0 11309700000.0 11309700000.0 11309700000.0 11309700000.0 11309700000.0 11309700000.0 11309700000.0 11309700000.0 11309700000.0 11309700000.0 11309700000.0 11309700000.0 11309700000.0 11309700000.0 11309700000.0 11309700000.0 11309700000.0 11309700000.0 11309700000.0 11309700000.0 11309700000.0 11309700000.0 11309700000.0 11309700000.0 11309700000.0 11309700000.0 11309700000.0 11309700000.0 11309700000.0 11309700000.0 11309700000.0 11309700000.0 11309700000.0 11309700000.0 11309700000.0 11309700000.0 11309700000.0 11309700000.0 11309700000.0 11309700000.0 11309700000.0 11309700000.0 11309700000.0 11309700000.0 11309700000.0 11309700000.0 11309700000.0 11309700000.0 11309700000.0 11309700000.0 11309700000.0 11309700000.0 11309700000.0 11309700000.0 11309700000.0 11309700000.0 11309700000.0 11309700000.0 11309700000.0 11309700000.0 11309700000.0 11309700000.0 11309700000.0 11309700000.0 11309700000.0 11309700000.0 11309700000.0 11309700000.0 11309700000.0 11309700000.0 11309700000.0 11309700000.0 11309700000.0 11309700000.0 11309700000.0 11309700000.0 11309700000.0 11309700000.0 11309700000.0 11309700000.0 11309700000.0 11309700000.0 11309700000.0 11309700000.0 11309700000.0 11309700000.0 11309700000.0 11309700000.0 11309700000.0 11309700000.0 11309700000.0 11309700000.0 11309700000.0 11309700000.0 11309700000.0 11309700000.0 11309700000.0 11309700000.0 11309700000.0 11309700000.0 11309700000.0 11309700000.0 11309700000.0 11309700000.0 11309700000.0 11309700000.0 11309700000.0 11309700000.0 11309700000.0 11309700000.0 11309700000.0 11309700000.0 11309700000.0 11309700000.0 11309700000.0 11309700000.0 11309700000.0 11309700000.0 11309700000.0 11309700000.0 11309700000.0 11309700000.0 11309700000.0 11309700000.0 11309700000.0 11309700000.0 11309700000.0 11309700000.0 11309700000.0 11309700000.0 11309700000.0 11309700000.0 11309700000.0 11309700000.0 11309700000.0 11309700000.0 11309700000.0 11309700000.0 11309700000.0 11309700000.0 11309700000.0 11309700000.0 11309700000.0 11309700000.0 11309700000.0 11309700000.0 11309700000.0 11309700000.0 11309700000.0 11309700000.0 11309700000.0 11309700000.0 11309700000.0 11309700000.0 11309700000.0 11309700000.0 11309700000.0 11309700000.0 11309700000.0 11309700000.0 11309700000.0 11309700000.0 11309700000.0 11309700000.0 11309700000.0 11309700000.0 11309700000.0 11309700000.0 11309700000.0 11309700000.0 11309700000.0 11309700000.0 11309700000.0 11309700000.0 11309700000.0 11309700000.0 11309700000.0 11309700000.0 11309700000.0 11309700000.0 11309700000.0 11309700000.0 11309700000.0 11309700000.0 11309700000.0 11309700000.0 11309700000.0 11309700000.0 11309700000.0 11309700000.0 11309700000.0 11309700000.0 11309700000.0 11309700000.0 11309700000.0 11309700000.0 11309700000.0 11309700000.0 11309700000.0 11309700000.0 11309700000.0 11309700000.0 11309700000.0 11309700000.0 11309700000.0 11309700000.0 11309700000.0 11309700000.0 11309700000.0 11309700000.0 11309700000.0 11309700000.0 11309700000.0 11309700000.0 11309700000.0 11309700000.0 11309700000.0 11309700000.0 11309700000.0 11309700000.0 11309700000.0 11309700000.0 11309700000.0 11309700000.0 11309700000.0 11309700000.0 11309700000.0 11309700000.0 11309700000.0 11309700000.0 11309700000.0 11309700000.0 11309700000.0 11309700000.0 11309700000.0 11309700000.0 11309700000.0 11309700000.0 11309700000.0 11309700000.0 11309700000.0 11309700000.0 11309700000.0 11309700000.0 11309700000.0 11309700000.0 11309700000.0 11309700000.0 11309700000.0 11309700000.0 11309700000.0 11309700000.0 11309700000.0 11309700000.0 11309700000.0 11309700000.0 11309700000.0 11309700000.0 11309700000.0 11309700000.0 11309700000.0 11309700000.0 11309700000.0 11309700000.0 11309700000.0 11309700000.0 11309700000.0 11309700000.0 11309700000.0 11309700000.0 11309700000.0 11309700000.0 11309700000.0 11309700000.0 11309700000.0 11309700000.0 11309700000.0 11309700000.0 11309700000.0 11309700000.0 11309700000.0 11309700000.0 11309700000.0 11309700000.0 11309700000.0 11309700000.0 11309700000.0 11309700000.0 11309700000.0 11309700000.0 11309700000.0 11309700000.0 11309700000.0 11309700000.0 11309700000.0 11309700000.0 11309700000.0 11309700000.0 11309700000.0 11309700000.0 11309700000.0 11309700000.0 11309700000.0 11309700000.0 11309700000.0 11309700000.0 11309700000.0 11309700000.0 11309700000.0 11309700000.0 11309700000.0 11309700000.0 11309700000.0 11309700000.0 11309700000.0 11309700000.0 11309700000.0 11309700000.0 11309700000.0 11309700000.0 11309700000.0 11309700000.0 11309700000.0 11309700000.0 11309700000.0 11309700000.0 11309700000.0 11309700000.0 11309700000.0 11309700000.0 11309700000.0 11309700000.0 11309700000.0 11309700000.0 11309700000.0 11309700000.0 11309700000.0 11309700000.0 11309700000.0 11309700000.0 11309700000.0 11309700000.0 11309700000.0 11309700000.0 11309700000.0 11309700000.0 11309700000.0 11309700000.0 11309700000.0 11309700000.0 11309700000.0 11309700000.0 11309700000.0 11309700000.0 11309700000.0 11309700000.0 11309700000.0 11309700000.0 11309700000.0 11309700000.0 11309700000.0 11309700000.0 11309700000.0 11309700000.0 11309700000.0 11309700000.0 11309700000.0 11309700000.0 11309700000.0 11309700000.0 11309700000.0 11309700000.0 11309700000.0 11309700000.0 11309700000.0 11309700000.0 11309700000.0 11309700000.0 11309700000.0 11309700000.0 11309700000.0 11309700000.0 11309700000.0 11309700000.0 11309700000.0 11309700000.0 11309700000.0 11309700000.0 11309700000.0 11309700000.0 11309700000.0 11309700000.0 11309700000.0 11309700000.0 11309700000.0 11309700000.0 11309700000.0 11309700000.0 11309700000.0 11309700000.0 11309700000.0 11309700000.0 11309700000.0 11309700000.0 11309700000.0 11309700000.0 11309700000.0 11309700000.0 11309700000.0 11309700000.0 11309700000.0 11309700000.0 11309700000.0 11309700000.0 11309700000.0 11309700000.0 11309700000.0 11309700000.0 11309700000.0 11309700000.0 11309700000.0 11309700000.0 11309700000.0 11309700000.0 11309700000.0 11309700000.0 11309700000.0 11309700000.0 11309700000.0 11309700000.0 11309700000.0 11309700000.0 11309700000.0 11309700000.0 11309700000.0 11309700000.0 11309700000.0 11309700000.0 11309700000.0 11309700000.0 11309700000.0 11309700000.0 11309700000.0 11309700000.0 11309700000.0 11309700000.0 11309700000.0 11309700000.0 11309700000.0 11309700000.0 11309700000.0 11309700000.0 11309700000.0 11309700000.0 11309700000.0 11309700000.0 11309700000.0 11309700000.0 11309700000.0 11309700000.0 11309700000.0 11309700000.0 11309700000.0 11309700000.0 11309700000.0 11309700000.0 11309700000.0 11309700000.0 11309700000.0 11309700000.0 11309700000.0 11309700000.0 11309700000.0 11309700000.0 11309700000.0 11309700000.0 11309700000.0 11309700000.0 11309700000.0 11309700000.0 11309700000.0 11309700000.0 11309700000.0 11309700000.0 11309700000.0 11309700000.0 11309700000.0 11309700000.0 11309700000.0 11309700000.0 11309700000.0 11309700000.0 11309700000.0 11309700000.0 11309700000.0 11309700000.0 11309700000.0 11309700000.0 11309700000.0 11309700000.0 11309700000.0 11309700000.0 11309700000.0 11309700000.0 11309700000.0 11309700000.0 11309700000.0 11309700000.0 11309700000.0 11309700000.0 11309700000.0 11309700000.0 11309700000.0 11309700000.0 11309700000.0 11309700000.0 11309700000.0 11309700000.0 11309700000.0 11309700000.0 11309700000.0 11309700000.0 11309700000.0 11309700000.0 11309700000.0 11309700000.0 11309700000.0 11309700000.0 11309700000.0 11309700000.0 11309700000.0 11309700000.0 11309700000.0 11309700000.0 11309700000.0 11309700000.0 11309700000.0 11309700000.0 11309700000.0 11309700000.0 11309700000.0 11309700000.0 11309700000.0 11309700000.0 11309700000.0 11309700000.0 11309700000.0 11309700000.0 11309700000.0 11309700000.0 11309700000.0 11309700000.0 11309700000.0 11309700000.0 11309700000.0 11309700000.0 11309700000.0 11309700000.0 11309700000.0 11309700000.0 11309700000.0 11309700000.0 11309700000.0 11309700000.0 11309700000.0 11309700000.0 11309700000.0 11309700000.0 11309700000.0 11309700000.0 11309700000.0 11309700000.0 11309700000.0 11309700000.0 11309700000.0 11309700000.0 11309700000.0 11309700000.0 11309700000.0 11309700000.0 11309700000.0 11309700000.0 11309700000.0 11309700000.0 11309700000.0 11309700000.0 11309700000.0 11309700000.0 11309700000.0 11309700000.0 11309700000.0 11309700000.0 11309700000.0 11309700000.0 11309700000.0 11309700000.0 11309700000.0 11309700000.0 11309700000.0 11309700000.0 11309700000.0 11309700000.0 11309700000.0 11309700000.0 11309700000.0 11309700000.0 11309700000.0 11309700000.0 11309700000.0 11309700000.0 11309700000.0 11309700000.0 11309700000.0 11309700000.0 11309700000.0 11309700000.0 11309700000.0 11309700000.0 11309700000.0 11309700000.0 11309700000.0 11309700000.0 11309700000.0 11309700000.0 11309700000.0 11309700000.0 11309700000.0 11309700000.0 11309700000.0 11309700000.0 11309700000.0 11309700000.0 11309700000.0 11309700000.0 11309700000.0 11309700000.0 11309700000.0 11309700000.0 11309700000.0 11309700000.0 11309700000.0 11309700000.0 11309700000.0 11309700000.0 11309700000.0 11309700000.0 11309700000.0 11309700000.0 11309700000.0 11309700000.0 11309700000.0 11309700000.0 11309700000.0 11309700000.0 11309700000.0 11309700000.0 11309700000.0 11309700000.0 11309700000.0 11309700000.0 11309700000.0 11309700000.0 11309700000.0 11309700000.0 11309700000.0 11309700000.0 11309700000.0 11309700000.0 11309700000.0 11309700000.0 11309700000.0 11309700000.0 11309700000.0 11309700000.0 11309700000.0 11309700000.0 11309700000.0 11309700000.0 11309700000.0 11309700000.0 11309700000.0 11309700000.0 11309700000.0 11309700000.0 11309700000.0 11309700000.0 11309700000.0 11309700000.0 11309700000.0 11309700000.0 11309700000.0 11309700000.0 11309700000.0 11309700000.0 11309700000.0 11309700000.0 11309700000.0 11309700000.0 11309700000.0 11309700000.0 11309700000.0 11309700000.0 11309700000.0 11309700000.0 11309700000.0 11309700000.0 11309700000.0 11309700000.0 11309700000.0 11309700000.0 11309700000.0 11309700000.0 11309700000.0 11309700000.0 11309700000.0 11309700000.0 11309700000.0 11309700000.0 11309700000.0 11309700000.0 11309700000.0 11309700000.0 11309700000.0 11309700000.0 11309700000.0 11309700000.0 11309700000.0 11309700000.0 11309700000.0 11309700000.0 11309700000.0 11309700000.0 11309700000.0 11309700000.0 11309700000.0 11309700000.0 11309700000.0 11309700000.0 11309700000.0 11309700000.0 11309700000.0 11309700000.0 11309700000.0 11309700000.0 11309700000.0 11309700000.0 11309700000.0 11309700000.0 11309700000.0 11309700000.0 11309700000.0 11309700000.0 11309700000.0 11309700000.0 11309700000.0 11309700000.0 11309700000.0 11309700000.0 11309700000.0 11309700000.0 11309700000.0 11309700000.0 11309700000.0 11309700000.0 11309700000.0 11309700000.0 11309700000.0 11309700000.0 11309700000.0 11309700000.0 11309700000.0 11309700000.0 11309700000.0 11309700000.0 11309700000.0 11309700000.0 11309700000.0 11309700000.0 11309700000.0 11309700000.0 11309700000.0 11309700000.0 11309700000.0 11309700000.0 11309700000.0 11309700000.0 11309700000.0 11309700000.0 11309700000.0 11309700000.0 11309700000.0 11309700000.0 11309700000.0 11309700000.0 11309700000.0 11309700000.0 11309700000.0 11309700000.0 11309700000.0 11309700000.0 11309700000.0 11309700000.0 11309700000.0 11309700000.0 11309700000.0 11309700000.0 11309700000.0 11309700000.0 11309700000.0 11309700000.0 11309700000.0 11309700000.0 11309700000.0 11309700000.0 11309700000.0 11309700000.0 11309700000.0 11309700000.0 11309700000.0 11309700000.0 11309700000.0 11309700000.0 11309700000.0 11309700000.0 11309700000.0 11309700000.0 11309700000.0 11309700000.0 11309700000.0 11309700000.0 11309700000.0 11309700000.0 11309700000.0 11309700000.0 11309700000.0 11309700000.0 11309700000.0 11309700000.0 11309700000.0 11309700000.0 11309700000.0 11309700000.0 11309700000.0 11309700000.0 11309700000.0 11309700000.0 11309700000.0 11309700000.0 11309700000.0 11309700000.0 11309700000.0 11309700000.0 11309700000.0 11309700000.0 11309700000.0 11309700000.0 11309700000.0 
SCALARS Velocity float 1
LOOKUP_TABLE default
0.0191633 0.580298 1.12545 0.889961 0.904356 0.9006 0.899488 0.898121 0.895858 0.894796 0.8948 0.894872 0.894912 0.894466 0.894308 0.894368 0.894334 0.894224 0.894125 0.894067 0.894035 0.894011 0.893986 0.893959 0.893932 0.893909 0.89389 0.893873 0.89386 0.89385 0.893843 0.893839 0.893836 0.893834 0.893833 0.893833 0.893832 0.893832 0.893832 0.893833 0.893833 0.893834 0.893836 0.893839 0.893843 0.89385 0.89386 0.893873 0.89389 0.893909 0.893932 0.893959 0.893986 0.894011 0.894035 0.894067 0.894125 0.894224 0.894334 0.894368 0.894308 0.894466 0.894912 0.894872 0.8948 0.894796 0.895858 0.898121 0.899488 0.9006 0.904356 0.889961 1.12545 0.580298 0.0191633 0.41854 0.468856 1.06688 0.880215 0.898912 0.897928 0.898237 0.899645 0.900887 0.90088 0.899665 0.89833 0.896861 0.896011 0.895402 0.894804 0.894388 0.894134 0.893985 0.893898 0.893854 0.893838 0.893834 0.893833 0.893834 0.893833 0.893832 0.893832 0.893832 0.893832 0.893832 0.893832 0.893832 0.893832 0.893832 0.893832 0.893832 0.893832 0.893832 0.893832 0.893832 0.893832 0.893832 0.893832 0.893832 0.893832 0.893832 0.893832 0.893832 0.893833 0.893834 0.893833 0.893834 0.893838 0.893854 0.893898 0.893985 0.894134 0.894388 0.894804 0.895402 0.896011 0.896861 0.89833 0.899665 0.90088 0.900887 0.899645 0.898237 0.897928 0.898912 0.880215 1.06688 0.468856 0.41854 0.693332 0.699705 0.89839 0.894158 0.895024 0.894865 0.89486 0.894988 0.894571 0.893922 0.893574 0.893352 0.893387 0.893635 0.893699 0.893748 0.893784 0.893811 0.893828 0.893838 0.89384 0.893839 0.893837 0.893836 0.893835 0.893833 0.893832 0.893832 0.893832 0.893832 0.893832 0.893832 0.893832 0.893832 0.893832 0.893832 0.893832 0.893832 0.893832 0.893832 0.893832 0.893832 0.893832 0.893832 0.893832 0.893832 0.893832 0.893832 0.893832 0.893833 0.893835 0.893836 0.893837 0.893839 0.89384 0.893838 0.893828 0.893811 0.893784 0.893748 0.893699 0.893635 0.893387 0.893352 0.893574 0.893922 0.894571 0.894988 0.89486 0.894865 0.895024 0.894158 0.89839 0.699705 0.693332 0.598794 0.551954 0.896386 0.894457 0.89468 0.894567 0.894602 0.894376 0.893896 0.893577 0.893416 0.893395 0.893597 0.893695 0.893741 0.893775 0.8938 0.893818 0.893829 0.893833 0.893834 0.893834 0.893833 0.893833 0.893832 0.893832 0.893831 0.893832 0.893832 0.893832 0.893832 0.893832 0.893832 0.893832 0.893832 0.893832 0.893832 0.893832 0.893832 0.893832 0.893832 0.893832 0.893832 0.893832 0.893832 0.893832 0.893832 0.893832 0.893831 0.893832 0.893832 0.893833 0.893833 0.893834 0.893834 0.893833 0.893829 0.893818 0.8938 0.893775 0.893741 0.893695 0.893597 0.893395 0.893416 0.893577 0.893896 0.894376 0.894602 0.894567 0.89468 0.894457 0.896386 0.551954 0.598794 0.688824 0.617276 0.896073 0.894329 0.894463 0.894374 0.894219 0.893863 0.893569 0.893437 0.893409 0.893557 0.893685 0.893738 0.893773 0.893799 0.893818 0.893829 0.893833 0.893833 0.893833 0.893833 0.893833 0.893832 0.893832 0.893831 0.893832 0.893832 0.893832 0.893832 0.893832 0.893832 0.893832 0.893832 0.893832 0.893832 0.893832 0.893832 0.893832 0.893832 0.893832 0.893832 0.893832 0.893832 0.893832 0.893832 0.893832 0.893832 0.893832 0.893831 0.893832 0.893832 0.893833 0.893833 0.893833 0.893833 0.893833 0.893829 0.893818 0.893799 0.893773 0.893738 0.893685 0.893557 0.893409 0.893437 0.893569 0.893863 0.894219 0.894374 0.894463 0.894329 0.896073 0.617276 0.688824 0.820234 0.686377 0.895406 0.894137 0.894201 0.894057 0.893806 0.893556 0.893437 0.893423 0.893528 0.893667 0.893734 0.893771 0.893798 0.893817 0.893828 0.893832 0.893833 0.893833 0.893833 0.893832 0.893832 0.893831 0.893831 0.893831 0.893832 0.893832 0.893832 0.893832 0.893832 0.893832 0.893832 0.893832 0.893832 0.893832 0.893832 0.893832 0.893832 0.893832 0.893832 0.893832 0.893832 0.893832 0.893832 0.893832 0.893832 0.893832 0.893832 0.893831 0.893831 0.893831 0.893832 0.893832 0.893833 0.893833 0.893833 0.893832 0.893828 0.893817 0.893798 0.893771 0.893734 0.893667 0.893528 0.893423 0.893437 0.893556 0.893806 0.894057 0.894201 0.894137 0.895406 0.686377 0.820234 0.886569 0.731852 0.894724 0.89394 0.893883 0.893729 0.893533 0.893427 0.89343 0.893512 0.893645 0.893727 0.893769 0.893797 0.893816 0.893827 0.893831 0.893832 0.893832 0.893832 0.893832 0.893832 0.893831 0.893831 0.893831 0.893832 0.893832 0.893832 0.893832 0.893832 0.893832 0.893832 0.893832 0.893832 0.893832 0.893832 0.893832 0.893832 0.893832 0.893832 0.893832 0.893832 0.893832 0.893832 0.893832 0.893832 0.893832 0.893832 0.893832 0.893832 0.893831 0.893831 0.893831 0.893832 0.893832 0.893832 0.893832 0.893832 0.893831 0.893827 0.893816 0.893797 0.893769 0.893727 0.893645 0.893512 0.89343 0.893427 0.893533 0.893729 0.893883 0.89394 0.894724 0.731852 0.886569 0.899277 0.770904 0.894077 0.893762 0.893596 0.893495 0.893409 0.893425 0.893503 0.893623 0.893717 0.893765 0.893795 0.893815 0.893826 0.893831 0.893832 0.893832 0.893832 0.893832 0.893831 0.893831 0.893831 0.893831 0.893832 0.893832 0.893832 0.893832 0.893832 0.893832 0.893832 0.893832 0.893832 0.893832 0.893832 0.893832 0.893832 0.893832 0.893832 0.893832 0.893832 0.893832 0.893832 0.893832 0.893832 0.893832 0.893832 0.893832 0.893832 0.893832 0.893832 0.893831 0.893831 0.893831 0.893831 0.893832 0.893832 0.893832 0.893832 0.893831 0.893826 0.893815 0.893795 0.893765 0.893717 0.893623 0.893503 0.893425 0.893409 0.893495 0.893596 0.893762 0.894077 0.770904 0.899277 0.894992 0.809775 0.893511 0.893616 0.893399 0.893385 0.89341 0.893495 0.893603 0.893704 0.893761 0.893793 0.893814 0.893825 0.89383 0.893831 0.893831 0.893831 0.893831 0.893831 0.893831 0.893831 0.893831 0.893832 0.893832 0.893832 0.893832 0.893832 0.893832 0.893832 0.893832 0.893832 0.893832 0.893832 0.893832 0.893832 0.893832 0.893832 0.893832 0.893832 0.893832 0.893832 0.893832 0.893832 0.893832 0.893832 0.893832 0.893832 0.893832 0.893832 0.893832 0.893832 0.893831 0.893831 0.893831 0.893831 0.893831 0.893831 0.893831 0.893831 0.89383 0.893825 0.893814 0.893793 0.893761 0.893704 0.893603 0.893495 0.89341 0.893385 0.893399 0.893616 0.893511 0.809775 0.894992 0.888476 0.838577 0.893075 0.89351 0.893313 0.893389 0.89348 0.893587 0.893688 0.893755 0.893791 0.893812 0.893824 0.893829 0.89383 0.893831 0.893831 0.893831 0.893831 0.893831 0.893831 0.893831 0.893832 0.893832 0.893832 0.893832 0.893832 0.893832 0.893832 0.893832 0.893832 0.893832 0.893832 0.893832 0.893832 0.893832 0.893832 0.893832 0.893832 0.893832 0.893832 0.893832 0.893832 0.893832 0.893832 0.893832 0.893832 0.893832 0.893832 0.893832 0.893832 0.893832 0.893832 0.893831 0.893831 0.893831 0.893831 0.893831 0.893831 0.893831 0.89383 0.893829 0.893824 0.893812 0.893791 0.893755 0.893688 0.893587 0.89348 0.893389 0.893313 0.89351 0.893075 0.838577 0.888476 0.882941 0.855839 0.892764 0.893459 0.893331 0.89346 0.89357 0.893671 0.893745 0.893787 0.89381 0.893822 0.893828 0.89383 0.89383 0.89383 0.893831 0.893831 0.893831 0.893831 0.893831 0.893832 0.893832 0.893832 0.893832 0.893832 0.893832 0.893832 0.893832 0.893832 0.893832 0.893832 0.893832 0.893832 0.893832 0.893832 0.893832 0.893832 0.893832 0.893832 0.893832 0.893832 0.893832 0.893832 0.893832 0.893832 0.893832 0.893832 0.893832 0.893832 0.893832 0.893832 0.893832 0.893832 0.893831 0.893831 0.893831 0.893831 0.893831 0.89383 0.89383 0.89383 0.893828 0.893822 0.89381 0.893787 0.893745 0.893671 0.89357 0.89346 0.893331 0.893459 0.892764 0.855839 0.882941 0.87885 0.866331 0.892568 0.893468 0.893414 0.893551 0.893654 0.893734 0.893782 0.893808 0.89382 0.893826 0.893829 0.893829 0.89383 0.89383 0.893831 0.893831 0.893831 0.893831 0.893832 0.893832 0.893832 0.893832 0.893832 0.893832 0.893832 0.893832 0.893832 0.893832 0.893832 0.893832 0.893832 0.893832 0.893832 0.893832 0.893832 0.893832 0.893832 0.893832 0.893832 0.893832 0.893832 0.893832 0.893832 0.893832 0.893832 0.893832 0.893832 0.893832 0.893832 0.893832 0.893832 0.893832 0.893832 0.893831 0.893831 0.893831 0.893831 0.89383 0.89383 0.893829 0.893829 0.893826 0.89382 0.893808 0.893782 0.893734 0.893654 0.893551 0.893414 0.893468 0.892568 0.866331 0.87885 0.876207 0.873741 0.892513 0.89352 0.893513 0.893636 0.89372 0.893775 0.893804 0.893818 0.893825 0.893827 0.893829 0.893829 0.89383 0.89383 0.893831 0.893831 0.893831 0.893832 0.893832 0.893832 0.893832 0.893832 0.893832 0.893832 0.893832 0.893832 0.893832 0.893832 0.893832 0.893832 0.893832 0.893832 0.893832 0.893832 0.893832 0.893832 0.893832 0.893832 0.893832 0.893832 0.893832 0.893832 0.893832 0.893832 0.893832 0.893832 0.893832 0.893832 0.893832 0.893832 0.893832 0.893832 0.893832 0.893832 0.893831 0.893831 0.893831 0.89383 0.89383 0.893829 0.893829 0.893827 0.893825 0.893818 0.893804 0.893775 0.89372 0.893636 0.893513 0.89352 0.892513 0.873741 0.876207 0.874872 0.879521 0.892601 0.89359 0.893607 0.893706 0.893766 0.8938 0.893816 0.893823 0.893826 0.893828 0.893829 0.893829 0.89383 0.89383 0.893831 0.893831 0.893831 0.893832 0.893832 0.893832 0.893832 0.893832 0.893832 0.893832 0.893832 0.893832 0.893832 0.893832 0.893832 0.893832 0.893832 0.893832 0.893832 0.893832 0.893832 0.893832 0.893832 0.893832 0.893832 0.893832 0.893832 0.893832 0.893832 0.893832 0.893832 0.893832 0.893832 0.893832 0.893832 0.893832 0.893832 0.893832 0.893832 0.893832 0.893831 0.893831 0.893831 0.89383 0.89383 0.893829 0.893829 0.893828 0.893826 0.893823 0.893816 0.8938 0.893766 0.893706 0.893607 0.89359 0.892601 0.879521 0.874872 0.874623 0.884076 0.892783 0.893658 0.893685 0.893756 0.893794 0.893813 0.893821 0.893825 0.893827 0.893828 0.893829 0.89383 0.89383 0.893831 0.893831 0.893831 0.893832 0.893832 0.893832 0.893832 0.893832 0.893832 0.893832 0.893832 0.893832 0.893832 0.893832 0.893832 0.893832 0.893832 0.893832 0.893832 0.893832 0.893832 0.893832 0.893832 0.893832 0.893832 0.893832 0.893832 0.893832 0.893832 0.893832 0.893832 0.893832 0.893832 0.893832 0.893832 0.893832 0.893832 0.893832 0.893832 0.893832 0.893832 0.893832 0.893831 0.893831 0.893831 0.89383 0.89383 0.893829 0.893828 0.893827 0.893825 0.893821 0.893813 0.893794 0.893756 0.893685 0.893658 0.892783 0.884076 0.874623 0.875235 0.887528 0.893001 0.893715 0.893742 0.893787 0.893809 0.893819 0.893823 0.893826 0.893827 0.893829 0.893829 0.89383 0.893831 0.893831 0.893831 0.893832 0.893832 0.893832 0.893832 0.893832 0.893832 0.893832 0.893832 0.893832 0.893832 0.893832 0.893832 0.893832 0.893832 0.893832 0.893832 0.893832 0.893832 0.893832 0.893832 0.893832 0.893832 0.893832 0.893832 0.893832 0.893832 0.893832 0.893832 0.893832 0.893832 0.893832 0.893832 0.893832 0.893832 0.893832 0.893832 0.893832 0.893832 0.893832 0.893832 0.893832 0.893831 0.893831 0.893831 0.89383 0.893829 0.893829 0.893827 0.893826 0.893823 0.893819 0.893809 0.893787 0.893742 0.893715 0.893001 0.887528 0.875235 0.876502 0.889992 0.89321 0.893756 0.893778 0.893804 0.893816 0.893822 0.893825 0.893827 0.893828 0.893829 0.89383 0.893831 0.893831 0.893831 0.893832 0.893832 0.893832 0.893832 0.893832 0.893832 0.893832 0.893832 0.893832 0.893832 0.893832 0.893832 0.893832 0.893832 0.893832 0.893832 0.893832 0.893832 0.893832 0.893832 0.893832 0.893832 0.893832 0.893832 0.893832 0.893832 0.893832 0.893832 0.893832 0.893832 0.893832 0.893832 0.893832 0.893832 0.893832 0.893832 0.893832 0.893832 0.893832 0.893832 0.893832 0.893832 0.893832 0.893831 0.893831 0.893831 0.89383 0.893829 0.893828 0.893827 0.893825 0.893822 0.893816 0.893804 0.893778 0.893756 0.89321 0.889992 0.876502 0.878228 0.891641 0.893388 0.893783 0.893798 0.893813 0.89382 0.893823 0.893826 0.893827 0.893829 0.89383 0.89383 0.893831 0.893831 0.893832 0.893832 0.893832 0.893832 0.893832 0.893832 0.893832 0.893832 0.893832 0.893832 0.893832 0.893832 0.893832 0.893832 0.893832 0.893832 0.893832 0.893832 0.893832 0.893832 0.893832 0.893832 0.893832 0.893832 0.893832 0.893832 0.893832 0.893832 0.893832 0.893832 0.893832 0.893832 0.893832 0.893832 0.893832 0.893832 0.893832 0.893832 0.893832 0.893832 0.893832 0.893832 0.893832 0.893832 0.893832 0.893831 0.893831 0.89383 0.89383 0.893829 0.893827 0.893826 0.893823 0.89382 0.893813 0.893798 0.893783 0.893388 0.891641 0.878228 0.880221 0.892674 0.893526 0.893798 0.893809 0.893817 0.893822 0.893825 0.893827 0.893828 0.893829 0.89383 0.893831 0.893831 0.893832 0.893832 0.893832 0.893832 0.893832 0.893832 0.893832 0.893832 0.893832 0.893832 0.893832 0.893832 0.893832 0.893832 0.893832 0.893832 0.893832 0.893832 0.893832 0.893832 0.893832 0.893832 0.893832 0.893832 0.893832 0.893832 0.893832 0.893832 0.893832 0.893832 0.893832 0.893832 0.893832 0.893832 0.893832 0.893832 0.893832 0.893832 0.893832 0.893832 0.893832 0.893832 0.893832 0.893832 0.893832 0.893832 0.893832 0.893831 0.893831 0.89383 0.893829 0.893828 0.893827 0.893825 0.893822 0.893817 0.893809 0.893798 0.893526 0.892674 0.880221 0.88231 0.893273 0.893626 0.893807 0.893815 0.89382 0.893824 0.893826 0.893828 0.893829 0.89383 0.893831 0.893831 0.893832 0.893832 0.893832 0.893832 0.893832 0.893832 0.893832 0.893832 0.893832 0.893832 0.893832 0.893832 0.893832 0.893832 0.893832 0.893832 0.893832 0.893832 0.893832 0.893832 0.893832 0.893832 0.893832 0.893832 0.893832 0.893832 0.893832 0.893832 0.893832 0.893832 0.893832 0.893832 0.893832 0.893832 0.893832 0.893832 0.893832 0.893832 0.893832 0.893832 0.893832 0.893832 0.893832 0.893832 0.893832 0.893832 0.893832 0.893832 0.893832 0.893831 0.893831 0.89383 0.893829 0.893828 0.893826 0.893824 0.89382 0.893815 0.893807 0.893626 0.893273 0.88231 0.884354 0.893588 0.893695 0.893813 0.893818 0.893822 0.893825 0.893827 0.893829 0.89383 0.893831 0.893831 0.893832 0.893832 0.893832 0.893832 0.893832 0.893832 0.893832 0.893832 0.893832 0.893832 0.893832 0.893832 0.893832 0.893832 0.893832 0.893832 0.893832 0.893832 0.893832 0.893832 0.893832 0.893832 0.893832 0.893832 0.893832 0.893832 0.893832 0.893832 0.893832 0.893832 0.893832 0.893832 0.893832 0.893832 0.893832 0.893832 0.893832 0.893832 0.893832 0.893832 0.893832 0.893832 0.893832 0.893832 0.893832 0.893832 0.893832 0.893832 0.893832 0.893832 0.893832 0.893831 0.893831 0.89383 0.893829 0.893827 0.893825 0.893822 0.893818 0.893813 0.893695 0.893588 0.884354 0.886247 0.893737 0.893741 0.893817 0.893821 0.893824 0.893827 0.893829 0.89383 0.893831 0.893831 0.893832 0.893832 0.893832 0.893832 0.893832 0.893832 0.893832 0.893832 0.893832 0.893832 0.893832 0.893832 0.893832 0.893832 0.893832 0.893832 0.893832 0.893832 0.893832 0.893832 0.893832 0.893832 0.893832 0.893832 0.893832 0.893832 0.893832 0.893832 0.893832 0.893832 0.893832 0.893832 0.893832 0.893832 0.893832 0.893832 0.893832 0.893832 0.893832 0.893832 0.893832 0.893832 0.893832 0.893832 0.893832 0.893832 0.893832 0.893832 0.893832 0.893832 0.893832 0.893832 0.893832 0.893831 0.893831 0.89383 0.893829 0.893827 0.893824 0.893821 0.893817 0.893741 0.893737 0.886247 0.887924 0.893799 0.893772 0.89382 0.893824 0.893826 0.893828 0.89383 0.89383 0.893831 0.893832 0.893832 0.893832 0.893832 0.893832 0.893832 0.893832 0.893832 0.893832 0.893832 0.893832 0.893832 0.893832 0.893832 0.893832 0.893832 0.893832 0.893832 0.893832 0.893832 0.893832 0.893832 0.893832 0.893832 0.893832 0.893832 0.893832 0.893832 0.893832 0.893832 0.893832 0.893832 0.893832 0.893832 0.893832 0.893832 0.893832 0.893832 0.893832 0.893832 0.893832 0.893832 0.893832 0.893832 0.893832 0.893832 0.893832 0.893832 0.893832 0.893832 0.893832 0.893832 0.893832 0.893832 0.893832 0.893831 0.89383 0.89383 0.893828 0.893826 0.893824 0.89382 0.893772 0.893799 0.887924 0.889352 0.893822 0.893793 0.893823 0.893826 0.893828 0.893829 0.89383 0.893831 0.893831 0.893832 0.893832 0.893832 0.893832 0.893832 0.893832 0.893832 0.893832 0.893832 0.893832 0.893832 0.893832 0.893832 0.893832 0.893832 0.893832 0.893832 0.893832 0.893832 0.893832 0.893832 0.893832 0.893832 0.893832 0.893832 0.893832 0.893832 0.893832 0.893832 0.893832 0.893832 0.893832 0.893832 0.893832 0.893832 0.893832 0.893832 0.893832 0.893832 0.893832 0.893832 0.893832 0.893832 0.893832 0.893832 0.893832 0.893832 0.893832 0.893832 0.893832 0.893832 0.893832 0.893832 0.893832 0.893832 0.893831 0.893831 0.89383 0.893829 0.893828 0.893826 0.893823 0.893793 0.893822 0.889352 0.890523 0.893829 0.893806 0.893825 0.893827 0.893829 0.89383 0.893831 0.893831 0.893832 0.893832 0.893832 0.893832 0.893832 0.893832 0.893832 0.893832 0.893832 0.893832 0.893832 0.893832 0.893832 0.893832 0.893832 0.893832 0.893832 0.893832 0.893832 0.893832 0.893832 0.893832 0.893832 0.893832 0.893832 0.893832 0.893832 0.893832 0.893832 0.893832 0.893832 0.893832 0.893832 0.893832 0.893832 0.893832 0.893832 0.893832 0.893832 0.893832 0.893832 0.893832 0.893832 0.893832 0.893832 0.893832 0.893832 0.893832 0.893832 0.893832 0.893832 0.893832 0.893832 0.893832 0.893832 0.893832 0.893832 0.893831 0.893831 0.89383 0.893829 0.893827 0.893825 0.893806 0.893829 0.890523 0.891452 0.893831 0.893816 0.893827 0.893829 0.89383 0.893831 0.893831 0.893832 0.893832 0.893832 0.893832 0.893832 0.893832 0.893832 0.893832 0.893832 0.893832 0.893832 0.893832 0.893832 0.893832 0.893832 0.893832 0.893832 0.893832 0.893832 0.893832 0.893832 0.893832 0.893832 0.893832 0.893832 0.893832 0.893832 0.893832 0.893832 0.893832 0.893832 0.893832 0.893832 0.893832 0.893832 0.893832 0.893832 0.893832 0.893832 0.893832 0.893832 0.893832 0.893832 0.893832 0.893832 0.893832 0.893832 0.893832 0.893832 0.893832 0.893832 0.893832 0.893832 0.893832 0.893832 0.893832 0.893832 0.893832 0.893832 0.893831 0.893831 0.89383 0.893829 0.893827 0.893816 0.893831 0.891452 0.892165 0.893832 0.893822 0.893828 0.89383 0.893831 0.893831 0.893832 0.893832 0.893832 0.893832 0.893832 0.893832 0.893832 0.893832 0.893832 0.893832 0.893832 0.893832 0.893832 0.893832 0.893832 0.893832 0.893832 0.893832 0.893832 0.893832 0.893832 0.893832 0.893832 0.893832 0.893832 0.893832 0.893832 0.893832 0.893832 0.893832 0.893832 0.893832 0.893832 0.893832 0.893832 0.893832 0.893832 0.893832 0.893832 0.893832 0.893832 0.893832 0.893832 0.893832 0.893832 0.893832 0.893832 0.893832 0.893832 0.893832 0.893832 0.893832 0.893832 0.893832 0.893832 0.893832 0.893832 0.893832 0.893832 0.893832 0.893832 0.893831 0.893831 0.89383 0.893828 0.893822 0.893832 0.892165 0.892696 0.893832 0.893826 0.89383 0.893831 0.893831 0.893832 0.893832 0.893832 0.893832 0.893832 0.893832 0.893832 0.893832 0.893832 0.893832 0.893832 0.893832 0.893832 0.893832 0.893832 0.893832 0.893832 0.893832 0.893832 0.893832 0.893832 0.893832 0.893832 0.893832 0.893832 0.893832 0.893832 0.893832 0.893832 0.893832 0.893832 0.893832 0.893832 0.893832 0.893832 0.893832 0.893832 0.893832 0.893832 0.893832 0.893832 0.893832 0.893832 0.893832 0.893832 0.893832 0.893832 0.893832 0.893832 0.893832 0.893832 0.893832 0.893832 0.893832 0.893832 0.893832 0.893832 0.893832 0.893832 0.893832 0.893832 0.893832 0.893832 0.893831 0.893831 0.89383 0.893826 0.893832 0.892696 0.893078 0.893832 0.893828 0.893831 0.893831 0.893832 0.893832 0.893832 0.893832 0.893832 0.893832 0.893832 0.893832 0.893832 0.893832 0.893832 0.893832 0.893832 0.893832 0.893832 0.893832 0.893832 0.893832 0.893832 0.893832 0.893832 0.893832 0.893832 0.893832 0.893832 0.893832 0.893832 0.893832 0.893832 0.893832 0.893832 0.893832 0.893832 0.893832 0.893832 0.893832 0.893832 0.893832 0.893832 0.893832 0.893832 0.893832 0.893832 0.893832 0.893832 0.893832 0.893832 0.893832 0.893832 0.893832 0.893832 0.893832 0.893832 0.893832 0.893832 0.893832 0.893832 0.893832 0.893832 0.893832 0.893832 0.893832 0.893832 0.893832 0.893832 0.893831 0.893831 0.893828 0.893832 0.893078 0.893346 0.893832 0.89383 0.893831 0.893832 0.893832 0.893832 0.893832 0.893832 0.893832 0.893832 0.893832 0.893832 0.893832 0.893832 0.893832 0.893832 0.893832 0.893832 0.893832 0.893832 0.893832 0.893832 0.893832 0.893832 0.893832 0.893832 0.893832 0.893832 0.893832 0.893832 0.893832 0.893832 0.893832 0.893832 0.893832 0.893832 0.893832 0.893832 0.893832 0.893832 0.893832 0.893832 0.893832 0.893832 0.893832 0.893832 0.893832 0.893832 0.893832 0.893832 0.893832 0.893832 0.893832 0.893832 0.893832 0.893832 0.893832 0.893832 0.893832 0.893832 0.893832 0.893832 0.893832 0.893832 0.893832 0.893832 0.893832 0.893832 0.893832 0.893832 0.893831 0.89383 0.893832 0.893346 0.893527 0.893832 0.893831 0.893832 0.893832 0.893832 0.893832 0.893832 0.893832 0.893832 0.893832 0.893832 0.893832 0.893832 0.893832 0.893832 0.893832 0.893832 0.893832 0.893832 0.893832 0.893832 0.893832 0.893832 0.893832 0.893832 0.893832 0.893832 0.893832 0.893832 0.893832 0.893832 0.893832 0.893832 0.893832 0.893832 0.893832 0.893832 0.893832 0.893832 0.893832 0.893832 0.893832 0.893832 0.893832 0.893832 0.893832 0.893832 0.893832 0.893832 0.893832 0.893832 0.893832 0.893832 0.893832 0.893832 0.893832 0.893832 0.893832 0.893832 0.893832 0.893832 0.893832 0.893832 0.893832 0.893832 0.893832 0.893832 0.893832 0.893832 0.893832 0.893832 0.893831 0.893832 0.893527 0.893646 0.893832 0.893831 0.893832 0.893832 0.893832 0.893832 0.893832 0.893832 0.893832 0.893832 0.893832 0.893832 0.893832 0.893832 0.893832 0.893832 0.893832 0.893832 0.893832 0.893832 0.893832 0.893832 0.893832 0.893832 0.893832 0.893832 0.893832 0.893832 0.893832 0.893832 0.893832 0.893832 0.893832 0.893832 0.893832 0.893832 0.893832 0.893832 0.893832 0.893832 0.893832 0.893832 0.893832 0.893832 0.893832 0.893832 0.893832 0.893832 0.893832 0.893832 0.893832 0.893832 0.893832 0.893832 0.893832 0.893832 0.893832 0.893832 0.893832 0.893832 0.893832 0.893832 0.893832 0.893832 0.893832 0.893832 0.893832 0.893832 0.893832 0.893832 0.893832 0.893831 0.893832 0.893646 0.893723 0.893832 0.893832 0.893832 0.893832 0.893832 0.893832 0.893832 0.893832 0.893832 0.893832 0.893832 0.893832 0.893832 0.893832 0.893832 0.893832 0.893832 0.893832 0.893832 0.893832 0.893832 0.893832 0.893832 0.893832 0.893832 0.893832 0.893832 0.893832 0.893832 0.893832 0.893832 0.893832 0.893832 0.893832 0.893832 0.893832 0.893832 0.893832 0.893832 0.893832 0.893832 0.893832 0.893832 0.893832 0.893832 0.893832 0.893832 0.893832 0.893832 0.893832 0.893832 0.893832 0.893832 0.893832 0.893832 0.893832 0.893832 0.893832 0.893832 0.893832 0.893832 0.893832 0.893832 0.893832 0.893832 0.893832 0.893832 0.893832 0.893832 0.893832 0.893832 0.893832 0.893832 0.893723 0.89377 0.893832 0.893832 0.893832 0.893832 0.893832 0.893832 0.893832 0.893832 0.893832 0.893832 0.893832 0.893832 0.893832 0.893832 0.893832 0.893832 0.893832 0.893832 0.893832 0.893832 0.893832 0.893832 0.893832 0.893832 0.893832 0.893832 0.893832 0.893832 0.893832 0.893832 0.893832 0.893832 0.893832 0.893832 0.893832 0.893832 0.893832 0.893832 0.893832 0.893832 0.893832 0.893832 0.893832 0.893832 0.893832 0.893832 0.893832 0.893832 0.893832 0.893832 0.893832 0.893832 0.893832 0.893832 0.893832 0.893832 0.893832 0.893832 0.893832 0.893832 0.893832 0.893832 0.893832 0.893832 0.893832 0.893832 0.893832 0.893832 0.893832 0.893832 0.893832 0.893832 0.893832 0.89377 0.893798 0.893832 0.893832 0.893832 0.893832 0.893832 0.893832 0.893832 0.893832 0.893832 0.893832 0.893832 0.893832 0.893832 0.893832 0.893832 0.893832 0.893832 0.893832 0.893832 0.893832 0.893832 0.893832 0.893832 0.893832 0.893832 0.893832 0.893832 0.893832 0.893832 0.893832 0.893832 0.893832 0.893832 0.893832 0.893832 0.893832 0.893832 0.893832 0.893832 0.893832 0.893832 0.893832 0.893832 0.893832 0.893832 0.893832 0.893832 0.893832 0.893832 0.893832 0.893832 0.893832 0.893832 0.893832 0.893832 0.893832 0.893832 0.893832 0.893832 0.893832 0.893832 0.893832 0.893832 0.893832 0.893832 0.893832 0.893832 0.893832 0.893832 0.893832 0.893832 0.893832 0.893832 0.893798 0.893814 0.893832 0.893832 0.893832 0.893832 0.893832 0.893832 0.893832 0.893832 0.893832 0.893832 0.893832 0.893832 0.893832 0.893832 0.893832 0.893832 0.893832 0.893832 0.893832 0.893832 0.893832 0.893832 0.893832 0.893832 0.893832 0.893832 0.893832 0.893832 0.893832 0.893832 0.893832 0.893832 0.893832 0.893832 0.893832 0.893832 0.893832 0.893832 0.893832 0.893832 0.893832 0.893832 0.893832 0.893832 0.893832 0.893832 0.893832 0.893832 0.893832 0.893832 0.893832 0.893832 0.893832 0.893832 0.893832 0.893832 0.893832 0.893832 0.893832 0.893832 0.893832 0.893832 0.893832 0.893832 0.893832 0.893832 0.893832 0.893832 0.893832 0.893832 0.893832 0.893832 0.893832 0.893814 0.893823 0.893832 0.893832 0.893832 0.893832 0.893832 0.893832 0.893832 0.893832 0.893832 0.893832 0.893832 0.893832 0.893832 0.893832 0.893832 0.893832 0.893832 0.893832 0.893832 0.893832 0.893832 0.893832 0.893832 0.893832 0.893832 0.893832 0.893832 0.893832 0.893832 0.893832 0.893832 0.893832 0.893832 0.893832 0.893832 0.893832 0.893832 0.893832 0.893832 0.893832 0.893832 0.893832 0.893832 0.893832 0.893832 0.893832 0.893832 0.893832 0.893832 0.893832 0.893832 0.893832 0.893832 0.893832 0.893832 0.893832 0.893832 0.893832 0.893832 0.893832 0.893832 0.893832 0.893832 0.893832 0.893832 0.893832 0.893832 0.893832 0.893832 0.893832 0.893832 0.893832 0.893832 0.893823 0.893828 0.893832 0.893832 0.893832 0.893832 0.893832 0.893832 0.893832 0.893832 0.893832 0.893832 0.893832 0.893832 0.893832 0.893832 0.893832 0.893832 0.893832 0.893832 0.893832 0.893832 0.893832 0.893832 0.893832 0.893832 0.893832 0.893832 0.893832 0.893832 0.893832 0.893832 0.893832 0.893832 0.893832 0.893832 0.893832 0.893832 0.893832 0.893832 0.893832 0.893832 0.893832 0.893832 0.893832 0.893832 0.893832 0.893832 0.893832 0.893832 0.893832 0.893832 0.893832 0.893832 0.893832 0.893832 0.893832 0.893832 0.893832 0.893832 0.893832 0.893832 0.893832 0.893832 0.893832 0.893832 0.893832 0.893832 0.893832 0.893832 0.893832 0.893832 0.893832 0.893832 0.893832 0.893828 0.89383 0.893832 0.893832 0.893832 0.893832 0.893832 0.893832 0.893832 0.893832 0.893832 0.893832 0.893832 0.893832 0.893832 0.893832 0.893832 0.893832 0.893832 0.893832 0.893832 0.893832 0.893832 0.893832 0.893832 0.893832 0.893832 0.893832 0.893832 0.893832 0.893832 0.893832 0.893832 0.893832 0.893832 0.893832 0.893832 0.893832 0.893832 0.893832 0.893832 0.893832 0.893832 0.893832 0.893832 0.893832 0.893832 0.893832 0.893832 0.893832 0.893832 0.893832 0.893832 0.893832 0.893832 0.893832 0.893832 0.893832 0.893832 0.893832 0.893832 0.893832 0.893832 0.893832 0.893832 0.893832 0.893832 0.893832 0.893832 0.893832 0.893832 0.893832 0.893832 0.893832 0.893832 0.89383 0.893831 0.893832 0.893832 0.893832 0.893832 0.893832 0.893832 0.893832 0.893832 0.893832 0.893832 0.893832 0.893832 0.893832 0.893832 0.893832 0.893832 0.893832 0.893832 0.893832 0.893832 0.893832 0.893832 0.893832 0.893832 0.893832 0.893832 0.893832 0.893832 0.893832 0.893832 0.893832 0.893832 0.893832 0.893832 0.893832 0.893832 0.893832 0.893832 0.893832 0.893832 0.893832 0.893832 0.893832 0.893832 0.893832 0.893832 0.893832 0.893832 0.893832 0.893832 0.893832 0.893832 0.893832 0.893832 0.893832 0.893832 0.893832 0.893832 0.893832 0.893832 0.893832 0.893832 0.893832 0.893832 0.893832 0.893832 0.893832 0.893832 0.893832 0.893832 0.893832 0.893832 0.893832 0.893831 0.893832 0.893832 0.893832 0.893832 0.893832 0.893832 0.893832 0.893832 0.893832 0.893832 0.893832 0.893832 0.893832 0.893832 0.893832 0.893832 0.893832 0.893832 0.893832 0.893832 0.893832 0.893832 0.893832 0.893832 0.893832 0.893832 0.893832 0.893832 0.893832 0.893832 0.893832 0.893832 0.893832 0.893832 0.893832 0.893832 0.893832 0.893832 0.893832 0.893832 0.893832 0.893832 0.893832 0.893832 0.893832 0.893832 0.893832 0.893832 0.893832 0.893832 0.893832 0.893832 0.893832 0.893832 0.893832 0.893832 0.893832 0.893832 0.893832 0.893832 0.893832 0.893832 0.893832 0.893832 0.893832 0.893832 0.893832 0.893832 0.893832 0.893832 0.893832 0.893832 0.893832 0.893832 0.893832 0.893832 0.893832 0.893832 0.893832 0.893832 0.893832 0.893832 0.893832 0.893832 0.893832 0.893832 0.893832 0.893832 0.893832 0.893832 0.893832 0.893832 0.893832 0.893832 0.893832 0.893832 0.893832 0.893832 0.893832 0.893832 0.893832 0.893832 0.893832 0.893832 0.893832 0.893832 0.893832 0.893832 0.893832 0.893832 0.893832 0.893832 0.893832 0.893832 0.893832 0.893832 0.893832 0.893832 0.893832 0.893832 0.893832 0.893832 0.893832 0.893832 0.893832 0.893832 0.893832 0.893832 0.893832 0.893832 0.893832 0.893832 0.893832 0.893832 0.893832 0.893832 0.893832 0.893832 0.893832 0.893832 0.893832 0.893832 0.893832 0.893832 0.893832 0.893832 0.893832 0.893832 0.893832 0.893832 0.893832 0.893832 0.893832 0.893832 0.893832 0.893832 0.893832 0.893832 0.893832 0.893832 0.893832 0.893832 0.893832 0.893832 0.893832 0.893832 0.893832 0.893832 0.893832 0.893832 0.893832 0.893832 0.893832 0.893832 0.893832 0.893832 0.893832 0.893832 0.893832 0.893832 0.893832 0.893832 0.893832 0.893832 0.893832 0.893832 0.893832 0.893832 0.893832 0.893832 0.893832 0.893832 0.893832 0.893832 0.893832 0.893832 0.893832 0.893832 0.893832 0.893832 0.893832 0.893832 0.893832 0.893832 0.893832 0.893832 0.893832 0.893832 0.893832 0.893832 0.893832 0.893832 0.893832 0.893832 0.893832 0.893832 0.893832 0.893832 0.893832 0.893832 0.893832 0.893832 0.893832 0.893832 0.893832 0.893832 0.893832 0.893832 0.893832 0.893832 0.893832 0.893832 0.893832 0.893832 0.893832 0.893832 0.893832 0.893832 0.893832 0.893832 0.893832 0.893832 0.893832 0.893832 0.893832 0.893832 0.893832 0.893832 0.893832 0.893832 0.893832 0.893832 0.893832 0.893832 0.893832 0.893832 0.893832 0.893832 0.893832 0.893832 0.893832 0.893832 0.893832 0.893832 0.893832 0.893832 0.893832 0.893832 0.893832 0.893832 0.893832 0.893832 0.893832 0.893832 0.893832 0.893832 0.893832 0.893832 0.893832 0.893832 0.893832 0.893832 0.893832 0.893832 0.893832 0.893832 0.893832 0.893832 0.893832 0.893832 0.893832 0.893832 0.893832 0.893832 0.893832 0.893832 0.893832 0.893832 0.893832 0.893832 0.893832 0.893832 0.893832 0.893832 0.893832 0.893832 0.893832 0.893832 0.893832 0.893832 0.893832 0.893832 0.893832 0.893832 0.893832 0.893832 0.893832 0.893832 0.893832 0.893832 0.893832 0.893832 0.893832 0.893832 0.893832 0.893832 0.893832 0.893832 0.893832 0.893832 0.893832 0.893832 0.893832 0.893832 0.893832 0.893832 0.893832 0.893832 0.893832 0.893832 0.893832 0.893832 0.893832 0.893832 0.893832 0.893832 0.893832 0.893832 0.893832 0.893832 0.893832 0.893832 0.893832 0.893832 0.893832 0.893832 0.893832 0.893832 0.893832 0.893832 0.893832 0.893832 0.893832 0.893832 0.893832 0.893832 0.893832 0.893832 0.893832 0.893832 0.893832 0.893832 0.893832 0.893832 0.893832 0.893832 0.893832 0.893832 0.893832 0.893832 0.893832 0.893832 0.893832 0.893832 0.893832 0.893832 0.893832 0.893832 0.893832 0.893832 0.893832 0.893832 0.893832 0.893832 0.893832 0.893832 0.893832 0.893832 0.893832 0.893832 0.893832 0.893832 0.893832 0.893832 0.893832 0.893832 0.893832 0.893832 0.893832 0.893832 0.893832 0.893832 0.893832 0.893832 0.893832 0.893832 0.893832 0.893832 0.893832 0.893832 0.893832 0.893832 0.893832 0.893832 0.893832 0.893832 0.893832 0.893832 0.893832 0.893832 0.893832 0.893832 0.893832 0.893832 0.893832 0.893832 0.893832 0.893832 0.893832 0.893832 0.893832 0.893832 0.893832 0.893832 0.893832 0.893832 0.893832 0.893832 0.893832 0.893832 0.893832 0.893832 0.893832 0.893832 0.893832 0.893832 0.893832 0.893832 0.893832 0.893832 0.893832 0.893832 0.893832 0.893832 0.893832 0.893832 0.893832 0.893832 0.893832 0.893832 0.893832 0.893832 0.893832 0.893832 0.893832 0.893832 0.893832 0.893832 0.893832 0.893832 0.893832 0.893832 0.893832 0.893832 0.893832 0.893832 0.893832 0.893832 0.893832 0.893832 0.893832 0.893832 0.893832 0.893832 0.893832 0.893832 0.893832 0.893832 0.893832 0.893832 0.893832 0.893832 0.893832 0.893832 0.893832 0.893832 0.893832 0.893832 0.893832 0.893832 0.893832 0.893832 0.893832 0.893832 0.893832 0.893832 0.893832 0.893832 0.893832 0.893832 0.893832 0.893832 0.893832 0.893832 0.893832 0.893832 0.893832 0.893832 0.893832 0.893832 0.893832 0.893832 0.893832 0.893832 0.893832 0.893832 0.893832 0.893832 0.893832 0.893832 0.893832 0.893832 0.893832 0.893832 0.893832 0.893832 0.893832 0.893832 0.893832 0.893832 0.893832 0.893832 0.893832 0.893832 0.893832 0.893832 0.893832 0.893832 0.893832 0.893832 0.893832 0.893832 0.893832 0.893832 0.893832 0.893832 0.893832 0.893832 0.893832 0.893832 0.893832 0.893832 0.893832 0.893832 0.893832 0.893832 0.893832 0.893832 0.893832 0.893832 0.893832 0.893832 0.893832 0.893832 0.893832 0.893832 0.893832 0.893832 0.893832 0.893832 0.893832 0.893832 0.893832 0.893832 0.893832 0.893832 0.893832 0.893832 0.893832 0.893832 0.893832 0.893832 0.893832 0.893832 0.893832 0.893832 0.893832 0.893832 0.893832 0.893832 0.893832 0.893832 0.893832 0.893832 0.893832 0.893832 0.893832 0.893832 0.893832 0.893832 0.893832 0.893832 0.893832 0.893832 0.893832 0.893832 0.893832 0.893832 0.893832 0.893832 0.893832 0.893832 0.893832 0.893832 0.893832 0.893832 0.893832 0.893832 0.893832 0.893832 0.893832 0.893832 0.893832 0.893832 0.893832 0.893832 0.893832 0.893832 0.893832 0.893832 0.893832 0.893832 0.893832 0.893832 0.893832 0.893832 0.893832 0.893832 0.893832 0.893832 0.893832 0.893832 0.893832 0.893832 0.893832 0.893832 0.893832 0.893832 0.893832 0.893832 0.893832 0.893832 0.893832 0.893832 0.893832 0.893832 0.893832 0.893832 0.893832 0.893832 0.893832 0.893832 0.893832 0.893832 0.893832 0.893832 0.893832 0.893832 0.893832 0.893832 0.893832 0.893832 0.893832 0.893832 0.893832 0.893832 0.893832 0.893832 0.893832 0.893832 0.893832 0.893832 0.893832 0.893832 0.893832 0.893832 0.893832 0.893832 0.893832 0.893832 0.893832 0.893832 0.893832 0.893832 0.893832 0.893832 0.893832 0.893832 0.893832 0.893832 0.893832 0.893832 0.893832 0.893832 0.893832 0.893832 0.893832 0.893832 0.893832 0.893832 0.893832 0.893832 0.893832 0.893832 0.893832 0.893832 0.893832 0.893832 0.893832 0.893832 0.893832 0.893832 0.893832 0.893832 0.893832 0.893832 0.893832 0.893832 0.893832 0.893832 0.893832 0.893832 0.893832 0.893832 0.893832 0.893832 0.893832 0.893832 0.893832 0.893832 0.893832 0.893832 0.893832 0.893832 0.893832 0.893832 0.893832 0.893832 0.893832 0.893832 0.893832 0.893832 0.893832 0.893832 0.893832 0.893832 0.893832 0.893832 0.893832 0.893832 0.893832 0.893832 0.893832 0.893832 0.893832 0.893832 0.893832 0.893832 0.893832 0.893832 0.893832 0.893832 0.893832 0.893832 0.893832 0.893832 0.893832 0.893832 0.893832 0.893832 0.893832 0.893832 0.893832 0.893832 0.893832 0.893832 0.893832 0.893832 0.893832 0.893832 0.893832 0.893832 0.893832 0.893832 0.893832 0.893832 0.893832 0.893832 0.893832 0.893832 0.893832 0.893832 0.893832 0.893832 0.893832 0.893832 0.893832 0.893832 0.893832 0.893832 0.893832 0.893832 0.893832 0.893832 0.893832 0.893832 0.893832 0.893832 0.893832 0.893832 0.893832 0.893832 0.893832 0.893832 0.893832 0.893832 0.893832 0.893832 0.893832 0.893832 0.893832 0.893832 0.893832 0.893832 0.893832 0.893832 0.893832 0.893832 0.893832 0.893832 0.893832 0.893832 0.893832 0.893832 0.893832 0.893832 0.893832 0.893832 0.893832 0.893832 0.893832 0.893832 0.893832 0.893832 0.893832 0.893832 0.893832 0.893832 0.893832 0.893832 0.893832 0.893832 0.893832 0.893832 0.893832 0.893832 0.893832 0.893832 0.893832 0.893832 0.893832 0.893832 0.893832 0.893832 0.893832 0.893832 0.893832 0.893832 0.893832 0.893832 0.893832 0.893832 0.893832 0.893832 0.893832 0.893832 0.893832 0.893832 0.893832 0.893832 0.893832 0.893832 0.893832 0.893832 0.893832 0.893832 0.893832 0.893832 0.893832 0.893832 0.893832 0.893832 0.893832 0.893832 0.893832 0.893832 0.893832 0.893832 0.893832 0.893832 0.893832 0.893832 0.893832 0.893832 0.893832 0.893832 0.893832 0.893832 0.893832 0.893832 0.893832 0.893832 0.893832 0.893832 0.893832 0.893832 0.893832 0.893832 0.893832 0.893832 0.893832 0.893832 0.893832 0.893832 0.893832 0.893832 0.893832 0.893832 0.893832 0.893832 0.893832 0.893832 0.893832 0.893832 0.893832 0.893832 0.893832 0.893832 0.893832 0.893832 0.893832 0.893832 0.893832 0.893832 0.893832 0.893832 0.893832 0.893832 0.893832 0.893832 0.893832 0.893832 0.893832 0.893832 0.893832 0.893832 0.893832 0.893832 0.893832 0.893832 0.893832 0.893832 0.893832 0.893832 0.893832 0.893832 0.893832 0.893832 0.893832 0.893832 0.893832 0.893832 0.893832 0.893832 0.893832 0.893832 0.893832 0.893832 0.893832 0.893832 0.893832 0.893832 0.893832 0.893832 0.893832 0.893832 0.893832 0.893832 0.893832 0.893832 0.893832 0.893832 0.893832 0.893832 0.893832 0.893832 0.893832 0.893832 0.893832 0.893832 0.893832 0.893832 0.893832 0.893832 0.893832 0.893832 0.893832 0.893832 0.893832 0.893832 0.893832 0.893832 0.893832 0.893832 0.893832 0.893832 0.893832 0.893832 0.893832 0.893832 0.893832 0.893832 0.893832 0.893832 0.893832 0.893832 0.893832 0.893832 0.893832 0.893832 0.893832 0.893832 0.893832 0.893832 0.893832 0.893832 0.893832 0.893832 0.893832 0.893832 0.893832 0.893832 0.893832 0.893832 0.893832 0.893832 0.893832 0.893832 0.893832 0.893832 0.893832 0.893832 0.893832 0.893832 0.893832 0.893832 0.893832 0.893832 0.893832 0.893832 0.893832 0.893832 0.893832 0.893832 0.893832 0.893832 0.893832 0.893832 0.893832 0.893832 0.893832 0.893832 0.893832 0.893832 0.893832 0.893832 0.893832 0.893832 0.893832 0.893832 0.893832 0.893832 0.893832 0.893832 0.893832 0.893832 0.893832 0.893832 0.893832 0.893832 0.893832 0.893832 0.893832 0.893832 0.893832 0.893832 0.893832 0.893832 0.893832 0.893832 0.893832 0.893832 0.893832 0.893832 0.893832 0.893832 0.893832 0.893832 0.893832 0.893832 0.893832 0.893832 0.893832 0.893832 0.893832 0.893832 0.893832 0.893832 0.893832 0.893832 0.893832 0.893832 0.893832 0.893832 0.893832 0.893832 0.893832 0.893832 0.893832 0.893832 0.893832 0.893832 0.893832 0.893832 0.893832 0.893832 0.893832 0.893832 0.893832 0.893832 0.893832 0.893832 0.893832 0.893832 0.893832 0.893832 0.893832 0.893832 0.893832 0.893832 0.893832 0.893832 0.893832 0.893832 0.893832 0.893832 0.893832 0.893832 0.893832 0.893832 0.893832 0.893832 0.893832 0.893832 0.893832 0.893832 0.893832 0.893832 0.893832 0.893832 0.893832 0.893832 0.893832 0.893832 0.893832 0.893832 0.893832 0.893832 0.893832 0.893832 0.893832 0.893832 0.893832 0.893832 0.893832 0.893832 0.893832 0.893832 0.893832 0.893832 0.893832 0.893832 0.893832 0.893832 0.893832 0.893832 0.893832 0.893832 0.893832 0.893832 0.893832 0.893832 0.893832 0.893832 0.893832 0.893832 0.893832 0.893832 0.893832 0.893832 0.893832 0.893832 0.893832 0.893832 0.893832 0.893832 0.893832 0.893832 0.893832 0.893832 0.893832 0.893832 0.893832 0.893832 0.893832 0.893832 0.893832 0.893832 0.893832 0.893832 0.893832 0.893832 0.893832 0.893832 0.893832 0.893832 0.893832 0.893832 0.893832 0.893832 0.893832 0.893832 0.893832 0.893832 0.893832 0.893832 0.893832 0.893832 0.893832 0.893832 0.893832 0.893832 0.893832 0.893832 0.893832 0.893832 0.893832 0.893832 0.893832 0.893832 0.893832 0.893832 0.893832 0.893832 0.893832 0.893832 0.893832 0.893832 0.893832 0.893832 0.893832 0.893832 0.893832 0.893832 0.893832 0.893832 0.893832 0.893832 0.893832 0.893832 0.893832 0.893832 0.893832 0.893832 0.893832 0.893832 0.893832 0.893832 0.893832 0.893832 0.893832 0.893832 0.893832 0.893832 0.893832 0.893832 0.893832 0.893832 0.893832 0.893832 0.893832 0.893832 0.893832 0.893832 0.893832 0.893832 0.893832 0.893832 0.893832 0.893832 0.893832 0.893832 0.893832 0.893832 0.893832 0.893832 0.893832 0.893832 0.893832 0.893832 0.893832 0.893832 0.893832 0.893832 0.893832 0.893832 0.893832 0.893832 0.893832 0.893832 0.893832 0.893832 0.893832 0.893832 0.893832 0.893832 0.893832 0.893832 0.893832 0.893832 0.893832 0.893832 0.893832 0.893832 0.893832 0.893832 0.893832 0.893832 0.893832 0.893832 0.893832 0.893832 0.893832 0.893832 0.893832 0.893832 0.893832 0.893832 0.893832 0.893832 0.893832 0.893832 0.893832 0.893832 0.893832 0.893832 0.893832 0.893832 0.893832 0.893832 0.893832 0.893832 0.893832 0.893832 0.893832 0.893832 0.893832 0.893832 0.893832 0.893832 0.893832 0.893832 0.893832 0.893832 0.893832 0.893832 0.893832 0.893832 0.893832 0.893832 0.893832 0.893832 0.893832 0.893832 0.893832 0.893832 0.893832 0.893832 0.893832 0.893832 0.893832 0.893832 0.893832 0.893832 0.893832 0.893832 0.893832 0.893832 0.893832 0.893832 0.893832 0.893832 0.893832 0.893832 0.893832 0.893832 0.893832 0.893832 0.893832 0.893832 0.893832 0.893832 0.893832 0.893832 0.893832 0.893832 0.893832 0.893832 0.893832 0.893832 0.893832 0.893832 0.893832 0.893832 0.893832 0.893832 0.893832 0.893832 0.893832 0.893832 0.893832 0.893832 0.893832 0.893832 0.893832 0.893832 0.893832 0.893832 0.893832 0.893832 0.893832 0.893832 0.893832 0.893832 0.893832 0.893832 0.893832 0.893832 0.893832 0.893832 0.893832 0.893832 0.893832 0.893832 0.893832 0.893832 0.893832 0.893832 0.893832 0.893832 0.893832 0.893832 0.893832 0.893832 0.893832 0.893832 0.893832 0.893832 0.893832 0.893832 0.893832 0.893832 0.893832 0.893832 0.893832 0.893832 0.893832 0.893832 0.893832 0.893832 0.893832 0.893832 0.893832 0.893832 0.893832 0.893832 0.893832 0.893832 0.893832 0.893832 0.893832 0.893832 0.893832 0.893832 0.893832 0.893832 0.893832 0.893832 0.893832 0.893832 0.893832 0.893832 0.893832 0.893832 0.893832 0.893832 0.893832 0.893832 0.893832 0.893832 0.893832 0.893832 0.893832 0.893832 0.893832 0.893832 0.893832 0.893832 0.893832 0.893832 0.893832 0.893832 0.893832 0.893832 0.893832 0.893832 0.893832 0.893832 0.893832 0.893832 0.893832 0.893832 0.893832 0.893832 0.893832 0.893832 0.893832 0.893832 0.893832 0.893832 0.893832 0.893832 0.893832 0.893832 0.893832 0.893832 0.893832 0.893832 0.893832 0.893832 0.893832 0.893832 0.893832 0.893832 0.893832 0.893832 0.893832 0.893832 0.893832 0.893832 0.893832 0.893832 0.893832 0.893832 0.893832 0.893832 0.893832 0.893832 0.893832 0.893832 0.893832 0.893832 0.893832 0.893832 0.893832 0.893832 0.893832 0.893832 0.893832 0.893832 0.893832 0.893832 0.893832 0.893832 0.893832 0.893832 0.893832 0.893832 0.893832 0.893832 0.893832 0.893832 0.893832 0.893832 0.893832 0.893832 0.893832 0.893832 0.893832 0.893832 0.893832 0.893832 0.893832 0.893832 0.893832 0.893832 0.893832 0.893832 0.893832 0.893832 
SCALARS Axial_Stress float 1
LOOKUP_TABLE default
-149921000000.0 -536065000000.0 -378515000000.0 -316916000000.0 -278018000000.0 -240791000000.0 -210690000000.0 -182618000000.0 -155115000000.0 -134246000000.0 -122406000000.0 -115975000000.0 -109795000000.0 -102236000000.0 -94353600000.0 -86395700000.0 -77824800000.0 -69210800000.0 -61438800000.0 -54760700000.0 -48895700000.0 -43524000000.0 -38508700000.0 -33855900000.0 -29618800000.0 -25842000000.0 -22545300000.0 -19724400000.0 -17357200000.0 -15408100000.0 -13833900000.0 -12588300000.0 -11624900000.0 -10900400000.0 -10377800000.0 -10027400000.0 -9826880000.0 -9761720000.0 -9826880000.0 -10027400000.0 -10377800000.0 -10900400000.0 -11624900000.0 -12588300000.0 -13833900000.0 -15408100000.0 -17357200000.0 -19724400000.0 -22545300000.0 -25842000000.0 -29618800000.0 -33855900000.0 -38508700000.0 -43524000000.0 -48895700000.0 -54760700000.0 -61438800000.0 -69210800000.0 -77824800000.0 -86395700000.0 -94353600000.0 -102236000000.0 -109795000000.0 -115975000000.0 -122406000000.0 -134246000000.0 -155115000000.0 -182618000000.0 -210690000000.0 -240791000000.0 -278018000000.0 -316916000000.0 -378515000000.0 -536065000000.0 -149921000000.0 -317621000000.0 -986058000000.0 -343639000000.0 -318108000000.0 -296312000000.0 -271160000000.0 -247364000000.0 -223923000000.0 -198203000000.0 -170914000000.0 -143964000000.0 -118613000000.0 -95909000000.0 -76363500000.0 -60018200000.0 -46611200000.0 -35871700000.0 -27630300000.0 -21407000000.0 -16724000000.0 -13360800000.0 -11189900000.0 -9975180000.0 -9393130000.0 -9154370000.0 -9070380000.0 -9045310000.0 -9038670000.0 -9037020000.0 -9036520000.0 -9036250000.0 -9036070000.0 -9035940000.0 -9035850000.0 -9035800000.0 -9035770000.0 -9035760000.0 -9035750000.0 -9035760000.0 -9035770000.0 -9035800000.0 -9035850000.0 -9035940000.0 -9036070000.0 -9036250000.0 -9036520000.0 -9037020000.0 -9038670000.0 -9045310000.0 -9070380000.0 -9154370000.0 -9393130000.0 -9975180000.0 -11189900000.0 -13360800000.0 -16724000000.0 -21407000000.0 -27630300000.0 -35871700000.0 -46611200000.0 -60018200000.0 -76363500000.0 -95909000000.0 -118613000000.0 -143964000000.0 -170914000000.0 -198203000000.0 -223923000000.0 -247364000000.0 -271160000000.0 -296312000000.0 -318108000000.0 -343639000000.0 -986058000000.0 -317621000000.0 -599536000000.0 -778414000000.0 -35424600000.0 -13511500000.0 -14835800000.0 -16846400000.0 -18537800000.0 -19921200000.0 -21495300000.0 -23007800000.0 -23784000000.0 -23693800000.0 -22944500000.0 -21849200000.0 -20707500000.0 -19492500000.0 -18220200000.0 -16918000000.0 -15634800000.0 -14430000000.0 -13348000000.0 -12408500000.0 -11613400000.0 -10956700000.0 -10428500000.0 -10015300000.0 -9701940000.0 -9472720000.0 -9311470000.0 -9202420000.0 -9131610000.0 -9087770000.0 -9062170000.0 -9048220000.0 -9041210000.0 -9037980000.0 -9036660000.0 -9036310000.0 -9036660000.0 -9037980000.0 -9041210000.0 -9048220000.0 -9062170000.0 -9087770000.0 -9131610000.0 -9202420000.0 -9311470000.0 -9472720000.0 -9701940000.0 -10015300000.0 -10428500000.0 -10956700000.0 -11613400000.0 -12408500000.0 -13348000000.0 -14430000000.0 -15634800000.0 -16918000000.0 -18220200000.0 -19492500000.0 -20707500000.0 -21849200000.0 -22944500000.0 -23693800000.0 -23784000000.0 -23007800000.0 -21495300000.0 -19921200000.0 -18537800000.0 -16846400000.0 -14835800000.0 -13511500000.0 -35424600000.0 -778414000000.0 -599536000000.0 -310495000000.0 -500779000000.0 -10778400000.0 -9554030000.0 -9651980000.0 -9548600000.0 -9521080000.0 -9603000000.0 -9743380000.0 -9755370000.0 -9656840000.0 -9496340000.0 -9299660000.0 -9186570000.0 -9128020000.0 -9088760000.0 -9063670000.0 -9048660000.0 -9040890000.0 -9037830000.0 -9037080000.0 -9036910000.0 -9036850000.0 -9036950000.0 -9037120000.0 -9037080000.0 -9036830000.0 -9036540000.0 -9036280000.0 -9036090000.0 -9035950000.0 -9035860000.0 -9035810000.0 -9035780000.0 -9035770000.0 -9035760000.0 -9035750000.0 -9035750000.0 -9035750000.0 -9035760000.0 -9035770000.0 -9035780000.0 -9035810000.0 -9035860000.0 -9035950000.0 -9036090000.0 -9036280000.0 -9036540000.0 -9036830000.0 -9037080000.0 -9037120000.0 -9036950000.0 -9036850000.0 -9036910000.0 -9037080000.0 -9037830000.0 -9040890000.0 -9048660000.0 -9063670000.0 -9088760000.0 -9128020000.0 -9186570000.0 -9299660000.0 -9496340000.0 -9656840000.0 -9755370000.0 -9743380000.0 -9603000000.0 -9521080000.0 -9548600000.0 -9651980000.0 -9554030000.0 -10778400000.0 -500779000000.0 -310495000000.0 -214511000000.0 -388456000000.0 -16256400000.0 -12973700000.0 -12294400000.0 -11765800000.0 -11591700000.0 -11489800000.0 -11254100000.0 -10938200000.0 -10596500000.0 -10201700000.0 -9887740000.0 -9696450000.0 -9536670000.0 -9370690000.0 -9223110000.0 -9122760000.0 -9070100000.0 -9048080000.0 -9040370000.0 -9038000000.0 -9037400000.0 -9037290000.0 -9037150000.0 -9036870000.0 -9036560000.0 -9036300000.0 -9036090000.0 -9035950000.0 -9035860000.0 -9035810000.0 -9035780000.0 -9035770000.0 -9035760000.0 -9035750000.0 -9035750000.0 -9035750000.0 -9035750000.0 -9035750000.0 -9035760000.0 -9035770000.0 -9035780000.0 -9035810000.0 -9035860000.0 -9035950000.0 -9036090000.0 -9036300000.0 -9036560000.0 -9036870000.0 -9037150000.0 -9037290000.0 -9037400000.0 -9038000000.0 -9040370000.0 -9048080000.0 -9070100000.0 -9122760000.0 -9223110000.0 -9370690000.0 -9536670000.0 -9696450000.0 -9887740000.0 -10201700000.0 -10596500000.0 -10938200000.0 -11254100000.0 -11489800000.0 -11591700000.0 -11765800000.0 -12294400000.0 -12973700000.0 -16256400000.0 -388456000000.0 -214511000000.0 -137462000000.0 -291544000000.0 -12217400000.0 -9908140000.0 -10126100000.0 -9944550000.0 -9897760000.0 -9831390000.0 -9700640000.0 -9535400000.0 -9358530000.0 -9216570000.0 -9139960000.0 -9096200000.0 -9068570000.0 -9052120000.0 -9043540000.0 -9039910000.0 -9038650000.0 -9038120000.0 -9037780000.0 -9037560000.0 -9037430000.0 -9037230000.0 -9036920000.0 -9036590000.0 -9036310000.0 -9036100000.0 -9035960000.0 -9035870000.0 -9035810000.0 -9035780000.0 -9035770000.0 -9035760000.0 -9035760000.0 -9035750000.0 -9035750000.0 -9035750000.0 -9035750000.0 -9035750000.0 -9035760000.0 -9035760000.0 -9035770000.0 -9035780000.0 -9035810000.0 -9035870000.0 -9035960000.0 -9036100000.0 -9036310000.0 -9036590000.0 -9036920000.0 -9037230000.0 -9037430000.0 -9037560000.0 -9037780000.0 -9038120000.0 -9038650000.0 -9039910000.0 -9043540000.0 -9052120000.0 -9068570000.0 -9096200000.0 -9139960000.0 -9216570000.0 -9358530000.0 -9535400000.0 -9700640000.0 -9831390000.0 -9897760000.0 -9944550000.0 -10126100000.0 -9908140000.0 -12217400000.0 -291544000000.0 -137462000000.0 -101104000000.0 -218321000000.0 -12747100000.0 -9998770000.0 -10229000000.0 -10012100000.0 -9892840000.0 -9738120000.0 -9559870000.0 -9384870000.0 -9237160000.0 -9148810000.0 -9100930000.0 -9071690000.0 -9054320000.0 -9045180000.0 -9041150000.0 -9039550000.0 -9038780000.0 -9038260000.0 -9037880000.0 -9037610000.0 -9037310000.0 -9036970000.0 -9036620000.0 -9036330000.0 -9036110000.0 -9035960000.0 -9035870000.0 -9035810000.0 -9035780000.0 -9035770000.0 -9035760000.0 -9035760000.0 -9035750000.0 -9035750000.0 -9035750000.0 -9035750000.0 -9035750000.0 -9035750000.0 -9035750000.0 -9035760000.0 -9035760000.0 -9035770000.0 -9035780000.0 -9035810000.0 -9035870000.0 -9035960000.0 -9036110000.0 -9036330000.0 -9036620000.0 -9036970000.0 -9037310000.0 -9037610000.0 -9037880000.0 -9038260000.0 -9038780000.0 -9039550000.0 -9041150000.0 -9045180000.0 -9054320000.0 -9071690000.0 -9100930000.0 -9148810000.0 -9237160000.0 -9384870000.0 -9559870000.0 -9738120000.0 -9892840000.0 -10012100000.0 -10229000000.0 -9998770000.0 -12747100000.0 -218321000000.0 -101104000000.0 -92958700000.0 -159935000000.0 -13010400000.0 -10017600000.0 -10229300000.0 -9971340000.0 -9787590000.0 -9591980000.0 -9410990000.0 -9259980000.0 -9160450000.0 -9106630000.0 -9075340000.0 -9056880000.0 -9047060000.0 -9042520000.0 -9040530000.0 -9039490000.0 -9038760000.0 -9038220000.0 -9037800000.0 -9037410000.0 -9037020000.0 -9036650000.0 -9036350000.0 -9036120000.0 -9035970000.0 -9035870000.0 -9035820000.0 -9035780000.0 -9035770000.0 -9035760000.0 -9035760000.0 -9035750000.0 -9035750000.0 -9035750000.0 -9035750000.0 -9035750000.0 -9035750000.0 -9035750000.0 -9035750000.0 -9035750000.0 -9035760000.0 -9035760000.0 -9035770000.0 -9035780000.0 -9035820000.0 -9035870000.0 -9035970000.0 -9036120000.0 -9036350000.0 -9036650000.0 -9037020000.0 -9037410000.0 -9037800000.0 -9038220000.0 -9038760000.0 -9039490000.0 -9040530000.0 -9042520000.0 -9047060000.0 -9056880000.0 -9075340000.0 -9106630000.0 -9160450000.0 -9259980000.0 -9410990000.0 -9591980000.0 -9787590000.0 -9971340000.0 -10229300000.0 -10017600000.0 -13010400000.0 -159935000000.0 -92958700000.0 -92949600000.0 -113796000000.0 -13028800000.0 -9974590000.0 -10133900000.0 -9848410000.0 -9633470000.0 -9440020000.0 -9284390000.0 -9175200000.0 -9113710000.0 -9079620000.0 -9059840000.0 -9049190000.0 -9044050000.0 -9041610000.0 -9040240000.0 -9039290000.0 -9038560000.0 -9038000000.0 -9037520000.0 -9037080000.0 -9036680000.0 -9036370000.0 -9036130000.0 -9035980000.0 -9035880000.0 -9035820000.0 -9035790000.0 -9035770000.0 -9035760000.0 -9035760000.0 -9035750000.0 -9035750000.0 -9035750000.0 -9035750000.0 -9035750000.0 -9035750000.0 -9035750000.0 -9035750000.0 -9035750000.0 -9035750000.0 -9035750000.0 -9035760000.0 -9035760000.0 -9035770000.0 -9035790000.0 -9035820000.0 -9035880000.0 -9035980000.0 -9036130000.0 -9036370000.0 -9036680000.0 -9037080000.0 -9037520000.0 -9038000000.0 -9038560000.0 -9039290000.0 -9040240000.0 -9041610000.0 -9044050000.0 -9049190000.0 -9059840000.0 -9079620000.0 -9113710000.0 -9175200000.0 -9284390000.0 -9440020000.0 -9633470000.0 -9848410000.0 -10133900000.0 -9974590000.0 -13028800000.0 -113796000000.0 -92949600000.0 -92236100000.0 -80580900000.0 -12839700000.0 -9883550000.0 -9971080000.0 -9683280000.0 -9475060000.0 -9310480000.0 -9193200000.0 -9122710000.0 -9084670000.0 -9063260000.0 -9051610000.0 -9045750000.0 -9042790000.0 -9041060000.0 -9039840000.0 -9038930000.0 -9038220000.0 -9037640000.0 -9037140000.0 -9036720000.0 -9036390000.0 -9036150000.0 -9035980000.0 -9035880000.0 -9035820000.0 -9035790000.0 -9035770000.0 -9035760000.0 -9035760000.0 -9035750000.0 -9035750000.0 -9035750000.0 -9035750000.0 -9035750000.0 -9035750000.0 -9035750000.0 -9035750000.0 -9035750000.0 -9035750000.0 -9035750000.0 -9035750000.0 -9035750000.0 -9035760000.0 -9035760000.0 -9035770000.0 -9035790000.0 -9035820000.0 -9035880000.0 -9035980000.0 -9036150000.0 -9036390000.0 -9036720000.0 -9037140000.0 -9037640000.0 -9038220000.0 -9038930000.0 -9039840000.0 -9041060000.0 -9042790000.0 -9045750000.0 -9051610000.0 -9063260000.0 -9084670000.0 -9122710000.0 -9193200000.0 -9310480000.0 -9475060000.0 -9683280000.0 -9971080000.0 -9883550000.0 -12839700000.0 -80580900000.0 -92236100000.0 -89240300000.0 -58311300000.0 -12498300000.0 -9758610000.0 -9776440000.0 -9515950000.0 -9339810000.0 -9213910000.0 -9134330000.0 -9090760000.0 -9067180000.0 -9054330000.0 -9047640000.0 -9044090000.0 -9041940000.0 -9040440000.0 -9039310000.0 -9038450000.0 -9037770000.0 -9037210000.0 -9036760000.0 -9036410000.0 -9036160000.0 -9035990000.0 -9035880000.0 -9035820000.0 -9035790000.0 -9035770000.0 -9035760000.0 -9035760000.0 -9035750000.0 -9035750000.0 -9035750000.0 -9035750000.0 -9035750000.0 -9035750000.0 -9035750000.0 -9035750000.0 -9035750000.0 -9035750000.0 -9035750000.0 -9035750000.0 -9035750000.0 -9035750000.0 -9035750000.0 -9035760000.0 -9035760000.0 -9035770000.0 -9035790000.0 -9035820000.0 -9035880000.0 -9035990000.0 -9036160000.0 -9036410000.0 -9036760000.0 -9037210000.0 -9037770000.0 -9038450000.0 -9039310000.0 -9040440000.0 -9041940000.0 -9044090000.0 -9047640000.0 -9054330000.0 -9067180000.0 -9090760000.0 -9134330000.0 -9213910000.0 -9339810000.0 -9515950000.0 -9776440000.0 -9758610000.0 -12498300000.0 -58311300000.0 -89240300000.0 -84228700000.0 -43147200000.0 -12057000000.0 -9616960000.0 -9586080000.0 -9372710000.0 -9237060000.0 -9148750000.0 -9098350000.0 -9071730000.0 -9057420000.0 -9049750000.0 -9045510000.0 -9042900000.0 -9041070000.0 -9039720000.0 -9038700000.0 -9037910000.0 -9037290000.0 -9036800000.0 -9036430000.0 -9036170000.0 -9036000000.0 -9035890000.0 -9035820000.0 -9035790000.0 -9035770000.0 -9035760000.0 -9035760000.0 -9035750000.0 -9035750000.0 -9035750000.0 -9035750000.0 -9035750000.0 -9035750000.0 -9035750000.0 -9035750000.0 -9035750000.0 -9035750000.0 -9035750000.0 -9035750000.0 -9035750000.0 -9035750000.0 -9035750000.0 -9035750000.0 -9035750000.0 -9035760000.0 -9035760000.0 -9035770000.0 -9035790000.0 -9035820000.0 -9035890000.0 -9036000000.0 -9036170000.0 -9036430000.0 -9036800000.0 -9037290000.0 -9037910000.0 -9038700000.0 -9039720000.0 -9041070000.0 -9042900000.0 -9045510000.0 -9049750000.0 -9057420000.0 -9071730000.0 -9098350000.0 -9148750000.0 -9237060000.0 -9372710000.0 -9586080000.0 -9616960000.0 -12057000000.0 -43147200000.0 -84228700000.0 -77751000000.0 -32317700000.0 -11558100000.0 -9478220000.0 -9424460000.0 -9262510000.0 -9165500000.0 -9107900000.0 -9077110000.0 -9060910000.0 -9052100000.0 -9047090000.0 -9043950000.0 -9041760000.0 -9040160000.0 -9038970000.0 -9038070000.0 -9037380000.0 -9036850000.0 -9036460000.0 -9036190000.0 -9036000000.0 -9035890000.0 -9035830000.0 -9035790000.0 -9035770000.0 -9035760000.0 -9035760000.0 -9035750000.0 -9035750000.0 -9035750000.0 -9035750000.0 -9035750000.0 -9035750000.0 -9035750000.0 -9035750000.0 -9035750000.0 -9035750000.0 -9035750000.0 -9035750000.0 -9035750000.0 -9035750000.0 -9035750000.0 -9035750000.0 -9035750000.0 -9035750000.0 -9035750000.0 -9035760000.0 -9035760000.0 -9035770000.0 -9035790000.0 -9035830000.0 -9035890000.0 -9036000000.0 -9036190000.0 -9036460000.0 -9036850000.0 -9037380000.0 -9038070000.0 -9038970000.0 -9040160000.0 -9041760000.0 -9043950000.0 -9047090000.0 -9052100000.0 -9060910000.0 -9077110000.0 -9107900000.0 -9165500000.0 -9262510000.0 -9424460000.0 -9478220000.0 -11558100000.0 -32317700000.0 -77751000000.0 -70361200000.0 -24440500000.0 -11046000000.0 -9357720000.0 -9299690000.0 -9184160000.0 -9119350000.0 -9083620000.0 -9064900000.0 -9054740000.0 -9048840000.0 -9045090000.0 -9042510000.0 -9040630000.0 -9039250000.0 -9038230000.0 -9037470000.0 -9036900000.0 -9036490000.0 -9036200000.0 -9036010000.0 -9035900000.0 -9035830000.0 -9035790000.0 -9035770000.0 -9035760000.0 -9035760000.0 -9035750000.0 -9035750000.0 -9035750000.0 -9035750000.0 -9035750000.0 -9035750000.0 -9035750000.0 -9035750000.0 -9035750000.0 -9035750000.0 -9035750000.0 -9035750000.0 -9035750000.0 -9035750000.0 -9035750000.0 -9035750000.0 -9035750000.0 -9035750000.0 -9035750000.0 -9035750000.0 -9035750000.0 -9035760000.0 -9035760000.0 -9035770000.0 -9035790000.0 -9035830000.0 -9035900000.0 -9036010000.0 -9036200000.0 -9036490000.0 -9036900000.0 -9037470000.0 -9038230000.0 -9039250000.0 -9040630000.0 -9042510000.0 -9045090000.0 -9048840000.0 -9054740000.0 -9064900000.0 -9083620000.0 -9119350000.0 -9184160000.0 -9299690000.0 -9357720000.0 -11046000000.0 -24440500000.0 -70361200000.0 -62557100000.0 -18810900000.0 -10567800000.0 -9262520000.0 -9209980000.0 -9132430000.0 -9091410000.0 -9069540000.0 -9057710000.0 -9050780000.0 -9046360000.0 -9043320000.0 -9041140000.0 -9039560000.0 -9038410000.0 -9037570000.0 -9036960000.0 -9036520000.0 -9036220000.0 -9036020000.0 -9035900000.0 -9035830000.0 -9035790000.0 -9035770000.0 -9035760000.0 -9035760000.0 -9035750000.0 -9035750000.0 -9035750000.0 -9035750000.0 -9035750000.0 -9035750000.0 -9035750000.0 -9035750000.0 -9035750000.0 -9035750000.0 -9035750000.0 -9035750000.0 -9035750000.0 -9035750000.0 -9035750000.0 -9035750000.0 -9035750000.0 -9035750000.0 -9035750000.0 -9035750000.0 -9035750000.0 -9035750000.0 -9035750000.0 -9035760000.0 -9035760000.0 -9035770000.0 -9035790000.0 -9035830000.0 -9035900000.0 -9036020000.0 -9036220000.0 -9036520000.0 -9036960000.0 -9037570000.0 -9038410000.0 -9039560000.0 -9041140000.0 -9043320000.0 -9046360000.0 -9050780000.0 -9057710000.0 -9069540000.0 -9091410000.0 -9132430000.0 -9209980000.0 -9262520000.0 -10567800000.0 -18810900000.0 -62557100000.0 -54750200000.0 -14941900000.0 -10157800000.0 -9192760000.0 -9149780000.0 -9100430000.0 -9074960000.0 -9061070000.0 -9052940000.0 -9047750000.0 -9044210000.0 -9041700000.0 -9039900000.0 -9038610000.0 -9037680000.0 -9037020000.0 -9036550000.0 -9036240000.0 -9036030000.0 -9035910000.0 -9035830000.0 -9035790000.0 -9035770000.0 -9035760000.0 -9035760000.0 -9035750000.0 -9035750000.0 -9035750000.0 -9035750000.0 -9035750000.0 -9035750000.0 -9035750000.0 -9035750000.0 -9035750000.0 -9035750000.0 -9035750000.0 -9035750000.0 -9035750000.0 -9035750000.0 -9035750000.0 -9035750000.0 -9035750000.0 -9035750000.0 -9035750000.0 -9035750000.0 -9035750000.0 -9035750000.0 -9035750000.0 -9035750000.0 -9035750000.0 -9035760000.0 -9035760000.0 -9035770000.0 -9035790000.0 -9035830000.0 -9035910000.0 -9036030000.0 -9036240000.0 -9036550000.0 -9037020000.0 -9037680000.0 -9038610000.0 -9039900000.0 -9041700000.0 -9044210000.0 -9047750000.0 -9052940000.0 -9061070000.0 -9074960000.0 -9100430000.0 -9149780000.0 -9192760000.0 -10157800000.0 -14941900000.0 -54750200000.0 -47260500000.0 -12413800000.0 -9830300000.0 -9144670000.0 -9111920000.0 -9081230000.0 -9064920000.0 -9055370000.0 -9049300000.0 -9045180000.0 -9042300000.0 -9040260000.0 -9038820000.0 -9037800000.0 -9037080000.0 -9036590000.0 -9036250000.0 -9036040000.0 -9035910000.0 -9035840000.0 -9035790000.0 -9035770000.0 -9035760000.0 -9035760000.0 -9035750000.0 -9035750000.0 -9035750000.0 -9035750000.0 -9035750000.0 -9035750000.0 -9035750000.0 -9035750000.0 -9035750000.0 -9035750000.0 -9035750000.0 -9035750000.0 -9035750000.0 -9035750000.0 -9035750000.0 -9035750000.0 -9035750000.0 -9035750000.0 -9035750000.0 -9035750000.0 -9035750000.0 -9035750000.0 -9035750000.0 -9035750000.0 -9035750000.0 -9035750000.0 -9035750000.0 -9035760000.0 -9035760000.0 -9035770000.0 -9035790000.0 -9035840000.0 -9035910000.0 -9036040000.0 -9036250000.0 -9036590000.0 -9037080000.0 -9037800000.0 -9038820000.0 -9040260000.0 -9042300000.0 -9045180000.0 -9049300000.0 -9055370000.0 -9064920000.0 -9081230000.0 -9111920000.0 -9144670000.0 -9830300000.0 -12413800000.0 -47260500000.0 -40325300000.0 -10852400000.0 -9583000000.0 -9112880000.0 -9088890000.0 -9069320000.0 -9058110000.0 -9051020000.0 -9046260000.0 -9042970000.0 -9040660000.0 -9039050000.0 -9037930000.0 -9037150000.0 -9036630000.0 -9036280000.0 -9036050000.0 -9035920000.0 -9035840000.0 -9035800000.0 -9035770000.0 -9035760000.0 -9035760000.0 -9035750000.0 -9035750000.0 -9035750000.0 -9035750000.0 -9035750000.0 -9035750000.0 -9035750000.0 -9035750000.0 -9035750000.0 -9035750000.0 -9035750000.0 -9035750000.0 -9035750000.0 -9035750000.0 -9035750000.0 -9035750000.0 -9035750000.0 -9035750000.0 -9035750000.0 -9035750000.0 -9035750000.0 -9035750000.0 -9035750000.0 -9035750000.0 -9035750000.0 -9035750000.0 -9035750000.0 -9035750000.0 -9035750000.0 -9035760000.0 -9035760000.0 -9035770000.0 -9035800000.0 -9035840000.0 -9035920000.0 -9036050000.0 -9036280000.0 -9036630000.0 -9037150000.0 -9037930000.0 -9039050000.0 -9040660000.0 -9042970000.0 -9046260000.0 -9051020000.0 -9058110000.0 -9069320000.0 -9088890000.0 -9112880000.0 -9583000000.0 -10852400000.0 -40325300000.0 -34106900000.0 -9946180000.0 -9404760000.0 -9092040000.0 -9074530000.0 -9061210000.0 -9052950000.0 -9047460000.0 -9043700000.0 -9041100000.0 -9039310000.0 -9038070000.0 -9037230000.0 -9036670000.0 -9036300000.0 -9036060000.0 -9035920000.0 -9035840000.0 -9035800000.0 -9035770000.0 -9035760000.0 -9035760000.0 -9035750000.0 -9035750000.0 -9035750000.0 -9035750000.0 -9035750000.0 -9035750000.0 -9035750000.0 -9035750000.0 -9035750000.0 -9035750000.0 -9035750000.0 -9035750000.0 -9035750000.0 -9035750000.0 -9035750000.0 -9035750000.0 -9035750000.0 -9035750000.0 -9035750000.0 -9035750000.0 -9035750000.0 -9035750000.0 -9035750000.0 -9035750000.0 -9035750000.0 -9035750000.0 -9035750000.0 -9035750000.0 -9035750000.0 -9035750000.0 -9035750000.0 -9035760000.0 -9035760000.0 -9035770000.0 -9035800000.0 -9035840000.0 -9035920000.0 -9036060000.0 -9036300000.0 -9036670000.0 -9037230000.0 -9038070000.0 -9039310000.0 -9041100000.0 -9043700000.0 -9047460000.0 -9052950000.0 -9061210000.0 -9074530000.0 -9092040000.0 -9404760000.0 -9946180000.0 -34106900000.0 -28697300000.0 -9456580000.0 -9280960000.0 -9077870000.0 -9064800000.0 -9055120000.0 -9048790000.0 -9044510000.0 -9041590000.0 -9039590000.0 -9038230000.0 -9037320000.0 -9036710000.0 -9036320000.0 -9036080000.0 -9035930000.0 -9035840000.0 -9035800000.0 -9035770000.0 -9035760000.0 -9035760000.0 -9035750000.0 -9035750000.0 -9035750000.0 -9035750000.0 -9035750000.0 -9035750000.0 -9035750000.0 -9035750000.0 -9035750000.0 -9035750000.0 -9035750000.0 -9035750000.0 -9035750000.0 -9035750000.0 -9035750000.0 -9035750000.0 -9035750000.0 -9035750000.0 -9035750000.0 -9035750000.0 -9035750000.0 -9035750000.0 -9035750000.0 -9035750000.0 -9035750000.0 -9035750000.0 -9035750000.0 -9035750000.0 -9035750000.0 -9035750000.0 -9035750000.0 -9035750000.0 -9035750000.0 -9035760000.0 -9035760000.0 -9035770000.0 -9035800000.0 -9035840000.0 -9035930000.0 -9036080000.0 -9036320000.0 -9036710000.0 -9037320000.0 -9038230000.0 -9039590000.0 -9041590000.0 -9044510000.0 -9048790000.0 -9055120000.0 -9064800000.0 -9077870000.0 -9280960000.0 -9456580000.0 -28697300000.0 -24124800000.0 -9213520000.0 -9197200000.0 -9067600000.0 -9057600000.0 -9050290000.0 -9045410000.0 -9042120000.0 -9039900000.0 -9038400000.0 -9037410000.0 -9036770000.0 -9036350000.0 -9036090000.0 -9035940000.0 -9035850000.0 -9035800000.0 -9035770000.0 -9035760000.0 -9035760000.0 -9035750000.0 -9035750000.0 -9035750000.0 -9035750000.0 -9035750000.0 -9035750000.0 -9035750000.0 -9035750000.0 -9035750000.0 -9035750000.0 -9035750000.0 -9035750000.0 -9035750000.0 -9035750000.0 -9035750000.0 -9035750000.0 -9035750000.0 -9035750000.0 -9035750000.0 -9035750000.0 -9035750000.0 -9035750000.0 -9035750000.0 -9035750000.0 -9035750000.0 -9035750000.0 -9035750000.0 -9035750000.0 -9035750000.0 -9035750000.0 -9035750000.0 -9035750000.0 -9035750000.0 -9035750000.0 -9035750000.0 -9035760000.0 -9035760000.0 -9035770000.0 -9035800000.0 -9035850000.0 -9035940000.0 -9036090000.0 -9036350000.0 -9036770000.0 -9037410000.0 -9038400000.0 -9039900000.0 -9042120000.0 -9045410000.0 -9050290000.0 -9057600000.0 -9067600000.0 -9197200000.0 -9213520000.0 -24124800000.0 -20365500000.0 -9104020000.0 -9141380000.0 -9059720000.0 -9051990000.0 -9046420000.0 -9042710000.0 -9040240000.0 -9038600000.0 -9037520000.0 -9036820000.0 -9036380000.0 -9036110000.0 -9035940000.0 -9035850000.0 -9035800000.0 -9035780000.0 -9035760000.0 -9035760000.0 -9035750000.0 -9035750000.0 -9035750000.0 -9035750000.0 -9035750000.0 -9035750000.0 -9035750000.0 -9035750000.0 -9035750000.0 -9035750000.0 -9035750000.0 -9035750000.0 -9035750000.0 -9035750000.0 -9035750000.0 -9035750000.0 -9035750000.0 -9035750000.0 -9035750000.0 -9035750000.0 -9035750000.0 -9035750000.0 -9035750000.0 -9035750000.0 -9035750000.0 -9035750000.0 -9035750000.0 -9035750000.0 -9035750000.0 -9035750000.0 -9035750000.0 -9035750000.0 -9035750000.0 -9035750000.0 -9035750000.0 -9035750000.0 -9035750000.0 -9035760000.0 -9035760000.0 -9035780000.0 -9035800000.0 -9035850000.0 -9035940000.0 -9036110000.0 -9036380000.0 -9036820000.0 -9037520000.0 -9038600000.0 -9040240000.0 -9042710000.0 -9046420000.0 -9051990000.0 -9059720000.0 -9141380000.0 -9104020000.0 -20365500000.0 -17356700000.0 -9059640000.0 -9104430000.0 -9053500000.0 -9047560000.0 -9043370000.0 -9040620000.0 -9038810000.0 -9037640000.0 -9036880000.0 -9036410000.0 -9036120000.0 -9035950000.0 -9035860000.0 -9035800000.0 -9035780000.0 -9035760000.0 -9035760000.0 -9035750000.0 -9035750000.0 -9035750000.0 -9035750000.0 -9035750000.0 -9035750000.0 -9035750000.0 -9035750000.0 -9035750000.0 -9035750000.0 -9035750000.0 -9035750000.0 -9035750000.0 -9035750000.0 -9035750000.0 -9035750000.0 -9035750000.0 -9035750000.0 -9035750000.0 -9035750000.0 -9035750000.0 -9035750000.0 -9035750000.0 -9035750000.0 -9035750000.0 -9035750000.0 -9035750000.0 -9035750000.0 -9035750000.0 -9035750000.0 -9035750000.0 -9035750000.0 -9035750000.0 -9035750000.0 -9035750000.0 -9035750000.0 -9035750000.0 -9035750000.0 -9035750000.0 -9035760000.0 -9035760000.0 -9035780000.0 -9035800000.0 -9035860000.0 -9035950000.0 -9036120000.0 -9036410000.0 -9036880000.0 -9037640000.0 -9038810000.0 -9040620000.0 -9043370000.0 -9047560000.0 -9053500000.0 -9104430000.0 -9059640000.0 -17356700000.0 -15011400000.0 -9043500000.0 -9080060000.0 -9048610000.0 -9044120000.0 -9041040000.0 -9039050000.0 -9037760000.0 -9036950000.0 -9036450000.0 -9036140000.0 -9035960000.0 -9035860000.0 -9035810000.0 -9035780000.0 -9035760000.0 -9035760000.0 -9035750000.0 -9035750000.0 -9035750000.0 -9035750000.0 -9035750000.0 -9035750000.0 -9035750000.0 -9035750000.0 -9035750000.0 -9035750000.0 -9035750000.0 -9035750000.0 -9035750000.0 -9035750000.0 -9035750000.0 -9035750000.0 -9035750000.0 -9035750000.0 -9035750000.0 -9035750000.0 -9035750000.0 -9035750000.0 -9035750000.0 -9035750000.0 -9035750000.0 -9035750000.0 -9035750000.0 -9035750000.0 -9035750000.0 -9035750000.0 -9035750000.0 -9035750000.0 -9035750000.0 -9035750000.0 -9035750000.0 -9035750000.0 -9035750000.0 -9035750000.0 -9035750000.0 -9035750000.0 -9035750000.0 -9035760000.0 -9035760000.0 -9035780000.0 -9035810000.0 -9035860000.0 -9035960000.0 -9036140000.0 -9036450000.0 -9036950000.0 -9037760000.0 -9039050000.0 -9041040000.0 -9044120000.0 -9048610000.0 -9080060000.0 -9043500000.0 -15011400000.0 -13230400000.0 -9038200000.0 -9064060000.0 -9044820000.0 -9041520000.0 -9039310000.0 -9037910000.0 -9037030000.0 -9036490000.0 -9036160000.0 -9035970000.0 -9035870000.0 -9035810000.0 -9035780000.0 -9035760000.0 -9035760000.0 -9035750000.0 -9035750000.0 -9035750000.0 -9035750000.0 -9035750000.0 -9035750000.0 -9035750000.0 -9035750000.0 -9035750000.0 -9035750000.0 -9035750000.0 -9035750000.0 -9035750000.0 -9035750000.0 -9035750000.0 -9035750000.0 -9035750000.0 -9035750000.0 -9035750000.0 -9035750000.0 -9035750000.0 -9035750000.0 -9035750000.0 -9035750000.0 -9035750000.0 -9035750000.0 -9035750000.0 -9035750000.0 -9035750000.0 -9035750000.0 -9035750000.0 -9035750000.0 -9035750000.0 -9035750000.0 -9035750000.0 -9035750000.0 -9035750000.0 -9035750000.0 -9035750000.0 -9035750000.0 -9035750000.0 -9035750000.0 -9035750000.0 -9035760000.0 -9035760000.0 -9035780000.0 -9035810000.0 -9035870000.0 -9035970000.0 -9036160000.0 -9036490000.0 -9037030000.0 -9037910000.0 -9039310000.0 -9041520000.0 -9044820000.0 -9064060000.0 -9038200000.0 -13230400000.0 -11912600000.0 -9036600000.0 -9053620000.0 -9041980000.0 -9039610000.0 -9038070000.0 -9037110000.0 -9036530000.0 -9036180000.0 -9035980000.0 -9035870000.0 -9035810000.0 -9035780000.0 -9035760000.0 -9035760000.0 -9035750000.0 -9035750000.0 -9035750000.0 -9035750000.0 -9035750000.0 -9035750000.0 -9035750000.0 -9035750000.0 -9035750000.0 -9035750000.0 -9035750000.0 -9035750000.0 -9035750000.0 -9035750000.0 -9035750000.0 -9035750000.0 -9035750000.0 -9035750000.0 -9035750000.0 -9035750000.0 -9035750000.0 -9035750000.0 -9035750000.0 -9035750000.0 -9035750000.0 -9035750000.0 -9035750000.0 -9035750000.0 -9035750000.0 -9035750000.0 -9035750000.0 -9035750000.0 -9035750000.0 -9035750000.0 -9035750000.0 -9035750000.0 -9035750000.0 -9035750000.0 -9035750000.0 -9035750000.0 -9035750000.0 -9035750000.0 -9035750000.0 -9035750000.0 -9035750000.0 -9035760000.0 -9035760000.0 -9035780000.0 -9035810000.0 -9035870000.0 -9035980000.0 -9036180000.0 -9036530000.0 -9037110000.0 -9038070000.0 -9039610000.0 -9041980000.0 -9053620000.0 -9036600000.0 -11912600000.0 -10962500000.0 -9036120000.0 -9046870000.0 -9039900000.0 -9038250000.0 -9037210000.0 -9036580000.0 -9036210000.0 -9036000000.0 -9035880000.0 -9035810000.0 -9035780000.0 -9035770000.0 -9035760000.0 -9035750000.0 -9035750000.0 -9035750000.0 -9035750000.0 -9035750000.0 -9035750000.0 -9035750000.0 -9035750000.0 -9035750000.0 -9035750000.0 -9035750000.0 -9035750000.0 -9035750000.0 -9035750000.0 -9035750000.0 -9035750000.0 -9035750000.0 -9035750000.0 -9035750000.0 -9035750000.0 -9035750000.0 -9035750000.0 -9035750000.0 -9035750000.0 -9035750000.0 -9035750000.0 -9035750000.0 -9035750000.0 -9035750000.0 -9035750000.0 -9035750000.0 -9035750000.0 -9035750000.0 -9035750000.0 -9035750000.0 -9035750000.0 -9035750000.0 -9035750000.0 -9035750000.0 -9035750000.0 -9035750000.0 -9035750000.0 -9035750000.0 -9035750000.0 -9035750000.0 -9035750000.0 -9035750000.0 -9035760000.0 -9035770000.0 -9035780000.0 -9035810000.0 -9035880000.0 -9036000000.0 -9036210000.0 -9036580000.0 -9037210000.0 -9038250000.0 -9039900000.0 -9046870000.0 -9036120000.0 -10962500000.0 -10295200000.0 -9035960000.0 -9042560000.0 -9038430000.0 -9037320000.0 -9036640000.0 -9036240000.0 -9036010000.0 -9035880000.0 -9035820000.0 -9035780000.0 -9035770000.0 -9035760000.0 -9035750000.0 -9035750000.0 -9035750000.0 -9035750000.0 -9035750000.0 -9035750000.0 -9035750000.0 -9035750000.0 -9035750000.0 -9035750000.0 -9035750000.0 -9035750000.0 -9035750000.0 -9035750000.0 -9035750000.0 -9035750000.0 -9035750000.0 -9035750000.0 -9035750000.0 -9035750000.0 -9035750000.0 -9035750000.0 -9035750000.0 -9035750000.0 -9035750000.0 -9035750000.0 -9035750000.0 -9035750000.0 -9035750000.0 -9035750000.0 -9035750000.0 -9035750000.0 -9035750000.0 -9035750000.0 -9035750000.0 -9035750000.0 -9035750000.0 -9035750000.0 -9035750000.0 -9035750000.0 -9035750000.0 -9035750000.0 -9035750000.0 -9035750000.0 -9035750000.0 -9035750000.0 -9035750000.0 -9035750000.0 -9035750000.0 -9035760000.0 -9035770000.0 -9035780000.0 -9035820000.0 -9035880000.0 -9036010000.0 -9036240000.0 -9036640000.0 -9037320000.0 -9038430000.0 -9042560000.0 -9035960000.0 -10295200000.0 -9838590000.0 -9035880000.0 -9039840000.0 -9037430000.0 -9036700000.0 -9036270000.0 -9036020000.0 -9035890000.0 -9035820000.0 -9035780000.0 -9035770000.0 -9035760000.0 -9035760000.0 -9035750000.0 -9035750000.0 -9035750000.0 -9035750000.0 -9035750000.0 -9035750000.0 -9035750000.0 -9035750000.0 -9035750000.0 -9035750000.0 -9035750000.0 -9035750000.0 -9035750000.0 -9035750000.0 -9035750000.0 -9035750000.0 -9035750000.0 -9035750000.0 -9035750000.0 -9035750000.0 -9035750000.0 -9035750000.0 -9035750000.0 -9035750000.0 -9035750000.0 -9035750000.0 -9035750000.0 -9035750000.0 -9035750000.0 -9035750000.0 -9035750000.0 -9035750000.0 -9035750000.0 -9035750000.0 -9035750000.0 -9035750000.0 -9035750000.0 -9035750000.0 -9035750000.0 -9035750000.0 -9035750000.0 -9035750000.0 -9035750000.0 -9035750000.0 -9035750000.0 -9035750000.0 -9035750000.0 -9035750000.0 -9035750000.0 -9035760000.0 -9035760000.0 -9035770000.0 -9035780000.0 -9035820000.0 -9035890000.0 -9036020000.0 -9036270000.0 -9036700000.0 -9037430000.0 -9039840000.0 -9035880000.0 -9838590000.0 -9534470000.0 -9035840000.0 -9038150000.0 -9036760000.0 -9036300000.0 -9036040000.0 -9035900000.0 -9035820000.0 -9035790000.0 -9035770000.0 -9035760000.0 -9035760000.0 -9035750000.0 -9035750000.0 -9035750000.0 -9035750000.0 -9035750000.0 -9035750000.0 -9035750000.0 -9035750000.0 -9035750000.0 -9035750000.0 -9035750000.0 -9035750000.0 -9035750000.0 -9035750000.0 -9035750000.0 -9035750000.0 -9035750000.0 -9035750000.0 -9035750000.0 -9035750000.0 -9035750000.0 -9035750000.0 -9035750000.0 -9035750000.0 -9035750000.0 -9035750000.0 -9035750000.0 -9035750000.0 -9035750000.0 -9035750000.0 -9035750000.0 -9035750000.0 -9035750000.0 -9035750000.0 -9035750000.0 -9035750000.0 -9035750000.0 -9035750000.0 -9035750000.0 -9035750000.0 -9035750000.0 -9035750000.0 -9035750000.0 -9035750000.0 -9035750000.0 -9035750000.0 -9035750000.0 -9035750000.0 -9035750000.0 -9035750000.0 -9035750000.0 -9035760000.0 -9035760000.0 -9035770000.0 -9035790000.0 -9035820000.0 -9035900000.0 -9036040000.0 -9036300000.0 -9036760000.0 -9038150000.0 -9035840000.0 -9534470000.0 -9337340000.0 -9035810000.0 -9037130000.0 -9036340000.0 -9036060000.0 -9035910000.0 -9035830000.0 -9035790000.0 -9035770000.0 -9035760000.0 -9035760000.0 -9035750000.0 -9035750000.0 -9035750000.0 -9035750000.0 -9035750000.0 -9035750000.0 -9035750000.0 -9035750000.0 -9035750000.0 -9035750000.0 -9035750000.0 -9035750000.0 -9035750000.0 -9035750000.0 -9035750000.0 -9035750000.0 -9035750000.0 -9035750000.0 -9035750000.0 -9035750000.0 -9035750000.0 -9035750000.0 -9035750000.0 -9035750000.0 -9035750000.0 -9035750000.0 -9035750000.0 -9035750000.0 -9035750000.0 -9035750000.0 -9035750000.0 -9035750000.0 -9035750000.0 -9035750000.0 -9035750000.0 -9035750000.0 -9035750000.0 -9035750000.0 -9035750000.0 -9035750000.0 -9035750000.0 -9035750000.0 -9035750000.0 -9035750000.0 -9035750000.0 -9035750000.0 -9035750000.0 -9035750000.0 -9035750000.0 -9035750000.0 -9035750000.0 -9035750000.0 -9035750000.0 -9035760000.0 -9035760000.0 -9035770000.0 -9035790000.0 -9035830000.0 -9035910000.0 -9036060000.0 -9036340000.0 -9037130000.0 -9035810000.0 -9337340000.0 -9213090000.0 -9035790000.0 -9036520000.0 -9036080000.0 -9035920000.0 -9035830000.0 -9035790000.0 -9035770000.0 -9035760000.0 -9035760000.0 -9035750000.0 -9035750000.0 -9035750000.0 -9035750000.0 -9035750000.0 -9035750000.0 -9035750000.0 -9035750000.0 -9035750000.0 -9035750000.0 -9035750000.0 -9035750000.0 -9035750000.0 -9035750000.0 -9035750000.0 -9035750000.0 -9035750000.0 -9035750000.0 -9035750000.0 -9035750000.0 -9035750000.0 -9035750000.0 -9035750000.0 -9035750000.0 -9035750000.0 -9035750000.0 -9035750000.0 -9035750000.0 -9035750000.0 -9035750000.0 -9035750000.0 -9035750000.0 -9035750000.0 -9035750000.0 -9035750000.0 -9035750000.0 -9035750000.0 -9035750000.0 -9035750000.0 -9035750000.0 -9035750000.0 -9035750000.0 -9035750000.0 -9035750000.0 -9035750000.0 -9035750000.0 -9035750000.0 -9035750000.0 -9035750000.0 -9035750000.0 -9035750000.0 -9035750000.0 -9035750000.0 -9035750000.0 -9035750000.0 -9035760000.0 -9035760000.0 -9035770000.0 -9035790000.0 -9035830000.0 -9035920000.0 -9036080000.0 -9036520000.0 -9035790000.0 -9213090000.0 -9137020000.0 -9035770000.0 -9036170000.0 -9035930000.0 -9035840000.0 -9035790000.0 -9035770000.0 -9035760000.0 -9035760000.0 -9035750000.0 -9035750000.0 -9035750000.0 -9035750000.0 -9035750000.0 -9035750000.0 -9035750000.0 -9035750000.0 -9035750000.0 -9035750000.0 -9035750000.0 -9035750000.0 -9035750000.0 -9035750000.0 -9035750000.0 -9035750000.0 -9035750000.0 -9035750000.0 -9035750000.0 -9035750000.0 -9035750000.0 -9035750000.0 -9035750000.0 -9035750000.0 -9035750000.0 -9035750000.0 -9035750000.0 -9035750000.0 -9035750000.0 -9035750000.0 -9035750000.0 -9035750000.0 -9035750000.0 -9035750000.0 -9035750000.0 -9035750000.0 -9035750000.0 -9035750000.0 -9035750000.0 -9035750000.0 -9035750000.0 -9035750000.0 -9035750000.0 -9035750000.0 -9035750000.0 -9035750000.0 -9035750000.0 -9035750000.0 -9035750000.0 -9035750000.0 -9035750000.0 -9035750000.0 -9035750000.0 -9035750000.0 -9035750000.0 -9035750000.0 -9035750000.0 -9035760000.0 -9035760000.0 -9035770000.0 -9035790000.0 -9035840000.0 -9035930000.0 -9036170000.0 -9035770000.0 -9137020000.0 -9091820000.0 -9035770000.0 -9035970000.0 -9035840000.0 -9035790000.0 -9035770000.0 -9035760000.0 -9035760000.0 -9035750000.0 -9035750000.0 -9035750000.0 -9035750000.0 -9035750000.0 -9035750000.0 -9035750000.0 -9035750000.0 -9035750000.0 -9035750000.0 -9035750000.0 -9035750000.0 -9035750000.0 -9035750000.0 -9035750000.0 -9035750000.0 -9035750000.0 -9035750000.0 -9035750000.0 -9035750000.0 -9035750000.0 -9035750000.0 -9035750000.0 -9035750000.0 -9035750000.0 -9035750000.0 -9035750000.0 -9035750000.0 -9035750000.0 -9035750000.0 -9035750000.0 -9035750000.0 -9035750000.0 -9035750000.0 -9035750000.0 -9035750000.0 -9035750000.0 -9035750000.0 -9035750000.0 -9035750000.0 -9035750000.0 -9035750000.0 -9035750000.0 -9035750000.0 -9035750000.0 -9035750000.0 -9035750000.0 -9035750000.0 -9035750000.0 -9035750000.0 -9035750000.0 -9035750000.0 -9035750000.0 -9035750000.0 -9035750000.0 -9035750000.0 -9035750000.0 -9035750000.0 -9035750000.0 -9035760000.0 -9035760000.0 -9035770000.0 -9035790000.0 -9035840000.0 -9035970000.0 -9035770000.0 -9091820000.0 -9065800000.0 -9035760000.0 -9035860000.0 -9035800000.0 -9035770000.0 -9035760000.0 -9035760000.0 -9035750000.0 -9035750000.0 -9035750000.0 -9035750000.0 -9035750000.0 -9035750000.0 -9035750000.0 -9035750000.0 -9035750000.0 -9035750000.0 -9035750000.0 -9035750000.0 -9035750000.0 -9035750000.0 -9035750000.0 -9035750000.0 -9035750000.0 -9035750000.0 -9035750000.0 -9035750000.0 -9035750000.0 -9035750000.0 -9035750000.0 -9035750000.0 -9035750000.0 -9035750000.0 -9035750000.0 -9035750000.0 -9035750000.0 -9035750000.0 -9035750000.0 -9035750000.0 -9035750000.0 -9035750000.0 -9035750000.0 -9035750000.0 -9035750000.0 -9035750000.0 -9035750000.0 -9035750000.0 -9035750000.0 -9035750000.0 -9035750000.0 -9035750000.0 -9035750000.0 -9035750000.0 -9035750000.0 -9035750000.0 -9035750000.0 -9035750000.0 -9035750000.0 -9035750000.0 -9035750000.0 -9035750000.0 -9035750000.0 -9035750000.0 -9035750000.0 -9035750000.0 -9035750000.0 -9035750000.0 -9035750000.0 -9035760000.0 -9035760000.0 -9035770000.0 -9035800000.0 -9035860000.0 -9035760000.0 -9065800000.0 -9051310000.0 -9035760000.0 -9035810000.0 -9035770000.0 -9035760000.0 -9035760000.0 -9035750000.0 -9035750000.0 -9035750000.0 -9035750000.0 -9035750000.0 -9035750000.0 -9035750000.0 -9035750000.0 -9035750000.0 -9035750000.0 -9035750000.0 -9035750000.0 -9035750000.0 -9035750000.0 -9035750000.0 -9035750000.0 -9035750000.0 -9035750000.0 -9035750000.0 -9035750000.0 -9035750000.0 -9035750000.0 -9035750000.0 -9035750000.0 -9035750000.0 -9035750000.0 -9035750000.0 -9035750000.0 -9035750000.0 -9035750000.0 -9035750000.0 -9035750000.0 -9035750000.0 -9035750000.0 -9035750000.0 -9035750000.0 -9035750000.0 -9035750000.0 -9035750000.0 -9035750000.0 -9035750000.0 -9035750000.0 -9035750000.0 -9035750000.0 -9035750000.0 -9035750000.0 -9035750000.0 -9035750000.0 -9035750000.0 -9035750000.0 -9035750000.0 -9035750000.0 -9035750000.0 -9035750000.0 -9035750000.0 -9035750000.0 -9035750000.0 -9035750000.0 -9035750000.0 -9035750000.0 -9035750000.0 -9035750000.0 -9035750000.0 -9035760000.0 -9035760000.0 -9035770000.0 -9035810000.0 -9035760000.0 -9051310000.0 -9043520000.0 -9035760000.0 -9035780000.0 -9035760000.0 -9035760000.0 -9035750000.0 -9035750000.0 -9035750000.0 -9035750000.0 -9035750000.0 -9035750000.0 -9035750000.0 -9035750000.0 -9035750000.0 -9035750000.0 -9035750000.0 -9035750000.0 -9035750000.0 -9035750000.0 -9035750000.0 -9035750000.0 -9035750000.0 -9035750000.0 -9035750000.0 -9035750000.0 -9035750000.0 -9035750000.0 -9035750000.0 -9035750000.0 -9035750000.0 -9035750000.0 -9035750000.0 -9035750000.0 -9035750000.0 -9035750000.0 -9035750000.0 -9035750000.0 -9035750000.0 -9035750000.0 -9035750000.0 -9035750000.0 -9035750000.0 -9035750000.0 -9035750000.0 -9035750000.0 -9035750000.0 -9035750000.0 -9035750000.0 -9035750000.0 -9035750000.0 -9035750000.0 -9035750000.0 -9035750000.0 -9035750000.0 -9035750000.0 -9035750000.0 -9035750000.0 -9035750000.0 -9035750000.0 -9035750000.0 -9035750000.0 -9035750000.0 -9035750000.0 -9035750000.0 -9035750000.0 -9035750000.0 -9035750000.0 -9035750000.0 -9035750000.0 -9035750000.0 -9035760000.0 -9035760000.0 -9035780000.0 -9035760000.0 -9043520000.0 -9039480000.0 -9035750000.0 -9035760000.0 -9035760000.0 -9035750000.0 -9035750000.0 -9035750000.0 -9035750000.0 -9035750000.0 -9035750000.0 -9035750000.0 -9035750000.0 -9035750000.0 -9035750000.0 -9035750000.0 -9035750000.0 -9035750000.0 -9035750000.0 -9035750000.0 -9035750000.0 -9035750000.0 -9035750000.0 -9035750000.0 -9035750000.0 -9035750000.0 -9035750000.0 -9035750000.0 -9035750000.0 -9035750000.0 -9035750000.0 -9035750000.0 -9035750000.0 -9035750000.0 -9035750000.0 -9035750000.0 -9035750000.0 -9035750000.0 -9035750000.0 -9035750000.0 -9035750000.0 -9035750000.0 -9035750000.0 -9035750000.0 -9035750000.0 -9035750000.0 -9035750000.0 -9035750000.0 -9035750000.0 -9035750000.0 -9035750000.0 -9035750000.0 -9035750000.0 -9035750000.0 -9035750000.0 -9035750000.0 -9035750000.0 -9035750000.0 -9035750000.0 -9035750000.0 -9035750000.0 -9035750000.0 -9035750000.0 -9035750000.0 -9035750000.0 -9035750000.0 -9035750000.0 -9035750000.0 -9035750000.0 -9035750000.0 -9035750000.0 -9035750000.0 -9035760000.0 -9035760000.0 -9035750000.0 -9039480000.0 -9037470000.0 -9035750000.0 -9035760000.0 -9035750000.0 -9035750000.0 -9035750000.0 -9035750000.0 -9035750000.0 -9035750000.0 -9035750000.0 -9035750000.0 -9035750000.0 -9035750000.0 -9035750000.0 -9035750000.0 -9035750000.0 -9035750000.0 -9035750000.0 -9035750000.0 -9035750000.0 -9035750000.0 -9035750000.0 -9035750000.0 -9035750000.0 -9035750000.0 -9035750000.0 -9035750000.0 -9035750000.0 -9035750000.0 -9035750000.0 -9035750000.0 -9035750000.0 -9035750000.0 -9035750000.0 -9035750000.0 -9035750000.0 -9035750000.0 -9035750000.0 -9035750000.0 -9035750000.0 -9035750000.0 -9035750000.0 -9035750000.0 -9035750000.0 -9035750000.0 -9035750000.0 -9035750000.0 -9035750000.0 -9035750000.0 -9035750000.0 -9035750000.0 -9035750000.0 -9035750000.0 -9035750000.0 -9035750000.0 -9035750000.0 -9035750000.0 -9035750000.0 -9035750000.0 -9035750000.0 -9035750000.0 -9035750000.0 -9035750000.0 -9035750000.0 -9035750000.0 -9035750000.0 -9035750000.0 -9035750000.0 -9035750000.0 -9035750000.0 -9035750000.0 -9035750000.0 -9035760000.0 -9035750000.0 -9037470000.0 -9036510000.0 -9035750000.0 -9035750000.0 -9035750000.0 -9035750000.0 -9035750000.0 -9035750000.0 -9035750000.0 -9035750000.0 -9035750000.0 -9035750000.0 -9035750000.0 -9035750000.0 -9035750000.0 -9035750000.0 -9035750000.0 -9035750000.0 -9035750000.0 -9035750000.0 -9035750000.0 -9035750000.0 -9035750000.0 -9035750000.0 -9035750000.0 -9035750000.0 -9035750000.0 -9035750000.0 -9035750000.0 -9035750000.0 -9035750000.0 -9035750000.0 -9035750000.0 -9035750000.0 -9035750000.0 -9035750000.0 -9035750000.0 -9035750000.0 -9035750000.0 -9035750000.0 -9035750000.0 -9035750000.0 -9035750000.0 -9035750000.0 -9035750000.0 -9035750000.0 -9035750000.0 -9035750000.0 -9035750000.0 -9035750000.0 -9035750000.0 -9035750000.0 -9035750000.0 -9035750000.0 -9035750000.0 -9035750000.0 -9035750000.0 -9035750000.0 -9035750000.0 -9035750000.0 -9035750000.0 -9035750000.0 -9035750000.0 -9035750000.0 -9035750000.0 -9035750000.0 -9035750000.0 -9035750000.0 -9035750000.0 -9035750000.0 -9035750000.0 -9035750000.0 -9035750000.0 -9035750000.0 -9035750000.0 -9036510000.0 -9036070000.0 -9035750000.0 -9035750000.0 -9035750000.0 -9035750000.0 -9035750000.0 -9035750000.0 -9035750000.0 -9035750000.0 -9035750000.0 -9035750000.0 -9035750000.0 -9035750000.0 -9035750000.0 -9035750000.0 -9035750000.0 -9035750000.0 -9035750000.0 -9035750000.0 -9035750000.0 -9035750000.0 -9035750000.0 -9035750000.0 -9035750000.0 -9035750000.0 -9035750000.0 -9035750000.0 -9035750000.0 -9035750000.0 -9035750000.0 -9035750000.0 -9035750000.0 -9035750000.0 -9035750000.0 -9035750000.0 -9035750000.0 -9035750000.0 -9035750000.0 -9035750000.0 -9035750000.0 -9035750000.0 -9035750000.0 -9035750000.0 -9035750000.0 -9035750000.0 -9035750000.0 -9035750000.0 -9035750000.0 -9035750000.0 -9035750000.0 -9035750000.0 -9035750000.0 -9035750000.0 -9035750000.0 -9035750000.0 -9035750000.0 -9035750000.0 -9035750000.0 -9035750000.0 -9035750000.0 -9035750000.0 -9035750000.0 -9035750000.0 -9035750000.0 -9035750000.0 -9035750000.0 -9035750000.0 -9035750000.0 -9035750000.0 -9035750000.0 -9035750000.0 -9035750000.0 -9035750000.0 -9035750000.0 -9036070000.0 -9035880000.0 -9035750000.0 -9035750000.0 -9035750000.0 -9035750000.0 -9035750000.0 -9035750000.0 -9035750000.0 -9035750000.0 -9035750000.0 -9035750000.0 -9035750000.0 -9035750000.0 -9035750000.0 -9035750000.0 -9035750000.0 -9035750000.0 -9035750000.0 -9035750000.0 -9035750000.0 -9035750000.0 -9035750000.0 -9035750000.0 -9035750000.0 -9035750000.0 -9035750000.0 -9035750000.0 -9035750000.0 -9035750000.0 -9035750000.0 -9035750000.0 -9035750000.0 -9035750000.0 -9035750000.0 -9035750000.0 -9035750000.0 -9035750000.0 -9035750000.0 -9035750000.0 -9035750000.0 -9035750000.0 -9035750000.0 -9035750000.0 -9035750000.0 -9035750000.0 -9035750000.0 -9035750000.0 -9035750000.0 -9035750000.0 -9035750000.0 -9035750000.0 -9035750000.0 -9035750000.0 -9035750000.0 -9035750000.0 -9035750000.0 -9035750000.0 -9035750000.0 -9035750000.0 -9035750000.0 -9035750000.0 -9035750000.0 -9035750000.0 -9035750000.0 -9035750000.0 -9035750000.0 -9035750000.0 -9035750000.0 -9035750000.0 -9035750000.0 -9035750000.0 -9035750000.0 -9035750000.0 -9035750000.0 -9035880000.0 -9035800000.0 -9035750000.0 -9035750000.0 -9035750000.0 -9035750000.0 -9035750000.0 -9035750000.0 -9035750000.0 -9035750000.0 -9035750000.0 -9035750000.0 -9035750000.0 -9035750000.0 -9035750000.0 -9035750000.0 -9035750000.0 -9035750000.0 -9035750000.0 -9035750000.0 -9035750000.0 -9035750000.0 -9035750000.0 -9035750000.0 -9035750000.0 -9035750000.0 -9035750000.0 -9035750000.0 -9035750000.0 -9035750000.0 -9035750000.0 -9035750000.0 -9035750000.0 -9035750000.0 -9035750000.0 -9035750000.0 -9035750000.0 -9035750000.0 -9035750000.0 -9035750000.0 -9035750000.0 -9035750000.0 -9035750000.0 -9035750000.0 -9035750000.0 -9035750000.0 -9035750000.0 -9035750000.0 -9035750000.0 -9035750000.0 -9035750000.0 -9035750000.0 -9035750000.0 -9035750000.0 -9035750000.0 -9035750000.0 -9035750000.0 -9035750000.0 -9035750000.0 -9035750000.0 -9035750000.0 -9035750000.0 -9035750000.0 -9035750000.0 -9035750000.0 -9035750000.0 -9035750000.0 -9035750000.0 -9035750000.0 -9035750000.0 -9035750000.0 -9035750000.0 -9035750000.0 -9035750000.0 -9035750000.0 -9035800000.0 -9035770000.0 -9035750000.0 -9035750000.0 -9035750000.0 -9035750000.0 -9035750000.0 -9035750000.0 -9035750000.0 -9035750000.0 -9035750000.0 -9035750000.0 -9035750000.0 -9035750000.0 -9035750000.0 -9035750000.0 -9035750000.0 -9035750000.0 -9035750000.0 -9035750000.0 -9035750000.0 -9035750000.0 -9035750000.0 -9035750000.0 -9035750000.0 -9035750000.0 -9035750000.0 -9035750000.0 -9035750000.0 -9035750000.0 -9035750000.0 -9035750000.0 -9035750000.0 -9035750000.0 -9035750000.0 -9035750000.0 -9035750000.0 -9035750000.0 -9035750000.0 -9035750000.0 -9035750000.0 -9035750000.0 -9035750000.0 -9035750000.0 -9035750000.0 -9035750000.0 -9035750000.0 -9035750000.0 -9035750000.0 -9035750000.0 -9035750000.0 -9035750000.0 -9035750000.0 -9035750000.0 -9035750000.0 -9035750000.0 -9035750000.0 -9035750000.0 -9035750000.0 -9035750000.0 -9035750000.0 -9035750000.0 -9035750000.0 -9035750000.0 -9035750000.0 -9035750000.0 -9035750000.0 -9035750000.0 -9035750000.0 -9035750000.0 -9035750000.0 -9035750000.0 -9035750000.0 -9035750000.0 -9035750000.0 -9035770000.0 -9035760000.0 -9035750000.0 -9035750000.0 -9035750000.0 -9035750000.0 -9035750000.0 -9035750000.0 -9035750000.0 -9035750000.0 -9035750000.0 -9035750000.0 -9035750000.0 -9035750000.0 -9035750000.0 -9035750000.0 -9035750000.0 -9035750000.0 -9035750000.0 -9035750000.0 -9035750000.0 -9035750000.0 -9035750000.0 -9035750000.0 -9035750000.0 -9035750000.0 -9035750000.0 -9035750000.0 -9035750000.0 -9035750000.0 -9035750000.0 -9035750000.0 -9035750000.0 -9035750000.0 -9035750000.0 -9035750000.0 -9035750000.0 -9035750000.0 -9035750000.0 -9035750000.0 -9035750000.0 -9035750000.0 -9035750000.0 -9035750000.0 -9035750000.0 -9035750000.0 -9035750000.0 -9035750000.0 -9035750000.0 -9035750000.0 -9035750000.0 -9035750000.0 -9035750000.0 -9035750000.0 -9035750000.0 -9035750000.0 -9035750000.0 -9035750000.0 -9035750000.0 -9035750000.0 -9035750000.0 -9035750000.0 -9035750000.0 -9035750000.0 -9035750000.0 -9035750000.0 -9035750000.0 -9035750000.0 -9035750000.0 -9035750000.0 -9035750000.0 -9035750000.0 -9035750000.0 -9035750000.0 -9035750000.0 -9035760000.0 -9035750000.0 -9035750000.0 -9035750000.0 -9035750000.0 -9035750000.0 -9035750000.0 -9035750000.0 -9035750000.0 -9035750000.0 -9035750000.0 -9035750000.0 -9035750000.0 -9035750000.0 -9035750000.0 -9035750000.0 -9035750000.0 -9035750000.0 -9035750000.0 -9035750000.0 -9035750000.0 -9035750000.0 -9035750000.0 -9035750000.0 -9035750000.0 -9035750000.0 -9035750000.0 -9035750000.0 -9035750000.0 -9035750000.0 -9035750000.0 -9035750000.0 -9035750000.0 -9035750000.0 -9035750000.0 -9035750000.0 -9035750000.0 -9035750000.0 -9035750000.0 -9035750000.0 -9035750000.0 -9035750000.0 -9035750000.0 -9035750000.0 -9035750000.0 -9035750000.0 -9035750000.0 -9035750000.0 -9035750000.0 -9035750000.0 -9035750000.0 -9035750000.0 -9035750000.0 -9035750000.0 -9035750000.0 -9035750000.0 -9035750000.0 -9035750000.0 -9035750000.0 -9035750000.0 -9035750000.0 -9035750000.0 -9035750000.0 -9035750000.0 -9035750000.0 -9035750000.0 -9035750000.0 -9035750000.0 -9035750000.0 -9035750000.0 -9035750000.0 -9035750000.0 -9035750000.0 -9035750000.0 -9035750000.0 -9035750000.0 -9035750000.0 -9035750000.0 -9035750000.0 -9035750000.0 -9035750000.0 -9035750000.0 -9035750000.0 -9035750000.0 -9035750000.0 -9035750000.0 -9035750000.0 -9035750000.0 -9035750000.0 -9035750000.0 -9035750000.0 -9035750000.0 -9035750000.0 -9035750000.0 -9035750000.0 -9035750000.0 -9035750000.0 -9035750000.0 -9035750000.0 -9035750000.0 -9035750000.0 -9035750000.0 -9035750000.0 -9035750000.0 -9035750000.0 -9035750000.0 -9035750000.0 -9035750000.0 -9035750000.0 -9035750000.0 -9035750000.0 -9035750000.0 -9035750000.0 -9035750000.0 -9035750000.0 -9035750000.0 -9035750000.0 -9035750000.0 -9035750000.0 -9035750000.0 -9035750000.0 -9035750000.0 -9035750000.0 -9035750000.0 -9035750000.0 -9035750000.0 -9035750000.0 -9035750000.0 -9035750000.0 -9035750000.0 -9035750000.0 -9035750000.0 -9035750000.0 -9035750000.0 -9035750000.0 -9035750000.0 -9035750000.0 -9035750000.0 -9035750000.0 -9035750000.0 -9035750000.0 -9035750000.0 -9035750000.0 -9035750000.0 -9035750000.0 -9035750000.0 -9035750000.0 -9035750000.0 -9035750000.0 -9035750000.0 -9035750000.0 -9035750000.0 -9035750000.0 -9035750000.0 -9035750000.0 -9035750000.0 -9035750000.0 -9035750000.0 -9035750000.0 -9035750000.0 -9035750000.0 -9035750000.0 -9035750000.0 -9035750000.0 -9035750000.0 -9035750000.0 -9035750000.0 -9035750000.0 -9035750000.0 -9035750000.0 -9035750000.0 -9035750000.0 -9035750000.0 -9035750000.0 -9035750000.0 -9035750000.0 -9035750000.0 -9035750000.0 -9035750000.0 -9035750000.0 -9035750000.0 -9035750000.0 -9035750000.0 -9035750000.0 -9035750000.0 -9035750000.0 -9035750000.0 -9035750000.0 -9035750000.0 -9035750000.0 -9035750000.0 -9035750000.0 -9035750000.0 -9035750000.0 -9035750000.0 -9035750000.0 -9035750000.0 -9035750000.0 -9035750000.0 -9035750000.0 -9035750000.0 -9035750000.0 -9035750000.0 -9035750000.0 -9035750000.0 -9035750000.0 -9035750000.0 -9035750000.0 -9035750000.0 -9035750000.0 -9035750000.0 -9035750000.0 -9035750000.0 -9035750000.0 -9035750000.0 -9035750000.0 -9035750000.0 -9035750000.0 -9035750000.0 -9035750000.0 -9035750000.0 -9035750000.0 -9035750000.0 -9035750000.0 -9035750000.0 -9035750000.0 -9035750000.0 -9035750000.0 -9035750000.0 -9035750000.0 -9035750000.0 -9035750000.0 -9035750000.0 -9035750000.0 -9035750000.0 -9035750000.0 -9035750000.0 -9035750000.0 -9035750000.0 -9035750000.0 -9035750000.0 -9035750000.0 -9035750000.0 -9035750000.0 -9035750000.0 -9035750000.0 -9035750000.0 -9035750000.0 -9035750000.0 -9035750000.0 -9035750000.0 -9035750000.0 -9035750000.0 -9035750000.0 -9035750000.0 -9035750000.0 -9035750000.0 -9035750000.0 -9035750000.0 -9035750000.0 -9035750000.0 -9035750000.0 -9035750000.0 -9035750000.0 -9035750000.0 -9035750000.0 -9035750000.0 -9035750000.0 -9035750000.0 -9035750000.0 -9035750000.0 -9035750000.0 -9035750000.0 -9035750000.0 -9035750000.0 -9035750000.0 -9035750000.0 -9035750000.0 -9035750000.0 -9035750000.0 -9035750000.0 -9035750000.0 -9035750000.0 -9035750000.0 -9035750000.0 -9035750000.0 -9035750000.0 -9035750000.0 -9035750000.0 -9035750000.0 -9035750000.0 -9035750000.0 -9035750000.0 -9035750000.0 -9035750000.0 -9035750000.0 -9035750000.0 -9035750000.0 -9035750000.0 -9035750000.0 -9035750000.0 -9035750000.0 -9035750000.0 -9035750000.0 -9035750000.0 -9035750000.0 -9035750000.0 -9035750000.0 -9035750000.0 -9035750000.0 -9035750000.0 -9035750000.0 -9035750000.0 -9035750000.0 -9035750000.0 -9035750000.0 -9035750000.0 -9035750000.0 -9035750000.0 -9035750000.0 -9035750000.0 -9035750000.0 -9035750000.0 -9035750000.0 -9035750000.0 -9035750000.0 -9035750000.0 -9035750000.0 -9035750000.0 -9035750000.0 -9035750000.0 -9035750000.0 -9035750000.0 -9035750000.0 -9035750000.0 -9035750000.0 -9035750000.0 -9035750000.0 -9035750000.0 -9035750000.0 -9035750000.0 -9035750000.0 -9035750000.0 -9035750000.0 -9035750000.0 -9035750000.0 -9035750000.0 -9035750000.0 -9035750000.0 -9035750000.0 -9035750000.0 -9035750000.0 -9035750000.0 -9035750000.0 -9035750000.0 -9035750000.0 -9035750000.0 -9035750000.0 -9035750000.0 -9035750000.0 -9035750000.0 -9035750000.0 -9035750000.0 -9035750000.0 -9035750000.0 -9035750000.0 -9035750000.0 -9035750000.0 -9035750000.0 -9035750000.0 -9035750000.0 -9035750000.0 -9035750000.0 -9035750000.0 -9035750000.0 -9035750000.0 -9035750000.0 -9035750000.0 -9035750000.0 -9035750000.0 -9035750000.0 -9035750000.0 -9035750000.0 -9035750000.0 -9035750000.0 -9035750000.0 -9035750000.0 -9035750000.0 -9035750000.0 -9035750000.0 -9035750000.0 -9035750000.0 -9035750000.0 -9035750000.0 -9035750000.0 -9035750000.0 -9035750000.0 -9035750000.0 -9035750000.0 -9035750000.0 -9035750000.0 -9035750000.0 -9035750000.0 -9035750000.0 -9035750000.0 -9035750000.0 -9035750000.0 -9035750000.0 -9035750000.0 -9035750000.0 -9035750000.0 -9035750000.0 -9035750000.0 -9035750000.0 -9035750000.0 -9035750000.0 -9035750000.0 -9035750000.0 -9035750000.0 -9035750000.0 -9035750000.0 -9035750000.0 -9035750000.0 -9035750000.0 -9035750000.0 -9035750000.0 -9035750000.0 -9035750000.0 -9035750000.0 -9035750000.0 -9035750000.0 -9035750000.0 -9035750000.0 -9035750000.0 -9035750000.0 -9035750000.0 -9035750000.0 -9035750000.0 -9035750000.0 -9035750000.0 -9035750000.0 -9035750000.0 -9035750000.0 -9035750000.0 -9035750000.0 -9035750000.0 -9035750000.0 -9035750000.0 -9035750000.0 -9035750000.0 -9035750000.0 -9035750000.0 -9035750000.0 -9035750000.0 -9035750000.0 -9035750000.0 -9035750000.0 -9035750000.0 -9035750000.0 -9035750000.0 -9035750000.0 -9035750000.0 -9035750000.0 -9035750000.0 -9035750000.0 -9035750000.0 -9035750000.0 -9035750000.0 -9035750000.0 -9035750000.0 -9035750000.0 -9035750000.0 -9035750000.0 -9035750000.0 -9035750000.0 -9035750000.0 -9035750000.0 -9035750000.0 -9035750000.0 -9035750000.0 -9035750000.0 -9035750000.0 -9035750000.0 -9035750000.0 -9035750000.0 -9035750000.0 -9035750000.0 -9035750000.0 -9035750000.0 -9035750000.0 -9035750000.0 -9035750000.0 -9035750000.0 -9035750000.0 -9035750000.0 -9035750000.0 -9035750000.0 -9035750000.0 -9035750000.0 -9035750000.0 -9035750000.0 -9035750000.0 -9035750000.0 -9035750000.0 -9035750000.0 -9035750000.0 -9035750000.0 -9035750000.0 -9035750000.0 -9035750000.0 -9035750000.0 -9035750000.0 -9035750000.0 -9035750000.0 -9035750000.0 -9035750000.0 -9035750000.0 -9035750000.0 -9035750000.0 -9035750000.0 -9035750000.0 -9035750000.0 -9035750000.0 -9035750000.0 -9035750000.0 -9035750000.0 -9035750000.0 -9035750000.0 -9035750000.0 -9035750000.0 -9035750000.0 -9035750000.0 -9035750000.0 -9035750000.0 -9035750000.0 -9035750000.0 -9035750000.0 -9035750000.0 -9035750000.0 -9035750000.0 -9035750000.0 -9035750000.0 -9035750000.0 -9035750000.0 -9035750000.0 -9035750000.0 -9035750000.0 -9035750000.0 -9035750000.0 -9035750000.0 -9035750000.0 -9035750000.0 -9035750000.0 -9035750000.0 -9035750000.0 -9035750000.0 -9035750000.0 -9035750000.0 -9035750000.0 -9035750000.0 -9035750000.0 -9035750000.0 -9035750000.0 -9035750000.0 -9035750000.0 -9035750000.0 -9035750000.0 -9035750000.0 -9035750000.0 -9035750000.0 -9035750000.0 -9035750000.0 -9035750000.0 -9035750000.0 -9035750000.0 -9035750000.0 -9035750000.0 -9035750000.0 -9035750000.0 -9035750000.0 -9035750000.0 -9035750000.0 -9035750000.0 -9035750000.0 -9035750000.0 -9035750000.0 -9035750000.0 -9035750000.0 -9035750000.0 -9035750000.0 -9035750000.0 -9035750000.0 -9035750000.0 -9035750000.0 -9035750000.0 -9035750000.0 -9035750000.0 -9035750000.0 -9035750000.0 -9035750000.0 -9035750000.0 -9035750000.0 -9035750000.0 -9035750000.0 -9035750000.0 -9035750000.0 -9035750000.0 -9035750000.0 -9035750000.0 -9035750000.0 -9035750000.0 -9035750000.0 -9035750000.0 -9035750000.0 -9035750000.0 -9035750000.0 -9035750000.0 -9035750000.0 -9035750000.0 -9035750000.0 -9035750000.0 -9035750000.0 -9035750000.0 -9035750000.0 -9035750000.0 -9035750000.0 -9035750000.0 -9035750000.0 -9035750000.0 -9035750000.0 -9035750000.0 -9035750000.0 -9035750000.0 -9035750000.0 -9035750000.0 -9035750000.0 -9035750000.0 -9035750000.0 -9035750000.0 -9035750000.0 -9035750000.0 -9035750000.0 -9035750000.0 -9035750000.0 -9035750000.0 -9035750000.0 -9035750000.0 -9035750000.0 -9035750000.0 -9035750000.0 -9035750000.0 -9035750000.0 -9035750000.0 -9035750000.0 -9035750000.0 -9035750000.0 -9035750000.0 -9035750000.0 -9035750000.0 -9035750000.0 -9035750000.0 -9035750000.0 -9035750000.0 -9035750000.0 -9035750000.0 -9035750000.0 -9035750000.0 -9035750000.0 -9035750000.0 -9035750000.0 -9035750000.0 -9035750000.0 -9035750000.0 -9035750000.0 -9035750000.0 -9035750000.0 -9035750000.0 -9035750000.0 -9035750000.0 -9035750000.0 -9035750000.0 -9035750000.0 -9035750000.0 -9035750000.0 -9035750000.0 -9035750000.0 -9035750000.0 -9035750000.0 -9035750000.0 -9035750000.0 -9035750000.0 -9035750000.0 -9035750000.0 -9035750000.0 -9035750000.0 -9035750000.0 -9035750000.0 -9035750000.0 -9035750000.0 -9035750000.0 -9035750000.0 -9035750000.0 -9035750000.0 -9035750000.0 -9035750000.0 -9035750000.0 -9035750000.0 -9035750000.0 -9035750000.0 -9035750000.0 -9035750000.0 -9035750000.0 -9035750000.0 -9035750000.0 -9035750000.0 -9035750000.0 -9035750000.0 -9035750000.0 -9035750000.0 -9035750000.0 -9035750000.0 -9035750000.0 -9035750000.0 -9035750000.0 -9035750000.0 -9035750000.0 -9035750000.0 -9035750000.0 -9035750000.0 -9035750000.0 -9035750000.0 -9035750000.0 -9035750000.0 -9035750000.0 -9035750000.0 -9035750000.0 -9035750000.0 -9035750000.0 -9035750000.0 -9035750000.0 -9035750000.0 -9035750000.0 -9035750000.0 -9035750000.0 -9035750000.0 -9035750000.0 -9035750000.0 -9035750000.0 -9035750000.0 -9035750000.0 -9035750000.0 -9035750000.0 -9035750000.0 -9035750000.0 -9035750000.0 -9035750000.0 -9035750000.0 -9035750000.0 -9035750000.0 -9035750000.0 -9035750000.0 -9035750000.0 -9035750000.0 -9035750000.0 -9035750000.0 -9035750000.0 -9035750000.0 -9035750000.0 -9035750000.0 -9035750000.0 -9035750000.0 -9035750000.0 -9035750000.0 -9035750000.0 -9035750000.0 -9035750000.0 -9035750000.0 -9035750000.0 -9035750000.0 -9035750000.0 -9035750000.0 -9035750000.0 -9035750000.0 -9035750000.0 -9035750000.0 -9035750000.0 -9035750000.0 -9035750000.0 -9035750000.0 -9035750000.0 -9035750000.0 -9035750000.0 -9035750000.0 -9035750000.0 -9035750000.0 -9035750000.0 -9035750000.0 -9035750000.0 -9035750000.0 -9035750000.0 -9035750000.0 -9035750000.0 -9035750000.0 -9035750000.0 -9035750000.0 -9035750000.0 -9035750000.0 -9035750000.0 -9035750000.0 -9035750000.0 -9035750000.0 -9035750000.0 -9035750000.0 -9035750000.0 -9035750000.0 -9035750000.0 -9035750000.0 -9035750000.0 -9035750000.0 -9035750000.0 -9035750000.0 -9035750000.0 -9035750000.0 -9035750000.0 -9035750000.0 -9035750000.0 -9035750000.0 -9035750000.0 -9035750000.0 -9035750000.0 -9035750000.0 -9035750000.0 -9035750000.0 -9035750000.0 -9035750000.0 -9035750000.0 -9035750000.0 -9035750000.0 -9035750000.0 -9035750000.0 -9035750000.0 -9035750000.0 -9035750000.0 -9035750000.0 -9035750000.0 -9035750000.0 -9035750000.0 -9035750000.0 -9035750000.0 -9035750000.0 -9035750000.0 -9035750000.0 -9035750000.0 -9035750000.0 -9035750000.0 -9035750000.0 -9035750000.0 -9035750000.0 -9035750000.0 -9035750000.0 -9035750000.0 -9035750000.0 -9035750000.0 -9035750000.0 -9035750000.0 -9035750000.0 -9035750000.0 -9035750000.0 -9035750000.0 -9035750000.0 -9035750000.0 -9035750000.0 -9035750000.0 -9035750000.0 -9035750000.0 -9035750000.0 -9035750000.0 -9035750000.0 -9035750000.0 -9035750000.0 -9035750000.0 -9035750000.0 -9035750000.0 -9035750000.0 -9035750000.0 -9035750000.0 -9035750000.0 -9035750000.0 -9035750000.0 -9035750000.0 -9035750000.0 -9035750000.0 -9035750000.0 -9035750000.0 -9035750000.0 -9035750000.0 -9035750000.0 -9035750000.0 -9035750000.0 -9035750000.0 -9035750000.0 -9035750000.0 -9035750000.0 -9035750000.0 -9035750000.0 -9035750000.0 -9035750000.0 -9035750000.0 -9035750000.0 -9035750000.0 -9035750000.0 -9035750000.0 -9035750000.0 -9035750000.0 -9035750000.0 -9035750000.0 -9035750000.0 -9035750000.0 -9035750000.0 -9035750000.0 -9035750000.0 -9035750000.0 -9035750000.0 -9035750000.0 -9035750000.0 -9035750000.0 -9035750000.0 -9035750000.0 -9035750000.0 -9035750000.0 -9035750000.0 -9035750000.0 -9035750000.0 -9035750000.0 -9035750000.0 -9035750000.0 -9035750000.0 -9035750000.0 -9035750000.0 -9035750000.0 -9035750000.0 -9035750000.0 -9035750000.0 -9035750000.0 -9035750000.0 -9035750000.0 -9035750000.0 -9035750000.0 -9035750000.0 -9035750000.0 -9035750000.0 -9035750000.0 -9035750000.0 -9035750000.0 -9035750000.0 -9035750000.0 -9035750000.0 -9035750000.0 -9035750000.0 -9035750000.0 -9035750000.0 -9035750000.0 -9035750000.0 -9035750000.0 -9035750000.0 -9035750000.0 -9035750000.0 -9035750000.0 -9035750000.0 -9035750000.0 -9035750000.0 -9035750000.0 -9035750000.0 -9035750000.0 -9035750000.0 -9035750000.0 -9035750000.0 -9035750000.0 -9035750000.0 -9035750000.0 -9035750000.0 -9035750000.0 -9035750000.0 -9035750000.0 -9035750000.0 -9035750000.0 -9035750000.0 -9035750000.0 -9035750000.0 -9035750000.0 -9035750000.0 -9035750000.0 -9035750000.0 -9035750000.0 -9035750000.0 -9035750000.0 -9035750000.0 -9035750000.0 -9035750000.0 -9035750000.0 -9035750000.0 -9035750000.0 -9035750000.0 -9035750000.0 -9035750000.0 -9035750000.0 -9035750000.0 -9035750000.0 -9035750000.0 -9035750000.0 -9035750000.0 -9035750000.0 -9035750000.0 -9035750000.0 -9035750000.0 -9035750000.0 -9035750000.0 -9035750000.0 -9035750000.0 -9035750000.0 -9035750000.0 -9035750000.0 -9035750000.0 -9035750000.0 -9035750000.0 -9035750000.0 -9035750000.0 -9035750000.0 -9035750000.0 -9035750000.0 -9035750000.0 -9035750000.0 -9035750000.0 -9035750000.0 -9035750000.0 -9035750000.0 -9035750000.0 -9035750000.0 -9035750000.0 -9035750000.0 -9035750000.0 -9035750000.0 -9035750000.0 -9035750000.0 -9035750000.0 -9035750000.0 -9035750000.0 -9035750000.0 -9035750000.0 -9035750000.0 -9035750000.0 -9035750000.0 -9035750000.0 -9035750000.0 -9035750000.0 -9035750000.0 -9035750000.0 -9035750000.0 -9035750000.0 -9035750000.0 -9035750000.0 -9035750000.0 -9035750000.0 -9035750000.0 -9035750000.0 -9035750000.0 -9035750000.0 -9035750000.0 -9035750000.0 -9035750000.0 -9035750000.0 -9035750000.0 -9035750000.0 -9035750000.0 -9035750000.0 -9035750000.0 -9035750000.0 -9035750000.0 -9035750000.0 -9035750000.0 -9035750000.0 -9035750000.0 -9035750000.0 -9035750000.0 -9035750000.0 -9035750000.0 -9035750000.0 -9035750000.0 -9035750000.0 -9035750000.0 -9035750000.0 -9035750000.0 -9035750000.0 -9035750000.0 -9035750000.0 -9035750000.0 -9035750000.0 -9035750000.0 -9035750000.0 -9035750000.0 -9035750000.0 -9035750000.0 -9035750000.0 -9035750000.0 -9035750000.0 -9035750000.0 -9035750000.0 -9035750000.0 -9035750000.0 -9035750000.0 -9035750000.0 -9035750000.0 -9035750000.0 -9035750000.0 -9035750000.0 -9035750000.0 -9035750000.0 -9035750000.0 -9035750000.0 -9035750000.0 -9035750000.0 -9035750000.0 -9035750000.0 -9035750000.0 -9035750000.0 -9035750000.0 -9035750000.0 -9035750000.0 -9035750000.0 -9035750000.0 -9035750000.0 -9035750000.0 -9035750000.0 -9035750000.0 -9035750000.0 -9035750000.0 -9035750000.0 -9035750000.0 -9035750000.0 -9035750000.0 -9035750000.0 -9035750000.0 -9035750000.0 -9035750000.0 -9035750000.0 -9035750000.0 -9035750000.0 -9035750000.0 -9035750000.0 -9035750000.0 -9035750000.0 -9035750000.0 -9035750000.0 -9035750000.0 -9035750000.0 -9035750000.0 -9035750000.0 -9035750000.0 -9035750000.0 -9035750000.0 -9035750000.0 -9035750000.0 -9035750000.0 -9035750000.0 -9035750000.0 -9035750000.0 -9035750000.0 -9035750000.0 -9035750000.0 -9035750000.0 -9035750000.0 -9035750000.0 -9035750000.0 -9035750000.0 -9035750000.0 -9035750000.0 -9035750000.0 -9035750000.0 -9035750000.0 -9035750000.0 -9035750000.0 -9035750000.0 -9035750000.0 -9035750000.0 -9035750000.0 -9035750000.0 -9035750000.0 -9035750000.0 -9035750000.0 -9035750000.0 -9035750000.0 -9035750000.0 -9035750000.0 -9035750000.0 -9035750000.0 -9035750000.0 -9035750000.0 -9035750000.0 -9035750000.0 -9035750000.0 -9035750000.0 -9035750000.0 -9035750000.0 -9035750000.0 -9035750000.0 -9035750000.0 -9035750000.0 -9035750000.0 -9035750000.0 -9035750000.0 -9035750000.0 -9035750000.0 -9035750000.0 -9035750000.0 -9035750000.0 -9035750000.0 -9035750000.0 -9035750000.0 -9035750000.0 -9035750000.0 -9035750000.0 -9035750000.0 -9035750000.0 -9035750000.0 -9035750000.0 -9035750000.0 -9035750000.0 -9035750000.0 -9035750000.0 -9035750000.0 -9035750000.0 -9035750000.0 -9035750000.0 -9035750000.0 -9035750000.0 -9035750000.0 -9035750000.0 -9035750000.0 -9035750000.0 -9035750000.0 -9035750000.0 -9035750000.0 -9035750000.0 -9035750000.0 -9035750000.0 -9035750000.0 -9035750000.0 -9035750000.0 -9035750000.0 -9035750000.0 -9035750000.0 -9035750000.0 -9035750000.0 -9035750000.0 -9035750000.0 -9035750000.0 -9035750000.0 -9035750000.0 -9035750000.0 -9035750000.0 -9035750000.0 -9035750000.0 -9035750000.0 -9035750000.0 -9035750000.0 -9035750000.0 -9035750000.0 -9035750000.0 -9035750000.0 -9035750000.0 -9035750000.0 -9035750000.0 -9035750000.0 -9035750000.0 -9035750000.0 -9035750000.0 
SCALARS Shear_Stress float 1
LOOKUP_TABLE default
103605000000.0 156569000000.0 321747000000.0 299691000000.0 260237000000.0 222915000000.0 192753000000.0 164611000000.0 137062000000.0 116171000000.0 104083000000.0 97591600000.0 91406700000.0 83947300000.0 76302600000.0 68343000000.0 59768700000.0 51151500000.0 43377600000.0 36698200000.0 30832100000.0 25459200000.0 20442800000.0 15788700000.0 11550500000.0 7772690000.0 4474280000.0 1652590000.0 714802000.0 2663870000.0 4238010000.0 5483500000.0 6446800000.0 7171200000.0 7693750000.0 8044110000.0 8244630000.0 8309790000.0 8244630000.0 8044110000.0 7693750000.0 7171200000.0 6446800000.0 5483500000.0 4238010000.0 2663870000.0 714802000.0 1652590000.0 4474280000.0 7772690000.0 11550500000.0 15788700000.0 20442800000.0 25459200000.0 30832100000.0 36698200000.0 43377600000.0 51151500000.0 59768700000.0 68343000000.0 76302600000.0 83947300000.0 91406700000.0 97591600000.0 104083000000.0 116171000000.0 137062000000.0 164611000000.0 192753000000.0 222915000000.0 260237000000.0 299691000000.0 321747000000.0 156569000000.0 103605000000.0 56346300000.0 407361000000.0 301063000000.0 299406000000.0 278396000000.0 253297000000.0 229537000000.0 206098000000.0 180138000000.0 152421000000.0 125051000000.0 99635600000.0 77024200000.0 57809300000.0 41782700000.0 28435400000.0 17738300000.0 9525370000.0 3320020000.0 1352820000.0 4711480000.0 6881540000.0 8096330000.0 8678490000.0 8917560000.0 9002240000.0 9028480000.0 9035210000.0 9036470000.0 9036460000.0 9036250000.0 9036070000.0 9035940000.0 9035850000.0 9035800000.0 9035770000.0 9035760000.0 9035750000.0 9035760000.0 9035770000.0 9035800000.0 9035850000.0 9035940000.0 9036070000.0 9036250000.0 9036460000.0 9036470000.0 9035210000.0 9028480000.0 9002240000.0 8917560000.0 8678490000.0 8096330000.0 6881540000.0 4711480000.0 1352820000.0 3320020000.0 9525370000.0 17738300000.0 28435400000.0 41782700000.0 57809300000.0 77024200000.0 99635600000.0 125051000000.0 152421000000.0 180138000000.0 206098000000.0 229537000000.0 253297000000.0 278396000000.0 299406000000.0 301063000000.0 407361000000.0 56346300000.0 118815000000.0 459733000000.0 15134300000.0 6242670000.0 3716920000.0 1631630000.0 96997700.0 1408910000.0 2567390000.0 3622480000.0 4315760000.0 4387570000.0 3989710000.0 3310780000.0 2344700000.0 1242700000.0 46834300.0 1206200000.0 2459780000.0 3649460000.0 4725550000.0 5663830000.0 6458950000.0 7115840000.0 7644680000.0 8058590000.0 8372030000.0 8600840000.0 8761550000.0 8870120000.0 8940540000.0 8984110000.0 9009550000.0 9023390000.0 9030350000.0 9033550000.0 9034850000.0 9035190000.0 9034850000.0 9033550000.0 9030350000.0 9023390000.0 9009550000.0 8984110000.0 8940540000.0 8870120000.0 8761550000.0 8600840000.0 8372030000.0 8058590000.0 7644680000.0 7115840000.0 6458950000.0 5663830000.0 4725550000.0 3649460000.0 2459780000.0 1206200000.0 46834300.0 1242700000.0 2344700000.0 3310780000.0 3989710000.0 4387570000.0 4315760000.0 3622480000.0 2567390000.0 1408910000.0 96997700.0 1631630000.0 3716920000.0 6242670000.0 15134300000.0 459733000000.0 118815000000.0 308125000000.0 499005000000.0 10778200000.0 9553970000.0 9651920000.0 9548560000.0 9521050000.0 9602960000.0 9743330000.0 9755320000.0 9656800000.0 9496320000.0 9299650000.0 9186560000.0 9128020000.0 9088760000.0 9063670000.0 9048660000.0 9040890000.0 9037830000.0 9037080000.0 9036910000.0 9036850000.0 9036950000.0 9037120000.0 9037080000.0 9036830000.0 9036540000.0 9036280000.0 9036090000.0 9035950000.0 9035860000.0 9035810000.0 9035780000.0 9035770000.0 9035760000.0 9035750000.0 9035750000.0 9035750000.0 9035760000.0 9035770000.0 9035780000.0 9035810000.0 9035860000.0 9035950000.0 9036090000.0 9036280000.0 9036540000.0 9036830000.0 9037080000.0 9037120000.0 9036950000.0 9036850000.0 9036910000.0 9037080000.0 9037830000.0 9040890000.0 9048660000.0 9063670000.0 9088760000.0 9128020000.0 9186560000.0 9299650000.0 9496320000.0 9656800000.0 9755320000.0 9743330000.0 9602960000.0 9521050000.0 9548560000.0 9651920000.0 9553970000.0 10778200000.0 499005000000.0 308125000000.0 214186000000.0 382719000000.0 6986230000.0 6525390000.0 7568450000.0 7794120000.0 7935310000.0 8125590000.0 8319980000.0 8408630000.0 8434370000.0 8459060000.0 8510620000.0 8570220000.0 8647660000.0 8761120000.0 8877380000.0 8961450000.0 9007520000.0 9027580000.0 9034630000.0 9036610000.0 9037110000.0 9037240000.0 9037140000.0 9036870000.0 9036560000.0 9036300000.0 9036090000.0 9035950000.0 9035860000.0 9035810000.0 9035780000.0 9035770000.0 9035760000.0 9035750000.0 9035750000.0 9035750000.0 9035750000.0 9035750000.0 9035760000.0 9035770000.0 9035780000.0 9035810000.0 9035860000.0 9035950000.0 9036090000.0 9036300000.0 9036560000.0 9036870000.0 9037140000.0 9037240000.0 9037110000.0 9036610000.0 9034630000.0 9027580000.0 9007520000.0 8961450000.0 8877380000.0 8761120000.0 8647660000.0 8570220000.0 8510620000.0 8459060000.0 8434370000.0 8408630000.0 8319980000.0 8125590000.0 7935310000.0 7794120000.0 7568450000.0 6525390000.0 6986230000.0 382719000000.0 214186000000.0 137458000000.0 291536000000.0 12217400000.0 9908140000.0 10126100000.0 9944550000.0 9897760000.0 9831390000.0 9700640000.0 9535400000.0 9358530000.0 9216570000.0 9139960000.0 9096200000.0 9068570000.0 9052120000.0 9043540000.0 9039910000.0 9038650000.0 9038120000.0 9037780000.0 9037560000.0 9037430000.0 9037230000.0 9036920000.0 9036590000.0 9036310000.0 9036100000.0 9035960000.0 9035870000.0 9035810000.0 9035780000.0 9035770000.0 9035760000.0 9035760000.0 9035750000.0 9035750000.0 9035750000.0 9035750000.0 9035750000.0 9035760000.0 9035760000.0 9035770000.0 9035780000.0 9035810000.0 9035870000.0 9035960000.0 9036100000.0 9036310000.0 9036590000.0 9036920000.0 9037230000.0 9037430000.0 9037560000.0 9037780000.0 9038120000.0 9038650000.0 9039910000.0 9043540000.0 9052120000.0 9068570000.0 9096200000.0 9139960000.0 9216570000.0 9358530000.0 9535400000.0 9700640000.0 9831390000.0 9897760000.0 9944550000.0 10126100000.0 9908140000.0 12217400000.0 291536000000.0 137458000000.0 100698000000.0 217916000000.0 12747100000.0 9998770000.0 10229000000.0 10012100000.0 9892840000.0 9738120000.0 9559870000.0 9384870000.0 9237160000.0 9148810000.0 9100930000.0 9071690000.0 9054320000.0 9045180000.0 9041150000.0 9039550000.0 9038780000.0 9038260000.0 9037880000.0 9037610000.0 9037310000.0 9036970000.0 9036620000.0 9036330000.0 9036110000.0 9035960000.0 9035870000.0 9035810000.0 9035780000.0 9035770000.0 9035760000.0 9035760000.0 9035750000.0 9035750000.0 9035750000.0 9035750000.0 9035750000.0 9035750000.0 9035750000.0 9035760000.0 9035760000.0 9035770000.0 9035780000.0 9035810000.0 9035870000.0 9035960000.0 9036110000.0 9036330000.0 9036620000.0 9036970000.0 9037310000.0 9037610000.0 9037880000.0 9038260000.0 9038780000.0 9039550000.0 9041150000.0 9045180000.0 9054320000.0 9071690000.0 9100930000.0 9148810000.0 9237160000.0 9384870000.0 9559870000.0 9738120000.0 9892840000.0 10012100000.0 10229000000.0 9998770000.0 12747100000.0 217916000000.0 100698000000.0 92958700000.0 159935000000.0 13010400000.0 10017600000.0 10229300000.0 9971340000.0 9787590000.0 9591980000.0 9410990000.0 9259980000.0 9160450000.0 9106630000.0 9075340000.0 9056880000.0 9047060000.0 9042520000.0 9040530000.0 9039490000.0 9038760000.0 9038220000.0 9037800000.0 9037410000.0 9037020000.0 9036650000.0 9036350000.0 9036120000.0 9035970000.0 9035870000.0 9035820000.0 9035780000.0 9035770000.0 9035760000.0 9035760000.0 9035750000.0 9035750000.0 9035750000.0 9035750000.0 9035750000.0 9035750000.0 9035750000.0 9035750000.0 9035750000.0 9035760000.0 9035760000.0 9035770000.0 9035780000.0 9035820000.0 9035870000.0 9035970000.0 9036120000.0 9036350000.0 9036650000.0 9037020000.0 9037410000.0 9037800000.0 9038220000.0 9038760000.0 9039490000.0 9040530000.0 9042520000.0 9047060000.0 9056880000.0 9075340000.0 9106630000.0 9160450000.0 9259980000.0 9410990000.0 9591980000.0 9787590000.0 9971340000.0 10229300000.0 10017600000.0 13010400000.0 159935000000.0 92958700000.0 92949600000.0 113796000000.0 13028800000.0 9974590000.0 10133900000.0 9848410000.0 9633470000.0 9440020000.0 9284390000.0 9175200000.0 9113710000.0 9079620000.0 9059840000.0 9049190000.0 9044050000.0 9041610000.0 9040240000.0 9039290000.0 9038560000.0 9038000000.0 9037520000.0 9037080000.0 9036680000.0 9036370000.0 9036130000.0 9035980000.0 9035880000.0 9035820000.0 9035790000.0 9035770000.0 9035760000.0 9035760000.0 9035750000.0 9035750000.0 9035750000.0 9035750000.0 9035750000.0 9035750000.0 9035750000.0 9035750000.0 9035750000.0 9035750000.0 9035750000.0 9035760000.0 9035760000.0 9035770000.0 9035790000.0 9035820000.0 9035880000.0 9035980000.0 9036130000.0 9036370000.0 9036680000.0 9037080000.0 9037520000.0 9038000000.0 9038560000.0 9039290000.0 9040240000.0 9041610000.0 9044050000.0 9049190000.0 9059840000.0 9079620000.0 9113710000.0 9175200000.0 9284390000.0 9440020000.0 9633470000.0 9848410000.0 10133900000.0 9974590000.0 13028800000.0 113796000000.0 92949600000.0 92236100000.0 80580900000.0 12839700000.0 9883550000.0 9971080000.0 9683280000.0 9475060000.0 9310480000.0 9193200000.0 9122710000.0 9084670000.0 9063260000.0 9051610000.0 9045750000.0 9042790000.0 9041060000.0 9039840000.0 9038930000.0 9038220000.0 9037640000.0 9037140000.0 9036720000.0 9036390000.0 9036150000.0 9035980000.0 9035880000.0 9035820000.0 9035790000.0 9035770000.0 9035760000.0 9035760000.0 9035750000.0 9035750000.0 9035750000.0 9035750000.0 9035750000.0 9035750000.0 9035750000.0 9035750000.0 9035750000.0 9035750000.0 9035750000.0 9035750000.0 9035750000.0 9035760000.0 9035760000.0 9035770000.0 9035790000.0 9035820000.0 9035880000.0 9035980000.0 9036150000.0 9036390000.0 9036720000.0 9037140000.0 9037640000.0 9038220000.0 9038930000.0 9039840000.0 9041060000.0 9042790000.0 9045750000.0 9051610000.0 9063260000.0 9084670000.0 9122710000.0 9193200000.0 9310480000.0 9475060000.0 9683280000.0 9971080000.0 9883550000.0 12839700000.0 80580900000.0 92236100000.0 89240300000.0 58311300000.0 12498300000.0 9758610000.0 9776440000.0 9515950000.0 9339810000.0 9213910000.0 9134330000.0 9090760000.0 9067180000.0 9054330000.0 9047640000.0 9044090000.0 9041940000.0 9040440000.0 9039310000.0 9038450000.0 9037770000.0 9037210000.0 9036760000.0 9036410000.0 9036160000.0 9035990000.0 9035880000.0 9035820000.0 9035790000.0 9035770000.0 9035760000.0 9035760000.0 9035750000.0 9035750000.0 9035750000.0 9035750000.0 9035750000.0 9035750000.0 9035750000.0 9035750000.0 9035750000.0 9035750000.0 9035750000.0 9035750000.0 9035750000.0 9035750000.0 9035750000.0 9035760000.0 9035760000.0 9035770000.0 9035790000.0 9035820000.0 9035880000.0 9035990000.0 9036160000.0 9036410000.0 9036760000.0 9037210000.0 9037770000.0 9038450000.0 9039310000.0 9040440000.0 9041940000.0 9044090000.0 9047640000.0 9054330000.0 9067180000.0 9090760000.0 9134330000.0 9213910000.0 9339810000.0 9515950000.0 9776440000.0 9758610000.0 12498300000.0 58311300000.0 89240300000.0 84228700000.0 43147200000.0 12057000000.0 9616960000.0 9586080000.0 9372710000.0 9237060000.0 9148750000.0 9098350000.0 9071730000.0 9057420000.0 9049750000.0 9045510000.0 9042900000.0 9041070000.0 9039720000.0 9038700000.0 9037910000.0 9037290000.0 9036800000.0 9036430000.0 9036170000.0 9036000000.0 9035890000.0 9035820000.0 9035790000.0 9035770000.0 9035760000.0 9035760000.0 9035750000.0 9035750000.0 9035750000.0 9035750000.0 9035750000.0 9035750000.0 9035750000.0 9035750000.0 9035750000.0 9035750000.0 9035750000.0 9035750000.0 9035750000.0 9035750000.0 9035750000.0 9035750000.0 9035750000.0 9035760000.0 9035760000.0 9035770000.0 9035790000.0 9035820000.0 9035890000.0 9036000000.0 9036170000.0 9036430000.0 9036800000.0 9037290000.0 9037910000.0 9038700000.0 9039720000.0 9041070000.0 9042900000.0 9045510000.0 9049750000.0 9057420000.0 9071730000.0 9098350000.0 9148750000.0 9237060000.0 9372710000.0 9586080000.0 9616960000.0 12057000000.0 43147200000.0 84228700000.0 77751000000.0 32317700000.0 11558100000.0 9478220000.0 9424460000.0 9262510000.0 9165500000.0 9107900000.0 9077110000.0 9060910000.0 9052100000.0 9047090000.0 9043950000.0 9041760000.0 9040160000.0 9038970000.0 9038070000.0 9037380000.0 9036850000.0 9036460000.0 9036190000.0 9036000000.0 9035890000.0 9035830000.0 9035790000.0 9035770000.0 9035760000.0 9035760000.0 9035750000.0 9035750000.0 9035750000.0 9035750000.0 9035750000.0 9035750000.0 9035750000.0 9035750000.0 9035750000.0 9035750000.0 9035750000.0 9035750000.0 9035750000.0 9035750000.0 9035750000.0 9035750000.0 9035750000.0 9035750000.0 9035750000.0 9035760000.0 9035760000.0 9035770000.0 9035790000.0 9035830000.0 9035890000.0 9036000000.0 9036190000.0 9036460000.0 9036850000.0 9037380000.0 9038070000.0 9038970000.0 9040160000.0 9041760000.0 9043950000.0 9047090000.0 9052100000.0 9060910000.0 9077110000.0 9107900000.0 9165500000.0 9262510000.0 9424460000.0 9478220000.0 11558100000.0 32317700000.0 77751000000.0 70361200000.0 24440500000.0 11046000000.0 9357720000.0 9299690000.0 9184160000.0 9119350000.0 9083620000.0 9064900000.0 9054740000.0 9048840000.0 9045090000.0 9042510000.0 9040630000.0 9039250000.0 9038230000.0 9037470000.0 9036900000.0 9036490000.0 9036200000.0 9036010000.0 9035900000.0 9035830000.0 9035790000.0 9035770000.0 9035760000.0 9035760000.0 9035750000.0 9035750000.0 9035750000.0 9035750000.0 9035750000.0 9035750000.0 9035750000.0 9035750000.0 9035750000.0 9035750000.0 9035750000.0 9035750000.0 9035750000.0 9035750000.0 9035750000.0 9035750000.0 9035750000.0 9035750000.0 9035750000.0 9035750000.0 9035750000.0 9035760000.0 9035760000.0 9035770000.0 9035790000.0 9035830000.0 9035900000.0 9036010000.0 9036200000.0 9036490000.0 9036900000.0 9037470000.0 9038230000.0 9039250000.0 9040630000.0 9042510000.0 9045090000.0 9048840000.0 9054740000.0 9064900000.0 9083620000.0 9119350000.0 9184160000.0 9299690000.0 9357720000.0 11046000000.0 24440500000.0 70361200000.0 62557100000.0 18810900000.0 10567800000.0 9262520000.0 9209980000.0 9132430000.0 9091410000.0 9069540000.0 9057710000.0 9050780000.0 9046360000.0 9043320000.0 9041140000.0 9039560000.0 9038410000.0 9037570000.0 9036960000.0 9036520000.0 9036220000.0 9036020000.0 9035900000.0 9035830000.0 9035790000.0 9035770000.0 9035760000.0 9035760000.0 9035750000.0 9035750000.0 9035750000.0 9035750000.0 9035750000.0 9035750000.0 9035750000.0 9035750000.0 9035750000.0 9035750000.0 9035750000.0 9035750000.0 9035750000.0 9035750000.0 9035750000.0 9035750000.0 9035750000.0 9035750000.0 9035750000.0 9035750000.0 9035750000.0 9035750000.0 9035750000.0 9035760000.0 9035760000.0 9035770000.0 9035790000.0 9035830000.0 9035900000.0 9036020000.0 9036220000.0 9036520000.0 9036960000.0 9037570000.0 9038410000.0 9039560000.0 9041140000.0 9043320000.0 9046360000.0 9050780000.0 9057710000.0 9069540000.0 9091410000.0 9132430000.0 9209980000.0 9262520000.0 10567800000.0 18810900000.0 62557100000.0 54750200000.0 14941900000.0 10157800000.0 9192760000.0 9149780000.0 9100430000.0 9074960000.0 9061070000.0 9052940000.0 9047750000.0 9044210000.0 9041700000.0 9039900000.0 9038610000.0 9037680000.0 9037020000.0 9036550000.0 9036240000.0 9036030000.0 9035910000.0 9035830000.0 9035790000.0 9035770000.0 9035760000.0 9035760000.0 9035750000.0 9035750000.0 9035750000.0 9035750000.0 9035750000.0 9035750000.0 9035750000.0 9035750000.0 9035750000.0 9035750000.0 9035750000.0 9035750000.0 9035750000.0 9035750000.0 9035750000.0 9035750000.0 9035750000.0 9035750000.0 9035750000.0 9035750000.0 9035750000.0 9035750000.0 9035750000.0 9035750000.0 9035750000.0 9035760000.0 9035760000.0 9035770000.0 9035790000.0 9035830000.0 9035910000.0 9036030000.0 9036240000.0 9036550000.0 9037020000.0 9037680000.0 9038610000.0 9039900000.0 9041700000.0 9044210000.0 9047750000.0 9052940000.0 9061070000.0 9074960000.0 9100430000.0 9149780000.0 9192760000.0 10157800000.0 14941900000.0 54750200000.0 47260500000.0 12413800000.0 9830300000.0 9144670000.0 9111920000.0 9081230000.0 9064920000.0 9055370000.0 9049300000.0 9045180000.0 9042300000.0 9040260000.0 9038820000.0 9037800000.0 9037080000.0 9036590000.0 9036250000.0 9036040000.0 9035910000.0 9035840000.0 9035790000.0 9035770000.0 9035760000.0 9035760000.0 9035750000.0 9035750000.0 9035750000.0 9035750000.0 9035750000.0 9035750000.0 9035750000.0 9035750000.0 9035750000.0 9035750000.0 9035750000.0 9035750000.0 9035750000.0 9035750000.0 9035750000.0 9035750000.0 9035750000.0 9035750000.0 9035750000.0 9035750000.0 9035750000.0 9035750000.0 9035750000.0 9035750000.0 9035750000.0 9035750000.0 9035750000.0 9035760000.0 9035760000.0 9035770000.0 9035790000.0 9035840000.0 9035910000.0 9036040000.0 9036250000.0 9036590000.0 9037080000.0 9037800000.0 9038820000.0 9040260000.0 9042300000.0 9045180000.0 9049300000.0 9055370000.0 9064920000.0 9081230000.0 9111920000.0 9144670000.0 9830300000.0 12413800000.0 47260500000.0 40325300000.0 10852400000.0 9583000000.0 9112880000.0 9088890000.0 9069320000.0 9058110000.0 9051020000.0 9046260000.0 9042970000.0 9040660000.0 9039050000.0 9037930000.0 9037150000.0 9036630000.0 9036280000.0 9036050000.0 9035920000.0 9035840000.0 9035800000.0 9035770000.0 9035760000.0 9035760000.0 9035750000.0 9035750000.0 9035750000.0 9035750000.0 9035750000.0 9035750000.0 9035750000.0 9035750000.0 9035750000.0 9035750000.0 9035750000.0 9035750000.0 9035750000.0 9035750000.0 9035750000.0 9035750000.0 9035750000.0 9035750000.0 9035750000.0 9035750000.0 9035750000.0 9035750000.0 9035750000.0 9035750000.0 9035750000.0 9035750000.0 9035750000.0 9035750000.0 9035750000.0 9035760000.0 9035760000.0 9035770000.0 9035800000.0 9035840000.0 9035920000.0 9036050000.0 9036280000.0 9036630000.0 9037150000.0 9037930000.0 9039050000.0 9040660000.0 9042970000.0 9046260000.0 9051020000.0 9058110000.0 9069320000.0 9088890000.0 9112880000.0 9583000000.0 10852400000.0 40325300000.0 34106900000.0 9946180000.0 9404760000.0 9092040000.0 9074530000.0 9061210000.0 9052950000.0 9047460000.0 9043700000.0 9041100000.0 9039310000.0 9038070000.0 9037230000.0 9036670000.0 9036300000.0 9036060000.0 9035920000.0 9035840000.0 9035800000.0 9035770000.0 9035760000.0 9035760000.0 9035750000.0 9035750000.0 9035750000.0 9035750000.0 9035750000.0 9035750000.0 9035750000.0 9035750000.0 9035750000.0 9035750000.0 9035750000.0 9035750000.0 9035750000.0 9035750000.0 9035750000.0 9035750000.0 9035750000.0 9035750000.0 9035750000.0 9035750000.0 9035750000.0 9035750000.0 9035750000.0 9035750000.0 9035750000.0 9035750000.0 9035750000.0 9035750000.0 9035750000.0 9035750000.0 9035750000.0 9035760000.0 9035760000.0 9035770000.0 9035800000.0 9035840000.0 9035920000.0 9036060000.0 9036300000.0 9036670000.0 9037230000.0 9038070000.0 9039310000.0 9041100000.0 9043700000.0 9047460000.0 9052950000.0 9061210000.0 9074530000.0 9092040000.0 9404760000.0 9946180000.0 34106900000.0 28697300000.0 9456580000.0 9280960000.0 9077870000.0 9064800000.0 9055120000.0 9048790000.0 9044510000.0 9041590000.0 9039590000.0 9038230000.0 9037320000.0 9036710000.0 9036320000.0 9036080000.0 9035930000.0 9035840000.0 9035800000.0 9035770000.0 9035760000.0 9035760000.0 9035750000.0 9035750000.0 9035750000.0 9035750000.0 9035750000.0 9035750000.0 9035750000.0 9035750000.0 9035750000.0 9035750000.0 9035750000.0 9035750000.0 9035750000.0 9035750000.0 9035750000.0 9035750000.0 9035750000.0 9035750000.0 9035750000.0 9035750000.0 9035750000.0 9035750000.0 9035750000.0 9035750000.0 9035750000.0 9035750000.0 9035750000.0 9035750000.0 9035750000.0 9035750000.0 9035750000.0 9035750000.0 9035750000.0 9035760000.0 9035760000.0 9035770000.0 9035800000.0 9035840000.0 9035930000.0 9036080000.0 9036320000.0 9036710000.0 9037320000.0 9038230000.0 9039590000.0 9041590000.0 9044510000.0 9048790000.0 9055120000.0 9064800000.0 9077870000.0 9280960000.0 9456580000.0 28697300000.0 24124800000.0 9213520000.0 9197200000.0 9067600000.0 9057600000.0 9050290000.0 9045410000.0 9042120000.0 9039900000.0 9038400000.0 9037410000.0 9036770000.0 9036350000.0 9036090000.0 9035940000.0 9035850000.0 9035800000.0 9035770000.0 9035760000.0 9035760000.0 9035750000.0 9035750000.0 9035750000.0 9035750000.0 9035750000.0 9035750000.0 9035750000.0 9035750000.0 9035750000.0 9035750000.0 9035750000.0 9035750000.0 9035750000.0 9035750000.0 9035750000.0 9035750000.0 9035750000.0 9035750000.0 9035750000.0 9035750000.0 9035750000.0 9035750000.0 9035750000.0 9035750000.0 9035750000.0 9035750000.0 9035750000.0 9035750000.0 9035750000.0 9035750000.0 9035750000.0 9035750000.0 9035750000.0 9035750000.0 9035750000.0 9035760000.0 9035760000.0 9035770000.0 9035800000.0 9035850000.0 9035940000.0 9036090000.0 9036350000.0 9036770000.0 9037410000.0 9038400000.0 9039900000.0 9042120000.0 9045410000.0 9050290000.0 9057600000.0 9067600000.0 9197200000.0 9213520000.0 24124800000.0 20365500000.0 9104020000.0 9141380000.0 9059720000.0 9051990000.0 9046420000.0 9042710000.0 9040240000.0 9038600000.0 9037520000.0 9036820000.0 9036380000.0 9036110000.0 9035940000.0 9035850000.0 9035800000.0 9035780000.0 9035760000.0 9035760000.0 9035750000.0 9035750000.0 9035750000.0 9035750000.0 9035750000.0 9035750000.0 9035750000.0 9035750000.0 9035750000.0 9035750000.0 9035750000.0 9035750000.0 9035750000.0 9035750000.0 9035750000.0 9035750000.0 9035750000.0 9035750000.0 9035750000.0 9035750000.0 9035750000.0 9035750000.0 9035750000.0 9035750000.0 9035750000.0 9035750000.0 9035750000.0 9035750000.0 9035750000.0 9035750000.0 9035750000.0 9035750000.0 9035750000.0 9035750000.0 9035750000.0 9035750000.0 9035750000.0 9035760000.0 9035760000.0 9035780000.0 9035800000.0 9035850000.0 9035940000.0 9036110000.0 9036380000.0 9036820000.0 9037520000.0 9038600000.0 9040240000.0 9042710000.0 9046420000.0 9051990000.0 9059720000.0 9141380000.0 9104020000.0 20365500000.0 17356700000.0 9059640000.0 9104430000.0 9053500000.0 9047560000.0 9043370000.0 9040620000.0 9038810000.0 9037640000.0 9036880000.0 9036410000.0 9036120000.0 9035950000.0 9035860000.0 9035800000.0 9035780000.0 9035760000.0 9035760000.0 9035750000.0 9035750000.0 9035750000.0 9035750000.0 9035750000.0 9035750000.0 9035750000.0 9035750000.0 9035750000.0 9035750000.0 9035750000.0 9035750000.0 9035750000.0 9035750000.0 9035750000.0 9035750000.0 9035750000.0 9035750000.0 9035750000.0 9035750000.0 9035750000.0 9035750000.0 9035750000.0 9035750000.0 9035750000.0 9035750000.0 9035750000.0 9035750000.0 9035750000.0 9035750000.0 9035750000.0 9035750000.0 9035750000.0 9035750000.0 9035750000.0 9035750000.0 9035750000.0 9035750000.0 9035750000.0 9035760000.0 9035760000.0 9035780000.0 9035800000.0 9035860000.0 9035950000.0 9036120000.0 9036410000.0 9036880000.0 9037640000.0 9038810000.0 9040620000.0 9043370000.0 9047560000.0 9053500000.0 9104430000.0 9059640000.0 17356700000.0 15011400000.0 9043500000.0 9080060000.0 9048610000.0 9044120000.0 9041040000.0 9039050000.0 9037760000.0 9036950000.0 9036450000.0 9036140000.0 9035960000.0 9035860000.0 9035810000.0 9035780000.0 9035760000.0 9035760000.0 9035750000.0 9035750000.0 9035750000.0 9035750000.0 9035750000.0 9035750000.0 9035750000.0 9035750000.0 9035750000.0 9035750000.0 9035750000.0 9035750000.0 9035750000.0 9035750000.0 9035750000.0 9035750000.0 9035750000.0 9035750000.0 9035750000.0 9035750000.0 9035750000.0 9035750000.0 9035750000.0 9035750000.0 9035750000.0 9035750000.0 9035750000.0 9035750000.0 9035750000.0 9035750000.0 9035750000.0 9035750000.0 9035750000.0 9035750000.0 9035750000.0 9035750000.0 9035750000.0 9035750000.0 9035750000.0 9035750000.0 9035750000.0 9035760000.0 9035760000.0 9035780000.0 9035810000.0 9035860000.0 9035960000.0 9036140000.0 9036450000.0 9036950000.0 9037760000.0 9039050000.0 9041040000.0 9044120000.0 9048610000.0 9080060000.0 9043500000.0 15011400000.0 13230400000.0 9038200000.0 9064060000.0 9044820000.0 9041520000.0 9039310000.0 9037910000.0 9037030000.0 9036490000.0 9036160000.0 9035970000.0 9035870000.0 9035810000.0 9035780000.0 9035760000.0 9035760000.0 9035750000.0 9035750000.0 9035750000.0 9035750000.0 9035750000.0 9035750000.0 9035750000.0 9035750000.0 9035750000.0 9035750000.0 9035750000.0 9035750000.0 9035750000.0 9035750000.0 9035750000.0 9035750000.0 9035750000.0 9035750000.0 9035750000.0 9035750000.0 9035750000.0 9035750000.0 9035750000.0 9035750000.0 9035750000.0 9035750000.0 9035750000.0 9035750000.0 9035750000.0 9035750000.0 9035750000.0 9035750000.0 9035750000.0 9035750000.0 9035750000.0 9035750000.0 9035750000.0 9035750000.0 9035750000.0 9035750000.0 9035750000.0 9035750000.0 9035750000.0 9035760000.0 9035760000.0 9035780000.0 9035810000.0 9035870000.0 9035970000.0 9036160000.0 9036490000.0 9037030000.0 9037910000.0 9039310000.0 9041520000.0 9044820000.0 9064060000.0 9038200000.0 13230400000.0 11912600000.0 9036600000.0 9053620000.0 9041980000.0 9039610000.0 9038070000.0 9037110000.0 9036530000.0 9036180000.0 9035980000.0 9035870000.0 9035810000.0 9035780000.0 9035760000.0 9035760000.0 9035750000.0 9035750000.0 9035750000.0 9035750000.0 9035750000.0 9035750000.0 9035750000.0 9035750000.0 9035750000.0 9035750000.0 9035750000.0 9035750000.0 9035750000.0 9035750000.0 9035750000.0 9035750000.0 9035750000.0 9035750000.0 9035750000.0 9035750000.0 9035750000.0 9035750000.0 9035750000.0 9035750000.0 9035750000.0 9035750000.0 9035750000.0 9035750000.0 9035750000.0 9035750000.0 9035750000.0 9035750000.0 9035750000.0 9035750000.0 9035750000.0 9035750000.0 9035750000.0 9035750000.0 9035750000.0 9035750000.0 9035750000.0 9035750000.0 9035750000.0 9035750000.0 9035750000.0 9035760000.0 9035760000.0 9035780000.0 9035810000.0 9035870000.0 9035980000.0 9036180000.0 9036530000.0 9037110000.0 9038070000.0 9039610000.0 9041980000.0 9053620000.0 9036600000.0 11912600000.0 10962500000.0 9036120000.0 9046870000.0 9039900000.0 9038250000.0 9037210000.0 9036580000.0 9036210000.0 9036000000.0 9035880000.0 9035810000.0 9035780000.0 9035770000.0 9035760000.0 9035750000.0 9035750000.0 9035750000.0 9035750000.0 9035750000.0 9035750000.0 9035750000.0 9035750000.0 9035750000.0 9035750000.0 9035750000.0 9035750000.0 9035750000.0 9035750000.0 9035750000.0 9035750000.0 9035750000.0 9035750000.0 9035750000.0 9035750000.0 9035750000.0 9035750000.0 9035750000.0 9035750000.0 9035750000.0 9035750000.0 9035750000.0 9035750000.0 9035750000.0 9035750000.0 9035750000.0 9035750000.0 9035750000.0 9035750000.0 9035750000.0 9035750000.0 9035750000.0 9035750000.0 9035750000.0 9035750000.0 9035750000.0 9035750000.0 9035750000.0 9035750000.0 9035750000.0 9035750000.0 9035750000.0 9035760000.0 9035770000.0 9035780000.0 9035810000.0 9035880000.0 9036000000.0 9036210000.0 9036580000.0 9037210000.0 9038250000.0 9039900000.0 9046870000.0 9036120000.0 10962500000.0 10295200000.0 9035960000.0 9042560000.0 9038430000.0 9037320000.0 9036640000.0 9036240000.0 9036010000.0 9035880000.0 9035820000.0 9035780000.0 9035770000.0 9035760000.0 9035750000.0 9035750000.0 9035750000.0 9035750000.0 9035750000.0 9035750000.0 9035750000.0 9035750000.0 9035750000.0 9035750000.0 9035750000.0 9035750000.0 9035750000.0 9035750000.0 9035750000.0 9035750000.0 9035750000.0 9035750000.0 9035750000.0 9035750000.0 9035750000.0 9035750000.0 9035750000.0 9035750000.0 9035750000.0 9035750000.0 9035750000.0 9035750000.0 9035750000.0 9035750000.0 9035750000.0 9035750000.0 9035750000.0 9035750000.0 9035750000.0 9035750000.0 9035750000.0 9035750000.0 9035750000.0 9035750000.0 9035750000.0 9035750000.0 9035750000.0 9035750000.0 9035750000.0 9035750000.0 9035750000.0 9035750000.0 9035750000.0 9035760000.0 9035770000.0 9035780000.0 9035820000.0 9035880000.0 9036010000.0 9036240000.0 9036640000.0 9037320000.0 9038430000.0 9042560000.0 9035960000.0 10295200000.0 9838590000.0 9035880000.0 9039840000.0 9037430000.0 9036700000.0 9036270000.0 9036020000.0 9035890000.0 9035820000.0 9035780000.0 9035770000.0 9035760000.0 9035760000.0 9035750000.0 9035750000.0 9035750000.0 9035750000.0 9035750000.0 9035750000.0 9035750000.0 9035750000.0 9035750000.0 9035750000.0 9035750000.0 9035750000.0 9035750000.0 9035750000.0 9035750000.0 9035750000.0 9035750000.0 9035750000.0 9035750000.0 9035750000.0 9035750000.0 9035750000.0 9035750000.0 9035750000.0 9035750000.0 9035750000.0 9035750000.0 9035750000.0 9035750000.0 9035750000.0 9035750000.0 9035750000.0 9035750000.0 9035750000.0 9035750000.0 9035750000.0 9035750000.0 9035750000.0 9035750000.0 9035750000.0 9035750000.0 9035750000.0 9035750000.0 9035750000.0 9035750000.0 9035750000.0 9035750000.0 9035750000.0 9035750000.0 9035760000.0 9035760000.0 9035770000.0 9035780000.0 9035820000.0 9035890000.0 9036020000.0 9036270000.0 9036700000.0 9037430000.0 9039840000.0 9035880000.0 9838590000.0 9534470000.0 9035840000.0 9038150000.0 9036760000.0 9036300000.0 9036040000.0 9035900000.0 9035820000.0 9035790000.0 9035770000.0 9035760000.0 9035760000.0 9035750000.0 9035750000.0 9035750000.0 9035750000.0 9035750000.0 9035750000.0 9035750000.0 9035750000.0 9035750000.0 9035750000.0 9035750000.0 9035750000.0 9035750000.0 9035750000.0 9035750000.0 9035750000.0 9035750000.0 9035750000.0 9035750000.0 9035750000.0 9035750000.0 9035750000.0 9035750000.0 9035750000.0 9035750000.0 9035750000.0 9035750000.0 9035750000.0 9035750000.0 9035750000.0 9035750000.0 9035750000.0 9035750000.0 9035750000.0 9035750000.0 9035750000.0 9035750000.0 9035750000.0 9035750000.0 9035750000.0 9035750000.0 9035750000.0 9035750000.0 9035750000.0 9035750000.0 9035750000.0 9035750000.0 9035750000.0 9035750000.0 9035750000.0 9035750000.0 9035760000.0 9035760000.0 9035770000.0 9035790000.0 9035820000.0 9035900000.0 9036040000.0 9036300000.0 9036760000.0 9038150000.0 9035840000.0 9534470000.0 9337340000.0 9035810000.0 9037130000.0 9036340000.0 9036060000.0 9035910000.0 9035830000.0 9035790000.0 9035770000.0 9035760000.0 9035760000.0 9035750000.0 9035750000.0 9035750000.0 9035750000.0 9035750000.0 9035750000.0 9035750000.0 9035750000.0 9035750000.0 9035750000.0 9035750000.0 9035750000.0 9035750000.0 9035750000.0 9035750000.0 9035750000.0 9035750000.0 9035750000.0 9035750000.0 9035750000.0 9035750000.0 9035750000.0 9035750000.0 9035750000.0 9035750000.0 9035750000.0 9035750000.0 9035750000.0 9035750000.0 9035750000.0 9035750000.0 9035750000.0 9035750000.0 9035750000.0 9035750000.0 9035750000.0 9035750000.0 9035750000.0 9035750000.0 9035750000.0 9035750000.0 9035750000.0 9035750000.0 9035750000.0 9035750000.0 9035750000.0 9035750000.0 9035750000.0 9035750000.0 9035750000.0 9035750000.0 9035750000.0 9035750000.0 9035760000.0 9035760000.0 9035770000.0 9035790000.0 9035830000.0 9035910000.0 9036060000.0 9036340000.0 9037130000.0 9035810000.0 9337340000.0 9213090000.0 9035790000.0 9036520000.0 9036080000.0 9035920000.0 9035830000.0 9035790000.0 9035770000.0 9035760000.0 9035760000.0 9035750000.0 9035750000.0 9035750000.0 9035750000.0 9035750000.0 9035750000.0 9035750000.0 9035750000.0 9035750000.0 9035750000.0 9035750000.0 9035750000.0 9035750000.0 9035750000.0 9035750000.0 9035750000.0 9035750000.0 9035750000.0 9035750000.0 9035750000.0 9035750000.0 9035750000.0 9035750000.0 9035750000.0 9035750000.0 9035750000.0 9035750000.0 9035750000.0 9035750000.0 9035750000.0 9035750000.0 9035750000.0 9035750000.0 9035750000.0 9035750000.0 9035750000.0 9035750000.0 9035750000.0 9035750000.0 9035750000.0 9035750000.0 9035750000.0 9035750000.0 9035750000.0 9035750000.0 9035750000.0 9035750000.0 9035750000.0 9035750000.0 9035750000.0 9035750000.0 9035750000.0 9035750000.0 9035750000.0 9035750000.0 9035760000.0 9035760000.0 9035770000.0 9035790000.0 9035830000.0 9035920000.0 9036080000.0 9036520000.0 9035790000.0 9213090000.0 9137020000.0 9035770000.0 9036170000.0 9035930000.0 9035840000.0 9035790000.0 9035770000.0 9035760000.0 9035760000.0 9035750000.0 9035750000.0 9035750000.0 9035750000.0 9035750000.0 9035750000.0 9035750000.0 9035750000.0 9035750000.0 9035750000.0 9035750000.0 9035750000.0 9035750000.0 9035750000.0 9035750000.0 9035750000.0 9035750000.0 9035750000.0 9035750000.0 9035750000.0 9035750000.0 9035750000.0 9035750000.0 9035750000.0 9035750000.0 9035750000.0 9035750000.0 9035750000.0 9035750000.0 9035750000.0 9035750000.0 9035750000.0 9035750000.0 9035750000.0 9035750000.0 9035750000.0 9035750000.0 9035750000.0 9035750000.0 9035750000.0 9035750000.0 9035750000.0 9035750000.0 9035750000.0 9035750000.0 9035750000.0 9035750000.0 9035750000.0 9035750000.0 9035750000.0 9035750000.0 9035750000.0 9035750000.0 9035750000.0 9035750000.0 9035750000.0 9035750000.0 9035760000.0 9035760000.0 9035770000.0 9035790000.0 9035840000.0 9035930000.0 9036170000.0 9035770000.0 9137020000.0 9091820000.0 9035770000.0 9035970000.0 9035840000.0 9035790000.0 9035770000.0 9035760000.0 9035760000.0 9035750000.0 9035750000.0 9035750000.0 9035750000.0 9035750000.0 9035750000.0 9035750000.0 9035750000.0 9035750000.0 9035750000.0 9035750000.0 9035750000.0 9035750000.0 9035750000.0 9035750000.0 9035750000.0 9035750000.0 9035750000.0 9035750000.0 9035750000.0 9035750000.0 9035750000.0 9035750000.0 9035750000.0 9035750000.0 9035750000.0 9035750000.0 9035750000.0 9035750000.0 9035750000.0 9035750000.0 9035750000.0 9035750000.0 9035750000.0 9035750000.0 9035750000.0 9035750000.0 9035750000.0 9035750000.0 9035750000.0 9035750000.0 9035750000.0 9035750000.0 9035750000.0 9035750000.0 9035750000.0 9035750000.0 9035750000.0 9035750000.0 9035750000.0 9035750000.0 9035750000.0 9035750000.0 9035750000.0 9035750000.0 9035750000.0 9035750000.0 9035750000.0 9035750000.0 9035760000.0 9035760000.0 9035770000.0 9035790000.0 9035840000.0 9035970000.0 9035770000.0 9091820000.0 9065800000.0 9035760000.0 9035860000.0 9035800000.0 9035770000.0 9035760000.0 9035760000.0 9035750000.0 9035750000.0 9035750000.0 9035750000.0 9035750000.0 9035750000.0 9035750000.0 9035750000.0 9035750000.0 9035750000.0 9035750000.0 9035750000.0 9035750000.0 9035750000.0 9035750000.0 9035750000.0 9035750000.0 9035750000.0 9035750000.0 9035750000.0 9035750000.0 9035750000.0 9035750000.0 9035750000.0 9035750000.0 9035750000.0 9035750000.0 9035750000.0 9035750000.0 9035750000.0 9035750000.0 9035750000.0 9035750000.0 9035750000.0 9035750000.0 9035750000.0 9035750000.0 9035750000.0 9035750000.0 9035750000.0 9035750000.0 9035750000.0 9035750000.0 9035750000.0 9035750000.0 9035750000.0 9035750000.0 9035750000.0 9035750000.0 9035750000.0 9035750000.0 9035750000.0 9035750000.0 9035750000.0 9035750000.0 9035750000.0 9035750000.0 9035750000.0 9035750000.0 9035750000.0 9035750000.0 9035760000.0 9035760000.0 9035770000.0 9035800000.0 9035860000.0 9035760000.0 9065800000.0 9051310000.0 9035760000.0 9035810000.0 9035770000.0 9035760000.0 9035760000.0 9035750000.0 9035750000.0 9035750000.0 9035750000.0 9035750000.0 9035750000.0 9035750000.0 9035750000.0 9035750000.0 9035750000.0 9035750000.0 9035750000.0 9035750000.0 9035750000.0 9035750000.0 9035750000.0 9035750000.0 9035750000.0 9035750000.0 9035750000.0 9035750000.0 9035750000.0 9035750000.0 9035750000.0 9035750000.0 9035750000.0 9035750000.0 9035750000.0 9035750000.0 9035750000.0 9035750000.0 9035750000.0 9035750000.0 9035750000.0 9035750000.0 9035750000.0 9035750000.0 9035750000.0 9035750000.0 9035750000.0 9035750000.0 9035750000.0 9035750000.0 9035750000.0 9035750000.0 9035750000.0 9035750000.0 9035750000.0 9035750000.0 9035750000.0 9035750000.0 9035750000.0 9035750000.0 9035750000.0 9035750000.0 9035750000.0 9035750000.0 9035750000.0 9035750000.0 9035750000.0 9035750000.0 9035750000.0 9035750000.0 9035760000.0 9035760000.0 9035770000.0 9035810000.0 9035760000.0 9051310000.0 9043520000.0 9035760000.0 9035780000.0 9035760000.0 9035760000.0 9035750000.0 9035750000.0 9035750000.0 9035750000.0 9035750000.0 9035750000.0 9035750000.0 9035750000.0 9035750000.0 9035750000.0 9035750000.0 9035750000.0 9035750000.0 9035750000.0 9035750000.0 9035750000.0 9035750000.0 9035750000.0 9035750000.0 9035750000.0 9035750000.0 9035750000.0 9035750000.0 9035750000.0 9035750000.0 9035750000.0 9035750000.0 9035750000.0 9035750000.0 9035750000.0 9035750000.0 9035750000.0 9035750000.0 9035750000.0 9035750000.0 9035750000.0 9035750000.0 9035750000.0 9035750000.0 9035750000.0 9035750000.0 9035750000.0 9035750000.0 9035750000.0 9035750000.0 9035750000.0 9035750000.0 9035750000.0 9035750000.0 9035750000.0 9035750000.0 9035750000.0 9035750000.0 9035750000.0 9035750000.0 9035750000.0 9035750000.0 9035750000.0 9035750000.0 9035750000.0 9035750000.0 9035750000.0 9035750000.0 9035750000.0 9035750000.0 9035760000.0 9035760000.0 9035780000.0 9035760000.0 9043520000.0 9039480000.0 9035750000.0 9035760000.0 9035760000.0 9035750000.0 9035750000.0 9035750000.0 9035750000.0 9035750000.0 9035750000.0 9035750000.0 9035750000.0 9035750000.0 9035750000.0 9035750000.0 9035750000.0 9035750000.0 9035750000.0 9035750000.0 9035750000.0 9035750000.0 9035750000.0 9035750000.0 9035750000.0 9035750000.0 9035750000.0 9035750000.0 9035750000.0 9035750000.0 9035750000.0 9035750000.0 9035750000.0 9035750000.0 9035750000.0 9035750000.0 9035750000.0 9035750000.0 9035750000.0 9035750000.0 9035750000.0 9035750000.0 9035750000.0 9035750000.0 9035750000.0 9035750000.0 9035750000.0 9035750000.0 9035750000.0 9035750000.0 9035750000.0 9035750000.0 9035750000.0 9035750000.0 9035750000.0 9035750000.0 9035750000.0 9035750000.0 9035750000.0 9035750000.0 9035750000.0 9035750000.0 9035750000.0 9035750000.0 9035750000.0 9035750000.0 9035750000.0 9035750000.0 9035750000.0 9035750000.0 9035750000.0 9035750000.0 9035760000.0 9035760000.0 9035750000.0 9039480000.0 9037470000.0 9035750000.0 9035760000.0 9035750000.0 9035750000.0 9035750000.0 9035750000.0 9035750000.0 9035750000.0 9035750000.0 9035750000.0 9035750000.0 9035750000.0 9035750000.0 9035750000.0 9035750000.0 9035750000.0 9035750000.0 9035750000.0 9035750000.0 9035750000.0 9035750000.0 9035750000.0 9035750000.0 9035750000.0 9035750000.0 9035750000.0 9035750000.0 9035750000.0 9035750000.0 9035750000.0 9035750000.0 9035750000.0 9035750000.0 9035750000.0 9035750000.0 9035750000.0 9035750000.0 9035750000.0 9035750000.0 9035750000.0 9035750000.0 9035750000.0 9035750000.0 9035750000.0 9035750000.0 9035750000.0 9035750000.0 9035750000.0 9035750000.0 9035750000.0 9035750000.0 9035750000.0 9035750000.0 9035750000.0 9035750000.0 9035750000.0 9035750000.0 9035750000.0 9035750000.0 9035750000.0 9035750000.0 9035750000.0 9035750000.0 9035750000.0 9035750000.0 9035750000.0 9035750000.0 9035750000.0 9035750000.0 9035750000.0 9035750000.0 9035760000.0 9035750000.0 9037470000.0 9036510000.0 9035750000.0 9035750000.0 9035750000.0 9035750000.0 9035750000.0 9035750000.0 9035750000.0 9035750000.0 9035750000.0 9035750000.0 9035750000.0 9035750000.0 9035750000.0 9035750000.0 9035750000.0 9035750000.0 9035750000.0 9035750000.0 9035750000.0 9035750000.0 9035750000.0 9035750000.0 9035750000.0 9035750000.0 9035750000.0 9035750000.0 9035750000.0 9035750000.0 9035750000.0 9035750000.0 9035750000.0 9035750000.0 9035750000.0 9035750000.0 9035750000.0 9035750000.0 9035750000.0 9035750000.0 9035750000.0 9035750000.0 9035750000.0 9035750000.0 9035750000.0 9035750000.0 9035750000.0 9035750000.0 9035750000.0 9035750000.0 9035750000.0 9035750000.0 9035750000.0 9035750000.0 9035750000.0 9035750000.0 9035750000.0 9035750000.0 9035750000.0 9035750000.0 9035750000.0 9035750000.0 9035750000.0 9035750000.0 9035750000.0 9035750000.0 9035750000.0 9035750000.0 9035750000.0 9035750000.0 9035750000.0 9035750000.0 9035750000.0 9035750000.0 9035750000.0 9036510000.0 9036070000.0 9035750000.0 9035750000.0 9035750000.0 9035750000.0 9035750000.0 9035750000.0 9035750000.0 9035750000.0 9035750000.0 9035750000.0 9035750000.0 9035750000.0 9035750000.0 9035750000.0 9035750000.0 9035750000.0 9035750000.0 9035750000.0 9035750000.0 9035750000.0 9035750000.0 9035750000.0 9035750000.0 9035750000.0 9035750000.0 9035750000.0 9035750000.0 9035750000.0 9035750000.0 9035750000.0 9035750000.0 9035750000.0 9035750000.0 9035750000.0 9035750000.0 9035750000.0 9035750000.0 9035750000.0 9035750000.0 9035750000.0 9035750000.0 9035750000.0 9035750000.0 9035750000.0 9035750000.0 9035750000.0 9035750000.0 9035750000.0 9035750000.0 9035750000.0 9035750000.0 9035750000.0 9035750000.0 9035750000.0 9035750000.0 9035750000.0 9035750000.0 9035750000.0 9035750000.0 9035750000.0 9035750000.0 9035750000.0 9035750000.0 9035750000.0 9035750000.0 9035750000.0 9035750000.0 9035750000.0 9035750000.0 9035750000.0 9035750000.0 9035750000.0 9035750000.0 9036070000.0 9035880000.0 9035750000.0 9035750000.0 9035750000.0 9035750000.0 9035750000.0 9035750000.0 9035750000.0 9035750000.0 9035750000.0 9035750000.0 9035750000.0 9035750000.0 9035750000.0 9035750000.0 9035750000.0 9035750000.0 9035750000.0 9035750000.0 9035750000.0 9035750000.0 9035750000.0 9035750000.0 9035750000.0 9035750000.0 9035750000.0 9035750000.0 9035750000.0 9035750000.0 9035750000.0 9035750000.0 9035750000.0 9035750000.0 9035750000.0 9035750000.0 9035750000.0 9035750000.0 9035750000.0 9035750000.0 9035750000.0 9035750000.0 9035750000.0 9035750000.0 9035750000.0 9035750000.0 9035750000.0 9035750000.0 9035750000.0 9035750000.0 9035750000.0 9035750000.0 9035750000.0 9035750000.0 9035750000.0 9035750000.0 9035750000.0 9035750000.0 9035750000.0 9035750000.0 9035750000.0 9035750000.0 9035750000.0 9035750000.0 9035750000.0 9035750000.0 9035750000.0 9035750000.0 9035750000.0 9035750000.0 9035750000.0 9035750000.0 9035750000.0 9035750000.0 9035750000.0 9035880000.0 9035800000.0 9035750000.0 9035750000.0 9035750000.0 9035750000.0 9035750000.0 9035750000.0 9035750000.0 9035750000.0 9035750000.0 9035750000.0 9035750000.0 9035750000.0 9035750000.0 9035750000.0 9035750000.0 9035750000.0 9035750000.0 9035750000.0 9035750000.0 9035750000.0 9035750000.0 9035750000.0 9035750000.0 9035750000.0 9035750000.0 9035750000.0 9035750000.0 9035750000.0 9035750000.0 9035750000.0 9035750000.0 9035750000.0 9035750000.0 9035750000.0 9035750000.0 9035750000.0 9035750000.0 9035750000.0 9035750000.0 9035750000.0 9035750000.0 9035750000.0 9035750000.0 9035750000.0 9035750000.0 9035750000.0 9035750000.0 9035750000.0 9035750000.0 9035750000.0 9035750000.0 9035750000.0 9035750000.0 9035750000.0 9035750000.0 9035750000.0 9035750000.0 9035750000.0 9035750000.0 9035750000.0 9035750000.0 9035750000.0 9035750000.0 9035750000.0 9035750000.0 9035750000.0 9035750000.0 9035750000.0 9035750000.0 9035750000.0 9035750000.0 9035750000.0 9035750000.0 9035800000.0 9035770000.0 9035750000.0 9035750000.0 9035750000.0 9035750000.0 9035750000.0 9035750000.0 9035750000.0 9035750000.0 9035750000.0 9035750000.0 9035750000.0 9035750000.0 9035750000.0 9035750000.0 9035750000.0 9035750000.0 9035750000.0 9035750000.0 9035750000.0 9035750000.0 9035750000.0 9035750000.0 9035750000.0 9035750000.0 9035750000.0 9035750000.0 9035750000.0 9035750000.0 9035750000.0 9035750000.0 9035750000.0 9035750000.0 9035750000.0 9035750000.0 9035750000.0 9035750000.0 9035750000.0 9035750000.0 9035750000.0 9035750000.0 9035750000.0 9035750000.0 9035750000.0 9035750000.0 9035750000.0 9035750000.0 9035750000.0 9035750000.0 9035750000.0 9035750000.0 9035750000.0 9035750000.0 9035750000.0 9035750000.0 9035750000.0 9035750000.0 9035750000.0 9035750000.0 9035750000.0 9035750000.0 9035750000.0 9035750000.0 9035750000.0 9035750000.0 9035750000.0 9035750000.0 9035750000.0 9035750000.0 9035750000.0 9035750000.0 9035750000.0 9035750000.0 9035750000.0 9035770000.0 9035760000.0 9035750000.0 9035750000.0 9035750000.0 9035750000.0 9035750000.0 9035750000.0 9035750000.0 9035750000.0 9035750000.0 9035750000.0 9035750000.0 9035750000.0 9035750000.0 9035750000.0 9035750000.0 9035750000.0 9035750000.0 9035750000.0 9035750000.0 9035750000.0 9035750000.0 9035750000.0 9035750000.0 9035750000.0 9035750000.0 9035750000.0 9035750000.0 9035750000.0 9035750000.0 9035750000.0 9035750000.0 9035750000.0 9035750000.0 9035750000.0 9035750000.0 9035750000.0 9035750000.0 9035750000.0 9035750000.0 9035750000.0 9035750000.0 9035750000.0 9035750000.0 9035750000.0 9035750000.0 9035750000.0 9035750000.0 9035750000.0 9035750000.0 9035750000.0 9035750000.0 9035750000.0 9035750000.0 9035750000.0 9035750000.0 9035750000.0 9035750000.0 9035750000.0 9035750000.0 9035750000.0 9035750000.0 9035750000.0 9035750000.0 9035750000.0 9035750000.0 9035750000.0 9035750000.0 9035750000.0 9035750000.0 9035750000.0 9035750000.0 9035750000.0 9035750000.0 9035760000.0 9035750000.0 9035750000.0 9035750000.0 9035750000.0 9035750000.0 9035750000.0 9035750000.0 9035750000.0 9035750000.0 9035750000.0 9035750000.0 9035750000.0 9035750000.0 9035750000.0 9035750000.0 9035750000.0 9035750000.0 9035750000.0 9035750000.0 9035750000.0 9035750000.0 9035750000.0 9035750000.0 9035750000.0 9035750000.0 9035750000.0 9035750000.0 9035750000.0 9035750000.0 9035750000.0 9035750000.0 9035750000.0 9035750000.0 9035750000.0 9035750000.0 9035750000.0 9035750000.0 9035750000.0 9035750000.0 9035750000.0 9035750000.0 9035750000.0 9035750000.0 9035750000.0 9035750000.0 9035750000.0 9035750000.0 9035750000.0 9035750000.0 9035750000.0 9035750000.0 9035750000.0 9035750000.0 9035750000.0 9035750000.0 9035750000.0 9035750000.0 9035750000.0 9035750000.0 9035750000.0 9035750000.0 9035750000.0 9035750000.0 9035750000.0 9035750000.0 9035750000.0 9035750000.0 9035750000.0 9035750000.0 9035750000.0 9035750000.0 9035750000.0 9035750000.0 9035750000.0 9035750000.0 9035750000.0 9035750000.0 9035750000.0 9035750000.0 9035750000.0 9035750000.0 9035750000.0 9035750000.0 9035750000.0 9035750000.0 9035750000.0 9035750000.0 9035750000.0 9035750000.0 9035750000.0 9035750000.0 9035750000.0 9035750000.0 9035750000.0 9035750000.0 9035750000.0 9035750000.0 9035750000.0 9035750000.0 9035750000.0 9035750000.0 9035750000.0 9035750000.0 9035750000.0 9035750000.0 9035750000.0 9035750000.0 9035750000.0 9035750000.0 9035750000.0 9035750000.0 9035750000.0 9035750000.0 9035750000.0 9035750000.0 9035750000.0 9035750000.0 9035750000.0 9035750000.0 9035750000.0 9035750000.0 9035750000.0 9035750000.0 9035750000.0 9035750000.0 9035750000.0 9035750000.0 9035750000.0 9035750000.0 9035750000.0 9035750000.0 9035750000.0 9035750000.0 9035750000.0 9035750000.0 9035750000.0 9035750000.0 9035750000.0 9035750000.0 9035750000.0 9035750000.0 9035750000.0 9035750000.0 9035750000.0 9035750000.0 9035750000.0 9035750000.0 9035750000.0 9035750000.0 9035750000.0 9035750000.0 9035750000.0 9035750000.0 9035750000.0 9035750000.0 9035750000.0 9035750000.0 9035750000.0 9035750000.0 9035750000.0 9035750000.0 9035750000.0 9035750000.0 9035750000.0 9035750000.0 9035750000.0 9035750000.0 9035750000.0 9035750000.0 9035750000.0 9035750000.0 9035750000.0 9035750000.0 9035750000.0 9035750000.0 9035750000.0 9035750000.0 9035750000.0 9035750000.0 9035750000.0 9035750000.0 9035750000.0 9035750000.0 9035750000.0 9035750000.0 9035750000.0 9035750000.0 9035750000.0 9035750000.0 9035750000.0 9035750000.0 9035750000.0 9035750000.0 9035750000.0 9035750000.0 9035750000.0 9035750000.0 9035750000.0 9035750000.0 9035750000.0 9035750000.0 9035750000.0 9035750000.0 9035750000.0 9035750000.0 9035750000.0 9035750000.0 9035750000.0 9035750000.0 9035750000.0 9035750000.0 9035750000.0 9035750000.0 9035750000.0 9035750000.0 9035750000.0 9035750000.0 9035750000.0 9035750000.0 9035750000.0 9035750000.0 9035750000.0 9035750000.0 9035750000.0 9035750000.0 9035750000.0 9035750000.0 9035750000.0 9035750000.0 9035750000.0 9035750000.0 9035750000.0 9035750000.0 9035750000.0 9035750000.0 9035750000.0 9035750000.0 9035750000.0 9035750000.0 9035750000.0 9035750000.0 9035750000.0 9035750000.0 9035750000.0 9035750000.0 9035750000.0 9035750000.0 9035750000.0 9035750000.0 9035750000.0 9035750000.0 9035750000.0 9035750000.0 9035750000.0 9035750000.0 9035750000.0 9035750000.0 9035750000.0 9035750000.0 9035750000.0 9035750000.0 9035750000.0 9035750000.0 9035750000.0 9035750000.0 9035750000.0 9035750000.0 9035750000.0 9035750000.0 9035750000.0 9035750000.0 9035750000.0 9035750000.0 9035750000.0 9035750000.0 9035750000.0 9035750000.0 9035750000.0 9035750000.0 9035750000.0 9035750000.0 9035750000.0 9035750000.0 9035750000.0 9035750000.0 9035750000.0 9035750000.0 9035750000.0 9035750000.0 9035750000.0 9035750000.0 9035750000.0 9035750000.0 9035750000.0 9035750000.0 9035750000.0 9035750000.0 9035750000.0 9035750000.0 9035750000.0 9035750000.0 9035750000.0 9035750000.0 9035750000.0 9035750000.0 9035750000.0 9035750000.0 9035750000.0 9035750000.0 9035750000.0 9035750000.0 9035750000.0 9035750000.0 9035750000.0 9035750000.0 9035750000.0 9035750000.0 9035750000.0 9035750000.0 9035750000.0 9035750000.0 9035750000.0 9035750000.0 9035750000.0 9035750000.0 9035750000.0 9035750000.0 9035750000.0 9035750000.0 9035750000.0 9035750000.0 9035750000.0 9035750000.0 9035750000.0 9035750000.0 9035750000.0 9035750000.0 9035750000.0 9035750000.0 9035750000.0 9035750000.0 9035750000.0 9035750000.0 9035750000.0 9035750000.0 9035750000.0 9035750000.0 9035750000.0 9035750000.0 9035750000.0 9035750000.0 9035750000.0 9035750000.0 9035750000.0 9035750000.0 9035750000.0 9035750000.0 9035750000.0 9035750000.0 9035750000.0 9035750000.0 9035750000.0 9035750000.0 9035750000.0 9035750000.0 9035750000.0 9035750000.0 9035750000.0 9035750000.0 9035750000.0 9035750000.0 9035750000.0 9035750000.0 9035750000.0 9035750000.0 9035750000.0 9035750000.0 9035750000.0 9035750000.0 9035750000.0 9035750000.0 9035750000.0 9035750000.0 9035750000.0 9035750000.0 9035750000.0 9035750000.0 9035750000.0 9035750000.0 9035750000.0 9035750000.0 9035750000.0 9035750000.0 9035750000.0 9035750000.0 9035750000.0 9035750000.0 9035750000.0 9035750000.0 9035750000.0 9035750000.0 9035750000.0 9035750000.0 9035750000.0 9035750000.0 9035750000.0 9035750000.0 9035750000.0 9035750000.0 9035750000.0 9035750000.0 9035750000.0 9035750000.0 9035750000.0 9035750000.0 9035750000.0 9035750000.0 9035750000.0 9035750000.0 9035750000.0 9035750000.0 9035750000.0 9035750000.0 9035750000.0 9035750000.0 9035750000.0 9035750000.0 9035750000.0 9035750000.0 9035750000.0 9035750000.0 9035750000.0 9035750000.0 9035750000.0 9035750000.0 9035750000.0 9035750000.0 9035750000.0 9035750000.0 9035750000.0 9035750000.0 9035750000.0 9035750000.0 9035750000.0 9035750000.0 9035750000.0 9035750000.0 9035750000.0 9035750000.0 9035750000.0 9035750000.0 9035750000.0 9035750000.0 9035750000.0 9035750000.0 9035750000.0 9035750000.0 9035750000.0 9035750000.0 9035750000.0 9035750000.0 9035750000.0 9035750000.0 9035750000.0 9035750000.0 9035750000.0 9035750000.0 9035750000.0 9035750000.0 9035750000.0 9035750000.0 9035750000.0 9035750000.0 9035750000.0 9035750000.0 9035750000.0 9035750000.0 9035750000.0 9035750000.0 9035750000.0 9035750000.0 9035750000.0 9035750000.0 9035750000.0 9035750000.0 9035750000.0 9035750000.0 9035750000.0 9035750000.0 9035750000.0 9035750000.0 9035750000.0 9035750000.0 9035750000.0 9035750000.0 9035750000.0 9035750000.0 9035750000.0 9035750000.0 9035750000.0 9035750000.0 9035750000.0 9035750000.0 9035750000.0 9035750000.0 9035750000.0 9035750000.0 9035750000.0 9035750000.0 9035750000.0 9035750000.0 9035750000.0 9035750000.0 9035750000.0 9035750000.0 9035750000.0 9035750000.0 9035750000.0 9035750000.0 9035750000.0 9035750000.0 9035750000.0 9035750000.0 9035750000.0 9035750000.0 9035750000.0 9035750000.0 9035750000.0 9035750000.0 9035750000.0 9035750000.0 9035750000.0 9035750000.0 9035750000.0 9035750000.0 9035750000.0 9035750000.0 9035750000.0 9035750000.0 9035750000.0 9035750000.0 9035750000.0 9035750000.0 9035750000.0 9035750000.0 9035750000.0 9035750000.0 9035750000.0 9035750000.0 9035750000.0 9035750000.0 9035750000.0 9035750000.0 9035750000.0 9035750000.0 9035750000.0 9035750000.0 9035750000.0 9035750000.0 9035750000.0 9035750000.0 9035750000.0 9035750000.0 9035750000.0 9035750000.0 9035750000.0 9035750000.0 9035750000.0 9035750000.0 9035750000.0 9035750000.0 9035750000.0 9035750000.0 9035750000.0 9035750000.0 9035750000.0 9035750000.0 9035750000.0 9035750000.0 9035750000.0 9035750000.0 9035750000.0 9035750000.0 9035750000.0 9035750000.0 9035750000.0 9035750000.0 9035750000.0 9035750000.0 9035750000.0 9035750000.0 9035750000.0 9035750000.0 9035750000.0 9035750000.0 9035750000.0 9035750000.0 9035750000.0 9035750000.0 9035750000.0 9035750000.0 9035750000.0 9035750000.0 9035750000.0 9035750000.0 9035750000.0 9035750000.0 9035750000.0 9035750000.0 9035750000.0 9035750000.0 9035750000.0 9035750000.0 9035750000.0 9035750000.0 9035750000.0 9035750000.0 9035750000.0 9035750000.0 9035750000.0 9035750000.0 9035750000.0 9035750000.0 9035750000.0 9035750000.0 9035750000.0 9035750000.0 9035750000.0 9035750000.0 9035750000.0 9035750000.0 9035750000.0 9035750000.0 9035750000.0 9035750000.0 9035750000.0 9035750000.0 9035750000.0 9035750000.0 9035750000.0 9035750000.0 9035750000.0 9035750000.0 9035750000.0 9035750000.0 9035750000.0 9035750000.0 9035750000.0 9035750000.0 9035750000.0 9035750000.0 9035750000.0 9035750000.0 9035750000.0 9035750000.0 9035750000.0 9035750000.0 9035750000.0 9035750000.0 9035750000.0 9035750000.0 9035750000.0 9035750000.0 9035750000.0 9035750000.0 9035750000.0 9035750000.0 9035750000.0 9035750000.0 9035750000.0 9035750000.0 9035750000.0 9035750000.0 9035750000.0 9035750000.0 9035750000.0 9035750000.0 9035750000.0 9035750000.0 9035750000.0 9035750000.0 9035750000.0 9035750000.0 9035750000.0 9035750000.0 9035750000.0 9035750000.0 9035750000.0 9035750000.0 9035750000.0 9035750000.0 9035750000.0 9035750000.0 9035750000.0 9035750000.0 9035750000.0 9035750000.0 9035750000.0 9035750000.0 9035750000.0 9035750000.0 9035750000.0 9035750000.0 9035750000.0 9035750000.0 9035750000.0 9035750000.0 9035750000.0 9035750000.0 9035750000.0 9035750000.0 9035750000.0 9035750000.0 9035750000.0 9035750000.0 9035750000.0 9035750000.0 9035750000.0 9035750000.0 9035750000.0 9035750000.0 9035750000.0 9035750000.0 9035750000.0 9035750000.0 9035750000.0 9035750000.0 9035750000.0 9035750000.0 9035750000.0 9035750000.0 9035750000.0 9035750000.0 9035750000.0 9035750000.0 9035750000.0 9035750000.0 9035750000.0 9035750000.0 9035750000.0 9035750000.0 9035750000.0 9035750000.0 9035750000.0 9035750000.0 9035750000.0 9035750000.0 9035750000.0 9035750000.0 9035750000.0 9035750000.0 9035750000.0 9035750000.0 9035750000.0 9035750000.0 9035750000.0 9035750000.0 9035750000.0 9035750000.0 9035750000.0 9035750000.0 9035750000.0 9035750000.0 9035750000.0 9035750000.0 9035750000.0 9035750000.0 9035750000.0 9035750000.0 9035750000.0 9035750000.0 9035750000.0 9035750000.0 9035750000.0 9035750000.0 9035750000.0 9035750000.0 9035750000.0 9035750000.0 9035750000.0 9035750000.0 9035750000.0 9035750000.0 9035750000.0 9035750000.0 9035750000.0 9035750000.0 9035750000.0 9035750000.0 9035750000.0 9035750000.0 9035750000.0 9035750000.0 9035750000.0 9035750000.0 9035750000.0 9035750000.0 9035750000.0 9035750000.0 9035750000.0 9035750000.0 9035750000.0 9035750000.0 9035750000.0 9035750000.0 9035750000.0 9035750000.0 9035750000.0 9035750000.0 9035750000.0 9035750000.0 9035750000.0 9035750000.0 9035750000.0 9035750000.0 9035750000.0 9035750000.0 9035750000.0 9035750000.0 9035750000.0 9035750000.0 9035750000.0 9035750000.0 9035750000.0 9035750000.0 9035750000.0 9035750000.0 9035750000.0 9035750000.0 9035750000.0 9035750000.0 9035750000.0 9035750000.0 9035750000.0 9035750000.0 9035750000.0 9035750000.0 9035750000.0 9035750000.0 9035750000.0 9035750000.0 9035750000.0 9035750000.0 9035750000.0 9035750000.0 9035750000.0 9035750000.0 9035750000.0 9035750000.0 9035750000.0 9035750000.0 9035750000.0 9035750000.0 9035750000.0 9035750000.0 9035750000.0 9035750000.0 9035750000.0 9035750000.0 9035750000.0 9035750000.0 9035750000.0 9035750000.0 9035750000.0 9035750000.0 9035750000.0 9035750000.0 9035750000.0 9035750000.0 9035750000.0 9035750000.0 9035750000.0 9035750000.0 9035750000.0 9035750000.0 9035750000.0 9035750000.0 9035750000.0 9035750000.0 9035750000.0 9035750000.0 9035750000.0 9035750000.0 9035750000.0 9035750000.0 9035750000.0 9035750000.0 9035750000.0 9035750000.0 9035750000.0 9035750000.0 9035750000.0 9035750000.0 9035750000.0 9035750000.0 9035750000.0 9035750000.0 9035750000.0 9035750000.0 9035750000.0 9035750000.0 9035750000.0 9035750000.0 9035750000.0 9035750000.0 9035750000.0 9035750000.0 9035750000.0 9035750000.0 9035750000.0 9035750000.0 9035750000.0 9035750000.0 9035750000.0 9035750000.0 9035750000.0 9035750000.0 9035750000.0 9035750000.0 9035750000.0 9035750000.0 9035750000.0 9035750000.0 9035750000.0 9035750000.0 9035750000.0 9035750000.0 9035750000.0 9035750000.0 9035750000.0 9035750000.0 9035750000.0 9035750000.0 9035750000.0 9035750000.0 9035750000.0 9035750000.0 9035750000.0 9035750000.0 9035750000.0 9035750000.0 9035750000.0 9035750000.0 9035750000.0 9035750000.0 9035750000.0 9035750000.0 9035750000.0 9035750000.0 9035750000.0 9035750000.0 9035750000.0 9035750000.0 9035750000.0 9035750000.0 9035750000.0 9035750000.0 9035750000.0 9035750000.0 9035750000.0 9035750000.0 9035750000.0 9035750000.0 9035750000.0 9035750000.0 9035750000.0 9035750000.0 9035750000.0 9035750000.0 9035750000.0 9035750000.0 9035750000.0 9035750000.0 9035750000.0 9035750000.0 9035750000.0 9035750000.0 9035750000.0 9035750000.0 9035750000.0 9035750000.0 9035750000.0 9035750000.0 9035750000.0 9035750000.0 9035750000.0 9035750000.0 9035750000.0 9035750000.0 9035750000.0 9035750000.0 9035750000.0 9035750000.0 9035750000.0 9035750000.0 9035750000.0 9035750000.0 9035750000.0 9035750000.0 9035750000.0 9035750000.0 9035750000.0 9035750000.0 9035750000.0 9035750000.0 9035750000.0 9035750000.0 9035750000.0 9035750000.0 9035750000.0 9035750000.0 9035750000.0 9035750000.0 9035750000.0 9035750000.0 9035750000.0 9035750000.0 9035750000.0 9035750000.0 9035750000.0 9035750000.0 9035750000.0 9035750000.0 9035750000.0 9035750000.0 9035750000.0 9035750000.0 9035750000.0 9035750000.0 9035750000.0 9035750000.0 9035750000.0 9035750000.0 9035750000.0 9035750000.0 9035750000.0 9035750000.0 9035750000.0 9035750000.0 9035750000.0 9035750000.0 9035750000.0 9035750000.0 9035750000.0 9035750000.0 9035750000.0 9035750000.0 9035750000.0 9035750000.0 9035750000.0 9035750000.0 9035750000.0 9035750000.0 9035750000.0 9035750000.0 9035750000.0 9035750000.0 9035750000.0 9035750000.0 9035750000.0 9035750000.0 9035750000.0 9035750000.0 9035750000.0 9035750000.0 9035750000.0 9035750000.0 9035750000.0 9035750000.0 9035750000.0 9035750000.0 9035750000.0 9035750000.0 9035750000.0 9035750000.0 9035750000.0 9035750000.0 9035750000.0 9035750000.0 9035750000.0 9035750000.0 9035750000.0 9035750000.0 9035750000.0 9035750000.0 9035750000.0 9035750000.0 9035750000.0 9035750000.0 9035750000.0 9035750000.0 9035750000.0 9035750000.0 9035750000.0 9035750000.0 9035750000.0 9035750000.0 9035750000.0 9035750000.0 9035750000.0 9035750000.0 9035750000.0 9035750000.0 9035750000.0 9035750000.0 9035750000.0 9035750000.0 9035750000.0 9035750000.0 9035750000.0 9035750000.0 9035750000.0 9035750000.0 9035750000.0 9035750000.0 9035750000.0 9035750000.0 9035750000.0 9035750000.0 9035750000.0 9035750000.0 9035750000.0 9035750000.0 9035750000.0 9035750000.0 9035750000.0 9035750000.0 9035750000.0 9035750000.0 9035750000.0 9035750000.0 9035750000.0 9035750000.0 9035750000.0 9035750000.0 9035750000.0 9035750000.0 9035750000.0 9035750000.0 9035750000.0 9035750000.0 9035750000.0 9035750000.0 9035750000.0 9035750000.0 9035750000.0 9035750000.0 9035750000.0 9035750000.0 9035750000.0 9035750000.0 9035750000.0 9035750000.0 9035750000.0 9035750000.0 9035750000.0 9035750000.0 9035750000.0 9035750000.0 9035750000.0 9035750000.0 9035750000.0 9035750000.0 9035750000.0 9035750000.0 9035750000.0 9035750000.0 9035750000.0 9035750000.0 9035750000.0 9035750000.0 9035750000.0 9035750000.0 9035750000.0 9035750000.0 9035750000.0 9035750000.0 9035750000.0 9035750000.0 9035750000.0 9035750000.0 9035750000.0 9035750000.0 9035750000.0 9035750000.0 9035750000.0 9035750000.0 9035750000.0 9035750000.0 9035750000.0 9035750000.0 9035750000.0 9035750000.0 9035750000.0 9035750000.0 9035750000.0 9035750000.0 9035750000.0 9035750000.0 9035750000.0 9035750000.0 9035750000.0 9035750000.0 9035750000.0 9035750000.0 9035750000.0 9035750000.0 9035750000.0 9035750000.0 9035750000.0 9035750000.0 9035750000.0 9035750000.0 9035750000.0 9035750000.0 9035750000.0 9035750000.0 9035750000.0 9035750000.0 9035750000.0 9035750000.0 9035750000.0 9035750000.0 9035750000.0 9035750000.0 9035750000.0 9035750000.0 9035750000.0 9035750000.0 9035750000.0 9035750000.0 9035750000.0 9035750000.0 9035750000.0 9035750000.0 9035750000.0 9035750000.0 9035750000.0 9035750000.0 9035750000.0 9035750000.0 9035750000.0 9035750000.0 9035750000.0 9035750000.0 9035750000.0 9035750000.0 9035750000.0 9035750000.0 9035750000.0 9035750000.0 9035750000.0 9035750000.0 9035750000.0 9035750000.0 9035750000.0 9035750000.0 9035750000.0 9035750000.0 9035750000.0 9035750000.0 9035750000.0 9035750000.0 9035750000.0 9035750000.0 9035750000.0 9035750000.0 9035750000.0 9035750000.0 9035750000.0 9035750000.0 9035750000.0 9035750000.0 9035750000.0 9035750000.0 