# vtk DataFile Version 2.0
Time step 79
ASCII
DATASET UNSTRUCTURED_GRID
POINTS 5000 float
232953.0 172902.0 0
279587.0 173922.0 0
201854.0 179462.0 0
208570.0 177727.0 0
214345.0 178679.0 0
219605.0 174838.0 0
227362.0 175215.0 0
224320.0 178493.0 0
231613.0 176011.0 0
236545.0 175574.0 0
242478.0 176750.0 0
248917.0 178458.0 0
255231.0 177708.0 0
259792.0 179245.0 0
263976.0 177847.0 0
269056.0 178499.0 0
273312.0 174791.0 0
274351.0 179222.0 0
284158.0 178413.0 0
289890.0 177553.0 0
195855.0 180711.0 0
198974.0 184109.0 0
201950.0 183273.0 0
205583.0 182866.0 0
210726.0 183031.0 0
215637.0 183573.0 0
219801.0 180356.0 0
228327.0 180053.0 0
224581.0 182926.0 0
229063.0 184454.0 0
233313.0 180222.0 0
238597.0 180569.0 0
243773.0 182549.0 0
252485.0 182650.0 0
256589.0 182462.0 0
261449.0 183361.0 0
265471.0 181865.0 0
272141.0 182649.0 0
278857.0 180071.0 0
276909.0 185032.0 0
282788.0 183161.0 0
286270.0 182089.0 0
289472.0 182880.0 0
293111.0 181405.0 0
297900.0 180372.0 0
303314.0 180965.0 0
193043.0 185766.0 0
197305.0 188230.0 0
202450.0 187202.0 0
207870.0 187585.0 0
213247.0 187596.0 0
220178.0 186229.0 0
225625.0 188086.0 0
233651.0 185388.0 0
230494.0 188736.0 0
239143.0 185946.0 0
235452.0 189633.0 0
244466.0 187860.0 0
248632.0 184690.0 0
249421.0 189650.0 0
253423.0 186745.0 0
258368.0 187007.0 0
263151.0 187496.0 0
268154.0 186066.0 0
272915.0 186711.0 0
281029.0 186969.0 0
286507.0 186071.0 0
292622.0 185799.0 0
294610.0 189729.0 0
297827.0 186065.0 0
303418.0 186336.0 0
192605.0 191520.0 0
197971.0 193295.0 0
204048.0 193108.0 0
210910.0 192917.0 0
217095.0 191238.0 0
221991.0 190133.0 0
222061.0 194410.0 0
228024.0 192608.0 0
232216.0 192157.0 0
235685.0 193846.0 0
240215.0 191572.0 0
245513.0 192914.0 0
254687.0 192195.0 0
250301.0 194471.0 0
257924.0 194992.0 0
260558.0 191542.0 0
266401.0 191989.0 0
271179.0 189954.0 0
274004.0 191611.0 0
271559.0 193774.0 0
275681.0 194854.0 0
277690.0 190265.0 0
280122.0 194405.0 0
283994.0 191028.0 0
289905.0 190392.0 0
294215.0 193705.0 0
298724.0 191403.0 0
303553.0 191360.0 0
309014.0 190410.0 0
190280.0 195883.0 0
194268.0 198351.0 0
199988.0 198376.0 0
205614.0 198962.0 0
211047.0 198916.0 0
215825.0 196640.0 0
220107.0 199833.0 0
226402.0 196768.0 0
231251.0 196724.0 0
236738.0 198973.0 0
243739.0 196328.0 0
240698.0 196048.0 0
246811.0 197187.0 0
254318.0 196989.0 0
250312.0 198993.0 0
262422.0 196783.0 0
268745.0 198539.0 0
274733.0 199493.0 0
279350.0 198747.0 0
285003.0 197508.0 0
290309.0 195362.0 0
290092.0 199282.0 0
294227.0 198317.0 0
297800.0 195895.0 0
301339.0 195167.0 0
300517.0 199381.0 0
306458.0 197060.0 0
187736.0 203615.0 0
191661.0 202402.0 0
196142.0 205152.0 0
202218.0 203796.0 0
208662.0 204320.0 0
215184.0 201689.0 0
218255.0 204288.0 0
222835.0 204462.0 0
225835.0 200737.0 0
228104.0 204567.0 0
229533.0 200848.0 0
233010.0 203425.0 0
238771.0 204875.0 0
242480.0 200175.0 0
244765.0 204851.0 0
246971.0 200955.0 0
249436.0 203948.0 0
253668.0 201938.0 0
258116.0 199690.0 0
263669.0 202568.0 0
268873.0 204323.0 0
272125.0 202455.0 0
277987.0 203326.0 0
281741.0 201902.0 0
285258.0 202421.0 0
287993.0 201772.0 0
288034.0 205171.0 0
292408.0 203111.0 0
296870.0 201829.0 0
300466.0 204276.0 0
303938.0 202006.0 0
307837.0 202448.0 0
311990.0 201585.0 0
186208.0 208279.0 0
190781.0 206937.0 0
199930.0 208864.0 0
204530.0 208734.0 0
214408.0 206658.0 0
219336.0 208437.0 0
225476.0 209818.0 0
231467.0 208365.0 0
237614.0 210175.0 0
242272.0 208948.0 0
247910.0 208703.0 0
252965.0 207124.0 0
258289.0 204988.0 0
265575.0 207977.0 0
261165.0 208552.0 0
273529.0 206754.0 0
278692.0 208038.0 0
283108.0 205867.0 0
286805.0 209224.0 0
296228.0 206365.0 0
291579.0 208289.0 0
300903.0 209213.0 0
305473.0 206403.0 0
310469.0 205955.0 0
310004.0 210068.0 0
313585.0 210574.0 0
187630.0 214808.0 0
189372.0 211613.0 0
191418.0 215080.0 0
194264.0 211071.0 0
199349.0 213780.0 0
204045.0 212977.0 0
207136.0 214348.0 0
209859.0 210524.0 0
215456.0 211951.0 0
220616.0 213423.0 0
229670.0 212924.0 0
233735.0 212547.0 0
241425.0 213879.0 0
245132.0 211376.0 0
246636.0 214760.0 0
251817.0 212750.0 0
257241.0 210723.0 0
262405.0 212892.0 0
269703.0 209828.0 0
268049.0 214561.0 0
273341.0 212451.0 0
278213.0 212304.0 0
282576.0 210948.0 0
291126.0 212844.0 0
286626.0 214073.0 0
296027.0 211679.0 0
301322.0 214589.0 0
305823.0 211791.0 0
309839.0 214189.0 0
313464.0 213720.0 0
188929.0 218647.0 0
195081.0 216482.0 0
198583.0 218802.0 0
203508.0 217537.0 0
207395.0 217046.0 0
207529.0 220236.0 0
211213.0 216037.0 0
216690.0 217447.0 0
222239.0 218453.0 0
226137.0 215490.0 0
226834.0 219696.0 0
230541.0 217092.0 0
236242.0 216950.0 0
241292.0 218920.0 0
245765.0 219013.0 0
250534.0 218027.0 0
257323.0 217288.0 0
263789.0 217846.0 0
271870.0 218358.0 0
276229.0 216488.0 0
281518.0 216012.0 0
288785.0 218993.0 0
293770.0 216994.0 0
298302.0 218071.0 0
306902.0 217526.0 0
302468.0 221129.0 0
311709.0 218078.0 0
188639.0 222862.0 0
192984.0 221684.0 0
197441.0 222835.0 0
201649.0 222104.0 0
208047.0 224415.0 0
212401.0 221457.0 0
218706.0 223045.0 0
223951.0 222600.0 0
228499.0 223954.0 0
232813.0 221135.0 0
237826.0 222139.0 0
243323.0 223626.0 0
248645.0 222478.0 0
253195.0 221538.0 0
257594.0 224183.0 0
261800.0 221492.0 0
264521.0 224779.0 0
267704.0 221063.0 0
273400.0 223151.0 0
278530.0 220928.0 0
283908.0 220757.0 0
287819.0 223280.0 0
291492.0 222795.0 0
296205.0 222411.0 0
309122.0 223194.0 0
315372.0 223849.0 0
190210.0 226964.0 0
194693.0 226098.0 0
198585.0 226526.0 0
203225.0 226677.0 0
207571.0 228976.0 0
211269.0 229721.0 0
213352.0 226428.0 0
217731.0 228404.0 0
224050.0 227247.0 0
229340.0 229245.0 0
234033.0 226147.0 0
239145.0 225989.0 0
237693.0 228728.0 0
242257.0 228343.0 0
247386.0 226730.0 0
245954.0 229833.0 0
252081.0 226055.0 0
255963.0 230299.0 0
261165.0 227961.0 0
269178.0 225769.0 0
265980.0 229770.0 0
273233.0 228163.0 0
278088.0 226167.0 0
281291.0 229918.0 0
284013.0 226114.0 0
290081.0 227656.0 0
295246.0 227340.0 0
299930.0 226726.0 0
304548.0 226140.0 0
309765.0 229008.0 0
189442.0 232565.0 0
193965.0 235850.0 0
197122.0 230894.0 0
203439.0 232272.0 0
209391.0 234335.0 0
214238.0 231613.0 0
217866.0 234049.0 0
221305.0 231274.0 0
222325.0 235342.0 0
225643.0 232489.0 0
230113.0 234580.0 0
234512.0 231705.0 0
239365.0 231743.0 0
243184.0 231826.0 0
246751.0 234193.0 0
250114.0 230398.0 0
252259.0 235341.0 0
261292.0 232315.0 0
264935.0 234253.0 0
270420.0 230611.0 0
268888.0 234055.0 0
273195.0 233659.0 0
276965.0 230970.0 0
280546.0 233093.0 0
277776.0 235280.0 0
285689.0 231435.0 0
286865.0 234904.0 0
291372.0 233735.0 0
297546.0 232067.0 0
304474.0 231791.0 0
310420.0 234116.0 0
192892.0 241144.0 0
199140.0 235688.0 0
203718.0 237464.0 0
204272.0 241401.0 0
207504.0 239257.0 0
214452.0 237240.0 0
219711.0 238930.0 0
226280.0 237857.0 0
234125.0 236188.0 0
231796.0 240076.0 0
237720.0 235646.0 0
236141.0 239251.0 0
241758.0 235511.0 0
244326.0 238731.0 0
239886.0 239689.0 0
248388.0 238511.0 0
257791.0 235629.0 0
255376.0 239191.0 0
258898.0 240007.0 0
262113.0 237028.0 0
270907.0 237220.0 0
266932.0 238205.0 0
274541.0 238063.0 0
279044.0 239099.0 0
283026.0 235963.0 0
287789.0 238501.0 0
292832.0 238813.0 0
297464.0 237933.0 0
302266.0 237123.0 0
307301.0 239051.0 0
196190.0 243866.0 0
196582.0 247305.0 0
199673.0 241041.0 0
200335.0 245383.0 0
207805.0 243713.0 0
212897.0 244982.0 0
211550.0 240719.0 0
216111.0 241937.0 0
220445.0 243948.0 0
223688.0 241665.0 0
228120.0 242972.0 0
232462.0 244987.0 0
236390.0 243390.0 0
242952.0 242397.0 0
240177.0 243546.0 0
246734.0 242213.0 0
248918.0 245473.0 0
251583.0 241372.0 0
255925.0 242794.0 0
259421.0 243658.0 0
262689.0 241028.0 0
262951.0 245240.0 0
266562.0 242478.0 0
275858.0 241421.0 0
271266.0 241762.0 0
274988.0 244988.0 0
279290.0 243631.0 0
283195.0 240377.0 0
283431.0 244401.0 0
286593.0 242351.0 0
290895.0 242795.0 0
296182.0 243045.0 0
302090.0 242554.0 0
200547.0 249546.0 0
203446.0 244362.0 0
205269.0 247622.0 0
209969.0 248360.0 0
217352.0 246413.0 0
214667.0 249438.0 0
221585.0 248401.0 0
224560.0 245841.0 0
225848.0 250454.0 0
228904.0 247419.0 0
232280.0 249080.0 0
235761.0 248114.0 0
244244.0 245970.0 0
239842.0 247070.0 0
242790.0 250253.0 0
247053.0 249476.0 0
253161.0 245522.0 0
251173.0 248817.0 0
254579.0 248798.0 0
256743.0 246598.0 0
259855.0 247638.0 0
263338.0 250168.0 0
266947.0 246415.0 0
267782.0 250190.0 0
270946.0 247014.0 0
274337.0 249204.0 0
278372.0 248284.0 0
283105.0 248710.0 0
287221.0 246204.0 0
291569.0 247596.0 0
287517.0 250288.0 0
295406.0 246562.0 0
299436.0 247790.0 0
202136.0 253804.0 0
204853.0 251382.0 0
208404.0 252521.0 0
205493.0 255313.0 0
212266.0 251719.0 0
211412.0 254619.0 0
218586.0 250655.0 0
215806.0 254457.0 0
222626.0 253001.0 0
219586.0 253686.0 0
227115.0 255200.0 0
229940.0 251797.0 0
233962.0 252602.0 0
230797.0 254860.0 0
238532.0 251983.0 0
242254.0 253872.0 0
249931.0 252401.0 0
245878.0 253685.0 0
253281.0 251607.0 0
257778.0 251801.0 0
261842.0 254831.0 0
266379.0 253651.0 0
270898.0 252413.0 0
275938.0 252764.0 0
280372.0 253045.0 0
284798.0 252409.0 0
290690.0 252283.0 0
287561.0 254583.0 0
294752.0 250268.0 0
293770.0 255124.0 0
297697.0 252539.0 0
202280.0 257642.0 0
208854.0 256820.0 0
206191.0 259057.0 0
212878.0 258041.0 0
209845.0 260239.0 0
217181.0 260022.0 0
223529.0 256871.0 0
220115.0 256966.0 0
221789.0 260611.0 0
225713.0 260081.0 0
233073.0 256479.0 0
230142.0 259317.0 0
234354.0 260287.0 0
236432.0 256285.0 0
238102.0 260250.0 0
240191.0 256517.0 0
243844.0 256949.0 0
242003.0 260331.0 0
249257.0 255914.0 0
246710.0 257528.0 0
245820.0 260548.0 0
253699.0 255822.0 0
250175.0 260407.0 0
254806.0 260830.0 0
258054.0 257470.0 0
264958.0 257127.0 0
261617.0 259764.0 0
268721.0 257101.0 0
265405.0 260769.0 0
273434.0 256391.0 0
271703.0 260362.0 0
277568.0 256776.0 0
280718.0 257549.0 0
275746.0 260174.0 0
283982.0 256165.0 0
283014.0 259448.0 0
290267.0 256982.0 0
286699.0 259301.0 0
294836.0 259484.0 0
297750.0 256300.0 0
298386.0 259296.0 0
197272.0 266591.0 0
203091.0 262165.0 0
207653.0 263202.0 0
213052.0 261377.0 0
211473.0 264481.0 0
215869.0 264804.0 0
220282.0 264493.0 0
224334.0 264237.0 0
228360.0 263934.0 0
232124.0 263864.0 0
236002.0 264233.0 0
244191.0 263774.0 0
240092.0 264551.0 0
247719.0 264529.0 0
252075.0 264821.0 0
258540.0 262080.0 0
255851.0 264126.0 0
262268.0 264504.0 0
268531.0 261237.0 0
270451.0 264329.0 0
266615.0 264744.0 0
273924.0 263317.0 0
279419.0 260996.0 0
276816.0 264051.0 0
279990.0 265476.0 0
283230.0 262934.0 0
287083.0 264110.0 0
291051.0 260945.0 0
294839.0 263393.0 0
291489.0 265797.0 0
297895.0 262181.0 0
297989.0 265398.0 0
202011.0 266186.0 0
202890.0 270167.0 0
205822.0 266889.0 0
210066.0 268271.0 0
214344.0 268749.0 0
218445.0 268274.0 0
222848.0 268308.0 0
220368.0 270863.0 0
226393.0 267042.0 0
230052.0 267753.0 0
234118.0 267908.0 0
238060.0 268236.0 0
243596.0 268706.0 0
249129.0 268613.0 0
254978.0 266887.0 0
252812.0 268642.0 0
258543.0 266126.0 0
256798.0 270754.0 0
261204.0 269013.0 0
264949.0 268523.0 0
269283.0 268300.0 0
273588.0 267055.0 0
277012.0 266716.0 0
279220.0 268860.0 0
276322.0 269473.0 0
283513.0 267929.0 0
287732.0 269147.0 0
295297.0 267220.0 0
292760.0 270409.0 0
297906.0 268953.0 0
202255.0 273970.0 0
207387.0 271448.0 0
205460.0 274266.0 0
212119.0 273258.0 0
216744.0 272068.0 0
222609.0 272652.0 0
219807.0 274530.0 0
223381.0 275812.0 0
226802.0 271660.0 0
232095.0 271512.0 0
230646.0 275098.0 0
234609.0 275989.0 0
235848.0 271801.0 0
239497.0 271518.0 0
238460.0 275054.0 0
242714.0 274286.0 0
246845.0 272578.0 0
248613.0 275710.0 0
251743.0 272747.0 0
263596.0 271850.0 0
260705.0 273125.0 0
264748.0 275712.0 0
267314.0 272200.0 0
272487.0 272284.0 0
277346.0 272760.0 0
281225.0 271475.0 0
284952.0 273155.0 0
289180.0 272615.0 0
292355.0 274820.0 0
296905.0 272742.0 0
203087.0 277987.0 0
208607.0 276850.0 0
207144.0 281059.0 0
212614.0 277476.0 0
214278.0 279587.0 0
211269.0 280673.0 0
216017.0 276433.0 0
217085.0 280004.0 0
220293.0 278509.0 0
223991.0 280108.0 0
226858.0 277366.0 0
230939.0 279076.0 0
234214.0 280654.0 0
237709.0 278875.0 0
240798.0 277848.0 0
243912.0 279105.0 0
245553.0 276322.0 0
247385.0 279287.0 0
251420.0 278121.0 0
256005.0 276417.0 0
260700.0 277044.0 0
262997.0 280544.0 0
269612.0 276758.0 0
266868.0 280183.0 0
275042.0 277223.0 0
272091.0 279561.0 0
280357.0 276475.0 0
277995.0 280814.0 0
284624.0 277632.0 0
288283.0 276811.0 0
295072.0 276876.0 0
292226.0 279386.0 0
298156.0 276631.0 0
296748.0 280687.0 0
302750.0 280324.0 0
202956.0 282311.0 0
201537.0 285459.0 0
208236.0 284519.0 0
204834.0 285325.0 0
212005.0 284203.0 0
215505.0 283033.0 0
220382.0 283445.0 0
227929.0 281657.0 0
225098.0 284468.0 0
228281.0 285461.0 0
231259.0 283610.0 0
237377.0 282532.0 0
234834.0 285474.0 0
238927.0 286317.0 0
241000.0 282013.0 0
242549.0 285816.0 0
249844.0 282268.0 0
245407.0 283196.0 0
248548.0 286409.0 0
254019.0 281639.0 0
252279.0 285680.0 0
258231.0 281501.0 0
258904.0 285561.0 0
255647.0 285237.0 0
261894.0 284232.0 0
270230.0 282056.0 0
266277.0 285368.0 0
274536.0 282475.0 0
270827.0 286110.0 0
274629.0 286578.0 0
279304.0 285820.0 0
282290.0 281536.0 0
284140.0 286251.0 0
287694.0 282395.0 0
292872.0 284584.0 0
297777.0 284640.0 0
304194.0 286094.0 0
202481.0 288279.0 0
202396.0 291673.0 0
206435.0 288773.0 0
213841.0 287344.0 0
210359.0 287852.0 0
212929.0 290747.0 0
209226.0 291374.0 0
216982.0 286930.0 0
216687.0 290341.0 0
219941.0 287899.0 0
223246.0 288284.0 0
219616.0 290569.0 0
227159.0 288899.0 0
230547.0 287380.0 0
233439.0 288667.0 0
230584.0 291168.0 0
236282.0 288796.0 0
239024.0 290322.0 0
241722.0 288389.0 0
245369.0 288337.0 0
249718.0 289471.0 0
253123.0 289173.0 0
257214.0 288830.0 0
262111.0 288383.0 0
265304.0 289576.0 0
267824.0 289393.0 0
270564.0 289634.0 0
273046.0 288912.0 0
276545.0 289945.0 0
280038.0 290519.0 0
283402.0 289716.0 0
288159.0 288082.0 0
292972.0 289239.0 0
297325.0 288066.0 0
297942.0 291259.0 0
202289.0 294936.0 0
205651.0 292005.0 0
208072.0 293748.0 0
205531.0 294843.0 0
209067.0 295830.0 0
211167.0 293879.0 0
212310.0 296701.0 0
219049.0 293250.0 0
215293.0 294030.0 0
218470.0 296459.0 0
223082.0 292411.0 0
221275.0 295720.0 0
227025.0 292978.0 0
224612.0 296695.0 0
234458.0 292076.0 0
230424.0 294430.0 0
233248.0 295745.0 0
237866.0 293729.0 0
242922.0 291676.0 0
240972.0 294970.0 0
247664.0 292196.0 0
244877.0 294844.0 0
247886.0 296109.0 0
251480.0 292734.0 0
250619.0 295328.0 0
255245.0 292784.0 0
259910.0 292426.0 0
257592.0 295307.0 0
263879.0 291745.0 0
263922.0 295455.0 0
260311.0 296553.0 0
266541.0 292155.0 0
269809.0 292944.0 0
267504.0 295135.0 0
270326.0 296349.0 0
273218.0 291859.0 0
273236.0 295497.0 0
277308.0 294253.0 0
281941.0 294447.0 0
290021.0 291770.0 0
286451.0 292595.0 0
289652.0 296451.0 0
294668.0 292999.0 0
291689.0 293823.0 0
293904.0 296706.0 0
297981.0 294522.0 0
197681.0 298255.0 0
202321.0 298143.0 0
202672.0 301558.0 0
206055.0 297983.0 0
206243.0 301727.0 0
209638.0 299194.0 0
213677.0 300983.0 0
215481.0 297864.0 0
218436.0 299880.0 0
221490.0 298764.0 0
228213.0 297126.0 0
224649.0 301112.0 0
228356.0 301304.0 0
231787.0 299362.0 0
236557.0 296795.0 0
239626.0 298582.0 0
235367.0 299347.0 0
237352.0 300685.0 0
243801.0 298301.0 0
240447.0 301662.0 0
247813.0 300462.0 0
254253.0 296883.0 0
250954.0 298704.0 0
253373.0 301832.0 0
257774.0 298352.0 0
256301.0 300333.0 0
259261.0 301026.0 0
261201.0 299151.0 0
264352.0 299945.0 0
267515.0 298059.0 0
273874.0 298739.0 0
270484.0 300283.0 0
277452.0 298304.0 0
280682.0 298233.0 0
285569.0 297622.0 0
283191.0 300527.0 0
290769.0 300434.0 0
287351.0 301135.0 0
294349.0 299984.0 0
297532.0 297502.0 0
297658.0 300741.0 0
202488.0 304872.0 0
206166.0 305118.0 0
210136.0 303768.0 0
212977.0 307131.0 0
216676.0 304243.0 0
220978.0 302670.0 0
221984.0 305711.0 0
225475.0 305779.0 0
228888.0 304889.0 0
231996.0 303743.0 0
234771.0 302254.0 0
237991.0 304911.0 0
243184.0 302042.0 0
242087.0 304955.0 0
246065.0 304535.0 0
250479.0 304466.0 0
254085.0 306941.0 0
256986.0 304179.0 0
262305.0 303751.0 0
266867.0 301997.0 0
265754.0 305765.0 0
269334.0 304413.0 0
273503.0 303453.0 0
275443.0 306783.0 0
280047.0 302121.0 0
276455.0 302112.0 0
277809.0 305356.0 0
284588.0 303307.0 0
281690.0 305184.0 0
284315.0 306782.0 0
287583.0 304783.0 0
294411.0 302742.0 0
290997.0 304106.0 0
294169.0 305175.0 0
297573.0 303867.0 0
297410.0 307057.0 0
196515.0 311888.0 0
201779.0 307781.0 0
202924.0 310855.0 0
204808.0 307460.0 0
208599.0 307816.0 0
206447.0 309870.0 0
207688.0 311891.0 0
210681.0 310413.0 0
219194.0 308088.0 0
215532.0 310159.0 0
223537.0 309059.0 0
221247.0 312071.0 0
227293.0 310017.0 0
233823.0 307002.0 0
230118.0 307929.0 0
231993.0 310682.0 0
236278.0 310729.0 0
243331.0 307822.0 0
240072.0 308942.0 0
241467.0 311977.0 0
247270.0 307854.0 0
244993.0 311200.0 0
250769.0 309359.0 0
253622.0 311935.0 0
259918.0 307785.0 0
256430.0 309657.0 0
260034.0 312090.0 0
263558.0 309056.0 0
262846.0 312100.0 0
267986.0 310176.0 0
271701.0 307752.0 0
273692.0 310701.0 0
279934.0 308247.0 0
276749.0 309217.0 0
280235.0 311947.0 0
283571.0 309929.0 0
287727.0 308592.0 0
290737.0 310817.0 0
286692.0 312030.0 0
291166.0 307312.0 0
293846.0 307705.0 0
293918.0 310827.0 0
297418.0 310373.0 0
303051.0 311220.0 0
195692.0 316806.0 0
202226.0 313855.0 0
202866.0 316795.0 0
205476.0 313299.0 0
206579.0 316175.0 0
213291.0 312823.0 0
209496.0 314217.0 0
217678.0 312584.0 0
216525.0 315327.0 0
220250.0 315860.0 0
223940.0 316840.0 0
224993.0 312768.0 0
227565.0 315978.0 0
229902.0 313099.0 0
233543.0 313205.0 0
232669.0 315772.0 0
238848.0 313601.0 0
235860.0 314627.0 0
243271.0 315055.0 0
239945.0 316667.0 0
248459.0 313018.0 0
246192.0 316096.0 0
252143.0 314564.0 0
254374.0 316246.0 0
250072.0 317083.0 0
257027.0 313871.0 0
258947.0 316944.0 0
262217.0 315713.0 0
266059.0 313987.0 0
269645.0 315688.0 0
266352.0 317123.0 0
270896.0 312809.0 0
273176.0 314178.0 0
273512.0 317266.0 0
276735.0 312804.0 0
277433.0 316804.0 0
283947.0 313613.0 0
281090.0 315082.0 0
289645.0 314462.0 0
285937.0 316651.0 0
294525.0 314220.0 0
298335.0 312933.0 0
297913.0 315292.0 0
202888.0 320489.0 0
206223.0 319616.0 0
208409.0 322304.0 0
212395.0 317432.0 0
209455.0 319047.0 0
213642.0 321352.0 0
216516.0 318913.0 0
217537.0 322238.0 0
219721.0 319259.0 0
223383.0 321302.0 0
227023.0 320048.0 0
228830.0 322511.0 0
230512.0 318689.0 0
233981.0 320724.0 0
236023.0 317602.0 0
238100.0 319913.0 0
243392.0 319734.0 0
239975.0 319855.0 0
240658.0 322168.0 0
247153.0 319359.0 0
249780.0 319876.0 0
247827.0 322298.0 0
252607.0 318784.0 0
251434.0 321929.0 0
255961.0 319565.0 0
263457.0 318792.0 0
260234.0 320833.0 0
263833.0 322298.0 0
270341.0 318985.0 0
267082.0 320070.0 0
273877.0 320778.0 0
280170.0 319377.0 0
276698.0 321191.0 0
282443.0 317445.0 0
284403.0 320094.0 0
281808.0 322304.0 0
289276.0 319484.0 0
286445.0 321600.0 0
293318.0 317921.0 0
293643.0 322209.0 0
297778.0 317863.0 0
297079.0 321046.0 0
201937.0 323775.0 0
202002.0 326276.0 0
205314.0 323511.0 0
208925.0 325485.0 0
205497.0 326402.0 0
211287.0 322591.0 0
211768.0 325127.0 0
211729.0 327642.0 0
215168.0 324687.0 0
218561.0 326108.0 0
220128.0 323753.0 0
221705.0 327061.0 0
225567.0 325554.0 0
229352.0 326479.0 0
231816.0 323717.0 0
232565.0 327193.0 0
237360.0 322955.0 0
235167.0 325124.0 0
239300.0 326142.0 0
244706.0 323479.0 0
241949.0 324526.0 0
242654.0 327575.0 0
249433.0 325499.0 0
246152.0 327106.0 0
255055.0 323671.0 0
252820.0 327405.0 0
258581.0 325150.0 0
262119.0 325066.0 0
264584.0 326434.0 0
267602.0 323869.0 0
269009.0 327352.0 0
271498.0 322879.0 0
274236.0 324451.0 0
271544.0 325884.0 0
273378.0 327377.0 0
278233.0 324922.0 0
284270.0 325048.0 0
281515.0 327272.0 0
290663.0 323065.0 0
287816.0 324615.0 0
288333.0 327237.0 0
294675.0 325186.0 0
291744.0 325864.0 0
294956.0 327650.0 0
297696.0 324225.0 0
298155.0 326608.0 0
202161.0 328832.0 0
202054.0 331363.0 0
205670.0 329637.0 0
209166.0 328531.0 0
210176.0 331735.0 0
213570.0 330905.0 0
214706.0 327923.0 0
217668.0 328663.0 0
217056.0 331877.0 0
220911.0 330776.0 0
224664.0 330685.0 0
228065.0 330350.0 0
231597.0 331015.0 0
236485.0 328073.0 0
235126.0 331099.0 0
239983.0 330145.0 0
243196.0 330428.0 0
247004.0 331152.0 0
250783.0 330323.0 0
255506.0 329547.0 0
258657.0 328701.0 0
259816.0 331826.0 0
255469.0 332672.0 0
261818.0 328299.0 0
263141.0 330657.0 0
265844.0 329398.0 0
267995.0 332124.0 0
271277.0 330092.0 0
274381.0 331666.0 0
276439.0 328620.0 0
278586.0 330534.0 0
285497.0 327724.0 0
281915.0 330240.0 0
285185.0 330247.0 0
288533.0 330422.0 0
291612.0 328871.0 0
293503.0 332036.0 0
298004.0 328875.0 0
296821.0 331751.0 0
196497.0 336752.0 0
202751.0 334191.0 0
202494.0 337187.0 0
206442.0 333113.0 0
207673.0 336403.0 0
211237.0 334951.0 0
214438.0 334624.0 0
217837.0 335357.0 0
221160.0 334968.0 0
224975.0 334726.0 0
227932.0 334742.0 0
231542.0 335344.0 0
237268.0 333143.0 0
234813.0 335904.0 0
237674.0 337284.0 0
239775.0 335093.0 0
241855.0 333261.0 0
244673.0 334511.0 0
249553.0 334718.0 0
247302.0 336786.0 0
252329.0 332958.0 0
253466.0 335772.0 0
251316.0 337706.0 0
255685.0 337353.0 0
258227.0 335270.0 0
263210.0 333728.0 0
261446.0 336046.0 0
266549.0 335241.0 0
269671.0 336800.0 0
270947.0 333328.0 0
272496.0 335287.0 0
278029.0 333122.0 0
275828.0 334749.0 0
279547.0 335615.0 0
281210.0 333344.0 0
285489.0 333367.0 0
283824.0 335217.0 0
281930.0 337346.0 0
288583.0 333467.0 0
288203.0 336304.0 0
291426.0 333991.0 0
291864.0 337150.0 0
294746.0 335932.0 0
297975.0 334625.0 0
297731.0 337164.0 0
303399.0 337122.0 0
201798.0 339747.0 0
202495.0 342306.0 0
205476.0 338419.0 0
209089.0 341555.0 0
205749.0 341502.0 0
210806.0 338769.0 0
214191.0 341340.0 0
214847.0 338009.0 0
217890.0 338713.0 0
217372.0 342211.0 0
221441.0 338662.0 0
220383.0 341598.0 0
225151.0 338198.0 0
227790.0 338005.0 0
224712.0 341346.0 0
227228.0 340709.0 0
229543.0 341453.0 0
230699.0 338680.0 0
233432.0 340344.0 0
235813.0 339593.0 0
238932.0 342182.0 0
240668.0 338393.0 0
243590.0 337937.0 0
242535.0 342701.0 0
248406.0 339794.0 0
245189.0 341151.0 0
253446.0 340603.0 0
259013.0 338933.0 0
256911.0 340405.0 0
261954.0 339697.0 0
265041.0 338511.0 0
267217.0 341296.0 0
270409.0 340280.0 0
273513.0 339076.0 0
274205.0 342767.0 0
277075.0 338294.0 0
276522.0 342110.0 0
280872.0 340273.0 0
284236.0 341649.0 0
285842.0 338140.0 0
289608.0 340050.0 0
294108.0 339544.0 0
292928.0 342113.0 0
290725.0 343407.0 0
297143.0 339982.0 0
297807.0 342849.0 0
201973.0 345147.0 0
202017.0 347554.0 0
205375.0 345250.0 0
208955.0 345077.0 0
205781.0 348024.0 0
212361.0 343782.0 0
214216.0 346020.0 0
217529.0 345587.0 0
222751.0 343559.0 0
220892.0 345850.0 0
226385.0 343939.0 0
228370.0 343794.0 0
225466.0 346705.0 0
232632.0 343452.0 0
229996.0 345715.0 0
232549.0 347231.0 0
236085.0 344426.0 0
240417.0 346039.0 0
243448.0 346069.0 0
246727.0 344766.0 0
250413.0 343332.0 0
254893.0 343684.0 0
252562.0 347507.0 0
258088.0 343605.0 0
256948.0 346756.0 0
261488.0 343582.0 0
261722.0 347829.0 0
265261.0 347932.0 0
265587.0 344207.0 0
268742.0 345507.0 0
268515.0 347480.0 0
271225.0 344165.0 0
272199.0 347792.0 0
274828.0 345733.0 0
279521.0 343918.0 0
277494.0 346332.0 0
282477.0 345454.0 0
284902.0 346418.0 0
287216.0 343027.0 0
288223.0 345867.0 0
290464.0 347316.0 0
291039.0 344852.0 0
294626.0 344671.0 0
293475.0 347602.0 0
298004.0 345773.0 0
197463.0 349771.0 0
201312.0 349578.0 0
201894.0 351719.0 0
204461.0 350159.0 0
208308.0 350757.0 0
205916.0 353287.0 0
209534.0 348122.0 0
212619.0 348677.0 0
212340.0 352006.0 0
210112.0 352338.0 0
217434.0 348753.0 0
215342.0 350533.0 0
219833.0 350213.0 0
222615.0 348884.0 0
219177.0 352644.0 0
224321.0 351503.0 0
228148.0 348198.0 0
226943.0 351261.0 0
231089.0 350318.0 0
235941.0 348078.0 0
239271.0 348575.0 0
234891.0 351834.0 0
237863.0 352812.0 0
244143.0 349102.0 0
241279.0 350868.0 0
247811.0 348224.0 0
245537.0 351831.0 0
247987.0 351901.0 0
250328.0 351066.0 0
254743.0 351166.0 0
258844.0 348423.0 0
258198.0 351670.0 0
262004.0 351357.0 0
269779.0 349861.0 0
266219.0 350830.0 0
274379.0 349818.0 0
270697.0 352528.0 0
273468.0 352339.0 0
277881.0 349593.0 0
278576.0 352993.0 0
281136.0 348340.0 0
283000.0 349809.0 0
281640.0 352126.0 0
283991.0 353179.0 0
285777.0 349078.0 0
288704.0 349121.0 0
286569.0 352393.0 0
289927.0 352176.0 0
293162.0 351143.0 0
297907.0 348154.0 0
297152.0 350764.0 0
202069.0 354102.0 0
202299.0 356495.0 0
205556.0 356775.0 0
212950.0 355079.0 0
209144.0 355699.0 0
213490.0 357670.0 0
216266.0 353419.0 0
216962.0 356366.0 0
221691.0 353368.0 0
224156.0 354697.0 0
219890.0 355483.0 0
221287.0 356833.0 0
224315.0 357684.0 0
226619.0 354725.0 0
229493.0 353708.0 0
229356.0 357264.0 0
226971.0 358267.0 0
233363.0 355086.0 0
235747.0 356678.0 0
237655.0 355563.0 0
239121.0 357825.0 0
244651.0 354088.0 0
241353.0 354565.0 0
242852.0 357759.0 0
249173.0 355076.0 0
246363.0 355537.0 0
251542.0 353269.0 0
254116.0 354725.0 0
251950.0 356861.0 0
259006.0 354702.0 0
256190.0 356592.0 0
263542.0 353809.0 0
261863.0 356657.0 0
266873.0 353855.0 0
267738.0 357088.0 0
270727.0 355122.0 0
272868.0 356913.0 0
275540.0 355111.0 0
277351.0 358263.0 0
280356.0 356039.0 0
283368.0 356046.0 0
286810.0 356024.0 0
290012.0 355528.0 0
294219.0 354140.0 0
293114.0 356215.0 0
297724.0 353624.0 0
297286.0 356410.0 0
203341.0 359576.0 0
201724.0 362468.0 0
208969.0 358720.0 0
206306.0 362049.0 0
214308.0 360979.0 0
210047.0 362921.0 0
211436.0 360329.0 0
217567.0 358970.0 0
220197.0 359374.0 0
222937.0 360549.0 0
220174.0 363216.0 0
225147.0 363194.0 0
229742.0 361477.0 0
227471.0 361008.0 0
234559.0 358834.0 0
231889.0 359118.0 0
233423.0 362228.0 0
236938.0 359213.0 0
235675.0 361148.0 0
238933.0 361403.0 0
237550.0 363280.0 0
241306.0 360572.0 0
244641.0 362099.0 0
249204.0 359511.0 0
245815.0 358541.0 0
247564.0 363128.0 0
252871.0 359244.0 0
251547.0 361716.0 0
254577.0 363373.0 0
256116.0 360082.0 0
260008.0 359615.0 0
258327.0 363168.0 0
264885.0 358792.0 0
261466.0 362588.0 0
264773.0 362347.0 0
270018.0 359798.0 0
267995.0 362296.0 0
274081.0 359118.0 0
272631.0 361796.0 0
279526.0 359697.0 0
275775.0 360767.0 0
277164.0 362611.0 0
279139.0 362759.0 0
283072.0 359948.0 0
286766.0 359729.0 0
289920.0 358743.0 0
290684.0 361755.0 0
288206.0 363186.0 0
293532.0 358837.0 0
293427.0 361825.0 0
297440.0 359159.0 0
297354.0 362006.0 0
201886.0 364488.0 0
202575.0 366816.0 0
206253.0 365723.0 0
211624.0 364954.0 0
214023.0 365817.0 0
209569.0 367390.0 0
217080.0 363496.0 0
217824.0 367330.0 0
223000.0 366088.0 0
220599.0 368340.0 0
228043.0 365202.0 0
226828.0 368146.0 0
230573.0 364361.0 0
232681.0 367728.0 0
235291.0 365236.0 0
238433.0 367572.0 0
242298.0 364170.0 0
239802.0 365000.0 0
243935.0 367397.0 0
247149.0 367130.0 0
250273.0 364519.0 0
252649.0 365559.0 0
257295.0 365854.0 0
260524.0 365689.0 0
264903.0 365752.0 0
262570.0 368017.0 0
267449.0 366730.0 0
269191.0 364849.0 0
269823.0 368376.0 0
272566.0 364964.0 0
276002.0 364818.0 0
277940.0 366909.0 0
280497.0 366206.0 0
282455.0 363551.0 0
285554.0 364824.0 0
282892.0 368088.0 0
290375.0 366098.0 0
285920.0 367782.0 0
292906.0 365104.0 0
296993.0 365077.0 0
202140.0 374576.0 0
202854.0 369669.0 0
202095.0 372141.0 0
206554.0 370143.0 0
211876.0 369813.0 0
209477.0 372048.0 0
213564.0 373082.0 0
214859.0 369035.0 0
216426.0 371732.0 0
218600.0 370660.0 0
221791.0 371777.0 0
224209.0 373853.0 0
224923.0 370057.0 0
226762.0 372902.0 0
228742.0 371399.0 0
229727.0 368877.0 0
233461.0 371895.0 0
230642.0 372509.0 0
236645.0 370576.0 0
239325.0 373276.0 0
241611.0 369630.0 0
244147.0 372079.0 0
249627.0 368927.0 0
246358.0 371434.0 0
248876.0 372883.0 0
253035.0 368968.0 0
251978.0 372773.0 0
256680.0 369392.0 0
259933.0 371125.0 0
255413.0 373283.0 0
264821.0 370113.0 0
264600.0 372463.0 0
267402.0 369684.0 0
268600.0 371931.0 0
265947.0 373235.0 0
271302.0 371288.0 0
272829.0 368455.0 0
273929.0 373108.0 0
276064.0 369960.0 0
278796.0 372258.0 0
281306.0 370278.0 0
283777.0 371718.0 0
283113.0 374152.0 0
287302.0 370696.0 0
290771.0 369372.0 0
291102.0 373362.0 0
293684.0 371011.0 0
296398.0 368287.0 0
298142.0 373459.0 0
298138.0 371394.0 0
302895.0 369974.0 0
200634.0 377668.0 0
198411.0 378832.0 0
196183.0 380061.0 0
204095.0 375727.0 0
205339.0 373293.0 0
202640.0 379880.0 0
204531.0 377878.0 0
206733.0 376296.0 0
207576.0 374680.0 0
206492.0 378626.0 0
209445.0 376715.0 0
211601.0 374715.0 0
213090.0 377305.0 0
217179.0 374457.0 0
215966.0 377210.0 0
218892.0 378699.0 0
220233.0 374711.0 0
221376.0 377765.0 0
224137.0 376723.0 0
228184.0 375076.0 0
226624.0 377708.0 0
230781.0 376242.0 0
233899.0 375783.0 0
237230.0 376561.0 0
242627.0 374592.0 0
242941.0 377714.0 0
240306.0 378897.0 0
245461.0 374751.0 0
248020.0 376309.0 0
253106.0 375646.0 0
250828.0 377997.0 0
257427.0 374828.0 0
255409.0 377556.0 0
257856.0 378410.0 0
259459.0 376648.0 0
261842.0 373884.0 0
262896.0 377644.0 0
268650.0 374667.0 0
265990.0 376665.0 0
271762.0 374695.0 0
269368.0 379162.0 0
272867.0 378668.0 0
275827.0 374996.0 0
277230.0 377349.0 0
280052.0 375459.0 0
281964.0 378010.0 0
285341.0 375328.0 0
284889.0 377842.0 0
287962.0 373920.0 0
289306.0 377226.0 0
294751.0 374016.0 0
291739.0 376313.0 0
293664.0 379144.0 0
295445.0 377048.0 0
299113.0 376383.0 0
300240.0 379162.0 0
303676.0 379336.0 0
305481.0 380720.0 0
189705.0 385399.0 0
191822.0 383328.0 0
194325.0 382065.0 0
194477.0 385564.0 0
200168.0 382173.0 0
197382.0 383855.0 0
202316.0 384389.0 0
204471.0 381969.0 0
208890.0 379537.0 0
207283.0 383144.0 0
210213.0 383292.0 0
211776.0 379919.0 0
212880.0 385027.0 0
213566.0 381990.0 0
216630.0 380974.0 0
219725.0 381621.0 0
220088.0 384102.0 0
222203.0 381224.0 0
224828.0 381144.0 0
227702.0 380968.0 0
230884.0 379926.0 0
233477.0 381827.0 0
236215.0 380567.0 0
239851.0 382390.0 0
243539.0 382296.0 0
245723.0 379199.0 0
249250.0 381001.0 0
246739.0 382671.0 0
251227.0 382681.0 0
253392.0 380552.0 0
258541.0 381308.0 0
255699.0 383271.0 0
261720.0 380913.0 0
264955.0 381337.0 0
267101.0 381177.0 0
268005.0 384313.0 0
270078.0 383375.0 0
271577.0 383032.0 0
274680.0 382108.0 0
277741.0 380004.0 0
279540.0 382843.0 0
280166.0 379772.0 0
283039.0 380660.0 0
281589.0 383020.0 0
285263.0 382568.0 0
287375.0 379570.0 0
289304.0 382542.0 0
292196.0 381652.0 0
295744.0 382445.0 0
297881.0 381636.0 0
302228.0 381873.0 0
300199.0 384601.0 0
304130.0 386437.0 0
307036.0 382574.0 0
303818.0 384045.0 0
309175.0 384058.0 0
311561.0 385873.0 0
314800.0 386329.0 0
180191.0 389803.0 0
182370.0 388826.0 0
184394.0 387662.0 0
186909.0 386385.0 0
186485.0 390596.0 0
189499.0 389551.0 0
192988.0 387548.0 0
194691.0 389181.0 0
197984.0 386519.0 0
198494.0 389451.0 0
202215.0 387091.0 0
203649.0 389604.0 0
206368.0 386059.0 0
207558.0 389144.0 0
210814.0 387584.0 0
212801.0 390158.0 0
215722.0 386355.0 0
215771.0 389019.0 0
217635.0 384096.0 0
218895.0 387105.0 0
222791.0 384841.0 0
225486.0 385103.0 0
221763.0 388821.0 0
227708.0 388422.0 0
228318.0 384706.0 0
230247.0 388757.0 0
230958.0 385103.0 0
234416.0 386253.0 0
233114.0 389667.0 0
237207.0 384494.0 0
237697.0 388314.0 0
240423.0 386676.0 0
243173.0 385474.0 0
244602.0 388398.0 0
245235.0 385507.0 0
248108.0 385368.0 0
247250.0 388745.0 0
250757.0 385100.0 0
253527.0 386284.0 0
250398.0 389486.0 0
257761.0 387042.0 0
259296.0 385173.0 0
259644.0 388711.0 0
262572.0 384908.0 0
262299.0 388007.0 0
265565.0 384764.0 0
266128.0 387531.0 0
268814.0 387443.0 0
265264.0 390044.0 0
271470.0 386398.0 0
273170.0 385366.0 0
272302.0 388995.0 0
275537.0 387252.0 0
277149.0 384856.0 0
278609.0 388811.0 0
279550.0 386802.0 0
282015.0 387363.0 0
284105.0 385476.0 0
286016.0 387320.0 0
287069.0 385313.0 0
289228.0 385428.0 0
289036.0 388155.0 0
293563.0 385085.0 0
291992.0 387006.0 0
295991.0 386556.0 0
298849.0 386536.0 0
295383.0 389573.0 0
300228.0 389410.0 0
302884.0 389049.0 0
307040.0 386997.0 0
304913.0 390751.0 0
308141.0 389612.0 0
311800.0 388859.0 0
313785.0 391103.0 0
316309.0 388452.0 0
318455.0 389668.0 0
320662.0 390884.0 0
168970.0 396460.0 0
176047.0 391891.0 0
171042.0 395742.0 0
173238.0 394939.0 0
178555.0 391583.0 0
174512.0 393185.0 0
178543.0 394237.0 0
183708.0 392192.0 0
182459.0 394548.0 0
185378.0 396635.0 0
187296.0 393299.0 0
188042.0 395598.0 0
190751.0 391732.0 0
194238.0 391797.0 0
190863.0 395451.0 0
192682.0 393616.0 0
195882.0 393721.0 0
198788.0 392179.0 0
200328.0 394684.0 0
203442.0 392645.0 0
202739.0 396154.0 0
205955.0 394503.0 0
208181.0 391930.0 0
210838.0 393169.0 0
214261.0 392952.0 0
217626.0 390511.0 0
218583.0 393097.0 0
221513.0 392653.0 0
225111.0 389905.0 0
223297.0 394770.0 0
229073.0 392293.0 0
226244.0 393956.0 0
232063.0 393252.0 0
234874.0 394213.0 0
235917.0 391255.0 0
239009.0 392232.0 0
242061.0 390308.0 0
244418.0 392741.0 0
247166.0 392123.0 0
252867.0 389853.0 0
254022.0 393252.0 0
250689.0 393644.0 0
255580.0 389480.0 0
257853.0 391183.0 0
258249.0 393685.0 0
260287.0 391153.0 0
262774.0 391768.0 0
267210.0 391647.0 0
269975.0 393599.0 0
269479.0 390210.0 0
267140.0 394937.0 0
271446.0 391632.0 0
274034.0 392713.0 0
274788.0 389844.0 0
277665.0 390705.0 0
276746.0 394076.0 0
279427.0 392921.0 0
281139.0 390391.0 0
283846.0 390449.0 0
284543.0 393449.0 0
287658.0 392235.0 0
286512.0 389797.0 0
290553.0 390940.0 0
293078.0 390221.0 0
290644.0 393699.0 0
293016.0 394433.0 0
297572.0 391180.0 0
294987.0 393416.0 0
297211.0 395571.0 0
300070.0 393323.0 0
302506.0 394101.0 0
305471.0 393423.0 0
306799.0 396420.0 0
309729.0 392752.0 0
310261.0 395578.0 0
314064.0 396072.0 0
315545.0 393334.0 0
318202.0 393726.0 0
322867.0 391939.0 0
320794.0 394082.0 0
322090.0 395785.0 0
324830.0 393329.0 0
327421.0 393822.0 0
325331.0 396121.0 0
328715.0 395005.0 0
330182.0 396174.0 0
160616.0 401799.0 0
163794.0 401280.0 0
165788.0 399287.0 0
167310.0 397598.0 0
169123.0 400909.0 0
170635.0 398782.0 0
173141.0 399157.0 0
173382.0 401943.0 0
174961.0 397473.0 0
177335.0 396654.0 0
179146.0 398429.0 0
175927.0 400415.0 0
181881.0 397282.0 0
183079.0 400121.0 0
187979.0 398839.0 0
185548.0 399595.0 0
190326.0 400434.0 0
192506.0 398087.0 0
195343.0 396221.0 0
194535.0 400097.0 0
197913.0 397520.0 0
197234.0 401309.0 0
204638.0 397200.0 0
201039.0 398018.0 0
203056.0 400334.0 0
206160.0 400361.0 0
208143.0 396298.0 0
207759.0 398633.0 0
209843.0 399308.0 0
210873.0 396256.0 0
212110.0 400513.0 0
213249.0 397791.0 0
216032.0 395698.0 0
217786.0 398668.0 0
220145.0 395573.0 0
221531.0 398083.0 0
224052.0 399813.0 0
226571.0 397960.0 0
229115.0 396329.0 0
228515.0 400134.0 0
231541.0 396635.0 0
234096.0 397360.0 0
236111.0 398010.0 0
237458.0 395230.0 0
239945.0 397460.0 0
241816.0 395113.0 0
243900.0 397245.0 0
244855.0 399516.0 0
241832.0 399916.0 0
245798.0 395673.0 0
248549.0 396625.0 0
252214.0 397654.0 0
256124.0 395648.0 0
254901.0 398606.0 0
259239.0 397328.0 0
260526.0 394721.0 0
264015.0 395419.0 0
262753.0 399158.0 0
267205.0 398633.0 0
269420.0 397371.0 0
272579.0 395734.0 0
272419.0 399261.0 0
276061.0 397036.0 0
278820.0 397427.0 0
281530.0 395207.0 0
282899.0 398258.0 0
286637.0 395487.0 0
289266.0 395873.0 0
285855.0 398320.0 0
287741.0 400257.0 0
290625.0 398406.0 0
292704.0 400715.0 0
293051.0 396625.0 0
295086.0 399826.0 0
294973.0 397259.0 0
299053.0 397905.0 0
297673.0 400501.0 0
304132.0 397187.0 0
301617.0 398513.0 0
300475.0 401035.0 0
307830.0 399500.0 0
305957.0 399395.0 0
310367.0 398492.0 0
311111.0 401492.0 0
313091.0 399760.0 0
315252.0 398399.0 0
318307.0 396628.0 0
317179.0 400524.0 0
320273.0 398278.0 0
322371.0 399994.0 0
328944.0 398266.0 0
325884.0 398894.0 0
331689.0 398038.0 0
333979.0 398919.0 0
330632.0 401054.0 0
335938.0 401079.0 0
154165.0 406001.0 0
158814.0 404080.0 0
156855.0 405254.0 0
164199.0 404018.0 0
161470.0 405491.0 0
167277.0 403026.0 0
165885.0 406287.0 0
168771.0 406231.0 0
171247.0 404050.0 0
177765.0 402525.0 0
175240.0 404764.0 0
178794.0 405360.0 0
180629.0 401468.0 0
182136.0 404271.0 0
184469.0 402539.0 0
181487.0 406412.0 0
184185.0 404028.0 0
186390.0 401790.0 0
189529.0 402943.0 0
187086.0 404012.0 0
185720.0 405955.0 0
193066.0 402319.0 0
191345.0 405546.0 0
194495.0 404440.0 0
200011.0 402881.0 0
195978.0 406445.0 0
198872.0 406065.0 0
202490.0 405299.0 0
204233.0 403579.0 0
208079.0 402422.0 0
205988.0 404402.0 0
210850.0 403812.0 0
213979.0 404288.0 0
215109.0 400692.0 0
216660.0 403064.0 0
217400.0 405631.0 0
219378.0 401645.0 0
221190.0 404157.0 0
224291.0 403249.0 0
227347.0 402592.0 0
229536.0 405465.0 0
231567.0 400745.0 0
234446.0 402323.0 0
237755.0 400869.0 0
239531.0 404895.0 0
242181.0 402692.0 0
244040.0 404106.0 0
244669.0 401866.0 0
247806.0 400078.0 0
247354.0 403607.0 0
250864.0 400521.0 0
252994.0 402702.0 0
250344.0 405048.0 0
258360.0 400748.0 0
256419.0 404687.0 0
260084.0 405121.0 0
261501.0 402733.0 0
263495.0 404042.0 0
265633.0 400425.0 0
268742.0 401756.0 0
266420.0 404069.0 0
270172.0 400315.0 0
270220.0 403986.0 0
273351.0 404376.0 0
278775.0 400877.0 0
275254.0 401364.0 0
278085.0 404460.0 0
280589.0 404726.0 0
281989.0 401581.0 0
283717.0 405647.0 0
284835.0 402881.0 0
288270.0 403744.0 0
292039.0 404141.0 0
295455.0 404849.0 0
298183.0 403540.0 0
302656.0 401209.0 0
300355.0 406128.0 0
301174.0 402763.0 0
302569.0 403646.0 0
304912.0 401711.0 0
308613.0 402112.0 0
306489.0 404193.0 0
314412.0 401839.0 0
312827.0 404113.0 0
309950.0 406010.0 0
318075.0 402886.0 0
315257.0 405167.0 0
319591.0 404970.0 0
322024.0 402522.0 0
322986.0 405154.0 0
327651.0 401923.0 0
325398.0 403751.0 0
327177.0 406061.0 0
329399.0 404989.0 0
332980.0 402632.0 0
332209.0 404676.0 0
335849.0 404195.0 0
338763.0 402181.0 0
335987.0 406232.0 0
338872.0 406711.0 0
340899.0 404520.0 0
343661.0 405216.0 0
346060.0 406472.0 0
144105.0 411932.0 0
148770.0 409568.0 0
147060.0 411493.0 0
150910.0 408325.0 0
153183.0 408435.0 0
150751.0 411733.0 0
153728.0 411299.0 0
156621.0 408520.0 0
158800.0 409941.0 0
161335.0 408200.0 0
164199.0 408834.0 0
162991.0 411595.0 0
168581.0 408859.0 0
166028.0 410703.0 0
172176.0 407084.0 0
170451.0 409919.0 0
173617.0 409820.0 0
175489.0 407294.0 0
177584.0 407433.0 0
179609.0 408008.0 0
176549.0 411294.0 0
179238.0 411010.0 0
184115.0 408286.0 0
182688.0 410837.0 0
188734.0 407315.0 0
186943.0 409729.0 0
192580.0 408019.0 0
190477.0 409338.0 0
193258.0 411403.0 0
194505.0 409164.0 0
197206.0 410146.0 0
199931.0 408596.0 0
203174.0 407549.0 0
201504.0 411163.0 0
204724.0 409890.0 0
206223.0 406586.0 0
209285.0 407423.0 0
212455.0 408359.0 0
211764.0 411267.0 0
214754.0 407402.0 0
214302.0 411433.0 0
216780.0 409786.0 0
219899.0 407780.0 0
222320.0 410400.0 0
223318.0 407311.0 0
225349.0 409543.0 0
225826.0 405992.0 0
228451.0 409155.0 0
232791.0 406291.0 0
233050.0 409700.0 0
236545.0 406331.0 0
236460.0 410079.0 0
239473.0 410131.0 0
241703.0 407673.0 0
244403.0 411187.0 0
245443.0 407448.0 0
250984.0 408216.0 0
254666.0 408096.0 0
256764.0 410293.0 0
258859.0 408167.0 0
261867.0 407322.0 0
265128.0 408269.0 0
268514.0 407379.0 0
271546.0 407323.0 0
274124.0 409047.0 0
271922.0 410392.0 0
276675.0 407392.0 0
279890.0 407933.0 0
282671.0 408109.0 0
285799.0 409351.0 0
287333.0 406878.0 0
289740.0 408726.0 0
292013.0 407610.0 0
294196.0 409792.0 0
296044.0 407961.0 0
298763.0 408520.0 0
303718.0 406411.0 0
301305.0 408990.0 0
304906.0 409736.0 0
308001.0 408486.0 0
313982.0 407989.0 0
311718.0 409521.0 0
317167.0 407650.0 0
316458.0 410338.0 0
319638.0 411149.0 0
323137.0 408309.0 0
319919.0 408641.0 0
323691.0 411623.0 0
326006.0 407785.0 0
327863.0 407989.0 0
329280.0 410428.0 0
330829.0 407765.0 0
333785.0 407735.0 0
333524.0 410510.0 0
331994.0 411856.0 0
335564.0 411576.0 0
336536.0 409542.0 0
339652.0 409954.0 0
342471.0 408694.0 0
344623.0 409736.0 0
348026.0 408798.0 0
350248.0 410375.0 0
353411.0 411029.0 0
137889.0 416870.0 0
139788.0 415119.0 0
142328.0 414086.0 0
147500.0 414299.0 0
144426.0 416304.0 0
150553.0 415705.0 0
153338.0 414545.0 0
156505.0 412114.0 0
156380.0 415538.0 0
159525.0 414997.0 0
160223.0 412456.0 0
162736.0 413627.0 0
160860.0 416666.0 0
164301.0 415136.0 0
166921.0 413306.0 0
169723.0 412445.0 0
168258.0 416171.0 0
172444.0 413319.0 0
171230.0 416023.0 0
175476.0 414125.0 0
179518.0 413959.0 0
175997.0 416636.0 0
179242.0 416207.0 0
183298.0 413656.0 0
182016.0 415671.0 0
187541.0 411901.0 0
185856.0 414345.0 0
187603.0 416445.0 0
190698.0 411673.0 0
194356.0 413056.0 0
190603.0 414698.0 0
193154.0 416361.0 0
197367.0 412873.0 0
196398.0 415832.0 0
201320.0 414338.0 0
205364.0 414452.0 0
208019.0 411386.0 0
210052.0 414879.0 0
212307.0 414230.0 0
214907.0 415038.0 0
217481.0 413115.0 0
220221.0 412113.0 0
222224.0 415277.0 0
224733.0 412888.0 0
227398.0 413907.0 0
230476.0 412210.0 0
233424.0 413612.0 0
236233.0 413732.0 0
238840.0 414718.0 0
241804.0 412870.0 0
246564.0 413226.0 0
248185.0 410288.0 0
249954.0 414097.0 0
252605.0 411625.0 0
255052.0 413279.0 0
258115.0 415125.0 0
259337.0 411759.0 0
262015.0 411064.0 0
264262.0 413899.0 0
261733.0 415789.0 0
266227.0 411012.0 0
267542.0 415213.0 0
269089.0 411413.0 0
270677.0 415885.0 0
271144.0 413629.0 0
273719.0 413065.0 0
276740.0 411812.0 0
279744.0 411925.0 0
280002.0 415474.0 0
282558.0 412254.0 0
286463.0 413187.0 0
289709.0 411453.0 0
291560.0 415265.0 0
292268.0 412238.0 0
296756.0 412403.0 0
299240.0 411649.0 0
294773.0 413723.0 0
302368.0 411779.0 0
299880.0 415613.0 0
302605.0 415467.0 0
307161.0 412852.0 0
305591.0 415164.0 0
309723.0 412285.0 0
314252.0 412326.0 0
312291.0 414795.0 0
315250.0 416378.0 0
317895.0 414077.0 0
321969.0 414345.0 0
327190.0 412401.0 0
327404.0 415464.0 0
334958.0 413232.0 0
330487.0 415848.0 0
332673.0 414449.0 0
337589.0 414618.0 0
338465.0 412575.0 0
341672.0 412705.0 0
340369.0 415026.0 0
344399.0 413036.0 0
343977.0 416272.0 0
347007.0 413308.0 0
348737.0 415966.0 0
350540.0 413882.0 0
353126.0 415104.0 0
355709.0 413334.0 0
358239.0 415211.0 0
360847.0 416679.0 0
133385.0 420187.0 0
130774.0 421979.0 0
135444.0 418435.0 0
141953.0 418550.0 0
139472.0 419977.0 0
142566.0 422239.0 0
146285.0 418969.0 0
149354.0 418673.0 0
145102.0 421793.0 0
152976.0 418502.0 0
150243.0 421159.0 0
157155.0 418449.0 0
159501.0 419725.0 0
154501.0 420160.0 0
163655.0 417443.0 0
162648.0 420323.0 0
167191.0 418387.0 0
169585.0 419804.0 0
166141.0 420730.0 0
168600.0 422323.0 0
172669.0 418336.0 0
172957.0 421660.0 0
176795.0 420201.0 0
180100.0 419288.0 0
183030.0 417882.0 0
181191.0 421946.0 0
184991.0 418741.0 0
186421.0 421421.0 0
188752.0 418907.0 0
191390.0 419881.0 0
195014.0 419021.0 0
199984.0 417971.0 0
196837.0 419402.0 0
203474.0 419054.0 0
206442.0 417691.0 0
206799.0 421608.0 0
210166.0 418455.0 0
210933.0 421956.0 0
213458.0 418158.0 0
213964.0 421710.0 0
216516.0 418482.0 0
217003.0 421410.0 0
218748.0 416517.0 0
219638.0 419416.0 0
222167.0 419010.0 0
225020.0 417464.0 0
223440.0 421250.0 0
227499.0 416937.0 0
230821.0 416599.0 0
234047.0 417108.0 0
236464.0 418415.0 0
239090.0 418067.0 0
244732.0 416020.0 0
241524.0 416686.0 0
242996.0 420023.0 0
248051.0 417616.0 0
252975.0 416399.0 0
250895.0 419541.0 0
253545.0 420805.0 0
255955.0 418296.0 0
260420.0 418508.0 0
262934.0 419514.0 0
264212.0 417912.0 0
267325.0 419100.0 0
270965.0 419341.0 0
274137.0 417293.0 0
277436.0 416124.0 0
278839.0 419147.0 0
282912.0 416359.0 0
281300.0 419201.0 0
284014.0 420228.0 0
288667.0 416435.0 0
285476.0 418418.0 0
286803.0 420832.0 0
290122.0 419923.0 0
294325.0 416575.0 0
292907.0 418878.0 0
297358.0 416722.0 0
295045.0 420264.0 0
298082.0 420252.0 0
300707.0 419218.0 0
303340.0 419069.0 0
307316.0 418292.0 0
310588.0 417075.0 0
312468.0 420321.0 0
315139.0 418487.0 0
318924.0 418074.0 0
315414.0 421563.0 0
317865.0 420147.0 0
322983.0 417552.0 0
322414.0 420797.0 0
324853.0 421783.0 0
326226.0 418322.0 0
328299.0 421067.0 0
330715.0 418997.0 0
333774.0 419053.0 0
336014.0 417073.0 0
339045.0 419160.0 0
336546.0 420838.0 0
339046.0 422710.0 0
341694.0 417958.0 0
343720.0 421097.0 0
346701.0 417494.0 0
346489.0 420195.0 0
350151.0 420796.0 0
350388.0 418225.0 0
353111.0 417514.0 0
354744.0 419567.0 0
352912.0 421392.0 0
356380.0 417633.0 0
357245.0 420907.0 0
359376.0 420004.0 0
361440.0 421393.0 0
363608.0 417598.0 0
363095.0 420595.0 0
366006.0 419552.0 0
368839.0 420586.0 0
370726.0 422238.0 0
123085.0 426601.0 0
125058.0 424241.0 0
127921.0 423381.0 0
128316.0 426642.0 0
133069.0 424926.0 0
135595.0 423134.0 0
138103.0 422495.0 0
135405.0 425940.0 0
138100.0 425887.0 0
140928.0 424627.0 0
142548.0 426149.0 0
145016.0 424926.0 0
147685.0 422739.0 0
148482.0 424684.0 0
146600.0 426546.0 0
152075.0 423373.0 0
151224.0 426436.0 0
156228.0 422281.0 0
155031.0 424387.0 0
158508.0 422584.0 0
156449.0 426838.0 0
159571.0 425305.0 0
162597.0 423124.0 0
165642.0 422748.0 0
164838.0 425616.0 0
168263.0 425701.0 0
171975.0 424983.0 0
175506.0 423654.0 0
177520.0 422619.0 0
176312.0 425550.0 0
179549.0 425201.0 0
183765.0 422128.0 0
183504.0 426111.0 0
189260.0 422864.0 0
186664.0 425589.0 0
189584.0 426807.0 0
193690.0 422151.0 0
192150.0 425044.0 0
196534.0 422539.0 0
200050.0 422577.0 0
195867.0 425677.0 0
198730.0 426877.0 0
203775.0 422687.0 0
201863.0 425718.0 0
204556.0 425899.0 0
208350.0 423838.0 0
211163.0 424966.0 0
214018.0 424771.0 0
217382.0 424775.0 0
219957.0 421851.0 0
221641.0 425198.0 0
226757.0 421301.0 0
230061.0 420193.0 0
226046.0 425060.0 0
230093.0 424213.0 0
233210.0 421385.0 0
233005.0 425373.0 0
236256.0 422153.0 0
236018.0 425391.0 0
239156.0 421814.0 0
239214.0 426346.0 0
241768.0 424134.0 0
244490.0 425479.0 0
246180.0 421639.0 0
249403.0 423441.0 0
252579.0 424511.0 0
258069.0 421307.0 0
255256.0 422887.0 0
256860.0 424909.0 0
259091.0 425984.0 0
261471.0 423129.0 0
263567.0 426311.0 0
264983.0 421764.0 0
266829.0 424984.0 0
268482.0 422477.0 0
270126.0 426178.0 0
272044.0 422877.0 0
275953.0 421325.0 0
274788.0 425498.0 0
278909.0 423336.0 0
282119.0 422517.0 0
282600.0 425752.0 0
285496.0 423103.0 0
288724.0 423470.0 0
289053.0 426185.0 0
294085.0 421884.0 0
291732.0 422715.0 0
292929.0 426033.0 0
297661.0 423484.0 0
295275.0 423878.0 0
297976.0 426276.0 0
300935.0 423250.0 0
304083.0 422543.0 0
304513.0 426003.0 0
308004.0 422306.0 0
307857.0 425683.0 0
311847.0 424406.0 0
318263.0 423604.0 0
315359.0 424845.0 0
320976.0 422714.0 0
324836.0 424245.0 0
322973.0 426187.0 0
328033.0 424612.0 0
331702.0 422786.0 0
334183.0 422065.0 0
331387.0 425040.0 0
334024.0 426575.0 0
338223.0 426502.0 0
336284.0 424443.0 0
342464.0 424276.0 0
341175.0 427100.0 0
348652.0 423297.0 0
346520.0 425662.0 0
351689.0 425229.0 0
353643.0 423817.0 0
355297.0 426815.0 0
356219.0 423659.0 0
358705.0 425746.0 0
361118.0 424370.0 0
363787.0 424024.0 0
365987.0 426795.0 0
365752.0 422396.0 0
368000.0 424599.0 0
373420.0 423159.0 0
375289.0 424023.0 0
371438.0 425727.0 0
375002.0 426629.0 0
377075.0 425742.0 0
379239.0 426346.0 0
115680.0 430600.0 0
117351.0 428269.0 0
120618.0 428119.0 0
123211.0 430499.0 0
118924.0 430883.0 0
125835.0 428234.0 0
126723.0 430454.0 0
131374.0 427878.0 0
129565.0 430625.0 0
130694.0 432598.0 0
134151.0 429747.0 0
137604.0 428793.0 0
138898.0 431974.0 0
140874.0 428621.0 0
143422.0 428564.0 0
148331.0 428686.0 0
144678.0 431087.0 0
153769.0 428157.0 0
149867.0 431170.0 0
153193.0 430974.0 0
158061.0 429952.0 0
156344.0 431476.0 0
162094.0 428769.0 0
160304.0 432359.0 0
168675.0 429198.0 0
165486.0 430236.0 0
171890.0 429574.0 0
173929.0 427325.0 0
172419.0 432184.0 0
179069.0 428960.0 0
175966.0 429370.0 0
182785.0 429910.0 0
186780.0 429591.0 0
187607.0 431853.0 0
190272.0 430254.0 0
193546.0 428168.0 0
196062.0 430366.0 0
199765.0 431067.0 0
201932.0 428673.0 0
202251.0 431888.0 0
204361.0 429906.0 0
207768.0 427658.0 0
211307.0 428659.0 0
213746.0 427804.0 0
215087.0 431536.0 0
216894.0 428023.0 0
219941.0 429040.0 0
224660.0 428339.0 0
228856.0 426835.0 0
227602.0 429053.0 0
230048.0 432186.0 0
231634.0 428500.0 0
235335.0 429116.0 0
239440.0 430271.0 0
242320.0 427735.0 0
243352.0 430008.0 0
247468.0 428022.0 0
251579.0 428282.0 0
253680.0 431512.0 0
254961.0 427004.0 0
257262.0 429178.0 0
260788.0 428847.0 0
264844.0 429808.0 0
267073.0 428106.0 0
268767.0 428955.0 0
270835.0 431053.0 0
272682.0 428289.0 0
277494.0 426822.0 0
275152.0 429912.0 0
277878.0 430699.0 0
280598.0 427134.0 0
281085.0 430694.0 0
283370.0 428783.0 0
285627.0 426756.0 0
286601.0 430664.0 0
290233.0 429683.0 0
295659.0 429058.0 0
299464.0 429802.0 0
301150.0 426976.0 0
303216.0 429399.0 0
301793.0 431717.0 0
307335.0 429557.0 0
311460.0 428225.0 0
314239.0 427953.0 0
313454.0 431652.0 0
316825.0 427896.0 0
315966.0 430453.0 0
318105.0 431801.0 0
319975.0 427516.0 0
320720.0 430736.0 0
324562.0 429544.0 0
327964.0 428316.0 0
331276.0 427923.0 0
332587.0 430968.0 0
334796.0 429504.0 0
339402.0 428947.0 0
337162.0 428866.0 0
338196.0 432029.0 0
343359.0 430165.0 0
345198.0 428537.0 0
341268.0 431813.0 0
345826.0 432236.0 0
349882.0 428320.0 0
348010.0 430789.0 0
353473.0 428067.0 0
355929.0 429768.0 0
352291.0 431122.0 0
357692.0 428963.0 0
359948.0 430911.0 0
361250.0 428909.0 0
363652.0 428037.0 0
364349.0 430903.0 0
367974.0 429022.0 0
367018.0 431340.0 0
371136.0 428660.0 0
374418.0 428894.0 0
371387.0 431651.0 0
377991.0 428864.0 0
380844.0 428640.0 0
376337.0 431008.0 0
380778.0 431670.0 0
383273.0 429380.0 0
383138.0 432381.0 0
385394.0 431136.0 0
387574.0 432596.0 0
107667.0 435782.0 0
104570.0 436987.0 0
110558.0 434076.0 0
113369.0 432746.0 0
111729.0 437455.0 0
115967.0 434413.0 0
114371.0 436872.0 0
119705.0 434196.0 0
123039.0 432867.0 0
123864.0 435443.0 0
123281.0 437374.0 0
126390.0 433221.0 0
128567.0 435841.0 0
133645.0 432868.0 0
132384.0 435395.0 0
136357.0 434592.0 0
138787.0 436567.0 0
141716.0 433010.0 0
141958.0 436523.0 0
146071.0 433790.0 0
149185.0 434272.0 0
144890.0 436342.0 0
153175.0 433805.0 0
150189.0 437251.0 0
153788.0 436903.0 0
156338.0 434391.0 0
159141.0 435252.0 0
163000.0 433331.0 0
161851.0 437528.0 0
165598.0 433383.0 0
168845.0 432866.0 0
165680.0 436413.0 0
169560.0 436637.0 0
173350.0 435719.0 0
175703.0 432325.0 0
178659.0 432429.0 0
176669.0 436015.0 0
178250.0 434775.0 0
181388.0 433196.0 0
185126.0 432748.0 0
180825.0 436406.0 0
184038.0 435793.0 0
188142.0 434051.0 0
192359.0 433501.0 0
197051.0 433336.0 0
195396.0 435490.0 0
199969.0 434117.0 0
198520.0 437168.0 0
204721.0 432786.0 0
202662.0 435086.0 0
208152.0 431999.0 0
205893.0 435300.0 0
208433.0 435366.0 0
211581.0 432063.0 0
210925.0 435527.0 0
214184.0 435715.0 0
218425.0 432535.0 0
217777.0 436166.0 0
220570.0 436451.0 0
222569.0 430814.0 0
221285.0 433264.0 0
223590.0 435356.0 0
225689.0 432216.0 0
227364.0 436100.0 0
234123.0 432255.0 0
231106.0 436776.0 0
234120.0 435367.0 0
237708.0 433535.0 0
240264.0 436653.0 0
241843.0 433249.0 0
244306.0 436513.0 0
245470.0 432722.0 0
249450.0 432159.0 0
248311.0 435975.0 0
252315.0 435296.0 0
257827.0 432377.0 0
255963.0 434486.0 0
259523.0 436130.0 0
261353.0 432322.0 0
264284.0 433800.0 0
267466.0 432393.0 0
267489.0 436450.0 0
274110.0 432772.0 0
271519.0 435299.0 0
276909.0 434182.0 0
279916.0 434088.0 0
282431.0 436471.0 0
283983.0 432867.0 0
286575.0 435882.0 0
289115.0 433952.0 0
293068.0 432585.0 0
291615.0 435824.0 0
297492.0 432445.0 0
299560.0 433158.0 0
295644.0 435294.0 0
299020.0 436376.0 0
302850.0 435483.0 0
305548.0 433235.0 0
308084.0 435775.0 0
310378.0 433028.0 0
311978.0 436660.0 0
317651.0 433998.0 0
315062.0 435107.0 0
322105.0 433382.0 0
320244.0 436001.0 0
325579.0 433461.0 0
329625.0 432685.0 0
325348.0 436802.0 0
329536.0 436282.0 0
334635.0 433320.0 0
333165.0 435220.0 0
335886.0 432137.0 0
337945.0 434614.0 0
336351.0 437145.0 0
341773.0 434873.0 0
345202.0 434890.0 0
350108.0 433192.0 0
348777.0 435703.0 0
355153.0 432667.0 0
353447.0 435237.0 0
358092.0 433311.0 0
360467.0 435539.0 0
356620.0 436149.0 0
363094.0 433161.0 0
365591.0 435422.0 0
368716.0 433812.0 0
370665.0 436048.0 0
373936.0 432994.0 0
374280.0 436779.0 0
378857.0 433205.0 0
377413.0 435875.0 0
379720.0 437490.0 0
381315.0 435450.0 0
383357.0 434759.0 0
385922.0 435460.0 0
390188.0 433865.0 0
388556.0 436107.0 0
392506.0 435727.0 0
395336.0 437474.0 0
96243.3 442770.0 0
98960.9 441220.0 0
102010.0 439671.0 0
102738.0 442966.0 0
105054.0 439900.0 0
108386.0 438987.0 0
105470.0 441873.0 0
112759.0 440255.0 0
109355.0 441839.0 0
115744.0 441466.0 0
119117.0 438455.0 0
121977.0 441738.0 0
125722.0 438029.0 0
125349.0 440846.0 0
128225.0 442413.0 0
130321.0 439201.0 0
134238.0 438189.0 0
132012.0 442450.0 0
137841.0 438904.0 0
134783.0 441687.0 0
138355.0 441191.0 0
141751.0 439752.0 0
144385.0 440137.0 0
146521.0 438424.0 0
147201.0 441718.0 0
152728.0 439700.0 0
149974.0 440766.0 0
151867.0 442336.0 0
154178.0 441130.0 0
156156.0 438824.0 0
158893.0 441047.0 0
164172.0 440286.0 0
161611.0 442618.0 0
167411.0 440400.0 0
174296.0 439689.0 0
171102.0 440540.0 0
178190.0 439027.0 0
176952.0 442228.0 0
182637.0 438826.0 0
180772.0 441014.0 0
184831.0 439957.0 0
187117.0 437464.0 0
189215.0 440917.0 0
191123.0 437497.0 0
194557.0 439620.0 0
198265.0 441305.0 0
201213.0 438739.0 0
204411.0 437884.0 0
202127.0 441639.0 0
207753.0 438538.0 0
205008.0 441321.0 0
211268.0 439197.0 0
214977.0 439980.0 0
218364.0 439925.0 0
220985.0 438820.0 0
224270.0 439202.0 0
228549.0 440096.0 0
233103.0 439004.0 0
231606.0 441967.0 0
235232.0 441103.0 0
236348.0 437575.0 0
238816.0 440887.0 0
243012.0 440966.0 0
247282.0 439758.0 0
250192.0 441707.0 0
250963.0 438918.0 0
255345.0 438324.0 0
259116.0 439914.0 0
263510.0 437434.0 0
261870.0 441166.0 0
266990.0 441705.0 0
270273.0 439010.0 0
272698.0 441957.0 0
275090.0 438169.0 0
279185.0 437469.0 0
278570.0 441619.0 0
282185.0 440442.0 0
285468.0 438797.0 0
289342.0 437675.0 0
288199.0 440387.0 0
293536.0 439200.0 0
297727.0 439950.0 0
301725.0 440034.0 0
306123.0 439384.0 0
310516.0 439881.0 0
313936.0 439989.0 0
317256.0 438758.0 0
322762.0 439498.0 0
327961.0 437955.0 0
330244.0 439548.0 0
327429.0 440894.0 0
331699.0 437729.0 0
334057.0 439815.0 0
331773.0 441549.0 0
338235.0 440342.0 0
340676.0 437719.0 0
344847.0 437788.0 0
342999.0 440351.0 0
347939.0 438845.0 0
346949.0 442543.0 0
352622.0 438523.0 0
350967.0 442362.0 0
355017.0 441783.0 0
356529.0 438642.0 0
359054.0 438007.0 0
357947.0 441954.0 0
363315.0 438114.0 0
361811.0 441599.0 0
367319.0 437786.0 0
366466.0 439919.0 0
369732.0 438965.0 0
369341.0 441398.0 0
373076.0 440284.0 0
375801.0 441419.0 0
377751.0 439810.0 0
380422.0 441712.0 0
382353.0 438942.0 0
385012.0 438610.0 0
385376.0 442144.0 0
388477.0 439703.0 0
391039.0 438018.0 0
389907.0 442620.0 0
393208.0 439503.0 0
392389.0 441352.0 0
394704.0 441630.0 0
397762.0 439715.0 0
400740.0 440386.0 0
402956.0 442309.0 0
91566.9 446226.0 0
88576.3 447184.0 0
93609.7 443873.0 0
96737.2 446124.0 0
100236.0 444489.0 0
101634.0 447121.0 0
104513.0 444028.0 0
103988.0 446248.0 0
106843.0 443818.0 0
107421.0 446076.0 0
105746.0 447449.0 0
111125.0 444171.0 0
110048.0 447161.0 0
113164.0 447996.0 0
114310.0 444927.0 0
118301.0 444129.0 0
116300.0 446595.0 0
122561.0 445081.0 0
119131.0 446308.0 0
125834.0 445215.0 0
129724.0 445337.0 0
132426.0 445026.0 0
132576.0 447933.0 0
135586.0 444897.0 0
139086.0 444151.0 0
138901.0 447483.0 0
141924.0 442693.0 0
142250.0 447263.0 0
144713.0 443970.0 0
148621.0 443647.0 0
147296.0 446252.0 0
150193.0 444034.0 0
153342.0 444570.0 0
151018.0 447455.0 0
155906.0 443385.0 0
158759.0 445133.0 0
155706.0 447052.0 0
161686.0 445271.0 0
163998.0 442780.0 0
164769.0 444949.0 0
167692.0 443876.0 0
171416.0 443319.0 0
174445.0 443597.0 0
170266.0 445072.0 0
172526.0 447038.0 0
178957.0 444110.0 0
176643.0 446813.0 0
183060.0 443628.0 0
180932.0 447006.0 0
184718.0 447322.0 0
186632.0 442857.0 0
188307.0 446203.0 0
192184.0 443402.0 0
195972.0 444216.0 0
200024.0 445105.0 0
204595.0 445906.0 0
208388.0 442520.0 0
209011.0 446870.0 0
212185.0 443434.0 0
212585.0 446851.0 0
215743.0 443211.0 0
215450.0 446071.0 0
218141.0 443137.0 0
219017.0 446635.0 0
221264.0 442264.0 0
223203.0 445634.0 0
225392.0 442661.0 0
228208.0 444851.0 0
231671.0 446337.0 0
235276.0 444716.0 0
239022.0 444823.0 0
243005.0 445926.0 0
247220.0 444227.0 0
253475.0 441763.0 0
251569.0 444572.0 0
253187.0 447356.0 0
255462.0 444974.0 0
257323.0 442291.0 0
258632.0 446585.0 0
259964.0 443972.0 0
263773.0 444907.0 0
270100.0 445425.0 0
275581.0 444297.0 0
278998.0 446024.0 0
282152.0 444994.0 0
285157.0 442731.0 0
287858.0 444025.0 0
290930.0 442766.0 0
289979.0 446894.0 0
293569.0 444484.0 0
295729.0 443036.0 0
298961.0 443034.0 0
297716.0 446005.0 0
302153.0 443655.0 0
301328.0 446844.0 0
305594.0 443852.0 0
309974.0 443547.0 0
313830.0 443351.0 0
314389.0 447289.0 0
317523.0 442818.0 0
317526.0 446433.0 0
321180.0 442995.0 0
320272.0 446194.0 0
324095.0 446005.0 0
325547.0 442894.0 0
329388.0 442965.0 0
327306.0 444819.0 0
333260.0 444132.0 0
330458.0 446730.0 0
336279.0 443176.0 0
337036.0 447198.0 0
340011.0 446038.0 0
340785.0 443111.0 0
344728.0 445752.0 0
347972.0 447538.0 0
349336.0 445780.0 0
353454.0 444661.0 0
351922.0 447490.0 0
357157.0 445904.0 0
361307.0 445519.0 0
364454.0 446058.0 0
366161.0 443176.0 0
368976.0 445497.0 0
371801.0 442936.0 0
374161.0 445257.0 0
371990.0 447793.0 0
376168.0 443768.0 0
378897.0 444197.0 0
380832.0 446803.0 0
383291.0 443364.0 0
382816.0 445605.0 0
384542.0 447580.0 0
387023.0 444319.0 0
386721.0 446596.0 0
389451.0 447169.0 0
391728.0 445295.0 0
395151.0 444582.0 0
396395.0 447941.0 0
398291.0 443393.0 0
401087.0 445163.0 0
405828.0 444018.0 0
404382.0 446955.0 0
408477.0 445459.0 0
407526.0 448149.0 0
411024.0 447017.0 0
80229.2 452636.0 0
83083.6 450898.0 0
86163.0 449339.0 0
89484.1 451064.0 0
91669.8 453080.0 0
93494.1 448742.0 0
95050.5 451387.0 0
98467.1 448268.0 0
98720.2 451311.0 0
102441.0 450200.0 0
105748.0 450283.0 0
109091.0 449919.0 0
112372.0 450881.0 0
109239.0 452535.0 0
115753.0 449614.0 0
115961.0 452262.0 0
119294.0 449254.0 0
122741.0 448373.0 0
123295.0 450747.0 0
119958.0 452060.0 0
125905.0 448193.0 0
125873.0 450791.0 0
125409.0 452964.0 0
129159.0 448127.0 0
129090.0 451381.0 0
133210.0 451723.0 0
135867.0 448302.0 0
138053.0 450505.0 0
141055.0 451100.0 0
145369.0 449554.0 0
149046.0 451403.0 0
153247.0 449857.0 0
156002.0 450303.0 0
159158.0 448029.0 0
159141.0 451170.0 0
161761.0 447799.0 0
162439.0 450847.0 0
165028.0 447875.0 0
168817.0 447948.0 0
165948.0 451384.0 0
170022.0 451894.0 0
174154.0 450593.0 0
178665.0 449781.0 0
177588.0 452602.0 0
182102.0 450535.0 0
188948.0 450096.0 0
185720.0 450534.0 0
192668.0 447806.0 0
193046.0 451706.0 0
196026.0 447593.0 0
199458.0 449265.0 0
196155.0 450922.0 0
202283.0 449562.0 0
205320.0 450269.0 0
208260.0 450977.0 0
211511.0 449684.0 0
214932.0 450235.0 0
218853.0 451047.0 0
222651.0 449593.0 0
226173.0 447860.0 0
229286.0 449899.0 0
225889.0 451854.0 0
232921.0 449987.0 0
234038.0 452425.0 0
235789.0 448578.0 0
239386.0 448921.0 0
242613.0 450043.0 0
249774.0 448078.0 0
245989.0 449090.0 0
252986.0 451101.0 0
255991.0 449101.0 0
259307.0 450638.0 0
261896.0 447687.0 0
263874.0 451295.0 0
266612.0 447924.0 0
273514.0 447541.0 0
270274.0 450158.0 0
274393.0 452224.0 0
277380.0 448776.0 0
278472.0 452011.0 0
281838.0 449811.0 0
285914.0 447530.0 0
286012.0 451292.0 0
290094.0 451818.0 0
294198.0 448383.0 0
298416.0 450227.0 0
301807.0 451039.0 0
305498.0 447822.0 0
305772.0 451777.0 0
309979.0 447936.0 0
313078.0 451253.0 0
316269.0 451320.0 0
318830.0 449302.0 0
321191.0 448620.0 0
323901.0 451257.0 0
327151.0 448778.0 0
329504.0 451407.0 0
334202.0 447618.0 0
333030.0 451022.0 0
339723.0 450223.0 0
336608.0 451427.0 0
342237.0 448320.0 0
343659.0 451433.0 0
346076.0 449634.0 0
350389.0 449971.0 0
347851.0 452285.0 0
354514.0 448736.0 0
352711.0 452559.0 0
355488.0 451110.0 0
358574.0 449409.0 0
360194.0 452717.0 0
361628.0 448413.0 0
364910.0 448355.0 0
363676.0 451794.0 0
367509.0 448510.0 0
370222.0 450617.0 0
367473.0 452555.0 0
375060.0 450082.0 0
377860.0 448116.0 0
380322.0 451241.0 0
382889.0 449522.0 0
385259.0 451873.0 0
387005.0 449955.0 0
389774.0 449754.0 0
389902.0 452333.0 0
393315.0 449441.0 0
392694.0 452321.0 0
399652.0 448231.0 0
396706.0 452045.0 0
400767.0 452263.0 0
403723.0 449943.0 0
411168.0 449977.0 0
407663.0 451702.0 0
413679.0 448504.0 0
415805.0 450473.0 0
413052.0 452185.0 0
418773.0 451696.0 0
70973.1 458019.0 0
74459.3 456561.0 0
77460.2 454627.0 0
81691.7 455382.0 0
78469.4 457086.0 0
80887.7 457994.0 0
84813.3 453504.0 0
87580.5 453953.0 0
84377.9 456518.0 0
88702.2 456641.0 0
92084.8 455853.0 0
95149.8 454288.0 0
96933.3 456339.0 0
99414.1 454234.0 0
102763.0 453403.0 0
101936.0 456950.0 0
105979.0 453608.0 0
105004.0 456686.0 0
107582.0 458181.0 0
109085.0 455257.0 0
111924.0 453336.0 0
111790.0 456752.0 0
114259.0 453802.0 0
118085.0 454634.0 0
115232.0 457313.0 0
122833.0 453755.0 0
120823.0 456742.0 0
127343.0 454347.0 0
124909.0 456808.0 0
128101.0 457743.0 0
130994.0 455271.0 0
136326.0 453697.0 0
134332.0 458132.0 0
140164.0 454999.0 0
143997.0 453076.0 0
143255.0 456973.0 0
146984.0 455063.0 0
152683.0 453273.0 0
150421.0 456478.0 0
156126.0 453284.0 0
158836.0 455243.0 0
154474.0 456757.0 0
162713.0 454201.0 0
161505.0 457853.0 0
163660.0 457041.0 0
166304.0 454765.0 0
172018.0 454735.0 0
174116.0 453917.0 0
169360.0 456209.0 0
172807.0 457223.0 0
176301.0 456228.0 0
180825.0 454057.0 0
184693.0 453872.0 0
187457.0 453043.0 0
187976.0 456432.0 0
190333.0 453714.0 0
191966.0 456321.0 0
198784.0 452909.0 0
195207.0 455180.0 0
202838.0 453558.0 0
207200.0 454932.0 0
211531.0 453050.0 0
210891.0 457195.0 0
215326.0 455397.0 0
218853.0 454652.0 0
222335.0 454257.0 0
228233.0 454041.0 0
225892.0 456671.0 0
231047.0 453604.0 0
234211.0 456403.0 0
237125.0 452535.0 0
238399.0 456470.0 0
244537.0 452713.0 0
240848.0 452993.0 0
242693.0 456716.0 0
248874.0 452785.0 0
246383.0 455769.0 0
252577.0 454759.0 0
256283.0 453698.0 0
258224.0 457218.0 0
260837.0 454558.0 0
264859.0 456140.0 0
267601.0 452995.0 0
271007.0 454231.0 0
273852.0 456817.0 0
277563.0 455430.0 0
280552.0 453868.0 0
283986.0 454230.0 0
287621.0 454776.0 0
292105.0 455431.0 0
290222.0 457135.0 0
295384.0 453561.0 0
299747.0 454280.0 0
303254.0 453838.0 0
305510.0 454431.0 0
309329.0 452854.0 0
307745.0 456403.0 0
312976.0 454570.0 0
319962.0 452819.0 0
316409.0 455455.0 0
319944.0 456812.0 0
323973.0 456092.0 0
327456.0 453378.0 0
328795.0 456946.0 0
330722.0 454315.0 0
333700.0 455033.0 0
338045.0 455625.0 0
341235.0 452901.0 0
345434.0 453551.0 0
343197.0 455642.0 0
350027.0 455048.0 0
346997.0 457406.0 0
354789.0 455487.0 0
352841.0 457940.0 0
357257.0 453897.0 0
358250.0 457460.0 0
364416.0 455815.0 0
361066.0 456052.0 0
369737.0 455576.0 0
366944.0 457582.0 0
373489.0 453656.0 0
374897.0 457743.0 0
377951.0 453647.0 0
380443.0 454830.0 0
378316.0 457229.0 0
382790.0 453790.0 0
381553.0 457440.0 0
385076.0 457023.0 0
388049.0 454694.0 0
391317.0 457380.0 0
393117.0 454433.0 0
395933.0 454787.0 0
395399.0 457981.0 0
398696.0 456006.0 0
401624.0 456304.0 0
405232.0 454754.0 0
410910.0 454070.0 0
410273.0 456918.0 0
414142.0 455428.0 0
416152.0 453975.0 0
418887.0 456064.0 0
421245.0 453767.0 0
422099.0 457682.0 0
424274.0 455424.0 0
427178.0 457917.0 0
65396.1 461611.0 0
62514.6 462897.0 0
68483.0 460247.0 0
69685.3 462622.0 0
72979.2 459898.0 0
76560.3 459233.0 0
72834.8 462858.0 0
76117.5 461955.0 0
79159.1 459985.0 0
82534.2 459421.0 0
79972.1 461795.0 0
85692.5 458634.0 0
83163.4 462546.0 0
87489.2 461618.0 0
89961.7 459636.0 0
91646.9 462304.0 0
93814.0 458839.0 0
96437.4 461336.0 0
99131.2 459079.0 0
101116.0 461675.0 0
103481.0 460306.0 0
106326.0 461043.0 0
110479.0 459757.0 0
113306.0 460865.0 0
108979.0 463017.0 0
118133.0 459777.0 0
116389.0 463117.0 0
122511.0 460725.0 0
119792.0 463305.0 0
126208.0 460490.0 0
130478.0 459546.0 0
128764.0 461203.0 0
138724.0 459398.0 0
142412.0 461144.0 0
146132.0 459445.0 0
148642.0 462981.0 0
150092.0 459531.0 0
153402.0 460821.0 0
157856.0 460084.0 0
162237.0 460890.0 0
166352.0 459880.0 0
170736.0 459622.0 0
172357.0 462503.0 0
174500.0 459828.0 0
177358.0 460101.0 0
179787.0 457776.0 0
183944.0 458169.0 0
180607.0 461901.0 0
187521.0 460427.0 0
190679.0 459460.0 0
194337.0 459953.0 0
199012.0 457563.0 0
197591.0 462579.0 0
203804.0 458204.0 0
201214.0 461211.0 0
207615.0 459946.0 0
213669.0 459515.0 0
211165.0 461442.0 0
213895.0 462423.0 0
219373.0 458000.0 0
216852.0 460643.0 0
222562.0 458829.0 0
229658.0 457947.0 0
225595.0 461844.0 0
229689.0 462546.0 0
232626.0 460226.0 0
236631.0 460827.0 0
240422.0 459958.0 0
243574.0 461654.0 0
246165.0 459446.0 0
249977.0 458129.0 0
254548.0 457806.0 0
252238.0 462176.0 0
257597.0 462060.0 0
261854.0 459108.0 0
269134.0 458378.0 0
265408.0 460410.0 0
273425.0 461247.0 0
270208.0 462492.0 0
277447.0 459672.0 0
281367.0 457670.0 0
283631.0 460890.0 0
286214.0 458105.0 0
287263.0 462537.0 0
289142.0 460137.0 0
293919.0 457996.0 0
292193.0 460780.0 0
297648.0 457904.0 0
296098.0 462132.0 0
300175.0 461564.0 0
302838.0 457906.0 0
307062.0 460332.0 0
311855.0 458683.0 0
316633.0 460172.0 0
321356.0 461533.0 0
325861.0 460219.0 0
329821.0 462321.0 0
332270.0 458171.0 0
335687.0 458556.0 0
334547.0 461458.0 0
339124.0 461274.0 0
341675.0 458613.0 0
344637.0 460409.0 0
349910.0 460538.0 0
347507.0 463048.0 0
353329.0 463043.0 0
356082.0 459960.0 0
359498.0 460409.0 0
362517.0 459407.0 0
365409.0 460146.0 0
361924.0 463116.0 0
368433.0 460549.0 0
371427.0 459290.0 0
372749.0 462965.0 0
375923.0 460989.0 0
378744.0 460816.0 0
381497.0 460352.0 0
384974.0 460510.0 0
388080.0 459135.0 0
388172.0 462082.0 0
391725.0 461586.0 0
395115.0 461077.0 0
398614.0 458973.0 0
397863.0 462058.0 0
402058.0 459656.0 0
406668.0 459140.0 0
410470.0 461816.0 0
413720.0 459005.0 0
414011.0 463230.0 0
417357.0 459127.0 0
421140.0 461211.0 0
424468.0 459554.0 0
424934.0 463179.0 0
428358.0 461741.0 0
431330.0 460128.0 0
434842.0 461426.0 0
432724.0 463131.0 0
56518.8 467055.0 0
60013.0 465572.0 0
58965.2 468682.0 0
63243.5 466626.0 0
65597.6 464125.0 0
66064.7 468287.0 0
68453.6 465325.0 0
69273.9 468567.0 0
72984.4 466524.0 0
77627.2 464825.0 0
81123.9 465857.0 0
85912.7 464882.0 0
84013.7 468080.0 0
89637.2 464866.0 0
92320.6 466895.0 0
87879.6 467805.0 0
94153.8 464090.0 0
96413.5 465909.0 0
98613.6 463801.0 0
102155.0 464789.0 0
99859.6 467868.0 0
104663.0 463642.0 0
106667.0 465847.0 0
103964.0 467174.0 0
112061.0 464783.0 0
109042.0 467577.0 0
118454.0 465745.0 0
115661.0 466362.0 0
117519.0 468272.0 0
120728.0 465289.0 0
123689.0 464428.0 0
127368.0 464088.0 0
124854.0 467773.0 0
132486.0 463843.0 0
128588.0 467915.0 0
137155.0 463565.0 0
136260.0 468000.0 0
140862.0 465101.0 0
145242.0 464307.0 0
144111.0 468200.0 0
148347.0 467483.0 0
151496.0 464524.0 0
153024.0 467926.0 0
155432.0 464316.0 0
157120.0 468130.0 0
159517.0 464479.0 0
163809.0 465201.0 0
160771.0 468088.0 0
168484.0 464029.0 0
172367.0 467175.0 0
176433.0 463835.0 0
176963.0 468094.0 0
180185.0 466087.0 0
183145.0 467903.0 0
184864.0 463723.0 0
187237.0 467652.0 0
190338.0 463871.0 0
194230.0 464001.0 0
193242.0 467059.0 0
204429.0 463187.0 0
200750.0 464604.0 0
202630.0 467484.0 0
208614.0 464165.0 0
206234.0 466868.0 0
212171.0 465337.0 0
216511.0 465310.0 0
220741.0 462821.0 0
219863.0 466916.0 0
223228.0 466441.0 0
226854.0 466421.0 0
233369.0 463957.0 0
230405.0 466393.0 0
236821.0 465969.0 0
240161.0 463756.0 0
243965.0 465498.0 0
247738.0 462963.0 0
250446.0 465700.0 0
254631.0 467136.0 0
263014.0 463919.0 0
267403.0 464385.0 0
271804.0 465177.0 0
276326.0 465008.0 0
280289.0 462739.0 0
280396.0 467108.0 0
284321.0 465618.0 0
290161.0 463388.0 0
293095.0 464918.0 0
296703.0 466763.0 0
300025.0 465354.0 0
304512.0 463950.0 0
309941.0 463494.0 0
314217.0 463715.0 0
312213.0 466567.0 0
318163.0 464896.0 0
315687.0 467446.0 0
325360.0 465251.0 0
321357.0 466306.0 0
329591.0 467390.0 0
333378.0 465723.0 0
337162.0 464497.0 0
340401.0 466741.0 0
343025.0 463873.0 0
346182.0 466232.0 0
350603.0 466144.0 0
355242.0 467222.0 0
357986.0 464032.0 0
359311.0 467797.0 0
365602.0 463256.0 0
363226.0 467500.0 0
369076.0 463969.0 0
367415.0 467142.0 0
371600.0 466798.0 0
375195.0 467119.0 0
376452.0 464068.0 0
379374.0 464365.0 0
382969.0 463773.0 0
383082.0 467501.0 0
386849.0 465002.0 0
391041.0 465696.0 0
394656.0 464819.0 0
398050.0 465868.0 0
401528.0 463707.0 0
405770.0 463838.0 0
402249.0 467338.0 0
405618.0 467459.0 0
409462.0 464843.0 0
408873.0 468071.0 0
412546.0 465731.0 0
415259.0 466878.0 0
417835.0 464260.0 0
422096.0 465275.0 0
419304.0 468385.0 0
426382.0 466501.0 0
423117.0 468052.0 0
429887.0 465047.0 0
434576.0 466877.0 0
437260.0 464163.0 0
440623.0 466106.0 0
444012.0 467982.0 0
49593.7 472572.0 0
53983.7 470258.0 0
57924.9 471437.0 0
61918.4 470329.0 0
65501.3 471519.0 0
68952.2 471738.0 0
72084.8 470413.0 0
76591.6 469124.0 0
74555.3 473108.0 0
80297.4 470336.0 0
78628.6 473438.0 0
86243.8 470763.0 0
83353.4 472985.0 0
90271.4 469324.0 0
88731.8 472112.0 0
92624.6 471666.0 0
95160.0 469113.0 0
98027.0 471845.0 0
102675.0 470452.0 0
105840.0 469297.0 0
108444.0 471452.0 0
113031.0 469658.0 0
117523.0 471691.0 0
121121.0 468643.0 0
120988.0 472577.0 0
124803.0 471485.0 0
132566.0 468670.0 0
129732.0 471958.0 0
133815.0 472132.0 0
137666.0 472111.0 0
140240.0 468784.0 0
142226.0 471946.0 0
146292.0 471464.0 0
150593.0 471492.0 0
154977.0 472092.0 0
162657.0 469103.0 0
159457.0 471681.0 0
163464.0 472434.0 0
166740.0 468719.0 0
167011.0 473185.0 0
170232.0 471440.0 0
174842.0 472326.0 0
179934.0 470545.0 0
184673.0 471154.0 0
188832.0 472074.0 0
190554.0 468367.0 0
193548.0 471747.0 0
197480.0 467833.0 0
197804.0 472786.0 0
201099.0 471324.0 0
209528.0 468899.0 0
205438.0 470249.0 0
213820.0 468488.0 0
212768.0 472593.0 0
217204.0 469875.0 0
221398.0 470010.0 0
225226.0 470313.0 0
229197.0 470413.0 0
233323.0 468311.0 0
232512.0 471954.0 0
236936.0 471119.0 0
240650.0 468158.0 0
243991.0 470502.0 0
240874.0 472402.0 0
247279.0 467714.0 0
247552.0 472315.0 0
250760.0 469755.0 0
253889.0 471209.0 0
259854.0 467656.0 0
257213.0 471380.0 0
264682.0 469147.0 0
260783.0 471833.0 0
269266.0 468661.0 0
273645.0 468422.0 0
271973.0 472637.0 0
277643.0 469765.0 0
275171.0 471367.0 0
280692.0 470039.0 0
283984.0 470567.0 0
280277.0 472805.0 0
289015.0 467883.0 0
293915.0 468697.0 0
292519.0 472313.0 0
299538.0 469099.0 0
297007.0 471279.0 0
302984.0 468337.0 0
300946.0 472046.0 0
305318.0 472170.0 0
308108.0 467955.0 0
312605.0 470111.0 0
319379.0 469361.0 0
316191.0 470908.0 0
323194.0 469306.0 0
325554.0 471896.0 0
326615.0 469089.0 0
329715.0 472281.0 0
332948.0 469903.0 0
336790.0 468324.0 0
336077.0 471436.0 0
340468.0 472362.0 0
344079.0 468941.0 0
348094.0 469787.0 0
346005.0 473262.0 0
352636.0 470743.0 0
357615.0 471390.0 0
362493.0 472063.0 0
366508.0 470824.0 0
370041.0 469659.0 0
373915.0 470594.0 0
379218.0 468744.0 0
377517.0 472460.0 0
384015.0 471292.0 0
387341.0 468586.0 0
391314.0 469474.0 0
388631.0 472867.0 0
396248.0 471110.0 0
394971.0 468739.0 0
399323.0 469612.0 0
397575.0 473053.0 0
400975.0 473323.0 0
404013.0 471302.0 0
407798.0 471499.0 0
411225.0 472282.0 0
412308.0 469038.0 0
415932.0 470271.0 0
418042.0 473182.0 0
421193.0 472016.0 0
424657.0 470973.0 0
427795.0 469768.0 0
430935.0 468741.0 0
428967.0 473098.0 0
436886.0 471146.0 0
432794.0 472189.0 0
439366.0 468855.0 0
442387.0 470795.0 0
445047.0 471799.0 0
447157.0 469699.0 0
446921.0 472862.0 0
450240.0 472503.0 0
38635.5 478259.0 0
42562.3 476360.0 0
45529.0 474011.0 0
45925.0 477401.0 0
48228.7 476118.0 0
49485.9 478645.0 0
52984.3 475570.0 0
55898.6 478299.0 0
57063.4 474684.0 0
61335.6 474313.0 0
59635.6 478518.0 0
65623.6 475223.0 0
63952.8 478829.0 0
69915.8 475311.0 0
77266.5 476076.0 0
74290.4 477672.0 0
80834.3 476386.0 0
86658.6 474890.0 0
84410.8 477315.0 0
90807.2 474890.0 0
88543.4 478359.0 0
94884.1 473868.0 0
97631.1 475959.0 0
93509.3 477384.0 0
100782.0 474151.0 0
101260.0 477616.0 0
104744.0 474097.0 0
104826.0 478635.0 0
108511.0 475967.0 0
111218.0 473853.0 0
112779.0 477943.0 0
114345.0 473867.0 0
117819.0 476271.0 0
122258.0 475687.0 0
126698.0 475383.0 0
131695.0 475754.0 0
135354.0 475895.0 0
140106.0 475749.0 0
144642.0 475334.0 0
148356.0 474813.0 0
152264.0 476006.0 0
156561.0 475596.0 0
160468.0 475860.0 0
165081.0 477193.0 0
170126.0 475607.0 0
174073.0 477954.0 0
178497.0 475117.0 0
182190.0 473865.0 0
182079.0 477879.0 0
185843.0 475710.0 0
190523.0 476994.0 0
195600.0 476357.0 0
204031.0 473729.0 0
200495.0 476197.0 0
208071.0 473639.0 0
205138.0 477675.0 0
214709.0 476696.0 0
216806.0 473671.0 0
219381.0 472934.0 0
218768.0 477175.0 0
223008.0 474455.0 0
227416.0 474087.0 0
225729.0 477323.0 0
228969.0 477994.0 0
230828.0 475055.0 0
234364.0 474913.0 0
238603.0 476444.0 0
243909.0 475341.0 0
248449.0 476250.0 0
251199.0 473437.0 0
252976.0 477045.0 0
255134.0 474106.0 0
258876.0 475977.0 0
263587.0 473864.0 0
262681.0 477873.0 0
267511.0 472896.0 0
266303.0 477119.0 0
273856.0 476448.0 0
270213.0 476478.0 0
276610.0 474242.0 0
279627.0 476636.0 0
283694.0 476011.0 0
287958.0 473632.0 0
291515.0 477542.0 0
295481.0 474990.0 0
299013.0 474971.0 0
303032.0 475852.0 0
309814.0 473121.0 0
307151.0 476914.0 0
314623.0 474498.0 0
310966.0 476907.0 0
318204.0 473207.0 0
319006.0 477615.0 0
322173.0 473762.0 0
326634.0 475621.0 0
330243.0 476457.0 0
334431.0 474972.0 0
339962.0 477876.0 0
343798.0 476085.0 0
349809.0 473418.0 0
346723.0 476978.0 0
349550.0 476345.0 0
354143.0 475916.0 0
359797.0 476058.0 0
365904.0 474229.0 0
363735.0 476294.0 0
369929.0 473832.0 0
367687.0 478324.0 0
374400.0 475182.0 0
371668.0 478118.0 0
381115.0 473986.0 0
378378.0 477121.0 0
385545.0 475687.0 0
382385.0 478445.0 0
390048.0 476930.0 0
393573.0 473650.0 0
394731.0 478387.0 0
398940.0 476746.0 0
403957.0 475932.0 0
407018.0 474422.0 0
410044.0 475591.0 0
407401.0 477526.0 0
414149.0 473694.0 0
413384.0 476982.0 0
417570.0 476787.0 0
421790.0 476165.0 0
425267.0 474460.0 0
428497.0 476576.0 0
431836.0 476150.0 0
436026.0 476162.0 0
440711.0 474240.0 0
439715.0 478502.0 0
445073.0 474991.0 0
447947.0 475721.0 0
443491.0 478490.0 0
451177.0 477704.0 0
454153.0 474560.0 0
457999.0 475583.0 0
456103.0 478348.0 0
460544.0 478469.0 0
35285.0 480917.0 0
38401.2 481386.0 0
38956.2 483632.0 0
42520.5 480442.0 0
45917.5 484080.0 0
46857.2 480104.0 0
49348.0 482245.0 0
52489.2 480023.0 0
55897.6 481677.0 0
52709.7 483918.0 0
58886.9 482271.0 0
62180.4 482283.0 0
65525.5 482804.0 0
67527.5 479094.0 0
71020.3 479324.0 0
69362.5 482389.0 0
73979.4 481971.0 0
77673.0 479457.0 0
81651.0 480600.0 0
78360.2 483016.0 0
85135.8 480183.0 0
84062.6 482923.0 0
87357.3 483007.0 0
91462.6 481197.0 0
97312.9 480488.0 0
102166.0 481830.0 0
106167.0 482841.0 0
108464.0 479895.0 0
111198.0 482989.0 0
115891.0 481208.0 0
120057.0 480070.0 0
122457.0 483343.0 0
124043.0 479292.0 0
126191.0 482213.0 0
129118.0 479201.0 0
133273.0 479978.0 0
137684.0 479902.0 0
142871.0 479561.0 0
147879.0 479133.0 0
145508.0 483481.0 0
152014.0 480151.0 0
149811.0 483417.0 0
154733.0 478700.0 0
157774.0 479132.0 0
154799.0 483277.0 0
161399.0 479430.0 0
159585.0 482360.0 0
169035.0 480411.0 0
164303.0 482910.0 0
172634.0 483158.0 0
178312.0 478821.0 0
176426.0 481550.0 0
180652.0 482466.0 0
186039.0 480923.0 0
193862.0 479681.0 0
191097.0 482419.0 0
195465.0 481980.0 0
198130.0 479958.0 0
201924.0 480898.0 0
206587.0 482236.0 0
210319.0 478273.0 0
215116.0 481051.0 0
219273.0 481119.0 0
222384.0 479418.0 0
226002.0 481069.0 0
233389.0 478987.0 0
229982.0 482266.0 0
237597.0 481647.0 0
242050.0 480083.0 0
245744.0 479177.0 0
250156.0 480992.0 0
256005.0 480305.0 0
260295.0 480699.0 0
264685.0 481754.0 0
269026.0 480467.0 0
272746.0 479678.0 0
274639.0 482509.0 0
276800.0 479117.0 0
281706.0 480663.0 0
287104.0 478514.0 0
285809.0 482428.0 0
289354.0 480959.0 0
292726.0 482360.0 0
296399.0 479476.0 0
300802.0 478555.0 0
300404.0 482716.0 0
304853.0 480656.0 0
309930.0 481082.0 0
314385.0 479185.0 0
317515.0 481719.0 0
323770.0 478803.0 0
321422.0 482314.0 0
328027.0 479393.0 0
330304.0 482501.0 0
331757.0 479273.0 0
335460.0 479405.0 0
334027.0 482911.0 0
338193.0 482526.0 0
344791.0 479445.0 0
342365.0 482488.0 0
348370.0 479653.0 0
350987.0 479056.0 0
346985.0 483288.0 0
350875.0 482275.0 0
353481.0 480466.0 0
357791.0 480495.0 0
363154.0 480733.0 0
367562.0 482292.0 0
375177.0 479770.0 0
371441.0 481828.0 0
375869.0 483403.0 0
379221.0 481048.0 0
383570.0 482424.0 0
386885.0 479614.0 0
391256.0 480917.0 0
395292.0 482966.0 0
398596.0 481238.0 0
402227.0 479531.0 0
401969.0 483039.0 0
405993.0 480609.0 0
410607.0 480160.0 0
409152.0 483908.0 0
415383.0 480432.0 0
413475.0 483805.0 0
420675.0 480765.0 0
417581.0 483565.0 0
425558.0 478926.0 0
425111.0 483232.0 0
430128.0 479508.0 0
428749.0 481998.0 0
432647.0 482482.0 0
433460.0 479315.0 0
436838.0 481049.0 0
441125.0 481697.0 0
444540.0 481556.0 0
447100.0 479180.0 0
447645.0 483668.0 0
450664.0 481370.0 0
454071.0 481554.0 0
458135.0 481953.0 0
462076.0 483060.0 0
464036.0 479824.0 0
466830.0 482383.0 0
470333.0 483497.0 0
25964.6 486145.0 0
23069.5 488304.0 0
27655.8 484300.0 0
31423.6 484412.0 0
27529.0 488806.0 0
31072.3 489134.0 0
36093.1 484427.0 0
34719.5 488164.0 0
38610.5 487079.0 0
41719.3 484617.0 0
42679.3 488289.0 0
46762.8 487738.0 0
49739.6 486071.0 0
52899.5 487779.0 0
56561.4 485970.0 0
60476.4 484989.0 0
59950.7 488510.0 0
63579.4 486320.0 0
65874.7 488770.0 0
67520.6 485736.0 0
71366.9 485455.0 0
75544.5 485744.0 0
73266.0 488639.0 0
79215.4 486607.0 0
81714.1 484387.0 0
82629.1 488299.0 0
84610.8 485170.0 0
86943.7 487330.0 0
90130.1 485207.0 0
91598.1 488470.0 0
94141.2 484429.0 0
95780.5 488042.0 0
98943.4 485205.0 0
103130.0 486314.0 0
107953.0 486230.0 0
112127.0 487387.0 0
115031.0 484900.0 0
117174.0 488671.0 0
118969.0 484458.0 0
122044.0 487510.0 0
125205.0 485444.0 0
130257.0 484456.0 0
135266.0 484574.0 0
140579.0 484115.0 0
143406.0 488080.0 0
147435.0 486357.0 0
151056.0 487240.0 0
155006.0 488417.0 0
159877.0 487042.0 0
168677.0 485536.0 0
164960.0 488294.0 0
172420.0 488061.0 0
176346.0 485633.0 0
183851.0 485392.0 0
180270.0 487593.0 0
187698.0 486325.0 0
194573.0 486132.0 0
198732.0 483848.0 0
198578.0 488356.0 0
202999.0 485835.0 0
207437.0 486270.0 0
211159.0 483978.0 0
217640.0 483945.0 0
215328.0 486838.0 0
222075.0 485315.0 0
226904.0 485141.0 0
229883.0 487082.0 0
233776.0 484342.0 0
237651.0 486758.0 0
240823.0 484293.0 0
245405.0 484181.0 0
249577.0 485801.0 0
253542.0 484748.0 0
255389.0 488242.0 0
258494.0 485036.0 0
261958.0 483804.0 0
263882.0 487723.0 0
268317.0 485063.0 0
271860.0 483391.0 0
274061.0 486539.0 0
278092.0 483724.0 0
278228.0 488121.0 0
282597.0 486135.0 0
289529.0 484439.0 0
287022.0 487001.0 0
292423.0 486656.0 0
296236.0 484761.0 0
303635.0 484720.0 0
300488.0 487195.0 0
307251.0 484794.0 0
311079.0 485088.0 0
314016.0 483375.0 0
314267.0 487541.0 0
317927.0 485652.0 0
322383.0 487200.0 0
326267.0 483559.0 0
326764.0 488423.0 0
331702.0 487289.0 0
340174.0 485634.0 0
336782.0 486087.0 0
343702.0 486867.0 0
350806.0 486159.0 0
347538.0 487753.0 0
354912.0 484790.0 0
359634.0 485022.0 0
362722.0 484835.0 0
365601.0 484886.0 0
362945.0 488208.0 0
369246.0 485436.0 0
366870.0 488234.0 0
372948.0 485802.0 0
376430.0 488152.0 0
380187.0 485254.0 0
385158.0 487311.0 0
388094.0 483901.0 0
390241.0 488679.0 0
392075.0 484912.0 0
395454.0 487437.0 0
398442.0 484714.0 0
400414.0 485356.0 0
399682.0 488467.0 0
403371.0 486405.0 0
405740.0 483989.0 0
407262.0 487025.0 0
411581.0 487282.0 0
416951.0 487881.0 0
421184.0 485516.0 0
425293.0 487316.0 0
429765.0 485443.0 0
433825.0 485487.0 0
436107.0 484365.0 0
437088.0 487263.0 0
433295.0 488917.0 0
439395.0 484783.0 0
441754.0 488606.0 0
443348.0 484530.0 0
445950.0 487372.0 0
452200.0 484777.0 0
450131.0 487979.0 0
455586.0 484501.0 0
454807.0 488409.0 0
458814.0 485930.0 0
462361.0 487495.0 0
465111.0 485503.0 0
465688.0 488503.0 0
469405.0 487013.0 0
473185.0 485864.0 0
476032.0 488094.0 0
13178.8 494152.0 0
16152.9 492282.0 0
19736.2 490465.0 0
19297.2 494009.0 0
23912.3 492415.0 0
28571.8 493028.0 0
33161.7 492617.0 0
38079.1 491629.0 0
42175.3 492264.0 0
45615.1 490822.0 0
50057.5 491021.0 0
55662.2 490317.0 0
53593.0 493792.0 0
59049.0 491588.0 0
63015.5 491289.0 0
66809.8 492706.0 0
69552.7 489193.0 0
69797.1 492505.0 0
72688.8 492201.0 0
77222.5 490415.0 0
81526.6 492346.0 0
85796.1 491974.0 0
88495.1 489712.0 0
90323.8 492498.0 0
95159.2 492198.0 0
99288.8 489483.0 0
102637.0 490913.0 0
99299.8 493724.0 0
105707.0 489183.0 0
105880.0 492085.0 0
108745.0 490273.0 0
112747.0 491855.0 0
117178.0 493716.0 0
121146.0 491286.0 0
127094.0 489033.0 0
125224.0 493391.0 0
132663.0 489455.0 0
129416.0 492410.0 0
132222.0 493600.0 0
138027.0 488996.0 0
136216.0 493543.0 0
141638.0 493673.0 0
147593.0 491121.0 0
152286.0 491882.0 0
157597.0 492970.0 0
162232.0 491460.0 0
168812.0 490517.0 0
165472.0 492899.0 0
172548.0 492833.0 0
176193.0 490307.0 0
184061.0 489567.0 0
180285.0 492167.0 0
187467.0 491476.0 0
191160.0 489097.0 0
190772.0 493139.0 0
194923.0 491935.0 0
199261.0 492824.0 0
202004.0 490638.0 0
205974.0 490290.0 0
210722.0 489252.0 0
214726.0 491446.0 0
218856.0 490214.0 0
223177.0 490328.0 0
226177.0 488734.0 0
229924.0 491128.0 0
226242.0 492888.0 0
233687.0 489279.0 0
237780.0 491771.0 0
242100.0 488826.0 0
244557.0 491959.0 0
247162.0 489105.0 0
246913.0 492556.0 0
250050.0 493487.0 0
251462.0 488866.0 0
254520.0 492115.0 0
259036.0 490300.0 0
266125.0 492041.0 0
269976.0 489889.0 0
275094.0 491420.0 0
280606.0 492549.0 0
284852.0 490264.0 0
289920.0 491261.0 0
296083.0 490444.0 0
304675.0 488327.0 0
301441.0 491730.0 0
309654.0 489181.0 0
305984.0 492951.0 0
313790.0 491747.0 0
318542.0 491136.0 0
324005.0 492746.0 0
329585.0 492456.0 0
335454.0 493099.0 0
335997.0 489023.0 0
340166.0 490055.0 0
345430.0 491722.0 0
350293.0 490517.0 0
353461.0 488767.0 0
354163.0 492451.0 0
357857.0 489398.0 0
361674.0 492056.0 0
371034.0 489932.0 0
366423.0 492357.0 0
370239.0 493768.0 0
374384.0 491137.0 0
381437.0 490178.0 0
377697.0 492720.0 0
386681.0 492549.0 0
391228.0 492733.0 0
393768.0 491013.0 0
397028.0 491737.0 0
401061.0 492586.0 0
404338.0 490035.0 0
408918.0 491018.0 0
413779.0 491967.0 0
421754.0 489676.0 0
418734.0 492747.0 0
425895.0 491029.0 0
422924.0 493793.0 0
428846.0 488982.0 0
430191.0 492295.0 0
434390.0 493413.0 0
437821.0 491016.0 0
442035.0 493520.0 0
446946.0 491776.0 0
451934.0 491859.0 0
456212.0 492214.0 0
459297.0 489731.0 0
460104.0 493336.0 0
463946.0 491791.0 0
468959.0 491599.0 0
473006.0 490320.0 0
475789.0 493425.0 0
479300.0 490784.0 0
483367.0 493016.0 0
10347.2 495630.0 0
7528.59 498394.0 0
15320.6 497155.0 0
19350.1 497419.0 0
22272.5 495908.0 0
26062.3 497180.0 0
30959.8 496929.0 0
35853.1 496483.0 0
40441.7 495754.0 0
43515.7 498581.0 0
45243.9 494464.0 0
49498.4 496991.0 0
54912.3 498002.0 0
57355.8 494565.0 0
61010.0 494644.0 0
59602.6 498215.0 0
64687.0 497091.0 0
69779.8 495904.0 0
74620.2 495769.0 0
78220.1 494265.0 0
80429.1 495207.0 0
78787.8 497689.0 0
83533.2 496456.0 0
87950.9 495992.0 0
92336.1 495874.0 0
96107.5 496793.0 0
100185.0 498033.0 0
103506.0 494886.0 0
105027.0 499061.0 0
108329.0 494959.0 0
113077.0 496594.0 0
117049.0 498366.0 0
120942.0 495858.0 0
124738.0 498310.0 0
129200.0 496506.0 0
133914.0 497332.0 0
138389.0 498258.0 0
146214.0 495781.0 0
148245.0 498587.0 0
150092.0 495312.0 0
153730.0 495687.0 0
162174.0 495963.0 0
168662.0 494932.0 0
166022.0 498634.0 0
169344.0 497889.0 0
172809.0 497486.0 0
176531.0 494769.0 0
184162.0 494303.0 0
180358.0 496195.0 0
188187.0 495651.0 0
185278.0 498079.0 0
192312.0 496306.0 0
197304.0 497032.0 0
203429.0 495376.0 0
207692.0 493866.0 0
208277.0 497112.0 0
211285.0 494319.0 0
212285.0 497761.0 0
215882.0 495737.0 0
221457.0 494951.0 0
229440.0 494113.0 0
228374.0 496660.0 0
225456.0 496932.0 0
233278.0 494774.0 0
237976.0 496846.0 0
241624.0 494121.0 0
242101.0 498523.0 0
245952.0 495961.0 0
249848.0 498297.0 0
253436.0 496316.0 0
257870.0 495577.0 0
262555.0 493561.0 0
261761.0 498134.0 0
266795.0 496217.0 0
271706.0 495115.0 0
276494.0 496145.0 0
285541.0 494738.0 0
289599.0 496679.0 0
293820.0 495807.0 0
298776.0 495761.0 0
303329.0 496882.0 0
307566.0 497471.0 0
310754.0 494543.0 0
320339.0 495619.0 0
315813.0 496512.0 0
323764.0 497975.0 0
327335.0 496231.0 0
331771.0 497453.0 0
336900.0 498723.0 0
341145.0 495400.0 0
345715.0 495715.0 0
350073.0 494727.0 0
347987.0 497992.0 0
354241.0 496128.0 0
358357.0 494914.0 0
362938.0 495351.0 0
366707.0 497185.0 0
373655.0 493866.0 0
371764.0 497300.0 0
377470.0 497506.0 0
382076.0 494819.0 0
382369.0 498878.0 0
385700.0 497080.0 0
390498.0 496615.0 0
394339.0 494148.0 0
395277.0 497983.0 0
397943.0 495159.0 0
402025.0 496712.0 0
405786.0 494306.0 0
410497.0 495341.0 0
407284.0 498561.0 0
415722.0 496164.0 0
420559.0 497365.0 0
426921.0 494828.0 0
425130.0 498194.0 0
430934.0 497435.0 0
435381.0 496771.0 0
438458.0 494886.0 0
441571.0 497577.0 0
438356.0 498053.0 0
445676.0 496615.0 0
450058.0 495872.0 0
453864.0 494924.0 0
458017.0 496555.0 0
453408.0 498949.0 0
463089.0 496159.0 0
467279.0 495811.0 0
472072.0 495116.0 0
470530.0 499432.0 0
475895.0 498964.0 0
479933.0 496088.0 0
484815.0 498310.0 0
486866.0 494490.0 0
489786.0 496778.0 0
493377.0 498899.0 0
3681.99 500008.0 0
2076.81 502842.0 0
7426.62 503355.0 0
11456.2 499778.0 0
14703.3 501647.0 0
12112.0 503953.0 0
17865.4 501042.0 0
16342.1 504329.0 0
20770.3 503730.0 0
21939.6 499663.0 0
24770.7 501709.0 0
28811.2 501053.0 0
31049.3 504135.0 0
33425.6 500352.0 0
36006.2 504234.0 0
38620.4 499735.0 0
41823.0 502984.0 0
47032.5 501866.0 0
52082.3 501665.0 0
57115.8 501855.0 0
62398.2 501948.0 0
66787.6 503429.0 0
68407.0 500103.0 0
71836.1 499409.0 0
71443.7 503491.0 0
75404.8 500453.0 0
81250.4 502375.0 0
86299.5 499900.0 0
90864.0 499876.0 0
91794.8 503960.0 0
96154.0 501648.0 0
101391.0 502477.0 0
107776.0 501726.0 0
105562.0 503813.0 0
109735.0 499380.0 0
113598.0 501424.0 0
117325.0 502731.0 0
120831.0 500656.0 0
127703.0 500550.0 0
124447.0 502967.0 0
131386.0 500740.0 0
135248.0 501077.0 0
138826.0 503822.0 0
143480.0 500075.0 0
148278.0 502266.0 0
151905.0 498982.0 0
153362.0 503144.0 0
157237.0 499062.0 0
161941.0 500525.0 0
165436.0 503724.0 0
169729.0 501118.0 0
174095.0 502218.0 0
177350.0 499138.0 0
179349.0 503765.0 0
181659.0 499586.0 0
189313.0 500065.0 0
184834.0 502118.0 0
193604.0 499592.0 0
193149.0 503700.0 0
197628.0 502125.0 0
201078.0 499905.0 0
205309.0 500408.0 0
210468.0 501558.0 0
215154.0 500559.0 0
218885.0 499196.0 0
218592.0 503305.0 0
223318.0 500710.0 0
227833.0 500311.0 0
230927.0 498762.0 0
234710.0 499748.0 0
231251.0 502727.0 0
238754.0 501420.0 0
242666.0 502560.0 0
246101.0 500577.0 0
253622.0 500072.0 0
250233.0 503599.0 0
257693.0 500339.0 0
261015.0 502349.0 0
265202.0 501182.0 0
270765.0 500507.0 0
276324.0 501268.0 0
281556.0 498682.0 0
284723.0 502853.0 0
286620.0 499340.0 0
288548.0 502779.0 0
292121.0 500398.0 0
296242.0 499751.0 0
300504.0 500459.0 0
305523.0 501369.0 0
309788.0 503216.0 0
311308.0 499060.0 0
315109.0 502755.0 0
319793.0 499876.0 0
323845.0 502835.0 0
327911.0 500691.0 0
333024.0 503101.0 0
338339.0 503263.0 0
340827.0 500053.0 0
344171.0 499075.0 0
342964.0 503596.0 0
347482.0 501822.0 0
351972.0 499369.0 0
354993.0 502532.0 0
356732.0 499171.0 0
358750.0 503434.0 0
361535.0 499245.0 0
365527.0 501057.0 0
369509.0 501053.0 0
374532.0 501700.0 0
379804.0 502629.0 0
383669.0 501600.0 0
387714.0 500932.0 0
392711.0 501487.0 0
396476.0 501695.0 0
398926.0 499544.0 0
399725.0 503628.0 0
402937.0 500726.0 0
406048.0 502021.0 0
409761.0 503941.0 0
412496.0 499366.0 0
414637.0 503001.0 0
417483.0 500628.0 0
422632.0 502291.0 0
427948.0 501505.0 0
432391.0 501502.0 0
435445.0 500036.0 0
435794.0 503683.0 0
439593.0 501405.0 0
442591.0 504066.0 0
444312.0 500589.0 0
448642.0 499882.0 0
451531.0 503188.0 0
455711.0 502333.0 0
457754.0 500345.0 0
461818.0 499562.0 0
460367.0 504101.0 0
466065.0 499433.0 0
464627.0 502711.0 0
468355.0 503167.0 0
473559.0 504024.0 0
480826.0 500199.0 0
479222.0 504121.0 0
484285.0 503125.0 0
489286.0 501816.0 0
494288.0 503570.0 0
497350.0 500079.0 0
498293.0 503469.0 0
3317.25 506938.0 0
8683.72 508392.0 0
13598.2 507821.0 0
19053.4 507735.0 0
25685.2 506689.0 0
31776.1 507775.0 0
35814.2 509663.0 0
40341.9 507675.0 0
45343.8 506372.0 0
49575.9 505679.0 0
53890.8 505855.0 0
59390.1 506813.0 0
64435.8 507001.0 0
68916.9 507820.0 0
75812.5 504426.0 0
74088.3 508703.0 0
78737.3 507173.0 0
87209.5 504713.0 0
83026.2 507990.0 0
90885.6 507258.0 0
94261.3 506061.0 0
98671.7 507057.0 0
103148.0 506445.0 0
106808.0 507773.0 0
110205.0 504387.0 0
110756.0 508490.0 0
115042.0 506458.0 0
120341.0 505691.0 0
128630.0 504265.0 0
124750.0 507304.0 0
133353.0 504580.0 0
135798.0 508501.0 0
140159.0 508318.0 0
144345.0 505943.0 0
149290.0 506066.0 0
153614.0 508749.0 0
159319.0 505141.0 0
162984.0 508263.0 0
166883.0 508682.0 0
170363.0 505290.0 0
175050.0 506972.0 0
183587.0 506068.0 0
188210.0 505433.0 0
197192.0 506503.0 0
201844.0 504628.0 0
206606.0 504489.0 0
205325.0 508677.0 0
214393.0 504988.0 0
210134.0 506896.0 0
218060.0 508250.0 0
222291.0 505757.0 0
226943.0 504818.0 0
231530.0 508061.0 0
235527.0 504572.0 0
241235.0 506814.0 0
245559.0 504913.0 0
255148.0 503791.0 0
250724.0 508354.0 0
258790.0 505598.0 0
254987.0 508389.0 0
263344.0 506030.0 0
267866.0 505022.0 0
269684.0 508507.0 0
272187.0 505420.0 0
275664.0 505706.0 0
278123.0 508537.0 0
280634.0 504520.0 0
287549.0 507139.0 0
292358.0 505422.0 0
297544.0 504567.0 0
302388.0 504577.0 0
306478.0 506702.0 0
311760.0 507616.0 0
320017.0 504511.0 0
317304.0 508738.0 0
323169.0 508035.0 0
327881.0 505720.0 0
331956.0 508331.0 0
336121.0 506959.0 0
340191.0 506930.0 0
347112.0 506797.0 0
351464.0 504287.0 0
351378.0 508371.0 0
355423.0 506958.0 0
360332.0 508601.0 0
363132.0 504238.0 0
367033.0 504080.0 0
371307.0 505630.0 0
366348.0 508825.0 0
373980.0 508382.0 0
376527.0 506162.0 0
381075.0 509193.0 0
381634.0 505282.0 0
384981.0 505275.0 0
390336.0 505899.0 0
395528.0 505539.0 0
401582.0 508538.0 0
404263.0 504535.0 0
406601.0 507512.0 0
410531.0 509245.0 0
414380.0 506802.0 0
418292.0 504710.0 0
422066.0 507530.0 0
418127.0 508448.0 0
426757.0 506024.0 0
431347.0 504973.0 0
430722.0 509301.0 0
434788.0 507402.0 0
439113.0 505551.0 0
438331.0 509157.0 0
446975.0 504519.0 0
442969.0 508104.0 0
447304.0 508752.0 0
451052.0 507921.0 0
455773.0 506527.0 0
460397.0 509237.0 0
465155.0 507034.0 0
469539.0 507060.0 0
472927.0 508655.0 0
476901.0 508265.0 0
483680.0 506664.0 0
480915.0 508174.0 0
488303.0 506850.0 0
493290.0 507817.0 0
497877.0 506547.0 0
4126.02 512599.0 0
10100.5 512985.0 0
15608.0 512334.0 0
21668.7 512015.0 0
29354.0 510497.0 0
26268.8 511951.0 0
29642.1 514395.0 0
32332.1 511630.0 0
35281.2 513963.0 0
39776.7 512791.0 0
43877.2 510363.0 0
48783.6 510416.0 0
54341.1 511156.0 0
59936.6 512383.0 0
62641.2 509568.0 0
65281.5 511896.0 0
70418.3 512642.0 0
75330.9 513562.0 0
78774.5 510717.0 0
82862.8 512490.0 0
87773.0 510363.0 0
93784.4 510655.0 0
98929.6 511928.0 0
103144.0 510455.0 0
108006.0 512710.0 0
113800.0 511582.0 0
118756.0 509880.0 0
124161.0 512588.0 0
129912.0 509213.0 0
129242.0 514077.0 0
133664.0 513164.0 0
138547.0 512437.0 0
143084.0 511001.0 0
147971.0 510651.0 0
158839.0 511774.0 0
163564.0 511365.0 0
166915.0 513527.0 0
171192.0 509262.0 0
170317.0 512344.0 0
174508.0 512406.0 0
180109.0 509901.0 0
185925.0 509780.0 0
188599.0 513523.0 0
192325.0 509580.0 0
196759.0 509818.0 0
196698.0 513263.0 0
200437.0 510032.0 0
203820.0 512937.0 0
209547.0 512756.0 0
213673.0 509216.0 0
215727.0 513765.0 0
220519.0 512435.0 0
223419.0 509722.0 0
227039.0 509446.0 0
229359.0 512501.0 0
233841.0 513364.0 0
236784.0 509212.0 0
240919.0 512918.0 0
246211.0 509853.0 0
252006.0 512478.0 0
260153.0 510854.0 0
265669.0 510286.0 0
270008.0 513613.0 0
273858.0 509554.0 0
277507.0 513519.0 0
282825.0 509651.0 0
287557.0 512386.0 0
291097.0 509748.0 0
295627.0 509796.0 0
301445.0 509446.0 0
304654.0 513088.0 0
308410.0 511275.0 0
313092.0 512162.0 0
323318.0 512885.0 0
327594.0 510729.0 0
332322.0 513578.0 0
338120.0 511797.0 0
343448.0 510036.0 0
348651.0 512412.0 0
353822.0 511199.0 0
357761.0 513311.0 0
363182.0 513939.0 0
368704.0 513885.0 0
371554.0 510454.0 0
375883.0 510610.0 0
384136.0 514230.0 0
387078.0 510002.0 0
392742.0 510694.0 0
396842.0 509539.0 0
398919.0 512900.0 0
406367.0 511498.0 0
402803.0 513384.0 0
410496.0 513782.0 0
415232.0 511678.0 0
420197.0 511703.0 0
426131.0 511286.0 0
431850.0 514149.0 0
434171.0 510628.0 0
436739.0 513261.0 0
441142.0 512354.0 0
445561.0 512500.0 0
450292.0 512115.0 0
455429.0 511868.0 0
460056.0 513446.0 0
464420.0 511945.0 0
469495.0 511375.0 0
474677.0 512401.0 0
479792.0 511899.0 0
482958.0 514163.0 0
485018.0 510768.0 0
490054.0 511590.0 0
493840.0 511516.0 0
497512.0 510455.0 0
3195.11 518165.0 0
8207.44 516902.0 0
12758.4 516861.0 0
18489.6 516880.0 0
22272.3 515727.0 0
25408.4 515302.0 0
23347.5 518660.0 0
27984.7 518422.0 0
32980.7 518181.0 0
38379.0 517114.0 0
44762.1 514803.0 0
42505.2 519253.0 0
46739.0 518745.0 0
50629.9 515786.0 0
56192.2 516337.0 0
57600.2 520303.0 0
61688.0 517170.0 0
66994.0 516716.0 0
72202.5 517530.0 0
79348.1 514533.0 0
77414.2 518148.0 0
86243.3 515224.0 0
82353.2 517790.0 0
90636.3 514852.0 0
88362.2 518557.0 0
96223.2 516607.0 0
102202.0 515008.0 0
105992.0 517718.0 0
109495.0 516462.0 0
112860.0 516232.0 0
118207.0 515219.0 0
122700.0 518019.0 0
127020.0 517299.0 0
131853.0 518006.0 0
136468.0 516508.0 0
142082.0 515665.0 0
139360.0 518976.0 0
146668.0 515510.0 0
152770.0 515588.0 0
158479.0 516800.0 0
162789.0 515811.0 0
167431.0 518691.0 0
170109.0 515212.0 0
173303.0 518014.0 0
178744.0 515965.0 0
183934.0 514368.0 0
187408.0 517896.0 0
192635.0 515182.0 0
196329.0 518202.0 0
200665.0 515724.0 0
205411.0 517118.0 0
225064.0 514259.0 0
279892.0 517825.0 0
282303.0 514608.0 0
285769.0 516804.0 0
292875.0 515467.0 0
298556.0 514010.0 0
297858.0 518682.0 0
302534.0 516989.0 0
307654.0 516122.0 0
312352.0 516462.0 0
317959.0 515052.0 0
322874.0 517096.0 0
327253.0 516100.0 0
336518.0 517463.0 0
343159.0 515816.0 0
348492.0 518053.0 0
353246.0 515813.0 0
357627.0 518159.0 0
366704.0 517532.0 0
371167.0 518399.0 0
373412.0 514272.0 0
378588.0 514989.0 0
386119.0 518505.0 0
389444.0 514685.0 0
395143.0 516168.0 0
401011.0 516896.0 0
406161.0 516696.0 0
410988.0 518370.0 0
414090.0 515937.0 0
414926.0 519048.0 0
418342.0 516300.0 0
422790.0 514824.0 0
427372.0 516646.0 0
422793.0 519504.0 0
431577.0 519198.0 0
435821.0 517863.0 0
439950.0 516109.0 0
444443.0 517620.0 0
448699.0 515778.0 0
452805.0 516333.0 0
457543.0 516671.0 0
462750.0 517181.0 0
467268.0 515395.0 0
471455.0 516181.0 0
477771.0 515218.0 0
475896.0 518480.0 0
481109.0 516674.0 0
487279.0 516974.0 0
493481.0 515344.0 0
497996.0 514407.0 0
497551.0 518447.0 0
2036.7 522842.0 0
6125.01 521840.0 0
10469.2 520931.0 0
15326.8 520940.0 0
20160.3 521472.0 0
25870.2 522189.0 0
31094.0 523679.0 0
39312.7 520326.0 0
36326.8 522067.0 0
40594.4 523179.0 0
45737.8 523447.0 0
49850.7 520412.0 0
51206.9 524204.0 0
53823.9 520529.0 0
60890.1 522289.0 0
64758.2 520470.0 0
64755.1 523986.0 0
69067.4 522252.0 0
74823.9 522437.0 0
80018.9 522376.0 0
85519.2 522197.0 0
91800.5 520081.0 0
95734.8 522758.0 0
101237.0 520041.0 0
105844.0 523599.0 0
110382.0 520041.0 0
111304.0 524602.0 0
115410.0 520165.0 0
120210.0 522317.0 0
125743.0 522100.0 0
131063.0 523568.0 0
135805.0 521327.0 0
143396.0 520316.0 0
139886.0 522610.0 0
148130.0 519974.0 0
145876.0 523627.0 0
152261.0 521375.0 0
149610.0 524269.0 0
156738.0 520751.0 0
161764.0 520720.0 0
170812.0 522426.0 0
177803.0 521472.0 0
182896.0 519411.0 0
309850.0 520521.0 0
315199.0 520849.0 0
320455.0 520489.0 0
325029.0 520410.0 0
331624.0 519226.0 0
335390.0 522176.0 0
340364.0 521200.0 0
344855.0 520491.0 0
347771.0 522403.0 0
353120.0 522031.0 0
358899.0 523381.0 0
362552.0 519677.0 0
367434.0 521853.0 0
376204.0 520020.0 0
372335.0 523565.0 0
378948.0 522622.0 0
381589.0 519829.0 0
386528.0 523540.0 0
390670.0 519905.0 0
394835.0 521294.0 0
398595.0 520477.0 0
403606.0 521673.0 0
408444.0 521399.0 0
412915.0 522961.0 0
418036.0 521491.0 0
422212.0 524583.0 0
427652.0 521794.0 0
436642.0 521731.0 0
440240.0 520318.0 0
444962.0 522999.0 0
449312.0 520167.0 0
454738.0 521225.0 0
459323.0 520023.0 0
463502.0 521894.0 0
459421.0 523837.0 0
467647.0 519846.0 0
466432.0 523868.0 0
472039.0 520411.0 0
470197.0 523970.0 0
475389.0 523554.0 0
480270.0 521079.0 0
485075.0 522521.0 0
489477.0 522775.0 0
492620.0 519902.0 0
497910.0 522568.0 0
3056.18 527122.0 0
8324.62 525708.0 0
13006.6 524779.0 0
11750.2 528666.0 0
17783.0 525392.0 0
22460.5 524872.0 0
26509.7 526903.0 0
30344.0 528117.0 0
35982.4 527224.0 0
41631.9 527556.0 0
48330.2 528795.0 0
53069.0 527654.0 0
56439.1 524271.0 0
61753.1 527087.0 0
57040.3 529366.0 0
67119.7 526933.0 0
72141.9 526899.0 0
77434.2 526821.0 0
82546.3 526824.0 0
87064.8 526774.0 0
90481.2 524260.0 0
90138.2 529288.0 0
94052.7 527299.0 0
100129.0 525256.0 0
108898.0 528087.0 0
115895.0 525231.0 0
123062.0 525859.0 0
119674.0 528962.0 0
127171.0 527143.0 0
133420.0 527695.0 0
137214.0 525809.0 0
142234.0 526445.0 0
154499.0 525964.0 0
344282.0 524597.0 0
349105.0 525799.0 0
356067.0 526292.0 0
359735.0 528362.0 0
363588.0 524947.0 0
368250.0 526812.0 0
372810.0 528686.0 0
377103.0 526041.0 0
381690.0 524629.0 0
384317.0 528750.0 0
389321.0 527971.0 0
392347.0 524525.0 0
394003.0 528804.0 0
397194.0 525056.0 0
401871.0 526635.0 0
407468.0 525180.0 0
411508.0 528598.0 0
417271.0 526781.0 0
426990.0 526901.0 0
432908.0 524677.0 0
439626.0 525562.0 0
444576.0 527489.0 0
450155.0 525234.0 0
455124.0 526514.0 0
463371.0 526048.0 0
459384.0 528388.0 0
467450.0 527389.0 0
472676.0 527868.0 0
477200.0 527826.0 0
481421.0 525997.0 0
487023.0 526285.0 0
493847.0 524136.0 0
490587.0 526353.0 0
493712.0 528736.0 0
497786.0 526689.0 0
2906.05 532529.0 0
7793.69 530645.0 0
12165.6 533203.0 0
15905.8 529893.0 0
21671.4 529917.0 0
27725.6 531458.0 0
32493.1 531395.0 0
38788.0 531783.0 0
43870.6 532219.0 0
48608.2 534469.0 0
52685.2 531795.0 0
56379.5 534275.0 0
60723.6 532814.0 0
64876.7 530710.0 0
69599.9 531375.0 0
74964.4 531509.0 0
80304.3 531527.0 0
85689.6 531206.0 0
93726.2 531940.0 0
97997.8 529508.0 0
99594.1 532913.0 0
103658.0 530024.0 0
108879.0 532388.0 0
113267.0 529587.0 0
364570.0 530287.0 0
379578.0 530330.0 0
390869.0 533107.0 0
398495.0 529883.0 0
405846.0 529688.0 0
402007.0 533388.0 0
408021.0 534309.0 0
415955.0 531693.0 0
412327.0 533673.0 0
422193.0 529823.0 0
419868.0 534849.0 0
427208.0 531837.0 0
430893.0 529742.0 0
431268.0 534260.0 0
436000.0 530655.0 0
441693.0 530753.0 0
440485.0 535103.0 0
448150.0 529761.0 0
445573.0 534111.0 0
453162.0 531374.0 0
458749.0 533584.0 0
463651.0 530728.0 0
469262.0 532455.0 0
475290.0 532188.0 0
479741.0 530920.0 0
484298.0 530196.0 0
481891.0 534295.0 0
489312.0 530106.0 0
497581.0 531153.0 0
1222.22 536250.0 0
3537.84 537254.0 0
7437.96 535871.0 0
11995.3 538066.0 0
17883.9 535333.0 0
15474.9 539718.0 0
24431.6 535677.0 0
35334.9 535786.0 0
40840.8 536567.0 0
59513.4 536824.0 0
65929.2 536179.0 0
71937.9 535859.0 0
425242.0 536146.0 0
435933.0 536441.0 0
450286.0 535694.0 0
464154.0 536159.0 0
473073.0 537117.0 0
478095.0 536379.0 0
486903.0 535270.0 0
492974.0 534079.0 0
490723.0 538949.0 0
497916.0 535587.0 0
495292.0 538592.0 0
POINT_DATA 5000
SCALARS Radius float 1
LOOKUP_TABLE default
3163.97 6810.52 5120.0 6182.6 5492.18 5258.36 5061.3 3951.75 3642.12 5812.43 5906.14 7513.1 5254.28 4402.52 4436.4 5733.48 5580.89 3588.44 5553.16 6110.27 5415.48 3863.18 2356.98 4998.37 5351.6 4715.55 5867.73 4499.64 5013.56 4375.68 5542.27 5122.66 5484.19 3557.27 4688.68 4517.56 4182.53 4672.91 5645.7 5176.86 4366.19 2938.66 3672.51 4008.92 5840.26 5073.35 4834.9 5085.53 5484.83 5538.89 4730.36 6059.59 5701.86 5054.98 4238.81 6030.06 4468.59 5325.02 5170.02 5200.76 4927.31 5185.34 4432.58 5903.42 3761.32 4118.05 5065.13 4940.78 3615.22 5561.06 5670.04 6044.04 5325.36 6759.9 7021.47 5926.61 2720.68 6051.14 4955.55 3563.63 4345.55 5885.03 5246.2 4862.64 5017.13 3673.74 5205.43 6684.56 3955.56 2635.86 3968.64 4688.67 5292.64 4385.06 6166.5 5936.02 4231.61 5305.17 4380.59 6716.79 3850.77 5546.39 5945.65 5418.62 5493.32 5416.38 5740.68 4195.44 5836.15 6704.06 2837.58 3653.41 3871.88 4827.23 4390.66 6116.18 7447.37 4924.6 4733.32 7184.19 4290.3 3867.67 4861.08 3942.53 3379.84 4827.82 7613.27 4133.88 4094.62 6483.19 6230.49 7054.71 4601.27 3641.64 5747.75 4277.89 4796.33 3261.21 5539.32 6496.85 5600.93 5541.59 3856.01 4124.71 5279.39 4911.47 5803.39 4381.97 3255.82 5242.73 2812.98 2899.43 2924.37 4065.69 5399.73 4003.05 4805.87 3607.45 3589.27 4951.03 4665.12 4927.02 4174.52 5109.54 5489.43 5054.25 7325.81 5360.19 4874.39 4839.34 5083.08 5728.85 6337.56 5863.59 3998.5 6257.19 4737.14 5603.15 4660.72 4712.33 5390.22 5227.21 5759.91 4333.2 3997.1 3260.67 3383.4 3936.02 3856.1 5980.74 5816.2 3829.13 3091.3 6458.82 5527.54 5573.7 4055.8 4794.96 6186.19 2980.99 4840.01 6834.49 5525.39 5938.34 4024.3 6394.38 5555.28 4686.65 4695.45 3888.21 5556.96 6038.78 5697.78 5123.52 4295.38 3038.33 4780.03 4044.71 4487.31 5693.81 2540.31 4138.16 5789.98 6138.47 5697.4 4727.62 4005.44 5206.78 6425.26 5143.58 4484.76 5611.2 7933.0 5173.87 5118.27 5169.36 5834.74 5788.23 6052.7 3921.18 4667.36 6902.81 4392.68 3554.9 5495.39 4002.16 4778.34 4684.5 6029.66 6302.8 4270.95 5555.88 5280.17 5028.96 6362.12 5152.36 4220.65 6820.42 4455.12 4894.16 5380.13 5711.87 5932.23 5581.75 3666.57 3798.62 5891.05 7199.21 5529.52 5252.48 3996.0 4015.92 5708.81 5043.05 3486.22 5120.49 5409.61 6038.2 5713.22 6732.43 3866.16 3183.98 4524.28 4511.82 3778.1 5826.64 6959.81 4816.2 4896.52 6321.41 4941.22 5791.61 4479.66 6392.01 6644.76 4254.17 5615.42 4091.31 4523.7 6124.89 5337.48 5542.21 5924.89 6894.71 4414.54 5201.36 5262.61 4306.53 5094.81 5972.06 5861.71 5017.78 3794.63 6175.81 4727.24 6677.09 4829.35 4089.76 3372.79 4751.02 5184.56 5282.64 3369.13 4715.72 5308.1 3043.85 6730.19 6372.62 7565.34 5255.32 5637.59 5481.78 4937.14 3307.12 4467.94 5551.36 6038.14 6135.57 4312.67 5998.38 4359.04 4270.24 5015.69 4947.52 4989.15 4520.1 5813.4 4305.57 3791.79 5201.67 3192.41 5526.55 4987.87 4669.66 5367.2 5461.13 4907.89 5629.19 4937.02 6037.08 3103.0 4049.23 6084.86 3586.91 5478.92 5094.44 4933.21 4850.81 4723.12 5024.9 5659.17 4562.29 5423.8 4164.13 3417.33 4642.34 5153.74 5874.89 4293.03 4424.7 4754.05 4925.44 4951.47 3315.57 6084.93 4764.96 5607.24 4808.52 4726.76 3599.45 5655.21 5091.39 6756.95 5601.05 3115.91 4948.92 5810.84 5375.47 4655.49 4809.42 4717.05 5856.11 5287.2 4234.94 5013.13 4926.42 5080.66 5110.45 5248.77 4165.81 4528.09 3556.85 4389.21 4128.98 6246.22 5246.61 4307.28 5215.15 5046.33 5053.92 5839.13 5090.24 5923.5 4073.93 2240.39 6324.23 4382.74 4516.43 4749.8 4384.42 3748.24 4230.54 4566.18 6163.38 4964.09 3459.9 5543.27 4109.88 4980.85 3327.49 5714.58 3329.99 4083.97 5208.32 3895.51 6291.51 5882.89 4100.38 5804.71 5020.12 6352.26 3735.44 4645.41 4786.6 5096.78 5740.84 4727.24 4651.28 4493.48 4362.19 5082.6 3693.63 6061.47 4093.08 4997.27 4449.22 5628.24 3960.8 5992.26 5070.39 4923.9 4613.31 4973.78 3947.47 5091.68 4607.02 3296.27 4713.25 6673.96 6243.0 5441.96 5174.89 4188.32 5370.52 5538.93 4739.42 5727.3 4899.11 4242.52 3847.38 4745.45 4907.06 3057.03 4433.59 5163.9 4973.83 4612.68 3320.52 4929.8 6355.42 5690.56 3937.74 5478.47 6142.37 5806.08 4853.39 5365.89 4511.54 5196.0 4204.84 6119.09 5069.25 5048.89 4288.3 3435.9 5774.81 3697.96 4723.48 5344.77 4278.07 5356.51 3818.59 4863.72 5495.68 6043.3 5530.87 3912.37 6445.94 4310.18 4129.43 4151.94 5927.43 5244.78 5762.84 5119.37 3982.23 5243.29 4336.42 3130.65 5004.67 5409.33 4178.15 7531.29 5935.03 3991.03 3161.47 4652.29 6826.57 4495.87 5027.98 5097.87 5281.28 2631.9 4087.15 4143.08 5489.34 5952.75 4281.49 5537.72 4320.28 4685.34 5492.26 4220.88 6640.13 5351.39 3402.32 4583.31 4306.11 7589.94 4466.03 5419.37 5985.29 4898.94 4733.04 4247.23 5788.66 4755.47 4485.99 6390.78 3746.31 4788.87 5498.32 5346.27 7267.18 4758.21 5002.48 5708.14 4262.82 5542.14 6342.25 6327.9 6519.71 5449.18 3092.35 3629.96 4714.54 5210.03 3320.11 6022.17 4503.89 5903.66 4528.49 5275.32 4268.65 4694.83 4354.08 3903.75 4520.62 5475.8 7435.25 5543.46 6022.72 6475.1 5527.33 6255.18 2691.29 7500.97 4277.88 3920.42 6332.36 4218.06 4931.53 3843.58 6691.39 5293.9 6082.81 3191.99 5367.52 4048.37 5030.91 5507.24 6851.54 5313.66 5935.47 2651.49 5512.23 4649.22 5349.31 5394.55 5509.42 4256.43 5475.7 5936.36 5229.48 5314.69 5127.16 6050.81 4249.46 4244.99 4643.31 4969.21 6917.52 6256.02 5402.21 4668.71 7228.46 6623.85 5102.36 8332.24 7134.64 4602.25 6142.94 5110.37 4931.38 5664.98 4322.15 4659.59 5025.39 4548.16 5101.59 4377.07 3813.22 5570.3 3848.93 5234.29 4711.62 4114.24 4645.58 2976.22 5094.52 2682.24 5415.19 4016.18 5435.74 5560.26 5965.81 2330.66 4177.19 3691.0 2845.98 5320.92 3948.23 5228.18 5787.31 6122.55 5480.13 4270.53 4736.58 3485.26 3240.09 4556.36 3369.23 3688.8 4515.71 3695.36 5893.5 4547.19 6020.48 3963.86 5200.05 5076.35 5670.2 4091.8 5181.4 5166.79 5928.32 4946.74 5526.75 3950.63 4612.62 4275.57 3619.07 5327.45 6185.89 2983.99 3702.37 5660.85 4750.17 3990.25 4752.51 3758.07 3587.05 4880.14 4989.09 6362.14 6719.88 4342.9 5978.82 6308.71 5978.9 2739.94 4790.08 4194.5 4329.05 4792.73 5513.6 5264.06 4901.41 5358.59 6202.55 3817.13 5023.15 3844.9 5273.35 6375.99 4853.02 6259.23 4662.56 5417.15 3457.48 3405.98 5996.33 3688.16 6631.19 6385.23 4467.04 5817.25 3997.96 2614.4 4439.35 3460.94 6184.4 4373.45 4982.31 6229.37 5269.18 4406.1 6155.31 5065.11 5911.67 4223.33 4187.56 5082.47 4840.84 5138.31 4551.24 6387.01 6338.89 7111.16 4871.44 4564.34 6248.81 5088.44 4998.21 3931.07 7440.72 4681.72 3949.6 5661.62 5626.61 5407.78 6363.92 6205.93 3828.81 5830.72 5309.98 5289.52 4307.48 5034.59 5314.85 4305.43 4553.56 4942.77 3927.99 5069.84 3629.62 5329.64 3323.28 4997.27 5344.25 4501.51 3708.04 6013.14 3610.4 4621.75 4581.13 3856.59 4219.07 6480.17 5584.06 3838.56 6445.22 5872.05 6079.11 4256.67 4427.28 6430.39 4945.39 5376.71 4448.13 4867.08 5703.6 6648.68 4713.74 6632.99 5061.98 4537.6 4923.24 4419.61 7177.44 6718.19 4407.87 5450.44 3848.54 5080.18 5266.5 5868.82 4716.19 4050.9 4051.44 4301.06 5135.69 5344.0 5191.63 5379.87 4602.86 5925.6 2765.2 5572.95 5372.61 5413.79 3686.21 5402.24 5013.42 5651.07 4962.77 6101.92 5323.3 3082.32 4635.6 4765.02 3658.37 5070.29 5629.39 6326.18 4807.28 4266.03 4084.49 5075.55 6179.96 5703.07 5147.36 6260.79 4563.46 3963.76 4082.57 4236.14 5282.91 5941.4 6510.17 4454.63 4263.33 6695.82 6049.55 5514.76 3456.98 4290.14 5987.17 3979.82 5586.81 6723.16 4746.52 5130.91 4948.5 4527.02 5210.48 7552.94 3627.55 4409.63 6239.84 5865.39 5370.85 3178.54 6157.04 2684.03 3776.94 4768.61 2261.36 4522.21 4220.03 5280.69 5449.46 4662.43 6113.54 4043.66 5169.9 5733.62 4425.84 4871.96 5331.02 4066.38 4523.88 5742.65 5709.62 4241.89 6405.76 4877.67 4593.7 6045.46 4043.57 4138.42 5006.58 3824.16 5011.31 3868.18 3689.45 3948.17 5383.07 4531.14 4519.22 4602.85 7644.38 4051.34 5521.25 5278.36 5949.46 3661.9 5136.08 5246.47 4010.57 4187.31 5506.19 6191.29 6923.84 6719.94 6166.29 5294.77 4709.05 6553.94 5255.18 5282.51 3797.33 3004.16 4460.92 7256.35 5592.32 4800.69 5835.78 5054.74 4099.77 4020.32 3498.2 4245.72 4763.45 3815.26 4481.53 4292.06 5330.45 5077.33 5045.38 5350.88 4959.34 4247.15 4790.78 6552.22 5379.09 6004.68 6799.4 5107.23 5222.16 5558.68 3240.51 7422.36 5161.01 4950.67 5453.6 5409.63 5227.59 3077.84 4630.82 5528.53 5726.66 5460.65 4767.78 5945.89 4105.55 3279.1 5912.61 4978.31 4981.9 5941.72 5794.24 4150.99 6562.18 4478.15 5681.38 5147.67 6318.18 5577.04 5125.78 5452.83 4591.87 6422.84 5534.94 5180.76 6218.95 5533.42 5533.72 3678.08 4802.32 4599.38 5730.33 4527.99 4543.1 4628.4 4376.7 5190.61 4298.15 6051.83 4813.08 4263.16 6799.88 4540.86 3062.43 5426.78 4042.28 4863.23 3555.86 4402.67 4403.98 5381.16 4560.84 4948.98 4414.48 4537.32 5163.02 4127.74 4216.92 4704.72 5445.87 3771.48 5198.77 4986.77 5423.0 5643.58 6034.41 5197.52 5178.99 4027.09 5615.35 5801.99 4135.62 4502.18 3312.06 4860.33 3361.26 4983.39 4993.35 4690.55 5146.37 7132.12 5518.57 5463.48 4836.16 5545.46 5680.94 5832.37 3973.12 4642.93 6024.75 5860.67 5987.42 5990.52 5235.17 4340.76 6566.1 4435.36 6386.78 5565.13 5227.52 6086.96 4541.21 4302.5 3066.13 5908.1 4571.7 4107.03 4138.46 5215.05 5137.34 3975.31 5344.43 4373.47 6169.11 5266.22 5172.53 3685.13 3418.99 5226.97 5366.52 4480.95 4558.15 5417.8 4232.16 5151.11 5581.55 6550.44 3764.06 8325.01 5941.9 4440.81 6642.76 5829.22 5567.93 6109.49 3764.1 2967.38 5652.0 5463.41 4421.12 6065.22 5254.49 4996.99 4470.61 6193.35 4656.78 4156.38 2476.04 6048.7 6009.88 4177.94 4850.01 2775.04 3970.25 5198.29 4044.45 6035.6 6070.58 5490.43 4285.32 3627.82 4896.11 5022.28 4318.48 6132.95 4285.66 5008.63 5754.18 4270.74 5132.68 6552.21 5227.02 6595.03 4350.12 5300.96 5670.0 5193.01 4344.51 4707.06 3474.5 6348.03 4523.39 5732.27 4497.78 4835.83 5811.18 4929.75 4779.5 4237.98 6045.22 6649.96 4221.28 4456.39 3701.27 4729.43 4631.83 4092.24 5105.16 5991.09 6006.16 4344.58 5896.46 4271.69 4810.12 3821.72 5262.19 6449.45 4244.9 5339.38 4986.51 4004.35 4763.96 3872.61 3930.79 5293.51 3450.93 6293.89 5097.45 4446.06 5737.75 3778.02 3603.51 4095.75 3834.43 6609.84 5135.96 5491.37 3781.77 3860.83 4792.39 4250.88 5434.47 5278.56 4243.79 6917.62 5332.65 6451.33 4159.35 5225.33 6439.37 4614.3 4896.39 5233.78 4562.74 5126.91 4164.68 4678.38 4742.68 5634.83 6898.19 3633.87 5526.14 7099.43 6048.86 4516.28 4470.4 5311.03 4238.4 5365.24 5255.12 6625.18 4185.61 4047.87 2761.07 5742.47 4917.99 4367.78 3319.67 4076.59 4298.45 5222.51 4972.17 6074.94 5658.37 5699.53 3475.67 3783.54 5527.23 7038.89 5146.37 3863.67 5433.65 5631.14 6137.8 5604.35 4442.22 3091.67 5413.31 4384.88 4332.87 4303.19 3633.79 6887.27 6008.49 4806.34 3942.07 5480.83 5050.65 5448.61 5316.75 5495.84 3929.19 5347.48 6396.74 5315.4 4611.53 5486.68 6894.26 5094.48 6408.83 5576.92 4573.72 5323.91 5099.21 6969.28 5636.4 5283.8 5164.1 4428.14 6464.15 6685.4 4222.77 5268.38 4805.33 4814.12 5067.56 5980.95 4343.78 4887.76 3012.99 6477.91 4081.97 5401.99 5514.84 6081.14 5421.53 3914.2 5776.57 5653.9 4827.33 6268.1 4502.5 5922.5 4374.35 5776.37 5100.25 5805.86 4049.02 5678.96 5296.29 2681.29 6234.32 4585.31 4586.19 4570.98 4296.69 4163.74 5698.96 3665.95 6471.42 6372.13 6016.19 4124.49 4850.06 4479.11 5714.25 6332.01 5325.96 7044.29 7085.01 4581.37 4013.38 3352.35 5263.3 4909.65 2735.53 4008.15 6316.56 4811.32 6420.81 6400.08 5134.39 4256.57 4607.85 7144.24 5133.97 3600.43 6600.94 7443.72 3784.5 3937.08 5022.8 5499.11 5113.21 4862.21 4011.77 4527.08 5252.34 4410.55 2965.79 4287.63 3921.08 4190.31 5346.68 5020.71 5997.88 5839.71 3755.95 4360.23 5889.35 5010.04 4275.07 5388.78 5825.38 6238.32 6804.79 5369.5 5535.91 5404.01 3230.13 6176.67 5016.02 5412.24 4234.18 4920.21 4049.16 3936.95 6193.08 6069.3 5116.6 5887.01 4669.06 6523.86 7693.4 4286.49 4715.58 5580.92 5784.3 4220.46 4287.53 5683.26 5598.74 5371.02 4906.82 5131.24 5513.57 6133.92 7055.53 3719.84 4178.4 7034.11 5782.6 6261.42 2586.12 5965.78 6125.34 4274.61 5083.41 5683.61 7055.42 3836.45 4558.46 5731.57 5662.55 5737.92 3056.7 2685.81 5591.76 4394.56 6101.13 5599.7 6918.35 5642.35 6357.47 4793.65 5955.86 4533.37 4532.89 2779.99 5887.38 5851.61 6942.34 6153.94 3862.77 5168.35 4631.99 3747.03 2783.85 6184.88 4743.59 5208.14 3317.83 3532.3 4450.7 5769.98 6088.68 5937.08 6070.3 4788.58 6155.1 5013.67 5260.34 5206.48 5669.65 5729.23 5934.22 6586.45 3780.23 4359.62 5011.84 5253.55 5820.48 5062.71 6946.21 5433.8 5564.02 5975.63 6444.77 6314.07 6248.6 5443.58 5687.85 6401.43 5703.74 4747.55 4539.07 5464.68 4510.8 5896.26 4587.67 7509.24 5093.82 5951.81 3924.14 4834.3 6348.54 6318.23 4066.57 5156.76 6101.57 4891.38 3856.53 2949.12 6040.74 5460.89 4848.46 5742.09 5260.85 4393.16 3658.05 3311.29 6836.82 5478.11 3858.17 3477.1 5388.39 5030.15 4356.49 4326.48 3728.18 4437.07 5829.32 3449.37 4396.25 5151.52 5973.33 3583.21 2221.99 4643.56 5442.32 5612.21 4135.08 5046.21 5894.61 5128.57 5687.83 5196.67 4709.35 5004.23 6496.67 5876.71 5474.8 5826.04 5624.49 5339.78 3745.84 3471.03 4730.41 5696.88 5690.26 4004.04 5607.14 6057.22 6915.83 4027.46 4156.2 6072.45 4289.17 4497.59 5511.88 4470.98 4512.11 5759.46 6098.1 5708.99 2435.33 6333.29 4558.47 5831.96 5064.79 4475.83 5480.3 4146.81 5756.75 4840.44 5212.43 6639.64 5454.12 4058.87 4206.98 5932.07 5948.71 5844.72 4054.22 2884.65 5393.65 7228.94 5807.46 4648.21 4595.12 3110.13 5526.31 3644.78 4078.93 4740.98 6192.77 3185.39 5128.77 5335.47 4526.81 3994.07 5491.9 3763.05 5092.24 5551.95 3918.87 4347.74 5291.9 5067.46 4518.04 4009.62 4929.14 4863.01 5620.74 6000.7 5945.08 5139.5 3979.54 6442.69 7493.3 4814.55 6320.71 5226.0 4750.78 4373.3 3527.05 5029.78 3095.48 6262.72 3664.11 4166.08 3979.26 6608.73 5188.81 3923.03 6062.05 4643.85 4203.26 4735.33 5082.74 5411.85 3999.94 4413.85 4844.57 5092.37 3901.8 4864.22 5782.48 5941.61 4933.65 4031.78 5950.04 6574.95 4074.48 4231.83 6853.04 4745.43 4477.04 3614.96 3886.68 4691.91 4255.34 5344.83 7046.11 4863.97 3427.63 6342.48 5439.49 5216.26 3687.65 4887.52 5478.95 3851.85 4392.65 5174.75 5048.55 4984.46 4024.31 4147.31 4955.16 3992.97 5989.05 4441.22 4961.99 5853.89 4386.8 4549.69 6423.81 6484.43 3485.54 4312.15 5934.82 4501.78 5633.61 4219.94 6405.0 5907.46 4659.16 5369.08 4264.91 5399.29 5549.49 5789.55 3101.75 4766.06 3580.58 5356.79 4874.18 5604.21 5233.29 2081.58 3169.67 4312.56 4968.03 5204.04 3361.92 5304.13 4648.04 5944.09 5833.06 5698.77 3365.82 6607.87 5762.59 4861.06 4163.5 6481.79 4298.67 5960.66 5873.69 5654.31 4962.09 3999.48 4831.47 5563.79 6939.12 6853.85 4406.4 3493.47 6171.13 4020.4 2395.5 4596.75 3374.08 3497.9 5564.23 4188.87 4498.25 3735.24 5151.21 5398.64 6817.57 4693.52 4568.41 3624.7 3420.08 4912.04 4320.42 7165.9 4701.5 4449.98 4771.65 4036.91 5589.37 5110.11 6379.14 3634.5 6631.28 6571.31 6413.15 6103.11 6459.51 4904.51 3288.01 2202.77 5950.88 5751.15 4149.55 6201.86 5474.01 6551.93 7554.58 3380.69 4140.4 4725.01 4625.67 4458.64 5966.75 4583.52 3657.69 6418.11 5048.19 7122.87 4243.26 3572.94 6799.23 4153.84 4888.27 6740.71 6487.56 5423.42 6605.86 4011.37 4901.2 2511.46 2775.69 4778.82 4612.06 5657.36 3306.14 5467.84 6124.08 5490.58 5029.47 4750.58 4863.79 5395.14 6515.84 4702.06 3464.83 5117.47 5374.51 4143.78 4123.6 5320.28 4538.95 4970.88 7092.87 5224.12 4850.14 3637.61 4569.12 6098.14 4796.58 5750.71 3493.7 4938.74 4472.17 6222.42 5470.77 5516.95 3474.39 4151.76 5328.22 3905.51 4216.17 6484.17 4721.02 3546.71 4254.37 4938.72 5956.65 5768.57 5931.77 5108.06 4222.4 3573.73 4000.43 3984.88 4661.03 5318.53 5160.59 5262.35 4732.09 5138.2 4281.98 5783.48 4504.35 4593.7 5012.97 4349.13 4891.67 6818.91 3429.57 3503.65 5569.2 4027.63 5350.88 5420.67 5305.59 5416.45 6114.89 4330.58 5754.6 4355.83 6870.97 6056.87 5307.35 4342.18 3639.44 5446.4 5725.37 5510.9 4883.63 3492.83 4505.28 6015.02 4922.49 5797.36 5001.58 5119.86 4820.17 4592.15 5084.17 4854.11 4633.05 6505.78 2275.45 6522.59 5012.5 3619.79 6519.43 5876.64 4270.15 3298.2 6710.88 5053.95 5926.11 3967.48 2477.07 6213.04 4923.41 5724.64 2990.77 4497.31 3163.78 4925.63 5965.15 4763.66 4666.81 6739.08 7042.12 4797.52 5462.21 4471.58 5463.38 5945.21 6313.06 6345.13 6470.3 4200.03 5599.49 4719.7 5313.22 3436.15 4097.57 5005.85 5711.11 4575.94 5325.44 5021.88 5102.75 4597.29 4200.09 5938.17 4795.43 5097.95 2928.82 4914.45 5313.12 5498.42 4698.87 3344.57 5351.56 6448.66 5220.76 4453.97 6945.98 6412.67 7001.83 4482.9 3766.69 5513.8 5188.53 4521.75 6746.66 5410.33 4642.74 6735.97 3636.15 5483.7 5135.63 6384.7 3896.27 5351.86 5963.36 5230.02 5169.48 6016.08 5166.89 5491.63 6064.71 4731.21 3868.62 6102.98 5138.33 3743.76 3425.69 4971.29 6280.13 5244.22 3684.15 5585.14 7039.98 4729.42 4159.81 5089.26 4901.44 5971.22 3886.72 4909.31 4998.22 5533.19 5711.62 5417.21 4785.25 5461.55 5435.19 3562.79 7093.13 6306.21 6667.68 5253.37 3830.46 5235.11 5211.38 4721.32 4305.16 4888.6 3293.56 5882.65 5092.28 5078.86 4918.77 4780.2 5163.55 6326.39 6817.32 6471.55 6343.14 6643.85 5501.93 5374.98 6049.79 4390.41 5226.56 5274.19 6113.95 4050.08 4901.07 5452.42 5017.5 5186.3 4893.49 5966.61 4834.87 3672.21 4514.79 4509.89 5760.22 6752.75 5269.38 5607.3 4811.76 5375.1 4638.18 5211.6 4196.37 5806.31 3556.79 7317.04 3503.41 3971.08 6204.65 5438.92 6550.4 4244.49 5036.98 4775.04 4120.07 4952.52 4882.66 3840.21 4081.34 3908.56 4954.76 4844.83 5244.78 5652.87 4311.48 5018.69 5952.38 3152.86 6394.19 5807.52 5087.14 5518.11 4192.21 5712.35 4743.9 3124.7 3719.11 6060.17 5153.18 6711.21 5510.45 4236.86 5832.29 4730.14 2606.51 6456.58 4438.76 3994.39 6006.89 5244.98 3814.65 5415.45 3965.3 5792.98 3776.8 5096.43 6156.21 6602.43 6104.26 4383.56 4990.79 3568.28 4798.17 6865.76 4953.1 2895.63 5424.46 6449.64 5266.01 5767.9 6515.8 6031.67 2040.66 5384.76 6413.11 5529.42 4739.14 5274.14 5257.12 4636.5 4819.73 4903.82 4434.19 3382.7 5100.1 4940.42 3954.91 5085.71 3703.1 5923.4 4623.61 5409.66 6263.44 4319.79 5960.56 5122.63 5774.97 4020.95 5862.86 2315.64 4703.08 4890.5 4488.85 3731.84 3981.07 3554.48 4579.69 6496.52 4997.83 3991.42 3718.69 4388.63 5578.94 6192.0 4940.28 2216.82 5885.28 6579.31 5323.55 3004.34 3022.6 3804.5 6486.37 4172.6 6083.28 4745.79 6100.73 4198.94 5456.71 5470.04 4908.75 6556.26 4211.82 6003.78 5684.25 2628.22 4901.29 4124.76 4050.03 4813.33 4833.55 3646.95 7224.99 6334.53 5377.37 4749.96 4906.11 5869.67 4387.39 4899.73 4564.1 5457.66 5509.51 4848.14 5366.22 5973.89 6193.73 5254.24 5701.52 3742.11 3597.43 4158.91 6776.22 5311.55 4467.13 5321.17 3877.8 4869.25 6273.6 5902.67 4763.4 5454.11 5393.76 3779.45 4941.02 3864.92 4983.1 2955.36 4618.73 6119.99 4960.64 3668.93 4128.1 4983.3 6592.93 4385.81 6350.71 4034.05 6436.74 5425.98 5583.61 5166.79 4516.53 5996.66 5818.95 3940.49 4857.84 4093.99 5079.22 2978.76 6464.8 7016.27 4908.49 6138.12 6622.11 4689.15 4428.78 3685.65 4965.89 6790.73 5746.28 4371.99 5659.95 4946.42 5187.7 4082.47 3561.29 6090.91 4186.6 4537.14 3295.83 5203.08 2965.01 6235.57 3492.19 5412.31 4863.27 4584.5 6766.43 4118.84 3623.87 5916.16 6934.37 6027.62 3423.15 5010.2 6123.03 6098.95 5148.08 5453.98 5653.03 4777.03 4157.29 7610.49 4246.61 6028.09 4286.17 4609.02 5452.36 4852.58 5561.74 4896.65 5975.23 4788.08 996.652 6163.54 5212.37 5965.58 4607.18 5058.51 2403.72 3899.7 7200.89 4147.49 4802.98 5760.98 4705.68 5384.86 4869.48 4658.24 3623.19 6653.07 4745.16 5825.55 5719.79 3199.4 4316.5 7261.51 4968.14 5949.73 4914.03 5086.29 5144.56 5139.18 3360.86 3034.16 5049.99 5545.21 5024.32 4333.87 5136.87 4708.17 5638.7 2741.2 5806.61 5790.42 5784.37 7123.04 4009.24 5372.82 4402.17 4446.58 7778.01 5690.96 2460.79 5798.38 4653.83 4456.11 4125.9 6063.64 5096.24 4986.71 6479.39 4122.92 4405.42 4997.91 4452.54 3604.14 4599.81 4684.44 4962.21 5381.54 4406.05 5884.9 4749.59 5089.62 3468.42 4858.44 3685.13 4673.35 4590.55 5243.43 3876.21 4741.26 4655.16 5920.32 3701.16 4916.22 4152.85 5551.9 6022.7 3867.19 4219.78 4188.3 4963.34 5081.78 5499.39 4260.92 5644.82 6413.02 4407.9 4440.57 4718.54 6736.03 5374.07 3087.09 4055.54 5548.29 7480.41 5163.77 3766.55 5469.13 4976.12 5765.42 5530.49 4817.16 5660.55 4304.41 3989.7 6789.23 5069.89 5107.0 6212.15 3684.56 6813.72 5327.75 4946.23 4783.07 6200.63 6816.66 4532.7 4504.86 3844.54 3217.67 4473.29 5079.64 5034.69 4509.46 4680.69 6500.49 3352.34 4972.18 5078.59 5329.76 5134.33 4365.58 5419.57 2646.13 4636.53 5162.67 3629.49 5766.05 5469.35 5117.64 3916.42 4019.34 3835.81 5429.3 5510.96 4944.51 4697.91 5532.72 4584.81 5071.98 5579.39 4371.08 5270.51 5148.1 5224.64 5490.75 5214.63 4312.48 3495.68 5783.94 5527.13 4278.57 5551.43 5081.08 4201.03 6318.25 5001.87 3667.93 5684.05 5813.79 4644.88 5293.13 6010.59 3142.09 3682.35 3756.96 5591.77 5182.13 5906.57 5401.4 5053.15 5127.82 5910.86 3862.91 5124.17 5366.11 5805.1 6171.71 7382.3 5039.12 3908.98 2995.67 4668.88 3598.08 4022.56 6589.82 5522.21 5698.23 4680.94 5810.77 5828.35 5089.1 5799.69 5876.72 2711.19 5571.72 5689.26 5869.4 4992.42 5297.19 7051.9 5251.4 4940.84 4255.85 4345.67 4453.64 5019.93 4459.28 3885.86 5235.29 5177.64 5191.08 5453.3 6116.33 3838.47 4479.94 6250.23 2588.37 4435.51 5887.15 7234.66 8659.64 6599.66 4588.7 4886.12 6419.12 5683.95 6107.89 4301.61 4233.8 5206.33 4446.84 5065.26 3746.36 4892.44 4741.28 2205.51 4215.2 4553.68 3703.49 5361.87 6502.97 4757.2 3758.22 5969.37 5241.75 4928.35 5849.53 3763.9 3538.53 4651.99 4420.11 6127.39 4918.64 5640.12 6638.25 4815.47 4759.99 5214.4 4368.12 5193.58 3889.98 5399.43 5695.44 4507.46 3422.21 5603.68 5610.95 3220.8 5042.75 4598.92 5179.17 5241.22 6647.08 4979.52 3422.29 4407.79 6548.29 3990.96 6370.33 5352.24 7362.42 4202.77 5836.14 6864.06 4493.79 6008.81 4932.56 4279.44 4028.22 4899.19 7350.26 5167.53 6110.48 7541.76 4775.49 4681.29 6239.68 7320.78 4064.58 3419.87 4834.44 3628.89 4824.81 4234.88 4384.28 5027.43 3772.3 6328.42 4855.01 7307.21 7300.58 5522.75 3608.06 4714.83 4028.32 5474.15 5236.43 7519.2 3809.69 4099.92 4771.13 3208.96 5285.07 3858.06 4680.14 5895.77 5097.69 5511.6 4765.72 6261.75 4517.73 5857.79 3757.34 2908.7 4039.91 6415.61 4338.08 5276.7 6134.99 4541.8 4255.31 5424.88 5148.58 4928.27 4062.5 3583.49 4199.45 3548.39 3673.28 5415.85 5421.64 4366.74 4858.51 4207.54 3375.28 5625.65 4603.5 4936.96 4481.76 3184.64 4787.97 5375.12 5452.78 4061.6 4356.36 6214.73 5473.72 2603.64 5175.89 2856.55 3894.64 6618.21 4268.19 4374.74 5232.85 4062.56 3205.68 4583.94 5046.31 4337.32 4731.53 1937.5 5146.0 4788.7 5721.14 5863.0 4577.73 4987.28 5084.5 6206.98 6562.03 4410.82 6443.99 7212.97 5490.64 5698.53 5034.34 3856.73 3769.2 4450.49 3468.45 5887.71 5036.14 5635.32 4526.34 5409.08 5481.64 5673.75 5360.67 5968.54 6263.3 4537.03 4501.05 3247.97 5124.34 4114.2 4358.81 4326.06 5034.46 5793.12 5473.05 4373.2 5537.34 5192.49 3487.31 5058.34 5726.42 3918.94 3768.46 3852.82 5575.11 4507.36 5487.63 5003.3 6245.52 4932.29 5800.81 5499.59 4990.23 5749.6 3220.29 6016.87 3845.9 4141.21 3125.13 4439.71 6715.73 5782.43 5667.51 4456.26 5769.14 5944.3 3563.14 3381.82 5867.64 5135.5 6208.9 4923.57 3340.09 6633.61 6059.93 4884.59 5217.95 5602.53 4478.6 4608.41 4083.79 4732.09 4184.23 4144.57 3988.3 4833.46 4351.38 5750.07 6136.49 5550.75 4642.66 6543.13 5149.72 4809.67 4752.14 4757.74 4687.64 4950.97 5037.06 5660.16 5842.56 4094.73 6200.54 5713.03 4652.01 5849.65 5134.67 5775.31 5052.84 4165.21 3332.49 5297.16 3950.27 5354.66 4647.67 3566.79 5116.66 4214.44 3629.44 3299.24 5378.23 5374.67 6246.56 4981.43 4508.18 5064.67 5836.26 6666.67 2617.39 5144.44 3717.47 4826.52 4051.18 5120.92 4685.4 6240.42 4629.02 5914.5 6006.16 4288.45 4608.62 5407.96 5131.77 4071.75 5549.71 5482.76 4967.51 5173.82 3745.02 3720.7 4211.36 5378.24 3604.31 5817.74 5661.6 4827.61 4316.45 5385.03 5285.75 4169.15 3494.16 4778.37 5134.17 4074.16 5592.54 4904.35 5390.33 4904.37 5278.54 4651.64 5729.92 5757.29 5469.17 5016.46 6224.13 5061.75 3769.24 6022.78 5884.99 4087.32 6647.85 6643.4 4674.9 5461.72 6599.28 4361.24 7145.73 4168.52 5403.97 3954.77 3784.94 6793.1 5166.05 4506.66 4174.44 5515.73 4708.31 5209.55 5113.6 3873.92 4810.98 5431.29 4198.9 3619.72 5026.76 5091.22 5347.9 5023.41 4646.51 4438.58 6282.38 4565.93 4504.52 5640.72 6061.63 6355.68 5484.36 4511.7 4829.35 4304.63 4187.94 3953.55 5980.59 4063.9 5933.7 5263.27 6834.41 5021.77 4356.25 7248.4 4378.3 5469.47 3796.15 4419.71 4244.21 5512.16 5411.02 4989.56 3197.63 4287.16 5175.29 4863.96 3645.12 5199.44 5580.34 3852.6 5009.83 5131.15 4110.59 5717.8 4847.14 4706.5 5210.75 4811.22 4215.0 4474.83 3683.86 4918.76 6555.44 5003.78 5293.75 4208.41 5114.07 4385.49 5730.61 5826.78 7124.45 6358.93 4383.68 4559.74 6015.22 6063.44 4454.74 2904.46 6449.06 5512.44 4924.07 3460.93 3200.6 4927.73 3565.32 3419.07 4602.57 3763.85 5710.33 5344.44 4626.72 3186.07 5115.42 4369.86 4082.4 4887.73 5728.58 6297.99 5918.95 4538.89 5689.56 6556.86 3242.31 6099.28 3234.26 5372.25 4830.13 5620.88 5370.9 4941.52 4325.13 4529.77 5900.0 6172.27 4262.74 3783.79 5078.73 4248.14 5729.0 5192.92 5275.57 4179.87 4786.66 4761.84 3661.67 5517.65 4009.68 2569.12 4622.73 7025.09 4433.12 3392.26 2549.95 6224.85 5138.93 4556.19 5106.46 5368.66 4795.08 6562.92 4068.31 5501.73 3671.06 5077.29 7035.54 4564.41 4027.33 4850.5 5951.86 6331.74 4252.18 5763.05 4833.67 5357.39 5325.91 4659.88 5851.63 4546.44 7107.63 5727.79 5073.02 2279.05 5212.92 4867.7 4831.93 5788.97 6545.43 6760.92 4075.28 4277.24 4989.2 4469.54 4314.56 6300.92 5161.1 5291.05 3928.53 5036.58 5776.96 5329.59 4209.49 4888.12 6119.63 4409.27 3498.16 5439.9 4752.9 4588.99 4617.55 4947.24 4321.21 3875.05 3456.47 3540.11 5471.74 5950.45 5088.57 4344.34 4923.43 5966.42 5666.95 5210.38 4127.53 4489.99 4548.45 4658.11 4551.26 5260.52 5658.14 5678.58 6570.35 3185.09 4242.63 4263.18 3269.54 7142.95 5064.23 6061.85 4620.95 5268.15 5819.0 6347.72 5124.86 7168.2 4571.74 4796.12 4096.86 3622.48 5001.51 6432.8 5385.86 4209.0 4930.72 5485.84 6424.77 5703.84 5453.69 4335.79 5432.04 3702.45 3921.27 3161.1 4898.29 5265.63 4431.06 5730.2 6523.78 4645.86 4045.67 6005.95 4308.49 4930.17 4581.1 6241.77 5317.19 5762.82 7360.12 5279.19 7050.08 4016.6 5580.44 3035.06 5891.25 5370.1 5129.4 5114.51 4746.15 3303.49 4161.32 4655.37 5161.74 5585.25 5256.75 7336.37 5099.9 6945.69 6406.8 7086.69 5648.78 6875.73 4697.24 3612.44 5226.42 6081.3 4983.43 5233.76 5426.4 5117.52 5866.91 5129.68 2820.07 5076.84 3791.41 5679.74 4092.07 5657.55 5853.12 4213.05 4224.3 4184.21 4700.07 3472.91 5188.82 5615.84 4464.73 4023.93 4928.85 5868.89 8137.11 5484.32 6650.77 5007.21 6045.67 6226.14 4216.95 5466.33 5742.74 5464.25 3821.94 3946.28 4209.31 5486.48 3805.67 5718.28 4247.69 4514.39 5301.47 4640.06 6242.79 6506.86 5391.48 4803.57 5467.63 4728.55 4929.6 4554.68 4568.64 3919.62 4642.2 4945.0 5984.8 4212.15 4585.04 3127.83 6102.49 4241.68 2945.34 3469.18 4095.83 3372.95 5114.23 5495.0 4489.29 7407.91 5676.61 5846.95 5796.26 5716.42 5701.63 4870.94 5293.37 5368.93 5271.88 4488.39 5559.79 6121.56 5879.24 2980.31 5740.78 6824.53 5997.91 4332.64 4742.82 4422.23 6791.86 4820.68 6031.22 3618.64 4171.02 5797.32 3530.82 5028.06 4886.99 4002.99 5159.67 5764.52 5684.88 3770.22 4390.64 5150.84 5087.97 4608.01 5339.82 4519.03 5110.27 4745.44 4085.96 6668.98 6223.98 5821.49 4262.19 5998.13 5095.52 4878.93 6275.25 3720.38 4758.84 4731.37 5023.61 6351.89 5932.28 5118.86 2960.5 4298.7 4975.32 6170.9 4183.4 4733.79 5833.78 4436.48 5758.98 5615.35 3967.76 6311.89 4683.28 6405.69 4217.36 4825.73 6549.8 5247.01 4851.18 4165.36 5288.33 4208.37 5157.38 6203.03 4841.7 5235.87 5273.37 5043.14 4717.73 6440.38 5556.0 4732.37 4985.3 4711.04 5072.5 3904.07 3274.85 7144.05 4173.54 5545.59 5599.29 4619.2 5280.12 7216.98 5984.81 5721.05 5271.02 6329.53 7013.17 4590.01 5367.73 5078.31 4807.35 4227.41 5993.0 6761.81 6047.14 3903.91 4140.92 5630.9 4368.28 4512.07 4692.32 5750.35 5463.06 5236.24 3986.41 5532.75 6949.65 4975.85 5695.25 4495.75 5323.95 4301.93 6171.01 4468.26 5578.18 4603.04 5106.33 5198.94 5933.54 5464.05 3148.79 5453.2 5264.83 6348.93 3901.53 5136.51 6815.51 5232.16 5189.91 5777.26 3989.26 6119.0 7012.36 3792.06 5128.59 5587.3 4293.3 3572.73 6583.37 4864.38 4848.98 4491.96 5184.98 4467.51 4479.5 6261.67 5460.57 5065.78 3435.13 5703.34 4431.46 4612.68 3207.84 6649.52 3977.98 5462.6 4232.33 5617.29 4597.88 5770.92 4845.91 3093.38 2002.78 5631.32 4461.67 6892.33 4505.3 5793.14 3976.0 4452.36 4672.86 4068.41 6463.71 6530.78 5560.23 5237.55 3043.77 3902.48 3909.94 4304.64 6030.39 4905.53 4823.06 3799.01 7392.65 5254.49 5288.64 5319.1 6213.24 6734.39 5942.45 4150.76 5005.72 5368.52 6296.54 4871.77 5797.21 5702.4 5069.9 5685.74 952.938 5473.89 6089.45 4678.7 3673.6 5810.17 4966.07 4657.24 5713.36 5748.9 4749.18 5553.94 4506.18 5606.51 4801.8 5166.41 6038.68 5740.65 4444.97 5046.12 3000.29 4807.4 2596.96 6349.67 4264.54 5261.19 4350.15 3516.27 4139.3 4263.65 6541.45 4263.78 4601.74 6101.86 6106.43 5228.75 5644.81 6545.99 2918.64 5334.36 6139.64 4756.8 3990.94 4896.43 5477.8 4176.32 4462.35 5486.89 4639.8 4549.51 6069.78 5025.42 5196.08 3587.93 6379.38 4517.29 6257.79 4849.5 6229.83 4523.81 5065.74 5791.25 4873.23 4028.35 5410.6 4733.41 4969.68 6636.43 5431.14 6298.8 5313.86 4457.05 5178.07 5151.19 6509.54 6079.55 4993.49 5485.61 5310.33 5308.4 4569.32 3688.83 3402.44 5537.61 6084.88 4397.06 3543.98 4199.44 4053.12 4014.44 6604.72 6002.77 4610.55 4521.42 4967.02 4614.49 6043.34 4939.56 4128.93 4747.68 4959.72 3808.04 4712.17 4723.71 4405.61 6126.5 6322.0 6007.1 4491.26 4511.34 4832.21 5059.37 5009.21 5783.38 4742.35 4139.39 5645.54 6264.03 5088.64 3562.8 6589.8 6920.92 3729.16 3757.23 3783.36 4181.93 6828.8 5987.88 4228.53 3579.59 6123.46 6161.94 6142.88 4065.28 5811.26 5155.28 5388.73 5111.26 5062.77 6740.35 6019.35 6075.99 6028.63 3306.84 5265.21 3450.07 4400.14 4550.92 6215.87 5191.26 5494.28 4067.96 4824.12 6542.5 7104.73 4099.26 5067.56 3834.47 5206.47 6162.3 5701.75 3272.75 5971.21 5493.89 5262.47 3512.94 3104.96 7043.44 5601.55 3831.52 4258.98 4750.49 4643.9 5196.92 3787.08 4013.86 4816.51 4177.47 4218.16 5218.42 5345.73 4933.49 4841.23 4770.63 4357.11 2804.54 5005.6 5589.53 7208.19 5234.2 4612.13 4965.24 5846.6 5327.05 5438.55 4290.49 5353.23 4434.65 5977.66 5209.5 6175.27 5876.51 6731.89 4907.55 4286.61 4103.76 2932.52 4603.66 6605.11 3557.46 4757.87 5971.95 6379.33 5652.73 3689.24 3979.46 6321.97 6412.84 2589.19 6071.59 3856.4 4696.06 4937.36 5984.55 6581.13 5803.3 3228.27 4721.98 5252.82 5878.55 5056.26 5445.91 4812.59 3794.47 7115.67 5400.69 4462.5 5573.31 5004.68 4023.88 3488.34 5348.11 5428.24 4034.88 5108.84 3511.5 4520.14 6345.2 4609.65 5488.96 5704.61 5410.73 5394.79 4574.03 5264.08 5290.37 4526.87 4227.66 4151.74 5192.82 4691.01 4594.89 4174.22 5245.95 3573.84 3038.91 5821.42 4067.89 3922.28 6570.43 6883.86 3350.99 5057.59 4979.5 4745.37 4461.14 5418.98 5285.6 5205.38 4949.55 4884.93 4600.71 4764.83 5262.79 5927.2 4494.15 5146.1 5035.71 6485.77 4419.79 5866.42 6060.06 4704.92 3669.32 4762.1 3663.0 5610.53 4954.81 2970.9 4834.39 6304.49 4383.47 4608.34 4835.97 5695.79 4057.17 5464.83 3622.8 4184.47 4770.51 2781.96 7066.96 5414.58 4431.23 4467.0 4991.35 4994.65 4587.7 5740.98 4346.07 4462.87 4012.92 5759.79 4598.54 4426.02 4711.15 4474.39 3825.48 4658.59 5188.22 4096.47 3810.68 4196.62 5453.77 2809.19 4916.7 4104.04 5030.33 5593.79 5157.73 5104.39 5847.91 4934.66 4984.01 4109.44 6217.33 4903.84 4605.39 4557.1 6688.53 5927.1 6500.45 5743.8 4094.63 5084.76 5581.01 6834.92 5130.57 5749.53 5090.48 5402.45 3985.93 5582.28 5945.25 5985.75 4137.16 5475.83 6189.29 3074.49 5672.46 3956.24 5202.33 7558.99 4142.1 5043.14 5333.04 5089.1 4521.99 6842.54 2853.68 5675.45 3361.11 6038.56 2807.46 6559.82 5599.16 4179.8 4577.98 5658.35 5043.34 5886.81 4582.12 4487.51 4295.25 5067.92 3188.21 5357.14 5128.03 3720.92 4379.91 5087.3 4942.63 6139.74 5850.38 4975.57 7066.26 3677.85 4730.97 5214.71 4515.02 4677.84 6294.09 4571.57 3445.92 3820.19 5131.07 5236.69 4121.07 4586.82 6026.04 5939.29 6200.05 5575.11 5859.17 4574.54 5615.06 3132.34 1969.87 5490.54 4841.28 3957.38 4047.95 5507.38 6889.5 4710.88 5407.69 5544.27 3484.81 3742.31 3987.69 5960.5 4316.0 6502.99 4546.96 4287.25 4580.06 5424.55 3926.11 5755.15 5134.72 4271.07 4191.01 3814.16 6419.64 4589.06 5340.05 4215.05 4140.04 4920.88 4668.8 5995.4 5577.41 5917.34 6511.37 4216.44 3999.5 6710.14 5034.05 4726.2 3953.26 5467.51 4625.53 5459.92 2347.41 4542.16 6478.35 5114.67 5353.66 2638.82 5527.27 5765.14 4541.22 4946.08 4767.54 3539.68 2927.84 4696.03 6177.68 5466.13 4698.7 6270.59 6229.64 6045.26 2848.44 4220.43 6263.87 4975.56 7282.36 6666.34 4645.91 6959.88 4125.75 5247.73 3746.62 4876.37 5034.02 4649.5 5260.13 4810.74 5181.31 3900.93 5784.38 4149.17 4329.8 5728.27 6571.26 4313.38 5580.95 3549.92 3393.59 4032.06 5250.56 5246.81 5888.95 5394.78 3463.34 5122.38 2459.88 5262.85 4998.37 5329.84 5901.71 3879.83 6565.95 5733.12 6436.29 4246.24 6805.02 7394.47 4850.95 4729.45 5919.27 6261.13 4793.06 6637.38 6188.33 6111.23 6916.18 3057.3 6150.31 5873.62 4811.11 3463.53 4924.52 6126.03 4866.8 5524.28 6044.69 2970.24 3133.28 5731.43 5105.54 6353.81 3414.67 4052.49 4034.41 5061.74 5203.54 6189.67 6142.94 5001.69 4948.96 4416.87 5117.83 3869.39 5300.17 5152.78 5308.33 5393.43 6896.55 4666.12 4392.75 4921.1 4685.65 6219.34 6023.07 4420.6 5287.25 6506.63 5939.22 3626.86 5418.12 6371.96 4271.93 3495.3 5890.25 5322.11 5700.79 4697.49 5524.45 5735.08 7133.44 5600.21 4750.81 4282.11 4656.01 6589.13 5602.62 5714.51 3543.37 2030.03 4938.33 5628.97 4484.78 4621.33 4801.16 5071.38 5121.08 5616.66 5688.77 5368.28 4880.78 5257.38 5075.23 5625.02 5212.05 5479.86 4829.77 3928.99 3826.01 4444.92 5971.9 4532.67 5050.2 2513.38 5316.05 4769.62 5019.84 3995.08 4028.13 3874.12 4457.73 6476.35 6260.58 3053.19 4067.24 4720.22 2832.83 5827.3 6598.99 2468.16 3633.58 3010.1 6294.14 4339.97 5203.75 4667.84 5169.09 4512.6 4210.24 5470.67 5225.11 4932.27 5342.9 5252.22 4962.35 5402.81 4600.81 5354.48 5640.63 4900.26 4167.55 5374.09 3421.81 6271.22 5378.75 3920.64 6186.24 5822.7 5786.06 4137.41 4996.91 3868.69 3920.44 5379.52 3768.62 5314.67 4197.87 5658.05 6593.1 5462.1 4066.36 4000.51 6032.45 3518.14 5444.36 4150.44 5522.34 5326.03 4420.35 5771.98 5717.45 5772.57 5256.82 4813.81 6581.56 4052.43 4117.9 4057.4 3980.46 5534.23 4753.76 4638.09 6025.77 5383.9 4441.91 5377.01 5674.63 5330.26 6470.23 5828.25 5917.08 4725.11 5483.37 5259.21 5092.93 4256.08 5881.93 5934.05 2803.01 4460.89 4604.1 4157.1 4714.66 5125.17 4399.52 5322.07 4444.0 4859.01 6771.18 5076.11 5770.07 5990.75 5101.6 5327.39 5781.62 4981.81 4037.86 4138.59 5141.03 4970.55 8123.59 4819.83 6286.27 4188.16 6327.54 5507.07 2943.17 4654.92 4802.36 5327.71 4322.56 5509.09 3873.72 4850.49 4592.49 3625.98 6188.62 6474.5 4702.32 4763.04 5908.57 5944.52 4413.56 5742.39 4821.41 4924.53 4908.32 5616.11 4499.52 5759.19 4813.24 3113.64 5847.27 4490.2 4304.75 5480.86 6139.9 4474.96 4084.87 4758.76 6036.99 3584.05 3825.98 4589.22 4916.75 5087.03 3906.41 4691.15 4260.38 6224.64 4636.45 3799.55 5638.51 6793.49 6060.19 6786.37 3860.8 4333.23 4328.76 4919.13 4124.33 5168.97 5783.88 5002.38 4720.34 6705.93 5244.47 4731.16 5510.89 6470.87 4495.33 3780.07 4159.89 5282.67 5466.49 5447.74 4038.17 4450.51 5007.41 6033.72 3851.47 4966.74 5563.47 5651.46 3162.27 6033.93 5011.37 2827.92 4026.03 5092.44 5044.68 2649.69 6908.32 5899.78 3467.11 5000.74 6153.26 5268.27 4013.86 4061.87 4645.93 5165.31 4634.25 4896.67 4585.37 5901.8 3798.09 3934.11 5158.44 6417.61 4466.22 4288.5 4781.9 6815.96 4475.38 6153.71 5339.6 6561.94 5350.9 5317.83 3483.61 6738.9 5640.67 5992.06 5545.68 8052.53 4554.24 5555.89 6182.19 4984.17 4867.12 5910.66 7415.84 4637.3 5734.07 4840.44 6241.48 3997.68 6033.28 5125.45 3784.68 3717.22 6649.21 3470.69 4859.95 5286.55 4132.08 5522.18 5223.1 4981.55 5093.41 5144.23 5464.34 3621.63 6153.07 4414.06 6833.5 7296.47 2613.78 5417.07 4780.16 5738.37 4433.23 5312.2 4706.59 5734.84 3982.31 5551.79 4582.24 4950.07 5367.05 4790.63 5259.29 6236.46 4818.53 5584.64 4123.08 4221.03 3795.63 4576.71 5189.4 5082.66 4550.77 4337.93 3563.33 3550.88 4345.51 5536.0 5145.13 5561.63 5940.5 4358.06 5093.51 5647.93 4865.11 6201.49 5449.09 5502.14 4605.61 4465.56 4131.08 5747.9 5178.55 3864.19 5146.69 6203.24 4907.48 3692.99 6213.74 6818.23 2329.93 4959.94 6938.87 1635.31 5639.4 6185.73 5516.37 6520.96 4441.44 4232.44 4612.4 5336.61 4817.75 5563.09 3312.3 5637.53 5244.95 4848.15 4439.09 3882.37 4798.13 5448.64 5523.81 4095.4 5188.57 6351.48 5395.12 5715.51 4496.51 3886.56 4511.05 3456.3 3830.7 6074.39 5432.4 4262.52 7430.48 4844.2 6572.17 6080.69 3939.96 3751.73 4926.62 3374.62 4766.47 4970.12 4967.93 6044.01 6520.19 5973.57 1458.87 5922.62 5130.56 4957.99 4414.09 5191.29 5957.82 6305.9 4542.62 5093.28 6131.52 6009.88 4699.77 6664.54 6842.35 3922.98 5161.73 5259.48 4777.96 5801.89 6608.94 3796.73 4644.68 3834.01 3082.16 5656.84 6789.66 4739.41 4694.27 6760.64 2515.5 4849.21 5177.88 3793.83 6981.47 3916.15 6189.81 4449.73 4088.72 3743.85 3945.62 5342.17 5097.85 6379.3 6189.04 5015.67 6538.04 4894.15 6157.59 5201.3 5848.41 6223.33 5438.6 3747.96 5611.29 6568.45 3724.23 5004.22 4280.92 4696.92 5154.74 6437.99 6898.8 5386.95 6540.57 4287.93 5315.71 6158.93 5081.65 4488.41 4369.87 5652.19 5412.07 5512.57 4083.24 4806.99 5432.2 3771.91 5217.62 6178.19 4746.19 6381.58 5715.25 3282.57 5212.2 4611.21 5648.59 4718.61 6697.45 3873.79 5717.67 5357.33 5783.69 5252.37 3224.81 6210.0 4499.54 3775.38 5037.58 6457.89 4081.77 5114.61 6118.13 2181.29 4420.3 4706.31 4202.12 6332.64 4871.1 6369.66 4735.99 3917.09 6009.93 5678.08 3482.73 5872.45 5270.1 6351.95 4063.26 5195.09 4947.64 5345.05 4997.89 3997.52 7679.2 4881.51 4909.74 2626.41 4311.92 6729.99 5036.84 4565.36 5813.68 4025.08 5254.93 4008.67 4803.4 8013.28 3846.55 5283.65 5943.61 2892.36 5981.54 5911.29 5416.41 4542.25 4414.23 5233.88 4785.55 5245.4 5647.11 4090.28 4048.73 4246.83 7370.52 4521.88 4726.5 5467.05 5103.3 4601.54 7263.57 3832.09 5705.96 5267.65 6632.04 5360.88 5332.11 4893.72 4072.4 5373.78 4823.14 6679.12 4621.32 5806.74 6578.62 4813.55 5856.43 4796.04 3839.0 3465.03 5349.85 4616.81 5799.86 6011.4 4672.34 5172.1 4362.94 6052.22 4469.82 5108.42 4630.5 6296.36 4432.32 5515.59 3721.69 5237.27 4451.76 7885.41 5782.25 4046.22 4907.03 4104.97 4575.72 4948.21 4987.01 4721.2 5161.02 6265.48 2694.25 5003.81 4203.68 6492.44 4083.1 4739.56 4613.32 5145.39 3996.93 3352.46 6225.05 5434.04 5200.1 5994.21 4444.54 5403.81 5779.9 6964.78 5310.33 4374.05 5299.03 5504.65 5669.41 5732.11 5040.9 4770.21 3618.53 4868.66 3783.35 4004.39 4037.16 5159.9 4987.48 4248.58 5479.17 5020.37 4963.88 5888.94 4727.98 4122.2 5175.88 4516.26 5739.69 3509.34 3647.26 7360.62 4977.64 6004.72 4983.56 5345.65 5699.51 2489.44 5438.5 5863.36 5699.4 3878.8 4698.94 6284.12 3948.21 5669.15 5229.56 5296.05 5263.86 3330.85 5056.32 5533.52 5376.41 6545.78 3354.94 4404.87 4870.14 5105.72 2932.2 4082.01 4944.08 5576.16 5767.65 5003.49 3964.03 4750.76 4216.33 5497.27 5617.91 4444.95 3903.9 5606.22 3943.77 5242.38 3124.49 6081.35 5459.52 6262.18 3818.37 4701.03 5663.36 5566.5 4276.59 5579.04 5125.53 5405.6 3929.35 4884.93 4223.53 4759.38 5082.25 4287.15 5282.51 3760.4 5604.0 4951.02 3919.47 4602.7 5596.68 6395.63 4790.16 3731.58 3166.37 5369.42 4985.45 5205.53 4714.52 5499.37 4489.18 5543.05 4883.13 4632.75 4836.76 5237.76 4994.98 4286.84 6423.96 6058.13 5894.69 6988.4 6635.51 4060.17 5410.33 5003.63 4695.7 4747.24 4380.86 4909.13 4287.61 5269.39 4305.35 5210.22 3308.75 4604.34 4439.17 5832.72 4929.35 5442.79 5051.39 6673.92 4633.59 5151.68 4884.94 5362.15 5268.93 4609.98 4455.61 4738.72 4752.31 5240.97 5569.85 5306.31 5523.96 4733.37 4535.94 3037.72 6960.97 4523.9 5126.08 5207.08 4587.19 6028.89 4752.94 5551.09 5333.16 4888.17 4501.1 3950.53 5581.47 5755.98 4384.91 4274.05 5077.2 6550.61 4987.01 4277.54 4713.56 5529.09 6051.35 6094.34 5302.53 6779.82 5543.67 3999.81 5648.02 4072.95 4867.13 4863.27 2451.27 2701.42 5677.42 4502.12 6853.07 3255.93 6327.61 5733.59 5575.8 3695.72 6874.6 5106.9 5392.85 5275.27 4531.46 5925.82 5448.68 4739.5 6210.48 6377.45 4491.62 4182.05 3865.5 
SCALARS Velocity float 1
LOOKUP_TABLE default
1.41583 1.27545 1.21443 1.29939 1.33663 1.35031 1.31464 1.35805 1.40217 1.40396 1.37094 1.39116 1.32107 1.2918 1.31664 1.3355 1.32857 1.33951 1.30044 1.29132 1.26663 1.30608 1.24445 1.24577 1.30411 1.33669 1.3482 1.31285 1.3578 1.37139 1.39107 1.40941 1.40515 1.34211 1.3035 1.29972 1.32064 1.35463 1.26998 1.26408 1.30382 1.31672 1.3151 1.31267 1.23669 1.18875 1.29154 1.37828 1.19936 1.33413 1.3927 1.34326 1.3606 1.38362 1.34477 1.40325 1.38744 1.4084 1.40524 1.41427 1.34348 1.29927 1.29722 1.3309 1.35188 1.30642 1.32337 1.31454 1.27852 1.23743 1.1922 1.2389 1.37453 1.25559 1.3833 1.4014 1.34017 1.34088 1.36047 1.32046 1.38078 1.40067 1.41107 1.32447 1.41789 1.23204 1.2828 1.31742 1.3331 1.34521 1.32777 1.36318 1.32899 1.36373 1.33635 1.32289 1.24221 1.22947 1.19026 1.28483 1.19885 1.19016 1.36014 1.30281 1.35827 1.41116 1.37433 1.39018 1.32832 1.35899 1.41911 1.38733 1.41205 1.39533 1.41887 1.2913 1.31006 1.34979 1.38828 1.35782 1.32893 1.33053 1.24326 1.21708 1.40091 1.26151 1.26816 1.30333 1.30993 1.24243 1.29072 1.35076 1.39926 1.38988 1.4475 1.35531 1.30502 1.28533 1.28533 1.37588 1.40049 1.40368 1.41126 1.42549 1.44423 1.50131 1.29588 1.29378 1.33859 1.3929 1.42385 1.38522 1.3568 1.40653 1.27296 1.23672 1.25462 1.23991 1.31524 1.2945 1.1691 1.26302 1.35044 1.30639 1.39637 1.39804 1.4329 1.43237 1.34557 1.41635 1.44923 1.46156 1.49509 1.30981 1.50723 1.37279 1.38916 1.42054 1.43437 1.31615 1.22394 1.28333 1.29123 1.2914 1.28727 1.20523 1.30467 1.31339 1.28647 1.25048 1.36891 1.30911 1.40076 1.36595 1.35062 1.37776 1.58598 1.50547 1.42438 1.48518 1.50284 1.45755 1.48673 1.43611 1.47341 1.52788 1.31709 1.3897 1.42586 1.18929 1.45701 1.33083 1.28096 1.2794 1.29029 1.21025 1.30122 1.37973 1.39186 1.30606 1.40361 1.37288 1.3304 1.23317 1.43418 1.45884 1.53136 1.56951 1.54251 1.45803 1.49941 1.46646 1.44992 1.43344 1.56305 1.34694 1.46601 1.55726 1.30471 1.17771 1.29387 1.21898 1.38186 1.26798 1.27649 1.41396 1.35599 1.32473 1.32248 1.14729 1.52664 1.54695 1.55636 1.50487 1.48832 1.47784 1.47617 1.46723 1.41886 1.51447 1.51641 1.57678 1.44925 1.58218 1.53389 1.51101 1.20078 1.35653 1.23358 1.27399 1.28567 1.37953 1.34789 1.32166 1.12131 1.41778 1.30746 1.56154 1.52899 1.53411 1.49457 1.51854 1.49762 1.47732 1.4741 1.46948 1.48638 1.53601 1.53997 1.52812 1.53838 1.46777 1.47353 1.53652 1.52262 1.18964 1.19474 1.48992 1.36072 1.39918 1.29284 1.70929 1.39906 1.29228 0.984792 1.65203 1.69475 1.51961 1.51921 1.53313 1.52447 1.53071 1.49491 1.47951 1.47467 1.48838 1.52216 1.51751 1.54652 1.54921 1.5038 1.48619 1.43455 1.48938 1.56107 1.59592 1.58376 1.22368 1.62689 1.1622 1.2006 1.61329 1.62327 1.84251 1.5171 1.69465 1.57333 1.53636 1.51809 1.51654 1.53146 1.52597 1.51474 1.49036 1.52872 1.49587 1.50807 1.49907 1.54569 1.52524 1.6105 1.52215 1.51872 1.50093 1.59333 1.62477 1.78407 1.38287 1.65723 1.47178 1.19055 2.05505 1.39347 1.06766 1.55323 1.60329 1.75472 1.62522 1.617 1.62965 1.54581 1.53367 1.5244 1.48262 1.55818 1.50825 1.52222 1.51794 1.50033 1.55541 1.52308 1.54885 1.46925 1.5203 1.62781 1.55325 1.45271 1.63239 1.80365 1.71336 1.74971 1.20024 1.55249 1.9376 2.43909 2.82021 1.90099 1.65647 1.80871 1.62189 1.61387 1.61193 1.56396 1.55714 1.53835 1.50407 1.54669 1.52514 1.51355 1.51705 1.52022 1.53098 1.52571 1.54378 1.48002 1.40138 1.49667 1.63406 1.55194 1.42097 1.75207 1.66698 1.7411 1.68964 1.18126 1.58145 1.14999 2.01288 1.33591 1.53939 1.76854 1.6004 1.70939 1.67441 1.63342 1.67094 1.59263 1.57263 1.55459 1.55637 1.54382 1.5291 1.5161 1.52044 1.52447 1.52125 1.48993 1.50605 1.53174 1.55616 1.58744 1.69165 1.95166 1.71011 2.09349 1.80741 1.34511 1.23985 1.41333 1.49557 1.5448 1.4708 1.54917 1.57806 1.61487 1.55958 1.55505 1.55342 1.55674 1.54002 1.5472 1.53089 1.5323 1.52322 1.52371 1.51568 1.51696 1.51502 1.51518 1.51193 1.50335 1.50559 1.49897 1.49248 1.50769 1.49599 1.52391 1.50132 1.56554 1.60632 1.52773 1.67859 1.6181 1.42017 1.61231 1.60788 1.36297 1.39437 1.19178 1.3703 1.50314 1.50108 1.47425 1.50258 1.52347 1.53631 1.53411 1.53094 1.5241 1.5146 1.51842 1.5061 1.49883 1.49455 1.49459 1.48348 1.49378 1.48892 1.48557 1.5033 1.57803 1.53392 1.54543 1.58745 1.51827 1.43134 1.55308 1.48267 1.47645 1.47907 1.41002 1.44907 1.44911 1.47617 1.48264 1.4965 1.5232 1.49388 1.51684 1.51578 1.51249 1.50993 1.50401 1.49308 1.48914 1.4876 1.48449 1.4789 1.47122 1.47543 1.48123 1.49995 1.51757 1.51478 1.49292 1.51771 1.49221 1.55167 1.49996 1.45628 1.45238 1.44951 1.44599 1.46837 1.48852 1.46031 1.48392 1.46927 1.49541 1.49938 1.48691 1.48862 1.50022 1.49711 1.48885 1.48938 1.48954 1.47967 1.47906 1.4684 1.45688 1.45879 1.46728 1.48295 1.48646 1.49463 1.49031 1.49721 1.47279 1.43369 1.44523 1.45288 1.46815 1.447 1.47188 1.41508 1.47185 1.44753 1.47676 1.46505 1.47555 1.47663 1.47853 1.48018 1.48173 1.4762 1.48246 1.47881 1.47913 1.46607 1.43766 1.4304 1.46434 1.4656 1.46489 1.44928 1.47721 1.46296 1.46686 1.48142 1.435 1.45195 1.43181 1.43132 1.19178 1.43124 1.41874 1.44214 1.39949 1.36351 1.44279 1.46362 1.46766 1.45883 1.46213 1.47438 1.47303 1.46987 1.47489 1.47026 1.46085 1.4853 1.46649 1.47065 1.46876 1.48677 1.4514 1.43709 1.4623 1.42793 1.44374 1.44108 1.44224 1.42698 1.42526 1.44409 1.45945 1.45835 1.46111 1.4353 1.42384 1.19178 1.4047 1.40675 1.40956 1.38844 1.38492 1.38652 1.3538 1.47329 1.43364 1.44106 1.47018 1.42826 1.45376 1.46624 1.45371 1.46009 1.47578 1.47403 1.48085 1.44195 1.46041 1.5067 1.42788 1.42829 1.43319 1.42619 1.41452 1.41466 1.41633 1.43883 1.4491 1.44081 1.42621 1.41887 1.41094 1.40294 1.39165 1.32572 1.40361 1.353 1.37147 1.37745 1.42997 1.41384 1.41024 1.45729 1.4516 1.42922 1.43435 1.44679 1.44418 1.4398 1.44456 1.49935 1.42715 1.42548 1.51419 1.32519 1.56013 1.6508 1.43177 1.40322 1.39069 1.43246 1.41904 1.38749 1.41758 1.41098 1.4105 1.39693 1.4019 1.38769 1.39822 1.45192 1.42462 1.43076 1.41266 1.41732 1.42255 1.42309 1.40388 1.19178 1.4016 1.40078 1.4033 1.39551 1.35962 1.38421 1.40497 1.39619 1.43001 1.42242 1.41734 1.41278 1.44489 1.44571 1.45018 1.44486 1.44776 1.42128 1.44399 1.15472 1.43117 1.6858 1.47811 1.39057 1.40402 1.38443 1.377 1.40215 1.40388 1.38544 1.40732 1.40275 1.41461 1.43697 1.35116 1.41087 1.4016 1.42551 1.39946 1.38605 1.39452 1.39937 1.36872 1.38199 1.38032 1.42042 1.41079 1.39723 1.41093 1.44104 1.45048 1.44061 1.42301 1.40962 1.25547 1.21607 1.37124 1.4221 1.39411 1.40207 1.40845 1.40969 1.41255 1.39238 1.41937 1.38731 1.39037 1.32237 1.37348 1.35874 1.39754 1.41774 1.39941 1.40008 1.37641 1.37029 1.19178 1.39376 1.39123 1.38987 1.38054 1.37401 1.37363 1.38552 1.36968 1.3849 1.39216 1.36089 1.39519 1.43846 1.43967 1.41794 1.39809 1.351 1.40012 1.38622 1.29715 1.36653 1.27973 1.35446 1.41666 1.38703 1.39932 1.3992 1.40123 1.40435 1.41418 1.38961 1.36216 1.38332 1.3672 1.36899 1.39413 1.38831 1.38483 1.39307 1.39019 1.38326 1.36544 1.19178 1.19178 1.38694 1.38699 1.3792 1.3817 1.38181 1.37602 1.38446 1.38391 1.36337 1.3796 1.40221 1.3767 1.34454 1.36963 1.33218 1.38364 1.36735 1.39776 1.37236 1.31249 1.35778 1.31702 1.36437 1.3569 1.38589 1.39091 1.39274 1.39907 1.39689 1.39218 1.41232 1.35866 1.35213 1.37081 1.36807 1.37107 1.36969 1.3822 1.37463 1.3737 1.36358 1.36366 1.38229 1.37771 1.36548 1.36401 1.36833 1.35621 1.37281 1.36298 1.36285 1.36738 1.37937 1.35498 1.34315 1.34066 1.34925 1.35315 1.37029 1.36774 1.36332 1.36742 1.3526 1.36837 1.37983 1.36474 1.37981 1.38327 1.38628 1.38487 1.38595 1.39036 1.35636 1.36403 1.36079 1.36696 1.36537 1.36073 1.37 1.37362 1.36512 1.3591 1.36436 1.35795 1.37537 1.37137 1.37296 1.36121 1.36443 1.36256 1.35766 1.35598 1.35011 1.35563 1.36043 1.35927 1.35391 1.3563 1.3511 1.35506 1.351 1.3449 1.35593 1.37119 1.36887 1.36503 1.37036 1.36946 1.37308 1.36415 1.3562 1.39729 1.36786 1.37782 1.37969 1.38023 1.36593 1.37963 1.37543 1.35776 1.35653 1.35492 1.35187 1.36894 1.35452 1.35151 1.35079 1.35145 1.35495 1.35898 1.36661 1.36024 1.35549 1.35509 1.35206 1.34973 1.34455 1.34924 1.34008 1.35105 1.35689 1.36168 1.36217 1.34711 1.3499 1.34216 1.36116 1.36759 1.36971 1.36294 1.36383 1.36209 1.36048 1.36942 1.35773 1.36861 1.37108 1.38075 1.37646 1.36264 1.36079 1.35124 1.3559 1.35131 1.32985 1.33579 1.32392 1.36804 1.37805 1.19178 1.35468 1.34899 1.35498 1.3637 1.34657 1.35 1.33193 1.3445 1.35365 1.36088 1.36977 1.34136 1.33946 1.34188 1.33906 1.34014 1.36904 1.36594 1.36039 1.3664 1.36297 1.36081 1.35877 1.3575 1.3571 1.36018 1.36271 1.36999 1.37518 1.38559 1.36589 1.38708 1.35455 1.34888 1.35148 1.3578 1.33349 1.32002 1.36031 1.30346 1.2798 1.36088 1.38038 1.36737 1.19178 1.35104 1.34427 1.36206 1.3705 1.39016 1.35976 1.34851 1.34334 1.32877 1.32285 1.32629 1.29936 1.343 1.35042 1.31498 1.34417 1.33391 1.35353 1.39176 1.30186 1.33082 1.35697 1.35226 1.34861 1.35243 1.34597 1.3561 1.35791 1.35681 1.36567 1.35535 1.36139 1.37046 1.39797 1.3611 1.37228 1.38018 1.34551 1.28102 1.33748 1.43904 1.32732 1.6388 0.913693 1.30583 1.30459 1.30941 1.30046 1.39714 1.40178 1.49518 1.38163 1.32985 1.27345 1.29319 1.26263 1.34894 1.32995 1.35057 1.36025 1.32183 1.34566 1.33446 1.33443 1.34259 1.3455 1.35021 1.35187 1.34724 1.35468 1.34932 1.36122 1.35138 1.3449 1.3594 1.34238 1.33391 1.34388 1.29312 1.3417 1.33105 1.36141 1.37835 1.33015 1.36099 1.15946 1.46653 1.10762 1.59774 1.35254 1.3674 1.19178 1.35042 1.42622 1.29157 1.45085 0.960753 1.40957 1.39764 1.27877 1.56981 1.22154 1.18984 1.28016 1.3002 1.34964 1.34208 1.33482 1.31287 1.33239 1.34228 1.33968 1.34401 1.36522 1.35107 1.33367 1.34424 1.33563 1.35163 1.3499 1.35422 1.34892 1.32961 1.32745 1.27919 1.31818 1.30798 1.29499 1.30086 1.31882 1.30126 1.3232 1.3408 1.34259 1.27619 1.15431 1.27851 1.29447 1.3359 1.37211 1.41782 1.34231 1.3931 1.36081 0.714506 1.21843 1.51343 1.54749 1.03813 1.32826 1.42823 1.33725 1.41278 1.14598 1.3058 1.32545 1.33427 1.35427 1.34369 1.35014 1.35508 1.37033 1.34354 1.32515 1.31769 1.30925 1.34546 1.33125 1.35859 1.36845 1.35741 1.30171 1.32375 1.32552 1.27842 1.29738 1.31199 1.31297 1.3181 1.29706 1.29853 1.35396 1.31812 1.35014 1.32946 1.40809 1.31577 1.33368 1.33897 1.28956 1.36844 1.55374 1.57288 1.06305 1.51051 1.63929 1.3265 1.19649 1.26531 1.27203 1.31703 1.35784 1.32291 1.34015 1.36327 1.33537 1.34816 1.33185 1.3475 1.32653 1.30994 1.30824 1.3049 1.32635 1.28835 1.31614 1.2671 1.30884 1.32165 1.28644 1.29592 1.25311 1.26435 1.27678 1.31402 1.30277 1.3088 1.32025 1.45288 1.35084 1.28346 1.50396 1.4118 1.36721 1.28662 1.17879 1.33695 1.16866 1.00527 1.3614 1.3904 1.38407 1.54383 1.66186 1.5495 0.991312 1.55838 1.05538 1.13233 1.26954 1.24445 1.30762 1.30911 1.36882 1.313 1.31499 1.28891 1.31284 1.30946 1.33702 1.25438 1.26026 1.27547 1.29377 1.25922 1.29867 1.2761 1.31351 1.32045 1.32245 1.36409 1.35432 1.29374 1.56036 1.48693 1.34552 1.36908 1.327 1.37234 0.881393 1.37914 2.29861 1.70129 1.11707 1.7236 1.45809 1.76152 1.24614 1.1038 1.21593 1.3326 1.0984 1.12742 1.15539 1.28074 1.46683 1.37084 1.21919 1.2981 1.2749 1.29245 1.29829 1.34702 1.28082 1.2787 1.32649 1.2653 1.23523 1.26154 1.2773 1.26617 1.28533 1.26939 1.32876 1.32179 1.32017 1.32984 1.41904 1.4367 1.39009 1.16394 1.22653 1.34518 1.31329 1.37195 1.19902 1.47213 1.64929 1.41735 1.95683 1.58712 1.19178 1.74774 1.01367 1.24317 2.17199 2.04311 1.06746 0.969304 1.64267 1.74279 1.77502 1.49564 1.40043 1.44152 1.21956 1.1851 1.34953 0.910085 1.14124 1.18041 1.5295 1.3021 1.07226 1.24042 1.27158 1.28479 1.27081 1.32159 1.29943 1.23136 1.30303 1.49616 1.26644 1.20631 1.28544 1.23918 1.26127 1.23922 1.34599 1.21623 1.01836 1.15263 1.20285 1.40724 1.22368 1.19076 1.18723 1.37782 1.39486 1.34863 1.17575 0.780718 1.71351 1.49721 1.53196 4.85611 1.50026 1.23774 1.14226 0.979453 0.947978 1.08533 0.951746 0.814187 0.776452 1.2055 0.989204 1.59625 1.51517 1.03265 1.48928 1.11982 1.07317 1.45434 1.23822 1.14297 1.12802 1.20172 1.05939 1.10041 1.20508 1.21495 1.30826 1.14148 1.24013 1.22015 1.31832 0.70516 1.20556 1.31751 1.19178 1.28507 1.18667 1.04478 1.12794 1.08437 1.23619 1.15303 1.16725 1.27593 1.22568 0.992104 1.25395 1.52026 1.71033 0.849032 1.95211 0.988921 1.93592 0.963491 1.24473 0.924751 0.996994 1.10047 1.0206 0.975885 0.924919 0.910845 0.928568 0.947765 0.977109 0.858112 0.843347 0.958311 0.981959 1.16036 0.998692 1.47977 0.80584 1.75759 0.941198 1.05271 1.16451 1.08029 0.880626 1.50215 1.32786 1.14955 1.08118 1.15048 1.13347 1.16092 1.14314 1.11287 1.16778 1.05003 1.20344 1.09618 1.00797 1.10749 0.995694 0.962412 1.57289 1.22491 0.948939 1.28044 1.13519 1.00587 1.21743 1.16558 1.25254 1.23244 1.11303 0.987008 1.12239 1.08256 1.17151 1.13445 1.10438 1.14072 1.04096 1.17705 1.14284 1.16114 1.84768 1.19503 0.676238 0.780705 0.979235 1.30008 0.932282 1.12474 1.17421 1.24732 1.21806 1.1513 0.835841 1.33255 0.904423 0.933133 0.938538 0.90912 0.865287 0.874837 0.713757 0.754157 0.673333 0.713816 0.869278 0.743131 0.802278 0.823382 0.849321 0.844413 0.861112 0.956558 0.987673 0.943334 0.912633 0.975701 1.08418 0.890463 0.818172 0.786527 0.801256 0.811108 0.848895 1.14918 1.12186 1.19334 0.989639 1.15591 1.09005 1.10443 1.13427 1.19684 1.00069 1.08451 1.14545 1.02813 1.07611 1.06278 1.2258 1.02221 0.955261 1.13173 1.30397 0.991838 1.07873 1.56116 0.988657 1.24064 1.07704 1.14385 1.19713 0.996957 1.01009 1.09724 1.26727 1.01182 1.15293 1.12499 1.41542 1.15141 1.17311 1.49915 1.05726 1.15383 0.951086 1.02286 1.15543 1.00332 0.978579 1.00304 0.699762 0.755045 0.662271 0.944313 0.621716 0.8172 0.930108 0.832641 0.855666 0.869204 0.822632 0.837801 0.787233 0.824046 0.786636 0.774239 0.711882 0.677575 0.640831 0.692629 0.623456 0.677828 0.636014 0.656069 0.724228 0.801184 0.68833 0.755039 0.696504 0.777469 0.819227 0.878928 0.781407 0.789564 0.883986 0.898057 0.877202 0.827162 0.91983 0.808059 0.781261 0.943753 1.01824 0.955725 1.00401 1.08075 1.06472 1.13891 1.11905 1.02303 1.09605 1.03881 1.00956 1.14749 1.08193 1.0339 1.02093 0.99946 1.0919 1.05725 0.93768 0.990732 1.15171 1.03763 0.922001 1.10754 1.08571 0.960658 0.961974 1.00573 1.18814 1.32071 0.869954 1.16313 0.802578 1.16471 0.920952 0.864332 0.871771 0.998062 1.11266 1.08835 0.974563 0.985311 0.959153 0.953056 0.983958 0.988672 0.996527 1.00027 1.01382 1.01677 0.995973 0.837476 0.955353 0.961434 0.704832 0.836117 0.713947 0.673206 0.6825 0.735353 0.773059 0.719303 0.734852 0.750602 0.800228 0.794043 0.761975 0.7555 0.767494 0.752298 0.881756 0.788945 0.889926 0.641737 0.696211 0.577977 0.549071 0.584996 0.6005 0.726419 0.744333 0.753281 0.769835 0.794049 0.866308 0.74083 0.800924 0.8141 0.742254 0.705151 0.745487 0.815567 0.8041 0.782065 0.736985 0.788472 0.741455 0.798093 0.845965 0.884887 0.857802 0.929481 0.811126 1.02672 0.961811 0.971099 0.972024 0.938043 1.09508 0.938287 0.947316 1.01704 1.03703 1.00629 0.9073 1.01163 0.98593 0.925787 1.07085 0.978159 0.960439 0.97146 0.955928 0.998261 1.05342 1.08456 1.13582 0.645433 0.792082 0.651944 1.1077 1.23016 1.05335 0.756986 0.877656 0.941816 0.799456 0.839411 1.16765 0.835881 0.985646 1.02474 0.95533 0.961198 0.951186 1.03668 0.92343 0.83451 0.837719 0.932866 0.727757 0.86875 0.712236 0.713459 0.73927 0.734484 0.688816 0.712122 0.733855 0.702471 0.776058 0.745794 0.734274 0.758491 0.749597 0.769562 0.742662 0.744975 0.750247 0.735664 0.747599 0.743684 0.740737 0.350643 0.133941 0.222891 0.0297934 1.32061 0.558687 0.922585 0.545525 0.537407 0.543282 0.543096 0.534097 0.63378 0.633601 0.696838 0.649198 0.743036 0.745422 0.764143 0.614048 0.710483 0.714894 0.824941 0.974485 0.841963 0.927285 0.800133 0.820575 0.781756 0.79614 0.772469 0.794973 0.856091 0.811722 0.830818 0.870827 0.914545 0.668826 0.632115 0.806363 0.785266 1.07256 1.01905 0.94084 0.957707 0.859212 0.956057 1.01589 1.03102 1.01983 0.979181 0.913828 0.886047 0.903691 0.888981 1.00784 0.973716 0.987179 1.00633 0.991514 0.941024 0.844262 1.15682 0.916954 0.825136 0.973625 0.84775 0.824101 0.748087 0.808719 1.01643 0.93456 0.972017 0.949105 0.944021 0.949453 0.817389 0.881854 0.838917 0.831642 0.725194 0.736291 0.728913 0.708758 0.714941 0.679717 0.807942 0.725276 0.74304 0.755269 0.723674 0.762866 0.785944 0.73803 0.716326 0.737517 0.788188 0.713132 0.728 0.723827 0.73225 0.728293 0.722786 0.521635 0.511306 0.42456 0.492373 0.535094 0.707957 0.961044 0.739201 0.770413 0.689035 0.583525 0.657193 0.640146 0.630624 0.628465 0.67034 0.653199 0.697586 0.641808 0.757884 0.844538 0.810722 0.745816 0.750034 0.782177 0.806197 0.832622 0.782288 0.784878 0.780379 0.774613 0.774328 0.782771 0.768698 0.776399 0.75413 0.738901 0.740829 0.80735 0.695999 1.0444 0.923176 0.984462 0.889121 0.962411 1.05687 1.0739 0.817991 0.858682 1.0483 0.805923 1.09282 0.943427 0.931235 0.938891 0.958478 0.928899 0.920351 0.87489 0.832527 0.88051 0.850919 0.930839 0.859009 0.925479 0.869135 0.840727 0.78713 0.804831 0.811044 0.757241 0.839696 0.845172 0.902293 0.903285 0.879092 0.891307 0.851238 0.858726 0.836167 0.871525 0.866953 0.797956 0.759182 0.81668 0.823902 0.75308 0.692968 0.705328 0.708691 0.714269 0.70405 0.699147 0.681734 0.77613 0.701515 0.707346 0.713579 0.703161 0.712434 0.686687 0.707348 0.698387 0.735249 0.743437 0.73268 0.562329 0.575353 0.561357 0.580422 0.573064 0.656152 0.651525 0.737947 0.641424 0.790381 0.610643 0.712126 0.67134 0.74258 0.62248 0.637973 0.572148 0.728748 0.662693 0.640218 0.892031 0.661382 0.732766 0.718241 0.715087 0.757324 0.822044 0.78751 0.787885 0.763784 0.760986 0.746886 0.747234 0.737362 0.741575 0.749664 0.739019 0.748223 0.770244 0.729787 0.794555 0.699127 0.986616 1.00122 1.06797 0.808755 0.458165 1.068 1.20447 0.951418 0.731133 0.751169 0.784913 1.03839 0.814326 0.813424 0.914549 0.889344 0.89709 0.893193 0.88235 0.786447 0.764396 0.842773 0.785117 0.877515 0.840255 0.861834 0.766174 0.805878 0.772452 0.783752 0.681755 0.678758 0.835531 0.891754 0.772604 0.843108 0.745418 0.804865 0.776753 0.783786 0.858318 0.759952 0.742316 0.772637 0.798261 0.780552 0.637884 0.730206 0.742347 0.717333 0.693874 0.734007 0.681847 0.685009 0.717312 0.668801 0.648117 0.612678 0.681858 0.665303 0.705499 0.700733 0.670847 0.690058 0.680326 0.672683 0.670803 0.675602 0.682638 0.675824 0.668993 0.761373 0.715731 0.738267 0.805949 0.770868 0.591339 0.592096 0.587901 0.590207 0.597565 0.591829 0.590536 0.606386 0.620517 0.643428 0.609394 0.628695 0.663574 0.609536 0.574558 0.784507 0.64861 0.723895 0.713087 0.690843 0.701279 0.686031 0.644824 0.617197 0.654823 0.670167 0.691235 0.709894 0.711637 0.735991 0.767383 0.795037 0.762763 0.754796 0.743346 0.753877 0.763901 0.760591 0.745746 0.717251 0.729213 0.705524 0.742236 0.780172 0.809596 0.815751 0.689876 0.756051 0.760483 0.876566 0.629395 0.840229 1.26175 0.77899 1.08938 0.879501 0.830907 0.717544 0.734196 0.573201 0.754887 0.789522 0.787011 0.806545 0.821436 0.885871 0.781393 0.872003 0.800534 0.796886 0.791495 0.713293 0.739145 0.64051 0.75107 0.715671 0.762542 0.857309 0.763086 0.838452 0.860831 0.838572 0.899594 0.81239 0.880775 0.743233 0.843718 0.803031 0.733167 0.756705 0.756022 0.736737 0.740479 0.717636 0.750078 0.699727 0.673011 0.663302 0.723772 0.696222 0.686472 0.702563 0.695606 0.719728 0.624827 0.76514 0.794891 0.617617 0.668094 0.625453 0.641081 0.657054 0.664479 0.623406 0.664471 0.636485 0.649268 0.636262 0.651783 0.641253 0.614721 0.716073 0.620612 0.747525 0.674378 0.515474 0.574537 0.599538 0.608784 0.578901 0.578816 0.586185 0.604558 0.566224 0.58989 0.612392 0.600544 0.606251 0.593638 0.601036 0.616012 0.567869 0.616793 0.621904 0.510155 0.507454 0.687294 0.739715 0.738251 0.716311 0.72538 0.691433 0.712169 0.69663 0.676995 0.711321 0.690112 0.677024 0.753002 0.78918 0.728286 0.733938 0.749765 0.758937 0.731458 0.744625 0.730863 0.800845 0.777802 0.804151 0.757987 0.564492 0.718004 0.722031 0.65556 0.7202 0.915993 0.93851 1.02041 0.690673 0.776249 0.722261 0.693443 0.786416 0.79921 0.809441 0.798396 0.73461 0.857329 0.791108 0.871494 0.699316 0.641703 0.668491 0.711781 0.718236 0.750456 0.744033 0.743822 0.798546 0.785404 0.8158 0.853171 0.807465 0.853779 0.75951 0.760342 0.716953 0.697041 0.732073 0.705402 0.663272 0.673569 0.672311 0.685487 0.653243 0.660997 0.66921 0.674996 0.69539 0.686958 0.690046 0.667276 0.67371 0.623669 0.762715 0.662073 0.664397 0.576103 0.546483 0.612221 0.589256 0.61233 0.551357 0.569173 0.58748 0.604973 0.714521 0.554048 0.608138 0.533621 0.607652 0.5757 0.567185 0.532817 0.575072 0.545743 0.58292 0.564705 0.561452 0.587394 0.57105 0.581072 0.566664 0.57306 0.56774 0.578824 0.595837 0.52733 0.519559 0.449085 0.621755 0.639775 0.63371 0.625509 0.615298 0.609159 0.59414 0.584914 0.595172 0.654312 0.60024 0.748865 0.82932 0.730378 0.760059 0.722913 0.659155 0.716381 0.733862 0.730044 0.682489 0.66585 0.6803 0.682784 0.647355 0.653985 0.589884 0.711184 0.716279 0.689311 0.680197 0.703261 0.741498 0.666898 0.726966 0.716369 0.748122 0.703024 0.709142 0.644182 0.678569 0.785964 0.816791 0.651445 0.835084 0.729194 0.654705 0.684869 0.722773 0.765168 0.753193 0.799176 1.03152 0.963747 0.873945 0.863061 0.685198 0.698218 0.593696 0.616958 0.64189 0.669392 0.706201 0.694654 0.739079 0.789287 0.717353 0.770345 0.763413 0.805647 0.839484 0.891531 0.683174 0.719246 0.69565 0.719644 0.716725 0.723798 0.724937 0.729559 0.811295 0.806765 0.838499 0.764536 0.756577 0.76903 0.768766 0.769516 0.766707 0.723363 0.699035 0.704377 0.693921 0.712646 0.658954 0.641749 0.674826 0.661199 0.680895 0.685037 0.674728 0.662882 0.67894 0.657282 0.638393 0.618459 0.675165 0.611468 0.593571 0.610683 0.593724 0.605733 0.589719 0.579746 0.603444 0.582287 0.665518 0.636268 0.620977 0.613385 0.5788 0.596798 0.566629 0.582638 0.586001 0.562549 0.570695 0.5656 0.550923 0.550055 0.537682 0.52517 0.551675 0.558334 0.568515 0.560808 0.570226 0.56332 0.563696 0.448084 0.55936 0.7123 0.651755 0.579784 0.617234 0.602879 0.45152 0.577966 0.667419 0.696537 0.731344 0.73544 0.66953 0.745011 0.744212 0.740755 0.502523 0.607016 0.533226 0.626487 0.660593 0.662839 0.717391 0.71627 0.486542 0.754105 0.655038 0.595882 0.690001 0.818671 0.799472 0.789034 0.633016 0.656254 0.660702 0.71152 0.714422 0.668539 0.845264 0.833329 0.521261 0.704546 0.738527 0.632631 0.672667 0.81938 0.801267 0.818341 0.646186 0.60189 0.61871 0.671125 0.665256 0.699628 0.704643 0.696693 0.680964 0.723013 0.943677 0.809337 0.615822 0.703504 0.598359 0.666092 0.640194 0.686238 0.702817 0.666206 0.70503 0.69807 0.84216 0.655448 0.73612 0.767965 0.729204 0.691189 0.691474 0.726888 0.627355 0.651073 0.667643 0.657401 0.661152 0.667829 0.656159 0.651607 0.667208 0.628255 0.617781 0.618733 0.598661 0.627005 0.592052 0.606601 0.603721 0.591308 0.555897 0.595607 0.597252 0.587746 0.610557 0.595922 0.595055 0.586844 0.58562 0.575992 0.5688 0.558385 0.566881 0.559159 0.558414 0.548504 0.534332 0.539843 0.529953 0.535293 0.52767 0.519818 0.518441 0.517855 0.526286 0.516487 0.536285 0.534864 0.548865 0.536585 0.543633 0.536164 0.543244 0.518567 0.528109 0.461128 0.51247 0.579722 0.629069 0.556136 0.599108 0.643089 0.609303 0.679994 1.09179 0.996054 0.421915 0.773513 0.801253 0.468432 0.783171 0.500122 0.482353 0.59695 0.632044 0.611547 0.64715 0.630746 0.677116 0.542783 0.584315 0.538071 0.550286 0.65764 0.645668 0.610759 0.83955 0.611829 0.658387 0.728745 0.635263 0.599907 0.569769 0.642105 0.61618 0.68698 0.676675 0.762837 0.596972 0.788187 0.718376 0.767371 0.638147 0.700064 0.610792 0.662602 0.788898 0.734523 0.743886 0.683492 0.737361 0.648509 0.525567 0.619344 0.723938 0.717637 0.678218 0.785012 0.728625 0.721106 0.69462 0.964469 0.508551 0.773622 0.699429 0.632065 0.64326 0.61961 0.696381 0.679038 0.653352 0.555282 0.591843 0.610645 0.794404 0.799629 0.732126 0.753826 0.677275 0.74158 0.703373 0.696142 0.696919 0.640755 0.645364 0.624012 0.642866 0.640052 0.654317 0.669273 0.672896 0.662394 0.701775 0.659689 0.670187 0.648783 0.651699 0.615341 0.609955 0.61691 0.594777 0.596492 0.593063 0.599607 0.591886 0.595837 0.587501 0.590338 0.591517 0.583686 0.582198 0.574531 0.564232 0.558427 0.56149 0.554536 0.557937 0.561832 0.570833 0.543555 0.52602 0.523072 0.520885 0.520249 0.515267 0.515117 0.513588 0.506574 0.507514 0.494048 0.499156 0.505812 0.514457 0.51243 0.520288 0.522613 0.529531 0.527901 0.526924 0.519091 0.533714 0.550326 0.531424 0.621381 0.608063 0.584157 0.546606 0.41771 0.541207 0.312166 0.439099 0.501551 0.424265 0.523965 0.507852 0.520668 0.494746 0.518234 0.626267 0.620883 0.586711 0.621424 0.589841 0.597338 0.605302 0.58931 0.63018 0.608063 0.596495 0.626417 0.661737 0.567178 0.573037 0.551005 0.557899 0.502992 0.688655 0.528418 0.806176 0.343113 0.798242 1.14549 0.209448 0.927988 0.753448 0.653089 0.752183 0.678438 0.643549 0.588018 0.593681 0.572252 0.338015 0.71856 0.702836 0.718592 0.712278 0.705403 0.67352 0.660205 0.495066 0.59848 0.592709 0.656402 0.633482 0.620847 0.607748 0.612966 0.602497 0.628509 0.68776 0.652222 0.565077 0.615432 0.668657 0.645452 0.743346 0.725371 0.764349 0.750269 0.650755 0.658353 0.643473 0.633761 0.67063 0.67044 0.687938 0.703397 0.654147 0.671048 0.661297 0.691545 0.608723 0.612042 0.543206 0.588911 0.614299 0.596959 0.58338 0.59095 0.584493 0.594671 0.565797 0.593084 0.580141 0.574458 0.584113 0.573401 0.56599 0.557292 0.557957 0.544229 0.551838 0.520804 0.568431 0.521488 0.520885 0.528149 0.519578 0.520125 0.504657 0.52215 0.506134 0.506392 0.510319 0.495226 0.498683 0.452608 0.494338 0.512235 0.531042 0.510358 0.510385 0.509141 0.509516 0.503758 0.513382 0.519972 0.516361 0.521085 0.522092 0.511069 0.514013 0.493286 0.51367 0.481115 0.470662 0.548436 0.611266 0.539474 0.556632 0.492714 0.544812 0.536333 0.544829 0.559439 0.532633 0.538174 0.584289 0.552482 0.648815 0.668941 0.623874 0.600121 0.591882 0.598707 0.565761 0.572846 0.549632 0.51648 0.527324 0.572773 0.662341 0.651329 0.621605 0.613783 0.546397 0.553401 0.533001 0.548586 0.494118 0.537086 0.409859 0.574928 0.521163 0.703223 0.826694 0.603186 0.682209 0.639488 0.744261 0.613876 0.535522 0.559537 0.545766 0.527632 0.703556 0.678673 0.698145 0.701269 0.68747 0.694171 0.698388 0.661148 0.627783 0.643053 0.56678 0.589603 0.608173 0.580817 0.583597 0.601322 0.605178 0.648351 0.589541 0.557123 0.56685 0.56286 0.556384 0.5922 0.524342 0.747188 0.489384 0.785995 0.649653 0.661375 0.651201 0.584448 0.625539 0.605787 0.625463 0.628994 0.626364 0.62451 0.649416 0.609692 0.585181 0.601912 0.610589 0.594126 0.581765 0.573685 0.535192 0.552512 0.562961 0.54555 0.562596 0.558295 0.568084 0.559114 0.542752 0.545931 0.536101 0.530121 0.544134 0.531209 0.526473 0.515094 0.515715 0.530161 0.538562 0.537889 0.536639 0.531704 0.525711 0.503201 0.508222 0.48927 0.499044 0.481029 0.478997 0.460923 0.431347 0.47503 0.425543 0.40919 0.539289 0.388597 0.555234 0.521228 0.505897 0.480528 0.500189 0.452244 0.465827 0.494561 0.492411 0.511027 0.496407 0.50714 0.501169 0.507809 0.51267 0.534782 0.530142 0.520817 0.507671 0.532262 0.456398 0.474796 0.42468 0.59298 0.528607 0.606514 0.670542 0.612895 0.524822 0.571549 0.542144 0.533837 0.538007 0.581995 0.580849 0.500886 0.531485 0.524154 0.528429 0.50047 0.498409 0.486516 0.431662 0.537877 0.529004 0.576716 0.730429 0.668187 0.722288 0.678885 0.674029 0.661273 0.684213 0.644672 0.582896 0.559283 0.581157 0.57014 0.555496 0.59569 0.664964 0.650804 0.675277 0.672639 0.651171 0.676534 0.656934 0.603001 0.572677 0.578478 0.575084 0.584673 0.590697 0.61308 0.592107 0.595492 0.587647 0.574471 0.554077 0.561341 0.544917 0.558137 0.572066 0.564191 0.545331 0.513921 0.462638 0.504528 0.486676 0.490535 0.585497 0.592476 0.511013 0.539421 0.732875 0.630291 0.598904 0.585939 0.616107 0.632442 0.565384 0.519489 0.526835 0.481891 0.554014 0.567367 0.564851 0.581029 0.533344 0.53409 0.561897 0.560467 0.612157 0.548101 0.559288 0.515038 0.526547 0.543252 0.525698 0.524998 0.531181 0.509751 0.513715 0.490682 0.483632 0.475179 0.476659 0.448894 0.444113 0.445021 0.390836 0.406803 0.389317 0.401879 0.426626 0.373907 0.401485 0.332316 0.313259 0.449597 0.436187 0.44467 0.44068 0.478374 0.479509 0.462909 0.485524 0.482533 0.489295 0.490581 0.484946 0.501129 0.509405 0.496785 0.531 0.506881 0.497999 0.519663 0.475871 0.516041 0.537013 0.527685 0.492988 0.433457 0.45222 0.454109 0.511063 0.551777 0.51913 0.51639 0.514496 0.512949 0.508136 0.502974 0.502705 0.503798 0.516045 0.509414 0.511101 0.5007 0.510782 0.509958 0.494814 0.49091 0.485771 0.491192 0.490105 0.573329 0.568763 0.677261 0.64052 0.629506 0.676085 0.651149 0.651777 0.632563 0.621279 0.61519 0.600058 0.586264 0.574735 0.587346 0.569454 0.613878 0.626954 0.655082 0.652296 0.711474 0.602918 0.568102 0.58482 0.58801 0.591758 0.590162 0.584139 0.563708 0.565826 0.558981 0.574262 0.550663 0.541992 0.512517 0.534976 0.493489 0.522286 0.499544 0.507172 0.499623 0.476409 0.466365 0.46825 0.517905 0.527421 0.564453 0.618586 0.719929 0.887254 0.531863 0.561936 0.541755 0.567278 0.538521 0.535346 0.603181 0.523966 0.522008 0.513023 0.547919 0.584883 0.460079 0.455341 0.492178 0.519066 0.501401 0.534622 0.52784 0.500365 0.513573 0.499936 0.524024 0.500975 0.501336 0.485431 0.47644 0.475156 0.431866 0.436763 0.427004 0.419243 0.372258 0.380167 0.38299 0.373406 0.350295 0.349267 0.330878 0.44888 0.439144 0.441061 0.435704 0.442392 0.428627 0.490445 0.48678 0.476881 0.481239 0.481718 0.494614 0.502625 0.486043 0.491199 0.475056 0.481511 0.479528 0.484615 0.483962 0.491689 0.502709 0.519263 0.544105 0.5157 0.511955 0.503822 0.502147 0.507022 0.504028 0.503515 0.502247 0.50029 0.498331 0.505172 0.498232 0.504783 0.517259 0.523749 0.591983 0.603748 0.626288 0.604894 0.640992 0.615865 0.6393 0.641069 0.63089 0.608192 0.585342 0.600181 0.550223 0.517283 0.553179 0.57977 0.583238 0.559855 0.625535 0.577825 0.640576 0.788811 0.626352 0.692921 0.569281 0.554123 0.586098 0.596489 0.616097 0.59821 0.596209 0.596346 0.583553 0.601917 0.566069 0.559944 0.56061 0.566556 0.558837 0.564451 0.564155 0.56453 0.552274 0.542289 0.514209 0.533823 0.512243 0.519184 0.505325 0.505514 0.50076 0.472509 0.491408 0.479271 0.465471 0.46887 0.475088 0.457967 0.545922 0.289669 0.472298 0.525599 0.495526 0.496385 0.463388 0.517636 0.542655 0.527552 0.54402 0.460778 0.501647 0.443819 0.545367 0.440395 0.43984 0.482168 0.498507 0.505534 0.491091 0.485158 0.48403 0.46688 0.473196 0.49019 0.465227 0.415392 0.468055 0.425384 0.417957 0.411181 0.408544 0.399561 0.39399 0.354378 0.355751 0.35766 0.347942 0.354211 0.346247 0.344818 0.346277 0.356334 0.355926 0.339318 0.365136 0.338722 0.37497 0.419013 0.407994 0.424267 0.46678 0.453838 0.462959 0.45675 0.471796 0.475493 0.466506 0.484144 0.477295 0.485931 0.478406 0.483017 0.483294 0.478942 0.476116 0.476407 0.481409 0.489648 0.494759 0.507425 0.509646 0.511863 0.506606 0.503402 0.503656 0.50385 0.504574 0.503778 0.513553 0.509583 0.512463 0.526417 0.530071 0.573489 0.656966 0.577131 0.56063 0.60675 0.560428 0.69759 0.657004 0.633907 0.651985 0.597513 0.579417 0.556303 0.517607 0.495383 0.545926 0.557976 0.568486 0.577135 0.580047 0.679507 0.91451 0.55835 0.574958 0.590461 0.5982 0.599496 0.620177 0.650037 0.604017 0.601603 0.596772 0.558403 0.563225 0.558894 0.565221 0.566598 0.55695 0.566327 0.548383 0.561867 0.536236 0.546372 0.526249 0.524528 0.515001 0.500339 0.492139 0.477407 0.493295 0.476126 0.488359 0.525911 0.519083 0.398694 0.429494 0.482686 0.457898 0.473736 0.481858 0.47231 0.4626 0.487793 0.481352 0.514807 0.519784 0.462393 0.454805 0.339413 0.452861 0.4079 0.365684 0.474467 0.385046 0.444652 0.462879 0.45728 0.447261 0.445983 0.433169 0.405474 0.417164 0.403904 0.396819 0.401074 0.386753 0.382594 0.373276 0.375776 0.364771 0.349224 0.349488 0.368367 0.350934 0.356366 0.347187 0.359323 0.347415 0.356112 0.364236 0.350516 0.338473 0.336889 0.351711 0.361426 0.349855 0.400859 0.416952 0.445376 0.436202 0.453428 0.463444 0.467698 0.469232 0.473005 0.475246 0.476397 0.477253 0.478059 0.478084 0.481101 0.486305 0.486827 0.490661 0.492873 0.500886 0.505921 0.509298 0.508694 0.510123 0.505922 0.509823 0.505077 0.505591 0.509898 0.506026 0.509821 0.51201 0.513353 0.526607 0.520602 0.529803 0.539813 0.553066 0.666998 0.635375 0.467339 0.536469 0.539825 0.587143 0.616628 0.752258 0.622606 0.568094 0.509239 0.529899 0.528665 0.551822 0.564898 0.582481 0.60171 0.355289 0.451863 0.554647 0.665096 0.650841 0.670271 0.606277 0.583685 0.560911 0.535797 0.556976 0.56123 0.566671 0.570109 0.572458 0.569636 0.567412 0.558979 0.558455 0.538953 0.553285 0.529688 0.527089 0.516784 0.510319 0.520206 0.508566 0.487577 0.499912 0.487624 0.507432 0.500493 0.506539 0.527231 0.501677 0.492557 0.486947 0.473006 0.47478 0.47578 0.472842 0.477431 0.474248 0.472858 0.436982 0.452507 0.471672 0.416201 0.403685 0.384234 0.405738 0.391871 0.400167 0.438206 0.403136 0.445568 0.445983 0.444157 0.442433 0.435281 0.436966 0.421423 0.410261 0.39709 0.392922 0.388568 0.384066 0.379801 0.370781 0.361649 0.351322 0.341191 0.315849 0.452685 0.416085 0.412856 0.353487 0.316415 0.338952 0.359453 0.346238 0.359315 0.362057 0.347797 0.352239 0.36322 0.369996 0.365186 0.353748 0.358534 0.339354 0.314978 0.342106 0.388832 0.428229 0.420682 0.466132 0.463386 0.480033 0.471391 0.476481 0.472695 0.48343 0.475552 0.475172 0.473365 0.474721 0.476739 0.479977 0.480043 0.485082 0.483047 0.489435 0.492599 0.499642 0.504689 0.508592 0.51125 0.511354 0.513641 0.516986 0.517571 0.524446 0.523634 0.536941 0.539977 0.573588 0.560199 0.611132 0.473832 0.534348 0.548199 0.566441 0.620941 0.663082 0.704358 0.584243 0.510147 0.52525 0.549199 0.545976 0.55237 0.557676 0.574042 0.547532 0.445625 0.470814 0.442651 0.418541 0.345789 0.710336 0.629001 0.608873 0.570089 0.518214 0.586297 0.54402 0.544421 0.56009 0.567263 0.572836 0.576529 0.573189 0.569626 0.56653 0.571654 0.56525 0.561411 0.546729 0.55474 0.531978 0.51042 0.517861 0.507389 0.512153 0.50909 0.515598 0.503286 0.496212 0.496118 0.502568 0.494452 0.500676 0.489971 0.496289 0.483044 0.488174 0.471367 0.496598 0.489225 0.499367 0.46963 0.466487 0.482393 0.451676 0.410896 0.441926 0.41312 0.425716 0.440527 0.450821 0.44042 0.434536 0.418396 0.420592 0.436812 0.410187 0.404698 0.401546 0.395868 0.380467 0.384778 0.375096 0.373384 0.366244 0.357459 0.362891 0.354134 0.353217 0.299698 0.262771 0.499962 0.461944 0.424514 0.358007 0.326505 0.326185 0.332699 0.33921 0.331186 0.351566 0.359815 0.366909 0.359623 0.363938 0.336092 0.323492 0.368176 0.432231 0.464592 0.481354 0.509003 0.497214 0.494006 0.490783 0.477544 0.474831 0.475342 0.473627 0.476492 0.478694 0.479568 0.484542 0.489403 0.488849 0.501748 0.501369 0.505321 0.503328 0.507253 0.509112 0.510845 0.515191 0.516856 0.520007 0.524922 0.526977 0.534756 0.531218 0.547227 0.552343 0.583585 0.565507 0.537487 0.477293 0.504932 0.53109 0.563979 0.573118 0.593152 0.702581 0.535618 0.440006 0.520359 0.545824 0.558918 0.53491 0.555274 0.544866 0.555556 0.504663 0.536004 0.522202 0.468317 0.463705 0.458245 0.464059 0.346818 0.790667 0.531292 0.535043 0.601437 0.582673 0.570456 0.57461 0.584955 0.572755 0.575614 0.575647 0.573387 0.570008 0.552213 0.536906 0.525029 0.517556 0.510178 0.51503 0.513497 0.51696 0.511882 0.512027 0.505781 0.505058 0.515439 0.512376 0.500991 0.512603 0.494824 0.500674 0.498585 0.51294 0.478438 0.464005 0.469822 0.430177 0.444033 0.431826 0.461987 0.443557 0.443317 0.446461 0.448623 0.430314 0.41426 0.399487 0.383304 0.366598 0.36118 0.353651 0.346913 0.348635 0.352078 0.338407 0.234313 0.225325 0.504457 0.519884 0.34277 0.269891 0.290532 0.312612 0.318675 0.320438 0.310089 0.29745 0.324548 0.335427 0.328006 0.364895 0.36615 0.31667 0.372317 0.511085 0.547586 0.531085 0.536229 0.548145 0.524575 0.501563 0.480158 0.470646 0.476827 0.478551 0.486611 0.484164 0.490557 0.496746 0.497779 0.505646 0.506894 0.512375 0.517823 0.521241 0.526066 0.523025 0.524841 0.532899 0.544401 0.546602 0.545501 0.549596 0.55805 0.554978 0.55659 0.529027 0.539486 0.526025 0.550509 0.552184 0.496886 0.557565 0.678719 0.620785 0.402462 0.470054 0.572878 0.566564 0.519277 0.559656 0.521601 0.500711 0.507001 0.497424 0.473189 0.492495 0.449033 0.602648 0.51291 0.447751 0.849311 0.607098 0.595655 0.585505 0.573717 0.565147 0.54832 0.568787 0.573868 0.580859 0.578005 0.582755 0.564619 0.554417 0.545521 0.532245 0.528084 0.531853 0.532463 0.526776 0.518053 0.520627 0.520015 0.517702 0.5256 0.532616 0.523433 0.559795 0.507691 0.475254 0.494691 0.428948 0.537615 0.510789 0.503154 0.524677 0.49288 0.370175 0.391204 0.480943 0.400882 0.468435 0.452872 0.455383 0.397194 0.434885 0.401132 0.389135 0.377182 0.359866 0.381052 0.339025 0.322638 0.330237 0.294291 0.328312 0.307254 0.281077 0.205964 0.176027 0.0950664 2.51837 0.550194 0.445872 0.364114 0.417656 0.440024 0.343112 0.301404 0.302528 0.316333 0.308486 0.306352 0.28968 0.311878 0.270173 0.280642 0.271443 0.302905 0.282808 0.202156 0.215387 0.774135 0.762582 0.647376 0.574064 0.588004 0.547279 0.515611 0.484308 0.460098 0.472799 0.488264 0.494588 0.496201 0.491796 0.497878 0.502072 0.504371 0.509812 0.509418 0.513607 0.518426 0.52537 0.524245 0.533039 0.526548 0.53623 0.533293 0.542191 0.551355 0.551462 0.552804 0.554868 0.538175 0.538087 0.536731 0.545822 0.536193 0.527988 0.54126 0.556205 0.568206 0.51446 0.461413 0.493388 0.490003 0.503794 0.688715 0.589585 0.529738 0.571758 0.514381 0.521811 0.480033 0.529479 0.491301 0.537021 0.29594 0.0476032 0.53634 0.272007 0.585805 0.612573 0.596054 0.562824 0.574467 0.572845 0.558342 0.545178 0.547344 0.567705 0.571079 0.583557 0.599302 0.571434 0.564828 0.554896 0.541929 0.535762 0.54607 0.540431 0.534021 0.535442 0.528906 0.532985 0.5234 0.521154 0.519765 0.516389 0.522907 0.572178 0.510531 0.487132 0.456426 0.416129 0.43793 0.455819 0.451624 0.457589 0.491668 0.472907 0.436717 0.429247 0.418688 0.449586 0.455015 0.457644 0.431238 0.434129 0.402381 0.398648 0.401706 0.381099 0.360973 0.346679 0.355954 0.316221 0.339706 0.287269 0.268718 0.307048 0.321066 0.298755 0.287547 0.170857 0.726745 0.113671 0.443911 0.23134 0.10511 0.213825 0.283919 0.27314 0.253813 0.251261 0.271815 0.278518 0.0934919 0.0604931 0.809822 0.527951 0.607315 0.530018 0.491244 0.462743 0.433625 0.440538 0.459346 0.483089 0.498789 0.504982 0.499755 0.50045 0.503295 0.510635 0.514052 0.511086 0.521305 0.528654 0.532758 0.533903 0.536023 0.543637 0.546002 0.540231 0.550512 0.550918 0.540933 0.548784 0.534024 0.543281 0.565524 0.538568 0.527949 0.474832 0.497891 0.487816 0.488829 0.521008 0.556388 0.572738 0.580786 0.460212 0.570549 0.450721 0.352193 0.598684 0.162385 0.422459 0.481425 0.927046 0.971046 0.862282 0.445179 0.6423 0.586255 0.579566 0.560345 0.53386 0.54783 0.588518 0.54965 0.58764 0.590283 0.58532 0.568307 0.562773 0.548938 0.541338 0.547547 0.54135 0.539873 0.530046 0.524889 0.5243 0.536985 0.529389 0.515829 0.509684 0.598759 0.645167 0.592822 0.530561 0.351228 0.432425 0.406661 0.427692 0.452864 0.44808 0.440622 0.443269 0.416157 0.424568 0.399203 0.430516 0.442049 0.421257 0.410054 0.422746 0.396236 0.408139 0.385993 0.358161 0.329911 0.209089 0.168422 0.227512 0.290755 0.28558 0.31512 0.200985 0.153026 0.351397 0.428174 0.289864 0.30415 0.272585 0.276761 0.264449 0.264821 0.200661 0.231548 0.286718 0.326794 0.230662 0.26717 0.654805 0.649497 0.525271 0.474868 0.461886 0.363951 0.408366 0.464788 0.527266 0.520747 0.499101 0.505575 0.515795 0.525547 0.525143 0.524873 0.531287 0.536255 0.540393 0.539628 0.554705 0.55189 0.555678 0.546843 0.55241 0.548063 0.552626 0.528898 0.545978 0.5311 0.521197 0.494451 0.47571 0.53861 0.466496 0.434855 0.340135 0.394121 0.418938 0.587449 0.570923 0.548389 0.561461 0.373479 0.396188 0.472667 0.421582 0.431641 0.14975 0.321555 0.684537 0.503206 0.57476 0.633505 0.58258 0.586151 0.581132 0.513653 0.598361 0.594781 0.589685 0.58482 0.571061 0.563969 0.559392 0.549847 0.547921 0.546373 0.543114 0.541537 0.538116 0.514975 0.586537 0.511049 0.372432 0.371184 0.381256 0.36329 0.416859 0.435814 0.433775 0.43064 0.414212 0.386039 0.387549 0.426393 0.427718 0.431475 0.403074 0.392658 0.329557 0.150323 0.310619 0.318753 0.54305 0.373298 0.35483 0.288992 0.257616 0.283479 0.448671 0.231939 0.290806 0.271151 0.26506 0.260177 0.227746 0.144416 0.161422 0.318644 0.23372 0.22801 0.237446 0.322878 0.480661 0.280077 0.527396 0.462293 0.439985 0.445632 0.420652 0.490977 0.467156 0.477887 0.576809 0.568349 0.527813 0.518406 0.516935 0.535473 0.516618 0.525437 0.538561 0.540779 0.550704 0.555762 0.545909 0.553623 0.560119 0.556784 0.556379 0.557557 0.55237 0.551673 0.539682 0.556971 0.46938 0.523219 0.552645 0.456166 0.460387 0.451382 0.257029 0.35753 0.528823 0.644871 0.49505 0.652607 0.580007 0.562435 0.600374 0.60034 0.596452 0.584082 0.573272 0.570528 0.559501 0.557612 0.545778 0.538888 0.547906 0.531484 0.522803 0.553566 0.529394 0.380581 0.368326 0.415405 0.421185 0.423255 0.429852 0.433394 0.436172 0.43689 0.444651 0.395052 0.384562 0.377461 0.440433 0.422984 0.404478 0.431856 0.436325 0.509445 0.743746 0.650513 0.934015 0.378116 0.367566 0.316403 0.358811 0.270245 0.281754 0.24778 0.28696 0.244828 0.261001 0.18023 0.210226 0.239264 0.17052 0.20472 0.172969 0.237149 0.413677 0.36143 0.436312 0.416876 0.461937 0.447877 0.460259 0.448247 0.636498 0.519175 0.558726 0.503693 0.515729 0.45005 0.553946 0.523581 0.538307 0.555299 0.558384 0.561833 0.559789 0.556878 0.558568 0.564986 0.565269 0.569204 0.571472 0.554328 0.564383 0.547451 0.582606 0.577784 0.594428 0.601027 0.59487 0.59357 0.5856 0.579116 0.579209 0.571978 0.570177 0.558152 0.555177 0.517518 0.554719 0.526394 0.520246 0.547347 0.543427 0.531556 0.50768 0.435936 0.549413 0.468422 0.443945 0.444728 0.437534 0.36229 0.392273 0.274134 0.452095 0.429887 0.385642 0.407371 0.396074 0.408726 0.403793 0.455461 0.281416 0.459766 0.562414 0.572617 0.608219 0.431471 0.406864 0.272869 0.280421 0.277164 0.279077 0.285011 0.274887 0.165109 0.046811 0.383795 0.296831 0.255906 0.320027 0.564594 0.446021 0.572496 0.511582 0.405704 0.441343 0.457687 0.447887 0.523528 0.368089 0.44119 0.660379 0.419465 0.52459 0.545466 0.543132 0.559449 0.55224 0.557458 0.558619 0.57312 0.585658 0.583355 0.575118 0.575714 0.565189 0.559266 0.554867 0.558937 0.53577 0.54689 0.559104 0.557366 0.568113 0.545395 0.529781 0.440324 0.422746 0.456183 0.443863 0.437482 0.348635 0.329372 0.534978 0.280437 0.329649 0.066361 0.341329 0.194063 0.402631 0.323808 0.553788 0.49006 0.519294 0.517832 0.469028 0.268874 0.277945 0.280189 0.286584 0.280453 0.354941 0.396023 0.278511 0.253716 0.377922 0.410594 0.615472 0.717905 0.583299 0.450751 0.468815 0.461624 0.431624 0.467238 0.865983 0.761755 0.428191 0.38418 0.518703 0.572433 0.559812 0.570148 0.554166 0.547202 0.545662 0.543451 0.431519 0.413651 0.453871 0.435948 0.377843 0.47146 0.396187 0.468069 0.41542 0.1094 0.606721 0.626311 0.252608 0.0847346 0.196903 0.190807 0.304761 0.515594 0.428963 0.473294 0.543925 0.490753 0.271895 0.30212 0.279015 0.278925 0.283329 0.285771 0.347467 0.261539 0.223149 0.752057 0.480669 0.54033 0.445742 0.349851 0.278644 0.260816 0.298933 0.334914 0.360986 0.517743 0.472412 0.501729 0.517355 
SCALARS Stress float 1
LOOKUP_TABLE default
-44196400000.0 -71150100000.0 -25596800000.0 -74316500000.0 -70206900000.0 -74558000000.0 -82038000000.0 -127698000000.0 -119132000000.0 -145376000000.0 -190945000000.0 -339814000000.0 -107238000000.0 -73510800000.0 -48143100000.0 -124919000000.0 -71152500000.0 -144605000000.0 -158067000000.0 -114934000000.0 -44773600000.0 -116872000000.0 -47746000000.0 -116108000000.0 -321106000000.0 -440676000000.0 -272734000000.0 -97991600000.0 -290352000000.0 -102171000000.0 -345456000000.0 -485033000000.0 -125358000000.0 -120357000000.0 -138449000000.0 -200425000000.0 -224600000000.0 -245100000000.0 -284961000000.0 -378091000000.0 -102721000000.0 -49694600000.0 -47923300000.0 -154600000000.0 -68422300000.0 -26301500000.0 -59946800000.0 -268905000000.0 -199576000000.0 -466076000000.0 -201952000000.0 -780078000000.0 -749876000000.0 -468985000000.0 -212552000000.0 -702554000000.0 -475161000000.0 -288619000000.0 -425262000000.0 -792625000000.0 -334659000000.0 -507665000000.0 -55590500000.0 -356538000000.0 -447771000000.0 -334048000000.0 -127541000000.0 -275207000000.0 -64243500000.0 -128032000000.0 -37631900000.0 -65018900000.0 -418755000000.0 -109939000000.0 -945452000000.0 -635831000000.0 -266927000000.0 -689028000000.0 -674630000000.0 -259683000000.0 -747142000000.0 -888660000000.0 -896440000000.0 -59696800000.0 -839417000000.0 -318474000000.0 -600672000000.0 -959556000000.0 -485849000000.0 -113094000000.0 -477883000000.0 -264713000000.0 -115694000000.0 -486600000000.0 -769238000000.0 -501304000000.0 -32766900000.0 -120934000000.0 -36242300000.0 -93951200000.0 -26398700000.0 -62587800000.0 -654267000000.0 -238363000000.0 -1.27249e+12 -799666000000.0 -1.02088e+12 -796939000000.0 -1.06659e+12 -2.65024e+12 -655962000000.0 -926167000000.0 -553793000000.0 -874000000000.0 -1.21169e+12 -1.31574e+12 -1.64299e+12 -675506000000.0 -857587000000.0 -812897000000.0 -361677000000.0 -765494000000.0 -275236000000.0 -191514000000.0 -113301000000.0 -39986100000.0 -275808000000.0 -48536700000.0 -66642100000.0 -404245000000.0 -1.1349e+12 -1.80969e+12 -219362000000.0 -362279000000.0 -1.90485e+12 -679431000000.0 -607252000000.0 -292836000000.0 -1.18426e+12 -1.5738e+12 -1.52114e+12 -1.76572e+12 -896563000000.0 -449053000000.0 -1.39788e+12 -1.24593e+12 -704481000000.0 -600287000000.0 -717577000000.0 -796987000000.0 -46156500000.0 -430088000000.0 -282632000000.0 -242695000000.0 -510445000000.0 -208064000000.0 -249243000000.0 -186589000000.0 -176701000000.0 -62272500000.0 -48351900000.0 -219605000000.0 -151459000000.0 -852134000000.0 -398834000000.0 -553015000000.0 -3.08631e+12 -1.0369e+12 -1.03214e+12 -1.72551e+12 -1.22634e+12 -1.98455e+12 -2.32533e+12 -1.49285e+12 -2.05663e+12 -1.36204e+12 -1.27809e+12 -756348000000.0 -959578000000.0 -205329000000.0 -681113000000.0 -585997000000.0 -391107000000.0 -97939600000.0 -117980000000.0 -25327100000.0 -63483200000.0 -79599700000.0 -44183200000.0 -357911000000.0 -640480000000.0 -558718000000.0 -279729000000.0 -1.98616e+12 -1.08414e+12 -1.87199e+12 -1.41378e+12 -1.76575e+12 -2.57563e+12 -653986000000.0 -1.42844e+12 -3.73427e+12 -1.54797e+12 -2.09892e+12 -1.36583e+12 -2.11552e+12 -1.84126e+12 -1.61586e+12 -468584000000.0 -212010000000.0 -1.13069e+12 -885745000000.0 -487118000000.0 -299475000000.0 -156781000000.0 -25351700000.0 -135205000000.0 -113234000000.0 -382862000000.0 -1.0876e+12 -613555000000.0 -510327000000.0 -1.83174e+12 -2.16708e+12 -2.22587e+12 -1.32414e+12 -610988000000.0 -1.69816e+12 -2.79467e+12 -2.90071e+12 -1.58373e+12 -2.71173e+12 -2.32509e+12 -2.14938e+12 -1.82793e+12 -2.27224e+12 -1.78673e+12 -2.32076e+12 -1.63778e+12 -1.04596e+12 -157260000000.0 -855806000000.0 -138034000000.0 -53240200000.0 -314420000000.0 -507572000000.0 -1.15375e+12 -667736000000.0 -1.67961e+12 -1.30121e+12 -1.44481e+12 -1.81817e+12 -2.81034e+12 -1.78867e+12 -3.0413e+12 -2.60281e+12 -1.78243e+12 -4.56265e+12 -2.02486e+12 -1.71046e+12 -1.19039e+12 -1.88342e+12 -2.51799e+12 -2.54259e+12 -1.03123e+12 -531810000000.0 -447945000000.0 -673823000000.0 -138941000000.0 -143022000000.0 -184548000000.0 -699853000000.0 -1.63246e+12 -2.06258e+12 -1.51113e+12 -1.61753e+12 -2.18803e+12 -2.35051e+12 -2.84047e+12 -4.51788e+12 -1.63172e+12 -1.63137e+12 -2.04808e+12 -2.05556e+12 -1.78624e+12 -3.87e+12 -4.3109e+12 -2.41087e+12 -1.7237e+12 -3.56859e+12 -1.72792e+12 -2.45626e+12 -2.45552e+12 -3.11558e+12 -2.2611e+12 -755501000000.0 -953602000000.0 -875967000000.0 -133088000000.0 -265366000000.0 -629289000000.0 -628310000000.0 -1.3506e+12 -2.12622e+12 -1.19898e+12 -2.87719e+12 -4.11034e+12 -2.56455e+12 -2.87328e+12 -4.73969e+12 -3.56961e+12 -3.29586e+12 -2.6015e+12 -4.92144e+12 -1.64392e+12 -5.14919e+12 -2.35552e+12 -2.61594e+12 -1.2282e+12 -2.74833e+12 -2.23804e+12 -3.29813e+12 -1.72633e+12 -2.55086e+12 -1.52584e+12 -1.48409e+12 -2.18097e+12 -807304000000.0 -1.16876e+12 -54511900000.0 -228701000000.0 -1.92821e+12 -1.52435e+12 -565306000000.0 -2.10186e+12 -2.86684e+12 -3.86123e+12 -4.13356e+12 -3.48203e+12 -3.84596e+12 -2.30034e+12 -3.2881e+12 -3.67055e+12 -3.82604e+12 -2.86753e+12 -3.79226e+12 -4.89422e+12 -3.27009e+12 -1.58881e+12 -3.6454e+12 -927255000000.0 -3.19733e+12 -3.00195e+12 -2.09285e+12 -1.66604e+12 -1.97077e+12 -2.49866e+12 -1.48869e+12 -1.90932e+12 -332230000000.0 -335053000000.0 -446008000000.0 -1.41576e+12 -1.005e+12 -2.62365e+12 -3.12835e+12 -2.56446e+12 -2.54068e+12 -2.81867e+12 -4.37461e+12 -4.99818e+12 -2.85394e+12 -3.15392e+12 -3.02747e+12 -2.16153e+12 -3.4152e+12 -4.26057e+12 -4.50104e+12 -2.66038e+12 -2.98512e+12 -3.1718e+12 -4.25299e+12 -4.25927e+12 -1.39705e+12 -3.27366e+12 -3.16592e+12 -3.70832e+12 -2.57839e+12 -3.93306e+12 -1.92613e+12 -3.33974e+12 -295293000000.0 -1.75054e+12 -1.96004e+12 -499109000000.0 -2.85624e+12 -4.6819e+12 -4.37767e+12 -3.20032e+12 -3.31686e+12 -3.44503e+12 -5.72399e+12 -4.72876e+12 -3.39576e+12 -3.54308e+12 -3.1981e+12 -3.53583e+12 -4.39704e+12 -4.73525e+12 -2.6847e+12 -3.71452e+12 -2.5845e+12 -2.92186e+12 -3.29428e+12 -6.1437e+12 -4.89075e+12 -3.75086e+12 -3.82943e+12 -4.70216e+12 -3.39796e+12 -4.9642e+12 -4.00451e+12 -4.53296e+12 -2.11635e+12 -251022000000.0 -2.21583e+12 -2.55224e+12 -3.42092e+12 -3.70209e+12 -3.45071e+12 -3.05543e+12 -4.08911e+12 -3.57029e+12 -5.90871e+12 -3.73176e+12 -3.20584e+12 -4.77472e+12 -2.82931e+12 -3.53075e+12 -2.1588e+12 -4.54866e+12 -2.29969e+12 -3.02978e+12 -4.47465e+12 -3.38265e+12 -5.11008e+12 -6.12467e+12 -2.80452e+12 -4.84838e+12 -4.35054e+12 -6.39974e+12 -2.90447e+12 -3.46147e+12 -3.66082e+12 -4.05758e+12 -5.43381e+12 -3.19865e+12 -2.61261e+12 -3.78397e+12 -3.6829e+12 -5.22094e+12 -2.60236e+12 -6.43003e+12 -3.49075e+12 -4.90094e+12 -3.91195e+12 -6.06671e+12 -3.42688e+12 -6.00075e+12 -4.92482e+12 -4.30387e+12 -4.2214e+12 -4.5531e+12 -2.98032e+12 -5.18597e+12 -4.57502e+12 -2.52286e+12 -4.47055e+12 -7.55452e+12 -6.90186e+12 -5.59543e+12 -4.58014e+12 -3.83431e+12 -5.52132e+12 -5.03514e+12 -4.32331e+12 -6.17233e+12 -5.08212e+12 -3.4323e+12 -3.26507e+12 -4.58076e+12 -4.55568e+12 -2.21392e+12 -3.55878e+12 -4.25697e+12 -4.34748e+12 -3.14265e+12 -1.88578e+12 -12549700000.0 -5.30012e+12 -6.3298e+12 -3.79439e+12 -6.04091e+12 -7.6484e+12 -6.4884e+12 -4.80147e+12 -5.64924e+12 -3.92348e+12 -5.33706e+12 -4.44325e+12 -7.39552e+12 -5.17261e+12 -4.55567e+12 -3.47346e+12 -2.83298e+12 -5.82758e+12 -3.22409e+12 -4.82687e+12 -5.86451e+12 -4.19859e+12 -5.06281e+12 -2.92604e+12 -4.77602e+12 -5.77903e+12 -7.28706e+12 -5.49322e+12 -3.04876e+12 -8.50058e+12 -2.72617e+12 -2.46284e+12 -2.93061e+12 -5.1994e+12 -5.80335e+12 -6.77494e+12 -5.59687e+12 -3.49392e+12 -5.18145e+12 -4.25947e+12 -2.54424e+12 -4.96751e+12 -5.51036e+12 -3.60309e+12 -9.97933e+12 -7.01555e+12 -3.84228e+12 -2.68465e+12 -4.42927e+12 -8.88018e+12 -4.15984e+12 -5.11967e+12 -5.55762e+12 -5.46784e+12 -1.85915e+12 -3.52972e+12 -4.22817e+12 -5.502e+12 -7.27113e+12 -4.11646e+12 -6.41071e+12 -2.91239e+12 -3.85057e+12 -6.56368e+12 -4.80143e+12 -8.64365e+12 -6.11667e+12 -3.02795e+12 -4.86453e+12 -4.28375e+12 -1.02373e+13 -4.3312e+12 -6.82085e+12 -6.72627e+12 -4.84533e+12 -5.12326e+12 -4.18266e+12 -6.69734e+12 -5.28202e+12 -4.86097e+12 -8.3282e+12 -3.34429e+12 -4.99599e+12 -6.29021e+12 -6.26035e+12 -1.0339e+13 -5.39952e+12 -5.73153e+12 -6.50912e+12 -4.87089e+12 -7.03707e+12 -5.87039e+12 -6.56945e+12 -8.63416e+12 -6.85107e+12 -2.79301e+12 -3.27166e+12 -4.89643e+12 -5.57989e+12 -3.20652e+12 -7.5277e+12 -5.02313e+12 -7.52741e+12 -5.06821e+12 -6.11256e+12 -4.26017e+12 -4.93336e+12 -4.3898e+12 -3.76252e+12 -5.03121e+12 -6.96443e+12 -1.11297e+13 -7.22203e+12 -8.10651e+12 -8.69173e+12 -6.97742e+12 -8.24528e+12 -2.66874e+12 -1.13024e+13 -5.22198e+12 -4.57259e+12 -8.80549e+12 -4.93928e+12 -6.57241e+12 -2.81732e+12 -7.25102e+12 -12549700000.0 -5.94539e+12 -2.18008e+12 -6.2954e+12 -4.44642e+12 -5.7425e+12 -6.57358e+12 -9.78557e+12 -6.2784e+12 -7.6079e+12 -2.30213e+12 -6.46304e+12 -5.25244e+12 -6.2763e+12 -6.32693e+12 -6.44398e+12 -4.5802e+12 -7.09879e+12 -7.55233e+12 -6.24461e+12 -6.7458e+12 -6.0053e+12 -8.18643e+12 -4.86101e+12 -4.57442e+12 -5.90729e+12 -5.9614e+12 -9.80527e+12 -8.26659e+12 -6.66244e+12 -5.74712e+12 -1.07828e+13 -1.0242e+13 -7.12442e+12 -1.42753e+13 -1.12434e+13 -4.16335e+12 -12549700000.0 -4.42827e+12 -4.16828e+12 -7.26957e+12 -4.61637e+12 -5.68085e+12 -5.92562e+12 -4.98272e+12 -5.94705e+12 -4.5751e+12 -3.95253e+12 -7.18117e+12 -3.79675e+12 -6.10775e+12 -5.16824e+12 -4.33089e+12 -5.27203e+12 -2.75155e+12 -5.84342e+12 -2.56814e+12 -6.49431e+12 -4.05198e+12 -6.44092e+12 -7.25938e+12 -8.12116e+12 -1.92544e+12 -4.19595e+12 -3.582e+12 -2.68079e+12 -6.91203e+12 -4.62336e+12 -6.58858e+12 -8.03805e+12 -8.30749e+12 -5.26615e+12 -3.44141e+12 -3.87317e+12 -3.29282e+12 -2.76772e+12 -4.81804e+12 -3.20556e+12 -3.70288e+12 -5.32339e+12 -3.7964e+12 -7.6245e+12 -5.19197e+12 -7.72756e+12 -4.12922e+12 -6.3805e+12 -6.36297e+12 -6.81432e+12 -4.3452e+12 -6.07027e+12 -6.14926e+12 -7.67799e+12 -6.03439e+12 -6.70344e+12 -4.59643e+12 -5.55625e+12 -4.58062e+12 -3.63457e+12 -6.97715e+12 -8.7609e+12 -3.35599e+12 -3.87431e+12 -7.2759e+12 -5.56118e+12 -3.87389e+12 -5.19748e+12 -3.75017e+12 -3.58601e+12 -5.945e+12 -5.88775e+12 -9.02956e+12 -9.97655e+12 -5.41868e+12 -8.58734e+12 -8.84093e+12 -8.07041e+12 -2.70548e+12 -5.71867e+12 -3.34551e+12 -12549700000.0 -4.03089e+12 -5.24817e+12 -6.62573e+12 -6.3257e+12 -7.36072e+12 -9.26099e+12 -4.40626e+12 -6.49701e+12 -4.24393e+12 -6.66246e+12 -8.80139e+12 -6.4166e+12 -8.6337e+12 -4.94782e+12 -6.70991e+12 -3.4634e+12 -3.68301e+12 -8.39282e+12 -4.09317e+12 -1.02807e+13 -8.83748e+12 -5.59159e+12 -8.29288e+12 -4.23716e+12 -2.72368e+12 -4.99252e+12 -3.3791e+12 -8.33425e+12 -5.11832e+12 -6.00612e+12 -8.5526e+12 -6.61869e+12 -5.4442e+12 -8.89336e+12 -6.15656e+12 -7.91453e+12 -4.90857e+12 -4.64215e+12 -4.63447e+12 -4.16401e+12 -4.75064e+12 -5.40505e+12 -9.94847e+12 -9.51478e+12 -1.18684e+13 -6.12332e+12 -5.73509e+12 -8.89381e+12 -6.21686e+12 -6.34544e+12 -4.83331e+12 -1.23993e+13 -5.93473e+12 -4.77751e+12 -8.00243e+12 -8.16722e+12 -7.43004e+12 -9.56194e+12 -9.05757e+12 -4.58996e+12 -8.05009e+12 -7.77675e+12 -7.35384e+12 -4.78597e+12 -6.32855e+12 -6.57541e+12 -4.9994e+12 -5.22839e+12 -5.82257e+12 -4.54509e+12 -6.194e+12 -3.87905e+12 -6.4561e+12 -3.28977e+12 -4.26779e+12 -5.0419e+12 -12549700000.0 -2.84979e+12 -6.30255e+12 -4.2508e+12 -5.79353e+12 -4.9188e+12 -3.8505e+12 -4.91098e+12 -9.76264e+12 -7.62685e+12 -5.09999e+12 -9.46742e+12 -7.87137e+12 -9.09364e+12 -4.87301e+12 -5.66753e+12 -1.02569e+13 -6.37737e+12 -7.41734e+12 -5.32148e+12 -6.6761e+12 -7.9583e+12 -9.99867e+12 -5.94542e+12 -9.97614e+12 -7.00603e+12 -5.60864e+12 -6.51071e+12 -5.75504e+12 -1.18733e+13 -1.01089e+13 -5.3066e+12 -6.97953e+12 -3.9658e+12 -6.58813e+12 -6.94265e+12 -8.00271e+12 -5.7356e+12 -5.02753e+12 -4.47416e+12 -4.93303e+12 -6.48266e+12 -5.4974e+12 -12549700000.0 -12549700000.0 -3.93963e+12 -6.33765e+12 -2.47968e+12 -7.66718e+12 -7.50792e+12 -7.37879e+12 -4.37359e+12 -7.82437e+12 -6.42242e+12 -8.6737e+12 -6.76875e+12 -8.74534e+12 -6.88751e+12 -3.31949e+12 -5.79197e+12 -6.1024e+12 -4.26602e+12 -6.83426e+12 -7.70128e+12 -9.71597e+12 -6.5201e+12 -4.9973e+12 -4.75156e+12 -6.90452e+12 -8.70065e+12 -8.12093e+12 -6.87446e+12 -9.00993e+12 -5.8146e+12 -4.73713e+12 -4.86712e+12 -5.22362e+12 -7.09828e+12 -8.24124e+12 -1.01589e+13 -5.19732e+12 -4.93453e+12 -1.09812e+13 -8.82778e+12 -7.78103e+12 -2.5111e+12 -3.37263e+12 -6.51005e+12 -5.62461e+12 -7.48245e+12 -1.09169e+13 -6.31684e+12 -7.04217e+12 -7.014e+12 -6.19311e+12 -7.72041e+12 -1.26791e+13 -4.53135e+12 -5.89171e+12 -9.55942e+12 -8.28511e+12 -7.10604e+12 -3.56303e+12 -9.34601e+12 -2.89749e+12 -4.36409e+12 -6.00255e+12 -2.30564e+12 -5.80945e+12 -4.72471e+12 -7.56125e+12 -7.72747e+12 -6.05097e+12 -1.00969e+13 -5.41158e+12 -7.02535e+12 -8.02346e+12 -5.35736e+12 -6.64485e+12 -7.7455e+12 -4.70438e+12 -5.72418e+12 -8.36849e+12 -8.63015e+12 -5.63154e+12 -1.05815e+13 -6.48394e+12 -4.26386e+12 -7.03924e+12 -3.45125e+12 -3.35138e+12 -6.8007e+12 -4.40659e+12 -6.76845e+12 -4.02179e+12 -4.05519e+12 -4.58452e+12 -6.99582e+12 -6.03731e+12 -6.07946e+12 -6.20224e+12 -1.34877e+13 -5.70832e+12 -7.97871e+12 -7.8601e+12 -8.53264e+12 -4.48425e+12 -6.9564e+12 -7.02626e+12 -4.42898e+12 -5.23134e+12 -8.43653e+12 -8.91878e+12 -1.10501e+13 -1.06187e+13 -9.09037e+12 -7.52957e+12 -6.13874e+12 -1.05932e+13 -8.0405e+12 -6.93718e+12 -4.77243e+12 -3.23366e+12 -5.86129e+12 -1.23673e+13 -7.88439e+12 -6.09048e+12 -8.453e+12 -6.24788e+12 -4.99702e+12 -4.70827e+12 -3.64081e+12 -5.50171e+12 -4.32983e+12 -2.82805e+12 -4.1248e+12 -4.19187e+12 -7.38752e+12 -6.85144e+12 -6.61524e+12 -7.81803e+12 -6.5188e+12 -5.21451e+12 -7.19752e+12 -1.05293e+13 -8.11785e+12 -9.47488e+12 -1.15912e+13 -7.4402e+12 -7.65449e+12 -8.29616e+12 -4.03189e+12 -1.34746e+13 -6.98375e+12 -6.36067e+12 -7.31961e+12 -8.00848e+12 -7.23456e+12 -3.32664e+12 -5.49852e+12 -7.5555e+12 -8.42567e+12 -7.47807e+12 -6.10325e+12 -8.60267e+12 -4.53957e+12 -3.32762e+12 -8.4152e+12 -6.15398e+12 -6.61075e+12 -8.48616e+12 -8.07429e+12 -3.48536e+12 -8.35692e+12 -12549700000.0 -6.23494e+12 -4.82594e+12 -1.02979e+13 -8.08502e+12 -8.15086e+12 -7.86944e+12 -6.31086e+12 -1.03635e+13 -8.31138e+12 -7.64246e+12 -8.83244e+12 -8.02248e+12 -8.64566e+12 -5.16336e+12 -6.65265e+12 -6.10979e+12 -8.33861e+12 -6.18176e+12 -6.71844e+12 -5.91416e+12 -5.8687e+12 -7.39028e+12 -5.64421e+12 -9.09303e+12 -6.58599e+12 -5.98758e+12 -1.06155e+13 -6.14559e+12 -3.24147e+12 -8.04976e+12 -4.55962e+12 -6.27019e+12 -4.30367e+12 -5.52758e+12 -5.50499e+12 -7.16807e+12 -6.49034e+12 -6.26065e+12 -6.25553e+12 -5.63851e+12 -6.87254e+12 -5.8877e+12 -3.60964e+12 -4.45035e+12 -12549700000.0 -3.30359e+12 -5.66649e+12 -7.09109e+12 -7.89333e+12 -8.33677e+12 -9.7822e+12 -7.27116e+12 -7.84725e+12 -4.97164e+12 -8.19909e+12 -9.26361e+12 -5.22411e+12 -6.12429e+12 -3.489e+12 -6.11293e+12 -3.39839e+12 -6.95129e+12 -6.45439e+12 -6.1776e+12 -7.43065e+12 -1.18736e+13 -8.19678e+12 -7.82634e+12 -7.23639e+12 -8.55805e+12 -8.72451e+12 -9.49326e+12 -4.83534e+12 -6.05273e+12 -9.84985e+12 -8.98802e+12 -9.70585e+12 -9.05989e+12 -7.5686e+12 -5.49996e+12 -1.11301e+13 -6.72354e+12 -1.05174e+13 -8.43336e+12 -8.21695e+12 -1.01652e+13 -6.08146e+12 -5.24824e+12 -3.87363e+12 -6.7994e+12 -4.27047e+12 -3.39136e+12 -3.59552e+12 -8.18543e+12 -7.56412e+12 -4.53114e+12 -8.5752e+12 -5.25486e+12 -9.32093e+12 -7.62782e+12 -7.83835e+12 -4.24079e+12 -3.35126e+12 -7.34013e+12 -7.71713e+12 -5.77106e+12 -7.10513e+12 -7.81426e+12 -5.67607e+12 -7.33206e+12 -9.34792e+12 -1.15822e+13 -5.74224e+12 -1.69772e+13 -9.8359e+12 -6.20998e+12 -1.03315e+13 -1.00379e+13 -8.37357e+12 -1.00224e+13 -4.71231e+12 -3.32302e+12 -8.83646e+12 -7.56998e+12 -6.56246e+12 -9.66683e+12 -7.10217e+12 -6.69213e+12 -5.82187e+12 -9.67949e+12 -6.2402e+12 -5.14599e+12 -2.69572e+12 -9.63064e+12 -9.29549e+12 -3.83592e+12 -12549700000.0 -1.98838e+12 -3.62047e+12 -7.329e+12 -5.07089e+12 -9.93218e+12 -9.65266e+12 -7.9089e+12 -6.3669e+12 -5.0203e+12 -7.29421e+12 -6.67991e+12 -5.12343e+12 -9.94926e+12 -5.46537e+12 -6.57941e+12 -8.97909e+12 -5.53669e+12 -7.97265e+12 -1.12598e+13 -7.25216e+12 -1.16321e+13 -6.08737e+12 -7.42111e+12 -8.12994e+12 -8.39754e+12 -5.7882e+12 -6.46524e+12 -4.90208e+12 -1.10082e+13 -5.8786e+12 -8.36919e+12 -6.36806e+12 -6.26216e+12 -8.93672e+12 -7.44719e+12 -6.5181e+12 -5.17542e+12 -9.14735e+12 -1.11226e+13 -5.29121e+12 -5.91429e+12 -4.49569e+12 -6.47698e+12 -5.74937e+12 -5.32771e+12 -7.6814e+12 -9.12314e+12 -9.3283e+12 -4.05627e+12 -7.47736e+12 -3.67923e+12 -4.98317e+12 -5.91593e+12 -7.55612e+12 -1.10161e+13 -6.07889e+12 -7.61755e+12 -7.0597e+12 -5.40343e+12 -6.00523e+12 -4.68993e+12 -5.20029e+12 -7.60739e+12 -4.4536e+12 -1.07316e+13 -7.60917e+12 -5.42014e+12 -9.06685e+12 -4.46132e+12 -4.83255e+12 -5.85834e+12 -4.473e+12 -1.1011e+13 -7.41996e+12 -8.34594e+12 -4.43936e+12 -5.44079e+12 -6.4841e+12 -6.00386e+12 -8.03683e+12 -7.81095e+12 -5.47979e+12 -1.30133e+13 -7.80594e+12 -1.11072e+13 -5.85291e+12 -7.83652e+12 -1.10444e+13 -6.13435e+12 -8.01346e+12 -8.12676e+12 -7.14967e+12 -7.59567e+12 -5.8766e+12 -6.36026e+12 -4.48052e+12 -6.7583e+12 -9.48355e+12 -3.4702e+12 -8.45423e+12 -1.26323e+13 -1.01307e+13 -7.44242e+12 -6.40922e+12 -8.29646e+12 -5.78709e+12 -8.24475e+12 -8.864e+12 -1.25072e+13 -5.86986e+12 -4.65208e+12 -3.10657e+12 -8.3314e+12 -7.38157e+12 -5.23039e+12 -3.89022e+12 -4.97286e+12 -5.54419e+12 -7.80839e+12 -7.6228e+12 -9.60061e+12 -9.47011e+12 -9.53616e+12 -4.21084e+12 -5.47016e+12 -8.20868e+12 -1.28628e+13 -8.03964e+12 -6.15261e+12 -8.183e+12 -9.53187e+12 -9.3159e+12 -8.29319e+12 -5.70119e+12 -3.93344e+12 -8.26235e+12 -6.12671e+12 -5.2197e+12 -5.00951e+12 -4.65549e+12 -1.24804e+13 -1.03968e+13 -7.57324e+12 -5.62595e+12 -8.2471e+12 -7.68933e+12 -9.08865e+12 -5.63035e+12 -6.07808e+12 -3.91698e+12 -6.10881e+12 -1.21079e+13 -8.44374e+12 -7.00961e+12 -9.28093e+12 -1.28225e+13 -8.42544e+12 -1.20966e+13 -8.17681e+12 -6.52159e+12 -8.49284e+12 -7.2161e+12 -1.34854e+13 -9.37118e+12 -8.45608e+12 -7.23825e+12 -6.31436e+12 -1.12203e+13 -1.19308e+13 -5.63494e+12 -8.02069e+12 -6.7477e+12 -7.66303e+12 -8.06129e+12 -9.75121e+12 -4.89786e+12 -7.52563e+12 -3.90688e+12 -1.06175e+13 -5.2074e+12 -8.48735e+12 -7.88153e+12 -1.00283e+13 -9.08889e+12 -5.66803e+12 -1.02876e+13 -9.13641e+12 -7.14397e+12 -7.84192e+12 -5.35825e+12 -8.10732e+12 -4.07582e+12 -1.02272e+13 -7.65857e+12 -1.03247e+13 -6.42351e+12 -8.49899e+12 -7.69319e+12 -3.48388e+12 -1.10314e+13 -6.80934e+12 -6.97808e+12 -5.89707e+12 -5.77619e+12 -4.9445e+12 -9.50535e+12 -4.51599e+12 -1.29839e+13 -1.07415e+13 -1.09669e+13 -5.58407e+12 -7.11934e+12 -6.383e+12 -8.84186e+12 -1.07775e+13 -8.47802e+12 -1.28476e+13 -1.26171e+13 -7.67801e+12 -5.16992e+12 -3.77731e+12 -7.85215e+12 -6.37356e+12 -3.17521e+12 -5.75394e+12 -1.10596e+13 -7.93711e+12 -1.11831e+13 -1.12269e+13 -8.18184e+12 -6.23582e+12 -7.94806e+12 -1.45413e+13 -8.01798e+12 -5.80729e+12 -1.11641e+13 -1.17502e+13 -3.91464e+12 -4.13518e+12 -12549700000.0 -8.23844e+12 -7.13695e+12 -6.18712e+12 -5.64293e+12 -7.72698e+12 -9.41915e+12 -6.82213e+12 -4.03825e+12 -6.21924e+12 -6.02783e+12 -6.5477e+12 -8.23182e+12 -8.4708e+12 -1.01887e+13 -9.73933e+12 -5.0885e+12 -5.71201e+12 -1.00184e+13 -6.69406e+12 -5.6081e+12 -9.39586e+12 -9.53473e+12 -1.11472e+13 -1.28688e+13 -8.51094e+12 -8.92918e+12 -9.03244e+12 -4.40839e+12 -1.06395e+13 -7.82984e+12 -8.22103e+12 -6.18779e+12 -7.69537e+12 -4.98187e+12 -5.18829e+12 -1.05604e+13 -9.30565e+12 -8.08915e+12 -9.55084e+12 -7.36714e+12 -1.17575e+13 -1.61513e+13 -6.82381e+12 -7.08983e+12 -8.13892e+12 -1.01659e+13 -6.72293e+12 -5.9796e+12 -9.00095e+12 -9.22372e+12 -9.08394e+12 -7.99359e+12 -7.79503e+12 -9.50735e+12 -8.29336e+12 -1.29169e+13 -3.74408e+12 -4.91561e+12 -1.23323e+13 -7.31707e+12 -1.05206e+13 -4.25046e+12 -1.39129e+13 -1.21375e+13 -6.64707e+12 -9.12037e+12 -1.02345e+13 -1.49714e+13 -6.23475e+12 -6.33714e+12 -1.01619e+13 -1.00131e+13 -9.1245e+12 -3.78971e+12 -3.19321e+12 -8.86054e+12 -6.57538e+12 -1.08699e+13 -9.13229e+12 -1.39764e+13 -9.84792e+12 -1.18068e+13 -7.14967e+12 -9.7253e+12 -7.38278e+12 -6.12839e+12 -3.2071e+12 -9.88987e+12 -1.0369e+13 -1.24008e+13 -9.7759e+12 -5.39557e+12 -8.03396e+12 -6.42682e+12 -5.21671e+12 -3.37601e+12 -1.1051e+13 -8.06661e+12 -8.17657e+12 -4.10798e+12 -4.80283e+12 -6.51242e+12 -1.01594e+13 -1.08415e+13 -1.01927e+13 -1.13378e+13 -7.68649e+12 -1.3323e+13 -9.70872e+12 -1.03734e+13 -9.6533e+12 -8.4549e+12 -1.13126e+13 -8.1937e+12 -1.17789e+13 -3.88946e+12 -4.87415e+12 -6.80884e+12 -7.72147e+12 -8.47423e+12 -9.91421e+12 -1.74982e+13 -1.061e+13 -1.05919e+13 -1.21e+13 -1.41232e+13 -1.31966e+13 -1.21916e+13 -1.03939e+13 -1.08306e+13 -1.28518e+13 -9.81848e+12 -7.30412e+12 -6.31028e+12 -9.90244e+12 -7.41846e+12 -1.06503e+13 -7.0129e+12 -1.53341e+13 -7.95945e+12 -9.86563e+12 -5.08219e+12 -7.37285e+12 -1.0769e+13 -1.12545e+13 -6.88471e+12 -9.08777e+12 -1.04127e+13 -7.72685e+12 -5.37552e+12 -3.47524e+12 -1.05639e+13 -8.54287e+12 -6.57574e+12 -9.30105e+12 -8.94585e+12 -6.8109e+12 -5.11187e+12 -3.93881e+12 -1.29885e+13 -8.61786e+12 -4.89857e+12 -4.5567e+12 -8.05493e+12 -7.97236e+12 -5.33845e+12 -6.01206e+12 -5.2171e+12 -6.12822e+12 -9.71428e+12 -4.56646e+12 -6.1037e+12 -7.22187e+12 -1.01163e+13 -5.00243e+12 -3.26023e+12 -7.46373e+12 -8.96162e+12 -1.04443e+13 -6.28067e+12 -8.50563e+12 -1.11807e+13 -8.84262e+12 -1.13485e+13 -9.08699e+12 -9.09321e+12 -9.26077e+12 -1.5815e+13 -1.22516e+13 -1.08609e+13 -9.99564e+12 -7.87272e+12 -7.61131e+12 -3.9415e+12 -3.57923e+12 -5.40228e+12 -8.61256e+12 -9.20939e+12 -4.10884e+12 -1.0914e+13 -1.23519e+13 -1.54433e+13 -6.60265e+12 -7.48792e+12 -1.31528e+13 -6.63177e+12 -7.69489e+12 -9.63936e+12 -7.88125e+12 -8.04388e+12 -1.01997e+13 -1.25615e+13 -9.96568e+12 -3.73413e+12 -1.31007e+13 -6.72186e+12 -1.23088e+13 -8.55661e+12 -6.73371e+12 -9.43161e+12 -6.01644e+12 -9.0624e+12 -6.65549e+12 -8.75238e+12 -1.16368e+13 -8.02614e+12 -5.72687e+12 -6.04716e+12 -1.00693e+13 -1.02932e+13 -9.87628e+12 -5.49323e+12 -3.95559e+12 -8.22519e+12 -1.34047e+13 -9.31197e+12 -6.09762e+12 -6.40284e+12 -3.69761e+12 -8.9134e+12 -4.20985e+12 -5.75889e+12 -6.49466e+12 -1.05896e+13 -3.85507e+12 -7.85173e+12 -6.98804e+12 -6.50981e+12 -5.56895e+12 -8.04133e+12 -4.99305e+12 -8.03799e+12 -9.10242e+12 -6.15029e+12 -6.41861e+12 -8.18276e+12 -8.36061e+12 -6.43468e+12 -5.49546e+12 -8.5814e+12 -7.80778e+12 -9.76952e+12 -1.08595e+13 -1.12799e+13 -1.0616e+13 -6.53559e+12 -1.30837e+13 -1.81355e+13 -7.75669e+12 -1.44086e+13 -9.04459e+12 -5.55262e+12 -7.78279e+12 -5.12112e+12 -6.36401e+12 -2.88232e+12 -1.29765e+13 -4.13123e+12 -4.13742e+12 -4.45308e+12 -1.14796e+13 -6.63648e+12 -4.42064e+12 -1.33009e+13 -8.07936e+12 -7.14486e+12 -8.8548e+12 -8.79286e+12 -9.67647e+12 -7.10036e+12 -7.29615e+12 -8.7584e+12 -8.13932e+12 -5.82485e+12 -7.6634e+12 -1.06357e+13 -1.19185e+13 -8.2254e+12 -6.50734e+12 -1.26032e+13 -1.37039e+13 -6.45898e+12 -7.01988e+12 -1.48277e+13 -6.949e+12 -6.63413e+12 -4.76985e+12 -6.39254e+12 -7.07442e+12 -5.73813e+12 -8.73371e+12 -1.45434e+13 -7.66566e+12 -5.14571e+12 -1.21839e+13 -7.79841e+12 -8.30683e+12 -5.00248e+12 -7.4399e+12 -8.75855e+12 -4.83029e+12 -6.37368e+12 -7.68461e+12 -7.64526e+12 -8.01067e+12 -5.62683e+12 -5.3e+12 -7.08429e+12 -5.2018e+12 -9.85266e+12 -6.54128e+12 -7.07729e+12 -9.56511e+12 -7.01153e+12 -6.77732e+12 -1.0293e+13 -1.20381e+13 -4.92241e+12 -6.06312e+12 -1.02287e+13 -6.7866e+12 -9.9612e+12 -6.4064e+12 -1.08263e+13 -1.06844e+13 -6.88831e+12 -8.66502e+12 -5.56001e+12 -9.48437e+12 -8.76524e+12 -1.02214e+13 -3.57569e+12 -7.69939e+12 -4.64044e+12 -9.20515e+12 -7.38782e+12 -1.04441e+13 -8.68555e+12 -2.78745e+12 -4.32844e+12 -6.41469e+12 -7.86221e+12 -8.90882e+12 -4.94679e+12 -9.78609e+12 -8.53995e+12 -1.09758e+13 -1.24147e+13 -1.07701e+13 -5.80417e+12 -1.3183e+13 -9.78865e+12 -5.52885e+12 -6.45056e+12 -1.10086e+13 -4.6189e+12 -8.66899e+12 -8.96843e+12 -1.10525e+13 -9.97689e+12 -8.07034e+12 -8.44493e+12 -1.05343e+13 -1.49397e+13 -1.43923e+13 -7.01662e+12 -5.26223e+12 -1.14929e+13 -5.90538e+12 -2.7673e+12 -7.38009e+12 -4.42732e+12 -4.97473e+12 -9.21725e+12 -5.6207e+12 -6.15486e+12 -6.50008e+12 -8.25809e+12 -8.8851e+12 -1.36085e+13 -7.19385e+12 -7.08484e+12 -4.64445e+12 -4.87365e+12 -7.32127e+12 -7.17129e+12 -1.47437e+13 -6.79266e+12 -7.63645e+12 -6.45638e+12 -5.82275e+12 -9.67069e+12 -7.23461e+12 -1.20148e+13 -4.81294e+12 -1.26746e+13 -1.1402e+13 -1.15011e+13 -1.03422e+13 -1.11122e+13 -6.98968e+12 -4.18933e+12 -2.50351e+12 -8.80098e+12 -8.75836e+12 -5.85343e+12 -1.07736e+13 -8.22932e+12 -1.20104e+13 -1.4938e+13 -4.37625e+12 -5.64095e+12 -6.8272e+12 -6.25656e+12 -5.40936e+12 -9.47196e+12 -6.0584e+12 -5.14985e+12 -1.04986e+13 -7.88408e+12 -1.36192e+13 -7.04953e+12 -4.50096e+12 -1.24766e+13 -6.2042e+12 -7.32042e+12 -1.27593e+13 -1.17079e+13 -8.25998e+12 -1.32454e+13 -5.3814e+12 -6.75683e+12 -2.62812e+12 -3.80655e+12 -8.03902e+12 -7.93557e+12 -9.38138e+12 -5.50008e+12 -8.56663e+12 -1.15608e+13 -9.45383e+12 -8.28664e+12 -8.90271e+12 -8.52504e+12 -9.31989e+12 -1.31581e+13 -8.66518e+12 -5.01934e+12 -9.36505e+12 -1.09292e+13 -6.00568e+12 -7.69989e+12 -6.34953e+12 -7.20142e+12 -8.95348e+12 -1.3257e+13 -6.09844e+12 -6.29885e+12 -3.9566e+12 -5.07441e+12 -9.56187e+12 -5.61007e+12 -9.15884e+12 -6.53708e+12 -8.42998e+12 -7.52361e+12 -1.17405e+13 -1.02323e+13 -1.02768e+13 -5.71028e+12 -6.13418e+12 -8.76191e+12 -6.24837e+12 -6.52172e+12 -1.34568e+13 -7.81729e+12 -4.95094e+12 -6.44869e+12 -7.38122e+12 -1.0837e+13 -9.84306e+12 -1.09824e+13 -8.9214e+12 -5.91146e+12 -4.50021e+12 -5.71447e+12 -5.41434e+12 -6.25797e+12 -8.41731e+12 -7.90074e+12 -8.54348e+12 -7.72893e+12 -8.70838e+12 -6.25309e+12 -9.79163e+12 -7.03198e+12 -6.61665e+12 -8.06626e+12 -6.59734e+12 -7.05799e+12 -1.25897e+13 -4.57855e+12 -4.74537e+12 -8.82836e+12 -5.55259e+12 -8.02376e+12 -8.55519e+12 -8.7311e+12 -8.48625e+12 -9.99889e+12 -5.18006e+12 -9.2012e+12 -6.31252e+12 -1.26034e+13 -9.83512e+12 -7.53619e+12 -5.70182e+12 -4.78513e+12 -8.32001e+12 -9.70846e+12 -8.64337e+12 -6.9328e+12 -4.5515e+12 -6.26401e+12 -9.75531e+12 -7.19918e+12 -9.10726e+12 -8.11764e+12 -7.73864e+12 -8.24995e+12 -6.8379e+12 -7.27391e+12 -7.65368e+12 -6.67263e+12 -1.21568e+13 -3.51234e+12 -1.14257e+13 -9.63565e+12 -5.38661e+12 -1.3562e+13 -1.07942e+13 -7.03245e+12 -5.24783e+12 -1.3938e+13 -8.83592e+12 -1.09439e+13 -6.45892e+12 -3.20653e+12 -1.16918e+13 -7.42125e+12 -1.11804e+13 -3.85675e+12 -7.76299e+12 -3.74273e+12 -8.73652e+12 -1.13481e+13 -9.09928e+12 -8.31381e+12 -1.0228e+13 -1.14095e+13 -5.71892e+12 -7.28546e+12 -5.1478e+12 -7.46452e+12 -1.17224e+13 -1.25981e+13 -1.18704e+13 -1.20947e+13 -7.37953e+12 -9.4271e+12 -6.84637e+12 -9.41104e+12 -4.2643e+12 -6.70082e+12 -8.25855e+12 -9.31984e+12 -8.47903e+12 -9.11138e+12 -8.64278e+12 -8.14142e+12 -7.00568e+12 -6.39124e+12 -1.14024e+13 -7.25141e+12 -7.84501e+12 -3.22597e+12 -8.33358e+12 -8.10578e+12 -9.34029e+12 -6.1695e+12 -4.13201e+12 -8.4524e+12 -1.1268e+13 -8.64852e+12 -6.81937e+12 -1.2884e+13 -1.20127e+13 -1.25259e+13 -6.99984e+12 -4.89012e+12 -8.47286e+12 -8.06178e+12 -6.57339e+12 -1.17182e+13 -7.79415e+12 -6.36695e+12 -1.13895e+13 -5.03613e+12 -7.88379e+12 -6.9336e+12 -1.07258e+13 -5.19054e+12 -8.39167e+12 -9.52652e+12 -8.10189e+12 -7.60982e+12 -9.14563e+12 -7.21017e+12 -8.25427e+12 -9.03925e+12 -6.18196e+12 -5.38238e+12 -9.80581e+12 -7.48267e+12 -4.87952e+12 -4.47068e+12 -6.97216e+12 -1.0714e+13 -7.68759e+12 -4.40204e+12 -9.30644e+12 -1.2803e+13 -6.60499e+12 -5.2896e+12 -7.89072e+12 -7.38806e+12 -9.94481e+12 -5.17245e+12 -7.41607e+12 -7.21818e+12 -8.90178e+12 -1.02709e+13 -8.83861e+12 -7.80065e+12 -9.0791e+12 -8.89552e+12 -4.57446e+12 -1.52975e+13 -1.17653e+13 -1.33146e+13 -8.941e+12 -5.97346e+12 -9.41182e+12 -8.34769e+12 -7.10958e+12 -6.79896e+12 -8.61668e+12 -4.57691e+12 -1.07022e+13 -8.84332e+12 -1.01314e+13 -7.84436e+12 -8.38975e+12 -9.84542e+12 -9.58091e+12 -1.03171e+13 -9.47302e+12 -9.45711e+12 -1.01591e+13 -7.01374e+12 -1.08185e+13 -1.08216e+13 -7.02679e+12 -9.4186e+12 -9.40188e+12 -1.20344e+13 -6.91771e+12 -7.62838e+12 -9.60838e+12 -7.30596e+12 -7.9407e+12 -7.1462e+12 -1.00165e+13 -7.37093e+12 -5.74096e+12 -6.6265e+12 -6.97946e+12 -9.87377e+12 -1.3041e+13 -9.36975e+12 -8.87264e+12 -7.37877e+12 -8.46773e+12 -6.38917e+12 -7.9041e+12 -5.68292e+12 -1.00816e+13 -5.33629e+12 -1.47769e+13 -4.77455e+12 -5.98101e+12 -1.08865e+13 -8.69352e+12 -1.14208e+13 -5.56613e+12 -6.64402e+12 -6.55189e+12 -5.35588e+12 -6.51607e+12 -6.83389e+12 -4.88321e+12 -4.93736e+12 -4.74044e+12 -6.55594e+12 -7.11585e+12 -7.86373e+12 -8.49041e+12 -5.63607e+12 -6.87807e+12 -9.53394e+12 -4.56331e+12 -1.10359e+13 -8.90206e+12 -7.51131e+12 -8.2908e+12 -5.42648e+12 -8.65486e+12 -7.3171e+12 -3.3508e+12 -4.8802e+12 -8.71472e+12 -7.62622e+12 -1.18642e+13 -8.63705e+12 -5.42359e+12 -9.36477e+12 -6.07082e+12 -2.9732e+12 -1.10274e+13 -6.14333e+12 -4.96208e+12 -8.99512e+12 -7.93567e+12 -4.28764e+12 -8.20701e+12 -5.02496e+12 -8.77929e+12 -4.99893e+12 -7.76636e+12 -1.16746e+13 -1.23788e+13 -1.10955e+13 -7.10426e+12 -8.03747e+12 -5.39175e+12 -6.47283e+12 -1.41512e+13 -7.11096e+12 -3.48861e+12 -8.90809e+12 -1.14923e+13 -8.97125e+12 -1.05119e+13 -1.27316e+13 -1.12979e+13 -3.28861e+12 -8.98556e+12 -1.31467e+13 -1.05508e+13 -7.93195e+12 -1.02346e+13 -8.42449e+12 -7.71424e+12 -8.19395e+12 -7.98048e+12 -7.5902e+12 -5.42922e+12 -8.28725e+12 -8.20995e+12 -5.46659e+12 -5.43682e+12 -6.30835e+12 -7.88276e+12 -5.18599e+12 -6.9762e+12 -8.18763e+12 -4.52843e+12 -8.20038e+12 -9.34952e+12 -1.19942e+13 -5.72698e+12 -1.04685e+13 -2.86086e+12 -6.65295e+12 -8.37808e+12 -6.04299e+12 -4.90668e+12 -5.9364e+12 -5.49196e+12 -6.70696e+12 -1.31104e+13 -7.27797e+12 -6.29193e+12 -4.9135e+12 -6.3702e+12 -9.5487e+12 -1.14733e+13 -8.03066e+12 -2.81668e+12 -1.07532e+13 -1.1167e+13 -8.17203e+12 -3.91639e+12 -3.65742e+12 -4.8694e+12 -1.12131e+13 -5.9527e+12 -1.06328e+13 -7.49759e+12 -1.01967e+13 -5.96644e+12 -8.25458e+12 -8.61804e+12 -7.36601e+12 -1.11695e+13 -6.17595e+12 -9.97729e+12 -8.7589e+12 -3.5835e+12 -6.84492e+12 -5.16805e+12 -5.24432e+12 -6.28216e+12 -6.44934e+12 -4.61145e+12 -1.2471e+13 -9.87022e+12 -8.21096e+12 -6.63742e+12 -7.2725e+12 -8.99992e+12 -5.39206e+12 -5.59906e+12 -5.76155e+12 -8.25992e+12 -7.7763e+12 -6.75492e+12 -7.62454e+12 -9.3001e+12 -9.49091e+12 -6.91716e+12 -8.23419e+12 -4.14729e+12 -3.88944e+12 -5.21751e+12 -1.11635e+13 -7.30921e+12 -5.79388e+12 -7.01658e+12 -5.16906e+12 -6.25231e+12 -1.03363e+13 -8.9665e+12 -6.37582e+12 -7.80386e+12 -6.98932e+12 -4.22058e+12 -6.38521e+12 -5.04136e+12 -7.1288e+12 -2.6681e+12 -6.22878e+12 -9.45497e+12 -6.52957e+12 -4.33904e+12 -5.18004e+12 -7.24008e+12 -1.16426e+13 -6.66485e+12 -1.14624e+13 -6.29249e+12 -1.09656e+13 -8.72344e+12 -9.07258e+12 -8.17487e+12 -6.71581e+12 -1.02501e+13 -9.56459e+12 -6.0585e+12 -7.57167e+12 -6.16e+12 -7.11747e+12 -3.71806e+12 -1.18702e+13 -1.43701e+13 -7.28228e+12 -1.12785e+13 -1.26689e+13 -7.50339e+12 -6.25881e+12 -5.13002e+12 -7.91617e+12 -1.33098e+13 -1.00755e+13 -7.12077e+12 -9.8243e+12 -8.32963e+12 -9.3918e+12 -4.06403e+12 -3.35298e+12 -1.13185e+13 -6.35999e+12 -4.3353e+12 -2.71996e+12 -6.62959e+12 -2.82967e+12 -8.65015e+12 -4.97524e+12 -8.45533e+12 -7.21738e+12 -7.02193e+12 -1.39972e+13 -6.0925e+12 -5.0346e+12 -1.0337e+13 -1.40892e+13 -1.05911e+13 -4.88357e+12 -7.8666e+12 -1.04291e+13 -1.01251e+13 -8.061e+12 -8.6031e+12 -9.82922e+12 -7.53442e+12 -5.46544e+12 -1.6245e+13 -5.93907e+12 -1.0681e+13 -5.93496e+12 -6.40541e+12 -7.56588e+12 -7.23851e+12 -8.73869e+12 -7.07232e+12 -1.0066e+13 -7.44574e+12 -1.25391e+12 -9.9701e+12 -7.82131e+12 -9.32535e+12 -6.13489e+12 -6.83551e+12 -2.49475e+12 -4.80367e+12 -1.2351e+13 -4.94988e+12 -6.0807e+12 -8.23332e+12 -6.67238e+12 -7.38749e+12 -6.80785e+12 -5.43474e+12 -4.02263e+12 -1.02497e+13 -5.97048e+12 -8.55629e+12 -7.67702e+12 -3.54392e+12 -5.25852e+12 -1.1639e+13 -7.09195e+12 -8.58115e+12 -6.45783e+12 -6.47121e+12 -6.92083e+12 -6.84395e+12 -3.59003e+12 -3.04899e+12 -6.60882e+12 -7.58798e+12 -6.48974e+12 -4.97029e+12 -6.89779e+12 -6.24427e+12 -7.27469e+12 -3.00007e+12 -8.47507e+12 -8.30606e+12 -1.00019e+13 -1.24745e+13 -5.24006e+12 -8.16024e+12 -6.10724e+12 -5.55242e+12 -1.44561e+13 -9.17189e+12 -2.95218e+12 -9.02257e+12 -6.24785e+12 -5.04548e+12 -5.42357e+12 -1.0463e+13 -6.8299e+12 -7.82444e+12 -1.17545e+13 -6.4547e+12 -5.70945e+12 -7.37591e+12 -6.07882e+12 -4.35296e+12 -6.65187e+12 -6.07349e+12 -8.35045e+12 -8.16127e+12 -6.13217e+12 -1.10482e+13 -7.08525e+12 -8.16266e+12 -4.48815e+12 -7.53563e+12 -4.94361e+12 -6.89773e+12 -6.7555e+12 -8.81518e+12 -4.85822e+12 -8.06266e+12 -7.65503e+12 -1.04571e+13 -5.13455e+12 -7.61493e+12 -5.65181e+12 -7.70015e+12 -1.11668e+13 -5.06243e+12 -4.215e+12 -6.53747e+12 -5.48247e+12 -5.3847e+12 -6.03527e+12 -4.73498e+12 -6.73969e+12 -8.29711e+12 -6.69991e+12 -7.89174e+12 -8.70516e+12 -1.26575e+13 -9.22804e+12 -4.7796e+12 -6.76879e+12 -8.65671e+12 -1.58232e+13 -8.35215e+12 -5.54986e+12 -8.76538e+12 -8.19273e+12 -1.01063e+13 -8.13857e+12 -7.37279e+12 -8.98014e+12 -5.21054e+12 -5.98343e+12 -1.1775e+13 -6.95349e+12 -7.87752e+12 -9.83543e+12 -5.02178e+12 -1.14216e+13 -8.69963e+12 -7.56776e+12 -6.94471e+12 -1.03546e+13 -1.19768e+13 -6.2063e+12 -6.03384e+12 -4.56991e+12 -3.39684e+12 -6.06678e+12 -7.33371e+12 -6.64989e+12 -5.77118e+12 -6.78929e+12 -1.0291e+13 -3.99165e+12 -7.37633e+12 -6.39732e+12 -7.4642e+12 -6.70138e+12 -5.06277e+12 -7.31373e+12 -2.61166e+12 -5.78428e+12 -7.37048e+12 -3.80919e+12 -8.6228e+12 -7.48376e+12 -6.31339e+12 -4.16219e+12 -4.52076e+12 -4.11029e+12 -7.00219e+12 -7.84081e+12 -7.09779e+12 -5.68994e+12 -7.08578e+12 -5.51017e+12 -6.77125e+12 -7.53892e+12 -5.35379e+12 -7.06157e+12 -7.00399e+12 -7.62133e+12 -7.38513e+12 -7.11864e+12 -5.22301e+12 -4.06909e+12 -7.90554e+12 -7.528e+12 -5.30237e+12 -7.49028e+12 -7.12876e+12 -5.08477e+12 -9.57076e+12 -6.18535e+12 -4.51189e+12 -7.7339e+12 -8.06524e+12 -5.59858e+12 -7.78211e+12 -9.1918e+12 -3.88013e+12 -4.53446e+12 -4.27506e+12 -7.96673e+12 -7.13734e+12 -9.45264e+12 -8.2342e+12 -7.28096e+12 -7.89932e+12 -9.61371e+12 -4.16057e+12 -6.53199e+12 -7.76654e+12 -8.83472e+12 -9.70652e+12 -1.34949e+13 -7.36509e+12 -4.81146e+12 -2.97828e+12 -6.20267e+12 -3.84246e+12 -5.00873e+12 -1.057e+13 -8.30689e+12 -8.62473e+12 -6.24071e+12 -9.72998e+12 -9.04102e+12 -8.16786e+12 -9.1632e+12 -1.02511e+13 -3.60546e+12 -9.62446e+12 -9.46114e+12 -9.51987e+12 -7.88941e+12 -9.06017e+12 -1.39074e+13 -8.67932e+12 -7.90699e+12 -6.20483e+12 -6.29441e+12 -5.93935e+12 -8.03732e+12 -4.19535e+12 -6.06029e+12 -5.76752e+12 -5.73326e+12 -5.57106e+12 -5.88904e+12 -7.4403e+12 -4.74748e+12 -6.31629e+12 -1.08142e+13 -3.06531e+12 -6.90042e+12 -8.9013e+12 -1.44527e+13 -1.90961e+13 -1.27163e+13 -6.93327e+12 -7.07273e+12 -1.08695e+13 -9.24795e+12 -1.10895e+13 -6.48001e+12 -5.59816e+12 -7.57428e+12 -5.85899e+12 -6.88442e+12 -4.7455e+12 -6.93464e+12 -6.43164e+12 -2.63588e+12 -5.04515e+12 -5.67717e+12 -4.24714e+12 -7.9748e+12 -1.0887e+13 -6.33713e+12 -4.47263e+12 -9.04161e+12 -7.33848e+12 -7.14794e+12 -8.71648e+12 -4.35925e+12 -3.78603e+12 -5.8992e+12 -5.56514e+12 -9.26556e+12 -6.9323e+12 -8.84572e+12 -1.07687e+13 -6.55251e+12 -5.69385e+12 -6.52566e+12 -5.6118e+12 -6.58269e+12 -4.52326e+12 -7.56005e+12 -7.75217e+12 -4.90609e+12 -3.43803e+12 -7.47923e+12 -7.42212e+12 -3.10076e+12 -6.06984e+12 -5.37961e+12 -6.52132e+12 -6.84825e+12 -9.98076e+12 -6.37905e+12 -3.46944e+12 -5.31183e+12 -9.49012e+12 -4.46849e+12 -9.55259e+12 -6.97119e+12 -1.20603e+13 -5.69955e+12 -7.9898e+12 -1.04489e+13 -5.93582e+12 -8.26714e+12 -6.29412e+12 -5.04526e+12 -4.8184e+12 -6.02831e+12 -1.19091e+13 -7.15099e+12 -9.68549e+12 -1.37976e+13 -6.54822e+12 -6.20129e+12 -9.9451e+12 -1.29475e+13 -4.71734e+12 -3.7603e+12 -6.21628e+12 -3.97638e+12 -6.29682e+12 -4.70765e+12 -6.42386e+12 -6.86841e+12 -5.17428e+12 -1.07564e+13 -8.07755e+12 -1.31709e+13 -1.40929e+13 -8.5941e+12 -5.18608e+12 -6.70217e+12 -5.50568e+12 -8.56669e+12 -8.39171e+12 -1.45489e+13 -5.12754e+12 -6.25228e+12 -7.40415e+12 -4.15397e+12 -7.80617e+12 -4.90326e+12 -7.1691e+12 -9.69202e+12 -7.6577e+12 -8.45448e+12 -7.73512e+12 -1.09958e+13 -6.5381e+12 -1.00364e+13 -5.48317e+12 -3.53025e+12 -5.57976e+12 -8.83506e+12 -4.52244e+12 -5.55535e+12 -7.4606e+12 -4.71441e+12 -4.34076e+12 -8.49943e+12 -8.47966e+12 -6.65682e+12 -4.71133e+12 -3.85147e+12 -5.28413e+12 -3.84987e+12 -4.02854e+12 -8.80858e+12 -8.05301e+12 -5.96261e+12 -6.84415e+12 -6.76854e+12 -4.19049e+12 -8.30232e+12 -5.92175e+12 -8.00825e+12 -6.22622e+12 -3.28251e+12 -6.94687e+12 -7.95601e+12 -7.80472e+12 -5.57673e+12 -5.85369e+12 -1.01297e+13 -7.33146e+12 -2.41379e+12 -8.05634e+12 -3.02101e+12 -4.71197e+12 -1.10322e+13 -5.55017e+12 -5.49346e+12 -7.03022e+12 -4.45641e+12 -3.40335e+12 -5.3527e+12 -6.51791e+12 -5.09976e+12 -6.05562e+12 -2.12152e+12 -7.09169e+12 -6.323e+12 -8.03094e+12 -8.4308e+12 -6.05914e+12 -6.34735e+12 -6.83599e+12 -9.22465e+12 -1.0079e+13 -5.8252e+12 -9.71883e+12 -1.12993e+13 -7.72185e+12 -7.64961e+12 -6.29724e+12 -4.0942e+12 -3.64815e+12 -4.73253e+12 -3.2659e+12 -7.56843e+12 -6.30716e+12 -7.24587e+12 -5.50966e+12 -6.57173e+12 -6.84266e+12 -7.1419e+12 -6.52261e+12 -8.14446e+12 -8.83761e+12 -5.19163e+12 -5.19027e+12 -3.25056e+12 -5.79243e+12 -4.24984e+12 -4.62876e+12 -4.32221e+12 -6.22287e+12 -7.76139e+12 -6.76574e+12 -5.02268e+12 -7.17652e+12 -6.51121e+12 -3.90043e+12 -6.27466e+12 -7.90072e+12 -4.54705e+12 -4.25085e+12 -4.54422e+12 -7.15029e+12 -5.39432e+12 -7.24691e+12 -6.63224e+12 -9.84918e+12 -5.97555e+12 -8.10689e+12 -7.67533e+12 -6.12964e+12 -8.35556e+12 -3.38845e+12 -8.83842e+12 -4.87978e+12 -4.84549e+12 -3.51983e+12 -5.60762e+12 -1.03972e+13 -8.41398e+12 -7.69106e+12 -5.80279e+12 -8.61684e+12 -9.28382e+12 -4.36835e+12 -4.09022e+12 -9.18006e+12 -6.40153e+12 -1.03164e+13 -7.26964e+12 -3.83437e+12 -1.10759e+13 -9.26625e+12 -6.81237e+12 -8.07904e+12 -8.70773e+12 -6.04718e+12 -6.01346e+12 -5.15656e+12 -5.86807e+12 -5.17303e+12 -4.58477e+12 -4.96855e+12 -6.07835e+12 -6.2426e+12 -8.62314e+12 -1.13578e+13 -8.85156e+12 -6.96063e+12 -1.21698e+13 -6.14754e+12 -7.45185e+12 -4.57087e+12 -7.44469e+12 -4.83559e+12 -4.80177e+12 -4.94022e+12 -6.69013e+12 -9.71808e+12 -5.08432e+12 -9.97596e+12 -8.30823e+12 -6.91449e+12 -8.66812e+12 -6.90743e+12 -8.62458e+12 -6.39068e+12 -5.26412e+12 -3.79199e+12 -7.1676e+12 -4.287e+12 -7.05024e+12 -6.20024e+12 -4.00242e+12 -7.0513e+12 -5.24932e+12 -3.82843e+12 -3.42573e+12 -7.68397e+12 -7.82615e+12 -1.00915e+13 -6.55483e+12 -6.02805e+12 -7.14275e+12 -8.76116e+12 -1.07472e+13 -2.98941e+12 -6.6706e+12 -4.10504e+12 -5.83207e+12 -4.40129e+12 -6.28443e+12 -5.83372e+12 -9.38121e+12 -6.07586e+12 -8.10734e+12 -8.42524e+12 -4.95838e+12 -5.26494e+12 -6.88218e+12 -6.41358e+12 -4.40006e+12 -7.57879e+12 -6.78586e+12 -6.22825e+12 -6.41858e+12 -3.94336e+12 -4.13801e+12 -4.64167e+12 -6.3394e+12 -3.91165e+12 -7.24939e+12 -7.27074e+12 -5.87118e+12 -4.77691e+12 -6.08133e+12 -6.24763e+12 -4.19939e+12 -3.1433e+12 -5.13223e+12 -6.00142e+12 -4.28586e+12 -7.21913e+12 -5.75363e+12 -6.52543e+12 -5.57086e+12 -6.39638e+12 -5.17696e+12 -7.15431e+12 -7.1259e+12 -6.83519e+12 -5.95195e+12 -7.99695e+12 -6.16894e+12 -3.95887e+12 -7.55618e+12 -7.64803e+12 -4.43897e+12 -9.08688e+12 -1.01777e+13 -6.01233e+12 -7.04724e+12 -1.00558e+13 -4.97041e+12 -1.11494e+13 -5.39869e+12 -6.87258e+12 -3.98207e+12 -4.06118e+12 -1.03132e+13 -6.78662e+12 -5.28429e+12 -5.06351e+12 -7.29908e+12 -5.98477e+12 -6.91219e+12 -6.55566e+12 -4.03776e+12 -6.54148e+12 -7.35329e+12 -4.64658e+12 -4.51673e+12 -5.99512e+12 -6.23429e+12 -7.77643e+12 -6.35697e+12 -6.34258e+12 -5.6173e+12 -1.00063e+13 -6.1618e+12 -6.08403e+12 -8.11732e+12 -9.96365e+12 -1.02183e+13 -7.81393e+12 -5.9055e+12 -6.01816e+12 -5.90539e+12 -5.08655e+12 -4.72714e+12 -1.03974e+13 -4.72883e+12 -1.01091e+13 -8.6041e+12 -1.15997e+13 -8.53998e+12 -6.37504e+12 -1.3008e+13 -3.99222e+12 -5.8054e+12 -4.74689e+12 -4.61038e+12 -3.44031e+12 -5.73598e+12 -5.69359e+12 -7.03038e+12 -3.72531e+12 -4.22877e+12 -7.76231e+12 -6.28793e+12 -3.8736e+12 -6.41288e+12 -8.53257e+12 -4.57033e+12 -7.06676e+12 -6.96605e+12 -5.90539e+12 -8.01685e+12 -6.14706e+12 -6.01266e+12 -6.79882e+12 -6.11729e+12 -4.88722e+12 -5.62554e+12 -4.19368e+12 -6.39187e+12 -1.01554e+13 -6.32095e+12 -8.09692e+12 -4.99785e+12 -7.13754e+12 -5.17347e+12 -8.81925e+12 -8.4267e+12 -1.17e+13 -9.82346e+12 -5.6876e+12 -6.24413e+12 -8.64805e+12 -8.94288e+12 -5.48842e+12 -3.30649e+12 -9.18527e+12 -7.9014e+12 -6.12456e+12 -3.73037e+12 -3.20081e+12 -6.06372e+12 -3.54624e+12 -3.38221e+12 -5.65956e+12 -3.68737e+12 -7.13211e+12 -6.74891e+12 -5.4114e+12 -3.11416e+12 -6.13477e+12 -4.68369e+12 -4.23468e+12 -5.89389e+12 -7.05453e+12 -8.28926e+12 -7.54754e+12 -5.26544e+12 -7.09605e+12 -8.48207e+12 -3.53482e+12 -8.00375e+12 -2.75561e+12 -6.33723e+12 -4.95031e+12 -6.30025e+12 -6.00353e+12 -5.42577e+12 -4.53056e+12 -4.70523e+12 -6.84158e+12 -7.9194e+12 -4.85754e+12 -3.8546e+12 -5.39568e+12 -4.62373e+12 -7.06134e+12 -5.93543e+12 -6.01078e+12 -4.5495e+12 -5.29268e+12 -5.13675e+12 -3.57261e+12 -6.29488e+12 -4.18723e+12 -2.30251e+12 -4.2626e+12 -1.02522e+13 -5.12414e+12 -3.5254e+12 -2.42209e+12 -8.63653e+12 -6.51453e+12 -5.49331e+12 -6.63855e+12 -6.85737e+12 -6.09986e+12 -1.00531e+13 -4.6973e+12 -7.01511e+12 -3.83221e+12 -6.2582e+12 -1.08802e+13 -5.25823e+12 -4.57156e+12 -6.20064e+12 -8.70612e+12 -9.04593e+12 -5.0989e+12 -7.84576e+12 -6.35652e+12 -6.7635e+12 -7.323e+12 -6.14973e+12 -8.33369e+12 -5.09693e+12 -1.22486e+13 -8.04929e+12 -7.34816e+12 -2.48525e+12 -6.79097e+12 -6.85347e+12 -5.98377e+12 -7.94966e+12 -1.06242e+13 -1.10327e+13 -4.90248e+12 -5.01016e+12 -6.76866e+12 -6.09725e+12 -6.14321e+12 -1.06025e+13 -7.02996e+12 -8.40652e+12 -4.71767e+12 -7.09824e+12 -8.75135e+12 -5.49589e+12 -5.77079e+12 -4.5758e+12 -6.60604e+12 -3.32368e+12 -2.61963e+12 -5.28745e+12 -5.75402e+12 -6.28953e+12 -5.63543e+12 -6.46711e+12 -5.14888e+12 -4.23928e+12 -3.52616e+12 -3.53631e+12 -7.63724e+12 -8.9199e+12 -7.05011e+12 -6.08233e+12 -6.78251e+12 -8.65465e+12 -7.98102e+12 -7.27208e+12 -4.66564e+12 -5.60944e+12 -5.21657e+12 -5.62951e+12 -5.63205e+12 -6.57304e+12 -8.14289e+12 -7.49775e+12 -9.81315e+12 -3.3299e+12 -4.91367e+12 -5.49663e+12 -3.65322e+12 -1.16197e+13 -6.586e+12 -8.69987e+12 -5.51845e+12 -6.66376e+12 -7.6903e+12 -9.54383e+12 -6.73424e+12 -1.05286e+13 -5.17968e+12 -5.68284e+12 -4.30667e+12 -3.82492e+12 -6.18535e+12 -9.00934e+12 -6.74998e+12 -4.93426e+12 -5.54048e+12 -5.93785e+12 -8.64371e+12 -6.88309e+12 -6.81381e+12 -4.88061e+12 -6.40147e+12 -3.57113e+12 -3.51048e+12 -2.70915e+12 -5.33435e+12 -5.62491e+12 -4.86377e+12 -6.21918e+12 -7.55657e+12 -4.45789e+12 -4.07079e+12 -6.71599e+12 -4.47793e+12 -4.93611e+12 -4.91347e+12 -7.42305e+12 -6.20449e+12 -6.65527e+12 -1.03191e+13 -6.02633e+12 -8.73204e+12 -3.96082e+12 -6.52241e+12 -2.87689e+12 -6.93422e+12 -5.71079e+12 -5.83857e+12 -5.2887e+12 -4.64259e+12 -2.69875e+12 -3.84903e+12 -4.36375e+12 -6.17361e+12 -5.53612e+12 -6.53044e+12 -1.0588e+13 -6.74327e+12 -9.92751e+12 -8.82481e+12 -1.04976e+13 -8.11379e+12 -9.91268e+12 -5.32114e+12 -3.91565e+12 -6.75588e+12 -7.90266e+12 -6.25793e+12 -6.33648e+12 -7.06905e+12 -6.21996e+12 -8.22939e+12 -6.49449e+12 -3.01202e+12 -6.15171e+12 -3.8828e+12 -7.49409e+12 -4.43019e+12 -8.0143e+12 -7.95241e+12 -4.81861e+12 -4.47263e+12 -4.89039e+12 -6.05557e+12 -4.60582e+12 -6.95784e+12 -7.83798e+12 -5.44646e+12 -4.51664e+12 -6.68229e+12 -9.02877e+12 -1.58322e+13 -8.70756e+12 -1.15871e+13 -6.89975e+12 -9.36868e+12 -1.05368e+13 -5.97948e+12 -7.60044e+12 -8.81308e+12 -5.47005e+12 -2.86149e+12 -5.09697e+12 -3.34439e+12 -5.13956e+12 -4.10689e+12 -7.28122e+12 -4.60075e+12 -5.64559e+12 -7.2422e+12 -5.93655e+12 -9.67873e+12 -1.02415e+13 -7.44654e+12 -6.35673e+12 -7.62094e+12 -5.63851e+12 -5.97062e+12 -5.52659e+12 -5.091e+12 -4.57329e+12 -5.89503e+12 -5.8543e+12 -8.48246e+12 -4.61909e+12 -4.74406e+12 -2.98475e+12 -8.6037e+12 -5.00878e+12 -2.67627e+12 -3.91951e+12 -4.38102e+12 -3.04388e+12 -6.07957e+12 -7.51493e+12 -5.28333e+12 -1.19611e+13 -7.25848e+12 -8.35294e+12 -7.51785e+12 -7.56835e+12 -7.5707e+12 -5.72518e+12 -6.32737e+12 -6.62835e+12 -6.37826e+12 -5.47852e+12 -6.88269e+12 -8.41062e+12 -7.4211e+12 -2.38279e+12 -7.59837e+12 -9.61374e+12 -7.57483e+12 -4.57906e+12 -4.92981e+12 -4.51432e+12 -9.00743e+12 -4.87016e+12 -6.40671e+12 -3.25382e+12 -4.12377e+12 -6.7293e+12 -3.46155e+12 -5.18276e+12 -5.10389e+12 -3.85005e+12 -5.35369e+12 -6.05877e+12 -5.92749e+12 -3.20016e+12 -3.40242e+12 -4.89069e+12 -5.44707e+12 -4.49693e+12 -5.48028e+12 -4.27916e+12 -4.83433e+12 -3.82188e+12 -3.91975e+12 -7.95189e+12 -7.59888e+12 -5.55814e+12 -3.77814e+12 -6.33492e+12 -5.37305e+12 -4.79976e+12 -7.81055e+12 -3.2807e+12 -4.80127e+12 -4.15763e+12 -5.23224e+12 -7.931e+12 -7.533e+12 -5.70286e+12 -2.49232e+12 -4.09294e+12 -4.99499e+12 -7.88686e+12 -4.19536e+12 -5.14759e+12 -7.66632e+12 -5.27314e+12 -7.29881e+12 -6.73757e+12 -4.1877e+12 -8.54335e+12 -5.67939e+12 -8.79492e+12 -4.59745e+12 -5.84367e+12 -8.74448e+12 -6.48019e+12 -5.6499e+12 -4.64885e+12 -6.46398e+12 -4.69285e+12 -6.1875e+12 -8.54448e+12 -6.31166e+12 -6.74002e+12 -7.19458e+12 -6.6013e+12 -6.33487e+12 -9.84891e+12 -8.06704e+12 -6.12071e+12 -6.35175e+12 -5.54532e+12 -5.93548e+12 -4.2076e+12 -3.93929e+12 -1.20164e+13 -5.86272e+12 -7.61312e+12 -8.07674e+12 -5.568e+12 -7.74693e+12 -1.24875e+13 -6.17004e+12 -6.079e+12 -4.76251e+12 -6.75233e+12 -8.07096e+12 -5.54919e+12 -7.31021e+12 -6.05043e+12 -5.73126e+12 -5.30734e+12 -8.93187e+12 -9.61381e+12 -8.33204e+12 -4.35326e+12 -4.46852e+12 -7.17315e+12 -4.58259e+12 -4.97131e+12 -5.19324e+12 -7.56818e+12 -6.88644e+12 -6.28715e+12 -3.94566e+12 -6.93576e+12 -1.03351e+13 -6.0368e+12 -7.1641e+12 -4.83704e+12 -6.19078e+12 -5.03007e+12 -8.03303e+12 -4.46387e+12 -6.82049e+12 -5.27297e+12 -5.90755e+12 -5.93306e+12 -7.34129e+12 -6.51541e+12 -2.47847e+12 -5.54613e+12 -5.70719e+12 -8.06409e+12 -4.00455e+12 -6.35249e+12 -8.40234e+12 -4.95203e+12 -5.23735e+12 -6.37882e+12 -3.6699e+12 -6.33853e+12 -8.3521e+12 -3.04329e+12 -5.01909e+12 -5.458e+12 -3.63072e+12 -2.94098e+12 -7.16623e+12 -3.82375e+12 -4.22722e+12 -3.16989e+12 -4.24491e+12 -3.92645e+12 -4.05737e+12 -6.59718e+12 -5.55117e+12 -4.61073e+12 -2.45898e+12 -5.84534e+12 -3.40097e+12 -4.17424e+12 -2.37031e+12 -8.56979e+12 -2.86839e+12 -4.09399e+12 -3.46431e+12 -5.52407e+12 -4.19314e+12 -5.6006e+12 -4.01077e+12 -2.60575e+12 -1.35181e+12 -5.33333e+12 -3.60667e+12 -7.62405e+12 -4.37721e+12 -6.2803e+12 -3.35894e+12 -2.85849e+12 -4.34482e+12 -2.79669e+12 -7.60336e+12 -7.79271e+12 -5.98671e+12 -4.74406e+12 -2.45082e+12 -3.2047e+12 -3.79574e+12 -4.35678e+12 -6.65307e+12 -5.45411e+12 -5.71114e+12 -4.15652e+12 -9.82327e+12 -6.19211e+12 -6.38369e+12 -5.29801e+12 -8.42385e+12 -9.24769e+12 -7.32943e+12 -4.44726e+12 -5.70334e+12 -6.5422e+12 -7.95704e+12 -5.75178e+12 -7.75941e+12 -7.84458e+12 -6.60113e+12 -7.64378e+12 -857103000000.0 -7.34279e+12 -8.09481e+12 -5.54582e+12 -4.25246e+12 -7.74766e+12 -5.99964e+12 -5.12101e+12 -7.46565e+12 -7.59717e+12 -5.75741e+12 -7.33099e+12 -5.38518e+12 -7.43453e+12 -6.41652e+12 -6.59989e+12 -9.0905e+12 -8.51019e+12 -5.5688e+12 -6.22173e+12 -2.82366e+12 -3.9257e+12 -2.56493e+12 -6.60262e+12 -2.88309e+12 -4.28239e+12 -3.22124e+12 -3.50394e+12 -4.48595e+12 -4.32221e+12 -9.71574e+12 -4.92461e+12 -5.65156e+12 -8.60419e+12 -7.8993e+12 -6.57054e+12 -7.11101e+12 -8.99589e+12 -3.07917e+12 -6.90687e+12 -7.65804e+12 -5.38186e+12 -4.08063e+12 -5.61314e+12 -6.31216e+12 -4.35559e+12 -5.09556e+12 -6.66855e+12 -5.29834e+12 -4.76286e+12 -7.55482e+12 -5.34322e+12 -6.32754e+12 -3.82735e+12 -8.17271e+12 -5.45603e+12 -7.81183e+12 -5.11436e+12 -8.14167e+12 -4.38059e+12 -5.31607e+12 -7.04544e+12 -5.19738e+12 -4.07602e+12 -5.41942e+12 -4.28694e+12 -4.85574e+12 -7.71538e+12 -5.81955e+12 -6.57847e+12 -5.49976e+12 -4.384e+12 -5.1867e+12 -4.98496e+12 -6.47415e+12 -6.33061e+12 -5.24143e+12 -4.61749e+12 -5.06899e+12 -4.74999e+12 -4.53184e+12 -3.03488e+12 -2.44495e+12 -4.55827e+12 -5.59891e+12 -2.71102e+12 -2.39878e+12 -2.45036e+12 -2.57539e+12 -3.43373e+12 -6.2136e+12 -5.00402e+12 -3.37153e+12 -3.67745e+12 -4.25495e+12 -4.1653e+12 -4.40142e+12 -3.8326e+12 -3.18701e+12 -3.64058e+12 -4.06722e+12 -2.81598e+12 -3.79449e+12 -3.36967e+12 -3.89095e+12 -5.92828e+12 -6.94758e+12 -5.43225e+12 -4.0555e+12 -3.25489e+12 -4.06304e+12 -4.981e+12 -4.32576e+12 -5.60014e+12 -4.73529e+12 -3.83963e+12 -4.62652e+12 -6.52116e+12 -5.10174e+12 -2.76381e+12 -7.16675e+12 -8.45829e+12 -3.63203e+12 -3.3909e+12 -3.13137e+12 -3.37301e+12 -8.18741e+12 -7.526e+12 -4.32901e+12 -3.21754e+12 -7.70189e+12 -6.94723e+12 -7.99472e+12 -4.1745e+12 -7.24152e+12 -5.80257e+12 -6.51236e+12 -5.52797e+12 -5.96286e+12 -9.46523e+12 -7.54026e+12 -7.80491e+12 -7.58577e+12 -3.19883e+12 -6.18685e+12 -3.35791e+12 -4.99504e+12 -5.2788e+12 -8.43165e+12 -6.72201e+12 -7.53299e+12 -4.76811e+12 -6.09863e+12 -1.01136e+13 -1.13625e+13 -5.0864e+12 -6.01073e+12 -4.1985e+12 -6.45709e+12 -8.9285e+12 -5.69394e+12 -2.08567e+12 -8.26861e+12 -4.81178e+12 -3.87828e+12 -3.41647e+12 -2.70631e+12 -1.02425e+13 -6.64439e+12 -3.81857e+12 -4.27092e+12 -5.49403e+12 -5.17659e+12 -5.95237e+12 -3.72552e+12 -3.86047e+12 -4.74335e+12 -4.38313e+12 -4.78025e+12 -5.65324e+12 -5.95167e+12 -5.57855e+12 -4.98061e+12 -4.84643e+12 -4.32025e+12 -2.16323e+12 -4.85288e+12 -6.57342e+12 -9.84451e+12 -5.63456e+12 -4.11361e+12 -5.64628e+12 -6.07011e+12 -5.62327e+12 -5.9395e+12 -3.74542e+12 -6.11152e+12 -4.66765e+12 -7.34422e+12 -5.3414e+12 -7.65142e+12 -7.09261e+12 -7.91682e+12 -4.23251e+12 -4.03375e+12 -2.64879e+12 -1.8426e+12 -3.9374e+12 -6.00474e+12 -2.89094e+12 -4.77466e+12 -6.3266e+12 -6.17459e+12 -5.60583e+12 -3.15277e+12 -3.56761e+12 -6.45503e+12 -5.85493e+12 -1.55526e+12 -5.74915e+12 -2.64047e+12 -3.94697e+12 -3.49758e+12 -5.75507e+12 -6.21552e+12 -4.62652e+12 -1.86804e+12 -3.35295e+12 -4.58255e+12 -4.37251e+12 -3.80311e+12 -4.17962e+12 -3.24728e+12 -2.5777e+12 -7.50393e+12 -3.79891e+12 -2.94025e+12 -3.95401e+12 -4.27389e+12 -2.57841e+12 -2.20666e+12 -4.02489e+12 -3.66881e+12 -2.58404e+12 -3.2726e+12 -2.37775e+12 -2.98091e+12 -5.99424e+12 -4.31186e+12 -5.05326e+12 -4.3224e+12 -3.80813e+12 -5.1799e+12 -4.12698e+12 -4.26397e+12 -4.29539e+12 -3.59824e+12 -3.4758e+12 -3.09685e+12 -5.83625e+12 -4.06083e+12 -4.22195e+12 -3.34186e+12 -5.06479e+12 -2.38467e+12 -2.08016e+12 -5.45314e+12 -2.92907e+12 -3.62858e+12 -8.25341e+12 -7.91072e+12 -2.47103e+12 -5.21847e+12 -4.0571e+12 -4.14061e+12 -3.95771e+12 -5.82074e+12 -5.89644e+12 -5.78697e+12 -4.97987e+12 -5.1386e+12 -5.18228e+12 -4.31102e+12 -5.37797e+12 -6.96524e+12 -4.1703e+12 -6.05337e+12 -5.37551e+12 -8.71912e+12 -4.77173e+12 -7.65863e+12 -7.74769e+12 -5.06266e+12 -3.50698e+12 -4.79265e+12 -3.94103e+12 -6.60887e+12 -5.49444e+12 -2.7858e+12 -5.52112e+12 -7.86096e+12 -4.99094e+12 -5.27868e+12 -5.80502e+12 -6.86496e+12 -2.91962e+12 -4.6339e+12 -2.42806e+12 -2.71895e+12 -3.57321e+12 -1.70348e+12 -6.64998e+12 -5.76373e+12 -4.86414e+12 -4.91514e+12 -5.86951e+12 -5.80595e+12 -5.36282e+12 -6.48427e+12 -4.68833e+12 -4.54287e+12 -3.97123e+12 -6.53397e+12 -4.78937e+12 -3.82007e+12 -3.70478e+12 -4.42633e+12 -3.24914e+12 -4.57683e+12 -5.66607e+12 -4.1388e+12 -3.48645e+12 -3.72088e+12 -4.8812e+12 -1.96319e+12 -4.01589e+12 -3.87279e+12 -4.51853e+12 -6.56968e+12 -5.59599e+12 -5.38003e+12 -5.69825e+12 -4.39679e+12 -4.56469e+12 -3.75045e+12 -5.89409e+12 -4.42791e+12 -2.96166e+12 -4.52865e+12 -7.74274e+12 -6.32035e+12 -7.77427e+12 -5.48465e+12 -3.32646e+12 -4.1199e+12 -6.05168e+12 -7.05761e+12 -4.13053e+12 -5.28804e+12 -3.83648e+12 -5.07651e+12 -2.92017e+12 -5.23894e+12 -4.87692e+12 -4.91425e+12 -2.14956e+12 -4.39646e+12 -4.83886e+12 -1.17807e+12 -4.25638e+12 -3.37581e+12 -2.9387e+12 -5.97653e+12 -3.2064e+12 -3.20081e+12 -3.77543e+12 -3.28887e+12 -3.50291e+12 -6.14214e+12 -1.05138e+12 -4.94839e+12 -1.86556e+12 -4.53064e+12 -1.79802e+12 -3.61127e+12 -4.96355e+12 -2.94278e+12 -1.75086e+12 -4.79468e+12 -4.09171e+12 -3.72271e+12 -3.42169e+12 -2.77343e+12 -2.45028e+12 -3.48146e+12 -1.73613e+12 -4.25228e+12 -3.9302e+12 -2.44346e+12 -2.84088e+12 -3.7714e+12 -3.56225e+12 -5.71106e+12 -4.15179e+12 -4.34598e+12 -6.08987e+12 -2.89606e+12 -3.83038e+12 -4.80691e+12 -3.45092e+12 -4.41265e+12 -6.46251e+12 -3.66016e+12 -3.0926e+12 -2.81853e+12 -3.71161e+12 -5.04946e+12 -3.30092e+12 -4.24849e+12 -5.97795e+12 -6.46797e+12 -6.97139e+12 -6.28018e+12 -5.58701e+12 -4.7652e+12 -5.13069e+12 -1.83675e+12 -1.28889e+12 -5.20944e+12 -4.80435e+12 -3.56278e+12 -3.38217e+12 -6.025e+12 -8.18928e+12 -4.90361e+12 -5.88214e+12 -5.97646e+12 -2.9725e+12 -3.28571e+12 -3.41155e+12 -6.53725e+12 -4.20354e+12 -7.56999e+12 -4.88999e+12 -4.78823e+12 -5.02821e+12 -6.2683e+12 -3.95325e+12 -6.15533e+12 -5.81629e+12 -4.12652e+12 -4.43853e+12 -4.00195e+12 -8.12712e+12 -3.17445e+12 -4.06352e+12 -2.64624e+12 -2.21871e+12 -3.45422e+12 -4.3366e+12 -6.60022e+12 -6.34463e+12 -7.0504e+12 -7.88635e+12 -4.26865e+12 -4.15546e+12 -7.46968e+12 -4.19542e+12 -4.86663e+12 -3.54582e+12 -4.73507e+12 -4.2543e+12 -5.5553e+12 -1.73354e+12 -4.03593e+12 -6.54472e+12 -5.21914e+12 -4.5328e+12 -2.12128e+12 -5.66705e+12 -5.15107e+12 -3.54422e+12 -4.47453e+12 -3.52081e+12 -2.88686e+12 -1.84406e+12 -4.02633e+12 -6.59949e+12 -4.95912e+12 -3.54736e+12 -5.92922e+12 -6.01894e+12 -4.79902e+12 -1.29792e+12 -3.38041e+12 -6.3055e+12 -3.35578e+12 -6.70065e+12 -6.34508e+12 -3.09838e+12 -6.60143e+12 -3.16302e+12 -3.96494e+12 -1.62624e+12 -2.82597e+12 -3.66235e+12 -2.9107e+12 -4.03223e+12 -3.17185e+12 -4.5095e+12 -2.5624e+12 -3.57762e+12 -2.73898e+12 -3.35757e+12 -4.4031e+12 -5.69008e+12 -2.55343e+12 -3.5355e+12 -1.4506e+12 -677382000000.0 -1.96843e+12 -2.58651e+12 -3.57215e+12 -4.2052e+12 -2.52834e+12 -1.89558e+12 -2.73983e+12 -1.3376e+12 -2.5296e+12 -3.28882e+12 -3.9646e+12 -4.59218e+12 -2.3834e+12 -4.32175e+12 -4.00484e+12 -3.82468e+12 -2.29736e+12 -4.10825e+12 -6.54372e+12 -3.19336e+12 -2.70701e+12 -4.26812e+12 -5.4188e+12 -3.89875e+12 -4.99766e+12 -4.12395e+12 -5.48476e+12 -5.57793e+12 -2.38073e+12 -4.96728e+12 -3.73801e+12 -3.32199e+12 -2.21194e+12 -3.24477e+12 -4.83175e+12 -4.28447e+12 -3.64282e+12 -4.61181e+12 -1.36316e+12 -2.5608e+12 -5.59166e+12 -4.66503e+12 -5.51078e+12 -2.18169e+12 -3.2154e+12 -2.52764e+12 -4.36789e+12 -5.22866e+12 -7.1869e+12 -6.93257e+12 -4.69088e+12 -4.48775e+12 -3.99595e+12 -4.71619e+12 -3.57778e+12 -5.63456e+12 -5.17481e+12 -5.50523e+12 -5.39205e+12 -8.24486e+12 -4.11634e+12 -3.90183e+12 -5.00944e+12 -4.80283e+12 -7.06053e+12 -7.42325e+12 -3.70437e+12 -5.04146e+12 -6.38124e+12 -5.36702e+12 -1.67163e+12 -4.12754e+12 -6.50322e+12 -4.28995e+12 -3.03637e+12 -5.92834e+12 -5.24092e+12 -5.70119e+12 -4.03578e+12 -5.06611e+12 -6.12963e+12 -8.11649e+12 -5.50481e+12 -4.2666e+12 -3.90493e+12 -3.39222e+12 -5.42275e+12 -5.1233e+12 -4.94499e+12 -3.12259e+12 -1.4055e+12 -4.63966e+12 -4.79444e+12 -3.18138e+12 -4.02838e+12 -3.47376e+12 -3.54986e+12 -4.2663e+12 -4.17593e+12 -4.3489e+12 -4.59999e+12 -3.6327e+12 -4.50781e+12 -4.14589e+12 -4.29764e+12 -4.15257e+12 -3.4819e+12 -4.28269e+12 -2.36482e+12 -1.7828e+12 -3.26327e+12 -4.25295e+12 -1.89484e+12 -2.7107e+12 -1.40396e+12 -2.41829e+12 -2.67155e+12 -2.5963e+12 -2.00055e+12 -1.42509e+12 -1.56223e+12 -1.80781e+12 -3.64719e+12 -2.36468e+12 -1.03007e+12 -1.09107e+12 -2.00598e+12 -675831000000.0 -3.04804e+12 -4.10815e+12 -1.2195e+12 -958392000000.0 -879864000000.0 -3.09017e+12 -778590000000.0 -3.18306e+12 -1.88057e+12 -2.4489e+12 -1.22998e+12 -1.93219e+12 -2.76643e+12 -2.74791e+12 -2.20799e+12 -1.77413e+12 -2.50595e+12 -1.89524e+12 -3.1765e+12 -2.4333e+12 -2.75698e+12 -3.29367e+12 -2.92876e+12 -2.28203e+12 -3.79473e+12 -982772000000.0 -3.35763e+12 -3.48719e+12 -2.40584e+12 -5.43748e+12 -3.91772e+12 -2.69741e+12 -2.60137e+12 -2.03348e+12 -2.46567e+12 -2.10741e+12 -2.70716e+12 -2.21232e+12 -3.05711e+12 -2.51923e+12 -4.13169e+12 -5.17903e+12 -4.708e+12 -2.06083e+12 -2.32004e+12 -4.43323e+12 -1.52055e+12 -4.31973e+12 -2.5451e+12 -4.60993e+12 -4.74528e+12 -2.91869e+12 -4.41854e+12 -5.45182e+12 -5.27364e+12 -5.68423e+12 -3.54744e+12 -6.31232e+12 -3.59428e+12 -3.12632e+12 -2.62998e+12 -3.28562e+12 -5.50295e+12 -3.75781e+12 -4.46896e+12 -5.90012e+12 -4.1688e+12 -3.46867e+12 -5.2873e+12 -5.73733e+12 -4.40299e+12 -5.77501e+12 -6.50443e+12 -5.60741e+12 -3.81929e+12 -4.40963e+12 -4.19996e+12 -2.92436e+12 -2.45945e+12 -4.5781e+12 -6.13778e+12 -1.4413e+12 -2.88623e+12 -3.86678e+12 -2.26326e+12 -3.27677e+12 -4.87758e+12 -3.96238e+12 -4.49169e+12 -3.22147e+12 -3.77861e+12 -6.06278e+12 -4.01149e+12 -5.19177e+12 -5.77819e+12 -4.09277e+12 -4.23007e+12 -4.22564e+12 -3.24675e+12 -2.39091e+12 -3.06312e+12 -2.26785e+12 -3.72056e+12 -8.2955e+12 -4.29657e+12 -5.30343e+12 -3.09943e+12 -4.52141e+12 -4.25126e+12 -2.09474e+12 -3.1792e+12 -3.48505e+12 -3.93906e+12 -3.15375e+12 -4.59462e+12 -2.56519e+12 -3.01364e+12 -2.78654e+12 -1.86743e+12 -2.51747e+12 -3.62507e+12 -1.8642e+12 -2.65754e+12 -3.388e+12 -2.19475e+12 -2.4183e+12 -2.1123e+12 -2.59034e+12 -1.7793e+12 -2.20382e+12 -1.31436e+12 -2.16794e+12 -2.44036e+12 -2.22392e+12 -1.0489e+12 -2.98269e+12 -1.76514e+12 -2.25656e+12 -3.09789e+12 -2.50208e+12 -1.53781e+12 -1.95865e+12 -1.21118e+12 -1.93719e+12 -599335000000.0 -1.74526e+12 -1.46258e+12 -1.59397e+12 -2.02051e+12 -1.5318e+12 -1.60894e+12 -1.70174e+12 -1.97174e+12 -1.38003e+12 -1.16038e+12 -3.12426e+12 -3.57487e+12 -3.39137e+12 -3.53471e+12 -791114000000.0 -1.70804e+12 -1.65053e+12 -1.58287e+12 -1.08547e+12 -2.76428e+12 -3.09984e+12 -2.93245e+12 -2.39633e+12 -3.49386e+12 -2.89626e+12 -1.68072e+12 -3.55357e+12 -3.14712e+12 -1.45836e+12 -1.72887e+12 -1.74133e+12 -2.14731e+12 -3.91789e+12 -2.96296e+12 -2.2972e+12 -1.85448e+12 -2.38144e+12 -3.44392e+12 -2.31091e+12 -3.37651e+12 -3.83758e+12 -2.7263e+12 -1.85858e+12 -4.61098e+12 -3.0958e+12 -889332000000.0 -2.28703e+12 -3.07759e+12 -4.16115e+12 -1.87898e+12 -5.58316e+12 -5.24218e+12 -1.93013e+12 -3.57182e+12 -4.20769e+12 -3.93168e+12 -3.0296e+12 -2.68668e+12 -2.91441e+12 -3.5643e+12 -3.94125e+12 -3.52014e+12 -2.74939e+12 -5.75022e+12 -2.93795e+12 -3.0622e+12 -4.73588e+12 -6.20827e+12 -3.1494e+12 -3.66031e+12 -3.35221e+12 -6.05855e+12 -3.92014e+12 -4.68085e+12 -4.18073e+12 -6.52479e+12 -4.02111e+12 -2.7677e+12 -1.78199e+12 -5.30341e+12 -3.7303e+12 -4.98317e+12 -3.4032e+12 -5.97156e+12 -2.39574e+12 -4.43525e+12 -6.09183e+12 -3.67213e+12 -3.8899e+12 -5.54884e+12 -7.48726e+12 -2.91438e+12 -3.79107e+12 -3.95086e+12 -3.75102e+12 -2.35704e+12 -3.71218e+12 -2.69951e+12 -2.29505e+12 -2.19764e+12 -4.99477e+12 -1.75219e+12 -2.73569e+12 -2.83652e+12 -2.08959e+12 -1.88972e+12 -2.21171e+12 -3.05925e+12 -2.74577e+12 -2.69552e+12 -2.58148e+12 -787194000000.0 -1.8989e+12 -2.30498e+12 -4.77084e+12 -3.12466e+12 -302612000000.0 -1.8102e+12 -1.64862e+12 -2.62565e+12 -1.76693e+12 -1.58845e+12 -1.32022e+12 -1.51603e+12 -1.48678e+12 -2.11652e+12 -599135000000.0 -1.07386e+12 -634225000000.0 -1.57913e+12 -1.10715e+12 -1.71493e+12 -1.22246e+12 -887215000000.0 -1.06581e+12 -1.20859e+12 -896000000000.0 -1.2469e+12 -816316000000.0 -1.0246e+12 -1.62325e+12 -1.42272e+12 -148743000000.0 -744153000000.0 -1.50149e+12 -1.881e+12 -1.16553e+12 -1.93059e+12 -1.9985e+12 -2.05397e+12 -713921000000.0 -2.12971e+12 -3.02506e+12 -1.7623e+12 -1.23101e+12 -2.0517e+12 -1.03853e+12 -1.81225e+12 -1.43599e+12 -3.27855e+12 -3.32462e+12 -1.69377e+12 -1.99589e+12 -2.86277e+12 -2.48965e+12 -2.14752e+12 -4.71497e+12 -4.0664e+12 -1.126e+12 -2.56945e+12 -3.97284e+12 -917249000000.0 -3.84457e+12 -4.35724e+12 -2.88034e+12 -3.79493e+12 -2.75477e+12 -2.77838e+12 -2.05248e+12 -3.92255e+12 -3.1083e+12 -3.84031e+12 -1.54727e+12 -4.13297e+12 -4.02528e+12 -2.52671e+12 -2.6344e+12 -1.94272e+12 -2.87983e+12 -3.13599e+12 -3.3544e+12 -2.56082e+12 -3.57218e+12 -6.75074e+12 -3.97431e+12 -3.7588e+12 -3.22861e+12 -2.40379e+12 -2.21631e+12 -1.83267e+12 -2.0391e+12 -4.46435e+12 -3.21045e+12 -1.57956e+12 -4.53184e+12 -1.42678e+12 -4.67855e+12 -3.5184e+12 -2.74563e+12 -2.26215e+12 -2.31128e+12 -1.4828e+12 -2.78449e+12 -2.14828e+12 -4.29889e+12 -3.61263e+12 -4.70712e+12 -4.62929e+12 -341356000000.0 -2.87257e+12 -2.08494e+12 -2.23832e+12 -1.87622e+12 -2.78063e+12 -2.41346e+12 -3.49044e+12 -2.63617e+12 -2.25361e+12 -1.74661e+12 -3.27715e+12 -1.23654e+12 -1.65962e+12 -3.79382e+12 -1.11446e+12 -2.0222e+12 -1.98614e+12 -1.64149e+12 -1.8554e+12 -2.99963e+12 -1.2127e+12 -1.26573e+12 -1.29872e+12 -708197000000.0 -1.31427e+12 -1.8797e+12 -591928000000.0 -1.22568e+12 -1.58397e+12 -798801000000.0 -859020000000.0 -818168000000.0 -342324000000.0 -1.37373e+12 -477257000000.0 -1.01577e+12 -979685000000.0 -934001000000.0 -611587000000.0 -467081000000.0 -266426000000.0 -1.35755e+12 -516402000000.0 -838243000000.0 -148378000000.0 -650400000000.0 -733946000000.0 -365324000000.0 -1.36353e+12 -380949000000.0 -2.10139e+12 -1.24625e+12 -583850000000.0 -1.30815e+12 -1.71029e+12 -888664000000.0 -943890000000.0 -515439000000.0 -908708000000.0 -1.1615e+12 -2.57998e+12 -3.34985e+12 -2.53788e+12 -2.30493e+12 -1.22122e+12 -1.80158e+12 -1.98175e+12 -1.82926e+12 -1.97881e+12 -1.65751e+12 -2.91341e+12 -2.33939e+12 -1.95117e+12 -2.23762e+12 -2.77392e+12 -3.53576e+12 -1.58788e+12 -3.02874e+12 -3.79177e+12 -2.19642e+12 -3.89453e+12 -2.2817e+12 -1.63621e+12 -3.389e+12 -2.77879e+12 -4.07324e+12 -2.58698e+12 -4.93549e+12 -1.84953e+12 -3.92371e+12 -2.51907e+12 -3.56348e+12 -2.83205e+12 -2.15777e+12 -4.3838e+12 -1.22937e+12 -2.59694e+12 -2.14841e+12 -3.48375e+12 -308532000000.0 -1.74319e+12 -3.38887e+12 -898956000000.0 -2.24192e+12 -2.31086e+12 -1.21883e+12 -3.49685e+12 -1.55485e+12 -3.93685e+12 -1.77864e+12 -1.86051e+12 -2.20821e+12 -2.78573e+12 -1.09624e+12 -2.5872e+12 -1.94481e+12 -4.19905e+12 -2.17419e+12 -2.34456e+12 -2.94533e+12 -1.75684e+12 -2.22997e+12 -1.55043e+12 -4.88457e+12 -1.32196e+12 -814085000000.0 -731858000000.0 -1.12831e+12 -3.07162e+12 -2.27304e+12 -1.48896e+12 -1.60537e+12 -619813000000.0 -1.95049e+12 -1.13315e+12 -1.48058e+12 -2.32134e+12 -736394000000.0 -1.2619e+12 -521964000000.0 -454206000000.0 -730689000000.0 -1.3163e+12 -1.23799e+12 -159798000000.0 -427525000000.0 -196693000000.0 -366894000000.0 -291306000000.0 -417582000000.0 -110435000000.0 -323796000000.0 -138780000000.0 -990268000000.0 -347315000000.0 -331554000000.0 -480181000000.0 -772313000000.0 -510553000000.0 -1.84661e+12 -788720000000.0 -1.28297e+12 -753468000000.0 -1.65409e+12 -1.42373e+12 -1.20723e+12 -1.14609e+12 -1.33047e+12 -1.31036e+12 -2.06201e+12 -3.89581e+12 -1.77367e+12 -2.79917e+12 -2.16001e+12 -1.54226e+12 -2.2772e+12 -1.96354e+12 -2.08139e+12 -1.08146e+12 -1.49018e+12 -2.83575e+12 -3.52267e+12 -3.34568e+12 -1.67114e+12 -1.80761e+12 -2.46004e+12 -3.6034e+12 -3.12854e+12 -2.57278e+12 -1.66784e+12 -3.45419e+12 -2.73075e+12 -2.99717e+12 -2.26233e+12 -2.43887e+12 -1.67509e+12 -3.18507e+12 -3.01519e+12 -1.32575e+12 -1.14961e+12 -1.13742e+12 -2.17706e+12 -1.07785e+12 -1.46229e+12 -2.04166e+12 -2.18022e+12 -1.93908e+12 -1.24875e+12 -1.94685e+12 -1.20677e+12 -2.3979e+12 -1.81465e+12 -1.16779e+12 -1.31159e+12 -1.93263e+12 -1.75044e+12 -575685000000.0 -2.35662e+12 -1.71656e+12 -1.00577e+12 -1.4183e+12 -1.55841e+12 -1.29924e+12 -2.26325e+12 -2.26039e+12 -1.84344e+12 -711356000000.0 -1.40338e+12 -973560000000.0 -1.04483e+12 -819668000000.0 -1.01124e+12 -597131000000.0 -313687000000.0 -461431000000.0 -396161000000.0 -658454000000.0 -266047000000.0 -603631000000.0 -214253000000.0 -137563000000.0 -233356000000.0 -210767000000.0 -254262000000.0 -415338000000.0 -192871000000.0 -104896000000.0 -358801000000.0 -208223000000.0 -641370000000.0 -358678000000.0 -514143000000.0 -1.5683e+12 -940570000000.0 -1.99983e+12 -822862000000.0 -1.20561e+12 -1.56959e+12 -430949000000.0 -1.20259e+12 -1.12436e+12 -2.57258e+12 -1.2968e+12 -1.7143e+12 -2.17845e+12 -1.03526e+12 -1.19555e+12 -1.75401e+12 -1.7831e+12 -1.90324e+12 -1.24578e+12 -2.35713e+12 -1.44101e+12 -2.19206e+12 -3.00313e+12 -1.13693e+12 -1.50742e+12 -1.46476e+12 -1.09709e+12 -336113000000.0 -1.90026e+12 -1.60784e+12 -1.52916e+12 -2.5563e+12 -1.81557e+12 -202222000000.0 -1.81155e+12 -1.04263e+12 -928586000000.0 -1.87897e+12 -1.01273e+12 -648924000000.0 -2.07832e+12 -876865000000.0 -1.60367e+12 -595260000000.0 -1.26283e+12 -1.18273e+12 -1.54304e+12 -1.01049e+12 -173504000000.0 -1.85832e+12 -1.23524e+12 -399644000000.0 -1.49766e+12 -594341000000.0 -1.16746e+12 -708124000000.0 -731842000000.0 -270986000000.0 -809395000000.0 -680263000000.0 -636656000000.0 -1.05234e+12 -367874000000.0 -280583000000.0 -222858000000.0 -116018000000.0 -223046000000.0 -273301000000.0 -324325000000.0 -210148000000.0 -95509100000.0 -180344000000.0 -363063000000.0 -407250000000.0 -707150000000.0 -201021000000.0 -841639000000.0 -937075000000.0 -497045000000.0 -813046000000.0 -929891000000.0 -783710000000.0 -784491000000.0 -1.27676e+12 -536890000000.0 -1.16903e+12 -1.46237e+12 -1.84828e+12 -1.50824e+12 -2.09935e+12 -720671000000.0 -566089000000.0 -1.3563e+12 -1.49388e+12 -1.10043e+12 -835236000000.0 -1.02978e+12 -952173000000.0 -1.38365e+12 -1.05763e+12 -1.85144e+12 -680296000000.0 -852719000000.0 -570758000000.0 -766644000000.0 -808452000000.0 -980607000000.0 -1.4015e+12 -1.46307e+12 -584273000000.0 -884263000000.0 -364854000000.0 -921879000000.0 -290856000000.0 -551735000000.0 -219536000000.0 -290443000000.0 -1.35913e+12 -829682000000.0 -530889000000.0 -350045000000.0 -261086000000.0 -129861000000.0 -327954000000.0 -46181800000.0 -612680000000.0 -129367000000.0 -251802000000.0 -294114000000.0 -203086000000.0 -271133000000.0 -527868000000.0 -1.09347e+12 -249338000000.0 -218382000000.0 -532954000000.0 -230492000000.0 -661855000000.0 -375127000000.0 -527473000000.0 -1.10421e+12 -199941000000.0 -1.18026e+12 -899395000000.0 -170418000000.0 -537633000000.0 -322400000000.0 -757726000000.0 -411723000000.0 -1.06038e+12 -1.10062e+12 -1.01359e+12 -585847000000.0 -1.71591e+12 -291437000000.0 -1.0195e+12 -707550000000.0 -92282900000.0 -87323700000.0 -531524000000.0 -196420000000.0 -683904000000.0 -91073800000.0 -409659000000.0 -438658000000.0 -387900000000.0 -71946800000.0 -360579000000.0 -202837000000.0 -247056000000.0 -256314000000.0 -205712000000.0 -321540000000.0 -287174000000.0 -230977000000.0 -595962000000.0 -1.11556e+12 -157767000000.0 -267552000000.0 -98315100000.0 