# vtk DataFile Version 2.0
Time step 106
ASCII
DATASET UNSTRUCTURED_GRID
POINTS 4650 float
208892.0 251723.0 0
215521.0 251381.0 0
219437.0 252075.0 0
247329.0 250860.0 0
250817.0 252808.0 0
257742.0 252782.0 0
284548.0 252531.0 0
291187.0 252783.0 0
294620.0 250771.0 0
205439.0 253707.0 0
212326.0 253740.0 0
223023.0 253798.0 0
233548.0 255160.0 0
236949.0 253059.0 0
240473.0 254950.0 0
243894.0 252898.0 0
247384.0 254843.0 0
254283.0 254775.0 0
261191.0 254791.0 0
265113.0 255506.0 0
274448.0 254404.0 0
281125.0 254562.0 0
287797.0 254827.0 0
294589.0 254847.0 0
298003.0 252864.0 0
201998.0 255696.0 0
205445.0 257692.0 0
208889.0 255718.0 0
212348.0 257720.0 0
215776.0 255715.0 0
219716.0 256046.0 0
223271.0 257766.0 0
226615.0 255510.0 0
230173.0 257296.0 0
237078.0 257037.0 0
243971.0 256880.0 0
250853.0 256795.0 0
257721.0 256768.0 0
271042.0 256462.0 0
277747.0 256629.0 0
284401.0 256819.0 0
291201.0 256843.0 0
298004.0 256856.0 0
201998.0 259669.0 0
208898.0 259687.0 0
215820.0 259697.0 0
219795.0 260017.0 0
226829.0 259480.0 0
233707.0 259136.0 0
240586.0 258931.0 0
247447.0 258821.0 0
254292.0 258766.0 0
261124.0 258770.0 0
267675.0 258549.0 0
271015.0 260685.0 0
274366.0 258651.0 0
281039.0 258825.0 0
287814.0 258825.0 0
294607.0 258841.0 0
205444.0 261647.0 0
212355.0 261677.0 0
223401.0 261716.0 0
230357.0 261268.0 0
233893.0 263091.0 0
237226.0 261003.0 0
240713.0 262900.0 0
244066.0 260854.0 0
247518.0 262797.0 0
250892.0 260778.0 0
254306.0 262754.0 0
257699.0 260758.0 0
261060.0 262779.0 0
264455.0 260816.0 0
267767.0 262850.0 0
274347.0 262808.0 0
277682.0 260814.0 0
281083.0 262813.0 0
284444.0 260817.0 0
287841.0 262811.0 0
291218.0 260827.0 0
294615.0 262818.0 0
298006.0 260838.0 0
201996.0 263619.0 0
205410.0 265580.0 0
208885.0 263632.0 0
212323.0 265620.0 0
215806.0 263661.0 0
219772.0 263969.0 0
223377.0 265645.0 0
227001.0 263424.0 0
230588.0 265194.0 0
237388.0 264961.0 0
244168.0 264824.0 0
250939.0 264758.0 0
257686.0 264754.0 0
264400.0 264810.0 0
271075.0 264866.0 0
277737.0 264807.0 0
284475.0 264799.0 0
291233.0 264799.0 0
298007.0 264805.0 0
201993.0 267564.0 0
208779.0 267552.0 0
215768.0 267596.0 0
219721.0 267904.0 0
227346.0 267321.0 0
234095.0 267037.0 0
240846.0 266863.0 0
247594.0 266768.0 0
254330.0 266739.0 0
261044.0 266770.0 0
267736.0 266834.0 0
274424.0 266829.0 0
281120.0 266792.0 0
287861.0 266781.0 0
294622.0 266779.0 0
205363.0 269525.0 0
212081.0 269529.0 0
224177.0 269456.0 0
230849.0 269135.0 0
234296.0 270990.0 0
237553.0 268917.0 0
240975.0 270822.0 0
244272.0 268788.0 0
247671.0 270735.0 0
250992.0 268733.0 0
254366.0 270715.0 0
257699.0 268739.0 0
261054.0 270748.0 0
264392.0 268791.0 0
267744.0 270797.0 0
271087.0 268830.0 0
274443.0 270797.0 0
277783.0 268794.0 0
281146.0 270760.0 0
284498.0 268767.0 0
287874.0 270734.0 0
291244.0 268755.0 0
294626.0 270723.0 0
298007.0 268755.0 0
201991.0 271511.0 0
205324.0 273480.0 0
208683.0 271506.0 0
211960.0 273489.0 0
215329.0 271472.0 0
221072.0 271563.0 0
224510.0 273391.0 0
227655.0 271256.0 0
231080.0 273088.0 0
237706.0 272872.0 0
244369.0 272747.0 0
251047.0 272699.0 0
257725.0 272710.0 0
264406.0 272754.0 0
271097.0 272782.0 0
277797.0 272755.0 0
284511.0 272718.0 0
291251.0 272693.0 0
298008.0 272686.0 0
201988.0 275456.0 0
208620.0 275475.0 0
215024.0 275704.0 0
218182.0 273816.0 0
221462.0 275580.0 0
227903.0 275209.0 0
234469.0 274945.0 0
241089.0 274775.0 0
247741.0 274691.0 0
254406.0 274678.0 0
261075.0 274710.0 0
267755.0 274748.0 0
274449.0 274746.0 0
281153.0 274707.0 0
287880.0 274668.0 0
294629.0 274646.0 0
205296.0 277432.0 0
211810.0 277573.0 0
218303.0 277684.0 0
224774.0 277362.0 0
231265.0 277042.0 0
237833.0 276823.0 0
241177.0 278719.0 0
244451.0 276696.0 0
247797.0 278634.0 0
251097.0 276652.0 0
254440.0 278625.0 0
257754.0 276666.0 0
261094.0 278657.0 0
264421.0 276705.0 0
267762.0 278689.0 0
271102.0 276724.0 0
274447.0 278682.0 0
277798.0 276697.0 0
281150.0 278634.0 0
284513.0 276648.0 0
287878.0 278579.0 0
291252.0 276610.0 0
294629.0 278546.0 0
298008.0 276595.0 0
201987.0 279392.0 0
205282.0 281376.0 0
208558.0 279458.0 0
215091.0 279616.0 0
221618.0 279506.0 0
224926.0 281299.0 0
228093.0 279166.0 0
231399.0 280992.0 0
234602.0 278895.0 0
237921.0 280764.0 0
244508.0 280630.0 0
251132.0 280589.0 0
257774.0 280607.0 0
264429.0 280644.0 0
271100.0 280657.0 0
277791.0 280620.0 0
284507.0 280556.0 0
291250.0 280503.0 0
298009.0 280481.0 0
201986.0 283305.0 0
208593.0 283379.0 0
211856.0 281500.0 0
215210.0 283500.0 0
218426.0 281562.0 0
221764.0 283422.0 0
228218.0 283104.0 0
234684.0 282836.0 0
241229.0 282646.0 0
247830.0 282559.0 0
254458.0 282556.0 0
261102.0 282590.0 0
267761.0 282619.0 0
274437.0 282604.0 0
281139.0 282540.0 0
287872.0 282466.0 0
294628.0 282422.0 0
205303.0 285273.0 0
211946.0 285376.0 0
218606.0 285448.0 0
225071.0 285221.0 0
231466.0 284932.0 0
237963.0 284687.0 0
241238.0 286550.0 0
244532.0 284542.0 0
247831.0 286461.0 0
251144.0 284507.0 0
254452.0 286468.0 0
257777.0 284531.0 0
261092.0 286508.0 0
264426.0 284569.0 0
267748.0 286538.0 0
271090.0 284578.0 0
274420.0 286513.0 0
277776.0 284527.0 0
281123.0 286424.0 0
284496.0 284440.0 0
287864.0 286327.0 0
291246.0 284369.0 0
294627.0 286271.0 0
298009.0 284342.0 0
201987.0 287175.0 0
205331.0 289119.0 0
208652.0 287244.0 0
215344.0 287345.0 0
222042.0 287361.0 0
228266.0 287052.0 0
231477.0 288854.0 0
234711.0 286757.0 0
237953.0 288588.0 0
244514.0 288426.0 0
251124.0 288403.0 0
257756.0 288436.0 0
264407.0 288480.0 0
271070.0 288489.0 0
277756.0 288416.0 0
284484.0 288298.0 0
291243.0 288208.0 0
298010.0 288177.0 0
201987.0 291001.0 0
208706.0 291057.0 0
212038.0 289204.0 0
215460.0 291144.0 0
218780.0 289281.0 0
222256.0 291188.0 0
225877.0 289987.0 0
234683.0 290658.0 0
241195.0 290426.0 0
247789.0 290336.0 0
254412.0 290358.0 0
261060.0 290406.0 0
267722.0 290444.0 0
274395.0 290409.0 0
281107.0 290285.0 0
287860.0 290158.0 0
294628.0 290093.0 0
205354.0 292917.0 0
212110.0 292986.0 0
218907.0 293067.0 0
225979.0 293875.0 0
229312.0 291955.0 0
232749.0 293906.0 0
237886.0 292462.0 0
241081.0 294272.0 0
244440.0 292270.0 0
247689.0 294179.0 0
251059.0 292274.0 0
254329.0 294222.0 0
257702.0 292319.0 0
260999.0 294281.0 0
264368.0 292374.0 0
267680.0 294334.0 0
271040.0 292388.0 0
274366.0 294292.0 0
277734.0 292286.0 0
281098.0 294119.0 0
284478.0 292127.0 0
287869.0 293958.0 0
291247.0 292018.0 0
294636.0 293889.0 0
298011.0 291989.0 0
201988.0 294786.0 0
205364.0 296675.0 0
208742.0 294826.0 0
212146.0 296731.0 0
215535.0 294906.0 0
218961.0 296832.0 0
222344.0 295000.0 0
229397.0 295834.0 0
236200.0 295834.0 0
244283.0 296055.0 0
250934.0 296114.0 0
257613.0 296171.0 0
264303.0 296244.0 0
270998.0 296276.0 0
277719.0 296131.0 0
284493.0 295921.0 0
291269.0 295799.0 0
298012.0 295781.0 0
201987.0 298539.0 0
208749.0 298560.0 0
215555.0 298639.0 0
222380.0 298776.0 0
226047.0 297753.0 0
232827.0 297759.0 0
239662.0 297757.0 0
247495.0 297982.0 0
254207.0 298049.0 0
260903.0 298126.0 0
267614.0 298205.0 0
274337.0 298157.0 0
281116.0 297916.0 0
287911.0 297725.0 0
291330.0 299559.0 0
294659.0 297665.0 0
298015.0 299563.0 0
205355.0 300405.0 0
212135.0 300445.0 0
218962.0 300566.0 0
226090.0 301628.0 0
229458.0 299696.0 0
232894.0 301588.0 0
236274.0 299659.0 0
240481.0 301458.0 0
243922.0 299718.0 0
247293.0 301703.0 0
250774.0 299906.0 0
254061.0 301843.0 0
257488.0 299993.0 0
260765.0 301946.0 0
264193.0 300085.0 0
267478.0 302044.0 0
270939.0 300152.0 0
274324.0 301994.0 0
277731.0 299938.0 0
281201.0 301665.0 0
284558.0 299673.0 0
288031.0 301460.0 0
294699.0 301437.0 0
201986.0 302272.0 0
205329.0 304122.0 0
208712.0 302268.0 0
212045.0 304129.0 0
215519.0 302339.0 0
218905.0 304266.0 0
222369.0 302509.0 0
229513.0 303536.0 0
237123.0 303327.0 0
243866.0 303475.0 0
250622.0 303662.0 0
257337.0 303791.0 0
264024.0 303909.0 0
270741.0 303994.0 0
277799.0 303681.0 0
284783.0 303366.0 0
291422.0 303321.0 0
298017.0 303346.0 0
201984.0 305997.0 0
208643.0 305974.0 0
215332.0 305987.0 0
222339.0 306192.0 0
226135.0 305502.0 0
230590.0 307146.0 0
233825.0 305228.0 0
237220.0 307141.0 0
240513.0 305274.0 0
243857.0 307262.0 0
247213.0 305461.0 0
250518.0 307433.0 0
253914.0 305619.0 0
260588.0 305753.0 0
267248.0 305879.0 0
274071.0 305774.0 0
278644.0 307207.0 0
281648.0 305297.0 0
285044.0 307126.0 0
288195.0 305214.0 0
291519.0 307105.0 0
294746.0 305218.0 0
298020.0 307136.0 0
201981.0 309720.0 0
205294.0 307842.0 0
208569.0 309694.0 0
211916.0 307829.0 0
215124.0 309699.0 0
218512.0 307861.0 0
221567.0 309703.0 0
227433.0 309094.0 0
233982.0 309043.0 0
240560.0 309091.0 0
247164.0 309244.0 0
253780.0 309404.0 0
257168.0 307583.0 0
260375.0 309564.0 0
263798.0 307735.0 0
266947.0 309739.0 0
270425.0 307827.0 0
275697.0 308998.0 0
281962.0 309059.0 0
288344.0 309009.0 0
294788.0 309015.0 0
205261.0 311566.0 0
211802.0 311559.0 0
218277.0 311585.0 0
224611.0 311349.0 0
230812.0 310979.0 0
237314.0 310966.0 0
243859.0 311066.0 0
250431.0 311222.0 0
256992.0 311387.0 0
263511.0 311579.0 0
269597.0 312207.0 0
272695.0 310636.0 0
275780.0 312755.0 0
278895.0 310962.0 0
285214.0 310932.0 0
291596.0 310911.0 0
298022.0 310933.0 0
201979.0 313442.0 0
208510.0 313424.0 0
215002.0 313438.0 0
221448.0 313419.0 0
224661.0 315135.0 0
227790.0 313040.0 0
231003.0 314862.0 0
234122.0 312881.0 0
237391.0 314801.0 0
240603.0 312915.0 0
243857.0 314880.0 0
247123.0 313044.0 0
250349.0 315028.0 0
253652.0 313207.0 0
256821.0 315213.0 0
260142.0 313397.0 0
266405.0 313795.0 0
272610.0 314425.0 0
278938.0 314717.0 0
282093.0 312851.0 0
285282.0 314735.0 0
288435.0 312821.0 0
291639.0 314719.0 0
294819.0 312819.0 0
298024.0 314729.0 0
201978.0 317157.0 0
205237.0 315290.0 0
208476.0 317148.0 0
211735.0 315293.0 0
214958.0 317161.0 0
218207.0 315306.0 0
221441.0 317119.0 0
227865.0 316880.0 0
234224.0 316733.0 0
240630.0 316741.0 0
247081.0 316855.0 0
253533.0 317026.0 0
259919.0 317270.0 0
263169.0 315501.0 0
266202.0 317674.0 0
269408.0 316039.0 0
272515.0 318178.0 0
275738.0 316490.0 0
282109.0 316623.0 0
288466.0 316622.0 0
294833.0 316618.0 0
205224.0 319005.0 0
211709.0 319009.0 0
218194.0 319005.0 0
224668.0 318881.0 0
231063.0 318697.0 0
237437.0 318636.0 0
243844.0 318697.0 0
250271.0 318843.0 0
256669.0 319056.0 0
262993.0 319377.0 0
269296.0 319834.0 0
275670.0 320217.0 0
278901.0 318455.0 0
282073.0 320372.0 0
285282.0 318514.0 0
288457.0 320399.0 0
291649.0 318512.0 0
294834.0 320399.0 0
298025.0 318514.0 0
201977.0 320860.0 0
205218.0 322701.0 0
208463.0 320855.0 0
211701.0 322703.0 0
214946.0 320860.0 0
218186.0 322693.0 0
221433.0 320816.0 0
224657.0 322607.0 0
227876.0 320663.0 0
231068.0 322490.0 0
234257.0 320557.0 0
237441.0 322450.0 0
240635.0 320563.0 0
243816.0 322510.0 0
247033.0 320669.0 0
250197.0 322657.0 0
253427.0 320852.0 0
256558.0 322887.0 0
259778.0 321122.0 0
262886.0 323213.0 0
266089.0 321505.0 0
272438.0 321924.0 0
278843.0 322183.0 0
285248.0 322267.0 0
291638.0 322280.0 0
298025.0 322279.0 0
201976.0 324546.0 0
208457.0 324542.0 0
214939.0 324542.0 0
221418.0 324507.0 0
227860.0 324414.0 0
234248.0 324351.0 0
240614.0 324369.0 0
246979.0 324475.0 0
253340.0 324666.0 0
259681.0 324946.0 0
266012.0 325306.0 0
269219.0 323612.0 0
272375.0 325670.0 0
275605.0 323944.0 0
278781.0 325904.0 0
282020.0 324104.0 0
288428.0 324149.0 0
294826.0 324155.0 0
201976.0 328213.0 0
205216.0 326379.0 0
208453.0 328210.0 0
211695.0 326379.0 0
214929.0 328210.0 0
218173.0 326370.0 0
221397.0 328190.0 0
224634.0 326317.0 0
227830.0 328142.0 0
231046.0 326252.0 0
234216.0 328117.0 0
237416.0 326240.0 0
240571.0 328154.0 0
243772.0 326308.0 0
246916.0 328267.0 0
250125.0 326459.0 0
256472.0 326695.0 0
262810.0 327016.0 0
269158.0 327380.0 0
275544.0 327672.0 0
281963.0 327821.0 0
285202.0 325997.0 0
288391.0 327872.0 0
291616.0 326021.0 0
294815.0 327883.0 0
298025.0 326020.0 0
205213.0 330037.0 0
211687.0 330038.0 0
218156.0 330036.0 0
224604.0 330013.0 0
231008.0 329990.0 0
237372.0 330007.0 0
243712.0 330088.0 0
250049.0 330241.0 0
253260.0 328460.0 0
256391.0 330477.0 0
259603.0 328739.0 0
262742.0 330791.0 0
265950.0 329085.0 0
272318.0 329414.0 0
278722.0 329621.0 0
285153.0 329707.0 0
291591.0 329732.0 0
298025.0 329733.0 0
201975.0 331861.0 0
208447.0 331860.0 0
214915.0 331864.0 0
221370.0 331861.0 0
227792.0 331850.0 0
234169.0 331861.0 0
240512.0 331919.0 0
246841.0 332038.0 0
253175.0 332230.0 0
259526.0 332504.0 0
265890.0 332844.0 0
269102.0 331138.0 0
272261.0 333157.0 0
275486.0 331399.0 0
278664.0 333331.0 0
281909.0 331525.0 0
285108.0 333395.0 0
288354.0 331569.0 0
291567.0 333416.0 0
294802.0 331581.0 0
298025.0 333417.0 0
201974.0 335490.0 0
205210.0 333676.0 0
208441.0 335492.0 0
211677.0 333681.0 0
214899.0 335504.0 0
218134.0 333690.0 0
221340.0 335520.0 0
224568.0 333694.0 0
227749.0 335541.0 0
230962.0 333707.0 0
234114.0 335585.0 0
237314.0 333753.0 0
240442.0 335664.0 0
243639.0 333848.0 0
246752.0 335790.0 0
249960.0 334001.0 0
253073.0 335973.0 0
256301.0 334229.0 0
262668.0 334539.0 0
269044.0 334887.0 0
275428.0 335124.0 0
281858.0 335215.0 0
288322.0 335241.0 0
294792.0 335250.0 0
205206.0 337297.0 0
211665.0 337309.0 0
218111.0 337330.0 0
224531.0 337360.0 0
230911.0 337407.0 0
237248.0 337481.0 0
243553.0 337590.0 0
249852.0 337740.0 0
256183.0 337952.0 0
259431.0 336236.0 0
262571.0 338253.0 0
265819.0 336580.0 0
268975.0 338626.0 0
272201.0 336897.0 0
275369.0 338845.0 0
278610.0 337032.0 0
281816.0 338886.0 0
285069.0 337062.0 0
291548.0 337071.0 0
298025.0 337074.0 0
201974.0 339100.0 0
205203.0 340900.0 0
208434.0 339107.0 0
211655.0 340921.0 0
214882.0 339130.0 0
218088.0 340958.0 0
221310.0 339165.0 0
224493.0 341012.0 0
227703.0 339216.0 0
230858.0 341090.0 0
234054.0 339291.0 0
237178.0 341194.0 0
240363.0 339395.0 0
243459.0 341321.0 0
246647.0 339527.0 0
252939.0 339695.0 0
259296.0 339934.0 0
265723.0 340285.0 0
272135.0 340635.0 0
278564.0 340719.0 0
285047.0 340705.0 0
288299.0 338887.0 0
291539.0 340699.0 0
294785.0 338891.0 0
298025.0 340703.0 0
201973.0 342689.0 0
208429.0 342704.0 0
214867.0 342741.0 0
221281.0 342797.0 0
227659.0 342877.0 0
233993.0 342983.0 0
240281.0 343113.0 0
246533.0 343257.0 0
249723.0 341469.0 0
252776.0 343410.0 0
256012.0 341647.0 0
259066.0 343590.0 0
262419.0 341922.0 0
265566.0 343935.0 0
268885.0 342349.0 0
275319.0 342559.0 0
281797.0 342534.0 0
288294.0 342507.0 0
294783.0 342505.0 0
302245.0 343604.0 0
201973.0 346254.0 0
205202.0 344482.0 0
208427.0 346282.0 0
211647.0 344516.0 0
214857.0 346337.0 0
218068.0 344571.0 0
221256.0 346415.0 0
224458.0 344651.0 0
230807.0 344760.0 0
237108.0 344895.0 0
243362.0 345045.0 0
249583.0 345197.0 0
255800.0 345346.0 0
262085.0 345516.0 0
268751.0 346038.0 0
272067.0 344366.0 0
275327.0 346255.0 0
278555.0 344383.0 0
281830.0 346158.0 0
285054.0 344323.0 0
288314.0 346107.0 0
291543.0 344304.0 0
294788.0 346095.0 0
298026.0 344305.0 0
205203.0 348040.0 0
211646.0 348093.0 0
218056.0 348171.0 0
224429.0 348277.0 0
227618.0 346523.0 0
230760.0 348416.0 0
233934.0 346662.0 0
237040.0 348584.0 0
240200.0 346822.0 0
243267.0 348763.0 0
246418.0 346986.0 0
249444.0 348932.0 0
252602.0 347137.0 0
255583.0 349073.0 0
258783.0 347269.0 0
261702.0 349181.0 0
265026.0 347415.0 0
267709.0 349349.0 0
272097.0 348065.0 0
278638.0 348026.0 0
285107.0 347926.0 0
291561.0 347889.0 0
298027.0 347881.0 0
201972.0 349793.0 0
205207.0 351571.0 0
208431.0 349838.0 0
211654.0 351650.0 0
214856.0 349917.0 0
218055.0 351758.0 0
221241.0 350022.0 0
227584.0 350158.0 0
233880.0 350330.0 0
240121.0 350523.0 0
246307.0 350715.0 0
252438.0 350882.0 0
258517.0 351005.0 0
264500.0 351119.0 0
270342.0 351054.0 0
273147.0 352455.0 0
275510.0 349941.0 0
278863.0 351675.0 0
281942.0 349774.0 0
285194.0 351534.0 0
288357.0 349697.0 0
291587.0 351462.0 0
294797.0 349664.0 0
298028.0 351428.0 0
302175.0 351688.0 0
201972.0 353298.0 0
208442.0 353366.0 0
214868.0 353480.0 0
221238.0 353617.0 0
224410.0 351891.0 0
227558.0 353784.0 0
230718.0 352062.0 0
233829.0 353988.0 0
236976.0 352264.0 0
243177.0 352476.0 0
249318.0 352674.0 0
255394.0 352832.0 0
261385.0 352948.0 0
267296.0 353027.0 0
270229.0 354702.0 0
276131.0 353850.0 0
282102.0 353424.0 0
288411.0 353288.0 0
294807.0 353209.0 0
201972.0 356766.0 0
205216.0 355068.0 0
208462.0 356861.0 0
211673.0 355182.0 0
214895.0 357024.0 0
218068.0 355331.0 0
221251.0 357204.0 0
224402.0 355498.0 0
230684.0 355700.0 0
236915.0 355935.0 0
240047.0 354216.0 0
243091.0 356183.0 0
246205.0 354442.0 0
249206.0 356417.0 0
252297.0 354639.0 0
255246.0 356607.0 0
258308.0 354786.0 0
261211.0 356728.0 0
264245.0 354876.0 0
267192.0 356696.0 0
273246.0 356158.0 0
279182.0 355469.0 0
285293.0 355163.0 0
288462.0 356883.0 0
291612.0 355023.0 0
298029.0 354938.0 0
205227.0 358524.0 0
211705.0 358684.0 0
218100.0 358892.0 0
224409.0 359101.0 0
227543.0 357404.0 0
230656.0 359334.0 0
233783.0 357639.0 0
239974.0 357901.0 0
246110.0 358163.0 0
252183.0 358398.0 0
258183.0 358567.0 0
264159.0 358605.0 0
270220.0 358326.0 0
273258.0 359831.0 0
276260.0 357631.0 0
279290.0 359208.0 0
282273.0 357136.0 0
285379.0 358814.0 0
291627.0 358568.0 0
294812.0 356726.0 0
298030.0 358399.0 0
201972.0 360192.0 0
205240.0 361936.0 0
208488.0 360314.0 0
211747.0 362147.0 0
214937.0 360543.0 0
218149.0 362437.0 0
221281.0 360785.0 0
227538.0 361023.0 0
233740.0 361288.0 0
236855.0 359600.0 0
239898.0 361578.0 0
243006.0 359881.0 0
246017.0 361872.0 0
249108.0 360151.0 0
255148.0 360374.0 0
258121.0 362327.0 0
261140.0 360485.0 0
264137.0 362318.0 0
267170.0 360358.0 0
270211.0 361970.0 0
276288.0 361341.0 0
282344.0 360824.0 0
285414.0 362448.0 0
288494.0 360476.0 0
294811.0 360200.0 0
197757.0 363231.0 0
201972.0 363577.0 0
208517.0 363718.0 0
214994.0 364030.0 0
221331.0 364361.0 0
224432.0 362704.0 0
227547.0 364648.0 0
230635.0 362971.0 0
236791.0 363263.0 0
242915.0 363568.0 0
249014.0 363865.0 0
252093.0 362140.0 0
255083.0 364115.0 0
261118.0 364225.0 0
267166.0 364034.0 0
273256.0 363498.0 0
276302.0 365018.0 0
279325.0 362899.0 0
282374.0 364482.0 0
288499.0 364047.0 0
291628.0 362084.0 0
294803.0 363616.0 0
298031.0 361795.0 0
205251.0 365300.0 0
208541.0 367067.0 0
211793.0 365561.0 0
215059.0 367472.0 0
218217.0 365961.0 0
224474.0 366312.0 0
230616.0 366619.0 0
233694.0 364942.0 0
236717.0 366930.0 0
239811.0 365251.0 0
242805.0 367245.0 0
245913.0 365562.0 0
252011.0 365851.0 0
258089.0 366060.0 0
264138.0 366035.0 0
267178.0 367729.0 0
270212.0 365633.0 0
273270.0 367161.0 0
279353.0 366561.0 0
285432.0 366062.0 0
288500.0 367595.0 0
291618.0 365556.0 0
298032.0 365125.0 0
201971.0 366928.0 0
205257.0 368625.0 0
211840.0 368913.0 0
218315.0 369449.0 0
221405.0 367932.0 0
224527.0 369935.0 0
227561.0 368291.0 0
230596.0 370288.0 0
233643.0 368608.0 0
239708.0 368926.0 0
245782.0 369234.0 0
248905.0 367550.0 0
251903.0 369523.0 0
255021.0 367820.0 0
258055.0 369760.0 0
261115.0 367953.0 0
264156.0 369760.0 0
270238.0 369307.0 0
276337.0 368674.0 0
279406.0 370204.0 0
282402.0 368118.0 0
285446.0 369658.0 0
291610.0 368975.0 0
294802.0 366965.0 0
201971.0 370260.0 0
205275.0 371920.0 0
208909.0 373516.0 0
208566.0 370356.0 0
212014.0 372171.0 0
215178.0 370845.0 0
221492.0 371500.0 0
227576.0 371959.0 0
233579.0 372297.0 0
236630.0 370609.0 0
239585.0 372609.0 0
242672.0 370919.0 0
248750.0 371205.0 0
254921.0 371474.0 0
261111.0 371665.0 0
267218.0 371437.0 0
273322.0 370816.0 0
276420.0 372315.0 0
282463.0 371747.0 0
285511.0 373256.0 0
288502.0 371118.0 0
294789.0 370246.0 0
298033.0 368393.0 0
298037.0 371565.0 0
198193.0 378407.0 0
200781.0 376791.0 0
201990.0 373589.0 0
206034.0 374975.0 0
212170.0 375465.0 0
215286.0 374184.0 0
218413.0 372900.0 0
221522.0 375059.0 0
224565.0 373577.0 0
227560.0 375660.0 0
230559.0 373990.0 0
236531.0 374307.0 0
242510.0 374600.0 0
245616.0 372898.0 0
248551.0 374851.0 0
251716.0 373148.0 0
254678.0 375054.0 0
257972.0 373405.0 0
264192.0 373491.0 0
267323.0 375145.0 0
270319.0 372982.0 0
273457.0 374464.0 0
279503.0 373839.0 0
288615.0 374619.0 0
291620.0 372323.0 0
294918.0 373453.0 0
298032.0 374723.0 0
300219.0 377410.0 0
302775.0 379015.0 0
195541.0 380063.0 0
201463.0 379565.0 0
203766.0 376847.0 0
209242.0 376864.0 0
215171.0 377536.0 0
218402.0 376319.0 0
224544.0 377226.0 0
230524.0 377715.0 0
233515.0 376012.0 0
236426.0 378038.0 0
239441.0 376312.0 0
242315.0 378296.0 0
245415.0 376565.0 0
251481.0 376772.0 0
257606.0 376917.0 0
260416.0 378726.0 0
261071.0 375329.0 0
264266.0 377199.0 0
270535.0 376642.0 0
273724.0 378126.0 0
276574.0 375961.0 0
279630.0 377490.0 0
282559.0 375375.0 0
285640.0 376817.0 0
289834.0 377649.0 0
292106.0 375529.0 0
293003.0 379143.0 0
295054.0 376814.0 0
297408.0 378165.0 0
305398.0 380651.0 0
190139.0 383436.0 0
192837.0 381753.0 0
195801.0 383119.0 0
198634.0 381372.0 0
201577.0 382637.0 0
204286.0 380507.0 0
206663.0 378549.0 0
209408.0 380506.0 0
212155.0 378929.0 0
214875.0 381047.0 0
217985.0 379644.0 0
220612.0 381750.0 0
221414.0 378565.0 0
227516.0 379366.0 0
233458.0 379762.0 0
239288.0 380052.0 0
245169.0 380238.0 0
248314.0 378496.0 0
251216.0 380396.0 0
254398.0 378668.0 0
257271.0 380570.0 0
263035.0 380402.0 0
267648.0 378810.0 0
270976.0 380314.0 0
276809.0 379657.0 0
282633.0 379001.0 0
287373.0 379377.0 0
290321.0 381072.0 0
296002.0 380844.0 0
299583.0 380465.0 0
302302.0 382025.0 0
308059.0 382312.0 0
305090.0 383710.0 0
310779.0 384011.0 0
187399.0 385148.0 0
190355.0 386532.0 0
193060.0 384914.0 0
198676.0 384487.0 0
201480.0 385809.0 0
204288.0 384117.0 0
206875.0 382295.0 0
212018.0 382600.0 0
217455.0 383187.0 0
223034.0 383736.0 0
224377.0 380828.0 0
227496.0 383010.0 0
230508.0 381458.0 0
233413.0 383552.0 0
236327.0 381812.0 0
242119.0 382028.0 0
244935.0 383952.0 0
248008.0 382129.0 0
250830.0 383970.0 0
254129.0 382295.0 0
260107.0 382454.0 0
265818.0 381640.0 0
268768.0 382800.0 0
271740.0 384210.0 0
274128.0 381865.0 0
277137.0 383450.0 0
279790.0 381203.0 0
282404.0 383022.0 0
284908.0 381109.0 0
287674.0 382950.0 0
293243.0 382618.0 0
296057.0 384300.0 0
298889.0 383118.0 0
301919.0 384894.0 0
308027.0 385418.0 0
313495.0 385711.0 0
316053.0 387304.0 0
181792.0 388652.0 0
184606.0 386893.0 0
187526.0 388224.0 0
193294.0 388197.0 0
195889.0 386310.0 0
198675.0 387730.0 0
201387.0 389082.0 0
206692.0 386027.0 0
209346.0 384291.0 0
211776.0 386379.0 0
214549.0 384737.0 0
220020.0 385313.0 0
225516.0 385492.0 0
230502.0 385219.0 0
236241.0 385629.0 0
239150.0 383834.0 0
241958.0 385805.0 0
247742.0 385819.0 0
253623.0 385763.0 0
257088.0 384236.0 0
260219.0 386129.0 0
263109.0 384035.0 0
263612.0 387585.0 0
266267.0 385289.0 0
269327.0 386618.0 0
274679.0 385762.0 0
279933.0 385163.0 0
285136.0 384867.0 0
288009.0 386547.0 0
290573.0 384566.0 0
293425.0 386151.0 0
299026.0 386210.0 0
302221.0 387887.0 0
305056.0 386656.0 0
308262.0 388369.0 0
311104.0 387236.0 0
318406.0 388779.0 0
178946.0 390429.0 0
184683.0 390000.0 0
187619.0 391298.0 0
190504.0 389592.0 0
196195.0 389642.0 0
199171.0 391189.0 0
203997.0 387735.0 0
205985.0 389714.0 0
208978.0 388052.0 0
214380.0 388444.0 0
217154.0 386854.0 0
219808.0 388957.0 0
222673.0 387322.0 0
228081.0 387285.0 0
233369.0 387380.0 0
239044.0 387654.0 0
244768.0 387715.0 0
247596.0 389565.0 0
250543.0 387636.0 0
253328.0 389422.0 0
256341.0 387504.0 0
258880.0 389130.0 0
261693.0 390191.0 0
266830.0 388983.0 0
272281.0 388117.0 0
277526.0 387412.0 0
282708.0 386922.0 0
285570.0 388617.0 0
290897.0 388138.0 0
293835.0 389668.0 0
296325.0 387740.0 0
299472.0 389310.0 0
302762.0 390865.0 0
305499.0 389654.0 0
308684.0 391366.0 0
311504.0 390100.0 0
314344.0 389178.0 0
317481.0 391221.0 0
321021.0 390415.0 0
173291.0 393967.0 0
176117.0 392200.0 0
178979.0 393585.0 0
181791.0 391766.0 0
184654.0 393103.0 0
187546.0 394313.0 0
190650.0 392582.0 0
193474.0 391479.0 0
196398.0 392843.0 0
199831.0 394103.0 0
202771.0 391613.0 0
205638.0 392859.0 0
208731.0 391512.0 0
211612.0 390034.0 0
216986.0 390550.0 0
222478.0 390981.0 0
225347.0 389215.0 0
227982.0 391146.0 0
230705.0 389241.0 0
233402.0 391313.0 0
236176.0 389477.0 0
238985.0 391495.0 0
241856.0 389613.0 0
244703.0 391498.0 0
250448.0 391372.0 0
256118.0 391175.0 0
259136.0 392652.0 0
264611.0 391436.0 0
269863.0 390473.0 0
272795.0 392050.0 0
275160.0 389720.0 0
278006.0 391372.0 0
280340.0 389109.0 0
283200.0 390775.0 0
288490.0 390216.0 0
291479.0 391727.0 0
296933.0 391080.0 0
300145.0 392437.0 0
303327.0 393984.0 0
305941.0 392757.0 0
311557.0 393147.0 0
314559.0 392034.0 0
320659.0 393203.0 0
323860.0 392177.0 0
326954.0 394110.0 0
170413.0 395763.0 0
176184.0 395370.0 0
179115.0 396775.0 0
181874.0 394946.0 0
184809.0 396313.0 0
190537.0 395363.0 0
193630.0 394816.0 0
197065.0 395721.0 0
202632.0 394927.0 0
208469.0 394874.0 0
211355.0 393635.0 0
214184.0 392136.0 0
219573.0 392650.0 0
225136.0 392965.0 0
230640.0 393158.0 0
236164.0 393367.0 0
241835.0 393424.0 0
247602.0 393321.0 0
253350.0 393136.0 0
256403.0 394760.0 0
259507.0 396218.0 0
262162.0 393891.0 0
265128.0 395271.0 0
267544.0 392877.0 0
270461.0 394411.0 0
275680.0 393675.0 0
280874.0 393012.0 0
283805.0 394585.0 0
286132.0 392365.0 0
289152.0 393855.0 0
294613.0 393105.0 0
297851.0 394395.0 0
301168.0 395659.0 0
305469.0 396271.0 0
308540.0 394629.0 0
311727.0 396071.0 0
314775.0 394834.0 0
317760.0 394106.0 0
321010.0 396134.0 0
323937.0 394902.0 0
330152.0 396109.0 0
164629.0 399372.0 0
167558.0 397543.0 0
170407.0 398943.0 0
173233.0 397105.0 0
176014.0 398480.0 0
182122.0 398150.0 0
185227.0 399555.0 0
187815.0 397438.0 0
191222.0 397979.0 0
194234.0 397882.0 0
197341.0 398584.0 0
200324.0 397595.0 0
205551.0 395942.0 0
210587.0 397292.0 0
213667.0 395845.0 0
216650.0 394272.0 0
219231.0 396334.0 0
222212.0 394685.0 0
224889.0 396713.0 0
227806.0 394966.0 0
230515.0 397013.0 0
233360.0 395215.0 0
236152.0 397242.0 0
238989.0 395341.0 0
241912.0 397207.0 0
244759.0 395264.0 0
247774.0 397034.0 0
250570.0 395089.0 0
250879.0 398742.0 0
253645.0 396768.0 0
256761.0 398353.0 0
262554.0 397609.0 0
268069.0 396771.0 0
273364.0 396005.0 0
278568.0 395299.0 0
281499.0 396866.0 0
286831.0 396052.0 0
289990.0 397380.0 0
292310.0 395208.0 0
295584.0 396452.0 0
298992.0 397610.0 0
302771.0 398300.0 0
305955.0 399510.0 0
308690.0 397638.0 0
311918.0 398973.0 0
315034.0 397588.0 0
318060.0 396945.0 0
324255.0 397657.0 0
327250.0 396927.0 0
330448.0 399056.0 0
333330.0 398103.0 0
161643.0 401239.0 0
164534.0 402370.0 0
167529.0 400580.0 0
173166.0 400354.0 0
175908.0 401745.0 0
178776.0 399789.0 0
181511.0 400973.0 0
188731.0 400304.0 0
192099.0 400856.0 0
195256.0 401086.0 0
198757.0 401099.0 0
203599.0 398263.0 0
207405.0 398336.0 0
209423.0 400763.0 0
212923.0 399406.0 0
216161.0 397912.0 0
221914.0 398374.0 0
227586.0 398747.0 0
233294.0 399076.0 0
239050.0 399143.0 0
244958.0 398975.0 0
248107.0 400688.0 0
253998.0 400401.0 0
259861.0 399858.0 0
265554.0 399087.0 0
271004.0 398335.0 0
273950.0 399932.0 0
276273.0 397614.0 0
279210.0 399190.0 0
284515.0 398324.0 0
287659.0 399632.0 0
293279.0 398581.0 0
296703.0 399665.0 0
300338.0 400519.0 0
303645.0 401717.0 0
306756.0 402956.0 0
309055.0 400794.0 0
315122.0 400341.0 0
318233.0 399823.0 0
321199.0 399141.0 0
324246.0 400471.0 0
327380.0 399775.0 0
333452.0 401273.0 0
336390.0 400018.0 0
339690.0 402067.0 0
155568.0 405036.0 0
158624.0 403127.0 0
161492.0 404251.0 0
167469.0 403605.0 0
170377.0 402206.0 0
173130.0 403688.0 0
178688.0 403046.0 0
181499.0 404348.0 0
184018.0 402251.0 0
186951.0 402800.0 0
190079.0 403446.0 0
193319.0 403910.0 0
196642.0 403947.0 0
201862.0 400835.0 0
205521.0 400867.0 0
209758.0 403873.0 0
212634.0 402678.0 0
215786.0 401376.0 0
218888.0 399942.0 0
221540.0 402061.0 0
224578.0 400450.0 0
227298.0 402464.0 0
230356.0 400808.0 0
236163.0 401080.0 0
242115.0 400914.0 0
245337.0 402609.0 0
251232.0 402403.0 0
257108.0 401998.0 0
260196.0 403550.0 0
262919.0 401347.0 0
265959.0 402883.0 0
268542.0 400634.0 0
271543.0 402215.0 0
276918.0 401520.0 0
282209.0 400663.0 0
285320.0 401971.0 0
290946.0 400790.0 0
294360.0 401825.0 0
297908.0 402715.0 0
301352.0 403771.0 0
304730.0 405281.0 0
309790.0 404222.0 0
312056.0 402018.0 0
315029.0 403158.0 0
318063.0 402713.0 0
321142.0 402320.0 0
324145.0 403252.0 0
327206.0 402707.0 0
330289.0 402018.0 0
334704.0 404131.0 0
337077.0 402919.0 0
342720.0 403975.0 0
152565.0 406916.0 0
158354.0 406150.0 0
161177.0 407214.0 0
164405.0 405358.0 0
167371.0 406566.0 0
170311.0 405539.0 0
173033.0 407032.0 0
175925.0 405079.0 0
178884.0 406365.0 0
184680.0 405387.0 0
187875.0 406033.0 0
191160.0 406565.0 0
199969.0 403975.0 0
203270.0 403688.0 0
206668.0 403577.0 0
211840.0 406262.0 0
215201.0 404862.0 0
218439.0 403540.0 0
224207.0 404183.0 0
230098.0 404515.0 0
233219.0 402888.0 0
236237.0 404846.0 0
239214.0 402844.0 0
239847.0 406279.0 0
242575.0 404490.0 0
245717.0 406303.0 0
248470.0 404369.0 0
251569.0 406107.0 0
254339.0 404073.0 0
257427.0 405693.0 0
263269.0 405090.0 0
269018.0 404455.0 0
274572.0 403813.0 0
277606.0 405396.0 0
279912.0 403046.0 0
282969.0 404397.0 0
286255.0 405475.0 0
288601.0 403089.0 0
291996.0 404084.0 0
295483.0 404965.0 0
298951.0 405879.0 0
302441.0 406958.0 0
307728.0 406555.0 0
312963.0 405320.0 0
316538.0 405769.0 0
319757.0 405458.0 0
322704.0 405764.0 0
326021.0 405869.0 0
329062.0 405327.0 0
331957.0 404656.0 0
337206.0 406375.0 0
339940.0 405239.0 0
342701.0 407298.0 0
345624.0 405796.0 0
149610.0 408767.0 0
152435.0 410088.0 0
155363.0 408142.0 0
158223.0 409256.0 0
164033.0 408248.0 0
166955.0 409292.0 0
170096.0 408964.0 0
176004.0 408313.0 0
179059.0 409466.0 0
182122.0 407479.0 0
185524.0 408512.0 0
188986.0 409134.0 0
194547.0 406837.0 0
197891.0 406892.0 0
201285.0 406799.0 0
204649.0 406580.0 0
208078.0 406636.0 0
218130.0 407044.0 0
221191.0 405737.0 0
226883.0 406114.0 0
233000.0 406589.0 0
237385.0 408092.0 0
242963.0 408187.0 0
248796.0 408103.0 0
254652.0 407794.0 0
260499.0 407270.0 0
266363.0 406642.0 0
269529.0 408210.0 0
272124.0 406034.0 0
275286.0 407650.0 0
280585.0 406901.0 0
283928.0 407937.0 0
289631.0 406443.0 0
293053.0 407311.0 0
296433.0 408151.0 0
299736.0 409005.0 0
302981.0 409852.0 0
310994.0 407547.0 0
314568.0 408147.0 0
318158.0 408431.0 0
321398.0 408592.0 0
324683.0 408669.0 0
328005.0 408514.0 0
331133.0 407958.0 0
334170.0 407353.0 0
336574.0 409614.0 0
339777.0 408602.0 0
345511.0 409036.0 0
348556.0 407629.0 0
351681.0 409571.0 0
143790.0 412412.0 0
146689.0 410597.0 0
149541.0 411987.0 0
155334.0 411300.0 0
158300.0 412405.0 0
161146.0 410317.0 0
164169.0 411326.0 0
167493.0 411961.0 0
173183.0 410260.0 0
176271.0 411553.0 0
182073.0 410424.0 0
184835.0 411342.0 0
187667.0 411826.0 0
192447.0 409573.0 0
195832.0 409818.0 0
199187.0 409807.0 0
202527.0 409680.0 0
205801.0 409545.0 0
209105.0 409388.0 0
212112.0 409325.0 0
215037.0 408153.0 0
220672.0 409481.0 0
223737.0 408022.0 0
226496.0 409682.0 0
229674.0 408125.0 0
232020.0 410449.0 0
234811.0 409469.0 0
240274.0 410070.0 0
246010.0 410061.0 0
251871.0 409856.0 0
257723.0 409432.0 0
260798.0 411018.0 0
263572.0 408814.0 0
266666.0 410326.0 0
272852.0 409739.0 0
278173.0 409504.0 0
281626.0 410459.0 0
287340.0 408885.0 0
290782.0 409757.0 0
294211.0 410592.0 0
297611.0 411423.0 0
301018.0 412231.0 0
305892.0 409043.0 0
309206.0 409943.0 0
312728.0 410546.0 0
316322.0 410975.0 0
319832.0 411346.0 0
323275.0 411473.0 0
326711.0 411451.0 0
330073.0 411136.0 0
333314.0 410542.0 0
339027.0 411761.0 0
342439.0 410688.0 0
346122.0 411963.0 0
348860.0 410699.0 0
351928.0 412720.0 0
354756.0 411496.0 0
140910.0 414215.0 0
143812.0 415699.0 0
146668.0 413853.0 0
149602.0 415230.0 0
152461.0 413290.0 0
155449.0 414478.0 0
158506.0 415545.0 0
161354.0 413423.0 0
164569.0 414237.0 0
167744.0 414872.0 0
170503.0 412257.0 0
173612.0 413561.0 0
179307.0 412703.0 0
182271.0 413723.0 0
185373.0 414512.0 0
190822.0 412344.0 0
194011.0 412730.0 0
197264.0 412846.0 0
200588.0 412753.0 0
203932.0 412628.0 0
207303.0 412455.0 0
210684.0 412363.0 0
214198.0 411692.0 0
217441.0 410603.0 0
219694.0 413118.0 0
223066.0 411990.0 0
226150.0 412858.0 0
229340.0 411984.0 0
234275.0 413177.0 0
237389.0 411795.0 0
240211.0 413808.0 0
243197.0 411989.0 0
246242.0 413829.0 0
249077.0 411870.0 0
252134.0 413647.0 0
254928.0 411558.0 0
257980.0 413198.0 0
263908.0 412550.0 0
269767.0 411818.0 0
272787.0 413041.0 0
276039.0 412345.0 0
279502.0 413113.0 0
285101.0 411380.0 0
288590.0 412244.0 0
292072.0 413069.0 0
295548.0 413872.0 0
304666.0 412466.0 0
307780.0 412556.0 0
311136.0 413110.0 0
314617.0 413539.0 0
318125.0 413936.0 0
321667.0 414196.0 0
325213.0 414247.0 0
328788.0 414158.0 0
332211.0 413698.0 0
335642.0 412785.0 0
337803.0 415100.0 0
340888.0 414173.0 0
343707.0 413492.0 0
349129.0 413940.0 0
357788.0 413393.0 0
360808.0 415282.0 0
138047.0 416008.0 0
140970.0 417531.0 0
146753.0 417138.0 0
149750.0 418494.0 0
152597.0 416511.0 0
155646.0 417666.0 0
161657.0 416456.0 0
164832.0 417218.0 0
170869.0 415486.0 0
174055.0 416878.0 0
176699.0 414913.0 0
179717.0 416084.0 0
182818.0 416969.0 0
188647.0 414927.0 0
192026.0 415615.0 0
195250.0 415912.0 0
198616.0 415826.0 0
202038.0 415681.0 0
205507.0 415502.0 0
209014.0 415308.0 0
212661.0 414844.0 0
216252.0 414089.0 0
221374.0 415937.0 0
224579.0 415657.0 0
228229.0 415496.0 0
231589.0 414845.0 0
236940.0 415376.0 0
243305.0 415689.0 0
249284.0 415660.0 0
255206.0 415361.0 0
261021.0 414761.0 0
267107.0 414041.0 0
270460.0 415612.0 0
274323.0 415853.0 0
277667.0 415991.0 0
282984.0 413956.0 0
286487.0 414786.0 0
289999.0 415587.0 0
293518.0 416359.0 0
299051.0 414636.0 0
302704.0 415114.0 0
306221.0 415526.0 0
309571.0 415811.0 0
312998.0 416215.0 0
316455.0 416589.0 0
319953.0 416884.0 0
323516.0 416999.0 0
330896.0 416817.0 0
334466.0 415959.0 0
340425.0 417500.0 0
343438.0 416724.0 0
346432.0 415393.0 0
352045.0 415987.0 0
354916.0 414697.0 0
357892.0 416607.0 0
360933.0 418447.0 0
363871.0 417195.0 0
366975.0 419135.0 0
129366.0 421426.0 0
132326.0 419581.0 0
135193.0 417796.0 0
138137.0 419354.0 0
143917.0 419023.0 0
146920.0 420445.0 0
152795.0 419754.0 0
158755.0 418667.0 0
161899.0 419518.0 0
165076.0 420223.0 0
168025.0 417857.0 0
171239.0 418625.0 0
177168.0 418375.0 0
180211.0 419467.0 0
186112.0 417503.0 0
189518.0 417851.0 0
193064.0 418948.0 0
196569.0 418891.0 0
200093.0 418720.0 0
203643.0 418520.0 0
207226.0 418288.0 0
210882.0 417901.0 0
214525.0 417359.0 0
218043.0 416663.0 0
226678.0 418620.0 0
230332.0 418268.0 0
233916.0 417689.0 0
237322.0 418674.0 0
240276.0 417357.0 0
246310.0 417589.0 0
252393.0 417445.0 0
258269.0 417022.0 0
261326.0 418586.0 0
264049.0 416216.0 0
267035.0 417532.0 0
281068.0 416680.0 0
284521.0 417428.0 0
288017.0 418177.0 0
291544.0 418907.0 0
297069.0 417084.0 0
300713.0 417651.0 0
304330.0 418152.0 0
307909.0 418601.0 0
311378.0 418955.0 0
314811.0 419337.0 0
318218.0 419669.0 0
327150.0 416918.0 0
331398.0 419844.0 0
334205.0 418954.0 0
337337.0 418286.0 0
343046.0 419988.0 0
346180.0 418700.0 0
349199.0 417338.0 0
352048.0 419321.0 0
354976.0 417965.0 0
361042.0 421633.0 0
364022.0 420335.0 0
370109.0 421096.0 0
126310.0 423335.0 0
129323.0 424575.0 0
132372.0 422815.0 0
135303.0 421144.0 0
141083.0 420889.0 0
144089.0 422364.0 0
149973.0 421788.0 0
153069.0 423039.0 0
155879.0 420869.0 0
158990.0 421820.0 0
162127.0 422605.0 0
168276.0 420851.0 0
171541.0 421632.0 0
174519.0 420197.0 0
177708.0 421954.0 0
183416.0 420097.0 0
186723.0 420429.0 0
190070.0 420611.0 0
194663.0 421972.0 0
198191.0 421766.0 0
201762.0 421538.0 0
205375.0 421286.0 0
209037.0 420949.0 0
212696.0 420520.0 0
216293.0 420007.0 0
219781.0 419434.0 0
223181.0 418991.0 0
232174.0 421169.0 0
235604.0 421243.0 0
239860.0 421160.0 0
243180.0 419431.0 0
246459.0 421243.0 0
249478.0 419396.0 0
252626.0 421245.0 0
255502.0 419192.0 0
258638.0 420887.0 0
264373.0 420021.0 0
267372.0 421390.0 0
269721.0 418940.0 0
272755.0 418867.0 0
276054.0 419201.0 0
279328.0 419590.0 0
282698.0 420208.0 0
286142.0 420871.0 0
289644.0 421539.0 0
295109.0 419594.0 0
298741.0 420179.0 0
302395.0 420701.0 0
306069.0 421179.0 0
309740.0 421680.0 0
313235.0 422117.0 0
316630.0 422533.0 0
321656.0 419832.0 0
325082.0 419826.0 0
328392.0 419705.0 0
333515.0 422353.0 0
336671.0 421503.0 0
339930.0 420804.0 0
345808.0 421959.0 0
349001.0 420643.0 0
355084.0 421241.0 0
357998.0 419846.0 0
361101.0 424838.0 0
364143.0 423487.0 0
367150.0 422279.0 0
370298.0 424268.0 0
373256.0 423065.0 0
123198.0 425280.0 0
126204.0 426480.0 0
132389.0 426008.0 0
135369.0 424517.0 0
138248.0 422743.0 0
141242.0 424265.0 0
147151.0 423772.0 0
150288.0 425109.0 0
156182.0 424126.0 0
159323.0 425024.0 0
165286.0 423251.0 0
168474.0 423830.0 0
171746.0 424491.0 0
174868.0 423441.0 0
180943.0 422786.0 0
184370.0 423167.0 0
187864.0 423334.0 0
191513.0 422948.0 0
203478.0 424313.0 0
207140.0 423995.0 0
210809.0 423633.0 0
214445.0 423223.0 0
218019.0 422771.0 0
221526.0 422329.0 0
225040.0 421914.0 0
228595.0 421531.0 0
237396.0 424193.0 0
243441.0 422993.0 0
249596.0 423124.0 0
255838.0 422999.0 0
261775.0 422468.0 0
264942.0 423896.0 0
270779.0 422154.0 0
274111.0 422300.0 0
277488.0 422658.0 0
280872.0 423105.0 0
284308.0 423668.0 0
287794.0 424261.0 0
293198.0 422179.0 0
296811.0 422751.0 0
300462.0 423261.0 0
304151.0 423716.0 0
307877.0 424165.0 0
311616.0 424842.0 0
315069.0 425397.0 0
320015.0 422763.0 0
323420.0 422817.0 0
326796.0 422768.0 0
330093.0 422791.0 0
335674.0 424817.0 0
339006.0 423985.0 0
342514.0 423288.0 0
346352.0 424917.0 0
349202.0 423768.0 0
352148.0 422558.0 0
355142.0 424572.0 0
358076.0 423143.0 0
364217.0 426644.0 0
367285.0 425436.0 0
373444.0 426278.0 0
376399.0 425032.0 0
116841.0 429255.0 0
120019.0 427266.0 0
122966.0 428418.0 0
129263.0 427697.0 0
132370.0 429121.0 0
138356.0 426137.0 0
141359.0 427650.0 0
144288.0 425717.0 0
147450.0 427089.0 0
153457.0 426384.0 0
156639.0 427437.0 0
162502.0 425748.0 0
165722.0 426340.0 0
168961.0 426860.0 0
172298.0 427215.0 0
175390.0 426413.0 0
178572.0 425510.0 0
182150.0 425913.0 0
185755.0 426113.0 0
189423.0 425956.0 0
192980.0 425516.0 0
196321.0 424881.0 0
199865.0 424595.0 0
208876.0 426721.0 0
212533.0 426377.0 0
216149.0 426008.0 0
219718.0 425622.0 0
223261.0 425227.0 0
226799.0 424852.0 0
230330.0 424523.0 0
233814.0 424397.0 0
240711.0 424541.0 0
243166.0 427052.0 0
246415.0 424998.0 0
249794.0 426730.0 0
252879.0 425002.0 0
256145.0 426752.0 0
259079.0 424768.0 0
262372.0 426347.0 0
268366.0 424885.0 0
271952.0 425402.0 0
275462.0 425681.0 0
278959.0 426070.0 0
282445.0 426534.0 0
291333.0 424846.0 0
294923.0 425387.0 0
298556.0 425872.0 0
302223.0 426305.0 0
305914.0 426698.0 0
309639.0 427129.0 0
313475.0 428194.0 0
318464.0 425752.0 0
321904.0 425822.0 0
325324.0 425799.0 0
328722.0 425740.0 0
332209.0 425412.0 0
340765.0 426611.0 0
343769.0 426194.0 0
349248.0 427099.0 0
352198.0 425880.0 0
358075.0 426515.0 0
361091.0 428026.0 0
367371.0 428608.0 0
370433.0 427458.0 0
373545.0 429523.0 0
376557.0 428297.0 0
379518.0 426985.0 0
382604.0 428918.0 0
113685.0 431231.0 0
119795.0 430451.0 0
122788.0 431601.0 0
125941.0 429560.0 0
128931.0 430708.0 0
131922.0 432011.0 0
135422.0 427926.0 0
138318.0 429559.0 0
144526.0 429031.0 0
147800.0 430378.0 0
150689.0 428442.0 0
153972.0 429771.0 0
159881.0 428264.0 0
163225.0 428906.0 0
166611.0 429448.0 0
170089.0 429821.0 0
173705.0 429785.0 0
177032.0 429114.0 0
180253.0 428787.0 0
183763.0 428959.0 0
187375.0 428938.0 0
190951.0 428680.0 0
194466.0 428232.0 0
197939.0 427721.0 0
201541.0 427378.0 0
205202.0 427050.0 0
214211.0 429189.0 0
217811.0 428864.0 0
221383.0 428519.0 0
224933.0 428173.0 0
228470.0 427858.0 0
231999.0 427643.0 0
235596.0 427465.0 0
239219.0 427512.0 0
246695.0 428559.0 0
252998.0 428802.0 0
259560.0 428614.0 0
265869.0 427562.0 0
269614.0 428224.0 0
273338.0 428659.0 0
276968.0 429012.0 0
280545.0 429436.0 0
285953.0 427056.0 0
289494.0 427587.0 0
293074.0 428093.0 0
296688.0 428552.0 0
300326.0 428964.0 0
303973.0 429342.0 0
307590.0 429696.0 0
311154.0 430046.0 0
316902.0 428773.0 0
320423.0 428834.0 0
323904.0 428833.0 0
327357.0 428752.0 0
330829.0 428480.0 0
334280.0 428011.0 0
337623.0 427379.0 0
339836.0 429954.0 0
343064.0 429351.0 0
346329.0 428385.0 0
352093.0 429287.0 0
355100.0 427981.0 0
357989.0 429973.0 0
361019.0 431124.0 0
364246.0 429788.0 0
367414.0 431802.0 0
370494.0 430683.0 0
376575.0 431611.0 0
379617.0 430309.0 0
385654.0 430830.0 0
110537.0 433202.0 0
113557.0 434506.0 0
116668.0 432490.0 0
119708.0 433691.0 0
125823.0 432736.0 0
128898.0 433901.0 0
135234.0 431475.0 0
138401.0 432898.0 0
141458.0 430954.0 0
144660.0 432286.0 0
151174.0 431754.0 0
154653.0 433183.0 0
157280.0 430749.0 0
160767.0 431429.0 0
164266.0 432015.0 0
167821.0 432436.0 0
171454.0 432599.0 0
175044.0 432467.0 0
178416.0 432110.0 0
181809.0 431941.0 0
185362.0 431941.0 0
188943.0 431827.0 0
192462.0 431461.0 0
195993.0 430972.0 0
199570.0 430491.0 0
203233.0 430120.0 0
206912.0 429799.0 0
210576.0 429497.0 0
219424.0 431778.0 0
222988.0 431474.0 0
226530.0 431181.0 0
230058.0 430937.0 0
233596.0 430739.0 0
237125.0 430642.0 0
240701.0 430530.0 0
244095.0 430591.0 0
249753.0 430354.0 0
256303.0 430318.0 0
263141.0 430091.0 0
267279.0 430951.0 0
271191.0 431495.0 0
284102.0 429901.0 0
287667.0 430386.0 0
291254.0 430858.0 0
294865.0 431295.0 0
298492.0 431691.0 0
302120.0 432059.0 0
305733.0 432412.0 0
309312.0 432725.0 0
312950.0 432580.0 0
315998.0 431940.0 0
319309.0 431891.0 0
322712.0 431884.0 0
326147.0 431808.0 0
329606.0 431578.0 0
333065.0 431178.0 0
336488.0 430634.0 0
342323.0 432504.0 0
345705.0 431614.0 0
349002.0 430524.0 0
351748.0 432678.0 0
354979.0 431439.0 0
361189.0 433980.0 0
364318.0 432899.0 0
370357.0 433984.0 0
373487.0 432830.0 0
379574.0 433676.0 0
382645.0 432303.0 0
385628.0 434286.0 0
388658.0 432713.0 0
104231.0 437150.0 0
107386.0 435175.0 0
110440.0 436510.0 0
116636.0 435762.0 0
119777.0 436960.0 0
122805.0 434843.0 0
125963.0 435983.0 0
129292.0 436984.0 0
132288.0 434804.0 0
135485.0 434991.0 0
141637.0 434274.0 0
144848.0 435637.0 0
147839.0 433575.0 0
150875.0 434859.0 0
158345.0 433901.0 0
161929.0 434567.0 0
165516.0 435061.0 0
169146.0 435348.0 0
172778.0 435432.0 0
176343.0 435335.0 0
179828.0 435124.0 0
183347.0 434996.0 0
186936.0 434926.0 0
190524.0 434760.0 0
193990.0 434232.0 0
197576.0 433669.0 0
201242.0 433205.0 0
204924.0 432874.0 0
208586.0 432601.0 0
212223.0 432341.0 0
215836.0 432069.0 0
224538.0 434490.0 0
228076.0 434250.0 0
231607.0 434046.0 0
235130.0 433905.0 0
238666.0 433796.0 0
242178.0 433781.0 0
245773.0 433575.0 0
249217.0 433664.0 0
252785.0 432703.0 0
256247.0 433664.0 0
259616.0 432384.0 0
262904.0 433685.0 0
266285.0 434197.0 0
269704.0 434507.0 0
274974.0 431916.0 0
278638.0 432334.0 0
282251.0 432774.0 0
285848.0 433225.0 0
289454.0 433670.0 0
293076.0 434089.0 0
296710.0 434473.0 0
300349.0 434828.0 0
303987.0 435171.0 0
307631.0 435479.0 0
314912.0 435404.0 0
318235.0 435076.0 0
321623.0 434995.0 0
325050.0 434916.0 0
328497.0 434713.0 0
331963.0 434347.0 0
335439.0 433826.0 0
338916.0 433161.0 0
344982.0 434817.0 0
348400.0 433816.0 0
354555.0 434786.0 0
357942.0 433545.0 0
360419.0 436782.0 0
363934.0 436137.0 0
367184.0 435095.0 0
370018.0 437319.0 0
373252.0 436176.0 0
376438.0 434964.0 0
379374.0 437074.0 0
382544.0 435734.0 0
391615.0 434579.0 0
394541.0 436393.0 0
101068.0 439130.0 0
107311.0 438517.0 0
110457.0 439841.0 0
113554.0 437809.0 0
116729.0 439056.0 0
122973.0 438104.0 0
126263.0 439165.0 0
132651.0 437787.0 0
135851.0 438458.0 0
138725.0 436291.0 0
141972.0 437696.0 0
147985.0 436983.0 0
151018.0 438444.0 0
153553.0 436213.0 0
156564.0 436597.0 0
159836.0 437232.0 0
163276.0 437750.0 0
166836.0 438101.0 0
177699.0 438262.0 0
181286.0 438120.0 0
184899.0 438011.0 0
188551.0 437911.0 0
192194.0 437729.0 0
195577.0 436893.0 0
199240.0 436302.0 0
202916.0 435945.0 0
206565.0 435698.0 0
210192.0 435478.0 0
213805.0 435251.0 0
217402.0 435008.0 0
220980.0 434750.0 0
233136.0 437200.0 0
236670.0 437082.0 0
240195.0 437017.0 0
243745.0 436912.0 0
247219.0 436872.0 0
250734.0 436742.0 0
254081.0 436490.0 0
257719.0 436745.0 0
261076.0 436768.0 0
264528.0 437230.0 0
273240.0 434837.0 0
276841.0 435253.0 0
280449.0 435675.0 0
284058.0 436101.0 0
287676.0 436521.0 0
291310.0 436923.0 0
294957.0 437295.0 0
298613.0 437639.0 0
302272.0 437962.0 0
311320.0 435572.0 0
334404.0 437022.0 0
337981.0 436299.0 0
341502.0 435633.0 0
347664.0 437090.0 0
351111.0 435997.0 0
353799.0 438134.0 0
357187.0 437063.0 0
363272.0 439228.0 0
366714.0 438381.0 0
372856.0 439541.0 0
376137.0 438344.0 0
385493.0 437792.0 0
388575.0 436246.0 0
394429.0 439826.0 0
397581.0 438286.0 0
400718.0 440242.0 0
97893.2 441118.0 0
104177.0 440528.0 0
107354.0 441880.0 0
113663.0 441133.0 0
119953.0 440248.0 0
123224.0 441358.0 0
129586.0 440112.0 0
132885.0 440964.0 0
139092.0 439717.0 0
142357.0 441176.0 0
145175.0 439112.0 0
148344.0 440500.0 0
154307.0 439496.0 0
157578.0 440019.0 0
170458.0 438294.0 0
174089.0 438342.0 0
193950.0 440771.0 0
197196.0 439390.0 0
200860.0 439002.0 0
204488.0 438788.0 0
208103.0 438606.0 0
211715.0 438419.0 0
215321.0 438216.0 0
218917.0 437999.0 0
222496.0 437775.0 0
226056.0 437556.0 0
229602.0 437358.0 0
268041.0 437601.0 0
271566.0 437895.0 0
275112.0 438235.0 0
278695.0 438622.0 0
282299.0 439019.0 0
285920.0 439413.0 0
289560.0 439794.0 0
293218.0 440151.0 0
305945.0 438257.0 0
309661.0 438434.0 0
313369.0 438453.0 0
316980.0 438332.0 0
320458.0 438153.0 0
323941.0 438052.0 0
327429.0 437893.0 0
330899.0 437553.0 0
337039.0 439385.0 0
340651.0 438745.0 0
344181.0 438010.0 0
346860.0 440389.0 0
350323.0 439347.0 0
353068.0 441423.0 0
356527.0 440441.0 0
359868.0 439876.0 0
366119.0 441616.0 0
369523.0 440652.0 0
379035.0 440475.0 0
382311.0 439175.0 0
385253.0 441302.0 0
388417.0 439858.0 0
391456.0 438200.0 0
394397.0 443132.0 0
397594.0 441615.0 0
403921.0 442244.0 0
94706.5 443113.0 0
97874.1 444567.0 0
101032.0 442543.0 0
104237.0 443922.0 0
110589.0 443195.0 0
113870.0 444482.0 0
116912.0 442376.0 0
120197.0 443557.0 0
126522.0 442388.0 0
129827.0 443328.0 0
133125.0 444229.0 0
136151.0 441869.0 0
139443.0 443127.0 0
145576.0 442638.0 0
151697.0 441859.0 0
160950.0 440532.0 0
164468.0 440895.0 0
168082.0 441135.0 0
171747.0 441260.0 0
175430.0 441277.0 0
179110.0 441207.0 0
182786.0 441100.0 0
186488.0 441000.0 0
190220.0 440894.0 0
198588.0 441966.0 0
202269.0 441840.0 0
205909.0 441713.0 0
209544.0 441566.0 0
213175.0 441401.0 0
216797.0 441221.0 0
220406.0 441032.0 0
223997.0 440841.0 0
227570.0 440660.0 0
231129.0 440502.0 0
234681.0 440377.0 0
238227.0 440290.0 0
241780.0 440209.0 0
245312.0 440156.0 0
248852.0 440072.0 0
252364.0 439967.0 0
255812.0 439917.0 0
259329.0 440105.0 0
262770.0 440322.0 0
266286.0 440670.0 0
269838.0 440982.0 0
273394.0 441287.0 0
276965.0 441623.0 0
280563.0 441984.0 0
284184.0 442348.0 0
287825.0 442704.0 0
296889.0 440483.0 0
300570.0 440791.0 0
304265.0 441072.0 0
307994.0 441276.0 0
311737.0 441377.0 0
315455.0 441379.0 0
319108.0 441299.0 0
322699.0 441180.0 0
326285.0 441056.0 0
329850.0 440820.0 0
333353.0 440277.0 0
336101.0 442395.0 0
339788.0 441817.0 0
343377.0 441213.0 0
349529.0 442745.0 0
352356.0 444611.0 0
355879.0 443717.0 0
359297.0 443069.0 0
362707.0 442419.0 0
368937.0 443991.0 0
372331.0 442924.0 0
375697.0 441744.0 0
378570.0 443864.0 0
381959.0 442605.0 0
388193.0 443476.0 0
391322.0 441896.0 0
397676.0 444887.0 0
400828.0 443547.0 0
403994.0 445592.0 0
407135.0 444257.0 0
88306.1 447122.0 0
91510.3 445115.0 0
94706.2 446602.0 0
101110.0 445971.0 0
104407.0 447330.0 0
107504.0 445258.0 0
110822.0 446570.0 0
117186.0 445732.0 0
120511.0 446922.0 0
123498.0 444663.0 0
126798.0 445684.0 0
130085.0 446625.0 0
136398.0 445237.0 0
142713.0 444685.0 0
146033.0 446113.0 0
148911.0 443871.0 0
155098.0 442811.0 0
158473.0 443366.0 0
162005.0 443729.0 0
165642.0 443982.0 0
169345.0 444145.0 0
173081.0 444220.0 0
176826.0 444217.0 0
180569.0 444156.0 0
184315.0 444068.0 0
188078.0 443980.0 0
191854.0 443908.0 0
195621.0 443943.0 0
203563.0 444749.0 0
207272.0 444670.0 0
210956.0 444551.0 0
214621.0 444410.0 0
218268.0 444257.0 0
221896.0 444097.0 0
225506.0 443940.0 0
229098.0 443795.0 0
232677.0 443670.0 0
236249.0 443574.0 0
239821.0 443497.0 0
243385.0 443440.0 0
246948.0 443378.0 0
250497.0 443314.0 0
254014.0 443280.0 0
257503.0 443339.0 0
261013.0 443539.0 0
264524.0 443784.0 0
268078.0 444076.0 0
271651.0 444369.0 0
275233.0 444672.0 0
278833.0 444994.0 0
291487.0 443044.0 0
295168.0 443361.0 0
298863.0 443655.0 0
302574.0 443920.0 0
306312.0 444134.0 0
310070.0 444274.0 0
313825.0 444338.0 0
317560.0 444333.0 0
321264.0 444270.0 0
324947.0 444164.0 0
328643.0 444019.0 0
332328.0 443682.0 0
335448.0 445280.0 0
339010.0 444849.0 0
342583.0 444371.0 0
346123.0 443738.0 0
351970.0 447639.0 0
355359.0 446916.0 0
358738.0 446296.0 0
362127.0 445670.0 0
365536.0 444917.0 0
371706.0 446349.0 0
375128.0 445166.0 0
381487.0 446001.0 0
384898.0 444792.0 0
391117.0 445676.0 0
394433.0 446215.0 0
397455.0 448201.0 0
400777.0 446900.0 0
407162.0 447649.0 0
410357.0 446276.0 0
413595.0 448305.0 0
85096.7 449133.0 0
91526.7 448648.0 0
94816.0 450106.0 0
97969.3 448032.0 0
101293.0 449412.0 0
107759.0 448653.0 0
111162.0 449960.0 0
114182.0 447859.0 0
117563.0 449145.0 0
123825.0 448039.0 0
127114.0 449061.0 0
133349.0 447556.0 0
136588.0 448614.0 0
139641.0 446501.0 0
142887.0 448186.0 0
149516.0 447070.0 0
152433.0 445286.0 0
155818.0 446199.0 0
159435.0 446574.0 0
163143.0 446834.0 0
166901.0 447016.0 0
170685.0 447130.0 0
174478.0 447177.0 0
178270.0 447166.0 0
182057.0 447115.0 0
185839.0 447047.0 0
189620.0 446991.0 0
193392.0 446998.0 0
197164.0 447156.0 0
199800.0 444723.0 0
204916.0 447690.0 0
208676.0 447647.0 0
212396.0 447558.0 0
216088.0 447446.0 0
219758.0 447321.0 0
223406.0 447192.0 0
227035.0 447067.0 0
230648.0 446953.0 0
234250.0 446858.0 0
237846.0 446782.0 0
241436.0 446723.0 0
245023.0 446673.0 0
248598.0 446630.0 0
252154.0 446608.0 0
255687.0 446641.0 0
259211.0 446761.0 0
262752.0 446965.0 0
266309.0 447205.0 0
269890.0 447473.0 0
282455.0 445326.0 0
286100.0 445656.0 0
289765.0 445975.0 0
293450.0 446276.0 0
297154.0 446555.0 0
300875.0 446807.0 0
304617.0 447019.0 0
308379.0 447177.0 0
312150.0 447277.0 0
315915.0 447318.0 0
319667.0 447302.0 0
323401.0 447241.0 0
327123.0 447143.0 0
330837.0 447030.0 0
334211.0 447920.0 0
337942.0 447900.0 0
341577.0 447514.0 0
345214.0 447019.0 0
348802.0 446308.0 0
354558.0 450155.0 0
357997.0 449586.0 0
361414.0 448989.0 0
364848.0 448278.0 0
368294.0 447395.0 0
374468.0 448651.0 0
377992.0 447224.0 0
380917.0 449366.0 0
384400.0 448248.0 0
387812.0 447067.0 0
390631.0 449465.0 0
393986.0 449255.0 0
400457.0 450233.0 0
403867.0 448959.0 0
410360.0 449715.0 0
416849.0 450345.0 0
81879.1 451149.0 0
85155.4 452771.0 0
88341.6 450704.0 0
91653.0 452198.0 0
98165.9 451508.0 0
104674.0 450749.0 0
108107.0 452055.0 0
114601.0 451269.0 0
120920.0 450371.0 0
124247.0 451507.0 0
130359.0 450007.0 0
133542.0 450958.0 0
136694.0 451945.0 0
139905.0 449815.0 0
145960.0 449474.0 0
149370.0 450017.0 0
152971.0 448906.0 0
156797.0 449396.0 0
160623.0 449677.0 0
164446.0 449881.0 0
168273.0 450023.0 0
172101.0 450109.0 0
175926.0 450143.0 0
179742.0 450135.0 0
183546.0 450101.0 0
187337.0 450065.0 0
191111.0 450063.0 0
194873.0 450142.0 0
198652.0 450332.0 0
201093.0 447621.0 0
228590.0 450218.0 0
232225.0 450132.0 0
235849.0 450061.0 0
239466.0 450005.0 0
243076.0 449962.0 0
246677.0 449930.0 0
250264.0 449917.0 0
253834.0 449941.0 0
257392.0 450024.0 0
260952.0 450173.0 0
273486.0 447753.0 0
277097.0 448044.0 0
280725.0 448345.0 0
284375.0 448648.0 0
288045.0 448945.0 0
291736.0 449227.0 0
295445.0 449491.0 0
299173.0 449732.0 0
302919.0 449939.0 0
306683.0 450105.0 0
310458.0 450223.0 0
314237.0 450293.0 0
318008.0 450317.0 0
321759.0 450298.0 0
325480.0 450252.0 0
329149.0 450214.0 0
332650.0 450587.0 0
336431.0 450785.0 0
340209.0 450628.0 0
343905.0 450254.0 0
347558.0 449805.0 0
350923.0 450408.0 0
356975.0 452866.0 0
360500.0 452344.0 0
364000.0 451683.0 0
367541.0 450821.0 0
371041.0 449848.0 0
377358.0 450547.0 0
383864.0 451684.0 0
387280.0 450630.0 0
393438.0 452464.0 0
396948.0 451484.0 0
403560.0 452277.0 0
407016.0 451030.0 0
410207.0 453141.0 0
413583.0 451805.0 0
420110.0 452391.0 0
75450.7 455178.0 0
78651.4 453172.0 0
81964.5 454841.0 0
88487.7 454308.0 0
95026.5 453625.0 0
98448.1 454999.0 0
101569.0 452864.0 0
105022.0 454176.0 0
108519.0 455460.0 0
111587.0 453358.0 0
115096.0 454705.0 0
118039.0 452635.0 0
121423.0 453906.0 0
127527.0 452537.0 0
130774.0 453503.0 0
134040.0 454470.0 0
139923.0 452838.0 0
143217.0 451966.0 0
146911.0 452664.0 0
150800.0 452664.0 0
154394.0 452268.0 0
158203.0 452537.0 0
162035.0 452754.0 0
165876.0 452918.0 0
169720.0 453035.0 0
173563.0 453106.0 0
177399.0 453137.0 0
181222.0 453139.0 0
185029.0 453130.0 0
188817.0 453135.0 0
192590.0 453184.0 0
196365.0 453297.0 0
200171.0 453459.0 0
202529.0 450599.0 0
206355.0 450671.0 0
210132.0 450654.0 0
213873.0 450594.0 0
217585.0 450510.0 0
221274.0 450414.0 0
224941.0 450314.0 0
264527.0 450375.0 0
268117.0 450607.0 0
271725.0 450860.0 0
275348.0 451125.0 0
278987.0 451399.0 0
282645.0 451677.0 0
286322.0 451951.0 0
290018.0 452214.0 0
293734.0 452463.0 0
297467.0 452691.0 0
301219.0 452892.0 0
304986.0 453060.0 0
308765.0 453189.0 0
312550.0 453278.0 0
316332.0 453329.0 0
320100.0 453347.0 0
323842.0 453344.0 0
362931.0 455134.0 0
366590.0 454233.0 0
370218.0 453356.0 0
373774.0 452278.0 0
376911.0 453735.0 0
380407.0 452694.0 0
386716.0 454173.0 0
390096.0 453157.0 0
396424.0 454839.0 0
400009.0 453506.0 0
403173.0 455553.0 0
406730.0 454377.0 0
413412.0 455303.0 0
416814.0 453926.0 0
420027.0 456078.0 0
423360.0 454433.0 0
69036.4 459197.0 0
78782.4 456932.0 0
85328.7 456435.0 0
91881.8 455767.0 0
95327.8 457164.0 0
101916.0 456327.0 0
105422.0 457611.0 0
112050.0 456754.0 0
115626.0 458120.0 0
118595.0 456211.0 0
124758.0 455059.0 0
128098.0 456092.0 0
131485.0 457052.0 0
137501.0 455294.0 0
141232.0 455589.0 0
144663.0 455403.0 0
148456.0 455602.0 0
152236.0 455581.0 0
155901.0 455500.0 0
159685.0 455675.0 0
163509.0 455840.0 0
167352.0 455972.0 0
171201.0 456069.0 0
175047.0 456132.0 0
204022.0 453630.0 0
207844.0 453696.0 0
211629.0 453698.0 0
215383.0 453662.0 0
219111.0 453603.0 0
222816.0 453534.0 0
226501.0 453461.0 0
230170.0 453391.0 0
233826.0 453330.0 0
237471.0 453281.0 0
241107.0 453244.0 0
244734.0 453221.0 0
248349.0 453214.0 0
251951.0 453235.0 0
255542.0 453297.0 0
259130.0 453411.0 0
262723.0 453573.0 0
266329.0 453772.0 0
269950.0 453995.0 0
273585.0 454235.0 0
277236.0 454484.0 0
280904.0 454738.0 0
284590.0 454990.0 0
288294.0 455235.0 0
292016.0 455468.0 0
295756.0 455683.0 0
299512.0 455876.0 0
327539.0 453351.0 0
331154.0 453528.0 0
334860.0 453654.0 0
338653.0 453638.0 0
342407.0 453436.0 0
346065.0 453129.0 0
349559.0 453217.0 0
353300.0 453191.0 0
359379.0 455678.0 0
365462.0 457600.0 0
369185.0 456829.0 0
372819.0 455971.0 0
376229.0 456768.0 0
379813.0 456032.0 0
383283.0 455127.0 0
389538.0 456763.0 0
392963.0 455897.0 0
399548.0 456752.0 0
406383.0 457711.0 0
409925.0 456555.0 0
416588.0 457522.0 0
423213.0 458248.0 0
426586.0 456460.0 0
429781.0 458456.0 0
65791.2 461224.0 0
72244.9 457179.0 0
75621.6 459009.0 0
82169.8 458575.0 0
85606.6 460127.0 0
88741.2 457936.0 0
92208.5 459360.0 0
98814.8 458509.0 0
102338.0 459809.0 0
108944.0 458873.0 0
112478.0 460129.0 0
116005.0 461447.0 0
121981.0 457533.0 0
125402.0 458664.0 0
128891.0 459645.0 0
135039.0 457829.0 0
138754.0 458366.0 0
142453.0 458615.0 0
146109.0 458562.0 0
149879.0 458644.0 0
178885.0 456167.0 0
182708.0 456186.0 0
186514.0 456205.0 0
190305.0 456247.0 0
194092.0 456326.0 0
197891.0 456442.0 0
201712.0 456577.0 0
205549.0 456700.0 0
209367.0 456763.0 0
213158.0 456778.0 0
216923.0 456761.0 0
220665.0 456726.0 0
224386.0 456680.0 0
228088.0 456631.0 0
231776.0 456586.0 0
235450.0 456547.0 0
239114.0 456519.0 0
242767.0 456503.0 0
246410.0 456502.0 0
250042.0 456522.0 0
253663.0 456574.0 0
257279.0 456664.0 0
260896.0 456796.0 0
264521.0 456963.0 0
268157.0 457158.0 0
271807.0 457372.0 0
275471.0 457597.0 0
279150.0 457828.0 0
282846.0 458060.0 0
286559.0 458287.0 0
303285.0 456042.0 0
307069.0 456177.0 0
310861.0 456278.0 0
314652.0 456348.0 0
318435.0 456392.0 0
322199.0 456420.0 0
325932.0 456450.0 0
329622.0 456550.0 0
333339.0 456636.0 0
337097.0 456638.0 0
340867.0 456544.0 0
344582.0 456357.0 0
348200.0 456272.0 0
351896.0 456147.0 0
355696.0 455992.0 0
361678.0 458681.0 0
371677.0 459603.0 0
375206.0 459751.0 0
378912.0 459306.0 0
382526.0 458560.0 0
386059.0 457688.0 0
392378.0 459431.0 0
395937.0 458377.0 0
399236.0 459936.0 0
402814.0 458810.0 0
409510.0 459991.0 0
413072.0 458812.0 0
419713.0 459793.0 0
426394.0 460414.0 0
435050.0 461729.0 0
62500.9 463280.0 0
69249.1 463058.0 0
72450.9 461078.0 0
79021.3 460745.0 0
89096.4 461587.0 0
95720.7 460724.0 0
99268.7 462039.0 0
105877.0 461079.0 0
109415.0 462321.0 0
112945.0 463540.0 0
119173.0 459936.0 0
122665.0 461203.0 0
126233.0 462246.0 0
132501.0 460440.0 0
136214.0 461069.0 0
153635.0 458661.0 0
157371.0 458684.0 0
161169.0 458811.0 0
164999.0 458939.0 0
168846.0 459047.0 0
172697.0 459131.0 0
176544.0 459191.0 0
180381.0 459235.0 0
184205.0 459273.0 0
188017.0 459319.0 0
191820.0 459384.0 0
195625.0 459475.0 0
199442.0 459586.0 0
203269.0 459703.0 0
207102.0 459803.0 0
210920.0 459864.0 0
214717.0 459890.0 0
218492.0 459891.0 0
222246.0 459875.0 0
225982.0 459851.0 0
229700.0 459825.0 0
233405.0 459801.0 0
237097.0 459784.0 0
240777.0 459776.0 0
244447.0 459781.0 0
248107.0 459804.0 0
251758.0 459850.0 0
255402.0 459926.0 0
259045.0 460035.0 0
262691.0 460176.0 0
266345.0 460345.0 0
270010.0 460534.0 0
273688.0 460736.0 0
290289.0 458503.0 0
294036.0 458706.0 0
297799.0 458891.0 0
301576.0 459052.0 0
305366.0 459188.0 0
309164.0 459297.0 0
312965.0 459380.0 0
316762.0 459441.0 0
320546.0 459487.0 0
324312.0 459532.0 0
328054.0 459602.0 0
331800.0 459665.0 0
335565.0 459679.0 0
339336.0 459627.0 0
343088.0 459514.0 0
346788.0 459395.0 0
350496.0 459226.0 0
354249.0 458984.0 0
358112.0 458893.0 0
364339.0 460886.0 0
368019.0 460245.0 0
377741.0 462506.0 0
381503.0 461920.0 0
385189.0 461162.0 0
388809.0 460312.0 0
395176.0 462051.0 0
398695.0 463017.0 0
402355.0 462115.0 0
405935.0 461083.0 0
412531.0 462355.0 0
416142.0 461141.0 0
419125.0 463538.0 0
422790.0 462083.0 0
431503.0 461750.0 0
438318.0 463779.0 0
55843.7 467446.0 0
59182.6 465356.0 0
62631.8 467145.0 0
65938.0 465062.0 0
69397.8 466874.0 0
75863.4 462906.0 0
82491.0 462350.0 0
86001.8 463848.0 0
92634.0 462976.0 0
96208.9 464304.0 0
99814.0 465590.0 0
102842.0 463322.0 0
106426.0 464594.0 0
110004.0 465821.0 0
116538.0 464666.0 0
119983.0 463784.0 0
123561.0 464882.0 0
129892.0 463087.0 0
139960.0 461498.0 0
143740.0 461672.0 0
147492.0 461688.0 0
151277.0 461747.0 0
155059.0 461787.0 0
158844.0 461844.0 0
162662.0 461947.0 0
166503.0 462052.0 0
170354.0 462146.0 0
174207.0 462223.0 0
178055.0 462285.0 0
181894.0 462340.0 0
185724.0 462395.0 0
189544.0 462459.0 0
193363.0 462539.0 0
197184.0 462635.0 0
201013.0 462741.0 0
204846.0 462846.0 0
208679.0 462936.0 0
212499.0 462997.0 0
216303.0 463033.0 0
220087.0 463049.0 0
223853.0 463051.0 0
227603.0 463047.0 0
231337.0 463041.0 0
235057.0 463037.0 0
238765.0 463040.0 0
242463.0 463053.0 0
246150.0 463079.0 0
249828.0 463123.0 0
253500.0 463191.0 0
277380.0 460946.0 0
281087.0 461158.0 0
284810.0 461367.0 0
288549.0 461569.0 0
292304.0 461759.0 0
296074.0 461933.0 0
299858.0 462090.0 0
303654.0 462224.0 0
307459.0 462336.0 0
311269.0 462427.0 0
315079.0 462498.0 0
318882.0 462557.0 0
322674.0 462610.0 0
326454.0 462669.0 0
330232.0 462721.0 0
334019.0 462742.0 0
337808.0 462716.0 0
341588.0 462641.0 0
345346.0 462531.0 0
349094.0 462365.0 0
352837.0 462118.0 0
356577.0 461766.0 0
362802.0 463901.0 0
366657.0 463632.0 0
370357.0 463099.0 0
373963.0 462840.0 0
380303.0 465216.0 0
384095.0 464571.0 0
387834.0 463815.0 0
391523.0 462996.0 0
401585.0 465414.0 0
405274.0 464508.0 0
408909.0 463475.0 0
415452.0 464790.0 0
425161.0 465019.0 0
428477.0 463677.0 0
431437.0 466167.0 0
434967.0 465366.0 0
441581.0 465831.0 0
52486.2 469547.0 0
59316.6 469254.0 0
66110.4 468923.0 0
72737.2 465077.0 0
76260.8 466846.0 0
79357.0 464583.0 0
82905.9 466134.0 0
89558.2 465264.0 0
93153.6 466612.0 0
96781.0 467902.0 0
103447.0 466859.0 0
107103.0 468152.0 0
113616.0 466957.0 0
117316.0 467868.0 0
120950.0 467619.0 0
127257.0 465762.0 0
133631.0 463774.0 0
137408.0 464305.0 0
141237.0 464623.0 0
145071.0 464764.0 0
148882.0 464816.0 0
152698.0 464874.0 0
156510.0 464930.0 0
160330.0 465000.0 0
164168.0 465091.0 0
168019.0 465183.0 0
171876.0 465268.0 0
175732.0 465343.0 0
179584.0 465411.0 0
183429.0 465476.0 0
187266.0 465544.0 0
191099.0 465621.0 0
194931.0 465709.0 0
198766.0 465808.0 0
202604.0 465911.0 0
206444.0 466010.0 0
210279.0 466094.0 0
257168.0 463285.0 0
260837.0 463406.0 0
264511.0 463552.0 0
268194.0 463718.0 0
271887.0 463899.0 0
275593.0 464089.0 0
279312.0 464282.0 0
283046.0 464475.0 0
286794.0 464661.0 0
290558.0 464839.0 0
294335.0 465004.0 0
298127.0 465153.0 0
301930.0 465284.0 0
305742.0 465397.0 0
309561.0 465491.0 0
313382.0 465569.0 0
317202.0 465634.0 0
321016.0 465692.0 0
324825.0 465747.0 0
328632.0 465794.0 0
332444.0 465820.0 0
336258.0 465810.0 0
340068.0 465760.0 0
343869.0 465668.0 0
347669.0 465517.0 0
351479.0 465285.0 0
355314.0 464923.0 0
359192.0 464121.0 0
365193.0 466879.0 0
369001.0 466502.0 0
372723.0 466120.0 0
376485.0 465712.0 0
382865.0 467936.0 0
386676.0 467270.0 0
390448.0 466542.0 0
394163.0 465744.0 0
397816.0 466069.0 0
404358.0 467926.0 0
408096.0 466992.0 0
411785.0 465941.0 0
418197.0 467361.0 0
421740.0 466221.0 0
428035.0 467606.0 0
434639.0 469087.0 0
438157.0 467571.0 0
441384.0 469728.0 0
444861.0 467889.0 0
448172.0 469961.0 0
49110.7 471660.0 0
55980.3 471376.0 0
62823.5 471042.0 0
66379.5 472799.0 0
69648.7 470666.0 0
73201.9 469174.0 0
79838.6 468453.0 0
86493.1 467589.0 0
90108.7 468964.0 0
93751.3 470268.0 0
100441.0 469154.0 0
104143.0 470396.0 0
110769.0 469338.0 0
114520.0 470357.0 0
118355.0 471133.0 0
131024.0 466495.0 0
134829.0 467090.0 0
138688.0 467503.0 0
142576.0 467750.0 0
146451.0 467880.0 0
150303.0 467951.0 0
154148.0 468018.0 0
157989.0 468085.0 0
161835.0 468161.0 0
165690.0 468247.0 0
169551.0 468333.0 0
173414.0 468415.0 0
177276.0 468492.0 0
181134.0 468565.0 0
184986.0 468639.0 0
188834.0 468717.0 0
192679.0 468803.0 0
196523.0 468896.0 0
200369.0 468996.0 0
214104.0 466159.0 0
217914.0 466204.0 0
221708.0 466233.0 0
225485.0 466252.0 0
229248.0 466266.0 0
232996.0 466278.0 0
236732.0 466294.0 0
240456.0 466316.0 0
244170.0 466348.0 0
247875.0 466393.0 0
251573.0 466457.0 0
255267.0 466541.0 0
258959.0 466647.0 0
262654.0 466775.0 0
266356.0 466922.0 0
270065.0 467084.0 0
273786.0 467255.0 0
277518.0 467431.0 0
281264.0 467607.0 0
285023.0 467780.0 0
288795.0 467945.0 0
292582.0 468100.0 0
296380.0 468242.0 0
300191.0 468368.0 0
304011.0 468479.0 0
307838.0 468574.0 0
311670.0 468655.0 0
315504.0 468724.0 0
319337.0 468784.0 0
323168.0 468838.0 0
327000.0 468883.0 0
330836.0 468911.0 0
334675.0 468913.0 0
338512.0 468881.0 0
342347.0 468808.0 0
346183.0 468678.0 0
350022.0 468470.0 0
353870.0 468151.0 0
357725.0 467628.0 0
361435.0 467243.0 0
367602.0 469826.0 0
371408.0 469440.0 0
375205.0 469000.0 0
379027.0 468509.0 0
385414.0 470694.0 0
389235.0 470037.0 0
393017.0 469375.0 0
396727.0 469200.0 0
400557.0 468691.0 0
407104.0 470501.0 0
410868.0 469550.0 0
414568.0 468497.0 0
420961.0 470059.0 0
424535.0 468893.0 0
431023.0 470138.0 0
437824.0 471409.0 0
444665.0 471851.0 0
451532.0 472062.0 0
52623.3 473510.0 0
59506.6 473180.0 0
63072.5 474957.0 0
70007.5 474487.0 0
76785.3 470811.0 0
80408.5 472348.0 0
83447.0 469951.0 0
87077.5 471360.0 0
90733.3 472687.0 0
97419.9 471514.0 0
101117.0 472714.0 0
107893.0 471740.0 0
111688.0 472828.0 0
115561.0 473732.0 0
124658.0 468496.0 0
128421.0 469259.0 0
132242.0 469886.0 0
136129.0 470357.0 0
140054.0 470683.0 0
143979.0 470890.0 0
147882.0 471016.0 0
151762.0 471101.0 0
155632.0 471178.0 0
159497.0 471254.0 0
163363.0 471335.0 0
167231.0 471419.0 0
171102.0 471504.0 0
174973.0 471586.0 0
204216.0 469098.0 0
208062.0 469193.0 0
211902.0 469278.0 0
215732.0 469347.0 0
219550.0 469401.0 0
223353.0 469443.0 0
227141.0 469477.0 0
230916.0 469507.0 0
234678.0 469537.0 0
238429.0 469570.0 0
242169.0 469610.0 0
245900.0 469659.0 0
249624.0 469722.0 0
253342.0 469801.0 0
257058.0 469897.0 0
260775.0 470012.0 0
264496.0 470143.0 0
268223.0 470287.0 0
271959.0 470441.0 0
275705.0 470601.0 0
279463.0 470763.0 0
283233.0 470922.0 0
287015.0 471076.0 0
290810.0 471221.0 0
294617.0 471356.0 0
356226.0 471016.0 0
360020.0 470625.0 0
363805.0 470226.0 0
370033.0 472765.0 0
373874.0 472330.0 0
377718.0 471841.0 0
381567.0 471297.0 0
391769.0 472900.0 0
395539.0 472465.0 0
399406.0 471984.0 0
403278.0 471325.0 0
413630.0 472190.0 0
417334.0 471156.0 0
423812.0 472743.0 0
427454.0 471500.0 0
430450.0 474077.0 0
434170.0 472892.0 0
441095.0 473665.0 0
448023.0 473931.0 0
56164.9 475337.0 0
59738.4 477129.0 0
66745.3 476686.0 0
73717.1 473218.0 0
77358.9 474768.0 0
84052.4 473794.0 0
87725.5 475151.0 0
94412.1 473943.0 0
98114.1 475135.0 0
104848.0 473899.0 0
108847.0 475342.0 0
112698.0 476309.0 0
122073.0 471342.0 0
125827.0 472094.0 0
129669.0 472723.0 0
133583.0 473219.0 0
137536.0 473595.0 0
141496.0 473864.0 0
145439.0 474048.0 0
149360.0 474175.0 0
178842.0 471665.0 0
182707.0 471744.0 0
186568.0 471825.0 0
190426.0 471911.0 0
194282.0 472003.0 0
198138.0 472101.0 0
201994.0 472202.0 0
205849.0 472303.0 0
209701.0 472399.0 0
213547.0 472485.0 0
217383.0 472560.0 0
221208.0 472623.0 0
225021.0 472677.0 0
228820.0 472725.0 0
232608.0 472771.0 0
236383.0 472816.0 0
240148.0 472865.0 0
243904.0 472921.0 0
247653.0 472986.0 0
251395.0 473062.0 0
255134.0 473153.0 0
258873.0 473258.0 0
262613.0 473376.0 0
266358.0 473507.0 0
270110.0 473647.0 0
273871.0 473793.0 0
298436.0 471477.0 0
302263.0 471584.0 0
306099.0 471678.0 0
309941.0 471759.0 0
313786.0 471829.0 0
317635.0 471890.0 0
321484.0 471943.0 0
325337.0 471986.0 0
329194.0 472016.0 0
333056.0 472025.0 0
336919.0 472007.0 0
340781.0 471954.0 0
344642.0 471850.0 0
348505.0 471675.0 0
352368.0 471407.0 0
366205.0 473182.0 0
372504.0 475681.0 0
376369.0 475205.0 0
380236.0 474679.0 0
384099.0 474108.0 0
387952.0 473505.0 0
398210.0 475330.0 0
402121.0 474726.0 0
406007.0 473995.0 0
409851.0 473139.0 0
416407.0 474913.0 0
420135.0 473884.0 0
426738.0 475378.0 0
433464.0 476748.0 0
437355.0 475274.0 0
63453.9 478897.0 0
70498.7 478380.0 0
74282.9 477215.0 0
81017.4 476260.0 0
84718.0 477648.0 0
91419.6 476429.0 0
95133.2 477633.0 0
101845.0 476273.0 0
105628.0 477353.0 0
109876.0 478953.0 0
119448.0 474566.0 0
123248.0 475022.0 0
127111.0 475624.0 0
131062.0 476116.0 0
135040.0 476516.0 0
139023.0 476827.0 0
153261.0 474271.0 0
157150.0 474357.0 0
161033.0 474441.0 0
164914.0 474525.0 0
168794.0 474611.0 0
172674.0 474695.0 0
176553.0 474779.0 0
180429.0 474862.0 0
184303.0 474946.0 0
188173.0 475033.0 0
192042.0 475125.0 0
195909.0 475222.0 0
199774.0 475323.0 0
203639.0 475426.0 0
207502.0 475528.0 0
211361.0 475626.0 0
215213.0 475715.0 0
219056.0 475796.0 0
222889.0 475869.0 0
226711.0 475934.0 0
230521.0 475995.0 0
234320.0 476054.0 0
238109.0 476114.0 0
241889.0 476178.0 0
245661.0 476247.0 0
277642.0 473941.0 0
281423.0 474088.0 0
285216.0 474231.0 0
289021.0 474367.0 0
292837.0 474493.0 0
296663.0 474609.0 0
300498.0 474712.0 0
304342.0 474804.0 0
308193.0 474884.0 0
312049.0 474953.0 0
315910.0 475013.0 0
319775.0 475064.0 0
323644.0 475106.0 0
327519.0 475137.0 0
331400.0 475150.0 0
335287.0 475142.0 0
339175.0 475105.0 0
343063.0 475028.0 0
346949.0 474892.0 0
350830.0 474674.0 0
354698.0 474360.0 0
358541.0 473992.0 0
362378.0 473591.0 0
374986.0 478594.0 0
378871.0 478080.0 0
382755.0 477530.0 0
386634.0 476957.0 0
390498.0 476380.0 0
394339.0 475859.0 0
400898.0 478144.0 0
404842.0 477491.0 0
408751.0 476705.0 0
412611.0 475850.0 0
419210.0 477698.0 0
422996.0 476602.0 0
429709.0 477995.0 0
436637.0 479155.0 0
67206.6 480610.0 0
77956.6 478755.0 0
81697.5 480166.0 0
88437.7 478958.0 0
92169.2 480188.0 0
98873.8 478763.0 0
102653.0 479821.0 0
116575.0 477148.0 0
120707.0 478107.0 0
124585.0 478630.0 0
128573.0 479050.0 0
142996.0 477060.0 0
146949.0 477231.0 0
150882.0 477359.0 0
154796.0 477464.0 0
158699.0 477558.0 0
162596.0 477647.0 0
166488.0 477735.0 0
170379.0 477822.0 0
174268.0 477908.0 0
178155.0 477994.0 0
182040.0 478081.0 0
185922.0 478169.0 0
189802.0 478262.0 0
193680.0 478358.0 0
197557.0 478459.0 0
201432.0 478564.0 0
205305.0 478669.0 0
209175.0 478774.0 0
213040.0 478874.0 0
216899.0 478968.0 0
249427.0 476325.0 0
253189.0 476412.0 0
256949.0 476511.0 0
260709.0 476621.0 0
264472.0 476741.0 0
268241.0 476869.0 0
272016.0 477003.0 0
275800.0 477139.0 0
279594.0 477275.0 0
283398.0 477408.0 0
287212.0 477535.0 0
291037.0 477654.0 0
294871.0 477764.0 0
298715.0 477863.0 0
302567.0 477951.0 0
306426.0 478029.0 0
310292.0 478097.0 0
314163.0 478155.0 0
318040.0 478204.0 0
321922.0 478245.0 0
325812.0 478274.0 0
329708.0 478290.0 0
333613.0 478288.0 0
337524.0 478263.0 0
341438.0 478207.0 0
345352.0 478106.0 0
349263.0 477940.0 0
353160.0 477688.0 0
357039.0 477351.0 0
360919.0 476951.0 0
364784.0 476544.0 0
368645.0 476123.0 0
381377.0 480966.0 0
385281.0 480411.0 0
389180.0 479846.0 0
393070.0 479296.0 0
396971.0 478744.0 0
407599.0 480259.0 0
411510.0 479482.0 0
415384.0 478638.0 0
422064.0 480462.0 0
425934.0 479272.0 0
78639.4 482686.0 0
85458.1 481512.0 0
89215.1 482786.0 0
95924.6 481330.0 0
99716.2 482390.0 0
103543.0 483360.0 0
106484.0 480790.0 0
113733.0 479827.0 0
117631.0 480560.0 0
122001.0 481742.0 0
132585.0 479467.0 0
136581.0 479802.0 0
140567.0 480069.0 0
144542.0 480277.0 0
148500.0 480440.0 0
152440.0 480570.0 0
156364.0 480680.0 0
160278.0 480780.0 0
164185.0 480874.0 0
168087.0 480965.0 0
171987.0 481054.0 0
175884.0 481142.0 0
179780.0 481230.0 0
183673.0 481320.0 0
187564.0 481413.0 0
191454.0 481510.0 0
195341.0 481611.0 0
199226.0 481715.0 0
203109.0 481823.0 0
220750.0 479056.0 0
224591.0 479137.0 0
228422.0 479213.0 0
232243.0 479286.0 0
236054.0 479358.0 0
239857.0 479430.0 0
243651.0 479506.0 0
247439.0 479587.0 0
251222.0 479675.0 0
255003.0 479770.0 0
258783.0 479875.0 0
262565.0 479987.0 0
266350.0 480106.0 0
270141.0 480229.0 0
273938.0 480355.0 0
277744.0 480482.0 0
281559.0 480605.0 0
285384.0 480724.0 0
289218.0 480837.0 0
293061.0 480941.0 0
296912.0 481036.0 0
300772.0 481121.0 0
304640.0 481196.0 0
308514.0 481261.0 0
312394.0 481317.0 0
316281.0 481365.0 0
320174.0 481403.0 0
324075.0 481431.0 0
327984.0 481447.0 0
331902.0 481449.0 0
335828.0 481432.0 0
339762.0 481391.0 0
343701.0 481316.0 0
347642.0 481193.0 0
351577.0 481002.0 0
355501.0 480713.0 0
359438.0 480300.0 0
363344.0 479909.0 0
367229.0 479499.0 0
371106.0 479064.0 0
377474.0 481502.0 0
387817.0 483318.0 0
391737.0 482761.0 0
395666.0 482200.0 0
399609.0 481604.0 0
403560.0 480976.0 0
410328.0 483100.0 0
414249.0 482344.0 0
418146.0 481510.0 0
82473.8 484068.0 0
86261.2 485404.0 0
92990.3 483959.0 0
96804.9 485024.0 0
100654.0 486017.0 0
107404.0 484232.0 0
110939.0 482593.0 0
114804.0 483365.0 0
118676.0 483986.0 0
126196.0 482065.0 0
130167.0 482451.0 0
134174.0 482805.0 0
138165.0 483093.0 0
142152.0 483328.0 0
146127.0 483519.0 0
150087.0 483676.0 0
154031.0 483807.0 0
157962.0 483922.0 0
161884.0 484026.0 0
165799.0 484122.0 0
169710.0 484215.0 0
173618.0 484305.0 0
177524.0 484395.0 0
181428.0 484486.0 0
206990.0 481932.0 0
210867.0 482039.0 0
214739.0 482144.0 0
218605.0 482243.0 0
222463.0 482338.0 0
226313.0 482428.0 0
230153.0 482514.0 0
233985.0 482597.0 0
237808.0 482680.0 0
241624.0 482763.0 0
245433.0 482849.0 0
249237.0 482939.0 0
253037.0 483035.0 0
256836.0 483136.0 0
260636.0 483243.0 0
264438.0 483355.0 0
268244.0 483471.0 0
272056.0 483589.0 0
275874.0 483707.0 0
279701.0 483823.0 0
283536.0 483934.0 0
287379.0 484041.0 0
291231.0 484139.0 0
295091.0 484230.0 0
298958.0 484311.0 0
341996.0 484527.0 0
345957.0 484437.0 0
349922.0 484296.0 0
353883.0 484077.0 0
357946.0 483629.0 0
361878.0 483270.0 0
365785.0 482889.0 0
369679.0 482470.0 0
373573.0 482007.0 0
379969.0 484423.0 0
383890.0 483875.0 0
394300.0 485684.0 0
398278.0 485103.0 0
402241.0 484484.0 0
406286.0 483783.0 0
79427.5 486602.0 0
83243.4 487981.0 0
90059.7 486634.0 0
93911.0 487727.0 0
97785.7 488708.0 0
112094.0 486267.0 0
115992.0 486919.0 0
120592.0 487025.0 0
123904.0 485134.0 0
127833.0 485520.0 0
131799.0 485846.0 0
135793.0 486144.0 0
139785.0 486394.0 0
143771.0 486607.0 0
147745.0 486787.0 0
151705.0 486940.0 0
155652.0 487072.0 0
185329.0 484579.0 0
189229.0 484676.0 0
193126.0 484777.0 0
197022.0 484882.0 0
200916.0 484991.0 0
204807.0 485102.0 0
208694.0 485214.0 0
212578.0 485325.0 0
216457.0 485434.0 0
220330.0 485540.0 0
224195.0 485641.0 0
228053.0 485739.0 0
231903.0 485834.0 0
235746.0 485927.0 0
239581.0 486019.0 0
243409.0 486111.0 0
247233.0 486206.0 0
251053.0 486303.0 0
254870.0 486404.0 0
258687.0 486508.0 0
262505.0 486616.0 0
266327.0 486726.0 0
302833.0 484384.0 0
306715.0 484447.0 0
310604.0 484501.0 0
314499.0 484546.0 0
318401.0 484582.0 0
322310.0 484609.0 0
326229.0 484624.0 0
330156.0 484627.0 0
334093.0 484615.0 0
338040.0 484584.0 0
356436.0 486925.0 0
360379.0 486623.0 0
364306.0 486282.0 0
368222.0 485894.0 0
372133.0 485448.0 0
376051.0 484947.0 0
382466.0 487361.0 0
386403.0 486800.0 0
390357.0 486255.0 0
400907.0 488015.0 0
404944.0 487334.0 0
408958.0 486681.0 0
412998.0 486036.0 0
91025.8 490465.0 0
104520.0 486907.0 0
108416.0 487689.0 0
125529.0 488651.0 0
129480.0 488959.0 0
133455.0 489233.0 0
137447.0 489488.0 0
141437.0 489712.0 0
159588.0 487188.0 0
163516.0 487293.0 0
167439.0 487391.0 0
171357.0 487485.0 0
175273.0 487577.0 0
179186.0 487669.0 0
183098.0 487762.0 0
187007.0 487858.0 0
190915.0 487959.0 0
194820.0 488063.0 0
198723.0 488172.0 0
202624.0 488285.0 0
206522.0 488400.0 0
210417.0 488516.0 0
214307.0 488632.0 0
218192.0 488746.0 0
222072.0 488857.0 0
225945.0 488966.0 0
229812.0 489071.0 0
233671.0 489173.0 0
237524.0 489274.0 0
270153.0 486838.0 0
273984.0 486949.0 0
277822.0 487058.0 0
281667.0 487164.0 0
285520.0 487265.0 0
289381.0 487359.0 0
293249.0 487445.0 0
297125.0 487524.0 0
301007.0 487593.0 0
304897.0 487654.0 0
308793.0 487706.0 0
312695.0 487749.0 0
316604.0 487784.0 0
320521.0 487808.0 0
324446.0 487823.0 0
328380.0 487826.0 0
332323.0 487817.0 0
336276.0 487792.0 0
340240.0 487747.0 0
344213.0 487680.0 0
348190.0 487579.0 0
352167.0 487430.0 0
366716.0 489324.0 0
370657.0 488915.0 0
374602.0 488415.0 0
378534.0 487903.0 0
384962.0 490318.0 0
388904.0 489747.0 0
392920.0 489212.0 0
396870.0 488614.0 0
403584.0 490909.0 0
407577.0 490293.0 0
411548.0 489688.0 0
94973.2 491490.0 0
101682.0 489660.0 0
105548.0 490469.0 0
109351.0 491200.0 0
113433.0 489928.0 0
118143.0 490009.0 0
122073.0 490390.0 0
127203.0 492133.0 0
131162.0 492382.0 0
145420.0 489909.0 0
149392.0 490081.0 0
153351.0 490231.0 0
157300.0 490361.0 0
161240.0 490478.0 0
165173.0 490583.0 0
169102.0 490681.0 0
173027.0 490775.0 0
176950.0 490868.0 0
180870.0 490961.0 0
184789.0 491057.0 0
188706.0 491156.0 0
192621.0 491260.0 0
196534.0 491369.0 0
200444.0 491482.0 0
204351.0 491599.0 0
208255.0 491718.0 0
212156.0 491839.0 0
216053.0 491959.0 0
241371.0 489374.0 0
245213.0 489474.0 0
249050.0 489575.0 0
252885.0 489677.0 0
256719.0 489781.0 0
260554.0 489887.0 0
264390.0 489993.0 0
268229.0 490100.0 0
272074.0 490207.0 0
275923.0 490311.0 0
279779.0 490412.0 0
283642.0 490508.0 0
287512.0 490598.0 0
291388.0 490681.0 0
295272.0 490756.0 0
299162.0 490823.0 0
303058.0 490882.0 0
306961.0 490932.0 0
310870.0 490974.0 0
314786.0 491007.0 0
318709.0 491030.0 0
322639.0 491044.0 0
326577.0 491048.0 0
330524.0 491039.0 0
334480.0 491018.0 0
338446.0 490982.0 0
342420.0 490930.0 0
346401.0 490859.0 0
350378.0 490762.0 0
354859.0 490184.0 0
358822.0 489965.0 0
362772.0 489671.0 0
377080.0 491408.0 0
381020.0 490875.0 0
387452.0 493294.0 0
391397.0 492711.0 0
395506.0 492176.0 0
399482.0 491539.0 0
410109.0 493373.0 0
92144.5 494280.0 0
98866.4 492390.0 0
102856.0 493335.0 0
106725.0 494098.0 0
112052.0 493602.0 0
115829.0 493097.0 0
119723.0 493499.0 0
123666.0 493764.0 0
135142.0 492617.0 0
139131.0 492842.0 0
143117.0 493049.0 0
147096.0 493236.0 0
151065.0 493401.0 0
155023.0 493547.0 0
158973.0 493676.0 0
162916.0 493790.0 0
166854.0 493894.0 0
170788.0 493991.0 0
174720.0 494085.0 0
178649.0 494178.0 0
182577.0 494272.0 0
186502.0 494371.0 0
190426.0 494473.0 0
194347.0 494581.0 0
198266.0 494694.0 0
202182.0 494812.0 0
219944.0 492078.0 0
223831.0 492195.0 0
227712.0 492310.0 0
231586.0 492422.0 0
235455.0 492531.0 0
239319.0 492639.0 0
243177.0 492745.0 0
247032.0 492851.0 0
250883.0 492956.0 0
254733.0 493061.0 0
258583.0 493167.0 0
262434.0 493272.0 0
266287.0 493376.0 0
270144.0 493479.0 0
274005.0 493580.0 0
277872.0 493676.0 0
281745.0 493769.0 0
285623.0 493855.0 0
289508.0 493936.0 0
293400.0 494009.0 0
297297.0 494074.0 0
301201.0 494131.0 0
305110.0 494180.0 0
309026.0 494220.0 0
312947.0 494252.0 0
316875.0 494275.0 0
320810.0 494288.0 0
324752.0 494292.0 0
328701.0 494285.0 0
332658.0 494267.0 0
336622.0 494237.0 0
340594.0 494193.0 0
344572.0 494140.0 0
348550.0 494082.0 0
353186.0 493417.0 0
357180.0 493287.0 0
361161.0 493053.0 0
365134.0 492749.0 0
369104.0 492391.0 0
373138.0 491893.0 0
383509.0 493865.0 0
389959.0 496279.0 0
393911.0 495676.0 0
398129.0 495125.0 0
402126.0 494479.0 0
406160.0 493927.0 0
96155.7 495248.0 0
100064.0 496069.0 0
104173.0 497037.0 0
109571.0 496640.0 0
117400.0 496684.0 0
121356.0 496953.0 0
125320.0 497157.0 0
128908.0 495591.0 0
132875.0 495796.0 0
136856.0 496006.0 0
140840.0 496213.0 0
144821.0 496408.0 0
148795.0 496587.0 0
152761.0 496747.0 0
156719.0 496889.0 0
160670.0 497013.0 0
164616.0 497124.0 0
168558.0 497225.0 0
172497.0 497320.0 0
176435.0 497412.0 0
180370.0 497506.0 0
206095.0 494933.0 0
210005.0 495057.0 0
213911.0 495182.0 0
217814.0 495307.0 0
221712.0 495431.0 0
225605.0 495553.0 0
229493.0 495673.0 0
233377.0 495791.0 0
237255.0 495906.0 0
241129.0 496020.0 0
244999.0 496131.0 0
248866.0 496241.0 0
252731.0 496349.0 0
256595.0 496456.0 0
260460.0 496561.0 0
264326.0 496664.0 0
268195.0 496765.0 0
272068.0 496863.0 0
275946.0 496957.0 0
279828.0 497047.0 0
283716.0 497131.0 0
287609.0 497209.0 0
291509.0 497280.0 0
338747.0 497477.0 0
342717.0 497433.0 0
346686.0 497390.0 0
351441.0 496667.0 0
355421.0 496570.0 0
359474.0 496419.0 0
363478.0 496169.0 0
367459.0 495861.0 0
371621.0 495348.0 0
375598.0 494936.0 0
379557.0 494415.0 0
396482.0 498623.0 0
400729.0 498102.0 0
93440.2 498135.0 0
97438.7 499004.0 0
101358.0 499747.0 0
113497.0 497010.0 0
130642.0 499030.0 0
134611.0 499212.0 0
138589.0 499407.0 0
142569.0 499604.0 0
146545.0 499791.0 0
184303.0 497602.0 0
188235.0 497703.0 0
192164.0 497810.0 0
196091.0 497922.0 0
200015.0 498039.0 0
203936.0 498161.0 0
207854.0 498287.0 0
211770.0 498416.0 0
215681.0 498545.0 0
219589.0 498675.0 0
223493.0 498804.0 0
227393.0 498931.0 0
231289.0 499056.0 0
235181.0 499178.0 0
239069.0 499299.0 0
242953.0 499416.0 0
246834.0 499531.0 0
250713.0 499643.0 0
295414.0 497344.0 0
299324.0 497400.0 0
303240.0 497447.0 0
307162.0 497487.0 0
311089.0 497518.0 0
315022.0 497541.0 0
318962.0 497554.0 0
322907.0 497559.0 0
326858.0 497553.0 0
330816.0 497538.0 0
334779.0 497513.0 0
349624.0 499920.0 0
353638.0 499883.0 0
357632.0 499734.0 0
361744.0 499573.0 0
365754.0 499329.0 0
370014.0 498796.0 0
373989.0 498430.0 0
378092.0 497972.0 0
382056.0 497432.0 0
386008.0 496876.0 0
392475.0 499283.0 0
399051.0 501616.0 0
404660.0 497552.0 0
107075.0 499710.0 0
111119.0 500170.0 0
115167.0 500368.0 0
119100.0 500196.0 0
123066.0 500397.0 0
127033.0 500574.0 0
132392.0 502463.0 0
136361.0 502636.0 0
150515.0 499964.0 0
154479.0 500118.0 0
158437.0 500254.0 0
162389.0 500372.0 0
166337.0 500478.0 0
170284.0 500574.0 0
174228.0 500667.0 0
178171.0 500759.0 0
182112.0 500853.0 0
186050.0 500952.0 0
189987.0 501056.0 0
193920.0 501166.0 0
197852.0 501282.0 0
201780.0 501405.0 0
205705.0 501532.0 0
209628.0 501662.0 0
213548.0 501795.0 0
217464.0 501929.0 0
221378.0 502063.0 0
225288.0 502196.0 0
229195.0 502327.0 0
254591.0 499753.0 0
258468.0 499860.0 0
262347.0 499964.0 0
266228.0 500064.0 0
270113.0 500161.0 0
274001.0 500254.0 0
277893.0 500341.0 0
281790.0 500424.0 0
285692.0 500500.0 0
289599.0 500570.0 0
293512.0 500633.0 0
297429.0 500688.0 0
301352.0 500735.0 0
305280.0 500774.0 0
309212.0 500805.0 0
313151.0 500828.0 0
317094.0 500842.0 0
321043.0 500847.0 0
324997.0 500843.0 0
328956.0 500831.0 0
332920.0 500810.0 0
336886.0 500780.0 0
340853.0 500744.0 0
344817.0 500706.0 0
368351.0 502245.0 0
372336.0 501933.0 0
376422.0 501467.0 0
380585.0 501012.0 0
384546.0 500479.0 0
388538.0 499884.0 0
395063.0 502243.0 0
406492.0 501067.0 0
94930.0 502061.0 0
98915.3 502804.0 0
104201.0 502464.0 0
108703.0 503301.0 0
112911.0 503597.0 0
116901.0 503780.0 0
120847.0 503677.0 0
124814.0 503850.0 0
128781.0 504023.0 0
140337.0 502825.0 0
144313.0 503015.0 0
148286.0 503197.0 0
152254.0 503364.0 0
156218.0 503512.0 0
160175.0 503641.0 0
164129.0 503751.0 0
168081.0 503850.0 0
172032.0 503941.0 0
175981.0 504031.0 0
179928.0 504123.0 0
183873.0 504219.0 0
187816.0 504320.0 0
191756.0 504428.0 0
195693.0 504543.0 0
199627.0 504664.0 0
203559.0 504791.0 0
207488.0 504923.0 0
211414.0 505058.0 0
215338.0 505195.0 0
233098.0 502457.0 0
236998.0 502583.0 0
240895.0 502707.0 0
244789.0 502828.0 0
248681.0 502945.0 0
252571.0 503059.0 0
256461.0 503168.0 0
260352.0 503274.0 0
264245.0 503375.0 0
268140.0 503472.0 0
272038.0 503564.0 0
275940.0 503651.0 0
279846.0 503733.0 0
283757.0 503809.0 0
287672.0 503878.0 0
291591.0 503940.0 0
295516.0 503995.0 0
299445.0 504042.0 0
303379.0 504081.0 0
307317.0 504112.0 0
311261.0 504135.0 0
315209.0 504150.0 0
319161.0 504156.0 0
323119.0 504154.0 0
327080.0 504145.0 0
331046.0 504127.0 0
335014.0 504103.0 0
338982.0 504073.0 0
342949.0 504040.0 0
347777.0 503220.0 0
351755.0 503162.0 0
355849.0 503104.0 0
359842.0 502917.0 0
363963.0 502768.0 0
378869.0 504507.0 0
383041.0 504095.0 0
387091.0 503487.0 0
391060.0 502936.0 0
397631.0 505257.0 0
402860.0 502734.0 0
96396.4 505856.0 0
101757.0 505632.0 0
105845.0 506042.0 0
110574.0 506774.0 0
114673.0 507055.0 0
122611.0 507153.0 0
126579.0 507322.0 0
130545.0 507502.0 0
134148.0 505900.0 0
138120.0 506073.0 0
142096.0 506261.0 0
146071.0 506449.0 0
150043.0 506626.0 0
154012.0 506787.0 0
157977.0 506929.0 0
161935.0 507047.0 0
165891.0 507148.0 0
169847.0 507237.0 0
173802.0 507325.0 0
177755.0 507414.0 0
181705.0 507506.0 0
185653.0 507604.0 0
189598.0 507709.0 0
193540.0 507821.0 0
219259.0 505333.0 0
223178.0 505471.0 0
227094.0 505608.0 0
231007.0 505742.0 0
234918.0 505875.0 0
238827.0 506005.0 0
242733.0 506132.0 0
246636.0 506255.0 0
250538.0 506373.0 0
254440.0 506487.0 0
258342.0 506595.0 0
262245.0 506698.0 0
266150.0 506796.0 0
270058.0 506889.0 0
273970.0 506976.0 0
277885.0 507058.0 0
281804.0 507133.0 0
285727.0 507202.0 0
289654.0 507264.0 0
293585.0 507320.0 0
297521.0 507367.0 0
301461.0 507407.0 0
305405.0 507439.0 0
309353.0 507463.0 0
313306.0 507478.0 0
317263.0 507486.0 0
321224.0 507486.0 0
325189.0 507478.0 0
329157.0 507464.0 0
333127.0 507443.0 0
337099.0 507418.0 0
341070.0 507390.0 0
345926.0 506559.0 0
349901.0 506500.0 0
353889.0 506400.0 0
358044.0 506342.0 0
362026.0 506141.0 0
366576.0 505670.0 0
370619.0 505429.0 0
374772.0 504994.0 0
385591.0 507105.0 0
389548.0 506573.0 0
393698.0 505903.0 0
401418.0 506466.0 0
405359.0 505841.0 0
99207.6 508713.0 0
103500.0 509236.0 0
118654.0 507243.0 0
135909.0 509347.0 0
139887.0 509528.0 0
143866.0 509719.0 0
147842.0 509905.0 0
151817.0 510076.0 0
163716.0 510471.0 0
197480.0 507941.0 0
201416.0 508067.0 0
205350.0 508199.0 0
209282.0 508335.0 0
213211.0 508475.0 0
217139.0 508616.0 0
221065.0 508757.0 0
224988.0 508898.0 0
228911.0 509038.0 0
232831.0 509175.0 0
236750.0 509311.0 0
240666.0 509444.0 0
244580.0 509573.0 0
248493.0 509697.0 0
252405.0 509815.0 0
256317.0 509927.0 0
260230.0 510033.0 0
264145.0 510133.0 0
344059.0 509922.0 0
348039.0 509870.0 0
352026.0 509783.0 0
356018.0 509653.0 0
360227.0 509609.0 0
364639.0 509045.0 0
368796.0 508887.0 0
373045.0 508507.0 0
377220.0 508058.0 0
381257.0 507608.0 0
392190.0 509516.0 0
396389.0 508989.0 0
403378.0 509939.0 0
107727.0 509522.0 0
112382.0 510282.0 0
116429.0 510543.0 0
120409.0 510747.0 0
124377.0 510637.0 0
128349.0 510814.0 0
132320.0 511003.0 0
137675.0 512807.0 0
155790.0 510230.0 0
159759.0 510367.0 0
167676.0 510558.0 0
171636.0 510641.0 0
175593.0 510727.0 0
179548.0 510815.0 0
183500.0 510908.0 0
187450.0 511009.0 0
191396.0 511118.0 0
195339.0 511236.0 0
199278.0 511360.0 0
203216.0 511492.0 0
207151.0 511628.0 0
211085.0 511769.0 0
215018.0 511912.0 0
218949.0 512057.0 0
222879.0 512201.0 0
226809.0 512344.0 0
230737.0 512486.0 0
234664.0 512626.0 0
268062.0 510227.0 0
271983.0 510316.0 0
275906.0 510398.0 0
279833.0 510474.0 0
283764.0 510543.0 0
287699.0 510606.0 0
291637.0 510662.0 0
295579.0 510710.0 0
299525.0 510751.0 0
303475.0 510784.0 0
307429.0 510809.0 0
311386.0 510826.0 0
315348.0 510835.0 0
319312.0 510837.0 0
323281.0 510831.0 0
327252.0 510819.0 0
331226.0 510801.0 0
335201.0 510780.0 0
339178.0 510756.0 0
358140.0 512930.0 0
362863.0 512537.0 0
366843.0 512289.0 0
371205.0 511986.0 0
375484.0 511589.0 0
379594.0 511195.0 0
383807.0 510603.0 0
388023.0 510230.0 0
399449.0 511560.0 0
97292.1 512224.0 0
101349.0 512577.0 0
105498.0 512801.0 0
109540.0 513057.0 0
114163.0 513808.0 0
118184.0 514060.0 0
122169.0 514276.0 0
126146.0 514135.0 0
130124.0 514324.0 0
141663.0 513003.0 0
145648.0 513198.0 0
149628.0 513380.0 0
153610.0 513544.0 0
157590.0 513693.0 0
161567.0 513830.0 0
165523.0 513905.0 0
169486.0 513981.0 0
173446.0 514064.0 0
177404.0 514146.0 0
181360.0 514235.0 0
185313.0 514331.0 0
189261.0 514436.0 0
193206.0 514550.0 0
197148.0 514673.0 0
201086.0 514803.0 0
205024.0 514939.0 0
208960.0 515080.0 0
212896.0 515224.0 0
216832.0 515371.0 0
220767.0 515517.0 0
238590.0 512764.0 0
242514.0 512899.0 0
246436.0 513029.0 0
250357.0 513154.0 0
254278.0 513271.0 0
258201.0 513380.0 0
262125.0 513483.0 0
266051.0 513579.0 0
269980.0 513669.0 0
273912.0 513752.0 0
277847.0 513830.0 0
281785.0 513900.0 0
285727.0 513964.0 0
289672.0 514021.0 0
293621.0 514071.0 0
297573.0 514113.0 0
301528.0 514148.0 0
305488.0 514174.0 0
309450.0 514193.0 0
313416.0 514204.0 0
317385.0 514208.0 0
321357.0 514204.0 0
325332.0 514194.0 0
329309.0 514178.0 0
333288.0 514159.0 0
337269.0 514137.0 0
342170.0 513305.0 0
346155.0 513259.0 0
350149.0 513189.0 0
354146.0 513079.0 0
373637.0 515084.0 0
377838.0 514750.0 0
382163.0 514192.0 0
386182.0 513754.0 0
390694.0 513158.0 0
394704.0 512581.0 0
99037.0 515825.0 0
103261.0 516087.0 0
107324.0 516359.0 0
111337.0 516613.0 0
115932.0 517350.0 0
127921.0 517651.0 0
134100.0 514523.0 0
139439.0 516282.0 0
143453.0 516500.0 0
147442.0 516699.0 0
151433.0 516872.0 0
155422.0 517028.0 0
159410.0 517175.0 0
163395.0 517331.0 0
167354.0 517344.0 0
171314.0 517425.0 0
175277.0 517502.0 0
179236.0 517584.0 0
183190.0 517674.0 0
187140.0 517774.0 0
191085.0 517885.0 0
195026.0 518006.0 0
198963.0 518134.0 0
202900.0 518269.0 0
224702.0 515663.0 0
228637.0 515808.0 0
232572.0 515951.0 0
236506.0 516093.0 0
240439.0 516234.0 0
244370.0 516372.0 0
248298.0 516503.0 0
252228.0 516625.0 0
256158.0 516739.0 0
260091.0 516846.0 0
264025.0 516944.0 0
267963.0 517036.0 0
271902.0 517122.0 0
275845.0 517201.0 0
279790.0 517273.0 0
283739.0 517338.0 0
287691.0 517397.0 0
291646.0 517448.0 0
295604.0 517492.0 0
299565.0 517529.0 0
303530.0 517558.0 0
307498.0 517578.0 0
311468.0 517591.0 0
315442.0 517597.0 0
319418.0 517595.0 0
323397.0 517587.0 0
327378.0 517574.0 0
331361.0 517556.0 0
335345.0 517535.0 0
340260.0 516709.0 0
344249.0 516667.0 0
348243.0 516607.0 0
352261.0 516519.0 0
356272.0 516390.0 0
360757.0 515858.0 0
365073.0 515814.0 0
369234.0 515411.0 0
384513.0 517376.0 0
388861.0 516669.0 0
393058.0 516341.0 0
397016.0 515809.0 0
400971.0 515262.0 0
100949.0 519336.0 0
119950.0 517597.0 0
123937.0 517823.0 0
131903.0 517850.0 0
135883.0 518060.0 0
141204.0 519772.0 0
145245.0 520026.0 0
149259.0 520213.0 0
169184.0 520807.0 0
173164.0 520880.0 0
206837.0 518408.0 0
210774.0 518553.0 0
214713.0 518700.0 0
218652.0 518849.0 0
222592.0 518997.0 0
226533.0 519144.0 0
230474.0 519289.0 0
234415.0 519433.0 0
238356.0 519579.0 0
242294.0 519723.0 0
246229.0 519863.0 0
250166.0 519992.0 0
254104.0 520111.0 0
258044.0 520221.0 0
261986.0 520323.0 0
265931.0 520418.0 0
269878.0 520505.0 0
273828.0 520586.0 0
338331.0 520133.0 0
342322.0 520094.0 0
346319.0 520042.0 0
350340.0 519962.0 0
354387.0 519856.0 0
358896.0 519345.0 0
362932.0 519145.0 0
367474.0 518965.0 0
371662.0 518527.0 0
375982.0 518266.0 0
380414.0 517754.0 0
391205.0 519879.0 0
395430.0 519541.0 0
399446.0 518966.0 0
105071.0 519651.0 0
109119.0 519931.0 0
113118.0 520185.0 0
117712.0 520900.0 0
121725.0 521151.0 0
125716.0 521381.0 0
129706.0 521183.0 0
133688.0 521393.0 0
137670.0 521611.0 0
142923.0 523304.0 0
153258.0 520379.0 0
157250.0 520531.0 0
161237.0 520680.0 0
165204.0 521096.0 0
177131.0 520957.0 0
181088.0 521042.0 0
185037.0 521137.0 0
188979.0 521242.0 0
192916.0 521360.0 0
196850.0 521488.0 0
200782.0 521619.0 0
204717.0 521756.0 0
208654.0 521900.0 0
212593.0 522047.0 0
216534.0 522196.0 0
220479.0 522345.0 0
224425.0 522493.0 0
228372.0 522641.0 0
232319.0 522788.0 0
236265.0 522932.0 0
240211.0 523083.0 0
277780.0 520661.0 0
281735.0 520728.0 0
285693.0 520789.0 0
289655.0 520842.0 0
293619.0 520889.0 0
297586.0 520927.0 0
301556.0 520958.0 0
305529.0 520982.0 0
309505.0 520997.0 0
313483.0 521005.0 0
317464.0 521006.0 0
321447.0 521000.0 0
325432.0 520988.0 0
329418.0 520971.0 0
333407.0 520952.0 0
352462.0 523318.0 0
357010.0 522841.0 0
361076.0 522655.0 0
365313.0 522311.0 0
369909.0 522103.0 0
374007.0 521726.0 0
378566.0 521280.0 0
382757.0 520959.0 0
387218.0 520289.0 0
102165.0 523143.0 0
106224.0 523476.0 0
110213.0 523774.0 0
114204.0 524030.0 0
118342.0 524832.0 0
146880.0 523651.0 0
150850.0 523857.0 0
154823.0 524036.0 0
158799.0 524194.0 0
162779.0 524343.0 0
171076.0 524275.0 0
175054.0 524353.0 0
179013.0 524435.0 0
182959.0 524525.0 0
186895.0 524625.0 0
190823.0 524739.0 0
194748.0 524864.0 0
198674.0 524996.0 0
202601.0 525126.0 0
206532.0 525267.0 0
210470.0 525412.0 0
214415.0 525562.0 0
218363.0 525709.0 0
222314.0 525858.0 0
226267.0 526007.0 0
244150.0 523235.0 0
248092.0 523371.0 0
252037.0 523495.0 0
255984.0 523610.0 0
259934.0 523715.0 0
263886.0 523813.0 0
267840.0 523903.0 0
271796.0 523987.0 0
275755.0 524064.0 0
279716.0 524134.0 0
283681.0 524197.0 0
287648.0 524253.0 0
291618.0 524301.0 0
295590.0 524343.0 0
299566.0 524376.0 0
303544.0 524402.0 0
307525.0 524420.0 0
311508.0 524431.0 0
315494.0 524434.0 0
319481.0 524431.0 0
323471.0 524421.0 0
327462.0 524406.0 0
331454.0 524387.0 0
336386.0 523578.0 0
340380.0 523540.0 0
344378.0 523494.0 0
348407.0 523420.0 0
379270.0 525196.0 0
383238.0 524913.0 0
387167.0 524268.0 0
391132.0 523864.0 0
395107.0 523521.0 0
399060.0 522940.0 0
122332.0 525090.0 0
126324.0 525324.0 0
130421.0 525096.0 0
134486.0 525294.0 0
138640.0 525475.0 0
142452.0 527246.0 0
166713.0 524966.0 0
169655.0 527989.0 0
173800.0 528124.0 0
178017.0 528280.0 0
182331.0 528445.0 0
186749.0 528591.0 0
191286.0 528680.0 0
230221.0 526156.0 0
234174.0 526304.0 0
238121.0 526446.0 0
242060.0 526620.0 0
246007.0 526763.0 0
249959.0 526893.0 0
253914.0 527012.0 0
257870.0 527121.0 0
261829.0 527222.0 0
265789.0 527316.0 0
269751.0 527402.0 0
273716.0 527482.0 0
277683.0 527554.0 0
281653.0 527620.0 0
285625.0 527679.0 0
289601.0 527730.0 0
293579.0 527774.0 0
297560.0 527811.0 0
301544.0 527840.0 0
305530.0 527861.0 0
309518.0 527875.0 0
313509.0 527881.0 0
317501.0 527880.0 0
321495.0 527872.0 0
325490.0 527859.0 0
329487.0 527842.0 0
334427.0 527041.0 0
338425.0 527005.0 0
342424.0 526962.0 0
346460.0 526892.0 0
350527.0 526795.0 0
355075.0 526328.0 0
359200.0 526171.0 0
363367.0 525906.0 0
367354.0 525723.0 0
371336.0 525820.0 0
375302.0 525487.0 0
195701.0 528718.0 0
200062.0 528718.0 0
204322.0 528699.0 0
208308.0 528813.0 0
212282.0 528942.0 0
216245.0 529091.0 0
220201.0 529239.0 0
224158.0 529387.0 0
228118.0 529536.0 0
232085.0 529686.0 0
236063.0 529838.0 0
POINT_DATA 4650
SCALARS Radius float 1
LOOKUP_TABLE default
4000.0 4000.0 4000.0 4000.0 4000.0 4000.0 4000.0 4000.0 4000.0 4000.0 4000.0 4000.0 4000.0 4000.0 4000.0 4000.0 4000.0 4000.0 4000.0 4000.0 4000.0 4000.0 4000.0 4000.0 4000.0 4000.0 4000.0 4000.0 4000.0 4000.0 4000.0 4000.0 4000.0 4000.0 4000.0 4000.0 4000.0 4000.0 4000.0 4000.0 4000.0 4000.0 4000.0 4000.0 4000.0 4000.0 4000.0 4000.0 4000.0 4000.0 4000.0 4000.0 4000.0 4000.0 4000.0 4000.0 4000.0 4000.0 4000.0 4000.0 4000.0 4000.0 4000.0 4000.0 4000.0 4000.0 4000.0 4000.0 4000.0 4000.0 4000.0 4000.0 4000.0 4000.0 4000.0 4000.0 4000.0 4000.0 4000.0 4000.0 4000.0 4000.0 4000.0 4000.0 4000.0 4000.0 4000.0 4000.0 4000.0 4000.0 4000.0 4000.0 4000.0 4000.0 4000.0 4000.0 4000.0 4000.0 4000.0 4000.0 4000.0 4000.0 4000.0 4000.0 4000.0 4000.0 4000.0 4000.0 4000.0 4000.0 4000.0 4000.0 4000.0 4000.0 4000.0 4000.0 4000.0 4000.0 4000.0 4000.0 4000.0 4000.0 4000.0 4000.0 4000.0 4000.0 4000.0 4000.0 4000.0 4000.0 4000.0 4000.0 4000.0 4000.0 4000.0 4000.0 4000.0 4000.0 4000.0 4000.0 4000.0 4000.0 4000.0 4000.0 4000.0 4000.0 4000.0 4000.0 4000.0 4000.0 4000.0 4000.0 4000.0 4000.0 4000.0 4000.0 4000.0 4000.0 4000.0 4000.0 4000.0 4000.0 4000.0 4000.0 4000.0 4000.0 4000.0 4000.0 4000.0 4000.0 4000.0 4000.0 4000.0 4000.0 4000.0 4000.0 4000.0 4000.0 4000.0 4000.0 4000.0 4000.0 4000.0 4000.0 4000.0 4000.0 4000.0 4000.0 4000.0 4000.0 4000.0 4000.0 4000.0 4000.0 4000.0 4000.0 4000.0 4000.0 4000.0 4000.0 4000.0 4000.0 4000.0 4000.0 4000.0 4000.0 4000.0 4000.0 4000.0 4000.0 4000.0 4000.0 4000.0 4000.0 4000.0 4000.0 4000.0 4000.0 4000.0 4000.0 4000.0 4000.0 4000.0 4000.0 4000.0 4000.0 4000.0 4000.0 4000.0 4000.0 4000.0 4000.0 4000.0 4000.0 4000.0 4000.0 4000.0 4000.0 4000.0 4000.0 4000.0 4000.0 4000.0 4000.0 4000.0 4000.0 4000.0 4000.0 4000.0 4000.0 4000.0 4000.0 4000.0 4000.0 4000.0 4000.0 4000.0 4000.0 4000.0 4000.0 4000.0 4000.0 4000.0 4000.0 4000.0 4000.0 4000.0 4000.0 4000.0 4000.0 4000.0 4000.0 4000.0 4000.0 4000.0 4000.0 4000.0 4000.0 4000.0 4000.0 4000.0 4000.0 4000.0 4000.0 4000.0 4000.0 4000.0 4000.0 4000.0 4000.0 4000.0 4000.0 4000.0 4000.0 4000.0 4000.0 4000.0 4000.0 4000.0 4000.0 4000.0 4000.0 4000.0 4000.0 4000.0 4000.0 4000.0 4000.0 4000.0 4000.0 4000.0 4000.0 4000.0 4000.0 4000.0 4000.0 4000.0 4000.0 4000.0 4000.0 4000.0 4000.0 4000.0 4000.0 4000.0 4000.0 4000.0 4000.0 4000.0 4000.0 4000.0 4000.0 4000.0 4000.0 4000.0 4000.0 4000.0 4000.0 4000.0 4000.0 4000.0 4000.0 4000.0 4000.0 4000.0 4000.0 4000.0 4000.0 4000.0 4000.0 4000.0 4000.0 4000.0 4000.0 4000.0 4000.0 4000.0 4000.0 4000.0 4000.0 4000.0 4000.0 4000.0 4000.0 4000.0 4000.0 4000.0 4000.0 4000.0 4000.0 4000.0 4000.0 4000.0 4000.0 4000.0 4000.0 4000.0 4000.0 4000.0 4000.0 4000.0 4000.0 4000.0 4000.0 4000.0 4000.0 4000.0 4000.0 4000.0 4000.0 4000.0 4000.0 4000.0 4000.0 4000.0 4000.0 4000.0 4000.0 4000.0 4000.0 4000.0 4000.0 4000.0 4000.0 4000.0 4000.0 4000.0 4000.0 4000.0 4000.0 4000.0 4000.0 4000.0 4000.0 4000.0 4000.0 4000.0 4000.0 4000.0 4000.0 4000.0 4000.0 4000.0 4000.0 4000.0 4000.0 4000.0 4000.0 4000.0 4000.0 4000.0 4000.0 4000.0 4000.0 4000.0 4000.0 4000.0 4000.0 4000.0 4000.0 4000.0 4000.0 4000.0 4000.0 4000.0 4000.0 4000.0 4000.0 4000.0 4000.0 4000.0 4000.0 4000.0 4000.0 4000.0 4000.0 4000.0 4000.0 4000.0 4000.0 4000.0 4000.0 4000.0 4000.0 4000.0 4000.0 4000.0 4000.0 4000.0 4000.0 4000.0 4000.0 4000.0 4000.0 4000.0 4000.0 4000.0 4000.0 4000.0 4000.0 4000.0 4000.0 4000.0 4000.0 4000.0 4000.0 4000.0 4000.0 4000.0 4000.0 4000.0 4000.0 4000.0 4000.0 4000.0 4000.0 4000.0 4000.0 4000.0 4000.0 4000.0 4000.0 4000.0 4000.0 4000.0 4000.0 4000.0 4000.0 4000.0 4000.0 4000.0 4000.0 4000.0 4000.0 4000.0 4000.0 4000.0 4000.0 4000.0 4000.0 4000.0 4000.0 4000.0 4000.0 4000.0 4000.0 4000.0 4000.0 4000.0 4000.0 4000.0 4000.0 4000.0 4000.0 4000.0 4000.0 4000.0 4000.0 4000.0 4000.0 4000.0 4000.0 4000.0 4000.0 4000.0 4000.0 4000.0 4000.0 4000.0 4000.0 4000.0 4000.0 4000.0 4000.0 4000.0 4000.0 4000.0 4000.0 4000.0 4000.0 4000.0 4000.0 4000.0 4000.0 4000.0 4000.0 4000.0 4000.0 4000.0 4000.0 4000.0 4000.0 4000.0 4000.0 4000.0 4000.0 4000.0 4000.0 4000.0 4000.0 4000.0 4000.0 4000.0 4000.0 4000.0 4000.0 4000.0 4000.0 4000.0 4000.0 4000.0 4000.0 4000.0 4000.0 4000.0 4000.0 4000.0 4000.0 4000.0 4000.0 4000.0 4000.0 4000.0 4000.0 4000.0 4000.0 4000.0 4000.0 4000.0 4000.0 4000.0 4000.0 4000.0 4000.0 4000.0 4000.0 4000.0 4000.0 4000.0 4000.0 4000.0 4000.0 4000.0 4000.0 4000.0 4000.0 4000.0 4000.0 4000.0 4000.0 4000.0 4000.0 4000.0 4000.0 4000.0 4000.0 4000.0 4000.0 4000.0 4000.0 4000.0 4000.0 4000.0 4000.0 4000.0 4000.0 4000.0 4000.0 4000.0 4000.0 4000.0 4000.0 4000.0 4000.0 4000.0 4000.0 4000.0 4000.0 4000.0 4000.0 4000.0 4000.0 4000.0 4000.0 4000.0 4000.0 4000.0 4000.0 4000.0 4000.0 4000.0 4000.0 4000.0 4000.0 4000.0 4000.0 4000.0 4000.0 4000.0 4000.0 4000.0 4000.0 4000.0 4000.0 4000.0 4000.0 4000.0 4000.0 4000.0 4000.0 4000.0 4000.0 4000.0 4000.0 4000.0 4000.0 4000.0 4000.0 4000.0 4000.0 4000.0 4000.0 4000.0 4000.0 4000.0 4000.0 4000.0 4000.0 4000.0 4000.0 4000.0 4000.0 4000.0 4000.0 4000.0 4000.0 4000.0 4000.0 4000.0 4000.0 4000.0 4000.0 4000.0 4000.0 4000.0 4000.0 4000.0 4000.0 4000.0 4000.0 4000.0 4000.0 4000.0 4000.0 4000.0 4000.0 4000.0 4000.0 4000.0 4000.0 4000.0 4000.0 4000.0 4000.0 4000.0 4000.0 4000.0 4000.0 4000.0 4000.0 4000.0 4000.0 4000.0 4000.0 4000.0 4000.0 4000.0 4000.0 4000.0 4000.0 4000.0 4000.0 4000.0 4000.0 4000.0 4000.0 4000.0 4000.0 4000.0 4000.0 4000.0 4000.0 4000.0 4000.0 4000.0 4000.0 4000.0 4000.0 4000.0 4000.0 4000.0 4000.0 4000.0 4000.0 4000.0 4000.0 4000.0 4000.0 4000.0 4000.0 4000.0 4000.0 4000.0 4000.0 4000.0 4000.0 4000.0 4000.0 4000.0 4000.0 4000.0 4000.0 4000.0 4000.0 4000.0 4000.0 4000.0 4000.0 4000.0 4000.0 4000.0 4000.0 4000.0 4000.0 4000.0 4000.0 4000.0 4000.0 4000.0 4000.0 4000.0 4000.0 4000.0 4000.0 4000.0 4000.0 4000.0 4000.0 4000.0 4000.0 4000.0 4000.0 4000.0 4000.0 4000.0 4000.0 4000.0 4000.0 4000.0 4000.0 4000.0 4000.0 4000.0 4000.0 4000.0 4000.0 4000.0 4000.0 4000.0 4000.0 4000.0 4000.0 4000.0 4000.0 4000.0 4000.0 4000.0 4000.0 4000.0 4000.0 4000.0 4000.0 4000.0 4000.0 4000.0 4000.0 4000.0 4000.0 4000.0 4000.0 4000.0 4000.0 4000.0 4000.0 4000.0 4000.0 4000.0 4000.0 4000.0 4000.0 4000.0 4000.0 4000.0 4000.0 4000.0 4000.0 4000.0 4000.0 4000.0 4000.0 4000.0 4000.0 4000.0 4000.0 4000.0 4000.0 4000.0 4000.0 4000.0 4000.0 4000.0 4000.0 4000.0 4000.0 4000.0 4000.0 4000.0 4000.0 4000.0 4000.0 4000.0 4000.0 4000.0 4000.0 4000.0 4000.0 4000.0 4000.0 4000.0 4000.0 4000.0 4000.0 4000.0 4000.0 4000.0 4000.0 4000.0 4000.0 4000.0 4000.0 4000.0 4000.0 4000.0 4000.0 4000.0 4000.0 4000.0 4000.0 4000.0 4000.0 4000.0 4000.0 4000.0 4000.0 4000.0 4000.0 4000.0 4000.0 4000.0 4000.0 4000.0 4000.0 4000.0 4000.0 4000.0 4000.0 4000.0 4000.0 4000.0 4000.0 4000.0 4000.0 4000.0 4000.0 4000.0 4000.0 4000.0 4000.0 4000.0 4000.0 4000.0 4000.0 4000.0 4000.0 4000.0 4000.0 4000.0 4000.0 4000.0 4000.0 4000.0 4000.0 4000.0 4000.0 4000.0 4000.0 4000.0 4000.0 4000.0 4000.0 4000.0 4000.0 4000.0 4000.0 4000.0 4000.0 4000.0 4000.0 4000.0 4000.0 4000.0 4000.0 4000.0 4000.0 4000.0 4000.0 4000.0 4000.0 4000.0 4000.0 4000.0 4000.0 4000.0 4000.0 4000.0 4000.0 4000.0 4000.0 4000.0 4000.0 4000.0 4000.0 4000.0 4000.0 4000.0 4000.0 4000.0 4000.0 4000.0 4000.0 4000.0 4000.0 4000.0 4000.0 4000.0 4000.0 4000.0 4000.0 4000.0 4000.0 4000.0 4000.0 4000.0 4000.0 4000.0 4000.0 4000.0 4000.0 4000.0 4000.0 4000.0 4000.0 4000.0 4000.0 4000.0 4000.0 4000.0 4000.0 4000.0 4000.0 4000.0 4000.0 4000.0 4000.0 4000.0 4000.0 4000.0 4000.0 4000.0 4000.0 4000.0 4000.0 4000.0 4000.0 4000.0 4000.0 4000.0 4000.0 4000.0 4000.0 4000.0 4000.0 4000.0 4000.0 4000.0 4000.0 4000.0 4000.0 4000.0 4000.0 4000.0 4000.0 4000.0 4000.0 4000.0 4000.0 4000.0 4000.0 4000.0 4000.0 4000.0 4000.0 4000.0 4000.0 4000.0 4000.0 4000.0 4000.0 4000.0 4000.0 4000.0 4000.0 4000.0 4000.0 4000.0 4000.0 4000.0 4000.0 4000.0 4000.0 4000.0 4000.0 4000.0 4000.0 4000.0 4000.0 4000.0 4000.0 4000.0 4000.0 4000.0 4000.0 4000.0 4000.0 4000.0 4000.0 4000.0 4000.0 4000.0 4000.0 4000.0 4000.0 4000.0 4000.0 4000.0 4000.0 4000.0 4000.0 4000.0 4000.0 4000.0 4000.0 4000.0 4000.0 4000.0 4000.0 4000.0 4000.0 4000.0 4000.0 4000.0 4000.0 4000.0 4000.0 4000.0 4000.0 4000.0 4000.0 4000.0 4000.0 4000.0 4000.0 4000.0 4000.0 4000.0 4000.0 4000.0 4000.0 4000.0 4000.0 4000.0 4000.0 4000.0 4000.0 4000.0 4000.0 4000.0 4000.0 4000.0 4000.0 4000.0 4000.0 4000.0 4000.0 4000.0 4000.0 4000.0 4000.0 4000.0 4000.0 4000.0 4000.0 4000.0 4000.0 4000.0 4000.0 4000.0 4000.0 4000.0 4000.0 4000.0 4000.0 4000.0 4000.0 4000.0 4000.0 4000.0 4000.0 4000.0 4000.0 4000.0 4000.0 4000.0 4000.0 4000.0 4000.0 4000.0 4000.0 4000.0 4000.0 4000.0 4000.0 4000.0 4000.0 4000.0 4000.0 4000.0 4000.0 4000.0 4000.0 4000.0 4000.0 4000.0 4000.0 4000.0 4000.0 4000.0 4000.0 4000.0 4000.0 4000.0 4000.0 4000.0 4000.0 4000.0 4000.0 4000.0 4000.0 4000.0 4000.0 4000.0 4000.0 4000.0 4000.0 4000.0 4000.0 4000.0 4000.0 4000.0 4000.0 4000.0 4000.0 4000.0 4000.0 4000.0 4000.0 4000.0 4000.0 4000.0 4000.0 4000.0 4000.0 4000.0 4000.0 4000.0 4000.0 4000.0 4000.0 4000.0 4000.0 4000.0 4000.0 4000.0 4000.0 4000.0 4000.0 4000.0 4000.0 4000.0 4000.0 4000.0 4000.0 4000.0 4000.0 4000.0 4000.0 4000.0 4000.0 4000.0 4000.0 4000.0 4000.0 4000.0 4000.0 4000.0 4000.0 4000.0 4000.0 4000.0 4000.0 4000.0 4000.0 4000.0 4000.0 4000.0 4000.0 4000.0 4000.0 4000.0 4000.0 4000.0 4000.0 4000.0 4000.0 4000.0 4000.0 4000.0 4000.0 4000.0 4000.0 4000.0 4000.0 4000.0 4000.0 4000.0 4000.0 4000.0 4000.0 4000.0 4000.0 4000.0 4000.0 4000.0 4000.0 4000.0 4000.0 4000.0 4000.0 4000.0 4000.0 4000.0 4000.0 4000.0 4000.0 4000.0 4000.0 4000.0 4000.0 4000.0 4000.0 4000.0 4000.0 4000.0 4000.0 4000.0 4000.0 4000.0 4000.0 4000.0 4000.0 4000.0 4000.0 4000.0 4000.0 4000.0 4000.0 4000.0 4000.0 4000.0 4000.0 4000.0 4000.0 4000.0 4000.0 4000.0 4000.0 4000.0 4000.0 4000.0 4000.0 4000.0 4000.0 4000.0 4000.0 4000.0 4000.0 4000.0 4000.0 4000.0 4000.0 4000.0 4000.0 4000.0 4000.0 4000.0 4000.0 4000.0 4000.0 4000.0 4000.0 4000.0 4000.0 4000.0 4000.0 4000.0 4000.0 4000.0 4000.0 4000.0 4000.0 4000.0 4000.0 4000.0 4000.0 4000.0 4000.0 4000.0 4000.0 4000.0 4000.0 4000.0 4000.0 4000.0 4000.0 4000.0 4000.0 4000.0 4000.0 4000.0 4000.0 4000.0 4000.0 4000.0 4000.0 4000.0 4000.0 4000.0 4000.0 4000.0 4000.0 4000.0 4000.0 4000.0 4000.0 4000.0 4000.0 4000.0 4000.0 4000.0 4000.0 4000.0 4000.0 4000.0 4000.0 4000.0 4000.0 4000.0 4000.0 4000.0 4000.0 4000.0 4000.0 4000.0 4000.0 4000.0 4000.0 4000.0 4000.0 4000.0 4000.0 4000.0 4000.0 4000.0 4000.0 4000.0 4000.0 4000.0 4000.0 4000.0 4000.0 4000.0 4000.0 4000.0 4000.0 4000.0 4000.0 4000.0 4000.0 4000.0 4000.0 4000.0 4000.0 4000.0 4000.0 4000.0 4000.0 4000.0 4000.0 4000.0 4000.0 4000.0 4000.0 4000.0 4000.0 4000.0 4000.0 4000.0 4000.0 4000.0 4000.0 4000.0 4000.0 4000.0 4000.0 4000.0 4000.0 4000.0 4000.0 4000.0 4000.0 4000.0 4000.0 4000.0 4000.0 4000.0 4000.0 4000.0 4000.0 4000.0 4000.0 4000.0 4000.0 4000.0 4000.0 4000.0 4000.0 4000.0 4000.0 4000.0 4000.0 4000.0 4000.0 4000.0 4000.0 4000.0 4000.0 4000.0 4000.0 4000.0 4000.0 4000.0 4000.0 4000.0 4000.0 4000.0 4000.0 4000.0 4000.0 4000.0 4000.0 4000.0 4000.0 4000.0 4000.0 4000.0 4000.0 4000.0 4000.0 4000.0 4000.0 4000.0 4000.0 4000.0 4000.0 4000.0 4000.0 4000.0 4000.0 4000.0 4000.0 4000.0 4000.0 4000.0 4000.0 4000.0 4000.0 4000.0 4000.0 4000.0 4000.0 4000.0 4000.0 4000.0 4000.0 4000.0 4000.0 4000.0 4000.0 4000.0 4000.0 4000.0 4000.0 4000.0 4000.0 4000.0 4000.0 4000.0 4000.0 4000.0 4000.0 4000.0 4000.0 4000.0 4000.0 4000.0 4000.0 4000.0 4000.0 4000.0 4000.0 4000.0 4000.0 4000.0 4000.0 4000.0 4000.0 4000.0 4000.0 4000.0 4000.0 4000.0 4000.0 4000.0 4000.0 4000.0 4000.0 4000.0 4000.0 4000.0 4000.0 4000.0 4000.0 4000.0 4000.0 4000.0 4000.0 4000.0 4000.0 4000.0 4000.0 4000.0 4000.0 4000.0 4000.0 4000.0 4000.0 4000.0 4000.0 4000.0 4000.0 4000.0 4000.0 4000.0 4000.0 4000.0 4000.0 4000.0 4000.0 4000.0 4000.0 4000.0 4000.0 4000.0 4000.0 4000.0 4000.0 4000.0 4000.0 4000.0 4000.0 4000.0 4000.0 4000.0 4000.0 4000.0 4000.0 4000.0 4000.0 4000.0 4000.0 4000.0 4000.0 4000.0 4000.0 4000.0 4000.0 4000.0 4000.0 4000.0 4000.0 4000.0 4000.0 4000.0 4000.0 4000.0 4000.0 4000.0 4000.0 4000.0 4000.0 4000.0 4000.0 4000.0 4000.0 4000.0 4000.0 4000.0 4000.0 4000.0 4000.0 4000.0 4000.0 4000.0 4000.0 4000.0 4000.0 4000.0 4000.0 4000.0 4000.0 4000.0 4000.0 4000.0 4000.0 4000.0 4000.0 4000.0 4000.0 4000.0 4000.0 4000.0 4000.0 4000.0 4000.0 4000.0 4000.0 4000.0 4000.0 4000.0 4000.0 4000.0 4000.0 4000.0 4000.0 4000.0 4000.0 4000.0 4000.0 4000.0 4000.0 4000.0 4000.0 4000.0 4000.0 4000.0 4000.0 4000.0 4000.0 4000.0 4000.0 4000.0 4000.0 4000.0 4000.0 4000.0 4000.0 4000.0 4000.0 4000.0 4000.0 4000.0 4000.0 4000.0 4000.0 4000.0 4000.0 4000.0 4000.0 4000.0 4000.0 4000.0 4000.0 4000.0 4000.0 4000.0 4000.0 4000.0 4000.0 4000.0 4000.0 4000.0 4000.0 4000.0 4000.0 4000.0 4000.0 4000.0 4000.0 4000.0 4000.0 4000.0 4000.0 4000.0 4000.0 4000.0 4000.0 4000.0 4000.0 4000.0 4000.0 4000.0 4000.0 4000.0 4000.0 4000.0 4000.0 4000.0 4000.0 4000.0 4000.0 4000.0 4000.0 4000.0 4000.0 4000.0 4000.0 4000.0 4000.0 4000.0 4000.0 4000.0 4000.0 4000.0 4000.0 4000.0 4000.0 4000.0 4000.0 4000.0 4000.0 4000.0 4000.0 4000.0 4000.0 4000.0 4000.0 4000.0 4000.0 4000.0 4000.0 4000.0 4000.0 4000.0 4000.0 4000.0 4000.0 4000.0 4000.0 4000.0 4000.0 4000.0 4000.0 4000.0 4000.0 4000.0 4000.0 4000.0 4000.0 4000.0 4000.0 4000.0 4000.0 4000.0 4000.0 4000.0 4000.0 4000.0 4000.0 4000.0 4000.0 4000.0 4000.0 4000.0 4000.0 4000.0 4000.0 4000.0 4000.0 4000.0 4000.0 4000.0 4000.0 4000.0 4000.0 4000.0 4000.0 4000.0 4000.0 4000.0 4000.0 4000.0 4000.0 4000.0 4000.0 4000.0 4000.0 4000.0 4000.0 4000.0 4000.0 4000.0 4000.0 4000.0 4000.0 4000.0 4000.0 4000.0 4000.0 4000.0 4000.0 4000.0 4000.0 4000.0 4000.0 4000.0 4000.0 4000.0 4000.0 4000.0 4000.0 4000.0 4000.0 4000.0 4000.0 4000.0 4000.0 4000.0 4000.0 4000.0 4000.0 4000.0 4000.0 4000.0 4000.0 4000.0 4000.0 4000.0 4000.0 4000.0 4000.0 4000.0 4000.0 4000.0 4000.0 4000.0 4000.0 4000.0 4000.0 4000.0 4000.0 4000.0 4000.0 4000.0 4000.0 4000.0 4000.0 4000.0 4000.0 4000.0 4000.0 4000.0 4000.0 4000.0 4000.0 4000.0 4000.0 4000.0 4000.0 4000.0 4000.0 4000.0 4000.0 4000.0 4000.0 4000.0 4000.0 4000.0 4000.0 4000.0 4000.0 4000.0 4000.0 4000.0 4000.0 4000.0 4000.0 4000.0 4000.0 4000.0 4000.0 4000.0 4000.0 4000.0 4000.0 4000.0 4000.0 4000.0 4000.0 4000.0 4000.0 4000.0 4000.0 4000.0 4000.0 4000.0 4000.0 4000.0 4000.0 4000.0 4000.0 4000.0 4000.0 4000.0 4000.0 4000.0 4000.0 4000.0 4000.0 4000.0 4000.0 4000.0 4000.0 4000.0 4000.0 4000.0 4000.0 4000.0 4000.0 4000.0 4000.0 4000.0 4000.0 4000.0 4000.0 4000.0 4000.0 4000.0 4000.0 4000.0 4000.0 4000.0 4000.0 4000.0 4000.0 4000.0 4000.0 4000.0 4000.0 4000.0 4000.0 4000.0 4000.0 4000.0 4000.0 4000.0 4000.0 4000.0 4000.0 4000.0 4000.0 4000.0 4000.0 4000.0 4000.0 4000.0 4000.0 4000.0 4000.0 4000.0 4000.0 4000.0 4000.0 4000.0 4000.0 4000.0 4000.0 4000.0 4000.0 4000.0 4000.0 4000.0 4000.0 4000.0 4000.0 4000.0 4000.0 4000.0 4000.0 4000.0 4000.0 4000.0 4000.0 4000.0 4000.0 4000.0 4000.0 4000.0 4000.0 4000.0 4000.0 4000.0 4000.0 4000.0 4000.0 4000.0 4000.0 4000.0 4000.0 4000.0 4000.0 4000.0 4000.0 4000.0 4000.0 4000.0 4000.0 4000.0 4000.0 4000.0 4000.0 4000.0 4000.0 4000.0 4000.0 4000.0 4000.0 4000.0 4000.0 4000.0 4000.0 4000.0 4000.0 4000.0 4000.0 4000.0 4000.0 4000.0 4000.0 4000.0 4000.0 4000.0 4000.0 4000.0 4000.0 4000.0 4000.0 4000.0 4000.0 4000.0 4000.0 4000.0 4000.0 4000.0 4000.0 4000.0 4000.0 4000.0 4000.0 4000.0 4000.0 4000.0 4000.0 4000.0 4000.0 4000.0 4000.0 4000.0 4000.0 4000.0 4000.0 4000.0 4000.0 4000.0 4000.0 4000.0 4000.0 4000.0 4000.0 4000.0 4000.0 4000.0 4000.0 4000.0 4000.0 4000.0 4000.0 4000.0 4000.0 4000.0 4000.0 4000.0 4000.0 4000.0 4000.0 4000.0 4000.0 4000.0 4000.0 4000.0 4000.0 4000.0 4000.0 4000.0 4000.0 4000.0 4000.0 4000.0 4000.0 4000.0 4000.0 4000.0 4000.0 4000.0 4000.0 4000.0 4000.0 4000.0 4000.0 4000.0 4000.0 4000.0 4000.0 4000.0 4000.0 4000.0 4000.0 4000.0 4000.0 4000.0 4000.0 4000.0 4000.0 4000.0 4000.0 4000.0 4000.0 4000.0 4000.0 4000.0 4000.0 4000.0 4000.0 4000.0 4000.0 4000.0 4000.0 4000.0 4000.0 4000.0 4000.0 4000.0 4000.0 4000.0 4000.0 4000.0 4000.0 4000.0 4000.0 4000.0 4000.0 4000.0 4000.0 4000.0 4000.0 4000.0 4000.0 4000.0 4000.0 4000.0 4000.0 4000.0 4000.0 4000.0 4000.0 4000.0 4000.0 4000.0 4000.0 4000.0 4000.0 4000.0 4000.0 4000.0 4000.0 4000.0 4000.0 4000.0 4000.0 4000.0 4000.0 4000.0 4000.0 4000.0 4000.0 4000.0 4000.0 4000.0 4000.0 4000.0 4000.0 4000.0 4000.0 4000.0 4000.0 4000.0 4000.0 4000.0 4000.0 4000.0 4000.0 4000.0 4000.0 4000.0 4000.0 4000.0 4000.0 4000.0 4000.0 4000.0 4000.0 4000.0 4000.0 4000.0 4000.0 4000.0 4000.0 4000.0 4000.0 4000.0 4000.0 4000.0 4000.0 4000.0 4000.0 4000.0 4000.0 4000.0 4000.0 4000.0 4000.0 4000.0 4000.0 4000.0 4000.0 4000.0 4000.0 4000.0 4000.0 4000.0 4000.0 4000.0 4000.0 4000.0 4000.0 4000.0 4000.0 4000.0 4000.0 4000.0 4000.0 4000.0 4000.0 4000.0 4000.0 4000.0 4000.0 4000.0 4000.0 4000.0 4000.0 4000.0 4000.0 4000.0 4000.0 4000.0 4000.0 4000.0 4000.0 4000.0 4000.0 4000.0 4000.0 4000.0 4000.0 4000.0 4000.0 4000.0 4000.0 4000.0 4000.0 4000.0 4000.0 4000.0 4000.0 4000.0 4000.0 4000.0 4000.0 4000.0 4000.0 4000.0 4000.0 4000.0 4000.0 4000.0 4000.0 4000.0 4000.0 4000.0 4000.0 4000.0 4000.0 4000.0 4000.0 4000.0 4000.0 4000.0 4000.0 4000.0 4000.0 4000.0 4000.0 4000.0 4000.0 4000.0 4000.0 4000.0 4000.0 4000.0 4000.0 4000.0 4000.0 4000.0 4000.0 4000.0 4000.0 4000.0 4000.0 4000.0 4000.0 4000.0 4000.0 4000.0 4000.0 4000.0 4000.0 4000.0 4000.0 4000.0 4000.0 4000.0 4000.0 4000.0 4000.0 4000.0 4000.0 4000.0 4000.0 4000.0 4000.0 4000.0 4000.0 4000.0 4000.0 4000.0 4000.0 4000.0 4000.0 4000.0 4000.0 4000.0 4000.0 4000.0 4000.0 4000.0 4000.0 4000.0 4000.0 4000.0 4000.0 4000.0 4000.0 4000.0 4000.0 4000.0 4000.0 4000.0 4000.0 4000.0 4000.0 4000.0 4000.0 4000.0 4000.0 4000.0 4000.0 4000.0 4000.0 4000.0 4000.0 4000.0 4000.0 4000.0 4000.0 4000.0 4000.0 4000.0 4000.0 4000.0 4000.0 4000.0 4000.0 4000.0 4000.0 4000.0 4000.0 4000.0 4000.0 4000.0 4000.0 4000.0 4000.0 4000.0 4000.0 4000.0 4000.0 4000.0 4000.0 4000.0 4000.0 4000.0 4000.0 4000.0 4000.0 4000.0 4000.0 4000.0 4000.0 4000.0 4000.0 4000.0 4000.0 4000.0 4000.0 4000.0 4000.0 4000.0 4000.0 4000.0 4000.0 4000.0 4000.0 4000.0 4000.0 4000.0 4000.0 4000.0 4000.0 4000.0 4000.0 4000.0 4000.0 4000.0 4000.0 4000.0 4000.0 4000.0 4000.0 4000.0 4000.0 4000.0 4000.0 4000.0 4000.0 4000.0 4000.0 4000.0 4000.0 4000.0 4000.0 4000.0 4000.0 4000.0 4000.0 4000.0 4000.0 4000.0 4000.0 4000.0 4000.0 4000.0 4000.0 4000.0 4000.0 4000.0 4000.0 4000.0 4000.0 4000.0 4000.0 4000.0 4000.0 4000.0 4000.0 4000.0 4000.0 4000.0 4000.0 4000.0 4000.0 4000.0 4000.0 4000.0 4000.0 4000.0 4000.0 4000.0 4000.0 4000.0 4000.0 4000.0 4000.0 4000.0 4000.0 4000.0 4000.0 4000.0 4000.0 4000.0 4000.0 4000.0 4000.0 4000.0 4000.0 4000.0 4000.0 4000.0 4000.0 4000.0 4000.0 4000.0 4000.0 4000.0 4000.0 4000.0 4000.0 4000.0 4000.0 4000.0 4000.0 4000.0 4000.0 4000.0 4000.0 4000.0 4000.0 4000.0 4000.0 4000.0 4000.0 4000.0 4000.0 4000.0 4000.0 4000.0 4000.0 4000.0 4000.0 4000.0 4000.0 4000.0 4000.0 4000.0 4000.0 4000.0 4000.0 4000.0 4000.0 4000.0 4000.0 4000.0 4000.0 4000.0 4000.0 4000.0 4000.0 4000.0 4000.0 4000.0 4000.0 4000.0 4000.0 4000.0 4000.0 4000.0 4000.0 4000.0 4000.0 4000.0 4000.0 4000.0 4000.0 4000.0 4000.0 4000.0 4000.0 4000.0 4000.0 4000.0 4000.0 4000.0 4000.0 4000.0 4000.0 4000.0 4000.0 4000.0 4000.0 4000.0 4000.0 4000.0 4000.0 4000.0 4000.0 4000.0 4000.0 4000.0 4000.0 4000.0 4000.0 4000.0 4000.0 4000.0 4000.0 4000.0 4000.0 4000.0 4000.0 4000.0 4000.0 4000.0 4000.0 4000.0 4000.0 4000.0 4000.0 4000.0 4000.0 4000.0 4000.0 4000.0 4000.0 4000.0 4000.0 4000.0 4000.0 4000.0 4000.0 4000.0 4000.0 4000.0 4000.0 4000.0 4000.0 4000.0 4000.0 4000.0 4000.0 4000.0 4000.0 4000.0 4000.0 4000.0 4000.0 4000.0 4000.0 4000.0 4000.0 4000.0 4000.0 4000.0 4000.0 4000.0 4000.0 4000.0 4000.0 4000.0 4000.0 4000.0 4000.0 4000.0 4000.0 4000.0 4000.0 4000.0 4000.0 4000.0 4000.0 4000.0 4000.0 4000.0 4000.0 4000.0 4000.0 4000.0 4000.0 4000.0 4000.0 4000.0 4000.0 4000.0 4000.0 4000.0 4000.0 4000.0 4000.0 4000.0 4000.0 4000.0 4000.0 4000.0 4000.0 4000.0 4000.0 4000.0 4000.0 4000.0 4000.0 4000.0 4000.0 4000.0 4000.0 4000.0 4000.0 4000.0 4000.0 4000.0 4000.0 4000.0 4000.0 4000.0 4000.0 4000.0 4000.0 4000.0 4000.0 4000.0 4000.0 4000.0 4000.0 4000.0 4000.0 4000.0 4000.0 4000.0 4000.0 4000.0 4000.0 4000.0 4000.0 4000.0 4000.0 4000.0 4000.0 4000.0 4000.0 4000.0 4000.0 4000.0 4000.0 4000.0 4000.0 4000.0 4000.0 4000.0 4000.0 4000.0 4000.0 4000.0 4000.0 4000.0 4000.0 4000.0 4000.0 4000.0 4000.0 4000.0 4000.0 4000.0 4000.0 4000.0 4000.0 4000.0 4000.0 4000.0 4000.0 4000.0 4000.0 4000.0 4000.0 4000.0 4000.0 4000.0 4000.0 4000.0 4000.0 4000.0 4000.0 4000.0 4000.0 4000.0 4000.0 4000.0 4000.0 4000.0 4000.0 4000.0 4000.0 4000.0 4000.0 4000.0 4000.0 4000.0 4000.0 4000.0 4000.0 4000.0 4000.0 4000.0 4000.0 4000.0 4000.0 4000.0 4000.0 4000.0 4000.0 4000.0 4000.0 4000.0 4000.0 4000.0 4000.0 4000.0 4000.0 4000.0 4000.0 4000.0 4000.0 4000.0 4000.0 4000.0 4000.0 4000.0 4000.0 4000.0 4000.0 4000.0 4000.0 4000.0 4000.0 4000.0 4000.0 4000.0 4000.0 4000.0 4000.0 4000.0 4000.0 4000.0 4000.0 4000.0 4000.0 4000.0 4000.0 4000.0 4000.0 4000.0 4000.0 4000.0 4000.0 4000.0 4000.0 4000.0 4000.0 4000.0 4000.0 4000.0 4000.0 4000.0 4000.0 4000.0 4000.0 4000.0 4000.0 4000.0 4000.0 4000.0 4000.0 4000.0 4000.0 4000.0 4000.0 4000.0 4000.0 4000.0 4000.0 4000.0 4000.0 4000.0 4000.0 4000.0 4000.0 4000.0 4000.0 4000.0 4000.0 4000.0 4000.0 4000.0 4000.0 4000.0 4000.0 4000.0 4000.0 4000.0 4000.0 4000.0 4000.0 4000.0 4000.0 4000.0 4000.0 4000.0 4000.0 4000.0 4000.0 4000.0 4000.0 4000.0 4000.0 4000.0 4000.0 4000.0 4000.0 4000.0 4000.0 4000.0 4000.0 4000.0 4000.0 4000.0 4000.0 4000.0 4000.0 4000.0 4000.0 4000.0 4000.0 4000.0 4000.0 4000.0 4000.0 4000.0 4000.0 4000.0 4000.0 4000.0 4000.0 4000.0 4000.0 4000.0 4000.0 4000.0 4000.0 4000.0 4000.0 4000.0 4000.0 4000.0 4000.0 4000.0 4000.0 4000.0 4000.0 4000.0 4000.0 4000.0 4000.0 4000.0 4000.0 4000.0 4000.0 4000.0 4000.0 4000.0 4000.0 4000.0 4000.0 4000.0 4000.0 4000.0 4000.0 4000.0 4000.0 4000.0 4000.0 4000.0 4000.0 4000.0 4000.0 4000.0 4000.0 4000.0 4000.0 4000.0 4000.0 4000.0 4000.0 4000.0 4000.0 4000.0 4000.0 4000.0 4000.0 4000.0 4000.0 4000.0 4000.0 4000.0 4000.0 4000.0 4000.0 4000.0 4000.0 4000.0 4000.0 4000.0 4000.0 4000.0 4000.0 4000.0 4000.0 4000.0 4000.0 4000.0 4000.0 4000.0 4000.0 4000.0 4000.0 4000.0 4000.0 4000.0 4000.0 4000.0 4000.0 4000.0 4000.0 4000.0 4000.0 4000.0 4000.0 4000.0 4000.0 4000.0 4000.0 4000.0 4000.0 4000.0 4000.0 4000.0 4000.0 4000.0 4000.0 4000.0 4000.0 4000.0 4000.0 4000.0 4000.0 4000.0 4000.0 4000.0 4000.0 4000.0 4000.0 4000.0 4000.0 4000.0 4000.0 4000.0 4000.0 4000.0 4000.0 4000.0 4000.0 4000.0 4000.0 4000.0 4000.0 4000.0 4000.0 4000.0 4000.0 4000.0 4000.0 4000.0 4000.0 4000.0 4000.0 4000.0 4000.0 4000.0 4000.0 4000.0 4000.0 4000.0 4000.0 4000.0 4000.0 4000.0 4000.0 4000.0 4000.0 4000.0 4000.0 4000.0 4000.0 4000.0 4000.0 4000.0 4000.0 4000.0 4000.0 4000.0 4000.0 4000.0 4000.0 4000.0 4000.0 4000.0 4000.0 4000.0 4000.0 4000.0 4000.0 4000.0 4000.0 4000.0 4000.0 4000.0 4000.0 4000.0 4000.0 4000.0 4000.0 4000.0 4000.0 4000.0 4000.0 4000.0 4000.0 4000.0 4000.0 4000.0 4000.0 4000.0 4000.0 4000.0 4000.0 4000.0 4000.0 4000.0 4000.0 4000.0 4000.0 4000.0 4000.0 4000.0 4000.0 4000.0 4000.0 4000.0 4000.0 4000.0 4000.0 4000.0 4000.0 4000.0 4000.0 4000.0 4000.0 4000.0 4000.0 4000.0 4000.0 4000.0 4000.0 4000.0 4000.0 4000.0 4000.0 4000.0 4000.0 4000.0 4000.0 4000.0 4000.0 4000.0 4000.0 4000.0 4000.0 4000.0 4000.0 4000.0 4000.0 4000.0 4000.0 4000.0 4000.0 4000.0 4000.0 4000.0 4000.0 4000.0 4000.0 4000.0 4000.0 4000.0 4000.0 4000.0 4000.0 4000.0 4000.0 4000.0 4000.0 4000.0 4000.0 4000.0 4000.0 4000.0 4000.0 4000.0 4000.0 4000.0 4000.0 4000.0 4000.0 4000.0 4000.0 4000.0 4000.0 4000.0 4000.0 4000.0 4000.0 4000.0 4000.0 4000.0 4000.0 4000.0 4000.0 4000.0 4000.0 4000.0 4000.0 4000.0 4000.0 4000.0 4000.0 4000.0 4000.0 4000.0 4000.0 4000.0 4000.0 4000.0 4000.0 4000.0 4000.0 4000.0 4000.0 4000.0 4000.0 4000.0 4000.0 4000.0 4000.0 4000.0 4000.0 4000.0 4000.0 4000.0 4000.0 4000.0 4000.0 4000.0 4000.0 4000.0 4000.0 4000.0 4000.0 4000.0 4000.0 4000.0 4000.0 4000.0 4000.0 4000.0 4000.0 4000.0 4000.0 4000.0 4000.0 4000.0 4000.0 4000.0 4000.0 4000.0 4000.0 4000.0 4000.0 4000.0 4000.0 4000.0 4000.0 4000.0 4000.0 4000.0 4000.0 4000.0 4000.0 4000.0 4000.0 4000.0 4000.0 4000.0 4000.0 4000.0 4000.0 4000.0 4000.0 4000.0 4000.0 4000.0 4000.0 4000.0 4000.0 4000.0 4000.0 4000.0 4000.0 4000.0 4000.0 4000.0 4000.0 4000.0 4000.0 4000.0 4000.0 4000.0 4000.0 4000.0 4000.0 4000.0 4000.0 4000.0 4000.0 4000.0 4000.0 4000.0 4000.0 4000.0 4000.0 4000.0 4000.0 4000.0 4000.0 4000.0 4000.0 4000.0 4000.0 4000.0 4000.0 4000.0 4000.0 4000.0 4000.0 4000.0 4000.0 4000.0 4000.0 4000.0 4000.0 4000.0 4000.0 4000.0 4000.0 4000.0 4000.0 4000.0 4000.0 4000.0 4000.0 4000.0 4000.0 4000.0 4000.0 4000.0 4000.0 4000.0 4000.0 4000.0 4000.0 4000.0 4000.0 4000.0 4000.0 4000.0 4000.0 4000.0 4000.0 4000.0 4000.0 4000.0 4000.0 4000.0 4000.0 4000.0 4000.0 4000.0 4000.0 4000.0 4000.0 4000.0 4000.0 4000.0 4000.0 4000.0 4000.0 4000.0 4000.0 4000.0 4000.0 4000.0 4000.0 4000.0 4000.0 4000.0 4000.0 4000.0 4000.0 4000.0 4000.0 4000.0 4000.0 4000.0 4000.0 4000.0 4000.0 4000.0 4000.0 4000.0 4000.0 4000.0 4000.0 4000.0 4000.0 4000.0 4000.0 4000.0 4000.0 4000.0 4000.0 4000.0 4000.0 4000.0 4000.0 4000.0 4000.0 4000.0 4000.0 4000.0 4000.0 4000.0 4000.0 4000.0 4000.0 4000.0 4000.0 4000.0 4000.0 4000.0 4000.0 4000.0 4000.0 4000.0 4000.0 4000.0 4000.0 4000.0 4000.0 4000.0 4000.0 4000.0 4000.0 4000.0 4000.0 4000.0 4000.0 4000.0 4000.0 4000.0 4000.0 4000.0 4000.0 4000.0 4000.0 4000.0 4000.0 4000.0 4000.0 4000.0 4000.0 4000.0 4000.0 4000.0 4000.0 4000.0 4000.0 4000.0 4000.0 4000.0 4000.0 4000.0 4000.0 4000.0 4000.0 4000.0 4000.0 4000.0 4000.0 4000.0 4000.0 4000.0 4000.0 4000.0 4000.0 4000.0 4000.0 4000.0 4000.0 4000.0 4000.0 4000.0 4000.0 4000.0 4000.0 4000.0 4000.0 4000.0 4000.0 4000.0 4000.0 4000.0 4000.0 4000.0 4000.0 4000.0 4000.0 4000.0 4000.0 4000.0 4000.0 4000.0 4000.0 4000.0 4000.0 4000.0 4000.0 4000.0 4000.0 4000.0 4000.0 4000.0 4000.0 4000.0 4000.0 4000.0 4000.0 4000.0 4000.0 4000.0 4000.0 4000.0 4000.0 4000.0 4000.0 4000.0 4000.0 4000.0 4000.0 4000.0 4000.0 4000.0 4000.0 4000.0 4000.0 4000.0 4000.0 4000.0 4000.0 4000.0 4000.0 4000.0 4000.0 4000.0 4000.0 4000.0 4000.0 4000.0 4000.0 4000.0 4000.0 4000.0 4000.0 4000.0 4000.0 4000.0 4000.0 4000.0 4000.0 4000.0 4000.0 4000.0 4000.0 4000.0 4000.0 4000.0 4000.0 4000.0 4000.0 4000.0 4000.0 4000.0 4000.0 4000.0 4000.0 4000.0 4000.0 4000.0 4000.0 4000.0 4000.0 4000.0 4000.0 4000.0 4000.0 4000.0 4000.0 4000.0 4000.0 4000.0 4000.0 4000.0 4000.0 4000.0 4000.0 4000.0 4000.0 4000.0 4000.0 4000.0 4000.0 4000.0 4000.0 4000.0 4000.0 4000.0 4000.0 4000.0 4000.0 4000.0 4000.0 4000.0 4000.0 4000.0 4000.0 4000.0 4000.0 4000.0 4000.0 4000.0 4000.0 4000.0 4000.0 4000.0 4000.0 4000.0 4000.0 4000.0 4000.0 4000.0 4000.0 4000.0 4000.0 4000.0 4000.0 4000.0 4000.0 4000.0 4000.0 4000.0 4000.0 4000.0 4000.0 4000.0 4000.0 4000.0 4000.0 4000.0 4000.0 4000.0 4000.0 4000.0 4000.0 4000.0 4000.0 4000.0 4000.0 4000.0 4000.0 4000.0 4000.0 4000.0 4000.0 4000.0 4000.0 4000.0 4000.0 4000.0 4000.0 4000.0 4000.0 4000.0 4000.0 4000.0 4000.0 4000.0 4000.0 4000.0 4000.0 4000.0 4000.0 4000.0 4000.0 4000.0 4000.0 4000.0 4000.0 4000.0 4000.0 4000.0 4000.0 4000.0 4000.0 4000.0 4000.0 4000.0 4000.0 4000.0 4000.0 4000.0 4000.0 4000.0 4000.0 4000.0 4000.0 4000.0 4000.0 4000.0 4000.0 4000.0 4000.0 4000.0 4000.0 4000.0 4000.0 4000.0 4000.0 4000.0 4000.0 4000.0 4000.0 4000.0 4000.0 4000.0 4000.0 4000.0 4000.0 4000.0 4000.0 4000.0 4000.0 4000.0 4000.0 4000.0 4000.0 4000.0 4000.0 4000.0 4000.0 4000.0 4000.0 4000.0 4000.0 4000.0 4000.0 4000.0 4000.0 4000.0 4000.0 4000.0 4000.0 4000.0 4000.0 4000.0 4000.0 4000.0 4000.0 4000.0 4000.0 4000.0 4000.0 4000.0 4000.0 4000.0 4000.0 4000.0 4000.0 4000.0 4000.0 4000.0 4000.0 4000.0 4000.0 4000.0 4000.0 4000.0 4000.0 4000.0 4000.0 4000.0 4000.0 4000.0 4000.0 4000.0 4000.0 4000.0 4000.0 4000.0 4000.0 4000.0 4000.0 4000.0 4000.0 4000.0 4000.0 4000.0 4000.0 4000.0 4000.0 4000.0 4000.0 4000.0 4000.0 4000.0 4000.0 4000.0 4000.0 4000.0 4000.0 4000.0 4000.0 4000.0 4000.0 4000.0 4000.0 4000.0 4000.0 4000.0 4000.0 4000.0 4000.0 4000.0 4000.0 4000.0 4000.0 4000.0 4000.0 4000.0 4000.0 4000.0 4000.0 4000.0 4000.0 4000.0 4000.0 4000.0 4000.0 4000.0 4000.0 4000.0 4000.0 4000.0 4000.0 4000.0 4000.0 4000.0 4000.0 4000.0 4000.0 4000.0 4000.0 4000.0 4000.0 4000.0 4000.0 4000.0 4000.0 4000.0 4000.0 4000.0 4000.0 4000.0 4000.0 4000.0 4000.0 4000.0 4000.0 4000.0 4000.0 4000.0 4000.0 4000.0 4000.0 4000.0 4000.0 4000.0 4000.0 4000.0 4000.0 4000.0 4000.0 4000.0 4000.0 4000.0 4000.0 4000.0 4000.0 4000.0 4000.0 4000.0 4000.0 4000.0 4000.0 4000.0 4000.0 4000.0 4000.0 4000.0 4000.0 4000.0 4000.0 4000.0 4000.0 4000.0 4000.0 4000.0 4000.0 4000.0 4000.0 4000.0 4000.0 4000.0 4000.0 4000.0 4000.0 4000.0 4000.0 4000.0 4000.0 4000.0 4000.0 4000.0 4000.0 4000.0 4000.0 4000.0 4000.0 4000.0 4000.0 4000.0 4000.0 4000.0 4000.0 4000.0 4000.0 4000.0 4000.0 4000.0 4000.0 4000.0 4000.0 4000.0 4000.0 4000.0 4000.0 4000.0 4000.0 4000.0 4000.0 4000.0 4000.0 4000.0 4000.0 4000.0 4000.0 4000.0 4000.0 4000.0 4000.0 4000.0 4000.0 4000.0 4000.0 4000.0 4000.0 4000.0 4000.0 4000.0 4000.0 4000.0 4000.0 4000.0 4000.0 4000.0 4000.0 4000.0 4000.0 4000.0 4000.0 4000.0 4000.0 4000.0 4000.0 4000.0 4000.0 4000.0 4000.0 4000.0 4000.0 4000.0 4000.0 4000.0 4000.0 4000.0 4000.0 4000.0 4000.0 4000.0 4000.0 4000.0 4000.0 4000.0 4000.0 4000.0 4000.0 4000.0 4000.0 4000.0 4000.0 4000.0 4000.0 4000.0 4000.0 4000.0 4000.0 4000.0 4000.0 4000.0 4000.0 4000.0 4000.0 4000.0 4000.0 4000.0 4000.0 4000.0 4000.0 4000.0 4000.0 4000.0 4000.0 4000.0 4000.0 4000.0 4000.0 4000.0 4000.0 4000.0 4000.0 4000.0 4000.0 4000.0 4000.0 4000.0 4000.0 4000.0 4000.0 4000.0 4000.0 4000.0 4000.0 4000.0 4000.0 4000.0 4000.0 4000.0 4000.0 4000.0 4000.0 4000.0 4000.0 4000.0 4000.0 4000.0 4000.0 4000.0 4000.0 4000.0 4000.0 4000.0 4000.0 4000.0 4000.0 4000.0 4000.0 4000.0 4000.0 4000.0 4000.0 4000.0 4000.0 4000.0 4000.0 4000.0 4000.0 4000.0 4000.0 4000.0 4000.0 4000.0 4000.0 4000.0 4000.0 4000.0 4000.0 4000.0 4000.0 4000.0 4000.0 4000.0 4000.0 4000.0 4000.0 4000.0 4000.0 4000.0 4000.0 4000.0 4000.0 4000.0 4000.0 4000.0 4000.0 4000.0 4000.0 4000.0 4000.0 4000.0 4000.0 4000.0 4000.0 4000.0 4000.0 4000.0 4000.0 4000.0 4000.0 4000.0 4000.0 4000.0 4000.0 4000.0 4000.0 4000.0 4000.0 4000.0 4000.0 4000.0 4000.0 4000.0 4000.0 4000.0 4000.0 4000.0 4000.0 4000.0 4000.0 4000.0 4000.0 4000.0 4000.0 4000.0 4000.0 4000.0 4000.0 4000.0 4000.0 4000.0 4000.0 4000.0 4000.0 4000.0 4000.0 4000.0 4000.0 4000.0 4000.0 4000.0 4000.0 4000.0 4000.0 4000.0 4000.0 4000.0 4000.0 4000.0 4000.0 4000.0 4000.0 4000.0 4000.0 4000.0 4000.0 4000.0 4000.0 4000.0 4000.0 4000.0 4000.0 4000.0 4000.0 4000.0 4000.0 4000.0 4000.0 4000.0 4000.0 4000.0 4000.0 4000.0 4000.0 4000.0 4000.0 4000.0 4000.0 4000.0 4000.0 4000.0 4000.0 4000.0 4000.0 4000.0 4000.0 4000.0 4000.0 4000.0 4000.0 4000.0 4000.0 4000.0 4000.0 4000.0 4000.0 4000.0 4000.0 4000.0 4000.0 4000.0 4000.0 4000.0 4000.0 4000.0 4000.0 4000.0 4000.0 4000.0 4000.0 4000.0 4000.0 4000.0 4000.0 4000.0 4000.0 4000.0 4000.0 4000.0 4000.0 4000.0 4000.0 4000.0 4000.0 4000.0 4000.0 4000.0 4000.0 4000.0 4000.0 4000.0 4000.0 4000.0 4000.0 4000.0 4000.0 4000.0 4000.0 4000.0 4000.0 4000.0 4000.0 4000.0 4000.0 4000.0 4000.0 4000.0 4000.0 4000.0 4000.0 4000.0 4000.0 4000.0 4000.0 4000.0 4000.0 4000.0 4000.0 4000.0 4000.0 4000.0 4000.0 4000.0 4000.0 4000.0 4000.0 4000.0 4000.0 4000.0 4000.0 4000.0 4000.0 4000.0 4000.0 4000.0 4000.0 4000.0 4000.0 4000.0 4000.0 4000.0 4000.0 4000.0 4000.0 4000.0 4000.0 4000.0 4000.0 4000.0 4000.0 4000.0 4000.0 4000.0 4000.0 4000.0 4000.0 4000.0 4000.0 4000.0 4000.0 4000.0 4000.0 4000.0 4000.0 4000.0 4000.0 4000.0 4000.0 4000.0 4000.0 4000.0 4000.0 4000.0 4000.0 4000.0 4000.0 4000.0 4000.0 4000.0 4000.0 4000.0 4000.0 4000.0 4000.0 4000.0 4000.0 4000.0 4000.0 4000.0 4000.0 4000.0 4000.0 4000.0 4000.0 4000.0 4000.0 4000.0 4000.0 4000.0 4000.0 4000.0 4000.0 4000.0 4000.0 4000.0 4000.0 4000.0 4000.0 4000.0 4000.0 4000.0 4000.0 4000.0 4000.0 4000.0 4000.0 4000.0 4000.0 4000.0 4000.0 4000.0 4000.0 4000.0 4000.0 4000.0 4000.0 4000.0 4000.0 4000.0 4000.0 4000.0 4000.0 4000.0 4000.0 4000.0 4000.0 4000.0 4000.0 4000.0 4000.0 4000.0 4000.0 4000.0 4000.0 4000.0 4000.0 4000.0 4000.0 4000.0 4000.0 4000.0 4000.0 4000.0 4000.0 4000.0 4000.0 4000.0 4000.0 4000.0 4000.0 4000.0 4000.0 4000.0 4000.0 4000.0 4000.0 4000.0 4000.0 4000.0 4000.0 SCALARS Mass float 1
LOOKUP_TABLE default
11309700000.0 11309700000.0 11309700000.0 11309700000.0 11309700000.0 11309700000.0 11309700000.0 11309700000.0 11309700000.0 11309700000.0 11309700000.0 11309700000.0 11309700000.0 11309700000.0 11309700000.0 11309700000.0 11309700000.0 11309700000.0 11309700000.0 11309700000.0 11309700000.0 11309700000.0 11309700000.0 11309700000.0 11309700000.0 11309700000.0 11309700000.0 11309700000.0 11309700000.0 11309700000.0 11309700000.0 11309700000.0 11309700000.0 11309700000.0 11309700000.0 11309700000.0 11309700000.0 11309700000.0 11309700000.0 11309700000.0 11309700000.0 11309700000.0 11309700000.0 11309700000.0 11309700000.0 11309700000.0 11309700000.0 11309700000.0 11309700000.0 11309700000.0 11309700000.0 11309700000.0 11309700000.0 11309700000.0 11309700000.0 11309700000.0 11309700000.0 11309700000.0 11309700000.0 11309700000.0 11309700000.0 11309700000.0 11309700000.0 11309700000.0 11309700000.0 11309700000.0 11309700000.0 11309700000.0 11309700000.0 11309700000.0 11309700000.0 11309700000.0 11309700000.0 11309700000.0 11309700000.0 11309700000.0 11309700000.0 11309700000.0 11309700000.0 11309700000.0 11309700000.0 11309700000.0 11309700000.0 11309700000.0 11309700000.0 11309700000.0 11309700000.0 11309700000.0 11309700000.0 11309700000.0 11309700000.0 11309700000.0 11309700000.0 11309700000.0 11309700000.0 11309700000.0 11309700000.0 11309700000.0 11309700000.0 11309700000.0 11309700000.0 11309700000.0 11309700000.0 11309700000.0 11309700000.0 11309700000.0 11309700000.0 11309700000.0 11309700000.0 11309700000.0 11309700000.0 11309700000.0 11309700000.0 11309700000.0 11309700000.0 11309700000.0 11309700000.0 11309700000.0 11309700000.0 11309700000.0 11309700000.0 11309700000.0 11309700000.0 11309700000.0 11309700000.0 11309700000.0 11309700000.0 11309700000.0 11309700000.0 11309700000.0 11309700000.0 11309700000.0 11309700000.0 11309700000.0 11309700000.0 11309700000.0 11309700000.0 11309700000.0 11309700000.0 11309700000.0 11309700000.0 11309700000.0 11309700000.0 11309700000.0 11309700000.0 11309700000.0 11309700000.0 11309700000.0 11309700000.0 11309700000.0 11309700000.0 11309700000.0 11309700000.0 11309700000.0 11309700000.0 11309700000.0 11309700000.0 11309700000.0 11309700000.0 11309700000.0 11309700000.0 11309700000.0 11309700000.0 11309700000.0 11309700000.0 11309700000.0 11309700000.0 11309700000.0 11309700000.0 11309700000.0 11309700000.0 11309700000.0 11309700000.0 11309700000.0 11309700000.0 11309700000.0 11309700000.0 11309700000.0 11309700000.0 11309700000.0 11309700000.0 11309700000.0 11309700000.0 11309700000.0 11309700000.0 11309700000.0 11309700000.0 11309700000.0 11309700000.0 11309700000.0 11309700000.0 11309700000.0 11309700000.0 11309700000.0 11309700000.0 11309700000.0 11309700000.0 11309700000.0 11309700000.0 11309700000.0 11309700000.0 11309700000.0 11309700000.0 11309700000.0 11309700000.0 11309700000.0 11309700000.0 11309700000.0 11309700000.0 11309700000.0 11309700000.0 11309700000.0 11309700000.0 11309700000.0 11309700000.0 11309700000.0 11309700000.0 11309700000.0 11309700000.0 11309700000.0 11309700000.0 11309700000.0 11309700000.0 11309700000.0 11309700000.0 11309700000.0 11309700000.0 11309700000.0 11309700000.0 11309700000.0 11309700000.0 11309700000.0 11309700000.0 11309700000.0 11309700000.0 11309700000.0 11309700000.0 11309700000.0 11309700000.0 11309700000.0 11309700000.0 11309700000.0 11309700000.0 11309700000.0 11309700000.0 11309700000.0 11309700000.0 11309700000.0 11309700000.0 11309700000.0 11309700000.0 11309700000.0 11309700000.0 11309700000.0 11309700000.0 11309700000.0 11309700000.0 11309700000.0 11309700000.0 11309700000.0 11309700000.0 11309700000.0 11309700000.0 11309700000.0 11309700000.0 11309700000.0 11309700000.0 11309700000.0 11309700000.0 11309700000.0 11309700000.0 11309700000.0 11309700000.0 11309700000.0 11309700000.0 11309700000.0 11309700000.0 11309700000.0 11309700000.0 11309700000.0 11309700000.0 11309700000.0 11309700000.0 11309700000.0 11309700000.0 11309700000.0 11309700000.0 11309700000.0 11309700000.0 11309700000.0 11309700000.0 11309700000.0 11309700000.0 11309700000.0 11309700000.0 11309700000.0 11309700000.0 11309700000.0 11309700000.0 11309700000.0 11309700000.0 11309700000.0 11309700000.0 11309700000.0 11309700000.0 11309700000.0 11309700000.0 11309700000.0 11309700000.0 11309700000.0 11309700000.0 11309700000.0 11309700000.0 11309700000.0 11309700000.0 11309700000.0 11309700000.0 11309700000.0 11309700000.0 11309700000.0 11309700000.0 11309700000.0 11309700000.0 11309700000.0 11309700000.0 11309700000.0 11309700000.0 11309700000.0 11309700000.0 11309700000.0 11309700000.0 11309700000.0 11309700000.0 11309700000.0 11309700000.0 11309700000.0 11309700000.0 11309700000.0 11309700000.0 11309700000.0 11309700000.0 11309700000.0 11309700000.0 11309700000.0 11309700000.0 11309700000.0 11309700000.0 11309700000.0 11309700000.0 11309700000.0 11309700000.0 11309700000.0 11309700000.0 11309700000.0 11309700000.0 11309700000.0 11309700000.0 11309700000.0 11309700000.0 11309700000.0 11309700000.0 11309700000.0 11309700000.0 11309700000.0 11309700000.0 11309700000.0 11309700000.0 11309700000.0 11309700000.0 11309700000.0 11309700000.0 11309700000.0 11309700000.0 11309700000.0 11309700000.0 11309700000.0 11309700000.0 11309700000.0 11309700000.0 11309700000.0 11309700000.0 11309700000.0 11309700000.0 11309700000.0 11309700000.0 11309700000.0 11309700000.0 11309700000.0 11309700000.0 11309700000.0 11309700000.0 11309700000.0 11309700000.0 11309700000.0 11309700000.0 11309700000.0 11309700000.0 11309700000.0 11309700000.0 11309700000.0 11309700000.0 11309700000.0 11309700000.0 11309700000.0 11309700000.0 11309700000.0 11309700000.0 11309700000.0 11309700000.0 11309700000.0 11309700000.0 11309700000.0 11309700000.0 11309700000.0 11309700000.0 11309700000.0 11309700000.0 11309700000.0 11309700000.0 11309700000.0 11309700000.0 11309700000.0 11309700000.0 11309700000.0 11309700000.0 11309700000.0 11309700000.0 11309700000.0 11309700000.0 11309700000.0 11309700000.0 11309700000.0 11309700000.0 11309700000.0 11309700000.0 11309700000.0 11309700000.0 11309700000.0 11309700000.0 11309700000.0 11309700000.0 11309700000.0 11309700000.0 11309700000.0 11309700000.0 11309700000.0 11309700000.0 11309700000.0 11309700000.0 11309700000.0 11309700000.0 11309700000.0 11309700000.0 11309700000.0 11309700000.0 11309700000.0 11309700000.0 11309700000.0 11309700000.0 11309700000.0 11309700000.0 11309700000.0 11309700000.0 11309700000.0 11309700000.0 11309700000.0 11309700000.0 11309700000.0 11309700000.0 11309700000.0 11309700000.0 11309700000.0 11309700000.0 11309700000.0 11309700000.0 11309700000.0 11309700000.0 11309700000.0 11309700000.0 11309700000.0 11309700000.0 11309700000.0 11309700000.0 11309700000.0 11309700000.0 11309700000.0 11309700000.0 11309700000.0 11309700000.0 11309700000.0 11309700000.0 11309700000.0 11309700000.0 11309700000.0 11309700000.0 11309700000.0 11309700000.0 11309700000.0 11309700000.0 11309700000.0 11309700000.0 11309700000.0 11309700000.0 11309700000.0 11309700000.0 11309700000.0 11309700000.0 11309700000.0 11309700000.0 11309700000.0 11309700000.0 11309700000.0 11309700000.0 11309700000.0 11309700000.0 11309700000.0 11309700000.0 11309700000.0 11309700000.0 11309700000.0 11309700000.0 11309700000.0 11309700000.0 11309700000.0 11309700000.0 11309700000.0 11309700000.0 11309700000.0 11309700000.0 11309700000.0 11309700000.0 11309700000.0 11309700000.0 11309700000.0 11309700000.0 11309700000.0 11309700000.0 11309700000.0 11309700000.0 11309700000.0 11309700000.0 11309700000.0 11309700000.0 11309700000.0 11309700000.0 11309700000.0 11309700000.0 11309700000.0 11309700000.0 11309700000.0 11309700000.0 11309700000.0 11309700000.0 11309700000.0 11309700000.0 11309700000.0 11309700000.0 11309700000.0 11309700000.0 11309700000.0 11309700000.0 11309700000.0 11309700000.0 11309700000.0 11309700000.0 11309700000.0 11309700000.0 11309700000.0 11309700000.0 11309700000.0 11309700000.0 11309700000.0 11309700000.0 11309700000.0 11309700000.0 11309700000.0 11309700000.0 11309700000.0 11309700000.0 11309700000.0 11309700000.0 11309700000.0 11309700000.0 11309700000.0 11309700000.0 11309700000.0 11309700000.0 11309700000.0 11309700000.0 11309700000.0 11309700000.0 11309700000.0 11309700000.0 11309700000.0 11309700000.0 11309700000.0 11309700000.0 11309700000.0 11309700000.0 11309700000.0 11309700000.0 11309700000.0 11309700000.0 11309700000.0 11309700000.0 11309700000.0 11309700000.0 11309700000.0 11309700000.0 11309700000.0 11309700000.0 11309700000.0 11309700000.0 11309700000.0 11309700000.0 11309700000.0 11309700000.0 11309700000.0 11309700000.0 11309700000.0 11309700000.0 11309700000.0 11309700000.0 11309700000.0 11309700000.0 11309700000.0 11309700000.0 11309700000.0 11309700000.0 11309700000.0 11309700000.0 11309700000.0 11309700000.0 11309700000.0 11309700000.0 11309700000.0 11309700000.0 11309700000.0 11309700000.0 11309700000.0 11309700000.0 11309700000.0 11309700000.0 11309700000.0 11309700000.0 11309700000.0 11309700000.0 11309700000.0 11309700000.0 11309700000.0 11309700000.0 11309700000.0 11309700000.0 11309700000.0 11309700000.0 11309700000.0 11309700000.0 11309700000.0 11309700000.0 11309700000.0 11309700000.0 11309700000.0 11309700000.0 11309700000.0 11309700000.0 11309700000.0 11309700000.0 11309700000.0 11309700000.0 11309700000.0 11309700000.0 11309700000.0 11309700000.0 11309700000.0 11309700000.0 11309700000.0 11309700000.0 11309700000.0 11309700000.0 11309700000.0 11309700000.0 11309700000.0 11309700000.0 11309700000.0 11309700000.0 11309700000.0 11309700000.0 11309700000.0 11309700000.0 11309700000.0 11309700000.0 11309700000.0 11309700000.0 11309700000.0 11309700000.0 11309700000.0 11309700000.0 11309700000.0 11309700000.0 11309700000.0 11309700000.0 11309700000.0 11309700000.0 11309700000.0 11309700000.0 11309700000.0 11309700000.0 11309700000.0 11309700000.0 11309700000.0 11309700000.0 11309700000.0 11309700000.0 11309700000.0 11309700000.0 11309700000.0 11309700000.0 11309700000.0 11309700000.0 11309700000.0 11309700000.0 11309700000.0 11309700000.0 11309700000.0 11309700000.0 11309700000.0 11309700000.0 11309700000.0 11309700000.0 11309700000.0 11309700000.0 11309700000.0 11309700000.0 11309700000.0 11309700000.0 11309700000.0 11309700000.0 11309700000.0 11309700000.0 11309700000.0 11309700000.0 11309700000.0 11309700000.0 11309700000.0 11309700000.0 11309700000.0 11309700000.0 11309700000.0 11309700000.0 11309700000.0 11309700000.0 11309700000.0 11309700000.0 11309700000.0 11309700000.0 11309700000.0 11309700000.0 11309700000.0 11309700000.0 11309700000.0 11309700000.0 11309700000.0 11309700000.0 11309700000.0 11309700000.0 11309700000.0 11309700000.0 11309700000.0 11309700000.0 11309700000.0 11309700000.0 11309700000.0 11309700000.0 11309700000.0 11309700000.0 11309700000.0 11309700000.0 11309700000.0 11309700000.0 11309700000.0 11309700000.0 11309700000.0 11309700000.0 11309700000.0 11309700000.0 11309700000.0 11309700000.0 11309700000.0 11309700000.0 11309700000.0 11309700000.0 11309700000.0 11309700000.0 11309700000.0 11309700000.0 11309700000.0 11309700000.0 11309700000.0 11309700000.0 11309700000.0 11309700000.0 11309700000.0 11309700000.0 11309700000.0 11309700000.0 11309700000.0 11309700000.0 11309700000.0 11309700000.0 11309700000.0 11309700000.0 11309700000.0 11309700000.0 11309700000.0 11309700000.0 11309700000.0 11309700000.0 11309700000.0 11309700000.0 11309700000.0 11309700000.0 11309700000.0 11309700000.0 11309700000.0 11309700000.0 11309700000.0 11309700000.0 11309700000.0 11309700000.0 11309700000.0 11309700000.0 11309700000.0 11309700000.0 11309700000.0 11309700000.0 11309700000.0 11309700000.0 11309700000.0 11309700000.0 11309700000.0 11309700000.0 11309700000.0 11309700000.0 11309700000.0 11309700000.0 11309700000.0 11309700000.0 11309700000.0 11309700000.0 11309700000.0 11309700000.0 11309700000.0 11309700000.0 11309700000.0 11309700000.0 11309700000.0 11309700000.0 11309700000.0 11309700000.0 11309700000.0 11309700000.0 11309700000.0 11309700000.0 11309700000.0 11309700000.0 11309700000.0 11309700000.0 11309700000.0 11309700000.0 11309700000.0 11309700000.0 11309700000.0 11309700000.0 11309700000.0 11309700000.0 11309700000.0 11309700000.0 11309700000.0 11309700000.0 11309700000.0 11309700000.0 11309700000.0 11309700000.0 11309700000.0 11309700000.0 11309700000.0 11309700000.0 11309700000.0 11309700000.0 11309700000.0 11309700000.0 11309700000.0 11309700000.0 11309700000.0 11309700000.0 11309700000.0 11309700000.0 11309700000.0 11309700000.0 11309700000.0 11309700000.0 11309700000.0 11309700000.0 11309700000.0 11309700000.0 11309700000.0 11309700000.0 11309700000.0 11309700000.0 11309700000.0 11309700000.0 11309700000.0 11309700000.0 11309700000.0 11309700000.0 11309700000.0 11309700000.0 11309700000.0 11309700000.0 11309700000.0 11309700000.0 11309700000.0 11309700000.0 11309700000.0 11309700000.0 11309700000.0 11309700000.0 11309700000.0 11309700000.0 11309700000.0 11309700000.0 11309700000.0 11309700000.0 11309700000.0 11309700000.0 11309700000.0 11309700000.0 11309700000.0 11309700000.0 11309700000.0 11309700000.0 11309700000.0 11309700000.0 11309700000.0 11309700000.0 11309700000.0 11309700000.0 11309700000.0 11309700000.0 11309700000.0 11309700000.0 11309700000.0 11309700000.0 11309700000.0 11309700000.0 11309700000.0 11309700000.0 11309700000.0 11309700000.0 11309700000.0 11309700000.0 11309700000.0 11309700000.0 11309700000.0 11309700000.0 11309700000.0 11309700000.0 11309700000.0 11309700000.0 11309700000.0 11309700000.0 11309700000.0 11309700000.0 11309700000.0 11309700000.0 11309700000.0 11309700000.0 11309700000.0 11309700000.0 11309700000.0 11309700000.0 11309700000.0 11309700000.0 11309700000.0 11309700000.0 11309700000.0 11309700000.0 11309700000.0 11309700000.0 11309700000.0 11309700000.0 11309700000.0 11309700000.0 11309700000.0 11309700000.0 11309700000.0 11309700000.0 11309700000.0 11309700000.0 11309700000.0 11309700000.0 11309700000.0 11309700000.0 11309700000.0 11309700000.0 11309700000.0 11309700000.0 11309700000.0 11309700000.0 11309700000.0 11309700000.0 11309700000.0 11309700000.0 11309700000.0 11309700000.0 11309700000.0 11309700000.0 11309700000.0 11309700000.0 11309700000.0 11309700000.0 11309700000.0 11309700000.0 11309700000.0 11309700000.0 11309700000.0 11309700000.0 11309700000.0 11309700000.0 11309700000.0 11309700000.0 11309700000.0 11309700000.0 11309700000.0 11309700000.0 11309700000.0 11309700000.0 11309700000.0 11309700000.0 11309700000.0 11309700000.0 11309700000.0 11309700000.0 11309700000.0 11309700000.0 11309700000.0 11309700000.0 11309700000.0 11309700000.0 11309700000.0 11309700000.0 11309700000.0 11309700000.0 11309700000.0 11309700000.0 11309700000.0 11309700000.0 11309700000.0 11309700000.0 11309700000.0 11309700000.0 11309700000.0 11309700000.0 11309700000.0 11309700000.0 11309700000.0 11309700000.0 11309700000.0 11309700000.0 11309700000.0 11309700000.0 11309700000.0 11309700000.0 11309700000.0 11309700000.0 11309700000.0 11309700000.0 11309700000.0 11309700000.0 11309700000.0 11309700000.0 11309700000.0 11309700000.0 11309700000.0 11309700000.0 11309700000.0 11309700000.0 11309700000.0 11309700000.0 11309700000.0 11309700000.0 11309700000.0 11309700000.0 11309700000.0 11309700000.0 11309700000.0 11309700000.0 11309700000.0 11309700000.0 11309700000.0 11309700000.0 11309700000.0 11309700000.0 11309700000.0 11309700000.0 11309700000.0 11309700000.0 11309700000.0 11309700000.0 11309700000.0 11309700000.0 11309700000.0 11309700000.0 11309700000.0 11309700000.0 11309700000.0 11309700000.0 11309700000.0 11309700000.0 11309700000.0 11309700000.0 11309700000.0 11309700000.0 11309700000.0 11309700000.0 11309700000.0 11309700000.0 11309700000.0 11309700000.0 11309700000.0 11309700000.0 11309700000.0 11309700000.0 11309700000.0 11309700000.0 11309700000.0 11309700000.0 11309700000.0 11309700000.0 11309700000.0 11309700000.0 11309700000.0 11309700000.0 11309700000.0 11309700000.0 11309700000.0 11309700000.0 11309700000.0 11309700000.0 11309700000.0 11309700000.0 11309700000.0 11309700000.0 11309700000.0 11309700000.0 11309700000.0 11309700000.0 11309700000.0 11309700000.0 11309700000.0 11309700000.0 11309700000.0 11309700000.0 11309700000.0 11309700000.0 11309700000.0 11309700000.0 11309700000.0 11309700000.0 11309700000.0 11309700000.0 11309700000.0 11309700000.0 11309700000.0 11309700000.0 11309700000.0 11309700000.0 11309700000.0 11309700000.0 11309700000.0 11309700000.0 11309700000.0 11309700000.0 11309700000.0 11309700000.0 11309700000.0 11309700000.0 11309700000.0 11309700000.0 11309700000.0 11309700000.0 11309700000.0 11309700000.0 11309700000.0 11309700000.0 11309700000.0 11309700000.0 11309700000.0 11309700000.0 11309700000.0 11309700000.0 11309700000.0 11309700000.0 11309700000.0 11309700000.0 11309700000.0 11309700000.0 11309700000.0 11309700000.0 11309700000.0 11309700000.0 11309700000.0 11309700000.0 11309700000.0 11309700000.0 11309700000.0 11309700000.0 11309700000.0 11309700000.0 11309700000.0 11309700000.0 11309700000.0 11309700000.0 11309700000.0 11309700000.0 11309700000.0 11309700000.0 11309700000.0 11309700000.0 11309700000.0 11309700000.0 11309700000.0 11309700000.0 11309700000.0 11309700000.0 11309700000.0 11309700000.0 11309700000.0 11309700000.0 11309700000.0 11309700000.0 11309700000.0 11309700000.0 11309700000.0 11309700000.0 11309700000.0 11309700000.0 11309700000.0 11309700000.0 11309700000.0 11309700000.0 11309700000.0 11309700000.0 11309700000.0 11309700000.0 11309700000.0 11309700000.0 11309700000.0 11309700000.0 11309700000.0 11309700000.0 11309700000.0 11309700000.0 11309700000.0 11309700000.0 11309700000.0 11309700000.0 11309700000.0 11309700000.0 11309700000.0 11309700000.0 11309700000.0 11309700000.0 11309700000.0 11309700000.0 11309700000.0 11309700000.0 11309700000.0 11309700000.0 11309700000.0 11309700000.0 11309700000.0 11309700000.0 11309700000.0 11309700000.0 11309700000.0 11309700000.0 11309700000.0 11309700000.0 11309700000.0 11309700000.0 11309700000.0 11309700000.0 11309700000.0 11309700000.0 11309700000.0 11309700000.0 11309700000.0 11309700000.0 11309700000.0 11309700000.0 11309700000.0 11309700000.0 11309700000.0 11309700000.0 11309700000.0 11309700000.0 11309700000.0 11309700000.0 11309700000.0 11309700000.0 11309700000.0 11309700000.0 11309700000.0 11309700000.0 11309700000.0 11309700000.0 11309700000.0 11309700000.0 11309700000.0 11309700000.0 11309700000.0 11309700000.0 11309700000.0 11309700000.0 11309700000.0 11309700000.0 11309700000.0 11309700000.0 11309700000.0 11309700000.0 11309700000.0 11309700000.0 11309700000.0 11309700000.0 11309700000.0 11309700000.0 11309700000.0 11309700000.0 11309700000.0 11309700000.0 11309700000.0 11309700000.0 11309700000.0 11309700000.0 11309700000.0 11309700000.0 11309700000.0 11309700000.0 11309700000.0 11309700000.0 11309700000.0 11309700000.0 11309700000.0 11309700000.0 11309700000.0 11309700000.0 11309700000.0 11309700000.0 11309700000.0 11309700000.0 11309700000.0 11309700000.0 11309700000.0 11309700000.0 11309700000.0 11309700000.0 11309700000.0 11309700000.0 11309700000.0 11309700000.0 11309700000.0 11309700000.0 11309700000.0 11309700000.0 11309700000.0 11309700000.0 11309700000.0 11309700000.0 11309700000.0 11309700000.0 11309700000.0 11309700000.0 11309700000.0 11309700000.0 11309700000.0 11309700000.0 11309700000.0 11309700000.0 11309700000.0 11309700000.0 11309700000.0 11309700000.0 11309700000.0 11309700000.0 11309700000.0 11309700000.0 11309700000.0 11309700000.0 11309700000.0 11309700000.0 11309700000.0 11309700000.0 11309700000.0 11309700000.0 11309700000.0 11309700000.0 11309700000.0 11309700000.0 11309700000.0 11309700000.0 11309700000.0 11309700000.0 11309700000.0 11309700000.0 11309700000.0 11309700000.0 11309700000.0 11309700000.0 11309700000.0 11309700000.0 11309700000.0 11309700000.0 11309700000.0 11309700000.0 11309700000.0 11309700000.0 11309700000.0 11309700000.0 11309700000.0 11309700000.0 11309700000.0 11309700000.0 11309700000.0 11309700000.0 11309700000.0 11309700000.0 11309700000.0 11309700000.0 11309700000.0 11309700000.0 11309700000.0 11309700000.0 11309700000.0 11309700000.0 11309700000.0 11309700000.0 11309700000.0 11309700000.0 11309700000.0 11309700000.0 11309700000.0 11309700000.0 11309700000.0 11309700000.0 11309700000.0 11309700000.0 11309700000.0 11309700000.0 11309700000.0 11309700000.0 11309700000.0 11309700000.0 11309700000.0 11309700000.0 11309700000.0 11309700000.0 11309700000.0 11309700000.0 11309700000.0 11309700000.0 11309700000.0 11309700000.0 11309700000.0 11309700000.0 11309700000.0 11309700000.0 11309700000.0 11309700000.0 11309700000.0 11309700000.0 11309700000.0 11309700000.0 11309700000.0 11309700000.0 11309700000.0 11309700000.0 11309700000.0 11309700000.0 11309700000.0 11309700000.0 11309700000.0 11309700000.0 11309700000.0 11309700000.0 11309700000.0 11309700000.0 11309700000.0 11309700000.0 11309700000.0 11309700000.0 11309700000.0 11309700000.0 11309700000.0 11309700000.0 11309700000.0 11309700000.0 11309700000.0 11309700000.0 11309700000.0 11309700000.0 11309700000.0 11309700000.0 11309700000.0 11309700000.0 11309700000.0 11309700000.0 11309700000.0 11309700000.0 11309700000.0 11309700000.0 11309700000.0 11309700000.0 11309700000.0 11309700000.0 11309700000.0 11309700000.0 11309700000.0 11309700000.0 11309700000.0 11309700000.0 11309700000.0 11309700000.0 11309700000.0 11309700000.0 11309700000.0 11309700000.0 11309700000.0 11309700000.0 11309700000.0 11309700000.0 11309700000.0 11309700000.0 11309700000.0 11309700000.0 11309700000.0 11309700000.0 11309700000.0 11309700000.0 11309700000.0 11309700000.0 11309700000.0 11309700000.0 11309700000.0 11309700000.0 11309700000.0 11309700000.0 11309700000.0 11309700000.0 11309700000.0 11309700000.0 11309700000.0 11309700000.0 11309700000.0 11309700000.0 11309700000.0 11309700000.0 11309700000.0 11309700000.0 11309700000.0 11309700000.0 11309700000.0 11309700000.0 11309700000.0 11309700000.0 11309700000.0 11309700000.0 11309700000.0 11309700000.0 11309700000.0 11309700000.0 11309700000.0 11309700000.0 11309700000.0 11309700000.0 11309700000.0 11309700000.0 11309700000.0 11309700000.0 11309700000.0 11309700000.0 11309700000.0 11309700000.0 11309700000.0 11309700000.0 11309700000.0 11309700000.0 11309700000.0 11309700000.0 11309700000.0 11309700000.0 11309700000.0 11309700000.0 11309700000.0 11309700000.0 11309700000.0 11309700000.0 11309700000.0 11309700000.0 11309700000.0 11309700000.0 11309700000.0 11309700000.0 11309700000.0 11309700000.0 11309700000.0 11309700000.0 11309700000.0 11309700000.0 11309700000.0 11309700000.0 11309700000.0 11309700000.0 11309700000.0 11309700000.0 11309700000.0 11309700000.0 11309700000.0 11309700000.0 11309700000.0 11309700000.0 11309700000.0 11309700000.0 11309700000.0 11309700000.0 11309700000.0 11309700000.0 11309700000.0 11309700000.0 11309700000.0 11309700000.0 11309700000.0 11309700000.0 11309700000.0 11309700000.0 11309700000.0 11309700000.0 11309700000.0 11309700000.0 11309700000.0 11309700000.0 11309700000.0 11309700000.0 11309700000.0 11309700000.0 11309700000.0 11309700000.0 11309700000.0 11309700000.0 11309700000.0 11309700000.0 11309700000.0 11309700000.0 11309700000.0 11309700000.0 11309700000.0 11309700000.0 11309700000.0 11309700000.0 11309700000.0 11309700000.0 11309700000.0 11309700000.0 11309700000.0 11309700000.0 11309700000.0 11309700000.0 11309700000.0 11309700000.0 11309700000.0 11309700000.0 11309700000.0 11309700000.0 11309700000.0 11309700000.0 11309700000.0 11309700000.0 11309700000.0 11309700000.0 11309700000.0 11309700000.0 11309700000.0 11309700000.0 11309700000.0 11309700000.0 11309700000.0 11309700000.0 11309700000.0 11309700000.0 11309700000.0 11309700000.0 11309700000.0 11309700000.0 11309700000.0 11309700000.0 11309700000.0 11309700000.0 11309700000.0 11309700000.0 11309700000.0 11309700000.0 11309700000.0 11309700000.0 11309700000.0 11309700000.0 11309700000.0 11309700000.0 11309700000.0 11309700000.0 11309700000.0 11309700000.0 11309700000.0 11309700000.0 11309700000.0 11309700000.0 11309700000.0 11309700000.0 11309700000.0 11309700000.0 11309700000.0 11309700000.0 11309700000.0 11309700000.0 11309700000.0 11309700000.0 11309700000.0 11309700000.0 11309700000.0 11309700000.0 11309700000.0 11309700000.0 11309700000.0 11309700000.0 11309700000.0 11309700000.0 11309700000.0 11309700000.0 11309700000.0 11309700000.0 11309700000.0 11309700000.0 11309700000.0 11309700000.0 11309700000.0 11309700000.0 11309700000.0 11309700000.0 11309700000.0 11309700000.0 11309700000.0 11309700000.0 11309700000.0 11309700000.0 11309700000.0 11309700000.0 11309700000.0 11309700000.0 11309700000.0 11309700000.0 11309700000.0 11309700000.0 11309700000.0 11309700000.0 11309700000.0 11309700000.0 11309700000.0 11309700000.0 11309700000.0 11309700000.0 11309700000.0 11309700000.0 11309700000.0 11309700000.0 11309700000.0 11309700000.0 11309700000.0 11309700000.0 11309700000.0 11309700000.0 11309700000.0 11309700000.0 11309700000.0 11309700000.0 11309700000.0 11309700000.0 11309700000.0 11309700000.0 11309700000.0 11309700000.0 11309700000.0 11309700000.0 11309700000.0 11309700000.0 11309700000.0 11309700000.0 11309700000.0 11309700000.0 11309700000.0 11309700000.0 11309700000.0 11309700000.0 11309700000.0 11309700000.0 11309700000.0 11309700000.0 11309700000.0 11309700000.0 11309700000.0 11309700000.0 11309700000.0 11309700000.0 11309700000.0 11309700000.0 11309700000.0 11309700000.0 11309700000.0 11309700000.0 11309700000.0 11309700000.0 11309700000.0 11309700000.0 11309700000.0 11309700000.0 11309700000.0 11309700000.0 11309700000.0 11309700000.0 11309700000.0 11309700000.0 11309700000.0 11309700000.0 11309700000.0 11309700000.0 11309700000.0 11309700000.0 11309700000.0 11309700000.0 11309700000.0 11309700000.0 11309700000.0 11309700000.0 11309700000.0 11309700000.0 11309700000.0 11309700000.0 11309700000.0 11309700000.0 11309700000.0 11309700000.0 11309700000.0 11309700000.0 11309700000.0 11309700000.0 11309700000.0 11309700000.0 11309700000.0 11309700000.0 11309700000.0 11309700000.0 11309700000.0 11309700000.0 11309700000.0 11309700000.0 11309700000.0 11309700000.0 11309700000.0 11309700000.0 11309700000.0 11309700000.0 11309700000.0 11309700000.0 11309700000.0 11309700000.0 11309700000.0 11309700000.0 11309700000.0 11309700000.0 11309700000.0 11309700000.0 11309700000.0 11309700000.0 11309700000.0 11309700000.0 11309700000.0 11309700000.0 11309700000.0 11309700000.0 11309700000.0 11309700000.0 11309700000.0 11309700000.0 11309700000.0 11309700000.0 11309700000.0 11309700000.0 11309700000.0 11309700000.0 11309700000.0 11309700000.0 11309700000.0 11309700000.0 11309700000.0 11309700000.0 11309700000.0 11309700000.0 11309700000.0 11309700000.0 11309700000.0 11309700000.0 11309700000.0 11309700000.0 11309700000.0 11309700000.0 11309700000.0 11309700000.0 11309700000.0 11309700000.0 11309700000.0 11309700000.0 11309700000.0 11309700000.0 11309700000.0 11309700000.0 11309700000.0 11309700000.0 11309700000.0 11309700000.0 11309700000.0 11309700000.0 11309700000.0 11309700000.0 11309700000.0 11309700000.0 11309700000.0 11309700000.0 11309700000.0 11309700000.0 11309700000.0 11309700000.0 11309700000.0 11309700000.0 11309700000.0 11309700000.0 11309700000.0 11309700000.0 11309700000.0 11309700000.0 11309700000.0 11309700000.0 11309700000.0 11309700000.0 11309700000.0 11309700000.0 11309700000.0 11309700000.0 11309700000.0 11309700000.0 11309700000.0 11309700000.0 11309700000.0 11309700000.0 11309700000.0 11309700000.0 11309700000.0 11309700000.0 11309700000.0 11309700000.0 11309700000.0 11309700000.0 11309700000.0 11309700000.0 11309700000.0 11309700000.0 11309700000.0 11309700000.0 11309700000.0 11309700000.0 11309700000.0 11309700000.0 11309700000.0 11309700000.0 11309700000.0 11309700000.0 11309700000.0 11309700000.0 11309700000.0 11309700000.0 11309700000.0 11309700000.0 11309700000.0 11309700000.0 11309700000.0 11309700000.0 11309700000.0 11309700000.0 11309700000.0 11309700000.0 11309700000.0 11309700000.0 11309700000.0 11309700000.0 11309700000.0 11309700000.0 11309700000.0 11309700000.0 11309700000.0 11309700000.0 11309700000.0 11309700000.0 11309700000.0 11309700000.0 11309700000.0 11309700000.0 11309700000.0 11309700000.0 11309700000.0 11309700000.0 11309700000.0 11309700000.0 11309700000.0 11309700000.0 11309700000.0 11309700000.0 11309700000.0 11309700000.0 11309700000.0 11309700000.0 11309700000.0 11309700000.0 11309700000.0 11309700000.0 11309700000.0 11309700000.0 11309700000.0 11309700000.0 11309700000.0 11309700000.0 11309700000.0 11309700000.0 11309700000.0 11309700000.0 11309700000.0 11309700000.0 11309700000.0 11309700000.0 11309700000.0 11309700000.0 11309700000.0 11309700000.0 11309700000.0 11309700000.0 11309700000.0 11309700000.0 11309700000.0 11309700000.0 11309700000.0 11309700000.0 11309700000.0 11309700000.0 11309700000.0 11309700000.0 11309700000.0 11309700000.0 11309700000.0 11309700000.0 11309700000.0 11309700000.0 11309700000.0 11309700000.0 11309700000.0 11309700000.0 11309700000.0 11309700000.0 11309700000.0 11309700000.0 11309700000.0 11309700000.0 11309700000.0 11309700000.0 11309700000.0 11309700000.0 11309700000.0 11309700000.0 11309700000.0 11309700000.0 11309700000.0 11309700000.0 11309700000.0 11309700000.0 11309700000.0 11309700000.0 11309700000.0 11309700000.0 11309700000.0 11309700000.0 11309700000.0 11309700000.0 11309700000.0 11309700000.0 11309700000.0 11309700000.0 11309700000.0 11309700000.0 11309700000.0 11309700000.0 11309700000.0 11309700000.0 11309700000.0 11309700000.0 11309700000.0 11309700000.0 11309700000.0 11309700000.0 11309700000.0 11309700000.0 11309700000.0 11309700000.0 11309700000.0 11309700000.0 11309700000.0 11309700000.0 11309700000.0 11309700000.0 11309700000.0 11309700000.0 11309700000.0 11309700000.0 11309700000.0 11309700000.0 11309700000.0 11309700000.0 11309700000.0 11309700000.0 11309700000.0 11309700000.0 11309700000.0 11309700000.0 11309700000.0 11309700000.0 11309700000.0 11309700000.0 11309700000.0 11309700000.0 11309700000.0 11309700000.0 11309700000.0 11309700000.0 11309700000.0 11309700000.0 11309700000.0 11309700000.0 11309700000.0 11309700000.0 11309700000.0 11309700000.0 11309700000.0 11309700000.0 11309700000.0 11309700000.0 11309700000.0 11309700000.0 11309700000.0 11309700000.0 11309700000.0 11309700000.0 11309700000.0 11309700000.0 11309700000.0 11309700000.0 11309700000.0 11309700000.0 11309700000.0 11309700000.0 11309700000.0 11309700000.0 11309700000.0 11309700000.0 11309700000.0 11309700000.0 11309700000.0 11309700000.0 11309700000.0 11309700000.0 11309700000.0 11309700000.0 11309700000.0 11309700000.0 11309700000.0 11309700000.0 11309700000.0 11309700000.0 11309700000.0 11309700000.0 11309700000.0 11309700000.0 11309700000.0 11309700000.0 11309700000.0 11309700000.0 11309700000.0 11309700000.0 11309700000.0 11309700000.0 11309700000.0 11309700000.0 11309700000.0 11309700000.0 11309700000.0 11309700000.0 11309700000.0 11309700000.0 11309700000.0 11309700000.0 11309700000.0 11309700000.0 11309700000.0 11309700000.0 11309700000.0 11309700000.0 11309700000.0 11309700000.0 11309700000.0 11309700000.0 11309700000.0 11309700000.0 11309700000.0 11309700000.0 11309700000.0 11309700000.0 11309700000.0 11309700000.0 11309700000.0 11309700000.0 11309700000.0 11309700000.0 11309700000.0 11309700000.0 11309700000.0 11309700000.0 11309700000.0 11309700000.0 11309700000.0 11309700000.0 11309700000.0 11309700000.0 11309700000.0 11309700000.0 11309700000.0 11309700000.0 11309700000.0 11309700000.0 11309700000.0 11309700000.0 11309700000.0 11309700000.0 11309700000.0 11309700000.0 11309700000.0 11309700000.0 11309700000.0 11309700000.0 11309700000.0 11309700000.0 11309700000.0 11309700000.0 11309700000.0 11309700000.0 11309700000.0 11309700000.0 11309700000.0 11309700000.0 11309700000.0 11309700000.0 11309700000.0 11309700000.0 11309700000.0 11309700000.0 11309700000.0 11309700000.0 11309700000.0 11309700000.0 11309700000.0 11309700000.0 11309700000.0 11309700000.0 11309700000.0 11309700000.0 11309700000.0 11309700000.0 11309700000.0 11309700000.0 11309700000.0 11309700000.0 11309700000.0 11309700000.0 11309700000.0 11309700000.0 11309700000.0 11309700000.0 11309700000.0 11309700000.0 11309700000.0 11309700000.0 11309700000.0 11309700000.0 11309700000.0 11309700000.0 11309700000.0 11309700000.0 11309700000.0 11309700000.0 11309700000.0 11309700000.0 11309700000.0 11309700000.0 11309700000.0 11309700000.0 11309700000.0 11309700000.0 11309700000.0 11309700000.0 11309700000.0 11309700000.0 11309700000.0 11309700000.0 11309700000.0 11309700000.0 11309700000.0 11309700000.0 11309700000.0 11309700000.0 11309700000.0 11309700000.0 11309700000.0 11309700000.0 11309700000.0 11309700000.0 11309700000.0 11309700000.0 11309700000.0 11309700000.0 11309700000.0 11309700000.0 11309700000.0 11309700000.0 11309700000.0 11309700000.0 11309700000.0 11309700000.0 11309700000.0 11309700000.0 11309700000.0 11309700000.0 11309700000.0 11309700000.0 11309700000.0 11309700000.0 11309700000.0 11309700000.0 11309700000.0 11309700000.0 11309700000.0 11309700000.0 11309700000.0 11309700000.0 11309700000.0 11309700000.0 11309700000.0 11309700000.0 11309700000.0 11309700000.0 11309700000.0 11309700000.0 11309700000.0 11309700000.0 11309700000.0 11309700000.0 11309700000.0 11309700000.0 11309700000.0 11309700000.0 11309700000.0 11309700000.0 11309700000.0 11309700000.0 11309700000.0 11309700000.0 11309700000.0 11309700000.0 11309700000.0 11309700000.0 11309700000.0 11309700000.0 11309700000.0 11309700000.0 11309700000.0 11309700000.0 11309700000.0 11309700000.0 11309700000.0 11309700000.0 11309700000.0 11309700000.0 11309700000.0 11309700000.0 11309700000.0 11309700000.0 11309700000.0 11309700000.0 11309700000.0 11309700000.0 11309700000.0 11309700000.0 11309700000.0 11309700000.0 11309700000.0 11309700000.0 11309700000.0 11309700000.0 11309700000.0 11309700000.0 11309700000.0 11309700000.0 11309700000.0 11309700000.0 11309700000.0 11309700000.0 11309700000.0 11309700000.0 11309700000.0 11309700000.0 11309700000.0 11309700000.0 11309700000.0 11309700000.0 11309700000.0 11309700000.0 11309700000.0 11309700000.0 11309700000.0 11309700000.0 11309700000.0 11309700000.0 11309700000.0 11309700000.0 11309700000.0 11309700000.0 11309700000.0 11309700000.0 11309700000.0 11309700000.0 11309700000.0 11309700000.0 11309700000.0 11309700000.0 11309700000.0 11309700000.0 11309700000.0 11309700000.0 11309700000.0 11309700000.0 11309700000.0 11309700000.0 11309700000.0 11309700000.0 11309700000.0 11309700000.0 11309700000.0 11309700000.0 11309700000.0 11309700000.0 11309700000.0 11309700000.0 11309700000.0 11309700000.0 11309700000.0 11309700000.0 11309700000.0 11309700000.0 11309700000.0 11309700000.0 11309700000.0 11309700000.0 11309700000.0 11309700000.0 11309700000.0 11309700000.0 11309700000.0 11309700000.0 11309700000.0 11309700000.0 11309700000.0 11309700000.0 11309700000.0 11309700000.0 11309700000.0 11309700000.0 11309700000.0 11309700000.0 11309700000.0 11309700000.0 11309700000.0 11309700000.0 11309700000.0 11309700000.0 11309700000.0 11309700000.0 11309700000.0 11309700000.0 11309700000.0 11309700000.0 11309700000.0 11309700000.0 11309700000.0 11309700000.0 11309700000.0 11309700000.0 11309700000.0 11309700000.0 11309700000.0 11309700000.0 11309700000.0 11309700000.0 11309700000.0 11309700000.0 11309700000.0 11309700000.0 11309700000.0 11309700000.0 11309700000.0 11309700000.0 11309700000.0 11309700000.0 11309700000.0 11309700000.0 11309700000.0 11309700000.0 11309700000.0 11309700000.0 11309700000.0 11309700000.0 11309700000.0 11309700000.0 11309700000.0 11309700000.0 11309700000.0 11309700000.0 11309700000.0 11309700000.0 11309700000.0 11309700000.0 11309700000.0 11309700000.0 11309700000.0 11309700000.0 11309700000.0 11309700000.0 11309700000.0 11309700000.0 11309700000.0 11309700000.0 11309700000.0 11309700000.0 11309700000.0 11309700000.0 11309700000.0 11309700000.0 11309700000.0 11309700000.0 11309700000.0 11309700000.0 11309700000.0 11309700000.0 11309700000.0 11309700000.0 11309700000.0 11309700000.0 11309700000.0 11309700000.0 11309700000.0 11309700000.0 11309700000.0 11309700000.0 11309700000.0 11309700000.0 11309700000.0 11309700000.0 11309700000.0 11309700000.0 11309700000.0 11309700000.0 11309700000.0 11309700000.0 11309700000.0 11309700000.0 11309700000.0 11309700000.0 11309700000.0 11309700000.0 11309700000.0 11309700000.0 11309700000.0 11309700000.0 11309700000.0 11309700000.0 11309700000.0 11309700000.0 11309700000.0 11309700000.0 11309700000.0 11309700000.0 11309700000.0 11309700000.0 11309700000.0 11309700000.0 11309700000.0 11309700000.0 11309700000.0 11309700000.0 11309700000.0 11309700000.0 11309700000.0 11309700000.0 11309700000.0 11309700000.0 11309700000.0 11309700000.0 11309700000.0 11309700000.0 11309700000.0 11309700000.0 11309700000.0 11309700000.0 11309700000.0 11309700000.0 11309700000.0 11309700000.0 11309700000.0 11309700000.0 11309700000.0 11309700000.0 11309700000.0 11309700000.0 11309700000.0 11309700000.0 11309700000.0 11309700000.0 11309700000.0 11309700000.0 11309700000.0 11309700000.0 11309700000.0 11309700000.0 11309700000.0 11309700000.0 11309700000.0 11309700000.0 11309700000.0 11309700000.0 11309700000.0 11309700000.0 11309700000.0 11309700000.0 11309700000.0 11309700000.0 11309700000.0 11309700000.0 11309700000.0 11309700000.0 11309700000.0 11309700000.0 11309700000.0 11309700000.0 11309700000.0 11309700000.0 11309700000.0 11309700000.0 11309700000.0 11309700000.0 11309700000.0 11309700000.0 11309700000.0 11309700000.0 11309700000.0 11309700000.0 11309700000.0 11309700000.0 11309700000.0 11309700000.0 11309700000.0 11309700000.0 11309700000.0 11309700000.0 11309700000.0 11309700000.0 11309700000.0 11309700000.0 11309700000.0 11309700000.0 11309700000.0 11309700000.0 11309700000.0 11309700000.0 11309700000.0 11309700000.0 11309700000.0 11309700000.0 11309700000.0 11309700000.0 11309700000.0 11309700000.0 11309700000.0 11309700000.0 11309700000.0 11309700000.0 11309700000.0 11309700000.0 11309700000.0 11309700000.0 11309700000.0 11309700000.0 11309700000.0 11309700000.0 11309700000.0 11309700000.0 11309700000.0 11309700000.0 11309700000.0 11309700000.0 11309700000.0 11309700000.0 11309700000.0 11309700000.0 11309700000.0 11309700000.0 11309700000.0 11309700000.0 11309700000.0 11309700000.0 11309700000.0 11309700000.0 11309700000.0 11309700000.0 11309700000.0 11309700000.0 11309700000.0 11309700000.0 11309700000.0 11309700000.0 11309700000.0 11309700000.0 11309700000.0 11309700000.0 11309700000.0 11309700000.0 11309700000.0 11309700000.0 11309700000.0 11309700000.0 11309700000.0 11309700000.0 11309700000.0 11309700000.0 11309700000.0 11309700000.0 11309700000.0 11309700000.0 11309700000.0 11309700000.0 11309700000.0 11309700000.0 11309700000.0 11309700000.0 11309700000.0 11309700000.0 11309700000.0 11309700000.0 11309700000.0 11309700000.0 11309700000.0 11309700000.0 11309700000.0 11309700000.0 11309700000.0 11309700000.0 11309700000.0 11309700000.0 11309700000.0 11309700000.0 11309700000.0 11309700000.0 11309700000.0 11309700000.0 11309700000.0 11309700000.0 11309700000.0 11309700000.0 11309700000.0 11309700000.0 11309700000.0 11309700000.0 11309700000.0 11309700000.0 11309700000.0 11309700000.0 11309700000.0 11309700000.0 11309700000.0 11309700000.0 11309700000.0 11309700000.0 11309700000.0 11309700000.0 11309700000.0 11309700000.0 11309700000.0 11309700000.0 11309700000.0 11309700000.0 11309700000.0 11309700000.0 11309700000.0 11309700000.0 11309700000.0 11309700000.0 11309700000.0 11309700000.0 11309700000.0 11309700000.0 11309700000.0 11309700000.0 11309700000.0 11309700000.0 11309700000.0 11309700000.0 11309700000.0 11309700000.0 11309700000.0 11309700000.0 11309700000.0 11309700000.0 11309700000.0 11309700000.0 11309700000.0 11309700000.0 11309700000.0 11309700000.0 11309700000.0 11309700000.0 11309700000.0 11309700000.0 11309700000.0 11309700000.0 11309700000.0 11309700000.0 11309700000.0 11309700000.0 11309700000.0 11309700000.0 11309700000.0 11309700000.0 11309700000.0 11309700000.0 11309700000.0 11309700000.0 11309700000.0 11309700000.0 11309700000.0 11309700000.0 11309700000.0 11309700000.0 11309700000.0 11309700000.0 11309700000.0 11309700000.0 11309700000.0 11309700000.0 11309700000.0 11309700000.0 11309700000.0 11309700000.0 11309700000.0 11309700000.0 11309700000.0 11309700000.0 11309700000.0 11309700000.0 11309700000.0 11309700000.0 11309700000.0 11309700000.0 11309700000.0 11309700000.0 11309700000.0 11309700000.0 11309700000.0 11309700000.0 11309700000.0 11309700000.0 11309700000.0 11309700000.0 11309700000.0 11309700000.0 11309700000.0 11309700000.0 11309700000.0 11309700000.0 11309700000.0 11309700000.0 11309700000.0 11309700000.0 11309700000.0 11309700000.0 11309700000.0 11309700000.0 11309700000.0 11309700000.0 11309700000.0 11309700000.0 11309700000.0 11309700000.0 11309700000.0 11309700000.0 11309700000.0 11309700000.0 11309700000.0 11309700000.0 11309700000.0 11309700000.0 11309700000.0 11309700000.0 11309700000.0 11309700000.0 11309700000.0 11309700000.0 11309700000.0 11309700000.0 11309700000.0 11309700000.0 11309700000.0 11309700000.0 11309700000.0 11309700000.0 11309700000.0 11309700000.0 11309700000.0 11309700000.0 11309700000.0 11309700000.0 11309700000.0 11309700000.0 11309700000.0 11309700000.0 11309700000.0 11309700000.0 11309700000.0 11309700000.0 11309700000.0 11309700000.0 11309700000.0 11309700000.0 11309700000.0 11309700000.0 11309700000.0 11309700000.0 11309700000.0 11309700000.0 11309700000.0 11309700000.0 11309700000.0 11309700000.0 11309700000.0 11309700000.0 11309700000.0 11309700000.0 11309700000.0 11309700000.0 11309700000.0 11309700000.0 11309700000.0 11309700000.0 11309700000.0 11309700000.0 11309700000.0 11309700000.0 11309700000.0 11309700000.0 11309700000.0 11309700000.0 11309700000.0 11309700000.0 11309700000.0 11309700000.0 11309700000.0 11309700000.0 11309700000.0 11309700000.0 11309700000.0 11309700000.0 11309700000.0 11309700000.0 11309700000.0 11309700000.0 11309700000.0 11309700000.0 11309700000.0 11309700000.0 11309700000.0 11309700000.0 11309700000.0 11309700000.0 11309700000.0 11309700000.0 11309700000.0 11309700000.0 11309700000.0 11309700000.0 11309700000.0 11309700000.0 11309700000.0 11309700000.0 11309700000.0 11309700000.0 11309700000.0 11309700000.0 11309700000.0 11309700000.0 11309700000.0 11309700000.0 11309700000.0 11309700000.0 11309700000.0 11309700000.0 11309700000.0 11309700000.0 11309700000.0 11309700000.0 11309700000.0 11309700000.0 11309700000.0 11309700000.0 11309700000.0 11309700000.0 11309700000.0 11309700000.0 11309700000.0 11309700000.0 11309700000.0 11309700000.0 11309700000.0 11309700000.0 11309700000.0 11309700000.0 11309700000.0 11309700000.0 11309700000.0 11309700000.0 11309700000.0 11309700000.0 11309700000.0 11309700000.0 11309700000.0 11309700000.0 11309700000.0 11309700000.0 11309700000.0 11309700000.0 11309700000.0 11309700000.0 11309700000.0 11309700000.0 11309700000.0 11309700000.0 11309700000.0 11309700000.0 11309700000.0 11309700000.0 11309700000.0 11309700000.0 11309700000.0 11309700000.0 11309700000.0 11309700000.0 11309700000.0 11309700000.0 11309700000.0 11309700000.0 11309700000.0 11309700000.0 11309700000.0 11309700000.0 11309700000.0 11309700000.0 11309700000.0 11309700000.0 11309700000.0 11309700000.0 11309700000.0 11309700000.0 11309700000.0 11309700000.0 11309700000.0 11309700000.0 11309700000.0 11309700000.0 11309700000.0 11309700000.0 11309700000.0 11309700000.0 11309700000.0 11309700000.0 11309700000.0 11309700000.0 11309700000.0 11309700000.0 11309700000.0 11309700000.0 11309700000.0 11309700000.0 11309700000.0 11309700000.0 11309700000.0 11309700000.0 11309700000.0 11309700000.0 11309700000.0 11309700000.0 11309700000.0 11309700000.0 11309700000.0 11309700000.0 11309700000.0 11309700000.0 11309700000.0 11309700000.0 11309700000.0 11309700000.0 11309700000.0 11309700000.0 11309700000.0 11309700000.0 11309700000.0 11309700000.0 11309700000.0 11309700000.0 11309700000.0 11309700000.0 11309700000.0 11309700000.0 11309700000.0 11309700000.0 11309700000.0 11309700000.0 11309700000.0 11309700000.0 11309700000.0 11309700000.0 11309700000.0 11309700000.0 11309700000.0 11309700000.0 11309700000.0 11309700000.0 11309700000.0 11309700000.0 11309700000.0 11309700000.0 11309700000.0 11309700000.0 11309700000.0 11309700000.0 11309700000.0 11309700000.0 11309700000.0 11309700000.0 11309700000.0 11309700000.0 11309700000.0 11309700000.0 11309700000.0 11309700000.0 11309700000.0 11309700000.0 11309700000.0 11309700000.0 11309700000.0 11309700000.0 11309700000.0 11309700000.0 11309700000.0 11309700000.0 11309700000.0 11309700000.0 11309700000.0 11309700000.0 11309700000.0 11309700000.0 11309700000.0 11309700000.0 11309700000.0 11309700000.0 11309700000.0 11309700000.0 11309700000.0 11309700000.0 11309700000.0 11309700000.0 11309700000.0 11309700000.0 11309700000.0 11309700000.0 11309700000.0 11309700000.0 11309700000.0 11309700000.0 11309700000.0 11309700000.0 11309700000.0 11309700000.0 11309700000.0 11309700000.0 11309700000.0 11309700000.0 11309700000.0 11309700000.0 11309700000.0 11309700000.0 11309700000.0 11309700000.0 11309700000.0 11309700000.0 11309700000.0 11309700000.0 11309700000.0 11309700000.0 11309700000.0 11309700000.0 11309700000.0 11309700000.0 11309700000.0 11309700000.0 11309700000.0 11309700000.0 11309700000.0 11309700000.0 11309700000.0 11309700000.0 11309700000.0 11309700000.0 11309700000.0 11309700000.0 11309700000.0 11309700000.0 11309700000.0 11309700000.0 11309700000.0 11309700000.0 11309700000.0 11309700000.0 11309700000.0 11309700000.0 11309700000.0 11309700000.0 11309700000.0 11309700000.0 11309700000.0 11309700000.0 11309700000.0 11309700000.0 11309700000.0 11309700000.0 11309700000.0 11309700000.0 11309700000.0 11309700000.0 11309700000.0 11309700000.0 11309700000.0 11309700000.0 11309700000.0 11309700000.0 11309700000.0 11309700000.0 11309700000.0 11309700000.0 11309700000.0 11309700000.0 11309700000.0 11309700000.0 11309700000.0 11309700000.0 11309700000.0 11309700000.0 11309700000.0 11309700000.0 11309700000.0 11309700000.0 11309700000.0 11309700000.0 11309700000.0 11309700000.0 11309700000.0 11309700000.0 11309700000.0 11309700000.0 11309700000.0 11309700000.0 11309700000.0 11309700000.0 11309700000.0 11309700000.0 11309700000.0 11309700000.0 11309700000.0 11309700000.0 11309700000.0 11309700000.0 11309700000.0 11309700000.0 11309700000.0 11309700000.0 11309700000.0 11309700000.0 11309700000.0 11309700000.0 11309700000.0 11309700000.0 11309700000.0 11309700000.0 11309700000.0 11309700000.0 11309700000.0 11309700000.0 11309700000.0 11309700000.0 11309700000.0 11309700000.0 11309700000.0 11309700000.0 11309700000.0 11309700000.0 11309700000.0 11309700000.0 11309700000.0 11309700000.0 11309700000.0 11309700000.0 11309700000.0 11309700000.0 11309700000.0 11309700000.0 11309700000.0 11309700000.0 11309700000.0 11309700000.0 11309700000.0 11309700000.0 11309700000.0 11309700000.0 11309700000.0 11309700000.0 11309700000.0 11309700000.0 11309700000.0 11309700000.0 11309700000.0 11309700000.0 11309700000.0 11309700000.0 11309700000.0 11309700000.0 11309700000.0 11309700000.0 11309700000.0 11309700000.0 11309700000.0 11309700000.0 11309700000.0 11309700000.0 11309700000.0 11309700000.0 11309700000.0 11309700000.0 11309700000.0 11309700000.0 11309700000.0 11309700000.0 11309700000.0 11309700000.0 11309700000.0 11309700000.0 11309700000.0 11309700000.0 11309700000.0 11309700000.0 11309700000.0 11309700000.0 11309700000.0 11309700000.0 11309700000.0 11309700000.0 11309700000.0 11309700000.0 11309700000.0 11309700000.0 11309700000.0 11309700000.0 11309700000.0 11309700000.0 11309700000.0 11309700000.0 11309700000.0 11309700000.0 11309700000.0 11309700000.0 11309700000.0 11309700000.0 11309700000.0 11309700000.0 11309700000.0 11309700000.0 11309700000.0 11309700000.0 11309700000.0 11309700000.0 11309700000.0 11309700000.0 11309700000.0 11309700000.0 11309700000.0 11309700000.0 11309700000.0 11309700000.0 11309700000.0 11309700000.0 11309700000.0 11309700000.0 11309700000.0 11309700000.0 11309700000.0 11309700000.0 11309700000.0 11309700000.0 11309700000.0 11309700000.0 11309700000.0 11309700000.0 11309700000.0 11309700000.0 11309700000.0 11309700000.0 11309700000.0 11309700000.0 11309700000.0 11309700000.0 11309700000.0 11309700000.0 11309700000.0 11309700000.0 11309700000.0 11309700000.0 11309700000.0 11309700000.0 11309700000.0 11309700000.0 11309700000.0 11309700000.0 11309700000.0 11309700000.0 11309700000.0 11309700000.0 11309700000.0 11309700000.0 11309700000.0 11309700000.0 11309700000.0 11309700000.0 11309700000.0 11309700000.0 11309700000.0 11309700000.0 11309700000.0 11309700000.0 11309700000.0 11309700000.0 11309700000.0 11309700000.0 11309700000.0 11309700000.0 11309700000.0 11309700000.0 11309700000.0 11309700000.0 11309700000.0 11309700000.0 11309700000.0 11309700000.0 11309700000.0 11309700000.0 11309700000.0 11309700000.0 11309700000.0 11309700000.0 11309700000.0 11309700000.0 11309700000.0 11309700000.0 11309700000.0 11309700000.0 11309700000.0 11309700000.0 11309700000.0 11309700000.0 11309700000.0 11309700000.0 11309700000.0 11309700000.0 11309700000.0 11309700000.0 11309700000.0 11309700000.0 11309700000.0 11309700000.0 11309700000.0 11309700000.0 11309700000.0 11309700000.0 11309700000.0 11309700000.0 11309700000.0 11309700000.0 11309700000.0 11309700000.0 11309700000.0 11309700000.0 11309700000.0 11309700000.0 11309700000.0 11309700000.0 11309700000.0 11309700000.0 11309700000.0 11309700000.0 11309700000.0 11309700000.0 11309700000.0 11309700000.0 11309700000.0 11309700000.0 11309700000.0 11309700000.0 11309700000.0 11309700000.0 11309700000.0 11309700000.0 11309700000.0 11309700000.0 11309700000.0 11309700000.0 11309700000.0 11309700000.0 11309700000.0 11309700000.0 11309700000.0 11309700000.0 11309700000.0 11309700000.0 11309700000.0 11309700000.0 11309700000.0 11309700000.0 11309700000.0 11309700000.0 11309700000.0 11309700000.0 11309700000.0 11309700000.0 11309700000.0 11309700000.0 11309700000.0 11309700000.0 11309700000.0 11309700000.0 11309700000.0 11309700000.0 11309700000.0 11309700000.0 11309700000.0 11309700000.0 11309700000.0 11309700000.0 11309700000.0 11309700000.0 11309700000.0 11309700000.0 11309700000.0 11309700000.0 11309700000.0 11309700000.0 11309700000.0 11309700000.0 11309700000.0 11309700000.0 11309700000.0 11309700000.0 11309700000.0 11309700000.0 11309700000.0 11309700000.0 11309700000.0 11309700000.0 11309700000.0 11309700000.0 11309700000.0 11309700000.0 11309700000.0 11309700000.0 11309700000.0 11309700000.0 11309700000.0 11309700000.0 11309700000.0 11309700000.0 11309700000.0 11309700000.0 11309700000.0 11309700000.0 11309700000.0 11309700000.0 11309700000.0 11309700000.0 11309700000.0 11309700000.0 11309700000.0 11309700000.0 11309700000.0 11309700000.0 11309700000.0 11309700000.0 11309700000.0 11309700000.0 11309700000.0 11309700000.0 11309700000.0 11309700000.0 11309700000.0 11309700000.0 11309700000.0 11309700000.0 11309700000.0 11309700000.0 11309700000.0 11309700000.0 11309700000.0 11309700000.0 11309700000.0 11309700000.0 11309700000.0 11309700000.0 11309700000.0 11309700000.0 11309700000.0 11309700000.0 11309700000.0 11309700000.0 11309700000.0 11309700000.0 11309700000.0 11309700000.0 11309700000.0 11309700000.0 11309700000.0 11309700000.0 11309700000.0 11309700000.0 11309700000.0 11309700000.0 11309700000.0 11309700000.0 11309700000.0 11309700000.0 11309700000.0 11309700000.0 11309700000.0 11309700000.0 11309700000.0 11309700000.0 11309700000.0 11309700000.0 11309700000.0 11309700000.0 11309700000.0 11309700000.0 11309700000.0 11309700000.0 11309700000.0 11309700000.0 11309700000.0 11309700000.0 11309700000.0 11309700000.0 11309700000.0 11309700000.0 11309700000.0 11309700000.0 11309700000.0 11309700000.0 11309700000.0 11309700000.0 11309700000.0 11309700000.0 11309700000.0 11309700000.0 11309700000.0 11309700000.0 11309700000.0 11309700000.0 11309700000.0 11309700000.0 11309700000.0 11309700000.0 11309700000.0 11309700000.0 11309700000.0 11309700000.0 11309700000.0 11309700000.0 11309700000.0 11309700000.0 11309700000.0 11309700000.0 11309700000.0 11309700000.0 11309700000.0 11309700000.0 11309700000.0 11309700000.0 11309700000.0 11309700000.0 11309700000.0 11309700000.0 11309700000.0 11309700000.0 11309700000.0 11309700000.0 11309700000.0 11309700000.0 11309700000.0 11309700000.0 11309700000.0 11309700000.0 11309700000.0 11309700000.0 11309700000.0 11309700000.0 11309700000.0 11309700000.0 11309700000.0 11309700000.0 11309700000.0 11309700000.0 11309700000.0 11309700000.0 11309700000.0 11309700000.0 11309700000.0 11309700000.0 11309700000.0 11309700000.0 11309700000.0 11309700000.0 11309700000.0 11309700000.0 11309700000.0 11309700000.0 11309700000.0 11309700000.0 11309700000.0 11309700000.0 11309700000.0 11309700000.0 11309700000.0 11309700000.0 11309700000.0 11309700000.0 11309700000.0 11309700000.0 11309700000.0 11309700000.0 11309700000.0 11309700000.0 11309700000.0 11309700000.0 11309700000.0 11309700000.0 11309700000.0 11309700000.0 11309700000.0 11309700000.0 11309700000.0 11309700000.0 11309700000.0 11309700000.0 11309700000.0 11309700000.0 11309700000.0 11309700000.0 11309700000.0 11309700000.0 11309700000.0 11309700000.0 11309700000.0 11309700000.0 11309700000.0 11309700000.0 11309700000.0 11309700000.0 11309700000.0 11309700000.0 11309700000.0 11309700000.0 11309700000.0 11309700000.0 11309700000.0 11309700000.0 11309700000.0 11309700000.0 11309700000.0 11309700000.0 11309700000.0 11309700000.0 11309700000.0 11309700000.0 11309700000.0 11309700000.0 11309700000.0 11309700000.0 11309700000.0 11309700000.0 11309700000.0 11309700000.0 11309700000.0 11309700000.0 11309700000.0 11309700000.0 11309700000.0 11309700000.0 11309700000.0 11309700000.0 11309700000.0 11309700000.0 11309700000.0 11309700000.0 11309700000.0 11309700000.0 11309700000.0 11309700000.0 11309700000.0 11309700000.0 11309700000.0 11309700000.0 11309700000.0 11309700000.0 11309700000.0 11309700000.0 11309700000.0 11309700000.0 11309700000.0 11309700000.0 11309700000.0 11309700000.0 11309700000.0 11309700000.0 11309700000.0 11309700000.0 11309700000.0 11309700000.0 11309700000.0 11309700000.0 11309700000.0 11309700000.0 11309700000.0 11309700000.0 11309700000.0 11309700000.0 11309700000.0 11309700000.0 11309700000.0 11309700000.0 11309700000.0 11309700000.0 11309700000.0 11309700000.0 11309700000.0 11309700000.0 11309700000.0 11309700000.0 11309700000.0 11309700000.0 11309700000.0 11309700000.0 11309700000.0 11309700000.0 11309700000.0 11309700000.0 11309700000.0 11309700000.0 11309700000.0 11309700000.0 11309700000.0 11309700000.0 11309700000.0 11309700000.0 11309700000.0 11309700000.0 11309700000.0 11309700000.0 11309700000.0 11309700000.0 11309700000.0 11309700000.0 11309700000.0 11309700000.0 11309700000.0 11309700000.0 11309700000.0 11309700000.0 11309700000.0 11309700000.0 11309700000.0 11309700000.0 11309700000.0 11309700000.0 11309700000.0 11309700000.0 11309700000.0 11309700000.0 11309700000.0 11309700000.0 11309700000.0 11309700000.0 11309700000.0 11309700000.0 11309700000.0 11309700000.0 11309700000.0 11309700000.0 11309700000.0 11309700000.0 11309700000.0 11309700000.0 11309700000.0 11309700000.0 11309700000.0 11309700000.0 11309700000.0 11309700000.0 11309700000.0 11309700000.0 11309700000.0 11309700000.0 11309700000.0 11309700000.0 11309700000.0 11309700000.0 11309700000.0 11309700000.0 11309700000.0 11309700000.0 11309700000.0 11309700000.0 11309700000.0 11309700000.0 11309700000.0 11309700000.0 11309700000.0 11309700000.0 11309700000.0 11309700000.0 11309700000.0 11309700000.0 11309700000.0 11309700000.0 11309700000.0 11309700000.0 11309700000.0 11309700000.0 11309700000.0 11309700000.0 11309700000.0 11309700000.0 11309700000.0 11309700000.0 11309700000.0 11309700000.0 11309700000.0 11309700000.0 11309700000.0 11309700000.0 11309700000.0 11309700000.0 11309700000.0 11309700000.0 11309700000.0 11309700000.0 11309700000.0 11309700000.0 11309700000.0 11309700000.0 11309700000.0 11309700000.0 11309700000.0 11309700000.0 11309700000.0 11309700000.0 11309700000.0 11309700000.0 11309700000.0 11309700000.0 11309700000.0 11309700000.0 11309700000.0 11309700000.0 11309700000.0 11309700000.0 11309700000.0 11309700000.0 11309700000.0 11309700000.0 11309700000.0 11309700000.0 11309700000.0 11309700000.0 11309700000.0 11309700000.0 11309700000.0 11309700000.0 11309700000.0 11309700000.0 11309700000.0 11309700000.0 11309700000.0 11309700000.0 11309700000.0 11309700000.0 11309700000.0 11309700000.0 11309700000.0 11309700000.0 11309700000.0 11309700000.0 11309700000.0 11309700000.0 11309700000.0 11309700000.0 11309700000.0 11309700000.0 11309700000.0 11309700000.0 11309700000.0 11309700000.0 11309700000.0 11309700000.0 11309700000.0 11309700000.0 11309700000.0 11309700000.0 11309700000.0 11309700000.0 11309700000.0 11309700000.0 11309700000.0 11309700000.0 11309700000.0 11309700000.0 11309700000.0 11309700000.0 11309700000.0 11309700000.0 11309700000.0 11309700000.0 11309700000.0 11309700000.0 11309700000.0 11309700000.0 11309700000.0 11309700000.0 11309700000.0 11309700000.0 11309700000.0 11309700000.0 11309700000.0 11309700000.0 11309700000.0 11309700000.0 11309700000.0 11309700000.0 11309700000.0 11309700000.0 11309700000.0 11309700000.0 11309700000.0 11309700000.0 11309700000.0 11309700000.0 11309700000.0 11309700000.0 11309700000.0 11309700000.0 11309700000.0 11309700000.0 11309700000.0 11309700000.0 11309700000.0 11309700000.0 11309700000.0 11309700000.0 11309700000.0 11309700000.0 11309700000.0 11309700000.0 11309700000.0 11309700000.0 11309700000.0 11309700000.0 11309700000.0 11309700000.0 11309700000.0 11309700000.0 11309700000.0 11309700000.0 11309700000.0 11309700000.0 11309700000.0 11309700000.0 11309700000.0 11309700000.0 11309700000.0 11309700000.0 11309700000.0 11309700000.0 11309700000.0 11309700000.0 11309700000.0 11309700000.0 11309700000.0 11309700000.0 11309700000.0 11309700000.0 11309700000.0 11309700000.0 11309700000.0 11309700000.0 11309700000.0 11309700000.0 11309700000.0 11309700000.0 11309700000.0 11309700000.0 11309700000.0 11309700000.0 11309700000.0 11309700000.0 11309700000.0 11309700000.0 11309700000.0 11309700000.0 11309700000.0 11309700000.0 11309700000.0 11309700000.0 11309700000.0 11309700000.0 11309700000.0 11309700000.0 11309700000.0 11309700000.0 11309700000.0 11309700000.0 11309700000.0 11309700000.0 11309700000.0 11309700000.0 11309700000.0 11309700000.0 11309700000.0 11309700000.0 11309700000.0 11309700000.0 11309700000.0 11309700000.0 11309700000.0 11309700000.0 11309700000.0 11309700000.0 11309700000.0 11309700000.0 11309700000.0 11309700000.0 11309700000.0 11309700000.0 11309700000.0 11309700000.0 11309700000.0 11309700000.0 11309700000.0 11309700000.0 11309700000.0 11309700000.0 11309700000.0 11309700000.0 11309700000.0 11309700000.0 11309700000.0 11309700000.0 11309700000.0 11309700000.0 11309700000.0 11309700000.0 11309700000.0 11309700000.0 11309700000.0 11309700000.0 11309700000.0 11309700000.0 11309700000.0 11309700000.0 11309700000.0 11309700000.0 11309700000.0 11309700000.0 11309700000.0 11309700000.0 11309700000.0 11309700000.0 11309700000.0 11309700000.0 11309700000.0 11309700000.0 11309700000.0 11309700000.0 11309700000.0 11309700000.0 11309700000.0 11309700000.0 11309700000.0 11309700000.0 11309700000.0 11309700000.0 11309700000.0 11309700000.0 11309700000.0 11309700000.0 11309700000.0 11309700000.0 11309700000.0 11309700000.0 11309700000.0 11309700000.0 11309700000.0 11309700000.0 11309700000.0 11309700000.0 11309700000.0 11309700000.0 11309700000.0 11309700000.0 11309700000.0 11309700000.0 11309700000.0 11309700000.0 11309700000.0 11309700000.0 11309700000.0 11309700000.0 11309700000.0 11309700000.0 11309700000.0 11309700000.0 11309700000.0 11309700000.0 11309700000.0 11309700000.0 11309700000.0 11309700000.0 11309700000.0 11309700000.0 11309700000.0 11309700000.0 11309700000.0 11309700000.0 11309700000.0 11309700000.0 11309700000.0 11309700000.0 11309700000.0 11309700000.0 11309700000.0 11309700000.0 11309700000.0 11309700000.0 11309700000.0 11309700000.0 11309700000.0 11309700000.0 11309700000.0 11309700000.0 11309700000.0 11309700000.0 11309700000.0 11309700000.0 11309700000.0 11309700000.0 11309700000.0 11309700000.0 11309700000.0 11309700000.0 11309700000.0 11309700000.0 11309700000.0 11309700000.0 11309700000.0 11309700000.0 11309700000.0 11309700000.0 11309700000.0 11309700000.0 11309700000.0 11309700000.0 11309700000.0 11309700000.0 11309700000.0 11309700000.0 11309700000.0 11309700000.0 11309700000.0 11309700000.0 11309700000.0 11309700000.0 11309700000.0 11309700000.0 11309700000.0 11309700000.0 11309700000.0 11309700000.0 11309700000.0 11309700000.0 11309700000.0 11309700000.0 11309700000.0 11309700000.0 11309700000.0 11309700000.0 11309700000.0 11309700000.0 11309700000.0 11309700000.0 11309700000.0 11309700000.0 11309700000.0 11309700000.0 11309700000.0 11309700000.0 11309700000.0 11309700000.0 11309700000.0 11309700000.0 11309700000.0 11309700000.0 11309700000.0 11309700000.0 11309700000.0 11309700000.0 11309700000.0 11309700000.0 11309700000.0 11309700000.0 11309700000.0 11309700000.0 11309700000.0 11309700000.0 11309700000.0 11309700000.0 11309700000.0 11309700000.0 11309700000.0 11309700000.0 11309700000.0 11309700000.0 11309700000.0 11309700000.0 11309700000.0 11309700000.0 11309700000.0 11309700000.0 11309700000.0 11309700000.0 11309700000.0 11309700000.0 11309700000.0 11309700000.0 11309700000.0 11309700000.0 11309700000.0 11309700000.0 11309700000.0 11309700000.0 11309700000.0 11309700000.0 11309700000.0 11309700000.0 11309700000.0 11309700000.0 11309700000.0 11309700000.0 11309700000.0 11309700000.0 11309700000.0 11309700000.0 11309700000.0 11309700000.0 11309700000.0 11309700000.0 11309700000.0 11309700000.0 11309700000.0 11309700000.0 11309700000.0 11309700000.0 11309700000.0 11309700000.0 11309700000.0 11309700000.0 11309700000.0 11309700000.0 11309700000.0 11309700000.0 11309700000.0 11309700000.0 11309700000.0 11309700000.0 11309700000.0 11309700000.0 11309700000.0 11309700000.0 11309700000.0 11309700000.0 11309700000.0 11309700000.0 11309700000.0 11309700000.0 11309700000.0 11309700000.0 11309700000.0 11309700000.0 11309700000.0 11309700000.0 11309700000.0 11309700000.0 11309700000.0 11309700000.0 11309700000.0 11309700000.0 11309700000.0 11309700000.0 11309700000.0 11309700000.0 11309700000.0 11309700000.0 11309700000.0 11309700000.0 11309700000.0 11309700000.0 11309700000.0 11309700000.0 11309700000.0 11309700000.0 11309700000.0 11309700000.0 11309700000.0 11309700000.0 11309700000.0 11309700000.0 11309700000.0 11309700000.0 11309700000.0 11309700000.0 11309700000.0 11309700000.0 11309700000.0 11309700000.0 11309700000.0 11309700000.0 11309700000.0 11309700000.0 11309700000.0 11309700000.0 11309700000.0 11309700000.0 11309700000.0 11309700000.0 11309700000.0 11309700000.0 11309700000.0 11309700000.0 11309700000.0 11309700000.0 11309700000.0 11309700000.0 11309700000.0 11309700000.0 11309700000.0 11309700000.0 11309700000.0 11309700000.0 11309700000.0 11309700000.0 11309700000.0 11309700000.0 11309700000.0 11309700000.0 11309700000.0 11309700000.0 11309700000.0 11309700000.0 11309700000.0 11309700000.0 11309700000.0 11309700000.0 11309700000.0 11309700000.0 11309700000.0 11309700000.0 11309700000.0 11309700000.0 11309700000.0 11309700000.0 11309700000.0 11309700000.0 11309700000.0 11309700000.0 11309700000.0 11309700000.0 11309700000.0 11309700000.0 11309700000.0 11309700000.0 11309700000.0 11309700000.0 11309700000.0 11309700000.0 11309700000.0 11309700000.0 11309700000.0 11309700000.0 11309700000.0 11309700000.0 11309700000.0 11309700000.0 11309700000.0 11309700000.0 11309700000.0 11309700000.0 11309700000.0 11309700000.0 11309700000.0 11309700000.0 11309700000.0 11309700000.0 11309700000.0 11309700000.0 11309700000.0 11309700000.0 11309700000.0 11309700000.0 11309700000.0 11309700000.0 11309700000.0 11309700000.0 11309700000.0 11309700000.0 11309700000.0 11309700000.0 11309700000.0 11309700000.0 11309700000.0 11309700000.0 11309700000.0 11309700000.0 11309700000.0 11309700000.0 11309700000.0 11309700000.0 11309700000.0 11309700000.0 11309700000.0 11309700000.0 11309700000.0 11309700000.0 11309700000.0 11309700000.0 11309700000.0 11309700000.0 11309700000.0 11309700000.0 11309700000.0 11309700000.0 11309700000.0 11309700000.0 11309700000.0 11309700000.0 11309700000.0 11309700000.0 11309700000.0 11309700000.0 11309700000.0 11309700000.0 11309700000.0 11309700000.0 11309700000.0 11309700000.0 11309700000.0 11309700000.0 11309700000.0 11309700000.0 11309700000.0 11309700000.0 11309700000.0 11309700000.0 11309700000.0 11309700000.0 11309700000.0 11309700000.0 11309700000.0 11309700000.0 11309700000.0 11309700000.0 11309700000.0 11309700000.0 11309700000.0 
SCALARS Velocity float 1
LOOKUP_TABLE default
1.0845 1.07047 1.10419 1.07598 1.07415 1.07406 1.08135 1.07483 1.0736 1.08522 1.08416 1.09181 1.08315 1.08129 1.07858 1.07717 1.07543 1.07216 1.07494 1.0156 1.07728 1.08077 1.08111 1.08574 1.08629 1.08619 1.08569 1.08477 1.08444 1.08391 1.10245 1.09031 1.08915 1.08471 1.08086 1.07675 1.07339 1.07287 1.07304 1.08054 1.08012 1.08623 1.08677 1.0863 1.0853 1.08401 1.10224 1.08854 1.08282 1.07849 1.07478 1.07205 1.07472 1.04283 1.04953 1.07613 1.07865 1.083 1.08689 1.08609 1.08488 1.08976 1.0853 1.08305 1.08068 1.07832 1.07637 1.07437 1.07301 1.07187 1.072 1.0697 1.07079 1.07345 1.05469 1.07339 1.07909 1.08152 1.08387 1.08587 1.08718 1.08738 1.08658 1.08653 1.08566 1.08489 1.08418 1.10207 1.08928 1.08774 1.08557 1.08061 1.07608 1.07266 1.07078 1.07093 1.07471 1.07282 1.0816 1.086 1.08725 1.08687 1.08615 1.08417 1.1013 1.08744 1.08298 1.07816 1.07401 1.07124 1.0701 1.07296 1.07868 1.07794 1.08401 1.08693 1.08686 1.08539 1.09029 1.08504 1.08278 1.08048 1.07798 1.07581 1.07362 1.07218 1.07079 1.07035 1.07029 1.07121 1.07345 1.07573 1.07807 1.07697 1.07982 1.08163 1.08411 1.08586 1.08656 1.08696 1.08706 1.08707 1.0866 1.0855 1.08423 1.09771 1.09008 1.08703 1.08504 1.08034 1.07553 1.07174 1.07009 1.07155 1.07593 1.07897 1.08259 1.08566 1.08656 1.08712 1.08705 1.09035 1.09 1.08804 1.08762 1.08279 1.0778 1.07325 1.07038 1.0703 1.07363 1.07828 1.08135 1.08453 1.08615 1.0871 1.08968 1.08948 1.08886 1.0853 1.0803 1.07768 1.07526 1.07287 1.07131 1.06991 1.06975 1.06999 1.07153 1.07361 1.07614 1.07887 1.0803 1.0826 1.08351 1.08484 1.08551 1.08559 1.08598 1.08723 1.08753 1.08795 1.08984 1.0889 1.08876 1.08728 1.08521 1.08289 1.08034 1.07501 1.07083 1.06922 1.07121 1.07642 1.0815 1.08426 1.08516 1.0851 1.08753 1.08814 1.08914 1.08944 1.0896 1.0896 1.08714 1.08293 1.07763 1.07248 1.06931 1.06939 1.07348 1.07977 1.08372 1.08485 1.08467 1.08779 1.08876 1.08965 1.08909 1.08517 1.08049 1.07767 1.07478 1.07208 1.07029 1.06856 1.06845 1.06841 1.07062 1.07318 1.07687 1.08121 1.08289 1.08492 1.08476 1.08439 1.08436 1.08323 1.08378 1.08776 1.08793 1.08816 1.08907 1.09026 1.0869 1.08573 1.08328 1.08087 1.07454 1.06976 1.06741 1.06953 1.07743 1.08481 1.08504 1.08293 1.08195 1.08792 1.08816 1.08852 1.08884 1.08946 1.09117 1.07876 1.08403 1.07783 1.07175 1.06781 1.067 1.07245 1.08352 1.08633 1.0833 1.08108 1.08803 1.08841 1.08959 1.07983 1.07955 1.07941 1.08158 1.07822 1.07428 1.07172 1.06941 1.06722 1.06618 1.06505 1.06783 1.07092 1.07801 1.08761 1.08743 1.08775 1.0848 1.08123 1.08067 1.07826 1.0796 1.08801 1.08811 1.0882 1.08836 1.08874 1.08918 1.0909 1.0806 1.07841 1.07395 1.06959 1.06495 1.06511 1.07812 1.09083 1.08341 1.07744 1.07698 1.08799 1.08823 1.08842 1.09002 1.08121 1.08042 1.07638 1.07239 1.06702 1.06289 1.0677 1.09555 1.08861 1.07757 1.07353 1.0751 1.07486 1.0881 1.08824 1.08827 1.08265 1.08176 1.08131 1.07916 1.07638 1.07336 1.07222 1.06988 1.06732 1.06449 1.06244 1.06145 1.06163 1.07568 1.11215 1.09353 1.08694 1.07958 1.07204 1.07297 1.08773 1.08776 1.08817 1.08814 1.08793 1.08679 1.08881 1.08296 1.07901 1.07455 1.07033 1.06484 1.06208 1.06231 1.08699 1.07072 1.07159 1.07397 1.08706 1.08768 1.0879 1.08748 1.0841 1.08197 1.08083 1.07973 1.07737 1.07592 1.07324 1.07155 1.0681 1.06286 1.06784 1.14159 1.06459 1.07567 1.07387 1.07094 1.07263 1.07282 1.07439 1.08587 1.08689 1.08654 1.0874 1.08651 1.08646 1.08721 1.08271 1.08137 1.07846 1.07454 1.06951 1.06564 1.06281 1.06252 1.07058 1.06859 1.03443 1.07508 1.0741 1.07428 1.08542 1.08586 1.08584 1.08479 1.08233 1.08045 1.07711 1.0728 1.06708 1.05869 1.01008 1.00831 1.03521 1.06215 1.07521 1.07501 1.07566 1.08417 1.08477 1.08513 1.08557 1.08416 1.08325 1.08267 1.08178 1.08097 1.07931 1.07788 1.07555 1.07341 1.0705 1.06696 1.06347 1.02069 1.01823 1.05448 1.07017 1.07234 1.07536 1.0761 1.07613 1.07707 1.08208 1.08344 1.08259 1.08401 1.08327 1.08452 1.084 1.0832 1.08208 1.07979 1.07593 1.07019 1.05821 1.0482 1.02978 1.01789 1.02532 1.03566 1.06326 1.07382 1.07722 1.08111 1.08172 1.08266 1.08317 1.08266 1.08121 1.0781 1.07308 1.06427 1.04663 1.02745 1.03697 1.04958 1.05794 1.06769 1.071 1.07553 1.07747 1.07814 1.07981 1.07864 1.08007 1.07905 1.08093 1.08033 1.08219 1.08172 1.08259 1.08218 1.08205 1.08108 1.07986 1.07779 1.07563 1.07201 1.06862 1.06272 1.05627 1.04859 1.03712 1.03193 1.04703 1.06351 1.07426 1.07922 1.07765 1.07739 1.07815 1.07992 1.08142 1.08159 1.07949 1.07479 1.06734 1.05666 1.0433 1.03533 1.03753 1.03912 1.04592 1.05433 1.06833 1.0777 1.07603 1.07632 1.07484 1.07615 1.07499 1.07747 1.07704 1.07967 1.07957 1.08115 1.08062 1.08053 1.07874 1.07706 1.07374 1.07088 1.06236 1.05186 1.04196 1.04127 1.05184 1.06033 1.06658 1.07341 1.07909 1.08116 1.07462 1.07323 1.07402 1.07686 1.07947 1.07955 1.07607 1.06975 1.06649 1.06247 1.05815 1.05547 1.04888 1.04227 1.04519 1.05812 1.07401 1.08515 1.0755 1.07285 1.07154 1.07335 1.07689 1.07909 1.07771 1.07258 1.06565 1.05974 1.05409 1.04796 1.04628 1.04283 1.044 1.04979 1.05671 1.06619 1.07691 1.08285 1.09237 1.07672 1.07415 1.07199 1.07063 1.06798 1.06993 1.06867 1.07304 1.07311 1.07697 1.0769 1.07819 1.07659 1.07503 1.07162 1.06855 1.06454 1.06218 1.05838 1.05385 1.04322 1.0476 1.06747 1.08996 1.07555 1.06882 1.06523 1.06798 1.07343 1.07643 1.07422 1.06782 1.06161 1.06029 1.05963 1.0587 1.06048 1.04977 1.04118 1.04145 1.04417 1.05582 1.08251 1.10364 1.08039 1.0797 1.07298 1.06857 1.06469 1.06006 1.06288 1.06132 1.06793 1.06839 1.07378 1.07401 1.07543 1.07394 1.07126 1.064 1.0604 1.06263 1.05205 1.03507 1.05502 1.07025 1.09128 1.10088 1.11958 1.0872 1.07683 1.06224 1.05572 1.0608 1.0693 1.0741 1.07211 1.06807 1.06518 1.06046 1.05572 1.05955 1.06377 1.06945 1.03357 1.0391 1.07527 1.11651 0.893832 1.09713 1.08734 1.08445 1.07077 1.06158 1.0546 1.04724 1.05261 1.06139 1.07052 1.07407 1.07033 1.06219 1.04971 1.08438 1.05339 1.01754 1.02494 1.03332 1.05492 1.08273 1.10392 1.13683 1.14064 1.09893 1.0769 1.0498 1.04138 1.05121 1.05133 1.06281 1.06502 1.072 1.074 1.07417 1.07484 1.06911 1.06729 1.05738 1.0522 1.04192 1.0503 1.05109 1.01347 1.05684 1.11983 1.16622 1.10955 1.11435 1.09719 1.08848 1.06446 1.0463 1.03745 1.03781 1.05316 1.06836 1.0768 1.07579 1.06583 1.05695 0.970204 0.906429 0.998654 1.00864 1.03085 1.05804 1.09174 1.13881 1.16153 1.19621 0.893832 1.12096 1.11448 1.07146 1.02671 1.02674 1.02115 1.03746 1.04049 1.05699 1.07291 1.0805 1.07706 1.0654 1.03331 0.958708 0.963977 1.02358 1.10158 1.192 1.12278 1.12805 1.13121 1.1046 1.08628 1.04654 1.02023 1.01176 1.02079 1.04576 1.06247 1.06973 1.07882 1.08575 1.08437 1.08807 1.07772 1.07005 1.05193 1.00941 0.926256 0.981259 1.05668 1.11565 1.16316 1.23074 1.13189 1.12742 1.05691 0.99572 1.00214 1.00011 1.02391 1.05379 1.07892 1.093 1.08714 1.04279 0.955478 0.929272 0.946144 0.961615 1.00672 1.05801 1.19614 1.23169 1.25597 1.10607 1.11158 1.14201 1.14951 1.10998 1.08279 1.01751 0.982526 1.00654 1.03203 1.04304 1.06446 1.07712 1.08965 1.09785 1.09667 1.07345 1.04077 0.998901 0.950991 0.93177 1.00008 1.07529 1.14048 1.2742 0.893832 1.06046 1.13575 1.14378 1.03545 0.98964 0.96574 0.980958 1.01568 1.05617 1.09071 1.09996 1.10759 1.08439 0.992604 0.923503 0.926879 0.95278 1.01336 1.16603 1.23072 1.27737 1.20612 1.05714 1.09889 1.16582 1.1884 1.13912 0.991657 0.956683 0.984549 0.999991 1.02987 1.04606 1.07136 1.10323 1.11215 1.0457 0.98593 0.941914 0.912435 0.973996 1.10637 1.20398 1.23847 1.02822 0.972006 0.951382 1.15661 1.22218 1.07852 1.02704 0.957439 0.936111 0.967653 1.01554 1.0612 1.08629 1.0996 1.11619 1.13437 1.10904 1.05568 0.923764 0.920066 0.973788 1.06744 1.14557 1.26808 1.17523 0.846408 0.803755 1.01775 1.03412 1.12631 1.23183 1.18738 0.949761 0.937277 0.978711 1.00842 1.03542 1.07167 1.11761 1.15767 0.973327 0.893237 0.901378 1.06254 1.18071 1.29746 1.11538 1.0089 1.01176 0.582684 0.594158 0.71522 0.979239 1.03644 1.18976 1.30085 1.32925 1.08199 1.01525 0.916338 0.974667 1.02927 1.04922 1.06007 1.07573 1.0768 1.15576 1.06871 0.959744 0.903074 0.896439 0.931539 1.49767 1.25935 1.07802 1.38479 1.07316 1.00838 0.577181 0.76906 1.02777 1.02152 1.05434 1.21748 1.1818 0.896058 0.928167 0.993617 1.00958 1.01983 1.04181 1.07135 1.08279 1.17143 1.24391 1.10472 0.917682 0.946015 0.922869 0.949649 0.951066 1.19332 1.35073 1.33604 1.22684 1.88406 1.80468 0.874042 0.574052 0.576674 0.630939 0.665883 0.831698 1.05572 1.03802 1.08634 1.05638 1.12051 0.984141 1.65522 1.59037 1.06726 0.976971 1.02068 1.02358 1.0523 1.07051 1.09984 1.23147 0.777276 1.0312 0.966106 0.998579 1.05844 0.95101 0.940963 0.829557 1.33988 0.790905 0.81796 0.367061 0.714946 0.562982 0.58808 0.613193 0.707287 0.867936 1.07015 1.07246 1.13388 1.38364 1.3672 1.40685 1.50652 1.03234 1.06757 1.03183 1.02135 1.02508 1.01825 1.0023 1.14326 1.08087 0.486109 0.600328 0.883056 1.01867 1.04973 1.04042 0.8941 0.777051 0.649867 0.965298 0.911141 0.86485 0.436935 0.345586 0.513802 0.182398 0.560107 0.553748 0.566657 0.631673 0.663675 0.772754 0.931787 1.06315 1.11939 1.08642 1.19014 1.08646 1.18891 1.2939 1.06397 1.03122 1.03212 1.02184 0.976027 1.33607 1.10612 0.696516 0.82598 0.619873 0.75864 0.974958 1.00455 0.827822 0.746294 0.731337 0.712354 0.739223 0.380619 0.492127 0.604539 0.534175 0.182505 0.562394 0.555363 0.582789 0.60383 0.700289 0.77293 1.12792 0.876089 0.998027 0.938594 0.951368 0.648504 0.353829 0.858831 1.18234 1.04665 1.03852 1.03177 1.01113 1.12019 1.27378 0.628582 0.201833 0.794085 0.890252 0.985752 0.928679 0.896744 0.721403 0.720491 0.837075 0.747535 0.604195 0.510512 0.590311 0.666352 0.717565 0.664361 0.388219 0.562134 0.56318 0.563855 0.564989 0.564089 0.587481 0.616298 0.659868 0.685995 0.690291 0.697196 0.848641 0.888839 0.92139 0.775203 0.517721 0.57606 0.809946 1.00321 1.00402 1.07949 1.0689 1.05081 1.04777 1.04234 0.907673 0.427133 0.580373 0.842313 0.881162 0.931937 0.941079 0.965183 0.956399 0.898575 0.889335 0.799264 0.746027 0.695731 0.585072 0.589223 0.594448 0.61042 0.496124 0.560153 0.553086 0.566648 0.564683 0.563402 0.552934 0.609401 0.641607 0.656884 0.764944 0.86397 0.877727 0.853032 0.724555 0.709086 0.898882 1.01868 1.06281 1.02282 0.918063 0.70954 0.521125 0.393503 0.612283 0.716886 0.791963 0.899206 0.947202 0.95164 0.954384 0.94269 0.841789 0.853577 0.972238 0.254319 0.477842 0.667427 0.657172 0.58542 0.613475 0.619127 0.559705 0.532928 0.547083 0.553441 0.560462 0.561162 0.563507 0.530222 0.573091 0.590596 0.649018 0.696626 0.748876 0.846738 0.871814 0.880146 0.843812 0.820647 0.727455 0.764498 0.786683 0.820497 0.903629 0.991315 1.0745 1.04879 1.02046 0.929614 0.907393 0.792564 0.762048 0.644661 0.541173 0.706308 0.835887 0.909605 0.912704 0.93078 0.914055 0.918217 0.812623 0.694669 0.577764 0.57078 0.464472 0.618615 0.754182 0.651508 0.576944 0.579018 0.5509 0.535206 0.523245 0.521288 0.543241 0.555839 0.56339 0.56375 0.589754 0.509163 0.6049 0.71563 0.774068 0.816079 0.852276 0.854929 0.899787 0.890525 0.809755 0.783483 0.840944 1.11757 0.941284 0.785263 0.69829 0.584455 0.643514 0.761567 0.8166 0.867312 0.872044 0.894093 0.890776 0.884779 0.809487 0.637727 0.502441 0.613533 0.404919 0.694968 0.548958 0.527164 0.536636 0.545121 0.53459 0.510709 0.48382 0.513864 0.519296 0.510774 0.534827 0.554417 0.568887 0.59192 0.652806 0.553192 0.471538 0.551651 0.754502 0.835573 0.806222 0.820257 0.845486 0.912193 0.899895 0.865387 0.833181 0.78306 0.80821 0.801652 1.01673 1.01308 0.739381 0.737505 0.642426 0.628504 0.60917 0.661823 0.697848 0.743968 0.858643 0.853716 0.848143 0.90265 0.889021 0.867684 0.622467 0.624656 0.565188 0.479973 0.632945 0.501152 0.501532 0.541077 0.5561 0.542798 0.537166 0.500052 0.462705 0.503782 0.510602 0.494499 0.508148 0.510245 0.530818 0.534634 0.618259 0.739485 0.703658 0.55929 0.922162 0.792644 0.795679 0.774732 0.979197 0.891968 0.87395 0.7848 0.864208 0.815065 1.13737 1.19122 0.814598 0.779256 0.737182 0.725621 0.706317 0.689999 0.667102 0.64956 0.68711 0.81455 0.877344 0.828449 0.802404 0.822876 0.873098 0.89241 0.925193 1.08525 1.43535 0.66349 0.55435 0.467458 0.491789 0.530328 0.558125 0.563849 0.543056 0.492313 0.460605 0.418808 0.444998 0.489113 0.506951 0.510758 0.489415 0.490372 0.495678 0.496397 0.55964 0.586023 0.877658 1.03196 1.2052 0.979192 0.835198 0.78704 0.801341 0.813717 0.831723 0.825503 0.861215 0.92806 0.815965 0.893766 0.726519 0.693092 0.66935 0.670966 0.67234 0.710207 0.807191 0.788202 0.792376 0.838679 0.824383 0.811159 0.791241 0.748634 0.454109 0.25716 0.444477 0.546749 0.572556 0.569415 0.553456 0.521684 0.497939 0.444853 0.423092 0.424024 0.427092 0.461922 0.473151 0.505419 0.48016 0.468428 0.477021 0.469419 0.450645 0.495502 0.482947 0.605604 1.21765 1.39735 1.10274 0.892097 0.725417 0.679551 0.684019 0.454545 0.854567 0.771565 0.823979 0.746821 0.983963 0.927464 0.460612 0.246245 0.845917 0.805019 0.717612 0.693286 0.702893 0.683466 0.689317 0.660359 0.68961 0.749228 0.801428 0.788381 0.730256 0.647969 0.64522 1.13105 0.697101 0.505683 0.456264 0.513165 0.587322 0.612046 0.591131 0.553577 0.444621 0.367345 0.440036 0.440484 0.448342 0.427468 0.471874 0.442564 0.484981 0.467264 0.473625 0.455465 0.431997 0.45233 0.429521 0.424321 0.453465 0.444051 0.454414 0.35616 0.0250496 0.770563 0.654424 0.508969 0.534095 0.602652 0.562942 0.707724 0.806488 0.768574 0.759874 0.91992 0.831938 0.616871 0.0684395 0.318971 0.575391 0.806335 0.742011 0.749939 0.732289 0.706272 0.722214 0.70678 0.692086 0.671585 0.655709 0.687248 0.763917 0.760184 0.723592 0.662785 0.773679 0.843613 0.595029 0.567183 0.540603 0.573986 0.635146 0.630047 0.595041 0.542689 0.497043 0.371465 0.344867 0.477445 0.407901 0.343191 0.46714 0.376585 0.456921 0.434524 0.451223 0.424984 0.415358 0.406182 0.400922 0.429047 0.418557 0.260567 0.19086 0.888251 0.832124 0.671314 0.547748 0.568792 0.585244 0.679704 0.734509 0.781928 0.593327 0.80201 0.647904 0.49449 0.34599 0.636343 0.716515 0.731911 0.730866 0.691277 0.660051 0.651641 0.662466 0.726895 0.742406 0.729625 0.696612 0.644511 0.697598 0.613274 0.584431 0.49501 0.546965 0.585707 0.648603 0.660116 0.619607 0.385306 0.359945 0.411075 0.473884 0.437882 0.393789 0.291493 0.294039 0.290888 0.162631 0.27635 0.435808 0.330735 0.446729 0.455684 0.414558 0.404489 0.396545 0.402407 0.39975 0.327266 0.404412 0.415964 0.427132 0.664594 0.931295 0.601119 0.565389 0.575853 0.643278 0.683944 0.71051 0.707057 0.65856 0.539455 0.52613 0.308144 0.484684 0.633199 0.721541 0.75749 0.750608 0.711648 0.669782 0.688707 0.718027 0.723376 0.723879 0.668848 0.681793 0.591258 0.386371 0.384456 0.357711 0.477895 0.660263 0.661152 0.739317 0.585709 0.414925 0.408479 0.463595 0.485037 0.435899 0.230333 0.236176 0.324065 0.229451 0.289237 0.0832816 0.346912 0.411576 0.466981 0.390698 0.399339 0.407539 0.401972 0.441558 0.408462 0.357563 0.476203 0.687272 0.406907 0.522924 0.710808 0.699159 0.581193 0.575502 0.61183 0.645307 0.669267 0.669787 0.632756 0.66901 0.538126 0.521825 0.468443 0.562964 0.573 0.658352 0.722369 0.752725 0.778153 0.689886 0.635843 0.635419 0.637356 0.6514 0.666798 0.687557 0.699678 0.71253 0.728518 0.73087 0.669147 0.491796 0.155828 0.379095 0.25556 0.614086 0.62014 0.652307 0.665441 0.798155 0.597704 0.377531 0.486406 0.434116 0.382003 0.155093 0.201471 0.261602 0.335809 0.39408 0.286021 0.356722 0.473499 0.579571 0.456586 0.471077 0.392664 0.342252 0.389401 0.395267 0.520892 0.664928 0.995631 0.981173 0.347283 0.395159 0.449183 0.155092 0.61584 0.630382 0.646773 0.646934 0.638607 0.646375 0.615221 0.581469 0.562492 0.541456 0.64499 0.767367 0.749756 0.652742 0.621808 0.641098 0.654662 0.670719 0.681724 0.688056 0.740857 0.778578 0.77298 0.726636 0.524918 0.398166 0.472015 0.486057 0.549796 0.563596 0.597777 0.691784 0.804858 0.614777 0.500797 0.367441 0.447447 0.454363 0.403308 0.286648 0.288393 0.455986 0.478883 0.22506 0.330621 0.313946 0.386715 0.30575 0.51741 0.372594 0.402014 0.329999 0.361374 0.380193 0.433035 0.458688 0.432501 0.589502 0.748477 0.511357 0.397303 0.398584 0.318328 0.480629 0.658024 0.613712 0.634113 0.630429 0.630286 0.630085 0.613505 0.573136 0.548165 0.501281 0.45895 0.51471 0.547227 0.583483 0.760971 0.748739 0.825751 0.769386 0.603673 0.62808 0.645533 0.660451 0.670249 0.716889 0.760554 0.774022 0.795908 0.859211 0.641452 0.858881 0.521179 0.568243 0.504748 0.526364 0.546681 0.690877 0.607982 0.249377 0.400908 0.488981 0.291449 0.508724 0.439388 0.438983 0.517468 0.514019 0.518478 0.117037 0.21767 0.231262 0.368992 0.335528 0.648745 0.407822 0.459893 0.282067 0.302498 0.304136 0.370224 0.405001 0.414454 0.384675 0.184473 0.188684 0.549361 0.47031 0.432229 0.390938 0.47482 0.555308 0.643465 0.635154 0.634517 0.617048 0.615705 0.606438 0.584264 0.556874 0.529901 0.533375 0.524763 0.506128 0.742732 1.015 0.613338 0.623872 0.6306 0.646813 0.656384 0.668567 0.678076 0.710034 0.733307 0.737293 0.849292 1.20085 1.73539 0.593161 0.590825 0.49163 0.473202 0.479028 0.474282 0.657347 0.770943 0.463721 0.246704 0.210283 0.49341 0.746106 0.962058 0.694826 0.267375 0.354175 0.427366 0.50537 0.559787 0.13663 0.038219 0.0949394 0.179548 0.166203 0.363561 0.410323 0.159126 0.27954 0.338201 0.305694 0.451153 0.404222 0.400908 0.378365 0.253177 0.325929 0.401467 0.503895 0.462238 0.433985 0.450952 0.528061 0.608978 0.66775 0.655799 0.634496 0.620411 0.596957 0.58995 0.571537 0.551256 0.545328 0.531377 0.549925 0.555554 0.466145 0.579806 0.84812 0.61754 0.603808 0.657194 0.651826 0.659545 0.665109 0.63582 0.588265 0.614042 0.635351 1.43996 0.584752 0.473207 0.486277 0.47677 0.483859 0.50693 0.621565 0.551233 0.258649 0.226739 0.273155 0.268954 0.813229 0.0891836 0.166723 0.315179 0.402173 0.477095 0.494216 0.556174 0.137831 0.137812 0.116708 0.0759924 0.121654 0.1641 0.307128 0.491961 0.917752 0.56396 0.340496 0.464131 0.400756 0.351605 0.400923 0.400559 0.360801 0.398304 0.423883 0.446363 0.483491 0.465934 0.465535 0.472546 0.600768 0.702664 0.689176 0.644277 0.613547 0.602956 0.598752 0.584067 0.56981 0.556459 0.553948 0.563053 0.590119 0.72992 0.631894 0.914267 0.702048 1.15602 0.540682 0.481704 0.471686 0.6336 0.643299 0.644926 0.635647 0.625599 0.629795 0.607917 0.533903 0.423933 0.469857 0.919955 0.603126 0.487179 0.496943 0.503398 0.526667 0.583869 0.726155 0.442301 0.321681 0.469518 0.557905 0.386069 0.497804 0.0560486 0.0598291 0.204625 0.319602 0.356821 0.482671 0.492738 0.214114 0.148213 0.152319 0.163873 0.113953 0.145428 0.0869445 0.255882 0.449016 0.176986 0.457268 0.505395 0.42607 0.419648 0.52599 0.406983 0.4166 0.416892 0.43681 0.471559 0.490296 0.492534 0.502504 0.52844 0.78469 0.725117 0.651316 0.598783 0.587549 0.584195 0.585537 0.588827 0.569604 0.576554 0.594718 0.642419 0.602151 0.359851 0.629616 0.240516 0.564446 0.520708 0.580595 0.612434 0.622899 0.619819 0.610172 0.605603 0.591518 0.553355 0.477178 0.905749 0.567531 0.649271 0.558527 0.451053 0.397691 0.346525 0.31082 0.223514 0.2724 0.068764 0.22073 0.517331 0.373004 0.112444 0.139343 0.161744 0.162378 0.146025 0.154182 0.183048 0.104377 0.246886 0.336956 0.457481 0.181979 0.549375 0.524772 0.471867 0.48746 0.4411 0.450154 0.457411 0.451886 0.788755 0.653247 0.575436 0.573641 0.574311 0.577625 0.584248 0.58904 0.587449 0.57666 0.48678 0.521546 0.576789 0.599537 0.602894 0.593231 0.586567 0.578226 0.481135 0.647068 0.748709 0.746742 0.599442 0.551316 0.525645 0.522689 0.587453 0.579259 0.528388 0.588004 0.505807 0.355441 0.167102 0.0894884 0.103075 0.14466 0.182513 0.370136 0.400163 0.583224 0.383382 0.913416 0.447402 0.139906 0.17615 0.159893 0.147016 0.154906 0.151962 0.182184 0.205013 0.252981 0.443778 0.567793 0.617072 0.227052 0.264031 0.600406 0.484043 0.464573 0.469891 0.475181 0.477575 0.480469 0.489991 0.50247 0.509541 0.514116 0.724277 0.570145 0.574527 0.576979 0.577883 0.581837 0.588848 0.594524 0.593747 0.589663 0.585737 0.59131 0.609413 0.590616 0.495671 0.497971 0.457894 0.444784 0.544834 0.524272 0.524921 0.548484 0.578036 0.590976 0.588801 0.58068 0.54708 0.503008 0.495985 0.583655 0.63361 0.661672 0.657416 0.585318 0.550989 0.528835 0.537927 0.544899 0.547181 0.56824 0.589519 0.328206 0.243652 0.187543 0.118714 0.0323898 0.0633533 0.0646417 0.0485089 0.255984 0.491063 0.868323 0.306481 0.126219 0.189013 0.0193639 0.19715 0.182206 0.16756 0.171406 0.159188 0.154405 0.157337 0.246872 0.309145 0.383073 0.465566 0.485273 0.438047 0.585577 0.939163 0.540217 0.472807 0.51764 0.508908 0.506453 0.50023 0.498063 0.497823 0.502061 0.506819 0.501303 0.462311 0.397056 0.587903 0.588008 0.585789 0.586158 0.589875 0.594862 0.59877 0.599582 0.597203 0.594511 0.59664 0.586608 0.545822 0.523402 0.487561 0.499456 0.508796 0.542861 0.541544 0.548887 0.56552 0.580654 0.573559 0.552081 0.523384 0.497969 0.532053 0.581218 0.616663 0.609482 0.596086 0.558269 0.536956 0.537991 0.557619 0.529134 0.536645 0.641939 0.499981 0.396557 0.325869 0.221312 0.129217 0.0722317 0.0712655 0.300157 0.350051 1.14447 0.789659 0.756203 0.280371 0.19768 0.0919692 0.136679 0.180535 0.199577 0.143412 0.148537 0.146931 0.139092 0.157132 0.210128 0.224077 0.347722 0.38125 0.628104 0.499024 0.293306 0.691071 0.323581 0.441977 0.612954 0.551635 0.534387 0.524183 0.511183 0.504506 0.501151 0.497742 0.487502 0.460735 0.424067 0.361266 0.622602 0.592046 0.586256 0.587706 0.592462 0.596609 0.599975 0.601585 0.601457 0.600068 0.597796 0.589287 0.569247 0.550067 0.526417 0.520512 0.531823 0.539443 0.552658 0.557293 0.584616 0.580678 0.574196 0.564566 0.546786 0.528976 0.540368 0.555807 0.572128 0.5817 0.566296 0.549724 0.544383 0.537946 0.535407 0.550842 0.526995 0.553987 0.683237 0.152059 0.184104 0.161469 0.124688 0.0603804 0.213743 0.292051 0.433814 0.568365 0.752108 0.962227 0.851189 0.60621 0.336789 0.196697 0.141229 0.05849 0.198508 0.199605 0.164415 0.106761 0.123107 0.0998506 0.0972725 0.184057 0.166534 0.488985 0.681868 0.628825 0.633222 1.32927 0.972768 0.766367 0.611804 0.559514 0.538613 0.524397 0.511725 0.502489 0.495338 0.483863 0.460975 0.435401 0.419893 0.459772 0.577379 0.603647 0.602854 0.600735 0.595568 0.583928 0.570548 0.555049 0.546333 0.54823 0.554533 0.566266 0.576991 0.583436 0.583368 0.578259 0.569871 0.559613 0.552782 0.555755 0.564257 0.564149 0.552506 0.54859 0.546276 0.542918 0.540889 0.553295 0.545181 0.551903 0.570697 0.537327 0.0639304 0.130638 0.106898 0.0541827 0.141576 0.163815 0.34757 0.529169 0.684918 0.553274 0.64524 0.409531 0.290064 0.243208 0.175964 0.114663 0.287447 0.0664983 0.20366 0.192004 0.11077 0.106519 0.087771 0.122709 0.136014 0.0459907 0.124986 0.13376 0.286818 0.448768 0.634792 0.408417 1.18802 1.3434 0.903221 0.551847 0.624521 0.566951 0.539353 0.52386 0.513221 0.501855 0.493077 0.484919 0.469702 0.448348 0.435568 0.467733 0.504499 0.563878 0.571732 0.581547 0.591139 0.597498 0.601339 0.603266 0.558849 0.565478 0.571128 0.578262 0.583768 0.585761 0.584449 0.579 0.569687 0.562384 0.560454 0.566066 0.561483 0.548713 0.539757 0.535452 0.539692 0.166441 0.253441 0.296883 0.292361 0.36208 0.431562 0.544637 0.671754 0.407189 0.424372 0.360798 0.325064 0.17448 0.146485 0.122225 0.0918924 0.0734834 0.1528 0.227007 0.143439 0.146299 0.12258 0.174359 0.210408 0.316808 0.377562 0.544114 0.627621 0.150109 0.509229 0.807296 0.799596 0.535643 0.509638 0.56312 0.53368 0.51842 0.509749 0.501527 0.493177 0.537713 0.566513 0.585717 0.595097 0.600308 0.603706 0.605362 0.605361 0.603708 0.600304 0.593614 0.585038 0.575407 0.568308 0.566108 0.567833 0.570438 0.572941 0.577286 0.58199 0.586024 0.587677 0.586929 0.584006 0.578388 0.571959 0.566021 0.542146 0.549872 0.5632 0.566886 0.58686 0.572459 0.31833 0.0568889 0.182696 0.295477 0.352126 0.322778 0.35721 0.416714 0.453348 0.479436 0.213297 0.308079 0.265228 0.222896 0.151067 0.111615 0.0288596 0.0611731 0.213795 0.40799 0.241194 0.1846 0.214763 0.191893 0.187958 0.188955 0.22802 0.253257 0.331597 0.481428 0.57497 0.541985 0.313719 0.201372 0.715688 0.746188 0.537742 0.49013 0.484992 0.475918 0.463164 0.451963 0.464136 0.478994 0.511955 0.543996 0.572581 0.587551 0.595797 0.601226 0.604834 0.606428 0.606397 0.604562 0.600642 0.595401 0.589239 0.584012 0.581152 0.580523 0.581159 0.582288 0.583688 0.58608 0.588538 0.589917 0.589345 0.586607 0.561259 0.554197 0.546524 0.536724 0.529198 0.527435 0.536624 0.544465 0.559654 0.57358 0.592093 0.591142 0.429697 0.279461 0.195021 0.187841 0.39365 0.35926 0.395429 0.413166 0.431856 0.267694 0.184263 0.361253 0.323187 0.181697 0.152434 0.148701 0.0979103 0.665422 0.251631 0.19413 0.299571 0.418745 0.251479 0.225777 0.258082 0.290778 0.365214 0.505476 0.594042 0.536185 0.388291 0.253678 0.721711 0.469342 0.51196 0.506647 0.501034 0.496901 0.491702 0.484401 0.479035 0.472863 0.465627 0.468587 0.474784 0.495623 0.525721 0.553532 0.575114 0.58764 0.59577 0.601608 0.605266 0.607178 0.607391 0.605893 0.603104 0.599413 0.595648 0.592697 0.591126 0.590693 0.590859 0.591101 0.59121 0.591372 0.581556 0.575441 0.570499 0.562998 0.551836 0.542418 0.533961 0.525508 0.520839 0.523112 0.527296 0.539778 0.554746 0.570459 0.589867 0.522292 0.425671 0.360777 0.136131 0.527525 0.479316 0.411196 0.421374 0.404405 0.402124 0.36399 0.394256 0.204796 0.21181 0.18419 0.156068 0.180737 0.137526 0.677843 0.632697 0.299728 0.254864 0.242945 0.231617 0.358447 0.367916 0.323208 0.284751 0.303974 0.323556 0.346126 0.307855 0.361308 0.463332 0.671391 0.641809 0.295655 0.216294 0.800296 0.611365 0.496769 0.464825 0.462466 0.48707 0.490109 0.489108 0.489221 0.485607 0.481212 0.478491 0.47522 0.475301 0.480272 0.493616 0.513134 0.537195 0.559789 0.576404 0.587705 0.596011 0.601937 0.60574 0.607988 0.60873 0.608121 0.606515 0.604236 0.601815 0.599884 0.591227 0.590437 0.588339 0.584087 0.577607 0.570301 0.562132 0.553528 0.542644 0.530693 0.522578 0.518404 0.51613 0.515916 0.519872 0.531447 0.543269 0.564893 0.547279 0.489907 0.482743 0.456984 0.569879 0.437915 0.387534 0.353695 0.439837 0.43485 0.425733 0.374187 0.334953 0.237639 0.19383 0.230233 0.474853 0.572104 0.424058 0.640954 0.611064 0.350392 0.286967 0.328673 1.06519 0.781076 0.396591 0.451858 0.359863 0.394084 0.418601 0.362203 0.409007 0.526139 0.381773 0.329761 0.297526 0.667076 0.834382 0.701741 0.55859 0.481709 0.461012 0.466292 0.479055 0.485026 0.486451 0.485327 0.483001 0.483053 0.482241 0.481728 0.486064 0.495426 0.509451 0.527118 0.546053 0.563777 0.598676 0.598057 0.597493 0.59663 0.595428 0.593744 0.59149 0.588555 0.584627 0.57916 0.571613 0.562096 0.55227 0.542228 0.53157 0.521761 0.514774 0.511177 0.509561 0.507576 0.511973 0.52034 0.536546 0.53842 0.525009 0.503523 0.508907 0.677667 0.511843 0.391405 0.323664 0.407962 0.450478 0.448538 0.453573 0.458371 0.445331 0.365106 0.308594 0.254953 0.314548 0.387243 0.415814 0.603236 0.613584 0.596834 0.594226 0.589608 0.38024 0.345057 0.332916 0.467263 0.52679 0.973017 0.707408 0.502851 0.491221 0.485661 0.428552 0.422482 0.451784 0.36372 0.370073 0.633819 0.787564 0.732012 0.610721 0.516751 0.468896 0.460337 0.470366 0.479033 0.484003 0.484715 0.486434 0.487649 0.487441 0.487698 0.490971 0.49833 0.508724 0.521879 0.57785 0.588625 0.596532 0.602437 0.606597 0.609132 0.610354 0.610571 0.609839 0.608409 0.6067 0.605139 0.603888 0.602737 0.601319 0.599372 0.596864 0.593771 0.589929 0.585152 0.579238 0.572181 0.563805 0.553554 0.542201 0.532034 0.52304 0.514709 0.508018 0.504537 0.501777 0.500092 0.505213 0.516939 0.530166 0.543286 0.545499 0.581475 0.643476 0.635585 0.465022 0.365118 0.39282 0.449143 0.439997 0.449597 0.447261 0.427125 0.425531 0.380909 0.338474 0.307009 0.362844 0.396924 0.350439 0.593893 0.590922 0.588457 0.370008 0.360466 0.478406 0.664532 0.873 0.751064 0.640507 0.587713 0.546324 0.50486 0.520807 0.406659 0.297149 0.255062 0.283049 0.557073 0.729241 0.714948 0.650171 0.553098 0.489355 0.466758 0.466089 0.476014 0.482911 0.487317 0.490666 0.492831 0.536931 0.552651 0.56768 0.579975 0.589741 0.59734 0.603283 0.607541 0.610343 0.612042 0.61271 0.61244 0.611476 0.610067 0.60848 0.60686 0.60509 0.602903 0.600005 0.59632 0.591953 0.586851 0.580685 0.573221 0.56476 0.677832 0.648754 0.594826 0.37911 0.375654 0.414624 0.437377 0.367861 0.274837 0.37429 0.398929 0.35011 0.342373 0.353861 0.34311 0.303985 0.539826 0.585632 0.58825 0.369893 0.527717 0.64105 0.920381 0.855575 0.671629 0.608692 0.528484 0.52826 0.56134 0.234595 0.199107 0.145408 0.522708 0.662593 0.701279 0.674552 0.601252 0.524042 0.479787 0.492863 0.492999 0.495366 0.501013 0.509192 0.519426 0.531343 0.544755 0.558429 0.571164 0.581959 0.590855 0.598317 0.604261 0.608605 0.61158 0.61341 0.614231 0.614172 0.613371 0.611985 0.610188 0.608086 0.605646 0.602702 0.599004 0.555615 0.545464 0.534623 0.524893 0.516927 0.509307 0.502477 0.49849 0.496188 0.497035 0.503587 0.527486 0.557191 0.589721 0.614456 0.501904 0.42776 0.400899 0.402727 0.414874 0.385556 0.269277 0.350672 0.385112 0.378246 0.352573 0.34416 0.292821 0.30723 0.543417 0.658857 0.6548 0.81053 0.749599 0.668187 0.566617 0.531779 0.522876 0.514943 0.0972854 0.381866 0.536257 0.674487 0.725695 0.697548 0.640328 0.473502 0.477936 0.485089 0.491734 0.495354 0.498098 0.498093 0.49783 0.499988 0.504315 0.510393 0.518477 0.528184 0.539071 0.551093 0.562924 0.573813 0.583724 0.592362 0.599629 0.605304 0.609557 0.612524 0.614314 0.615128 0.594397 0.588942 0.582752 0.575669 0.567361 0.558064 0.548689 0.539277 0.529401 0.520368 0.513042 0.505726 0.498881 0.494538 0.495178 0.498539 0.513797 0.544314 0.603094 0.647346 0.690782 0.657143 0.599887 0.416194 0.389889 0.380622 0.354286 0.334275 0.259586 0.289094 0.350351 0.382204 0.371095 0.371494 0.320069 0.212465 0.321193 0.593024 0.75648 0.704287 0.599117 0.550149 0.494969 0.453453 0.24712 0.469754 0.748467 0.704723 0.564468 0.511643 0.485753 0.484653 0.490534 0.495748 0.500684 0.502651 0.503013 0.502874 0.504643 0.508271 0.512899 0.51861 0.525975 0.535278 0.545398 0.555802 0.566349 0.576506 0.61508 0.614238 0.612705 0.610585 0.607978 0.604887 0.601196 0.59677 0.59148 0.585298 0.578346 0.570695 0.562164 0.552927 0.543832 0.535132 0.526266 0.518033 0.510952 0.503945 0.497597 0.496162 0.500729 0.508623 0.525706 0.569018 0.628625 0.680558 0.671806 0.629492 0.49835 0.426017 0.344182 0.33548 0.316688 0.247272 0.230154 0.411572 0.410955 0.409275 0.395933 0.189983 0.765635 0.635861 0.573777 0.504327 0.44996 0.408887 0.456946 0.118164 0.265679 0.501758 0.731577 0.660326 0.594398 0.540642 0.509859 0.496829 0.496688 0.50148 0.50523 0.507215 0.507848 0.508314 0.509782 0.51223 0.515471 0.519742 0.525315 0.532505 0.541027 0.58589 0.594025 0.600805 0.606192 0.610276 0.6131 0.614792 0.615497 0.615299 0.614259 0.612453 0.609963 0.60687 0.603182 0.598834 0.593776 0.587981 0.581429 0.57418 0.566372 0.558068 0.549421 0.540985 0.532969 0.524998 0.517455 0.510774 0.504215 0.49944 0.502225 0.512381 0.525907 0.547064 0.588162 0.636605 0.663781 0.638549 0.561664 0.500755 0.455929 0.376405 0.342306 0.237633 0.238189 0.261331 0.274672 0.446255 0.438555 0.462503 0.669052 0.590319 0.516503 0.481319 0.424846 0.383584 0.121787 0.214686 0.212963 0.729712 0.690611 0.680779 0.608787 0.562231 0.532585 0.513976 0.507575 0.508093 0.510301 0.512161 0.513148 0.513941 0.514774 0.516151 0.55026 0.559913 0.569781 0.579213 0.587875 0.595458 0.601799 0.606891 0.610734 0.613366 0.61489 0.615385 0.61493 0.61359 0.611435 0.608556 0.605016 0.600827 0.595983 0.590485 0.584375 0.577729 0.570594 0.563034 0.555211 0.543098 0.569303 0.60107 0.635819 0.618404 0.593232 0.549091 0.489417 0.439118 0.376341 0.376127 0.244224 0.282266 0.313795 0.361666 0.737985 0.657377 0.547502 0.483121 0.494505 0.304888 0.341683 0.584784 0.69333 0.699786 0.633524 0.619294 0.573754 0.548831 0.531453 0.520646 0.51731 0.518233 0.521148 0.525448 0.531128 0.537933 0.545839 0.554642 0.563748 0.572863 0.58159 0.589594 0.596657 0.602613 0.607386 0.610966 0.613371 0.614634 0.61483 0.614039 0.612338 0.60982 0.60657 0.547372 0.539762 0.53241 0.525198 0.518459 0.512553 0.50715 0.505301 0.51173 0.526339 0.607419 0.600498 0.579222 0.542412 0.47848 0.418524 0.402972 0.367258 0.244271 0.261049 0.40561 0.376875 0.47254 0.511958 0.390561 0.298806 0.691554 0.633535 0.582493 0.577115 0.558699 0.517335 0.518154 0.519007 0.51937 0.519653 0.52016 0.521077 0.522896 0.525966 0.530331 0.535911 0.54263 0.550235 0.558487 0.567076 0.575567 0.583648 0.591058 0.597639 0.603234 0.607721 0.602648 0.598097 0.592954 0.587251 0.581068 0.574546 0.567771 0.560738 0.553553 0.546504 0.539703 0.533055 0.526637 0.520945 0.516159 0.512765 0.514083 0.524184 0.538879 0.557911 0.580949 0.61385 0.573688 0.523103 0.479347 0.439609 0.405047 0.329703 0.324998 0.284983 0.419166 0.393274 0.423499 0.454282 0.457947 0.426668 0.407257 0.523223 0.617721 0.51129 0.645117 0.583924 0.544387 0.533928 0.5285 0.526467 0.525772 0.525465 0.525043 0.524388 0.524004 0.524018 0.524907 0.52687 0.530043 0.534499 0.540089 0.546723 0.554124 0.561872 0.569882 0.611016 0.613108 0.614027 0.61386 0.612698 0.61063 0.607767 0.604203 0.600007 0.595253 0.590002 0.584315 0.578294 0.572082 0.565785 0.559387 0.552925 0.546614 0.540542 0.534643 0.529199 0.52469 0.521329 0.520131 0.524223 0.535026 0.549465 0.56738 0.587126 0.595536 0.608494 0.60096 0.509533 0.443904 0.411238 0.344951 0.311748 0.357041 0.383272 0.443506 0.440729 0.527929 0.524031 0.649884 0.649661 0.53455 0.48676 0.553983 0.559046 0.552147 0.545463 0.539603 0.536404 0.534547 0.532729 0.53097 0.529341 0.52777 0.526722 0.526703 0.527953 0.53035 0.533718 0.53825 0.543848 0.577894 0.585465 0.592337 0.598468 0.603709 0.607871 0.610829 0.612549 0.613093 0.612546 0.611006 0.608592 0.605429 0.601637 0.597305 0.592505 0.587312 0.581817 0.576126 0.570353 0.564583 0.558816 0.553059 0.547441 0.542053 0.536944 0.5325 0.529175 0.527279 0.527802 0.53304 0.542491 0.555101 0.569153 0.579003 0.59143 0.612772 0.589187 0.547137 0.541467 0.467838 0.417933 0.361339 0.347951 0.391812 0.342047 0.455924 0.424686 0.551403 0.824551 0.578067 0.506198 0.499359 0.595464 0.556463 0.545532 0.552002 0.552104 0.549862 0.546576 0.543886 0.540549 0.537093 0.534228 0.531351 0.529417 0.528452 0.550289 0.557402 0.564825 0.572312 0.579833 0.587039 0.593541 0.599212 0.60403 0.607811 0.610394 0.611722 0.611863 0.610942 0.609054 0.606335 0.602951 0.599035 0.594684 0.589975 0.58498 0.579796 0.574519 0.538473 0.545707 0.553139 0.576043 0.578833 0.584878 0.59476 0.573211 0.579478 0.543242 0.499267 0.392449 0.317039 0.738729 0.5221 0.496923 0.657352 0.55335 0.54201 0.545036 0.553972 0.556845 0.528764 0.530516 0.533373 0.537069 0.541623 0.547114 0.553319 0.560178 0.567343 0.574424 0.581467 0.58836 0.594612 0.599938 0.604283 0.607598 0.609741 0.610639 0.569232 0.563991 0.558798 0.553653 0.548647 0.54391 0.539604 0.536066 0.533747 0.532878 0.534264 0.576008 0.574923 0.576131 0.557897 0.580681 0.59922 0.58605 0.5596 0.519902 0.438815 0.356824 0.311736 0.242185 0.872219 0.758182 0.687014 0.539119 0.520423 0.532066 0.529932 0.537776 0.556427 0.553446 0.548964 0.544408 0.539429 0.535116 0.531863 0.529883 0.529638 0.530622 0.532914 0.535997 0.539846 0.544439 0.54989 0.556049 0.562551 0.569407 0.576322 0.582992 0.589498 0.610373 0.609092 0.606904 0.603955 0.600447 0.596518 0.592246 0.587717 0.583015 0.578213 0.573372 0.568551 0.563789 0.559084 0.554453 0.549982 0.545818 0.542168 0.539346 0.53765 0.537215 0.538121 0.540149 0.543172 0.615074 0.603297 0.586614 0.568506 0.528938 0.489774 0.497685 0.678712 0.712388 0.702017 0.832863 0.751307 0.732954 0.702038 0.541728 0.555298 0.584998 0.550087 0.559514 0.564787 0.562605 0.558665 0.55157 0.545179 0.539484 0.534477 0.531171 0.530311 0.530824 0.532418 0.535079 0.538271 0.54223 0.546967 0.552361 0.55834 0.564681 0.595514 0.600567 0.604496 0.607294 0.608922 0.609319 0.608652 0.607047 0.604609 0.601522 0.597987 0.594131 0.590027 0.585748 0.581378 0.576972 0.572551 0.568144 0.563781 0.559472 0.555255 0.551223 0.5475 0.544263 0.541773 0.540159 0.539428 0.538785 0.537687 0.577405 0.572264 0.575494 0.557773 0.534056 0.601353 0.593002 0.604098 0.485233 0.280268 0.905286 0.721311 0.895234 0.729944 0.724637 0.714228 0.568081 0.596679 0.634018 0.524787 0.540672 0.556174 0.571502 0.572281 0.567426 0.560461 0.550999 0.543249 0.536823 0.533004 0.530994 0.531366 0.532268 0.534214 0.537084 0.571228 0.577954 0.584506 0.590605 0.596231 0.601014 0.604571 0.60687 0.607927 0.607803 0.606728 0.604841 0.602226 0.599078 0.595595 0.591878 0.587995 0.584014 0.579992 0.575951 0.571894 0.567834 0.563792 0.559789 0.555869 0.55212 0.548642 0.545549 0.542913 0.540896 0.539277 0.536295 0.57811 0.574102 0.567168 0.569996 0.54136 0.605009 0.606947 0.592171 0.625147 0.630442 0.525469 0.882194 0.86661 0.888541 0.818336 0.716274 0.528353 0.548992 0.573431 0.580259 0.575072 0.550438 0.540461 0.544486 0.549155 0.554455 0.56029 0.566467 0.572934 0.579401 0.585771 0.591722 0.597023 0.601329 0.604365 0.606187 0.6067 0.606084 0.604638 0.602505 0.578902 0.574038 0.570553 0.56104 0.561858 0.633666 0.591177 0.604169 0.620314 0.619071 0.653333 0.536517 0.79628 0.755132 0.707269 0.713774 0.737676 0.596012 0.632914 0.672196 0.531239 0.568343 0.559475 0.537851 0.533968 0.5328 0.532706 0.532936 0.533897 0.53611 0.539487 0.542599 0.546281 0.550928 0.556146 0.561837 0.56819 0.574522 0.580725 0.587024 0.592845 0.599782 0.596654 0.59328 0.589746 0.586105 0.58242 0.578726 0.575011 0.571256 0.567462 0.563651 0.559851 0.556104 0.552479 0.549039 0.545781 0.542685 0.53995 0.536797 0.549441 0.659591 0.608743 0.60663 0.628659 0.638466 0.629006 0.67329 0.88187 0.877824 0.807743 0.819838 0.776564 0.707997 0.726639 0.763844 0.623055 0.663281 0.573932 0.584126 0.579121 0.576519 0.567836 0.556228 0.541558 0.537424 0.535935 0.533237 0.534543 0.53453 0.535678 0.538222 0.542696 0.545123 0.547347 0.551807 0.556909 0.564096 0.570534 0.597815 0.60152 0.603895 0.605114 0.605159 0.604141 0.602389 0.600062 0.597294 0.594242 0.591023 0.587697 0.584305 0.580895 0.577478 0.574028 0.570509 0.566904 0.56323 0.559524 0.555839 0.552214 0.548655 0.545062 0.541433 0.537723 0.578758 0.573977 0.569734 0.568408 0.645641 0.656689 0.665294 0.689747 0.681297 0.563426 0.815226 0.816896 0.822096 0.807885 0.712936 0.651018 0.699582 0.557094 0.581236 0.584346 0.580985 0.574496 0.558264 0.549674 0.536941 0.54168 0.531991 0.533575 0.535259 0.535877 0.537331 0.54034 0.545923 0.549748 0.575966 0.582132 0.588376 0.593911 0.598386 0.601376 0.603047 0.603681 0.603256 0.601956 0.599982 0.597525 0.594774 0.591832 0.588785 0.585677 0.58253 0.579371 0.576185 0.572928 0.56956 0.566065 0.562454 0.558763 0.555049 0.551333 0.547604 0.543721 0.539602 0.577983 0.5743 0.570181 0.567717 0.558766 0.658143 0.630984 0.625752 0.747344 0.698308 0.814261 0.775316 0.898111 0.821102 0.749401 0.786967 0.690202 0.736434 0.556381 0.576814 0.583986 0.535552 0.535808 0.546715 0.549648 0.559818 0.568858 0.572781 0.577253 0.583477 0.589852 0.595034 0.598418 0.600615 0.601772 0.601844 0.60103 0.599515 0.597413 0.59492 0.592218 0.57832 0.574972 0.571221 0.570475 0.557228 0.66951 0.628346 0.65033 0.672341 0.683368 0.701693 0.800727 0.844447 0.848304 0.821577 0.832281 0.825167 0.736446 0.771747 0.808148 0.680373 0.721698 0.753168 0.559571 0.57492 0.564819 0.556968 0.877909 0.530308 0.533485 0.535133 0.536787 0.538156 0.541827 0.548085 0.55635 0.544512 0.548462 0.566341 0.572675 0.574016 0.578297 0.585358 0.591534 0.59525 0.589411 0.586548 0.583654 0.580733 0.577776 0.574762 0.571641 0.568361 0.564914 0.56131 0.557586 0.553795 0.549957 0.546148 0.542147 0.561576 0.67112 0.637106 0.653617 0.695087 0.709597 0.726915 0.758878 0.727177 0.861305 0.852775 0.856521 0.8687 0.72238 0.68752 0.691437 0.706622 0.706739 0.697422 0.53575 0.530142 0.530437 0.532697 0.535404 0.536754 0.537865 0.545461 0.54974 0.56064 0.543431 0.552942 0.570478 0.572601 0.574385 0.597735 0.599317 0.599979 0.599646 0.598514 0.596825 0.594695 0.592264 0.589648 0.586968 0.584283 0.581589 0.578859 0.576058 0.573159 0.570118 0.566891 0.563464 0.559846 0.556081 0.552205 0.548283 0.544622 0.579527 0.576421 0.572632 0.573133 0.699024 0.716533 0.72506 0.768414 0.834346 0.833867 0.756286 0.79392 0.678747 0.71608 0.749339 0.546313 0.896644 0.674122 0.643147 0.612789 0.570854 0.534352 0.545788 0.579458 0.588111 0.591677 0.594275 0.596423 0.597488 0.597666 0.597102 0.595763 0.59395 0.591884 0.589579 0.587085 0.584512 0.581968 0.579441 0.576856 0.574172 0.57135 0.568357 0.565172 0.561769 0.558155 0.55439 0.550507 0.546674 0.58099 0.57804 0.574503 0.57599 0.565476 0.675473 0.636436 0.698574 0.68775 0.702584 0.690113 0.591851 0.643572 0.57899 0.573145 0.551063 0.565638 0.56814 0.570159 0.574877 0.582011 0.578295 
SCALARS Axial_Stress float 1
LOOKUP_TABLE default
-94519100000.0 -115382000000.0 -142511000000.0 -67788300000.0 -95120900000.0 -71711700000.0 -95597700000.0 -177213000000.0 -96259600000.0 -144840000000.0 -262387000000.0 -147914000000.0 -73802600000.0 -61539200000.0 -112079000000.0 -89122000000.0 -205574000000.0 -165803000000.0 -108409000000.0 -81368200000.0 -94193300000.0 -172736000000.0 -352633000000.0 -377372000000.0 -174200000000.0 -151737000000.0 -302365000000.0 -236109000000.0 -266856000000.0 -244394000000.0 -301852000000.0 -354814000000.0 -138934000000.0 -153495000000.0 -232880000000.0 -277141000000.0 -293650000000.0 -287846000000.0 -169712000000.0 -337340000000.0 -431731000000.0 -514912000000.0 -267627000000.0 -269498000000.0 -342992000000.0 -169418000000.0 -214869000000.0 -362277000000.0 -315863000000.0 -365042000000.0 -397565000000.0 -392702000000.0 -412164000000.0 -325926000000.0 -525629000000.0 -409482000000.0 -587508000000.0 -543486000000.0 -555909000000.0 -451140000000.0 -325464000000.0 -305256000000.0 -406024000000.0 -600086000000.0 -479284000000.0 -602585000000.0 -494899000000.0 -604412000000.0 -500242000000.0 -604241000000.0 -505616000000.0 -691795000000.0 -700178000000.0 -901014000000.0 -717821000000.0 -630386000000.0 -705452000000.0 -626017000000.0 -695014000000.0 -628583000000.0 -697257000000.0 -372644000000.0 -401333000000.0 -695690000000.0 -452908000000.0 -411928000000.0 -304489000000.0 -327793000000.0 -407729000000.0 -340874000000.0 -720267000000.0 -728318000000.0 -712264000000.0 -703705000000.0 -731577000000.0 -854710000000.0 -1.05646e+12 -766134000000.0 -767201000000.0 -767242000000.0 -474102000000.0 -523312000000.0 -843880000000.0 -462428000000.0 -403834000000.0 -978738000000.0 -862825000000.0 -831938000000.0 -808866000000.0 -806421000000.0 -861275000000.0 -987470000000.0 -960718000000.0 -843212000000.0 -834487000000.0 -836712000000.0 -945880000000.0 -1.08594e+12 -1.29097e+12 -1.04735e+12 -1.12492e+12 -965948000000.0 -1.05124e+12 -923630000000.0 -1.00606e+12 -899188000000.0 -985411000000.0 -909377000000.0 -1.00576e+12 -976343000000.0 -1.05211e+12 -1.03458e+12 -1.03534e+12 -947236000000.0 -986715000000.0 -905295000000.0 -970395000000.0 -903729000000.0 -973208000000.0 -578515000000.0 -643510000000.0 -1.17036e+12 -1.08361e+12 -1.19425e+12 -1.32795e+12 -1.49415e+12 -1.49276e+12 -1.28097e+12 -1.31176e+12 -1.19658e+12 -1.12671e+12 -1.08108e+12 -1.06564e+12 -1.08305e+12 -1.09728e+12 -1.06024e+12 -1.04019e+12 -1.03826e+12 -685489000000.0 -769698000000.0 -1.23369e+12 -2.03849e+12 -2.55082e+12 -1.96942e+12 -1.51191e+12 -1.3606e+12 -1.26208e+12 -1.19342e+12 -1.14896e+12 -1.13494e+12 -1.14039e+12 -1.12679e+12 -1.10645e+12 -1.10285e+12 -1.10754e+12 -1.38085e+12 -1.74101e+12 -2.09441e+12 -1.77891e+12 -1.5397e+12 -1.41252e+12 -1.4616e+12 -1.32132e+12 -1.37218e+12 -1.25167e+12 -1.30092e+12 -1.20802e+12 -1.25714e+12 -1.19115e+12 -1.2358e+12 -1.18333e+12 -1.22163e+12 -1.16645e+12 -1.21945e+12 -1.16414e+12 -1.23022e+12 -1.17064e+12 -1.24038e+12 -794996000000.0 -902856000000.0 -1.60396e+12 -1.58086e+12 -1.88626e+12 -1.90865e+12 -1.89843e+12 -1.74598e+12 -1.75947e+12 -1.57674e+12 -1.61195e+12 -1.50865e+12 -1.41281e+12 -1.34087e+12 -1.29667e+12 -1.27366e+12 -1.26847e+12 -1.28345e+12 -1.30114e+12 -906635000000.0 -1.0555e+12 -1.698e+12 -1.73547e+12 -1.78424e+12 -1.91479e+12 -1.88685e+12 -1.94318e+12 -1.7692e+12 -1.65242e+12 -1.5436e+12 -1.44319e+12 -1.37185e+12 -1.32886e+12 -1.31323e+12 -1.32822e+12 -1.35583e+12 -1.37308e+12 -1.73303e+12 -1.75996e+12 -1.73161e+12 -2.12136e+12 -1.92159e+12 -1.80209e+12 -1.83736e+12 -1.69202e+12 -1.7087e+12 -1.56502e+12 -1.57474e+12 -1.46407e+12 -1.47656e+12 -1.39503e+12 -1.41271e+12 -1.35851e+12 -1.39544e+12 -1.36466e+12 -1.43277e+12 -1.40078e+12 -1.48274e+12 -1.43255e+12 -1.50901e+12 -1.01977e+12 -1.19002e+12 -1.82726e+12 -1.78159e+12 -1.75986e+12 -1.51434e+12 -2.00485e+12 -2.03402e+12 -1.94986e+12 -1.98581e+12 -1.878e+12 -1.70617e+12 -1.57517e+12 -1.48191e+12 -1.42947e+12 -1.45166e+12 -1.51809e+12 -1.56889e+12 -1.13392e+12 -1.31177e+12 -1.85945e+12 -1.80294e+12 -1.77726e+12 -1.68009e+12 -1.42002e+12 -1.07008e+12 -2.05908e+12 -2.02019e+12 -1.86569e+12 -1.69124e+12 -1.56847e+12 -1.481e+12 -1.46012e+12 -1.53211e+12 -1.61487e+12 -1.65394e+12 -1.91862e+12 -1.86649e+12 -1.68632e+12 -1.25081e+12 -1.13148e+12 -1.15548e+12 -2.11076e+12 -2.14357e+12 -2.07897e+12 -1.99861e+12 -1.82722e+12 -1.7815e+12 -1.67052e+12 -1.64988e+12 -1.55457e+12 -1.52574e+12 -1.47488e+12 -1.49277e+12 -1.52393e+12 -1.62391e+12 -1.63784e+12 -1.75835e+12 -1.7166e+12 -1.81803e+12 -1.24898e+12 -1.42564e+12 -2.03106e+12 -1.9516e+12 -1.96184e+12 -1.83756e+12 -1.79259e+12 -1.56963e+12 -1.29085e+12 -1.17646e+12 -2.30745e+12 -1.88739e+12 -1.76006e+12 -1.61245e+12 -1.47146e+12 -1.57068e+12 -1.765e+12 -1.88613e+12 -1.3662e+12 -1.53861e+12 -2.07493e+12 -1.95082e+12 -1.70419e+12 -1.27435e+12 -1.32469e+12 -1.15735e+12 -1.96352e+12 -1.86277e+12 -1.73599e+12 -1.53354e+12 -1.45894e+12 -1.70432e+12 -1.92445e+12 -2.11162e+12 -2.0179e+12 -1.47975e+12 -2.18825e+12 -2.09508e+12 -1.90247e+12 -1.22153e+12 -1.33104e+12 -1.34895e+12 -1.34822e+12 -1.45814e+12 -1.56105e+12 -1.84761e+12 -1.93418e+12 -1.94781e+12 -1.85409e+12 -1.83883e+12 -1.68925e+12 -1.59113e+12 -1.33912e+12 -1.31617e+12 -1.57562e+12 -1.69634e+12 -1.90263e+12 -2.20746e+12 -2.23883e+12 -1.65024e+12 -2.3784e+12 -2.26513e+12 -2.34824e+12 -2.06791e+12 -1.88088e+12 -1.80947e+12 -1.28501e+12 -1.65746e+12 -1.84447e+12 -1.97902e+12 -1.96526e+12 -1.79608e+12 -1.4657e+12 -1.52885e+12 -2.3306e+12 -2.35104e+12 -1.58286e+12 -1.75689e+12 -2.47874e+12 -2.46477e+12 -1.72329e+12 -1.05266e+12 -1.96775e+12 -1.83659e+12 -2.02287e+12 -1.87985e+12 -2.07638e+12 -2.02359e+12 -2.13865e+12 -2.05814e+12 -1.96794e+12 -1.71418e+12 -1.54113e+12 -3.25123e+12 -2.70683e+12 -2.70395e+12 -2.48212e+12 -2.57059e+12 -2.4549e+12 -1.67495e+12 -1.85699e+12 -2.57574e+12 -2.68306e+12 -2.59799e+12 -2.80016e+12 -2.83213e+12 -3.36949e+12 -1.92579e+12 -2.16947e+12 -2.15565e+12 -2.2132e+12 -2.22448e+12 -2.11184e+12 -2.14631e+12 -1.93299e+12 -1.70721e+12 -1.58135e+12 -3.57691e+12 -3.03624e+12 -2.72352e+12 -2.64928e+12 -2.76111e+12 -2.82076e+12 -3.09088e+12 -3.18843e+12 -2.29505e+12 -2.28256e+12 -2.29176e+12 -2.31689e+12 -2.29688e+12 -2.10016e+12 -3.18379e+12 -3.49818e+12 -3.44414e+12 -3.34669e+12 -2.92576e+12 -2.76168e+12 -1.76187e+12 -1.9526e+12 -2.86561e+12 -2.98998e+12 -3.24593e+12 -3.04033e+12 -2.74709e+12 -2.68982e+12 -2.42486e+12 -2.51605e+12 -2.38904e+12 -2.49344e+12 -2.4027e+12 -2.49778e+12 -2.4054e+12 -2.49233e+12 -2.35997e+12 -2.75491e+12 -3.31543e+12 -3.27746e+12 -3.13977e+12 -3.04675e+12 -2.89916e+12 -2.91495e+12 -2.81774e+12 -1.84987e+12 -2.04596e+12 -2.92622e+12 -3.01462e+12 -2.98259e+12 -3.08461e+12 -3.12113e+12 -3.13694e+12 -2.89445e+12 -2.69783e+12 -2.60049e+12 -2.58751e+12 -2.58906e+12 -2.65316e+12 -2.62815e+12 -2.87485e+12 -3.07515e+12 -3.17882e+12 -3.28376e+12 -3.16606e+12 -3.02098e+12 -2.95709e+12 -3.0668e+12 -3.09781e+12 -3.14195e+12 -3.06281e+12 -2.87016e+12 -2.73917e+12 -2.68442e+12 -2.67669e+12 -2.70634e+12 -2.81582e+12 -3.04941e+12 -3.20357e+12 -3.22206e+12 -3.17881e+12 -3.11559e+12 -3.10736e+12 -3.03348e+12 -3.06906e+12 -1.93961e+12 -2.1365e+12 -3.1875e+12 -3.13614e+12 -3.19776e+12 -3.16135e+12 -3.20372e+12 -3.15637e+12 -3.13829e+12 -3.01516e+12 -3.01664e+12 -2.88372e+12 -2.92052e+12 -2.79774e+12 -2.86554e+12 -2.76668e+12 -2.85152e+12 -2.77385e+12 -2.87463e+12 -2.83022e+12 -2.94301e+12 -2.9613e+12 -3.13835e+12 -3.1997e+12 -3.16511e+12 -3.1258e+12 -2.029e+12 -2.22388e+12 -3.24496e+12 -3.24856e+12 -3.22569e+12 -3.13358e+12 -3.0408e+12 -2.97205e+12 -2.93858e+12 -2.93783e+12 -2.96887e+12 -3.03859e+12 -3.07209e+12 -3.14348e+12 -3.18168e+12 -3.20517e+12 -3.19836e+12 -3.17569e+12 -3.15997e+12 -2.30924e+12 -3.29789e+12 -3.35045e+12 -3.29772e+12 -3.34436e+12 -3.28808e+12 -3.31756e+12 -3.23549e+12 -3.25274e+12 -3.15204e+12 -3.18467e+12 -3.08035e+12 -3.13078e+12 -3.03298e+12 -3.09891e+12 -3.01401e+12 -3.01987e+12 -3.04891e+12 -3.1127e+12 -3.19009e+12 -3.22808e+12 -3.21095e+12 -3.23734e+12 -3.20267e+12 -3.23874e+12 -2.11645e+12 -3.40505e+12 -3.4e+12 -3.38475e+12 -3.34264e+12 -3.2822e+12 -3.22772e+12 -3.18839e+12 -3.16572e+12 -3.08748e+12 -3.15347e+12 -3.09098e+12 -3.14612e+12 -3.11198e+12 -3.1667e+12 -3.22665e+12 -3.25911e+12 -3.27345e+12 -2.20239e+12 -2.39399e+12 -3.456e+12 -3.44584e+12 -3.42019e+12 -3.37217e+12 -3.32076e+12 -3.27854e+12 -3.24961e+12 -3.22876e+12 -3.20624e+12 -3.18127e+12 -3.15648e+12 -3.19057e+12 -3.21021e+12 -3.25424e+12 -3.2652e+12 -3.31165e+12 -3.29922e+12 -3.34585e+12 -3.31437e+12 -2.28889e+12 -2.47953e+12 -3.5123e+12 -3.56283e+12 -3.50469e+12 -3.55085e+12 -3.48808e+12 -3.52781e+12 -3.45417e+12 -3.49085e+12 -3.40864e+12 -3.45098e+12 -3.36646e+12 -3.41781e+12 -3.33482e+12 -3.39456e+12 -3.31089e+12 -3.36811e+12 -3.28261e+12 -3.23954e+12 -3.19162e+12 -3.22741e+12 -3.30669e+12 -3.36646e+12 -3.39523e+12 -3.62098e+12 -3.61135e+12 -3.59478e+12 -3.56707e+12 -3.53158e+12 -3.49817e+12 -3.47364e+12 -3.4563e+12 -3.41536e+12 -3.32044e+12 -3.33165e+12 -3.24434e+12 -3.2015e+12 -3.19776e+12 -3.22527e+12 -3.27953e+12 -3.35123e+12 -3.37079e+12 -3.42707e+12 -2.37896e+12 -2.56736e+12 -3.73166e+12 -3.67128e+12 -3.71951e+12 -3.65787e+12 -3.70279e+12 -3.63729e+12 -3.67953e+12 -3.60788e+12 -3.65088e+12 -3.57595e+12 -3.62347e+12 -3.54947e+12 -3.60451e+12 -3.53344e+12 -3.51931e+12 -3.4413e+12 -3.29543e+12 -3.15957e+12 -3.29479e+12 -3.44341e+12 -3.44535e+12 -3.52514e+12 -3.48947e+12 -2.47623e+12 -2.6593e+12 -3.78149e+12 -3.76582e+12 -3.7467e+12 -3.72247e+12 -3.69596e+12 -3.67379e+12 -3.66354e+12 -3.59753e+12 -3.66723e+12 -3.58458e+12 -3.65702e+12 -3.41748e+12 -3.2628e+12 -3.14569e+12 -3.17663e+12 -3.40921e+12 -3.54572e+12 -3.60474e+12 -9035750000.0 -2.75722e+12 -3.84466e+12 -3.8935e+12 -3.82879e+12 -3.87386e+12 -3.81067e+12 -3.85475e+12 -3.79031e+12 -3.76643e+12 -3.74282e+12 -3.72683e+12 -3.72745e+12 -3.74596e+12 -3.748e+12 -2.61264e+12 -2.99694e+12 -3.09563e+12 -3.31755e+12 -3.51012e+12 -3.54503e+12 -3.67838e+12 -3.64814e+12 -3.74522e+12 -2.58459e+12 -3.9602e+12 -3.93897e+12 -3.91744e+12 -3.89851e+12 -3.83409e+12 -3.87798e+12 -3.81125e+12 -3.8566e+12 -3.79115e+12 -3.84094e+12 -3.78299e+12 -3.84315e+12 -3.79774e+12 -3.87762e+12 -3.84114e+12 -3.96278e+12 -3.85931e+12 -4.59721e+12 -2.42293e+12 -3.40612e+12 -3.69431e+12 -3.79738e+12 -2.70839e+12 -2.86274e+12 -4.07867e+12 -4.00768e+12 -4.05038e+12 -3.9816e+12 -4.02222e+12 -3.96043e+12 -3.94196e+12 -3.92175e+12 -3.90229e+12 -3.89257e+12 -3.90883e+12 -3.97489e+12 -4.30686e+12 -4.9572e+12 -4.6088e+12 -2.85165e+12 -3.59358e+12 -3.69024e+12 -3.871e+12 -3.83871e+12 -3.96976e+12 -3.91133e+12 -2.85327e+12 -9035750000.0 -2.97622e+12 -4.12461e+12 -4.08862e+12 -4.06229e+12 -4.00292e+12 -4.04536e+12 -3.98497e+12 -4.02762e+12 -3.9653e+12 -3.94825e+12 -3.947e+12 -3.98455e+12 -4.1602e+12 -4.70536e+12 -4.72233e+12 -4.06075e+12 -3.88331e+12 -4.0183e+12 -4.10177e+12 -3.09453e+12 -4.19943e+12 -4.24376e+12 -4.16296e+12 -4.19506e+12 -4.12399e+12 -4.16e+12 -4.10303e+12 -4.08751e+12 -4.06916e+12 -4.00821e+12 -4.05031e+12 -3.9948e+12 -4.04333e+12 -4.00678e+12 -4.08353e+12 -4.09925e+12 -4.24623e+12 -4.39794e+12 -4.53995e+12 -4.41342e+12 -4.10191e+12 -4.06179e+12 -4.21142e+12 -4.16158e+12 -3.02607e+12 -4.32067e+12 -4.27764e+12 -4.22309e+12 -4.19713e+12 -4.14386e+12 -4.1842e+12 -4.12831e+12 -4.10948e+12 -4.09215e+12 -4.09809e+12 -4.17625e+12 -4.364e+12 -4.46909e+12 -4.33031e+12 -4.22067e+12 -4.25581e+12 -4.17682e+12 -4.28374e+12 -4.36994e+12 -4.31563e+12 -3.22685e+12 -3.21081e+12 -4.43652e+12 -4.36425e+12 -4.39371e+12 -4.30162e+12 -4.32001e+12 -4.25192e+12 -4.23602e+12 -4.22413e+12 -4.16829e+12 -4.20667e+12 -4.14858e+12 -4.18618e+12 -4.13491e+12 -4.15813e+12 -4.20898e+12 -4.25717e+12 -4.29892e+12 -4.39751e+12 -4.35029e+12 -4.287e+12 -4.33724e+12 -4.45542e+12 -4.41704e+12 -4.54546e+12 -9035750000.0 -3.31466e+12 -4.48338e+12 -4.40856e+12 -4.33914e+12 -4.28537e+12 -4.32196e+12 -4.27559e+12 -4.26147e+12 -4.2433e+12 -4.22054e+12 -4.17693e+12 -4.2086e+12 -4.23203e+12 -4.29912e+12 -4.30598e+12 -4.34181e+12 -4.35513e+12 -4.46564e+12 -4.59468e+12 -4.58491e+12 -4.76891e+12 -3.43245e+12 -4.54128e+12 -4.593e+12 -4.5093e+12 -4.50871e+12 -4.41749e+12 -4.37051e+12 -4.35444e+12 -4.31037e+12 -4.34554e+12 -4.29865e+12 -4.33559e+12 -4.27722e+12 -4.24439e+12 -4.21603e+12 -4.22445e+12 -4.21014e+12 -4.28188e+12 -4.30447e+12 -4.45322e+12 -4.60358e+12 -4.74458e+12 -4.77307e+12 -3.62567e+12 -3.38905e+12 -4.61708e+12 -4.58274e+12 -4.56223e+12 -4.43832e+12 -4.45404e+12 -4.39584e+12 -4.41194e+12 -4.38395e+12 -4.38039e+12 -4.37095e+12 -4.30279e+12 -4.30899e+12 -4.24573e+12 -4.20836e+12 -4.18463e+12 -4.11969e+12 -4.22885e+12 -4.40043e+12 -4.54896e+12 -4.59437e+12 -4.73772e+12 -4.96127e+12 -4.96782e+12 -3.40205e+12 -4.36142e+12 -5.12405e+12 -4.58689e+12 -4.89995e+12 -4.7196e+12 -4.56581e+12 -4.44108e+12 -4.42849e+12 -4.41189e+12 -4.45243e+12 -4.41856e+12 -4.40107e+12 -4.27584e+12 -4.10387e+12 -4.09584e+12 -4.3182e+12 -4.47419e+12 -4.69298e+12 -4.82745e+12 -4.88734e+12 -5.20722e+12 -3.83848e+12 -4.16722e+12 -5.2386e+12 -5.58751e+12 -3.2297e+12 -5.34858e+12 -5.4135e+12 -5.0367e+12 -4.77773e+12 -4.70867e+12 -4.52253e+12 -4.45679e+12 -4.43284e+12 -4.46598e+12 -4.49268e+12 -4.45232e+12 -4.4807e+12 -4.42569e+12 -4.44798e+12 -4.15602e+12 -3.92669e+12 -3.90499e+12 -4.17744e+12 -4.37673e+12 -4.63472e+12 -4.80705e+12 -5.14326e+12 -5.8466e+12 -4.88688e+12 -5.37937e+12 -5.21495e+12 -5.17012e+12 -7.36538e+12 -6.03461e+12 -5.64877e+12 -5.50247e+12 -4.98758e+12 -4.54557e+12 -4.40417e+12 -4.4485e+12 -4.50114e+12 -4.51538e+12 -4.56315e+12 -4.52549e+12 -4.50574e+12 -4.45779e+12 -4.56554e+12 -3.80536e+12 -3.13789e+12 -4.18812e+12 -4.47934e+12 -4.57816e+12 -4.72608e+12 -4.73407e+12 -4.30097e+12 -5.90698e+12 -5.99906e+12 -5.79465e+12 -6.16559e+12 -7.03963e+12 -5.22689e+12 -5.12968e+12 -5.12049e+12 -7.52861e+12 -7.43654e+12 -7.34386e+12 -6.51435e+12 -6.11789e+12 -5.93219e+12 -5.70501e+12 -5.66064e+12 -5.49398e+12 -5.49436e+12 -4.77242e+12 -4.36561e+12 -4.45702e+12 -4.55248e+12 -4.61493e+12 -4.55195e+12 -4.56867e+12 -4.53101e+12 -4.58898e+12 -5.24693e+12 -3.47702e+12 -4.09779e+12 -4.66256e+12 -4.41007e+12 -6.15559e+12 -6.35834e+12 -5.86979e+12 -7.37704e+12 -7.40791e+12 -5.19965e+12 -7.42857e+12 -5.18833e+12 -5.02865e+12 -7.57702e+12 -7.53112e+12 -7.38363e+12 -7.4222e+12 -6.72811e+12 -6.33793e+12 -5.79332e+12 -5.6421e+12 -5.848e+12 -4.05472e+12 -3.88929e+12 -4.38091e+12 -4.46214e+12 -4.51702e+12 -4.59957e+12 -4.66191e+12 -4.68548e+12 -4.80178e+12 -4.56773e+12 -4.76459e+12 -5.12284e+12 -4.71317e+12 -4.56939e+12 -4.47004e+12 -4.58251e+12 -4.62314e+12 -5.17161e+12 -5.79222e+12 -6.22795e+12 -6.38892e+12 -6.59635e+12 -6.76256e+12 -7.01963e+12 -7.37648e+12 -5.18276e+12 -5.04048e+12 -4.88789e+12 -4.9524e+12 -7.54227e+12 -7.26649e+12 -7.47146e+12 -7.33073e+12 -7.27654e+12 -6.44305e+12 -6.06184e+12 -5.89966e+12 -5.73348e+12 -5.81453e+12 -5.7023e+12 -4.08973e+12 -4.51557e+12 -4.55885e+12 -4.60495e+12 -4.75613e+12 -4.97452e+12 -4.42233e+12 -3.74318e+12 -4.93197e+12 -4.31853e+12 -4.91294e+12 -4.70627e+12 -4.58345e+12 -4.86362e+12 -5.75787e+12 -6.04956e+12 -6.33034e+12 -6.50602e+12 -6.99607e+12 -6.99204e+12 -7.07376e+12 -7.16833e+12 -7.10603e+12 -4.92375e+12 -4.87014e+12 -7.4638e+12 -7.3485e+12 -7.43623e+12 -7.22135e+12 -6.85163e+12 -6.53034e+12 -6.13093e+12 -6.14764e+12 -5.89047e+12 -5.76987e+12 -5.71215e+12 -5.83819e+12 -5.22063e+12 -4.37087e+12 -4.54798e+12 -4.67897e+12 -4.79108e+12 -4.89762e+12 -5.12648e+12 -5.19097e+12 -5.95068e+12 -5.34863e+12 -4.60142e+12 -4.61265e+12 -4.72209e+12 -5.25575e+12 -5.62442e+12 -6.27121e+12 -6.51225e+12 -6.7083e+12 -6.95281e+12 -6.95826e+12 -6.99744e+12 -7.24385e+12 -7.26811e+12 -6.66996e+12 -6.50918e+12 -4.85558e+12 -4.76002e+12 -4.83961e+12 -7.4348e+12 -7.48739e+12 -7.36835e+12 -7.3406e+12 -7.14332e+12 -7.01873e+12 -6.96329e+12 -6.11481e+12 -5.57718e+12 -6.71832e+12 -6.5101e+12 -6.14589e+12 -5.74056e+12 -5.52299e+12 -5.51002e+12 -5.09423e+12 -4.7247e+12 -4.55797e+12 -4.46581e+12 -4.5235e+12 -4.60184e+12 -4.69483e+12 -4.96228e+12 -5.56208e+12 -5.59061e+12 -4.87529e+12 -4.57512e+12 -4.60074e+12 -4.66246e+12 -4.82211e+12 -4.97942e+12 -5.28159e+12 -5.92205e+12 -6.19732e+12 -6.72414e+12 -6.97665e+12 -6.83468e+12 -7.0265e+12 -7.08927e+12 -7.09966e+12 -6.80428e+12 -4.55503e+12 -4.10405e+12 -4.77823e+12 -7.29734e+12 -7.08029e+12 -7.33401e+12 -7.20941e+12 -7.10208e+12 -6.20083e+12 -6.46778e+12 -6.51348e+12 -6.6634e+12 -6.16869e+12 -5.90983e+12 -5.52689e+12 -5.24427e+12 -4.76321e+12 -4.49886e+12 -4.60227e+12 -4.83002e+12 -5.20582e+12 -5.29975e+12 -5.17751e+12 -5.13162e+12 -4.83428e+12 -4.70312e+12 -4.62269e+12 -4.7049e+12 -5.05586e+12 -5.33349e+12 -5.5975e+12 -5.90335e+12 -6.41831e+12 -6.59031e+12 -6.56947e+12 -6.18227e+12 -6.81879e+12 -6.86101e+12 -6.82971e+12 -6.80368e+12 -6.85364e+12 -6.92104e+12 -3.92322e+12 -4.6379e+12 -4.78994e+12 -7.41775e+12 -7.38356e+12 -7.23753e+12 -6.75114e+12 -6.23868e+12 -7.15162e+12 -6.74068e+12 -6.62903e+12 -7.0832e+12 -5.62314e+12 -7.15151e+12 -5.82854e+12 -5.73225e+12 -5.60933e+12 -5.41124e+12 -5.32241e+12 -5.09249e+12 -4.97289e+12 -4.70525e+12 -4.56654e+12 -4.46215e+12 -4.53434e+12 -4.61414e+12 -4.71459e+12 -4.83569e+12 -4.98971e+12 -4.90703e+12 -5.07052e+12 -5.03431e+12 -4.90497e+12 -4.69691e+12 -4.64503e+12 -4.8746e+12 -5.10314e+12 -5.63567e+12 -5.89634e+12 -6.1468e+12 -6.30343e+12 -6.30328e+12 -5.77785e+12 -6.52174e+12 -6.68961e+12 -6.86286e+12 -6.6852e+12 -6.59955e+12 -6.97943e+12 -6.7248e+12 -6.67559e+12 -3.95001e+12 -4.50147e+12 -7.34956e+12 -7.50187e+12 -7.2504e+12 -7.1153e+12 -7.06772e+12 -6.76953e+12 -6.67677e+12 -6.78388e+12 -6.77042e+12 -6.34862e+12 -6.48264e+12 -6.28695e+12 -4.58439e+12 -5.32739e+12 -5.47977e+12 -5.23699e+12 -4.86372e+12 -4.47061e+12 -4.52794e+12 -4.71002e+12 -4.79167e+12 -4.88847e+12 -4.90443e+12 -4.73735e+12 -4.64902e+12 -4.66651e+12 -4.74091e+12 -4.88761e+12 -5.37544e+12 -5.63971e+12 -6.08633e+12 -6.1531e+12 -5.98745e+12 -5.9919e+12 -6.33418e+12 -6.84767e+12 -6.92087e+12 -6.51188e+12 -6.71846e+12 -6.99429e+12 -6.83179e+12 -6.28789e+12 -3.73676e+12 -3.99818e+12 -4.40708e+12 -4.38061e+12 -7.16557e+12 -7.35639e+12 -7.2013e+12 -7.03775e+12 -7.0071e+12 -7.17425e+12 -7.19043e+12 -6.86541e+12 -6.82418e+12 -6.7736e+12 -6.4077e+12 -6.05495e+12 -5.648e+12 -6.69692e+12 -5.7217e+12 -5.62852e+12 -5.41958e+12 -5.09227e+12 -4.93904e+12 -4.80174e+12 -4.59168e+12 -4.32884e+12 -4.58422e+12 -4.71612e+12 -4.76351e+12 -4.81434e+12 -4.69998e+12 -4.73406e+12 -4.63584e+12 -4.65313e+12 -4.63512e+12 -4.7326e+12 -5.10708e+12 -5.35477e+12 -5.86927e+12 -5.99692e+12 -5.97808e+12 -6.05513e+12 -5.46483e+12 -6.64522e+12 -7.17681e+12 -7.39277e+12 -7.08961e+12 -6.45176e+12 -7.28206e+12 -7.13735e+12 -6.88553e+12 -7.1109e+12 -6.57517e+12 -4.30465e+12 -4.46246e+12 -7.17406e+12 -7.10762e+12 -7.0916e+12 -7.06919e+12 -6.88269e+12 -6.70932e+12 -6.83818e+12 -6.80966e+12 -6.92262e+12 -6.58182e+12 -6.55354e+12 -6.37449e+12 -6.01978e+12 -5.84875e+12 -4.95343e+12 -5.22007e+12 -5.21258e+12 -4.74328e+12 -4.47323e+12 -4.23562e+12 -3.69678e+12 -4.40799e+12 -4.74606e+12 -4.70311e+12 -4.59547e+12 -4.66226e+12 -4.58966e+12 -4.70586e+12 -4.62783e+12 -4.59179e+12 -4.5744e+12 -4.63556e+12 -4.63155e+12 -4.81712e+12 -5.00222e+12 -5.36197e+12 -5.62923e+12 -5.81136e+12 -5.90443e+12 -6.07266e+12 -5.95647e+12 -6.06816e+12 -7.03608e+12 -7.2244e+12 -6.8761e+12 -6.91227e+12 -7.3884e+12 -7.206e+12 -7.04968e+12 -7.01749e+12 -6.89031e+12 -6.70437e+12 -4.32197e+12 -4.48131e+12 -7.09844e+12 -7.1682e+12 -7.08997e+12 -7.14003e+12 -7.12534e+12 -6.11401e+12 -6.78467e+12 -6.67859e+12 -6.4141e+12 -5.68093e+12 -6.05074e+12 -6.38217e+12 -6.20881e+12 -6.00698e+12 -5.77197e+12 -5.8292e+12 -5.3057e+12 -4.97426e+12 -4.79097e+12 -3.58737e+12 -5.40874e+12 -4.5682e+12 -4.49373e+12 -4.52082e+12 -4.5489e+12 -4.51989e+12 -4.36914e+12 -4.57516e+12 -4.47886e+12 -4.43839e+12 -4.99955e+12 -5.60884e+12 -5.82519e+12 -6.12778e+12 -6.55251e+12 -6.91909e+12 -6.47096e+12 -6.6221e+12 -6.80451e+12 -6.8812e+12 -6.8546e+12 -7.02895e+12 -6.95026e+12 -7.09321e+12 -6.77961e+12 -6.70849e+12 -6.35249e+12 -4.02402e+12 -4.05678e+12 -4.4464e+12 -4.47151e+12 -6.99622e+12 -7.00364e+12 -6.92766e+12 -7.08173e+12 -7.12571e+12 -6.44001e+12 -6.62606e+12 -6.58716e+12 -6.47111e+12 -6.94324e+12 -6.57459e+12 -6.18157e+12 -6.15853e+12 -6.01897e+12 -5.96653e+12 -6.10266e+12 -6.0525e+12 -6.67309e+12 -5.84418e+12 -4.64932e+12 -4.12679e+12 -4.73243e+12 -4.46653e+12 -4.95261e+12 -5.52862e+12 -4.85357e+12 -4.42192e+12 -4.41426e+12 -4.44054e+12 -4.37288e+12 -4.51649e+12 -4.56311e+12 -3.9948e+12 -3.61974e+12 -4.51075e+12 -5.29224e+12 -5.52959e+12 -5.77246e+12 -6.03836e+12 -6.32623e+12 -4.67658e+12 -5.87401e+12 -6.15534e+12 -6.33626e+12 -6.60782e+12 -6.61244e+12 -6.56917e+12 -6.6914e+12 -6.73604e+12 -6.24922e+12 -5.68904e+12 -6.50715e+12 -6.66157e+12 -6.73338e+12 -4.12288e+12 -4.41433e+12 -6.75598e+12 -6.87866e+12 -6.78594e+12 -6.89863e+12 -6.79644e+12 -6.69647e+12 -6.87959e+12 -6.60402e+12 -6.47486e+12 -6.36391e+12 -6.53593e+12 -6.55665e+12 -6.73522e+12 -6.74343e+12 -6.32785e+12 -6.16306e+12 -5.9501e+12 -5.92083e+12 -5.97896e+12 -6.01726e+12 -6.30128e+12 -5.94152e+12 -5.27952e+12 -4.40053e+12 -3.06179e+12 -6.05829e+12 -4.6647e+12 -4.56928e+12 -5.18289e+12 -4.45884e+12 -4.47807e+12 -4.33384e+12 -4.32846e+12 -4.20354e+12 -4.34112e+12 -4.29448e+12 -4.3073e+12 -4.59e+12 -5.68457e+12 -2.92254e+12 -4.07813e+12 -4.91267e+12 -5.20156e+12 -5.448e+12 -5.67045e+12 -6.19492e+12 -5.56347e+12 -5.96661e+12 -6.07482e+12 -6.22394e+12 -6.33548e+12 -6.3182e+12 -6.18504e+12 -6.2783e+12 -6.36792e+12 -6.36746e+12 -6.4425e+12 -7.0004e+12 -6.62176e+12 -4.13412e+12 -4.07735e+12 -4.36964e+12 -6.6292e+12 -6.66558e+12 -6.56778e+12 -6.67965e+12 -6.56466e+12 -6.52076e+12 -6.40109e+12 -6.3921e+12 -6.33393e+12 -6.37706e+12 -6.37845e+12 -6.32718e+12 -6.52763e+12 -5.92445e+12 -5.60521e+12 -5.67933e+12 -5.74162e+12 -5.77077e+12 -5.8134e+12 -5.56336e+12 -5.19806e+12 -4.54936e+12 -4.5977e+12 -5.08383e+12 -4.21333e+12 -4.05051e+12 -4.36258e+12 -4.11829e+12 -4.13389e+12 -4.29873e+12 -4.14816e+12 -3.19027e+12 -4.26565e+12 -3.83527e+12 -4.54933e+12 -4.8775e+12 -5.14094e+12 -5.36452e+12 -5.86076e+12 -5.86685e+12 -6.0464e+12 -5.82276e+12 -5.91494e+12 -5.98656e+12 -6.0474e+12 -6.03712e+12 -5.04085e+12 -5.94547e+12 -6.3472e+12 -6.72402e+12 -6.88428e+12 -6.58639e+12 -6.71522e+12 -6.64237e+12 -6.59833e+12 -3.95791e+12 -3.81727e+12 -4.08677e+12 -4.25601e+12 -4.32446e+12 -6.51707e+12 -6.53736e+12 -6.44276e+12 -6.45322e+12 -6.41989e+12 -6.2989e+12 -6.18071e+12 -6.32222e+12 -6.29464e+12 -6.00098e+12 -5.98817e+12 -6.20139e+12 -6.09346e+12 -4.76126e+12 -5.32866e+12 -5.47317e+12 -5.52588e+12 -5.53143e+12 -5.3648e+12 -5.18424e+12 -4.90169e+12 -4.51166e+12 -4.35922e+12 -2.78206e+12 -5.37287e+12 -4.31326e+12 -3.99161e+12 -3.99566e+12 -4.05341e+12 -4.0558e+12 -4.40695e+12 -4.59983e+12 -4.32009e+12 -4.63057e+12 -4.8819e+12 -5.09997e+12 -5.54175e+12 -5.59717e+12 -5.70781e+12 -5.75585e+12 -5.73151e+12 -5.79054e+12 -5.87178e+12 -5.78467e+12 -6.90754e+12 -6.17666e+12 -6.26717e+12 -6.28926e+12 -6.52453e+12 -6.60624e+12 -6.36967e+12 -6.49431e+12 -6.43532e+12 -6.46392e+12 -3.6971e+12 -3.87223e+12 -6.43508e+12 -6.52191e+12 -6.44967e+12 -6.4093e+12 -6.30419e+12 -6.3298e+12 -6.21045e+12 -6.33815e+12 -6.23928e+12 -6.15915e+12 -6.15833e+12 -6.16171e+12 -6.0147e+12 -5.17767e+12 -6.00103e+12 -6.17499e+12 -6.33538e+12 -4.90061e+12 -5.30572e+12 -5.34537e+12 -5.3268e+12 -5.21664e+12 -5.09722e+12 -4.96386e+12 -4.77354e+12 -4.76839e+12 -3.8995e+12 -4.13812e+12 -2.6872e+12 -3.64015e+12 -3.89736e+12 -3.95245e+12 -3.67295e+12 -3.87273e+12 -3.72895e+12 -4.15548e+12 -4.87944e+12 -6.01456e+12 -4.54756e+12 -4.57027e+12 -4.31695e+12 -4.53314e+12 -4.7219e+12 -4.90162e+12 -5.28176e+12 -5.3772e+12 -5.46262e+12 -5.4967e+12 -5.4233e+12 -5.50055e+12 -5.55274e+12 -5.99642e+12 -6.14052e+12 -6.20207e+12 -6.55537e+12 -6.23412e+12 -6.05341e+12 -5.73974e+12 -6.14035e+12 -6.33932e+12 -6.46529e+12 -6.26163e+12 -6.27065e+12 -6.29222e+12 -6.13857e+12 -3.62357e+12 -3.65745e+12 -6.20697e+12 -6.35938e+12 -6.20249e+12 -6.3081e+12 -6.17107e+12 -6.17456e+12 -6.05004e+12 -6.13106e+12 -6.08478e+12 -6.12644e+12 -6.22482e+12 -6.22942e+12 -5.53495e+12 -5.49867e+12 -5.83842e+12 -6.06868e+12 -5.64562e+12 -5.166e+12 -5.08831e+12 -5.00361e+12 -4.91415e+12 -4.79863e+12 -4.70968e+12 -4.53505e+12 -4.30588e+12 -3.88148e+12 -3.75326e+12 -3.59262e+12 -3.60471e+12 -3.68009e+12 -3.95785e+12 -4.95117e+12 -4.40643e+12 -4.45542e+12 -4.46575e+12 -4.60914e+12 -4.75179e+12 -5.07168e+12 -5.19949e+12 -5.30032e+12 -5.36304e+12 -5.34803e+12 -4.96827e+12 -5.10286e+12 -5.66895e+12 -5.86668e+12 -6.04551e+12 -6.48126e+12 -6.09929e+12 -5.8238e+12 -5.18382e+12 -6.13163e+12 -6.10602e+12 -6.20652e+12 -6.13195e+12 -6.26813e+12 -6.07574e+12 -6.08332e+12 -6.02771e+12 -3.59946e+12 -3.51283e+12 -3.55378e+12 -6.1227e+12 -6.16004e+12 -6.07656e+12 -6.04271e+12 -5.79474e+12 -6.00418e+12 -5.8691e+12 -5.89915e+12 -5.8515e+12 -6.10109e+12 -6.24726e+12 -6.51942e+12 -6.63251e+12 -5.68199e+12 -3.93429e+12 -5.24863e+12 -5.53698e+12 -5.47914e+12 -5.31078e+12 -5.0905e+12 -5.19367e+12 -4.91817e+12 -4.84578e+12 -4.7554e+12 -4.65523e+12 -4.50374e+12 -4.33386e+12 -4.13202e+12 -4.32528e+12 -5.34087e+12 -2.14928e+12 -3.22356e+12 -3.66725e+12 -3.36637e+12 -3.24799e+12 -3.25432e+12 -3.17729e+12 -4.17355e+12 -4.32301e+12 -4.26161e+12 -4.37649e+12 -4.46948e+12 -4.89889e+12 -5.03686e+12 -5.16312e+12 -5.27086e+12 -5.366e+12 -5.28613e+12 -4.06552e+12 -5.23439e+12 -5.52836e+12 -5.72978e+12 -6.01143e+12 -6.10508e+12 -6.17241e+12 -6.70393e+12 -6.08313e+12 -6.03774e+12 -5.96814e+12 -6.05988e+12 -5.89365e+12 -5.94852e+12 -5.87153e+12 -5.93773e+12 -3.59861e+12 -3.57957e+12 -3.46446e+12 -6.02525e+12 -6.00254e+12 -6.10885e+12 -6.17921e+12 -6.30205e+12 -5.81252e+12 -5.58993e+12 -5.63615e+12 -5.3992e+12 -5.70109e+12 -5.43597e+12 -5.84429e+12 -5.99855e+12 -6.14128e+12 -6.22047e+12 -5.94051e+12 -5.10477e+12 -4.86704e+12 -5.23937e+12 -5.21718e+12 -5.1983e+12 -5.13045e+12 -5.01399e+12 -5.02451e+12 -4.97904e+12 -4.69732e+12 -4.59611e+12 -4.46195e+12 -4.30911e+12 -4.15407e+12 -4.11777e+12 -3.85017e+12 -3.77828e+12 -3.76183e+12 -2.76191e+12 -2.44028e+12 -3.08908e+12 -3.64511e+12 -3.99517e+12 -4.15404e+12 -4.29452e+12 -4.59831e+12 -4.72829e+12 -4.86477e+12 -5.00545e+12 -5.14188e+12 -5.31942e+12 -5.64266e+12 -6.09185e+12 -4.36505e+12 -5.03584e+12 -5.33127e+12 -5.61051e+12 -5.79648e+12 -5.9521e+12 -6.10807e+12 -6.01223e+12 -6.32597e+12 -6.44723e+12 -5.77314e+12 -5.86603e+12 -5.50631e+12 -5.79296e+12 -5.88127e+12 -5.87846e+12 -5.83845e+12 -5.73446e+12 -5.7933e+12 -3.55659e+12 -3.36821e+12 -5.71307e+12 -5.89373e+12 -5.83168e+12 -6.05072e+12 -6.20456e+12 -4.84054e+12 -5.29942e+12 -5.53412e+12 -5.4809e+12 -4.92487e+12 -3.97882e+12 -5.39818e+12 -5.63909e+12 -5.74527e+12 -5.76486e+12 -5.61064e+12 -5.30769e+12 -5.03743e+12 -4.90721e+12 -4.96029e+12 -4.91814e+12 -4.95327e+12 -4.93648e+12 -4.90019e+12 -4.89845e+12 -4.85562e+12 -4.78566e+12 -4.41405e+12 -4.28198e+12 -4.15422e+12 -4.08206e+12 -3.97539e+12 -4.05932e+12 -3.91393e+12 -4.31521e+12 -3.61217e+12 -3.30785e+12 -1.83035e+12 -2.46965e+12 -3.16068e+12 -4.41697e+12 -4.54253e+12 -4.66874e+12 -4.80369e+12 -4.94458e+12 -5.09025e+12 -5.29978e+12 -5.65247e+12 -5.42003e+12 -4.64264e+12 -4.816e+12 -5.01601e+12 -5.23046e+12 -5.4277e+12 -5.60142e+12 -5.80312e+12 -5.89108e+12 -5.95317e+12 -5.97578e+12 -5.56162e+12 -5.39959e+12 -6.44212e+12 -6.0812e+12 -5.70329e+12 -5.70192e+12 -5.53809e+12 -5.60401e+12 -5.37827e+12 -3.51238e+12 -3.1281e+12 -3.24989e+12 -5.49438e+12 -5.64626e+12 -5.57885e+12 -5.80747e+12 -5.82881e+12 -5.63645e+12 -5.85471e+12 -4.67631e+12 -5.33561e+12 -5.3538e+12 -5.47431e+12 -5.51305e+12 -5.03313e+12 -5.33868e+12 -5.40354e+12 -5.32081e+12 -5.17878e+12 -5.02505e+12 -4.8286e+12 -4.70952e+12 -4.68413e+12 -4.58394e+12 -4.73005e+12 -4.84138e+12 -4.8703e+12 -4.83301e+12 -4.7479e+12 -4.64432e+12 -4.53519e+12 -4.12395e+12 -4.03909e+12 -3.9601e+12 -3.95596e+12 -3.90264e+12 -4.12514e+12 -3.57331e+12 -4.00072e+12 -1.80004e+12 -4.32431e+12 -2.16804e+12 -3.47642e+12 -4.18705e+12 -3.96408e+12 -3.79743e+12 -4.04175e+12 -4.20748e+12 -4.33953e+12 -4.46003e+12 -4.58176e+12 -4.70568e+12 -4.82699e+12 -4.95058e+12 -5.12055e+12 -5.21493e+12 -4.78053e+12 -4.80774e+12 -4.89753e+12 -5.06375e+12 -5.23199e+12 -5.41455e+12 -5.65955e+12 -5.57422e+12 -5.58628e+12 -5.14495e+12 -4.21489e+12 -5.3805e+12 -5.94868e+12 -5.77647e+12 -5.4727e+12 -5.48e+12 -5.49991e+12 -5.2776e+12 -5.32266e+12 -3.44727e+12 -3.4404e+12 -2.98681e+12 -5.27183e+12 -5.21685e+12 -5.43474e+12 -5.36096e+12 -5.52779e+12 -5.37751e+12 -5.26295e+12 -4.93394e+12 -5.2036e+12 -5.19777e+12 -5.47217e+12 -5.7615e+12 -6.33289e+12 -5.35892e+12 -5.33654e+12 -5.22789e+12 -5.10028e+12 -4.71221e+12 -4.55848e+12 -4.4472e+12 -4.35535e+12 -4.04858e+12 -4.75367e+12 -4.95345e+12 -4.87444e+12 -4.73681e+12 -4.59858e+12 -4.47141e+12 -4.35169e+12 -4.23504e+12 -3.88305e+12 -3.85333e+12 -3.92279e+12 -3.80081e+12 -4.01991e+12 -3.93761e+12 -3.05669e+12 -3.78777e+12 -3.29307e+12 -3.84542e+12 -3.78891e+12 -3.91849e+12 -4.0344e+12 -4.15417e+12 -4.26289e+12 -4.36706e+12 -4.47532e+12 -4.58146e+12 -4.68116e+12 -5.18326e+12 -5.01692e+12 -5.31683e+12 -5.50066e+12 -5.26354e+12 -5.22067e+12 -5.15273e+12 -4.83037e+12 -5.27198e+12 -5.48811e+12 -5.20425e+12 -5.23483e+12 -5.06258e+12 -5.11541e+12 -5.17685e+12 -3.29059e+12 -3.12999e+12 -2.83186e+12 -5.0392e+12 -4.99303e+12 -5.15142e+12 -5.29042e+12 -5.17673e+12 -5.19407e+12 -5.02054e+12 -5.09852e+12 -5.03943e+12 -5.22206e+12 -5.37939e+12 -5.60041e+12 -5.07843e+12 -4.96627e+12 -4.8482e+12 -3.36425e+12 -5.06349e+12 -4.98548e+12 -4.73554e+12 -4.54071e+12 -4.39319e+12 -4.2716e+12 -4.16554e+12 -4.06926e+12 -3.98701e+12 -3.91692e+12 -3.9763e+12 -3.85579e+12 -3.82113e+12 -3.89847e+12 -3.98884e+12 -4.0845e+12 -4.1732e+12 -4.26188e+12 -4.7771e+12 -4.83381e+12 -4.88429e+12 -4.88671e+12 -4.68496e+12 -4.65304e+12 -4.68576e+12 -4.86353e+12 -5.01083e+12 -5.14121e+12 -5.24353e+12 -4.98731e+12 -4.98993e+12 -5.04414e+12 -4.93592e+12 -5.11608e+12 -5.04851e+12 -5.16961e+12 -5.00545e+12 -5.03402e+12 -4.72851e+12 -4.76991e+12 -4.87013e+12 -5.04491e+12 -5.22916e+12 -2.98508e+12 -2.67193e+12 -4.51564e+12 -4.78607e+12 -4.74895e+12 -4.93723e+12 -4.87934e+12 -5.07568e+12 -4.98769e+12 -5.05457e+12 -4.9317e+12 -4.84302e+12 -4.87355e+12 -4.96364e+12 -5.00644e+12 -5.10154e+12 -4.91359e+12 -4.80637e+12 -4.69637e+12 -4.60033e+12 -4.50303e+12 -4.3906e+12 -4.26132e+12 -4.12428e+12 -3.93373e+12 -4.92012e+12 -4.67062e+12 -4.42668e+12 -4.27738e+12 -4.16576e+12 -4.07281e+12 -3.99167e+12 -3.9192e+12 -3.85527e+12 -3.8095e+12 -3.77725e+12 -3.78597e+12 -3.74862e+12 -3.8079e+12 -3.75098e+12 -3.61676e+12 -3.36269e+12 -3.61245e+12 -3.53414e+12 -3.73288e+12 -3.77973e+12 -3.7628e+12 -3.78176e+12 -3.8449e+12 -3.92046e+12 -3.9988e+12 -4.35386e+12 -4.44133e+12 -4.51657e+12 -4.56173e+12 -4.59677e+12 -4.62606e+12 -4.60775e+12 -4.48529e+12 -4.38443e+12 -4.32989e+12 -4.51711e+12 -4.69682e+12 -4.82075e+12 -4.87339e+12 -4.5987e+12 -4.87395e+12 -4.86616e+12 -4.88524e+12 -4.95354e+12 -4.82665e+12 -4.89438e+12 -4.9345e+12 -4.74061e+12 -4.74606e+12 -4.30223e+12 -4.27291e+12 -5.2542e+12 -5.16895e+12 -4.92752e+12 -2.8028e+12 -2.34322e+12 -2.50821e+12 -4.23202e+12 -4.48694e+12 -4.45613e+12 -4.70736e+12 -4.65755e+12 -4.79348e+12 -4.71633e+12 -4.89781e+12 -4.81772e+12 -4.75268e+12 -4.86062e+12 -4.70007e+12 -4.42786e+12 -4.99845e+12 -4.91326e+12 -4.48108e+12 -4.43806e+12 -4.38328e+12 -4.32525e+12 -4.26342e+12 -4.18818e+12 -4.09046e+12 -3.96446e+12 -3.80661e+12 -3.5844e+12 -3.14807e+12 -4.23341e+12 -4.1187e+12 -4.03636e+12 -3.96241e+12 -3.89587e+12 -3.83531e+12 -3.77909e+12 -3.73141e+12 -3.69353e+12 -3.67557e+12 -3.65185e+12 -3.65837e+12 -3.6249e+12 -3.55297e+12 -3.46842e+12 -3.39681e+12 -3.5191e+12 -3.53428e+12 -3.61526e+12 -3.65283e+12 -3.67422e+12 -3.71203e+12 -4.0721e+12 -4.14669e+12 -4.22256e+12 -4.29187e+12 -4.33688e+12 -4.3659e+12 -4.38878e+12 -4.39645e+12 -4.35228e+12 -4.20834e+12 -3.93521e+12 -3.26058e+12 -5.42403e+12 -4.97891e+12 -4.71009e+12 -4.56064e+12 -5.58857e+12 -5.1041e+12 -4.84464e+12 -4.75884e+12 -4.75727e+12 -4.52727e+12 -4.57767e+12 -4.50836e+12 -4.41969e+12 -3.20594e+12 -5.48416e+12 -5.08461e+12 -4.95741e+12 -4.57383e+12 -2.59026e+12 -2.35426e+12 -2.15645e+12 -3.93214e+12 -3.91631e+12 -4.21237e+12 -4.18898e+12 -4.41849e+12 -4.3675e+12 -4.5932e+12 -4.48367e+12 -4.65861e+12 -4.65212e+12 -4.74522e+12 -4.83682e+12 -5.00506e+12 -4.46176e+12 -4.62677e+12 -4.39967e+12 -3.92431e+12 -3.98876e+12 -4.03549e+12 -4.0418e+12 -4.02149e+12 -3.98001e+12 -3.91611e+12 -3.82729e+12 -3.71451e+12 -3.58301e+12 -3.46916e+12 -3.33781e+12 -4.37741e+12 -3.93904e+12 -3.89749e+12 -3.84609e+12 -3.79125e+12 -3.73961e+12 -3.69057e+12 -3.6454e+12 -3.60547e+12 -3.57537e+12 -3.54877e+12 -3.53477e+12 -3.50779e+12 -3.46415e+12 -3.40971e+12 -3.3686e+12 -3.36699e+12 -3.43073e+12 -3.46182e+12 -3.51044e+12 -3.76858e+12 -3.83304e+12 -3.89846e+12 -3.96055e+12 -4.02257e+12 -4.08336e+12 -4.12929e+12 -4.16127e+12 -4.18535e+12 -4.20067e+12 -4.19457e+12 -4.13681e+12 -3.97222e+12 -3.27531e+12 -5.06564e+12 -5.08241e+12 -4.69051e+12 -4.28835e+12 -3.44911e+12 -5.20061e+12 -4.82307e+12 -4.6043e+12 -4.47411e+12 -4.47407e+12 -4.08451e+12 -4.49158e+12 -4.31494e+12 -4.21032e+12 -3.98401e+12 -3.28498e+12 -4.93929e+12 -4.62094e+12 -4.60469e+12 -4.17666e+12 -2.0993e+12 -1.94238e+12 -3.25804e+12 -3.61561e+12 -3.60445e+12 -3.9069e+12 -4.15955e+12 -4.12495e+12 -4.28965e+12 -4.42161e+12 -4.4231e+12 -4.69462e+12 -4.84818e+12 -5.21273e+12 -4.84313e+12 -4.8109e+12 -5.1303e+12 -2.28815e+12 -3.39465e+12 -3.66842e+12 -3.77198e+12 -3.79774e+12 -3.78475e+12 -3.74715e+12 -3.68928e+12 -3.61531e+12 -3.53772e+12 -3.47942e+12 -3.47804e+12 -3.52663e+12 -3.92826e+12 -3.5114e+12 -3.47688e+12 -3.44634e+12 -3.42247e+12 -3.39622e+12 -3.36384e+12 -3.32584e+12 -3.29296e+12 -3.28183e+12 -3.29794e+12 -3.54764e+12 -3.58243e+12 -3.62522e+12 -3.67638e+12 -3.7317e+12 -3.78682e+12 -3.83967e+12 -3.89029e+12 -3.93343e+12 -3.96633e+12 -3.99195e+12 -4.0139e+12 -4.0286e+12 -4.02827e+12 -3.99748e+12 -3.83865e+12 -4.24507e+12 -4.60073e+12 -4.57691e+12 -4.31311e+12 -3.51042e+12 -5.17429e+12 -4.59768e+12 -4.38305e+12 -4.14907e+12 -4.11704e+12 -4.04512e+12 -4.2544e+12 -4.15191e+12 -3.92298e+12 -4.14346e+12 -4.46933e+12 -4.22713e+12 -4.21537e+12 -3.79798e+12 -3.73866e+12 -1.83516e+12 -1.59735e+12 -1.76821e+12 -2.8472e+12 -3.27742e+12 -3.60207e+12 -3.60912e+12 -3.88724e+12 -3.86887e+12 -3.85976e+12 -4.08002e+12 -4.00193e+12 -4.12044e+12 -4.08787e+12 -4.46106e+12 -4.54916e+12 -4.75502e+12 -5.99291e+12 -3.02212e+12 -4.43194e+12 -4.07611e+12 -3.02661e+12 -3.48197e+12 -3.58374e+12 -3.61407e+12 -3.61008e+12 -3.58705e+12 -3.55012e+12 -3.50289e+12 -3.45403e+12 -3.41868e+12 -3.41135e+12 -3.44038e+12 -3.46914e+12 -3.74221e+12 -3.75322e+12 -3.72327e+12 -3.67977e+12 -3.63549e+12 -3.59236e+12 -3.55061e+12 -3.33827e+12 -3.37115e+12 -3.40984e+12 -3.44668e+12 -3.48468e+12 -3.5268e+12 -3.57262e+12 -3.62005e+12 -3.66653e+12 -3.71034e+12 -3.74928e+12 -3.78109e+12 -3.80688e+12 -3.82845e+12 -3.84818e+12 -3.86392e+12 -3.86908e+12 -3.69209e+12 -3.81375e+12 -3.57931e+12 -3.05215e+12 -4.77507e+12 -4.40585e+12 -3.84051e+12 -3.45838e+12 -3.78621e+12 -4.17054e+12 -3.85648e+12 -3.84271e+12 -3.36354e+12 -3.24919e+12 -2.64866e+12 -1.54613e+12 -1.18402e+12 -2.45231e+12 -2.90083e+12 -3.27296e+12 -3.29639e+12 -3.60975e+12 -3.63194e+12 -3.83256e+12 -3.71605e+12 -3.62329e+12 -4.07296e+12 -4.12778e+12 -4.28441e+12 -5.1327e+12 -4.62937e+12 -3.78563e+12 -3.88392e+12 -3.64476e+12 -3.33783e+12 -3.43396e+12 -3.45173e+12 -3.44724e+12 -3.43139e+12 -3.40756e+12 -3.56781e+12 -3.57858e+12 -3.55582e+12 -3.52178e+12 -3.48512e+12 -3.44775e+12 -3.41086e+12 -3.37588e+12 -3.34346e+12 -3.31506e+12 -3.28781e+12 -3.2596e+12 -3.22982e+12 -3.20284e+12 -3.18752e+12 -3.19027e+12 -3.21013e+12 -3.24165e+12 -3.27339e+12 -3.30814e+12 -3.34366e+12 -3.38061e+12 -3.4195e+12 -3.45983e+12 -3.50023e+12 -3.53867e+12 -3.57353e+12 -3.84406e+12 -4.05203e+12 -4.14199e+12 -4.26269e+12 -4.25755e+12 -4.04128e+12 -4.39558e+12 -4.6213e+12 -4.0497e+12 -3.63057e+12 -3.37423e+12 -2.66666e+12 -4.7822e+12 -4.5227e+12 -4.12319e+12 -3.39976e+12 -3.50429e+12 -3.77739e+12 -3.61641e+12 -3.48037e+12 -2.84829e+12 -1.87474e+12 -1.23309e+12 -1.13582e+12 -1.03934e+12 -1.30747e+12 -1.97413e+12 -2.45167e+12 -2.54424e+12 -2.93234e+12 -2.95574e+12 -3.33272e+12 -3.36921e+12 -3.69152e+12 -3.82189e+12 -4.1411e+12 -3.57221e+12 -3.62181e+12 -3.7748e+12 -4.41977e+12 -4.27901e+12 -4.06765e+12 -3.5687e+12 -3.50263e+12 -3.37818e+12 -3.34633e+12 -3.32252e+12 -3.31357e+12 -3.3208e+12 -3.33433e+12 -3.3565e+12 -3.40592e+12 -3.41162e+12 -3.39451e+12 -3.36781e+12 -3.3368e+12 -3.30385e+12 -3.27076e+12 -3.23853e+12 -3.20858e+12 -3.18053e+12 -3.15361e+12 -3.12761e+12 -3.10431e+12 -3.08803e+12 -3.08348e+12 -3.09245e+12 -3.11283e+12 -3.14053e+12 -3.17057e+12 -3.20281e+12 -3.23607e+12 -3.27009e+12 -3.30477e+12 -3.60349e+12 -3.62834e+12 -3.649e+12 -3.66807e+12 -3.68675e+12 -3.70509e+12 -3.72191e+12 -3.83465e+12 -3.91042e+12 -3.95152e+12 -4.01306e+12 -4.00886e+12 -4.19336e+12 -4.22107e+12 -4.114e+12 -2.69061e+12 -2.79672e+12 -4.25699e+12 -4.26119e+12 -3.99548e+12 -3.68798e+12 -3.01338e+12 -2.73214e+12 -4.12359e+12 -3.79328e+12 -3.27397e+12 -3.0537e+12 -2.16478e+12 -851735000000.0 -1.74201e+12 -906382000000.0 -1.46503e+12 -1.48139e+12 -1.98629e+12 -2.59653e+12 -3.00949e+12 -3.07046e+12 -3.43246e+12 -3.56888e+12 -3.86336e+12 -2.55287e+12 -2.97772e+12 -3.18862e+12 -3.84534e+12 -3.80709e+12 -3.41e+12 -3.27662e+12 -3.29174e+12 -3.28727e+12 -3.2758e+12 -3.25992e+12 -3.24233e+12 -3.22249e+12 -3.2053e+12 -3.19692e+12 -3.19599e+12 -3.19954e+12 -3.20769e+12 -3.22477e+12 -3.24952e+12 -3.25165e+12 -3.23843e+12 -3.21649e+12 -3.18955e+12 -3.16025e+12 -3.13016e+12 -3.10068e+12 -3.07264e+12 -3.04622e+12 -3.02171e+12 -3.00021e+12 -2.98387e+12 -2.97549e+12 -2.97718e+12 -2.98908e+12 -3.00924e+12 -3.03478e+12 -3.06291e+12 -3.33965e+12 -3.37334e+12 -3.40417e+12 -3.43138e+12 -3.45455e+12 -3.47388e+12 -3.49142e+12 -3.50937e+12 -3.52912e+12 -3.55513e+12 -3.62371e+12 -3.68265e+12 -3.72181e+12 -3.75467e+12 -3.80174e+12 -3.92824e+12 -4.00154e+12 -4.0616e+12 -3.60121e+12 -4.12328e+12 -3.53339e+12 -3.71588e+12 -3.66405e+12 -3.4627e+12 -3.19246e+12 -2.18123e+12 -4.20812e+12 -3.88668e+12 -3.528e+12 -2.81438e+12 -2.50322e+12 -1.67622e+12 -1.18115e+12 -2.07494e+12 -1.4901e+12 -496730000000.0 -705046000000.0 -1.17402e+12 -1.43264e+12 -1.55053e+12 -1.46122e+12 -2.08072e+12 -2.20219e+12 -2.65151e+12 -2.72917e+12 -2.80946e+12 -3.13691e+12 -3.20173e+12 -3.37537e+12 -4.13436e+12 -2.01398e+12 -2.56261e+12 -3.30605e+12 -3.73451e+12 -3.5074e+12 -3.27657e+12 -3.24129e+12 -3.1955e+12 -3.13627e+12 -3.12801e+12 -3.11857e+12 -3.10852e+12 -3.09857e+12 -3.08674e+12 -3.0747e+12 -3.06782e+12 -3.06516e+12 -3.06385e+12 -3.06548e+12 -3.07268e+12 -3.08483e+12 -3.09736e+12 -3.09709e+12 -3.08581e+12 -3.06682e+12 -3.04308e+12 -3.01675e+12 -2.98948e+12 -2.96266e+12 -2.93699e+12 -2.91314e+12 -2.89224e+12 -2.87569e+12 -2.86514e+12 -3.09263e+12 -3.12287e+12 -3.15317e+12 -3.18336e+12 -3.2128e+12 -3.24004e+12 -3.26426e+12 -3.28516e+12 -3.30268e+12 -3.3181e+12 -3.3339e+12 -3.35182e+12 -3.37499e+12 -3.41853e+12 -3.4626e+12 -3.49626e+12 -3.52426e+12 -3.55651e+12 -3.63662e+12 -3.72042e+12 -3.8508e+12 -4.20978e+12 -3.05019e+12 -3.44756e+12 -3.18026e+12 -3.48534e+12 -3.27442e+12 -3.18652e+12 -2.97931e+12 -2.71592e+12 -3.6705e+12 -3.38695e+12 -3.08853e+12 -2.25125e+12 -2.26911e+12 -2.09437e+12 -1.5257e+12 -2.62641e+12 -1.02844e+12 -295602000000.0 -852454000000.0 -1.19839e+12 -889155000000.0 -970095000000.0 -1.5779e+12 -1.73364e+12 -2.28062e+12 -2.36528e+12 -2.45991e+12 -2.87621e+12 -2.85491e+12 -3.58558e+12 -3.63679e+12 -1.72806e+12 -2.78193e+12 -3.33711e+12 -3.35029e+12 -3.24507e+12 -3.13028e+12 -3.04085e+12 -3.0268e+12 -3.00378e+12 -2.97211e+12 -2.96074e+12 -2.95393e+12 -2.94886e+12 -2.94238e+12 -2.93488e+12 -2.93036e+12 -2.92846e+12 -2.92618e+12 -2.92521e+12 -2.92755e+12 -2.93367e+12 -2.94189e+12 -2.94806e+12 -2.86219e+12 -2.86761e+12 -2.88095e+12 -2.90053e+12 -2.92423e+12 -2.95012e+12 -2.97692e+12 -3.00368e+12 -3.03e+12 -3.05562e+12 -3.07966e+12 -3.10102e+12 -3.11955e+12 -3.13559e+12 -3.149e+12 -3.16162e+12 -3.1766e+12 -3.19494e+12 -3.22154e+12 -3.25104e+12 -3.27678e+12 -3.29788e+12 -3.31878e+12 -3.35161e+12 -3.38112e+12 -3.39723e+12 -3.37265e+12 -2.29995e+12 -2.93344e+12 -3.07234e+12 -3.21238e+12 -3.2458e+12 -2.90249e+12 -2.78154e+12 -2.54588e+12 -2.04763e+12 -3.78226e+12 -3.04108e+12 -2.82961e+12 -2.56858e+12 -1.94784e+12 -2.09212e+12 -1.70841e+12 -1.69684e+12 -1.77506e+12 -963210000000.0 -630894000000.0 -348153000000.0 -97218200000.0 -527531000000.0 -814972000000.0 -766813000000.0 -1.27321e+12 -711166000000.0 -1.23264e+12 -1.86061e+12 -1.97678e+12 -2.09868e+12 -2.54662e+12 -2.58632e+12 -2.93936e+12 -2.99912e+12 -2.7345e+12 -2.87359e+12 -2.95899e+12 -2.94428e+12 -2.89606e+12 -2.86565e+12 -2.84057e+12 -2.83707e+12 -2.82237e+12 -2.8044e+12 -2.7978e+12 -2.79563e+12 -2.79284e+12 -2.78879e+12 -2.78687e+12 -2.78675e+12 -2.78572e+12 -2.78435e+12 -2.78481e+12 -2.78783e+12 -2.94592e+12 -2.93546e+12 -2.91852e+12 -2.89725e+12 -2.87353e+12 -2.84904e+12 -2.82491e+12 -2.80195e+12 -2.78134e+12 -2.76435e+12 -2.75224e+12 -2.74617e+12 -2.74693e+12 -2.75459e+12 -2.76839e+12 -2.78695e+12 -2.80862e+12 -2.83184e+12 -2.8554e+12 -2.87845e+12 -2.9007e+12 -2.92179e+12 -2.94072e+12 -2.95691e+12 -2.97103e+12 -2.98323e+12 -2.99342e+12 -3.0042e+12 -3.0182e+12 -3.0348e+12 -3.05064e+12 -3.06618e+12 -3.08115e+12 -3.09283e+12 -3.10384e+12 -3.11506e+12 -3.12132e+12 -3.0886e+12 -2.75383e+12 -2.90714e+12 -2.77964e+12 -2.92867e+12 -2.96538e+12 -2.94248e+12 -2.57471e+12 -2.43504e+12 -2.05307e+12 -3.10913e+12 -3.16288e+12 -2.47037e+12 -2.31363e+12 -2.12479e+12 -1.61644e+12 -1.69714e+12 -1.00196e+12 -896353000000.0 -378522000000.0 -128033000000.0 -206197000000.0 -483512000000.0 -408023000000.0 -749934000000.0 -727980000000.0 -953819000000.0 -1.4166e+12 -1.56239e+12 -1.70823e+12 -2.22917e+12 -2.37129e+12 -2.21967e+12 -2.38177e+12 -2.337e+12 -2.2289e+12 -2.41151e+12 -2.55447e+12 -2.61386e+12 -2.6252e+12 -2.64441e+12 -2.6566e+12 -2.65756e+12 -2.65729e+12 -2.64913e+12 -2.64174e+12 -2.64028e+12 -2.63996e+12 -2.63891e+12 -2.79281e+12 -2.79809e+12 -2.80059e+12 -2.797e+12 -2.78686e+12 -2.77134e+12 -2.75205e+12 -2.73077e+12 -2.70894e+12 -2.6875e+12 -2.66755e+12 -2.65031e+12 -2.63696e+12 -2.62855e+12 -2.62582e+12 -2.62902e+12 -2.63782e+12 -2.65135e+12 -2.66842e+12 -2.68771e+12 -2.70796e+12 -2.72806e+12 -2.74735e+12 -2.76558e+12 -2.78231e+12 -2.71008e+12 -2.75687e+12 -2.76039e+12 -2.63503e+12 -2.68249e+12 -2.67783e+12 -2.64883e+12 -2.1809e+12 -2.41128e+12 -2.5683e+12 -2.5685e+12 -1.80219e+12 -1.64781e+12 -1.14588e+12 -1.13743e+12 -479134000000.0 -820764000000.0 -158544000000.0 -204654000000.0 -149835000000.0 -134509000000.0 -486977000000.0 -443618000000.0 -535471000000.0 -1.11415e+12 -1.28372e+12 -1.8588e+12 -2.02243e+12 -2.57538e+12 -1.80872e+12 -1.95758e+12 -1.62241e+12 -1.90094e+12 -2.09616e+12 -2.24649e+12 -2.33094e+12 -2.39757e+12 -2.44587e+12 -2.47239e+12 -2.63937e+12 -2.64122e+12 -2.64201e+12 -2.64169e+12 -2.64206e+12 -2.644e+12 -2.64732e+12 -2.65118e+12 -2.65424e+12 -2.65439e+12 -2.64959e+12 -2.63952e+12 -2.62503e+12 -2.60755e+12 -2.58856e+12 -2.56917e+12 -2.55041e+12 -2.53343e+12 -2.51933e+12 -2.50914e+12 -2.50365e+12 -2.50327e+12 -2.50791e+12 -2.517e+12 -2.52965e+12 -2.54484e+12 -2.7967e+12 -2.80869e+12 -2.81923e+12 -2.8283e+12 -2.83584e+12 -2.8445e+12 -2.85532e+12 -2.86327e+12 -2.86705e+12 -2.87155e+12 -2.87736e+12 -2.87833e+12 -2.87148e+12 -2.86116e+12 -2.83482e+12 -2.59223e+12 -2.41185e+12 -2.42818e+12 -2.41853e+12 -2.368e+12 -2.28936e+12 -2.10475e+12 -2.08586e+12 -2.03556e+12 -1.94891e+12 -1.26038e+12 -1.14567e+12 -620595000000.0 -280028000000.0 -359847000000.0 -157433000000.0 -281499000000.0 -256469000000.0 -622856000000.0 -825498000000.0 -1.45111e+12 -1.62242e+12 -2.21997e+12 -2.40645e+12 -1.47555e+12 -1.81524e+12 -1.26538e+12 -1.59043e+12 -1.8449e+12 -2.01788e+12 -2.13915e+12 -2.48285e+12 -2.486e+12 -2.48452e+12 -2.48367e+12 -2.48502e+12 -2.4866e+12 -2.48914e+12 -2.49274e+12 -2.49546e+12 -2.49691e+12 -2.49828e+12 -2.50043e+12 -2.50328e+12 -2.50644e+12 -2.50925e+12 -2.51058e+12 -2.50895e+12 -2.50314e+12 -2.49309e+12 -2.47956e+12 -2.46373e+12 -2.44673e+12 -2.42959e+12 -2.41338e+12 -2.39911e+12 -2.56151e+12 -2.57859e+12 -2.59519e+12 -2.61078e+12 -2.62519e+12 -2.63797e+12 -2.64849e+12 -2.65709e+12 -2.66467e+12 -2.67082e+12 -2.67551e+12 -2.68063e+12 -2.68435e+12 -2.68162e+12 -2.67397e+12 -2.66846e+12 -2.66255e+12 -2.64598e+12 -2.61998e+12 -2.59311e+12 -2.54336e+12 -2.5518e+12 -2.58009e+12 -2.1882e+12 -2.19119e+12 -2.14964e+12 -2.082e+12 -2.03373e+12 -2.10041e+12 -1.73078e+12 -1.56009e+12 -1.55851e+12 -1.42768e+12 -616948000000.0 -575865000000.0 -220087000000.0 -141494000000.0 -148621000000.0 -163831000000.0 -342003000000.0 -1.00864e+12 -1.17936e+12 -1.8053e+12 -1.9962e+12 -2.05783e+12 -1.03552e+12 -1.00582e+12 -1.5785e+12 -2.21962e+12 -2.27096e+12 -2.30087e+12 -2.31556e+12 -2.32204e+12 -2.32532e+12 -2.32863e+12 -2.33269e+12 -2.33711e+12 -2.34209e+12 -2.34664e+12 -2.35013e+12 -2.35313e+12 -2.35623e+12 -2.35949e+12 -2.36268e+12 -2.36545e+12 -2.3672e+12 -2.36704e+12 -2.36399e+12 -2.38775e+12 -2.38015e+12 -2.37684e+12 -2.37797e+12 -2.38321e+12 -2.39191e+12 -2.40323e+12 -2.41629e+12 -2.4302e+12 -2.44409e+12 -2.45728e+12 -2.4694e+12 -2.48032e+12 -2.48963e+12 -2.49694e+12 -2.50273e+12 -2.50753e+12 -2.51055e+12 -2.51151e+12 -2.5109e+12 -2.50613e+12 -2.49311e+12 -2.47456e+12 -2.45588e+12 -2.4319e+12 -2.39397e+12 -2.34848e+12 -2.30784e+12 -2.31548e+12 -2.37663e+12 -2.3877e+12 -2.39806e+12 -1.92341e+12 -1.86546e+12 -1.82954e+12 -1.82996e+12 -1.80208e+12 -1.27317e+12 -1.09877e+12 -859666000000.0 -113442000000.0 -137163000000.0 -110933000000.0 -550362000000.0 -698305000000.0 -1.36618e+12 -1.5553e+12 -1.74733e+12 -2.14658e+12 -1.64461e+12 -1.74416e+12 -492091000000.0 -1.76965e+12 -1.90414e+12 -1.99503e+12 -2.06253e+12 -2.10866e+12 -2.13791e+12 -2.15387e+12 -2.16305e+12 -2.1703e+12 -2.17709e+12 -2.18356e+12 -2.18991e+12 -2.19608e+12 -2.20166e+12 -2.20662e+12 -2.21115e+12 -2.21534e+12 -2.21912e+12 -2.22228e+12 -2.35742e+12 -2.34746e+12 -2.33479e+12 -2.32036e+12 -2.30511e+12 -2.29002e+12 -2.27606e+12 -2.26413e+12 -2.25505e+12 -2.24943e+12 -2.24761e+12 -2.24951e+12 -2.2547e+12 -2.26252e+12 -2.2722e+12 -2.28299e+12 -2.29415e+12 -2.30498e+12 -2.31499e+12 -2.32396e+12 -2.33179e+12 -2.3381e+12 -2.34268e+12 -2.34592e+12 -2.34779e+12 -2.34715e+12 -2.3433e+12 -2.33607e+12 -2.32267e+12 -2.29975e+12 -2.26957e+12 -2.23381e+12 -2.18581e+12 -2.11899e+12 -2.04184e+12 -1.97969e+12 -2.17126e+12 -2.1839e+12 -2.18093e+12 -2.18404e+12 -1.95737e+12 -1.6093e+12 -1.59152e+12 -1.52264e+12 -1.47654e+12 -1.39874e+12 -881876000000.0 -559555000000.0 -147259000000.0 -284727000000.0 -237077000000.0 -862847000000.0 -1.09696e+12 -1.27721e+12 -1.91251e+12 -1.13393e+12 -1.3978e+12 -1.6833e+12 -1.38899e+12 -1.50801e+12 -1.66469e+12 -1.77296e+12 -1.85164e+12 -1.91095e+12 -1.95305e+12 -1.97999e+12 -1.99653e+12 -2.00856e+12 -2.01892e+12 -2.02799e+12 -2.03615e+12 -2.04406e+12 -2.05177e+12 -2.22443e+12 -2.22507e+12 -2.22358e+12 -2.21939e+12 -2.21225e+12 -2.20242e+12 -2.19049e+12 -2.17723e+12 -2.16349e+12 -2.15016e+12 -2.13811e+12 -2.12811e+12 -2.12079e+12 -2.11659e+12 -2.11563e+12 -2.11771e+12 -2.12236e+12 -2.12894e+12 -2.1368e+12 -2.1453e+12 -2.15382e+12 -2.16184e+12 -2.16899e+12 -2.17519e+12 -2.1803e+12 -2.00335e+12 -1.92551e+12 -1.81416e+12 -1.64378e+12 -2.0727e+12 -2.0189e+12 -1.98296e+12 -1.9654e+12 -1.95939e+12 -1.70145e+12 -1.6659e+12 -1.33528e+12 -1.22757e+12 -1.23364e+12 -1.12334e+12 -90571700000.0 -91423900000.0 -299944000000.0 -544849000000.0 -899320000000.0 -751723000000.0 -1.16027e+12 -1.95547e+12 -1.24812e+12 -1.34221e+12 -1.4231e+12 -1.55108e+12 -1.64147e+12 -1.71174e+12 -1.76417e+12 -1.80109e+12 -1.82559e+12 -2.05888e+12 -2.0652e+12 -2.07069e+12 -2.07541e+12 -2.0793e+12 -2.08207e+12 -2.08337e+12 -2.08287e+12 -2.08019e+12 -2.07505e+12 -2.06746e+12 -2.05773e+12 -2.04638e+12 -2.03408e+12 -2.0216e+12 -2.00973e+12 -1.99923e+12 -1.99072e+12 -1.98468e+12 -1.98136e+12 -1.98074e+12 -1.98254e+12 -2.18401e+12 -2.18614e+12 -2.1868e+12 -2.18544e+12 -2.18065e+12 -2.17167e+12 -2.15793e+12 -2.13632e+12 -2.10355e+12 -2.05981e+12 -2.05771e+12 -1.90246e+12 -1.80203e+12 -1.73614e+12 -1.71122e+12 -1.72458e+12 -1.45961e+12 -1.43358e+12 -1.31402e+12 -1.06643e+12 -940972000000.0 -752165000000.0 -400133000000.0 -192333000000.0 -1.47429e+12 -1.56003e+12 -1.05852e+12 -1.232e+12 -1.33019e+12 -1.43553e+12 -1.51504e+12 -1.8431e+12 -1.85752e+12 -1.86973e+12 -1.88035e+12 -1.89038e+12 -1.90038e+12 -1.90987e+12 -1.91832e+12 -1.92552e+12 -1.93154e+12 -1.93639e+12 -1.93996e+12 -1.94201e+12 -1.94229e+12 -1.94061e+12 -1.9368e+12 -1.93083e+12 -1.92284e+12 -1.91314e+12 -1.9022e+12 -1.89065e+12 -1.98629e+12 -1.99143e+12 -1.99739e+12 -2.00366e+12 -2.00975e+12 -2.01525e+12 -2.01991e+12 -2.02367e+12 -2.0264e+12 -2.02778e+12 -2.02758e+12 -2.02554e+12 -2.02073e+12 -2.01177e+12 -1.99796e+12 -1.97835e+12 -1.94949e+12 -1.90754e+12 -1.85017e+12 -1.77108e+12 -1.66146e+12 -1.46377e+12 -1.51429e+12 -1.40327e+12 -1.49191e+12 -1.47488e+12 -1.2557e+12 -1.27255e+12 -1.06506e+12 -1.13212e+12 -791811000000.0 -555494000000.0 -288712000000.0 -446068000000.0 -1.02616e+12 -1.3861e+12 -1.78432e+12 -501325000000.0 -1.41211e+12 -1.65329e+12 -997999000000.0 -1.1502e+12 -1.57521e+12 -1.61965e+12 -1.6513e+12 -1.67418e+12 -1.69256e+12 -1.70832e+12 -1.72203e+12 -1.73474e+12 -1.74731e+12 -1.75943e+12 -1.7703e+12 -1.77962e+12 -1.78735e+12 -1.79355e+12 -1.79813e+12 -1.801e+12 -1.80204e+12 -1.80111e+12 -1.7982e+12 -1.87918e+12 -1.86847e+12 -1.85916e+12 -1.85172e+12 -1.84649e+12 -1.84357e+12 -1.84287e+12 -1.84407e+12 -1.84671e+12 -1.8503e+12 -1.85439e+12 -1.85856e+12 -1.86245e+12 -1.86574e+12 -1.86824e+12 -1.86987e+12 -1.87046e+12 -1.8697e+12 -1.8672e+12 -1.86243e+12 -1.85431e+12 -1.84164e+12 -1.82382e+12 -1.79956e+12 -1.76518e+12 -1.71649e+12 -1.64817e+12 -1.54902e+12 -1.3859e+12 -1.938e+12 -1.77278e+12 -1.63182e+12 -1.25269e+12 -1.24789e+12 -1.07765e+12 -1.1367e+12 -888063000000.0 -943778000000.0 -137004000000.0 -102470000000.0 -848733000000.0 -839963000000.0 -1.20134e+12 -1.91267e+12 -1.02348e+12 -1.24551e+12 -1.35127e+12 -1.24297e+12 -1.32773e+12 -1.3915e+12 -1.43944e+12 -1.47524e+12 -1.50225e+12 -1.52422e+12 -1.54339e+12 -1.56056e+12 -1.57656e+12 -1.59218e+12 -1.60736e+12 -1.62107e+12 -1.63285e+12 -1.64272e+12 -1.65065e+12 -1.65658e+12 -1.66044e+12 -1.79333e+12 -1.78659e+12 -1.77816e+12 -1.76837e+12 -1.7577e+12 -1.74672e+12 -1.73601e+12 -1.72616e+12 -1.71765e+12 -1.71088e+12 -1.70606e+12 -1.70318e+12 -1.7021e+12 -1.70248e+12 -1.70389e+12 -1.70594e+12 -1.70824e+12 -1.7105e+12 -1.71242e+12 -1.71377e+12 -1.71439e+12 -1.71412e+12 -1.71279e+12 -1.71002e+12 -1.70532e+12 -1.69802e+12 -1.68708e+12 -1.67156e+12 -1.65101e+12 -1.62405e+12 -1.58736e+12 -1.53684e+12 -1.46313e+12 -1.3094e+12 -1.76303e+12 -1.56511e+12 -1.44723e+12 -1.32734e+12 -1.15296e+12 -1.32676e+12 -1.04564e+12 -911261000000.0 -924515000000.0 -780327000000.0 -631615000000.0 -434159000000.0 -387206000000.0 -767204000000.0 -639087000000.0 -987974000000.0 -708230000000.0 -994603000000.0 -1.09895e+12 -942301000000.0 -1.07633e+12 -1.15445e+12 -1.21781e+12 -1.26506e+12 -1.30112e+12 -1.32907e+12 -1.35291e+12 -1.37478e+12 -1.39526e+12 -1.4149e+12 -1.43419e+12 -1.45307e+12 -1.47034e+12 -1.66223e+12 -1.66198e+12 -1.65972e+12 -1.65553e+12 -1.64961e+12 -1.64208e+12 -1.63317e+12 -1.62321e+12 -1.61268e+12 -1.60206e+12 -1.59186e+12 -1.58254e+12 -1.5745e+12 -1.56806e+12 -1.56332e+12 -1.56022e+12 -1.55855e+12 -1.55799e+12 -1.55815e+12 -1.5587e+12 -1.55936e+12 -1.55989e+12 -1.56008e+12 -1.42144e+12 -1.38136e+12 -1.29433e+12 -1.56792e+12 -1.53252e+12 -1.28948e+12 -1.17607e+12 -1.02306e+12 -1.25354e+12 -958353000000.0 -1.02087e+12 -761522000000.0 -589559000000.0 -78707200000.0 -301427000000.0 -705713000000.0 -1.38688e+12 -910295000000.0 -1.00643e+12 -1.05973e+12 -1.10106e+12 -1.13288e+12 -1.48513e+12 -1.49758e+12 -1.50771e+12 -1.51533e+12 -1.52042e+12 -1.52306e+12 -1.52341e+12 -1.52165e+12 -1.51792e+12 -1.51243e+12 -1.50544e+12 -1.49713e+12 -1.4877e+12 -1.47751e+12 -1.46696e+12 -1.45648e+12 -1.4465e+12 -1.43739e+12 -1.55973e+12 -1.55867e+12 -1.55673e+12 -1.55365e+12 -1.54904e+12 -1.54239e+12 -1.53302e+12 -1.52002e+12 -1.50282e+12 -1.48126e+12 -1.45456e+12 -1.3982e+12 -1.25986e+12 -1.27478e+12 -1.07735e+12 -896288000000.0 -1.11996e+12 -990380000000.0 -817474000000.0 -845092000000.0 -817139000000.0 -720951000000.0 -556973000000.0 -318050000000.0 -354292000000.0 -722212000000.0 -1.04964e+12 -678237000000.0 -849876000000.0 -889256000000.0 -866290000000.0 -923908000000.0 -1.15797e+12 -1.17975e+12 -1.20235e+12 -1.22563e+12 -1.24889e+12 -1.27243e+12 -1.29583e+12 -1.31744e+12 -1.33612e+12 -1.35174e+12 -1.36459e+12 -1.37445e+12 -1.38116e+12 -1.38481e+12 -1.38574e+12 -1.3843e+12 -1.38079e+12 -1.37548e+12 -1.36869e+12 -1.36066e+12 -1.3516e+12 -1.42953e+12 -1.42316e+12 -1.4183e+12 -1.41479e+12 -1.41242e+12 -1.41086e+12 -1.4098e+12 -1.40896e+12 -1.40811e+12 -1.40709e+12 -1.40574e+12 -1.40389e+12 -1.40136e+12 -1.39792e+12 -1.39331e+12 -1.38713e+12 -1.37891e+12 -1.36803e+12 -1.35386e+12 -1.33622e+12 -1.3154e+12 -1.29203e+12 -1.26862e+12 -1.2249e+12 -974811000000.0 -820518000000.0 -859176000000.0 -718496000000.0 -635164000000.0 -724720000000.0 -614981000000.0 -85604500000.0 -95686100000.0 -261588000000.0 -302783000000.0 -397395000000.0 -736406000000.0 -757885000000.0 -647729000000.0 -722286000000.0 -713557000000.0 -951464000000.0 -973641000000.0 -991962000000.0 -1.00823e+12 -1.02576e+12 -1.05018e+12 -1.07727e+12 -1.10574e+12 -1.13515e+12 -1.16189e+12 -1.18518e+12 -1.20505e+12 -1.22126e+12 -1.23389e+12 -1.24267e+12 -1.24773e+12 -1.24936e+12 -1.24809e+12 -1.24452e+12 -1.23909e+12 -1.34166e+12 -1.33112e+12 -1.32035e+12 -1.30974e+12 -1.29967e+12 -1.2905e+12 -1.28261e+12 -1.27618e+12 -1.27108e+12 -1.26706e+12 -1.26392e+12 -1.26138e+12 -1.25914e+12 -1.257e+12 -1.25478e+12 -1.25236e+12 -1.24964e+12 -1.24647e+12 -1.24264e+12 -1.23791e+12 -1.23202e+12 -1.22462e+12 -1.21529e+12 -1.20355e+12 -1.18905e+12 -1.17184e+12 -1.15256e+12 -1.13304e+12 -1.09347e+12 -1.21239e+12 -1.27775e+12 -1.03617e+12 -1.00346e+12 -856022000000.0 -735022000000.0 -509894000000.0 -622469000000.0 -425626000000.0 -466103000000.0 -102875000000.0 -91260800000.0 -10662900000.0 -369214000000.0 -415011000000.0 -612215000000.0 -587128000000.0 -599347000000.0 -568225000000.0 -796338000000.0 -820855000000.0 -826188000000.0 -832781000000.0 -840552000000.0 -850689000000.0 -865096000000.0 -897126000000.0 -932013000000.0 -970282000000.0 -1.00399e+12 -1.03192e+12 -1.05702e+12 -1.07768e+12 -1.09381e+12 -1.1053e+12 -1.23216e+12 -1.2241e+12 -1.2152e+12 -1.20548e+12 -1.19498e+12 -1.18393e+12 -1.17264e+12 -1.16155e+12 -1.15108e+12 -1.14166e+12 -1.13372e+12 -1.1272e+12 -1.12178e+12 -1.11722e+12 -1.1133e+12 -1.10978e+12 -1.10642e+12 -1.10305e+12 -1.09956e+12 -1.09589e+12 -1.09195e+12 -1.08761e+12 -1.08266e+12 -1.07688e+12 -1.07002e+12 -1.0618e+12 -1.05188e+12 -1.03993e+12 -1.02575e+12 -1.00941e+12 -991443000000.0 -952269000000.0 -1.03352e+12 -1.06474e+12 -1.06291e+12 -823788000000.0 -814282000000.0 -852497000000.0 -721877000000.0 -701996000000.0 -513045000000.0 -412911000000.0 -439022000000.0 -102332000000.0 -53390300000.0 -12464300000.0 -134866000000.0 -546865000000.0 -703374000000.0 -695603000000.0 -680963000000.0 -677501000000.0 -677589000000.0 -746185000000.0 -1.11206e+12 -1.11462e+12 -1.11353e+12 -1.1096e+12 -1.10365e+12 -1.09618e+12 -1.08771e+12 -1.07865e+12 -1.06919e+12 -1.05886e+12 -1.04762e+12 -1.03572e+12 -1.02348e+12 -1.01148e+12 -1.00035e+12 -990860000000.0 -982982000000.0 -976368000000.0 -861271000000.0 -868033000000.0 -854314000000.0 -835748000000.0 -593926000000.0 -711701000000.0 -657526000000.0 -592451000000.0 -581956000000.0 -513099000000.0 -454120000000.0 -205694000000.0 -30004300000.0 -302835000000.0 -351438000000.0 -449577000000.0 -385661000000.0 -492278000000.0 -480129000000.0 -441080000000.0 -598412000000.0 -686261000000.0 -692050000000.0 -800924000000.0 -844421000000.0 -876553000000.0 -907265000000.0 -933701000000.0 -954411000000.0 -969320000000.0 -978547000000.0 -982043000000.0 -981185000000.0 -976710000000.0 -969689000000.0 -961056000000.0 -951709000000.0 -942033000000.0 -932492000000.0 -922947000000.0 -911935000000.0 -970599000000.0 -965453000000.0 -960750000000.0 -956262000000.0 -951802000000.0 -947268000000.0 -942613000000.0 -937798000000.0 -932775000000.0 -927432000000.0 -921576000000.0 -915012000000.0 -907542000000.0 -898938000000.0 -888975000000.0 -877424000000.0 -864096000000.0 -848788000000.0 -813251000000.0 -627231000000.0 -536862000000.0 -574368000000.0 -495421000000.0 -478211000000.0 -398834000000.0 -490534000000.0 -279347000000.0 -15117600000.0 -10651500000.0 -91719800000.0 -127944000000.0 -193206000000.0 -273521000000.0 -299232000000.0 -263456000000.0 -386608000000.0 -366151000000.0 -535901000000.0 -516823000000.0 -503734000000.0 -509710000000.0 -512313000000.0 -477825000000.0 -635488000000.0 -689096000000.0 -718746000000.0 -754998000000.0 -788784000000.0 -815910000000.0 -835463000000.0 -847457000000.0 -852939000000.0 -851736000000.0 -846528000000.0 -838226000000.0 -827319000000.0 -816390000000.0 -805644000000.0 -899543000000.0 -886133000000.0 -872122000000.0 -858650000000.0 -847515000000.0 -838283000000.0 -830579000000.0 -823859000000.0 -817710000000.0 -811955000000.0 -806432000000.0 -800953000000.0 -795396000000.0 -789739000000.0 -783990000000.0 -778138000000.0 -772172000000.0 -766006000000.0 -759480000000.0 -752442000000.0 -744734000000.0 -736207000000.0 -726774000000.0 -716279000000.0 -704495000000.0 -676431000000.0 -694267000000.0 -691164000000.0 -648019000000.0 -639340000000.0 -372390000000.0 -322569000000.0 -359610000000.0 -263783000000.0 -347402000000.0 -198953000000.0 -36921300000.0 -92876400000.0 -82515000000.0 -109029000000.0 -179864000000.0 -279683000000.0 -323062000000.0 -501368000000.0 -373323000000.0 -320045000000.0 -331183000000.0 -342566000000.0 -338172000000.0 -241441000000.0 -562594000000.0 -555036000000.0 -597242000000.0 -640244000000.0 -677371000000.0 -704414000000.0 -720632000000.0 -726617000000.0 -726705000000.0 -720678000000.0 -795431000000.0 -786034000000.0 -777190000000.0 -765091000000.0 -750655000000.0 -734102000000.0 -716470000000.0 -703337000000.0 -692884000000.0 -684215000000.0 -676747000000.0 -669879000000.0 -663291000000.0 -656857000000.0 -650439000000.0 -643907000000.0 -637224000000.0 -630460000000.0 -623670000000.0 -616889000000.0 -610136000000.0 -603352000000.0 -596429000000.0 -589248000000.0 -581683000000.0 -573669000000.0 -565366000000.0 -556664000000.0 -536681000000.0 -533265000000.0 -530395000000.0 -499730000000.0 -466343000000.0 -468318000000.0 -489355000000.0 -363427000000.0 -397112000000.0 -181646000000.0 -262809000000.0 -135938000000.0 -126261000000.0 -23947500000.0 -43089600000.0 -198839000000.0 -169890000000.0 -264238000000.0 -227797000000.0 -409455000000.0 -165826000000.0 -165414000000.0 -327230000000.0 -415626000000.0 -710549000000.0 -695901000000.0 -681853000000.0 -669590000000.0 -658560000000.0 -648340000000.0 -639789000000.0 -633881000000.0 -619350000000.0 -599954000000.0 -573717000000.0 -557783000000.0 -546216000000.0 -536915000000.0 -528987000000.0 -521730000000.0 -514618000000.0 -507478000000.0 -377534000000.0 -375674000000.0 -350354000000.0 -338551000000.0 -326953000000.0 -320392000000.0 -331846000000.0 -237451000000.0 -266772000000.0 -240036000000.0 -251512000000.0 -98656400000.0 -55145900000.0 -53002700000.0 -45672500000.0 -40418100000.0 -45970700000.0 -116854000000.0 -101527000000.0 -87559000000.0 -182775000000.0 -172923000000.0 -144907000000.0 -258903000000.0 -170757000000.0 -193882000000.0 -225080000000.0 -49932300000.0 -480494000000.0 -534198000000.0 -575046000000.0 -599967000000.0 -607711000000.0 -602715000000.0 -599002000000.0 -590759000000.0 -570089000000.0 -547264000000.0 -531803000000.0 -521903000000.0 -510945000000.0 -500722000000.0 -494532000000.0 -499791000000.0 -477526000000.0 -500229000000.0 -492779000000.0 -485084000000.0 -477226000000.0 -469355000000.0 -461575000000.0 -453975000000.0 -446609000000.0 -439456000000.0 -432444000000.0 -425457000000.0 -418363000000.0 -411168000000.0 -404588000000.0 -391187000000.0 -206712000000.0 -166237000000.0 -211279000000.0 -165090000000.0 -133813000000.0 -148991000000.0 -144715000000.0 -118412000000.0 -145192000000.0 -15508000000.0 -17851200000.0 -18408100000.0 -19169300000.0 -44192300000.0 -155736000000.0 -146972000000.0 -137115000000.0 -127492000000.0 -125642000000.0 -218310000000.0 -305826000000.0 -377391000000.0 -434853000000.0 -476002000000.0 -491681000000.0 -484648000000.0 -466183000000.0 -480384000000.0 -454227000000.0 -420992000000.0 -385395000000.0 -381536000000.0 -373978000000.0 -362040000000.0 -429279000000.0 -409743000000.0 -397317000000.0 -388000000000.0 -380140000000.0 -372959000000.0 -365763000000.0 -358232000000.0 -350335000000.0 -342048000000.0 -333363000000.0 -324360000000.0 -315251000000.0 -306256000000.0 -297546000000.0 -289272000000.0 -281518000000.0 -274301000000.0 -267548000000.0 -261064000000.0 -254586000000.0 -248058000000.0 -240218000000.0 -226670000000.0 -225806000000.0 -208344000000.0 -203944000000.0 -133003000000.0 -119717000000.0 -113748000000.0 -82866200000.0 -50828200000.0 -30660500000.0 -41075300000.0 -30778800000.0 -49106400000.0 -42981500000.0 -37930300000.0 -64011300000.0 -42081000000.0 -52133800000.0 -56547200000.0 -59674100000.0 -63515200000.0 -66729000000.0 -66438200000.0 -350737000000.0 -353757000000.0 -413084000000.0 -277882000000.0 -255947000000.0 -244148000000.0 -236201000000.0 -229528000000.0 -223160000000.0 -216486000000.0 -209049000000.0 -200801000000.0 -191819000000.0 -182171000000.0 -171981000000.0 -161497000000.0 -151044000000.0 -140912000000.0 -131365000000.0 -122614000000.0 -114791000000.0 -107922000000.0 -101842000000.0 -96067900000.0 -89655700000.0 -81032600000.0 -80868600000.0 -75401900000.0 -71045400000.0 -70801600000.0 -72907000000.0 -57737100000.0 -61825700000.0 -69566200000.0 -107070000000.0 -115870000000.0 -132245000000.0 -63200800000.0 -58486000000.0 -95347800000.0 -142856000000.0 -189442000000.0 -220351000000.0 -231990000000.0 -224698000000.0 -204002000000.0 -167622000000.0 -107300000000.0 
SCALARS Shear_Stress float 1
LOOKUP_TABLE default
12212000000.0 46362300000.0 16591400000.0 34162300000.0 8805780000.0 24756600000.0 20021800000.0 64232900000.0 25827600000.0 5376090000.0 40816900000.0 6963860000.0 43108100000.0 50858100000.0 18794800000.0 28490600000.0 30552200000.0 35780900000.0 13999300000.0 5686560000.0 20784800000.0 56233800000.0 138115000000.0 144612000000.0 39104700000.0 25168500000.0 46453300000.0 9219310000.0 71499500000.0 95881800000.0 44483600000.0 31250000000.0 13160000000.0 10338200000.0 59823700000.0 9487660000.0 38181000000.0 53301200000.0 55475600000.0 127042000000.0 177953000000.0 182936000000.0 33857400000.0 113266000000.0 103153000000.0 81342900000.0 122915000000.0 45333900000.0 46386600000.0 17554700000.0 39552600000.0 110844000000.0 116012000000.0 85757500000.0 203253000000.0 163909000000.0 219954000000.0 196159000000.0 165946000000.0 121012000000.0 152561000000.0 208870000000.0 81511400000.0 1720000000.0 5458690000.0 81248900000.0 61771600000.0 121544000000.0 115868000000.0 194732000000.0 182723000000.0 288108000000.0 274092000000.0 340390000000.0 307305000000.0 257314000000.0 225028000000.0 224975000000.0 186486000000.0 156578000000.0 140287000000.0 12949700000.0 131033000000.0 34289300000.0 185493000000.0 225939000000.0 144892000000.0 162111000000.0 310579000000.0 256901000000.0 38436600000.0 92985000000.0 137621000000.0 190005000000.0 274406000000.0 315531000000.0 367921000000.0 286146000000.0 204127000000.0 143964000000.0 32188000000.0 81028200000.0 28243900000.0 232257000000.0 217919000000.0 333938000.0 117254000000.0 160295000000.0 191325000000.0 254072000000.0 303496000000.0 299854000000.0 342877000000.0 231737000000.0 160691000000.0 110339000000.0 145239000000.0 147073000000.0 93163100000.0 194016000000.0 261228000000.0 194216000000.0 234069000000.0 205156000000.0 239242000000.0 240698000000.0 272982000000.0 289019000000.0 286036000000.0 288053000000.0 237085000000.0 232596000000.0 236675000000.0 283787000000.0 209586000000.0 181885000000.0 124496000000.0 112623000000.0 68607800000.0 85926700000.0 22486800000.0 268755000000.0 275323000000.0 365504000000.0 168656000000.0 278012000000.0 412927000000.0 288020000000.0 348295000000.0 285301000000.0 252799000000.0 262244000000.0 279722000000.0 252675000000.0 202574000000.0 209403000000.0 141599000000.0 66848000000.0 149267000000.0 662718000.0 401053000000.0 635577000000.0 558810000000.0 674726000000.0 439950000000.0 356613000000.0 286268000000.0 260612000000.0 269897000000.0 261560000000.0 215302000000.0 190876000000.0 151572000000.0 72726600000.0 14554800000.0 329081000000.0 581313000000.0 246331000000.0 570199000000.0 435090000000.0 340479000000.0 303872000000.0 272109000000.0 255417000000.0 260742000000.0 251990000000.0 260436000000.0 238560000000.0 231689000000.0 202179000000.0 187958000000.0 160811000000.0 155533000000.0 92853300000.0 81342400000.0 5807110000.0 6703500000.0 51031600000.0 221480000000.0 30603500000.0 290251000000.0 454580000000.0 299790000000.0 442825000000.0 480899000000.0 510020000000.0 492477000000.0 411587000000.0 355696000000.0 258379000000.0 239412000000.0 234034000000.0 212124000000.0 173856000000.0 110163000000.0 13236600000.0 65781500000.0 300437000000.0 132763000000.0 194762000000.0 257073000000.0 82342100000.0 227500000000.0 481249000000.0 559735000000.0 423750000000.0 286672000000.0 224026000000.0 220577000000.0 209680000000.0 185771000000.0 133648000000.0 32359300000.0 71109200000.0 124874000000.0 94942700000.0 12575100000.0 21640200000.0 705659000000.0 492447000000.0 337394000000.0 241057000000.0 209616000000.0 167789000000.0 199581000000.0 172770000000.0 195432000000.0 165459000000.0 183773000000.0 159219000000.0 155531000000.0 103280000000.0 64064500000.0 35820700000.0 62754900000.0 156380000000.0 146111000000.0 200475000000.0 381714000000.0 299903000000.0 115506000000.0 45370100000.0 138994000000.0 15836000000.0 522946000000.0 417731000000.0 406967000000.0 300073000000.0 120630000000.0 141269000000.0 136080000000.0 137164000000.0 130032000000.0 8751100000.0 150424000000.0 228634000000.0 457651000000.0 465834000000.0 253003000000.0 206921000000.0 342103000000.0 242863000000.0 208028000000.0 13261200000.0 317969000000.0 184269000000.0 88423300000.0 101170000000.0 95110200000.0 115812000000.0 63926000000.0 120584000000.0 248449000000.0 266700000000.0 292982000000.0 387905000000.0 417657000000.0 50606700000.0 150154000000.0 265409000000.0 203458000000.0 90689200000.0 29597600000.0 21053900000.0 57687000000.0 15668400000.0 43940600000.0 3894760000.0 63779700000.0 44680600000.0 93414100000.0 2427720000.0 69682500000.0 237015000000.0 255907000000.0 342343000000.0 302766000000.0 302427000000.0 515638000000.0 598639000000.0 409277000000.0 409658000000.0 514355000000.0 485307000000.0 495979000000.0 268370000000.0 118410000000.0 400528000000.0 327499000000.0 113994000000.0 68377800000.0 41537100000.0 33488200000.0 204161000000.0 386628000000.0 346850000000.0 534690000000.0 675787000000.0 500292000000.0 583474000000.0 397819000000.0 33827700000.0 259223000000.0 533497000000.0 348284000000.0 153218000000.0 101053000000.0 82629700000.0 127424000000.0 408249000000.0 422499000000.0 284610000000.0 266410000000.0 503478000000.0 431504000000.0 596174000000.0 601297000000.0 1323890000.0 202499000000.0 456491000000.0 452610000000.0 345233000000.0 764678000000.0 507320000000.0 299820000000.0 240894000000.0 159718000000.0 146758000000.0 122037000000.0 139779000000.0 136975000000.0 387574000000.0 461661000000.0 764078000000.0 560237000000.0 314638000000.0 148965000000.0 691630000000.0 363454000000.0 471045000000.0 499111000000.0 724318000000.0 901981000000.0 582433000000.0 419006000000.0 330377000000.0 351896000000.0 330578000000.0 181035000000.0 106559000000.0 150430000000.0 891395000000.0 346662000000.0 112207000000.0 436010000000.0 665011000000.0 339698000000.0 503497000000.0 939103000000.0 177467000000.0 115143000000.0 255355000000.0 33957400000.0 107446000000.0 126863000000.0 277556000000.0 175268000000.0 207829000000.0 108732000000.0 14945200000.0 592335000000.0 88893300000.0 289009000000.0 92640500000.0 46774000000.0 83517700000.0 6783410000.0 363587000000.0 627285000000.0 253816000000.0 191382000000.0 273787000000.0 127213000000.0 398101000000.0 126192000000.0 177124000000.0 62322000000.0 33151900000.0 86746900000.0 66367700000.0 99050800000.0 35039900000.0 12947300000.0 146355000000.0 189799000000.0 300063000000.0 212268000000.0 188814000000.0 141187000000.0 157849000000.0 96316400000.0 6480390000.0 815632000000.0 242720000000.0 129832000000.0 34729700000.0 11672200000.0 65438100000.0 257884000000.0 876740000000.0 694203000000.0 232141000000.0 233534000000.0 276093000000.0 215685000000.0 315629000000.0 604280000000.0 99055400000.0 21749700000.0 23834700000.0 170314000000.0 694042000000.0 445482000000.0 250962000000.0 243441000000.0 150518000000.0 151323000000.0 64673500000.0 126713000000.0 91885000000.0 236932000000.0 258879000000.0 890010000000.0 322969000000.0 158978000000.0 261565000000.0 262646000000.0 271187000000.0 249720000000.0 215302000000.0 308391000000.0 607942000000.0 107481000000.0 83521600000.0 56202700000.0 73216000000.0 59726500000.0 110313000000.0 318572000000.0 339077000000.0 230631000000.0 173361000000.0 220833000000.0 453273000000.0 651543000000.0 552418000000.0 442332000000.0 168663000000.0 106395000000.0 175690000000.0 241372000000.0 219579000000.0 105777000000.0 92412400000.0 128157000000.0 35838900000.0 300710000000.0 288519000000.0 223909000000.0 221690000000.0 346531000000.0 506317000000.0 294972000000.0 56993500000.0 78401200000.0 92122100000.0 179392000000.0 162778000000.0 209870000000.0 170170000000.0 343378000000.0 636549000000.0 133011000000.0 112276000000.0 136596000000.0 128742000000.0 149251000000.0 117966000000.0 16445800000.0 155290000000.0 193940000000.0 277365000000.0 260706000000.0 262680000000.0 252667000000.0 236285000000.0 264192000000.0 289848000000.0 336632000000.0 411870000000.0 382900000000.0 388049000000.0 129401000000.0 35464500000.0 92758700000.0 131710000000.0 410206000000.0 679504000000.0 150380000000.0 159159000000.0 118978000000.0 73535700000.0 210302000000.0 250920000000.0 255043000000.0 286479000000.0 333705000000.0 291534000000.0 231189000000.0 121435000000.0 49828000000.0 15249200000.0 32354900000.0 73852900000.0 90315800000.0 726809000000.0 168262000000.0 184080000000.0 169729000000.0 177989000000.0 158036000000.0 122490000000.0 44152900000.0 27111300000.0 125005000000.0 158125000000.0 218680000000.0 223347000000.0 246043000000.0 240595000000.0 257637000000.0 283050000000.0 286570000000.0 195254000000.0 52686800000.0 13302300000.0 17311600000.0 12755800000.0 40442200000.0 1436910000.0 495041000000.0 201551000000.0 194539000000.0 164991000000.0 62689000000.0 80052900000.0 180914000000.0 223450000000.0 225413000000.0 246137000000.0 212769000000.0 249661000000.0 199030000000.0 221967000000.0 120288000000.0 827489000.0 51088900000.0 52082600000.0 586601000000.0 773982000000.0 212093000000.0 192151000000.0 128627000000.0 2289370000.0 120799000000.0 196032000000.0 214689000000.0 192267000000.0 160175000000.0 154169000000.0 168461000000.0 118857000000.0 53251500000.0 24113200000.0 57958600000.0 119721000000.0 96057900000.0 141015000000.0 94064900000.0 677569000000.0 820973000000.0 231349000000.0 236322000000.0 214408000000.0 204467000000.0 172493000000.0 136192000000.0 77029300000.0 22433600000.0 50077300000.0 95628700000.0 152940000000.0 177913000000.0 202872000000.0 198941000000.0 190788000000.0 145082000000.0 137100000000.0 101451000000.0 139553000000.0 45248600000.0 111579000000.0 176778000000.0 180600000000.0 259670000000.0 231966000000.0 180562000000.0 88724900000.0 29993200000.0 135883000000.0 195826000000.0 180874000000.0 69806400000.0 60716000000.0 28051800000.0 62482200000.0 92361300000.0 111723000000.0 18575400000.0 64672400000.0 180777000000.0 192433000000.0 221559000000.0 763089000000.0 870087000000.0 290089000000.0 259708000000.0 249554000000.0 216198000000.0 188581000000.0 143876000000.0 97808400000.0 36614100000.0 17036100000.0 80012800000.0 128337000000.0 171927000000.0 204799000000.0 206407000000.0 145042000000.0 47293500000.0 100318000000.0 80452800000.0 136484000000.0 261826000000.0 250165000000.0 284440000000.0 254071000000.0 839917000000.0 924836000000.0 285770000000.0 228155000000.0 150285000000.0 45883500000.0 71708300000.0 176026000000.0 236078000000.0 209904000000.0 208036000000.0 87544600000.0 5890720000.0 228368000000.0 508188000000.0 26445500000.0 57252900000.0 253060000000.0 300118000000.0 307061000000.0 9035750000.0 989271000000.0 327008000000.0 318786000000.0 269719000000.0 241394000000.0 195825000000.0 153734000000.0 103329000000.0 10115900000.0 127734000000.0 224495000000.0 268508000000.0 206505000000.0 102611000000.0 756486000000.0 73771300000.0 130628000000.0 218871000000.0 272314000000.0 297896000000.0 301072000000.0 316459000000.0 337390000000.0 908192000000.0 375615000000.0 295830000000.0 201534000000.0 102994000000.0 49478500000.0 10029500000.0 69548600000.0 131894000000.0 185683000000.0 246390000000.0 275779000000.0 332682000000.0 306831000000.0 360072000000.0 220238000000.0 277223000000.0 266517000000.0 61694900000.0 543030000000.0 203550000000.0 251025000000.0 313630000000.0 973976000000.0 1.06713e+12 440893000000.0 364038000000.0 331921000000.0 257441000000.0 204763000000.0 151734000000.0 44925000000.0 73759400000.0 196706000000.0 310942000000.0 398860000000.0 439782000000.0 491247000000.0 543562000000.0 1.09443e+12 83647900000.0 77540900000.0 141227000000.0 127191000000.0 249019000000.0 287174000000.0 352742000000.0 1.04994e+12 9035750000.0 1.15951e+12 426484000000.0 278496000000.0 142269000000.0 93678500000.0 29114700000.0 18818900000.0 86503000000.0 140231000000.0 263467000000.0 380165000000.0 477338000000.0 565968000000.0 390885000000.0 295074000000.0 1.0978e+12 91239800000.0 165544000000.0 369696000000.0 1.26289e+12 524768000000.0 510013000000.0 382936000000.0 309290000000.0 206409000000.0 123351000000.0 72094600000.0 40732700000.0 154539000000.0 207366000000.0 272158000000.0 331067000000.0 397382000000.0 453727000000.0 525730000000.0 566089000000.0 573378000000.0 537931000000.0 300520000000.0 476087000000.0 601546000000.0 23827500000.0 81086900000.0 257633000000.0 1.15189e+12 624257000000.0 454657000000.0 208887000000.0 34843600000.0 3146700000.0 79816000000.0 111528000000.0 218412000000.0 330861000000.0 456635000000.0 553467000000.0 439717000000.0 220257000000.0 362167000000.0 629861000000.0 462989000000.0 331592000000.0 148478000000.0 244348000000.0 406904000000.0 1.287e+12 1.36733e+12 731160000000.0 615138000000.0 552324000000.0 356189000000.0 220035000000.0 95440600000.0 55437200000.0 154930000000.0 178520000000.0 234284000000.0 272753000000.0 309890000000.0 377355000000.0 488690000000.0 476019000000.0 499992000000.0 400459000000.0 281147000000.0 261581000000.0 432109000000.0 309476000000.0 166934000000.0 19048000000.0 477557000000.0 9035750000.0 1.45713e+12 738766000000.0 429740000000.0 61822600000.0 20372000000.0 138279000000.0 144777000000.0 218025000000.0 269786000000.0 320466000000.0 400193000000.0 391469000000.0 439827000000.0 322929000000.0 324749000000.0 339040000000.0 357931000000.0 272927000000.0 5179290000.0 258004000000.0 574652000000.0 1.43286e+12 826292000000.0 878573000000.0 679650000000.0 553806000000.0 258297000000.0 104112000000.0 235439000000.0 219787000000.0 276216000000.0 261365000000.0 278304000000.0 276466000000.0 296367000000.0 368361000000.0 407498000000.0 366151000000.0 301064000000.0 299191000000.0 305734000000.0 173562000000.0 32841100000.0 308682000000.0 1.5568e+12 1.51313e+12 902228000000.0 875187000000.0 275022000000.0 5061320000.0 218441000000.0 252649000000.0 354017000000.0 309747000000.0 305412000000.0 262018000000.0 243048000000.0 162772000000.0 245561000000.0 199210000000.0 374699000000.0 410844000000.0 313399000000.0 287264000000.0 285771000000.0 278502000000.0 223723000000.0 370881000000.0 667935000000.0 1.53811e+12 1.22658e+12 659252000000.0 1.13967e+12 713630000000.0 558085000000.0 68349800000.0 380673000000.0 403666000000.0 349471000000.0 375380000000.0 308640000000.0 206879000000.0 35824800000.0 222216000000.0 369425000000.0 275464000000.0 286731000000.0 298315000000.0 210028000000.0 81976200000.0 710695000000.0 1.71512e+12 1.73385e+12 515214000000.0 37853100000.0 1.81303e+12 539776000000.0 158059000000.0 405473000000.0 246866000000.0 56083100000.0 311132000000.0 462706000000.0 456540000000.0 454628000000.0 364029000000.0 274491000000.0 208232000000.0 123697000000.0 40562500000.0 143565000000.0 326487000000.0 248050000000.0 282725000000.0 305993000000.0 318659000000.0 169192000000.0 493668000000.0 312788000000.0 1.35126e+12 575735000000.0 454521000000.0 506647000000.0 606414000000.0 1.36725e+12 143960000000.0 10590800000.0 302648000000.0 289630000000.0 524185000000.0 513631000000.0 588304000000.0 483671000000.0 466429000000.0 305809000000.0 137813000000.0 739006000.0 8113720000.0 378291000000.0 483539000000.0 290968000000.0 475393000000.0 408079000000.0 492709000000.0 317738000000.0 334079000000.0 604038000000.0 198770000000.0 123749000000.0 693034000000.0 534059000000.0 517824000000.0 446293000000.0 618724000000.0 118884000000.0 229494000000.0 458355000000.0 943486000000.0 606394000000.0 658942000000.0 349749000000.0 388383000000.0 39095500000.0 368340000000.0 363146000000.0 334537000000.0 650354000000.0 615237000000.0 412147000000.0 208283000000.0 79933900000.0 116956000000.0 263609000000.0 417238000000.0 108058000000.0 397232000000.0 660516000000.0 399614000000.0 279415000000.0 159660000000.0 47003200000.0 879014000000.0 371730000000.0 518592000000.0 338690000000.0 735385000000.0 412755000000.0 313496000000.0 163669000000.0 43997900000.0 343452000000.0 708684000000.0 704632000000.0 652450000000.0 367208000000.0 176934000000.0 472057000000.0 72579100000.0 629209000000.0 791456000000.0 726972000000.0 597065000000.0 559124000000.0 337532000000.0 257557000000.0 78465600000.0 568712000000.0 1.00701e+12 1.31024e+12 1.22556e+12 721575000000.0 916767000000.0 793237000000.0 1.23099e+12 959671000000.0 370437000000.0 336158000000.0 451497000000.0 733403000000.0 568980000000.0 325685000000.0 1.22953e+12 1.22398e+12 422326000000.0 455161000000.0 203652000000.0 179124000000.0 89179100000.0 327652000000.0 192218000000.0 651395000000.0 737464000000.0 592806000000.0 583585000000.0 459956000000.0 600099000000.0 640449000000.0 836945000000.0 733645000000.0 706362000000.0 522498000000.0 155688000000.0 293950000000.0 463900000000.0 268438000000.0 16492300000.0 578498000000.0 1.01428e+12 1.14155e+12 1.13959e+12 700765000000.0 461058000000.0 298600000000.0 365085000000.0 387333000000.0 386314000000.0 366364000000.0 251495000000.0 441678000000.0 754539000.0 486821000000.0 141024000000.0 290928000000.0 446101000000.0 188217000000.0 263951000000.0 1.13744e+12 484516000000.0 258803000000.0 685035000000.0 636710000000.0 568827000000.0 408923000000.0 1.12105e+12 883775000000.0 815056000000.0 658610000000.0 613599000000.0 504974000000.0 503579000000.0 106687000000.0 422258000000.0 1.20459e+12 615790000000.0 1.15205e+12 1.16613e+12 961609000000.0 668614000000.0 399107000000.0 285393000000.0 271936000000.0 250999000000.0 233799000000.0 91080800000.0 15919500000.0 201406000000.0 839975000000.0 658671000000.0 95855900000.0 371599000000.0 466788000000.0 63506000000.0 45881100000.0 9149050000.0 104467000000.0 735478000000.0 420487000000.0 442189000000.0 306630000000.0 117996000000.0 524147000000.0 167154000000.0 589145000000.0 696847000000.0 505981000000.0 641084000000.0 892144000000.0 1.24509e+12 1.0777e+12 898870000000.0 834915000000.0 752496000000.0 660936000000.0 579846000000.0 474764000000.0 233028000000.0 1.24017e+12 1.00174e+12 1.12919e+12 1.18056e+12 1.1181e+12 1.05986e+12 849413000000.0 495600000000.0 311523000000.0 177826000000.0 19182600000.0 641834000000.0 459328000000.0 536959000000.0 593398000000.0 502002000000.0 89036000000.0 50473200000.0 485023000000.0 180465000000.0 318902000000.0 59557000000.0 92557300000.0 658327000000.0 61807700000.0 1.22345e+12 632276000000.0 503478000000.0 771008000000.0 737509000000.0 541340000000.0 666329000000.0 1.02076e+12 969574000000.0 707594000000.0 574303000000.0 504458000000.0 286562000000.0 323897000000.0 756984000000.0 994612000000.0 1.1426e+12 1.15808e+12 1.12841e+12 961766000000.0 742957000000.0 612593000000.0 372175000000.0 119375000000.0 15811700000.0 299849000000.0 597570000000.0 529672000000.0 705483000000.0 769760000000.0 405394000000.0 206612000000.0 844256000000.0 153260000000.0 236231000000.0 225529000000.0 125744000000.0 51102900000.0 29560200000.0 539300000000.0 915077000000.0 208946000000.0 321546000000.0 523586000000.0 386268000000.0 721241000000.0 129858000000.0 543902000000.0 464540000000.0 536773000000.0 407063000000.0 539250000000.0 673544000000.0 790517000000.0 837839000000.0 987911000000.0 906461000000.0 779797000000.0 553657000000.0 556986000000.0 437211000000.0 483059000000.0 387935000000.0 356304000000.0 312227000000.0 692655000000.0 1.05612e+12 1.14338e+12 1.03948e+12 863550000000.0 471318000000.0 177450000000.0 128773000000.0 85308100000.0 421853000000.0 58850800000.0 126602000000.0 526683000000.0 658031000000.0 936638000000.0 488562000000.0 803104000000.0 504657000000.0 394337000000.0 379129000000.0 257106000000.0 311529000000.0 377013000000.0 153549000000.0 139738000000.0 33112500000.0 199949000000.0 665482000000.0 315327000000.0 75155700000.0 564930000.0 532064000000.0 318383000000.0 1.31493e+12 462779000000.0 110997000000.0 569943000000.0 629763000000.0 856905000000.0 537958000000.0 372999000000.0 394805000000.0 369717000000.0 440989000000.0 860339000000.0 1.0704e+12 1.05719e+12 1.08712e+12 990763000000.0 599343000000.0 271404000000.0 83094500000.0 357379000000.0 332983000000.0 503819000000.0 336469000000.0 101098000000.0 928491000000.0 502063000000.0 38571400000.0 966031000000.0 524152000000.0 461019000000.0 59950800000.0 528901000000.0 385619000000.0 255630000000.0 272511000000.0 542626000000.0 243565000000.0 151469000000.0 51880700000.0 51542300000.0 418820000000.0 761796000000.0 285856000000.0 56553700000.0 72417100000.0 85476200000.0 1.17543e+12 250985000000.0 377597000000.0 222463000000.0 415386000000.0 509578000000.0 663869000000.0 422454000000.0 601062000000.0 732281000000.0 246514000000.0 378751000000.0 426855000000.0 410965000000.0 511588000000.0 650455000000.0 722551000000.0 920620000000.0 909863000000.0 1.02869e+12 767920000000.0 397965000000.0 29358000000.0 301122000000.0 410664000000.0 387350000000.0 983496000000.0 115057000000.0 64812100000.0 138321000000.0 54781900000.0 600815000000.0 490048000000.0 113777000000.0 296706000000.0 657215000000.0 287079000000.0 576700000000.0 418421000000.0 56822100000.0 121094000000.0 411144000000.0 799955000000.0 525575000000.0 64531900000.0 42307200000.0 231608000000.0 128735000000.0 151089000000.0 33620000000.0 135316000000.0 143824000000.0 346688000000.0 1.00892e+12 497403000000.0 125239000000.0 913364000000.0 286103000000.0 559057000000.0 131451000000.0 46557400000.0 180491000000.0 308312000000.0 525670000000.0 479782000000.0 519062000000.0 460249000000.0 524273000000.0 575058000000.0 732964000000.0 947650000000.0 1.11145e+12 993792000000.0 552599000000.0 199131000000.0 64495200000.0 210955000000.0 391075000000.0 552713000000.0 976214000000.0 265847000000.0 189980000000.0 328495000000.0 453983000000.0 346323000000.0 56814900000.0 523330000000.0 901195000000.0 392499000000.0 83839300000.0 190789000000.0 295666000000.0 434408000000.0 52669000000.0 55264200000.0 71352000000.0 193388000000.0 572083000000.0 415258000000.0 3079470000.0 96659000000.0 814214000000.0 1.05296e+12 612634000000.0 136211000000.0 134930000000.0 189725000000.0 162539000000.0 1.19415e+12 422932000000.0 701194000000.0 75219500000.0 26566500000.0 322850000000.0 552371000000.0 569380000000.0 563011000000.0 586798000000.0 479959000000.0 238640000000.0 641153000000.0 916414000000.0 651228000000.0 216655000000.0 4282170000.0 54297900000.0 34323300000.0 175178000000.0 79762200000.0 235522000000.0 411193000000.0 251588000000.0 30801800000.0 1591920000.0 43194200000.0 318636000000.0 106169000000.0 44914700000.0 23527500000.0 607982000000.0 8503050000.0 303201000000.0 463423000000.0 448545000000.0 42373400000.0 101200000000.0 155808000000.0 156203000000.0 371116000000.0 614099000000.0 123848000000.0 32860700000.0 143583000000.0 279142000000.0 646755000000.0 309267000000.0 108905000000.0 32260100000.0 138055000000.0 203475000000.0 469592000000.0 194278000000.0 360796000000.0 631025000000.0 1.36355e+12 762949000000.0 326073000000.0 1.7412e+12 1.27438e+12 737470000000.0 571476000000.0 625984000000.0 595202000000.0 567569000000.0 599739000000.0 561229000000.0 752402000000.0 536313000000.0 153350000000.0 26422000000.0 47517100000.0 53615300000.0 83807500000.0 350194000000.0 1.05671e+12 327330000000.0 465519000000.0 412619000000.0 424787000000.0 275694000000.0 135446000000.0 21875000000.0 20946100000.0 600212000000.0 660599000000.0 219387000000.0 31346800000.0 22369800000.0 327930000000.0 480232000000.0 3881620000.0 24702300000.0 74402300000.0 93482900000.0 151268000000.0 253489000000.0 314786000000.0 550650000000.0 561653000000.0 236283000000.0 268075000.0 95766900000.0 88153600000.0 299057000000.0 676792000000.0 452079000000.0 299629000000.0 172372000000.0 90634700000.0 93279600000.0 371133000000.0 8753030000.0 335695000000.0 102386000000.0 1.62049e+12 102696000000.0 951785000000.0 834681000000.0 347003000000.0 153262000000.0 563796000000.0 590329000000.0 618539000000.0 657643000000.0 676108000000.0 752809000000.0 369844000000.0 876962000000.0 45042400000.0 1.40319e+12 379523000000.0 4940840000.0 78829800000.0 117715000000.0 184781000000.0 50500100.0 600822000000.0 106043000000.0 247430000000.0 374710000000.0 445082000000.0 441385000000.0 252042000000.0 185489000000.0 427101000000.0 55415100000.0 824593000000.0 358591000000.0 103588000000.0 293007000000.0 175584000000.0 496187000000.0 13910800000.0 38828200000.0 79950300000.0 114826000000.0 178479000000.0 427890000000.0 538736000000.0 191061000000.0 56422800000.0 272018000000.0 214016000000.0 136036000000.0 413468000000.0 478191000000.0 330078000000.0 56055600000.0 80600700000.0 168463000000.0 473253000000.0 500654000000.0 255534000000.0 1.00854e+12 448341000000.0 30570200000.0 737383000000.0 974898000000.0 510432000000.0 502911000000.0 739521000000.0 795093000000.0 159705000000.0 602645000000.0 306613000000.0 1.01981e+12 111012000000.0 34573000000.0 123902000000.0 221039000000.0 391584000000.0 356708000000.0 202024000000.0 91665900000.0 123497000000.0 222672000000.0 358235000000.0 616517000000.0 1.30575e+12 776524000000.0 367390000000.0 10491000000.0 264903000000.0 6847170000.0 57541600000.0 127248000000.0 265203000000.0 131571000000.0 114322000000.0 106639000000.0 229097000000.0 469976000000.0 58668600000.0 15760400000.0 58919200000.0 89108200000.0 286525000000.0 403334000000.0 528537000000.0 620288000000.0 643128000000.0 589029000000.0 222874000000.0 614712000000.0 1.19344e+12 375952000000.0 246285000000.0 293286000000.0 342210000000.0 493266000000.0 493035000000.0 284824000000.0 248855000000.0 53948600000.0 232874000000.0 1.08453e+12 111109000000.0 563112000000.0 240803000000.0 628444000000.0 871026000000.0 980835000000.0 780972000000.0 631881000000.0 448125000000.0 162536000000.0 27825000000.0 181325000000.0 389005000000.0 444262000000.0 418054000000.0 269327000000.0 82084100000.0 25801700000.0 3728200000.0 1.05289e+12 360582000000.0 135145000000.0 157950000000.0 20472500000.0 96932600000.0 121143000000.0 130316000000.0 104767000000.0 342132000000.0 340353000000.0 119875000000.0 97586800000.0 469044000000.0 338557000000.0 60393100000.0 17585600000.0 53484800000.0 78907900000.0 14604000000.0 128239000000.0 184308000000.0 260550000000.0 678329000000.0 1.02168e+12 292750000000.0 829692000000.0 69437900000.0 282959000000.0 890915000000.0 254076000000.0 232879000000.0 353835000000.0 477141000000.0 498652000000.0 390070000000.0 128360000000.0 275100000000.0 196262000000.0 562674000000.0 428621000000.0 861693000000.0 135151000000.0 274166000000.0 349589000000.0 452179000000.0 657545000000.0 886981000000.0 1.02421e+12 679081000000.0 499024000000.0 1.40724e+12 933033000000.0 942015000000.0 476534000000.0 170976000000.0 60137500000.0 347668000000.0 459886000000.0 540831000000.0 591317000000.0 302078000000.0 47107700000.0 120841000000.0 12791700000.0 183073000000.0 613773000000.0 29634200000.0 103081000000.0 144612000000.0 800666000000.0 421701000000.0 23003100000.0 88563000000.0 483733000000.0 438518000000.0 348552000000.0 310520000000.0 143851000000.0 41604000000.0 490282000000.0 579747000000.0 120288000000.0 58401000000.0 8285260000.0 144572000000.0 132064000000.0 26688500000.0 72703200000.0 344852000000.0 498973000000.0 1.11313e+12 695321000000.0 12050300000.0 290841000000.0 651877000000.0 220919000000.0 439836000000.0 495550000000.0 446910000000.0 301653000000.0 69190900000.0 46418300000.0 67306800000.0 83909300000.0 863740000000.0 656578000000.0 80998000000.0 388032000000.0 967436000000.0 748980000000.0 110516000000.0 796370000000.0 656551000000.0 561970000000.0 286863000000.0 55380100000.0 259605000000.0 406611000000.0 522706000000.0 643753000000.0 769246000000.0 107311000000.0 119583000000.0 153316000000.0 115059000000.0 180289000000.0 223469000000.0 219461000000.0 410772000000.0 907910000000.0 123058000000.0 142649000000.0 63360900000.0 57641500000.0 6720660000.0 566113000000.0 418044000000.0 243845000000.0 193996000000.0 136209000000.0 108404000000.0 293978000000.0 680754000000.0 994788000000.0 17916800000.0 244919000000.0 185179000000.0 305486000000.0 40675700000.0 25192600000.0 117066000000.0 115246000000.0 149431000000.0 386920000000.0 162085000000.0 572707000000.0 493945000000.0 638607000000.0 546560000000.0 152427000000.0 70631400000.0 278743000000.0 477497000000.0 381925000000.0 228108000000.0 85551200000.0 41300100000.0 160994000000.0 402477000000.0 200908000000.0 301271000000.0 171163000000.0 311240000000.0 233663000000.0 404646000000.0 300290000000.0 717091000000.0 557420000000.0 34346700000.0 65484100000.0 314058000000.0 309830000000.0 248056000000.0 148891000000.0 315785000000.0 444253000000.0 533279000000.0 650389000000.0 1.11184e+12 415121000000.0 188127000000.0 60234000000.0 45180900000.0 236617000000.0 301681000000.0 820063000000.0 528791000000.0 87384500000.0 60628200000.0 153691000000.0 751084000000.0 452688000000.0 330626000000.0 192548000000.0 163134000000.0 252607000000.0 307561000000.0 137272000000.0 244156000000.0 262578000000.0 395163000000.0 477703000000.0 922980000000.0 415751000000.0 244076000000.0 468405000000.0 740293000000.0 290270000000.0 34069600000.0 144300000000.0 225941000000.0 332019000000.0 582614000000.0 524017000000.0 589894000000.0 616016000000.0 188044000000.0 327001000000.0 313421000000.0 205903000000.0 185321000000.0 412296000000.0 496342000000.0 297924000000.0 171169000000.0 36911600000.0 94146900000.0 222561000000.0 115043000000.0 66140900000.0 980953000000.0 477583000000.0 652914000000.0 104926000000.0 9858180000.0 422984000000.0 284144000000.0 2786110000.0 70391300000.0 85887000000.0 80159600000.0 226864000000.0 337152000000.0 400454000000.0 376104000000.0 252895000000.0 470723000000.0 74305500000.0 216428000000.0 135642000000.0 203040000000.0 171189000000.0 16449900000.0 365905000000.0 106244000000.0 271574000000.0 95861200000.0 17042900000.0 96746400000.0 467244000000.0 1.16065e+12 705720000000.0 232586000000.0 218193000000.0 156263000000.0 133046000000.0 393817000000.0 122145000000.0 280221000000.0 259211000000.0 282151000000.0 292082000000.0 426371000000.0 420335000000.0 366725000000.0 373503000000.0 379133000000.0 1.08234e+12 1.09428e+12 247493000000.0 380666000000.0 448754000000.0 596617000000.0 628248000000.0 275641000000.0 225343000000.0 187864000000.0 144166000000.0 149378000000.0 211810000000.0 292882000000.0 396225000000.0 512351000000.0 496137000000.0 414791000000.0 88870600000.0 44866800000.0 178120000000.0 233944000000.0 310666000000.0 206999000000.0 489937000000.0 2362330000.0 786002000000.0 1.0071e+12 812308000000.0 1.29979e+12 905354000000.0 37449600000.0 66216200000.0 180399000000.0 275039000000.0 324947000000.0 320538000000.0 284964000000.0 394853000000.0 547476000000.0 767551000000.0 268386000000.0 19033800000.0 119424000000.0 155567000000.0 106227000000.0 21114000000.0 469011000000.0 327118000000.0 12278300000.0 166111000000.0 164624000000.0 733084000000.0 295808000000.0 167164000000.0 158354000000.0 146069000000.0 72641600000.0 27596900000.0 483661000000.0 105877000000.0 112936000000.0 310930000000.0 327449000000.0 363283000000.0 325528000000.0 444148000000.0 737378000000.0 876265000000.0 444901000000.0 293929000000.0 138816000000.0 333046000000.0 169002000000.0 805191000000.0 548787000000.0 573646000000.0 622676000000.0 544040000000.0 299779000000.0 35592300000.0 49316100000.0 148142000000.0 26817500000.0 135990000000.0 453029000000.0 553279000000.0 510587000000.0 415031000000.0 314467000000.0 209771000000.0 118516000000.0 221921000000.0 313030000000.0 321571000000.0 385865000000.0 121850000000.0 579157000000.0 365740000000.0 1.00712e+12 762836000000.0 766782000000.0 345416000000.0 431599000000.0 472658000000.0 436889000000.0 131153000000.0 58826900000.0 92345900000.0 173188000000.0 252839000000.0 309952000000.0 348458000000.0 397438000000.0 528499000000.0 70227900000.0 383283000000.0 137883000000.0 22846800000.0 111864000000.0 171099000000.0 233262000000.0 329037000000.0 496994000000.0 319874000000.0 493970000000.0 516941000000.0 642525000000.0 482616000000.0 221205000000.0 231750000000.0 188297000000.0 174891000000.0 197066000000.0 102757000000.0 623343000000.0 160322000000.0 93788000000.0 321475000000.0 382227000000.0 359015000000.0 399685000000.0 440662000000.0 616310000000.0 722381000000.0 154346000000.0 238146000000.0 100906000000.0 4986320000.0 267131000000.0 517931000000.0 1.07709e+12 354876000000.0 128191000000.0 430634000000.0 388666000000.0 249565000000.0 251377000000.0 244764000000.0 180438000000.0 161254000000.0 613822000000.0 516751000000.0 392778000000.0 300855000000.0 219879000000.0 125696000000.0 10039700000.0 328892000000.0 385388000000.0 328544000000.0 502596000000.0 463768000000.0 732135000000.0 1.17056e+12 507611000000.0 1.25891e+12 555123000000.0 272383000000.0 56819000000.0 5897510000.0 71760600000.0 152803000000.0 237381000000.0 306050000000.0 357171000000.0 419416000000.0 401911000000.0 293356000000.0 667439000000.0 655487000000.0 416585000000.0 356718000000.0 389539000000.0 427194000000.0 628051000000.0 406952000000.0 233339000000.0 204877000000.0 326435000.0 198215000000.0 493495000000.0 8849010000.0 33979100000.0 83005000000.0 332318000000.0 406244000000.0 426838000000.0 430082000000.0 486646000000.0 698293000000.0 585526000000.0 231416000000.0 31376400000.0 58200300000.0 121889000000.0 72195600000.0 377704000000.0 557760000000.0 534283000000.0 61834200000.0 555316000000.0 552665000000.0 387211000000.0 302040000000.0 240761000000.0 168508000000.0 73344400000.0 42207100000.0 159141000000.0 265250000000.0 350815000000.0 365030000000.0 265375000000.0 107495000000.0 5882050000.0 109263000000.0 206492000000.0 290521000000.0 540872000000.0 588561000000.0 436857000000.0 129045000000.0 46495500000.0 42654800000.0 78793800000.0 140632000000.0 1.053e+12 838062000000.0 595892000000.0 365243000000.0 216893000000.0 715131000000.0 167325000000.0 545538000000.0 450487000000.0 315313000000.0 319472000000.0 199909000000.0 104134000000.0 253517000000.0 532010000000.0 927193000000.0 559720000000.0 21129800000.0 78842900000.0 340265000000.0 337664000000.0 420196000000.0 447015000000.0 465479000000.0 427469000000.0 425971000000.0 540362000000.0 547502000000.0 472559000000.0 226842000000.0 422134000000.0 14693100000.0 36271500000.0 6440930000.0 347121000000.0 565062000000.0 653291000000.0 629549000000.0 536856000000.0 468260000000.0 475589000000.0 442715000000.0 1.11941e+12 627925000000.0 440117000000.0 345286000000.0 260852000000.0 165636000000.0 54981400000.0 63872900000.0 179391000000.0 270434000000.0 336072000000.0 346692000000.0 410128000000.0 408063000000.0 491979000000.0 740443000000.0 934229000000.0 729390000000.0 800502000000.0 444053000000.0 337793000000.0 301590000000.0 202217000000.0 71400700000.0 46410800000.0 155016000000.0 360511000000.0 433091000000.0 535706000000.0 612815000000.0 596610000000.0 475019000000.0 308528000000.0 229401000000.0 227984000000.0 145862000000.0 175465000000.0 1.6991e+12 1.09226e+12 692105000000.0 87547200000.0 1.31222e+12 594414000000.0 527559000000.0 515613000000.0 265872000000.0 227917000000.0 235576000000.0 500521000000.0 365333000000.0 89155800000.0 834060000000.0 483482000000.0 403748000000.0 446839000000.0 781338000.0 100647000000.0 83841900000.0 334652000000.0 433000000000.0 515118000000.0 490870000000.0 520376000000.0 391767000000.0 294128000000.0 388772000000.0 356292000000.0 315712000000.0 322599000000.0 126166000000.0 508831000000.0 728164000000.0 115223000000.0 69285600000.0 409474000000.0 634978000000.0 754509000000.0 781626000000.0 740995000000.0 674545000000.0 630566000000.0 609209000000.0 524640000000.0 295681000000.0 832923000000.0 585694000000.0 429103000000.0 299728000000.0 175766000000.0 51692300000.0 69342100000.0 176004000000.0 259616000000.0 306178000000.0 350914000000.0 372389000000.0 431870000000.0 570018000000.0 740546000000.0 811724000000.0 666450000000.0 572027000000.0 392867000000.0 306417000000.0 233942000000.0 129685000000.0 253408000000.0 339682000000.0 420048000000.0 517854000000.0 601994000000.0 628467000000.0 596686000000.0 530324000000.0 468674000000.0 466380000000.0 459437000000.0 56851000000.0 1.21567e+12 719751000000.0 608632000000.0 339371000000.0 1.00779e+12 293184000000.0 247608000000.0 277098000000.0 279183000000.0 156639000000.0 211196000000.0 561531000000.0 269293000000.0 969056000000.0 862922000000.0 527417000000.0 500091000000.0 535592000000.0 26015400000.0 24827800000.0 129162000000.0 305081000000.0 417601000000.0 430788000000.0 525547000000.0 584553000000.0 623237000000.0 499045000000.0 294338000000.0 181965000000.0 65306000000.0 281831000000.0 430836000000.0 565015000000.0 619200000000.0 1.5181e+12 141119000000.0 373715000000.0 632051000000.0 792879000000.0 868853000000.0 890689000000.0 868256000000.0 813095000000.0 744518000000.0 675722000000.0 595240000000.0 524429000000.0 588959000000.0 1.44245e+12 895429000000.0 639426000000.0 457141000000.0 309400000000.0 175388000000.0 49402000000.0 65258200000.0 162824000000.0 234949000000.0 290591000000.0 329682000000.0 383167000000.0 476033000000.0 599909000000.0 693165000000.0 679314000000.0 560768000000.0 456025000000.0 339572000000.0 10618000000.0 102496000000.0 206161000000.0 299504000000.0 387931000000.0 478854000000.0 559655000000.0 611243000000.0 619785000000.0 591038000000.0 544856000000.0 492342000000.0 411366000000.0 321309000000.0 596313000000.0 724851000000.0 572037000000.0 466898000000.0 329819000000.0 372637000000.0 94032700000.0 82352900000.0 123662000000.0 196081000000.0 25322600000.0 745436000000.0 762546000000.0 412447000000.0 77222600000.0 965010000000.0 725733000000.0 823211000000.0 693695000000.0 562298000000.0 13351500000.0 142047000000.0 179623000000.0 252897000000.0 377028000000.0 519742000000.0 619046000000.0 704594000000.0 554770000000.0 113273000000.0 55667600000.0 79514800000.0 221889000000.0 63688800000.0 1.23905e+12 278799000000.0 1.14053e+12 312232000000.0 1.07666e+12 1.00512e+12 969496000000.0 952903000000.0 929109000000.0 883994000000.0 817477000000.0 732466000000.0 631429000000.0 533250000000.0 513473000000.0 681446000000.0 1.30016e+12 57870500000.0 145778000000.0 216842000000.0 273099000000.0 329977000000.0 403685000000.0 496374000000.0 581015000000.0 610114000000.0 562582000000.0 251832000000.0 162142000000.0 57163600000.0 53802200000.0 160287000000.0 258283000000.0 348851000000.0 435715000000.0 514277000000.0 571208000000.0 599226000000.0 594437000000.0 547293000000.0 450675000000.0 270624000000.0 195453000000.0 283959000000.0 860175000000.0 694872000000.0 415369000000.0 499228000000.0 523879000000.0 401569000000.0 113762000000.0 47018000000.0 268328000000.0 130556000000.0 1.23436e+12 305233000000.0 4075260000.0 479645000000.0 707426000000.0 1.0437e+12 799905000000.0 785820000000.0 520282000000.0 110557000000.0 302722000000.0 216207000000.0 104507000000.0 297020000000.0 479745000000.0 576158000000.0 616159000000.0 717405000000.0 810729000000.0 762932000000.0 719109000000.0 147954000000.0 81784400000.0 216721000000.0 315817000000.0 77008100000.0 586663000000.0 653102000000.0 1.14701e+12 764233000000.0 43788700000.0 768623000000.0 878498000000.0 915043000000.0 920321000000.0 897779000000.0 846919000000.0 769296000000.0 672308000000.0 575361000000.0 520172000000.0 563063000000.0 699356000000.0 998336000000.0 802627000000.0 608636000000.0 443145000000.0 298515000000.0 167447000000.0 47993000000.0 466870000000.0 372881000000.0 275913000000.0 184448000000.0 88750300000.0 13422100000.0 116480000000.0 215091000000.0 307829000000.0 395008000000.0 472473000000.0 532288000000.0 569578000000.0 577052000000.0 547331000000.0 471698000000.0 336150000000.0 102438000000.0 489790000000.0 300233000000.0 304968000000.0 1.19359e+12 601102000000.0 31701300000.0 564234000000.0 527857000000.0 1.21176e+12 1.34532e+12 1.05795e+12 650499000000.0 396616000000.0 201434000000.0 264578000000.0 167650000000.0 47356100000.0 215352000000.0 423389000000.0 523588000000.0 669265000000.0 724380000000.0 947435000000.0 1.14141e+12 141400000000.0 200666000000.0 214700000000.0 8138380000.0 519337000000.0 403559000000.0 164251000000.0 730871000000.0 505638000000.0 231052000000.0 641009000000.0 792880000000.0 855072000000.0 866308000000.0 840040000000.0 832067000000.0 712277000000.0 558772000000.0 413859000000.0 280861000000.0 158537000000.0 47439500000.0 49980900000.0 132913000000.0 202726000000.0 266978000000.0 335248000000.0 411665000000.0 485000000000.0 528594000000.0 520516000000.0 464084000000.0 382273000000.0 296080000000.0 205574000000.0 113299000000.0 17508300000.0 80356500000.0 176247000000.0 267355000000.0 352965000000.0 430819000000.0 100635000000.0 315068000000.0 627868000000.0 702478000000.0 429254000000.0 181159000000.0 365159000000.0 718300000000.0 308035000000.0 904708000000.0 393952000000.0 611532000000.0 920315000000.0 463974000000.0 191790000000.0 151343000000.0 255794000000.0 1.664e+12 1.05089e+12 869229000000.0 452484000000.0 17342200000.0 462457000000.0 22451200000.0 38547100000.0 339353000000.0 197536000000.0 69621500000.0 221069000000.0 333761000000.0 446834000000.0 606035000000.0 655710000000.0 770738000000.0 859763000000.0 1.12596e+12 169363000000.0 104945000000.0 118262000000.0 459415000000.0 722361000000.0 618387000000.0 350268000000.0 600726000000.0 783664000000.0 703957000000.0 616075000000.0 549946000000.0 541761000000.0 596163000000.0 676222000000.0 716592000000.0 630190000000.0 508257000000.0 382315000000.0 261504000000.0 148803000000.0 46312900000.0 44774700000.0 124405000000.0 195920000000.0 264712000000.0 334122000000.0 399851000000.0 447720000000.0 461296000000.0 434845000000.0 377054000000.0 302139000000.0 220080000000.0 132911000000.0 42681600000.0 49643700000.0 141808000000.0 495251000000.0 539086000000.0 555839000000.0 542444000000.0 495022000000.0 408291000000.0 283577000000.0 360464000000.0 529924000000.0 603910000000.0 512758000000.0 206958000000.0 397823000000.0 721124000000.0 688927000000.0 583770000000.0 574242000000.0 590646000000.0 616947000000.0 327844000000.0 111087000000.0 245775000000.0 211464000000.0 1.62147e+12 1.23156e+12 747451000000.0 639257000000.0 217457000000.0 40725100000.0 268347000000.0 62748000000.0 191359000000.0 419610000000.0 42515500000.0 354145000000.0 547097000000.0 621651000000.0 624495000000.0 605775000000.0 677415000000.0 515132000000.0 85185900000.0 177083000000.0 455185000000.0 678582000000.0 502811000000.0 439393000000.0 647103000000.0 756966000000.0 804770000000.0 808062000000.0 775945000000.0 718071000000.0 647413000000.0 583077000000.0 549455000000.0 558268000000.0 596018000000.0 634224000000.0 634126000000.0 562873000000.0 460794000000.0 350317000000.0 241329000000.0 138146000000.0 43102100000.0 42656800000.0 120102000000.0 191621000000.0 259185000000.0 321179000000.0 370185000000.0 395542000000.0 389940000000.0 354387000000.0 296584000000.0 225138000000.0 145956000000.0 230953000000.0 314794000000.0 390862000000.0 456213000000.0 505679000000.0 532651000000.0 534269000000.0 510119000000.0 460309000000.0 396362000000.0 421845000000.0 510159000000.0 566691000000.0 535940000000.0 406176000000.0 437544000000.0 581098000000.0 856535000000.0 415868000000.0 818982000000.0 185280000000.0 807101000000.0 630440000000.0 383731000000.0 177319000000.0 236563000000.0 1.37299e+12 965424000000.0 815594000000.0 518483000000.0 421956000000.0 167269000000.0 147064000000.0 817803000000.0 198122000000.0 49268600000.0 60385300000.0 74734300000.0 123628000000.0 291802000000.0 273731000000.0 90149800000.0 221413000000.0 469835000000.0 568540000000.0 652721000000.0 633902000000.0 518035000000.0 512489000000.0 983128000000.0 911834000000.0 17765500000.0 464607000000.0 818743000000.0 743886000000.0 563907000000.0 605945000000.0 553303000000.0 553847000000.0 662890000000.0 731523000000.0 757757000000.0 748895000000.0 714179000000.0 663268000000.0 608377000000.0 566704000000.0 549969000000.0 557659000000.0 578438000000.0 590518000000.0 570262000000.0 506031000000.0 417318000000.0 319364000000.0 220897000000.0 126451000000.0 38254800000.0 42870700000.0 117165000000.0 185228000000.0 246252000000.0 296269000000.0 328596000000.0 61887400000.0 24608100000.0 111568000000.0 196907000000.0 278557000000.0 353962000000.0 419545000000.0 471092000000.0 506046000000.0 522033000000.0 516605000000.0 493054000000.0 464165000000.0 476050000000.0 526126000000.0 568118000000.0 566011000000.0 517052000000.0 515562000000.0 537135000000.0 558215000000.0 993360000000.0 244572000000.0 480484000000.0 153676000000.0 446541000000.0 773086000000.0 611941000000.0 401075000000.0 257114000000.0 941204000000.0 701996000000.0 586904000000.0 287686000000.0 870392000000.0 708998000000.0 1.04634e+12 94777500000.0 220238000000.0 43295100000.0 63155600000.0 128875000000.0 409686000000.0 266502000000.0 39914200000.0 114337000000.0 349339000000.0 474378000000.0 596563000000.0 702652000000.0 510685000000.0 694815000000.0 813409000000.0 691250000000.0 384027000000.0 667471000000.0 847284000000.0 924265000000.0 819569000000.0 677640000000.0 644609000000.0 606748000000.0 615614000000.0 669955000000.0 704568000000.0 712542000000.0 696818000000.0 663288000000.0 621000000000.0 581377000000.0 553982000000.0 543379000000.0 546453000000.0 553070000000.0 548137000000.0 517497000000.0 336982000000.0 319294000000.0 278571000000.0 220802000000.0 151813000000.0 75789800000.0 4405260000.0 86132500000.0 166967000000.0 244834000000.0 317924000000.0 383548000000.0 437846000000.0 478148000000.0 503442000000.0 513422000000.0 510403000000.0 503538000000.0 515797000000.0 549953000000.0 585214000000.0 600022000000.0 591142000000.0 603691000000.0 661011000000.0 779421000000.0 1.07182e+12 482280000000.0 409383000000.0 330830000000.0 463056000000.0 720490000000.0 706601000000.0 541106000000.0 310017000000.0 352118000000.0 1.0664e+12 790842000000.0 571594000000.0 408607000000.0 461065000000.0 797976000000.0 627989000000.0 163914000000.0 91368500000.0 24155300000.0 197091000000.0 78172900000.0 50234900000.0 34748800000.0 108943000000.0 246650000000.0 343342000000.0 355280000000.0 73476000000.0 227326000000.0 343515000000.0 465056000000.0 746782000000.0 950988000000.0 670536000000.0 953572000000.0 692032000000.0 623621000000.0 827627000000.0 984671000000.0 985874000000.0 863311000000.0 737682000000.0 679203000000.0 644333000000.0 644145000000.0 664812000000.0 675506000000.0 670607000000.0 651309000000.0 621594000000.0 588294000000.0 559246000000.0 539785000000.0 530865000000.0 528475000000.0 457052000000.0 377658000000.0 289948000000.0 200743000000.0 114112000000.0 32360400000.0 43388000000.0 112520000000.0 174015000000.0 225412000000.0 262506000000.0 280602000000.0 276727000000.0 251217000000.0 207426000000.0 150032000000.0 83450000000.0 11123700000.0 64294800000.0 140327000000.0 214512000000.0 284530000000.0 348340000000.0 403902000000.0 448727000000.0 481124000000.0 501958000000.0 513778000000.0 522182000000.0 539662000000.0 570159000000.0 602360000000.0 622159000000.0 630446000000.0 646695000000.0 676495000000.0 717101000000.0 755093000000.0 126670000000.0 205131000000.0 438143000000.0 548362000000.0 651115000000.0 745662000000.0 604474000000.0 420914000000.0 100921000000.0 817221000000.0 989726000000.0 657590000000.0 377281000000.0 30020100000.0 407480000000.0 490246000000.0 605044000000.0 268008000000.0 70401600000.0 61976500000.0 1002840000.0 94188100000.0 152970000000.0 279598000000.0 278966000000.0 111818000000.0 60786700000.0 185076000000.0 311441000000.0 603706000000.0 777990000000.0 621750000000.0 950401000000.0 1.19364e+12 124914000000.0 448192000000.0 748334000000.0 982715000000.0 1.05559e+12 994072000000.0 870776000000.0 760825000000.0 697121000000.0 660302000000.0 647909000000.0 647697000000.0 644138000000.0 632460000000.0 524264000000.0 507948000000.0 471348000000.0 413693000000.0 341589000000.0 262310000000.0 181283000000.0 102031000000.0 26871900000.0 42544400000.0 104701000000.0 157606000000.0 198347000000.0 223454000000.0 230112000000.0 217427000000.0 186844000000.0 141497000000.0 85134400000.0 21337700000.0 46826700000.0 116827000000.0 186413000000.0 253319000000.0 315261000000.0 394397000000.0 328243000000.0 378982000000.0 572519000000.0 653840000000.0 693021000000.0 691511000000.0 231677000000.0 700454000000.0 994054000000.0 902319000000.0 191528000000.0 191433000000.0 241402000000.0 298283000000.0 210534000000.0 209670000000.0 81442100000.0 18541100000.0 30131700000.0 63929200000.0 200536000000.0 228620000000.0 202123000000.0 40735700000.0 165607000000.0 441377000000.0 600037000000.0 1.05653e+12 566025000000.0 929842000000.0 390293000000.0 236357000000.0 652517000000.0 932841000000.0 1.05246e+12 1.0457e+12 960659000000.0 851001000000.0 612094000000.0 586469000000.0 560633000000.0 538820000000.0 523340000000.0 513577000000.0 505727000000.0 493282000000.0 469504000000.0 429957000000.0 374901000000.0 308786000000.0 236691000000.0 162920000000.0 90736400000.0 22616000000.0 39442500000.0 93428000000.0 136944000000.0 167306000000.0 182074000000.0 179867000000.0 160946000000.0 127171000000.0 81411200000.0 26830500000.0 370371000000.0 417267000000.0 454996000000.0 483822000000.0 505969000000.0 525501000000.0 549005000000.0 579926000000.0 613386000000.0 639560000000.0 654842000000.0 664378000000.0 673636000000.0 680890000000.0 661149000000.0 488126000000.0 621824000000.0 657478000000.0 662248000000.0 619558000000.0 487519000000.0 891656000000.0 939532000000.0 765469000000.0 530719000000.0 69406000000.0 182279000000.0 77539800000.0 69157200000.0 285806000000.0 52215300000.0 63866300000.0 120219000000.0 55182800000.0 69232400000.0 282216000000.0 428976000000.0 814054000000.0 1.12003e+12 474265000000.0 542996000000.0 21027100000.0 564205000000.0 874757000000.0 1.00519e+12 1.03563e+12 755763000000.0 693302000000.0 654855000000.0 634472000000.0 623756000000.0 612835000000.0 597679000000.0 577965000000.0 556166000000.0 535418000000.0 517773000000.0 503764000000.0 492156000000.0 479591000000.0 461281000000.0 432944000000.0 392225000000.0 339656000000.0 278502000000.0 212718000000.0 145868000000.0 80866300000.0 20182100000.0 33946700000.0 79286500000.0 33568400000.0 97070600000.0 161261000000.0 223998000000.0 283349000000.0 337570000000.0 385297000000.0 425941000000.0 459984000000.0 489128000000.0 516292000000.0 545280000000.0 578578000000.0 615179000000.0 649081000000.0 673330000000.0 686818000000.0 689695000000.0 671777000000.0 621627000000.0 495043000000.0 455581000000.0 475336000000.0 620274000000.0 643128000000.0 628192000000.0 571668000000.0 481139000000.0 659388000000.0 913793000000.0 845819000000.0 702497000000.0 404882000000.0 1886830000.0 56260400000.0 77726100000.0 89460500000.0 75555100000.0 28876400000.0 55384000000.0 146119000000.0 264783000000.0 616605000000.0 872090000000.0 1.18393e+12 375448000000.0 341068000000.0 773681000000.0 990703000000.0 905878000000.0 811208000000.0 729717000000.0 672353000000.0 635093000000.0 611471000000.0 595506000000.0 581152000000.0 565131000000.0 546989000000.0 528217000000.0 510617000000.0 495175000000.0 481407000000.0 467606000000.0 451193000000.0 428902000000.0 397812000000.0 356767000000.0 113525000000.0 134510000000.0 140730000000.0 131784000000.0 108567000000.0 73053600000.0 27853500000.0 24259800000.0 80676400000.0 139035000000.0 197166000000.0 253112000000.0 305327000000.0 352797000000.0 394987000000.0 432053000000.0 465342000000.0 497265000000.0 530445000000.0 566302000000.0 604519000000.0 643136000000.0 677889000000.0 704068000000.0 715957000000.0 703764000000.0 655064000000.0 567567000000.0 538677000000.0 586438000000.0 574137000000.0 587332000000.0 625623000000.0 615708000000.0 592449000000.0 665086000000.0 805963000000.0 720553000000.0 536024000000.0 259286000000.0 48174600000.0 14670500000.0 13370400000.0 62032600000.0 120255000000.0 453701000000.0 640017000000.0 869827000000.0 1.13233e+12 826246000000.0 1.16247e+12 327090000000.0 865657000000.0 940249000000.0 954148000000.0 912596000000.0 838265000000.0 758611000000.0 690987000000.0 640505000000.0 605455000000.0 581569000000.0 563992000000.0 548662000000.0 533261000000.0 517279000000.0 501151000000.0 485544000000.0 470822000000.0 456312000000.0 440429000000.0 306742000000.0 250328000000.0 190573000000.0 130433000000.0 72605100000.0 19534600000.0 26502600000.0 63328600000.0 88949500000.0 101821000000.0 101178000000.0 87255200000.0 61273200000.0 25203200000.0 18584200000.0 67638200000.0 119662000000.0 172619000000.0 224692000000.0 274295000000.0 320355000000.0 362544000000.0 401062000000.0 436624000000.0 470909000000.0 506171000000.0 543784000000.0 583593000000.0 624654000000.0 664792000000.0 700126000000.0 724912000000.0 733053000000.0 709857000000.0 650191000000.0 623085000000.0 759822000000.0 647454000000.0 589115000000.0 589004000000.0 620714000000.0 624608000000.0 655202000000.0 737720000000.0 798079000000.0 779679000000.0 530473000000.0 320031000000.0 44887100000.0 26876100000.0 11244100000.0 291756000000.0 522568000000.0 640991000000.0 1.06558e+12 326376000000.0 596120000000.0 796811000000.0 614319000000.0 691196000000.0 819456000000.0 875334000000.0 873688000000.0 830175000000.0 765707000000.0 699402000000.0 643406000000.0 600444000000.0 569148000000.0 546971000000.0 530236000000.0 515788000000.0 501840000000.0 421062000000.0 395910000000.0 363304000000.0 322951000000.0 275867000000.0 224070000000.0 170083000000.0 116495000000.0 65786000000.0 20278900000.0 17865200000.0 46708500000.0 64672000000.0 70760100000.0 64765100000.0 47325400000.0 19824100000.0 15837000000.0 57514700000.0 103060000000.0 150487000000.0 198084000000.0 244442000000.0 288477000000.0 329615000000.0 732603000000.0 731213000000.0 696735000000.0 629339000000.0 895891000000.0 690137000000.0 587737000000.0 555952000000.0 582589000000.0 598420000000.0 620971000000.0 672615000000.0 689798000000.0 698170000000.0 643405000000.0 3555250000.0 11272600000.0 175516000000.0 345159000000.0 559354000000.0 219874000000.0 463615000000.0 590199000000.0 85701100000.0 440216000000.0 635962000000.0 772038000000.0 802927000000.0 787908000000.0 745089000000.0 690273000000.0 636059000000.0 487777000000.0 473493000000.0 458995000000.0 444218000000.0 428592000000.0 410749000000.0 389098000000.0 362277000000.0 329379000000.0 290436000000.0 246492000000.0 199286000000.0 150959000000.0 103787000000.0 60023900000.0 21794400000.0 8957960000.0 30593900000.0 41958100000.0 42528100000.0 32499800000.0 12763100000.0 367988000000.0 404274000000.0 439500000000.0 475128000000.0 512610000000.0 552343000000.0 593761000000.0 636034000000.0 677233000000.0 711978000000.0 884214000000.0 687026000000.0 592265000000.0 540717000000.0 542236000000.0 591671000000.0 570123000000.0 618999000000.0 633713000000.0 613554000000.0 554223000000.0 445730000000.0 261221000000.0 122204000000.0 846252000000.0 1.04867e+12 167911000000.0 465564000000.0 616862000000.0 709735000000.0 721101000000.0 589903000000.0 554316000000.0 528450000000.0 509933000000.0 495608000000.0 482842000000.0 470256000000.0 457429000000.0 444123000000.0 430073000000.0 414905000000.0 398039000000.0 378593000000.0 355543000000.0 328057000000.0 295697000000.0 258720000000.0 218159000000.0 175579000000.0 132825000000.0 91874500000.0 15241800000.0 49729300000.0 88787600000.0 130569000000.0 173421000000.0 215981000000.0 257240000000.0 296606000000.0 333948000000.0 369646000000.0 404494000000.0 439478000000.0 475609000000.0 513544000000.0 553154000000.0 593857000000.0 634737000000.0 673054000000.0 701921000000.0 707812000000.0 676963000000.0 545082000000.0 557955000000.0 523688000000.0 600037000000.0 556445000000.0 513335000000.0 571894000000.0 564332000000.0 592980000000.0 465397000000.0 347003000000.0 171841000000.0 238343000000.0 472929000000.0 432273000000.0 282302000000.0 295104000000.0 398862000000.0 525053000000.0 199986000000.0 450236000000.0 699221000000.0 658965000000.0 612343000000.0 568602000000.0 532505000000.0 505327000000.0 485890000000.0 471658000000.0 460012000000.0 449052000000.0 437733000000.0 425608000000.0 412520000000.0 398238000000.0 382389000000.0 364542000000.0 344092000000.0 320368000000.0 292996000000.0 54730300000.0 23309500000.0 708936000.0 16024600000.0 21859700000.0 18065500000.0 5127220000.0 15914300000.0 43625700000.0 76374800000.0 112499000000.0 150458000000.0 188950000000.0 226971000000.0 263874000000.0 299419000000.0 333756000000.0 367350000000.0 400856000000.0 434932000000.0 470076000000.0 506385000000.0 543361000000.0 580110000000.0 615140000000.0 644178000000.0 655867000000.0 620988000000.0 481512000000.0 821380000000.0 695832000000.0 610484000000.0 488761000000.0 501742000000.0 444307000000.0 508149000000.0 487498000000.0 538564000000.0 43721400000.0 39644500000.0 461910000000.0 232271000000.0 187256000000.0 99209000000.0 304307000000.0 264107000000.0 393875000000.0 570421000000.0 628242000000.0 631043000000.0 607703000000.0 571862000000.0 533715000000.0 500141000000.0 473975000000.0 455277000000.0 442283000000.0 432298000000.0 423144000000.0 413637000000.0 403181000000.0 391371000000.0 378038000000.0 363186000000.0 346635000000.0 261913000000.0 227437000000.0 190515000000.0 152571000000.0 115230000000.0 80202400000.0 49240800000.0 24018600000.0 5965440000.0 3927680000.0 5217180000.0 1947630000.0 16863900000.0 38417900000.0 65243700000.0 95884800000.0 128945000000.0 163200000000.0 197674000000.0 231694000000.0 264909000000.0 297282000000.0 329043000000.0 360567000000.0 392237000000.0 424315000000.0 456774000000.0 489126000000.0 520288000000.0 548656000000.0 571586000000.0 584124000000.0 569722000000.0 441296000000.0 763481000000.0 725697000000.0 644971000000.0 582067000000.0 504645000000.0 614472000000.0 454786000000.0 439378000000.0 414761000000.0 430785000000.0 382153000000.0 234793000000.0 146086000000.0 355848000000.0 119242000000.0 96897500000.0 39449800000.0 341611000000.0 329347000000.0 228432000000.0 425614000000.0 509135000000.0 542421000000.0 538725000000.0 516008000000.0 485381000000.0 455735000000.0 432081000000.0 415768000000.0 405519000000.0 398426000000.0 391887000000.0 384496000000.0 328041000000.0 307088000000.0 283436000000.0 256922000000.0 227745000000.0 196291000000.0 163300000000.0 129963000000.0 97739600000.0 68158800000.0 42780100000.0 23077800000.0 10232300000.0 4954840000.0 7377740000.0 17087100000.0 33226900000.0 54670000000.0 80177500000.0 108507000000.0 138527000000.0 169308000000.0 200168000000.0 500408000000.0 486464000000.0 395400000000.0 598554000000.0 674699000000.0 615442000000.0 558902000000.0 436531000000.0 621343000000.0 473821000000.0 478619000000.0 365407000000.0 252917000000.0 4427410000.0 58967100000.0 156637000000.0 424992000000.0 234717000000.0 383191000000.0 438216000000.0 455615000000.0 447397000000.0 375811000000.0 365585000000.0 353634000000.0 339926000000.0 324486000000.0 307328000000.0 288354000000.0 267512000000.0 244688000000.0 219793000000.0 193117000000.0 165120000000.0 136276000000.0 107423000000.0 79846600000.0 55068300000.0 34586500000.0 19731900000.0 230686000000.0 260698000000.0 290253000000.0 319523000000.0 348676000000.0 377744000000.0 406544000000.0 434518000000.0 460435000000.0 482237000000.0 496952000000.0 544107000000.0 592314000000.0 583850000000.0 501287000000.0 386898000000.0 516636000000.0 439161000000.0 420064000000.0 424587000000.0 380126000000.0 299257000000.0 228024000000.0 95400100000.0 89836400000.0 389988000000.0 400147000000.0 96539200000.0 283727000000.0 232920000000.0 230949000000.0 336472000000.0 426581000000.0 401258000000.0 379473000000.0 366033000000.0 359718000000.0 357106000000.0 354454000000.0 349643000000.0 343064000000.0 334777000000.0 324269000000.0 311651000000.0 297303000000.0 281408000000.0 264119000000.0 245469000000.0 225457000000.0 204204000000.0 181754000000.0 158209000000.0 133894000000.0 11445700000.0 10123500000.0 15580100000.0 27150600000.0 43897700000.0 64757000000.0 88651000000.0 114580000000.0 141676000000.0 169264000000.0 196884000000.0 224289000000.0 251404000000.0 278254000000.0 304868000000.0 331171000000.0 356862000000.0 381310000000.0 403368000000.0 421033000000.0 431252000000.0 430054000000.0 413592000000.0 355096000000.0 440069000000.0 373192000000.0 377976000000.0 353342000000.0 311268000000.0 349090000000.0 328095000000.0 33122000000.0 16046600000.0 51468800000.0 79330700000.0 160034000000.0 350474000000.0 250102000000.0 112991000000.0 211602000000.0 148413000000.0 368462000000.0 372854000000.0 361641000000.0 343129000000.0 320444000000.0 305457000000.0 302787000000.0 307055000000.0 310200000000.0 308612000000.0 304233000000.0 298001000000.0 289305000000.0 277988000000.0 264481000000.0 249584000000.0 233746000000.0 217041000000.0 199488000000.0 181194000000.0 109111000000.0 84395800000.0 60902400000.0 40215400000.0 23955300000.0 13400700000.0 9223310000.0 11365100000.0 19261100000.0 32095200000.0 48933000000.0 68843500000.0 90950500000.0 114479000000.0 138806000000.0 163465000000.0 188148000000.0 212699000000.0 237059000000.0 261169000000.0 284885000000.0 307905000000.0 329662000000.0 349192000000.0 364920000000.0 374473000000.0 374859000000.0 364027000000.0 320718000000.0 397953000000.0 539138000000.0 481761000000.0 455442000000.0 342114000000.0 321423000000.0 232336000000.0 328029000000.0 229636000000.0 182340000000.0 44541600000.0 14034100000.0 9363390000.0 152628000000.0 156609000000.0 279279000000.0 113583000000.0 151503000000.0 91651400000.0 225259000000.0 294036000000.0 303257000000.0 297537000000.0 285846000000.0 268266000000.0 241298000000.0 232902000000.0 244819000000.0 258088000000.0 260864000000.0 258696000000.0 254990000000.0 248152000000.0 238026000000.0 225260000000.0 162314000000.0 143001000000.0 123210000000.0 102688000000.0 81484200000.0 60166200000.0 39974000000.0 22710700000.0 10262500000.0 3840120000.0 3536890000.0 8675250000.0 18430900000.0 31962500000.0 48445700000.0 67126600000.0 87349200000.0 108548000000.0 130277000000.0 152224000000.0 174189000000.0 196044000000.0 217691000000.0 238976000000.0 259612000000.0 279122000000.0 296785000000.0 311516000000.0 321729000000.0 325323000000.0 320384000000.0 285797000000.0 324200000000.0 415136000000.0 455049000000.0 343702000000.0 286479000000.0 350725000000.0 324757000000.0 310170000000.0 227001000000.0 162323000000.0 240132000000.0 41729100000.0 7040480000.0 10255800000.0 51136600000.0 139847000000.0 222665000000.0 256774000000.0 243426000000.0 231787000000.0 221118000000.0 165457000000.0 211021000000.0 196395000000.0 181602000000.0 166443000000.0 150875000000.0 135114000000.0 119487000000.0 103979000000.0 88280700000.0 71457700000.0 53047700000.0 33846100000.0 15836400000.0 1623900000.0 6686010000.0 8674160000.0 5409550000.0 2120960000.0 271568000000.0 335768000000.0 364611000000.0 361981000000.0 238906000000.0 281571000000.0 279567000000.0 245615000000.0 258890000000.0 196599000000.0 233112000000.0 146037000000.0 18209500000.0 108595000000.0 152173000000.0 202797000000.0 87377700000.0 113011000000.0 115178000000.0 61779500000.0 228900000000.0 204094000000.0 158316000000.0 196286000000.0 205072000000.0 205203000000.0 205235000000.0 200438000000.0 191498000000.0 179058000000.0 164828000000.0 150450000000.0 137561000000.0 125551000000.0 113082000000.0 100260000000.0 88057400000.0 76647800000.0 65390100000.0 53718600000.0 39838300000.0 13105600000.0 26798800000.0 42548100000.0 59805700000.0 78105000000.0 97060300000.0 116367000000.0 135800000000.0 155204000000.0 174456000000.0 193415000000.0 211837000000.0 229331000000.0 245347000000.0 259171000000.0 269857000000.0 276139000000.0 276319000000.0 249540000000.0 227909000000.0 181370000000.0 213568000000.0 188919000000.0 199669000000.0 156795000000.0 206854000000.0 110856000000.0 7618920000.0 9741290000.0 40082300000.0 51716400000.0 71928800000.0 131313000000.0 140329000000.0 63450500000.0 104869000000.0 91393100000.0 223724000000.0 191642000000.0 175440000000.0 174165000000.0 158517000000.0 65559300000.0 109042000000.0 141127000000.0 141451000000.0 147430000000.0 145427000000.0 137349000000.0 124949000000.0 109560000000.0 95345300000.0 83268300000.0 74300900000.0 66569800000.0 57652600000.0 49190100000.0 42011500000.0 22702900000.0 3849640000.0 12851000000.0 23175800000.0 26034700000.0 23662800000.0 17476700000.0 8311440000.0 3225300000.0 16586500000.0 31309300000.0 47035300000.0 63453700000.0 80290700000.0 97335200000.0 114425000000.0 131416000000.0 148165000000.0 164486000000.0 180081000000.0 194520000000.0 207268000000.0 217800000000.0 225465000000.0 229184000000.0 211267000000.0 221139000000.0 282419000000.0 297431000000.0 295277000000.0 143856000000.0 119661000000.0 151980000000.0 84083000000.0 163101000000.0 75518900000.0 17181500000.0 39854900000.0 36850000000.0 42772000000.0 97576800000.0 85105700000.0 47059700000.0 223303000000.0 172762000000.0 137113000000.0 140031000000.0 133497000000.0 118321000000.0 32092400000.0 64747800000.0 72707400000.0 86955300000.0 83360100000.0 73490300000.0 60450700000.0 44162900000.0 26641100000.0 16835400000.0 12496500000.0 35205300000.0 27422300000.0 19455600000.0 6934790000.0 12056900000.0 32812400000.0 46408600000.0 49315900000.0 46729100000.0 40891400000.0 32789900000.0 22846900000.0 11394400000.0 1232660000.0 14756700000.0 28952600000.0 43609400000.0 58520200000.0 73505400000.0 88420400000.0 103131000000.0 117486000000.0 131271000000.0 144179000000.0 155804000000.0 165712000000.0 173795000000.0 179722000000.0 170695000000.0 167205000000.0 217052000000.0 232919000000.0 228703000000.0 200343000000.0 174096000000.0 158476000000.0 151160000000.0 60577900000.0 103810000000.0 30407100000.0 5976430000.0 5482520000.0 22861600000.0 91881800000.0 41405900000.0 64829300000.0 31104100000.0 194649000000.0 97166300000.0 97054700000.0 94338700000.0 65134200000.0 8273640000.0 5104240000.0 3058950000.0 1199770000.0 413297000.0 4596440000.0 11305800000.0 15041200000.0 29786100000.0 57362400000.0 77785200000.0 78978600000.0 74863200000.0 68484000000.0 60731100000.0 51868900000.0 41949800000.0 31067800000.0 114494000000.0 153996000000.0 164902000000.0 166220000000.0 145655000000.0 126905000000.0 135672000000.0 93311600000.0 101555000000.0 85500700000.0 96321300000.0 56621900000.0 30712700000.0 28106700000.0 26776700000.0 25122900000.0 26534800000.0 80107400000.0 63758200000.0 37472100000.0 68266200000.0 37276700000.0 20320600000.0 94713600000.0 86044800000.0 68239000000.0 63072600000.0 31912200000.0 29263600000.0 1512890000.0 19110900000.0 37071500000.0 55385400000.0 70890700000.0 67004800000.0 58409600000.0 57104600000.0 53540900000.0 46629500000.0 40168500000.0 38977700000.0 44167100000.0 53433300000.0 50845300000.0 83389700000.0 19381700000.0 7047300000.0 5771570000.0 18882400000.0 32096100000.0 45250700000.0 58192600000.0 70776200000.0 82859300000.0 94260200000.0 104733000000.0 113971000000.0 121719000000.0 128857000000.0 127728000000.0 94246700000.0 66301400000.0 97963700000.0 63505000000.0 68431300000.0 76479200000.0 74065100000.0 67689000000.0 82418900000.0 14180200000.0 14680400000.0 13361100000.0 15633400000.0 35789900000.0 67381100000.0 58874900000.0 51604600000.0 40847700000.0 26649900000.0 61165000000.0 8186330000.0 60873900000.0 95927700000.0 119633000000.0 139598000000.0 155021000000.0 168465000000.0 150010000000.0 129373000000.0 108020000000.0 99308000000.0 85517200000.0 77202500000.0 74671100000.0 119943000000.0 114997000000.0 107446000000.0 99882800000.0 92266700000.0 84266100000.0 75629200000.0 66248300000.0 56127100000.0 45322000000.0 33952000000.0 22200700000.0 10292100000.0 1547560000.0 13127600000.0 24285400000.0 34878400000.0 44798400000.0 53973700000.0 62358900000.0 69911100000.0 76633500000.0 81919200000.0 63588300000.0 91655900000.0 99529200000.0 101498000000.0 41539500000.0 39528800000.0 16618200000.0 12136700000.0 6777870000.0 11568700000.0 27750400000.0 24393600000.0 46087500000.0 39847400000.0 34047100000.0 62131500000.0 24288000000.0 39221300000.0 45351200000.0 52029500000.0 60188300000.0 66541800000.0 64475600000.0 82174200000.0 104090000000.0 113872000000.0 176699000000.0 153565000000.0 141692000000.0 133652000000.0 126849000000.0 120205000000.0 113097000000.0 105166000000.0 96371800000.0 86783800000.0 76473900000.0 65595500000.0 54419400000.0 43257400000.0 32396100000.0 22095100000.0 12562200000.0 3931150000.0 3768800000.0 10696100000.0 17321500000.0 24604900000.0 34077200000.0 17317200000.0 31427800000.0 36504200000.0 36722300000.0 37408100000.0 22177500000.0 31960400000.0 3024570000.0 23589500000.0 39530300000.0 41876700000.0 55596700000.0 44112700000.0 20219200000.0 28174000000.0 71360200000.0 108169000000.0 121738000000.0 115044000000.0 96505300000.0 63246700000.0 3789920000.0 