# vtk DataFile Version 2.0
Time step 86
ASCII
DATASET UNSTRUCTURED_GRID
POINTS 4650 float
294558.0 301717.0 0
205468.0 304620.0 0
208945.0 302655.0 0
212384.0 304684.0 0
215804.0 302663.0 0
219553.0 303980.0 0
237182.0 304605.0 0
244136.0 304422.0 0
247574.0 302380.0 0
251071.0 304315.0 0
258028.0 304285.0 0
264374.0 303542.0 0
277172.0 303844.0 0
284195.0 303731.0 0
291105.0 303705.0 0
298002.0 303722.0 0
201999.0 306597.0 0
208919.0 306641.0 0
215855.0 306680.0 0
223267.0 305390.0 0
226882.0 307037.0 0
233786.0 306715.0 0
240712.0 306482.0 0
247634.0 306357.0 0
254556.0 306268.0 0
261485.0 306291.0 0
266648.0 306815.0 0
273699.0 305920.0 0
280756.0 305757.0 0
287667.0 305702.0 0
294558.0 305705.0 0
205453.0 308601.0 0
212385.0 308655.0 0
219636.0 307959.0 0
223370.0 309368.0 0
230414.0 308851.0 0
237316.0 308582.0 0
244214.0 308399.0 0
251113.0 308292.0 0
258012.0 308261.0 0
270140.0 308727.0 0
273941.0 309888.0 0
277339.0 307815.0 0
280840.0 309733.0 0
284242.0 307713.0 0
287708.0 309680.0 0
291125.0 307689.0 0
294571.0 309677.0 0
298003.0 307702.0 0
201998.0 310576.0 0
205441.0 312562.0 0
208906.0 310604.0 0
215837.0 310664.0 0
219624.0 311918.0 0
227005.0 311013.0 0
233941.0 310694.0 0
237477.0 312544.0 0
240828.0 310461.0 0
244303.0 312372.0 0
247689.0 310325.0 0
251131.0 312259.0 0
254565.0 310248.0 0
258001.0 312229.0 0
261446.0 310257.0 0
265380.0 310585.0 0
268840.0 312486.0 0
277463.0 311771.0 0
284310.0 311683.0 0
291155.0 311656.0 0
298004.0 311666.0 0
201997.0 314536.0 0
208869.0 314555.0 0
212346.0 312610.0 0
215765.0 314628.0 0
223355.0 313326.0 0
226985.0 314969.0 0
230561.0 312817.0 0
234167.0 314637.0 0
240956.0 314434.0 0
247741.0 314295.0 0
254538.0 314202.0 0
261456.0 314203.0 0
265415.0 314564.0 0
274121.0 313819.0 0
280937.0 313697.0 0
287759.0 313643.0 0
294588.0 313635.0 0
205417.0 316512.0 0
212271.0 316556.0 0
219532.0 315856.0 0
223233.0 317260.0 0
230912.0 316736.0 0
237651.0 316512.0 0
244393.0 316347.0 0
251143.0 316226.0 0
257900.0 316156.0 0
267545.0 317892.0 0
270827.0 315866.0 0
274274.0 317769.0 0
277590.0 315727.0 0
281030.0 317652.0 0
284383.0 315641.0 0
287811.0 317593.0 0
291190.0 315610.0 0
294606.0 317580.0 0
298005.0 315616.0 0
201995.0 318487.0 0
205389.0 320459.0 0
208811.0 318501.0 0
215638.0 318570.0 0
219353.0 319773.0 0
227711.0 318826.0 0
234391.0 318599.0 0
241085.0 318412.0 0
244481.0 320326.0 0
247793.0 318269.0 0
251159.0 320199.0 0
254506.0 318165.0 0
257830.0 320114.0 0
261201.0 318106.0 0
264413.0 320064.0 0
270978.0 319812.0 0
277701.0 319676.0 0
284452.0 319587.0 0
291224.0 319551.0 0
298007.0 319553.0 0
201993.0 322429.0 0
208750.0 322455.0 0
212167.0 320503.0 0
215484.0 322493.0 0
221493.0 322965.0 0
224577.0 320913.0 0
228000.0 322782.0 0
231174.0 320691.0 0
234584.0 322576.0 0
237817.0 320490.0 0
241205.0 322394.0 0
247847.0 322246.0 0
254496.0 322134.0 0
261122.0 322070.0 0
267747.0 321897.0 0
274390.0 321712.0 0
281112.0 321594.0 0
287859.0 321530.0 0
294622.0 321512.0 0
205359.0 324403.0 0
212072.0 324468.0 0
218396.0 324919.0 0
224852.0 324862.0 0
231383.0 324666.0 0
237960.0 324473.0 0
244566.0 324305.0 0
251189.0 324170.0 0
257815.0 324074.0 0
264460.0 323976.0 0
271109.0 323766.0 0
277789.0 323612.0 0
281177.0 325519.0 0
284511.0 323519.0 0
287900.0 325451.0 0
291254.0 323477.0 0
294637.0 325429.0 0
298008.0 323476.0 0
201990.0 326363.0 0
205327.0 328342.0 0
208687.0 326412.0 0
215174.0 326726.0 0
221685.0 326893.0 0
228199.0 326749.0 0
234741.0 326557.0 0
241312.0 326374.0 0
247907.0 326218.0 0
251234.0 328129.0 0
254517.0 326093.0 0
257848.0 328005.0 0
261150.0 325992.0 0
264502.0 327871.0 0
267814.0 325826.0 0
271174.0 327684.0 0
274481.0 325644.0 0
277855.0 327530.0 0
284559.0 327433.0 0
291279.0 327389.0 0
298009.0 327385.0 0
201988.0 330288.0 0
208609.0 330384.0 0
211905.0 328534.0 0
215184.0 330648.0 0
218451.0 328815.0 0
221772.0 330794.0 0
225006.0 328804.0 0
228329.0 330702.0 0
231536.0 328638.0 0
234864.0 330528.0 0
238081.0 328451.0 0
241407.0 330345.0 0
244647.0 328277.0 0
247969.0 330177.0 0
254559.0 330030.0 0
261189.0 329891.0 0
267858.0 329721.0 0
274537.0 329548.0 0
281227.0 329424.0 0
287933.0 329355.0 0
294650.0 329331.0 0
205302.0 332276.0 0
211905.0 332467.0 0
218508.0 332699.0 0
225099.0 332724.0 0
231649.0 332594.0 0
238183.0 332416.0 0
244724.0 332236.0 0
251287.0 332069.0 0
257889.0 331912.0 0
264539.0 331749.0 0
271215.0 331569.0 0
277900.0 331422.0 0
281262.0 333305.0 0
284596.0 331328.0 0
287959.0 333240.0 0
291300.0 331283.0 0
294659.0 333217.0 0
298011.0 331277.0 0
201987.0 334193.0 0
205309.0 336171.0 0
208614.0 334305.0 0
215232.0 334539.0 0
221846.0 334685.0 0
228423.0 334632.0 0
234965.0 334482.0 0
241494.0 334301.0 0
248034.0 334120.0 0
254604.0 333945.0 0
257926.0 335799.0 0
261225.0 333771.0 0
264566.0 335608.0 0
267890.0 333589.0 0
271241.0 335426.0 0
274572.0 333423.0 0
277929.0 335286.0 0
284621.0 335200.0 0
291316.0 335160.0 0
298012.0 335154.0 0
201987.0 338061.0 0
208645.0 338178.0 0
211946.0 336356.0 0
215298.0 338408.0 0
218577.0 336576.0 0
221923.0 338570.0 0
225180.0 336628.0 0
228512.0 338544.0 0
231744.0 336528.0 0
235061.0 338415.0 0
238276.0 336364.0 0
241582.0 338237.0 0
244800.0 336178.0 0
248100.0 338047.0 0
251341.0 335991.0 0
254646.0 337841.0 0
261252.0 337630.0 0
267909.0 337432.0 0
274593.0 337269.0 0
281285.0 337162.0 0
287976.0 337105.0 0
294667.0 337086.0 0
205324.0 340019.0 0
212001.0 340207.0 0
218655.0 340447.0 0
225266.0 340519.0 0
231843.0 340442.0 0
238374.0 340291.0 0
244880.0 340103.0 0
251392.0 339898.0 0
257953.0 339665.0 0
264582.0 339443.0 0
271254.0 339255.0 0
274599.0 341085.0 0
277945.0 339123.0 0
281294.0 340992.0 0
284637.0 339050.0 0
287986.0 340949.0 0
291326.0 339018.0 0
294672.0 340938.0 0
298012.0 339016.0 0
201987.0 341887.0 0
205337.0 343819.0 0
208679.0 342002.0 0
212051.0 344015.0 0
215369.0 342252.0 0
222010.0 342450.0 0
228614.0 342435.0 0
235173.0 342327.0 0
241679.0 342156.0 0
248167.0 341960.0 0
254679.0 341721.0 0
257967.0 343511.0 0
261265.0 341466.0 0
264581.0 343253.0 0
267915.0 341248.0 0
271249.0 343054.0 0
277944.0 342931.0 0
284642.0 342876.0 0
291332.0 342858.0 0
298013.0 342862.0 0
201986.0 345672.0 0
208700.0 345778.0 0
215435.0 346062.0 0
218740.0 344307.0 0
222109.0 346323.0 0
225369.0 344394.0 0
228750.0 346297.0 0
231969.0 344331.0 0
235323.0 346221.0 0
238493.0 344201.0 0
241795.0 346059.0 0
244969.0 344015.0 0
248236.0 345869.0 0
251437.0 343797.0 0
254697.0 345587.0 0
261261.0 345279.0 0
267898.0 345036.0 0
274583.0 344870.0 0
281288.0 344796.0 0
287988.0 344772.0 0
294675.0 344774.0 0
201984.0 349425.0 0
205336.0 347576.0 0
208683.0 349507.0 0
212074.0 347772.0 0
218822.0 348151.0 0
225504.0 348240.0 0
232155.0 348192.0 0
238650.0 348101.0 0
245072.0 347920.0 0
251471.0 347699.0 0
257964.0 347335.0 0
264558.0 347037.0 0
267845.0 348795.0 0
271213.0 346821.0 0
274526.0 348618.0 0
277919.0 346709.0 0
281259.0 348571.0 0
284634.0 346677.0 0
287985.0 348572.0 0
291335.0 346679.0 0
294679.0 348596.0 0
298013.0 346695.0 0
205300.0 351302.0 0
212030.0 351472.0 0
215457.0 349817.0 0
222226.0 350189.0 0
228970.0 350111.0 0
235540.0 350106.0 0
241940.0 349952.0 0
248303.0 349789.0 0
254695.0 349439.0 0
257951.0 351128.0 0
261243.0 349065.0 0
264516.0 350801.0 0
271107.0 350554.0 0
277847.0 350448.0 0
284617.0 350449.0 0
291341.0 350482.0 0
298014.0 350520.0 0
201981.0 353166.0 0
208579.0 353198.0 0
211794.0 355104.0 0
215381.0 353499.0 0
218846.0 351959.0 0
222622.0 353993.0 0
225763.0 352016.0 0
229275.0 353872.0 0
232436.0 352021.0 0
235885.0 353996.0 0
238868.0 352012.0 0
242104.0 353849.0 0
245180.0 351829.0 0
248335.0 353744.0 0
251480.0 351625.0 0
254677.0 353257.0 0
261227.0 352826.0 0
267754.0 352547.0 0
274331.0 352309.0 0
277473.0 354083.0 0
281211.0 352303.0 0
284618.0 354181.0 0
287991.0 352346.0 0
291363.0 354270.0 0
294688.0 352406.0 0
298015.0 354344.0 0
201979.0 356904.0 0
205249.0 355032.0 0
208467.0 356925.0 0
219346.0 355683.0 0
226162.0 355776.0 0
232748.0 355789.0 0
239300.0 356069.0 0
245197.0 355764.0 0
251457.0 355598.0 0
257968.0 354872.0 0
261220.0 356580.0 0
264463.0 354563.0 0
267639.0 356315.0 0
270943.0 354290.0 0
274072.0 356032.0 0
280520.0 355862.0 0
288032.0 356098.0 0
294712.0 356217.0 0
205217.0 358775.0 0
211611.0 358858.0 0
214866.0 357016.0 0
217784.0 358824.0 0
223146.0 357767.0 0
229652.0 357611.0 0
236148.0 357803.0 0
242575.0 358324.0 0
248235.0 357725.0 0
254726.0 356968.0 0
258005.0 358588.0 0
264401.0 358343.0 0
270756.0 358054.0 0
277144.0 357787.0 0
283494.0 357612.0 0
286419.0 359324.0 0
291421.0 358057.0 0
298017.0 358182.0 0
201977.0 360626.0 0
208429.0 360685.0 0
214713.0 360777.0 0
217925.0 362533.0 0
220823.0 360347.0 0
224035.0 361788.0 0
226661.0 359536.0 0
230092.0 361353.0 0
233066.0 359541.0 0
236332.0 361638.0 0
239382.0 359965.0 0
245672.0 360575.0 0
251292.0 359663.0 0
254745.0 360551.0 0
261211.0 360346.0 0
267506.0 360115.0 0
273837.0 359777.0 0
276900.0 361508.0 0
280178.0 359552.0 0
283187.0 361313.0 0
289326.0 360999.0 0
294759.0 360046.0 0
298021.0 362055.0 0
205223.0 362494.0 0
211634.0 362652.0 0
214909.0 364506.0 0
221253.0 364076.0 0
227338.0 363387.0 0
233422.0 363314.0 0
238876.0 364346.0 0
242260.0 362399.0 0
245451.0 364491.0 0
248869.0 362661.0 0
254811.0 364027.0 0
258034.0 362279.0 0
261141.0 364148.0 0
264312.0 362159.0 0
267362.0 363943.0 0
270575.0 361831.0 0
273648.0 363514.0 0
279953.0 363258.0 0
286179.0 363056.0 0
289156.0 364775.0 0
292243.0 362658.0 0
295181.0 364341.0 0
201977.0 364308.0 0
205260.0 366135.0 0
208501.0 364395.0 0
211840.0 366399.0 0
218313.0 366183.0 0
224623.0 365586.0 0
230697.0 365125.0 0
235516.0 366364.0 0
242094.0 366321.0 0
248382.0 366815.0 0
251582.0 365258.0 0
257937.0 366017.0 0
264197.0 366002.0 0
270413.0 365595.0 0
276731.0 365215.0 0
279805.0 366959.0 0
282988.0 365020.0 0
285995.0 366780.0 0
292119.0 366480.0 0
201978.0 367929.0 0
208622.0 367965.0 0
215290.0 368165.0 0
218838.0 369777.0 0
221792.0 367740.0 0
225326.0 369269.0 0
228062.0 367142.0 0
229049.0 370628.0 0
232221.0 368460.0 0
235582.0 370220.0 0
238805.0 368237.0 0
245159.0 368475.0 0
251414.0 369129.0 0
254652.0 367668.0 0
261026.0 367959.0 0
267222.0 367800.0 0
270291.0 369299.0 0
273516.0 367212.0 0
276644.0 368898.0 0
282831.0 368735.0 0
288969.0 368526.0 0
295044.0 368237.0 0
298040.0 366210.0 0
201983.0 371489.0 0
205325.0 369671.0 0
205593.0 373050.0 0
208856.0 371349.0 0
212230.0 370079.0 0
215858.0 371765.0 0
222417.0 371327.0 0
226015.0 372814.0 0
232448.0 372275.0 0
238792.0 372159.0 0
241956.0 370273.0 0
245040.0 372420.0 0
248211.0 370726.0 0
254528.0 371398.0 0
257789.0 369755.0 0
260902.0 371768.0 0
264090.0 369868.0 0
267129.0 371712.0 0
273487.0 370844.0 0
279713.0 370672.0 0
282698.0 372490.0 0
285794.0 370512.0 0
288688.0 372262.0 0
291913.0 370255.0 0
294911.0 371975.0 0
298036.0 370058.0 0
200273.0 377121.0 0
202587.0 374883.0 0
209043.0 374659.0 0
212843.0 373610.0 0
219483.0 373339.0 0
223042.0 374903.0 0
229411.0 374395.0 0
235688.0 374121.0 0
241908.0 374218.0 0
248114.0 374614.0 0
251297.0 372966.0 0
257664.0 373516.0 0
263985.0 373746.0 0
270316.0 372848.0 0
273524.0 374438.0 0
276624.0 372577.0 0
279654.0 374423.0 0
285600.0 374303.0 0
291547.0 373902.0 0
298013.0 373797.0 0
299492.0 376971.0 0
194272.0 380846.0 0
197423.0 378889.0 0
200651.0 380184.0 0
205979.0 376538.0 0
211716.0 376655.0 0
216629.0 375355.0 0
220175.0 376954.0 0
226434.0 376525.0 0
229678.0 378235.0 0
232656.0 376154.0 0
235792.0 378055.0 0
238823.0 376100.0 0
244980.0 376346.0 0
251194.0 376802.0 0
254408.0 375165.0 0
257514.0 377287.0 0
260784.0 375583.0 0
263872.0 377659.0 0
266999.0 375698.0 0
270343.0 376217.0 0
276581.0 376272.0 0
282620.0 376309.0 0
285580.0 378194.0 0
288422.0 376059.0 0
291178.0 377550.0 0
294393.0 375437.0 0
296528.0 377506.0 0
298837.0 380106.0 0
302136.0 378633.0 0
304813.0 380307.0 0
191125.0 382816.0 0
194098.0 383832.0 0
197210.0 381784.0 0
200088.0 382974.0 0
203440.0 378602.0 0
206148.0 380448.0 0
208850.0 378443.0 0
211931.0 380196.0 0
214630.0 377948.0 0
215059.0 381605.0 0
217700.0 379230.0 0
220815.0 380803.0 0
223530.0 378622.0 0
226753.0 380338.0 0
232811.0 380070.0 0
238858.0 380052.0 0
241894.0 378162.0 0
244932.0 380270.0 0
248036.0 378501.0 0
251081.0 380652.0 0
254270.0 378960.0 0
260582.0 379382.0 0
266782.0 379951.0 0
270147.0 379488.0 0
273449.0 378019.0 0
276415.0 379962.0 0
279548.0 378184.0 0
282499.0 380100.0 0
288629.0 380036.0 0
293528.0 379181.0 0
298150.0 383329.0 0
301541.0 381866.0 0
307572.0 382027.0 0
310398.0 383791.0 0
187934.0 384815.0 0
190946.0 385812.0 0
197207.0 384875.0 0
203365.0 382528.0 0
209182.0 382139.0 0
212273.0 383784.0 0
218109.0 383058.0 0
223922.0 382479.0 0
229873.0 382129.0 0
235868.0 382006.0 0
241880.0 382111.0 0
244876.0 384203.0 0
247951.0 382397.0 0
254106.0 382787.0 0
257320.0 381082.0 0
260302.0 383213.0 0
263543.0 381542.0 0
269717.0 382829.0 0
273144.0 381561.0 0
276136.0 383582.0 0
279374.0 381917.0 0
285471.0 381970.0 0
288421.0 383813.0 0
291650.0 382053.0 0
294535.0 384268.0 0
295647.0 381184.0 0
301021.0 385035.0 0
304357.0 383546.0 0
307235.0 385281.0 0
313301.0 385600.0 0
181601.0 388785.0 0
184736.0 386824.0 0
187776.0 387895.0 0
191312.0 388691.0 0
194260.0 386824.0 0
197702.0 387745.0 0
200736.0 385607.0 0
203794.0 386175.0 0
206444.0 384104.0 0
209472.0 385791.0 0
215312.0 385309.0 0
221128.0 384666.0 0
226988.0 384230.0 0
232917.0 384011.0 0
238875.0 384014.0 0
241851.0 386067.0 0
247851.0 386310.0 0
250950.0 384524.0 0
257089.0 384915.0 0
263218.0 385399.0 0
266430.0 383842.0 0
272759.0 385045.0 0
279147.0 385584.0 0
282345.0 383861.0 0
285306.0 385760.0 0
291341.0 385731.0 0
297566.0 386394.0 0
303996.0 386741.0 0
310183.0 387026.0 0
313211.0 388800.0 0
316285.0 387462.0 0
319338.0 389368.0 0
178298.0 390840.0 0
184699.0 390105.0 0
188611.0 390691.0 0
194733.0 389777.0 0
197978.0 390822.0 0
200936.0 388627.0 0
203986.0 389739.0 0
206748.0 387783.0 0
209619.0 389512.0 0
212451.0 387451.0 0
215397.0 389044.0 0
218295.0 386866.0 0
221262.0 388511.0 0
224133.0 386363.0 0
227114.0 388142.0 0
230005.0 386060.0 0
232977.0 387969.0 0
235910.0 385969.0 0
238866.0 387983.0 0
244804.0 388148.0 0
250805.0 388422.0 0
253922.0 386648.0 0
256860.0 388775.0 0
260024.0 387059.0 0
266116.0 387654.0 0
269368.0 386340.0 0
272385.0 388541.0 0
275815.0 387126.0 0
282166.0 387596.0 0
288272.0 387592.0 0
291301.0 389400.0 0
294356.0 387713.0 0
297511.0 389650.0 0
300708.0 388177.0 0
303871.0 389939.0 0
307030.0 388511.0 0
310115.0 390242.0 0
313257.0 391984.0 0
316307.0 390644.0 0
322436.0 391303.0 0
174969.0 392917.0 0
177863.0 393944.0 0
181231.0 391909.0 0
183672.0 393680.0 0
186483.0 392656.0 0
191915.0 391713.0 0
195202.0 392931.0 0
198371.0 394093.0 0
201108.0 391792.0 0
206797.0 391481.0 0
212463.0 391179.0 0
218340.0 390651.0 0
224216.0 390239.0 0
230063.0 390002.0 0
232982.0 391933.0 0
235914.0 389942.0 0
238827.0 391961.0 0
241799.0 390034.0 0
244714.0 392106.0 0
247738.0 390242.0 0
253736.0 390536.0 0
259770.0 390913.0 0
262929.0 389236.0 0
269061.0 389956.0 0
275384.0 390600.0 0
278889.0 389173.0 0
281999.0 391269.0 0
285200.0 389535.0 0
288311.0 391328.0 0
294457.0 391199.0 0
300752.0 391403.0 0
304014.0 393176.0 0
307044.0 391765.0 0
310214.0 393475.0 0
316438.0 393825.0 0
319444.0 392550.0 0
322599.0 394486.0 0
325564.0 393256.0 0
168292.0 397089.0 0
171630.0 395003.0 0
174516.0 395990.0 0
180569.0 395305.0 0
183440.0 396940.0 0
186651.0 395848.0 0
189498.0 394091.0 0
192620.0 394860.0 0
201077.0 395137.0 0
203954.0 393334.0 0
206506.0 395217.0 0
209505.0 393274.0 0
212308.0 394879.0 0
215359.0 392775.0 0
221282.0 392331.0 0
227149.0 392051.0 0
230054.0 393942.0 0
235876.0 393919.0 0
241723.0 394009.0 0
247618.0 394190.0 0
250657.0 392342.0 0
256646.0 392653.0 0
262675.0 393061.0 0
265841.0 391435.0 0
268783.0 393631.0 0
272036.0 392111.0 0
274979.0 394173.0 0
278310.0 392575.0 0
281012.0 394529.0 0
285265.0 393245.0 0
291528.0 393018.0 0
294791.0 394695.0 0
297714.0 392974.0 0
301002.0 394676.0 0
307247.0 395098.0 0
310411.0 396761.0 0
313413.0 395168.0 0
316648.0 397011.0 0
319635.0 395748.0 0
325780.0 396422.0 0
328722.0 395228.0 0
164972.0 399164.0 0
171166.0 398064.0 0
174006.0 399162.0 0
177317.0 397210.0 0
180131.0 398580.0 0
186417.0 398930.0 0
189856.0 397458.0 0
193300.0 397561.0 0
196223.0 396176.0 0
199461.0 397863.0 0
203350.0 396982.0 0
209191.0 397003.0 0
215218.0 396449.0 0
218290.0 394403.0 0
221229.0 396122.0 0
224211.0 394097.0 0
224136.0 397943.0 0
227111.0 395951.0 0
232933.0 395896.0 0
238754.0 395942.0 0
244611.0 396075.0 0
250513.0 396279.0 0
253561.0 394444.0 0
256457.0 396545.0 0
259546.0 394772.0 0
265593.0 395208.0 0
271741.0 395754.0 0
277833.0 396216.0 0
280707.0 398189.0 0
283653.0 396211.0 0
286500.0 397502.0 0
288654.0 394983.0 0
291989.0 396610.0 0
298059.0 396360.0 0
301329.0 397983.0 0
304304.0 396430.0 0
307528.0 398565.0 0
313624.0 398350.0 0
319925.0 398954.0 0
322852.0 397692.0 0
326070.0 399621.0 0
328976.0 398377.0 0
331899.0 397212.0 0
335085.0 399202.0 0
161687.0 401218.0 0
164585.0 402253.0 0
167843.0 400155.0 0
170701.0 401213.0 0
176807.0 400486.0 0
179625.0 401783.0 0
183038.0 400052.0 0
185795.0 402166.0 0
189217.0 400699.0 0
192542.0 400240.0 0
196207.0 399374.0 0
202310.0 400087.0 0
205973.0 398818.0 0
208726.0 400673.0 0
212031.0 398478.0 0
218183.0 398108.0 0
221115.0 399896.0 0
227007.0 399847.0 0
229981.0 397878.0 0
232830.0 399857.0 0
235795.0 397896.0 0
238650.0 399924.0 0
241626.0 397989.0 0
247495.0 398149.0 0
253405.0 398367.0 0
259355.0 398639.0 0
262449.0 396884.0 0
265367.0 398979.0 0
268538.0 397336.0 0
274688.0 397839.0 0
277682.0 399894.0 0
283755.0 399827.0 0
289533.0 398826.0 0
292675.0 400334.0 0
295243.0 398234.0 0
298451.0 399814.0 0
304616.0 399644.0 0
310626.0 400109.0 0
313969.0 401446.0 0
316970.0 400170.0 0
320308.0 402171.0 0
323184.0 400929.0 0
329251.0 401576.0 0
332165.0 400349.0 0
338267.0 401191.0 0
158405.0 403269.0 0
161292.0 404302.0 0
167491.0 403325.0 0
170389.0 404489.0 0
173521.0 402406.0 0
176272.0 403800.0 0
182515.0 403112.0 0
188562.0 403816.0 0
191919.0 403232.0 0
195369.0 402413.0 0
198925.0 401310.0 0
201531.0 403474.0 0
205095.0 402150.0 0
211791.0 401885.0 0
215051.0 400036.0 0
214874.0 403582.0 0
218033.0 401787.0 0
223998.0 401784.0 0
229848.0 401811.0 0
235672.0 401870.0 0
241509.0 401969.0 0
244498.0 400049.0 0
247376.0 402113.0 0
250382.0 400226.0 0
253276.0 402298.0 0
256301.0 400449.0 0
262262.0 400717.0 0
268301.0 401041.0 0
271508.0 399423.0 0
274548.0 401470.0 0
280813.0 401818.0 0
286897.0 401180.0 0
290091.0 402546.0 0
295859.0 401881.0 0
301602.0 401329.0 0
304734.0 402704.0 0
307806.0 402242.0 0
311082.0 403391.0 0
314468.0 404448.0 0
317408.0 403297.0 0
323514.0 404253.0 0
326359.0 402883.0 0
329405.0 404864.0 0
332367.0 403552.0 0
335326.0 402335.0 0
338501.0 404312.0 0
341457.0 403186.0 0
151910.0 407331.0 0
155151.0 405304.0 0
158063.0 406372.0 0
160997.0 407470.0 0
164182.0 405380.0 0
167046.0 406501.0 0
173274.0 405802.0 0
176188.0 407370.0 0
179005.0 404937.0 0
181928.0 405957.0 0
185192.0 405579.0 0
188149.0 406808.0 0
191306.0 406346.0 0
194585.0 405631.0 0
198005.0 404611.0 0
204086.0 405538.0 0
207814.0 404128.0 0
211593.0 405158.0 0
217844.0 405471.0 0
220946.0 403668.0 0
223794.0 405633.0 0
226839.0 403742.0 0
232678.0 403812.0 0
238518.0 403901.0 0
244379.0 404021.0 0
250267.0 404176.0 0
256183.0 404360.0 0
259207.0 402518.0 0
262129.0 404566.0 0
265184.0 402769.0 0
268125.0 404777.0 0
271263.0 403042.0 0
274241.0 404953.0 0
277722.0 403478.0 0
281056.0 405419.0 0
284055.0 403421.0 0
287381.0 404787.0 0
293322.0 404020.0 0
296571.0 405551.0 0
299036.0 403407.0 0
302227.0 404833.0 0
305664.0 405680.0 0
308709.0 405891.0 0
311847.0 406721.0 0
315058.0 407386.0 0
317907.0 406424.0 0
320715.0 405445.0 0
323495.0 407799.0 0
326443.0 406282.0 0
332488.0 406796.0 0
335507.0 405501.0 0
341712.0 406304.0 0
344659.0 405188.0 0
347860.0 407188.0 0
148679.0 409353.0 0
154853.0 408412.0 0
157845.0 409538.0 0
163928.0 408636.0 0
166822.0 409863.0 0
169840.0 407699.0 0
172532.0 408949.0 0
179506.0 408220.0 0
183108.0 408704.0 0
186305.0 409170.0 0
189999.0 409566.0 0
193403.0 408989.0 0
196895.0 408005.0 0
200431.0 406848.0 0
205921.0 408032.0 0
208959.0 407092.0 0
211749.0 408892.0 0
214684.0 407137.0 0
220711.0 407461.0 0
226606.0 407638.0 0
229659.0 405740.0 0
232481.0 407758.0 0
235512.0 405834.0 0
241378.0 405942.0 0
247265.0 406074.0 0
253175.0 406231.0 0
259110.0 406406.0 0
265072.0 406582.0 0
271078.0 406722.0 0
277128.0 406770.0 0
279771.0 408479.0 0
284591.0 406976.0 0
290707.0 406179.0 0
294028.0 407651.0 0
299851.0 407018.0 0
303298.0 408198.0 0
306728.0 409004.0 0
310010.0 409449.0 0
313503.0 409949.0 0
317260.0 409783.0 0
320525.0 408943.0 0
326335.0 409714.0 0
329440.0 408191.0 0
335706.0 408664.0 0
338724.0 407439.0 0
341937.0 409442.0 0
344917.0 408322.0 0
351057.0 409186.0 0
145466.0 411364.0 0
151642.0 410453.0 0
154678.0 411551.0 0
157759.0 412754.0 0
160857.0 410720.0 0
163857.0 412003.0 0
169658.0 411193.0 0
172330.0 412688.0 0
174860.0 410463.0 0
177720.0 410850.0 0
180969.0 411339.0 0
184353.0 411863.0 0
188004.0 412122.0 0
191874.0 412335.0 0
195545.0 411397.0 0
199119.0 410339.0 0
202615.0 409112.0 0
208475.0 410455.0 0
214516.0 410899.0 0
217587.0 409191.0 0
223518.0 409495.0 0
229416.0 409660.0 0
235323.0 409785.0 0
238363.0 407867.0 0
241238.0 409902.0 0
244259.0 407985.0 0
247165.0 410025.0 0
250173.0 408122.0 0
253107.0 410158.0 0
256107.0 408273.0 0
262061.0 408426.0 0
268035.0 408555.0 0
271008.0 410483.0 0
274004.0 408610.0 0
276887.0 410455.0 0
282636.0 409641.0 0
285695.0 410770.0 0
288040.0 408364.0 0
291396.0 409779.0 0
297391.0 409175.0 0
300842.0 410500.0 0
304395.0 411594.0 0
308082.0 412349.0 0
311836.0 412551.0 0
315715.0 412530.0 0
319556.0 412191.0 0
323141.0 411432.0 0
329702.0 411409.0 0
332690.0 410008.0 0
335874.0 411865.0 0
338916.0 410584.0 0
345138.0 411483.0 0
348113.0 410335.0 0
351306.0 412329.0 0
354258.0 411189.0 0
142284.0 413356.0 0
145254.0 414573.0 0
148436.0 412511.0 0
151492.0 413591.0 0
154620.0 414709.0 0
160848.0 414027.0 0
163926.0 415441.0 0
166822.0 413348.0 0
169712.0 414880.0 0
175437.0 413744.0 0
178656.0 414097.0 0
182046.0 414477.0 0
185716.0 414719.0 0
189578.0 414939.0 0
194255.0 414659.0 0
197931.0 413747.0 0
201571.0 412549.0 0
205072.0 411479.0 0
207801.0 413771.0 0
211260.0 412452.0 0
217272.0 412998.0 0
220398.0 411281.0 0
223169.0 413371.0 0
226311.0 411533.0 0
232248.0 411687.0 0
238193.0 411814.0 0
244142.0 411935.0 0
250101.0 412057.0 0
256073.0 412179.0 0
259066.0 410294.0 0
262057.0 412289.0 0
265039.0 410414.0 0
268045.0 412363.0 0
273997.0 412362.0 0
279960.0 412040.0 0
283116.0 413278.0 0
288871.0 412073.0 0
292156.0 413384.0 0
294772.0 411211.0 0
298188.0 412742.0 0
301470.0 413967.0 0
304647.0 414908.0 0
307715.0 415513.0 0
310864.0 415456.0 0
324278.0 414597.0 0
326784.0 412865.0 0
329874.0 414772.0 0
332855.0 413296.0 0
339080.0 413745.0 0
342127.0 412599.0 0
345306.0 414679.0 0
348316.0 413514.0 0
354502.0 414350.0 0
357459.0 413191.0 0
360651.0 415189.0 0
136081.0 417242.0 0
139151.0 415319.0 0
142117.0 416634.0 0
148314.0 415680.0 0
151455.0 416737.0 0
154666.0 417868.0 0
157786.0 416009.0 0
160949.0 417366.0 0
166974.0 416898.0 0
172806.0 416149.0 0
176096.0 416926.0 0
189937.0 417883.0 0
193323.0 417716.0 0
196947.0 417143.0 0
200636.0 415812.0 0
204265.0 414797.0 0
210622.0 415925.0 0
214029.0 414567.0 0
220009.0 415142.0 0
225958.0 415414.0 0
229129.0 413564.0 0
231990.0 415590.0 0
235114.0 413714.0 0
241095.0 413843.0 0
247080.0 413961.0 0
253072.0 414075.0 0
259074.0 414176.0 0
265084.0 414249.0 0
271090.0 414264.0 0
274231.0 416066.0 0
277115.0 414097.0 0
280337.0 415605.0 0
286271.0 414488.0 0
289478.0 415718.0 0
295563.0 414716.0 0
299013.0 416498.0 0
302332.0 417634.0 0
305816.0 418322.0 0
314299.0 415367.0 0
317887.0 415204.0 0
321339.0 414934.0 0
323679.0 417951.0 0
326986.0 416465.0 0
333046.0 416642.0 0
336030.0 415103.0 0
339186.0 416925.0 0
342267.0 415783.0 0
348463.0 416734.0 0
351495.0 415494.0 0
357692.0 416390.0 0
363820.0 417172.0 0
130165.0 420941.0 0
139043.0 418679.0 0
142079.0 419939.0 0
145171.0 417800.0 0
148309.0 418861.0 0
151520.0 419884.0 0
157903.0 419304.0 0
161100.0 420706.0 0
164105.0 418929.0 0
167313.0 420339.0 0
170139.0 418459.0 0
173389.0 419530.0 0
179471.0 417221.0 0
182994.0 417415.0 0
186545.0 417553.0 0
191462.0 420691.0 0
195451.0 420494.0 0
199796.0 418997.0 0
203454.0 418030.0 0
207077.0 417074.0 0
213420.0 418172.0 0
216778.0 416765.0 0
219506.0 419002.0 0
222746.0 417263.0 0
228810.0 417437.0 0
234894.0 417615.0 0
238016.0 415739.0 0
240955.0 417760.0 0
244034.0 415865.0 0
247013.0 417876.0 0
250055.0 415976.0 0
253071.0 417974.0 0
256081.0 416073.0 0
259131.0 418046.0 0
262114.0 416144.0 0
265203.0 418070.0 0
268159.0 416165.0 0
271311.0 418005.0 0
277471.0 417721.0 0
283564.0 416917.0 0
286791.0 418156.0 0
292767.0 416904.0 0
296145.0 418058.0 0
300247.0 420470.0 0
303911.0 421051.0 0
309403.0 418563.0 0
312926.0 418417.0 0
316479.0 418249.0 0
320066.0 418071.0 0
327252.0 419698.0 0
330174.0 418163.0 0
333110.0 420166.0 0
336094.0 418416.0 0
339236.0 420079.0 0
342368.0 418979.0 0
345431.0 417912.0 0
351620.0 418678.0 0
354679.0 417534.0 0
357839.0 419621.0 0
360855.0 418443.0 0
363974.0 420482.0 0
366960.0 419139.0 0
127135.0 422828.0 0
133087.0 419122.0 0
136059.0 420693.0 0
139063.0 422089.0 0
145203.0 421040.0 0
148396.0 422049.0 0
151638.0 423019.0 0
154800.0 421008.0 0
158071.0 422680.0 0
164291.0 422421.0 0
167509.0 423593.0 0
170655.0 422068.0 0
174160.0 422806.0 0
176839.0 420055.0 0
180386.0 420239.0 0
183983.0 420368.0 0
187608.0 420558.0 0
198974.0 422050.0 0
206314.0 420353.0 0
209922.0 419353.0 0
212751.0 421729.0 0
216198.0 420507.0 0
222246.0 421159.0 0
225559.0 419256.0 0
231721.0 419459.0 0
237837.0 419638.0 0
243937.0 419770.0 0
250036.0 419873.0 0
256130.0 419951.0 0
262226.0 419983.0 0
268356.0 419935.0 0
274550.0 419739.0 0
277859.0 421352.0 0
280761.0 419219.0 0
284065.0 420574.0 0
290063.0 419314.0 0
293412.0 420377.0 0
296919.0 421123.0 0
307626.0 421415.0 0
311348.0 421462.0 0
314935.0 421348.0 0
318415.0 421226.0 0
321726.0 421131.0 0
324721.0 421166.0 0
330166.0 421651.0 0
333084.0 423824.0 0
336076.0 421765.0 0
339281.0 423122.0 0
342464.0 422152.0 0
345527.0 421186.0 0
348554.0 420018.0 0
351656.0 421882.0 0
354771.0 420741.0 0
360941.0 421748.0 0
367054.0 422503.0 0
370068.0 421086.0 0
373153.0 423018.0 0
123986.0 424793.0 0
127064.0 426002.0 0
130260.0 424234.0 0
133206.0 422671.0 0
142162.0 423266.0 0
145333.0 424298.0 0
148526.0 425256.0 0
154930.0 424088.0 0
161261.0 424020.0 0
161290.0 427029.0 0
168189.0 426492.0 0
171605.0 425619.0 0
177812.0 423099.0 0
181460.0 423223.0 0
185111.0 423314.0 0
188819.0 423383.0 0
192508.0 423503.0 0
195864.0 423849.0 0
202671.0 421233.0 0
205540.0 423627.0 0
209157.0 422730.0 0
215534.0 424222.0 0
218939.0 422891.0 0
225146.0 423005.0 0
228484.0 421262.0 0
231463.0 423294.0 0
234674.0 421488.0 0
237657.0 423511.0 0
240821.0 421651.0 0
246967.0 421766.0 0
253103.0 421854.0 0
259232.0 421900.0 0
265376.0 421868.0 0
268580.0 423684.0 0
271583.0 421718.0 0
274877.0 423400.0 0
281216.0 422858.0 0
287408.0 421803.0 0
290861.0 422859.0 0
294542.0 423709.0 0
302106.0 423845.0 0
305895.0 424261.0 0
309722.0 424361.0 0
313454.0 424391.0 0
317074.0 424347.0 0
320609.0 424310.0 0
324027.0 424373.0 0
327245.0 423458.0 0
330055.0 425093.0 0
336182.0 425070.0 0
339383.0 426057.0 0
342490.0 425276.0 0
345599.0 424512.0 0
348564.0 423415.0 0
351532.0 425081.0 0
354745.0 423973.0 0
357869.0 422898.0 0
360949.0 425101.0 0
364005.0 423851.0 0
370092.0 424493.0 0
376239.0 424948.0 0
117644.0 428764.0 0
120796.0 426788.0 0
123817.0 427983.0 0
130233.0 427374.0 0
133311.0 426316.0 0
136164.0 424242.0 0
139245.0 425537.0 0
142456.0 426625.0 0
145724.0 427622.0 0
151696.0 426157.0 0
154837.0 427051.0 0
158050.0 426193.0 0
164582.0 426033.0 0
169792.0 429237.0 0
175339.0 425938.0 0
179043.0 426120.0 0
182718.0 426194.0 0
186395.0 426221.0 0
190089.0 426281.0 0
193823.0 426588.0 0
198660.0 425423.0 0
201984.0 424443.0 0
204624.0 426953.0 0
208249.0 426104.0 0
211908.0 425207.0 0
218305.0 426824.0 0
221739.0 425093.0 0
228209.0 425035.0 0
234436.0 425338.0 0
240705.0 425508.0 0
243859.0 423647.0 0
246947.0 425629.0 0
250044.0 423748.0 0
253165.0 425713.0 0
256215.0 423812.0 0
259371.0 425740.0 0
262383.0 423807.0 0
265581.0 425658.0 0
271829.0 425418.0 0
278243.0 424978.0 0
281701.0 426495.0 0
284615.0 424223.0 0
288095.0 425375.0 0
291640.0 426228.0 0
298501.0 423972.0 0
305031.0 427382.0 0
308445.0 427325.0 0
312040.0 427376.0 0
315684.0 427391.0 0
319328.0 427374.0 0
322996.0 427374.0 0
326797.0 427078.0 0
330455.0 427970.0 0
333882.0 427533.0 0
344936.0 427829.0 0
348345.0 427038.0 0
351581.0 428050.0 0
354759.0 427155.0 0
357876.0 426191.0 0
363884.0 427316.0 0
366991.0 425929.0 0
369978.0 427939.0 0
373131.0 426440.0 0
376220.0 428366.0 0
379350.0 426894.0 0
114516.0 430727.0 0
120715.0 430069.0 0
123898.0 431228.0 0
126900.0 429115.0 0
130083.0 430231.0 0
136362.0 427805.0 0
139638.0 428960.0 0
142985.0 429990.0 0
149021.0 428582.0 0
152344.0 429457.0 0
155919.0 429802.0 0
159155.0 429687.0 0
162794.0 429699.0 0
166124.0 429340.0 0
173194.0 428920.0 0
176787.0 429075.0 0
180408.0 429163.0 0
184004.0 429186.0 0
187540.0 429200.0 0
190969.0 429278.0 0
194238.0 429573.0 0
197302.0 428311.0 0
201070.0 427831.0 0
207118.0 429499.0 0
210815.0 428656.0 0
214546.0 427778.0 0
224901.0 426556.0 0
227754.0 428857.0 0
231143.0 427126.0 0
237495.0 427345.0 0
243810.0 427492.0 0
250077.0 427600.0 0
256329.0 427657.0 0
262571.0 427624.0 0
268820.0 427442.0 0
272080.0 429163.0 0
275098.0 427045.0 0
278347.0 428544.0 0
285340.0 427830.0 0
289096.0 428900.0 0
295130.0 426900.0 0
298429.0 427250.0 0
301726.0 427182.0 0
307078.0 430486.0 0
310615.0 430445.0 0
314209.0 430449.0 0
317833.0 430435.0 0
321471.0 430410.0 0
325139.0 430283.0 0
328629.0 430533.0 0
337472.0 428369.0 0
341414.0 428485.0 0
350494.0 430718.0 0
354169.0 430405.0 0
357537.0 429557.0 0
360753.0 428546.0 0
363547.0 430850.0 0
366791.0 429408.0 0
373035.0 429865.0 0
379366.0 430321.0 0
382490.0 428858.0 0
385635.0 430828.0 0
111404.0 432679.0 0
117633.0 432127.0 0
120877.0 433356.0 0
127223.0 432295.0 0
130861.0 433037.0 0
133441.0 430026.0 0
136836.0 431278.0 0
140249.0 432367.0 0
146397.0 430952.0 0
149895.0 431907.0 0
153505.0 432532.0 0
157069.0 432855.0 0
160588.0 432764.0 0
164156.0 432690.0 0
167663.0 432429.0 0
178243.0 432220.0 0
181825.0 432238.0 0
185396.0 432240.0 0
188946.0 432273.0 0
192515.0 432363.0 0
196325.0 431882.0 0
199766.0 431002.0 0
203467.0 430328.0 0
213161.0 431331.0 0
216850.0 430551.0 0
220466.0 429951.0 0
224040.0 429847.0 0
230804.0 430882.0 0
234210.0 429135.0 0
237422.0 431130.0 0
240631.0 429329.0 0
243779.0 431319.0 0
246948.0 429469.0 0
250130.0 431430.0 0
253251.0 429554.0 0
256466.0 431488.0 0
259535.0 429570.0 0
262779.0 431441.0 0
265811.0 429453.0 0
269086.0 431222.0 0
275328.0 430784.0 0
281453.0 429980.0 0
284487.0 431192.0 0
292800.0 429631.0 0
296433.0 430196.0 0
300038.0 430391.0 0
303530.0 430465.0 0
309092.0 433579.0 0
312692.0 433554.0 0
316309.0 433534.0 0
319940.0 433504.0 0
332410.0 430767.0 0
335870.0 430916.0 0
339670.0 431096.0 0
343546.0 430972.0 0
347158.0 430458.0 0
356677.0 432823.0 0
360217.0 432004.0 0
362937.0 434381.0 0
366449.0 432870.0 0
369793.0 431391.0 0
372984.0 433249.0 0
376197.0 431775.0 0
379341.0 433776.0 0
382504.0 432328.0 0
388776.0 432796.0 0
105229.0 436549.0 0
108309.0 434621.0 0
111494.0 436209.0 0
114556.0 434171.0 0
117826.0 435481.0 0
124260.0 434425.0 0
127830.0 435302.0 0
131389.0 436135.0 0
134213.0 433666.0 0
137585.0 434796.0 0
143720.0 433322.0 0
147308.0 434202.0 0
151045.0 435128.0 0
154678.0 435698.0 0
158343.0 435899.0 0
161953.0 435840.0 0
165557.0 435734.0 0
171207.0 432298.0 0
174680.0 432173.0 0
179768.0 435347.0 0
183377.0 435312.0 0
187008.0 435280.0 0
190694.0 435233.0 0
194538.0 434918.0 0
198349.0 434391.0 0
202011.0 433630.0 0
205740.0 432903.0 0
209452.0 432119.0 0
215310.0 434181.0 0
218978.0 433605.0 0
222671.0 433224.0 0
226587.0 432452.0 0
234202.0 432830.0 0
240574.0 433143.0 0
246967.0 433290.0 0
253354.0 433378.0 0
259716.0 433396.0 0
266058.0 433255.0 0
272378.0 432975.0 0
278535.0 432303.0 0
281797.0 433675.0 0
287625.0 432011.0 0
290959.0 432514.0 0
294501.0 433035.0 0
298176.0 433375.0 0
301840.0 433536.0 0
305474.0 433578.0 0
311107.0 436680.0 0
323578.0 433446.0 0
327140.0 433543.0 0
330757.0 433652.0 0
334421.0 433866.0 0
338093.0 433883.0 0
341878.0 433829.0 0
345648.0 433643.0 0
349201.0 433590.0 0
352927.0 433346.0 0
359162.0 435280.0 0
363859.0 437570.0 0
366658.0 436170.0 0
369760.0 434779.0 0
372855.0 436652.0 0
376131.0 435204.0 0
382475.0 435840.0 0
385633.0 434356.0 0
391908.0 434755.0 0
395063.0 436727.0 0
102107.0 438501.0 0
108463.0 438232.0 0
114771.0 437618.0 0
118154.0 438819.0 0
121223.0 436603.0 0
124748.0 437539.0 0
128325.0 438372.0 0
131956.0 439244.0 0
134900.0 437237.0 0
141031.0 435769.0 0
144628.0 436571.0 0
148374.0 437311.0 0
152234.0 438461.0 0
155979.0 438861.0 0
159703.0 438974.0 0
163367.0 438932.0 0
169108.0 435551.0 0
172651.0 435458.0 0
176185.0 435372.0 0
185070.0 438332.0 0
188812.0 438198.0 0
192658.0 437921.0 0
196532.0 437513.0 0
200375.0 436954.0 0
204138.0 436262.0 0
207889.0 435568.0 0
211613.0 434861.0 0
217297.0 437212.0 0
220931.0 436800.0 0
224476.0 436398.0 0
227891.0 435721.0 0
231050.0 434425.0 0
237350.0 434956.0 0
243762.0 435132.0 0
250197.0 435242.0 0
256616.0 435309.0 0
262994.0 435264.0 0
269382.0 435004.0 0
272740.0 436850.0 0
275651.0 434620.0 0
278986.0 436067.0 0
285234.0 434768.0 0
288817.0 435485.0 0
292489.0 435953.0 0
296238.0 436293.0 0
300017.0 436510.0 0
303759.0 436629.0 0
307449.0 436673.0 0
314747.0 436659.0 0
318387.0 436630.0 0
322025.0 436594.0 0
325630.0 436628.0 0
329250.0 436687.0 0
332889.0 436784.0 0
336603.0 436839.0 0
340328.0 436766.0 0
344071.0 436645.0 0
347771.0 436560.0 0
351521.0 436291.0 0
355327.0 435865.0 0
366559.0 439873.0 0
369607.0 438379.0 0
372625.0 440029.0 0
376001.0 438615.0 0
379279.0 437252.0 0
385572.0 437946.0 0
388734.0 436381.0 0
391845.0 438323.0 0
398257.0 438725.0 0
98934.3 440485.0 0
105396.0 440130.0 0
111747.0 439770.0 0
115119.0 441077.0 0
121639.0 439820.0 0
125164.0 440672.0 0
128687.0 441433.0 0
138308.0 438304.0 0
141902.0 439076.0 0
145591.0 439717.0 0
149298.0 440335.0 0
153725.0 441810.0 0
157457.0 442046.0 0
161184.0 442097.0 0
167007.0 438831.0 0
170589.0 438718.0 0
174174.0 438619.0 0
177764.0 438520.0 0
181395.0 438435.0 0
194622.0 440597.0 0
198515.0 440139.0 0
202367.0 439588.0 0
206155.0 438968.0 0
209908.0 438345.0 0
213624.0 437743.0 0
223144.0 439976.0 0
226986.0 439231.0 0
230734.0 438101.0 0
234121.0 436638.0 0
237272.0 438830.0 0
240521.0 436949.0 0
243745.0 438933.0 0
246992.0 437092.0 0
250273.0 439031.0 0
253472.0 437187.0 0
256777.0 439126.0 0
259904.0 437226.0 0
263203.0 439104.0 0
266303.0 437056.0 0
269683.0 438728.0 0
276097.0 438475.0 0
282516.0 437239.0 0
286280.0 438178.0 0
290241.0 438786.0 0
294248.0 439197.0 0
298162.0 439432.0 0
301986.0 439617.0 0
305744.0 439733.0 0
313138.0 439790.0 0
316803.0 439772.0 0
320455.0 439747.0 0
324091.0 439750.0 0
327732.0 439772.0 0
331388.0 439810.0 0
335084.0 439822.0 0
338818.0 439778.0 0
342545.0 439670.0 0
346259.0 439554.0 0
350001.0 439328.0 0
353719.0 438966.0 0
357354.0 438553.0 0
360768.0 438124.0 0
372602.0 443176.0 0
375899.0 441969.0 0
379175.0 440734.0 0
382396.0 439399.0 0
388618.0 440041.0 0
391717.0 441884.0 0
395021.0 440284.0 0
401479.0 440742.0 0
92454.6 444532.0 0
95726.4 442487.0 0
99011.5 444092.0 0
102235.0 442071.0 0
105634.0 443656.0 0
108743.0 441887.0 0
112105.0 443364.0 0
118611.0 442155.0 0
122176.0 443072.0 0
125775.0 443868.0 0
132171.0 442191.0 0
135528.0 440880.0 0
139219.0 441682.0 0
142963.0 442306.0 0
146694.0 442858.0 0
150477.0 443204.0 0
155299.0 445158.0 0
164878.0 442051.0 0
168533.0 441978.0 0
172169.0 441873.0 0
175801.0 441761.0 0
179447.0 441619.0 0
183141.0 441453.0 0
186899.0 441248.0 0
190737.0 440964.0 0
200463.0 442829.0 0
204303.0 442316.0 0
208089.0 441769.0 0
211838.0 441231.0 0
215572.0 440746.0 0
219326.0 440319.0 0
230521.0 441503.0 0
233991.0 440356.0 0
240436.0 440727.0 0
247038.0 440874.0 0
253574.0 440983.0 0
260121.0 441072.0 0
266497.0 440859.0 0
273192.0 440794.0 0
279582.0 439723.0 0
283192.0 440651.0 0
286633.0 441534.0 0
289950.0 442123.0 0
293275.0 442387.0 0
296731.0 442457.0 0
309455.0 439783.0 0
315183.0 442919.0 0
318859.0 442907.0 0
322523.0 442897.0 0
326188.0 442894.0 0
329866.0 442893.0 0
333572.0 442875.0 0
337305.0 442818.0 0
341051.0 442725.0 0
344789.0 442599.0 0
348536.0 442400.0 0
352275.0 442107.0 0
355959.0 441764.0 0
359585.0 441404.0 0
363145.0 440911.0 0
369326.0 442199.0 0
375461.0 445378.0 0
378862.0 444253.0 0
382186.0 443013.0 0
385424.0 441613.0 0
391595.0 445359.0 0
394959.0 443816.0 0
398249.0 442310.0 0
401459.0 444393.0 0
404703.0 442763.0 0
89127.6 446615.0 0
95776.1 446031.0 0
102321.0 445600.0 0
105708.0 447006.0 0
109075.0 445636.0 0
115631.0 444522.0 0
119271.0 445489.0 0
122980.0 446334.0 0
129402.0 444577.0 0
133204.0 444925.0 0
136741.0 444436.0 0
140493.0 444993.0 0
144254.0 445530.0 0
148036.0 445938.0 0
151826.0 446056.0 0
159029.0 445248.0 0
170177.0 445133.0 0
173845.0 445025.0 0
177514.0 444866.0 0
181214.0 444648.0 0
184972.0 444384.0 0
188799.0 444069.0 0
192678.0 443704.0 0
196579.0 443291.0 0
206180.0 445144.0 0
209935.0 444676.0 0
213628.0 444239.0 0
217237.0 443907.0 0
220744.0 443673.0 0
224098.0 443587.0 0
227152.0 442710.0 0
237070.0 442805.0 0
243811.0 442706.0 0
250309.0 442810.0 0
256925.0 442915.0 0
263492.0 443011.0 0
269836.0 442256.0 0
276776.0 442324.0 0
280533.0 443300.0 0
284169.0 444214.0 0
287800.0 444976.0 0
291444.0 445435.0 0
300360.0 442620.0 0
304066.0 442774.0 0
307784.0 442871.0 0
311492.0 442913.0 0
317234.0 446072.0 0
320927.0 446063.0 0
324619.0 446046.0 0
328322.0 446021.0 0
332043.0 445976.0 0
335789.0 445905.0 0
339551.0 445802.0 0
343321.0 445669.0 0
347099.0 445489.0 0
350876.0 445237.0 0
354628.0 444928.0 0
358353.0 444571.0 0
362087.0 444108.0 0
365802.0 443354.0 0
371843.0 446139.0 0
378172.0 447751.0 0
381711.0 446633.0 0
385128.0 445347.0 0
388410.0 443804.0 0
394885.0 447332.0 0
398189.0 445922.0 0
404619.0 446486.0 0
407912.0 444773.0 0
411121.0 446784.0 0
85792.7 448708.0 0
92449.6 448082.0 0
95886.1 449509.0 0
99141.9 447759.0 0
102515.0 449160.0 0
112665.0 446928.0 0
116388.0 447925.0 0
120198.0 448786.0 0
126741.0 447053.0 0
130633.0 447550.0 0
134534.0 447748.0 0
138172.0 447818.0 0
141915.0 448290.0 0
145706.0 448730.0 0
156912.0 448455.0 0
162773.0 445247.0 0
166485.0 445206.0 0
179301.0 447918.0 0
183048.0 447606.0 0
186856.0 447244.0 0
190722.0 446856.0 0
194617.0 446454.0 0
198507.0 446039.0 0
202368.0 445603.0 0
211764.0 447685.0 0
215456.0 447360.0 0
219125.0 447119.0 0
222791.0 446968.0 0
226527.0 446637.0 0
229711.0 444973.0 0
233388.0 443988.0 0
240599.0 444303.0 0
243613.0 446619.0 0
246998.0 444692.0 0
250381.0 446543.0 0
253648.0 444758.0 0
256957.0 446664.0 0
260308.0 444899.0 0
263741.0 446919.0 0
266948.0 444766.0 0
270845.0 445450.0 0
274520.0 445344.0 0
278202.0 446039.0 0
281902.0 446943.0 0
285634.0 447709.0 0
295082.0 445615.0 0
298707.0 445715.0 0
302382.0 445846.0 0
306093.0 445960.0 0
309816.0 446033.0 0
313531.0 446067.0 0
345643.0 448584.0 0
349456.0 448359.0 0
353260.0 448078.0 0
357045.0 447736.0 0
360831.0 447292.0 0
364630.0 446692.0 0
368349.0 445933.0 0
374473.0 448643.0 0
384535.0 449060.0 0
388048.0 447698.0 0
391505.0 448649.0 0
397962.0 449607.0 0
401301.0 448116.0 0
407772.0 448540.0 0
410965.0 450561.0 0
414353.0 448805.0 0
79250.0 452810.0 0
82503.1 450780.0 0
89108.5 450255.0 0
92497.5 451597.0 0
95976.9 452802.0 0
99485.1 451547.0 0
106115.0 450191.0 0
109790.0 449439.0 0
113557.0 450443.0 0
117427.0 451265.0 0
124060.0 449556.0 0
128013.0 450109.0 0
131972.0 450526.0 0
135828.0 450843.0 0
139587.0 451130.0 0
143392.0 451558.0 0
149522.0 449004.0 0
153309.0 448966.0 0
160674.0 448433.0 0
164439.0 448417.0 0
168174.0 448375.0 0
171888.0 448296.0 0
175593.0 448154.0 0
181142.0 450919.0 0
184920.0 450502.0 0
188766.0 450063.0 0
192651.0 449645.0 0
196538.0 449248.0 0
200406.0 448859.0 0
204239.0 448466.0 0
208026.0 448069.0 0
221112.0 450304.0 0
224934.0 450074.0 0
228774.0 449873.0 0
231637.0 447469.0 0
235258.0 447044.0 0
238817.0 447151.0 0
247135.0 448421.0 0
253661.0 448591.0 0
260236.0 448666.0 0
268580.0 448254.0 0
272546.0 448673.0 0
276244.0 449102.0 0
279904.0 449836.0 0
289400.0 448298.0 0
293176.0 448642.0 0
296915.0 448823.0 0
300632.0 448947.0 0
304363.0 449062.0 0
308105.0 449153.0 0
311846.0 449212.0 0
315579.0 449239.0 0
319304.0 449239.0 0
323025.0 449219.0 0
326752.0 449180.0 0
330494.0 449118.0 0
334255.0 449029.0 0
338036.0 448910.0 0
341834.0 448764.0 0
355685.0 450904.0 0
359505.0 450504.0 0
363304.0 449993.0 0
367052.0 449409.0 0
370661.0 449142.0 0
377134.0 451124.0 0
380888.0 450181.0 0
387249.0 451634.0 0
390885.0 451812.0 0
394541.0 450883.0 0
400963.0 451922.0 0
404384.0 450267.0 0
414226.0 452571.0 0
417630.0 450853.0 0
420958.0 452933.0 0
75907.5 454897.0 0
79353.6 456590.0 0
85873.3 452497.0 0
89318.0 453958.0 0
92858.9 455125.0 0
103173.0 452650.0 0
107063.0 453267.0 0
110860.0 453152.0 0
114754.0 453869.0 0
121338.0 452041.0 0
125411.0 452683.0 0
129381.0 453183.0 0
133315.0 453630.0 0
137195.0 454024.0 0
147232.0 451918.0 0
151079.0 452088.0 0
154876.0 451972.0 0
158620.0 451655.0 0
162402.0 451618.0 0
166173.0 451601.0 0
169929.0 451554.0 0
173674.0 451446.0 0
177415.0 451254.0 0
183020.0 453867.0 0
186830.0 453338.0 0
190695.0 452872.0 0
194571.0 452470.0 0
198437.0 452105.0 0
202279.0 451756.0 0
206090.0 451411.0 0
209867.0 451073.0 0
213616.0 450764.0 0
217355.0 450505.0 0
230724.0 453262.0 0
233110.0 450409.0 0
236813.0 450378.0 0
240575.0 450275.0 0
244186.0 450350.0 0
250358.0 450287.0 0
256938.0 450417.0 0
263207.0 450766.0 0
266797.0 451336.0 0
270516.0 451695.0 0
274258.0 452185.0 0
283598.0 450515.0 0
287355.0 451129.0 0
291174.0 451568.0 0
294994.0 451853.0 0
298790.0 452033.0 0
302569.0 452164.0 0
306347.0 452271.0 0
310122.0 452353.0 0
313890.0 452402.0 0
317649.0 452420.0 0
321403.0 452408.0 0
325157.0 452365.0 0
328922.0 452292.0 0
332702.0 452188.0 0
336502.0 452054.0 0
340321.0 451890.0 0
344156.0 451700.0 0
348001.0 451480.0 0
351848.0 451221.0 0
361973.0 453275.0 0
365770.0 452777.0 0
369507.0 452364.0 0
373298.0 451838.0 0
379773.0 453648.0 0
383557.0 452695.0 0
389797.0 454985.0 0
393671.0 454306.0 0
397455.0 453326.0 0
404053.0 454087.0 0
407532.0 452334.0 0
410774.0 454340.0 0
417551.0 454613.0 0
424323.0 455038.0 0
69217.8 459088.0 0
72554.5 456997.0 0
75982.7 458724.0 0
82696.7 454708.0 0
86231.8 456358.0 0
96601.1 455948.0 0
100415.0 455327.0 0
104424.0 455972.0 0
108458.0 456361.0 0
118670.0 454567.0 0
122755.0 455234.0 0
126798.0 455831.0 0
130758.0 456331.0 0
141037.0 454408.0 0
144899.0 454817.0 0
148774.0 455124.0 0
152645.0 455226.0 0
156604.0 454953.0 0
160401.0 454838.0 0
164182.0 454824.0 0
167960.0 454801.0 0
171741.0 454729.0 0
175526.0 454581.0 0
179304.0 454336.0 0
184945.0 456712.0 0
188760.0 456147.0 0
192613.0 455712.0 0
196467.0 455353.0 0
200308.0 455030.0 0
204128.0 454723.0 0
207928.0 454422.0 0
211710.0 454135.0 0
215483.0 453875.0 0
219265.0 453651.0 0
223079.0 453441.0 0
226905.0 453269.0 0
234676.0 453582.0 0
238529.0 453571.0 0
242326.0 453592.0 0
246203.0 453457.0 0
249955.0 453784.0 0
253604.0 452531.0 0
257182.0 453959.0 0
260938.0 453821.0 0
264711.0 454364.0 0
268500.0 454790.0 0
277941.0 452779.0 0
281639.0 453430.0 0
285356.0 454032.0 0
289166.0 454488.0 0
293015.0 454831.0 0
296866.0 455074.0 0
300703.0 455245.0 0
304530.0 455375.0 0
308350.0 455481.0 0
312160.0 455557.0 0
315957.0 455600.0 0
319745.0 455605.0 0
323531.0 455570.0 0
327321.0 455494.0 0
331123.0 455381.0 0
334942.0 455232.0 0
338782.0 455052.0 0
342639.0 454847.0 0
346509.0 454619.0 0
350388.0 454365.0 0
354268.0 454073.0 0
358133.0 453717.0 0
364435.0 456099.0 0
368247.0 455646.0 0
372077.0 455117.0 0
375926.0 454454.0 0
382355.0 456257.0 0
386118.0 455388.0 0
392477.0 457672.0 0
396406.0 456851.0 0
400484.0 455763.0 0
407296.0 456140.0 0
410613.0 458126.0 0
414100.0 456321.0 0
417483.0 458370.0 0
420918.0 456708.0 0
427703.0 457154.0 0
65855.3 461193.0 0
72704.0 460912.0 0
79458.3 460272.0 0
83084.3 458702.0 0
89921.3 457686.0 0
93819.6 458520.0 0
98224.6 458798.0 0
101973.0 458835.0 0
105900.0 459263.0 0
112262.0 456662.0 0
116153.0 457259.0 0
120104.0 457832.0 0
124174.0 458461.0 0
128191.0 459023.0 0
134694.0 456806.0 0
138603.0 457254.0 0
142492.0 457694.0 0
146375.0 458113.0 0
150237.0 458402.0 0
154606.0 458090.0 0
158429.0 458080.0 0
162201.0 458067.0 0
165981.0 458055.0 0
169783.0 458001.0 0
173609.0 457886.0 0
177448.0 457697.0 0
181270.0 457422.0 0
202145.0 458021.0 0
205955.0 457750.0 0
209753.0 457487.0 0
213545.0 457237.0 0
217337.0 457010.0 0
221139.0 456805.0 0
224944.0 456640.0 0
228739.0 456569.0 0
232541.0 456645.0 0
236432.0 456784.0 0
240272.0 456825.0 0
244102.0 456803.0 0
247838.0 456905.0 0
251640.0 456988.0 0
255276.0 457072.0 0
259070.0 457225.0 0
262752.0 457465.0 0
272243.0 455218.0 0
275963.0 455755.0 0
279673.0 456364.0 0
283363.0 457026.0 0
287169.0 457457.0 0
291023.0 457811.0 0
294898.0 458089.0 0
329515.0 458605.0 0
333355.0 458446.0 0
337213.0 458250.0 0
341091.0 458026.0 0
344984.0 457786.0 0
348887.0 457527.0 0
352797.0 457242.0 0
356708.0 456925.0 0
360591.0 456540.0 0
370785.0 458432.0 0
374659.0 457811.0 0
378523.0 457083.0 0
384889.0 459009.0 0
388633.0 458372.0 0
395097.0 460328.0 0
399158.0 459391.0 0
403772.0 457896.0 0
410573.0 461927.0 0
414019.0 460052.0 0
420853.0 460509.0 0
424290.0 458851.0 0
431080.0 459271.0 0
434452.0 461383.0 0
62481.0 463305.0 0
69377.1 463023.0 0
76257.7 462614.0 0
81103.4 463496.0 0
86904.4 460204.0 0
91247.8 461213.0 0
95608.2 461644.0 0
99536.3 462035.0 0
109811.0 459677.0 0
113682.0 460089.0 0
117608.0 460608.0 0
121562.0 461132.0 0
132144.0 459540.0 0
136085.0 460040.0 0
140005.0 460538.0 0
143895.0 461041.0 0
147743.0 461512.0 0
152579.0 461070.0 0
186846.0 459495.0 0
190655.0 458986.0 0
194490.0 458612.0 0
198323.0 458302.0 0
211563.0 460594.0 0
215363.0 460374.0 0
219164.0 460175.0 0
222962.0 460012.0 0
226752.0 459911.0 0
230541.0 459904.0 0
234360.0 459963.0 0
242034.0 460091.0 0
245814.0 460164.0 0
249591.0 460247.0 0
266499.0 457853.0 0
270257.0 458274.0 0
273994.0 458749.0 0
277720.0 459309.0 0
281377.0 460122.0 0
285182.0 460491.0 0
289034.0 460828.0 0
298776.0 458299.0 0
302649.0 458458.0 0
306517.0 458585.0 0
310379.0 458694.0 0
314222.0 458770.0 0
318049.0 458804.0 0
321869.0 458787.0 0
325689.0 458720.0 0
339518.0 461237.0 0
343430.0 460982.0 0
347351.0 460713.0 0
351282.0 460426.0 0
355221.0 460117.0 0
359165.0 459795.0 0
363055.0 459406.0 0
366919.0 458955.0 0
377238.0 460520.0 0
381089.0 459781.0 0
387436.0 461887.0 0
391247.0 461150.0 0
397699.0 462971.0 0
402341.0 461437.0 0
407103.0 459973.0 0
413937.0 463774.0 0
417406.0 462150.0 0
424193.0 462705.0 0
427646.0 461029.0 0
437827.0 463496.0 0
66012.4 465151.0 0
69568.8 466973.0 0
72961.8 464862.0 0
78132.6 466046.0 0
84952.5 463586.0 0
88828.5 464053.0 0
93042.6 464583.0 0
103406.0 462244.0 0
107312.0 462629.0 0
111223.0 463040.0 0
115135.0 463472.0 0
119076.0 463958.0 0
125608.0 461718.0 0
129575.0 462271.0 0
133528.0 462800.0 0
137458.0 463339.0 0
141348.0 463906.0 0
145172.0 464509.0 0
156401.0 461256.0 0
160186.0 461320.0 0
163974.0 461328.0 0
167788.0 461284.0 0
171639.0 461179.0 0
175526.0 461016.0 0
179407.0 460818.0 0
183254.0 460588.0 0
188662.0 462293.0 0
192485.0 461880.0 0
196313.0 461574.0 0
200137.0 461313.0 0
203952.0 461067.0 0
207760.0 460827.0 0
220965.0 463384.0 0
224759.0 463269.0 0
228550.0 463218.0 0
232350.0 463229.0 0
236164.0 463285.0 0
238206.0 460052.0 0
253346.0 460373.0 0
257085.0 460473.0 0
260817.0 460688.0 0
264542.0 460968.0 0
268291.0 461338.0 0
272044.0 461767.0 0
275788.0 462268.0 0
279391.0 463302.0 0
292916.0 461113.0 0
296813.0 461343.0 0
300715.0 461524.0 0
304619.0 461669.0 0
308525.0 461794.0 0
312432.0 461919.0 0
316306.0 461996.0 0
320166.0 462010.0 0
324022.0 461962.0 0
327876.0 461857.0 0
331737.0 461694.0 0
335616.0 461482.0 0
345794.0 463928.0 0
349734.0 463637.0 0
353681.0 463325.0 0
357640.0 462997.0 0
361638.0 462708.0 0
365553.0 462280.0 0
369455.0 461772.0 0
373353.0 461186.0 0
379805.0 463285.0 0
383641.0 462576.0 0
390014.0 464723.0 0
393838.0 463907.0 0
400112.0 465786.0 0
403758.0 464910.0 0
407298.0 463807.0 0
417272.0 465974.0 0
420725.0 464362.0 0
427518.0 464971.0 0
430985.0 463198.0 0
434316.0 465354.0 0
82682.7 466902.0 0
86603.6 467194.0 0
90574.8 467603.0 0
96973.3 465034.0 0
100926.0 465344.0 0
104831.0 465638.0 0
108748.0 466010.0 0
112671.0 466416.0 0
123035.0 464459.0 0
127011.0 465021.0 0
130965.0 465567.0 0
134895.0 466125.0 0
138780.0 466728.0 0
150455.0 463926.0 0
154269.0 464341.0 0
158085.0 464534.0 0
161904.0 464601.0 0
165745.0 464587.0 0
169617.0 464486.0 0
173550.0 464308.0 0
177472.0 464151.0 0
181367.0 463988.0 0
185227.0 463836.0 0
190412.0 465138.0 0
194258.0 464835.0 0
198092.0 464595.0 0
201917.0 464375.0 0
205735.0 464159.0 0
209548.0 463945.0 0
213358.0 463737.0 0
217164.0 463546.0 0
239988.0 463355.0 0
243788.0 463430.0 0
247575.0 463515.0 0
251347.0 463625.0 0
255114.0 463749.0 0
258858.0 463910.0 0
262603.0 464143.0 0
266351.0 464439.0 0
270112.0 464806.0 0
273878.0 465243.0 0
283200.0 463596.0 0
287050.0 463895.0 0
290932.0 464168.0 0
294835.0 464401.0 0
298750.0 464594.0 0
302672.0 464750.0 0
306601.0 464880.0 0
310542.0 465001.0 0
314506.0 465169.0 0
318416.0 465228.0 0
322314.0 465211.0 0
326205.0 465128.0 0
330094.0 464978.0 0
333992.0 464754.0 0
337923.0 464475.0 0
341857.0 464205.0 0
356068.0 466236.0 0
360016.0 465893.0 0
364176.0 465622.0 0
368098.0 465134.0 0
372017.0 464575.0 0
375925.0 463957.0 0
386197.0 465446.0 0
392559.0 467564.0 0
396354.0 466674.0 0
410128.0 466426.0 0
413781.0 467406.0 0
420454.0 468297.0 0
423990.0 466607.0 0
75766.9 469207.0 0
79797.5 469621.0 0
94537.8 468169.0 0
98441.0 468411.0 0
102364.0 468712.0 0
106283.0 469033.0 0
116601.0 466849.0 0
120544.0 467319.0 0
124486.0 467823.0 0
128431.0 468364.0 0
132355.0 468924.0 0
136237.0 469536.0 0
142588.0 467406.0 0
148137.0 466645.0 0
152000.0 467321.0 0
155867.0 467679.0 0
159742.0 467845.0 0
163624.0 467885.0 0
167537.0 467824.0 0
171556.0 467583.0 0
175506.0 467449.0 0
179428.0 467327.0 0
183325.0 467213.0 0
187204.0 467124.0 0
192119.0 468052.0 0
195992.0 467852.0 0
199841.0 467667.0 0
203677.0 467480.0 0
207505.0 467289.0 0
211327.0 467097.0 0
215143.0 466916.0 0
218954.0 466756.0 0
222757.0 466633.0 0
226555.0 466559.0 0
230353.0 466538.0 0
234157.0 466564.0 0
237966.0 466621.0 0
241772.0 466699.0 0
245568.0 466786.0 0
249353.0 466888.0 0
253132.0 467006.0 0
256900.0 467151.0 0
260661.0 467338.0 0
264426.0 467580.0 0
277396.0 466544.0 0
281218.0 466768.0 0
285068.0 467018.0 0
288948.0 467265.0 0
292851.0 467489.0 0
296769.0 467683.0 0
300697.0 467845.0 0
304631.0 467978.0 0
308571.0 468092.0 0
312525.0 468207.0 0
316629.0 468439.0 0
320568.0 468458.0 0
324497.0 468408.0 0
328420.0 468286.0 0
332349.0 468074.0 0
336321.0 467737.0 0
340276.0 467452.0 0
344225.0 467170.0 0
348172.0 466876.0 0
352120.0 466565.0 0
362401.0 468771.0 0
366739.0 468525.0 0
370662.0 467980.0 0
374585.0 467394.0 0
378493.0 466773.0 0
382365.0 466122.0 0
398910.0 469504.0 0
402699.0 468644.0 0
406465.0 467682.0 0
412974.0 470920.0 0
416812.0 469870.0 0
423770.0 470520.0 0
84277.1 470392.0 0
88227.0 470771.0 0
92148.0 471258.0 0
99883.1 471805.0 0
110210.0 469402.0 0
114142.0 469804.0 0
118077.0 470237.0 0
122012.0 470706.0 0
125941.0 471210.0 0
129858.0 471756.0 0
140045.0 470243.0 0
145668.0 469395.0 0
149512.0 470079.0 0
153549.0 470746.0 0
157481.0 471035.0 0
161411.0 471168.0 0
165348.0 471161.0 0
169608.0 470841.0 0
173545.0 470731.0 0
177467.0 470638.0 0
181378.0 470551.0 0
185280.0 470477.0 0
189180.0 470434.0 0
193811.0 471045.0 0
197711.0 470924.0 0
201580.0 470781.0 0
205432.0 470621.0 0
209273.0 470451.0 0
213105.0 470282.0 0
216929.0 470127.0 0
220745.0 470001.0 0
224555.0 469913.0 0
228360.0 469871.0 0
232163.0 469875.0 0
235968.0 469914.0 0
239772.0 469981.0 0
243574.0 470064.0 0
247369.0 470160.0 0
251159.0 470269.0 0
254944.0 470398.0 0
258725.0 470554.0 0
268200.0 467878.0 0
271989.0 468240.0 0
275388.0 469832.0 0
279227.0 469993.0 0
283085.0 470193.0 0
286965.0 470407.0 0
290867.0 470613.0 0
294785.0 470801.0 0
298713.0 470963.0 0
330651.0 471435.0 0
334751.0 471019.0 0
338708.0 470724.0 0
342661.0 470437.0 0
346613.0 470143.0 0
350563.0 469834.0 0
354513.0 469509.0 0
358459.0 469164.0 0
369295.0 471418.0 0
373219.0 470840.0 0
377140.0 470252.0 0
381045.0 469649.0 0
384914.0 469023.0 0
388752.0 468343.0 0
395113.0 470409.0 0
401476.0 472371.0 0
405315.0 471499.0 0
409114.0 470549.0 0
415724.0 473675.0 0
419972.0 472212.0 0
81478.6 473205.0 0
85865.1 473945.0 0
89794.7 474424.0 0
95969.5 472295.0 0
103825.0 472104.0 0
107757.0 472438.0 0
111693.0 472806.0 0
115631.0 473207.0 0
119567.0 473643.0 0
123496.0 474117.0 0
133741.0 472355.0 0
137563.0 473053.0 0
143145.0 472245.0 0
146969.0 472901.0 0
150875.0 473447.0 0
155175.0 474189.0 0
159117.0 474413.0 0
211051.0 473643.0 0
214892.0 473496.0 0
218723.0 473369.0 0
222547.0 473273.0 0
226364.0 473219.0 0
230175.0 473205.0 0
233982.0 473229.0 0
237788.0 473282.0 0
241594.0 473356.0 0
245397.0 473445.0 0
262509.0 470747.0 0
266304.0 470983.0 0
270118.0 471267.0 0
273368.0 473155.0 0
277225.0 473261.0 0
281094.0 473414.0 0
284979.0 473592.0 0
302648.0 471100.0 0
306586.0 471214.0 0
310527.0 471312.0 0
314477.0 471398.0 0
318800.0 471709.0 0
322755.0 471691.0 0
326704.0 471609.0 0
337152.0 474022.0 0
341104.0 473733.0 0
345056.0 473437.0 0
349009.0 473129.0 0
352964.0 472805.0 0
356919.0 472465.0 0
360875.0 472092.0 0
364815.0 471644.0 0
375753.0 473732.0 0
379680.0 473160.0 0
383591.0 472582.0 0
387479.0 471964.0 0
391332.0 471284.0 0
397647.0 473242.0 0
404027.0 475280.0 0
407891.0 474462.0 0
411819.0 474473.0 0
418871.0 476037.0 0
423242.0 474451.0 0
83148.0 476819.0 0
87385.1 477596.0 0
93604.2 475506.0 0
101382.0 475209.0 0
105319.0 475520.0 0
109259.0 475855.0 0
113203.0 476223.0 0
117146.0 476626.0 0
127410.0 474631.0 0
131298.0 475203.0 0
135140.0 475865.0 0
140611.0 475185.0 0
144444.0 475800.0 0
148345.0 476340.0 0
163060.0 474521.0 0
167642.0 474050.0 0
171577.0 474008.0 0
175494.0 473941.0 0
179407.0 473873.0 0
183317.0 473810.0 0
187228.0 473763.0 0
191148.0 473750.0 0
195516.0 474114.0 0
199439.0 474046.0 0
203328.0 473933.0 0
207199.0 473794.0 0
228186.0 476549.0 0
232001.0 476561.0 0
249198.0 473544.0 0
252997.0 473657.0 0
256796.0 473787.0 0
260600.0 473940.0 0
264418.0 474120.0 0
268260.0 474330.0 0
271335.0 476502.0 0
275213.0 476563.0 0
288882.0 473775.0 0
292799.0 473950.0 0
296728.0 474109.0 0
300663.0 474247.0 0
304603.0 474364.0 0
308543.0 474460.0 0
312488.0 474535.0 0
316442.0 474566.0 0
320972.0 474973.0 0
324948.0 474939.0 0
328902.0 474828.0 0
333192.0 474304.0 0
347454.0 476451.0 0
351410.0 476128.0 0
355371.0 475787.0 0
359341.0 475424.0 0
363312.0 475028.0 0
367257.0 474524.0 0
371829.0 474309.0 0
382185.0 476123.0 0
386108.0 475565.0 0
390010.0 474961.0 0
393882.0 474299.0 0
400154.0 476117.0 0
406567.0 478272.0 0
410506.0 478062.0 0
97530.4 476000.0 0
102884.0 478642.0 0
106836.0 478950.0 0
121083.0 477068.0 0
125005.0 477554.0 0
128904.0 478092.0 0
132769.0 478705.0 0
138079.0 478191.0 0
141929.0 478761.0 0
145829.0 479288.0 0
152295.0 476780.0 0
156833.0 477662.0 0
160811.0 477795.0 0
165637.0 477225.0 0
169575.0 477263.0 0
173501.0 477237.0 0
177416.0 477190.0 0
181330.0 477139.0 0
185244.0 477092.0 0
189165.0 477062.0 0
193104.0 477064.0 0
197255.0 477252.0 0
201194.0 477211.0 0
205104.0 477114.0 0
208989.0 476996.0 0
212849.0 476864.0 0
216695.0 476738.0 0
220533.0 476636.0 0
224365.0 476572.0 0
235813.0 476602.0 0
239625.0 476665.0 0
243436.0 476743.0 0
247247.0 476833.0 0
251059.0 476932.0 0
254875.0 477040.0 0
258699.0 477158.0 0
262540.0 477289.0 0
266410.0 477430.0 0
279095.0 476674.0 0
282988.0 476816.0 0
286894.0 476973.0 0
290812.0 477132.0 0
294741.0 477283.0 0
298678.0 477419.0 0
302619.0 477537.0 0
306562.0 477636.0 0
310510.0 477711.0 0
314464.0 477753.0 0
318426.0 477737.0 0
323100.0 478229.0 0
327105.0 478242.0 0
331621.0 477592.0 0
335593.0 477339.0 0
339549.0 477058.0 0
343501.0 476760.0 0
353809.0 479139.0 0
357776.0 478776.0 0
361752.0 478391.0 0
365787.0 477965.0 0
369732.0 477429.0 0
374316.0 477223.0 0
378251.0 476665.0 0
392500.0 478032.0 0
396397.0 477381.0 0
402670.0 479041.0 0
91207.2 478704.0 0
95145.3 479189.0 0
99074.4 479692.0 0
104427.0 482089.0 0
110789.0 479282.0 0
114743.0 479650.0 0
118693.0 480058.0 0
122632.0 480515.0 0
126548.0 481023.0 0
130439.0 481588.0 0
135559.0 481248.0 0
139426.0 481778.0 0
149770.0 479749.0 0
153736.0 480128.0 0
158669.0 481081.0 0
163593.0 480398.0 0
167545.0 480498.0 0
171485.0 480522.0 0
175411.0 480505.0 0
179328.0 480469.0 0
183244.0 480427.0 0
187162.0 480389.0 0
191090.0 480366.0 0
195038.0 480372.0 0
199038.0 480450.0 0
202994.0 480406.0 0
206918.0 480325.0 0
210812.0 480232.0 0
214668.0 480113.0 0
218516.0 480003.0 0
222362.0 479928.0 0
226196.0 479899.0 0
230020.0 479904.0 0
233841.0 479936.0 0
237661.0 479989.0 0
241481.0 480058.0 0
245303.0 480137.0 0
249129.0 480223.0 0
252961.0 480312.0 0
256804.0 480402.0 0
260667.0 480491.0 0
264562.0 480572.0 0
269291.0 479869.0 0
273190.0 479892.0 0
277088.0 479965.0 0
280990.0 480075.0 0
284902.0 480206.0 0
288823.0 480346.0 0
292753.0 480486.0 0
296691.0 480617.0 0
300633.0 480735.0 0
304578.0 480835.0 0
308526.0 480914.0 0
312479.0 480965.0 0
316440.0 480976.0 0
320406.0 480939.0 0
325064.0 481532.0 0
330038.0 480896.0 0
334027.0 480666.0 0
337993.0 480407.0 0
341949.0 480113.0 0
345900.0 479804.0 0
349852.0 479480.0 0
360172.0 481775.0 0
364170.0 481360.0 0
368261.0 480917.0 0
372211.0 480380.0 0
376756.0 480171.0 0
380701.0 479651.0 0
384648.0 479141.0 0
388587.0 478611.0 0
398927.0 480447.0 0
405189.0 482048.0 0
409124.0 481722.0 0
94988.7 483172.0 0
108393.0 482388.0 0
112356.0 482716.0 0
116321.0 483084.0 0
120276.0 483506.0 0
124217.0 483987.0 0
128135.0 484516.0 0
143324.0 482284.0 0
147252.0 482751.0 0
151213.0 483160.0 0
155513.0 483350.0 0
161587.0 483624.0 0
165528.0 483734.0 0
169467.0 483799.0 0
185154.0 483733.0 0
189073.0 483699.0 0
192998.0 483676.0 0
196935.0 483676.0 0
200900.0 483679.0 0
204848.0 483631.0 0
208775.0 483567.0 0
212674.0 483512.0 0
216506.0 483385.0 0
220359.0 483286.0 0
224201.0 483252.0 0
228034.0 483256.0 0
231865.0 483281.0 0
235695.0 483326.0 0
239527.0 483387.0 0
243362.0 483456.0 0
247202.0 483531.0 0
251050.0 483604.0 0
254911.0 483671.0 0
267241.0 483248.0 0
271160.0 483242.0 0
275074.0 483284.0 0
278987.0 483363.0 0
282906.0 483468.0 0
286831.0 483589.0 0
290764.0 483716.0 0
294702.0 483840.0 0
298645.0 483955.0 0
322308.0 484209.0 0
332451.0 483992.0 0
336443.0 483775.0 0
340407.0 483492.0 0
344352.0 483187.0 0
348294.0 482866.0 0
352243.0 482524.0 0
356202.0 482160.0 0
370713.0 483896.0 0
374670.0 483387.0 0
379135.0 483172.0 0
383095.0 482692.0 0
387060.0 482216.0 0
391025.0 481723.0 0
394990.0 481126.0 0
401478.0 483504.0 0
100669.0 483341.0 0
106020.0 485540.0 0
109990.0 485832.0 0
113967.0 486149.0 0
117932.0 486531.0 0
121888.0 486970.0 0
133063.0 484340.0 0
136946.0 484841.0 0
140836.0 485333.0 0
144727.0 485798.0 0
148587.0 486240.0 0
152371.0 486670.0 0
173398.0 483816.0 0
177320.0 483801.0 0
181238.0 483770.0 0
218362.0 486652.0 0
222198.0 486607.0 0
226035.0 486613.0 0
229879.0 486634.0 0
233722.0 486674.0 0
237566.0 486728.0 0
258793.0 483726.0 0
262710.0 483758.0 0
269128.0 486609.0 0
273056.0 486624.0 0
276981.0 486677.0 0
280906.0 486759.0 0
302591.0 484058.0 0
306538.0 484142.0 0
310485.0 484203.0 0
314432.0 484232.0 0
318375.0 484227.0 0
327997.0 483994.0 0
342845.0 486611.0 0
346751.0 486290.0 0
350677.0 485947.0 0
354621.0 485580.0 0
358584.0 485192.0 0
362561.0 484785.0 0
366599.0 484339.0 0
377086.0 486457.0 0
381457.0 486230.0 0
385428.0 485791.0 0
389401.0 485354.0 0
393491.0 484819.0 0
397542.0 484192.0 0
97753.8 486049.0 0
102329.0 486968.0 0
107630.0 488998.0 0
111648.0 489257.0 0
125837.0 487482.0 0
130596.0 487453.0 0
134498.0 487939.0 0
138402.0 488421.0 0
142302.0 488890.0 0
146188.0 489344.0 0
156079.0 486978.0 0
159773.0 486955.0 0
163591.0 487023.0 0
167478.0 487092.0 0
171393.0 487131.0 0
175313.0 487137.0 0
179233.0 487120.0 0
183150.0 487090.0 0
187067.0 487055.0 0
190985.0 487020.0 0
194909.0 486992.0 0
198844.0 486967.0 0
202793.0 486933.0 0
206736.0 486881.0 0
210672.0 486841.0 0
214589.0 486856.0 0
241415.0 486789.0 0
245270.0 486854.0 0
249135.0 486915.0 0
253013.0 486965.0 0
256913.0 486995.0 0
260847.0 486990.0 0
265190.0 486637.0 0
284837.0 486860.0 0
288772.0 486972.0 0
292713.0 487087.0 0
296658.0 487199.0 0
300604.0 487302.0 0
304551.0 487392.0 0
308494.0 487464.0 0
312431.0 487512.0 0
316351.0 487535.0 0
320237.0 487541.0 0
324063.0 487543.0 0
327758.0 487659.0 0
331437.0 487519.0 0
335172.0 487244.0 0
338975.0 486921.0 0
349107.0 489414.0 0
353033.0 489042.0 0
356979.0 488646.0 0
360946.0 488233.0 0
364960.0 487800.0 0
369020.0 487344.0 0
373125.0 486919.0 0
387704.0 488950.0 0
391837.0 488437.0 0
396025.0 487877.0 0
400511.0 487370.0 0
99419.1 489676.0 0
103996.0 490598.0 0
109370.0 492403.0 0
115610.0 489601.0 0
119563.0 489994.0 0
123512.0 490447.0 0
128152.0 490574.0 0
132074.0 491058.0 0
135997.0 491533.0 0
139918.0 492001.0 0
150050.0 489786.0 0
153904.0 490164.0 0
157772.0 490347.0 0
161609.0 490379.0 0
165482.0 490424.0 0
169386.0 490462.0 0
173305.0 490481.0 0
177228.0 490477.0 0
181150.0 490457.0 0
185071.0 490425.0 0
188989.0 490388.0 0
192909.0 490348.0 0
196834.0 490307.0 0
200765.0 490259.0 0
204703.0 490204.0 0
208646.0 490149.0 0
212605.0 490137.0 0
220114.0 489932.0 0
223996.0 489970.0 0
227870.0 489988.0 0
231733.0 490028.0 0
235594.0 490078.0 0
239458.0 490134.0 0
243328.0 490190.0 0
247210.0 490242.0 0
251105.0 490282.0 0
255021.0 490296.0 0
258968.0 490267.0 0
263145.0 490034.0 0
267098.0 489988.0 0
271038.0 489984.0 0
274972.0 490014.0 0
278905.0 490074.0 0
282841.0 490156.0 0
286780.0 490253.0 0
290723.0 490357.0 0
294670.0 490464.0 0
298619.0 490566.0 0
302568.0 490660.0 0
306514.0 490742.0 0
310452.0 490807.0 0
314377.0 490854.0 0
318277.0 490887.0 0
322142.0 490915.0 0
325962.0 490973.0 0
329804.0 490931.0 0
333636.0 490716.0 0
337469.0 490415.0 0
341321.0 490090.0 0
345202.0 489761.0 0
355367.0 492142.0 0
359321.0 491715.0 0
363306.0 491279.0 0
367359.0 490832.0 0
371415.0 490391.0 0
375475.0 490003.0 0
379446.0 489585.0 0
383727.0 489345.0 0
394342.0 491488.0 0
398631.0 490888.0 0
98351.9 493520.0 0
113316.0 492721.0 0
117265.0 493073.0 0
121214.0 493466.0 0
125651.0 493642.0 0
129656.0 494187.0 0
133609.0 494660.0 0
143833.0 492458.0 0
147746.0 492900.0 0
151667.0 493304.0 0
155605.0 493599.0 0
159534.0 493733.0 0
163447.0 493778.0 0
167365.0 493812.0 0
171291.0 493835.0 0
175222.0 493841.0 0
179153.0 493831.0 0
183080.0 493807.0 0
187005.0 493773.0 0
190927.0 493730.0 0
194849.0 493682.0 0
198772.0 493625.0 0
202695.0 493560.0 0
206616.0 493490.0 0
210530.0 493433.0 0
214432.0 493463.0 0
218119.0 493186.0 0
221951.0 493324.0 0
225847.0 493336.0 0
229729.0 493383.0 0
233606.0 493436.0 0
237485.0 493489.0 0
241371.0 493540.0 0
245268.0 493584.0 0
249179.0 493616.0 0
253109.0 493624.0 0
257067.0 493588.0 0
261115.0 493438.0 0
265077.0 493380.0 0
269025.0 493360.0 0
272966.0 493372.0 0
276905.0 493413.0 0
280844.0 493476.0 0
284786.0 493557.0 0
288732.0 493650.0 0
292682.0 493749.0 0
296634.0 493849.0 0
300586.0 493944.0 0
304537.0 494032.0 0
308483.0 494109.0 0
312421.0 494173.0 0
328036.0 494285.0 0
331945.0 494150.0 0
335841.0 493902.0 0
339730.0 493596.0 0
343620.0 493268.0 0
347522.0 492922.0 0
351436.0 492547.0 0
365674.0 494334.0 0
369731.0 493899.0 0
373744.0 493504.0 0
377777.0 493140.0 0
381756.0 492761.0 0
385952.0 492515.0 0
390126.0 492023.0 0
401287.0 493868.0 0
102277.0 494191.0 0
106209.0 494670.0 0
111010.0 495876.0 0
114979.0 496198.0 0
118935.0 496552.0 0
123164.0 496770.0 0
137553.0 495128.0 0
141491.0 495585.0 0
145431.0 496023.0 0
149388.0 496432.0 0
153369.0 496795.0 0
204646.0 496871.0 0
208561.0 496787.0 0
212485.0 496718.0 0
219465.0 496838.0 0
223791.0 496662.0 0
227705.0 496734.0 0
231600.0 496798.0 0
235494.0 496852.0 0
239395.0 496900.0 0
274906.0 496773.0 0
278849.0 496819.0 0
282794.0 496885.0 0
286742.0 496965.0 0
316345.0 494225.0 0
320250.0 494268.0 0
324138.0 494306.0 0
338059.0 497095.0 0
341985.0 496788.0 0
345906.0 496454.0 0
349828.0 496093.0 0
353747.0 495685.0 0
357686.0 495241.0 0
361652.0 494783.0 0
376031.0 496667.0 0
380041.0 496323.0 0
384023.0 495979.0 0
388362.0 495579.0 0
392608.0 495076.0 0
396925.0 494493.0 0
99990.4 497458.0 0
103949.0 497900.0 0
107912.0 498282.0 0
112693.0 499343.0 0
116655.0 499698.0 0
127115.0 497206.0 0
131240.0 497802.0 0
135202.0 498267.0 0
139157.0 498730.0 0
157389.0 497028.0 0
161367.0 497120.0 0
165320.0 497168.0 0
169267.0 497197.0 0
173212.0 497211.0 0
177155.0 497212.0 0
181094.0 497197.0 0
185028.0 497169.0 0
188958.0 497130.0 0
192885.0 497081.0 0
196808.0 497021.0 0
200729.0 496951.0 0
243306.0 496940.0 0
247228.0 496967.0 0
251167.0 496972.0 0
255128.0 496943.0 0
259112.0 496849.0 0
263072.0 496784.0 0
267021.0 496752.0 0
270965.0 496749.0 0
290693.0 497055.0 0
294647.0 497149.0 0
298603.0 497244.0 0
302559.0 497335.0 0
306514.0 497419.0 0
310465.0 497494.0 0
314409.0 497558.0 0
318347.0 497611.0 0
322279.0 497648.0 0
326221.0 497644.0 0
330170.0 497556.0 0
334121.0 497363.0 0
348195.0 499649.0 0
352133.0 499277.0 0
356047.0 498819.0 0
360002.0 498324.0 0
363986.0 497858.0 0
368027.0 497418.0 0
372035.0 497031.0 0
386477.0 499071.0 0
390813.0 498636.0 0
395177.0 498080.0 0
399560.0 497474.0 0
98276.6 501065.0 0
102239.0 501476.0 0
120702.0 499971.0 0
124662.0 500335.0 0
128625.0 500747.0 0
132864.0 501421.0 0
136827.0 501884.0 0
143109.0 499167.0 0
147073.0 499572.0 0
151055.0 499950.0 0
155166.0 500254.0 0
159281.0 500440.0 0
163264.0 500516.0 0
167234.0 500560.0 0
171197.0 500584.0 0
175155.0 500594.0 0
179109.0 500590.0 0
183057.0 500573.0 0
186999.0 500541.0 0
190935.0 500496.0 0
194867.0 500438.0 0
198794.0 500367.0 0
202715.0 500283.0 0
206630.0 500184.0 0
210546.0 500072.0 0
214471.0 499922.0 0
218148.0 500591.0 0
221843.0 499967.0 0
225697.0 500084.0 0
229582.0 500166.0 0
233486.0 500224.0 0
237401.0 500271.0 0
241324.0 500309.0 0
245257.0 500334.0 0
249201.0 500340.0 0
253158.0 500320.0 0
257125.0 500262.0 0
261080.0 500202.0 0
265027.0 500161.0 0
268971.0 500145.0 0
272913.0 500153.0 0
276857.0 500184.0 0
280802.0 500234.0 0
284751.0 500301.0 0
288704.0 500380.0 0
292659.0 500468.0 0
296618.0 500560.0 0
300578.0 500651.0 0
304539.0 500739.0 0
308500.0 500819.0 0
312461.0 500891.0 0
316420.0 500952.0 0
320382.0 500995.0 0
324352.0 501001.0 0
328342.0 500957.0 0
332344.0 500807.0 0
336329.0 500575.0 0
340295.0 500302.0 0
344247.0 499991.0 0
358360.0 501907.0 0
362315.0 501409.0 0
366315.0 500954.0 0
370314.0 500568.0 0
374299.0 500212.0 0
378286.0 499869.0 0
382282.0 499544.0 0
396872.0 501666.0 0
400843.0 501253.0 0
106210.0 501854.0 0
110160.0 502305.0 0
114325.0 502867.0 0
118307.0 503204.0 0
122263.0 503526.0 0
126208.0 503890.0 0
130162.0 504282.0 0
134498.0 505054.0 0
140791.0 502341.0 0
144758.0 502743.0 0
148738.0 503112.0 0
152853.0 503424.0 0
157075.0 503674.0 0
161211.0 503861.0 0
165198.0 503922.0 0
169178.0 503959.0 0
173151.0 503979.0 0
177120.0 503985.0 0
181084.0 503979.0 0
185041.0 503959.0 0
188992.0 503923.0 0
192937.0 503869.0 0
196878.0 503802.0 0
200813.0 503719.0 0
204742.0 503616.0 0
208670.0 503482.0 0
212622.0 503310.0 0
218152.0 504504.0 0
223577.0 503417.0 0
227511.0 503537.0 0
231446.0 503601.0 0
235383.0 503650.0 0
239324.0 503688.0 0
243268.0 503715.0 0
247219.0 503725.0 0
251176.0 503713.0 0
255137.0 503676.0 0
259092.0 503629.0 0
263040.0 503586.0 0
266983.0 503560.0 0
270925.0 503555.0 0
274868.0 503571.0 0
278813.0 503606.0 0
282761.0 503658.0 0
286714.0 503726.0 0
290670.0 503805.0 0
294630.0 503892.0 0
298592.0 503982.0 0
302557.0 504070.0 0
306525.0 504154.0 0
310494.0 504230.0 0
314468.0 504296.0 0
318447.0 504348.0 0
322433.0 504371.0 0
326429.0 504341.0 0
330516.0 504234.0 0
334573.0 504045.0 0
338563.0 503804.0 0
342544.0 503526.0 0
346521.0 503202.0 0
350491.0 502859.0 0
354449.0 502479.0 0
360639.0 504995.0 0
364604.0 504512.0 0
368581.0 504113.0 0
372560.0 503764.0 0
376540.0 503427.0 0
380522.0 503101.0 0
384723.0 502635.0 0
388901.0 502206.0 0
392897.0 501974.0 0
99934.9 504812.0 0
103904.0 505091.0 0
107853.0 505507.0 0
111819.0 505924.0 0
115938.0 506423.0 0
119894.0 506784.0 0
123831.0 507097.0 0
127755.0 507445.0 0
138465.0 505518.0 0
142464.0 505954.0 0
146445.0 506304.0 0
150539.0 506600.0 0
154773.0 506853.0 0
159001.0 507104.0 0
194969.0 507248.0 0
198924.0 507168.0 0
202871.0 507071.0 0
206811.0 506940.0 0
210748.0 506746.0 0
214712.0 506503.0 0
221474.0 506696.0 0
225418.0 506904.0 0
229384.0 506980.0 0
233347.0 507033.0 0
237311.0 507072.0 0
241268.0 507106.0 0
245228.0 507122.0 0
257105.0 507062.0 0
261056.0 507022.0 0
265001.0 506991.0 0
268943.0 506976.0 0
272884.0 506979.0 0
276828.0 506999.0 0
280774.0 507038.0 0
284725.0 507092.0 0
288680.0 507162.0 0
292639.0 507242.0 0
336796.0 507302.0 0
340791.0 507058.0 0
344811.0 506754.0 0
348796.0 506430.0 0
352771.0 506092.0 0
356737.0 505733.0 0
370807.0 507321.0 0
374784.0 506994.0 0
378765.0 506666.0 0
382960.0 506201.0 0
387111.0 505785.0 0
391091.0 505524.0 0
395121.0 505260.0 0
399109.0 504962.0 0
100687.0 508772.0 0
104685.0 508993.0 0
108664.0 509396.0 0
131686.0 507817.0 0
163169.0 507287.0 0
167160.0 507337.0 0
171145.0 507366.0 0
175126.0 507382.0 0
179103.0 507385.0 0
183078.0 507376.0 0
187049.0 507354.0 0
191012.0 507311.0 0
218011.0 508460.0 0
249188.0 507121.0 0
253149.0 507098.0 0
296601.0 507328.0 0
300568.0 507416.0 0
304538.0 507501.0 0
308513.0 507580.0 0
312493.0 507649.0 0
316479.0 507707.0 0
320474.0 507747.0 0
324501.0 507735.0 0
328600.0 507634.0 0
332737.0 507490.0 0
362894.0 508094.0 0
366841.0 507666.0 0
392371.0 509288.0 0
396344.0 509053.0 0
400324.0 508829.0 0
112691.0 509792.0 0
116986.0 510225.0 0
121204.0 510506.0 0
125268.0 510744.0 0
129257.0 511021.0 0
133233.0 511314.0 0
136324.0 508840.0 0
140291.0 509257.0 0
144271.0 509587.0 0
148263.0 509814.0 0
152466.0 510039.0 0
156704.0 510296.0 0
160957.0 510539.0 0
165143.0 510719.0 0
169137.0 510761.0 0
173127.0 510783.0 0
177114.0 510793.0 0
181101.0 510792.0 0
185090.0 510779.0 0
189082.0 510759.0 0
193061.0 510704.0 0
197038.0 510627.0 0
201009.0 510536.0 0
204973.0 510420.0 0
208928.0 510254.0 0
212860.0 509970.0 0
218916.0 512193.0 0
223254.0 510257.0 0
227314.0 510362.0 0
231300.0 510420.0 0
235293.0 510456.0 0
239263.0 510506.0 0
243234.0 510527.0 0
247199.0 510538.0 0
251163.0 510528.0 0
255122.0 510504.0 0
259075.0 510469.0 0
263023.0 510437.0 0
266966.0 510415.0 0
270908.0 510407.0 0
274848.0 510415.0 0
278791.0 510440.0 0
282739.0 510480.0 0
286690.0 510539.0 0
290646.0 510610.0 0
294606.0 510692.0 0
298571.0 510778.0 0
302542.0 510863.0 0
306518.0 510943.0 0
310499.0 511016.0 0
314488.0 511077.0 0
318484.0 511127.0 0
322543.0 511129.0 0
326674.0 511048.0 0
330815.0 510910.0 0
334938.0 510771.0 0
338996.0 510588.0 0
343054.0 510303.0 0
347069.0 510000.0 0
351054.0 509689.0 0
355042.0 509354.0 0
359026.0 509091.0 0
364359.0 511655.0 0
368644.0 511082.0 0
372605.0 510783.0 0
376554.0 510499.0 0
380493.0 510200.0 0
384437.0 509863.0 0
388397.0 509543.0 0
102000.0 512690.0 0
106049.0 512743.0 0
110336.0 513016.0 0
114496.0 513342.0 0
118850.0 513736.0 0
122993.0 514033.0 0
126970.0 514292.0 0
130927.0 514550.0 0
134877.0 514784.0 0
138221.0 512645.0 0
142190.0 512948.0 0
146174.0 513164.0 0
150205.0 513270.0 0
154403.0 513492.0 0
158665.0 513743.0 0
162932.0 513984.0 0
167126.0 514159.0 0
171121.0 514192.0 0
175117.0 514209.0 0
179110.0 514212.0 0
183106.0 514204.0 0
187110.0 514187.0 0
191147.0 514170.0 0
195147.0 514094.0 0
199142.0 514007.0 0
203134.0 513903.0 0
207126.0 513763.0 0
211112.0 513560.0 0
215051.0 513092.0 0
221526.0 515068.0 0
225268.0 513754.0 0
229262.0 513821.0 0
233291.0 513830.0 0
237258.0 513916.0 0
241246.0 513939.0 0
245212.0 513963.0 0
249184.0 513965.0 0
253143.0 513956.0 0
257103.0 513925.0 0
261053.0 513895.0 0
264999.0 513869.0 0
268939.0 513854.0 0
272878.0 513853.0 0
276814.0 513865.0 0
280757.0 513891.0 0
284701.0 513937.0 0
288652.0 513998.0 0
292606.0 514075.0 0
296568.0 514157.0 0
300535.0 514241.0 0
304511.0 514322.0 0
308493.0 514397.0 0
312482.0 514462.0 0
316477.0 514517.0 0
320549.0 514521.0 0
324711.0 514462.0 0
328888.0 514347.0 0
333003.0 514216.0 0
337102.0 514089.0 0
341252.0 513850.0 0
345308.0 513569.0 0
349299.0 513279.0 0
353283.0 512982.0 0
357251.0 512674.0 0
361053.0 513848.0 0
366870.0 514610.0 0
370833.0 514332.0 0
374793.0 514063.0 0
378754.0 513790.0 0
382712.0 513470.0 0
386659.0 513140.0 0
390608.0 512862.0 0
394577.0 512688.0 0
398563.0 512722.0 0
213699.0 516836.0 0
217623.0 515934.0 0
231350.0 517214.0 0
286659.0 517405.0 0
100905.0 516746.0 0
104898.0 516713.0 0
108881.0 516737.0 0
112851.0 516979.0 0
116821.0 517180.0 0
120786.0 517360.0 0
124747.0 517605.0 0
128704.0 517847.0 0
132671.0 518062.0 0
137807.0 517275.0 0
141671.0 516877.0 0
145549.0 517076.0 0
149433.0 517129.0 0
153325.0 517272.0 0
157236.0 517413.0 0
161171.0 517514.0 0
165133.0 517575.0 0
169116.0 517609.0 0
173111.0 517633.0 0
177108.0 517642.0 0
181107.0 517636.0 0
185123.0 517619.0 0
189144.0 517597.0 0
193299.0 517593.0 0
197354.0 517533.0 0
201597.0 517543.0 0
205595.0 517402.0 0
209709.0 517280.0 0
219744.0 519122.0 0
223608.0 518379.0 0
227399.0 517326.0 0
235304.0 517387.0 0
239271.0 517344.0 0
243234.0 517408.0 0
247208.0 517398.0 0
251173.0 517423.0 0
255140.0 517389.0 0
259096.0 517367.0 0
263043.0 517335.0 0
266982.0 517321.0 0
270917.0 517307.0 0
274849.0 517320.0 0
278785.0 517322.0 0
282719.0 517362.0 0
290603.0 517480.0 0
294557.0 517553.0 0
298519.0 517638.0 0
302493.0 517716.0 0
306474.0 517794.0 0
310465.0 517862.0 0
314461.0 517921.0 0
318542.0 517922.0 0
322706.0 517872.0 0
326922.0 517781.0 0
331072.0 517680.0 0
335104.0 517592.0 0
339094.0 517524.0 0
343069.0 517387.0 0
347034.0 517156.0 0
350996.0 516880.0 0
354965.0 516906.0 0
358929.0 517215.0 0
362919.0 517389.0 0
367320.0 518456.0 0
371308.0 518216.0 0
375296.0 517968.0 0
379283.0 517716.0 0
383266.0 517402.0 0
387239.0 517070.0 0
391211.0 516802.0 0
395197.0 516732.0 0
399190.0 516757.0 0
102000.0 520690.0 0
106000.0 520667.0 0
110009.0 520659.0 0
114066.0 520787.0 0
118150.0 520952.0 0
122146.0 521129.0 0
126167.0 521325.0 0
130162.0 521517.0 0
134142.0 521675.0 0
138054.0 521175.0 0
141983.0 520849.0 0
145922.0 521024.0 0
149865.0 521055.0 0
153805.0 521187.0 0
157744.0 521334.0 0
161686.0 521442.0 0
165629.0 521513.0 0
169573.0 521550.0 0
173518.0 521575.0 0
177464.0 521590.0 0
181412.0 521586.0 0
185363.0 521573.0 0
189316.0 521557.0 0
193274.0 521561.0 0
197239.0 521494.0 0
201214.0 521487.0 0
205198.0 521341.0 0
209408.0 521256.0 0
213389.0 520815.0 0
217286.0 522189.0 0
222112.0 522204.0 0
225989.0 521494.0 0
229828.0 520819.0 0
233750.0 521158.0 0
237674.0 520944.0 0
241630.0 521064.0 0
245584.0 521010.0 0
249550.0 521151.0 0
253506.0 521015.0 0
257467.0 521006.0 0
261423.0 520970.0 0
265378.0 520973.0 0
269328.0 520954.0 0
273275.0 520985.0 0
277215.0 520965.0 0
281160.0 521018.0 0
285107.0 521051.0 0
289062.0 521140.0 0
293021.0 521210.0 0
296986.0 521302.0 0
300955.0 521374.0 0
304930.0 521452.0 0
308910.0 521515.0 0
312894.0 521569.0 0
316884.0 521522.0 0
320929.0 521426.0 0
325143.0 521333.0 0
329344.0 521262.0 0
333395.0 521200.0 0
337392.0 521131.0 0
341388.0 521011.0 0
345380.0 520902.0 0
349366.0 520863.0 0
353345.0 520925.0 0
357317.0 520870.0 0
361281.0 521050.0 0
365175.0 521767.0 0
369483.0 521735.0 0
373493.0 521512.0 0
377487.0 521273.0 0
381535.0 520996.0 0
385811.0 520791.0 0
390000.0 520659.0 0
394000.0 520667.0 0
398000.0 520690.0 0
230767.0 524665.0 0
101951.0 524690.0 0
105950.0 524667.0 0
109949.0 524658.0 0
113944.0 524783.0 0
117938.0 524944.0 0
121930.0 525121.0 0
125921.0 525304.0 0
129912.0 525469.0 0
133907.0 525581.0 0
138027.0 525100.0 0
142018.0 524842.0 0
146047.0 524992.0 0
150139.0 525006.0 0
154277.0 525114.0 0
158439.0 525237.0 0
162503.0 525329.0 0
166561.0 525382.0 0
170587.0 525396.0 0
174609.0 525401.0 0
178608.0 525401.0 0
182604.0 525379.0 0
186596.0 525353.0 0
190585.0 525326.0 0
194568.0 525320.0 0
198544.0 525245.0 0
202512.0 525245.0 0
206468.0 525103.0 0
210419.0 525132.0 0
214361.0 524823.0 0
218770.0 525896.0 0
222970.0 526037.0 0
226872.0 525350.0 0
234693.0 525091.0 0
238639.0 524786.0 0
242579.0 525093.0 0
246532.0 524871.0 0
250481.0 525160.0 0
254440.0 524894.0 0
258411.0 524890.0 0
262390.0 524842.0 0
266372.0 524846.0 0
270361.0 524809.0 0
274355.0 524837.0 0
278355.0 524780.0 0
282354.0 524822.0 0
286440.0 524798.0 0
290435.0 524882.0 0
294429.0 524933.0 0
298420.0 525021.0 0
302409.0 525081.0 0
306395.0 525157.0 0
310378.0 525217.0 0
314359.0 525273.0 0
318336.0 525226.0 0
322308.0 525168.0 0
326280.0 525153.0 0
330252.0 525145.0 0
334225.0 525109.0 0
338200.0 525041.0 0
342177.0 524931.0 0
346159.0 524880.0 0
350144.0 524854.0 0
354133.0 524880.0 0
358126.0 524876.0 0
362119.0 525051.0 0
366465.0 525505.0 0
370455.0 525535.0 0
374421.0 525354.0 0
378378.0 525138.0 0
382334.0 524900.0 0
386300.0 524752.0 0
390274.0 524657.0 0
394259.0 524671.0 0
398251.0 524695.0 0
101984.0 528690.0 0
105982.0 528667.0 0
109979.0 528658.0 0
113972.0 528780.0 0
117961.0 528941.0 0
121948.0 529119.0 0
125932.0 529291.0 0
129915.0 529434.0 0
133897.0 529506.0 0
137849.0 529035.0 0
141825.0 528833.0 0
145800.0 528960.0 0
149774.0 528958.0 0
153747.0 529042.0 0
157722.0 529142.0 0
161700.0 529226.0 0
165680.0 529268.0 0
169659.0 529274.0 0
173636.0 529267.0 0
177612.0 529263.0 0
181585.0 529233.0 0
185557.0 529203.0 0
189526.0 529171.0 0
193493.0 529156.0 0
197460.0 529075.0 0
201430.0 529080.0 0
205396.0 528939.0 0
209364.0 529047.0 0
213307.0 528653.0 0
217125.0 529719.0 0
221079.0 529490.0 0
225741.0 529160.0 0
229894.0 528551.0 0
233887.0 529006.0 0
237871.0 528688.0 0
241924.0 529036.0 0
245916.0 528808.0 0
249969.0 529124.0 0
253959.0 528859.0 0
257958.0 528863.0 0
261954.0 528812.0 0
265951.0 528823.0 0
269945.0 528781.0 0
273939.0 528819.0 0
277931.0 528741.0 0
281924.0 528788.0 0
285917.0 528743.0 0
289911.0 528834.0 0
293905.0 528881.0 0
297900.0 528973.0 0
301896.0 529030.0 0
305893.0 529110.0 0
309891.0 529171.0 0
313890.0 529228.0 0
317895.0 529182.0 0
321937.0 529138.0 0
325953.0 529126.0 0
329954.0 529122.0 0
333953.0 529094.0 0
337951.0 529026.0 0
341947.0 528924.0 0
345943.0 528880.0 0
349938.0 528854.0 0
353930.0 528879.0 0
357921.0 528871.0 0
361905.0 529045.0 0
365873.0 529418.0 0
369864.0 529426.0 0
373880.0 529280.0 0
377940.0 529089.0 0
381963.0 528875.0 0
385986.0 528732.0 0
390000.0 528659.0 0
394000.0 528667.0 0
398000.0 528690.0 0
102000.0 532690.0 0
106000.0 532667.0 0
110000.0 532658.0 0
113999.0 532777.0 0
117996.0 532937.0 0
121992.0 533114.0 0
125990.0 533277.0 0
129989.0 533401.0 0
133997.0 533437.0 0
138018.0 532983.0 0
142014.0 532827.0 0
146017.0 532935.0 0
150038.0 532923.0 0
154064.0 532998.0 0
158091.0 533099.0 0
162099.0 533185.0 0
166104.0 533231.0 0
170104.0 533237.0 0
174104.0 533229.0 0
178104.0 533223.0 0
182107.0 533189.0 0
186113.0 533155.0 0
190151.0 533113.0 0
194151.0 533087.0 0
198149.0 533000.0 0
202147.0 533003.0 0
206142.0 532857.0 0
210138.0 532971.0 0
214116.0 532562.0 0
218371.0 533514.0 0
222381.0 533221.0 0
226358.0 533097.0 0
230293.0 532520.0 0
234243.0 532988.0 0
238209.0 532654.0 0
242171.0 533027.0 0
246146.0 532789.0 0
250116.0 533120.0 0
254093.0 532851.0 0
258080.0 532860.0 0
262069.0 532804.0 0
266061.0 532821.0 0
270053.0 532773.0 0
274047.0 532817.0 0
278042.0 532724.0 0
282038.0 532776.0 0
286035.0 532721.0 0
290031.0 532818.0 0
294029.0 532861.0 0
298026.0 532956.0 0
302024.0 533010.0 0
306022.0 533091.0 0
310020.0 533151.0 0
314018.0 533207.0 0
318016.0 533162.0 0
322014.0 533125.0 0
326012.0 533113.0 0
330011.0 533112.0 0
334009.0 533087.0 0
338008.0 533018.0 0
342005.0 532923.0 0
346004.0 532880.0 0
350004.0 532855.0 0
354003.0 532878.0 0
358003.0 532876.0 0
362010.0 533043.0 0
366043.0 533371.0 0
370042.0 533368.0 0
374037.0 533246.0 0
378029.0 533069.0 0
382021.0 532866.0 0
386016.0 532726.0 0
390014.0 532659.0 0
394012.0 532667.0 0
398012.0 532690.0 0
102000.0 536690.0 0
106000.0 536667.0 0
110000.0 536658.0 0
114000.0 536775.0 0
118000.0 536934.0 0
122002.0 537109.0 0
126006.0 537263.0 0
130014.0 537372.0 0
134014.0 537381.0 0
137988.0 536944.0 0
141985.0 536825.0 0
145982.0 536918.0 0
149979.0 536901.0 0
153975.0 536970.0 0
157971.0 537072.0 0
161967.0 537163.0 0
165963.0 537213.0 0
169960.0 537223.0 0
173956.0 537217.0 0
177952.0 537212.0 0
181947.0 537177.0 0
185941.0 537144.0 0
189934.0 537098.0 0
193927.0 537067.0 0
197919.0 536979.0 0
201911.0 536986.0 0
205901.0 536840.0 0
209890.0 536962.0 0
213859.0 536548.0 0
217742.0 537462.0 0
221718.0 537122.0 0
225952.0 537063.0 0
230000.0 536541.0 0
233977.0 536974.0 0
237983.0 536635.0 0
241994.0 537020.0 0
245990.0 536777.0 0
249997.0 537115.0 0
253997.0 536846.0 0
257998.0 536858.0 0
261998.0 536799.0 0
265999.0 536820.0 0
269999.0 536767.0 0
273999.0 536817.0 0
277998.0 536710.0 0
281998.0 536767.0 0
285997.0 536701.0 0
289998.0 536805.0 0
293997.0 536843.0 0
297997.0 536941.0 0
301996.0 536992.0 0
305995.0 537074.0 0
309995.0 537133.0 0
313996.0 537188.0 0
317997.0 537144.0 0
321998.0 537112.0 0
325999.0 537101.0 0
329999.0 537103.0 0
333999.0 537080.0 0
337999.0 537010.0 0
341998.0 536922.0 0
345998.0 536880.0 0
349998.0 536855.0 0
353997.0 536878.0 0
357997.0 536876.0 0
361993.0 537042.0 0
365982.0 537329.0 0
369984.0 537321.0 0
373994.0 537220.0 0
377997.0 537053.0 0
381999.0 536858.0 0
386000.0 536720.0 0
390000.0 536659.0 0
394000.0 536667.0 0
398000.0 536690.0 0
102000.0 540690.0 0
106000.0 540667.0 0
110000.0 540658.0 0
114000.0 540773.0 0
118000.0 540930.0 0
121999.0 541104.0 0
125996.0 541250.0 0
129995.0 541346.0 0
133995.0 541333.0 0
138001.0 540914.0 0
142000.0 540824.0 0
146001.0 540905.0 0
150001.0 540882.0 0
154002.0 540946.0 0
158004.0 541049.0 0
162005.0 541145.0 0
166005.0 541198.0 0
170005.0 541211.0 0
174005.0 541207.0 0
178005.0 541204.0 0
182005.0 541169.0 0
186006.0 541137.0 0
190010.0 541087.0 0
194011.0 541053.0 0
198012.0 540964.0 0
202012.0 540976.0 0
206011.0 540829.0 0
210009.0 540959.0 0
214000.0 540553.0 0
218126.0 541438.0 0
222114.0 541063.0 0
226110.0 541050.0 0
230073.0 540540.0 0
234047.0 540969.0 0
238030.0 540625.0 0
242009.0 541016.0 0
246001.0 540769.0 0
250000.0 541112.0 0
254000.0 540842.0 0
258000.0 540857.0 0
262000.0 540794.0 0
266000.0 540820.0 0
270000.0 540762.0 0
274000.0 540817.0 0
278000.0 540698.0 0
282000.0 540758.0 0
286000.0 540683.0 0
290000.0 540792.0 0
294000.0 540826.0 0
298000.0 540927.0 0
302001.0 540975.0 0
306001.0 541058.0 0
310001.0 541116.0 0
314001.0 541170.0 0
318000.0 541127.0 0
322000.0 541100.0 0
326000.0 541090.0 0
330000.0 541095.0 0
334000.0 541072.0 0
338000.0 541003.0 0
342000.0 540921.0 0
346000.0 540880.0 0
350000.0 540855.0 0
354000.0 540878.0 0
358000.0 540876.0 0
362001.0 541041.0 0
366005.0 541290.0 0
370005.0 541283.0 0
374004.0 541198.0 0
378001.0 541042.0 0
382000.0 540850.0 0
386000.0 540715.0 0
390000.0 540659.0 0
394000.0 540667.0 0
398000.0 540690.0 0
102000.0 544690.0 0
106000.0 544667.0 0
110000.0 544657.0 0
114000.0 544771.0 0
118000.0 544926.0 0
122000.0 545098.0 0
126000.0 545238.0 0
130001.0 545323.0 0
134002.0 545294.0 0
138000.0 544890.0 0
142000.0 544823.0 0
146000.0 544895.0 0
150000.0 544867.0 0
154000.0 544927.0 0
158000.0 545030.0 0
162000.0 545128.0 0
166000.0 545185.0 0
170000.0 545200.0 0
174000.0 545198.0 0
178000.0 545197.0 0
182000.0 545162.0 0
185999.0 545131.0 0
189999.0 545077.0 0
193999.0 545041.0 0
197999.0 544952.0 0
201999.0 544968.0 0
205999.0 544821.0 0
210000.0 544957.0 0
214000.0 544553.0 0
221916.0 545024.0 0
225996.0 545041.0 0
230000.0 544547.0 0
233999.0 544964.0 0
238000.0 544617.0 0
242000.0 545013.0 0
246000.0 544763.0 0
250000.0 545109.0 0
254000.0 544839.0 0
258000.0 544856.0 0
262000.0 544790.0 0
266000.0 544820.0 0
270000.0 544758.0 0
274000.0 544816.0 0
278000.0 544687.0 0
282000.0 544751.0 0
286000.0 544667.0 0
290000.0 544780.0 0
294000.0 544811.0 0
298000.0 544914.0 0
302000.0 544959.0 0
306000.0 545043.0 0
310000.0 545100.0 0
314000.0 545153.0 0
318000.0 545113.0 0
322000.0 545089.0 0
326000.0 545080.0 0
330000.0 545088.0 0
334000.0 545065.0 0
338000.0 544997.0 0
342000.0 544921.0 0
346000.0 544880.0 0
350000.0 544855.0 0
354000.0 544878.0 0
358000.0 544876.0 0
362000.0 545039.0 0
365998.0 545254.0 0
369999.0 545252.0 0
374000.0 545182.0 0
378000.0 545032.0 0
382000.0 544842.0 0
386000.0 544711.0 0
390000.0 544659.0 0
394000.0 544667.0 0
398000.0 544690.0 0
217937.0 545429.0 0
102000.0 548690.0 0
106000.0 548667.0 0
110000.0 548657.0 0
114000.0 548770.0 0
118000.0 548923.0 0
122000.0 549093.0 0
126000.0 549227.0 0
130000.0 549303.0 0
134000.0 549263.0 0
138000.0 548871.0 0
142000.0 548823.0 0
146000.0 548887.0 0
150000.0 548855.0 0
154000.0 548911.0 0
158000.0 549013.0 0
162000.0 549114.0 0
166000.0 549173.0 0
170000.0 549190.0 0
174000.0 549190.0 0
178000.0 549190.0 0
182000.0 549156.0 0
186000.0 549125.0 0
190000.0 549068.0 0
194000.0 549031.0 0
198000.0 548942.0 0
202000.0 548961.0 0
206000.0 548814.0 0
210000.0 548955.0 0
214000.0 548553.0 0
218013.0 549424.0 0
222010.0 548993.0 0
226010.0 549036.0 0
230000.0 548547.0 0
234000.0 548960.0 0
238000.0 548612.0 0
242000.0 549011.0 0
246000.0 548758.0 0
250000.0 549107.0 0
254000.0 548836.0 0
258000.0 548855.0 0
262000.0 548786.0 0
266000.0 548819.0 0
270000.0 548754.0 0
274000.0 548816.0 0
278000.0 548679.0 0
282000.0 548745.0 0
286000.0 548653.0 0
290000.0 548770.0 0
294000.0 548797.0 0
298000.0 548903.0 0
302000.0 548945.0 0
306000.0 549030.0 0
310000.0 549086.0 0
314000.0 549139.0 0
318000.0 549100.0 0
322000.0 549079.0 0
326000.0 549072.0 0
330000.0 549082.0 0
334000.0 549059.0 0
338000.0 548991.0 0
342000.0 548920.0 0
346000.0 548880.0 0
350000.0 548855.0 0
354000.0 548878.0 0
358000.0 548876.0 0
362000.0 549038.0 0
366000.0 549223.0 0
370000.0 549228.0 0
374000.0 549169.0 0
378000.0 549025.0 0
382000.0 548836.0 0
386000.0 548707.0 0
390000.0 548659.0 0
394000.0 548667.0 0
398000.0 548690.0 0
102000.0 552690.0 0
106000.0 552667.0 0
110000.0 552657.0 0
114000.0 552769.0 0
118000.0 552920.0 0
122000.0 553088.0 0
126000.0 553218.0 0
130000.0 553287.0 0
134000.0 553240.0 0
138000.0 552857.0 0
142000.0 552822.0 0
146000.0 552881.0 0
150000.0 552845.0 0
154000.0 552899.0 0
158000.0 553000.0 0
162000.0 553102.0 0
166000.0 553163.0 0
170000.0 553182.0 0
174000.0 553183.0 0
178000.0 553185.0 0
182000.0 553151.0 0
186000.0 553121.0 0
190000.0 553061.0 0
194000.0 553022.0 0
198000.0 552933.0 0
202000.0 552956.0 0
206000.0 552808.0 0
210000.0 552954.0 0
214000.0 552553.0 0
221998.0 552969.0 0
226000.0 553032.0 0
230000.0 552547.0 0
234000.0 552956.0 0
238000.0 552608.0 0
242000.0 553009.0 0
246000.0 552755.0 0
250000.0 553105.0 0
254000.0 552834.0 0
258000.0 552854.0 0
262000.0 552783.0 0
266000.0 552819.0 0
270000.0 552752.0 0
274000.0 552816.0 0
278000.0 552672.0 0
282000.0 552741.0 0
286000.0 552642.0 0
290000.0 552762.0 0
294000.0 552786.0 0
298000.0 552893.0 0
302000.0 552933.0 0
306000.0 553019.0 0
310000.0 553074.0 0
314000.0 553127.0 0
318000.0 553089.0 0
322000.0 553071.0 0
326000.0 553066.0 0
330000.0 553078.0 0
334000.0 553053.0 0
338000.0 552986.0 0
342000.0 552920.0 0
346000.0 552880.0 0
350000.0 552855.0 0
354000.0 552878.0 0
358000.0 552876.0 0
362000.0 553036.0 0
366000.0 553198.0 0
370000.0 553209.0 0
374000.0 553159.0 0
378000.0 553019.0 0
382000.0 552830.0 0
386000.0 552704.0 0
390000.0 552659.0 0
394000.0 552667.0 0
398000.0 552690.0 0
217998.0 553420.0 0
102000.0 556690.0 0
106000.0 556667.0 0
110000.0 556657.0 0
114000.0 556768.0 0
118000.0 556918.0 0
122000.0 557084.0 0
126000.0 557211.0 0
130000.0 557274.0 0
134000.0 557223.0 0
138000.0 556848.0 0
142000.0 556822.0 0
146000.0 556877.0 0
150000.0 556838.0 0
154000.0 556890.0 0
158000.0 556990.0 0
162000.0 557093.0 0
166000.0 557155.0 0
170000.0 557175.0 0
174000.0 557178.0 0
178000.0 557180.0 0
182000.0 557147.0 0
186000.0 557117.0 0
190000.0 557055.0 0
194000.0 557016.0 0
198000.0 556926.0 0
202000.0 556952.0 0
206000.0 556803.0 0
210000.0 556953.0 0
214000.0 556553.0 0
218000.0 557418.0 0
222000.0 556951.0 0
226000.0 557030.0 0
230000.0 556547.0 0
234000.0 556954.0 0
238000.0 556605.0 0
242000.0 557007.0 0
246000.0 556752.0 0
250000.0 557104.0 0
254000.0 556833.0 0
258000.0 556853.0 0
262000.0 556781.0 0
266000.0 556819.0 0
270000.0 556750.0 0
274000.0 556816.0 0
278000.0 556667.0 0
282000.0 556737.0 0
286000.0 556634.0 0
290000.0 556756.0 0
294000.0 556778.0 0
298000.0 556886.0 0
302000.0 556924.0 0
306000.0 557010.0 0
310000.0 557065.0 0
314000.0 557117.0 0
318000.0 557081.0 0
322000.0 557066.0 0
326000.0 557061.0 0
330000.0 557074.0 0
334000.0 557049.0 0
338000.0 556983.0 0
342000.0 556920.0 0
346000.0 556880.0 0
350000.0 556855.0 0
354000.0 556878.0 0
358000.0 556876.0 0
362000.0 557035.0 0
366000.0 557178.0 0
370000.0 557195.0 0
374000.0 557152.0 0
378000.0 557014.0 0
382000.0 556826.0 0
386000.0 556702.0 0
390000.0 556659.0 0
394000.0 556667.0 0
398000.0 556690.0 0
102000.0 560690.0 0
106000.0 560667.0 0
110000.0 560657.0 0
114000.0 560767.0 0
118000.0 560917.0 0
138000.0 560841.0 0
142000.0 560822.0 0
146000.0 560875.0 0
150000.0 560834.0 0
154000.0 560884.0 0
158000.0 560983.0 0
194000.0 561012.0 0
198000.0 560922.0 0
202000.0 560949.0 0
206000.0 560800.0 0
210000.0 560952.0 0
214000.0 560553.0 0
222000.0 560938.0 0
230000.0 560547.0 0
234000.0 560952.0 0
238000.0 560603.0 0
246000.0 560751.0 0
254000.0 560831.0 0
258000.0 560853.0 0
262000.0 560780.0 0
266000.0 560818.0 0
270000.0 560749.0 0
274000.0 560816.0 0
278000.0 560664.0 0
282000.0 560735.0 0
286000.0 560628.0 0
290000.0 560752.0 0
294000.0 560772.0 0
298000.0 560881.0 0
302000.0 560918.0 0
306000.0 561005.0 0
342000.0 560920.0 0
346000.0 560880.0 0
350000.0 560855.0 0
354000.0 560878.0 0
358000.0 560876.0 0
362000.0 561034.0 0
366000.0 561165.0 0
382000.0 560823.0 0
386000.0 560701.0 0
390000.0 560659.0 0
394000.0 560667.0 0
398000.0 560690.0 0
122000.0 561082.0 0
126000.0 561206.0 0
130000.0 561266.0 0
134000.0 561212.0 0
162000.0 561087.0 0
166000.0 561150.0 0
170000.0 561171.0 0
174000.0 561174.0 0
178000.0 561177.0 0
182000.0 561144.0 0
186000.0 561114.0 0
190000.0 561051.0 0
218000.0 561416.0 0
226000.0 561028.0 0
242000.0 561006.0 0
250000.0 561103.0 0
310000.0 561059.0 0
314000.0 561111.0 0
318000.0 561076.0 0
322000.0 561062.0 0
326000.0 561058.0 0
330000.0 561072.0 0
334000.0 561046.0 0
338000.0 560980.0 0
370000.0 561187.0 0
374000.0 561148.0 0
378000.0 561011.0 0
102000.0 564690.0 0
106000.0 564667.0 0
110000.0 564657.0 0
114000.0 564767.0 0
118000.0 564916.0 0
122000.0 565081.0 0
126000.0 565204.0 0
130000.0 565261.0 0
134000.0 565207.0 0
138000.0 564838.0 0
142000.0 564822.0 0
146000.0 564873.0 0
150000.0 564831.0 0
154000.0 564881.0 0
158000.0 564980.0 0
162000.0 565085.0 0
166000.0 565147.0 0
170000.0 565168.0 0
174000.0 565172.0 0
178000.0 565175.0 0
182000.0 565143.0 0
186000.0 565113.0 0
190000.0 565049.0 0
194000.0 565010.0 0
198000.0 564919.0 0
202000.0 564947.0 0
206000.0 564798.0 0
210000.0 564952.0 0
214000.0 564553.0 0
218000.0 565415.0 0
222000.0 564932.0 0
226000.0 565028.0 0
230000.0 564547.0 0
234000.0 564951.0 0
238000.0 564603.0 0
242000.0 565006.0 0
246000.0 564750.0 0
250000.0 565103.0 0
254000.0 564831.0 0
258000.0 564852.0 0
262000.0 564779.0 0
266000.0 564818.0 0
270000.0 564748.0 0
274000.0 564816.0 0
278000.0 564662.0 0
282000.0 564734.0 0
286000.0 564625.0 0
290000.0 564750.0 0
294000.0 564769.0 0
298000.0 564879.0 0
302000.0 564915.0 0
306000.0 565002.0 0
310000.0 565056.0 0
314000.0 565108.0 0
318000.0 565073.0 0
322000.0 565060.0 0
326000.0 565056.0 0
330000.0 565071.0 0
334000.0 565045.0 0
338000.0 564979.0 0
342000.0 564920.0 0
346000.0 564880.0 0
350000.0 564855.0 0
354000.0 564878.0 0
358000.0 564876.0 0
362000.0 565033.0 0
366000.0 565158.0 0
370000.0 565182.0 0
374000.0 565146.0 0
378000.0 565009.0 0
382000.0 564822.0 0
386000.0 564700.0 0
390000.0 564659.0 0
394000.0 564667.0 0
398000.0 564690.0 0
POINT_DATA 4650
SCALARS Radius float 1
LOOKUP_TABLE default
4000.0 4000.0 4000.0 4000.0 4000.0 4000.0 4000.0 4000.0 4000.0 4000.0 4000.0 4000.0 4000.0 4000.0 4000.0 4000.0 4000.0 4000.0 4000.0 4000.0 4000.0 4000.0 4000.0 4000.0 4000.0 4000.0 4000.0 4000.0 4000.0 4000.0 4000.0 4000.0 4000.0 4000.0 4000.0 4000.0 4000.0 4000.0 4000.0 4000.0 4000.0 4000.0 4000.0 4000.0 4000.0 4000.0 4000.0 4000.0 4000.0 4000.0 4000.0 4000.0 4000.0 4000.0 4000.0 4000.0 4000.0 4000.0 4000.0 4000.0 4000.0 4000.0 4000.0 4000.0 4000.0 4000.0 4000.0 4000.0 4000.0 4000.0 4000.0 4000.0 4000.0 4000.0 4000.0 4000.0 4000.0 4000.0 4000.0 4000.0 4000.0 4000.0 4000.0 4000.0 4000.0 4000.0 4000.0 4000.0 4000.0 4000.0 4000.0 4000.0 4000.0 4000.0 4000.0 4000.0 4000.0 4000.0 4000.0 4000.0 4000.0 4000.0 4000.0 4000.0 4000.0 4000.0 4000.0 4000.0 4000.0 4000.0 4000.0 4000.0 4000.0 4000.0 4000.0 4000.0 4000.0 4000.0 4000.0 4000.0 4000.0 4000.0 4000.0 4000.0 4000.0 4000.0 4000.0 4000.0 4000.0 4000.0 4000.0 4000.0 4000.0 4000.0 4000.0 4000.0 4000.0 4000.0 4000.0 4000.0 4000.0 4000.0 4000.0 4000.0 4000.0 4000.0 4000.0 4000.0 4000.0 4000.0 4000.0 4000.0 4000.0 4000.0 4000.0 4000.0 4000.0 4000.0 4000.0 4000.0 4000.0 4000.0 4000.0 4000.0 4000.0 4000.0 4000.0 4000.0 4000.0 4000.0 4000.0 4000.0 4000.0 4000.0 4000.0 4000.0 4000.0 4000.0 4000.0 4000.0 4000.0 4000.0 4000.0 4000.0 4000.0 4000.0 4000.0 4000.0 4000.0 4000.0 4000.0 4000.0 4000.0 4000.0 4000.0 4000.0 4000.0 4000.0 4000.0 4000.0 4000.0 4000.0 4000.0 4000.0 4000.0 4000.0 4000.0 4000.0 4000.0 4000.0 4000.0 4000.0 4000.0 4000.0 4000.0 4000.0 4000.0 4000.0 4000.0 4000.0 4000.0 4000.0 4000.0 4000.0 4000.0 4000.0 4000.0 4000.0 4000.0 4000.0 4000.0 4000.0 4000.0 4000.0 4000.0 4000.0 4000.0 4000.0 4000.0 4000.0 4000.0 4000.0 4000.0 4000.0 4000.0 4000.0 4000.0 4000.0 4000.0 4000.0 4000.0 4000.0 4000.0 4000.0 4000.0 4000.0 4000.0 4000.0 4000.0 4000.0 4000.0 4000.0 4000.0 4000.0 4000.0 4000.0 4000.0 4000.0 4000.0 4000.0 4000.0 4000.0 4000.0 4000.0 4000.0 4000.0 4000.0 4000.0 4000.0 4000.0 4000.0 4000.0 4000.0 4000.0 4000.0 4000.0 4000.0 4000.0 4000.0 4000.0 4000.0 4000.0 4000.0 4000.0 4000.0 4000.0 4000.0 4000.0 4000.0 4000.0 4000.0 4000.0 4000.0 4000.0 4000.0 4000.0 4000.0 4000.0 4000.0 4000.0 4000.0 4000.0 4000.0 4000.0 4000.0 4000.0 4000.0 4000.0 4000.0 4000.0 4000.0 4000.0 4000.0 4000.0 4000.0 4000.0 4000.0 4000.0 4000.0 4000.0 4000.0 4000.0 4000.0 4000.0 4000.0 4000.0 4000.0 4000.0 4000.0 4000.0 4000.0 4000.0 4000.0 4000.0 4000.0 4000.0 4000.0 4000.0 4000.0 4000.0 4000.0 4000.0 4000.0 4000.0 4000.0 4000.0 4000.0 4000.0 4000.0 4000.0 4000.0 4000.0 4000.0 4000.0 4000.0 4000.0 4000.0 4000.0 4000.0 4000.0 4000.0 4000.0 4000.0 4000.0 4000.0 4000.0 4000.0 4000.0 4000.0 4000.0 4000.0 4000.0 4000.0 4000.0 4000.0 4000.0 4000.0 4000.0 4000.0 4000.0 4000.0 4000.0 4000.0 4000.0 4000.0 4000.0 4000.0 4000.0 4000.0 4000.0 4000.0 4000.0 4000.0 4000.0 4000.0 4000.0 4000.0 4000.0 4000.0 4000.0 4000.0 4000.0 4000.0 4000.0 4000.0 4000.0 4000.0 4000.0 4000.0 4000.0 4000.0 4000.0 4000.0 4000.0 4000.0 4000.0 4000.0 4000.0 4000.0 4000.0 4000.0 4000.0 4000.0 4000.0 4000.0 4000.0 4000.0 4000.0 4000.0 4000.0 4000.0 4000.0 4000.0 4000.0 4000.0 4000.0 4000.0 4000.0 4000.0 4000.0 4000.0 4000.0 4000.0 4000.0 4000.0 4000.0 4000.0 4000.0 4000.0 4000.0 4000.0 4000.0 4000.0 4000.0 4000.0 4000.0 4000.0 4000.0 4000.0 4000.0 4000.0 4000.0 4000.0 4000.0 4000.0 4000.0 4000.0 4000.0 4000.0 4000.0 4000.0 4000.0 4000.0 4000.0 4000.0 4000.0 4000.0 4000.0 4000.0 4000.0 4000.0 4000.0 4000.0 4000.0 4000.0 4000.0 4000.0 4000.0 4000.0 4000.0 4000.0 4000.0 4000.0 4000.0 4000.0 4000.0 4000.0 4000.0 4000.0 4000.0 4000.0 4000.0 4000.0 4000.0 4000.0 4000.0 4000.0 4000.0 4000.0 4000.0 4000.0 4000.0 4000.0 4000.0 4000.0 4000.0 4000.0 4000.0 4000.0 4000.0 4000.0 4000.0 4000.0 4000.0 4000.0 4000.0 4000.0 4000.0 4000.0 4000.0 4000.0 4000.0 4000.0 4000.0 4000.0 4000.0 4000.0 4000.0 4000.0 4000.0 4000.0 4000.0 4000.0 4000.0 4000.0 4000.0 4000.0 4000.0 4000.0 4000.0 4000.0 4000.0 4000.0 4000.0 4000.0 4000.0 4000.0 4000.0 4000.0 4000.0 4000.0 4000.0 4000.0 4000.0 4000.0 4000.0 4000.0 4000.0 4000.0 4000.0 4000.0 4000.0 4000.0 4000.0 4000.0 4000.0 4000.0 4000.0 4000.0 4000.0 4000.0 4000.0 4000.0 4000.0 4000.0 4000.0 4000.0 4000.0 4000.0 4000.0 4000.0 4000.0 4000.0 4000.0 4000.0 4000.0 4000.0 4000.0 4000.0 4000.0 4000.0 4000.0 4000.0 4000.0 4000.0 4000.0 4000.0 4000.0 4000.0 4000.0 4000.0 4000.0 4000.0 4000.0 4000.0 4000.0 4000.0 4000.0 4000.0 4000.0 4000.0 4000.0 4000.0 4000.0 4000.0 4000.0 4000.0 4000.0 4000.0 4000.0 4000.0 4000.0 4000.0 4000.0 4000.0 4000.0 4000.0 4000.0 4000.0 4000.0 4000.0 4000.0 4000.0 4000.0 4000.0 4000.0 4000.0 4000.0 4000.0 4000.0 4000.0 4000.0 4000.0 4000.0 4000.0 4000.0 4000.0 4000.0 4000.0 4000.0 4000.0 4000.0 4000.0 4000.0 4000.0 4000.0 4000.0 4000.0 4000.0 4000.0 4000.0 4000.0 4000.0 4000.0 4000.0 4000.0 4000.0 4000.0 4000.0 4000.0 4000.0 4000.0 4000.0 4000.0 4000.0 4000.0 4000.0 4000.0 4000.0 4000.0 4000.0 4000.0 4000.0 4000.0 4000.0 4000.0 4000.0 4000.0 4000.0 4000.0 4000.0 4000.0 4000.0 4000.0 4000.0 4000.0 4000.0 4000.0 4000.0 4000.0 4000.0 4000.0 4000.0 4000.0 4000.0 4000.0 4000.0 4000.0 4000.0 4000.0 4000.0 4000.0 4000.0 4000.0 4000.0 4000.0 4000.0 4000.0 4000.0 4000.0 4000.0 4000.0 4000.0 4000.0 4000.0 4000.0 4000.0 4000.0 4000.0 4000.0 4000.0 4000.0 4000.0 4000.0 4000.0 4000.0 4000.0 4000.0 4000.0 4000.0 4000.0 4000.0 4000.0 4000.0 4000.0 4000.0 4000.0 4000.0 4000.0 4000.0 4000.0 4000.0 4000.0 4000.0 4000.0 4000.0 4000.0 4000.0 4000.0 4000.0 4000.0 4000.0 4000.0 4000.0 4000.0 4000.0 4000.0 4000.0 4000.0 4000.0 4000.0 4000.0 4000.0 4000.0 4000.0 4000.0 4000.0 4000.0 4000.0 4000.0 4000.0 4000.0 4000.0 4000.0 4000.0 4000.0 4000.0 4000.0 4000.0 4000.0 4000.0 4000.0 4000.0 4000.0 4000.0 4000.0 4000.0 4000.0 4000.0 4000.0 4000.0 4000.0 4000.0 4000.0 4000.0 4000.0 4000.0 4000.0 4000.0 4000.0 4000.0 4000.0 4000.0 4000.0 4000.0 4000.0 4000.0 4000.0 4000.0 4000.0 4000.0 4000.0 4000.0 4000.0 4000.0 4000.0 4000.0 4000.0 4000.0 4000.0 4000.0 4000.0 4000.0 4000.0 4000.0 4000.0 4000.0 4000.0 4000.0 4000.0 4000.0 4000.0 4000.0 4000.0 4000.0 4000.0 4000.0 4000.0 4000.0 4000.0 4000.0 4000.0 4000.0 4000.0 4000.0 4000.0 4000.0 4000.0 4000.0 4000.0 4000.0 4000.0 4000.0 4000.0 4000.0 4000.0 4000.0 4000.0 4000.0 4000.0 4000.0 4000.0 4000.0 4000.0 4000.0 4000.0 4000.0 4000.0 4000.0 4000.0 4000.0 4000.0 4000.0 4000.0 4000.0 4000.0 4000.0 4000.0 4000.0 4000.0 4000.0 4000.0 4000.0 4000.0 4000.0 4000.0 4000.0 4000.0 4000.0 4000.0 4000.0 4000.0 4000.0 4000.0 4000.0 4000.0 4000.0 4000.0 4000.0 4000.0 4000.0 4000.0 4000.0 4000.0 4000.0 4000.0 4000.0 4000.0 4000.0 4000.0 4000.0 4000.0 4000.0 4000.0 4000.0 4000.0 4000.0 4000.0 4000.0 4000.0 4000.0 4000.0 4000.0 4000.0 4000.0 4000.0 4000.0 4000.0 4000.0 4000.0 4000.0 4000.0 4000.0 4000.0 4000.0 4000.0 4000.0 4000.0 4000.0 4000.0 4000.0 4000.0 4000.0 4000.0 4000.0 4000.0 4000.0 4000.0 4000.0 4000.0 4000.0 4000.0 4000.0 4000.0 4000.0 4000.0 4000.0 4000.0 4000.0 4000.0 4000.0 4000.0 4000.0 4000.0 4000.0 4000.0 4000.0 4000.0 4000.0 4000.0 4000.0 4000.0 4000.0 4000.0 4000.0 4000.0 4000.0 4000.0 4000.0 4000.0 4000.0 4000.0 4000.0 4000.0 4000.0 4000.0 4000.0 4000.0 4000.0 4000.0 4000.0 4000.0 4000.0 4000.0 4000.0 4000.0 4000.0 4000.0 4000.0 4000.0 4000.0 4000.0 4000.0 4000.0 4000.0 4000.0 4000.0 4000.0 4000.0 4000.0 4000.0 4000.0 4000.0 4000.0 4000.0 4000.0 4000.0 4000.0 4000.0 4000.0 4000.0 4000.0 4000.0 4000.0 4000.0 4000.0 4000.0 4000.0 4000.0 4000.0 4000.0 4000.0 4000.0 4000.0 4000.0 4000.0 4000.0 4000.0 4000.0 4000.0 4000.0 4000.0 4000.0 4000.0 4000.0 4000.0 4000.0 4000.0 4000.0 4000.0 4000.0 4000.0 4000.0 4000.0 4000.0 4000.0 4000.0 4000.0 4000.0 4000.0 4000.0 4000.0 4000.0 4000.0 4000.0 4000.0 4000.0 4000.0 4000.0 4000.0 4000.0 4000.0 4000.0 4000.0 4000.0 4000.0 4000.0 4000.0 4000.0 4000.0 4000.0 4000.0 4000.0 4000.0 4000.0 4000.0 4000.0 4000.0 4000.0 4000.0 4000.0 4000.0 4000.0 4000.0 4000.0 4000.0 4000.0 4000.0 4000.0 4000.0 4000.0 4000.0 4000.0 4000.0 4000.0 4000.0 4000.0 4000.0 4000.0 4000.0 4000.0 4000.0 4000.0 4000.0 4000.0 4000.0 4000.0 4000.0 4000.0 4000.0 4000.0 4000.0 4000.0 4000.0 4000.0 4000.0 4000.0 4000.0 4000.0 4000.0 4000.0 4000.0 4000.0 4000.0 4000.0 4000.0 4000.0 4000.0 4000.0 4000.0 4000.0 4000.0 4000.0 4000.0 4000.0 4000.0 4000.0 4000.0 4000.0 4000.0 4000.0 4000.0 4000.0 4000.0 4000.0 4000.0 4000.0 4000.0 4000.0 4000.0 4000.0 4000.0 4000.0 4000.0 4000.0 4000.0 4000.0 4000.0 4000.0 4000.0 4000.0 4000.0 4000.0 4000.0 4000.0 4000.0 4000.0 4000.0 4000.0 4000.0 4000.0 4000.0 4000.0 4000.0 4000.0 4000.0 4000.0 4000.0 4000.0 4000.0 4000.0 4000.0 4000.0 4000.0 4000.0 4000.0 4000.0 4000.0 4000.0 4000.0 4000.0 4000.0 4000.0 4000.0 4000.0 4000.0 4000.0 4000.0 4000.0 4000.0 4000.0 4000.0 4000.0 4000.0 4000.0 4000.0 4000.0 4000.0 4000.0 4000.0 4000.0 4000.0 4000.0 4000.0 4000.0 4000.0 4000.0 4000.0 4000.0 4000.0 4000.0 4000.0 4000.0 4000.0 4000.0 4000.0 4000.0 4000.0 4000.0 4000.0 4000.0 4000.0 4000.0 4000.0 4000.0 4000.0 4000.0 4000.0 4000.0 4000.0 4000.0 4000.0 4000.0 4000.0 4000.0 4000.0 4000.0 4000.0 4000.0 4000.0 4000.0 4000.0 4000.0 4000.0 4000.0 4000.0 4000.0 4000.0 4000.0 4000.0 4000.0 4000.0 4000.0 4000.0 4000.0 4000.0 4000.0 4000.0 4000.0 4000.0 4000.0 4000.0 4000.0 4000.0 4000.0 4000.0 4000.0 4000.0 4000.0 4000.0 4000.0 4000.0 4000.0 4000.0 4000.0 4000.0 4000.0 4000.0 4000.0 4000.0 4000.0 4000.0 4000.0 4000.0 4000.0 4000.0 4000.0 4000.0 4000.0 4000.0 4000.0 4000.0 4000.0 4000.0 4000.0 4000.0 4000.0 4000.0 4000.0 4000.0 4000.0 4000.0 4000.0 4000.0 4000.0 4000.0 4000.0 4000.0 4000.0 4000.0 4000.0 4000.0 4000.0 4000.0 4000.0 4000.0 4000.0 4000.0 4000.0 4000.0 4000.0 4000.0 4000.0 4000.0 4000.0 4000.0 4000.0 4000.0 4000.0 4000.0 4000.0 4000.0 4000.0 4000.0 4000.0 4000.0 4000.0 4000.0 4000.0 4000.0 4000.0 4000.0 4000.0 4000.0 4000.0 4000.0 4000.0 4000.0 4000.0 4000.0 4000.0 4000.0 4000.0 4000.0 4000.0 4000.0 4000.0 4000.0 4000.0 4000.0 4000.0 4000.0 4000.0 4000.0 4000.0 4000.0 4000.0 4000.0 4000.0 4000.0 4000.0 4000.0 4000.0 4000.0 4000.0 4000.0 4000.0 4000.0 4000.0 4000.0 4000.0 4000.0 4000.0 4000.0 4000.0 4000.0 4000.0 4000.0 4000.0 4000.0 4000.0 4000.0 4000.0 4000.0 4000.0 4000.0 4000.0 4000.0 4000.0 4000.0 4000.0 4000.0 4000.0 4000.0 4000.0 4000.0 4000.0 4000.0 4000.0 4000.0 4000.0 4000.0 4000.0 4000.0 4000.0 4000.0 4000.0 4000.0 4000.0 4000.0 4000.0 4000.0 4000.0 4000.0 4000.0 4000.0 4000.0 4000.0 4000.0 4000.0 4000.0 4000.0 4000.0 4000.0 4000.0 4000.0 4000.0 4000.0 4000.0 4000.0 4000.0 4000.0 4000.0 4000.0 4000.0 4000.0 4000.0 4000.0 4000.0 4000.0 4000.0 4000.0 4000.0 4000.0 4000.0 4000.0 4000.0 4000.0 4000.0 4000.0 4000.0 4000.0 4000.0 4000.0 4000.0 4000.0 4000.0 4000.0 4000.0 4000.0 4000.0 4000.0 4000.0 4000.0 4000.0 4000.0 4000.0 4000.0 4000.0 4000.0 4000.0 4000.0 4000.0 4000.0 4000.0 4000.0 4000.0 4000.0 4000.0 4000.0 4000.0 4000.0 4000.0 4000.0 4000.0 4000.0 4000.0 4000.0 4000.0 4000.0 4000.0 4000.0 4000.0 4000.0 4000.0 4000.0 4000.0 4000.0 4000.0 4000.0 4000.0 4000.0 4000.0 4000.0 4000.0 4000.0 4000.0 4000.0 4000.0 4000.0 4000.0 4000.0 4000.0 4000.0 4000.0 4000.0 4000.0 4000.0 4000.0 4000.0 4000.0 4000.0 4000.0 4000.0 4000.0 4000.0 4000.0 4000.0 4000.0 4000.0 4000.0 4000.0 4000.0 4000.0 4000.0 4000.0 4000.0 4000.0 4000.0 4000.0 4000.0 4000.0 4000.0 4000.0 4000.0 4000.0 4000.0 4000.0 4000.0 4000.0 4000.0 4000.0 4000.0 4000.0 4000.0 4000.0 4000.0 4000.0 4000.0 4000.0 4000.0 4000.0 4000.0 4000.0 4000.0 4000.0 4000.0 4000.0 4000.0 4000.0 4000.0 4000.0 4000.0 4000.0 4000.0 4000.0 4000.0 4000.0 4000.0 4000.0 4000.0 4000.0 4000.0 4000.0 4000.0 4000.0 4000.0 4000.0 4000.0 4000.0 4000.0 4000.0 4000.0 4000.0 4000.0 4000.0 4000.0 4000.0 4000.0 4000.0 4000.0 4000.0 4000.0 4000.0 4000.0 4000.0 4000.0 4000.0 4000.0 4000.0 4000.0 4000.0 4000.0 4000.0 4000.0 4000.0 4000.0 4000.0 4000.0 4000.0 4000.0 4000.0 4000.0 4000.0 4000.0 4000.0 4000.0 4000.0 4000.0 4000.0 4000.0 4000.0 4000.0 4000.0 4000.0 4000.0 4000.0 4000.0 4000.0 4000.0 4000.0 4000.0 4000.0 4000.0 4000.0 4000.0 4000.0 4000.0 4000.0 4000.0 4000.0 4000.0 4000.0 4000.0 4000.0 4000.0 4000.0 4000.0 4000.0 4000.0 4000.0 4000.0 4000.0 4000.0 4000.0 4000.0 4000.0 4000.0 4000.0 4000.0 4000.0 4000.0 4000.0 4000.0 4000.0 4000.0 4000.0 4000.0 4000.0 4000.0 4000.0 4000.0 4000.0 4000.0 4000.0 4000.0 4000.0 4000.0 4000.0 4000.0 4000.0 4000.0 4000.0 4000.0 4000.0 4000.0 4000.0 4000.0 4000.0 4000.0 4000.0 4000.0 4000.0 4000.0 4000.0 4000.0 4000.0 4000.0 4000.0 4000.0 4000.0 4000.0 4000.0 4000.0 4000.0 4000.0 4000.0 4000.0 4000.0 4000.0 4000.0 4000.0 4000.0 4000.0 4000.0 4000.0 4000.0 4000.0 4000.0 4000.0 4000.0 4000.0 4000.0 4000.0 4000.0 4000.0 4000.0 4000.0 4000.0 4000.0 4000.0 4000.0 4000.0 4000.0 4000.0 4000.0 4000.0 4000.0 4000.0 4000.0 4000.0 4000.0 4000.0 4000.0 4000.0 4000.0 4000.0 4000.0 4000.0 4000.0 4000.0 4000.0 4000.0 4000.0 4000.0 4000.0 4000.0 4000.0 4000.0 4000.0 4000.0 4000.0 4000.0 4000.0 4000.0 4000.0 4000.0 4000.0 4000.0 4000.0 4000.0 4000.0 4000.0 4000.0 4000.0 4000.0 4000.0 4000.0 4000.0 4000.0 4000.0 4000.0 4000.0 4000.0 4000.0 4000.0 4000.0 4000.0 4000.0 4000.0 4000.0 4000.0 4000.0 4000.0 4000.0 4000.0 4000.0 4000.0 4000.0 4000.0 4000.0 4000.0 4000.0 4000.0 4000.0 4000.0 4000.0 4000.0 4000.0 4000.0 4000.0 4000.0 4000.0 4000.0 4000.0 4000.0 4000.0 4000.0 4000.0 4000.0 4000.0 4000.0 4000.0 4000.0 4000.0 4000.0 4000.0 4000.0 4000.0 4000.0 4000.0 4000.0 4000.0 4000.0 4000.0 4000.0 4000.0 4000.0 4000.0 4000.0 4000.0 4000.0 4000.0 4000.0 4000.0 4000.0 4000.0 4000.0 4000.0 4000.0 4000.0 4000.0 4000.0 4000.0 4000.0 4000.0 4000.0 4000.0 4000.0 4000.0 4000.0 4000.0 4000.0 4000.0 4000.0 4000.0 4000.0 4000.0 4000.0 4000.0 4000.0 4000.0 4000.0 4000.0 4000.0 4000.0 4000.0 4000.0 4000.0 4000.0 4000.0 4000.0 4000.0 4000.0 4000.0 4000.0 4000.0 4000.0 4000.0 4000.0 4000.0 4000.0 4000.0 4000.0 4000.0 4000.0 4000.0 4000.0 4000.0 4000.0 4000.0 4000.0 4000.0 4000.0 4000.0 4000.0 4000.0 4000.0 4000.0 4000.0 4000.0 4000.0 4000.0 4000.0 4000.0 4000.0 4000.0 4000.0 4000.0 4000.0 4000.0 4000.0 4000.0 4000.0 4000.0 4000.0 4000.0 4000.0 4000.0 4000.0 4000.0 4000.0 4000.0 4000.0 4000.0 4000.0 4000.0 4000.0 4000.0 4000.0 4000.0 4000.0 4000.0 4000.0 4000.0 4000.0 4000.0 4000.0 4000.0 4000.0 4000.0 4000.0 4000.0 4000.0 4000.0 4000.0 4000.0 4000.0 4000.0 4000.0 4000.0 4000.0 4000.0 4000.0 4000.0 4000.0 4000.0 4000.0 4000.0 4000.0 4000.0 4000.0 4000.0 4000.0 4000.0 4000.0 4000.0 4000.0 4000.0 4000.0 4000.0 4000.0 4000.0 4000.0 4000.0 4000.0 4000.0 4000.0 4000.0 4000.0 4000.0 4000.0 4000.0 4000.0 4000.0 4000.0 4000.0 4000.0 4000.0 4000.0 4000.0 4000.0 4000.0 4000.0 4000.0 4000.0 4000.0 4000.0 4000.0 4000.0 4000.0 4000.0 4000.0 4000.0 4000.0 4000.0 4000.0 4000.0 4000.0 4000.0 4000.0 4000.0 4000.0 4000.0 4000.0 4000.0 4000.0 4000.0 4000.0 4000.0 4000.0 4000.0 4000.0 4000.0 4000.0 4000.0 4000.0 4000.0 4000.0 4000.0 4000.0 4000.0 4000.0 4000.0 4000.0 4000.0 4000.0 4000.0 4000.0 4000.0 4000.0 4000.0 4000.0 4000.0 4000.0 4000.0 4000.0 4000.0 4000.0 4000.0 4000.0 4000.0 4000.0 4000.0 4000.0 4000.0 4000.0 4000.0 4000.0 4000.0 4000.0 4000.0 4000.0 4000.0 4000.0 4000.0 4000.0 4000.0 4000.0 4000.0 4000.0 4000.0 4000.0 4000.0 4000.0 4000.0 4000.0 4000.0 4000.0 4000.0 4000.0 4000.0 4000.0 4000.0 4000.0 4000.0 4000.0 4000.0 4000.0 4000.0 4000.0 4000.0 4000.0 4000.0 4000.0 4000.0 4000.0 4000.0 4000.0 4000.0 4000.0 4000.0 4000.0 4000.0 4000.0 4000.0 4000.0 4000.0 4000.0 4000.0 4000.0 4000.0 4000.0 4000.0 4000.0 4000.0 4000.0 4000.0 4000.0 4000.0 4000.0 4000.0 4000.0 4000.0 4000.0 4000.0 4000.0 4000.0 4000.0 4000.0 4000.0 4000.0 4000.0 4000.0 4000.0 4000.0 4000.0 4000.0 4000.0 4000.0 4000.0 4000.0 4000.0 4000.0 4000.0 4000.0 4000.0 4000.0 4000.0 4000.0 4000.0 4000.0 4000.0 4000.0 4000.0 4000.0 4000.0 4000.0 4000.0 4000.0 4000.0 4000.0 4000.0 4000.0 4000.0 4000.0 4000.0 4000.0 4000.0 4000.0 4000.0 4000.0 4000.0 4000.0 4000.0 4000.0 4000.0 4000.0 4000.0 4000.0 4000.0 4000.0 4000.0 4000.0 4000.0 4000.0 4000.0 4000.0 4000.0 4000.0 4000.0 4000.0 4000.0 4000.0 4000.0 4000.0 4000.0 4000.0 4000.0 4000.0 4000.0 4000.0 4000.0 4000.0 4000.0 4000.0 4000.0 4000.0 4000.0 4000.0 4000.0 4000.0 4000.0 4000.0 4000.0 4000.0 4000.0 4000.0 4000.0 4000.0 4000.0 4000.0 4000.0 4000.0 4000.0 4000.0 4000.0 4000.0 4000.0 4000.0 4000.0 4000.0 4000.0 4000.0 4000.0 4000.0 4000.0 4000.0 4000.0 4000.0 4000.0 4000.0 4000.0 4000.0 4000.0 4000.0 4000.0 4000.0 4000.0 4000.0 4000.0 4000.0 4000.0 4000.0 4000.0 4000.0 4000.0 4000.0 4000.0 4000.0 4000.0 4000.0 4000.0 4000.0 4000.0 4000.0 4000.0 4000.0 4000.0 4000.0 4000.0 4000.0 4000.0 4000.0 4000.0 4000.0 4000.0 4000.0 4000.0 4000.0 4000.0 4000.0 4000.0 4000.0 4000.0 4000.0 4000.0 4000.0 4000.0 4000.0 4000.0 4000.0 4000.0 4000.0 4000.0 4000.0 4000.0 4000.0 4000.0 4000.0 4000.0 4000.0 4000.0 4000.0 4000.0 4000.0 4000.0 4000.0 4000.0 4000.0 4000.0 4000.0 4000.0 4000.0 4000.0 4000.0 4000.0 4000.0 4000.0 4000.0 4000.0 4000.0 4000.0 4000.0 4000.0 4000.0 4000.0 4000.0 4000.0 4000.0 4000.0 4000.0 4000.0 4000.0 4000.0 4000.0 4000.0 4000.0 4000.0 4000.0 4000.0 4000.0 4000.0 4000.0 4000.0 4000.0 4000.0 4000.0 4000.0 4000.0 4000.0 4000.0 4000.0 4000.0 4000.0 4000.0 4000.0 4000.0 4000.0 4000.0 4000.0 4000.0 4000.0 4000.0 4000.0 4000.0 4000.0 4000.0 4000.0 4000.0 4000.0 4000.0 4000.0 4000.0 4000.0 4000.0 4000.0 4000.0 4000.0 4000.0 4000.0 4000.0 4000.0 4000.0 4000.0 4000.0 4000.0 4000.0 4000.0 4000.0 4000.0 4000.0 4000.0 4000.0 4000.0 4000.0 4000.0 4000.0 4000.0 4000.0 4000.0 4000.0 4000.0 4000.0 4000.0 4000.0 4000.0 4000.0 4000.0 4000.0 4000.0 4000.0 4000.0 4000.0 4000.0 4000.0 4000.0 4000.0 4000.0 4000.0 4000.0 4000.0 4000.0 4000.0 4000.0 4000.0 4000.0 4000.0 4000.0 4000.0 4000.0 4000.0 4000.0 4000.0 4000.0 4000.0 4000.0 4000.0 4000.0 4000.0 4000.0 4000.0 4000.0 4000.0 4000.0 4000.0 4000.0 4000.0 4000.0 4000.0 4000.0 4000.0 4000.0 4000.0 4000.0 4000.0 4000.0 4000.0 4000.0 4000.0 4000.0 4000.0 4000.0 4000.0 4000.0 4000.0 4000.0 4000.0 4000.0 4000.0 4000.0 4000.0 4000.0 4000.0 4000.0 4000.0 4000.0 4000.0 4000.0 4000.0 4000.0 4000.0 4000.0 4000.0 4000.0 4000.0 4000.0 4000.0 4000.0 4000.0 4000.0 4000.0 4000.0 4000.0 4000.0 4000.0 4000.0 4000.0 4000.0 4000.0 4000.0 4000.0 4000.0 4000.0 4000.0 4000.0 4000.0 4000.0 4000.0 4000.0 4000.0 4000.0 4000.0 4000.0 4000.0 4000.0 4000.0 4000.0 4000.0 4000.0 4000.0 4000.0 4000.0 4000.0 4000.0 4000.0 4000.0 4000.0 4000.0 4000.0 4000.0 4000.0 4000.0 4000.0 4000.0 4000.0 4000.0 4000.0 4000.0 4000.0 4000.0 4000.0 4000.0 4000.0 4000.0 4000.0 4000.0 4000.0 4000.0 4000.0 4000.0 4000.0 4000.0 4000.0 4000.0 4000.0 4000.0 4000.0 4000.0 4000.0 4000.0 4000.0 4000.0 4000.0 4000.0 4000.0 4000.0 4000.0 4000.0 4000.0 4000.0 4000.0 4000.0 4000.0 4000.0 4000.0 4000.0 4000.0 4000.0 4000.0 4000.0 4000.0 4000.0 4000.0 4000.0 4000.0 4000.0 4000.0 4000.0 4000.0 4000.0 4000.0 4000.0 4000.0 4000.0 4000.0 4000.0 4000.0 4000.0 4000.0 4000.0 4000.0 4000.0 4000.0 4000.0 4000.0 4000.0 4000.0 4000.0 4000.0 4000.0 4000.0 4000.0 4000.0 4000.0 4000.0 4000.0 4000.0 4000.0 4000.0 4000.0 4000.0 4000.0 4000.0 4000.0 4000.0 4000.0 4000.0 4000.0 4000.0 4000.0 4000.0 4000.0 4000.0 4000.0 4000.0 4000.0 4000.0 4000.0 4000.0 4000.0 4000.0 4000.0 4000.0 4000.0 4000.0 4000.0 4000.0 4000.0 4000.0 4000.0 4000.0 4000.0 4000.0 4000.0 4000.0 4000.0 4000.0 4000.0 4000.0 4000.0 4000.0 4000.0 4000.0 4000.0 4000.0 4000.0 4000.0 4000.0 4000.0 4000.0 4000.0 4000.0 4000.0 4000.0 4000.0 4000.0 4000.0 4000.0 4000.0 4000.0 4000.0 4000.0 4000.0 4000.0 4000.0 4000.0 4000.0 4000.0 4000.0 4000.0 4000.0 4000.0 4000.0 4000.0 4000.0 4000.0 4000.0 4000.0 4000.0 4000.0 4000.0 4000.0 4000.0 4000.0 4000.0 4000.0 4000.0 4000.0 4000.0 4000.0 4000.0 4000.0 4000.0 4000.0 4000.0 4000.0 4000.0 4000.0 4000.0 4000.0 4000.0 4000.0 4000.0 4000.0 4000.0 4000.0 4000.0 4000.0 4000.0 4000.0 4000.0 4000.0 4000.0 4000.0 4000.0 4000.0 4000.0 4000.0 4000.0 4000.0 4000.0 4000.0 4000.0 4000.0 4000.0 4000.0 4000.0 4000.0 4000.0 4000.0 4000.0 4000.0 4000.0 4000.0 4000.0 4000.0 4000.0 4000.0 4000.0 4000.0 4000.0 4000.0 4000.0 4000.0 4000.0 4000.0 4000.0 4000.0 4000.0 4000.0 4000.0 4000.0 4000.0 4000.0 4000.0 4000.0 4000.0 4000.0 4000.0 4000.0 4000.0 4000.0 4000.0 4000.0 4000.0 4000.0 4000.0 4000.0 4000.0 4000.0 4000.0 4000.0 4000.0 4000.0 4000.0 4000.0 4000.0 4000.0 4000.0 4000.0 4000.0 4000.0 4000.0 4000.0 4000.0 4000.0 4000.0 4000.0 4000.0 4000.0 4000.0 4000.0 4000.0 4000.0 4000.0 4000.0 4000.0 4000.0 4000.0 4000.0 4000.0 4000.0 4000.0 4000.0 4000.0 4000.0 4000.0 4000.0 4000.0 4000.0 4000.0 4000.0 4000.0 4000.0 4000.0 4000.0 4000.0 4000.0 4000.0 4000.0 4000.0 4000.0 4000.0 4000.0 4000.0 4000.0 4000.0 4000.0 4000.0 4000.0 4000.0 4000.0 4000.0 4000.0 4000.0 4000.0 4000.0 4000.0 4000.0 4000.0 4000.0 4000.0 4000.0 4000.0 4000.0 4000.0 4000.0 4000.0 4000.0 4000.0 4000.0 4000.0 4000.0 4000.0 4000.0 4000.0 4000.0 4000.0 4000.0 4000.0 4000.0 4000.0 4000.0 4000.0 4000.0 4000.0 4000.0 4000.0 4000.0 4000.0 4000.0 4000.0 4000.0 4000.0 4000.0 4000.0 4000.0 4000.0 4000.0 4000.0 4000.0 4000.0 4000.0 4000.0 4000.0 4000.0 4000.0 4000.0 4000.0 4000.0 4000.0 4000.0 4000.0 4000.0 4000.0 4000.0 4000.0 4000.0 4000.0 4000.0 4000.0 4000.0 4000.0 4000.0 4000.0 4000.0 4000.0 4000.0 4000.0 4000.0 4000.0 4000.0 4000.0 4000.0 4000.0 4000.0 4000.0 4000.0 4000.0 4000.0 4000.0 4000.0 4000.0 4000.0 4000.0 4000.0 4000.0 4000.0 4000.0 4000.0 4000.0 4000.0 4000.0 4000.0 4000.0 4000.0 4000.0 4000.0 4000.0 4000.0 4000.0 4000.0 4000.0 4000.0 4000.0 4000.0 4000.0 4000.0 4000.0 4000.0 4000.0 4000.0 4000.0 4000.0 4000.0 4000.0 4000.0 4000.0 4000.0 4000.0 4000.0 4000.0 4000.0 4000.0 4000.0 4000.0 4000.0 4000.0 4000.0 4000.0 4000.0 4000.0 4000.0 4000.0 4000.0 4000.0 4000.0 4000.0 4000.0 4000.0 4000.0 4000.0 4000.0 4000.0 4000.0 4000.0 4000.0 4000.0 4000.0 4000.0 4000.0 4000.0 4000.0 4000.0 4000.0 4000.0 4000.0 4000.0 4000.0 4000.0 4000.0 4000.0 4000.0 4000.0 4000.0 4000.0 4000.0 4000.0 4000.0 4000.0 4000.0 4000.0 4000.0 4000.0 4000.0 4000.0 4000.0 4000.0 4000.0 4000.0 4000.0 4000.0 4000.0 4000.0 4000.0 4000.0 4000.0 4000.0 4000.0 4000.0 4000.0 4000.0 4000.0 4000.0 4000.0 4000.0 4000.0 4000.0 4000.0 4000.0 4000.0 4000.0 4000.0 4000.0 4000.0 4000.0 4000.0 4000.0 4000.0 4000.0 4000.0 4000.0 4000.0 4000.0 4000.0 4000.0 4000.0 4000.0 4000.0 4000.0 4000.0 4000.0 4000.0 4000.0 4000.0 4000.0 4000.0 4000.0 4000.0 4000.0 4000.0 4000.0 4000.0 4000.0 4000.0 4000.0 4000.0 4000.0 4000.0 4000.0 4000.0 4000.0 4000.0 4000.0 4000.0 4000.0 4000.0 4000.0 4000.0 4000.0 4000.0 4000.0 4000.0 4000.0 4000.0 4000.0 4000.0 4000.0 4000.0 4000.0 4000.0 4000.0 4000.0 4000.0 4000.0 4000.0 4000.0 4000.0 4000.0 4000.0 4000.0 4000.0 4000.0 4000.0 4000.0 4000.0 4000.0 4000.0 4000.0 4000.0 4000.0 4000.0 4000.0 4000.0 4000.0 4000.0 4000.0 4000.0 4000.0 4000.0 4000.0 4000.0 4000.0 4000.0 4000.0 4000.0 4000.0 4000.0 4000.0 4000.0 4000.0 4000.0 4000.0 4000.0 4000.0 4000.0 4000.0 4000.0 4000.0 4000.0 4000.0 4000.0 4000.0 4000.0 4000.0 4000.0 4000.0 4000.0 4000.0 4000.0 4000.0 4000.0 4000.0 4000.0 4000.0 4000.0 4000.0 4000.0 4000.0 4000.0 4000.0 4000.0 4000.0 4000.0 4000.0 4000.0 4000.0 4000.0 4000.0 4000.0 4000.0 4000.0 4000.0 4000.0 4000.0 4000.0 4000.0 4000.0 4000.0 4000.0 4000.0 4000.0 4000.0 4000.0 4000.0 4000.0 4000.0 4000.0 4000.0 4000.0 4000.0 4000.0 4000.0 4000.0 4000.0 4000.0 4000.0 4000.0 4000.0 4000.0 4000.0 4000.0 4000.0 4000.0 4000.0 4000.0 4000.0 4000.0 4000.0 4000.0 4000.0 4000.0 4000.0 4000.0 4000.0 4000.0 4000.0 4000.0 4000.0 4000.0 4000.0 4000.0 4000.0 4000.0 4000.0 4000.0 4000.0 4000.0 4000.0 4000.0 4000.0 4000.0 4000.0 4000.0 4000.0 4000.0 4000.0 4000.0 4000.0 4000.0 4000.0 4000.0 4000.0 4000.0 4000.0 4000.0 4000.0 4000.0 4000.0 4000.0 4000.0 4000.0 4000.0 4000.0 4000.0 4000.0 4000.0 4000.0 4000.0 4000.0 4000.0 4000.0 4000.0 4000.0 4000.0 4000.0 4000.0 4000.0 4000.0 4000.0 4000.0 4000.0 4000.0 4000.0 4000.0 4000.0 4000.0 4000.0 4000.0 4000.0 4000.0 4000.0 4000.0 4000.0 4000.0 4000.0 4000.0 4000.0 4000.0 4000.0 4000.0 4000.0 4000.0 4000.0 4000.0 4000.0 4000.0 4000.0 4000.0 4000.0 4000.0 4000.0 4000.0 4000.0 4000.0 4000.0 4000.0 4000.0 4000.0 4000.0 4000.0 4000.0 4000.0 4000.0 4000.0 4000.0 4000.0 4000.0 4000.0 4000.0 4000.0 4000.0 4000.0 4000.0 4000.0 4000.0 4000.0 4000.0 4000.0 4000.0 4000.0 4000.0 4000.0 4000.0 4000.0 4000.0 4000.0 4000.0 4000.0 4000.0 4000.0 4000.0 4000.0 4000.0 4000.0 4000.0 4000.0 4000.0 4000.0 4000.0 4000.0 4000.0 4000.0 4000.0 4000.0 4000.0 4000.0 4000.0 4000.0 4000.0 4000.0 4000.0 4000.0 4000.0 4000.0 4000.0 4000.0 4000.0 4000.0 4000.0 4000.0 4000.0 4000.0 4000.0 4000.0 4000.0 4000.0 4000.0 4000.0 4000.0 4000.0 4000.0 4000.0 4000.0 4000.0 4000.0 4000.0 4000.0 4000.0 4000.0 4000.0 4000.0 4000.0 4000.0 4000.0 4000.0 4000.0 4000.0 4000.0 4000.0 4000.0 4000.0 4000.0 4000.0 4000.0 4000.0 4000.0 4000.0 4000.0 4000.0 4000.0 4000.0 4000.0 4000.0 4000.0 4000.0 4000.0 4000.0 4000.0 4000.0 4000.0 4000.0 4000.0 4000.0 4000.0 4000.0 4000.0 4000.0 4000.0 4000.0 4000.0 4000.0 4000.0 4000.0 4000.0 4000.0 4000.0 4000.0 4000.0 4000.0 4000.0 4000.0 4000.0 4000.0 4000.0 4000.0 4000.0 4000.0 4000.0 4000.0 4000.0 4000.0 4000.0 4000.0 4000.0 4000.0 4000.0 4000.0 4000.0 4000.0 4000.0 4000.0 4000.0 4000.0 4000.0 4000.0 4000.0 4000.0 4000.0 4000.0 4000.0 4000.0 4000.0 4000.0 4000.0 4000.0 4000.0 4000.0 4000.0 4000.0 4000.0 4000.0 4000.0 4000.0 4000.0 4000.0 4000.0 4000.0 4000.0 4000.0 4000.0 4000.0 4000.0 4000.0 4000.0 4000.0 4000.0 4000.0 4000.0 4000.0 4000.0 4000.0 4000.0 4000.0 4000.0 4000.0 4000.0 4000.0 4000.0 4000.0 4000.0 4000.0 4000.0 4000.0 4000.0 4000.0 4000.0 4000.0 4000.0 4000.0 4000.0 4000.0 4000.0 4000.0 4000.0 4000.0 4000.0 4000.0 4000.0 4000.0 4000.0 4000.0 4000.0 4000.0 4000.0 4000.0 4000.0 4000.0 4000.0 4000.0 4000.0 4000.0 4000.0 4000.0 4000.0 4000.0 4000.0 4000.0 4000.0 4000.0 4000.0 4000.0 4000.0 4000.0 4000.0 4000.0 4000.0 4000.0 4000.0 4000.0 4000.0 4000.0 4000.0 4000.0 4000.0 4000.0 4000.0 4000.0 4000.0 4000.0 4000.0 4000.0 4000.0 4000.0 4000.0 4000.0 4000.0 4000.0 4000.0 4000.0 4000.0 4000.0 4000.0 4000.0 4000.0 4000.0 4000.0 4000.0 4000.0 4000.0 4000.0 4000.0 4000.0 4000.0 4000.0 4000.0 4000.0 4000.0 4000.0 4000.0 4000.0 4000.0 4000.0 4000.0 4000.0 4000.0 4000.0 4000.0 4000.0 4000.0 4000.0 4000.0 4000.0 4000.0 4000.0 4000.0 4000.0 4000.0 4000.0 4000.0 4000.0 4000.0 4000.0 4000.0 4000.0 4000.0 4000.0 4000.0 4000.0 4000.0 4000.0 4000.0 4000.0 4000.0 4000.0 4000.0 4000.0 4000.0 4000.0 4000.0 4000.0 4000.0 4000.0 4000.0 4000.0 4000.0 4000.0 4000.0 4000.0 4000.0 4000.0 4000.0 4000.0 4000.0 4000.0 4000.0 4000.0 4000.0 4000.0 4000.0 4000.0 4000.0 4000.0 4000.0 4000.0 4000.0 4000.0 4000.0 4000.0 4000.0 4000.0 4000.0 4000.0 4000.0 4000.0 4000.0 4000.0 4000.0 4000.0 4000.0 4000.0 4000.0 4000.0 4000.0 4000.0 4000.0 4000.0 4000.0 4000.0 4000.0 4000.0 4000.0 4000.0 4000.0 4000.0 4000.0 4000.0 4000.0 4000.0 4000.0 4000.0 4000.0 4000.0 4000.0 4000.0 4000.0 4000.0 4000.0 4000.0 4000.0 4000.0 4000.0 4000.0 4000.0 4000.0 4000.0 4000.0 4000.0 4000.0 4000.0 4000.0 4000.0 4000.0 4000.0 4000.0 4000.0 4000.0 4000.0 4000.0 4000.0 4000.0 4000.0 4000.0 4000.0 4000.0 4000.0 4000.0 4000.0 4000.0 4000.0 4000.0 4000.0 4000.0 4000.0 4000.0 4000.0 4000.0 4000.0 4000.0 4000.0 4000.0 4000.0 4000.0 4000.0 4000.0 4000.0 4000.0 4000.0 4000.0 4000.0 4000.0 4000.0 4000.0 4000.0 4000.0 4000.0 4000.0 4000.0 4000.0 4000.0 4000.0 4000.0 4000.0 4000.0 4000.0 4000.0 4000.0 4000.0 4000.0 4000.0 4000.0 4000.0 4000.0 4000.0 4000.0 4000.0 4000.0 4000.0 4000.0 4000.0 4000.0 4000.0 4000.0 4000.0 4000.0 4000.0 4000.0 4000.0 4000.0 4000.0 4000.0 4000.0 4000.0 4000.0 4000.0 4000.0 4000.0 4000.0 4000.0 4000.0 4000.0 4000.0 4000.0 4000.0 4000.0 4000.0 4000.0 4000.0 4000.0 4000.0 4000.0 4000.0 4000.0 4000.0 4000.0 4000.0 4000.0 4000.0 4000.0 4000.0 4000.0 4000.0 4000.0 4000.0 4000.0 4000.0 4000.0 4000.0 4000.0 4000.0 4000.0 4000.0 4000.0 4000.0 4000.0 4000.0 4000.0 4000.0 4000.0 4000.0 4000.0 4000.0 4000.0 4000.0 4000.0 4000.0 4000.0 4000.0 4000.0 4000.0 4000.0 4000.0 4000.0 4000.0 4000.0 4000.0 4000.0 4000.0 4000.0 4000.0 4000.0 4000.0 4000.0 4000.0 4000.0 4000.0 4000.0 4000.0 4000.0 4000.0 4000.0 4000.0 4000.0 4000.0 4000.0 4000.0 4000.0 4000.0 4000.0 4000.0 4000.0 4000.0 4000.0 4000.0 4000.0 4000.0 4000.0 4000.0 4000.0 4000.0 4000.0 4000.0 4000.0 4000.0 4000.0 4000.0 4000.0 4000.0 4000.0 4000.0 4000.0 4000.0 4000.0 4000.0 4000.0 4000.0 4000.0 4000.0 4000.0 4000.0 4000.0 4000.0 4000.0 4000.0 4000.0 4000.0 4000.0 4000.0 4000.0 4000.0 4000.0 4000.0 4000.0 4000.0 4000.0 4000.0 4000.0 4000.0 4000.0 4000.0 4000.0 4000.0 4000.0 4000.0 4000.0 4000.0 4000.0 4000.0 4000.0 4000.0 4000.0 4000.0 4000.0 4000.0 4000.0 4000.0 4000.0 4000.0 4000.0 4000.0 4000.0 4000.0 4000.0 4000.0 4000.0 4000.0 4000.0 4000.0 4000.0 4000.0 4000.0 4000.0 4000.0 4000.0 4000.0 4000.0 4000.0 4000.0 4000.0 4000.0 4000.0 4000.0 4000.0 4000.0 4000.0 4000.0 4000.0 4000.0 4000.0 4000.0 4000.0 4000.0 4000.0 4000.0 4000.0 4000.0 4000.0 4000.0 4000.0 4000.0 4000.0 4000.0 4000.0 4000.0 4000.0 4000.0 4000.0 4000.0 4000.0 4000.0 4000.0 4000.0 4000.0 4000.0 4000.0 4000.0 4000.0 4000.0 4000.0 4000.0 4000.0 4000.0 4000.0 4000.0 4000.0 4000.0 4000.0 4000.0 4000.0 4000.0 4000.0 4000.0 4000.0 4000.0 4000.0 4000.0 4000.0 4000.0 4000.0 4000.0 4000.0 4000.0 4000.0 4000.0 4000.0 4000.0 4000.0 4000.0 4000.0 4000.0 4000.0 4000.0 4000.0 4000.0 4000.0 4000.0 4000.0 4000.0 4000.0 4000.0 4000.0 4000.0 4000.0 4000.0 4000.0 4000.0 4000.0 4000.0 4000.0 4000.0 4000.0 4000.0 4000.0 4000.0 4000.0 4000.0 4000.0 4000.0 4000.0 4000.0 4000.0 4000.0 4000.0 4000.0 4000.0 4000.0 4000.0 4000.0 4000.0 4000.0 4000.0 4000.0 4000.0 4000.0 4000.0 4000.0 4000.0 4000.0 4000.0 4000.0 4000.0 4000.0 4000.0 4000.0 4000.0 4000.0 4000.0 4000.0 4000.0 4000.0 4000.0 4000.0 4000.0 4000.0 4000.0 4000.0 4000.0 4000.0 4000.0 4000.0 4000.0 4000.0 4000.0 4000.0 4000.0 4000.0 4000.0 4000.0 4000.0 4000.0 4000.0 4000.0 4000.0 4000.0 4000.0 4000.0 4000.0 4000.0 4000.0 4000.0 4000.0 4000.0 4000.0 4000.0 4000.0 4000.0 4000.0 4000.0 4000.0 4000.0 4000.0 4000.0 4000.0 4000.0 4000.0 4000.0 4000.0 4000.0 4000.0 4000.0 4000.0 4000.0 4000.0 4000.0 4000.0 4000.0 4000.0 4000.0 4000.0 4000.0 4000.0 4000.0 4000.0 4000.0 4000.0 4000.0 4000.0 4000.0 4000.0 4000.0 4000.0 4000.0 4000.0 4000.0 4000.0 4000.0 4000.0 4000.0 4000.0 4000.0 4000.0 4000.0 4000.0 4000.0 4000.0 4000.0 4000.0 4000.0 4000.0 4000.0 4000.0 4000.0 4000.0 4000.0 4000.0 4000.0 4000.0 4000.0 4000.0 4000.0 4000.0 4000.0 4000.0 4000.0 4000.0 4000.0 4000.0 4000.0 4000.0 4000.0 4000.0 4000.0 4000.0 4000.0 4000.0 4000.0 4000.0 4000.0 4000.0 4000.0 4000.0 4000.0 4000.0 4000.0 4000.0 4000.0 4000.0 4000.0 4000.0 4000.0 4000.0 4000.0 4000.0 4000.0 4000.0 4000.0 4000.0 4000.0 4000.0 4000.0 4000.0 4000.0 4000.0 4000.0 4000.0 4000.0 4000.0 4000.0 4000.0 4000.0 4000.0 4000.0 4000.0 4000.0 4000.0 4000.0 4000.0 4000.0 4000.0 4000.0 4000.0 4000.0 4000.0 4000.0 4000.0 4000.0 4000.0 4000.0 4000.0 4000.0 4000.0 4000.0 4000.0 4000.0 4000.0 4000.0 4000.0 4000.0 4000.0 4000.0 4000.0 4000.0 4000.0 4000.0 4000.0 4000.0 4000.0 4000.0 4000.0 4000.0 4000.0 4000.0 4000.0 4000.0 4000.0 4000.0 4000.0 4000.0 4000.0 4000.0 4000.0 4000.0 4000.0 4000.0 4000.0 4000.0 4000.0 4000.0 4000.0 4000.0 4000.0 4000.0 4000.0 4000.0 4000.0 4000.0 4000.0 4000.0 4000.0 4000.0 4000.0 4000.0 4000.0 4000.0 4000.0 4000.0 4000.0 4000.0 4000.0 4000.0 4000.0 4000.0 4000.0 4000.0 4000.0 4000.0 4000.0 4000.0 4000.0 4000.0 4000.0 4000.0 4000.0 4000.0 4000.0 4000.0 4000.0 4000.0 4000.0 4000.0 4000.0 4000.0 4000.0 4000.0 4000.0 4000.0 4000.0 4000.0 4000.0 4000.0 4000.0 4000.0 4000.0 4000.0 4000.0 4000.0 4000.0 4000.0 4000.0 4000.0 4000.0 4000.0 4000.0 4000.0 4000.0 4000.0 4000.0 4000.0 4000.0 4000.0 4000.0 4000.0 4000.0 4000.0 4000.0 4000.0 4000.0 4000.0 4000.0 4000.0 4000.0 4000.0 4000.0 4000.0 4000.0 4000.0 4000.0 4000.0 4000.0 4000.0 4000.0 4000.0 4000.0 4000.0 4000.0 4000.0 4000.0 4000.0 4000.0 4000.0 4000.0 4000.0 4000.0 4000.0 4000.0 4000.0 4000.0 4000.0 4000.0 4000.0 4000.0 4000.0 4000.0 4000.0 4000.0 4000.0 4000.0 4000.0 4000.0 4000.0 4000.0 4000.0 4000.0 4000.0 4000.0 4000.0 4000.0 4000.0 4000.0 4000.0 4000.0 4000.0 4000.0 4000.0 4000.0 4000.0 4000.0 4000.0 4000.0 4000.0 4000.0 4000.0 4000.0 4000.0 4000.0 4000.0 4000.0 4000.0 4000.0 4000.0 4000.0 4000.0 4000.0 4000.0 4000.0 4000.0 4000.0 4000.0 4000.0 4000.0 4000.0 4000.0 4000.0 4000.0 4000.0 4000.0 4000.0 4000.0 4000.0 4000.0 4000.0 4000.0 4000.0 4000.0 4000.0 4000.0 4000.0 4000.0 4000.0 4000.0 4000.0 4000.0 4000.0 4000.0 4000.0 4000.0 4000.0 4000.0 4000.0 4000.0 4000.0 4000.0 4000.0 4000.0 4000.0 4000.0 4000.0 4000.0 4000.0 4000.0 4000.0 4000.0 4000.0 4000.0 4000.0 4000.0 4000.0 4000.0 4000.0 4000.0 4000.0 4000.0 4000.0 4000.0 4000.0 4000.0 4000.0 4000.0 4000.0 SCALARS Mass float 1
LOOKUP_TABLE default
11309700000.0 11309700000.0 11309700000.0 11309700000.0 11309700000.0 11309700000.0 11309700000.0 11309700000.0 11309700000.0 11309700000.0 11309700000.0 11309700000.0 11309700000.0 11309700000.0 11309700000.0 11309700000.0 11309700000.0 11309700000.0 11309700000.0 11309700000.0 11309700000.0 11309700000.0 11309700000.0 11309700000.0 11309700000.0 11309700000.0 11309700000.0 11309700000.0 11309700000.0 11309700000.0 11309700000.0 11309700000.0 11309700000.0 11309700000.0 11309700000.0 11309700000.0 11309700000.0 11309700000.0 11309700000.0 11309700000.0 11309700000.0 11309700000.0 11309700000.0 11309700000.0 11309700000.0 11309700000.0 11309700000.0 11309700000.0 11309700000.0 11309700000.0 11309700000.0 11309700000.0 11309700000.0 11309700000.0 11309700000.0 11309700000.0 11309700000.0 11309700000.0 11309700000.0 11309700000.0 11309700000.0 11309700000.0 11309700000.0 11309700000.0 11309700000.0 11309700000.0 11309700000.0 11309700000.0 11309700000.0 11309700000.0 11309700000.0 11309700000.0 11309700000.0 11309700000.0 11309700000.0 11309700000.0 11309700000.0 11309700000.0 11309700000.0 11309700000.0 11309700000.0 11309700000.0 11309700000.0 11309700000.0 11309700000.0 11309700000.0 11309700000.0 11309700000.0 11309700000.0 11309700000.0 11309700000.0 11309700000.0 11309700000.0 11309700000.0 11309700000.0 11309700000.0 11309700000.0 11309700000.0 11309700000.0 11309700000.0 11309700000.0 11309700000.0 11309700000.0 11309700000.0 11309700000.0 11309700000.0 11309700000.0 11309700000.0 11309700000.0 11309700000.0 11309700000.0 11309700000.0 11309700000.0 11309700000.0 11309700000.0 11309700000.0 11309700000.0 11309700000.0 11309700000.0 11309700000.0 11309700000.0 11309700000.0 11309700000.0 11309700000.0 11309700000.0 11309700000.0 11309700000.0 11309700000.0 11309700000.0 11309700000.0 11309700000.0 11309700000.0 11309700000.0 11309700000.0 11309700000.0 11309700000.0 11309700000.0 11309700000.0 11309700000.0 11309700000.0 11309700000.0 11309700000.0 11309700000.0 11309700000.0 11309700000.0 11309700000.0 11309700000.0 11309700000.0 11309700000.0 11309700000.0 11309700000.0 11309700000.0 11309700000.0 11309700000.0 11309700000.0 11309700000.0 11309700000.0 11309700000.0 11309700000.0 11309700000.0 11309700000.0 11309700000.0 11309700000.0 11309700000.0 11309700000.0 11309700000.0 11309700000.0 11309700000.0 11309700000.0 11309700000.0 11309700000.0 11309700000.0 11309700000.0 11309700000.0 11309700000.0 11309700000.0 11309700000.0 11309700000.0 11309700000.0 11309700000.0 11309700000.0 11309700000.0 11309700000.0 11309700000.0 11309700000.0 11309700000.0 11309700000.0 11309700000.0 11309700000.0 11309700000.0 11309700000.0 11309700000.0 11309700000.0 11309700000.0 11309700000.0 11309700000.0 11309700000.0 11309700000.0 11309700000.0 11309700000.0 11309700000.0 11309700000.0 11309700000.0 11309700000.0 11309700000.0 11309700000.0 11309700000.0 11309700000.0 11309700000.0 11309700000.0 11309700000.0 11309700000.0 11309700000.0 11309700000.0 11309700000.0 11309700000.0 11309700000.0 11309700000.0 11309700000.0 11309700000.0 11309700000.0 11309700000.0 11309700000.0 11309700000.0 11309700000.0 11309700000.0 11309700000.0 11309700000.0 11309700000.0 11309700000.0 11309700000.0 11309700000.0 11309700000.0 11309700000.0 11309700000.0 11309700000.0 11309700000.0 11309700000.0 11309700000.0 11309700000.0 11309700000.0 11309700000.0 11309700000.0 11309700000.0 11309700000.0 11309700000.0 11309700000.0 11309700000.0 11309700000.0 11309700000.0 11309700000.0 11309700000.0 11309700000.0 11309700000.0 11309700000.0 11309700000.0 11309700000.0 11309700000.0 11309700000.0 11309700000.0 11309700000.0 11309700000.0 11309700000.0 11309700000.0 11309700000.0 11309700000.0 11309700000.0 11309700000.0 11309700000.0 11309700000.0 11309700000.0 11309700000.0 11309700000.0 11309700000.0 11309700000.0 11309700000.0 11309700000.0 11309700000.0 11309700000.0 11309700000.0 11309700000.0 11309700000.0 11309700000.0 11309700000.0 11309700000.0 11309700000.0 11309700000.0 11309700000.0 11309700000.0 11309700000.0 11309700000.0 11309700000.0 11309700000.0 11309700000.0 11309700000.0 11309700000.0 11309700000.0 11309700000.0 11309700000.0 11309700000.0 11309700000.0 11309700000.0 11309700000.0 11309700000.0 11309700000.0 11309700000.0 11309700000.0 11309700000.0 11309700000.0 11309700000.0 11309700000.0 11309700000.0 11309700000.0 11309700000.0 11309700000.0 11309700000.0 11309700000.0 11309700000.0 11309700000.0 11309700000.0 11309700000.0 11309700000.0 11309700000.0 11309700000.0 11309700000.0 11309700000.0 11309700000.0 11309700000.0 11309700000.0 11309700000.0 11309700000.0 11309700000.0 11309700000.0 11309700000.0 11309700000.0 11309700000.0 11309700000.0 11309700000.0 11309700000.0 11309700000.0 11309700000.0 11309700000.0 11309700000.0 11309700000.0 11309700000.0 11309700000.0 11309700000.0 11309700000.0 11309700000.0 11309700000.0 11309700000.0 11309700000.0 11309700000.0 11309700000.0 11309700000.0 11309700000.0 11309700000.0 11309700000.0 11309700000.0 11309700000.0 11309700000.0 11309700000.0 11309700000.0 11309700000.0 11309700000.0 11309700000.0 11309700000.0 11309700000.0 11309700000.0 11309700000.0 11309700000.0 11309700000.0 11309700000.0 11309700000.0 11309700000.0 11309700000.0 11309700000.0 11309700000.0 11309700000.0 11309700000.0 11309700000.0 11309700000.0 11309700000.0 11309700000.0 11309700000.0 11309700000.0 11309700000.0 11309700000.0 11309700000.0 11309700000.0 11309700000.0 11309700000.0 11309700000.0 11309700000.0 11309700000.0 11309700000.0 11309700000.0 11309700000.0 11309700000.0 11309700000.0 11309700000.0 11309700000.0 11309700000.0 11309700000.0 11309700000.0 11309700000.0 11309700000.0 11309700000.0 11309700000.0 11309700000.0 11309700000.0 11309700000.0 11309700000.0 11309700000.0 11309700000.0 11309700000.0 11309700000.0 11309700000.0 11309700000.0 11309700000.0 11309700000.0 11309700000.0 11309700000.0 11309700000.0 11309700000.0 11309700000.0 11309700000.0 11309700000.0 11309700000.0 11309700000.0 11309700000.0 11309700000.0 11309700000.0 11309700000.0 11309700000.0 11309700000.0 11309700000.0 11309700000.0 11309700000.0 11309700000.0 11309700000.0 11309700000.0 11309700000.0 11309700000.0 11309700000.0 11309700000.0 11309700000.0 11309700000.0 11309700000.0 11309700000.0 11309700000.0 11309700000.0 11309700000.0 11309700000.0 11309700000.0 11309700000.0 11309700000.0 11309700000.0 11309700000.0 11309700000.0 11309700000.0 11309700000.0 11309700000.0 11309700000.0 11309700000.0 11309700000.0 11309700000.0 11309700000.0 11309700000.0 11309700000.0 11309700000.0 11309700000.0 11309700000.0 11309700000.0 11309700000.0 11309700000.0 11309700000.0 11309700000.0 11309700000.0 11309700000.0 11309700000.0 11309700000.0 11309700000.0 11309700000.0 11309700000.0 11309700000.0 11309700000.0 11309700000.0 11309700000.0 11309700000.0 11309700000.0 11309700000.0 11309700000.0 11309700000.0 11309700000.0 11309700000.0 11309700000.0 11309700000.0 11309700000.0 11309700000.0 11309700000.0 11309700000.0 11309700000.0 11309700000.0 11309700000.0 11309700000.0 11309700000.0 11309700000.0 11309700000.0 11309700000.0 11309700000.0 11309700000.0 11309700000.0 11309700000.0 11309700000.0 11309700000.0 11309700000.0 11309700000.0 11309700000.0 11309700000.0 11309700000.0 11309700000.0 11309700000.0 11309700000.0 11309700000.0 11309700000.0 11309700000.0 11309700000.0 11309700000.0 11309700000.0 11309700000.0 11309700000.0 11309700000.0 11309700000.0 11309700000.0 11309700000.0 11309700000.0 11309700000.0 11309700000.0 11309700000.0 11309700000.0 11309700000.0 11309700000.0 11309700000.0 11309700000.0 11309700000.0 11309700000.0 11309700000.0 11309700000.0 11309700000.0 11309700000.0 11309700000.0 11309700000.0 11309700000.0 11309700000.0 11309700000.0 11309700000.0 11309700000.0 11309700000.0 11309700000.0 11309700000.0 11309700000.0 11309700000.0 11309700000.0 11309700000.0 11309700000.0 11309700000.0 11309700000.0 11309700000.0 11309700000.0 11309700000.0 11309700000.0 11309700000.0 11309700000.0 11309700000.0 11309700000.0 11309700000.0 11309700000.0 11309700000.0 11309700000.0 11309700000.0 11309700000.0 11309700000.0 11309700000.0 11309700000.0 11309700000.0 11309700000.0 11309700000.0 11309700000.0 11309700000.0 11309700000.0 11309700000.0 11309700000.0 11309700000.0 11309700000.0 11309700000.0 11309700000.0 11309700000.0 11309700000.0 11309700000.0 11309700000.0 11309700000.0 11309700000.0 11309700000.0 11309700000.0 11309700000.0 11309700000.0 11309700000.0 11309700000.0 11309700000.0 11309700000.0 11309700000.0 11309700000.0 11309700000.0 11309700000.0 11309700000.0 11309700000.0 11309700000.0 11309700000.0 11309700000.0 11309700000.0 11309700000.0 11309700000.0 11309700000.0 11309700000.0 11309700000.0 11309700000.0 11309700000.0 11309700000.0 11309700000.0 11309700000.0 11309700000.0 11309700000.0 11309700000.0 11309700000.0 11309700000.0 11309700000.0 11309700000.0 11309700000.0 11309700000.0 11309700000.0 11309700000.0 11309700000.0 11309700000.0 11309700000.0 11309700000.0 11309700000.0 11309700000.0 11309700000.0 11309700000.0 11309700000.0 11309700000.0 11309700000.0 11309700000.0 11309700000.0 11309700000.0 11309700000.0 11309700000.0 11309700000.0 11309700000.0 11309700000.0 11309700000.0 11309700000.0 11309700000.0 11309700000.0 11309700000.0 11309700000.0 11309700000.0 11309700000.0 11309700000.0 11309700000.0 11309700000.0 11309700000.0 11309700000.0 11309700000.0 11309700000.0 11309700000.0 11309700000.0 11309700000.0 11309700000.0 11309700000.0 11309700000.0 11309700000.0 11309700000.0 11309700000.0 11309700000.0 11309700000.0 11309700000.0 11309700000.0 11309700000.0 11309700000.0 11309700000.0 11309700000.0 11309700000.0 11309700000.0 11309700000.0 11309700000.0 11309700000.0 11309700000.0 11309700000.0 11309700000.0 11309700000.0 11309700000.0 11309700000.0 11309700000.0 11309700000.0 11309700000.0 11309700000.0 11309700000.0 11309700000.0 11309700000.0 11309700000.0 11309700000.0 11309700000.0 11309700000.0 11309700000.0 11309700000.0 11309700000.0 11309700000.0 11309700000.0 11309700000.0 11309700000.0 11309700000.0 11309700000.0 11309700000.0 11309700000.0 11309700000.0 11309700000.0 11309700000.0 11309700000.0 11309700000.0 11309700000.0 11309700000.0 11309700000.0 11309700000.0 11309700000.0 11309700000.0 11309700000.0 11309700000.0 11309700000.0 11309700000.0 11309700000.0 11309700000.0 11309700000.0 11309700000.0 11309700000.0 11309700000.0 11309700000.0 11309700000.0 11309700000.0 11309700000.0 11309700000.0 11309700000.0 11309700000.0 11309700000.0 11309700000.0 11309700000.0 11309700000.0 11309700000.0 11309700000.0 11309700000.0 11309700000.0 11309700000.0 11309700000.0 11309700000.0 11309700000.0 11309700000.0 11309700000.0 11309700000.0 11309700000.0 11309700000.0 11309700000.0 11309700000.0 11309700000.0 11309700000.0 11309700000.0 11309700000.0 11309700000.0 11309700000.0 11309700000.0 11309700000.0 11309700000.0 11309700000.0 11309700000.0 11309700000.0 11309700000.0 11309700000.0 11309700000.0 11309700000.0 11309700000.0 11309700000.0 11309700000.0 11309700000.0 11309700000.0 11309700000.0 11309700000.0 11309700000.0 11309700000.0 11309700000.0 11309700000.0 11309700000.0 11309700000.0 11309700000.0 11309700000.0 11309700000.0 11309700000.0 11309700000.0 11309700000.0 11309700000.0 11309700000.0 11309700000.0 11309700000.0 11309700000.0 11309700000.0 11309700000.0 11309700000.0 11309700000.0 11309700000.0 11309700000.0 11309700000.0 11309700000.0 11309700000.0 11309700000.0 11309700000.0 11309700000.0 11309700000.0 11309700000.0 11309700000.0 11309700000.0 11309700000.0 11309700000.0 11309700000.0 11309700000.0 11309700000.0 11309700000.0 11309700000.0 11309700000.0 11309700000.0 11309700000.0 11309700000.0 11309700000.0 11309700000.0 11309700000.0 11309700000.0 11309700000.0 11309700000.0 11309700000.0 11309700000.0 11309700000.0 11309700000.0 11309700000.0 11309700000.0 11309700000.0 11309700000.0 11309700000.0 11309700000.0 11309700000.0 11309700000.0 11309700000.0 11309700000.0 11309700000.0 11309700000.0 11309700000.0 11309700000.0 11309700000.0 11309700000.0 11309700000.0 11309700000.0 11309700000.0 11309700000.0 11309700000.0 11309700000.0 11309700000.0 11309700000.0 11309700000.0 11309700000.0 11309700000.0 11309700000.0 11309700000.0 11309700000.0 11309700000.0 11309700000.0 11309700000.0 11309700000.0 11309700000.0 11309700000.0 11309700000.0 11309700000.0 11309700000.0 11309700000.0 11309700000.0 11309700000.0 11309700000.0 11309700000.0 11309700000.0 11309700000.0 11309700000.0 11309700000.0 11309700000.0 11309700000.0 11309700000.0 11309700000.0 11309700000.0 11309700000.0 11309700000.0 11309700000.0 11309700000.0 11309700000.0 11309700000.0 11309700000.0 11309700000.0 11309700000.0 11309700000.0 11309700000.0 11309700000.0 11309700000.0 11309700000.0 11309700000.0 11309700000.0 11309700000.0 11309700000.0 11309700000.0 11309700000.0 11309700000.0 11309700000.0 11309700000.0 11309700000.0 11309700000.0 11309700000.0 11309700000.0 11309700000.0 11309700000.0 11309700000.0 11309700000.0 11309700000.0 11309700000.0 11309700000.0 11309700000.0 11309700000.0 11309700000.0 11309700000.0 11309700000.0 11309700000.0 11309700000.0 11309700000.0 11309700000.0 11309700000.0 11309700000.0 11309700000.0 11309700000.0 11309700000.0 11309700000.0 11309700000.0 11309700000.0 11309700000.0 11309700000.0 11309700000.0 11309700000.0 11309700000.0 11309700000.0 11309700000.0 11309700000.0 11309700000.0 11309700000.0 11309700000.0 11309700000.0 11309700000.0 11309700000.0 11309700000.0 11309700000.0 11309700000.0 11309700000.0 11309700000.0 11309700000.0 11309700000.0 11309700000.0 11309700000.0 11309700000.0 11309700000.0 11309700000.0 11309700000.0 11309700000.0 11309700000.0 11309700000.0 11309700000.0 11309700000.0 11309700000.0 11309700000.0 11309700000.0 11309700000.0 11309700000.0 11309700000.0 11309700000.0 11309700000.0 11309700000.0 11309700000.0 11309700000.0 11309700000.0 11309700000.0 11309700000.0 11309700000.0 11309700000.0 11309700000.0 11309700000.0 11309700000.0 11309700000.0 11309700000.0 11309700000.0 11309700000.0 11309700000.0 11309700000.0 11309700000.0 11309700000.0 11309700000.0 11309700000.0 11309700000.0 11309700000.0 11309700000.0 11309700000.0 11309700000.0 11309700000.0 11309700000.0 11309700000.0 11309700000.0 11309700000.0 11309700000.0 11309700000.0 11309700000.0 11309700000.0 11309700000.0 11309700000.0 11309700000.0 11309700000.0 11309700000.0 11309700000.0 11309700000.0 11309700000.0 11309700000.0 11309700000.0 11309700000.0 11309700000.0 11309700000.0 11309700000.0 11309700000.0 11309700000.0 11309700000.0 11309700000.0 11309700000.0 11309700000.0 11309700000.0 11309700000.0 11309700000.0 11309700000.0 11309700000.0 11309700000.0 11309700000.0 11309700000.0 11309700000.0 11309700000.0 11309700000.0 11309700000.0 11309700000.0 11309700000.0 11309700000.0 11309700000.0 11309700000.0 11309700000.0 11309700000.0 11309700000.0 11309700000.0 11309700000.0 11309700000.0 11309700000.0 11309700000.0 11309700000.0 11309700000.0 11309700000.0 11309700000.0 11309700000.0 11309700000.0 11309700000.0 11309700000.0 11309700000.0 11309700000.0 11309700000.0 11309700000.0 11309700000.0 11309700000.0 11309700000.0 11309700000.0 11309700000.0 11309700000.0 11309700000.0 11309700000.0 11309700000.0 11309700000.0 11309700000.0 11309700000.0 11309700000.0 11309700000.0 11309700000.0 11309700000.0 11309700000.0 11309700000.0 11309700000.0 11309700000.0 11309700000.0 11309700000.0 11309700000.0 11309700000.0 11309700000.0 11309700000.0 11309700000.0 11309700000.0 11309700000.0 11309700000.0 11309700000.0 11309700000.0 11309700000.0 11309700000.0 11309700000.0 11309700000.0 11309700000.0 11309700000.0 11309700000.0 11309700000.0 11309700000.0 11309700000.0 11309700000.0 11309700000.0 11309700000.0 11309700000.0 11309700000.0 11309700000.0 11309700000.0 11309700000.0 11309700000.0 11309700000.0 11309700000.0 11309700000.0 11309700000.0 11309700000.0 11309700000.0 11309700000.0 11309700000.0 11309700000.0 11309700000.0 11309700000.0 11309700000.0 11309700000.0 11309700000.0 11309700000.0 11309700000.0 11309700000.0 11309700000.0 11309700000.0 11309700000.0 11309700000.0 11309700000.0 11309700000.0 11309700000.0 11309700000.0 11309700000.0 11309700000.0 11309700000.0 11309700000.0 11309700000.0 11309700000.0 11309700000.0 11309700000.0 11309700000.0 11309700000.0 11309700000.0 11309700000.0 11309700000.0 11309700000.0 11309700000.0 11309700000.0 11309700000.0 11309700000.0 11309700000.0 11309700000.0 11309700000.0 11309700000.0 11309700000.0 11309700000.0 11309700000.0 11309700000.0 11309700000.0 11309700000.0 11309700000.0 11309700000.0 11309700000.0 11309700000.0 11309700000.0 11309700000.0 11309700000.0 11309700000.0 11309700000.0 11309700000.0 11309700000.0 11309700000.0 11309700000.0 11309700000.0 11309700000.0 11309700000.0 11309700000.0 11309700000.0 11309700000.0 11309700000.0 11309700000.0 11309700000.0 11309700000.0 11309700000.0 11309700000.0 11309700000.0 11309700000.0 11309700000.0 11309700000.0 11309700000.0 11309700000.0 11309700000.0 11309700000.0 11309700000.0 11309700000.0 11309700000.0 11309700000.0 11309700000.0 11309700000.0 11309700000.0 11309700000.0 11309700000.0 11309700000.0 11309700000.0 11309700000.0 11309700000.0 11309700000.0 11309700000.0 11309700000.0 11309700000.0 11309700000.0 11309700000.0 11309700000.0 11309700000.0 11309700000.0 11309700000.0 11309700000.0 11309700000.0 11309700000.0 11309700000.0 11309700000.0 11309700000.0 11309700000.0 11309700000.0 11309700000.0 11309700000.0 11309700000.0 11309700000.0 11309700000.0 11309700000.0 11309700000.0 11309700000.0 11309700000.0 11309700000.0 11309700000.0 11309700000.0 11309700000.0 11309700000.0 11309700000.0 11309700000.0 11309700000.0 11309700000.0 11309700000.0 11309700000.0 11309700000.0 11309700000.0 11309700000.0 11309700000.0 11309700000.0 11309700000.0 11309700000.0 11309700000.0 11309700000.0 11309700000.0 11309700000.0 11309700000.0 11309700000.0 11309700000.0 11309700000.0 11309700000.0 11309700000.0 11309700000.0 11309700000.0 11309700000.0 11309700000.0 11309700000.0 11309700000.0 11309700000.0 11309700000.0 11309700000.0 11309700000.0 11309700000.0 11309700000.0 11309700000.0 11309700000.0 11309700000.0 11309700000.0 11309700000.0 11309700000.0 11309700000.0 11309700000.0 11309700000.0 11309700000.0 11309700000.0 11309700000.0 11309700000.0 11309700000.0 11309700000.0 11309700000.0 11309700000.0 11309700000.0 11309700000.0 11309700000.0 11309700000.0 11309700000.0 11309700000.0 11309700000.0 11309700000.0 11309700000.0 11309700000.0 11309700000.0 11309700000.0 11309700000.0 11309700000.0 11309700000.0 11309700000.0 11309700000.0 11309700000.0 11309700000.0 11309700000.0 11309700000.0 11309700000.0 11309700000.0 11309700000.0 11309700000.0 11309700000.0 11309700000.0 11309700000.0 11309700000.0 11309700000.0 11309700000.0 11309700000.0 11309700000.0 11309700000.0 11309700000.0 11309700000.0 11309700000.0 11309700000.0 11309700000.0 11309700000.0 11309700000.0 11309700000.0 11309700000.0 11309700000.0 11309700000.0 11309700000.0 11309700000.0 11309700000.0 11309700000.0 11309700000.0 11309700000.0 11309700000.0 11309700000.0 11309700000.0 11309700000.0 11309700000.0 11309700000.0 11309700000.0 11309700000.0 11309700000.0 11309700000.0 11309700000.0 11309700000.0 11309700000.0 11309700000.0 11309700000.0 11309700000.0 11309700000.0 11309700000.0 11309700000.0 11309700000.0 11309700000.0 11309700000.0 11309700000.0 11309700000.0 11309700000.0 11309700000.0 11309700000.0 11309700000.0 11309700000.0 11309700000.0 11309700000.0 11309700000.0 11309700000.0 11309700000.0 11309700000.0 11309700000.0 11309700000.0 11309700000.0 11309700000.0 11309700000.0 11309700000.0 11309700000.0 11309700000.0 11309700000.0 11309700000.0 11309700000.0 11309700000.0 11309700000.0 11309700000.0 11309700000.0 11309700000.0 11309700000.0 11309700000.0 11309700000.0 11309700000.0 11309700000.0 11309700000.0 11309700000.0 11309700000.0 11309700000.0 11309700000.0 11309700000.0 11309700000.0 11309700000.0 11309700000.0 11309700000.0 11309700000.0 11309700000.0 11309700000.0 11309700000.0 11309700000.0 11309700000.0 11309700000.0 11309700000.0 11309700000.0 11309700000.0 11309700000.0 11309700000.0 11309700000.0 11309700000.0 11309700000.0 11309700000.0 11309700000.0 11309700000.0 11309700000.0 11309700000.0 11309700000.0 11309700000.0 11309700000.0 11309700000.0 11309700000.0 11309700000.0 11309700000.0 11309700000.0 11309700000.0 11309700000.0 11309700000.0 11309700000.0 11309700000.0 11309700000.0 11309700000.0 11309700000.0 11309700000.0 11309700000.0 11309700000.0 11309700000.0 11309700000.0 11309700000.0 11309700000.0 11309700000.0 11309700000.0 11309700000.0 11309700000.0 11309700000.0 11309700000.0 11309700000.0 11309700000.0 11309700000.0 11309700000.0 11309700000.0 11309700000.0 11309700000.0 11309700000.0 11309700000.0 11309700000.0 11309700000.0 11309700000.0 11309700000.0 11309700000.0 11309700000.0 11309700000.0 11309700000.0 11309700000.0 11309700000.0 11309700000.0 11309700000.0 11309700000.0 11309700000.0 11309700000.0 11309700000.0 11309700000.0 11309700000.0 11309700000.0 11309700000.0 11309700000.0 11309700000.0 11309700000.0 11309700000.0 11309700000.0 11309700000.0 11309700000.0 11309700000.0 11309700000.0 11309700000.0 11309700000.0 11309700000.0 11309700000.0 11309700000.0 11309700000.0 11309700000.0 11309700000.0 11309700000.0 11309700000.0 11309700000.0 11309700000.0 11309700000.0 11309700000.0 11309700000.0 11309700000.0 11309700000.0 11309700000.0 11309700000.0 11309700000.0 11309700000.0 11309700000.0 11309700000.0 11309700000.0 11309700000.0 11309700000.0 11309700000.0 11309700000.0 11309700000.0 11309700000.0 11309700000.0 11309700000.0 11309700000.0 11309700000.0 11309700000.0 11309700000.0 11309700000.0 11309700000.0 11309700000.0 11309700000.0 11309700000.0 11309700000.0 11309700000.0 11309700000.0 11309700000.0 11309700000.0 11309700000.0 11309700000.0 11309700000.0 11309700000.0 11309700000.0 11309700000.0 11309700000.0 11309700000.0 11309700000.0 11309700000.0 11309700000.0 11309700000.0 11309700000.0 11309700000.0 11309700000.0 11309700000.0 11309700000.0 11309700000.0 11309700000.0 11309700000.0 11309700000.0 11309700000.0 11309700000.0 11309700000.0 11309700000.0 11309700000.0 11309700000.0 11309700000.0 11309700000.0 11309700000.0 11309700000.0 11309700000.0 11309700000.0 11309700000.0 11309700000.0 11309700000.0 11309700000.0 11309700000.0 11309700000.0 11309700000.0 11309700000.0 11309700000.0 11309700000.0 11309700000.0 11309700000.0 11309700000.0 11309700000.0 11309700000.0 11309700000.0 11309700000.0 11309700000.0 11309700000.0 11309700000.0 11309700000.0 11309700000.0 11309700000.0 11309700000.0 11309700000.0 11309700000.0 11309700000.0 11309700000.0 11309700000.0 11309700000.0 11309700000.0 11309700000.0 11309700000.0 11309700000.0 11309700000.0 11309700000.0 11309700000.0 11309700000.0 11309700000.0 11309700000.0 11309700000.0 11309700000.0 11309700000.0 11309700000.0 11309700000.0 11309700000.0 11309700000.0 11309700000.0 11309700000.0 11309700000.0 11309700000.0 11309700000.0 11309700000.0 11309700000.0 11309700000.0 11309700000.0 11309700000.0 11309700000.0 11309700000.0 11309700000.0 11309700000.0 11309700000.0 11309700000.0 11309700000.0 11309700000.0 11309700000.0 11309700000.0 11309700000.0 11309700000.0 11309700000.0 11309700000.0 11309700000.0 11309700000.0 11309700000.0 11309700000.0 11309700000.0 11309700000.0 11309700000.0 11309700000.0 11309700000.0 11309700000.0 11309700000.0 11309700000.0 11309700000.0 11309700000.0 11309700000.0 11309700000.0 11309700000.0 11309700000.0 11309700000.0 11309700000.0 11309700000.0 11309700000.0 11309700000.0 11309700000.0 11309700000.0 11309700000.0 11309700000.0 11309700000.0 11309700000.0 11309700000.0 11309700000.0 11309700000.0 11309700000.0 11309700000.0 11309700000.0 11309700000.0 11309700000.0 11309700000.0 11309700000.0 11309700000.0 11309700000.0 11309700000.0 11309700000.0 11309700000.0 11309700000.0 11309700000.0 11309700000.0 11309700000.0 11309700000.0 11309700000.0 11309700000.0 11309700000.0 11309700000.0 11309700000.0 11309700000.0 11309700000.0 11309700000.0 11309700000.0 11309700000.0 11309700000.0 11309700000.0 11309700000.0 11309700000.0 11309700000.0 11309700000.0 11309700000.0 11309700000.0 11309700000.0 11309700000.0 11309700000.0 11309700000.0 11309700000.0 11309700000.0 11309700000.0 11309700000.0 11309700000.0 11309700000.0 11309700000.0 11309700000.0 11309700000.0 11309700000.0 11309700000.0 11309700000.0 11309700000.0 11309700000.0 11309700000.0 11309700000.0 11309700000.0 11309700000.0 11309700000.0 11309700000.0 11309700000.0 11309700000.0 11309700000.0 11309700000.0 11309700000.0 11309700000.0 11309700000.0 11309700000.0 11309700000.0 11309700000.0 11309700000.0 11309700000.0 11309700000.0 11309700000.0 11309700000.0 11309700000.0 11309700000.0 11309700000.0 11309700000.0 11309700000.0 11309700000.0 11309700000.0 11309700000.0 11309700000.0 11309700000.0 11309700000.0 11309700000.0 11309700000.0 11309700000.0 11309700000.0 11309700000.0 11309700000.0 11309700000.0 11309700000.0 11309700000.0 11309700000.0 11309700000.0 11309700000.0 11309700000.0 11309700000.0 11309700000.0 11309700000.0 11309700000.0 11309700000.0 11309700000.0 11309700000.0 11309700000.0 11309700000.0 11309700000.0 11309700000.0 11309700000.0 11309700000.0 11309700000.0 11309700000.0 11309700000.0 11309700000.0 11309700000.0 11309700000.0 11309700000.0 11309700000.0 11309700000.0 11309700000.0 11309700000.0 11309700000.0 11309700000.0 11309700000.0 11309700000.0 11309700000.0 11309700000.0 11309700000.0 11309700000.0 11309700000.0 11309700000.0 11309700000.0 11309700000.0 11309700000.0 11309700000.0 11309700000.0 11309700000.0 11309700000.0 11309700000.0 11309700000.0 11309700000.0 11309700000.0 11309700000.0 11309700000.0 11309700000.0 11309700000.0 11309700000.0 11309700000.0 11309700000.0 11309700000.0 11309700000.0 11309700000.0 11309700000.0 11309700000.0 11309700000.0 11309700000.0 11309700000.0 11309700000.0 11309700000.0 11309700000.0 11309700000.0 11309700000.0 11309700000.0 11309700000.0 11309700000.0 11309700000.0 11309700000.0 11309700000.0 11309700000.0 11309700000.0 11309700000.0 11309700000.0 11309700000.0 11309700000.0 11309700000.0 11309700000.0 11309700000.0 11309700000.0 11309700000.0 11309700000.0 11309700000.0 11309700000.0 11309700000.0 11309700000.0 11309700000.0 11309700000.0 11309700000.0 11309700000.0 11309700000.0 11309700000.0 11309700000.0 11309700000.0 11309700000.0 11309700000.0 11309700000.0 11309700000.0 11309700000.0 11309700000.0 11309700000.0 11309700000.0 11309700000.0 11309700000.0 11309700000.0 11309700000.0 11309700000.0 11309700000.0 11309700000.0 11309700000.0 11309700000.0 11309700000.0 11309700000.0 11309700000.0 11309700000.0 11309700000.0 11309700000.0 11309700000.0 11309700000.0 11309700000.0 11309700000.0 11309700000.0 11309700000.0 11309700000.0 11309700000.0 11309700000.0 11309700000.0 11309700000.0 11309700000.0 11309700000.0 11309700000.0 11309700000.0 11309700000.0 11309700000.0 11309700000.0 11309700000.0 11309700000.0 11309700000.0 11309700000.0 11309700000.0 11309700000.0 11309700000.0 11309700000.0 11309700000.0 11309700000.0 11309700000.0 11309700000.0 11309700000.0 11309700000.0 11309700000.0 11309700000.0 11309700000.0 11309700000.0 11309700000.0 11309700000.0 11309700000.0 11309700000.0 11309700000.0 11309700000.0 11309700000.0 11309700000.0 11309700000.0 11309700000.0 11309700000.0 11309700000.0 11309700000.0 11309700000.0 11309700000.0 11309700000.0 11309700000.0 11309700000.0 11309700000.0 11309700000.0 11309700000.0 11309700000.0 11309700000.0 11309700000.0 11309700000.0 11309700000.0 11309700000.0 11309700000.0 11309700000.0 11309700000.0 11309700000.0 11309700000.0 11309700000.0 11309700000.0 11309700000.0 11309700000.0 11309700000.0 11309700000.0 11309700000.0 11309700000.0 11309700000.0 11309700000.0 11309700000.0 11309700000.0 11309700000.0 11309700000.0 11309700000.0 11309700000.0 11309700000.0 11309700000.0 11309700000.0 11309700000.0 11309700000.0 11309700000.0 11309700000.0 11309700000.0 11309700000.0 11309700000.0 11309700000.0 11309700000.0 11309700000.0 11309700000.0 11309700000.0 11309700000.0 11309700000.0 11309700000.0 11309700000.0 11309700000.0 11309700000.0 11309700000.0 11309700000.0 11309700000.0 11309700000.0 11309700000.0 11309700000.0 11309700000.0 11309700000.0 11309700000.0 11309700000.0 11309700000.0 11309700000.0 11309700000.0 11309700000.0 11309700000.0 11309700000.0 11309700000.0 11309700000.0 11309700000.0 11309700000.0 11309700000.0 11309700000.0 11309700000.0 11309700000.0 11309700000.0 11309700000.0 11309700000.0 11309700000.0 11309700000.0 11309700000.0 11309700000.0 11309700000.0 11309700000.0 11309700000.0 11309700000.0 11309700000.0 11309700000.0 11309700000.0 11309700000.0 11309700000.0 11309700000.0 11309700000.0 11309700000.0 11309700000.0 11309700000.0 11309700000.0 11309700000.0 11309700000.0 11309700000.0 11309700000.0 11309700000.0 11309700000.0 11309700000.0 11309700000.0 11309700000.0 11309700000.0 11309700000.0 11309700000.0 11309700000.0 11309700000.0 11309700000.0 11309700000.0 11309700000.0 11309700000.0 11309700000.0 11309700000.0 11309700000.0 11309700000.0 11309700000.0 11309700000.0 11309700000.0 11309700000.0 11309700000.0 11309700000.0 11309700000.0 11309700000.0 11309700000.0 11309700000.0 11309700000.0 11309700000.0 11309700000.0 11309700000.0 11309700000.0 11309700000.0 11309700000.0 11309700000.0 11309700000.0 11309700000.0 11309700000.0 11309700000.0 11309700000.0 11309700000.0 11309700000.0 11309700000.0 11309700000.0 11309700000.0 11309700000.0 11309700000.0 11309700000.0 11309700000.0 11309700000.0 11309700000.0 11309700000.0 11309700000.0 11309700000.0 11309700000.0 11309700000.0 11309700000.0 11309700000.0 11309700000.0 11309700000.0 11309700000.0 11309700000.0 11309700000.0 11309700000.0 11309700000.0 11309700000.0 11309700000.0 11309700000.0 11309700000.0 11309700000.0 11309700000.0 11309700000.0 11309700000.0 11309700000.0 11309700000.0 11309700000.0 11309700000.0 11309700000.0 11309700000.0 11309700000.0 11309700000.0 11309700000.0 11309700000.0 11309700000.0 11309700000.0 11309700000.0 11309700000.0 11309700000.0 11309700000.0 11309700000.0 11309700000.0 11309700000.0 11309700000.0 11309700000.0 11309700000.0 11309700000.0 11309700000.0 11309700000.0 11309700000.0 11309700000.0 11309700000.0 11309700000.0 11309700000.0 11309700000.0 11309700000.0 11309700000.0 11309700000.0 11309700000.0 11309700000.0 11309700000.0 11309700000.0 11309700000.0 11309700000.0 11309700000.0 11309700000.0 11309700000.0 11309700000.0 11309700000.0 11309700000.0 11309700000.0 11309700000.0 11309700000.0 11309700000.0 11309700000.0 11309700000.0 11309700000.0 11309700000.0 11309700000.0 11309700000.0 11309700000.0 11309700000.0 11309700000.0 11309700000.0 11309700000.0 11309700000.0 11309700000.0 11309700000.0 11309700000.0 11309700000.0 11309700000.0 11309700000.0 11309700000.0 11309700000.0 11309700000.0 11309700000.0 11309700000.0 11309700000.0 11309700000.0 11309700000.0 11309700000.0 11309700000.0 11309700000.0 11309700000.0 11309700000.0 11309700000.0 11309700000.0 11309700000.0 11309700000.0 11309700000.0 11309700000.0 11309700000.0 11309700000.0 11309700000.0 11309700000.0 11309700000.0 11309700000.0 11309700000.0 11309700000.0 11309700000.0 11309700000.0 11309700000.0 11309700000.0 11309700000.0 11309700000.0 11309700000.0 11309700000.0 11309700000.0 11309700000.0 11309700000.0 11309700000.0 11309700000.0 11309700000.0 11309700000.0 11309700000.0 11309700000.0 11309700000.0 11309700000.0 11309700000.0 11309700000.0 11309700000.0 11309700000.0 11309700000.0 11309700000.0 11309700000.0 11309700000.0 11309700000.0 11309700000.0 11309700000.0 11309700000.0 11309700000.0 11309700000.0 11309700000.0 11309700000.0 11309700000.0 11309700000.0 11309700000.0 11309700000.0 11309700000.0 11309700000.0 11309700000.0 11309700000.0 11309700000.0 11309700000.0 11309700000.0 11309700000.0 11309700000.0 11309700000.0 11309700000.0 11309700000.0 11309700000.0 11309700000.0 11309700000.0 11309700000.0 11309700000.0 11309700000.0 11309700000.0 11309700000.0 11309700000.0 11309700000.0 11309700000.0 11309700000.0 11309700000.0 11309700000.0 11309700000.0 11309700000.0 11309700000.0 11309700000.0 11309700000.0 11309700000.0 11309700000.0 11309700000.0 11309700000.0 11309700000.0 11309700000.0 11309700000.0 11309700000.0 11309700000.0 11309700000.0 11309700000.0 11309700000.0 11309700000.0 11309700000.0 11309700000.0 11309700000.0 11309700000.0 11309700000.0 11309700000.0 11309700000.0 11309700000.0 11309700000.0 11309700000.0 11309700000.0 11309700000.0 11309700000.0 11309700000.0 11309700000.0 11309700000.0 11309700000.0 11309700000.0 11309700000.0 11309700000.0 11309700000.0 11309700000.0 11309700000.0 11309700000.0 11309700000.0 11309700000.0 11309700000.0 11309700000.0 11309700000.0 11309700000.0 11309700000.0 11309700000.0 11309700000.0 11309700000.0 11309700000.0 11309700000.0 11309700000.0 11309700000.0 11309700000.0 11309700000.0 11309700000.0 11309700000.0 11309700000.0 11309700000.0 11309700000.0 11309700000.0 11309700000.0 11309700000.0 11309700000.0 11309700000.0 11309700000.0 11309700000.0 11309700000.0 11309700000.0 11309700000.0 11309700000.0 11309700000.0 11309700000.0 11309700000.0 11309700000.0 11309700000.0 11309700000.0 11309700000.0 11309700000.0 11309700000.0 11309700000.0 11309700000.0 11309700000.0 11309700000.0 11309700000.0 11309700000.0 11309700000.0 11309700000.0 11309700000.0 11309700000.0 11309700000.0 11309700000.0 11309700000.0 11309700000.0 11309700000.0 11309700000.0 11309700000.0 11309700000.0 11309700000.0 11309700000.0 11309700000.0 11309700000.0 11309700000.0 11309700000.0 11309700000.0 11309700000.0 11309700000.0 11309700000.0 11309700000.0 11309700000.0 11309700000.0 11309700000.0 11309700000.0 11309700000.0 11309700000.0 11309700000.0 11309700000.0 11309700000.0 11309700000.0 11309700000.0 11309700000.0 11309700000.0 11309700000.0 11309700000.0 11309700000.0 11309700000.0 11309700000.0 11309700000.0 11309700000.0 11309700000.0 11309700000.0 11309700000.0 11309700000.0 11309700000.0 11309700000.0 11309700000.0 11309700000.0 11309700000.0 11309700000.0 11309700000.0 11309700000.0 11309700000.0 11309700000.0 11309700000.0 11309700000.0 11309700000.0 11309700000.0 11309700000.0 11309700000.0 11309700000.0 11309700000.0 11309700000.0 11309700000.0 11309700000.0 11309700000.0 11309700000.0 11309700000.0 11309700000.0 11309700000.0 11309700000.0 11309700000.0 11309700000.0 11309700000.0 11309700000.0 11309700000.0 11309700000.0 11309700000.0 11309700000.0 11309700000.0 11309700000.0 11309700000.0 11309700000.0 11309700000.0 11309700000.0 11309700000.0 11309700000.0 11309700000.0 11309700000.0 11309700000.0 11309700000.0 11309700000.0 11309700000.0 11309700000.0 11309700000.0 11309700000.0 11309700000.0 11309700000.0 11309700000.0 11309700000.0 11309700000.0 11309700000.0 11309700000.0 11309700000.0 11309700000.0 11309700000.0 11309700000.0 11309700000.0 11309700000.0 11309700000.0 11309700000.0 11309700000.0 11309700000.0 11309700000.0 11309700000.0 11309700000.0 11309700000.0 11309700000.0 11309700000.0 11309700000.0 11309700000.0 11309700000.0 11309700000.0 11309700000.0 11309700000.0 11309700000.0 11309700000.0 11309700000.0 11309700000.0 11309700000.0 11309700000.0 11309700000.0 11309700000.0 11309700000.0 11309700000.0 11309700000.0 11309700000.0 11309700000.0 11309700000.0 11309700000.0 11309700000.0 11309700000.0 11309700000.0 11309700000.0 11309700000.0 11309700000.0 11309700000.0 11309700000.0 11309700000.0 11309700000.0 11309700000.0 11309700000.0 11309700000.0 11309700000.0 11309700000.0 11309700000.0 11309700000.0 11309700000.0 11309700000.0 11309700000.0 11309700000.0 11309700000.0 11309700000.0 11309700000.0 11309700000.0 11309700000.0 11309700000.0 11309700000.0 11309700000.0 11309700000.0 11309700000.0 11309700000.0 11309700000.0 11309700000.0 11309700000.0 11309700000.0 11309700000.0 11309700000.0 11309700000.0 11309700000.0 11309700000.0 11309700000.0 11309700000.0 11309700000.0 11309700000.0 11309700000.0 11309700000.0 11309700000.0 11309700000.0 11309700000.0 11309700000.0 11309700000.0 11309700000.0 11309700000.0 11309700000.0 11309700000.0 11309700000.0 11309700000.0 11309700000.0 11309700000.0 11309700000.0 11309700000.0 11309700000.0 11309700000.0 11309700000.0 11309700000.0 11309700000.0 11309700000.0 11309700000.0 11309700000.0 11309700000.0 11309700000.0 11309700000.0 11309700000.0 11309700000.0 11309700000.0 11309700000.0 11309700000.0 11309700000.0 11309700000.0 11309700000.0 11309700000.0 11309700000.0 11309700000.0 11309700000.0 11309700000.0 11309700000.0 11309700000.0 11309700000.0 11309700000.0 11309700000.0 11309700000.0 11309700000.0 11309700000.0 11309700000.0 11309700000.0 11309700000.0 11309700000.0 11309700000.0 11309700000.0 11309700000.0 11309700000.0 11309700000.0 11309700000.0 11309700000.0 11309700000.0 11309700000.0 11309700000.0 11309700000.0 11309700000.0 11309700000.0 11309700000.0 11309700000.0 11309700000.0 11309700000.0 11309700000.0 11309700000.0 11309700000.0 11309700000.0 11309700000.0 11309700000.0 11309700000.0 11309700000.0 11309700000.0 11309700000.0 11309700000.0 11309700000.0 11309700000.0 11309700000.0 11309700000.0 11309700000.0 11309700000.0 11309700000.0 11309700000.0 11309700000.0 11309700000.0 11309700000.0 11309700000.0 11309700000.0 11309700000.0 11309700000.0 11309700000.0 11309700000.0 11309700000.0 11309700000.0 11309700000.0 11309700000.0 11309700000.0 11309700000.0 11309700000.0 11309700000.0 11309700000.0 11309700000.0 11309700000.0 11309700000.0 11309700000.0 11309700000.0 11309700000.0 11309700000.0 11309700000.0 11309700000.0 11309700000.0 11309700000.0 11309700000.0 11309700000.0 11309700000.0 11309700000.0 11309700000.0 11309700000.0 11309700000.0 11309700000.0 11309700000.0 11309700000.0 11309700000.0 11309700000.0 11309700000.0 11309700000.0 11309700000.0 11309700000.0 11309700000.0 11309700000.0 11309700000.0 11309700000.0 11309700000.0 11309700000.0 11309700000.0 11309700000.0 11309700000.0 11309700000.0 11309700000.0 11309700000.0 11309700000.0 11309700000.0 11309700000.0 11309700000.0 11309700000.0 11309700000.0 11309700000.0 11309700000.0 11309700000.0 11309700000.0 11309700000.0 11309700000.0 11309700000.0 11309700000.0 11309700000.0 11309700000.0 11309700000.0 11309700000.0 11309700000.0 11309700000.0 11309700000.0 11309700000.0 11309700000.0 11309700000.0 11309700000.0 11309700000.0 11309700000.0 11309700000.0 11309700000.0 11309700000.0 11309700000.0 11309700000.0 11309700000.0 11309700000.0 11309700000.0 11309700000.0 11309700000.0 11309700000.0 11309700000.0 11309700000.0 11309700000.0 11309700000.0 11309700000.0 11309700000.0 11309700000.0 11309700000.0 11309700000.0 11309700000.0 11309700000.0 11309700000.0 11309700000.0 11309700000.0 11309700000.0 11309700000.0 11309700000.0 11309700000.0 11309700000.0 11309700000.0 11309700000.0 11309700000.0 11309700000.0 11309700000.0 11309700000.0 11309700000.0 11309700000.0 11309700000.0 11309700000.0 11309700000.0 11309700000.0 11309700000.0 11309700000.0 11309700000.0 11309700000.0 11309700000.0 11309700000.0 11309700000.0 11309700000.0 11309700000.0 11309700000.0 11309700000.0 11309700000.0 11309700000.0 11309700000.0 11309700000.0 11309700000.0 11309700000.0 11309700000.0 11309700000.0 11309700000.0 11309700000.0 11309700000.0 11309700000.0 11309700000.0 11309700000.0 11309700000.0 11309700000.0 11309700000.0 11309700000.0 11309700000.0 11309700000.0 11309700000.0 11309700000.0 11309700000.0 11309700000.0 11309700000.0 11309700000.0 11309700000.0 11309700000.0 11309700000.0 11309700000.0 11309700000.0 11309700000.0 11309700000.0 11309700000.0 11309700000.0 11309700000.0 11309700000.0 11309700000.0 11309700000.0 11309700000.0 11309700000.0 11309700000.0 11309700000.0 11309700000.0 11309700000.0 11309700000.0 11309700000.0 11309700000.0 11309700000.0 11309700000.0 11309700000.0 11309700000.0 11309700000.0 11309700000.0 11309700000.0 11309700000.0 11309700000.0 11309700000.0 11309700000.0 11309700000.0 11309700000.0 11309700000.0 11309700000.0 11309700000.0 11309700000.0 11309700000.0 11309700000.0 11309700000.0 11309700000.0 11309700000.0 11309700000.0 11309700000.0 11309700000.0 11309700000.0 11309700000.0 11309700000.0 11309700000.0 11309700000.0 11309700000.0 11309700000.0 11309700000.0 11309700000.0 11309700000.0 11309700000.0 11309700000.0 11309700000.0 11309700000.0 11309700000.0 11309700000.0 11309700000.0 11309700000.0 11309700000.0 11309700000.0 11309700000.0 11309700000.0 11309700000.0 11309700000.0 11309700000.0 11309700000.0 11309700000.0 11309700000.0 11309700000.0 11309700000.0 11309700000.0 11309700000.0 11309700000.0 11309700000.0 11309700000.0 11309700000.0 11309700000.0 11309700000.0 11309700000.0 11309700000.0 11309700000.0 11309700000.0 11309700000.0 11309700000.0 11309700000.0 11309700000.0 11309700000.0 11309700000.0 11309700000.0 11309700000.0 11309700000.0 11309700000.0 11309700000.0 11309700000.0 11309700000.0 11309700000.0 11309700000.0 11309700000.0 11309700000.0 11309700000.0 11309700000.0 11309700000.0 11309700000.0 11309700000.0 11309700000.0 11309700000.0 11309700000.0 11309700000.0 11309700000.0 11309700000.0 11309700000.0 11309700000.0 11309700000.0 11309700000.0 11309700000.0 11309700000.0 11309700000.0 11309700000.0 11309700000.0 11309700000.0 11309700000.0 11309700000.0 11309700000.0 11309700000.0 11309700000.0 11309700000.0 11309700000.0 11309700000.0 11309700000.0 11309700000.0 11309700000.0 11309700000.0 11309700000.0 11309700000.0 11309700000.0 11309700000.0 11309700000.0 11309700000.0 11309700000.0 11309700000.0 11309700000.0 11309700000.0 11309700000.0 11309700000.0 11309700000.0 11309700000.0 11309700000.0 11309700000.0 11309700000.0 11309700000.0 11309700000.0 11309700000.0 11309700000.0 11309700000.0 11309700000.0 11309700000.0 11309700000.0 11309700000.0 11309700000.0 11309700000.0 11309700000.0 11309700000.0 11309700000.0 11309700000.0 11309700000.0 11309700000.0 11309700000.0 11309700000.0 11309700000.0 11309700000.0 11309700000.0 11309700000.0 11309700000.0 11309700000.0 11309700000.0 11309700000.0 11309700000.0 11309700000.0 11309700000.0 11309700000.0 11309700000.0 11309700000.0 11309700000.0 11309700000.0 11309700000.0 11309700000.0 11309700000.0 11309700000.0 11309700000.0 11309700000.0 11309700000.0 11309700000.0 11309700000.0 11309700000.0 11309700000.0 11309700000.0 11309700000.0 11309700000.0 11309700000.0 11309700000.0 11309700000.0 11309700000.0 11309700000.0 11309700000.0 11309700000.0 11309700000.0 11309700000.0 11309700000.0 11309700000.0 11309700000.0 11309700000.0 11309700000.0 11309700000.0 11309700000.0 11309700000.0 11309700000.0 11309700000.0 11309700000.0 11309700000.0 11309700000.0 11309700000.0 11309700000.0 11309700000.0 11309700000.0 11309700000.0 11309700000.0 11309700000.0 11309700000.0 11309700000.0 11309700000.0 11309700000.0 11309700000.0 11309700000.0 11309700000.0 11309700000.0 11309700000.0 11309700000.0 11309700000.0 11309700000.0 11309700000.0 11309700000.0 11309700000.0 11309700000.0 11309700000.0 11309700000.0 11309700000.0 11309700000.0 11309700000.0 11309700000.0 11309700000.0 11309700000.0 11309700000.0 11309700000.0 11309700000.0 11309700000.0 11309700000.0 11309700000.0 11309700000.0 11309700000.0 11309700000.0 11309700000.0 11309700000.0 11309700000.0 11309700000.0 11309700000.0 11309700000.0 11309700000.0 11309700000.0 11309700000.0 11309700000.0 11309700000.0 11309700000.0 11309700000.0 11309700000.0 11309700000.0 11309700000.0 11309700000.0 11309700000.0 11309700000.0 11309700000.0 11309700000.0 11309700000.0 11309700000.0 11309700000.0 11309700000.0 11309700000.0 11309700000.0 11309700000.0 11309700000.0 11309700000.0 11309700000.0 11309700000.0 11309700000.0 11309700000.0 11309700000.0 11309700000.0 11309700000.0 11309700000.0 11309700000.0 11309700000.0 11309700000.0 11309700000.0 11309700000.0 11309700000.0 11309700000.0 11309700000.0 11309700000.0 11309700000.0 11309700000.0 11309700000.0 11309700000.0 11309700000.0 11309700000.0 11309700000.0 11309700000.0 11309700000.0 11309700000.0 11309700000.0 11309700000.0 11309700000.0 11309700000.0 11309700000.0 11309700000.0 11309700000.0 11309700000.0 11309700000.0 11309700000.0 11309700000.0 11309700000.0 11309700000.0 11309700000.0 11309700000.0 11309700000.0 11309700000.0 11309700000.0 11309700000.0 11309700000.0 11309700000.0 11309700000.0 11309700000.0 11309700000.0 11309700000.0 11309700000.0 11309700000.0 11309700000.0 11309700000.0 11309700000.0 11309700000.0 11309700000.0 11309700000.0 11309700000.0 11309700000.0 11309700000.0 11309700000.0 11309700000.0 11309700000.0 11309700000.0 11309700000.0 11309700000.0 11309700000.0 11309700000.0 11309700000.0 11309700000.0 11309700000.0 11309700000.0 11309700000.0 11309700000.0 11309700000.0 11309700000.0 11309700000.0 11309700000.0 11309700000.0 11309700000.0 11309700000.0 11309700000.0 11309700000.0 11309700000.0 11309700000.0 11309700000.0 11309700000.0 11309700000.0 11309700000.0 11309700000.0 11309700000.0 11309700000.0 11309700000.0 11309700000.0 11309700000.0 11309700000.0 11309700000.0 11309700000.0 11309700000.0 11309700000.0 11309700000.0 11309700000.0 11309700000.0 11309700000.0 11309700000.0 11309700000.0 11309700000.0 11309700000.0 11309700000.0 11309700000.0 11309700000.0 11309700000.0 11309700000.0 11309700000.0 11309700000.0 11309700000.0 11309700000.0 11309700000.0 11309700000.0 11309700000.0 11309700000.0 11309700000.0 11309700000.0 11309700000.0 11309700000.0 11309700000.0 11309700000.0 11309700000.0 11309700000.0 11309700000.0 11309700000.0 11309700000.0 11309700000.0 11309700000.0 11309700000.0 11309700000.0 11309700000.0 11309700000.0 11309700000.0 11309700000.0 11309700000.0 11309700000.0 11309700000.0 11309700000.0 11309700000.0 11309700000.0 11309700000.0 11309700000.0 11309700000.0 11309700000.0 11309700000.0 11309700000.0 11309700000.0 11309700000.0 11309700000.0 11309700000.0 11309700000.0 11309700000.0 11309700000.0 11309700000.0 11309700000.0 11309700000.0 11309700000.0 11309700000.0 11309700000.0 11309700000.0 11309700000.0 11309700000.0 11309700000.0 11309700000.0 11309700000.0 11309700000.0 11309700000.0 11309700000.0 11309700000.0 11309700000.0 11309700000.0 11309700000.0 11309700000.0 11309700000.0 11309700000.0 11309700000.0 11309700000.0 11309700000.0 11309700000.0 11309700000.0 11309700000.0 11309700000.0 11309700000.0 11309700000.0 11309700000.0 11309700000.0 11309700000.0 11309700000.0 11309700000.0 11309700000.0 11309700000.0 11309700000.0 11309700000.0 11309700000.0 11309700000.0 11309700000.0 11309700000.0 11309700000.0 11309700000.0 11309700000.0 11309700000.0 11309700000.0 11309700000.0 11309700000.0 11309700000.0 11309700000.0 11309700000.0 11309700000.0 11309700000.0 11309700000.0 11309700000.0 11309700000.0 11309700000.0 11309700000.0 11309700000.0 11309700000.0 11309700000.0 11309700000.0 11309700000.0 11309700000.0 11309700000.0 11309700000.0 11309700000.0 11309700000.0 11309700000.0 11309700000.0 11309700000.0 11309700000.0 11309700000.0 11309700000.0 11309700000.0 11309700000.0 11309700000.0 11309700000.0 11309700000.0 11309700000.0 11309700000.0 11309700000.0 11309700000.0 11309700000.0 11309700000.0 11309700000.0 11309700000.0 11309700000.0 11309700000.0 11309700000.0 11309700000.0 11309700000.0 11309700000.0 11309700000.0 11309700000.0 11309700000.0 11309700000.0 11309700000.0 11309700000.0 11309700000.0 11309700000.0 11309700000.0 11309700000.0 11309700000.0 11309700000.0 11309700000.0 11309700000.0 11309700000.0 11309700000.0 11309700000.0 11309700000.0 11309700000.0 11309700000.0 11309700000.0 11309700000.0 11309700000.0 11309700000.0 11309700000.0 11309700000.0 11309700000.0 11309700000.0 11309700000.0 11309700000.0 11309700000.0 11309700000.0 11309700000.0 11309700000.0 11309700000.0 11309700000.0 11309700000.0 11309700000.0 11309700000.0 11309700000.0 11309700000.0 11309700000.0 11309700000.0 11309700000.0 11309700000.0 11309700000.0 11309700000.0 11309700000.0 11309700000.0 11309700000.0 11309700000.0 11309700000.0 11309700000.0 11309700000.0 11309700000.0 11309700000.0 11309700000.0 11309700000.0 11309700000.0 11309700000.0 11309700000.0 11309700000.0 11309700000.0 11309700000.0 11309700000.0 11309700000.0 11309700000.0 11309700000.0 11309700000.0 11309700000.0 11309700000.0 11309700000.0 11309700000.0 11309700000.0 11309700000.0 11309700000.0 11309700000.0 11309700000.0 11309700000.0 11309700000.0 11309700000.0 11309700000.0 11309700000.0 11309700000.0 11309700000.0 11309700000.0 11309700000.0 11309700000.0 11309700000.0 11309700000.0 11309700000.0 11309700000.0 11309700000.0 11309700000.0 11309700000.0 11309700000.0 11309700000.0 11309700000.0 11309700000.0 11309700000.0 11309700000.0 11309700000.0 11309700000.0 11309700000.0 11309700000.0 11309700000.0 11309700000.0 11309700000.0 11309700000.0 11309700000.0 11309700000.0 11309700000.0 11309700000.0 11309700000.0 11309700000.0 11309700000.0 11309700000.0 11309700000.0 11309700000.0 11309700000.0 11309700000.0 11309700000.0 11309700000.0 11309700000.0 11309700000.0 11309700000.0 11309700000.0 11309700000.0 11309700000.0 11309700000.0 11309700000.0 11309700000.0 11309700000.0 11309700000.0 11309700000.0 11309700000.0 11309700000.0 11309700000.0 11309700000.0 11309700000.0 11309700000.0 11309700000.0 11309700000.0 11309700000.0 11309700000.0 11309700000.0 11309700000.0 11309700000.0 11309700000.0 11309700000.0 11309700000.0 11309700000.0 11309700000.0 11309700000.0 11309700000.0 11309700000.0 11309700000.0 11309700000.0 11309700000.0 11309700000.0 11309700000.0 11309700000.0 11309700000.0 11309700000.0 11309700000.0 11309700000.0 11309700000.0 11309700000.0 11309700000.0 11309700000.0 11309700000.0 11309700000.0 11309700000.0 11309700000.0 11309700000.0 11309700000.0 11309700000.0 11309700000.0 11309700000.0 11309700000.0 11309700000.0 11309700000.0 11309700000.0 11309700000.0 11309700000.0 11309700000.0 11309700000.0 11309700000.0 11309700000.0 11309700000.0 11309700000.0 11309700000.0 11309700000.0 11309700000.0 11309700000.0 11309700000.0 11309700000.0 11309700000.0 11309700000.0 11309700000.0 11309700000.0 11309700000.0 11309700000.0 11309700000.0 11309700000.0 11309700000.0 11309700000.0 11309700000.0 11309700000.0 11309700000.0 11309700000.0 11309700000.0 11309700000.0 11309700000.0 11309700000.0 11309700000.0 11309700000.0 11309700000.0 11309700000.0 11309700000.0 11309700000.0 11309700000.0 11309700000.0 11309700000.0 11309700000.0 11309700000.0 11309700000.0 11309700000.0 11309700000.0 11309700000.0 11309700000.0 11309700000.0 11309700000.0 11309700000.0 11309700000.0 11309700000.0 11309700000.0 11309700000.0 11309700000.0 11309700000.0 11309700000.0 11309700000.0 11309700000.0 11309700000.0 11309700000.0 11309700000.0 11309700000.0 11309700000.0 11309700000.0 11309700000.0 11309700000.0 11309700000.0 11309700000.0 11309700000.0 11309700000.0 11309700000.0 11309700000.0 11309700000.0 11309700000.0 11309700000.0 11309700000.0 11309700000.0 11309700000.0 11309700000.0 11309700000.0 11309700000.0 11309700000.0 11309700000.0 11309700000.0 11309700000.0 11309700000.0 11309700000.0 11309700000.0 11309700000.0 11309700000.0 11309700000.0 11309700000.0 11309700000.0 11309700000.0 11309700000.0 11309700000.0 11309700000.0 11309700000.0 11309700000.0 11309700000.0 11309700000.0 11309700000.0 11309700000.0 11309700000.0 11309700000.0 11309700000.0 11309700000.0 11309700000.0 11309700000.0 11309700000.0 11309700000.0 11309700000.0 11309700000.0 11309700000.0 11309700000.0 11309700000.0 11309700000.0 11309700000.0 11309700000.0 11309700000.0 11309700000.0 11309700000.0 11309700000.0 11309700000.0 11309700000.0 11309700000.0 11309700000.0 11309700000.0 11309700000.0 11309700000.0 11309700000.0 11309700000.0 11309700000.0 11309700000.0 11309700000.0 11309700000.0 11309700000.0 11309700000.0 11309700000.0 11309700000.0 11309700000.0 11309700000.0 11309700000.0 11309700000.0 11309700000.0 11309700000.0 11309700000.0 11309700000.0 11309700000.0 11309700000.0 11309700000.0 11309700000.0 11309700000.0 11309700000.0 11309700000.0 11309700000.0 11309700000.0 11309700000.0 11309700000.0 11309700000.0 11309700000.0 11309700000.0 11309700000.0 11309700000.0 11309700000.0 11309700000.0 11309700000.0 11309700000.0 11309700000.0 11309700000.0 11309700000.0 11309700000.0 11309700000.0 11309700000.0 11309700000.0 11309700000.0 11309700000.0 11309700000.0 11309700000.0 11309700000.0 11309700000.0 11309700000.0 11309700000.0 11309700000.0 11309700000.0 11309700000.0 11309700000.0 11309700000.0 11309700000.0 11309700000.0 11309700000.0 11309700000.0 11309700000.0 11309700000.0 11309700000.0 11309700000.0 11309700000.0 11309700000.0 11309700000.0 11309700000.0 11309700000.0 11309700000.0 11309700000.0 11309700000.0 11309700000.0 11309700000.0 11309700000.0 11309700000.0 11309700000.0 11309700000.0 11309700000.0 11309700000.0 11309700000.0 11309700000.0 11309700000.0 11309700000.0 11309700000.0 11309700000.0 11309700000.0 11309700000.0 11309700000.0 11309700000.0 11309700000.0 11309700000.0 11309700000.0 11309700000.0 11309700000.0 11309700000.0 11309700000.0 11309700000.0 11309700000.0 11309700000.0 11309700000.0 11309700000.0 11309700000.0 11309700000.0 11309700000.0 11309700000.0 11309700000.0 11309700000.0 11309700000.0 11309700000.0 11309700000.0 11309700000.0 11309700000.0 11309700000.0 11309700000.0 11309700000.0 11309700000.0 11309700000.0 11309700000.0 11309700000.0 11309700000.0 11309700000.0 11309700000.0 11309700000.0 11309700000.0 11309700000.0 11309700000.0 11309700000.0 11309700000.0 11309700000.0 11309700000.0 11309700000.0 11309700000.0 11309700000.0 11309700000.0 11309700000.0 11309700000.0 11309700000.0 11309700000.0 11309700000.0 11309700000.0 11309700000.0 11309700000.0 11309700000.0 11309700000.0 11309700000.0 11309700000.0 11309700000.0 11309700000.0 11309700000.0 11309700000.0 11309700000.0 11309700000.0 11309700000.0 11309700000.0 11309700000.0 11309700000.0 11309700000.0 11309700000.0 11309700000.0 11309700000.0 11309700000.0 11309700000.0 11309700000.0 11309700000.0 11309700000.0 11309700000.0 11309700000.0 11309700000.0 11309700000.0 11309700000.0 11309700000.0 11309700000.0 11309700000.0 11309700000.0 11309700000.0 11309700000.0 11309700000.0 11309700000.0 11309700000.0 11309700000.0 11309700000.0 11309700000.0 11309700000.0 11309700000.0 11309700000.0 11309700000.0 11309700000.0 11309700000.0 11309700000.0 11309700000.0 11309700000.0 11309700000.0 11309700000.0 11309700000.0 11309700000.0 11309700000.0 11309700000.0 11309700000.0 11309700000.0 11309700000.0 11309700000.0 11309700000.0 11309700000.0 11309700000.0 11309700000.0 11309700000.0 11309700000.0 11309700000.0 11309700000.0 11309700000.0 11309700000.0 11309700000.0 11309700000.0 11309700000.0 11309700000.0 11309700000.0 11309700000.0 11309700000.0 11309700000.0 11309700000.0 11309700000.0 11309700000.0 11309700000.0 11309700000.0 11309700000.0 11309700000.0 11309700000.0 11309700000.0 11309700000.0 11309700000.0 11309700000.0 11309700000.0 11309700000.0 11309700000.0 11309700000.0 11309700000.0 11309700000.0 11309700000.0 11309700000.0 11309700000.0 11309700000.0 11309700000.0 11309700000.0 11309700000.0 11309700000.0 11309700000.0 11309700000.0 11309700000.0 11309700000.0 11309700000.0 11309700000.0 11309700000.0 11309700000.0 11309700000.0 11309700000.0 11309700000.0 11309700000.0 11309700000.0 11309700000.0 11309700000.0 11309700000.0 11309700000.0 11309700000.0 11309700000.0 11309700000.0 11309700000.0 11309700000.0 11309700000.0 11309700000.0 11309700000.0 11309700000.0 11309700000.0 11309700000.0 11309700000.0 11309700000.0 11309700000.0 11309700000.0 11309700000.0 11309700000.0 11309700000.0 11309700000.0 11309700000.0 11309700000.0 11309700000.0 11309700000.0 11309700000.0 11309700000.0 11309700000.0 11309700000.0 11309700000.0 11309700000.0 11309700000.0 11309700000.0 11309700000.0 11309700000.0 11309700000.0 11309700000.0 11309700000.0 11309700000.0 11309700000.0 11309700000.0 11309700000.0 11309700000.0 11309700000.0 11309700000.0 11309700000.0 11309700000.0 11309700000.0 11309700000.0 11309700000.0 11309700000.0 11309700000.0 11309700000.0 11309700000.0 11309700000.0 11309700000.0 11309700000.0 11309700000.0 11309700000.0 11309700000.0 11309700000.0 11309700000.0 11309700000.0 11309700000.0 11309700000.0 11309700000.0 11309700000.0 11309700000.0 11309700000.0 11309700000.0 11309700000.0 11309700000.0 11309700000.0 11309700000.0 11309700000.0 11309700000.0 11309700000.0 11309700000.0 11309700000.0 11309700000.0 11309700000.0 11309700000.0 11309700000.0 11309700000.0 11309700000.0 11309700000.0 11309700000.0 11309700000.0 11309700000.0 11309700000.0 11309700000.0 11309700000.0 11309700000.0 11309700000.0 11309700000.0 11309700000.0 11309700000.0 11309700000.0 11309700000.0 11309700000.0 11309700000.0 11309700000.0 11309700000.0 11309700000.0 11309700000.0 11309700000.0 11309700000.0 11309700000.0 11309700000.0 11309700000.0 11309700000.0 11309700000.0 11309700000.0 11309700000.0 11309700000.0 11309700000.0 11309700000.0 11309700000.0 11309700000.0 11309700000.0 11309700000.0 11309700000.0 11309700000.0 11309700000.0 11309700000.0 11309700000.0 11309700000.0 11309700000.0 11309700000.0 11309700000.0 11309700000.0 11309700000.0 11309700000.0 11309700000.0 11309700000.0 11309700000.0 11309700000.0 11309700000.0 11309700000.0 11309700000.0 11309700000.0 11309700000.0 11309700000.0 11309700000.0 11309700000.0 11309700000.0 11309700000.0 11309700000.0 11309700000.0 11309700000.0 11309700000.0 11309700000.0 11309700000.0 11309700000.0 11309700000.0 11309700000.0 11309700000.0 11309700000.0 11309700000.0 11309700000.0 11309700000.0 11309700000.0 11309700000.0 11309700000.0 11309700000.0 11309700000.0 11309700000.0 11309700000.0 11309700000.0 11309700000.0 11309700000.0 11309700000.0 11309700000.0 11309700000.0 11309700000.0 11309700000.0 11309700000.0 11309700000.0 11309700000.0 11309700000.0 11309700000.0 11309700000.0 11309700000.0 11309700000.0 11309700000.0 11309700000.0 11309700000.0 11309700000.0 11309700000.0 11309700000.0 11309700000.0 11309700000.0 11309700000.0 11309700000.0 11309700000.0 11309700000.0 11309700000.0 11309700000.0 11309700000.0 11309700000.0 11309700000.0 11309700000.0 11309700000.0 11309700000.0 11309700000.0 11309700000.0 11309700000.0 11309700000.0 11309700000.0 11309700000.0 11309700000.0 11309700000.0 11309700000.0 11309700000.0 11309700000.0 11309700000.0 11309700000.0 11309700000.0 11309700000.0 11309700000.0 11309700000.0 11309700000.0 11309700000.0 11309700000.0 11309700000.0 11309700000.0 11309700000.0 11309700000.0 11309700000.0 11309700000.0 11309700000.0 11309700000.0 11309700000.0 11309700000.0 11309700000.0 11309700000.0 11309700000.0 11309700000.0 11309700000.0 11309700000.0 11309700000.0 11309700000.0 11309700000.0 11309700000.0 11309700000.0 11309700000.0 11309700000.0 11309700000.0 11309700000.0 11309700000.0 11309700000.0 11309700000.0 11309700000.0 11309700000.0 11309700000.0 11309700000.0 11309700000.0 11309700000.0 11309700000.0 11309700000.0 11309700000.0 11309700000.0 11309700000.0 11309700000.0 11309700000.0 11309700000.0 11309700000.0 11309700000.0 11309700000.0 11309700000.0 11309700000.0 11309700000.0 11309700000.0 11309700000.0 11309700000.0 11309700000.0 11309700000.0 11309700000.0 11309700000.0 11309700000.0 11309700000.0 11309700000.0 11309700000.0 11309700000.0 11309700000.0 11309700000.0 11309700000.0 11309700000.0 11309700000.0 11309700000.0 11309700000.0 11309700000.0 11309700000.0 11309700000.0 11309700000.0 11309700000.0 11309700000.0 11309700000.0 11309700000.0 11309700000.0 11309700000.0 11309700000.0 11309700000.0 11309700000.0 11309700000.0 11309700000.0 11309700000.0 11309700000.0 11309700000.0 11309700000.0 11309700000.0 11309700000.0 11309700000.0 11309700000.0 11309700000.0 11309700000.0 11309700000.0 11309700000.0 11309700000.0 11309700000.0 11309700000.0 11309700000.0 11309700000.0 11309700000.0 11309700000.0 11309700000.0 11309700000.0 11309700000.0 11309700000.0 11309700000.0 11309700000.0 11309700000.0 11309700000.0 11309700000.0 11309700000.0 11309700000.0 11309700000.0 11309700000.0 11309700000.0 11309700000.0 11309700000.0 11309700000.0 11309700000.0 11309700000.0 11309700000.0 11309700000.0 11309700000.0 11309700000.0 11309700000.0 11309700000.0 11309700000.0 11309700000.0 11309700000.0 11309700000.0 11309700000.0 11309700000.0 11309700000.0 11309700000.0 11309700000.0 11309700000.0 11309700000.0 11309700000.0 11309700000.0 11309700000.0 11309700000.0 11309700000.0 11309700000.0 11309700000.0 11309700000.0 11309700000.0 11309700000.0 11309700000.0 11309700000.0 11309700000.0 11309700000.0 11309700000.0 11309700000.0 11309700000.0 11309700000.0 11309700000.0 11309700000.0 11309700000.0 11309700000.0 11309700000.0 11309700000.0 11309700000.0 11309700000.0 11309700000.0 11309700000.0 11309700000.0 11309700000.0 11309700000.0 11309700000.0 11309700000.0 11309700000.0 11309700000.0 11309700000.0 11309700000.0 11309700000.0 11309700000.0 11309700000.0 11309700000.0 11309700000.0 11309700000.0 11309700000.0 11309700000.0 11309700000.0 11309700000.0 11309700000.0 11309700000.0 11309700000.0 11309700000.0 11309700000.0 11309700000.0 11309700000.0 11309700000.0 11309700000.0 11309700000.0 11309700000.0 11309700000.0 11309700000.0 11309700000.0 11309700000.0 11309700000.0 11309700000.0 11309700000.0 11309700000.0 11309700000.0 11309700000.0 11309700000.0 11309700000.0 11309700000.0 11309700000.0 11309700000.0 11309700000.0 11309700000.0 11309700000.0 11309700000.0 11309700000.0 11309700000.0 11309700000.0 11309700000.0 11309700000.0 11309700000.0 11309700000.0 11309700000.0 11309700000.0 11309700000.0 11309700000.0 11309700000.0 11309700000.0 11309700000.0 11309700000.0 11309700000.0 11309700000.0 11309700000.0 11309700000.0 11309700000.0 11309700000.0 11309700000.0 11309700000.0 11309700000.0 11309700000.0 11309700000.0 11309700000.0 11309700000.0 11309700000.0 11309700000.0 11309700000.0 11309700000.0 11309700000.0 11309700000.0 11309700000.0 11309700000.0 11309700000.0 11309700000.0 11309700000.0 11309700000.0 11309700000.0 11309700000.0 11309700000.0 11309700000.0 11309700000.0 11309700000.0 11309700000.0 11309700000.0 11309700000.0 11309700000.0 11309700000.0 11309700000.0 11309700000.0 11309700000.0 11309700000.0 11309700000.0 11309700000.0 11309700000.0 11309700000.0 11309700000.0 11309700000.0 11309700000.0 11309700000.0 11309700000.0 11309700000.0 11309700000.0 11309700000.0 11309700000.0 11309700000.0 11309700000.0 11309700000.0 11309700000.0 11309700000.0 11309700000.0 11309700000.0 11309700000.0 11309700000.0 11309700000.0 11309700000.0 11309700000.0 11309700000.0 11309700000.0 11309700000.0 11309700000.0 11309700000.0 11309700000.0 11309700000.0 11309700000.0 11309700000.0 11309700000.0 11309700000.0 11309700000.0 11309700000.0 11309700000.0 11309700000.0 11309700000.0 11309700000.0 11309700000.0 11309700000.0 11309700000.0 11309700000.0 11309700000.0 11309700000.0 11309700000.0 11309700000.0 11309700000.0 11309700000.0 11309700000.0 11309700000.0 11309700000.0 11309700000.0 11309700000.0 11309700000.0 11309700000.0 11309700000.0 11309700000.0 11309700000.0 11309700000.0 11309700000.0 11309700000.0 11309700000.0 11309700000.0 11309700000.0 11309700000.0 11309700000.0 11309700000.0 11309700000.0 11309700000.0 11309700000.0 11309700000.0 11309700000.0 11309700000.0 11309700000.0 11309700000.0 11309700000.0 11309700000.0 11309700000.0 11309700000.0 11309700000.0 11309700000.0 11309700000.0 11309700000.0 11309700000.0 11309700000.0 11309700000.0 11309700000.0 11309700000.0 11309700000.0 11309700000.0 11309700000.0 11309700000.0 11309700000.0 11309700000.0 11309700000.0 11309700000.0 11309700000.0 11309700000.0 11309700000.0 11309700000.0 11309700000.0 11309700000.0 11309700000.0 11309700000.0 11309700000.0 11309700000.0 11309700000.0 11309700000.0 11309700000.0 11309700000.0 11309700000.0 11309700000.0 11309700000.0 11309700000.0 11309700000.0 11309700000.0 11309700000.0 11309700000.0 11309700000.0 11309700000.0 11309700000.0 11309700000.0 11309700000.0 11309700000.0 11309700000.0 11309700000.0 11309700000.0 11309700000.0 11309700000.0 11309700000.0 11309700000.0 11309700000.0 11309700000.0 11309700000.0 11309700000.0 11309700000.0 11309700000.0 11309700000.0 11309700000.0 11309700000.0 11309700000.0 11309700000.0 11309700000.0 11309700000.0 11309700000.0 11309700000.0 11309700000.0 11309700000.0 11309700000.0 11309700000.0 11309700000.0 11309700000.0 11309700000.0 11309700000.0 11309700000.0 11309700000.0 11309700000.0 11309700000.0 11309700000.0 11309700000.0 11309700000.0 11309700000.0 11309700000.0 11309700000.0 11309700000.0 11309700000.0 11309700000.0 11309700000.0 11309700000.0 11309700000.0 11309700000.0 11309700000.0 11309700000.0 11309700000.0 11309700000.0 11309700000.0 11309700000.0 11309700000.0 11309700000.0 11309700000.0 
SCALARS Velocity float 1
LOOKUP_TABLE default
1.1093 1.06885 1.07041 1.07205 1.08325 1.07105 1.09066 1.09331 1.09543 1.09786 1.1037 1.06951 1.10085 1.10596 1.10858 1.10917 1.06714 1.06963 1.07455 1.0826 1.08782 1.08971 1.09161 1.09544 1.1009 1.1059 1.05007 1.09711 1.10389 1.10741 1.10889 1.06856 1.07233 1.0715 1.08301 1.08699 1.09089 1.09348 1.09804 1.10429 1.06223 1.09864 1.10149 1.10377 1.10575 1.1067 1.10803 1.10775 1.10837 1.06688 1.06759 1.06909 1.07405 1.07227 1.08822 1.09032 1.09136 1.09219 1.09449 1.09584 1.09848 1.10119 1.10506 1.10676 1.05573 1.06905 1.10162 1.10504 1.10663 1.10664 1.06612 1.06904 1.07161 1.07342 1.08386 1.08901 1.08775 1.09129 1.09375 1.09719 1.10133 1.10738 1.05628 1.09913 1.10328 1.10516 1.10562 1.06697 1.07146 1.07359 1.08546 1.08968 1.09365 1.09664 1.10017 1.10573 1.0861 1.09479 1.09981 1.10158 1.10202 1.10355 1.10266 1.10422 1.10231 1.10379 1.06549 1.06663 1.06886 1.07358 1.07581 1.08889 1.09346 1.09665 1.10012 1.09986 1.10349 1.10389 1.10758 1.10817 1.11153 1.09833 1.10069 1.1012 1.10063 1.09963 1.06512 1.06891 1.07133 1.07422 1.08218 1.08586 1.09121 1.09264 1.0969 1.09687 1.10074 1.10393 1.10726 1.1105 1.11238 1.09999 1.10013 1.09909 1.09764 1.06649 1.07168 1.08109 1.0883 1.09626 1.10143 1.10496 1.10784 1.11079 1.11329 1.10449 1.09994 1.09793 1.09802 1.09437 1.09574 1.09145 1.09398 1.06476 1.06611 1.06926 1.07871 1.08559 1.09475 1.10179 1.10631 1.1092 1.11313 1.11156 1.11477 1.11368 1.11488 1.11216 1.10751 1.10247 1.09975 1.09399 1.0894 1.08667 1.06452 1.06965 1.07494 1.08061 1.08373 1.09033 1.09252 1.10027 1.10144 1.10849 1.10763 1.11357 1.1112 1.11561 1.11647 1.11681 1.1133 1.10374 1.09525 1.08834 1.08358 1.06616 1.07569 1.0882 1.09835 1.10855 1.11576 1.11898 1.11911 1.11889 1.11707 1.10927 1.09851 1.0912 1.08881 1.08072 1.08142 1.07388 1.07756 1.06487 1.06659 1.07023 1.08388 1.09631 1.10756 1.11732 1.12279 1.12302 1.12152 1.12288 1.12007 1.11962 1.11501 1.11039 1.1038 1.09575 1.08192 1.07159 1.06652 1.06602 1.07132 1.07756 1.08924 1.09505 1.10374 1.10546 1.11588 1.11766 1.12808 1.12603 1.13421 1.12833 1.13115 1.12532 1.12614 1.12325 1.11698 1.10276 1.08527 1.07115 1.06225 1.06748 1.08008 1.10653 1.11264 1.12811 1.13876 1.13953 1.13097 1.12621 1.12235 1.1112 1.10078 1.09109 1.07701 1.07291 1.05942 1.05975 1.04874 1.05356 1.06853 1.06954 1.07189 1.08141 1.09635 1.11198 1.12438 1.14152 1.14859 1.13935 1.12938 1.12816 1.12604 1.12529 1.11928 1.11229 1.08403 1.06159 1.0459 1.0388 1.07438 1.07244 1.10305 1.12695 1.11743 1.1177 1.13066 1.14006 1.15757 1.15418 1.16663 1.15285 1.14625 1.13466 1.12987 1.12824 1.1225 1.0985 1.06631 1.04557 1.03341 1.08493 1.07444 1.07629 1.07916 1.16987 1.1131 1.15398 1.17193 1.16849 1.13389 1.1281 1.12872 1.12775 1.11505 1.09833 1.07396 1.05417 1.04841 1.02984 1.03 1.01599 1.02231 1.08414 1.08094 1.09773 1.10326 1.13597 1.17892 1.18796 1.14868 1.12667 1.12647 1.12921 1.13037 1.12376 1.06089 1.0351 1.01075 1.00422 1.10538 1.08143 1.06596 1.08941 1.25177 1.05677 1.09919 1.15253 1.17709 1.20837 1.18629 1.21304 1.18771 1.13814 1.12459 1.12196 1.12834 1.12925 1.1151 1.0863 1.04715 1.01534 1.00924 0.985887 0.995731 0.984752 1.13786 1.10911 1.10817 1.33006 1.11021 1.20586 1.23445 1.20905 1.10454 1.12614 1.12231 1.12728 1.12464 1.12426 1.10598 1.09579 0.98051 0.971762 1.14868 1.1016 1.07357 1.0113 1.08187 1.16692 1.25154 1.20861 1.10646 1.13086 1.11828 1.12071 1.11443 1.08313 1.11167 1.13467 0.952656 0.965296 1.17639 1.15354 1.07115 0.988996 0.919471 0.938919 1.09003 1.18679 1.24584 1.30266 1.26492 1.02334 1.05044 1.13158 1.11461 1.11706 1.09541 1.07415 1.07555 1.07497 1.16235 0.943098 0.947017 1.19141 1.11856 1.04392 0.9456 1.06197 1.30248 0.997655 1.00122 1.02032 1.0209 1.10907 1.11162 1.10956 1.11434 1.11156 1.1066 1.08915 1.06013 1.08406 1.10875 1.20046 1.23955 1.21187 1.22148 1.19649 1.13366 0.992356 0.991592 1.2141 1.00239 1.01499 1.01607 1.0222 1.10161 1.10745 1.10344 1.07004 1.05614 1.05334 1.05992 1.17286 1.22956 1.24625 1.01764 0.960105 0.980798 1.00804 1.03101 0.895589 0.981476 0.999041 1.01187 1.0194 1.02268 1.06751 1.09644 1.10808 1.10476 1.08809 1.07013 1.05069 1.10335 1.27176 1.28381 1.21347 1.21034 1.17267 1.28198 1.20138 0.902598 0.973009 0.959608 0.944036 1.00727 1.01693 1.01457 1.01632 1.04365 1.0728 1.06978 1.09393 1.10569 1.0894 1.05444 1.04453 1.06455 1.12455 1.23821 1.31975 1.1268 0.64048 1.17477 1.29438 1.35447 0.976566 0.959731 0.915771 0.979395 1.00725 1.01034 1.01936 1.04625 1.06721 1.11252 1.09713 1.06796 1.04022 1.06113 1.34875 0.933969 0.558431 0.540707 0.571467 0.683773 1.37084 0.967595 0.942037 0.957328 0.940376 0.937795 0.952897 0.971414 0.992088 1.00247 1.01004 1.02829 1.02977 1.03751 1.01924 1.1035 1.12786 1.0789 1.00501 0.969429 1.14656 1.70225 1.46325 0.942963 1.04494 0.672249 0.641562 0.484221 0.461177 0.473993 0.849645 1.15644 1.16533 1.23503 0.896781 0.749893 0.808868 0.832214 0.919494 0.949276 0.93944 0.952786 0.973616 0.9901 0.984149 0.997247 0.9938 1.01208 1.02616 0.899513 1.15235 1.09974 1.10206 1.07082 1.07229 1.08198 1.86463 1.02756 0.831104 0.617569 0.564017 0.443318 0.434426 0.555937 0.991472 1.1221 0.932174 0.875996 0.932059 0.940248 0.955696 0.968853 0.961656 0.977885 0.990516 1.01023 0.994411 0.994949 1.12701 1.11593 1.13831 1.12738 1.10023 1.06239 0.937525 0.220307 1.59619 0.701634 0.768084 0.650517 0.528017 0.424722 0.431206 0.412656 0.4597 0.461622 0.444596 0.551895 0.91022 1.07014 1.03033 0.878542 0.913734 0.93123 0.940065 0.951455 0.944363 0.954025 0.971662 0.980548 0.965922 0.943116 1.11387 1.17146 1.17384 1.17234 0.63466 0.536423 0.628637 0.561593 0.520242 0.508354 0.507092 0.443049 0.414121 0.464163 0.631122 0.597807 0.690079 0.927487 1.0322 1.00919 0.942267 0.91377 0.902671 0.912926 0.919821 0.911372 0.92557 0.91729 0.934736 0.927029 0.936799 0.945528 0.963226 0.950643 0.962952 0.951294 1.03396 1.0556 1.13318 1.24383 0.989305 0.773693 0.295907 0.362964 0.359657 0.42653 0.552059 0.518528 0.512685 0.504916 0.519098 0.504887 0.459089 0.400593 0.427526 0.427177 0.653232 0.728526 0.749314 0.749876 1.06754 0.946589 0.917506 0.903292 0.8989 0.887932 0.90876 0.900536 0.918894 0.911196 0.928582 0.935384 0.939264 0.949487 0.992692 1.04814 1.16925 1.32963 1.18322 1.00192 0.665193 0.443499 0.529001 0.453128 0.504547 0.521644 0.51535 0.537797 0.545585 0.580971 0.558142 0.524313 0.441519 0.503928 0.508042 0.507733 0.605847 1.39174 1.16244 0.952528 0.966936 0.954249 0.932037 0.901984 0.883593 0.866819 0.880102 0.893365 0.903831 0.919732 0.925692 0.934232 0.9485 0.973033 1.01281 1.00823 1.00369 1.09011 1.27054 0.93796 0.842728 0.605492 0.621118 0.509993 0.580108 0.544013 0.564557 0.541961 0.564609 0.572389 0.588234 0.584289 0.551141 0.482525 0.492527 0.532221 0.528887 0.459529 0.480559 1.01506 0.930816 0.961853 0.927938 0.909643 0.867005 0.872915 0.826758 0.847047 0.856901 0.87449 0.887079 0.896508 0.91091 0.904458 0.919404 0.938173 0.98615 1.06799 0.992064 0.632074 0.364539 1.07482 0.981699 0.760945 0.789823 0.655529 0.591291 0.611339 0.585722 0.57057 0.596658 0.595905 0.599278 0.634505 0.597775 0.590459 0.589903 0.58326 0.568544 0.623462 0.560477 0.564782 0.617696 0.65762 0.809638 0.91262 0.901994 0.997716 0.959174 0.868748 0.805862 0.811305 0.83445 0.828992 0.852182 0.849807 0.869741 0.881483 0.890339 0.899907 0.915446 0.914698 0.952196 1.03157 1.06419 0.667451 0.720534 0.813828 0.891255 0.84384 0.889222 0.639132 0.644222 0.612927 0.617445 0.610817 0.623117 0.620807 0.656531 0.61136 0.592836 0.567701 0.484702 0.524982 0.547304 0.674334 0.584518 0.540593 0.752551 0.996273 0.957933 0.929195 0.873162 0.882966 0.820466 0.791647 0.786967 0.80551 0.828567 0.849058 0.865937 0.862283 0.876454 0.872214 0.885975 0.894834 0.913834 0.978139 1.01401 0.937395 0.590477 0.736722 0.824352 0.870921 0.971529 0.577148 0.622206 0.65794 0.641598 0.630658 0.625194 0.6327 0.631328 0.658073 0.667923 0.672457 0.649181 0.619421 0.612577 0.56937 0.549134 0.48859 0.467735 0.520171 0.60303 0.692424 0.731524 0.847353 0.617581 0.738268 0.980123 0.970937 1.05577 0.731981 0.747856 0.763686 0.758112 0.780719 0.806595 0.830145 0.847935 0.85894 0.867561 0.880769 0.874251 0.888605 0.874904 0.894654 0.847726 1.11395 1.03199 0.754586 0.728779 0.789957 0.800156 0.810246 0.802184 0.878676 0.52145 0.619753 0.662921 0.664395 0.63671 0.641146 0.636789 0.635787 0.65716 0.678989 0.664847 0.649248 0.673251 0.639957 0.614679 0.480228 0.395412 0.428473 0.399424 0.555282 0.679594 0.792091 0.645195 0.628513 0.996361 1.0454 0.369425 0.726993 0.687191 0.710526 0.741139 0.760194 0.782864 0.790297 0.811042 0.832431 0.845995 0.8551 0.861523 0.863629 0.854592 0.908152 0.54129 0.846178 0.775072 0.784871 0.811813 0.878126 0.846761 0.67813 0.666932 0.66238 0.65905 0.630653 0.644068 0.660143 0.676891 0.68664 0.677676 0.620742 0.701655 0.674306 0.659464 0.60741 0.528632 0.405652 0.335826 0.501548 0.681433 0.553109 0.663925 0.746359 0.587086 0.609014 1.02627 1.05044 0.834093 0.578374 0.699396 0.729819 0.738237 0.770333 0.800251 0.817081 0.821138 0.833173 0.831676 0.843071 0.837645 0.8488 0.853047 0.852049 0.86083 0.885625 0.824297 0.362631 0.618619 0.784214 0.773886 0.781593 0.835798 0.983504 0.975458 0.798188 0.715055 0.655926 0.639064 0.595038 0.626635 0.608435 0.663422 0.671623 0.658263 0.607962 0.562392 0.726301 0.736849 0.706018 0.710342 0.678478 0.511254 0.456891 0.338684 0.398909 0.521084 0.593373 0.650305 0.518246 0.647366 1.37856 1.01569 0.943103 0.592767 0.580469 0.627607 0.692207 0.722538 0.724878 0.746667 0.783939 0.809411 0.821852 0.827316 0.830164 0.841098 0.831552 0.843605 0.840328 0.837659 0.596092 0.527307 0.698324 0.743456 0.76657 0.712512 0.685931 0.769066 0.409677 0.259479 0.630945 0.586814 0.538396 0.555919 0.602534 0.65607 0.618976 0.630823 0.53059 0.477245 0.395217 0.704878 0.726333 0.751188 0.740023 0.725906 0.684228 0.630406 0.593334 0.420336 0.515757 0.639747 0.40215 1.1312 0.571776 0.713429 0.698126 0.602016 0.63443 0.693512 0.741581 0.76427 0.784132 0.798036 0.814133 0.818792 0.820062 0.818844 0.82314 0.823865 0.779012 0.75496 0.63657 0.633013 0.69632 0.765762 0.625886 0.695227 0.664632 0.567521 0.603405 0.595516 0.559436 0.593412 0.52764 0.542737 0.5622 0.575504 0.570832 0.568851 0.432664 0.373963 0.529855 0.749826 0.743209 0.739319 0.723601 0.669554 0.634206 0.612196 0.5467 0.551364 0.556171 0.698706 0.591182 0.486235 0.334646 0.908866 0.483906 0.596763 0.710521 0.617967 0.621955 0.648083 0.674848 0.711437 0.766077 0.802115 0.807597 0.810653 0.813414 0.807025 0.811638 0.800845 0.808908 0.795666 0.807566 0.791097 0.807932 0.778083 0.71882 0.596685 0.633036 0.760957 0.886508 0.658379 0.613908 0.443937 0.401717 0.522298 0.521654 0.572156 0.553535 0.488544 0.530551 0.578037 0.552469 0.562531 0.541619 0.499212 0.414062 0.361848 0.355159 0.346966 0.538467 0.650886 0.726373 0.744572 0.696024 0.657385 0.568661 0.588911 0.478543 0.678415 0.896526 0.765953 0.554447 0.605981 0.534158 0.368879 0.395876 0.759967 0.743203 0.638502 0.606315 0.642604 0.699771 0.735946 0.792239 0.811514 0.806497 0.795912 0.786617 0.777846 0.76646 0.73942 0.700165 0.654538 0.625618 0.64119 0.644927 0.835552 0.560533 0.495217 0.492786 0.54603 0.490357 0.597641 0.534927 0.46906 0.510427 0.559072 0.585703 0.567286 0.534018 0.51804 0.491613 0.355797 0.383144 0.346456 0.351299 0.633714 0.734059 0.473455 0.682727 0.652304 0.623182 0.580317 0.453518 0.443972 0.312484 0.172306 0.536375 0.569423 0.454112 0.352346 0.534747 0.42737 0.732527 0.785955 0.783998 0.592881 0.615419 0.652789 0.732075 0.770407 0.80608 0.813046 0.818395 0.810672 0.795651 0.780613 0.768928 0.755071 0.729278 0.73681 0.708126 0.664501 0.642215 0.656903 0.736153 0.687148 0.607581 0.549823 0.480955 0.508503 0.489171 0.481288 0.657833 0.753838 0.458306 0.520857 0.580016 0.597083 0.549531 0.567284 0.472204 0.360352 0.237356 0.304174 0.374033 0.394574 0.455144 0.534362 0.558839 0.973603 0.933729 0.779541 0.594501 0.556812 0.502435 0.47666 0.494694 0.429657 0.490782 0.0668616 0.534462 0.502725 0.419959 0.332878 0.405967 0.478541 1.16502 0.930304 0.54834 0.540252 0.57624 0.625195 0.698918 0.778482 0.831758 0.810633 0.800511 0.783073 0.779341 0.760316 0.762599 0.74336 0.74829 0.724466 0.699379 0.688447 0.700827 0.641849 0.644695 0.644829 0.791101 0.533841 0.556692 0.53078 0.508522 0.468318 0.416455 0.463887 0.545377 0.286185 0.564423 0.590002 0.652951 0.587819 0.413382 0.225651 0.33601 0.348926 0.371616 0.338765 0.403262 0.406165 0.451631 0.369544 0.419391 0.339588 0.526742 0.49836 0.474582 0.357241 0.129113 0.441435 0.214591 0.0139677 0.106365 0.519724 0.594415 0.53749 0.365838 0.10108 0.116928 0.333613 1.14754 0.546687 0.507215 0.489371 0.572418 0.720784 0.786982 0.827843 0.826898 0.792359 0.762044 0.741263 0.722471 0.698529 0.669961 0.672203 0.649713 0.677632 0.675649 0.689818 0.717977 0.584224 0.548873 0.520299 0.525284 0.463662 0.445566 0.397843 0.50082 0.390706 0.526684 0.587594 0.736869 0.621949 0.419277 0.451773 0.28746 0.253847 0.334191 0.290712 0.237381 0.372697 0.394703 0.342313 0.0888686 0.186526 0.711817 0.571695 0.510288 0.371631 0.127793 0.19871 0.232336 0.200923 0.0537919 0.120104 0.597058 0.482379 0.26461 0.0475944 0.126565 0.615942 0.924786 0.593554 0.552815 0.614747 0.638065 0.687421 0.852064 0.858549 0.834458 0.809329 0.779849 0.767415 0.742563 0.741414 0.72302 0.72236 0.704182 0.700711 0.67793 0.657178 0.679378 0.617118 0.634957 0.686358 0.675742 0.590315 0.557143 0.539277 0.486561 0.445772 0.414818 0.384486 0.417565 0.501824 0.524414 0.755495 0.597872 0.698331 0.503469 0.373345 0.344427 0.201671 0.229205 0.230166 0.151547 0.248898 0.324434 0.358178 0.375206 0.347102 0.187157 0.194389 0.223889 0.61915 0.57929 0.407867 0.332137 0.198898 0.218988 0.0977316 0.214645 0.198647 0.365815 0.626172 0.573987 0.401929 0.198613 0.125724 0.432566 0.578726 0.704408 0.545323 0.499262 0.611004 0.642723 0.676206 0.762259 0.907118 0.80328 0.746194 0.722666 0.707961 0.68737 0.639009 0.681533 0.707528 0.570751 0.521596 0.626958 0.666293 0.638326 0.592219 0.553276 0.425557 0.454146 0.440485 0.398425 0.413143 0.4114 0.431727 0.431872 0.560095 0.84736 0.716437 0.403169 0.325219 0.382759 0.251845 0.273728 0.156724 0.0549984 0.0401321 0.233291 0.326098 0.353829 0.317004 0.287307 0.290062 0.318607 0.255693 0.634546 0.453979 0.445733 0.459759 0.276159 0.171136 0.119687 0.190307 0.322841 0.558258 0.599642 0.33538 0.210847 0.351506 0.457409 0.511679 0.571827 0.584551 0.562526 0.645428 0.683315 0.68795 0.746835 0.887636 0.830697 0.755558 0.723254 0.707714 0.696224 0.666556 0.588115 0.647592 0.69531 0.658952 0.592104 0.568281 0.630954 0.638709 0.635038 0.601082 0.504145 0.447635 0.431817 0.424105 0.432968 0.394854 0.376589 0.376274 0.387898 0.404597 0.429294 0.588074 0.507866 0.3449 0.438915 0.306505 0.264291 0.207931 0.140053 0.106588 0.101407 0.260941 0.235918 0.361978 0.318949 0.279187 0.241222 0.171063 0.479041 0.492987 0.599467 0.773939 0.323723 0.167894 0.220505 0.387339 0.513447 0.570779 0.633193 0.532764 0.387373 0.436918 0.524061 0.580444 0.603396 0.608101 0.757446 0.849263 0.951623 1.0129 0.743541 0.770353 0.755517 0.731976 0.706522 0.707282 0.69851 0.696435 0.689476 0.692452 0.69923 0.626793 0.726539 0.71727 0.675895 0.641111 0.619065 0.643978 0.633829 0.519475 0.476753 0.43775 0.436045 0.406048 0.391534 0.350041 0.337686 0.370862 0.405124 0.442862 0.307897 0.469182 1.12095 0.648719 0.484942 0.349289 0.312285 0.239398 0.17744 0.148141 0.0666468 0.20187 0.249372 0.249904 0.253972 0.236603 0.384931 0.333857 0.275211 0.227209 0.199583 0.113648 0.470861 0.525146 0.554548 0.624988 0.778447 0.178654 0.427745 0.47771 0.567781 0.650095 0.603899 0.439272 0.323637 0.338844 0.483412 0.549939 0.593211 0.621073 0.637478 0.731822 0.954015 1.04023 0.829185 0.712057 0.699408 0.692254 0.689452 0.546388 0.676627 0.659161 0.720321 0.579697 0.525091 0.511966 0.58541 0.508423 0.474337 0.452457 0.435119 0.396518 0.366176 0.357679 0.335623 0.36349 0.465993 0.466378 0.403542 0.756024 0.469942 0.292701 0.413142 0.383243 0.354582 0.307107 0.156892 0.153237 0.15891 0.145037 0.027339 0.182772 0.173075 0.282732 0.164905 0.382373 0.288391 0.253635 0.220076 0.254721 0.350713 0.542154 0.49714 0.473383 0.481996 0.727348 0.107081 0.602491 0.695939 0.640615 0.534328 0.410725 0.379031 0.372065 0.412077 0.561281 0.585034 0.577332 0.474249 0.458489 0.431864 0.700115 1.18421 0.728093 0.704838 0.69845 0.690445 0.722331 0.697034 0.731208 0.725733 0.633323 0.53621 0.612231 0.625949 0.593631 0.552549 0.515709 0.480909 0.455322 0.424672 0.395254 0.363309 0.338412 0.316503 0.385873 0.49346 0.496543 0.572952 0.396419 0.326505 0.591323 0.393781 0.40498 0.376563 0.293295 0.194271 0.150601 0.136685 0.0953887 0.206715 0.0928965 0.204184 0.221446 0.301112 0.195345 0.329338 0.314958 0.28219 0.261869 0.275572 0.222032 0.369689 0.343295 0.327627 0.0842444 0.380438 0.510817 0.59028 0.498202 0.442469 0.403595 0.416851 0.462497 0.515203 0.562507 0.51715 0.477935 0.460537 0.564065 0.867047 0.974037 0.878731 0.777085 0.723711 0.717361 0.703665 0.707699 0.697238 0.706355 0.705876 0.739496 0.706515 0.758758 0.724598 0.667653 0.51345 0.552025 0.601858 0.598286 0.568049 0.544974 0.327028 0.406656 0.495311 0.556168 0.498653 0.330522 0.323458 0.477743 0.379132 0.314923 0.234707 0.214199 0.182914 0.147573 0.162844 0.210292 0.0375715 0.0608173 0.139169 0.207796 0.143754 0.339953 0.115667 0.442267 0.381382 0.370136 0.244083 0.244029 0.199561 0.207522 0.251801 0.228432 0.436588 0.624239 0.321955 0.45754 0.627861 0.672456 0.674088 0.577313 0.495432 0.438989 0.437609 0.462786 0.502104 0.538227 0.56226 0.512854 0.562472 0.645855 0.90366 0.865211 0.632783 0.748308 0.715434 0.706472 0.740336 0.743015 0.828809 0.738308 0.594818 0.551201 0.557785 0.579325 0.590629 0.591375 0.570672 0.536107 0.508743 0.47409 0.441583 0.405786 0.387138 0.342278 0.310704 0.490807 0.539093 0.40803 0.300383 0.440823 0.477193 0.420241 0.406028 0.290882 0.22061 0.214439 0.211161 0.184439 0.213196 0.21146 0.0755854 0.0594728 0.0580052 0.147998 0.247129 0.270621 0.263392 0.431796 0.401834 0.341512 0.207669 0.208875 0.196356 0.198755 0.279857 0.38369 0.535326 0.29972 0.435692 0.522834 0.647663 0.676586 0.646274 0.547053 0.444269 0.444864 0.474753 0.505422 0.534292 0.55498 0.561011 0.54493 0.524093 0.585881 0.783013 0.767607 0.61888 0.73899 0.727592 0.723739 0.725744 0.76951 0.759618 0.792442 0.685527 0.625662 0.587826 0.577642 0.584933 0.595988 0.596314 0.583392 0.559448 0.524666 0.495937 0.458915 0.430542 0.395174 0.365613 0.344804 0.335004 0.362659 0.419932 0.42409 0.411962 0.482076 0.533541 0.418847 0.38099 0.28845 0.334669 0.271476 0.208408 0.155775 0.229623 0.215503 0.243482 0.02476 0.028171 0.152275 0.0571196 0.0992573 0.515822 0.497344 0.337777 0.240492 0.406103 0.380057 0.181431 0.205382 0.19244 0.20892 0.273545 0.337106 0.474248 0.421038 0.508354 0.603797 0.66534 0.681581 0.644722 0.43457 0.437584 0.478447 0.514671 0.542515 0.559211 0.568025 0.564657 0.553855 0.546158 0.55826 0.580835 0.71098 0.676962 0.674674 0.730295 0.720311 0.722372 0.732736 0.719314 0.758359 0.779009 0.767784 0.704374 0.635738 0.610414 0.595332 0.593528 0.600073 0.602777 0.59178 0.570049 0.546381 0.514847 0.48295 0.451659 0.42018 0.391879 0.380522 0.384142 0.391451 0.412035 0.452432 0.481184 0.448949 0.48727 0.531174 0.511899 0.399246 0.36648 0.296596 0.411705 0.227451 0.240017 0.239671 0.275372 0.278168 0.20263 0.213506 0.0282181 0.187739 0.16496 0.673282 0.134629 0.683124 0.135336 0.310086 0.315731 0.368797 0.391224 0.429283 0.340239 0.222762 0.202016 0.182854 0.173636 0.20946 0.260124 0.598626 0.550998 0.550049 0.601171 0.629488 0.655028 0.661343 0.65329 0.572071 0.578702 0.578447 0.572446 0.566775 0.568438 0.567704 0.55359 0.626188 0.638205 0.674855 0.694168 0.716716 0.727039 0.729868 0.736404 0.771873 0.795156 0.795292 0.767848 0.636691 0.623112 0.612339 0.605565 0.44778 0.423445 0.417612 0.421599 0.431858 0.446444 0.472213 0.480238 0.467033 0.507054 0.468778 0.453138 0.351976 0.209649 0.351214 0.447303 0.231195 0.104964 0.31139 0.205678 0.199917 0.212661 0.217459 0.0266358 0.0679418 0.310328 0.39262 0.0726406 0.481677 0.288083 0.272407 0.322548 0.371128 0.385397 0.430551 0.227699 0.196244 0.166484 0.175704 0.250397 0.714434 0.456173 0.491984 0.530318 0.556629 0.585916 0.577874 0.573707 0.570319 0.55977 0.568354 0.593604 0.674738 0.693284 0.711669 0.77945 0.801655 0.812406 0.805802 0.592424 0.62322 0.621965 0.603806 0.602942 0.596284 0.57946 0.556769 0.531001 0.502473 0.473736 0.448117 0.459447 0.476905 0.496496 0.505886 0.510416 0.493342 0.511723 0.461621 0.420796 0.275185 0.239034 0.308433 0.579541 0.224079 0.276709 0.297963 0.155985 0.225255 0.200889 0.0604456 0.0518265 0.011866 0.457279 0.379716 0.41175 0.260513 0.334862 0.349936 0.363923 0.379079 0.397925 0.337974 0.259712 0.231829 0.19213 0.187716 0.255488 0.608179 0.583957 0.584611 0.607405 0.631425 0.648169 0.667879 0.739713 0.484956 0.537831 0.569758 0.586065 0.591129 0.591199 0.572863 0.565808 0.562019 0.575526 0.607323 0.64548 0.721617 0.731971 0.754043 0.780394 0.802135 0.82526 0.839414 0.570955 0.616941 0.612076 0.607447 0.600152 0.587644 0.56416 0.540386 0.518728 0.495897 0.471785 0.454002 0.444484 0.48801 0.507105 0.523391 0.537623 0.537762 0.533373 0.5251 0.483187 0.472713 0.431055 0.16986 0.248631 0.370333 0.205121 0.272579 0.270757 0.192653 0.277413 0.246121 0.238927 0.370584 0.372025 0.332411 0.306283 0.308724 0.344217 0.368193 0.386098 0.429571 0.349588 0.28994 0.236785 0.220027 0.796187 0.655932 0.598932 0.576763 0.578726 0.613082 0.640241 0.661048 0.717215 0.762703 0.530717 0.5777 0.598172 0.603658 0.601058 0.59558 0.587028 0.57793 0.645914 0.671724 0.691055 0.706411 0.720956 0.740471 0.76612 0.797366 0.829737 0.864347 0.604168 0.622038 0.62425 0.621601 0.615828 0.608995 0.600303 0.585105 0.548595 0.535552 0.517236 0.497263 0.476835 0.465869 0.467189 0.473429 0.550456 0.559538 0.54803 0.525166 0.513152 0.50641 0.397388 0.384901 0.278821 0.902368 0.437393 0.319537 0.206886 0.696344 0.521391 0.285039 0.280685 0.319962 0.364385 0.40116 0.420775 0.423887 0.367296 0.309504 0.270827 0.29594 0.848268 0.706716 0.617706 0.592017 0.585259 0.599322 0.629549 0.663322 0.703757 0.737059 0.761048 0.574033 0.604951 0.612438 0.608801 0.601674 0.593157 0.583442 0.57516 0.56963 0.565546 0.571813 0.590632 0.617063 0.647736 0.671009 0.688553 0.705494 0.725013 0.750065 0.783597 0.555603 0.590501 0.612894 0.625354 0.628103 0.625554 0.620041 0.613145 0.605074 0.594039 0.548213 0.538756 0.522352 0.501542 0.480169 0.482362 0.485943 0.495013 0.509387 0.523398 0.565402 0.527464 0.508476 0.525466 0.512844 0.497033 0.321396 0.405174 0.421873 0.709367 0.488392 0.362616 0.369987 0.373352 0.370194 0.265821 0.391064 0.415668 0.429763 0.435435 0.422067 0.37947 0.336476 0.892668 0.7266 0.639438 0.596985 0.604234 0.598537 0.630945 0.659759 0.6902 0.71701 0.736263 0.745552 0.604469 0.617222 0.614227 0.605949 0.597226 0.588133 0.579089 0.572447 0.570192 0.572636 0.582932 0.602254 0.627327 0.651275 0.670511 0.688774 0.709248 0.733509 0.825949 0.878073 0.545129 0.579132 0.60391 0.620557 0.629328 0.631344 0.629169 0.502705 0.497853 0.495998 0.499912 0.512379 0.525818 0.537142 0.572785 0.484918 0.502541 0.519568 0.531496 0.510704 0.391362 0.169546 0.493842 0.566961 0.626553 0.761809 0.628831 0.523402 0.394811 0.415652 0.829677 0.332419 0.390807 0.416342 0.439539 0.450571 0.442758 0.335562 0.367945 0.903154 0.751249 0.6303 0.606204 0.607012 0.591439 0.583517 0.576576 0.572325 0.574782 0.581975 0.594674 0.614394 0.635021 0.654171 0.766973 0.813992 0.879625 0.541628 0.570839 0.595731 0.613999 0.624369 0.617949 0.611549 0.613509 0.55661 0.546379 0.525336 0.510326 0.509061 0.51265 0.522141 0.530115 0.546534 0.599237 0.567646 0.496928 0.534304 0.553076 0.542266 0.427931 0.416158 0.599756 0.649096 0.895749 0.890483 0.704834 0.710823 0.453517 0.852983 0.305135 0.373731 0.417886 0.44346 0.458339 0.425854 0.395005 0.394352 0.879282 0.761109 0.659849 0.639961 0.641814 0.651116 0.676935 0.698429 0.717559 0.725954 0.722631 0.622984 0.619532 0.609153 0.599844 0.581179 0.592464 0.67437 0.694633 0.718398 0.750222 0.797163 0.868904 0.541336 0.567549 0.626594 0.632359 0.633526 0.631701 0.627571 0.623637 0.623035 0.627084 0.575446 0.548951 0.522908 0.519098 0.52183 0.526063 0.532823 0.557356 0.594489 0.587716 0.462924 0.568965 0.618709 0.616216 0.821208 0.526111 0.567884 0.777795 0.870304 0.354972 0.407137 0.46462 0.452544 0.43593 0.423472 0.83527 0.752989 0.676516 0.581067 0.602422 0.662026 0.656403 0.651928 0.666314 0.683792 0.702051 0.712822 0.711503 0.699018 0.632706 0.614545 0.603658 0.594826 0.587438 0.581275 0.57679 0.576564 0.607243 0.623663 0.643324 0.662798 0.68328 0.705415 0.734697 0.778041 0.848058 0.590394 0.607907 0.621963 0.630881 0.634792 0.635479 0.633437 0.630714 0.629716 0.629762 0.636266 0.603243 0.541632 0.532158 0.527732 0.522644 0.52002 0.532523 0.543963 0.546858 0.59404 0.603364 0.467659 0.50419 0.848239 0.935333 0.548672 0.85075 0.855019 0.8959 0.389448 0.446849 0.473039 0.473432 0.472358 0.457504 0.447031 0.783769 0.730723 0.613393 0.554277 0.704934 0.652781 0.661455 0.663539 0.677129 0.690565 0.701914 0.704496 0.696798 0.679282 0.629016 0.612168 0.601573 0.592648 0.586044 0.581772 0.580528 0.583174 0.591011 0.603373 0.618881 0.636562 0.655068 0.674096 0.695192 0.722062 0.761229 0.822304 0.541079 0.566104 0.587936 0.604894 0.618094 0.628428 0.634687 0.637334 0.637516 0.636281 0.634697 0.633994 0.635724 0.637173 0.631772 0.536332 0.54451 0.53729 0.530905 0.528059 0.528057 0.547778 0.545494 0.580941 0.63658 0.493153 0.554034 0.628643 0.72298 0.926245 0.506698 0.681228 0.831494 0.43487 0.479752 0.487121 0.493373 0.479006 0.456657 0.677519 0.631237 0.591388 0.711281 0.641957 0.654048 0.66819 0.69658 0.69343 0.682262 0.658487 0.629109 0.613611 0.603119 0.592642 0.58677 0.584911 0.586687 0.592152 0.602129 0.616458 0.633247 0.650658 0.668001 0.687692 0.711473 0.553216 0.566514 0.584635 0.602236 0.615733 0.626414 0.633858 0.638353 0.640336 0.633716 0.559739 0.553793 0.543059 0.539213 0.536395 0.535362 0.544139 0.606653 0.664148 0.558144 0.631452 0.719628 0.837161 0.919703 0.870307 0.898585 0.410087 0.484135 0.484844 0.509869 0.499028 0.73205 0.701847 0.669781 0.637285 0.609354 0.589887 0.67405 0.682719 0.692452 0.589741 0.590879 0.594154 0.603083 0.615867 0.631205 0.74473 0.795089 0.578557 0.590771 0.601335 0.613061 0.64054 0.63986 0.638983 0.638164 0.636921 0.647984 0.550748 0.547621 0.545079 0.546777 0.551305 0.554233 0.534463 0.700717 0.645962 0.720989 0.809385 0.87207 0.8883 0.780592 0.898407 0.435796 0.50224 0.476698 0.689063 0.67042 0.657111 0.640694 0.62175 0.61011 0.658507 0.653074 0.666217 0.677444 0.679183 0.688265 0.691174 0.687989 0.681304 0.667487 0.648319 0.629336 0.617188 0.607146 0.591878 0.648516 0.665955 0.683277 0.702256 0.727513 0.764471 0.565252 0.624232 0.632853 0.638287 0.641713 0.643634 0.644071 0.64363 0.642733 0.640924 0.637778 0.657593 0.613078 0.57019 0.558564 0.551353 0.555955 0.55592 0.558783 0.556995 0.542654 0.570736 0.632603 0.786151 0.819012 0.822868 0.854476 0.782663 0.894083 0.462502 0.523075 0.529535 0.502652 0.67016 0.643426 0.637963 0.636897 0.604115 0.603957 0.639919 0.665859 0.672191 0.679105 0.682683 0.686674 0.687368 0.683432 0.679135 0.670427 0.657346 0.643544 0.631714 0.622717 0.611762 0.596821 0.597105 0.605444 0.617027 0.630961 0.647289 0.664887 0.682131 0.699408 0.709601 0.732623 0.586514 0.58972 0.597899 0.606659 0.615056 0.623924 0.631763 0.638177 0.642379 0.644793 0.646804 0.647845 0.647487 0.647957 0.648711 0.656409 0.642309 0.601758 0.576162 0.565481 0.561375 0.55899 0.567931 0.562984 0.531991 0.584717 0.619383 0.666129 0.74194 0.72385 0.758138 0.817169 0.865657 0.508682 0.54419 0.546819 0.661179 0.631585 0.624682 0.634915 0.623509 0.612227 0.621376 0.661895 0.675232 0.683807 0.687205 0.690491 0.68943 0.683336 0.676985 0.669525 0.660202 0.650935 0.643058 0.636541 0.630359 0.622014 0.610137 0.600094 0.609266 0.619258 0.632523 0.647293 0.663789 0.681181 0.696406 0.707164 0.692623 0.602164 0.607982 0.609502 0.615016 0.61899 0.625499 0.632367 0.637971 0.642689 0.64595 0.648227 0.65009 0.651554 0.652636 0.628524 0.600285 0.583973 0.576594 0.571598 0.567893 0.565829 0.587551 0.617908 0.664768 0.709465 0.763042 0.757977 0.780187 0.850911 0.911447 0.799147 0.486261 0.521185 0.556619 0.682658 0.625468 0.641797 0.645552 0.634047 0.616258 0.646126 0.643726 0.640795 0.628746 0.612856 0.621003 0.634358 0.647757 0.662504 0.626156 0.629237 0.634024 0.638686 0.654579 0.659279 0.653181 0.595081 0.586062 0.578629 0.578689 0.573401 0.568127 0.545365 0.696733 0.731608 0.765157 0.750615 0.717128 0.77829 0.907489 0.806859 0.798405 0.505613 0.528475 0.630039 0.611038 0.626884 0.637913 0.654806 0.674759 0.68788 0.694059 0.699002 0.696648 0.686749 0.676 0.666903 0.659225 0.652814 0.648294 0.677498 0.690718 0.696455 0.689529 0.61901 0.618139 0.621667 0.623038 0.642522 0.646008 0.648724 0.650738 0.653106 0.655495 0.657783 0.66022 0.660897 0.647895 0.617531 0.603083 0.592333 0.605543 0.575767 0.566619 0.598789 0.6137 0.65909 0.756482 0.700534 0.762253 0.827099 0.885027 0.791027 0.627077 0.659143 0.636431 0.598905 0.625583 0.657004 0.662911 0.635633 0.64683 0.669145 0.690507 0.701919 0.704213 0.704902 0.694932 0.681786 0.669715 0.659528 0.651508 0.647753 0.64878 0.652295 0.656247 0.6597 0.638638 0.616519 0.62143 0.636046 0.647631 0.660361 0.675321 0.687332 0.691379 0.684478 0.660244 0.629302 0.627808 0.631269 0.633339 0.635397 0.637731 0.640055 0.64231 0.644864 0.64777 0.650515 0.652649 0.655337 0.65856 0.660989 0.660637 0.662474 0.638993 0.611692 0.613275 0.602227 0.589224 0.565346 0.602285 0.622586 0.659677 0.679622 0.709852 0.732961 0.773203 0.83186 0.77877 0.749162 0.516402 0.559377 0.663464 0.668231 0.641927 0.595305 0.647743 0.693518 0.664579 0.660673 0.6344 0.70782 0.704025 0.709578 0.711232 0.705646 0.698614 0.684423 0.667979 0.651253 0.643607 0.644858 0.652616 0.663046 0.675784 0.6479 0.620192 0.63769 0.646893 0.658766 0.674996 0.689603 0.691669 0.685248 0.673201 0.656118 0.640173 0.640049 0.6418 0.642698 0.641744 0.641244 0.642263 0.643786 0.645728 0.648187 0.650833 0.653658 0.656649 0.659928 0.661936 0.658054 0.652701 0.633235 0.621619 0.626427 0.594671 0.608285 0.63375 0.703868 0.593724 0.62383 0.660933 0.672348 0.689218 0.710679 0.737375 0.813045 0.768082 0.944229 0.795263 0.770269 0.75284 0.54541 0.60367 0.676379 0.677317 0.647505 0.669084 0.718232 0.678651 0.64947 0.652664 0.63848 0.639047 0.647932 0.663545 0.681231 0.702152 0.59963 0.644455 0.644873 0.660211 0.679685 0.695553 0.693076 0.67006 0.661557 0.65477 0.651347 0.648562 0.645647 0.643092 0.642026 0.642088 0.643113 0.644816 0.606756 0.608339 0.642372 0.718654 0.783799 0.673926 0.682618 0.693742 0.728074 0.793715 0.787061 0.771598 0.779292 0.893833 0.784611 0.74778 0.648079 0.738519 0.716582 0.711918 0.717789 0.708904 0.71456 0.687713 0.649453 0.653383 0.69178 0.682498 0.645036 0.647322 0.650027 0.653125 0.656706 0.660367 0.663527 0.636581 0.643594 0.64491 0.607921 0.652244 0.822471 0.783892 0.915279 0.752871 0.669568 0.78269 0.737492 0.745069 0.681825 0.779754 0.764551 0.777899 0.742579 0.677513 0.67351 0.648963 0.750454 0.732785 0.71579 0.723436 0.713321 0.733282 0.656251 0.639514 0.631379 0.640889 0.656572 0.67901 0.709841 0.679983 0.62635 0.668902 0.672751 0.682912 0.700243 0.696506 0.701346 0.691936 0.683565 0.674918 0.668984 0.661589 0.654938 0.65036 0.646347 0.642117 0.640038 0.639568 0.640884 0.643092 0.645502 0.648168 0.651393 0.655467 0.661267 0.645041 0.619285 0.653105 0.671217 0.611131 0.613577 0.6407 0.69517 0.796102 0.902532 0.627815 0.802541 0.822712 0.819896 0.805046 0.801563 0.821964 0.893832 0.809363 0.776503 0.744018 0.695675 0.778371 0.756334 0.714025 0.657924 0.821184 0.8705 0.841036 0.755446 0.703085 0.671072 0.652462 0.759231 0.738298 0.736189 0.720763 0.720092 0.732284 0.668749 0.627574 0.628577 0.649648 0.669074 0.704282 0.746165 0.644526 0.676774 0.77056 0.661982 0.70688 0.689914 0.70979 0.695829 0.693417 0.686897 0.678852 0.671417 0.662541 0.655645 0.649862 0.643414 0.638445 0.635655 0.636026 0.63781 0.640152 0.642704 0.645553 0.648916 0.654628 0.637442 0.632525 0.630548 0.681997 0.623278 0.624987 0.619918 0.729331 0.722584 0.87651 0.822669 0.793772 0.818455 0.830707 0.824873 0.790076 0.815223 0.82503 0.922353 0.910282 0.821039 0.689534 0.693428 0.631161 0.900444 0.901947 0.864306 0.854595 0.873894 0.861828 0.794637 0.750131 0.687009 0.713836 0.865967 0.827184 0.796543 0.787717 0.786267 0.781691 0.798179 0.769477 0.754085 0.735061 0.730252 0.70813 0.749136 0.885787 0.893378 0.835948 0.85145 0.802692 0.78081 0.741294 0.849111 0.743311 0.695149 0.730464 0.692913 0.694455 0.693401 0.688007 0.677653 0.670006 0.660543 0.654959 0.643729 0.638718 0.631106 0.631534 0.634354 0.636398 0.639254 0.642185 0.6461 0.629227 0.621805 0.643428 0.668647 0.763315 0.750025 0.73723 0.712769 0.801342 0.909697 0.780244 0.892118 0.68693 0.741521 0.774851 0.821894 0.710281 0.765729 0.783436 0.90168 0.899448 0.893832 0.893832 0.894509 0.893884 0.907708 0.908445 0.879331 0.840657 0.773172 0.742866 0.876137 0.833102 0.80809 0.79172 0.791323 0.793569 0.801235 0.770864 0.755701 0.750246 0.741542 0.73779 0.748003 0.79512 0.792081 0.758988 0.77042 0.783123 0.810173 0.839438 0.608377 0.621249 0.739703 0.810082 0.763712 0.818162 0.797222 0.879151 0.816472 0.821077 0.820022 0.821457 0.818665 0.820462 0.810899 0.808257 0.79728 0.796996 0.796163 0.797988 0.799541 0.802436 0.805622 0.810019 0.79071 0.818171 0.833078 0.837043 0.875143 0.865162 0.861107 0.899087 0.90302 0.892704 0.865669 0.947986 0.791119 0.727552 0.775336 0.779682 0.764067 0.854932 0.893832 0.893832 0.893832 0.803366 0.893907 0.893912 0.894834 0.893807 0.90288 0.908578 0.899497 0.858694 0.780507 0.763032 0.878084 0.838093 0.826302 0.829822 0.849063 0.85227 0.853883 0.829242 0.822401 0.816091 0.803967 0.80401 0.810821 0.826267 0.820202 0.796395 0.806787 0.858341 0.779365 0.839068 0.680499 0.715991 0.850363 0.829761 0.868095 0.863112 0.876839 0.881994 0.885827 0.883735 0.887064 0.884554 0.891903 0.880727 0.883051 0.888151 0.89195 0.893315 0.896579 0.897826 0.899964 0.901568 0.903371 0.886164 0.900593 0.88948 0.88158 0.907543 0.897022 0.894135 0.896043 0.896355 0.894631 0.896355 0.89733 0.891055 0.781302 0.813398 0.826609 0.885124 0.88908 0.905545 0.899488 0.898644 0.894071 0.894122 0.895016 0.892621 0.898797 0.90677 0.900936 0.865899 0.787317 0.78924 0.888901 0.854529 0.849412 0.849548 0.872984 0.884456 0.894028 0.890106 0.879535 0.876744 0.86996 0.8693 0.885938 0.875583 0.872498 0.858218 0.86683 0.865623 0.845962 0.831821 0.824815 0.82136 0.839742 0.881109 0.855731 0.884706 0.876131 0.886411 0.890021 0.892478 0.889274 0.893568 0.888919 0.892621 0.883924 0.886875 0.891961 0.896774 0.897284 0.900706 0.901003 0.90277 0.903309 0.903538 0.891591 0.898728 0.888573 0.884327 0.903752 0.89639 0.895019 0.894144 0.894873 0.893806 0.899008 0.901293 0.892234 0.802725 0.840888 0.84417 0.898852 0.887814 0.893938 0.893832 0.893832 0.893791 0.893824 0.894483 0.891064 0.895463 0.902443 0.895319 0.866981 0.79437 0.805478 0.889991 0.859487 0.857791 0.85583 0.875129 0.886108 0.895487 0.898155 0.890629 0.888054 0.884559 0.883667 0.901214 0.887203 0.886829 0.880464 0.887369 0.890787 0.872497 0.877562 0.861346 0.848336 0.843096 0.887996 0.864422 0.889279 0.880295 0.88911 0.89129 0.893592 0.889728 0.894427 0.888261 0.893909 0.880932 0.884209 0.885318 0.890885 0.890212 0.893864 0.893302 0.894987 0.894949 0.894356 0.885876 0.89202 0.88485 0.884164 0.897811 0.892626 0.893111 0.893879 0.893888 0.893815 0.893933 0.899918 0.880915 0.810248 0.843461 0.856365 0.895674 0.887234 0.894041 0.893874 0.893854 0.893797 0.893827 0.894282 0.890585 0.893355 0.898328 0.889447 0.867377 0.801412 0.820319 0.890456 0.863204 0.862301 0.855935 0.869497 0.879916 0.889006 0.893893 0.891972 0.891106 0.887546 0.887997 0.896703 0.884769 0.884896 0.883419 0.888232 0.893561 0.874547 0.885396 0.859093 0.863178 0.897555 0.888818 0.869178 0.889643 0.880299 0.88935 0.890084 0.893347 0.888972 0.893982 0.886974 0.893827 0.87806 0.881937 0.879065 0.885202 0.8834 0.887231 0.885739 0.8874 0.886938 0.885846 0.880717 0.88651 0.882219 0.884009 0.893482 0.889296 0.892223 0.893842 0.893862 0.893817 0.893943 0.898244 0.868814 0.818853 0.847877 0.866478 0.891345 0.886562 0.893832 0.893832 0.89383 0.893807 0.893827 0.894089 0.890565 0.89159 0.894366 0.884124 0.867017 0.809653 0.833265 0.891071 0.867238 0.865431 0.857319 0.865784 0.874808 0.882799 0.888052 0.889679 0.890303 0.888117 0.890131 0.890088 0.881293 0.881373 0.88332 0.886331 0.893131 0.893832 0.886531 0.855102 0.870685 0.897954 0.888159 0.872925 0.889374 0.880421 0.889364 0.889431 0.893295 0.888332 0.893562 0.886446 0.893745 0.876642 0.880991 0.874408 0.881017 0.878036 0.881882 0.879473 0.88109 0.880279 0.878965 0.876678 0.882389 0.880551 0.883757 0.889976 0.887036 0.89214 0.893838 0.893838 0.893815 0.893844 0.896445 0.857902 0.827668 0.852993 0.875409 0.887748 0.886325 0.893832 0.893832 0.89383 0.893816 0.893828 0.893899 0.890764 0.890172 0.890656 0.879835 0.865195 0.818869 0.843371 0.891807 0.871332 0.867501 0.859378 0.863746 0.87125 0.878 0.883059 0.88623 0.887689 0.887304 0.889673 0.884796 0.878597 0.878438 0.882704 0.884222 0.892312 0.893832 0.849098 0.875627 0.893832 0.887133 0.876248 0.889243 0.881106 0.889529 0.889219 0.893105 0.887797 0.893368 0.886442 0.893668 0.876337 0.881017 0.871242 0.878153 0.87404 0.877797 0.874546 0.876108 0.875046 0.873675 0.873692 0.879475 0.879608 0.88402 0.886933 0.885513 0.89245 0.893836 0.893837 0.893813 0.893842 0.894633 0.848827 0.835527 0.858799 0.880607 0.885053 0.886489 0.893832 0.893832 0.89383 0.888861 0.893823 0.893831 0.893724 0.891027 0.889075 0.887377 0.876592 0.861961 0.827432 0.851283 0.892456 0.87514 0.869102 0.86163 0.862879 0.868923 0.874474 0.879078 0.882743 0.884877 0.885411 0.887376 0.880881 0.876662 0.876229 0.882102 0.882402 0.891613 0.893832 0.886681 0.844777 0.87962 0.893832 0.886517 0.879764 0.889211 0.882519 0.889751 0.889082 0.8927 0.887486 0.893343 0.886751 0.893615 0.876733 0.881672 0.869293 0.87634 0.871215 0.874865 0.870867 0.872391 0.871122 0.869785 0.87161 0.877539 0.879135 0.884259 0.884405 0.884356 0.892847 0.893833 0.893835 0.893813 0.893838 0.892895 0.841776 0.841996 0.864362 0.881703 0.883157 0.886866 0.893832 0.893832 0.89383 0.893827 0.893832 0.893568 0.891278 0.88821 0.884725 0.874214 0.858345 0.834297 0.857636 0.892876 0.878424 0.870544 0.863748 0.862734 0.867487 0.871999 0.876049 0.879784 0.882429 0.883338 0.884754 0.878045 0.875279 0.874601 0.881582 0.880933 0.89104 0.893832 0.839725 0.882929 0.893832 0.886315 0.882861 0.889171 0.884221 0.889957 0.888941 0.892172 0.887359 0.893249 0.887228 0.893574 0.877462 0.882618 0.868212 0.875321 0.869341 0.87289 0.868278 0.869761 0.868318 0.867061 0.87025 0.876336 0.878956 0.883938 0.882448 0.883488 0.893175 0.893831 0.893832 0.893812 0.893832 0.891336 0.836508 0.846947 0.868872 0.880831 0.881844 0.887288 0.893832 0.893832 0.89383 0.886153 0.893829 0.893832 0.893443 0.891475 0.887559 0.882779 0.872548 0.855251 0.839375 0.862518 0.893108 0.881005 0.871799 0.865513 0.862944 0.866663 0.870361 0.873882 0.877551 0.880493 0.881665 0.88262 0.876069 0.874324 0.873454 0.881179 0.879837 0.890603 0.893832 0.885748 0.835947 0.885586 0.893832 0.886247 0.885177 0.88925 0.885806 0.890122 0.888809 0.891678 0.887312 0.893074 0.887731 0.893541 0.87824 0.883572 0.867699 0.874835 0.868195 0.871655 0.866571 0.86801 0.86643 0.86527 0.869427 0.875641 0.878947 0.883252 0.881063 0.882898 0.893443 0.893828 0.89383 0.893812 0.893827 0.890059 0.832695 0.850488 0.872163 0.879654 0.880944 0.887661 0.893832 0.893832 0.893829 0.893831 0.893832 0.893356 0.891604 0.88713 0.865833 0.893239 0.882772 0.872733 0.866775 0.863234 0.873722 0.872724 0.880911 0.879113 0.89031 0.893832 0.833565 0.893832 0.886205 0.886727 0.886957 0.888688 0.89133 0.887271 0.892911 0.888133 0.893518 0.878869 0.884327 0.867509 0.874652 0.867569 0.87096 0.865553 0.866954 0.893639 0.893827 0.893827 0.893811 0.893822 0.889154 0.830178 0.880368 0.887935 0.893832 0.893832 0.893829 0.881527 0.871481 0.853104 0.842755 0.866237 0.869379 0.87249 0.876075 0.879162 0.880551 0.881192 0.874819 0.885388 0.887385 0.88935 0.890238 0.865282 0.864205 0.86898 0.875278 0.879009 0.882606 0.880204 0.882545 0.852793 0.874334 0.878778 0.893831 0.893832 0.893312 0.891665 0.886919 0.880921 0.870955 0.852027 0.844441 0.867509 0.8933 0.883669 0.873231 0.867432 0.863423 0.866063 0.868922 0.871811 0.875344 0.878489 0.880002 0.880486 0.874213 0.87343 0.872369 0.880779 0.878753 0.890164 0.893832 0.885192 0.832413 0.88827 0.893832 0.886185 0.887516 0.889401 0.887542 0.890298 0.888608 0.891158 0.887234 0.89282 0.888353 0.893506 0.879218 0.884742 0.867462 0.874604 0.8673 0.870653 0.865079 0.866462 0.864744 0.863711 0.86879 0.875127 0.879061 0.882241 0.8798 0.882382 0.893737 0.893826 0.893826 0.89381 0.89382 0.888685 0.828923 0.853929 0.875415 0.87833 0.880084 0.888079 0.893832 0.893832 0.893829 
SCALARS Axial_Stress float 1
LOOKUP_TABLE default
-95654600000.0 -83060700000.0 -68400800000.0 -180046000000.0 -120416000000.0 -158995000000.0 -65485300000.0 -72390000000.0 -66310700000.0 -77694000000.0 -69074900000.0 -68014500000.0 -63586900000.0 -81103000000.0 -143803000000.0 -136277000000.0 -83791700000.0 -195138000000.0 -73744100000.0 -164002000000.0 -170115000000.0 -81815400000.0 -93796800000.0 -199717000000.0 -100439000000.0 -123994000000.0 -124042000000.0 -62561200000.0 -102419000000.0 -201683000000.0 -269432000000.0 -236734000000.0 -210345000000.0 -167086000000.0 -177615000000.0 -190966000000.0 -222616000000.0 -281478000000.0 -275356000000.0 -256738000000.0 -145650000000.0 -291540000000.0 -224837000000.0 -379163000000.0 -285211000000.0 -411683000000.0 -335660000000.0 -443922000000.0 -243335000000.0 -222841000000.0 -407281000000.0 -299237000000.0 -154528000000.0 -259051000000.0 -190926000000.0 -262869000000.0 -507168000000.0 -380194000000.0 -522842000000.0 -413553000000.0 -532432000000.0 -360066000000.0 -415923000000.0 -405998000000.0 -303277000000.0 -316265000000.0 -517505000000.0 -508973000000.0 -526811000000.0 -360565000000.0 -346034000000.0 -483870000000.0 -340533000000.0 -347388000000.0 -276544000000.0 -278564000000.0 -246871000000.0 -670280000000.0 -636276000000.0 -649733000000.0 -667204000000.0 -383680000000.0 -198955000000.0 -708822000000.0 -621788000000.0 -618119000000.0 -628537000000.0 -603870000000.0 -555005000000.0 -446320000000.0 -429552000000.0 -901587000000.0 -774709000000.0 -756565000000.0 -777488000000.0 -880440000000.0 -876218000000.0 -905283000000.0 -935406000000.0 -764320000000.0 -842686000000.0 -722993000000.0 -817252000000.0 -719559000000.0 -814671000000.0 -479499000000.0 -466519000000.0 -809402000000.0 -695618000000.0 -656647000000.0 -656769000000.0 -1.13786e+12 -947348000000.0 -872832000000.0 -975040000000.0 -875026000000.0 -1.0045e+12 -932462000000.0 -1.13351e+12 -1.17299e+12 -1.6454e+12 -1.04873e+12 -980353000000.0 -925132000000.0 -908008000000.0 -597882000000.0 -590517000000.0 -892386000000.0 -800443000000.0 -925064000000.0 -1.89065e+12 -1.48997e+12 -1.38337e+12 -1.14771e+12 -1.16529e+12 -1.00936e+12 -1.08612e+12 -1.08586e+12 -1.15626e+12 -1.40426e+12 -1.33169e+12 -1.1143e+12 -1.04387e+12 -1.00716e+12 -996393000000.0 -1.02591e+12 -919418000000.0 -2.11032e+12 -1.65584e+12 -1.34269e+12 -1.21062e+12 -1.17702e+12 -1.21008e+12 -1.33787e+12 -1.47204e+12 -1.29591e+12 -1.16872e+12 -1.22759e+12 -1.11401e+12 -1.18612e+12 -1.08863e+12 -1.16986e+12 -714088000000.0 -725199000000.0 -1.26146e+12 -1.0789e+12 -1.75965e+12 -1.86863e+12 -1.53286e+12 -1.3482e+12 -1.27838e+12 -1.28105e+12 -1.39615e+12 -1.34912e+12 -1.47044e+12 -1.45774e+12 -1.52009e+12 -1.42295e+12 -1.43737e+12 -1.31232e+12 -1.35106e+12 -1.28966e+12 -1.25892e+12 -826582000000.0 -871324000000.0 -1.45781e+12 -1.52906e+12 -1.6994e+12 -1.8429e+12 -1.7736e+12 -1.70181e+12 -1.62614e+12 -1.49316e+12 -1.50294e+12 -1.38857e+12 -1.45479e+12 -1.36388e+12 -1.46202e+12 -1.50907e+12 -1.56399e+12 -1.542e+12 -1.47068e+12 -1.40022e+12 -1.35305e+12 -1.33229e+12 -1.52198e+12 -1.61946e+12 -1.75633e+12 -1.71419e+12 -1.61058e+12 -1.54838e+12 -1.5388e+12 -1.56457e+12 -1.61082e+12 -1.63033e+12 -1.57978e+12 -1.51283e+12 -1.55799e+12 -1.4532e+12 -1.50703e+12 -1.41693e+12 -1.48134e+12 -933614000000.0 -1.03824e+12 -1.70335e+12 -1.63158e+12 -1.71173e+12 -1.74767e+12 -1.69372e+12 -1.63694e+12 -1.61982e+12 -1.63181e+12 -1.66591e+12 -1.76147e+12 -1.69731e+12 -1.76851e+12 -1.67881e+12 -1.72824e+12 -1.62292e+12 -1.66564e+12 -1.60281e+12 -1.56078e+12 -1.03314e+12 -1.19404e+12 -1.77394e+12 -1.71637e+12 -1.75922e+12 -1.74628e+12 -1.75327e+12 -1.74171e+12 -1.76007e+12 -1.71054e+12 -1.75996e+12 -1.69604e+12 -1.78005e+12 -1.70617e+12 -1.79701e+12 -1.72727e+12 -1.82524e+12 -1.84793e+12 -1.82864e+12 -1.77473e+12 -1.70429e+12 -1.64612e+12 -1.61476e+12 -1.8572e+12 -1.81775e+12 -1.76071e+12 -1.77776e+12 -1.80668e+12 -1.84013e+12 -1.87312e+12 -1.88708e+12 -1.92187e+12 -1.92405e+12 -1.88305e+12 -1.92735e+12 -1.81231e+12 -1.83838e+12 -1.73811e+12 -1.76821e+12 -1.68827e+12 -1.73049e+12 -1.12284e+12 -1.34428e+12 -2.01523e+12 -1.91118e+12 -1.9281e+12 -1.81857e+12 -1.75655e+12 -1.82774e+12 -1.88216e+12 -1.9462e+12 -1.96056e+12 -1.98786e+12 -2.09247e+12 -2.01298e+12 -2.09583e+12 -1.99016e+12 -2.04524e+12 -1.95103e+12 -1.85566e+12 -1.7972e+12 -1.20023e+12 -1.49356e+12 -2.06838e+12 -1.87816e+12 -1.7619e+12 -1.70713e+12 -1.80727e+12 -1.89341e+12 -1.90579e+12 -2.01391e+12 -1.99132e+12 -2.13278e+12 -2.04719e+12 -2.1194e+12 -2.03863e+12 -2.15083e+12 -2.19575e+12 -2.16721e+12 -2.08059e+12 -1.95353e+12 -1.86921e+12 -1.82798e+12 -1.65281e+12 -2.20837e+12 -2.26898e+12 -2.07039e+12 -1.69384e+12 -1.79673e+12 -2.02861e+12 -2.15325e+12 -2.23783e+12 -2.15802e+12 -2.27329e+12 -2.29598e+12 -2.39022e+12 -2.2186e+12 -2.22363e+12 -2.0715e+12 -2.02517e+12 -1.94572e+12 -1.94624e+12 -1.88677e+12 -1.91035e+12 -1.26286e+12 -2.48399e+12 -2.26099e+12 -1.97854e+12 -1.41728e+12 -2.01657e+12 -2.14243e+12 -2.37069e+12 -2.25348e+12 -2.30785e+12 -2.4744e+12 -2.40152e+12 -2.52883e+12 -2.47791e+12 -2.07949e+12 -1.9999e+12 -1.96124e+12 -1.30784e+12 -1.80309e+12 -2.62805e+12 -2.83409e+12 -2.08657e+12 -1.58548e+12 -1.89678e+12 -1.96847e+12 -2.27658e+12 -2.13296e+12 -2.0599e+12 -2.31728e+12 -2.7369e+12 -2.45994e+12 -2.2724e+12 -2.16781e+12 -2.4689e+12 -2.65622e+12 -2.63197e+12 -2.5777e+12 -2.86471e+12 -1.94557e+12 -1.90131e+12 -2.00632e+12 -2.02781e+12 -1.98464e+12 -1.33115e+12 -1.94518e+12 -2.75523e+12 -2.91787e+12 -1.91661e+12 -2.34327e+12 -2.46293e+12 -1.75567e+12 -2.61283e+12 -1.85334e+12 -2.79481e+12 -2.91963e+12 -2.76878e+12 -2.85311e+12 -2.74231e+12 -2.92897e+12 -3.24048e+12 -1.89784e+12 -2.05946e+12 -2.9855e+12 -3.16491e+12 -3.39819e+12 -4.05953e+12 -2.11548e+12 -2.69243e+12 -2.52599e+12 -1.74176e+12 -2.01965e+12 -3.00177e+12 -3.13433e+12 -2.97909e+12 -2.97986e+12 -3.21064e+12 -3.53714e+12 -3.71687e+12 -1.93721e+12 -1.32666e+12 -2.09735e+12 -3.1372e+12 -3.58696e+12 -3.76513e+12 -3.92527e+12 -3.41273e+12 -2.6607e+12 -3.17397e+12 -2.95789e+12 -3.07096e+12 -2.50983e+12 -1.41567e+12 -1.75636e+12 -3.34541e+12 -3.15346e+12 -3.00878e+12 -3.18716e+12 -3.4376e+12 -3.5011e+12 -3.72058e+12 -3.74526e+12 -2.02336e+12 -1.22558e+12 -3.17955e+12 -3.21982e+12 -3.36024e+12 -3.60492e+12 -3.41439e+12 -3.50439e+12 -1.51904e+12 -1.38669e+12 -1.58928e+12 -1.33731e+12 -3.66872e+12 -3.41297e+12 -3.20371e+12 -3.09212e+12 -3.07381e+12 -3.16353e+12 -3.39877e+12 -3.66253e+12 -3.82759e+12 -3.80969e+12 -3.63057e+12 -3.39376e+12 -2.26812e+12 -3.35298e+12 -3.25619e+12 -2.94403e+12 -3.42081e+12 -3.44508e+12 -3.70606e+12 -1.59429e+12 -1.85426e+12 -2.48142e+12 -2.62798e+12 -3.30496e+12 -3.10847e+12 -3.32267e+12 -3.63897e+12 -3.82684e+12 -3.81136e+12 -3.86241e+12 -3.71617e+12 -2.40157e+12 -3.42979e+12 -3.09429e+12 -3.24941e+12 -3.38636e+12 -3.24522e+12 -3.51159e+12 -2.38377e+12 -1.8424e+12 -2.21956e+12 -2.02418e+12 -2.27773e+12 -2.75065e+12 -3.17754e+12 -3.13655e+12 -2.9989e+12 -3.50479e+12 -3.61673e+12 -3.86849e+12 -3.92177e+12 -3.83533e+12 -3.78017e+12 -1.99898e+12 -2.25928e+12 -3.38256e+12 -3.84474e+12 -3.66135e+12 -2.73289e+12 -2.92509e+12 -3.30061e+12 -3.04391e+12 -2.52428e+12 -2.42885e+12 -2.3146e+12 -2.56742e+12 -2.62368e+12 -3.01015e+12 -3.11051e+12 -3.00923e+12 -3.00058e+12 -2.56646e+12 -3.96364e+12 -3.97484e+12 -3.99258e+12 -3.95364e+12 -3.99938e+12 -3.88052e+12 -3.89515e+12 -2.27874e+12 -4.63559e+12 -3.84871e+12 -3.87177e+12 -2.92436e+12 -3.27005e+12 -3.3222e+12 -2.92399e+12 -2.61695e+12 -2.61641e+12 -2.78221e+12 -2.83155e+12 -3.00221e+12 -2.81309e+12 -4.13679e+12 -4.36016e+12 -4.08049e+12 -4.0307e+12 -4.00857e+12 -4.26828e+12 -2.15565e+12 -5.00952e+12 -3.9962e+12 -4.12615e+12 -6.37014e+12 -4.35419e+12 -5.4892e+12 -2.89907e+12 -3.38882e+12 -3.27043e+12 -3.15841e+12 -2.87667e+12 -2.8971e+12 -2.72826e+12 -2.78496e+12 -2.93602e+12 -2.98993e+12 -3.01126e+12 -2.88233e+12 -2.54832e+12 -2.38315e+12 -4.68616e+12 -4.22944e+12 -3.91652e+12 -3.75886e+12 -4.07666e+12 -4.70712e+12 -4.31179e+12 -5.32298e+12 -6.37067e+12 -4.57601e+12 -4.42483e+12 -3.82444e+12 -6.57224e+12 -6.69186e+12 -6.8687e+12 -5.04085e+12 -4.87461e+12 -4.83489e+12 -5.23205e+12 -5.05059e+12 -4.76843e+12 -4.17368e+12 -3.90416e+12 -3.47878e+12 -3.41524e+12 -3.10324e+12 -2.95338e+12 -2.84606e+12 -2.95849e+12 -2.93075e+12 -3.04605e+12 -3.04712e+12 -2.95454e+12 -2.47092e+12 -4.63365e+12 -4.53229e+12 -4.22936e+12 -4.06673e+12 -3.93358e+12 -3.23901e+12 -5.49678e+12 -5.86973e+12 -6.12421e+12 -4.31832e+12 -4.21665e+12 -3.59076e+12 -6.24342e+12 -6.65757e+12 -4.49458e+12 -5.08119e+12 -4.99353e+12 -4.27229e+12 -3.72185e+12 -3.32444e+12 -3.0977e+12 -3.023e+12 -3.09474e+12 -3.06008e+12 -3.13649e+12 -3.09128e+12 -3.16051e+12 -2.99859e+12 -3.95088e+12 -4.30986e+12 -4.10915e+12 -4.05492e+12 -3.77216e+12 -3.82069e+12 -3.476e+12 -4.69359e+12 -5.42916e+12 -5.84888e+12 -6.14094e+12 -6.16589e+12 -4.1013e+12 -3.18296e+12 -3.41375e+12 -5.71891e+12 -6.39428e+12 -6.43668e+12 -6.1156e+12 -5.85536e+12 -5.34633e+12 -5.18365e+12 -5.08274e+12 -4.62013e+12 -4.02352e+12 -3.5815e+12 -3.2695e+12 -3.11952e+12 -3.15441e+12 -3.16563e+12 -3.14926e+12 -3.22008e+12 -3.29261e+12 -3.10638e+12 -3.99832e+12 -3.97539e+12 -3.8923e+12 -3.83108e+12 -4.36659e+12 -5.28787e+12 -5.91262e+12 -6.21203e+12 -6.23895e+12 -3.96106e+12 -3.82901e+12 -3.09386e+12 -4.81451e+12 -6.1332e+12 -6.26738e+12 -6.24287e+12 -6.12651e+12 -5.73804e+12 -5.39547e+12 -5.04933e+12 -4.84657e+12 -4.53055e+12 -4.29146e+12 -4.09278e+12 -3.84478e+12 -3.70307e+12 -3.47468e+12 -3.40171e+12 -3.24484e+12 -3.23956e+12 -3.19647e+12 -3.23914e+12 -3.23685e+12 -3.33379e+12 -3.32969e+12 -3.48331e+12 -3.82467e+12 -3.99752e+12 -3.94136e+12 -3.81435e+12 -4.04702e+12 -4.46975e+12 -4.91141e+12 -5.2892e+12 -5.54774e+12 -5.70113e+12 -5.94756e+12 -6.02895e+12 -6.07436e+12 -6.20663e+12 -3.73561e+12 -3.09151e+12 -5.67698e+12 -5.44033e+12 -6.16312e+12 -6.87635e+12 -6.50005e+12 -6.38455e+12 -6.23321e+12 -6.41751e+12 -5.40336e+12 -4.72526e+12 -4.30913e+12 -3.93223e+12 -3.58683e+12 -3.49375e+12 -3.35284e+12 -3.32258e+12 -3.24757e+12 -3.26801e+12 -3.2464e+12 -3.32229e+12 -3.45364e+12 -3.4781e+12 -3.86033e+12 -4.10913e+12 -3.78964e+12 -3.26804e+12 -3.74689e+12 -4.01734e+12 -4.89972e+12 -5.48891e+12 -5.58348e+12 -5.73544e+12 -5.89354e+12 -6.03122e+12 -6.16323e+12 -6.14633e+12 -3.67467e+12 -3.15644e+12 -3.10099e+12 -5.81612e+12 -6.01446e+12 -6.05017e+12 -6.13967e+12 -6.39048e+12 -6.16637e+12 -6.62559e+12 -5.90699e+12 -5.15738e+12 -4.84469e+12 -4.62965e+12 -4.50291e+12 -4.14756e+12 -3.78831e+12 -3.65671e+12 -3.42246e+12 -3.30921e+12 -3.3027e+12 -3.30773e+12 -3.4216e+12 -3.59628e+12 -3.65609e+12 -3.89906e+12 -4.04807e+12 -4.19907e+12 -4.23292e+12 -4.8182e+12 -3.04484e+12 -4.5007e+12 -4.91442e+12 -5.24718e+12 -5.44655e+12 -5.51007e+12 -5.79652e+12 -5.96025e+12 -5.85348e+12 -5.97322e+12 -6.17079e+12 -3.63416e+12 -3.2553e+12 -5.88439e+12 -5.81468e+12 -5.81858e+12 -5.83803e+12 -5.72828e+12 -5.02344e+12 -6.56337e+12 -6.00095e+12 -4.46706e+12 -5.32387e+12 -4.57332e+12 -4.49693e+12 -4.34343e+12 -4.19336e+12 -3.99255e+12 -4.01297e+12 -3.83238e+12 -3.54444e+12 -3.37244e+12 -3.31382e+12 -3.3537e+12 -3.38461e+12 -3.47963e+12 -3.54126e+12 -3.7583e+12 -4.07158e+12 -4.49362e+12 -4.82929e+12 -5.27756e+12 -4.92668e+12 -3.6706e+12 -4.47086e+12 -5.25571e+12 -5.5183e+12 -5.51622e+12 -5.08268e+12 -5.84059e+12 -5.79505e+12 -5.9826e+12 -6.06261e+12 -6.21245e+12 -3.62134e+12 -3.62851e+12 -3.3023e+12 -6.01502e+12 -5.99319e+12 -5.87461e+12 -5.70025e+12 -5.69128e+12 -5.98278e+12 -5.77412e+12 -5.73444e+12 -5.6918e+12 -5.89611e+12 -4.69242e+12 -4.83e+12 -3.8389e+12 -4.49992e+12 -4.38714e+12 -4.19598e+12 -3.8313e+12 -3.683e+12 -3.55604e+12 -3.45621e+12 -3.39344e+12 -3.34403e+12 -3.33714e+12 -3.42253e+12 -3.59386e+12 -3.68213e+12 -3.84586e+12 -3.94189e+12 -4.25419e+12 -4.38943e+12 -4.85095e+12 -4.57653e+12 -4.7544e+12 -4.931e+12 -5.35152e+12 -5.60819e+12 -5.60549e+12 -5.85077e+12 -5.70757e+12 -5.68139e+12 -5.86111e+12 -6.14207e+12 -6.2617e+12 -3.61081e+12 -3.36827e+12 -6.08485e+12 -5.84268e+12 -5.70429e+12 -5.86409e+12 -5.68368e+12 -6.03075e+12 -5.91689e+12 -5.86107e+12 -5.55279e+12 -5.26562e+12 -4.85852e+12 -4.31852e+12 -4.66875e+12 -4.56639e+12 -4.60321e+12 -4.38574e+12 -3.98524e+12 -3.66724e+12 -3.45845e+12 -3.35621e+12 -3.33791e+12 -3.35267e+12 -3.37894e+12 -3.43875e+12 -3.50962e+12 -3.7279e+12 -4.04094e+12 -4.09475e+12 -4.14676e+12 -4.33373e+12 -4.63391e+12 -4.61552e+12 -4.97139e+12 -5.84218e+12 -6.3697e+12 -4.15787e+12 -5.71444e+12 -6.08407e+12 -5.66515e+12 -5.81603e+12 -6.02556e+12 -6.02154e+12 -6.14378e+12 -6.26376e+12 -6.20436e+12 -3.56053e+12 -3.41573e+12 -3.41785e+12 -6.12766e+12 -6.0096e+12 -5.93956e+12 -5.82854e+12 -5.57466e+12 -4.89083e+12 -5.93542e+12 -6.81499e+12 -5.32278e+12 -6.68774e+12 -6.15547e+12 -5.65874e+12 -5.20639e+12 -3.92381e+12 -3.34499e+12 -4.29781e+12 -4.32426e+12 -4.14681e+12 -3.90331e+12 -3.78438e+12 -3.53382e+12 -3.39007e+12 -3.3433e+12 -3.38603e+12 -3.51547e+12 -3.61374e+12 -3.73502e+12 -3.8859e+12 -4.06011e+12 -4.2408e+12 -4.42077e+12 -3.86361e+12 -3.1014e+12 -4.26678e+12 -4.41475e+12 -4.73861e+12 -4.84457e+12 -5.28478e+12 -5.73022e+12 -5.47383e+12 -5.05381e+12 -6.17029e+12 -6.89769e+12 -6.06974e+12 -5.77667e+12 -5.51925e+12 -5.88178e+12 -5.92389e+12 -6.08617e+12 -6.15378e+12 -3.53415e+12 -3.53083e+12 -3.40679e+12 -6.10393e+12 -5.99281e+12 -5.89995e+12 -5.82603e+12 -5.76179e+12 -5.62899e+12 -6.17725e+12 -5.93697e+12 -5.8674e+12 -5.84302e+12 -5.30645e+12 -4.99849e+12 -4.56335e+12 -5.25472e+12 -5.96285e+12 -5.01581e+12 -4.38103e+12 -4.03195e+12 -3.69682e+12 -3.61513e+12 -3.48466e+12 -3.43481e+12 -3.34898e+12 -3.35117e+12 -3.43611e+12 -3.60659e+12 -3.87041e+12 -4.2355e+12 -4.69608e+12 -5.53452e+12 -3.57317e+12 -4.56395e+12 -4.65873e+12 -5.06559e+12 -5.10205e+12 -5.051e+12 -5.16823e+12 -5.88939e+12 -6.17663e+12 -5.6395e+12 -5.31091e+12 -5.70097e+12 -5.96167e+12 -6.05786e+12 -6.00678e+12 -6.12579e+12 -3.52357e+12 -3.42413e+12 -6.01749e+12 -5.94235e+12 -5.82498e+12 -5.88489e+12 -5.7506e+12 -5.67501e+12 -6.04192e+12 -6.55338e+12 -6.09327e+12 -6.00263e+12 -5.9781e+12 -5.28557e+12 -4.36842e+12 -4.76215e+12 -4.6821e+12 -4.80343e+12 -5.36132e+12 -4.4882e+12 -4.13509e+12 -3.76987e+12 -3.53431e+12 -3.39098e+12 -3.36655e+12 -3.32433e+12 -3.33159e+12 -3.33287e+12 -3.37618e+12 -3.4155e+12 -3.50079e+12 -3.7089e+12 -4.01423e+12 -4.19148e+12 -4.47944e+12 -4.95278e+12 -5.09637e+12 -4.52616e+12 -4.2475e+12 -4.50734e+12 -4.61877e+12 -4.5999e+12 -4.21027e+12 -3.81375e+12 -4.73682e+12 -5.14661e+12 -5.19859e+12 -3.99645e+12 -5.70496e+12 -5.82803e+12 -5.86776e+12 -5.94282e+12 -5.97882e+12 -6.11892e+12 -6.09275e+12 -3.48497e+12 -3.47443e+12 -5.85207e+12 -5.92554e+12 -5.83826e+12 -5.78706e+12 -5.71069e+12 -5.51019e+12 -5.63776e+12 -5.59754e+12 -6.10032e+12 -5.60901e+12 -5.4831e+12 -4.9739e+12 -3.95813e+12 -4.30809e+12 -4.36783e+12 -4.73091e+12 -4.99503e+12 -4.80518e+12 -4.70529e+12 -4.05658e+12 -3.84823e+12 -3.57968e+12 -3.57694e+12 -3.41613e+12 -3.32583e+12 -3.30265e+12 -3.34858e+12 -3.46601e+12 -3.57611e+12 -3.65972e+12 -3.82072e+12 -3.95184e+12 -4.45206e+12 -5.08226e+12 -4.71019e+12 -4.54351e+12 -4.61032e+12 -4.63865e+12 -4.37164e+12 -4.56573e+12 -5.0963e+12 -5.93203e+12 -5.42304e+12 -6.24847e+12 -5.51069e+12 -5.5476e+12 -5.70719e+12 -5.8802e+12 -5.88009e+12 -5.82627e+12 -5.96761e+12 -5.99711e+12 -3.44855e+12 -3.42522e+12 -3.6236e+12 -3.54838e+12 -5.78569e+12 -5.74289e+12 -5.68189e+12 -5.66822e+12 -5.63449e+12 -5.51577e+12 -5.48425e+12 -5.6145e+12 -5.37866e+12 -5.66477e+12 -4.67766e+12 -3.82883e+12 -4.54495e+12 -4.69069e+12 -4.36714e+12 -4.25715e+12 -3.66404e+12 -3.43882e+12 -3.43511e+12 -3.33523e+12 -3.33151e+12 -3.28231e+12 -3.29623e+12 -3.3753e+12 -3.52458e+12 -3.75493e+12 -4.11286e+12 -4.2187e+12 -4.60474e+12 -4.55294e+12 -4.47992e+12 -4.54018e+12 -4.59429e+12 -3.42467e+12 -4.15079e+12 -5.13282e+12 -5.29785e+12 -5.38084e+12 -5.17543e+12 -4.32979e+12 -5.582e+12 -5.64387e+12 -5.83481e+12 -5.83694e+12 -5.7605e+12 -5.81112e+12 -5.95068e+12 -5.88786e+12 -3.42344e+12 -3.7717e+12 -5.71114e+12 -5.58456e+12 -5.66418e+12 -5.57875e+12 -5.55593e+12 -5.42968e+12 -5.38957e+12 -5.21983e+12 -5.095e+12 -5.04385e+12 -4.89232e+12 -5.15542e+12 -5.03819e+12 -5.01205e+12 -4.3724e+12 -2.83185e+12 -4.57424e+12 -4.48267e+12 -4.43566e+12 -3.95765e+12 -3.81475e+12 -3.33594e+12 -3.33449e+12 -3.32854e+12 -3.25849e+12 -3.26854e+12 -3.22107e+12 -3.25477e+12 -3.23899e+12 -3.30095e+12 -3.31284e+12 -3.40981e+12 -3.44958e+12 -3.59065e+12 -3.66072e+12 -3.86076e+12 -3.93119e+12 -4.22705e+12 -4.3592e+12 -4.28686e+12 -4.72835e+12 -5.07797e+12 -2.87304e+12 -4.14941e+12 -5.39967e+12 -5.19833e+12 -5.03101e+12 -4.87583e+12 -5.31494e+12 -5.77705e+12 -5.4156e+12 -5.7653e+12 -5.77513e+12 -5.63963e+12 -5.66419e+12 -5.85128e+12 -5.83366e+12 -5.70868e+12 -5.77846e+12 -5.65463e+12 -3.41379e+12 -3.59782e+12 -3.65591e+12 -5.59875e+12 -5.48115e+12 -5.49836e+12 -5.45657e+12 -5.47576e+12 -5.5746e+12 -5.09582e+12 -4.82473e+12 -4.96301e+12 -3.82798e+12 -4.21804e+12 -4.79978e+12 -4.76014e+12 -4.8378e+12 -4.99346e+12 -4.09069e+12 -4.21851e+12 -4.07047e+12 -3.63329e+12 -3.46766e+12 -2.91464e+12 -3.31282e+12 -3.24747e+12 -3.19236e+12 -3.18484e+12 -3.23143e+12 -3.32769e+12 -3.49233e+12 -3.70971e+12 -3.93758e+12 -3.87471e+12 -4.12889e+12 -3.9774e+12 -4.43299e+12 -4.80409e+12 -5.17327e+12 -4.65003e+12 -4.95614e+12 -4.98953e+12 -5.05429e+12 -5.15978e+12 -6.31448e+12 -5.50373e+12 -4.62176e+12 -5.62167e+12 -5.92515e+12 -5.5309e+12 -5.5244e+12 -5.65082e+12 -5.82893e+12 -5.70981e+12 -5.56373e+12 -5.52766e+12 -3.39051e+12 -3.32277e+12 -3.41855e+12 -5.78961e+12 -5.80648e+12 -5.43783e+12 -5.42342e+12 -5.45788e+12 -5.54541e+12 -5.59736e+12 -5.00844e+12 -5.99052e+12 -5.17214e+12 -2.90406e+12 -4.48021e+12 -4.62835e+12 -4.81908e+12 -4.78842e+12 -4.79731e+12 -5.11001e+12 -4.3645e+12 -4.27065e+12 -3.92647e+12 -2.9544e+12 -2.74681e+12 -3.23646e+12 -3.22898e+12 -3.17632e+12 -3.17382e+12 -3.07522e+12 -3.13305e+12 -3.16095e+12 -3.2252e+12 -3.34221e+12 -3.52774e+12 -3.54561e+12 -3.70829e+12 -3.64115e+12 -3.70394e+12 -3.92236e+12 -4.00241e+12 -3.72109e+12 -3.55242e+12 -3.49328e+12 -4.27227e+12 -4.58049e+12 -4.63961e+12 -4.64117e+12 -4.88077e+12 -5.38956e+12 -5.29898e+12 -5.835e+12 -6.75051e+12 -6.04911e+12 -5.4236e+12 -5.42626e+12 -5.6495e+12 -5.53302e+12 -5.50911e+12 -5.38796e+12 -5.4361e+12 -5.35455e+12 -3.21152e+12 -3.26983e+12 -3.36903e+12 -5.77147e+12 -5.59785e+12 -4.8267e+12 -5.2975e+12 -5.20477e+12 -5.28063e+12 -5.38468e+12 -5.79631e+12 -6.32775e+12 -4.37146e+12 -3.53833e+12 -4.27943e+12 -4.0936e+12 -4.40304e+12 -4.57694e+12 -4.61901e+12 -4.5568e+12 -4.42678e+12 -5.54977e+12 -4.56212e+12 -4.28541e+12 -3.89014e+12 -3.47867e+12 -1.32399e+12 -2.05414e+12 -3.24908e+12 -3.01085e+12 -3.02643e+12 -3.0953e+12 -3.06426e+12 -3.1391e+12 -3.10936e+12 -3.21507e+12 -3.19849e+12 -3.35189e+12 -3.35424e+12 -3.53443e+12 -3.45227e+12 -2.86078e+12 -3.52363e+12 -3.595e+12 -3.97932e+12 -3.34151e+12 -4.87952e+12 -4.34173e+12 -4.39653e+12 -4.42227e+12 -4.35281e+12 -4.22806e+12 -2.92739e+12 -5.32263e+12 -3.91663e+12 -5.4192e+12 -4.26086e+12 -6.20941e+12 -5.72806e+12 -5.45462e+12 -5.1522e+12 -5.27167e+12 -5.05974e+12 -5.17349e+12 -4.98809e+12 -3.0746e+12 -3.12282e+12 -5.52645e+12 -5.5745e+12 -5.94711e+12 -6.17634e+12 -4.79543e+12 -4.96063e+12 -5.06282e+12 -5.50286e+12 -5.79859e+12 -5.36237e+12 -4.93305e+12 -4.77395e+12 -4.35447e+12 -3.85854e+12 -4.27987e+12 -4.48637e+12 -4.67219e+12 -4.89853e+12 -5.32176e+12 -6.3657e+12 -4.24657e+12 -4.79047e+12 -3.87034e+12 -3.4033e+12 -2.78197e+12 -3.97388e+12 -2.61878e+12 -2.90802e+12 -2.93003e+12 -2.99741e+12 -3.0202e+12 -3.07225e+12 -3.17491e+12 -3.34885e+12 -3.29781e+12 -3.52834e+12 -3.55373e+12 -2.51278e+12 -2.76207e+12 -4.69964e+12 -5.09509e+12 -4.53308e+12 -4.57555e+12 -4.35888e+12 -4.32933e+12 -4.32417e+12 -4.3259e+12 -4.05553e+12 -4.29761e+12 -5.36376e+12 -5.75965e+12 -5.37385e+12 -5.71156e+12 -5.34911e+12 -5.16492e+12 -4.69044e+12 -4.93894e+12 -4.88112e+12 -4.83001e+12 -2.95489e+12 -2.83069e+12 -2.95633e+12 -5.17684e+12 -5.17687e+12 -5.61021e+12 -4.94883e+12 -3.49328e+12 -4.4974e+12 -4.68482e+12 -5.14505e+12 -5.11854e+12 -5.00033e+12 -4.88072e+12 -4.41079e+12 -4.40342e+12 -4.03594e+12 -4.2812e+12 -4.49111e+12 -4.72198e+12 -5.03204e+12 -5.43346e+12 -5.13314e+12 -4.41369e+12 -4.31144e+12 -3.02189e+12 -2.39083e+12 -1.97018e+12 -3.38106e+12 -2.34711e+12 -2.78415e+12 -2.88688e+12 -2.94337e+12 -2.86351e+12 -2.93944e+12 -2.87795e+12 -2.96736e+12 -2.9051e+12 -3.02498e+12 -2.97013e+12 -3.1489e+12 -3.1259e+12 -3.2932e+12 -4.11457e+12 -4.60415e+12 -3.84771e+12 -4.54731e+12 -4.63187e+12 -4.61884e+12 -4.31165e+12 -4.22538e+12 -4.19838e+12 -4.1904e+12 -4.8165e+12 -4.65928e+12 -4.96478e+12 -5.20188e+12 -4.70801e+12 -5.02924e+12 -4.71861e+12 -3.15141e+12 -4.18291e+12 -4.64317e+12 -4.7599e+12 -4.77872e+12 -4.5865e+12 -4.61794e+12 -2.7134e+12 -2.63936e+12 -2.77892e+12 -4.39487e+12 -4.79353e+12 -4.78684e+12 -5.1233e+12 -4.81652e+12 -4.75199e+12 -4.24687e+12 -4.40372e+12 -4.76898e+12 -4.77538e+12 -4.39654e+12 -4.34793e+12 -4.21151e+12 -4.07482e+12 -3.98036e+12 -4.09837e+12 -4.01938e+12 -4.22086e+12 -4.41914e+12 -4.63724e+12 -4.8152e+12 -4.61938e+12 -4.53255e+12 -4.10775e+12 -3.8528e+12 -3.46026e+12 -2.66617e+12 -2.2161e+12 -1.99444e+12 -1.93545e+12 -2.96089e+12 -2.80323e+12 -2.79177e+12 -2.80282e+12 -2.82869e+12 -2.92255e+12 -2.96323e+12 -3.52319e+12 -3.91975e+12 -4.49273e+12 -3.86751e+12 -4.04352e+12 -4.24379e+12 -4.37428e+12 -4.34267e+12 -4.09104e+12 -4.10033e+12 -4.25749e+12 -4.27702e+12 -4.68162e+12 -4.61396e+12 -4.72946e+12 -4.81754e+12 -5.05929e+12 -5.05125e+12 -4.00375e+12 -5.6445e+12 -4.6605e+12 -4.57463e+12 -4.62718e+12 -4.58869e+12 -4.35764e+12 -4.37582e+12 -2.6265e+12 -2.47853e+12 -2.43751e+12 -3.99005e+12 -4.40509e+12 -4.38225e+12 -4.72238e+12 -4.54901e+12 -4.46517e+12 -4.41491e+12 -4.03317e+12 -4.39688e+12 -4.46151e+12 -4.38465e+12 -3.34384e+12 -3.73644e+12 -3.77944e+12 -3.75137e+12 -3.89417e+12 -3.95281e+12 -4.02572e+12 -4.2699e+12 -4.3726e+12 -4.26035e+12 -4.16401e+12 -4.03364e+12 -3.7435e+12 -3.46664e+12 -3.11081e+12 -2.55668e+12 -2.43269e+12 -3.06989e+12 -3.9751e+12 -3.60948e+12 -2.65229e+12 -2.70608e+12 -2.71661e+12 -2.72081e+12 -2.74337e+12 -2.91331e+12 -2.45094e+12 -2.97333e+12 -3.15539e+12 -3.99223e+12 -3.69037e+12 -3.5151e+12 -3.72249e+12 -3.97032e+12 -4.08011e+12 -4.09625e+12 -4.05991e+12 -4.04453e+12 -4.01306e+12 -4.09278e+12 -4.15535e+12 -4.27026e+12 -4.44123e+12 -4.45605e+12 -4.52534e+12 -4.74919e+12 -4.72029e+12 -4.53879e+12 -4.624e+12 -4.20514e+12 -4.44306e+12 -4.39557e+12 -4.36014e+12 -4.09821e+12 -4.12719e+12 -4.01926e+12 -2.293e+12 -2.22406e+12 -3.83677e+12 -3.97535e+12 -3.95508e+12 -4.35775e+12 -4.42992e+12 -4.66888e+12 -3.90767e+12 -4.12688e+12 -4.38632e+12 -4.75779e+12 -3.01493e+12 -3.39894e+12 -3.49266e+12 -3.7463e+12 -3.75832e+12 -3.84251e+12 -3.94665e+12 -4.10722e+12 -3.88532e+12 -3.79561e+12 -3.66353e+12 -3.43852e+12 -3.18221e+12 -2.86437e+12 -1.5876e+12 -2.3308e+12 -2.94803e+12 -2.83911e+12 -2.32464e+12 -2.6653e+12 -2.49882e+12 -2.62519e+12 -2.58012e+12 -2.62185e+12 -2.49305e+12 -2.61072e+12 -2.5046e+12 -2.69615e+12 -2.81741e+12 -2.4457e+12 -3.23254e+12 -2.71171e+12 -2.51689e+12 -2.68378e+12 -3.34851e+12 -3.70462e+12 -3.84002e+12 -3.89376e+12 -3.88684e+12 -3.87582e+12 -3.91748e+12 -3.97392e+12 -4.06061e+12 -4.13914e+12 -4.23981e+12 -4.29782e+12 -4.43177e+12 -4.53316e+12 -4.6195e+12 -4.70506e+12 -5.03759e+12 -5.34441e+12 -4.63838e+12 -4.26931e+12 -4.12846e+12 -3.73912e+12 -3.76448e+12 -3.80983e+12 -2.12281e+12 -1.86773e+12 -2.12356e+12 -3.40784e+12 -3.59129e+12 -3.50071e+12 -3.43293e+12 -3.36e+12 -4.0123e+12 -4.14009e+12 -4.37027e+12 -5.23542e+12 -2.69181e+12 -3.52439e+12 -3.97102e+12 -4.3778e+12 -4.54975e+12 -2.80375e+12 -3.53785e+12 -3.57737e+12 -3.61078e+12 -3.70315e+12 -3.82109e+12 -3.95034e+12 -4.02272e+12 -3.96698e+12 -3.51916e+12 -3.3925e+12 -3.1896e+12 -2.92513e+12 -2.518e+12 -2.18816e+12 -3.57186e+12 -2.64512e+12 -2.45312e+12 -2.53622e+12 -2.41751e+12 -2.28117e+12 -2.57276e+12 -1.41014e+12 -2.79828e+12 -3.32972e+12 -4.2367e+12 -4.69338e+12 -4.50588e+12 -3.84292e+12 -3.88293e+12 -3.71271e+12 -3.71116e+12 -3.73421e+12 -3.77569e+12 -3.83743e+12 -3.89965e+12 -3.96346e+12 -4.05148e+12 -4.14183e+12 -4.2001e+12 -4.27828e+12 -4.37212e+12 -4.57252e+12 -4.88678e+12 -2.9286e+12 -4.7016e+12 -4.17092e+12 -3.84308e+12 -3.71397e+12 -3.75012e+12 -3.6237e+12 -3.56168e+12 -3.25219e+12 -1.95979e+12 -1.59616e+12 -3.38107e+12 -3.48125e+12 -3.9131e+12 -2.17987e+12 -3.48738e+12 -3.66337e+12 -3.84515e+12 -4.7143e+12 -4.65976e+12 -2.80678e+12 -3.58235e+12 -3.90752e+12 -4.13056e+12 -4.15699e+12 -3.14806e+12 -3.39383e+12 -3.45567e+12 -3.55656e+12 -3.65606e+12 -3.7231e+12 -3.70629e+12 -3.65539e+12 -3.59512e+12 -3.21587e+12 -3.07161e+12 -2.9393e+12 -3.03396e+12 -3.19257e+12 -3.76158e+12 -4.01112e+12 -848559000000.0 -2.50188e+12 -2.40678e+12 -2.30282e+12 -1.90233e+12 -3.56568e+12 -1.42302e+12 -2.65808e+12 -3.43411e+12 -4.0414e+12 -4.20589e+12 -3.68552e+12 -3.68685e+12 -3.7034e+12 -3.71053e+12 -3.52785e+12 -3.54043e+12 -3.56904e+12 -3.61493e+12 -3.6638e+12 -3.71678e+12 -3.78215e+12 -3.86412e+12 -3.90851e+12 -3.944e+12 -4.01869e+12 -4.10164e+12 -4.1594e+12 -3.92057e+12 -4.79284e+12 -3.87777e+12 -3.51185e+12 -3.17423e+12 -2.97968e+12 -3.67544e+12 -3.34882e+12 -2.85418e+12 -1.77468e+12 -1.59101e+12 -1.3639e+12 -3.04785e+12 -3.18655e+12 -2.88853e+12 -3.24535e+12 -2.71298e+12 -3.06502e+12 -3.30554e+12 -4.01157e+12 -4.01167e+12 -3.75337e+12 -3.36814e+12 -3.55071e+12 -3.65592e+12 -2.68658e+12 -3.28423e+12 -3.35824e+12 -3.3693e+12 -3.44711e+12 -3.47049e+12 -3.45823e+12 -3.42917e+12 -3.39027e+12 -3.32462e+12 -2.96528e+12 -2.90966e+12 -2.88745e+12 -2.91384e+12 -1.96423e+12 -4.2191e+12 -2.55909e+12 -3.2738e+12 -1.26451e+12 -2.16433e+12 -2.50123e+12 -2.32263e+12 -2.3413e+12 -1.9072e+12 -859604000000.0 -1.34982e+12 -3.13661e+12 -1.75948e+12 -2.27591e+12 -2.68872e+12 -3.27095e+12 -3.98638e+12 -3.68447e+12 -3.57008e+12 -3.53736e+12 -3.52883e+12 -3.5264e+12 -3.64212e+12 -3.6714e+12 -3.71618e+12 -3.77534e+12 -3.76732e+12 -3.62522e+12 -2.8414e+12 -4.01567e+12 -2.6841e+12 -1.8286e+12 -4.27114e+12 -3.02598e+12 -2.86e+12 -2.46294e+12 -2.18178e+12 -1.41066e+12 -977526000000.0 -1.08019e+12 -2.62085e+12 -3.00707e+12 -3.74825e+12 -1.65907e+12 -3.78653e+12 -1.53097e+12 -2.37436e+12 -2.84846e+12 -3.3601e+12 -3.50756e+12 -3.49328e+12 -3.49807e+12 -3.28729e+12 -3.27234e+12 -3.72001e+12 -3.61041e+12 -3.00998e+12 -3.12478e+12 -3.17879e+12 -3.22383e+12 -3.27474e+12 -3.1626e+12 -3.23427e+12 -3.28716e+12 -3.2962e+12 -3.27995e+12 -3.24075e+12 -3.17252e+12 -3.07484e+12 -2.62686e+12 -2.21984e+12 -1.32486e+12 -3.84872e+12 -2.7894e+12 -2.98944e+12 -2.41586e+12 -2.04617e+12 -2.06574e+12 -1.91345e+12 -2.27865e+12 -2.29431e+12 -2.6504e+12 -3.5885e+12 -3.65952e+12 -3.57409e+12 -3.44477e+12 -3.37579e+12 -3.34448e+12 -3.33201e+12 -3.32994e+12 -3.33797e+12 -3.35829e+12 -3.39333e+12 -3.43572e+12 -3.47832e+12 -3.52895e+12 -3.58976e+12 -3.4863e+12 -3.51275e+12 -3.45305e+12 -3.29505e+12 -3.746e+12 -3.38057e+12 -3.16719e+12 -1.60035e+12 -3.90875e+12 -3.47538e+12 -2.21758e+12 -2.37064e+12 -2.00968e+12 -1.21636e+12 -1.01528e+12 -841547000000.0 -1.63905e+12 -1.9064e+12 -2.2068e+12 -2.88476e+12 -2.62614e+12 -3.20695e+12 -1.48245e+12 -2.39006e+12 -3.0393e+12 -3.18083e+12 -3.21144e+12 -3.23695e+12 -3.17987e+12 -3.23701e+12 -3.14991e+12 -2.93817e+12 -2.78798e+12 -2.92378e+12 -2.97305e+12 -2.99867e+12 -3.02089e+12 -3.04191e+12 -2.96296e+12 -3.14007e+12 -3.2031e+12 -3.20228e+12 -3.16732e+12 -3.10797e+12 -3.02555e+12 -2.92534e+12 -2.82815e+12 -2.73249e+12 -1.69942e+12 -3.08031e+12 -2.9394e+12 -2.5955e+12 -3.00951e+12 -2.47974e+12 -2.33447e+12 -2.11808e+12 -2.82649e+12 -2.3977e+12 -2.46521e+12 -2.83655e+12 -3.07336e+12 -3.23761e+12 -3.29231e+12 -3.26417e+12 -3.2037e+12 -3.15911e+12 -3.13433e+12 -3.12266e+12 -3.12394e+12 -3.13705e+12 -3.16519e+12 -3.20249e+12 -3.2439e+12 -3.28518e+12 -3.32946e+12 -3.37549e+12 -3.40923e+12 -3.4372e+12 -3.21538e+12 -3.16417e+12 -3.37035e+12 -3.38677e+12 -2.85251e+12 -2.5293e+12 -2.9052e+12 -2.88516e+12 -2.24549e+12 -1.71809e+12 -1.99848e+12 -1.81289e+12 -1.83405e+12 -836151000000.0 -438322000000.0 -678626000000.0 -1.34215e+12 -1.01912e+12 -1.09497e+12 -3.44161e+12 -1.0861e+12 -2.36485e+12 -2.38569e+12 -2.83147e+12 -2.84326e+12 -2.96587e+12 -2.98225e+12 -3.00656e+12 -2.86511e+12 -2.67034e+12 -2.22991e+12 -2.87169e+12 -2.78977e+12 -2.78637e+12 -2.78279e+12 -2.77694e+12 -2.76373e+12 -2.74689e+12 -3.05199e+12 -3.17501e+12 -3.16904e+12 -3.12095e+12 -3.05062e+12 -2.96485e+12 -2.86624e+12 -2.76139e+12 -2.65134e+12 -2.52785e+12 -2.30081e+12 -1.99594e+12 -2.59456e+12 -2.4702e+12 -2.51318e+12 -1.6736e+12 -2.68218e+12 -889281000000.0 -2.61075e+12 -1.41694e+12 -2.2767e+12 -2.47079e+12 -2.58702e+12 -2.63361e+12 -2.69605e+12 -2.86131e+12 -2.96479e+12 -3.00994e+12 -3.00401e+12 -2.97106e+12 -2.93359e+12 -2.91159e+12 -2.90076e+12 -2.90406e+12 -2.92433e+12 -2.95861e+12 -2.99946e+12 -3.04079e+12 -3.08043e+12 -3.11909e+12 -3.15241e+12 -3.17603e+12 -3.19353e+12 -3.22356e+12 -2.94267e+12 -3.03001e+12 -3.04971e+12 -2.9763e+12 -2.44629e+12 -2.0324e+12 -2.41025e+12 -2.09632e+12 -1.00365e+12 -1.5242e+12 -1.41631e+12 -1.73526e+12 -1.61513e+12 -1.62353e+12 -655581000000.0 -241455000000.0 -722506000000.0 -1.80777e+12 -249883000000.0 -1.37901e+12 -2.49923e+12 -2.7966e+12 -1.87575e+12 -2.05348e+12 -2.13483e+12 -2.42266e+12 -2.52976e+12 -2.64659e+12 -2.77835e+12 -2.94767e+12 -2.84168e+12 -2.64162e+12 -2.38128e+12 -1.83809e+12 -3.15309e+12 -2.86547e+12 -2.6565e+12 -2.57925e+12 -2.54055e+12 -2.50254e+12 -2.45251e+12 -2.24185e+12 -2.90895e+12 -2.80378e+12 -2.69697e+12 -2.58839e+12 -2.47323e+12 -2.32395e+12 -2.16524e+12 -2.07933e+12 -2.13405e+12 -2.3813e+12 -2.39095e+12 -2.17908e+12 -2.39422e+12 -2.4157e+12 -2.31088e+12 -2.22401e+12 -2.20681e+12 -2.46383e+12 -2.57766e+12 -2.61773e+12 -2.31071e+12 -2.53809e+12 -2.65895e+12 -2.73683e+12 -2.74068e+12 -2.78681e+12 -2.83267e+12 -2.8783e+12 -2.9105e+12 -2.93255e+12 -2.94122e+12 -2.9274e+12 -2.94431e+12 -2.73834e+12 -2.70085e+12 -2.60582e+12 -2.16558e+12 -2.39094e+12 -2.08719e+12 -1.41452e+12 -1.11885e+12 -1.2977e+12 -1.65715e+12 -1.37723e+12 -1.35513e+12 -487363000000.0 -299579000000.0 -67997200000.0 -428250000000.0 -576873000000.0 -1.60601e+12 -510531000000.0 -1.80315e+12 -1.90717e+12 -2.07697e+12 -2.21299e+12 -2.17406e+12 -2.27207e+12 -2.32749e+12 -2.73455e+12 -2.66521e+12 -2.51958e+12 -2.25762e+12 -1.65375e+12 -3.21935e+12 -3.2113e+12 -3.19734e+12 -3.11045e+12 -3.01154e+12 -2.52498e+12 -2.42193e+12 -2.31085e+12 -2.20383e+12 -2.13878e+12 -2.14505e+12 -2.17172e+12 -2.22647e+12 -2.29139e+12 -2.273e+12 -2.38829e+12 -2.50249e+12 -2.57492e+12 -2.63823e+12 -2.0291e+12 -2.25589e+12 -2.39202e+12 -2.77401e+12 -2.77402e+12 -2.74653e+12 -2.69478e+12 -2.67147e+12 -2.65962e+12 -2.66991e+12 -2.69886e+12 -2.64285e+12 -2.68614e+12 -2.71277e+12 -2.72437e+12 -2.71202e+12 -2.62315e+12 -2.65313e+12 -2.71436e+12 -2.38147e+12 -2.29383e+12 -2.09932e+12 -2.10713e+12 -1.51441e+12 -1.22484e+12 -870439000000.0 -1.82581e+12 -1.47402e+12 -1.07649e+12 -974345000000.0 -91248700000.0 -151065000000.0 -106379000000.0 -110960000000.0 -556678000000.0 -727620000000.0 -1.06728e+12 -1.04306e+12 -1.81516e+12 -1.97013e+12 -2.06562e+12 -2.07568e+12 -2.12934e+12 -2.4742e+12 -2.53041e+12 -2.50699e+12 -2.43399e+12 -2.26541e+12 -1.7732e+12 -2.88345e+12 -2.57681e+12 -2.38939e+12 -2.30455e+12 -2.2528e+12 -2.24131e+12 -2.12344e+12 -1.83878e+12 -3.22115e+12 -3.13202e+12 -2.99142e+12 -2.86115e+12 -2.74183e+12 -2.63057e+12 -2.19057e+12 -2.13285e+12 -2.11401e+12 -2.11372e+12 -2.13964e+12 -2.27595e+12 -2.39102e+12 -2.22833e+12 -2.32449e+12 -2.34755e+12 -2.46911e+12 -2.58402e+12 -2.64493e+12 -1.81668e+12 -2.48228e+12 -2.54132e+12 -2.56955e+12 -2.56609e+12 -2.52856e+12 -2.42248e+12 -2.39636e+12 -2.39866e+12 -2.42175e+12 -2.45897e+12 -2.51248e+12 -2.57069e+12 -2.51032e+12 -2.53494e+12 -2.5398e+12 -2.50732e+12 -2.221e+12 -2.37711e+12 -2.43276e+12 -2.42914e+12 -2.09651e+12 -2.03377e+12 -1.81007e+12 -1.75844e+12 -1.7403e+12 -1.95224e+12 -1.62593e+12 -1.40214e+12 -1.14959e+12 -533858000000.0 -618487000000.0 -173564000000.0 -980178000000.0 -737392000000.0 -450945000000.0 -1.5411e+12 -1.75455e+12 -1.75995e+12 -1.86026e+12 -1.92888e+12 -2.13964e+12 -2.30662e+12 -2.35726e+12 -2.35785e+12 -2.29605e+12 -3.04083e+12 -2.74578e+12 -2.42119e+12 -2.1896e+12 -2.03069e+12 -1.9522e+12 -2.06732e+12 -2.01553e+12 -1.88915e+12 -1.64766e+12 -3.12652e+12 -2.98582e+12 -2.81876e+12 -2.67841e+12 -2.55921e+12 -2.4549e+12 -2.36115e+12 -2.27221e+12 -2.16956e+12 -2.20436e+12 -2.21456e+12 -2.25865e+12 -2.27177e+12 -2.28468e+12 -2.36212e+12 -2.44046e+12 -2.56249e+12 -2.63903e+12 -2.02963e+12 -2.15785e+12 -2.25449e+12 -2.3235e+12 -2.36912e+12 -2.38981e+12 -2.38003e+12 -2.32249e+12 -2.03849e+12 -2.09159e+12 -2.12361e+12 -2.15533e+12 -2.19679e+12 -2.27307e+12 -2.40511e+12 -2.47013e+12 -2.41476e+12 -2.4853e+12 -1.99822e+12 -2.14938e+12 -2.17621e+12 -2.15078e+12 -1.82013e+12 -1.51784e+12 -1.55221e+12 -946186000000.0 -2.40103e+12 -578906000000.0 -789638000000.0 -108278000000.0 -266995000000.0 -642262000000.0 -1.5704e+12 -1.63222e+12 -1.676e+12 -1.97024e+12 -2.02608e+12 -2.09555e+12 -2.2066e+12 -2.27123e+12 -2.29342e+12 -1.99274e+12 -2.67619e+12 -2.34625e+12 -2.1268e+12 -1.9157e+12 -1.7306e+12 -1.49981e+12 -1.95119e+12 -1.93039e+12 -1.84992e+12 -1.73814e+12 -1.52202e+12 -2.93208e+12 -2.77206e+12 -2.60775e+12 -2.47741e+12 -2.37295e+12 -2.28691e+12 -2.21267e+12 -2.14801e+12 -2.09688e+12 -2.0677e+12 -2.05444e+12 -2.05879e+12 -2.07417e+12 -2.11028e+12 -2.13408e+12 -2.16841e+12 -2.1994e+12 -2.24968e+12 -2.31077e+12 -2.40763e+12 -1.63934e+12 -1.84187e+12 -1.95586e+12 -2.04971e+12 -2.12342e+12 -2.17895e+12 -2.21826e+12 -2.24174e+12 -2.2503e+12 -2.258e+12 -1.68849e+12 -1.81074e+12 -1.84187e+12 -1.85546e+12 -1.85338e+12 -2.16573e+12 -2.25892e+12 -2.31483e+12 -2.35339e+12 -2.38409e+12 -2.35925e+12 -1.84419e+12 -1.95301e+12 -1.94825e+12 -1.89823e+12 -1.8419e+12 -1.34813e+12 -1.35192e+12 -999569000000.0 -1.69865e+12 -660132000000.0 -240098000000.0 -740483000000.0 -549727000000.0 -512609000000.0 -1.37031e+12 -1.74703e+12 -1.81581e+12 -1.88134e+12 -1.96531e+12 -2.05656e+12 -2.16035e+12 -2.14567e+12 -2.22657e+12 -2.33037e+12 -1.61577e+12 -1.58559e+12 -1.41146e+12 -1.27294e+12 -2.08868e+12 -1.9295e+12 -1.82485e+12 -1.72649e+12 -1.6223e+12 -1.44109e+12 -2.66554e+12 -2.5169e+12 -2.37862e+12 -2.2731e+12 -2.19553e+12 -2.13409e+12 -2.08317e+12 -2.04161e+12 -2.01117e+12 -1.99177e+12 -1.98411e+12 -1.98845e+12 -2.00898e+12 -2.03735e+12 -2.07096e+12 -2.10936e+12 -2.16348e+12 -2.23763e+12 -2.52345e+12 -2.60596e+12 -1.48354e+12 -1.67624e+12 -1.77757e+12 -1.86529e+12 -1.93842e+12 -1.99802e+12 -2.0461e+12 -1.48397e+12 -2.06273e+12 -2.08832e+12 -2.13316e+12 -2.17179e+12 -2.20579e+12 -2.23953e+12 -2.29241e+12 -1.72186e+12 -1.78591e+12 -1.73225e+12 -1.65971e+12 -1.58533e+12 -1.49079e+12 -1.26135e+12 -1.0221e+12 -721968000000.0 -593758000000.0 -457020000000.0 -355364000000.0 -185941000000.0 -557838000000.0 -353481000000.0 -221883000000.0 -1.50007e+12 -1.56333e+12 -1.64081e+12 -1.72271e+12 -1.81238e+12 -1.91361e+12 -2.24419e+12 -2.20336e+12 -1.82032e+12 -2.06758e+12 -2.14238e+12 -1.18606e+12 -1.19872e+12 -2.03574e+12 -2.00047e+12 -1.97067e+12 -1.94581e+12 -1.92541e+12 -1.90971e+12 -1.90382e+12 -1.9117e+12 -1.9317e+12 -1.96249e+12 -2.33217e+12 -2.45611e+12 -2.53808e+12 -1.34983e+12 -1.52693e+12 -1.61572e+12 -1.69679e+12 -2.08538e+12 -2.12157e+12 -2.17175e+12 -2.24707e+12 -1.49501e+12 -1.56053e+12 -1.54491e+12 -1.94706e+12 -1.96504e+12 -1.99715e+12 -2.0267e+12 -2.05292e+12 -2.07795e+12 -2.1043e+12 -2.12658e+12 -1.61643e+12 -1.50474e+12 -1.3826e+12 -1.23664e+12 -1.02034e+12 -1.1598e+12 -593776000000.0 -390995000000.0 -1.01218e+12 -175282000000.0 -144219000000.0 -133181000000.0 -166316000000.0 -218317000000.0 -1.32846e+12 -1.38426e+12 -1.45956e+12 -1.55163e+12 -1.64899e+12 -2.02288e+12 -2.14361e+12 -2.1803e+12 -1.48517e+12 -1.7517e+12 -1.83102e+12 -1.15842e+12 -2.07928e+12 -1.93314e+12 -1.79756e+12 -1.699e+12 -1.61161e+12 -1.52584e+12 -1.38859e+12 -2.36109e+12 -2.24714e+12 -2.14885e+12 -2.08113e+12 -1.8357e+12 -1.8189e+12 -2.00188e+12 -2.05561e+12 -2.12938e+12 -2.22632e+12 -2.34867e+12 -2.43445e+12 -1.22879e+12 -1.39062e+12 -1.76694e+12 -1.82628e+12 -1.87679e+12 -1.92047e+12 -1.96078e+12 -2.00634e+12 -2.06727e+12 -2.1013e+12 -1.37009e+12 -1.2751e+12 -1.14923e+12 -1.94605e+12 -1.85542e+12 -1.87618e+12 -1.88756e+12 -1.88881e+12 -1.81988e+12 -1.83735e+12 -1.63636e+12 -1.26138e+12 -1.0595e+12 -832936000000.0 -508146000000.0 -834013000000.0 -315593000000.0 -629441000000.0 -261182000000.0 -1.14545e+12 -1.25448e+12 -1.75325e+12 -1.8686e+12 -1.9968e+12 -2.07852e+12 -1.22631e+12 -1.48276e+12 -1.5644e+12 -1.82707e+12 -705160000000.0 -1.02798e+12 -1.90482e+12 -1.84821e+12 -1.74134e+12 -1.64905e+12 -1.57389e+12 -1.50793e+12 -1.44651e+12 -1.35662e+12 -2.04673e+12 -1.98067e+12 -1.94389e+12 -1.90838e+12 -1.89788e+12 -1.88703e+12 -1.8735e+12 -1.85797e+12 -1.81524e+12 -1.82455e+12 -1.84646e+12 -1.88112e+12 -1.93033e+12 -1.99846e+12 -2.08953e+12 -2.20624e+12 -2.29359e+12 -1.46754e+12 -1.54074e+12 -1.60693e+12 -1.66444e+12 -1.71404e+12 -1.7578e+12 -1.79718e+12 -1.83491e+12 -1.87233e+12 -1.89951e+12 -1.84771e+12 -1.29057e+12 -722899000000.0 -1.7348e+12 -1.77493e+12 -1.79531e+12 -1.82669e+12 -1.72461e+12 -1.72544e+12 -1.7163e+12 -1.56895e+12 -1.53224e+12 -1.52362e+12 -1.42723e+12 -428986000000.0 -272170000000.0 -491241000000.0 -119811000000.0 -226662000000.0 -215265000000.0 -1.01107e+12 -1.36805e+12 -1.47903e+12 -1.58989e+12 -1.69666e+12 -1.81945e+12 -1.91223e+12 -1.03457e+12 -1.26297e+12 -1.57196e+12 -1.4613e+12 -860869000000.0 -1.54208e+12 -1.65963e+12 -1.62629e+12 -1.5698e+12 -1.51143e+12 -1.46206e+12 -1.42084e+12 -1.38704e+12 -1.34759e+12 -1.71672e+12 -1.76933e+12 -1.77326e+12 -1.74855e+12 -1.7867e+12 -1.7974e+12 -1.79686e+12 -1.76565e+12 -1.73488e+12 -1.7193e+12 -1.71655e+12 -1.72744e+12 -1.75226e+12 -1.79242e+12 -1.85061e+12 -1.9303e+12 -2.03362e+12 -2.11811e+12 -1.11576e+12 -1.26132e+12 -1.33105e+12 -1.39663e+12 -1.45741e+12 -1.51189e+12 -1.55954e+12 -1.60175e+12 -1.63963e+12 -1.67332e+12 -1.70154e+12 -1.71473e+12 -1.69095e+12 -1.52832e+12 -1.18545e+12 -1.39997e+12 -1.55554e+12 -1.59606e+12 -1.65234e+12 -1.68931e+12 -1.71227e+12 -1.56913e+12 -1.49072e+12 -1.3693e+12 -1.2679e+12 -1.38122e+12 -1.21366e+12 -984803000000.0 -707984000000.0 -124398000000.0 -284030000000.0 -278858000000.0 -55729700000.0 -1.16665e+12 -1.29738e+12 -1.43273e+12 -1.53922e+12 -1.62865e+12 -1.70399e+12 -1.35257e+12 -1.34564e+12 -1.25972e+12 -1.41712e+12 -1.2515e+12 -1.44555e+12 -1.48098e+12 -1.36645e+12 -1.35476e+12 -1.36698e+12 -1.44051e+12 -1.58796e+12 -1.63245e+12 -1.63399e+12 -1.57083e+12 -1.72271e+12 -1.76368e+12 -1.71011e+12 -1.65325e+12 -1.62421e+12 -1.60866e+12 -1.60725e+12 -1.62005e+12 -1.64746e+12 -1.69148e+12 -1.75497e+12 -1.01581e+12 -1.14013e+12 -1.20322e+12 -1.2632e+12 -1.31838e+12 -1.36882e+12 -1.41367e+12 -1.45347e+12 -1.48945e+12 -1.43589e+12 -1.34836e+12 -1.28922e+12 -1.44237e+12 -1.52591e+12 -1.55561e+12 -1.56872e+12 -1.57129e+12 -1.20069e+12 -1.03152e+12 -1.19132e+12 -965227000000.0 -678557000000.0 -285570000000.0 -126144000000.0 -109114000000.0 -186656000000.0 -965822000000.0 -1.08778e+12 -1.28477e+12 -1.39821e+12 -1.49431e+12 -897072000000.0 -1.08934e+12 -1.21014e+12 -1.33512e+12 -1.54953e+12 -2.02532e+12 -1.4623e+12 -1.42708e+12 -1.39126e+12 -1.88347e+12 -1.70097e+12 -1.57384e+12 -1.52955e+12 -1.50007e+12 -1.48633e+12 -1.83923e+12 -1.91493e+12 -1.0307e+12 -1.08565e+12 -1.13908e+12 -1.18924e+12 -1.52184e+12 -1.54975e+12 -1.56903e+12 -1.56982e+12 -1.53247e+12 -1.47171e+12 -1.47101e+12 -1.43897e+12 -1.42823e+12 -1.42287e+12 -1.41295e+12 -1.36578e+12 -1.27502e+12 -826174000000.0 -975070000000.0 -721041000000.0 -409630000000.0 -219216000000.0 -82873400000.0 -86371800000.0 -177129000000.0 -853520000000.0 -1.17899e+12 -1.49115e+12 -788742000000.0 -918863000000.0 -1.02135e+12 -1.13359e+12 -1.2776e+12 -2.39975e+12 -1.65408e+12 -1.43848e+12 -1.38327e+12 -1.35382e+12 -1.32757e+12 -1.30086e+12 -1.28435e+12 -1.27997e+12 -1.29242e+12 -1.33737e+12 -1.40036e+12 -1.48192e+12 -1.51708e+12 -1.50037e+12 -1.25433e+12 -1.487e+12 -1.50084e+12 -1.528e+12 -1.57054e+12 -1.63144e+12 -1.69152e+12 -928777000000.0 -1.23524e+12 -1.27657e+12 -1.31309e+12 -1.34629e+12 -1.37691e+12 -1.40499e+12 -1.43099e+12 -1.45618e+12 -1.48807e+12 -1.5654e+12 -1.72322e+12 -2.45953e+12 -2.31604e+12 -1.94335e+12 -1.59345e+12 -1.28864e+12 -1.27777e+12 -1.2735e+12 -1.26587e+12 -1.15614e+12 -1.0851e+12 -1.05346e+12 -491400000000.0 -347669000000.0 -163560000000.0 -60864900000.0 -94209100000.0 -113445000000.0 -1.16751e+12 -1.27265e+12 -1.39381e+12 -1.49058e+12 -687153000000.0 -749385000000.0 -830337000000.0 -921379000000.0 -1.49791e+12 -1.72183e+12 -1.64588e+12 -1.35843e+12 -1.26487e+12 -1.22872e+12 -1.20932e+12 -1.19173e+12 -1.18102e+12 -1.1813e+12 -1.19287e+12 -1.22488e+12 -1.27368e+12 -1.33307e+12 -1.394e+12 -1.42034e+12 -1.33905e+12 -1.52744e+12 -1.41962e+12 -1.41697e+12 -1.38506e+12 -1.36276e+12 -1.3537e+12 -1.35584e+12 -1.36767e+12 -1.38734e+12 -1.41493e+12 -1.4534e+12 -857762000000.0 -934150000000.0 -980640000000.0 -1.02585e+12 -1.06943e+12 -1.11034e+12 -1.14799e+12 -1.18117e+12 -1.21031e+12 -1.23714e+12 -1.26198e+12 -1.2855e+12 -1.31039e+12 -1.34239e+12 -1.39905e+12 -1.49972e+12 -1.80101e+12 -1.95541e+12 -1.80116e+12 -1.57828e+12 -1.40289e+12 -1.31974e+12 -1.11906e+12 -1.12531e+12 -1.07163e+12 -985408000000.0 -925764000000.0 -858134000000.0 -637632000000.0 -766223000000.0 -245248000000.0 -107287000000.0 -65358600000.0 -1.16108e+12 -1.25405e+12 -1.38374e+12 -678671000000.0 -513309000000.0 -632841000000.0 -1.02318e+12 -1.1391e+12 -1.22196e+12 -1.19322e+12 -1.19004e+12 -1.11919e+12 -1.0876e+12 -1.07494e+12 -1.06697e+12 -1.06218e+12 -1.06555e+12 -1.0769e+12 -1.10268e+12 -1.14555e+12 -1.20361e+12 -1.27873e+12 -1.37745e+12 -1.52679e+12 -1.5378e+12 -1.44274e+12 -1.29948e+12 -1.33285e+12 -1.27502e+12 -1.23902e+12 -1.22089e+12 -1.21367e+12 -1.21372e+12 -1.21651e+12 -1.2119e+12 -1.19365e+12 -806377000000.0 -855328000000.0 -888361000000.0 -924046000000.0 -960781000000.0 -995720000000.0 -1.02816e+12 -1.05734e+12 -1.08238e+12 -1.10428e+12 -1.12432e+12 -1.14241e+12 -1.16006e+12 -1.18154e+12 -1.4832e+12 -1.49382e+12 -1.39838e+12 -1.28059e+12 -1.18197e+12 -1.12604e+12 -1.11572e+12 -899896000000.0 -846801000000.0 -754291000000.0 -676767000000.0 -484069000000.0 -574313000000.0 -422687000000.0 -27708100000.0 -179268000000.0 -426020000000.0 -956873000000.0 -1.07134e+12 -1.15809e+12 -633954000000.0 -717036000000.0 -797458000000.0 -874499000000.0 -910922000000.0 -801467000000.0 -1.22346e+12 -1.35321e+12 -1.56228e+12 -397060000000.0 -1.18007e+12 -1.14465e+12 -1.1066e+12 -1.0856e+12 -1.07396e+12 -861973000000.0 -890434000000.0 -917440000000.0 -942212000000.0 -1.2151e+12 -1.27265e+12 -1.39506e+12 -1.08612e+12 -1.01519e+12 -950252000000.0 -912223000000.0 -939531000000.0 -968478000000.0 -995998000000.0 -595029000000.0 -526898000000.0 -377298000000.0 -488149000000.0 -283714000000.0 -166100000000.0 -81271400000.0 -264362000000.0 -296144000000.0 -970425000000.0 -874123000000.0 -784009000000.0 -447069000000.0 -540830000000.0 -591180000000.0 -796720000000.0 -920823000000.0 -929045000000.0 -930768000000.0 -931892000000.0 -933027000000.0 -937378000000.0 -947579000000.0 -968711000000.0 -1.00539e+12 -1.05753e+12 -1.12755e+12 -1.06764e+12 -1.06232e+12 -1.04699e+12 -1.00031e+12 -808255000000.0 -800205000000.0 -813284000000.0 -834777000000.0 -963393000000.0 -980259000000.0 -994188000000.0 -1.00626e+12 -1.01636e+12 -1.0264e+12 -1.04037e+12 -1.06389e+12 -1.10962e+12 -1.1269e+12 -1.12482e+12 -1.13046e+12 -719312000000.0 -676452000000.0 -780673000000.0 -885740000000.0 -844976000000.0 -764066000000.0 -698087000000.0 -300873000000.0 -318810000000.0 -185495000000.0 -73128800000.0 -54863800000.0 -171792000000.0 -570718000000.0 -642086000000.0 -795312000000.0 -392743000000.0 -422663000000.0 -658508000000.0 -721914000000.0 -715132000000.0 -676498000000.0 -695685000000.0 -760312000000.0 -782575000000.0 -793164000000.0 -799910000000.0 -804839000000.0 -810946000000.0 -826173000000.0 -855040000000.0 -898759000000.0 -959600000000.0 -1.04645e+12 -1.17609e+12 -1.36939e+12 -1.34226e+12 -1.18391e+12 -1.47401e+12 -1.14205e+12 -996568000000.0 -951968000000.0 -934696000000.0 -927380000000.0 -918707000000.0 -906706000000.0 -876176000000.0 -794946000000.0 -754218000000.0 -744837000000.0 -753275000000.0 -771801000000.0 -794413000000.0 -816642000000.0 -836371000000.0 -852962000000.0 -865382000000.0 -873621000000.0 -878993000000.0 -882295000000.0 -883320000000.0 -883114000000.0 -881963000000.0 -882152000000.0 -868440000000.0 -772381000000.0 -797825000000.0 -851219000000.0 -814986000000.0 -762084000000.0 -824797000000.0 -815862000000.0 -708252000000.0 -636037000000.0 -549117000000.0 -464171000000.0 -404743000000.0 -152309000000.0 -42729000000.0 -214571000000.0 -397896000000.0 -648909000000.0 -486815000000.0 -580326000000.0 -698044000000.0 -805848000000.0 -293798000000.0 -419620000000.0 -530323000000.0 -622203000000.0 -602326000000.0 -611607000000.0 -573653000000.0 -628680000000.0 -653775000000.0 -667094000000.0 -674913000000.0 -677597000000.0 -679637000000.0 -696783000000.0 -729123000000.0 -776928000000.0 -844977000000.0 -938205000000.0 -1.07554e+12 -1.18063e+12 -338342000000.0 -811249000000.0 -766573000000.0 -775287000000.0 -778241000000.0 -784852000000.0 -779163000000.0 -771738000000.0 -753261000000.0 -716491000000.0 -689065000000.0 -674944000000.0 -675015000000.0 -687161000000.0 -704813000000.0 -723544000000.0 -739496000000.0 -751806000000.0 -759426000000.0 -762675000000.0 -761612000000.0 -758172000000.0 -752267000000.0 -743355000000.0 -729290000000.0 -704574000000.0 -664158000000.0 -661917000000.0 -665773000000.0 -660015000000.0 -624013000000.0 -548194000000.0 -540708000000.0 -481269000000.0 -329337000000.0 -787595000000.0 -719128000000.0 -619455000000.0 -523035000000.0 -442144000000.0 -374150000000.0 -317703000000.0 -130059000000.0 -258488000000.0 -52003600000.0 -238839000000.0 -248058000000.0 -230338000000.0 -362013000000.0 -428738000000.0 -591614000000.0 -751363000000.0 -262564000000.0 -248297000000.0 -483197000000.0 -524062000000.0 -522404000000.0 -511271000000.0 -586559000000.0 -641573000000.0 -710405000000.0 -805083000000.0 -976005000000.0 -905186000000.0 -606382000000.0 -484652000000.0 -576914000000.0 -607232000000.0 -641677000000.0 -639230000000.0 -640979000000.0 -600177000000.0 -595123000000.0 -595753000000.0 -604077000000.0 -619123000000.0 -635651000000.0 -649987000000.0 -660173000000.0 -663267000000.0 -661199000000.0 -490787000000.0 -391604000000.0 -402435000000.0 -361266000000.0 -258083000000.0 -147230000000.0 -508988000000.0 -381629000000.0 -334544000000.0 -262327000000.0 -176741000000.0 -158628000000.0 -106135000000.0 -43068100000.0 -9035760000.0 -68992700000.0 -85806600000.0 -848044000000.0 -481053000000.0 -516914000000.0 -536474000000.0 -548903000000.0 -551557000000.0 -545042000000.0 -531507000000.0 -547987000000.0 -927244000000.0 -629270000000.0 -613922000000.0 -653761000000.0 -643542000000.0 -631125000000.0 -616695000000.0 -597603000000.0 -567755000000.0 -508189000000.0 -529357000000.0 -552829000000.0 -555189000000.0 -744334000000.0 -711278000000.0 -162402000000.0 -102192000000.0 -35243100000.0 -123258000000.0 -186135000000.0 -206842000000.0 -295666000000.0 -475691000000.0 -809868000000.0 -204081000000.0 -191384000000.0 -238033000000.0 -397862000000.0 -441930000000.0 -430834000000.0 -406942000000.0 -389989000000.0 -412638000000.0 -421780000000.0 -433420000000.0 -425202000000.0 -401297000000.0 -340429000000.0 -383859000000.0 -436707000000.0 -484848000000.0 -538885000000.0 -617013000000.0 -907290000000.0 -683676000000.0 -62568400000.0 -347806000000.0 -419513000000.0 -510448000000.0 -485651000000.0 -518433000000.0 -504184000000.0 -502664000000.0 -493848000000.0 -503050000000.0 -510349000000.0 -523058000000.0 -533578000000.0 -552109000000.0 -564397000000.0 -577958000000.0 -576622000000.0 -570986000000.0 -554939000000.0 -538228000000.0 -517836000000.0 -498372000000.0 -476476000000.0 -450938000000.0 -410680000000.0 -411242000000.0 -412800000000.0 -433932000000.0 -403516000000.0 -279099000000.0 -273746000000.0 -280059000000.0 -167109000000.0 -99569100000.0 -37926100000.0 -594236000000.0 -586975000000.0 -516807000000.0 -462186000000.0 -434468000000.0 -327383000000.0 -188330000000.0 -9035750000.0 -27145800000.0 -55704100000.0 -76791700000.0 -66381600000.0 -184129000000.0 -359685000000.0 -600608000000.0 -849738000000.0 -163836000000.0 -235512000000.0 -208044000000.0 -317217000000.0 -344292000000.0 -311419000000.0 -283209000000.0 -300575000000.0 -309718000000.0 -315627000000.0 -320699000000.0 -303042000000.0 -300351000000.0 -170860000000.0 -238099000000.0 -269872000000.0 -281665000000.0 -293509000000.0 -229198000000.0 -845794000000.0 -477694000000.0 -160787000000.0 -239671000000.0 -513116000000.0 -306845000000.0 -396735000000.0 -384585000000.0 -385866000000.0 -371652000000.0 -398812000000.0 -416931000000.0 -437851000000.0 -452876000000.0 -465777000000.0 -482031000000.0 -501850000000.0 -501590000000.0 -492890000000.0 -467352000000.0 -441699000000.0 -411664000000.0 -385512000000.0 -357929000000.0 -333963000000.0 -308921000000.0 -316333000000.0 -285631000000.0 -291242000000.0 -287274000000.0 -180389000000.0 -161048000000.0 -147516000000.0 -132423000000.0 -102385000000.0 -119037000000.0 -152101000000.0 -643815000000.0 -517041000000.0 -415701000000.0 -303335000000.0 -297605000000.0 -312529000000.0 -226895000000.0 -90973900000.0 -36438600000.0 -62986000000.0 -739837000000.0 -578275000000.0 -443951000000.0 -24371000000.0 -56565700000.0 -95507100000.0 -126559000000.0 -126803000000.0 -145490000000.0 -239760000000.0 -367631000000.0 -503624000000.0 -707767000000.0 -566420000000.0 -602657000000.0 -663511000000.0 -628662000000.0 -512778000000.0 -390481000000.0 -266306000000.0 -226829000000.0 -207461000000.0 -202629000000.0 -210563000000.0 -218651000000.0 -198776000000.0 -156400000000.0 -175134000000.0 -178259000000.0 -191039000000.0 -79662500000.0 -819108000000.0 -590799000000.0 -291254000000.0 -189423000000.0 -438676000000.0 -200671000000.0 -335664000000.0 -185098000000.0 -297740000000.0 -295435000000.0 -361524000000.0 -352846000000.0 -405511000000.0 -362327000000.0 -451795000000.0 -412311000000.0 -376521000000.0 -361683000000.0 -300885000000.0 -278169000000.0 -233844000000.0 -208079000000.0 -187130000000.0 -212273000000.0 -171928000000.0 -168665000000.0 -148574000000.0 -88013300000.0 -150817000000.0 -165183000000.0 -158017000000.0 -162793000000.0 -118759000000.0 -116053000000.0 -22140600000.0 -512957000000.0 -356070000000.0 -262856000000.0 -177646000000.0 -122859000000.0 -155176000000.0 -97574900000.0 -49777800000.0 -22375000000.0 -9035750000.0 -9035750000.0 -9189330000.0 -20779600000.0 -13798300000.0 -12312400000.0 -73938800000.0 -222396000000.0 -514145000000.0 -557555000000.0 -278008000000.0 -358304000000.0 -410971000000.0 -434312000000.0 -397101000000.0 -361070000000.0 -328420000000.0 -333884000000.0 -337344000000.0 -329670000000.0 -331772000000.0 -318683000000.0 -298834000000.0 -271714000000.0 -256190000000.0 -205265000000.0 -172392000000.0 -31402000000.0 -25727300000.0 -282533000000.0 -481571000000.0 -560385000000.0 -580008000000.0 -270609000000.0 -425188000000.0 -196931000000.0 -288007000000.0 -153838000000.0 -233192000000.0 -201846000000.0 -238675000000.0 -221624000000.0 -269855000000.0 -251798000000.0 -336315000000.0 -296428000000.0 -319254000000.0 -259639000000.0 -260010000000.0 -220161000000.0 -216308000000.0 -186092000000.0 -170733000000.0 -150734000000.0 -142944000000.0 -85394200000.0 -89788400000.0 -78210100000.0 -36400200000.0 -55422200000.0 -39407400000.0 -48566700000.0 -76121700000.0 -104789000000.0 -139185000000.0 -153279000000.0 -286116000000.0 -371492000000.0 -237558000000.0 -171985000000.0 -102521000000.0 -55305000000.0 -9035750000.0 -9035750000.0 -9035750000.0 -312996000000.0 -10698600000.0 -14000900000.0 -17701900000.0 -31914800000.0 -33837300000.0 -35837200000.0 -81854100000.0 -174578000000.0 -332651000000.0 -274262000000.0 -31896200000.0 -114629000000.0 -148654000000.0 -168323000000.0 -137691000000.0 -106984000000.0 -79946000000.0 -77683500000.0 -80955800000.0 -84367300000.0 -104668000000.0 -115606000000.0 -132638000000.0 -167604000000.0 -213020000000.0 -231952000000.0 -277554000000.0 -196081000000.0 -277898000000.0 -20265600000.0 -347333000000.0 -308572000000.0 -198014000000.0 -311069000000.0 -188451000000.0 -246123000000.0 -158613000000.0 -161571000000.0 -115210000000.0 -115938000000.0 -67830100000.0 -75006700000.0 -23638500000.0 -81024700000.0 -58308800000.0 -104722000000.0 -84331900000.0 -111341000000.0 -103796000000.0 -127543000000.0 -131491000000.0 -146282000000.0 -160974000000.0 -187964000000.0 -167780000000.0 -175509000000.0 -165844000000.0 -130101000000.0 -128103000000.0 -91052600000.0 -75163600000.0 -60764200000.0 -43982100000.0 -29436500000.0 -16930800000.0 -203806000000.0 -366442000000.0 -306493000000.0 -270318000000.0 -190399000000.0 -150772000000.0 -88699000000.0 -56120600000.0 -24605500000.0 -12414600000.0 -19060400000.0 -26347400000.0 -44560000000.0 -55567500000.0 -65872000000.0 -115306000000.0 -207057000000.0 -361195000000.0 -298215000000.0 -104834000000.0 -192521000000.0 -225447000000.0 -242524000000.0 -210408000000.0 -175489000000.0 -149870000000.0 -143804000000.0 -149082000000.0 -151834000000.0 -164074000000.0 -167326000000.0 -175311000000.0 -199046000000.0 -201987000000.0 -183532000000.0 -186775000000.0 -145314000000.0 -225127000000.0 -167842000000.0 -305166000000.0 -89446100000.0 -63810400000.0 -24070400000.0 -99840600000.0 -18740100000.0 -66207500000.0 -19534300000.0 -36291500000.0 -22741300000.0 -46556700000.0 -27289400000.0 -57061100000.0 -35264100000.0 -99796100000.0 -78748400000.0 -115441000000.0 -83912200000.0 -98478300000.0 -80464900000.0 -90953500000.0 -81103700000.0 -82045600000.0 -82525400000.0 -83936400000.0 -58791400000.0 -61291100000.0 -51735800000.0 -37946200000.0 -46650700000.0 -23915200000.0 -27915600000.0 -35103600000.0 -43043600000.0 -51956600000.0 -62995400000.0 -224862000000.0 -259821000000.0 -143754000000.0 -96406400000.0 -41266400000.0 -36206100000.0 -9062230000.0 -9035750000.0 -9035750000.0 -9089800000.0 -9045440000.0 -9255250000.0 -18838300000.0 -23741200000.0 -27269400000.0 -62889100000.0 -129959000000.0 -251138000000.0 -181775000000.0 -17958800000.0 -80766900000.0 -103204000000.0 -124844000000.0 -111472000000.0 -88945700000.0 -68257200000.0 -55609900000.0 -50985800000.0 -44296200000.0 -45233100000.0 -41419200000.0 -46104200000.0 -67119000000.0 -74374700000.0 -60577800000.0 -61756500000.0 -18367300000.0 -36561900000.0 -24965100000.0 -231046000000.0 -153712000000.0 -120268000000.0 -107339000000.0 -152337000000.0 -94696300000.0 -120041000000.0 -80633100000.0 -80605400000.0 -59115800000.0 -69161800000.0 -41785100000.0 -58157200000.0 -29392000000.0 -82107200000.0 -61471100000.0 -98481700000.0 -72347800000.0 -88192700000.0 -74260300000.0 -86909600000.0 -81286900000.0 -85394900000.0 -89757100000.0 -88781800000.0 -66825400000.0 -64883500000.0 -52419100000.0 -42692900000.0 -44010000000.0 -15577900000.0 -11834100000.0 -10981400000.0 -10236800000.0 -9435800000.0 -11251400000.0 -178618000000.0 -214433000000.0 -134824000000.0 -90517700000.0 -52896600000.0 -42001500000.0 -15062200000.0 -12564300000.0 -10208600000.0 -9074090000.0 -9042580000.0 -9491830000.0 -17724400000.0 -24120800000.0 -30050500000.0 -62374900000.0 -119191000000.0 -217452000000.0 -151647000000.0 -22029200000.0 -77012300000.0 -99255700000.0 -121127000000.0 -115191000000.0 -96989700000.0 -80567800000.0 -69036700000.0 -63204500000.0 -59637000000.0 -62619600000.0 -61751900000.0 -75047100000.0 -90920800000.0 -93841900000.0 -77407100000.0 -79778300000.0 -49976200000.0 -60281000000.0 -67845000000.0 -190819000000.0 -53230800000.0 -9970350000.0 -29298300000.0 -53529000000.0 -23077300000.0 -41340600000.0 -21957800000.0 -24357200000.0 -14160900000.0 -28953600000.0 -10917700000.0 -30119000000.0 -9765280000.0 -60447800000.0 -44759600000.0 -83341000000.0 -61470800000.0 -77947000000.0 -66602500000.0 -79334400000.0 -74577400000.0 -78549100000.0 -82247200000.0 -77469400000.0 -58309100000.0 -54492700000.0 -42630200000.0 -38752600000.0 -38868800000.0 -12220800000.0 -9878400000.0 -10142600000.0 -10589700000.0 -11012600000.0 -15806900000.0 -169779000000.0 -173504000000.0 -101631000000.0 -62205700000.0 -41609100000.0 -30454300000.0 -9035780000.0 -9035750000.0 -9044290000.0 -9060910000.0 -9040470000.0 -9642640000.0 -16404500000.0 -23636200000.0 -31360000000.0 -60217100000.0 -106441000000.0 -178407000000.0 -116578000000.0 -12660100000.0 -55212900000.0 -74855500000.0 -93427800000.0 -92296900000.0 -78272600000.0 -64959100000.0 -54055600000.0 -45364100000.0 -38967500000.0 -37816400000.0 -34171600000.0 -48135500000.0 -58197400000.0 -59967200000.0 -42906800000.0 -43510500000.0 -16448700000.0 -9035750000.0 -28730300000.0 -162046000000.0 -60095400000.0 -24140000000.0 -37935100000.0 -49920200000.0 -26166900000.0 -38083800000.0 -20063700000.0 -22735600000.0 -13788900000.0 -26703800000.0 -10895200000.0 -27180200000.0 -9708910000.0 -53798400000.0 -39759600000.0 -76490000000.0 -57327700000.0 -72779000000.0 -63036200000.0 -74942000000.0 -70896000000.0 -74664800000.0 -77990900000.0 -71469000000.0 -54820600000.0 -49489300000.0 -38455600000.0 -38005700000.0 -36500600000.0 -11123100000.0 -9039390000.0 -9036910000.0 -9092200000.0 -9038030000.0 -14820600000.0 -156556000000.0 -144646000000.0 -84196800000.0 -50953700000.0 -40067000000.0 -27415000000.0 -9035830000.0 -9035760000.0 -9043230000.0 -9050850000.0 -9038590000.0 -9712730000.0 -15055800000.0 -22447100000.0 -30686300000.0 -54902400000.0 -93385400000.0 -145291000000.0 -92589000000.0 -11549900000.0 -44661500000.0 -63028700000.0 -78507900000.0 -80417500000.0 -69840000000.0 -59638900000.0 -50724100000.0 -42568800000.0 -36610100000.0 -34734400000.0 -31769600000.0 -45874800000.0 -52478000000.0 -54105900000.0 -38101100000.0 -39625900000.0 -15759600000.0 -9035750000.0 -136440000000.0 -34078400000.0 -9035750000.0 -26502500000.0 -34518500000.0 -19853100000.0 -30507500000.0 -18181800000.0 -20802200000.0 -13404300000.0 -24263000000.0 -10752400000.0 -24123100000.0 -9659970000.0 -46656900000.0 -34518500000.0 -67982300000.0 -51620300000.0 -65591700000.0 -57447900000.0 -68177800000.0 -64805900000.0 -68156600000.0 -70904900000.0 -63699300000.0 -49533000000.0 -43669900000.0 -33978800000.0 -35810400000.0 -33367400000.0 -10498300000.0 -9041220000.0 -9038750000.0 -9084300000.0 -9041650000.0 -15535200000.0 -139989000000.0 -117668000000.0 -67479000000.0 -42351000000.0 -37129100000.0 -24291000000.0 -9035870000.0 -9035760000.0 -9042150000.0 -28400800000.0 -9044310000.0 -9037070000.0 -9707200000.0 -13769100000.0 -20690400000.0 -28797300000.0 -48466300000.0 -80271300000.0 -115432000000.0 -72436700000.0 -10720900000.0 -35661100000.0 -52068600000.0 -64319000000.0 -67728500000.0 -60025500000.0 -52462800000.0 -45540800000.0 -38661200000.0 -33402200000.0 -31347300000.0 -29208700000.0 -41477600000.0 -45693200000.0 -47201900000.0 -33174000000.0 -35176800000.0 -14979000000.0 -9035750000.0 -24411900000.0 -115315000000.0 -27681200000.0 -9035750000.0 -23600300000.0 -27568800000.0 -17868900000.0 -25454900000.0 -16356000000.0 -18752400000.0 -12941700000.0 -21624300000.0 -10510400000.0 -21059700000.0 -9580250000.0 -39380600000.0 -29283000000.0 -58254600000.0 -44809200000.0 -56870900000.0 -50291200000.0 -59525800000.0 -56802900000.0 -59671800000.0 -61878000000.0 -54894200000.0 -43216400000.0 -37556700000.0 -29535300000.0 -32470900000.0 -29623500000.0 -9969400000.0 -9041990000.0 -9040010000.0 -9075920000.0 -9044080000.0 -15521300000.0 -120242000000.0 -94051100000.0 -53310500000.0 -36055000000.0 -33124200000.0 -21218800000.0 -9035890000.0 -9035760000.0 -9041050000.0 -9040360000.0 -9036320000.0 -9633810000.0 -12574800000.0 -18502100000.0 -25666700000.0 -40767000000.0 -66069700000.0 -88465600000.0 -55210900000.0 -10135200000.0 -28078900000.0 -41720900000.0 -50918400000.0 -54649800000.0 -49289400000.0 -43921400000.0 -38827600000.0 -33461000000.0 -29147400000.0 -27353700000.0 -25967300000.0 -35581400000.0 -38147500000.0 -39434300000.0 -28015800000.0 -30032000000.0 -13927700000.0 -9035750000.0 -93229400000.0 -21233200000.0 -9035750000.0 -20436500000.0 -21902100000.0 -15882400000.0 -20895200000.0 -14610500000.0 -16640500000.0 -12340000000.0 -18845900000.0 -10239000000.0 -18103400000.0 -9478580000.0 -32217600000.0 -24266800000.0 -47747700000.0 -37279900000.0 -47053900000.0 -41996900000.0 -49457900000.0 -47366700000.0 -49677000000.0 -51351000000.0 -45275200000.0 -36133800000.0 -31245600000.0 -25152900000.0 -28168900000.0 -25433800000.0 -9585040000.0 -9041810000.0 -9040420000.0 -9067220000.0 -9044850000.0 -14839500000.0 -97824600000.0 -72741700000.0 -41123400000.0 -30429400000.0 -28365000000.0 -18277600000.0 -9035890000.0 -9035760000.0 -9039910000.0 -21291200000.0 -9038020000.0 -9036050000.0 -9503190000.0 -11473200000.0 -15988700000.0 -21543500000.0 -32162900000.0 -50627600000.0 -63841200000.0 -40237300000.0 -9721320000.0 -21687200000.0 -31867100000.0 -38235500000.0 -41438200000.0 -37968300000.0 -34423400000.0 -30971600000.0 -27170600000.0 -23994800000.0 -22630700000.0 -21806500000.0 -28600800000.0 -30067200000.0 -31046100000.0 -22665000000.0 -24337900000.0 -12662600000.0 -9035750000.0 -17878700000.0 -70205400000.0 -16793300000.0 -9035750000.0 -17168100000.0 -17371500000.0 -13877600000.0 -16918600000.0 -12940000000.0 -14476500000.0 -11557600000.0 -16007400000.0 -9942600000.0 -15309100000.0 -9361290000.0 -25276900000.0 -19559200000.0 -36777900000.0 -29319600000.0 -36493700000.0 -32925100000.0 -38388500000.0 -36915600000.0 -38604700000.0 -39768800000.0 -35110500000.0 -28563500000.0 -24842800000.0 -20702900000.0 -23127500000.0 -20909700000.0 -9324650000.0 -9040790000.0 -9039920000.0 -9058330000.0 -9043780000.0 -13588600000.0 -73457000000.0 -53181100000.0 -30600400000.0 -24623400000.0 -23093400000.0 -15482000000.0 -9035860000.0 -9035760000.0 -9038730000.0 -9036720000.0 -9035920000.0 -9329440000.0 -10447900000.0 -13242800000.0 -26897700000.0 -9406920000.0 -16185700000.0 -22404000000.0 -26114200000.0 -28219700000.0 -21629300000.0 -22234900000.0 -17168100000.0 -18251200000.0 -11243100000.0 -9035750000.0 -45806500000.0 -9035750000.0 -13865300000.0 -13664400000.0 -13476000000.0 -12274300000.0 -10604000000.0 -13160000000.0 -9599810000.0 -12678500000.0 -9232870000.0 -18560200000.0 -15143500000.0 -25553800000.0 -21125600000.0 -25467500000.0 -23362200000.0 -26664000000.0 -25796900000.0 -9162040000.0 -9039050000.0 -9038590000.0 -9049230000.0 -9041130000.0 -11904300000.0 -47733800000.0 -17487300000.0 -12806800000.0 -9035830000.0 -9035760000.0 -9037530000.0 -16712700000.0 -22956700000.0 -34123100000.0 -40880000000.0 -26297800000.0 -24301800000.0 -22327000000.0 -20084600000.0 -18166000000.0 -17319200000.0 -16895700000.0 -20894300000.0 -14339900000.0 -13280400000.0 -11885900000.0 -11326600000.0 -26817100000.0 -27495700000.0 -24604900000.0 -20703400000.0 -18407400000.0 -16062500000.0 -17573400000.0 -16155800000.0 -34784000000.0 -21309500000.0 -18443800000.0 -9036000000.0 -9035800000.0 -9129390000.0 -9471880000.0 -10359500000.0 -11465400000.0 -13407200000.0 -16924600000.0 -18901900000.0 -14538500000.0 -9146460000.0 -11226000000.0 -13190900000.0 -14341700000.0 -15024900000.0 -14440700000.0 -13829700000.0 -13221300000.0 -12522200000.0 -11918800000.0 -11649500000.0 -11525500000.0 -12770400000.0 -12983700000.0 -13175900000.0 -11581500000.0 -11930600000.0 -9731760000.0 -9035750000.0 -10700000000.0 -20582700000.0 -10320500000.0 -9035750000.0 -10545000000.0 -10443000000.0 -9922470000.0 -10392200000.0 -9748120000.0 -10047700000.0 -9535090000.0 -10320300000.0 -9215110000.0 -10163700000.0 -9097760000.0 -11998500000.0 -10927900000.0 -14204300000.0 -12820300000.0 -14187000000.0 -13530500000.0 -14569200000.0 -14299100000.0 -14620100000.0 -14831000000.0 -13912300000.0 -12691000000.0 -11963100000.0 -11244400000.0 -11724400000.0 -11269600000.0 -9068440000.0 -9036820000.0 -9036680000.0 -9039970000.0 -9037480000.0 -9951210000.0 -21183400000.0 -17029800000.0 -12795100000.0 -11994100000.0 -11689100000.0 -10207600000.0 -9035780000.0 -9035750000.0 -9036310000.0 
SCALARS Shear_Stress float 1
LOOKUP_TABLE default
6918290000.0 35896800000.0 28095500000.0 16199600000.0 53884400000.0 27516000000.0 51327400000.0 49127700000.0 53778300000.0 48365900000.0 55431100000.0 21827200000.0 63405500000.0 33185200000.0 1680260000.0 14621900000.0 40229900000.0 72860000000.0 24801900000.0 22585200000.0 13215700000.0 31625600000.0 31095800000.0 79646900000.0 30688700000.0 69682400000.0 38725700000.0 62186000000.0 37968300000.0 14611800000.0 3745260000.0 73843700000.0 132642000000.0 108248000000.0 109910000000.0 11682200000.0 76955500000.0 24567900000.0 48989900000.0 56974100000.0 13050800000.0 122309000000.0 108551000000.0 7181440000.0 21345700000.0 10243500000.0 206967000.0 7825310000.0 67486200000.0 86870000000.0 77129100000.0 124284000000.0 87279300000.0 178206000000.0 114875000000.0 90525100000.0 33355100000.0 34194700000.0 86437100000.0 4660770000.0 48656800000.0 35180900000.0 119287000000.0 27287200000.0 68305400000.0 68281600000.0 21269800000.0 20336100000.0 7814030000.0 93970700000.0 110260000000.0 79959200000.0 140539000000.0 92694500000.0 182277000000.0 218077000000.0 179963000000.0 43711200000.0 152563000000.0 135348000000.0 68457500000.0 221930000000.0 43941100000.0 13818800000.0 47169800000.0 30655100000.0 4931220000.0 22194600000.0 57138300000.0 165970000000.0 235690000000.0 85446100000.0 205748000000.0 214565000000.0 183476000000.0 76310800000.0 263965000000.0 105273000000.0 128296000000.0 78918400000.0 91629300000.0 57106300000.0 51380400000.0 25654400000.0 20684900000.0 114215000000.0 104675000000.0 57688100000.0 30566900000.0 18566500000.0 132754000000.0 161351000000.0 268867000000.0 285904000000.0 325372000000.0 258992000000.0 296922000000.0 233384000000.0 283342000000.0 175220000000.0 473125000000.0 193555000000.0 127137000000.0 79006300000.0 40199800000.0 134882000000.0 90268700000.0 153401000000.0 118022000000.0 91082800000.0 361219000000.0 232198000000.0 418922000000.0 332697000000.0 410944000000.0 351868000000.0 386694000000.0 347034000000.0 320663000000.0 319726000000.0 416888000000.0 160921000000.0 106056000000.0 61312000000.0 31027400000.0 137680000000.0 272249000000.0 566841000000.0 449797000000.0 459589000000.0 438350000000.0 396062000000.0 351060000000.0 301675000000.0 139107000000.0 243361000000.0 126983000000.0 91386200000.0 79740600000.0 56231000000.0 44899800000.0 32284500000.0 159625000000.0 78707600000.0 216198000000.0 277736000000.0 579457000000.0 374683000000.0 469645000000.0 473169000000.0 439391000000.0 387218000000.0 352325000000.0 319324000000.0 221844000000.0 170204000000.0 76088500000.0 171331000000.0 120583000000.0 151530000000.0 94612800000.0 60526800000.0 37760100000.0 189630000000.0 93449100000.0 378256000000.0 523270000000.0 280635000000.0 239242000000.0 233770000000.0 387597000000.0 410444000000.0 472313000000.0 467596000000.0 467938000000.0 449086000000.0 423299000000.0 389551000000.0 275577000000.0 110541000000.0 63762000000.0 69760200000.0 54102400000.0 36811000000.0 23833600000.0 223832000000.0 270511000000.0 157528000000.0 289834000000.0 421624000000.0 453507000000.0 418971000000.0 330180000000.0 171955000000.0 33747500000.0 27160100000.0 28560500000.0 1724600000.0 25293600000.0 5573940000.0 19617100000.0 6714660000.0 224400000000.0 167242000000.0 84262100000.0 193663000000.0 149547000000.0 184306000000.0 329679000000.0 423492000000.0 430146000000.0 376305000000.0 242562000000.0 137731000000.0 70521100000.0 9583090000.0 7445510000.0 51066100000.0 12052900000.0 43830400000.0 22099000000.0 7784170000.0 262434000000.0 304999000000.0 9837770000.0 101310000000.0 52736900000.0 123559000000.0 162375000000.0 229284000000.0 254818000000.0 351771000000.0 368137000000.0 416634000000.0 401908000000.0 402189000000.0 372085000000.0 316199000000.0 225734000000.0 33603700000.0 70217300000.0 91359400000.0 64697200000.0 35141200000.0 17624600000.0 85589400000.0 59528300000.0 91487100000.0 171294000000.0 277010000000.0 380893000000.0 394058000000.0 328321000000.0 111982000000.0 56352400000.0 125628000000.0 174074000000.0 119199000000.0 133893000000.0 77265800000.0 84788000000.0 43275700000.0 47836500000.0 301589000000.0 449301000000.0 239878000000.0 172427000000.0 240977000000.0 64995600000.0 139720000000.0 160200000000.0 320786000000.0 384524000000.0 398627000000.0 227774000000.0 89983500000.0 3386530000.0 101228000000.0 131322000000.0 201008000000.0 202829000000.0 143521000000.0 87121700000.0 338294000000.0 562797000000.0 336131000000.0 251104000000.0 35705500000.0 90478400000.0 69111100000.0 467127000.0 189230000000.0 313198000000.0 376299000000.0 395183000000.0 413446000000.0 481205000000.0 387887000000.0 241301000000.0 35638700000.0 182171000000.0 270129000000.0 219377000000.0 148905000000.0 80721800000.0 598324000000.0 331646000000.0 446442000000.0 436868000000.0 113881000000.0 177092000000.0 105154000000.0 451456000000.0 479349000000.0 523463000000.0 53662200000.0 113523000000.0 152202000000.0 273440000000.0 416213000000.0 314191000000.0 364633000000.0 238698000000.0 233956000000.0 138470000000.0 105104000000.0 364870000000.0 263844000000.0 634965000000.0 507263000000.0 174906000000.0 182639000000.0 380010000000.0 461449000000.0 646512000000.0 214245000000.0 32115300000.0 56139400000.0 51547500000.0 202339000000.0 608264000000.0 385796000000.0 183193000000.0 366260000000.0 570215000000.0 283409000000.0 271008000000.0 922946000000.0 356807000000.0 79129200000.0 297092000000.0 222720000000.0 66936200000.0 127609000000.0 750035000000.0 758320000000.0 618882000000.0 800483000000.0 749592000000.0 2111950000.0 16355600000.0 11570500000.0 278076000000.0 294821000000.0 735232000000.0 711279000000.0 321296000000.0 185095000000.0 95458600000.0 318578000000.0 556425000000.0 106809000000.0 8985660000.0 642623000000.0 125401000000.0 68654200000.0 365661000000.0 655761000000.0 936252000000.0 67592200000.0 100423000000.0 93498900000.0 200332000000.0 3918960000.0 24635800000.0 194861000000.0 528587000000.0 10882100000.0 37795700000.0 244803000000.0 222804000000.0 258856000000.0 107041000000.0 61661400000.0 265961000000.0 544693000000.0 602464000000.0 240344000000.0 45223200000.0 300482000000.0 207274000000.0 49145400000.0 12399900000.0 302176000000.0 225600000000.0 191200000000.0 624688000000.0 45520700000.0 279146000000.0 63651000000.0 802538000000.0 921899000000.0 115958000000.0 191524000000.0 165397000000.0 766391000000.0 851613000000.0 186408000000.0 901959000000.0 519207000000.0 297335000000.0 408661000000.0 164315000000.0 136300000000.0 100320000000.0 206411000000.0 618929000000.0 123560000000.0 27744300000.0 173861000000.0 286204000000.0 13915500000.0 147246000000.0 599564000000.0 519472000000.0 105603000000.0 292319000000.0 392643000000.0 222593000000.0 301242000000.0 120724000000.0 399007000000.0 477691000000.0 591050000000.0 291879000000.0 147236000000.0 165431000000.0 338563000000.0 474471000000.0 875651000000.0 1.02054e+12 773735000000.0 479946000000.0 300605000000.0 4144820000.0 266677000000.0 317837000000.0 253169000000.0 127405000000.0 470800000000.0 905315000000.0 999476000000.0 145329000000.0 587224000000.0 217194000000.0 123571000000.0 231768000000.0 248841000000.0 338954000000.0 565661000000.0 976959000000.0 848597000000.0 346820000000.0 478961000000.0 242826000000.0 358615000000.0 99430800000.0 411481000000.0 336681000000.0 334906000000.0 391337000000.0 857151000000.0 597702000000.0 63646400000.0 380359000000.0 828665000000.0 109857000000.0 9177320000.0 142764000000.0 375497000000.0 404775000000.0 639494000000.0 346853000000.0 1.40173e+12 988093000000.0 825833000000.0 1.1852e+12 416329000000.0 447880000000.0 434577000000.0 312073000000.0 324953000000.0 666456000000.0 729838000000.0 792089000000.0 693605000000.0 125682000000.0 123133000000.0 336922000000.0 609983000000.0 1.17312e+12 75414300000.0 368766000000.0 581886000000.0 502851000000.0 608465000000.0 312473000000.0 114690000000.0 116679000000.0 277866000000.0 535921000000.0 562460000000.0 1.17378e+12 409227000000.0 165220000000.0 309766000000.0 664382000000.0 810907000000.0 660232000000.0 481998000000.0 158460000000.0 628805000000.0 414027000000.0 5505010000.0 229171000000.0 454356000000.0 812336000000.0 302651000000.0 678094000000.0 257503000000.0 125945000000.0 198045000000.0 1.21435e+12 177006000000.0 86293600000.0 423457000000.0 50090200000.0 243037000000.0 637344000000.0 673604000000.0 863336000000.0 834281000000.0 797139000000.0 510222000000.0 250998000000.0 239989000000.0 270904000000.0 499376000000.0 1.50525e+12 557053000000.0 306575000000.0 583821000000.0 610721000000.0 1.18179e+12 818475000000.0 252131000000.0 1.46311e+12 511003000000.0 550887000000.0 402983000000.0 4600930000.0 557758000000.0 397780000000.0 609836000000.0 1.42207e+12 698494000000.0 613584000000.0 63953800000.0 935499000000.0 485071000000.0 1.20087e+12 900536000000.0 374661000000.0 633601000000.0 864478000000.0 942546000000.0 881380000000.0 847049000000.0 699969000000.0 601181000000.0 386814000000.0 336482000000.0 1.35922e+12 537777000000.0 3024060000.0 166499000000.0 436157000000.0 519121000000.0 436849000000.0 475462000000.0 808582000000.0 409257000000.0 361180000000.0 270445000000.0 24830600000.0 827672000000.0 604591000000.0 1.28082e+12 513053000000.0 291403000000.0 878337000000.0 830492000000.0 853474000000.0 975710000000.0 949733000000.0 915596000000.0 777824000000.0 543444000000.0 395319000000.0 539643000000.0 664431000000.0 444591000000.0 265859000000.0 136326000000.0 261984000000.0 489074000000.0 502746000000.0 210031000000.0 506615000000.0 146462000000.0 667563000000.0 383917000000.0 330840000000.0 174949000000.0 228581000000.0 224745000000.0 849508000000.0 936571000000.0 781310000000.0 823260000000.0 884633000000.0 842806000000.0 458177000000.0 511823000000.0 562981000000.0 879515000000.0 889505000000.0 983006000000.0 1.01592e+12 1.01207e+12 868301000000.0 718043000000.0 581102000000.0 672262000000.0 926696000000.0 446250000000.0 37758000000.0 391943000000.0 514814000000.0 358977000000.0 897435000000.0 561931000000.0 368812000000.0 431320000000.0 129789000000.0 117979000000.0 94288900000.0 1.04425e+12 765956000000.0 631781000000.0 305130000000.0 662741000000.0 562374000000.0 625565000000.0 708156000000.0 492554000000.0 575963000000.0 759167000000.0 802323000000.0 894364000000.0 951517000000.0 983645000000.0 1.05479e+12 1.04857e+12 1.07096e+12 984791000000.0 831916000000.0 696322000000.0 709288000000.0 649762000000.0 630905000000.0 174778000000.0 315180000000.0 439439000000.0 203182000000.0 507412000000.0 250190000000.0 179047000000.0 617456000000.0 781348000000.0 608644000000.0 409025000000.0 443495000000.0 511889000000.0 405547000000.0 108599000000.0 99444500000.0 268303000000.0 499383000000.0 664849000000.0 227997000000.0 633088000000.0 12364300000.0 913964000000.0 354251000000.0 703325000000.0 550787000000.0 645407000000.0 860618000000.0 1.02506e+12 1.08409e+12 1.09591e+12 1.10919e+12 1.06469e+12 1.04223e+12 951291000000.0 811984000000.0 705158000000.0 649007000000.0 69600700000.0 331418000000.0 526017000000.0 623675000000.0 340601000000.0 290313000000.0 96437600000.0 619756000000.0 549613000000.0 302428000000.0 412833000000.0 438465000000.0 332601000000.0 282038000000.0 76640300000.0 45397900000.0 80054300000.0 277535000000.0 198616000000.0 454821000000.0 734086000000.0 559013000000.0 884271000000.0 233777000000.0 665367000000.0 448275000000.0 716976000000.0 358327000000.0 480136000000.0 706841000000.0 945078000000.0 1.02867e+12 1.1179e+12 1.10091e+12 1.01289e+12 921086000000.0 793514000000.0 633538000000.0 517245000000.0 218699000000.0 55277700000.0 14835900000.0 344467000000.0 120119000000.0 430704000000.0 143105000000.0 344539000.0 416586000000.0 506645000000.0 40771200000.0 327167000000.0 579028000000.0 494074000000.0 330753000000.0 269722000000.0 65754400000.0 5089210000.0 226096000000.0 123778000000.0 26295000000.0 215382000000.0 727139000000.0 335572000000.0 761375000000.0 683124000000.0 579392000000.0 332314000000.0 650207000000.0 232425000000.0 504811000000.0 628614000000.0 812106000000.0 781244000000.0 926381000000.0 1.08858e+12 1.1263e+12 1.07851e+12 980093000000.0 891824000000.0 851481000000.0 746019000000.0 487563000000.0 124485000000.0 297637000000.0 342017000000.0 511260000000.0 1.07657e+12 344554000.0 175542000000.0 210005000000.0 392467000000.0 586655000000.0 698519000000.0 760765000000.0 289975000000.0 229287000000.0 183743000000.0 241254000000.0 64651800000.0 65397600000.0 23353600000.0 260064000000.0 180663000000.0 71976200000.0 34585500000.0 303227000000.0 841454000000.0 89224600000.0 331326000000.0 1.13809e+12 764595000000.0 591735000000.0 118683000000.0 201156000000.0 160834000000.0 381979000000.0 587303000000.0 914712000000.0 1.01933e+12 1.07533e+12 1.1181e+12 1.12032e+12 1.11445e+12 1.0472e+12 940609000000.0 789090000000.0 655047000000.0 523188000000.0 274370000000.0 165362000000.0 156974000000.0 216906000000.0 1.01512e+12 613142000000.0 215877000000.0 182657000000.0 756015000000.0 415319000000.0 921995000000.0 513171000000.0 127200000000.0 71016000000.0 146097000000.0 232879000000.0 37785800000.0 16266800000.0 207980000000.0 219013000000.0 169430000000.0 61696400000.0 486095000000.0 969287000000.0 810728000000.0 752668000000.0 640414000000.0 162696000000.0 301366000000.0 525908000000.0 625912000000.0 27482000000.0 15406100000.0 330494000000.0 779109000000.0 1.00213e+12 1.09583e+12 1.10259e+12 1.08857e+12 1.05227e+12 1.00835e+12 960557000000.0 889261000000.0 703180000000.0 359141000000.0 102376000000.0 189323000000.0 87920300000.0 390304000000.0 492181000000.0 491175000000.0 157149000000.0 376307000000.0 1.29896e+12 323665000000.0 959805000000.0 385245000000.0 367629000000.0 9450880000.0 154960000000.0 245525000000.0 311867000000.0 387145000000.0 25500400000.0 3730100000.0 3577400000.0 257582000000.0 176213000000.0 128302000000.0 17197100000.0 264453000000.0 160479000000.0 63352300000.0 180882000000.0 897491000000.0 70951300000.0 154126000000.0 50775900000.0 106321000000.0 845443000000.0 1.14628e+12 502756000000.0 390359000000.0 605811000000.0 796200000000.0 905701000000.0 1.04323e+12 1.08918e+12 1.07092e+12 1.00667e+12 903122000000.0 824340000000.0 747187000000.0 599477000000.0 481178000000.0 171802000000.0 65368800000.0 685533000000.0 903671000000.0 21994000000.0 116595000000.0 406501000000.0 406503000000.0 398994000000.0 189816000000.0 237312000000.0 1.49964e+12 550598000000.0 91102200000.0 269559000000.0 374156000000.0 670779000000.0 19359400000.0 401802000000.0 422383000000.0 350589000000.0 47845000000.0 54727200000.0 33850600000.0 364975000000.0 312969000000.0 6990230000.0 224373000000.0 231953000000.0 273469000000.0 585549000000.0 343502000000.0 117820000000.0 371227000000.0 87679200000.0 184924000000.0 389709000000.0 728823000000.0 56740000000.0 470939000000.0 193513000000.0 663155000000.0 884579000000.0 969380000000.0 984984000000.0 1.04861e+12 1.06419e+12 1.02842e+12 951946000000.0 836213000000.0 661664000000.0 389199000000.0 283431000000.0 311738000000.0 370114000000.0 210772000000.0 138298000000.0 178134000000.0 26844600000.0 282707000000.0 455091000000.0 581087000000.0 391088000000.0 225778000000.0 642609000000.0 457335000000.0 444797000000.0 447379000000.0 390188000000.0 304556000000.0 34477300000.0 90336100000.0 406437000000.0 493285000000.0 379711000000.0 202110000000.0 55544400000.0 537750000000.0 669349000000.0 594311000000.0 914521000000.0 222113000000.0 481510000000.0 719636000000.0 289409000000.0 446145000000.0 27145900000.0 349903000000.0 498433000000.0 471713000000.0 524761000000.0 819200000000.0 904808000000.0 973256000000.0 1.03137e+12 999282000000.0 1.02608e+12 977032000000.0 976170000000.0 915289000000.0 888848000000.0 760934000000.0 585431000000.0 549066000000.0 392277000000.0 435370000000.0 1.07036e+12 1.09151e+12 33364200000.0 88945700000.0 177647000000.0 299948000000.0 893214000000.0 1.25444e+12 1.45824e+12 1.32691e+12 1.07286e+12 428018000000.0 282454000000.0 341756000000.0 442554000000.0 498601000000.0 312241000000.0 287801000000.0 355328000000.0 50545800000.0 180099000000.0 310235000000.0 379005000000.0 533640000000.0 641659000000.0 266646000000.0 62919300000.0 227781000000.0 657762000000.0 93673400000.0 49167500000.0 607876000000.0 1.40611e+12 1.99951e+12 1.25716e+12 346616000000.0 438070000000.0 249810000000.0 661948000000.0 71559200000.0 610842000000.0 737805000000.0 836615000000.0 826110000000.0 890666000000.0 947542000000.0 954944000000.0 918395000000.0 845894000000.0 816840000000.0 737537000000.0 683760000000.0 611458000000.0 494587000000.0 150176000000.0 496237000000.0 566210000000.0 96505800000.0 57052900000.0 615337000000.0 496885000000.0 417434000000.0 474081000000.0 294082000000.0 656523000000.0 293146000000.0 261519000000.0 255399000000.0 531067000000.0 405162000000.0 302505000000.0 299758000000.0 336398000000.0 81678800000.0 135427000000.0 432039000000.0 297484000000.0 199680000000.0 473801000000.0 649749000000.0 807360000000.0 416929000000.0 386358000000.0 39488000000.0 134099000000.0 305284000000.0 281103000000.0 78692700000.0 59029700000.0 952118000000.0 705855000000.0 359588000000.0 176495000000.0 787101000000.0 683218000000.0 789090000000.0 756864000000.0 868056000000.0 909741000000.0 899063000000.0 851949000000.0 768297000000.0 648428000000.0 508304000000.0 285459000000.0 222184000000.0 127556000000.0 677266000000.0 422176000000.0 523931000000.0 1.1694e+12 358493000000.0 236364000000.0 72770100000.0 53257400000.0 1.03387e+12 934332000000.0 124957000000.0 89235200000.0 347098000000.0 645925000000.0 424696000000.0 255140000000.0 427418000000.0 284946000000.0 180309000000.0 53265200000.0 35282500000.0 209136000000.0 368268000000.0 542819000000.0 752221000000.0 310862000000.0 527441000000.0 57001000000.0 655664000000.0 505507000000.0 174514000000.0 395089000000.0 646987000000.0 561908000000.0 1.92465e+12 1.44633e+12 1.2266e+12 952559000000.0 802150000000.0 52535300000.0 464372000000.0 798907000000.0 843247000000.0 604759000000.0 741089000000.0 840798000000.0 797105000000.0 858097000000.0 794365000000.0 834586000000.0 765744000000.0 778940000000.0 695992000000.0 677081000000.0 555056000000.0 524945000000.0 329140000000.0 89749300000.0 400960000000.0 499213000000.0 64293300000.0 759101000000.0 958635000000.0 325504000000.0 352480000000.0 204519000000.0 261889000000.0 451310000000.0 128912000000.0 129076000000.0 555918000000.0 305450000000.0 914530000000.0 482075000000.0 261683000000.0 499794000000.0 382683000000.0 273257000000.0 190767000000.0 144998000000.0 226766000000.0 82332400000.0 591676000000.0 185990000000.0 22780200000.0 384753000000.0 542290000000.0 771234000000.0 1.02967e+12 28421200000.0 359706000000.0 1.18631e+12 390167000000.0 529446000000.0 558663000000.0 666158000000.0 784467000000.0 1.2058e+12 1.17819e+12 871852000000.0 548177000000.0 247713000000.0 342038000000.0 870109000000.0 360970000000.0 599369000000.0 718494000000.0 732325000000.0 728110000000.0 692059000000.0 592958000000.0 379801000000.0 112762000000.0 39280300000.0 114276000000.0 258374000000.0 312661000000.0 74021200000.0 251139000000.0 574991000000.0 460114000000.0 44489100000.0 429122000000.0 1.0789e+12 459098000000.0 209023000000.0 1.06794e+12 364973000000.0 1.08777e+12 539945000000.0 131772000000.0 58769100000.0 603347000000.0 404524000000.0 164190000000.0 90950400000.0 254918000000.0 221773000000.0 7279510000.0 676568000000.0 691514000000.0 563492000000.0 141162000000.0 210092000000.0 168643000000.0 1.24874e+12 1.21291e+12 688321000000.0 894982000000.0 260212000000.0 756093000000.0 730520000000.0 836446000000.0 851334000000.0 361516000000.0 754074000000.0 1.06767e+12 604343000000.0 573812000000.0 39788700000.0 855931000000.0 305014000000.0 371739000000.0 531835000000.0 621538000000.0 542711000000.0 647892000000.0 667352000000.0 661909000000.0 607636000000.0 459346000000.0 311826000000.0 174085000000.0 66697500000.0 5337730000.0 158111000000.0 421130000000.0 1.40989e+12 608118000000.0 1.08908e+12 938774000000.0 552692000000.0 225470000000.0 5232590000.0 195342000000.0 987455000000.0 897053000000.0 153313000000.0 50236200000.0 117850000000.0 138454000000.0 545601000000.0 1.12181e+12 541166000000.0 273264000000.0 24911900000.0 6170430000.0 114962000000.0 153201000000.0 171117000000.0 137578000000.0 359603000000.0 1.10128e+12 874601000000.0 277197000000.0 74953800.0 125698000000.0 158217000000.0 135868000000.0 634844000000.0 828764000000.0 528375000000.0 137554000000.0 681083000000.0 682256000000.0 713073000000.0 834535000000.0 1.12712e+12 1.84864e+12 403723000000.0 363306000000.0 397745000000.0 461386000000.0 383598000000.0 240748000000.0 876193000000.0 513646000000.0 390665000000.0 464827000000.0 582679000000.0 535526000000.0 607560000000.0 544948000000.0 590634000000.0 514391000000.0 507632000000.0 397877000000.0 211463000000.0 398883000000.0 794285000000.0 60407200000.0 39204100000.0 97911200000.0 1.15568e+12 261466000000.0 74486900000.0 274339000000.0 371702000000.0 457437000000.0 946324000000.0 215854000000.0 1.01292e+12 408375000000.0 326810000000.0 688440000000.0 767633000000.0 185731000000.0 51470800000.0 156223000000.0 49219200000.0 191311000000.0 229420000000.0 335518000000.0 121685000000.0 213499000000.0 381442000000.0 540559000000.0 442995000000.0 827576000000.0 46587600000.0 132623000000.0 271032000000.0 52240100000.0 275999000000.0 164577000000.0 350672000000.0 74699400000.0 316017000000.0 551277000000.0 119874000000.0 273642000000.0 224580000000.0 54441800000.0 164038000000.0 133000000000.0 50788800000.0 560748000000.0 366214000000.0 402273000000.0 373631000000.0 532104000000.0 221255000000.0 226387000000.0 300662000000.0 450989000000.0 476787000000.0 482435000000.0 434707000000.0 305282000000.0 366487000000.0 139064000000.0 108871000000.0 952122000000.0 615924000000.0 11401900000.0 301528000000.0 595845000000.0 6589350000.0 1814720000.0 143405000000.0 214706000000.0 297132000000.0 195678000000.0 80878000000.0 1.08172e+12 957127000000.0 450121000000.0 488347000000.0 115410000000.0 111984000000.0 123696000000.0 161852000000.0 443783000000.0 275297000000.0 162697000000.0 213196000000.0 277789000000.0 359592000000.0 616641000000.0 897377000000.0 1.09537e+12 725179000000.0 168257000000.0 288927000000.0 398268000000.0 334225000000.0 476130000000.0 377802000000.0 9674240000.0 78389200000.0 261277000000.0 29083100000.0 84725200000.0 96150900000.0 160090000000.0 744247000000.0 293287000000.0 211894000000.0 396527000000.0 13454900000.0 584719000000.0 1.08443e+12 354720000000.0 706382000000.0 59183600000.0 319628000000.0 355715000000.0 329493000000.0 401007000000.0 338170000000.0 420944000000.0 375493000000.0 427337000000.0 373571000000.0 348318000000.0 260388000000.0 453344000000.0 213369000000.0 593409000000.0 375710000000.0 341972000000.0 6153450000.0 94644200000.0 91505100000.0 67862200000.0 123777000000.0 160925000000.0 340083000000.0 292590000000.0 931910000000.0 784746000000.0 270433000000.0 635413000000.0 203872000000.0 1.12077e+12 913283000000.0 508184000000.0 506468000000.0 385358000000.0 287151000000.0 188205000000.0 263734000000.0 177144000000.0 344884000000.0 106899000000.0 269336000000.0 560881000000.0 955351000000.0 1.3111e+12 1.2831e+12 610947000000.0 46409800000.0 542432000000.0 866683000000.0 431282000000.0 498031000000.0 404645000000.0 161791000000.0 1758870000.0 246906000000.0 368336000000.0 9394790000.0 153505000000.0 337492000000.0 756610000000.0 789801000000.0 583993000000.0 381829000000.0 379126000000.0 237234000000.0 292606000000.0 524470000000.0 325869000000.0 954074000000.0 146510000000.0 258046000000.0 262890000000.0 293125000000.0 358044000000.0 273864000000.0 533205000000.0 478846000000.0 148168000000.0 905068000000.0 819923000000.0 94528700000.0 234777000000.0 235536000000.0 139949000000.0 151829000000.0 40494200000.0 89135200000.0 206564000000.0 575943000000.0 641476000000.0 739373000000.0 357842000000.0 641559000000.0 875010000000.0 1.21633e+12 350253000000.0 22955000000.0 92635000000.0 649104000000.0 470508000000.0 118700000000.0 52063500000.0 157106000000.0 75144700000.0 73156000000.0 69672000000.0 374676000000.0 697484000000.0 907075000000.0 1.25878e+12 1.53361e+12 1.90251e+12 315784000000.0 400511000000.0 888973000000.0 1.43e+12 302651000000.0 546811000000.0 389556000000.0 167095000000.0 215663000000.0 251188000000.0 203538000000.0 400742000000.0 729674000000.0 868491000000.0 860057000000.0 679854000000.0 452883000000.0 285144000000.0 45897700000.0 525823000000.0 860656000000.0 944681000000.0 427671000000.0 31797000000.0 434076000000.0 210985000000.0 181998000000.0 275456000000.0 345344000000.0 23310200000.0 710160000000.0 584610000000.0 132259000000.0 97262900000.0 85234900000.0 86362500000.0 390051000000.0 496416000000.0 380825000000.0 234084000000.0 114086000000.0 108492000000.0 23847100000.0 74748600000.0 177517000000.0 407096000000.0 617085000000.0 611923000000.0 543338000000.0 753968000000.0 905090000000.0 1.05527e+12 261156000000.0 610605000000.0 1.20132e+12 705450000000.0 318021000000.0 122482000000.0 83884900000.0 257826000000.0 69420000000.0 73285900000.0 394210000000.0 124794000000.0 492674000000.0 939670000000.0 1.03255e+12 1.03123e+12 209432000000.0 629991000000.0 862136000000.0 1.25568e+12 144213000000.0 288555000000.0 249298000000.0 25388800000.0 181735000000.0 154616000000.0 52328600000.0 156383000000.0 913230000000.0 849701000000.0 646063000000.0 398837000000.0 156923000000.0 163562000000.0 311492000000.0 1.24644e+12 917868000000.0 110436000000.0 764368000000.0 101435000000.0 34087800000.0 107984000000.0 54133200000.0 160115000000.0 102905000000.0 328335000000.0 489225000000.0 196110000000.0 598706000000.0 539031000000.0 723335000000.0 1.48464e+12 1.73246e+12 1.38503e+12 967206000000.0 627865000000.0 403277000000.0 173007000000.0 113327000000.0 57390600000.0 81660100000.0 164427000000.0 326815000000.0 492370000000.0 568004000000.0 527051000000.0 624186000000.0 618628000000.0 372657000000.0 224348000000.0 779721000000.0 937221000000.0 405462000000.0 174039000000.0 32167400000.0 317893000000.0 599600000000.0 400905000000.0 144554000000.0 186385000000.0 119227000000.0 128489000000.0 495154000000.0 1.03759e+12 185391000000.0 300062000000.0 767689000000.0 867625000000.0 880188000000.0 1.38745e+12 138173000000.0 645893000000.0 748510000000.0 853185000000.0 962016000000.0 280240000000.0 98595100000.0 22741700000.0 81892900000.0 38931300000.0 114103000000.0 367371000000.0 650710000000.0 836762000000.0 761204000000.0 554853000000.0 320004000000.0 118347000000.0 12529500000.0 117235000000.0 559900000000.0 75243700000.0 537782000000.0 119369000000.0 5694800000.0 175014000000.0 567232000000.0 616482000000.0 56305900000.0 166517000000.0 74959400000.0 365900000000.0 449369000000.0 294206000000.0 259654000000.0 139457000000.0 91049600000.0 96254800000.0 160252000000.0 288060000000.0 428648000000.0 521764000000.0 561304000000.0 615131000000.0 623463000000.0 511757000000.0 351041000000.0 317783000000.0 462183000000.0 869675000000.0 386697000000.0 104139000000.0 98783500000.0 280469000000.0 1.06635e+12 546137000000.0 246419000000.0 3129480000.0 226309000000.0 86757600000.0 757788000000.0 474798000000.0 1.30024e+12 215395000000.0 705265000000.0 921404000000.0 998350000000.0 1.0123e+12 986242000000.0 261368000000.0 532901000000.0 669479000000.0 786898000000.0 628632000000.0 169097000000.0 656708000.0 34972600000.0 73278300000.0 288178000000.0 551139000000.0 758662000000.0 877161000000.0 877643000000.0 375291000000.0 68072900000.0 327487000000.0 702085000000.0 1.13075e+12 1.20835e+12 867732000000.0 443001000000.0 413536000000.0 169876000000.0 144187000000.0 368667000000.0 769047000000.0 35770800000.0 142260000000.0 65167300000.0 231556000000.0 216161000000.0 75599700000.0 243611000000.0 249607000000.0 197387000000.0 125359000000.0 125093000000.0 173283000000.0 268091000000.0 388587000000.0 496216000000.0 575431000000.0 655320000000.0 697253000000.0 666118000000.0 624273000000.0 694137000000.0 835672000000.0 495807000000.0 765030000000.0 469577000000.0 111068000000.0 216358000000.0 657976000000.0 357706000000.0 71199400000.0 75292200000.0 225180000000.0 153666000000.0 151144000000.0 740502000000.0 1.36978e+12 134143000000.0 487974000000.0 637060000000.0 1.00859e+12 1.17866e+12 1.19449e+12 1.35675e+12 844494000000.0 47153800000.0 468447000000.0 650909000000.0 213144000000.0 178129000000.0 88669900000.0 179698000000.0 412283000000.0 646009000000.0 803234000000.0 842739000000.0 775273000000.0 616030000000.0 40093800000.0 236627000000.0 310933000000.0 9677200000.0 486336000000.0 186848000000.0 443083000000.0 459739000000.0 319550000000.0 208805000000.0 206392000000.0 66651100000.0 229507000000.0 180128000000.0 170137000000.0 53289900000.0 739580000000.0 785381000000.0 331605000000.0 14992400000.0 295916000000.0 29046200000.0 35411600000.0 101737000000.0 191282000000.0 200058000000.0 163110000000.0 744967000000.0 759829000000.0 747984000000.0 781188000000.0 848977000000.0 656408000000.0 544583000000.0 913172000000.0 94987900000.0 892617000000.0 1.05897e+12 88676400000.0 196106000000.0 6490530000.0 142195000000.0 38722100000.0 153073000000.0 342868000000.0 264278000000.0 667592000000.0 1.41919e+12 149583000000.0 1.37293e+12 188585000000.0 828320000000.0 1.17672e+12 1.28623e+12 1.44441e+12 1.27176e+12 853483000000.0 455371000000.0 607576000000.0 700944000000.0 368934000000.0 196586000000.0 178665000000.0 77661900000.0 30749300000.0 44275900000.0 213396000000.0 480453000000.0 709204000000.0 789082000000.0 753758000000.0 638643000000.0 458286000000.0 224006000000.0 151338000000.0 159209000000.0 117630000000.0 457068000000.0 673814000000.0 248605000000.0 370712000000.0 395539000000.0 292100000000.0 759048000000.0 325582000000.0 423381000000.0 256307000000.0 471271000000.0 404558000000.0 233895000000.0 163292000000.0 196723000000.0 213498000000.0 199540000000.0 173757000000.0 163189000000.0 190592000000.0 263844000000.0 365398000000.0 474184000000.0 582202000000.0 678582000000.0 834730000000.0 780590000000.0 589271000000.0 15153900000.0 745116000000.0 837609000000.0 496123000000.0 804488000000.0 931170000000.0 429442000000.0 207943000000.0 76859600000.0 317464000000.0 58806500000.0 99892700000.0 51922000000.0 635783000000.0 79383000000.0 127462000000.0 707212000000.0 919276000000.0 1.2321e+12 69792400000.0 884090000000.0 1.22526e+12 1.31261e+12 1.32147e+12 1.1573e+12 895544000000.0 689829000000.0 609919000000.0 279167000000.0 116052000000.0 192768000000.0 154972000000.0 105387000000.0 78382800000.0 61317400000.0 173738000000.0 565866000000.0 710065000000.0 707067000000.0 627073000000.0 497682000000.0 334000000000.0 155668000000.0 17815900000.0 15994900000.0 69431600000.0 752832000000.0 47929700000.0 387652000000.0 156085000000.0 703922000000.0 692212000000.0 384695000000.0 331003000000.0 266114000000.0 213151000000.0 23676000000.0 329941000000.0 502487000000.0 461578000000.0 358200000000.0 298709000000.0 281827000000.0 261885000000.0 233114000000.0 213497000000.0 221674000000.0 270261000000.0 352972000000.0 458718000000.0 570093000000.0 676793000000.0 766565000000.0 821876000000.0 842074000000.0 702976000000.0 442173000000.0 725761000000.0 949058000000.0 699303000000.0 307151000000.0 782744000000.0 951660000000.0 370611000000.0 182683000000.0 119054000000.0 293803000000.0 380564000000.0 78806300000.0 34617100000.0 115513000000.0 37603600000.0 309328000000.0 80130900000.0 1.2024e+12 133389000000.0 1.14951e+12 901398000000.0 1.11351e+12 1.12531e+12 1.26033e+12 1.23108e+12 686968000000.0 699766000000.0 686945000000.0 588954000000.0 710890000000.0 192762000000.0 138920000000.0 138657000000.0 149644000000.0 136029000000.0 12692900000.0 173219000000.0 571110000000.0 631747000000.0 586120000000.0 494770000000.0 379271000000.0 254071000000.0 146101000000.0 92364200000.0 129527000000.0 120272000000.0 10532500000.0 774034000000.0 256427000000.0 357609000000.0 174836000000.0 728873000000.0 380280000000.0 641353000000.0 561088000000.0 15866300000.0 1191570000.0 271752000000.0 180760000000.0 76731700000.0 401850000000.0 521487000000.0 508948000000.0 452743000000.0 406873000000.0 364443000000.0 318313000000.0 277544000000.0 263614000000.0 288479000000.0 351252000000.0 443968000000.0 554410000000.0 667823000000.0 768390000000.0 844974000000.0 895173000000.0 899465000000.0 846738000000.0 643776000000.0 744790000000.0 875335000000.0 885553000000.0 392808000000.0 323491000000.0 877953000000.0 819109000000.0 261502000000.0 237619000000.0 443287000000.0 545829000000.0 422092000000.0 309284000000.0 1085320000.0 5448610000.0 51842600.0 651871000000.0 105143000000.0 533425000000.0 1.03546e+12 789743000000.0 98795900000.0 763875000000.0 315612000000.0 833614000000.0 1.02666e+12 1.10924e+12 1.20706e+12 1.10763e+12 932544000000.0 757133000000.0 607167000000.0 364663000000.0 815957000000.0 248613000000.0 62448500000.0 103118000000.0 194294000000.0 262104000000.0 240170000000.0 105263000000.0 385523000000.0 292609000000.0 205006000000.0 138699000000.0 108064000000.0 63150500000.0 35957800000.0 84576700000.0 137426000000.0 401247000000.0 256622000000.0 95083600000.0 96046400000.0 276048000000.0 423190000000.0 303038000000.0 440804000000.0 175727000000.0 167192000000.0 206309000000.0 115183000000.0 281904000000.0 474136000000.0 553504000000.0 431494000000.0 534200000000.0 652541000000.0 765998000000.0 851224000000.0 917242000000.0 956818000000.0 920156000000.0 794148000000.0 852162000000.0 845125000000.0 709000000000.0 91912800000.0 534440000000.0 604746000000.0 179674000000.0 385201000000.0 102351000000.0 653422000000.0 209035000000.0 195657000000.0 52540400000.0 77133300000.0 33645600000.0 109137000000.0 186121000000.0 387433000000.0 244303000000.0 623292000000.0 765253000000.0 825647000000.0 740914000000.0 620557000000.0 875253000000.0 966186000000.0 1.15366e+12 1.05298e+12 875864000000.0 609806000000.0 155115000000.0 601643000000.0 306161000000.0 532499000000.0 535393000000.0 471873000000.0 165540000000.0 109500000000.0 46977800000.0 34960600000.0 94611800000.0 28332400000.0 111969000000.0 20931500000.0 71360500000.0 151394000000.0 134032000000.0 84634100000.0 112168000000.0 146121000000.0 222121000000.0 150661000000.0 385385000000.0 560201000000.0 538696000000.0 509662000000.0 441484000000.0 369013000000.0 323248000000.0 323208000000.0 359764000000.0 773591000000.0 850892000000.0 914407000000.0 970748000000.0 1.01184e+12 911016000000.0 764181000000.0 784636000000.0 702517000000.0 455006000000.0 359609000000.0 493087000000.0 321340000000.0 409299000000.0 496359000000.0 797789000000.0 294636000000.0 76130700000.0 15492900000.0 46851000000.0 37681000000.0 81412700000.0 71128000000.0 167674000000.0 336058000000.0 44325800000.0 330610000000.0 468882000000.0 669266000000.0 713596000000.0 739259000000.0 878648000000.0 1.09259e+12 1.13979e+12 1.06099e+12 900309000000.0 609503000000.0 32233800000.0 290449000000.0 95686900000.0 76908300000.0 188861000000.0 331589000000.0 402644000000.0 255878000000.0 149994000000.0 490923000000.0 539990000000.0 471269000000.0 389234000000.0 308139000000.0 232273000000.0 14925300000.0 78298700000.0 81726900000.0 29027100000.0 38018000000.0 202349000000.0 170835000000.0 329858000000.0 292151000000.0 246417000000.0 102039000000.0 37885800000.0 65329600000.0 271003000000.0 519359000000.0 585215000000.0 610026000000.0 619820000000.0 620267000000.0 508309000000.0 411228000000.0 381093000000.0 388479000000.0 427233000000.0 514307000000.0 642388000000.0 897405000000.0 936337000000.0 982917000000.0 1.07092e+12 926434000000.0 862612000000.0 864710000000.0 830709000000.0 538255000000.0 297889000000.0 278830000000.0 357559000000.0 398911000000.0 328502000000.0 307079000000.0 97135900000.0 68354800000.0 150637000000.0 119643000000.0 4964060000.0 364538000000.0 110093000000.0 136118000000.0 733311000000.0 747422000000.0 576461000000.0 657343000000.0 707320000000.0 931361000000.0 1.03757e+12 998795000000.0 852586000000.0 569017000000.0 298013000000.0 335216000000.0 206764000000.0 156631000000.0 205213000000.0 372543000000.0 549134000000.0 428256000000.0 217736000000.0 104882000000.0 664495000000.0 557736000000.0 434148000000.0 337034000000.0 257475000000.0 188588000000.0 125245000000.0 58993300000.0 25597900000.0 44271600000.0 112132000000.0 141223000000.0 200338000000.0 251900000000.0 193301000000.0 110894000000.0 6804690000.0 35915100000.0 51320200000.0 281074000000.0 445024000000.0 547251000000.0 607856000000.0 647864000000.0 692694000000.0 768218000000.0 564793000000.0 477366000000.0 451008000000.0 452926000000.0 498374000000.0 629814000000.0 808203000000.0 858995000000.0 901817000000.0 992956000000.0 833801000000.0 852018000000.0 831089000000.0 730726000000.0 296392000000.0 14794500000.0 142692000000.0 567415000000.0 603395000000.0 28717200000.0 71100800000.0 26183300000.0 118393000000.0 43640600000.0 519734000000.0 599305000000.0 588211000000.0 749184000000.0 808761000000.0 839919000000.0 869721000000.0 764437000000.0 522928000000.0 13806200000.0 245032000000.0 449008000000.0 395208000000.0 316300000000.0 322791000000.0 417135000000.0 735032000000.0 528212000000.0 362043000000.0 203623000000.0 5986680000.0 796147000000.0 577649000000.0 418077000000.0 308311000000.0 224776000000.0 154164000000.0 85553800000.0 14922400000.0 49112500000.0 84836000000.0 85415300000.0 60176000000.0 46253300000.0 56977200000.0 97301200000.0 126613000000.0 153965000000.0 170928000000.0 148449000000.0 61656700000.0 278739000000.0 5815310000.0 190887000000.0 357087000000.0 477110000000.0 556173000000.0 607067000000.0 645569000000.0 694457000000.0 837351000000.0 528450000000.0 523532000000.0 501060000000.0 515649000000.0 617020000000.0 899673000000.0 875839000000.0 877767000000.0 890857000000.0 899938000000.0 872987000000.0 725562000000.0 783666000000.0 744936000000.0 604198000000.0 404165000000.0 68787800000.0 28128000000.0 282374000000.0 769530000000.0 61600700000.0 213318000000.0 308815000000.0 26807500000.0 57459100000.0 568310000000.0 638868000000.0 679427000000.0 703383000000.0 721293000000.0 714751000000.0 659575000000.0 13506100000.0 52763900000.0 803716000000.0 508255000000.0 479843000000.0 407320000000.0 327799000000.0 716745000000.0 485693000000.0 381628000000.0 290696000000.0 215405000000.0 123285000000.0 862747000000.0 587295000000.0 409526000000.0 289627000000.0 199971000000.0 124248000000.0 54376800000.0 11096400000.0 63967200000.0 95387900000.0 104250000000.0 102191000000.0 99748400000.0 107832000000.0 121577000000.0 131549000000.0 126978000000.0 91480400000.0 58485200000.0 141782000000.0 248383000000.0 26607400000.0 128368000000.0 277341000000.0 399062000000.0 487269000000.0 545611000000.0 499178000000.0 915399000000.0 841779000000.0 840255000000.0 848991000000.0 854913000000.0 853244000000.0 859578000000.0 626218000000.0 697245000000.0 629543000000.0 484918000000.0 310644000000.0 157375000000.0 195905000000.0 13209500000.0 187609000000.0 365191000000.0 5700380000.0 70347600000.0 74381900000.0 151804000000.0 74366300000.0 161082000000.0 590057000000.0 582245000000.0 615703000000.0 640145000000.0 643291000000.0 623664000000.0 483722000000.0 89466000000.0 58067100000.0 525363000000.0 893310000000.0 348692000000.0 362355000000.0 172030000000.0 95576400000.0 31541000000.0 26548100000.0 77675300000.0 114023000000.0 130654000000.0 133509000000.0 131047000000.0 127733000000.0 8876400000.0 130208000000.0 255725000000.0 189007000000.0 21684600000.0 92303200000.0 215875000000.0 581716000000.0 606890000000.0 651412000000.0 771374000000.0 436064000000.0 509032000000.0 487563000000.0 796898000000.0 782111000000.0 797080000000.0 812622000000.0 827440000000.0 845182000000.0 829386000000.0 731266000000.0 609492000000.0 543734000000.0 416470000000.0 228825000000.0 55498700000.0 105765000000.0 94132000000.0 216141000000.0 489646000000.0 11476600000.0 32426900000.0 26160500000.0 35592800000.0 122404000000.0 474035000000.0 521310000000.0 558566000000.0 589928000000.0 600572000000.0 567062000000.0 452411000000.0 186274000000.0 58371500000.0 395649000000.0 706655000000.0 238513000000.0 624685000000.0 468898000000.0 362724000000.0 303333000000.0 261692000000.0 251707000000.0 257724000000.0 859321000000.0 575684000000.0 398108000000.0 271585000000.0 100838000000.0 137069000000.0 121898000000.0 101209000000.0 50912400000.0 43853400000.0 197922000000.0 368197000000.0 108826000000.0 4236660000.0 327997000000.0 417538000000.0 481624000000.0 523498000000.0 551037000000.0 579934000000.0 633136000000.0 663028000000.0 407986000000.0 443602000000.0 349612000000.0 868816000000.0 752090000000.0 777586000000.0 818046000000.0 848757000000.0 777485000000.0 626923000000.0 554197000000.0 451555000000.0 297978000000.0 75335300000.0 220487000000.0 5086440000.0 138934000000.0 278062000000.0 187402000000.0 470411000000.0 516335000000.0 577104000000.0 520172000000.0 434091000000.0 280966000000.0 22281500000.0 312274000000.0 570067000000.0 877962000000.0 274295000000.0 268195000000.0 478658000000.0 466614000000.0 368163000000.0 299552000000.0 263919000000.0 256051000000.0 291729000000.0 371791000000.0 796075000000.0 542934000000.0 385677000000.0 236812000000.0 130164000000.0 65800400000.0 13676700000.0 43834900000.0 150459000000.0 148827000000.0 138432000000.0 119589000000.0 85335300000.0 22708600000.0 84116600000.0 253605000000.0 462947000000.0 78354900000.0 173430000000.0 269379000000.0 353231000000.0 418864000000.0 465980000000.0 499371000000.0 529591000000.0 570862000000.0 614342000000.0 548936000000.0 458960000000.0 303112000000.0 804900000000.0 773002000000.0 731476000000.0 735550000000.0 730890000000.0 773744000000.0 796331000000.0 688287000000.0 526248000000.0 516463000000.0 534459000000.0 69502200000.0 120721000000.0 14956500000.0 87307100000.0 80964200000.0 125131000000.0 443553000000.0 554736000000.0 577494000000.0 569918000000.0 513708000000.0 437968000000.0 357438000000.0 22159600000.0 231669000000.0 749681000000.0 732915000000.0 91177100000.0 371633000000.0 469312000000.0 385049000000.0 303378000000.0 251291000000.0 230951000000.0 245792000000.0 311051000000.0 453628000000.0 695095000000.0 515042000000.0 352182000000.0 162030000000.0 65825700000.0 38603500000.0 5364660000.0 79233200000.0 130173000000.0 152352000000.0 156031000000.0 144189000000.0 118444000000.0 75061400000.0 3360180000.0 112366000000.0 291874000000.0 530053000000.0 18616100000.0 43166800000.0 81967100000.0 147755000000.0 224003000000.0 297316000000.0 359612000000.0 407343000000.0 442112000000.0 470899000000.0 503029000000.0 540670000000.0 565466000000.0 455868000000.0 193775000000.0 620033000000.0 771131000000.0 693080000000.0 676693000000.0 675964000000.0 694208000000.0 718433000000.0 675268000000.0 593114000000.0 456420000000.0 478604000000.0 455074000000.0 351868000000.0 157197000000.0 22805100000.0 97127900000.0 26806300000.0 36060800000.0 510985000000.0 551996000000.0 570321000000.0 543974000000.0 469511000000.0 408943000000.0 433917000000.0 636378000000.0 823187000000.0 822662000000.0 292072000000.0 349062000000.0 334547000000.0 191678000000.0 208732000000.0 261966000000.0 395893000000.0 504733000000.0 426279000000.0 296432000000.0 16697700000.0 21228400000.0 20458000000.0 61380300000.0 121399000000.0 144252000000.0 151878000000.0 141501000000.0 113316000000.0 65592300000.0 10051900000.0 129004000000.0 69817300000.0 84736000000.0 94100100000.0 133978000000.0 190642000000.0 250863000000.0 305841000000.0 350545000000.0 383332000000.0 380757000000.0 920292000000.0 762477000000.0 646458000000.0 583601000000.0 582365000000.0 619417000000.0 670545000000.0 515789000000.0 391018000000.0 436678000000.0 383672000000.0 281458000000.0 107245000000.0 35601700000.0 12149700000.0 20715100000.0 403585000000.0 497314000000.0 548803000000.0 539493000000.0 537351000000.0 61752200000.0 142219000000.0 210035000000.0 200975000000.0 60104800000.0 110591000000.0 281564000000.0 231708000000.0 201180000000.0 120756000000.0 68009000000.0 114367000000.0 122762000000.0 135796000000.0 129481000000.0 311107000000.0 562399000000.0 123872000000.0 109592000000.0 126267000000.0 164062000000.0 405760000000.0 421053000000.0 428782000000.0 420136000000.0 376573000000.0 755963000000.0 265161000000.0 374269000000.0 457071000000.0 539427000000.0 618042000000.0 626964000000.0 559049000000.0 312871000000.0 372400000000.0 284474000000.0 138696000000.0 85508600000.0 36891200000.0 14048600000.0 36278900000.0 414916000000.0 509205000000.0 444463000000.0 105692000000.0 116383000000.0 143910000000.0 140878000000.0 92287200000.0 140348000000.0 509234000000.0 129444000000.0 102054000000.0 180944000000.0 184904000000.0 167192000000.0 152314000000.0 151816000000.0 174844000000.0 241171000000.0 334166000000.0 395300000000.0 380074000000.0 298679000000.0 247708000000.0 101654000000.0 52507800000.0 21880600000.0 134609000000.0 308395000000.0 557386000000.0 146788000000.0 211569000000.0 258916000000.0 299439000000.0 329029000000.0 346164000000.0 349279000000.0 332408000000.0 280286000000.0 161991000000.0 44729000000.0 438718000000.0 187833000000.0 198311000000.0 72225700000.0 93092100000.0 276062000000.0 374143000000.0 474076000000.0 549279000000.0 513027000000.0 470908000000.0 443207000000.0 167181000000.0 121151000000.0 65138500000.0 46831900000.0 31588600000.0 5701040000.0 313157000000.0 454271000000.0 474811000000.0 472988000000.0 139961000000.0 125253000000.0 136657000000.0 143401000000.0 67841500000.0 139730000000.0 32005300000.0 140295000000.0 14153900000.0 92166200000.0 135289000000.0 137536000000.0 126175000000.0 116459000000.0 120478000000.0 149802000000.0 203420000000.0 268130000000.0 328913000000.0 404058000000.0 536820000000.0 439521000000.0 22231700000.0 39072100000.0 94124000000.0 105883000000.0 84114600000.0 36903600000.0 35088600000.0 137916000000.0 287432000000.0 516265000000.0 207039000000.0 150832000000.0 118645000000.0 119388000000.0 142655000000.0 178075000000.0 217045000000.0 253081000000.0 281252000000.0 297929000000.0 300065000000.0 282587000000.0 236208000000.0 147868000000.0 16252800000.0 144413000000.0 37367300000.0 91768000000.0 28171600000.0 9629880000.0 74452800000.0 178901000000.0 320723000000.0 442790000000.0 471377000000.0 427217000000.0 408327000000.0 364378000000.0 252284000000.0 296691000000.0 76300800000.0 41958900000.0 8921740000.0 343341000000.0 389590000000.0 476261000000.0 339185000000.0 201134000000.0 174926000000.0 153308000000.0 194744000000.0 260999000000.0 248692000000.0 160719000000.0 72718000000.0 90306900000.0 117372000000.0 123450000000.0 111827000000.0 96050400000.0 87001300000.0 92024500000.0 112239000000.0 142685000000.0 174329000000.0 195981000000.0 205462000000.0 345303000000.0 546422000000.0 108475000000.0 28471200000.0 53475600000.0 80760000000.0 65750600000.0 22600500000.0 45145100000.0 138933000000.0 263580000000.0 442717000000.0 245521000000.0 160602000000.0 116927000000.0 105555000000.0 117504000000.0 144369000000.0 177911000000.0 210911000000.0 238270000000.0 256436000000.0 262689000000.0 254167000000.0 226264000000.0 174479000000.0 198579000000.0 208722000000.0 133302000000.0 89553600000.0 101111000000.0 144767000000.0 215317000000.0 382164000000.0 370342000000.0 335334000000.0 290268000000.0 198290000000.0 204418000000.0 142899000000.0 11469400000.0 72755300000.0 92500800000.0 353131000000.0 376094000000.0 446978000000.0 288566000000.0 153596000000.0 169658000000.0 242748000000.0 352696000000.0 371553000000.0 115954000000.0 192971000000.0 517700000000.0 236654000000.0 346279000000.0 25105700000.0 52107400000.0 47317900000.0 11710600000.0 87881600000.0 109770000000.0 138676000000.0 168765000000.0 103742000000.0 39098800000.0 91614900000.0 201336000000.0 140709000000.0 117679000000.0 107492000000.0 156592000000.0 291740000000.0 408004000000.0 263785000000.0 220564000000.0 140380000000.0 157605000000.0 79741600000.0 49249300000.0 8544240000.0 18829400000.0 8362770000.0 376938000000.0 366483000000.0 387408000000.0 147964000000.0 154739000000.0 138973000000.0 325103000000.0 262987000000.0 172786000000.0 145672000000.0 132864000000.0 115995000000.0 94139100000.0 73609100000.0 61548300000.0 61127700000.0 69858800000.0 85380100000.0 44666200000.0 121123000000.0 217898000000.0 324577000000.0 221755000000.0 127896000000.0 89369500000.0 79045200000.0 195683000000.0 216424000000.0 228572000000.0 230246000000.0 220194000000.0 198053000000.0 168189000000.0 148375000000.0 189384000000.0 253356000000.0 283811000000.0 269504000000.0 124388000000.0 34771600000.0 96088500000.0 323405000000.0 351241000000.0 326843000000.0 309517000000.0 115841000000.0 111112000000.0 74405700000.0 28941600000.0 16968700000.0 21238200000.0 283433000000.0 287196000000.0 396030000000.0 99404500000.0 114996000000.0 192825000000.0 300239000000.0 335708000000.0 307013000000.0 275311000000.0 237902000000.0 190088000000.0 159921000000.0 137187000000.0 110482000000.0 79432700000.0 53789800000.0 39649700000.0 35009800000.0 35699600000.0 45530100000.0 89996100000.0 204510000000.0 255462000000.0 697753000000.0 372040000000.0 171187000000.0 105189000000.0 47118000000.0 3802370000.0 41023600000.0 94492000000.0 157370000000.0 206686000000.0 159031000000.0 85503300000.0 50933200000.0 42592200000.0 49741100000.0 68603400000.0 95228900000.0 124820000000.0 152319000000.0 174689000000.0 191031000000.0 200982000000.0 204836000000.0 203615000000.0 200867000000.0 205253000000.0 238912000000.0 315793000000.0 350350000000.0 367724000000.0 322090000000.0 226130000000.0 163490000000.0 129073000000.0 283524000000.0 292533000000.0 278513000000.0 242436000000.0 205227000000.0 163982000000.0 21276300000.0 6468820000.0 5447150000.0 44019600000.0 320630000000.0 200895000000.0 160937000000.0 227333000000.0 362639000000.0 51034900000.0 110753000000.0 207900000000.0 285048000000.0 264541000000.0 264352000000.0 230421000000.0 212692000000.0 184133000000.0 160062000000.0 134381000000.0 104346000000.0 69183400000.0 42814400000.0 30127600000.0 25852100000.0 28723500000.0 56569800000.0 186681000000.0 419701000000.0 219982000000.0 227613000000.0 17456700000.0 19859800000.0 34718900000.0 55194900000.0 78581900000.0 110470000000.0 130814000000.0 108990000000.0 58560800000.0 17777300000.0 1827260000.0 5322230000.0 21759500000.0 47661400000.0 77395700000.0 105637000000.0 129059000000.0 147947000000.0 162967000000.0 175382000000.0 186806000000.0 200315000000.0 219533000000.0 245929000000.0 275597000000.0 307923000000.0 321098000000.0 319822000000.0 275948000000.0 211043000000.0 192396000000.0 125772000000.0 57160200000.0 182443000000.0 257981000000.0 241883000000.0 193264000000.0 162529000000.0 141059000000.0 118498000000.0 44236400000.0 79647500000.0 34227400000.0 14464900000.0 6736270000.0 87268400000.0 168945000000.0 45350000000.0 40027800000.0 128418000000.0 88324500000.0 91099400000.0 216400000000.0 231639000000.0 216804000000.0 216865000000.0 37804000000.0 38663600000.0 36987000000.0 57667900000.0 199177000000.0 7224390000.0 131937000000.0 52739000.0 84425900000.0 91421900000.0 89042900000.0 74897100000.0 83361700000.0 26615700000.0 8022880000.0 32342800000.0 38117500000.0 27530100000.0 5082810000.0 23820800000.0 52925600000.0 77278700000.0 97722700000.0 243694000000.0 187835000000.0 186569000000.0 138999000000.0 36498800000.0 65005000000.0 166148000000.0 145301000000.0 153902000000.0 131112000000.0 53760100000.0 62070300000.0 52266300000.0 15017900000.0 9035730000.0 60871500000.0 72138200000.0 328402000000.0 197317000000.0 184449000000.0 163555000000.0 148589000000.0 132088000000.0 112810000000.0 72332000000.0 41682700000.0 77466100000.0 80310500000.0 61595700000.0 115393000000.0 132844000000.0 150718000000.0 171531000000.0 197067000000.0 225667000000.0 233452000000.0 256685000000.0 261365000000.0 266366000000.0 278294000000.0 197273000000.0 13498000000.0 36562700000.0 17287900000.0 93360800000.0 131252000000.0 143294000000.0 199339000000.0 266297000000.0 399255000000.0 7119680000.0 35317100000.0 80117700000.0 179441000000.0 185900000000.0 174219000000.0 168075000000.0 164130000000.0 159767000000.0 142831000000.0 138310000000.0 140656000000.0 143757000000.0 86668200000.0 67540700000.0 74583300000.0 67684200000.0 54344200000.0 13703100000.0 208447000000.0 306381000000.0 35442100000.0 137000000000.0 151385000000.0 144828000000.0 66399200000.0 71113700000.0 45301000000.0 22606900000.0 11202100000.0 35979700000.0 62978600000.0 76096600000.0 78582000000.0 63978000000.0 38410200000.0 7013350000.0 17058500000.0 39166400000.0 57408900000.0 78663700000.0 100336000000.0 124450000000.0 150109000000.0 176865000000.0 187701000000.0 198660000000.0 197358000000.0 205842000000.0 193785000000.0 129804000000.0 128717000000.0 122280000000.0 64573900000.0 23203200000.0 11089500000.0 221235000000.0 220526000000.0 64881800000.0 23303600000.0 43801700000.0 24363600000.0 21663600000.0 9035750000.0 22450100000.0 34669900000.0 40981000000.0 36467900000.0 60969900000.0 57969600000.0 98999700000.0 77175400000.0 29163800000.0 61509500000.0 102984000000.0 199383000000.0 202189000000.0 166313000000.0 140515000000.0 136736000000.0 129151000000.0 124109000000.0 127239000000.0 140356000000.0 150106000000.0 89140800000.0 116574000000.0 116708000000.0 131876000000.0 130174000000.0 2512500000.0 66652700000.0 44869000000.0 21919300000.0 108234000000.0 159367000000.0 21505500000.0 62442400000.0 12834300000.0 8098320000.0 53213600000.0 64413200000.0 94344800000.0 115294000000.0 127093000000.0 130240000000.0 111025000000.0 78583900000.0 55592100000.0 31141700000.0 12539300000.0 13784000000.0 39681600000.0 69160600000.0 94272800000.0 119785000000.0 137421000000.0 152375000000.0 136740000000.0 141469000000.0 139664000000.0 86439800000.0 80508400000.0 76330000000.0 50227200000.0 25659800000.0 51882900000.0 35940100000.0 290875000000.0 156570000000.0 80481200000.0 7999450000.0 35783400000.0 62073300000.0 75877600000.0 72832200000.0 18991500000.0 53986600000.0 225178000000.0 58262200000.0 101941000000.0 6639080000.0 38715600000.0 61406100000.0 71731300000.0 98973000000.0 107769000000.0 64770900000.0 26794700000.0 219347000000.0 83379900000.0 335810000000.0 303807000000.0 208173000000.0 145770000000.0 109925000000.0 52575700000.0 868800000.0 80212000000.0 116787000000.0 128321000000.0 144189000000.0 149064000000.0 135895000000.0 117069000000.0 134315000000.0 145547000000.0 156917000000.0 67034400000.0 100128000000.0 107423000000.0 160116000000.0 125379000000.0 36415400000.0 78596900000.0 1608000000.0 105828000000.0 69365200000.0 131772000000.0 146441000000.0 189126000000.0 177539000000.0 202163000000.0 142856000000.0 151591000000.0 97168500000.0 47967900000.0 23376600000.0 23012800000.0 49402600000.0 78701800000.0 95472100000.0 116336000000.0 89693900000.0 89449000000.0 81053900000.0 17315200000.0 14777800000.0 59926100000.0 80821300000.0 87140200000.0 99788600000.0 29620200000.0 4485770000.0 338035000000.0 230671000000.0 161040000000.0 96539300000.0 38887600000.0 17108900000.0 31831000000.0 31870500000.0 4645970000.0 9035750000.0 9035750000.0 9189260000.0 19644500000.0 13550400000.0 12194200000.0 60435400000.0 123092000000.0 174174000000.0 112499000000.0 171444000000.0 88568800000.0 44526400000.0 29427400000.0 64317300000.0 91130000000.0 117731000000.0 110191000000.0 100845000000.0 97249000000.0 78258800000.0 68733500000.0 60782500000.0 43684500000.0 5875890000.0 40344900000.0 105237000000.0 31116300000.0 25502700000.0 33371400000.0 82462500000.0 171244000000.0 114022000000.0 253355000000.0 65500300000.0 156127000000.0 51429900000.0 136606000000.0 104971000000.0 136120000000.0 126058000000.0 162829000000.0 152669000000.0 199500000000.0 143760000000.0 150269000000.0 98614700000.0 99483700000.0 65909800000.0 60551800000.0 31959700000.0 18316400000.0 2004500000.0 20790900000.0 63535700000.0 55822700000.0 61564700000.0 57300800000.0 20268300000.0 26069900000.0 630185000.0 30654600000.0 58058000000.0 87129100000.0 103866000000.0 127863000000.0 48893100000.0 236366000000.0 152386000000.0 110971000000.0 63452000000.0 47008200000.0 9035750000.0 9035750000.0 9035750000.0 72624800000.0 7392020000.0 4068780000.0 1046120000.0 8770900000.0 4609180000.0 238947000.0 41707300000.0 138294000000.0 316217000000.0 270350000000.0 28450900000.0 114108000000.0 146635000000.0 162467000000.0 128448000000.0 97895300000.0 71840800000.0 68644900000.0 63749800000.0 51973900000.0 47779900000.0 27593500000.0 7734050000.0 5427080000.0 26943100000.0 73492500000.0 96575700000.0 178493000000.0 46840900000.0 16815800000.0 130912000000.0 29153600000.0 167213000000.0 58966000000.0 161272000000.0 79330700000.0 130289000000.0 82545800000.0 83619000000.0 41369000000.0 44190000000.0 2281810000.0 3980740000.0 69635800000.0 48706900000.0 74919300000.0 37075800000.0 43943700000.0 19478400000.0 21660100000.0 3393160000.0 4543150000.0 14903600000.0 22050200000.0 57495100000.0 51871500000.0 56982400000.0 73405800000.0 53395200000.0 66966900000.0 57080000000.0 42664300000.0 25970200000.0 11316100000.0 2562830000.0 137603000000.0 180475000000.0 30083800000.0 31088300000.0 84449800000.0 69346100000.0 70542700000.0 38218000000.0 6705370000.0 5735640000.0 982162000.0 7813110000.0 4971400000.0 10736200000.0 19461600000.0 8348190000.0 77160800000.0 213555000000.0 146647000000.0 61419100000.0 2279800000.0 17980100000.0 39777800000.0 25254500000.0 5975050000.0 16460600000.0 32464900000.0 42173700000.0 55158600000.0 58996300000.0 70325500000.0 79416400000.0 64490700000.0 54692500000.0 66443000000.0 64045000000.0 123686000000.0 63342100000.0 123385000000.0 70332000000.0 79181500000.0 59922200000.0 11928300000.0 84170500000.0 13315000000.0 59469200000.0 15127100000.0 25571200000.0 4669720000.0 20085500000.0 7345520000.0 13310200000.0 17142300000.0 42703000000.0 23297700000.0 64304000000.0 41122300000.0 61497300000.0 50299100000.0 66690300000.0 63998200000.0 70978300000.0 78061500000.0 82888000000.0 58336200000.0 60906900000.0 49648100000.0 30266600000.0 31417200000.0 936835000.0 9847570000.0 17010500000.0 24941600000.0 33620500000.0 41936700000.0 126499000000.0 216830000000.0 140546000000.0 95105000000.0 40979100000.0 36025700000.0 9062230000.0 9035750000.0 9035750000.0 9089800000.0 9045440000.0 9255250000.0 18836900000.0 23731500000.0 27259600000.0 62877000000.0 129909000000.0 250951000000.0 177248000000.0 13776500000.0 80516900000.0 102707000000.0 123936000000.0 110390000000.0 87984200000.0 67481700000.0 52739700000.0 47059300000.0 42627200000.0 44494900000.0 40667300000.0 45082500000.0 61825500000.0 60597400000.0 41269000000.0 39824400000.0 5506570000.0 33178800000.0 22650000000.0 121104000000.0 23084700000.0 57474000000.0 59730300000.0 7756410000.0 55557000000.0 16017000000.0 41207200000.0 25261300000.0 31274600000.0 6822230000.0 20940100000.0 7374270000.0 10516900000.0 50512300000.0 35718900000.0 77215000000.0 54321500000.0 72785800000.0 60775200000.0 74614300000.0 69248500000.0 73277900000.0 76679200000.0 74433700000.0 52772100000.0 52259200000.0 41097100000.0 32677200000.0 35193800000.0 8201910000.0 6239470000.0 7092280000.0 7951550000.0 8682930000.0 11250800000.0 173308000000.0 196251000000.0 107575000000.0 63685300000.0 30501400000.0 24835300000.0 3065920000.0 5506720000.0 7870900000.0 9074090000.0 9042580000.0 9491830000.0 17724400000.0 24120800000.0 30050400000.0 62373700000.0 116702000000.0 209324000000.0 139399000000.0 6260500000.0 57381100000.0 76943300000.0 96671200000.0 90243100000.0 72318000000.0 55033800000.0 40872100000.0 30921500000.0 22164400000.0 19432700000.0 12651500000.0 20687100000.0 33538800000.0 35083500000.0 16158900000.0 14578300000.0 21741600000.0 18518900000.0 14391700000.0 143225000000.0 52616700000.0 9969790000.0 29195900000.0 53358800000.0 23047300000.0 41285300000.0 21945500000.0 24347900000.0 14016100000.0 28804300000.0 10761200000.0 29958600000.0 9692680000.0 60368600000.0 44560500000.0 83138900000.0 61407000000.0 77882600000.0 66551500000.0 79271700000.0 74546200000.0 78529400000.0 82244700000.0 77467700000.0 58308300000.0 54492100000.0 42629900000.0 38752400000.0 38536000000.0 11137700000.0 8195860000.0 7930170000.0 7601130000.0 7110450000.0 11010300000.0 167132000000.0 173456000000.0 101618000000.0 62201700000.0 41608100000.0 30453900000.0 9035780000.0 9035750000.0 9044290000.0 9060910000.0 9040470000.0 9642640000.0 16404500000.0 23636200000.0 30950400000.0 59112400000.0 105215000000.0 177874000000.0 116531000000.0 12613800000.0 55211700000.0 74853100000.0 93423300000.0 92290400000.0 78265500000.0 64952400000.0 53888800000.0 45076300000.0 38840400000.0 37809700000.0 34164400000.0 48120500000.0 58173000000.0 59729500000.0 42675600000.0 43004300000.0 15964100000.0 9035750000.0 28487100000.0 141086000000.0 24357300000.0 3784510000.0 18396900000.0 36850700000.0 16911600000.0 33718900000.0 20063700000.0 22727800000.0 13781100000.0 26677300000.0 10868700000.0 27180200000.0 9708910000.0 53798400000.0 39759600000.0 76490000000.0 57327700000.0 72779000000.0 63036200000.0 74941900000.0 70895900000.0 74593000000.0 77804400000.0 71242200000.0 54611700000.0 49324000000.0 38334900000.0 37953500000.0 36500600000.0 11123100000.0 9039390000.0 9036910000.0 9092200000.0 9038030000.0 14820500000.0 156074000000.0 143494000000.0 83110100000.0 50538800000.0 40067000000.0 27415000000.0 9035830000.0 9035760000.0 9043230000.0 9050850000.0 9038590000.0 9712730000.0 15055800000.0 22447100000.0 30686300000.0 54902400000.0 93385200000.0 145291000000.0 92589000000.0 11549900000.0 44661500000.0 63028700000.0 78507900000.0 80417400000.0 69839900000.0 59638800000.0 50724000000.0 42568700000.0 36610000000.0 34686000000.0 31662200000.0 45815500000.0 52477500000.0 54105300000.0 38100800000.0 39625500000.0 15759500000.0 9035750000.0 132260000000.0 34054000000.0 9035750000.0 26499700000.0 34516800000.0 19853000000.0 30507500000.0 18181800000.0 20802200000.0 13404300000.0 24263000000.0 10752400000.0 24123100000.0 9659970000.0 46656900000.0 34518500000.0 67982300000.0 51620300000.0 65591700000.0 57447900000.0 68177800000.0 64805900000.0 68156600000.0 70904900000.0 63699300000.0 49533000000.0 43669900000.0 33978800000.0 35810400000.0 33367400000.0 10498300000.0 9041220000.0 9038750000.0 9084300000.0 9041650000.0 15535200000.0 139989000000.0 117668000000.0 67478900000.0 42351000000.0 37129100000.0 24291000000.0 9035870000.0 9035760000.0 9042150000.0 24555700000.0 9044310000.0 9037070000.0 9707200000.0 13769100000.0 20690400000.0 28797300000.0 48466300000.0 80271300000.0 115432000000.0 72436700000.0 10720900000.0 35661100000.0 52068600000.0 64319000000.0 67728500000.0 60025500000.0 52462800000.0 45540000000.0 38659900000.0 33401600000.0 31347300000.0 29208700000.0 41477600000.0 45693200000.0 47198400000.0 33170500000.0 35176800000.0 14979000000.0 9035750000.0 24405600000.0 113679000000.0 26111800000.0 9035750000.0 23600300000.0 27568800000.0 17868900000.0 25454900000.0 16356000000.0 18752400000.0 12941700000.0 21624300000.0 10510400000.0 21059700000.0 9580250000.0 39380600000.0 29283000000.0 58254600000.0 44809200000.0 56870900000.0 50291200000.0 59525800000.0 56802900000.0 59671800000.0 61878000000.0 54894200000.0 43216400000.0 37556700000.0 29535300000.0 32470900000.0 29623500000.0 9969400000.0 9041990000.0 9040010000.0 9075920000.0 9044080000.0 15521300000.0 120234000000.0 94042900000.0 53310500000.0 36055000000.0 33124200000.0 21218800000.0 9035890000.0 9035760000.0 9041050000.0 9040360000.0 9036320000.0 9633810000.0 12574800000.0 18502100000.0 25666700000.0 40767000000.0 66069700000.0 88465600000.0 55210900000.0 10135200000.0 28078900000.0 41720900000.0 50918400000.0 54649800000.0 49289400000.0 43921400000.0 38827600000.0 33461000000.0 29147400000.0 27353700000.0 25967300000.0 35581400000.0 38147500000.0 39434300000.0 28015800000.0 30032000000.0 13927700000.0 9035750000.0 93228400000.0 21233100000.0 9035750000.0 20436500000.0 21902100000.0 15882400000.0 20895200000.0 14610500000.0 16640500000.0 12340000000.0 18845900000.0 10239000000.0 18103400000.0 9478580000.0 32217600000.0 24266800000.0 47747700000.0 37279900000.0 47053900000.0 41996900000.0 49457900000.0 47366700000.0 49677000000.0 51351000000.0 45275200000.0 36133800000.0 31245600000.0 25152900000.0 28168900000.0 25433800000.0 9585040000.0 9041810000.0 9040420000.0 9067220000.0 9044850000.0 14839500000.0 97824600000.0 72741700000.0 41123400000.0 30429400000.0 28365000000.0 18277600000.0 9035890000.0 9035760000.0 9039910000.0 21291000000.0 9038020000.0 9036050000.0 9503190000.0 11473200000.0 15988700000.0 21543500000.0 32162900000.0 50627600000.0 63841200000.0 40237300000.0 9721320000.0 21687200000.0 31867100000.0 38235500000.0 41438200000.0 37968300000.0 34423400000.0 30971600000.0 27170600000.0 23994800000.0 22630700000.0 21806500000.0 28600800000.0 30067200000.0 31046100000.0 22665000000.0 24337900000.0 12662600000.0 9035750000.0 17878700000.0 70205400000.0 16793300000.0 9035750000.0 17168100000.0 17371500000.0 13877600000.0 16918600000.0 12940000000.0 14476500000.0 11557600000.0 16007400000.0 9942600000.0 15309100000.0 9361290000.0 25276900000.0 19559200000.0 36777900000.0 29319600000.0 36493700000.0 32925100000.0 38388500000.0 36915600000.0 38604700000.0 39768800000.0 35110500000.0 28563500000.0 24842800000.0 20702900000.0 23127500000.0 20909700000.0 9324650000.0 9040790000.0 9039920000.0 9058330000.0 9043780000.0 13588600000.0 73457000000.0 53181100000.0 30600400000.0 24623400000.0 23093400000.0 15482000000.0 9035860000.0 9035760000.0 9038730000.0 9036720000.0 9035920000.0 9329440000.0 10447900000.0 13242800000.0 26897700000.0 9406920000.0 16185700000.0 22404000000.0 26114200000.0 28219700000.0 21629300000.0 22234900000.0 17168100000.0 18251200000.0 11243100000.0 9035750000.0 45806500000.0 9035750000.0 13865300000.0 13664400000.0 13476000000.0 12274300000.0 10604000000.0 13160000000.0 9599810000.0 12678500000.0 9232870000.0 18560200000.0 15143500000.0 25553800000.0 21125600000.0 25467500000.0 23362200000.0 26664000000.0 25796900000.0 9162040000.0 9039050000.0 9038590000.0 9049230000.0 9041130000.0 11904300000.0 47733800000.0 17487300000.0 12806800000.0 9035830000.0 9035760000.0 9037530000.0 16712700000.0 22956700000.0 34123100000.0 40880000000.0 26297800000.0 24301800000.0 22327000000.0 20084600000.0 18166000000.0 17319200000.0 16895700000.0 20894300000.0 14339900000.0 13280400000.0 11885900000.0 11326600000.0 26817100000.0 27495700000.0 24604900000.0 20703400000.0 18407400000.0 16062500000.0 17573400000.0 16155800000.0 34784000000.0 21309500000.0 18443800000.0 9036000000.0 9035800000.0 9129390000.0 9471880000.0 10359500000.0 11465400000.0 13407200000.0 16924600000.0 18901900000.0 14538500000.0 9146460000.0 11226000000.0 13190900000.0 14341700000.0 15024900000.0 14440700000.0 13829700000.0 13221300000.0 12522200000.0 11918800000.0 11649500000.0 11525500000.0 12770400000.0 12983700000.0 13175900000.0 11581500000.0 11930600000.0 9731760000.0 9035750000.0 10700000000.0 20582700000.0 10320500000.0 9035750000.0 10545000000.0 10443000000.0 9922470000.0 10392200000.0 9748120000.0 10047700000.0 9535090000.0 10320300000.0 9215110000.0 10163700000.0 9097760000.0 11998500000.0 10927900000.0 14204300000.0 12820300000.0 14187000000.0 13530500000.0 14569200000.0 14299100000.0 14620100000.0 14831000000.0 13912300000.0 12691000000.0 11963100000.0 11244400000.0 11724400000.0 11269600000.0 9068440000.0 9036820000.0 9036680000.0 9039970000.0 9037480000.0 9951210000.0 21183400000.0 17029800000.0 12795100000.0 11994100000.0 11689100000.0 10207600000.0 9035780000.0 9035750000.0 9036310000.0 