# vtk DataFile Version 2.0
Time step 64
ASCII
DATASET UNSTRUCTURED_GRID
POINTS 5000 float
207175.0 236126.0 0
297780.0 235775.0 0
201579.0 237022.0 0
205031.0 240067.0 0
214500.0 236653.0 0
208115.0 239736.0 0
222335.0 238744.0 0
229292.0 237978.0 0
233131.0 236512.0 0
233181.0 239884.0 0
237858.0 239378.0 0
243547.0 240442.0 0
256249.0 240085.0 0
266169.0 241013.0 0
270981.0 238122.0 0
277707.0 236573.0 0
285704.0 239803.0 0
291413.0 238132.0 0
297649.0 241096.0 0
201110.0 242074.0 0
207261.0 243870.0 0
211449.0 241250.0 0
214245.0 245467.0 0
217705.0 241456.0 0
222534.0 244220.0 0
226290.0 241268.0 0
230215.0 242617.0 0
234856.0 244089.0 0
239924.0 245204.0 0
250109.0 241712.0 0
245084.0 245778.0 0
257797.0 244563.0 0
261196.0 241864.0 0
263816.0 245248.0 0
268161.0 245880.0 0
274936.0 242039.0 0
270483.0 242637.0 0
280426.0 242054.0 0
277696.0 246114.0 0
284290.0 244469.0 0
281473.0 246056.0 0
288040.0 244170.0 0
292759.0 243803.0 0
202891.0 247080.0 0
209846.0 248339.0 0
218630.0 247677.0 0
214605.0 250756.0 0
223472.0 249819.0 0
227586.0 246392.0 0
231967.0 247983.0 0
236489.0 248953.0 0
241637.0 250388.0 0
249838.0 247101.0 0
247175.0 250345.0 0
253852.0 246481.0 0
251938.0 250706.0 0
256635.0 250548.0 0
260516.0 247881.0 0
265133.0 250017.0 0
269737.0 249723.0 0
272956.0 246914.0 0
276271.0 249965.0 0
280554.0 249768.0 0
285309.0 248585.0 0
289400.0 247545.0 0
292994.0 248990.0 0
298189.0 247171.0 0
201898.0 251584.0 0
202762.0 255824.0 0
206088.0 251764.0 0
210716.0 255079.0 0
219140.0 252264.0 0
223065.0 255573.0 0
228681.0 251555.0 0
227259.0 255390.0 0
233443.0 252303.0 0
230959.0 255998.0 0
237475.0 253483.0 0
249607.0 254850.0 0
244953.0 254566.0 0
254294.0 254925.0 0
258838.0 256166.0 0
260843.0 252199.0 0
264452.0 256171.0 0
268552.0 253281.0 0
272907.0 252711.0 0
270585.0 255623.0 0
278058.0 254710.0 0
283846.0 253726.0 0
289155.0 251844.0 0
287774.0 256101.0 0
291312.0 255505.0 0
296210.0 253856.0 0
202050.0 260204.0 0
206753.0 259501.0 0
212033.0 260814.0 0
216924.0 257259.0 0
221767.0 260813.0 0
227104.0 259656.0 0
232799.0 260658.0 0
235029.0 256538.0 0
237283.0 259589.0 0
240891.0 257020.0 0
243814.0 261513.0 0
240811.0 261456.0 0
246795.0 259151.0 0
251626.0 259082.0 0
255691.0 258846.0 0
259611.0 261460.0 0
269249.0 258289.0 0
273474.0 257360.0 0
271912.0 261465.0 0
277660.0 260990.0 0
282313.0 258363.0 0
290301.0 258830.0 0
286277.0 259969.0 0
293698.0 258741.0 0
297553.0 259654.0 0
202031.0 263819.0 0
206820.0 265171.0 0
212512.0 266204.0 0
216876.0 263070.0 0
220913.0 265214.0 0
229570.0 263736.0 0
225464.0 265158.0 0
232593.0 265164.0 0
237242.0 264640.0 0
242825.0 265487.0 0
246497.0 263352.0 0
248011.0 266660.0 0
254387.0 262641.0 0
250242.0 263424.0 0
256912.0 265915.0 0
265887.0 262527.0 0
270327.0 265620.0 0
274525.0 265335.0 0
280463.0 264841.0 0
277950.0 265883.0 0
282832.0 262448.0 0
290586.0 262764.0 0
286469.0 263819.0 0
294460.0 262188.0 0
294029.0 266659.0 0
297854.0 263979.0 0
202299.0 267720.0 0
201938.0 271625.0 0
205536.0 270477.0 0
209362.0 269539.0 0
212953.0 271733.0 0
217643.0 269182.0 0
222562.0 268643.0 0
226283.0 270532.0 0
229790.0 267589.0 0
234128.0 269024.0 0
239636.0 270359.0 0
245006.0 270055.0 0
249184.0 270156.0 0
252528.0 267534.0 0
257228.0 270899.0 0
261499.0 266919.0 0
265945.0 268154.0 0
269271.0 268781.0 0
273020.0 269658.0 0
276549.0 268347.0 0
279679.0 268510.0 0
283635.0 266881.0 0
289077.0 266840.0 0
286590.0 270136.0 0
291076.0 271030.0 0
295340.0 270964.0 0
298375.0 267525.0 0
298499.0 270411.0 0
201646.0 274643.0 0
208599.0 274181.0 0
204561.0 274637.0 0
212623.0 275889.0 0
216917.0 275497.0 0
221776.0 272967.0 0
225775.0 275430.0 0
230641.0 271923.0 0
235187.0 273785.0 0
239221.0 275433.0 0
243311.0 274624.0 0
247617.0 274237.0 0
252408.0 272991.0 0
259658.0 274696.0 0
255990.0 276697.0 0
262950.0 272107.0 0
265107.0 276321.0 0
268228.0 272626.0 0
272985.0 273999.0 0
277365.0 272412.0 0
282379.0 271948.0 0
282659.0 276359.0 0
287182.0 274667.0 0
293548.0 274922.0 0
297874.0 273780.0 0
202344.0 277975.0 0
205764.0 278935.0 0
209769.0 278965.0 0
213807.0 278947.0 0
217073.0 281174.0 0
221508.0 278047.0 0
225943.0 280265.0 0
230956.0 277219.0 0
233685.0 281492.0 0
236457.0 278636.0 0
241633.0 279577.0 0
245715.0 277623.0 0
246116.0 281327.0 0
250658.0 278567.0 0
261062.0 278590.0 0
269624.0 277410.0 0
266160.0 281145.0 0
274299.0 277638.0 0
271750.0 281587.0 0
278502.0 276945.0 0
276468.0 281452.0 0
281510.0 280685.0 0
285515.0 279167.0 0
289889.0 278635.0 0
294293.0 279066.0 0
297838.0 277623.0 0
202723.0 282334.0 0
201744.0 285967.0 0
207204.0 282818.0 0
205231.0 286049.0 0
209031.0 286310.0 0
211964.0 282912.0 0
212997.0 286954.0 0
214993.0 284443.0 0
217680.0 286740.0 0
221881.0 283240.0 0
226940.0 285474.0 0
229882.0 282280.0 0
232374.0 285476.0 0
237520.0 283797.0 0
242440.0 284632.0 0
246406.0 285366.0 0
250323.0 283973.0 0
256168.0 282999.0 0
261870.0 283354.0 0
260397.0 287029.0 0
264924.0 286843.0 0
269126.0 284974.0 0
273930.0 286423.0 0
279027.0 285343.0 0
283983.0 284994.0 0
287325.0 282256.0 0
288171.0 287006.0 0
292053.0 283722.0 0
297300.0 282256.0 0
202595.0 289480.0 0
206701.0 289283.0 0
210650.0 289901.0 0
214835.0 290511.0 0
218912.0 291619.0 0
222771.0 288411.0 0
229946.0 288297.0 0
226999.0 290255.0 0
231625.0 291696.0 0
235189.0 288699.0 0
239528.0 288553.0 0
244342.0 289513.0 0
240931.0 292204.0 0
249110.0 288711.0 0
252934.0 287545.0 0
252012.0 292291.0 0
256821.0 290155.0 0
261957.0 290829.0 0
269683.0 289291.0 0
265746.0 291255.0 0
273749.0 292140.0 0
277852.0 289899.0 0
281757.0 288564.0 0
281932.0 291565.0 0
284975.0 289956.0 0
289008.0 291872.0 0
291994.0 289005.0 0
296473.0 287854.0 0
203001.0 294041.0 0
207954.0 293372.0 0
212662.0 293956.0 0
216376.0 294105.0 0
223182.0 293108.0 0
219703.0 295848.0 0
223605.0 297545.0 0
227583.0 294567.0 0
231975.0 296556.0 0
236813.0 293668.0 0
241067.0 295295.0 0
244026.0 294165.0 0
247804.0 293012.0 0
246599.0 296365.0 0
250159.0 296722.0 0
259706.0 294366.0 0
255251.0 296574.0 0
264172.0 295816.0 0
268985.0 293792.0 0
268123.0 297278.0 0
271873.0 296698.0 0
275407.0 296510.0 0
279166.0 294638.0 0
284962.0 294990.0 0
290512.0 296742.0 0
293391.0 292701.0 0
297441.0 292793.0 0
202588.0 298989.0 0
206319.0 297900.0 0
207563.0 302262.0 0
210616.0 298061.0 0
212176.0 302372.0 0
215735.0 298585.0 0
220352.0 300407.0 0
227839.0 299256.0 0
224536.0 301429.0 0
231660.0 301674.0 0
235905.0 299068.0 0
239909.0 298335.0 0
243457.0 297722.0 0
242382.0 301717.0 0
246832.0 300453.0 0
251917.0 301640.0 0
259985.0 298636.0 0
256932.0 301965.0 0
263097.0 300373.0 0
266545.0 300306.0 0
270451.0 300403.0 0
274769.0 300529.0 0
277885.0 298674.0 0
278936.0 302030.0 0
281826.0 298972.0 0
286541.0 300676.0 0
292038.0 301399.0 0
296278.0 297765.0 0
202767.0 303209.0 0
201523.0 306658.0 0
205895.0 306873.0 0
209783.0 305365.0 0
213131.0 305796.0 0
216927.0 303819.0 0
222134.0 304838.0 0
227842.0 304408.0 0
233003.0 306823.0 0
235445.0 303272.0 0
238842.0 302554.0 0
237225.0 306121.0 0
244678.0 304956.0 0
240719.0 306203.0 0
248438.0 304774.0 0
254777.0 305506.0 0
257915.0 306450.0 0
260759.0 303412.0 0
265034.0 304314.0 0
261235.0 307400.0 0
268558.0 303456.0 0
269241.0 307531.0 0
272176.0 303915.0 0
273611.0 306867.0 0
276130.0 304722.0 0
280303.0 305806.0 0
282553.0 302766.0 0
284491.0 305880.0 0
288733.0 304472.0 0
292608.0 305714.0 0
297035.0 303109.0 0
201976.0 309517.0 0
204889.0 310565.0 0
207816.0 310289.0 0
210858.0 309107.0 0
215564.0 308505.0 0
219125.0 307747.0 0
214572.0 312115.0 0
218948.0 312048.0 0
222360.0 309998.0 0
225350.0 307955.0 0
229453.0 309348.0 0
225974.0 311981.0 0
233577.0 311387.0 0
237364.0 309924.0 0
243531.0 308644.0 0
241010.0 310037.0 0
244386.0 312162.0 0
246909.0 308437.0 0
248796.0 311641.0 0
251386.0 307635.0 0
252859.0 311650.0 0
255469.0 309140.0 0
258748.0 310272.0 0
264792.0 308368.0 0
262116.0 311637.0 0
266364.0 311831.0 0
270401.0 312465.0 0
273126.0 309838.0 0
277094.0 309039.0 0
281279.0 309626.0 0
284521.0 309583.0 0
288549.0 308737.0 0
286502.0 312403.0 0
292559.0 310390.0 0
296728.0 308282.0 0
197272.0 319382.0 0
202705.0 313613.0 0
202119.0 317913.0 0
207091.0 313271.0 0
205329.0 316546.0 0
208692.0 317415.0 0
210920.0 313862.0 0
214057.0 316156.0 0
217004.0 315319.0 0
222785.0 314114.0 0
220213.0 316622.0 0
226853.0 316263.0 0
230066.0 313557.0 0
233158.0 315300.0 0
230713.0 317751.0 0
236497.0 314419.0 0
240331.0 313443.0 0
242936.0 316432.0 0
246922.0 315577.0 0
250798.0 314860.0 0
253950.0 314740.0 0
252612.0 317645.0 0
256399.0 312861.0 0
259551.0 314389.0 0
256791.0 317652.0 0
263579.0 316016.0 0
267778.0 315350.0 0
274572.0 313477.0 0
271335.0 317056.0 0
278499.0 313227.0 0
275921.0 317212.0 0
280092.0 317869.0 0
282818.0 313728.0 0
284151.0 317549.0 0
290227.0 313977.0 0
286769.0 316234.0 0
293503.0 313451.0 0
293844.0 316735.0 0
296931.0 313329.0 0
297696.0 317788.0 0
202264.0 321627.0 0
205433.0 319905.0 0
209110.0 320882.0 0
206290.0 323049.0 0
212113.0 318305.0 0
212857.0 321717.0 0
216731.0 319685.0 0
223579.0 318476.0 0
220716.0 320047.0 0
223709.0 321947.0 0
227694.0 320772.0 0
234550.0 318651.0 0
231317.0 320616.0 0
233586.0 322191.0 0
238880.0 318161.0 0
236865.0 322246.0 0
242380.0 319954.0 0
240469.0 322533.0 0
249591.0 318418.0 0
245788.0 319726.0 0
249068.0 321782.0 0
253355.0 321795.0 0
257729.0 322842.0 0
260812.0 319410.0 0
264722.0 320785.0 0
267126.0 318511.0 0
268929.0 321601.0 0
273529.0 320904.0 0
280407.0 322254.0 0
277434.0 321262.0 0
283525.0 321109.0 0
290117.0 318227.0 0
286921.0 319928.0 0
289894.0 322058.0 0
293722.0 320870.0 0
297752.0 321295.0 0
203089.0 325823.0 0
207749.0 326839.0 0
209853.0 324006.0 0
212784.0 325061.0 0
211620.0 328027.0 0
216664.0 324693.0 0
220273.0 323254.0 0
222694.0 325597.0 0
226314.0 325015.0 0
230700.0 324764.0 0
234780.0 325929.0 0
238450.0 326077.0 0
243935.0 322928.0 0
242177.0 326248.0 0
246675.0 323439.0 0
245881.0 326351.0 0
250129.0 326099.0 0
254846.0 326512.0 0
258977.0 326526.0 0
261879.0 323811.0 0
262917.0 328210.0 0
265667.0 324458.0 0
268757.0 325497.0 0
271933.0 324734.0 0
274226.0 327607.0 0
275899.0 324542.0 0
279411.0 325479.0 0
277011.0 328357.0 0
282875.0 324122.0 0
283197.0 327444.0 0
286529.0 324149.0 0
295002.0 324695.0 0
291125.0 325579.0 0
294847.0 328243.0 0
298394.0 324157.0 0
297909.0 326992.0 0
202005.0 329602.0 0
202880.0 333325.0 0
205871.0 330240.0 0
210220.0 331585.0 0
214286.0 332550.0 0
215640.0 329020.0 0
218479.0 332024.0 0
220215.0 328456.0 0
222757.0 332331.0 0
224597.0 328992.0 0
228658.0 328902.0 0
226554.0 331552.0 0
232469.0 329100.0 0
230281.0 332542.0 0
234420.0 332878.0 0
236394.0 329743.0 0
244232.0 329532.0 0
240281.0 330366.0 0
247595.0 330111.0 0
251772.0 330068.0 0
253134.0 333084.0 0
257132.0 329107.0 0
254980.0 330637.0 0
259623.0 330359.0 0
262129.0 332674.0 0
266994.0 328616.0 0
270811.0 328480.0 0
265582.0 332283.0 0
269775.0 332170.0 0
273896.0 331255.0 0
280119.0 329794.0 0
277219.0 330880.0 0
279499.0 332970.0 0
276684.0 333513.0 0
283656.0 332168.0 0
287129.0 328531.0 0
287758.0 333405.0 0
291453.0 330201.0 0
295169.0 331848.0 0
297991.0 329962.0 0
297920.0 333136.0 0
302750.0 333115.0 0
202251.0 337016.0 0
207355.0 334448.0 0
205444.0 337171.0 0
211839.0 336524.0 0
216646.0 335513.0 0
219573.0 338141.0 0
220238.0 334629.0 0
222407.0 336408.0 0
226657.0 335713.0 0
232125.0 335986.0 0
238427.0 333813.0 0
236011.0 336461.0 0
243787.0 334329.0 0
240013.0 337180.0 0
249236.0 333851.0 0
247385.0 337655.0 0
252462.0 336923.0 0
257244.0 334097.0 0
261300.0 336146.0 0
264300.0 335620.0 0
267941.0 335770.0 0
272895.0 336300.0 0
277624.0 336706.0 0
281339.0 335622.0 0
284868.0 337186.0 0
288876.0 336902.0 0
292548.0 334751.0 0
296900.0 336620.0 0
304194.0 338885.0 0
203071.0 340876.0 0
208334.0 339776.0 0
212468.0 340352.0 0
213994.0 342472.0 0
211032.0 343174.0 0
215799.0 339473.0 0
216994.0 342516.0 0
223170.0 339363.0 0
220247.0 341903.0 0
223872.0 343517.0 0
226474.0 341246.0 0
230275.0 339090.0 0
234269.0 340206.0 0
230507.0 342833.0 0
238086.0 339622.0 0
237087.0 343162.0 0
240168.0 341843.0 0
243485.0 339696.0 0
246719.0 341278.0 0
249681.0 340085.0 0
253131.0 341838.0 0
257183.0 339567.0 0
261837.0 339923.0 0
265387.0 339114.0 0
269749.0 340407.0 0
266049.0 343481.0 0
272193.0 342849.0 0
275291.0 340990.0 0
280272.0 340590.0 0
284680.0 341211.0 0
288178.0 341048.0 0
292093.0 338759.0 0
294954.0 340342.0 0
292263.0 343040.0 0
298163.0 340237.0 0
202953.0 345083.0 0
201534.0 347990.0 0
207008.0 343883.0 0
208285.0 347017.0 0
205000.0 348080.0 0
212067.0 346261.0 0
215639.0 345350.0 0
220069.0 346465.0 0
224862.0 347272.0 0
228158.0 345318.0 0
228089.0 348746.0 0
233349.0 344531.0 0
231255.0 347730.0 0
236148.0 346522.0 0
239821.0 346214.0 0
242907.0 343724.0 0
243659.0 347858.0 0
245876.0 344124.0 0
249737.0 344053.0 0
247822.0 347577.0 0
254467.0 345257.0 0
251861.0 347709.0 0
258171.0 344360.0 0
259060.0 348029.0 0
255794.0 348489.0 0
262219.0 343759.0 0
262406.0 347141.0 0
269845.0 345033.0 0
266532.0 348308.0 0
274040.0 345814.0 0
277894.0 344813.0 0
275906.0 348790.0 0
279953.0 348816.0 0
282805.0 344971.0 0
287830.0 346314.0 0
293013.0 347888.0 0
296750.0 343962.0 0
297790.0 347655.0 0
197681.0 351046.0 0
202486.0 350615.0 0
202374.0 353810.0 0
206540.0 351534.0 0
209815.0 350015.0 0
213149.0 349270.0 0
212337.0 352489.0 0
216226.0 349288.0 0
215967.0 352388.0 0
219382.0 350576.0 0
218624.0 352985.0 0
222719.0 350959.0 0
226532.0 351508.0 0
234538.0 349581.0 0
229947.0 351271.0 0
232770.0 352225.0 0
238330.0 350257.0 0
235625.0 352765.0 0
241634.0 350526.0 0
240264.0 352964.0 0
243556.0 353783.0 0
249894.0 350601.0 0
246196.0 351374.0 0
249050.0 354043.0 0
253309.0 351535.0 0
257486.0 351694.0 0
262050.0 350937.0 0
264960.0 352345.0 0
264091.0 354418.0 0
267231.0 352124.0 0
269719.0 352451.0 0
270928.0 349193.0 0
273663.0 350244.0 0
272726.0 353196.0 0
276185.0 352654.0 0
279568.0 353256.0 0
284375.0 350088.0 0
282895.0 353190.0 0
288128.0 351613.0 0
292382.0 352205.0 0
297321.0 350902.0 0
202283.0 356970.0 0
205446.0 354359.0 0
207832.0 355828.0 0
205347.0 357008.0 0
208893.0 357877.0 0
209351.0 354003.0 0
211146.0 356294.0 0
214323.0 358946.0 0
214502.0 355667.0 0
218228.0 355520.0 0
217550.0 358293.0 0
222002.0 354633.0 0
220639.0 357876.0 0
224290.0 358303.0 0
226111.0 355013.0 0
228353.0 357740.0 0
229726.0 354722.0 0
233311.0 355608.0 0
231460.0 358841.0 0
237885.0 354506.0 0
236336.0 357758.0 0
240971.0 356306.0 0
243851.0 359274.0 0
245906.0 356240.0 0
248792.0 357547.0 0
252282.0 355096.0 0
251631.0 357713.0 0
255591.0 355408.0 0
257950.0 357653.0 0
260329.0 354971.0 0
260779.0 358779.0 0
264418.0 357967.0 0
266794.0 354829.0 0
267617.0 358064.0 0
269692.0 355721.0 0
273091.0 356823.0 0
270421.0 358993.0 0
276837.0 356649.0 0
281314.0 357403.0 0
286019.0 355291.0 0
289637.0 355441.0 0
294673.0 355303.0 0
291981.0 356414.0 0
294249.0 359173.0 0
297955.0 353941.0 0
297985.0 356992.0 0
202321.0 360054.0 0
202655.0 363209.0 0
206399.0 359728.0 0
205923.0 363055.0 0
211231.0 359240.0 0
209608.0 362033.0 0
214302.0 362350.0 0
217895.0 361314.0 0
220832.0 360362.0 0
223314.0 362526.0 0
227193.0 360790.0 0
234555.0 360540.0 0
230652.0 362899.0 0
234196.0 363464.0 0
239355.0 359512.0 0
236971.0 361821.0 0
240236.0 362340.0 0
242934.0 362874.0 0
247852.0 361019.0 0
246056.0 364538.0 0
251396.0 361098.0 0
254252.0 364185.0 0
254798.0 359583.0 0
258292.0 360551.0 0
257068.0 362807.0 0
261649.0 361384.0 0
259748.0 363162.0 0
268330.0 360892.0 0
264851.0 362053.0 0
272874.0 360705.0 0
270460.0 363833.0 0
276271.0 360521.0 0
279510.0 360858.0 0
283236.0 361588.0 0
280117.0 363863.0 0
284762.0 364476.0 0
286304.0 359419.0 0
290341.0 359369.0 0
287325.0 363133.0 0
290982.0 363103.0 0
294382.0 362472.0 0
297543.0 359803.0 0
297664.0 362768.0 0
303051.0 364010.0 0
196515.0 364679.0 0
202493.0 366383.0 0
206563.0 365947.0 0
204713.0 368573.0 0
210442.0 365701.0 0
215416.0 366470.0 0
219381.0 364201.0 0
219859.0 367530.0 0
221765.0 369816.0 0
223609.0 366594.0 0
227238.0 364947.0 0
228690.0 368074.0 0
231504.0 366625.0 0
234176.0 366382.0 0
237870.0 365687.0 0
241626.0 365699.0 0
243645.0 367496.0 0
247462.0 367834.0 0
250664.0 365224.0 0
251463.0 369524.0 0
257954.0 366642.0 0
254834.0 368723.0 0
262651.0 365833.0 0
267227.0 364679.0 0
265849.0 367799.0 0
269241.0 368367.0 0
273513.0 365506.0 0
272642.0 369530.0 0
276163.0 363932.0 0
276074.0 368588.0 0
277997.0 366651.0 0
282279.0 366176.0 0
280269.0 368999.0 0
284045.0 368485.0 0
287074.0 366967.0 0
294686.0 365131.0 0
290469.0 366152.0 0
293678.0 366668.0 0
297418.0 368679.0 0
297579.0 365768.0 0
199178.0 378835.0 0
202897.0 372071.0 0
201293.0 377001.0 0
195692.0 369597.0 0
201771.0 369139.0 0
204272.0 375389.0 0
206323.0 372034.0 0
206899.0 375025.0 0
207290.0 369244.0 0
209353.0 372819.0 0
211044.0 369805.0 0
213809.0 371784.0 0
217365.0 370739.0 0
220615.0 373287.0 0
224094.0 372696.0 0
225833.0 369992.0 0
230323.0 370940.0 0
228630.0 373232.0 0
233419.0 370404.0 0
235382.0 374180.0 0
237015.0 370431.0 0
238220.0 374246.0 0
240971.0 370123.0 0
244765.0 371139.0 0
240826.0 373667.0 0
243575.0 374641.0 0
248345.0 372292.0 0
250988.0 374727.0 0
253470.0 373218.0 0
256605.0 372093.0 0
263680.0 370960.0 0
260244.0 370344.0 0
260630.0 374199.0 0
263150.0 374833.0 0
267060.0 373067.0 0
270638.0 372722.0 0
272352.0 374647.0 0
277442.0 370919.0 0
274721.0 372550.0 0
281338.0 371989.0 0
278273.0 374220.0 0
282975.0 374878.0 0
284619.0 371577.0 0
287822.0 370468.0 0
291248.0 368922.0 0
290835.0 371999.0 0
294159.0 368985.0 0
287011.0 374137.0 0
297453.0 372164.0 0
294110.0 372106.0 0
297235.0 374830.0 0
298880.0 376846.0 0
300884.0 378935.0 0
303473.0 379832.0 0
192423.0 382220.0 0
190557.0 384077.0 0
196554.0 379379.0 0
194246.0 380897.0 0
196896.0 382210.0 0
202584.0 379398.0 0
199674.0 382315.0 0
202850.0 382111.0 0
204288.0 378258.0 0
205247.0 381682.0 0
206746.0 378674.0 0
210473.0 375559.0 0
209824.0 379179.0 0
213559.0 375069.0 0
215258.0 377910.0 0
216748.0 374590.0 0
218897.0 376733.0 0
216392.0 381830.0 0
218593.0 380054.0 0
222814.0 377428.0 0
225954.0 375942.0 0
230844.0 375857.0 0
228494.0 378841.0 0
232989.0 373880.0 0
233607.0 377889.0 0
235817.0 376543.0 0
236262.0 379910.0 0
238652.0 378018.0 0
241895.0 378131.0 0
245023.0 379073.0 0
246649.0 375839.0 0
249506.0 377429.0 0
247348.0 378950.0 0
252782.0 377589.0 0
254672.0 376093.0 0
257696.0 376040.0 0
260579.0 378712.0 0
263846.0 378091.0 0
267232.0 377539.0 0
270475.0 376895.0 0
272763.0 378848.0 0
275130.0 376435.0 0
276801.0 379535.0 0
280119.0 377435.0 0
282894.0 379302.0 0
285003.0 376131.0 0
286455.0 377943.0 0
284988.0 381159.0 0
290157.0 375743.0 0
289333.0 379607.0 0
293865.0 375677.0 0
294774.0 379592.0 0
296866.0 378159.0 0
299126.0 381334.0 0
297352.0 383267.0 0
305606.0 380810.0 0
302136.0 382393.0 0
304781.0 383237.0 0
307598.0 382779.0 0
310072.0 383634.0 0
311917.0 385010.0 0
183510.0 387571.0 0
179840.0 389813.0 0
187764.0 384718.0 0
185970.0 386656.0 0
186989.0 388971.0 0
193504.0 385053.0 0
190102.0 387007.0 0
192214.0 388750.0 0
195608.0 384114.0 0
195199.0 388719.0 0
199800.0 385593.0 0
203959.0 386167.0 0
202449.0 384835.0 0
197280.0 386727.0 0
200550.0 388547.0 0
205883.0 384981.0 0
207191.0 383167.0 0
207160.0 387396.0 0
209832.0 383047.0 0
213254.0 380087.0 0
209838.0 386167.0 0
213187.0 383296.0 0
211986.0 387010.0 0
214844.0 385402.0 0
217428.0 384534.0 0
222330.0 381641.0 0
225799.0 380531.0 0
225654.0 384789.0 0
227479.0 383010.0 0
230091.0 384158.0 0
231947.0 380939.0 0
235154.0 382992.0 0
232839.0 385552.0 0
237888.0 382773.0 0
238857.0 380994.0 0
239769.0 384173.0 0
241913.0 382101.0 0
244514.0 384789.0 0
249556.0 380995.0 0
246229.0 381745.0 0
249107.0 384778.0 0
253596.0 381119.0 0
253124.0 385400.0 0
256884.0 380312.0 0
259256.0 383612.0 0
256766.0 385493.0 0
262881.0 382415.0 0
266144.0 381844.0 0
268697.0 380623.0 0
267226.0 384329.0 0
271172.0 381828.0 0
270319.0 385464.0 0
274880.0 382222.0 0
277069.0 383483.0 0
276222.0 385816.0 0
279833.0 381691.0 0
281207.0 385101.0 0
284735.0 384582.0 0
287075.0 386277.0 0
288224.0 382799.0 0
290212.0 384107.0 0
292396.0 381025.0 0
292457.0 384154.0 0
292066.0 387558.0 0
295220.0 384771.0 0
294880.0 387288.0 0
299635.0 386446.0 0
301305.0 384130.0 0
303913.0 384850.0 0
305780.0 387892.0 0
302740.0 388007.0 0
307874.0 385828.0 0
310939.0 388035.0 0
308152.0 389998.0 0
314039.0 386085.0 0
315805.0 387298.0 0
317605.0 389308.0 0
171598.0 395243.0 0
175788.0 392304.0 0
174268.0 394400.0 0
178008.0 391096.0 0
181885.0 389055.0 0
178242.0 393108.0 0
180723.0 391713.0 0
181252.0 393220.0 0
179013.0 394977.0 0
188183.0 391078.0 0
183866.0 390721.0 0
184025.0 393604.0 0
191330.0 391581.0 0
191810.0 393916.0 0
196057.0 391630.0 0
199288.0 391070.0 0
200964.0 393704.0 0
203621.0 388863.0 0
203881.0 391753.0 0
206352.0 393355.0 0
207517.0 390182.0 0
210104.0 390279.0 0
212793.0 391797.0 0
214973.0 388881.0 0
218093.0 389356.0 0
220867.0 385710.0 0
222358.0 389943.0 0
225974.0 388462.0 0
229231.0 387435.0 0
232467.0 388665.0 0
235140.0 390725.0 0
236047.0 386669.0 0
239037.0 387223.0 0
242048.0 386783.0 0
241476.0 390499.0 0
243456.0 389200.0 0
247166.0 388794.0 0
251289.0 389236.0 0
257784.0 388892.0 0
254688.0 389364.0 0
261042.0 387776.0 0
263859.0 385998.0 0
265978.0 387727.0 0
269239.0 388942.0 0
264227.0 389859.0 0
266677.0 391328.0 0
273680.0 386206.0 0
274306.0 389640.0 0
277257.0 389754.0 0
278235.0 386924.0 0
282403.0 388941.0 0
279945.0 391041.0 0
283472.0 392009.0 0
285384.0 388914.0 0
286518.0 391849.0 0
289438.0 387668.0 0
288897.0 390878.0 0
291430.0 392621.0 0
295818.0 390235.0 0
292916.0 390485.0 0
297960.0 388524.0 0
299425.0 391400.0 0
295876.0 392561.0 0
305609.0 391580.0 0
301738.0 390733.0 0
303829.0 392923.0 0
307531.0 393638.0 0
308942.0 392178.0 0
311090.0 392828.0 0
309557.0 394557.0 0
312825.0 390032.0 0
317163.0 394532.0 0
315464.0 391919.0 0
320057.0 390182.0 0
322078.0 391949.0 0
319761.0 393577.0 0
324375.0 393313.0 0
326674.0 395150.0 0
165298.0 399397.0 0
169605.0 397050.0 0
167360.0 398258.0 0
171730.0 398577.0 0
175553.0 396532.0 0
174139.0 399934.0 0
179671.0 397977.0 0
182934.0 396732.0 0
186757.0 396945.0 0
186792.0 393805.0 0
189170.0 394711.0 0
189000.0 397041.0 0
190520.0 398713.0 0
195629.0 394200.0 0
193420.0 396579.0 0
198227.0 395413.0 0
198104.0 398190.0 0
202428.0 396457.0 0
205500.0 396509.0 0
208986.0 393508.0 0
208567.0 396816.0 0
211331.0 395687.0 0
214420.0 396626.0 0
215757.0 393911.0 0
216824.0 397393.0 0
218218.0 393190.0 0
218661.0 396338.0 0
221223.0 393257.0 0
220905.0 396214.0 0
224308.0 394072.0 0
227218.0 392703.0 0
230438.0 391646.0 0
228509.0 395861.0 0
232736.0 393908.0 0
235929.0 394450.0 0
238256.0 390911.0 0
238783.0 394245.0 0
242058.0 394153.0 0
245094.0 393024.0 0
248747.0 392858.0 0
249037.0 395517.0 0
254790.0 392276.0 0
251758.0 392328.0 0
252467.0 395503.0 0
255630.0 396294.0 0
258396.0 392759.0 0
261907.0 391468.0 0
259982.0 395828.0 0
262596.0 395165.0 0
264740.0 393379.0 0
267128.0 396258.0 0
269011.0 393906.0 0
271930.0 392035.0 0
272591.0 396718.0 0
275293.0 394595.0 0
276706.0 392810.0 0
279761.0 394023.0 0
282858.0 395075.0 0
286376.0 395571.0 0
288522.0 398397.0 0
289182.0 394675.0 0
291556.0 398672.0 0
295982.0 395609.0 0
292758.0 395735.0 0
299094.0 394114.0 0
298908.0 397650.0 0
302656.0 398259.0 0
302342.0 395379.0 0
306911.0 397725.0 0
306380.0 395446.0 0
309452.0 396318.0 0
312230.0 397380.0 0
313139.0 394800.0 0
316932.0 397351.0 0
314873.0 399097.0 0
320496.0 396733.0 0
319747.0 399616.0 0
322776.0 396347.0 0
324277.0 399239.0 0
326821.0 397936.0 0
329664.0 395611.0 0
330020.0 400355.0 0
331581.0 398130.0 0
334523.0 398621.0 0
336343.0 400019.0 0
158380.0 404985.0 0
160484.0 402917.0 0
162156.0 405423.0 0
163196.0 401490.0 0
165592.0 403533.0 0
169356.0 400574.0 0
168825.0 402818.0 0
169970.0 405151.0 0
172553.0 402042.0 0
172686.0 404295.0 0
174567.0 404917.0 0
176873.0 403735.0 0
178254.0 400770.0 0
183633.0 401839.0 0
181268.0 403035.0 0
184864.0 399278.0 0
185667.0 404784.0 0
187961.0 400424.0 0
192040.0 400906.0 0
188372.0 403433.0 0
191680.0 404219.0 0
195200.0 399189.0 0
195645.0 402051.0 0
200586.0 399586.0 0
198431.0 402982.0 0
205913.0 399656.0 0
203106.0 400999.0 0
204104.0 403258.0 0
208438.0 401177.0 0
211036.0 399608.0 0
213728.0 400468.0 0
216519.0 400762.0 0
219196.0 398772.0 0
218720.0 402645.0 0
221613.0 398937.0 0
222078.0 402426.0 0
223967.0 397081.0 0
225161.0 401298.0 0
226519.0 398473.0 0
229584.0 400655.0 0
231184.0 397379.0 0
234923.0 398609.0 0
238644.0 397660.0 0
240263.0 401041.0 0
242504.0 397928.0 0
244776.0 401267.0 0
246224.0 397208.0 0
247963.0 402060.0 0
250398.0 399324.0 0
254487.0 401547.0 0
258129.0 398435.0 0
258840.0 402111.0 0
261137.0 399712.0 0
264404.0 398701.0 0
270041.0 399247.0 0
275534.0 399842.0 0
277949.0 397116.0 0
279653.0 400730.0 0
281520.0 398635.0 0
278195.0 401833.0 0
284782.0 399145.0 0
282944.0 402239.0 0
285732.0 403598.0 0
287107.0 400686.0 0
288921.0 403196.0 0
291421.0 402007.0 0
296795.0 399210.0 0
294821.0 400290.0 0
298623.0 401476.0 0
301143.0 400761.0 0
302715.0 403098.0 0
304673.0 400291.0 0
306188.0 403566.0 0
307923.0 400095.0 0
310707.0 399906.0 0
309776.0 404065.0 0
312206.0 402599.0 0
315082.0 402156.0 0
317868.0 401115.0 0
319793.0 404250.0 0
322835.0 402207.0 0
327141.0 401342.0 0
325243.0 404591.0 0
328360.0 405294.0 0
330788.0 403618.0 0
334055.0 401737.0 0
335962.0 404229.0 0
338350.0 402102.0 0
340887.0 403827.0 0
344276.0 404728.0 0
149167.0 409206.0 0
147235.0 409877.0 0
151111.0 408385.0 0
153204.0 407193.0 0
155514.0 406039.0 0
155800.0 410251.0 0
159176.0 408750.0 0
164851.0 406625.0 0
167378.0 407579.0 0
162709.0 408519.0 0
171466.0 407122.0 0
169619.0 409765.0 0
173874.0 407278.0 0
177485.0 406627.0 0
176055.0 409951.0 0
180453.0 405927.0 0
179669.0 409897.0 0
183427.0 406524.0 0
183007.0 409794.0 0
187259.0 407546.0 0
189937.0 407448.0 0
194159.0 406127.0 0
197016.0 406176.0 0
200834.0 403989.0 0
199250.0 407270.0 0
201541.0 406529.0 0
203826.0 405484.0 0
206078.0 407385.0 0
206724.0 404052.0 0
209848.0 404384.0 0
209022.0 407772.0 0
212067.0 407645.0 0
212568.0 404049.0 0
214159.0 407567.0 0
215052.0 404560.0 0
217659.0 406573.0 0
221209.0 406991.0 0
224477.0 407393.0 0
224455.0 405246.0 0
227739.0 404125.0 0
230809.0 405286.0 0
232826.0 402257.0 0
232819.0 406514.0 0
235468.0 404781.0 0
237218.0 401713.0 0
239235.0 405034.0 0
242367.0 403751.0 0
243335.0 406625.0 0
240774.0 407320.0 0
245633.0 405302.0 0
248788.0 406333.0 0
250719.0 403962.0 0
252713.0 406043.0 0
256448.0 406581.0 0
260089.0 405260.0 0
262874.0 403207.0 0
265193.0 405545.0 0
267040.0 401981.0 0
268047.0 407943.0 0
269757.0 404312.0 0
272551.0 402175.0 0
271920.0 407559.0 0
274039.0 405431.0 0
277171.0 404482.0 0
279111.0 407971.0 0
280971.0 403938.0 0
282383.0 407719.0 0
284542.0 406226.0 0
287228.0 407396.0 0
289639.0 405941.0 0
294223.0 403991.0 0
292691.0 407413.0 0
297636.0 404639.0 0
298046.0 408032.0 0
300822.0 404939.0 0
302168.0 406815.0 0
305381.0 407139.0 0
310930.0 407301.0 0
308509.0 408856.0 0
316947.0 405758.0 0
313882.0 406869.0 0
321629.0 406580.0 0
318887.0 409175.0 0
322212.0 409360.0 0
324919.0 407882.0 0
327464.0 409541.0 0
329583.0 408169.0 0
333167.0 405653.0 0
337606.0 406761.0 0
332835.0 408450.0 0
336562.0 409007.0 0
341448.0 406655.0 0
341707.0 409603.0 0
345774.0 406894.0 0
348049.0 408176.0 0
350605.0 409593.0 0
353389.0 410078.0 0
143278.0 412540.0 0
145430.0 411752.0 0
141609.0 414400.0 0
144639.0 415259.0 0
147861.0 412878.0 0
150519.0 412719.0 0
147038.0 415470.0 0
153477.0 411593.0 0
157255.0 413528.0 0
159422.0 411676.0 0
159860.0 415305.0 0
161970.0 412957.0 0
164170.0 411503.0 0
167022.0 411958.0 0
164986.0 415394.0 0
172421.0 411010.0 0
169022.0 414775.0 0
172291.0 414755.0 0
175855.0 413670.0 0
179625.0 412778.0 0
186384.0 409989.0 0
183123.0 412887.0 0
186401.0 413157.0 0
190503.0 410118.0 0
189840.0 413239.0 0
193429.0 409337.0 0
196290.0 409990.0 0
193369.0 411798.0 0
195752.0 412965.0 0
199446.0 410548.0 0
203163.0 409862.0 0
202490.0 413418.0 0
206120.0 411756.0 0
209223.0 411821.0 0
212645.0 411373.0 0
215894.0 410080.0 0
215649.0 413299.0 0
218715.0 410951.0 0
221894.0 410473.0 0
225430.0 409982.0 0
227330.0 407659.0 0
229939.0 408527.0 0
230255.0 412548.0 0
228592.0 410718.0 0
232570.0 409662.0 0
232889.0 413239.0 0
236515.0 409057.0 0
239977.0 410594.0 0
235936.0 412923.0 0
243556.0 409950.0 0
246932.0 409786.0 0
250275.0 411507.0 0
251652.0 408439.0 0
254369.0 409290.0 0
256276.0 411412.0 0
258513.0 409736.0 0
262173.0 407980.0 0
264773.0 410650.0 0
269641.0 411547.0 0
273438.0 411059.0 0
276141.0 409533.0 0
278086.0 412562.0 0
280762.0 412299.0 0
287276.0 410731.0 0
283771.0 411163.0 0
286123.0 414163.0 0
290319.0 409289.0 0
290356.0 413376.0 0
295599.0 409003.0 0
292742.0 411296.0 0
295931.0 412715.0 0
300746.0 409034.0 0
299144.0 411757.0 0
303756.0 410369.0 0
302583.0 413197.0 0
306485.0 411526.0 0
312182.0 411394.0 0
307905.0 414048.0 0
309939.0 411587.0 0
314128.0 410062.0 0
316222.0 410705.0 0
313461.0 414498.0 0
316381.0 414474.0 0
319286.0 412999.0 0
321815.0 414682.0 0
323823.0 411913.0 0
327023.0 412474.0 0
326694.0 415532.0 0
330432.0 412870.0 0
332960.0 411193.0 0
335466.0 412848.0 0
338572.0 411626.0 0
340103.0 414788.0 0
344192.0 411372.0 0
346914.0 411216.0 0
343747.0 414814.0 0
346948.0 414989.0 0
348892.0 413600.0 0
351128.0 411991.0 0
354804.0 411559.0 0
353310.0 414056.0 0
356549.0 413575.0 0
359077.0 414616.0 0
129801.0 421270.0 0
134668.0 419154.0 0
132394.0 420560.0 0
136807.0 416681.0 0
139788.0 416336.0 0
137445.0 419836.0 0
141248.0 418593.0 0
144194.0 417145.0 0
143811.0 419517.0 0
148665.0 417661.0 0
146558.0 419319.0 0
150322.0 420216.0 0
151421.0 416467.0 0
154687.0 415699.0 0
152912.0 419845.0 0
158936.0 417846.0 0
156151.0 418320.0 0
159721.0 420422.0 0
162892.0 416768.0 0
163182.0 419864.0 0
167567.0 417113.0 0
166482.0 419576.0 0
169970.0 420005.0 0
172681.0 418172.0 0
176029.0 419053.0 0
177656.0 416068.0 0
181284.0 415611.0 0
181169.0 418917.0 0
185037.0 416622.0 0
188185.0 417095.0 0
191419.0 418262.0 0
192976.0 414868.0 0
195560.0 416292.0 0
194172.0 418914.0 0
196889.0 418774.0 0
198981.0 414525.0 0
201187.0 417635.0 0
204575.0 415144.0 0
204280.0 418814.0 0
207348.0 415791.0 0
207532.0 418881.0 0
210297.0 415385.0 0
213450.0 415844.0 0
216504.0 417186.0 0
218401.0 414261.0 0
219780.0 417887.0 0
222335.0 414805.0 0
226257.0 413395.0 0
228689.0 416395.0 0
232403.0 416512.0 0
235529.0 416246.0 0
239626.0 414817.0 0
243306.0 413562.0 0
243015.0 417441.0 0
246760.0 415035.0 0
253531.0 411947.0 0
250734.0 415448.0 0
254028.0 415003.0 0
257405.0 414588.0 0
261134.0 412870.0 0
261493.0 417209.0 0
266773.0 413567.0 0
264445.0 415037.0 0
268551.0 417047.0 0
270667.0 414786.0 0
273548.0 414808.0 0
275125.0 417260.0 0
276676.0 414522.0 0
276500.0 418514.0 0
278862.0 416870.0 0
284203.0 414871.0 0
281523.0 415514.0 0
288047.0 415912.0 0
291902.0 416748.0 0
295493.0 416137.0 0
298736.0 418352.0 0
299924.0 415389.0 0
301996.0 419570.0 0
302168.0 416928.0 0
304821.0 415619.0 0
304869.0 419526.0 0
307431.0 417388.0 0
310845.0 416053.0 0
314413.0 417478.0 0
313923.0 419165.0 0
316530.0 420301.0 0
320045.0 417417.0 0
317416.0 417572.0 0
321308.0 419856.0 0
323996.0 416407.0 0
324003.0 419294.0 0
327119.0 420429.0 0
328821.0 417913.0 0
331669.0 415861.0 0
332154.0 419885.0 0
334864.0 415645.0 0
334547.0 419087.0 0
338265.0 418009.0 0
341498.0 419923.0 0
348076.0 417125.0 0
344089.0 417749.0 0
346617.0 419600.0 0
351447.0 416340.0 0
352157.0 419506.0 0
355038.0 417242.0 0
356589.0 416407.0 0
356741.0 419224.0 0
361326.0 416933.0 0
359169.0 418727.0 0
362175.0 420802.0 0
364365.0 418204.0 0
366689.0 420621.0 0
125352.0 424206.0 0
123536.0 426186.0 0
127722.0 422844.0 0
128785.0 425755.0 0
134108.0 423954.0 0
131231.0 424395.0 0
139262.0 421811.0 0
136708.0 424148.0 0
139328.0 425762.0 0
142028.0 422290.0 0
144433.0 424627.0 0
146811.0 422143.0 0
149401.0 422383.0 0
147751.0 426024.0 0
151092.0 425170.0 0
154163.0 422609.0 0
156120.0 425115.0 0
157016.0 421065.0 0
157942.0 423373.0 0
159445.0 424315.0 0
160501.0 422993.0 0
163695.0 423147.0 0
166632.0 423142.0 0
169602.0 423349.0 0
172986.0 421378.0 0
175338.0 422140.0 0
172967.0 423537.0 0
178126.0 422822.0 0
179087.0 420524.0 0
181230.0 422445.0 0
181100.0 424855.0 0
183998.0 420615.0 0
187276.0 420606.0 0
185120.0 424180.0 0
190124.0 421770.0 0
188039.0 424618.0 0
193324.0 420843.0 0
194887.0 422296.0 0
192238.0 423933.0 0
199147.0 422065.0 0
203378.0 422368.0 0
206659.0 422224.0 0
209891.0 423428.0 0
211157.0 419485.0 0
214705.0 420810.0 0
217900.0 420197.0 0
221592.0 419777.0 0
220058.0 422908.0 0
224562.0 418419.0 0
224861.0 423013.0 0
228982.0 420797.0 0
233156.0 420175.0 0
235785.0 423775.0 0
237140.0 419339.0 0
240779.0 419146.0 0
239553.0 422903.0 0
242605.0 421121.0 0
245598.0 419889.0 0
249440.0 419218.0 0
251212.0 423126.0 0
253673.0 419188.0 0
254772.0 423526.0 0
258035.0 419033.0 0
261246.0 421576.0 0
264933.0 419283.0 0
268762.0 421071.0 0
272277.0 419211.0 0
276060.0 421682.0 0
279880.0 420551.0 0
282889.0 422822.0 0
286809.0 418795.0 0
283322.0 418673.0 0
285601.0 422286.0 0
287556.0 423257.0 0
290880.0 421006.0 0
294819.0 419742.0 0
294655.0 423791.0 0
297534.0 421843.0 0
301454.0 422790.0 0
304817.0 423070.0 0
307545.0 422500.0 0
307764.0 419969.0 0
311092.0 419671.0 0
311857.0 422766.0 0
315003.0 422576.0 0
316086.0 425512.0 0
318740.0 424483.0 0
319533.0 421808.0 0
322523.0 423951.0 0
323629.0 422296.0 0
326833.0 423221.0 0
331403.0 422290.0 0
329652.0 424256.0 0
334879.0 422104.0 0
337083.0 421434.0 0
333659.0 424388.0 0
335632.0 425516.0 0
338302.0 424016.0 0
340423.0 422572.0 0
341948.0 423975.0 0
344283.0 422067.0 0
345722.0 424877.0 0
349367.0 421191.0 0
348838.0 423910.0 0
353043.0 424614.0 0
354648.0 421843.0 0
357491.0 423397.0 0
359413.0 421523.0 0
362187.0 423180.0 0
360609.0 425267.0 0
365159.0 423175.0 0
369756.0 421540.0 0
372152.0 422789.0 0
368795.0 424949.0 0
374232.0 425167.0 0
118640.0 428901.0 0
120545.0 426661.0 0
115960.0 430000.0 0
124012.0 429104.0 0
120781.0 430889.0 0
127155.0 427520.0 0
130874.0 428267.0 0
126265.0 431306.0 0
129761.0 431013.0 0
133272.0 427312.0 0
135897.0 427265.0 0
133806.0 430676.0 0
139587.0 428375.0 0
136424.0 429563.0 0
140683.0 431054.0 0
143378.0 427406.0 0
143799.0 429984.0 0
146921.0 428534.0 0
150679.0 428505.0 0
154036.0 426786.0 0
152958.0 429922.0 0
154767.0 428691.0 0
157791.0 426491.0 0
160477.0 426668.0 0
157293.0 429815.0 0
160332.0 429672.0 0
163203.0 426050.0 0
166497.0 426094.0 0
163996.0 428951.0 0
166642.0 429997.0 0
169587.0 427435.0 0
173935.0 426964.0 0
174097.0 430420.0 0
177380.0 425971.0 0
177496.0 429995.0 0
179698.0 428481.0 0
182558.0 427336.0 0
185280.0 428185.0 0
187901.0 428007.0 0
190611.0 426562.0 0
195424.0 425728.0 0
192997.0 429422.0 0
197582.0 427197.0 0
199999.0 425787.0 0
200232.0 429617.0 0
203637.0 426225.0 0
206886.0 426175.0 0
210836.0 427244.0 0
212987.0 424073.0 0
213685.0 428578.0 0
216447.0 425348.0 0
217915.0 429419.0 0
221773.0 427087.0 0
225289.0 427900.0 0
228086.0 425985.0 0
231833.0 424666.0 0
233141.0 428762.0 0
236574.0 427358.0 0
239786.0 426574.0 0
243530.0 424675.0 0
241875.0 428271.0 0
244726.0 428318.0 0
247419.0 423892.0 0
247853.0 427869.0 0
251193.0 426964.0 0
253775.0 426169.0 0
257096.0 427407.0 0
257997.0 423207.0 0
263653.0 423371.0 0
260591.0 425353.0 0
263951.0 427752.0 0
267266.0 424340.0 0
268332.0 427906.0 0
271311.0 427710.0 0
271639.0 423758.0 0
276089.0 426182.0 0
279575.0 424389.0 0
279784.0 427770.0 0
282297.0 426165.0 0
285868.0 426121.0 0
289040.0 425683.0 0
289752.0 428322.0 0
291928.0 425372.0 0
293149.0 428342.0 0
295783.0 426626.0 0
298158.0 425134.0 0
298144.0 427967.0 0
301448.0 426115.0 0
301594.0 429045.0 0
305859.0 426826.0 0
309165.0 424886.0 0
308945.0 429239.0 0
311328.0 427513.0 0
313200.0 425672.0 0
316250.0 428621.0 0
321305.0 426169.0 0
319210.0 427712.0 0
320486.0 430401.0 0
325502.0 425634.0 0
327637.0 426923.0 0
324160.0 428879.0 0
328646.0 425941.0 0
329497.0 427384.0 0
331746.0 426509.0 0
328488.0 430396.0 0
332898.0 429280.0 0
336323.0 428869.0 0
339623.0 426765.0 0
342594.0 426684.0 0
340567.0 429775.0 0
346623.0 427636.0 0
343792.0 429926.0 0
350833.0 425945.0 0
349704.0 429138.0 0
353010.0 428966.0 0
354076.0 427638.0 0
354997.0 426160.0 0
357320.0 426670.0 0
357350.0 429871.0 0
360491.0 427804.0 0
363507.0 426974.0 0
360318.0 430160.0 0
362507.0 429228.0 0
366112.0 426521.0 0
367710.0 429132.0 0
364708.0 430443.0 0
367045.0 431640.0 0
370932.0 426325.0 0
370813.0 429538.0 0
373620.0 429813.0 0
376638.0 426877.0 0
377232.0 430547.0 0
379891.0 427589.0 0
382221.0 429913.0 0
108581.0 435891.0 0
111068.0 434105.0 0
113481.0 432123.0 0
113697.0 435813.0 0
116532.0 433072.0 0
117596.0 435539.0 0
121074.0 433603.0 0
125346.0 434178.0 0
122890.0 435933.0 0
130168.0 434172.0 0
126844.0 436270.0 0
133802.0 433027.0 0
134642.0 435414.0 0
137082.0 432044.0 0
137418.0 434454.0 0
140882.0 433670.0 0
145276.0 431670.0 0
144224.0 433848.0 0
145409.0 436127.0 0
148693.0 431215.0 0
148460.0 434394.0 0
152732.0 432454.0 0
156421.0 432924.0 0
151882.0 435083.0 0
155128.0 435675.0 0
159760.0 434473.0 0
161951.0 432010.0 0
164545.0 432967.0 0
170926.0 430989.0 0
168147.0 432266.0 0
167013.0 434317.0 0
171015.0 433637.0 0
175138.0 432768.0 0
181457.0 430427.0 0
179061.0 432366.0 0
181469.0 434552.0 0
184853.0 432326.0 0
188946.0 431201.0 0
189899.0 434341.0 0
196523.0 430486.0 0
192982.0 433214.0 0
196793.0 433679.0 0
200380.0 433516.0 0
204064.0 430031.0 0
204141.0 433669.0 0
207988.0 430285.0 0
211389.0 431407.0 0
211673.0 434537.0 0
214953.0 432194.0 0
218354.0 432948.0 0
221784.0 431391.0 0
225373.0 430769.0 0
228971.0 429567.0 0
227146.0 433355.0 0
231579.0 432969.0 0
236512.0 432229.0 0
239071.0 429812.0 0
241874.0 431428.0 0
246211.0 432196.0 0
253945.0 429961.0 0
250052.0 431091.0 0
256571.0 431610.0 0
258141.0 434396.0 0
259851.0 430355.0 0
263850.0 431894.0 0
267454.0 430646.0 0
266338.0 433957.0 0
270223.0 430853.0 0
271941.0 433705.0 0
269184.0 433189.0 0
273941.0 430571.0 0
277968.0 430517.0 0
281960.0 429327.0 0
280799.0 431273.0 0
283601.0 432493.0 0
284681.0 429533.0 0
287726.0 429024.0 0
287626.0 432485.0 0
291033.0 431425.0 0
295654.0 431182.0 0
298145.0 434198.0 0
299292.0 430844.0 0
302183.0 434162.0 0
304543.0 430707.0 0
306575.0 434996.0 0
307572.0 432116.0 0
311456.0 433045.0 0
313292.0 430015.0 0
317299.0 432221.0 0
321384.0 433683.0 0
324250.0 432736.0 0
323961.0 435195.0 0
327871.0 434155.0 0
332515.0 432497.0 0
335057.0 433677.0 0
338166.0 432175.0 0
341854.0 432744.0 0
346356.0 431796.0 0
344473.0 433789.0 0
348588.0 434216.0 0
351744.0 433161.0 0
355186.0 431849.0 0
356470.0 435383.0 0
363769.0 432402.0 0
359409.0 434334.0 0
361319.0 432308.0 0
364711.0 435526.0 0
368066.0 434590.0 0
370479.0 432714.0 0
373138.0 433972.0 0
375341.0 432523.0 0
377026.0 434990.0 0
379742.0 431856.0 0
379685.0 434388.0 0
382977.0 434285.0 0
384824.0 431842.0 0
387422.0 433287.0 0
386655.0 436435.0 0
390183.0 434223.0 0
392455.0 436099.0 0
102688.0 438217.0 0
100570.0 440650.0 0
105620.0 437325.0 0
105865.0 440602.0 0
110839.0 439160.0 0
114314.0 438249.0 0
112795.0 441338.0 0
118972.0 437618.0 0
115811.0 440444.0 0
118951.0 440313.0 0
122465.0 438805.0 0
125122.0 439458.0 0
127729.0 438451.0 0
131053.0 436549.0 0
132142.0 439247.0 0
135416.0 439342.0 0
138184.0 437581.0 0
138924.0 440756.0 0
141439.0 436866.0 0
141964.0 439633.0 0
144608.0 439128.0 0
147701.0 438615.0 0
151118.0 437999.0 0
154731.0 438413.0 0
158165.0 437657.0 0
157605.0 440328.0 0
161287.0 439399.0 0
162582.0 436370.0 0
165084.0 436345.0 0
168966.0 435757.0 0
167031.0 438823.0 0
170805.0 437244.0 0
173410.0 435750.0 0
174276.0 439055.0 0
177375.0 435257.0 0
178529.0 438302.0 0
186197.0 435989.0 0
182618.0 437673.0 0
187995.0 439708.0 0
190971.0 437070.0 0
194208.0 436029.0 0
193653.0 439238.0 0
197244.0 437127.0 0
200211.0 436904.0 0
204493.0 437605.0 0
208197.0 434335.0 0
208532.0 437418.0 0
211947.0 438695.0 0
216206.0 436537.0 0
220501.0 435413.0 0
223694.0 434501.0 0
221206.0 439068.0 0
225383.0 437628.0 0
229509.0 436519.0 0
234193.0 435833.0 0
237029.0 436999.0 0
239861.0 435166.0 0
243544.0 434999.0 0
242838.0 438250.0 0
246571.0 437335.0 0
249292.0 435025.0 0
253363.0 435072.0 0
256694.0 438216.0 0
261995.0 434564.0 0
260427.0 438509.0 0
265184.0 437911.0 0
269143.0 436227.0 0
272799.0 437991.0 0
276418.0 434523.0 0
276994.0 438800.0 0
279577.0 438156.0 0
280770.0 434966.0 0
285388.0 435286.0 0
283447.0 437831.0 0
287750.0 438838.0 0
289477.0 435653.0 0
293500.0 435186.0 0
296420.0 439287.0 0
297717.0 436526.0 0
300507.0 438533.0 0
304661.0 437555.0 0
307980.0 439138.0 0
309457.0 436426.0 0
312250.0 438335.0 0
314976.0 435575.0 0
316051.0 439465.0 0
318934.0 435887.0 0
322277.0 437688.0 0
318979.0 439595.0 0
323503.0 440841.0 0
326120.0 437059.0 0
327235.0 439938.0 0
331016.0 435946.0 0
330463.0 439507.0 0
335031.0 436908.0 0
337579.0 440748.0 0
338903.0 436011.0 0
342863.0 436753.0 0
338666.0 438733.0 0
342046.0 440082.0 0
347247.0 437529.0 0
351216.0 438819.0 0
353038.0 436521.0 0
356333.0 438716.0 0
361640.0 436943.0 0
359509.0 439367.0 0
363139.0 439602.0 0
366377.0 438969.0 0
369923.0 437669.0 0
373124.0 436529.0 0
371517.0 440823.0 0
375000.0 438508.0 0
377475.0 437764.0 0
377822.0 441256.0 0
379921.0 438731.0 0
381557.0 436500.0 0
384302.0 437260.0 0
381955.0 441128.0 0
387512.0 439924.0 0
388496.0 437744.0 0
384663.0 440452.0 0
391155.0 438520.0 0
391285.0 441150.0 0
395266.0 437111.0 0
398486.0 438809.0 0
395895.0 439582.0 0
398387.0 441366.0 0
400640.0 439715.0 0
92910.2 444854.0 0
94607.8 442489.0 0
90585.8 446963.0 0
97895.2 442330.0 0
96147.5 445209.0 0
103228.0 442102.0 0
100440.0 444569.0 0
103822.0 444529.0 0
106457.0 444708.0 0
108721.0 442005.0 0
107042.0 446780.0 0
110914.0 444443.0 0
114824.0 444015.0 0
119032.0 442736.0 0
117695.0 445636.0 0
122360.0 441770.0 0
124088.0 443533.0 0
125755.0 441914.0 0
120656.0 444627.0 0
125081.0 446476.0 0
129065.0 441649.0 0
128288.0 444920.0 0
132200.0 442794.0 0
135095.0 442377.0 0
132430.0 444855.0 0
136239.0 445439.0 0
139003.0 443193.0 0
141503.0 442222.0 0
143995.0 442058.0 0
142112.0 445409.0 0
147551.0 442751.0 0
149939.0 445210.0 0
151408.0 441749.0 0
154962.0 441698.0 0
152015.0 444481.0 0
155258.0 444833.0 0
159385.0 442187.0 0
158333.0 444797.0 0
164260.0 440830.0 0
161904.0 443836.0 0
165899.0 443224.0 0
170240.0 440509.0 0
168810.0 444023.0 0
172882.0 442966.0 0
175165.0 442316.0 0
179115.0 442806.0 0
183754.0 441440.0 0
188196.0 443864.0 0
191532.0 441302.0 0
194192.0 442756.0 0
196626.0 440083.0 0
197062.0 444057.0 0
200855.0 441139.0 0
204986.0 441715.0 0
203430.0 444584.0 0
207329.0 440189.0 0
206449.0 443803.0 0
209346.0 442664.0 0
213943.0 442483.0 0
217221.0 440816.0 0
219301.0 444764.0 0
223607.0 442513.0 0
227661.0 440931.0 0
232127.0 439543.0 0
230436.0 443557.0 0
234316.0 444161.0 0
236165.0 440157.0 0
237938.0 442768.0 0
239846.0 439781.0 0
242678.0 440739.0 0
245785.0 441787.0 0
250361.0 439670.0 0
254106.0 439994.0 0
253360.0 443760.0 0
257645.0 442598.0 0
262998.0 443227.0 0
267082.0 441577.0 0
269158.0 439864.0 0
268217.0 443677.0 0
271244.0 442988.0 0
274587.0 442008.0 0
278291.0 442640.0 0
281232.0 440232.0 0
282383.0 444185.0 0
284260.0 441000.0 0
286578.0 443194.0 0
292301.0 439807.0 0
289634.0 442512.0 0
296570.0 442634.0 0
300299.0 442539.0 0
304852.0 441948.0 0
310587.0 441157.0 0
308941.0 444469.0 0
313098.0 444786.0 0
313939.0 441966.0 0
316885.0 443243.0 0
320003.0 442717.0 0
323491.0 443658.0 0
327055.0 443360.0 0
330513.0 444195.0 0
334248.0 440510.0 0
337595.0 444002.0 0
339917.0 442322.0 0
341664.0 445054.0 0
346697.0 440793.0 0
344393.0 442630.0 0
349067.0 443208.0 0
349990.0 441148.0 0
354131.0 441498.0 0
352242.0 444468.0 0
359648.0 442196.0 0
356766.0 443134.0 0
362512.0 441352.0 0
360798.0 445195.0 0
364179.0 444530.0 0
366024.0 441867.0 0
368178.0 446808.0 0
369792.0 443685.0 0
372833.0 446337.0 0
374877.0 441669.0 0
375261.0 444453.0 0
379820.0 444009.0 0
383102.0 445172.0 0
388809.0 442996.0 0
385746.0 443983.0 0
394344.0 442308.0 0
390287.0 445567.0 0
393414.0 445764.0 0
397060.0 443933.0 0
399065.0 444710.0 0
400399.0 442371.0 0
402694.0 442282.0 0
402797.0 445397.0 0
405105.0 443033.0 0
407153.0 444740.0 0
405104.0 446283.0 0
409591.0 446328.0 0
81673.5 451309.0 0
84591.1 450209.0 0
87568.7 448437.0 0
88666.4 451472.0 0
92176.2 449301.0 0
95900.5 449098.0 0
99239.8 447340.0 0
100119.0 449864.0 0
99601.3 451920.0 0
102622.0 447154.0 0
104747.0 449887.0 0
110053.0 447413.0 0
108862.0 449566.0 0
114046.0 448155.0 0
112727.0 451014.0 0
117602.0 448810.0 0
117587.0 451773.0 0
121225.0 447754.0 0
121736.0 450828.0 0
130445.0 446943.0 0
126143.0 449552.0 0
129168.0 449981.0 0
133748.0 448160.0 0
135720.0 450945.0 0
139372.0 448657.0 0
145769.0 446664.0 0
142696.0 450281.0 0
145808.0 451004.0 0
149358.0 448267.0 0
152047.0 446769.0 0
151426.0 450919.0 0
155106.0 448746.0 0
159653.0 447813.0 0
163858.0 445932.0 0
164128.0 449647.0 0
167388.0 447168.0 0
169902.0 449402.0 0
172089.0 446021.0 0
175220.0 445322.0 0
173965.0 449073.0 0
177620.0 448206.0 0
181362.0 445914.0 0
185017.0 445482.0 0
182295.0 449351.0 0
191287.0 445570.0 0
187141.0 448568.0 0
190628.0 449341.0 0
195030.0 446939.0 0
197864.0 448716.0 0
199990.0 446176.0 0
202565.0 448458.0 0
206643.0 447869.0 0
211150.0 445900.0 0
213296.0 448763.0 0
215302.0 445813.0 0
216333.0 449377.0 0
219875.0 449482.0 0
222824.0 446278.0 0
223585.0 449599.0 0
226725.0 445532.0 0
231021.0 447258.0 0
234809.0 449417.0 0
237608.0 445994.0 0
241643.0 444489.0 0
245683.0 446886.0 0
249296.0 444658.0 0
252364.0 448249.0 0
256285.0 447200.0 0
259896.0 446582.0 0
263190.0 449334.0 0
266584.0 446359.0 0
270741.0 447169.0 0
275005.0 446354.0 0
278903.0 446344.0 0
281935.0 448279.0 0
285012.0 449894.0 0
285457.0 446599.0 0
287555.0 448941.0 0
289231.0 446073.0 0
292988.0 444553.0 0
295309.0 448287.0 0
297428.0 445772.0 0
298900.0 449602.0 0
303947.0 445765.0 0
300720.0 446681.0 0
303345.0 449618.0 0
306660.0 448184.0 0
309903.0 449803.0 0
311394.0 447422.0 0
316296.0 446302.0 0
313796.0 448321.0 0
317919.0 449737.0 0
320479.0 446383.0 0
325071.0 446979.0 0
329589.0 448226.0 0
334435.0 444735.0 0
338636.0 447170.0 0
334471.0 448840.0 0
337496.0 450236.0 0
340778.0 449770.0 0
344097.0 447902.0 0
347024.0 445671.0 0
347163.0 450309.0 0
350560.0 448385.0 0
355149.0 446107.0 0
357794.0 446580.0 0
354121.0 448586.0 0
357717.0 449696.0 0
362141.0 448146.0 0
360364.0 449828.0 0
365663.0 447391.0 0
364797.0 450360.0 0
368019.0 450988.0 0
369989.0 449150.0 0
372243.0 451531.0 0
374109.0 449100.0 0
377341.0 446528.0 0
376844.0 448147.0 0
380028.0 447461.0 0
383348.0 447957.0 0
380346.0 450243.0 0
386528.0 446687.0 0
388801.0 447859.0 0
385461.0 450002.0 0
393200.0 448876.0 0
390666.0 450610.0 0
396342.0 446667.0 0
398341.0 449027.0 0
395693.0 450663.0 0
400673.0 446973.0 0
402769.0 449137.0 0
402249.0 451298.0 0
405101.0 448602.0 0
408371.0 448715.0 0
406959.0 451338.0 0
410998.0 449913.0 0
412517.0 447804.0 0
414900.0 449725.0 0
413360.0 452005.0 0
417701.0 451458.0 0
72455.4 457070.0 0
79150.3 453972.0 0
76254.6 455372.0 0
79512.7 457223.0 0
82129.5 454249.0 0
82501.5 456397.0 0
85696.9 453544.0 0
89617.1 454711.0 0
85945.3 456639.0 0
91213.6 452072.0 0
95637.5 453562.0 0
98774.6 456560.0 0
102062.0 452328.0 0
102035.0 455227.0 0
105126.0 456524.0 0
106640.0 453117.0 0
110240.0 452868.0 0
108680.0 456665.0 0
114999.0 452920.0 0
111849.0 456031.0 0
114656.0 455497.0 0
119215.0 453989.0 0
117425.0 456645.0 0
124439.0 452454.0 0
121664.0 454831.0 0
126616.0 455548.0 0
128974.0 453005.0 0
132201.0 451065.0 0
132028.0 454054.0 0
139322.0 452607.0 0
135594.0 454422.0 0
141828.0 453231.0 0
144051.0 454687.0 0
148544.0 452803.0 0
150087.0 455686.0 0
152987.0 453918.0 0
156326.0 452461.0 0
160059.0 451829.0 0
157086.0 455881.0 0
159989.0 455594.0 0
163421.0 453693.0 0
166998.0 451297.0 0
166768.0 454988.0 0
170520.0 453147.0 0
173572.0 451949.0 0
176630.0 453515.0 0
179343.0 451258.0 0
181095.0 453534.0 0
184727.0 452158.0 0
185052.0 455118.0 0
187919.0 452045.0 0
191080.0 452167.0 0
194017.0 450167.0 0
193719.0 454143.0 0
196991.0 452065.0 0
200313.0 450515.0 0
200266.0 453788.0 0
203027.0 454926.0 0
203560.0 451707.0 0
207346.0 454016.0 0
210160.0 450061.0 0
213000.0 453133.0 0
217375.0 453384.0 0
221476.0 454124.0 0
225358.0 453131.0 0
227721.0 449962.0 0
230870.0 451794.0 0
233172.0 453393.0 0
239510.0 449739.0 0
242979.0 449072.0 0
241166.0 454007.0 0
244867.0 452184.0 0
248661.0 450096.0 0
251724.0 453270.0 0
255144.0 451427.0 0
258174.0 454444.0 0
259275.0 450483.0 0
262353.0 454576.0 0
267559.0 450026.0 0
265769.0 453031.0 0
270131.0 450930.0 0
273570.0 451107.0 0
278165.0 450318.0 0
276375.0 453996.0 0
282618.0 452897.0 0
287386.0 452524.0 0
291392.0 450243.0 0
296409.0 452004.0 0
299816.0 453603.0 0
301405.0 450762.0 0
303702.0 453179.0 0
306346.0 451844.0 0
309538.0 453528.0 0
312510.0 450736.0 0
314400.0 454593.0 0
315179.0 450568.0 0
318076.0 452949.0 0
321479.0 450394.0 0
321308.0 454026.0 0
324709.0 453577.0 0
324880.0 450732.0 0
327823.0 451179.0 0
328705.0 455359.0 0
332151.0 452262.0 0
339049.0 452092.0 0
336206.0 453723.0 0
339691.0 455983.0 0
341131.0 454027.0 0
343612.0 452049.0 0
347694.0 453919.0 0
351978.0 453305.0 0
355267.0 451318.0 0
358923.0 452603.0 0
355845.0 455695.0 0
356867.0 453349.0 0
361801.0 452039.0 0
359314.0 455085.0 0
362818.0 454833.0 0
366234.0 454262.0 0
370205.0 454186.0 0
375242.0 453425.0 0
377275.0 451254.0 0
378928.0 453849.0 0
378446.0 456316.0 0
382562.0 452804.0 0
381219.0 455507.0 0
387704.0 452437.0 0
385565.0 455188.0 0
389689.0 454721.0 0
392722.0 453481.0 0
396579.0 454542.0 0
399112.0 456933.0 0
399966.0 452629.0 0
404769.0 453123.0 0
402594.0 455581.0 0
407342.0 455476.0 0
410408.0 453268.0 0
412026.0 456404.0 0
414386.0 455268.0 0
415448.0 453494.0 0
420101.0 453680.0 0
416839.0 455543.0 0
423113.0 454372.0 0
425310.0 456288.0 0
67255.8 461134.0 0
70014.8 458775.0 0
72745.6 461208.0 0
75141.5 457887.0 0
77760.4 459991.0 0
81598.4 458279.0 0
83853.6 459119.0 0
80507.3 461224.0 0
88283.5 458657.0 0
84698.5 460903.0 0
87812.4 461697.0 0
92308.4 457419.0 0
91696.9 461372.0 0
95483.1 459360.0 0
96981.4 461382.0 0
100164.0 459785.0 0
103374.0 459637.0 0
109372.0 459169.0 0
106975.0 459875.0 0
112005.0 459500.0 0
115128.0 459712.0 0
120034.0 458169.0 0
117971.0 460509.0 0
122833.0 457271.0 0
123532.0 460096.0 0
126407.0 459328.0 0
130021.0 457123.0 0
127837.0 461064.0 0
129934.0 459721.0 0
133377.0 458152.0 0
131709.0 460860.0 0
139150.0 456717.0 0
136567.0 460333.0 0
140358.0 461007.0 0
142692.0 458290.0 0
146762.0 456117.0 0
146436.0 459719.0 0
154197.0 456845.0 0
151212.0 459501.0 0
154843.0 460748.0 0
156175.0 458892.0 0
159033.0 459404.0 0
162638.0 457476.0 0
165253.0 457835.0 0
164458.0 460224.0 0
168609.0 458464.0 0
172610.0 456407.0 0
178870.0 456252.0 0
175748.0 458167.0 0
179340.0 459489.0 0
182282.0 456604.0 0
183197.0 460115.0 0
189122.0 456170.0 0
185148.0 457692.0 0
187118.0 460278.0 0
193375.0 457655.0 0
196849.0 456055.0 0
195847.0 460067.0 0
200217.0 458133.0 0
204167.0 457927.0 0
207246.0 459902.0 0
210695.0 457629.0 0
214728.0 457094.0 0
218373.0 457445.0 0
221661.0 458858.0 0
224860.0 456659.0 0
228355.0 454758.0 0
227915.0 458682.0 0
231856.0 456632.0 0
236531.0 454489.0 0
235230.0 459527.0 0
239208.0 458239.0 0
243666.0 457577.0 0
247740.0 455797.0 0
251736.0 457923.0 0
254833.0 455903.0 0
257953.0 458014.0 0
260713.0 457962.0 0
265655.0 457016.0 0
269657.0 455051.0 0
271829.0 459150.0 0
273926.0 456188.0 0
274395.0 459685.0 0
277435.0 457974.0 0
279186.0 454805.0 0
281428.0 457177.0 0
289933.0 455444.0 0
285631.0 456730.0 0
293718.0 454136.0 0
289165.0 459560.0 0
293048.0 458273.0 0
297310.0 456562.0 0
302299.0 457418.0 0
299161.0 459729.0 0
306286.0 456173.0 0
306229.0 460704.0 0
310386.0 458269.0 0
314174.0 459008.0 0
319130.0 456386.0 0
317066.0 458058.0 0
321256.0 459669.0 0
323546.0 456884.0 0
326217.0 459546.0 0
333459.0 456710.0 0
330547.0 459844.0 0
337353.0 457844.0 0
344147.0 456065.0 0
342102.0 458844.0 0
347402.0 458146.0 0
350558.0 457299.0 0
353657.0 457519.0 0
351854.0 459525.0 0
349727.0 460751.0 0
354984.0 460221.0 0
358556.0 458773.0 0
362423.0 457861.0 0
364842.0 460187.0 0
366603.0 457240.0 0
369619.0 457779.0 0
374267.0 456959.0 0
373134.0 460949.0 0
377077.0 459911.0 0
379932.0 459599.0 0
383879.0 458921.0 0
388648.0 456953.0 0
388013.0 460455.0 0
391206.0 459198.0 0
391916.0 456713.0 0
393612.0 460975.0 0
394889.0 458072.0 0
397548.0 459771.0 0
401559.0 458864.0 0
400058.0 460883.0 0
404225.0 460174.0 0
405520.0 457754.0 0
408183.0 459915.0 0
409335.0 457700.0 0
406924.0 461928.0 0
413709.0 459252.0 0
410940.0 460848.0 0
417271.0 458345.0 0
418277.0 461663.0 0
420550.0 457339.0 0
423233.0 459170.0 0
421439.0 462360.0 0
428200.0 458012.0 0
426479.0 460882.0 0
430802.0 459408.0 0
433902.0 461131.0 0
58475.5 466491.0 0
61217.2 464499.0 0
62610.7 467335.0 0
64256.4 462674.0 0
65262.2 465686.0 0
67727.5 466024.0 0
69823.3 463263.0 0
71648.5 465836.0 0
74394.1 466706.0 0
75657.4 463196.0 0
78862.3 464620.0 0
82405.4 462593.0 0
81520.8 465557.0 0
84703.6 463204.0 0
84840.0 466270.0 0
88251.7 464854.0 0
91276.8 464280.0 0
94237.7 462186.0 0
94425.7 465267.0 0
97776.9 464360.0 0
100864.0 463203.0 0
103999.0 462564.0 0
101817.0 465613.0 0
104227.0 465100.0 0
107530.0 462470.0 0
107316.0 465817.0 0
110985.0 462585.0 0
114555.0 463465.0 0
110988.0 466601.0 0
120823.0 461786.0 0
117532.0 463561.0 0
124883.0 462333.0 0
122389.0 464911.0 0
126582.0 463224.0 0
129761.0 462685.0 0
126115.0 465921.0 0
133428.0 462754.0 0
130089.0 466057.0 0
134545.0 465702.0 0
137423.0 463786.0 0
140341.0 463846.0 0
138522.0 466500.0 0
143298.0 462125.0 0
141797.0 465719.0 0
145011.0 465325.0 0
148259.0 463244.0 0
152459.0 463835.0 0
157020.0 463186.0 0
161466.0 461679.0 0
160518.0 464786.0 0
164103.0 463606.0 0
167164.0 462222.0 0
167855.0 465460.0 0
171807.0 461642.0 0
175824.0 462308.0 0
180354.0 464171.0 0
184966.0 463496.0 0
188308.0 463149.0 0
189996.0 465322.0 0
191244.0 460980.0 0
193362.0 464117.0 0
199359.0 461658.0 0
196919.0 463631.0 0
203040.0 462298.0 0
206640.0 464398.0 0
210004.0 462108.0 0
212692.0 460548.0 0
213206.0 464470.0 0
216062.0 460713.0 0
217278.0 464661.0 0
219370.0 461183.0 0
224709.0 460531.0 0
222150.0 464498.0 0
227061.0 463080.0 0
230932.0 461258.0 0
233851.0 464307.0 0
237914.0 463089.0 0
240902.0 460528.0 0
243646.0 461374.0 0
241459.0 463773.0 0
247910.0 461722.0 0
252506.0 462129.0 0
255576.0 459923.0 0
259482.0 461648.0 0
263501.0 459813.0 0
268482.0 459996.0 0
266080.0 463034.0 0
269118.0 464603.0 0
272378.0 462973.0 0
276473.0 462229.0 0
280369.0 460799.0 0
283830.0 460100.0 0
279743.0 464558.0 0
283729.0 464040.0 0
286440.0 461507.0 0
288608.0 464561.0 0
292286.0 462569.0 0
296120.0 460555.0 0
298759.0 462670.0 0
300140.0 466048.0 0
301957.0 462087.0 0
309634.0 461807.0 0
313160.0 462560.0 0
317143.0 461289.0 0
320463.0 464387.0 0
325559.0 463922.0 0
329801.0 462971.0 0
333010.0 464317.0 0
334478.0 460872.0 0
336768.0 465315.0 0
339148.0 461823.0 0
341893.0 465188.0 0
345424.0 462201.0 0
352880.0 462474.0 0
350056.0 464023.0 0
354686.0 465522.0 0
356997.0 462971.0 0
359019.0 465848.0 0
360934.0 462597.0 0
369189.0 461931.0 0
364921.0 464744.0 0
370663.0 465728.0 0
373023.0 464720.0 0
376042.0 463212.0 0
375743.0 466415.0 0
379799.0 463891.0 0
383334.0 463221.0 0
386415.0 463559.0 0
384616.0 466098.0 0
388189.0 465732.0 0
390964.0 463412.0 0
394342.0 465873.0 0
396289.0 462892.0 0
399855.0 464305.0 0
403139.0 462391.0 0
403072.0 466656.0 0
405191.0 464181.0 0
408665.0 464246.0 0
407103.0 467086.0 0
410274.0 466656.0 0
410880.0 463139.0 0
414960.0 463178.0 0
412667.0 465406.0 0
417275.0 466040.0 0
425096.0 463946.0 0
421423.0 466353.0 0
429046.0 462424.0 0
428084.0 466460.0 0
431893.0 462606.0 0
434941.0 465650.0 0
432027.0 465493.0 0
436311.0 463260.0 0
439203.0 464461.0 0
439610.0 467332.0 0
442445.0 466746.0 0
51901.1 469932.0 0
49346.4 472207.0 0
55489.4 468404.0 0
54120.7 471528.0 0
57587.3 471080.0 0
59400.1 469124.0 0
61701.5 469911.0 0
60372.4 472179.0 0
63451.7 471332.0 0
65213.7 469027.0 0
67115.8 470832.0 0
69508.7 468487.0 0
72426.1 470266.0 0
77567.4 468425.0 0
75476.5 470975.0 0
79337.1 472069.0 0
81224.8 468827.0 0
83211.5 470882.0 0
85938.4 469120.0 0
89058.9 467743.0 0
87343.4 471699.0 0
91852.6 467335.0 0
89688.7 470033.0 0
92797.2 469929.0 0
95616.6 468157.0 0
98734.6 467459.0 0
95917.4 470653.0 0
99010.0 470893.0 0
102082.0 468562.0 0
104420.0 467677.0 0
103103.0 471658.0 0
106488.0 469194.0 0
109979.0 470385.0 0
114838.0 467452.0 0
113931.0 472389.0 0
118464.0 466005.0 0
118579.0 470237.0 0
121907.0 468443.0 0
125264.0 469931.0 0
129471.0 470568.0 0
133025.0 468506.0 0
140691.0 467862.0 0
136251.0 468864.0 0
139158.0 470620.0 0
143338.0 469187.0 0
149596.0 466288.0 0
147025.0 468756.0 0
151529.0 467642.0 0
153861.0 466904.0 0
150504.0 470854.0 0
156895.0 466644.0 0
154991.0 470242.0 0
159471.0 468607.0 0
163511.0 466664.0 0
162476.0 470571.0 0
165723.0 469260.0 0
169292.0 469450.0 0
172029.0 465895.0 0
173465.0 470340.0 0
175753.0 466216.0 0
178883.0 469312.0 0
183578.0 467361.0 0
186985.0 466047.0 0
188015.0 470078.0 0
191824.0 467940.0 0
199929.0 465708.0 0
195597.0 467567.0 0
198863.0 470093.0 0
203570.0 467625.0 0
209742.0 465455.0 0
207902.0 468570.0 0
211273.0 467932.0 0
214788.0 469061.0 0
219004.0 468393.0 0
225823.0 467335.0 0
229815.0 465624.0 0
229024.0 469022.0 0
232495.0 468460.0 0
236766.0 467902.0 0
240830.0 467566.0 0
244631.0 465675.0 0
247801.0 467894.0 0
251312.0 466208.0 0
254014.0 469422.0 0
255837.0 464782.0 0
257587.0 468663.0 0
259417.0 466035.0 0
262681.0 464735.0 0
261498.0 469815.0 0
266354.0 468287.0 0
271324.0 467778.0 0
275960.0 466960.0 0
281428.0 468677.0 0
285880.0 467320.0 0
289602.0 469013.0 0
292598.0 466848.0 0
296188.0 464706.0 0
296523.0 468583.0 0
304497.0 465252.0 0
302897.0 468552.0 0
309237.0 466016.0 0
305958.0 469108.0 0
313578.0 466681.0 0
313104.0 470322.0 0
316591.0 465570.0 0
316265.0 469069.0 0
319390.0 468976.0 0
322834.0 468162.0 0
327209.0 469303.0 0
330440.0 466903.0 0
334245.0 468249.0 0
339005.0 467416.0 0
337514.0 469616.0 0
341765.0 469749.0 0
345055.0 467270.0 0
347713.0 466256.0 0
345144.0 470140.0 0
348778.0 470272.0 0
351499.0 467133.0 0
353374.0 469999.0 0
356661.0 469097.0 0
362357.0 467235.0 0
360108.0 469686.0 0
363292.0 471025.0 0
367991.0 466961.0 0
365483.0 469007.0 0
366602.0 471820.0 0
372876.0 467941.0 0
369662.0 469912.0 0
378842.0 467859.0 0
375971.0 470049.0 0
382228.0 467635.0 0
383504.0 471178.0 0
386999.0 469049.0 0
391019.0 467681.0 0
390243.0 471601.0 0
394574.0 470744.0 0
398271.0 467961.0 0
403442.0 469652.0 0
400404.0 470782.0 0
407400.0 470689.0 0
411077.0 468841.0 0
414009.0 467702.0 0
414815.0 470483.0 0
417595.0 469271.0 0
420353.0 470054.0 0
424743.0 469135.0 0
430207.0 469424.0 0
433092.0 468439.0 0
433146.0 471086.0 0
436732.0 468531.0 0
441245.0 470276.0 0
436489.0 471888.0 0
439822.0 471967.0 0
444956.0 469053.0 0
448249.0 470734.0 0
451431.0 471788.0 0
43696.3 475783.0 0
40363.9 477131.0 0
46029.9 473179.0 0
47418.1 475397.0 0
51391.3 474123.0 0
50624.3 477174.0 0
54660.4 474403.0 0
57752.2 473915.0 0
61493.7 473987.0 0
59392.4 477088.0 0
63483.3 477571.0 0
64806.2 474140.0 0
68123.5 475677.0 0
69554.3 472810.0 0
72629.5 474573.0 0
76167.7 473799.0 0
77662.3 477034.0 0
80898.1 474773.0 0
84306.4 473918.0 0
84139.9 477330.0 0
87711.5 475262.0 0
90811.7 473100.0 0
94185.7 473275.0 0
91109.0 476329.0 0
97988.7 474450.0 0
94097.0 476714.0 0
101866.0 475139.0 0
106452.0 472661.0 0
109673.0 474449.0 0
112503.0 476374.0 0
118191.0 475507.0 0
122156.0 472410.0 0
122924.0 475388.0 0
126455.0 474498.0 0
133386.0 472036.0 0
130151.0 475354.0 0
136624.0 472469.0 0
138617.0 475373.0 0
142155.0 472611.0 0
143866.0 475972.0 0
145877.0 472326.0 0
148148.0 474757.0 0
152955.0 474540.0 0
156467.0 476093.0 0
158119.0 472903.0 0
161930.0 473920.0 0
165868.0 473031.0 0
169701.0 472894.0 0
172048.0 475151.0 0
175920.0 473665.0 0
183361.0 470694.0 0
180347.0 473731.0 0
184753.0 473981.0 0
188861.0 474787.0 0
193557.0 472306.0 0
198437.0 474882.0 0
202283.0 472129.0 0
205575.0 471002.0 0
205388.0 474705.0 0
207841.0 472484.0 0
210786.0 471469.0 0
214001.0 474007.0 0
217864.0 472330.0 0
220226.0 474855.0 0
222224.0 470604.0 0
226517.0 471661.0 0
230538.0 472040.0 0
234876.0 472178.0 0
239872.0 472560.0 0
244209.0 470377.0 0
247395.0 471928.0 0
249348.0 474822.0 0
250494.0 470890.0 0
252800.0 473931.0 0
257185.0 473006.0 0
261077.0 474334.0 0
264676.0 473369.0 0
269746.0 473066.0 0
273996.0 470916.0 0
277954.0 472190.0 0
282304.0 474244.0 0
285983.0 471646.0 0
290120.0 473743.0 0
293365.0 470910.0 0
299996.0 470324.0 0
296849.0 472205.0 0
299811.0 474811.0 0
304358.0 473139.0 0
309111.0 471625.0 0
312888.0 474738.0 0
317658.0 473401.0 0
323032.0 472920.0 0
327788.0 473426.0 0
331667.0 471480.0 0
330931.0 475632.0 0
335491.0 471859.0 0
335070.0 475455.0 0
339552.0 473783.0 0
344669.0 473579.0 0
348181.0 474552.0 0
352385.0 473460.0 0
356678.0 473057.0 0
360200.0 472851.0 0
360157.0 476361.0 0
364127.0 475034.0 0
369601.0 474489.0 0
372975.0 472261.0 0
373657.0 475893.0 0
379818.0 471676.0 0
376585.0 473729.0 0
379994.0 475336.0 0
383367.0 475360.0 0
386939.0 473490.0 0
386900.0 476677.0 0
390632.0 475717.0 0
394449.0 475363.0 0
398272.0 473492.0 0
398626.0 476743.0 0
401983.0 474394.0 0
403423.0 472128.0 0
405831.0 474229.0 0
409067.0 475168.0 0
411811.0 472701.0 0
412642.0 476687.0 0
415672.0 475045.0 0
417223.0 472555.0 0
420558.0 473234.0 0
419231.0 477136.0 0
425216.0 473519.0 0
429302.0 472343.0 0
428566.0 477079.0 0
432426.0 474841.0 0
441120.0 474954.0 0
437158.0 475928.0 0
444321.0 472789.0 0
446372.0 475755.0 0
443621.0 477787.0 0
448855.0 473422.0 0
450610.0 476979.0 0
453552.0 474361.0 0
456786.0 476199.0 0
37698.2 480410.0 0
33765.6 482480.0 0
41637.8 479857.0 0
44501.3 479030.0 0
47663.5 478544.0 0
45168.4 482490.0 0
48634.9 481413.0 0
51515.1 480456.0 0
54824.3 477939.0 0
55654.4 481173.0 0
59336.9 481188.0 0
63586.5 481461.0 0
67174.7 478833.0 0
67736.7 482359.0 0
70780.4 478339.0 0
71066.2 481514.0 0
74193.7 478035.0 0
74522.6 481267.0 0
77470.0 480252.0 0
81242.4 478577.0 0
80058.9 482145.0 0
87331.3 478270.0 0
84719.5 481316.0 0
88446.4 481391.0 0
90510.5 479210.0 0
97642.1 478129.0 0
93931.3 480179.0 0
101336.0 479301.0 0
104787.0 480413.0 0
105884.0 476822.0 0
108064.0 481296.0 0
109758.0 477951.0 0
114623.0 477522.0 0
112337.0 480641.0 0
117184.0 481146.0 0
122072.0 478630.0 0
126408.0 478974.0 0
134208.0 475926.0 0
130720.0 478904.0 0
135013.0 480022.0 0
140162.0 479302.0 0
143975.0 479387.0 0
146512.0 477654.0 0
146613.0 481045.0 0
149890.0 477886.0 0
153957.0 478593.0 0
159622.0 476647.0 0
157418.0 478579.0 0
159999.0 480013.0 0
163368.0 477531.0 0
167884.0 476591.0 0
166013.0 480823.0 0
170882.0 479958.0 0
174359.0 477127.0 0
174990.0 480522.0 0
177503.0 476935.0 0
178573.0 479894.0 0
181858.0 477721.0 0
185839.0 477211.0 0
188731.0 479257.0 0
191632.0 476971.0 0
194701.0 476971.0 0
197427.0 479609.0 0
200854.0 478486.0 0
202280.0 475878.0 0
204830.0 479267.0 0
209225.0 476436.0 0
213137.0 478651.0 0
217353.0 476926.0 0
223702.0 475281.0 0
221146.0 479450.0 0
225483.0 479651.0 0
227995.0 475806.0 0
229568.0 479798.0 0
232190.0 476016.0 0
236525.0 476565.0 0
240952.0 478000.0 0
244951.0 475431.0 0
248410.0 479297.0 0
251574.0 477466.0 0
254872.0 477652.0 0
258869.0 477318.0 0
262729.0 477333.0 0
266652.0 477640.0 0
271302.0 478703.0 0
274705.0 475483.0 0
278991.0 477333.0 0
283251.0 478712.0 0
286396.0 476108.0 0
286541.0 479749.0 0
290386.0 478494.0 0
294750.0 475577.0 0
294244.0 479889.0 0
298767.0 479453.0 0
304319.0 478906.0 0
308512.0 475843.0 0
308910.0 479766.0 0
311367.0 477909.0 0
313878.0 478048.0 0
316575.0 477615.0 0
318248.0 480893.0 0
321654.0 477934.0 0
326479.0 476669.0 0
326472.0 481016.0 0
330403.0 479301.0 0
334381.0 479230.0 0
339322.0 478909.0 0
343266.0 476701.0 0
344362.0 480295.0 0
346589.0 477342.0 0
348837.0 480465.0 0
350483.0 477291.0 0
352460.0 480448.0 0
355424.0 477515.0 0
359584.0 479996.0 0
363578.0 479999.0 0
367461.0 478053.0 0
371854.0 478716.0 0
374643.0 479825.0 0
376931.0 477664.0 0
384686.0 478681.0 0
381232.0 479173.0 0
388869.0 479938.0 0
396021.0 478565.0 0
392713.0 479236.0 0
399514.0 480899.0 0
401945.0 477527.0 0
405644.0 477757.0 0
403977.0 481121.0 0
409483.0 478259.0 0
408195.0 481704.0 0
415602.0 478991.0 0
412650.0 480590.0 0
419223.0 480962.0 0
423230.0 477958.0 0
422539.0 481717.0 0
426252.0 479587.0 0
429333.0 480631.0 0
432545.0 478660.0 0
431712.0 481395.0 0
436555.0 480157.0 0
440545.0 478921.0 0
441208.0 481955.0 0
444965.0 480904.0 0
447993.0 480001.0 0
449945.0 483165.0 0
453063.0 480649.0 0
455702.0 478829.0 0
458574.0 480890.0 0
460174.0 478075.0 0
463216.0 479728.0 0
461248.0 481834.0 0
466023.0 482366.0 0
24289.5 487236.0 0
27558.3 485741.0 0
30247.6 483562.0 0
31159.7 486337.0 0
37796.7 485560.0 0
33674.6 486279.0 0
41433.7 482954.0 0
41520.3 486488.0 0
44326.3 485567.0 0
49073.3 485124.0 0
52824.7 483213.0 0
53006.3 487145.0 0
56258.9 484522.0 0
60657.4 485631.0 0
64897.0 485024.0 0
65580.5 487226.0 0
72667.9 484652.0 0
68899.4 485911.0 0
76498.6 483929.0 0
75268.4 486971.0 0
79226.3 486257.0 0
83102.4 485194.0 0
87651.7 484685.0 0
91171.7 482614.0 0
91140.7 485784.0 0
94206.8 484426.0 0
97481.1 482104.0 0
100979.0 483208.0 0
98464.2 486877.0 0
103105.0 482221.0 0
105203.0 483009.0 0
102968.0 485259.0 0
106909.0 485948.0 0
110437.0 484283.0 0
114134.0 485234.0 0
118674.0 485914.0 0
121850.0 482511.0 0
126016.0 483421.0 0
130212.0 482984.0 0
133982.0 483919.0 0
138184.0 483345.0 0
142616.0 482811.0 0
145784.0 485526.0 0
151234.0 482490.0 0
156358.0 481691.0 0
155326.0 485846.0 0
159583.0 483795.0 0
162582.0 481669.0 0
163949.0 485501.0 0
168390.0 484190.0 0
172937.0 485770.0 0
176987.0 483371.0 0
184719.0 481069.0 0
180579.0 482518.0 0
188201.0 484463.0 0
192724.0 481296.0 0
196812.0 484379.0 0
200824.0 482081.0 0
204183.0 484317.0 0
209055.0 482461.0 0
213124.0 482328.0 0
217004.0 481825.0 0
220896.0 484591.0 0
223977.0 482971.0 0
227548.0 483479.0 0
233381.0 480061.0 0
230946.0 482868.0 0
234401.0 484291.0 0
237402.0 481065.0 0
241037.0 482392.0 0
244524.0 480993.0 0
247809.0 484699.0 0
252312.0 481829.0 0
256911.0 481212.0 0
263917.0 481187.0 0
260505.0 480362.0 0
260329.0 484527.0 0
268196.0 482184.0 0
272606.0 483589.0 0
275743.0 480320.0 0
276454.0 484331.0 0
280412.0 482436.0 0
284880.0 483119.0 0
288417.0 482240.0 0
292107.0 483504.0 0
296185.0 482782.0 0
299741.0 484414.0 0
301836.0 482247.0 0
303821.0 484275.0 0
307506.0 483455.0 0
313242.0 482294.0 0
317530.0 485149.0 0
322390.0 483889.0 0
327031.0 485987.0 0
331968.0 484171.0 0
336773.0 482888.0 0
341726.0 484526.0 0
347101.0 483765.0 0
352296.0 484062.0 0
356145.0 482410.0 0
360469.0 483652.0 0
364925.0 484706.0 0
368507.0 482045.0 0
369335.0 486452.0 0
373044.0 483377.0 0
377749.0 481721.0 0
377657.0 486396.0 0
385130.0 481933.0 0
381684.0 483187.0 0
385425.0 485490.0 0
389048.0 484403.0 0
392030.0 482721.0 0
395269.0 482114.0 0
393721.0 486875.0 0
397576.0 485143.0 0
401725.0 484974.0 0
406008.0 484623.0 0
408717.0 484428.0 0
411614.0 484114.0 0
416244.0 483379.0 0
414321.0 487187.0 0
417602.0 487196.0 0
420677.0 485242.0 0
424587.0 485872.0 0
426075.0 482887.0 0
429496.0 484408.0 0
427753.0 487667.0 0
433925.0 483689.0 0
431939.0 487293.0 0
435574.0 486952.0 0
438744.0 484496.0 0
443446.0 484336.0 0
442231.0 487173.0 0
446833.0 484789.0 0
448797.0 488312.0 0
452128.0 486602.0 0
456149.0 484044.0 0
460317.0 484971.0 0
456518.0 488349.0 0
462696.0 483028.0 0
463429.0 485469.0 0
469756.0 484316.0 0
466701.0 487396.0 0
473266.0 485126.0 0
478766.0 489023.0 0
14865.1 492286.0 0
21602.4 489478.0 0
18507.7 492506.0 0
24577.5 490531.0 0
22895.5 493345.0 0
25811.6 492858.0 0
28475.7 489649.0 0
32418.5 489221.0 0
35249.3 489174.0 0
36567.8 492139.0 0
38788.9 489545.0 0
42253.2 489517.0 0
46155.6 488616.0 0
44421.0 492040.0 0
47593.3 492628.0 0
50166.2 490007.0 0
57016.8 488889.0 0
53569.4 491234.0 0
62884.4 488890.0 0
60049.1 491050.0 0
63940.6 492498.0 0
67512.4 490267.0 0
71681.7 488100.0 0
70919.6 491357.0 0
74133.0 490336.0 0
78110.2 489550.0 0
82023.0 488818.0 0
81013.0 492334.0 0
85590.7 488002.0 0
84996.1 491357.0 0
89413.7 489318.0 0
93915.1 488418.0 0
96207.1 491147.0 0
103048.0 488728.0 0
99632.0 491004.0 0
106586.0 489811.0 0
110664.0 488545.0 0
116057.0 489165.0 0
122572.0 486870.0 0
120077.0 490199.0 0
127404.0 487081.0 0
124567.0 490506.0 0
129158.0 490702.0 0
131424.0 487120.0 0
133400.0 490871.0 0
135918.0 487230.0 0
138121.0 491117.0 0
140542.0 486589.0 0
143297.0 489514.0 0
146958.0 489590.0 0
149185.0 491040.0 0
150174.0 487391.0 0
153654.0 490619.0 0
159582.0 488793.0 0
164392.0 490026.0 0
167935.0 488324.0 0
171140.0 490235.0 0
175323.0 490631.0 0
178364.0 487194.0 0
183091.0 485651.0 0
181597.0 489503.0 0
185466.0 489289.0 0
189434.0 489098.0 0
192650.0 486611.0 0
196083.0 489771.0 0
200397.0 486933.0 0
203857.0 488949.0 0
206723.0 486910.0 0
206694.0 489992.0 0
210076.0 487944.0 0
213399.0 485576.0 0
214325.0 490434.0 0
216998.0 486519.0 0
219859.0 490047.0 0
224958.0 487203.0 0
230500.0 487083.0 0
235468.0 488287.0 0
238707.0 485214.0 0
240416.0 489178.0 0
243028.0 485218.0 0
245011.0 488469.0 0
251790.0 486291.0 0
254301.0 489605.0 0
255569.0 485172.0 0
258303.0 488194.0 0
264920.0 485583.0 0
262323.0 489298.0 0
266454.0 489671.0 0
269531.0 487005.0 0
274600.0 488915.0 0
279431.0 486915.0 0
283913.0 487805.0 0
288292.0 486140.0 0
292203.0 488510.0 0
295786.0 486296.0 0
298875.0 487813.0 0
302199.0 487681.0 0
306347.0 488271.0 0
310543.0 486574.0 0
310574.0 490900.0 0
314911.0 488849.0 0
320664.0 488745.0 0
324384.0 488358.0 0
327222.0 490423.0 0
330229.0 488501.0 0
333478.0 489155.0 0
337224.0 487716.0 0
341800.0 489864.0 0
349491.0 486923.0 0
345579.0 488061.0 0
349522.0 490678.0 0
353367.0 488874.0 0
357377.0 486645.0 0
361560.0 487215.0 0
360956.0 490589.0 0
365590.0 489760.0 0
370767.0 490835.0 0
373331.0 487519.0 0
376197.0 491119.0 0
380603.0 489985.0 0
382131.0 486738.0 0
384952.0 489264.0 0
388795.0 488265.0 0
391872.0 490912.0 0
395852.0 491710.0 0
399227.0 488902.0 0
404428.0 488499.0 0
402990.0 491748.0 0
409334.0 487875.0 0
407872.0 492573.0 0
413010.0 491133.0 0
420336.0 488750.0 0
417454.0 490906.0 0
423580.0 489387.0 0
421246.0 491657.0 0
426700.0 491157.0 0
430837.0 490851.0 0
434979.0 490517.0 0
439022.0 488996.0 0
445422.0 488045.0 0
446358.0 490821.0 0
443010.0 491100.0 0
449909.0 492160.0 0
452823.0 490249.0 0
455346.0 491234.0 0
454113.0 493845.0 0
460256.0 488153.0 0
459007.0 492026.0 0
463134.0 488704.0 0
463091.0 491811.0 0
466299.0 491360.0 0
469242.0 490848.0 0
471487.0 488245.0 0
475565.0 487855.0 0
473260.0 491681.0 0
476864.0 492369.0 0
481270.0 491426.0 0
484467.0 492344.0 0
486791.0 494354.0 0
10828.1 495952.0 0
7998.65 497791.0 0
13262.4 494093.0 0
15476.9 496513.0 0
18965.4 497315.0 0
22156.5 496819.0 0
25925.4 495931.0 0
29025.3 493684.0 0
30067.2 497235.0 0
32927.9 492902.0 0
37179.6 495125.0 0
34093.6 496320.0 0
40580.7 492994.0 0
40268.9 496577.0 0
44221.6 495467.0 0
48095.3 495666.0 0
51470.5 494026.0 0
50497.2 498035.0 0
56205.3 493539.0 0
53789.3 496369.0 0
57068.4 497363.0 0
60256.5 494403.0 0
64670.5 495724.0 0
68218.5 494421.0 0
72102.0 494029.0 0
70591.9 496584.0 0
76185.6 493331.0 0
74025.7 497100.0 0
78939.3 496206.0 0
84429.5 496266.0 0
88306.5 493061.0 0
92780.9 492764.0 0
89937.6 496240.0 0
93725.2 496814.0 0
97734.5 494903.0 0
103181.0 493328.0 0
107992.0 492761.0 0
112683.0 492452.0 0
109629.0 496326.0 0
117622.0 493460.0 0
121568.0 493967.0 0
126528.0 494443.0 0
131175.0 494580.0 0
135120.0 494364.0 0
141598.0 493518.0 0
146015.0 493313.0 0
150199.0 494386.0 0
153889.0 495169.0 0
157322.0 493289.0 0
162026.0 494322.0 0
167552.0 492833.0 0
169649.0 496421.0 0
172569.0 493888.0 0
179196.0 491666.0 0
177315.0 495235.0 0
182686.0 492689.0 0
187824.0 494005.0 0
191989.0 490859.0 0
193280.0 494145.0 0
197130.0 493839.0 0
200493.0 491381.0 0
204433.0 493158.0 0
209448.0 492726.0 0
213068.0 494627.0 0
216723.0 494429.0 0
220759.0 495058.0 0
224330.0 491838.0 0
227974.0 490308.0 0
228203.0 494184.0 0
232388.0 492071.0 0
236795.0 492036.0 0
239924.0 494175.0 0
243793.0 492198.0 0
249257.0 490437.0 0
246611.0 494572.0 0
253389.0 494478.0 0
258799.0 493429.0 0
265085.0 494028.0 0
270144.0 492054.0 0
274188.0 495535.0 0
276503.0 492703.0 0
279991.0 491267.0 0
284394.0 493227.0 0
288402.0 490743.0 0
288567.0 495335.0 0
293011.0 493599.0 0
296330.0 490439.0 0
298807.0 495170.0 0
299910.0 490603.0 0
303171.0 491863.0 0
307017.0 492948.0 0
310607.0 494657.0 0
313972.0 494049.0 0
318459.0 493076.0 0
323898.0 492719.0 0
327681.0 494005.0 0
329924.0 496430.0 0
331230.0 492619.0 0
335299.0 492164.0 0
338796.0 491705.0 0
337892.0 494716.0 0
342242.0 494868.0 0
345604.0 492392.0 0
348905.0 493909.0 0
353474.0 494739.0 0
357138.0 491239.0 0
359504.0 495087.0 0
363263.0 493630.0 0
363336.0 497128.0 0
367549.0 495269.0 0
373486.0 495254.0 0
379553.0 493390.0 0
377525.0 495474.0 0
383569.0 493108.0 0
388278.0 493216.0 0
392656.0 495138.0 0
399880.0 493800.0 0
396630.0 496466.0 0
404748.0 495306.0 0
409087.0 497440.0 0
411735.0 494905.0 0
415843.0 495001.0 0
419809.0 494896.0 0
424227.0 494341.0 0
428957.0 494617.0 0
434183.0 495076.0 0
438818.0 492986.0 0
442213.0 494256.0 0
438936.0 497455.0 0
445789.0 493981.0 0
443472.0 497459.0 0
447149.0 497332.0 0
448910.0 495517.0 0
451869.0 496168.0 0
450084.0 498747.0 0
457316.0 495492.0 0
461868.0 495527.0 0
459436.0 498224.0 0
466238.0 495146.0 0
470201.0 493752.0 0
470488.0 497344.0 0
476687.0 496505.0 0
473804.0 495300.0 0
479241.0 495134.0 0
482784.0 496133.0 0
486348.0 498134.0 0
489675.0 496583.0 0
492806.0 499281.0 0
4980.71 499270.0 0
2022.28 500044.0 0
12413.1 499677.0 0
8426.63 501046.0 0
10287.8 503361.0 0
16918.6 500967.0 0
13950.3 504116.0 0
20966.4 501315.0 0
25642.8 500345.0 0
33068.6 499485.0 0
29706.5 501135.0 0
37366.7 499726.0 0
42684.4 499234.0 0
41277.9 502469.0 0
46646.0 499144.0 0
45071.0 502233.0 0
49459.7 502032.0 0
53468.4 499734.0 0
57102.6 501128.0 0
61197.7 498118.0 0
60524.7 501496.0 0
65062.0 498760.0 0
64366.3 502442.0 0
68049.5 498143.0 0
71096.5 498749.0 0
69231.3 501780.0 0
76704.1 499291.0 0
73293.8 501267.0 0
77284.1 502749.0 0
80884.8 500153.0 0
87735.0 499650.0 0
91759.7 500246.0 0
96551.5 500194.0 0
101108.0 498164.0 0
100346.0 502160.0 0
105499.0 497074.0 0
104074.0 501491.0 0
107656.0 500427.0 0
111400.0 499491.0 0
114657.0 496712.0 0
118853.0 497825.0 0
123422.0 498272.0 0
128692.0 498716.0 0
133728.0 498957.0 0
138419.0 496626.0 0
137684.0 500920.0 0
140592.0 499885.0 0
142896.0 497181.0 0
143752.0 500819.0 0
146880.0 497669.0 0
151588.0 499249.0 0
156955.0 497641.0 0
160903.0 500183.0 0
165666.0 497450.0 0
165232.0 501277.0 0
169226.0 500491.0 0
173465.0 498439.0 0
178076.0 500739.0 0
182480.0 496912.0 0
186868.0 498782.0 0
191098.0 498145.0 0
195791.0 497464.0 0
200404.0 496072.0 0
204181.0 499679.0 0
206749.0 496064.0 0
210080.0 497520.0 0
214376.0 498157.0 0
218319.0 498584.0 0
222855.0 499525.0 0
224618.0 495802.0 0
227419.0 498503.0 0
231601.0 497282.0 0
235736.0 495906.0 0
239148.0 498838.0 0
243252.0 496943.0 0
249697.0 495682.0 0
247191.0 499553.0 0
251637.0 499043.0 0
256303.0 499690.0 0
261767.0 498709.0 0
266250.0 498953.0 0
269757.0 496992.0 0
273376.0 500310.0 0
278434.0 495218.0 0
277913.0 499681.0 0
281922.0 500274.0 0
281619.0 496795.0 0
285323.0 498305.0 0
288487.0 498436.0 0
292025.0 498694.0 0
296664.0 500676.0 0
304150.0 495907.0 0
301952.0 499944.0 0
308285.0 496905.0 0
306060.0 499671.0 0
309799.0 500734.0 0
312323.0 497884.0 0
317039.0 498459.0 0
321735.0 496666.0 0
321856.0 500742.0 0
326090.0 497693.0 0
334357.0 496745.0 0
331105.0 500723.0 0
339195.0 498438.0 0
343017.0 499176.0 0
347314.0 497602.0 0
353252.0 500428.0 0
357262.0 498208.0 0
360412.0 498966.0 0
363312.0 500074.0 0
366271.0 499896.0 0
371080.0 499673.0 0
376903.0 499871.0 0
381641.0 497573.0 0
381671.0 501388.0 0
385768.0 500742.0 0
385885.0 496919.0 0
389468.0 497961.0 0
390142.0 501802.0 0
393535.0 499185.0 0
398235.0 500384.0 0
401343.0 497695.0 0
405620.0 498847.0 0
403184.0 501943.0 0
411196.0 500144.0 0
408135.0 502188.0 0
413812.0 498003.0 0
413270.0 500727.0 0
416309.0 500885.0 0
418137.0 498082.0 0
420252.0 501061.0 0
422154.0 498158.0 0
426754.0 497962.0 0
424773.0 501295.0 0
431013.0 497737.0 0
430365.0 501864.0 0
434815.0 499664.0 0
442295.0 500928.0 0
438874.0 501689.0 0
446551.0 501044.0 0
451399.0 502153.0 0
455033.0 499095.0 0
455886.0 503647.0 0
460613.0 502234.0 0
463586.0 498895.0 0
467125.0 498883.0 0
465726.0 502216.0 0
469777.0 501208.0 0
474161.0 499635.0 0
479176.0 499782.0 0
483589.0 501075.0 0
488395.0 501083.0 0
494273.0 503860.0 0
497061.0 500042.0 0
497714.0 503582.0 0
1754.97 503184.0 0
2625.28 507086.0 0
5694.88 503847.0 0
9767.16 506161.0 0
14046.8 507815.0 0
18600.3 505624.0 0
23495.8 505106.0 0
21814.3 508986.0 0
27987.2 504464.0 0
31200.7 507099.0 0
32757.9 503163.0 0
37221.0 505238.0 0
42750.0 505646.0 0
46448.3 505064.0 0
50340.3 507038.0 0
53569.5 503455.0 0
56832.4 504262.0 0
55531.9 507210.0 0
59849.6 504821.0 0
67330.8 505831.0 0
63321.7 506513.0 0
65502.5 507977.0 0
71655.7 505836.0 0
74419.5 504163.0 0
76394.8 507060.0 0
80779.1 504806.0 0
84401.3 502268.0 0
84453.4 506579.0 0
88626.0 503912.0 0
93403.6 503736.0 0
91087.1 506782.0 0
97529.4 504777.0 0
102541.0 506152.0 0
106900.0 504652.0 0
110265.0 502735.0 0
111418.0 506677.0 0
115262.0 502124.0 0
120403.0 502622.0 0
125771.0 502998.0 0
130803.0 503157.0 0
132284.0 506500.0 0
135064.0 503807.0 0
140179.0 504554.0 0
147485.0 501312.0 0
145317.0 504222.0 0
150149.0 504969.0 0
155482.0 502574.0 0
159120.0 505504.0 0
163052.0 504014.0 0
167308.0 505163.0 0
173103.0 503775.0 0
180054.0 504053.0 0
183724.0 502053.0 0
181754.0 506064.0 0
188927.0 502579.0 0
193926.0 501272.0 0
192493.0 505530.0 0
198804.0 500715.0 0
196698.0 504901.0 0
201752.0 505621.0 0
208621.0 501079.0 0
206331.0 504107.0 0
211793.0 500960.0 0
210519.0 504989.0 0
215566.0 503100.0 0
219912.0 502225.0 0
223469.0 504057.0 0
226257.0 501912.0 0
230036.0 501689.0 0
234876.0 501195.0 0
232002.0 505029.0 0
239161.0 503118.0 0
242770.0 501787.0 0
246223.0 504138.0 0
250483.0 503026.0 0
254008.0 503393.0 0
259970.0 503250.0 0
264635.0 503557.0 0
268747.0 505686.0 0
269326.0 501688.0 0
272692.0 504817.0 0
276930.0 504229.0 0
280698.0 503451.0 0
284455.0 502519.0 0
288343.0 501348.0 0
287508.0 505352.0 0
292118.0 504266.0 0
296302.0 505425.0 0
300678.0 504803.0 0
306012.0 504430.0 0
310809.0 504553.0 0
313908.0 501990.0 0
318225.0 503633.0 0
322591.0 505133.0 0
326292.0 502344.0 0
329708.0 504899.0 0
333810.0 505372.0 0
336247.0 501690.0 0
338875.0 506314.0 0
340873.0 502240.0 0
344740.0 502146.0 0
343223.0 505610.0 0
348658.0 502124.0 0
347225.0 505731.0 0
351616.0 505235.0 0
358113.0 501741.0 0
355982.0 505160.0 0
364331.0 503018.0 0
361287.0 501997.0 0
364813.0 506808.0 0
368646.0 504135.0 0
373530.0 504043.0 0
376757.0 504008.0 0
379738.0 503869.0 0
383635.0 504405.0 0
387428.0 504989.0 0
394870.0 503184.0 0
391454.0 506288.0 0
399947.0 505118.0 0
405222.0 506583.0 0
409191.0 505998.0 0
412831.0 503771.0 0
415342.0 507665.0 0
417762.0 504434.0 0
422340.0 505065.0 0
427254.0 505850.0 0
435216.0 503785.0 0
432275.0 506659.0 0
436755.0 507870.0 0
439395.0 505219.0 0
443352.0 504589.0 0
448140.0 505005.0 0
452310.0 505839.0 0
450094.0 508321.0 0
455504.0 507202.0 0
459715.0 506985.0 0
464279.0 505691.0 0
468961.0 505371.0 0
473791.0 507099.0 0
472697.0 503700.0 0
476617.0 503748.0 0
477764.0 507723.0 0
480784.0 504637.0 0
482815.0 509511.0 0
485776.0 505264.0 0
488673.0 509149.0 0
490669.0 504599.0 0
497325.0 507167.0 0
2495.4 511448.0 0
6623.37 509403.0 0
9523.9 512301.0 0
10664.5 509477.0 0
13200.2 512032.0 0
17375.8 509914.0 0
19992.8 512617.0 0
26438.2 508368.0 0
24737.1 513206.0 0
29862.5 511443.0 0
35057.7 509784.0 0
40441.1 509275.0 0
45219.6 508704.0 0
43230.3 512615.0 0
48457.2 511625.0 0
53052.9 510846.0 0
56583.7 511190.0 0
59960.9 508729.0 0
60514.0 513128.0 0
64003.9 510285.0 0
68732.7 509955.0 0
73148.4 509834.0 0
76705.8 511512.0 0
80591.4 509245.0 0
87778.7 508359.0 0
84415.7 511047.0 0
88553.4 512348.0 0
91056.1 509593.0 0
93462.8 512437.0 0
94122.5 507803.0 0
98131.6 509357.0 0
102708.0 511257.0 0
106838.0 508971.0 0
111046.0 511949.0 0
114124.0 509338.0 0
117270.0 507156.0 0
115889.0 511594.0 0
122557.0 507572.0 0
119707.0 511770.0 0
127981.0 507496.0 0
131495.0 511364.0 0
135793.0 507964.0 0
139791.0 509829.0 0
144935.0 508950.0 0
154605.0 507651.0 0
150220.0 510316.0 0
158532.0 510277.0 0
163038.0 508264.0 0
167308.0 510755.0 0
170614.0 507699.0 0
173127.0 510685.0 0
177377.0 507125.0 0
181975.0 510329.0 0
185420.0 506626.0 0
188909.0 507184.0 0
192142.0 510466.0 0
197290.0 509824.0 0
206670.0 508896.0 0
210722.0 509283.0 0
213844.0 507944.0 0
217968.0 507972.0 0
220483.0 505481.0 0
223042.0 508492.0 0
227664.0 506122.0 0
231797.0 509504.0 0
236466.0 506857.0 0
242166.0 507021.0 0
246072.0 509037.0 0
248905.0 506811.0 0
253011.0 506912.0 0
257018.0 505640.0 0
261243.0 507586.0 0
265945.0 508251.0 0
270768.0 509576.0 0
275475.0 508506.0 0
279399.0 507519.0 0
283518.0 506915.0 0
289745.0 509139.0 0
294397.0 509244.0 0
298070.0 508257.0 0
301464.0 509347.0 0
305310.0 509692.0 0
309726.0 508766.0 0
314702.0 506981.0 0
316666.0 510578.0 0
319497.0 508496.0 0
323482.0 509165.0 0
326554.0 507037.0 0
326819.0 511312.0 0
330596.0 508997.0 0
335376.0 510323.0 0
340110.0 511236.0 0
345287.0 510386.0 0
350326.0 508861.0 0
353899.0 508360.0 0
360675.0 505962.0 0
357657.0 509732.0 0
365488.0 510545.0 0
368162.0 508392.0 0
372254.0 508525.0 0
375837.0 511383.0 0
377112.0 507276.0 0
381096.0 507130.0 0
380522.0 511302.0 0
385148.0 509092.0 0
388808.0 508945.0 0
388454.0 512145.0 0
396234.0 508243.0 0
392285.0 510852.0 0
401374.0 510308.0 0
406155.0 510541.0 0
408883.0 509434.0 0
411694.0 507800.0 0
412441.0 510977.0 0
416536.0 511748.0 0
419934.0 508808.0 0
424402.0 509534.0 0
429213.0 510085.0 0
434047.0 511021.0 0
441182.0 508819.0 0
438793.0 512118.0 0
445866.0 509196.0 0
443037.0 513372.0 0
447080.0 513610.0 0
449997.0 511802.0 0
452941.0 509466.0 0
456637.0 510504.0 0
453616.0 513259.0 0
463871.0 509553.0 0
460258.0 511174.0 0
467134.0 508880.0 0
467395.0 512293.0 0
470754.0 509575.0 0
478232.0 511274.0 0
474828.0 510787.0 0
483495.0 514305.0 0
487332.0 513229.0 0
493195.0 508574.0 0
497421.0 511284.0 0
2077.69 515153.0 0
6440.24 514606.0 0
16000.3 513993.0 0
11034.1 515001.0 0
13804.7 517226.0 0
19412.2 517757.0 0
25144.5 517900.0 0
29748.4 516586.0 0
33679.9 513923.0 0
35486.4 517266.0 0
38186.4 513276.0 0
40585.5 516893.0 0
46664.9 516752.0 0
52144.1 514551.0 0
51515.1 518501.0 0
56441.0 514759.0 0
60288.6 517362.0 0
66022.9 515362.0 0
71789.3 513486.0 0
76154.3 515862.0 0
80694.2 513754.0 0
84842.3 515349.0 0
89764.6 516473.0 0
98289.0 514016.0 0
94580.5 516790.0 0
102340.0 515871.0 0
106506.0 513717.0 0
110264.0 516808.0 0
115161.0 515586.0 0
120110.0 516313.0 0
125171.0 512913.0 0
129509.0 516328.0 0
133427.0 515508.0 0
136411.0 512674.0 0
136834.0 516669.0 0
141723.0 514891.0 0
146899.0 513397.0 0
154270.0 512458.0 0
150466.0 514803.0 0
158063.0 514819.0 0
162491.0 512754.0 0
166107.0 515839.0 0
170098.0 514297.0 0
173908.0 515747.0 0
177591.0 512625.0 0
181851.0 515694.0 0
186845.0 511355.0 0
186412.0 515997.0 0
190050.0 514581.0 0
194774.0 515389.0 0
198587.0 513816.0 0
202074.0 511448.0 0
206086.0 514200.0 0
209816.0 512417.0 0
215043.0 513560.0 0
219916.0 511447.0 0
219915.0 515017.0 0
223278.0 513387.0 0
227152.0 511214.0 0
230697.0 514267.0 0
238961.0 511242.0 0
234989.0 513013.0 0
243748.0 513301.0 0
247640.0 515532.0 0
250401.0 511939.0 0
254807.0 515726.0 0
256212.0 510664.0 0
259318.0 515309.0 0
259956.0 511314.0 0
263821.0 512531.0 0
267523.0 511226.0 0
269008.0 515337.0 0
274406.0 513337.0 0
278450.0 511627.0 0
281534.0 510410.0 0
281602.0 514312.0 0
285502.0 511679.0 0
290071.0 514438.0 0
294713.0 513591.0 0
298411.0 511884.0 0
302602.0 513332.0 0
308007.0 514762.0 0
313131.0 512052.0 0
317137.0 514082.0 0
321927.0 513298.0 0
326567.0 515542.0 0
331554.0 514426.0 0
337381.0 515812.0 0
343002.0 515565.0 0
349641.0 512003.0 0
353809.0 512809.0 0
359111.0 514778.0 0
361780.0 510878.0 0
364865.0 514659.0 0
369161.0 512257.0 0
368998.0 516007.0 0
373105.0 514715.0 0
377576.0 514686.0 0
384226.0 512965.0 0
381555.0 516143.0 0
386708.0 515816.0 0
392384.0 515793.0 0
396760.0 512956.0 0
397376.0 517287.0 0
400279.0 515064.0 0
404684.0 514251.0 0
409402.0 513505.0 0
411354.0 517022.0 0
413463.0 514708.0 0
421634.0 513238.0 0
417611.0 515713.0 0
420691.0 516877.0 0
426464.0 513778.0 0
431194.0 514541.0 0
428910.0 517356.0 0
436087.0 515665.0 0
440863.0 517268.0 0
446001.0 517433.0 0
450108.0 515851.0 0
454092.0 517104.0 0
458238.0 514797.0 0
463531.0 514076.0 0
471572.0 513978.0 0
480267.0 513741.0 0
476507.0 515400.0 0
481275.0 517840.0 0
485326.0 517315.0 0
489326.0 517931.0 0
492622.0 513566.0 0
497387.0 515396.0 0
3344.07 519460.0 0
9255.47 519105.0 0
14183.3 521454.0 0
23412.8 521102.0 0
27712.8 521157.0 0
32363.5 520592.0 0
37639.4 521320.0 0
43105.8 521654.0 0
49010.9 522282.0 0
52527.4 521169.0 0
55605.2 519052.0 0
59560.9 522272.0 0
63386.7 520064.0 0
67275.5 521213.0 0
71518.1 518299.0 0
75845.9 520610.0 0
80692.0 518876.0 0
85940.2 519855.0 0
92440.0 519099.0 0
90118.5 521212.0 0
98452.2 518681.0 0
94785.5 521773.0 0
102257.0 520096.0 0
106087.0 518572.0 0
109417.0 521596.0 0
113019.0 519381.0 0
116908.0 519772.0 0
120620.0 520496.0 0
124439.0 518557.0 0
128975.0 521273.0 0
133342.0 518984.0 0
137185.0 520463.0 0
142154.0 520988.0 0
146839.0 517746.0 0
153804.0 516784.0 0
150845.0 520449.0 0
154204.0 519838.0 0
157723.0 519496.0 0
161779.0 517043.0 0
162207.0 521164.0 0
166087.0 520100.0 0
170170.0 518765.0 0
177592.0 516817.0 0
175152.0 519665.0 0
179334.0 520129.0 0
184453.0 520774.0 0
190261.0 519275.0 0
194753.0 520156.0 0
197393.0 518584.0 0
201422.0 517277.0 0
206152.0 518729.0 0
210239.0 517067.0 0
214720.0 520606.0 0
218543.0 517771.0 0
222298.0 517644.0 0
224644.0 519847.0 0
226576.0 516517.0 0
233694.0 518056.0 0
238544.0 516105.0 0
242029.0 518066.0 0
245945.0 518703.0 0
249548.0 521044.0 0
250683.0 517784.0 0
254322.0 520298.0 0
258925.0 520519.0 0
263831.0 518099.0 0
273164.0 517474.0 0
278021.0 517942.0 0
282860.0 521255.0 0
285429.0 516838.0 0
289782.0 520311.0 0
293805.0 517500.0 0
298925.0 517019.0 0
304122.0 519053.0 0
313343.0 516879.0 0
314011.0 521439.0 0
318234.0 518779.0 0
323438.0 518436.0 0
329302.0 519975.0 0
333787.0 518783.0 0
337221.0 521212.0 0
340864.0 519438.0 0
345475.0 520712.0 0
349020.0 516234.0 0
354679.0 518210.0 0
358994.0 519429.0 0
362464.0 517747.0 0
362617.0 521901.0 0
366744.0 519305.0 0
371582.0 519009.0 0
376506.0 518760.0 0
380623.0 520183.0 0
384567.0 519841.0 0
389532.0 520166.0 0
394777.0 520917.0 0
398712.0 520345.0 0
402695.0 518901.0 0
407815.0 518034.0 0
411422.0 521021.0 0
414849.0 518665.0 0
419109.0 519661.0 0
421531.0 522616.0 0
424356.0 518771.0 0
429107.0 521245.0 0
432607.0 518700.0 0
433147.0 522257.0 0
437094.0 520686.0 0
447631.0 521568.0 0
443391.0 520976.0 0
450792.0 519524.0 0
451623.0 523540.0 0
454953.0 521056.0 0
457949.0 518547.0 0
461951.0 518184.0 0
459604.0 522039.0 0
467502.0 517297.0 0
464912.0 522279.0 0
472815.0 518819.0 0
469792.0 521499.0 0
477459.0 520334.0 0
481505.0 521856.0 0
484854.0 520542.0 0
488892.0 522636.0 0
494234.0 518879.0 0
498292.0 518773.0 0
497889.0 521799.0 0
3696.7 525253.0 0
9552.75 523950.0 0
14332.2 526966.0 0
19219.7 523654.0 0
19302.2 527749.0 0
24404.7 524783.0 0
29239.9 525030.0 0
34167.5 525127.0 0
39709.8 526618.0 0
45208.9 526127.0 0
50273.7 527290.0 0
54399.7 524133.0 0
58834.4 527079.0 0
63809.7 524034.0 0
67638.5 525878.0 0
71831.4 523374.0 0
75640.4 524361.0 0
78581.6 523055.0 0
82992.6 524414.0 0
87582.5 523861.0 0
91297.1 525147.0 0
95377.6 525995.0 0
99539.8 523505.0 0
104800.0 523509.0 0
108744.0 526162.0 0
113600.0 523101.0 0
118166.0 523955.0 0
123602.0 524035.0 0
128826.0 526957.0 0
133625.0 523159.0 0
133819.0 527419.0 0
138222.0 525087.0 0
146811.0 522490.0 0
150247.0 525734.0 0
154517.0 523104.0 0
158898.0 524259.0 0
163981.0 525468.0 0
168490.0 523200.0 0
172380.0 522157.0 0
171956.0 526197.0 0
176513.0 524102.0 0
180780.0 523503.0 0
185033.0 526021.0 0
188550.0 523861.0 0
193177.0 524362.0 0
198709.0 522883.0 0
203889.0 522220.0 0
205920.0 525291.0 0
209081.0 522532.0 0
217486.0 526073.0 0
220384.0 521544.0 0
221907.0 525300.0 0
224296.0 523019.0 0
228766.0 521276.0 0
226742.0 525643.0 0
233541.0 522864.0 0
230780.0 526217.0 0
237856.0 521320.0 0
235499.0 526772.0 0
240058.0 525997.0 0
242597.0 522147.0 0
244331.0 526242.0 0
247114.0 523189.0 0
251570.0 523641.0 0
255738.0 524174.0 0
259792.0 525334.0 0
263650.0 523082.0 0
268293.0 521099.0 0
273366.0 521511.0 0
277994.0 523664.0 0
286737.0 524599.0 0
295524.0 521750.0 0
300419.0 522186.0 0
309143.0 520950.0 0
304921.0 523724.0 0
308328.0 526193.0 0
312526.0 525797.0 0
317671.0 525211.0 0
321221.0 522413.0 0
322798.0 526474.0 0
325153.0 522609.0 0
328555.0 526404.0 0
333284.0 523526.0 0
337454.0 526164.0 0
341552.0 523954.0 0
346813.0 526493.0 0
350835.0 522099.0 0
355219.0 522703.0 0
358780.0 523314.0 0
369915.0 522435.0 0
366443.0 524442.0 0
370680.0 526823.0 0
373854.0 523105.0 0
378406.0 523598.0 0
382274.0 523146.0 0
386572.0 524432.0 0
389471.0 527049.0 0
391682.0 524554.0 0
397823.0 522599.0 0
401160.0 523584.0 0
396623.0 526690.0 0
403850.0 527530.0 0
406720.0 523106.0 0
416544.0 523916.0 0
411770.0 525110.0 0
421672.0 526563.0 0
425607.0 524186.0 0
430564.0 525872.0 0
435521.0 525060.0 0
440480.0 524825.0 0
444981.0 524291.0 0
448381.0 525900.0 0
456223.0 525577.0 0
460817.0 526146.0 0
465082.0 527024.0 0
469643.0 526064.0 0
474033.0 523565.0 0
474143.0 528189.0 0
478929.0 525116.0 0
484088.0 524810.0 0
482065.0 528610.0 0
487627.0 526245.0 0
493756.0 523458.0 0
491173.0 527134.0 0
494714.0 527819.0 0
497544.0 525779.0 0
3224.64 531045.0 0
8842.9 528519.0 0
8112.91 532409.0 0
12503.9 531831.0 0
18094.2 531765.0 0
22452.8 528300.0 0
23353.5 531674.0 0
26547.5 528646.0 0
31256.9 529061.0 0
35663.7 529372.0 0
33620.0 532813.0 0
39212.1 532575.0 0
43210.0 529919.0 0
45800.1 532858.0 0
46975.0 529768.0 0
50349.7 532316.0 0
54680.8 529402.0 0
59344.1 532312.0 0
63316.1 528345.0 0
64765.7 532888.0 0
67444.8 529643.0 0
71978.8 528354.0 0
69923.3 532864.0 0
77980.4 527982.0 0
74704.5 532199.0 0
83082.0 529311.0 0
87455.5 527889.0 0
86182.3 532433.0 0
92412.2 529971.0 0
96654.8 532270.0 0
99217.9 528364.0 0
104253.0 528092.0 0
108217.0 531676.0 0
113960.0 528300.0 0
119929.0 528322.0 0
124278.0 528648.0 0
126898.0 531582.0 0
131898.0 531955.0 0
137903.0 530933.0 0
144003.0 527207.0 0
148254.0 529401.0 0
151875.0 530736.0 0
155251.0 527349.0 0
156179.0 531402.0 0
159997.0 529046.0 0
168003.0 527454.0 0
170716.0 530806.0 0
175424.0 529459.0 0
180500.0 527791.0 0
184730.0 530488.0 0
189406.0 528512.0 0
194116.0 528785.0 0
198297.0 528229.0 0
202569.0 526439.0 0
202023.0 530421.0 0
208647.0 527517.0 0
212547.0 525937.0 0
211210.0 531223.0 0
215845.0 531029.0 0
220777.0 530526.0 0
223979.0 527774.0 0
227702.0 529767.0 0
232450.0 530513.0 0
237280.0 531351.0 0
242389.0 530388.0 0
248277.0 527087.0 0
253063.0 528659.0 0
258030.0 529116.0 0
263028.0 527859.0 0
267374.0 526370.0 0
273160.0 527114.0 0
277876.0 528190.0 0
282240.0 527009.0 0
279869.0 531003.0 0
287112.0 529703.0 0
292028.0 526369.0 0
297411.0 526111.0 0
295726.0 529825.0 0
299872.0 530135.0 0
301517.0 526159.0 0
305006.0 529390.0 0
310468.0 530737.0 0
315295.0 529488.0 0
319814.0 530205.0 0
325019.0 531040.0 0
333657.0 528272.0 0
337080.0 531709.0 0
341590.0 529060.0 0
345751.0 531639.0 0
350038.0 530800.0 0
352002.0 526840.0 0
354136.0 530362.0 0
356602.0 526802.0 0
358634.0 531391.0 0
361965.0 527192.0 0
366553.0 528461.0 0
369335.0 531108.0 0
375880.0 528096.0 0
381931.0 528045.0 0
387316.0 529301.0 0
391699.0 529035.0 0
400423.0 531245.0 0
405716.0 532197.0 0
408995.0 528191.0 0
413966.0 528670.0 0
417928.0 528633.0 0
416702.0 532551.0 0
426215.0 528961.0 0
421602.0 531393.0 0
430430.0 530174.0 0
428293.0 532669.0 0
434820.0 529449.0 0
439644.0 529645.0 0
444510.0 528665.0 0
449172.0 530017.0 0
452590.0 528004.0 0
457368.0 530003.0 0
462553.0 530978.0 0
467250.0 529878.0 0
470822.0 530795.0 0
478094.0 529854.0 0
474725.0 532739.0 0
481476.0 533571.0 0
487080.0 530860.0 0
493417.0 531665.0 0
497983.0 529891.0 0
2018.02 535316.0 0
5959.92 535744.0 0
10429.6 536019.0 0
15115.6 535922.0 0
19855.1 536542.0 0
21495.5 533925.0 0
24017.8 535783.0 0
28359.2 533203.0 0
31818.6 536009.0 0
35871.6 536057.0 0
43321.2 535887.0 0
51921.6 536005.0 0
47937.2 536536.0 0
54440.2 533497.0 0
56353.5 537654.0 0
62110.6 537158.0 0
67316.0 537037.0 0
72785.7 536055.0 0
80329.6 534126.0 0
85831.2 537609.0 0
90153.7 534606.0 0
93764.7 534054.0 0
96656.8 536628.0 0
101943.0 533308.0 0
105977.0 537068.0 0
113032.0 533352.0 0
110418.0 536490.0 0
117367.0 532720.0 0
122359.0 532643.0 0
119669.0 536383.0 0
123299.0 536882.0 0
127520.0 536138.0 0
132088.0 537079.0 0
143581.0 533808.0 0
148427.0 533266.0 0
151906.0 535535.0 0
155423.0 534553.0 0
159629.0 534490.0 0
165168.0 531908.0 0
169306.0 536159.0 0
173804.0 534101.0 0
179388.0 533784.0 0
183856.0 533879.0 0
187527.0 534372.0 0
192472.0 533049.0 0
190817.0 537319.0 0
198354.0 534126.0 0
206250.0 531677.0 0
209087.0 535542.0 0
213963.0 535816.0 0
218521.0 534520.0 0
222427.0 534796.0 0
225967.0 533613.0 0
230490.0 535558.0 0
236204.0 536348.0 0
243271.0 536187.0 0
247913.0 532016.0 0
252573.0 533610.0 0
256995.0 533625.0 0
261396.0 531637.0 0
266070.0 531446.0 0
268244.0 535909.0 0
270741.0 531991.0 0
273733.0 536314.0 0
276073.0 531688.0 0
279242.0 535211.0 0
283307.0 532730.0 0
287125.0 534353.0 0
291936.0 532847.0 0
297429.0 534625.0 0
301943.0 533776.0 0
306386.0 534650.0 0
311118.0 535867.0 0
316349.0 534699.0 0
321975.0 535010.0 0
326578.0 535649.0 0
330589.0 532380.0 0
337577.0 536526.0 0
341767.0 534190.0 0
346937.0 536783.0 0
353245.0 535426.0 0
359538.0 536977.0 0
364320.0 532767.0 0
369391.0 535754.0 0
373551.0 532793.0 0
379074.0 533404.0 0
384765.0 532905.0 0
382965.0 536685.0 0
389653.0 532950.0 0
387528.0 537180.0 0
395065.0 532966.0 0
402221.0 535761.0 0
406928.0 537183.0 0
411479.0 533400.0 0
420144.0 536693.0 0
425205.0 534650.0 0
432284.0 533789.0 0
429186.0 537845.0 0
437551.0 533984.0 0
442907.0 533538.0 0
445632.0 537843.0 0
447873.0 533791.0 0
450472.0 537624.0 0
453282.0 533003.0 0
458584.0 534538.0 0
467415.0 533520.0 0
463527.0 535895.0 0
471064.0 534270.0 0
469139.0 537524.0 0
477737.0 536117.0 0
473610.0 536963.0 0
481494.0 538822.0 0
485842.0 536507.0 0
490587.0 535556.0 0
497567.0 534005.0 0
2725.3 539353.0 0
7840.39 540304.0 0
12779.5 539841.0 0
17361.5 539891.0 0
19748.5 543351.0 0
22894.2 540243.0 0
28205.7 538662.0 0
26491.7 542708.0 0
33605.3 539365.0 0
39620.6 539163.0 0
44912.6 539496.0 0
51070.0 540198.0 0
55189.4 542614.0 0
59932.5 541875.0 0
65098.9 541381.0 0
71288.9 540563.0 0
76126.6 538143.0 0
76212.2 542596.0 0
80567.2 540161.0 0
84815.3 542828.0 0
91626.8 539962.0 0
97022.5 541181.0 0
101251.0 539002.0 0
105494.0 542145.0 0
110924.0 541363.0 0
115168.0 537550.0 0
121014.0 540637.0 0
125213.0 539892.0 0
129150.0 540738.0 0
137999.0 538048.0 0
143644.0 539003.0 0
147772.0 537693.0 0
152309.0 540770.0 0
155051.0 537394.0 0
158416.0 540044.0 0
163992.0 538015.0 0
167751.0 541842.0 0
172131.0 540188.0 0
175896.0 538006.0 0
179852.0 540585.0 0
183718.0 537492.0 0
187663.0 540119.0 0
194905.0 539079.0 0
204097.0 537029.0 0
249973.0 537142.0 0
262665.0 536930.0 0
283935.0 537985.0 0
289665.0 537457.0 0
293789.0 537721.0 0
301861.0 539195.0 0
307906.0 539517.0 0
312881.0 540455.0 0
317329.0 539683.0 0
321639.0 539869.0 0
326441.0 540019.0 0
332139.0 538597.0 0
337202.0 540682.0 0
341710.0 539512.0 0
350998.0 540915.0 0
356312.0 542010.0 0
361711.0 541389.0 0
365047.0 538545.0 0
370135.0 541970.0 0
374128.0 537565.0 0
379056.0 539277.0 0
384183.0 540949.0 0
389296.0 542193.0 0
392712.0 538128.0 0
395466.0 540836.0 0
398028.0 537910.0 0
398423.0 542651.0 0
402954.0 540848.0 0
408204.0 541881.0 0
411099.0 538364.0 0
415057.0 537572.0 0
412945.0 542094.0 0
421882.0 541367.0 0
424661.0 538637.0 0
432174.0 542687.0 0
434625.0 538143.0 0
440836.0 538254.0 0
437816.0 542491.0 0
444019.0 543314.0 0
448111.0 540748.0 0
452220.0 543054.0 0
455365.0 538297.0 0
457356.0 542698.0 0
460417.0 539433.0 0
465414.0 539819.0 0
471961.0 540794.0 0
468414.0 543479.0 0
476780.0 540739.0 0
485687.0 540755.0 0
489190.0 539233.0 0
493678.0 539068.0 0
490799.0 542100.0 0
497911.0 538047.0 0
497793.0 542047.0 0
3797.28 544267.0 0
1209.68 547166.0 0
8210.38 546793.0 0
10848.2 543519.0 0
15206.6 543989.0 0
12796.9 548354.0 0
18766.8 548561.0 0
23660.5 545369.0 0
28040.4 548060.0 0
30868.2 543753.0 0
36380.1 543639.0 0
46695.1 543542.0 0
41672.4 543996.0 0
51585.8 545169.0 0
48188.0 548306.0 0
57627.7 546532.0 0
62990.5 546218.0 0
68309.2 545335.0 0
72819.8 545116.0 0
76275.6 547100.0 0
80228.9 545038.0 0
83953.5 547589.0 0
89448.6 546363.0 0
94677.5 544638.0 0
100591.0 544120.0 0
104603.0 547611.0 0
108644.0 545410.0 0
112693.0 546724.0 0
116285.0 542930.0 0
117026.0 547630.0 0
120667.0 545429.0 0
125546.0 544361.0 0
133462.0 542378.0 0
130133.0 545063.0 0
134573.0 546632.0 0
137539.0 543918.0 0
142058.0 543124.0 0
147083.0 542676.0 0
155812.0 544401.0 0
162832.0 543548.0 0
324056.0 544162.0 0
329408.0 544433.0 0
334666.0 544016.0 0
339548.0 543867.0 0
346130.0 542518.0 0
352610.0 545488.0 0
360439.0 545244.0 0
364806.0 543020.0 0
366621.0 546204.0 0
373053.0 546315.0 0
375897.0 543441.0 0
380695.0 544430.0 0
385503.0 545804.0 0
390094.0 547466.0 0
394131.0 544538.0 0
400567.0 547045.0 0
405427.0 545508.0 0
410226.0 546122.0 0
415782.0 546017.0 0
417653.0 541601.0 0
421207.0 546061.0 0
426464.0 543229.0 0
430045.0 547299.0 0
435063.0 547455.0 0
439861.0 546944.0 0
448521.0 548168.0 0
454160.0 548345.0 0
458562.0 546801.0 0
462980.0 544223.0 0
473571.0 544822.0 0
477985.0 545205.0 0
482571.0 544107.0 0
480467.0 548339.0 0
487806.0 544528.0 0
493963.0 543839.0 0
497575.0 546593.0 0
3934.08 549862.0 0
1349.34 553101.0 0
8980.54 551798.0 0
24000.9 550214.0 0
30559.7 552710.0 0
33846.4 548139.0 0
36161.3 552751.0 0
38921.6 548105.0 0
41556.3 552583.0 0
43723.8 547948.0 0
45882.6 551722.0 0
53373.3 550620.0 0
60387.0 550807.0 0
66407.0 550298.0 0
71730.7 549574.0 0
79855.9 549708.0 0
89059.7 551307.0 0
97613.1 548242.0 0
93374.8 550428.0 0
139913.0 548426.0 0
376760.0 548412.0 0
381897.0 549373.0 0
396003.0 549138.0 0
407241.0 550552.0 0
417995.0 550407.0 0
425945.0 548174.0 0
422969.0 551271.0 0
428659.0 552119.0 0
434181.0 552733.0 0
439266.0 551513.0 0
443351.0 549176.0 0
451932.0 552328.0 0
458008.0 551808.0 0
463473.0 549968.0 0
469774.0 549047.0 0
475865.0 549434.0 0
479899.0 552575.0 0
485383.0 549254.0 0
491609.0 548543.0 0
497911.0 551001.0 0
4998.31 554744.0 0
8634.24 556082.0 0
14661.9 553840.0 0
21096.3 554615.0 0
445711.0 553265.0 0
461897.0 554957.0 0
467116.0 554671.0 0
473110.0 554080.0 0
484004.0 554132.0 0
488930.0 553199.0 0
494355.0 552802.0 0
POINT_DATA 5000
SCALARS Radius float 1
LOOKUP_TABLE default
5120.0 5073.35 5415.48 3863.18 6182.6 2356.98 5258.36 5061.3 3163.97 3642.12 5812.43 5906.14 5254.28 5733.48 5580.89 6810.52 6110.27 5840.26 5670.04 4834.9 5085.53 4998.37 5351.6 5492.18 5867.73 3951.75 4499.64 5542.27 5122.66 7513.1 5484.19 4402.52 4436.4 4182.53 4672.91 5645.7 3588.44 5553.16 4366.19 3672.51 2938.66 4008.92 5561.06 6044.04 5484.83 4715.55 5538.89 6059.59 5013.56 4375.68 5054.98 6030.06 3557.27 5170.02 4688.68 4927.31 5185.34 4517.56 5903.42 3761.32 5176.86 4118.05 5065.13 4940.78 3615.22 4380.59 6716.79 3850.77 5546.39 5325.36 6759.9 4730.36 5926.61 5701.86 2720.68 4238.81 4955.55 4468.59 5200.76 5325.02 4862.64 5205.43 4432.58 6684.56 3955.56 5292.64 2635.86 6166.5 5936.02 5305.17 4231.61 3379.84 7613.27 4133.88 5945.65 5418.62 7021.47 5416.38 6051.14 5836.15 3563.63 4345.55 5885.03 2837.58 3653.41 5246.2 5017.13 3673.74 6116.18 3968.64 4385.06 4688.67 7184.19 4290.3 3942.53 4861.08 3607.45 4951.03 4094.62 6483.19 6230.49 5493.32 4601.27 4195.44 5740.68 3261.21 6704.06 5600.93 3871.88 3856.01 4827.23 4390.66 4911.47 7447.37 4924.6 4733.32 2924.37 2899.43 3867.67 4827.82 4003.05 3589.27 5759.91 4333.2 4665.12 3936.02 4927.02 4174.52 5109.54 7054.71 3641.64 5747.75 4277.89 5539.32 6496.85 5541.59 4124.71 5279.39 6337.56 5803.39 4381.97 3255.82 5242.73 2812.98 4065.69 5399.73 4805.87 4712.33 5227.21 3997.1 3260.67 3038.33 3383.4 5980.74 3856.1 3829.13 6458.82 5489.43 5054.25 4796.33 5360.19 4874.39 4839.34 5083.08 5728.85 3998.5 5525.39 5863.59 4024.3 6257.19 4737.14 5603.15 5390.22 4660.72 6038.78 5123.52 4295.38 4780.03 4044.71 5816.2 3091.3 5789.98 5527.54 5573.7 7325.81 4055.8 4794.96 6186.19 2980.99 4840.01 6834.49 5938.34 5555.28 6394.38 4686.65 5169.36 4695.45 5834.74 5556.96 3888.21 5697.78 4667.36 4392.68 5495.39 3554.9 4487.31 3996.0 4002.16 5693.81 4138.16 2540.31 6029.66 6138.47 5697.4 4727.62 5206.78 6425.26 5143.58 4484.76 5611.2 7933.0 5173.87 4455.12 5380.13 5118.27 5932.23 5788.23 6052.7 3921.18 5891.05 6902.81 5529.52 5252.48 4015.92 4778.34 4684.5 5120.49 6302.8 4005.44 4270.95 5555.88 5280.17 5028.96 6362.12 3866.16 5152.36 4220.65 5826.64 6820.42 4894.16 5711.87 4896.52 5791.61 5581.75 3798.62 3666.57 4254.17 5615.42 4091.31 7199.21 6124.89 5708.81 5043.05 3486.22 5409.61 4414.54 5262.61 6038.2 5713.22 6732.43 3183.98 4524.28 4511.82 3778.1 4727.24 4816.2 6959.81 6321.41 4941.22 3372.79 5282.64 4479.66 6392.01 6644.76 6372.62 4523.7 5255.32 5337.48 5542.21 5481.78 5924.89 4937.14 6894.71 5201.36 5094.81 4306.53 5972.06 5861.71 5017.78 3794.63 5015.69 6175.81 6677.09 4829.35 5813.4 4089.76 4751.02 5184.56 4715.72 3369.13 5367.2 5308.1 6730.19 4937.02 7565.34 5637.59 3103.0 6084.86 3307.12 4467.94 5551.36 6038.14 6135.57 5998.38 4312.67 4359.04 4270.24 4947.52 4989.15 4520.1 4305.57 3791.79 5201.67 5526.55 4754.05 3192.41 6084.93 4987.87 3315.57 4669.66 4808.52 3043.85 5461.13 4907.89 5629.19 6037.08 4049.23 3586.91 3115.91 5478.92 4933.21 4850.81 5094.44 5375.47 4723.12 5024.9 5659.17 4717.05 4562.29 5423.8 4164.13 3417.33 4926.42 4642.34 5153.74 5874.89 4165.81 4293.03 4424.7 4951.47 4925.44 5246.61 5215.15 4764.96 5607.24 4726.76 3599.45 5655.21 5090.24 5091.39 6756.95 4929.8 5601.05 4382.74 4948.92 4516.43 4749.8 5810.84 3748.24 4655.49 4809.42 4566.18 5856.11 5287.2 4234.94 4109.88 5013.13 5080.66 5110.45 5248.77 4528.09 3556.85 3895.51 4389.21 4128.98 6291.51 6246.22 4307.28 5046.33 5804.71 5053.92 5020.12 6352.26 5839.13 3735.44 5923.5 4073.93 2240.39 5096.78 6324.23 4727.24 4651.28 4384.42 4493.48 4362.19 4230.54 5082.6 6163.38 4964.09 3459.9 4093.08 5543.27 4980.85 3327.49 3960.8 5714.58 4923.9 3329.99 4973.78 4083.97 5208.32 4607.02 6673.96 5174.89 5882.89 4188.32 4100.38 5538.93 5727.3 3847.38 4242.52 4907.06 4645.41 4786.6 4433.59 5740.84 4612.68 6355.42 5690.56 3693.63 3937.74 5478.47 6061.47 4997.27 4449.22 5628.24 5992.26 5070.39 4613.31 3947.47 5091.68 3296.27 4713.25 6243.0 5441.96 4288.3 5370.52 5774.81 4739.42 3697.96 4899.11 4278.07 4745.45 5356.51 3818.59 3057.03 5495.68 5163.9 4973.83 5530.87 3912.37 3320.52 4310.18 4151.94 5927.43 5244.78 5762.84 5119.37 6142.37 3982.23 5806.08 5243.29 4853.39 5365.89 3130.65 4511.54 5004.67 5409.33 5196.0 4204.84 6119.09 5069.25 5048.89 3161.47 3435.9 3991.03 4652.29 4495.87 5344.77 4723.48 5027.98 5097.87 5281.28 4863.72 2631.9 4087.15 4143.08 5489.34 6043.3 5952.75 6445.94 4281.49 4129.43 4320.28 5293.9 4685.34 5492.26 4220.88 6640.13 5351.39 4583.31 4336.42 3402.32 7589.94 4466.03 4178.15 4898.94 7531.29 4733.04 5935.03 4755.47 6390.78 6826.57 4788.87 3746.31 5346.27 7267.18 4758.21 5002.48 5708.14 4262.82 5537.72 6342.25 6142.94 6327.9 6519.71 3092.35 3629.96 4714.54 5210.03 3320.11 4306.11 6022.17 4503.89 5903.66 5419.37 5985.29 4528.49 4247.23 4268.65 4694.83 5788.66 3903.75 4485.99 5475.8 7435.25 5543.46 5498.32 6475.1 5527.33 2691.29 6255.18 7500.97 3920.42 6332.36 5542.14 4218.06 4931.53 3843.58 6082.81 3191.99 5449.18 5367.52 4048.37 5030.91 5507.24 6851.54 5935.47 5313.66 2651.49 5275.32 5512.23 4649.22 5509.42 4354.08 5936.36 4520.62 5475.7 5229.48 5314.69 5127.16 6050.81 4249.46 4244.99 6022.72 4643.31 4969.21 6917.52 6256.02 4277.88 4668.71 7228.46 6623.85 8332.24 7134.64 6691.39 4602.25 4329.05 5110.37 4931.38 5664.98 4659.59 4322.15 5025.39 5101.59 4377.07 3813.22 3848.93 5570.3 5234.29 5349.31 4711.62 4114.24 5394.55 2976.22 4256.43 2682.24 5928.32 4016.18 5415.19 5526.75 5435.74 5560.26 5965.81 2330.66 3702.37 4177.19 3691.0 5402.21 2845.98 4880.14 5320.92 3948.23 5102.36 5228.18 5787.31 6122.55 5480.13 4736.58 3485.26 3240.09 4556.36 3369.23 4548.16 3688.8 3817.13 5893.5 3695.36 4547.19 6020.48 3963.86 5076.35 5200.05 4091.8 4645.58 5670.2 5181.4 5094.52 5166.79 4946.74 5996.33 3950.63 4612.62 4275.57 3619.07 5327.45 2983.99 6185.89 4750.17 5660.85 3990.25 3758.07 4752.51 4989.09 3587.05 6362.14 6719.88 5978.82 4342.9 5978.9 2739.94 4790.08 4270.53 4194.5 4792.73 5513.6 5264.06 4901.41 4515.71 5358.59 6202.55 5023.15 3844.9 6375.99 5273.35 4662.56 6259.23 3457.48 5417.15 3405.98 3688.16 4681.72 6631.19 5661.62 4467.04 5817.25 6385.23 3997.96 2614.4 3460.94 4439.35 4373.45 6184.4 4982.31 6229.37 5269.18 4406.1 5065.11 5034.59 4553.56 6155.31 6308.71 4223.33 5911.67 4187.56 5082.47 4840.84 5191.63 4501.51 5138.31 4551.24 3610.4 6387.01 7111.16 4871.44 4564.34 3838.56 6248.81 4853.02 5088.44 4998.21 3931.07 7440.72 3949.6 4945.39 4867.08 5626.61 6648.68 6363.92 5407.78 6205.93 3828.81 5830.72 5309.98 5289.52 6718.19 5314.85 4307.48 4305.43 4942.77 5450.44 3927.99 5069.84 3629.62 5329.64 3323.28 5344.25 4997.27 5987.17 6013.14 5925.6 5379.87 3708.04 4602.86 4581.13 3856.59 4621.75 4219.07 6338.89 5584.06 6480.17 6445.22 4962.77 5872.05 4256.67 5323.3 6079.11 3082.32 6430.39 4765.02 5376.71 5703.6 4448.13 5070.29 6326.18 4266.03 4713.74 5061.98 4923.24 6632.99 4537.6 4419.61 7177.44 4082.57 4236.14 3848.54 4407.87 5080.18 5941.4 4263.33 5266.5 5868.82 4051.44 4716.19 4301.06 4050.9 5344.0 5135.69 3456.98 4593.7 6045.46 4763.45 4478.15 5681.38 4043.57 4138.42 5011.31 3979.82 5006.58 5586.81 2765.2 4746.52 5572.95 5413.79 6723.16 5372.61 5402.24 3686.21 5013.42 4519.22 5210.48 5651.07 6101.92 4635.6 6239.84 4427.28 5370.85 3658.37 3178.54 5629.39 6157.04 4768.61 4807.28 5075.55 2261.36 4220.03 4084.49 6179.96 5703.07 5147.36 6260.79 4563.46 5169.9 5282.91 4425.84 6510.17 4871.96 4454.63 4066.38 5742.65 6695.82 6049.55 5514.76 6405.76 4290.14 4877.67 5835.78 4150.99 4020.32 3815.26 5445.87 4216.92 4571.7 4107.03 3970.25 3771.48 5198.77 5643.58 4292.06 5147.67 5577.04 4481.53 6318.18 5077.33 3948.17 3824.16 5330.45 5045.38 3689.45 3868.18 4959.34 5130.91 4948.5 5383.07 4527.02 4247.15 4531.14 4602.85 7552.94 3627.55 4051.34 4409.63 5521.25 5865.39 5949.46 3661.9 3776.94 2684.03 4010.57 5246.47 6191.29 5280.69 4522.21 5506.19 6923.84 6719.94 5449.46 6166.29 4950.67 6113.54 4662.43 3963.76 4043.66 5733.62 6553.94 5282.51 3797.33 3004.16 5331.02 7256.35 4800.69 5592.32 4523.88 3279.1 5709.62 4241.89 4978.31 5054.74 4099.77 5941.72 3498.2 4245.72 6562.18 5794.24 4704.72 5908.1 4541.21 4177.94 4344.58 5896.46 4502.5 3929.19 5922.5 4271.69 4850.01 3633.87 2775.04 3821.72 4810.12 5215.05 4138.46 6035.6 4986.77 5137.34 5423.0 5125.78 6034.41 5350.88 5452.83 5178.99 4790.78 4591.87 6422.84 6552.22 5379.09 7644.38 6004.68 6799.4 5278.36 5107.23 5533.42 5136.08 5558.68 4187.31 4599.38 3240.51 7422.36 5161.01 5227.59 4628.4 5453.6 5294.77 4709.05 5528.53 3077.84 4630.82 5255.18 5726.66 5460.65 4460.92 5945.89 4767.78 4042.28 4105.55 4863.23 5912.61 4402.67 5381.16 4948.98 4403.98 4981.9 4414.48 4560.84 4127.74 4537.32 5163.02 3066.13 4302.5 4156.38 2476.04 6048.7 6006.16 6009.88 4742.68 5634.83 4164.68 5495.84 6268.1 4862.21 5499.11 5113.21 4374.35 5347.48 6396.74 6898.19 5526.14 3627.82 5198.29 3975.31 4044.45 5262.19 5344.43 6070.58 4373.47 5022.28 5197.52 5615.35 4027.09 4135.62 5801.99 4860.33 4502.18 3685.13 5534.94 3312.06 5180.76 3361.26 4993.35 6218.95 5222.16 4690.55 5533.72 3678.08 4802.32 5518.57 5463.48 5730.33 4527.99 4543.1 4298.15 4376.7 5190.61 5832.37 6051.83 5409.63 4642.93 3973.12 4263.16 6024.75 4813.08 6799.88 5860.67 4540.86 3062.43 5426.78 5235.17 6566.1 4435.36 3555.86 6065.22 5565.13 6386.78 5227.52 4470.61 6193.35 6086.96 4729.43 4656.78 4092.24 5991.09 5105.16 4678.38 5126.91 5050.65 5448.61 5316.75 4827.33 5022.8 3784.5 7055.53 6133.92 3719.84 4178.4 7034.11 5782.6 2586.12 6261.42 6125.34 4011.77 5965.78 5252.34 4527.08 2965.79 4287.63 5776.37 7099.43 5315.4 4516.28 6449.45 5678.96 4244.9 4285.32 6048.86 6894.26 5490.43 4986.51 6169.11 5339.38 5172.53 4896.11 4318.48 6132.95 5266.22 5226.97 5754.18 3418.99 5132.68 4480.95 6595.03 4983.39 4558.15 5366.52 5417.8 5146.37 7132.12 4836.16 5151.11 5680.94 5581.55 5545.46 5193.01 6550.44 8325.01 3764.06 4440.81 5941.9 6642.76 6109.49 5987.42 5990.52 2967.38 5652.0 3764.1 4340.76 5463.41 4779.5 4421.12 4929.75 5254.49 4996.99 4221.28 4456.39 4631.83 4384.88 3701.27 6887.27 5233.78 4562.74 6008.49 4806.34 5776.57 3942.07 5133.97 7443.72 3937.08 6600.94 5371.02 5513.57 5013.67 5729.23 5669.65 5934.22 3780.23 4359.62 3471.03 5011.84 5253.55 5820.48 5062.71 6946.21 5975.63 4274.61 5433.8 4410.55 6314.07 3921.08 4190.31 7055.42 5486.68 5683.61 5100.25 5805.86 4049.02 4470.4 5311.03 5255.12 4285.66 3872.61 4238.4 3930.79 5365.24 4004.35 4763.96 5293.51 4446.06 5008.63 3450.93 4270.74 6293.89 5737.75 2761.07 3778.02 6552.21 4350.12 5227.02 3603.51 5670.0 4232.16 5300.96 4344.51 3781.77 3834.43 4707.06 5491.37 3474.5 3860.83 6348.03 5732.27 4523.39 5434.47 5829.22 6917.62 4497.78 5567.93 4243.79 5811.18 5332.65 6451.33 4835.83 5604.35 4159.35 5225.33 4237.98 6045.22 6439.37 6649.96 4614.3 4896.39 3633.79 6081.14 5480.83 5421.53 7144.24 5653.9 3600.43 5683.26 5598.74 4906.82 5131.24 4788.58 5260.34 5206.48 6155.1 4709.35 6586.45 5876.71 5826.04 5624.49 5339.78 3095.48 3745.84 4730.41 5188.81 4203.26 5696.88 5690.26 4004.04 6057.22 4156.2 4289.17 6072.45 4497.59 5564.02 6444.77 4470.98 5083.41 5759.46 6248.6 5443.58 3836.45 5346.68 4558.46 5020.71 5296.29 5997.88 4611.53 5094.48 2681.29 4360.23 5576.92 6408.83 4585.31 4586.19 6625.18 5323.91 5097.45 4047.87 4185.61 5742.47 4917.99 4367.78 4095.75 4298.45 3319.67 5222.51 4076.59 6609.84 5135.96 5164.1 5658.37 6074.94 5699.53 4250.88 3783.54 3475.67 4792.39 5278.56 5146.37 5631.14 6137.8 5433.65 4442.22 4887.76 6477.91 5413.31 3012.99 3091.67 6316.56 4081.97 4332.87 6420.81 4303.19 5401.99 5514.84 5134.39 4256.57 4607.85 5784.3 3914.2 4220.46 4287.53 6088.68 5937.08 6070.3 5612.21 5046.21 5894.61 4929.14 5687.83 5196.67 5004.23 6496.67 6442.69 5474.8 5226.0 6320.71 4648.04 4373.3 4750.78 4166.08 5029.78 5762.59 4861.06 4298.67 5960.66 5873.69 3979.26 6608.73 4962.09 3999.48 3923.03 4643.85 5411.85 5082.74 3999.94 5607.14 6915.83 4844.57 3901.8 4027.46 4864.22 5511.88 5941.61 4512.11 4933.65 6098.1 5708.99 6333.29 5687.85 6401.43 4558.47 5731.57 5662.55 5737.92 5839.71 3755.95 3056.7 5591.76 6234.32 5889.35 5010.04 4394.56 4570.98 5388.78 4275.07 5825.38 4573.72 5099.21 4163.74 6969.28 5636.4 6471.42 5283.8 4428.14 6464.15 4972.17 4479.11 6685.4 4222.77 4850.06 5268.38 5527.23 7038.89 4805.33 4814.12 3863.67 5980.95 4013.38 5067.56 3352.35 4343.78 2735.53 5263.3 4008.15 4909.65 4669.06 4811.32 6400.08 4743.59 4715.58 5208.14 3317.83 5580.92 4450.7 3532.3 5769.98 2221.99 3583.21 5442.32 4135.08 4643.56 5067.46 5128.57 4863.01 5620.74 6000.7 5945.08 5604.21 5139.5 3979.54 7493.3 5304.13 3527.05 4814.55 5833.06 6262.72 6607.87 3664.11 3365.82 4163.5 6481.79 5374.51 4123.6 5320.28 7092.87 4569.12 6098.14 4796.58 5750.71 6222.42 4472.17 5654.31 5470.77 4831.47 6062.05 6939.12 4735.33 4413.85 4406.4 6853.85 6171.13 4020.4 5092.37 2395.5 3374.08 3497.9 5782.48 4031.78 5950.04 2435.33 4074.48 4231.83 3614.96 4477.04 3886.68 4745.43 5703.74 4747.55 5831.96 5464.68 4539.07 2685.81 4510.8 4475.83 7509.24 5896.26 4587.67 5951.81 6101.13 5599.7 4296.69 3665.95 6238.32 5698.96 6804.79 6372.13 5369.5 5404.01 6016.19 4124.49 5535.91 3230.13 5714.25 5325.96 5412.24 6332.01 5016.02 7044.29 4234.18 7085.01 3936.95 6193.08 6069.3 5887.01 5168.35 6523.86 5116.6 3747.03 2783.85 7693.4 4286.49 4437.07 6184.88 5829.32 4396.25 3763.05 5151.52 5973.33 5092.24 4347.74 5369.08 4518.04 5291.9 4009.62 3580.58 5356.79 5233.29 4011.37 3169.67 4968.03 4312.56 4612.06 5204.04 3361.92 3306.14 5944.09 5490.58 5698.77 4863.79 4702.06 6515.84 5117.47 4143.78 4538.95 5724.64 4970.88 5224.12 4850.14 4763.66 6739.08 5463.38 3637.61 4471.58 5945.21 6313.06 3493.7 4938.74 6345.13 6470.3 4200.03 3474.39 4719.7 5516.95 5313.22 5328.22 5563.79 4151.76 3905.51 4721.02 3493.47 3546.71 4254.37 4596.75 4188.87 5768.57 4498.25 5564.23 3735.24 5151.21 5398.64 6574.95 6817.57 4568.41 6853.04 3624.7 3420.08 4912.04 4691.91 4255.34 5064.79 5480.3 7046.11 3427.63 4146.81 6342.48 5756.75 5093.82 5212.43 3924.14 5454.12 6918.35 4834.3 6348.54 4066.57 5642.35 6357.47 6101.57 4891.38 4793.65 5955.86 2949.12 4532.89 6176.67 4533.37 4848.46 2779.99 5887.38 4581.37 4049.16 4920.21 6942.34 5851.61 3658.05 5478.11 6153.94 6836.82 3862.77 3858.17 4631.99 5388.39 4356.49 3728.18 4326.48 5335.47 4526.81 3449.37 3994.07 5491.9 4219.94 6405.0 5551.95 4264.91 4659.16 3918.87 5549.49 4766.06 3101.75 5423.42 4874.18 2511.46 6605.86 2081.58 2775.69 4778.82 6505.78 5657.36 6124.08 5467.84 5029.47 3619.79 4750.58 5876.64 5395.14 6710.88 3967.48 2477.07 3464.83 4923.41 6213.04 2990.77 4925.63 4497.31 3163.78 5965.15 4888.6 4305.16 3293.56 4666.81 5882.65 5078.86 7042.12 4780.2 4797.52 6326.39 6643.85 6343.14 5501.93 4020.95 5462.21 6049.79 5374.98 5274.19 5226.56 5599.49 4050.08 4097.57 5017.5 3436.15 5005.85 5711.11 4216.17 4575.94 5102.75 6484.17 5021.88 4938.72 5956.65 4597.29 4200.09 5931.77 5108.06 4222.4 4693.52 3573.73 4000.43 4661.03 5160.59 4320.42 5262.35 4281.98 7165.9 5344.83 4701.5 4863.97 4449.98 4771.65 5589.37 4840.44 5439.49 6639.64 3687.65 4887.52 5478.95 3851.85 6318.23 4206.98 5156.76 5174.75 5932.07 5948.71 3856.53 5460.89 6040.74 5742.09 5260.85 2884.65 5393.65 5807.46 4648.21 4393.16 4595.12 3311.29 4549.69 3110.13 5526.31 5030.15 3477.1 3644.78 4078.93 4740.98 3185.39 5934.82 5128.77 5633.61 4243.26 5048.19 6799.23 5907.46 4153.84 4888.27 6740.71 5399.29 5789.55 4633.05 4901.2 2275.45 6522.59 5012.5 4785.25 6519.43 4270.15 5053.95 3298.2 6306.21 5926.11 6667.68 5235.11 4721.32 5211.38 3830.46 6031.67 6413.11 5092.28 4739.14 4918.77 4636.5 5163.55 4819.73 3382.7 6817.32 6471.55 3954.91 5085.71 5923.4 4319.79 6263.44 5960.56 5122.63 5774.97 5862.86 2315.64 4390.41 4703.08 4890.5 6113.95 3981.07 4901.07 5452.42 5186.3 5966.61 4893.49 4514.79 5325.44 4834.87 3672.21 5760.22 5938.17 4795.43 5097.95 2928.82 5313.12 4914.45 4698.87 3984.88 5351.56 3344.57 5318.53 5220.76 4732.09 6945.98 5783.48 5138.2 7001.83 4504.35 5012.97 4349.13 4036.91 5110.11 6379.14 5216.26 3634.5 6631.28 6571.31 4392.65 4058.87 6413.15 6103.11 5048.55 4984.46 4024.31 5844.72 3992.97 4147.31 5989.05 4054.22 7228.94 4441.22 4961.99 5853.89 6551.93 4386.8 6484.43 6423.81 4625.67 3485.54 6192.77 4312.15 4583.52 6418.11 4501.78 7122.87 4922.49 3572.94 5797.36 5001.58 4820.17 5119.86 4592.15 6487.56 5084.17 4854.11 5971.22 4901.44 4998.22 4909.31 5533.19 5711.62 5417.21 5435.19 4383.56 5461.55 7093.13 3562.79 4990.79 6865.76 5424.46 5253.37 5266.01 6515.8 5767.9 2040.66 5384.76 5529.42 5274.14 6138.12 5257.12 4434.19 4428.78 4903.82 5100.1 4940.42 4965.89 4371.99 3703.1 5746.28 4946.42 5187.7 4623.61 4082.47 5409.66 3561.29 3295.83 5203.08 2965.01 6413.02 6235.57 5412.31 4863.27 3492.19 4584.5 4118.84 6766.43 3623.87 5916.16 6934.37 4488.85 3423.15 3731.84 4579.69 3554.48 5010.2 6123.03 6496.52 4997.83 3991.42 4388.63 3718.69 6192.0 4940.28 2216.82 4509.89 5885.28 6752.75 3004.34 5269.38 5607.3 3022.6 5375.1 4811.76 4172.6 5498.42 4638.18 4196.37 6448.66 5806.31 3556.79 4453.97 7317.04 6412.67 4482.9 4593.7 3766.69 4891.67 5513.8 6818.91 3503.65 4521.75 4027.63 3429.57 5569.2 5350.88 5420.67 6735.97 5305.59 5416.45 6459.51 4330.58 5754.6 4955.16 3288.01 4904.51 2202.77 5751.15 5950.88 4149.55 5474.01 6201.86 7554.58 3380.69 4140.4 3639.44 5446.4 4725.01 5966.75 4458.64 5510.9 3657.69 4883.63 6015.02 3492.83 5244.22 5585.14 7039.98 4729.42 6456.58 4159.81 5089.26 3886.72 5415.45 3776.8 5096.43 6156.21 6602.43 3568.28 4798.17 5425.98 4953.1 5166.79 4516.53 2895.63 6449.64 5818.95 4857.84 3940.49 2978.76 6464.8 4908.49 7016.27 4962.21 6622.11 5884.9 4689.15 5089.62 6790.73 4590.55 5659.95 5243.43 6090.91 4741.26 5920.32 4186.6 4537.14 4152.85 5551.9 3867.19 4219.78 4963.34 4188.3 5081.78 4260.92 5499.39 5644.82 4407.9 4440.57 6736.03 5374.07 3087.09 4055.54 5548.29 7480.41 5163.77 3766.55 6027.62 5469.13 5765.42 4976.12 6098.95 4817.16 5148.08 5453.98 5653.03 5578.94 4777.03 7610.49 6579.31 4286.17 6028.09 5323.55 3804.5 5452.36 6486.37 6083.28 5211.6 6100.73 4745.79 5470.04 5456.71 3503.41 4908.75 6556.26 3971.08 6204.65 5684.25 6550.4 5438.92 4244.49 5036.98 4120.07 5188.53 4882.66 6746.66 5410.33 3908.56 4642.74 4844.83 5244.78 3636.15 5652.87 6114.89 5135.63 6384.7 4355.83 6870.97 5351.86 6056.87 5230.02 5307.35 4342.18 6016.08 5166.89 5491.63 5725.37 3868.62 5138.33 3743.76 4505.28 3425.69 4971.29 6280.13 5510.45 3684.15 4730.14 4438.76 5832.29 3994.39 6006.89 4618.73 3814.65 5244.98 3965.3 4960.64 5792.98 6592.93 6350.71 6104.26 5583.61 6436.74 2460.79 4653.83 6063.64 5996.66 4986.71 6479.39 4093.99 5079.22 4122.92 4997.91 4452.54 3604.14 4684.44 5381.54 4406.05 4749.59 4680.94 4858.44 3685.65 3468.42 3685.13 4673.35 5799.69 3876.21 4655.16 5571.72 4916.22 5869.4 3701.16 6022.7 5297.19 5251.4 4345.67 4255.85 4453.64 5019.93 5511.6 3885.86 4459.28 5235.29 4517.73 5177.64 4255.31 6116.33 5453.3 3838.47 4479.94 2588.37 6250.23 4435.51 5887.15 4718.54 8659.64 6599.66 4588.7 4886.12 6419.12 5683.95 6107.89 4301.61 4233.8 5206.33 4446.84 5530.49 5065.26 5660.55 4304.41 6789.23 3989.7 4157.29 5107.0 4246.61 6212.15 3684.56 5327.75 4609.02 4852.58 4896.65 5561.74 5975.23 4504.86 4473.29 4788.08 4198.94 6163.54 5212.37 4211.82 6003.78 2628.22 5058.51 4901.29 3899.7 4124.76 4050.03 4775.04 4813.33 4952.52 3840.21 4833.55 3646.95 4081.34 7224.99 4954.76 6334.53 5377.37 5869.67 4311.48 5483.7 5018.69 3152.86 5952.38 3896.27 5973.89 5807.52 5963.36 5518.11 5087.14 5712.35 5169.48 5701.52 4731.21 4743.9 3124.7 6064.71 6102.98 3719.11 6060.17 5153.18 6711.21 4236.86 5393.76 2606.51 4941.02 3864.92 6119.99 2955.36 7123.04 3668.93 4128.1 4983.3 5372.82 4402.17 4385.81 4034.05 7778.01 5690.96 4456.11 5798.38 3862.91 4125.9 5096.24 6171.71 7382.3 4405.42 3598.08 4668.88 2995.67 4599.81 4022.56 5522.21 5698.23 5810.77 5089.1 5828.35 2711.19 4714.83 5876.72 4028.32 5689.26 5236.43 3809.69 4992.42 7051.9 4680.14 4940.84 5097.69 5895.77 4765.72 6261.75 5857.79 2908.7 3757.34 6415.61 4039.91 4338.08 5276.7 5660.16 4541.8 6134.99 5191.08 5424.88 4062.5 4199.45 5148.58 5415.85 3548.39 5421.64 7234.66 4858.51 4207.54 4603.5 5625.65 4936.96 3184.64 4481.76 5375.12 5452.78 3746.36 4356.36 4892.44 4741.28 4215.2 5069.89 4553.68 2205.51 5361.87 3703.49 6813.72 6502.97 3758.22 4783.07 4946.23 6200.63 4532.7 6816.66 3844.54 3217.67 5034.69 5079.64 996.652 4680.69 6500.49 5965.58 3352.34 4972.18 5329.76 4607.18 5078.59 7200.89 2403.72 5134.33 4147.49 4802.98 5162.67 5760.98 4705.68 5469.35 5384.86 4749.96 4658.24 4906.11 4387.39 4899.73 4564.1 5457.66 6394.19 5509.51 4848.14 5366.22 6193.73 5254.24 4192.21 3742.11 3597.43 4158.91 6776.22 3360.86 5321.17 3034.16 4869.25 4467.13 3877.8 4763.4 6273.6 5902.67 5136.87 5024.32 5454.11 5806.61 3779.45 4983.1 5784.37 6010.59 3682.35 4009.24 3756.96 5906.57 4446.58 5401.4 5127.82 5053.15 5124.17 5366.11 5805.1 5039.12 3908.98 3628.89 3419.87 4064.58 4824.81 6589.82 5027.43 6328.42 3772.3 4855.01 7300.58 5522.75 3608.06 5474.15 7519.2 4099.92 6633.61 3208.96 4771.13 4884.59 5285.07 3858.06 4608.41 4478.6 4184.23 4732.09 4833.46 3988.3 4144.57 5750.07 4351.38 6136.49 5550.75 4642.66 6543.13 5933.7 5149.72 4809.67 4752.14 4378.3 5411.02 4950.97 4989.56 5037.06 5175.29 4863.96 5842.56 4094.73 5713.03 6200.54 4652.01 3583.49 4928.27 3673.28 5775.31 5052.84 4366.74 3375.28 5297.16 5354.66 4647.67 4214.44 3566.79 3629.44 5378.23 5374.67 4787.97 4981.43 6246.56 5473.72 4061.6 2603.64 6214.73 2856.55 3894.64 5175.89 4268.19 6618.21 5232.85 4374.74 4062.56 3717.47 4757.2 3205.68 5969.37 4928.35 5241.75 5849.53 4509.46 4651.99 3538.53 4420.11 5863.0 6127.39 5640.12 6638.25 4759.99 2646.13 4365.58 5419.57 5214.4 3629.49 4636.53 5766.05 5117.64 3835.81 4019.34 5429.3 4869.48 5510.96 3623.19 4745.16 6653.07 4697.91 5825.55 5071.98 5719.79 3199.4 4316.5 4371.08 7261.51 4968.14 4914.03 5086.29 5144.56 5311.55 5139.18 4278.57 5551.43 5049.99 5545.21 4333.87 4201.03 5001.87 3667.93 5684.05 5638.7 4708.17 2741.2 4644.88 5790.42 3142.09 5591.77 5182.13 6110.48 7541.76 4775.49 4681.29 5910.86 5499.59 6239.68 5749.6 7320.78 4234.88 4834.44 5782.43 4384.28 4456.26 5769.14 7307.21 5944.3 3563.14 3381.82 5867.64 3619.72 6208.9 4923.57 3340.09 4438.58 4565.93 6059.93 5602.53 5217.95 6355.68 4083.79 5484.36 4511.7 4304.63 4829.35 3953.55 4187.94 5980.59 4063.9 5263.27 5021.77 6834.41 4757.74 7248.4 4687.64 5036.58 4356.25 5469.47 4419.71 5329.59 4888.12 4244.21 5439.9 5512.16 4588.99 4617.55 3197.63 4287.16 3875.05 3456.47 3645.12 5471.74 5199.44 5580.34 5849.65 3852.6 5131.15 5134.67 4110.59 4847.14 4165.21 4706.5 4215.0 3332.49 4811.22 3950.27 5116.66 3683.86 4918.76 5003.78 3299.24 5293.75 4208.41 5730.61 5826.78 7124.45 4508.18 6358.93 5064.67 5836.26 6666.67 2617.39 4051.18 5144.44 4826.52 4583.94 4337.32 5046.31 1937.5 4731.53 6240.42 3763.9 5146.0 5721.14 4788.7 4288.45 4577.73 4987.28 5084.5 6206.98 4918.64 6562.03 4815.47 4368.12 6443.99 3889.98 5399.43 5193.58 5490.64 5695.44 3916.42 4507.46 3422.21 5603.68 4944.51 5532.72 4584.81 3220.8 5179.17 5579.39 5270.51 5148.1 5490.75 5224.64 5214.63 5949.73 3495.68 4312.48 5527.13 5783.94 6370.33 5081.08 6318.25 6864.06 4493.79 4932.56 4279.44 5813.79 4899.19 5293.13 4028.22 7350.26 3918.94 3768.46 5487.63 5167.53 3852.82 4507.36 5003.3 6245.52 4932.29 4990.23 3220.29 3784.94 6016.87 3845.9 4141.21 3125.13 6715.73 4439.71 4174.44 5667.51 5113.6 4708.31 4027.33 4810.98 3873.92 4198.9 5135.5 5431.29 5347.9 5091.22 4646.51 6282.38 5640.72 4504.52 5851.63 7107.63 6061.63 4867.7 5073.02 6545.43 4075.28 4277.24 4989.2 4469.54 4314.56 6300.92 5161.1 3796.15 3928.53 5776.96 4209.49 6045.67 4216.95 6119.63 5464.25 3821.94 5486.48 4209.31 3498.16 4409.27 4752.9 5301.47 4947.24 4321.21 3540.11 6506.86 5391.48 5950.45 5088.57 4344.34 5966.42 5009.83 5666.95 5210.38 5717.8 4127.53 4489.99 5210.75 4474.83 4548.45 6555.44 4658.11 5658.14 5114.07 4385.49 4263.18 7142.95 4383.68 4559.74 6015.22 6063.44 4454.74 2904.46 6449.06 5120.92 4924.07 4685.4 4629.02 5914.5 3565.32 6006.16 4608.62 5407.96 4071.75 4626.72 5131.77 4410.82 5549.71 4967.51 5173.82 7212.97 5698.53 5034.34 3769.2 4450.49 3468.45 5036.14 5635.32 4526.34 4316.45 5610.95 5042.75 4598.92 5241.22 6647.08 4979.52 3422.29 4501.05 4407.79 4537.03 6548.29 3990.96 5352.24 7362.42 4202.77 5836.14 5473.05 6008.81 5537.34 5192.49 5058.34 3487.31 5726.42 6643.4 5575.11 5461.72 6599.28 7145.73 4168.52 5800.81 5403.97 3954.77 5106.46 6793.1 5166.05 4506.66 5515.73 5209.55 4564.41 4850.5 6331.74 5951.86 5026.76 4252.18 5023.41 4833.67 4659.88 5325.91 4546.44 4092.07 5657.55 5727.79 5212.92 4184.21 4831.93 2279.05 5788.97 3472.91 6760.92 4464.73 4928.85 4023.93 5868.89 6440.38 8137.11 5291.05 5484.32 6650.77 5466.33 6226.14 5742.74 5280.12 5599.29 3946.28 7216.98 5984.81 5721.05 7013.17 6329.53 3805.67 5718.28 4247.69 5367.73 4514.39 4640.06 6242.79 4227.41 5993.0 6047.14 4803.57 5467.63 4923.43 4728.55 4568.64 4929.6 3919.62 4642.2 5750.35 4945.0 5984.8 3127.83 4212.15 4551.26 5260.52 5678.58 3185.09 6570.35 5114.23 4242.63 3269.54 5495.0 7407.91 5064.23 6061.85 5512.44 5268.15 5819.0 6347.72 3460.93 3200.6 5124.86 4927.73 4602.57 3419.07 3763.85 4096.86 5710.33 5344.44 5001.51 6432.8 3186.07 5115.42 4369.86 4082.4 5482.76 3745.02 4887.73 3720.7 4211.36 5378.24 3604.31 3856.73 5817.74 5887.71 5661.6 4827.61 5409.08 5285.75 5385.03 5481.64 4169.15 5673.75 5360.67 5968.54 6263.3 5592.54 3247.97 5124.34 4114.2 4326.06 5034.46 5757.29 5793.12 5469.17 5061.75 4373.2 3769.24 6022.78 5884.99 4087.32 6647.85 7025.09 4674.9 4433.12 3392.26 2549.95 4361.24 5138.93 6224.85 4556.19 6406.8 5368.66 4795.08 6562.92 4068.31 5501.73 3671.06 4697.24 5077.29 3612.44 7035.54 5233.76 5426.4 5763.05 5129.68 2820.07 5357.39 3791.41 5076.84 5853.12 4224.3 4213.05 6203.03 4700.07 5188.82 5235.87 5615.84 5273.37 4717.73 5043.14 4732.37 5556.0 4985.3 4711.04 3904.07 5007.21 3274.85 7144.05 4173.54 4619.2 5606.51 4801.8 5740.65 6038.68 4444.97 5046.12 5271.02 4807.4 3000.29 6349.67 4264.54 5261.19 4350.15 3516.27 6541.45 4139.3 4590.01 4263.78 4601.74 6101.86 5078.31 5228.75 4807.35 6761.81 3903.91 2918.64 4554.68 5630.9 4368.28 4512.07 4692.32 5463.06 5236.24 4585.04 3986.41 4241.68 6102.49 3469.18 6949.65 2945.34 3372.95 4095.83 5695.25 4489.29 5676.61 4301.93 5846.95 5716.42 5701.63 4620.95 5368.93 4488.39 6121.56 7168.2 4571.74 5740.78 4796.12 3622.48 5997.91 5385.86 6791.86 4209.0 5728.58 4930.72 6424.77 6297.99 5918.95 4538.89 5689.56 6556.86 3242.31 6099.28 5372.25 3234.26 4830.13 4778.37 3494.16 5370.9 5134.17 4074.16 4904.35 6172.27 5390.33 4904.37 4651.64 4358.81 5278.54 5729.92 5275.57 5016.46 4179.87 6224.13 4761.84 3661.67 5517.65 4009.68 4622.73 2569.12 4161.32 5161.74 7336.37 5099.9 6945.69 5118.86 7086.69 5648.78 6875.73 5226.42 6081.3 4983.43 5117.52 6311.89 5866.91 4683.28 6405.69 5679.74 6549.8 5247.01 4825.73 4165.36 5288.33 4208.37 5157.38 6296.54 4841.7 5702.4 5069.9 952.938 5473.89 6089.45 4678.7 3673.6 5810.17 4966.07 5072.5 5713.36 4657.24 5748.9 4400.14 4749.18 5545.59 4506.18 5494.28 5166.41 4824.12 6542.5 7104.73 5067.56 5206.47 2596.96 3834.47 5701.75 6162.3 3272.75 4057.17 2781.96 5262.47 7066.96 3512.94 4467.0 3104.96 7043.44 3831.52 4263.65 4258.98 4750.49 4643.9 6106.43 3787.08 4013.86 5644.81 6545.99 4177.47 5334.36 4218.16 4933.49 6139.64 4140.92 3990.94 4756.8 4896.43 4176.32 5486.89 4639.8 4462.35 6069.78 5532.75 3587.93 4975.85 4517.29 4495.75 5323.95 6171.01 5796.26 4468.26 4603.04 5578.18 5106.33 4870.94 5198.94 5293.37 5933.54 5271.88 5559.79 2980.31 3148.79 5879.24 6348.93 6824.53 4332.64 4742.82 4422.23 4820.68 6031.22 5485.84 3618.64 5703.84 4335.79 5453.69 5797.32 5432.04 3921.27 3702.45 3161.1 5265.63 4898.29 5684.88 4431.06 6523.78 5730.2 5620.88 4941.52 4529.77 5900.0 4325.13 4262.74 3783.79 5317.19 5078.73 4248.14 5729.0 5279.19 4016.6 5192.92 7050.08 4786.66 5891.25 5370.1 5129.4 5114.51 3303.49 4655.37 5585.25 5256.75 5023.61 6351.89 5932.28 2960.5 4975.32 4298.7 4183.4 6170.9 4733.79 4436.48 5833.78 4823.06 5758.98 5615.35 3967.76 5288.64 6213.24 6734.39 4217.36 5942.45 4150.76 4851.18 5005.72 5368.52 4871.77 5811.26 5797.21 5685.74 5062.77 6740.35 6019.35 6075.99 3306.84 6028.63 5265.21 3450.07 4550.92 6215.87 5191.26 5553.94 4067.96 3663.0 4704.92 5610.53 4099.26 2970.9 4954.81 4834.39 6304.49 4383.47 4580.06 4608.34 3926.11 5971.21 5493.89 4835.97 5695.79 5464.83 3622.8 4589.06 4770.51 4920.88 4184.47 5414.58 4431.23 4991.35 4994.65 4587.7 5740.98 5601.55 4462.87 4346.07 5196.92 4012.92 5759.79 4598.54 4816.51 4711.15 5218.42 3825.48 4658.59 5345.73 4770.63 4841.23 4357.11 2804.54 5477.8 5005.6 5589.53 7208.19 4549.51 5196.08 5025.42 4965.24 6379.38 6257.79 4849.5 6229.83 5353.23 4523.81 5065.74 5791.25 4873.23 4028.35 5464.05 5453.2 5264.83 3901.53 5136.51 6815.51 5232.16 4457.05 5189.91 3989.26 5777.26 4171.02 7012.36 3530.82 5028.06 4002.99 4886.99 5159.67 5764.52 3770.22 4390.64 5150.84 4645.86 4045.67 5087.97 6005.95 4308.49 4930.17 4581.1 6241.77 4745.44 5762.82 7360.12 6223.98 5821.49 5617.29 3035.06 5580.44 5998.13 5095.52 4878.93 6275.25 4746.15 6892.33 3720.38 4758.84 4731.37 3976.0 4672.86 6530.78 5560.23 3043.77 4139.39 5237.55 3902.48 4304.64 3909.94 6030.39 4905.53 3799.01 7392.65 5254.49 5319.1 3757.23 4181.93 6828.8 5987.88 4228.53 3579.59 6123.46 6142.88 5155.28 5388.73 5111.26 5205.38 4949.55 4884.93 4600.71 5262.79 5927.2 5146.1 6485.77 5866.42 3669.32 6060.06 4762.1 5544.27 3484.81 3742.31 4316.0 3987.69 4546.96 5424.55 4287.25 5755.15 5134.72 4921.1 3814.16 4271.07 4191.01 6419.64 4420.6 5340.05 6506.63 4140.04 4215.05 5995.4 4668.8 3495.3 5577.41 5890.25 5917.34 6511.37 3999.5 4216.44 6710.14 5034.05 4726.2 4426.02 3953.26 5467.51 4474.39 5459.92 5188.22 4096.47 3810.68 6478.35 4196.62 2809.19 5453.77 4104.04 4916.7 5030.33 5593.79 5234.2 4612.13 5846.6 5327.05 4109.44 5438.55 4903.84 4290.49 4434.65 5977.66 5209.5 6175.27 5876.51 6731.89 5410.6 4286.61 2932.52 4733.41 4603.66 4969.68 6636.43 5431.14 6298.8 5313.86 3689.24 5178.07 5151.19 6509.54 6119.0 3792.06 5128.59 4293.3 5587.3 6583.37 3572.73 4864.38 4848.98 4491.96 5184.98 4608.01 4467.51 5339.82 4519.03 5460.57 5110.27 4085.96 5703.34 4612.68 6668.98 6649.52 4232.33 5462.6 4747.68 4262.19 5770.92 3093.38 4597.88 4845.91 2002.78 5631.32 6322.0 4505.3 5793.14 4452.36 4491.26 4511.34 4068.41 6463.71 5059.37 4742.35 5783.38 6264.03 5645.54 5088.64 3562.8 6589.8 6920.92 3729.16 3783.36 3038.91 3922.28 6570.43 6883.86 6161.94 3350.99 4979.5 4065.28 5057.59 4745.37 4461.14 5418.98 5285.6 4574.54 5575.11 3132.34 5615.06 4764.83 1969.87 4841.28 3957.38 4047.95 4494.15 5035.71 5507.38 4419.79 6889.5 4710.88 3869.39 5407.69 5960.5 5308.33 6502.99 5393.43 6896.55 4666.12 4392.75 4638.09 4685.65 6219.34 6023.07 5674.63 5287.25 4475.38 5939.22 4725.11 3626.86 5418.12 6371.96 4271.93 5125.17 5322.11 5700.79 4859.01 4697.49 5524.45 5735.08 7133.44 4750.81 4282.11 6589.13 4625.53 2347.41 5602.62 4542.16 5114.67 3543.37 2030.03 5353.66 2638.82 5527.27 5157.73 5104.39 4541.22 5847.91 4934.66 3539.68 4984.01 6217.33 4605.39 4557.1 6270.59 6688.53 5927.1 6500.45 4907.55 4094.63 4103.76 6605.11 3557.46 4757.87 6379.33 5971.95 5652.73 3979.46 6321.97 6412.84 2589.19 6079.55 3856.4 5485.61 4993.49 4937.36 5310.33 5308.4 6581.13 3688.83 4569.32 3402.44 5537.61 6084.88 4397.06 4199.44 4053.12 4479.5 6261.67 4014.44 3435.13 5065.78 4431.46 4521.42 3207.84 3977.98 6043.34 4128.93 4939.56 4959.72 4712.17 3808.04 4723.71 4461.67 4405.61 6126.5 4034.88 6007.1 6345.2 4609.65 4832.21 5009.21 5410.73 5394.79 4574.03 5290.37 5264.08 5850.38 4526.87 4151.74 4227.66 5192.82 4691.01 4594.89 4174.22 5245.95 4067.89 3573.84 4515.02 6294.09 4571.57 3445.92 3820.19 5236.69 4586.82 5939.29 6026.04 6200.05 5859.17 4052.49 5490.54 5061.74 5203.54 6189.67 6142.94 5001.69 4948.96 5117.83 4416.87 5300.17 5152.78 4117.9 4052.43 4057.4 5534.23 4753.76 6025.77 4466.22 4441.91 5377.01 4781.9 5330.26 6815.96 6470.23 5339.6 5828.25 5483.37 5092.93 5934.05 2803.01 4604.1 4714.66 5322.07 4444.0 5076.11 6771.18 5770.07 5990.75 5600.21 4656.01 5327.39 5781.62 4037.86 4138.59 5714.51 4970.55 4938.33 5628.97 4484.78 4621.33 5765.14 4946.08 4767.54 5121.08 2927.84 5688.77 4696.03 6177.68 5466.13 4698.7 6229.64 2848.44 6045.26 4220.43 6263.87 4975.56 5743.8 6666.34 5084.76 5581.01 6834.92 5130.57 5749.53 5090.48 5402.45 5582.28 3985.93 5945.25 6071.59 5985.75 4696.06 4137.16 6189.29 5984.55 5803.3 3228.27 4721.98 5252.82 3543.98 5056.26 5878.55 5445.91 6604.72 6002.77 3794.47 4610.55 4967.02 4614.49 5400.69 4462.5 5573.31 5004.68 4023.88 5348.11 5428.24 5108.84 3511.5 4520.14 5067.92 5488.96 5704.61 3188.21 5128.03 3720.92 4379.91 5087.3 4942.63 6139.74 4975.57 7066.26 4730.97 3677.85 5821.42 5214.71 4811.11 3463.53 6126.03 4866.8 5131.07 4121.07 6044.69 5524.28 3133.28 4197.87 5731.43 5105.54 6353.81 3414.67 3518.14 4034.41 4150.44 5522.34 5326.03 4420.35 5717.45 5772.57 5256.82 4813.81 6581.56 5268.27 4013.86 4061.87 3980.46 4896.67 5165.31 5383.9 4585.37 3934.11 3798.09 5158.44 4496.51 4288.5 4511.05 6153.71 5917.08 5259.21 4256.08 5881.93 4399.52 4460.89 4157.1 8052.53 4554.24 6182.19 4984.17 4867.12 5101.6 5910.66 7415.84 4981.81 4637.3 5141.03 4840.44 8123.59 4819.83 6286.27 4801.16 5071.38 5616.66 5368.28 4802.36 4880.78 5257.38 5075.23 5625.02 5212.05 7282.36 4829.77 3826.01 4645.91 4444.92 6959.88 4125.75 5247.73 3746.62 4876.37 5034.02 5260.13 4649.5 4810.74 5181.31 5784.38 5475.83 4149.17 4329.8 5728.27 3074.49 5672.46 5202.33 3956.24 7558.99 4142.1 3393.59 5043.14 5333.04 5089.1 4812.59 4521.99 6842.54 2853.68 7115.67 4998.37 5675.45 5329.84 3361.11 6038.56 2807.46 6559.82 5599.16 4179.8 3488.34 4577.98 5658.35 5886.81 4487.51 4582.12 4295.25 7394.47 5357.14 4850.95 5919.27 4793.06 6637.38 6188.33 6111.23 3057.3 6150.31 5873.62 4677.84 4996.91 4924.52 3920.44 5379.52 3768.62 2970.24 5314.67 5658.05 6593.1 5462.1 4066.36 4000.51 6032.45 5444.36 2827.92 4026.03 5771.98 5044.68 2649.69 5899.78 5000.74 3467.11 6153.26 5637.53 5244.95 4645.93 4634.25 5448.64 5901.8 6417.61 3886.56 5715.51 5783.69 3456.3 6074.39 6561.94 5317.83 6738.9 5992.06 5545.68 3939.96 4970.12 4967.93 6044.01 6520.19 5973.57 1458.87 5734.07 6241.48 3997.68 5125.45 6033.28 4188.16 6327.54 5507.07 2943.17 4654.92 5327.71 5286.55 4322.56 5509.09 4850.49 3873.72 4592.49 3625.98 5479.86 6474.5 3928.99 4763.04 5944.52 5971.9 4532.67 5050.2 2513.38 5316.05 4769.62 4908.32 3995.08 5019.84 3900.93 4028.13 4457.73 6476.35 6260.58 4067.24 3053.19 6571.26 4313.38 5580.95 6598.99 3549.92 4032.06 2468.16 5246.81 5888.95 5394.78 3463.34 5122.38 2459.88 5262.85 4210.24 5470.67 5901.71 3879.83 6565.95 5733.12 5043.34 6436.29 4246.24 6805.02 5354.48 4729.45 4900.26 6261.13 5374.09 6271.22 3421.81 5378.75 3920.64 6186.24 6916.18 5786.06 4137.41 3868.69 5466.49 5447.74 4450.51 6033.72 3851.47 4966.74 5563.47 5651.46 3162.27 6033.93 5011.37 5516.37 5092.44 4441.44 4232.44 6908.32 5336.61 4817.75 3312.3 5563.09 4439.09 4848.15 3882.37 4798.13 5523.81 4095.4 5188.57 4718.61 6351.48 6697.45 5395.12 3873.79 5357.33 3721.69 3830.7 6210.0 5350.9 3483.61 4262.52 7430.48 5640.67 6572.17 6080.69 3751.73 5555.89 4766.47 6369.66 6009.93 5678.08 5872.45 5922.62 5130.56 4414.09 5191.29 5957.82 3784.68 3717.22 6649.21 3470.69 4859.95 4132.08 5522.18 5223.1 5093.41 4981.55 5144.23 6188.62 6153.07 4702.32 4414.06 5908.57 4413.56 5742.39 4821.41 4924.53 5616.11 4499.52 3874.12 4813.24 5759.19 3113.64 4490.2 4304.75 5480.86 6139.9 4720.22 2832.83 5827.3 6036.99 5250.56 3010.1 3633.58 6294.14 3825.98 4339.97 4589.22 5203.75 5087.03 4667.84 5169.09 3906.41 4691.15 4512.6 4260.38 4636.45 4932.27 5225.11 5342.9 5252.22 4962.35 5402.81 4600.81 5640.63 4919.13 4124.33 5168.97 5783.88 4167.55 5002.38 4720.34 6705.93 5244.47 4731.16 5510.89 6470.87 5822.7 3780.07 4159.89 4038.17 5178.55 5146.69 5007.41 4907.48 3692.99 6213.74 2329.93 4959.94 1635.31 5639.4 6938.87 5412.07 6185.73 6520.96 4083.24 5432.2 4612.4 6178.19 4746.19 6381.58 3282.57 5212.2 5648.59 5108.42 4630.5 6296.36 5717.67 4432.32 5515.59 5252.37 4451.76 3224.81 5432.4 4499.54 3775.38 5037.58 6457.89 4844.2 4081.77 5114.61 6118.13 3374.62 4420.3 4926.62 4871.1 3917.09 4735.99 6492.44 4083.1 4613.32 3482.73 5145.39 5270.1 6351.95 4957.99 5195.09 4063.26 4947.64 5345.05 6305.9 4997.89 4542.62 5093.28 4881.51 6131.52 4311.92 6009.88 4699.77 6664.54 6842.35 5464.34 3621.63 4777.96 5801.89 6833.5 7296.47 2613.78 5417.07 4780.16 3834.01 5738.37 4433.23 4739.41 5312.2 5847.27 4706.59 5734.84 3982.31 4950.07 4582.24 3916.15 4474.96 4084.87 4758.76 4790.63 5259.29 3584.05 4916.75 4818.53 5097.85 5584.64 4123.08 6224.64 4221.03 3799.55 5638.51 6793.49 3563.33 6060.19 3550.88 5536.0 6786.37 4333.23 3860.8 5145.13 4328.76 5561.63 5940.5 4358.06 5093.51 5647.93 4865.11 5449.09 5502.14 4605.61 4465.56 4495.33 4131.08 5282.67 5386.95 5747.9 3864.19 4287.93 6203.24 6818.23 4488.41 4369.87 5652.19 5806.74 5512.57 4806.99 3771.91 4813.55 5217.62 5856.43 3839.0 3465.03 5349.85 4616.81 5715.25 4362.94 4611.21 4469.82 6545.78 3354.94 4404.87 5237.27 5105.72 5767.65 7885.41 5782.25 4046.22 4104.97 4575.72 4948.21 4987.01 4706.31 2181.29 4202.12 6332.64 2694.25 4203.68 4739.56 3352.46 4701.03 3996.93 6225.05 5434.04 5200.1 3997.52 7679.2 5779.9 4909.74 2626.41 5310.33 6729.99 5036.84 3922.98 4565.36 5161.73 5259.48 4025.08 4008.67 5254.93 4803.4 6608.94 3796.73 4644.68 3082.16 5656.84 6789.66 5416.41 4694.27 6760.64 2515.5 5177.88 5551.79 3793.83 6981.47 5367.05 4449.73 5647.11 4088.72 3945.62 3743.85 6236.46 5342.17 6379.3 6189.04 3795.63 5189.4 4576.71 5082.66 4894.15 4550.77 6157.59 4337.93 5201.3 4345.51 4048.73 6223.33 5438.6 3747.96 5611.29 4521.88 6568.45 5004.22 4280.92 6201.49 4696.92 5154.74 6437.99 6898.8 6632.04 6540.57 5332.11 5315.71 6158.93 5081.65 4072.4 4823.14 5373.78 6679.12 4621.32 5699.4 6578.62 6284.12 4796.04 5229.56 5669.15 6011.4 5799.86 4672.34 5172.1 5056.32 6052.22 5376.41 4870.14 5003.63 2932.2 4695.7 4082.01 4944.08 5269.39 5003.49 4750.76 4907.03 5497.27 5617.91 4444.95 4721.2 3943.77 5161.02 6265.48 3124.49 5003.81 6262.18 3818.37 5663.36 4276.59 5579.04 5125.53 5994.21 4444.54 4884.93 5403.81 5082.25 6964.78 4374.05 5299.03 5504.65 5669.41 5813.68 5040.9 3618.53 4770.21 8013.28 3846.55 5283.65 5943.61 2892.36 5981.54 5911.29 5020.37 4542.25 4414.23 5233.88 4849.21 4785.55 5245.4 6189.81 5015.67 6538.04 5848.41 4090.28 4246.83 7370.52 4726.5 5467.05 3724.23 5103.3 4601.54 7263.57 3832.09 5705.96 5267.65 5739.69 3509.34 5360.88 7360.62 4893.72 6004.72 4983.56 5699.51 5345.65 2489.44 5438.5 4489.18 5863.36 4632.75 3878.8 4698.94 5237.76 4286.84 3948.21 6058.13 5296.05 5263.86 5894.69 6988.4 3330.85 6635.51 5533.52 4060.17 5410.33 4747.24 4380.86 5302.53 5576.16 4305.35 3964.03 5210.22 3308.75 4216.33 4439.17 5832.72 2451.27 4929.35 3903.9 5606.22 5051.39 6673.92 5242.38 5151.68 6081.35 5459.52 5566.5 4609.98 4752.31 4738.72 5240.97 5569.85 5405.6 3929.35 4223.53 4759.38 4535.94 6960.97 4287.15 5282.51 5604.0 3760.4 4951.02 5732.11 3919.47 4602.7 5596.68 4868.66 3783.35 4037.16 4004.39 5159.9 4987.48 4248.58 5479.17 4963.88 5888.94 4727.98 4122.2 5175.88 4516.26 4790.16 3647.26 3731.58 3166.37 4977.64 4985.45 5205.53 4714.52 5499.37 5543.05 4883.13 4836.76 4752.94 4994.98 5551.09 6423.96 4501.1 5581.47 4384.91 6550.61 4987.01 4713.56 6051.35 4909.13 4287.61 5648.02 3999.81 4867.13 4604.34 4863.27 5677.42 2701.42 5442.79 4633.59 5733.59 4884.94 5575.8 5362.15 5268.93 4455.61 3695.72 6874.6 5106.9 5306.31 5523.96 4733.37 3037.72 5126.08 4523.9 6395.63 5369.42 5207.08 4587.19 6028.89 5333.16 3950.53 4888.17 5755.98 5392.85 5077.2 4274.05 4277.54 5529.09 6094.34 6779.82 5543.67 4739.5 6210.48 6377.45 4182.05 4502.12 3255.93 6853.07 6327.61 5275.27 4531.46 5925.82 5448.68 4072.95 4491.62 3865.5 
SCALARS Velocity float 1
LOOKUP_TABLE default
1.24498 1.38743 1.45635 1.38252 1.48491 1.20164 1.50586 1.5563 1.51119 1.50989 1.46363 1.54736 1.52192 1.49391 1.4984 1.5003 1.55048 1.22174 1.37986 1.4978 1.4934 1.51621 1.52392 1.497 1.5056 1.59806 1.54429 1.49644 1.54513 1.50004 1.53128 1.5263 1.52032 1.50611 1.50975 1.50473 1.4999 1.50306 1.51903 1.54488 1.53618 1.59635 1.16913 1.54899 1.51048 1.52194 1.51705 1.5042 1.49734 1.47403 1.50353 1.56359 1.51113 1.54002 1.50502 1.50564 1.48926 1.50753 1.5101 1.50663 1.49946 1.52898 1.55392 1.5488 1.58793 1.73628 1.46232 1.53362 1.52927 1.54986 1.52904 1.51626 1.50557 1.49108 1.49767 1.48 1.49566 1.50269 1.51687 1.56176 1.49512 1.50841 1.51093 1.52056 1.50515 1.53462 1.52328 1.55186 1.58018 1.59683 1.57596 1.44318 1.53804 1.52249 1.51707 1.52063 1.51989 1.51111 1.5009 1.50835 1.5174 1.51359 1.47522 1.49952 1.48773 1.54521 1.49493 1.50537 1.50382 1.532 1.54033 1.54938 1.53651 1.63937 1.46502 1.60439 1.52803 1.52426 1.51614 1.51065 1.51225 1.5133 1.50785 1.51148 1.50046 1.51307 1.50759 1.49706 1.5349 1.50237 1.50672 1.47233 1.49412 1.51526 1.54034 1.54379 1.51937 1.54916 1.52909 1.48743 1.57885 1.51542 1.49726 1.5113 1.50973 1.50503 1.50679 1.50674 1.5045 1.5089 1.503 1.49725 1.51706 1.51999 1.50853 1.48195 1.49694 1.47685 1.48092 1.50147 1.50625 1.5285 1.53316 1.556 1.57039 1.54296 1.50641 1.49675 1.49025 1.50468 1.5078 1.5053 1.5003 1.50112 1.50524 1.4976 1.49972 1.50425 1.49886 1.5407 1.52177 1.51492 1.49128 1.48516 1.48072 1.47153 1.47838 1.49643 1.48337 1.50418 1.51136 1.57613 1.55104 1.55266 1.49703 1.49919 1.50285 1.4967 1.47868 1.49323 1.49366 1.48697 1.49149 1.50349 1.56206 1.60632 1.53781 1.4966 1.48597 1.48168 1.47652 1.45817 1.49272 1.46044 1.48689 1.46026 1.57678 1.52405 1.61971 1.48848 1.53384 1.48185 1.49316 1.48547 1.47818 1.48541 1.48718 1.49359 1.49144 1.49232 1.48478 1.48946 1.48067 1.48664 1.58297 1.65393 1.51378 1.48571 1.48511 1.47813 1.46953 1.45394 1.46806 1.46219 1.43578 1.47364 1.59266 1.68786 1.5411 1.4906 1.47022 1.48032 1.4716 1.50201 1.49807 1.49634 1.49944 1.48905 1.51631 1.50049 1.38791 1.52 1.50076 1.49684 1.50662 1.48597 1.47664 1.49541 1.48742 1.47992 1.44722 1.48906 1.41408 1.57628 1.64423 1.56602 1.56684 1.4833 1.45671 1.46408 1.45624 1.50789 1.49836 1.50438 1.49625 1.49604 1.46241 1.43119 1.42534 1.50014 1.50793 1.50285 1.50101 1.5057 1.50434 1.49457 1.50135 1.49501 1.45703 1.45783 1.42831 1.30722 1.46518 1.54069 1.50006 1.46886 1.47735 1.41792 1.50753 1.48848 1.49656 1.51248 1.50239 1.47665 1.43417 1.45516 1.44829 1.48506 1.507 1.50542 1.50647 1.50667 1.50429 1.50377 1.50809 1.49725 1.47282 1.43334 1.33981 1.37494 1.36939 1.46081 1.52053 1.50831 1.48749 1.39944 1.40974 1.40142 1.53035 1.52396 1.48746 1.46347 1.45036 1.46929 1.48198 1.49672 1.48873 1.50466 1.49851 1.50399 1.50689 1.50926 1.50341 1.47385 1.4942 1.44576 1.4221 1.38481 1.39979 1.35973 1.39976 1.45 1.47203 1.51911 1.4948 1.48757 1.41806 1.45559 1.2809 1.55874 1.47759 1.4674 1.47205 1.45422 1.45597 1.45642 1.46605 1.46352 1.47538 1.48761 1.501 1.4973 1.49761 1.5008 1.49461 1.49837 1.4888 1.50358 1.51301 1.46225 1.48317 1.42767 1.43235 1.426 1.3991 1.42277 1.46544 1.48712 1.47441 1.47226 1.47855 1.19178 1.43314 1.41566 1.32873 1.32752 1.43121 1.55278 1.51081 1.45104 1.45997 1.46282 1.46441 1.4693 1.47918 1.47345 1.48614 1.49364 1.49627 1.49614 1.48981 1.47194 1.48795 1.50125 1.53535 1.48591 1.44241 1.4378 1.43295 1.44984 1.42046 1.44324 1.42983 1.43545 1.42566 1.46347 1.45032 1.46168 1.45385 1.46353 1.45339 1.41761 1.38044 1.43197 1.40048 1.48975 1.45389 1.46947 1.46033 1.45961 1.46033 1.46701 1.4844 1.47639 1.48347 1.49301 1.49176 1.49611 1.49508 1.50022 1.49843 1.50225 1.49428 1.44126 1.36493 1.43488 1.45875 1.46286 1.45966 1.41875 1.44049 1.41916 1.44832 1.43183 1.43623 1.44402 1.44812 1.41554 1.40647 1.42099 1.43884 1.4249 1.45666 1.45915 1.45842 1.46079 1.47254 1.48763 1.49133 1.49635 1.49187 1.50007 1.49484 1.49833 1.46195 1.43514 1.40038 1.42802 1.44638 1.46789 1.46774 1.45959 1.45005 1.41803 1.42881 1.41291 1.40461 1.41997 1.4426 1.43016 1.43642 1.44547 1.4426 1.4125 1.40872 1.41112 1.41663 1.43742 1.44612 1.43998 1.45066 1.44633 1.45461 1.46234 1.45148 1.47278 1.46262 1.46236 1.48421 1.48452 1.48614 1.49561 1.47711 1.45588 1.43934 1.45293 1.44226 1.43319 1.46838 1.46861 1.46187 1.46991 1.45248 1.40639 1.41943 1.40055 1.41991 1.39701 1.41433 1.42359 1.4274 1.43464 1.43986 1.43887 1.19178 1.40784 1.41193 1.40744 1.42925 1.43457 1.44107 1.43993 1.44785 1.44672 1.45008 1.47108 1.43861 1.47495 1.45808 1.47825 1.44548 1.44354 1.4398 1.4326 1.46457 1.46398 1.45786 1.40402 1.39029 1.41039 1.44389 1.42989 1.43611 1.19178 1.40755 1.42415 1.43084 1.43292 1.42955 1.4338 1.42827 1.44388 1.43495 1.46075 1.45638 1.43903 1.42518 1.42682 1.42954 1.40849 1.42108 1.46285 1.42273 1.39608 1.48265 1.42809 1.41945 1.46449 1.45083 1.45305 1.41058 1.41642 1.39948 1.40361 1.4586 1.42891 1.435 1.43055 1.43526 1.40424 1.4051 1.42501 1.43196 1.40948 1.43287 1.42943 1.43776 1.45953 1.45025 1.44467 1.39938 1.40645 1.38336 1.44092 1.47426 1.4524 1.40165 1.41003 1.36352 1.46783 1.35911 1.40651 1.39848 1.4636 1.43899 1.41785 1.41895 1.43211 1.40798 1.40522 1.41033 1.38513 1.39271 1.46237 1.42144 1.43455 1.44036 1.19178 1.40694 1.41288 1.41611 1.43788 1.43296 1.4401 1.42758 1.43047 1.42997 1.43593 1.44526 1.46386 1.39202 1.37949 1.39168 1.4129 1.42248 1.45646 1.4276 1.44705 1.3143 1.43484 1.39507 1.39862 1.47122 1.36296 1.29815 1.29184 1.41765 1.43197 1.4037 1.40914 1.41063 1.40479 1.38552 1.43793 1.43542 1.44206 1.39737 1.4422 1.40701 1.42963 1.4326 1.42133 1.42596 1.42158 1.40206 1.43634 1.43394 1.45926 1.45132 1.42897 1.50515 1.39476 1.4704 1.32495 1.36506 1.42152 1.46251 1.36859 1.35558 1.38585 1.38281 1.41209 1.41381 1.45045 1.42879 1.43422 1.41895 1.42113 1.4147 1.35473 1.36519 1.40061 1.42251 1.39179 1.40371 1.40668 1.42587 1.42998 1.39792 1.42649 1.35531 1.34054 1.4642 1.48342 1.38777 1.36077 1.41368 1.33633 1.3831 1.42486 1.42112 1.49487 1.5165 1.33886 1.2436 1.41743 1.42602 1.36964 1.3648 1.36963 1.36145 1.36558 1.44088 1.39586 1.37659 1.36882 1.42317 1.41752 1.41594 1.3895 1.41447 1.38527 1.38691 1.40691 1.40227 1.43247 1.40859 1.39414 1.35721 1.41512 1.40545 1.39935 1.42253 1.40703 1.31932 1.50428 1.55041 1.19178 1.19178 1.26027 1.27514 0.815804 1.41729 1.44725 1.48961 1.58966 1.35617 1.42501 1.33672 1.35607 1.45886 1.33537 1.35668 1.35816 1.36058 1.30423 1.3697 1.3206 1.38305 1.37518 1.39955 1.39276 1.39958 1.41724 1.42134 1.34235 1.41723 1.46345 1.22612 1.43331 1.3923 1.36481 1.50904 1.34542 1.40119 1.37288 1.36082 1.51765 1.61323 0.297728 5.35379 1.19178 1.25622 2.50072 1.60568 0.656087 1.07218 1.19937 1.46388 1.48856 1.61016 1.49379 1.13904 1.25543 1.48719 1.32622 1.38113 1.33647 1.34518 1.3102 1.34102 1.28725 1.31586 1.25865 1.2304 1.27698 1.30746 1.3674 1.38929 1.37041 1.42092 1.30796 1.44887 1.32517 1.43953 1.73397 1.31583 1.28682 1.6497 1.3374 1.32635 1.55334 1.37862 1.42758 1.3117 1.46159 1.2309 1.28624 1.61686 0.899657 1.01404 1.01697 0.954937 0.94962 0.486298 1.15626 0.683457 3.12399 1.08024 1.34803 4.56777 1.91714 1.77267 1.57603 1.46597 1.55753 1.89713 1.69343 1.50282 1.0629 1.27445 1.18204 1.24562 1.2111 1.23938 1.38597 1.27128 1.34484 1.28591 1.33151 1.21805 1.34038 1.27571 1.28428 1.31259 1.21328 1.32465 1.31 1.3614 1.34564 1.49079 1.46702 1.42775 0.869418 1.11584 1.43725 1.38859 1.44113 1.65836 1.3147 1.50162 1.71991 1.4935 1.32464 1.67428 1.38923 1.25167 1.01124 1.08427 0.923535 1.01697 1.00331 1.00935 0.935921 0.953639 0.887073 0.915722 0.961316 1.1188 0.981314 1.03978 1.18493 1.19214 1.12742 1.03573 1.37859 1.12086 1.29587 1.54837 1.43407 1.77363 1.4866 1.64772 1.54802 1.27315 0.627167 1.06991 0.986636 1.3539 1.1718 1.1103 1.1465 1.2397 1.20288 1.24755 1.21405 1.24985 1.27766 1.2713 1.26675 1.26401 1.23051 1.33739 1.22239 1.21396 1.19972 1.34523 1.19875 1.26321 1.35232 1.52979 1.33054 1.4508 1.15938 1.26233 1.26032 1.16801 1.22939 1.38667 1.34227 1.16856 1.22376 1.15968 1.2902 1.64289 1.37383 1.12268 1.48708 1.23206 1.18569 1.38574 1.19385 0.870583 1.17408 1.02733 0.933664 0.904678 0.943007 0.896244 0.923153 0.862754 0.905751 0.889087 0.930396 0.934866 0.909613 0.90396 0.924467 0.929548 0.909167 0.903249 0.921047 0.937247 0.892293 0.966381 1.15683 1.08983 1.36553 0.927153 1.04775 1.2969 0.807639 1.13249 1.1777 1.19082 1.41391 1.37019 1.1106 1.22293 1.19791 1.28521 1.23876 1.25323 1.27817 1.17399 1.28861 1.13754 1.18673 1.23464 1.23415 1.25601 1.37422 0.915194 1.01226 1.19283 1.04344 1.20273 1.22621 1.23392 1.19765 1.26239 1.15799 1.16227 1.17584 1.08989 1.12422 1.16048 1.09946 1.05149 1.16072 1.36091 1.19977 1.14434 1.08662 1.26531 1.25746 1.10677 0.969389 1.01946 1.10563 0.941164 0.840503 0.898913 0.937592 0.882409 0.872633 0.862307 0.857029 0.858426 0.853872 0.852475 0.889244 0.901454 0.873599 0.90379 0.891125 0.900205 0.902523 0.898359 0.898106 0.899912 1.00128 0.948436 1.04682 1.01273 1.00538 0.973397 0.948731 0.94011 1.14033 1.03136 1.078 1.14067 1.12716 1.17657 1.33946 1.15622 1.13172 1.16058 1.14306 1.15449 1.21082 1.17302 1.213 1.21478 1.10683 1.19444 1.23129 1.25955 1.16109 1.15126 1.07307 1.18326 1.21387 1.12074 1.13478 1.11411 1.14964 1.08556 1.05662 1.09716 1.13459 1.19918 1.19714 1.20235 1.08125 1.08099 1.13092 1.10893 1.06984 1.03984 1.07805 1.04142 0.860094 0.844515 1.19335 0.985318 1.18904 0.878554 0.881211 1.04621 0.984914 0.882814 0.847456 0.83553 0.892803 0.847575 0.840158 0.833364 0.82919 0.834403 0.830523 0.8334 0.810817 0.811843 0.8392 0.822886 0.865643 0.925314 0.877685 0.92848 0.953318 0.893011 0.907732 0.920482 0.850563 0.884838 0.934786 0.892341 0.886148 0.888617 0.923354 0.894848 0.949322 0.982121 0.976069 0.981647 0.964498 0.917368 0.95525 0.857371 0.817366 0.977358 1.12674 1.03042 1.03363 1.01789 1.07201 1.0949 1.0908 1.13891 1.14893 1.15028 1.17606 1.1259 1.15141 1.06316 1.19031 1.21789 1.10803 0.833915 1.01275 1.11377 1.11409 1.11262 1.06962 1.16603 1.04546 1.23495 1.1457 0.773754 1.20025 1.41447 1.11202 1.02661 1.04892 1.07489 0.996439 1.09737 1.08599 1.0575 1.00083 0.995895 0.958093 0.838807 0.832452 0.905773 0.890051 0.812565 0.942842 0.931206 0.956969 0.947107 0.812281 0.83041 0.831749 0.839856 0.826293 0.828485 0.819731 0.82964 0.823084 0.793059 0.853954 0.836585 0.808135 0.821938 0.815851 0.849399 0.83449 0.868096 0.914312 0.86978 0.868187 0.875896 0.844349 0.724776 0.811943 0.87269 0.868595 0.861471 0.863916 0.85751 0.9203 0.960756 0.97226 0.926283 0.918859 0.900796 0.895111 0.91658 0.872975 0.950741 0.988314 0.99775 1.04738 1.02307 1.04611 1.04367 1.01689 1.0953 1.1172 1.1658 1.12524 1.1253 1.09246 1.10265 1.16663 1.14329 0.972641 0.775152 1.03527 0.955991 0.94171 0.958244 0.993044 0.997505 1.11865 1.06343 0.993829 1.07174 1.0322 1.12597 1.10859 1.0763 1.14999 1.01795 0.917625 1.02361 1.03662 1.01639 0.94699 0.987002 1.11161 1.02155 1.07992 0.996715 1.04477 1.06969 1.01044 0.861914 0.962638 1.01413 0.861821 0.91018 0.977802 0.877531 0.899599 0.916567 0.850856 0.814505 0.828215 0.885653 0.821191 0.81693 0.831741 0.794422 0.776796 0.774107 0.784274 0.805732 0.798459 0.749458 0.822873 0.951511 0.75412 0.698521 0.853703 0.722227 0.827728 0.882956 0.910953 0.872636 0.899659 0.817575 0.848027 0.833807 0.82188 0.84202 0.856913 0.882057 0.889898 0.914905 0.932494 0.952665 0.949678 0.92825 0.927732 0.898164 0.90735 0.901018 0.921061 0.952499 1.00745 1.00559 1.06395 0.972608 1.01919 1.06291 1.07297 1.16981 1.09163 0.98684 1.10472 1.01627 0.992883 0.939822 0.98904 0.928984 0.886238 0.978429 0.941896 0.99228 0.962425 0.963703 0.965093 1.07556 1.04474 0.952828 0.912654 1.39658 1.26135 0.9198 0.963452 0.992102 1.01668 1.0274 0.952994 0.920541 1.18739 1.09983 1.02354 0.977134 0.991364 0.958559 0.95173 0.895104 0.920869 0.897098 0.778057 0.856032 0.911053 0.830192 0.817103 0.777087 0.787949 0.838123 0.783013 0.864865 0.787223 0.817972 0.798602 0.82015 0.820614 0.852882 0.810908 0.799172 0.860219 0.814602 0.765188 0.845385 0.747255 0.766367 0.673703 0.760016 0.679697 0.824098 0.779721 0.576952 0.344655 0.587195 0.747576 0.580765 0.666702 0.639668 0.592796 0.673253 0.738901 0.829419 0.844665 0.795754 0.772336 0.772461 0.787841 0.796545 0.851976 0.85635 0.841041 0.84725 0.871521 0.872324 0.88277 0.931239 0.922278 0.901112 0.931655 0.908595 0.914579 0.943104 0.911878 0.998027 0.940907 0.960056 0.83029 0.981957 0.916166 0.981587 1.02668 1.06191 1.07309 0.989501 0.862543 0.952061 0.93706 0.954628 0.937526 0.880477 0.941658 0.936585 0.880257 0.890624 0.937912 0.972235 0.954081 1.04545 0.991481 0.995412 0.931428 0.888487 0.950225 0.902922 0.781366 0.910665 0.970212 1.16886 1.03533 1.07558 0.779678 0.768075 0.943848 0.828329 0.910394 0.939959 0.888337 0.921895 0.886742 0.904472 0.887913 0.84884 0.772098 0.81592 0.753933 0.767121 0.763541 0.789287 0.775873 0.862165 0.814682 0.839414 0.852332 0.818289 0.79606 0.798628 0.805804 0.796909 0.814904 0.788131 0.857499 0.848138 0.822111 0.741461 0.878811 0.813027 0.765912 0.757639 0.685451 0.684828 0.683117 0.664458 0.646446 0.650949 0.610615 0.640204 0.684355 0.734785 0.688295 0.648397 0.705854 0.720424 0.741145 0.821649 0.787736 0.782814 0.800124 0.803082 0.802083 0.805826 0.82088 0.827898 0.832635 0.825929 0.788063 0.903108 0.87277 0.866056 0.833619 0.89225 0.927868 0.859057 0.893551 0.873222 0.900221 0.820147 0.840579 0.809591 0.862351 0.84094 0.855989 0.877805 0.906458 0.98356 1.07349 1.15659 0.945823 1.00636 0.908737 0.943868 0.889309 1.05276 0.848868 0.92175 0.782944 0.94782 0.930443 0.850151 0.798811 0.767219 0.921836 0.938487 0.923695 0.881629 0.957748 0.862348 0.922917 1.01406 0.870362 1.04187 0.958551 0.933244 1.03181 0.948251 0.967801 0.855495 0.822558 0.868843 0.899255 0.934938 0.92106 0.951048 0.869722 0.854455 0.817793 0.803532 0.79307 0.799523 0.77815 0.806154 0.810091 0.815393 0.83949 0.802635 0.789395 0.804954 0.804578 0.79097 0.78686 0.787126 0.789528 0.789517 0.739889 0.805802 0.837452 0.795594 0.772876 0.791299 0.805766 0.75962 0.756946 0.761504 0.764945 0.675019 0.683685 0.664783 0.674984 0.68318 0.678703 0.67074 0.678614 0.666667 0.66256 0.680869 0.702217 0.700788 0.70905 0.713897 0.717907 0.718219 0.727234 0.733717 0.775986 0.768514 0.788015 0.810714 0.833605 0.797409 0.895811 0.843477 0.839667 0.869751 0.778176 0.787909 0.755226 0.762549 0.809492 0.753894 0.786558 0.791249 0.850235 0.802535 0.806236 0.774974 0.820301 0.82908 0.840423 0.863005 0.823294 0.896743 0.963692 0.946704 0.985365 1.03335 0.709178 0.948763 0.886742 0.740345 0.799301 0.826991 0.899508 0.960427 0.73828 0.710248 0.767345 0.94798 0.989899 0.881683 0.764303 0.848066 1.02345 0.943913 1.02543 0.940148 0.852319 0.916077 0.832636 0.863599 0.816777 0.942223 0.892426 1.01608 0.903303 0.98503 0.979112 1.03379 0.99298 0.934349 0.83795 0.83991 0.853179 0.848599 0.906256 0.946155 0.966844 1.03672 0.989262 1.04262 1.0308 0.939782 0.604963 0.915396 0.852066 0.851258 0.804868 0.756617 0.778884 0.843797 0.764237 0.773524 0.778188 0.781131 0.756155 0.773753 0.769759 0.792457 0.807881 0.906846 0.708282 0.76337 0.725762 0.74685 0.724972 0.750038 0.747553 0.77635 0.779275 0.764158 0.735178 0.720907 0.760587 0.78439 0.785898 0.78245 0.788767 0.806267 0.818874 0.653634 0.637595 0.629373 0.668536 0.657835 0.692037 0.668107 0.674367 0.687191 0.688919 0.700277 0.698151 0.696936 0.718544 0.704991 0.745701 0.745958 0.737475 0.850079 0.746381 0.824561 0.846323 0.964803 1.01872 0.905123 0.878831 0.898051 0.73273 0.77801 0.679157 0.634132 0.732373 0.680257 0.839922 0.841571 0.838228 0.821628 0.813291 0.830628 0.826376 0.830066 0.833023 0.82922 0.856854 0.812289 1.06295 0.881596 0.584436 0.648887 0.766358 0.933236 0.927472 0.814516 0.838239 0.764024 0.748011 0.914154 0.718826 0.886868 0.82913 0.951509 0.801895 0.794954 0.814349 0.850396 0.92242 0.808455 0.868672 0.867804 0.903934 0.826207 0.809133 1.00589 0.896896 0.835588 0.864146 0.9521 0.957847 0.931037 0.903956 0.840185 0.751515 0.754805 0.830827 0.815316 0.830823 0.852523 1.09596 1.03569 0.667541 0.708355 0.721864 0.811998 0.78315 0.773083 0.752821 0.773361 0.780167 0.806273 0.782615 0.976987 0.852745 0.836765 0.763995 0.815508 0.732852 0.744753 0.739483 0.750113 0.774162 0.758019 0.69887 0.790544 0.823054 0.879511 0.79583 0.855562 0.524971 0.81565 0.900004 0.653406 0.654996 0.654222 0.65483 0.662209 0.671791 0.67542 0.666961 0.678668 0.673979 0.679575 0.679851 0.687373 0.710756 0.706103 0.70903 0.715542 0.68939 0.736505 0.791856 0.703842 0.617771 0.819829 0.70908 0.792345 0.757168 0.714187 0.814315 0.68507 0.772977 0.768985 0.810839 0.824605 0.854654 0.871871 0.788409 0.814503 0.799034 0.828129 0.828569 0.810426 0.808653 0.83 0.833126 0.86023 1.02219 1.2259 0.821392 0.873432 0.904756 0.945193 0.704746 0.821646 0.747526 0.726674 0.740226 0.676771 0.813824 0.792721 0.846927 0.923795 0.843825 0.826745 0.802224 0.799701 0.764386 0.848263 0.847036 0.853446 0.826879 0.804743 0.861622 0.873987 0.855148 0.830212 0.949749 0.837631 0.817317 0.813733 0.807594 0.760858 0.77202 0.841528 0.887474 0.959938 0.980328 0.92972 0.771667 0.912372 0.791357 0.769513 0.824488 0.821805 0.777877 0.753423 0.671294 0.747355 0.731345 0.564472 0.577358 0.744221 0.6971 0.895803 0.745214 0.828414 0.638822 0.816377 0.68737 0.718583 0.733232 0.690078 0.791532 0.564431 0.54838 0.678873 0.733977 0.709044 0.668029 0.615694 0.633461 0.715504 0.692979 0.536799 0.941198 0.55292 0.871043 0.575387 0.573944 0.656259 0.657688 0.652009 0.657223 0.657928 0.6554 0.664917 0.65349 0.667989 0.665893 0.675488 0.681782 0.679895 0.677222 0.667649 0.671016 0.662347 0.667679 0.658147 0.677038 0.681538 0.692102 0.683819 0.680804 0.69609 0.932767 0.879134 0.797368 0.664548 0.747277 0.756709 0.79498 0.791537 0.761022 0.774836 0.747878 0.721407 0.73127 0.701243 0.697412 0.796026 0.829794 0.806459 0.844295 0.812153 0.794241 0.814446 0.83875 0.823834 0.801078 0.826454 0.806132 0.836207 0.859555 0.830006 1.01986 0.930073 0.825638 0.593126 0.707313 0.651505 0.713749 0.799331 0.749909 0.793229 0.739323 0.735006 0.715909 0.739475 0.819431 0.837055 0.851619 0.805745 0.815139 0.802591 0.783685 0.787419 0.850588 0.691642 0.796705 0.875379 0.83978 0.806418 0.817981 0.848462 0.827039 0.792914 0.769585 0.7878 0.707554 0.715527 0.756133 0.745511 0.722808 0.835049 0.886985 0.978009 0.84048 0.81763 0.852908 0.800683 0.736541 0.613398 0.634701 0.690948 0.628436 0.700055 0.771583 0.789216 0.770009 0.672147 0.743071 0.700076 0.71409 0.616591 0.720744 0.636971 0.678301 0.68142 0.747686 0.752693 0.619134 0.628326 0.639317 0.629817 0.68161 0.657883 0.617178 0.799254 0.642242 0.550933 0.592359 0.612805 0.597821 0.607326 0.608388 0.610096 0.660388 0.660616 0.660214 0.646832 0.66307 0.674886 0.690709 0.660411 0.66898 0.664981 0.686158 0.684394 0.684711 0.702979 0.693902 0.670528 0.655417 0.662736 0.665019 0.668273 0.692469 0.74351 0.890238 0.747496 0.709949 0.764999 0.644747 0.717992 0.777571 0.767117 0.734506 0.745951 0.716061 0.798188 0.735511 0.781622 0.737867 0.814196 0.795717 0.749612 0.722184 0.786828 0.823778 0.821892 0.825751 0.860392 0.837934 0.793625 0.819997 0.855308 0.649694 0.706498 0.637711 0.678359 0.576362 0.6283 0.697516 0.719032 0.737302 0.764798 0.773986 0.76945 0.68675 0.84349 0.917353 0.852092 0.798509 0.802514 0.785327 0.752012 0.731638 0.763071 0.84135 0.824613 0.816648 0.796448 0.806161 0.818926 0.79677 0.838627 0.762889 0.753824 0.751971 0.69107 0.732372 0.726928 0.703268 0.726354 0.897111 0.661032 0.637446 0.632899 0.856344 0.737928 0.744219 0.952503 0.642657 0.880783 0.636545 0.686836 0.644642 0.677693 0.715275 0.678286 0.783066 0.738264 0.77814 0.781231 0.741358 0.772793 0.669845 0.801899 0.710383 0.652503 0.708928 0.696027 0.77823 0.696505 0.677968 0.665706 0.6707 0.605252 0.659879 0.702888 0.677212 0.733789 0.678937 0.627129 0.695437 0.665588 0.670832 0.645245 0.651969 0.626757 0.666335 0.622328 0.616856 0.619728 0.625346 0.618816 0.534188 0.694376 0.731967 0.642055 0.635716 0.613739 0.639528 0.679557 0.756805 0.673127 0.672043 0.661419 0.703304 0.672047 0.62843 0.683237 0.697887 0.591713 0.679519 0.628026 0.683452 0.664406 0.699531 0.712638 0.701115 0.744099 0.765589 0.821503 0.789672 0.672568 0.736484 0.627766 0.735324 0.752681 0.738122 0.735133 0.725444 0.683009 0.70204 0.652634 0.723367 0.764586 0.868634 0.920004 0.918507 0.763218 0.800143 0.801474 0.895294 0.674894 0.884421 0.776173 0.790505 0.696152 0.727379 0.658202 0.65958 0.688744 0.686582 0.675556 0.630257 0.682077 0.675737 0.733317 0.761112 0.779525 0.824924 0.772253 0.735478 1.09498 0.570448 0.903269 0.778318 0.811439 0.810527 0.807662 0.796917 0.784258 0.759327 0.75595 0.739987 0.803799 0.832867 0.812137 0.814805 0.806017 0.83288 0.770397 0.709744 0.707407 0.697478 0.735897 0.72949 0.571457 0.657076 0.626528 0.656019 0.812014 0.915876 0.772036 0.737896 0.71451 0.780487 0.784933 0.598491 0.763995 0.59691 0.683921 0.693519 0.768816 0.693714 0.819389 0.76232 0.699045 0.79768 0.761632 0.725308 0.740814 0.744311 0.67523 0.720701 0.754977 0.734438 0.681395 0.703914 0.65179 0.724051 0.682947 0.719208 0.704279 0.667202 0.660062 0.651817 0.648755 0.652931 0.660618 0.657768 0.659822 0.65634 0.617661 0.619985 0.646128 0.618571 0.628912 0.526321 0.520074 0.580383 0.680474 0.599008 0.605247 0.83897 0.572948 0.625615 0.598672 0.588234 0.652884 0.629702 0.649728 0.667964 0.665837 0.65428 0.62073 0.595312 0.698367 0.710942 0.709375 0.562873 0.746976 0.764275 0.849421 0.816927 0.683879 0.699664 0.729457 0.791594 0.685744 0.7039 0.704668 0.731729 0.745517 0.741754 0.720504 0.733348 0.799752 0.775993 0.723328 0.780276 0.818889 0.794974 0.860382 0.802004 0.689431 0.684673 0.589928 0.579254 0.636101 0.724441 0.685648 0.711768 0.695526 0.694457 0.713221 0.683665 0.691293 0.694188 0.689067 0.693243 0.71092 0.752851 0.766884 0.799296 0.779613 0.777006 0.795474 0.783737 0.717626 0.767785 0.870275 0.832368 0.812378 0.814327 0.794745 0.765724 0.747806 0.757854 0.770292 0.755056 0.76345 0.796634 0.780817 0.82568 0.819751 0.860114 0.833574 0.851729 0.793527 0.716535 0.775222 0.69103 0.693716 0.685182 0.672843 0.617654 0.784816 0.694984 0.937254 0.82802 0.825477 0.845652 0.903504 0.712144 0.700188 0.714525 0.673926 0.643213 0.716774 0.717717 0.691828 0.657918 0.715238 0.719974 0.700763 0.687381 0.666672 0.698382 0.6516 0.657318 0.661529 0.692626 0.684461 0.688842 0.697074 0.68039 0.687587 0.668013 0.652207 0.663533 0.647706 0.646108 0.655911 0.662432 0.63379 0.657866 0.668191 0.647 0.63915 0.6452 0.635662 0.659359 0.639366 0.648395 0.63805 0.527619 0.576112 0.583202 0.548307 0.550752 0.544234 0.587461 0.553413 0.610266 0.660186 0.632287 0.668058 0.785163 0.754804 0.709801 0.602468 0.646298 0.637161 0.644963 0.649671 0.679375 0.671229 0.664932 0.674484 0.711776 0.74945 0.716136 0.744803 0.652217 0.696555 0.687634 0.642956 0.795951 0.79341 0.733724 0.815547 0.592543 0.69797 0.590863 0.688959 0.68598 0.713077 0.705702 0.745178 0.688308 0.670149 0.617612 0.824114 0.72884 0.778489 0.722179 0.720452 0.803749 0.598023 0.703487 0.633269 0.615797 0.666259 0.710428 0.716431 0.714111 0.720701 0.702777 0.721872 0.703554 0.707896 0.70217 0.694719 0.711411 0.715387 0.736061 0.739947 0.759192 0.754261 0.771534 0.777661 0.789748 0.774324 0.788362 0.780108 0.789118 0.821673 0.827656 0.83251 0.804817 0.785716 0.76488 0.793962 0.765185 0.755192 0.748795 0.756123 0.761986 0.745635 0.752941 0.762324 0.765877 0.847111 0.83101 0.800102 0.769457 0.731216 0.676713 0.688918 0.738841 0.688292 0.662863 0.646794 0.598332 0.810064 0.752751 0.973986 0.851364 0.762524 0.699193 0.75287 0.738936 0.649238 0.619981 0.619735 0.637721 0.677877 0.816794 0.756394 0.723622 0.709617 0.679344 0.667046 0.674573 0.659638 0.679415 0.681706 0.676505 0.667806 0.662644 0.651303 0.644036 0.640031 0.624532 0.61789 0.601252 0.645169 0.670707 0.622999 0.631843 0.629203 0.594955 0.668808 0.582963 0.70295 0.602005 0.69281 0.564284 0.590724 0.566263 0.557006 0.57883 0.581819 0.577457 0.57506 0.56757 0.567079 0.560788 0.563897 0.585035 0.562415 0.625215 0.604905 0.668104 0.714898 0.744875 0.705101 0.717519 0.62019 0.64367 0.630383 0.620186 0.66201 0.666972 0.665386 0.681097 0.684869 0.656832 0.732151 0.703337 0.721308 0.711773 0.700731 0.67583 0.671671 0.542473 0.666388 0.541196 0.662643 0.580785 0.575317 0.696315 0.664379 0.707952 0.639782 0.70842 0.793283 0.803315 0.463789 0.750734 0.497958 0.692833 0.709196 0.6663 0.621965 0.613549 0.598274 0.612735 0.649698 0.655487 0.635142 0.658097 0.667592 0.687773 0.6982 0.720191 0.717495 0.729447 0.735656 0.722867 0.714673 0.721988 0.720009 0.729456 0.749594 0.772092 0.780902 0.791296 0.801439 0.797878 0.797628 0.808864 0.811126 0.823128 0.818317 0.818193 0.803243 0.794622 0.796278 0.792009 0.787929 0.764562 0.75619 0.739209 0.748647 0.766989 0.807531 0.846009 0.810705 0.714089 0.737449 0.681131 0.706501 0.690127 0.689759 0.720584 0.710034 0.695095 0.684537 0.670055 0.61192 0.622842 0.678713 0.631884 0.723843 0.82584 0.741967 0.766996 0.779972 0.776859 0.765103 0.745708 0.581074 0.646534 0.600176 0.708928 0.641052 0.611076 0.743969 0.582186 0.689695 0.758047 0.67745 0.672212 0.645028 0.681565 0.593534 0.642044 0.629871 0.651686 0.604818 0.642367 0.604992 0.596579 0.592696 0.593833 0.565787 0.566088 0.585644 0.601797 0.59665 0.532218 0.54554 0.575523 0.55749 0.55412 0.574727 0.594054 0.586097 0.588276 0.587279 0.577041 0.575184 0.576198 0.565633 0.565803 0.567247 0.560978 0.569843 0.562408 0.553485 0.563275 0.753839 0.724119 0.642528 0.628884 0.685351 0.550107 0.554257 0.657496 0.614351 0.596402 0.723809 0.572669 0.677923 0.670945 0.605596 0.612007 0.560065 0.669406 0.680474 0.652166 0.764057 0.736148 0.574031 0.746107 0.735816 0.685985 0.694504 0.58857 0.650621 0.655466 0.662278 0.621798 0.620203 0.633986 0.660179 0.670205 0.681262 0.686715 0.709354 0.726732 0.74217 0.747011 0.739196 0.731599 0.737231 0.730016 0.728361 0.735364 0.741777 0.734591 0.757445 0.790361 0.810611 0.80791 0.804746 0.806134 0.809254 0.813067 0.812308 0.811171 0.799523 0.782083 0.78465 0.789736 0.769162 0.764468 0.762497 0.742927 0.764449 0.795765 0.746622 0.786597 0.744103 0.714438 0.699111 0.693068 0.691672 0.670077 0.657306 0.66344 0.655143 0.616122 0.613184 0.663394 0.744903 0.757825 0.768867 0.77691 0.690936 0.673597 0.598838 0.580822 0.616058 0.566012 0.696477 0.647415 0.612958 0.60567 0.623694 0.589659 0.593681 0.580379 0.619575 0.520342 0.580298 0.654171 0.624017 0.591889 0.622802 0.597985 0.599366 0.585009 0.578741 0.589999 0.571815 0.571396 0.568815 0.571482 0.558972 0.543703 0.562478 0.566499 0.557637 0.591344 0.591117 0.615011 0.629904 0.59063 0.595479 0.591017 0.575353 0.577127 0.570619 0.584588 0.572627 0.565603 0.554837 0.546482 0.57203 0.586801 0.590234 0.779729 0.715511 0.704855 0.600635 0.556594 0.507096 0.42908 0.419976 0.43117 0.417825 0.538092 0.548369 0.458308 0.548872 0.537849 0.540221 0.628571 0.631832 0.59787 0.609492 0.588084 0.703731 0.719016 0.847553 0.749589 0.751603 0.669171 0.657574 0.620473 0.646674 0.659332 0.643264 0.65555 0.631473 0.657554 0.646312 0.651268 0.662134 0.671576 0.66935 0.680797 0.692433 0.704572 0.709976 0.726104 0.743768 0.745332 0.753488 0.752659 0.74665 0.741999 0.741614 0.736228 0.7386 0.736765 0.781599 0.739978 0.837586 0.822527 0.817293 0.814119 0.811329 0.805576 0.803224 0.802833 0.825232 0.786651 0.785244 0.77641 0.780994 0.803464 0.792468 0.809685 0.795362 0.757769 0.754721 0.760538 0.765336 0.760106 0.732154 0.71118 0.704271 0.695259 0.691307 0.70128 0.684746 0.674189 0.66282 0.651498 0.646567 0.650278 0.626431 0.651714 0.696513 0.688245 0.718698 0.708151 0.73375 0.720382 0.74854 0.688767 0.624776 0.567339 0.586971 0.638933 0.594936 0.565411 0.594371 0.551792 0.545657 0.538219 0.494316 0.483299 0.563413 0.483388 0.552288 0.480638 0.594357 0.504393 0.591509 0.56945 0.597431 0.575307 0.567511 0.569835 0.564666 0.560011 0.50333 0.474258 0.520299 0.533749 0.513006 0.5672 0.621332 0.624038 0.633185 0.619038 0.625922 0.605512 0.586438 0.612863 0.620025 0.516281 0.519711 0.520719 0.554728 0.496148 0.503499 0.538029 0.555757 0.537491 0.534218 0.525093 0.519445 0.580066 0.652373 0.653613 0.51636 0.576329 0.436607 0.418072 0.313607 0.429849 0.427317 0.517325 0.585369 0.558759 0.559141 0.560521 0.617243 0.56776 0.560731 0.572616 0.647288 0.547516 0.588185 0.842444 0.733838 0.73018 0.676944 0.657488 0.653735 0.651942 0.640081 0.655479 0.66371 0.656822 0.666304 0.672816 0.683915 0.686304 0.728726 0.705602 0.761032 0.75616 0.751204 0.746901 0.739773 0.736154 0.734658 0.749824 0.739984 0.86781 0.822619 0.81503 0.816912 0.824724 0.816018 0.808761 0.804602 0.801433 0.777592 0.772387 0.763009 0.77664 0.762041 0.771199 0.830034 0.834796 0.873491 0.875419 0.772703 0.765887 0.771105 0.741453 0.725483 0.713333 0.707211 0.700016 0.694382 0.689713 0.652914 0.641684 0.643551 0.642328 0.661472 0.690281 0.705818 0.717657 0.664837 0.619489 0.575151 0.590481 0.593919 0.611982 0.588302 0.577946 0.603365 0.585424 0.557421 0.538485 0.535647 0.54529 0.507102 0.522605 0.479038 0.48136 0.484784 0.499738 0.482458 0.48662 0.497621 0.491047 0.658205 0.59372 0.450164 0.569857 0.533462 0.528493 0.567357 0.468113 0.600204 0.456039 0.433724 0.474327 0.542766 0.572793 0.483811 0.619912 0.59755 0.627392 0.593887 0.549679 0.457197 0.595971 0.606592 0.620063 0.476625 0.518697 0.511209 0.460774 0.481168 0.500153 0.502971 0.48379 0.49334 0.514126 0.502952 0.48896 0.485077 0.500424 0.456596 0.438968 0.634792 0.639747 1.00591 0.747073 0.524675 0.483766 0.404981 0.331676 0.359236 0.216662 0.187739 0.343714 0.51351 0.526301 0.544359 0.55436 0.552339 0.549912 0.37667 0.948635 0.948496 0.738624 0.58001 0.613678 0.688591 0.624975 0.659936 0.647101 0.653879 0.664953 0.662802 0.675844 0.664181 0.674464 0.6716 0.667743 0.672384 0.689372 0.683738 0.682202 0.73461 0.727877 0.778408 0.755049 0.754862 0.740839 0.741295 0.742997 0.738949 0.738102 0.730242 0.729681 0.714718 0.743087 0.768418 0.841256 0.831981 0.829137 0.821344 0.826907 0.807806 0.803498 0.78595 0.749874 0.760804 0.762069 0.743063 0.746709 0.741045 0.761927 0.887141 0.926161 0.77295 0.777417 0.771675 0.747685 0.737446 0.717172 0.706063 0.700669 0.70476 0.693474 0.687345 0.628081 0.640989 0.641869 0.640521 0.649832 0.661704 0.69094 0.674965 0.681434 0.699852 0.700771 0.658275 0.666063 0.619961 0.589305 0.592152 0.587801 0.594824 0.594243 0.592236 0.566374 0.556458 0.55044 0.520587 0.495293 0.49077 0.47757 0.48679 0.478673 0.482323 0.478162 0.462143 0.468412 0.435029 0.439741 0.47366 0.488678 0.497846 0.425314 0.485177 0.390421 0.362325 0.28373 0.39662 0.537667 0.359799 0.55244 0.456685 0.427546 0.424899 0.665162 0.511439 0.506949 0.424596 0.402219 0.277733 0.277516 0.531979 0.449946 0.562459 0.705092 0.510897 0.489723 0.49505 0.520608 0.461847 0.501732 0.476691 0.448111 0.484625 0.461528 0.45952 0.452661 0.456058 0.395188 0.482083 0.429454 0.464043 0.504035 0.44271 0.621897 0.481446 0.704061 0.417113 0.509648 0.434482 0.249973 0.238428 0.517468 0.674645 0.59046 0.559332 0.555174 0.545083 0.444731 0.542367 0.699505 0.739457 0.608942 0.62114 0.637624 0.680464 0.677966 0.687191 0.680316 0.677972 0.668858 0.670958 0.654307 0.672105 0.679591 0.669133 0.77277 0.744212 0.74197 0.732777 0.737447 0.742164 0.750274 0.729079 0.705494 0.69556 0.86071 0.860886 0.842204 0.839752 0.828032 0.827016 0.825649 0.824681 0.818475 0.884118 0.718089 0.765456 0.755476 0.720327 0.653205 0.820491 0.940092 0.787609 0.766934 0.783135 0.788564 0.755576 0.74742 0.735181 0.725553 0.719436 0.713973 0.701125 0.687783 0.691742 0.658787 0.652999 0.64069 0.645176 0.652959 0.650981 0.662244 0.673887 0.677749 0.682692 0.70713 0.692403 0.653737 0.671986 0.608856 0.583478 0.596051 0.594319 0.597455 0.581676 0.563716 0.535067 0.550777 0.504245 0.496135 0.486892 0.482429 0.472564 0.453928 0.437077 0.431106 0.435405 0.428262 0.423064 0.431292 0.418379 0.417302 0.407896 0.413351 0.405612 0.42846 0.399116 0.445654 0.420086 0.41988 0.43808 0.504454 0.457101 0.641112 0.719483 0.906202 0.30646 0.50631 0.502022 2.45864 0.756103 0.842301 0.602997 0.490576 0.426008 0.428415 0.428081 0.443367 0.421193 0.458963 0.443618 0.43054 0.423665 0.404986 0.359499 0.394475 0.318707 0.241782 0.261084 0.887812 0.186448 0.919875 0.58549 0.586245 0.424281 0.352171 0.247715 0.494151 1.07476 0.733279 0.60617 0.583691 0.580064 0.578737 0.599642 0.597936 0.641433 0.651846 0.66982 0.671223 0.624883 0.650113 0.671638 0.68739 0.693205 0.689377 0.702946 0.692415 0.6919 0.680725 0.668219 0.666507 0.666217 0.651401 0.659479 0.690764 0.743676 0.736079 0.724306 0.736745 0.745605 0.755738 0.758464 0.699497 0.684575 0.939346 0.899891 0.874428 0.825993 0.811301 0.813842 0.817995 0.862799 0.675389 0.842804 0.658716 0.745657 0.797723 0.741556 0.699147 0.645441 0.873529 0.793902 0.67984 0.668966 0.745658 0.760573 0.775606 0.729414 0.73707 0.746395 0.727826 0.736054 0.729819 0.715018 0.696285 0.690254 0.687557 0.680456 0.650311 0.661077 0.656932 0.667706 0.682894 0.702513 0.640498 0.717026 0.669119 0.602057 0.580425 0.596871 0.602514 0.606153 0.606806 0.597528 0.585089 0.586341 0.56542 0.551145 0.535272 0.513011 0.53898 0.495856 0.513081 0.488735 0.492731 0.487023 0.478261 0.478591 0.466 0.453614 0.469428 0.440075 0.453736 0.432525 0.413806 0.426296 0.404484 0.408697 0.414235 0.408967 0.439145 0.425294 0.446305 0.436139 0.426135 0.452237 0.447788 0.500272 0.900216 0.508988 2.32628 0.141101 0.15742 0.771249 0.740912 0.452933 0.261708 0.324913 0.344102 0.350391 0.375503 0.388961 0.404807 0.43004 0.400569 0.382283 0.320564 0.314947 0.319814 0.307512 0.226355 0.480147 0.27682 0.458166 0.413704 0.306813 0.445762 0.619756 0.901284 0.819047 0.504852 0.480702 0.510621 0.549246 0.585974 0.610045 0.633036 0.636381 0.643508 0.644238 0.647175 0.646588 0.668779 0.677219 0.708018 0.701432 0.711096 0.700632 0.681656 0.667667 0.665451 0.659229 0.65901 0.706745 0.738348 0.727791 0.722882 0.73975 0.729981 0.764186 0.787655 0.773527 0.710305 0.744724 0.696997 0.727912 0.75834 1.0829 0.823331 0.816991 0.800342 0.799679 0.808657 0.803784 0.865211 0.840408 0.768153 0.979323 0.785583 0.762286 0.745575 0.735274 0.729976 0.898702 0.723189 0.736871 0.757375 0.745427 0.763012 0.745917 0.736926 0.742924 0.730454 0.714259 0.695244 0.684462 0.679837 0.671112 0.66823 0.661512 0.675342 0.667196 0.677421 0.669469 0.703395 0.693107 0.716253 0.747099 0.76573 0.572181 0.82893 0.620912 0.614668 0.627858 0.610573 0.607968 0.613333 0.623205 0.56647 0.586404 0.557274 0.543487 0.515304 0.497845 0.499178 0.489391 0.482627 0.47415 0.440372 0.461564 0.445934 0.433081 0.422274 0.418326 0.409364 0.409896 0.394186 0.432343 0.434587 0.3855 0.334956 0.331642 0.338138 0.289165 0.325358 0.255805 0.355792 0.352091 0.773433 0.23802 0.86952 0.654214 0.544252 0.360402 0.276025 0.38195 0.434039 0.357146 0.358764 0.371967 0.403121 0.382291 0.356795 0.342687 0.334676 0.324977 0.574655 0.451754 0.462757 0.431895 0.430126 0.435559 0.58348 0.653333 0.521372 0.652023 0.549603 0.530461 0.549777 0.517827 0.570245 0.594816 0.615919 0.636108 0.632529 0.640513 0.64057 0.636497 0.657127 0.643817 0.682654 0.695535 0.73084 0.72107 0.682107 0.697204 0.665576 0.660221 0.662531 0.65732 0.696097 0.702831 0.727175 0.7482 0.727991 0.72001 0.801708 0.756989 0.729022 0.752049 0.648427 1.0307 0.852271 0.83352 0.845947 0.806653 0.824977 0.580203 0.745911 0.848993 1.08131 0.801102 0.788051 0.754892 0.811071 0.921819 0.782868 0.759812 0.762514 0.75025 0.740883 0.755088 0.741468 0.721196 0.732329 0.688489 0.681808 0.679975 0.683872 0.673721 0.673192 0.681906 0.66353 0.673456 0.667179 0.956116 0.733066 0.350765 0.635035 0.640466 0.606238 0.598374 0.599952 0.591535 0.612104 0.547705 0.580065 0.576599 0.568268 0.562026 0.546765 0.536507 0.502082 0.49438 0.494454 0.490762 0.485414 0.479955 0.470799 0.435805 0.452347 0.427877 0.451841 0.449853 0.419971 0.402546 0.403113 0.42982 0.433735 0.428955 0.395665 0.375108 0.394294 0.41358 0.405771 0.1353 0.355027 0.772838 0.336699 0.784842 0.648358 0.500293 0.529973 0.610423 0.4158 0.369205 0.357991 0.379579 0.325247 0.358797 0.306522 0.254242 0.192235 0.0399129 0.584964 0.438838 0.388946 0.390884 0.527601 0.579571 0.587084 0.556452 0.576467 0.564105 0.603801 0.619967 0.621451 0.618877 0.624752 0.6256 0.696517 0.748171 0.720488 0.685031 0.735409 0.709387 0.676941 0.684784 0.665556 0.660337 0.674811 0.689545 0.698168 0.706084 0.716937 0.730953 0.723345 0.719585 0.720209 0.791142 0.773977 0.751489 0.726268 0.686599 0.644155 0.675217 0.774144 0.884533 0.870606 0.842668 0.869597 0.634231 0.683778 0.730901 0.874923 0.982971 0.690319 0.68219 0.80323 0.797567 0.803458 0.763326 0.894327 0.865992 0.867316 0.804041 0.773186 0.774088 0.75516 0.751432 0.75751 0.732298 0.742155 0.680545 0.688514 0.679805 0.684946 0.688229 0.664397 0.665964 0.777411 1.05851 0.606651 0.525127 0.622677 0.530631 0.591505 0.597308 0.587462 0.573489 0.575969 0.573617 0.582012 0.569629 0.556661 0.534241 0.527439 0.508579 0.491722 0.501623 0.499809 0.490167 0.487805 0.496016 0.481456 0.448661 0.480824 0.438211 0.442895 0.45352 0.427855 0.335726 0.350871 0.339415 0.314064 0.0380874 0.542575 0.59869 0.389302 0.622486 0.506743 0.529025 0.407503 0.391629 0.314643 0.294602 0.242437 0.172724 0.146939 0.561969 0.465468 0.404545 0.413534 0.431701 0.525968 0.557508 0.566101 0.563978 0.566479 0.585313 0.572064 0.611974 0.619311 0.619919 0.621483 0.615889 0.591375 0.577123 0.597286 0.671223 0.639231 0.702261 0.688721 0.673162 0.676666 0.674644 0.671193 0.665046 0.668214 0.680637 0.690751 0.70443 0.700633 0.708521 0.714825 0.711624 0.709128 0.722264 0.766625 0.75633 0.724742 0.675918 0.699713 0.738601 0.747736 0.755057 0.839583 0.850802 0.673152 0.682664 0.85061 0.730407 0.85168 0.703052 0.805163 0.760935 0.738206 0.719687 0.820757 0.78271 0.776511 0.771535 0.769038 0.727482 0.723312 0.74891 0.677329 0.683681 0.687714 0.691676 0.699952 0.718715 0.695618 0.72063 0.761963 0.610685 0.636884 0.617943 0.602467 0.575599 0.581442 0.579543 0.573229 0.573251 0.592199 0.576005 0.549331 0.533871 0.514114 0.506189 0.504465 0.493966 0.493684 0.50124 0.491065 0.51438 0.46677 0.450466 0.432087 0.449953 0.443974 0.463023 0.458073 0.470086 0.385042 0.448086 0.35279 0.393748 0.360476 0.302447 0.359686 0.537292 0.446276 0.363705 0.344451 0.531117 0.478814 0.465881 0.425583 0.417849 0.428071 0.41985 0.315854 0.248148 0.189565 0.333382 0.431773 0.476428 0.417491 0.454863 0.448189 0.559061 0.554666 0.559239 0.564395 0.568667 0.560927 0.60631 0.624512 0.60929 0.621221 0.590706 0.577311 0.589139 0.634533 0.639132 0.697587 0.684885 0.68544 0.677181 0.675757 0.673917 0.691067 0.696586 0.701495 0.706736 0.708437 0.707006 0.710129 0.698503 0.7627 0.74595 0.711592 0.75662 0.717338 0.757326 0.859078 0.876689 0.776008 0.769476 0.786081 0.774161 0.879233 0.706824 0.727711 0.696654 0.692908 0.666435 0.933877 0.784047 0.700803 0.822499 0.814015 0.750823 0.745745 0.707278 0.787342 0.780032 0.76673 0.77635 0.782705 0.737342 0.709306 0.720441 0.709644 0.688278 0.693697 0.674814 0.687333 0.712194 0.740033 0.749474 0.736638 0.820983 0.615463 0.637052 0.62324 0.605837 0.593292 0.588418 0.584642 0.584862 0.575431 0.573377 0.597637 0.569538 0.602388 0.579864 0.519009 0.531798 0.530363 0.4854 0.48534 0.476755 0.529383 0.484253 0.485347 0.455697 0.473629 0.455497 0.421252 0.349123 0.392358 0.32701 0.16157 0.373529 0.505778 0.389463 0.419899 0.364903 0.32805 0.468586 0.463025 0.438588 0.442946 0.426732 0.449641 0.438607 0.42822 0.411592 0.330113 0.451531 0.205127 0.184882 0.35157 0.313115 0.366663 0.462608 0.459658 0.446182 0.471017 0.477757 0.424129 0.449795 0.547669 0.536321 0.557117 0.560998 0.557238 0.573258 0.580133 0.580054 0.609284 0.615243 0.617742 0.590157 0.579609 0.595423 0.631669 0.771907 0.694062 0.687291 0.684335 0.679825 0.690182 0.682964 0.698621 0.698704 0.705668 0.705676 0.692511 0.70379 0.659759 0.785527 0.758171 0.771983 0.816061 0.943966 0.646319 0.719239 0.627145 0.723787 0.789691 0.728723 0.661978 0.716813 0.662731 0.877993 0.752391 0.811563 0.847638 0.739875 0.677871 0.716411 0.696337 0.714323 0.759466 0.788942 0.781393 0.774304 0.794371 0.828233 0.754629 0.738966 0.705817 0.723661 0.672274 0.697046 0.712904 0.726221 0.766743 0.762465 0.775701 0.727789 0.707046 0.654661 0.649051 0.652584 0.609616 0.600979 0.593861 0.586161 0.576646 0.607326 0.604835 0.55386 0.540028 0.549187 0.479172 0.561307 0.487424 0.463113 0.498052 0.532277 0.517557 0.501958 0.477705 0.476031 0.484011 0.461364 0.442164 0.366555 0.434501 0.394118 0.496939 0.338574 0.33816 0.439982 0.432009 0.422578 0.417923 0.426745 0.43009 0.42544 0.414352 0.420586 0.487046 0.358533 0.415482 0.35953 0.440114 0.4545 0.468308 0.465786 0.533794 0.55162 0.567005 0.57682 0.576535 0.578838 0.606945 0.5993 0.619857 0.631546 0.603942 0.584343 0.5817 0.513837 0.495386 0.501392 0.721386 0.659188 0.687611 0.702948 0.691831 0.703257 0.708368 0.702631 0.710882 0.680868 0.647095 0.65408 0.643323 0.789003 0.858049 0.877798 0.712168 0.664249 0.574165 0.833489 0.741081 0.664221 0.720649 0.606009 0.829657 0.693522 0.8547 0.823784 0.773424 0.69788 0.644609 0.691067 0.698707 0.709101 0.719351 0.73198 0.711611 0.743006 0.868302 0.793624 0.775199 0.809503 0.738935 0.706975 0.691804 0.710252 0.721532 0.784976 0.704738 0.676464 0.669023 0.652007 0.64048 0.612148 0.634779 0.59939 0.618543 0.592285 0.577353 0.589425 0.653985 0.579823 0.521699 0.486555 0.495377 0.508146 0.530292 0.525966 0.518561 0.5166 0.496878 0.491704 0.464278 0.497575 0.443472 0.469163 0.46728 0.441535 0.453609 0.467826 0.474694 0.342804 0.416632 0.412449 0.410126 0.412245 0.404165 0.418588 0.410792 0.413851 0.382727 0.615118 0.365732 0.437865 0.456795 0.468924 0.479601 0.521969 0.548128 0.544874 0.553978 0.567606 0.582831 0.587686 0.596103 0.582213 0.617151 0.592302 0.525064 0.489884 0.479743 0.768405 0.706561 0.65641 0.712906 0.719652 0.689702 0.702644 0.712786 0.715482 0.708837 0.635736 0.662213 0.640328 0.774626 0.838773 0.730984 0.840141 0.707562 0.727436 0.731049 0.627551 0.855604 0.786144 0.735 0.719998 0.668588 0.696276 0.687832 0.69472 0.736854 0.574369 0.71442 0.690598 0.685874 0.662326 0.653289 0.64055 0.624996 0.60992 0.609145 0.599799 0.609736 0.563998 0.553624 0.565717 0.795164 0.523785 0.55825 0.50281 0.513068 0.516569 0.520857 0.533464 0.528178 0.524647 0.522192 0.500294 0.587304 0.513334 0.487212 0.462756 0.462798 0.484884 0.526298 0.465192 0.517969 0.491533 0.350265 0.414445 0.393718 0.380306 0.391112 0.402797 0.406522 0.397325 0.404531 0.407653 0.373639 0.380039 0.463514 0.43959 0.762027 0.450333 0.454519 0.471098 0.489189 0.516892 0.536739 0.551003 0.558166 0.583482 0.58668 0.589027 0.581688 0.596007 0.611166 0.496551 0.535817 0.527822 0.516875 0.480721 0.789404 0.866625 0.778061 0.769735 0.714734 0.637521 0.685788 0.702387 0.705882 0.717021 0.69765 0.690057 0.707959 0.744933 0.586771 0.706965 0.708904 0.68865 0.673654 0.660898 0.649096 0.63876 0.614633 0.600418 0.544425 0.538993 0.746671 0.835928 0.456039 0.509121 0.495784 0.518064 0.538802 0.535035 0.515361 0.594353 0.539067 0.443799 0.464895 0.456777 0.450175 0.55817 0.514236 0.44442 0.379598 0.376591 0.391773 0.404832 0.643604 0.697364 0.683245 0.701772 0.612252 0.836984 0.493273 0.467831 0.491652 0.521615 0.543099 0.569815 0.546403 0.57989 0.57586 0.720315 0.683464 0.669401 0.587336 0.536545 0.586188 0.447395 0.654444 0.452187 0.4865 0.506816 0.557217 0.532139 0.554296 0.489091 0.4213 0.445131 0.452299 0.502834 0.59941 0.426516 0.376801 0.38888 0.397035 0.398763 0.556042 0.528568 0.480748 0.427558 0.500287 0.556625 0.611194 
SCALARS Stress float 1
LOOKUP_TABLE default
-27280400000.0 -82013400000.0 -127160000000.0 -144053000000.0 -212020000000.0 -41048000000.0 -148316000000.0 -166728000000.0 -50086800000.0 -209015000000.0 -276765000000.0 -365644000000.0 -178682000000.0 -326213000000.0 -193946000000.0 -269526000000.0 -347333000000.0 -53041900000.0 -263397000000.0 -252992000000.0 -569053000000.0 -408835000000.0 -889804000000.0 -450659000000.0 -961163000000.0 -317585000000.0 -561625000000.0 -942639000000.0 -517152000000.0 -416285000000.0 -802412000000.0 -571381000000.0 -188535000000.0 -483120000000.0 -498823000000.0 -826768000000.0 -408611000000.0 -660069000000.0 -434832000000.0 -307999000000.0 -362946000000.0 -448116000000.0 -109679000000.0 -786633000000.0 -1.03452e+12 -594844000000.0 -1.43106e+12 -2.17714e+12 -586919000000.0 -520822000000.0 -891288000000.0 -1.07247e+12 -517565000000.0 -1.64195e+12 -522034000000.0 -1.47657e+12 -1.01759e+12 -821166000000.0 -1.57946e+12 -835357000000.0 -610796000000.0 -1.13203e+12 -1.2951e+12 -505510000000.0 -525623000000.0 -519535000000.0 -561265000000.0 -1.22167e+12 -1.54937e+12 -1.60403e+12 -2.43505e+12 -1.90455e+12 -1.61515e+12 -1.60794e+12 -484326000000.0 -655714000000.0 -1.57694e+12 -826184000000.0 -2.17719e+12 -3.19369e+12 -1.06507e+12 -2.01366e+12 -1.60368e+12 -2.28733e+12 -1.14659e+12 -1.54223e+12 -750479000000.0 -1.36958e+12 -1.70919e+12 -789015000000.0 -1.86642e+12 -899177000000.0 -1.67522e+12 -1.25648e+12 -2.50748e+12 -1.62244e+12 -2.49051e+12 -1.75975e+12 -2.00084e+12 -2.42255e+12 -449213000000.0 -2.09312e+12 -2.4861e+12 -639018000000.0 -1.18809e+12 -1.51112e+12 -1.79021e+12 -1.1793e+12 -2.12977e+12 -962691000000.0 -816493000000.0 -1.06298e+12 -3.26242e+12 -1.14969e+12 -1.50679e+12 -1.66987e+12 -876783000000.0 -1.43042e+12 -1.31974e+12 -3.18616e+12 -3.99163e+12 -2.28804e+12 -3.04228e+12 -2.4247e+12 -2.27649e+12 -1.05464e+12 -4.23528e+12 -2.4886e+12 -1.55554e+12 -881070000000.0 -2.05494e+12 -1.304e+12 -3.23285e+12 -4.08097e+12 -3.03237e+12 -2.43045e+12 -890138000000.0 -906765000000.0 -569844000000.0 -1.55079e+12 -1.76649e+12 -960871000000.0 -1.99432e+12 -1.10064e+12 -1.92653e+12 -1.48526e+12 -3.05884e+12 -2.56966e+12 -3.07364e+12 -5.19055e+12 -1.72562e+12 -3.49969e+12 -1.51771e+12 -3.57686e+12 -3.5785e+12 -3.25308e+12 -2.398e+12 -1.25262e+12 -3.3263e+12 -3.19981e+12 -1.91996e+12 -2.17237e+12 -2.6226e+12 -718881000000.0 -1.73883e+12 -2.52406e+12 -2.43406e+12 -3.30408e+12 -2.62162e+12 -1.63802e+12 -486064000000.0 -663657000000.0 -1.58617e+12 -4.57464e+12 -1.84083e+12 -2.61896e+12 -4.42408e+12 -3.67031e+12 -3.18617e+12 -2.87323e+12 -3.48525e+12 -3.84276e+12 -2.30141e+12 -3.02535e+12 -3.59724e+12 -3.00882e+12 -3.09107e+12 -3.22204e+12 -1.53506e+12 -4.51982e+12 -3.23929e+12 -2.51467e+12 -2.69264e+12 -2.80107e+12 -3.72006e+12 -2.14609e+12 -1.30972e+12 -2.50511e+12 -2.07743e+12 -5.2268e+12 -1.24356e+12 -3.587e+12 -3.75038e+12 -4.46382e+12 -6.49895e+12 -3.06165e+12 -2.47179e+12 -3.79075e+12 -466046000000.0 -2.7264e+12 -4.62791e+12 -3.8151e+12 -4.19325e+12 -4.72505e+12 -3.03541e+12 -3.49193e+12 -2.3289e+12 -4.82214e+12 -3.91366e+12 -1.67412e+12 -4.30124e+12 -3.83275e+12 -1.52041e+12 -2.64962e+12 -1.69969e+12 -2.4222e+12 -1.9013e+12 -1.61927e+12 -4.09158e+12 -2.47679e+12 -1.68271e+12 -4.93653e+12 -5.47954e+12 -4.10482e+12 -4.29428e+12 -3.83356e+12 -4.77596e+12 -3.4763e+12 -3.82594e+12 -4.75318e+12 -5.82203e+12 -4.83835e+12 -3.45505e+12 -3.2296e+12 -4.58498e+12 -4.02358e+12 -5.67092e+12 -5.38021e+12 -2.11455e+12 -5.8498e+12 -6.96735e+12 -3.19441e+12 -2.86179e+12 -2.20548e+12 -3.41263e+12 -3.39865e+12 -4.29611e+12 -6.51771e+12 -3.0622e+12 -2.61648e+12 -4.71681e+12 -4.41415e+12 -3.49834e+12 -6.0692e+12 -3.21488e+12 -4.37343e+12 -3.15579e+12 -5.56276e+12 -6.04901e+12 -3.61928e+12 -5.17918e+12 -4.54931e+12 -4.26486e+12 -5.16786e+12 -2.96527e+12 -2.84391e+12 -2.87513e+12 -5.41655e+12 -3.30246e+12 -5.38227e+12 -4.33483e+12 -5.02616e+12 -4.12104e+12 -2.30318e+12 -5.06901e+12 -3.09839e+12 -4.92817e+12 -6.33174e+12 -5.84445e+12 -5.80457e+12 -2.11726e+12 -3.67121e+12 -3.31932e+12 -3.00504e+12 -3.58481e+12 -4.3708e+12 -7.08409e+12 -5.25876e+12 -4.21538e+12 -2.62538e+12 -4.99091e+12 -4.09907e+12 -6.43484e+12 -6.86026e+12 -6.66544e+12 -2.98561e+12 -4.03636e+12 -3.81203e+12 -6.10173e+12 -4.92543e+12 -6.42261e+12 -4.25399e+12 -7.40434e+12 -4.71605e+12 -4.79154e+12 -3.93058e+12 -6.78206e+12 -6.54757e+12 -4.44499e+12 -2.60489e+12 -4.50419e+12 -6.44252e+12 -7.17419e+12 -4.13206e+12 -6.14347e+12 -3.50375e+12 -4.16139e+12 -5.04518e+12 -3.4645e+12 -2.72992e+12 -5.28242e+12 -5.27479e+12 -6.894e+12 -4.02258e+12 -6.45388e+12 -4.07385e+12 -1.39376e+12 -5.63474e+12 -2.31768e+12 -4.1794e+12 -4.82619e+12 -6.01271e+12 -6.37112e+12 -6.12002e+12 -4.43217e+12 -3.6945e+12 -4.08918e+12 -4.84942e+12 -4.09153e+12 -4.58211e+12 -4.06276e+12 -2.51344e+12 -4.86052e+12 -5.31582e+12 -4.37321e+12 -2.36477e+12 -6.06779e+12 -4.73176e+12 -2.7467e+12 -4.04623e+12 -4.23884e+12 -1.9013e+12 -4.74899e+12 -5.15519e+12 -6.3065e+12 -4.65429e+12 -2.16239e+12 -3.31676e+12 -2.56735e+12 -4.98589e+12 -4.61267e+12 -4.96651e+12 -5.38599e+12 -5.42294e+12 -4.59451e+12 -5.58529e+12 -6.41013e+12 -4.91311e+12 -4.22285e+12 -4.86983e+12 -3.83854e+12 -2.58032e+12 -4.28371e+12 -4.39735e+12 -5.18733e+12 -5.89981e+12 -3.45936e+12 -3.5495e+12 -3.56336e+12 -5.39735e+12 -4.99701e+12 -5.77989e+12 -5.77058e+12 -5.07799e+12 -5.35615e+12 -4.14455e+12 -3.09807e+12 -5.85022e+12 -5.73335e+12 -5.66947e+12 -6.56159e+12 -12549700000.0 -4.2777e+12 -2.80695e+12 -5.25066e+12 -4.82431e+12 -4.92382e+12 -6.44786e+12 -3.48926e+12 -5.02466e+12 -4.68601e+12 -4.46931e+12 -6.89325e+12 -5.81383e+12 -4.06443e+12 -3.75882e+12 -4.87305e+12 -5.00729e+12 -5.40234e+12 -5.62742e+12 -4.40884e+12 -3.17526e+12 -3.94079e+12 -3.78982e+12 -3.40449e+12 -7.43662e+12 -7.18383e+12 -4.76614e+12 -5.04552e+12 -6.46558e+12 -5.02637e+12 -5.31205e+12 -7.84941e+12 -6.46885e+12 -3.66627e+12 -6.92912e+12 -3.79619e+12 -2.0568e+12 -5.79776e+12 -5.62354e+12 -3.34615e+12 -3.14767e+12 -4.24235e+12 -4.40182e+12 -4.43397e+12 -4.00802e+12 -5.75772e+12 -7.28551e+12 -5.17442e+12 -3.0861e+12 -3.92638e+12 -6.16617e+12 -4.78517e+12 -2.77937e+12 -3.97099e+12 -6.05824e+12 -5.22794e+12 -2.90511e+12 -5.32886e+12 -3.79972e+12 -5.47873e+12 -5.12066e+12 -8.91413e+12 -5.92764e+12 -6.94725e+12 -3.9227e+12 -4.07154e+12 -6.09518e+12 -6.93233e+12 -3.69248e+12 -4.12592e+12 -5.23815e+12 -4.90007e+12 -5.02011e+12 -4.64051e+12 -6.31174e+12 -3.39403e+12 -6.06899e+12 -7.11186e+12 -3.4005e+12 -4.01818e+12 -6.5072e+12 -7.78857e+12 -5.31101e+12 -4.8843e+12 -6.99984e+12 -7.36099e+12 -5.72752e+12 -5.07088e+12 -3.60201e+12 -5.82085e+12 -2.96469e+12 -5.12903e+12 -8.15019e+12 -6.30699e+12 -4.35728e+12 -6.19239e+12 -6.80097e+12 -4.91443e+12 -3.71819e+12 -5.5874e+12 -4.47003e+12 -5.10748e+12 -5.78795e+12 -3.48977e+12 -2.63993e+12 -6.66634e+12 -5.56009e+12 -5.35155e+12 -6.19472e+12 -3.69935e+12 -2.06322e+12 -3.15325e+12 -3.24316e+12 -5.81324e+12 -6.55498e+12 -7.54283e+12 -6.27847e+12 -8.06084e+12 -4.10031e+12 -7.06401e+12 -5.90771e+12 -5.61386e+12 -6.39641e+12 -3.12174e+12 -4.92382e+12 -5.7984e+12 -6.29069e+12 -5.98434e+12 -4.99832e+12 -8.1192e+12 -6.17588e+12 -5.78514e+12 -3.30205e+12 -3.17138e+12 -4.0714e+12 -5.15959e+12 -4.91783e+12 -6.29206e+12 -5.37086e+12 -5.68671e+12 -6.27951e+12 -6.23828e+12 -5.35672e+12 -2.15019e+12 -4.02491e+12 -4.50346e+12 -6.62415e+12 -8.18651e+12 -8.03816e+12 -9.1425e+12 -4.69328e+12 -2.86023e+12 -3.35487e+12 -12549700000.0 -4.02329e+12 -7.35027e+12 -5.21719e+12 -9.78494e+12 -6.75569e+12 -5.30683e+12 -4.58924e+12 -3.45132e+12 -1.14425e+13 -5.15687e+12 -4.25232e+12 -5.69916e+12 -1.1459e+13 -5.29448e+12 -7.91579e+12 -5.90993e+12 -9.34112e+12 -9.66357e+12 -5.76397e+12 -3.80121e+12 -7.15264e+12 -1.12686e+13 -6.13164e+12 -6.11838e+12 -7.51493e+12 -5.24658e+12 -7.11645e+12 -6.52513e+12 -12549700000.0 -7.18427e+12 -9.65845e+12 -3.31548e+12 -3.65003e+12 -5.57536e+12 -6.29879e+12 -3.41448e+12 -5.07144e+12 -7.93968e+12 -5.65833e+12 -8.13416e+12 -7.31391e+12 -7.94577e+12 -5.57044e+12 -4.66977e+12 -5.00701e+12 -5.16627e+12 -7.31479e+12 -4.06104e+12 -5.25654e+12 -7.60749e+12 -1.22274e+13 -7.09115e+12 -7.04551e+12 -9.78803e+12 -7.38728e+12 -3.12484e+12 -9.30938e+12 -1.19973e+13 -4.9497e+12 -9.31385e+12 -7.4628e+12 -5.28422e+12 -7.33815e+12 -3.16402e+12 -6.31773e+12 -2.23333e+12 -7.44223e+12 -6.76035e+12 -4.56533e+12 -5.86621e+12 -7.02083e+12 -1.09497e+13 -8.3182e+12 -6.63862e+12 -2.82487e+12 -6.49061e+12 -6.65311e+12 -5.59716e+12 -6.94432e+12 -5.06501e+12 -7.98365e+12 -5.13512e+12 -7.27339e+12 -6.9932e+12 -6.7156e+12 -6.60434e+12 -8.39991e+12 -4.8397e+12 -5.11176e+12 -8.17005e+12 -5.89438e+12 -6.84591e+12 -1.06252e+13 -8.60442e+12 -5.40076e+12 -5.54552e+12 -1.16178e+13 -1.05373e+13 -1.49384e+13 -1.21979e+13 -7.89277e+12 -4.49596e+12 -12549700000.0 -4.6661e+12 -4.71258e+12 -7.63122e+12 -5.98362e+12 -4.96814e+12 -6.42774e+12 -6.30114e+12 -5.13128e+12 -4.39561e+12 -3.90483e+12 -7.72542e+12 -6.74652e+12 -6.61577e+12 -5.32515e+12 -4.55702e+12 -6.80573e+12 -3.05791e+12 -4.90992e+12 -2.94078e+12 -7.82337e+12 -4.85472e+12 -7.21687e+12 -7.21656e+12 -7.28269e+12 -7.77584e+12 -8.74698e+12 -2.11354e+12 -4.14422e+12 -4.25454e+12 -3.70849e+12 -7.03625e+12 -2.84565e+12 -6.12709e+12 -7.07086e+12 -5.16481e+12 -7.55845e+12 -7.25901e+12 -8.80357e+12 -8.53782e+12 -5.86352e+12 -3.91567e+12 -3.4417e+12 -2.87714e+12 -5.48677e+12 -3.39925e+12 -5.02123e+12 -3.9249e+12 -4.37502e+12 -8.05565e+12 -4.19412e+12 -5.61036e+12 -8.42101e+12 -4.34933e+12 -7.14455e+12 -6.6241e+12 -4.62964e+12 -5.86667e+12 -7.29496e+12 -6.92156e+12 -6.16171e+12 -6.52431e+12 -6.35111e+12 -8.61243e+12 -4.44144e+12 -5.42509e+12 -4.86162e+12 -3.7613e+12 -7.19689e+12 -3.60285e+12 -9.35259e+12 -5.94765e+12 -7.75814e+12 -4.15828e+12 -4.06373e+12 -5.50948e+12 -6.25984e+12 -3.82889e+12 -9.47781e+12 -1.10457e+13 -8.83225e+12 -5.6389e+12 -8.78372e+12 -3.06144e+12 -6.03485e+12 -3.69047e+12 -3.64742e+12 -4.43724e+12 -5.54231e+12 -6.71327e+12 -6.60725e+12 -5.46337e+12 -7.39469e+12 -9.95067e+12 -6.46303e+12 -4.44131e+12 -9.7734e+12 -7.44418e+12 -5.5742e+12 -9.21797e+12 -4.02755e+12 -6.96076e+12 -3.79915e+12 -4.16874e+12 -6.13728e+12 -1.00903e+13 -8.1384e+12 -5.9609e+12 -8.73433e+12 -9.34798e+12 -4.49027e+12 -2.98939e+12 -3.81997e+12 -5.40434e+12 -5.12992e+12 -9.22275e+12 -6.28009e+12 -9.04537e+12 -6.71211e+12 -5.94262e+12 -7.20809e+12 -6.43708e+12 -5.25473e+12 -8.96266e+12 -9.66176e+12 -5.73753e+12 -8.0041e+12 -4.91018e+12 -4.87483e+12 -4.35548e+12 -12549700000.0 -12549700000.0 -4.87676e+12 -5.65759e+12 -4.2693e+12 -1.09456e+13 -1.35546e+13 -6.8955e+12 -6.49399e+12 -5.71033e+12 -9.96238e+12 -7.10891e+12 -6.86548e+12 -6.44665e+12 -4.98751e+12 -1.28985e+13 -4.5915e+12 -6.78275e+12 -7.52077e+12 -8.4522e+12 -1.04431e+13 -1.0129e+13 -7.83722e+12 -1.00757e+13 -4.82729e+12 -8.52386e+12 -7.39122e+12 -7.19909e+12 -1.10843e+13 -7.05184e+12 -5.61313e+12 -5.21778e+12 -6.26832e+12 -7.74571e+12 -4.97734e+12 -6.29467e+12 -3.81931e+12 -7.11718e+12 -3.22261e+12 -5.21727e+12 -4.262e+12 -9.37739e+12 -6.49133e+12 -8.09701e+12 -12549700000.0 -2.98207e+12 -6.46798e+12 -5.95499e+12 -4.71036e+12 -6.14158e+12 -5.2709e+12 -9.86569e+12 -8.79114e+12 -1.07002e+13 -1.0576e+13 -7.17499e+12 -8.53973e+12 -5.21419e+12 -7.61547e+12 -9.24124e+12 -3.32261e+12 -1.01657e+13 -6.03603e+12 -7.76902e+12 -8.51302e+12 -5.90551e+12 -6.77518e+12 -1.03655e+13 -5.26082e+12 -6.35841e+12 -6.78932e+12 -7.04699e+12 -1.06443e+13 -5.82761e+12 -6.06361e+12 -1.29559e+13 -4.85646e+12 -5.4471e+12 -4.8219e+12 -5.91139e+12 -6.77915e+12 -8.75224e+12 -5.43011e+12 -7.26347e+12 -9.527e+12 -5.00768e+12 -6.23098e+12 -4.87253e+12 -5.05348e+12 -5.25515e+12 -7.54842e+12 -3.5759e+12 -4.9669e+12 -8.42154e+12 -5.04317e+12 -4.82211e+12 -7.38181e+12 -3.93694e+12 -4.04297e+12 -8.73094e+12 -6.72193e+12 -8.21305e+12 -1.04673e+13 -3.62425e+12 -6.92823e+12 -9.07114e+12 -7.87931e+12 -1.19293e+13 -7.51282e+12 -8.53942e+12 -5.63823e+12 -7.41741e+12 -6.45213e+12 -8.01991e+12 -9.10508e+12 -9.36083e+12 -6.07187e+12 -1.01701e+13 -5.60066e+12 -8.0217e+12 -3.91057e+12 -3.23591e+12 -7.62075e+12 -8.85383e+12 -6.13663e+12 -6.2506e+12 -7.26715e+12 -2.5204e+12 -4.85711e+12 -4.51697e+12 -9.20634e+12 -9.23511e+12 -7.10122e+12 -9.64159e+12 -5.96936e+12 -7.38141e+12 -7.87343e+12 -5.92799e+12 -1.09479e+13 -6.55396e+12 -5.62647e+12 -5.78844e+12 -9.56292e+12 -1.27007e+13 -1.02239e+13 -8.63443e+12 -1.26296e+13 -6.22263e+12 -7.89564e+12 -9.59803e+12 -3.83561e+12 -6.45243e+12 -5.36697e+12 -7.32623e+12 -4.36122e+12 -5.01087e+12 -4.40112e+12 -3.26552e+12 -3.9446e+12 -6.4505e+12 -1.00474e+13 -7.70696e+12 -9.65183e+12 -9.98776e+12 -7.08586e+12 -1.24301e+13 -8.43267e+12 -5.29802e+12 -5.13239e+12 -9.12048e+12 -8.39252e+12 -4.79633e+12 -5.20537e+12 -7.22209e+12 -7.1203e+12 -6.69477e+12 -8.06501e+12 -6.23731e+12 -5.87884e+12 -5.90817e+12 -6.64349e+12 -1.39303e+13 -4.61828e+12 -5.85258e+12 -5.69913e+12 -8.30738e+12 -8.2433e+12 -8.88171e+12 -4.65899e+12 -3.81969e+12 -2.56813e+12 -4.763e+12 -7.46943e+12 -9.52123e+12 -7.54813e+12 -5.9279e+12 -9.22342e+12 -1.20176e+13 -1.12441e+13 -7.33884e+12 -1.00907e+13 -6.89e+12 -9.37274e+12 -6.19916e+12 -4.45169e+12 -4.98559e+12 -8.60519e+12 -1.04091e+13 -7.76676e+12 -4.9021e+12 -3.08041e+12 -8.35861e+12 -1.31377e+13 -6.79218e+12 -8.56679e+12 -6.81262e+12 -4.20527e+12 -9.22013e+12 -5.67937e+12 -7.1888e+12 -8.14824e+12 -5.83821e+12 -1.04957e+13 -4.80806e+12 -7.33044e+12 -1.36222e+13 -1.01561e+13 -7.64948e+12 -1.12718e+13 -7.23203e+12 -4.8864e+12 -4.82317e+12 -9.2033e+12 -5.11719e+12 -3.90405e+12 -8.27589e+12 -4.57181e+12 -5.73854e+12 -4.80951e+12 -3.58892e+12 -5.76987e+12 -8.43767e+12 -9.68366e+12 -6.13827e+12 -1.16195e+13 -8.13916e+12 -8.45122e+12 -9.28077e+12 -8.90264e+12 -1.06388e+13 -8.40195e+12 -9.28536e+12 -7.27457e+12 -7.66376e+12 -6.85736e+12 -1.12848e+13 -1.19786e+13 -8.08233e+12 -1.54034e+13 -1.08618e+13 -1.17514e+13 -7.31021e+12 -6.95686e+12 -8.46467e+12 -7.04003e+12 -7.2971e+12 -5.25201e+12 -6.40307e+12 -3.60836e+12 -1.33701e+13 -7.61491e+12 -7.45421e+12 -6.50069e+12 -7.71814e+12 -7.25974e+12 -6.44855e+12 -8.25316e+12 -3.34776e+12 -6.56378e+12 -7.7102e+12 -8.32292e+12 -8.61893e+12 -6.33058e+12 -1.00875e+13 -5.99068e+12 -6.11499e+12 -5.48867e+12 -6.84899e+12 -9.46494e+12 -5.43013e+12 -7.80489e+12 -6.90849e+12 -6.61208e+12 -7.56702e+12 -6.66001e+12 -7.60817e+12 -6.50226e+12 -7.74136e+12 -8.23923e+12 -3.28485e+12 -6.36561e+12 -6.4185e+12 -2.87555e+12 -1.22964e+13 -1.12572e+13 -1.08546e+13 -5.11464e+12 -8.20936e+12 -6.82591e+12 -6.20587e+12 -1.0263e+13 -6.05534e+12 -7.49056e+12 -6.38262e+12 -7.21576e+12 -1.05655e+13 -1.41308e+13 -1.484e+13 -1.02433e+13 -5.65528e+12 -8.65248e+12 -6.23176e+12 -6.18488e+12 -9.19465e+12 -9.25388e+12 -1.11404e+13 -6.78291e+12 -8.02899e+12 -8.41946e+12 -9.07852e+12 -6.11408e+12 -6.54917e+12 -8.84699e+12 -7.36708e+12 -6.03384e+12 -4.24373e+12 -8.675e+12 -3.24425e+12 -7.11999e+12 -3.95996e+12 -6.84429e+12 -9.369e+12 -7.87985e+12 -6.15145e+12 -8.29202e+12 -4.38705e+12 -6.0247e+12 -8.37966e+12 -7.56865e+12 -8.81794e+12 -6.24057e+12 -6.28663e+12 -5.65985e+12 -5.37731e+12 -7.6924e+12 -9.15322e+12 -8.9831e+12 -7.67909e+12 -6.53187e+12 -5.04388e+12 -5.12272e+12 -9.3683e+12 -6.35727e+12 -1.1186e+13 -9.93757e+12 -6.04807e+12 -3.34995e+12 -8.39995e+12 -7.47796e+12 -1.14621e+13 -6.10123e+12 -4.68128e+12 -9.89062e+12 -8.9045e+12 -1.07716e+13 -8.70909e+12 -7.78531e+12 -1.11046e+13 -1.03682e+13 -6.6592e+12 -7.73078e+12 -6.47907e+12 -1.04213e+13 -9.12558e+12 -7.34032e+12 -8.93094e+12 -8.53426e+12 -1.01929e+13 -1.10774e+13 -8.63097e+12 -9.56078e+12 -4.39771e+12 -1.52306e+13 -8.88005e+12 -4.04096e+12 -4.47555e+12 -1.20504e+13 -7.53703e+12 -4.62993e+12 -9.99101e+12 -1.23059e+13 -6.32384e+12 -1.07126e+13 -9.52877e+12 -7.77001e+12 -3.81039e+12 -6.8153e+12 -1.08158e+13 -1.42459e+13 -9.51945e+12 -7.75932e+12 -1.3188e+13 -9.37776e+12 -6.15973e+12 -6.93806e+12 -1.15882e+13 -1.28481e+13 -9.22891e+12 -8.03654e+12 -1.07125e+13 -7.8133e+12 -7.97455e+12 -6.54174e+12 -6.00918e+12 -1.03807e+13 -7.60042e+12 -7.25389e+12 -8.64585e+12 -4.09284e+12 -7.23325e+12 -5.18549e+12 -1.16526e+13 -6.62551e+12 -6.41687e+12 -7.2357e+12 -8.25815e+12 -7.1587e+12 -1.30071e+13 -6.70815e+12 -7.5444e+12 -8.58798e+12 -8.18265e+12 -8.27331e+12 -7.24167e+12 -1.08657e+13 -1.68441e+13 -5.18744e+12 -6.25222e+12 -8.7613e+12 -1.10133e+13 -1.00394e+13 -9.16653e+12 -9.25361e+12 -3.43704e+12 -8.92064e+12 -4.22451e+12 -6.07702e+12 -7.71855e+12 -6.13727e+12 -6.40644e+12 -6.56794e+12 -7.82911e+12 -7.15158e+12 -6.03305e+12 -6.45751e+12 -6.87708e+12 -6.47242e+12 -5.76535e+12 -1.22894e+13 -9.0669e+12 -7.25678e+12 -1.21003e+13 -7.19023e+12 -1.04419e+13 -6.55779e+12 -8.79633e+12 -1.6389e+13 -7.3518e+12 -1.33311e+13 -1.04439e+13 -1.0751e+13 -1.08007e+13 -1.14905e+13 -8.38853e+12 -8.37103e+12 -4.125e+12 -5.31412e+12 -3.45031e+12 -6.23961e+12 -7.1378e+12 -8.42295e+12 -9.05401e+12 -1.54413e+13 -1.2078e+13 -6.85934e+12 -9.36898e+12 -6.84702e+12 -1.30065e+13 -5.50072e+12 -6.74647e+12 -1.46114e+13 -1.08558e+13 -9.88751e+12 -8.43645e+12 -9.84178e+12 -5.90087e+12 -7.13139e+12 -7.73515e+12 -8.60238e+12 -6.44132e+12 -5.12377e+12 -5.64234e+12 -5.35642e+12 -8.31202e+12 -5.52056e+12 -6.56466e+12 -7.00739e+12 -6.01148e+12 -6.95925e+12 -4.25604e+12 -5.64234e+12 -1.02992e+13 -8.73959e+12 -2.92541e+12 -4.91212e+12 -1.10423e+13 -5.248e+12 -7.50661e+12 -4.28008e+12 -8.29017e+12 -5.6967e+12 -7.57547e+12 -5.43641e+12 -4.0894e+12 -4.73533e+12 -6.32893e+12 -7.66079e+12 -4.50476e+12 -5.18311e+12 -9.78694e+12 -8.77413e+12 -6.43152e+12 -7.83445e+12 -9.06641e+12 -1.12623e+13 -6.29808e+12 -8.00118e+12 -5.54654e+12 -8.53394e+12 -7.76791e+12 -1.07886e+13 -6.79193e+12 -8.21559e+12 -4.81603e+12 -8.23778e+12 -5.1442e+12 -8.92518e+12 -1.12682e+13 -1.20834e+13 -6.55323e+12 -7.87407e+12 -4.49468e+12 -1.10341e+13 -8.60428e+12 -9.46679e+12 -1.43458e+13 -9.8359e+12 -6.60531e+12 -9.46785e+12 -9.10899e+12 -8.41386e+12 -8.75676e+12 -7.89337e+12 -9.09228e+12 -1.08302e+13 -1.22007e+13 -7.84115e+12 -1.36982e+13 -1.06712e+13 -9.15282e+12 -6.70412e+12 -6.45529e+12 -2.59489e+12 -3.23309e+12 -5.32293e+12 -6.11264e+12 -6.65993e+12 -1.03011e+13 -1.07723e+13 -6.13951e+12 -1.17486e+13 -6.70532e+12 -6.7631e+12 -1.14777e+13 -7.80168e+12 -9.29316e+12 -1.25862e+13 -7.71962e+12 -9.05456e+12 -1.06541e+13 -1.26983e+13 -9.26094e+12 -6.47443e+12 -9.49503e+12 -7.53815e+12 -8.13508e+12 -7.71021e+12 -9.96825e+12 -6.38606e+12 -7.90794e+12 -3.65843e+12 -6.27236e+12 -9.38527e+12 -1.10135e+13 -7.15313e+12 -6.33985e+12 -1.1315e+13 -7.63205e+12 -7.04853e+12 -5.19715e+12 -5.54415e+12 -8.63845e+12 -6.32035e+12 -5.35291e+12 -4.72789e+12 -5.47389e+12 -3.69908e+12 -6.9732e+12 -4.56021e+12 -1.04941e+13 -7.40777e+12 -7.47034e+12 -7.63551e+12 -9.11513e+12 -8.38526e+12 -5.0775e+12 -4.03844e+12 -3.65869e+12 -6.46564e+12 -7.46918e+12 -7.39044e+12 -8.53807e+12 -9.60789e+12 -7.14417e+12 -5.79372e+12 -6.19843e+12 -1.00561e+13 -7.64588e+12 -3.45361e+12 -4.29011e+12 -1.04215e+13 -5.61476e+12 -5.76947e+12 -1.05746e+13 -5.75597e+12 -8.60721e+12 -8.90424e+12 -7.35493e+12 -6.52381e+12 -6.87342e+12 -9.2871e+12 -5.37336e+12 -6.12748e+12 -7.53429e+12 -1.04677e+13 -9.08735e+12 -1.13258e+13 -8.58073e+12 -8.95213e+12 -9.77555e+12 -8.13128e+12 -1.08612e+13 -8.29968e+12 -9.20127e+12 -1.38147e+13 -1.30264e+13 -1.03612e+13 -1.04849e+13 -1.27461e+13 -8.14676e+12 -6.52024e+12 -8.02177e+12 -4.41121e+12 -7.91364e+12 -7.72018e+12 -5.57638e+12 -4.42019e+12 -8.68187e+12 -7.7497e+12 -4.12306e+12 -1.0894e+13 -8.88471e+12 -6.45995e+12 -6.11111e+12 -7.69867e+12 -8.6121e+12 -8.37159e+12 -6.58101e+12 -1.01624e+13 -1.48274e+13 -8.58115e+12 -5.84568e+12 -5.71687e+12 -7.49927e+12 -9.04642e+12 -9.76518e+12 -6.50159e+12 -8.35998e+12 -1.11301e+13 -8.80189e+12 -1.11786e+13 -9.46513e+12 -1.06254e+13 -6.96422e+12 -9.79375e+12 -9.74425e+12 -9.31214e+12 -9.19207e+12 -4.896e+12 -3.46045e+12 -9.31635e+12 -1.03152e+13 -1.04275e+13 -7.05209e+12 -5.68779e+12 -5.86251e+12 -7.95814e+12 -5.81691e+12 -8.99611e+12 -5.90087e+12 -7.22842e+12 -5.29837e+12 -1.15735e+13 -8.68031e+12 -9.74408e+12 -7.19579e+12 -5.88599e+12 -9.9461e+12 -7.12012e+12 -5.90573e+12 -1.10149e+13 -4.78067e+12 -6.6671e+12 -7.37395e+12 -7.74053e+12 -1.15257e+13 -6.77044e+12 -6.16836e+12 -4.99188e+12 -8.9569e+12 -5.18978e+12 -6.71002e+12 -3.92628e+12 -4.85424e+12 -2.88338e+12 -7.12312e+12 -4.77093e+12 -5.94388e+12 -6.60528e+12 -6.98384e+12 -1.0665e+13 -6.55484e+12 -7.3958e+12 -7.82563e+12 -3.92488e+12 -8.83154e+12 -5.91575e+12 -5.25028e+12 -9.06352e+12 -2.60675e+12 -4.36779e+12 -7.85091e+12 -6.13343e+12 -6.58219e+12 -7.47733e+12 -8.58701e+12 -7.01536e+12 -8.86425e+12 -1.08625e+13 -1.10132e+13 -9.41979e+12 -8.84825e+12 -6.30861e+12 -1.60775e+13 -9.2906e+12 -4.78632e+12 -8.39645e+12 -1.1444e+13 -1.21903e+13 -1.25039e+13 -6.22683e+12 -4.60771e+12 -6.74812e+12 -9.37309e+12 -9.084e+12 -7.69457e+12 -5.97365e+12 -1.19185e+13 -4.89826e+12 -9.2283e+12 -5.34769e+12 -1.08337e+13 -1.19735e+13 -7.6276e+12 -1.06857e+13 -8.83783e+12 -8.19289e+12 -1.10402e+13 -1.3654e+13 -8.18748e+12 -6.73452e+12 -7.11693e+12 -1.33355e+13 -1.07439e+13 -5.38282e+12 -8.0357e+12 -2.80868e+12 -4.02593e+12 -4.67592e+12 -9.41745e+12 -5.73645e+12 -1.01233e+13 -3.40033e+12 -5.85195e+12 -6.3677e+12 -5.01195e+12 -5.82494e+12 -5.2508e+12 -6.47682e+12 -9.0146e+12 -7.67081e+12 -9.67462e+12 -8.2385e+12 -6.03728e+12 -2.88362e+12 -6.57373e+12 -5.88052e+12 -1.37507e+13 -9.32473e+12 -6.02994e+12 -9.13924e+12 -8.87924e+12 -8.48765e+12 -5.39488e+12 -4.6355e+12 -9.79967e+12 -8.89329e+12 -1.14707e+13 -1.07973e+13 -7.75942e+12 -7.45973e+12 -8.8767e+12 -4.84916e+12 -7.63959e+12 -3.40466e+12 -8.02852e+12 -7.65954e+12 -7.26942e+12 -9.67936e+12 -6.54059e+12 -1.168e+13 -5.44819e+12 -1.1344e+13 -5.6415e+12 -9.64432e+12 -9.41399e+12 -8.35648e+12 -7.14887e+12 -9.63245e+12 -7.12874e+12 -4.35755e+12 -3.123e+12 -1.45099e+13 -6.07974e+12 -5.87877e+12 -1.0005e+13 -8.6558e+12 -6.25785e+12 -4.51294e+12 -7.36713e+12 -9.5406e+12 -6.64952e+12 -5.7711e+12 -7.26319e+12 -5.84186e+12 -7.63619e+12 -5.04323e+12 -4.89829e+12 -7.6448e+12 -8.32168e+12 -4.81824e+12 -4.20189e+12 -7.74973e+12 -5.20792e+12 -7.31453e+12 -8.01463e+12 -4.75111e+12 -4.81131e+12 -1.1248e+13 -9.19216e+12 -1.08222e+13 -8.15559e+12 -6.75822e+12 -1.2772e+13 -8.24841e+12 -7.11645e+12 -6.85169e+12 -1.03379e+13 -8.53181e+12 -5.84216e+12 -5.5678e+12 -8.7681e+12 -1.01528e+13 -6.63736e+12 -3.94829e+12 -4.9482e+12 -1.03e+13 -1.28432e+13 -5.62525e+12 -7.61384e+12 -1.18944e+13 -1.24883e+13 -6.79915e+12 -5.12466e+12 -6.97342e+12 -8.70486e+12 -8.34454e+12 -8.66502e+12 -9.78674e+12 -5.90207e+12 -5.97051e+12 -7.26185e+12 -4.82414e+12 -4.44912e+12 -6.34437e+12 -6.47228e+12 -5.85984e+12 -9.22579e+12 -6.60876e+12 -8.28792e+12 -5.99864e+12 -7.70811e+12 -8.30011e+12 -1.08499e+13 -1.23592e+13 -5.77094e+12 -1.20878e+13 -4.82747e+12 -4.28361e+12 -7.51534e+12 -6.22765e+12 -5.9099e+12 -7.31829e+12 -8.53391e+12 -1.14623e+13 -3.97764e+12 -5.67632e+12 -1.00879e+13 -9.09746e+12 -7.56335e+12 -7.44873e+12 -4.94425e+12 -7.39045e+12 -1.14557e+13 -6.94995e+12 -1.03418e+13 -5.12866e+12 -7.9783e+12 -9.55411e+12 -8.66154e+12 -5.95803e+12 -5.77302e+12 -8.33207e+12 -2.91062e+12 -5.29859e+12 -8.85981e+12 -5.24679e+12 -5.9233e+12 -2.77188e+12 -7.90263e+12 -5.85758e+12 -5.3445e+12 -6.26821e+12 -1.0868e+13 -8.75012e+12 -3.98127e+12 -7.54535e+12 -9.81231e+12 -1.11874e+13 -4.97195e+12 -4.3882e+12 -5.59676e+12 -7.02332e+12 -5.21706e+12 -4.08884e+12 -5.73773e+12 -6.79086e+12 -5.68946e+12 -4.36553e+12 -4.89618e+12 -7.64799e+12 -5.60131e+12 -1.01583e+13 -8.55237e+12 -6.27278e+12 -5.59002e+12 -5.41061e+12 -8.25578e+12 -6.82573e+12 -3.62474e+12 -8.82571e+12 -6.64076e+12 -2.95536e+12 -1.07971e+13 -2.00498e+12 -3.1733e+12 -7.54936e+12 -1.18417e+13 -8.64402e+12 -1.05511e+13 -9.24018e+12 -8.01198e+12 -5.48009e+12 -7.77092e+12 -1.00185e+13 -8.99963e+12 -1.39015e+13 -6.35121e+12 -2.63835e+12 -4.85467e+12 -7.48981e+12 -1.06934e+13 -4.2871e+12 -7.99214e+12 -6.50284e+12 -3.71651e+12 -1.05896e+13 -7.70543e+12 -6.1051e+12 -4.61574e+12 -7.76931e+12 -1.03928e+13 -9.98144e+12 -1.04621e+13 -8.18213e+12 -5.59637e+12 -9.12226e+12 -9.19683e+12 -9.26382e+12 -6.97768e+12 -6.82976e+12 -9.85057e+12 -1.13291e+13 -9.33767e+12 -8.85102e+12 -8.05922e+12 -9.46282e+12 -5.33627e+12 -6.02662e+12 -8.02926e+12 -4.18133e+12 -7.83024e+12 -8.95367e+12 -5.64543e+12 -6.99728e+12 -7.36149e+12 -1.13007e+13 -8.21877e+12 -7.41765e+12 -9.30774e+12 -6.47075e+12 -5.98339e+12 -9.61345e+12 -7.10894e+12 -5.74442e+12 -7.08616e+12 -4.04373e+12 -4.65839e+12 -6.08138e+12 -7.52937e+12 -5.30201e+12 -7.5521e+12 -5.76048e+12 -1.31026e+13 -7.89594e+12 -6.1823e+12 -6.652e+12 -5.72311e+12 -6.38172e+12 -7.63402e+12 -6.63756e+12 -7.97983e+12 -1.05306e+13 -4.41283e+12 -6.24139e+12 -7.4269e+12 -4.74836e+12 -9.20353e+12 -4.66078e+12 -6.94194e+12 -6.72793e+12 -8.43523e+12 -7.99756e+12 -4.13809e+12 -6.93559e+12 -8.20762e+12 -7.61098e+12 -6.95971e+12 -2.98736e+12 -7.08369e+12 -7.91769e+12 -5.78677e+12 -5.03206e+12 -5.3936e+12 -3.20392e+12 -5.43026e+12 -2.86981e+12 -7.81811e+12 -6.76481e+12 -3.32315e+12 -3.61342e+12 -4.81371e+12 -5.72276e+12 -3.29631e+12 -8.00142e+12 -7.17816e+12 -8.46915e+12 -5.60763e+12 -6.94141e+12 -1.09929e+13 -8.89826e+12 -5.21051e+12 -6.35857e+12 -1.10176e+13 -7.79647e+12 -9.64897e+12 -6.52155e+12 -7.8387e+12 -2.76494e+12 -1.04983e+13 -7.83066e+12 -7.30099e+12 -1.11692e+13 -6.40455e+12 -7.57041e+12 -5.04028e+12 -1.17691e+13 -9.84909e+12 -1.25396e+13 -8.69706e+12 -7.50899e+12 -8.87987e+12 -5.08334e+12 -9.44963e+12 -1.22726e+13 -8.47608e+12 -7.27654e+12 -7.52698e+12 -7.51615e+12 -9.22786e+12 -7.3697e+12 -5.14413e+12 -9.91811e+12 -9.179e+12 -5.54635e+12 -5.62818e+12 -8.05759e+12 -4.66018e+12 -8.05352e+12 -7.63276e+12 -8.72721e+12 -1.10728e+13 -1.06349e+13 -3.59473e+12 -6.25793e+12 -6.58924e+12 -8.03358e+12 -1.04502e+13 -5.4513e+12 -7.44021e+12 -8.99546e+12 -8.20579e+12 -9.65662e+12 -7.91077e+12 -6.05302e+12 -8.45888e+12 -6.56384e+12 -5.33635e+12 -9.3103e+12 -9.8818e+12 -6.68034e+12 -7.90064e+12 -3.33675e+12 -7.7471e+12 -7.02013e+12 -6.08055e+12 -4.85898e+12 -7.09876e+12 -4.05827e+12 -7.65107e+12 -7.30271e+12 -6.31522e+12 -1.2237e+13 -8.20931e+12 -7.42762e+12 -1.09952e+13 -5.73608e+12 -6.40287e+12 -4.7817e+12 -4.24341e+12 -6.94866e+12 -9.84312e+12 -6.9879e+12 -3.98117e+12 -9.94752e+12 -1.00826e+13 -5.3731e+12 -4.49775e+12 -9.1894e+12 -8.37205e+12 -6.58962e+12 -6.06508e+12 -4.14528e+12 -7.19192e+12 -4.75881e+12 -4.36147e+12 -7.92155e+12 -4.73923e+12 -1.07318e+13 -5.45236e+12 -6.29678e+12 -8.44851e+12 -9.5159e+12 -5.22424e+12 -9.36417e+12 -9.53168e+12 -5.64949e+12 -3.41397e+12 -8.48149e+12 -5.3155e+12 -5.50253e+12 -8.95317e+12 -5.8315e+12 -1.13214e+13 -6.47518e+12 -4.09252e+12 -8.44968e+12 -7.18556e+12 -6.43988e+12 -6.71155e+12 -6.51615e+12 -1.01744e+13 -6.82894e+12 -7.24909e+12 -9.23782e+12 -6.22014e+12 -6.94855e+12 -6.87806e+12 -7.97324e+12 -9.07892e+12 -7.53909e+12 -8.25001e+12 -5.35704e+12 -8.30901e+12 -1.30804e+13 -4.74101e+12 -6.69933e+12 -1.17391e+13 -8.24765e+12 -9.566e+12 -7.97477e+12 -1.19425e+13 -8.99667e+12 -2.61682e+12 -9.23941e+12 -9.54263e+12 -9.26062e+12 -1.19216e+13 -8.62943e+12 -6.32503e+12 -7.15318e+12 -7.6784e+12 -7.81666e+12 -8.07985e+12 -7.80221e+12 -6.93721e+12 -4.76008e+12 -9.68917e+12 -7.82301e+12 -8.29736e+12 -4.5184e+12 -3.705e+12 -8.28505e+12 -5.37048e+12 -2.87581e+12 -6.17167e+12 -2.76549e+12 -8.67317e+12 -8.10793e+12 -8.47139e+12 -7.19736e+12 -5.32052e+12 -6.78929e+12 -6.16195e+12 -1.3263e+13 -4.66629e+12 -1.02909e+13 -1.46089e+13 -6.13819e+12 -5.12769e+12 -4.92052e+12 -6.38736e+12 -4.61107e+12 -7.80776e+12 -9.95002e+12 -1.17293e+13 -6.76135e+12 -5.11307e+12 -6.07804e+12 -5.21223e+12 -9.79993e+12 -7.62391e+12 -2.6868e+12 -6.52647e+12 -9.28789e+12 -1.19148e+13 -3.79585e+12 -8.39021e+12 -8.35871e+12 -3.18733e+12 -7.94981e+12 -6.24298e+12 -5.30543e+12 -7.75432e+12 -6.45583e+12 -5.19507e+12 -9.83918e+12 -8.22699e+12 -4.21759e+12 -5.87524e+12 -1.24925e+13 -1.06179e+13 -5.99604e+12 -5.88849e+12 -4.41018e+12 -6.28283e+12 -7.34512e+12 -1.07116e+13 -3.82593e+12 -5.68755e+12 -4.47673e+12 -3.38352e+12 -7.12826e+12 -7.03715e+12 -7.32276e+12 -9.18356e+12 -7.00388e+12 -7.1307e+12 -8.86258e+12 -5.23267e+12 -7.33538e+12 -5.8563e+12 -3.36163e+12 -5.4772e+12 -2.05365e+12 -7.33718e+12 -7.68281e+12 -4.80363e+12 -6.82657e+12 -8.64272e+12 -1.18263e+13 -3.45124e+12 -4.53359e+12 -3.52839e+12 -6.47338e+12 -5.8264e+12 -7.856e+12 -4.99809e+12 -7.09139e+12 -4.06845e+12 -5.92067e+12 -8.80878e+12 -4.11707e+12 -6.38966e+12 -7.59692e+12 -1.13567e+13 -5.61498e+12 -9.65111e+12 -4.57297e+12 -6.39141e+12 -4.21393e+12 -7.23398e+12 -4.88922e+12 -7.22912e+12 -1.02865e+13 -1.12057e+13 -4.47176e+12 -6.24364e+12 -7.86673e+12 -7.34074e+12 -7.51925e+12 -5.69591e+12 -3.60455e+12 -1.08688e+13 -8.94673e+12 -6.24104e+12 -5.38613e+12 -4.12805e+12 -1.12419e+13 -6.78349e+12 -1.40428e+13 -7.76811e+12 -1.11719e+13 -9.47065e+12 -6.63097e+12 -8.08603e+12 -1.27888e+13 -6.26932e+12 -9.79866e+12 -7.74145e+12 -1.00654e+13 -6.8717e+12 -1.02828e+13 -6.02508e+12 -7.09647e+12 -4.96041e+12 -6.86316e+12 -5.17658e+12 -4.16238e+12 -5.56889e+12 -5.92642e+12 -5.12697e+12 -4.56073e+12 -6.31635e+12 -6.67367e+12 -6.82228e+12 -7.3141e+12 -1.36165e+13 -9.04396e+12 -4.46222e+12 -6.555e+12 -8.15642e+12 -1.58971e+13 -8.54859e+12 -5.36889e+12 -1.06374e+13 -8.10703e+12 -1.00218e+13 -6.71149e+12 -9.93121e+12 -7.27828e+12 -7.46744e+12 -8.09414e+12 -9.20583e+12 -9.61415e+12 -6.80592e+12 -1.51459e+13 -1.15927e+13 -5.78462e+12 -9.222e+12 -7.9405e+12 -4.915e+12 -7.75061e+12 -1.03445e+13 -9.76298e+12 -7.3213e+12 -9.48545e+12 -6.48837e+12 -7.33572e+12 -7.46783e+12 -4.27404e+12 -6.23646e+12 -9.68956e+12 -5.27296e+12 -9.25633e+12 -8.08242e+12 -9.47071e+12 -7.17634e+12 -4.79404e+12 -5.93144e+12 -4.24506e+12 -6.50447e+12 -5.76775e+12 -9.44334e+12 -6.99237e+12 -4.28526e+12 -5.36607e+12 -5.41868e+12 -6.08779e+12 -3.94734e+12 -7.07591e+12 -8.25452e+12 -6.37343e+12 -8.49315e+12 -5.14346e+12 -9.25995e+12 -6.48409e+12 -7.74702e+12 -6.07871e+12 -6.21395e+12 -5.18797e+12 -7.51171e+12 -6.37074e+12 -6.63371e+12 -7.19972e+12 -4.35185e+12 -6.31575e+12 -3.92102e+12 -5.16512e+12 -3.62964e+12 -6.12696e+12 -8.83752e+12 -6.86795e+12 -4.08995e+12 -5.42727e+12 -5.57596e+12 -7.15745e+12 -4.09284e+12 -7.61939e+12 -5.18579e+12 -3.89431e+12 -6.4773e+12 -3.90214e+12 -5.97159e+12 -8.30662e+12 -1.04884e+13 -9.83913e+12 -9.70767e+12 -8.4592e+12 -1.01817e+13 -2.76001e+12 -5.89841e+12 -9.44001e+12 -1.02346e+13 -7.92586e+12 -1.01506e+13 -5.13068e+12 -6.69599e+12 -5.89774e+12 -6.45221e+12 -6.26654e+12 -4.0854e+12 -6.30488e+12 -7.90757e+12 -6.1154e+12 -6.52884e+12 -6.19737e+12 -7.08514e+12 -4.46114e+12 -4.33661e+12 -4.82607e+12 -7.08487e+12 -8.62489e+12 -5.43218e+12 -6.69467e+12 -9.08477e+12 -7.15687e+12 -9.8168e+12 -5.31415e+12 -1.09477e+13 -8.72994e+12 -7.27074e+12 -6.12629e+12 -6.00359e+12 -6.37968e+12 -8.37048e+12 -8.65787e+12 -6.09487e+12 -4.36e+12 -5.73969e+12 -6.71252e+12 -5.69794e+12 -4.21166e+12 -7.04556e+12 -6.10665e+12 -5.06286e+12 -6.55474e+12 -2.79026e+12 -1.05128e+13 -7.72917e+12 -9.52214e+12 -7.52911e+12 -1.88966e+13 -1.18274e+13 -6.62947e+12 -7.18555e+12 -1.04167e+13 -9.22077e+12 -1.01404e+13 -6.8297e+12 -5.90268e+12 -7.41534e+12 -5.23934e+12 -8.16622e+12 -6.69163e+12 -8.45757e+12 -5.61687e+12 -1.12586e+13 -5.26194e+12 -5.69196e+12 -7.56108e+12 -6.14344e+12 -9.79602e+12 -4.6906e+12 -7.24321e+12 -5.92142e+12 -6.41442e+12 -5.96264e+12 -7.8087e+12 -9.23e+12 -5.36974e+12 -5.50509e+12 -6.47841e+12 -5.34717e+12 -8.59584e+12 -6.90103e+12 -4.84026e+12 -8.0496e+12 -2.91435e+12 -6.17493e+12 -5.71213e+12 -3.95256e+12 -4.68598e+12 -4.65737e+12 -5.69759e+12 -5.84023e+12 -5.7452e+12 -3.87003e+12 -5.22996e+12 -3.80332e+12 -4.35137e+12 -1.02732e+13 -6.64798e+12 -8.52412e+12 -6.37553e+12 -6.90088e+12 -4.7614e+12 -6.84238e+12 -5.65899e+12 -3.21087e+12 -7.38631e+12 -4.06772e+12 -7.48589e+12 -6.59022e+12 -7.23469e+12 -6.23595e+12 -5.58361e+12 -6.73137e+12 -5.94268e+12 -5.87729e+12 -5.36843e+12 -5.42684e+12 -3.12193e+12 -7.77036e+12 -7.94661e+12 -3.76713e+12 -7.77263e+12 -6.31414e+12 -9.33863e+12 -4.69199e+12 -6.50489e+12 -2.27715e+12 -5.47347e+12 -3.90786e+12 -8.21928e+12 -2.89696e+12 -1.02764e+13 -3.7654e+12 -4.70915e+12 -6.53941e+12 -6.17684e+12 -5.49756e+12 -4.92052e+12 -5.27162e+12 -1.30239e+13 -8.80611e+12 -4.93375e+12 -8.09085e+12 -4.19273e+12 -4.35614e+12 -7.53477e+12 -9.65292e+12 -1.30467e+13 -5.21372e+12 -3.76081e+12 -6.01358e+12 -3.12684e+12 -6.0318e+12 -5.22768e+12 -7.81823e+12 -8.48144e+12 -8.94988e+12 -7.18013e+12 -8.63707e+12 -3.08939e+12 -6.22514e+12 -9.80087e+12 -5.27551e+12 -8.90743e+12 -7.85684e+12 -5.15574e+12 -7.72132e+12 -1.3356e+13 -7.20676e+12 -7.6726e+12 -7.16323e+12 -1.00911e+13 -7.9472e+12 -1.06566e+13 -1.00031e+13 -3.44373e+12 -5.14199e+12 -8.81448e+12 -5.28471e+12 -4.4765e+12 -5.52269e+12 -6.56419e+12 -4.71879e+12 -1.0766e+13 -7.01494e+12 -8.7668e+12 -5.10696e+12 -5.03811e+12 -7.5902e+12 -8.45542e+12 -3.95066e+12 -8.07459e+12 -1.36841e+13 -7.01796e+12 -6.20107e+12 -6.14261e+12 -8.19893e+12 -7.02869e+12 -3.527e+12 -5.91829e+12 -7.13447e+12 -7.53977e+12 -4.57326e+12 -5.39666e+12 -6.8289e+12 -6.2648e+12 -4.85938e+12 -6.89241e+12 -4.9061e+12 -1.7393e+12 -7.58854e+12 -3.99532e+12 -1.12809e+13 -9.94167e+12 -4.43716e+12 -6.28156e+12 -6.67982e+12 -9.24102e+12 -5.65311e+12 -1.04832e+13 -4.33937e+12 -3.09378e+12 -5.92737e+12 -6.27386e+12 -1.04209e+12 -5.38731e+12 -9.58947e+12 -8.25313e+12 -3.42586e+12 -5.89538e+12 -6.81628e+12 -4.9276e+12 -6.19673e+12 -1.06807e+13 -2.20574e+12 -6.20195e+12 -4.64301e+12 -5.47751e+12 -5.57225e+12 -6.785e+12 -5.33073e+12 -6.116e+12 -6.19619e+12 -5.16544e+12 -4.75165e+12 -4.75073e+12 -4.47479e+12 -5.12793e+12 -4.42387e+12 -6.164e+12 -8.20251e+12 -6.0536e+12 -4.93213e+12 -5.4771e+12 -7.40916e+12 -6.0396e+12 -3.77498e+12 -3.29039e+12 -3.11072e+12 -4.07304e+12 -8.6145e+12 -2.86314e+12 -5.94163e+12 -2.4014e+12 -4.79276e+12 -4.64834e+12 -3.72547e+12 -5.51272e+12 -7.85091e+12 -7.53954e+12 -5.64916e+12 -5.86693e+12 -6.47681e+12 -7.24473e+12 -3.85622e+12 -5.79215e+12 -6.90189e+12 -8.06959e+12 -4.07122e+12 -4.09648e+12 -3.88662e+12 -7.41361e+12 -5.46319e+12 -7.43366e+12 -7.47059e+12 -6.5443e+12 -7.06236e+12 -7.31764e+12 -7.86468e+12 -6.64237e+12 -4.75817e+12 -4.08302e+12 -3.33769e+12 -4.86935e+12 -5.73533e+12 -1.01051e+13 -6.724e+12 -9.94815e+12 -4.34204e+12 -7.43893e+12 -1.27436e+13 -8.26957e+12 -4.61707e+12 -8.17677e+12 -1.39397e+13 -5.84737e+12 -1.10649e+13 -4.01051e+12 -7.22527e+12 -6.53408e+12 -7.69886e+12 -4.51077e+12 -6.24722e+12 -5.94255e+12 -5.11144e+12 -6.58988e+12 -6.42984e+12 -5.6729e+12 -4.48528e+12 -8.85715e+12 -5.9512e+12 -1.12107e+13 -9.39927e+12 -6.67245e+12 -1.21898e+13 -9.07769e+12 -5.86993e+12 -6.94205e+12 -4.8616e+12 -3.63162e+12 -5.88008e+12 -5.12881e+12 -6.85168e+12 -4.72513e+12 -7.55495e+12 -6.57222e+12 -9.19944e+12 -5.7163e+12 -8.5058e+12 -1.03728e+13 -6.13874e+12 -3.79803e+12 -6.99864e+12 -4.49394e+12 -8.5013e+12 -6.60243e+12 -5.66982e+12 -3.93447e+12 -7.53717e+12 -7.29259e+12 -6.0593e+12 -5.02711e+12 -3.80678e+12 -4.01768e+12 -7.24277e+12 -7.35514e+12 -6.04519e+12 -6.85704e+12 -9.48971e+12 -7.27337e+12 -4.69458e+12 -2.24066e+12 -8.86817e+12 -2.42039e+12 -3.97809e+12 -6.62571e+12 -5.28803e+12 -9.60317e+12 -6.68564e+12 -4.83455e+12 -4.18094e+12 -3.76832e+12 -5.75074e+12 -2.83671e+12 -7.97615e+12 -6.42127e+12 -6.6433e+12 -7.37491e+12 -5.00081e+12 -5.14098e+12 -3.40543e+12 -5.17911e+12 -7.20233e+12 -8.08323e+12 -7.19771e+12 -9.24458e+12 -5.36165e+12 -2.02455e+12 -4.08735e+12 -6.27772e+12 -5.82594e+12 -3.60647e+12 -5.11627e+12 -6.52677e+12 -5.17625e+12 -3.21935e+12 -3.71017e+12 -5.56454e+12 -4.94468e+12 -6.28746e+12 -3.23468e+12 -4.97078e+12 -7.10922e+12 -4.62681e+12 -6.64666e+12 -5.17059e+12 -5.73021e+12 -2.64216e+12 -4.49284e+12 -4.51624e+12 -8.82204e+12 -5.90504e+12 -4.83807e+12 -4.61745e+12 -4.48639e+12 -5.06207e+12 -5.57147e+12 -4.0468e+12 -5.24812e+12 -5.36847e+12 -6.19673e+12 -4.45369e+12 -4.29157e+12 -4.91294e+12 -3.25747e+12 -5.89778e+12 -6.80052e+12 -5.16669e+12 -2.19519e+12 -4.25631e+12 -7.06583e+12 -3.42536e+12 -6.81689e+12 -6.33325e+12 -8.44712e+12 -1.15149e+13 -5.73102e+12 -5.50436e+12 -8.34281e+12 -7.05358e+12 -9.22665e+12 -7.87361e+12 -1.17271e+13 -4.69384e+12 -5.97246e+12 -7.50867e+12 -5.63703e+12 -5.60275e+12 -8.69425e+12 -1.26605e+13 -9.14866e+12 -4.05388e+12 -4.06853e+12 -8.22931e+12 -4.11206e+12 -9.36221e+12 -6.84371e+12 -3.87869e+12 -5.26551e+12 -5.91902e+12 -9.28798e+12 -8.63392e+12 -7.51616e+12 -9.57764e+12 -5.48609e+12 -8.23473e+12 -5.75824e+12 -5.33002e+12 -6.59748e+12 -4.75953e+12 -5.14506e+12 -1.013e+13 -4.5464e+12 -7.24349e+12 -8.79393e+12 -1.25319e+13 -7.21479e+12 -1.32937e+13 -6.94561e+12 -6.91293e+12 -5.84705e+12 -5.95212e+12 -4.27231e+12 -7.13245e+12 -4.83638e+12 -3.61401e+12 -5.35785e+12 -5.844e+12 -6.06911e+12 -6.28406e+12 -3.70801e+12 -4.6407e+12 -4.43747e+12 -4.01231e+12 -4.32088e+12 -7.76982e+12 -7.34477e+12 -8.3594e+12 -9.20951e+12 -4.90004e+12 -7.10191e+12 -7.19904e+12 -4.62314e+12 -5.94018e+12 -4.94694e+12 -5.93041e+12 -5.07684e+12 -3.70465e+12 -6.09798e+12 -4.55105e+12 -6.81537e+12 -4.33503e+12 -6.52055e+12 -6.39668e+12 -3.33897e+12 -6.60251e+12 -4.93274e+12 -8.20904e+12 -8.59673e+12 -1.16554e+13 -5.79608e+12 -1.00165e+13 -6.91777e+12 -8.16033e+12 -1.0203e+13 -3.11636e+12 -3.68056e+12 -6.08449e+12 -5.61983e+12 -5.28358e+12 -5.04576e+12 -6.20647e+12 -1.60851e+12 -5.2066e+12 -8.22201e+12 -3.83152e+12 -6.18094e+12 -6.89326e+12 -5.24292e+12 -4.42948e+12 -5.07402e+12 -5.59612e+12 -5.8956e+12 -7.52219e+12 -5.93081e+12 -8.45054e+12 -5.29882e+12 -4.46326e+12 -7.2025e+12 -3.78117e+12 -6.01125e+12 -5.91638e+12 -5.76609e+12 -5.74081e+12 -3.50921e+12 -3.65431e+12 -2.81667e+12 -5.44298e+12 -5.20916e+12 -5.76532e+12 -4.34131e+12 -2.55139e+12 -5.24661e+12 -5.78795e+12 -5.45546e+12 -5.54227e+12 -5.42942e+12 -5.3398e+12 -4.96591e+12 -6.33601e+12 -2.99716e+12 -4.20435e+12 -5.73039e+12 -5.62295e+12 -6.87796e+12 -4.86532e+12 -6.75187e+12 -8.46344e+12 -4.81725e+12 -4.91004e+12 -3.85169e+12 -6.82945e+12 -4.81306e+12 -6.15747e+12 -3.75567e+12 -9.89675e+12 -4.1856e+12 -3.9234e+12 -6.18801e+12 -5.82716e+12 -3.74486e+12 -4.64584e+12 -6.66735e+12 -8.62442e+12 -5.91857e+12 -5.6795e+12 -3.22724e+12 -3.69956e+12 -7.95637e+12 -4.29014e+12 -4.80093e+12 -3.19271e+12 -9.37734e+12 -5.04238e+12 -4.7172e+12 -6.96237e+12 -6.3006e+12 -5.5248e+12 -4.51338e+12 -5.93543e+12 -4.25228e+12 -4.75081e+12 -6.2387e+12 -7.05876e+12 -7.06572e+12 -6.69933e+12 -5.87654e+12 -8.70683e+12 -7.96992e+12 -6.59606e+12 -8.33985e+12 -1.19585e+13 -9.25814e+12 -6.03162e+12 -6.79131e+12 -1.01499e+13 -5.3334e+12 -5.43325e+12 -6.49017e+12 -6.20764e+12 -5.73642e+12 -1.07074e+13 -7.27508e+12 -4.85577e+12 -5.59339e+12 -8.75397e+12 -5.78379e+12 -9.46596e+12 -5.4858e+12 -7.13261e+12 -5.67828e+12 -3.37478e+12 -5.14963e+12 -3.81281e+12 -2.62335e+12 -6.0344e+12 -6.41411e+12 -7.59917e+12 -6.69486e+12 -5.40697e+12 -3.94183e+12 -9.98954e+12 -7.58782e+12 -8.25361e+12 -7.17434e+12 -5.86048e+12 -9.10252e+12 -6.36645e+12 -7.54149e+12 -6.89129e+12 -7.52528e+12 -5.0461e+12 -5.56361e+12 -6.78857e+12 -5.58778e+12 -5.3163e+12 -9.84169e+12 -5.5897e+12 -7.68929e+12 -6.74944e+12 -5.80527e+12 -4.64759e+12 -1.13793e+13 -5.61299e+12 -5.51082e+12 -8.26016e+12 -8.00965e+12 -5.08609e+12 -2.94782e+12 -8.48427e+12 -6.08231e+12 -4.95144e+12 -5.25689e+12 -4.58378e+12 -7.03687e+12 -3.31725e+12 -7.13251e+12 -4.85328e+12 -5.83479e+12 -3.95912e+12 -4.17489e+12 -5.48551e+12 -4.61319e+12 -6.38434e+12 -5.04255e+12 -5.32936e+12 -8.58471e+12 -5.71045e+12 -5.00055e+12 -3.23723e+12 -3.94912e+12 -2.6309e+12 -4.53708e+12 -5.46133e+12 -3.55903e+12 -3.38971e+12 -4.74746e+12 -4.91783e+12 -4.15791e+12 -5.16669e+12 -7.15401e+12 -4.56006e+12 -2.54583e+12 -3.58535e+12 -3.48137e+12 -3.66169e+12 -7.14119e+12 -3.41717e+12 -5.18529e+12 -8.72379e+12 -4.01643e+12 -6.2358e+12 -5.51077e+12 -6.98122e+12 -5.75312e+12 -5.15682e+12 -5.07684e+12 -3.00786e+12 -6.30749e+12 -7.94361e+12 -6.39821e+12 -5.44169e+12 -7.58755e+12 -9.73206e+12 -4.49952e+12 -6.81349e+12 -5.69173e+12 -4.07562e+12 -5.22034e+12 -9.13549e+12 -5.82331e+12 -4.99981e+12 -7.17107e+12 -6.1994e+12 -5.12296e+12 -5.54192e+12 -8.61048e+12 -8.22187e+12 -6.59261e+12 -4.69532e+12 -6.30688e+12 -6.08403e+12 -5.36966e+12 -6.72341e+12 -6.03622e+12 -4.59512e+12 -7.56866e+12 -7.9988e+12 -7.00945e+12 -4.90014e+12 -5.88572e+12 -2.43605e+12 -8.00896e+12 -3.89165e+12 -1.05189e+13 -5.68279e+12 -6.79591e+12 -4.73294e+12 -8.89131e+12 -9.76796e+12 -1.50814e+13 -8.23592e+12 -8.44005e+12 -1.1144e+13 -7.79236e+12 -1.00376e+13 -9.2828e+12 -7.30084e+12 -8.08618e+12 -5.1263e+12 -1.23913e+13 -6.44427e+12 -6.09729e+12 -8.9082e+12 -7.40815e+12 -4.64851e+12 -7.99141e+12 -4.96961e+12 -7.11605e+12 -5.79978e+12 -5.75601e+12 -1.00016e+13 -5.10812e+12 -9.42933e+12 -9.46359e+12 -6.33317e+12 -7.08888e+12 -6.43721e+12 -5.29284e+12 -5.5293e+12 -5.62369e+12 -4.3596e+12 -5.74396e+12 -7.63584e+12 -5.95999e+12 -8.46608e+12 -3.19397e+12 -4.53633e+12 -5.71899e+12 -6.53539e+12 -7.77598e+12 -3.22371e+12 -9.60473e+12 -6.08507e+12 -4.89256e+12 -3.47544e+12 -6.91423e+12 -1.12139e+13 -6.48496e+12 -7.33421e+12 -6.90065e+12 -6.16253e+12 -6.8244e+12 -8.04968e+12 -3.0895e+12 -2.64497e+12 -5.38588e+12 -5.3507e+12 -4.89586e+12 -2.7998e+12 -3.22526e+12 -3.33526e+12 -5.93874e+12 -5.80389e+12 -5.07284e+12 -7.20301e+12 -2.46729e+12 -5.04219e+12 -4.03837e+12 -3.86253e+12 -5.53507e+12 -3.3902e+12 -4.67295e+12 -3.20939e+12 -4.04949e+12 -5.4596e+12 -2.80054e+12 -3.34569e+12 -5.10921e+12 -4.94906e+12 -5.86193e+12 -3.88465e+12 -5.24351e+12 -3.67828e+12 -4.98453e+12 -5.7139e+12 -2.9823e+12 -5.93654e+12 -5.37003e+12 -6.46107e+12 -5.81198e+12 -4.86005e+12 -1.93662e+12 -4.16523e+12 -2.92959e+12 -3.18986e+12 -4.09935e+12 -5.68799e+12 -6.24355e+12 -5.25362e+12 -4.54192e+12 -3.5546e+12 -3.03127e+12 -5.89308e+12 -5.89978e+12 -3.74225e+12 -7.73294e+12 -7.50101e+12 -4.32597e+12 -4.41185e+12 -2.89156e+12 -1.95937e+12 -3.39576e+12 -5.71634e+12 -6.3056e+12 -4.20706e+12 -7.50633e+12 -6.07442e+12 -4.75082e+12 -7.89129e+12 -4.13599e+12 -6.08023e+12 -2.93425e+12 -4.32434e+12 -5.77062e+12 -3.50635e+12 -1.00202e+13 -6.43795e+12 -6.15477e+12 -7.72866e+12 -6.01589e+12 -2.72947e+12 -6.2533e+12 -3.93261e+12 -5.85843e+12 -7.54093e+12 -4.81268e+12 -4.83969e+12 -8.7325e+12 -5.70934e+12 -6.44431e+12 -6.9365e+12 -7.53078e+12 -6.83149e+12 -6.1621e+12 -6.74693e+12 -6.07745e+12 -7.92201e+12 -6.34077e+12 -6.08919e+12 -4.64507e+12 -6.99291e+12 -3.62359e+12 -1.17575e+13 -5.50549e+12 -6.07678e+12 -7.52995e+12 -6.46848e+12 -8.08275e+12 -9.18049e+12 -6.24745e+12 -6.90311e+12 -5.08194e+12 -4.23788e+12 -2.85799e+12 -7.04961e+12 -3.63193e+12 -5.03586e+12 -3.43288e+12 -4.05078e+12 -1.04215e+13 -4.77472e+12 -6.34946e+12 -4.95154e+12 -5.68093e+12 -9.19078e+12 -6.51031e+12 -7.11733e+12 -6.76602e+12 -1.05118e+13 -4.62266e+12 -2.86265e+12 -5.09722e+12 -7.15512e+12 -4.85029e+12 -4.77631e+12 -5.32546e+12 -7.14669e+12 -6.4205e+12 -5.10515e+12 -4.36513e+12 -4.83031e+12 -8.54355e+12 -3.67924e+12 -9.64964e+12 -2.52144e+12 -3.11352e+12 -4.17669e+12 -6.70283e+12 -4.90362e+12 -6.85091e+12 -4.16899e+12 -7.59645e+12 -7.08022e+12 -6.16815e+12 -4.98241e+12 -6.24908e+12 -4.27861e+12 -6.64688e+12 -9.38016e+12 -4.33291e+12 -6.37965e+12 -4.39406e+12 -3.0211e+12 -5.89817e+12 -6.03869e+12 -6.43045e+12 -4.16038e+12 -6.4623e+12 -4.73833e+12 -6.77396e+12 -6.67413e+12 -6.08515e+12 -3.50372e+12 -5.38141e+12 -5.34953e+12 -2.962e+12 -5.82041e+12 -4.12114e+12 -1.86107e+12 -3.64519e+12 -4.14404e+12 -2.38917e+12 -4.87118e+12 -4.78461e+12 -3.32283e+12 -3.54785e+12 -4.2382e+12 -3.36663e+12 -3.79892e+12 -3.46549e+12 -3.64494e+12 -3.27592e+12 -5.61401e+12 -4.49804e+12 -4.1326e+12 -3.58899e+12 -5.5388e+12 -3.57696e+12 -2.9031e+12 -4.71734e+12 -3.61813e+12 -3.38331e+12 -1.9531e+12 -2.57319e+12 -4.45959e+12 -7.65536e+12 -5.74483e+12 -8.35648e+12 -5.01563e+12 -7.73583e+12 -6.94805e+12 -8.12504e+12 -5.59773e+12 -6.29269e+12 -5.40732e+12 -5.72758e+12 -7.6781e+12 -7.443e+12 -4.81318e+12 -8.2409e+12 -7.23747e+12 -8.52095e+12 -5.87466e+12 -5.21878e+12 -4.07256e+12 -6.0761e+12 -4.58796e+12 -6.34756e+12 -7.3179e+12 -5.96398e+12 -7.64747e+12 -6.5846e+12 -957900000000.0 -7.08651e+12 -8.43023e+12 -5.64769e+12 -3.90531e+12 -7.55755e+12 -5.89667e+12 -5.99782e+12 -7.4803e+12 -5.27823e+12 -8.28808e+12 -5.25988e+12 -5.81262e+12 -8.02715e+12 -5.4378e+12 -6.91365e+12 -6.61996e+12 -5.56101e+12 -1.01217e+13 -1.19208e+13 -6.3927e+12 -7.34032e+12 -2.66337e+12 -4.53744e+12 -6.09529e+12 -9.4427e+12 -2.45258e+12 -3.2754e+12 -1.81137e+12 -4.87034e+12 -7.97781e+12 -3.76291e+12 -5.24273e+12 -3.18953e+12 -1.0795e+13 -4.2947e+12 -4.95552e+12 -4.52453e+12 -5.89742e+12 -5.42743e+12 -8.49274e+12 -4.02878e+12 -4.23344e+12 -7.52994e+12 -9.45982e+12 -4.93191e+12 -6.69228e+12 -4.46992e+12 -5.66683e+12 -8.03033e+12 -4.47101e+12 -4.03399e+12 -5.23971e+12 -5.49211e+12 -4.30294e+12 -6.56828e+12 -5.21273e+12 -4.59115e+12 -7.49726e+12 -6.76505e+12 -3.46854e+12 -5.65953e+12 -5.16597e+12 -4.56247e+12 -5.35569e+12 -7.09082e+12 -6.71904e+12 -3.96799e+12 -4.16409e+12 -6.02603e+12 -5.13264e+12 -4.73905e+12 -5.17829e+12 -5.57977e+12 -5.70745e+12 -5.11755e+12 -5.98895e+12 -2.05222e+12 -2.27157e+12 -6.78029e+12 -6.66691e+12 -7.46046e+12 -3.4741e+12 -3.66472e+12 -3.5015e+12 -3.47617e+12 -5.90681e+12 -5.80607e+12 -2.95479e+12 -5.91181e+12 -3.89024e+12 -5.29101e+12 -4.50287e+12 -4.69457e+12 -2.08943e+12 -2.48943e+12 -1.74897e+12 -4.11467e+12 -3.88804e+12 -3.53497e+12 -3.59237e+12 -4.77527e+12 -3.67774e+12 -3.63636e+12 -3.44321e+12 -3.10668e+12 -4.27356e+12 -2.34035e+12 -2.74406e+12 -1.93056e+12 -3.87903e+12 -3.72425e+12 -3.11447e+12 -5.31703e+12 -3.96882e+12 -2.82986e+12 -4.11128e+12 -6.2007e+12 -4.24947e+12 -4.15313e+12 -4.7231e+12 -4.05251e+12 -4.6569e+12 -2.34308e+12 -3.56984e+12 -4.05513e+12 -5.47609e+12 -4.09879e+12 -5.77299e+12 -6.23251e+12 -1.57005e+12 -4.24476e+12 -4.13578e+12 -3.55854e+12 -6.05406e+12 -3.89086e+12 -4.84582e+12 -6.64204e+12 -4.73283e+12 -6.63208e+12 -5.32967e+12 -3.76946e+12 -5.13967e+12 -6.74906e+12 -8.71133e+12 -4.4476e+12 -6.49765e+12 -3.84671e+12 -5.25919e+12 -5.26174e+12 -6.01854e+12 -5.74135e+12 -6.78486e+12 -6.66533e+12 -7.1989e+12 -5.7426e+12 -9.69115e+12 -7.33202e+12 -7.98336e+12 -3.20918e+12 -7.42256e+12 -6.08623e+12 -3.39568e+12 -5.29906e+12 -8.32152e+12 -6.87752e+12 -7.56203e+12 -4.32114e+12 -3.63297e+12 -5.25279e+12 -6.55358e+12 -4.43868e+12 -2.93034e+12 -5.54116e+12 -5.87064e+12 -8.82992e+12 -4.89351e+12 -5.37438e+12 -5.48517e+12 -4.47808e+12 -8.511e+12 -5.40536e+12 -6.02734e+12 -7.32815e+12 -5.21151e+12 -2.71453e+12 -3.88934e+12 -4.15783e+12 -4.25598e+12 -3.17631e+12 -6.8465e+12 -5.15112e+12 -5.78303e+12 -6.08622e+12 -5.59963e+12 -7.09553e+12 -7.00892e+12 -4.84266e+12 -4.73483e+12 -6.16346e+12 -4.40608e+12 -7.03687e+12 -4.88486e+12 -4.94777e+12 -4.82862e+12 -5.80944e+12 -3.47398e+12 -4.66326e+12 -6.00939e+12 -4.85301e+12 -4.79677e+12 -4.17161e+12 -2.03686e+12 -6.35621e+12 -4.86729e+12 -6.72822e+12 -9.2323e+12 -4.68949e+12 -5.15494e+12 -5.28402e+12 -5.3697e+12 -7.2652e+12 -7.04178e+12 -4.47092e+12 -7.39243e+12 -5.71617e+12 -3.86068e+12 -4.53538e+12 -6.31571e+12 -4.33058e+12 -3.23283e+12 -6.25086e+12 -5.01065e+12 -5.05404e+12 -3.40945e+12 -5.55332e+12 -6.31527e+12 -3.16389e+12 -3.70719e+12 -3.98856e+12 -2.64859e+12 -3.98e+12 -2.80282e+12 -5.73561e+12 -2.03878e+12 -3.46058e+12 -2.75948e+12 -3.50571e+12 -2.97614e+12 -4.07199e+12 -2.1431e+12 -1.85884e+12 -3.5571e+12 -3.05733e+12 -2.74324e+12 -4.09352e+12 -4.27839e+12 -3.23132e+12 -3.25242e+12 -2.73164e+12 -3.18395e+12 -3.66006e+12 -4.23577e+12 -6.67097e+12 -4.21457e+12 -4.62888e+12 -3.4533e+12 -2.35248e+12 -4.5677e+12 -4.94378e+12 -3.46473e+12 -3.60611e+12 -4.95427e+12 -3.8479e+12 -5.04642e+12 -2.79257e+12 -3.26851e+12 -3.39964e+12 -2.98046e+12 -2.95752e+12 -7.34471e+12 -4.3895e+12 -1.62199e+12 -3.17159e+12 -3.98788e+12 -2.41097e+12 -3.73782e+12 -3.25457e+12 -5.3132e+12 -4.41017e+12 -3.78277e+12 -7.80858e+12 -5.95406e+12 -4.20596e+12 -2.93858e+12 -2.86059e+12 -7.49716e+12 -6.79462e+12 -4.09801e+12 -2.87917e+12 -7.50399e+12 -7.16721e+12 -5.32455e+12 -5.98994e+12 -5.04188e+12 -5.48752e+12 -4.15757e+12 -5.37331e+12 -4.64666e+12 -5.89809e+12 -6.98349e+12 -6.04932e+12 -8.58447e+12 -7.6983e+12 -3.68827e+12 -7.28317e+12 -5.01798e+12 -6.39473e+12 -3.20859e+12 -3.51365e+12 -4.43465e+12 -3.61824e+12 -5.21553e+12 -6.70616e+12 -4.72176e+12 -7.17251e+12 -6.01326e+12 -5.71901e+12 -3.98248e+12 -4.74901e+12 -4.64819e+12 -8.92828e+12 -5.30161e+12 -4.9062e+12 -6.69973e+12 -3.07407e+12 -1.52448e+12 -8.029e+12 -5.33388e+12 -3.34445e+12 -6.94921e+12 -6.91976e+12 -7.44016e+12 -8.58904e+12 -4.30965e+12 -4.51523e+12 -8.82204e+12 -5.486e+12 -5.16403e+12 -4.33123e+12 -3.11652e+12 -5.26976e+12 -4.14993e+12 -5.63537e+12 -5.48215e+12 -4.28425e+12 -3.55431e+12 -7.37874e+12 -3.46533e+12 -2.03855e+12 -5.58954e+12 -4.04622e+12 -4.51055e+12 -5.19183e+12 -6.51774e+12 -6.00618e+12 -4.0557e+12 -5.69091e+12 -5.17541e+12 -3.46467e+12 -5.51215e+12 -4.18401e+12 -3.46092e+12 -4.5754e+12 -6.93447e+12 -4.65016e+12 -7.03387e+12 -6.36891e+12 -6.90515e+12 -4.54794e+12 -3.58332e+12 -1.39071e+12 -3.92895e+12 -3.38482e+12 -4.17635e+12 -6.45411e+12 -4.50484e+12 -4.9209e+12 -4.38889e+12 -2.54326e+12 -4.10267e+12 -3.70562e+12 -4.70075e+12 -4.40159e+12 -1.86374e+12 -3.18764e+12 -1.78217e+12 -3.90163e+12 -4.1146e+12 -2.25739e+12 -2.52912e+12 -2.79491e+12 -1.98365e+12 -2.92248e+12 -3.91655e+12 -2.78624e+12 -3.6253e+12 -2.0626e+12 -4.04491e+12 -3.61563e+12 -2.72775e+12 -3.53742e+12 -3.11793e+12 -4.3697e+12 -6.57898e+12 -2.91574e+12 -3.95255e+12 -2.37281e+12 -3.19414e+12 -3.29964e+12 -1.21883e+12 -3.26464e+12 -2.72809e+12 -942024000000.0 -3.93818e+12 -4.87886e+12 -2.58665e+12 -4.67775e+12 -2.79397e+12 -3.55102e+12 -2.62232e+12 -1.78034e+12 -5.12683e+12 -4.87324e+12 -2.64636e+12 -3.8624e+12 -5.47033e+12 -3.29378e+12 -4.23564e+12 -2.10574e+12 -5.11859e+12 -7.00829e+12 -2.75911e+12 -2.43311e+12 -1.81386e+12 -2.21121e+12 -7.31057e+12 -7.08532e+12 -6.3665e+12 -2.03254e+12 -3.19916e+12 -3.79778e+12 -4.51808e+12 -3.57486e+12 -3.41037e+12 -5.27885e+12 -5.51175e+12 -4.7163e+12 -5.59436e+12 -2.18809e+12 -5.13822e+12 -3.97048e+12 -1.40463e+12 -4.46296e+12 -2.7795e+12 -2.92484e+12 -3.8312e+12 -5.15353e+12 -5.73681e+12 -4.69696e+12 -8.02519e+12 -4.64668e+12 -3.5491e+12 -5.44224e+12 -6.83841e+12 -5.68504e+12 -7.80355e+12 -5.85791e+12 -8.40724e+12 -5.22699e+12 -4.65476e+12 -4.64785e+12 -5.06363e+12 -7.92775e+12 -7.45669e+12 -7.2633e+12 -6.64424e+12 -4.71029e+12 -4.22786e+12 -3.90039e+12 -2.13382e+12 -4.31932e+12 -6.75218e+12 -3.63084e+12 -4.98049e+12 -4.7704e+12 -6.26001e+12 -4.08068e+12 -4.49113e+12 -5.46843e+12 -6.64373e+12 -9.12496e+12 -4.29123e+12 -3.90162e+12 -7.07299e+12 -4.36849e+12 -1.59751e+12 -5.25732e+12 -3.58609e+12 -5.25071e+12 -2.39266e+12 -1.18062e+12 -4.66524e+12 -2.15677e+12 -5.20001e+12 -5.10486e+12 -4.90484e+12 -3.30771e+12 -5.73181e+12 -4.23612e+12 -2.81714e+12 -4.23746e+12 -5.31136e+12 -3.28798e+12 -4.50111e+12 -5.60751e+12 -7.01431e+12 -5.85954e+12 -7.16547e+12 -3.50475e+12 -2.85954e+12 -1.84529e+12 -4.59076e+12 -2.3891e+12 -4.1242e+12 -4.47378e+12 -4.87316e+12 -4.53722e+12 -3.04632e+12 -5.27769e+12 -4.76895e+12 -1.48021e+12 -4.31178e+12 -2.68858e+12 -2.53588e+12 -2.91221e+12 -3.47888e+12 -3.06573e+12 -4.25299e+12 -3.64116e+12 -1.87746e+12 -3.32259e+12 -1.57539e+12 -3.05287e+12 -3.05484e+12 -3.01667e+12 -2.05792e+12 -2.65524e+12 -2.25924e+12 -4.15597e+12 -2.17623e+12 -1.22542e+12 -2.83443e+12 -2.12368e+12 -1.80068e+12 -1.46529e+12 -1.85973e+12 -3.86592e+12 -2.52667e+12 -3.12907e+12 -2.44215e+12 -2.33072e+12 -1.06672e+12 -2.91265e+12 -2.72019e+12 -2.60311e+12 -3.79079e+12 -2.65402e+12 -4.68386e+12 -3.74402e+12 -3.53786e+12 -2.88025e+12 -2.53354e+12 -4.07161e+12 -3.94184e+12 -3.60485e+12 -3.44999e+12 -3.32547e+12 -3.62235e+12 -2.71286e+12 -2.20603e+12 -2.39729e+12 -5.22111e+12 -3.18963e+12 -3.40605e+12 -2.5863e+12 -4.11651e+12 -2.67728e+12 -2.50431e+12 -3.38985e+12 -5.737e+12 -3.32691e+12 -3.00222e+12 -2.54488e+12 -4.61353e+12 -3.35384e+12 -6.20034e+12 -6.32632e+12 -6.69053e+12 -4.78612e+12 -3.38659e+12 -4.65542e+12 -4.54561e+12 -4.87074e+12 -6.86038e+12 -6.94139e+12 -4.70114e+12 -4.52527e+12 -4.5604e+12 -4.15577e+12 -4.67659e+12 -5.29925e+12 -3.36921e+12 -3.66332e+12 -3.54636e+12 -5.45836e+12 -4.38069e+12 -6.4151e+12 -3.53296e+12 -4.71326e+12 -6.06153e+12 -4.22437e+12 -5.91941e+12 -7.19003e+12 -8.52759e+12 -5.17105e+12 -7.04852e+12 -4.63818e+12 -3.45495e+12 -6.09077e+12 -1.73676e+12 -4.58998e+12 -3.89288e+12 -4.90613e+12 -4.24373e+12 -4.59066e+12 -6.52308e+12 -5.94107e+12 -6.50596e+12 -5.47921e+12 -3.66044e+12 -4.42698e+12 -5.43884e+12 -2.63958e+12 -3.18181e+12 -5.80855e+12 -4.04211e+12 -4.58503e+12 -4.95426e+12 -3.5348e+12 -3.40242e+12 -5.50839e+12 -4.39287e+12 -3.41611e+12 -4.07128e+12 -1.73632e+12 -3.88816e+12 -3.81834e+12 -6.19605e+12 -4.28892e+12 -2.32454e+12 -5.19078e+12 -2.30697e+12 -5.02857e+12 -3.11354e+12 -5.88613e+12 -3.1894e+12 -4.83583e+12 -5.16851e+12 -3.24416e+12 -5.29748e+12 -5.14891e+12 -3.02899e+12 -4.29448e+12 -2.91227e+12 -3.97224e+12 -2.56545e+12 -3.0284e+12 -3.54808e+12 -3.29161e+12 -4.07163e+12 -2.47279e+12 -2.42341e+12 -4.45825e+12 -3.58877e+12 -2.63529e+12 -1.30873e+12 -3.05272e+12 -2.91012e+12 -2.12948e+12 -1.79663e+12 -3.14443e+12 -2.89192e+12 -4.4538e+12 -2.20642e+12 -1.97451e+12 -3.11334e+12 -2.85625e+12 -1.73206e+12 -2.05919e+12 -1.96636e+12 -2.29363e+12 -2.58021e+12 -1.43265e+12 -2.75911e+12 -2.97665e+12 -2.24948e+12 -2.08612e+12 -2.9091e+12 -3.16416e+12 -3.47199e+12 -3.0796e+12 -1.77807e+12 -2.48744e+12 -2.01464e+12 -2.37264e+12 -2.88252e+12 -2.86588e+12 -4.74871e+12 -3.11352e+12 -5.37558e+12 -3.27308e+12 -2.37644e+12 -4.07702e+12 -3.74898e+12 -3.97833e+12 -2.42681e+12 -4.90896e+12 -4.12614e+12 -3.61326e+12 -3.19483e+12 -4.905e+12 -3.47319e+12 -1.90191e+12 -2.30465e+12 -5.57649e+12 -4.19593e+12 -5.51577e+12 -1.85138e+12 -1.54636e+12 -3.26774e+12 -2.64589e+12 -5.04321e+12 -4.86106e+12 -2.93219e+12 -5.58448e+12 -5.73367e+12 -5.03194e+12 -3.61582e+12 -7.20101e+12 -4.21086e+12 -3.12594e+12 -2.80374e+12 -3.09571e+12 -4.68351e+12 -4.47048e+12 -5.37127e+12 -4.72546e+12 -3.35909e+12 -2.09063e+12 -4.97723e+12 -4.18601e+12 -3.17648e+12 -4.51261e+12 -6.80449e+12 -6.72649e+12 -4.00651e+12 -2.75797e+12 -4.95725e+12 -3.60048e+12 -3.41681e+12 -2.53271e+12 -8.41435e+12 -3.82158e+12 -5.07198e+12 -4.78535e+12 -3.02217e+12 -4.0625e+12 -5.23802e+12 -7.77553e+12 -3.51812e+12 -4.03608e+12 -4.0712e+12 -3.1456e+12 -8.02869e+12 -3.45747e+12 -5.52026e+12 -3.02593e+12 -3.05208e+12 -3.76694e+12 -4.20518e+12 -3.29133e+12 -3.25363e+12 -3.70448e+12 -3.2969e+12 -3.45905e+12 -2.36972e+12 -5.32457e+12 -2.44788e+12 -2.05486e+12 -2.35436e+12 -2.4236e+12 -3.73596e+12 -2.28652e+12 -3.23856e+12 -889538000000.0 -2.25549e+12 -2.52273e+12 -2.59639e+12 -3.17469e+12 -2.1483e+12 -2.67956e+12 -2.57122e+12 -2.49969e+12 -1.34184e+12 -2.46284e+12 -1.58146e+12 -1.19675e+12 -3.28153e+12 -2.49616e+12 -1.58211e+12 -3.56558e+12 -2.61699e+12 -1.57877e+12 -3.0217e+12 -2.9539e+12 -2.81518e+12 -2.40731e+12 -1.30207e+12 -2.72952e+12 -1.53468e+12 -3.90162e+12 -1.79998e+12 -2.01666e+12 -2.18565e+12 -2.07753e+12 -3.58535e+12 -1.56018e+12 -2.76318e+12 -2.70512e+12 -1.53362e+12 -1.53622e+12 -1.72834e+12 -2.92507e+12 -2.61297e+12 -2.15374e+12 -2.16112e+12 -1.24864e+12 -3.88531e+12 -3.32321e+12 -2.74077e+12 -2.23099e+12 -3.07715e+12 -4.02631e+12 -2.89566e+12 -4.467e+12 -2.17443e+12 -4.19846e+12 -2.70821e+12 -2.58937e+12 -1.71903e+12 -3.1137e+12 -2.03322e+12 -2.91728e+12 -2.18324e+12 -1.22646e+12 -2.54073e+12 -3.84883e+12 -4.79925e+12 -4.34748e+12 -1.60015e+12 -2.50437e+12 -5.8124e+12 -3.56671e+12 -835718000000.0 -2.187e+12 -4.6337e+12 -4.347e+12 -1.83183e+12 -5.59677e+12 -4.1661e+12 -2.13238e+12 -5.99457e+12 -4.07201e+12 -3.08078e+12 -3.00863e+12 -3.30192e+12 -4.2259e+12 -5.8392e+12 -6.87041e+12 -3.41712e+12 -4.5555e+12 -4.98576e+12 -2.27832e+12 -5.74119e+12 -6.54909e+12 -3.81607e+12 -4.44593e+12 -4.11516e+12 -3.32705e+12 -2.75515e+12 -3.02244e+12 -2.88597e+12 -5.05314e+12 -5.86087e+12 -4.291e+12 -326900000000.0 -4.56462e+12 -5.2804e+12 -2.72282e+12 -3.55576e+12 -5.22396e+12 -1.685e+12 -4.13382e+12 -3.92193e+12 -2.08431e+12 -3.07901e+12 -3.96372e+12 -2.67863e+12 -3.1592e+12 -4.07015e+12 -2.0179e+12 -2.17721e+12 -2.15866e+12 -1.29242e+12 -3.16323e+12 -4.14002e+12 -1.0581e+12 -2.44649e+12 -2.25596e+12 -3.59655e+12 -1.48136e+12 -2.03271e+12 -1.31103e+12 -2.3124e+12 -2.80592e+12 -2.69264e+12 -1.37159e+12 -1.36395e+12 -1.96025e+12 -1.05985e+12 -1.2667e+12 -2.60778e+12 -2.66455e+12 -1.88191e+12 -1.3713e+12 -2.77826e+12 -2.16046e+12 -2.78018e+12 -1.90159e+12 -1.03428e+12 -955906000000.0 -57688100000.0 -2.18152e+12 -2.34944e+12 -1.89812e+12 -1.06806e+12 -2.06594e+12 -788996000000.0 -2.50016e+12 -774251000000.0 -1.01214e+12 -2.59178e+12 -2.09111e+12 -2.17545e+12 -1.3134e+12 -1.41886e+12 -2.01229e+12 -1.94689e+12 -3.46099e+12 -2.35163e+12 -1.37621e+12 -2.05019e+12 -3.33657e+12 -2.90641e+12 -2.66416e+12 -778404000000.0 -2.70828e+12 -1.78882e+12 -4.35097e+12 -4.58924e+12 -2.82179e+12 -1.80037e+12 -1.74188e+12 -3.64514e+12 -2.44085e+12 -1.60962e+12 -3.21069e+12 -2.17651e+12 -3.14665e+12 -3.80394e+12 -3.07035e+12 -1.39157e+12 -4.13332e+12 -3.12685e+12 -3.86857e+12 -3.53664e+12 -2.85483e+12 -2.66651e+12 -5.50698e+12 -4.05897e+12 -3.35558e+12 -1.45222e+12 -3.57126e+12 -1.91905e+12 -3.25746e+12 -1.58276e+12 -2.87341e+12 -4.75468e+12 -3.23826e+12 -4.08411e+12 -3.01458e+12 -5.22708e+12 -5.48387e+12 -4.2793e+12 -2.10111e+12 -4.14848e+12 -2.16425e+12 -1.59464e+12 -5.15814e+12 -3.62454e+12 -1.78204e+12 -1.87232e+12 -4.37509e+12 -3.76985e+12 -3.40534e+12 -4.42541e+12 -2.07457e+12 -3.74916e+12 -2.64201e+12 -5.36685e+12 -2.72655e+12 -4.36897e+12 -4.65518e+12 -3.7326e+12 -2.886e+12 -2.35216e+12 -3.01427e+12 -4.38176e+12 -2.35968e+12 -1.80501e+12 -4.44048e+12 -1.52802e+12 -2.4864e+12 -1.66276e+12 -2.88478e+12 -1.96845e+12 -1.84318e+12 -2.65845e+12 -2.19958e+12 -2.29836e+12 -2.28446e+12 -1.86718e+12 -1.41886e+12 -3.1245e+12 -2.04242e+12 -1.45337e+12 -2.32412e+12 -1.75232e+12 -1.8191e+12 -802023000000.0 -1.34617e+12 -1.57141e+12 -1.94355e+12 -695212000000.0 -1.15637e+12 -1.71382e+12 -967077000000.0 -1.46102e+12 -1.2507e+12 -496510000000.0 -1.40931e+12 -1.24962e+12 -1.51344e+12 -196252000000.0 -622179000000.0 -2.02047e+12 -894634000000.0 -1.45165e+12 -685784000000.0 -1.06274e+12 -1.14783e+12 -850670000000.0 -1.86225e+12 -477477000000.0 -1.58391e+12 -707990000000.0 -602041000000.0 -1.18402e+12 -1.33126e+12 -777175000000.0 -1.85182e+12 -1.06739e+12 -1.97882e+12 -1.36655e+12 -1.06029e+12 -1.28711e+12 -1.55788e+12 -1.06784e+12 -1.78419e+12 -1.39154e+12 -2.1153e+12 -1.55902e+12 -2.9866e+12 -2.76962e+12 -2.44288e+12 -1.3123e+12 -2.81833e+12 -2.19309e+12 -2.50099e+12 -1.25725e+12 -1.94579e+12 -2.01854e+12 -2.80042e+12 -1.51218e+12 -2.08995e+12 -2.27879e+12 -1.97671e+12 -4.57984e+12 -1.11991e+12 -2.92893e+12 -307455000000.0 -4.05102e+12 -3.59767e+12 -3.28321e+12 -3.40686e+12 -2.91903e+12 -2.13564e+12 -3.2306e+12 -1.62351e+12 -3.72443e+12 -2.88296e+12 -4.28691e+12 -1.32318e+12 -3.6339e+12 -3.89846e+12 -3.37768e+12 -4.00167e+12 -4.82256e+12 -4.21772e+12 -2.00728e+12 -2.9411e+12 -2.64713e+12 -2.70534e+12 -2.49953e+12 -4.00866e+12 -2.6096e+12 -2.20536e+12 -2.7565e+12 -2.93917e+12 -1.33853e+12 -1.53448e+12 -1.77474e+12 -2.29416e+12 -1.13473e+12 -1.28721e+12 -2.72656e+12 -2.54475e+12 -1.63998e+12 -1.65823e+12 -2.60209e+12 -1.94075e+12 -2.55232e+12 -1.8276e+12 -1.68717e+12 -2.76245e+12 -2.41985e+12 -1.57354e+12 -2.15326e+12 -2.10089e+12 -1.2202e+12 -2.29309e+12 -2.65322e+12 -1.92943e+12 -2.43676e+12 -1.74938e+12 -1.55077e+12 -2.23938e+12 -1.786e+12 -3.71164e+12 -1.27173e+12 -2.11812e+12 -2.71364e+12 -2.21777e+12 -798369000000.0 -2.07841e+12 -1.30501e+12 -2.53873e+12 -2.33782e+12 -364323000000.0 -1.87931e+12 -1.43348e+12 -1.10001e+12 -2.41409e+12 -2.03311e+12 -842782000000.0 -1.28801e+12 -2.03404e+12 -931617000000.0 -1.02685e+12 -893585000000.0 -887787000000.0 -941128000000.0 -916440000000.0 -652263000000.0 -350199000000.0 -388879000000.0 -637875000000.0 -578055000000.0 -488718000000.0 -434318000000.0 -566247000000.0 -616368000000.0 -928294000000.0 -784357000000.0 -805835000000.0 -861061000000.0 -340949000000.0 -1.36863e+12 -2.25021e+12 -854083000000.0 -1.85908e+12 -594981000000.0 -1.25969e+12 -2.0307e+12 -648322000000.0 -950486000000.0 -1.57202e+12 -1.74085e+12 -1.09269e+12 -917807000000.0 -964434000000.0 -856503000000.0 -1.76e+12 -2.21963e+12 -975519000000.0 -1.60999e+12 -1.2521e+12 -629495000000.0 -1.30937e+12 -1.44236e+12 -2.17397e+12 -1.50941e+12 -1.3037e+12 -1.28676e+12 -1.14439e+12 -2.61299e+12 -3.57719e+12 -1.72429e+12 -1.44633e+12 -2.71079e+12 -3.35876e+12 -2.65091e+12 -1.69524e+12 -1.40078e+12 -1.40104e+12 -1.52416e+12 -3.39103e+12 -1.8589e+12 -1.03314e+12 -2.1483e+12 -1.9449e+12 -2.90286e+12 -2.30227e+12 -2.1076e+12 -1.37629e+12 -4.49632e+12 -1.48636e+12 -1.85729e+12 -3.39499e+12 -2.30186e+12 -2.64745e+12 -6.16548e+12 -2.80978e+12 -833824000000.0 -2.02937e+12 -1.58961e+12 -1.88977e+12 -1.71995e+12 -1.73541e+12 -722273000000.0 -1.00059e+12 -3.59479e+12 -154005000000.0 -2.18645e+12 -2.2827e+12 -671072000000.0 -1.04787e+12 -1.76223e+12 -1.83711e+12 -1.55671e+12 -1.70474e+12 -1.18935e+12 -3.81108e+12 -986436000000.0 -1.63444e+12 -347373000000.0 -1.23164e+12 -2.47175e+12 -1.18653e+12 -1.0958e+12 -1.61456e+12 -1.85253e+12 -1.56086e+12 -1.04973e+12 -1.37584e+12 -1.47465e+12 -1.38942e+12 -2.43024e+12 -898463000000.0 -1.05968e+12 -632792000000.0 -1.24486e+12 -1.74714e+12 -514091000000.0 -797425000000.0 -1.24447e+12 -481702000000.0 -823928000000.0 -1.30847e+12 -339630000000.0 -1.20084e+12 -658106000000.0 -490813000000.0 -454912000000.0 -400587000000.0 -237189000000.0 -310137000000.0 -273022000000.0 -172279000000.0 -243732000000.0 -801357000000.0 -232340000000.0 -238422000000.0 -683634000000.0 -503620000000.0 -217069000000.0 -664365000000.0 -327740000000.0 -415393000000.0 -368892000000.0 -260341000000.0 -536607000000.0 -709435000000.0 -456866000000.0 -636844000000.0 -987081000000.0 -649899000000.0 -968358000000.0 -847921000000.0 -286016000000.0 -1.6352e+12 -898411000000.0 -749181000000.0 -1.05842e+12 -1.5964e+12 -2.18604e+12 -1.51194e+12 -969335000000.0 -1.86495e+12 -1.22473e+12 -1.52804e+12 -1.10987e+12 -1.52021e+12 -1.35095e+12 -3.13194e+12 -1.42297e+12 -2.78993e+12 -2.68618e+12 -2.35074e+12 -1.6203e+12 -2.31866e+12 -1.17046e+12 -3.34679e+12 -2.99352e+12 -1.08427e+12 -2.51195e+12 -1.69467e+12 -1.58084e+12 -2.30281e+12 -2.08879e+12 -2.62527e+12 -623476000000.0 -1.46234e+12 -1.0314e+12 -2.52147e+12 -1.37459e+12 -2.03759e+12 -2.0355e+12 -1.55795e+12 -2.21207e+12 -1.58435e+12 -785203000000.0 -1.65217e+12 -717272000000.0 -674927000000.0 -2.77916e+12 -737251000000.0 -1.55261e+12 -1.84335e+12 -660431000000.0 -1.44645e+12 -858509000000.0 -1.9047e+12 -1.01207e+12 -1.11803e+12 -932447000000.0 -970663000000.0 -1.531e+12 -721751000000.0 -1.46356e+12 -1.00023e+12 -1.07817e+12 -792936000000.0 -702981000000.0 -1.56834e+12 -485897000000.0 -635472000000.0 -775054000000.0 -2.58481e+12 -688545000000.0 -1.32341e+12 -381768000000.0 -436865000000.0 -559791000000.0 -719031000000.0 -313597000000.0 -329771000000.0 -547743000000.0 -234908000000.0 -526926000000.0 -172492000000.0 -200225000000.0 -409244000000.0 -134789000000.0 -224722000000.0 -242732000000.0 -122326000000.0 -144444000000.0 -379565000000.0 -138580000000.0 -238312000000.0 -289355000000.0 -524070000000.0 -227033000000.0 -1.18296e+12 -445054000000.0 -858859000000.0 -598032000000.0 -510090000000.0 -409224000000.0 -1.23959e+12 -1.28676e+12 -987418000000.0 -1.62346e+12 -674435000000.0 -1.27005e+12 -1.03462e+12 -204344000000.0 -1.21611e+12 -1.14443e+12 -1.13644e+12 -848087000000.0 -1.47265e+12 -946733000000.0 -1.49454e+12 -1.73627e+12 -1.3714e+12 -2.69959e+12 -2.10464e+12 -1.72771e+12 -1.90064e+12 -1.56983e+12 -1.16596e+12 -2.01776e+12 -2.13909e+12 -667870000000.0 -1.96369e+12 -1.84085e+12 -1.71245e+12 -1.49219e+12 -1.57112e+12 -1.6664e+12 -1.29484e+12 -1.08928e+12 -908775000000.0 -1.2298e+12 -751542000000.0 -1.73764e+12 -471925000000.0 -984157000000.0 -1.04648e+12 -2.43441e+12 -970512000000.0 -1.05722e+12 -866022000000.0 -1.23555e+12 -2.40514e+12 -1.35221e+12 -714481000000.0 -444218000000.0 -628196000000.0 -755083000000.0 -832666000000.0 -856771000000.0 -703970000000.0 -803600000000.0 -240943000000.0 -640105000000.0 -345091000000.0 -1.13202e+12 -452580000000.0 -869351000000.0 -284079000000.0 -389853000000.0 -269888000000.0 -1.1064e+12 -98675400000.0 -315861000000.0 -426493000000.0 -708221000000.0 -117179000000.0 -67015400000.0 -402897000000.0 -363409000000.0 -171158000000.0 -118757000000.0 -252516000000.0 -228529000000.0 -353871000000.0 -168351000000.0 -89172600000.0 -275624000000.0 -119227000000.0 -122665000000.0 -220832000000.0 -87507500000.0 -81510300000.0 -972255000000.0 -423930000000.0 -748194000000.0 -248104000000.0 -968321000000.0 -360626000000.0 -649565000000.0 -407118000000.0 -441081000000.0 -1.2338e+12 -286020000000.0 -1.91325e+12 -515361000000.0 -828730000000.0 -1.05323e+12 -1.24474e+12 -827777000000.0 -785456000000.0 -1.917e+12 -915406000000.0 -1.20414e+12 -1.06064e+12 -546139000000.0 -944834000000.0 -1.29814e+12 -445869000000.0 -870890000000.0 -48906800000.0 -748121000000.0 -960519000000.0 -281801000000.0 -406621000000.0 -290387000000.0 -834824000000.0 -271750000000.0 -352428000000.0 -179915000000.0 -526129000000.0 -193839000000.0 -268511000000.0 -240297000000.0 -155127000000.0 -52865700000.0 -288645000000.0 -198019000000.0 -223904000000.0 -256746000000.0 -266225000000.0 -154121000000.0 -252322000000.0 -288361000000.0 -515961000000.0 -215271000000.0 -247130000000.0 -216881000000.0 -151681000000.0 -450526000000.0 -126430000000.0 -312154000000.0 -818565000000.0 -1.19748e+12 -621971000000.0 -158567000000.0 -725502000000.0 -628592000000.0 -151682000000.0 -146308000000.0 -60576400000.0 -702181000000.0 -474417000000.0 -200039000000.0 -144624000000.0 -302442000000.0 -243801000000.0 -111882000000.0 -147287000000.0 -108738000000.0 