# vtk DataFile Version 2.0
Time step 50
ASCII
DATASET UNSTRUCTURED_GRID
POINTS 4650 float
172324.0 394638.0 0
179001.0 393088.0 0
320999.0 393088.0 0
327676.0 394638.0 0
168585.0 396961.0 0
171895.0 398434.0 0
176013.0 395683.0 0
182433.0 395116.0 0
185982.0 393364.0 0
191238.0 394715.0 0
194630.0 396798.0 0
198388.0 395455.0 0
202203.0 396640.0 0
206173.0 396198.0 0
210149.0 396564.0 0
214139.0 396510.0 0
218127.0 396547.0 0
222114.0 396544.0 0
226100.0 396544.0 0
230085.0 396543.0 0
234069.0 396543.0 0
238052.0 396540.0 0
242035.0 396542.0 0
246018.0 396539.0 0
250000.0 396542.0 0
253982.0 396539.0 0
257965.0 396542.0 0
261948.0 396540.0 0
265931.0 396543.0 0
269915.0 396543.0 0
273900.0 396544.0 0
277886.0 396544.0 0
281873.0 396547.0 0
285861.0 396510.0 0
289851.0 396564.0 0
293827.0 396198.0 0
297797.0 396640.0 0
301612.0 395455.0 0
305370.0 396798.0 0
308762.0 394715.0 0
314018.0 393364.0 0
317567.0 395116.0 0
323987.0 395683.0 0
328105.0 398434.0 0
331415.0 396961.0 0
162116.0 401022.0 0
165316.0 399018.0 0
168693.0 400747.0 0
175371.0 399608.0 0
179408.0 397602.0 0
184362.0 398591.0 0
187897.0 396858.0 0
312103.0 396858.0 0
315638.0 398591.0 0
320592.0 397602.0 0
324629.0 399608.0 0
331307.0 400747.0 0
334684.0 399018.0 0
337884.0 401022.0 0
156293.0 404639.0 0
165504.0 402904.0 0
172125.0 402257.0 0
178618.0 401419.0 0
182317.0 401916.0 0
187722.0 400869.0 0
191263.0 398965.0 0
194818.0 400770.0 0
198540.0 399432.0 0
202285.0 400750.0 0
206218.0 400176.0 0
210177.0 400574.0 0
214156.0 400507.0 0
218137.0 400547.0 0
222118.0 400544.0 0
226100.0 400544.0 0
230082.0 400543.0 0
234065.0 400543.0 0
238048.0 400540.0 0
242032.0 400542.0 0
246016.0 400539.0 0
250000.0 400542.0 0
253984.0 400539.0 0
257968.0 400542.0 0
261952.0 400540.0 0
265935.0 400543.0 0
269918.0 400543.0 0
273900.0 400544.0 0
277882.0 400544.0 0
281863.0 400547.0 0
285844.0 400507.0 0
289823.0 400574.0 0
293782.0 400176.0 0
297715.0 400750.0 0
301460.0 399432.0 0
305182.0 400770.0 0
308737.0 398965.0 0
312278.0 400869.0 0
317683.0 401916.0 0
321382.0 401419.0 0
327875.0 402257.0 0
334496.0 402904.0 0
343707.0 404639.0 0
153118.0 406613.0 0
159609.0 403696.0 0
162788.0 405494.0 0
168970.0 404607.0 0
172432.0 406144.0 0
175538.0 403752.0 0
179051.0 405281.0 0
185418.0 404122.0 0
191520.0 402935.0 0
198812.0 403400.0 0
202462.0 404956.0 0
206347.0 404134.0 0
210293.0 404604.0 0
214265.0 404500.0 0
218236.0 404550.0 0
222207.0 404543.0 0
226178.0 404545.0 0
230148.0 404542.0 0
234118.0 404544.0 0
238088.0 404540.0 0
242059.0 404544.0 0
246029.0 404539.0 0
250000.0 404543.0 0
253971.0 404539.0 0
257941.0 404544.0 0
261912.0 404540.0 0
265882.0 404544.0 0
269852.0 404542.0 0
273822.0 404545.0 0
277793.0 404543.0 0
281764.0 404550.0 0
285735.0 404500.0 0
289707.0 404604.0 0
293653.0 404134.0 0
297538.0 404956.0 0
301188.0 403400.0 0
308480.0 402935.0 0
314582.0 404122.0 0
320949.0 405281.0 0
324462.0 403752.0 0
327568.0 406144.0 0
331030.0 404607.0 0
337212.0 405494.0 0
340391.0 403696.0 0
346882.0 406613.0 0
149913.0 408618.0 0
153150.0 410131.0 0
156369.0 408142.0 0
159805.0 407707.0 0
166054.0 407064.0 0
175904.0 407660.0 0
182535.0 406826.0 0
188866.0 405815.0 0
195093.0 404733.0 0
304907.0 404733.0 0
311134.0 405815.0 0
317465.0 406826.0 0
324096.0 407660.0 0
333946.0 407064.0 0
340195.0 407707.0 0
343631.0 408142.0 0
346850.0 410131.0 0
350087.0 408618.0 0
146702.0 410628.0 0
149953.0 412181.0 0
156475.0 411568.0 0
163043.0 409440.0 0
169405.0 408556.0 0
172812.0 410071.0 0
179370.0 409207.0 0
186002.0 408493.0 0
189482.0 410209.0 0
192351.0 407532.0 0
195854.0 409319.0 0
199255.0 407355.0 0
202763.0 409196.0 0
206525.0 408073.0 0
210422.0 408655.0 0
214364.0 408491.0 0
218316.0 408556.0 0
222274.0 408541.0 0
226234.0 408547.0 0
230194.0 408542.0 0
234155.0 408546.0 0
238116.0 408540.0 0
242077.0 408545.0 0
246038.0 408539.0 0
250000.0 408544.0 0
253962.0 408539.0 0
257923.0 408545.0 0
261884.0 408540.0 0
265845.0 408546.0 0
269806.0 408542.0 0
273766.0 408547.0 0
277726.0 408541.0 0
281684.0 408556.0 0
285636.0 408491.0 0
289578.0 408655.0 0
293475.0 408073.0 0
297237.0 409196.0 0
300745.0 407355.0 0
304146.0 409319.0 0
307649.0 407532.0 0
310518.0 410209.0 0
313998.0 408493.0 0
320630.0 409207.0 0
327188.0 410071.0 0
330595.0 408556.0 0
336957.0 409440.0 0
343525.0 411568.0 0
350047.0 412181.0 0
353298.0 410628.0 0
140279.0 414647.0 0
143493.0 412636.0 0
146760.0 414239.0 0
153274.0 413658.0 0
159999.0 411714.0 0
163288.0 413366.0 0
166366.0 410994.0 0
169734.0 412493.0 0
176238.0 411592.0 0
182822.0 410805.0 0
186274.0 412470.0 0
192959.0 411984.0 0
199467.0 411359.0 0
300533.0 411359.0 0
307041.0 411984.0 0
313726.0 412470.0 0
317178.0 410805.0 0
323762.0 411592.0 0
330266.0 412493.0 0
333634.0 410994.0 0
336712.0 413366.0 0
340001.0 411714.0 0
346726.0 413658.0 0
353240.0 414239.0 0
356507.0 412636.0 0
359721.0 414647.0 0
137059.0 416660.0 0
143562.0 416271.0 0
150086.0 415763.0 0
153484.0 417204.0 0
156677.0 415006.0 0
160195.0 415688.0 0
166645.0 414907.0 0
173125.0 414000.0 0
176530.0 415528.0 0
179673.0 413156.0 0
183115.0 414780.0 0
189717.0 414195.0 0
196420.0 413821.0 0
202865.0 413455.0 0
206548.0 412018.0 0
210449.0 412702.0 0
214404.0 412481.0 0
218362.0 412561.0 0
222320.0 412540.0 0
226279.0 412547.0 0
230236.0 412541.0 0
234192.0 412547.0 0
238146.0 412539.0 0
242098.0 412546.0 0
246049.0 412538.0 0
250000.0 412545.0 0
253951.0 412538.0 0
257902.0 412546.0 0
261854.0 412539.0 0
265808.0 412547.0 0
269764.0 412541.0 0
273721.0 412547.0 0
277680.0 412540.0 0
281638.0 412561.0 0
285596.0 412481.0 0
289551.0 412702.0 0
293452.0 412018.0 0
297135.0 413455.0 0
303580.0 413821.0 0
310283.0 414195.0 0
316885.0 414780.0 0
320327.0 413156.0 0
323470.0 415528.0 0
326875.0 414000.0 0
333355.0 414907.0 0
339805.0 415688.0 0
343323.0 415006.0 0
346516.0 417204.0 0
349914.0 415763.0 0
356438.0 416271.0 0
362941.0 416660.0 0
133825.0 418680.0 0
140348.0 418299.0 0
143679.0 419923.0 0
146891.0 417879.0 0
150278.0 419359.0 0
156940.0 418514.0 0
163537.0 417273.0 0
170025.0 416421.0 0
173410.0 417935.0 0
179946.0 417099.0 0
186550.0 416496.0 0
193154.0 415980.0 0
196458.0 418058.0 0
199767.0 415899.0 0
203223.0 417841.0 0
206674.0 415957.0 0
210533.0 416771.0 0
214469.0 416468.0 0
218415.0 416566.0 0
222363.0 416539.0 0
226311.0 416547.0 0
230258.0 416541.0 0
234206.0 416547.0 0
238155.0 416539.0 0
242104.0 416546.0 0
246052.0 416538.0 0
250000.0 416546.0 0
253948.0 416538.0 0
257896.0 416546.0 0
261845.0 416539.0 0
265794.0 416547.0 0
269742.0 416541.0 0
273689.0 416547.0 0
277637.0 416539.0 0
281585.0 416566.0 0
285531.0 416468.0 0
289467.0 416771.0 0
293326.0 415957.0 0
296777.0 417841.0 0
300233.0 415899.0 0
303542.0 418058.0 0
306846.0 415980.0 0
313450.0 416496.0 0
320054.0 417099.0 0
326590.0 417935.0 0
329975.0 416421.0 0
336463.0 417273.0 0
343060.0 418514.0 0
349722.0 419359.0 0
353109.0 417879.0 0
356321.0 419923.0 0
359652.0 418299.0 0
366175.0 418680.0 0
130580.0 420706.0 0
133849.0 422306.0 0
137113.0 420303.0 0
140434.0 421969.0 0
147061.0 421562.0 0
153745.0 420785.0 0
157251.0 422114.0 0
160411.0 419614.0 0
163825.0 421158.0 0
166929.0 418816.0 0
170323.0 420360.0 0
176800.0 419460.0 0
183353.0 418749.0 0
186744.0 420479.0 0
189978.0 418277.0 0
193242.0 420362.0 0
199896.0 419961.0 0
300104.0 419961.0 0
306758.0 420362.0 0
310022.0 418277.0 0
313256.0 420479.0 0
316647.0 418749.0 0
323200.0 419460.0 0
329677.0 420360.0 0
333071.0 418816.0 0
336175.0 421158.0 0
339589.0 419614.0 0
342749.0 422114.0 0
346255.0 420785.0 0
352939.0 421562.0 0
359566.0 421969.0 0
362887.0 420303.0 0
366151.0 422306.0 0
369420.0 420706.0 0
122304.0 425891.0 0
127338.0 422734.0 0
130577.0 424324.0 0
137146.0 423949.0 0
143816.0 423576.0 0
147275.0 425327.0 0
150498.0 422952.0 0
154039.0 424406.0 0
160694.0 423470.0 0
167258.0 422737.0 0
173707.0 421881.0 0
177070.0 423393.0 0
180186.0 421038.0 0
183545.0 422718.0 0
189951.0 422546.0 0
196653.0 422219.0 0
203314.0 421933.0 0
206698.0 419917.0 0
210542.0 420814.0 0
214475.0 420456.0 0
218421.0 420571.0 0
222368.0 420537.0 0
226315.0 420547.0 0
230263.0 420541.0 0
234210.0 420546.0 0
238157.0 420539.0 0
242104.0 420547.0 0
246052.0 420538.0 0
250000.0 420546.0 0
253948.0 420538.0 0
257896.0 420547.0 0
261843.0 420539.0 0
265790.0 420546.0 0
269737.0 420541.0 0
273685.0 420547.0 0
277632.0 420537.0 0
281579.0 420571.0 0
285525.0 420456.0 0
289458.0 420814.0 0
293302.0 419917.0 0
296686.0 421933.0 0
303347.0 422219.0 0
310049.0 422546.0 0
316455.0 422718.0 0
319814.0 421038.0 0
322930.0 423393.0 0
326293.0 421881.0 0
332742.0 422737.0 0
339306.0 423470.0 0
345961.0 424406.0 0
349502.0 422952.0 0
352725.0 425327.0 0
356184.0 423576.0 0
362854.0 423949.0 0
369423.0 424324.0 0
372662.0 422734.0 0
377696.0 425891.0 0
119048.0 427924.0 0
125918.0 425939.0 0
133815.0 425942.0 0
137061.0 427583.0 0
140484.0 425656.0 0
143937.0 427157.0 0
150815.0 426485.0 0
157503.0 425812.0 0
164143.0 425033.0 0
167613.0 426654.0 0
170707.0 424328.0 0
174183.0 425939.0 0
180373.0 424978.0 0
186693.0 424769.0 0
193328.0 424356.0 0
200047.0 424130.0 0
203447.0 426055.0 0
206753.0 423902.0 0
210563.0 424876.0 0
214485.0 424443.0 0
218431.0 424580.0 0
222378.0 424536.0 0
226325.0 424548.0 0
230272.0 424543.0 0
234218.0 424546.0 0
238163.0 424539.0 0
242109.0 424547.0 0
246054.0 424537.0 0
250000.0 424546.0 0
253946.0 424537.0 0
257891.0 424547.0 0
261837.0 424539.0 0
265782.0 424546.0 0
269728.0 424543.0 0
273675.0 424548.0 0
277622.0 424536.0 0
281569.0 424580.0 0
285515.0 424443.0 0
289437.0 424876.0 0
293247.0 423902.0 0
296553.0 426055.0 0
299953.0 424130.0 0
306672.0 424356.0 0
313307.0 424769.0 0
319627.0 424978.0 0
325817.0 425939.0 0
329293.0 424328.0 0
332387.0 426654.0 0
335857.0 425033.0 0
342497.0 425812.0 0
349185.0 426485.0 0
356063.0 427157.0 0
359516.0 425656.0 0
362939.0 427583.0 0
366185.0 425942.0 0
374082.0 425939.0 0
380952.0 427924.0 0
115742.0 429987.0 0
122384.0 429646.0 0
126041.0 429564.0 0
129307.0 427623.0 0
132657.0 429334.0 0
140236.0 429351.0 0
147241.0 429260.0 0
151018.0 429946.0 0
154321.0 428157.0 0
157771.0 429535.0 0
160973.0 427278.0 0
164445.0 428891.0 0
171127.0 428276.0 0
177609.0 427703.0 0
183446.0 426970.0 0
190017.0 426536.0 0
193375.0 428340.0 0
196709.0 426220.0 0
200094.0 428128.0 0
299906.0 428128.0 0
303291.0 426220.0 0
306625.0 428340.0 0
309983.0 426536.0 0
316554.0 426970.0 0
322391.0 427703.0 0
328873.0 428276.0 0
335555.0 428891.0 0
339027.0 427278.0 0
342229.0 429535.0 0
345679.0 428157.0 0
348982.0 429946.0 0
352759.0 429260.0 0
359764.0 429351.0 0
367343.0 429334.0 0
370693.0 427623.0 0
373959.0 429564.0 0
377616.0 429646.0 0
384258.0 429987.0 0
112394.0 432078.0 0
115721.0 433684.0 0
119073.0 431637.0 0
122392.0 433407.0 0
129397.0 431309.0 0
135957.0 431047.0 0
143622.0 430618.0 0
146165.0 433147.0 0
154211.0 432090.0 0
161275.0 431065.0 0
167900.0 430553.0 0
174922.0 430614.0 0
178803.0 431394.0 0
182672.0 430817.0 0
186563.0 429032.0 0
190038.0 430493.0 0
196739.0 430208.0 0
203500.0 430045.0 0
206879.0 427957.0 0
210664.0 428973.0 0
214554.0 428430.0 0
218481.0 428591.0 0
222416.0 428534.0 0
226352.0 428549.0 0
230290.0 428543.0 0
234230.0 428546.0 0
238171.0 428539.0 0
242114.0 428547.0 0
246057.0 428537.0 0
250000.0 428546.0 0
253943.0 428537.0 0
257886.0 428547.0 0
261829.0 428539.0 0
265770.0 428546.0 0
269710.0 428543.0 0
273648.0 428549.0 0
277584.0 428534.0 0
281519.0 428591.0 0
285446.0 428430.0 0
289336.0 428973.0 0
293121.0 427957.0 0
296500.0 430045.0 0
303261.0 430208.0 0
309962.0 430493.0 0
313437.0 429032.0 0
317328.0 430817.0 0
321197.0 431394.0 0
325078.0 430614.0 0
332100.0 430553.0 0
338725.0 431065.0 0
345789.0 432090.0 0
353835.0 433147.0 0
356378.0 430618.0 0
364043.0 431047.0 0
370603.0 431309.0 0
377608.0 433407.0 0
380927.0 431637.0 0
384279.0 433684.0 0
387606.0 432078.0 0
105534.0 436371.0 0
108930.0 434247.0 0
112319.0 435759.0 0
119046.0 435363.0 0
126065.0 433199.0 0
129405.0 435004.0 0
132734.0 433075.0 0
136071.0 434872.0 0
139111.0 432859.0 0
142372.0 433989.0 0
149853.0 433155.0 0
158033.0 433209.0 0
164779.0 432774.0 0
171322.0 432127.0 0
185967.0 432935.0 0
193372.0 432303.0 0
200113.0 432117.0 0
203501.0 434034.0 0
206905.0 431985.0 0
210695.0 432966.0 0
214580.0 432421.0 0
218504.0 432599.0 0
222435.0 432532.0 0
226368.0 432549.0 0
230303.0 432543.0 0
234240.0 432546.0 0
238179.0 432539.0 0
242120.0 432547.0 0
246060.0 432537.0 0
250000.0 432545.0 0
253940.0 432537.0 0
257880.0 432547.0 0
261821.0 432539.0 0
265760.0 432546.0 0
269697.0 432543.0 0
273632.0 432549.0 0
277565.0 432532.0 0
281496.0 432599.0 0
285420.0 432421.0 0
289305.0 432966.0 0
293095.0 431985.0 0
296499.0 434034.0 0
299887.0 432117.0 0
306628.0 432303.0 0
314033.0 432935.0 0
328678.0 432127.0 0
335221.0 432774.0 0
341967.0 433209.0 0
350147.0 433155.0 0
357628.0 433989.0 0
360889.0 432859.0 0
363929.0 434872.0 0
367266.0 433075.0 0
370595.0 435004.0 0
373935.0 433199.0 0
380954.0 435363.0 0
387681.0 435759.0 0
391070.0 434247.0 0
394466.0 436371.0 0
102159.0 438483.0 0
108889.0 437959.0 0
115664.0 437406.0 0
122389.0 437157.0 0
126092.0 436875.0 0
132691.0 436807.0 0
139592.0 436747.0 0
144283.0 436796.0 0
147989.0 436459.0 0
151793.0 436171.0 0
155447.0 435745.0 0
161471.0 434821.0 0
164964.0 436598.0 0
168676.0 435213.0 0
172629.0 435597.0 0
176401.0 434493.0 0
181204.0 434525.0 0
189623.0 434430.0 0
193155.0 436229.0 0
196720.0 434180.0 0
303280.0 434180.0 0
306845.0 436229.0 0
310377.0 434430.0 0
318796.0 434525.0 0
323599.0 434493.0 0
327371.0 435597.0 0
331324.0 435213.0 0
335036.0 436598.0 0
338529.0 434821.0 0
344553.0 435745.0 0
348207.0 436171.0 0
352011.0 436459.0 0
355717.0 436796.0 0
360408.0 436747.0 0
367309.0 436807.0 0
373908.0 436875.0 0
377611.0 437157.0 0
384336.0 437406.0 0
391111.0 437959.0 0
397841.0 438483.0 0
98785.6 440593.0 0
105533.0 440121.0 0
108936.0 441709.0 0
112289.0 439501.0 0
115664.0 441165.0 0
119021.0 439089.0 0
122384.0 440906.0 0
129464.0 438761.0 0
135925.0 438486.0 0
142285.0 439961.0 0
146200.0 439899.0 0
150042.0 439591.0 0
153898.0 439258.0 0
157746.0 438726.0 0
161546.0 438472.0 0
167246.0 439691.0 0
171069.0 439138.0 0
174981.0 438594.0 0
178762.0 437679.0 0
182610.0 438226.0 0
186268.0 436852.0 0
189867.0 438383.0 0
196580.0 438124.0 0
200084.0 436102.0 0
203482.0 438003.0 0
206905.0 435984.0 0
210702.0 436949.0 0
214590.0 436416.0 0
218514.0 436616.0 0
222446.0 436531.0 0
226379.0 436559.0 0
230313.0 436543.0 0
234249.0 436548.0 0
238186.0 436539.0 0
242124.0 436547.0 0
246062.0 436537.0 0
250000.0 436545.0 0
253938.0 436537.0 0
257876.0 436547.0 0
261814.0 436539.0 0
265751.0 436548.0 0
269687.0 436543.0 0
273621.0 436559.0 0
277554.0 436531.0 0
281486.0 436616.0 0
285410.0 436416.0 0
289298.0 436949.0 0
293095.0 435984.0 0
296518.0 438003.0 0
299916.0 436102.0 0
303420.0 438124.0 0
310133.0 438383.0 0
313732.0 436852.0 0
317390.0 438226.0 0
321238.0 437679.0 0
325019.0 438594.0 0
328931.0 439138.0 0
332754.0 439691.0 0
338454.0 438472.0 0
342254.0 438726.0 0
346102.0 439258.0 0
349958.0 439591.0 0
353800.0 439899.0 0
357715.0 439961.0 0
364075.0 438486.0 0
370536.0 438761.0 0
377616.0 440906.0 0
380979.0 439089.0 0
384336.0 441165.0 0
387711.0 439501.0 0
391064.0 441709.0 0
394467.0 440121.0 0
401214.0 440593.0 0
90792.1 445601.0 0
95297.5 442783.0 0
102189.0 442261.0 0
105631.0 443912.0 0
112350.0 443277.0 0
119062.0 442818.0 0
126078.0 440553.0 0
129415.0 442480.0 0
132872.0 440672.0 0
138635.0 440503.0 0
156053.0 442308.0 0
159895.0 441936.0 0
163786.0 441448.0 0
185126.0 441253.0 0
192721.0 441118.0 0
199984.0 440078.0 0
203421.0 441950.0 0
206876.0 439983.0 0
210684.0 440923.0 0
214580.0 440413.0 0
218506.0 440615.0 0
222440.0 440530.0 0
226377.0 440559.0 0
230314.0 440543.0 0
234252.0 440548.0 0
238190.0 440539.0 0
242127.0 440546.0 0
246064.0 440537.0 0
250000.0 440545.0 0
253936.0 440537.0 0
257873.0 440546.0 0
261810.0 440539.0 0
265748.0 440548.0 0
269686.0 440543.0 0
273623.0 440559.0 0
277560.0 440530.0 0
281494.0 440615.0 0
285420.0 440413.0 0
289316.0 440923.0 0
293124.0 439983.0 0
296579.0 441950.0 0
300016.0 440078.0 0
307279.0 441118.0 0
314874.0 441253.0 0
336214.0 441448.0 0
340105.0 441936.0 0
343947.0 442308.0 0
361365.0 440503.0 0
367128.0 440672.0 0
370585.0 442480.0 0
373922.0 440553.0 0
380938.0 442818.0 0
387650.0 443277.0 0
394369.0 443912.0 0
397811.0 442261.0 0
404702.0 442783.0 0
409208.0 445601.0 0
87344.3 447761.0 0
98826.1 444372.0 0
109097.0 445517.0 0
115752.0 444972.0 0
122482.0 444681.0 0
126222.0 444260.0 0
132466.0 444403.0 0
136234.0 443523.0 0
140490.0 443511.0 0
144320.0 443216.0 0
148244.0 443011.0 0
152148.0 442699.0 0
162134.0 445041.0 0
166034.0 444452.0 0
169605.0 442828.0 0
173495.0 442237.0 0
177408.0 441623.0 0
181264.0 441962.0 0
188903.0 442188.0 0
196546.0 442072.0 0
303454.0 442072.0 0
311097.0 442188.0 0
318736.0 441962.0 0
322592.0 441623.0 0
326505.0 442237.0 0
330395.0 442828.0 0
333966.0 444452.0 0
337866.0 445041.0 0
347852.0 442699.0 0
351756.0 443011.0 0
355680.0 443216.0 0
359510.0 443511.0 0
363766.0 443523.0 0
367534.0 444403.0 0
373778.0 444260.0 0
377518.0 444681.0 0
384248.0 444972.0 0
390903.0 445517.0 0
401174.0 444372.0 0
412656.0 447761.0 0
90828.2 449540.0 0
94510.4 446591.0 0
98044.7 448100.0 0
102312.0 446073.0 0
105818.0 447731.0 0
112591.0 447085.0 0
112877.0 450787.0 0
119077.0 446522.0 0
122039.0 448477.0 0
125755.0 447807.0 0
129583.0 446972.0 0
134653.0 447191.0 0
138475.0 446759.0 0
142456.0 446643.0 0
146384.0 446388.0 0
150338.0 446129.0 0
154284.0 445802.0 0
158208.0 445456.0 0
168388.0 447406.0 0
172046.0 445931.0 0
175961.0 445290.0 0
179855.0 445730.0 0
183742.0 445029.0 0
187560.0 445914.0 0
191463.0 445149.0 0
195318.0 445840.0 0
199203.0 444992.0 0
203052.0 445868.0 0
206658.0 444198.0 0
210533.0 444886.0 0
214445.0 444435.0 0
218385.0 444610.0 0
222330.0 444531.0 0
226279.0 444557.0 0
230229.0 444542.0 0
234181.0 444547.0 0
238134.0 444542.0 0
242089.0 444546.0 0
246045.0 444541.0 0
250000.0 444544.0 0
253955.0 444541.0 0
257911.0 444546.0 0
261866.0 444542.0 0
265819.0 444547.0 0
269771.0 444542.0 0
273721.0 444557.0 0
277670.0 444531.0 0
281615.0 444610.0 0
285555.0 444435.0 0
289467.0 444886.0 0
293342.0 444198.0 0
296948.0 445868.0 0
300797.0 444992.0 0
304682.0 445840.0 0
308537.0 445149.0 0
312440.0 445914.0 0
316258.0 445029.0 0
320145.0 445730.0 0
324039.0 445290.0 0
327954.0 445931.0 0
331612.0 447406.0 0
341792.0 445456.0 0
345716.0 445802.0 0
349662.0 446129.0 0
353616.0 446388.0 0
357544.0 446643.0 0
361525.0 446759.0 0
365347.0 447191.0 0
370417.0 446972.0 0
374245.0 447807.0 0
377961.0 448477.0 0
380923.0 446522.0 0
387123.0 450787.0 0
387409.0 447085.0 0
394182.0 447731.0 0
397688.0 446073.0 0
401955.0 448100.0 0
405490.0 446591.0 0
409172.0 449540.0 0
94592.6 450525.0 0
101506.0 449811.0 0
109308.0 449353.0 0
116276.0 449023.0 0
132061.0 450115.0 0
136636.0 450271.0 0
140543.0 449994.0 0
144515.0 449794.0 0
148481.0 449540.0 0
152455.0 449261.0 0
156423.0 448950.0 0
160395.0 448599.0 0
164464.0 448106.0 0
174590.0 448960.0 0
182395.0 448781.0 0
190153.0 448885.0 0
197947.0 448775.0 0
201821.0 449619.0 0
206047.0 448452.0 0
210012.0 448815.0 0
213995.0 448537.0 0
217995.0 448588.0 0
222000.0 448542.0 0
226000.0 448547.0 0
230000.0 448542.0 0
234000.0 448543.0 0
238000.0 448542.0 0
242000.0 448545.0 0
246000.0 448542.0 0
250000.0 448544.0 0
254000.0 448542.0 0
258000.0 448545.0 0
262000.0 448542.0 0
266000.0 448543.0 0
270000.0 448542.0 0
274000.0 448547.0 0
278000.0 448542.0 0
282005.0 448588.0 0
286005.0 448537.0 0
289988.0 448815.0 0
293953.0 448452.0 0
298179.0 449619.0 0
302053.0 448775.0 0
309847.0 448885.0 0
317605.0 448781.0 0
325410.0 448960.0 0
335536.0 448106.0 0
339605.0 448599.0 0
343577.0 448950.0 0
347545.0 449261.0 0
351519.0 449540.0 0
355485.0 449794.0 0
359457.0 449994.0 0
363364.0 450271.0 0
367939.0 450115.0 0
383724.0 449023.0 0
390692.0 449353.0 0
398494.0 449811.0 0
405407.0 450525.0 0
98193.4 451954.0 0
104956.0 451488.0 0
111996.0 454365.0 0
119626.0 451442.0 0
124303.0 451319.0 0
128188.0 450659.0 0
150581.0 452704.0 0
154563.0 452429.0 0
158549.0 452124.0 0
162712.0 451665.0 0
166954.0 451089.0 0
170892.0 450309.0 0
178506.0 449599.0 0
186264.0 449684.0 0
194055.0 449628.0 0
305945.0 449628.0 0
313736.0 449684.0 0
321494.0 449599.0 0
329108.0 450309.0 0
333046.0 451089.0 0
337288.0 451665.0 0
341451.0 452124.0 0
345437.0 452429.0 0
349419.0 452704.0 0
371812.0 450659.0 0
375697.0 451319.0 0
380374.0 451442.0 0
388004.0 454365.0 0
395044.0 451488.0 0
401807.0 451954.0 0
94532.2 454501.0 0
98307.0 455821.0 0
101681.0 453709.0 0
105211.0 455401.0 0
108409.0 453130.0 0
116093.0 452955.0 0
122180.0 454470.0 0
126521.0 454212.0 0
130411.0 453749.0 0
134301.0 453390.0 0
138651.0 453430.0 0
142615.0 453186.0 0
146598.0 452959.0 0
160560.0 455392.0 0
164466.0 455097.0 0
168342.0 454716.0 0
172169.0 453959.0 0
175888.0 452676.0 0
179714.0 453540.0 0
183547.0 452585.0 0
187399.0 453516.0 0
191278.0 452652.0 0
195142.0 453467.0 0
199017.0 452585.0 0
202891.0 453425.0 0
206686.0 452375.0 0
210608.0 452746.0 0
214535.0 452498.0 0
218472.0 452559.0 0
222409.0 452544.0 0
226348.0 452544.0 0
230288.0 452543.0 0
234230.0 452543.0 0
238172.0 452542.0 0
242114.0 452543.0 0
246057.0 452541.0 0
250000.0 452544.0 0
253943.0 452541.0 0
257886.0 452543.0 0
261828.0 452542.0 0
265770.0 452543.0 0
269712.0 452543.0 0
273652.0 452544.0 0
277591.0 452544.0 0
281528.0 452559.0 0
285465.0 452498.0 0
289392.0 452746.0 0
293314.0 452375.0 0
297109.0 453425.0 0
300983.0 452585.0 0
304858.0 453467.0 0
308722.0 452652.0 0
312601.0 453516.0 0
316453.0 452585.0 0
320286.0 453540.0 0
324112.0 452676.0 0
327831.0 453959.0 0
331658.0 454716.0 0
335534.0 455097.0 0
339440.0 455392.0 0
353402.0 452959.0 0
357385.0 453186.0 0
361349.0 453430.0 0
365699.0 453390.0 0
369589.0 453749.0 0
373479.0 454212.0 0
377820.0 454470.0 0
383907.0 452955.0 0
391591.0 453130.0 0
394789.0 455401.0 0
398319.0 453709.0 0
401693.0 455821.0 0
405468.0 454501.0 0
101880.0 457625.0 0
109219.0 457010.0 0
114911.0 456616.0 0
118682.0 455987.0 0
124543.0 457553.0 0
128593.0 457309.0 0
132517.0 456957.0 0
136458.0 456660.0 0
140713.0 456606.0 0
144695.0 456377.0 0
148679.0 456149.0 0
152658.0 455906.0 0
156623.0 455649.0 0
174753.0 456856.0 0
182458.0 456411.0 0
190122.0 456432.0 0
197836.0 456382.0 0
201718.0 457190.0 0
205968.0 456495.0 0
209962.0 456673.0 0
214000.0 456542.0 0
218000.0 456542.0 0
222000.0 456542.0 0
226000.0 456542.0 0
230000.0 456542.0 0
234000.0 456542.0 0
238000.0 456542.0 0
242000.0 456542.0 0
246000.0 456542.0 0
250000.0 456543.0 0
254000.0 456542.0 0
258000.0 456542.0 0
262000.0 456542.0 0
266000.0 456542.0 0
270000.0 456542.0 0
274000.0 456542.0 0
278000.0 456542.0 0
282000.0 456542.0 0
286000.0 456542.0 0
290038.0 456673.0 0
294032.0 456495.0 0
298282.0 457190.0 0
302164.0 456382.0 0
309878.0 456432.0 0
317542.0 456411.0 0
325247.0 456856.0 0
343377.0 455649.0 0
347342.0 455906.0 0
351321.0 456149.0 0
355305.0 456377.0 0
359287.0 456606.0 0
363542.0 456660.0 0
367483.0 456957.0 0
371407.0 457309.0 0
375457.0 457553.0 0
381318.0 455987.0 0
385089.0 456616.0 0
390781.0 457010.0 0
398120.0 457625.0 0
98225.9 459723.0 0
106036.0 459182.0 0
112329.0 459442.0 0
117115.0 459651.0 0
121006.0 459229.0 0
126678.0 460760.0 0
130667.0 460504.0 0
134649.0 460169.0 0
138623.0 459915.0 0
142788.0 459807.0 0
146770.0 459597.0 0
150749.0 459377.0 0
154727.0 459152.0 0
158708.0 458911.0 0
162690.0 458647.0 0
166675.0 458320.0 0
170860.0 457718.0 0
178648.0 457455.0 0
186296.0 457353.0 0
193980.0 457314.0 0
306020.0 457314.0 0
313704.0 457353.0 0
321352.0 457455.0 0
329140.0 457718.0 0
333325.0 458320.0 0
337310.0 458647.0 0
341292.0 458911.0 0
345273.0 459152.0 0
349251.0 459377.0 0
353230.0 459597.0 0
357212.0 459807.0 0
361377.0 459915.0 0
365351.0 460169.0 0
369333.0 460504.0 0
373322.0 460760.0 0
378994.0 459229.0 0
382885.0 459651.0 0
387671.0 459442.0 0
393964.0 459182.0 0
401774.0 459723.0 0
99470.4 463455.0 0
102870.0 461464.0 0
110500.0 462837.0 0
114623.0 462694.0 0
119216.0 462852.0 0
123160.0 462576.0 0
144855.0 463048.0 0
148829.0 462855.0 0
152792.0 462646.0 0
156732.0 462460.0 0
160646.0 462277.0 0
164539.0 462079.0 0
168409.0 461835.0 0
172250.0 461398.0 0
176048.0 460567.0 0
179835.0 461378.0 0
183580.0 460236.0 0
187394.0 461260.0 0
191216.0 460252.0 0
195065.0 461157.0 0
198902.0 460211.0 0
202774.0 460997.0 0
206664.0 460429.0 0
210594.0 460612.0 0
214527.0 460540.0 0
218463.0 460548.0 0
222402.0 460546.0 0
226341.0 460545.0 0
230283.0 460544.0 0
234225.0 460543.0 0
238168.0 460543.0 0
242112.0 460542.0 0
246056.0 460542.0 0
250000.0 460543.0 0
253944.0 460542.0 0
257888.0 460542.0 0
261832.0 460543.0 0
265775.0 460543.0 0
269717.0 460544.0 0
273659.0 460545.0 0
277598.0 460546.0 0
281537.0 460548.0 0
285473.0 460540.0 0
289406.0 460612.0 0
293336.0 460429.0 0
297226.0 460997.0 0
301098.0 460211.0 0
304935.0 461157.0 0
308784.0 460252.0 0
312606.0 461260.0 0
316420.0 460236.0 0
320165.0 461378.0 0
323952.0 460567.0 0
327750.0 461398.0 0
331591.0 461835.0 0
335461.0 462079.0 0
339354.0 462277.0 0
343268.0 462460.0 0
347208.0 462646.0 0
351171.0 462855.0 0
355145.0 463048.0 0
376840.0 462576.0 0
380784.0 462852.0 0
385377.0 462694.0 0
389500.0 462837.0 0
397130.0 461464.0 0
400530.0 463455.0 0
106545.0 463032.0 0
128728.0 464018.0 0
132844.0 463671.0 0
136814.0 463408.0 0
140792.0 463184.0 0
166663.0 465406.0 0
174507.0 464625.0 0
325493.0 464625.0 0
333337.0 465406.0 0
359208.0 463184.0 0
363186.0 463408.0 0
367156.0 463671.0 0
371272.0 464018.0 0
393455.0 463032.0 0
98852.3 467349.0 0
103583.0 465634.0 0
108718.0 466323.0 0
112711.0 466143.0 0
116825.0 466021.0 0
121260.0 466152.0 0
125244.0 465966.0 0
131015.0 467148.0 0
134995.0 466910.0 0
138964.0 466679.0 0
142936.0 466483.0 0
146929.0 466336.0 0
150903.0 466146.0 0
154854.0 465960.0 0
158793.0 465791.0 0
162726.0 465610.0 0
170599.0 465132.0 0
178401.0 465109.0 0
182290.0 464467.0 0
186173.0 465054.0 0
190054.0 464345.0 0
193960.0 464979.0 0
197902.0 464481.0 0
201863.0 464838.0 0
205998.0 464541.0 0
209998.0 464561.0 0
214000.0 464542.0 0
218000.0 464542.0 0
222000.0 464542.0 0
226000.0 464542.0 0
230000.0 464542.0 0
234000.0 464542.0 0
238000.0 464542.0 0
242000.0 464542.0 0
246000.0 464542.0 0
250000.0 464543.0 0
254000.0 464542.0 0
258000.0 464542.0 0
262000.0 464542.0 0
266000.0 464542.0 0
270000.0 464542.0 0
274000.0 464542.0 0
278000.0 464542.0 0
282000.0 464542.0 0
286000.0 464542.0 0
290002.0 464561.0 0
294002.0 464541.0 0
298137.0 464838.0 0
302098.0 464481.0 0
306040.0 464979.0 0
309946.0 464345.0 0
313827.0 465054.0 0
317710.0 464467.0 0
321599.0 465109.0 0
329401.0 465132.0 0
337274.0 465610.0 0
341207.0 465791.0 0
345146.0 465960.0 0
349097.0 466146.0 0
353071.0 466336.0 0
357064.0 466483.0 0
361036.0 466679.0 0
365005.0 466910.0 0
368985.0 467148.0 0
374756.0 465966.0 0
378740.0 466152.0 0
383175.0 466021.0 0
387289.0 466143.0 0
391282.0 466323.0 0
396417.0 465634.0 0
401148.0 467349.0 0
102284.0 469376.0 0
106267.0 469407.0 0
110854.0 469640.0 0
114874.0 469493.0 0
118946.0 469405.0 0
123287.0 469498.0 0
127280.0 469391.0 0
131484.0 470980.0 0
135469.0 470766.0 0
139460.0 470552.0 0
143459.0 470362.0 0
147450.0 470200.0 0
151439.0 470014.0 0
155428.0 469831.0 0
159414.0 469663.0 0
163387.0 469485.0 0
167352.0 469298.0 0
171297.0 469044.0 0
175210.0 468535.0 0
179121.0 469031.0 0
183005.0 468380.0 0
186904.0 468966.0 0
190780.0 468277.0 0
194678.0 468891.0 0
198590.0 468419.0 0
202523.0 468742.0 0
206455.0 468513.0 0
210397.0 468553.0 0
214344.0 468547.0 0
218296.0 468546.0 0
222250.0 468545.0 0
226208.0 468544.0 0
230169.0 468543.0 0
234132.0 468543.0 0
238098.0 468542.0 0
242064.0 468542.0 0
246032.0 468542.0 0
250000.0 468543.0 0
253968.0 468542.0 0
257936.0 468542.0 0
261902.0 468542.0 0
265868.0 468543.0 0
269831.0 468543.0 0
273792.0 468544.0 0
277750.0 468545.0 0
281704.0 468546.0 0
285656.0 468547.0 0
289603.0 468553.0 0
293545.0 468513.0 0
297477.0 468742.0 0
301410.0 468419.0 0
305322.0 468891.0 0
309220.0 468277.0 0
313096.0 468966.0 0
316995.0 468380.0 0
320879.0 469031.0 0
324790.0 468535.0 0
328703.0 469044.0 0
332648.0 469298.0 0
336613.0 469485.0 0
340586.0 469663.0 0
344572.0 469831.0 0
348561.0 470014.0 0
352550.0 470200.0 0
356541.0 470362.0 0
360540.0 470552.0 0
364531.0 470766.0 0
368516.0 470980.0 0
372720.0 469391.0 0
376713.0 469498.0 0
381054.0 469405.0 0
385126.0 469493.0 0
389146.0 469640.0 0
393733.0 469407.0 0
397716.0 469376.0 0
100810.0 473066.0 0
104808.0 473097.0 0
108819.0 473070.0 0
112953.0 472994.0 0
116978.0 472886.0 0
120977.0 472835.0 0
124966.0 473053.0 0
128847.0 473901.0 0
133614.0 474268.0 0
137607.0 474070.0 0
141596.0 473872.0 0
145584.0 473704.0 0
149576.0 473527.0 0
153565.0 473342.0 0
157554.0 473167.0 0
161545.0 473012.0 0
165532.0 472828.0 0
169824.0 472749.0 0
173820.0 472525.0 0
177807.0 472790.0 0
181822.0 472528.0 0
185809.0 472785.0 0
189851.0 472531.0 0
193840.0 472772.0 0
197952.0 472536.0 0
201947.0 472664.0 0
206000.0 472541.0 0
210000.0 472542.0 0
214000.0 472542.0 0
218000.0 472542.0 0
222000.0 472542.0 0
226000.0 472542.0 0
230000.0 472542.0 0
234000.0 472542.0 0
238000.0 472542.0 0
242000.0 472542.0 0
246000.0 472542.0 0
250000.0 472543.0 0
254000.0 472542.0 0
258000.0 472542.0 0
262000.0 472542.0 0
266000.0 472542.0 0
270000.0 472542.0 0
274000.0 472542.0 0
278000.0 472542.0 0
282000.0 472542.0 0
286000.0 472542.0 0
290000.0 472542.0 0
294000.0 472541.0 0
298053.0 472664.0 0
302048.0 472536.0 0
306160.0 472772.0 0
310149.0 472531.0 0
314191.0 472785.0 0
318178.0 472528.0 0
322193.0 472790.0 0
326180.0 472525.0 0
330176.0 472749.0 0
334468.0 472828.0 0
338455.0 473012.0 0
342446.0 473167.0 0
346435.0 473342.0 0
350424.0 473527.0 0
354416.0 473704.0 0
358404.0 473872.0 0
362393.0 474070.0 0
366386.0 474268.0 0
371153.0 473901.0 0
375034.0 473053.0 0
379023.0 472835.0 0
383022.0 472886.0 0
387047.0 472994.0 0
391181.0 473070.0 0
395192.0 473097.0 0
399190.0 473066.0 0
102166.0 476816.0 0
106185.0 476834.0 0
110180.0 476825.0 0
114175.0 476770.0 0
118166.0 476711.0 0
122163.0 476737.0 0
126170.0 476836.0 0
131000.0 477260.0 0
135390.0 477758.0 0
139352.0 477614.0 0
143285.0 477454.0 0
147202.0 477327.0 0
151111.0 477179.0 0
155010.0 477029.0 0
158903.0 476887.0 0
162791.0 476789.0 0
166682.0 476633.0 0
170582.0 476705.0 0
174491.0 476467.0 0
178413.0 476733.0 0
182346.0 476493.0 0
186290.0 476736.0 0
190239.0 476511.0 0
194197.0 476731.0 0
198159.0 476530.0 0
202131.0 476633.0 0
206105.0 476540.0 0
210086.0 476543.0 0
214069.0 476542.0 0
218056.0 476542.0 0
222045.0 476542.0 0
226035.0 476542.0 0
230027.0 476542.0 0
234021.0 476542.0 0
238015.0 476542.0 0
242010.0 476542.0 0
246005.0 476542.0 0
250000.0 476542.0 0
253995.0 476542.0 0
257990.0 476542.0 0
261985.0 476542.0 0
265979.0 476542.0 0
269973.0 476542.0 0
273965.0 476542.0 0
277955.0 476542.0 0
281944.0 476542.0 0
285931.0 476542.0 0
289914.0 476543.0 0
293895.0 476540.0 0
297869.0 476633.0 0
301841.0 476530.0 0
305803.0 476731.0 0
309761.0 476511.0 0
313710.0 476736.0 0
317654.0 476493.0 0
321587.0 476733.0 0
325509.0 476467.0 0
329418.0 476705.0 0
333318.0 476633.0 0
337209.0 476789.0 0
341097.0 476887.0 0
344990.0 477029.0 0
348889.0 477179.0 0
352798.0 477327.0 0
356715.0 477454.0 0
360648.0 477614.0 0
364610.0 477758.0 0
369000.0 477260.0 0
373830.0 476836.0 0
377837.0 476737.0 0
381834.0 476711.0 0
385825.0 476770.0 0
389820.0 476825.0 0
393815.0 476834.0 0
397834.0 476816.0 0
101738.0 480785.0 0
105731.0 480795.0 0
109720.0 480790.0 0
113701.0 480732.0 0
117676.0 480689.0 0
121642.0 480730.0 0
125601.0 480766.0 0
129551.0 480981.0 0
133495.0 481231.0 0
137476.0 481122.0 0
141455.0 480986.0 0
145449.0 480905.0 0
149509.0 480824.0 0
153714.0 480789.0 0
157788.0 480701.0 0
161933.0 480680.0 0
165971.0 480560.0 0
169976.0 480655.0 0
173975.0 480540.0 0
177971.0 480692.0 0
181981.0 480541.0 0
185977.0 480702.0 0
189987.0 480541.0 0
193983.0 480700.0 0
197996.0 480542.0 0
201995.0 480609.0 0
206000.0 480542.0 0
210000.0 480542.0 0
214000.0 480542.0 0
218000.0 480542.0 0
222000.0 480542.0 0
226000.0 480542.0 0
230000.0 480542.0 0
234000.0 480542.0 0
238000.0 480542.0 0
242000.0 480542.0 0
246000.0 480542.0 0
250000.0 480542.0 0
254000.0 480542.0 0
258000.0 480542.0 0
262000.0 480542.0 0
266000.0 480542.0 0
270000.0 480542.0 0
274000.0 480542.0 0
278000.0 480542.0 0
282000.0 480542.0 0
286000.0 480542.0 0
290000.0 480542.0 0
294000.0 480542.0 0
298005.0 480609.0 0
302004.0 480542.0 0
306017.0 480700.0 0
310013.0 480541.0 0
314023.0 480702.0 0
318019.0 480541.0 0
322029.0 480692.0 0
326025.0 480540.0 0
330024.0 480655.0 0
334029.0 480560.0 0
338067.0 480680.0 0
342212.0 480701.0 0
346286.0 480789.0 0
350491.0 480824.0 0
354551.0 480905.0 0
358545.0 480986.0 0
362524.0 481122.0 0
366505.0 481231.0 0
370449.0 480981.0 0
374399.0 480766.0 0
378358.0 480730.0 0
382324.0 480689.0 0
386299.0 480732.0 0
390280.0 480790.0 0
394269.0 480795.0 0
398262.0 480785.0 0
102016.0 484767.0 0
106019.0 484773.0 0
110019.0 484770.0 0
114018.0 484714.0 0
118017.0 484675.0 0
122016.0 484712.0 0
126016.0 484735.0 0
130116.0 484936.0 0
134194.0 485122.0 0
138185.0 485017.0 0
142170.0 484898.0 0
146155.0 484828.0 0
150139.0 484756.0 0
154123.0 484748.0 0
158105.0 484666.0 0
162089.0 484664.0 0
166074.0 484555.0 0
170061.0 484649.0 0
174050.0 484539.0 0
178039.0 484676.0 0
182031.0 484540.0 0
186023.0 484682.0 0
190017.0 484541.0 0
194011.0 484676.0 0
198007.0 484542.0 0
202005.0 484593.0 0
206003.0 484542.0 0
210002.0 484542.0 0
214002.0 484542.0 0
218001.0 484542.0 0
222001.0 484542.0 0
226000.0 484542.0 0
230000.0 484542.0 0
234000.0 484542.0 0
238000.0 484542.0 0
242000.0 484542.0 0
246000.0 484542.0 0
250000.0 484542.0 0
254000.0 484542.0 0
258000.0 484542.0 0
262000.0 484542.0 0
266000.0 484542.0 0
270000.0 484542.0 0
274000.0 484542.0 0
277999.0 484542.0 0
281999.0 484542.0 0
285998.0 484542.0 0
289998.0 484542.0 0
293997.0 484542.0 0
297995.0 484593.0 0
301993.0 484542.0 0
305989.0 484676.0 0
309983.0 484541.0 0
313977.0 484682.0 0
317969.0 484540.0 0
321961.0 484676.0 0
325950.0 484539.0 0
329939.0 484649.0 0
333926.0 484555.0 0
337911.0 484664.0 0
341895.0 484666.0 0
345877.0 484748.0 0
349861.0 484756.0 0
353845.0 484828.0 0
357830.0 484898.0 0
361815.0 485017.0 0
365806.0 485122.0 0
369884.0 484936.0 0
373984.0 484735.0 0
377984.0 484712.0 0
381983.0 484675.0 0
385982.0 484714.0 0
389981.0 484770.0 0
393981.0 484773.0 0
397984.0 484767.0 0
101983.0 488760.0 0
105982.0 488763.0 0
109981.0 488760.0 0
113979.0 488708.0 0
117976.0 488673.0 0
121973.0 488711.0 0
125969.0 488733.0 0
129960.0 488924.0 0
133952.0 489067.0 0
137949.0 488978.0 0
141947.0 488869.0 0
145960.0 488807.0 0
149969.0 488733.0 0
153982.0 488725.0 0
157989.0 488643.0 0
161995.0 488653.0 0
165999.0 488552.0 0
169998.0 488644.0 0
174000.0 488542.0 0
177998.0 488661.0 0
182000.0 488542.0 0
185999.0 488664.0 0
190000.0 488542.0 0
193999.0 488655.0 0
198000.0 488542.0 0
202000.0 488581.0 0
206000.0 488542.0 0
210000.0 488542.0 0
214000.0 488542.0 0
218000.0 488542.0 0
222000.0 488542.0 0
226000.0 488542.0 0
230000.0 488542.0 0
234000.0 488542.0 0
238000.0 488542.0 0
242000.0 488542.0 0
246000.0 488542.0 0
250000.0 488542.0 0
254000.0 488542.0 0
258000.0 488542.0 0
262000.0 488542.0 0
266000.0 488542.0 0
270000.0 488542.0 0
274000.0 488542.0 0
278000.0 488542.0 0
282000.0 488542.0 0
286000.0 488542.0 0
290000.0 488542.0 0
294000.0 488542.0 0
298000.0 488581.0 0
302000.0 488542.0 0
306001.0 488655.0 0
310000.0 488542.0 0
314001.0 488664.0 0
318000.0 488542.0 0
322002.0 488661.0 0
326000.0 488542.0 0
330002.0 488644.0 0
334001.0 488552.0 0
338005.0 488653.0 0
342011.0 488643.0 0
346018.0 488725.0 0
350031.0 488733.0 0
354040.0 488807.0 0
358053.0 488869.0 0
362051.0 488978.0 0
366048.0 489067.0 0
370040.0 488924.0 0
374031.0 488733.0 0
378027.0 488711.0 0
382024.0 488673.0 0
386021.0 488708.0 0
390019.0 488760.0 0
394018.0 488763.0 0
398017.0 488760.0 0
102001.0 492753.0 0
106001.0 492754.0 0
110001.0 492749.0 0
114001.0 492701.0 0
118001.0 492670.0 0
122001.0 492709.0 0
126001.0 492731.0 0
130014.0 492910.0 0
134017.0 493019.0 0
138016.0 492947.0 0
142013.0 492843.0 0
146012.0 492788.0 0
150010.0 492713.0 0
154009.0 492705.0 0
158007.0 492624.0 0
162006.0 492645.0 0
166004.0 492550.0 0
170002.0 492638.0 0
174001.0 492542.0 0
178000.0 492648.0 0
182000.0 492542.0 0
186000.0 492648.0 0
190000.0 492542.0 0
194000.0 492637.0 0
198000.0 492542.0 0
202000.0 492572.0 0
206000.0 492542.0 0
210000.0 492542.0 0
214000.0 492542.0 0
218000.0 492542.0 0
222000.0 492542.0 0
226000.0 492542.0 0
230000.0 492542.0 0
234000.0 492542.0 0
238000.0 492542.0 0
242000.0 492542.0 0
246000.0 492542.0 0
250000.0 492542.0 0
254000.0 492542.0 0
258000.0 492542.0 0
262000.0 492542.0 0
266000.0 492542.0 0
270000.0 492542.0 0
274000.0 492542.0 0
278000.0 492542.0 0
282000.0 492542.0 0
286000.0 492542.0 0
290000.0 492542.0 0
294000.0 492542.0 0
298000.0 492572.0 0
302000.0 492542.0 0
306000.0 492637.0 0
310000.0 492542.0 0
314000.0 492648.0 0
318000.0 492542.0 0
322000.0 492648.0 0
325999.0 492542.0 0
329998.0 492638.0 0
333996.0 492550.0 0
337994.0 492645.0 0
341993.0 492624.0 0
345991.0 492705.0 0
349990.0 492713.0 0
353988.0 492788.0 0
357987.0 492843.0 0
361984.0 492947.0 0
365983.0 493019.0 0
369986.0 492910.0 0
373999.0 492731.0 0
377999.0 492709.0 0
381999.0 492670.0 0
385999.0 492701.0 0
389999.0 492749.0 0
393999.0 492754.0 0
397999.0 492753.0 0
102000.0 496746.0 0
106000.0 496745.0 0
110000.0 496739.0 0
113999.0 496694.0 0
117999.0 496666.0 0
121999.0 496707.0 0
125998.0 496729.0 0
129995.0 496895.0 0
133994.0 496973.0 0
137994.0 496915.0 0
141997.0 496817.0 0
145998.0 496768.0 0
149999.0 496692.0 0
153999.0 496687.0 0
158000.0 496608.0 0
162000.0 496637.0 0
166000.0 496548.0 0
170000.0 496632.0 0
174000.0 496542.0 0
178000.0 496635.0 0
182000.0 496542.0 0
186000.0 496634.0 0
190000.0 496542.0 0
194000.0 496622.0 0
198000.0 496542.0 0
202000.0 496565.0 0
206000.0 496542.0 0
210000.0 496542.0 0
214000.0 496542.0 0
218000.0 496542.0 0
222000.0 496542.0 0
226000.0 496542.0 0
230000.0 496542.0 0
234000.0 496542.0 0
238000.0 496542.0 0
242000.0 496542.0 0
246000.0 496542.0 0
250000.0 496542.0 0
254000.0 496542.0 0
258000.0 496542.0 0
262000.0 496542.0 0
266000.0 496542.0 0
270000.0 496542.0 0
274000.0 496542.0 0
278000.0 496542.0 0
282000.0 496542.0 0
286000.0 496542.0 0
290000.0 496542.0 0
294000.0 496542.0 0
298000.0 496565.0 0
302000.0 496542.0 0
306000.0 496622.0 0
310000.0 496542.0 0
314000.0 496634.0 0
318000.0 496542.0 0
322000.0 496635.0 0
326000.0 496542.0 0
330000.0 496632.0 0
334000.0 496548.0 0
338000.0 496637.0 0
342000.0 496608.0 0
346001.0 496687.0 0
350001.0 496692.0 0
354002.0 496768.0 0
358003.0 496817.0 0
362006.0 496915.0 0
366006.0 496973.0 0
370005.0 496895.0 0
374002.0 496729.0 0
378001.0 496707.0 0
382001.0 496666.0 0
386001.0 496694.0 0
390000.0 496739.0 0
394000.0 496745.0 0
398000.0 496746.0 0
102000.0 500738.0 0
106000.0 500738.0 0
110000.0 500730.0 0
114000.0 500686.0 0
118000.0 500661.0 0
122000.0 500704.0 0
126000.0 500725.0 0
130002.0 500878.0 0
134002.0 500929.0 0
138002.0 500885.0 0
142001.0 500791.0 0
146000.0 500749.0 0
150000.0 500673.0 0
154000.0 500671.0 0
158000.0 500595.0 0
162000.0 500630.0 0
166000.0 500546.0 0
170000.0 500626.0 0
174000.0 500542.0 0
178000.0 500624.0 0
182000.0 500542.0 0
186000.0 500622.0 0
190000.0 500542.0 0
194000.0 500608.0 0
198000.0 500542.0 0
202000.0 500559.0 0
206000.0 500542.0 0
210000.0 500542.0 0
214000.0 500542.0 0
218000.0 500542.0 0
222000.0 500542.0 0
226000.0 500542.0 0
230000.0 500542.0 0
234000.0 500542.0 0
238000.0 500542.0 0
242000.0 500542.0 0
246000.0 500542.0 0
250000.0 500542.0 0
254000.0 500542.0 0
258000.0 500542.0 0
262000.0 500542.0 0
266000.0 500542.0 0
270000.0 500542.0 0
274000.0 500542.0 0
278000.0 500542.0 0
282000.0 500542.0 0
286000.0 500542.0 0
290000.0 500542.0 0
294000.0 500542.0 0
298000.0 500559.0 0
302000.0 500542.0 0
306000.0 500608.0 0
310000.0 500542.0 0
314000.0 500622.0 0
318000.0 500542.0 0
322000.0 500624.0 0
326000.0 500542.0 0
330000.0 500626.0 0
334000.0 500546.0 0
338000.0 500630.0 0
342000.0 500595.0 0
346000.0 500671.0 0
350000.0 500673.0 0
354000.0 500749.0 0
357999.0 500791.0 0
361998.0 500885.0 0
365998.0 500929.0 0
369998.0 500878.0 0
374000.0 500725.0 0
378000.0 500704.0 0
382000.0 500661.0 0
386000.0 500686.0 0
390000.0 500730.0 0
394000.0 500738.0 0
398000.0 500738.0 0
102000.0 504730.0 0
106000.0 504731.0 0
110000.0 504721.0 0
114000.0 504678.0 0
118000.0 504656.0 0
122000.0 504701.0 0
126000.0 504721.0 0
130000.0 504860.0 0
134000.0 504888.0 0
138000.0 504855.0 0
142000.0 504766.0 0
146000.0 504729.0 0
150000.0 504655.0 0
154000.0 504657.0 0
158000.0 504584.0 0
162000.0 504624.0 0
166000.0 504545.0 0
170000.0 504619.0 0
174000.0 504542.0 0
178000.0 504614.0 0
182000.0 504542.0 0
186000.0 504611.0 0
190000.0 504542.0 0
194000.0 504597.0 0
198000.0 504542.0 0
202000.0 504555.0 0
206000.0 504542.0 0
210000.0 504542.0 0
214000.0 504542.0 0
218000.0 504542.0 0
222000.0 504542.0 0
226000.0 504542.0 0
230000.0 504542.0 0
234000.0 504542.0 0
238000.0 504542.0 0
242000.0 504542.0 0
246000.0 504542.0 0
250000.0 504542.0 0
254000.0 504542.0 0
258000.0 504542.0 0
262000.0 504542.0 0
266000.0 504542.0 0
270000.0 504542.0 0
274000.0 504542.0 0
278000.0 504542.0 0
282000.0 504542.0 0
286000.0 504542.0 0
290000.0 504542.0 0
294000.0 504542.0 0
298000.0 504555.0 0
302000.0 504542.0 0
306000.0 504597.0 0
310000.0 504542.0 0
314000.0 504611.0 0
318000.0 504542.0 0
322000.0 504614.0 0
326000.0 504542.0 0
330000.0 504619.0 0
334000.0 504545.0 0
338000.0 504624.0 0
342000.0 504584.0 0
346000.0 504657.0 0
350000.0 504655.0 0
354000.0 504729.0 0
358000.0 504766.0 0
362000.0 504855.0 0
366000.0 504888.0 0
370000.0 504860.0 0
374000.0 504721.0 0
378000.0 504701.0 0
382000.0 504656.0 0
386000.0 504678.0 0
390000.0 504721.0 0
394000.0 504731.0 0
398000.0 504730.0 0
102000.0 508722.0 0
106000.0 508724.0 0
110000.0 508712.0 0
114000.0 508671.0 0
118000.0 508650.0 0
122000.0 508697.0 0
126000.0 508716.0 0
130000.0 508841.0 0
134000.0 508851.0 0
138000.0 508827.0 0
142000.0 508742.0 0
146000.0 508711.0 0
150000.0 508639.0 0
154000.0 508644.0 0
158000.0 508575.0 0
162000.0 508617.0 0
166000.0 508543.0 0
170000.0 508613.0 0
174000.0 508542.0 0
178000.0 508605.0 0
182000.0 508542.0 0
186000.0 508601.0 0
190000.0 508542.0 0
194000.0 508587.0 0
198000.0 508542.0 0
202000.0 508552.0 0
206000.0 508542.0 0
210000.0 508542.0 0
214000.0 508542.0 0
218000.0 508542.0 0
222000.0 508542.0 0
226000.0 508542.0 0
230000.0 508542.0 0
234000.0 508542.0 0
238000.0 508542.0 0
242000.0 508542.0 0
246000.0 508542.0 0
250000.0 508542.0 0
254000.0 508542.0 0
258000.0 508542.0 0
262000.0 508542.0 0
266000.0 508542.0 0
270000.0 508542.0 0
274000.0 508542.0 0
278000.0 508542.0 0
282000.0 508542.0 0
286000.0 508542.0 0
290000.0 508542.0 0
294000.0 508542.0 0
298000.0 508552.0 0
302000.0 508542.0 0
306000.0 508587.0 0
310000.0 508542.0 0
314000.0 508601.0 0
318000.0 508542.0 0
322000.0 508605.0 0
326000.0 508542.0 0
330000.0 508613.0 0
334000.0 508543.0 0
338000.0 508617.0 0
342000.0 508575.0 0
346000.0 508644.0 0
350000.0 508639.0 0
354000.0 508711.0 0
358000.0 508742.0 0
362000.0 508827.0 0
366000.0 508851.0 0
370000.0 508841.0 0
374000.0 508716.0 0
378000.0 508697.0 0
382000.0 508650.0 0
386000.0 508671.0 0
390000.0 508712.0 0
394000.0 508724.0 0
398000.0 508722.0 0
102000.0 512715.0 0
106000.0 512717.0 0
110000.0 512704.0 0
114000.0 512664.0 0
118000.0 512644.0 0
122000.0 512693.0 0
126000.0 512710.0 0
130000.0 512822.0 0
134000.0 512817.0 0
138000.0 512801.0 0
142000.0 512720.0 0
146000.0 512694.0 0
150000.0 512624.0 0
154000.0 512633.0 0
158000.0 512567.0 0
162000.0 512611.0 0
166000.0 512543.0 0
170000.0 512607.0 0
174000.0 512542.0 0
178000.0 512597.0 0
182000.0 512542.0 0
186000.0 512593.0 0
190000.0 512542.0 0
194000.0 512579.0 0
198000.0 512542.0 0
202000.0 512549.0 0
206000.0 512542.0 0
210000.0 512542.0 0
214000.0 512542.0 0
218000.0 512542.0 0
222000.0 512542.0 0
226000.0 512542.0 0
230000.0 512542.0 0
234000.0 512542.0 0
238000.0 512542.0 0
242000.0 512542.0 0
246000.0 512542.0 0
250000.0 512542.0 0
254000.0 512542.0 0
258000.0 512542.0 0
262000.0 512542.0 0
266000.0 512542.0 0
270000.0 512542.0 0
274000.0 512542.0 0
278000.0 512542.0 0
282000.0 512542.0 0
286000.0 512542.0 0
290000.0 512542.0 0
294000.0 512542.0 0
298000.0 512549.0 0
302000.0 512542.0 0
306000.0 512579.0 0
310000.0 512542.0 0
314000.0 512593.0 0
318000.0 512542.0 0
322000.0 512597.0 0
326000.0 512542.0 0
330000.0 512607.0 0
334000.0 512543.0 0
338000.0 512611.0 0
342000.0 512567.0 0
346000.0 512633.0 0
350000.0 512624.0 0
354000.0 512694.0 0
358000.0 512720.0 0
362000.0 512801.0 0
366000.0 512817.0 0
370000.0 512822.0 0
374000.0 512710.0 0
378000.0 512693.0 0
382000.0 512644.0 0
386000.0 512664.0 0
390000.0 512704.0 0
394000.0 512717.0 0
398000.0 512715.0 0
150000.0 516611.0 0
154000.0 516623.0 0
158000.0 516562.0 0
162000.0 516605.0 0
166000.0 516542.0 0
170000.0 516601.0 0
174000.0 516542.0 0
178000.0 516590.0 0
182000.0 516542.0 0
186000.0 516585.0 0
190000.0 516542.0 0
194000.0 516573.0 0
198000.0 516542.0 0
202000.0 516547.0 0
206000.0 516542.0 0
210000.0 516542.0 0
214000.0 516542.0 0
218000.0 516542.0 0
222000.0 516542.0 0
226000.0 516542.0 0
230000.0 516542.0 0
234000.0 516542.0 0
238000.0 516542.0 0
242000.0 516542.0 0
246000.0 516542.0 0
250000.0 516542.0 0
254000.0 516542.0 0
258000.0 516542.0 0
262000.0 516542.0 0
266000.0 516542.0 0
270000.0 516542.0 0
274000.0 516542.0 0
278000.0 516542.0 0
282000.0 516542.0 0
286000.0 516542.0 0
290000.0 516542.0 0
294000.0 516542.0 0
298000.0 516547.0 0
302000.0 516542.0 0
306000.0 516573.0 0
310000.0 516542.0 0
314000.0 516585.0 0
318000.0 516542.0 0
322000.0 516590.0 0
326000.0 516542.0 0
330000.0 516601.0 0
334000.0 516542.0 0
338000.0 516605.0 0
342000.0 516562.0 0
346000.0 516623.0 0
350000.0 516611.0 0
102000.0 516707.0 0
106000.0 516710.0 0
110000.0 516696.0 0
114000.0 516657.0 0
118000.0 516638.0 0
122000.0 516688.0 0
126000.0 516704.0 0
130000.0 516803.0 0
134000.0 516786.0 0
138000.0 516777.0 0
142000.0 516700.0 0
146000.0 516678.0 0
354000.0 516678.0 0
358000.0 516700.0 0
362000.0 516777.0 0
366000.0 516786.0 0
370000.0 516803.0 0
374000.0 516704.0 0
378000.0 516688.0 0
382000.0 516638.0 0
386000.0 516657.0 0
390000.0 516696.0 0
394000.0 516710.0 0
398000.0 516707.0 0
102000.0 520699.0 0
106000.0 520704.0 0
110000.0 520689.0 0
114000.0 520650.0 0
118000.0 520632.0 0
122000.0 520683.0 0
126000.0 520698.0 0
130000.0 520784.0 0
134000.0 520759.0 0
138000.0 520756.0 0
142000.0 520682.0 0
146000.0 520664.0 0
150000.0 520600.0 0
154000.0 520615.0 0
158000.0 520557.0 0
162000.0 520600.0 0
166000.0 520542.0 0
170000.0 520595.0 0
174000.0 520542.0 0
178000.0 520584.0 0
182000.0 520542.0 0
186000.0 520579.0 0
190000.0 520542.0 0
194000.0 520567.0 0
198000.0 520542.0 0
202000.0 520546.0 0
206000.0 520542.0 0
210000.0 520542.0 0
214000.0 520542.0 0
218000.0 520542.0 0
222000.0 520542.0 0
226000.0 520542.0 0
230000.0 520542.0 0
234000.0 520542.0 0
238000.0 520542.0 0
242000.0 520542.0 0
246000.0 520542.0 0
250000.0 520542.0 0
254000.0 520542.0 0
258000.0 520542.0 0
262000.0 520542.0 0
266000.0 520542.0 0
270000.0 520542.0 0
274000.0 520542.0 0
278000.0 520542.0 0
282000.0 520542.0 0
286000.0 520542.0 0
290000.0 520542.0 0
294000.0 520542.0 0
298000.0 520546.0 0
302000.0 520542.0 0
306000.0 520567.0 0
310000.0 520542.0 0
314000.0 520579.0 0
318000.0 520542.0 0
322000.0 520584.0 0
326000.0 520542.0 0
330000.0 520595.0 0
334000.0 520542.0 0
338000.0 520600.0 0
342000.0 520557.0 0
346000.0 520615.0 0
350000.0 520600.0 0
354000.0 520664.0 0
358000.0 520682.0 0
362000.0 520756.0 0
366000.0 520759.0 0
370000.0 520784.0 0
374000.0 520698.0 0
378000.0 520683.0 0
382000.0 520632.0 0
386000.0 520650.0 0
390000.0 520689.0 0
394000.0 520704.0 0
398000.0 520699.0 0
102000.0 524692.0 0
106000.0 524697.0 0
110000.0 524681.0 0
114000.0 524644.0 0
118000.0 524626.0 0
122000.0 524677.0 0
126000.0 524691.0 0
130000.0 524766.0 0
134000.0 524734.0 0
138000.0 524736.0 0
142000.0 524666.0 0
146000.0 524652.0 0
150000.0 524591.0 0
154000.0 524607.0 0
158000.0 524554.0 0
162000.0 524595.0 0
166000.0 524542.0 0
170000.0 524590.0 0
174000.0 524542.0 0
178000.0 524578.0 0
182000.0 524542.0 0
186000.0 524573.0 0
190000.0 524542.0 0
194000.0 524562.0 0
198000.0 524542.0 0
202000.0 524545.0 0
206000.0 524542.0 0
210000.0 524542.0 0
214000.0 524542.0 0
218000.0 524542.0 0
222000.0 524542.0 0
226000.0 524542.0 0
230000.0 524542.0 0
234000.0 524542.0 0
238000.0 524542.0 0
242000.0 524542.0 0
246000.0 524542.0 0
250000.0 524542.0 0
254000.0 524542.0 0
258000.0 524542.0 0
262000.0 524542.0 0
266000.0 524542.0 0
270000.0 524542.0 0
274000.0 524542.0 0
278000.0 524542.0 0
282000.0 524542.0 0
286000.0 524542.0 0
290000.0 524542.0 0
294000.0 524542.0 0
298000.0 524545.0 0
302000.0 524542.0 0
306000.0 524562.0 0
310000.0 524542.0 0
314000.0 524573.0 0
318000.0 524542.0 0
322000.0 524578.0 0
326000.0 524542.0 0
330000.0 524590.0 0
334000.0 524542.0 0
338000.0 524595.0 0
342000.0 524554.0 0
346000.0 524607.0 0
350000.0 524591.0 0
354000.0 524652.0 0
358000.0 524666.0 0
362000.0 524736.0 0
366000.0 524734.0 0
370000.0 524766.0 0
374000.0 524691.0 0
378000.0 524677.0 0
382000.0 524626.0 0
386000.0 524644.0 0
390000.0 524681.0 0
394000.0 524697.0 0
398000.0 524692.0 0
102000.0 528685.0 0
106000.0 528691.0 0
110000.0 528674.0 0
114000.0 528638.0 0
118000.0 528620.0 0
122000.0 528672.0 0
126000.0 528684.0 0
130000.0 528748.0 0
134000.0 528713.0 0
138000.0 528718.0 0
142000.0 528651.0 0
146000.0 528641.0 0
150000.0 528583.0 0
154000.0 528601.0 0
158000.0 528551.0 0
162000.0 528590.0 0
166000.0 528542.0 0
170000.0 528585.0 0
174000.0 528542.0 0
178000.0 528573.0 0
182000.0 528542.0 0
186000.0 528568.0 0
190000.0 528542.0 0
194000.0 528558.0 0
198000.0 528542.0 0
202000.0 528544.0 0
206000.0 528542.0 0
210000.0 528542.0 0
214000.0 528542.0 0
218000.0 528542.0 0
222000.0 528542.0 0
226000.0 528542.0 0
230000.0 528542.0 0
234000.0 528542.0 0
238000.0 528542.0 0
242000.0 528542.0 0
246000.0 528542.0 0
250000.0 528542.0 0
254000.0 528542.0 0
258000.0 528542.0 0
262000.0 528542.0 0
266000.0 528542.0 0
270000.0 528542.0 0
274000.0 528542.0 0
278000.0 528542.0 0
282000.0 528542.0 0
286000.0 528542.0 0
290000.0 528542.0 0
294000.0 528542.0 0
298000.0 528544.0 0
302000.0 528542.0 0
306000.0 528558.0 0
310000.0 528542.0 0
314000.0 528568.0 0
318000.0 528542.0 0
322000.0 528573.0 0
326000.0 528542.0 0
330000.0 528585.0 0
334000.0 528542.0 0
338000.0 528590.0 0
342000.0 528551.0 0
346000.0 528601.0 0
350000.0 528583.0 0
354000.0 528641.0 0
358000.0 528651.0 0
362000.0 528718.0 0
366000.0 528713.0 0
370000.0 528748.0 0
374000.0 528684.0 0
378000.0 528672.0 0
382000.0 528620.0 0
386000.0 528638.0 0
390000.0 528674.0 0
394000.0 528691.0 0
398000.0 528685.0 0
102000.0 532678.0 0
106000.0 532684.0 0
110000.0 532668.0 0
114000.0 532632.0 0
118000.0 532615.0 0
122000.0 532666.0 0
126000.0 532676.0 0
130000.0 532732.0 0
134000.0 532694.0 0
138000.0 532702.0 0
142000.0 532638.0 0
146000.0 532631.0 0
150000.0 532576.0 0
154000.0 532595.0 0
158000.0 532549.0 0
162000.0 532586.0 0
166000.0 532542.0 0
170000.0 532580.0 0
174000.0 532542.0 0
178000.0 532569.0 0
182000.0 532542.0 0
186000.0 532564.0 0
190000.0 532542.0 0
194000.0 532555.0 0
198000.0 532542.0 0
202000.0 532544.0 0
206000.0 532542.0 0
210000.0 532542.0 0
214000.0 532542.0 0
218000.0 532542.0 0
222000.0 532542.0 0
226000.0 532542.0 0
230000.0 532542.0 0
234000.0 532542.0 0
238000.0 532542.0 0
242000.0 532542.0 0
246000.0 532542.0 0
250000.0 532542.0 0
254000.0 532542.0 0
258000.0 532542.0 0
262000.0 532542.0 0
266000.0 532542.0 0
270000.0 532542.0 0
274000.0 532542.0 0
278000.0 532542.0 0
282000.0 532542.0 0
286000.0 532542.0 0
290000.0 532542.0 0
294000.0 532542.0 0
298000.0 532544.0 0
302000.0 532542.0 0
306000.0 532555.0 0
310000.0 532542.0 0
314000.0 532564.0 0
318000.0 532542.0 0
322000.0 532569.0 0
326000.0 532542.0 0
330000.0 532580.0 0
334000.0 532542.0 0
338000.0 532586.0 0
342000.0 532549.0 0
346000.0 532595.0 0
350000.0 532576.0 0
354000.0 532631.0 0
358000.0 532638.0 0
362000.0 532702.0 0
366000.0 532694.0 0
370000.0 532732.0 0
374000.0 532676.0 0
378000.0 532666.0 0
382000.0 532615.0 0
386000.0 532632.0 0
390000.0 532668.0 0
394000.0 532684.0 0
398000.0 532678.0 0
102000.0 536672.0 0
106000.0 536677.0 0
110000.0 536661.0 0
114000.0 536627.0 0
118000.0 536610.0 0
122000.0 536661.0 0
126000.0 536669.0 0
130000.0 536716.0 0
134000.0 536677.0 0
138000.0 536688.0 0
142000.0 536627.0 0
146000.0 536622.0 0
150000.0 536571.0 0
154000.0 536590.0 0
158000.0 536547.0 0
162000.0 536582.0 0
166000.0 536542.0 0
170000.0 536576.0 0
174000.0 536542.0 0
178000.0 536566.0 0
182000.0 536542.0 0
186000.0 536560.0 0
190000.0 536542.0 0
194000.0 536553.0 0
198000.0 536542.0 0
202000.0 536543.0 0
206000.0 536542.0 0
210000.0 536542.0 0
214000.0 536542.0 0
218000.0 536542.0 0
222000.0 536542.0 0
226000.0 536542.0 0
230000.0 536542.0 0
234000.0 536542.0 0
238000.0 536542.0 0
242000.0 536542.0 0
246000.0 536542.0 0
250000.0 536542.0 0
254000.0 536542.0 0
258000.0 536542.0 0
262000.0 536542.0 0
266000.0 536542.0 0
270000.0 536542.0 0
274000.0 536542.0 0
278000.0 536542.0 0
282000.0 536542.0 0
286000.0 536542.0 0
290000.0 536542.0 0
294000.0 536542.0 0
298000.0 536543.0 0
302000.0 536542.0 0
306000.0 536553.0 0
310000.0 536542.0 0
314000.0 536560.0 0
318000.0 536542.0 0
322000.0 536566.0 0
326000.0 536542.0 0
330000.0 536576.0 0
334000.0 536542.0 0
338000.0 536582.0 0
342000.0 536547.0 0
346000.0 536590.0 0
350000.0 536571.0 0
354000.0 536622.0 0
358000.0 536627.0 0
362000.0 536688.0 0
366000.0 536677.0 0
370000.0 536716.0 0
374000.0 536669.0 0
378000.0 536661.0 0
382000.0 536610.0 0
386000.0 536627.0 0
390000.0 536661.0 0
394000.0 536677.0 0
398000.0 536672.0 0
102000.0 540665.0 0
106000.0 540671.0 0
110000.0 540655.0 0
114000.0 540622.0 0
118000.0 540605.0 0
122000.0 540655.0 0
126000.0 540661.0 0
130000.0 540702.0 0
134000.0 540661.0 0
138000.0 540675.0 0
142000.0 540617.0 0
146000.0 540614.0 0
150000.0 540566.0 0
154000.0 540586.0 0
158000.0 540546.0 0
162000.0 540579.0 0
166000.0 540542.0 0
170000.0 540572.0 0
174000.0 540542.0 0
178000.0 540562.0 0
182000.0 540542.0 0
186000.0 540557.0 0
190000.0 540542.0 0
194000.0 540550.0 0
198000.0 540542.0 0
202000.0 540543.0 0
206000.0 540542.0 0
210000.0 540542.0 0
214000.0 540542.0 0
218000.0 540542.0 0
222000.0 540542.0 0
226000.0 540542.0 0
230000.0 540542.0 0
234000.0 540542.0 0
238000.0 540542.0 0
242000.0 540542.0 0
246000.0 540542.0 0
250000.0 540542.0 0
254000.0 540542.0 0
258000.0 540542.0 0
262000.0 540542.0 0
266000.0 540542.0 0
270000.0 540542.0 0
274000.0 540542.0 0
278000.0 540542.0 0
282000.0 540542.0 0
286000.0 540542.0 0
290000.0 540542.0 0
294000.0 540542.0 0
298000.0 540543.0 0
302000.0 540542.0 0
306000.0 540550.0 0
310000.0 540542.0 0
314000.0 540557.0 0
318000.0 540542.0 0
322000.0 540562.0 0
326000.0 540542.0 0
330000.0 540572.0 0
334000.0 540542.0 0
338000.0 540579.0 0
342000.0 540546.0 0
346000.0 540586.0 0
350000.0 540566.0 0
354000.0 540614.0 0
358000.0 540617.0 0
362000.0 540675.0 0
366000.0 540661.0 0
370000.0 540702.0 0
374000.0 540661.0 0
378000.0 540655.0 0
382000.0 540605.0 0
386000.0 540622.0 0
390000.0 540655.0 0
394000.0 540671.0 0
398000.0 540665.0 0
102000.0 544659.0 0
106000.0 544664.0 0
110000.0 544648.0 0
114000.0 544617.0 0
118000.0 544600.0 0
122000.0 544649.0 0
126000.0 544654.0 0
130000.0 544688.0 0
134000.0 544648.0 0
138000.0 544663.0 0
142000.0 544608.0 0
146000.0 544607.0 0
150000.0 544562.0 0
154000.0 544581.0 0
158000.0 544545.0 0
162000.0 544575.0 0
166000.0 544542.0 0
170000.0 544569.0 0
174000.0 544542.0 0
178000.0 544559.0 0
182000.0 544542.0 0
186000.0 544555.0 0
190000.0 544542.0 0
194000.0 544549.0 0
198000.0 544542.0 0
202000.0 544543.0 0
206000.0 544542.0 0
210000.0 544542.0 0
214000.0 544542.0 0
218000.0 544542.0 0
222000.0 544542.0 0
226000.0 544542.0 0
230000.0 544542.0 0
234000.0 544542.0 0
238000.0 544542.0 0
242000.0 544542.0 0
246000.0 544542.0 0
250000.0 544542.0 0
254000.0 544542.0 0
258000.0 544542.0 0
262000.0 544542.0 0
266000.0 544542.0 0
270000.0 544542.0 0
274000.0 544542.0 0
278000.0 544542.0 0
282000.0 544542.0 0
286000.0 544542.0 0
290000.0 544542.0 0
294000.0 544542.0 0
298000.0 544543.0 0
302000.0 544542.0 0
306000.0 544549.0 0
310000.0 544542.0 0
314000.0 544555.0 0
318000.0 544542.0 0
322000.0 544559.0 0
326000.0 544542.0 0
330000.0 544569.0 0
334000.0 544542.0 0
338000.0 544575.0 0
342000.0 544545.0 0
346000.0 544581.0 0
350000.0 544562.0 0
354000.0 544607.0 0
358000.0 544608.0 0
362000.0 544663.0 0
366000.0 544648.0 0
370000.0 544688.0 0
374000.0 544654.0 0
378000.0 544649.0 0
382000.0 544600.0 0
386000.0 544617.0 0
390000.0 544648.0 0
394000.0 544664.0 0
398000.0 544659.0 0
102000.0 548653.0 0
106000.0 548658.0 0
110000.0 548643.0 0
114000.0 548613.0 0
118000.0 548596.0 0
122000.0 548644.0 0
126000.0 548647.0 0
130000.0 548676.0 0
134000.0 548636.0 0
138000.0 548652.0 0
142000.0 548600.0 0
146000.0 548601.0 0
150000.0 548558.0 0
154000.0 548578.0 0
158000.0 548544.0 0
162000.0 548572.0 0
166000.0 548542.0 0
170000.0 548566.0 0
174000.0 548542.0 0
178000.0 548557.0 0
182000.0 548542.0 0
186000.0 548552.0 0
190000.0 548542.0 0
194000.0 548547.0 0
198000.0 548542.0 0
202000.0 548542.0 0
206000.0 548542.0 0
210000.0 548542.0 0
214000.0 548542.0 0
218000.0 548542.0 0
222000.0 548542.0 0
226000.0 548542.0 0
230000.0 548542.0 0
234000.0 548542.0 0
238000.0 548542.0 0
242000.0 548542.0 0
246000.0 548542.0 0
250000.0 548542.0 0
254000.0 548542.0 0
258000.0 548542.0 0
262000.0 548542.0 0
266000.0 548542.0 0
270000.0 548542.0 0
274000.0 548542.0 0
278000.0 548542.0 0
282000.0 548542.0 0
286000.0 548542.0 0
290000.0 548542.0 0
294000.0 548542.0 0
298000.0 548542.0 0
302000.0 548542.0 0
306000.0 548547.0 0
310000.0 548542.0 0
314000.0 548552.0 0
318000.0 548542.0 0
322000.0 548557.0 0
326000.0 548542.0 0
330000.0 548566.0 0
334000.0 548542.0 0
338000.0 548572.0 0
342000.0 548544.0 0
346000.0 548578.0 0
350000.0 548558.0 0
354000.0 548601.0 0
358000.0 548600.0 0
362000.0 548652.0 0
366000.0 548636.0 0
370000.0 548676.0 0
374000.0 548647.0 0
378000.0 548644.0 0
382000.0 548596.0 0
386000.0 548613.0 0
390000.0 548643.0 0
394000.0 548658.0 0
398000.0 548653.0 0
102000.0 552648.0 0
106000.0 552652.0 0
110000.0 552637.0 0
114000.0 552608.0 0
118000.0 552592.0 0
122000.0 552638.0 0
126000.0 552640.0 0
130000.0 552664.0 0
134000.0 552625.0 0
138000.0 552642.0 0
142000.0 552593.0 0
146000.0 552595.0 0
150000.0 552555.0 0
154000.0 552574.0 0
158000.0 552543.0 0
162000.0 552569.0 0
166000.0 552542.0 0
170000.0 552563.0 0
174000.0 552542.0 0
178000.0 552555.0 0
182000.0 552542.0 0
186000.0 552551.0 0
190000.0 552542.0 0
194000.0 552546.0 0
198000.0 552542.0 0
202000.0 552542.0 0
206000.0 552542.0 0
210000.0 552542.0 0
214000.0 552542.0 0
218000.0 552542.0 0
222000.0 552542.0 0
226000.0 552542.0 0
230000.0 552542.0 0
234000.0 552542.0 0
238000.0 552542.0 0
242000.0 552542.0 0
246000.0 552542.0 0
250000.0 552542.0 0
254000.0 552542.0 0
258000.0 552542.0 0
262000.0 552542.0 0
266000.0 552542.0 0
270000.0 552542.0 0
274000.0 552542.0 0
278000.0 552542.0 0
282000.0 552542.0 0
286000.0 552542.0 0
290000.0 552542.0 0
294000.0 552542.0 0
298000.0 552542.0 0
302000.0 552542.0 0
306000.0 552546.0 0
310000.0 552542.0 0
314000.0 552551.0 0
318000.0 552542.0 0
322000.0 552555.0 0
326000.0 552542.0 0
330000.0 552563.0 0
334000.0 552542.0 0
338000.0 552569.0 0
342000.0 552543.0 0
346000.0 552574.0 0
350000.0 552555.0 0
354000.0 552595.0 0
358000.0 552593.0 0
362000.0 552642.0 0
366000.0 552625.0 0
370000.0 552664.0 0
374000.0 552640.0 0
378000.0 552638.0 0
382000.0 552592.0 0
386000.0 552608.0 0
390000.0 552637.0 0
394000.0 552652.0 0
398000.0 552648.0 0
102000.0 556642.0 0
106000.0 556646.0 0
110000.0 556631.0 0
114000.0 556604.0 0
118000.0 556588.0 0
122000.0 556633.0 0
126000.0 556633.0 0
130000.0 556653.0 0
134000.0 556616.0 0
138000.0 556633.0 0
142000.0 556587.0 0
146000.0 556590.0 0
150000.0 556553.0 0
154000.0 556571.0 0
158000.0 556543.0 0
162000.0 556567.0 0
166000.0 556542.0 0
170000.0 556560.0 0
174000.0 556542.0 0
178000.0 556553.0 0
182000.0 556542.0 0
186000.0 556549.0 0
190000.0 556542.0 0
194000.0 556545.0 0
198000.0 556542.0 0
202000.0 556542.0 0
206000.0 556542.0 0
210000.0 556542.0 0
214000.0 556542.0 0
218000.0 556542.0 0
222000.0 556542.0 0
226000.0 556542.0 0
230000.0 556542.0 0
234000.0 556542.0 0
238000.0 556542.0 0
242000.0 556542.0 0
246000.0 556542.0 0
250000.0 556542.0 0
254000.0 556542.0 0
258000.0 556542.0 0
262000.0 556542.0 0
266000.0 556542.0 0
270000.0 556542.0 0
274000.0 556542.0 0
278000.0 556542.0 0
282000.0 556542.0 0
286000.0 556542.0 0
290000.0 556542.0 0
294000.0 556542.0 0
298000.0 556542.0 0
302000.0 556542.0 0
306000.0 556545.0 0
310000.0 556542.0 0
314000.0 556549.0 0
318000.0 556542.0 0
322000.0 556553.0 0
326000.0 556542.0 0
330000.0 556560.0 0
334000.0 556542.0 0
338000.0 556567.0 0
342000.0 556543.0 0
346000.0 556571.0 0
350000.0 556553.0 0
354000.0 556590.0 0
358000.0 556587.0 0
362000.0 556633.0 0
366000.0 556616.0 0
370000.0 556653.0 0
374000.0 556633.0 0
378000.0 556633.0 0
382000.0 556588.0 0
386000.0 556604.0 0
390000.0 556631.0 0
394000.0 556646.0 0
398000.0 556642.0 0
102000.0 560637.0 0
106000.0 560640.0 0
110000.0 560626.0 0
114000.0 560601.0 0
118000.0 560584.0 0
122000.0 560628.0 0
126000.0 560626.0 0
130000.0 560644.0 0
134000.0 560607.0 0
138000.0 560625.0 0
142000.0 560581.0 0
146000.0 560585.0 0
150000.0 560551.0 0
154000.0 560569.0 0
158000.0 560543.0 0
162000.0 560564.0 0
166000.0 560542.0 0
170000.0 560558.0 0
174000.0 560542.0 0
178000.0 560551.0 0
182000.0 560542.0 0
186000.0 560548.0 0
190000.0 560542.0 0
194000.0 560544.0 0
198000.0 560542.0 0
202000.0 560542.0 0
206000.0 560542.0 0
210000.0 560542.0 0
214000.0 560542.0 0
218000.0 560542.0 0
222000.0 560542.0 0
226000.0 560542.0 0
230000.0 560542.0 0
234000.0 560542.0 0
238000.0 560542.0 0
242000.0 560542.0 0
246000.0 560542.0 0
250000.0 560542.0 0
254000.0 560542.0 0
258000.0 560542.0 0
262000.0 560542.0 0
266000.0 560542.0 0
270000.0 560542.0 0
274000.0 560542.0 0
278000.0 560542.0 0
282000.0 560542.0 0
286000.0 560542.0 0
290000.0 560542.0 0
294000.0 560542.0 0
298000.0 560542.0 0
302000.0 560542.0 0
306000.0 560544.0 0
310000.0 560542.0 0
314000.0 560548.0 0
318000.0 560542.0 0
322000.0 560551.0 0
326000.0 560542.0 0
330000.0 560558.0 0
334000.0 560542.0 0
338000.0 560564.0 0
342000.0 560543.0 0
346000.0 560569.0 0
350000.0 560551.0 0
354000.0 560585.0 0
358000.0 560581.0 0
362000.0 560625.0 0
366000.0 560607.0 0
370000.0 560644.0 0
374000.0 560626.0 0
378000.0 560628.0 0
382000.0 560584.0 0
386000.0 560601.0 0
390000.0 560626.0 0
394000.0 560640.0 0
398000.0 560637.0 0
102000.0 564632.0 0
106000.0 564635.0 0
110000.0 564621.0 0
114000.0 564597.0 0
118000.0 564581.0 0
122000.0 564623.0 0
126000.0 564620.0 0
130000.0 564635.0 0
134000.0 564600.0 0
138000.0 564618.0 0
142000.0 564576.0 0
146000.0 564581.0 0
150000.0 564549.0 0
154000.0 564566.0 0
158000.0 564542.0 0
162000.0 564562.0 0
166000.0 564542.0 0
170000.0 564556.0 0
174000.0 564542.0 0
178000.0 564550.0 0
182000.0 564542.0 0
186000.0 564547.0 0
190000.0 564542.0 0
194000.0 564544.0 0
198000.0 564542.0 0
202000.0 564542.0 0
206000.0 564542.0 0
210000.0 564542.0 0
214000.0 564542.0 0
218000.0 564542.0 0
222000.0 564542.0 0
226000.0 564542.0 0
230000.0 564542.0 0
234000.0 564542.0 0
238000.0 564542.0 0
242000.0 564542.0 0
246000.0 564542.0 0
250000.0 564542.0 0
254000.0 564542.0 0
258000.0 564542.0 0
262000.0 564542.0 0
266000.0 564542.0 0
270000.0 564542.0 0
274000.0 564542.0 0
278000.0 564542.0 0
282000.0 564542.0 0
286000.0 564542.0 0
290000.0 564542.0 0
294000.0 564542.0 0
298000.0 564542.0 0
302000.0 564542.0 0
306000.0 564544.0 0
310000.0 564542.0 0
314000.0 564547.0 0
318000.0 564542.0 0
322000.0 564550.0 0
326000.0 564542.0 0
330000.0 564556.0 0
334000.0 564542.0 0
338000.0 564562.0 0
342000.0 564542.0 0
346000.0 564566.0 0
350000.0 564549.0 0
354000.0 564581.0 0
358000.0 564576.0 0
362000.0 564618.0 0
366000.0 564600.0 0
370000.0 564635.0 0
374000.0 564620.0 0
378000.0 564623.0 0
382000.0 564581.0 0
386000.0 564597.0 0
390000.0 564621.0 0
394000.0 564635.0 0
398000.0 564632.0 0
102000.0 568627.0 0
106000.0 568629.0 0
110000.0 568616.0 0
114000.0 568594.0 0
118000.0 568578.0 0
122000.0 568618.0 0
126000.0 568613.0 0
130000.0 568627.0 0
134000.0 568593.0 0
138000.0 568611.0 0
142000.0 568572.0 0
146000.0 568577.0 0
150000.0 568548.0 0
154000.0 568564.0 0
158000.0 568542.0 0
162000.0 568560.0 0
166000.0 568542.0 0
170000.0 568554.0 0
174000.0 568542.0 0
178000.0 568549.0 0
182000.0 568542.0 0
186000.0 568546.0 0
190000.0 568542.0 0
194000.0 568543.0 0
198000.0 568542.0 0
202000.0 568542.0 0
206000.0 568542.0 0
210000.0 568542.0 0
214000.0 568542.0 0
218000.0 568542.0 0
222000.0 568542.0 0
226000.0 568542.0 0
230000.0 568542.0 0
234000.0 568542.0 0
238000.0 568542.0 0
242000.0 568542.0 0
246000.0 568542.0 0
250000.0 568542.0 0
254000.0 568542.0 0
258000.0 568542.0 0
262000.0 568542.0 0
266000.0 568542.0 0
270000.0 568542.0 0
274000.0 568542.0 0
278000.0 568542.0 0
282000.0 568542.0 0
286000.0 568542.0 0
290000.0 568542.0 0
294000.0 568542.0 0
298000.0 568542.0 0
302000.0 568542.0 0
306000.0 568543.0 0
310000.0 568542.0 0
314000.0 568546.0 0
318000.0 568542.0 0
322000.0 568549.0 0
326000.0 568542.0 0
330000.0 568554.0 0
334000.0 568542.0 0
338000.0 568560.0 0
342000.0 568542.0 0
346000.0 568564.0 0
350000.0 568548.0 0
354000.0 568577.0 0
358000.0 568572.0 0
362000.0 568611.0 0
366000.0 568593.0 0
370000.0 568627.0 0
374000.0 568613.0 0
378000.0 568618.0 0
382000.0 568578.0 0
386000.0 568594.0 0
390000.0 568616.0 0
394000.0 568629.0 0
398000.0 568627.0 0
102000.0 572623.0 0
106000.0 572624.0 0
110000.0 572612.0 0
114000.0 572591.0 0
118000.0 572575.0 0
122000.0 572613.0 0
126000.0 572608.0 0
130000.0 572619.0 0
134000.0 572587.0 0
138000.0 572605.0 0
142000.0 572568.0 0
146000.0 572573.0 0
150000.0 572547.0 0
154000.0 572562.0 0
158000.0 572542.0 0
162000.0 572558.0 0
166000.0 572542.0 0
170000.0 572552.0 0
174000.0 572542.0 0
178000.0 572547.0 0
182000.0 572542.0 0
186000.0 572545.0 0
190000.0 572542.0 0
194000.0 572543.0 0
198000.0 572542.0 0
202000.0 572542.0 0
206000.0 572542.0 0
210000.0 572542.0 0
214000.0 572542.0 0
218000.0 572542.0 0
222000.0 572542.0 0
226000.0 572542.0 0
230000.0 572542.0 0
234000.0 572542.0 0
238000.0 572542.0 0
242000.0 572542.0 0
246000.0 572542.0 0
250000.0 572542.0 0
254000.0 572542.0 0
258000.0 572542.0 0
262000.0 572542.0 0
266000.0 572542.0 0
270000.0 572542.0 0
274000.0 572542.0 0
278000.0 572542.0 0
282000.0 572542.0 0
286000.0 572542.0 0
290000.0 572542.0 0
294000.0 572542.0 0
298000.0 572542.0 0
302000.0 572542.0 0
306000.0 572543.0 0
310000.0 572542.0 0
314000.0 572545.0 0
318000.0 572542.0 0
322000.0 572547.0 0
326000.0 572542.0 0
330000.0 572552.0 0
334000.0 572542.0 0
338000.0 572558.0 0
342000.0 572542.0 0
346000.0 572562.0 0
350000.0 572547.0 0
354000.0 572573.0 0
358000.0 572568.0 0
362000.0 572605.0 0
366000.0 572587.0 0
370000.0 572619.0 0
374000.0 572608.0 0
378000.0 572613.0 0
382000.0 572575.0 0
386000.0 572591.0 0
390000.0 572612.0 0
394000.0 572624.0 0
398000.0 572623.0 0
102000.0 576619.0 0
106000.0 576619.0 0
110000.0 576608.0 0
114000.0 576588.0 0
118000.0 576573.0 0
122000.0 576609.0 0
126000.0 576602.0 0
130000.0 576613.0 0
134000.0 576582.0 0
138000.0 576599.0 0
142000.0 576564.0 0
146000.0 576570.0 0
150000.0 576546.0 0
154000.0 576560.0 0
158000.0 576542.0 0
162000.0 576556.0 0
166000.0 576542.0 0
170000.0 576551.0 0
174000.0 576542.0 0
178000.0 576547.0 0
182000.0 576542.0 0
186000.0 576544.0 0
190000.0 576542.0 0
194000.0 576543.0 0
198000.0 576542.0 0
202000.0 576542.0 0
206000.0 576542.0 0
210000.0 576542.0 0
214000.0 576542.0 0
218000.0 576542.0 0
222000.0 576542.0 0
226000.0 576542.0 0
230000.0 576542.0 0
234000.0 576542.0 0
238000.0 576542.0 0
242000.0 576542.0 0
246000.0 576542.0 0
250000.0 576542.0 0
254000.0 576542.0 0
258000.0 576542.0 0
262000.0 576542.0 0
266000.0 576542.0 0
270000.0 576542.0 0
274000.0 576542.0 0
278000.0 576542.0 0
282000.0 576542.0 0
286000.0 576542.0 0
290000.0 576542.0 0
294000.0 576542.0 0
298000.0 576542.0 0
302000.0 576542.0 0
306000.0 576543.0 0
310000.0 576542.0 0
314000.0 576544.0 0
318000.0 576542.0 0
322000.0 576547.0 0
326000.0 576542.0 0
330000.0 576551.0 0
334000.0 576542.0 0
338000.0 576556.0 0
342000.0 576542.0 0
346000.0 576560.0 0
350000.0 576546.0 0
354000.0 576570.0 0
358000.0 576564.0 0
362000.0 576599.0 0
366000.0 576582.0 0
370000.0 576613.0 0
374000.0 576602.0 0
378000.0 576609.0 0
382000.0 576573.0 0
386000.0 576588.0 0
390000.0 576608.0 0
394000.0 576619.0 0
398000.0 576619.0 0
102000.0 580615.0 0
106000.0 580615.0 0
110000.0 580604.0 0
114000.0 580585.0 0
118000.0 580571.0 0
122000.0 580604.0 0
126000.0 580597.0 0
130000.0 580607.0 0
134000.0 580577.0 0
138000.0 580594.0 0
142000.0 580561.0 0
146000.0 580567.0 0
150000.0 580545.0 0
154000.0 580558.0 0
158000.0 580542.0 0
162000.0 580555.0 0
166000.0 580542.0 0
170000.0 580550.0 0
174000.0 580542.0 0
178000.0 580546.0 0
182000.0 580542.0 0
186000.0 580544.0 0
190000.0 580542.0 0
194000.0 580543.0 0
198000.0 580542.0 0
202000.0 580542.0 0
206000.0 580542.0 0
210000.0 580542.0 0
214000.0 580542.0 0
218000.0 580542.0 0
222000.0 580542.0 0
226000.0 580542.0 0
230000.0 580542.0 0
234000.0 580542.0 0
238000.0 580542.0 0
242000.0 580542.0 0
246000.0 580542.0 0
250000.0 580542.0 0
254000.0 580542.0 0
258000.0 580542.0 0
262000.0 580542.0 0
266000.0 580542.0 0
270000.0 580542.0 0
274000.0 580542.0 0
278000.0 580542.0 0
282000.0 580542.0 0
286000.0 580542.0 0
290000.0 580542.0 0
294000.0 580542.0 0
298000.0 580542.0 0
302000.0 580542.0 0
306000.0 580543.0 0
310000.0 580542.0 0
314000.0 580544.0 0
318000.0 580542.0 0
322000.0 580546.0 0
326000.0 580542.0 0
330000.0 580550.0 0
334000.0 580542.0 0
338000.0 580555.0 0
342000.0 580542.0 0
346000.0 580558.0 0
350000.0 580545.0 0
354000.0 580567.0 0
358000.0 580561.0 0
362000.0 580594.0 0
366000.0 580577.0 0
370000.0 580607.0 0
374000.0 580597.0 0
378000.0 580604.0 0
382000.0 580571.0 0
386000.0 580585.0 0
390000.0 580604.0 0
394000.0 580615.0 0
398000.0 580615.0 0
102000.0 584611.0 0
106000.0 584611.0 0
110000.0 584600.0 0
114000.0 584583.0 0
118000.0 584568.0 0
122000.0 584601.0 0
126000.0 584592.0 0
130000.0 584601.0 0
134000.0 584573.0 0
138000.0 584589.0 0
142000.0 584559.0 0
146000.0 584565.0 0
150000.0 584544.0 0
154000.0 584557.0 0
158000.0 584542.0 0
162000.0 584553.0 0
166000.0 584542.0 0
170000.0 584549.0 0
174000.0 584542.0 0
178000.0 584545.0 0
182000.0 584542.0 0
186000.0 584543.0 0
190000.0 584542.0 0
194000.0 584542.0 0
198000.0 584542.0 0
202000.0 584542.0 0
206000.0 584542.0 0
210000.0 584542.0 0
214000.0 584542.0 0
218000.0 584542.0 0
222000.0 584542.0 0
226000.0 584542.0 0
230000.0 584542.0 0
234000.0 584542.0 0
238000.0 584542.0 0
242000.0 584542.0 0
246000.0 584542.0 0
250000.0 584542.0 0
254000.0 584542.0 0
258000.0 584542.0 0
262000.0 584542.0 0
266000.0 584542.0 0
270000.0 584542.0 0
274000.0 584542.0 0
278000.0 584542.0 0
282000.0 584542.0 0
286000.0 584542.0 0
290000.0 584542.0 0
294000.0 584542.0 0
298000.0 584542.0 0
302000.0 584542.0 0
306000.0 584542.0 0
310000.0 584542.0 0
314000.0 584543.0 0
318000.0 584542.0 0
322000.0 584545.0 0
326000.0 584542.0 0
330000.0 584549.0 0
334000.0 584542.0 0
338000.0 584553.0 0
342000.0 584542.0 0
346000.0 584557.0 0
350000.0 584544.0 0
354000.0 584565.0 0
358000.0 584559.0 0
362000.0 584589.0 0
366000.0 584573.0 0
370000.0 584601.0 0
374000.0 584592.0 0
378000.0 584601.0 0
382000.0 584568.0 0
386000.0 584583.0 0
390000.0 584600.0 0
394000.0 584611.0 0
398000.0 584611.0 0
102000.0 588608.0 0
106000.0 588607.0 0
110000.0 588597.0 0
114000.0 588580.0 0
118000.0 588566.0 0
122000.0 588597.0 0
126000.0 588588.0 0
130000.0 588596.0 0
134000.0 588569.0 0
138000.0 588585.0 0
142000.0 588556.0 0
146000.0 588563.0 0
150000.0 588544.0 0
154000.0 588555.0 0
158000.0 588542.0 0
162000.0 588552.0 0
166000.0 588542.0 0
170000.0 588548.0 0
174000.0 588542.0 0
178000.0 588545.0 0
182000.0 588542.0 0
186000.0 588543.0 0
190000.0 588542.0 0
194000.0 588542.0 0
198000.0 588542.0 0
202000.0 588542.0 0
206000.0 588542.0 0
210000.0 588542.0 0
214000.0 588542.0 0
218000.0 588542.0 0
222000.0 588542.0 0
226000.0 588542.0 0
230000.0 588542.0 0
234000.0 588542.0 0
238000.0 588542.0 0
242000.0 588542.0 0
246000.0 588542.0 0
250000.0 588542.0 0
254000.0 588542.0 0
258000.0 588542.0 0
262000.0 588542.0 0
266000.0 588542.0 0
270000.0 588542.0 0
274000.0 588542.0 0
278000.0 588542.0 0
282000.0 588542.0 0
286000.0 588542.0 0
290000.0 588542.0 0
294000.0 588542.0 0
298000.0 588542.0 0
302000.0 588542.0 0
306000.0 588542.0 0
310000.0 588542.0 0
314000.0 588543.0 0
318000.0 588542.0 0
322000.0 588545.0 0
326000.0 588542.0 0
330000.0 588548.0 0
334000.0 588542.0 0
338000.0 588552.0 0
342000.0 588542.0 0
346000.0 588555.0 0
350000.0 588544.0 0
354000.0 588563.0 0
358000.0 588556.0 0
362000.0 588585.0 0
366000.0 588569.0 0
370000.0 588596.0 0
374000.0 588588.0 0
378000.0 588597.0 0
382000.0 588566.0 0
386000.0 588580.0 0
390000.0 588597.0 0
394000.0 588607.0 0
398000.0 588608.0 0
102000.0 592605.0 0
106000.0 592603.0 0
110000.0 592593.0 0
114000.0 592578.0 0
118000.0 592565.0 0
122000.0 592593.0 0
126000.0 592584.0 0
130000.0 592592.0 0
134000.0 592566.0 0
138000.0 592581.0 0
142000.0 592554.0 0
146000.0 592561.0 0
150000.0 592544.0 0
154000.0 592554.0 0
158000.0 592542.0 0
162000.0 592551.0 0
166000.0 592542.0 0
170000.0 592547.0 0
174000.0 592542.0 0
178000.0 592544.0 0
182000.0 592542.0 0
186000.0 592543.0 0
190000.0 592542.0 0
194000.0 592542.0 0
198000.0 592542.0 0
202000.0 592542.0 0
206000.0 592542.0 0
210000.0 592542.0 0
214000.0 592542.0 0
218000.0 592542.0 0
222000.0 592542.0 0
226000.0 592542.0 0
230000.0 592542.0 0
234000.0 592542.0 0
238000.0 592542.0 0
242000.0 592542.0 0
246000.0 592542.0 0
250000.0 592542.0 0
254000.0 592542.0 0
258000.0 592542.0 0
262000.0 592542.0 0
266000.0 592542.0 0
270000.0 592542.0 0
274000.0 592542.0 0
278000.0 592542.0 0
282000.0 592542.0 0
286000.0 592542.0 0
290000.0 592542.0 0
294000.0 592542.0 0
298000.0 592542.0 0
302000.0 592542.0 0
306000.0 592542.0 0
310000.0 592542.0 0
314000.0 592543.0 0
318000.0 592542.0 0
322000.0 592544.0 0
326000.0 592542.0 0
330000.0 592547.0 0
334000.0 592542.0 0
338000.0 592551.0 0
342000.0 592542.0 0
346000.0 592554.0 0
350000.0 592544.0 0
354000.0 592561.0 0
358000.0 592554.0 0
362000.0 592581.0 0
366000.0 592566.0 0
370000.0 592592.0 0
374000.0 592584.0 0
378000.0 592593.0 0
382000.0 592565.0 0
386000.0 592578.0 0
390000.0 592593.0 0
394000.0 592603.0 0
398000.0 592605.0 0
102000.0 596602.0 0
106000.0 596600.0 0
110000.0 596590.0 0
114000.0 596576.0 0
118000.0 596563.0 0
122000.0 596590.0 0
126000.0 596580.0 0
130000.0 596588.0 0
134000.0 596563.0 0
138000.0 596577.0 0
142000.0 596553.0 0
146000.0 596559.0 0
150000.0 596543.0 0
154000.0 596553.0 0
158000.0 596542.0 0
162000.0 596550.0 0
166000.0 596542.0 0
170000.0 596546.0 0
174000.0 596542.0 0
178000.0 596544.0 0
182000.0 596542.0 0
186000.0 596543.0 0
190000.0 596542.0 0
194000.0 596542.0 0
198000.0 596542.0 0
202000.0 596542.0 0
206000.0 596542.0 0
210000.0 596542.0 0
214000.0 596542.0 0
218000.0 596542.0 0
222000.0 596542.0 0
226000.0 596542.0 0
230000.0 596542.0 0
234000.0 596542.0 0
238000.0 596542.0 0
242000.0 596542.0 0
246000.0 596542.0 0
250000.0 596542.0 0
254000.0 596542.0 0
258000.0 596542.0 0
262000.0 596542.0 0
266000.0 596542.0 0
270000.0 596542.0 0
274000.0 596542.0 0
278000.0 596542.0 0
282000.0 596542.0 0
286000.0 596542.0 0
290000.0 596542.0 0
294000.0 596542.0 0
298000.0 596542.0 0
302000.0 596542.0 0
306000.0 596542.0 0
310000.0 596542.0 0
314000.0 596543.0 0
318000.0 596542.0 0
322000.0 596544.0 0
326000.0 596542.0 0
330000.0 596546.0 0
334000.0 596542.0 0
338000.0 596550.0 0
342000.0 596542.0 0
346000.0 596553.0 0
350000.0 596543.0 0
354000.0 596559.0 0
358000.0 596553.0 0
362000.0 596577.0 0
366000.0 596563.0 0
370000.0 596588.0 0
374000.0 596580.0 0
378000.0 596590.0 0
382000.0 596563.0 0
386000.0 596576.0 0
390000.0 596590.0 0
394000.0 596600.0 0
398000.0 596602.0 0
102000.0 600599.0 0
106000.0 600597.0 0
110000.0 600588.0 0
114000.0 600574.0 0
118000.0 600562.0 0
122000.0 600587.0 0
126000.0 600577.0 0
130000.0 600584.0 0
134000.0 600560.0 0
138000.0 600574.0 0
142000.0 600551.0 0
146000.0 600557.0 0
150000.0 600543.0 0
154000.0 600552.0 0
158000.0 600542.0 0
162000.0 600549.0 0
166000.0 600542.0 0
170000.0 600545.0 0
174000.0 600542.0 0
178000.0 600543.0 0
182000.0 600542.0 0
186000.0 600543.0 0
190000.0 600542.0 0
194000.0 600542.0 0
198000.0 600542.0 0
202000.0 600542.0 0
206000.0 600542.0 0
210000.0 600542.0 0
214000.0 600542.0 0
218000.0 600542.0 0
222000.0 600542.0 0
226000.0 600542.0 0
230000.0 600542.0 0
234000.0 600542.0 0
238000.0 600542.0 0
242000.0 600542.0 0
246000.0 600542.0 0
250000.0 600542.0 0
254000.0 600542.0 0
258000.0 600542.0 0
262000.0 600542.0 0
266000.0 600542.0 0
270000.0 600542.0 0
274000.0 600542.0 0
278000.0 600542.0 0
282000.0 600542.0 0
286000.0 600542.0 0
290000.0 600542.0 0
294000.0 600542.0 0
298000.0 600542.0 0
302000.0 600542.0 0
306000.0 600542.0 0
310000.0 600542.0 0
314000.0 600543.0 0
318000.0 600542.0 0
322000.0 600543.0 0
326000.0 600542.0 0
330000.0 600545.0 0
334000.0 600542.0 0
338000.0 600549.0 0
342000.0 600542.0 0
346000.0 600552.0 0
350000.0 600543.0 0
354000.0 600557.0 0
358000.0 600551.0 0
362000.0 600574.0 0
366000.0 600560.0 0
370000.0 600584.0 0
374000.0 600577.0 0
378000.0 600587.0 0
382000.0 600562.0 0
386000.0 600574.0 0
390000.0 600588.0 0
394000.0 600597.0 0
398000.0 600599.0 0
102000.0 604596.0 0
106000.0 604594.0 0
110000.0 604585.0 0
114000.0 604573.0 0
118000.0 604560.0 0
122000.0 604585.0 0
126000.0 604574.0 0
130000.0 604581.0 0
134000.0 604558.0 0
138000.0 604571.0 0
142000.0 604550.0 0
146000.0 604556.0 0
150000.0 604543.0 0
154000.0 604551.0 0
158000.0 604542.0 0
162000.0 604548.0 0
166000.0 604542.0 0
170000.0 604545.0 0
174000.0 604542.0 0
178000.0 604543.0 0
182000.0 604542.0 0
186000.0 604542.0 0
190000.0 604542.0 0
194000.0 604542.0 0
198000.0 604542.0 0
202000.0 604542.0 0
206000.0 604542.0 0
210000.0 604542.0 0
214000.0 604542.0 0
218000.0 604542.0 0
222000.0 604542.0 0
226000.0 604542.0 0
230000.0 604542.0 0
234000.0 604542.0 0
238000.0 604542.0 0
242000.0 604542.0 0
246000.0 604542.0 0
250000.0 604542.0 0
254000.0 604542.0 0
258000.0 604542.0 0
262000.0 604542.0 0
266000.0 604542.0 0
270000.0 604542.0 0
274000.0 604542.0 0
278000.0 604542.0 0
282000.0 604542.0 0
286000.0 604542.0 0
290000.0 604542.0 0
294000.0 604542.0 0
298000.0 604542.0 0
302000.0 604542.0 0
306000.0 604542.0 0
310000.0 604542.0 0
314000.0 604542.0 0
318000.0 604542.0 0
322000.0 604543.0 0
326000.0 604542.0 0
330000.0 604545.0 0
334000.0 604542.0 0
338000.0 604548.0 0
342000.0 604542.0 0
346000.0 604551.0 0
350000.0 604543.0 0
354000.0 604556.0 0
358000.0 604550.0 0
362000.0 604571.0 0
366000.0 604558.0 0
370000.0 604581.0 0
374000.0 604574.0 0
378000.0 604585.0 0
382000.0 604560.0 0
386000.0 604573.0 0
390000.0 604585.0 0
394000.0 604594.0 0
398000.0 604596.0 0
102000.0 608594.0 0
106000.0 608592.0 0
110000.0 608583.0 0
114000.0 608571.0 0
118000.0 608559.0 0
122000.0 608582.0 0
126000.0 608571.0 0
130000.0 608578.0 0
134000.0 608556.0 0
138000.0 608569.0 0
142000.0 608549.0 0
146000.0 608555.0 0
150000.0 608543.0 0
154000.0 608550.0 0
158000.0 608542.0 0
162000.0 608547.0 0
166000.0 608542.0 0
170000.0 608545.0 0
174000.0 608542.0 0
178000.0 608543.0 0
182000.0 608542.0 0
186000.0 608542.0 0
190000.0 608542.0 0
194000.0 608542.0 0
198000.0 608542.0 0
202000.0 608542.0 0
206000.0 608542.0 0
210000.0 608542.0 0
214000.0 608542.0 0
218000.0 608542.0 0
222000.0 608542.0 0
226000.0 608542.0 0
230000.0 608542.0 0
234000.0 608542.0 0
238000.0 608542.0 0
242000.0 608542.0 0
246000.0 608542.0 0
250000.0 608542.0 0
254000.0 608542.0 0
258000.0 608542.0 0
262000.0 608542.0 0
266000.0 608542.0 0
270000.0 608542.0 0
274000.0 608542.0 0
278000.0 608542.0 0
282000.0 608542.0 0
286000.0 608542.0 0
290000.0 608542.0 0
294000.0 608542.0 0
298000.0 608542.0 0
302000.0 608542.0 0
306000.0 608542.0 0
310000.0 608542.0 0
314000.0 608542.0 0
318000.0 608542.0 0
322000.0 608543.0 0
326000.0 608542.0 0
330000.0 608545.0 0
334000.0 608542.0 0
338000.0 608547.0 0
342000.0 608542.0 0
346000.0 608550.0 0
350000.0 608543.0 0
354000.0 608555.0 0
358000.0 608549.0 0
362000.0 608569.0 0
366000.0 608556.0 0
370000.0 608578.0 0
374000.0 608571.0 0
378000.0 608582.0 0
382000.0 608559.0 0
386000.0 608571.0 0
390000.0 608583.0 0
394000.0 608592.0 0
398000.0 608594.0 0
102000.0 612592.0 0
106000.0 612590.0 0
110000.0 612581.0 0
114000.0 612570.0 0
118000.0 612558.0 0
122000.0 612580.0 0
126000.0 612568.0 0
130000.0 612576.0 0
134000.0 612554.0 0
138000.0 612567.0 0
142000.0 612548.0 0
146000.0 612553.0 0
150000.0 612542.0 0
154000.0 612549.0 0
158000.0 612542.0 0
162000.0 612547.0 0
166000.0 612542.0 0
170000.0 612544.0 0
174000.0 612542.0 0
178000.0 612543.0 0
182000.0 612542.0 0
186000.0 612542.0 0
190000.0 612542.0 0
194000.0 612542.0 0
198000.0 612542.0 0
202000.0 612542.0 0
206000.0 612542.0 0
210000.0 612542.0 0
214000.0 612542.0 0
218000.0 612542.0 0
222000.0 612542.0 0
226000.0 612542.0 0
230000.0 612542.0 0
234000.0 612542.0 0
238000.0 612542.0 0
242000.0 612542.0 0
246000.0 612542.0 0
250000.0 612542.0 0
254000.0 612542.0 0
258000.0 612542.0 0
262000.0 612542.0 0
266000.0 612542.0 0
270000.0 612542.0 0
274000.0 612542.0 0
278000.0 612542.0 0
282000.0 612542.0 0
286000.0 612542.0 0
290000.0 612542.0 0
294000.0 612542.0 0
298000.0 612542.0 0
302000.0 612542.0 0
306000.0 612542.0 0
310000.0 612542.0 0
314000.0 612542.0 0
318000.0 612542.0 0
322000.0 612543.0 0
326000.0 612542.0 0
330000.0 612544.0 0
334000.0 612542.0 0
338000.0 612547.0 0
342000.0 612542.0 0
346000.0 612549.0 0
350000.0 612542.0 0
354000.0 612553.0 0
358000.0 612548.0 0
362000.0 612567.0 0
366000.0 612554.0 0
370000.0 612576.0 0
374000.0 612568.0 0
378000.0 612580.0 0
382000.0 612558.0 0
386000.0 612570.0 0
390000.0 612581.0 0
394000.0 612590.0 0
398000.0 612592.0 0
102000.0 616591.0 0
106000.0 616588.0 0
110000.0 616579.0 0
114000.0 616569.0 0
118000.0 616557.0 0
122000.0 616578.0 0
126000.0 616566.0 0
130000.0 616573.0 0
134000.0 616553.0 0
138000.0 616565.0 0
142000.0 616547.0 0
146000.0 616553.0 0
150000.0 616542.0 0
154000.0 616549.0 0
158000.0 616542.0 0
162000.0 616546.0 0
166000.0 616542.0 0
170000.0 616544.0 0
174000.0 616542.0 0
178000.0 616543.0 0
182000.0 616542.0 0
186000.0 616542.0 0
190000.0 616542.0 0
194000.0 616542.0 0
198000.0 616542.0 0
202000.0 616542.0 0
206000.0 616542.0 0
210000.0 616542.0 0
214000.0 616542.0 0
218000.0 616542.0 0
222000.0 616542.0 0
226000.0 616542.0 0
230000.0 616542.0 0
234000.0 616542.0 0
238000.0 616542.0 0
242000.0 616542.0 0
246000.0 616542.0 0
250000.0 616542.0 0
254000.0 616542.0 0
258000.0 616542.0 0
262000.0 616542.0 0
266000.0 616542.0 0
270000.0 616542.0 0
274000.0 616542.0 0
278000.0 616542.0 0
282000.0 616542.0 0
286000.0 616542.0 0
290000.0 616542.0 0
294000.0 616542.0 0
298000.0 616542.0 0
302000.0 616542.0 0
306000.0 616542.0 0
310000.0 616542.0 0
314000.0 616542.0 0
318000.0 616542.0 0
322000.0 616543.0 0
326000.0 616542.0 0
330000.0 616544.0 0
334000.0 616542.0 0
338000.0 616546.0 0
342000.0 616542.0 0
346000.0 616549.0 0
350000.0 616542.0 0
354000.0 616553.0 0
358000.0 616547.0 0
362000.0 616565.0 0
366000.0 616553.0 0
370000.0 616573.0 0
374000.0 616566.0 0
378000.0 616578.0 0
382000.0 616557.0 0
386000.0 616569.0 0
390000.0 616579.0 0
394000.0 616588.0 0
398000.0 616591.0 0
102000.0 620589.0 0
106000.0 620586.0 0
110000.0 620578.0 0
114000.0 620568.0 0
118000.0 620557.0 0
122000.0 620577.0 0
126000.0 620565.0 0
130000.0 620572.0 0
134000.0 620552.0 0
138000.0 620564.0 0
142000.0 620546.0 0
146000.0 620552.0 0
150000.0 620542.0 0
154000.0 620548.0 0
158000.0 620542.0 0
162000.0 620546.0 0
166000.0 620542.0 0
170000.0 620544.0 0
174000.0 620542.0 0
178000.0 620542.0 0
182000.0 620542.0 0
186000.0 620542.0 0
190000.0 620542.0 0
194000.0 620542.0 0
198000.0 620542.0 0
202000.0 620542.0 0
206000.0 620542.0 0
210000.0 620542.0 0
214000.0 620542.0 0
218000.0 620542.0 0
222000.0 620542.0 0
226000.0 620542.0 0
230000.0 620542.0 0
234000.0 620542.0 0
238000.0 620542.0 0
242000.0 620542.0 0
246000.0 620542.0 0
250000.0 620542.0 0
254000.0 620542.0 0
258000.0 620542.0 0
262000.0 620542.0 0
266000.0 620542.0 0
270000.0 620542.0 0
274000.0 620542.0 0
278000.0 620542.0 0
282000.0 620542.0 0
286000.0 620542.0 0
290000.0 620542.0 0
294000.0 620542.0 0
298000.0 620542.0 0
302000.0 620542.0 0
306000.0 620542.0 0
310000.0 620542.0 0
314000.0 620542.0 0
318000.0 620542.0 0
322000.0 620542.0 0
326000.0 620542.0 0
330000.0 620544.0 0
334000.0 620542.0 0
338000.0 620546.0 0
342000.0 620542.0 0
346000.0 620548.0 0
350000.0 620542.0 0
354000.0 620552.0 0
358000.0 620546.0 0
362000.0 620564.0 0
366000.0 620552.0 0
370000.0 620572.0 0
374000.0 620565.0 0
378000.0 620577.0 0
382000.0 620557.0 0
386000.0 620568.0 0
390000.0 620578.0 0
394000.0 620586.0 0
398000.0 620589.0 0
102000.0 624588.0 0
106000.0 624585.0 0
110000.0 624577.0 0
114000.0 624567.0 0
118000.0 624556.0 0
122000.0 624575.0 0
126000.0 624563.0 0
130000.0 624570.0 0
134000.0 624551.0 0
138000.0 624562.0 0
142000.0 624546.0 0
146000.0 624551.0 0
150000.0 624542.0 0
154000.0 624548.0 0
158000.0 624542.0 0
162000.0 624545.0 0
166000.0 624542.0 0
170000.0 624543.0 0
174000.0 624542.0 0
178000.0 624542.0 0
182000.0 624542.0 0
186000.0 624542.0 0
190000.0 624542.0 0
194000.0 624542.0 0
198000.0 624542.0 0
202000.0 624542.0 0
206000.0 624542.0 0
210000.0 624542.0 0
214000.0 624542.0 0
218000.0 624542.0 0
222000.0 624542.0 0
226000.0 624542.0 0
230000.0 624542.0 0
234000.0 624542.0 0
238000.0 624542.0 0
242000.0 624542.0 0
246000.0 624542.0 0
250000.0 624542.0 0
254000.0 624542.0 0
258000.0 624542.0 0
262000.0 624542.0 0
266000.0 624542.0 0
270000.0 624542.0 0
274000.0 624542.0 0
278000.0 624542.0 0
282000.0 624542.0 0
286000.0 624542.0 0
290000.0 624542.0 0
294000.0 624542.0 0
298000.0 624542.0 0
302000.0 624542.0 0
306000.0 624542.0 0
310000.0 624542.0 0
314000.0 624542.0 0
318000.0 624542.0 0
322000.0 624542.0 0
326000.0 624542.0 0
330000.0 624543.0 0
334000.0 624542.0 0
338000.0 624545.0 0
342000.0 624542.0 0
346000.0 624548.0 0
350000.0 624542.0 0
354000.0 624551.0 0
358000.0 624546.0 0
362000.0 624562.0 0
366000.0 624551.0 0
370000.0 624570.0 0
374000.0 624563.0 0
378000.0 624575.0 0
382000.0 624556.0 0
386000.0 624567.0 0
390000.0 624577.0 0
394000.0 624585.0 0
398000.0 624588.0 0
102000.0 628587.0 0
106000.0 628584.0 0
110000.0 628576.0 0
114000.0 628567.0 0
118000.0 628556.0 0
122000.0 628574.0 0
126000.0 628562.0 0
130000.0 628569.0 0
134000.0 628550.0 0
138000.0 628561.0 0
142000.0 628545.0 0
146000.0 628551.0 0
150000.0 628542.0 0
154000.0 628547.0 0
158000.0 628542.0 0
162000.0 628545.0 0
166000.0 628542.0 0
170000.0 628543.0 0
174000.0 628542.0 0
178000.0 628542.0 0
182000.0 628542.0 0
186000.0 628542.0 0
190000.0 628542.0 0
194000.0 628542.0 0
198000.0 628542.0 0
202000.0 628542.0 0
206000.0 628542.0 0
210000.0 628542.0 0
214000.0 628542.0 0
218000.0 628542.0 0
222000.0 628542.0 0
226000.0 628542.0 0
230000.0 628542.0 0
234000.0 628542.0 0
238000.0 628542.0 0
242000.0 628542.0 0
246000.0 628542.0 0
250000.0 628542.0 0
254000.0 628542.0 0
258000.0 628542.0 0
262000.0 628542.0 0
266000.0 628542.0 0
270000.0 628542.0 0
274000.0 628542.0 0
278000.0 628542.0 0
282000.0 628542.0 0
286000.0 628542.0 0
290000.0 628542.0 0
294000.0 628542.0 0
298000.0 628542.0 0
302000.0 628542.0 0
306000.0 628542.0 0
310000.0 628542.0 0
314000.0 628542.0 0
318000.0 628542.0 0
322000.0 628542.0 0
326000.0 628542.0 0
330000.0 628543.0 0
334000.0 628542.0 0
338000.0 628545.0 0
342000.0 628542.0 0
346000.0 628547.0 0
350000.0 628542.0 0
354000.0 628551.0 0
358000.0 628545.0 0
362000.0 628561.0 0
366000.0 628550.0 0
370000.0 628569.0 0
374000.0 628562.0 0
378000.0 628574.0 0
382000.0 628556.0 0
386000.0 628567.0 0
390000.0 628576.0 0
394000.0 628584.0 0
398000.0 628587.0 0
102000.0 632586.0 0
106000.0 632583.0 0
110000.0 632575.0 0
114000.0 632566.0 0
118000.0 632555.0 0
122000.0 632573.0 0
126000.0 632561.0 0
130000.0 632568.0 0
134000.0 632550.0 0
138000.0 632561.0 0
142000.0 632545.0 0
146000.0 632550.0 0
150000.0 632542.0 0
154000.0 632547.0 0
158000.0 632542.0 0
162000.0 632545.0 0
166000.0 632542.0 0
170000.0 632543.0 0
174000.0 632542.0 0
178000.0 632542.0 0
182000.0 632542.0 0
186000.0 632542.0 0
190000.0 632542.0 0
194000.0 632542.0 0
198000.0 632542.0 0
202000.0 632542.0 0
206000.0 632542.0 0
210000.0 632542.0 0
214000.0 632542.0 0
218000.0 632542.0 0
222000.0 632542.0 0
226000.0 632542.0 0
230000.0 632542.0 0
234000.0 632542.0 0
238000.0 632542.0 0
242000.0 632542.0 0
246000.0 632542.0 0
250000.0 632542.0 0
254000.0 632542.0 0
258000.0 632542.0 0
262000.0 632542.0 0
266000.0 632542.0 0
270000.0 632542.0 0
274000.0 632542.0 0
278000.0 632542.0 0
282000.0 632542.0 0
286000.0 632542.0 0
290000.0 632542.0 0
294000.0 632542.0 0
298000.0 632542.0 0
302000.0 632542.0 0
306000.0 632542.0 0
310000.0 632542.0 0
314000.0 632542.0 0
318000.0 632542.0 0
322000.0 632542.0 0
326000.0 632542.0 0
330000.0 632543.0 0
334000.0 632542.0 0
338000.0 632545.0 0
342000.0 632542.0 0
346000.0 632547.0 0
350000.0 632542.0 0
354000.0 632550.0 0
358000.0 632545.0 0
362000.0 632561.0 0
366000.0 632550.0 0
370000.0 632568.0 0
374000.0 632561.0 0
378000.0 632573.0 0
382000.0 632555.0 0
386000.0 632566.0 0
390000.0 632575.0 0
394000.0 632583.0 0
398000.0 632586.0 0
102000.0 636586.0 0
106000.0 636582.0 0
110000.0 636575.0 0
114000.0 636566.0 0
118000.0 636555.0 0
122000.0 636573.0 0
126000.0 636561.0 0
130000.0 636568.0 0
134000.0 636549.0 0
138000.0 636560.0 0
142000.0 636545.0 0
146000.0 636550.0 0
150000.0 636542.0 0
154000.0 636547.0 0
158000.0 636542.0 0
162000.0 636545.0 0
166000.0 636542.0 0
170000.0 636543.0 0
174000.0 636542.0 0
178000.0 636542.0 0
182000.0 636542.0 0
186000.0 636542.0 0
190000.0 636542.0 0
194000.0 636542.0 0
198000.0 636542.0 0
202000.0 636542.0 0
206000.0 636542.0 0
210000.0 636542.0 0
214000.0 636542.0 0
218000.0 636542.0 0
222000.0 636542.0 0
226000.0 636542.0 0
230000.0 636542.0 0
234000.0 636542.0 0
238000.0 636542.0 0
242000.0 636542.0 0
246000.0 636542.0 0
250000.0 636542.0 0
254000.0 636542.0 0
258000.0 636542.0 0
262000.0 636542.0 0
266000.0 636542.0 0
270000.0 636542.0 0
274000.0 636542.0 0
278000.0 636542.0 0
282000.0 636542.0 0
286000.0 636542.0 0
290000.0 636542.0 0
294000.0 636542.0 0
298000.0 636542.0 0
302000.0 636542.0 0
306000.0 636542.0 0
310000.0 636542.0 0
314000.0 636542.0 0
318000.0 636542.0 0
322000.0 636542.0 0
326000.0 636542.0 0
330000.0 636543.0 0
334000.0 636542.0 0
338000.0 636545.0 0
342000.0 636542.0 0
346000.0 636547.0 0
350000.0 636542.0 0
354000.0 636550.0 0
358000.0 636545.0 0
362000.0 636560.0 0
366000.0 636549.0 0
370000.0 636568.0 0
374000.0 636561.0 0
378000.0 636573.0 0
382000.0 636555.0 0
386000.0 636566.0 0
390000.0 636575.0 0
394000.0 636582.0 0
398000.0 636586.0 0
102000.0 640585.0 0
106000.0 640582.0 0
110000.0 640574.0 0
114000.0 640566.0 0
118000.0 640555.0 0
122000.0 640573.0 0
126000.0 640560.0 0
130000.0 640567.0 0
134000.0 640549.0 0
138000.0 640560.0 0
142000.0 640545.0 0
146000.0 640550.0 0
150000.0 640542.0 0
154000.0 640547.0 0
158000.0 640542.0 0
162000.0 640545.0 0
166000.0 640542.0 0
170000.0 640543.0 0
174000.0 640542.0 0
178000.0 640542.0 0
182000.0 640542.0 0
186000.0 640542.0 0
190000.0 640542.0 0
194000.0 640542.0 0
198000.0 640542.0 0
202000.0 640542.0 0
206000.0 640542.0 0
210000.0 640542.0 0
214000.0 640542.0 0
218000.0 640542.0 0
222000.0 640542.0 0
226000.0 640542.0 0
230000.0 640542.0 0
234000.0 640542.0 0
238000.0 640542.0 0
242000.0 640542.0 0
246000.0 640542.0 0
250000.0 640542.0 0
254000.0 640542.0 0
258000.0 640542.0 0
262000.0 640542.0 0
266000.0 640542.0 0
270000.0 640542.0 0
274000.0 640542.0 0
278000.0 640542.0 0
282000.0 640542.0 0
286000.0 640542.0 0
290000.0 640542.0 0
294000.0 640542.0 0
298000.0 640542.0 0
302000.0 640542.0 0
306000.0 640542.0 0
310000.0 640542.0 0
314000.0 640542.0 0
318000.0 640542.0 0
322000.0 640542.0 0
326000.0 640542.0 0
330000.0 640543.0 0
334000.0 640542.0 0
338000.0 640545.0 0
342000.0 640542.0 0
346000.0 640547.0 0
350000.0 640542.0 0
354000.0 640550.0 0
358000.0 640545.0 0
362000.0 640560.0 0
366000.0 640549.0 0
370000.0 640567.0 0
374000.0 640560.0 0
378000.0 640573.0 0
382000.0 640555.0 0
386000.0 640566.0 0
390000.0 640574.0 0
394000.0 640582.0 0
398000.0 640585.0 0
POINT_DATA 4650
SCALARS Radius float 1
LOOKUP_TABLE default
4000.0 4000.0 4000.0 4000.0 4000.0 4000.0 4000.0 4000.0 4000.0 4000.0 4000.0 4000.0 4000.0 4000.0 4000.0 4000.0 4000.0 4000.0 4000.0 4000.0 4000.0 4000.0 4000.0 4000.0 4000.0 4000.0 4000.0 4000.0 4000.0 4000.0 4000.0 4000.0 4000.0 4000.0 4000.0 4000.0 4000.0 4000.0 4000.0 4000.0 4000.0 4000.0 4000.0 4000.0 4000.0 4000.0 4000.0 4000.0 4000.0 4000.0 4000.0 4000.0 4000.0 4000.0 4000.0 4000.0 4000.0 4000.0 4000.0 4000.0 4000.0 4000.0 4000.0 4000.0 4000.0 4000.0 4000.0 4000.0 4000.0 4000.0 4000.0 4000.0 4000.0 4000.0 4000.0 4000.0 4000.0 4000.0 4000.0 4000.0 4000.0 4000.0 4000.0 4000.0 4000.0 4000.0 4000.0 4000.0 4000.0 4000.0 4000.0 4000.0 4000.0 4000.0 4000.0 4000.0 4000.0 4000.0 4000.0 4000.0 4000.0 4000.0 4000.0 4000.0 4000.0 4000.0 4000.0 4000.0 4000.0 4000.0 4000.0 4000.0 4000.0 4000.0 4000.0 4000.0 4000.0 4000.0 4000.0 4000.0 4000.0 4000.0 4000.0 4000.0 4000.0 4000.0 4000.0 4000.0 4000.0 4000.0 4000.0 4000.0 4000.0 4000.0 4000.0 4000.0 4000.0 4000.0 4000.0 4000.0 4000.0 4000.0 4000.0 4000.0 4000.0 4000.0 4000.0 4000.0 4000.0 4000.0 4000.0 4000.0 4000.0 4000.0 4000.0 4000.0 4000.0 4000.0 4000.0 4000.0 4000.0 4000.0 4000.0 4000.0 4000.0 4000.0 4000.0 4000.0 4000.0 4000.0 4000.0 4000.0 4000.0 4000.0 4000.0 4000.0 4000.0 4000.0 4000.0 4000.0 4000.0 4000.0 4000.0 4000.0 4000.0 4000.0 4000.0 4000.0 4000.0 4000.0 4000.0 4000.0 4000.0 4000.0 4000.0 4000.0 4000.0 4000.0 4000.0 4000.0 4000.0 4000.0 4000.0 4000.0 4000.0 4000.0 4000.0 4000.0 4000.0 4000.0 4000.0 4000.0 4000.0 4000.0 4000.0 4000.0 4000.0 4000.0 4000.0 4000.0 4000.0 4000.0 4000.0 4000.0 4000.0 4000.0 4000.0 4000.0 4000.0 4000.0 4000.0 4000.0 4000.0 4000.0 4000.0 4000.0 4000.0 4000.0 4000.0 4000.0 4000.0 4000.0 4000.0 4000.0 4000.0 4000.0 4000.0 4000.0 4000.0 4000.0 4000.0 4000.0 4000.0 4000.0 4000.0 4000.0 4000.0 4000.0 4000.0 4000.0 4000.0 4000.0 4000.0 4000.0 4000.0 4000.0 4000.0 4000.0 4000.0 4000.0 4000.0 4000.0 4000.0 4000.0 4000.0 4000.0 4000.0 4000.0 4000.0 4000.0 4000.0 4000.0 4000.0 4000.0 4000.0 4000.0 4000.0 4000.0 4000.0 4000.0 4000.0 4000.0 4000.0 4000.0 4000.0 4000.0 4000.0 4000.0 4000.0 4000.0 4000.0 4000.0 4000.0 4000.0 4000.0 4000.0 4000.0 4000.0 4000.0 4000.0 4000.0 4000.0 4000.0 4000.0 4000.0 4000.0 4000.0 4000.0 4000.0 4000.0 4000.0 4000.0 4000.0 4000.0 4000.0 4000.0 4000.0 4000.0 4000.0 4000.0 4000.0 4000.0 4000.0 4000.0 4000.0 4000.0 4000.0 4000.0 4000.0 4000.0 4000.0 4000.0 4000.0 4000.0 4000.0 4000.0 4000.0 4000.0 4000.0 4000.0 4000.0 4000.0 4000.0 4000.0 4000.0 4000.0 4000.0 4000.0 4000.0 4000.0 4000.0 4000.0 4000.0 4000.0 4000.0 4000.0 4000.0 4000.0 4000.0 4000.0 4000.0 4000.0 4000.0 4000.0 4000.0 4000.0 4000.0 4000.0 4000.0 4000.0 4000.0 4000.0 4000.0 4000.0 4000.0 4000.0 4000.0 4000.0 4000.0 4000.0 4000.0 4000.0 4000.0 4000.0 4000.0 4000.0 4000.0 4000.0 4000.0 4000.0 4000.0 4000.0 4000.0 4000.0 4000.0 4000.0 4000.0 4000.0 4000.0 4000.0 4000.0 4000.0 4000.0 4000.0 4000.0 4000.0 4000.0 4000.0 4000.0 4000.0 4000.0 4000.0 4000.0 4000.0 4000.0 4000.0 4000.0 4000.0 4000.0 4000.0 4000.0 4000.0 4000.0 4000.0 4000.0 4000.0 4000.0 4000.0 4000.0 4000.0 4000.0 4000.0 4000.0 4000.0 4000.0 4000.0 4000.0 4000.0 4000.0 4000.0 4000.0 4000.0 4000.0 4000.0 4000.0 4000.0 4000.0 4000.0 4000.0 4000.0 4000.0 4000.0 4000.0 4000.0 4000.0 4000.0 4000.0 4000.0 4000.0 4000.0 4000.0 4000.0 4000.0 4000.0 4000.0 4000.0 4000.0 4000.0 4000.0 4000.0 4000.0 4000.0 4000.0 4000.0 4000.0 4000.0 4000.0 4000.0 4000.0 4000.0 4000.0 4000.0 4000.0 4000.0 4000.0 4000.0 4000.0 4000.0 4000.0 4000.0 4000.0 4000.0 4000.0 4000.0 4000.0 4000.0 4000.0 4000.0 4000.0 4000.0 4000.0 4000.0 4000.0 4000.0 4000.0 4000.0 4000.0 4000.0 4000.0 4000.0 4000.0 4000.0 4000.0 4000.0 4000.0 4000.0 4000.0 4000.0 4000.0 4000.0 4000.0 4000.0 4000.0 4000.0 4000.0 4000.0 4000.0 4000.0 4000.0 4000.0 4000.0 4000.0 4000.0 4000.0 4000.0 4000.0 4000.0 4000.0 4000.0 4000.0 4000.0 4000.0 4000.0 4000.0 4000.0 4000.0 4000.0 4000.0 4000.0 4000.0 4000.0 4000.0 4000.0 4000.0 4000.0 4000.0 4000.0 4000.0 4000.0 4000.0 4000.0 4000.0 4000.0 4000.0 4000.0 4000.0 4000.0 4000.0 4000.0 4000.0 4000.0 4000.0 4000.0 4000.0 4000.0 4000.0 4000.0 4000.0 4000.0 4000.0 4000.0 4000.0 4000.0 4000.0 4000.0 4000.0 4000.0 4000.0 4000.0 4000.0 4000.0 4000.0 4000.0 4000.0 4000.0 4000.0 4000.0 4000.0 4000.0 4000.0 4000.0 4000.0 4000.0 4000.0 4000.0 4000.0 4000.0 4000.0 4000.0 4000.0 4000.0 4000.0 4000.0 4000.0 4000.0 4000.0 4000.0 4000.0 4000.0 4000.0 4000.0 4000.0 4000.0 4000.0 4000.0 4000.0 4000.0 4000.0 4000.0 4000.0 4000.0 4000.0 4000.0 4000.0 4000.0 4000.0 4000.0 4000.0 4000.0 4000.0 4000.0 4000.0 4000.0 4000.0 4000.0 4000.0 4000.0 4000.0 4000.0 4000.0 4000.0 4000.0 4000.0 4000.0 4000.0 4000.0 4000.0 4000.0 4000.0 4000.0 4000.0 4000.0 4000.0 4000.0 4000.0 4000.0 4000.0 4000.0 4000.0 4000.0 4000.0 4000.0 4000.0 4000.0 4000.0 4000.0 4000.0 4000.0 4000.0 4000.0 4000.0 4000.0 4000.0 4000.0 4000.0 4000.0 4000.0 4000.0 4000.0 4000.0 4000.0 4000.0 4000.0 4000.0 4000.0 4000.0 4000.0 4000.0 4000.0 4000.0 4000.0 4000.0 4000.0 4000.0 4000.0 4000.0 4000.0 4000.0 4000.0 4000.0 4000.0 4000.0 4000.0 4000.0 4000.0 4000.0 4000.0 4000.0 4000.0 4000.0 4000.0 4000.0 4000.0 4000.0 4000.0 4000.0 4000.0 4000.0 4000.0 4000.0 4000.0 4000.0 4000.0 4000.0 4000.0 4000.0 4000.0 4000.0 4000.0 4000.0 4000.0 4000.0 4000.0 4000.0 4000.0 4000.0 4000.0 4000.0 4000.0 4000.0 4000.0 4000.0 4000.0 4000.0 4000.0 4000.0 4000.0 4000.0 4000.0 4000.0 4000.0 4000.0 4000.0 4000.0 4000.0 4000.0 4000.0 4000.0 4000.0 4000.0 4000.0 4000.0 4000.0 4000.0 4000.0 4000.0 4000.0 4000.0 4000.0 4000.0 4000.0 4000.0 4000.0 4000.0 4000.0 4000.0 4000.0 4000.0 4000.0 4000.0 4000.0 4000.0 4000.0 4000.0 4000.0 4000.0 4000.0 4000.0 4000.0 4000.0 4000.0 4000.0 4000.0 4000.0 4000.0 4000.0 4000.0 4000.0 4000.0 4000.0 4000.0 4000.0 4000.0 4000.0 4000.0 4000.0 4000.0 4000.0 4000.0 4000.0 4000.0 4000.0 4000.0 4000.0 4000.0 4000.0 4000.0 4000.0 4000.0 4000.0 4000.0 4000.0 4000.0 4000.0 4000.0 4000.0 4000.0 4000.0 4000.0 4000.0 4000.0 4000.0 4000.0 4000.0 4000.0 4000.0 4000.0 4000.0 4000.0 4000.0 4000.0 4000.0 4000.0 4000.0 4000.0 4000.0 4000.0 4000.0 4000.0 4000.0 4000.0 4000.0 4000.0 4000.0 4000.0 4000.0 4000.0 4000.0 4000.0 4000.0 4000.0 4000.0 4000.0 4000.0 4000.0 4000.0 4000.0 4000.0 4000.0 4000.0 4000.0 4000.0 4000.0 4000.0 4000.0 4000.0 4000.0 4000.0 4000.0 4000.0 4000.0 4000.0 4000.0 4000.0 4000.0 4000.0 4000.0 4000.0 4000.0 4000.0 4000.0 4000.0 4000.0 4000.0 4000.0 4000.0 4000.0 4000.0 4000.0 4000.0 4000.0 4000.0 4000.0 4000.0 4000.0 4000.0 4000.0 4000.0 4000.0 4000.0 4000.0 4000.0 4000.0 4000.0 4000.0 4000.0 4000.0 4000.0 4000.0 4000.0 4000.0 4000.0 4000.0 4000.0 4000.0 4000.0 4000.0 4000.0 4000.0 4000.0 4000.0 4000.0 4000.0 4000.0 4000.0 4000.0 4000.0 4000.0 4000.0 4000.0 4000.0 4000.0 4000.0 4000.0 4000.0 4000.0 4000.0 4000.0 4000.0 4000.0 4000.0 4000.0 4000.0 4000.0 4000.0 4000.0 4000.0 4000.0 4000.0 4000.0 4000.0 4000.0 4000.0 4000.0 4000.0 4000.0 4000.0 4000.0 4000.0 4000.0 4000.0 4000.0 4000.0 4000.0 4000.0 4000.0 4000.0 4000.0 4000.0 4000.0 4000.0 4000.0 4000.0 4000.0 4000.0 4000.0 4000.0 4000.0 4000.0 4000.0 4000.0 4000.0 4000.0 4000.0 4000.0 4000.0 4000.0 4000.0 4000.0 4000.0 4000.0 4000.0 4000.0 4000.0 4000.0 4000.0 4000.0 4000.0 4000.0 4000.0 4000.0 4000.0 4000.0 4000.0 4000.0 4000.0 4000.0 4000.0 4000.0 4000.0 4000.0 4000.0 4000.0 4000.0 4000.0 4000.0 4000.0 4000.0 4000.0 4000.0 4000.0 4000.0 4000.0 4000.0 4000.0 4000.0 4000.0 4000.0 4000.0 4000.0 4000.0 4000.0 4000.0 4000.0 4000.0 4000.0 4000.0 4000.0 4000.0 4000.0 4000.0 4000.0 4000.0 4000.0 4000.0 4000.0 4000.0 4000.0 4000.0 4000.0 4000.0 4000.0 4000.0 4000.0 4000.0 4000.0 4000.0 4000.0 4000.0 4000.0 4000.0 4000.0 4000.0 4000.0 4000.0 4000.0 4000.0 4000.0 4000.0 4000.0 4000.0 4000.0 4000.0 4000.0 4000.0 4000.0 4000.0 4000.0 4000.0 4000.0 4000.0 4000.0 4000.0 4000.0 4000.0 4000.0 4000.0 4000.0 4000.0 4000.0 4000.0 4000.0 4000.0 4000.0 4000.0 4000.0 4000.0 4000.0 4000.0 4000.0 4000.0 4000.0 4000.0 4000.0 4000.0 4000.0 4000.0 4000.0 4000.0 4000.0 4000.0 4000.0 4000.0 4000.0 4000.0 4000.0 4000.0 4000.0 4000.0 4000.0 4000.0 4000.0 4000.0 4000.0 4000.0 4000.0 4000.0 4000.0 4000.0 4000.0 4000.0 4000.0 4000.0 4000.0 4000.0 4000.0 4000.0 4000.0 4000.0 4000.0 4000.0 4000.0 4000.0 4000.0 4000.0 4000.0 4000.0 4000.0 4000.0 4000.0 4000.0 4000.0 4000.0 4000.0 4000.0 4000.0 4000.0 4000.0 4000.0 4000.0 4000.0 4000.0 4000.0 4000.0 4000.0 4000.0 4000.0 4000.0 4000.0 4000.0 4000.0 4000.0 4000.0 4000.0 4000.0 4000.0 4000.0 4000.0 4000.0 4000.0 4000.0 4000.0 4000.0 4000.0 4000.0 4000.0 4000.0 4000.0 4000.0 4000.0 4000.0 4000.0 4000.0 4000.0 4000.0 4000.0 4000.0 4000.0 4000.0 4000.0 4000.0 4000.0 4000.0 4000.0 4000.0 4000.0 4000.0 4000.0 4000.0 4000.0 4000.0 4000.0 4000.0 4000.0 4000.0 4000.0 4000.0 4000.0 4000.0 4000.0 4000.0 4000.0 4000.0 4000.0 4000.0 4000.0 4000.0 4000.0 4000.0 4000.0 4000.0 4000.0 4000.0 4000.0 4000.0 4000.0 4000.0 4000.0 4000.0 4000.0 4000.0 4000.0 4000.0 4000.0 4000.0 4000.0 4000.0 4000.0 4000.0 4000.0 4000.0 4000.0 4000.0 4000.0 4000.0 4000.0 4000.0 4000.0 4000.0 4000.0 4000.0 4000.0 4000.0 4000.0 4000.0 4000.0 4000.0 4000.0 4000.0 4000.0 4000.0 4000.0 4000.0 4000.0 4000.0 4000.0 4000.0 4000.0 4000.0 4000.0 4000.0 4000.0 4000.0 4000.0 4000.0 4000.0 4000.0 4000.0 4000.0 4000.0 4000.0 4000.0 4000.0 4000.0 4000.0 4000.0 4000.0 4000.0 4000.0 4000.0 4000.0 4000.0 4000.0 4000.0 4000.0 4000.0 4000.0 4000.0 4000.0 4000.0 4000.0 4000.0 4000.0 4000.0 4000.0 4000.0 4000.0 4000.0 4000.0 4000.0 4000.0 4000.0 4000.0 4000.0 4000.0 4000.0 4000.0 4000.0 4000.0 4000.0 4000.0 4000.0 4000.0 4000.0 4000.0 4000.0 4000.0 4000.0 4000.0 4000.0 4000.0 4000.0 4000.0 4000.0 4000.0 4000.0 4000.0 4000.0 4000.0 4000.0 4000.0 4000.0 4000.0 4000.0 4000.0 4000.0 4000.0 4000.0 4000.0 4000.0 4000.0 4000.0 4000.0 4000.0 4000.0 4000.0 4000.0 4000.0 4000.0 4000.0 4000.0 4000.0 4000.0 4000.0 4000.0 4000.0 4000.0 4000.0 4000.0 4000.0 4000.0 4000.0 4000.0 4000.0 4000.0 4000.0 4000.0 4000.0 4000.0 4000.0 4000.0 4000.0 4000.0 4000.0 4000.0 4000.0 4000.0 4000.0 4000.0 4000.0 4000.0 4000.0 4000.0 4000.0 4000.0 4000.0 4000.0 4000.0 4000.0 4000.0 4000.0 4000.0 4000.0 4000.0 4000.0 4000.0 4000.0 4000.0 4000.0 4000.0 4000.0 4000.0 4000.0 4000.0 4000.0 4000.0 4000.0 4000.0 4000.0 4000.0 4000.0 4000.0 4000.0 4000.0 4000.0 4000.0 4000.0 4000.0 4000.0 4000.0 4000.0 4000.0 4000.0 4000.0 4000.0 4000.0 4000.0 4000.0 4000.0 4000.0 4000.0 4000.0 4000.0 4000.0 4000.0 4000.0 4000.0 4000.0 4000.0 4000.0 4000.0 4000.0 4000.0 4000.0 4000.0 4000.0 4000.0 4000.0 4000.0 4000.0 4000.0 4000.0 4000.0 4000.0 4000.0 4000.0 4000.0 4000.0 4000.0 4000.0 4000.0 4000.0 4000.0 4000.0 4000.0 4000.0 4000.0 4000.0 4000.0 4000.0 4000.0 4000.0 4000.0 4000.0 4000.0 4000.0 4000.0 4000.0 4000.0 4000.0 4000.0 4000.0 4000.0 4000.0 4000.0 4000.0 4000.0 4000.0 4000.0 4000.0 4000.0 4000.0 4000.0 4000.0 4000.0 4000.0 4000.0 4000.0 4000.0 4000.0 4000.0 4000.0 4000.0 4000.0 4000.0 4000.0 4000.0 4000.0 4000.0 4000.0 4000.0 4000.0 4000.0 4000.0 4000.0 4000.0 4000.0 4000.0 4000.0 4000.0 4000.0 4000.0 4000.0 4000.0 4000.0 4000.0 4000.0 4000.0 4000.0 4000.0 4000.0 4000.0 4000.0 4000.0 4000.0 4000.0 4000.0 4000.0 4000.0 4000.0 4000.0 4000.0 4000.0 4000.0 4000.0 4000.0 4000.0 4000.0 4000.0 4000.0 4000.0 4000.0 4000.0 4000.0 4000.0 4000.0 4000.0 4000.0 4000.0 4000.0 4000.0 4000.0 4000.0 4000.0 4000.0 4000.0 4000.0 4000.0 4000.0 4000.0 4000.0 4000.0 4000.0 4000.0 4000.0 4000.0 4000.0 4000.0 4000.0 4000.0 4000.0 4000.0 4000.0 4000.0 4000.0 4000.0 4000.0 4000.0 4000.0 4000.0 4000.0 4000.0 4000.0 4000.0 4000.0 4000.0 4000.0 4000.0 4000.0 4000.0 4000.0 4000.0 4000.0 4000.0 4000.0 4000.0 4000.0 4000.0 4000.0 4000.0 4000.0 4000.0 4000.0 4000.0 4000.0 4000.0 4000.0 4000.0 4000.0 4000.0 4000.0 4000.0 4000.0 4000.0 4000.0 4000.0 4000.0 4000.0 4000.0 4000.0 4000.0 4000.0 4000.0 4000.0 4000.0 4000.0 4000.0 4000.0 4000.0 4000.0 4000.0 4000.0 4000.0 4000.0 4000.0 4000.0 4000.0 4000.0 4000.0 4000.0 4000.0 4000.0 4000.0 4000.0 4000.0 4000.0 4000.0 4000.0 4000.0 4000.0 4000.0 4000.0 4000.0 4000.0 4000.0 4000.0 4000.0 4000.0 4000.0 4000.0 4000.0 4000.0 4000.0 4000.0 4000.0 4000.0 4000.0 4000.0 4000.0 4000.0 4000.0 4000.0 4000.0 4000.0 4000.0 4000.0 4000.0 4000.0 4000.0 4000.0 4000.0 4000.0 4000.0 4000.0 4000.0 4000.0 4000.0 4000.0 4000.0 4000.0 4000.0 4000.0 4000.0 4000.0 4000.0 4000.0 4000.0 4000.0 4000.0 4000.0 4000.0 4000.0 4000.0 4000.0 4000.0 4000.0 4000.0 4000.0 4000.0 4000.0 4000.0 4000.0 4000.0 4000.0 4000.0 4000.0 4000.0 4000.0 4000.0 4000.0 4000.0 4000.0 4000.0 4000.0 4000.0 4000.0 4000.0 4000.0 4000.0 4000.0 4000.0 4000.0 4000.0 4000.0 4000.0 4000.0 4000.0 4000.0 4000.0 4000.0 4000.0 4000.0 4000.0 4000.0 4000.0 4000.0 4000.0 4000.0 4000.0 4000.0 4000.0 4000.0 4000.0 4000.0 4000.0 4000.0 4000.0 4000.0 4000.0 4000.0 4000.0 4000.0 4000.0 4000.0 4000.0 4000.0 4000.0 4000.0 4000.0 4000.0 4000.0 4000.0 4000.0 4000.0 4000.0 4000.0 4000.0 4000.0 4000.0 4000.0 4000.0 4000.0 4000.0 4000.0 4000.0 4000.0 4000.0 4000.0 4000.0 4000.0 4000.0 4000.0 4000.0 4000.0 4000.0 4000.0 4000.0 4000.0 4000.0 4000.0 4000.0 4000.0 4000.0 4000.0 4000.0 4000.0 4000.0 4000.0 4000.0 4000.0 4000.0 4000.0 4000.0 4000.0 4000.0 4000.0 4000.0 4000.0 4000.0 4000.0 4000.0 4000.0 4000.0 4000.0 4000.0 4000.0 4000.0 4000.0 4000.0 4000.0 4000.0 4000.0 4000.0 4000.0 4000.0 4000.0 4000.0 4000.0 4000.0 4000.0 4000.0 4000.0 4000.0 4000.0 4000.0 4000.0 4000.0 4000.0 4000.0 4000.0 4000.0 4000.0 4000.0 4000.0 4000.0 4000.0 4000.0 4000.0 4000.0 4000.0 4000.0 4000.0 4000.0 4000.0 4000.0 4000.0 4000.0 4000.0 4000.0 4000.0 4000.0 4000.0 4000.0 4000.0 4000.0 4000.0 4000.0 4000.0 4000.0 4000.0 4000.0 4000.0 4000.0 4000.0 4000.0 4000.0 4000.0 4000.0 4000.0 4000.0 4000.0 4000.0 4000.0 4000.0 4000.0 4000.0 4000.0 4000.0 4000.0 4000.0 4000.0 4000.0 4000.0 4000.0 4000.0 4000.0 4000.0 4000.0 4000.0 4000.0 4000.0 4000.0 4000.0 4000.0 4000.0 4000.0 4000.0 4000.0 4000.0 4000.0 4000.0 4000.0 4000.0 4000.0 4000.0 4000.0 4000.0 4000.0 4000.0 4000.0 4000.0 4000.0 4000.0 4000.0 4000.0 4000.0 4000.0 4000.0 4000.0 4000.0 4000.0 4000.0 4000.0 4000.0 4000.0 4000.0 4000.0 4000.0 4000.0 4000.0 4000.0 4000.0 4000.0 4000.0 4000.0 4000.0 4000.0 4000.0 4000.0 4000.0 4000.0 4000.0 4000.0 4000.0 4000.0 4000.0 4000.0 4000.0 4000.0 4000.0 4000.0 4000.0 4000.0 4000.0 4000.0 4000.0 4000.0 4000.0 4000.0 4000.0 4000.0 4000.0 4000.0 4000.0 4000.0 4000.0 4000.0 4000.0 4000.0 4000.0 4000.0 4000.0 4000.0 4000.0 4000.0 4000.0 4000.0 4000.0 4000.0 4000.0 4000.0 4000.0 4000.0 4000.0 4000.0 4000.0 4000.0 4000.0 4000.0 4000.0 4000.0 4000.0 4000.0 4000.0 4000.0 4000.0 4000.0 4000.0 4000.0 4000.0 4000.0 4000.0 4000.0 4000.0 4000.0 4000.0 4000.0 4000.0 4000.0 4000.0 4000.0 4000.0 4000.0 4000.0 4000.0 4000.0 4000.0 4000.0 4000.0 4000.0 4000.0 4000.0 4000.0 4000.0 4000.0 4000.0 4000.0 4000.0 4000.0 4000.0 4000.0 4000.0 4000.0 4000.0 4000.0 4000.0 4000.0 4000.0 4000.0 4000.0 4000.0 4000.0 4000.0 4000.0 4000.0 4000.0 4000.0 4000.0 4000.0 4000.0 4000.0 4000.0 4000.0 4000.0 4000.0 4000.0 4000.0 4000.0 4000.0 4000.0 4000.0 4000.0 4000.0 4000.0 4000.0 4000.0 4000.0 4000.0 4000.0 4000.0 4000.0 4000.0 4000.0 4000.0 4000.0 4000.0 4000.0 4000.0 4000.0 4000.0 4000.0 4000.0 4000.0 4000.0 4000.0 4000.0 4000.0 4000.0 4000.0 4000.0 4000.0 4000.0 4000.0 4000.0 4000.0 4000.0 4000.0 4000.0 4000.0 4000.0 4000.0 4000.0 4000.0 4000.0 4000.0 4000.0 4000.0 4000.0 4000.0 4000.0 4000.0 4000.0 4000.0 4000.0 4000.0 4000.0 4000.0 4000.0 4000.0 4000.0 4000.0 4000.0 4000.0 4000.0 4000.0 4000.0 4000.0 4000.0 4000.0 4000.0 4000.0 4000.0 4000.0 4000.0 4000.0 4000.0 4000.0 4000.0 4000.0 4000.0 4000.0 4000.0 4000.0 4000.0 4000.0 4000.0 4000.0 4000.0 4000.0 4000.0 4000.0 4000.0 4000.0 4000.0 4000.0 4000.0 4000.0 4000.0 4000.0 4000.0 4000.0 4000.0 4000.0 4000.0 4000.0 4000.0 4000.0 4000.0 4000.0 4000.0 4000.0 4000.0 4000.0 4000.0 4000.0 4000.0 4000.0 4000.0 4000.0 4000.0 4000.0 4000.0 4000.0 4000.0 4000.0 4000.0 4000.0 4000.0 4000.0 4000.0 4000.0 4000.0 4000.0 4000.0 4000.0 4000.0 4000.0 4000.0 4000.0 4000.0 4000.0 4000.0 4000.0 4000.0 4000.0 4000.0 4000.0 4000.0 4000.0 4000.0 4000.0 4000.0 4000.0 4000.0 4000.0 4000.0 4000.0 4000.0 4000.0 4000.0 4000.0 4000.0 4000.0 4000.0 4000.0 4000.0 4000.0 4000.0 4000.0 4000.0 4000.0 4000.0 4000.0 4000.0 4000.0 4000.0 4000.0 4000.0 4000.0 4000.0 4000.0 4000.0 4000.0 4000.0 4000.0 4000.0 4000.0 4000.0 4000.0 4000.0 4000.0 4000.0 4000.0 4000.0 4000.0 4000.0 4000.0 4000.0 4000.0 4000.0 4000.0 4000.0 4000.0 4000.0 4000.0 4000.0 4000.0 4000.0 4000.0 4000.0 4000.0 4000.0 4000.0 4000.0 4000.0 4000.0 4000.0 4000.0 4000.0 4000.0 4000.0 4000.0 4000.0 4000.0 4000.0 4000.0 4000.0 4000.0 4000.0 4000.0 4000.0 4000.0 4000.0 4000.0 4000.0 4000.0 4000.0 4000.0 4000.0 4000.0 4000.0 4000.0 4000.0 4000.0 4000.0 4000.0 4000.0 4000.0 4000.0 4000.0 4000.0 4000.0 4000.0 4000.0 4000.0 4000.0 4000.0 4000.0 4000.0 4000.0 4000.0 4000.0 4000.0 4000.0 4000.0 4000.0 4000.0 4000.0 4000.0 4000.0 4000.0 4000.0 4000.0 4000.0 4000.0 4000.0 4000.0 4000.0 4000.0 4000.0 4000.0 4000.0 4000.0 4000.0 4000.0 4000.0 4000.0 4000.0 4000.0 4000.0 4000.0 4000.0 4000.0 4000.0 4000.0 4000.0 4000.0 4000.0 4000.0 4000.0 4000.0 4000.0 4000.0 4000.0 4000.0 4000.0 4000.0 4000.0 4000.0 4000.0 4000.0 4000.0 4000.0 4000.0 4000.0 4000.0 4000.0 4000.0 4000.0 4000.0 4000.0 4000.0 4000.0 4000.0 4000.0 4000.0 4000.0 4000.0 4000.0 4000.0 4000.0 4000.0 4000.0 4000.0 4000.0 4000.0 4000.0 4000.0 4000.0 4000.0 4000.0 4000.0 4000.0 4000.0 4000.0 4000.0 4000.0 4000.0 4000.0 4000.0 4000.0 4000.0 4000.0 4000.0 4000.0 4000.0 4000.0 4000.0 4000.0 4000.0 4000.0 4000.0 4000.0 4000.0 4000.0 4000.0 4000.0 4000.0 4000.0 4000.0 4000.0 4000.0 4000.0 4000.0 4000.0 4000.0 4000.0 4000.0 4000.0 4000.0 4000.0 4000.0 4000.0 4000.0 4000.0 4000.0 4000.0 4000.0 4000.0 4000.0 4000.0 4000.0 4000.0 4000.0 4000.0 4000.0 4000.0 4000.0 4000.0 4000.0 4000.0 4000.0 4000.0 4000.0 4000.0 4000.0 4000.0 4000.0 4000.0 4000.0 4000.0 4000.0 4000.0 4000.0 4000.0 4000.0 4000.0 4000.0 4000.0 4000.0 4000.0 4000.0 4000.0 4000.0 4000.0 4000.0 4000.0 4000.0 4000.0 4000.0 4000.0 4000.0 4000.0 4000.0 4000.0 4000.0 4000.0 4000.0 4000.0 4000.0 4000.0 4000.0 4000.0 4000.0 4000.0 4000.0 4000.0 4000.0 4000.0 4000.0 4000.0 4000.0 4000.0 4000.0 4000.0 4000.0 4000.0 4000.0 4000.0 4000.0 4000.0 4000.0 4000.0 4000.0 4000.0 4000.0 4000.0 4000.0 4000.0 4000.0 4000.0 4000.0 4000.0 4000.0 4000.0 4000.0 4000.0 4000.0 4000.0 4000.0 4000.0 4000.0 4000.0 4000.0 4000.0 4000.0 4000.0 4000.0 4000.0 4000.0 4000.0 4000.0 4000.0 4000.0 4000.0 4000.0 4000.0 4000.0 4000.0 4000.0 4000.0 4000.0 4000.0 4000.0 4000.0 4000.0 4000.0 4000.0 4000.0 4000.0 4000.0 4000.0 4000.0 4000.0 4000.0 4000.0 4000.0 4000.0 4000.0 4000.0 4000.0 4000.0 4000.0 4000.0 4000.0 4000.0 4000.0 4000.0 4000.0 4000.0 4000.0 4000.0 4000.0 4000.0 4000.0 4000.0 4000.0 4000.0 4000.0 4000.0 4000.0 4000.0 4000.0 4000.0 4000.0 4000.0 4000.0 4000.0 4000.0 4000.0 4000.0 4000.0 4000.0 4000.0 4000.0 4000.0 4000.0 4000.0 4000.0 4000.0 4000.0 4000.0 4000.0 4000.0 4000.0 4000.0 4000.0 4000.0 4000.0 4000.0 4000.0 4000.0 4000.0 4000.0 4000.0 4000.0 4000.0 4000.0 4000.0 4000.0 4000.0 4000.0 4000.0 4000.0 4000.0 4000.0 4000.0 4000.0 4000.0 4000.0 4000.0 4000.0 4000.0 4000.0 4000.0 4000.0 4000.0 4000.0 4000.0 4000.0 4000.0 4000.0 4000.0 4000.0 4000.0 4000.0 4000.0 4000.0 4000.0 4000.0 4000.0 4000.0 4000.0 4000.0 4000.0 4000.0 4000.0 4000.0 4000.0 4000.0 4000.0 4000.0 4000.0 4000.0 4000.0 4000.0 4000.0 4000.0 4000.0 4000.0 4000.0 4000.0 4000.0 4000.0 4000.0 4000.0 4000.0 4000.0 4000.0 4000.0 4000.0 4000.0 4000.0 4000.0 4000.0 4000.0 4000.0 4000.0 4000.0 4000.0 4000.0 4000.0 4000.0 4000.0 4000.0 4000.0 4000.0 4000.0 4000.0 4000.0 4000.0 4000.0 4000.0 4000.0 4000.0 4000.0 4000.0 4000.0 4000.0 4000.0 4000.0 4000.0 4000.0 4000.0 4000.0 4000.0 4000.0 4000.0 4000.0 4000.0 4000.0 4000.0 4000.0 4000.0 4000.0 4000.0 4000.0 4000.0 4000.0 4000.0 4000.0 4000.0 4000.0 4000.0 4000.0 4000.0 4000.0 4000.0 4000.0 4000.0 4000.0 4000.0 4000.0 4000.0 4000.0 4000.0 4000.0 4000.0 4000.0 4000.0 4000.0 4000.0 4000.0 4000.0 4000.0 4000.0 4000.0 4000.0 4000.0 4000.0 4000.0 4000.0 4000.0 4000.0 4000.0 4000.0 4000.0 4000.0 4000.0 4000.0 4000.0 4000.0 4000.0 4000.0 4000.0 4000.0 4000.0 4000.0 4000.0 4000.0 4000.0 4000.0 4000.0 4000.0 4000.0 4000.0 4000.0 4000.0 4000.0 4000.0 4000.0 4000.0 4000.0 4000.0 4000.0 4000.0 4000.0 4000.0 4000.0 4000.0 4000.0 4000.0 4000.0 4000.0 4000.0 4000.0 4000.0 4000.0 4000.0 4000.0 4000.0 4000.0 4000.0 4000.0 4000.0 4000.0 4000.0 4000.0 4000.0 4000.0 4000.0 4000.0 4000.0 4000.0 4000.0 4000.0 4000.0 4000.0 4000.0 4000.0 4000.0 4000.0 4000.0 4000.0 4000.0 4000.0 4000.0 4000.0 4000.0 4000.0 4000.0 4000.0 4000.0 4000.0 4000.0 4000.0 4000.0 4000.0 4000.0 4000.0 4000.0 4000.0 4000.0 4000.0 4000.0 4000.0 4000.0 4000.0 4000.0 4000.0 4000.0 4000.0 4000.0 4000.0 4000.0 4000.0 4000.0 4000.0 4000.0 4000.0 4000.0 4000.0 4000.0 4000.0 4000.0 4000.0 4000.0 4000.0 4000.0 4000.0 4000.0 4000.0 4000.0 4000.0 4000.0 4000.0 4000.0 4000.0 4000.0 4000.0 4000.0 4000.0 4000.0 4000.0 4000.0 4000.0 4000.0 4000.0 4000.0 4000.0 4000.0 4000.0 4000.0 4000.0 4000.0 4000.0 4000.0 4000.0 4000.0 4000.0 4000.0 4000.0 4000.0 4000.0 4000.0 4000.0 4000.0 4000.0 4000.0 4000.0 4000.0 4000.0 4000.0 4000.0 4000.0 4000.0 4000.0 4000.0 4000.0 4000.0 4000.0 4000.0 4000.0 4000.0 4000.0 4000.0 4000.0 4000.0 4000.0 4000.0 4000.0 4000.0 4000.0 4000.0 4000.0 4000.0 4000.0 4000.0 4000.0 4000.0 4000.0 4000.0 4000.0 4000.0 4000.0 4000.0 4000.0 4000.0 4000.0 4000.0 4000.0 4000.0 4000.0 4000.0 4000.0 4000.0 4000.0 4000.0 4000.0 4000.0 4000.0 4000.0 4000.0 4000.0 4000.0 4000.0 4000.0 4000.0 4000.0 4000.0 4000.0 4000.0 4000.0 4000.0 4000.0 4000.0 4000.0 4000.0 4000.0 4000.0 4000.0 4000.0 4000.0 4000.0 4000.0 4000.0 4000.0 4000.0 4000.0 4000.0 4000.0 4000.0 4000.0 4000.0 4000.0 4000.0 4000.0 4000.0 4000.0 4000.0 4000.0 4000.0 4000.0 4000.0 4000.0 4000.0 4000.0 4000.0 4000.0 4000.0 4000.0 4000.0 4000.0 4000.0 4000.0 4000.0 4000.0 4000.0 4000.0 4000.0 4000.0 4000.0 4000.0 4000.0 4000.0 4000.0 4000.0 4000.0 4000.0 4000.0 4000.0 4000.0 4000.0 4000.0 4000.0 4000.0 4000.0 4000.0 4000.0 4000.0 4000.0 4000.0 4000.0 4000.0 4000.0 4000.0 4000.0 4000.0 4000.0 4000.0 4000.0 4000.0 4000.0 4000.0 4000.0 4000.0 4000.0 4000.0 4000.0 4000.0 4000.0 4000.0 4000.0 4000.0 4000.0 4000.0 4000.0 4000.0 4000.0 4000.0 4000.0 4000.0 4000.0 4000.0 4000.0 4000.0 4000.0 4000.0 4000.0 4000.0 4000.0 4000.0 4000.0 4000.0 4000.0 4000.0 4000.0 4000.0 4000.0 4000.0 4000.0 4000.0 4000.0 4000.0 4000.0 4000.0 4000.0 4000.0 4000.0 4000.0 4000.0 4000.0 4000.0 4000.0 4000.0 4000.0 4000.0 4000.0 4000.0 4000.0 4000.0 4000.0 4000.0 4000.0 4000.0 4000.0 4000.0 4000.0 4000.0 4000.0 4000.0 4000.0 4000.0 4000.0 4000.0 4000.0 4000.0 4000.0 4000.0 4000.0 4000.0 4000.0 4000.0 4000.0 4000.0 4000.0 4000.0 4000.0 4000.0 4000.0 4000.0 4000.0 4000.0 4000.0 4000.0 4000.0 4000.0 4000.0 4000.0 4000.0 4000.0 4000.0 4000.0 4000.0 4000.0 4000.0 4000.0 4000.0 4000.0 4000.0 4000.0 4000.0 4000.0 4000.0 4000.0 4000.0 4000.0 4000.0 4000.0 4000.0 4000.0 4000.0 4000.0 4000.0 4000.0 4000.0 4000.0 4000.0 4000.0 4000.0 4000.0 4000.0 4000.0 4000.0 4000.0 4000.0 4000.0 4000.0 4000.0 4000.0 4000.0 4000.0 4000.0 4000.0 4000.0 4000.0 4000.0 4000.0 4000.0 4000.0 4000.0 4000.0 4000.0 4000.0 4000.0 4000.0 4000.0 4000.0 4000.0 4000.0 4000.0 4000.0 4000.0 4000.0 4000.0 4000.0 4000.0 4000.0 4000.0 4000.0 4000.0 4000.0 4000.0 4000.0 4000.0 4000.0 4000.0 4000.0 4000.0 4000.0 4000.0 4000.0 4000.0 4000.0 4000.0 4000.0 4000.0 4000.0 4000.0 4000.0 4000.0 4000.0 4000.0 4000.0 4000.0 4000.0 4000.0 4000.0 4000.0 4000.0 4000.0 4000.0 4000.0 4000.0 4000.0 4000.0 4000.0 4000.0 4000.0 4000.0 4000.0 4000.0 4000.0 4000.0 4000.0 4000.0 4000.0 4000.0 4000.0 4000.0 4000.0 4000.0 4000.0 4000.0 4000.0 4000.0 4000.0 4000.0 4000.0 4000.0 4000.0 4000.0 4000.0 4000.0 4000.0 4000.0 4000.0 4000.0 4000.0 4000.0 4000.0 4000.0 4000.0 4000.0 4000.0 4000.0 4000.0 4000.0 4000.0 4000.0 4000.0 4000.0 4000.0 4000.0 4000.0 4000.0 4000.0 4000.0 4000.0 4000.0 4000.0 4000.0 4000.0 4000.0 4000.0 4000.0 4000.0 4000.0 4000.0 4000.0 4000.0 4000.0 4000.0 4000.0 4000.0 4000.0 4000.0 4000.0 4000.0 4000.0 4000.0 4000.0 4000.0 4000.0 4000.0 4000.0 4000.0 4000.0 4000.0 4000.0 4000.0 4000.0 4000.0 4000.0 4000.0 4000.0 4000.0 4000.0 4000.0 4000.0 4000.0 4000.0 4000.0 4000.0 4000.0 4000.0 4000.0 4000.0 4000.0 4000.0 4000.0 4000.0 4000.0 4000.0 4000.0 4000.0 4000.0 4000.0 4000.0 4000.0 4000.0 4000.0 4000.0 4000.0 4000.0 4000.0 4000.0 4000.0 4000.0 4000.0 4000.0 4000.0 4000.0 4000.0 4000.0 4000.0 4000.0 4000.0 4000.0 4000.0 4000.0 4000.0 4000.0 4000.0 4000.0 4000.0 4000.0 4000.0 4000.0 4000.0 4000.0 4000.0 4000.0 4000.0 4000.0 4000.0 4000.0 4000.0 4000.0 4000.0 4000.0 4000.0 4000.0 4000.0 4000.0 4000.0 4000.0 4000.0 4000.0 4000.0 4000.0 4000.0 4000.0 4000.0 4000.0 4000.0 4000.0 4000.0 4000.0 4000.0 4000.0 4000.0 4000.0 4000.0 4000.0 4000.0 4000.0 4000.0 4000.0 4000.0 4000.0 4000.0 4000.0 4000.0 4000.0 4000.0 4000.0 4000.0 4000.0 4000.0 4000.0 4000.0 4000.0 4000.0 4000.0 4000.0 4000.0 4000.0 4000.0 4000.0 4000.0 4000.0 4000.0 4000.0 4000.0 4000.0 4000.0 4000.0 4000.0 4000.0 4000.0 4000.0 4000.0 4000.0 4000.0 4000.0 4000.0 4000.0 4000.0 4000.0 4000.0 4000.0 4000.0 4000.0 4000.0 4000.0 4000.0 4000.0 4000.0 4000.0 4000.0 4000.0 4000.0 4000.0 4000.0 4000.0 4000.0 4000.0 4000.0 4000.0 4000.0 4000.0 4000.0 4000.0 4000.0 4000.0 4000.0 4000.0 4000.0 4000.0 4000.0 4000.0 4000.0 4000.0 4000.0 4000.0 4000.0 4000.0 4000.0 4000.0 4000.0 4000.0 4000.0 4000.0 4000.0 4000.0 4000.0 4000.0 4000.0 4000.0 4000.0 4000.0 4000.0 4000.0 4000.0 4000.0 4000.0 4000.0 4000.0 4000.0 4000.0 4000.0 4000.0 4000.0 4000.0 4000.0 4000.0 4000.0 4000.0 4000.0 4000.0 4000.0 4000.0 4000.0 4000.0 4000.0 4000.0 4000.0 4000.0 4000.0 4000.0 4000.0 4000.0 4000.0 4000.0 4000.0 4000.0 4000.0 4000.0 4000.0 4000.0 4000.0 4000.0 4000.0 4000.0 4000.0 4000.0 4000.0 4000.0 4000.0 4000.0 4000.0 4000.0 4000.0 4000.0 4000.0 4000.0 4000.0 4000.0 4000.0 4000.0 4000.0 4000.0 4000.0 4000.0 4000.0 4000.0 4000.0 4000.0 4000.0 4000.0 4000.0 4000.0 4000.0 4000.0 4000.0 4000.0 4000.0 4000.0 4000.0 4000.0 4000.0 4000.0 4000.0 4000.0 4000.0 4000.0 4000.0 4000.0 4000.0 4000.0 4000.0 4000.0 4000.0 4000.0 4000.0 4000.0 4000.0 4000.0 4000.0 4000.0 4000.0 4000.0 4000.0 4000.0 4000.0 4000.0 4000.0 4000.0 4000.0 4000.0 4000.0 4000.0 4000.0 4000.0 4000.0 4000.0 4000.0 4000.0 4000.0 4000.0 4000.0 4000.0 4000.0 4000.0 4000.0 4000.0 4000.0 4000.0 4000.0 4000.0 4000.0 4000.0 4000.0 4000.0 4000.0 4000.0 4000.0 4000.0 4000.0 4000.0 4000.0 4000.0 4000.0 4000.0 4000.0 4000.0 4000.0 4000.0 4000.0 4000.0 4000.0 4000.0 4000.0 4000.0 4000.0 4000.0 4000.0 4000.0 4000.0 4000.0 4000.0 4000.0 4000.0 4000.0 4000.0 4000.0 4000.0 4000.0 4000.0 4000.0 4000.0 4000.0 4000.0 4000.0 4000.0 4000.0 4000.0 4000.0 4000.0 4000.0 4000.0 4000.0 4000.0 4000.0 4000.0 4000.0 4000.0 4000.0 4000.0 4000.0 4000.0 4000.0 4000.0 4000.0 4000.0 4000.0 4000.0 4000.0 4000.0 4000.0 4000.0 4000.0 4000.0 4000.0 4000.0 4000.0 4000.0 4000.0 4000.0 4000.0 4000.0 4000.0 4000.0 4000.0 4000.0 4000.0 4000.0 4000.0 4000.0 4000.0 4000.0 4000.0 4000.0 4000.0 4000.0 4000.0 4000.0 4000.0 4000.0 4000.0 4000.0 4000.0 4000.0 4000.0 4000.0 4000.0 4000.0 4000.0 4000.0 4000.0 4000.0 4000.0 4000.0 4000.0 4000.0 4000.0 4000.0 4000.0 4000.0 4000.0 4000.0 4000.0 4000.0 4000.0 4000.0 4000.0 4000.0 4000.0 4000.0 4000.0 4000.0 4000.0 4000.0 4000.0 4000.0 4000.0 4000.0 4000.0 4000.0 4000.0 4000.0 4000.0 4000.0 4000.0 4000.0 4000.0 4000.0 4000.0 4000.0 4000.0 4000.0 4000.0 4000.0 4000.0 4000.0 4000.0 4000.0 4000.0 4000.0 4000.0 4000.0 4000.0 4000.0 4000.0 4000.0 4000.0 4000.0 4000.0 4000.0 4000.0 4000.0 4000.0 4000.0 4000.0 4000.0 4000.0 4000.0 4000.0 4000.0 4000.0 4000.0 4000.0 4000.0 4000.0 4000.0 4000.0 4000.0 4000.0 4000.0 4000.0 4000.0 4000.0 4000.0 4000.0 4000.0 4000.0 4000.0 4000.0 4000.0 4000.0 4000.0 4000.0 4000.0 4000.0 4000.0 4000.0 4000.0 4000.0 4000.0 4000.0 4000.0 4000.0 4000.0 4000.0 4000.0 4000.0 4000.0 4000.0 4000.0 4000.0 4000.0 4000.0 4000.0 4000.0 4000.0 4000.0 4000.0 4000.0 4000.0 4000.0 4000.0 4000.0 4000.0 4000.0 4000.0 4000.0 4000.0 4000.0 4000.0 4000.0 4000.0 4000.0 4000.0 4000.0 4000.0 4000.0 4000.0 4000.0 4000.0 4000.0 4000.0 4000.0 4000.0 4000.0 4000.0 4000.0 4000.0 4000.0 4000.0 4000.0 4000.0 4000.0 4000.0 4000.0 4000.0 4000.0 4000.0 4000.0 4000.0 4000.0 4000.0 4000.0 4000.0 4000.0 4000.0 4000.0 4000.0 4000.0 4000.0 4000.0 4000.0 4000.0 4000.0 4000.0 4000.0 4000.0 4000.0 4000.0 4000.0 4000.0 4000.0 4000.0 4000.0 4000.0 4000.0 4000.0 4000.0 4000.0 4000.0 4000.0 4000.0 4000.0 4000.0 4000.0 4000.0 4000.0 4000.0 4000.0 4000.0 4000.0 4000.0 4000.0 4000.0 4000.0 4000.0 4000.0 4000.0 4000.0 4000.0 4000.0 4000.0 4000.0 4000.0 4000.0 4000.0 4000.0 4000.0 4000.0 4000.0 4000.0 4000.0 4000.0 4000.0 4000.0 4000.0 4000.0 4000.0 4000.0 4000.0 4000.0 4000.0 4000.0 4000.0 4000.0 4000.0 4000.0 4000.0 4000.0 4000.0 4000.0 4000.0 4000.0 4000.0 4000.0 4000.0 4000.0 4000.0 4000.0 4000.0 4000.0 4000.0 4000.0 4000.0 4000.0 4000.0 4000.0 4000.0 4000.0 4000.0 4000.0 4000.0 4000.0 4000.0 4000.0 4000.0 4000.0 4000.0 4000.0 4000.0 4000.0 4000.0 4000.0 4000.0 4000.0 4000.0 4000.0 4000.0 4000.0 4000.0 4000.0 4000.0 4000.0 4000.0 4000.0 4000.0 4000.0 4000.0 4000.0 4000.0 4000.0 4000.0 4000.0 4000.0 4000.0 4000.0 4000.0 4000.0 4000.0 4000.0 4000.0 4000.0 4000.0 4000.0 4000.0 4000.0 4000.0 4000.0 4000.0 4000.0 4000.0 4000.0 4000.0 4000.0 4000.0 4000.0 4000.0 4000.0 4000.0 4000.0 4000.0 4000.0 4000.0 4000.0 4000.0 4000.0 4000.0 4000.0 4000.0 4000.0 4000.0 4000.0 4000.0 4000.0 4000.0 4000.0 4000.0 4000.0 4000.0 4000.0 4000.0 4000.0 4000.0 4000.0 4000.0 4000.0 4000.0 4000.0 4000.0 4000.0 4000.0 4000.0 4000.0 4000.0 4000.0 4000.0 4000.0 4000.0 4000.0 4000.0 4000.0 4000.0 4000.0 4000.0 4000.0 4000.0 4000.0 4000.0 4000.0 4000.0 4000.0 4000.0 4000.0 4000.0 4000.0 4000.0 4000.0 4000.0 4000.0 4000.0 4000.0 4000.0 4000.0 4000.0 4000.0 4000.0 4000.0 4000.0 4000.0 4000.0 4000.0 4000.0 4000.0 4000.0 4000.0 4000.0 4000.0 4000.0 4000.0 4000.0 4000.0 4000.0 4000.0 4000.0 4000.0 4000.0 4000.0 4000.0 4000.0 4000.0 4000.0 4000.0 4000.0 4000.0 4000.0 4000.0 4000.0 4000.0 4000.0 4000.0 4000.0 4000.0 4000.0 4000.0 4000.0 4000.0 4000.0 4000.0 4000.0 4000.0 4000.0 4000.0 4000.0 4000.0 4000.0 4000.0 4000.0 4000.0 4000.0 4000.0 4000.0 4000.0 4000.0 4000.0 4000.0 4000.0 4000.0 4000.0 4000.0 4000.0 4000.0 4000.0 4000.0 4000.0 4000.0 4000.0 4000.0 4000.0 4000.0 4000.0 4000.0 4000.0 4000.0 4000.0 4000.0 4000.0 4000.0 4000.0 4000.0 4000.0 4000.0 4000.0 4000.0 4000.0 4000.0 4000.0 4000.0 4000.0 4000.0 4000.0 4000.0 4000.0 4000.0 4000.0 4000.0 4000.0 4000.0 4000.0 4000.0 4000.0 4000.0 4000.0 4000.0 4000.0 4000.0 4000.0 4000.0 4000.0 4000.0 4000.0 4000.0 4000.0 4000.0 4000.0 4000.0 4000.0 4000.0 4000.0 4000.0 4000.0 4000.0 4000.0 4000.0 4000.0 4000.0 4000.0 4000.0 4000.0 4000.0 4000.0 4000.0 4000.0 4000.0 4000.0 4000.0 4000.0 4000.0 4000.0 4000.0 4000.0 4000.0 4000.0 4000.0 4000.0 4000.0 4000.0 4000.0 4000.0 4000.0 4000.0 4000.0 4000.0 4000.0 4000.0 4000.0 4000.0 4000.0 4000.0 4000.0 4000.0 4000.0 4000.0 4000.0 4000.0 4000.0 4000.0 4000.0 4000.0 4000.0 4000.0 4000.0 4000.0 4000.0 4000.0 4000.0 4000.0 4000.0 4000.0 4000.0 4000.0 4000.0 4000.0 4000.0 4000.0 4000.0 4000.0 4000.0 4000.0 4000.0 4000.0 4000.0 4000.0 4000.0 4000.0 4000.0 4000.0 4000.0 4000.0 4000.0 4000.0 4000.0 4000.0 4000.0 4000.0 4000.0 4000.0 4000.0 4000.0 4000.0 4000.0 4000.0 4000.0 4000.0 4000.0 4000.0 4000.0 4000.0 4000.0 4000.0 4000.0 4000.0 4000.0 4000.0 4000.0 4000.0 4000.0 4000.0 4000.0 4000.0 4000.0 4000.0 4000.0 4000.0 4000.0 4000.0 4000.0 4000.0 4000.0 4000.0 4000.0 4000.0 4000.0 4000.0 4000.0 4000.0 4000.0 4000.0 4000.0 4000.0 4000.0 4000.0 4000.0 4000.0 4000.0 4000.0 4000.0 4000.0 4000.0 4000.0 4000.0 4000.0 4000.0 4000.0 4000.0 4000.0 4000.0 4000.0 4000.0 4000.0 4000.0 4000.0 4000.0 4000.0 4000.0 4000.0 4000.0 4000.0 4000.0 4000.0 4000.0 4000.0 4000.0 4000.0 4000.0 4000.0 4000.0 4000.0 4000.0 4000.0 4000.0 4000.0 4000.0 4000.0 4000.0 4000.0 4000.0 4000.0 4000.0 4000.0 4000.0 4000.0 4000.0 4000.0 4000.0 4000.0 4000.0 4000.0 4000.0 4000.0 4000.0 4000.0 4000.0 4000.0 4000.0 4000.0 4000.0 4000.0 4000.0 4000.0 4000.0 4000.0 4000.0 4000.0 4000.0 4000.0 4000.0 4000.0 4000.0 4000.0 4000.0 4000.0 4000.0 4000.0 4000.0 4000.0 4000.0 4000.0 4000.0 4000.0 4000.0 4000.0 4000.0 4000.0 4000.0 4000.0 4000.0 4000.0 4000.0 4000.0 4000.0 4000.0 4000.0 4000.0 4000.0 4000.0 4000.0 4000.0 4000.0 4000.0 4000.0 4000.0 4000.0 4000.0 4000.0 4000.0 4000.0 4000.0 4000.0 4000.0 4000.0 4000.0 4000.0 4000.0 4000.0 4000.0 4000.0 4000.0 4000.0 4000.0 4000.0 SCALARS Mass float 1
LOOKUP_TABLE default
11309700000.0 11309700000.0 11309700000.0 11309700000.0 11309700000.0 11309700000.0 11309700000.0 11309700000.0 11309700000.0 11309700000.0 11309700000.0 11309700000.0 11309700000.0 11309700000.0 11309700000.0 11309700000.0 11309700000.0 11309700000.0 11309700000.0 11309700000.0 11309700000.0 11309700000.0 11309700000.0 11309700000.0 11309700000.0 11309700000.0 11309700000.0 11309700000.0 11309700000.0 11309700000.0 11309700000.0 11309700000.0 11309700000.0 11309700000.0 11309700000.0 11309700000.0 11309700000.0 11309700000.0 11309700000.0 11309700000.0 11309700000.0 11309700000.0 11309700000.0 11309700000.0 11309700000.0 11309700000.0 11309700000.0 11309700000.0 11309700000.0 11309700000.0 11309700000.0 11309700000.0 11309700000.0 11309700000.0 11309700000.0 11309700000.0 11309700000.0 11309700000.0 11309700000.0 11309700000.0 11309700000.0 11309700000.0 11309700000.0 11309700000.0 11309700000.0 11309700000.0 11309700000.0 11309700000.0 11309700000.0 11309700000.0 11309700000.0 11309700000.0 11309700000.0 11309700000.0 11309700000.0 11309700000.0 11309700000.0 11309700000.0 11309700000.0 11309700000.0 11309700000.0 11309700000.0 11309700000.0 11309700000.0 11309700000.0 11309700000.0 11309700000.0 11309700000.0 11309700000.0 11309700000.0 11309700000.0 11309700000.0 11309700000.0 11309700000.0 11309700000.0 11309700000.0 11309700000.0 11309700000.0 11309700000.0 11309700000.0 11309700000.0 11309700000.0 11309700000.0 11309700000.0 11309700000.0 11309700000.0 11309700000.0 11309700000.0 11309700000.0 11309700000.0 11309700000.0 11309700000.0 11309700000.0 11309700000.0 11309700000.0 11309700000.0 11309700000.0 11309700000.0 11309700000.0 11309700000.0 11309700000.0 11309700000.0 11309700000.0 11309700000.0 11309700000.0 11309700000.0 11309700000.0 11309700000.0 11309700000.0 11309700000.0 11309700000.0 11309700000.0 11309700000.0 11309700000.0 11309700000.0 11309700000.0 11309700000.0 11309700000.0 11309700000.0 11309700000.0 11309700000.0 11309700000.0 11309700000.0 11309700000.0 11309700000.0 11309700000.0 11309700000.0 11309700000.0 11309700000.0 11309700000.0 11309700000.0 11309700000.0 11309700000.0 11309700000.0 11309700000.0 11309700000.0 11309700000.0 11309700000.0 11309700000.0 11309700000.0 11309700000.0 11309700000.0 11309700000.0 11309700000.0 11309700000.0 11309700000.0 11309700000.0 11309700000.0 11309700000.0 11309700000.0 11309700000.0 11309700000.0 11309700000.0 11309700000.0 11309700000.0 11309700000.0 11309700000.0 11309700000.0 11309700000.0 11309700000.0 11309700000.0 11309700000.0 11309700000.0 11309700000.0 11309700000.0 11309700000.0 11309700000.0 11309700000.0 11309700000.0 11309700000.0 11309700000.0 11309700000.0 11309700000.0 11309700000.0 11309700000.0 11309700000.0 11309700000.0 11309700000.0 11309700000.0 11309700000.0 11309700000.0 11309700000.0 11309700000.0 11309700000.0 11309700000.0 11309700000.0 11309700000.0 11309700000.0 11309700000.0 11309700000.0 11309700000.0 11309700000.0 11309700000.0 11309700000.0 11309700000.0 11309700000.0 11309700000.0 11309700000.0 11309700000.0 11309700000.0 11309700000.0 11309700000.0 11309700000.0 11309700000.0 11309700000.0 11309700000.0 11309700000.0 11309700000.0 11309700000.0 11309700000.0 11309700000.0 11309700000.0 11309700000.0 11309700000.0 11309700000.0 11309700000.0 11309700000.0 11309700000.0 11309700000.0 11309700000.0 11309700000.0 11309700000.0 11309700000.0 11309700000.0 11309700000.0 11309700000.0 11309700000.0 11309700000.0 11309700000.0 11309700000.0 11309700000.0 11309700000.0 11309700000.0 11309700000.0 11309700000.0 11309700000.0 11309700000.0 11309700000.0 11309700000.0 11309700000.0 11309700000.0 11309700000.0 11309700000.0 11309700000.0 11309700000.0 11309700000.0 11309700000.0 11309700000.0 11309700000.0 11309700000.0 11309700000.0 11309700000.0 11309700000.0 11309700000.0 11309700000.0 11309700000.0 11309700000.0 11309700000.0 11309700000.0 11309700000.0 11309700000.0 11309700000.0 11309700000.0 11309700000.0 11309700000.0 11309700000.0 11309700000.0 11309700000.0 11309700000.0 11309700000.0 11309700000.0 11309700000.0 11309700000.0 11309700000.0 11309700000.0 11309700000.0 11309700000.0 11309700000.0 11309700000.0 11309700000.0 11309700000.0 11309700000.0 11309700000.0 11309700000.0 11309700000.0 11309700000.0 11309700000.0 11309700000.0 11309700000.0 11309700000.0 11309700000.0 11309700000.0 11309700000.0 11309700000.0 11309700000.0 11309700000.0 11309700000.0 11309700000.0 11309700000.0 11309700000.0 11309700000.0 11309700000.0 11309700000.0 11309700000.0 11309700000.0 11309700000.0 11309700000.0 11309700000.0 11309700000.0 11309700000.0 11309700000.0 11309700000.0 11309700000.0 11309700000.0 11309700000.0 11309700000.0 11309700000.0 11309700000.0 11309700000.0 11309700000.0 11309700000.0 11309700000.0 11309700000.0 11309700000.0 11309700000.0 11309700000.0 11309700000.0 11309700000.0 11309700000.0 11309700000.0 11309700000.0 11309700000.0 11309700000.0 11309700000.0 11309700000.0 11309700000.0 11309700000.0 11309700000.0 11309700000.0 11309700000.0 11309700000.0 11309700000.0 11309700000.0 11309700000.0 11309700000.0 11309700000.0 11309700000.0 11309700000.0 11309700000.0 11309700000.0 11309700000.0 11309700000.0 11309700000.0 11309700000.0 11309700000.0 11309700000.0 11309700000.0 11309700000.0 11309700000.0 11309700000.0 11309700000.0 11309700000.0 11309700000.0 11309700000.0 11309700000.0 11309700000.0 11309700000.0 11309700000.0 11309700000.0 11309700000.0 11309700000.0 11309700000.0 11309700000.0 11309700000.0 11309700000.0 11309700000.0 11309700000.0 11309700000.0 11309700000.0 11309700000.0 11309700000.0 11309700000.0 11309700000.0 11309700000.0 11309700000.0 11309700000.0 11309700000.0 11309700000.0 11309700000.0 11309700000.0 11309700000.0 11309700000.0 11309700000.0 11309700000.0 11309700000.0 11309700000.0 11309700000.0 11309700000.0 11309700000.0 11309700000.0 11309700000.0 11309700000.0 11309700000.0 11309700000.0 11309700000.0 11309700000.0 11309700000.0 11309700000.0 11309700000.0 11309700000.0 11309700000.0 11309700000.0 11309700000.0 11309700000.0 11309700000.0 11309700000.0 11309700000.0 11309700000.0 11309700000.0 11309700000.0 11309700000.0 11309700000.0 11309700000.0 11309700000.0 11309700000.0 11309700000.0 11309700000.0 11309700000.0 11309700000.0 11309700000.0 11309700000.0 11309700000.0 11309700000.0 11309700000.0 11309700000.0 11309700000.0 11309700000.0 11309700000.0 11309700000.0 11309700000.0 11309700000.0 11309700000.0 11309700000.0 11309700000.0 11309700000.0 11309700000.0 11309700000.0 11309700000.0 11309700000.0 11309700000.0 11309700000.0 11309700000.0 11309700000.0 11309700000.0 11309700000.0 11309700000.0 11309700000.0 11309700000.0 11309700000.0 11309700000.0 11309700000.0 11309700000.0 11309700000.0 11309700000.0 11309700000.0 11309700000.0 11309700000.0 11309700000.0 11309700000.0 11309700000.0 11309700000.0 11309700000.0 11309700000.0 11309700000.0 11309700000.0 11309700000.0 11309700000.0 11309700000.0 11309700000.0 11309700000.0 11309700000.0 11309700000.0 11309700000.0 11309700000.0 11309700000.0 11309700000.0 11309700000.0 11309700000.0 11309700000.0 11309700000.0 11309700000.0 11309700000.0 11309700000.0 11309700000.0 11309700000.0 11309700000.0 11309700000.0 11309700000.0 11309700000.0 11309700000.0 11309700000.0 11309700000.0 11309700000.0 11309700000.0 11309700000.0 11309700000.0 11309700000.0 11309700000.0 11309700000.0 11309700000.0 11309700000.0 11309700000.0 11309700000.0 11309700000.0 11309700000.0 11309700000.0 11309700000.0 11309700000.0 11309700000.0 11309700000.0 11309700000.0 11309700000.0 11309700000.0 11309700000.0 11309700000.0 11309700000.0 11309700000.0 11309700000.0 11309700000.0 11309700000.0 11309700000.0 11309700000.0 11309700000.0 11309700000.0 11309700000.0 11309700000.0 11309700000.0 11309700000.0 11309700000.0 11309700000.0 11309700000.0 11309700000.0 11309700000.0 11309700000.0 11309700000.0 11309700000.0 11309700000.0 11309700000.0 11309700000.0 11309700000.0 11309700000.0 11309700000.0 11309700000.0 11309700000.0 11309700000.0 11309700000.0 11309700000.0 11309700000.0 11309700000.0 11309700000.0 11309700000.0 11309700000.0 11309700000.0 11309700000.0 11309700000.0 11309700000.0 11309700000.0 11309700000.0 11309700000.0 11309700000.0 11309700000.0 11309700000.0 11309700000.0 11309700000.0 11309700000.0 11309700000.0 11309700000.0 11309700000.0 11309700000.0 11309700000.0 11309700000.0 11309700000.0 11309700000.0 11309700000.0 11309700000.0 11309700000.0 11309700000.0 11309700000.0 11309700000.0 11309700000.0 11309700000.0 11309700000.0 11309700000.0 11309700000.0 11309700000.0 11309700000.0 11309700000.0 11309700000.0 11309700000.0 11309700000.0 11309700000.0 11309700000.0 11309700000.0 11309700000.0 11309700000.0 11309700000.0 11309700000.0 11309700000.0 11309700000.0 11309700000.0 11309700000.0 11309700000.0 11309700000.0 11309700000.0 11309700000.0 11309700000.0 11309700000.0 11309700000.0 11309700000.0 11309700000.0 11309700000.0 11309700000.0 11309700000.0 11309700000.0 11309700000.0 11309700000.0 11309700000.0 11309700000.0 11309700000.0 11309700000.0 11309700000.0 11309700000.0 11309700000.0 11309700000.0 11309700000.0 11309700000.0 11309700000.0 11309700000.0 11309700000.0 11309700000.0 11309700000.0 11309700000.0 11309700000.0 11309700000.0 11309700000.0 11309700000.0 11309700000.0 11309700000.0 11309700000.0 11309700000.0 11309700000.0 11309700000.0 11309700000.0 11309700000.0 11309700000.0 11309700000.0 11309700000.0 11309700000.0 11309700000.0 11309700000.0 11309700000.0 11309700000.0 11309700000.0 11309700000.0 11309700000.0 11309700000.0 11309700000.0 11309700000.0 11309700000.0 11309700000.0 11309700000.0 11309700000.0 11309700000.0 11309700000.0 11309700000.0 11309700000.0 11309700000.0 11309700000.0 11309700000.0 11309700000.0 11309700000.0 11309700000.0 11309700000.0 11309700000.0 11309700000.0 11309700000.0 11309700000.0 11309700000.0 11309700000.0 11309700000.0 11309700000.0 11309700000.0 11309700000.0 11309700000.0 11309700000.0 11309700000.0 11309700000.0 11309700000.0 11309700000.0 11309700000.0 11309700000.0 11309700000.0 11309700000.0 11309700000.0 11309700000.0 11309700000.0 11309700000.0 11309700000.0 11309700000.0 11309700000.0 11309700000.0 11309700000.0 11309700000.0 11309700000.0 11309700000.0 11309700000.0 11309700000.0 11309700000.0 11309700000.0 11309700000.0 11309700000.0 11309700000.0 11309700000.0 11309700000.0 11309700000.0 11309700000.0 11309700000.0 11309700000.0 11309700000.0 11309700000.0 11309700000.0 11309700000.0 11309700000.0 11309700000.0 11309700000.0 11309700000.0 11309700000.0 11309700000.0 11309700000.0 11309700000.0 11309700000.0 11309700000.0 11309700000.0 11309700000.0 11309700000.0 11309700000.0 11309700000.0 11309700000.0 11309700000.0 11309700000.0 11309700000.0 11309700000.0 11309700000.0 11309700000.0 11309700000.0 11309700000.0 11309700000.0 11309700000.0 11309700000.0 11309700000.0 11309700000.0 11309700000.0 11309700000.0 11309700000.0 11309700000.0 11309700000.0 11309700000.0 11309700000.0 11309700000.0 11309700000.0 11309700000.0 11309700000.0 11309700000.0 11309700000.0 11309700000.0 11309700000.0 11309700000.0 11309700000.0 11309700000.0 11309700000.0 11309700000.0 11309700000.0 11309700000.0 11309700000.0 11309700000.0 11309700000.0 11309700000.0 11309700000.0 11309700000.0 11309700000.0 11309700000.0 11309700000.0 11309700000.0 11309700000.0 11309700000.0 11309700000.0 11309700000.0 11309700000.0 11309700000.0 11309700000.0 11309700000.0 11309700000.0 11309700000.0 11309700000.0 11309700000.0 11309700000.0 11309700000.0 11309700000.0 11309700000.0 11309700000.0 11309700000.0 11309700000.0 11309700000.0 11309700000.0 11309700000.0 11309700000.0 11309700000.0 11309700000.0 11309700000.0 11309700000.0 11309700000.0 11309700000.0 11309700000.0 11309700000.0 11309700000.0 11309700000.0 11309700000.0 11309700000.0 11309700000.0 11309700000.0 11309700000.0 11309700000.0 11309700000.0 11309700000.0 11309700000.0 11309700000.0 11309700000.0 11309700000.0 11309700000.0 11309700000.0 11309700000.0 11309700000.0 11309700000.0 11309700000.0 11309700000.0 11309700000.0 11309700000.0 11309700000.0 11309700000.0 11309700000.0 11309700000.0 11309700000.0 11309700000.0 11309700000.0 11309700000.0 11309700000.0 11309700000.0 11309700000.0 11309700000.0 11309700000.0 11309700000.0 11309700000.0 11309700000.0 11309700000.0 11309700000.0 11309700000.0 11309700000.0 11309700000.0 11309700000.0 11309700000.0 11309700000.0 11309700000.0 11309700000.0 11309700000.0 11309700000.0 11309700000.0 11309700000.0 11309700000.0 11309700000.0 11309700000.0 11309700000.0 11309700000.0 11309700000.0 11309700000.0 11309700000.0 11309700000.0 11309700000.0 11309700000.0 11309700000.0 11309700000.0 11309700000.0 11309700000.0 11309700000.0 11309700000.0 11309700000.0 11309700000.0 11309700000.0 11309700000.0 11309700000.0 11309700000.0 11309700000.0 11309700000.0 11309700000.0 11309700000.0 11309700000.0 11309700000.0 11309700000.0 11309700000.0 11309700000.0 11309700000.0 11309700000.0 11309700000.0 11309700000.0 11309700000.0 11309700000.0 11309700000.0 11309700000.0 11309700000.0 11309700000.0 11309700000.0 11309700000.0 11309700000.0 11309700000.0 11309700000.0 11309700000.0 11309700000.0 11309700000.0 11309700000.0 11309700000.0 11309700000.0 11309700000.0 11309700000.0 11309700000.0 11309700000.0 11309700000.0 11309700000.0 11309700000.0 11309700000.0 11309700000.0 11309700000.0 11309700000.0 11309700000.0 11309700000.0 11309700000.0 11309700000.0 11309700000.0 11309700000.0 11309700000.0 11309700000.0 11309700000.0 11309700000.0 11309700000.0 11309700000.0 11309700000.0 11309700000.0 11309700000.0 11309700000.0 11309700000.0 11309700000.0 11309700000.0 11309700000.0 11309700000.0 11309700000.0 11309700000.0 11309700000.0 11309700000.0 11309700000.0 11309700000.0 11309700000.0 11309700000.0 11309700000.0 11309700000.0 11309700000.0 11309700000.0 11309700000.0 11309700000.0 11309700000.0 11309700000.0 11309700000.0 11309700000.0 11309700000.0 11309700000.0 11309700000.0 11309700000.0 11309700000.0 11309700000.0 11309700000.0 11309700000.0 11309700000.0 11309700000.0 11309700000.0 11309700000.0 11309700000.0 11309700000.0 11309700000.0 11309700000.0 11309700000.0 11309700000.0 11309700000.0 11309700000.0 11309700000.0 11309700000.0 11309700000.0 11309700000.0 11309700000.0 11309700000.0 11309700000.0 11309700000.0 11309700000.0 11309700000.0 11309700000.0 11309700000.0 11309700000.0 11309700000.0 11309700000.0 11309700000.0 11309700000.0 11309700000.0 11309700000.0 11309700000.0 11309700000.0 11309700000.0 11309700000.0 11309700000.0 11309700000.0 11309700000.0 11309700000.0 11309700000.0 11309700000.0 11309700000.0 11309700000.0 11309700000.0 11309700000.0 11309700000.0 11309700000.0 11309700000.0 11309700000.0 11309700000.0 11309700000.0 11309700000.0 11309700000.0 11309700000.0 11309700000.0 11309700000.0 11309700000.0 11309700000.0 11309700000.0 11309700000.0 11309700000.0 11309700000.0 11309700000.0 11309700000.0 11309700000.0 11309700000.0 11309700000.0 11309700000.0 11309700000.0 11309700000.0 11309700000.0 11309700000.0 11309700000.0 11309700000.0 11309700000.0 11309700000.0 11309700000.0 11309700000.0 11309700000.0 11309700000.0 11309700000.0 11309700000.0 11309700000.0 11309700000.0 11309700000.0 11309700000.0 11309700000.0 11309700000.0 11309700000.0 11309700000.0 11309700000.0 11309700000.0 11309700000.0 11309700000.0 11309700000.0 11309700000.0 11309700000.0 11309700000.0 11309700000.0 11309700000.0 11309700000.0 11309700000.0 11309700000.0 11309700000.0 11309700000.0 11309700000.0 11309700000.0 11309700000.0 11309700000.0 11309700000.0 11309700000.0 11309700000.0 11309700000.0 11309700000.0 11309700000.0 11309700000.0 11309700000.0 11309700000.0 11309700000.0 11309700000.0 11309700000.0 11309700000.0 11309700000.0 11309700000.0 11309700000.0 11309700000.0 11309700000.0 11309700000.0 11309700000.0 11309700000.0 11309700000.0 11309700000.0 11309700000.0 11309700000.0 11309700000.0 11309700000.0 11309700000.0 11309700000.0 11309700000.0 11309700000.0 11309700000.0 11309700000.0 11309700000.0 11309700000.0 11309700000.0 11309700000.0 11309700000.0 11309700000.0 11309700000.0 11309700000.0 11309700000.0 11309700000.0 11309700000.0 11309700000.0 11309700000.0 11309700000.0 11309700000.0 11309700000.0 11309700000.0 11309700000.0 11309700000.0 11309700000.0 11309700000.0 11309700000.0 11309700000.0 11309700000.0 11309700000.0 11309700000.0 11309700000.0 11309700000.0 11309700000.0 11309700000.0 11309700000.0 11309700000.0 11309700000.0 11309700000.0 11309700000.0 11309700000.0 11309700000.0 11309700000.0 11309700000.0 11309700000.0 11309700000.0 11309700000.0 11309700000.0 11309700000.0 11309700000.0 11309700000.0 11309700000.0 11309700000.0 11309700000.0 11309700000.0 11309700000.0 11309700000.0 11309700000.0 11309700000.0 11309700000.0 11309700000.0 11309700000.0 11309700000.0 11309700000.0 11309700000.0 11309700000.0 11309700000.0 11309700000.0 11309700000.0 11309700000.0 11309700000.0 11309700000.0 11309700000.0 11309700000.0 11309700000.0 11309700000.0 11309700000.0 11309700000.0 11309700000.0 11309700000.0 11309700000.0 11309700000.0 11309700000.0 11309700000.0 11309700000.0 11309700000.0 11309700000.0 11309700000.0 11309700000.0 11309700000.0 11309700000.0 11309700000.0 11309700000.0 11309700000.0 11309700000.0 11309700000.0 11309700000.0 11309700000.0 11309700000.0 11309700000.0 11309700000.0 11309700000.0 11309700000.0 11309700000.0 11309700000.0 11309700000.0 11309700000.0 11309700000.0 11309700000.0 11309700000.0 11309700000.0 11309700000.0 11309700000.0 11309700000.0 11309700000.0 11309700000.0 11309700000.0 11309700000.0 11309700000.0 11309700000.0 11309700000.0 11309700000.0 11309700000.0 11309700000.0 11309700000.0 11309700000.0 11309700000.0 11309700000.0 11309700000.0 11309700000.0 11309700000.0 11309700000.0 11309700000.0 11309700000.0 11309700000.0 11309700000.0 11309700000.0 11309700000.0 11309700000.0 11309700000.0 11309700000.0 11309700000.0 11309700000.0 11309700000.0 11309700000.0 11309700000.0 11309700000.0 11309700000.0 11309700000.0 11309700000.0 11309700000.0 11309700000.0 11309700000.0 11309700000.0 11309700000.0 11309700000.0 11309700000.0 11309700000.0 11309700000.0 11309700000.0 11309700000.0 11309700000.0 11309700000.0 11309700000.0 11309700000.0 11309700000.0 11309700000.0 11309700000.0 11309700000.0 11309700000.0 11309700000.0 11309700000.0 11309700000.0 11309700000.0 11309700000.0 11309700000.0 11309700000.0 11309700000.0 11309700000.0 11309700000.0 11309700000.0 11309700000.0 11309700000.0 11309700000.0 11309700000.0 11309700000.0 11309700000.0 11309700000.0 11309700000.0 11309700000.0 11309700000.0 11309700000.0 11309700000.0 11309700000.0 11309700000.0 11309700000.0 11309700000.0 11309700000.0 11309700000.0 11309700000.0 11309700000.0 11309700000.0 11309700000.0 11309700000.0 11309700000.0 11309700000.0 11309700000.0 11309700000.0 11309700000.0 11309700000.0 11309700000.0 11309700000.0 11309700000.0 11309700000.0 11309700000.0 11309700000.0 11309700000.0 11309700000.0 11309700000.0 11309700000.0 11309700000.0 11309700000.0 11309700000.0 11309700000.0 11309700000.0 11309700000.0 11309700000.0 11309700000.0 11309700000.0 11309700000.0 11309700000.0 11309700000.0 11309700000.0 11309700000.0 11309700000.0 11309700000.0 11309700000.0 11309700000.0 11309700000.0 11309700000.0 11309700000.0 11309700000.0 11309700000.0 11309700000.0 11309700000.0 11309700000.0 11309700000.0 11309700000.0 11309700000.0 11309700000.0 11309700000.0 11309700000.0 11309700000.0 11309700000.0 11309700000.0 11309700000.0 11309700000.0 11309700000.0 11309700000.0 11309700000.0 11309700000.0 11309700000.0 11309700000.0 11309700000.0 11309700000.0 11309700000.0 11309700000.0 11309700000.0 11309700000.0 11309700000.0 11309700000.0 11309700000.0 11309700000.0 11309700000.0 11309700000.0 11309700000.0 11309700000.0 11309700000.0 11309700000.0 11309700000.0 11309700000.0 11309700000.0 11309700000.0 11309700000.0 11309700000.0 11309700000.0 11309700000.0 11309700000.0 11309700000.0 11309700000.0 11309700000.0 11309700000.0 11309700000.0 11309700000.0 11309700000.0 11309700000.0 11309700000.0 11309700000.0 11309700000.0 11309700000.0 11309700000.0 11309700000.0 11309700000.0 11309700000.0 11309700000.0 11309700000.0 11309700000.0 11309700000.0 11309700000.0 11309700000.0 11309700000.0 11309700000.0 11309700000.0 11309700000.0 11309700000.0 11309700000.0 11309700000.0 11309700000.0 11309700000.0 11309700000.0 11309700000.0 11309700000.0 11309700000.0 11309700000.0 11309700000.0 11309700000.0 11309700000.0 11309700000.0 11309700000.0 11309700000.0 11309700000.0 11309700000.0 11309700000.0 11309700000.0 11309700000.0 11309700000.0 11309700000.0 11309700000.0 11309700000.0 11309700000.0 11309700000.0 11309700000.0 11309700000.0 11309700000.0 11309700000.0 11309700000.0 11309700000.0 11309700000.0 11309700000.0 11309700000.0 11309700000.0 11309700000.0 11309700000.0 11309700000.0 11309700000.0 11309700000.0 11309700000.0 11309700000.0 11309700000.0 11309700000.0 11309700000.0 11309700000.0 11309700000.0 11309700000.0 11309700000.0 11309700000.0 11309700000.0 11309700000.0 11309700000.0 11309700000.0 11309700000.0 11309700000.0 11309700000.0 11309700000.0 11309700000.0 11309700000.0 11309700000.0 11309700000.0 11309700000.0 11309700000.0 11309700000.0 11309700000.0 11309700000.0 11309700000.0 11309700000.0 11309700000.0 11309700000.0 11309700000.0 11309700000.0 11309700000.0 11309700000.0 11309700000.0 11309700000.0 11309700000.0 11309700000.0 11309700000.0 11309700000.0 11309700000.0 11309700000.0 11309700000.0 11309700000.0 11309700000.0 11309700000.0 11309700000.0 11309700000.0 11309700000.0 11309700000.0 11309700000.0 11309700000.0 11309700000.0 11309700000.0 11309700000.0 11309700000.0 11309700000.0 11309700000.0 11309700000.0 11309700000.0 11309700000.0 11309700000.0 11309700000.0 11309700000.0 11309700000.0 11309700000.0 11309700000.0 11309700000.0 11309700000.0 11309700000.0 11309700000.0 11309700000.0 11309700000.0 11309700000.0 11309700000.0 11309700000.0 11309700000.0 11309700000.0 11309700000.0 11309700000.0 11309700000.0 11309700000.0 11309700000.0 11309700000.0 11309700000.0 11309700000.0 11309700000.0 11309700000.0 11309700000.0 11309700000.0 11309700000.0 11309700000.0 11309700000.0 11309700000.0 11309700000.0 11309700000.0 11309700000.0 11309700000.0 11309700000.0 11309700000.0 11309700000.0 11309700000.0 11309700000.0 11309700000.0 11309700000.0 11309700000.0 11309700000.0 11309700000.0 11309700000.0 11309700000.0 11309700000.0 11309700000.0 11309700000.0 11309700000.0 11309700000.0 11309700000.0 11309700000.0 11309700000.0 11309700000.0 11309700000.0 11309700000.0 11309700000.0 11309700000.0 11309700000.0 11309700000.0 11309700000.0 11309700000.0 11309700000.0 11309700000.0 11309700000.0 11309700000.0 11309700000.0 11309700000.0 11309700000.0 11309700000.0 11309700000.0 11309700000.0 11309700000.0 11309700000.0 11309700000.0 11309700000.0 11309700000.0 11309700000.0 11309700000.0 11309700000.0 11309700000.0 11309700000.0 11309700000.0 11309700000.0 11309700000.0 11309700000.0 11309700000.0 11309700000.0 11309700000.0 11309700000.0 11309700000.0 11309700000.0 11309700000.0 11309700000.0 11309700000.0 11309700000.0 11309700000.0 11309700000.0 11309700000.0 11309700000.0 11309700000.0 11309700000.0 11309700000.0 11309700000.0 11309700000.0 11309700000.0 11309700000.0 11309700000.0 11309700000.0 11309700000.0 11309700000.0 11309700000.0 11309700000.0 11309700000.0 11309700000.0 11309700000.0 11309700000.0 11309700000.0 11309700000.0 11309700000.0 11309700000.0 11309700000.0 11309700000.0 11309700000.0 11309700000.0 11309700000.0 11309700000.0 11309700000.0 11309700000.0 11309700000.0 11309700000.0 11309700000.0 11309700000.0 11309700000.0 11309700000.0 11309700000.0 11309700000.0 11309700000.0 11309700000.0 11309700000.0 11309700000.0 11309700000.0 11309700000.0 11309700000.0 11309700000.0 11309700000.0 11309700000.0 11309700000.0 11309700000.0 11309700000.0 11309700000.0 11309700000.0 11309700000.0 11309700000.0 11309700000.0 11309700000.0 11309700000.0 11309700000.0 11309700000.0 11309700000.0 11309700000.0 11309700000.0 11309700000.0 11309700000.0 11309700000.0 11309700000.0 11309700000.0 11309700000.0 11309700000.0 11309700000.0 11309700000.0 11309700000.0 11309700000.0 11309700000.0 11309700000.0 11309700000.0 11309700000.0 11309700000.0 11309700000.0 11309700000.0 11309700000.0 11309700000.0 11309700000.0 11309700000.0 11309700000.0 11309700000.0 11309700000.0 11309700000.0 11309700000.0 11309700000.0 11309700000.0 11309700000.0 11309700000.0 11309700000.0 11309700000.0 11309700000.0 11309700000.0 11309700000.0 11309700000.0 11309700000.0 11309700000.0 11309700000.0 11309700000.0 11309700000.0 11309700000.0 11309700000.0 11309700000.0 11309700000.0 11309700000.0 11309700000.0 11309700000.0 11309700000.0 11309700000.0 11309700000.0 11309700000.0 11309700000.0 11309700000.0 11309700000.0 11309700000.0 11309700000.0 11309700000.0 11309700000.0 11309700000.0 11309700000.0 11309700000.0 11309700000.0 11309700000.0 11309700000.0 11309700000.0 11309700000.0 11309700000.0 11309700000.0 11309700000.0 11309700000.0 11309700000.0 11309700000.0 11309700000.0 11309700000.0 11309700000.0 11309700000.0 11309700000.0 11309700000.0 11309700000.0 11309700000.0 11309700000.0 11309700000.0 11309700000.0 11309700000.0 11309700000.0 11309700000.0 11309700000.0 11309700000.0 11309700000.0 11309700000.0 11309700000.0 11309700000.0 11309700000.0 11309700000.0 11309700000.0 11309700000.0 11309700000.0 11309700000.0 11309700000.0 11309700000.0 11309700000.0 11309700000.0 11309700000.0 11309700000.0 11309700000.0 11309700000.0 11309700000.0 11309700000.0 11309700000.0 11309700000.0 11309700000.0 11309700000.0 11309700000.0 11309700000.0 11309700000.0 11309700000.0 11309700000.0 11309700000.0 11309700000.0 11309700000.0 11309700000.0 11309700000.0 11309700000.0 11309700000.0 11309700000.0 11309700000.0 11309700000.0 11309700000.0 11309700000.0 11309700000.0 11309700000.0 11309700000.0 11309700000.0 11309700000.0 11309700000.0 11309700000.0 11309700000.0 11309700000.0 11309700000.0 11309700000.0 11309700000.0 11309700000.0 11309700000.0 11309700000.0 11309700000.0 11309700000.0 11309700000.0 11309700000.0 11309700000.0 11309700000.0 11309700000.0 11309700000.0 11309700000.0 11309700000.0 11309700000.0 11309700000.0 11309700000.0 11309700000.0 11309700000.0 11309700000.0 11309700000.0 11309700000.0 11309700000.0 11309700000.0 11309700000.0 11309700000.0 11309700000.0 11309700000.0 11309700000.0 11309700000.0 11309700000.0 11309700000.0 11309700000.0 11309700000.0 11309700000.0 11309700000.0 11309700000.0 11309700000.0 11309700000.0 11309700000.0 11309700000.0 11309700000.0 11309700000.0 11309700000.0 11309700000.0 11309700000.0 11309700000.0 11309700000.0 11309700000.0 11309700000.0 11309700000.0 11309700000.0 11309700000.0 11309700000.0 11309700000.0 11309700000.0 11309700000.0 11309700000.0 11309700000.0 11309700000.0 11309700000.0 11309700000.0 11309700000.0 11309700000.0 11309700000.0 11309700000.0 11309700000.0 11309700000.0 11309700000.0 11309700000.0 11309700000.0 11309700000.0 11309700000.0 11309700000.0 11309700000.0 11309700000.0 11309700000.0 11309700000.0 11309700000.0 11309700000.0 11309700000.0 11309700000.0 11309700000.0 11309700000.0 11309700000.0 11309700000.0 11309700000.0 11309700000.0 11309700000.0 11309700000.0 11309700000.0 11309700000.0 11309700000.0 11309700000.0 11309700000.0 11309700000.0 11309700000.0 11309700000.0 11309700000.0 11309700000.0 11309700000.0 11309700000.0 11309700000.0 11309700000.0 11309700000.0 11309700000.0 11309700000.0 11309700000.0 11309700000.0 11309700000.0 11309700000.0 11309700000.0 11309700000.0 11309700000.0 11309700000.0 11309700000.0 11309700000.0 11309700000.0 11309700000.0 11309700000.0 11309700000.0 11309700000.0 11309700000.0 11309700000.0 11309700000.0 11309700000.0 11309700000.0 11309700000.0 11309700000.0 11309700000.0 11309700000.0 11309700000.0 11309700000.0 11309700000.0 11309700000.0 11309700000.0 11309700000.0 11309700000.0 11309700000.0 11309700000.0 11309700000.0 11309700000.0 11309700000.0 11309700000.0 11309700000.0 11309700000.0 11309700000.0 11309700000.0 11309700000.0 11309700000.0 11309700000.0 11309700000.0 11309700000.0 11309700000.0 11309700000.0 11309700000.0 11309700000.0 11309700000.0 11309700000.0 11309700000.0 11309700000.0 11309700000.0 11309700000.0 11309700000.0 11309700000.0 11309700000.0 11309700000.0 11309700000.0 11309700000.0 11309700000.0 11309700000.0 11309700000.0 11309700000.0 11309700000.0 11309700000.0 11309700000.0 11309700000.0 11309700000.0 11309700000.0 11309700000.0 11309700000.0 11309700000.0 11309700000.0 11309700000.0 11309700000.0 11309700000.0 11309700000.0 11309700000.0 11309700000.0 11309700000.0 11309700000.0 11309700000.0 11309700000.0 11309700000.0 11309700000.0 11309700000.0 11309700000.0 11309700000.0 11309700000.0 11309700000.0 11309700000.0 11309700000.0 11309700000.0 11309700000.0 11309700000.0 11309700000.0 11309700000.0 11309700000.0 11309700000.0 11309700000.0 11309700000.0 11309700000.0 11309700000.0 11309700000.0 11309700000.0 11309700000.0 11309700000.0 11309700000.0 11309700000.0 11309700000.0 11309700000.0 11309700000.0 11309700000.0 11309700000.0 11309700000.0 11309700000.0 11309700000.0 11309700000.0 11309700000.0 11309700000.0 11309700000.0 11309700000.0 11309700000.0 11309700000.0 11309700000.0 11309700000.0 11309700000.0 11309700000.0 11309700000.0 11309700000.0 11309700000.0 11309700000.0 11309700000.0 11309700000.0 11309700000.0 11309700000.0 11309700000.0 11309700000.0 11309700000.0 11309700000.0 11309700000.0 11309700000.0 11309700000.0 11309700000.0 11309700000.0 11309700000.0 11309700000.0 11309700000.0 11309700000.0 11309700000.0 11309700000.0 11309700000.0 11309700000.0 11309700000.0 11309700000.0 11309700000.0 11309700000.0 11309700000.0 11309700000.0 11309700000.0 11309700000.0 11309700000.0 11309700000.0 11309700000.0 11309700000.0 11309700000.0 11309700000.0 11309700000.0 11309700000.0 11309700000.0 11309700000.0 11309700000.0 11309700000.0 11309700000.0 11309700000.0 11309700000.0 11309700000.0 11309700000.0 11309700000.0 11309700000.0 11309700000.0 11309700000.0 11309700000.0 11309700000.0 11309700000.0 11309700000.0 11309700000.0 11309700000.0 11309700000.0 11309700000.0 11309700000.0 11309700000.0 11309700000.0 11309700000.0 11309700000.0 11309700000.0 11309700000.0 11309700000.0 11309700000.0 11309700000.0 11309700000.0 11309700000.0 11309700000.0 11309700000.0 11309700000.0 11309700000.0 11309700000.0 11309700000.0 11309700000.0 11309700000.0 11309700000.0 11309700000.0 11309700000.0 11309700000.0 11309700000.0 11309700000.0 11309700000.0 11309700000.0 11309700000.0 11309700000.0 11309700000.0 11309700000.0 11309700000.0 11309700000.0 11309700000.0 11309700000.0 11309700000.0 11309700000.0 11309700000.0 11309700000.0 11309700000.0 11309700000.0 11309700000.0 11309700000.0 11309700000.0 11309700000.0 11309700000.0 11309700000.0 11309700000.0 11309700000.0 11309700000.0 11309700000.0 11309700000.0 11309700000.0 11309700000.0 11309700000.0 11309700000.0 11309700000.0 11309700000.0 11309700000.0 11309700000.0 11309700000.0 11309700000.0 11309700000.0 11309700000.0 11309700000.0 11309700000.0 11309700000.0 11309700000.0 11309700000.0 11309700000.0 11309700000.0 11309700000.0 11309700000.0 11309700000.0 11309700000.0 11309700000.0 11309700000.0 11309700000.0 11309700000.0 11309700000.0 11309700000.0 11309700000.0 11309700000.0 11309700000.0 11309700000.0 11309700000.0 11309700000.0 11309700000.0 11309700000.0 11309700000.0 11309700000.0 11309700000.0 11309700000.0 11309700000.0 11309700000.0 11309700000.0 11309700000.0 11309700000.0 11309700000.0 11309700000.0 11309700000.0 11309700000.0 11309700000.0 11309700000.0 11309700000.0 11309700000.0 11309700000.0 11309700000.0 11309700000.0 11309700000.0 11309700000.0 11309700000.0 11309700000.0 11309700000.0 11309700000.0 11309700000.0 11309700000.0 11309700000.0 11309700000.0 11309700000.0 11309700000.0 11309700000.0 11309700000.0 11309700000.0 11309700000.0 11309700000.0 11309700000.0 11309700000.0 11309700000.0 11309700000.0 11309700000.0 11309700000.0 11309700000.0 11309700000.0 11309700000.0 11309700000.0 11309700000.0 11309700000.0 11309700000.0 11309700000.0 11309700000.0 11309700000.0 11309700000.0 11309700000.0 11309700000.0 11309700000.0 11309700000.0 11309700000.0 11309700000.0 11309700000.0 11309700000.0 11309700000.0 11309700000.0 11309700000.0 11309700000.0 11309700000.0 11309700000.0 11309700000.0 11309700000.0 11309700000.0 11309700000.0 11309700000.0 11309700000.0 11309700000.0 11309700000.0 11309700000.0 11309700000.0 11309700000.0 11309700000.0 11309700000.0 11309700000.0 11309700000.0 11309700000.0 11309700000.0 11309700000.0 11309700000.0 11309700000.0 11309700000.0 11309700000.0 11309700000.0 11309700000.0 11309700000.0 11309700000.0 11309700000.0 11309700000.0 11309700000.0 11309700000.0 11309700000.0 11309700000.0 11309700000.0 11309700000.0 11309700000.0 11309700000.0 11309700000.0 11309700000.0 11309700000.0 11309700000.0 11309700000.0 11309700000.0 11309700000.0 11309700000.0 11309700000.0 11309700000.0 11309700000.0 11309700000.0 11309700000.0 11309700000.0 11309700000.0 11309700000.0 11309700000.0 11309700000.0 11309700000.0 11309700000.0 11309700000.0 11309700000.0 11309700000.0 11309700000.0 11309700000.0 11309700000.0 11309700000.0 11309700000.0 11309700000.0 11309700000.0 11309700000.0 11309700000.0 11309700000.0 11309700000.0 11309700000.0 11309700000.0 11309700000.0 11309700000.0 11309700000.0 11309700000.0 11309700000.0 11309700000.0 11309700000.0 11309700000.0 11309700000.0 11309700000.0 11309700000.0 11309700000.0 11309700000.0 11309700000.0 11309700000.0 11309700000.0 11309700000.0 11309700000.0 11309700000.0 11309700000.0 11309700000.0 11309700000.0 11309700000.0 11309700000.0 11309700000.0 11309700000.0 11309700000.0 11309700000.0 11309700000.0 11309700000.0 11309700000.0 11309700000.0 11309700000.0 11309700000.0 11309700000.0 11309700000.0 11309700000.0 11309700000.0 11309700000.0 11309700000.0 11309700000.0 11309700000.0 11309700000.0 11309700000.0 11309700000.0 11309700000.0 11309700000.0 11309700000.0 11309700000.0 11309700000.0 11309700000.0 11309700000.0 11309700000.0 11309700000.0 11309700000.0 11309700000.0 11309700000.0 11309700000.0 11309700000.0 11309700000.0 11309700000.0 11309700000.0 11309700000.0 11309700000.0 11309700000.0 11309700000.0 11309700000.0 11309700000.0 11309700000.0 11309700000.0 11309700000.0 11309700000.0 11309700000.0 11309700000.0 11309700000.0 11309700000.0 11309700000.0 11309700000.0 11309700000.0 11309700000.0 11309700000.0 11309700000.0 11309700000.0 11309700000.0 11309700000.0 11309700000.0 11309700000.0 11309700000.0 11309700000.0 11309700000.0 11309700000.0 11309700000.0 11309700000.0 11309700000.0 11309700000.0 11309700000.0 11309700000.0 11309700000.0 11309700000.0 11309700000.0 11309700000.0 11309700000.0 11309700000.0 11309700000.0 11309700000.0 11309700000.0 11309700000.0 11309700000.0 11309700000.0 11309700000.0 11309700000.0 11309700000.0 11309700000.0 11309700000.0 11309700000.0 11309700000.0 11309700000.0 11309700000.0 11309700000.0 11309700000.0 11309700000.0 11309700000.0 11309700000.0 11309700000.0 11309700000.0 11309700000.0 11309700000.0 11309700000.0 11309700000.0 11309700000.0 11309700000.0 11309700000.0 11309700000.0 11309700000.0 11309700000.0 11309700000.0 11309700000.0 11309700000.0 11309700000.0 11309700000.0 11309700000.0 11309700000.0 11309700000.0 11309700000.0 11309700000.0 11309700000.0 11309700000.0 11309700000.0 11309700000.0 11309700000.0 11309700000.0 11309700000.0 11309700000.0 11309700000.0 11309700000.0 11309700000.0 11309700000.0 11309700000.0 11309700000.0 11309700000.0 11309700000.0 11309700000.0 11309700000.0 11309700000.0 11309700000.0 11309700000.0 11309700000.0 11309700000.0 11309700000.0 11309700000.0 11309700000.0 11309700000.0 11309700000.0 11309700000.0 11309700000.0 11309700000.0 11309700000.0 11309700000.0 11309700000.0 11309700000.0 11309700000.0 11309700000.0 11309700000.0 11309700000.0 11309700000.0 11309700000.0 11309700000.0 11309700000.0 11309700000.0 11309700000.0 11309700000.0 11309700000.0 11309700000.0 11309700000.0 11309700000.0 11309700000.0 11309700000.0 11309700000.0 11309700000.0 11309700000.0 11309700000.0 11309700000.0 11309700000.0 11309700000.0 11309700000.0 11309700000.0 11309700000.0 11309700000.0 11309700000.0 11309700000.0 11309700000.0 11309700000.0 11309700000.0 11309700000.0 11309700000.0 11309700000.0 11309700000.0 11309700000.0 11309700000.0 11309700000.0 11309700000.0 11309700000.0 11309700000.0 11309700000.0 11309700000.0 11309700000.0 11309700000.0 11309700000.0 11309700000.0 11309700000.0 11309700000.0 11309700000.0 11309700000.0 11309700000.0 11309700000.0 11309700000.0 11309700000.0 11309700000.0 11309700000.0 11309700000.0 11309700000.0 11309700000.0 11309700000.0 11309700000.0 11309700000.0 11309700000.0 11309700000.0 11309700000.0 11309700000.0 11309700000.0 11309700000.0 11309700000.0 11309700000.0 11309700000.0 11309700000.0 11309700000.0 11309700000.0 11309700000.0 11309700000.0 11309700000.0 11309700000.0 11309700000.0 11309700000.0 11309700000.0 11309700000.0 11309700000.0 11309700000.0 11309700000.0 11309700000.0 11309700000.0 11309700000.0 11309700000.0 11309700000.0 11309700000.0 11309700000.0 11309700000.0 11309700000.0 11309700000.0 11309700000.0 11309700000.0 11309700000.0 11309700000.0 11309700000.0 11309700000.0 11309700000.0 11309700000.0 11309700000.0 11309700000.0 11309700000.0 11309700000.0 11309700000.0 11309700000.0 11309700000.0 11309700000.0 11309700000.0 11309700000.0 11309700000.0 11309700000.0 11309700000.0 11309700000.0 11309700000.0 11309700000.0 11309700000.0 11309700000.0 11309700000.0 11309700000.0 11309700000.0 11309700000.0 11309700000.0 11309700000.0 11309700000.0 11309700000.0 11309700000.0 11309700000.0 11309700000.0 11309700000.0 11309700000.0 11309700000.0 11309700000.0 11309700000.0 11309700000.0 11309700000.0 11309700000.0 11309700000.0 11309700000.0 11309700000.0 11309700000.0 11309700000.0 11309700000.0 11309700000.0 11309700000.0 11309700000.0 11309700000.0 11309700000.0 11309700000.0 11309700000.0 11309700000.0 11309700000.0 11309700000.0 11309700000.0 11309700000.0 11309700000.0 11309700000.0 11309700000.0 11309700000.0 11309700000.0 11309700000.0 11309700000.0 11309700000.0 11309700000.0 11309700000.0 11309700000.0 11309700000.0 11309700000.0 11309700000.0 11309700000.0 11309700000.0 11309700000.0 11309700000.0 11309700000.0 11309700000.0 11309700000.0 11309700000.0 11309700000.0 11309700000.0 11309700000.0 11309700000.0 11309700000.0 11309700000.0 11309700000.0 11309700000.0 11309700000.0 11309700000.0 11309700000.0 11309700000.0 11309700000.0 11309700000.0 11309700000.0 11309700000.0 11309700000.0 11309700000.0 11309700000.0 11309700000.0 11309700000.0 11309700000.0 11309700000.0 11309700000.0 11309700000.0 11309700000.0 11309700000.0 11309700000.0 11309700000.0 11309700000.0 11309700000.0 11309700000.0 11309700000.0 11309700000.0 11309700000.0 11309700000.0 11309700000.0 11309700000.0 11309700000.0 11309700000.0 11309700000.0 11309700000.0 11309700000.0 11309700000.0 11309700000.0 11309700000.0 11309700000.0 11309700000.0 11309700000.0 11309700000.0 11309700000.0 11309700000.0 11309700000.0 11309700000.0 11309700000.0 11309700000.0 11309700000.0 11309700000.0 11309700000.0 11309700000.0 11309700000.0 11309700000.0 11309700000.0 11309700000.0 11309700000.0 11309700000.0 11309700000.0 11309700000.0 11309700000.0 11309700000.0 11309700000.0 11309700000.0 11309700000.0 11309700000.0 11309700000.0 11309700000.0 11309700000.0 11309700000.0 11309700000.0 11309700000.0 11309700000.0 11309700000.0 11309700000.0 11309700000.0 11309700000.0 11309700000.0 11309700000.0 11309700000.0 11309700000.0 11309700000.0 11309700000.0 11309700000.0 11309700000.0 11309700000.0 11309700000.0 11309700000.0 11309700000.0 11309700000.0 11309700000.0 11309700000.0 11309700000.0 11309700000.0 11309700000.0 11309700000.0 11309700000.0 11309700000.0 11309700000.0 11309700000.0 11309700000.0 11309700000.0 11309700000.0 11309700000.0 11309700000.0 11309700000.0 11309700000.0 11309700000.0 11309700000.0 11309700000.0 11309700000.0 11309700000.0 11309700000.0 11309700000.0 11309700000.0 11309700000.0 11309700000.0 11309700000.0 11309700000.0 11309700000.0 11309700000.0 11309700000.0 11309700000.0 11309700000.0 11309700000.0 11309700000.0 11309700000.0 11309700000.0 11309700000.0 11309700000.0 11309700000.0 11309700000.0 11309700000.0 11309700000.0 11309700000.0 11309700000.0 11309700000.0 11309700000.0 11309700000.0 11309700000.0 11309700000.0 11309700000.0 11309700000.0 11309700000.0 11309700000.0 11309700000.0 11309700000.0 11309700000.0 11309700000.0 11309700000.0 11309700000.0 11309700000.0 11309700000.0 11309700000.0 11309700000.0 11309700000.0 11309700000.0 11309700000.0 11309700000.0 11309700000.0 11309700000.0 11309700000.0 11309700000.0 11309700000.0 11309700000.0 11309700000.0 11309700000.0 11309700000.0 11309700000.0 11309700000.0 11309700000.0 11309700000.0 11309700000.0 11309700000.0 11309700000.0 11309700000.0 11309700000.0 11309700000.0 11309700000.0 11309700000.0 11309700000.0 11309700000.0 11309700000.0 11309700000.0 11309700000.0 11309700000.0 11309700000.0 11309700000.0 11309700000.0 11309700000.0 11309700000.0 11309700000.0 11309700000.0 11309700000.0 11309700000.0 11309700000.0 11309700000.0 11309700000.0 11309700000.0 11309700000.0 11309700000.0 11309700000.0 11309700000.0 11309700000.0 11309700000.0 11309700000.0 11309700000.0 11309700000.0 11309700000.0 11309700000.0 11309700000.0 11309700000.0 11309700000.0 11309700000.0 11309700000.0 11309700000.0 11309700000.0 11309700000.0 11309700000.0 11309700000.0 11309700000.0 11309700000.0 11309700000.0 11309700000.0 11309700000.0 11309700000.0 11309700000.0 11309700000.0 11309700000.0 11309700000.0 11309700000.0 11309700000.0 11309700000.0 11309700000.0 11309700000.0 11309700000.0 11309700000.0 11309700000.0 11309700000.0 11309700000.0 11309700000.0 11309700000.0 11309700000.0 11309700000.0 11309700000.0 11309700000.0 11309700000.0 11309700000.0 11309700000.0 11309700000.0 11309700000.0 11309700000.0 11309700000.0 11309700000.0 11309700000.0 11309700000.0 11309700000.0 11309700000.0 11309700000.0 11309700000.0 11309700000.0 11309700000.0 11309700000.0 11309700000.0 11309700000.0 11309700000.0 11309700000.0 11309700000.0 11309700000.0 11309700000.0 11309700000.0 11309700000.0 11309700000.0 11309700000.0 11309700000.0 11309700000.0 11309700000.0 11309700000.0 11309700000.0 11309700000.0 11309700000.0 11309700000.0 11309700000.0 11309700000.0 11309700000.0 11309700000.0 11309700000.0 11309700000.0 11309700000.0 11309700000.0 11309700000.0 11309700000.0 11309700000.0 11309700000.0 11309700000.0 11309700000.0 11309700000.0 11309700000.0 11309700000.0 11309700000.0 11309700000.0 11309700000.0 11309700000.0 11309700000.0 11309700000.0 11309700000.0 11309700000.0 11309700000.0 11309700000.0 11309700000.0 11309700000.0 11309700000.0 11309700000.0 11309700000.0 11309700000.0 11309700000.0 11309700000.0 11309700000.0 11309700000.0 11309700000.0 11309700000.0 11309700000.0 11309700000.0 11309700000.0 11309700000.0 11309700000.0 11309700000.0 11309700000.0 11309700000.0 11309700000.0 11309700000.0 11309700000.0 11309700000.0 11309700000.0 11309700000.0 11309700000.0 11309700000.0 11309700000.0 11309700000.0 11309700000.0 11309700000.0 11309700000.0 11309700000.0 11309700000.0 11309700000.0 11309700000.0 11309700000.0 11309700000.0 11309700000.0 11309700000.0 11309700000.0 11309700000.0 11309700000.0 11309700000.0 11309700000.0 11309700000.0 11309700000.0 11309700000.0 11309700000.0 11309700000.0 11309700000.0 11309700000.0 11309700000.0 11309700000.0 11309700000.0 11309700000.0 11309700000.0 11309700000.0 11309700000.0 11309700000.0 11309700000.0 11309700000.0 11309700000.0 11309700000.0 11309700000.0 11309700000.0 11309700000.0 11309700000.0 11309700000.0 11309700000.0 11309700000.0 11309700000.0 11309700000.0 11309700000.0 11309700000.0 11309700000.0 11309700000.0 11309700000.0 11309700000.0 11309700000.0 11309700000.0 11309700000.0 11309700000.0 11309700000.0 11309700000.0 11309700000.0 11309700000.0 11309700000.0 11309700000.0 11309700000.0 11309700000.0 11309700000.0 11309700000.0 11309700000.0 11309700000.0 11309700000.0 11309700000.0 11309700000.0 11309700000.0 11309700000.0 11309700000.0 11309700000.0 11309700000.0 11309700000.0 11309700000.0 11309700000.0 11309700000.0 11309700000.0 11309700000.0 11309700000.0 11309700000.0 11309700000.0 11309700000.0 11309700000.0 11309700000.0 11309700000.0 11309700000.0 11309700000.0 11309700000.0 11309700000.0 11309700000.0 11309700000.0 11309700000.0 11309700000.0 11309700000.0 11309700000.0 11309700000.0 11309700000.0 11309700000.0 11309700000.0 11309700000.0 11309700000.0 11309700000.0 11309700000.0 11309700000.0 11309700000.0 11309700000.0 11309700000.0 11309700000.0 11309700000.0 11309700000.0 11309700000.0 11309700000.0 11309700000.0 11309700000.0 11309700000.0 11309700000.0 11309700000.0 11309700000.0 11309700000.0 11309700000.0 11309700000.0 11309700000.0 11309700000.0 11309700000.0 11309700000.0 11309700000.0 11309700000.0 11309700000.0 11309700000.0 11309700000.0 11309700000.0 11309700000.0 11309700000.0 11309700000.0 11309700000.0 11309700000.0 11309700000.0 11309700000.0 11309700000.0 11309700000.0 11309700000.0 11309700000.0 11309700000.0 11309700000.0 11309700000.0 11309700000.0 11309700000.0 11309700000.0 11309700000.0 11309700000.0 11309700000.0 11309700000.0 11309700000.0 11309700000.0 11309700000.0 11309700000.0 11309700000.0 11309700000.0 11309700000.0 11309700000.0 11309700000.0 11309700000.0 11309700000.0 11309700000.0 11309700000.0 11309700000.0 11309700000.0 11309700000.0 11309700000.0 11309700000.0 11309700000.0 11309700000.0 11309700000.0 11309700000.0 11309700000.0 11309700000.0 11309700000.0 11309700000.0 11309700000.0 11309700000.0 11309700000.0 11309700000.0 11309700000.0 11309700000.0 11309700000.0 11309700000.0 11309700000.0 11309700000.0 11309700000.0 11309700000.0 11309700000.0 11309700000.0 11309700000.0 11309700000.0 11309700000.0 11309700000.0 11309700000.0 11309700000.0 11309700000.0 11309700000.0 11309700000.0 11309700000.0 11309700000.0 11309700000.0 11309700000.0 11309700000.0 11309700000.0 11309700000.0 11309700000.0 11309700000.0 11309700000.0 11309700000.0 11309700000.0 11309700000.0 11309700000.0 11309700000.0 11309700000.0 11309700000.0 11309700000.0 11309700000.0 11309700000.0 11309700000.0 11309700000.0 11309700000.0 11309700000.0 11309700000.0 11309700000.0 11309700000.0 11309700000.0 11309700000.0 11309700000.0 11309700000.0 11309700000.0 11309700000.0 11309700000.0 11309700000.0 11309700000.0 11309700000.0 11309700000.0 11309700000.0 11309700000.0 11309700000.0 11309700000.0 11309700000.0 11309700000.0 11309700000.0 11309700000.0 11309700000.0 11309700000.0 11309700000.0 11309700000.0 11309700000.0 11309700000.0 11309700000.0 11309700000.0 11309700000.0 11309700000.0 11309700000.0 11309700000.0 11309700000.0 11309700000.0 11309700000.0 11309700000.0 11309700000.0 11309700000.0 11309700000.0 11309700000.0 11309700000.0 11309700000.0 11309700000.0 11309700000.0 11309700000.0 11309700000.0 11309700000.0 11309700000.0 11309700000.0 11309700000.0 11309700000.0 11309700000.0 11309700000.0 11309700000.0 11309700000.0 11309700000.0 11309700000.0 11309700000.0 11309700000.0 11309700000.0 11309700000.0 11309700000.0 11309700000.0 11309700000.0 11309700000.0 11309700000.0 11309700000.0 11309700000.0 11309700000.0 11309700000.0 11309700000.0 11309700000.0 11309700000.0 11309700000.0 11309700000.0 11309700000.0 11309700000.0 11309700000.0 11309700000.0 11309700000.0 11309700000.0 11309700000.0 11309700000.0 11309700000.0 11309700000.0 11309700000.0 11309700000.0 11309700000.0 11309700000.0 11309700000.0 11309700000.0 11309700000.0 11309700000.0 11309700000.0 11309700000.0 11309700000.0 11309700000.0 11309700000.0 11309700000.0 11309700000.0 11309700000.0 11309700000.0 11309700000.0 11309700000.0 11309700000.0 11309700000.0 11309700000.0 11309700000.0 11309700000.0 11309700000.0 11309700000.0 11309700000.0 11309700000.0 11309700000.0 11309700000.0 11309700000.0 11309700000.0 11309700000.0 11309700000.0 11309700000.0 11309700000.0 11309700000.0 11309700000.0 11309700000.0 11309700000.0 11309700000.0 11309700000.0 11309700000.0 11309700000.0 11309700000.0 11309700000.0 11309700000.0 11309700000.0 11309700000.0 11309700000.0 11309700000.0 11309700000.0 11309700000.0 11309700000.0 11309700000.0 11309700000.0 11309700000.0 11309700000.0 11309700000.0 11309700000.0 11309700000.0 11309700000.0 11309700000.0 11309700000.0 11309700000.0 11309700000.0 11309700000.0 11309700000.0 11309700000.0 11309700000.0 11309700000.0 11309700000.0 11309700000.0 11309700000.0 11309700000.0 11309700000.0 11309700000.0 11309700000.0 11309700000.0 11309700000.0 11309700000.0 11309700000.0 11309700000.0 11309700000.0 11309700000.0 11309700000.0 11309700000.0 11309700000.0 11309700000.0 11309700000.0 11309700000.0 11309700000.0 11309700000.0 11309700000.0 11309700000.0 11309700000.0 11309700000.0 11309700000.0 11309700000.0 11309700000.0 11309700000.0 11309700000.0 11309700000.0 11309700000.0 11309700000.0 11309700000.0 11309700000.0 11309700000.0 11309700000.0 11309700000.0 11309700000.0 11309700000.0 11309700000.0 11309700000.0 11309700000.0 11309700000.0 11309700000.0 11309700000.0 11309700000.0 11309700000.0 11309700000.0 11309700000.0 11309700000.0 11309700000.0 11309700000.0 11309700000.0 11309700000.0 11309700000.0 11309700000.0 11309700000.0 11309700000.0 11309700000.0 11309700000.0 11309700000.0 11309700000.0 11309700000.0 11309700000.0 11309700000.0 11309700000.0 11309700000.0 11309700000.0 11309700000.0 11309700000.0 11309700000.0 11309700000.0 11309700000.0 11309700000.0 11309700000.0 11309700000.0 11309700000.0 11309700000.0 11309700000.0 11309700000.0 11309700000.0 11309700000.0 11309700000.0 11309700000.0 11309700000.0 11309700000.0 11309700000.0 11309700000.0 11309700000.0 11309700000.0 11309700000.0 11309700000.0 11309700000.0 11309700000.0 11309700000.0 11309700000.0 11309700000.0 11309700000.0 11309700000.0 11309700000.0 11309700000.0 11309700000.0 11309700000.0 11309700000.0 11309700000.0 11309700000.0 11309700000.0 11309700000.0 11309700000.0 11309700000.0 11309700000.0 11309700000.0 11309700000.0 11309700000.0 11309700000.0 11309700000.0 11309700000.0 11309700000.0 11309700000.0 11309700000.0 11309700000.0 11309700000.0 11309700000.0 11309700000.0 11309700000.0 11309700000.0 11309700000.0 11309700000.0 11309700000.0 11309700000.0 11309700000.0 11309700000.0 11309700000.0 11309700000.0 11309700000.0 11309700000.0 11309700000.0 11309700000.0 11309700000.0 11309700000.0 11309700000.0 11309700000.0 11309700000.0 11309700000.0 11309700000.0 11309700000.0 11309700000.0 11309700000.0 11309700000.0 11309700000.0 11309700000.0 11309700000.0 11309700000.0 11309700000.0 11309700000.0 11309700000.0 11309700000.0 11309700000.0 11309700000.0 11309700000.0 11309700000.0 11309700000.0 11309700000.0 11309700000.0 11309700000.0 11309700000.0 11309700000.0 11309700000.0 11309700000.0 11309700000.0 11309700000.0 11309700000.0 11309700000.0 11309700000.0 11309700000.0 11309700000.0 11309700000.0 11309700000.0 11309700000.0 11309700000.0 11309700000.0 11309700000.0 11309700000.0 11309700000.0 11309700000.0 11309700000.0 11309700000.0 11309700000.0 11309700000.0 11309700000.0 11309700000.0 11309700000.0 11309700000.0 11309700000.0 11309700000.0 11309700000.0 11309700000.0 11309700000.0 11309700000.0 11309700000.0 11309700000.0 11309700000.0 11309700000.0 11309700000.0 11309700000.0 11309700000.0 11309700000.0 11309700000.0 11309700000.0 11309700000.0 11309700000.0 11309700000.0 11309700000.0 11309700000.0 11309700000.0 11309700000.0 11309700000.0 11309700000.0 11309700000.0 11309700000.0 11309700000.0 11309700000.0 11309700000.0 11309700000.0 11309700000.0 11309700000.0 11309700000.0 11309700000.0 11309700000.0 11309700000.0 11309700000.0 11309700000.0 11309700000.0 11309700000.0 11309700000.0 11309700000.0 11309700000.0 11309700000.0 11309700000.0 11309700000.0 11309700000.0 11309700000.0 11309700000.0 11309700000.0 11309700000.0 11309700000.0 11309700000.0 11309700000.0 11309700000.0 11309700000.0 11309700000.0 11309700000.0 11309700000.0 11309700000.0 11309700000.0 11309700000.0 11309700000.0 11309700000.0 11309700000.0 11309700000.0 11309700000.0 11309700000.0 11309700000.0 11309700000.0 11309700000.0 11309700000.0 11309700000.0 11309700000.0 11309700000.0 11309700000.0 11309700000.0 11309700000.0 11309700000.0 11309700000.0 11309700000.0 11309700000.0 11309700000.0 11309700000.0 11309700000.0 11309700000.0 11309700000.0 11309700000.0 11309700000.0 11309700000.0 11309700000.0 11309700000.0 11309700000.0 11309700000.0 11309700000.0 11309700000.0 11309700000.0 11309700000.0 11309700000.0 11309700000.0 11309700000.0 11309700000.0 11309700000.0 11309700000.0 11309700000.0 11309700000.0 11309700000.0 11309700000.0 11309700000.0 11309700000.0 11309700000.0 11309700000.0 11309700000.0 11309700000.0 11309700000.0 11309700000.0 11309700000.0 11309700000.0 11309700000.0 11309700000.0 11309700000.0 11309700000.0 11309700000.0 11309700000.0 11309700000.0 11309700000.0 11309700000.0 11309700000.0 11309700000.0 11309700000.0 11309700000.0 11309700000.0 11309700000.0 11309700000.0 11309700000.0 11309700000.0 11309700000.0 11309700000.0 11309700000.0 11309700000.0 11309700000.0 11309700000.0 11309700000.0 11309700000.0 11309700000.0 11309700000.0 11309700000.0 11309700000.0 11309700000.0 11309700000.0 11309700000.0 11309700000.0 11309700000.0 11309700000.0 11309700000.0 11309700000.0 11309700000.0 11309700000.0 11309700000.0 11309700000.0 11309700000.0 11309700000.0 11309700000.0 11309700000.0 11309700000.0 11309700000.0 11309700000.0 11309700000.0 11309700000.0 11309700000.0 11309700000.0 11309700000.0 11309700000.0 11309700000.0 11309700000.0 11309700000.0 11309700000.0 11309700000.0 11309700000.0 11309700000.0 11309700000.0 11309700000.0 11309700000.0 11309700000.0 11309700000.0 11309700000.0 11309700000.0 11309700000.0 11309700000.0 11309700000.0 11309700000.0 11309700000.0 11309700000.0 11309700000.0 11309700000.0 11309700000.0 11309700000.0 11309700000.0 11309700000.0 11309700000.0 11309700000.0 11309700000.0 11309700000.0 11309700000.0 11309700000.0 11309700000.0 11309700000.0 11309700000.0 11309700000.0 11309700000.0 11309700000.0 11309700000.0 11309700000.0 11309700000.0 11309700000.0 11309700000.0 11309700000.0 11309700000.0 11309700000.0 11309700000.0 11309700000.0 11309700000.0 11309700000.0 11309700000.0 11309700000.0 11309700000.0 11309700000.0 11309700000.0 11309700000.0 11309700000.0 11309700000.0 11309700000.0 11309700000.0 11309700000.0 11309700000.0 11309700000.0 11309700000.0 11309700000.0 11309700000.0 11309700000.0 11309700000.0 11309700000.0 11309700000.0 11309700000.0 11309700000.0 11309700000.0 11309700000.0 11309700000.0 11309700000.0 11309700000.0 11309700000.0 11309700000.0 11309700000.0 11309700000.0 11309700000.0 11309700000.0 11309700000.0 11309700000.0 11309700000.0 11309700000.0 11309700000.0 11309700000.0 11309700000.0 11309700000.0 11309700000.0 11309700000.0 11309700000.0 11309700000.0 11309700000.0 11309700000.0 11309700000.0 11309700000.0 11309700000.0 11309700000.0 11309700000.0 11309700000.0 11309700000.0 11309700000.0 11309700000.0 11309700000.0 11309700000.0 11309700000.0 11309700000.0 11309700000.0 11309700000.0 11309700000.0 11309700000.0 11309700000.0 11309700000.0 11309700000.0 11309700000.0 11309700000.0 11309700000.0 11309700000.0 11309700000.0 11309700000.0 11309700000.0 11309700000.0 11309700000.0 11309700000.0 11309700000.0 11309700000.0 11309700000.0 11309700000.0 11309700000.0 11309700000.0 11309700000.0 11309700000.0 11309700000.0 11309700000.0 11309700000.0 11309700000.0 11309700000.0 11309700000.0 11309700000.0 11309700000.0 11309700000.0 11309700000.0 11309700000.0 11309700000.0 11309700000.0 11309700000.0 11309700000.0 11309700000.0 11309700000.0 11309700000.0 11309700000.0 11309700000.0 11309700000.0 11309700000.0 11309700000.0 11309700000.0 11309700000.0 11309700000.0 11309700000.0 11309700000.0 11309700000.0 11309700000.0 11309700000.0 11309700000.0 11309700000.0 11309700000.0 11309700000.0 11309700000.0 11309700000.0 11309700000.0 11309700000.0 11309700000.0 11309700000.0 11309700000.0 11309700000.0 11309700000.0 11309700000.0 11309700000.0 11309700000.0 11309700000.0 11309700000.0 11309700000.0 11309700000.0 11309700000.0 11309700000.0 11309700000.0 11309700000.0 11309700000.0 11309700000.0 11309700000.0 11309700000.0 11309700000.0 11309700000.0 11309700000.0 11309700000.0 11309700000.0 11309700000.0 11309700000.0 11309700000.0 11309700000.0 11309700000.0 11309700000.0 11309700000.0 11309700000.0 11309700000.0 11309700000.0 11309700000.0 11309700000.0 11309700000.0 11309700000.0 11309700000.0 11309700000.0 11309700000.0 11309700000.0 11309700000.0 11309700000.0 11309700000.0 11309700000.0 11309700000.0 11309700000.0 11309700000.0 11309700000.0 11309700000.0 11309700000.0 11309700000.0 11309700000.0 11309700000.0 11309700000.0 11309700000.0 11309700000.0 11309700000.0 11309700000.0 11309700000.0 11309700000.0 11309700000.0 11309700000.0 11309700000.0 11309700000.0 11309700000.0 11309700000.0 11309700000.0 11309700000.0 11309700000.0 11309700000.0 11309700000.0 11309700000.0 11309700000.0 11309700000.0 11309700000.0 11309700000.0 11309700000.0 11309700000.0 11309700000.0 11309700000.0 11309700000.0 11309700000.0 11309700000.0 11309700000.0 11309700000.0 11309700000.0 11309700000.0 11309700000.0 11309700000.0 11309700000.0 11309700000.0 11309700000.0 11309700000.0 11309700000.0 11309700000.0 11309700000.0 11309700000.0 11309700000.0 11309700000.0 11309700000.0 11309700000.0 11309700000.0 11309700000.0 11309700000.0 11309700000.0 11309700000.0 11309700000.0 11309700000.0 11309700000.0 11309700000.0 11309700000.0 11309700000.0 11309700000.0 11309700000.0 11309700000.0 11309700000.0 11309700000.0 11309700000.0 11309700000.0 11309700000.0 11309700000.0 11309700000.0 11309700000.0 11309700000.0 11309700000.0 11309700000.0 11309700000.0 11309700000.0 11309700000.0 11309700000.0 11309700000.0 11309700000.0 11309700000.0 11309700000.0 11309700000.0 11309700000.0 11309700000.0 11309700000.0 11309700000.0 11309700000.0 11309700000.0 11309700000.0 11309700000.0 11309700000.0 11309700000.0 11309700000.0 11309700000.0 11309700000.0 11309700000.0 11309700000.0 11309700000.0 11309700000.0 11309700000.0 11309700000.0 11309700000.0 11309700000.0 11309700000.0 11309700000.0 11309700000.0 11309700000.0 11309700000.0 11309700000.0 11309700000.0 11309700000.0 11309700000.0 11309700000.0 11309700000.0 11309700000.0 11309700000.0 11309700000.0 11309700000.0 11309700000.0 11309700000.0 11309700000.0 11309700000.0 11309700000.0 11309700000.0 11309700000.0 11309700000.0 11309700000.0 11309700000.0 11309700000.0 11309700000.0 11309700000.0 11309700000.0 11309700000.0 11309700000.0 11309700000.0 11309700000.0 11309700000.0 11309700000.0 11309700000.0 11309700000.0 11309700000.0 11309700000.0 11309700000.0 11309700000.0 11309700000.0 11309700000.0 11309700000.0 11309700000.0 11309700000.0 11309700000.0 11309700000.0 11309700000.0 11309700000.0 11309700000.0 11309700000.0 11309700000.0 11309700000.0 11309700000.0 11309700000.0 11309700000.0 11309700000.0 11309700000.0 11309700000.0 11309700000.0 11309700000.0 11309700000.0 11309700000.0 11309700000.0 11309700000.0 11309700000.0 11309700000.0 11309700000.0 11309700000.0 11309700000.0 11309700000.0 11309700000.0 11309700000.0 11309700000.0 11309700000.0 11309700000.0 11309700000.0 11309700000.0 11309700000.0 11309700000.0 11309700000.0 11309700000.0 11309700000.0 11309700000.0 11309700000.0 11309700000.0 11309700000.0 11309700000.0 11309700000.0 11309700000.0 11309700000.0 11309700000.0 11309700000.0 11309700000.0 11309700000.0 11309700000.0 11309700000.0 11309700000.0 11309700000.0 11309700000.0 11309700000.0 11309700000.0 11309700000.0 11309700000.0 11309700000.0 11309700000.0 11309700000.0 11309700000.0 11309700000.0 11309700000.0 11309700000.0 11309700000.0 11309700000.0 11309700000.0 11309700000.0 11309700000.0 11309700000.0 11309700000.0 11309700000.0 11309700000.0 11309700000.0 11309700000.0 11309700000.0 11309700000.0 11309700000.0 11309700000.0 11309700000.0 11309700000.0 11309700000.0 11309700000.0 11309700000.0 11309700000.0 11309700000.0 11309700000.0 11309700000.0 11309700000.0 11309700000.0 11309700000.0 11309700000.0 11309700000.0 11309700000.0 11309700000.0 11309700000.0 11309700000.0 11309700000.0 11309700000.0 11309700000.0 11309700000.0 11309700000.0 11309700000.0 11309700000.0 11309700000.0 11309700000.0 11309700000.0 11309700000.0 11309700000.0 11309700000.0 11309700000.0 11309700000.0 11309700000.0 11309700000.0 11309700000.0 11309700000.0 11309700000.0 11309700000.0 11309700000.0 11309700000.0 11309700000.0 11309700000.0 11309700000.0 11309700000.0 11309700000.0 11309700000.0 11309700000.0 11309700000.0 11309700000.0 11309700000.0 11309700000.0 11309700000.0 11309700000.0 11309700000.0 11309700000.0 11309700000.0 11309700000.0 11309700000.0 11309700000.0 11309700000.0 11309700000.0 11309700000.0 11309700000.0 11309700000.0 11309700000.0 11309700000.0 11309700000.0 11309700000.0 11309700000.0 11309700000.0 11309700000.0 11309700000.0 11309700000.0 11309700000.0 11309700000.0 11309700000.0 11309700000.0 11309700000.0 11309700000.0 11309700000.0 11309700000.0 11309700000.0 11309700000.0 11309700000.0 11309700000.0 11309700000.0 11309700000.0 11309700000.0 11309700000.0 11309700000.0 11309700000.0 11309700000.0 11309700000.0 11309700000.0 11309700000.0 11309700000.0 11309700000.0 11309700000.0 11309700000.0 11309700000.0 11309700000.0 11309700000.0 11309700000.0 11309700000.0 11309700000.0 11309700000.0 11309700000.0 11309700000.0 11309700000.0 11309700000.0 11309700000.0 11309700000.0 11309700000.0 11309700000.0 11309700000.0 11309700000.0 11309700000.0 11309700000.0 11309700000.0 11309700000.0 11309700000.0 11309700000.0 11309700000.0 11309700000.0 11309700000.0 11309700000.0 11309700000.0 11309700000.0 11309700000.0 11309700000.0 11309700000.0 11309700000.0 11309700000.0 11309700000.0 11309700000.0 11309700000.0 11309700000.0 11309700000.0 11309700000.0 11309700000.0 11309700000.0 11309700000.0 11309700000.0 11309700000.0 11309700000.0 11309700000.0 11309700000.0 11309700000.0 11309700000.0 11309700000.0 11309700000.0 11309700000.0 11309700000.0 11309700000.0 11309700000.0 11309700000.0 11309700000.0 11309700000.0 11309700000.0 11309700000.0 11309700000.0 11309700000.0 11309700000.0 11309700000.0 11309700000.0 11309700000.0 11309700000.0 11309700000.0 11309700000.0 11309700000.0 11309700000.0 11309700000.0 11309700000.0 11309700000.0 11309700000.0 11309700000.0 11309700000.0 11309700000.0 11309700000.0 11309700000.0 11309700000.0 11309700000.0 11309700000.0 11309700000.0 11309700000.0 11309700000.0 11309700000.0 11309700000.0 11309700000.0 11309700000.0 11309700000.0 11309700000.0 11309700000.0 11309700000.0 11309700000.0 11309700000.0 11309700000.0 11309700000.0 11309700000.0 11309700000.0 11309700000.0 11309700000.0 11309700000.0 11309700000.0 11309700000.0 11309700000.0 11309700000.0 11309700000.0 11309700000.0 11309700000.0 11309700000.0 11309700000.0 11309700000.0 11309700000.0 11309700000.0 11309700000.0 11309700000.0 11309700000.0 11309700000.0 11309700000.0 11309700000.0 11309700000.0 11309700000.0 11309700000.0 11309700000.0 11309700000.0 11309700000.0 11309700000.0 11309700000.0 11309700000.0 11309700000.0 11309700000.0 11309700000.0 11309700000.0 11309700000.0 11309700000.0 11309700000.0 11309700000.0 11309700000.0 11309700000.0 11309700000.0 11309700000.0 11309700000.0 11309700000.0 11309700000.0 11309700000.0 11309700000.0 11309700000.0 11309700000.0 11309700000.0 11309700000.0 11309700000.0 11309700000.0 11309700000.0 11309700000.0 11309700000.0 11309700000.0 11309700000.0 11309700000.0 11309700000.0 11309700000.0 11309700000.0 11309700000.0 11309700000.0 11309700000.0 11309700000.0 11309700000.0 11309700000.0 11309700000.0 11309700000.0 11309700000.0 11309700000.0 11309700000.0 11309700000.0 11309700000.0 11309700000.0 11309700000.0 11309700000.0 11309700000.0 11309700000.0 11309700000.0 11309700000.0 11309700000.0 11309700000.0 11309700000.0 11309700000.0 11309700000.0 11309700000.0 11309700000.0 11309700000.0 11309700000.0 11309700000.0 11309700000.0 11309700000.0 11309700000.0 11309700000.0 11309700000.0 11309700000.0 11309700000.0 11309700000.0 11309700000.0 11309700000.0 11309700000.0 11309700000.0 11309700000.0 11309700000.0 11309700000.0 11309700000.0 11309700000.0 11309700000.0 11309700000.0 11309700000.0 11309700000.0 11309700000.0 11309700000.0 11309700000.0 11309700000.0 11309700000.0 11309700000.0 11309700000.0 11309700000.0 11309700000.0 11309700000.0 11309700000.0 
SCALARS Velocity float 1
LOOKUP_TABLE default
0.601301 1.16851 1.16851 0.601301 1.00573 0.849017 1.01484 1.31232 1.20776 1.122 0.99011 1.11289 0.871731 1.07831 0.886545 0.920683 0.89303 0.896228 0.893898 0.894544 0.893803 0.894795 0.893653 0.894987 0.893593 0.894987 0.893653 0.894795 0.893803 0.894544 0.893898 0.896228 0.89303 0.920683 0.886545 1.07831 0.871731 1.11289 0.99011 1.122 1.20776 1.31232 1.01484 0.849017 1.00573 1.0544 1.01519 0.882926 1.19486 1.02863 1.15443 1.01681 1.01681 1.15443 1.02863 1.19486 0.882926 1.01519 1.0544 0.344378 0.933459 0.826041 1.0616 1.07315 1.00208 0.999456 1.01735 1.12608 0.768539 1.0899 0.872517 0.922043 0.892091 0.896306 0.893822 0.894491 0.893771 0.894808 0.893661 0.895026 0.893588 0.895026 0.893661 0.894808 0.893771 0.894491 0.893822 0.896306 0.892091 0.922043 0.872517 1.0899 0.768539 1.12608 1.01735 0.999456 1.00208 1.07315 1.0616 0.826041 0.933459 0.344378 0.425957 1.3969 1.17345 0.81914 0.957336 1.00788 0.955952 0.919342 1.00032 1.12679 0.706009 1.09926 0.859369 0.924612 0.89035 0.896379 0.893545 0.894285 0.893447 0.894769 0.893299 0.895095 0.893316 0.895095 0.893299 0.894769 0.893447 0.894285 0.893545 0.896379 0.89035 0.924612 0.859369 1.09926 0.706009 1.12679 1.00032 0.919342 0.955952 1.00788 0.957336 0.81914 1.17345 1.3969 0.425957 0.460581 0.427185 0.396598 1.27493 0.996587 0.926313 0.900564 0.869238 1.02332 1.02332 0.869238 0.900564 0.926313 0.996587 1.27493 0.396598 0.427185 0.460581 0.487122 0.454667 0.341918 1.09873 0.959073 0.86275 0.914345 0.857127 0.884376 0.881143 0.923563 1.2076 0.848095 1.13386 0.803891 0.936008 0.887148 0.8975 0.8929 0.894247 0.89284 0.89482 0.892784 0.895195 0.892894 0.895195 0.892784 0.89482 0.89284 0.894247 0.8929 0.8975 0.887148 0.936008 0.803891 1.13386 0.848095 1.2076 0.923563 0.881143 0.884376 0.857127 0.914345 0.86275 0.959073 1.09873 0.341918 0.454667 0.487122 0.588402 0.529524 0.495106 0.384468 1.16038 1.01856 0.996884 0.935838 0.887545 0.871337 0.853882 0.926443 1.0825 1.0825 0.926443 0.853882 0.871337 0.887545 0.935838 0.996884 1.01856 1.16038 0.384468 0.495106 0.529524 0.588402 0.656706 0.55531 0.445378 0.402614 0.327128 1.06844 0.943293 0.8717 0.897596 0.871465 0.900943 0.895785 0.880854 0.994975 1.11673 0.813324 0.935478 0.884629 0.89826 0.892961 0.894983 0.893001 0.894983 0.892284 0.895305 0.892252 0.895305 0.892284 0.894983 0.893001 0.894983 0.892961 0.89826 0.884629 0.935478 0.813324 1.11673 0.994975 0.880854 0.895785 0.900943 0.871465 0.897596 0.8717 0.943293 1.06844 0.327128 0.402614 0.445378 0.55531 0.656706 0.733185 0.622683 0.601792 0.523771 0.487026 0.433138 0.9382 0.925477 0.921002 0.917637 0.978435 0.89754 0.749644 0.759663 0.755122 1.1141 0.750457 0.942449 0.879436 0.899099 0.892157 0.894675 0.892463 0.894929 0.892058 0.895407 0.892124 0.895407 0.892058 0.894929 0.892463 0.894675 0.892157 0.899099 0.879436 0.942449 0.750457 1.1141 0.755122 0.759663 0.749644 0.89754 0.978435 0.917637 0.921002 0.925477 0.9382 0.433138 0.487026 0.523771 0.601792 0.622683 0.733185 0.821463 0.78047 0.698091 0.683711 0.578463 0.503202 0.61818 0.949571 0.900739 0.915715 0.925444 0.937626 0.95176 0.977563 0.995099 0.853686 0.78354 0.78354 0.853686 0.995099 0.977563 0.95176 0.937626 0.925444 0.915715 0.900739 0.949571 0.61818 0.503202 0.578463 0.683711 0.698091 0.78047 0.821463 0.293686 0.938507 0.891724 0.767279 0.69021 0.721478 0.531313 0.668985 0.85893 0.928524 0.970256 0.959151 0.950388 0.965969 0.845044 0.864145 0.845894 1.06542 0.734974 0.948816 0.876675 0.90008 0.891974 0.895122 0.892407 0.895252 0.891895 0.8955 0.892187 0.8955 0.891895 0.895252 0.892407 0.895122 0.891974 0.90008 0.876675 0.948816 0.734974 1.06542 0.845894 0.864145 0.845044 0.965969 0.950388 0.959151 0.970256 0.928524 0.85893 0.668985 0.531313 0.721478 0.69021 0.767279 0.891724 0.938507 0.293686 0.185839 0.963438 0.866969 0.82944 0.762064 0.809022 0.685963 0.775369 0.900905 0.972279 0.96651 0.918845 0.973268 0.839308 0.854951 0.846115 0.909002 1.02538 0.700703 0.957448 0.873144 0.901112 0.891934 0.894822 0.892416 0.895459 0.891771 0.895579 0.892278 0.895579 0.891771 0.895459 0.892416 0.894822 0.891934 0.901112 0.873144 0.957448 0.700703 1.02538 0.909002 0.846115 0.854951 0.839308 0.973268 0.918845 0.96651 0.972279 0.900905 0.775369 0.685963 0.809022 0.762064 0.82944 0.866969 0.963438 0.185839 0.13351 0.187645 0.827214 0.811031 0.707729 0.75942 0.757016 0.87265 0.841086 0.758754 0.832061 0.930357 0.972561 0.929695 0.84344 0.840347 0.856124 0.854749 0.868137 0.868137 0.854749 0.856124 0.840347 0.84344 0.929695 0.972561 0.930357 0.832061 0.758754 0.841086 0.87265 0.757016 0.75942 0.707729 0.811031 0.827214 0.187645 0.13351 0.13997 0.149546 0.0989619 0.186596 0.695507 0.636514 0.764166 0.0411363 1.07857 0.897056 1.03889 1.03984 0.584096 0.854789 0.869307 0.845867 0.857525 0.879736 0.902579 0.664336 0.969862 0.862546 0.903282 0.891487 0.895177 0.892436 0.895798 0.892083 0.895644 0.892332 0.895644 0.892083 0.895798 0.892436 0.895177 0.891487 0.903282 0.862546 0.969862 0.664336 0.902579 0.879736 0.857525 0.845867 0.869307 0.854789 0.584096 1.03984 1.03889 0.897056 1.07857 0.0411363 0.764166 0.636514 0.695507 0.186596 0.0989619 0.149546 0.13997 0.548561 0.516906 0.31784 0.190369 0.777932 0.655252 0.601819 0.539808 0.614544 0.642406 0.607464 0.833147 1.04804 0.923102 0.862942 0.862558 0.861514 0.865295 0.865941 0.674729 0.977296 0.856572 0.904645 0.890995 0.896268 0.892412 0.895857 0.892084 0.895683 0.892393 0.895683 0.892084 0.895857 0.892412 0.896268 0.890995 0.904645 0.856572 0.977296 0.674729 0.865941 0.865295 0.861514 0.862558 0.862942 0.923102 1.04804 0.833147 0.607464 0.642406 0.614544 0.539808 0.601819 0.655252 0.777932 0.190369 0.31784 0.516906 0.548561 0.44033 0.5628 0.23893 0.247603 0.774706 0.56083 0.581268 0.815405 0.547017 0.75509 0.642992 0.994502 0.621356 1.00914 0.573094 0.724236 0.858021 0.844912 0.870078 0.848345 0.848345 0.870078 0.844912 0.858021 0.724236 0.573094 1.00914 0.621356 0.994502 0.642992 0.75509 0.547017 0.815405 0.581268 0.56083 0.774706 0.247603 0.23893 0.5628 0.44033 0.46436 0.544082 0.544067 0.31267 0.274397 0.252839 0.312716 0.651359 0.486347 0.717772 0.629896 0.619387 0.609225 0.498209 0.580219 0.698017 0.613966 0.737888 0.943331 0.823148 0.867474 0.856082 0.832308 0.852682 0.847123 0.856581 0.690549 0.980804 0.863866 0.90444 0.890058 0.896167 0.89293 0.89586 0.892266 0.895766 0.892484 0.895766 0.892266 0.89586 0.89293 0.896167 0.890058 0.90444 0.863866 0.980804 0.690549 0.856581 0.847123 0.852682 0.832308 0.856082 0.867474 0.823148 0.943331 0.737888 0.613966 0.698017 0.580219 0.498209 0.609225 0.619387 0.629896 0.717772 0.486347 0.651359 0.312716 0.252839 0.274397 0.31267 0.544067 0.544082 0.46436 0.808319 0.70273 0.512606 0.543325 0.438426 0.294182 0.787856 0.613941 0.547173 0.574785 0.549019 0.543398 0.618987 0.831505 0.809406 0.851384 0.828763 0.855859 0.710478 0.981628 0.864398 0.904713 0.889264 0.896566 0.893081 0.896125 0.892593 0.896252 0.892607 0.896252 0.892593 0.896125 0.893081 0.896566 0.889264 0.904713 0.864398 0.981628 0.710478 0.855859 0.828763 0.851384 0.809406 0.831505 0.618987 0.543398 0.549019 0.574785 0.547173 0.613941 0.787856 0.294182 0.438426 0.543325 0.512606 0.70273 0.808319 0.534198 0.572595 0.381143 0.301995 0.28941 0.77067 0.517257 0.607826 0.680126 0.655227 0.62513 0.585884 0.588707 0.636539 0.654117 0.701774 0.689414 0.845181 0.860038 0.846253 0.846253 0.860038 0.845181 0.689414 0.701774 0.654117 0.636539 0.588707 0.585884 0.62513 0.655227 0.680126 0.607826 0.517257 0.77067 0.28941 0.301995 0.381143 0.572595 0.534198 0.694635 0.686138 0.564849 0.579892 0.415936 0.330685 0.321219 0.348894 0.156006 0.733378 0.616492 0.601669 0.678115 0.645374 0.630766 0.606513 0.57684 0.567862 0.683504 0.71799 0.66891 0.954024 0.869787 0.870128 0.837367 0.860346 0.81539 0.807048 0.776675 0.745785 0.973254 0.866218 0.906177 0.88875 0.895984 0.892079 0.89483 0.89242 0.894712 0.892772 0.894712 0.89242 0.89483 0.892079 0.895984 0.88875 0.906177 0.866218 0.973254 0.745785 0.776675 0.807048 0.81539 0.860346 0.837367 0.870128 0.869787 0.954024 0.66891 0.71799 0.683504 0.567862 0.57684 0.606513 0.630766 0.645374 0.678115 0.601669 0.616492 0.733378 0.156006 0.348894 0.321219 0.330685 0.415936 0.579892 0.564849 0.686138 0.694635 0.614522 0.5794 0.262334 0.783962 0.674487 0.66999 0.654358 0.638222 0.624499 0.606885 0.589087 0.591762 0.651361 0.679404 0.889055 0.846682 0.830752 0.786656 0.899047 0.781643 0.913817 0.872515 0.893832 0.890819 0.893832 0.892335 0.893832 0.892416 0.894006 0.89294 0.894006 0.892416 0.893832 0.892335 0.893832 0.890819 0.893832 0.872515 0.913817 0.781643 0.899047 0.786656 0.830752 0.846682 0.889055 0.679404 0.651361 0.591762 0.589087 0.606885 0.624499 0.638222 0.654358 0.66999 0.674487 0.783962 0.262334 0.5794 0.614522 0.477667 0.591199 0.444137 0.272957 0.617684 0.682199 0.624262 0.607152 0.595648 0.667656 0.692611 0.626974 0.800182 0.868826 0.852228 0.852228 0.868826 0.800182 0.626974 0.692611 0.667656 0.595648 0.607152 0.624262 0.682199 0.617684 0.272957 0.444137 0.591199 0.477667 0.556384 0.38237 0.47675 0.504706 0.517592 0.31023 0.645349 0.506858 0.666443 0.701567 0.648368 0.638374 0.637874 0.567998 0.560351 0.595682 0.685713 0.674536 0.821624 0.882676 0.862025 0.865252 0.876389 0.845347 0.754085 0.860074 0.769614 0.917641 0.877681 0.895998 0.893825 0.893952 0.893894 0.893971 0.892679 0.894086 0.893076 0.894086 0.892679 0.893971 0.893894 0.893952 0.893825 0.895998 0.877681 0.917641 0.769614 0.860074 0.754085 0.845347 0.876389 0.865252 0.862025 0.882676 0.821624 0.674536 0.685713 0.595682 0.560351 0.567998 0.637874 0.638374 0.648368 0.701567 0.666443 0.506858 0.645349 0.31023 0.517592 0.504706 0.47675 0.38237 0.556384 0.365686 0.765293 0.384218 0.638678 0.561409 0.634588 0.680573 0.667507 0.63476 0.636807 0.636002 0.624147 0.605705 0.80764 0.879142 0.881263 0.866912 0.745972 0.940341 0.80252 0.893832 0.893832 0.893832 0.893832 0.893832 0.893832 0.893832 0.893832 0.893832 0.893211 0.893832 0.893832 0.893832 0.893832 0.893832 0.893832 0.893832 0.893832 0.893832 0.80252 0.940341 0.745972 0.866912 0.881263 0.879142 0.80764 0.605705 0.624147 0.636002 0.636807 0.63476 0.667507 0.680573 0.634588 0.561409 0.638678 0.384218 0.765293 0.365686 0.603281 0.714619 0.755578 0.575717 0.708776 0.650222 0.614773 0.645184 0.652439 0.633335 0.640559 0.645196 0.615758 0.588654 0.560481 0.595819 0.710704 0.704116 0.855557 0.807787 0.807787 0.855557 0.704116 0.710704 0.595819 0.560481 0.588654 0.615758 0.645196 0.640559 0.633335 0.652439 0.645184 0.614773 0.650222 0.708776 0.575717 0.755578 0.714619 0.603281 0.67113 0.403876 0.504953 0.77717 0.662189 0.772724 0.650062 0.660352 0.710816 0.72089 0.734269 0.717154 0.698822 0.746754 0.750101 0.846368 0.869777 0.786569 0.874257 0.816193 0.869254 0.742004 0.959699 0.827492 0.905291 0.892917 0.894226 0.894 0.893962 0.893924 0.893903 0.89383 0.894052 0.893318 0.894052 0.89383 0.893903 0.893924 0.893962 0.894 0.894226 0.892917 0.905291 0.827492 0.959699 0.742004 0.869254 0.816193 0.874257 0.786569 0.869777 0.846368 0.750101 0.746754 0.698822 0.717154 0.734269 0.72089 0.710816 0.660352 0.650062 0.772724 0.662189 0.77717 0.504953 0.403876 0.67113 0.400029 0.709838 0.621683 0.647761 0.652894 0.688076 0.862656 0.862656 0.688076 0.652894 0.647761 0.621683 0.709838 0.400029 0.517733 0.961896 0.542541 0.60086 0.778505 0.712006 0.809094 0.627334 0.643485 0.66074 0.67078 0.667113 0.705715 0.733225 0.729765 0.756617 0.80179 0.827222 0.909085 0.783332 1.04982 0.82068 0.964506 0.753355 0.905273 0.842374 0.893832 0.893832 0.893832 0.893832 0.893832 0.893832 0.893832 0.893832 0.893832 0.893421 0.893832 0.893832 0.893832 0.893832 0.893832 0.893832 0.893832 0.893832 0.893832 0.842374 0.905273 0.753355 0.964506 0.82068 1.04982 0.783332 0.909085 0.827222 0.80179 0.756617 0.729765 0.733225 0.705715 0.667113 0.67078 0.66074 0.643485 0.627334 0.809094 0.712006 0.778505 0.60086 0.542541 0.961896 0.517733 0.724723 0.736327 0.648902 0.621319 0.836596 0.799467 0.781547 0.581405 0.558541 0.564645 0.574935 0.563343 0.577525 0.60941 0.643514 0.654401 0.581316 0.726435 0.782915 0.773163 0.879235 0.774532 1.04509 0.820878 0.970022 0.777331 0.919498 0.890263 0.896126 0.895203 0.894939 0.894674 0.894434 0.894221 0.894051 0.893928 0.89391 0.893503 0.89391 0.893928 0.894051 0.894221 0.894434 0.894674 0.894939 0.895203 0.896126 0.890263 0.919498 0.777331 0.970022 0.820878 1.04509 0.774532 0.879235 0.773163 0.782915 0.726435 0.581316 0.654401 0.643514 0.60941 0.577525 0.563343 0.574935 0.564645 0.558541 0.581405 0.781547 0.799467 0.836596 0.621319 0.648902 0.736327 0.724723 0.794286 0.799175 0.861199 0.700283 0.871189 0.845688 0.627251 0.688389 0.655607 0.549612 0.560675 0.561383 0.560907 0.594873 0.618535 0.675615 0.663337 0.792187 0.904118 0.831345 0.904553 0.836133 0.903522 0.854094 0.90005 0.810329 0.894588 0.893832 0.893832 0.893832 0.893832 0.893832 0.893832 0.893832 0.893832 0.893832 0.893832 0.893573 0.893832 0.893832 0.893832 0.893832 0.893832 0.893832 0.893832 0.893832 0.893832 0.893832 0.894588 0.810329 0.90005 0.854094 0.903522 0.836133 0.904553 0.831345 0.904118 0.792187 0.663337 0.675615 0.618535 0.594873 0.560907 0.561383 0.560675 0.549612 0.655607 0.688389 0.627251 0.845688 0.871189 0.700283 0.861199 0.799175 0.794286 0.860419 0.855905 0.894489 0.776686 0.896321 0.894813 0.646247 0.744493 0.8485 0.752802 0.749034 0.759145 0.744775 0.783133 0.794952 0.844845 0.839659 0.896924 0.984117 0.88714 0.953467 0.87193 0.931758 0.87137 0.912218 0.835421 0.899265 0.894788 0.894543 0.894292 0.894123 0.894012 0.893939 0.893892 0.893863 0.893845 0.893839 0.893629 0.893839 0.893845 0.893863 0.893892 0.893939 0.894012 0.894123 0.894292 0.894543 0.894788 0.899265 0.835421 0.912218 0.87137 0.931758 0.87193 0.953467 0.88714 0.984117 0.896924 0.839659 0.844845 0.794952 0.783133 0.744775 0.759145 0.749034 0.752802 0.8485 0.744493 0.646247 0.894813 0.896321 0.776686 0.894489 0.855905 0.860419 0.889793 0.882444 0.906647 0.888719 0.907313 0.89991 0.72953 0.9187 0.905165 0.74421 0.839637 0.899513 0.905423 0.890559 0.882956 0.861196 0.868123 0.896878 0.895775 0.884769 0.895372 0.871344 0.894816 0.868704 0.894212 0.850059 0.893885 0.893832 0.893832 0.893832 0.893832 0.893832 0.893832 0.893832 0.893832 0.893832 0.893832 0.893673 0.893832 0.893832 0.893832 0.893832 0.893832 0.893832 0.893832 0.893832 0.893832 0.893832 0.893885 0.850059 0.894212 0.868704 0.894816 0.871344 0.895372 0.884769 0.895775 0.896878 0.868123 0.861196 0.882956 0.890559 0.905423 0.899513 0.839637 0.74421 0.905165 0.9187 0.72953 0.89991 0.907313 0.888719 0.906647 0.882444 0.889793 0.89291 0.88211 0.897934 0.904285 0.907514 0.901067 0.881051 0.931775 0.899712 0.869723 0.918425 0.916875 0.910257 0.886974 0.877356 0.871366 0.892561 0.898285 0.897329 0.883652 0.896214 0.873014 0.895209 0.868018 0.894345 0.86153 0.893917 0.893838 0.893835 0.893834 0.893833 0.893833 0.893832 0.893832 0.893832 0.893832 0.893832 0.893708 0.893832 0.893832 0.893832 0.893832 0.893832 0.893833 0.893833 0.893834 0.893835 0.893838 0.893917 0.86153 0.894345 0.868018 0.895209 0.873014 0.896214 0.883652 0.897329 0.898285 0.892561 0.871366 0.877356 0.886974 0.910257 0.916875 0.918425 0.869723 0.899712 0.931775 0.881051 0.901067 0.907514 0.904285 0.897934 0.88211 0.89291 0.89596 0.883942 0.893484 0.90275 0.90606 0.900612 0.902126 0.923402 0.888083 0.90114 0.910936 0.911536 0.900356 0.881645 0.869268 0.881873 0.895142 0.897507 0.893868 0.88259 0.893832 0.874902 0.893832 0.868806 0.893832 0.869452 0.893832 0.893832 0.893832 0.893832 0.893832 0.893832 0.893832 0.893832 0.893832 0.893832 0.893832 0.893735 0.893832 0.893832 0.893832 0.893832 0.893832 0.893832 0.893832 0.893832 0.893832 0.893832 0.893832 0.869452 0.893832 0.868806 0.893832 0.874902 0.893832 0.88259 0.893868 0.897507 0.895142 0.881873 0.869268 0.881645 0.900356 0.911536 0.910936 0.90114 0.888083 0.923402 0.902126 0.900612 0.90606 0.90275 0.893484 0.883942 0.89596 0.896713 0.886344 0.890629 0.898784 0.903948 0.900043 0.902314 0.913441 0.877451 0.895547 0.899255 0.902727 0.891051 0.87827 0.866566 0.889965 0.891987 0.896713 0.893871 0.882297 0.893832 0.876978 0.893832 0.87071 0.893832 0.87519 0.893832 0.893832 0.893832 0.893832 0.893832 0.893832 0.893832 0.893832 0.893832 0.893832 0.893832 0.893757 0.893832 0.893832 0.893832 0.893832 0.893832 0.893832 0.893832 0.893832 0.893832 0.893832 0.893832 0.87519 0.893832 0.87071 0.893832 0.876978 0.893832 0.882297 0.893871 0.896713 0.891987 0.889965 0.866566 0.87827 0.891051 0.902727 0.899255 0.895547 0.877451 0.913441 0.902314 0.900043 0.903948 0.898784 0.890629 0.886344 0.896713 0.896172 0.888518 0.889117 0.895433 0.901747 0.899511 0.901801 0.907707 0.869246 0.887269 0.890125 0.894077 0.884034 0.876756 0.867988 0.892511 0.889767 0.895685 0.893832 0.882389 0.893832 0.878908 0.893832 0.873036 0.893832 0.879457 0.893832 0.893832 0.893832 0.893832 0.893832 0.893832 0.893832 0.893832 0.893832 0.893832 0.893832 0.893773 0.893832 0.893832 0.893832 0.893832 0.893832 0.893832 0.893832 0.893832 0.893832 0.893832 0.893832 0.879457 0.893832 0.873036 0.893832 0.878908 0.893832 0.882389 0.893832 0.895685 0.889767 0.892511 0.867988 0.876756 0.884034 0.894077 0.890125 0.887269 0.869246 0.907707 0.901801 0.899511 0.901747 0.895433 0.889117 0.888518 0.896172 0.89512 0.890185 0.888752 0.893148 0.899477 0.898957 0.901152 0.904165 0.863897 0.880757 0.883434 0.88728 0.879393 0.876647 0.871068 0.891733 0.889295 0.894597 0.893832 0.882838 0.893832 0.880611 0.893832 0.875455 0.893832 0.882688 0.893832 0.893832 0.893832 0.893832 0.893832 0.893832 0.893832 0.893832 0.893832 0.893832 0.893832 0.893786 0.893832 0.893832 0.893832 0.893832 0.893832 0.893832 0.893832 0.893832 0.893832 0.893832 0.893832 0.882688 0.893832 0.875455 0.893832 0.880611 0.893832 0.882838 0.893832 0.894597 0.889295 0.891733 0.871068 0.876647 0.879393 0.88728 0.883434 0.880757 0.863897 0.904165 0.901152 0.898957 0.899477 0.893148 0.888752 0.890185 0.89512 0.894047 0.891438 0.889145 0.89178 0.8973 0.898372 0.900412 0.900508 0.861155 0.87636 0.878885 0.882676 0.876828 0.877538 0.874546 0.890388 0.889793 0.893533 0.893832 0.883532 0.893832 0.88208 0.893832 0.877807 0.893832 0.885181 0.893832 0.893832 0.893832 0.893832 0.893832 0.893832 0.893832 0.893832 0.893832 0.893832 0.893832 0.893796 0.893832 0.893832 0.893832 0.893832 0.893832 0.893832 0.893832 0.893832 0.893832 0.893832 0.893832 0.885181 0.893832 0.877807 0.893832 0.88208 0.893832 0.883532 0.893832 0.893533 0.889793 0.890388 0.874546 0.877538 0.876828 0.882676 0.878885 0.87636 0.861155 0.900508 0.900412 0.898372 0.8973 0.89178 0.889145 0.891438 0.894047 0.893165 0.892395 0.889895 0.89108 0.895465 0.89777 0.899601 0.896617 0.860499 0.873916 0.876223 0.880051 0.875921 0.879025 0.8779 0.889577 0.890679 0.892559 0.893832 0.884354 0.893832 0.883351 0.893832 0.879989 0.893832 0.88713 0.893832 0.893832 0.893832 0.893832 0.893832 0.893832 0.893832 0.893832 0.893832 0.893832 0.893832 0.893804 0.893832 0.893832 0.893832 0.893832 0.893832 0.893832 0.893832 0.893832 0.893832 0.893832 0.893832 0.88713 0.893832 0.879989 0.893832 0.883351 0.893832 0.884354 0.893832 0.892559 0.890679 0.889577 0.8779 0.879025 0.875921 0.880051 0.876223 0.873916 0.860499 0.896617 0.899601 0.89777 0.895465 0.89108 0.889895 0.892395 0.893165 0.892526 0.893139 0.890682 0.890799 0.894064 0.897165 0.898747 0.893047 0.861366 0.873063 0.875109 0.879021 0.876256 0.880794 0.8809 0.889374 0.891606 0.891732 0.893832 0.885246 0.893832 0.884465 0.893832 0.881951 0.893832 0.88866 0.893832 0.893832 0.893832 0.893832 0.893832 0.893832 0.893832 0.893832 0.893832 0.893832 0.893832 0.89381 0.893832 0.893832 0.893832 0.893832 0.893832 0.893832 0.893832 0.893832 0.893832 0.893832 0.893832 0.88866 0.893832 0.881951 0.893832 0.884465 0.893832 0.885246 0.893832 0.891732 0.891606 0.889374 0.8809 0.880794 0.876256 0.879021 0.875109 0.873063 0.861366 0.893047 0.898747 0.897165 0.894064 0.890799 0.890682 0.893139 0.892526 0.877421 0.882622 0.88346 0.889574 0.892392 0.891095 0.893832 0.886167 0.893832 0.88545 0.893832 0.883688 0.893832 0.889858 0.893832 0.893832 0.893832 0.893832 0.893832 0.893832 0.893832 0.893832 0.893832 0.893832 0.893832 0.893815 0.893832 0.893832 0.893832 0.893832 0.893832 0.893832 0.893832 0.893832 0.893832 0.893832 0.893832 0.889858 0.893832 0.883688 0.893832 0.88545 0.893832 0.886167 0.893832 0.891095 0.892392 0.889574 0.88346 0.882622 0.877421 0.892112 0.893686 0.891304 0.890727 0.893041 0.89657 0.897876 0.890113 0.863251 0.873385 0.875162 0.879146 0.879146 0.875162 0.873385 0.863251 0.890113 0.897876 0.89657 0.893041 0.890727 0.891304 0.893686 0.892112 0.891874 0.894012 0.891697 0.890745 0.892315 0.895995 0.897012 0.887865 0.865742 0.874501 0.87602 0.880012 0.879047 0.884337 0.885563 0.889978 0.893001 0.890659 0.893832 0.887065 0.893832 0.886329 0.893832 0.885214 0.893832 0.89079 0.893832 0.893832 0.893832 0.893832 0.893832 0.893832 0.893832 0.893832 0.893832 0.893832 0.893832 0.893819 0.893832 0.893832 0.893832 0.893832 0.893832 0.893832 0.893832 0.893832 0.893832 0.893832 0.893832 0.89079 0.893832 0.885214 0.893832 0.886329 0.893832 0.887065 0.893832 0.890659 0.893001 0.889978 0.885563 0.884337 0.879047 0.880012 0.87602 0.874501 0.865742 0.887865 0.897012 0.895995 0.892315 0.890745 0.891697 0.894012 0.891874 0.891754 0.894108 0.891895 0.890817 0.891822 0.895448 0.896173 0.886242 0.868514 0.876081 0.877367 0.881282 0.880859 0.885834 0.88724 0.890439 0.893424 0.890409 0.893832 0.887892 0.893832 0.88712 0.893832 0.886545 0.893832 0.891512 0.893832 0.893832 0.893832 0.893832 0.893832 0.893832 0.893832 0.893832 0.893832 0.893832 0.893832 0.893822 0.893832 0.893832 0.893832 0.893832 0.893832 0.893832 0.893832 0.893832 0.893832 0.893832 0.893832 0.891512 0.893832 0.886545 0.893832 0.88712 0.893832 0.887892 0.893832 0.890409 0.893424 0.890439 0.88724 0.885834 0.880859 0.881282 0.877367 0.876081 0.868514 0.886242 0.896173 0.895448 0.891822 0.890817 0.891895 0.894108 0.891754 0.891701 0.894007 0.891962 0.890931 0.891508 0.894935 0.895376 0.885155 0.871324 0.877863 0.878949 0.882704 0.882667 0.887092 0.888552 0.890865 0.893666 0.890308 0.893832 0.888623 0.893832 0.887839 0.893832 0.887696 0.893832 0.89207 0.893832 0.893832 0.893832 0.893832 0.893832 0.893832 0.893832 0.893832 0.893832 0.893832 0.893832 0.893824 0.893832 0.893832 0.893832 0.893832 0.893832 0.893832 0.893832 0.893832 0.893832 0.893832 0.893832 0.89207 0.893832 0.887696 0.893832 0.887839 0.893832 0.888623 0.893832 0.890308 0.893666 0.890865 0.888552 0.887092 0.882667 0.882704 0.878949 0.877863 0.871324 0.885155 0.895376 0.894935 0.891508 0.890931 0.891962 0.894007 0.891701 0.891677 0.893766 0.891952 0.891073 0.891323 0.894461 0.894632 0.884509 0.874001 0.879657 0.880579 0.884106 0.884346 0.888131 0.889574 0.891215 0.893777 0.890321 0.893832 0.889255 0.893832 0.888496 0.893832 0.888687 0.893832 0.892499 0.893832 0.893832 0.893832 0.893832 0.893832 0.893832 0.893832 0.893832 0.893832 0.893832 0.893832 0.893826 0.893832 0.893832 0.893832 0.893832 0.893832 0.893832 0.893832 0.893832 0.893832 0.893832 0.893832 0.892499 0.893832 0.888687 0.893832 0.888496 0.893832 0.889255 0.893832 0.890321 0.893777 0.891215 0.889574 0.888131 0.884346 0.884106 0.880579 0.879657 0.874001 0.884509 0.894632 0.894461 0.891323 0.891073 0.891952 0.893766 0.891677 0.891661 0.893443 0.891903 0.891221 0.891228 0.894026 0.89395 0.884216 0.876446 0.881342 0.882134 0.885387 0.885827 0.88898 0.890381 0.891477 0.893817 0.890414 0.893832 0.889797 0.893832 0.889099 0.893832 0.889533 0.893832 0.892828 0.893832 0.893832 0.893832 0.893832 0.893832 0.893832 0.893832 0.893832 0.893832 0.893832 0.893832 0.893827 0.893832 0.893832 0.893832 0.893832 0.893832 0.893832 0.893832 0.893832 0.893832 0.893832 0.893832 0.892828 0.893832 0.889533 0.893832 0.889099 0.893832 0.889797 0.893832 0.890414 0.893817 0.891477 0.890381 0.88898 0.885827 0.885387 0.882134 0.881342 0.876446 0.884216 0.89395 0.894026 0.891228 0.891221 0.891903 0.893443 0.891661 0.891645 0.89309 0.891837 0.89136 0.891196 0.893632 0.893333 0.884199 0.878613 0.88285 0.883549 0.886502 0.887091 0.889665 0.89104 0.891663 0.893829 0.890562 0.893832 0.890261 0.893832 0.889652 0.893832 0.890254 0.893832 0.893081 0.893832 0.893832 0.893832 0.893832 0.893832 0.893832 0.893832 0.893832 0.893832 0.893832 0.893832 0.893829 0.893832 0.893832 0.893832 0.893832 0.893832 0.893832 0.893832 0.893832 0.893832 0.893832 0.893832 0.893081 0.893832 0.890254 0.893832 0.889652 0.893832 0.890261 0.893832 0.890562 0.893829 0.891663 0.89104 0.889665 0.887091 0.886502 0.883549 0.88285 0.878613 0.884199 0.893333 0.893632 0.891196 0.89136 0.891837 0.89309 0.891645 0.891628 0.89274 0.891767 0.89148 0.891207 0.893279 0.892786 0.884387 0.880494 0.884154 0.884794 0.88744 0.88815 0.890215 0.891597 0.89179 0.893832 0.890743 0.893832 0.890662 0.893832 0.890159 0.893832 0.890867 0.893832 0.893274 0.893832 0.893832 0.893832 0.893832 0.893832 0.893832 0.893832 0.893832 0.893832 0.893832 0.893832 0.893829 0.893832 0.893832 0.893832 0.893832 0.893832 0.893832 0.893832 0.893832 0.893832 0.893832 0.893832 0.893274 0.893832 0.890867 0.893832 0.890159 0.893832 0.890662 0.893832 0.890743 0.893832 0.89179 0.891597 0.890215 0.88815 0.88744 0.884794 0.884154 0.880494 0.884387 0.892786 0.893279 0.891207 0.89148 0.891767 0.89274 0.891628 0.891612 0.892415 0.8917 0.891579 0.891247 0.892964 0.892307 0.884722 0.882106 0.885255 0.885866 0.888214 0.889029 0.890659 0.892073 0.891878 0.893832 0.890943 0.893832 0.89101 0.893832 0.890623 0.893832 0.891385 0.893832 0.893421 0.893832 0.893832 0.893832 0.893832 0.893832 0.893832 0.893832 0.893832 0.893832 0.893832 0.893832 0.89383 0.893832 0.893832 0.893832 0.893832 0.893832 0.893832 0.893832 0.893832 0.893832 0.893832 0.893832 0.893421 0.893832 0.891385 0.893832 0.890623 0.893832 0.89101 0.893832 0.890943 0.893832 0.891878 0.892073 0.890659 0.889029 0.888214 0.885866 0.885255 0.882106 0.884722 0.892307 0.892964 0.891247 0.891579 0.8917 0.892415 0.891612 0.891597 0.892127 0.891642 0.891659 0.891309 0.892687 0.891896 0.885156 0.883479 0.88617 0.886779 0.888848 0.889757 0.891027 0.892476 0.891942 0.893832 0.89115 0.893832 0.891317 0.893832 0.891045 0.893832 0.891823 0.893832 0.893532 0.893832 0.893832 0.893832 0.893832 0.893832 0.893832 0.893832 0.893832 0.893832 0.893832 0.893832 0.893831 0.893832 0.893832 0.893832 0.893832 0.893832 0.893832 0.893832 0.893832 0.893832 0.893832 0.893832 0.893532 0.893832 0.891823 0.893832 0.891045 0.893832 0.891317 0.893832 0.89115 0.893832 0.891942 0.892476 0.891027 0.889757 0.888848 0.886779 0.88617 0.883479 0.885156 0.891896 0.892687 0.891309 0.891659 0.891642 0.892127 0.891597 0.891585 0.891878 0.891593 0.891725 0.891385 0.892445 0.891549 0.885651 0.884646 0.886925 0.887554 0.889367 0.890363 0.891337 0.892811 0.891997 0.893832 0.891356 0.893832 0.891589 0.893832 0.891427 0.893832 0.892192 0.893832 0.893616 0.893832 0.893832 0.893832 0.893832 0.893832 0.893832 0.893832 0.893832 0.893832 0.893832 0.893832 0.893831 0.893832 0.893832 0.893832 0.893832 0.893832 0.893832 0.893832 0.893832 0.893832 0.893832 0.893832 0.893616 0.893832 0.892192 0.893832 0.891427 0.893832 0.891589 0.893832 0.891356 0.893832 0.891997 0.892811 0.891337 0.890363 0.889367 0.887554 0.886925 0.884646 0.885651 0.891549 0.892445 0.891385 0.891725 0.891593 0.891878 0.891585 0.891577 0.89167 0.891555 0.891781 0.891472 0.892235 0.891263 0.886175 0.885641 0.887549 0.888215 0.889798 0.890872 0.891602 0.893081 0.892052 0.893832 0.891557 0.893832 0.891833 0.893832 0.89177 0.893832 0.8925 0.893832 0.893678 0.893832 0.893832 0.893832 0.893832 0.893832 0.893832 0.893832 0.893832 0.893832 0.893832 0.893832 0.893831 0.893832 0.893832 0.893832 0.893832 0.893832 0.893832 0.893832 0.893832 0.893832 0.893832 0.893832 0.893678 0.893832 0.8925 0.893832 0.89177 0.893832 0.891833 0.893832 0.891557 0.893832 0.892052 0.893081 0.891602 0.890872 0.889798 0.888215 0.887549 0.885641 0.886175 0.891263 0.892235 0.891472 0.891781 0.891555 0.89167 0.891577 0.891573 0.891502 0.891528 0.891831 0.891565 0.892055 0.891034 0.886706 0.886496 0.888067 0.888784 0.890161 0.891304 0.891828 0.893292 0.89211 0.893832 0.89175 0.893832 0.892054 0.893832 0.892077 0.893832 0.892757 0.893832 0.893724 0.893832 0.893832 0.893832 0.893832 0.893832 0.893832 0.893832 0.893832 0.893832 0.893832 0.893832 0.893832 0.893832 0.893832 0.893832 0.893832 0.893832 0.893832 0.893832 0.893832 0.893832 0.893832 0.893832 0.893724 0.893832 0.892757 0.893832 0.892077 0.893832 0.892054 0.893832 0.89175 0.893832 0.89211 0.893292 0.891828 0.891304 0.890161 0.888784 0.888067 0.886496 0.886706 0.891034 0.892055 0.891565 0.891831 0.891528 0.891502 0.891573 0.891572 0.89137 0.891509 0.891878 0.891663 0.891903 0.890857 0.887226 0.887236 0.888504 0.889281 0.890475 0.891677 0.89202 0.893453 0.892175 0.893832 0.891934 0.893832 0.892256 0.893832 0.892348 0.893832 0.89297 0.893832 0.893757 0.893832 0.893832 0.893832 0.893832 0.893832 0.893832 0.893832 0.893832 0.893832 0.893832 0.893832 0.893832 0.893832 0.893832 0.893832 0.893832 0.893832 0.893832 0.893832 0.893832 0.893832 0.893832 0.893832 0.893757 0.893832 0.89297 0.893832 0.892348 0.893832 0.892256 0.893832 0.891934 0.893832 0.892175 0.893453 0.89202 0.891677 0.890475 0.889281 0.888504 0.887236 0.887226 0.890857 0.891903 0.891663 0.891878 0.891509 0.89137 0.891572 0.891574 0.891271 0.891499 0.891924 0.891763 0.891775 0.890727 0.887723 0.887883 0.888879 0.889721 0.890751 0.892001 0.892182 0.893572 0.892247 0.893832 0.892107 0.893832 0.89244 0.893832 0.892587 0.893832 0.893146 0.893832 0.893781 0.893832 0.893832 0.893832 0.893832 0.893832 0.893832 0.893832 0.893832 0.893832 0.893832 0.893832 0.893832 0.893832 0.893832 0.893832 0.893832 0.893832 0.893832 0.893832 0.893832 0.893832 0.893832 0.893832 0.893781 0.893832 0.893146 0.893832 0.892587 0.893832 0.89244 0.893832 0.892107 0.893832 0.892247 0.893572 0.892182 0.892001 0.890751 0.889721 0.888879 0.887883 0.887723 0.890727 0.891775 0.891763 0.891924 0.891499 0.891271 0.891574 0.891578 0.891202 0.891494 0.891969 0.891864 0.891671 0.89064 0.888188 0.888454 0.889208 0.890116 0.890999 0.892284 0.892319 0.893658 0.892325 0.893832 0.892269 0.893832 0.892608 0.893832 0.892795 0.893832 0.893289 0.893832 0.893798 0.893832 0.893832 0.893832 0.893832 0.893832 0.893832 0.893832 0.893832 0.893832 0.893832 0.893832 0.893832 0.893832 0.893832 0.893832 0.893832 0.893832 0.893832 0.893832 0.893832 0.893832 0.893832 0.893832 0.893798 0.893832 0.893289 0.893832 0.892795 0.893832 0.892608 0.893832 0.892269 0.893832 0.892325 0.893658 0.892319 0.892284 0.890999 0.890116 0.889208 0.888454 0.888188 0.89064 0.891671 0.891864 0.891969 0.891494 0.891202 0.891578 0.891582 0.891157 0.891495 0.892015 0.891964 0.891586 0.89059 0.888617 0.888962 0.889501 0.890475 0.891224 0.892531 0.892433 0.893718 0.892406 0.893832 0.892421 0.893832 0.892761 0.893832 0.892974 0.893832 0.893405 0.893832 0.89381 0.893832 0.893832 0.893832 0.893832 0.893832 0.893832 0.893832 0.893832 0.893832 0.893832 0.893832 0.893832 0.893832 0.893832 0.893832 0.893832 0.893832 0.893832 0.893832 0.893832 0.893832 0.893832 0.893832 0.89381 0.893832 0.893405 0.893832 0.892974 0.893832 0.892761 0.893832 0.892421 0.893832 0.892406 0.893718 0.892433 0.892531 0.891224 0.890475 0.889501 0.888962 0.888617 0.89059 0.891586 0.891964 0.892015 0.891495 0.891157 0.891582 0.891586 0.891133 0.8915 0.892061 0.892062 0.89152 0.890572 0.889007 0.889417 0.889768 0.890804 0.89143 0.892746 0.89253 0.89376 0.89249 0.893832 0.892562 0.893832 0.892899 0.893832 0.893128 0.893832 0.8935 0.893832 0.893818 0.893832 0.893832 0.893832 0.893832 0.893832 0.893832 0.893832 0.893832 0.893832 0.893832 0.893832 0.893832 0.893832 0.893832 0.893832 0.893832 0.893832 0.893832 0.893832 0.893832 0.893832 0.893832 0.893832 0.893818 0.893832 0.8935 0.893832 0.893128 0.893832 0.892899 0.893832 0.892562 0.893832 0.89249 0.89376 0.89253 0.892746 0.89143 0.890804 0.889768 0.889417 0.889007 0.890572 0.89152 0.892062 0.892061 0.8915 0.891133 0.891586 0.891589 0.891126 0.891508 0.892107 0.892156 0.891468 0.89058 0.889358 0.889825 0.890012 0.891106 0.891618 0.892932 0.892613 0.893787 0.892574 0.893832 0.892692 0.893832 0.893024 0.893832 0.893259 0.893832 0.893575 0.893832 0.893823 0.893832 0.893832 0.893832 0.893832 0.893832 0.893832 0.893832 0.893832 0.893832 0.893832 0.893832 0.893832 0.893832 0.893832 0.893832 0.893832 0.893832 0.893832 0.893832 0.893832 0.893832 0.893832 0.893832 0.893823 0.893832 0.893575 0.893832 0.893259 0.893832 0.893024 0.893832 0.892692 0.893832 0.892574 0.893787 0.892613 0.892932 0.891618 0.891106 0.890012 0.889825 0.889358 0.89058 0.891468 0.892156 0.892107 0.891508 0.891126 0.891589 0.891591 0.891133 0.891517 0.892152 0.892245 0.891431 0.89061 0.88967 0.890193 0.890237 0.891384 0.89179 0.893092 0.892685 0.893805 0.892658 0.893832 0.892812 0.893832 0.893136 0.893832 0.893369 0.893832 0.893635 0.893832 0.893826 0.893832 0.893832 0.893832 0.893832 0.893832 0.893832 0.893832 0.893832 0.893832 0.893832 0.893832 0.893832 0.893832 0.893832 0.893832 0.893832 0.893832 0.893832 0.893832 0.893832 0.893832 0.893832 0.893832 0.893826 0.893832 0.893635 0.893832 0.893369 0.893832 0.893136 0.893832 0.892812 0.893832 0.892658 0.893805 0.892685 0.893092 0.89179 0.891384 0.890237 0.890193 0.88967 0.89061 0.891431 0.892245 0.892152 0.891517 0.891133 0.891591 0.891592 0.891151 0.891528 0.892194 0.892329 0.891404 0.890657 0.889945 0.890525 0.890445 0.891638 0.891945 0.893228 0.892747 0.893816 0.892739 0.893832 0.892921 0.893832 0.893236 0.893832 0.89346 0.893832 0.893682 0.893832 0.893829 0.893832 0.893832 0.893832 0.893832 0.893832 0.893832 0.893832 0.893832 0.893832 0.893832 0.893832 0.893832 0.893832 0.893832 0.893832 0.893832 0.893832 0.893832 0.893832 0.893832 0.893832 0.893832 0.893832 0.893829 0.893832 0.893682 0.893832 0.89346 0.893832 0.893236 0.893832 0.892921 0.893832 0.892739 0.893816 0.892747 0.893228 0.891945 0.891638 0.890445 0.890525 0.889945 0.890657 0.891404 0.892329 0.892194 0.891528 0.891151 0.891592 0.891592 0.891175 0.891539 0.892234 0.892407 0.891387 0.890717 0.890185 0.890823 0.890637 0.891869 0.892085 0.893342 0.892802 0.893823 0.892816 0.893832 0.893021 0.893832 0.893324 0.893832 0.893536 0.893832 0.893719 0.893832 0.89383 0.893832 0.893832 0.893832 0.893832 0.893832 0.893832 0.893832 0.893832 0.893832 0.893832 0.893832 0.893832 0.893832 0.893832 0.893832 0.893832 0.893832 0.893832 0.893832 0.893832 0.893832 0.893832 0.893832 0.89383 0.893832 0.893719 0.893832 0.893536 0.893832 0.893324 0.893832 0.893021 0.893832 0.892816 0.893823 0.892802 0.893342 0.892085 0.891869 0.890637 0.890823 0.890185 0.890717 0.891387 0.892407 0.892234 0.891539 0.891175 0.891592 0.891591 0.891205 0.891551 0.892271 0.892478 0.891378 0.890784 0.890393 0.891088 0.890812 0.892078 0.892211 0.893437 0.892851 0.893827 0.892888 0.893832 0.89311 0.893832 0.8934 0.893832 0.893598 0.893832 0.893748 0.893832 0.893831 0.893832 0.893832 0.893832 0.893832 0.893832 0.893832 0.893832 0.893832 0.893832 0.893832 0.893832 0.893832 0.893832 0.893832 0.893832 0.893832 0.893832 0.893832 0.893832 0.893832 0.893832 0.893832 0.893832 0.893831 0.893832 0.893748 0.893832 0.893598 0.893832 0.8934 0.893832 0.89311 0.893832 0.892888 0.893827 0.892851 0.893437 0.892211 0.892078 0.890812 0.891088 0.890393 0.890784 0.891378 0.892478 0.892271 0.891551 0.891205 0.891591 0.89159 0.891237 0.891562 0.892305 0.892543 0.891374 0.890855 0.890573 0.891324 0.890971 0.892264 0.892321 0.893515 0.892894 0.893829 0.892955 0.893832 0.89319 0.893832 0.893467 0.893832 0.893648 0.893832 0.89377 0.893832 0.893832 0.893832 0.893832 0.893832 0.893832 0.893832 0.893832 0.893832 0.893832 0.893832 0.893832 0.893832 0.893832 0.893832 0.893832 0.893832 0.893832 0.893832 0.893832 0.893832 0.893832 0.893832 0.893832 0.893832 0.893832 0.893832 0.89377 0.893832 0.893648 0.893832 0.893467 0.893832 0.89319 0.893832 0.892955 0.893829 0.892894 0.893515 0.892321 0.892264 0.890971 0.891324 0.890573 0.890855 0.891374 0.892543 0.892305 0.891562 0.891237 0.89159 0.891588 0.89127 0.891573 0.892334 0.8926 0.891375 0.890926 0.890725 0.891531 0.891114 0.892427 0.892417 0.893579 0.892933 0.893831 0.893016 0.893832 0.89326 0.893832 0.893523 0.893832 0.893688 0.893832 0.893786 0.893832 0.893832 0.893832 0.893832 0.893832 0.893832 0.893832 0.893832 0.893832 0.893832 0.893832 0.893832 0.893832 0.893832 0.893832 0.893832 0.893832 0.893832 0.893832 0.893832 0.893832 0.893832 0.893832 0.893832 0.893832 0.893832 0.893832 0.893786 0.893832 0.893688 0.893832 0.893523 0.893832 0.89326 0.893832 0.893016 0.893831 0.892933 0.893579 0.892417 0.892427 0.891114 0.891531 0.890725 0.890926 0.891375 0.8926 0.892334 0.891573 0.89127 0.891588 0.891585 0.891302 0.891583 0.89236 0.89265 0.891378 0.890996 0.890854 0.891709 0.891239 0.892569 0.8925 0.89363 0.892967 0.893831 0.89307 0.893832 0.893321 0.893832 0.893571 0.893832 0.89372 0.893832 0.893799 0.893832 0.893832 0.893832 0.893832 0.893832 0.893832 0.893832 0.893832 0.893832 0.893832 0.893832 0.893832 0.893832 0.893832 0.893832 0.893832 0.893832 0.893832 0.893832 0.893832 0.893832 0.893832 0.893832 0.893832 0.893832 0.893832 0.893832 0.893799 0.893832 0.89372 0.893832 0.893571 0.893832 0.893321 0.893832 0.89307 0.893831 0.892967 0.89363 0.8925 0.892569 0.891239 0.891709 0.890854 0.890996 0.891378 0.89265 0.89236 0.891583 0.891302 0.891585 0.891583 0.891332 0.891592 0.892382 0.892692 0.891384 0.89106 0.89096 0.891861 0.891348 0.89269 0.89257 0.893671 0.892996 0.893832 0.893117 0.893832 0.893372 0.893832 0.893611 0.893832 0.893745 0.893832 0.893808 0.893832 0.893832 0.893832 0.893832 0.893832 0.893832 0.893832 0.893832 0.893832 0.893832 0.893832 0.893832 0.893832 0.893832 0.893832 0.893832 0.893832 0.893832 0.893832 0.893832 0.893832 0.893832 0.893832 0.893832 0.893832 0.893832 0.893832 0.893808 0.893832 0.893745 0.893832 0.893611 0.893832 0.893372 0.893832 0.893117 0.893832 0.892996 0.893671 0.89257 0.89269 0.891348 0.891861 0.89096 0.89106 0.891384 0.892692 0.892382 0.891592 0.891332 0.891583 0.891581 0.891358 0.8916 0.8924 0.892727 0.891389 0.891117 0.891045 0.891987 0.891438 0.892789 0.892627 0.893703 0.89302 0.893832 0.893157 0.893832 0.893415 0.893832 0.893643 0.893832 0.893764 0.893832 0.893815 0.893832 0.893832 0.893832 0.893832 0.893832 0.893832 0.893832 0.893832 0.893832 0.893832 0.893832 0.893832 0.893832 0.893832 0.893832 0.893832 0.893832 0.893832 0.893832 0.893832 0.893832 0.893832 0.893832 0.893832 0.893832 0.893832 0.893832 0.893815 0.893832 0.893764 0.893832 0.893643 0.893832 0.893415 0.893832 0.893157 0.893832 0.89302 0.893703 0.892627 0.892789 0.891438 0.891987 0.891045 0.891117 0.891389 0.892727 0.8924 0.8916 0.891358 0.891581 0.891579 0.89138 0.891607 0.892414 0.892755 0.891395 0.891164 0.891112 0.892086 0.891511 0.892868 0.892672 0.893726 0.89304 0.893832 0.893189 0.893832 0.893449 0.893832 0.893668 0.893832 0.893778 0.893832 0.89382 0.893832 0.893832 0.893832 0.893832 0.893832 0.893832 0.893832 0.893832 0.893832 0.893832 0.893832 0.893832 0.893832 0.893832 0.893832 0.893832 0.893832 0.893832 0.893832 0.893832 0.893832 0.893832 0.893832 0.893832 0.893832 0.893832 0.893832 0.89382 0.893832 0.893778 0.893832 0.893668 0.893832 0.893449 0.893832 0.893189 0.893832 0.89304 0.893726 0.892672 0.892868 0.891511 0.892086 0.891112 0.891164 0.891395 0.892755 0.892414 0.891607 0.89138 0.891579 0.891578 0.891397 0.891612 0.892424 0.892776 0.8914 0.891201 0.891161 0.89216 0.891565 0.892927 0.892706 0.893743 0.893054 0.893832 0.893213 0.893832 0.893474 0.893832 0.893686 0.893832 0.893789 0.893832 0.893823 0.893832 0.893832 0.893832 0.893832 0.893832 0.893832 0.893832 0.893832 0.893832 0.893832 0.893832 0.893832 0.893832 0.893832 0.893832 0.893832 0.893832 0.893832 0.893832 0.893832 0.893832 0.893832 0.893832 0.893832 0.893832 0.893832 0.893832 0.893823 0.893832 0.893789 0.893832 0.893686 0.893832 0.893474 0.893832 0.893213 0.893832 0.893054 0.893743 0.892706 0.892927 0.891565 0.89216 0.891161 0.891201 0.8914 0.892776 0.892424 0.891612 0.891397 0.891578 0.891577 0.891409 0.891615 0.892431 0.89279 0.891404 0.891227 0.891194 0.89221 0.891602 0.892966 0.892728 0.893754 0.893064 0.893832 0.893229 0.893832 0.89349 0.893832 0.893698 0.893832 0.893795 0.893832 0.893825 0.893832 0.893832 0.893832 0.893832 0.893832 0.893832 0.893832 0.893832 0.893832 0.893832 0.893832 0.893832 0.893832 0.893832 0.893832 0.893832 0.893832 0.893832 0.893832 0.893832 0.893832 0.893832 0.893832 0.893832 0.893832 0.893832 0.893832 0.893825 0.893832 0.893795 0.893832 0.893698 0.893832 0.89349 0.893832 0.893229 0.893832 0.893064 0.893754 0.892728 0.892966 0.891602 0.89221 0.891194 0.891227 0.891404 0.89279 0.892431 0.891615 0.891409 0.891577 0.891577 0.891415 0.891617 0.892435 0.892797 0.891405 0.891239 0.89121 0.892234 0.89162 0.892986 0.892739 0.89376 0.893069 0.893832 0.893237 0.893832 0.893499 0.893832 0.893704 0.893832 0.893798 0.893832 0.893826 0.893832 0.893832 0.893832 0.893832 0.893832 0.893832 0.893832 0.893832 0.893832 0.893832 0.893832 0.893832 0.893832 0.893832 0.893832 0.893832 0.893832 0.893832 0.893832 0.893832 0.893832 0.893832 0.893832 0.893832 0.893832 0.893832 0.893832 0.893826 0.893832 0.893798 0.893832 0.893704 0.893832 0.893499 0.893832 0.893237 0.893832 0.893069 0.89376 0.892739 0.892986 0.89162 0.892234 0.89121 0.891239 0.891405 0.892797 0.892435 0.891617 0.891415 0.891577 
SCALARS Axial_Stress float 1
LOOKUP_TABLE default
-665011000000.0 -126375000000.0 -126375000000.0 -665011000000.0 -1.36225e+12 -2.06633e+12 -655770000000.0 -344038000000.0 -130548000000.0 -112416000000.0 -114971000000.0 -84471700000.0 -29802900000.0 -82490400000.0 -43078200000.0 -57600800000.0 -58170100000.0 -64343800000.0 -68025900000.0 -71361500000.0 -73781500000.0 -76186800000.0 -77697100000.0 -78913800000.0 -78976500000.0 -78913800000.0 -77697100000.0 -76186800000.0 -73781500000.0 -71361500000.0 -68025900000.0 -64343800000.0 -58170100000.0 -57600800000.0 -43078300000.0 -82490400000.0 -29802900000.0 -84471700000.0 -114971000000.0 -112416000000.0 -130548000000.0 -344038000000.0 -655770000000.0 -2.06633e+12 -1.36225e+12 -1.28999e+12 -1.30316e+12 -1.91084e+12 -1.19224e+12 -571511000000.0 -377742000000.0 -285101000000.0 -285101000000.0 -377742000000.0 -571511000000.0 -1.19224e+12 -1.91084e+12 -1.30316e+12 -1.28999e+12 -2.31134e+12 -1.48385e+12 -1.63929e+12 -1.71938e+12 -1.07146e+12 -37617800000.0 -136704000000.0 -336670000000.0 -249143000000.0 -115487000000.0 -227325000000.0 -90874100000.0 -105368000000.0 -85159300000.0 -84503300000.0 -80289000000.0 -78522400000.0 -76232400000.0 -75204800000.0 -73485300000.0 -73542700000.0 -72727900000.0 -73542700000.0 -73485300000.0 -75204800000.0 -76232400000.0 -78522400000.0 -80289000000.0 -84503300000.0 -85159300000.0 -105368000000.0 -90874100000.0 -227325000000.0 -115487000000.0 -249143000000.0 -336670000000.0 -136704000000.0 -37617800000.0 -1.07146e+12 -1.71938e+12 -1.63929e+12 -1.48385e+12 -2.31134e+12 -2.48324e+12 -2.22194e+12 -2.41689e+12 -1.46839e+12 -1.52289e+12 -1.40952e+12 -1.14356e+12 -806472000000.0 -326579000000.0 -261467000000.0 -127037000000.0 -312790000000.0 -114940000000.0 -147205000000.0 -122449000000.0 -127985000000.0 -126927000000.0 -128075000000.0 -127167000000.0 -127434000000.0 -125977000000.0 -126411000000.0 -125088000000.0 -126411000000.0 -125977000000.0 -127434000000.0 -127167000000.0 -128075000000.0 -126927000000.0 -127985000000.0 -122449000000.0 -147205000000.0 -114940000000.0 -312790000000.0 -127037000000.0 -261467000000.0 -326579000000.0 -806472000000.0 -1.14356e+12 -1.40952e+12 -1.52289e+12 -1.46839e+12 -2.41689e+12 -2.22194e+12 -2.48324e+12 -2.35542e+12 -3.91952e+12 -3.9227e+12 -2.07779e+12 -2.08778e+12 -1.31562e+12 -857324000000.0 -855478000000.0 -324042000000.0 -324042000000.0 -855478000000.0 -857324000000.0 -1.31562e+12 -2.08778e+12 -2.07779e+12 -3.9227e+12 -3.91952e+12 -2.35542e+12 -2.22553e+12 -3.66967e+12 -3.79846e+12 -2.13829e+12 -1.73014e+12 -1.52797e+12 -1.17136e+12 -853930000000.0 -741329000000.0 -672647000000.0 -412001000000.0 -276306000000.0 -344042000000.0 -496690000000.0 -232591000000.0 -247827000000.0 -186706000000.0 -175545000000.0 -166679000000.0 -165718000000.0 -164238000000.0 -164221000000.0 -162169000000.0 -162372000000.0 -160616000000.0 -162372000000.0 -162169000000.0 -164221000000.0 -164238000000.0 -165718000000.0 -166679000000.0 -175545000000.0 -186706000000.0 -247827000000.0 -232591000000.0 -496690000000.0 -344042000000.0 -276306000000.0 -412001000000.0 -672647000000.0 -741329000000.0 -853930000000.0 -1.17136e+12 -1.52797e+12 -1.73014e+12 -2.13829e+12 -3.79846e+12 -3.66967e+12 -2.22553e+12 -2.03763e+12 -2.12326e+12 -3.41775e+12 -3.59671e+12 -1.86019e+12 -1.93969e+12 -1.88775e+12 -1.66262e+12 -1.3697e+12 -1.02563e+12 -961481000000.0 -633504000000.0 -304397000000.0 -304397000000.0 -633504000000.0 -961481000000.0 -1.02563e+12 -1.3697e+12 -1.66262e+12 -1.88775e+12 -1.93969e+12 -1.86019e+12 -3.59671e+12 -3.41775e+12 -2.12326e+12 -2.03763e+12 -1.99498e+12 -3.25521e+12 -3.32488e+12 -3.16908e+12 -3.41504e+12 -1.74977e+12 -1.77287e+12 -1.52446e+12 -1.41953e+12 -1.23603e+12 -1.071e+12 -874945000000.0 -613557000000.0 -225580000000.0 -408644000000.0 -162196000000.0 -212106000000.0 -173757000000.0 -178821000000.0 -174784000000.0 -180523000000.0 -187717000000.0 -195483000000.0 -199769000000.0 -204123000000.0 -203800000000.0 -204123000000.0 -199769000000.0 -195483000000.0 -187717000000.0 -180523000000.0 -174784000000.0 -178821000000.0 -173757000000.0 -212106000000.0 -162196000000.0 -408644000000.0 -225580000000.0 -613557000000.0 -874945000000.0 -1.071e+12 -1.23603e+12 -1.41953e+12 -1.52446e+12 -1.77287e+12 -1.74977e+12 -3.41504e+12 -3.16908e+12 -3.32488e+12 -3.25521e+12 -1.99498e+12 -1.98597e+12 -3.13591e+12 -2.94792e+12 -3.04251e+12 -2.93471e+12 -2.92244e+12 -1.81239e+12 -1.61808e+12 -1.53206e+12 -1.3396e+12 -946949000000.0 -769356000000.0 -516073000000.0 -400351000000.0 -323001000000.0 -454585000000.0 -220314000000.0 -266181000000.0 -215179000000.0 -220482000000.0 -215785000000.0 -214638000000.0 -211997000000.0 -211924000000.0 -212603000000.0 -215409000000.0 -214913000000.0 -215409000000.0 -212603000000.0 -211924000000.0 -211997000000.0 -214638000000.0 -215785000000.0 -220482000000.0 -215179000000.0 -266181000000.0 -220314000000.0 -454585000000.0 -323001000000.0 -400351000000.0 -516073000000.0 -769356000000.0 -946949000000.0 -1.3396e+12 -1.53206e+12 -1.61808e+12 -1.81239e+12 -2.92244e+12 -2.93471e+12 -3.04251e+12 -2.94792e+12 -3.13591e+12 -1.98597e+12 -2.02443e+12 -3.20978e+12 -3.13652e+12 -2.81564e+12 -2.55241e+12 -2.69041e+12 -2.37919e+12 -1.71523e+12 -1.74774e+12 -1.69429e+12 -1.56097e+12 -1.53273e+12 -1.23529e+12 -1.11343e+12 -851923000000.0 -674541000000.0 -455712000000.0 -455712000000.0 -674541000000.0 -851923000000.0 -1.11343e+12 -1.23529e+12 -1.53273e+12 -1.56097e+12 -1.69429e+12 -1.74774e+12 -1.71523e+12 -2.37919e+12 -2.69041e+12 -2.55241e+12 -2.81564e+12 -3.13652e+12 -3.20978e+12 -2.02443e+12 -1.46562e+12 -1.92012e+12 -3.21624e+12 -2.90708e+12 -2.58508e+12 -1.68608e+12 -2.58477e+12 -2.35968e+12 -1.86463e+12 -1.55848e+12 -1.601e+12 -1.79162e+12 -1.54292e+12 -1.36834e+12 -910215000000.0 -626948000000.0 -434394000000.0 -345161000000.0 -209985000000.0 -264241000000.0 -215654000000.0 -223097000000.0 -216918000000.0 -217185000000.0 -218164000000.0 -218223000000.0 -215972000000.0 -215371000000.0 -213820000000.0 -215371000000.0 -215972000000.0 -218223000000.0 -218164000000.0 -217185000000.0 -216918000000.0 -223097000000.0 -215654000000.0 -264241000000.0 -209985000000.0 -345161000000.0 -434394000000.0 -626948000000.0 -910215000000.0 -1.36834e+12 -1.54292e+12 -1.79162e+12 -1.601e+12 -1.55848e+12 -1.86463e+12 -2.35968e+12 -2.58477e+12 -1.68608e+12 -2.58508e+12 -2.90708e+12 -3.21624e+12 -1.92012e+12 -1.46562e+12 -1.50552e+12 -2.65964e+12 -2.99159e+12 -2.80075e+12 -2.32794e+12 -2.63861e+12 -2.7852e+12 -2.15463e+12 -1.68679e+12 -1.38282e+12 -1.30016e+12 -1.19714e+12 -1.79093e+12 -1.17128e+12 -805489000000.0 -643877000000.0 -582353000000.0 -356360000000.0 -243716000000.0 -269774000000.0 -214513000000.0 -223244000000.0 -218915000000.0 -220881000000.0 -222671000000.0 -224364000000.0 -224302000000.0 -224590000000.0 -223520000000.0 -224590000000.0 -224302000000.0 -224364000000.0 -222671000000.0 -220881000000.0 -218915000000.0 -223244000000.0 -214513000000.0 -269774000000.0 -243716000000.0 -356360000000.0 -582353000000.0 -643877000000.0 -805489000000.0 -1.17128e+12 -1.79093e+12 -1.19714e+12 -1.30016e+12 -1.38282e+12 -1.68679e+12 -2.15463e+12 -2.7852e+12 -2.63861e+12 -2.32794e+12 -2.80075e+12 -2.99159e+12 -2.65964e+12 -1.50552e+12 -1.39348e+12 -2.25912e+12 -2.76622e+12 -2.64298e+12 -2.56492e+12 -2.49869e+12 -869061000000.0 -2.99835e+12 -1.89231e+12 -2.11739e+12 -1.89169e+12 -1.64537e+12 -992511000000.0 -832809000000.0 -1.41891e+12 -981004000000.0 -916423000000.0 -741361000000.0 -652302000000.0 -652302000000.0 -741361000000.0 -916423000000.0 -981004000000.0 -1.41891e+12 -832809000000.0 -992511000000.0 -1.64537e+12 -1.89169e+12 -2.11739e+12 -1.89231e+12 -2.99835e+12 -869061000000.0 -2.49869e+12 -2.56492e+12 -2.64298e+12 -2.76622e+12 -2.25912e+12 -1.39348e+12 -1.25706e+12 -2.32722e+12 -2.4229e+12 -2.19978e+12 -2.66264e+12 -2.54846e+12 -3.34214e+12 -1.95469e+12 -748684000000.0 -1.89477e+12 -1.37297e+12 -356058000000.0 -756373000000.0 -514665000000.0 -1.0343e+12 -1.0557e+12 -791040000000.0 -502262000000.0 -372384000000.0 -321292000000.0 -332547000000.0 -272357000000.0 -268916000000.0 -256614000000.0 -250632000000.0 -242541000000.0 -236714000000.0 -234223000000.0 -234693000000.0 -234686000000.0 -234693000000.0 -234223000000.0 -236714000000.0 -242541000000.0 -250632000000.0 -256614000000.0 -268916000000.0 -272357000000.0 -332547000000.0 -321292000000.0 -372384000000.0 -502262000000.0 -791040000000.0 -1.0557e+12 -1.0343e+12 -514665000000.0 -756373000000.0 -356058000000.0 -1.37297e+12 -1.89477e+12 -748684000000.0 -1.95469e+12 -3.34214e+12 -2.54846e+12 -2.66264e+12 -2.19978e+12 -2.4229e+12 -2.32722e+12 -1.25706e+12 -1.04333e+12 -1.07127e+12 -2.1416e+12 -2.25993e+12 -2.5683e+12 -2.54591e+12 -2.46504e+12 -2.29582e+12 -2.9979e+12 -3.09365e+12 -2.71349e+12 -1.91399e+12 -1.27783e+12 -1.45336e+12 -513725000000.0 -985922000000.0 -623725000000.0 -516980000000.0 -388331000000.0 -369098000000.0 -331836000000.0 -285609000000.0 -281817000000.0 -268139000000.0 -260887000000.0 -251849000000.0 -246193000000.0 -244706000000.0 -245339000000.0 -246140000000.0 -245339000000.0 -244706000000.0 -246193000000.0 -251849000000.0 -260887000000.0 -268139000000.0 -281817000000.0 -285609000000.0 -331836000000.0 -369098000000.0 -388331000000.0 -516980000000.0 -623725000000.0 -985922000000.0 -513725000000.0 -1.45336e+12 -1.27783e+12 -1.91399e+12 -2.71349e+12 -3.09365e+12 -2.9979e+12 -2.29582e+12 -2.46504e+12 -2.54591e+12 -2.5683e+12 -2.25993e+12 -2.1416e+12 -1.07127e+12 -1.04333e+12 -967904000000.0 -2.05341e+12 -2.08614e+12 -2.09024e+12 -2.36236e+12 -2.50881e+12 -591786000000.0 -2.67649e+12 -2.3964e+12 -2.48583e+12 -2.30392e+12 -1.85515e+12 -1.06869e+12 -143829000000.0 -1.35292e+12 -366495000000.0 -241645000000.0 -339300000000.0 -517957000000.0 -780529000000.0 -780529000000.0 -517957000000.0 -339300000000.0 -241645000000.0 -366495000000.0 -1.35292e+12 -143829000000.0 -1.06869e+12 -1.85515e+12 -2.30392e+12 -2.48583e+12 -2.3964e+12 -2.67649e+12 -591786000000.0 -2.50881e+12 -2.36236e+12 -2.09024e+12 -2.08614e+12 -2.05341e+12 -967904000000.0 -857597000000.0 -1.86931e+12 -1.80306e+12 -1.90384e+12 -1.92598e+12 -2.14637e+12 -2.08904e+12 -2.18078e+12 -2.85462e+12 -1.57718e+12 -2.20427e+12 -2.04165e+12 -2.04364e+12 -1.37403e+12 -2.02895e+12 -947704000000.0 -808214000000.0 -1.04051e+12 -533966000000.0 -673517000000.0 -503478000000.0 -634382000000.0 -530519000000.0 -544602000000.0 -570795000000.0 -374624000000.0 -398214000000.0 -311801000000.0 -283660000000.0 -276359000000.0 -269241000000.0 -266029000000.0 -259699000000.0 -254585000000.0 -253617000000.0 -253634000000.0 -254984000000.0 -253634000000.0 -253617000000.0 -254585000000.0 -259699000000.0 -266029000000.0 -269241000000.0 -276359000000.0 -283660000000.0 -311801000000.0 -398214000000.0 -374624000000.0 -570795000000.0 -544602000000.0 -530519000000.0 -634382000000.0 -503478000000.0 -673517000000.0 -533966000000.0 -1.04051e+12 -808214000000.0 -947704000000.0 -2.02895e+12 -1.37403e+12 -2.04364e+12 -2.04165e+12 -2.20427e+12 -1.57718e+12 -2.85462e+12 -2.18078e+12 -2.08904e+12 -2.14637e+12 -1.92598e+12 -1.90384e+12 -1.80306e+12 -1.86931e+12 -857597000000.0 -420507000000.0 -473921000000.0 -1.64099e+12 -1.56207e+12 -1.84886e+12 -2.0995e+12 -2.2801e+12 -2.34141e+12 -1.55551e+12 -2.96543e+12 -1.50782e+12 -1.52119e+12 -1.45813e+12 -491006000000.0 -282842000000.0 -417843000000.0 -574742000000.0 -350460000000.0 -417231000000.0 -288066000000.0 -279565000000.0 -263364000000.0 -258423000000.0 -255977000000.0 -254770000000.0 -254217000000.0 -257596000000.0 -259173000000.0 -261711000000.0 -259173000000.0 -257596000000.0 -254217000000.0 -254769000000.0 -255977000000.0 -258423000000.0 -263364000000.0 -279565000000.0 -288066000000.0 -417231000000.0 -350460000000.0 -574742000000.0 -417843000000.0 -282842000000.0 -491006000000.0 -1.45813e+12 -1.52119e+12 -1.50782e+12 -2.96543e+12 -1.55551e+12 -2.34141e+12 -2.2801e+12 -2.0995e+12 -1.84886e+12 -1.56207e+12 -1.64099e+12 -473921000000.0 -420507000000.0 -175947000000.0 -1.32902e+12 -1.52091e+12 -1.83025e+12 -1.66352e+12 -2.37567e+12 -2.50352e+12 -667115000000.0 -2.07476e+12 -1.71332e+12 -1.825e+12 -1.7235e+12 -1.00324e+12 -1.19501e+12 -593303000000.0 -678052000000.0 -676141000000.0 -572181000000.0 -680407000000.0 -451721000000.0 -451721000000.0 -680407000000.0 -572181000000.0 -676141000000.0 -678052000000.0 -593303000000.0 -1.19501e+12 -1.00324e+12 -1.7235e+12 -1.825e+12 -1.71332e+12 -2.07476e+12 -667115000000.0 -2.50352e+12 -2.37567e+12 -1.66352e+12 -1.83025e+12 -1.52091e+12 -1.32902e+12 -175947000000.0 -510064000000.0 -944760000000.0 -1.21464e+12 -1.24565e+12 -1.23287e+12 -1.60803e+12 -1.97108e+12 -2.67028e+12 -2.56959e+12 -2.19286e+12 -544567000000.0 -1.91605e+12 -1.17981e+12 -1.63223e+12 -1.52021e+12 -1.49613e+12 -1.34568e+12 -1.24279e+12 -977697000000.0 -435884000000.0 -650617000000.0 -328777000000.0 -404392000000.0 -431626000000.0 -465132000000.0 -424419000000.0 -291185000000.0 -480313000000.0 -302555000000.0 -395131000000.0 -243177000000.0 -237734000000.0 -216129000000.0 -210270000000.0 -203710000000.0 -197031000000.0 -189612000000.0 -187395000000.0 -185494000000.0 -187261000000.0 -185494000000.0 -187395000000.0 -189612000000.0 -197031000000.0 -203710000000.0 -210270000000.0 -216129000000.0 -237734000000.0 -243177000000.0 -395131000000.0 -302555000000.0 -480313000000.0 -291185000000.0 -424419000000.0 -465132000000.0 -431626000000.0 -404392000000.0 -328777000000.0 -650617000000.0 -435884000000.0 -977697000000.0 -1.24279e+12 -1.34568e+12 -1.49613e+12 -1.52021e+12 -1.63223e+12 -1.17981e+12 -1.91605e+12 -544567000000.0 -2.19286e+12 -2.56959e+12 -2.67028e+12 -1.97108e+12 -1.60803e+12 -1.23287e+12 -1.24565e+12 -1.21464e+12 -944760000000.0 -510064000000.0 -635848000000.0 -1.22282e+12 -1.1399e+12 -917011000000.0 -440758000000.0 -1.53049e+12 -1.31589e+12 -1.38774e+12 -1.29375e+12 -1.18738e+12 -1.03913e+12 -778419000000.0 -653641000000.0 -569336000000.0 -249316000000.0 -451005000000.0 -339213000000.0 -270200000000.0 -182938000000.0 -177405000000.0 -26904700000.0 -16350100000.0 -9053440000.0 -9658130000.0 -9043540000.0 -9278080000.0 -9045060000.0 -9778730000.0 -9080910000.0 -10543900000.0 -9080910000.0 -9778730000.0 -9045060000.0 -9278080000.0 -9043540000.0 -9658130000.0 -9053440000.0 -16350100000.0 -26904700000.0 -177405000000.0 -182938000000.0 -270200000000.0 -339213000000.0 -451005000000.0 -249316000000.0 -569336000000.0 -653641000000.0 -778419000000.0 -1.03913e+12 -1.18738e+12 -1.29375e+12 -1.38774e+12 -1.31589e+12 -1.53049e+12 -440758000000.0 -917011000000.0 -1.1399e+12 -1.22282e+12 -635848000000.0 -1.07203e+12 -1.17699e+12 -1.87414e+12 -717190000000.0 -2.19355e+12 -1.3974e+12 -1.0566e+12 -912874000000.0 -707407000000.0 -653180000000.0 -548861000000.0 -707603000000.0 -122122000000.0 -207455000000.0 -127074000000.0 -127074000000.0 -207455000000.0 -122122000000.0 -707603000000.0 -548861000000.0 -653180000000.0 -707407000000.0 -912874000000.0 -1.0566e+12 -1.3974e+12 -2.19355e+12 -717190000000.0 -1.87414e+12 -1.17699e+12 -1.07203e+12 -53183000000.0 -487105000000.0 -827643000000.0 -729713000000.0 -1.18361e+12 -982186000000.0 -1.0433e+12 -1.70002e+12 -1.05305e+12 -639134000000.0 -1.2783e+12 -1.20038e+12 -1.16803e+12 -845169000000.0 -893867000000.0 -844510000000.0 -853866000000.0 -411975000000.0 -315766000000.0 -324151000000.0 -175479000000.0 -388299000000.0 -241877000000.0 -260397000000.0 -405681000000.0 -300314000000.0 -342278000000.0 -265181000000.0 -257572000000.0 -252374000000.0 -247097000000.0 -242566000000.0 -239245000000.0 -236819000000.0 -235280000000.0 -234080000000.0 -234940000000.0 -234080000000.0 -235280000000.0 -236819000000.0 -239245000000.0 -242566000000.0 -247097000000.0 -252374000000.0 -257572000000.0 -265181000000.0 -342278000000.0 -300314000000.0 -405681000000.0 -260397000000.0 -241877000000.0 -388299000000.0 -175479000000.0 -324151000000.0 -315766000000.0 -411975000000.0 -853866000000.0 -844510000000.0 -893867000000.0 -845169000000.0 -1.16803e+12 -1.20038e+12 -1.2783e+12 -639134000000.0 -1.05305e+12 -1.70002e+12 -1.0433e+12 -982186000000.0 -1.18361e+12 -729713000000.0 -827643000000.0 -487105000000.0 -53183000000.0 -226752000000.0 -778951000000.0 -2.01687e+12 -777578000000.0 -910235000000.0 -1.10596e+12 -831727000000.0 -729784000000.0 -1.12364e+12 -1.0551e+12 -977168000000.0 -870287000000.0 -786447000000.0 -517179000000.0 -329496000000.0 -384730000000.0 -299969000000.0 -283830000000.0 -24485000000.0 -70950400000.0 -9035750000.0 -9035750000.0 -9035750000.0 -9035750000.0 -9035750000.0 -9035750000.0 -9035750000.0 -9035750000.0 -9035750000.0 -10101400000.0 -9035750000.0 -9035750000.0 -9035750000.0 -9035750000.0 -9035750000.0 -9035750000.0 -9035750000.0 -9035750000.0 -9035750000.0 -70950400000.0 -24485000000.0 -283830000000.0 -299969000000.0 -384730000000.0 -329496000000.0 -517179000000.0 -786447000000.0 -870287000000.0 -977168000000.0 -1.0551e+12 -1.12364e+12 -729784000000.0 -831727000000.0 -1.10596e+12 -910235000000.0 -777578000000.0 -2.01687e+12 -778951000000.0 -226752000000.0 -324455000000.0 -954976000000.0 -756937000000.0 -1.12822e+12 -402598000000.0 -767069000000.0 -681722000000.0 -752604000000.0 -668270000000.0 -983289000000.0 -886264000000.0 -791493000000.0 -647984000000.0 -565852000000.0 -497616000000.0 -402106000000.0 -362202000000.0 -219816000000.0 -322762000000.0 -171575000000.0 -171575000000.0 -322762000000.0 -219816000000.0 -362202000000.0 -402106000000.0 -497616000000.0 -565852000000.0 -647984000000.0 -791493000000.0 -886264000000.0 -983289000000.0 -668270000000.0 -752604000000.0 -681722000000.0 -767069000000.0 -402598000000.0 -1.12822e+12 -756937000000.0 -954976000000.0 -324455000000.0 -366142000000.0 -389636000000.0 -570414000000.0 -310897000000.0 -713870000000.0 -262329000000.0 -795152000000.0 -727040000000.0 -703017000000.0 -747739000000.0 -785094000000.0 -805843000000.0 -794626000000.0 -737517000000.0 -607512000000.0 -532911000000.0 -380763000000.0 -227954000000.0 -245455000000.0 -250893000000.0 -251352000000.0 -439087000000.0 -286374000000.0 -299535000000.0 -264663000000.0 -256252000000.0 -249024000000.0 -243223000000.0 -238747000000.0 -235198000000.0 -232421000000.0 -230394000000.0 -229146000000.0 -229592000000.0 -229146000000.0 -230394000000.0 -232421000000.0 -235198000000.0 -238747000000.0 -243223000000.0 -249024000000.0 -256252000000.0 -264663000000.0 -299535000000.0 -286374000000.0 -439087000000.0 -251352000000.0 -250893000000.0 -245455000000.0 -227954000000.0 -380763000000.0 -532911000000.0 -607512000000.0 -737517000000.0 -794626000000.0 -805843000000.0 -785094000000.0 -747739000000.0 -703017000000.0 -727040000000.0 -795152000000.0 -262329000000.0 -713870000000.0 -310897000000.0 -570414000000.0 -389636000000.0 -366142000000.0 -541544000000.0 -550996000000.0 -825065000000.0 -683912000000.0 -574185000000.0 -476662000000.0 -450993000000.0 -450993000000.0 -476662000000.0 -574185000000.0 -683912000000.0 -825065000000.0 -550996000000.0 -541544000000.0 -142996000000.0 -200226000000.0 -512063000000.0 -267794000000.0 -135415000000.0 -448254000000.0 -120824000000.0 -679807000000.0 -624443000000.0 -562051000000.0 -482888000000.0 -540944000000.0 -583247000000.0 -620370000000.0 -611369000000.0 -579572000000.0 -368562000000.0 -301219000000.0 -418356000000.0 -327171000000.0 -208549000000.0 -232760000000.0 -114917000000.0 -236161000000.0 -13478800000.0 -21518400000.0 -9035750000.0 -9035750000.0 -9035750000.0 -9035750000.0 -9035750000.0 -9035750000.0 -9035750000.0 -9035750000.0 -9035750000.0 -9774030000.0 -9035750000.0 -9035750000.0 -9035750000.0 -9035750000.0 -9035750000.0 -9035750000.0 -9035750000.0 -9035750000.0 -9035750000.0 -21518400000.0 -13478800000.0 -236161000000.0 -114917000000.0 -232760000000.0 -208549000000.0 -327171000000.0 -418356000000.0 -301219000000.0 -368562000000.0 -579572000000.0 -611369000000.0 -620370000000.0 -583247000000.0 -540944000000.0 -482888000000.0 -562051000000.0 -624443000000.0 -679807000000.0 -120824000000.0 -448254000000.0 -135415000000.0 -267794000000.0 -512063000000.0 -200226000000.0 -142996000000.0 -197541000000.0 -224672000000.0 -300281000000.0 -92665800000.0 -67183600000.0 -325839000000.0 -49581800000.0 -579472000000.0 -451529000000.0 -345206000000.0 -313275000000.0 -387997000000.0 -364371000000.0 -347126000000.0 -352141000000.0 -342899000000.0 -305330000000.0 -284317000000.0 -281319000000.0 -301420000000.0 -287913000000.0 -339341000000.0 -246134000000.0 -335117000000.0 -239217000000.0 -385772000000.0 -247356000000.0 -226476000000.0 -210320000000.0 -195146000000.0 -181576000000.0 -169676000000.0 -159414000000.0 -150861000000.0 -144154000000.0 -139373000000.0 -136524000000.0 -136168000000.0 -136524000000.0 -139373000000.0 -144154000000.0 -150861000000.0 -159414000000.0 -169676000000.0 -181576000000.0 -195146000000.0 -210320000000.0 -226476000000.0 -247356000000.0 -385772000000.0 -239217000000.0 -335117000000.0 -246134000000.0 -339341000000.0 -287913000000.0 -301420000000.0 -281319000000.0 -284317000000.0 -305330000000.0 -342899000000.0 -352141000000.0 -347126000000.0 -364371000000.0 -387997000000.0 -313275000000.0 -345206000000.0 -451529000000.0 -579472000000.0 -49581800000.0 -325839000000.0 -67183600000.0 -92665800000.0 -300281000000.0 -224672000000.0 -197541000000.0 -86738800000.0 -108998000000.0 -45100700000.0 -166748000000.0 -27980100000.0 -45813700000.0 -262999000000.0 -263575000000.0 -462248000000.0 -290411000000.0 -267121000000.0 -230874000000.0 -250218000000.0 -260384000000.0 -271238000000.0 -182567000000.0 -181955000000.0 -33279400000.0 -18393500000.0 -72232300000.0 -20387400000.0 -111105000000.0 -19052300000.0 -125424000000.0 -16670200000.0 -138354000000.0 -9242080000.0 -9035750000.0 -9035750000.0 -9035750000.0 -9035750000.0 -9035750000.0 -9035750000.0 -9035750000.0 -9035750000.0 -9035750000.0 -9035750000.0 -9511870000.0 -9035750000.0 -9035750000.0 -9035750000.0 -9035750000.0 -9035750000.0 -9035750000.0 -9035750000.0 -9035750000.0 -9035750000.0 -9035750000.0 -9242080000.0 -138354000000.0 -16670200000.0 -125424000000.0 -19052300000.0 -111105000000.0 -20387400000.0 -72232300000.0 -18393500000.0 -33279400000.0 -181955000000.0 -182567000000.0 -271238000000.0 -260384000000.0 -250218000000.0 -230874000000.0 -267121000000.0 -290411000000.0 -462248000000.0 -263575000000.0 -262999000000.0 -45813700000.0 -27980100000.0 -166748000000.0 -45100700000.0 -108998000000.0 -86738800000.0 -50172900000.0 -79654900000.0 -56987300000.0 -115040000000.0 -31833300000.0 -15427500000.0 -177838000000.0 -94666400000.0 -412503000000.0 -397303000000.0 -414004000000.0 -432967000000.0 -481933000000.0 -524742000000.0 -563677000000.0 -505370000000.0 -475397000000.0 -375582000000.0 -311349000000.0 -314586000000.0 -226139000000.0 -276513000000.0 -170491000000.0 -246539000000.0 -129579000000.0 -204297000000.0 -96647600000.0 -81070000000.0 -68456400000.0 -58150500000.0 -49845900000.0 -43248500000.0 -38092200000.0 -34157100000.0 -31269600000.0 -29297400000.0 -28148900000.0 -28144100000.0 -28148900000.0 -29297400000.0 -31269600000.0 -34157100000.0 -38092200000.0 -43248500000.0 -49845900000.0 -58150500000.0 -68456400000.0 -81070000000.0 -96647600000.0 -204297000000.0 -129579000000.0 -246539000000.0 -170491000000.0 -276513000000.0 -226139000000.0 -314586000000.0 -311349000000.0 -375582000000.0 -475397000000.0 -505370000000.0 -563677000000.0 -524742000000.0 -481933000000.0 -432967000000.0 -414004000000.0 -397303000000.0 -412503000000.0 -94666400000.0 -177838000000.0 -15427500000.0 -31833300000.0 -115040000000.0 -56987300000.0 -79654900000.0 -50172900000.0 -53916900000.0 -93766400000.0 -103129000000.0 -125949000000.0 -125153000000.0 -156230000000.0 -250620000000.0 -215884000000.0 -318201000000.0 -286840000000.0 -196784000000.0 -79657300000.0 -82301600000.0 -95374200000.0 -105216000000.0 -64772100000.0 -34937700000.0 -26141000000.0 -11481000000.0 -74200000000.0 -11248600000.0 -94004700000.0 -10725400000.0 -107248000000.0 -9800610000.0 -82386700000.0 -9050550000.0 -9035750000.0 -9035750000.0 -9035750000.0 -9035750000.0 -9035750000.0 -9035750000.0 -9035750000.0 -9035750000.0 -9035750000.0 -9035750000.0 -9327730000.0 -9035750000.0 -9035750000.0 -9035750000.0 -9035750000.0 -9035750000.0 -9035750000.0 -9035750000.0 -9035750000.0 -9035750000.0 -9035750000.0 -9050550000.0 -82386700000.0 -9800610000.0 -107248000000.0 -10725400000.0 -94004700000.0 -11248600000.0 -74200000000.0 -11481000000.0 -26141000000.0 -34937700000.0 -64772100000.0 -105216000000.0 -95374200000.0 -82301600000.0 -79657300000.0 -196784000000.0 -286840000000.0 -318201000000.0 -215884000000.0 -250620000000.0 -156230000000.0 -125153000000.0 -125949000000.0 -103129000000.0 -93766400000.0 -53916900000.0 -38238800000.0 -52546500000.0 -49581600000.0 -33718200000.0 -14955500000.0 -12242600000.0 -31334500000.0 -38773000000.0 -212252000000.0 -194399000000.0 -156052000000.0 -131102000000.0 -145825000000.0 -155318000000.0 -159556000000.0 -114044000000.0 -73412900000.0 -71597600000.0 -44452200000.0 -97524000000.0 -32076400000.0 -101441000000.0 -23114000000.0 -106432000000.0 -17286300000.0 -70331700000.0 -13553900000.0 -12308600000.0 -11388500000.0 -10714400000.0 -10221300000.0 -9862860000.0 -9605790000.0 -9418210000.0 -9286980000.0 -9203450000.0 -9155530000.0 -9366750000.0 -9155530000.0 -9203450000.0 -9286980000.0 -9418210000.0 -9605790000.0 -9862860000.0 -10221300000.0 -10714400000.0 -11388500000.0 -12308600000.0 -13553900000.0 -70331700000.0 -17286300000.0 -106432000000.0 -23114000000.0 -101441000000.0 -32076400000.0 -97524000000.0 -44452200000.0 -71597600000.0 -73412900000.0 -114044000000.0 -159556000000.0 -155318000000.0 -145825000000.0 -131102000000.0 -156052000000.0 -194399000000.0 -212252000000.0 -38773000000.0 -31334500000.0 -12242600000.0 -14955500000.0 -33718200000.0 -49581600000.0 -52546500000.0 -38238800000.0 -38934900000.0 -51085200000.0 -55348500000.0 -42467500000.0 -29137400000.0 -28330800000.0 -32891000000.0 -73351400000.0 -211257000000.0 -138992000000.0 -107527000000.0 -78948900000.0 -87883900000.0 -88034700000.0 -87633300000.0 -45652900000.0 -17645900000.0 -31158700000.0 -9112890000.0 -65719400000.0 -9035760000.0 -75750600000.0 -9035760000.0 -85786700000.0 -9035760000.0 -51388300000.0 -9035750000.0 -9035970000.0 -9035880000.0 -9035830000.0 -9035800000.0 -9035780000.0 -9035770000.0 -9035760000.0 -9035760000.0 -9035750000.0 -9035750000.0 -9212940000.0 -9035750000.0 -9035750000.0 -9035760000.0 -9035760000.0 -9035770000.0 -9035780000.0 -9035800000.0 -9035830000.0 -9035880000.0 -9035970000.0 -9035750000.0 -51388300000.0 -9035760000.0 -85786700000.0 -9035760000.0 -75750600000.0 -9035760000.0 -65719400000.0 -9112890000.0 -31158700000.0 -17645900000.0 -45652900000.0 -87633300000.0 -88034700000.0 -87883900000.0 -78948900000.0 -107527000000.0 -138992000000.0 -211257000000.0 -73351400000.0 -32891000000.0 -28330800000.0 -29137400000.0 -42467500000.0 -55348500000.0 -51085200000.0 -38934900000.0 -38160900000.0 -43521100000.0 -49206600000.0 -37259200000.0 -22600100000.0 -16848300000.0 -17761200000.0 -65788900000.0 -194789000000.0 -136023000000.0 -115986000000.0 -89738000000.0 -94392900000.0 -87416400000.0 -82195700000.0 -43636700000.0 -20287200000.0 -33992200000.0 -9479450000.0 -60916700000.0 -9035770000.0 -68037600000.0 -9035760000.0 -75731100000.0 -9035760000.0 -41591600000.0 -9035760000.0 -9035890000.0 -9035830000.0 -9035800000.0 -9035780000.0 -9035770000.0 -9035760000.0 -9035760000.0 -9035750000.0 -9035750000.0 -9035750000.0 -9173640000.0 -9035750000.0 -9035750000.0 -9035750000.0 -9035760000.0 -9035760000.0 -9035770000.0 -9035780000.0 -9035800000.0 -9035830000.0 -9035890000.0 -9035760000.0 -41591600000.0 -9035760000.0 -75731100000.0 -9035760000.0 -68037600000.0 -9035770000.0 -60916700000.0 -9479450000.0 -33992200000.0 -20287200000.0 -43636700000.0 -82195700000.0 -87416400000.0 -94392900000.0 -89738000000.0 -115986000000.0 -136023000000.0 -194789000000.0 -65788900000.0 -17761200000.0 -16848300000.0 -22600100000.0 -37259200000.0 -49206600000.0 -43521100000.0 -38160900000.0 -39171700000.0 -40857600000.0 -48384700000.0 -39581300000.0 -27130500000.0 -20335800000.0 -22363600000.0 -74872200000.0 -186436000000.0 -132088000000.0 -112647000000.0 -87310500000.0 -87618000000.0 -76537400000.0 -67588100000.0 -37880700000.0 -16977500000.0 -33465600000.0 -9035770000.0 -56113200000.0 -9035780000.0 -61134800000.0 -9035770000.0 -66413800000.0 -9035770000.0 -34091700000.0 -9035760000.0 -9035840000.0 -9035800000.0 -9035780000.0 -9035770000.0 -9035760000.0 -9035760000.0 -9035760000.0 -9035750000.0 -9035750000.0 -9035750000.0 -9142950000.0 -9035750000.0 -9035750000.0 -9035750000.0 -9035760000.0 -9035760000.0 -9035760000.0 -9035770000.0 -9035780000.0 -9035800000.0 -9035840000.0 -9035760000.0 -34091700000.0 -9035770000.0 -66413800000.0 -9035770000.0 -61134800000.0 -9035780000.0 -56113200000.0 -9035770000.0 -33465600000.0 -16977500000.0 -37880700000.0 -67588100000.0 -76537400000.0 -87618000000.0 -87310500000.0 -112647000000.0 -132088000000.0 -186436000000.0 -74872200000.0 -22363600000.0 -20335800000.0 -27130500000.0 -39581300000.0 -48384700000.0 -40857600000.0 -39171700000.0 -39819500000.0 -38517000000.0 -46207800000.0 -39623700000.0 -29382000000.0 -21747900000.0 -24537600000.0 -78950900000.0 -175628000000.0 -128968000000.0 -110668000000.0 -86872200000.0 -83261000000.0 -69641200000.0 -57440500000.0 -36883000000.0 -15538100000.0 -34012200000.0 -9035790000.0 -51386000000.0 -9035790000.0 -54997800000.0 -9035780000.0 -58016800000.0 -9035770000.0 -28305600000.0 -9035760000.0 -9035810000.0 -9035790000.0 -9035770000.0 -9035770000.0 -9035760000.0 -9035760000.0 -9035760000.0 -9035750000.0 -9035750000.0 -9035750000.0 -9119010000.0 -9035750000.0 -9035750000.0 -9035750000.0 -9035760000.0 -9035760000.0 -9035760000.0 -9035770000.0 -9035770000.0 -9035790000.0 -9035810000.0 -9035760000.0 -28305600000.0 -9035770000.0 -58016800000.0 -9035780000.0 -54997800000.0 -9035790000.0 -51386000000.0 -9035790000.0 -34012200000.0 -15538100000.0 -36883000000.0 -57440500000.0 -69641200000.0 -83261000000.0 -86872200000.0 -110668000000.0 -128968000000.0 -175628000000.0 -78950900000.0 -24537600000.0 -21747900000.0 -29382000000.0 -39623700000.0 -46207800000.0 -38517000000.0 -39819500000.0 -40210500000.0 -37116700000.0 -44250300000.0 -39292200000.0 -31480200000.0 -23841300000.0 -27532900000.0 -82504500000.0 -163217000000.0 -122973000000.0 -105771000000.0 -83783700000.0 -77220000000.0 -62739900000.0 -48429900000.0 -35876900000.0 -13857400000.0 -34126000000.0 -9035820000.0 -46863200000.0 -9035800000.0 -49546400000.0 -9035780000.0 -50582000000.0 -9035770000.0 -23819800000.0 -9035770000.0 -9035790000.0 -9035780000.0 -9035770000.0 -9035760000.0 -9035760000.0 -9035760000.0 -9035760000.0 -9035750000.0 -9035750000.0 -9035750000.0 -9100320000.0 -9035750000.0 -9035750000.0 -9035750000.0 -9035760000.0 -9035760000.0 -9035760000.0 -9035760000.0 -9035770000.0 -9035780000.0 -9035790000.0 -9035770000.0 -23819800000.0 -9035770000.0 -50582000000.0 -9035780000.0 -49546400000.0 -9035800000.0 -46863200000.0 -9035820000.0 -34126000000.0 -13857400000.0 -35876900000.0 -48429900000.0 -62739900000.0 -77220000000.0 -83783700000.0 -105771000000.0 -122973000000.0 -163217000000.0 -82504500000.0 -27532900000.0 -23841300000.0 -31480200000.0 -39292200000.0 -44250300000.0 -37116700000.0 -40210500000.0 -40205300000.0 -36213900000.0 -42399200000.0 -38410300000.0 -32740500000.0 -25679900000.0 -30196300000.0 -84613000000.0 -149995000000.0 -115672000000.0 -99453300000.0 -79095700000.0 -70277000000.0 -56207900000.0 -40752600000.0 -34457700000.0 -12327900000.0 -33827900000.0 -9035840000.0 -42638000000.0 -9035810000.0 -44693000000.0 -9035790000.0 -44086300000.0 -9035780000.0 -20336500000.0 -9035770000.0 -9035780000.0 -9035770000.0 -9035770000.0 -9035760000.0 -9035760000.0 -9035760000.0 -9035760000.0 -9035750000.0 -9035750000.0 -9035750000.0 -9085750000.0 -9035750000.0 -9035750000.0 -9035750000.0 -9035760000.0 -9035760000.0 -9035760000.0 -9035760000.0 -9035770000.0 -9035770000.0 -9035780000.0 -9035770000.0 -20336500000.0 -9035780000.0 -44086300000.0 -9035790000.0 -44693000000.0 -9035810000.0 -42638000000.0 -9035840000.0 -33827900000.0 -12327900000.0 -34457700000.0 -40752600000.0 -56207900000.0 -70277000000.0 -79095700000.0 -99453300000.0 -115672000000.0 -149995000000.0 -84613000000.0 -30196300000.0 -25679900000.0 -32740500000.0 -38410300000.0 -42399200000.0 -36213900000.0 -40205300000.0 -39865300000.0 -35673800000.0 -40796900000.0 -37237600000.0 -33284000000.0 -27259200000.0 -32504400000.0 -85239500000.0 -136596000000.0 -107514000000.0 -92189500000.0 -73456700000.0 -63040900000.0 -50263100000.0 -34376100000.0 -32744200000.0 -11114400000.0 -33160800000.0 -9035860000.0 -38757200000.0 -9035820000.0 -40360300000.0 -9035800000.0 -38467300000.0 -9035780000.0 -17636300000.0 -9035770000.0 -9035780000.0 -9035770000.0 -9035760000.0 -9035760000.0 -9035760000.0 -9035760000.0 -9035760000.0 -9035750000.0 -9035750000.0 -9035750000.0 -9074400000.0 -9035750000.0 -9035750000.0 -9035750000.0 -9035760000.0 -9035760000.0 -9035760000.0 -9035760000.0 -9035760000.0 -9035770000.0 -9035780000.0 -9035770000.0 -17636300000.0 -9035780000.0 -38467300000.0 -9035800000.0 -40360300000.0 -9035820000.0 -38757200000.0 -9035860000.0 -33160800000.0 -11114400000.0 -32744200000.0 -34376100000.0 -50263100000.0 -63040900000.0 -73456700000.0 -92189500000.0 -107514000000.0 -136596000000.0 -85239500000.0 -32504400000.0 -27259200000.0 -33284000000.0 -37237600000.0 -40796900000.0 -35673800000.0 -39865300000.0 -55968300000.0 -45008700000.0 -29171500000.0 -30946200000.0 -10244500000.0 -32184300000.0 -9035870000.0 -35241000000.0 -9035830000.0 -36485700000.0 -9035800000.0 -33640700000.0 -9035790000.0 -15550900000.0 -9035770000.0 -9035770000.0 -9035770000.0 -9035760000.0 -9035760000.0 -9035760000.0 -9035760000.0 -9035760000.0 -9035750000.0 -9035750000.0 -9035750000.0 -9065560000.0 -9035750000.0 -9035750000.0 -9035750000.0 -9035760000.0 -9035760000.0 -9035760000.0 -9035760000.0 -9035760000.0 -9035770000.0 -9035770000.0 -9035770000.0 -15550900000.0 -9035790000.0 -33640700000.0 -9035800000.0 -36485700000.0 -9035830000.0 -35241000000.0 -9035870000.0 -32184300000.0 -10244500000.0 -30946200000.0 -29171500000.0 -45008700000.0 -55968300000.0 -39277700000.0 -35397800000.0 -39473100000.0 -35946100000.0 -33274100000.0 -28580200000.0 -34443600000.0 -84499400000.0 -123576000000.0 -99084400000.0 -84551800000.0 -67455400000.0 -67455400000.0 -84551800000.0 -99084400000.0 -123576000000.0 -84499400000.0 -34443600000.0 -28580200000.0 -33274100000.0 -35946100000.0 -39473100000.0 -35397800000.0 -39277700000.0 -38524900000.0 -35305600000.0 -38380400000.0 -34627600000.0 -32860400000.0 -29649300000.0 -36011400000.0 -82632800000.0 -111310000000.0 -90814500000.0 -76971100000.0 -61521100000.0 -49367500000.0 -40467800000.0 -24974500000.0 -29215700000.0 -9670610000.0 -30970800000.0 -9035880000.0 -32094900000.0 -9035840000.0 -33018300000.0 -9035810000.0 -29517400000.0 -9035790000.0 -13947300000.0 -9035780000.0 -9035770000.0 -9035770000.0 -9035770000.0 -9035760000.0 -9035760000.0 -9035760000.0 -9035760000.0 -9035750000.0 -9035750000.0 -9035750000.0 -9058680000.0 -9035750000.0 -9035750000.0 -9035750000.0 -9035760000.0 -9035760000.0 -9035760000.0 -9035760000.0 -9035770000.0 -9035770000.0 -9035770000.0 -9035780000.0 -13947300000.0 -9035790000.0 -29517400000.0 -9035810000.0 -33018300000.0 -9035840000.0 -32094900000.0 -9035880000.0 -30970800000.0 -9670610000.0 -29215700000.0 -24974500000.0 -40467800000.0 -49367500000.0 -61521100000.0 -76971100000.0 -90814500000.0 -111310000000.0 -82632800000.0 -36011400000.0 -29649300000.0 -32860400000.0 -34627600000.0 -38380400000.0 -35305600000.0 -38524900000.0 -37672900000.0 -35316300000.0 -37439700000.0 -33322400000.0 -32161100000.0 -30476300000.0 -37214200000.0 -79907800000.0 -100019000000.0 -82996700000.0 -69745100000.0 -55931700000.0 -43411600000.0 -36601800000.0 -21613900000.0 -27632300000.0 -9327810000.0 -29596700000.0 -9035890000.0 -29308700000.0 -9035840000.0 -29915700000.0 -9035810000.0 -26012300000.0 -9035790000.0 -12719400000.0 -9035780000.0 -9035770000.0 -9035770000.0 -9035770000.0 -9035760000.0 -9035760000.0 -9035760000.0 -9035760000.0 -9035750000.0 -9035750000.0 -9035750000.0 -9053340000.0 -9035750000.0 -9035750000.0 -9035750000.0 -9035760000.0 -9035760000.0 -9035760000.0 -9035760000.0 -9035770000.0 -9035770000.0 -9035770000.0 -9035780000.0 -12719400000.0 -9035790000.0 -26012300000.0 -9035810000.0 -29915700000.0 -9035840000.0 -29308700000.0 -9035890000.0 -29596700000.0 -9327810000.0 -27632300000.0 -21613900000.0 -36601800000.0 -43411600000.0 -55931700000.0 -69745100000.0 -82996700000.0 -100019000000.0 -79907800000.0 -37214200000.0 -30476300000.0 -32161100000.0 -33322400000.0 -37439700000.0 -35316300000.0 -37672900000.0 -36768200000.0 -35347800000.0 -36577800000.0 -32049800000.0 -31268000000.0 -31074600000.0 -38066000000.0 -76570200000.0 -89811100000.0 -75803200000.0 -63056500000.0 -50840200000.0 -38170700000.0 -33331200000.0 -18929300000.0 -26221000000.0 -9150430000.0 -28133100000.0 -9035900000.0 -26855800000.0 -9035850000.0 -27142300000.0 -9035810000.0 -23047200000.0 -9035790000.0 -11783100000.0 -9035780000.0 -9035780000.0 -9035770000.0 -9035770000.0 -9035760000.0 -9035760000.0 -9035760000.0 -9035760000.0 -9035750000.0 -9035750000.0 -9035750000.0 -9049210000.0 -9035750000.0 -9035750000.0 -9035750000.0 -9035760000.0 -9035760000.0 -9035760000.0 -9035760000.0 -9035770000.0 -9035770000.0 -9035780000.0 -9035780000.0 -11783100000.0 -9035790000.0 -23047200000.0 -9035810000.0 -27142300000.0 -9035850000.0 -26855800000.0 -9035900000.0 -28133100000.0 -9150430000.0 -26221000000.0 -18929300000.0 -33331200000.0 -38170700000.0 -50840200000.0 -63056500000.0 -75803200000.0 -89811100000.0 -76570200000.0 -38066000000.0 -31074600000.0 -31268000000.0 -32049800000.0 -36577800000.0 -35347800000.0 -36768200000.0 -35838000000.0 -35328700000.0 -35742800000.0 -30823700000.0 -30251500000.0 -31459100000.0 -38586400000.0 -72829500000.0 -80700500000.0 -69309700000.0 -56994200000.0 -46305800000.0 -33643800000.0 -30563300000.0 -16780900000.0 -24972100000.0 -9073780000.0 -26638100000.0 -9035910000.0 -24699600000.0 -9035860000.0 -24668400000.0 -9035820000.0 -20550200000.0 -9035800000.0 -11072000000.0 -9035780000.0 -9035780000.0 -9035770000.0 -9035770000.0 -9035760000.0 -9035760000.0 -9035760000.0 -9035760000.0 -9035760000.0 -9035750000.0 -9035750000.0 -9046000000.0 -9035750000.0 -9035750000.0 -9035760000.0 -9035760000.0 -9035760000.0 -9035760000.0 -9035760000.0 -9035770000.0 -9035770000.0 -9035780000.0 -9035780000.0 -11072000000.0 -9035800000.0 -20550200000.0 -9035820000.0 -24668400000.0 -9035860000.0 -24699600000.0 -9035910000.0 -26638100000.0 -9073780000.0 -24972100000.0 -16780900000.0 -30563300000.0 -33643800000.0 -46305800000.0 -56994200000.0 -69309700000.0 -80700500000.0 -72829500000.0 -38586400000.0 -31459100000.0 -30251500000.0 -30823700000.0 -35742800000.0 -35328700000.0 -35838000000.0 -34895700000.0 -35207200000.0 -34904200000.0 -29653000000.0 -29163500000.0 -31646400000.0 -38799500000.0 -68858100000.0 -72640800000.0 -63521200000.0 -51577100000.0 -42322800000.0 -29783300000.0 -28212400000.0 -15054800000.0 -23858600000.0 -9046490000.0 -25155700000.0 -9035920000.0 -22801500000.0 -9035860000.0 -22468400000.0 -9035820000.0 -18456200000.0 -9035800000.0 -10534300000.0 -9035780000.0 -9035780000.0 -9035770000.0 -9035770000.0 -9035760000.0 -9035760000.0 -9035760000.0 -9035760000.0 -9035760000.0 -9035750000.0 -9035750000.0 -9043540000.0 -9035750000.0 -9035750000.0 -9035760000.0 -9035760000.0 -9035760000.0 -9035760000.0 -9035760000.0 -9035770000.0 -9035770000.0 -9035780000.0 -9035780000.0 -10534300000.0 -9035800000.0 -18456200000.0 -9035820000.0 -22468400000.0 -9035860000.0 -22801500000.0 -9035920000.0 -25155700000.0 -9046490000.0 -23858600000.0 -15054800000.0 -28212400000.0 -29783300000.0 -42322800000.0 -51577100000.0 -63521200000.0 -72640800000.0 -68858100000.0 -38799500000.0 -31646400000.0 -29163500000.0 -29653000000.0 -34904200000.0 -35207200000.0 -34895700000.0 -33945700000.0 -34953500000.0 -34046000000.0 -28540300000.0 -28040600000.0 -31653800000.0 -38732100000.0 -64793600000.0 -65545800000.0 -58396200000.0 -46778000000.0 -38846600000.0 -26515000000.0 -26204400000.0 -13663400000.0 -22849200000.0 -9038490000.0 -23717200000.0 -9035930000.0 -21125900000.0 -9035860000.0 -20519400000.0 -9035820000.0 -16707300000.0 -9035800000.0 -10129800000.0 -9035780000.0 -9035780000.0 -9035770000.0 -9035770000.0 -9035760000.0 -9035760000.0 -9035760000.0 -9035760000.0 -9035760000.0 -9035750000.0 -9035750000.0 -9041640000.0 -9035750000.0 -9035750000.0 -9035760000.0 -9035760000.0 -9035760000.0 -9035760000.0 -9035760000.0 -9035770000.0 -9035770000.0 -9035780000.0 -9035780000.0 -10129800000.0 -9035800000.0 -16707300000.0 -9035820000.0 -20519400000.0 -9035860000.0 -21125900000.0 -9035930000.0 -23717200000.0 -9038490000.0 -22849200000.0 -13663400000.0 -26204400000.0 -26515000000.0 -38846600000.0 -46778000000.0 -58396200000.0 -65545800000.0 -64793600000.0 -38732100000.0 -31653800000.0 -28040600000.0 -28540300000.0 -34046000000.0 -34953500000.0 -33945700000.0 -32989100000.0 -34556200000.0 -33161600000.0 -27482300000.0 -26907800000.0 -31498600000.0 -38413000000.0 -60742000000.0 -59310900000.0 -53867400000.0 -42543300000.0 -35814100000.0 -23755300000.0 -24475600000.0 -12543600000.0 -21915300000.0 -9036540000.0 -22343700000.0 -9035930000.0 -19642100000.0 -9035870000.0 -18800500000.0 -9035820000.0 -15252500000.0 -9035800000.0 -9827310000.0 -9035780000.0 -9035780000.0 -9035770000.0 -9035770000.0 -9035760000.0 -9035760000.0 -9035760000.0 -9035760000.0 -9035760000.0 -9035750000.0 -9035750000.0 -9040180000.0 -9035750000.0 -9035750000.0 -9035760000.0 -9035760000.0 -9035760000.0 -9035760000.0 -9035760000.0 -9035770000.0 -9035770000.0 -9035780000.0 -9035780000.0 -9827310000.0 -9035800000.0 -15252500000.0 -9035820000.0 -18800500000.0 -9035870000.0 -19642100000.0 -9035930000.0 -22343700000.0 -9036540000.0 -21915300000.0 -12543600000.0 -24475600000.0 -23755300000.0 -35814100000.0 -42543300000.0 -53867400000.0 -59310900000.0 -60742000000.0 -38413000000.0 -31498600000.0 -26907800000.0 -27482300000.0 -33161600000.0 -34556200000.0 -32989100000.0 -32026000000.0 -34017700000.0 -32249400000.0 -26472200000.0 -25782700000.0 -31197900000.0 -37871500000.0 -56782700000.0 -53827200000.0 -49857000000.0 -38808400000.0 -33158100000.0 -21424400000.0 -22972500000.0 -11650200000.0 -21035000000.0 -9036140000.0 -21048400000.0 -9035940000.0 -18324400000.0 -9035870000.0 -17292300000.0 -9035830000.0 -14047500000.0 -9035800000.0 -9602700000.0 -9035780000.0 -9035780000.0 -9035770000.0 -9035770000.0 -9035760000.0 -9035760000.0 -9035760000.0 -9035760000.0 -9035760000.0 -9035750000.0 -9035750000.0 -9039070000.0 -9035750000.0 -9035750000.0 -9035760000.0 -9035760000.0 -9035760000.0 -9035760000.0 -9035760000.0 -9035770000.0 -9035770000.0 -9035780000.0 -9035780000.0 -9602700000.0 -9035800000.0 -14047500000.0 -9035830000.0 -17292300000.0 -9035870000.0 -18324400000.0 -9035940000.0 -21048400000.0 -9036140000.0 -21035000000.0 -11650200000.0 -22972500000.0 -21424400000.0 -33158100000.0 -38808400000.0 -49857000000.0 -53827200000.0 -56782700000.0 -37871500000.0 -31197900000.0 -25782700000.0 -26472200000.0 -32249400000.0 -34017700000.0 -32026000000.0 -31056600000.0 -33348500000.0 -31311100000.0 -25502600000.0 -24677300000.0 -30768300000.0 -37136700000.0 -52971900000.0 -48991000000.0 -46286700000.0 -35506700000.0 -30815300000.0 -19451700000.0 -21652700000.0 -10948200000.0 -20193300000.0 -9036070000.0 -19838000000.0 -9035940000.0 -17151900000.0 -9035870000.0 -15976400000.0 -9035830000.0 -13053900000.0 -9035800000.0 -9437360000.0 -9035780000.0 -9035780000.0 -9035770000.0 -9035770000.0 -9035760000.0 -9035760000.0 -9035760000.0 -9035760000.0 -9035760000.0 -9035750000.0 -9035750000.0 -9038220000.0 -9035750000.0 -9035750000.0 -9035760000.0 -9035760000.0 -9035760000.0 -9035760000.0 -9035760000.0 -9035770000.0 -9035770000.0 -9035780000.0 -9035780000.0 -9437360000.0 -9035800000.0 -13053900000.0 -9035830000.0 -15976400000.0 -9035870000.0 -17151900000.0 -9035940000.0 -19838000000.0 -9036070000.0 -20193300000.0 -10948200000.0 -21652700000.0 -19451700000.0 -30815300000.0 -35506700000.0 -46286700000.0 -48991000000.0 -52971900000.0 -37136700000.0 -30768300000.0 -24677300000.0 -25502600000.0 -31311100000.0 -33348500000.0 -31056600000.0 -30081900000.0 -32563600000.0 -30349900000.0 -24566500000.0 -23600100000.0 -30225200000.0 -36237000000.0 -49347100000.0 -44709400000.0 -43084600000.0 -32576700000.0 -28731100000.0 -17777600000.0 -20483900000.0 -10407400000.0 -19381400000.0 -9036060000.0 -18715400000.0 -9035940000.0 -16107300000.0 -9035870000.0 -14835200000.0 -9035830000.0 -12238700000.0 -9035800000.0 -9316840000.0 -9035780000.0 -9035780000.0 -9035770000.0 -9035770000.0 -9035760000.0 -9035760000.0 -9035760000.0 -9035760000.0 -9035760000.0 -9035750000.0 -9035750000.0 -9037580000.0 -9035750000.0 -9035750000.0 -9035760000.0 -9035760000.0 -9035760000.0 -9035760000.0 -9035760000.0 -9035770000.0 -9035770000.0 -9035780000.0 -9035780000.0 -9316840000.0 -9035800000.0 -12238700000.0 -9035830000.0 -14835200000.0 -9035870000.0 -16107300000.0 -9035940000.0 -18715400000.0 -9036060000.0 -19381400000.0 -10407400000.0 -20483900000.0 -17777600000.0 -28731100000.0 -32576700000.0 -43084600000.0 -44709400000.0 -49347100000.0 -36237000000.0 -30225200000.0 -23600100000.0 -24566500000.0 -30349900000.0 -32563600000.0 -30081900000.0 -29102900000.0 -31679700000.0 -29370000000.0 -23658400000.0 -22557000000.0 -29583200000.0 -35199100000.0 -45930600000.0 -40901900000.0 -40188500000.0 -29964300000.0 -26860500000.0 -16353100000.0 -19442100000.0 -9999850000.0 -18595600000.0 -9036060000.0 -17679900000.0 -9035940000.0 -15176700000.0 -9035870000.0 -13851900000.0 -9035830000.0 -11573600000.0 -9035800000.0 -9229960000.0 -9035780000.0 -9035780000.0 -9035770000.0 -9035770000.0 -9035760000.0 -9035760000.0 -9035760000.0 -9035760000.0 -9035760000.0 -9035750000.0 -9035750000.0 -9037090000.0 -9035750000.0 -9035750000.0 -9035760000.0 -9035760000.0 -9035760000.0 -9035760000.0 -9035760000.0 -9035770000.0 -9035770000.0 -9035780000.0 -9035780000.0 -9229960000.0 -9035800000.0 -11573600000.0 -9035830000.0 -13851900000.0 -9035870000.0 -15176700000.0 -9035940000.0 -17679900000.0 -9036060000.0 -18595600000.0 -9999850000.0 -19442100000.0 -16353100000.0 -26860500000.0 -29964300000.0 -40188500000.0 -40901900000.0 -45930600000.0 -35199100000.0 -29583200000.0 -22557000000.0 -23658400000.0 -29370000000.0 -31679700000.0 -29102900000.0 -28121000000.0 -30713700000.0 -28375500000.0 -22774600000.0 -21552100000.0 -28856000000.0 -34048500000.0 -42732800000.0 -37501200000.0 -37546900000.0 -27624600000.0 -25168300000.0 -15139000000.0 -18508300000.0 -9699550000.0 -17835600000.0 -9036060000.0 -16729300000.0 -9035940000.0 -14348500000.0 -9035870000.0 -13010100000.0 -9035830000.0 -11034000000.0 -9035800000.0 -9168100000.0 -9035780000.0 -9035780000.0 -9035770000.0 -9035770000.0 -9035760000.0 -9035760000.0 -9035760000.0 -9035760000.0 -9035760000.0 -9035750000.0 -9035750000.0 -9036730000.0 -9035750000.0 -9035750000.0 -9035760000.0 -9035760000.0 -9035760000.0 -9035760000.0 -9035760000.0 -9035770000.0 -9035770000.0 -9035780000.0 -9035780000.0 -9168100000.0 -9035800000.0 -11034000000.0 -9035830000.0 -13010100000.0 -9035870000.0 -14348500000.0 -9035940000.0 -16729300000.0 -9036060000.0 -17835600000.0 -9699550000.0 -18508300000.0 -15139000000.0 -25168300000.0 -27624600000.0 -37546900000.0 -37501200000.0 -42732800000.0 -34048500000.0 -28856000000.0 -21552100000.0 -22774600000.0 -28375500000.0 -30713700000.0 -28121000000.0 -27137700000.0 -29681500000.0 -27370400000.0 -21912700000.0 -20588000000.0 -28055900000.0 -32808500000.0 -39755100000.0 -34451100000.0 -35118400000.0 -25521200000.0 -23627800000.0 -14103900000.0 -17666700000.0 -9483310000.0 -17102700000.0 -9036060000.0 -15860200000.0 -9035930000.0 -13613000000.0 -9035870000.0 -12294400000.0 -9035820000.0 -10598900000.0 -9035800000.0 -9124620000.0 -9035780000.0 -9035780000.0 -9035770000.0 -9035770000.0 -9035760000.0 -9035760000.0 -9035760000.0 -9035760000.0 -9035760000.0 -9035750000.0 -9035750000.0 -9036460000.0 -9035750000.0 -9035750000.0 -9035760000.0 -9035760000.0 -9035760000.0 -9035760000.0 -9035760000.0 -9035770000.0 -9035770000.0 -9035780000.0 -9035780000.0 -9124620000.0 -9035800000.0 -10598900000.0 -9035820000.0 -12294400000.0 -9035870000.0 -13613000000.0 -9035930000.0 -15860200000.0 -9036060000.0 -17102700000.0 -9483310000.0 -17666700000.0 -14103900000.0 -23627800000.0 -25521200000.0 -35118400000.0 -34451100000.0 -39755100000.0 -32808500000.0 -28055900000.0 -20588000000.0 -21912700000.0 -27370400000.0 -29681500000.0 -27137700000.0 -26154100000.0 -28598100000.0 -26358500000.0 -21071300000.0 -19666300000.0 -27194300000.0 -31500500000.0 -36992000000.0 -31705800000.0 -32870900000.0 -23624800000.0 -22218400000.0 -13223000000.0 -16903300000.0 -9331130000.0 -16399400000.0 -9036050000.0 -15068400000.0 -9035930000.0 -12961900000.0 -9035860000.0 -11690100000.0 -9035820000.0 -10250300000.0 -9035800000.0 -9094500000.0 -9035780000.0 -9035780000.0 -9035770000.0 -9035770000.0 -9035760000.0 -9035760000.0 -9035760000.0 -9035760000.0 -9035760000.0 -9035750000.0 -9035750000.0 -9036260000.0 -9035750000.0 -9035750000.0 -9035760000.0 -9035760000.0 -9035760000.0 -9035760000.0 -9035760000.0 -9035770000.0 -9035770000.0 -9035780000.0 -9035780000.0 -9094500000.0 -9035800000.0 -10250300000.0 -9035820000.0 -11690100000.0 -9035860000.0 -12961900000.0 -9035930000.0 -15068400000.0 -9036050000.0 -16399400000.0 -9331130000.0 -16903300000.0 -13223000000.0 -22218400000.0 -23624800000.0 -32870900000.0 -31705800000.0 -36992000000.0 -31500500000.0 -27194300000.0 -19666300000.0 -21071300000.0 -26358500000.0 -28598100000.0 -26154100000.0 -25171100000.0 -27476800000.0 -25342700000.0 -20249900000.0 -18787600000.0 -26281600000.0 -30144000000.0 -34433300000.0 -29227800000.0 -30779600000.0 -21912600000.0 -20924900000.0 -12475600000.0 -16206200000.0 -9226470000.0 -15727900000.0 -9036040000.0 -14349500000.0 -9035930000.0 -12387600000.0 -9035860000.0 -11183700000.0 -9035820000.0 -9972860000.0 -9035800000.0 -9073950000.0 -9035780000.0 -9035780000.0 -9035770000.0 -9035770000.0 -9035760000.0 -9035760000.0 -9035760000.0 -9035760000.0 -9035750000.0 -9035750000.0 -9035750000.0 -9036120000.0 -9035750000.0 -9035750000.0 -9035750000.0 -9035760000.0 -9035760000.0 -9035760000.0 -9035760000.0 -9035770000.0 -9035770000.0 -9035780000.0 -9035780000.0 -9073950000.0 -9035800000.0 -9972860000.0 -9035820000.0 -11183700000.0 -9035860000.0 -12387600000.0 -9035930000.0 -14349500000.0 -9036040000.0 -15727900000.0 -9226470000.0 -16206200000.0 -12475600000.0 -20924900000.0 -21912600000.0 -30779600000.0 -29227800000.0 -34433300000.0 -30144000000.0 -26281600000.0 -18787600000.0 -20249900000.0 -25342700000.0 -27476800000.0 -25171100000.0 -24189300000.0 -26329200000.0 -24325600000.0 -19448300000.0 -17951900000.0 -25327000000.0 -28755900000.0 -32065600000.0 -26986200000.0 -28825700000.0 -20365900000.0 -19735200000.0 -11844700000.0 -15565100000.0 -9156160000.0 -15090400000.0 -9036030000.0 -13698700000.0 -9035920000.0 -11883300000.0 -9035860000.0 -10762300000.0 -9035820000.0 -9753490000.0 -9035800000.0 -9060150000.0 -9035780000.0 -9035770000.0 -9035770000.0 -9035770000.0 -9035760000.0 -9035760000.0 -9035760000.0 -9035760000.0 -9035750000.0 -9035750000.0 -9035750000.0 -9036010000.0 -9035750000.0 -9035750000.0 -9035750000.0 -9035760000.0 -9035760000.0 -9035760000.0 -9035760000.0 -9035770000.0 -9035770000.0 -9035770000.0 -9035780000.0 -9060150000.0 -9035800000.0 -9753490000.0 -9035820000.0 -10762300000.0 -9035860000.0 -11883300000.0 -9035920000.0 -13698700000.0 -9036030000.0 -15090400000.0 -9156160000.0 -15565100000.0 -11844700000.0 -19735200000.0 -20365900000.0 -28825700000.0 -26986200000.0 -32065600000.0 -28755900000.0 -25327000000.0 -17951900000.0 -19448300000.0 -24325600000.0 -26329200000.0 -24189300000.0 -23208900000.0 -25165300000.0 -23309300000.0 -18666500000.0 -17158600000.0 -24338800000.0 -27351400000.0 -29873600000.0 -24955000000.0 -26994700000.0 -18969800000.0 -18639600000.0 -11315300000.0 -14971300000.0 -9110030000.0 -14488200000.0 -9036020000.0 -13111600000.0 -9035910000.0 -11442600000.0 -9035850000.0 -10414200000.0 -9035820000.0 -9581290000.0 -9035790000.0 -9051050000.0 -9035780000.0 -9035770000.0 -9035770000.0 -9035770000.0 -9035760000.0 -9035760000.0 -9035760000.0 -9035760000.0 -9035750000.0 -9035750000.0 -9035750000.0 -9035930000.0 -9035750000.0 -9035750000.0 -9035750000.0 -9035760000.0 -9035760000.0 -9035760000.0 -9035760000.0 -9035770000.0 -9035770000.0 -9035770000.0 -9035780000.0 -9051050000.0 -9035790000.0 -9581290000.0 -9035820000.0 -10414200000.0 -9035850000.0 -11442600000.0 -9035910000.0 -13111600000.0 -9036020000.0 -14488200000.0 -9110030000.0 -14971300000.0 -11315300000.0 -18639600000.0 -18969800000.0 -26994700000.0 -24955000000.0 -29873600000.0 -27351400000.0 -24338800000.0 -17158600000.0 -18666500000.0 -23309300000.0 -25165300000.0 -23208900000.0 -22229700000.0 -23993400000.0 -22295200000.0 -17904200000.0 -16406500000.0 -23324300000.0 -25942900000.0 -27841100000.0 -23112200000.0 -25275100000.0 -17711200000.0 -17629600000.0 -10873800000.0 -14417700000.0 -9080510000.0 -13922100000.0 -9036010000.0 -12583400000.0 -9035910000.0 -11059400000.0 -9035850000.0 -10128900000.0 -9035810000.0 -9447130000.0 -9035790000.0 -9045160000.0 -9035780000.0 -9035770000.0 -9035770000.0 -9035770000.0 -9035760000.0 -9035760000.0 -9035760000.0 -9035760000.0 -9035750000.0 -9035750000.0 -9035750000.0 -9035880000.0 -9035750000.0 -9035750000.0 -9035750000.0 -9035760000.0 -9035760000.0 -9035760000.0 -9035760000.0 -9035770000.0 -9035770000.0 -9035770000.0 -9035780000.0 -9045160000.0 -9035790000.0 -9447130000.0 -9035810000.0 -10128900000.0 -9035850000.0 -11059400000.0 -9035910000.0 -12583400000.0 -9036010000.0 -13922100000.0 -9080510000.0 -14417700000.0 -10873800000.0 -17629600000.0 -17711200000.0 -25275100000.0 -23112200000.0 -27841100000.0 -25942900000.0 -23324300000.0 -16406500000.0 -17904200000.0 -22295200000.0 -23993400000.0 -22229700000.0 -21251600000.0 -22820300000.0 -21284400000.0 -17161300000.0 -15693800000.0 -22289700000.0 -24541000000.0 -25951900000.0 -21438800000.0 -23657500000.0 -16578600000.0 -16697800000.0 -10508400000.0 -13898600000.0 -9062080000.0 -13391800000.0 -9036000000.0 -12109600000.0 -9035900000.0 -10727900000.0 -9035840000.0 -9896590000.0 -9035810000.0 -9343420000.0 -9035790000.0 -9041420000.0 -9035780000.0 -9035770000.0 -9035770000.0 -9035760000.0 -9035760000.0 -9035760000.0 -9035760000.0 -9035760000.0 -9035750000.0 -9035750000.0 -9035750000.0 -9035840000.0 -9035750000.0 -9035750000.0 -9035750000.0 -9035760000.0 -9035760000.0 -9035760000.0 -9035760000.0 -9035760000.0 -9035770000.0 -9035770000.0 -9035780000.0 -9041420000.0 -9035790000.0 -9343420000.0 -9035810000.0 -9896590000.0 -9035840000.0 -10727900000.0 -9035900000.0 -12109600000.0 -9036000000.0 -13391800000.0 -9062080000.0 -13898600000.0 -10508400000.0 -16697800000.0 -16578600000.0 -23657500000.0 -21438800000.0 -25951900000.0 -24541000000.0 -22289700000.0 -15693800000.0 -17161300000.0 -21284400000.0 -22820300000.0 -21251600000.0 -20274000000.0 -21651300000.0 -20277800000.0 -16436900000.0 -15018500000.0 -21240500000.0 -23154000000.0 -24190000000.0 -19917800000.0 -22133900000.0 -15561500000.0 -15837000000.0 -10208100000.0 -13409200000.0 -9050880000.0 -12896800000.0 -9035980000.0 -11685800000.0 -9035890000.0 -10442600000.0 -9035840000.0 -9708940000.0 -9035810000.0 -9263910000.0 -9035790000.0 -9039090000.0 -9035770000.0 -9035770000.0 -9035770000.0 -9035760000.0 -9035760000.0 -9035760000.0 -9035760000.0 -9035760000.0 -9035750000.0 -9035750000.0 -9035750000.0 -9035810000.0 -9035750000.0 -9035750000.0 -9035750000.0 -9035760000.0 -9035760000.0 -9035760000.0 -9035760000.0 -9035760000.0 -9035770000.0 -9035770000.0 -9035770000.0 -9039090000.0 -9035790000.0 -9263910000.0 -9035810000.0 -9708940000.0 -9035840000.0 -10442600000.0 -9035890000.0 -11685800000.0 -9035980000.0 -12896800000.0 -9050880000.0 -13409200000.0 -10208100000.0 -15837000000.0 -15561500000.0 -22133900000.0 -19917800000.0 -24190000000.0 -23154000000.0 -21240500000.0 -15018500000.0 -16436900000.0 -20277800000.0 -21651300000.0 -20274000000.0 -19296600000.0 -20490300000.0 -19275600000.0 -15730200000.0 -14378200000.0 -20181100000.0 -21788400000.0 -22540100000.0 -18533500000.0 -20696700000.0 -14649700000.0 -15040500000.0 -9962890000.0 -12945900000.0 -9044250000.0 -12435800000.0 -9035970000.0 -11307400000.0 -9035880000.0 -10198200000.0 -9035830000.0 -9558410000.0 -9035800000.0 -9203460000.0 -9035780000.0 -9037680000.0 -9035770000.0 -9035770000.0 -9035770000.0 -9035760000.0 -9035760000.0 -9035760000.0 -9035760000.0 -9035760000.0 -9035750000.0 -9035750000.0 -9035750000.0 -9035790000.0 -9035750000.0 -9035750000.0 -9035750000.0 -9035760000.0 -9035760000.0 -9035760000.0 -9035760000.0 -9035760000.0 -9035770000.0 -9035770000.0 -9035770000.0 -9037680000.0 -9035780000.0 -9203460000.0 -9035800000.0 -9558410000.0 -9035830000.0 -10198200000.0 -9035880000.0 -11307400000.0 -9035970000.0 -12435800000.0 -9044250000.0 -12945900000.0 -9962890000.0 -15040500000.0 -14649700000.0 -20696700000.0 -18533500000.0 -22540100000.0 -21788400000.0 -20181100000.0 -14378200000.0 -15730200000.0 -19275600000.0 -20490300000.0 -19296600000.0 -18319000000.0 -19340100000.0 -18278100000.0 -15040000000.0 -13770000000.0 -19115200000.0 -20448400000.0 -20987900000.0 -17271800000.0 -19338800000.0 -13833200000.0 -14301700000.0 -9764030000.0 -12505400000.0 -9040440000.0 -12007000000.0 -9035950000.0 -10970200000.0 -9035870000.0 -9989860000.0 -9035820000.0 -9438510000.0 -9035800000.0 -9157910000.0 -9035780000.0 -9036840000.0 -9035770000.0 -9035770000.0 -9035760000.0 -9035760000.0 -9035760000.0 -9035760000.0 -9035760000.0 -9035760000.0 -9035750000.0 -9035750000.0 -9035750000.0 -9035780000.0 -9035750000.0 -9035750000.0 -9035750000.0 -9035760000.0 -9035760000.0 -9035760000.0 -9035760000.0 -9035760000.0 -9035760000.0 -9035770000.0 -9035770000.0 -9036840000.0 -9035780000.0 -9157910000.0 -9035800000.0 -9438510000.0 -9035820000.0 -9989860000.0 -9035870000.0 -10970200000.0 -9035950000.0 -12007000000.0 -9040440000.0 -12505400000.0 -9764030000.0 -14301700000.0 -13833200000.0 -19338800000.0 -17271800000.0 -20987900000.0 -20448400000.0 -19115200000.0 -13770000000.0 -15040000000.0 -18278100000.0 -19340100000.0 -18319000000.0 -17340700000.0 -18202500000.0 -17285400000.0 -14364900000.0 -13191100000.0 -18045700000.0 -19136900000.0 -19520400000.0 -16119000000.0 -18053100000.0 -13102400000.0 -13614100000.0 -9603670000.0 -12085100000.0 -9038310000.0 -11608300000.0 -9035930000.0 -10669800000.0 -9035860000.0 -9812820000.0 -9035820000.0 -9343640000.0 -9035790000.0 -9123880000.0 -9035780000.0 -9036350000.0 -9035770000.0 -9035770000.0 -9035760000.0 -9035760000.0 -9035760000.0 -9035760000.0 -9035760000.0 -9035760000.0 -9035750000.0 -9035750000.0 -9035750000.0 -9035770000.0 -9035750000.0 -9035750000.0 -9035750000.0 -9035760000.0 -9035760000.0 -9035760000.0 -9035760000.0 -9035760000.0 -9035760000.0 -9035770000.0 -9035770000.0 -9036350000.0 -9035780000.0 -9123880000.0 -9035790000.0 -9343640000.0 -9035820000.0 -9812820000.0 -9035860000.0 -10669800000.0 -9035930000.0 -11608300000.0 -9038310000.0 -12085100000.0 -9603670000.0 -13614100000.0 -13102400000.0 -18053100000.0 -16119000000.0 -19520400000.0 -19136900000.0 -18045700000.0 -13191100000.0 -14364900000.0 -17285400000.0 -18202500000.0 -17340700000.0 -16361700000.0 -17078200000.0 -16297300000.0 -13703400000.0 -12638500000.0 -16974900000.0 -17855000000.0 -18125300000.0 -15062200000.0 -16832400000.0 -12447400000.0 -12971500000.0 -9474950000.0 -11682700000.0 -9037150000.0 -11237000000.0 -9035910000.0 -10402000000.0 -9035850000.0 -9662770000.0 -9035810000.0 -9269030000.0 -9035790000.0 -9098700000.0 -9035780000.0 -9036080000.0 -9035770000.0 -9035760000.0 -9035760000.0 -9035760000.0 -9035760000.0 -9035760000.0 -9035760000.0 -9035750000.0 -9035750000.0 -9035750000.0 -9035750000.0 -9035760000.0 -9035750000.0 -9035750000.0 -9035750000.0 -9035750000.0 -9035760000.0 -9035760000.0 -9035760000.0 -9035760000.0 -9035760000.0 -9035760000.0 -9035770000.0 -9036080000.0 -9035780000.0 -9098700000.0 -9035790000.0 -9269030000.0 -9035810000.0 -9662770000.0 -9035850000.0 -10402000000.0 -9035910000.0 -11237000000.0 -9037150000.0 -11682700000.0 -9474950000.0 -12971500000.0 -12447400000.0 -16832400000.0 -15062200000.0 -18125300000.0 -17855000000.0 -16974900000.0 -12638500000.0 -13703400000.0 -16297300000.0 -17078200000.0 -16361700000.0 -15381600000.0 -15967300000.0 -15313500000.0 -13053800000.0 -12109000000.0 -15904400000.0 -16602400000.0 -16791500000.0 -14089200000.0 -15669400000.0 -11858900000.0 -12367900000.0 -9371930000.0 -11295900000.0 -9036540000.0 -10890600000.0 -9035890000.0 -10162700000.0 -9035840000.0 -9535680000.0 -9035800000.0 -9210640000.0 -9035780000.0 -9080210000.0 -9035770000.0 -9035930000.0 -9035770000.0 -9035760000.0 -9035760000.0 -9035760000.0 -9035760000.0 -9035760000.0 -9035760000.0 -9035750000.0 -9035750000.0 -9035750000.0 -9035750000.0 -9035760000.0 -9035750000.0 -9035750000.0 -9035750000.0 -9035750000.0 -9035760000.0 -9035760000.0 -9035760000.0 -9035760000.0 -9035760000.0 -9035760000.0 -9035770000.0 -9035930000.0 -9035770000.0 -9080210000.0 -9035780000.0 -9210640000.0 -9035800000.0 -9535680000.0 -9035840000.0 -10162700000.0 -9035890000.0 -10890600000.0 -9036540000.0 -11295900000.0 -9371930000.0 -12367900000.0 -11858900000.0 -15669400000.0 -14089200000.0 -16791500000.0 -16602400000.0 -15904400000.0 -12109000000.0 -13053800000.0 -15313500000.0 -15967300000.0 -15381600000.0 -14400600000.0 -14869200000.0 -14333600000.0 -12414500000.0 -11599600000.0 -14835300000.0 -15377500000.0 -15508900000.0 -13187900000.0 -14556600000.0 -11327400000.0 -11797500000.0 -9289490000.0 -10922700000.0 -9036210000.0 -10565900000.0 -9035870000.0 -9947820000.0 -9035820000.0 -9427790000.0 -9035800000.0 -9165070000.0 -9035780000.0 -9066740000.0 -9035770000.0 -9035840000.0 -9035760000.0 -9035760000.0 -9035760000.0 -9035760000.0 -9035760000.0 -9035760000.0 -9035760000.0 -9035750000.0 -9035750000.0 -9035750000.0 -9035750000.0 -9035760000.0 -9035750000.0 -9035750000.0 -9035750000.0 -9035750000.0 -9035760000.0 -9035760000.0 -9035760000.0 -9035760000.0 -9035760000.0 -9035760000.0 -9035760000.0 -9035840000.0 -9035770000.0 -9066740000.0 -9035780000.0 -9165070000.0 -9035800000.0 -9427790000.0 -9035820000.0 -9947820000.0 -9035870000.0 -10565900000.0 -9036210000.0 -10922700000.0 -9289490000.0 -11797500000.0 -11327400000.0 -14556600000.0 -13187900000.0 -15508900000.0 -15377500000.0 -14835300000.0 -11599600000.0 -12414500000.0 -14333600000.0 -14869200000.0 -14400600000.0 -13418500000.0 -13782600000.0 -13357300000.0 -11783700000.0 -11107000000.0 -13768000000.0 -14177900000.0 -14268200000.0 -12346600000.0 -13486500000.0 -10843700000.0 -11254700000.0 -9223240000.0 -10561000000.0 -9036040000.0 -10259800000.0 -9035850000.0 -9753380000.0 -9035810000.0 -9335630000.0 -9035790000.0 -9129450000.0 -9035780000.0 -9056960000.0 -9035770000.0 -9035800000.0 -9035760000.0 -9035760000.0 -9035760000.0 -9035760000.0 -9035760000.0 -9035760000.0 -9035750000.0 -9035750000.0 -9035750000.0 -9035750000.0 -9035750000.0 -9035760000.0 -9035750000.0 -9035750000.0 -9035750000.0 -9035750000.0 -9035750000.0 -9035760000.0 -9035760000.0 -9035760000.0 -9035760000.0 -9035760000.0 -9035760000.0 -9035800000.0 -9035770000.0 -9056960000.0 -9035780000.0 -9129450000.0 -9035790000.0 -9335630000.0 -9035810000.0 -9753380000.0 -9035850000.0 -10259800000.0 -9036040000.0 -10561000000.0 -9223240000.0 -11254700000.0 -10843700000.0 -13486500000.0 -12346600000.0 -14268200000.0 -14177900000.0 -13768000000.0 -11107000000.0 -11783700000.0 -13357300000.0 -13782600000.0 -13418500000.0 -12435500000.0 -12706100000.0 -12383900000.0 -11159800000.0 -10628100000.0 -12702800000.0 -13000000000.0 -13060600000.0 -11554000000.0 -12451400000.0 -10398700000.0 -10734200000.0 -9169390000.0 -10208800000.0 -9035930000.0 -9969180000.0 -9035830000.0 -9575510000.0 -9035800000.0 -9255960000.0 -9035780000.0 -9101360000.0 -9035770000.0 -9049850000.0 -9035760000.0 -9035780000.0 -9035760000.0 -9035760000.0 -9035760000.0 -9035760000.0 -9035760000.0 -9035750000.0 -9035750000.0 -9035750000.0 -9035750000.0 -9035750000.0 -9035750000.0 -9035750000.0 -9035750000.0 -9035750000.0 -9035750000.0 -9035750000.0 -9035750000.0 -9035750000.0 -9035760000.0 -9035760000.0 -9035760000.0 -9035760000.0 -9035760000.0 -9035780000.0 -9035760000.0 -9049850000.0 -9035770000.0 -9101360000.0 -9035780000.0 -9255960000.0 -9035800000.0 -9575510000.0 -9035830000.0 -9969180000.0 -9035930000.0 -10208800000.0 -9169390000.0 -10734200000.0 -10398700000.0 -12451400000.0 -11554000000.0 -13060600000.0 -13000000000.0 -12702800000.0 -10628100000.0 -11159800000.0 -12383900000.0 -12706100000.0 -12435500000.0 -11451800000.0 -11637700000.0 -11412900000.0 -10541200000.0 -10159700000.0 -11639600000.0 -11839600000.0 -11878200000.0 -10799000000.0 -11443600000.0 -9983440000.0 -10230700000.0 -9124660000.0 -9864000000.0 -9035870000.0 -9690520000.0 -9035810000.0 -9410400000.0 -9035790000.0 -9185750000.0 -9035770000.0 -9078770000.0 -9035770000.0 -9044600000.0 -9035760000.0 -9035770000.0 -9035760000.0 -9035760000.0 -9035760000.0 -9035760000.0 -9035750000.0 -9035750000.0 -9035750000.0 -9035750000.0 -9035750000.0 -9035750000.0 -9035750000.0 -9035750000.0 -9035750000.0 -9035750000.0 -9035750000.0 -9035750000.0 -9035750000.0 -9035750000.0 -9035750000.0 -9035760000.0 -9035760000.0 -9035760000.0 -9035760000.0 -9035770000.0 -9035760000.0 -9044600000.0 -9035770000.0 -9078770000.0 -9035770000.0 -9185750000.0 -9035790000.0 -9410400000.0 -9035810000.0 -9690520000.0 -9035870000.0 -9864000000.0 -9124660000.0 -10230700000.0 -9983440000.0 -11443600000.0 -10799000000.0 -11878200000.0 -11839600000.0 -11639600000.0 -10159700000.0 -10541200000.0 -11412900000.0 -11637700000.0 -11451800000.0 -10467400000.0 -10575100000.0 -10443500000.0 -9926290000.0 -9698840000.0 -10577900000.0 -10692000000.0 -10713300000.0 -10070400000.0 -10455000000.0 -9589290000.0 -9739200000.0 -9086140000.0 -9524460000.0 -9035820000.0 -9420430000.0 -9035790000.0 -9254320000.0 -9035770000.0 -9122150000.0 -9035760000.0 -9059880000.0 -9035760000.0 -9040560000.0 -9035760000.0 -9035760000.0 -9035760000.0 -9035760000.0 -9035750000.0 -9035750000.0 -9035750000.0 -9035750000.0 -9035750000.0 -9035750000.0 -9035750000.0 -9035750000.0 -9035750000.0 -9035750000.0 -9035750000.0 -9035750000.0 -9035750000.0 -9035750000.0 -9035750000.0 -9035750000.0 -9035750000.0 -9035750000.0 -9035750000.0 -9035760000.0 -9035760000.0 -9035760000.0 -9035760000.0 -9040560000.0 -9035760000.0 -9059880000.0 -9035760000.0 -9122150000.0 -9035770000.0 -9254320000.0 -9035790000.0 -9420430000.0 -9035820000.0 -9524460000.0 -9086140000.0 -9739200000.0 -9589290000.0 -10455000000.0 -10070400000.0 -10713300000.0 -10692000000.0 -10577900000.0 -9698840000.0 -9926290000.0 -10443500000.0 -10575100000.0 -10467400000.0 -9482670000.0 -9515970000.0 -9475100000.0 -9313550000.0 -9242380000.0 -9517040000.0 -9552160000.0 -9558590000.0 -9357500000.0 -9477870000.0 -9207570000.0 -9254780000.0 -9051200000.0 -9188050000.0 -9035770000.0 -9155430000.0 -9035760000.0 -9103560000.0 -9035760000.0 -9062420000.0 -9035760000.0 -9043120000.0 -9035760000.0 -9037200000.0 -9035750000.0 -9035750000.0 -9035750000.0 -9035750000.0 -9035750000.0 -9035750000.0 -9035750000.0 -9035750000.0 -9035750000.0 -9035750000.0 -9035750000.0 -9035750000.0 -9035750000.0 -9035750000.0 -9035750000.0 -9035750000.0 -9035750000.0 -9035750000.0 -9035750000.0 -9035750000.0 -9035750000.0 -9035750000.0 -9035750000.0 -9035750000.0 -9035750000.0 -9035750000.0 -9035750000.0 -9037200000.0 -9035760000.0 -9043120000.0 -9035760000.0 -9062420000.0 -9035760000.0 -9103560000.0 -9035760000.0 -9155430000.0 -9035770000.0 -9188050000.0 -9051200000.0 -9254780000.0 -9207570000.0 -9477870000.0 -9357500000.0 -9558590000.0 -9552160000.0 -9517040000.0 -9242380000.0 -9313550000.0 -9475100000.0 -9515970000.0 -9482670000.0 
SCALARS Shear_Stress float 1
LOOKUP_TABLE default
60748100000.0 10921900000.0 10921900000.0 60748100000.0 176046000000.0 318791000000.0 339191000000.0 50625600000.0 21674400000.0 28583700000.0 26648000000.0 31961500000.0 10591300000.0 30740400000.0 25073500000.0 27045000000.0 40141400000.0 45125600000.0 49957400000.0 52992700000.0 55712200000.0 57723900000.0 59633400000.0 60382300000.0 60910300000.0 60382300000.0 59633400000.0 57723900000.0 55712200000.0 52992700000.0 49957400000.0 45125600000.0 40141500000.0 27045000000.0 25073500000.0 30740400000.0 10591300000.0 31961500000.0 26648000000.0 28583700000.0 21674400000.0 50625600000.0 339191000000.0 318791000000.0 176046000000.0 278029000000.0 323006000000.0 37132800000.0 718476000000.0 52005600000.0 51386900000.0 98943300000.0 98943300000.0 51386900000.0 52005600000.0 718476000000.0 37132800000.0 323006000000.0 278029000000.0 159478000000.0 215035000000.0 184343000000.0 430270000000.0 521090000000.0 19538600000.0 11867300000.0 13839700000.0 16465400000.0 87056300000.0 47742600000.0 72792200000.0 52301000000.0 67153800000.0 62965400000.0 62220900000.0 59627600000.0 58164200000.0 56026000000.0 55421500000.0 54160300000.0 54661800000.0 54160300000.0 55421500000.0 56026000000.0 58164200000.0 59627600000.0 62220900000.0 62965400000.0 67153800000.0 52301000000.0 72792200000.0 47742600000.0 87056300000.0 16465400000.0 13839700000.0 11867300000.0 19538600000.0 521090000000.0 430270000000.0 184343000000.0 215035000000.0 159478000000.0 18687100000.0 1.07516e+12 824705000000.0 231614000000.0 336863000000.0 531979000000.0 156487000000.0 308574000000.0 21705500000.0 21607100000.0 91044100000.0 100804000000.0 96695500000.0 72695600000.0 104501000000.0 104324000000.0 108867000000.0 108871000000.0 109112000000.0 107697000000.0 107927000000.0 106272000000.0 107037000000.0 106272000000.0 107927000000.0 107697000000.0 109112000000.0 108871000000.0 108867000000.0 104324000000.0 104501000000.0 72695600000.0 96695500000.0 100804000000.0 91044100000.0 21607100000.0 21705500000.0 308574000000.0 156487000000.0 531979000000.0 336863000000.0 231614000000.0 824705000000.0 1.07516e+12 18687100000.0 67633100000.0 373939000000.0 295639000000.0 1.37022e+12 845324000000.0 346907000000.0 430780000000.0 323440000000.0 6460110000.0 6460110000.0 323440000000.0 430780000000.0 346907000000.0 845324000000.0 1.37022e+12 295639000000.0 373939000000.0 67633100000.0 102297000000.0 306523000000.0 492418000000.0 673808000000.0 690687000000.0 507930000000.0 357145000000.0 348052000000.0 294890000000.0 224170000000.0 162727000000.0 61836900000.0 204002000000.0 1312140000.0 212764000000.0 155511000000.0 168889000000.0 150120000000.0 148645000000.0 146627000000.0 146207000000.0 144319000000.0 144139000000.0 141766000000.0 142582000000.0 141766000000.0 144139000000.0 144319000000.0 146207000000.0 146627000000.0 148645000000.0 150120000000.0 168889000000.0 155511000000.0 212764000000.0 1312140000.0 204002000000.0 61836900000.0 162727000000.0 224170000000.0 294890000000.0 348052000000.0 357145000000.0 507930000000.0 690687000000.0 673808000000.0 492418000000.0 306523000000.0 102297000000.0 83416700000.0 91488400000.0 212147000000.0 449510000000.0 1.23553e+12 544832000000.0 606439000000.0 599476000000.0 447821000000.0 469943000000.0 442359000000.0 259557000000.0 73496300000.0 73496300000.0 259557000000.0 442359000000.0 469943000000.0 447821000000.0 599476000000.0 606439000000.0 544832000000.0 1.23553e+12 449510000000.0 212147000000.0 91488400000.0 83416700000.0 37739300000.0 235388000000.0 391021000000.0 514460000000.0 556416000000.0 931113000000.0 506258000000.0 530456000000.0 466566000000.0 413295000000.0 433098000000.0 403221000000.0 236450000000.0 88599700000.0 97393100000.0 142133000000.0 105041000000.0 155986000000.0 151631000000.0 156784000000.0 161610000000.0 169673000000.0 175845000000.0 181764000000.0 183465000000.0 185791000000.0 183465000000.0 181764000000.0 175845000000.0 169673000000.0 161610000000.0 156784000000.0 151631000000.0 155986000000.0 105041000000.0 142133000000.0 97393100000.0 88599700000.0 236450000000.0 403221000000.0 433098000000.0 413295000000.0 466566000000.0 530456000000.0 506258000000.0 931113000000.0 556416000000.0 514460000000.0 391021000000.0 235388000000.0 37739300000.0 497401000.0 212088000000.0 349525000000.0 213505000000.0 541038000000.0 517886000000.0 415712000000.0 577149000000.0 576320000000.0 421848000000.0 414507000000.0 334016000000.0 218184000000.0 150274000000.0 153084000000.0 36998900000.0 197052000000.0 148702000000.0 197547000000.0 191843000000.0 197780000000.0 196114000000.0 193885000000.0 192713000000.0 194604000000.0 194987000000.0 196820000000.0 194987000000.0 194604000000.0 192713000000.0 193885000000.0 196114000000.0 197780000000.0 191843000000.0 197547000000.0 148702000000.0 197052000000.0 36998900000.0 153084000000.0 150274000000.0 218184000000.0 334016000000.0 414507000000.0 421848000000.0 576320000000.0 577149000000.0 415712000000.0 517886000000.0 541038000000.0 213505000000.0 349525000000.0 212088000000.0 497400000.0 6815310000.0 299392000000.0 289629000000.0 275846000000.0 106678000000.0 573212000000.0 434960000000.0 506782000000.0 286677000000.0 480589000000.0 652495000000.0 503498000000.0 477083000000.0 456480000000.0 359915000000.0 275426000000.0 200651000000.0 200651000000.0 275426000000.0 359915000000.0 456480000000.0 477083000000.0 503498000000.0 652495000000.0 480589000000.0 286677000000.0 506782000000.0 434960000000.0 573212000000.0 106678000000.0 275846000000.0 289629000000.0 299392000000.0 6815310000.0 374629000000.0 1282300000.0 315607000000.0 423262000000.0 712124000000.0 197395000000.0 807923000000.0 348162000000.0 158005000000.0 395354000000.0 732194000000.0 734721000000.0 478146000000.0 530396000000.0 377329000000.0 293059000000.0 188172000000.0 26888600000.0 185504000000.0 142528000000.0 198080000000.0 193369000000.0 198919000000.0 199061000000.0 199996000000.0 199291000000.0 197977000000.0 195228000000.0 195565000000.0 195228000000.0 197977000000.0 199291000000.0 199996000000.0 199061000000.0 198919000000.0 193369000000.0 198080000000.0 142528000000.0 185504000000.0 26888600000.0 188172000000.0 293059000000.0 377329000000.0 530396000000.0 478146000000.0 734721000000.0 732194000000.0 395354000000.0 158005000000.0 348162000000.0 807923000000.0 197395000000.0 712124000000.0 423262000000.0 315607000000.0 1282300000.0 374629000000.0 41940100000.0 324124000000.0 332513000000.0 383098000000.0 402841000000.0 1.06713e+12 1.01886e+12 322498000000.0 158094000000.0 212301000000.0 490166000000.0 484174000000.0 592357000000.0 523227000000.0 340746000000.0 289218000000.0 240200000000.0 158040000000.0 213939000000.0 144360000000.0 197000000000.0 192497000000.0 200921000000.0 202772000000.0 204539000000.0 205691000000.0 206312000000.0 204754000000.0 205001000000.0 204754000000.0 206312000000.0 205691000000.0 204539000000.0 202772000000.0 200921000000.0 192497000000.0 197000000000.0 144360000000.0 213939000000.0 158040000000.0 240200000000.0 289218000000.0 340746000000.0 523227000000.0 592357000000.0 484174000000.0 490166000000.0 212301000000.0 158094000000.0 322498000000.0 1.01886e+12 1.06713e+12 402841000000.0 383098000000.0 332513000000.0 324124000000.0 41940100000.0 108019000000.0 108614000000.0 300949000000.0 498808000000.0 347189000000.0 138356000000.0 429841000000.0 1.02545e+12 233701000000.0 400256000000.0 74188900000.0 149654000000.0 62863300000.0 29724000000.0 357394000000.0 363957000000.0 306233000000.0 323422000000.0 271266000000.0 271266000000.0 323422000000.0 306233000000.0 363957000000.0 357394000000.0 29724000000.0 62863300000.0 149654000000.0 74188900000.0 400256000000.0 233701000000.0 1.02545e+12 429841000000.0 138356000000.0 347189000000.0 498808000000.0 300949000000.0 108614000000.0 108019000000.0 188705000000.0 343764000000.0 284699000000.0 35501900000.0 338863000000.0 81005600000.0 720410000000.0 559851000000.0 198609000000.0 277517000000.0 446388000000.0 189834000000.0 18615600000.0 68834000000.0 391232000000.0 367348000000.0 268979000000.0 177040000000.0 232978000000.0 255735000000.0 217915000000.0 255075000000.0 238052000000.0 238656000000.0 232419000000.0 224495000000.0 218251000000.0 215982000000.0 215247000000.0 215687000000.0 215247000000.0 215982000000.0 218251000000.0 224495000000.0 232419000000.0 238656000000.0 238052000000.0 255075000000.0 217915000000.0 255735000000.0 232978000000.0 177040000000.0 268979000000.0 367348000000.0 391232000000.0 68834000000.0 18615600000.0 189834000000.0 446388000000.0 277517000000.0 198609000000.0 559851000000.0 720410000000.0 81005600000.0 338863000000.0 35501900000.0 284699000000.0 343764000000.0 188705000000.0 111142000000.0 173344000000.0 388380000000.0 336219000000.0 299326000000.0 222017000000.0 224842000000.0 436548000000.0 695118000000.0 14345800000.0 706041000000.0 195775000000.0 198296000000.0 270684000000.0 105385000000.0 194306000000.0 224279000000.0 124723000000.0 241549000000.0 238011000000.0 246548000000.0 268417000000.0 252279000000.0 250205000000.0 241973000000.0 233833000000.0 227764000000.0 225927000000.0 226370000000.0 226488000000.0 226370000000.0 225927000000.0 227764000000.0 233833000000.0 241973000000.0 250205000000.0 252279000000.0 268417000000.0 246548000000.0 238011000000.0 241549000000.0 124723000000.0 224279000000.0 194306000000.0 105385000000.0 270684000000.0 198296000000.0 195775000000.0 706041000000.0 14345800000.0 695118000000.0 436548000000.0 224842000000.0 222017000000.0 299326000000.0 336219000000.0 388380000000.0 173344000000.0 111142000000.0 93787200000.0 327376000000.0 316240000000.0 83832000000.0 338606000000.0 172943000000.0 357519000000.0 367280000000.0 107210000000.0 256060000000.0 49344900000.0 647081000000.0 158735000000.0 101242000000.0 497512000000.0 49449500000.0 115579000000.0 50777200000.0 45035500000.0 143955000000.0 143955000000.0 45035500000.0 50777200000.0 115579000000.0 49449500000.0 497512000000.0 101242000000.0 158735000000.0 647081000000.0 49344900000.0 256060000000.0 107210000000.0 367280000000.0 357519000000.0 172943000000.0 338606000000.0 83832000000.0 316240000000.0 327376000000.0 93787200000.0 154576000000.0 241942000000.0 211306000000.0 279983000000.0 181246000000.0 393038000000.0 17950200000.0 368475000000.0 130633000000.0 339521000000.0 372355000000.0 166982000000.0 254029000000.0 314096000000.0 507821000000.0 256360000000.0 100972000000.0 52025200000.0 366577000000.0 212989000000.0 108747000000.0 33308600000.0 50977600000.0 156472000000.0 28310400000.0 232578000000.0 193723000000.0 254705000000.0 259999000000.0 250471000000.0 250411000000.0 246966000000.0 241146000000.0 236291000000.0 234187000000.0 235081000000.0 234548000000.0 235081000000.0 234187000000.0 236291000000.0 241146000000.0 246966000000.0 250411000000.0 250471000000.0 259999000000.0 254705000000.0 193723000000.0 232578000000.0 28310400000.0 156472000000.0 50977600000.0 33308600000.0 108747000000.0 212989000000.0 366577000000.0 52025200000.0 100972000000.0 256360000000.0 507821000000.0 314096000000.0 254029000000.0 166982000000.0 372355000000.0 339521000000.0 130633000000.0 368475000000.0 17950200000.0 393038000000.0 181246000000.0 279983000000.0 211306000000.0 241942000000.0 154576000000.0 136906000000.0 29418000000.0 259725000000.0 232750000000.0 151237000000.0 482931000000.0 284732000000.0 361213000000.0 356361000000.0 202940000000.0 29390700000.0 106689000000.0 48552500000.0 291873000000.0 156509000000.0 138782000000.0 79441600000.0 220233000000.0 144326000000.0 252811000000.0 244461000000.0 242468000000.0 238199000000.0 237503000000.0 235262000000.0 236063000000.0 237385000000.0 240884000000.0 240394000000.0 240884000000.0 237385000000.0 236063000000.0 235262000000.0 237503000000.0 238199000000.0 242468000000.0 244461000000.0 252811000000.0 144326000000.0 220233000000.0 79441600000.0 138782000000.0 156509000000.0 291873000000.0 48552500000.0 106689000000.0 29390700000.0 202940000000.0 356361000000.0 361213000000.0 284732000000.0 482931000000.0 151237000000.0 232750000000.0 259725000000.0 29418000000.0 136906000000.0 102706000000.0 411073000000.0 150359000000.0 440211000000.0 71138600000.0 508252000000.0 85499000000.0 107335000000.0 493424000000.0 154115000000.0 379875000000.0 314830000000.0 84188600000.0 56767500000.0 109683000000.0 7314030000.0 183393000000.0 305930000000.0 24117600000.0 51876300000.0 51876300000.0 24117600000.0 305930000000.0 183393000000.0 7314030000.0 109683000000.0 56767500000.0 84188600000.0 314830000000.0 379875000000.0 154115000000.0 493424000000.0 107335000000.0 85499000000.0 508252000000.0 71138600000.0 440211000000.0 150359000000.0 411073000000.0 102706000000.0 166511000000.0 133889000000.0 235654000000.0 331596000000.0 220151000000.0 506723000000.0 550523000000.0 344354000000.0 161309000000.0 537028000000.0 86664100000.0 193006000000.0 46815200000.0 509140000000.0 396921000000.0 433639000000.0 290917000000.0 229804000000.0 108208000000.0 50166400000.0 22418200000.0 227818000000.0 182418000000.0 78562100000.0 100138000000.0 105061000000.0 98343900000.0 73411000000.0 187396000000.0 94129100000.0 218235000000.0 196363000000.0 197492000000.0 189673000000.0 185523000000.0 177553000000.0 171500000000.0 166987000000.0 167386000000.0 165629000000.0 167386000000.0 166987000000.0 171500000000.0 177553000000.0 185523000000.0 189673000000.0 197492000000.0 196363000000.0 218235000000.0 94129100000.0 187396000000.0 73411000000.0 98343900000.0 105061000000.0 100138000000.0 78562100000.0 182418000000.0 227818000000.0 22418200000.0 50166400000.0 108208000000.0 229804000000.0 290917000000.0 433639000000.0 396921000000.0 509140000000.0 46815200000.0 193006000000.0 86664100000.0 537028000000.0 161309000000.0 344354000000.0 550523000000.0 506723000000.0 220151000000.0 331596000000.0 235654000000.0 133889000000.0 166511000000.0 183542000000.0 93350800000.0 97329700000.0 117806000000.0 106879000000.0 395340000000.0 298527000000.0 476120000000.0 449264000000.0 411278000000.0 354869000000.0 247603000000.0 164995000000.0 81862500000.0 11219200000.0 91961400000.0 25090700000.0 105005000000.0 8228350000.0 73891900000.0 63118300.0 16188800000.0 9018070000.0 9616260000.0 9027970000.0 9261420000.0 9026450000.0 9759210000.0 9080890000.0 10543900000.0 9080890000.0 9759210000.0 9026450000.0 9261420000.0 9027970000.0 9616260000.0 9018070000.0 16188800000.0 63115900.0 73891900000.0 8228350000.0 105005000000.0 25090700000.0 91961400000.0 11219200000.0 81862500000.0 164995000000.0 247603000000.0 354869000000.0 411278000000.0 449264000000.0 476120000000.0 298527000000.0 395340000000.0 106879000000.0 117806000000.0 97329700000.0 93350800000.0 183542000000.0 194977000000.0 32476100000.0 41274900000.0 124269000000.0 616904000000.0 96207000000.0 414164000000.0 366604000000.0 293914000000.0 289940000000.0 281799000000.0 155491000000.0 100493000000.0 63042900000.0 42546500000.0 42546500000.0 63042900000.0 100493000000.0 155491000000.0 281799000000.0 289940000000.0 293914000000.0 366604000000.0 414164000000.0 96207000000.0 616904000000.0 124269000000.0 41274900000.0 32476100000.0 194977000000.0 48772800000.0 425784000000.0 79464600000.0 226054000000.0 302450000000.0 73371100000.0 24450400000.0 410530000000.0 76998800000.0 16279500000.0 461247000000.0 426808000000.0 461479000000.0 12664300000.0 92255100000.0 142312000000.0 17144900000.0 136862000000.0 214682000000.0 63806500000.0 84624800000.0 57583300000.0 108094000000.0 6491070000.0 8566920000.0 165441000000.0 152023000000.0 237134000000.0 237263000000.0 234227000000.0 229036000000.0 224496000000.0 221175000000.0 218744000000.0 216815000000.0 215915000000.0 214354000000.0 215915000000.0 216815000000.0 218744000000.0 221175000000.0 224496000000.0 229036000000.0 234227000000.0 237263000000.0 237134000000.0 152023000000.0 165441000000.0 8566920000.0 6491070000.0 108094000000.0 57583300000.0 84624800000.0 63806500000.0 214682000000.0 136862000000.0 17144900000.0 142312000000.0 92255100000.0 12664300000.0 461479000000.0 426808000000.0 461247000000.0 16279500000.0 76998800000.0 410530000000.0 24450400000.0 73371100000.0 302450000000.0 226054000000.0 79464600000.0 425784000000.0 48772800000.0 215784000000.0 83235100000.0 52906600000.0 527141000000.0 174645000000.0 287394000000.0 41715700000.0 172195000000.0 452580000000.0 411506000000.0 366024000000.0 267470000000.0 110342000000.0 2409760000.0 98673500000.0 57503800000.0 26092100000.0 118987000000.0 16368200000.0 60365400000.0 9035750000.0 9035750000.0 9035750000.0 9035750000.0 9035750000.0 9035750000.0 9035750000.0 9035750000.0 9035750000.0 10101400000.0 9035750000.0 9035750000.0 9035750000.0 9035750000.0 9035750000.0 9035750000.0 9035750000.0 9035750000.0 9035750000.0 60365400000.0 16368200000.0 118987000000.0 26092100000.0 57503800000.0 98673500000.0 2409760000.0 110342000000.0 267470000000.0 366024000000.0 411506000000.0 452580000000.0 172195000000.0 41715700000.0 287394000000.0 174645000000.0 527141000000.0 52906600000.0 83235100000.0 215784000000.0 291953000000.0 279582000000.0 173847000000.0 161533000000.0 241469000000.0 243067000000.0 245648000000.0 273873000000.0 244002000000.0 401141000000.0 319984000000.0 268813000000.0 214617000000.0 204670000000.0 213181000000.0 197793000000.0 135640000000.0 191115000000.0 173641000000.0 114028000000.0 114028000000.0 173641000000.0 191115000000.0 135640000000.0 197793000000.0 213181000000.0 204670000000.0 214617000000.0 268813000000.0 319984000000.0 401141000000.0 244002000000.0 273873000000.0 245648000000.0 243067000000.0 241469000000.0 161533000000.0 173847000000.0 279582000000.0 291953000000.0 149654000000.0 64607600000.0 188820000000.0 112699000000.0 161585000000.0 96464400000.0 305118000000.0 179147000000.0 69823900000.0 43591800000.0 148067000000.0 239857000000.0 324524000000.0 307037000000.0 310888000000.0 327619000000.0 189122000000.0 138929000000.0 110334000000.0 110373000000.0 119958000000.0 36812600000.0 238477000000.0 219687000000.0 246071000000.0 238242000000.0 230954000000.0 225157000000.0 220679000000.0 217129000000.0 214351000000.0 212325000000.0 211066000000.0 209764000000.0 211066000000.0 212325000000.0 214351000000.0 217129000000.0 220679000000.0 225157000000.0 230954000000.0 238242000000.0 246071000000.0 219687000000.0 238477000000.0 36812600000.0 119958000000.0 110373000000.0 110334000000.0 138929000000.0 189122000000.0 327619000000.0 310888000000.0 307037000000.0 324524000000.0 239857000000.0 148067000000.0 43591800000.0 69824000000.0 179147000000.0 305118000000.0 96464400000.0 161585000000.0 112699000000.0 188820000000.0 64607600000.0 149654000000.0 163065000000.0 192446000000.0 301815000000.0 209751000000.0 217817000000.0 54714800000.0 157052000000.0 157052000000.0 54714800000.0 217817000000.0 209751000000.0 301815000000.0 192446000000.0 163065000000.0 91601500000.0 50054800000.0 210842000000.0 129320000000.0 55347800000.0 168157000000.0 6850850000.0 390442000000.0 290307000000.0 219346000000.0 232200000000.0 273033000000.0 167748000000.0 80049700000.0 18702200000.0 6576470000.0 133863000000.0 218825000000.0 172982000000.0 170921000000.0 165802000000.0 47771900000.0 80030900000.0 131589000000.0 12067100000.0 19626800000.0 9035750000.0 9035750000.0 9035750000.0 9035750000.0 9035750000.0 9035750000.0 9035750000.0 9035750000.0 9035750000.0 9774030000.0 9035750000.0 9035750000.0 9035750000.0 9035750000.0 9035750000.0 9035750000.0 9035750000.0 9035750000.0 9035750000.0 19626800000.0 12067100000.0 131589000000.0 80030900000.0 47771900000.0 165802000000.0 170921000000.0 172982000000.0 218825000000.0 133863000000.0 6576470000.0 18702200000.0 80049700000.0 167748000000.0 273033000000.0 232200000000.0 219346000000.0 290307000000.0 390442000000.0 6850850000.0 168157000000.0 55347800000.0 129320000000.0 210842000000.0 50054800000.0 91601500000.0 54469600000.0 43489500000.0 142162000000.0 45655600000.0 33445800000.0 157529000000.0 7394940000.0 324566000000.0 288826000000.0 247792000000.0 217578000000.0 244760000000.0 221494000000.0 197689000000.0 147094000000.0 73781900000.0 27862600000.0 122052000000.0 155097000000.0 165233000000.0 174531000000.0 134310000000.0 202127000000.0 112421000000.0 201856000000.0 74665100000.0 220552000000.0 208680000000.0 192286000000.0 177125000000.0 163543000000.0 151634000000.0 141363000000.0 132803000000.0 126089000000.0 121305000000.0 118452000000.0 116916000000.0 118452000000.0 121305000000.0 126089000000.0 132803000000.0 141363000000.0 151634000000.0 163543000000.0 177125000000.0 192286000000.0 208680000000.0 220552000000.0 74665100000.0 201856000000.0 112421000000.0 202127000000.0 134310000000.0 174531000000.0 165233000000.0 155097000000.0 122052000000.0 27862600000.0 73781900000.0 147094000000.0 197689000000.0 221494000000.0 244760000000.0 217578000000.0 247792000000.0 288826000000.0 324566000000.0 7394940000.0 157529000000.0 33445800000.0 45655600000.0 142162000000.0 43489500000.0 54469600000.0 58708000000.0 75220900000.0 28471200000.0 100261000000.0 15250600000.0 11648700000.0 79620100000.0 18742300000.0 214093000000.0 127070000000.0 97449900000.0 85915500000.0 104642000000.0 105803000000.0 115811000000.0 60653000000.0 84418900000.0 25998000000.0 2961270000.0 48063700000.0 692020000.0 82102100000.0 2060650000.0 102376000000.0 3735210000.0 122171000000.0 9241820000.0 9035750000.0 9035750000.0 9035750000.0 9035750000.0 9035750000.0 9035750000.0 9035750000.0 9035750000.0 9035750000.0 9035750000.0 9511870000.0 9035750000.0 9035750000.0 9035750000.0 9035750000.0 9035750000.0 9035750000.0 9035750000.0 9035750000.0 9035750000.0 9035750000.0 9241820000.0 122171000000.0 3735210000.0 102376000000.0 2060650000.0 82102100000.0 692020000.0 48063700000.0 2961270000.0 25998000000.0 84418900000.0 60653000000.0 115811000000.0 105803000000.0 104642000000.0 85915500000.0 97449900000.0 127070000000.0 214093000000.0 18742300000.0 79620100000.0 11648700000.0 15250600000.0 100261000000.0 28471200000.0 75220900000.0 58708000000.0 43922800000.0 49873600000.0 14761800000.0 51686400000.0 13745100000.0 2596580000.0 113770000000.0 31820500000.0 117484000000.0 81572800000.0 201690000000.0 264019000000.0 279810000000.0 294934000000.0 305502000000.0 350989000000.0 334348000000.0 341635000000.0 285411000000.0 190874000000.0 202047000000.0 93022600000.0 147560000000.0 28591400000.0 108456000000.0 1131620000.0 78031000000.0 63033200000.0 50404600000.0 40091700000.0 31782400000.0 25181900000.0 20023700000.0 16087200000.0 13198900000.0 11226300000.0 10077300000.0 9327230000.0 10077300000.0 11226300000.0 13198900000.0 16087200000.0 20023700000.0 25181900000.0 31782400000.0 40091700000.0 50404600000.0 63033200000.0 78031000000.0 1131620000.0 108456000000.0 28591400000.0 147560000000.0 93022600000.0 202047000000.0 190874000000.0 285411000000.0 341635000000.0 334348000000.0 350989000000.0 305502000000.0 294934000000.0 279810000000.0 264019000000.0 201690000000.0 81572800000.0 117484000000.0 31820500000.0 113770000000.0 2596580000.0 13745100000.0 51686400000.0 14761800000.0 49873600000.0 43922800000.0 27396400000.0 19644600000.0 17671100000.0 47472800000.0 106588000000.0 138343000000.0 88655600000.0 151772000000.0 13177800000.0 72549700000.0 51122200000.0 44238600000.0 67414800000.0 84181700000.0 95930700000.0 61699100000.0 33772300000.0 25747800000.0 7362170000.0 69260500000.0 7425220000.0 89624500000.0 7722330000.0 103942000000.0 8450570000.0 80939500000.0 9050550000.0 9035750000.0 9035750000.0 9035750000.0 9035750000.0 9035750000.0 9035750000.0 9035750000.0 9035750000.0 9035750000.0 9035750000.0 9327730000.0 9035750000.0 9035750000.0 9035750000.0 9035750000.0 9035750000.0 9035750000.0 9035750000.0 9035750000.0 9035750000.0 9035750000.0 9050550000.0 80939500000.0 8450570000.0 103942000000.0 7722330000.0 89624500000.0 7425220000.0 69260500000.0 7362170000.0 25747800000.0 33772300000.0 61699100000.0 95930700000.0 84181700000.0 67414800000.0 44238600000.0 51122200000.0 72549700000.0 13177800000.0 151772000000.0 88655600000.0 138343000000.0 106588000000.0 47472800000.0 17671100000.0 19644600000.0 27396400000.0 38089900000.0 50743000000.0 45574900000.0 28517000000.0 10161600000.0 9415300000.0 30045200000.0 38281000000.0 172916000000.0 104690000000.0 42795700000.0 9388720000.0 18656900000.0 25174300000.0 30215300000.0 6452200000.0 30360100000.0 14575300000.0 25506300000.0 40741100000.0 13329900000.0 65802500000.0 4625120000.0 85236200000.0 980061000.0 58244600000.0 4548750000.0 5763100000.0 6683140000.0 7357190000.0 7850200000.0 8208670000.0 8465730000.0 8653300000.0 8784530000.0 8868060000.0 8915980000.0 9159820000.0 8915980000.0 8868060000.0 8784530000.0 8653300000.0 8465730000.0 8208670000.0 7850200000.0 7357190000.0 6683140000.0 5763100000.0 4548750000.0 58244600000.0 980061000.0 85236200000.0 4625120000.0 65802500000.0 13329900000.0 40741100000.0 25506300000.0 14575300000.0 30360100000.0 6452200000.0 30215300000.0 25174300000.0 18656900000.0 9388720000.0 42795700000.0 104690000000.0 172916000000.0 38281000000.0 30045200000.0 9415300000.0 10161600000.0 28517000000.0 45574900000.0 50743000000.0 38089900000.0 36338100000.0 43584100000.0 43324000000.0 25656300000.0 6669950000.0 390748000.0 2156180000.0 34077700000.0 181609000000.0 126481000000.0 103949000000.0 78771300000.0 87728400000.0 87924600000.0 87557000000.0 45629800000.0 17558200000.0 31068600000.0 8973600000.0 65573600000.0 9035760000.0 75747800000.0 9035760000.0 85785900000.0 9035760000.0 51388300000.0 9035750000.0 9035970000.0 9035880000.0 9035830000.0 9035800000.0 9035780000.0 9035770000.0 9035760000.0 9035760000.0 9035750000.0 9035750000.0 9212940000.0 9035750000.0 9035750000.0 9035760000.0 9035760000.0 9035770000.0 9035780000.0 9035800000.0 9035830000.0 9035880000.0 9035970000.0 9035750000.0 51388300000.0 9035760000.0 85785900000.0 9035760000.0 75747800000.0 9035760000.0 65573600000.0 8973600000.0 31068600000.0 17558200000.0 45629800000.0 87557000000.0 87924600000.0 87728400000.0 78771300000.0 103949000000.0 126481000000.0 181609000000.0 34077700000.0 2156180000.0 390747000.0 6669950000.0 25656300000.0 43324000000.0 43584100000.0 36338100000.0 38160400000.0 43520300000.0 49205600000.0 37202700000.0 22491800000.0 16795800000.0 17760700000.0 65777600000.0 191989000000.0 129116000000.0 106804000000.0 79638500000.0 84513500000.0 78351100000.0 74188300000.0 36788900000.0 15015900000.0 30943700000.0 8607190000.0 60916700000.0 9035770000.0 68037600000.0 9035760000.0 75731100000.0 9035760000.0 41591600000.0 9035760000.0 9035890000.0 9035830000.0 9035800000.0 9035780000.0 9035770000.0 9035760000.0 9035760000.0 9035750000.0 9035750000.0 9035750000.0 9173640000.0 9035750000.0 9035750000.0 9035750000.0 9035760000.0 9035760000.0 9035770000.0 9035780000.0 9035800000.0 9035830000.0 9035890000.0 9035760000.0 41591600000.0 9035760000.0 75731100000.0 9035760000.0 68037600000.0 9035770000.0 60916700000.0 8607190000.0 30943700000.0 15015900000.0 36788900000.0 74188300000.0 78351100000.0 84513500000.0 79638500000.0 106804000000.0 129116000000.0 191989000000.0 65777600000.0 17760700000.0 16795800000.0 22491800000.0 37202700000.0 49205600000.0 43520300000.0 38160400000.0 38951000000.0 40323000000.0 47598400000.0 38539300000.0 25689900000.0 18476300000.0 20172500000.0 72615900000.0 185377000000.0 132083000000.0 112645000000.0 87309600000.0 87617400000.0 76537100000.0 67587900000.0 37880600000.0 16977400000.0 33465600000.0 9035770000.0 56113200000.0 9035780000.0 61134800000.0 9035770000.0 66413800000.0 9035770000.0 34091700000.0 9035760000.0 9035840000.0 9035800000.0 9035780000.0 9035770000.0 9035760000.0 9035760000.0 9035760000.0 9035750000.0 9035750000.0 9035750000.0 9142950000.0 9035750000.0 9035750000.0 9035750000.0 9035760000.0 9035760000.0 9035760000.0 9035770000.0 9035780000.0 9035800000.0 9035840000.0 9035760000.0 34091700000.0 9035770000.0 66413800000.0 9035770000.0 61134800000.0 9035780000.0 56113200000.0 9035770000.0 33465600000.0 16977400000.0 37880600000.0 67587900000.0 76537100000.0 87617400000.0 87309600000.0 112645000000.0 132083000000.0 185377000000.0 72615900000.0 20172500000.0 18476300000.0 25689900000.0 38539300000.0 47598400000.0 40323000000.0 38951000000.0 39819500000.0 38517000000.0 46207800000.0 39623700000.0 29382000000.0 21747900000.0 24537600000.0 78950600000.0 175377000000.0 128434000000.0 110220000000.0 86708500000.0 83255000000.0 69635200000.0 57440500000.0 36883000000.0 15538100000.0 34012200000.0 9035790000.0 51386000000.0 9035790000.0 54997800000.0 9035780000.0 58016800000.0 9035770000.0 28305600000.0 9035760000.0 9035810000.0 9035790000.0 9035770000.0 9035770000.0 9035760000.0 9035760000.0 9035760000.0 9035750000.0 9035750000.0 9035750000.0 9119010000.0 9035750000.0 9035750000.0 9035750000.0 9035760000.0 9035760000.0 9035760000.0 9035770000.0 9035770000.0 9035790000.0 9035810000.0 9035760000.0 28305600000.0 9035770000.0 58016800000.0 9035780000.0 54997800000.0 9035790000.0 51386000000.0 9035790000.0 34012200000.0 15538100000.0 36883000000.0 57440500000.0 69635200000.0 83255000000.0 86708500000.0 110220000000.0 128434000000.0 175377000000.0 78950600000.0 24537600000.0 21747900000.0 29382000000.0 39623700000.0 46207800000.0 38517000000.0 39819500000.0 40210500000.0 37116700000.0 44250300000.0 39292200000.0 31480200000.0 23841300000.0 27532900000.0 82504500000.0 163217000000.0 122973000000.0 105771000000.0 83783700000.0 77220000000.0 62739900000.0 48429900000.0 35876900000.0 13857400000.0 34126000000.0 9035820000.0 46863200000.0 9035800000.0 49546400000.0 9035780000.0 50582000000.0 9035770000.0 23819800000.0 9035770000.0 9035790000.0 9035780000.0 9035770000.0 9035760000.0 9035760000.0 9035760000.0 9035760000.0 9035750000.0 9035750000.0 9035750000.0 9100320000.0 9035750000.0 9035750000.0 9035750000.0 9035760000.0 9035760000.0 9035760000.0 9035760000.0 9035770000.0 9035780000.0 9035790000.0 9035770000.0 23819800000.0 9035770000.0 50582000000.0 9035780000.0 49546400000.0 9035800000.0 46863200000.0 9035820000.0 34126000000.0 13857400000.0 35876900000.0 48429900000.0 62739900000.0 77220000000.0 83783700000.0 105771000000.0 122973000000.0 163217000000.0 82504500000.0 27532900000.0 23841300000.0 31480200000.0 39292200000.0 44250300000.0 37116700000.0 40210500000.0 40205300000.0 36213900000.0 42399200000.0 38410300000.0 32740500000.0 25679900000.0 30196300000.0 84613000000.0 149995000000.0 115672000000.0 99453300000.0 79095700000.0 70277000000.0 56207900000.0 40752600000.0 34457700000.0 12327900000.0 33827900000.0 9035840000.0 42638000000.0 9035810000.0 44693000000.0 9035790000.0 44086300000.0 9035780000.0 20336500000.0 9035770000.0 9035780000.0 9035770000.0 9035770000.0 9035760000.0 9035760000.0 9035760000.0 9035760000.0 9035750000.0 9035750000.0 9035750000.0 9085750000.0 9035750000.0 9035750000.0 9035750000.0 9035760000.0 9035760000.0 9035760000.0 9035760000.0 9035770000.0 9035770000.0 9035780000.0 9035770000.0 20336500000.0 9035780000.0 44086300000.0 9035790000.0 44693000000.0 9035810000.0 42638000000.0 9035840000.0 33827900000.0 12327900000.0 34457700000.0 40752600000.0 56207900000.0 70277000000.0 79095700000.0 99453300000.0 115672000000.0 149995000000.0 84613000000.0 30196300000.0 25679900000.0 32740500000.0 38410300000.0 42399200000.0 36213900000.0 40205300000.0 39865300000.0 35673800000.0 40796900000.0 37237600000.0 33284000000.0 27259200000.0 32504400000.0 85239500000.0 136596000000.0 107514000000.0 92189500000.0 73456700000.0 63040900000.0 50263100000.0 34376100000.0 32744200000.0 11114400000.0 33160800000.0 9035860000.0 38757200000.0 9035820000.0 40360300000.0 9035800000.0 38467300000.0 9035780000.0 17636300000.0 9035770000.0 9035780000.0 9035770000.0 9035760000.0 9035760000.0 9035760000.0 9035760000.0 9035760000.0 9035750000.0 9035750000.0 9035750000.0 9074400000.0 9035750000.0 9035750000.0 9035750000.0 9035760000.0 9035760000.0 9035760000.0 9035760000.0 9035760000.0 9035770000.0 9035780000.0 9035770000.0 17636300000.0 9035780000.0 38467300000.0 9035800000.0 40360300000.0 9035820000.0 38757200000.0 9035860000.0 33160800000.0 11114400000.0 32744200000.0 34376100000.0 50263100000.0 63040900000.0 73456700000.0 92189500000.0 107514000000.0 136596000000.0 85239500000.0 32504400000.0 27259200000.0 33284000000.0 37237600000.0 40796900000.0 35673800000.0 39865300000.0 55968300000.0 45008700000.0 29171500000.0 30946200000.0 10244500000.0 32184300000.0 9035870000.0 35241000000.0 9035830000.0 36485700000.0 9035800000.0 33640700000.0 9035790000.0 15550900000.0 9035770000.0 9035770000.0 9035770000.0 9035760000.0 9035760000.0 9035760000.0 9035760000.0 9035760000.0 9035750000.0 9035750000.0 9035750000.0 9065560000.0 9035750000.0 9035750000.0 9035750000.0 9035760000.0 9035760000.0 9035760000.0 9035760000.0 9035760000.0 9035770000.0 9035770000.0 9035770000.0 15550900000.0 9035790000.0 33640700000.0 9035800000.0 36485700000.0 9035830000.0 35241000000.0 9035870000.0 32184300000.0 10244500000.0 30946200000.0 29171500000.0 45008700000.0 55968300000.0 39277700000.0 35397800000.0 39473100000.0 35946100000.0 33274100000.0 28580200000.0 34443600000.0 84499400000.0 123576000000.0 99084400000.0 84551800000.0 67455400000.0 67455400000.0 84551800000.0 99084400000.0 123576000000.0 84499400000.0 34443600000.0 28580200000.0 33274100000.0 35946100000.0 39473100000.0 35397800000.0 39277700000.0 38524900000.0 35305600000.0 38380400000.0 34627600000.0 32860400000.0 29649300000.0 36011400000.0 82632800000.0 111310000000.0 90814500000.0 76971100000.0 61521100000.0 49367500000.0 40467800000.0 24974500000.0 29215700000.0 9670610000.0 30970800000.0 9035880000.0 32094900000.0 9035840000.0 33018300000.0 9035810000.0 29517400000.0 9035790000.0 13947300000.0 9035780000.0 9035770000.0 9035770000.0 9035770000.0 9035760000.0 9035760000.0 9035760000.0 9035760000.0 9035750000.0 9035750000.0 9035750000.0 9058680000.0 9035750000.0 9035750000.0 9035750000.0 9035760000.0 9035760000.0 9035760000.0 9035760000.0 9035770000.0 9035770000.0 9035770000.0 9035780000.0 13947300000.0 9035790000.0 29517400000.0 9035810000.0 33018300000.0 9035840000.0 32094900000.0 9035880000.0 30970800000.0 9670610000.0 29215700000.0 24974500000.0 40467800000.0 49367500000.0 61521100000.0 76971100000.0 90814500000.0 111310000000.0 82632800000.0 36011400000.0 29649300000.0 32860400000.0 34627600000.0 38380400000.0 35305600000.0 38524900000.0 37672900000.0 35316300000.0 37439700000.0 33322400000.0 32161100000.0 30476300000.0 37214200000.0 79907800000.0 100019000000.0 82996700000.0 69745100000.0 55931700000.0 43411600000.0 36601800000.0 21613900000.0 27632300000.0 9327810000.0 29596700000.0 9035890000.0 29308700000.0 9035840000.0 29915700000.0 9035810000.0 26012300000.0 9035790000.0 12719400000.0 9035780000.0 9035770000.0 9035770000.0 9035770000.0 9035760000.0 9035760000.0 9035760000.0 9035760000.0 9035750000.0 9035750000.0 9035750000.0 9053340000.0 9035750000.0 9035750000.0 9035750000.0 9035760000.0 9035760000.0 9035760000.0 9035760000.0 9035770000.0 9035770000.0 9035770000.0 9035780000.0 12719400000.0 9035790000.0 26012300000.0 9035810000.0 29915700000.0 9035840000.0 29308700000.0 9035890000.0 29596700000.0 9327810000.0 27632300000.0 21613900000.0 36601800000.0 43411600000.0 55931700000.0 69745100000.0 82996700000.0 100019000000.0 79907800000.0 37214200000.0 30476300000.0 32161100000.0 33322400000.0 37439700000.0 35316300000.0 37672900000.0 36768200000.0 35347800000.0 36577800000.0 32049800000.0 31268000000.0 31074600000.0 38066000000.0 76570200000.0 89811100000.0 75803200000.0 63056500000.0 50840200000.0 38170700000.0 33331200000.0 18929300000.0 26221000000.0 9150430000.0 28133100000.0 9035900000.0 26855800000.0 9035850000.0 27142300000.0 9035810000.0 23047200000.0 9035790000.0 11783100000.0 9035780000.0 9035780000.0 9035770000.0 9035770000.0 9035760000.0 9035760000.0 9035760000.0 9035760000.0 9035750000.0 9035750000.0 9035750000.0 9049210000.0 9035750000.0 9035750000.0 9035750000.0 9035760000.0 9035760000.0 9035760000.0 9035760000.0 9035770000.0 9035770000.0 9035780000.0 9035780000.0 11783100000.0 9035790000.0 23047200000.0 9035810000.0 27142300000.0 9035850000.0 26855800000.0 9035900000.0 28133100000.0 9150430000.0 26221000000.0 18929300000.0 33331200000.0 38170700000.0 50840200000.0 63056500000.0 75803200000.0 89811100000.0 76570200000.0 38066000000.0 31074600000.0 31268000000.0 32049800000.0 36577800000.0 35347800000.0 36768200000.0 35838000000.0 35328700000.0 35742800000.0 30823700000.0 30251500000.0 31459100000.0 38586400000.0 72829500000.0 80700500000.0 69309700000.0 56994200000.0 46305800000.0 33643800000.0 30563300000.0 16780900000.0 24972100000.0 9073780000.0 26638100000.0 9035910000.0 24699600000.0 9035860000.0 24668400000.0 9035820000.0 20550200000.0 9035800000.0 11072000000.0 9035780000.0 9035780000.0 9035770000.0 9035770000.0 9035760000.0 9035760000.0 9035760000.0 9035760000.0 9035760000.0 9035750000.0 9035750000.0 9046000000.0 9035750000.0 9035750000.0 9035760000.0 9035760000.0 9035760000.0 9035760000.0 9035760000.0 9035770000.0 9035770000.0 9035780000.0 9035780000.0 11072000000.0 9035800000.0 20550200000.0 9035820000.0 24668400000.0 9035860000.0 24699600000.0 9035910000.0 26638100000.0 9073780000.0 24972100000.0 16780900000.0 30563300000.0 33643800000.0 46305800000.0 56994200000.0 69309700000.0 80700500000.0 72829500000.0 38586400000.0 31459100000.0 30251500000.0 30823700000.0 35742800000.0 35328700000.0 35838000000.0 34895700000.0 35207200000.0 34904200000.0 29653000000.0 29163500000.0 31646400000.0 38799500000.0 68858100000.0 72640800000.0 63521200000.0 51577100000.0 42322800000.0 29783300000.0 28212400000.0 15054800000.0 23858600000.0 9046490000.0 25155700000.0 9035920000.0 22801500000.0 9035860000.0 22468400000.0 9035820000.0 18456200000.0 9035800000.0 10534300000.0 9035780000.0 9035780000.0 9035770000.0 9035770000.0 9035760000.0 9035760000.0 9035760000.0 9035760000.0 9035760000.0 9035750000.0 9035750000.0 9043540000.0 9035750000.0 9035750000.0 9035760000.0 9035760000.0 9035760000.0 9035760000.0 9035760000.0 9035770000.0 9035770000.0 9035780000.0 9035780000.0 10534300000.0 9035800000.0 18456200000.0 9035820000.0 22468400000.0 9035860000.0 22801500000.0 9035920000.0 25155700000.0 9046490000.0 23858600000.0 15054800000.0 28212400000.0 29783300000.0 42322800000.0 51577100000.0 63521200000.0 72640800000.0 68858100000.0 38799500000.0 31646400000.0 29163500000.0 29653000000.0 34904200000.0 35207200000.0 34895700000.0 33945700000.0 34953500000.0 34046000000.0 28540300000.0 28040600000.0 31653800000.0 38732100000.0 64793600000.0 65545800000.0 58396200000.0 46778000000.0 38846600000.0 26515000000.0 26204400000.0 13663400000.0 22849200000.0 9038490000.0 23717200000.0 9035930000.0 21125900000.0 9035860000.0 20519400000.0 9035820000.0 16707300000.0 9035800000.0 10129800000.0 9035780000.0 9035780000.0 9035770000.0 9035770000.0 9035760000.0 9035760000.0 9035760000.0 9035760000.0 9035760000.0 9035750000.0 9035750000.0 9041640000.0 9035750000.0 9035750000.0 9035760000.0 9035760000.0 9035760000.0 9035760000.0 9035760000.0 9035770000.0 9035770000.0 9035780000.0 9035780000.0 10129800000.0 9035800000.0 16707300000.0 9035820000.0 20519400000.0 9035860000.0 21125900000.0 9035930000.0 23717200000.0 9038490000.0 22849200000.0 13663400000.0 26204400000.0 26515000000.0 38846600000.0 46778000000.0 58396200000.0 65545800000.0 64793600000.0 38732100000.0 31653800000.0 28040600000.0 28540300000.0 34046000000.0 34953500000.0 33945700000.0 32989100000.0 34556200000.0 33161600000.0 27482300000.0 26907800000.0 31498600000.0 38413000000.0 60742000000.0 59310900000.0 53867400000.0 42543300000.0 35814100000.0 23755300000.0 24475600000.0 12543600000.0 21915300000.0 9036540000.0 22343700000.0 9035930000.0 19642100000.0 9035870000.0 18800500000.0 9035820000.0 15252500000.0 9035800000.0 9827310000.0 9035780000.0 9035780000.0 9035770000.0 9035770000.0 9035760000.0 9035760000.0 9035760000.0 9035760000.0 9035760000.0 9035750000.0 9035750000.0 9040180000.0 9035750000.0 9035750000.0 9035760000.0 9035760000.0 9035760000.0 9035760000.0 9035760000.0 9035770000.0 9035770000.0 9035780000.0 9035780000.0 9827310000.0 9035800000.0 15252500000.0 9035820000.0 18800500000.0 9035870000.0 19642100000.0 9035930000.0 22343700000.0 9036540000.0 21915300000.0 12543600000.0 24475600000.0 23755300000.0 35814100000.0 42543300000.0 53867400000.0 59310900000.0 60742000000.0 38413000000.0 31498600000.0 26907800000.0 27482300000.0 33161600000.0 34556200000.0 32989100000.0 32026000000.0 34017700000.0 32249400000.0 26472200000.0 25782700000.0 31197900000.0 37871500000.0 56782700000.0 53827200000.0 49857000000.0 38808400000.0 33158100000.0 21424400000.0 22972500000.0 11650200000.0 21035000000.0 9036140000.0 21048400000.0 9035940000.0 18324400000.0 9035870000.0 17292300000.0 9035830000.0 14047500000.0 9035800000.0 9602700000.0 9035780000.0 9035780000.0 9035770000.0 9035770000.0 9035760000.0 9035760000.0 9035760000.0 9035760000.0 9035760000.0 9035750000.0 9035750000.0 9039070000.0 9035750000.0 9035750000.0 9035760000.0 9035760000.0 9035760000.0 9035760000.0 9035760000.0 9035770000.0 9035770000.0 9035780000.0 9035780000.0 9602700000.0 9035800000.0 14047500000.0 9035830000.0 17292300000.0 9035870000.0 18324400000.0 9035940000.0 21048400000.0 9036140000.0 21035000000.0 11650200000.0 22972500000.0 21424400000.0 33158100000.0 38808400000.0 49857000000.0 53827200000.0 56782700000.0 37871500000.0 31197900000.0 25782700000.0 26472200000.0 32249400000.0 34017700000.0 32026000000.0 31056600000.0 33348500000.0 31311100000.0 25502600000.0 24677300000.0 30768300000.0 37136700000.0 52971900000.0 48991000000.0 46286700000.0 35506700000.0 30815300000.0 19451700000.0 21652700000.0 10948200000.0 20193300000.0 9036070000.0 19838000000.0 9035940000.0 17151900000.0 9035870000.0 15976400000.0 9035830000.0 13053900000.0 9035800000.0 9437360000.0 9035780000.0 9035780000.0 9035770000.0 9035770000.0 9035760000.0 9035760000.0 9035760000.0 9035760000.0 9035760000.0 9035750000.0 9035750000.0 9038220000.0 9035750000.0 9035750000.0 9035760000.0 9035760000.0 9035760000.0 9035760000.0 9035760000.0 9035770000.0 9035770000.0 9035780000.0 9035780000.0 9437360000.0 9035800000.0 13053900000.0 9035830000.0 15976400000.0 9035870000.0 17151900000.0 9035940000.0 19838000000.0 9036070000.0 20193300000.0 10948200000.0 21652700000.0 19451700000.0 30815300000.0 35506700000.0 46286700000.0 48991000000.0 52971900000.0 37136700000.0 30768300000.0 24677300000.0 25502600000.0 31311100000.0 33348500000.0 31056600000.0 30081900000.0 32563600000.0 30349900000.0 24566500000.0 23600100000.0 30225200000.0 36237000000.0 49347100000.0 44709400000.0 43084600000.0 32576700000.0 28731100000.0 17777600000.0 20483900000.0 10407400000.0 19381400000.0 9036060000.0 18715400000.0 9035940000.0 16107300000.0 9035870000.0 14835200000.0 9035830000.0 12238700000.0 9035800000.0 9316840000.0 9035780000.0 9035780000.0 9035770000.0 9035770000.0 9035760000.0 9035760000.0 9035760000.0 9035760000.0 9035760000.0 9035750000.0 9035750000.0 9037580000.0 9035750000.0 9035750000.0 9035760000.0 9035760000.0 9035760000.0 9035760000.0 9035760000.0 9035770000.0 9035770000.0 9035780000.0 9035780000.0 9316840000.0 9035800000.0 12238700000.0 9035830000.0 14835200000.0 9035870000.0 16107300000.0 9035940000.0 18715400000.0 9036060000.0 19381400000.0 10407400000.0 20483900000.0 17777600000.0 28731100000.0 32576700000.0 43084600000.0 44709400000.0 49347100000.0 36237000000.0 30225200000.0 23600100000.0 24566500000.0 30349900000.0 32563600000.0 30081900000.0 29102900000.0 31679700000.0 29370000000.0 23658400000.0 22557000000.0 29583200000.0 35199100000.0 45930600000.0 40901900000.0 40188500000.0 29964300000.0 26860500000.0 16353100000.0 19442100000.0 9999850000.0 18595600000.0 9036060000.0 17679900000.0 9035940000.0 15176700000.0 9035870000.0 13851900000.0 9035830000.0 11573600000.0 9035800000.0 9229960000.0 9035780000.0 9035780000.0 9035770000.0 9035770000.0 9035760000.0 9035760000.0 9035760000.0 9035760000.0 9035760000.0 9035750000.0 9035750000.0 9037090000.0 9035750000.0 9035750000.0 9035760000.0 9035760000.0 9035760000.0 9035760000.0 9035760000.0 9035770000.0 9035770000.0 9035780000.0 9035780000.0 9229960000.0 9035800000.0 11573600000.0 9035830000.0 13851900000.0 9035870000.0 15176700000.0 9035940000.0 17679900000.0 9036060000.0 18595600000.0 9999850000.0 19442100000.0 16353100000.0 26860500000.0 29964300000.0 40188500000.0 40901900000.0 45930600000.0 35199100000.0 29583200000.0 22557000000.0 23658400000.0 29370000000.0 31679700000.0 29102900000.0 28121000000.0 30713700000.0 28375500000.0 22774600000.0 21552100000.0 28856000000.0 34048500000.0 42732800000.0 37501200000.0 37546900000.0 27624600000.0 25168300000.0 15139000000.0 18508300000.0 9699550000.0 17835600000.0 9036060000.0 16729300000.0 9035940000.0 14348500000.0 9035870000.0 13010100000.0 9035830000.0 11034000000.0 9035800000.0 9168100000.0 9035780000.0 9035780000.0 9035770000.0 9035770000.0 9035760000.0 9035760000.0 9035760000.0 9035760000.0 9035760000.0 9035750000.0 9035750000.0 9036730000.0 9035750000.0 9035750000.0 9035760000.0 9035760000.0 9035760000.0 9035760000.0 9035760000.0 9035770000.0 9035770000.0 9035780000.0 9035780000.0 9168100000.0 9035800000.0 11034000000.0 9035830000.0 13010100000.0 9035870000.0 14348500000.0 9035940000.0 16729300000.0 9036060000.0 17835600000.0 9699550000.0 18508300000.0 15139000000.0 25168300000.0 27624600000.0 37546900000.0 37501200000.0 42732800000.0 34048500000.0 28856000000.0 21552100000.0 22774600000.0 28375500000.0 30713700000.0 28121000000.0 27137700000.0 29681500000.0 27370400000.0 21912700000.0 20588000000.0 28055900000.0 32808500000.0 39755100000.0 34451100000.0 35118400000.0 25521200000.0 23627800000.0 14103900000.0 17666700000.0 9483310000.0 17102700000.0 9036060000.0 15860200000.0 9035930000.0 13613000000.0 9035870000.0 12294400000.0 9035820000.0 10598900000.0 9035800000.0 9124620000.0 9035780000.0 9035780000.0 9035770000.0 9035770000.0 9035760000.0 9035760000.0 9035760000.0 9035760000.0 9035760000.0 9035750000.0 9035750000.0 9036460000.0 9035750000.0 9035750000.0 9035760000.0 9035760000.0 9035760000.0 9035760000.0 9035760000.0 9035770000.0 9035770000.0 9035780000.0 9035780000.0 9124620000.0 9035800000.0 10598900000.0 9035820000.0 12294400000.0 9035870000.0 13613000000.0 9035930000.0 15860200000.0 9036060000.0 17102700000.0 9483310000.0 17666700000.0 14103900000.0 23627800000.0 25521200000.0 35118400000.0 34451100000.0 39755100000.0 32808500000.0 28055900000.0 20588000000.0 21912700000.0 27370400000.0 29681500000.0 27137700000.0 26154100000.0 28598100000.0 26358500000.0 21071300000.0 19666300000.0 27194300000.0 31500500000.0 36992000000.0 31705800000.0 32870900000.0 23624800000.0 22218400000.0 13223000000.0 16903300000.0 9331130000.0 16399400000.0 9036050000.0 15068400000.0 9035930000.0 12961900000.0 9035860000.0 11690100000.0 9035820000.0 10250300000.0 9035800000.0 9094500000.0 9035780000.0 9035780000.0 9035770000.0 9035770000.0 9035760000.0 9035760000.0 9035760000.0 9035760000.0 9035760000.0 9035750000.0 9035750000.0 9036260000.0 9035750000.0 9035750000.0 9035760000.0 9035760000.0 9035760000.0 9035760000.0 9035760000.0 9035770000.0 9035770000.0 9035780000.0 9035780000.0 9094500000.0 9035800000.0 10250300000.0 9035820000.0 11690100000.0 9035860000.0 12961900000.0 9035930000.0 15068400000.0 9036050000.0 16399400000.0 9331130000.0 16903300000.0 13223000000.0 22218400000.0 23624800000.0 32870900000.0 31705800000.0 36992000000.0 31500500000.0 27194300000.0 19666300000.0 21071300000.0 26358500000.0 28598100000.0 26154100000.0 25171100000.0 27476800000.0 25342700000.0 20249900000.0 18787600000.0 26281600000.0 30144000000.0 34433300000.0 29227800000.0 30779600000.0 21912600000.0 20924900000.0 12475600000.0 16206200000.0 9226470000.0 15727900000.0 9036040000.0 14349500000.0 9035930000.0 12387600000.0 9035860000.0 11183700000.0 9035820000.0 9972860000.0 9035800000.0 9073950000.0 9035780000.0 9035780000.0 9035770000.0 9035770000.0 9035760000.0 9035760000.0 9035760000.0 9035760000.0 9035750000.0 9035750000.0 9035750000.0 9036120000.0 9035750000.0 9035750000.0 9035750000.0 9035760000.0 9035760000.0 9035760000.0 9035760000.0 9035770000.0 9035770000.0 9035780000.0 9035780000.0 9073950000.0 9035800000.0 9972860000.0 9035820000.0 11183700000.0 9035860000.0 12387600000.0 9035930000.0 14349500000.0 9036040000.0 15727900000.0 9226470000.0 16206200000.0 12475600000.0 20924900000.0 21912600000.0 30779600000.0 29227800000.0 34433300000.0 30144000000.0 26281600000.0 18787600000.0 20249900000.0 25342700000.0 27476800000.0 25171100000.0 24189300000.0 26329200000.0 24325600000.0 19448300000.0 17951900000.0 25327000000.0 28755900000.0 32065600000.0 26986200000.0 28825700000.0 20365900000.0 19735200000.0 11844700000.0 15565100000.0 9156160000.0 15090400000.0 9036030000.0 13698700000.0 9035920000.0 11883300000.0 9035860000.0 10762300000.0 9035820000.0 9753490000.0 9035800000.0 9060150000.0 9035780000.0 9035770000.0 9035770000.0 9035770000.0 9035760000.0 9035760000.0 9035760000.0 9035760000.0 9035750000.0 9035750000.0 9035750000.0 9036010000.0 9035750000.0 9035750000.0 9035750000.0 9035760000.0 9035760000.0 9035760000.0 9035760000.0 9035770000.0 9035770000.0 9035770000.0 9035780000.0 9060150000.0 9035800000.0 9753490000.0 9035820000.0 10762300000.0 9035860000.0 11883300000.0 9035920000.0 13698700000.0 9036030000.0 15090400000.0 9156160000.0 15565100000.0 11844700000.0 19735200000.0 20365900000.0 28825700000.0 26986200000.0 32065600000.0 28755900000.0 25327000000.0 17951900000.0 19448300000.0 24325600000.0 26329200000.0 24189300000.0 23208900000.0 25165300000.0 23309300000.0 18666500000.0 17158600000.0 24338800000.0 27351400000.0 29873600000.0 24955000000.0 26994700000.0 18969800000.0 18639600000.0 11315300000.0 14971300000.0 9110030000.0 14488200000.0 9036020000.0 13111600000.0 9035910000.0 11442600000.0 9035850000.0 10414200000.0 9035820000.0 9581290000.0 9035790000.0 9051050000.0 9035780000.0 9035770000.0 9035770000.0 9035770000.0 9035760000.0 9035760000.0 9035760000.0 9035760000.0 9035750000.0 9035750000.0 9035750000.0 9035930000.0 9035750000.0 9035750000.0 9035750000.0 9035760000.0 9035760000.0 9035760000.0 9035760000.0 9035770000.0 9035770000.0 9035770000.0 9035780000.0 9051050000.0 9035790000.0 9581290000.0 9035820000.0 10414200000.0 9035850000.0 11442600000.0 9035910000.0 13111600000.0 9036020000.0 14488200000.0 9110030000.0 14971300000.0 11315300000.0 18639600000.0 18969800000.0 26994700000.0 24955000000.0 29873600000.0 27351400000.0 24338800000.0 17158600000.0 18666500000.0 23309300000.0 25165300000.0 23208900000.0 22229700000.0 23993400000.0 22295200000.0 17904200000.0 16406500000.0 23324300000.0 25942900000.0 27841100000.0 23112200000.0 25275100000.0 17711200000.0 17629600000.0 10873800000.0 14417700000.0 9080510000.0 13922100000.0 9036010000.0 12583400000.0 9035910000.0 11059400000.0 9035850000.0 10128900000.0 9035810000.0 9447130000.0 9035790000.0 9045160000.0 9035780000.0 9035770000.0 9035770000.0 9035770000.0 9035760000.0 9035760000.0 9035760000.0 9035760000.0 9035750000.0 9035750000.0 9035750000.0 9035880000.0 9035750000.0 9035750000.0 9035750000.0 9035760000.0 9035760000.0 9035760000.0 9035760000.0 9035770000.0 9035770000.0 9035770000.0 9035780000.0 9045160000.0 9035790000.0 9447130000.0 9035810000.0 10128900000.0 9035850000.0 11059400000.0 9035910000.0 12583400000.0 9036010000.0 13922100000.0 9080510000.0 14417700000.0 10873800000.0 17629600000.0 17711200000.0 25275100000.0 23112200000.0 27841100000.0 25942900000.0 23324300000.0 16406500000.0 17904200000.0 22295200000.0 23993400000.0 22229700000.0 21251600000.0 22820300000.0 21284400000.0 17161300000.0 15693800000.0 22289700000.0 24541000000.0 25951900000.0 21438800000.0 23657500000.0 16578600000.0 16697800000.0 10508400000.0 13898600000.0 9062080000.0 13391800000.0 9036000000.0 12109600000.0 9035900000.0 10727900000.0 9035840000.0 9896590000.0 9035810000.0 9343420000.0 9035790000.0 9041420000.0 9035780000.0 9035770000.0 9035770000.0 9035760000.0 9035760000.0 9035760000.0 9035760000.0 9035760000.0 9035750000.0 9035750000.0 9035750000.0 9035840000.0 9035750000.0 9035750000.0 9035750000.0 9035760000.0 9035760000.0 9035760000.0 9035760000.0 9035760000.0 9035770000.0 9035770000.0 9035780000.0 9041420000.0 9035790000.0 9343420000.0 9035810000.0 9896590000.0 9035840000.0 10727900000.0 9035900000.0 12109600000.0 9036000000.0 13391800000.0 9062080000.0 13898600000.0 10508400000.0 16697800000.0 16578600000.0 23657500000.0 21438800000.0 25951900000.0 24541000000.0 22289700000.0 15693800000.0 17161300000.0 21284400000.0 22820300000.0 21251600000.0 20274000000.0 21651300000.0 20277800000.0 16436900000.0 15018500000.0 21240500000.0 23154000000.0 24190000000.0 19917800000.0 22133900000.0 15561500000.0 15837000000.0 10208100000.0 13409200000.0 9050880000.0 12896800000.0 9035980000.0 11685800000.0 9035890000.0 10442600000.0 9035840000.0 9708940000.0 9035810000.0 9263910000.0 9035790000.0 9039090000.0 9035770000.0 9035770000.0 9035770000.0 9035760000.0 9035760000.0 9035760000.0 9035760000.0 9035760000.0 9035750000.0 9035750000.0 9035750000.0 9035810000.0 9035750000.0 9035750000.0 9035750000.0 9035760000.0 9035760000.0 9035760000.0 9035760000.0 9035760000.0 9035770000.0 9035770000.0 9035770000.0 9039090000.0 9035790000.0 9263910000.0 9035810000.0 9708940000.0 9035840000.0 10442600000.0 9035890000.0 11685800000.0 9035980000.0 12896800000.0 9050880000.0 13409200000.0 10208100000.0 15837000000.0 15561500000.0 22133900000.0 19917800000.0 24190000000.0 23154000000.0 21240500000.0 15018500000.0 16436900000.0 20277800000.0 21651300000.0 20274000000.0 19296600000.0 20490300000.0 19275600000.0 15730200000.0 14378200000.0 20181100000.0 21788400000.0 22540100000.0 18533500000.0 20696700000.0 14649700000.0 15040500000.0 9962890000.0 12945900000.0 9044250000.0 12435800000.0 9035970000.0 11307400000.0 9035880000.0 10198200000.0 9035830000.0 9558410000.0 9035800000.0 9203460000.0 9035780000.0 9037680000.0 9035770000.0 9035770000.0 9035770000.0 9035760000.0 9035760000.0 9035760000.0 9035760000.0 9035760000.0 9035750000.0 9035750000.0 9035750000.0 9035790000.0 9035750000.0 9035750000.0 9035750000.0 9035760000.0 9035760000.0 9035760000.0 9035760000.0 9035760000.0 9035770000.0 9035770000.0 9035770000.0 9037680000.0 9035780000.0 9203460000.0 9035800000.0 9558410000.0 9035830000.0 10198200000.0 9035880000.0 11307400000.0 9035970000.0 12435800000.0 9044250000.0 12945900000.0 9962890000.0 15040500000.0 14649700000.0 20696700000.0 18533500000.0 22540100000.0 21788400000.0 20181100000.0 14378200000.0 15730200000.0 19275600000.0 20490300000.0 19296600000.0 18319000000.0 19340100000.0 18278100000.0 15040000000.0 13770000000.0 19115200000.0 20448400000.0 20987900000.0 17271800000.0 19338800000.0 13833200000.0 14301700000.0 9764030000.0 12505400000.0 9040440000.0 12007000000.0 9035950000.0 10970200000.0 9035870000.0 9989860000.0 9035820000.0 9438510000.0 9035800000.0 9157910000.0 9035780000.0 9036840000.0 9035770000.0 9035770000.0 9035760000.0 9035760000.0 9035760000.0 9035760000.0 9035760000.0 9035760000.0 9035750000.0 9035750000.0 9035750000.0 9035780000.0 9035750000.0 9035750000.0 9035750000.0 9035760000.0 9035760000.0 9035760000.0 9035760000.0 9035760000.0 9035760000.0 9035770000.0 9035770000.0 9036840000.0 9035780000.0 9157910000.0 9035800000.0 9438510000.0 9035820000.0 9989860000.0 9035870000.0 10970200000.0 9035950000.0 12007000000.0 9040440000.0 12505400000.0 9764030000.0 14301700000.0 13833200000.0 19338800000.0 17271800000.0 20987900000.0 20448400000.0 19115200000.0 13770000000.0 15040000000.0 18278100000.0 19340100000.0 18319000000.0 17340700000.0 18202500000.0 17285400000.0 14364900000.0 13191100000.0 18045700000.0 19136900000.0 19520400000.0 16119000000.0 18053100000.0 13102400000.0 13614100000.0 9603670000.0 12085100000.0 9038310000.0 11608300000.0 9035930000.0 10669800000.0 9035860000.0 9812820000.0 9035820000.0 9343640000.0 9035790000.0 9123880000.0 9035780000.0 9036350000.0 9035770000.0 9035770000.0 9035760000.0 9035760000.0 9035760000.0 9035760000.0 9035760000.0 9035760000.0 9035750000.0 9035750000.0 9035750000.0 9035770000.0 9035750000.0 9035750000.0 9035750000.0 9035760000.0 9035760000.0 9035760000.0 9035760000.0 9035760000.0 9035760000.0 9035770000.0 9035770000.0 9036350000.0 9035780000.0 9123880000.0 9035790000.0 9343640000.0 9035820000.0 9812820000.0 9035860000.0 10669800000.0 9035930000.0 11608300000.0 9038310000.0 12085100000.0 9603670000.0 13614100000.0 13102400000.0 18053100000.0 16119000000.0 19520400000.0 19136900000.0 18045700000.0 13191100000.0 14364900000.0 17285400000.0 18202500000.0 17340700000.0 16361700000.0 17078200000.0 16297300000.0 13703400000.0 12638500000.0 16974900000.0 17855000000.0 18125300000.0 15062200000.0 16832400000.0 12447400000.0 12971500000.0 9474950000.0 11682700000.0 9037150000.0 11237000000.0 9035910000.0 10402000000.0 9035850000.0 9662770000.0 9035810000.0 9269030000.0 9035790000.0 9098700000.0 9035780000.0 9036080000.0 9035770000.0 9035760000.0 9035760000.0 9035760000.0 9035760000.0 9035760000.0 9035760000.0 9035750000.0 9035750000.0 9035750000.0 9035750000.0 9035760000.0 9035750000.0 9035750000.0 9035750000.0 9035750000.0 9035760000.0 9035760000.0 9035760000.0 9035760000.0 9035760000.0 9035760000.0 9035770000.0 9036080000.0 9035780000.0 9098700000.0 9035790000.0 9269030000.0 9035810000.0 9662770000.0 9035850000.0 10402000000.0 9035910000.0 11237000000.0 9037150000.0 11682700000.0 9474950000.0 12971500000.0 12447400000.0 16832400000.0 15062200000.0 18125300000.0 17855000000.0 16974900000.0 12638500000.0 13703400000.0 16297300000.0 17078200000.0 16361700000.0 15381600000.0 15967300000.0 15313500000.0 13053800000.0 12109000000.0 15904400000.0 16602400000.0 16791500000.0 14089200000.0 15669400000.0 11858900000.0 12367900000.0 9371930000.0 11295900000.0 9036540000.0 10890600000.0 9035890000.0 10162700000.0 9035840000.0 9535680000.0 9035800000.0 9210640000.0 9035780000.0 9080210000.0 9035770000.0 9035930000.0 9035770000.0 9035760000.0 9035760000.0 9035760000.0 9035760000.0 9035760000.0 9035760000.0 9035750000.0 9035750000.0 9035750000.0 9035750000.0 9035760000.0 9035750000.0 9035750000.0 9035750000.0 9035750000.0 9035760000.0 9035760000.0 9035760000.0 9035760000.0 9035760000.0 9035760000.0 9035770000.0 9035930000.0 9035770000.0 9080210000.0 9035780000.0 9210640000.0 9035800000.0 9535680000.0 9035840000.0 10162700000.0 9035890000.0 10890600000.0 9036540000.0 11295900000.0 9371930000.0 12367900000.0 11858900000.0 15669400000.0 14089200000.0 16791500000.0 16602400000.0 15904400000.0 12109000000.0 13053800000.0 15313500000.0 15967300000.0 15381600000.0 14400600000.0 14869200000.0 14333600000.0 12414500000.0 11599600000.0 14835300000.0 15377500000.0 15508900000.0 13187900000.0 14556600000.0 11327400000.0 11797500000.0 9289490000.0 10922700000.0 9036210000.0 10565900000.0 9035870000.0 9947820000.0 9035820000.0 9427790000.0 9035800000.0 9165070000.0 9035780000.0 9066740000.0 9035770000.0 9035840000.0 9035760000.0 9035760000.0 9035760000.0 9035760000.0 9035760000.0 9035760000.0 9035760000.0 9035750000.0 9035750000.0 9035750000.0 9035750000.0 9035760000.0 9035750000.0 9035750000.0 9035750000.0 9035750000.0 9035760000.0 9035760000.0 9035760000.0 9035760000.0 9035760000.0 9035760000.0 9035760000.0 9035840000.0 9035770000.0 9066740000.0 9035780000.0 9165070000.0 9035800000.0 9427790000.0 9035820000.0 9947820000.0 9035870000.0 10565900000.0 9036210000.0 10922700000.0 9289490000.0 11797500000.0 11327400000.0 14556600000.0 13187900000.0 15508900000.0 15377500000.0 14835300000.0 11599600000.0 12414500000.0 14333600000.0 14869200000.0 14400600000.0 13418500000.0 13782600000.0 13357300000.0 11783700000.0 11107000000.0 13768000000.0 14177900000.0 14268200000.0 12346600000.0 13486500000.0 10843700000.0 11254700000.0 9223240000.0 10561000000.0 9036040000.0 10259800000.0 9035850000.0 9753380000.0 9035810000.0 9335630000.0 9035790000.0 9129450000.0 9035780000.0 9056960000.0 9035770000.0 9035800000.0 9035760000.0 9035760000.0 9035760000.0 9035760000.0 9035760000.0 9035760000.0 9035750000.0 9035750000.0 9035750000.0 9035750000.0 9035750000.0 9035760000.0 9035750000.0 9035750000.0 9035750000.0 9035750000.0 9035750000.0 9035760000.0 9035760000.0 9035760000.0 9035760000.0 9035760000.0 9035760000.0 9035800000.0 9035770000.0 9056960000.0 9035780000.0 9129450000.0 9035790000.0 9335630000.0 9035810000.0 9753380000.0 9035850000.0 10259800000.0 9036040000.0 10561000000.0 9223240000.0 11254700000.0 10843700000.0 13486500000.0 12346600000.0 14268200000.0 14177900000.0 13768000000.0 11107000000.0 11783700000.0 13357300000.0 13782600000.0 13418500000.0 12435500000.0 12706100000.0 12383900000.0 11159800000.0 10628100000.0 12702800000.0 13000000000.0 13060600000.0 11554000000.0 12451400000.0 10398700000.0 10734200000.0 9169390000.0 10208800000.0 9035930000.0 9969180000.0 9035830000.0 9575510000.0 9035800000.0 9255960000.0 9035780000.0 9101360000.0 9035770000.0 9049850000.0 9035760000.0 9035780000.0 9035760000.0 9035760000.0 9035760000.0 9035760000.0 9035760000.0 9035750000.0 9035750000.0 9035750000.0 9035750000.0 9035750000.0 9035750000.0 9035750000.0 9035750000.0 9035750000.0 9035750000.0 9035750000.0 9035750000.0 9035750000.0 9035760000.0 9035760000.0 9035760000.0 9035760000.0 9035760000.0 9035780000.0 9035760000.0 9049850000.0 9035770000.0 9101360000.0 9035780000.0 9255960000.0 9035800000.0 9575510000.0 9035830000.0 9969180000.0 9035930000.0 10208800000.0 9169390000.0 10734200000.0 10398700000.0 12451400000.0 11554000000.0 13060600000.0 13000000000.0 12702800000.0 10628100000.0 11159800000.0 12383900000.0 12706100000.0 12435500000.0 11451800000.0 11637700000.0 11412900000.0 10541200000.0 10159700000.0 11639600000.0 11839600000.0 11878200000.0 10799000000.0 11443600000.0 9983440000.0 10230700000.0 9124660000.0 9864000000.0 9035870000.0 9690520000.0 9035810000.0 9410400000.0 9035790000.0 9185750000.0 9035770000.0 9078770000.0 9035770000.0 9044600000.0 9035760000.0 9035770000.0 9035760000.0 9035760000.0 9035760000.0 9035760000.0 9035750000.0 9035750000.0 9035750000.0 9035750000.0 9035750000.0 9035750000.0 9035750000.0 9035750000.0 9035750000.0 9035750000.0 9035750000.0 9035750000.0 9035750000.0 9035750000.0 9035750000.0 9035760000.0 9035760000.0 9035760000.0 9035760000.0 9035770000.0 9035760000.0 9044600000.0 9035770000.0 9078770000.0 9035770000.0 9185750000.0 9035790000.0 9410400000.0 9035810000.0 9690520000.0 9035870000.0 9864000000.0 9124660000.0 10230700000.0 9983440000.0 11443600000.0 10799000000.0 11878200000.0 11839600000.0 11639600000.0 10159700000.0 10541200000.0 11412900000.0 11637700000.0 11451800000.0 10467400000.0 10575100000.0 10443500000.0 9926290000.0 9698840000.0 10577900000.0 10692000000.0 10713300000.0 10070400000.0 10455000000.0 9589290000.0 9739200000.0 9086140000.0 9524460000.0 9035820000.0 9420430000.0 9035790000.0 9254320000.0 9035770000.0 9122150000.0 9035760000.0 9059880000.0 9035760000.0 9040560000.0 9035760000.0 9035760000.0 9035760000.0 9035760000.0 9035750000.0 9035750000.0 9035750000.0 9035750000.0 9035750000.0 9035750000.0 9035750000.0 9035750000.0 9035750000.0 9035750000.0 9035750000.0 9035750000.0 9035750000.0 9035750000.0 9035750000.0 9035750000.0 9035750000.0 9035750000.0 9035750000.0 9035760000.0 9035760000.0 9035760000.0 9035760000.0 9040560000.0 9035760000.0 9059880000.0 9035760000.0 9122150000.0 9035770000.0 9254320000.0 9035790000.0 9420430000.0 9035820000.0 9524460000.0 9086140000.0 9739200000.0 9589290000.0 10455000000.0 10070400000.0 10713300000.0 10692000000.0 10577900000.0 9698840000.0 9926290000.0 10443500000.0 10575100000.0 10467400000.0 9482670000.0 9515970000.0 9475100000.0 9313550000.0 9242380000.0 9517040000.0 9552160000.0 9558590000.0 9357500000.0 9477870000.0 9207570000.0 9254780000.0 9051200000.0 9188050000.0 9035770000.0 9155430000.0 9035760000.0 9103560000.0 9035760000.0 9062420000.0 9035760000.0 9043120000.0 9035760000.0 9037200000.0 9035750000.0 9035750000.0 9035750000.0 9035750000.0 9035750000.0 9035750000.0 9035750000.0 9035750000.0 9035750000.0 9035750000.0 9035750000.0 9035750000.0 9035750000.0 9035750000.0 9035750000.0 9035750000.0 9035750000.0 9035750000.0 9035750000.0 9035750000.0 9035750000.0 9035750000.0 9035750000.0 9035750000.0 9035750000.0 9035750000.0 9035750000.0 9037200000.0 9035760000.0 9043120000.0 9035760000.0 9062420000.0 9035760000.0 9103560000.0 9035760000.0 9155430000.0 9035770000.0 9188050000.0 9051200000.0 9254780000.0 9207570000.0 9477870000.0 9357500000.0 9558590000.0 9552160000.0 9517040000.0 9242380000.0 9313550000.0 9475100000.0 9515970000.0 9482670000.0 