# vtk DataFile Version 2.0
Time step 15
ASCII
DATASET UNSTRUCTURED_GRID
POINTS 5000 float
93252.1 444560.0 0
399096.0 443803.0 0
403382.0 441862.0 0
406488.0 443999.0 0
81539.2 452134.0 0
85495.1 449373.0 0
89237.2 446982.0 0
92914.5 448173.0 0
96944.0 446018.0 0
100258.0 447697.0 0
103972.0 448465.0 0
108361.0 447909.0 0
113916.0 447903.0 0
119169.0 450366.0 0
124574.0 450126.0 0
129385.0 448865.0 0
134478.0 449234.0 0
139117.0 450161.0 0
143028.0 449914.0 0
147500.0 449850.0 0
152501.0 449820.0 0
157661.0 449252.0 0
162660.0 449421.0 0
167005.0 449159.0 0
171809.0 447976.0 0
177730.0 448055.0 0
182933.0 447229.0 0
187383.0 449089.0 0
192500.0 450268.0 0
196095.0 449447.0 0
201741.0 448783.0 0
207651.0 449555.0 0
212987.0 448901.0 0
218129.0 449977.0 0
222481.0 449989.0 0
225803.0 449251.0 0
230433.0 449107.0 0
235810.0 450093.0 0
241170.0 448798.0 0
246500.0 450804.0 0
252675.0 448779.0 0
259040.0 449267.0 0
263764.0 450340.0 0
268734.0 449265.0 0
273929.0 449532.0 0
278879.0 448198.0 0
286326.0 449838.0 0
291718.0 450297.0 0
297322.0 448171.0 0
303652.0 448953.0 0
312086.0 449359.0 0
317885.0 450000.0 0
323195.0 449779.0 0
327516.0 450206.0 0
332134.0 449763.0 0
337137.0 449345.0 0
345365.0 448746.0 0
354444.0 449979.0 0
360783.0 447961.0 0
366968.0 448777.0 0
371037.0 445530.0 0
375775.0 447990.0 0
381283.0 448745.0 0
386722.0 447978.0 0
392111.0 445656.0 0
396733.0 448254.0 0
403508.0 445460.0 0
401659.0 448653.0 0
406099.0 449094.0 0
409733.0 446622.0 0
413585.0 449081.0 0
417252.0 450968.0 0
420391.0 452618.0 0
74331.9 456097.0 0
77506.9 453921.0 0
81100.9 457022.0 0
85396.5 453782.0 0
89477.2 455411.0 0
90687.3 451072.0 0
96109.0 451095.0 0
101193.0 451791.0 0
98718.7 454852.0 0
106020.0 452851.0 0
111106.0 452569.0 0
114683.0 454728.0 0
117989.0 455077.0 0
122500.0 454954.0 0
128302.0 453099.0 0
132741.0 454882.0 0
137756.0 454863.0 0
143032.0 453802.0 0
146984.0 454327.0 0
151986.0 454589.0 0
156848.0 453281.0 0
161281.0 454098.0 0
166510.0 453831.0 0
173025.0 453526.0 0
178427.0 453459.0 0
183580.0 452289.0 0
188650.0 453519.0 0
193609.0 454419.0 0
198288.0 453781.0 0
203943.0 454391.0 0
213702.0 453449.0 0
209378.0 454627.0 0
217613.0 455049.0 0
222045.0 454829.0 0
226817.0 453484.0 0
232218.0 454519.0 0
237700.0 455339.0 0
243298.0 455193.0 0
248452.0 454881.0 0
252668.0 455347.0 0
257255.0 453907.0 0
262322.0 454517.0 0
267088.0 454118.0 0
271629.0 453431.0 0
277024.0 453818.0 0
282030.0 451529.0 0
282821.0 455217.0 0
287500.0 454927.0 0
292896.0 454793.0 0
298233.0 453685.0 0
303109.0 454623.0 0
307680.0 451481.0 0
307417.0 454774.0 0
312501.0 455122.0 0
317487.0 454879.0 0
322378.0 454241.0 0
327500.0 454908.0 0
332500.0 454980.0 0
340748.0 451017.0 0
337481.0 454116.0 0
343394.0 453735.0 0
349919.0 451121.0 0
347789.0 454049.0 0
352093.0 454877.0 0
360983.0 453886.0 0
357293.0 454275.0 0
364445.0 452639.0 0
371617.0 452593.0 0
377627.0 452502.0 0
381380.0 453498.0 0
384961.0 452763.0 0
389974.0 451919.0 0
393853.0 453915.0 0
398545.0 452829.0 0
403778.0 452583.0 0
409654.0 452101.0 0
406838.0 455692.0 0
414000.0 454010.0 0
418402.0 455747.0 0
423217.0 454438.0 0
426422.0 456413.0 0
65442.0 462055.0 0
68664.7 459415.0 0
69779.3 462028.0 0
71881.4 458814.0 0
76313.4 459378.0 0
79748.3 461736.0 0
85646.4 457625.0 0
88868.0 461047.0 0
91888.7 458242.0 0
94935.0 456229.0 0
102197.0 455988.0 0
98903.3 459520.0 0
106351.0 458540.0 0
111201.0 457270.0 0
115267.0 458587.0 0
118972.0 459527.0 0
122896.0 459607.0 0
127376.0 457698.0 0
131819.0 460880.0 0
137036.0 460350.0 0
141375.0 457962.0 0
146628.0 459236.0 0
156471.0 457862.0 0
161940.0 459752.0 0
170086.0 458327.0 0
176369.0 459224.0 0
182247.0 457428.0 0
188105.0 459679.0 0
194316.0 459443.0 0
200022.0 458881.0 0
204300.0 459865.0 0
208123.0 459533.0 0
213314.0 458260.0 0
217709.0 459981.0 0
222569.0 459103.0 0
226879.0 458487.0 0
232449.0 459984.0 0
237434.0 459764.0 0
241803.0 460417.0 0
246860.0 458960.0 0
251804.0 460244.0 0
257721.0 458660.0 0
262705.0 459295.0 0
267472.0 458576.0 0
273030.0 458680.0 0
279842.0 457867.0 0
283509.0 460161.0 0
287166.0 460246.0 0
290950.0 459077.0 0
296662.0 458711.0 0
302152.0 459842.0 0
307599.0 459204.0 0
313088.0 460315.0 0
318071.0 459386.0 0
322336.0 458238.0 0
326512.0 460345.0 0
336120.0 458732.0 0
331535.0 459935.0 0
341012.0 457684.0 0
346411.0 458310.0 0
351365.0 459704.0 0
355382.0 458052.0 0
360535.0 458568.0 0
365468.0 456760.0 0
369720.0 459065.0 0
376104.0 458289.0 0
382762.0 457731.0 0
387876.0 456524.0 0
390854.0 460084.0 0
395962.0 458426.0 0
402151.0 457818.0 0
410845.0 457527.0 0
407054.0 460378.0 0
415243.0 459622.0 0
419616.0 459835.0 0
422665.0 457848.0 0
423339.0 462350.0 0
429817.0 458848.0 0
426456.0 460020.0 0
433246.0 461525.0 0
61096.1 465100.0 0
65310.9 466173.0 0
72987.8 462514.0 0
68935.3 465194.0 0
72702.9 467361.0 0
76679.2 464307.0 0
83788.4 461821.0 0
80929.8 466300.0 0
85174.5 465984.0 0
93943.5 461127.0 0
88225.0 465001.0 0
92066.2 465733.0 0
96926.5 464363.0 0
103220.0 463486.0 0
109934.0 463397.0 0
115226.0 462805.0 0
120041.0 464042.0 0
125702.0 463347.0 0
129332.0 465069.0 0
134180.0 465302.0 0
138282.0 464264.0 0
142887.0 464527.0 0
152095.0 461004.0 0
148191.0 463857.0 0
156928.0 463103.0 0
153655.0 465656.0 0
160491.0 464495.0 0
166659.0 461795.0 0
164462.0 465427.0 0
170937.0 464420.0 0
177126.0 465783.0 0
182312.0 462903.0 0
186699.0 465311.0 0
191710.0 464812.0 0
197280.0 464168.0 0
203103.0 464019.0 0
208784.0 465887.0 0
214389.0 463926.0 0
218749.0 465208.0 0
222073.0 463365.0 0
227555.0 464030.0 0
234308.0 464376.0 0
237844.0 463093.0 0
241790.0 465018.0 0
246256.0 464147.0 0
251527.0 465501.0 0
255882.0 463385.0 0
260345.0 463043.0 0
266350.0 463261.0 0
271751.0 464948.0 0
278347.0 463374.0 0
284343.0 464893.0 0
288744.0 463381.0 0
292957.0 465119.0 0
298913.0 465028.0 0
303979.0 465248.0 0
307500.0 465072.0 0
312164.0 464893.0 0
316151.0 463991.0 0
320974.0 463610.0 0
325672.0 465379.0 0
329613.0 463774.0 0
334066.0 465715.0 0
339358.0 463061.0 0
345590.0 464553.0 0
356549.0 462031.0 0
352222.0 465253.0 0
360623.0 464743.0 0
365197.0 461852.0 0
370018.0 464651.0 0
380325.0 462874.0 0
386420.0 461147.0 0
384339.0 464892.0 0
389586.0 465794.0 0
395704.0 464722.0 0
399596.0 462027.0 0
400304.0 465548.0 0
403845.0 463492.0 0
410970.0 462811.0 0
407692.0 466047.0 0
415159.0 464075.0 0
418729.0 463273.0 0
421907.0 465995.0 0
429115.0 462911.0 0
426839.0 466610.0 0
432431.0 466400.0 0
437183.0 463887.0 0
441425.0 466963.0 0
50932.3 471494.0 0
56310.6 468812.0 0
62056.4 469718.0 0
58373.8 471860.0 0
67709.7 469780.0 0
71289.6 471296.0 0
75125.6 471990.0 0
77042.2 468306.0 0
79845.4 471357.0 0
83978.7 469681.0 0
88244.2 468567.0 0
91728.5 471406.0 0
95642.0 468947.0 0
99891.4 467470.0 0
99350.0 471254.0 0
103339.0 469738.0 0
106605.0 467224.0 0
106055.0 472178.0 0
109874.0 470433.0 0
114173.0 467424.0 0
118608.0 470123.0 0
123761.0 468304.0 0
128540.0 468498.0 0
132671.0 469629.0 0
137984.0 468939.0 0
148147.0 468205.0 0
143544.0 470303.0 0
152761.0 470401.0 0
158824.0 469378.0 0
167511.0 467845.0 0
164423.0 469963.0 0
171122.0 470422.0 0
183021.0 469812.0 0
193766.0 468890.0 0
189284.0 469736.0 0
198303.0 470078.0 0
203221.0 469119.0 0
212148.0 470135.0 0
216350.0 468542.0 0
221206.0 468856.0 0
226348.0 470651.0 0
232006.0 468898.0 0
237958.0 467828.0 0
242862.0 469662.0 0
248051.0 469231.0 0
252896.0 469532.0 0
257727.0 468569.0 0
262633.0 466624.0 0
267574.0 469175.0 0
272667.0 470831.0 0
278441.0 470028.0 0
283531.0 469473.0 0
288790.0 468700.0 0
293447.0 469639.0 0
297447.0 471056.0 0
302639.0 469553.0 0
306865.0 469922.0 0
311690.0 469668.0 0
316680.0 468438.0 0
321977.0 469246.0 0
330571.0 469126.0 0
326828.0 469973.0 0
341166.0 468711.0 0
336810.0 469600.0 0
345776.0 470849.0 0
350667.0 470811.0 0
356917.0 469038.0 0
365355.0 466745.0 0
361873.0 469718.0 0
368602.0 469913.0 0
375670.0 466361.0 0
372773.0 470810.0 0
380341.0 469842.0 0
385003.0 468971.0 0
393851.0 470491.0 0
398766.0 469076.0 0
403508.0 468500.0 0
406839.0 470544.0 0
410343.0 469710.0 0
412939.0 466851.0 0
413938.0 470356.0 0
417880.0 468281.0 0
422868.0 469377.0 0
426307.0 471583.0 0
430323.0 469944.0 0
435029.0 471788.0 0
436839.0 467906.0 0
442683.0 470713.0 0
439291.0 470822.0 0
445817.0 468338.0 0
448824.0 470805.0 0
39533.8 477565.0 0
42493.9 475395.0 0
46442.0 473978.0 0
49765.6 476201.0 0
54821.5 474808.0 0
59992.0 474313.0 0
63190.6 476902.0 0
64428.1 472820.0 0
67521.7 474309.0 0
71538.5 475059.0 0
75780.9 476601.0 0
82476.3 475335.0 0
78793.8 475146.0 0
86943.4 473217.0 0
95908.7 473874.0 0
102176.0 474029.0 0
106263.0 475873.0 0
111062.0 475547.0 0
114331.0 472194.0 0
117258.0 475304.0 0
122586.0 474260.0 0
128928.0 473838.0 0
134647.0 474095.0 0
139916.0 474565.0 0
144818.0 474977.0 0
149355.0 474403.0 0
153683.0 475219.0 0
157875.0 475159.0 0
162290.0 473850.0 0
167007.0 473781.0 0
172415.0 476192.0 0
176848.0 472061.0 0
186936.0 474726.0 0
192462.0 474258.0 0
197880.0 475784.0 0
202653.0 473691.0 0
207358.0 471271.0 0
206677.0 475882.0 0
210655.0 474657.0 0
216412.0 474435.0 0
222711.0 474528.0 0
228341.0 476195.0 0
236052.0 472825.0 0
240967.0 475256.0 0
246444.0 475804.0 0
250926.0 473693.0 0
256777.0 474775.0 0
262833.0 472201.0 0
268257.0 474590.0 0
272878.0 475720.0 0
277831.0 476046.0 0
282050.0 473405.0 0
287068.0 474786.0 0
292992.0 474088.0 0
301802.0 473461.0 0
306074.0 475411.0 0
311313.0 475375.0 0
316676.0 473551.0 0
322079.0 475158.0 0
327693.0 474570.0 0
333511.0 473344.0 0
341242.0 474724.0 0
346960.0 475645.0 0
351230.0 475279.0 0
354459.0 473165.0 0
359319.0 474375.0 0
365159.0 473720.0 0
370669.0 475964.0 0
376492.0 474310.0 0
380606.0 473917.0 0
384106.0 473388.0 0
388637.0 471941.0 0
398234.0 474526.0 0
404160.0 474349.0 0
408728.0 473174.0 0
412687.0 474069.0 0
416584.0 472736.0 0
421298.0 473520.0 0
417462.0 476951.0 0
425835.0 476593.0 0
430838.0 474792.0 0
439804.0 474675.0 0
445022.0 473381.0 0
446987.0 477191.0 0
448637.0 474632.0 0
449831.0 477806.0 0
452752.0 474163.0 0
457639.0 476556.0 0
31989.1 482468.0 0
36023.4 480909.0 0
39950.3 480708.0 0
41879.5 483076.0 0
44157.6 478538.0 0
52837.5 480116.0 0
48394.8 479709.0 0
58171.3 478795.0 0
56217.6 483211.0 0
60326.2 482284.0 0
63179.2 480668.0 0
67872.5 479030.0 0
72443.4 479152.0 0
75929.3 482191.0 0
79293.4 478524.0 0
82666.0 479523.0 0
86227.7 478167.0 0
91085.0 476919.0 0
95589.7 478684.0 0
99137.3 476887.0 0
102672.0 478489.0 0
98965.9 481488.0 0
106355.0 480072.0 0
109975.0 479695.0 0
114712.0 480049.0 0
120340.0 479549.0 0
125020.0 480181.0 0
132336.0 478637.0 0
128265.0 478613.0 0
136108.0 480726.0 0
140500.0 480125.0 0
145752.0 479648.0 0
151371.0 479600.0 0
157284.0 480533.0 0
162326.0 478522.0 0
167411.0 478861.0 0
177144.0 476379.0 0
176367.0 480117.0 0
181425.0 476486.0 0
185891.0 480011.0 0
191666.0 480139.0 0
197397.0 481321.0 0
202686.0 479140.0 0
207643.0 479909.0 0
212161.0 479036.0 0
217234.0 480821.0 0
223365.0 480496.0 0
234008.0 477351.0 0
238464.0 481005.0 0
243843.0 480319.0 0
248957.0 479935.0 0
252355.0 478000.0 0
255549.0 480873.0 0
262538.0 479383.0 0
268724.0 479557.0 0
273481.0 480256.0 0
278369.0 481434.0 0
282772.0 478802.0 0
287939.0 480808.0 0
293166.0 479417.0 0
297822.0 476408.0 0
302526.0 479349.0 0
308295.0 480332.0 0
313173.0 479902.0 0
317315.0 479314.0 0
325429.0 478238.0 0
322034.0 480712.0 0
329378.0 479800.0 0
334364.0 480595.0 0
336682.0 477137.0 0
339591.0 480787.0 0
350147.0 479746.0 0
354937.0 477725.0 0
359620.0 480323.0 0
365072.0 479387.0 0
369439.0 480903.0 0
375447.0 481415.0 0
381688.0 478162.0 0
386698.0 477118.0 0
391637.0 476507.0 0
388897.0 481311.0 0
395474.0 478377.0 0
399278.0 480255.0 0
404549.0 480359.0 0
408896.0 477414.0 0
410749.0 480482.0 0
413531.0 478736.0 0
421740.0 478992.0 0
426064.0 481137.0 0
430457.0 480099.0 0
435490.0 477082.0 0
434961.0 482043.0 0
439281.0 479950.0 0
443565.0 478060.0 0
447310.0 481460.0 0
450944.0 481221.0 0
453811.0 478777.0 0
461937.0 480073.0 0
457361.0 480991.0 0
466850.0 482004.0 0
25243.9 486854.0 0
28886.4 484719.0 0
33902.8 486117.0 0
38487.2 484781.0 0
42955.0 487124.0 0
45605.3 482986.0 0
47356.9 486380.0 0
49385.0 482905.0 0
51737.1 485861.0 0
55580.0 487201.0 0
60022.9 486496.0 0
65126.8 484033.0 0
70490.5 483129.0 0
68429.3 487518.0 0
73105.6 486486.0 0
77338.1 486440.0 0
81579.8 484102.0 0
87580.4 483008.0 0
92733.3 482245.0 0
95703.7 486173.0 0
100566.0 485954.0 0
103371.0 482615.0 0
104879.0 486621.0 0
108799.0 483883.0 0
113824.0 486274.0 0
119727.0 485159.0 0
125227.0 484802.0 0
129444.0 482597.0 0
134130.0 484974.0 0
138559.0 483991.0 0
142566.0 485039.0 0
148063.0 484829.0 0
153612.0 484732.0 0
157775.0 486534.0 0
162200.0 484068.0 0
167525.0 483811.0 0
171671.0 481523.0 0
171104.0 485557.0 0
176870.0 485126.0 0
181110.0 482103.0 0
186977.0 485034.0 0
191622.0 485439.0 0
201658.0 484607.0 0
207185.0 484876.0 0
213018.0 484555.0 0
219836.0 485901.0 0
228989.0 482202.0 0
224944.0 485810.0 0
228683.0 486296.0 0
233417.0 481815.0 0
232717.0 485578.0 0
237006.0 486248.0 0
242087.0 484550.0 0
246545.0 484309.0 0
251473.0 483872.0 0
257773.0 486139.0 0
262741.0 485450.0 0
268248.0 485173.0 0
274060.0 485208.0 0
284557.0 484889.0 0
289617.0 485762.0 0
293216.0 483881.0 0
297637.0 481705.0 0
302318.0 485028.0 0
307401.0 485578.0 0
311866.0 484142.0 0
316589.0 483899.0 0
321116.0 485813.0 0
326194.0 484282.0 0
331618.0 484756.0 0
337135.0 486332.0 0
345090.0 481579.0 0
342437.0 486116.0 0
346265.0 486025.0 0
350459.0 484888.0 0
355185.0 483298.0 0
360773.0 486336.0 0
365671.0 484198.0 0
370102.0 485309.0 0
380594.0 484933.0 0
384316.0 482659.0 0
388767.0 485949.0 0
394246.0 482650.0 0
401689.0 485146.0 0
407049.0 486933.0 0
408632.0 482562.0 0
412400.0 482640.0 0
412362.0 486595.0 0
417508.0 483038.0 0
422712.0 483074.0 0
426366.0 485378.0 0
421956.0 487283.0 0
430775.0 485021.0 0
435448.0 487350.0 0
439456.0 485080.0 0
443170.0 482997.0 0
446043.0 485561.0 0
449115.0 485605.0 0
453718.0 484612.0 0
459021.0 484759.0 0
464103.0 485456.0 0
470576.0 485250.0 0
475590.0 488624.0 0
21610.9 489075.0 0
17734.4 492740.0 0
25236.3 490224.0 0
29568.7 489250.0 0
34185.9 490579.0 0
38566.8 489535.0 0
43411.9 491532.0 0
48141.4 490257.0 0
52894.1 490277.0 0
56962.2 489907.0 0
60496.3 491405.0 0
63813.5 488341.0 0
65643.4 492719.0 0
71368.6 491264.0 0
75502.2 489451.0 0
80263.2 490413.0 0
85744.8 488234.0 0
90793.9 487330.0 0
102316.0 489881.0 0
98666.2 489680.0 0
108870.0 489288.0 0
112560.0 491693.0 0
117639.0 491409.0 0
123317.0 489666.0 0
129442.0 489289.0 0
134808.0 489778.0 0
138437.0 487873.0 0
142739.0 490294.0 0
148729.0 491380.0 0
154074.0 489529.0 0
158401.0 490721.0 0
163427.0 489888.0 0
168735.0 489057.0 0
173632.0 488810.0 0
178014.0 489498.0 0
182439.0 486917.0 0
181749.0 491485.0 0
186584.0 490298.0 0
191689.0 489944.0 0
196421.0 486767.0 0
201213.0 490200.0 0
207223.0 490928.0 0
212162.0 489490.0 0
216868.0 490698.0 0
221634.0 491539.0 0
226095.0 490339.0 0
231041.0 489650.0 0
235893.0 490885.0 0
241299.0 489463.0 0
246740.0 489242.0 0
252435.0 489379.0 0
257587.0 491359.0 0
263716.0 490949.0 0
269607.0 490834.0 0
274576.0 490181.0 0
279343.0 486950.0 0
283958.0 489339.0 0
288535.0 490785.0 0
292593.0 489191.0 0
296492.0 486630.0 0
298637.0 491360.0 0
303539.0 490012.0 0
307674.0 489943.0 0
312181.0 489365.0 0
317436.0 489015.0 0
323195.0 490760.0 0
327816.0 488903.0 0
332502.0 489884.0 0
337371.0 491637.0 0
341168.0 490077.0 0
344708.0 489632.0 0
348771.0 489054.0 0
354532.0 489509.0 0
359866.0 491493.0 0
366028.0 489090.0 0
376999.0 487863.0 0
372135.0 490200.0 0
381019.0 491515.0 0
384522.0 487358.0 0
385748.0 491609.0 0
389766.0 490350.0 0
392624.0 487157.0 0
397070.0 487522.0 0
394166.0 490935.0 0
402211.0 490014.0 0
406049.0 491764.0 0
410620.0 491074.0 0
416919.0 489516.0 0
421726.0 491966.0 0
426610.0 490299.0 0
431266.0 489792.0 0
435622.0 492482.0 0
439857.0 489992.0 0
443199.0 487619.0 0
444071.0 491792.0 0
451212.0 489018.0 0
447186.0 488884.0 0
454252.0 492357.0 0
456488.0 488654.0 0
460437.0 488620.0 0
459451.0 493008.0 0
467362.0 488904.0 0
463758.0 490914.0 0
467482.0 493069.0 0
470987.0 490272.0 0
473917.0 492402.0 0
477148.0 492995.0 0
481048.0 491885.0 0
485822.0 494052.0 0
10395.2 495221.0 0
7994.99 498265.0 0
13479.6 494031.0 0
13813.2 497900.0 0
19393.0 498031.0 0
22729.3 493727.0 0
25087.0 498456.0 0
27496.4 493779.0 0
29490.5 497412.0 0
32130.1 494035.0 0
33794.1 498510.0 0
37326.7 494446.0 0
46556.6 493941.0 0
42607.0 495936.0 0
50675.2 494016.0 0
47705.5 498299.0 0
52467.1 497686.0 0
55905.7 494179.0 0
60879.7 495890.0 0
70078.2 496173.0 0
75537.4 494840.0 0
81067.2 496718.0 0
84644.6 493023.0 0
88892.5 492134.0 0
91250.4 496025.0 0
94346.0 491774.0 0
96564.0 496230.0 0
100213.0 493732.0 0
105230.0 491942.0 0
104557.0 496264.0 0
108940.0 494194.0 0
113395.0 495894.0 0
123767.0 495013.0 0
128255.0 494515.0 0
133612.0 494731.0 0
139296.0 494224.0 0
143910.0 495085.0 0
152345.0 495266.0 0
156991.0 495520.0 0
161882.0 494773.0 0
167101.0 493953.0 0
173409.0 495006.0 0
178765.0 495181.0 0
183757.0 496068.0 0
189520.0 495180.0 0
195989.0 492474.0 0
193978.0 496271.0 0
199800.0 495219.0 0
203934.0 495776.0 0
208407.0 496068.0 0
212794.0 494114.0 0
219087.0 495455.0 0
223351.0 495002.0 0
227644.0 495048.0 0
232479.0 494403.0 0
237832.0 495302.0 0
242375.0 495863.0 0
246754.0 494076.0 0
251932.0 495626.0 0
257380.0 495653.0 0
267673.0 495014.0 0
271740.0 494579.0 0
279881.0 492294.0 0
276076.0 495006.0 0
284231.0 493747.0 0
288511.0 496024.0 0
293526.0 493734.0 0
298686.0 496116.0 0
302502.0 494924.0 0
306566.0 493812.0 0
311536.0 495083.0 0
316651.0 493829.0 0
321108.0 495786.0 0
324602.0 494669.0 0
328390.0 493606.0 0
333791.0 495530.0 0
339198.0 495781.0 0
343426.0 493834.0 0
349304.0 494673.0 0
355817.0 496294.0 0
362214.0 496208.0 0
368066.0 494293.0 0
376366.0 492253.0 0
373385.0 495608.0 0
378107.0 496012.0 0
385696.0 495910.0 0
390462.0 495255.0 0
394941.0 494992.0 0
398417.0 492298.0 0
398585.0 496835.0 0
402632.0 494961.0 0
408469.0 496660.0 0
414097.0 493081.0 0
414047.0 496760.0 0
418333.0 494942.0 0
425135.0 494977.0 0
430619.0 495015.0 0
435625.0 497522.0 0
440379.0 495046.0 0
444958.0 495884.0 0
448948.0 493513.0 0
452543.0 495820.0 0
456216.0 496613.0 0
460546.0 497819.0 0
464019.0 494980.0 0
471220.0 494457.0 0
468398.0 497531.0 0
475051.0 495093.0 0
473557.0 498661.0 0
478433.0 496812.0 0
482952.0 497214.0 0
486712.0 498083.0 0
489590.0 496393.0 0
493435.0 498481.0 0
2690.39 500006.0 0
5799.31 503137.0 0
10970.7 502511.0 0
16382.7 502885.0 0
21543.0 502096.0 0
25422.9 502607.0 0
29891.6 501661.0 0
38802.4 499619.0 0
43482.3 500248.0 0
51634.7 501944.0 0
56884.7 499879.0 0
61780.4 500132.0 0
65383.0 497902.0 0
65123.2 502413.0 0
69099.6 500693.0 0
73031.8 499115.0 0
76878.2 499917.0 0
81101.3 502308.0 0
86635.7 497324.0 0
86583.6 501892.0 0
90450.9 500248.0 0
93833.0 498514.0 0
95624.7 502272.0 0
100055.0 498957.0 0
104285.0 500901.0 0
109098.0 499363.0 0
114671.0 501154.0 0
118890.0 497213.0 0
124548.0 500117.0 0
129480.0 498853.0 0
134004.0 500633.0 0
139350.0 499929.0 0
144381.0 499157.0 0
147257.0 501550.0 0
148429.0 497331.0 0
152706.0 499508.0 0
162938.0 498961.0 0
158564.0 499916.0 0
168230.0 499399.0 0
172713.0 500678.0 0
177354.0 500449.0 0
182527.0 500982.0 0
187200.0 500088.0 0
192367.0 500296.0 0
198030.0 499949.0 0
203000.0 499766.0 0
207399.0 500774.0 0
212118.0 499064.0 0
217256.0 500525.0 0
222509.0 499229.0 0
227479.0 500605.0 0
232487.0 499108.0 0
237124.0 499604.0 0
241408.0 500320.0 0
246127.0 499086.0 0
250353.0 500695.0 0
254523.0 500123.0 0
258807.0 500794.0 0
262207.0 497149.0 0
267346.0 500339.0 0
272435.0 498477.0 0
277097.0 500299.0 0
283037.0 499111.0 0
288041.0 500565.0 0
292582.0 499311.0 0
297194.0 500037.0 0
301917.0 499950.0 0
306748.0 498536.0 0
315953.0 498735.0 0
311265.0 500457.0 0
320291.0 500213.0 0
325989.0 499394.0 0
332355.0 501594.0 0
338055.0 500623.0 0
343111.0 498832.0 0
347806.0 500252.0 0
352458.0 500825.0 0
357297.0 501835.0 0
361832.0 501608.0 0
366262.0 500449.0 0
370817.0 499594.0 0
375782.0 500791.0 0
381832.0 497640.0 0
380250.0 500765.0 0
384910.0 500439.0 0
390159.0 499993.0 0
394636.0 499360.0 0
399203.0 501598.0 0
403673.0 499610.0 0
412630.0 501360.0 0
417710.0 500091.0 0
422017.0 498194.0 0
427194.0 499795.0 0
432702.0 501997.0 0
437778.0 501426.0 0
442892.0 500220.0 0
448129.0 498677.0 0
450501.0 501877.0 0
452712.0 499134.0 0
453311.0 502783.0 0
457311.0 501380.0 0
462253.0 502191.0 0
464686.0 498966.0 0
466662.0 502363.0 0
470254.0 501451.0 0
477274.0 500524.0 0
474269.0 503563.0 0
480852.0 500563.0 0
478874.0 503660.0 0
482835.0 503821.0 0
485782.0 501581.0 0
489758.0 504055.0 0
489899.0 500442.0 0
493695.0 503143.0 0
497339.0 500055.0 0
2086.6 505018.0 0
8122.26 506545.0 0
12558.2 507435.0 0
16939.5 507594.0 0
19882.0 505569.0 0
23375.5 506019.0 0
27700.8 505822.0 0
35018.9 503859.0 0
35678.7 507775.0 0
41300.7 503753.0 0
38850.3 507277.0 0
46562.7 503947.0 0
43069.8 507825.0 0
50992.2 506701.0 0
55518.4 505169.0 0
60693.0 504495.0 0
64881.1 505896.0 0
68638.7 504821.0 0
72703.0 503209.0 0
76672.1 503914.0 0
79238.3 507455.0 0
84678.4 505753.0 0
90405.4 505674.0 0
100753.0 504479.0 0
105752.0 504768.0 0
110401.0 504901.0 0
115159.0 506626.0 0
120009.0 502439.0 0
124377.0 505131.0 0
129116.0 503973.0 0
133660.0 505099.0 0
138149.0 505271.0 0
143593.0 503384.0 0
147062.0 505748.0 0
150978.0 503572.0 0
155914.0 503489.0 0
161426.0 503897.0 0
167388.0 505476.0 0
173146.0 504955.0 0
178267.0 505930.0 0
183899.0 505694.0 0
189396.0 504796.0 0
194328.0 504792.0 0
203856.0 503988.0 0
199180.0 505613.0 0
208348.0 505818.0 0
213188.0 504348.0 0
217912.0 505819.0 0
222500.0 504988.0 0
227501.0 505183.0 0
231612.0 503289.0 0
235593.0 503725.0 0
241066.0 504709.0 0
246281.0 504959.0 0
252722.0 505417.0 0
257760.0 504523.0 0
262579.0 503752.0 0
268507.0 505060.0 0
272349.0 503127.0 0
276523.0 505338.0 0
282726.0 504909.0 0
287925.0 504975.0 0
293272.0 504770.0 0
297938.0 503881.0 0
302054.0 505952.0 0
306651.0 503405.0 0
311289.0 505710.0 0
317063.0 504492.0 0
322781.0 504608.0 0
326594.0 504312.0 0
331345.0 506031.0 0
335388.0 506460.0 0
340491.0 505329.0 0
344767.0 503304.0 0
349302.0 504946.0 0
354839.0 506993.0 0
360789.0 506402.0 0
366305.0 505767.0 0
371494.0 504409.0 0
376421.0 506488.0 0
381964.0 505012.0 0
387909.0 504589.0 0
394429.0 504245.0 0
399433.0 507045.0 0
404391.0 506376.0 0
407557.0 502699.0 0
411595.0 506623.0 0
416504.0 504983.0 0
422474.0 504302.0 0
428435.0 504713.0 0
435899.0 505310.0 0
440104.0 505305.0 0
447379.0 503187.0 0
444233.0 504684.0 0
443325.0 507094.0 0
450972.0 505375.0 0
455380.0 505956.0 0
459976.0 505843.0 0
464847.0 505976.0 0
469905.0 505918.0 0
476885.0 506577.0 0
481231.0 507693.0 0
486713.0 506874.0 0
491819.0 507279.0 0
497860.0 503713.0 0
496685.0 507381.0 0
2123.04 508675.0 0
2784.43 512915.0 0
7686.82 510672.0 0
12533.0 511634.0 0
20707.6 509132.0 0
16532.6 511456.0 0
25588.8 510102.0 0
31612.3 508866.0 0
36961.8 511520.0 0
47162.5 509484.0 0
54390.8 510386.0 0
58445.9 508460.0 0
62454.8 509170.0 0
67516.7 509213.0 0
73010.8 508272.0 0
76574.6 510184.0 0
74901.9 512533.0 0
83344.6 509897.0 0
89998.3 512061.0 0
96095.5 507618.0 0
94885.9 511936.0 0
99509.0 511743.0 0
103809.0 508915.0 0
109194.0 510900.0 0
114988.0 511590.0 0
119991.0 507626.0 0
124360.0 510145.0 0
129406.0 509109.0 0
134260.0 509567.0 0
142098.0 507894.0 0
138531.0 511198.0 0
145772.0 510636.0 0
150959.0 509258.0 0
157016.0 508726.0 0
162839.0 509847.0 0
171222.0 509824.0 0
175575.0 511474.0 0
183311.0 509622.0 0
179830.0 510604.0 0
187359.0 509851.0 0
192725.0 509384.0 0
198036.0 511235.0 0
203015.0 509045.0 0
206929.0 511327.0 0
211078.0 509889.0 0
215739.0 510153.0 0
221239.0 510249.0 0
227180.0 510520.0 0
231684.0 507479.0 0
237663.0 509484.0 0
243924.0 510153.0 0
248974.0 509920.0 0
254220.0 511534.0 0
257365.0 507862.0 0
260307.0 509895.0 0
265460.0 508908.0 0
272343.0 509441.0 0
279441.0 510046.0 0
285615.0 509085.0 0
290252.0 508908.0 0
297260.0 509131.0 0
302242.0 511028.0 0
306784.0 508752.0 0
312201.0 511771.0 0
318164.0 510320.0 0
323279.0 509560.0 0
327882.0 507844.0 0
332101.0 510321.0 0
336585.0 511466.0 0
340322.0 509891.0 0
345022.0 508627.0 0
350268.0 510633.0 0
358770.0 511279.0 0
363611.0 510806.0 0
368170.0 510373.0 0
372408.0 509372.0 0
376114.0 511960.0 0
379961.0 509872.0 0
385395.0 510475.0 0
391391.0 507600.0 0
391292.0 512389.0 0
395089.0 509099.0 0
398350.0 511881.0 0
402943.0 511314.0 0
407734.0 509964.0 0
412593.0 512097.0 0
417019.0 509246.0 0
421512.0 510366.0 0
426868.0 509130.0 0
432364.0 507997.0 0
437245.0 509244.0 0
441822.0 509740.0 0
447034.0 508511.0 0
449389.0 513346.0 0
452610.0 509677.0 0
457691.0 510284.0 0
462368.0 509611.0 0
463892.0 513553.0 0
467496.0 510236.0 0
472265.0 512451.0 0
473707.0 508271.0 0
476095.0 512600.0 0
477467.0 510013.0 0
479351.0 513123.0 0
484241.0 511956.0 0
489492.0 511216.0 0
493720.0 510887.0 0
497820.0 511490.0 0
2495.74 517851.0 0
6262.39 515483.0 0
10287.7 514989.0 0
14323.9 515011.0 0
12270.1 518869.0 0
17098.5 514757.0 0
17415.0 518641.0 0
21223.5 514011.0 0
26806.1 515288.0 0
31655.4 517334.0 0
30810.6 513299.0 0
33839.5 514091.0 0
37511.0 517786.0 0
42754.4 513122.0 0
50038.5 513885.0 0
46196.2 517496.0 0
54895.1 514780.0 0
53476.6 518237.0 0
59184.6 513033.0 0
57814.4 517853.0 0
64481.9 513509.0 0
70286.8 514170.0 0
75531.5 516184.0 0
79319.0 513043.0 0
81097.4 517149.0 0
84785.5 514373.0 0
93838.9 516286.0 0
98768.0 516602.0 0
104230.0 514848.0 0
108450.0 517316.0 0
112273.0 515488.0 0
116821.0 517026.0 0
119919.0 512797.0 0
127090.0 514993.0 0
132896.0 514466.0 0
137490.0 515765.0 0
142603.0 514909.0 0
148000.0 514375.0 0
152865.0 514890.0 0
157716.0 513798.0 0
162202.0 515410.0 0
167373.0 513831.0 0
172636.0 514832.0 0
178344.0 515838.0 0
183648.0 513702.0 0
190563.0 514407.0 0
195513.0 515949.0 0
203423.0 514365.0 0
199878.0 516578.0 0
208250.0 515334.0 0
212639.0 514448.0 0
217721.0 514869.0 0
223438.0 515035.0 0
227824.0 515498.0 0
232868.0 514777.0 0
238062.0 515489.0 0
242327.0 514345.0 0
246655.0 514234.0 0
251498.0 515976.0 0
257655.0 515856.0 0
262660.0 514122.0 0
268055.0 514153.0 0
273578.0 516067.0 0
279369.0 516225.0 0
283922.0 513265.0 0
288971.0 513965.0 0
293422.0 512100.0 0
293801.0 516306.0 0
298790.0 514846.0 0
302784.0 514470.0 0
307258.0 514283.0 0
316224.0 515140.0 0
321124.0 515320.0 0
327383.0 513721.0 0
333169.0 515297.0 0
340223.0 514014.0 0
337364.0 516951.0 0
345941.0 515132.0 0
351909.0 515405.0 0
361810.0 514563.0 0
357345.0 516794.0 0
366639.0 515508.0 0
372096.0 514430.0 0
376416.0 516695.0 0
381729.0 515738.0 0
387390.0 516310.0 0
392235.0 517480.0 0
395625.0 514917.0 0
400004.0 516194.0 0
405396.0 516299.0 0
410754.0 517342.0 0
417668.0 513454.0 0
414766.0 515966.0 0
421389.0 514615.0 0
418714.0 517384.0 0
425546.0 513890.0 0
430793.0 512951.0 0
435497.0 513423.0 0
433395.0 516836.0 0
439532.0 512691.0 0
439451.0 517246.0 0
444229.0 513939.0 0
450178.0 517641.0 0
454680.0 514765.0 0
459620.0 514438.0 0
464270.0 517978.0 0
468215.0 515019.0 0
471917.0 517116.0 0
476136.0 515811.0 0
481716.0 516032.0 0
487896.0 515385.0 0
492571.0 515179.0 0
497573.0 515493.0 0
2471.0 522378.0 0
7210.01 519773.0 0
10460.9 522373.0 0
14478.5 522848.0 0
19425.0 523537.0 0
22899.2 519670.0 0
27900.9 520504.0 0
32754.1 522055.0 0
41915.1 522103.0 0
42535.8 518116.0 0
46932.5 521941.0 0
49896.8 518580.0 0
51549.8 521978.0 0
55441.0 521256.0 0
60013.1 522888.0 0
62705.3 517990.0 0
65539.8 522023.0 0
67902.4 518628.0 0
69945.9 521878.0 0
72421.9 518709.0 0
75137.6 522806.0 0
80315.9 521027.0 0
84512.5 519107.0 0
88953.3 517548.0 0
87661.7 521430.0 0
91330.5 521332.0 0
96359.4 521223.0 0
102174.0 520302.0 0
107512.0 522075.0 0
112681.0 520291.0 0
122031.0 517562.0 0
118866.0 521869.0 0
123823.0 522070.0 0
127806.0 520108.0 0
132375.0 519728.0 0
137368.0 520348.0 0
141881.0 521477.0 0
146692.0 519349.0 0
151871.0 521556.0 0
156423.0 518753.0 0
162077.0 521701.0 0
169497.0 520171.0 0
176153.0 521600.0 0
181776.0 520610.0 0
186326.0 518083.0 0
191182.0 519685.0 0
195913.0 520617.0 0
200668.0 521828.0 0
205021.0 518891.0 0
208558.0 521083.0 0
211778.0 519044.0 0
216661.0 520205.0 0
221861.0 519488.0 0
226855.0 519995.0 0
232132.0 519039.0 0
236225.0 520373.0 0
241587.0 518850.0 0
246908.0 519338.0 0
251561.0 520226.0 0
256262.0 520990.0 0
261522.0 519445.0 0
266283.0 518587.0 0
270500.0 520845.0 0
276593.0 521028.0 0
284813.0 518386.0 0
290205.0 518779.0 0
293845.0 520908.0 0
297425.0 519240.0 0
302727.0 517627.0 0
307370.0 518213.0 0
309991.0 520857.0 0
312693.0 517576.0 0
316841.0 519290.0 0
325944.0 519070.0 0
321397.0 521291.0 0
331557.0 520290.0 0
336332.0 521070.0 0
341324.0 519742.0 0
346203.0 520768.0 0
350043.0 519441.0 0
353952.0 521006.0 0
362625.0 520156.0 0
371790.0 519140.0 0
367741.0 520666.0 0
375966.0 521820.0 0
380226.0 520324.0 0
384668.0 520843.0 0
390884.0 522372.0 0
396577.0 520532.0 0
402221.0 520810.0 0
406946.0 521155.0 0
411194.0 522222.0 0
415336.0 519919.0 0
419249.0 522436.0 0
423378.0 519066.0 0
429063.0 517634.0 0
435535.0 520662.0 0
445094.0 519880.0 0
449600.0 521366.0 0
454673.0 520742.0 0
459654.0 518690.0 0
464992.0 522570.0 0
468464.0 518913.0 0
470059.0 522607.0 0
475157.0 520641.0 0
479158.0 518632.0 0
484883.0 519052.0 0
489908.0 519490.0 0
495339.0 519815.0 0
2693.64 527187.0 0
6807.76 524365.0 0
11077.1 525762.0 0
16055.8 527141.0 0
24097.3 524400.0 0
28302.5 524742.0 0
37279.9 523464.0 0
40310.8 527148.0 0
44672.0 525338.0 0
49325.4 526498.0 0
54668.2 525372.0 0
64683.6 527280.0 0
70468.9 526720.0 0
79837.0 525781.0 0
84239.5 523102.0 0
83832.0 526580.0 0
88367.6 525863.0 0
93925.9 526359.0 0
99852.1 525915.0 0
104833.0 526276.0 0
108068.0 526065.0 0
112391.0 526057.0 0
121188.0 526446.0 0
124890.0 525494.0 0
128660.0 524671.0 0
133090.0 524052.0 0
137018.0 525030.0 0
141247.0 525656.0 0
146627.0 525269.0 0
152074.0 526929.0 0
156686.0 524856.0 0
161040.0 527262.0 0
166944.0 526436.0 0
172502.0 525117.0 0
179470.0 525134.0 0
184329.0 525866.0 0
189482.0 524172.0 0
193803.0 525200.0 0
197644.0 524897.0 0
203048.0 525697.0 0
206392.0 523425.0 0
212414.0 524798.0 0
216963.0 524723.0 0
221123.0 524319.0 0
225881.0 525001.0 0
231114.0 523427.0 0
235800.0 525295.0 0
240530.0 524062.0 0
248592.0 524086.0 0
252701.0 523869.0 0
260068.0 524063.0 0
256146.0 525983.0 0
265471.0 523836.0 0
272727.0 524348.0 0
275455.0 524949.0 0
281908.0 523933.0 0
288290.0 523489.0 0
293447.0 525571.0 0
298795.0 523679.0 0
304646.0 522329.0 0
309123.0 524547.0 0
313784.0 522319.0 0
312913.0 527079.0 0
317520.0 524296.0 0
323260.0 526451.0 0
327548.0 523563.0 0
332500.0 525053.0 0
336503.0 525671.0 0
341815.0 525261.0 0
346801.0 525126.0 0
351324.0 524469.0 0
357468.0 524249.0 0
362989.0 526416.0 0
368192.0 524872.0 0
372907.0 526493.0 0
381808.0 524460.0 0
378141.0 526159.0 0
386470.0 526233.0 0
394879.0 525326.0 0
399652.0 525448.0 0
404759.0 525101.0 0
409723.0 527109.0 0
415132.0 525285.0 0
420062.0 526922.0 0
424900.0 524920.0 0
430574.0 523135.0 0
435972.0 525884.0 0
440235.0 522743.0 0
446413.0 525436.0 0
451018.0 524666.0 0
455182.0 526305.0 0
459869.0 523764.0 0
463325.0 527253.0 0
467189.0 526097.0 0
471032.0 527397.0 0
473672.0 524557.0 0
476678.0 527754.0 0
480816.0 523208.0 0
484218.0 527091.0 0
486712.0 523365.0 0
488366.0 527506.0 0
491865.0 524253.0 0
497294.0 524752.0 0
2869.2 532363.0 0
7566.46 528900.0 0
12274.7 529812.0 0
12364.2 533640.0 0
17016.8 532437.0 0
21052.4 528389.0 0
26209.1 528798.0 0
28498.5 532746.0 0
33254.8 528557.0 0
39105.6 532959.0 0
44932.3 529806.0 0
48802.0 532628.0 0
53298.5 530552.0 0
58875.9 528691.0 0
62794.8 532362.0 0
67629.7 531771.0 0
75740.7 528076.0 0
72643.5 531722.0 0
78860.6 531572.0 0
84225.4 530884.0 0
89446.9 530837.0 0
94059.8 531117.0 0
97886.7 530259.0 0
102919.0 531324.0 0
107811.0 529286.0 0
111984.0 532363.0 0
117040.0 528789.0 0
120872.0 532124.0 0
126103.0 529605.0 0
131935.0 529003.0 0
137504.0 529905.0 0
143398.0 530607.0 0
148572.0 529892.0 0
157416.0 529845.0 0
153088.0 531435.0 0
163585.0 529655.0 0
168392.0 531811.0 0
171113.0 528542.0 0
176142.0 529130.0 0
182073.0 531163.0 0
189231.0 529407.0 0
194342.0 529931.0 0
199546.0 529267.0 0
203745.0 531095.0 0
207573.0 528207.0 0
211022.0 531883.0 0
216309.0 530234.0 0
221763.0 528589.0 0
226623.0 530271.0 0
232571.0 529409.0 0
238556.0 529232.0 0
244836.0 528267.0 0
251441.0 528936.0 0
256896.0 530508.0 0
261888.0 528647.0 0
270063.0 527845.0 0
266276.0 531979.0 0
274157.0 530617.0 0
277849.0 527941.0 0
283190.0 530298.0 0
288734.0 528809.0 0
293028.0 531035.0 0
297078.0 528503.0 0
302864.0 528758.0 0
308670.0 529586.0 0
318283.0 529558.0 0
323960.0 531886.0 0
328574.0 528753.0 0
333807.0 530553.0 0
339305.0 529943.0 0
344661.0 529633.0 0
349687.0 529025.0 0
354195.0 527811.0 0
358468.0 530791.0 0
363644.0 531958.0 0
367911.0 529604.0 0
371963.0 531045.0 0
376581.0 530880.0 0
381815.0 529320.0 0
387497.0 530665.0 0
391450.0 527962.0 0
390500.0 531956.0 0
394671.0 531362.0 0
399682.0 530788.0 0
405007.0 530349.0 0
409335.0 531881.0 0
413560.0 530949.0 0
418964.0 532060.0 0
424391.0 530332.0 0
427899.0 532308.0 0
429483.0 528731.0 0
430328.0 532301.0 0
434745.0 531794.0 0
441500.0 528284.0 0
446296.0 529715.0 0
450921.0 529340.0 0
458698.0 528071.0 0
455838.0 531119.0 0
461209.0 531723.0 0
467015.0 530789.0 0
472572.0 531937.0 0
477522.0 532817.0 0
481133.0 530143.0 0
485792.0 531789.0 0
490315.0 530985.0 0
492949.0 533676.0 0
494411.0 529101.0 0
498110.0 531361.0 0
2116.25 536979.0 0
7942.83 533584.0 0
10852.5 536741.0 0
14496.9 536874.0 0
17939.6 536930.0 0
23257.3 533099.0 0
21814.5 537725.0 0
26725.8 537036.0 0
32956.0 536097.0 0
44211.2 534192.0 0
41760.6 537723.0 0
52632.2 536480.0 0
57635.8 534360.0 0
64344.7 537181.0 0
68890.6 536006.0 0
73027.6 536416.0 0
77729.7 536460.0 0
82489.0 535721.0 0
86834.1 534912.0 0
91748.9 535493.0 0
97154.8 534592.0 0
101696.0 537149.0 0
107734.0 537320.0 0
116673.0 534984.0 0
113161.0 537192.0 0
121526.0 536851.0 0
126102.0 535444.0 0
132100.0 535164.0 0
137931.0 535540.0 0
147801.0 534455.0 0
142961.0 535972.0 0
152851.0 536065.0 0
157697.0 534828.0 0
162887.0 534125.0 0
167535.0 536795.0 0
172672.0 533929.0 0
178331.0 534303.0 0
182630.0 536268.0 0
186638.0 533828.0 0
192327.0 534478.0 0
196906.0 534961.0 0
201413.0 534673.0 0
207068.0 534593.0 0
212749.0 535029.0 0
217701.0 536165.0 0
221957.0 533248.0 0
226888.0 535356.0 0
231636.0 535026.0 0
236534.0 534400.0 0
241320.0 533705.0 0
240132.0 537066.0 0
245885.0 533608.0 0
250498.0 534818.0 0
255242.0 534657.0 0
260808.0 534806.0 0
266733.0 537415.0 0
271164.0 534313.0 0
277985.0 534030.0 0
283218.0 537070.0 0
288296.0 534085.0 0
293340.0 535923.0 0
298310.0 533695.0 0
303373.0 534296.0 0
308095.0 534593.0 0
314239.0 534833.0 0
319138.0 534286.0 0
322330.0 537491.0 0
329442.0 534117.0 0
333568.0 534849.0 0
337114.0 534614.0 0
342408.0 535008.0 0
347699.0 534355.0 0
352961.0 533661.0 0
357756.0 535771.0 0
362373.0 536777.0 0
367592.0 535101.0 0
373293.0 535595.0 0
382748.0 534436.0 0
378327.0 535330.0 0
387260.0 535187.0 0
390470.0 535748.0 0
393785.0 535061.0 0
397555.0 535208.0 0
405443.0 536379.0 0
411577.0 535951.0 0
416941.0 537267.0 0
421962.0 536549.0 0
426627.0 535795.0 0
431464.0 536617.0 0
436297.0 537402.0 0
440587.0 534213.0 0
445237.0 533187.0 0
445485.0 537361.0 0
449726.0 534583.0 0
455294.0 535918.0 0
460207.0 537025.0 0
464850.0 535427.0 0
469537.0 536022.0 0
474811.0 537053.0 0
481748.0 536611.0 0
489075.0 536033.0 0
497025.0 535894.0 0
2704.5 541671.0 0
6650.64 538281.0 0
7225.56 542989.0 0
11019.6 540727.0 0
18163.0 541210.0 0
23513.6 541414.0 0
27108.1 541424.0 0
33803.6 541729.0 0
37598.0 539310.0 0
42182.5 542659.0 0
47298.0 538173.0 0
52001.1 542078.0 0
59614.2 539107.0 0
57089.6 542842.0 0
63253.2 542566.0 0
68212.6 540690.0 0
73065.1 540904.0 0
81903.5 540770.0 0
77246.5 540940.0 0
87621.4 539719.0 0
92852.2 540639.0 0
97745.9 540536.0 0
102727.0 542273.0 0
107052.0 542460.0 0
111930.0 541214.0 0
117648.0 540538.0 0
123484.0 540676.0 0
128764.0 540555.0 0
134022.0 540000.0 0
137950.0 540033.0 0
141653.0 539960.0 0
146646.0 540106.0 0
152107.0 540926.0 0
159717.0 538963.0 0
163649.0 539300.0 0
166918.0 541352.0 0
172391.0 538196.0 0
178009.0 539817.0 0
183448.0 540961.0 0
188396.0 538836.0 0
194065.0 539560.0 0
199220.0 539425.0 0
204334.0 539404.0 0
214169.0 538552.0 0
209664.0 539728.0 0
217507.0 540548.0 0
222205.0 538737.0 0
226342.0 539147.0 0
230542.0 540527.0 0
235818.0 539132.0 0
244009.0 537880.0 0
240167.0 540752.0 0
250369.0 540201.0 0
256467.0 540047.0 0
262636.0 540433.0 0
272594.0 539927.0 0
278390.0 539827.0 0
283053.0 542627.0 0
289534.0 539627.0 0
294460.0 540452.0 0
298910.0 539107.0 0
303146.0 538282.0 0
307318.0 539697.0 0
312487.0 540897.0 0
317475.0 539485.0 0
324120.0 542015.0 0
327552.0 538877.0 0
332765.0 539050.0 0
338627.0 540118.0 0
346306.0 537741.0 0
343927.0 540578.0 0
350637.0 539643.0 0
358182.0 540112.0 0
363385.0 541567.0 0
368029.0 540429.0 0
373208.0 541173.0 0
377755.0 539498.0 0
382555.0 539553.0 0
387146.0 539741.0 0
390100.0 540162.0 0
394301.0 539662.0 0
400338.0 539446.0 0
403939.0 542699.0 0
409404.0 541819.0 0
416293.0 542916.0 0
423092.0 541955.0 0
428290.0 540113.0 0
432863.0 541233.0 0
437988.0 542341.0 0
440615.0 538681.0 0
443560.0 541959.0 0
447951.0 540782.0 0
451775.0 539096.0 0
450749.0 542771.0 0
456818.0 541830.0 0
462480.0 541063.0 0
466333.0 539467.0 0
470873.0 540898.0 0
476696.0 542816.0 0
483122.0 542810.0 0
488660.0 541261.0 0
492890.0 538760.0 0
492926.0 542328.0 0
497143.0 541481.0 0
1745.82 545928.0 0
9813.38 546374.0 0
5464.43 546864.0 0
13755.7 544225.0 0
17682.7 545968.0 0
21803.1 544939.0 0
25692.8 544673.0 0
29917.5 544584.0 0
34980.7 546238.0 0
37717.3 543067.0 0
39554.4 546758.0 0
44310.2 547553.0 0
47018.8 543488.0 0
49546.4 546201.0 0
53512.6 547510.0 0
59847.2 546871.0 0
66565.0 546958.0 0
70527.8 544463.0 0
75155.8 544962.0 0
78250.9 543688.0 0
80880.1 545746.0 0
86523.7 545807.0 0
93286.4 545554.0 0
98703.0 545790.0 0
103267.0 546249.0 0
109504.0 545473.0 0
113624.0 545203.0 0
122345.0 544860.0 0
117782.0 546220.0 0
126466.0 545481.0 0
131765.0 544776.0 0
136743.0 544317.0 0
139848.0 546950.0 0
143541.0 545115.0 0
149506.0 544682.0 0
156940.0 543748.0 0
162897.0 543945.0 0
167706.0 545933.0 0
173011.0 543875.0 0
183194.0 545397.0 0
178659.0 545940.0 0
186894.0 544225.0 0
192042.0 544449.0 0
197011.0 543792.0 0
202090.0 544234.0 0
207577.0 544859.0 0
213794.0 542922.0 0
217054.0 545774.0 0
220558.0 543578.0 0
225450.0 543081.0 0
229435.0 545575.0 0
236440.0 544598.0 0
240616.0 546789.0 0
245165.0 544011.0 0
252478.0 545099.0 0
257189.0 545493.0 0
262083.0 545173.0 0
267409.0 542922.0 0
272484.0 546026.0 0
277676.0 544809.0 0
289332.0 544376.0 0
285794.0 546433.0 0
292972.0 544020.0 0
297429.0 544917.0 0
303282.0 543356.0 0
308936.0 545372.0 0
314872.0 546288.0 0
319931.0 543764.0 0
323738.0 546827.0 0
328616.0 544408.0 0
334528.0 544264.0 0
338328.0 546063.0 0
343021.0 545859.0 0
348504.0 544848.0 0
354760.0 543699.0 0
358985.0 544012.0 0
362176.0 545455.0 0
366585.0 545331.0 0
371789.0 546378.0 0
376836.0 543278.0 0
377120.0 547517.0 0
380550.0 543954.0 0
385451.0 543803.0 0
390251.0 543621.0 0
396236.0 545239.0 0
400335.0 543795.0 0
406946.0 547145.0 0
412259.0 547426.0 0
417130.0 548004.0 0
420844.0 546572.0 0
425543.0 546762.0 0
429428.0 544455.0 0
434190.0 546483.0 0
441336.0 547061.0 0
447593.0 545463.0 0
452768.0 546308.0 0
457541.0 547532.0 0
461489.0 545207.0 0
466807.0 543502.0 0
465293.0 547241.0 0
470880.0 546404.0 0
480154.0 546745.0 0
485349.0 547521.0 0
491222.0 546966.0 0
497369.0 546725.0 0
2138.34 549696.0 0
8121.96 551101.0 0
13927.2 549630.0 0
19890.0 550436.0 0
25428.4 549243.0 0
31030.5 549797.0 0
40840.2 550742.0 0
36299.8 550977.0 0
44607.9 552280.0 0
48632.7 550139.0 0
52615.7 552517.0 0
57457.5 551690.0 0
62803.5 551209.0 0
67437.9 551787.0 0
71967.6 549220.0 0
77472.3 549004.0 0
82553.4 550620.0 0
88559.5 552091.0 0
92555.6 549539.0 0
97500.0 550048.0 0
102047.0 549918.0 0
106867.0 549214.0 0
111929.0 549204.0 0
122437.0 548380.0 0
117601.0 550806.0 0
122104.0 552758.0 0
127110.0 550526.0 0
131950.0 549381.0 0
137137.0 549270.0 0
142153.0 549969.0 0
147323.0 549422.0 0
152973.0 547986.0 0
156975.0 550834.0 0
160722.0 548381.0 0
165050.0 549767.0 0
171566.0 549757.0 0
176515.0 550422.0 0
180620.0 550413.0 0
185378.0 549345.0 0
190215.0 548695.0 0
195330.0 549409.0 0
201311.0 549643.0 0
206567.0 550098.0 0
212553.0 548758.0 0
218398.0 549999.0 0
223132.0 547929.0 0
227674.0 550711.0 0
232724.0 549082.0 0
238085.0 550644.0 0
243703.0 550304.0 0
248551.0 548943.0 0
254971.0 549215.0 0
251684.0 552220.0 0
259745.0 549473.0 0
266469.0 549928.0 0
272414.0 550961.0 0
276286.0 549638.0 0
281356.0 548588.0 0
286832.0 551019.0 0
292451.0 548830.0 0
298369.0 550763.0 0
303073.0 548645.0 0
307229.0 549986.0 0
312035.0 551444.0 0
318631.0 550560.0 0
323301.0 551178.0 0
327571.0 549966.0 0
332162.0 548686.0 0
337180.0 549799.0 0
341566.0 550999.0 0
347424.0 550337.0 0
353267.0 548988.0 0
358881.0 547848.0 0
363594.0 549841.0 0
368288.0 549494.0 0
372076.0 550272.0 0
378467.0 552461.0 0
382962.0 548905.0 0
391997.0 548215.0 0
388077.0 550763.0 0
396139.0 550333.0 0
401259.0 548885.0 0
408118.0 551719.0 0
412389.0 552311.0 0
418671.0 551411.0 0
422822.0 550233.0 0
429591.0 549210.0 0
433197.0 550598.0 0
437519.0 549996.0 0
445515.0 549586.0 0
449821.0 550300.0 0
454100.0 550560.0 0
457904.0 551970.0 0
461475.0 549465.0 0
466294.0 551724.0 0
472022.0 552210.0 0
476146.0 548497.0 0
477109.0 552845.0 0
481681.0 551081.0 0
487423.0 552309.0 0
492885.0 552751.0 0
497601.0 551536.0 0
3503.36 555377.0 0
8867.09 555932.0 0
12920.0 554892.0 0
18355.7 556342.0 0
23754.2 554361.0 0
28996.4 555035.0 0
33658.2 554545.0 0
38742.7 555707.0 0
43829.6 556769.0 0
48048.4 554866.0 0
52009.5 557026.0 0
56938.6 557012.0 0
61567.1 555729.0 0
66118.0 556110.0 0
71266.0 555052.0 0
77848.1 555397.0 0
83793.8 555494.0 0
87441.2 557034.0 0
94375.1 553220.0 0
99314.0 555112.0 0
103987.0 555787.0 0
108379.0 554094.0 0
113677.0 553905.0 0
118167.0 555074.0 0
126249.0 555448.0 0
130667.0 554290.0 0
134717.0 552887.0 0
139387.0 553875.0 0
144630.0 554413.0 0
152044.0 554159.0 0
157466.0 556266.0 0
161656.0 553526.0 0
167692.0 553808.0 0
174272.0 555048.0 0
179578.0 554584.0 0
184404.0 554671.0 0
189262.0 552970.0 0
198650.0 553734.0 0
193940.0 555381.0 0
202562.0 555634.0 0
207324.0 555222.0 0
212763.0 555148.0 0
217663.0 554466.0 0
222272.0 553267.0 0
226592.0 555397.0 0
231521.0 554509.0 0
236422.0 555180.0 0
241287.0 555301.0 0
247284.0 554286.0 0
251882.0 556225.0 0
256743.0 554483.0 0
261946.0 554434.0 0
266210.0 557234.0 0
272386.0 555704.0 0
277591.0 554776.0 0
282440.0 554070.0 0
287448.0 556273.0 0
293430.0 555506.0 0
298888.0 555648.0 0
303284.0 553697.0 0
308151.0 554701.0 0
315538.0 555721.0 0
311370.0 556784.0 0
320598.0 555329.0 0
326291.0 555510.0 0
333345.0 554731.0 0
339321.0 555283.0 0
343671.0 554817.0 0
347593.0 555139.0 0
352003.0 554491.0 0
357776.0 553107.0 0
363001.0 554867.0 0
368169.0 554313.0 0
372196.0 557779.0 0
373769.0 553277.0 0
383160.0 555035.0 0
392049.0 553178.0 0
388259.0 556268.0 0
396865.0 554685.0 0
402600.0 555497.0 0
407250.0 555304.0 0
410951.0 556579.0 0
416140.0 554910.0 0
421342.0 554913.0 0
426673.0 553586.0 0
430990.0 556528.0 0
435300.0 554050.0 0
441741.0 553886.0 0
448425.0 555645.0 0
454330.0 554670.0 0
458573.0 556038.0 0
461864.0 553557.0 0
465013.0 556328.0 0
469209.0 556416.0 0
475038.0 556325.0 0
480217.0 556363.0 0
485568.0 557730.0 0
490272.0 556291.0 0
496719.0 556848.0 0
3162.07 562005.0 0
8206.42 560065.0 0
13497.7 560172.0 0
18466.4 561934.0 0
23442.0 559935.0 0
28827.4 560157.0 0
34155.8 559392.0 0
39097.3 560560.0 0
42812.5 560654.0 0
47730.4 559922.0 0
53719.1 561067.0 0
58380.5 562125.0 0
63037.5 560099.0 0
68195.4 559806.0 0
73292.3 560929.0 0
78657.5 561131.0 0
82851.5 559898.0 0
87623.3 560932.0 0
92096.1 558388.0 0
97522.5 560317.0 0
102052.0 559364.0 0
107162.0 560035.0 0
113315.0 559323.0 0
121297.0 558468.0 0
117539.0 560632.0 0
125753.0 561230.0 0
129599.0 558455.0 0
135312.0 558550.0 0
141535.0 558844.0 0
147616.0 559914.0 0
152833.0 559558.0 0
156806.0 560711.0 0
162291.0 559601.0 0
168479.0 559320.0 0
173570.0 560325.0 0
178592.0 559563.0 0
183380.0 560469.0 0
188709.0 558883.0 0
193868.0 560285.0 0
198480.0 558755.0 0
203613.0 559720.0 0
201079.0 562419.0 0
207458.0 559627.0 0
211395.0 559939.0 0
216549.0 559051.0 0
218987.0 562995.0 0
223152.0 559656.0 0
229020.0 559464.0 0
233456.0 558832.0 0
238066.0 559893.0 0
243266.0 560043.0 0
248644.0 559742.0 0
254412.0 560001.0 0
259253.0 559503.0 0
262935.0 561098.0 0
267060.0 562953.0 0
270371.0 559842.0 0
276277.0 559244.0 0
282115.0 560193.0 0
287486.0 560992.0 0
291802.0 561115.0 0
297448.0 559937.0 0
305413.0 559179.0 0
309533.0 560846.0 0
313442.0 560464.0 0
318505.0 559105.0 0
322500.0 560109.0 0
328314.0 560539.0 0
332732.0 560798.0 0
336767.0 559454.0 0
340855.0 559269.0 0
345899.0 559483.0 0
357096.0 558373.0 0
352104.0 560593.0 0
361714.0 559675.0 0
367358.0 560260.0 0
372418.0 562973.0 0
377874.0 558094.0 0
383656.0 561155.0 0
388787.0 560829.0 0
392960.0 558261.0 0
398363.0 560058.0 0
406807.0 558921.0 0
410916.0 560838.0 0
408084.0 562368.0 0
414724.0 559503.0 0
419755.0 560152.0 0
426207.0 560014.0 0
432422.0 560415.0 0
437472.0 559618.0 0
443336.0 559980.0 0
448145.0 561202.0 0
452958.0 559417.0 0
457749.0 559987.0 0
461588.0 558624.0 0
467073.0 560618.0 0
472207.0 559874.0 0
476997.0 560176.0 0
481671.0 561447.0 0
489890.0 560677.0 0
493206.0 562199.0 0
497157.0 562635.0 0
2174.16 567219.0 0
6278.3 566192.0 0
11595.1 566103.0 0
17233.3 566317.0 0
22033.5 565283.0 0
28550.0 565201.0 0
33679.2 564784.0 0
38680.1 565099.0 0
43643.5 564881.0 0
48020.1 564848.0 0
52476.5 565544.0 0
56738.6 566252.0 0
62527.8 565486.0 0
67477.5 564052.0 0
76428.4 565436.0 0
71689.6 566450.0 0
81038.0 564964.0 0
85612.8 564577.0 0
91570.9 564765.0 0
97937.2 565691.0 0
102538.0 563785.0 0
106800.0 565903.0 0
111125.0 563907.0 0
115524.0 563937.0 0
120814.0 564324.0 0
125837.0 566408.0 0
131060.0 564155.0 0
137616.0 564688.0 0
143076.0 564701.0 0
153006.0 563483.0 0
148966.0 565606.0 0
157051.0 565374.0 0
161612.0 566173.0 0
165832.0 563910.0 0
170764.0 564235.0 0
176197.0 565185.0 0
180904.0 563719.0 0
186076.0 565305.0 0
191463.0 563779.0 0
196676.0 564440.0 0
202550.0 567243.0 0
208579.0 564528.0 0
214395.0 563835.0 0
218115.0 567634.0 0
222470.0 565402.0 0
227103.0 564237.0 0
232895.0 563934.0 0
237269.0 567197.0 0
240995.0 564310.0 0
246620.0 565782.0 0
252776.0 565321.0 0
257485.0 563760.0 0
262210.0 566109.0 0
272363.0 563877.0 0
275283.0 567780.0 0
277518.0 563878.0 0
282601.0 567233.0 0
288948.0 565689.0 0
295464.0 565188.0 0
301435.0 563807.0 0
307312.0 564878.0 0
312785.0 565554.0 0
317663.0 563580.0 0
325885.0 564712.0 0
321542.0 565933.0 0
331279.0 565659.0 0
336320.0 563946.0 0
342183.0 564615.0 0
348004.0 564661.0 0
352557.0 566368.0 0
357720.0 564061.0 0
363368.0 564474.0 0
368056.0 565858.0 0
377750.0 564020.0 0
381991.0 567831.0 0
387534.0 565813.0 0
393031.0 563965.0 0
397737.0 566796.0 0
403403.0 564428.0 0
409104.0 565693.0 0
413677.0 564443.0 0
418186.0 565367.0 0
422393.0 564672.0 0
427563.0 566532.0 0
432792.0 564652.0 0
436909.0 564531.0 0
442761.0 565541.0 0
447020.0 564578.0 0
451611.0 564494.0 0
455862.0 563584.0 0
461815.0 564664.0 0
468544.0 565665.0 0
474546.0 565159.0 0
479833.0 565598.0 0
486205.0 565459.0 0
492724.0 566498.0 0
498369.0 566760.0 0
2131.3 571496.0 0
6169.78 570014.0 0
10692.9 572774.0 0
15961.3 570691.0 0
25233.0 569317.0 0
20356.9 570007.0 0
32109.3 570010.0 0
37626.3 570011.0 0
42833.1 569963.0 0
48297.0 569779.0 0
52981.3 570004.0 0
58245.9 570231.0 0
62374.3 569805.0 0
67142.6 569617.0 0
72832.7 570682.0 0
77187.3 569182.0 0
81073.8 570043.0 0
76855.3 573226.0 0
86714.6 569613.0 0
92852.2 571265.0 0
98481.7 571028.0 0
102663.0 568559.0 0
106318.0 571816.0 0
111147.0 569257.0 0
116737.0 568486.0 0
121599.0 571068.0 0
126224.0 570385.0 0
130690.0 570940.0 0
134261.0 568251.0 0
139004.0 570796.0 0
145810.0 570152.0 0
152497.0 570254.0 0
158460.0 569900.0 0
162184.0 572402.0 0
165870.0 569122.0 0
171375.0 569437.0 0
177079.0 571413.0 0
182934.0 570497.0 0
188234.0 571087.0 0
192494.0 568217.0 0
197253.0 571132.0 0
202227.0 572636.0 0
206964.0 571643.0 0
212578.0 569545.0 0
222781.0 570294.0 0
228442.0 569660.0 0
233475.0 569187.0 0
237309.0 571282.0 0
241746.0 569593.0 0
247080.0 572190.0 0
252657.0 570813.0 0
257093.0 568329.0 0
263108.0 571710.0 0
268522.0 568914.0 0
273681.0 572039.0 0
278234.0 570682.0 0
287475.0 570419.0 0
292514.0 570597.0 0
299004.0 570625.0 0
303747.0 568188.0 0
303757.0 573058.0 0
307210.0 570615.0 0
311865.0 570403.0 0
316795.0 568416.0 0
321353.0 570342.0 0
316516.0 572966.0 0
327442.0 570735.0 0
333877.0 571025.0 0
338047.0 568251.0 0
338977.0 572769.0 0
342644.0 570062.0 0
347239.0 569578.0 0
356927.0 569779.0 0
352061.0 571210.0 0
361855.0 569072.0 0
366123.0 569785.0 0
370530.0 570230.0 0
376110.0 569560.0 0
386427.0 570784.0 0
383102.0 571955.0 0
391726.0 569926.0 0
396482.0 570886.0 0
401554.0 571146.0 0
406859.0 569366.0 0
411695.0 569400.0 0
416938.0 569827.0 0
422613.0 569985.0 0
427412.0 571797.0 0
432389.0 570210.0 0
438001.0 568830.0 0
442777.0 571147.0 0
448079.0 568848.0 0
451714.0 572254.0 0
455582.0 568939.0 0
461017.0 571108.0 0
465652.0 569798.0 0
471398.0 571212.0 0
477073.0 570005.0 0
481697.0 569563.0 0
479468.0 572752.0 0
486650.0 572223.0 0
491985.0 571649.0 0
497016.0 570991.0 0
5060.39 575211.0 0
8613.6 577386.0 0
14199.8 576909.0 0
17547.5 574648.0 0
22719.5 574897.0 0
27983.9 573500.0 0
32640.4 575732.0 0
38264.9 575279.0 0
43402.8 574905.0 0
48119.0 575173.0 0
52357.2 574937.0 0
56655.8 574918.0 0
61688.2 574037.0 0
66373.0 574756.0 0
71518.5 575439.0 0
82500.0 575089.0 0
87627.2 574893.0 0
92053.2 577121.0 0
97392.2 575156.0 0
102217.0 574315.0 0
106129.0 575949.0 0
110413.0 575024.0 0
116498.0 574137.0 0
121954.0 576351.0 0
126352.0 574528.0 0
131105.0 576383.0 0
136279.0 576253.0 0
143165.0 574605.0 0
148790.0 575703.0 0
154131.0 575755.0 0
158538.0 574701.0 0
162314.0 577091.0 0
166223.0 574458.0 0
171857.0 575299.0 0
177232.0 577333.0 0
180921.0 574854.0 0
185181.0 575242.0 0
192445.0 574558.0 0
196646.0 576739.0 0
201629.0 577753.0 0
207235.0 576558.0 0
211729.0 575245.0 0
217301.0 573803.0 0
223118.0 576014.0 0
228521.0 575105.0 0
233606.0 573999.0 0
236432.0 577141.0 0
240449.0 575263.0 0
248953.0 577193.0 0
253424.0 575822.0 0
257931.0 573381.0 0
260908.0 576183.0 0
265134.0 577101.0 0
269700.0 574587.0 0
277919.0 576165.0 0
283760.0 573593.0 0
289145.0 575320.0 0
295434.0 575654.0 0
300719.0 576289.0 0
305144.0 576539.0 0
308102.0 574567.0 0
311867.0 574808.0 0
322492.0 575019.0 0
326889.0 576714.0 0
331781.0 575212.0 0
342680.0 575992.0 0
347202.0 574481.0 0
351815.0 576364.0 0
355762.0 574099.0 0
360402.0 573990.0 0
366859.0 574907.0 0
362574.0 578360.0 0
373322.0 575199.0 0
379678.0 574741.0 0
384311.0 577590.0 0
388416.0 575176.0 0
397504.0 574479.0 0
393361.0 576101.0 0
401389.0 577302.0 0
406887.0 574843.0 0
413663.0 575327.0 0
421946.0 574664.0 0
418891.0 576347.0 0
425847.0 576003.0 0
430408.0 575131.0 0
436795.0 575041.0 0
442644.0 576081.0 0
447801.0 574955.0 0
452611.0 575864.0 0
457469.0 575160.0 0
462163.0 575032.0 0
466261.0 574588.0 0
470678.0 577375.0 0
476162.0 574187.0 0
482062.0 575789.0 0
486497.0 577779.0 0
490835.0 576048.0 0
497257.0 576583.0 0
2630.59 579857.0 0
6996.25 580265.0 0
11393.2 580305.0 0
16430.9 580467.0 0
20782.3 579698.0 0
22978.9 583062.0 0
27644.1 579256.0 0
33981.1 580212.0 0
38208.8 580379.0 0
42398.6 579743.0 0
46415.4 579770.0 0
55906.5 579545.0 0
51077.6 579785.0 0
61401.9 579943.0 0
67489.9 579530.0 0
73203.9 580320.0 0
78592.7 578798.0 0
83247.2 579031.0 0
82966.8 583309.0 0
87480.6 579733.0 0
91793.2 581727.0 0
95515.1 582446.0 0
97806.5 579188.0 0
102115.0 578877.0 0
103598.0 582820.0 0
107500.0 579859.0 0
112790.0 579447.0 0
117993.0 579986.0 0
127019.0 578948.0 0
123137.0 580858.0 0
130917.0 582358.0 0
135853.0 580790.0 0
141050.0 579412.0 0
146862.0 581306.0 0
152328.0 580369.0 0
158296.0 580752.0 0
167491.0 579290.0 0
163503.0 580971.0 0
172770.0 581817.0 0
177914.0 581635.0 0
180902.0 579721.0 0
185825.0 580953.0 0
192371.0 580570.0 0
197750.0 581391.0 0
205999.0 580499.0 0
210594.0 580282.0 0
216115.0 579829.0 0
221373.0 581243.0 0
226832.0 581123.0 0
231658.0 578778.0 0
235642.0 580429.0 0
244611.0 578426.0 0
240321.0 580969.0 0
252301.0 580745.0 0
257675.0 578950.0 0
261848.0 579987.0 0
270362.0 579716.0 0
275320.0 581331.0 0
279824.0 581493.0 0
282624.0 578603.0 0
283599.0 582160.0 0
286596.0 579630.0 0
292003.0 580528.0 0
298241.0 581308.0 0
303398.0 580106.0 0
306816.0 582943.0 0
311454.0 580033.0 0
317530.0 578826.0 0
323012.0 579979.0 0
331163.0 579746.0 0
337329.0 578535.0 0
343324.0 581599.0 0
347842.0 578861.0 0
351574.0 581450.0 0
357342.0 578670.0 0
366355.0 580188.0 0
371160.0 580796.0 0
376848.0 580142.0 0
381636.0 580761.0 0
388356.0 580372.0 0
392721.0 580861.0 0
396684.0 579719.0 0
402881.0 582485.0 0
408150.0 580841.0 0
412834.0 581576.0 0
417044.0 580545.0 0
422111.0 579279.0 0
427447.0 580970.0 0
432309.0 579226.0 0
436742.0 581157.0 0
442115.0 581258.0 0
446874.0 582784.0 0
450291.0 579654.0 0
455712.0 581173.0 0
461347.0 579329.0 0
466569.0 580970.0 0
471585.0 582458.0 0
475935.0 579016.0 0
481174.0 581105.0 0
486241.0 582463.0 0
493588.0 579382.0 0
497972.0 581243.0 0
3542.58 585941.0 0
9110.42 584444.0 0
13897.1 584608.0 0
18964.6 585064.0 0
27055.3 585415.0 0
32474.9 584570.0 0
37500.3 584965.0 0
42331.6 585117.0 0
47641.0 584553.0 0
52759.4 584522.0 0
57226.5 583853.0 0
60984.6 586502.0 0
64967.5 584196.0 0
70091.7 584564.0 0
76482.4 585121.0 0
88493.0 584736.0 0
94047.2 587392.0 0
99357.6 584714.0 0
98518.0 588545.0 0
106169.0 585730.0 0
110960.0 584466.0 0
117254.0 586333.0 0
121913.0 584498.0 0
126011.0 585090.0 0
132443.0 587822.0 0
137159.0 585314.0 0
142764.0 585439.0 0
147077.0 585449.0 0
152822.0 585592.0 0
157444.0 586077.0 0
161999.0 585201.0 0
167218.0 584482.0 0
173117.0 587795.0 0
177441.0 585605.0 0
181240.0 583658.0 0
184165.0 587461.0 0
189387.0 585729.0 0
195448.0 585710.0 0
201384.0 585352.0 0
207628.0 585291.0 0
213157.0 584698.0 0
218675.0 586264.0 0
223758.0 585045.0 0
227611.0 587300.0 0
231929.0 584084.0 0
236831.0 584142.0 0
236279.0 588154.0 0
241106.0 586674.0 0
246175.0 583463.0 0
250901.0 585184.0 0
256527.0 585321.0 0
262673.0 584031.0 0
267802.0 584428.0 0
273151.0 586476.0 0
278679.0 585829.0 0
282887.0 586526.0 0
287493.0 585108.0 0
293572.0 585832.0 0
298281.0 586145.0 0
302555.0 584399.0 0
306448.0 587037.0 0
310592.0 588263.0 0
312903.0 584771.0 0
317786.0 584947.0 0
322723.0 585609.0 0
327081.0 583703.0 0
329314.0 587271.0 0
332631.0 584782.0 0
338109.0 584998.0 0
346789.0 585580.0 0
343069.0 586714.0 0
351452.0 586604.0 0
355908.0 583851.0 0
357519.0 588236.0 0
362258.0 584422.0 0
368610.0 585545.0 0
374235.0 585236.0 0
379693.0 585178.0 0
384502.0 583587.0 0
388516.0 585049.0 0
392724.0 584689.0 0
396099.0 588482.0 0
398393.0 583974.0 0
401548.0 587069.0 0
406307.0 586021.0 0
411205.0 585577.0 0
416822.0 586248.0 0
422559.0 584736.0 0
427829.0 586686.0 0
433349.0 585396.0 0
438776.0 585922.0 0
443845.0 586412.0 0
448707.0 586959.0 0
453570.0 586478.0 0
458578.0 585473.0 0
463398.0 585631.0 0
468299.0 585187.0 0
471853.0 586800.0 0
476571.0 584928.0 0
482395.0 586357.0 0
487152.0 587262.0 0
491590.0 584040.0 0
497220.0 585893.0 0
1390.76 590364.0 0
6467.37 590886.0 0
11437.9 589470.0 0
17156.0 590150.0 0
22307.9 589537.0 0
27948.3 591427.0 0
33943.7 589844.0 0
39029.1 590023.0 0
43484.7 589882.0 0
48010.1 589758.0 0
52799.9 589239.0 0
57500.0 590026.0 0
62821.9 590532.0 0
67373.8 589247.0 0
72318.5 589089.0 0
76149.3 591085.0 0
81730.6 589941.0 0
86320.5 593549.0 0
87942.5 589403.0 0
91492.0 593068.0 0
97739.5 593117.0 0
102332.0 589261.0 0
106920.0 589534.0 0
108199.0 593651.0 0
112325.0 590386.0 0
117459.0 592201.0 0
121630.0 593540.0 0
122848.0 589272.0 0
127795.0 589535.0 0
131166.0 591728.0 0
134671.0 589587.0 0
140067.0 591044.0 0
148815.0 589370.0 0
152565.0 593343.0 0
154539.0 589679.0 0
163036.0 589622.0 0
158649.0 590482.0 0
167442.0 589617.0 0
171183.0 592007.0 0
177488.0 590292.0 0
181559.0 591129.0 0
186982.0 592936.0 0
192380.0 590160.0 0
197382.0 590347.0 0
202875.0 591735.0 0
208816.0 590850.0 0
214106.0 590041.0 0
218858.0 591636.0 0
223865.0 591102.0 0
228371.0 591464.0 0
231989.0 589518.0 0
236831.0 593617.0 0
240947.0 590768.0 0
246182.0 589565.0 0
251986.0 590059.0 0
256901.0 591211.0 0
260754.0 589321.0 0
265887.0 589472.0 0
272909.0 591427.0 0
276719.0 590427.0 0
280903.0 589720.0 0
285681.0 590763.0 0
290928.0 589812.0 0
296239.0 590405.0 0
301866.0 589311.0 0
306592.0 591106.0 0
315786.0 590190.0 0
321006.0 589871.0 0
326008.0 588850.0 0
327198.0 593513.0 0
331946.0 589241.0 0
336718.0 590884.0 0
332276.0 593153.0 0
346448.0 589647.0 0
342074.0 590796.0 0
350471.0 591403.0 0
361584.0 590960.0 0
366736.0 590258.0 0
372192.0 590355.0 0
378208.0 591003.0 0
384768.0 589310.0 0
390818.0 588828.0 0
397177.0 593594.0 0
400828.0 591240.0 0
404546.0 589960.0 0
408999.0 590128.0 0
413922.0 591097.0 0
418474.0 591157.0 0
423488.0 589754.0 0
427617.0 591597.0 0
431481.0 589965.0 0
435912.0 589933.0 0
440963.0 590781.0 0
445963.0 590797.0 0
451388.0 590978.0 0
457500.0 590153.0 0
462674.0 590890.0 0
467677.0 589689.0 0
473418.0 590638.0 0
478874.0 590249.0 0
483959.0 591118.0 0
488310.0 591292.0 0
492837.0 589886.0 0
498190.0 590291.0 0
2829.36 594196.0 0
8204.54 595594.0 0
13806.7 594791.0 0
18847.8 594824.0 0
23176.3 593684.0 0
22317.4 598491.0 0
27857.3 596775.0 0
32363.9 594498.0 0
37304.8 595085.0 0
40808.1 594654.0 0
45097.8 595214.0 0
50306.0 594573.0 0
55885.9 595098.0 0
60742.6 594407.0 0
65869.8 594421.0 0
67170.8 598655.0 0
71983.8 594544.0 0
78644.0 595317.0 0
82379.3 595708.0 0
94156.6 598348.0 0
103422.0 595973.0 0
108734.0 598315.0 0
113872.0 595665.0 0
118258.0 595739.0 0
117396.0 598756.0 0
122114.0 598054.0 0
126373.0 594512.0 0
131451.0 595811.0 0
135725.0 594328.0 0
140152.0 597207.0 0
145432.0 594375.0 0
157071.0 594959.0 0
153502.0 598402.0 0
161391.0 594385.0 0
166894.0 595686.0 0
172884.0 596118.0 0
177787.0 595185.0 0
182175.0 595139.0 0
184956.0 597955.0 0
192396.0 595312.0 0
198338.0 594512.0 0
201673.0 597397.0 0
206605.0 596390.0 0
210740.0 594861.0 0
215516.0 595625.0 0
221113.0 595788.0 0
226733.0 596952.0 0
231245.0 594069.0 0
242919.0 594049.0 0
248544.0 594969.0 0
254298.0 595256.0 0
258446.0 598669.0 0
262295.0 594404.0 0
269099.0 595339.0 0
275421.0 594877.0 0
279859.0 593740.0 0
278851.0 598406.0 0
283873.0 595915.0 0
289469.0 594828.0 0
294260.0 594900.0 0
298700.0 595628.0 0
302756.0 593827.0 0
303132.0 598240.0 0
306124.0 595035.0 0
308047.0 598637.0 0
311391.0 594004.0 0
317546.0 594443.0 0
322309.0 595149.0 0
330489.0 597192.0 0
335947.0 596882.0 0
340569.0 594271.0 0
344347.0 594240.0 0
348113.0 594900.0 0
351223.0 598741.0 0
355888.0 593961.0 0
364900.0 594804.0 0
369620.0 594980.0 0
374546.0 594266.0 0
373334.0 598453.0 0
382087.0 594193.0 0
378916.0 597789.0 0
387056.0 594713.0 0
383986.0 597678.0 0
392025.0 593918.0 0
401257.0 595357.0 0
405957.0 594370.0 0
411122.0 595152.0 0
408170.0 598642.0 0
416559.0 595547.0 0
421703.0 593753.0 0
421185.0 598756.0 0
425852.0 595914.0 0
431450.0 595138.0 0
437128.0 594736.0 0
442551.0 596254.0 0
448408.0 595446.0 0
454678.0 594684.0 0
457248.0 598730.0 0
463468.0 595034.0 0
459458.0 594798.0 0
467626.0 594766.0 0
472078.0 595309.0 0
476221.0 594266.0 0
480518.0 594828.0 0
486532.0 594913.0 0
490847.0 594517.0 0
493230.0 598241.0 0
496132.0 594200.0 0
497708.0 598797.0 0
2385.17 599262.0 0
6750.18 600254.0 0
12081.2 600667.0 0
17319.3 599338.0 0
16947.1 603327.0 0
23393.0 603770.0 0
27397.0 601126.0 0
31890.3 599182.0 0
36884.6 600038.0 0
42407.2 599809.0 0
47905.7 599449.0 0
53035.2 600132.0 0
58047.2 599535.0 0
62967.8 599047.0 0
61223.3 603323.0 0
69876.2 602425.0 0
74751.9 599672.0 0
79870.3 600996.0 0
86131.2 599505.0 0
91234.1 603052.0 0
96714.2 603805.0 0
99312.7 599242.0 0
105287.0 600048.0 0
102433.0 603130.0 0
113097.0 600684.0 0
117177.0 603387.0 0
126756.0 599831.0 0
122611.0 603804.0 0
130986.0 599985.0 0
135109.0 598883.0 0
143021.0 601847.0 0
148151.0 599588.0 0
158395.0 599225.0 0
162500.0 600247.0 0
158631.0 603706.0 0
166133.0 601798.0 0
170609.0 599974.0 0
176041.0 599721.0 0
180852.0 599684.0 0
184499.0 601839.0 0
189829.0 600810.0 0
196414.0 599255.0 0
200831.0 602580.0 0
205788.0 601611.0 0
211083.0 599491.0 0
216916.0 601228.0 0
222140.0 600746.0 0
227593.0 601631.0 0
232530.0 599051.0 0
237445.0 598948.0 0
237017.0 603848.0 0
242243.0 599585.0 0
247959.0 600939.0 0
253531.0 600542.0 0
258373.0 603856.0 0
262991.0 600239.0 0
267564.0 601488.0 0
273622.0 600396.0 0
282434.0 599967.0 0
286898.0 600959.0 0
292821.0 599668.0 0
298591.0 601477.0 0
308705.0 603515.0 0
313123.0 600221.0 0
318678.0 599151.0 0
325684.0 599607.0 0
321860.0 602476.0 0
330673.0 602554.0 0
337270.0 601538.0 0
342088.0 599126.0 0
347080.0 601191.0 0
359275.0 599197.0 0
361655.0 603205.0 0
364325.0 599633.0 0
368712.0 599546.0 0
377347.0 601939.0 0
387422.0 600014.0 0
382843.0 602949.0 0
391665.0 599005.0 0
397539.0 599075.0 0
393750.0 603529.0 0
403473.0 600593.0 0
412450.0 599774.0 0
408970.0 603365.0 0
416618.0 600213.0 0
423835.0 603051.0 0
428807.0 600462.0 0
434868.0 599611.0 0
436015.0 603470.0 0
439842.0 601343.0 0
447798.0 599962.0 0
444404.0 600772.0 0
447360.0 603451.0 0
452348.0 599278.0 0
457480.0 603634.0 0
462149.0 600553.0 0
467317.0 599446.0 0
471669.0 599433.0 0
472040.0 603145.0 0
476892.0 599594.0 0
483495.0 599169.0 0
480504.0 603811.0 0
488792.0 598987.0 0
491613.0 603033.0 0
497330.0 603674.0 0
2460.42 604101.0 0
7825.14 605176.0 0
13660.7 605791.0 0
19428.0 608072.0 0
25089.7 608180.0 0
28901.6 605580.0 0
33759.8 604116.0 0
38798.5 604496.0 0
40691.2 608913.0 0
43113.4 605226.0 0
47368.4 604242.0 0
46389.0 608934.0 0
52309.5 605553.0 0
57013.0 603962.0 0
60103.8 608220.0 0
65155.4 604530.0 0
73925.9 605101.0 0
77500.0 605067.0 0
81133.2 608647.0 0
82742.9 605069.0 0
87125.8 605268.0 0
91035.7 608501.0 0
108334.0 603935.0 0
113447.0 606405.0 0
117702.0 607831.0 0
128244.0 604535.0 0
133624.0 603912.0 0
136543.0 607948.0 0
138763.0 604114.0 0
142456.0 607151.0 0
147069.0 604752.0 0
152817.0 604333.0 0
163112.0 605707.0 0
166768.0 606272.0 0
170500.0 604752.0 0
175785.0 604666.0 0
181201.0 605186.0 0
186395.0 605667.0 0
191306.0 606975.0 0
196396.0 605110.0 0
200713.0 606953.0 0
205055.0 606561.0 0
210126.0 605167.0 0
215170.0 605788.0 0
219890.0 605468.0 0
225041.0 605091.0 0
230954.0 605009.0 0
242015.0 606505.0 0
247759.0 607003.0 0
253494.0 605905.0 0
259656.0 608079.0 0
263585.0 605230.0 0
269097.0 606673.0 0
274215.0 605741.0 0
279707.0 604084.0 0
285269.0 606408.0 0
289631.0 605013.0 0
293720.0 604863.0 0
297839.0 606369.0 0
303325.0 605408.0 0
307687.0 607770.0 0
313274.0 605718.0 0
317879.0 604166.0 0
321279.0 605667.0 0
325643.0 605398.0 0
334900.0 603969.0 0
332788.0 608755.0 0
339274.0 605767.0 0
344588.0 604898.0 0
350533.0 604674.0 0
356664.0 604138.0 0
362081.0 608743.0 0
366698.0 605017.0 0
373020.0 604194.0 0
378016.0 605745.0 0
381845.0 608966.0 0
388558.0 604586.0 0
392310.0 608960.0 0
399162.0 604899.0 0
404477.0 606034.0 0
410743.0 608125.0 0
414064.0 604457.0 0
419187.0 603915.0 0
427585.0 605581.0 0
432761.0 604556.0 0
438369.0 607253.0 0
443549.0 604859.0 0
447253.0 607607.0 0
451945.0 604975.0 0
462307.0 606501.0 0
467753.0 604549.0 0
471452.0 608543.0 0
475795.0 605426.0 0
481680.0 608320.0 0
485727.0 604821.0 0
490330.0 608954.0 0
2997.0 609527.0 0
8374.17 611238.0 0
13843.7 610745.0 0
23290.8 612376.0 0
29602.9 610289.0 0
34987.5 609232.0 0
32769.0 613151.0 0
38162.7 612414.0 0
43688.6 611284.0 0
50777.1 610562.0 0
55345.6 610115.0 0
65788.0 609374.0 0
67889.1 613953.0 0
72002.8 609942.0 0
77505.3 609517.0 0
80772.4 613162.0 0
85462.7 609958.0 0
94082.3 613408.0 0
97766.7 609344.0 0
103303.0 609076.0 0
104835.0 614065.0 0
109323.0 610242.0 0
115312.0 610151.0 0
113763.0 613807.0 0
121404.0 609102.0 0
118499.0 613017.0 0
126626.0 609814.0 0
132452.0 611066.0 0
139675.0 611617.0 0
147105.0 610300.0 0
154258.0 610760.0 0
159793.0 609482.0 0
162512.0 614066.0 0
164335.0 610092.0 0
168601.0 609258.0 0
173371.0 609223.0 0
172991.0 613729.0 0
178219.0 610041.0 0
182331.0 609739.0 0
186880.0 610867.0 0
192146.0 612191.0 0
197453.0 610211.0 0
202914.0 610799.0 0
207648.0 609935.0 0
212883.0 609782.0 0
217510.0 609441.0 0
217589.0 613988.0 0
221907.0 610250.0 0
227095.0 610328.0 0
232740.0 610668.0 0
237690.0 609207.0 0
244540.0 611143.0 0
240833.0 611694.0 0
251613.0 611225.0 0
256159.0 609949.0 0
258135.0 614036.0 0
262880.0 609830.0 0
267665.0 611873.0 0
272773.0 609945.0 0
277497.0 609702.0 0
282443.0 610086.0 0
289438.0 609302.0 0
294604.0 609777.0 0
299761.0 609986.0 0
304599.0 611250.0 0
311298.0 610668.0 0
316932.0 609712.0 0
322126.0 609241.0 0
322270.0 613556.0 0
326828.0 610802.0 0
336164.0 613833.0 0
338036.0 610522.0 0
342480.0 610599.0 0
347336.0 609183.0 0
351891.0 609595.0 0
356828.0 610154.0 0
366778.0 610444.0 0
371315.0 609594.0 0
376757.0 610346.0 0
373637.0 613353.0 0
386986.0 609356.0 0
393586.0 614055.0 0
402493.0 609465.0 0
398125.0 610892.0 0
406416.0 611070.0 0
412638.0 613061.0 0
415618.0 609401.0 0
421385.0 609222.0 0
427167.0 610878.0 0
433045.0 610732.0 0
443374.0 611199.0 0
451094.0 610563.0 0
456777.0 609426.0 0
461459.0 611620.0 0
466324.0 610949.0 0
476828.0 611463.0 0
484959.0 612119.0 0
496748.0 609501.0 0
2069.64 615390.0 0
5838.64 614834.0 0
7844.99 618642.0 0
11545.7 615409.0 0
18393.1 614195.0 0
23947.7 618261.0 0
28884.7 614962.0 0
32861.5 617297.0 0
37362.7 616562.0 0
42259.2 614479.0 0
46709.5 615056.0 0
50545.2 615513.0 0
55712.3 614933.0 0
62046.3 614559.0 0
67775.5 618735.0 0
71741.5 615251.0 0
76009.5 615550.0 0
85786.9 615440.0 0
81711.8 618166.0 0
90751.2 618317.0 0
99689.5 614455.0 0
101920.0 619069.0 0
109402.0 616085.0 0
116582.0 618299.0 0
123384.0 614150.0 0
128091.0 614859.0 0
132048.0 615833.0 0
136057.0 615070.0 0
133754.0 618875.0 0
143670.0 614119.0 0
147711.0 615671.0 0
143671.0 618819.0 0
152528.0 616328.0 0
157820.0 615704.0 0
162122.0 618726.0 0
167907.0 614619.0 0
177381.0 614882.0 0
182664.0 614523.0 0
188648.0 616308.0 0
193195.0 616553.0 0
196104.0 614328.0 0
200631.0 615396.0 0
206070.0 614904.0 0
212111.0 615492.0 0
218326.0 619064.0 0
222102.0 615321.0 0
226725.0 615506.0 0
231531.0 615800.0 0
236775.0 614561.0 0
241745.0 615356.0 0
247499.0 616110.0 0
253594.0 615929.0 0
263109.0 614164.0 0
262846.0 618882.0 0
267454.0 617187.0 0
272060.0 614526.0 0
280071.0 614479.0 0
275948.0 617145.0 0
284353.0 614310.0 0
285292.0 618891.0 0
288385.0 614136.0 0
292995.0 614372.0 0
297579.0 614104.0 0
302054.0 615636.0 0
307804.0 615062.0 0
313044.0 615619.0 0
317982.0 615043.0 0
326276.0 616187.0 0
321744.0 617481.0 0
331668.0 615060.0 0
340209.0 614862.0 0
346574.0 615192.0 0
352762.0 614268.0 0
357712.0 615367.0 0
363282.0 614446.0 0
369277.0 614678.0 0
376912.0 615132.0 0
373509.0 617515.0 0
382330.0 615211.0 0
388634.0 614109.0 0
397926.0 616196.0 0
403304.0 616319.0 0
408965.0 615666.0 0
417351.0 614188.0 0
413640.0 617720.0 0
422617.0 615133.0 0
418739.0 619005.0 0
427937.0 616240.0 0
432671.0 617761.0 0
437363.0 614939.0 0
442666.0 616892.0 0
447927.0 615057.0 0
453097.0 614905.0 0
457969.0 615534.0 0
463241.0 615759.0 0
467873.0 615727.0 0
472267.0 615086.0 0
476832.0 617301.0 0
481100.0 615309.0 0
489602.0 614764.0 0
485291.0 617015.0 0
497033.0 615653.0 0
2371.86 619783.0 0
2107.42 624215.0 0
6179.54 623030.0 0
12625.6 620063.0 0
17804.3 619774.0 0
21369.0 624282.0 0
29328.2 619582.0 0
27130.3 623817.0 0
35900.2 621398.0 0
41878.5 619810.0 0
47837.3 619929.0 0
52594.1 619529.0 0
52460.4 624256.0 0
57386.2 620212.0 0
62929.7 620890.0 0
69563.4 623398.0 0
72822.0 619507.0 0
77639.3 620070.0 0
81349.6 624131.0 0
85720.3 620555.0 0
96760.3 619703.0 0
92740.1 624173.0 0
106490.0 620277.0 0
102878.0 624046.0 0
111542.0 620947.0 0
119687.0 623240.0 0
125122.0 619936.0 0
130555.0 620494.0 0
133704.0 624285.0 0
138228.0 619747.0 0
141873.0 623665.0 0
149134.0 620997.0 0
154781.0 619809.0 0
154114.0 623898.0 0
158241.0 621305.0 0
162894.0 623886.0 0
166904.0 620392.0 0
172978.0 619252.0 0
179290.0 619868.0 0
184546.0 619755.0 0
186874.0 624139.0 0
188847.0 621031.0 0
192948.0 620505.0 0
197646.0 619690.0 0
197331.0 623966.0 0
202916.0 620398.0 0
208137.0 619698.0 0
213317.0 621492.0 0
222697.0 619231.0 0
221597.0 623211.0 0
226734.0 620376.0 0
232060.0 621081.0 0
237367.0 620021.0 0
242562.0 620033.0 0
247267.0 622475.0 0
252358.0 620862.0 0
257758.0 619453.0 0
266173.0 622675.0 0
272126.0 620845.0 0
279703.0 619906.0 0
282687.0 623456.0 0
291810.0 619770.0 0
298224.0 619552.0 0
303658.0 620046.0 0
308645.0 620726.0 0
312860.0 619791.0 0
317778.0 620909.0 0
324560.0 621164.0 0
329592.0 620563.0 0
335536.0 619681.0 0
341906.0 619943.0 0
351875.0 619559.0 0
347168.0 621006.0 0
357261.0 620547.0 0
363428.0 621493.0 0
369265.0 620036.0 0
373966.0 623151.0 0
377966.0 619332.0 0
382123.0 622158.0 0
387254.0 619704.0 0
393752.0 619735.0 0
399826.0 621493.0 0
404868.0 621678.0 0
409310.0 620573.0 0
413863.0 623787.0 0
419810.0 624021.0 0
423778.0 620599.0 0
429027.0 621246.0 0
433691.0 622994.0 0
437485.0 620269.0 0
441610.0 621366.0 0
446457.0 620043.0 0
451184.0 619443.0 0
455988.0 620187.0 0
460966.0 620617.0 0
465553.0 619736.0 0
466004.0 624187.0 0
470336.0 619859.0 0
475238.0 622878.0 0
481358.0 621024.0 0
487405.0 621418.0 0
492593.0 619424.0 0
497638.0 620930.0 0
1812.6 628121.0 0
6791.77 628312.0 0
10541.4 624308.0 0
12593.1 628848.0 0
15377.8 624472.0 0
18116.6 629150.0 0
32370.2 625557.0 0
37617.6 626138.0 0
41850.9 625095.0 0
43712.2 628991.0 0
46454.9 625023.0 0
49772.1 627798.0 0
59993.1 625313.0 0
56180.4 625713.0 0
65097.3 625840.0 0
75039.6 624852.0 0
87103.8 625459.0 0
97988.1 625133.0 0
104676.0 629054.0 0
108214.0 625044.0 0
114490.0 625704.0 0
119312.0 628731.0 0
124479.0 626418.0 0
129327.0 624473.0 0
131958.0 628905.0 0
137562.0 624363.0 0
137206.0 628554.0 0
142565.0 629113.0 0
147719.0 626713.0 0
158407.0 625519.0 0
163195.0 629073.0 0
168397.0 624894.0 0
173459.0 624674.0 0
177360.0 625380.0 0
173700.0 628948.0 0
182252.0 624606.0 0
192320.0 624934.0 0
188890.0 627272.0 0
198501.0 628589.0 0
203607.0 625960.0 0
208435.0 624409.0 0
207822.0 629039.0 0
212393.0 626354.0 0
217241.0 626091.0 0
222149.0 628440.0 0
225984.0 625195.0 0
230760.0 626310.0 0
236700.0 626141.0 0
242417.0 625092.0 0
247384.0 626909.0 0
251144.0 625576.0 0
255876.0 624705.0 0
262142.0 624973.0 0
270327.0 626419.0 0
265779.0 627525.0 0
277111.0 625549.0 0
283304.0 628409.0 0
287598.0 624509.0 0
293096.0 625800.0 0
297487.0 628008.0 0
301048.0 624566.0 0
307149.0 626151.0 0
312680.0 624388.0 0
318584.0 627672.0 0
323931.0 625674.0 0
330611.0 624424.0 0
327651.0 624525.0 0
330030.0 629323.0 0
334015.0 624937.0 0
336232.0 629102.0 0
338751.0 624655.0 0
344421.0 625719.0 0
352215.0 625774.0 0
358925.0 626190.0 0
364728.0 627715.0 0
368993.0 624858.0 0
371954.0 629049.0 0
378831.0 626374.0 0
384536.0 625991.0 0
389593.0 625508.0 0
395675.0 625773.0 0
402915.0 625517.0 0
399893.0 627984.0 0
408061.0 625989.0 0
412578.0 629269.0 0
417137.0 627974.0 0
421927.0 628820.0 0
425384.0 625311.0 0
430058.0 626206.0 0
436334.0 625078.0 0
434505.0 626856.0 0
439729.0 625337.0 0
442405.0 628885.0 0
444872.0 624774.0 0
451910.0 625350.0 0
457493.0 624491.0 0
461656.0 625236.0 0
463570.0 628757.0 0
468240.0 628811.0 0
470542.0 624588.0 0
473458.0 628161.0 0
479525.0 626357.0 0
485870.0 626941.0 0
491625.0 625159.0 0
497258.0 625999.0 0
2708.4 632552.0 0
12586.8 633854.0 0
23488.5 629977.0 0
28153.2 629476.0 0
28653.8 633916.0 0
34347.5 631236.0 0
39011.3 629908.0 0
41756.2 633665.0 0
47500.0 630464.0 0
52090.5 631749.0 0
57340.5 629875.0 0
62630.7 630371.0 0
67482.6 630141.0 0
72689.8 630571.0 0
78212.6 629760.0 0
81029.5 634019.0 0
83585.5 629535.0 0
88238.4 631176.0 0
93356.4 630234.0 0
98564.1 629587.0 0
101720.0 633189.0 0
107097.0 633912.0 0
110608.0 629690.0 0
115071.0 630843.0 0
112385.0 634383.0 0
120602.0 634002.0 0
123094.0 630627.0 0
126013.0 633671.0 0
127590.0 629678.0 0
138311.0 634257.0 0
147755.0 631762.0 0
143881.0 634096.0 0
153153.0 629763.0 0
157210.0 633899.0 0
158666.0 629642.0 0
168467.0 629807.0 0
179089.0 630428.0 0
184849.0 629493.0 0
188609.0 632972.0 0
192852.0 630035.0 0
203337.0 631738.0 0
212404.0 631137.0 0
217713.0 631542.0 0
227308.0 630536.0 0
232779.0 631186.0 0
238305.0 632373.0 0
244100.0 630453.0 0
249662.0 630133.0 0
253880.0 631722.0 0
259018.0 629665.0 0
264110.0 631201.0 0
268311.0 630814.0 0
273421.0 630590.0 0
278724.0 631890.0 0
288575.0 630367.0 0
293791.0 631019.0 0
297912.0 632577.0 0
302188.0 630207.0 0
307102.0 631343.0 0
312397.0 630550.0 0
316741.0 632083.0 0
319950.0 633089.0 0
323918.0 630614.0 0
335124.0 634495.0 0
341621.0 631749.0 0
347967.0 630242.0 0
356278.0 630682.0 0
352260.0 631996.0 0
360829.0 631279.0 0
367643.0 632174.0 0
377635.0 631658.0 0
382688.0 630222.0 0
388484.0 631931.0 0
395325.0 632185.0 0
400248.0 633530.0 0
403981.0 630596.0 0
408892.0 631929.0 0
418315.0 632766.0 0
427083.0 630560.0 0
432632.0 630738.0 0
437925.0 630020.0 0
442969.0 634319.0 0
447369.0 630014.0 0
452793.0 631226.0 0
458421.0 629908.0 0
462929.0 632719.0 0
467344.0 634006.0 0
471408.0 632133.0 0
477554.0 630044.0 0
481729.0 630259.0 0
485754.0 632270.0 0
491205.0 631336.0 0
497370.0 631352.0 0
2546.01 637800.0 0
7545.35 635502.0 0
11109.9 639055.0 0
18098.3 635396.0 0
23959.3 634998.0 0
27402.7 638835.0 0
32709.3 637196.0 0
37351.4 635603.0 0
43617.8 638352.0 0
47299.4 634774.0 0
56005.7 634940.0 0
52042.7 637484.0 0
60815.6 635161.0 0
57487.0 639242.0 0
62987.5 639487.0 0
66372.4 635247.0 0
71940.7 635909.0 0
75842.7 638968.0 0
76547.0 634478.0 0
81410.4 639551.0 0
85469.5 635222.0 0
90894.5 636061.0 0
96794.4 634638.0 0
103361.0 638559.0 0
109341.0 639295.0 0
116483.0 638443.0 0
122296.0 638780.0 0
127292.0 638869.0 0
131767.0 634947.0 0
142994.0 639580.0 0
152953.0 635646.0 0
148266.0 636712.0 0
162587.0 634510.0 0
158942.0 637933.0 0
168255.0 635410.0 0
165062.0 638648.0 0
174128.0 634566.0 0
178974.0 637953.0 0
183828.0 635042.0 0
188160.0 638703.0 0
192876.0 635783.0 0
198980.0 636008.0 0
203842.0 636593.0 0
208229.0 634997.0 0
218942.0 635672.0 0
214647.0 635947.0 0
222558.0 634881.0 0
228949.0 635495.0 0
226876.0 639072.0 0
234214.0 636214.0 0
238653.0 637378.0 0
242877.0 635898.0 0
248015.0 634895.0 0
252398.0 635319.0 0
256546.0 635744.0 0
261460.0 634841.0 0
266077.0 634938.0 0
268291.0 639456.0 0
270561.0 634687.0 0
275391.0 636529.0 0
283208.0 634865.0 0
282970.0 639455.0 0
288660.0 636212.0 0
294143.0 635917.0 0
300013.0 635634.0 0
297710.0 639512.0 0
304591.0 635430.0 0
309311.0 634881.0 0
308192.0 639333.0 0
315306.0 635361.0 0
311932.0 637418.0 0
322230.0 637201.0 0
327837.0 635785.0 0
339268.0 636103.0 0
346771.0 634789.0 0
343026.0 637510.0 0
350756.0 635737.0 0
348018.0 639389.0 0
352582.0 639183.0 0
357680.0 635639.0 0
363140.0 635491.0 0
367268.0 636822.0 0
372711.0 635581.0 0
379050.0 636749.0 0
383108.0 634722.0 0
386353.0 637006.0 0
391666.0 637821.0 0
398372.0 636584.0 0
402984.0 636657.0 0
407818.0 636194.0 0
413003.0 634750.0 0
417121.0 639198.0 0
422880.0 635814.0 0
427663.0 635351.0 0
427114.0 639351.0 0
432166.0 635988.0 0
437296.0 635245.0 0
442058.0 639542.0 0
448419.0 635448.0 0
452135.0 638828.0 0
455914.0 635285.0 0
460494.0 635925.0 0
474095.0 635145.0 0
470485.0 637717.0 0
479058.0 634599.0 0
483624.0 635790.0 0
487274.0 635951.0 0
491749.0 637589.0 0
497342.0 636626.0 0
2127.58 642447.0 0
7077.54 641385.0 0
15180.6 640180.0 0
11903.7 643143.0 0
17377.5 644106.0 0
21635.0 640783.0 0
26470.1 644379.0 0
33076.5 643776.0 0
38012.9 640049.0 0
42252.8 642786.0 0
47828.9 640087.0 0
53159.0 643918.0 0
60084.0 643735.0 0
67614.9 640495.0 0
71854.2 640461.0 0
76571.4 643749.0 0
86783.9 639892.0 0
86862.0 644470.0 0
91901.3 642456.0 0
97535.5 640150.0 0
113057.0 642622.0 0
117032.0 643932.0 0
119925.0 641788.0 0
122932.0 643999.0 0
131713.0 640070.0 0
127692.0 643965.0 0
136226.0 639862.0 0
139333.0 644444.0 0
149292.0 641882.0 0
154699.0 639725.0 0
153873.0 644469.0 0
158649.0 642491.0 0
164066.0 643233.0 0
169351.0 640893.0 0
174279.0 639944.0 0
177564.0 642195.0 0
183314.0 641517.0 0
188140.0 643859.0 0
192931.0 640612.0 0
197040.0 640756.0 0
196854.0 644183.0 0
202608.0 640663.0 0
207678.0 640465.0 0
212329.0 640247.0 0
217628.0 640610.0 0
222889.0 640250.0 0
226750.0 643767.0 0
231095.0 640420.0 0
236028.0 640779.0 0
240836.0 640955.0 0
242998.0 644656.0 0
246058.0 640435.0 0
251820.0 639597.0 0
252468.0 644135.0 0
257714.0 640700.0 0
262801.0 639748.0 0
261220.0 644238.0 0
265974.0 644444.0 0
273315.0 641558.0 0
278518.0 641038.0 0
286978.0 641460.0 0
292298.0 641053.0 0
299790.0 644307.0 0
303227.0 640554.0 0
308616.0 643728.0 0
312646.0 641325.0 0
317561.0 639916.0 0
322275.0 642340.0 0
327015.0 641321.0 0
332543.0 640157.0 0
338572.0 640302.0 0
344338.0 641268.0 0
346752.0 643900.0 0
351934.0 644227.0 0
356650.0 641082.0 0
362495.0 641194.0 0
369218.0 641807.0 0
374516.0 641277.0 0
382500.0 640045.0 0
378271.0 641232.0 0
381294.0 644508.0 0
387428.0 640909.0 0
391084.0 643354.0 0
395780.0 640674.0 0
400115.0 640878.0 0
405830.0 640499.0 0
411135.0 640427.0 0
408198.0 643937.0 0
422677.0 641524.0 0
427725.0 644242.0 0
431502.0 641231.0 0
437126.0 640804.0 0
447014.0 640587.0 0
451623.0 644241.0 0
456779.0 641141.0 0
461619.0 640096.0 0
466598.0 640874.0 0
475294.0 640359.0 0
481143.0 639737.0 0
482848.0 644060.0 0
486645.0 640541.0 0
494230.0 642703.0 0
498259.0 640923.0 0
3369.14 647791.0 0
8750.32 646273.0 0
12926.3 647293.0 0
21771.8 645830.0 0
24416.2 649347.0 0
38632.9 646065.0 0
43100.7 648666.0 0
46767.7 644873.0 0
49233.3 648534.0 0
57476.4 648733.0 0
65234.6 644781.0 0
62272.7 648533.0 0
70166.0 644825.0 0
73846.7 646407.0 0
76958.9 649361.0 0
81629.5 645730.0 0
85939.3 649027.0 0
92907.0 646897.0 0
97281.8 646124.0 0
103423.0 644878.0 0
109113.0 644763.0 0
107302.0 649762.0 0
113565.0 646689.0 0
117760.0 648551.0 0
123503.0 649555.0 0
129145.0 648905.0 0
133361.0 645073.0 0
145024.0 645818.0 0
149958.0 646514.0 0
157978.0 647603.0 0
168353.0 645726.0 0
173928.0 645987.0 0
179940.0 645743.0 0
184416.0 646284.0 0
188293.0 649090.0 0
192897.0 645468.0 0
196999.0 649441.0 0
200965.0 645919.0 0
206678.0 645658.0 0
212777.0 645693.0 0
218357.0 645735.0 0
222656.0 646318.0 0
227961.0 649449.0 0
231967.0 645499.0 0
237382.0 645811.0 0
241645.0 648856.0 0
247969.0 646338.0 0
256702.0 645790.0 0
268184.0 649751.0 0
270554.0 645226.0 0
276297.0 646169.0 0
282697.0 645545.0 0
288937.0 646407.0 0
294710.0 646485.0 0
304676.0 645270.0 0
301445.0 649731.0 0
312193.0 646000.0 0
316821.0 644997.0 0
318063.0 649394.0 0
325517.0 645524.0 0
321626.0 646793.0 0
330712.0 646370.0 0
336336.0 645116.0 0
341873.0 644904.0 0
347808.0 648660.0 0
358892.0 644757.0 0
361915.0 647133.0 0
357857.0 648649.0 0
366569.0 647233.0 0
371366.0 649264.0 0
377500.0 644903.0 0
373641.0 645145.0 0
376879.0 649710.0 0
382039.0 649516.0 0
386283.0 645882.0 0
394754.0 646517.0 0
397870.0 649100.0 0
399258.0 645476.0 0
401444.0 649321.0 0
404073.0 645238.0 0
407423.0 649377.0 0
411987.0 646234.0 0
417973.0 645416.0 0
422724.0 649010.0 0
424285.0 645923.0 0
427122.0 649504.0 0
431724.0 646507.0 0
436858.0 645017.0 0
436713.0 649794.0 0
441132.0 645043.0 0
446508.0 645917.0 0
456544.0 646174.0 0
461435.0 645031.0 0
461836.0 649575.0 0
466291.0 645901.0 0
471504.0 645196.0 0
478167.0 646062.0 0
487241.0 646488.0 0
492885.0 647901.0 0
497869.0 645832.0 0
3714.6 654853.0 0
9511.38 651471.0 0
18082.6 650537.0 0
23482.6 654172.0 0
29107.7 652102.0 0
35149.9 650419.0 0
39107.7 649918.0 0
40365.2 653835.0 0
47041.2 653157.0 0
53021.2 651815.0 0
61361.5 653997.0 0
66348.3 651292.0 0
71675.7 651322.0 0
77464.4 654575.0 0
81835.5 651929.0 0
86483.1 654689.0 0
91011.9 651014.0 0
96211.3 651136.0 0
101427.0 650921.0 0
113057.0 652049.0 0
118446.0 653742.0 0
127900.0 654603.0 0
133108.0 650157.0 0
138155.0 649999.0 0
143719.0 651647.0 0
148187.0 649903.0 0
148747.0 654565.0 0
153243.0 650815.0 0
163137.0 650292.0 0
158340.0 654618.0 0
169423.0 650749.0 0
174338.0 651369.0 0
183437.0 650313.0 0
178740.0 650666.0 0
188603.0 654521.0 0
192805.0 649834.0 0
194544.0 654604.0 0
202795.0 650321.0 0
208435.0 650377.0 0
207221.0 654833.0 0
213067.0 651510.0 0
217795.0 650320.0 0
222607.0 650881.0 0
233085.0 649984.0 0
232057.0 654316.0 0
237529.0 651221.0 0
241632.0 654198.0 0
245610.0 651297.0 0
250011.0 651077.0 0
254927.0 651025.0 0
261406.0 650038.0 0
273833.0 651240.0 0
279412.0 650954.0 0
283709.0 650482.0 0
283534.0 654879.0 0
287216.0 651475.0 0
291582.0 650753.0 0
296232.0 651703.0 0
308012.0 650037.0 0
313698.0 650378.0 0
317056.0 653738.0 0
326357.0 649945.0 0
321982.0 651538.0 0
330773.0 652102.0 0
335087.0 649854.0 0
340126.0 650188.0 0
337801.0 654895.0 0
342330.0 654630.0 0
347218.0 654081.0 0
353123.0 649861.0 0
357009.0 652926.0 0
361456.0 651527.0 0
366504.0 652114.0 0
373466.0 654044.0 0
385834.0 650732.0 0
387172.0 654695.0 0
390945.0 650660.0 0
396399.0 653358.0 0
402188.0 654189.0 0
413020.0 651724.0 0
418758.0 651557.0 0
423573.0 654723.0 0
427474.0 654342.0 0
431476.0 651355.0 0
441852.0 650461.0 0
442014.0 654860.0 0
445976.0 650790.0 0
451428.0 650197.0 0
457410.0 651321.0 0
462767.0 654184.0 0
465768.0 650229.0 0
467942.0 654057.0 0
471603.0 650731.0 0
476131.0 650749.0 0
479033.0 654563.0 0
482442.0 650133.0 0
487447.0 652198.0 0
492275.0 652809.0 0
497453.0 650460.0 0
8994.92 658675.0 0
13724.5 655725.0 0
19203.9 657665.0 0
27332.6 657308.0 0
33366.5 656609.0 0
38452.2 659835.0 0
44085.6 658460.0 0
50531.0 657637.0 0
56030.2 656994.0 0
61383.5 659228.0 0
66931.5 656956.0 0
72843.5 656848.0 0
77348.2 659998.0 0
81744.5 657271.0 0
86149.6 659837.0 0
91565.3 656730.0 0
96638.6 655755.0 0
101602.0 656521.0 0
107724.0 656526.0 0
114612.0 657057.0 0
122249.0 657148.0 0
117911.0 659092.0 0
132256.0 659669.0 0
134471.0 654927.0 0
140156.0 655674.0 0
144726.0 657923.0 0
153227.0 655967.0 0
168347.0 654963.0 0
164298.0 656473.0 0
172556.0 655967.0 0
168999.0 659692.0 0
178329.0 655949.0 0
183471.0 654954.0 0
181953.0 659680.0 0
187066.0 659594.0 0
198041.0 658941.0 0
199655.0 655102.0 0
203166.0 655592.0 0
212351.0 656265.0 0
217259.0 655182.0 0
218406.0 659729.0 0
222154.0 655635.0 0
227123.0 655058.0 0
226764.0 659954.0 0
232127.0 659866.0 0
236813.0 656358.0 0
242161.0 659257.0 0
246720.0 656400.0 0
251702.0 655080.0 0
252189.0 659615.0 0
257057.0 656859.0 0
263710.0 656653.0 0
268863.0 654923.0 0
273199.0 656400.0 0
278016.0 655934.0 0
287961.0 655076.0 0
292935.0 655272.0 0
291935.0 659945.0 0
296420.0 655489.0 0
300266.0 655551.0 0
296356.0 658732.0 0
306197.0 656383.0 0
312155.0 655289.0 0
321355.0 656044.0 0
316853.0 659141.0 0
326440.0 655236.0 0
332651.0 656954.0 0
341833.0 659339.0 0
347346.0 659786.0 0
352620.0 655387.0 0
358325.0 658404.0 0
363575.0 655732.0 0
367238.0 659747.0 0
369194.0 655248.0 0
373243.0 659578.0 0
378233.0 655325.0 0
382757.0 656722.0 0
387483.0 659836.0 0
391793.0 656273.0 0
395809.0 659384.0 0
401225.0 659713.0 0
408200.0 655332.0 0
411218.0 659723.0 0
413528.0 656423.0 0
418408.0 657576.0 0
428373.0 658198.0 0
432697.0 655407.0 0
437033.0 655354.0 0
438193.0 659620.0 0
442131.0 659182.0 0
448542.0 655294.0 0
446107.0 659834.0 0
453743.0 655183.0 0
458250.0 656283.0 0
456443.0 659780.0 0
466002.0 658854.0 0
473127.0 656471.0 0
484288.0 656539.0 0
480288.0 659480.0 0
488649.0 656260.0 0
493691.0 656675.0 0
497977.0 654970.0 0
497110.0 659991.0 0
3255.44 661779.0 0
8503.11 663875.0 0
14369.3 661743.0 0
19427.4 662766.0 0
23814.7 661218.0 0
28940.9 661896.0 0
33744.2 662210.0 0
43060.4 664254.0 0
48082.3 661726.0 0
52818.0 662504.0 0
58058.2 661417.0 0
64660.2 661428.0 0
68936.5 664346.0 0
73997.7 661795.0 0
81877.6 662570.0 0
90459.8 661406.0 0
87056.8 664952.0 0
95326.7 660872.0 0
100809.0 661745.0 0
97421.2 665063.0 0
106150.0 662564.0 0
112175.0 660632.0 0
116426.0 664383.0 0
121358.0 662071.0 0
127013.0 661432.0 0
137289.0 660288.0 0
133326.0 664590.0 0
142319.0 662492.0 0
148873.0 660802.0 0
151242.0 665083.0 0
154172.0 660657.0 0
159929.0 660587.0 0
165249.0 662212.0 0
173163.0 661305.0 0
177534.0 660693.0 0
192847.0 660961.0 0
198682.0 664087.0 0
202963.0 660064.0 0
208770.0 660147.0 0
205557.0 664489.0 0
214154.0 660319.0 0
212435.0 664818.0 0
216828.0 664957.0 0
222507.0 660117.0 0
221115.0 664672.0 0
231491.0 664961.0 0
238131.0 660601.0 0
243033.0 664721.0 0
247111.0 661451.0 0
251839.0 664161.0 0
257518.0 661773.0 0
261075.0 661266.0 0
269084.0 660048.0 0
266099.0 664923.0 0
274106.0 660838.0 0
271023.0 664928.0 0
278647.0 660738.0 0
283434.0 660117.0 0
282247.0 664827.0 0
287685.0 660183.0 0
286760.0 664922.0 0
291445.0 664950.0 0
300934.0 661381.0 0
296005.0 663227.0 0
306005.0 661554.0 0
310998.0 661082.0 0
307905.0 664811.0 0
315940.0 664758.0 0
323214.0 660735.0 0
325653.0 664474.0 0
328498.0 660242.0 0
332732.0 661515.0 0
335454.0 664788.0 0
336880.0 660059.0 0
341243.0 665078.0 0
352804.0 660785.0 0
360227.0 665118.0 0
362766.0 660828.0 0
374271.0 664334.0 0
378646.0 660145.0 0
383003.0 661076.0 0
391764.0 661437.0 0
393796.0 664799.0 0
398126.0 663970.0 0
402959.0 665090.0 0
406607.0 661240.0 0
407519.0 664767.0 0
411151.0 664573.0 0
414769.0 660383.0 0
417056.0 664457.0 0
422159.0 664960.0 0
423499.0 660289.0 0
427452.0 664821.0 0
433189.0 660318.0 0
432582.0 665013.0 0
437021.0 664392.0 0
442700.0 664100.0 0
448069.0 664562.0 0
451650.0 660391.0 0
457848.0 663963.0 0
460928.0 660034.0 0
466427.0 664214.0 0
470427.0 661448.0 0
475793.0 662394.0 0
484285.0 661518.0 0
480927.0 665003.0 0
490450.0 661512.0 0
2051.88 666918.0 0
6244.58 667992.0 0
12224.4 667173.0 0
17832.0 667435.0 0
22086.7 665335.0 0
23337.3 669573.0 0
26199.5 665885.0 0
32488.5 666417.0 0
37444.9 666188.0 0
41623.3 669007.0 0
48127.6 666561.0 0
52865.0 668693.0 0
56829.3 665597.0 0
62439.8 665914.0 0
66416.8 669920.0 0
71155.9 669482.0 0
73593.5 666310.0 0
75939.2 669998.0 0
77629.9 665321.0 0
82782.7 667187.0 0
92921.9 665723.0 0
96980.6 669394.0 0
102190.0 666653.0 0
106279.0 667023.0 0
110576.0 665533.0 0
121536.0 666637.0 0
126225.0 667230.0 0
130812.0 669971.0 0
135914.0 669088.0 0
138114.0 665417.0 0
142159.0 667376.0 0
146437.0 665424.0 0
152588.0 669725.0 0
156146.0 666084.0 0
161081.0 665752.0 0
165418.0 667613.0 0
170538.0 665942.0 0
176234.0 665352.0 0
177627.0 669956.0 0
182058.0 665235.0 0
188138.0 665131.0 0
193638.0 667034.0 0
198390.0 669656.0 0
202308.0 666777.0 0
208652.0 669976.0 0
216055.0 668720.0 0
220499.0 669878.0 0
226554.0 665178.0 0
230899.0 669652.0 0
236775.0 665429.0 0
247863.0 665494.0 0
256367.0 665693.0 0
261145.0 665561.0 0
268961.0 669871.0 0
273384.0 669654.0 0
276020.0 665291.0 0
283220.0 669315.0 0
287031.0 668913.0 0
296762.0 668086.0 0
301897.0 666906.0 0
306439.0 668581.0 0
311508.0 666579.0 0
321270.0 665796.0 0
330082.0 665532.0 0
326599.0 669629.0 0
337274.0 670147.0 0
342400.0 669967.0 0
347592.0 665939.0 0
353728.0 666236.0 0
366548.0 665666.0 0
371313.0 667022.0 0
368659.0 669954.0 0
375065.0 670011.0 0
378725.0 665674.0 0
383646.0 665206.0 0
384308.0 669886.0 0
388879.0 665393.0 0
392691.0 668405.0 0
397510.0 669523.0 0
402501.0 668706.0 0
407089.0 669371.0 0
413254.0 669675.0 0
418695.0 670072.0 0
423755.0 669107.0 0
433630.0 669710.0 0
438371.0 668713.0 0
442778.0 669996.0 0
448345.0 669779.0 0
452925.0 666301.0 0
457651.0 668745.0 0
462099.0 666412.0 0
467061.0 670005.0 0
472195.0 665609.0 0
472759.0 669730.0 0
476890.0 667630.0 0
486124.0 666784.0 0
493122.0 667235.0 0
497547.0 665310.0 0
497892.0 669855.0 0
3071.71 671901.0 0
8037.29 671916.0 0
12539.5 672185.0 0
20273.1 670789.0 0
17440.9 672979.0 0
24104.4 673813.0 0
29408.9 670508.0 0
27464.4 674576.0 0
36622.5 672384.0 0
42096.2 673314.0 0
46854.2 670744.0 0
50481.7 672577.0 0
46645.2 675050.0 0
57576.8 670489.0 0
62043.7 671084.0 0
65826.8 675053.0 0
81157.1 672048.0 0
87069.3 670708.0 0
92413.4 670747.0 0
101467.0 671377.0 0
97135.4 674363.0 0
106524.0 671400.0 0
112177.0 671131.0 0
118335.0 671015.0 0
123612.0 670994.0 0
127224.0 674674.0 0
139917.0 671605.0 0
143579.0 670663.0 0
147522.0 670401.0 0
144897.0 674735.0 0
157269.0 670570.0 0
154618.0 674575.0 0
161763.0 670890.0 0
159641.0 675145.0 0
168026.0 671098.0 0
167749.0 675051.0 0
172860.0 671343.0 0
181830.0 670483.0 0
187545.0 670954.0 0
192336.0 671363.0 0
192079.0 674416.0 0
202913.0 670317.0 0
203423.0 675056.0 0
213829.0 671758.0 0
213922.0 675227.0 0
217683.0 674769.0 0
222314.0 675012.0 0
225617.0 670717.0 0
232923.0 675268.0 0
235725.0 670887.0 0
240381.0 670633.0 0
242979.0 674980.0 0
246203.0 670542.0 0
253174.0 670816.0 0
259559.0 670454.0 0
264208.0 670690.0 0
265930.0 674680.0 0
278436.0 670313.0 0
276992.0 674822.0 0
282207.0 675076.0 0
287674.0 674014.0 0
291338.0 670445.0 0
300789.0 671567.0 0
296081.0 673724.0 0
305758.0 674234.0 0
310207.0 670919.0 0
316045.0 670975.0 0
322092.0 671221.0 0
331521.0 670990.0 0
327433.0 675123.0 0
346480.0 671610.0 0
341854.0 674262.0 0
350976.0 670428.0 0
351945.0 675043.0 0
357510.0 671065.0 0
363493.0 670596.0 0
367651.0 674366.0 0
372356.0 673989.0 0
376914.0 675000.0 0
379806.0 670291.0 0
382070.0 674776.0 0
389166.0 670861.0 0
393968.0 674992.0 0
402132.0 672086.0 0
411480.0 674908.0 0
423324.0 674783.0 0
428357.0 670486.0 0
437515.0 672280.0 0
440939.0 674955.0 0
453876.0 671655.0 0
458311.0 675090.0 0
461500.0 670908.0 0
464025.0 675131.0 0
473935.0 674364.0 0
477997.0 671127.0 0
478664.0 675282.0 0
481911.0 670219.0 0
483130.0 674647.0 0
489752.0 670755.0 0
494164.0 671525.0 0
492513.0 675314.0 0
497295.0 674876.0 0
2916.14 677568.0 0
8573.85 676724.0 0
14301.7 676678.0 0
17514.0 680425.0 0
20644.8 676615.0 0
26000.1 678805.0 0
30963.1 675819.0 0
35094.5 677519.0 0
39553.1 677224.0 0
50299.9 677207.0 0
46320.7 679956.0 0
54805.6 675415.0 0
60576.3 675473.0 0
58202.1 680227.0 0
63492.3 679776.0 0
68074.3 679476.0 0
72320.7 675476.0 0
78443.4 676830.0 0
82158.3 676311.0 0
85558.0 675636.0 0
81846.4 680341.0 0
91585.8 676399.0 0
86948.2 680236.0 0
103012.0 677071.0 0
109071.0 676052.0 0
112214.0 680391.0 0
113605.0 675820.0 0
116850.0 678478.0 0
121543.0 676054.0 0
133705.0 675910.0 0
140123.0 676993.0 0
144523.0 679858.0 0
149574.0 676099.0 0
153226.0 680073.0 0
158262.0 679389.0 0
162863.0 679817.0 0
163817.0 675419.0 0
168147.0 679928.0 0
171787.0 676347.0 0
177236.0 675634.0 0
174020.0 679400.0 0
183601.0 675466.0 0
181749.0 680409.0 0
188757.0 675696.0 0
192333.0 679333.0 0
197360.0 675449.0 0
201766.0 679716.0 0
209182.0 677032.0 0
214528.0 679585.0 0
218931.0 680173.0 0
222500.0 680219.0 0
227447.0 675596.0 0
232279.0 680339.0 0
238567.0 675404.0 0
242400.0 679645.0 0
247860.0 676287.0 0
251800.0 675678.0 0
252500.0 680222.0 0
255789.0 676423.0 0
260856.0 675629.0 0
267216.0 680383.0 0
271818.0 675483.0 0
277623.0 679386.0 0
286757.0 679205.0 0
291582.0 676817.0 0
300558.0 676090.0 0
296764.0 679846.0 0
307588.0 679633.0 0
311673.0 675606.0 0
316854.0 677436.0 0
321930.0 676030.0 0
332622.0 675631.0 0
331733.0 680128.0 0
337064.0 675629.0 0
342961.0 679192.0 0
347075.0 676625.0 0
357728.0 677369.0 0
362957.0 675725.0 0
366531.0 678932.0 0
362419.0 680171.0 0
372142.0 679002.0 0
376919.0 679519.0 0
381054.0 679625.0 0
387566.0 676179.0 0
396900.0 680169.0 0
399565.0 675819.0 0
405514.0 676448.0 0
412904.0 679839.0 0
417175.0 675521.0 0
422483.0 679943.0 0
429661.0 675877.0 0
432782.0 679929.0 0
435220.0 675748.0 0
442995.0 679798.0 0
446541.0 675399.0 0
451830.0 676127.0 0
452399.0 680084.0 0
456582.0 680367.0 0
461870.0 680137.0 0
469204.0 675418.0 0
467420.0 680309.0 0
472616.0 678900.0 0
477315.0 679744.0 0
482288.0 679521.0 0
487729.0 675471.0 0
493000.0 679788.0 0
497500.0 679865.0 0
1225.61 681349.0 0
2838.57 685079.0 0
6734.81 681115.0 0
11840.2 680539.0 0
13286.0 685340.0 0
18039.8 684943.0 0
21652.2 680571.0 0
27257.0 684844.0 0
31711.9 680640.0 0
37341.1 682250.0 0
42118.9 680647.0 0
47705.1 684944.0 0
52508.4 681451.0 0
62051.1 684730.0 0
67598.8 685064.0 0
71625.8 681749.0 0
76730.3 681874.0 0
91642.9 682685.0 0
97190.1 680475.0 0
107114.0 681448.0 0
102128.0 682378.0 0
112928.0 684966.0 0
118054.0 683344.0 0
122826.0 681198.0 0
128677.0 680869.0 0
135206.0 682692.0 0
139544.0 681130.0 0
143433.0 684836.0 0
148591.0 681242.0 0
151007.0 685321.0 0
157214.0 684900.0 0
162967.0 684592.0 0
172971.0 683754.0 0
177412.0 681113.0 0
183238.0 685200.0 0
186640.0 680488.0 0
188095.0 685101.0 0
192554.0 684871.0 0
197467.0 681093.0 0
202500.0 685096.0 0
206064.0 682404.0 0
212649.0 684906.0 0
217500.0 685051.0 0
222500.0 684920.0 0
226813.0 681251.0 0
232835.0 685017.0 0
237229.0 680531.0 0
237720.0 685443.0 0
242755.0 684203.0 0
247100.0 681133.0 0
247894.0 685466.0 0
252097.0 684476.0 0
256714.0 681067.0 0
256407.0 685291.0 0
261547.0 680817.0 0
272702.0 681306.0 0
277073.0 685428.0 0
282132.0 682161.0 0
286917.0 685177.0 0
291419.0 681816.0 0
302653.0 680434.0 0
304051.0 685096.0 0
308253.0 684048.0 0
312223.0 680710.0 0
320945.0 680965.0 0
316454.0 682298.0 0
326421.0 681058.0 0
323335.0 685082.0 0
337572.0 681310.0 0
342768.0 685126.0 0
347469.0 681696.0 0
352875.0 680860.0 0
357995.0 682889.0 0
368514.0 683254.0 0
378325.0 683895.0 0
385458.0 681539.0 0
391353.0 681062.0 0
401805.0 680839.0 0
398016.0 685276.0 0
407784.0 682064.0 0
412625.0 685071.0 0
417871.0 681231.0 0
422258.0 684495.0 0
426731.0 680522.0 0
430318.0 683226.0 0
437557.0 680479.0 0
441130.0 685157.0 0
448170.0 680838.0 0
452471.0 685239.0 0
464420.0 684198.0 0
474390.0 683601.0 0
479391.0 684627.0 0
483966.0 684159.0 0
488497.0 680871.0 0
492747.0 683737.0 0
497500.0 684839.0 0
1621.25 690136.0 0
8060.77 685984.0 0
5667.22 690595.0 0
10889.5 690095.0 0
16999.1 690223.0 0
22079.4 687117.0 0
28274.0 690322.0 0
32891.4 686051.0 0
37567.7 687912.0 0
42145.1 685694.0 0
47086.9 690111.0 0
52128.5 687203.0 0
56763.7 685540.0 0
62439.6 689979.0 0
67104.6 690000.0 0
73058.7 686698.0 0
78387.4 687042.0 0
84270.8 685758.0 0
89767.6 687138.0 0
87169.0 690598.0 0
94470.3 687008.0 0
99103.1 685753.0 0
104187.0 686786.0 0
108971.0 685647.0 0
108566.0 690547.0 0
115971.0 687258.0 0
122190.0 686172.0 0
119279.0 690461.0 0
128225.0 688272.0 0
134940.0 687910.0 0
139037.0 686209.0 0
147022.0 687112.0 0
143426.0 689866.0 0
162834.0 689707.0 0
167820.0 685891.0 0
173415.0 690042.0 0
178019.0 685671.0 0
181767.0 690452.0 0
187123.0 689861.0 0
197240.0 685738.0 0
198734.0 689715.0 0
202930.0 689723.0 0
208023.0 686955.0 0
212276.0 690306.0 0
217524.0 689820.0 0
222455.0 689944.0 0
227998.0 686562.0 0
231440.0 689768.0 0
236422.0 690150.0 0
241592.0 688803.0 0
247237.0 690579.0 0
253438.0 689682.0 0
258771.0 690128.0 0
260823.0 685818.0 0
262777.0 689938.0 0
265601.0 685571.0 0
267198.0 690350.0 0
270821.0 686400.0 0
282283.0 686565.0 0
281917.0 690102.0 0
286953.0 690380.0 0
292488.0 686953.0 0
298602.0 686196.0 0
301839.0 690421.0 0
306204.0 689316.0 0
310598.0 689986.0 0
312847.0 685911.0 0
318514.0 686883.0 0
327898.0 686292.0 0
333230.0 685696.0 0
337959.0 687204.0 0
351184.0 685911.0 0
347016.0 688535.0 0
356603.0 688223.0 0
362937.0 685826.0 0
367745.0 690581.0 0
373217.0 686917.0 0
382979.0 686010.0 0
384873.0 690579.0 0
388414.0 686384.0 0
393450.0 686481.0 0
399961.0 690556.0 0
403360.0 685678.0 0
407981.0 687353.0 0
404000.0 689884.0 0
412930.0 690434.0 0
417703.0 686393.0 0
422664.0 689566.0 0
426984.0 686452.0 0
431802.0 690060.0 0
434939.0 685929.0 0
446528.0 687719.0 0
459269.0 685635.0 0
462137.0 690529.0 0
469189.0 685876.0 0
473658.0 690478.0 0
484236.0 688294.0 0
479805.0 690064.0 0
488139.0 686115.0 0
492976.0 689222.0 0
2251.05 694548.0 0
23578.5 692090.0 0
33272.1 691444.0 0
38082.6 692414.0 0
42399.8 690840.0 0
51733.2 691944.0 0
57070.9 691104.0 0
63552.2 695328.0 0
71202.7 691614.0 0
68424.0 695222.0 0
76014.9 691351.0 0
81801.0 692267.0 0
87350.2 694998.0 0
91886.3 691474.0 0
97757.3 691126.0 0
103187.0 692438.0 0
113926.0 691073.0 0
112282.0 695240.0 0
117345.0 695179.0 0
123853.0 693000.0 0
128100.0 694278.0 0
133524.0 692182.0 0
137283.0 695700.0 0
138537.0 690721.0 0
147002.0 691053.0 0
142961.0 695139.0 0
151438.0 691121.0 0
148102.0 694999.0 0
157383.0 691245.0 0
162926.0 694804.0 0
167752.0 690893.0 0
167360.0 695430.0 0
177957.0 690981.0 0
177548.0 694841.0 0
182500.0 695379.0 0
186768.0 694949.0 0
193333.0 690783.0 0
197785.0 695635.0 0
203472.0 694619.0 0
207310.0 691317.0 0
213262.0 695431.0 0
218098.0 694876.0 0
222115.0 694853.0 0
226549.0 691089.0 0
225923.0 695375.0 0
230912.0 695270.0 0
236700.0 695365.0 0
242527.0 694739.0 0
256710.0 694358.0 0
273229.0 690888.0 0
272410.0 695539.0 0
277673.0 690960.0 0
283238.0 694273.0 0
290996.0 691505.0 0
296086.0 692194.0 0
301155.0 695074.0 0
307550.0 695426.0 0
315030.0 691487.0 0
320103.0 691864.0 0
325643.0 691668.0 0
331341.0 690673.0 0
336110.0 691241.0 0
332219.0 695578.0 0
342014.0 691812.0 0
351395.0 691337.0 0
347239.0 693672.0 0
356262.0 694062.0 0
361411.0 691956.0 0
372891.0 693656.0 0
378732.0 691142.0 0
382420.0 695011.0 0
389721.0 691721.0 0
394628.0 690853.0 0
397528.0 695605.0 0
402465.0 695121.0 0
407193.0 692284.0 0
411684.0 695495.0 0
418124.0 691108.0 0
422821.0 694735.0 0
427348.0 691711.0 0
432604.0 694846.0 0
436438.0 691182.0 0
441475.0 690966.0 0
446092.0 692840.0 0
451484.0 691935.0 0
457330.0 691789.0 0
462302.0 695647.0 0
467373.0 691866.0 0
477762.0 695192.0 0
482856.0 695216.0 0
487459.0 692252.0 0
492474.0 695406.0 0
497909.0 691102.0 0
497460.0 695101.0 0
5539.76 696605.0 0
10561.9 696035.0 0
17116.5 696720.0 0
22594.5 696882.0 0
27762.2 695798.0 0
33307.6 696911.0 0
38720.2 697233.0 0
42850.6 698973.0 0
47165.0 695921.0 0
53068.1 696942.0 0
58247.4 696413.0 0
72805.0 696149.0 0
77437.0 696008.0 0
82564.0 697208.0 0
92573.0 696632.0 0
98301.3 696653.0 0
102957.0 697147.0 0
107341.0 695746.0 0
121519.0 696641.0 0
125572.0 697403.0 0
131972.0 697746.0 0
153244.0 696558.0 0
158493.0 696596.0 0
172161.0 695906.0 0
191032.0 696447.0 0
208229.0 695829.0 0
248078.0 696117.0 0
252476.0 695861.0 0
261172.0 696340.0 0
266726.0 696140.0 0
277896.0 696202.0 0
288546.0 695804.0 0
293447.0 696625.0 0
297355.0 698075.0 0
313514.0 696427.0 0
318606.0 696627.0 0
323180.0 696186.0 0
327467.0 697234.0 0
337541.0 696631.0 0
342806.0 697755.0 0
351793.0 696762.0 0
347230.0 697649.0 0
359210.0 697965.0 0
363689.0 696702.0 0
367748.0 695840.0 0
377190.0 696473.0 0
372532.0 698145.0 0
386600.0 695872.0 0
392345.0 696089.0 0
406579.0 697290.0 0
417384.0 696489.0 0
427687.0 696919.0 0
438088.0 695846.0 0
443263.0 696631.0 0
448200.0 696621.0 0
452854.0 697686.0 0
457461.0 696426.0 0
467075.0 697234.0 0
472274.0 696682.0 0
487932.0 697372.0 0
POINT_DATA 5000
SCALARS Radius float 1
LOOKUP_TABLE default
4931.38 6324.23 3843.58 4194.5 5379.87 4792.73 4736.58 3485.26 4329.05 4151.94 4049.23 5337.48 6124.89 5708.81 5252.48 4780.03 5495.39 3996.0 3856.1 4665.12 3383.4 4133.88 4834.9 3850.77 6044.04 5415.48 5120.0 3863.18 2356.98 4998.37 6182.6 5492.18 5258.36 5061.3 3642.12 3163.97 5812.43 5122.66 5906.14 5484.19 7513.1 5254.28 4436.4 5733.48 4672.91 5580.89 5645.7 5176.86 6810.52 5840.26 6110.27 5561.06 5073.35 3615.22 5670.04 4380.59 6716.79 5759.91 7613.27 4951.03 5529.52 5255.32 6037.08 5096.78 6756.95 4129.43 3320.52 4727.24 4270.53 5191.63 5344.25 4593.7 4150.99 4478.15 4043.57 5925.6 4501.51 5513.6 4556.36 6082.81 4685.34 3191.99 5601.05 4929.8 3586.91 3103.0 3554.9 4015.92 5542.21 4487.31 3936.02 4044.71 5980.74 4094.62 4927.02 5546.39 5325.36 5484.83 5085.53 5351.6 4730.36 4715.55 5867.73 3951.75 5013.56 4499.64 4375.68 5542.27 5054.98 6030.06 5170.02 3557.27 4927.31 4688.68 4402.52 4517.56 4182.53 5903.42 3588.44 3955.56 3761.32 4118.05 4366.19 5553.16 3672.51 2938.66 4940.78 4231.61 4008.92 3942.53 3379.84 3589.27 4827.82 3997.1 3607.45 3260.67 5123.52 3038.33 4392.68 4333.2 7199.21 4523.7 2240.39 5091.39 5293.9 3912.37 6142.94 4602.25 5082.47 4790.08 4763.45 5445.87 4216.92 4177.94 5113.21 4107.03 3929.19 3771.48 5681.38 4138.42 3708.04 6013.14 3240.09 5110.37 4382.74 5664.98 5927.43 4651.28 4384.42 3693.63 4516.43 5481.78 5637.59 4937.14 5043.05 5816.2 5109.54 6483.19 5945.65 6759.9 5538.89 7021.47 5416.38 6059.59 2720.68 4955.55 5701.86 3563.63 4238.81 4468.59 5885.03 2837.58 5325.02 5200.76 5017.13 4862.64 5185.34 4432.58 6684.56 3968.64 4688.67 2635.86 5292.64 6166.5 5065.13 5936.02 5305.17 4861.08 4003.05 5390.22 4805.87 4712.33 5227.21 5697.78 4667.36 4091.31 6372.62 4295.38 5615.42 7565.34 5923.5 4612.68 4973.83 6342.25 6691.39 5344.0 4840.84 6045.46 3815.26 4704.72 5908.1 4742.68 4571.7 5634.83 5782.6 4862.21 4271.69 4502.5 5922.5 5198.77 5987.17 5147.67 3979.82 4901.41 2765.2 5138.31 5264.06 6327.9 6355.42 4362.19 5690.56 4948.92 3115.91 4493.48 3307.12 5924.89 5693.81 4002.16 4174.52 4138.16 3486.22 3829.13 4684.5 6230.49 6458.82 5418.62 4601.27 5493.32 5740.68 5926.61 6051.14 5836.15 3261.21 4345.55 6704.06 3653.41 3871.88 3856.01 5246.2 4390.66 5279.39 3673.74 5205.43 6116.18 7447.37 4924.6 4385.06 4733.32 7184.19 2899.43 2924.37 3867.67 4290.3 5399.73 4660.72 3888.21 5891.05 6038.78 6902.81 4254.17 6644.76 5629.19 5090.24 5740.84 5530.87 4281.49 4310.18 7134.64 5978.9 4187.56 3629.62 4997.27 5135.69 4301.06 4020.32 4245.72 4541.21 4344.58 6048.7 5896.46 5495.84 6268.1 5820.48 7034.11 6261.42 2586.12 5499.11 3633.87 4850.01 3970.25 5643.58 4292.06 5011.31 5006.58 4602.86 4659.59 3688.8 4548.16 4048.37 3369.23 5449.18 5492.26 5244.78 5762.84 3937.74 4749.8 6084.86 4778.34 5478.92 5551.36 6894.71 3091.3 4414.54 5789.98 7054.71 3641.64 5489.43 5747.75 4277.89 4796.33 4195.44 5539.32 5360.19 6496.85 5600.93 4874.39 5541.59 4124.71 5728.85 4827.23 4911.47 5803.39 5863.59 4381.97 6257.19 3255.82 5242.73 2812.98 4065.69 5603.15 4695.45 6052.7 3921.18 3798.62 5308.1 3666.57 4907.89 4937.02 5655.21 4786.6 4645.41 4433.59 6445.94 4320.28 5542.14 4218.06 6308.71 4716.19 5514.76 3456.98 4877.67 4290.14 3066.13 6562.18 4156.38 5316.75 4164.68 6133.92 5022.8 4178.4 3719.84 3784.5 4861.06 3979.26 3471.03 5253.55 5011.84 6946.21 5433.8 6125.34 4011.77 4527.08 5347.48 4810.12 5215.05 2775.04 5577.04 5586.81 4621.75 4551.24 5358.59 4220.88 4515.71 6519.71 6640.13 5082.6 5810.84 4230.54 5094.44 3748.24 4655.49 4467.94 4850.81 6038.14 6138.47 5527.54 5573.7 5697.4 4727.62 5054.25 4270.95 4055.8 7325.81 5280.17 6425.26 4794.96 6186.19 4839.34 5083.08 6834.49 6337.56 5525.39 3998.5 5938.34 4024.3 6394.38 5555.28 4737.14 4686.65 5834.74 5556.96 5788.23 5581.75 6392.01 6730.19 4907.06 3735.44 4073.93 6043.3 5952.75 6332.36 6122.55 2739.94 4931.53 5480.13 6695.82 6405.76 3498.2 5105.16 4302.5 6006.16 5448.61 6009.88 7055.53 5669.65 5934.22 3095.48 3780.23 4166.08 6481.79 5320.28 4298.67 5960.66 3999.48 4203.26 6608.73 6057.22 4359.62 5062.71 5690.26 4156.2 4497.59 5965.78 4374.35 6396.74 4138.46 3821.72 4986.77 6318.18 4481.53 3948.17 4581.13 5330.45 4219.07 3610.4 6387.01 5367.52 4322.15 5210.03 3092.35 3629.96 5478.47 5351.39 6142.37 6061.47 4933.21 5375.47 2540.31 5120.49 6029.66 5262.61 6302.8 5409.61 6038.2 4005.44 5206.78 5555.88 6732.43 5143.58 6362.12 4484.76 4840.01 2980.99 5611.2 7933.0 4455.12 5173.87 4894.16 5380.13 5711.87 5118.27 5169.36 5932.23 5791.61 3369.13 4479.66 3043.85 5367.2 5461.13 4726.76 3599.45 5839.13 5489.34 5163.9 5708.14 5537.72 3920.42 8332.24 6155.31 4223.33 5911.67 5329.64 3323.28 5709.62 5835.78 5794.24 2476.04 4678.38 5050.65 4827.33 5513.57 5013.67 5729.23 5826.04 5624.49 5762.59 4123.6 5374.51 6739.08 5224.12 4797.52 4569.12 4796.58 5873.69 4962.09 5654.31 5188.81 4730.41 3745.84 5696.88 3923.03 5607.14 5975.63 5252.34 5564.02 4274.61 2965.79 6898.19 6035.6 5137.34 5423.0 5077.33 3856.59 4746.52 5413.79 6338.89 6202.55 5025.39 4714.54 5893.5 3320.11 5030.91 6022.17 5119.37 3982.23 6163.38 4566.18 4723.12 3459.9 4964.09 5201.36 5024.9 4306.53 5094.81 5972.06 5713.22 5861.71 5028.96 4359.04 3183.98 3866.16 3794.63 4524.28 3778.1 5152.36 4511.82 5826.64 4220.65 6820.42 4816.2 4896.52 4751.02 3372.79 4941.22 5282.64 4715.72 4669.66 4808.52 5046.33 5607.24 5053.92 6352.26 5495.68 3847.38 3818.59 4863.72 5002.48 6623.85 4262.82 5102.36 4342.9 4553.56 4051.44 6049.55 5941.72 5991.09 4127.74 3942.07 5133.97 7443.72 3937.08 5260.34 5371.02 5206.48 6586.45 5226.0 5339.78 3365.82 4143.78 7092.87 4850.14 7042.12 6326.39 6817.32 4471.58 6643.85 3637.61 6098.14 4472.17 6222.42 4938.74 5470.77 4643.85 4004.04 5082.74 4289.17 6915.83 6072.45 4410.55 7099.43 5526.14 5198.29 3689.45 3975.31 5572.95 3868.18 6723.16 5584.06 7111.16 3817.13 4547.19 5507.24 6851.54 4583.31 4503.89 5806.08 4997.27 4853.39 4093.08 4809.42 4449.22 5543.27 4717.05 5659.17 6135.57 5998.38 4312.67 5423.8 4270.24 4989.15 5017.78 5015.69 6175.81 4727.24 6677.09 4305.57 6959.81 4829.35 5201.67 6321.41 4089.76 5526.55 3192.41 5184.56 5215.15 4987.87 3315.57 5804.71 4764.96 5727.3 4242.52 5356.51 4277.88 3057.03 4087.15 4143.08 7500.97 3948.23 5228.18 5065.11 5787.31 5868.82 5069.84 4050.9 4978.31 4241.89 5054.74 4099.77 4537.32 4656.78 5126.91 6600.94 4788.58 6155.1 4709.35 5876.71 4373.3 4750.78 5029.78 4538.95 4163.5 5724.64 4970.88 4763.66 5965.15 5163.55 4666.81 4636.5 4819.73 3382.7 3954.91 6471.55 5085.71 2965.01 5644.82 4319.79 6263.44 5960.56 6343.14 5774.97 5501.93 4020.95 5463.38 5462.21 5945.21 3474.39 5750.71 4831.47 6470.3 4200.03 6062.05 4735.33 5092.37 6444.77 6314.07 4287.63 5315.4 4516.28 6449.45 4044.45 5125.78 3824.16 5344.43 4373.47 5045.38 5372.61 3686.21 6480.17 5023.15 4377.07 3813.22 5570.3 4336.42 5243.29 7589.94 3130.65 5628.24 5856.11 5287.2 3327.49 4109.88 4234.94 4562.29 5013.13 5080.66 3417.33 4926.42 4164.13 4642.34 4520.1 4947.52 5874.89 4293.03 4389.21 3791.79 4424.7 4925.44 4754.05 4951.47 6084.93 4307.28 3697.96 4739.42 5538.93 5020.12 4745.45 2631.9 5281.28 6255.18 4668.71 4758.21 7228.46 6362.14 6719.88 5978.82 3927.99 5266.5 4523.88 4948.98 5227.52 4414.48 4981.9 4092.24 5163.02 7144.24 3600.43 4906.82 5131.24 5196.67 6496.67 5474.8 6262.72 3664.11 6515.84 2990.77 4888.6 5078.86 4780.2 4940.42 5100.1 3703.1 6090.91 4946.42 5923.4 3295.83 5081.78 4459.28 5499.39 6116.33 6250.23 6413.02 4863.27 4118.84 5862.86 6313.06 3493.7 4719.7 6939.12 4406.4 5411.85 4413.85 4844.57 4027.46 4470.98 5759.46 5776.37 3921.08 4190.31 3627.82 5678.96 5262.19 4244.9 6070.58 6034.41 5350.88 5130.91 5402.24 4519.22 6445.22 3844.9 3695.36 5101.59 3963.86 4306.11 3848.93 5935.47 3402.32 5903.66 4528.49 5004.67 5365.89 5992.26 3960.8 5070.39 4980.85 5714.58 5110.45 5208.32 5248.77 4083.97 4607.02 5153.74 3895.51 4528.09 4165.81 5813.4 6291.51 4128.98 5882.89 6246.22 4188.32 5246.61 4100.38 5344.77 4723.48 4899.11 5097.87 4278.07 7267.18 6256.02 5320.92 5269.18 4406.1 5034.59 4942.77 4263.33 5080.18 4454.63 5912.61 4066.38 3279.1 4403.98 4560.84 4729.43 5776.57 4562.74 5598.74 5687.83 5004.23 6442.69 6320.71 4648.04 6607.87 5117.47 3163.78 4925.63 3293.56 5882.65 4739.14 4918.77 4434.19 4371.99 3561.29 5187.7 4219.78 4623.61 4188.3 4963.34 3885.86 5019.93 5235.29 5177.64 4260.92 4479.94 5453.3 4407.9 3492.19 4584.5 5122.63 6049.79 2315.64 5374.98 4703.08 6345.13 4390.41 5274.19 5516.95 5313.22 3905.51 3999.94 4864.22 3901.8 5511.88 5083.41 7055.42 6048.86 4285.32 5490.43 5022.28 5452.83 4959.34 4948.5 4527.02 4531.14 4564.34 3838.56 4871.44 5076.35 6020.48 6375.99 5200.05 5234.29 5313.66 5419.37 4466.03 4511.54 5409.33 5196.0 4923.9 4973.78 3329.99 3947.47 3296.27 4713.25 4204.84 6243.0 6673.96 3556.85 5441.96 3435.9 5174.89 4288.3 5370.52 4652.29 5774.81 3746.31 5498.32 5027.98 5346.27 6475.1 4969.21 2691.29 2845.98 5289.52 5314.85 4305.43 5450.44 6510.17 5742.65 5592.32 5381.16 5565.13 6193.35 6086.96 5233.78 5653.9 5046.21 5683.26 5894.61 5139.5 7493.3 4814.55 3527.05 5698.77 4721.32 3464.83 2477.07 4305.16 5092.28 5274.14 4903.82 5746.28 4082.47 5511.6 6261.75 4338.08 4378.3 5469.47 4255.31 5660.16 6134.99 4094.73 4440.57 4718.54 5548.29 6766.43 5916.16 5226.56 5599.49 4097.57 5017.5 5563.79 6171.13 2395.5 3497.9 4512.11 6248.6 5486.68 3836.45 5683.61 5100.25 6894.26 4986.51 5197.52 5178.99 5383.07 4591.87 5013.42 4790.78 4247.15 6552.22 5651.07 6248.81 5273.35 4091.8 2651.49 4645.58 5512.23 5275.32 5985.29 4898.94 4178.15 4613.31 4733.04 6119.09 5788.66 5091.68 7531.29 5069.25 5048.89 5935.03 3161.47 3991.03 6390.78 7435.25 6826.57 4788.87 4495.87 6022.72 4643.31 5527.33 6917.52 5402.21 4989.09 4880.14 4982.31 4307.48 3848.54 5941.4 5331.02 4871.96 4863.23 4402.67 4470.61 4631.83 4384.88 6887.27 3701.27 6008.49 4806.34 4287.53 5612.21 4929.14 5945.08 3979.54 5304.13 5944.09 5833.06 4923.41 4497.31 6413.11 5384.76 5529.42 5257.12 4965.89 5243.43 5659.95 5551.9 4152.85 2908.7 4453.64 3757.34 6415.61 4517.73 4687.64 4419.71 5037.06 4541.8 4989.56 3838.47 5175.29 2588.37 5842.56 6736.03 6235.57 5412.31 3623.87 3087.09 7480.41 6934.37 6113.95 4890.5 4050.08 3981.07 5452.42 4901.07 5328.22 6853.85 4020.4 5941.61 3493.47 5782.48 5443.58 4558.46 5805.86 4049.02 4470.4 5311.03 5339.38 6169.11 5615.35 4027.09 6422.84 4502.18 5379.09 4602.85 4962.77 5872.05 4853.02 6259.23 5181.4 5670.2 4711.62 4247.23 4114.24 4268.65 4694.83 5509.42 4354.08 4256.43 5936.36 4520.62 3903.75 4755.47 4485.99 5127.16 5475.8 5314.69 6050.81 5543.46 4249.46 5965.81 3702.37 4750.17 5660.85 2330.66 4177.19 3587.05 6229.37 6718.19 5282.91 4425.84 3797.33 7256.35 4800.69 3555.86 6566.1 6386.78 4996.99 4896.39 6081.14 5480.83 4607.85 4220.46 5128.57 6000.7 5604.21 4968.03 3169.67 3306.14 3361.92 5490.58 4863.79 4702.06 3967.48 3830.46 6213.04 6031.67 4689.15 6138.12 4428.78 5409.66 4537.14 4345.67 4765.72 4642.66 4752.14 5329.59 4888.12 4950.97 5512.16 3197.63 4863.96 5191.08 5887.15 5203.08 5374.07 5163.77 3423.15 4488.85 3731.84 4579.69 3554.48 6496.52 5186.3 5005.85 3436.15 4216.17 4151.76 6484.17 4721.02 4596.75 4933.65 3374.08 4031.78 6098.1 5708.99 5687.85 5346.68 5255.12 5296.29 4611.53 4285.66 4896.11 5172.53 4135.62 5801.99 5534.94 5210.48 7644.38 7552.94 6101.92 5323.3 5088.44 4998.21 4662.56 5166.79 5349.31 2976.22 4649.22 5394.55 5094.52 4946.74 2682.24 5928.32 5229.48 5475.7 4016.18 5526.75 5435.74 4244.99 5327.45 5560.26 6185.89 3997.96 4439.35 3460.94 3990.25 3691.0 3758.07 4752.51 4236.14 4407.87 5733.62 5282.51 4460.92 5945.89 4042.28 4105.55 4340.76 6065.22 4456.39 4221.28 5514.84 3633.79 5421.53 5937.08 6070.3 5233.29 4312.56 4612.06 5204.04 4750.58 6710.88 5395.14 5235.11 6622.11 3685.13 6790.73 4655.16 5251.4 3867.19 5097.69 5857.79 4039.91 5276.7 5036.58 6119.63 5411.02 4752.9 4287.16 5199.44 4062.5 4435.51 4588.7 5683.95 3766.55 6027.62 5010.2 5966.61 5711.11 4938.72 4254.37 3546.71 5768.57 5564.23 5950.04 4231.83 2435.33 6401.43 5020.71 2681.29 5094.48 3872.61 4238.4 4318.48 6132.95 5266.22 4860.33 3685.13 6004.68 4051.34 3627.55 6239.84 4635.6 4256.67 3457.48 3931.07 3405.98 5417.15 3688.16 4681.72 4945.39 5996.33 3950.63 5415.19 4612.62 3619.07 4275.57 4467.04 6385.23 2983.99 2614.4 6363.92 6205.93 4923.24 5830.72 6184.4 3828.81 4373.45 5309.98 4082.57 5255.18 5169.9 3004.16 4767.78 5235.17 4779.5 4421.12 5254.49 6649.96 4303.19 5784.3 3914.2 4256.57 6088.68 4135.08 5620.74 4778.82 6124.08 5467.84 5053.95 5926.11 6667.68 5767.9 5211.38 5089.62 4590.55 4741.26 5920.32 4186.6 4255.85 4732.09 3988.3 6136.49 6543.13 4356.25 5149.72 4216.95 5776.96 5464.25 5486.48 5301.47 4617.55 3645.12 6200.54 5424.88 5415.85 4199.45 8659.64 6599.66 5469.13 4233.8 5765.42 6123.03 4997.83 4893.49 4575.94 5325.44 5021.88 5956.65 4498.25 4188.87 3735.24 6574.95 4074.48 6333.29 4558.47 5731.57 5997.88 5839.71 5576.92 6408.83 3930.79 5226.97 4004.35 3312.06 5180.76 3361.26 6799.4 5278.36 5865.39 4427.28 6079.11 3082.32 6430.39 3658.37 7440.72 3949.6 5703.6 6326.18 5661.62 6631.19 6648.68 4713.74 5626.61 5817.25 5407.78 4084.49 5061.98 6632.99 4537.6 5147.36 4419.61 7177.44 4563.46 6553.94 5726.66 5460.65 5652.0 5463.41 5225.33 4929.75 4435.36 6045.22 4614.3 5134.39 3532.3 5769.98 5442.32 2221.99 4643.56 3580.58 4863.01 5356.79 5657.36 3619.79 5029.47 6306.21 5266.01 2978.76 5253.37 2040.66 7016.27 6515.8 3685.65 5869.4 3701.16 4916.22 6022.7 5895.77 5750.07 4809.67 4757.74 6045.67 4209.49 3946.28 5742.74 3821.94 4244.21 4947.24 3875.05 3540.11 3456.47 5148.58 4652.01 5421.64 7234.66 4055.54 4886.12 4976.12 6098.95 5453.98 3991.42 4388.63 5102.75 4597.29 4200.09 5931.77 5151.21 5398.64 6817.57 4477.04 3614.96 3886.68 5703.74 5662.55 5737.92 5365.24 4360.23 5293.51 4763.96 5754.18 5008.63 3418.99 4480.95 4993.35 4409.63 5521.25 3661.9 5370.85 5949.46 3178.54 4765.02 5376.71 4448.13 5070.29 4807.28 4867.08 2261.36 4266.03 5280.69 4220.03 6923.84 5227.59 5449.46 6179.96 5703.07 6113.54 4662.43 6260.79 3963.76 5528.53 6799.88 3062.43 5990.52 5426.78 2967.38 4159.35 6477.91 4237.98 6439.37 4081.97 5401.99 5580.92 5973.33 5067.46 3583.21 2511.46 4011.37 2775.69 4785.25 6519.43 5876.64 5424.46 4857.84 4908.49 4962.21 4858.44 5884.9 3876.21 4673.35 5689.26 4992.42 5297.19 4940.84 4833.46 5933.7 7248.4 5280.12 5984.81 5439.9 5367.73 4409.27 4640.06 5471.74 3548.39 3673.28 4858.51 4207.54 5625.65 6419.12 6107.89 4817.16 4446.84 5660.55 5148.08 4834.87 5760.22 3672.21 5938.17 4795.43 5097.95 5108.06 3573.73 4693.52 6853.04 4745.43 5831.96 4747.55 3056.7 3755.95 6234.32 4586.19 4446.06 3450.93 4270.74 5132.68 6595.03 4558.15 6218.95 5222.16 5107.23 5136.08 3776.94 5558.68 4010.57 5629.39 2684.03 6157.04 4768.61 5075.55 4522.21 5506.19 6719.94 4950.67 6166.29 5453.6 5409.63 5294.77 4709.05 4630.82 4043.66 4813.08 5860.67 4540.86 3764.1 4835.83 5604.35 6316.56 3091.67 4332.87 6420.81 4715.58 4450.7 5151.52 5369.08 4347.74 5291.9 4009.62 2081.58 6505.78 5461.55 4270.15 6865.76 6449.64 6464.8 4684.44 4749.59 5799.69 3468.42 5571.72 3809.69 4771.13 3208.96 7051.9 4184.23 4351.38 5550.75 6834.41 6226.14 5466.33 4444.97 3000.29 5721.05 3498.16 4514.39 4247.69 4588.99 4321.21 4344.34 3583.49 4928.27 5052.84 3375.28 4366.74 5297.16 4301.61 3184.64 5206.33 5530.49 5653.03 3718.69 4514.79 2216.82 4509.89 6752.75 5269.38 5607.3 2928.82 4222.4 4000.43 3420.08 4568.41 4912.04 4539.07 5464.68 2685.81 5591.76 4585.31 6625.18 5323.91 5097.45 6293.89 2761.07 5737.75 4983.39 5366.52 4690.55 5533.72 5533.42 4802.32 3678.08 4599.38 5246.47 4187.31 6191.29 3240.51 7422.36 5161.01 4298.15 4628.4 5832.37 6051.83 4642.93 4263.16 3973.12 3077.84 6024.75 6109.49 5567.93 5987.42 5332.65 4442.22 6451.33 5413.31 3012.99 6400.08 4743.59 5208.14 3317.83 3763.05 5092.24 5549.49 3101.75 5423.42 4518.04 4766.06 4874.18 5435.19 3298.2 4953.1 5818.95 4093.99 3940.49 4406.05 4680.94 5828.35 5876.72 5236.43 5285.07 4680.14 4608.41 4144.57 4187.94 5980.59 3796.15 4801.8 7216.98 5271.02 4209.31 5718.28 6242.79 5950.45 5713.03 5849.65 4165.21 5134.67 4215.0 4936.96 4481.76 5452.78 5065.26 4304.41 6192.0 4940.28 5885.28 6579.31 3004.34 3022.6 4811.76 4914.45 4698.87 3624.7 4661.03 5160.59 5262.35 4691.91 4475.83 4510.8 5889.35 5010.04 4394.56 4570.98 4275.07 5825.38 4185.61 4047.87 5742.47 3778.02 6552.21 5417.8 5146.37 7132.12 4836.16 5518.57 5151.11 5463.48 5730.33 5545.46 4527.99 4376.7 4543.1 5190.61 8325.01 3764.06 4440.81 5941.9 5434.47 6642.76 5829.22 4497.78 4243.79 5811.18 5433.65 4008.15 4887.76 4669.06 4811.32 4286.49 6184.88 5829.32 4396.25 5551.95 3918.87 2275.45 4901.2 6605.86 5012.5 4383.56 3562.79 7093.13 4516.53 4122.92 3604.14 4452.54 5089.1 2711.19 4028.32 4099.92 4884.59 3858.06 4511.7 4083.79 5263.27 6300.92 5021.77 4173.54 5599.29 6038.68 5046.12 4807.4 7013.17 3805.67 4601.74 6506.86 5088.57 5580.34 3852.6 5775.31 4706.5 4603.5 4647.67 5375.12 4356.36 4892.44 5578.94 7610.49 4286.17 3684.56 5323.55 5375.1 4172.6 5313.12 5351.56 3984.88 4732.09 4320.42 4255.34 5064.79 5480.3 7509.24 4146.81 5896.26 5388.78 6101.13 4573.72 5099.21 4917.99 4367.78 5636.4 4350.12 5227.02 5670.0 4232.16 5300.96 4344.51 5680.94 3781.77 5581.55 5193.01 3474.5 6550.44 3860.83 6348.03 5732.27 4523.39 5278.56 5146.37 6917.62 4013.38 5631.14 4343.78 5263.3 3352.35 4909.65 6523.86 7693.4 4326.48 4437.07 3449.37 5491.9 6405.0 4659.16 5789.55 4909.31 4633.05 5711.62 4990.79 4798.17 5166.79 6479.39 2895.63 4997.91 5079.22 5381.54 5810.77 4714.83 5474.15 7519.2 6355.68 4478.6 3953.55 4304.63 4469.54 4314.56 3928.53 5606.51 5740.65 3834.47 6349.67 6329.53 4590.01 6101.86 4227.41 5993.0 4803.57 5966.42 4110.59 3332.49 5354.66 4214.44 5378.23 4787.97 3746.36 6789.23 3989.7 4777.03 4246.61 6028.09 5452.36 3804.5 6486.37 5498.42 5318.53 3344.57 5220.76 4281.98 7165.9 5344.83 7046.11 3427.63 4863.97 6342.48 5756.75 4587.67 5599.7 4163.74 6969.28 3665.95 5698.96 4095.75 3319.67 3603.51 4298.45 5222.51 4076.59 6609.84 5135.96 3834.43 5658.37 4707.06 6074.94 5491.37 4250.88 3783.54 5268.38 3475.67 4792.39 7038.89 3863.67 4814.12 5067.56 6137.8 2735.53 5116.6 3747.03 2783.85 4356.49 4526.81 3994.07 4219.94 5907.46 4264.91 6740.71 5399.29 5971.22 5533.19 6522.59 6602.43 3568.28 5425.98 5996.66 4405.42 3598.08 2995.67 4599.81 5698.23 7300.58 3608.06 6633.61 5217.95 4867.7 5484.36 4277.24 4063.9 5291.05 5161.1 4619.2 5166.41 5067.56 2596.96 5701.75 4350.15 4139.3 6541.45 4750.49 5078.31 5391.48 4923.43 5131.15 4847.14 3950.27 5116.66 3566.79 5374.67 4981.43 4215.2 4741.28 5069.89 4157.29 6813.72 5327.75 4609.02 4896.65 4638.18 4196.37 6448.66 4453.97 6945.98 5138.2 5783.48 4449.98 4701.5 4504.35 4771.65 4840.44 5093.82 5951.81 3924.14 6918.35 4296.69 6238.32 6804.79 6471.42 5283.8 5369.5 4428.14 5164.1 6464.15 4479.11 4972.17 6685.4 5699.53 4222.77 6332.01 5527.23 4234.18 4805.33 7085.01 5980.95 6193.08 6069.3 5887.01 5168.35 5388.39 5335.47 3728.18 5633.61 5048.19 6799.23 4888.27 4592.15 6487.56 4854.11 4998.22 5417.21 6104.26 5583.61 6063.64 4986.71 7382.3 4022.56 5522.21 3772.3 4855.01 6208.9 4923.57 3340.09 6061.63 2279.05 4829.35 4075.28 8137.11 5484.32 6650.77 4067.96 7104.73 6162.3 3272.75 4264.54 3516.27 7043.44 4263.78 5228.75 4643.9 6047.14 5009.83 5210.38 5717.8 3629.44 5003.78 3299.24 6246.56 4061.6 2603.64 5107.0 5473.72 6212.15 6502.97 4783.07 4946.23 4852.58 6083.28 5211.6 5806.31 3556.79 5456.71 3503.41 7317.04 6412.67 7001.83 5012.97 4036.91 5589.37 5439.49 6639.64 5212.43 5454.12 4834.3 6348.54 4066.57 5642.35 6372.13 5404.01 6016.19 4124.49 3230.13 5714.25 6176.67 5325.96 4850.06 5016.02 7044.29 4920.21 4049.16 3936.95 6153.94 6836.82 3862.77 3858.17 4631.99 4740.98 3185.39 5128.77 5934.82 7122.87 5797.36 4243.26 5001.58 4153.84 5119.86 5084.17 5089.26 4901.44 3776.8 5096.43 6156.21 4653.83 2460.79 6171.71 3628.89 6589.82 4668.88 5027.43 5522.75 5867.64 4438.58 6059.93 5602.53 5073.02 6545.43 3472.91 6760.92 4989.2 4711.04 7144.05 4506.18 4824.12 2970.9 6542.5 4383.47 5971.21 5261.19 3104.96 3831.52 4263.65 6106.43 4807.35 5467.63 5666.95 4642.2 4811.22 3683.86 4918.76 5293.75 4208.41 5826.78 2856.55 4553.68 5361.87 3758.22 4757.2 3205.68 5561.74 6100.73 4788.08 4745.79 5470.04 4908.75 3971.08 6204.65 4482.9 4593.7 4349.13 5110.11 6379.14 5216.26 3687.65 4887.52 5478.95 3851.85 6318.23 4206.98 5156.76 6357.47 6101.57 4891.38 5535.91 2949.12 5955.86 4533.37 4848.46 5412.24 2779.99 5887.38 4581.37 6942.34 5851.61 5478.11 5526.31 5030.15 3644.78 3477.1 4078.93 4501.78 4922.49 3572.94 4820.17 4729.42 5244.98 3886.72 5415.45 6592.93 4385.81 6350.71 6436.74 4456.11 5096.24 3908.98 5039.12 5769.14 6328.42 7307.21 3619.72 3381.82 4646.51 4565.93 7107.63 4831.93 5788.97 4023.93 5868.89 3274.85 5007.21 5494.28 4099.26 5206.47 4580.06 4834.39 5493.89 5262.47 3512.94 4991.35 4587.7 4258.98 3787.08 6761.81 3903.91 4568.64 3919.62 4127.53 4474.83 5210.75 6555.44 5658.14 4508.18 6214.73 2205.51 6358.93 5175.89 3894.64 3703.49 4268.19 4374.74 4062.56 4532.7 4504.86 5975.23 4198.94 4473.29 6163.54 4211.82 6556.26 5684.25 5438.92 6550.4 4891.67 3766.69 6818.91 3503.65 3634.5 6631.28 6571.31 4392.65 4058.87 5174.75 5932.07 4984.46 5948.71 4793.65 3856.53 4532.89 5460.89 5260.85 5742.09 2884.65 5807.46 4648.21 4393.16 3658.05 3311.29 4549.69 6423.81 6192.77 4312.15 4583.52 6418.11 6015.02 5244.22 5585.14 7039.98 6456.58 4159.81 4960.64 5792.98 4034.05 5690.96 5798.38 3862.91 5366.11 3419.87 4824.81 5113.6 5944.3 3563.14 5135.5 5347.9 5851.63 4504.52 5212.92 5615.84 4464.73 4928.85 6440.38 5556.0 5545.59 4954.81 5610.53 5755.15 4835.97 3926.11 4057.17 7066.96 4467.0 4994.65 5196.92 5644.81 5334.36 4728.55 4929.6 5750.35 4489.99 4548.45 4658.11 4551.26 5730.61 7124.45 5064.67 6618.21 5232.85 2617.39 3717.47 6200.63 6816.66 3217.67 5079.64 996.652 5212.37 6003.78 2628.22 5058.51 4244.49 5036.98 5513.8 5188.53 4521.75 4027.63 5569.2 5350.88 5420.67 6413.15 6103.11 5048.55 6459.51 4024.31 4955.16 5844.72 3992.97 4147.31 5989.05 6040.74 4054.22 7228.94 5393.65 4961.99 6551.93 4595.12 3110.13 6484.43 4625.67 3485.54 4458.64 3657.69 4883.63 3492.83 6280.13 3684.15 5832.29 2606.51 4438.76 6006.89 3965.3 3814.65 5372.82 4983.3 4402.17 7778.01 5127.82 5124.17 5805.1 4125.9 4064.58 4234.88 5782.43 4384.28 4456.26 4810.98 5091.22 6282.38 5640.72 5657.55 5727.79 5188.82 5043.14 4717.73 5072.5 3904.07 5748.9 3663.0 3742.31 6304.49 5134.72 4608.34 6419.64 5464.83 2781.96 4431.23 5917.34 5601.55 4462.87 6545.99 5630.9 4554.68 4368.28 4692.32 4945.0 3127.83 4212.15 5114.07 4385.49 4263.18 7142.95 4559.74 4383.68 5836.26 6666.67 5144.44 4051.18 4583.94 5969.37 4928.35 3844.54 5034.69 4509.46 3538.53 4680.69 6500.49 5965.58 4972.18 3352.34 4050.03 4901.29 4775.04 4120.07 4882.66 3429.57 6746.66 5410.33 4642.74 6735.97 5305.59 5416.45 4330.58 5754.6 3288.01 4904.51 6870.97 2202.77 5751.15 5950.88 4149.55 4441.22 5853.89 3380.69 4140.4 4386.8 5446.4 4725.01 5966.75 5510.9 4505.28 4971.29 5510.45 4730.14 4941.02 3994.39 6119.99 3864.92 4128.1 4618.73 4446.58 5401.4 5053.15 5910.86 6239.68 7320.78 4834.44 4708.31 4027.33 3873.92 5026.76 5023.41 4092.07 4546.44 4224.3 4184.21 4700.07 5273.37 4732.37 4985.3 5713.36 4749.18 5553.94 4546.96 5424.55 4921.1 3814.16 5695.79 3622.8 5414.58 5577.41 5740.98 4346.07 4013.86 5759.79 4177.47 4218.16 2918.64 4140.92 4512.07 5984.8 5236.24 4585.04 5678.58 3185.09 6570.35 4242.63 3269.54 6015.22 6063.44 4826.52 5046.31 1937.5 4337.32 5241.75 5849.53 4651.99 4420.11 5863.0 6127.39 4607.18 5329.76 4124.76 7200.89 4813.33 4952.52 3840.21 4081.34 4954.76 3908.56 4844.83 5244.78 3636.15 6114.89 5135.63 6384.7 4355.83 5351.86 6056.87 5474.01 5307.35 6201.86 7554.58 5166.89 3639.44 4731.21 5491.63 5725.37 3868.62 5138.33 3743.76 5153.18 3425.69 4763.4 6711.21 4236.86 5393.76 4983.1 6010.59 2955.36 3668.93 4009.24 5906.57 7541.76 4775.49 4681.29 3220.29 5499.59 3845.9 5749.6 4439.71 4141.21 5667.51 4198.9 5431.29 4833.67 4252.18 5325.91 4213.05 5853.12 5157.38 6203.03 5235.87 6089.45 5810.17 4966.07 4657.24 3669.32 4400.14 4704.92 4316.0 4287.25 4392.75 4271.07 4420.6 4475.38 5287.25 4589.06 4770.51 4184.47 6511.37 4012.92 3999.5 5034.05 4598.54 5218.42 4933.49 6139.64 4896.43 5463.06 4639.8 5260.52 3986.41 6102.49 5114.23 5495.0 7407.91 5064.23 6061.85 4454.74 2904.46 5512.44 5120.92 4685.4 4731.53 6240.42 3763.9 4788.7 5084.5 5640.12 3899.7 2403.72 5078.59 5134.33 4147.49 4802.98 4833.55 3646.95 7224.99 6334.53 4749.96 5377.37 5652.87 5483.7 5018.69 3152.86 5952.38 3896.27 5973.89 5807.52 5963.36 5230.02 5087.14 4342.18 5169.48 6016.08 3124.7 6064.71 6102.98 6060.17 5136.87 5902.67 5454.11 5806.61 3779.45 5784.37 3682.35 7123.04 3756.96 4932.29 3954.77 4990.23 3784.94 3125.13 4174.44 6715.73 4564.41 6331.74 5426.4 5951.86 4659.88 5357.39 3791.41 4208.37 5702.4 5069.9 952.938 5473.89 3306.84 3673.6 3450.07 5265.21 5191.26 5866.42 4762.1 3987.69 3484.81 6502.99 6219.34 4666.12 4191.01 5674.63 5340.05 4920.88 5890.25 4216.44 6710.14 4426.02 4816.51 5345.73 4770.63 4841.23 3990.94 4756.8 4357.11 5477.8 4462.35 6069.78 4241.68 3469.18 2945.34 3372.95 4489.29 4301.93 5846.95 6449.06 4924.07 3200.6 5146.0 5721.14 4288.45 4577.73 4987.28 4918.64 6638.25 4759.99 2646.13 5419.57 5162.67 5760.98 4705.68 5469.35 5384.86 4019.34 4658.24 5869.67 4311.48 4899.73 5457.66 6394.19 5366.22 6193.73 5518.11 3742.11 5712.35 5701.52 4743.9 6776.22 5321.17 3719.11 4467.13 3877.8 6273.6 3667.93 5024.32 4708.17 2741.2 5790.42 3142.09 7350.26 5591.77 5182.13 6110.48 6245.52 5106.46 6793.1 6016.87 4506.66 5515.73 5209.55 5866.91 5763.05 5129.68 4825.73 5076.84 5247.01 4841.7 5685.74 6740.35 4678.7 4550.92 6215.87 6060.06 5544.27 5393.43 5308.33 4685.65 6023.07 6470.23 5995.4 5322.11 5700.79 4726.2 4711.15 5188.22 3825.48 3810.68 2804.54 5005.6 4176.32 5532.75 4549.51 6949.65 4095.83 5695.25 5676.61 5716.42 5268.15 5819.0 4620.95 6347.72 3460.93 4488.39 4629.02 5124.86 5914.5 6006.16 5407.96 6206.98 6562.03 4815.47 4410.82 4368.12 4365.58 5214.4 3889.98 4636.53 3629.49 5766.05 5117.64 3835.81 4869.48 3623.19 4906.11 4387.39 4745.16 4564.1 5825.55 5509.51 4848.14 4316.5 3199.4 5254.24 4192.21 4914.03 3597.43 5144.56 4158.91 5311.55 3360.86 4869.25 5545.21 4333.87 5684.05 5638.7 5813.79 4644.88 4028.22 5293.13 3852.82 3768.46 5167.53 5003.3 4168.52 5800.81 4068.31 5166.05 5077.29 3671.06 4850.5 4683.28 2820.07 6405.69 5679.74 4165.36 5288.33 6296.54 5797.21 6019.35 6028.63 5146.1 6485.77 3869.39 5960.5 6896.55 5377.01 6506.63 4140.04 3495.3 5125.17 4697.49 5735.08 7133.44 4750.81 4474.39 4658.59 4196.62 2809.19 4916.7 5486.89 7208.19 5025.42 3587.93 4975.85 5323.95 4495.75 6171.01 5701.63 4603.04 5368.93 6121.56 4927.73 4602.57 3565.32 4608.62 3419.07 4071.75 4626.72 5344.44 5131.77 5549.71 4967.51 6443.99 5193.58 5399.43 5695.44 3422.21 3916.42 5429.3 5510.96 6653.07 5532.72 4697.91 4584.81 5071.98 5719.79 4371.08 7261.51 4968.14 5086.29 4312.48 5527.13 5139.18 5551.43 4278.57 3034.16 6318.25 5049.99 4201.03 5001.87 4493.79 4279.44 4899.19 5058.34 5575.11 3918.94 5487.63 4507.36 7145.73 5403.97 4795.08 6562.92 5501.73 3612.44 4697.24 7035.54 5233.76 4217.36 6549.8 4851.18 4871.77 5368.52 5811.26 5155.28 5062.77 4884.93 6075.99 5262.79 5927.2 4419.79 5407.69 5152.78 4117.9 4753.76 4781.9 4638.09 5330.26 4441.91 5939.22 4668.8 4215.05 4271.93 4859.01 5524.45 5990.75 3953.26 5600.21 5459.92 6478.35 5453.77 4104.04 5353.66 5589.53 5593.79 4965.24 5196.08 4517.29 6257.79 4849.5 5796.26 6229.83 4870.94 5578.18 5271.88 5559.79 7168.2 3763.85 4096.86 5710.33 5001.51 6432.8 3186.07 5115.42 4369.86 5482.76 5173.82 7212.97 5490.64 5034.34 3604.31 3769.2 4507.46 5036.14 3468.45 5603.68 4944.51 5610.95 3220.8 5042.75 5179.17 5579.39 5270.51 5148.1 5490.75 5224.64 5949.73 5783.94 6370.33 5081.08 4202.77 6864.06 6008.81 4932.56 5192.49 3487.31 6643.4 4674.9 5461.72 6599.28 6224.85 5368.66 4556.19 5648.78 6875.73 5226.42 6081.3 4983.43 5117.52 6311.89 6734.39 5942.45 4150.76 5005.72 6142.88 5111.26 5388.73 5205.38 4764.83 4600.71 3957.38 4494.15 5035.71 4710.88 5300.17 4057.4 4896.67 5534.23 6025.77 6815.96 5339.6 5828.25 4725.11 3626.86 6371.96 4604.1 5322.07 5076.11 5770.07 5467.51 4625.53 4096.47 4542.16 5114.67 3543.37 5030.33 2638.82 5234.2 6379.38 5353.23 4468.26 5106.33 5293.37 5933.54 5464.05 5879.24 4571.74 5740.78 3622.48 4796.12 5997.91 5385.86 4082.4 4930.72 3745.02 3720.7 4211.36 4887.73 5698.53 4450.49 3856.73 5887.71 5635.32 4526.34 4827.61 4316.45 5409.08 5481.64 4598.92 5241.22 6647.08 4979.52 3422.29 4407.79 5214.63 3495.68 5352.24 3990.96 7362.42 5793.12 5836.14 5473.05 4373.2 5537.34 5884.99 5726.42 7025.09 4433.12 2549.95 3392.26 7336.37 4361.24 5099.9 5138.93 6406.8 7086.69 6170.9 5833.78 4436.48 5758.98 5615.35 3967.76 6213.24 5987.88 4228.53 3579.59 6123.46 5057.59 4461.14 5285.6 4574.54 4949.55 1969.87 3132.34 4841.28 4047.95 5507.38 6889.5 4416.87 4052.43 3980.46 5383.9 3934.11 5158.44 4466.22 6153.71 5917.08 5483.37 5418.12 4714.66 5101.6 4282.11 4656.01 6589.13 2347.41 5602.62 2030.03 5628.97 5527.27 5104.39 4612.13 5846.6 5327.05 4903.84 5438.55 4434.65 5977.66 4523.81 5065.74 5791.25 5198.94 4028.35 4873.23 5410.6 2980.31 5453.2 3148.79 6824.53 4742.82 4332.64 6791.86 4820.68 4209.0 5728.58 6297.99 5378.24 4538.89 5817.74 5661.6 5285.75 5385.03 5673.75 5360.67 5968.54 6263.3 4501.05 4537.03 6548.29 4114.2 4326.06 5034.46 5757.29 5469.17 5061.75 3769.24 6022.78 4087.32 6647.85 2569.12 4161.32 5161.74 5932.28 6945.69 5118.86 4304.64 4183.4 4733.79 4823.06 5254.49 5288.64 6828.8 6883.86 3350.99 6161.94 4065.28 5418.98 5615.06 5490.54 5203.54 6189.67 6142.94 5001.69 6581.56 4061.87 5165.31 3798.09 3886.56 4496.51 4511.05 6561.94 5259.21 5092.93 5934.05 2803.01 6771.18 4984.17 5327.39 5781.62 4037.86 4138.59 5714.51 4484.78 4938.33 5157.73 4621.33 4541.22 5847.91 4934.66 4984.01 4109.44 6217.33 4290.49 6688.53 5209.5 6175.27 5876.51 6731.89 4733.41 5264.83 6348.93 6815.51 4422.23 5232.16 6031.22 3989.26 5485.84 3618.64 6424.77 5453.69 5918.95 5432.04 5689.56 6556.86 3242.31 6099.28 3234.26 5372.25 4169.15 4778.37 3494.16 5134.17 4074.16 4904.35 5592.54 3247.97 5124.34 4904.37 4358.81 5729.0 4651.64 5729.92 5016.46 4179.87 6224.13 4761.84 3661.67 5370.1 5517.65 4009.68 5114.51 4622.73 3303.49 5256.75 6351.89 2960.5 4298.7 4975.32 3902.48 5237.55 3909.94 6030.39 4905.53 3799.01 7392.65 5319.1 3757.23 4181.93 6570.43 3820.19 4979.5 4745.37 5939.29 6200.05 5575.11 4052.49 4034.41 5061.74 5326.03 4420.35 4948.96 5117.83 5256.82 4013.86 4288.5 4585.37 5715.51 3721.69 3456.3 6074.39 5317.83 4256.08 5881.93 4444.0 4399.52 4554.24 6182.19 5910.66 7415.84 4981.81 5141.03 4970.55 8123.59 5765.14 4946.08 3539.68 4696.03 4557.1 4605.39 6270.59 5927.1 4103.76 4286.61 2932.52 4603.66 3901.53 4969.68 5136.51 5431.14 5313.86 4457.05 5178.07 5189.91 5777.26 5703.84 4335.79 3530.82 5797.32 4886.99 3921.27 3702.45 3161.1 5265.63 4898.29 4431.06 5730.2 4830.13 5620.88 5370.9 4529.77 4325.13 4262.74 6172.27 5390.33 3783.79 5078.73 5278.54 4248.14 5279.19 5192.92 5275.57 4786.66 5891.25 5095.52 5129.4 3720.38 4655.37 5585.25 5023.61 4672.86 6530.78 5560.23 3043.77 4139.39 6264.03 5088.64 6589.8 6920.92 3729.16 3038.91 3783.36 4067.89 3922.28 4571.57 3445.92 5236.69 4586.82 6026.04 3133.28 5859.17 4150.44 5522.34 5771.98 5717.45 5772.57 5268.27 4645.93 5448.64 6417.61 5395.12 3830.7 5783.69 5350.9 3483.61 6738.9 4460.89 4157.1 3939.96 4867.12 4637.3 5734.07 4840.44 3997.68 4819.83 4767.54 4801.16 5121.08 2927.84 5688.77 6177.68 4698.7 2848.44 6045.26 6500.45 4907.55 5743.8 4094.63 5084.76 6605.11 4757.87 6636.43 6298.8 3689.24 5151.19 4171.02 7012.36 5028.06 4002.99 5587.3 5159.67 4864.38 5764.52 5684.88 6523.78 4645.86 4045.67 6005.95 4941.52 5900.0 4581.1 6241.77 5317.19 6223.98 4016.6 5821.49 7050.08 5580.44 5998.13 4746.15 6275.25 4758.84 4731.37 4452.36 4068.41 3976.0 6463.71 5059.37 5783.38 5645.54 3562.8 4151.74 4526.87 5192.82 5245.95 3573.84 4174.22 5821.42 4515.02 6294.09 5131.07 2970.24 4121.07 4197.87 5524.28 5105.54 5731.43 6353.81 3414.67 3518.14 5444.36 5044.68 2649.69 6908.32 5899.78 5000.74 4813.81 5244.95 3882.37 4634.25 5901.8 6351.48 6210.0 5432.4 4262.52 7430.48 5992.06 8052.53 4970.12 6044.01 6520.19 1458.87 5973.57 6241.48 6033.28 6286.27 5071.38 5616.66 4802.36 5368.28 5466.13 6229.64 4220.43 6263.87 6666.34 4645.91 6834.92 3557.46 5971.95 5652.73 3979.46 5402.45 6321.97 6509.54 6412.84 6119.0 3792.06 4293.3 5128.59 5310.33 3572.73 6583.37 3770.22 4390.64 4848.98 5150.84 4608.01 5087.97 4308.49 4519.03 4930.17 5110.27 4745.44 4085.96 5762.82 7360.12 5462.6 5617.29 3035.06 5770.92 4262.19 4597.88 4878.93 6892.33 4505.3 4491.26 4832.21 4511.34 5009.21 4742.35 5394.79 4379.91 4574.03 5290.37 5264.08 4227.66 4691.01 4594.89 5214.71 3463.53 4924.52 6126.03 6044.69 5658.05 5462.1 6032.45 5011.37 2827.92 4026.03 3467.11 5336.61 4817.75 6153.26 5637.53 5523.81 4095.4 4718.61 5188.57 3873.79 5717.67 5357.33 5252.37 4499.54 5037.58 5640.67 5545.68 6080.69 4967.93 6369.66 5678.08 5922.62 5125.45 5957.82 4188.16 6327.54 5507.07 2943.17 5327.71 4880.78 5257.38 5075.23 4975.56 7282.36 3826.01 5581.01 3928.99 4125.75 6379.33 5130.57 5090.48 3985.93 2589.19 6071.59 6079.55 3856.4 5485.61 4993.49 4937.36 5308.4 4569.32 3688.83 3402.44 4491.96 5184.98 4199.44 4467.51 5339.82 4479.5 6261.67 5460.57 5065.78 5703.34 4612.68 4521.42 6668.98 6649.52 4232.33 4939.56 4747.68 3093.38 4845.91 4723.71 2002.78 5631.32 4461.67 6322.0 5793.14 4609.65 6345.2 5704.61 5410.73 4942.63 6139.74 5850.38 7066.26 4730.97 6150.31 3677.85 5873.62 4677.84 4811.11 5379.52 4866.8 5314.67 5563.47 6593.1 4066.36 4000.51 6033.93 5092.44 4441.44 4232.44 4612.4 3312.3 5563.09 4746.19 4848.15 4439.09 3282.57 5648.59 6697.45 5515.59 4432.32 3224.81 3775.38 4046.22 5782.25 6457.89 4844.2 6572.17 3751.73 5555.89 4766.47 4871.1 5872.45 4414.09 5191.29 3784.68 3717.22 6649.21 4654.92 5286.55 4322.56 5522.18 5509.09 5625.02 3873.72 5212.05 4829.77 6474.5 4444.92 6959.88 5749.53 5971.9 5247.73 5034.02 4769.62 5582.28 5945.25 5181.31 4696.06 4137.16 6581.13 5803.3 5537.61 6084.88 4721.98 4397.06 5252.82 3543.98 4053.12 5056.26 4014.44 3435.13 6002.77 4431.46 4610.55 3207.84 3977.98 6043.34 5400.69 4128.93 4462.5 4959.72 4712.17 5004.68 3808.04 4023.88 5348.11 6126.5 4405.61 4034.88 6007.1 3511.5 5067.92 5488.96 3188.21 5128.03 3720.92 4793.06 5087.3 6637.38 4975.57 6916.18 3057.3 3868.69 4996.91 3920.44 3768.62 3851.47 4966.74 4959.94 5651.46 1635.31 5639.4 3162.27 6185.73 4083.24 5516.37 6520.96 5432.2 3771.91 5217.62 6178.19 4616.81 6381.58 5212.2 4798.13 5108.42 4630.5 6296.36 4451.76 5237.27 7885.41 4104.97 4575.72 5114.61 6118.13 3374.62 4420.3 4926.62 3917.09 6009.93 4083.1 5270.1 5130.56 4947.64 6305.9 4997.89 4542.62 3470.69 5093.28 4859.95 4132.08 5223.1 4850.49 4592.49 3625.98 5479.86 4702.32 4763.04 5944.52 4413.56 3746.62 4532.67 4876.37 4908.32 5260.13 4649.5 4810.74 5985.75 5475.83 4149.17 6189.29 5984.55 5672.46 5202.33 3228.27 7558.99 4142.1 5043.14 5878.55 5445.91 6604.72 3794.47 4967.02 4614.49 6038.56 2807.46 5573.31 4179.8 3488.34 5428.24 5108.84 4582.12 4520.14 5357.14 5919.27 4850.95 6271.22 3421.81 6188.33 6111.23 5786.06 4137.41 3780.07 5466.49 5447.74 4450.51 5007.41 6033.72 3692.99 6213.74 2329.93 6938.87 5412.07 5512.57 4806.99 5856.43 3839.0 5349.85 5799.86 5715.25 4362.94 4611.21 6545.78 3354.94 4870.14 4404.87 5767.65 4750.76 4907.03 4216.33 5497.27 4081.77 4948.21 2181.29 4987.01 4202.12 6332.64 2694.25 6492.44 4613.32 3482.73 3996.93 5145.39 4957.99 4063.26 5345.05 6131.52 6009.88 4699.77 4981.55 5093.41 5144.23 6188.62 6153.07 4414.06 5908.57 5050.2 2513.38 5316.05 4821.41 3995.08 5616.11 5019.84 4499.52 3900.93 4028.13 5784.38 4329.8 5728.27 3074.49 3053.19 3956.24 5580.95 3393.59 3549.92 4032.06 5246.81 5333.04 5888.95 4521.99 4812.59 3463.34 6842.54 7115.67 5675.45 3361.11 5329.84 5599.16 3879.83 6565.95 4577.98 5658.35 4487.51 5886.81 6805.02 4295.25 7394.47 4729.45 5374.09 6261.13 5378.75 5244.47 3920.64 5510.89 6186.24 5822.7 5282.67 4159.89 5178.55 4038.17 5146.69 4907.48 6818.23 4369.87 5652.19 6578.62 4813.55 3465.03 5229.56 5172.1 6052.22 4469.82 5376.41 4695.7 2932.2 4944.08 5105.72 4082.01 5003.49 3964.03 4305.35 5210.22 5832.72 5617.91 4721.2 5161.02 4706.31 6265.48 4735.99 4203.68 4739.56 3352.46 4701.03 6351.95 5195.09 5434.04 5200.1 3997.52 7679.2 4881.51 2626.41 4311.92 4909.74 6729.99 5310.33 6842.35 5464.34 5259.48 3621.63 4777.96 5801.89 7296.47 5742.39 4780.16 4924.53 5738.37 4433.23 4813.24 3874.12 5759.19 4457.73 6476.35 3113.64 6260.58 4304.75 4067.24 6139.9 6571.26 4313.38 6598.99 5250.56 3633.58 2468.16 5089.1 4339.97 5394.78 5169.09 5122.38 2853.68 2459.88 5262.85 4998.37 5901.71 6559.82 5342.9 5733.12 5043.34 4246.24 6436.29 4600.81 5354.48 5640.63 4900.26 4167.55 5002.38 4720.34 4865.11 4731.16 6470.87 4495.33 4131.08 4465.56 5747.9 3864.19 4287.93 6203.24 5081.65 4488.41 6679.12 4621.32 5806.74 3878.8 6284.12 3948.21 4796.04 5296.05 6011.4 4672.34 3330.85 5056.32 5533.52 5003.63 5410.33 4747.24 4380.86 5576.16 5269.39 3308.75 4439.17 2451.27 5677.42 3903.9 4444.95 5606.22 3943.77 3124.49 6081.35 5003.81 6262.18 3818.37 5663.36 6225.05 5125.53 5994.21 4444.54 5779.9 5299.03 6664.54 5161.73 3922.98 4008.67 5254.93 4803.4 6833.5 6608.94 2613.78 5417.07 3834.01 5656.84 6789.66 4739.41 5847.27 4490.2 5734.84 5480.86 3982.31 4950.07 4720.22 2832.83 5827.3 6036.99 3010.1 3825.98 6294.14 5087.03 5203.75 4667.84 3906.41 4691.15 4123.08 4512.6 4210.24 4260.38 5470.67 5225.11 6793.49 5252.22 6060.19 4962.35 5402.81 4333.23 4328.76 4919.13 5168.97 4124.33 5783.88 4358.06 6705.93 6201.49 5449.09 5502.14 4605.61 5386.95 5332.11 5315.71 6158.93 4823.14 5373.78 5438.5 5863.36 5699.4 5237.76 4698.94 4286.84 5669.15 6058.13 5263.86 6988.4 4060.17 5302.53 4909.13 4287.61 5648.02 4604.34 4863.27 2701.42 4929.35 5442.79 5051.39 6673.92 5242.38 4884.94 5459.52 4609.98 5566.5 4752.31 4276.59 5579.04 5405.6 3929.35 5403.81 5082.25 6964.78 4374.05 4287.15 5036.84 4565.36 5813.68 4025.08 5732.11 3618.53 4770.21 5596.68 8013.28 3846.55 3796.73 3082.16 4644.68 5416.41 5312.2 6760.64 4706.59 5177.88 5551.79 4582.24 3916.15 4474.96 4084.87 4790.63 5259.29 3584.05 4589.22 4818.53 5097.85 5584.64 6189.04 6224.64 4221.03 4636.45 3799.55 4932.27 5082.66 5638.51 3563.33 3550.88 4345.51 5536.0 6786.37 3860.8 5145.13 3747.96 5561.63 5940.5 5093.51 5647.93 4280.92 5154.74 4696.92 6437.99 6898.8 6632.04 6540.57 4893.72 4977.64 6004.72 4072.4 5699.51 5345.65 4489.18 2489.44 4883.13 4632.75 4752.94 4994.98 3950.53 6423.96 5894.69 6635.51 4713.56 6051.35 6779.82 3999.81 5543.67 4867.13 6377.45 4502.12 5151.68 5362.15 4455.61 4738.72 5240.97 5569.85 5523.96 4884.93 4223.53 4759.38 6960.97 4523.9 5282.51 5504.65 5669.41 5040.9 3919.47 4602.7 4868.66 4004.39 5159.9 4987.48 5283.65 2892.36 5943.61 5981.54 4248.58 5911.29 4542.25 4694.27 4414.23 2515.5 4849.21 4785.55 3793.83 6981.47 6189.81 5367.05 4758.76 5647.11 4088.72 3945.62 4916.75 3743.85 6236.46 5342.17 6379.3 5189.4 4550.77 4894.15 4337.93 5201.3 4048.73 6223.33 5438.6 7370.52 5611.29 4521.88 6568.45 5004.22 4601.54 4963.88 7263.57 5705.96 3832.09 5267.65 5739.69 5360.88 7360.62 3166.37 4985.45 4983.56 5205.53 4714.52 5499.37 5543.05 4836.76 5333.16 5551.09 5755.98 4501.1 5581.47 4384.91 6550.61 4987.01 5529.09 6094.34 5448.68 4739.5 6210.48 4491.62 4182.05 3865.5 3255.93 6853.07 6327.61 4633.59 5733.59 5575.8 5268.93 3695.72 6874.6 5106.9 5306.31 4733.37 4535.94 3037.72 5126.08 5604.0 3760.4 4951.02 3783.35 4037.16 6395.63 5479.17 5020.37 5233.88 5245.4 4449.73 5015.67 3795.63 4576.71 6538.04 6157.59 5848.41 4090.28 4246.83 4726.5 5467.05 3724.23 5103.3 5888.94 4727.98 5175.88 4122.2 4516.26 4790.16 3509.34 3731.58 3647.26 5369.42 5207.08 4587.19 6028.89 4888.17 5392.85 5077.2 4274.05 5275.27 4277.54 4531.46 5925.82 4072.95 
SCALARS Velocity float 1
LOOKUP_TABLE default
1.43877 1.7908 1.25791 1.19195 1.12924 1.26178 1.39163 1.07594 1.75731 1.62334 1.0102 1.39116 1.54751 1.02896 1.17281 1.37273 1.19737 1.17212 1.22826 1.19178 1.19178 1.21494 1.21629 1.19456 1.19961 1.19734 1.19741 1.19564 1.19178 1.19183 1.19362 1.19176 1.19413 1.19178 1.19173 1.19452 1.19409 1.1924 1.19256 1.19243 1.19199 1.19297 1.1917 1.19392 1.19802 1.19196 1.19181 1.19209 1.1921 1.19769 1.19421 1.19523 1.21388 1.18676 1.19166 1.20664 1.23014 1.20107 1.26957 1.34158 1.34935 1.26516 1.44993 1.40292 1.40808 1.02645 2.01795 1.6044 1.53351 1.16274 1.18884 0.790277 0.752928 1.22557 1.19066 0.967346 1.19517 1.37296 0.895898 1.36809 1.13954 1.55041 1.35434 1.512 1.54658 1.22406 1.19178 1.38197 1.19178 1.19201 1.23532 1.24717 1.18874 1.21754 1.22211 1.19473 1.20174 1.19846 1.19838 1.19775 1.1913 1.19351 1.19496 1.19446 1.19404 1.19066 1.19462 1.19459 1.1926 1.19203 1.19449 1.19322 1.19248 1.19234 1.19187 1.19436 1.19523 1.1985 1.19163 1.19164 1.19178 1.19246 1.19228 1.19698 1.20022 1.20078 1.19178 1.19548 1.21619 1.19178 1.19178 1.14843 1.23663 1.18894 1.23762 1.20294 1.2253 1.18856 1.2422 1.30102 1.29436 1.2985 1.18152 1.37324 1.43114 1.21477 1.12366 1.45386 1.91651 1.68018 1.64663 1.16074 0.830407 0.938929 0.852577 0.869385 0.946229 1.14025 1.083 1.03492 1.33577 1.50969 1.28729 1.52972 1.25832 1.32315 1.32029 1.46719 1.47131 1.23015 1.16385 1.36493 1.14881 1.19496 1.24778 1.24587 1.21513 1.22692 1.20211 1.19892 1.1986 1.19812 1.19137 1.19358 1.1973 1.19199 1.19441 1.19178 1.19466 1.19456 1.1926 1.19209 1.19168 1.1943 1.19301 1.19232 1.19213 1.19471 1.19617 1.19412 1.18944 1.18876 1.20051 1.19797 1.20093 1.20075 1.20328 1.19343 1.2179 1.20236 1.24375 1.20227 1.22369 1.22339 1.21428 1.26938 1.19984 1.29269 1.29241 1.35031 1.29417 1.41434 1.29882 1.17543 1.11886 1.40754 1.51928 1.08847 1.02762 1.07942 1.02026 1.01737 1.06394 1.10446 0.807815 0.841156 1.03847 0.93349 0.881055 0.761437 1.49118 1.24579 1.08763 1.81318 1.10716 1.71357 1.25607 1.25975 1.36457 1.44617 1.15136 1.16841 1.22442 1.23951 1.17684 1.19118 1.20911 1.23519 1.22264 1.20822 1.23316 1.19811 1.20587 1.19561 1.20119 1.19909 1.19756 1.19892 1.19426 1.19634 1.19089 1.19487 1.18825 1.19488 1.1943 1.19531 1.19313 1.19133 1.19475 1.1932 1.19342 1.19422 1.19573 1.19686 1.19242 1.19126 1.1936 1.19028 1.1938 1.19178 1.19178 1.19178 1.21556 1.2024 1.16409 1.20394 1.19904 1.23346 1.22997 1.26347 1.21533 1.22837 1.21668 1.30845 1.31182 1.21722 1.21157 1.28344 1.17568 1.21334 1.20505 1.32904 1.27077 1.18185 1.14609 1.08655 1.07198 1.12235 1.0442 1.14031 1.15997 1.16327 0.926757 0.81302 0.793108 0.82453 0.994475 0.953919 1.01457 0.934491 1.29829 1.29532 1.3483 1.00443 1.20096 0.971835 1.21681 1.16527 1.35183 0.91808 1.24806 1.42497 1.18861 1.20797 1.23623 1.26596 1.17156 1.2409 1.20546 1.197 1.20576 1.27091 1.21176 1.19556 1.19921 1.19926 1.19858 1.19129 1.19637 1.18912 1.19364 1.18745 1.19348 1.19724 1.19303 1.18867 1.19655 1.19311 1.19337 1.19434 1.19722 1.19598 1.19246 1.19233 1.19371 1.20125 1.19575 1.19178 1.19107 1.18645 1.21315 1.19523 1.20446 1.22316 1.19777 1.20442 1.14271 1.21054 1.18757 1.23496 1.22718 1.28908 1.2183 1.15796 1.13559 1.24032 1.31327 1.13076 1.2641 1.16369 1.16928 1.2653 1.1934 1.15381 1.07451 1.01038 0.980538 1.05777 1.15707 0.9872 1.01236 0.986255 0.760875 0.818466 0.859114 0.895977 1.04099 0.934217 0.842823 1.50737 1.16704 1.25624 1.03563 0.854177 0.929204 1.08308 1.17135 1.33113 1.17004 1.02714 1.41272 1.50459 1.01793 1.22391 1.30104 1.28689 1.2346 1.18584 1.21045 1.16876 1.19479 1.20928 1.16545 1.19714 1.20423 1.19906 1.19844 1.19145 1.19305 1.19089 1.19005 1.19487 1.19183 1.19142 1.19288 1.19321 1.19305 1.19078 1.19427 1.1936 1.19432 1.19542 1.19586 1.19023 1.19251 1.1935 1.19532 1.1937 1.18755 1.18428 1.21383 1.19561 1.22815 1.20943 1.20042 1.17593 1.17881 1.17284 1.19189 1.2708 1.14031 1.1637 1.10532 1.20687 1.28403 1.2633 1.32246 1.19635 1.17612 1.12919 1.12505 1.12752 1.14834 0.895078 1.09852 0.932072 0.928887 0.710454 0.566478 0.672243 0.740893 0.841393 0.790393 0.86606 0.999789 0.884366 1.09806 1.10165 1.25721 0.972665 1.15233 1.41553 0.906473 0.838401 0.990936 1.05957 1.1468 1.30765 1.2984 1.22307 1.14486 1.0584 1.06858 0.91802 1.31542 0.969995 1.20056 1.15019 1.28297 1.44421 1.18106 1.24398 1.18246 1.2099 1.19183 1.20563 1.16994 1.20785 1.2079 1.19164 1.19921 1.19832 1.18872 1.19369 1.18715 1.19335 1.19157 1.1912 1.19176 1.19106 1.19492 1.195 1.19742 1.19292 1.19501 1.19554 1.19586 1.19043 1.19119 1.19389 1.19574 1.19136 1.18602 1.18294 1.19178 1.20595 1.24555 1.19691 1.22222 1.16794 1.18125 1.19376 1.18204 1.17876 1.18123 1.27891 1.14749 1.15342 1.11709 1.26821 1.34749 1.29347 1.0596 1.19023 1.29268 1.27096 1.30529 1.18706 1.18546 1.29391 1.07123 1.05447 1.19829 1.14962 1.11881 1.25726 0.874478 0.763074 0.612403 0.689247 0.560384 0.905297 0.917328 0.943657 1.00891 1.26391 1.13009 1.2478 1.17261 1.04595 0.728998 0.457838 0.945209 0.823994 0.978246 0.988048 0.990448 1.00282 1.09643 1.25681 1.27342 1.11954 1.05161 1.17037 1.23204 1.03869 1.22468 1.13541 1.32114 1.20065 1.27505 1.19704 1.156 1.19805 1.19513 1.20177 1.17417 1.18573 1.18731 1.20622 1.18507 1.19776 1.19872 1.19597 1.18822 1.20024 1.19186 1.19141 1.19128 1.19149 1.19148 1.19039 1.19168 1.19245 1.19595 1.19179 1.19343 1.19495 1.19529 1.19586 1.19439 1.19407 1.20513 1.18357 1.20809 1.18862 1.18014 1.20722 1.19982 1.19291 1.1981 1.15713 1.20123 1.1918 1.21244 1.18676 1.18619 1.18258 1.2844 1.16813 1.10768 1.09845 1.27091 1.00293 1.16023 1.06394 1.27902 1.31598 1.11071 1.11991 1.17358 1.205 1.09494 0.887411 1.01517 1.23044 1.0878 1.03463 1.13216 0.249873 0.524286 0.523809 0.508305 0.476532 0.79963 0.674512 0.892528 0.927974 0.91684 1.20546 1.03775 0.828546 0.722243 0.553019 0.706492 0.883445 0.934425 1.01666 0.997585 1.03897 1.10442 1.18028 1.08491 1.23917 1.1714 1.1014 1.06834 1.15652 1.13512 1.22317 1.28845 1.20001 1.1923 1.20265 1.19199 1.20123 1.19972 1.17691 1.21843 1.18396 1.18386 1.1972 1.19941 1.19003 1.19528 1.19246 1.19876 1.19229 1.19355 1.19143 1.1921 1.19069 1.19269 1.19589 1.19184 1.19191 1.19392 1.19405 1.19502 1.19085 1.19412 1.19375 1.19413 1.18712 1.1967 1.20857 1.1975 1.18098 1.18161 1.19947 1.19641 1.1941 1.15772 1.18805 1.23357 1.19058 1.18548 1.1831 1.24762 1.17292 1.19257 1.15731 1.07732 1.02991 1.25317 1.05267 1.09252 1.0775 1.13817 1.05705 1.15225 0.907962 1.04865 1.13977 0.949938 0.987584 0.933885 1.13237 1.0502 1.05486 1.15884 0.927756 0.456748 0.546425 0.721039 0.541161 0.61094 0.563051 0.542833 0.541846 0.519693 0.3723 0.277831 0.458127 0.311605 0.597317 0.562668 0.605639 0.700325 0.586236 0.636786 0.453099 0.567127 0.602302 0.647636 0.781159 0.877219 0.703071 0.714413 0.670988 0.685849 0.80378 1.00437 1.02127 1.09087 1.15694 1.17856 1.22408 1.24387 1.03182 1.09471 1.14509 1.1201 1.13888 1.10344 1.1051 1.18227 1.24006 1.20939 1.20088 1.18065 1.1939 1.20638 1.18079 1.18053 1.19152 1.18247 1.18814 1.18788 1.19134 1.18934 1.19317 1.1915 1.19745 1.19297 1.19178 1.19059 1.19831 1.1865 1.19297 1.19585 1.19239 1.19204 1.19394 1.19399 1.19089 1.19477 1.1943 1.19327 1.19409 1.19698 1.19121 1.20066 1.17257 1.18671 1.18283 1.19803 1.1996 1.19095 1.17615 1.23373 1.19444 1.18853 1.1648 1.20294 1.19546 1.18869 1.21697 0.981659 1.26345 1.08837 1.12943 1.09677 1.1435 1.08838 0.986331 0.849709 0.836022 1.05746 1.13649 1.12669 0.912351 0.991555 1.09255 0.975319 0.894867 0.799873 0.787051 0.566952 0.555124 0.554211 0.56925 0.527243 0.427605 0.336734 0.2296 0.336224 2.75694 0.867835 0.860464 0.717804 0.662588 0.642324 0.520913 0.821896 0.83528 0.760637 0.796154 0.863435 0.936876 0.993455 1.01672 0.966407 1.11579 1.02996 1.20519 0.983164 1.14377 0.998941 1.08015 1.06308 1.11851 1.17203 1.08816 1.00825 1.13916 1.23712 1.167 1.21127 1.19955 1.19717 1.19385 1.20358 1.19156 1.19209 1.17903 1.19116 1.17672 1.18409 1.18519 1.19004 1.19023 1.19384 1.19013 1.1969 1.19247 1.19395 1.18876 1.19836 1.18564 1.1919 1.1953 1.1911 1.19401 1.19426 1.1932 1.19365 1.19428 1.19495 1.19482 1.19335 1.19485 1.19247 1.19116 1.20141 1.18657 1.18311 1.18228 1.20085 1.19251 1.18343 1.22382 1.19564 1.19531 1.1903 1.17366 1.15786 1.19202 1.23198 1.18378 1.13318 1.0721 1.32855 1.1731 1.12737 1.21772 0.986305 0.871841 0.854122 0.961209 0.846214 1.13619 0.891325 0.918852 0.83298 0.722434 0.777531 0.749669 0.750791 0.868905 0.865113 0.616332 0.578094 0.600086 0.58997 0.566604 0.6391 0.556235 0.286549 0.45523 0.399526 1.09647 1.82298 1.12963 0.873365 0.839119 0.726266 0.671943 0.530069 0.829457 0.835556 0.839256 0.779963 0.800427 0.897945 0.796944 0.830784 0.841569 0.894491 0.954704 0.845088 1.10639 0.969373 0.881409 1.19605 1.0933 1.08126 1.15796 1.06534 1.10345 1.13246 1.24474 1.17136 1.21298 1.20102 1.17858 1.19003 1.20123 1.18475 1.17734 1.19251 1.1796 1.18922 1.1878 1.19165 1.19157 1.18712 1.18964 1.1945 1.19246 1.19178 1.18878 1.20115 1.19025 1.19191 1.19558 1.19263 1.19178 1.1948 1.19379 1.19411 1.19449 1.19511 1.19309 1.19432 1.19154 1.20099 1.20154 1.17963 1.18416 1.19728 1.20376 1.19587 1.19053 1.18069 1.19524 1.18989 1.18157 1.17711 1.15414 1.20192 1.21801 1.15045 1.18069 1.25489 1.08041 0.644343 1.23446 1.18345 0.949593 0.951595 1.05912 0.992271 1.03212 0.881345 0.905445 0.975776 0.813829 0.80723 0.745015 0.768582 0.920929 0.639757 0.55812 0.77379 0.563255 0.04682 0.784109 1.48453 1.17628 0.620259 0.356266 0.825525 0.586681 0.585437 0.848261 0.807798 0.791055 0.887489 0.870127 0.87134 0.955498 0.822116 0.944577 0.914481 0.931336 1.13637 1.07407 1.10737 1.01188 1.05933 1.17171 1.06571 1.11947 1.14546 1.24875 1.18532 1.20176 1.1711 1.16668 1.19278 1.19716 1.18265 1.18879 1.18554 1.19033 1.18177 1.18623 1.1898 1.18736 1.19285 1.18419 1.18975 1.19087 1.19625 1.18754 1.20137 1.19401 1.19728 1.19419 1.19203 1.19178 1.19178 1.19465 1.19607 1.19296 1.19745 1.18848 1.19807 1.20466 1.20698 1.17903 1.18528 1.19656 1.20269 1.18879 1.11334 1.1847 1.17988 1.1972 1.17138 1.19632 1.16761 1.14677 1.14739 1.17995 1.13806 1.01656 0.990501 1.28968 1.18876 0.978948 0.447982 1.05064 0.838527 0.862936 0.970454 1.06112 1.05235 1.05794 0.875449 0.758801 0.79503 0.909921 0.676511 0.628863 0.696281 0.714677 1.15049 0.410976 1.1309 0.956339 0.316392 0.897464 0.239217 0.733286 0.93548 0.85449 0.34922 0.445716 0.5004 0.567995 0.644998 0.644216 0.485544 0.964797 0.917448 1.07102 0.934363 0.878016 0.872644 0.96986 0.915949 0.910983 0.873656 0.846527 0.931568 1.04709 0.922824 0.962737 0.89093 0.931656 1.12873 1.04338 1.08133 1.05638 1.16923 1.14858 1.12505 1.1276 1.19674 1.16709 1.14364 1.18753 1.20624 1.20259 1.18025 1.19559 1.18823 1.1831 1.1966 1.1888 1.18629 1.19583 1.18515 1.18693 1.19643 1.19321 1.19254 1.18683 1.19195 1.19369 1.19837 1.19538 1.19176 1.194 1.19368 1.19521 1.19618 1.19312 1.1959 1.18829 1.19297 1.19354 1.19901 1.20766 1.19775 1.1696 1.18286 1.18942 1.19779 1.1844 1.16144 1.18287 1.21093 1.20972 1.17671 1.18253 1.25364 1.16315 1.1899 1.11778 1.02011 0.864387 1.18712 1.12164 1.05764 0.808922 0.987941 0.799292 0.831842 0.922015 1.20363 1.14226 0.917869 1.05568 1.05861 1.0983 0.674574 0.752828 1.07008 0.776567 0.666566 0.657664 0.635448 0.813584 0.786186 0.431452 0.77787 0.826229 0.84199 0.548753 0.59252 0.742264 0.534504 0.723647 1.031 0.91083 0.896076 0.947857 0.820829 0.929894 0.88114 0.917491 0.963938 1.06133 1.11604 1.10735 1.03689 0.964554 0.880813 0.976964 1.0936 1.07728 1.1298 1.08758 1.01045 1.12875 1.17059 1.10001 1.11094 1.07331 1.12137 1.20191 1.16943 1.19014 1.18162 1.17233 1.2183 1.18032 1.1928 1.18684 1.19115 1.19371 1.18757 1.18495 1.19775 1.19353 1.18066 1.19777 1.1974 1.19517 1.18915 1.19254 1.19177 1.19834 1.19509 1.19182 1.19445 1.19383 1.19563 1.19597 1.19409 1.19429 1.18985 1.19253 1.20302 1.20788 1.19817 1.18036 1.17948 1.20248 1.1893 1.18372 1.20493 1.16538 1.16341 1.18492 1.20665 1.17162 1.1742 1.24718 1.19013 1.16449 1.15969 1.06353 1.00137 1.155 1.16767 1.1408 1.06252 1.02006 1.02384 0.819781 1.0343 0.945586 1.14197 0.685617 0.748397 1.21781 0.757405 0.798038 0.883026 0.665352 0.682804 0.98951 0.687183 0.630104 0.791597 0.795853 0.515384 0.607331 0.499992 0.775501 0.888602 0.862702 0.910305 0.978444 0.889756 1.06945 1.07398 0.837771 1.06619 1.03277 1.03921 1.09819 1.11525 1.13816 1.16132 1.17606 1.11479 1.08781 1.1344 1.20659 1.17011 1.18831 1.18354 1.16937 1.19924 1.18613 1.18906 1.18787 1.19577 1.18415 1.18462 1.1826 1.19395 1.19901 1.1884 1.19761 1.19736 1.1948 1.19067 1.19177 1.19129 1.19733 1.19521 1.19224 1.19441 1.19415 1.19542 1.19648 1.19258 1.19401 1.19449 1.19375 1.19979 1.20139 1.1801 1.2036 1.20241 1.18697 1.18571 1.19191 1.19178 1.1663 1.16625 1.18758 1.16027 1.20675 1.18309 1.19461 1.11926 1.03827 1.1567 1.06706 1.10136 1.16189 1.16474 1.09984 1.0385 1.02316 0.797824 1.03661 1.01033 1.0298 1.19352 0.595795 0.726381 1.12281 1.10762 0.823755 0.851821 0.777046 1.02338 0.888664 0.92155 0.877446 0.792904 0.771167 0.452256 0.848889 0.771626 0.32619 0.661659 0.866918 0.978617 0.868085 0.991051 0.985872 0.864552 0.944347 0.798544 0.891614 0.919942 1.02941 1.10785 0.948322 1.03553 0.950762 1.00832 1.08116 1.10788 1.11834 1.14083 1.16909 1.1784 1.11251 1.13315 1.12348 1.15385 1.17521 1.17632 1.1766 1.19626 1.16603 1.20502 1.18617 1.18264 1.19627 1.19301 1.18448 1.18819 1.19501 1.18921 1.1869 1.18926 1.19605 1.19474 1.19204 1.19406 1.1951 1.19499 1.19491 1.19398 1.19554 1.19597 1.19511 1.19269 1.19188 1.19482 1.19474 1.19532 1.19827 1.19947 1.19768 1.18839 1.18598 1.19434 1.18292 1.16421 1.17728 1.20549 1.18963 1.1785 1.18563 1.17634 1.11327 1.12393 1.17686 1.19178 1.1293 1.16105 1.05922 1.18125 1.11459 1.1076 1.16033 1.01604 0.805104 0.989021 1.00255 0.9658 1.02517 1.04086 1.18881 0.621668 1.07776 1.09849 1.01311 0.822544 0.939264 1.04629 1.1283 0.916778 0.641601 0.746685 0.775308 1.18499 0.843331 0.915394 0.706846 1.16415 0.792692 0.97057 0.989932 1.05965 0.972055 0.970224 0.922003 1.14462 0.930347 1.04212 1.10361 1.03756 0.960602 1.03671 1.01521 1.11607 1.11424 1.15964 1.18074 1.16954 1.16334 1.12922 1.18429 1.19532 1.16931 1.1713 1.17955 1.16622 1.19885 1.20584 1.18796 1.19296 1.18579 1.19315 1.19488 1.1953 1.19172 1.18978 1.20003 1.19178 1.1952 1.19485 1.19174 1.1949 1.19911 1.19154 1.19143 1.19603 1.19411 1.19289 1.19607 1.19318 1.19117 1.1955 1.19152 1.1946 1.19538 1.19877 1.19903 1.19769 1.18369 1.18987 1.18548 1.19567 1.1825 1.20044 1.17618 1.20898 1.19862 1.18411 1.18741 1.18329 1.1152 1.21301 1.19178 1.20056 1.14912 1.05803 1.11881 1.12094 1.14632 0.996728 1.03339 1.05015 1.07943 1.05029 1.02369 1.18971 1.21598 0.786221 1.15487 1.13717 0.85559 0.927122 1.00783 0.92008 1.00243 1.12243 0.838667 0.872363 0.92057 0.74115 0.898969 1.10986 1.11949 1.01351 1.02612 0.926153 1.01385 1.03292 0.92981 0.985561 1.05665 1.17366 1.0452 1.03282 1.30446 1.05889 1.14649 1.12761 1.15303 1.18417 1.13749 1.16801 1.1055 1.19734 1.20195 1.19178 1.19197 1.18216 1.17567 1.19276 1.19781 1.18829 1.19271 1.18607 1.19323 1.19533 1.19517 1.18955 1.19893 1.19468 1.20088 1.19514 1.19456 1.19176 1.1941 1.19873 1.19439 1.19915 1.19385 1.1971 1.19668 1.19091 1.19548 1.19286 1.19316 1.19427 1.19839 1.19874 1.1979 1.18627 1.18214 1.18607 1.1916 1.18077 1.17158 1.19828 1.19726 1.18901 1.19095 1.19232 1.18681 1.12233 1.21965 1.21655 1.23539 1.16575 1.12736 1.11206 1.13944 1.14891 0.977338 1.03218 1.07052 1.08144 1.07371 1.02605 0.975247 1.28857 0.945127 1.05734 1.02362 1.19934 0.923157 0.933753 1.08869 1.00036 1.0269 1.11823 1.0855 1.10595 0.751741 1.10967 0.769595 1.02836 0.974324 1.13486 1.16997 1.00908 1.02809 1.02937 0.932259 0.953184 1.00193 1.16523 1.101 1.08705 1.09326 1.16202 1.09893 1.29827 1.07459 1.10027 1.1341 1.11468 1.15826 1.18487 1.14985 1.2022 1.17393 1.19464 1.19502 1.19853 1.17645 1.18432 1.18045 1.1981 1.19506 1.18708 1.1919 1.19178 1.18588 1.19436 1.19405 1.18798 1.19661 1.19916 1.19399 1.19321 1.19443 1.19462 1.19394 1.19621 1.18832 1.1931 1.18918 1.19532 1.19678 1.19225 1.19056 1.19603 1.19289 1.19034 1.19416 1.19441 1.19832 1.18723 1.18622 1.18171 1.1839 1.19063 1.17926 1.19143 1.19715 1.19178 1.19253 1.19388 1.19031 1.18496 1.12575 1.1875 1.18757 1.18317 1.23359 1.16784 1.15842 1.11111 1.19227 1.13047 0.969747 1.07264 1.04096 1.08799 1.13279 1.02746 1.03393 1.06775 1.08575 1.14435 0.921513 0.961444 0.929071 1.03968 1.00258 1.04403 1.10601 0.737276 1.04375 1.0678 1.00553 1.17356 1.01188 0.930126 1.04881 1.21374 1.16754 1.01617 1.09932 1.13401 1.09171 1.13127 1.00511 1.09407 1.11518 1.14291 1.19178 1.17646 1.20963 1.16773 1.202 1.1797 1.20036 1.19248 1.19416 1.1961 1.18495 1.18299 1.19703 1.19277 1.19542 1.19085 1.19049 1.1924 1.18982 1.19448 1.19194 1.19112 1.197 1.20013 1.19421 1.19753 1.19474 1.19919 1.19583 1.18853 1.19153 1.19939 1.19146 1.19172 1.19891 1.19282 1.18555 1.18735 1.19341 1.19074 1.19372 1.19472 1.19759 1.19241 1.18699 1.18452 1.17932 1.19214 1.18481 1.19053 1.19603 1.1936 1.19263 1.19639 1.18162 1.17031 1.12501 1.18565 1.18262 1.18237 1.1352 1.17768 1.10681 1.21755 1.12573 1.09168 1.08192 1.09356 1.11479 1.11264 1.08403 1.08582 1.05614 1.09536 1.15988 1.02227 0.973673 1.10745 1.15802 1.04432 1.02342 1.05713 1.10696 1.16523 1.22979 1.1023 1.04858 1.21156 1.08198 1.16646 1.08648 1.15558 1.16438 1.02899 1.10492 1.18105 1.13884 1.15233 1.19936 1.08422 1.133 1.15225 1.13798 1.19784 1.2209 1.17231 1.1811 1.18908 1.19689 1.19265 1.18791 1.18623 1.19714 1.18617 1.19348 1.19397 1.1914 1.18959 1.19409 1.19269 1.19396 1.19428 1.18627 1.19984 1.19369 1.19803 1.19517 1.19875 1.19618 1.19178 1.19018 1.18511 1.19178 1.19671 1.20424 1.19255 1.18529 1.1942 1.1934 1.19054 1.19282 1.1946 1.19683 1.18423 1.19481 1.19509 1.18952 1.18804 1.18906 1.1955 1.19527 1.19384 1.1924 1.19457 1.17867 1.1713 1.19134 1.18099 1.18501 1.18295 1.17831 1.18864 1.13267 1.22393 1.14009 1.15498 1.02942 1.13772 1.13138 1.09591 1.17028 1.08945 1.0473 1.12619 1.17467 1.08121 1.13577 1.18999 1.05653 1.03255 1.04647 1.09769 1.16016 1.23827 1.11071 1.19178 1.17089 1.07962 1.17683 1.09892 1.15864 1.15861 1.08167 1.13447 1.2024 1.17223 1.16431 1.20384 1.0794 1.13677 1.1753 1.19178 1.19178 1.17541 1.19178 1.17752 1.19178 1.17634 1.19132 1.19488 1.17601 1.19626 1.19694 1.18595 1.19384 1.19312 1.19152 1.19044 1.19512 1.19247 1.19178 1.1937 1.19061 1.19776 1.20028 1.18903 1.19685 1.1965 1.19467 1.2015 1.19745 1.19153 1.19066 1.18797 1.19053 1.20415 1.1849 1.19385 1.18946 1.19218 1.19253 1.18911 1.18956 1.19404 1.19929 1.19178 1.19464 1.19213 1.19178 1.18652 1.18943 1.18822 1.19477 1.1943 1.1942 1.19305 1.1814 1.1984 1.19208 1.1838 1.18597 1.19178 1.18895 1.17467 1.21374 1.14107 1.17665 1.16681 1.06479 1.14438 1.14151 1.12525 1.19129 1.09387 1.0693 1.12455 1.09437 1.11106 1.19955 1.11768 1.05712 1.06003 1.1197 1.09928 1.16094 1.15698 1.1188 1.18683 1.18764 1.08447 1.18015 1.11473 1.19519 1.2169 1.11515 1.16362 1.12775 1.17064 1.12838 1.1688 1.16464 1.17009 1.17117 1.19178 1.20215 1.19745 1.18417 1.19893 1.17862 1.18842 1.18554 1.19178 1.19439 1.1965 1.19522 1.1858 1.19112 1.19232 1.19373 1.19845 1.18965 1.1938 1.19104 1.19386 1.19526 1.19679 1.19692 1.19659 1.19459 1.20272 1.19719 1.19495 1.19214 1.1895 1.19047 1.18838 1.18715 1.19639 1.19311 1.19188 1.19234 1.18903 1.19031 1.20044 1.19834 1.19434 1.19235 1.18607 1.19081 1.18948 1.18865 1.19455 1.19299 1.19178 1.18696 1.18293 1.18812 1.18448 1.19177 1.18489 1.18819 1.16519 1.1771 1.18327 1.15625 1.1784 1.11025 1.15444 1.14515 1.13719 1.18619 1.13747 1.16413 1.11028 1.12575 1.11766 1.15873 1.07257 1.09666 1.1236 1.10805 1.16325 1.15629 1.13082 1.19127 1.14533 1.18853 1.18711 1.12881 1.19178 1.19178 1.19178 1.17487 1.13735 1.16951 1.16917 1.19178 1.16412 1.18729 1.18092 1.16289 1.17789 1.20223 1.1923 1.18536 1.19242 1.19186 1.18669 1.18375 1.17543 1.18562 1.19403 1.19498 1.18743 1.18864 1.19221 1.1929 1.19884 1.19193 1.19377 1.19126 1.19327 1.19436 1.1921 1.19685 1.19368 1.20227 1.19689 1.19178 1.19214 1.19006 1.18937 1.1894 1.18669 1.19429 1.1928 1.19367 1.18806 1.19033 1.18921 1.19928 1.18228 1.19197 1.19499 1.20054 1.19081 1.20073 1.18676 1.18696 1.18989 1.19008 1.1949 1.19256 1.18867 1.18813 1.18324 1.18799 1.1885 1.18242 1.18601 1.19064 1.18696 1.16316 1.17506 1.182 1.1885 1.17615 1.12366 1.16114 1.17863 1.15973 1.15353 1.16348 1.13216 1.1091 1.13859 1.1224 1.1365 1.17262 1.08893 1.12663 1.1161 1.12114 1.11697 1.16805 1.14106 1.16258 1.21612 1.19644 1.17893 1.18684 1.13941 1.19371 1.19028 1.19289 1.17847 1.15686 1.17319 1.17779 1.19178 1.18349 1.16325 1.18235 1.20249 1.19015 1.18702 1.19196 1.19213 1.1868 1.18443 1.18748 1.18967 1.19391 1.19515 1.18745 1.19007 1.19228 1.19254 1.19894 1.20436 1.19202 1.1951 1.19203 1.19402 1.19187 1.19689 1.19618 1.19279 1.20205 1.19663 1.18938 1.19493 1.18886 1.1875 1.18888 1.19083 1.18267 1.19286 1.19336 1.19211 1.19309 1.18991 1.18606 1.18452 1.19343 1.19487 1.18941 1.1873 1.19586 1.18775 1.19218 1.1882 1.19166 1.18576 1.18864 1.18829 1.18793 1.18247 1.18315 1.18822 1.16732 1.18568 1.17636 1.18467 1.17838 1.1259 1.16767 1.1643 1.1729 1.16957 1.15904 1.1635 1.14457 1.14767 1.15237 1.1315 1.13911 1.16622 1.157 1.11979 1.12116 1.12595 1.17689 1.13689 1.17439 1.14638 1.19763 1.2108 1.18098 1.18932 1.14379 1.19872 1.1985 1.17916 1.19013 1.16761 1.17207 1.18452 1.18967 1.19178 1.1902 1.18448 1.16408 1.19139 1.20684 1.20208 1.20595 1.19178 1.19247 1.19234 1.18654 1.18937 1.19028 1.18766 1.19052 1.19237 1.19399 1.18917 1.18976 1.18719 1.19037 1.19647 1.18501 1.19198 1.19476 1.1881 1.19278 1.19734 1.19666 1.19251 1.1953 1.19861 1.18916 1.19696 1.19563 1.18761 1.19008 1.18283 1.19422 1.18905 1.19556 1.19958 1.18739 1.19318 1.1927 1.18434 1.1878 1.18779 1.19518 1.19967 1.19018 1.19344 1.19089 1.18822 1.19099 1.18866 1.18999 1.18918 1.18906 1.18492 1.18826 1.18785 1.19174 1.18953 1.17786 1.18501 1.20174 1.1836 1.18549 1.16127 1.1635 1.17512 1.16239 1.15826 1.15801 1.19346 1.1601 1.16804 1.13612 1.1665 1.15496 1.11391 1.15301 1.12794 1.18362 1.18502 1.1734 1.18451 1.18293 1.19228 1.14863 1.19147 1.19837 1.19108 1.1797 1.19282 1.18703 1.18244 1.19001 1.18376 1.19702 1.18667 1.19084 1.19076 1.19395 1.19149 1.1882 1.19147 1.19186 1.18847 1.19002 1.19232 1.19312 1.19033 1.18181 1.18974 1.19031 1.19513 1.19363 1.19326 1.1935 1.19101 1.18763 1.1937 1.19982 1.19056 1.19326 1.1935 1.19825 1.19118 1.19188 1.19277 1.19802 1.18632 1.19112 1.18279 1.19597 1.18975 1.19627 1.19178 1.18746 1.2002 1.1837 1.18755 1.18944 1.19634 1.19544 1.19905 1.19798 1.19517 1.1946 1.19178 1.19043 1.19476 1.18716 1.18845 1.18725 1.18745 1.18871 1.18776 1.19281 1.18739 1.19178 1.18747 1.19173 1.1856 1.18969 1.18162 1.19646 1.19568 1.1829 1.18749 1.16526 1.17737 1.18011 1.16181 1.15911 1.19483 1.20334 1.16435 1.16149 1.19178 1.16489 1.15856 1.1669 1.16507 1.1327 1.18861 1.18115 1.18671 1.19464 1.20051 1.18621 1.1953 1.19037 1.19195 1.19911 1.19119 1.19178 1.19039 1.19433 1.18577 1.18089 1.19019 1.18346 1.18714 1.19863 1.19155 1.19143 1.19239 1.19139 1.19436 1.19077 1.19929 1.19714 1.19472 1.18748 1.18995 1.18904 1.18927 1.1981 1.19723 1.1816 1.18961 1.18964 1.1926 1.19491 1.19075 1.19201 1.18897 1.1921 1.18621 1.19182 1.193 1.19053 1.18646 1.19151 1.19125 1.19286 1.19178 1.18686 1.18673 1.18638 1.19298 1.19739 1.18928 1.18539 1.19362 1.18952 1.19503 1.19673 1.1892 1.18944 1.19881 1.19807 1.19512 1.19561 1.19293 1.19085 1.19282 1.19178 1.19326 1.191 1.18868 1.18584 1.19231 1.18721 1.1904 1.18471 1.1871 1.17693 1.20081 1.19565 1.18392 1.18238 1.19512 1.1666 1.1756 1.17963 1.19191 1.16159 1.1784 1.20559 1.18087 1.16079 1.19178 1.16539 1.15801 1.16575 1.16949 1.13712 1.18792 1.19178 1.18866 1.19652 1.20095 1.19977 1.18748 1.19347 1.19161 1.19213 1.19467 1.19506 1.19598 1.19056 1.19003 1.19309 1.18716 1.19203 1.19753 1.19526 1.19136 1.19177 1.19277 1.19601 1.19833 1.19912 1.19768 1.18723 1.20006 1.18792 1.19135 1.18562 1.19522 1.2101 1.19409 1.19077 1.19416 1.1909 1.19153 1.18837 1.19107 1.18614 1.18603 1.19111 1.19363 1.18873 1.19028 1.19041 1.1861 1.18638 1.18605 1.18569 1.19229 1.19603 1.18469 1.19181 1.1885 1.18908 1.19113 1.1912 1.18569 1.19071 1.19108 1.18876 1.1921 1.19666 1.19966 1.19804 1.19203 1.19028 1.19128 1.19253 1.1955 1.19302 1.18685 1.18698 1.19449 1.20078 1.20336 1.18924 1.18535 1.19143 1.18982 1.1852 1.18418 1.20049 1.18952 1.19639 1.18558 1.19113 1.19378 1.1698 1.17818 1.18157 1.19376 1.17927 1.18607 1.17998 1.1731 1.20044 1.16465 1.17907 1.18447 1.15487 1.16315 1.16903 1.17353 1.15556 1.16904 1.18846 1.19106 1.18892 1.19405 1.1942 1.19825 1.18787 1.19384 1.19477 1.1894 1.19006 1.19114 1.20056 1.18276 1.19671 1.17375 1.17692 1.18671 1.18534 1.19467 1.1958 1.19711 1.19244 1.19608 1.19057 1.19396 1.19008 1.1956 1.18758 1.1998 1.1909 1.1908 1.20756 1.19178 1.2075 1.19365 1.19138 1.19407 1.1956 1.19155 1.18652 1.19082 1.18656 1.18624 1.19128 1.19163 1.1877 1.18917 1.18998 1.19342 1.19425 1.18607 1.18542 1.1857 1.18539 1.19186 1.19315 1.1985 1.1879 1.18578 1.19136 1.19042 1.1901 1.17934 1.1988 1.19414 1.19398 1.19207 1.19051 1.19059 1.18462 1.19269 1.18762 1.18532 1.1919 1.18917 1.18978 1.1895 1.18465 1.18759 1.1835 1.18376 1.20335 1.19725 1.18252 1.19401 1.17822 1.18132 1.19178 1.19164 1.17998 1.19928 1.20018 1.18329 1.1798 1.17823 1.16413 1.1746 1.17268 1.18932 1.17268 1.18043 1.19251 1.18106 1.17142 1.1891 1.19062 1.18976 1.19516 1.19863 1.18901 1.19442 1.19473 1.19817 1.20278 1.18966 1.19659 1.19067 1.20035 1.19128 1.19212 1.19428 1.19178 1.19049 1.19337 1.18882 1.1941 1.19198 1.19638 1.19636 1.19319 1.19505 1.18929 1.18547 1.18948 1.18869 1.19329 1.19544 1.18923 1.19059 1.19346 1.18988 1.18513 1.18694 1.19061 1.18617 1.18495 1.19178 1.19026 1.19125 1.18843 1.19055 1.19445 1.18467 1.18559 1.18994 1.19111 1.19093 1.19835 1.18807 1.18567 1.18969 1.19246 1.18916 1.17966 1.18826 1.18919 1.1999 1.1939 1.19441 1.19379 1.19249 1.19095 1.18948 1.19076 1.19486 1.18959 1.18321 1.20339 1.19444 1.19035 1.18728 1.18479 1.18983 1.18564 1.19557 1.19264 1.18903 1.18132 1.18201 1.1928 1.19933 1.18944 1.18511 1.17755 1.16516 1.17747 1.18529 1.18072 1.17991 1.17769 1.18933 1.19243 1.18992 1.19577 1.18946 1.19337 1.19058 1.2007 1.18599 1.19531 1.19132 1.19474 1.19508 1.19643 1.19099 1.19025 1.18823 1.19695 1.19655 1.19345 1.19295 1.19228 1.19562 1.19506 1.1965 1.19551 1.19424 1.18809 1.18986 1.18788 1.19223 1.20593 1.19437 1.19534 1.18989 1.1917 1.19108 1.19212 1.19031 1.18459 1.18701 1.19178 1.18675 1.19178 1.19056 1.18962 1.18895 1.18684 1.18869 1.18988 1.19449 1.18692 1.19023 1.19497 1.19422 1.18857 1.18888 1.1914 1.19584 1.187 1.19178 1.18972 1.19195 1.18761 1.18143 1.18689 1.19226 1.1942 1.19338 1.19487 1.18208 1.18386 1.19665 1.19432 1.18792 1.19453 1.18322 1.19473 1.19547 1.19161 1.18901 1.18615 1.18686 1.19076 1.18482 1.1878 1.19119 1.18823 1.18146 1.20072 1.18485 1.18617 1.1799 1.19493 1.18584 1.182 1.18034 1.17357 1.1941 1.19256 1.19346 1.19174 1.19366 1.19505 1.18969 1.1905 1.2009 1.18896 1.192 1.19493 1.19142 1.19136 1.19467 1.19257 1.19194 1.18841 1.18982 1.19614 1.19512 1.19176 1.19146 1.195 1.19286 1.19455 1.18771 1.1893 1.18999 1.19204 1.18645 1.19172 1.19174 1.18784 1.19363 1.18834 1.19227 1.18543 1.18505 1.19632 1.19483 1.18428 1.18935 1.18939 1.18798 1.19293 1.1885 1.18778 1.19367 1.19177 1.18991 1.18939 1.18773 1.19359 1.19041 1.19598 1.18609 1.19429 1.19754 1.19556 1.18979 1.19329 1.18912 1.18203 1.18567 1.18609 1.19181 1.1946 1.1927 1.19261 1.19386 1.19417 1.18677 1.19408 1.1893 1.18727 1.19248 1.19103 1.19038 1.19104 1.19058 1.18621 1.18392 1.19292 1.18838 1.19054 1.19358 1.18291 1.19011 1.20165 1.1876 1.18229 1.18865 1.19855 1.1932 1.18428 1.19028 1.18999 1.18103 1.17806 1.17999 1.17541 1.19418 1.1942 1.19427 1.19276 1.19289 1.19336 1.19549 1.19342 1.19524 1.1877 1.19462 1.19491 1.19478 1.19125 1.19081 1.19361 1.19235 1.19094 1.19277 1.1974 1.19421 1.19352 1.19296 1.1913 1.19147 1.1947 1.19317 1.19146 1.19179 1.1921 1.19205 1.18733 1.1961 1.19536 1.1918 1.19425 1.19813 1.19038 1.19654 1.17528 1.19159 1.1847 1.19624 1.18371 1.19178 1.18443 1.18907 1.18824 1.19222 1.19091 1.18872 1.18653 1.19318 1.19112 1.18981 1.18923 1.1885 1.19066 1.19054 1.18853 1.19247 1.19573 1.18756 1.17759 1.18555 1.18621 1.18878 1.1946 1.19402 1.19219 1.19176 1.18549 1.19379 1.19298 1.19192 1.18732 1.18738 1.18881 1.18795 1.19136 1.18596 1.1841 1.18982 1.18391 1.18874 1.19452 1.19135 1.18475 1.18242 1.20144 1.18785 1.18196 1.18215 1.19799 1.20255 1.19488 1.19488 1.18653 1.18326 1.1813 1.17965 1.17714 1.17641 1.19402 1.19406 1.19325 1.19282 1.19311 1.19328 1.2042 1.18436 1.18764 1.19057 1.19532 1.19805 1.1915 1.18542 1.18949 1.19149 1.19537 1.18984 1.19176 1.19314 1.19121 1.19381 1.19265 1.19026 1.18943 1.19247 1.19192 1.19213 1.18528 1.19174 1.19399 1.19178 1.18833 1.18761 1.18901 1.18435 1.1949 1.20027 1.18888 1.18455 1.1886 1.1879 1.18682 1.19266 1.19039 1.18827 1.18475 1.19139 1.19113 1.18921 1.1916 1.18863 1.1908 1.19091 1.18927 1.18636 1.19229 1.19544 1.19587 1.17809 1.18185 1.19092 1.18639 1.18887 1.19443 1.19365 1.19327 1.19301 1.19148 1.19076 1.19069 1.19197 1.18559 1.19188 1.1925 1.18732 1.19178 1.18669 1.18692 1.1914 1.18518 1.18136 1.18068 1.18455 1.18998 1.19443 1.19304 1.19086 1.18415 1.20047 1.18145 1.19 1.19972 1.18414 1.18292 1.19916 1.2029 1.1976 1.1893 1.18663 1.18439 1.18399 1.18007 1.17772 1.17711 1.19386 1.19236 1.1919 1.19909 1.19896 1.19651 1.19178 1.18973 1.19178 1.19755 1.18991 1.18721 1.19061 1.19049 1.19291 1.19148 1.19205 1.19112 1.1931 1.18964 1.19194 1.19048 1.19272 1.19619 1.19379 1.19279 1.19228 1.19177 1.19175 1.19154 1.18451 1.19169 1.19562 1.19278 1.19118 1.18891 1.18749 1.19304 1.19192 1.1939 1.19211 1.18597 1.18462 1.18617 1.18331 1.18684 1.19072 1.18855 1.19147 1.19201 1.18759 1.19006 1.19094 1.18673 1.18951 1.19602 1.17966 1.18241 1.19524 1.18577 1.18919 1.18888 1.18654 1.18892 1.19073 1.19228 1.19322 1.1922 1.19107 1.19022 1.18634 1.18612 1.19108 1.18495 1.17885 1.18154 1.18987 1.19404 1.18594 1.18271 1.18328 1.18639 1.18812 1.18176 1.19793 1.19751 1.1899 1.18634 1.18293 1.18538 1.1805 1.17879 1.1775 1.19354 1.19306 1.19178 1.19174 1.19187 1.18905 1.19489 1.19793 1.19766 1.18853 1.19533 1.19702 1.18787 1.19733 1.19353 1.19256 1.19117 1.20261 1.2037 1.1903 1.19189 1.19183 1.1951 1.19086 1.18947 1.19114 1.19537 1.19332 1.18934 1.19189 1.191 1.18355 1.19437 1.19258 1.18898 1.19214 1.18822 1.18863 1.19363 1.19343 1.19338 1.19302 1.18863 1.18962 1.18448 1.185 1.19215 1.1911 1.19951 1.18275 1.18656 1.1911 1.18944 1.19326 1.18806 1.18985 1.18515 1.18516 1.18804 1.18733 1.19134 1.19144 1.18967 1.1964 1.18818 1.19102 1.1883 1.17998 1.18829 1.18826 1.18233 1.19015 1.18934 1.18714 1.19086 1.19088 1.19019 1.19066 1.18971 1.19297 1.18833 1.18538 1.19141 1.18423 1.18526 1.19295 1.18821 1.18127 1.17938 1.18988 1.18992 1.18892 1.18424 1.18523 1.18446 1.1831 1.18384 1.18535 1.18793 1.19105 1.18889 1.18669 1.19047 1.19363 1.18367 1.17856 1.18426 1.17966 1.17769 1.19312 1.19243 1.18987 1.19313 1.18896 1.18849 1.18816 1.19502 1.19767 1.19718 1.18801 1.19808 1.19717 1.19718 1.18232 1.20264 1.18845 1.18827 1.19132 1.19451 1.1909 1.20007 1.19598 1.1843 1.18898 1.19262 1.18965 1.18834 1.18456 1.19234 1.19247 1.19149 1.19067 1.18939 1.1883 1.18759 1.18926 1.19276 1.19178 1.193 1.19282 1.18982 1.1899 1.18883 1.18224 1.19635 1.18838 1.18488 1.18907 1.18617 1.18727 1.18903 1.19398 1.19473 1.18801 1.18992 1.19117 1.18696 1.18648 1.18812 1.18956 1.18656 1.19143 1.18727 1.1882 1.18171 1.18741 1.19008 1.19216 1.18826 1.18653 1.1896 1.19021 1.18948 1.19128 1.18728 1.18715 1.19225 1.19178 1.18284 1.20744 1.19188 1.18781 1.18324 1.18479 1.18943 1.1902 1.1926 1.18401 1.18997 1.18238 1.19656 1.18619 1.19158 1.18938 1.18589 1.18217 1.18909 1.18163 1.1964 1.18751 1.18028 1.17783 1.19254 1.19205 1.19294 1.18784 1.18757 1.19551 1.18639 1.18716 1.19121 1.19912 1.197 1.19653 1.19227 1.19955 1.18822 1.18871 1.18817 1.19074 1.19435 1.18986 1.19172 1.1893 1.18994 1.19841 1.18324 1.19417 1.18634 1.19157 1.19274 1.19103 1.18917 1.18677 1.18745 1.19007 1.19249 1.19039 1.18699 1.18926 1.18928 1.18893 1.18161 1.17895 1.18928 1.18546 1.18977 1.18802 1.18976 1.18836 1.18829 1.19002 1.18638 1.18748 1.18792 1.1876 1.18619 1.19016 1.18192 1.18739 1.18676 1.18072 1.19067 1.18948 1.18983 1.18653 1.18797 1.1891 1.18392 1.1898 1.18883 1.19351 1.1897 1.19054 1.19533 1.19983 1.19086 1.18623 1.19122 1.18378 1.1926 1.19566 1.19178 1.18923 1.18801 1.18061 1.1825 1.1957 1.1819 1.19401 1.19371 1.18682 1.18737 1.18989 1.18621 1.18615 1.18282 1.1888 1.19672 1.18721 1.18156 1.18177 1.19176 1.19178 1.18781 1.18779 1.19094 1.19506 1.19205 1.18635 1.19105 1.19002 1.19685 1.19262 1.17003 1.18749 1.18938 1.19007 1.18889 1.19295 1.18717 1.18733 1.20844 1.1861 1.18641 1.18771 1.19123 1.19206 1.19213 1.18903 1.18783 1.18719 1.18822 1.18663 1.19028 1.18724 1.19229 1.18934 1.18853 1.18969 1.18813 1.1869 1.18864 1.18134 1.179 1.18438 1.19178 1.1895 1.19181 1.1905 1.1889 1.18689 1.19123 1.18739 1.18664 1.18753 1.18741 1.1882 1.18786 1.18667 1.18182 1.18206 1.18908 1.18909 1.18353 1.18917 1.18958 1.18797 1.19178 1.18843 1.18694 1.1876 1.18777 1.1845 1.18817 1.19397 1.19079 1.19008 1.19097 1.19386 1.19122 1.18866 1.18765 1.19177 1.19236 1.18758 1.19136 1.19136 1.18635 1.1907 1.1896 1.18885 1.18269 1.19173 1.18873 1.19302 1.1879 1.19178 1.18663 1.18156 1.18225 1.18632 1.18729 1.18947 1.19091 1.19383 1.18954 1.19058 1.18622 1.18664 1.19644 1.19181 1.1863 1.19178 1.18918 1.1896 1.18887 1.19237 1.18617 1.19143 1.18674 1.1909 1.18263 1.18695 1.18834 1.19127 1.19051 1.18895 1.18831 1.18781 1.18687 1.19257 1.18683 1.19009 1.18889 1.19119 1.19064 1.1919 1.1901 1.18869 1.18225 1.18485 1.1792 1.18918 1.18909 1.18735 1.18879 1.19154 1.18983 1.18806 1.18775 1.18615 1.19084 1.18808 1.18738 1.18702 1.18839 1.18688 1.18688 1.19178 1.18892 1.19625 1.18372 1.18555 1.18319 1.18852 1.18838 1.18994 1.18747 1.18673 1.18682 1.18726 1.18937 1.18909 1.18831 1.19383 1.19324 1.18317 1.19005 1.19224 1.19083 1.19095 1.18933 1.19001 1.18879 1.18734 1.19362 1.18739 1.19371 1.19441 1.19147 1.18824 1.18776 1.19203 1.19164 1.19218 1.19326 1.18688 1.18268 1.18661 1.1876 1.18405 1.18276 1.18181 1.1915 1.18496 1.18718 1.19015 1.19204 1.19044 1.19315 1.19109 1.18507 1.1987 1.187 1.19134 1.19188 1.18774 1.18869 1.18437 1.18843 1.19253 1.18564 1.18972 1.19129 1.18956 1.18811 1.18966 1.1857 1.18971 1.18705 1.18991 1.19084 1.18937 1.18957 1.18712 1.19058 1.18661 1.18624 1.18803 1.18982 1.18897 1.1813 1.18558 1.19043 1.19219 1.19658 1.18587 1.19459 1.18804 1.1878 1.1912 1.18976 1.18771 1.18628 1.19004 1.18792 1.1889 1.18698 1.18737 1.18646 1.18745 1.18924 1.18697 1.19175 1.18752 1.18748 1.19036 1.1834 1.18622 1.18871 1.18719 1.18438 1.19178 1.18945 1.18973 1.19014 1.19026 1.18655 1.18639 1.18686 1.18712 1.19359 1.19297 1.18293 1.19093 1.19388 1.19095 1.18909 1.18894 1.18926 1.18993 1.18932 1.19005 1.19205 1.19501 1.19148 1.18754 1.19023 1.19501 1.18919 1.19369 1.19022 1.19075 1.19031 1.19276 1.18902 1.18483 1.18263 1.18283 1.18639 1.19166 1.18389 1.18697 1.19021 1.19229 1.19053 1.19156 1.19437 1.18848 1.18973 1.18434 1.18692 1.18844 1.18985 1.19055 1.1929 1.19443 1.18544 1.185 1.18722 1.19118 1.18842 1.18573 1.18619 1.18937 1.18937 1.18552 1.18706 1.18549 1.19143 1.18988 1.18761 1.18989 1.19187 1.18671 1.18519 1.1882 1.18388 1.18471 1.18849 1.19072 1.18771 1.18907 1.18907 1.18542 1.19603 1.19166 1.18979 1.18777 1.18836 1.18886 1.18769 1.18997 1.19146 1.19178 1.18653 1.19118 1.20111 1.19136 1.18836 1.1898 1.18108 1.18601 1.1893 1.18975 1.18888 1.18501 1.18666 1.18592 1.18845 1.19077 1.18943 1.19026 1.18472 1.18272 1.18324 1.18942 1.19257 1.19049 1.18899 1.1901 1.18963 1.19003 1.19184 1.19008 1.1946 1.18879 1.19027 1.18863 1.19069 1.1878 1.19237 1.18952 1.18995 1.18441 1.18542 1.18591 1.18182 1.18185 1.18795 1.18322 1.18645 1.18993 1.19015 1.18958 1.19198 1.19329 1.18892 1.18832 1.18801 1.18728 1.18679 1.18838 1.18905 1.19053 1.18475 1.18813 1.18766 1.18538 1.18841 1.18614 1.18925 1.18882 1.1852 1.18611 1.18792 1.19197 1.18828 1.19046 1.19059 1.1882 1.19034 1.18834 1.18648 1.18665 1.18895 1.18811 1.19114 1.19234 1.192 1.19045 1.19039 1.19026 1.19002 1.19429 1.19237 1.19032 1.18608 1.18785 1.19284 1.19178 1.18792 1.18692 1.18974 1.19382 1.19366 1.18783 1.18877 1.18438 1.18493 1.18728 1.18839 1.18954 1.18971 1.18944 1.18666 1.18789 1.18874 1.18913 1.18747 1.18464 1.18914 1.18982 1.18579 1.18747 1.19007 1.1918 1.1891 1.18575 1.19402 1.18887 1.19244 1.18748 1.18934 1.19183 1.19115 1.19303 1.18851 1.18858 1.18631 1.18763 1.1885 1.19145 1.18398 1.19076 1.19207 1.19371 1.18466 1.1841 1.18422 1.18933 1.19155 1.1827 1.18747 1.1851 1.18784 1.19336 1.19069 1.18767 1.18685 1.18797 1.1862 1.18864 1.18932 1.1891 1.18979 1.19005 1.1923 1.1853 1.18424 1.18883 1.18735 1.18709 1.18983 1.18561 1.18749 1.18603 1.18974 1.18682 1.18841 1.18635 1.18768 1.19002 1.18944 1.18721 1.18719 1.19342 1.18968 1.18692 1.18927 1.18882 1.19013 1.18721 1.18762 1.1924 1.19004 1.18895 1.19126 1.18516 1.1906 1.19153 1.19178 1.19125 1.18676 1.1917 1.19213 1.18889 1.1958 1.19178 1.18757 1.19005 1.19237 1.18947 1.1887 1.18604 1.18689 1.19081 1.18969 1.18998 1.18684 1.1863 1.18787 1.18847 1.18808 1.18859 1.1847 1.1878 1.18498 1.18747 1.1894 1.18707 1.1919 1.18901 1.19183 1.19035 1.19292 1.19178 1.18694 1.18896 1.18989 1.19206 1.19097 1.19052 1.19178 1.18889 1.18983 1.1895 1.18944 1.18628 1.18836 1.19039 1.19087 1.19108 1.19069 1.19218 1.18454 1.19209 1.19178 1.1915 1.19145 1.18555 1.18569 1.18333 1.18479 1.18218 1.1934 1.18937 1.18659 1.18635 1.1864 1.18806 1.18924 1.18936 1.18994 1.18381 1.18754 1.1913 1.18409 1.1865 1.18609 1.18727 1.18888 1.18578 1.18621 1.18771 1.18991 1.18721 1.18715 1.18708 1.19338 1.1905 1.18874 1.18755 1.18633 1.19162 1.18993 1.1889 1.19178 1.18706 1.19115 1.19178 1.19178 1.19117 1.18804 1.1917 1.19171 1.19178 1.18943 1.1901 1.19254 1.18762 1.18756 1.19012 1.18965 1.18869 1.18743 1.19162 1.18687 1.1913 1.19193 1.19035 1.18672 1.18756 1.186 1.18862 1.188 1.18848 1.18829 1.1876 1.18593 1.18444 1.18802 1.19007 1.19054 1.19083 1.18761 1.19297 1.18791 1.18882 1.18968 1.19191 1.1919 1.19146 1.19012 1.18936 1.18982 1.18924 1.18785 1.19076 1.19165 1.1922 1.18468 1.19175 1.19178 1.19209 1.18927 1.19138 1.18593 1.18398 1.18534 1.19391 1.18435 1.188 1.18943 1.18612 1.18712 1.18888 1.18903 1.18934 1.19177 1.18456 1.18857 1.18604 1.18597 1.18937 1.19242 1.18856 1.18456 1.19008 1.18735 1.18847 1.18854 1.18529 1.18615 1.18841 1.18841 1.18986 1.19179 1.18912 1.19035 1.18856 1.18837 1.19178 1.18886 1.18849 1.19178 1.1893 1.19131 1.19178 1.19179 1.19129 1.18979 1.19173 1.19178 1.19005 1.19178 1.19242 1.18997 1.1921 1.19198 1.19072 1.1892 1.18753 1.18835 1.19161 1.18729 1.19049 1.18843 1.19036 1.18774 1.18677 1.18638 1.18874 1.18794 1.1878 1.18631 1.18718 1.18401 1.1866 1.18762 1.18905 1.18935 1.18937 1.19054 1.19105 1.19224 1.1877 1.18969 1.19351 1.18891 1.18956 1.19217 1.18952 1.19078 1.19095 1.19008 1.1887 1.18962 1.1907 1.19142 1.19222 1.19159 1.18474 1.19149 1.19219 1.18533 1.18406 1.18784 1.18934 1.1871 1.18883 1.18921 1.18994 1.18938 1.18613 1.18925 1.18588 1.18752 1.18962 1.18825 1.1877 1.18905 1.19043 1.18574 1.1852 1.18512 1.18877 1.18854 1.18899 1.19001 1.18692 1.19031 1.18693 1.19205 1.18913 1.18909 1.18927 1.19178 1.18852 1.19205 1.18948 1.18987 1.19085 1.18959 1.19131 1.19196 1.19208 1.19134 1.19139 1.18963 1.19161 1.19099 1.19155 1.19054 1.19093 1.18916 1.18985 1.18841 1.19162 1.19155 1.19038 1.1876 1.18566 1.18933 1.18851 1.18856 1.1886 1.18832 1.18623 1.18713 1.18393 1.18631 1.18789 1.18963 1.19178 1.19096 1.19147 1.19181 1.19129 1.18985 1.18957 1.18941 1.19178 1.18936 1.19098 1.19126 1.18937 1.18998 1.18907 1.19178 1.18954 1.19097 1.19202 1.19115 1.19137 1.19178 1.19136 1.19137 1.19078 1.18549 1.18375 1.18576 1.19178 1.18393 1.18795 1.18699 1.18593 1.18737 1.18909 1.19022 1.18935 1.18935 1.18702 1.18942 1.18832 1.18975 1.18921 1.18963 1.18521 1.18711 1.18703 1.19021 1.18972 1.18931 1.18988 1.19156 1.19162 1.19055 1.18903 1.18821 1.19139 1.19114 1.18748 1.1855 1.18931 1.19045 1.18771 1.18823 1.18616 1.18711 1.18739 1.18735 1.19213 1.19178 1.18813 1.19178 1.18994 1.18977 1.18958 1.18943 1.19139 1.19008 1.19045 1.18914 1.19188 1.19105 1.19167 1.19137 
SCALARS Stress float 1
LOOKUP_TABLE default
-1.36997e+12 -894957000000.0 -694008000000.0 -1.15386e+12 -2.35615e+12 -951638000000.0 -1.11703e+12 -1.59894e+12 -1.24886e+12 -1.03332e+12 -634240000000.0 -560970000000.0 -542942000000.0 -270423000000.0 -160342000000.0 -140057000000.0 -70563600000.0 -37046200000.0 -27852800000.0 -12549700000.0 -12549700000.0 -16834800000.0 -19804800000.0 -13265700000.0 -16660900000.0 -14733200000.0 -14412700000.0 -13274500000.0 -12549700000.0 -12564100000.0 -13631900000.0 -12589000000.0 -13328000000.0 -12567100000.0 -12587200000.0 -12900200000.0 -14424800000.0 -14279700000.0 -13753800000.0 -14178700000.0 -13512400000.0 -13928200000.0 -14076700000.0 -15179600000.0 -16166600000.0 -12714300000.0 -12618900000.0 -12718000000.0 -12761800000.0 -15794100000.0 -16734900000.0 -18805300000.0 -24338200000.0 -19544900000.0 -21738000000.0 -23666600000.0 -57127100000.0 -101519000000.0 -185823000000.0 -252920000000.0 -132368000000.0 -258641000000.0 -450250000000.0 -315101000000.0 -289735000000.0 -698215000000.0 -836652000000.0 -944653000000.0 -712392000000.0 -1.7225e+12 -2.13069e+12 -1.98884e+12 -2.44074e+12 -2.03049e+12 -1.02256e+12 -2.87786e+12 -1.97457e+12 -2.23952e+12 -1.27155e+12 -1.41766e+12 -1.08836e+12 -338568000000.0 -634661000000.0 -536634000000.0 -203085000000.0 -30184800000.0 -12549700000.0 -114931000000.0 -12549700000.0 -13019000000.0 -38397800000.0 -32577900000.0 -20834500000.0 -31598300000.0 -42670900000.0 -16133700000.0 -29260400000.0 -26492300000.0 -20586700000.0 -19376400000.0 -14263000000.0 -13544700000.0 -18653300000.0 -15110800000.0 -16288000000.0 -13558300000.0 -14311800000.0 -16493400000.0 -12973500000.0 -14356100000.0 -14413800000.0 -14115000000.0 -13573600000.0 -13477700000.0 -13063900000.0 -14315000000.0 -13391700000.0 -20542000000.0 -12640200000.0 -12566200000.0 -12549700000.0 -12907800000.0 -13046600000.0 -18121300000.0 -17831600000.0 -18027800000.0 -12549700000.0 -16208800000.0 -27299300000.0 -12549700000.0 -12549700000.0 -27414400000.0 -28463800000.0 -13067200000.0 -94422200000.0 -14072400000.0 -110243000000.0 -24950700000.0 -31153800000.0 -174627000000.0 -381603000000.0 -171054000000.0 -21662800000.0 -537207000000.0 -528998000000.0 -714791000000.0 -1.52337e+12 -1.26479e+12 -1.00865e+12 -2.45225e+12 -1.44546e+12 -3.29883e+12 -1.97351e+12 -1.82405e+12 -1.88091e+12 -1.85094e+12 -2.51635e+12 -1.436e+12 -3.97132e+12 -2.63859e+12 -1.21714e+12 -2.83799e+12 -2.09242e+12 -1.3691e+12 -999933000000.0 -1.14194e+12 -1.358e+12 -730524000000.0 -731596000000.0 -457997000000.0 -412405000000.0 -370585000000.0 -263619000000.0 -130023000000.0 -107367000000.0 -108301000000.0 -53880100000.0 -94395900000.0 -48052500000.0 -39642300000.0 -37236300000.0 -39580200000.0 -25071900000.0 -25581400000.0 -14456100000.0 -13087900000.0 -17944100000.0 -12549700000.0 -14672300000.0 -17589500000.0 -13364500000.0 -13443500000.0 -12667600000.0 -17716300000.0 -15658900000.0 -13377400000.0 -13231200000.0 -15887600000.0 -20749000000.0 -21890100000.0 -20842400000.0 -20642900000.0 -28447600000.0 -35826000000.0 -68357600000.0 -67014900000.0 -74643200000.0 -55387800000.0 -60550100000.0 -68128300000.0 -81722700000.0 -57010100000.0 -87405000000.0 -104644000000.0 -173250000000.0 -199514000000.0 -278178000000.0 -336151000000.0 -584159000000.0 -1.19811e+12 -412102000000.0 -323110000000.0 -956531000000.0 -1.35421e+12 -2.82572e+12 -2.55017e+12 -1.84e+12 -3.66368e+12 -2.40918e+12 -3.40173e+12 -4.95572e+12 -2.62667e+12 -3.80551e+12 -3.74563e+12 -3.32354e+12 -4.64986e+12 -2.26311e+12 -3.02125e+12 -3.54764e+12 -3.75204e+12 -4.07387e+12 -1.92141e+12 -1.85359e+12 -1.88821e+12 -856014000000.0 -766822000000.0 -2.18226e+12 -1.18673e+12 -498800000000.0 -519496000000.0 -238201000000.0 -134995000000.0 -34317200000.0 -158480000000.0 -45244600000.0 -17246900000.0 -72485600000.0 -112224000000.0 -23125600000.0 -49308100000.0 -94028700000.0 -71682500000.0 -47426700000.0 -45406200000.0 -68311000000.0 -35122600000.0 -65163100000.0 -44052300000.0 -40054500000.0 -44402100000.0 -39867400000.0 -27926800000.0 -22664400000.0 -19798500000.0 -26269400000.0 -14971200000.0 -13954600000.0 -12904200000.0 -18276500000.0 -12858300000.0 -17570600000.0 -14259100000.0 -20824300000.0 -30954200000.0 -19071100000.0 -19180600000.0 -22045900000.0 -17834900000.0 -46850000000.0 -12549700000.0 -12549700000.0 -12549700000.0 -52719100000.0 -42937900000.0 -56343700000.0 -97823500000.0 -172555000000.0 -213557000000.0 -346347000000.0 -217536000000.0 -528577000000.0 -170876000000.0 -160424000000.0 -605759000000.0 -1.28879e+12 -344548000000.0 -1.17128e+12 -2.37568e+12 -1.27529e+12 -1.64676e+12 -1.22218e+12 -1.18322e+12 -1.39198e+12 -322995000000.0 -2.19893e+12 -2.06561e+12 -3.71157e+12 -2.94922e+12 -4.01981e+12 -4.27457e+12 -3.63842e+12 -4.36801e+12 -3.46837e+12 -4.6673e+12 -6.37141e+12 -2.17896e+12 -3.29404e+12 -2.30498e+12 -2.04579e+12 -2.29634e+12 -3.19407e+12 -1.6532e+12 -2.57441e+12 -1.71514e+12 -853296000000.0 -2.09413e+12 -879752000000.0 -1.12176e+12 -738271000000.0 -749767000000.0 -972892000000.0 -976680000000.0 -501258000000.0 -395024000000.0 -164676000000.0 -331481000000.0 -222858000000.0 -217696000000.0 -261476000000.0 -304561000000.0 -236018000000.0 -26572100000.0 -105642000000.0 -51097800000.0 -103790000000.0 -23081100000.0 -39028500000.0 -22797700000.0 -20618100000.0 -31852100000.0 -17122000000.0 -21748500000.0 -30001000000.0 -42507500000.0 -18004400000.0 -16420200000.0 -23237400000.0 -14081100000.0 -21828900000.0 -22222700000.0 -16757600000.0 -38396200000.0 -25431700000.0 -26372300000.0 -29857100000.0 -25759400000.0 -66105500000.0 -12549700000.0 -16407200000.0 -29189100000.0 -80757500000.0 -83923500000.0 -81823500000.0 -73835500000.0 -152514000000.0 -135370000000.0 -82802000000.0 -126713000000.0 -450116000000.0 -590987000000.0 -564207000000.0 -293916000000.0 -885183000000.0 -374457000000.0 -560070000000.0 -710789000000.0 -2.71346e+12 -1.58391e+12 -1.69523e+12 -1.60303e+12 -1.98903e+12 -1.88467e+12 -1.01085e+12 -3.89145e+12 -2.76825e+12 -4.02639e+12 -2.73926e+12 -4.8252e+12 -5.23131e+12 -3.15299e+12 -3.0529e+12 -966914000000.0 -2.47056e+12 -1.52511e+12 -1.55177e+12 -2.8961e+12 -4.35365e+12 -7.53842e+12 -5.36437e+12 -5.86367e+12 -3.15338e+12 -3.10328e+12 -3.68257e+12 -2.11617e+12 -2.64203e+12 -975551000000.0 -2.62328e+12 -2.08797e+12 -721390000000.0 -871296000000.0 -841344000000.0 -400306000000.0 -321896000000.0 -1.08544e+12 -765399000000.0 -521661000000.0 -487866000000.0 -283893000000.0 -284446000000.0 -40757000000.0 -23101500000.0 -86933300000.0 -70861700000.0 -121027000000.0 -148484000000.0 -42358500000.0 -40342200000.0 -33734500000.0 -13427700000.0 -20285800000.0 -18165700000.0 -13714600000.0 -31900700000.0 -26304200000.0 -16278900000.0 -36394000000.0 -39148000000.0 -37733400000.0 -40704500000.0 -54845500000.0 -32920000000.0 -27950000000.0 -44637000000.0 -26787800000.0 -28565200000.0 -45207700000.0 -50803200000.0 -51252500000.0 -71062200000.0 -99166500000.0 -124267000000.0 -162548000000.0 -185765000000.0 -206398000000.0 -69375400000.0 -94228300000.0 -122110000000.0 -277503000000.0 -417315000000.0 -824173000000.0 -761895000000.0 -813790000000.0 -711576000000.0 -1.2643e+12 -1.8398e+12 -2.9352e+12 -2.44417e+12 -1.50804e+12 -1.75276e+12 -2.70628e+12 -3.13992e+12 -3.32817e+12 -5.06377e+12 -7.63512e+12 -3.68065e+12 -5.15019e+12 -1.96627e+12 -3.27701e+12 -3.5533e+12 -4.48093e+12 -3.23083e+12 -2.55557e+12 -3.46733e+12 -3.32578e+12 -3.6491e+12 -6.77329e+12 -4.84427e+12 -4.00385e+12 -3.12855e+12 -5.08749e+12 -2.83699e+12 -3.96652e+12 -4.40377e+12 -3.10482e+12 -3.18659e+12 -1.47836e+12 -2.09486e+12 -2.81016e+12 -2.76105e+12 -2.03354e+12 -1.16742e+12 -1.29985e+12 -1.44019e+12 -1.28633e+12 -948012000000.0 -943802000000.0 -961573000000.0 -303684000000.0 -406235000000.0 -247285000000.0 -351750000000.0 -489983000000.0 -431241000000.0 -469381000000.0 -384689000000.0 -214791000000.0 -214205000000.0 -39279100000.0 -96769000000.0 -15389100000.0 -57055900000.0 -40602400000.0 -24792100000.0 -40593200000.0 -26539700000.0 -26554100000.0 -34143300000.0 -32605800000.0 -19514800000.0 -25388500000.0 -14053500000.0 -24462000000.0 -13495700000.0 -23241000000.0 -42392100000.0 -33573900000.0 -52072200000.0 -40603500000.0 -37824500000.0 -31888800000.0 -36181600000.0 -22886300000.0 -55687200000.0 -51332600000.0 -12549700000.0 -17436300000.0 -27613200000.0 -91054400000.0 -163454000000.0 -137475000000.0 -145013000000.0 -344617000000.0 -387721000000.0 -455724000000.0 -331661000000.0 -436645000000.0 -388290000000.0 -1.1985e+12 -984797000000.0 -308960000000.0 -944467000000.0 -688518000000.0 -1.26144e+12 -2.45094e+12 -2.39542e+12 -3.32304e+12 -1.33209e+12 -2.28399e+12 -2.62213e+12 -3.21509e+12 -3.43724e+12 -3.22087e+12 -4.14176e+12 -5.08688e+12 -5.24171e+12 -4.77682e+12 -3.95665e+12 -5.79959e+12 -4.80223e+12 -5.8845e+12 -3.07849e+12 -1.87093e+12 -2.33555e+12 -4.3704e+12 -4.01585e+12 -4.68097e+12 -5.20987e+12 -4.14766e+12 -2.87346e+12 -3.90499e+12 -2.73805e+12 -3.49123e+12 -3.9791e+12 -3.21312e+12 -4.04402e+12 -1.57651e+12 -609229000000.0 -3.85845e+12 -2.31656e+12 -1.43444e+12 -1.62655e+12 -2.18595e+12 -352001000000.0 -1.49379e+12 -1.42665e+12 -1.39888e+12 -938942000000.0 -444032000000.0 -285193000000.0 -495043000000.0 -255477000000.0 -96807000000.0 -94709600000.0 -157030000000.0 -48604200000.0 -210837000000.0 -111078000000.0 -87245300000.0 -101480000000.0 -39791400000.0 -67173100000.0 -33616700000.0 -33813200000.0 -24136600000.0 -15180400000.0 -23748200000.0 -18649600000.0 -21415700000.0 -19602900000.0 -16136200000.0 -24540200000.0 -17854400000.0 -15932200000.0 -16716700000.0 -19886400000.0 -24670200000.0 -38018900000.0 -48267100000.0 -37070800000.0 -53464100000.0 -23659100000.0 -15975200000.0 -15362300000.0 -44017600000.0 -18416900000.0 -15011400000.0 -44190500000.0 -42580400000.0 -152934000000.0 -135313000000.0 -14618600000.0 -89478700000.0 -388309000000.0 -16012400000.0 -155618000000.0 -88388500000.0 -42503800000.0 -383653000000.0 -340368000000.0 -572303000000.0 -446187000000.0 -621002000000.0 -279952000000.0 -1.37253e+12 -2.2189e+12 -1.8562e+12 -1.38854e+12 -2.15695e+12 -1.96282e+12 -4.08183e+12 -2.15575e+12 -3.62785e+12 -2.84297e+12 -2.92895e+12 -6.3107e+12 -3.704e+12 -4.77395e+12 -2.00957e+12 -2.76349e+12 -7.5265e+12 -4.28073e+12 -8.05063e+12 -3.64687e+12 -4.25843e+12 -1.56623e+12 -4.28709e+12 -2.44922e+12 -4.88332e+12 -3.55295e+12 -5.24362e+12 -3.00273e+12 -3.03955e+12 -2.45166e+12 -2.57663e+12 -3.03257e+12 -2.97486e+12 -5.25448e+12 -4.76349e+12 -2.61971e+12 -4.51501e+12 -2.27284e+12 -1.26608e+12 -525288000000.0 -1.3848e+12 -1.43765e+12 -810419000000.0 -955571000000.0 -1.09726e+12 -699842000000.0 -273312000000.0 -296423000000.0 -344571000000.0 -297671000000.0 -200413000000.0 -206719000000.0 -244955000000.0 -80728300000.0 -157921000000.0 -108365000000.0 -42306900000.0 -133760000000.0 -62491500000.0 -51220800000.0 -21704300000.0 -62707400000.0 -54051200000.0 -45223700000.0 -40053300000.0 -38748900000.0 -38455600000.0 -40690400000.0 -41384600000.0 -30726500000.0 -35870200000.0 -51321400000.0 -12576800000.0 -34867500000.0 -29988200000.0 -47181400000.0 -52476900000.0 -42426600000.0 -35746800000.0 -12861200000.0 -30595800000.0 -70997200000.0 -62344800000.0 -50454800000.0 -60371100000.0 -87520700000.0 -71923300000.0 -94827800000.0 -74695000000.0 -19349700000.0 -15963900000.0 -84401600000.0 -201688000000.0 -348932000000.0 -214421000000.0 -34663600000.0 -356222000000.0 -593666000000.0 -597576000000.0 -534668000000.0 -964472000000.0 -979896000000.0 -1.19102e+12 -789961000000.0 -536793000000.0 -1.19777e+12 -2.07028e+12 -1.40989e+12 -3.51784e+12 -2.28325e+12 -3.7089e+12 -2.72177e+12 -4.40867e+12 -1.61635e+12 -2.93719e+12 -3.00891e+12 -2.935e+12 -2.01258e+12 -4.74358e+12 -3.97195e+12 -4.56669e+12 -4.59319e+12 -5.34237e+12 -3.69664e+12 -3.31581e+12 -4.32459e+12 -2.86041e+12 -3.42276e+12 -3.27691e+12 -2.80272e+12 -990205000000.0 -2.30404e+12 -2.79923e+12 -4.74851e+12 -4.59438e+12 -6.63158e+12 -3.35094e+12 -4.89014e+12 -2.60472e+12 -4.36262e+12 -3.74004e+12 -4.15065e+12 -1.47838e+12 -3.59097e+12 -2.45555e+12 -4.06199e+12 -2.27328e+12 -3.26984e+12 -1.49352e+12 -2.51559e+12 -3.21028e+12 -2.96478e+12 -1.81901e+12 -2.12908e+12 -1.64054e+12 -2.14815e+12 -1.0179e+12 -703872000000.0 -626592000000.0 -1.05126e+12 -172720000000.0 -417825000000.0 -306366000000.0 -122102000000.0 -298605000000.0 -178978000000.0 -46045100000.0 -122868000000.0 -156395000000.0 -21822800000.0 -147345000000.0 -122841000000.0 -13882100000.0 -102389000000.0 -20571500000.0 -62340400000.0 -37742800000.0 -16975200000.0 -14002700000.0 -26302500000.0 -14317600000.0 -32982100000.0 -12549700000.0 -12866700000.0 -13911700000.0 -26790300000.0 -24982800000.0 -30790600000.0 -47931900000.0 -12859800000.0 -26126400000.0 -16041200000.0 -22993600000.0 -49150500000.0 -33305800000.0 -30616700000.0 -67013600000.0 -32197700000.0 -22781000000.0 -43752900000.0 -41060000000.0 -71697500000.0 -61062600000.0 -109342000000.0 -124383000000.0 -187621000000.0 -181287000000.0 -203029000000.0 -382691000000.0 -510690000000.0 -783455000000.0 -686057000000.0 -693995000000.0 -657569000000.0 -518623000000.0 -938038000000.0 -1.08085e+12 -1.23146e+12 -970578000000.0 -529183000000.0 -807636000000.0 -2.50084e+12 -1.51679e+12 -2.53798e+12 -1.77328e+12 -3.41175e+12 -3.3861e+12 -3.44715e+12 -4.12231e+12 -1.63003e+12 -4.62911e+12 -1.70314e+12 -3.40038e+12 -3.59204e+12 -3.21992e+12 -4.33537e+12 -3.11511e+12 -3.02107e+12 -5.18221e+12 -3.01756e+12 -5.23998e+12 -2.1522e+12 -2.86601e+12 -1.98613e+12 -1.60695e+12 -5.8108e+12 -6.03511e+12 -4.87244e+12 -3.09461e+12 -2.9075e+12 -3.53466e+12 -5.1084e+12 -1.29256e+12 -1.15037e+12 -4.56565e+12 -2.69321e+12 -3.47313e+12 -1.72573e+12 -2.2809e+12 -1.63774e+12 -1.26086e+12 -1.8789e+12 -1.93595e+12 -690146000000.0 -652453000000.0 -1.30221e+12 -1.41697e+12 -572144000000.0 -715018000000.0 -967920000000.0 -985180000000.0 -248869000000.0 -629306000000.0 -605913000000.0 -303169000000.0 -307826000000.0 -158378000000.0 -145552000000.0 -130166000000.0 -14844700000.0 -16166800000.0 -114743000000.0 -91423000000.0 -30841400000.0 -98819800000.0 -76043000000.0 -95769000000.0 -64239900000.0 -24613000000.0 -19561400000.0 -36806100000.0 -33339600000.0 -46280800000.0 -19694600000.0 -18520100000.0 -21251800000.0 -24841200000.0 -25653100000.0 -20185300000.0 -20065600000.0 -54684600000.0 -43624600000.0 -33641200000.0 -41566400000.0 -15176800000.0 -63352200000.0 -41294100000.0 -43875500000.0 -49938800000.0 -34529600000.0 -13301500000.0 -27279500000.0 -29884200000.0 -19798400000.0 -75435000000.0 -153345000000.0 -159940000000.0 -71199900000.0 -50696700000.0 -164795000000.0 -254996000000.0 -156974000000.0 -413544000000.0 -350458000000.0 -473449000000.0 -313979000000.0 -761834000000.0 -481899000000.0 -340356000000.0 -593459000000.0 -688762000000.0 -1.14273e+12 -983632000000.0 -2.33761e+12 -2.85377e+12 -2.24601e+12 -4.14083e+12 -3.0074e+12 -2.39096e+12 -3.7656e+12 -2.53345e+12 -1.47779e+12 -2.8577e+12 -1.61173e+12 -3.67019e+12 -2.65092e+12 -4.13411e+12 -2.54358e+12 -2.98648e+12 -1.94256e+12 -2.85338e+12 -2.57982e+12 -3.16442e+12 -2.66974e+12 -2.67433e+12 -2.51413e+12 -3.97428e+12 -2.92035e+12 -2.16495e+12 -1.64675e+12 -3.44876e+12 -2.58622e+12 -2.75576e+12 -1.99251e+12 -2.73549e+12 -4.0648e+12 -2.66355e+12 -959313000000.0 -3.62142e+12 -2.43967e+12 -3.22259e+12 -1.9084e+12 -2.89529e+12 -2.87025e+12 -1.47652e+12 -1.7686e+12 -678003000000.0 -1.84296e+12 -1.05463e+12 -1.20227e+12 -1.75631e+12 -1.92387e+12 -1.34399e+12 -748922000000.0 -890760000000.0 -567542000000.0 -956275000000.0 -344679000000.0 -254377000000.0 -227380000000.0 -108727000000.0 -138423000000.0 -15632100000.0 -147129000000.0 -120114000000.0 -160583000000.0 -148449000000.0 -31285700000.0 -48875200000.0 -44548800000.0 -70522400000.0 -68712300000.0 -38265800000.0 -54940800000.0 -23293300000.0 -15220400000.0 -40512400000.0 -12549700000.0 -12977900000.0 -17953500000.0 -18911500000.0 -25834200000.0 -20363200000.0 -46434200000.0 -12549700000.0 -45517300000.0 -26603600000.0 -41150200000.0 -73239600000.0 -20809800000.0 -33767900000.0 -52812200000.0 -49901900000.0 -73323600000.0 -40537900000.0 -43857200000.0 -64997800000.0 -24016600000.0 -73427900000.0 -15072000000.0 -250431000000.0 -280882000000.0 -247964000000.0 -333282000000.0 -476669000000.0 -642851000000.0 -395220000000.0 -464226000000.0 -582587000000.0 -852584000000.0 -1.17958e+12 -338778000000.0 -1.4788e+12 -1.39852e+12 -2.04243e+12 -2.07666e+12 -1.75681e+12 -2.72637e+12 -2.69859e+12 -1.14097e+12 -3.42994e+12 -2.42169e+12 -1.88878e+12 -1.44463e+12 -1.82892e+12 -3.09892e+12 -3.26447e+12 -2.4257e+12 -3.42774e+12 -2.86765e+12 -3.57299e+12 -3.61833e+12 -1.26949e+12 -2.66654e+12 -2.58243e+12 -1.28338e+12 -2.7505e+12 -3.16385e+12 -1.87149e+12 -1.93074e+12 -1.93384e+12 -2.36518e+12 -3.45281e+12 -3.21349e+12 -2.41492e+12 -2.12907e+12 -1.68149e+12 -2.07479e+12 -2.51365e+12 -1.44993e+12 -633102000000.0 -950547000000.0 -1.44581e+12 -1.24985e+12 -1.40852e+12 -735687000000.0 -1.17282e+12 -1.07851e+12 -878164000000.0 -319009000000.0 -757131000000.0 -697580000000.0 -345381000000.0 -366634000000.0 -195316000000.0 -331442000000.0 -152611000000.0 -153705000000.0 -99959900000.0 -123819000000.0 -108123000000.0 -92687100000.0 -78289600000.0 -98166200000.0 -108779000000.0 -45898900000.0 -26313700000.0 -34801100000.0 -30803800000.0 -26941900000.0 -31537400000.0 -41986500000.0 -33512200000.0 -32367500000.0 -48850800000.0 -25066400000.0 -33947400000.0 -44824900000.0 -12549700000.0 -12549700000.0 -73155600000.0 -59522300000.0 -90147600000.0 -35157700000.0 -54491700000.0 -38910400000.0 -28823500000.0 -75945900000.0 -106423000000.0 -97766300000.0 -87674100000.0 -112135000000.0 -268376000000.0 -53465900000.0 -101930000000.0 -227960000000.0 -258442000000.0 -87392000000.0 -262266000000.0 -245175000000.0 -229632000000.0 -329401000000.0 -524352000000.0 -1.0501e+12 -683938000000.0 -1.53915e+12 -1.69529e+12 -962487000000.0 -1.47685e+12 -1.0331e+12 -1.37844e+12 -533893000000.0 -957036000000.0 -2.65432e+12 -1.65199e+12 -1.73917e+12 -1.92532e+12 -2.82629e+12 -3.19298e+12 -3.05993e+12 -2.19029e+12 -2.90117e+12 -3.48083e+12 -2.91703e+12 -1.97546e+12 -1.65228e+12 -1.46524e+12 -2.45697e+12 -1.03631e+12 -3.8327e+12 -1.10076e+12 -2.43843e+12 -1.79993e+12 -1.64808e+12 -3.04494e+12 -3.06106e+12 -1.15085e+12 -2.43681e+12 -1.35814e+12 -2.28259e+12 -4.3942e+12 -3.89041e+12 -3.47338e+12 -1.88042e+12 -1.07746e+12 -3.2409e+12 -2.66489e+12 -1.67526e+12 -1.85119e+12 -1.28003e+12 -820854000000.0 -902406000000.0 -1.10685e+12 -1.69632e+12 -2.21663e+12 -212593000000.0 -1.53819e+12 -560382000000.0 -2.02042e+12 -963484000000.0 -622845000000.0 -204063000000.0 -102348000000.0 -465857000000.0 -422736000000.0 -578892000000.0 -391176000000.0 -182958000000.0 -138775000000.0 -387783000000.0 -161207000000.0 -181450000000.0 -64744300000.0 -72570500000.0 -138309000000.0 -44782900000.0 -66193300000.0 -16553200000.0 -83426000000.0 -27280600000.0 -13953400000.0 -16632400000.0 -27988200000.0 -19780000000.0 -48976500000.0 -12731000000.0 -17828500000.0 -13055100000.0 -37770800000.0 -15018500000.0 -27148300000.0 -13795600000.0 -49096900000.0 -57724300000.0 -24907800000.0 -31460000000.0 -42963200000.0 -89851500000.0 -79570900000.0 -37884100000.0 -36157300000.0 -34475100000.0 -17381700000.0 -18532400000.0 -24372000000.0 -54349800000.0 -138122000000.0 -155672000000.0 -60667100000.0 -92167100000.0 -380016000000.0 -228323000000.0 -207338000000.0 -382501000000.0 -517755000000.0 -402673000000.0 -319283000000.0 -414832000000.0 -754821000000.0 -719281000000.0 -611025000000.0 -652371000000.0 -1.27446e+12 -1.38192e+12 -1.31012e+12 -710272000000.0 -647077000000.0 -266724000000.0 -2.28947e+12 -446318000000.0 -895147000000.0 -877142000000.0 -1.44528e+12 -2.19466e+12 -2.38592e+12 -1.74663e+12 -2.50154e+12 -1.54664e+12 -2.6206e+12 -1.53441e+12 -1.25741e+12 -1.52691e+12 -2.58056e+12 -2.02305e+12 -1.75978e+12 -1.54935e+12 -1.07279e+12 -1.99927e+12 -698413000000.0 -1.49551e+12 -1.35148e+12 -2.44495e+12 -2.45465e+12 -2.06866e+12 -962979000000.0 -1.42806e+12 -407115000000.0 -1.30031e+12 -1.097e+12 -652727000000.0 -1.65512e+12 -1.27807e+12 -959165000000.0 -211506000000.0 -611070000000.0 -1.35815e+12 -1.29159e+12 -497819000000.0 -1.25828e+12 -502195000000.0 -272843000000.0 -100928000000.0 -1.01299e+12 -267687000000.0 -236090000000.0 -404148000000.0 -333470000000.0 -105638000000.0 -173341000000.0 -163561000000.0 -25109300000.0 -48113500000.0 -14732200000.0 -264756000000.0 -135575000000.0 -188915000000.0 -232815000000.0 -189511000000.0 -105041000000.0 -18890400000.0 -14901900000.0 -70588600000.0 -34296000000.0 -42306300000.0 -29746400000.0 -15047300000.0 -16496100000.0 -46199100000.0 -14950200000.0 -17900200000.0 -12735100000.0 -43773600000.0 -44351400000.0 -49914200000.0 -34036100000.0 -46760800000.0 -63631000000.0 -28324700000.0 -34208400000.0 -22569500000.0 -111238000000.0 -62141000000.0 -16085600000.0 -14582700000.0 -33183100000.0 -18881600000.0 -22791200000.0 -37059400000.0 -31310900000.0 -79724300000.0 -59090100000.0 -166058000000.0 -113682000000.0 -299494000000.0 -57880200000.0 -45432900000.0 -139176000000.0 -368940000000.0 -64297100000.0 -100505000000.0 -315558000000.0 -178007000000.0 -455536000000.0 -590613000000.0 -272977000000.0 -463921000000.0 -256955000000.0 -957826000000.0 -1.03621e+12 -1.44087e+12 -2.17254e+12 -1.62151e+12 -1.94786e+12 -2.01496e+12 -1.53622e+12 -2.93986e+12 -1.46171e+12 -1.98206e+12 -1.33377e+12 -1.28447e+12 -2.16852e+12 -1.95881e+12 -1.8629e+12 -1.26781e+12 -2.48548e+12 -1.16009e+12 -1.34663e+12 -741604000000.0 -1.80851e+12 -150342000000.0 -1.51008e+12 -1.49916e+12 -1.25319e+12 -569691000000.0 -1.34331e+12 -717815000000.0 -524520000000.0 -256939000000.0 -519619000000.0 -896713000000.0 -1.07073e+12 -409915000000.0 -478833000000.0 -546695000000.0 -213321000000.0 -242352000000.0 -455742000000.0 -101509000000.0 -177450000000.0 -155049000000.0 -33782000000.0 -44968900000.0 -16157400000.0 -158751000000.0 -90809700000.0 -33675700000.0 -34541400000.0 -150634000000.0 -63176600000.0 -77180000000.0 -65536200000.0 -71700400000.0 -22093500000.0 -22859200000.0 -33139100000.0 -12865700000.0 -20137400000.0 -57625400000.0 -27232800000.0 -32427800000.0 -43157400000.0 -12724700000.0 -34971200000.0 -31894300000.0 -15356300000.0 -69672100000.0 -30434200000.0 -50992500000.0 -26756800000.0 -27464500000.0 -54205200000.0 -116169000000.0 -23779800000.0 -23781700000.0 -57888000000.0 -40468700000.0 -18786300000.0 -64649400000.0 -19387800000.0 -149835000000.0 -188471000000.0 -12549700000.0 -31662100000.0 -171635000000.0 -105270000000.0 -107286000000.0 -69767900000.0 -448923000000.0 -186562000000.0 -263610000000.0 -135399000000.0 -149813000000.0 -723700000000.0 -307597000000.0 -672075000000.0 -309401000000.0 -1.14736e+12 -414125000000.0 -1.37838e+12 -1.48153e+12 -2.17279e+12 -1.56358e+12 -1.24109e+12 -711070000000.0 -1.99561e+12 -848960000000.0 -1.78485e+12 -571752000000.0 -1.88664e+12 -1.56099e+12 -2.43137e+12 -2.09631e+12 -1.32825e+12 -1.34462e+12 -1.57296e+12 -1.03342e+12 -1.96453e+12 -1.37412e+12 -576751000000.0 -1.54258e+12 -1.0515e+12 -701480000000.0 -989982000000.0 -1.03085e+12 -1.10249e+12 -823689000000.0 -2.95883e+12 -1.39226e+12 -1.26288e+12 -137678000000.0 -742824000000.0 -1.77011e+12 -667949000000.0 -326650000000.0 -711184000000.0 -589454000000.0 -306154000000.0 -1.101e+12 -101153000000.0 -346630000000.0 -207384000000.0 -186286000000.0 -88866700000.0 -239026000000.0 -242277000000.0 -253070000000.0 -251805000000.0 -235292000000.0 -210670000000.0 -209247000000.0 -67722900000.0 -32209600000.0 -50243100000.0 -34240100000.0 -114229000000.0 -77007900000.0 -94538800000.0 -15939000000.0 -60293400000.0 -33093500000.0 -38784100000.0 -13160500000.0 -29609800000.0 -45803900000.0 -75512900000.0 -13099700000.0 -31772900000.0 -39944300000.0 -35321000000.0 -31875800000.0 -44291000000.0 -32595300000.0 -93485800000.0 -42811200000.0 -63831700000.0 -54760000000.0 -60822700000.0 -65137600000.0 -105537000000.0 -37712900000.0 -47469400000.0 -64078800000.0 -38685600000.0 -155310000000.0 -88262200000.0 -112627000000.0 -86167000000.0 -150015000000.0 -98631100000.0 -65006400000.0 -102123000000.0 -263713000000.0 -211704000000.0 -88545300000.0 -106852000000.0 -549934000000.0 -533801000000.0 -12549700000.0 -293949000000.0 -32611400000.0 -220685000000.0 -716589000000.0 -590058000000.0 -283573000000.0 -518305000000.0 -1.54335e+12 -449721000000.0 -568973000000.0 -648504000000.0 -148790000000.0 -1.30964e+12 -1.03686e+12 -542085000000.0 -1.66275e+12 -1.29096e+12 -598836000000.0 -1.61537e+12 -1.23615e+12 -1.80784e+12 -2.01619e+12 -1.63687e+12 -2.61668e+12 -1.66181e+12 -813787000000.0 -1.95925e+12 -779638000000.0 -463780000000.0 -981048000000.0 -884771000000.0 -114832000000.0 -618904000000.0 -322967000000.0 -325943000000.0 -553677000000.0 -1.63384e+12 -896554000000.0 -1.19902e+12 -293458000000.0 -1.2535e+12 -473419000000.0 -103316000000.0 -406436000000.0 -156724000000.0 -348662000000.0 -729485000000.0 -578140000000.0 -250422000000.0 -340680000000.0 -247327000000.0 -124520000000.0 -16194000000.0 -111128000000.0 -45694200000.0 -14074700000.0 -22059000000.0 -178623000000.0 -15551200000.0 -125774000000.0 -84390300000.0 -79491000000.0 -156710000000.0 -12715500000.0 -77195000000.0 -51801900000.0 -47978200000.0 -17339400000.0 -12676300000.0 -33889800000.0 -45106200000.0 -12549700000.0 -52298800000.0 -42940500000.0 -12659400000.0 -26137900000.0 -16480200000.0 -30190500000.0 -12555900000.0 -33178700000.0 -45106400000.0 -21821700000.0 -138001000000.0 -13321700000.0 -64504400000.0 -29784500000.0 -64653800000.0 -170228000000.0 -92758300000.0 -61812700000.0 -71721100000.0 -72084600000.0 -121056000000.0 -21676300000.0 -98038200000.0 -45118400000.0 -44743000000.0 -34728200000.0 -235184000000.0 -93641300000.0 -165992000000.0 -141804000000.0 -112743000000.0 -197798000000.0 -410557000000.0 -159368000000.0 -12549700000.0 -14729700000.0 -25062600000.0 -52767200000.0 -488662000000.0 -201270000000.0 -656547000000.0 -1.01963e+12 -721444000000.0 -643287000000.0 -449823000000.0 -375363000000.0 -922083000000.0 -484553000000.0 -449820000000.0 -1.12162e+12 -465140000000.0 -1.31816e+12 -1.58008e+12 -642178000000.0 -1.62578e+12 -1.67677e+12 -868584000000.0 -1.27083e+12 -770111000000.0 -1.0579e+12 -843048000000.0 -584550000000.0 -352181000000.0 -92429300000.0 -334469000000.0 -977165000000.0 -286514000000.0 -791417000000.0 -817595000000.0 -470657000000.0 -862190000000.0 -446710000000.0 -864160000000.0 -420377000000.0 -512303000000.0 -318842000000.0 -169240000000.0 -662427000000.0 -402696000000.0 -149837000000.0 -83063700000.0 -51905900000.0 -91777200000.0 -135429000000.0 -40689800000.0 -41284900000.0 -22217200000.0 -12549700000.0 -13463100000.0 -107238000000.0 -71339500000.0 -22279000000.0 -16057000000.0 -118360000000.0 -58728700000.0 -107842000000.0 -85338400000.0 -44865300000.0 -37240400000.0 -44976700000.0 -57831900000.0 -38877700000.0 -47372900000.0 -23339100000.0 -60198900000.0 -12562200000.0 -40665600000.0 -27477400000.0 -43692100000.0 -30604200000.0 -69527500000.0 -81275800000.0 -77705300000.0 -82959500000.0 -84650300000.0 -12992700000.0 -88785800000.0 -103396000000.0 -62339500000.0 -72929700000.0 -107570000000.0 -149277000000.0 -66015500000.0 -55517600000.0 -60700300000.0 -37516100000.0 -136993000000.0 -84546200000.0 -38338000000.0 -108501000000.0 -91719900000.0 -108804000000.0 -115371000000.0 -323027000000.0 -51664800000.0 -258195000000.0 -123816000000.0 -138509000000.0 -405946000000.0 -179656000000.0 -88573300000.0 -376316000000.0 -639867000000.0 -424215000000.0 -637186000000.0 -107947000000.0 -826063000000.0 -512111000000.0 -913857000000.0 -387045000000.0 -1.0458e+12 -496821000000.0 -1.15695e+12 -382807000000.0 -893837000000.0 -1.21252e+12 -1.18095e+12 -1.42634e+12 -505026000000.0 -676702000000.0 -419119000000.0 -810660000000.0 -218753000000.0 -592634000000.0 -122920000000.0 -452458000000.0 -644621000000.0 -193525000000.0 -263357000000.0 -281456000000.0 -896295000000.0 -85807200000.0 -380729000000.0 -331638000000.0 -197063000000.0 -82168100000.0 -57090200000.0 -500685000000.0 -412035000000.0 -22690700000.0 -277118000000.0 -64678800000.0 -169040000000.0 -482017000000.0 -241093000000.0 -68444000000.0 -21664000000.0 -37592600000.0 -35641300000.0 -13750500000.0 -83239500000.0 -13416200000.0 -32014800000.0 -26838300000.0 -43563200000.0 -72225400000.0 -84771800000.0 -68802000000.0 -65752500000.0 -134503000000.0 -37369700000.0 -12549700000.0 -39587000000.0 -109849000000.0 -77851800000.0 -56434600000.0 -72502300000.0 -59106800000.0 -13301700000.0 -23040500000.0 -34392600000.0 -79219600000.0 -57740900000.0 -20137500000.0 -13303000000.0 -97896800000.0 -16034200000.0 -57394500000.0 -63650700000.0 -58399200000.0 -81393900000.0 -74891600000.0 -102084000000.0 -72811700000.0 -83515700000.0 -51382200000.0 -60056400000.0 -14852200000.0 -114590000000.0 -38149700000.0 -15890300000.0 -102776000000.0 -139326000000.0 -37203200000.0 -56577700000.0 -12549700000.0 -121708000000.0 -128064000000.0 -163782000000.0 -70991400000.0 -226921000000.0 -103806000000.0 -168975000000.0 -235796000000.0 -47078100000.0 -117673000000.0 -280307000000.0 -113707000000.0 -291868000000.0 -468680000000.0 -358198000000.0 -170088000000.0 -132985000000.0 -517526000000.0 -681240000000.0 -598567000000.0 -251180000000.0 -755556000000.0 -479333000000.0 -509181000000.0 -431037000000.0 -383907000000.0 -774167000000.0 -371484000000.0 -943268000000.0 -944750000000.0 -745689000000.0 -66705300000.0 -242175000000.0 -448999000000.0 -763975000000.0 -563998000000.0 -737786000000.0 -352973000000.0 -701610000000.0 -290953000000.0 -240464000000.0 -176523000000.0 -320228000000.0 -120902000000.0 -258834000000.0 -302645000000.0 -287599000000.0 -518307000000.0 -368848000000.0 -216846000000.0 -12549700000.0 -15659900000.0 -18282500000.0 -42471800000.0 -16241900000.0 -70591400000.0 -29811800000.0 -18564900000.0 -31986600000.0 -40459300000.0 -18959200000.0 -89485300000.0 -67281500000.0 -23907600000.0 -30555600000.0 -69065600000.0 -102098000000.0 -41594600000.0 -71238600000.0 -99657000000.0 -12751700000.0 -35880500000.0 -51213700000.0 -42444600000.0 -68696200000.0 -48289200000.0 -57940700000.0 -39037800000.0 -76071900000.0 -50754600000.0 -101067000000.0 -15904700000.0 -26980100000.0 -35896000000.0 -124424000000.0 -168863000000.0 -44563100000.0 -44163200000.0 -114395000000.0 -39730700000.0 -148231000000.0 -63761500000.0 -47045800000.0 -23716000000.0 -62534500000.0 -69988600000.0 -38322200000.0 -80728500000.0 -98402200000.0 -25447300000.0 -18491400000.0 -61750500000.0 -94522700000.0 -75418700000.0 -156833000000.0 -149316000000.0 -22773400000.0 -160227000000.0 -258376000000.0 -179942000000.0 -154115000000.0 -22077900000.0 -318238000000.0 -53359400000.0 -230484000000.0 -235200000000.0 -110079000000.0 -616177000000.0 -135247000000.0 -480400000000.0 -462612000000.0 -524863000000.0 -412563000000.0 -582177000000.0 -191560000000.0 -314878000000.0 -1.0142e+12 -679323000000.0 -544832000000.0 -404759000000.0 -754620000000.0 -499670000000.0 -608976000000.0 -205797000000.0 -69324000000.0 -171462000000.0 -489548000000.0 -183632000000.0 -329921000000.0 -151353000000.0 -336586000000.0 -122371000000.0 -293881000000.0 -304339000000.0 -362893000000.0 -182164000000.0 -250676000000.0 -35172700000.0 -167084000000.0 -141673000000.0 -189644000000.0 -230380000000.0 -153432000000.0 -151416000000.0 -101836000000.0 -107076000000.0 -109551000000.0 -26482800000.0 -17190700000.0 -61495200000.0 -16007800000.0 -52112300000.0 -128430000000.0 -61289700000.0 -81414000000.0 -26570800000.0 -88200300000.0 -64813900000.0 -50875600000.0 -63511400000.0 -77346300000.0 -76281400000.0 -37439000000.0 -53825000000.0 -56868200000.0 -41703100000.0 -29636900000.0 -32824400000.0 -75939100000.0 -12549700000.0 -59733100000.0 -56124400000.0 -12549700000.0 -111587000000.0 -19583700000.0 -103608000000.0 -21966500000.0 -14078800000.0 -96227500000.0 -13798300000.0 -129743000000.0 -66269700000.0 -75790800000.0 -58523900000.0 -56114200000.0 -44705000000.0 -85575200000.0 -115031000000.0 -120191000000.0 -34559900000.0 -32482300000.0 -68627400000.0 -86327800000.0 -138961000000.0 -193875000000.0 -136026000000.0 -139834000000.0 -19052900000.0 -103201000000.0 -208713000000.0 -38355500000.0 -102985000000.0 -207013000000.0 -107227000000.0 -177973000000.0 -156002000000.0 -385691000000.0 -665157000000.0 -366013000000.0 -565677000000.0 -425429000000.0 -288621000000.0 -131238000000.0 -250962000000.0 -458580000000.0 -814061000000.0 -818214000000.0 -34941000000.0 -898181000000.0 -765414000000.0 -157252000000.0 -715887000000.0 -208017000000.0 -171870000000.0 -463462000000.0 -12549700000.0 -66434400000.0 -168364000000.0 -103139000000.0 -180052000000.0 -20331600000.0 -29914700000.0 -99875800000.0 -206889000000.0 -18546400000.0 -222137000000.0 -200650000000.0 -86388300000.0 -54554000000.0 -151883000000.0 -97044100000.0 -12549700000.0 -12549700000.0 -76825800000.0 -12549700000.0 -99164700000.0 -12549700000.0 -103193000000.0 -44937000000.0 -127163000000.0 -95842300000.0 -128783000000.0 -59299300000.0 -62048900000.0 -60385400000.0 -27489500000.0 -92224900000.0 -62224000000.0 -38765300000.0 -86505900000.0 -12549700000.0 -64881600000.0 -25636700000.0 -60875000000.0 -38833900000.0 -17575800000.0 -59420500000.0 -70191600000.0 -24273800000.0 -32205500000.0 -83881700000.0 -66978800000.0 -33782000000.0 -65048500000.0 -121283000000.0 -22072500000.0 -21923900000.0 -124071000000.0 -16954500000.0 -18794700000.0 -137520000000.0 -68284500000.0 -115054000000.0 -87378500000.0 -28175500000.0 -12549700000.0 -50919500000.0 -45332600000.0 -12549700000.0 -78719700000.0 -81453900000.0 -58871500000.0 -50397400000.0 -111834000000.0 -141734000000.0 -199834000000.0 -215292000000.0 -48168400000.0 -160124000000.0 -231907000000.0 -118525000000.0 -12549700000.0 -160789000000.0 -91812800000.0 -67745800000.0 -201616000000.0 -220086000000.0 -256836000000.0 -328119000000.0 -645334000000.0 -55706200000.0 -262696000000.0 -366845000000.0 -327838000000.0 -215537000000.0 -390661000000.0 -378348000000.0 -613535000000.0 -543145000000.0 -445269000000.0 -503747000000.0 -529708000000.0 -409391000000.0 -782899000000.0 -101595000000.0 -80125500000.0 -292152000000.0 -22712600000.0 -31369300000.0 -114625000000.0 -129515000000.0 -187983000000.0 -62679500000.0 -63063600000.0 -82279500000.0 -100873000000.0 -110543000000.0 -177113000000.0 -36931200000.0 -70849300000.0 -80337800000.0 -117208000000.0 -141304000000.0 -12549700000.0 -15187300000.0 -25008400000.0 -82661600000.0 -56323600000.0 -81020400000.0 -56584300000.0 -136218000000.0 -12790600000.0 -14191800000.0 -49600200000.0 -113275000000.0 -72865700000.0 -56112600000.0 -86527600000.0 -131682000000.0 -42083500000.0 -46049600000.0 -72468900000.0 -73501500000.0 -56266600000.0 -154405000000.0 -110153000000.0 -78396900000.0 -74603500000.0 -76817600000.0 -71280800000.0 -86960400000.0 -89001700000.0 -85300400000.0 -109120000000.0 -127941000000.0 -15399300000.0 -53915200000.0 -57028300000.0 -79279700000.0 -99935300000.0 -34474200000.0 -34532200000.0 -138436000000.0 -56785000000.0 -57008600000.0 -89338900000.0 -82160300000.0 -80137600000.0 -76657200000.0 -77591100000.0 -100494000000.0 -140853000000.0 -135988000000.0 -12549700000.0 -82178800000.0 -179040000000.0 -146259000000.0 -228282000000.0 -176773000000.0 -136900000000.0 -174630000000.0 -156081000000.0 -237020000000.0 -123237000000.0 -137611000000.0 -134915000000.0 -316991000000.0 -417743000000.0 -51626100000.0 -115628000000.0 -211806000000.0 -38139600000.0 -321313000000.0 -400869000000.0 -476419000000.0 -448646000000.0 -728943000000.0 -239848000000.0 -337070000000.0 -288288000000.0 -413569000000.0 -82180300000.0 -15482700000.0 -177778000000.0 -19500300000.0 -78088000000.0 -32580300000.0 -114323000000.0 -128902000000.0 -12549700000.0 -12549700000.0 -12549700000.0 -83641100000.0 -40115800000.0 -107417000000.0 -52904800000.0 -12549700000.0 -35328600000.0 -40693600000.0 -90107000000.0 -114904000000.0 -36153700000.0 -37646900000.0 -30268300000.0 -51525300000.0 -30465100000.0 -29184900000.0 -43444000000.0 -37555100000.0 -94773400000.0 -120866000000.0 -154194000000.0 -142860000000.0 -143986000000.0 -107404000000.0 -20810400000.0 -96883800000.0 -42397700000.0 -12940000000.0 -76667600000.0 -47382000000.0 -64748000000.0 -141262000000.0 -53705500000.0 -74730400000.0 -103621000000.0 -68139300000.0 -81823100000.0 -12549700000.0 -111017000000.0 -69840700000.0 -78749800000.0 -65832500000.0 -14105400000.0 -69486900000.0 -95515000000.0 -23025000000.0 -32891400000.0 -68194500000.0 -144506000000.0 -82602900000.0 -53540900000.0 -81824100000.0 -109151000000.0 -13651900000.0 -107739000000.0 -140081000000.0 -142164000000.0 -73012800000.0 -66483900000.0 -98033900000.0 -68322400000.0 -110682000000.0 -80350300000.0 -57265600000.0 -129157000000.0 -56964600000.0 -92521300000.0 -44740700000.0 -267657000000.0 -91576600000.0 -162627000000.0 -170930000000.0 -169132000000.0 -148024000000.0 -48936600000.0 -97882900000.0 -149142000000.0 -232266000000.0 -306112000000.0 -275630000000.0 -113931000000.0 -364621000000.0 -101388000000.0 -149159000000.0 -302653000000.0 -194088000000.0 -489647000000.0 -333955000000.0 -197363000000.0 -199128000000.0 -429194000000.0 -432701000000.0 -532252000000.0 -115967000000.0 -72488600000.0 -58388500000.0 -31326400000.0 -42413500000.0 -99814300000.0 -40007700000.0 -79515800000.0 -20023400000.0 -18895800000.0 -18398100000.0 -41111000000.0 -75168000000.0 -103241000000.0 -30033700000.0 -12549700000.0 -75818900000.0 -69123800000.0 -13674800000.0 -19111800000.0 -13345600000.0 -47490000000.0 -16750600000.0 -29786200000.0 -35205600000.0 -55329600000.0 -70174200000.0 -47956600000.0 -78950700000.0 -38284100000.0 -30579000000.0 -54309400000.0 -156375000000.0 -224679000000.0 -158629000000.0 -39259400000.0 -60766900000.0 -59003900000.0 -12770200000.0 -150089000000.0 -18636600000.0 -21554000000.0 -38885700000.0 -122094000000.0 -74877400000.0 -67718700000.0 -67672200000.0 -83404400000.0 -88113900000.0 -89054600000.0 -41718400000.0 -36555600000.0 -67905300000.0 -126699000000.0 -100219000000.0 -66002100000.0 -69752300000.0 -56528800000.0 -75809400000.0 -28406500000.0 -25482900000.0 -41520800000.0 -13968000000.0 -76770800000.0 -19646100000.0 -32384700000.0 -72886300000.0 -70469700000.0 -57635800000.0 -104276000000.0 -41219400000.0 -66373800000.0 -118860000000.0 -134147000000.0 -53735200000.0 -184843000000.0 -121158000000.0 -110259000000.0 -203539000000.0 -133239000000.0 -104760000000.0 -51579100000.0 -58014900000.0 -159419000000.0 -69193100000.0 -239127000000.0 -143128000000.0 -206648000000.0 -135141000000.0 -142046000000.0 -122060000000.0 -103869000000.0 -447884000000.0 -68688500000.0 -361538000000.0 -119094000000.0 -212404000000.0 -382237000000.0 -59439700000.0 -20281700000.0 -55878300000.0 -26694900000.0 -29932700000.0 -35972500000.0 -65059700000.0 -38832400000.0 -55635000000.0 -26058100000.0 -28864200000.0 -46827200000.0 -30179100000.0 -48687900000.0 -97053000000.0 -20991200000.0 -34696400000.0 -12549700000.0 -59725500000.0 -76640300000.0 -52455800000.0 -31964800000.0 -18178800000.0 -24239100000.0 -30284900000.0 -12549700000.0 -53378000000.0 -52161200000.0 -39292500000.0 -37448300000.0 -35880600000.0 -40686400000.0 -86360400000.0 -116759000000.0 -68474200000.0 -68012700000.0 -28946900000.0 -13543100000.0 -100349000000.0 -67727900000.0 -156088000000.0 -233161000000.0 -167057000000.0 -170448000000.0 -94136900000.0 -61614800000.0 -54983000000.0 -129932000000.0 -35958400000.0 -63023500000.0 -69282000000.0 -85801400000.0 -37828200000.0 -67115500000.0 -78096300000.0 -53466000000.0 -90894000000.0 -87814700000.0 -71134500000.0 -17573400000.0 -55621200000.0 -39115900000.0 -132309000000.0 -93207100000.0 -45877900000.0 -83484700000.0 -92803500000.0 -160178000000.0 -100143000000.0 -112014000000.0 -149175000000.0 -100745000000.0 -97207700000.0 -83068500000.0 -51006100000.0 -80519900000.0 -129000000000.0 -103043000000.0 -38191000000.0 -101325000000.0 -12662000000.0 -68806800000.0 -174516000000.0 -50773000000.0 -51728700000.0 -62044700000.0 -112442000000.0 -108728000000.0 -80459600000.0 -243008000000.0 -145822000000.0 -205976000000.0 -253326000000.0 -249161000000.0 -291124000000.0 -289249000000.0 -246034000000.0 -177599000000.0 -400861000000.0 -167452000000.0 -315289000000.0 -142109000000.0 -47049000000.0 -16460500000.0 -50124900000.0 -31478300000.0 -79775800000.0 -39569400000.0 -22045400000.0 -13424300000.0 -21041600000.0 -17692600000.0 -28447200000.0 -27618600000.0 -24448600000.0 -105930000000.0 -76776200000.0 -84013800000.0 -20020800000.0 -27510300000.0 -21793500000.0 -31174700000.0 -45650400000.0 -54153500000.0 -38259800000.0 -36195400000.0 -12551400000.0 -20990600000.0 -122875000000.0 -31542900000.0 -27414900000.0 -34870500000.0 -35335900000.0 -44216100000.0 -70581600000.0 -61259700000.0 -27924500000.0 -14829600000.0 -107778000000.0 -58634200000.0 -102370000000.0 -108242000000.0 -66560100000.0 -132162000000.0 -81236000000.0 -113350000000.0 -67340000000.0 -118060000000.0 -110259000000.0 -129179000000.0 -73684900000.0 -68494600000.0 -195234000000.0 -117622000000.0 -144468000000.0 -127908000000.0 -43599500000.0 -12549700000.0 -112584000000.0 -15217900000.0 -16859400000.0 -99258800000.0 -33310100000.0 -15571200000.0 -14260500000.0 -84182900000.0 -17547700000.0 -121055000000.0 -38225100000.0 -12549700000.0 -68537500000.0 -14010900000.0 -48404900000.0 -41003600000.0 -83959300000.0 -86178600000.0 -102321000000.0 -65890400000.0 -38056300000.0 -103291000000.0 -12549700000.0 -105745000000.0 -12555600000.0 -93416200000.0 -91534700000.0 -36800500000.0 -140516000000.0 -104784000000.0 -113629000000.0 -123637000000.0 -171251000000.0 -136923000000.0 -94891000000.0 -96519400000.0 -89962200000.0 -123472000000.0 -30779500000.0 -30882500000.0 -176742000000.0 -12549700000.0 -286229000000.0 -180057000000.0 -106080000000.0 -397218000000.0 -139909000000.0 -25547000000.0 -31660400000.0 -38275800000.0 -19735500000.0 -14448000000.0 -63351000000.0 -40157600000.0 -22022300000.0 -20284900000.0 -27665700000.0 -13654600000.0 -12549700000.0 -24909700000.0 -34088800000.0 -59308000000.0 -28874000000.0 -61946800000.0 -95628400000.0 -73278000000.0 -56208100000.0 -32967400000.0 -14060500000.0 -27149300000.0 -68504400000.0 -81266100000.0 -27256000000.0 -30001700000.0 -14095300000.0 -25839500000.0 -19929900000.0 -19128400000.0 -114306000000.0 -43837900000.0 -32162800000.0 -13318800000.0 -27682000000.0 -33303400000.0 -35222800000.0 -78073500000.0 -51793000000.0 -12854000000.0 -37758000000.0 -148357000000.0 -83155300000.0 -145049000000.0 -99884200000.0 -49285200000.0 -82711200000.0 -61286400000.0 -12926200000.0 -88368100000.0 -86208200000.0 -12549700000.0 -108943000000.0 -153710000000.0 -21436300000.0 -67226900000.0 -72487400000.0 -39344900000.0 -84612100000.0 -76671200000.0 -138582000000.0 -15141000000.0 -36529700000.0 -81059800000.0 -34306900000.0 -81580300000.0 -87413500000.0 -93705000000.0 -88546700000.0 -39963800000.0 -98650800000.0 -28878500000.0 -12549700000.0 -63211600000.0 -43383800000.0 -155412000000.0 -120706000000.0 -97451300000.0 -100694000000.0 -126677000000.0 -99655500000.0 -145577000000.0 -65993800000.0 -86665500000.0 -45447700000.0 -35737000000.0 -38153600000.0 -13386500000.0 -84579700000.0 -101200000000.0 -64408200000.0 -16027500000.0 -70300800000.0 -132506000000.0 -66527000000.0 -27222400000.0 -159644000000.0 -12549700000.0 -269631000000.0 -77375000000.0 -86097200000.0 -257586000000.0 -97716200000.0 -33100100000.0 -12549700000.0 -25898700000.0 -24806200000.0 -20186000000.0 -35413200000.0 -44528200000.0 -40954800000.0 -12642300000.0 -13011300000.0 -15325900000.0 -36101100000.0 -30380500000.0 -25980100000.0 -64034800000.0 -21586300000.0 -68142800000.0 -12921100000.0 -14151000000.0 -54585100000.0 -50436800000.0 -47766000000.0 -34416000000.0 -12750100000.0 -61188200000.0 -68525800000.0 -45147200000.0 -48982100000.0 -56944300000.0 -86192700000.0 -31547100000.0 -44679900000.0 -56925900000.0 -32674000000.0 -55478900000.0 -60351100000.0 -62373900000.0 -32174600000.0 -31550800000.0 -105440000000.0 -22395100000.0 -47551000000.0 -137727000000.0 -121889000000.0 -166189000000.0 -119600000000.0 -84306300000.0 -79492300000.0 -43412800000.0 -62161000000.0 -93581500000.0 -96005400000.0 -58259200000.0 -138158000000.0 -108703000000.0 -12560000000.0 -82608700000.0 -34082700000.0 -100861000000.0 -38427300000.0 -22366100000.0 -71335100000.0 -111979000000.0 -38714200000.0 -146478000000.0 -84126100000.0 -17472300000.0 -88043100000.0 -142629000000.0 -133318000000.0 -12580300000.0 -63254700000.0 -58289700000.0 -182783000000.0 -177073000000.0 -72511500000.0 -31328500000.0 -15036500000.0 -39233400000.0 -84593300000.0 -21650700000.0 -82343300000.0 -111861000000.0 -119614000000.0 -46935300000.0 -102158000000.0 -13223400000.0 -120349000000.0 -14843500000.0 -35508300000.0 -131380000000.0 -156825000000.0 -141380000000.0 -112051000000.0 -135825000000.0 -187031000000.0 -63610800000.0 -153522000000.0 -50861700000.0 -71746400000.0 -178712000000.0 -81415700000.0 -134023000000.0 -126567000000.0 -69228200000.0 -92361000000.0 -86610900000.0 -234618000000.0 -218837000000.0 -30453700000.0 -15081500000.0 -21021400000.0 -12932800000.0 -14003800000.0 -85253100000.0 -70104100000.0 -60607600000.0 -40383100000.0 -36982100000.0 -40937300000.0 -25382700000.0 -32524700000.0 -38731000000.0 -26447400000.0 -33597200000.0 -69884200000.0 -70941100000.0 -118549000000.0 -113875000000.0 -162870000000.0 -35660400000.0 -30220600000.0 -99055400000.0 -88272300000.0 -50115200000.0 -55251500000.0 -50055000000.0 -58810100000.0 -60636900000.0 -70023400000.0 -26828400000.0 -15338400000.0 -12549700000.0 -45082600000.0 -40252600000.0 -23472000000.0 -101330000000.0 -30100200000.0 -34230900000.0 -125760000000.0 -103415000000.0 -58218100000.0 -100695000000.0 -28157700000.0 -88374400000.0 -53942600000.0 -42950400000.0 -56713500000.0 -80572000000.0 -76900500000.0 -46882900000.0 -76938700000.0 -66515700000.0 -53578400000.0 -52118800000.0 -109062000000.0 -15864000000.0 -80710900000.0 -81708900000.0 -161270000000.0 -151426000000.0 -101475000000.0 -75163100000.0 -94351200000.0 -75316200000.0 -63492400000.0 -83590200000.0 -53711400000.0 -147754000000.0 -125253000000.0 -15397500000.0 -75575500000.0 -62658600000.0 -13259000000.0 -12776100000.0 -33192100000.0 -165783000000.0 -59195900000.0 -134161000000.0 -158629000000.0 -70790700000.0 -90939200000.0 -89301000000.0 -97479700000.0 -13626500000.0 -48852000000.0 -31788100000.0 -12549700000.0 -67407100000.0 -14071500000.0 -14066200000.0 -15861500000.0 -150083000000.0 -64335300000.0 -113362000000.0 -165418000000.0 -75958000000.0 -24186300000.0 -117498000000.0 -158134000000.0 -119238000000.0 -12747000000.0 -56009100000.0 -199666000000.0 -27797800000.0 -13267500000.0 -16464100000.0 -86558900000.0 -38868400000.0 -41091800000.0 -46377700000.0 -26167700000.0 -27080800000.0 -30194800000.0 -30584500000.0 -14491000000.0 -31530500000.0 -30221900000.0 -43479800000.0 -20056300000.0 -12980900000.0 -12549700000.0 -30315200000.0 -38713200000.0 -66661600000.0 -27912400000.0 -114868000000.0 -44674700000.0 -13415900000.0 -74178900000.0 -102333000000.0 -78957300000.0 -32937300000.0 -13481600000.0 -84246600000.0 -91782100000.0 -52213800000.0 -20587800000.0 -42850700000.0 -128443000000.0 -72670500000.0 -84519600000.0 -54162800000.0 -37557200000.0 -46503900000.0 -54565900000.0 -74147900000.0 -60800500000.0 -61504600000.0 -96949100000.0 -100865000000.0 -56642300000.0 -100830000000.0 -80816700000.0 -16816900000.0 -42593100000.0 -142214000000.0 -83183900000.0 -119173000000.0 -77907500000.0 -18089200000.0 -46328000000.0 -61794600000.0 -49741500000.0 -110278000000.0 -38832200000.0 -32804500000.0 -51221900000.0 -63860800000.0 -52931100000.0 -142557000000.0 -14556900000.0 -20378000000.0 -222812000000.0 -85641900000.0 -66664300000.0 -121226000000.0 -112373000000.0 -132998000000.0 -131800000000.0 -75367900000.0 -121554000000.0 -51878800000.0 -85383000000.0 -79356900000.0 -39845200000.0 -105474000000.0 -32654400000.0 -17789600000.0 -92056500000.0 -23120800000.0 -26352700000.0 -115046000000.0 -125496000000.0 -114269000000.0 -112197000000.0 -34357400000.0 -67351600000.0 -212648000000.0 -266694000000.0 -42649800000.0 -71221500000.0 -75227100000.0 -45392300000.0 -20072100000.0 -28726700000.0 -21671100000.0 -35346200000.0 -14090300000.0 -25449600000.0 -15119400000.0 -20711900000.0 -37533600000.0 -24674600000.0 -22155600000.0 -45547200000.0 -52647300000.0 -53432700000.0 -92668400000.0 -13984100000.0 -16895600000.0 -60512200000.0 -32919700000.0 -34986500000.0 -18530900000.0 -47815600000.0 -45757400000.0 -21658800000.0 -80747900000.0 -53090900000.0 -70662200000.0 -34392900000.0 -66543900000.0 -76347500000.0 -62280700000.0 -128014000000.0 -95217400000.0 -37269300000.0 -40266000000.0 -76229700000.0 -68191200000.0 -12549700000.0 -82519100000.0 -12549700000.0 -68831900000.0 -74358600000.0 -89047500000.0 -26186300000.0 -78200100000.0 -114950000000.0 -74788600000.0 -46402000000.0 -48577500000.0 -32992000000.0 -44498600000.0 -85985000000.0 -15994600000.0 -105502000000.0 -52431600000.0 -35417600000.0 -12549700000.0 -79558800000.0 -103850000000.0 -42544500000.0 -74243500000.0 -83865400000.0 -56445300000.0 -98862500000.0 -63039500000.0 -103209000000.0 -36671500000.0 -75370500000.0 -87708300000.0 -131509000000.0 -128981000000.0 -72775900000.0 -19472300000.0 -14328400000.0 -116045000000.0 -112765000000.0 -98779300000.0 -102847000000.0 -56894700000.0 -69326700000.0 -93647500000.0 -28603200000.0 -75993200000.0 -156272000000.0 -128797000000.0 -114652000000.0 -49390700000.0 -138279000000.0 -83180200000.0 -32604000000.0 -80440400000.0 -97972900000.0 -44980600000.0 -285558000000.0 -21777600000.0 -36090300000.0 -31255500000.0 -12859300000.0 -78948700000.0 -59643300000.0 -25765400000.0 -29163800000.0 -47685100000.0 -12919400000.0 -12680700000.0 -29945000000.0 -20001700000.0 -52066700000.0 -35280800000.0 -21183600000.0 -32603900000.0 -50076600000.0 -45358700000.0 -73427200000.0 -89257700000.0 -89533600000.0 -77362200000.0 -32312400000.0 -52347700000.0 -39615800000.0 -33495900000.0 -32035600000.0 -30058100000.0 -78161200000.0 -95097300000.0 -46551700000.0 -101207000000.0 -44290200000.0 -58523300000.0 -24690400000.0 -25659200000.0 -18363400000.0 -52380600000.0 -29489300000.0 -64816200000.0 -98826200000.0 -69755600000.0 -119153000000.0 -43680900000.0 -52967700000.0 -78190800000.0 -86685800000.0 -52272500000.0 -71627700000.0 -79608100000.0 -92511300000.0 -82550600000.0 -42141000000.0 -133352000000.0 -80769200000.0 -33534900000.0 -72854300000.0 -26953500000.0 -90814200000.0 -62235100000.0 -49227200000.0 -109047000000.0 -79589300000.0 -14071400000.0 -64025200000.0 -36287500000.0 -161476000000.0 -123728000000.0 -105926000000.0 -40638300000.0 -125027000000.0 -146518000000.0 -140136000000.0 -119970000000.0 -109849000000.0 -12710900000.0 -104017000000.0 -56242000000.0 -49446900000.0 -27112800000.0 -59698400000.0 -50558800000.0 -12868700000.0 -24516800000.0 -60958800000.0 -28193200000.0 -49468300000.0 -25687500000.0 -83568700000.0 -86358200000.0 -155309000000.0 -17086400000.0 -22010300000.0 -31518400000.0 -55003500000.0 -13211900000.0 -13876100000.0 -66159200000.0 -175628000000.0 -85186200000.0 -224725000000.0 -16478400000.0 -20403800000.0 -27204700000.0 -27517000000.0 -82656000000.0 -108380000000.0 -30132900000.0 -58546400000.0 -34994100000.0 -33142300000.0 -42223400000.0 -29122200000.0 -15534900000.0 -29917000000.0 -61778300000.0 -42647100000.0 -42994200000.0 -40527100000.0 -13127000000.0 -32305600000.0 -16531500000.0 -89457600000.0 -66637900000.0 -103213000000.0 -42150200000.0 -36260900000.0 -56728300000.0 -26455500000.0 -12627900000.0 -42019400000.0 -34274000000.0 -107050000000.0 -42224400000.0 -63317200000.0 -39807800000.0 -59220200000.0 -54593700000.0 -119852000000.0 -49224200000.0 -29626300000.0 -28721800000.0 -27468200000.0 -32329400000.0 -23942700000.0 -12549700000.0 -68603600000.0 -67656600000.0 -57427600000.0 -27764600000.0 -41452800000.0 -55808100000.0 -93638800000.0 -53006800000.0 -72668500000.0 -94109900000.0 -71315600000.0 -48665600000.0 -70195000000.0 -67799300000.0 -85804800000.0 -31035300000.0 -94195300000.0 -114002000000.0 -112253000000.0 -88195000000.0 -89997300000.0 -149520000000.0 -14219900000.0 -113091000000.0 -141127000000.0 -193990000000.0 -138415000000.0 -134856000000.0 -162973000000.0 -128115000000.0 -125468000000.0 -54619400000.0 -89616300000.0 -118282000000.0 -128101000000.0 -159877000000.0 -75028900000.0 -15463500000.0 -38419700000.0 -15012800000.0 -48947100000.0 -58828200000.0 -61743000000.0 -43203100000.0 -47190600000.0 -61611000000.0 -43041200000.0 -68494900000.0 -44974100000.0 -40389900000.0 -45557100000.0 -22850900000.0 -78461900000.0 -112043000000.0 -110099000000.0 -104108000000.0 -291191000000.0 -82141100000.0 -39392400000.0 -86622100000.0 -20218400000.0 -93022400000.0 -49572400000.0 -112198000000.0 -64102700000.0 -15143000000.0 -19006100000.0 -26597200000.0 -31574800000.0 -24063600000.0 -21196300000.0 -14122900000.0 -59663800000.0 -43701600000.0 -51011200000.0 -53974000000.0 -73211300000.0 -71400700000.0 -32135400000.0 -70805300000.0 -54275200000.0 -21473600000.0 -37171300000.0 -18407200000.0 -40761400000.0 -58550200000.0 -71664200000.0 -57086200000.0 -55978200000.0 -12549700000.0 -72241600000.0 -17098600000.0 -80032600000.0 -37770600000.0 -28470600000.0 -35261100000.0 -77501300000.0 -87384200000.0 -61779000000.0 -69918800000.0 -73789600000.0 -32464500000.0 -84540000000.0 -74183300000.0 -95791600000.0 -16411700000.0 -21078200000.0 -63521900000.0 -12750900000.0 -44957100000.0 -12785600000.0 -22692100000.0 -62426000000.0 -80624000000.0 -86551300000.0 -63372000000.0 -40687300000.0 -35843400000.0 -97793600000.0 -13816300000.0 -84088300000.0 -134463000000.0 -61470600000.0 -55843000000.0 -67026500000.0 -92782200000.0 -57532200000.0 -98614400000.0 -51344900000.0 -147889000000.0 -16820500000.0 -136632000000.0 -20239400000.0 -17996800000.0 -12549700000.0 -83244400000.0 -53998200000.0 -57949200000.0 -121375000000.0 -48914700000.0 -64109900000.0 -44722100000.0 -66619300000.0 -71040800000.0 -43930600000.0 -25899200000.0 -62394300000.0 -14226400000.0 -14491400000.0 -25568400000.0 -23819300000.0 -73684100000.0 -50918200000.0 -35271900000.0 -36002700000.0 -50118400000.0 -54850800000.0 -13306300000.0 -79935200000.0 -15429900000.0 -75546900000.0 -192135000000.0 -68640300000.0 -48153400000.0 -82652300000.0 -13881300000.0 -14376300000.0 -21339400000.0 -60177100000.0 -12549700000.0 -36902000000.0 -12549700000.0 -39462400000.0 -23527200000.0 -41516200000.0 -30724600000.0 -25962600000.0 -50357100000.0 -57990700000.0 -51638300000.0 -20707400000.0 -57526400000.0 -29102700000.0 -40070700000.0 -114505000000.0 -72409400000.0 -35099200000.0 -121320000000.0 -66493700000.0 -12618400000.0 -53964800000.0 -40353100000.0 -35179000000.0 -77891900000.0 -78975400000.0 -61977100000.0 -107566000000.0 -51682800000.0 -29119700000.0 -22301900000.0 -39302400000.0 -65971400000.0 -88956500000.0 -48422300000.0 -108459000000.0 -71980100000.0 -40145200000.0 -95475200000.0 -52014300000.0 -59984800000.0 -48886800000.0 -46040300000.0 -59722200000.0 -68647200000.0 -38703500000.0 -12844000000.0 -125627000000.0 -38303500000.0 -38207200000.0 -37159700000.0 -110616000000.0 -52573500000.0 -117034000000.0 -51765100000.0 -31506300000.0 -18253400000.0 -42361200000.0 -136406000000.0 -59162300000.0 -82108500000.0 -56668200000.0 -62956000000.0 -15785500000.0 -107176000000.0 -82332200000.0 -71422800000.0 -86025300000.0 -51607600000.0 -85855800000.0 -89680600000.0 -47205800000.0 -47723200000.0 -41013700000.0 -31386600000.0 -52468100000.0 -112322000000.0 -65834100000.0 -52442500000.0 -61623000000.0 -58235700000.0 -38725700000.0 -45060200000.0 -67511300000.0 -29743100000.0 -159619000000.0 -54131800000.0 -44553200000.0 -80210100000.0 -12549700000.0 -141099000000.0 -21371900000.0 -14241200000.0 -40899100000.0 -59412300000.0 -13865100000.0 -32875700000.0 -34591600000.0 -19968800000.0 -41814300000.0 -23231000000.0 -41934900000.0 -23351300000.0 -14509500000.0 -27201500000.0 -15704600000.0 -64405900000.0 -12724200000.0 -40882300000.0 -34776300000.0 -101181000000.0 -19641600000.0 -140919000000.0 -21260900000.0 -31674100000.0 -35391400000.0 -126778000000.0 -62831600000.0 -85980000000.0 -91322400000.0 -67119600000.0 -83014800000.0 -28475300000.0 -115833000000.0 -128707000000.0 -88138800000.0 -57255700000.0 -67364800000.0 -66027100000.0 -20119300000.0 -32083100000.0 -13720100000.0 -100016000000.0 -12811400000.0 -17096200000.0 -24049500000.0 -74211300000.0 -66316900000.0 -48785600000.0 -78229800000.0 -53448900000.0 -70770600000.0 -67868800000.0 -75438200000.0 -63413100000.0 -66733600000.0 -133690000000.0 -28234100000.0 -20378900000.0 -26488800000.0 -18814700000.0 -32050300000.0 -34757800000.0 -107184000000.0 -49205500000.0 -48374800000.0 -84216800000.0 -46933900000.0 -79781000000.0 -106278000000.0 -22777800000.0 -37178300000.0 -111051000000.0 -41293400000.0 -40024300000.0 -37615800000.0 -73640900000.0 -68471700000.0 -55877800000.0 -107792000000.0 -18785200000.0 -19846100000.0 -20957700000.0 -52122900000.0 -14177500000.0 -38451700000.0 -38560800000.0 -66706100000.0 -41538800000.0 -37972600000.0 -48013100000.0 -30377700000.0 -53515400000.0 -42457600000.0 -28620800000.0 -53325500000.0 -55625900000.0 -45049600000.0 -47221700000.0 -38863200000.0 -66367400000.0 -56143500000.0 -14811800000.0 -13875400000.0 -195752000000.0 -67695600000.0 -46874600000.0 -43187300000.0 -22848400000.0 -26636400000.0 -13171100000.0 -112320000000.0 -120457000000.0 -136495000000.0 -68610900000.0 -59176600000.0 -23141700000.0 -86476900000.0 -83189300000.0 -41155500000.0 -19282100000.0 -28961900000.0 -23975000000.0 -46500500000.0 -60100800000.0 -67622000000.0 -64831600000.0 -41618200000.0 -96425000000.0 -104253000000.0 -20006400000.0 -90188200000.0 -14532100000.0 -159105000000.0 -16843300000.0 -20398400000.0 -54055600000.0 -98013000000.0 -59294400000.0 -20594900000.0 -13911700000.0 -72034600000.0 -57831000000.0 -25372300000.0 -12549700000.0 -12696000000.0 -13373300000.0 -48851200000.0 -41650500000.0 -60312200000.0 -58711200000.0 -30476000000.0 -49352200000.0 -63706800000.0 -29104500000.0 -31480900000.0 -41692100000.0 -34011000000.0 -18333400000.0 -25483800000.0 -40491700000.0 -35011100000.0 -31130300000.0 -31234800000.0 -104285000000.0 -68132100000.0 -20915000000.0 -26724900000.0 -99015800000.0 -86038400000.0 -18765000000.0 -49400800000.0 -112396000000.0 -22115600000.0 -12995200000.0 -111295000000.0 -67031100000.0 -92118500000.0 -66159800000.0 -46215300000.0 -85066300000.0 -43732000000.0 -99018600000.0 -13820500000.0 -12549700000.0 -14103300000.0 -27386600000.0 -25031800000.0 -39484900000.0 -16290200000.0 -21379100000.0 -18250100000.0 -53893200000.0 -21894600000.0 -43671300000.0 -26495500000.0 -48101600000.0 -33829700000.0 -35601500000.0 -44578000000.0 -29403200000.0 -47565100000.0 -40227000000.0 -95078300000.0 -103757000000.0 -14440300000.0 -130971000000.0 -106319000000.0 -34264300000.0 -64010500000.0 -42072900000.0 -47442700000.0 -65017600000.0 -82174000000.0 -68801300000.0 -75008000000.0 -89908200000.0 -27678000000.0 -43557000000.0 -47043300000.0 -65691500000.0 -56608500000.0 -54702000000.0 -113808000000.0 -96521100000.0 -63565500000.0 -31687100000.0 -48033100000.0 -97896300000.0 -62748200000.0 -66965200000.0 -14007100000.0 -68221500000.0 -105658000000.0 -17251700000.0 -106354000000.0 -45639600000.0 -54514700000.0 -72039300000.0 -60963400000.0 -77893500000.0 -56343100000.0 -44355500000.0 -48214200000.0 -13730600000.0 -42670600000.0 -47845600000.0 -34613200000.0 -61869600000.0 -51825400000.0 -35574800000.0 -32403000000.0 -20292300000.0 -23464800000.0 -42662300000.0 -34086300000.0 -52862100000.0 -63445700000.0 -46685900000.0 -61167700000.0 -86062400000.0 -62343700000.0 -75554300000.0 -24922400000.0 -80920100000.0 -59893400000.0 -80954600000.0 -73424900000.0 -18976200000.0 -12703300000.0 -86955700000.0 -15853700000.0 -80158200000.0 -61139600000.0 -76384600000.0 -55554700000.0 -68557000000.0 -88353800000.0 -47673000000.0 -25513400000.0 -33844500000.0 -25364700000.0 -22606200000.0 -46377100000.0 -28298600000.0 -21554500000.0 -19887800000.0 -25067300000.0 -25844600000.0 -12549700000.0 -45052800000.0 -21432700000.0 -34567600000.0 -30903200000.0 -22069200000.0 -21938500000.0 -13064900000.0 -28986900000.0 -22266000000.0 -39684300000.0 -39755400000.0 -39053700000.0 -21021900000.0 -42092000000.0 -58290900000.0 -16537700000.0 -71168300000.0 -71641100000.0 -26038000000.0 -70780300000.0 -12558800000.0 -122468000000.0 -27357000000.0 -65110400000.0 -71699900000.0 -12594300000.0 -57928900000.0 -72584200000.0 -51555300000.0 -42936700000.0 -68528500000.0 -58725900000.0 -37551400000.0 -68532900000.0 -71586500000.0 -97503400000.0 -94050000000.0 -115774000000.0 -86925500000.0 -34107800000.0 -136167000000.0 -33313300000.0 -94257600000.0 -72307100000.0 -63315500000.0 -33881600000.0 -75346100000.0 -55318800000.0 -35746000000.0 -85648400000.0 -28665900000.0 -18365400000.0 -41761500000.0 -46380900000.0 -28445500000.0 -42448300000.0 -12843400000.0 -18235100000.0 -14339600000.0 -52402200000.0 -37647400000.0 -29320900000.0 -29680100000.0 -12549700000.0 -45352900000.0 -25031300000.0 -41634000000.0 -41370800000.0 -69422000000.0 -40801100000.0 -24405600000.0 -55301700000.0 -26027100000.0 -23652900000.0 -23345200000.0 -32495000000.0 -26095700000.0 -63337500000.0 -25540500000.0 -44136000000.0 -56503700000.0 -60157700000.0 -60691800000.0 -65196200000.0 -99985800000.0 -12549700000.0 -88898400000.0 -78178700000.0 -51466300000.0 -58474800000.0 -19485900000.0 -44067400000.0 -55751600000.0 -38977300000.0 -55062500000.0 -15787100000.0 -26679800000.0 -34710400000.0 -53708100000.0 -42721600000.0 -12555300000.0 -12609400000.0 -23351800000.0 -24949400000.0 -12888700000.0 -36291000000.0 -25562300000.0 -30285300000.0 -14195400000.0 -25564100000.0 -39338500000.0 -44419400000.0 -22716100000.0 -20245000000.0 -12549700000.0 -71904600000.0 -69474700000.0 -18018900000.0 -92500100000.0 -90287700000.0 -18769200000.0 -34913500000.0 -39014800000.0 -19267600000.0 -80670700000.0 -31313700000.0 -44782900000.0 -31924400000.0 -35033700000.0 -26856400000.0 -12549700000.0 -45477300000.0 -80036100000.0 -13614100000.0 -40840100000.0 -72858300000.0 -53763200000.0 -17867300000.0 -52994200000.0 -15312600000.0 -68777200000.0 -169723000000.0 -95358100000.0 -67896500000.0 -14908900000.0 -35030200000.0 -40696900000.0 -80297700000.0 -12781600000.0 -54749700000.0 -22596400000.0 -52500500000.0 -51913500000.0 -29826900000.0 -13921600000.0 -13561200000.0 -45683200000.0 -21493800000.0 -28981900000.0 -15016200000.0 -15194500000.0 -28803700000.0 -36923700000.0 -46071300000.0 -24573700000.0 -27091400000.0 -37161700000.0 -29570600000.0 -31153200000.0 -25714400000.0 -50338900000.0 -32240600000.0 -41402400000.0 -12865200000.0 -30141400000.0 -48080500000.0 -12549700000.0 -57008400000.0 -35949900000.0 -27243400000.0 -16185400000.0 -57949100000.0 -79635500000.0 -39861900000.0 -29499000000.0 -95756900000.0 -60005800000.0 -72438900000.0 -87475000000.0 -44712700000.0 -53738500000.0 -37553700000.0 -38464200000.0 -36554300000.0 -41780900000.0 -20980400000.0 -47777900000.0 -54258800000.0 -52417100000.0 -37395000000.0 -31049300000.0 -27904700000.0 -34459500000.0 -14215400000.0 -16111900000.0 -15587300000.0 -16588800000.0 -13242300000.0 -34261800000.0 -21068900000.0 -29930200000.0 -37144200000.0 -12932300000.0 -57638200000.0 -23246600000.0 -52875700000.0 -34603900000.0 -19288400000.0 -64955000000.0 -13896700000.0 -47157800000.0 -22796700000.0 -63557000000.0 -34888800000.0 -17308500000.0 -19056200000.0 -33452500000.0 -43854400000.0 -55955800000.0 -38282800000.0 -21644500000.0 -35210800000.0 -42237500000.0 -30057400000.0 -13492900000.0 -56714900000.0 -62894200000.0 -49034900000.0 -76749800000.0 -97752500000.0 -38605900000.0 -66778300000.0 -14395500000.0 -58596000000.0 -62439900000.0 -77204600000.0 -61920800000.0 -78976900000.0 -41236800000.0 -50119400000.0 -49650900000.0 -31984800000.0 -45424900000.0 -13619300000.0 -60091200000.0 -20578100000.0 -31475300000.0 -15127000000.0 -24784800000.0 -30059400000.0 -16481700000.0 -37641000000.0 -41408000000.0 -21292100000.0 -26273700000.0 -22630600000.0 -32177500000.0 -27465100000.0 -32503900000.0 -14641600000.0 -40105800000.0 -17693900000.0 -15629900000.0 -36732300000.0 -49183000000.0 -28765100000.0 -34600000000.0 -48905900000.0 -37246700000.0 -14745800000.0 -31215000000.0 -14697100000.0 -33904800000.0 -59862400000.0 -18320100000.0 -36442100000.0 -31696000000.0 -19562900000.0 -58175400000.0 -21674300000.0 -12549700000.0 -24948700000.0 -39129100000.0 -12963800000.0 -37898500000.0 -83378200000.0 -71971600000.0 -68480500000.0 -21743300000.0 -33557600000.0 -19468800000.0 -29229700000.0 -28005800000.0 -13151000000.0 -22856400000.0 -19278300000.0 -57969900000.0 -12569400000.0 -52960800000.0 -20046000000.0 -34214300000.0 -32254800000.0 -29456000000.0 -51489800000.0 -14086400000.0 -45188900000.0 -46356900000.0 -44827300000.0 -38212100000.0 -25956000000.0 -55352400000.0 -56587300000.0 -32546600000.0 -55490300000.0 -58132800000.0 -30104000000.0 -47278400000.0 -54122200000.0 -30131000000.0 -60020000000.0 -44928700000.0 -20352900000.0 -16633900000.0 -24716400000.0 -30180900000.0 -23978300000.0 -37109000000.0 -51809600000.0 -35563500000.0 -40619500000.0 -53029000000.0 -40863500000.0 -47542900000.0 -49012900000.0 -36397400000.0 -33612600000.0 -42458500000.0 -30265200000.0 -13722400000.0 -51229500000.0 -39775400000.0 -23098400000.0 -79085100000.0 -36974300000.0 -55730300000.0 -93260700000.0 -21925800000.0 -12861600000.0 -24913800000.0 -33291500000.0 -26254600000.0 -38158800000.0 -43286700000.0 -53714700000.0 -60166000000.0 -38349000000.0 -21612400000.0 -51341100000.0 -50938600000.0 -42517500000.0 -39197400000.0 -15407400000.0 -47426200000.0 -16207400000.0 -15485200000.0 -24736000000.0 -19656600000.0 -41773500000.0 -37068700000.0 -45273400000.0 -43357900000.0 -21149900000.0 -12549700000.0 -59142500000.0 -17860300000.0 -17613600000.0 -13030800000.0 -40902700000.0 -24354500000.0 -17632300000.0 -14611700000.0 -37741100000.0 -42408100000.0 -64570700000.0 -25497400000.0 -47970200000.0 -67329200000.0 -57335800000.0 -37354300000.0 -27090100000.0 -26012700000.0 -27603400000.0 -37009200000.0 -22419000000.0 -32371500000.0 -30734600000.0 -33085600000.0 -12617500000.0 -25480400000.0 -45614400000.0 -36245500000.0 -38180000000.0 -28957800000.0 -22915400000.0 -23424800000.0 -33502200000.0 -62545200000.0 -16805700000.0 -30926700000.0 -25196800000.0 -12923200000.0 -22615400000.0 -24070100000.0 -46068600000.0 -24845400000.0 -31294900000.0 -22039700000.0 -14169600000.0 -47470700000.0 -41838100000.0 -20670700000.0 -22798800000.0 -20076400000.0 -26821100000.0 -27590000000.0 -15299100000.0 -56982100000.0 -20031700000.0 -31703900000.0 -50022900000.0 -29598400000.0 -24896400000.0 -35007700000.0 -53652100000.0 -61734700000.0 -44094600000.0 -61126500000.0 -13664500000.0 -30327800000.0 -70497500000.0 -52804700000.0 -35195000000.0 -67497300000.0 -28230500000.0 -12594500000.0 -18072900000.0 -17796900000.0 -21280800000.0 -34074500000.0 -28469300000.0 -27490800000.0 -19767200000.0 -18064800000.0 -35202600000.0 -32343900000.0 -23144300000.0 -12597900000.0 -12754200000.0 -37781800000.0 -20764200000.0 -17310500000.0 -19745600000.0 -17147100000.0 -18122100000.0 -17009200000.0 -27000600000.0 -34135300000.0 -24535400000.0 -12549700000.0 -34623700000.0 -29046000000.0 -16650400000.0 -12840500000.0 -18995200000.0 -50892400000.0 -30550300000.0 -38939000000.0 -21938100000.0 -37687400000.0 -42053500000.0 -46962400000.0 -46036800000.0 -29974700000.0 -76390300000.0 -44057600000.0 -43996900000.0 -26769200000.0 -28106000000.0 -19740900000.0 -15618300000.0 -13247000000.0 -92699700000.0 -26477400000.0 -28857300000.0 -16068400000.0 -21664300000.0 -19729800000.0 -17636500000.0 -22498900000.0 -13771200000.0 -32551800000.0 -34999800000.0 -15658000000.0 -29952800000.0 -18270000000.0 -19466500000.0 -30727900000.0 -20967400000.0 -24980400000.0 -32266300000.0 -20455700000.0 -13227400000.0 -20088300000.0 -15145300000.0 -20349100000.0 -38610600000.0 -25581500000.0 -14385100000.0 -13446400000.0 -20430900000.0 -46968900000.0 -37970900000.0 -28459100000.0 -18385600000.0 -26882700000.0 -18100100000.0 -19959100000.0 -44989500000.0 -27021100000.0 -29094500000.0 -33054600000.0 -23122200000.0 -39783600000.0 -40785700000.0 -31892600000.0 -48804700000.0 -54765200000.0 -18230900000.0 -30267500000.0 -38211600000.0 -17823400000.0 -43773200000.0 -69877400000.0 -46466000000.0 -29912400000.0 -25966400000.0 -38967900000.0 -42372100000.0 -76204100000.0 -53079700000.0 -40144200000.0 -14798500000.0 -36871600000.0 -26272800000.0 -17766500000.0 -16158900000.0 -17081900000.0 -24176300000.0 -18848800000.0 -19339000000.0 -35752100000.0 -27372200000.0 -24162800000.0 -29826300000.0 -21726100000.0 -18903100000.0 -27518700000.0 -15243300000.0 -12794400000.0 -12549700000.0 -20103800000.0 -18429700000.0 -12687800000.0 -12909600000.0 -19556500000.0 -14391100000.0 -12549700000.0 -20432000000.0 -19637600000.0 -14637500000.0 -28871500000.0 -24382500000.0 -37283100000.0 -28264100000.0 -26501000000.0 -26509700000.0 -19745300000.0 -42697100000.0 -39952100000.0 -27413000000.0 -18253800000.0 -13579700000.0 -42562800000.0 -15423700000.0 -22962400000.0 -83059500000.0 -22174200000.0 -26573500000.0 -29658100000.0 -12968100000.0 -17076700000.0 -12576500000.0 -21766800000.0 -18892800000.0 -12549700000.0 -31808600000.0 -23914600000.0 -19314900000.0 -16470600000.0 -19811900000.0 -19087400000.0 -12549700000.0 -27265700000.0 -28096400000.0 -25926900000.0 -24661400000.0 -17782600000.0 -26317300000.0 -19658000000.0 -12864200000.0 -12796800000.0 -14382300000.0 -12858900000.0 -29250400000.0 -12587200000.0 -12549700000.0 -14020100000.0 -17581800000.0 -13524200000.0 -44048900000.0 -49560300000.0 -29197500000.0 -16799200000.0 -41792700000.0 -13428500000.0 -43042300000.0 -15945900000.0 -42898300000.0 -34226600000.0 -26594700000.0 -20990600000.0 -29098400000.0 -35710200000.0 -50173400000.0 -46901700000.0 -21602000000.0 -21613700000.0 -21814800000.0 -22860100000.0 -13312000000.0 -42334700000.0 -31079300000.0 -12830800000.0 -19084000000.0 -36740400000.0 -26374500000.0 -31458400000.0 -20516500000.0 -22141300000.0 -23187700000.0 -19549200000.0 -17939600000.0 -14667000000.0 -20678200000.0 -19061000000.0 -12549700000.0 -19785600000.0 -14612900000.0 -12549700000.0 -12549700000.0 -13632800000.0 -16225800000.0 -12632500000.0 -12589100000.0 -12549700000.0 -16928200000.0 -16377000000.0 -13294500000.0 -15219600000.0 -13800200000.0 -15247100000.0 -23195800000.0 -19576400000.0 -24620900000.0 -12843400000.0 -26668800000.0 -20262400000.0 -17173600000.0 -12965500000.0 -25581600000.0 -22237400000.0 -27875500000.0 -15433800000.0 -26451200000.0 -45929800000.0 -44838500000.0 -35079000000.0 -34695000000.0 -47034300000.0 -24077400000.0 -18023000000.0 -13027500000.0 -21250000000.0 -21125400000.0 -15153000000.0 -14163700000.0 -21666500000.0 -20340600000.0 -16419600000.0 -15957400000.0 -19113100000.0 -18035100000.0 -22665800000.0 -15675600000.0 -26349900000.0 -15415700000.0 -14422600000.0 -12733600000.0 -12916300000.0 -20661300000.0 -13978200000.0 -12549700000.0 -12737800000.0 -21322300000.0 -13938500000.0 -23845800000.0 -30369800000.0 -37893600000.0 -14671400000.0 -44748600000.0 -18669800000.0 -27100900000.0 -26478200000.0 -22150100000.0 -26584800000.0 -22268000000.0 -19764100000.0 -12554200000.0 -21291500000.0 -24427800000.0 -29522000000.0 -20577200000.0 -21268400000.0 -16401300000.0 -23884600000.0 -18480000000.0 -15291200000.0 -23207500000.0 -17397500000.0 -19203300000.0 -34435000000.0 -20062500000.0 -17610200000.0 -13115400000.0 -16502300000.0 -12565900000.0 -20630400000.0 -15410000000.0 -13230500000.0 -15952600000.0 -12549700000.0 -14601600000.0 -13103300000.0 -12652300000.0 -16435600000.0 -12998400000.0 -12549700000.0 -12556200000.0 -13199700000.0 -15145200000.0 -12561600000.0 -12549700000.0 -15645900000.0 -12549700000.0 -12932100000.0 -13460700000.0 -13160900000.0 -13097200000.0 -14852000000.0 -17307300000.0 -15085800000.0 -14162700000.0 -12645400000.0 -19072400000.0 -17519700000.0 -13485900000.0 -17266200000.0 -15437500000.0 -16916900000.0 -30904500000.0 -26877100000.0 -33862000000.0 -17690600000.0 -16545100000.0 -20492600000.0 -38077000000.0 -33287900000.0 -21494600000.0 -23758100000.0 -16144700000.0 -20045100000.0 -20630300000.0 -15431200000.0 -13700700000.0 -17620600000.0 -17570600000.0 -12856100000.0 -14888400000.0 -17573600000.0 -12832500000.0 -17205900000.0 -14082500000.0 -18825700000.0 -18505600000.0 -22689500000.0 -16698300000.0 -15150800000.0 -14357100000.0 -13254200000.0 -13388100000.0 -14390500000.0 -14088700000.0 -12698500000.0 -18140300000.0 -24365500000.0 -18963500000.0 -18074400000.0 -22084600000.0 -21114300000.0 -15416700000.0 -19732800000.0 -14716000000.0 -21058800000.0 -21434300000.0 -13628500000.0 -16963900000.0 -17139900000.0 -17069600000.0 -15363400000.0 -12946900000.0 -12876000000.0 -18709400000.0 -18670600000.0 -19604600000.0 -13953200000.0 -17103300000.0 -13809400000.0 -13266100000.0 -20518600000.0 -12924100000.0 -18575600000.0 -12773100000.0 -14391900000.0 -13201700000.0 -13396100000.0 -12549700000.0 -13405500000.0 -12733800000.0 -17710500000.0 -14505300000.0 -13999800000.0 -15020800000.0 -13222900000.0 -13135500000.0 -13127800000.0 -12664200000.0 -13243200000.0 -14428400000.0 -13498500000.0 -13809000000.0 -12889900000.0 -13462600000.0 -12931700000.0 -15597200000.0 -14123800000.0 -16107000000.0 -13920400000.0 -14094400000.0 -16192100000.0 -17461600000.0 -20318100000.0 -19532700000.0 -20262000000.0 -15022600000.0 -15880800000.0 -25542700000.0 -24901700000.0 -16930900000.0 -19286900000.0 -18751700000.0 -17785000000.0 -22383400000.0 -12549700000.0 -16175300000.0 -14598300000.0 -12816000000.0 -12859800000.0 -14250700000.0 -13373100000.0 -15038300000.0 -12549700000.0 -15050200000.0 -13013700000.0 -13090100000.0 -14056900000.0 -15125600000.0 -16753500000.0 -12549700000.0 -14233500000.0 -14212200000.0 -13185400000.0 -13129400000.0 -13750500000.0 -12549700000.0 -13046000000.0 -12597000000.0 -12876800000.0 -16765900000.0 -17502300000.0 -14151500000.0 -12549700000.0 -15676200000.0 -14707400000.0 -13913400000.0 -18148400000.0 -14435900000.0 -14659900000.0 -13917000000.0 -14158800000.0 -12753900000.0 -13936500000.0 -13477300000.0 -13032300000.0 -13339400000.0 -12922300000.0 -12913700000.0 -16750900000.0 -14538700000.0 -14199200000.0 -13184400000.0 -13404200000.0 -13286200000.0 -13201000000.0 -12742900000.0 -12739400000.0 -13415900000.0 -13951900000.0 -14578600000.0 -12767300000.0 -12758100000.0 -16069000000.0 -16305400000.0 -14321300000.0 -13801400000.0 -16160000000.0 -13874800000.0 -15428600000.0 -13928000000.0 -13841800000.0 -14231500000.0 -12751000000.0 -12549700000.0 -12968000000.0 -12549700000.0 -13357000000.0 -13021600000.0 -13495900000.0 -13164900000.0 -13124000000.0 -13326400000.0 -12939300000.0 -13769700000.0 -13148600000.0 -13328300000.0 -13278600000.0 -12619600000.0 