# vtk DataFile Version 2.0
Time step 69
ASCII
DATASET UNSTRUCTURED_GRID
POINTS 5000 float
233684.0 214652.0 0
278355.0 214680.0 0
199505.0 217498.0 0
205916.0 217311.0 0
212455.0 217004.0 0
221529.0 216441.0 0
229578.0 215837.0 0
226342.0 218896.0 0
233295.0 218008.0 0
237965.0 217564.0 0
243799.0 217787.0 0
250382.0 219346.0 0
256577.0 217917.0 0
262008.0 219702.0 0
267129.0 218995.0 0
272127.0 216385.0 0
281632.0 219861.0 0
287142.0 218084.0 0
293065.0 218523.0 0
298205.0 216734.0 0
198660.0 222551.0 0
202662.0 220877.0 0
205411.0 222269.0 0
203320.0 225323.0 0
208923.0 221328.0 0
213202.0 224047.0 0
217130.0 220409.0 0
222525.0 221822.0 0
227336.0 224286.0 0
230171.0 220573.0 0
234813.0 222265.0 0
240025.0 222542.0 0
245181.0 223204.0 0
250463.0 224709.0 0
254461.0 224186.0 0
258471.0 222280.0 0
264544.0 223134.0 0
268892.0 223848.0 0
271555.0 220873.0 0
273940.0 225207.0 0
276065.0 220359.0 0
279223.0 224095.0 0
282843.0 223844.0 0
285877.0 222724.0 0
289692.0 222454.0 0
295109.0 223832.0 0
300286.0 221754.0 0
198426.0 227966.0 0
208257.0 227133.0 0
213262.0 229321.0 0
217996.0 225396.0 0
218243.0 230023.0 0
222876.0 227498.0 0
228195.0 229433.0 0
231708.0 226025.0 0
236201.0 227249.0 0
241551.0 227753.0 0
247558.0 227698.0 0
252333.0 228412.0 0
257116.0 228304.0 0
261131.0 225693.0 0
261322.0 230008.0 0
265776.0 227922.0 0
270422.0 227687.0 0
277641.0 227856.0 0
282165.0 227654.0 0
287046.0 226765.0 0
291128.0 225955.0 0
293811.0 229416.0 0
298237.0 227688.0 0
303697.0 227140.0 0
194763.0 231277.0 0
203036.0 231145.0 0
198154.0 234505.0 0
208621.0 233157.0 0
215451.0 235002.0 0
222397.0 233155.0 0
226593.0 233224.0 0
233021.0 230446.0 0
230255.0 233967.0 0
234396.0 234019.0 0
237575.0 231713.0 0
241372.0 235033.0 0
249877.0 232606.0 0
245076.0 231767.0 0
254626.0 232620.0 0
259169.0 234003.0 0
264907.0 233943.0 0
269327.0 231257.0 0
273868.0 230402.0 0
271518.0 233478.0 0
274495.0 234974.0 0
279534.0 232434.0 0
285508.0 231770.0 0
290359.0 232513.0 0
295081.0 233478.0 0
300537.0 233560.0 0
196768.0 239138.0 0
203413.0 236681.0 0
210479.0 238605.0 0
220752.0 238141.0 0
226300.0 237507.0 0
232660.0 238315.0 0
237077.0 236722.0 0
244127.0 239351.0 0
241194.0 239366.0 0
246646.0 236538.0 0
251497.0 237201.0 0
254626.0 240477.0 0
255754.0 236613.0 0
259807.0 239296.0 0
269707.0 236037.0 0
266196.0 240318.0 0
272724.0 238967.0 0
278585.0 238594.0 0
283497.0 236079.0 0
283856.0 239855.0 0
288060.0 236384.0 0
292388.0 235862.0 0
295990.0 236779.0 0
292670.0 240003.0 0
296979.0 240105.0 0
303256.0 239209.0 0
200544.0 240711.0 0
200445.0 244967.0 0
205785.0 242236.0 0
211774.0 243836.0 0
216264.0 240819.0 0
220672.0 242722.0 0
229358.0 241306.0 0
225307.0 243080.0 0
232546.0 242736.0 0
229736.0 245208.0 0
237355.0 242013.0 0
243173.0 243320.0 0
246914.0 240853.0 0
247686.0 244490.0 0
250564.0 241755.0 0
257213.0 243834.0 0
261843.0 244757.0 0
270941.0 243139.0 0
275164.0 242895.0 0
278607.0 243378.0 0
281277.0 242481.0 0
284788.0 244026.0 0
287687.0 240561.0 0
290257.0 243887.0 0
295421.0 244332.0 0
300072.0 242530.0 0
301392.0 246069.0 0
200206.0 249132.0 0
204281.0 247598.0 0
208448.0 247009.0 0
212458.0 249273.0 0
217282.0 246779.0 0
222288.0 246353.0 0
221523.0 250661.0 0
226191.0 248369.0 0
234196.0 246510.0 0
230741.0 249433.0 0
239635.0 247876.0 0
245032.0 248158.0 0
249341.0 247909.0 0
252972.0 245671.0 0
257686.0 248926.0 0
263452.0 249917.0 0
266387.0 245969.0 0
269791.0 246390.0 0
268863.0 250409.0 0
273613.0 247319.0 0
277238.0 245834.0 0
280541.0 245757.0 0
278199.0 249749.0 0
283236.0 249009.0 0
287614.0 247403.0 0
291911.0 248416.0 0
296255.0 248712.0 0
299752.0 248738.0 0
201641.0 252140.0 0
202354.0 255524.0 0
208069.0 251603.0 0
204185.0 251724.0 0
212251.0 253443.0 0
216621.0 253149.0 0
225517.0 253243.0 0
230854.0 254729.0 0
235278.0 251394.0 0
239451.0 253039.0 0
243651.0 252796.0 0
247952.0 252110.0 0
246171.0 255589.0 0
252704.0 250968.0 0
260222.0 252726.0 0
256355.0 254686.0 0
265381.0 254186.0 0
269788.0 255261.0 0
273813.0 251862.0 0
274097.0 255815.0 0
278027.0 254405.0 0
282486.0 253477.0 0
287469.0 252152.0 0
293629.0 252699.0 0
297884.0 251875.0 0
297838.0 255715.0 0
202714.0 260197.0 0
205626.0 256962.0 0
207210.0 260720.0 0
209554.0 256559.0 0
213611.0 256605.0 0
211892.0 260643.0 0
216959.0 258956.0 0
221292.0 255833.0 0
225839.0 258053.0 0
233671.0 258978.0 0
229812.0 259819.0 0
236504.0 256239.0 0
241618.0 257503.0 0
246213.0 259259.0 0
250939.0 256572.0 0
261338.0 256729.0 0
266398.0 259168.0 0
271801.0 259758.0 0
276508.0 259407.0 0
285398.0 256551.0 0
281164.0 257782.0 0
289984.0 256269.0 0
287637.0 259570.0 0
294268.0 257086.0 0
297290.0 260347.0 0
201745.0 263977.0 0
205182.0 263988.0 0
209039.0 264189.0 0
212982.0 264795.0 0
214943.0 262281.0 0
217680.0 264611.0 0
221867.0 261118.0 0
227037.0 263338.0 0
232330.0 262958.0 0
237419.0 261594.0 0
242355.0 262591.0 0
246390.0 263308.0 0
250417.0 261985.0 0
253022.0 265593.0 0
256380.0 261090.0 0
262148.0 261536.0 0
260633.0 265187.0 0
265204.0 265059.0 0
269349.0 263209.0 0
274307.0 264521.0 0
279522.0 263063.0 0
284207.0 261521.0 0
282782.0 265934.0 0
287515.0 265123.0 0
291872.0 261794.0 0
296461.0 265951.0 0
202601.0 267627.0 0
206717.0 267164.0 0
210654.0 267827.0 0
214805.0 268440.0 0
218876.0 269549.0 0
222846.0 266358.0 0
223080.0 271122.0 0
227139.0 268136.0 0
230295.0 266188.0 0
231498.0 269906.0 0
234852.0 266552.0 0
239294.0 266469.0 0
244227.0 267452.0 0
240800.0 270131.0 0
249085.0 266688.0 0
247758.0 270969.0 0
252043.0 270286.0 0
256991.0 268243.0 0
262222.0 269005.0 0
270080.0 267507.0 0
266101.0 269459.0 0
274230.0 270301.0 0
278493.0 267642.0 0
285140.0 268579.0 0
282108.0 269363.0 0
289128.0 270036.0 0
291743.0 266932.0 0
293399.0 270765.0 0
297440.0 270943.0 0
202989.0 272394.0 0
207880.0 271303.0 0
206260.0 275933.0 0
212585.0 271962.0 0
210462.0 276135.0 0
216309.0 272088.0 0
219584.0 273885.0 0
223448.0 275655.0 0
227402.0 272646.0 0
231814.0 274748.0 0
236665.0 271641.0 0
243939.0 272116.0 0
240959.0 273248.0 0
243375.0 275693.0 0
246548.0 274328.0 0
250161.0 274697.0 0
259931.0 272484.0 0
255348.0 274587.0 0
264486.0 274000.0 0
269391.0 272023.0 0
268444.0 275548.0 0
272211.0 274982.0 0
279392.0 272742.0 0
275702.0 274884.0 0
284983.0 273335.0 0
290527.0 274961.0 0
296275.0 275950.0 0
202602.0 277648.0 0
207289.0 280461.0 0
211969.0 280476.0 0
215593.0 276648.0 0
220187.0 278540.0 0
224356.0 279603.0 0
227672.0 277430.0 0
231528.0 279876.0 0
235787.0 277135.0 0
235351.0 281380.0 0
238761.0 280598.0 0
239800.0 276319.0 0
242311.0 279721.0 0
246791.0 278434.0 0
251925.0 279635.0 0
260179.0 276710.0 0
257009.0 279953.0 0
263332.0 278534.0 0
266798.0 278589.0 0
270692.0 278772.0 0
274953.0 278987.0 0
278073.0 277008.0 0
279014.0 280543.0 0
281855.0 277360.0 0
282595.0 281240.0 0
286561.0 279051.0 0
292043.0 279695.0 0
297032.0 281392.0 0
202758.0 281998.0 0
201525.0 285484.0 0
205919.0 285534.0 0
209601.0 283527.0 0
212958.0 283942.0 0
216751.0 281982.0 0
218965.0 285998.0 0
221961.0 283059.0 0
227678.0 282627.0 0
225179.0 286223.0 0
232915.0 285009.0 0
237156.0 284212.0 0
244649.0 282977.0 0
240670.0 284264.0 0
248426.0 282781.0 0
246919.0 286491.0 0
254802.0 283495.0 0
251394.0 285679.0 0
257981.0 284421.0 0
260888.0 281476.0 0
265189.0 282584.0 0
261369.0 285512.0 0
268732.0 281864.0 0
269269.0 286072.0 0
272289.0 282433.0 0
273643.0 285490.0 0
276198.0 283315.0 0
280333.0 284399.0 0
284509.0 284376.0 0
288735.0 282868.0 0
292608.0 284088.0 0
201982.0 288357.0 0
204950.0 289288.0 0
207878.0 289159.0 0
210777.0 287349.0 0
215421.0 286736.0 0
214378.0 290442.0 0
218748.0 290375.0 0
222175.0 288285.0 0
229326.0 287576.0 0
225826.0 290260.0 0
233488.0 289585.0 0
237328.0 288051.0 0
243523.0 286692.0 0
241013.0 288131.0 0
244429.0 290249.0 0
240338.0 291564.0 0
248867.0 289746.0 0
252917.0 289781.0 0
255467.0 287143.0 0
258754.0 288183.0 0
256366.0 290906.0 0
264905.0 286738.0 0
262129.0 289862.0 0
266207.0 290445.0 0
270238.0 291104.0 0
273071.0 288513.0 0
277085.0 287712.0 0
281292.0 288254.0 0
284519.0 288130.0 0
288576.0 287205.0 0
286504.0 290924.0 0
292590.0 288856.0 0
296727.0 286653.0 0
202702.0 292490.0 0
206843.0 292249.0 0
205265.0 295647.0 0
208719.0 296169.0 0
210738.0 292294.0 0
213838.0 294553.0 0
216775.0 293711.0 0
222619.0 292435.0 0
220025.0 294976.0 0
226724.0 294566.0 0
229944.0 291808.0 0
233081.0 293506.0 0
230629.0 296010.0 0
236456.0 292581.0 0
238932.0 296289.0 0
243052.0 294530.0 0
247102.0 293680.0 0
249876.0 296522.0 0
251051.0 293009.0 0
254274.0 293015.0 0
253017.0 295832.0 0
259417.0 292196.0 0
257325.0 295925.0 0
263098.0 294637.0 0
267438.0 293981.0 0
274479.0 292155.0 0
271132.0 295680.0 0
278485.0 291928.0 0
275856.0 295892.0 0
280092.0 296606.0 0
282837.0 292388.0 0
284159.0 296271.0 0
290223.0 292501.0 0
286776.0 294841.0 0
293493.0 291975.0 0
293843.0 295290.0 0
296929.0 291813.0 0
297693.0 296358.0 0
197272.0 301785.0 0
202117.0 296885.0 0
202267.0 300637.0 0
205483.0 298931.0 0
209118.0 299699.0 0
212066.0 296892.0 0
212790.0 300448.0 0
216603.0 298137.0 0
223433.0 296819.0 0
220594.0 298447.0 0
223607.0 300341.0 0
220201.0 301710.0 0
227588.0 299093.0 0
234516.0 296843.0 0
231241.0 298876.0 0
233516.0 300408.0 0
236851.0 300396.0 0
242504.0 298054.0 0
240506.0 300641.0 0
244017.0 301027.0 0
245980.0 297816.0 0
249277.0 299889.0 0
246792.0 301536.0 0
253598.0 299988.0 0
257690.0 301542.0 0
260963.0 298727.0 0
264716.0 299567.0 0
266814.0 297088.0 0
268865.0 300223.0 0
273506.0 299538.0 0
277429.0 300003.0 0
280389.0 301059.0 0
283513.0 299892.0 0
290106.0 296833.0 0
286913.0 298625.0 0
289868.0 300742.0 0
293698.0 299500.0 0
297751.0 299915.0 0
203091.0 304883.0 0
206320.0 302079.0 0
207771.0 305898.0 0
209848.0 302925.0 0
212773.0 303892.0 0
211651.0 306978.0 0
216658.0 303245.0 0
222597.0 304070.0 0
226202.0 303423.0 0
230598.0 303071.0 0
234702.0 304109.0 0
238407.0 304223.0 0
242166.0 304365.0 0
245871.0 304492.0 0
250149.0 304267.0 0
254711.0 305059.0 0
258792.0 305375.0 0
261898.0 302982.0 0
265631.0 303258.0 0
268743.0 304177.0 0
271901.0 303382.0 0
274136.0 306326.0 0
275870.0 303277.0 0
279360.0 304318.0 0
282844.0 302965.0 0
283127.0 306340.0 0
286498.0 302939.0 0
294997.0 303355.0 0
291100.0 304307.0 0
294822.0 306963.0 0
298393.0 302810.0 0
297907.0 305679.0 0
202007.0 308693.0 0
205880.0 309342.0 0
210266.0 310639.0 0
215757.0 307684.0 0
214441.0 311357.0 0
218568.0 310763.0 0
220247.0 307042.0 0
222829.0 310992.0 0
224572.0 307512.0 0
228576.0 307314.0 0
226554.0 310139.0 0
232368.0 307426.0 0
230247.0 310988.0 0
234328.0 311297.0 0
236222.0 307908.0 0
238153.0 311923.0 0
244132.0 307729.0 0
240189.0 308515.0 0
247471.0 308307.0 0
251540.0 308496.0 0
254640.0 309340.0 0
252710.0 311756.0 0
256783.0 307886.0 0
259272.0 309215.0 0
262760.0 307243.0 0
261733.0 311630.0 0
266891.0 307357.0 0
265354.0 311147.0 0
269571.0 310950.0 0
270725.0 307198.0 0
273742.0 310038.0 0
276896.0 307188.0 0
279980.0 308694.0 0
277085.0 309783.0 0
279309.0 311943.0 0
283480.0 311108.0 0
287054.0 307363.0 0
291396.0 308980.0 0
295163.0 310601.0 0
297989.0 308681.0 0
297919.0 311891.0 0
202884.0 312444.0 0
202250.0 316133.0 0
207424.0 313565.0 0
205443.0 316311.0 0
212071.0 315506.0 0
216798.0 314427.0 0
220345.0 313377.0 0
222558.0 315135.0 0
219792.0 316954.0 0
226782.0 314420.0 0
232157.0 314540.0 0
235837.0 315145.0 0
239507.0 315112.0 0
243613.0 312612.0 0
248884.0 312269.0 0
247000.0 316334.0 0
251814.0 315718.0 0
256749.0 312936.0 0
260947.0 315067.0 0
264006.0 314466.0 0
267685.0 314644.0 0
272639.0 315140.0 0
276463.0 312439.0 0
277390.0 315699.0 0
281145.0 314627.0 0
284742.0 316139.0 0
287606.0 312221.0 0
288876.0 315614.0 0
292504.0 313508.0 0
296897.0 315419.0 0
302750.0 315518.0 0
203078.0 319996.0 0
208485.0 318794.0 0
212638.0 319412.0 0
214131.0 321596.0 0
211112.0 322249.0 0
216001.0 318529.0 0
217090.0 321731.0 0
223372.0 318184.0 0
220369.0 320785.0 0
224095.0 322265.0 0
226857.0 319939.0 0
230663.0 317747.0 0
234597.0 319008.0 0
230898.0 321570.0 0
238465.0 318369.0 0
237017.0 322045.0 0
242747.0 317924.0 0
240044.0 321335.0 0
243178.0 322110.0 0
245859.0 319818.0 0
248939.0 319346.0 0
252720.0 320317.0 0
256866.0 318386.0 0
261531.0 318899.0 0
265069.0 317995.0 0
269488.0 319327.0 0
275026.0 319968.0 0
271903.0 321850.0 0
280119.0 319601.0 0
284499.0 320293.0 0
288155.0 319697.0 0
292157.0 317583.0 0
294977.0 319265.0 0
292202.0 321920.0 0
298161.0 319087.0 0
304194.0 321288.0 0
202948.0 324197.0 0
201534.0 327248.0 0
207069.0 322928.0 0
208260.0 326164.0 0
204869.0 327081.0 0
212047.0 325341.0 0
215708.0 324610.0 0
220311.0 325437.0 0
228354.0 324069.0 0
225052.0 326130.0 0
233476.0 323686.0 0
231122.0 326857.0 0
236684.0 325452.0 0
240211.0 325329.0 0
244168.0 326132.0 0
246479.0 322868.0 0
249771.0 323265.0 0
248369.0 326948.0 0
254019.0 323963.0 0
252095.0 327206.0 0
257800.0 323266.0 0
259103.0 326951.0 0
255808.0 327310.0 0
261887.0 322705.0 0
262251.0 326063.0 0
265770.0 322416.0 0
269547.0 324041.0 0
266277.0 327344.0 0
273733.0 324858.0 0
277602.0 323848.0 0
282402.0 324162.0 0
287666.0 325037.0 0
292929.0 326815.0 0
296747.0 322889.0 0
297786.0 326597.0 0
202483.0 329976.0 0
206463.0 330382.0 0
210301.0 329069.0 0
213701.0 328439.0 0
212843.0 331698.0 0
216832.0 328607.0 0
216436.0 331727.0 0
219191.0 332291.0 0
219882.0 329787.0 0
223146.0 329992.0 0
228080.0 327732.0 0
226834.0 330603.0 0
234661.0 328408.0 0
230165.0 330391.0 0
233041.0 331257.0 0
238570.0 329383.0 0
235921.0 331616.0 0
242021.0 329373.0 0
240619.0 332010.0 0
246054.0 330084.0 0
250000.0 330404.0 0
253415.0 330794.0 0
257487.0 330560.0 0
262000.0 330092.0 0
264776.0 331598.0 0
266928.0 331239.0 0
269428.0 331534.0 0
270657.0 328308.0 0
273423.0 329357.0 0
272529.0 332348.0 0
275592.0 327786.0 0
279630.0 328072.0 0
275977.0 331753.0 0
279570.0 332480.0 0
284337.0 329041.0 0
282950.0 332178.0 0
288148.0 330455.0 0
292471.0 331267.0 0
297317.0 329854.0 0
197681.0 333449.0 0
202377.0 333252.0 0
202286.0 336468.0 0
205384.0 333354.0 0
207700.0 334617.0 0
205409.0 336312.0 0
208747.0 336748.0 0
209255.0 332599.0 0
210898.0 334849.0 0
214778.0 335098.0 0
218439.0 334872.0 0
222417.0 333905.0 0
220436.0 337135.0 0
224161.0 337680.0 0
226414.0 334208.0 0
228386.0 336881.0 0
230108.0 333831.0 0
233949.0 334652.0 0
238221.0 333636.0 0
236796.0 337232.0 0
243624.0 333153.0 0
241116.0 335733.0 0
248488.0 333430.0 0
245475.0 336037.0 0
248618.0 336894.0 0
251830.0 334053.0 0
251450.0 336805.0 0
255394.0 334488.0 0
259998.0 334159.0 0
257754.0 336969.0 0
263844.0 333686.0 0
263920.0 337239.0 0
266555.0 334057.0 0
269509.0 334772.0 0
267209.0 337164.0 0
273066.0 335954.0 0
276901.0 335702.0 0
281483.0 336538.0 0
286132.0 334288.0 0
289674.0 334402.0 0
294666.0 334395.0 0
291963.0 335536.0 0
297951.0 332889.0 0
297984.0 335972.0 0
202330.0 339539.0 0
202662.0 342703.0 0
206338.0 339263.0 0
206119.0 342647.0 0
211592.0 337643.0 0
214299.0 338866.0 0
210005.0 340388.0 0
214101.0 342105.0 0
217354.0 337927.0 0
218033.0 340894.0 0
220885.0 339722.0 0
223375.0 342132.0 0
227250.0 339720.0 0
231657.0 337672.0 0
231138.0 341766.0 0
234793.0 339617.0 0
239638.0 339340.0 0
237178.0 341472.0 0
243843.0 339028.0 0
240378.0 342218.0 0
243263.0 342660.0 0
248018.0 340476.0 0
254566.0 338534.0 0
251357.0 340412.0 0
257929.0 340052.0 0
256594.0 342023.0 0
259493.0 342623.0 0
260362.0 338216.0 0
261345.0 340814.0 0
264570.0 341396.0 0
270198.0 337857.0 0
267926.0 339868.0 0
270510.0 342275.0 0
272996.0 339702.0 0
276436.0 339569.0 0
279578.0 340071.0 0
283051.0 341024.0 0
286186.0 338677.0 0
290263.0 338463.0 0
287307.0 342316.0 0
294214.0 338300.0 0
290977.0 342336.0 0
294365.0 341538.0 0
297543.0 338795.0 0
297656.0 341764.0 0
196515.0 347082.0 0
202489.0 345946.0 0
206029.0 346030.0 0
209961.0 344559.0 0
215814.0 345851.0 0
219771.0 343879.0 0
221148.0 346940.0 0
227692.0 343491.0 0
224641.0 346232.0 0
228865.0 346900.0 0
231773.0 345596.0 0
234523.0 345369.0 0
234715.0 342696.0 0
238281.0 345644.0 0
242109.0 345375.0 0
244042.0 347382.0 0
246450.0 344238.0 0
247373.0 348124.0 0
253771.0 343374.0 0
250504.0 345034.0 0
257479.0 345795.0 0
262496.0 345275.0 0
266970.0 343690.0 0
265736.0 347260.0 0
269373.0 346368.0 0
273312.0 344823.0 0
275004.0 347720.0 0
279825.0 343332.0 0
276026.0 343055.0 0
277596.0 346129.0 0
284408.0 343673.0 0
281979.0 345788.0 0
284101.0 347630.0 0
286940.0 345849.0 0
290507.0 345593.0 0
294565.0 344292.0 0
293711.0 346105.0 0
297574.0 344711.0 0
297398.0 347633.0 0
303051.0 346414.0 0
195692.0 352000.0 0
201774.0 348633.0 0
202919.0 351546.0 0
204884.0 348628.0 0
208220.0 348589.0 0
206844.0 351221.0 0
212154.0 348645.0 0
210293.0 351781.0 0
218372.0 349291.0 0
214759.0 351598.0 0
223212.0 349625.0 0
221312.0 352430.0 0
226784.0 350448.0 0
233697.0 349390.0 0
230550.0 349801.0 0
237476.0 350602.0 0
241434.0 349758.0 0
245199.0 351565.0 0
248409.0 353210.0 0
250915.0 349707.0 0
254339.0 348029.0 0
253432.0 352680.0 0
259956.0 349501.0 0
256451.0 351158.0 0
263419.0 350469.0 0
267439.0 351859.0 0
271448.0 349627.0 0
273970.0 351797.0 0
279736.0 348450.0 0
276651.0 349790.0 0
280233.0 352074.0 0
283391.0 350633.0 0
287576.0 349524.0 0
286787.0 352615.0 0
291135.0 348678.0 0
293894.0 348532.0 0
291036.0 351882.0 0
294165.0 351817.0 0
297425.0 350761.0 0
202214.0 354695.0 0
202858.0 357678.0 0
207111.0 353641.0 0
205043.0 354332.0 0
206714.0 357179.0 0
210018.0 354962.0 0
213609.0 354478.0 0
217755.0 353442.0 0
217319.0 356171.0 0
221044.0 356212.0 0
224869.0 353438.0 0
224788.0 357297.0 0
228188.0 356135.0 0
229717.0 353212.0 0
232816.0 353189.0 0
233103.0 356237.0 0
235319.0 353315.0 0
238925.0 354220.0 0
236099.0 355238.0 0
239644.0 357521.0 0
241685.0 353283.0 0
243658.0 355527.0 0
247086.0 356476.0 0
251311.0 355132.0 0
250389.0 358227.0 0
254070.0 356210.0 0
257051.0 355141.0 0
260284.0 353583.0 0
263005.0 353834.0 0
260193.0 357731.0 0
263177.0 357466.0 0
266363.0 356297.0 0
269523.0 356868.0 0
270801.0 354214.0 0
273135.0 354767.0 0
274063.0 357443.0 0
277052.0 353282.0 0
277784.0 357158.0 0
281420.0 354958.0 0
284237.0 353984.0 0
282805.0 357339.0 0
289351.0 355036.0 0
286292.0 357409.0 0
294937.0 355026.0 0
292519.0 357239.0 0
298342.0 353251.0 0
297938.0 355704.0 0
202876.0 361322.0 0
206187.0 360372.0 0
208442.0 362288.0 0
213316.0 358593.0 0
209866.0 359191.0 0
211251.0 363014.0 0
213735.0 362078.0 0
217517.0 359544.0 0
217164.0 362560.0 0
220571.0 359752.0 0
219766.0 363527.0 0
224091.0 361482.0 0
227868.0 360583.0 0
230610.0 358863.0 0
234061.0 361181.0 0
236127.0 358366.0 0
238239.0 360784.0 0
242602.0 359496.0 0
240094.0 361391.0 0
243356.0 363304.0 0
245881.0 359406.0 0
248218.0 359585.0 0
250210.0 361890.0 0
246892.0 362285.0 0
253290.0 358709.0 0
254290.0 362773.0 0
256755.0 359715.0 0
260421.0 361912.0 0
263958.0 360972.0 0
266655.0 359929.0 0
269004.0 361569.0 0
271192.0 359033.0 0
273929.0 361178.0 0
276840.0 361256.0 0
280597.0 359172.0 0
281949.0 362062.0 0
284693.0 360306.0 0
289255.0 360414.0 0
286793.0 362473.0 0
294050.0 360100.0 0
291483.0 363007.0 0
297780.0 358317.0 0
297073.0 361334.0 0
201925.0 364603.0 0
201986.0 367258.0 0
205296.0 364236.0 0
205152.0 367158.0 0
208345.0 367870.0 0
208810.0 365318.0 0
211598.0 365412.0 0
211297.0 367916.0 0
214075.0 368179.0 0
215086.0 365368.0 0
217943.0 366518.0 0
221078.0 366417.0 0
224940.0 365989.0 0
228657.0 363410.0 0
228759.0 366830.0 0
231317.0 363620.0 0
231888.0 367461.0 0
234232.0 365691.0 0
239958.0 363462.0 0
236746.0 363826.0 0
237861.0 367069.0 0
241101.0 365711.0 0
243004.0 367911.0 0
245827.0 366294.0 0
249296.0 365740.0 0
252820.0 366835.0 0
258231.0 365159.0 0
256078.0 368382.0 0
264756.0 363455.0 0
262274.0 365753.0 0
264784.0 367633.0 0
267754.0 364994.0 0
269531.0 367958.0 0
272254.0 363756.0 0
274616.0 364877.0 0
271996.0 366654.0 0
273908.0 368064.0 0
278499.0 364640.0 0
276948.0 368331.0 0
281802.0 366892.0 0
284545.0 364800.0 0
285602.0 367257.0 0
288567.0 365479.0 0
294135.0 364074.0 0
293279.0 368345.0 0
291364.0 366448.0 0
295341.0 366583.0 0
297712.0 364230.0 0
298172.0 366859.0 0
196708.0 371963.0 0
202133.0 370148.0 0
208788.0 371198.0 0
205067.0 370552.0 0
211568.0 371409.0 0
214539.0 372023.0 0
216306.0 369977.0 0
219478.0 370200.0 0
223029.0 370555.0 0
226481.0 370731.0 0
229949.0 371003.0 0
235253.0 369133.0 0
233369.0 372068.0 0
237783.0 372021.0 0
240259.0 369416.0 0
244043.0 370275.0 0
240244.0 374021.0 0
242493.0 372378.0 0
247761.0 370879.0 0
251644.0 370311.0 0
253532.0 372326.0 0
256438.0 371435.0 0
260031.0 369309.0 0
262863.0 369505.0 0
261000.0 372836.0 0
264095.0 372145.0 0
266614.0 370445.0 0
269277.0 372416.0 0
272317.0 370847.0 0
279153.0 370186.0 0
275426.0 372084.0 0
278360.0 372667.0 0
282278.0 369883.0 0
281648.0 372994.0 0
285492.0 369831.0 0
288393.0 368300.0 0
289897.0 370239.0 0
286037.0 372646.0 0
288776.0 372857.0 0
293475.0 371876.0 0
297988.0 369159.0 0
296874.0 372126.0 0
195188.0 380268.0 0
199226.0 377616.0 0
197604.0 379403.0 0
201323.0 374926.0 0
202119.0 373010.0 0
202023.0 378741.0 0
204526.0 376875.0 0
206109.0 374067.0 0
209239.0 375612.0 0
212191.0 374996.0 0
213458.0 378343.0 0
215847.0 374323.0 0
215796.0 377421.0 0
219289.0 374230.0 0
218800.0 378016.0 0
222805.0 377894.0 0
222953.0 374754.0 0
225906.0 374599.0 0
227358.0 377561.0 0
224801.0 378566.0 0
230164.0 375380.0 0
231815.0 378198.0 0
234760.0 377836.0 0
235114.0 374617.0 0
237770.0 376228.0 0
240495.0 377167.0 0
243744.0 377054.0 0
249909.0 374258.0 0
245328.0 374387.0 0
248384.0 376717.0 0
252471.0 375085.0 0
255098.0 375983.0 0
251433.0 378377.0 0
257766.0 374581.0 0
257855.0 378963.0 0
262247.0 375835.0 0
259971.0 377259.0 0
264101.0 378667.0 0
265400.0 374943.0 0
269165.0 375913.0 0
272673.0 374104.0 0
272107.0 377485.0 0
275082.0 375609.0 0
278707.0 375176.0 0
276167.0 379166.0 0
279731.0 378619.0 0
284221.0 374602.0 0
281912.0 376069.0 0
285519.0 376996.0 0
288535.0 375825.0 0
291506.0 374563.0 0
293062.0 376494.0 0
303302.0 372324.0 0
295969.0 375408.0 0
297180.0 377353.0 0
299044.0 376552.0 0
300696.0 377985.0 0
302782.0 379078.0 0
298484.0 380348.0 0
304572.0 380258.0 0
187034.0 385246.0 0
189766.0 383722.0 0
189194.0 385414.0 0
191588.0 382466.0 0
193577.0 381745.0 0
192191.0 384402.0 0
195440.0 383397.0 0
192702.0 385937.0 0
195342.0 386330.0 0
198662.0 381744.0 0
199897.0 383637.0 0
197882.0 386369.0 0
201685.0 385291.0 0
202837.0 381214.0 0
204359.0 383398.0 0
206753.0 379473.0 0
207201.0 382762.0 0
208689.0 384670.0 0
209991.0 379272.0 0
211368.0 382531.0 0
214674.0 381772.0 0
217198.0 380845.0 0
219284.0 383040.0 0
221319.0 380358.0 0
223336.0 381855.0 0
221538.0 384937.0 0
225197.0 380764.0 0
225132.0 383384.0 0
227950.0 380492.0 0
227343.0 383733.0 0
230968.0 381041.0 0
233862.0 382679.0 0
236951.0 380750.0 0
240607.0 381057.0 0
243775.0 380972.0 0
244212.0 384316.0 0
246901.0 379682.0 0
249487.0 382063.0 0
254558.0 379501.0 0
256554.0 382100.0 0
259189.0 383464.0 0
261614.0 381240.0 0
264728.0 384001.0 0
267425.0 379628.0 0
272983.0 380739.0 0
269778.0 381911.0 0
274396.0 384245.0 0
277004.0 382504.0 0
279251.0 382774.0 0
283418.0 379922.0 0
282646.0 383503.0 0
287155.0 381107.0 0
288850.0 378504.0 0
286299.0 384157.0 0
291850.0 379821.0 0
291666.0 383211.0 0
295050.0 379461.0 0
296583.0 382719.0 0
294711.0 382479.0 0
295670.0 384568.0 0
300936.0 382352.0 0
298714.0 384602.0 0
306470.0 382339.0 0
303653.0 384077.0 0
308920.0 383211.0 0
311073.0 385042.0 0
178214.0 391471.0 0
180434.0 390273.0 0
182530.0 388400.0 0
185209.0 387513.0 0
182889.0 391389.0 0
190352.0 387315.0 0
186826.0 388901.0 0
190869.0 390342.0 0
194097.0 389756.0 0
198127.0 389452.0 0
199993.0 387689.0 0
204303.0 386888.0 0
202092.0 389384.0 0
209582.0 388218.0 0
206673.0 387827.0 0
212106.0 386386.0 0
213457.0 389405.0 0
215366.0 385052.0 0
215907.0 389534.0 0
217932.0 386872.0 0
219673.0 389358.0 0
223651.0 386347.0 0
222258.0 389472.0 0
226327.0 387392.0 0
229322.0 388603.0 0
229793.0 384452.0 0
233135.0 386342.0 0
236483.0 386854.0 0
237997.0 384522.0 0
240818.0 384868.0 0
241044.0 388117.0 0
243847.0 387979.0 0
246902.0 385149.0 0
249058.0 387009.0 0
245899.0 389115.0 0
252778.0 384825.0 0
256669.0 385915.0 0
257987.0 389154.0 0
263103.0 387264.0 0
260325.0 386573.0 0
267952.0 385028.0 0
265383.0 389191.0 0
268362.0 388502.0 0
271504.0 385293.0 0
273404.0 387435.0 0
271246.0 388728.0 0
276488.0 386760.0 0
278886.0 386075.0 0
275621.0 389830.0 0
281803.0 386491.0 0
286130.0 386617.0 0
289126.0 387629.0 0
284238.0 388981.0 0
289331.0 384722.0 0
291587.0 388068.0 0
292618.0 389767.0 0
293448.0 385796.0 0
297719.0 386411.0 0
295623.0 387385.0 0
295636.0 390048.0 0
301523.0 386553.0 0
300663.0 388925.0 0
298631.0 390269.0 0
303049.0 390764.0 0
305869.0 386681.0 0
308674.0 386615.0 0
305376.0 389083.0 0
313458.0 386476.0 0
309332.0 389427.0 0
311912.0 389196.0 0
315853.0 388368.0 0
316229.0 390949.0 0
318953.0 388906.0 0
320904.0 391434.0 0
171244.0 396196.0 0
173946.0 394769.0 0
176115.0 392632.0 0
180364.0 393633.0 0
179586.0 395799.0 0
184891.0 393043.0 0
183349.0 395240.0 0
188367.0 392595.0 0
188339.0 395997.0 0
192297.0 394258.0 0
194604.0 394303.0 0
196802.0 391794.0 0
200533.0 391205.0 0
199347.0 394449.0 0
203773.0 391568.0 0
202255.0 395410.0 0
205514.0 394912.0 0
206356.0 391592.0 0
209247.0 391365.0 0
207927.0 396285.0 0
212379.0 391585.0 0
212141.0 394309.0 0
214762.0 393419.0 0
216342.0 392013.0 0
218884.0 392429.0 0
221101.0 392782.0 0
224548.0 391609.0 0
223089.0 394786.0 0
227584.0 392592.0 0
230192.0 393022.0 0
231700.0 391082.0 0
232269.0 393827.0 0
233838.0 389948.0 0
234485.0 393341.0 0
235812.0 391129.0 0
238313.0 389590.0 0
236619.0 395077.0 0
239560.0 393534.0 0
244439.0 391670.0 0
242307.0 391170.0 0
248379.0 390094.0 0
245360.0 394449.0 0
248759.0 393664.0 0
251032.0 389537.0 0
251765.0 393096.0 0
254189.0 390074.0 0
258619.0 393424.0 0
255625.0 393323.0 0
261282.0 391081.0 0
264462.0 393239.0 0
267947.0 392109.0 0
270286.0 393481.0 0
273212.0 391925.0 0
275079.0 394947.0 0
278424.0 390194.0 0
277752.0 393038.0 0
280698.0 389850.0 0
279819.0 394685.0 0
281707.0 392567.0 0
285091.0 393316.0 0
287905.0 390863.0 0
292728.0 392448.0 0
290303.0 392589.0 0
291605.0 395487.0 0
295804.0 393813.0 0
299081.0 394226.0 0
301543.0 393642.0 0
306282.0 391831.0 0
304394.0 394062.0 0
308886.0 395186.0 0
308760.0 391930.0 0
313242.0 391874.0 0
312263.0 394810.0 0
319448.0 393561.0 0
316378.0 394028.0 0
324021.0 392053.0 0
323388.0 394917.0 0
325953.0 393514.0 0
327753.0 395519.0 0
163769.0 400578.0 0
161680.0 401776.0 0
169041.0 398288.0 0
166099.0 399412.0 0
173033.0 398578.0 0
173089.0 401266.0 0
176443.0 396746.0 0
176030.0 399849.0 0
179035.0 400566.0 0
180902.0 398171.0 0
184271.0 397221.0 0
182968.0 399270.0 0
185894.0 399736.0 0
186377.0 397589.0 0
191092.0 397395.0 0
189245.0 399490.0 0
193537.0 398579.0 0
196314.0 397087.0 0
197488.0 399958.0 0
199648.0 398512.0 0
201309.0 400657.0 0
203805.0 398966.0 0
209448.0 393958.0 0
206263.0 399438.0 0
209305.0 400261.0 0
211719.0 397547.0 0
215500.0 396421.0 0
213516.0 400548.0 0
218341.0 395674.0 0
217004.0 400191.0 0
220752.0 396523.0 0
221729.0 398709.0 0
224925.0 396570.0 0
224344.0 399580.0 0
228037.0 396221.0 0
231269.0 396419.0 0
231534.0 399995.0 0
234029.0 396643.0 0
234606.0 399290.0 0
236833.0 398179.0 0
239632.0 398382.0 0
242345.0 395370.0 0
242790.0 399839.0 0
245810.0 398155.0 0
249481.0 397352.0 0
253368.0 395073.0 0
252285.0 397254.0 0
255606.0 396533.0 0
259040.0 397483.0 0
262132.0 396098.0 0
264126.0 399012.0 0
266592.0 396833.0 0
269766.0 396836.0 0
272936.0 397306.0 0
276995.0 397614.0 0
280600.0 398497.0 0
282630.0 395447.0 0
284217.0 397210.0 0
287767.0 395623.0 0
286407.0 398031.0 0
290245.0 399696.0 0
289841.0 396597.0 0
293149.0 399513.0 0
294682.0 396936.0 0
297923.0 399296.0 0
300090.0 397598.0 0
302919.0 398615.0 0
305843.0 397115.0 0
308268.0 399841.0 0
314176.0 397283.0 0
310533.0 398468.0 0
313457.0 400594.0 0
317136.0 398272.0 0
318070.0 401081.0 0
319633.0 396734.0 0
321733.0 398897.0 0
324571.0 397345.0 0
325984.0 399749.0 0
328256.0 400501.0 0
329922.0 397021.0 0
332265.0 398829.0 0
335474.0 399263.0 0
337083.0 401440.0 0
153026.0 406988.0 0
156860.0 403845.0 0
159509.0 402728.0 0
155436.0 406017.0 0
159105.0 405302.0 0
163716.0 404772.0 0
166442.0 403544.0 0
169663.0 401967.0 0
166739.0 406819.0 0
170341.0 405011.0 0
172949.0 405314.0 0
175282.0 403689.0 0
180788.0 403430.0 0
177809.0 404847.0 0
183218.0 402034.0 0
186969.0 402813.0 0
190193.0 402430.0 0
185924.0 405852.0 0
190445.0 405402.0 0
193211.0 401811.0 0
193738.0 404911.0 0
196367.0 402070.0 0
197702.0 404301.0 0
204003.0 402192.0 0
200933.0 403336.0 0
202396.0 405892.0 0
205709.0 402742.0 0
205175.0 405696.0 0
208546.0 404089.0 0
211843.0 402982.0 0
213540.0 404973.0 0
219826.0 401121.0 0
216006.0 403436.0 0
217807.0 405426.0 0
220538.0 405160.0 0
222794.0 402512.0 0
225102.0 403897.0 0
227773.0 400857.0 0
229477.0 405071.0 0
232784.0 404116.0 0
235696.0 402603.0 0
238056.0 401423.0 0
240590.0 403575.0 0
245277.0 402675.0 0
243364.0 404864.0 0
248710.0 401330.0 0
252122.0 401721.0 0
254067.0 399553.0 0
257047.0 400746.0 0
256867.0 404893.0 0
260456.0 402942.0 0
261509.0 400508.0 0
265227.0 402294.0 0
267575.0 400757.0 0
270260.0 400479.0 0
269672.0 403031.0 0
272806.0 400905.0 0
270904.0 405037.0 0
273159.0 404202.0 0
275477.0 400155.0 0
276134.0 403531.0 0
278613.0 402995.0 0
278571.0 400953.0 0
280846.0 403937.0 0
283054.0 401159.0 0
284243.0 404976.0 0
287467.0 401105.0 0
287807.0 404524.0 0
292662.0 402991.0 0
291110.0 405205.0 0
296314.0 401255.0 0
295688.0 404051.0 0
298850.0 404984.0 0
299678.0 402005.0 0
301900.0 401655.0 0
304282.0 402046.0 0
306709.0 401966.0 0
304493.0 405296.0 0
307475.0 405773.0 0
311090.0 401968.0 0
310405.0 404710.0 0
315883.0 402445.0 0
314622.0 404859.0 0
317801.0 405497.0 0
321334.0 401784.0 0
320945.0 404879.0 0
324466.0 402575.0 0
326097.0 404519.0 0
329332.0 403769.0 0
332273.0 401920.0 0
339381.0 402756.0 0
334882.0 403788.0 0
338120.0 406016.0 0
341720.0 404052.0 0
343794.0 405022.0 0
346091.0 405498.0 0
347572.0 407072.0 0
149219.0 409630.0 0
144501.0 411873.0 0
147411.0 411561.0 0
150876.0 407776.0 0
153606.0 409666.0 0
151673.0 410833.0 0
156164.0 408502.0 0
159839.0 408134.0 0
157753.0 410563.0 0
163102.0 408389.0 0
168913.0 407681.0 0
165277.0 410397.0 0
167613.0 410450.0 0
173509.0 407585.0 0
171136.0 409506.0 0
175329.0 411552.0 0
178350.0 408153.0 0
175373.0 408685.0 0
179213.0 411332.0 0
182582.0 406847.0 0
182712.0 410134.0 0
187602.0 408649.0 0
185758.0 411451.0 0
190715.0 408204.0 0
194179.0 408104.0 0
197104.0 407456.0 0
199840.0 408514.0 0
202569.0 409671.0 0
203928.0 408531.0 0
209145.0 407411.0 0
206468.0 409165.0 0
211928.0 407946.0 0
212740.0 411036.0 0
215234.0 407806.0 0
217505.0 410071.0 0
220487.0 409144.0 0
223422.0 406546.0 0
226755.0 405819.0 0
225605.0 408989.0 0
229885.0 409746.0 0
234188.0 408050.0 0
237539.0 406285.0 0
238948.0 410858.0 0
240799.0 407904.0 0
244736.0 406677.0 0
243895.0 409673.0 0
247549.0 405829.0 0
250409.0 406298.0 0
250560.0 410152.0 0
253445.0 405179.0 0
253685.0 409445.0 0
256512.0 409480.0 0
259730.0 407257.0 0
259508.0 410254.0 0
263193.0 405758.0 0
262499.0 409842.0 0
265517.0 408878.0 0
267891.0 405806.0 0
270156.0 408891.0 0
273445.0 407978.0 0
276118.0 410535.0 0
277021.0 406667.0 0
280011.0 407685.0 0
283689.0 409127.0 0
287653.0 407843.0 0
291782.0 407651.0 0
289734.0 410369.0 0
294820.0 406444.0 0
294224.0 409047.0 0
297704.0 407466.0 0
296415.0 409920.0 0
299082.0 410214.0 0
301793.0 406185.0 0
301738.0 409953.0 0
305120.0 408311.0 0
304498.0 409916.0 0
308055.0 408780.0 0
307081.0 411329.0 0
312731.0 407258.0 0
310762.0 409235.0 0
317612.0 408423.0 0
314854.0 409353.0 0
322604.0 407442.0 0
320213.0 410211.0 0
325414.0 407523.0 0
324964.0 410986.0 0
328615.0 409974.0 0
330560.0 407056.0 0
334150.0 406914.0 0
334351.0 410232.0 0
337152.0 408443.0 0
339108.0 410053.0 0
340615.0 407156.0 0
344624.0 407847.0 0
342169.0 409537.0 0
348951.0 408815.0 0
345789.0 410308.0 0
347502.0 410951.0 0
351195.0 409712.0 0
353264.0 411913.0 0
138041.0 416103.0 0
142751.0 414143.0 0
140593.0 415432.0 0
145901.0 415173.0 0
149356.0 413584.0 0
152594.0 412943.0 0
151287.0 415702.0 0
155371.0 412181.0 0
159480.0 412441.0 0
156031.0 414797.0 0
158588.0 414887.0 0
161976.0 411907.0 0
163240.0 414799.0 0
165786.0 413620.0 0
168305.0 413037.0 0
166892.0 415987.0 0
168430.0 417154.0 0
169180.0 415524.0 0
171955.0 412224.0 0
172259.0 415069.0 0
175647.0 414439.0 0
178980.0 414362.0 0
182424.0 413022.0 0
182200.0 415004.0 0
184852.0 414361.0 0
188833.0 413125.0 0
187692.0 415153.0 0
190820.0 411686.0 0
194023.0 411909.0 0
190677.0 415345.0 0
193421.0 415157.0 0
196917.0 411888.0 0
199565.0 412146.0 0
196695.0 415444.0 0
200195.0 414989.0 0
202609.0 411957.0 0
205732.0 413230.0 0
209978.0 412117.0 0
207508.0 416679.0 0
210658.0 415726.0 0
215701.0 412988.0 0
213638.0 415490.0 0
218082.0 416062.0 0
219787.0 413680.0 0
222959.0 412511.0 0
227124.0 413791.0 0
230179.0 415149.0 0
232455.0 413240.0 0
235867.0 411856.0 0
240342.0 414851.0 0
242312.0 412658.0 0
245067.0 414379.0 0
247146.0 410656.0 0
248615.0 414481.0 0
251349.0 413615.0 0
253719.0 412216.0 0
256422.0 413496.0 0
260179.0 414735.0 0
263637.0 412995.0 0
267007.0 411747.0 0
270783.0 413853.0 0
273405.0 411978.0 0
274655.0 415468.0 0
276260.0 413713.0 0
279054.0 411343.0 0
279165.0 414589.0 0
281309.0 411996.0 0
281895.0 414610.0 0
284239.0 413485.0 0
287003.0 412095.0 0
287889.0 415030.0 0
289980.0 414213.0 0
292759.0 412738.0 0
292980.0 416394.0 0
295865.0 413251.0 0
298426.0 412925.0 0
300066.0 415276.0 0
302550.0 413393.0 0
303935.0 416378.0 0
305414.0 413391.0 0
306685.0 416457.0 0
309220.0 415495.0 0
309821.0 412784.0 0
312339.0 412129.0 0
312981.0 415085.0 0
315427.0 412207.0 0
318184.0 413009.0 0
315057.0 415166.0 0
318844.0 415715.0 0
322768.0 412149.0 0
322689.0 414771.0 0
324560.0 416646.0 0
325679.0 414149.0 0
327685.0 413370.0 0
329029.0 415962.0 0
332075.0 411990.0 0
331032.0 414339.0 0
334845.0 414704.0 0
332522.0 416070.0 0
337048.0 412225.0 0
339870.0 413902.0 0
339093.0 416635.0 0
342998.0 412898.0 0
348267.0 412987.0 0
345529.0 414695.0 0
347476.0 417170.0 0
350225.0 416238.0 0
350677.0 413722.0 0
353539.0 415259.0 0
356177.0 413074.0 0
358336.0 415411.0 0
361174.0 416153.0 0
128584.0 421630.0 0
133258.0 419255.0 0
131575.0 421164.0 0
135743.0 417818.0 0
135137.0 421882.0 0
137142.0 420131.0 0
139711.0 419003.0 0
142606.0 418810.0 0
141521.0 421938.0 0
148039.0 417154.0 0
145017.0 419031.0 0
149137.0 419929.0 0
144996.0 422309.0 0
154079.0 417730.0 0
152235.0 420409.0 0
157057.0 418556.0 0
155483.0 421424.0 0
159290.0 420498.0 0
160688.0 417217.0 0
163046.0 419428.0 0
165036.0 417609.0 0
161352.0 421834.0 0
163544.0 421663.0 0
166554.0 418942.0 0
166567.0 421888.0 0
169971.0 418950.0 0
169555.0 421485.0 0
172610.0 417911.0 0
173813.0 420802.0 0
175556.0 417105.0 0
178703.0 417957.0 0
176624.0 420835.0 0
185312.0 417952.0 0
182217.0 419386.0 0
189035.0 417683.0 0
186983.0 420609.0 0
190882.0 419493.0 0
188937.0 421948.0 0
193440.0 418145.0 0
198052.0 417643.0 0
195404.0 419432.0 0
202793.0 416470.0 0
200417.0 420361.0 0
204755.0 418167.0 0
203801.0 421336.0 0
207405.0 420094.0 0
211015.0 419642.0 0
214945.0 419022.0 0
220581.0 418165.0 0
218129.0 420271.0 0
222829.0 416543.0 0
226290.0 417850.0 0
230226.0 417925.0 0
233577.0 417125.0 0
236995.0 416032.0 0
237934.0 420364.0 0
242963.0 416020.0 0
240586.0 417969.0 0
243371.0 419034.0 0
246733.0 417803.0 0
250423.0 418254.0 0
253401.0 416284.0 0
253492.0 419741.0 0
256816.0 418369.0 0
264969.0 415911.0 0
260085.0 419436.0 0
263051.0 417934.0 0
267745.0 416612.0 0
265662.0 418918.0 0
264712.0 420885.0 0
269837.0 419702.0 0
272473.0 417758.0 0
276256.0 417419.0 0
274917.0 419083.0 0
278467.0 420163.0 0
278695.0 417483.0 0
281271.0 418173.0 0
282875.0 417080.0 0
285727.0 416718.0 0
284613.0 420497.0 0
288056.0 419893.0 0
290019.0 417223.0 0
290910.0 421141.0 0
292835.0 419480.0 0
296876.0 417119.0 0
295937.0 421016.0 0
302106.0 418132.0 0
299833.0 419617.0 0
303817.0 420619.0 0
306915.0 419554.0 0
311620.0 417217.0 0
309816.0 418820.0 0
314051.0 419704.0 0
316396.0 417596.0 0
319227.0 418896.0 0
318034.0 419573.0 0
320741.0 417455.0 0
320104.0 420225.0 0
322610.0 419046.0 0
323874.0 421213.0 0
326580.0 417597.0 0
327707.0 420673.0 0
330909.0 418558.0 0
333160.0 419619.0 0
336079.0 417564.0 0
337286.0 420339.0 0
341213.0 418478.0 0
343375.0 417494.0 0
340360.0 421846.0 0
345313.0 420551.0 0
343546.0 421439.0 0
345249.0 419053.0 0
348549.0 419857.0 0
351723.0 419126.0 0
353759.0 417315.0 0
351334.0 421921.0 0
354194.0 421142.0 0
356580.0 417907.0 0
360045.0 419529.0 0
357096.0 421175.0 0
363582.0 417421.0 0
365575.0 419760.0 0
362182.0 420677.0 0
367814.0 421362.0 0
370940.0 421994.0 0
121002.0 427419.0 0
123948.0 425002.0 0
126620.0 423887.0 0
128707.0 425843.0 0
131709.0 424324.0 0
138863.0 422702.0 0
134569.0 425434.0 0
137749.0 425435.0 0
141671.0 426211.0 0
142927.0 423926.0 0
147532.0 422257.0 0
149194.0 424460.0 0
145453.0 425102.0 0
152053.0 422902.0 0
150175.0 426830.0 0
153865.0 424388.0 0
153366.0 426775.0 0
157259.0 423548.0 0
160314.0 424778.0 0
163043.0 425418.0 0
166595.0 425258.0 0
171596.0 423042.0 0
169682.0 425418.0 0
175179.0 424112.0 0
173363.0 425060.0 0
178206.0 423077.0 0
177664.0 425606.0 0
180975.0 422639.0 0
184437.0 422448.0 0
182132.0 425110.0 0
186672.0 423854.0 0
185007.0 426246.0 0
189065.0 425755.0 0
192516.0 423283.0 0
193457.0 426683.0 0
196581.0 422266.0 0
197445.0 425210.0 0
200624.0 424255.0 0
204193.0 424444.0 0
207833.0 423750.0 0
211432.0 423521.0 0
214774.0 422701.0 0
215094.0 425686.0 0
218267.0 423335.0 0
221602.0 421662.0 0
224220.0 420470.0 0
222927.0 425374.0 0
226039.0 423124.0 0
227721.0 420932.0 0
229515.0 425024.0 0
230655.0 421126.0 0
234088.0 420943.0 0
233242.0 424924.0 0
236819.0 424538.0 0
239686.0 425347.0 0
241317.0 422418.0 0
244976.0 422420.0 0
243297.0 425509.0 0
246833.0 425648.0 0
247287.0 421236.0 0
250918.0 422764.0 0
254490.0 425277.0 0
255892.0 421969.0 0
259273.0 422925.0 0
262956.0 425810.0 0
262574.0 421597.0 0
265827.0 423895.0 0
267385.0 421421.0 0
269305.0 425573.0 0
272291.0 422871.0 0
276199.0 425585.0 0
275926.0 422165.0 0
279157.0 424034.0 0
281640.0 421437.0 0
282667.0 424677.0 0
286694.0 424872.0 0
290294.0 424056.0 0
294259.0 424535.0 0
298045.0 425188.0 0
299369.0 422418.0 0
302936.0 423875.0 0
308603.0 422285.0 0
306825.0 425427.0 0
311671.0 422106.0 0
311000.0 425925.0 0
314196.0 424771.0 0
319413.0 423038.0 0
316423.0 422370.0 0
317204.0 425450.0 0
321189.0 426150.0 0
324358.0 424061.0 0
326603.0 426172.0 0
329106.0 423639.0 0
331797.0 422508.0 0
334970.0 422585.0 0
333685.0 425116.0 0
335809.0 426777.0 0
337721.0 424807.0 0
342671.0 425562.0 0
347820.0 422765.0 0
345773.0 424798.0 0
350548.0 424085.0 0
353250.0 423127.0 0
352439.0 425453.0 0
354693.0 425794.0 0
356159.0 424306.0 0
359324.0 423304.0 0
358228.0 425633.0 0
362101.0 423986.0 0
364743.0 424305.0 0
361545.0 427111.0 0
368194.0 425013.0 0
366343.0 427078.0 0
370666.0 426297.0 0
373153.0 424253.0 0
375723.0 426158.0 0
378156.0 427487.0 0
113355.0 432490.0 0
118622.0 429384.0 0
116204.0 431112.0 0
121198.0 431081.0 0
123846.0 427702.0 0
125314.0 430476.0 0
128208.0 428632.0 0
131235.0 429794.0 0
133422.0 428616.0 0
135833.0 430051.0 0
138650.0 428378.0 0
143242.0 428017.0 0
142790.0 430795.0 0
139943.0 430750.0 0
146064.0 427182.0 0
146859.0 429625.0 0
153840.0 429712.0 0
150164.0 429796.0 0
156596.0 427270.0 0
155172.0 432001.0 0
158777.0 430945.0 0
159547.0 428016.0 0
162920.0 428426.0 0
162367.0 430942.0 0
166471.0 428524.0 0
165084.0 430690.0 0
168840.0 430348.0 0
170687.0 427765.0 0
173322.0 427961.0 0
173917.0 430946.0 0
175803.0 427275.0 0
177378.0 428941.0 0
180277.0 427405.0 0
180844.0 430565.0 0
189172.0 428348.0 0
185072.0 429563.0 0
190484.0 431832.0 0
194547.0 429944.0 0
198251.0 427838.0 0
198484.0 431160.0 0
201426.0 427207.0 0
204599.0 427548.0 0
201517.0 430154.0 0
204446.0 430750.0 0
207693.0 427076.0 0
208334.0 431046.0 0
211979.0 427496.0 0
212254.0 431280.0 0
215098.0 429141.0 0
218413.0 427217.0 0
222114.0 429963.0 0
226447.0 428049.0 0
230155.0 429685.0 0
234116.0 428695.0 0
237984.0 428530.0 0
241520.0 428096.0 0
244439.0 428021.0 0
247209.0 430015.0 0
250973.0 427769.0 0
254827.0 428494.0 0
258061.0 426500.0 0
257145.0 431541.0 0
261591.0 430379.0 0
265533.0 429920.0 0
266669.0 427803.0 0
270782.0 429165.0 0
273654.0 426856.0 0
274016.0 431126.0 0
279174.0 426811.0 0
276618.0 428634.0 0
278681.0 430322.0 0
282513.0 428433.0 0
284684.0 431443.0 0
287534.0 429266.0 0
290812.0 426764.0 0
291365.0 429453.0 0
294782.0 428558.0 0
298242.0 428465.0 0
301287.0 426763.0 0
302602.0 429584.0 0
305406.0 428511.0 0
308989.0 429217.0 0
312045.0 429188.0 0
318769.0 428317.0 0
315341.0 427667.0 0
315978.0 431553.0 0
319250.0 431528.0 0
323799.0 428597.0 0
322390.0 431787.0 0
326766.0 431557.0 0
328834.0 428703.0 0
331538.0 426884.0 0
331324.0 430897.0 0
334634.0 429954.0 0
338836.0 430565.0 0
340028.0 427404.0 0
344250.0 429358.0 0
342682.0 432051.0 0
347426.0 428284.0 0
350244.0 427503.0 0
347594.0 431740.0 0
352588.0 430024.0 0
355635.0 428993.0 0
358911.0 428726.0 0
364097.0 428472.0 0
360554.0 431620.0 0
363993.0 431139.0 0
368128.0 429409.0 0
370705.0 428904.0 0
367235.0 431839.0 0
373574.0 428629.0 0
371808.0 432136.0 0
374048.0 430960.0 0
381045.0 428483.0 0
376261.0 431746.0 0
378396.0 430761.0 0
379997.0 432101.0 0
383144.0 430263.0 0
385993.0 431321.0 0
102520.0 437541.0 0
108386.0 435770.0 0
105769.0 437412.0 0
110459.0 433363.0 0
113657.0 435776.0 0
111062.0 437294.0 0
118725.0 434210.0 0
116568.0 437000.0 0
122756.0 432997.0 0
123521.0 435854.0 0
120657.0 436044.0 0
127548.0 432749.0 0
126302.0 435194.0 0
127796.0 436897.0 0
130451.0 432869.0 0
133207.0 433127.0 0
130363.0 435598.0 0
133475.0 435874.0 0
135478.0 432310.0 0
136726.0 435752.0 0
138970.0 433355.0 0
141445.0 434647.0 0
140098.0 436911.0 0
143665.0 435154.0 0
145179.0 432285.0 0
147701.0 433881.0 0
147904.0 436427.0 0
150094.0 432334.0 0
152159.0 433357.0 0
150234.0 435178.0 0
152252.0 436015.0 0
159371.0 434514.0 0
155755.0 435932.0 0
163141.0 433937.0 0
160356.0 436953.0 0
163481.0 436974.0 0
166397.0 433096.0 0
166532.0 436896.0 0
168654.0 435024.0 0
171159.0 432485.0 0
172729.0 435045.0 0
177065.0 432088.0 0
175725.0 435691.0 0
179732.0 434459.0 0
182000.0 433736.0 0
182235.0 436489.0 0
185938.0 433662.0 0
188387.0 436436.0 0
191844.0 435652.0 0
195127.0 433639.0 0
197909.0 435563.0 0
200868.0 433056.0 0
203391.0 434441.0 0
206192.0 435130.0 0
209558.0 435041.0 0
215260.0 432394.0 0
211897.0 433861.0 0
214118.0 436241.0 0
218630.0 431721.0 0
217864.0 435826.0 0
221918.0 434841.0 0
225520.0 432061.0 0
225898.0 435829.0 0
228962.0 433728.0 0
232859.0 432658.0 0
232802.0 436052.0 0
239468.0 431252.0 0
236546.0 432934.0 0
239887.0 434660.0 0
243237.0 431817.0 0
242596.0 436252.0 0
245986.0 435344.0 0
249349.0 433516.0 0
252433.0 431478.0 0
254780.0 434729.0 0
259374.0 434968.0 0
262802.0 435197.0 0
268515.0 431416.0 0
265305.0 432810.0 0
267214.0 435617.0 0
271454.0 434300.0 0
274606.0 435554.0 0
277270.0 433391.0 0
281263.0 432149.0 0
280962.0 435390.0 0
284401.0 434492.0 0
288245.0 433623.0 0
291843.0 432833.0 0
292484.0 435867.0 0
295391.0 432593.0 0
299649.0 432313.0 0
298538.0 436130.0 0
303372.0 434995.0 0
305128.0 431890.0 0
308090.0 432099.0 0
307450.0 435251.0 0
313016.0 432340.0 0
310489.0 433262.0 0
310457.0 436620.0 0
313839.0 436354.0 0
316354.0 434595.0 0
319048.0 435305.0 0
322668.0 435673.0 0
326391.0 435557.0 0
329468.0 436382.0 0
330007.0 432991.0 0
334288.0 433359.0 0
331724.0 434931.0 0
338559.0 434085.0 0
336375.0 435954.0 0
341349.0 434520.0 0
340763.0 436864.0 0
345382.0 434338.0 0
348260.0 436088.0 0
350793.0 432437.0 0
353529.0 433792.0 0
353874.0 435234.0 0
350750.0 435358.0 0
356091.0 432776.0 0
358103.0 434996.0 0
363494.0 434472.0 0
361562.0 437261.0 0
366560.0 435093.0 0
369844.0 433156.0 0
369609.0 435818.0 0
373775.0 435079.0 0
376870.0 435036.0 0
379647.0 434403.0 0
382772.0 432964.0 0
383755.0 435322.0 0
381167.0 437317.0 0
387840.0 432950.0 0
390482.0 433820.0 0
386654.0 436281.0 0
389834.0 436409.0 0
392472.0 434809.0 0
394042.0 435625.0 0
395623.0 437876.0 0
100835.0 439885.0 0
98544.3 441992.0 0
104045.0 440244.0 0
108337.0 439682.0 0
107632.0 442298.0 0
111674.0 439707.0 0
110931.0 442439.0 0
114384.0 439737.0 0
118926.0 439402.0 0
115062.0 441738.0 0
118029.0 442221.0 0
122638.0 438948.0 0
123001.0 442529.0 0
125814.0 439150.0 0
128673.0 439161.0 0
129180.0 442196.0 0
131867.0 437744.0 0
133082.0 440565.0 0
136180.0 438756.0 0
138620.0 440652.0 0
141280.0 439351.0 0
144606.0 438055.0 0
146830.0 441489.0 0
150379.0 439023.0 0
153776.0 440352.0 0
157965.0 438164.0 0
157155.0 441144.0 0
159940.0 438995.0 0
162984.0 440771.0 0
167294.0 440134.0 0
170711.0 437482.0 0
174236.0 438754.0 0
171293.0 441436.0 0
178952.0 437437.0 0
176964.0 440786.0 0
181075.0 439861.0 0
184919.0 439050.0 0
187377.0 441989.0 0
189472.0 439712.0 0
194130.0 438184.0 0
193315.0 441113.0 0
197126.0 439638.0 0
199850.0 440696.0 0
201027.0 437377.0 0
202811.0 441882.0 0
203648.0 438759.0 0
206446.0 438569.0 0
206109.0 441655.0 0
210402.0 438661.0 0
212929.0 441242.0 0
215389.0 439129.0 0
218216.0 439090.0 0
221511.0 439176.0 0
225192.0 439111.0 0
229199.0 438159.0 0
232450.0 440150.0 0
236530.0 437644.0 0
240360.0 439160.0 0
244818.0 439699.0 0
248837.0 438889.0 0
252038.0 436753.0 0
254213.0 439793.0 0
257144.0 437340.0 0
261104.0 439240.0 0
265053.0 438472.0 0
267140.0 440361.0 0
270131.0 438689.0 0
274453.0 439054.0 0
278213.0 437247.0 0
278507.0 441695.0 0
281100.0 439200.0 0
282680.0 437635.0 0
283168.0 441834.0 0
286180.0 438625.0 0
290090.0 437759.0 0
290801.0 441325.0 0
293480.0 439849.0 0
295508.0 436894.0 0
296259.0 440529.0 0
298241.0 439987.0 0
301198.0 438519.0 0
304373.0 440328.0 0
305776.0 437768.0 0
306960.0 440727.0 0
308127.0 438703.0 0
310819.0 440499.0 0
314081.0 440167.0 0
317862.0 439015.0 0
322208.0 439761.0 0
326630.0 439920.0 0
333426.0 437816.0 0
330203.0 439585.0 0
332287.0 442176.0 0
338713.0 439208.0 0
335464.0 440999.0 0
343974.0 437532.0 0
343569.0 441204.0 0
347581.0 438417.0 0
346952.0 441191.0 0
350029.0 440136.0 0
352506.0 438193.0 0
354355.0 441114.0 0
356123.0 437645.0 0
357260.0 440529.0 0
359972.0 440189.0 0
364749.0 439885.0 0
362293.0 442477.0 0
366950.0 437946.0 0
369177.0 439413.0 0
366453.0 442484.0 0
369153.0 441279.0 0
372361.0 437781.0 0
375581.0 439301.0 0
372078.0 440903.0 0
375406.0 441934.0 0
378258.0 438481.0 0
379216.0 441170.0 0
382976.0 439535.0 0
381782.0 441795.0 0
386096.0 442527.0 0
386357.0 439491.0 0
389426.0 439987.0 0
391148.0 437980.0 0
391165.0 442495.0 0
393095.0 438595.0 0
395803.0 440993.0 0
393557.0 442231.0 0
398038.0 438614.0 0
400072.0 440324.0 0
398026.0 441905.0 0
402401.0 441844.0 0
92768.2 445093.0 0
89797.8 446225.0 0
95712.6 443356.0 0
96873.5 446508.0 0
100486.0 444076.0 0
99563.0 446773.0 0
104295.0 443784.0 0
108445.0 444879.0 0
107889.0 446877.0 0
113087.0 445161.0 0
110361.0 447407.0 0
116757.0 444553.0 0
119031.0 447280.0 0
120837.0 444648.0 0
123159.0 447408.0 0
126084.0 443139.0 0
125510.0 446306.0 0
130187.0 445118.0 0
133082.0 446401.0 0
134382.0 443355.0 0
137660.0 443462.0 0
137529.0 446264.0 0
140831.0 444015.0 0
142841.0 442824.0 0
140696.0 446996.0 0
143913.0 447653.0 0
145875.0 445183.0 0
148393.0 446243.0 0
149791.0 443659.0 0
152816.0 444298.0 0
159475.0 442986.0 0
156137.0 444889.0 0
160414.0 445821.0 0
164089.0 444493.0 0
167858.0 444322.0 0
174158.0 442721.0 0
171328.0 445873.0 0
174912.0 446017.0 0
178252.0 444025.0 0
181117.0 442556.0 0
180536.0 446855.0 0
184263.0 443861.0 0
188039.0 444779.0 0
189967.0 447167.0 0
190843.0 443098.0 0
193896.0 446233.0 0
195804.0 442352.0 0
198513.0 443658.0 0
201141.0 445502.0 0
204766.0 444859.0 0
208769.0 442193.0 0
207471.0 444846.0 0
211571.0 445587.0 0
216421.0 443375.0 0
217177.0 446996.0 0
220292.0 442991.0 0
220711.0 446662.0 0
224173.0 443548.0 0
227752.0 441830.0 0
227590.0 445547.0 0
235171.0 441232.0 0
230465.0 443002.0 0
233873.0 444684.0 0
238016.0 443408.0 0
242567.0 443552.0 0
247341.0 444057.0 0
251410.0 442032.0 0
251706.0 446181.0 0
254672.0 444153.0 0
257674.0 441810.0 0
257502.0 445482.0 0
264310.0 442192.0 0
261285.0 444427.0 0
264629.0 446273.0 0
268210.0 444151.0 0
271838.0 442066.0 0
272325.0 445724.0 0
274905.0 443313.0 0
277417.0 445522.0 0
281275.0 445687.0 0
285130.0 445810.0 0
287544.0 442859.0 0
291841.0 444713.0 0
295093.0 443308.0 0
298664.0 443287.0 0
301327.0 442168.0 0
301464.0 446084.0 0
304646.0 444133.0 0
308285.0 442285.0 0
309009.0 446244.0 0
311601.0 443518.0 0
314705.0 443753.0 0
313306.0 446856.0 0
317967.0 442640.0 0
318126.0 445696.0 0
320982.0 442932.0 0
322347.0 446732.0 0
325517.0 443499.0 0
329311.0 442671.0 0
328713.0 445562.0 0
331916.0 444744.0 0
334290.0 445784.0 0
336649.0 444148.0 0
340105.0 442718.0 0
340896.0 446351.0 0
344999.0 446032.0 0
347971.0 444134.0 0
350525.0 443263.0 0
349790.0 446378.0 0
353153.0 442995.0 0
352006.0 445966.0 0
354737.0 445165.0 0
357469.0 443623.0 0
360544.0 444241.0 0
359225.0 447458.0 0
364701.0 444894.0 0
363039.0 447448.0 0
369626.0 444212.0 0
367960.0 446644.0 0
372644.0 444030.0 0
371206.0 447343.0 0
374911.0 446483.0 0
377842.0 443712.0 0
380042.0 445870.0 0
383387.0 444378.0 0
385050.0 447046.0 0
388530.0 444054.0 0
395466.0 444559.0 0
392037.0 446621.0 0
394329.0 446740.0 0
397767.0 444360.0 0
400876.0 444409.0 0
399075.0 447346.0 0
403216.0 445538.0 0
404991.0 443115.0 0
405283.0 447321.0 0
407133.0 444890.0 0
409660.0 446449.0 0
79409.8 452744.0 0
82101.7 451606.0 0
84859.6 450031.0 0
87502.4 448764.0 0
88203.5 452288.0 0
90401.7 449392.0 0
90774.2 451349.0 0
92471.0 453175.0 0
93614.4 448256.0 0
94635.0 451033.0 0
98021.2 449388.0 0
100688.0 452153.0 0
103906.0 448232.0 0
106839.0 451458.0 0
110148.0 450266.0 0
112995.0 451795.0 0
115001.0 448363.0 0
116795.0 451096.0 0
119951.0 450378.0 0
123023.0 450249.0 0
127946.0 447849.0 0
126126.0 450495.0 0
128813.0 452141.0 0
130383.0 449054.0 0
131540.0 451422.0 0
135234.0 449239.0 0
138803.0 449844.0 0
135202.0 452901.0 0
138006.0 452250.0 0
141588.0 451417.0 0
147015.0 450286.0 0
150719.0 447888.0 0
153897.0 448416.0 0
150617.0 451746.0 0
154342.0 452010.0 0
157252.0 447510.0 0
158554.0 451278.0 0
161444.0 448526.0 0
164348.0 447775.0 0
164643.0 450236.0 0
162576.0 451434.0 0
167359.0 447974.0 0
166977.0 451671.0 0
170272.0 448953.0 0
172866.0 448281.0 0
172864.0 450793.0 0
176381.0 449558.0 0
183430.0 447889.0 0
180477.0 450725.0 0
184004.0 451124.0 0
186179.0 447778.0 0
188565.0 448891.0 0
187576.0 451621.0 0
191331.0 450514.0 0
197875.0 447035.0 0
195651.0 450742.0 0
199590.0 449683.0 0
203586.0 448723.0 0
202293.0 452186.0 0
207335.0 448221.0 0
214100.0 449137.0 0
209988.0 450734.0 0
215852.0 451945.0 0
218631.0 450265.0 0
224258.0 447765.0 0
221521.0 449933.0 0
227589.0 449153.0 0
230809.0 446897.0 0
231850.0 450505.0 0
239478.0 447385.0 0
235461.0 448328.0 0
238160.0 451678.0 0
243562.0 447468.0 0
241335.0 450128.0 0
243883.0 451607.0 0
247885.0 449498.0 0
252606.0 450084.0 0
259336.0 447581.0 0
255675.0 448132.0 0
258696.0 450893.0 0
262463.0 449069.0 0
267261.0 449145.0 0
270239.0 448340.0 0
272531.0 449223.0 0
275381.0 447664.0 0
274947.0 451487.0 0
278900.0 449577.0 0
282811.0 449545.0 0
289057.0 447040.0 0
285956.0 449371.0 0
289305.0 451493.0 0
292219.0 449311.0 0
294276.0 447189.0 0
294780.0 450040.0 0
297530.0 447394.0 0
301273.0 450137.0 0
305279.0 449161.0 0
309443.0 450253.0 0
312321.0 449347.0 0
316044.0 447763.0 0
315299.0 451367.0 0
319318.0 449981.0 0
323574.0 451524.0 0
326542.0 448501.0 0
327781.0 451968.0 0
330891.0 448780.0 0
333670.0 448176.0 0
337554.0 447946.0 0
335801.0 451012.0 0
340910.0 450300.0 0
344156.0 449880.0 0
345220.0 452420.0 0
348843.0 448533.0 0
346969.0 450448.0 0
352242.0 448330.0 0
351766.0 451976.0 0
355444.0 450959.0 0
355855.0 448006.0 0
359610.0 450437.0 0
362609.0 450979.0 0
367149.0 450090.0 0
371125.0 449857.0 0
373683.0 449026.0 0
377951.0 448808.0 0
376563.0 452529.0 0
381107.0 450487.0 0
381871.0 448203.0 0
384187.0 450195.0 0
383684.0 452646.0 0
388662.0 447864.0 0
387388.0 451471.0 0
391856.0 450326.0 0
394510.0 451160.0 0
396475.0 448737.0 0
399250.0 451361.0 0
397632.0 453292.0 0
402276.0 449017.0 0
406303.0 450609.0 0
403929.0 451843.0 0
407241.0 448697.0 0
408709.0 450599.0 0
411886.0 448558.0 0
414863.0 449210.0 0
412330.0 452179.0 0
417097.0 451145.0 0
420026.0 452896.0 0
76101.6 454924.0 0
73372.1 457309.0 0
78778.0 455765.0 0
81760.3 457247.0 0
83689.5 454355.0 0
86361.3 454139.0 0
90178.4 453596.0 0
93175.5 455414.0 0
89744.4 455696.0 0
91683.2 456889.0 0
96794.7 453376.0 0
95937.5 456247.0 0
100024.0 456051.0 0
103639.0 454183.0 0
102147.0 457238.0 0
107929.0 454820.0 0
104699.0 456441.0 0
111095.0 454714.0 0
108584.0 458208.0 0
111860.0 457411.0 0
115025.0 454543.0 0
117241.0 453638.0 0
115205.0 457184.0 0
118569.0 457005.0 0
119871.0 453814.0 0
122763.0 454378.0 0
121988.0 457990.0 0
125310.0 453254.0 0
127942.0 455057.0 0
125227.0 457009.0 0
132280.0 454158.0 0
129966.0 457462.0 0
133845.0 455840.0 0
137010.0 454526.0 0
135378.0 456344.0 0
138378.0 456841.0 0
139699.0 453782.0 0
144476.0 453813.0 0
141178.0 455959.0 0
147599.0 455091.0 0
144649.0 457483.0 0
147672.0 457936.0 0
149975.0 454795.0 0
153140.0 456179.0 0
156912.0 455818.0 0
160378.0 455264.0 0
163828.0 454340.0 0
163861.0 457674.0 0
169967.0 452751.0 0
166993.0 455701.0 0
173107.0 454150.0 0
169583.0 455359.0 0
176697.0 453999.0 0
180843.0 454596.0 0
184918.0 455766.0 0
192865.0 452738.0 0
189642.0 454385.0 0
191447.0 457534.0 0
193100.0 455032.0 0
196161.0 454593.0 0
199399.0 453406.0 0
202440.0 455868.0 0
205898.0 452716.0 0
209308.0 455001.0 0
212719.0 452904.0 0
212396.0 456019.0 0
215830.0 455311.0 0
219675.0 454072.0 0
224074.0 452719.0 0
228355.0 452735.0 0
226606.0 456762.0 0
234642.0 453386.0 0
230803.0 454984.0 0
238115.0 456520.0 0
241441.0 453546.0 0
242558.0 456767.0 0
245992.0 454630.0 0
250446.0 453764.0 0
255096.0 453194.0 0
258432.0 455092.0 0
261747.0 453888.0 0
264995.0 452079.0 0
267768.0 453773.0 0
270032.0 456839.0 0
270848.0 452226.0 0
274490.0 455931.0 0
278098.0 453327.0 0
285136.0 452588.0 0
281852.0 452963.0 0
284405.0 456016.0 0
288070.0 455040.0 0
291380.0 457046.0 0
293275.0 453749.0 0
297257.0 452003.0 0
297052.0 456149.0 0
303785.0 452826.0 0
300838.0 454468.0 0
307227.0 453084.0 0
311510.0 452913.0 0
309965.0 456421.0 0
314720.0 456097.0 0
319746.0 454697.0 0
324288.0 455161.0 0
327943.0 455445.0 0
332283.0 452654.0 0
331011.0 456621.0 0
335099.0 456515.0 0
338816.0 454099.0 0
342986.0 453011.0 0
343427.0 456125.0 0
348489.0 452972.0 0
346254.0 455035.0 0
351266.0 455944.0 0
354990.0 455746.0 0
358049.0 453271.0 0
362125.0 455283.0 0
365626.0 457886.0 0
365939.0 453944.0 0
369816.0 453179.0 0
368558.0 456374.0 0
372742.0 453059.0 0
372276.0 457064.0 0
375888.0 457009.0 0
380482.0 454126.0 0
378935.0 457206.0 0
386177.0 454265.0 0
383300.0 456722.0 0
390048.0 452649.0 0
388571.0 456353.0 0
391238.0 454849.0 0
393653.0 454251.0 0
396556.0 455542.0 0
394640.0 457349.0 0
401302.0 453553.0 0
400652.0 455894.0 0
398493.0 457450.0 0
403402.0 456458.0 0
405834.0 454579.0 0
409208.0 453537.0 0
407440.0 458781.0 0
410436.0 456781.0 0
415189.0 453912.0 0
413776.0 456918.0 0
418625.0 455687.0 0
422638.0 454303.0 0
425384.0 455998.0 0
422214.0 457007.0 0
427880.0 457392.0 0
64988.2 462419.0 0
67730.0 460433.0 0
70593.3 458730.0 0
69098.9 463208.0 0
71900.8 462000.0 0
76194.1 458975.0 0
74439.0 461838.0 0
78454.7 460594.0 0
81370.8 461064.0 0
85115.5 458411.0 0
85174.4 461971.0 0
87715.7 457323.0 0
91630.6 459683.0 0
88567.4 460925.0 0
92738.1 462759.0 0
95173.8 459017.0 0
95997.4 461637.0 0
98759.8 458729.0 0
101913.0 460292.0 0
98926.2 461648.0 0
102683.0 463048.0 0
105514.0 459441.0 0
106138.0 462325.0 0
109747.0 460306.0 0
112134.0 460156.0 0
109306.0 462879.0 0
111975.0 462862.0 0
115058.0 460528.0 0
118876.0 461021.0 0
122829.0 461931.0 0
125682.0 459540.0 0
128047.0 461238.0 0
133210.0 458885.0 0
131490.0 462410.0 0
136870.0 459947.0 0
141396.0 459170.0 0
139178.0 462254.0 0
142088.0 462368.0 0
145078.0 460126.0 0
147908.0 460826.0 0
150161.0 458133.0 0
150815.0 460783.0 0
153875.0 459672.0 0
157297.0 458768.0 0
158219.0 460694.0 0
160618.0 458733.0 0
159952.0 462642.0 0
167447.0 458761.0 0
164045.0 460992.0 0
171799.0 457586.0 0
169786.0 461203.0 0
173363.0 461540.0 0
175712.0 457933.0 0
177588.0 462036.0 0
179541.0 457982.0 0
182809.0 460330.0 0
187959.0 458199.0 0
186903.0 461393.0 0
191474.0 461422.0 0
194765.0 458297.0 0
198449.0 457688.0 0
201663.0 460225.0 0
206139.0 457812.0 0
205019.0 462197.0 0
208210.0 461088.0 0
213885.0 458512.0 0
210544.0 458915.0 0
213714.0 461691.0 0
217686.0 458930.0 0
221935.0 457354.0 0
220305.0 461492.0 0
224019.0 460738.0 0
228043.0 460874.0 0
233772.0 457343.0 0
230103.0 458016.0 0
231852.0 460783.0 0
236079.0 460772.0 0
240794.0 461215.0 0
248971.0 457576.0 0
245408.0 459462.0 0
248416.0 461270.0 0
253372.0 457238.0 0
251619.0 460650.0 0
256748.0 457385.0 0
256380.0 461504.0 0
260624.0 458725.0 0
265267.0 457335.0 0
268622.0 461982.0 0
272662.0 459805.0 0
279862.0 457338.0 0
276510.0 460858.0 0
284229.0 460181.0 0
287972.0 458933.0 0
294637.0 458501.0 0
291495.0 460965.0 0
294591.0 462255.0 0
297863.0 460699.0 0
299886.0 457981.0 0
304777.0 457315.0 0
301891.0 460452.0 0
308571.0 459493.0 0
310656.0 462013.0 0
312148.0 458942.0 0
314827.0 460778.0 0
317900.0 459234.0 0
322411.0 459588.0 0
326326.0 458288.0 0
326485.0 462394.0 0
329691.0 460124.0 0
332864.0 459589.0 0
332111.0 462386.0 0
338661.0 458426.0 0
335955.0 461026.0 0
339473.0 461005.0 0
341403.0 458399.0 0
345273.0 458909.0 0
342996.0 462159.0 0
348554.0 457584.0 0
347392.0 461678.0 0
353489.0 458783.0 0
350911.0 460731.0 0
358565.0 458319.0 0
356129.0 460833.0 0
360918.0 461086.0 0
363004.0 459152.0 0
365710.0 460777.0 0
368670.0 459493.0 0
369077.0 462518.0 0
372438.0 460583.0 0
375899.0 460702.0 0
378648.0 459753.0 0
381609.0 459508.0 0
384177.0 461772.0 0
386267.0 459149.0 0
389210.0 461584.0 0
391903.0 459022.0 0
394585.0 461917.0 0
396927.0 459594.0 0
401038.0 459390.0 0
399430.0 461617.0 0
403966.0 458917.0 0
406569.0 461657.0 0
403534.0 461471.0 0
410908.0 460897.0 0
408754.0 463629.0 0
415152.0 460460.0 0
418302.0 458358.0 0
421784.0 460597.0 0
425557.0 459296.0 0
426518.0 462018.0 0
428856.0 461824.0 0
430063.0 459359.0 0
432977.0 460569.0 0
436140.0 462799.0 0
55827.2 468167.0 0
58384.4 465881.0 0
61999.1 464337.0 0
60673.3 467430.0 0
65982.3 465034.0 0
64217.1 466935.0 0
67204.8 467964.0 0
68389.4 465768.0 0
72050.3 465046.0 0
70390.8 466972.0 0
74534.6 466400.0 0
76740.7 463923.0 0
76739.5 468380.0 0
79710.4 464624.0 0
79896.3 468306.0 0
82959.4 464757.0 0
86649.4 465193.0 0
83597.8 467638.0 0
89690.6 464088.0 0
91197.8 467338.0 0
93860.3 465377.0 0
96396.0 463911.0 0
96639.0 467229.0 0
99321.3 464473.0 0
101982.0 465534.0 0
99980.6 468175.0 0
105544.0 465495.0 0
109227.0 466140.0 0
112686.0 466328.0 0
114561.0 463770.0 0
117845.0 464825.0 0
115905.0 467696.0 0
121535.0 466769.0 0
126081.0 464844.0 0
129822.0 465363.0 0
135076.0 464329.0 0
139009.0 465623.0 0
142400.0 465371.0 0
145319.0 463262.0 0
148658.0 464516.0 0
144973.0 467472.0 0
151793.0 464003.0 0
153117.0 467073.0 0
155580.0 463119.0 0
157773.0 466815.0 0
162873.0 465328.0 0
166976.0 462850.0 0
166668.0 466100.0 0
170451.0 465032.0 0
174259.0 464856.0 0
176470.0 467020.0 0
179938.0 465054.0 0
184025.0 464693.0 0
188146.0 464835.0 0
192302.0 465745.0 0
196736.0 462570.0 0
195023.0 467459.0 0
197846.0 467137.0 0
201430.0 464993.0 0
205175.0 465863.0 0
208165.0 464632.0 0
210627.0 462463.0 0
211891.0 466287.0 0
216872.0 463945.0 0
219439.0 467337.0 0
221481.0 464725.0 0
225087.0 464889.0 0
229307.0 464720.0 0
233345.0 464596.0 0
237480.0 465122.0 0
241626.0 466615.0 0
249734.0 464197.0 0
245478.0 464247.0 0
252969.0 463929.0 0
251888.0 467032.0 0
255271.0 466812.0 0
258585.0 465860.0 0
263766.0 462258.0 0
260267.0 463043.0 0
262197.0 466072.0 0
265851.0 466525.0 0
273509.0 464221.0 0
277719.0 465851.0 0
280649.0 462738.0 0
282113.0 467036.0 0
284500.0 464527.0 0
288058.0 463411.0 0
292019.0 465663.0 0
296902.0 465129.0 0
301440.0 464266.0 0
305315.0 466781.0 0
305941.0 462464.0 0
309334.0 465857.0 0
314309.0 465087.0 0
319242.0 463798.0 0
323307.0 464248.0 0
329913.0 464189.0 0
326536.0 466535.0 0
330603.0 467633.0 0
334612.0 465749.0 0
338998.0 464477.0 0
342253.0 466511.0 0
350353.0 464545.0 0
346398.0 465245.0 0
354066.0 463200.0 0
354015.0 466647.0 0
358351.0 463059.0 0
356837.0 465197.0 0
360780.0 464792.0 0
359264.0 468055.0 0
363914.0 463416.0 0
364225.0 467718.0 0
367390.0 465362.0 0
370510.0 466662.0 0
372798.0 464083.0 0
374021.0 467829.0 0
376747.0 464446.0 0
380387.0 463131.0 0
380178.0 467531.0 0
383379.0 465858.0 0
387448.0 465143.0 0
391342.0 468143.0 0
392345.0 464565.0 0
394802.0 468191.0 0
394959.0 465604.0 0
397074.0 464052.0 0
401886.0 464586.0 0
405677.0 464094.0 0
404543.0 468260.0 0
408117.0 466737.0 0
411636.0 464026.0 0
411423.0 466697.0 0
414539.0 464198.0 0
414734.0 467603.0 0
418716.0 463427.0 0
419259.0 467836.0 0
424153.0 463591.0 0
427067.0 465221.0 0
423253.0 466456.0 0
430452.0 464761.0 0
430450.0 468311.0 0
433289.0 463457.0 0
435142.0 466260.0 0
433895.0 467846.0 0
438686.0 465128.0 0
442183.0 466935.0 0
445468.0 468061.0 0
46980.9 473012.0 0
50224.8 471697.0 0
52515.4 469137.0 0
54142.1 471445.0 0
58048.7 470071.0 0
61372.4 470239.0 0
57379.1 473165.0 0
64575.7 469616.0 0
66210.6 472822.0 0
68399.2 469633.0 0
71847.8 469535.0 0
70277.1 472968.0 0
75063.3 471226.0 0
78114.2 472297.0 0
81421.7 471641.0 0
84898.4 470986.0 0
87772.1 468334.0 0
87377.9 473190.0 0
89537.8 471073.0 0
92077.6 472534.0 0
93345.8 469632.0 0
96264.3 470503.0 0
99149.8 471280.0 0
102122.0 471916.0 0
104081.0 468813.0 0
106273.0 473202.0 0
108516.0 469689.0 0
112540.0 470673.0 0
118569.0 469497.0 0
116264.0 471399.0 0
119716.0 471772.0 0
123991.0 470703.0 0
128011.0 468552.0 0
132219.0 468089.0 0
128748.0 472015.0 0
132826.0 472101.0 0
136351.0 468937.0 0
137039.0 472409.0 0
140647.0 468978.0 0
140998.0 472703.0 0
145577.0 471677.0 0
149506.0 468147.0 0
149075.0 471569.0 0
151723.0 470261.0 0
154821.0 470120.0 0
158804.0 470791.0 0
161221.0 468380.0 0
162269.0 470753.0 0
164400.0 468852.0 0
168060.0 469567.0 0
164798.0 472097.0 0
172408.0 468482.0 0
170600.0 472726.0 0
178628.0 468855.0 0
175298.0 471780.0 0
179311.0 472173.0 0
181408.0 468200.0 0
182564.0 471103.0 0
185514.0 468677.0 0
189287.0 467995.0 0
188236.0 471909.0 0
192108.0 469967.0 0
196026.0 471630.0 0
203785.0 468466.0 0
200455.0 469669.0 0
203772.0 471979.0 0
207653.0 469123.0 0
211557.0 472291.0 0
215367.0 468490.0 0
215455.0 472160.0 0
219146.0 471811.0 0
223114.0 469181.0 0
227252.0 468805.0 0
225674.0 472178.0 0
229103.0 472469.0 0
230997.0 468569.0 0
234514.0 468625.0 0
232244.0 471563.0 0
238267.0 469645.0 0
241647.0 470999.0 0
244923.0 469638.0 0
248638.0 468222.0 0
252589.0 470768.0 0
257020.0 470179.0 0
263429.0 470030.0 0
260179.0 468980.0 0
270250.0 467446.0 0
267466.0 471079.0 0
271649.0 472221.0 0
274506.0 468889.0 0
279030.0 470557.0 0
283418.0 470233.0 0
287167.0 468236.0 0
285617.0 472168.0 0
291105.0 469684.0 0
295714.0 469651.0 0
298579.0 472724.0 0
301091.0 469657.0 0
307968.0 469019.0 0
310370.0 469091.0 0
305520.0 470664.0 0
312947.0 468767.0 0
314597.0 471722.0 0
318196.0 468958.0 0
322627.0 467808.0 0
322921.0 472215.0 0
326698.0 470314.0 0
330454.0 471273.0 0
335134.0 470670.0 0
338850.0 468085.0 0
339637.0 471999.0 0
341891.0 469444.0 0
345473.0 468872.0 0
344064.0 472217.0 0
350382.0 469042.0 0
347506.0 471940.0 0
355892.0 469399.0 0
354258.0 472228.0 0
362179.0 471458.0 0
366179.0 472203.0 0
367923.0 469292.0 0
369038.0 472504.0 0
371348.0 470433.0 0
375002.0 472011.0 0
377326.0 469058.0 0
380369.0 471228.0 0
378196.0 472871.0 0
383738.0 469971.0 0
387635.0 469672.0 0
386718.0 473330.0 0
389973.0 472386.0 0
392661.0 471305.0 0
396466.0 471119.0 0
398456.0 467336.0 0
399757.0 471933.0 0
401070.0 469174.0 0
407339.0 471219.0 0
403444.0 472533.0 0
410003.0 469651.0 0
413313.0 471387.0 0
417359.0 472337.0 0
422640.0 471309.0 0
426314.0 468989.0 0
427252.0 472424.0 0
431947.0 471890.0 0
435527.0 470781.0 0
438543.0 468846.0 0
440539.0 471976.0 0
443049.0 469690.0 0
447658.0 470672.0 0
444816.0 473347.0 0
450881.0 472521.0 0
40104.1 478518.0 0
44282.0 476288.0 0
48343.2 475762.0 0
51474.1 474708.0 0
51617.7 478216.0 0
54837.8 474898.0 0
55422.9 477622.0 0
58876.7 476342.0 0
61784.4 473663.0 0
62846.1 476882.0 0
66538.1 476987.0 0
70591.1 477020.0 0
73824.8 474247.0 0
76867.3 475564.0 0
74357.8 478481.0 0
80395.2 475400.0 0
81913.6 478182.0 0
83364.7 474310.0 0
85407.5 476641.0 0
90105.1 475893.0 0
93542.7 475654.0 0
95253.3 473321.0 0
95760.1 477118.0 0
98359.9 474689.0 0
102261.0 475608.0 0
108166.0 475841.0 0
105786.0 476895.0 0
109709.0 473531.0 0
113064.0 474791.0 0
110208.0 476158.0 0
117014.0 474559.0 0
115044.0 478043.0 0
121460.0 475762.0 0
126173.0 475567.0 0
130508.0 476229.0 0
134829.0 476370.0 0
138784.0 476313.0 0
143219.0 476019.0 0
147469.0 475186.0 0
151430.0 473488.0 0
150513.0 477742.0 0
155997.0 474546.0 0
161116.0 473743.0 0
160025.0 477753.0 0
167296.0 473666.0 0
164260.0 475716.0 0
168525.0 477382.0 0
172840.0 476022.0 0
177274.0 477431.0 0
181181.0 474925.0 0
184370.0 473656.0 0
186837.0 476617.0 0
191745.0 475063.0 0
196096.0 476904.0 0
200025.0 474459.0 0
203428.0 476876.0 0
206920.0 474140.0 0
209404.0 476687.0 0
215674.0 475424.0 0
219129.0 476309.0 0
222885.0 474220.0 0
226770.0 476330.0 0
231973.0 475863.0 0
235515.0 472889.0 0
236641.0 476914.0 0
239584.0 473851.0 0
243633.0 473731.0 0
248174.0 473226.0 0
245530.0 476868.0 0
252088.0 474863.0 0
255792.0 473942.0 0
258480.0 476902.0 0
260320.0 473325.0 0
264560.0 474570.0 0
268827.0 475972.0 0
273564.0 477236.0 0
275487.0 472820.0 0
278373.0 475411.0 0
282249.0 473690.0 0
289226.0 473207.0 0
285869.0 476073.0 0
293117.0 472681.0 0
292748.0 476197.0 0
296544.0 474639.0 0
304130.0 474230.0 0
300522.0 474830.0 0
309757.0 473302.0 0
307141.0 477372.0 0
314049.0 476033.0 0
318630.0 474465.0 0
322571.0 477405.0 0
327654.0 475626.0 0
332561.0 474760.0 0
337267.0 476343.0 0
342304.0 475456.0 0
347211.0 475613.0 0
350976.0 473845.0 0
351862.0 477806.0 0
355426.0 475897.0 0
358536.0 473268.0 0
363003.0 475659.0 0
367776.0 476475.0 0
371804.0 474726.0 0
375849.0 475833.0 0
379666.0 475703.0 0
383158.0 474159.0 0
384983.0 477703.0 0
390818.0 475410.0 0
387782.0 475981.0 0
394820.0 474548.0 0
398968.0 475272.0 0
402596.0 476291.0 0
406623.0 474920.0 0
409782.0 473806.0 0
410466.0 477984.0 0
413272.0 475241.0 0
416299.0 476065.0 0
420438.0 473931.0 0
419270.0 477082.0 0
423155.0 475280.0 0
425095.0 473974.0 0
422463.0 478661.0 0
426467.0 477555.0 0
429934.0 475569.0 0
434377.0 475180.0 0
437426.0 473833.0 0
435169.0 478054.0 0
438804.0 476939.0 0
441949.0 476076.0 0
447002.0 477320.0 0
449663.0 475308.0 0
452462.0 477310.0 0
454141.0 474315.0 0
457144.0 475935.0 0
455260.0 478018.0 0
459963.0 478576.0 0
30214.4 483529.0 0
33663.1 481927.0 0
36422.8 479711.0 0
37379.5 482720.0 0
39674.4 482145.0 0
44209.1 481359.0 0
47849.6 478995.0 0
49669.9 481586.0 0
47288.2 483417.0 0
53988.5 481617.0 0
58274.9 479628.0 0
61644.7 479493.0 0
57791.0 483213.0 0
65836.5 481099.0 0
69907.2 480484.0 0
68977.8 483101.0 0
72944.0 482064.0 0
76590.6 481893.0 0
78261.9 478815.0 0
80279.0 481382.0 0
84104.9 480852.0 0
86539.7 483388.0 0
87991.1 479808.0 0
92474.7 479291.0 0
90287.1 482649.0 0
96041.5 480188.0 0
99064.7 478507.0 0
98791.5 482453.0 0
103236.0 480431.0 0
107840.0 478690.0 0
107656.0 482189.0 0
111510.0 479385.0 0
111076.0 483320.0 0
115079.0 482311.0 0
118507.0 479467.0 0
120766.0 482870.0 0
123479.0 479754.0 0
127387.0 479766.0 0
124944.0 483441.0 0
132058.0 480003.0 0
129260.0 483443.0 0
136285.0 479932.0 0
140586.0 479569.0 0
145315.0 479037.0 0
148066.0 481619.0 0
151720.0 481613.0 0
153904.0 482865.0 0
154855.0 479262.0 0
158314.0 482348.0 0
164207.0 480567.0 0
168932.0 481788.0 0
172417.0 480095.0 0
175566.0 481863.0 0
182513.0 478687.0 0
179645.0 482184.0 0
185647.0 480693.0 0
189350.0 479978.0 0
193145.0 479621.0 0
195565.0 481241.0 0
199375.0 479898.0 0
203611.0 481248.0 0
206777.0 478749.0 0
209513.0 479777.0 0
212622.0 477738.0 0
212245.0 482509.0 0
216729.0 480231.0 0
221991.0 479549.0 0
226299.0 480942.0 0
229681.0 479247.0 0
233826.0 480779.0 0
238016.0 480590.0 0
241410.0 477773.0 0
241121.0 482552.0 0
245056.0 480731.0 0
249554.0 478580.0 0
254526.0 478070.0 0
253084.0 482532.0 0
258578.0 482059.0 0
262244.0 478227.0 0
266200.0 478809.0 0
269815.0 481232.0 0
274068.0 481812.0 0
277633.0 480197.0 0
281883.0 478206.0 0
289439.0 478343.0 0
285858.0 480809.0 0
293368.0 480423.0 0
295752.0 477968.0 0
298936.0 478059.0 0
296721.0 480909.0 0
299832.0 482272.0 0
302975.0 478852.0 0
307196.0 481500.0 0
311571.0 479622.0 0
320823.0 480240.0 0
317438.0 479400.0 0
323578.0 481920.0 0
326000.0 479698.0 0
329164.0 480572.0 0
332840.0 479389.0 0
337423.0 481537.0 0
341083.0 479771.0 0
344860.0 478607.0 0
344981.0 482284.0 0
348694.0 480565.0 0
355403.0 479569.0 0
352873.0 482466.0 0
359520.0 478331.0 0
357155.0 482796.0 0
364516.0 479628.0 0
361604.0 482999.0 0
368647.0 480436.0 0
372862.0 479372.0 0
376032.0 482645.0 0
377570.0 479344.0 0
381420.0 478616.0 0
380267.0 482048.0 0
384254.0 481561.0 0
389205.0 480216.0 0
392990.0 478534.0 0
394477.0 482215.0 0
397222.0 478925.0 0
400996.0 479546.0 0
399170.0 483464.0 0
403485.0 479130.0 0
406151.0 478688.0 0
404103.0 482790.0 0
408929.0 481840.0 0
414650.0 479709.0 0
412064.0 482024.0 0
415301.0 483141.0 0
418296.0 480602.0 0
421861.0 482415.0 0
425270.0 481424.0 0
431856.0 479083.0 0
428646.0 481122.0 0
436541.0 480788.0 0
433030.0 482498.0 0
439974.0 480392.0 0
439548.0 483739.0 0
442617.0 483606.0 0
443757.0 479488.0 0
446518.0 483389.0 0
449963.0 480779.0 0
454228.0 481182.0 0
456629.0 479299.0 0
457432.0 481713.0 0
460398.0 483653.0 0
463716.0 480541.0 0
467327.0 481424.0 0
19545.3 489376.0 0
27166.2 485994.0 0
30486.8 486473.0 0
31212.3 488783.0 0
34623.8 485830.0 0
38717.4 485778.0 0
41181.4 484581.0 0
44188.4 485833.0 0
41402.2 488131.0 0
47504.1 486836.0 0
51271.2 485391.0 0
49295.5 489309.0 0
55557.2 486519.0 0
52593.4 489068.0 0
61672.3 483910.0 0
58943.8 487328.0 0
66175.8 485701.0 0
62648.9 487718.0 0
70999.4 485671.0 0
68416.6 488850.0 0
75037.5 485426.0 0
76382.9 488249.0 0
78283.1 484543.0 0
82488.1 484147.0 0
80291.9 487660.0 0
85254.1 486825.0 0
89370.6 485722.0 0
92649.6 487158.0 0
94135.2 483700.0 0
97487.8 486651.0 0
101006.0 484915.0 0
102499.0 488553.0 0
104303.0 484559.0 0
107829.0 486835.0 0
112609.0 486342.0 0
117391.0 485952.0 0
122496.0 486834.0 0
126383.0 487089.0 0
131272.0 487239.0 0
133854.0 483409.0 0
138143.0 483426.0 0
135878.0 487105.0 0
142767.0 483317.0 0
139830.0 486713.0 0
146283.0 485440.0 0
150744.0 485217.0 0
154897.0 486074.0 0
158549.0 486794.0 0
161948.0 484938.0 0
166586.0 485978.0 0
172018.0 484490.0 0
174067.0 488033.0 0
176874.0 485475.0 0
183453.0 483203.0 0
181397.0 486694.0 0
186870.0 483640.0 0
186466.0 487818.0 0
191654.0 484632.0 0
196826.0 484436.0 0
199267.0 487561.0 0
200485.0 483897.0 0
203776.0 485859.0 0
207416.0 482846.0 0
209647.0 485622.0 0
212815.0 487376.0 0
215645.0 484537.0 0
219054.0 484045.0 0
220766.0 487928.0 0
222946.0 484333.0 0
226645.0 484882.0 0
229316.0 487580.0 0
230004.0 483161.0 0
233216.0 486106.0 0
237013.0 484367.0 0
240173.0 487048.0 0
244407.0 485042.0 0
248341.0 483230.0 0
251182.0 485879.0 0
264631.0 483043.0 0
260993.0 487505.0 0
268630.0 486299.0 0
272955.0 485362.0 0
276812.0 484198.0 0
279368.0 486842.0 0
281653.0 483269.0 0
290168.0 483377.0 0
285945.0 485236.0 0
295504.0 485461.0 0
303638.0 483392.0 0
300790.0 486240.0 0
304845.0 487286.0 0
307182.0 485149.0 0
310522.0 484640.0 0
315006.0 483691.0 0
320145.0 484032.0 0
317962.0 487714.0 0
323774.0 485414.0 0
327265.0 483993.0 0
325970.0 487724.0 0
330267.0 488153.0 0
331121.0 483657.0 0
334539.0 483274.0 0
333724.0 486210.0 0
337998.0 486411.0 0
341247.0 484012.0 0
344613.0 485473.0 0
349136.0 486092.0 0
354955.0 486542.0 0
358952.0 486246.0 0
366541.0 483952.0 0
369100.0 488275.0 0
371731.0 484029.0 0
375019.0 486135.0 0
373054.0 488357.0 0
378945.0 485810.0 0
383549.0 486234.0 0
387228.0 484174.0 0
391089.0 484978.0 0
387899.0 488329.0 0
395334.0 486456.0 0
399371.0 487332.0 0
403542.0 487595.0 0
408339.0 485771.0 0
412675.0 485486.0 0
416187.0 486383.0 0
418343.0 484305.0 0
421867.0 485865.0 0
425943.0 485148.0 0
430116.0 484773.0 0
436580.0 484410.0 0
433785.0 487404.0 0
438417.0 487627.0 0
441174.0 486526.0 0
444550.0 487668.0 0
448943.0 486156.0 0
452087.0 485058.0 0
451238.0 488160.0 0
455690.0 484647.0 0
458362.0 486876.0 0
455006.0 489131.0 0
462212.0 487376.0 0
465136.0 484427.0 0
464590.0 488913.0 0
467576.0 487429.0 0
469646.0 484142.0 0
473036.0 485444.0 0
471235.0 488734.0 0
475764.0 487973.0 0
479016.0 488942.0 0
14938.6 493377.0 0
17558.3 491384.0 0
19766.4 493253.0 0
23585.9 489288.0 0
23441.7 493729.0 0
28361.3 489353.0 0
30882.9 492156.0 0
27088.2 492883.0 0
33970.6 489994.0 0
34894.9 493721.0 0
38030.9 489732.0 0
38977.8 493580.0 0
41721.6 491832.0 0
44972.3 489756.0 0
44006.1 493869.0 0
47731.5 492700.0 0
51734.5 491935.0 0
55966.0 490580.0 0
54215.1 494071.0 0
60063.4 490438.0 0
58138.0 493472.0 0
64882.2 490335.0 0
62150.6 493422.0 0
66473.0 493939.0 0
69698.0 491808.0 0
72918.6 489183.0 0
75196.5 491244.0 0
72889.6 493052.0 0
75516.0 493674.0 0
78254.7 491592.0 0
80760.5 493799.0 0
83035.3 490536.0 0
88772.1 490426.0 0
92552.6 493197.0 0
94588.3 489887.0 0
98472.7 490522.0 0
105966.0 491666.0 0
110317.0 490546.0 0
114503.0 489808.0 0
116445.0 492885.0 0
119588.0 490057.0 0
123785.0 491102.0 0
128286.0 491266.0 0
133509.0 491346.0 0
138512.0 491247.0 0
143159.0 488658.0 0
142506.0 492870.0 0
147619.0 488979.0 0
145388.0 491710.0 0
148536.0 492487.0 0
151599.0 489381.0 0
152272.0 492902.0 0
156277.0 490799.0 0
161563.0 489207.0 0
165429.0 491694.0 0
170164.0 489026.0 0
169685.0 492753.0 0
173664.0 492062.0 0
177763.0 490068.0 0
182333.0 492037.0 0
187991.0 492838.0 0
190848.0 489480.0 0
194811.0 488600.0 0
197528.0 491481.0 0
202374.0 490306.0 0
207617.0 489309.0 0
211856.0 490972.0 0
214790.0 490811.0 0
217049.0 488023.0 0
222386.0 491446.0 0
225065.0 488681.0 0
228101.0 491176.0 0
231662.0 490688.0 0
236225.0 489876.0 0
240210.0 491452.0 0
243444.0 489740.0 0
247708.0 488041.0 0
246616.0 492266.0 0
250105.0 492704.0 0
251619.0 489588.0 0
253756.0 492252.0 0
255648.0 487813.0 0
258550.0 491770.0 0
262935.0 492745.0 0
265126.0 488159.0 0
267618.0 491054.0 0
271651.0 490019.0 0
276030.0 489251.0 0
279773.0 490217.0 0
283023.0 488190.0 0
282179.0 492293.0 0
286209.0 488218.0 0
289717.0 488414.0 0
286046.0 491028.0 0
293838.0 491031.0 0
298795.0 490209.0 0
302746.0 490019.0 0
308793.0 488346.0 0
306363.0 491121.0 0
310306.0 492437.0 0
313383.0 489013.0 0
317999.0 491752.0 0
322227.0 489008.0 0
326965.0 491989.0 0
335048.0 489889.0 0
332077.0 492961.0 0
338842.0 490629.0 0
343042.0 489069.0 0
348911.0 491756.0 0
352710.0 489555.0 0
353823.0 493015.0 0
355645.0 490373.0 0
358491.0 489338.0 0
357503.0 492846.0 0
360136.0 491882.0 0
363181.0 488470.0 0
362746.0 493094.0 0
367139.0 492774.0 0
372631.0 492849.0 0
377093.0 490300.0 0
381208.0 489716.0 0
381114.0 493462.0 0
384747.0 490957.0 0
388813.0 492233.0 0
391973.0 489406.0 0
396398.0 490486.0 0
400849.0 491195.0 0
401633.0 494945.0 0
407380.0 489775.0 0
404952.0 492549.0 0
411303.0 489644.0 0
409606.0 492891.0 0
415103.0 489663.0 0
413666.0 492900.0 0
417591.0 492906.0 0
419417.0 489034.0 0
422120.0 492556.0 0
424142.0 489116.0 0
426236.0 492285.0 0
429151.0 489360.0 0
437206.0 490163.0 0
433755.0 491770.0 0
441182.0 490168.0 0
438633.0 493424.0 0
442708.0 493027.0 0
444847.0 491344.0 0
448115.0 489209.0 0
447920.0 492570.0 0
451453.0 491194.0 0
458041.0 492843.0 0
454497.0 493626.0 0
459922.0 489779.0 0
463055.0 492293.0 0
467431.0 491185.0 0
470665.0 492893.0 0
473871.0 491296.0 0
477653.0 492880.0 0
481458.0 491018.0 0
484413.0 493300.0 0
5079.03 499215.0 0
8442.06 497080.0 0
11727.1 495473.0 0
12107.3 499006.0 0
16213.0 496978.0 0
21004.1 497253.0 0
25583.0 497120.0 0
30327.6 496637.0 0
34049.9 497857.0 0
37251.3 496622.0 0
41381.4 497365.0 0
46354.8 496876.0 0
50496.9 495655.0 0
49032.8 498920.0 0
56437.8 496425.0 0
53102.7 498605.0 0
60155.5 496881.0 0
63937.7 496633.0 0
70112.5 495270.0 0
67698.9 498733.0 0
73334.2 497017.0 0
77393.6 496031.0 0
78588.5 498756.0 0
81477.4 497149.0 0
85026.2 494229.0 0
85253.8 498575.0 0
88982.4 495937.0 0
96566.7 493822.0 0
93340.9 497343.0 0
101402.0 493729.0 0
98199.8 497195.0 0
102374.0 498164.0 0
105240.0 495559.0 0
109039.0 494898.0 0
112650.0 493822.0 0
111950.0 497970.0 0
115312.0 496097.0 0
120342.0 495480.0 0
125422.0 495837.0 0
130786.0 495807.0 0
135759.0 495584.0 0
140020.0 495906.0 0
145105.0 496268.0 0
150171.0 495727.0 0
154978.0 496449.0 0
160109.0 494050.0 0
163588.0 496937.0 0
167504.0 495456.0 0
171695.0 496568.0 0
177435.0 495442.0 0
182222.0 498065.0 0
184736.0 495055.0 0
186465.0 497087.0 0
192994.0 493328.0 0
189956.0 497356.0 0
193383.0 498017.0 0
196642.0 496175.0 0
200480.0 494271.0 0
209649.0 493776.0 0
205275.0 495053.0 0
213642.0 494874.0 0
218428.0 493026.0 0
216769.0 497858.0 0
220694.0 498073.0 0
222559.0 494963.0 0
225499.0 493536.0 0
225360.0 498030.0 0
229544.0 495380.0 0
233556.0 493879.0 0
237817.0 495482.0 0
243121.0 494831.0 0
247748.0 496207.0 0
252118.0 495983.0 0
256176.0 494489.0 0
259818.0 496967.0 0
264143.0 497613.0 0
266794.0 495066.0 0
274632.0 493563.0 0
270583.0 494341.0 0
273237.0 497889.0 0
278443.0 493225.0 0
277109.0 496727.0 0
281280.0 496617.0 0
285054.0 494958.0 0
289397.0 494181.0 0
293322.0 495701.0 0
297625.0 495153.0 0
302712.0 494758.0 0
307363.0 494982.0 0
314413.0 494163.0 0
311160.0 497428.0 0
318381.0 496320.0 0
322171.0 493612.0 0
322467.0 498161.0 0
325597.0 496086.0 0
329670.0 496537.0 0
334676.0 497436.0 0
336722.0 493603.0 0
340492.0 493592.0 0
338999.0 497079.0 0
344393.0 493476.0 0
343007.0 497008.0 0
347369.0 496524.0 0
351601.0 496418.0 0
360209.0 495147.0 0
356321.0 496714.0 0
364518.0 497285.0 0
369335.0 497209.0 0
372461.0 496990.0 0
375386.0 496866.0 0
377209.0 494219.0 0
379108.0 497245.0 0
385557.0 494742.0 0
382824.0 497391.0 0
389882.0 496509.0 0
393108.0 493437.0 0
394901.0 498258.0 0
397700.0 494627.0 0
404589.0 497302.0 0
407290.0 495079.0 0
409129.0 495904.0 0
411973.0 495891.0 0
408511.0 499053.0 0
415843.0 495858.0 0
420349.0 495954.0 0
425868.0 496464.0 0
430014.0 494068.0 0
430920.0 498091.0 0
434327.0 495823.0 0
437913.0 497052.0 0
442277.0 496627.0 0
445758.0 494608.0 0
447152.0 498082.0 0
450897.0 495522.0 0
456557.0 498056.0 0
460498.0 495736.0 0
461826.0 499319.0 0
463940.0 496351.0 0
467149.0 494793.0 0
466407.0 498821.0 0
470751.0 497357.0 0
473500.0 494360.0 0
476003.0 497398.0 0
481317.0 494930.0 0
480085.0 498316.0 0
484244.0 498168.0 0
487681.0 496018.0 0
491385.0 497992.0 0
1807.04 500008.0 0
2689.95 502890.0 0
8159.01 501055.0 0
14619.3 501037.0 0
11956.3 502931.0 0
18458.0 501009.0 0
23363.4 501146.0 0
27922.3 501265.0 0
32128.5 501264.0 0
34529.3 504655.0 0
36717.6 500515.0 0
40465.8 503600.0 0
44596.7 500620.0 0
47726.7 502127.0 0
51113.4 501881.0 0
57082.8 500064.0 0
54733.9 504053.0 0
60061.4 500197.0 0
59724.4 503561.0 0
62970.1 500124.0 0
64701.4 503756.0 0
68461.5 502624.0 0
71892.4 500949.0 0
70589.6 503726.0 0
76184.1 500952.0 0
80879.5 501367.0 0
85506.2 502744.0 0
89190.0 500018.0 0
92536.6 501725.0 0
95847.1 500142.0 0
95834.6 502902.0 0
98908.5 501165.0 0
102917.0 502622.0 0
107422.0 499415.0 0
111661.0 502079.0 0
116610.0 499995.0 0
122409.0 500595.0 0
119257.0 503066.0 0
127826.0 500562.0 0
133218.0 500147.0 0
137379.0 498736.0 0
140941.0 499922.0 0
144886.0 501390.0 0
150011.0 500337.0 0
155167.0 501804.0 0
159292.0 499152.0 0
163004.0 501800.0 0
167257.0 499619.0 0
171156.0 501939.0 0
174630.0 499539.0 0
178065.0 501258.0 0
186601.0 501412.0 0
191269.0 502067.0 0
196411.0 501557.0 0
200800.0 498992.0 0
209835.0 498510.0 0
205176.0 500693.0 0
213788.0 499184.0 0
212652.0 502128.0 0
222811.0 501547.0 0
229347.0 500785.0 0
233532.0 498439.0 0
237430.0 500892.0 0
241169.0 499288.0 0
245066.0 498995.0 0
249618.0 501165.0 0
255309.0 499201.0 0
257679.0 502151.0 0
261803.0 501993.0 0
268818.0 499017.0 0
265462.0 500555.0 0
272500.0 503032.0 0
276004.0 500604.0 0
278972.0 499731.0 0
282575.0 501457.0 0
286661.0 498928.0 0
291185.0 499325.0 0
294873.0 498505.0 0
295091.0 502062.0 0
298163.0 499646.0 0
301914.0 499986.0 0
306232.0 499155.0 0
309324.0 502547.0 0
312470.0 501004.0 0
315643.0 499963.0 0
319558.0 500309.0 0
322932.0 502359.0 0
326581.0 500094.0 0
331378.0 501397.0 0
336176.0 502172.0 0
341425.0 501641.0 0
346094.0 503102.0 0
349640.0 499776.0 0
346215.0 500032.0 0
353388.0 500795.0 0
360420.0 499031.0 0
357234.0 501238.0 0
360413.0 503314.0 0
363440.0 501328.0 0
367943.0 501660.0 0
372936.0 500301.0 0
376869.0 500172.0 0
381121.0 501686.0 0
386352.0 499635.0 0
384519.0 502798.0 0
391393.0 501469.0 0
396665.0 503439.0 0
400009.0 499239.0 0
401170.0 503091.0 0
404021.0 501176.0 0
406848.0 502931.0 0
410967.0 502556.0 0
413458.0 499335.0 0
415741.0 503502.0 0
418059.0 499751.0 0
422941.0 500500.0 0
427995.0 501105.0 0
432434.0 501993.0 0
435306.0 499577.0 0
436795.0 503570.0 0
439554.0 500254.0 0
444138.0 500815.0 0
448262.0 501942.0 0
445964.0 504213.0 0
451696.0 499950.0 0
451349.0 503761.0 0
455287.0 503022.0 0
459649.0 502338.0 0
464880.0 502494.0 0
469511.0 501462.0 0
473993.0 501078.0 0
472496.0 504290.0 0
478573.0 502199.0 0
483532.0 502640.0 0
488221.0 501485.0 0
492510.0 501732.0 0
495117.0 499614.0 0
497332.0 502129.0 0
2507.93 506734.0 0
7194.76 505166.0 0
9488.6 507893.0 0
11999.1 506266.0 0
15117.5 508953.0 0
15832.9 504645.0 0
18545.1 507658.0 0
20815.8 504591.0 0
25308.6 505033.0 0
22442.0 508166.0 0
29738.3 505167.0 0
32090.4 508891.0 0
37574.2 508264.0 0
45258.7 505405.0 0
49817.7 505612.0 0
52837.8 508767.0 0
57568.9 507775.0 0
61448.0 506818.0 0
65095.5 508478.0 0
68712.0 506049.0 0
73546.4 505262.0 0
76049.3 508898.0 0
77990.8 505025.0 0
81965.9 505303.0 0
85596.9 507288.0 0
89261.5 504458.0 0
89776.7 508652.0 0
93405.2 505656.0 0
98242.4 505723.0 0
102977.0 507242.0 0
107411.0 504410.0 0
111047.0 506747.0 0
115648.0 504914.0 0
121388.0 505129.0 0
118974.0 508592.0 0
125424.0 504900.0 0
130875.0 505755.0 0
137116.0 503598.0 0
135421.0 508171.0 0
141850.0 504674.0 0
139422.0 507979.0 0
143081.0 508615.0 0
147174.0 506075.0 0
152092.0 504816.0 0
159018.0 504070.0 0
155353.0 506408.0 0
158582.0 508401.0 0
162738.0 506488.0 0
166757.0 504263.0 0
170668.0 506742.0 0
174600.0 504549.0 0
178247.0 506264.0 0
182161.0 503534.0 0
181587.0 507734.0 0
185884.0 506847.0 0
190302.0 506703.0 0
193933.0 505594.0 0
198306.0 506897.0 0
200426.0 503195.0 0
203777.0 506071.0 0
208808.0 503572.0 0
208321.0 507831.0 0
212636.0 506605.0 0
217752.0 503495.0 0
222478.0 505212.0 0
220857.0 507902.0 0
224636.0 508063.0 0
225906.0 503863.0 0
229721.0 505972.0 0
233687.0 503294.0 0
238258.0 505473.0 0
243475.0 503787.0 0
247581.0 505312.0 0
254220.0 504102.0 0
250699.0 507131.0 0
258278.0 505998.0 0
262825.0 507706.0 0
267253.0 504434.0 0
270928.0 507540.0 0
278496.0 503613.0 0
275761.0 507755.0 0
282148.0 506374.0 0
286875.0 504289.0 0
291438.0 503607.0 0
290371.0 507418.0 0
299177.0 503581.0 0
295502.0 507147.0 0
304386.0 505174.0 0
309754.0 507244.0 0
313467.0 504386.0 0
318257.0 504519.0 0
322873.0 506554.0 0
327662.0 505437.0 0
333396.0 506775.0 0
338906.0 506546.0 0
345006.0 507186.0 0
350184.0 504284.0 0
355767.0 505712.0 0
360834.0 507312.0 0
364581.0 504891.0 0
364797.0 508684.0 0
368768.0 507246.0 0
371886.0 504214.0 0
376634.0 504344.0 0
373287.0 507504.0 0
380521.0 505573.0 0
383921.0 505581.0 0
387865.0 504252.0 0
392291.0 506220.0 0
395958.0 508154.0 0
400520.0 507281.0 0
403888.0 504459.0 0
405446.0 507963.0 0
408597.0 505777.0 0
412584.0 506516.0 0
417568.0 507897.0 0
420218.0 504192.0 0
422478.0 508344.0 0
425060.0 504650.0 0
427359.0 509099.0 0
429805.0 505500.0 0
434174.0 506185.0 0
441471.0 504861.0 0
437900.0 508613.0 0
442445.0 508835.0 0
445688.0 507486.0 0
448981.0 505708.0 0
453114.0 507122.0 0
449267.0 509402.0 0
457707.0 506237.0 0
461937.0 505888.0 0
465816.0 506722.0 0
469051.0 505328.0 0
472975.0 507755.0 0
476299.0 505109.0 0
476637.0 508504.0 0
481494.0 507145.0 0
487726.0 505904.0 0
492746.0 504952.0 0
492225.0 509382.0 0
497405.0 506328.0 0
2071.47 510219.0 0
3341.25 514378.0 0
6415.91 509910.0 0
9365.16 513975.0 0
11291.1 510127.0 0
14046.6 512496.0 0
19736.3 512853.0 0
26659.8 509779.0 0
30409.2 514087.0 0
35028.5 512078.0 0
39395.3 512660.0 0
42377.2 508952.0 0
44300.2 513168.0 0
47480.3 509344.0 0
50556.8 513930.0 0
56133.4 511838.0 0
60751.8 510352.0 0
59810.3 514584.0 0
64789.7 512639.0 0
70691.8 510967.0 0
76582.3 513823.0 0
80641.1 509394.0 0
81175.8 513690.0 0
85669.5 512085.0 0
90819.0 513129.0 0
94599.3 509765.0 0
97228.5 512391.0 0
99328.4 510061.0 0
106901.0 509012.0 0
103109.0 511941.0 0
106793.0 513341.0 0
110433.0 511665.0 0
114423.0 509826.0 0
117099.0 512470.0 0
120833.0 512741.0 0
123567.0 508998.0 0
124492.0 513079.0 0
127814.0 510527.0 0
132708.0 512463.0 0
137428.0 511116.0 0
141049.0 511853.0 0
146506.0 512162.0 0
151630.0 509228.0 0
151195.0 513743.0 0
155485.0 511879.0 0
158931.0 511418.0 0
162490.0 511110.0 0
166609.0 508710.0 0
167039.0 512909.0 0
170639.0 510867.0 0
174650.0 509154.0 0
178828.0 510415.0 0
175797.0 512949.0 0
183014.0 511038.0 0
188117.0 511972.0 0
193764.0 510405.0 0
198359.0 511510.0 0
201389.0 509950.0 0
202110.0 514337.0 0
205730.0 511048.0 0
210755.0 511691.0 0
216638.0 510378.0 0
221859.0 511889.0 0
225328.0 511037.0 0
229371.0 511378.0 0
234198.0 508449.0 0
234194.0 513269.0 0
238420.0 511427.0 0
241439.0 508372.0 0
243118.0 512188.0 0
246013.0 508697.0 0
249123.0 510330.0 0
247680.0 513293.0 0
254737.0 508651.0 0
251999.0 511772.0 0
258633.0 510973.0 0
263231.0 512839.0 0
267297.0 510099.0 0
271661.0 511966.0 0
276223.0 513239.0 0
280610.0 510961.0 0
286309.0 510200.0 0
291931.0 511579.0 0
296746.0 512416.0 0
300509.0 509391.0 0
305432.0 511354.0 0
310284.0 511702.0 0
314641.0 509203.0 0
319931.0 509485.0 0
317481.0 513076.0 0
325495.0 511032.0 0
329849.0 509712.0 0
333051.0 512255.0 0
336645.0 510414.0 0
341166.0 511554.0 0
350559.0 509593.0 0
346322.0 512872.0 0
354962.0 510107.0 0
353413.0 513308.0 0
358274.0 509876.0 0
362242.0 511888.0 0
367159.0 511618.0 0
371993.0 511494.0 0
376039.0 513154.0 0
377083.0 509212.0 0
380002.0 512978.0 0
382141.0 509090.0 0
385010.0 513396.0 0
387901.0 509124.0 0
392938.0 510444.0 0
394160.0 513402.0 0
398128.0 511993.0 0
406964.0 511513.0 0
403166.0 511816.0 0
409356.0 509428.0 0
410388.0 513335.0 0
413407.0 510442.0 0
416514.0 511475.0 0
414847.0 514182.0 0
420199.0 513291.0 0
424830.0 511827.0 0
432553.0 510251.0 0
428502.0 513139.0 0
436986.0 513346.0 0
441469.0 512161.0 0
445642.0 511303.0 0
452461.0 511626.0 0
448868.0 513590.0 0
456374.0 510085.0 0
455972.0 513911.0 0
460913.0 510139.0 0
464763.0 509447.0 0
465199.0 513911.0 0
469251.0 510161.0 0
474418.0 512127.0 0
478870.0 510893.0 0
479103.0 514657.0 0
482511.0 512235.0 0
486417.0 510109.0 0
485243.0 514369.0 0
489737.0 514042.0 0
494592.0 514099.0 0
497381.0 510305.0 0
498306.0 513728.0 0
9311.85 518546.0 0
14240.8 516369.0 0
18849.1 519107.0 0
22950.3 517201.0 0
25388.3 514375.0 0
31887.2 518532.0 0
35643.3 515892.0 0
40470.7 517270.0 0
45947.8 518238.0 0
55383.4 516408.0 0
55327.5 519439.0 0
58975.5 519662.0 0
64025.0 517260.0 0
68095.5 515498.0 0
72247.3 516743.0 0
68302.2 519358.0 0
76891.5 519503.0 0
80132.3 516899.0 0
83477.3 516244.0 0
87850.7 517614.0 0
92383.8 517135.0 0
94915.8 514502.0 0
96022.7 518436.0 0
99514.7 515058.0 0
104191.0 516827.0 0
109364.0 516715.0 0
113683.0 514590.0 0
117759.0 516219.0 0
113531.0 519106.0 0
122456.0 516733.0 0
127865.0 516096.0 0
133346.0 518365.0 0
137459.0 514900.0 0
142486.0 516148.0 0
148362.0 518373.0 0
159012.0 514639.0 0
154523.0 516984.0 0
163279.0 515771.0 0
167944.0 517440.0 0
171944.0 514531.0 0
175667.0 516968.0 0
180033.0 514853.0 0
184287.0 514340.0 0
184051.0 518488.0 0
188710.0 517182.0 0
192223.0 515107.0 0
196737.0 515831.0 0
201741.0 519508.0 0
206062.0 517608.0 0
207415.0 514290.0 0
210261.0 516533.0 0
214025.0 514842.0 0
218498.0 516277.0 0
222720.0 515806.0 0
225357.0 514014.0 0
225219.0 517592.0 0
228143.0 515958.0 0
231759.0 516771.0 0
236227.0 517309.0 0
240501.0 515895.0 0
244688.0 516223.0 0
251394.0 516957.0 0
255464.0 514130.0 0
259544.0 515621.0 0
256213.0 518182.0 0
263272.0 517089.0 0
267528.0 515417.0 0
272891.0 517846.0 0
279095.0 517487.0 0
283500.0 514901.0 0
288665.0 516269.0 0
293902.0 515720.0 0
297735.0 516572.0 0
301100.0 514057.0 0
304656.0 516106.0 0
308735.0 516038.0 0
313840.0 515447.0 0
318802.0 517256.0 0
321389.0 513667.0 0
324559.0 517549.0 0
329251.0 514779.0 0
333361.0 517277.0 0
337353.0 514918.0 0
342614.0 517282.0 0
350235.0 514309.0 0
347948.0 517426.0 0
352966.0 517620.0 0
357560.0 514105.0 0
365413.0 514950.0 0
361809.0 516692.0 0
369297.0 515762.0 0
373747.0 516432.0 0
377631.0 516136.0 0
381935.0 517515.0 0
390288.0 514213.0 0
387116.0 517779.0 0
393003.0 516152.0 0
396305.0 516725.0 0
401618.0 516700.0 0
406515.0 515323.0 0
407396.0 519292.0 0
412173.0 518248.0 0
417250.0 517024.0 0
421293.0 518675.0 0
424902.0 515697.0 0
428808.0 516929.0 0
432511.0 515354.0 0
436661.0 518808.0 0
441152.0 516154.0 0
440954.0 519336.0 0
445225.0 515153.0 0
452585.0 515903.0 0
448685.0 517679.0 0
457026.0 517781.0 0
459859.0 514414.0 0
462506.0 518818.0 0
467401.0 518175.0 0
470463.0 515139.0 0
475248.0 516971.0 0
482821.0 516709.0 0
479563.0 518572.0 0
487270.0 518178.0 0
492911.0 518394.0 0
497888.0 516857.0 0
3674.39 519854.0 0
8374.24 523151.0 0
13671.1 521611.0 0
23109.6 520616.0 0
25571.4 522619.0 0
22129.4 523012.0 0
27015.5 518575.0 0
29770.7 522224.0 0
36180.5 520914.0 0
41805.4 522703.0 0
47373.1 523098.0 0
51668.7 519812.0 0
51221.2 524522.0 0
55291.9 523532.0 0
60113.8 524542.0 0
63959.5 521958.0 0
72116.5 521244.0 0
68123.2 523768.0 0
75591.8 524324.0 0
82742.1 520837.0 0
87752.9 522497.0 0
92181.0 521150.0 0
97129.2 523233.0 0
100051.0 519246.0 0
103760.0 521708.0 0
108801.0 521232.0 0
118730.0 521260.0 0
124684.0 520862.0 0
128996.0 520525.0 0
131692.0 523248.0 0
138288.0 518857.0 0
136616.0 523369.0 0
142475.0 521887.0 0
151588.0 521994.0 0
155551.0 522120.0 0
159188.0 518949.0 0
163741.0 520668.0 0
159884.0 523050.0 0
169038.0 523305.0 0
172118.0 518914.0 0
174577.0 522393.0 0
178996.0 520289.0 0
188062.0 521557.0 0
192908.0 519916.0 0
197591.0 520333.0 0
205446.0 521616.0 0
209741.0 521216.0 0
214038.0 519060.0 0
217563.0 521971.0 0
222132.0 520311.0 0
228440.0 520162.0 0
225432.0 523209.0 0
233089.0 521122.0 0
237779.0 521919.0 0
242659.0 520419.0 0
247128.0 519182.0 0
251524.0 521862.0 0
255890.0 522672.0 0
260074.0 520052.0 0
264689.0 521089.0 0
269256.0 521906.0 0
273359.0 523317.0 0
276573.0 521355.0 0
279973.0 522001.0 0
284011.0 519998.0 0
288998.0 522687.0 0
292583.0 519444.0 0
296503.0 520817.0 0
301501.0 519381.0 0
306835.0 521111.0 0
311497.0 519599.0 0
315797.0 520836.0 0
320842.0 521951.0 0
329598.0 519564.0 0
326302.0 523576.0 0
333141.0 522828.0 0
337543.0 520025.0 0
341785.0 522465.0 0
345942.0 521249.0 0
350050.0 520785.0 0
354064.0 522933.0 0
357728.0 519390.0 0
362066.0 520819.0 0
366025.0 519288.0 0
364664.0 523591.0 0
371094.0 520854.0 0
377141.0 520939.0 0
384739.0 520156.0 0
382468.0 522343.0 0
386857.0 522195.0 0
391997.0 520196.0 0
398567.0 521116.0 0
403906.0 521690.0 0
409360.0 522754.0 0
417247.0 520896.0 0
413335.0 522863.0 0
421684.0 523491.0 0
426154.0 520364.0 0
431481.0 519728.0 0
430075.0 523821.0 0
434898.0 523282.0 0
440772.0 522981.0 0
444698.0 519581.0 0
445518.0 523968.0 0
453080.0 520689.0 0
448808.0 521945.0 0
457914.0 521977.0 0
462401.0 523380.0 0
467379.0 522980.0 0
471612.0 519785.0 0
472576.0 523935.0 0
476823.0 521588.0 0
482689.0 520975.0 0
480538.0 524756.0 0
486597.0 521782.0 0
490300.0 522173.0 0
494207.0 522260.0 0
497509.0 520528.0 0
497983.0 524451.0 0
3216.21 525550.0 0
2015.08 529811.0 0
7881.92 526992.0 0
12075.3 526268.0 0
15821.1 528955.0 0
18561.8 524612.0 0
20618.2 529194.0 0
23336.1 525803.0 0
27518.3 525795.0 0
32975.5 525005.0 0
35562.4 528436.0 0
37583.2 525064.0 0
40673.0 528620.0 0
44829.7 526495.0 0
48785.5 527578.0 0
53169.8 528239.0 0
57546.3 527690.0 0
64302.7 527335.0 0
71807.3 525397.0 0
69367.7 528631.0 0
74343.2 528950.0 0
79702.7 524845.0 0
84979.0 527270.0 0
90882.8 525609.0 0
94860.3 527932.0 0
101410.0 525689.0 0
98369.8 527188.0 0
106783.0 526487.0 0
112994.0 524585.0 0
117946.0 526214.0 0
115410.0 529240.0 0
122291.0 525465.0 0
127230.0 525059.0 0
124865.0 528924.0 0
131185.0 527864.0 0
135713.0 528374.0 0
141727.0 528799.0 0
147781.0 525061.0 0
152519.0 525011.0 0
155936.0 527077.0 0
159430.0 526237.0 0
159069.0 529056.0 0
163553.0 526013.0 0
173273.0 527390.0 0
177776.0 525467.0 0
183117.0 524396.0 0
180358.0 529092.0 0
187393.0 524984.0 0
187025.0 528546.0 0
190913.0 525402.0 0
193717.0 528727.0 0
195926.0 524624.0 0
201918.0 525346.0 0
208277.0 526687.0 0
213157.0 524572.0 0
217439.0 527108.0 0
221673.0 524836.0 0
224996.0 527005.0 0
229810.0 525477.0 0
235457.0 526466.0 0
241328.0 526234.0 0
247158.0 524163.0 0
252309.0 526186.0 0
260925.0 525456.0 0
266558.0 525665.0 0
271474.0 528070.0 0
277547.0 525564.0 0
282694.0 524587.0 0
286067.0 526792.0 0
293985.0 525399.0 0
289979.0 527895.0 0
298245.0 524535.0 0
302530.0 524719.0 0
306948.0 526334.0 0
311880.0 524798.0 0
317395.0 525599.0 0
322087.0 526618.0 0
333936.0 527597.0 0
337899.0 525124.0 0
342975.0 527608.0 0
348905.0 525752.0 0
354469.0 528790.0 0
359559.0 524993.0 0
364396.0 528237.0 0
368723.0 525546.0 0
374182.0 526186.0 0
379771.0 525874.0 0
384599.0 526036.0 0
389906.0 526245.0 0
395401.0 525168.0 0
400700.0 525793.0 0
406456.0 526971.0 0
411893.0 526690.0 0
416850.0 525592.0 0
420522.0 528655.0 0
423940.0 527417.0 0
425789.0 524737.0 0
427945.0 528278.0 0
433116.0 527781.0 0
438179.0 527181.0 0
443313.0 527460.0 0
449724.0 526907.0 0
454430.0 525051.0 0
459351.0 526966.0 0
464195.0 526409.0 0
467447.0 527938.0 0
471867.0 528032.0 0
476458.0 526263.0 0
480533.0 529717.0 0
486190.0 526300.0 0
493143.0 526126.0 0
497558.0 528396.0 0
2725.36 533867.0 0
5884.46 530306.0 0
7939.18 534763.0 0
10312.0 530398.0 0
13586.2 532891.0 0
17987.7 532891.0 0
25211.3 529558.0 0
22709.3 533305.0 0
30402.3 529707.0 0
34301.4 531343.0 0
33068.7 534426.0 0
37275.8 532474.0 0
45631.2 530593.0 0
41962.8 534426.0 0
50058.6 531828.0 0
46925.3 534382.0 0
56218.5 530625.0 0
54402.3 534134.0 0
60501.0 531698.0 0
66228.8 532496.0 0
71417.0 533132.0 0
76860.4 533580.0 0
78728.0 528942.0 0
81463.7 531754.0 0
85820.9 533503.0 0
90462.8 530675.0 0
95946.2 533499.0 0
100813.0 529985.0 0
101413.0 534403.0 0
105531.0 532044.0 0
110966.0 530110.0 0
115078.0 533996.0 0
120214.0 530373.0 0
128158.0 530915.0 0
124558.0 533298.0 0
128562.0 534593.0 0
132153.0 532580.0 0
136859.0 532922.0 0
147357.0 530174.0 0
151676.0 529319.0 0
156241.0 532323.0 0
162562.0 531601.0 0
168029.0 529357.0 0
172100.0 532825.0 0
176479.0 531093.0 0
183792.0 532340.0 0
190625.0 531623.0 0
197984.0 529833.0 0
281476.0 529413.0 0
286937.0 530719.0 0
298645.0 529892.0 0
304641.0 530218.0 0
309733.0 530378.0 0
314140.0 529303.0 0
318294.0 530389.0 0
322989.0 530884.0 0
328601.0 529542.0 0
333578.0 531764.0 0
338027.0 530542.0 0
342603.0 533358.0 0
347344.0 531378.0 0
359866.0 530738.0 0
356365.0 533380.0 0
368985.0 530340.0 0
373902.0 532017.0 0
377913.0 529610.0 0
378946.0 533896.0 0
382439.0 530229.0 0
387595.0 531393.0 0
390443.0 533962.0 0
392941.0 531038.0 0
397414.0 529623.0 0
402081.0 530860.0 0
406312.0 531947.0 0
410268.0 530992.0 0
415482.0 530781.0 0
420060.0 532680.0 0
424509.0 531906.0 0
430871.0 532240.0 0
436175.0 532118.0 0
440762.0 531293.0 0
446239.0 530980.0 0
443426.0 533590.0 0
450746.0 532569.0 0
454660.0 529665.0 0
459204.0 532047.0 0
462851.0 534471.0 0
463704.0 530164.0 0
467133.0 533299.0 0
469341.0 530708.0 0
472343.0 532838.0 0
475670.0 530153.0 0
477200.0 534096.0 0
481986.0 535022.0 0
485368.0 531886.0 0
489224.0 533473.0 0
490724.0 529987.0 0
493714.0 533529.0 0
497911.0 532380.0 0
3886.26 538709.0 0
10931.8 537991.0 0
15274.4 537129.0 0
19718.3 536580.0 0
23573.2 538321.0 0
27818.7 535010.0 0
31909.6 539513.0 0
37070.5 537116.0 0
45485.6 538068.0 0
50315.6 537456.0 0
55236.5 539154.0 0
58561.2 536372.0 0
63233.5 536668.0 0
68397.9 537116.0 0
73366.8 537940.0 0
81533.7 536189.0 0
77838.5 538265.0 0
85624.2 538427.0 0
90247.7 535947.0 0
99360.2 537957.0 0
105017.0 537218.0 0
109785.0 535074.0 0
113113.0 538175.0 0
120185.0 536063.0 0
125138.0 537979.0 0
130211.0 538749.0 0
134153.0 536268.0 0
137905.0 537211.0 0
140886.0 534571.0 0
145428.0 534125.0 0
150459.0 534191.0 0
159828.0 535866.0 0
167205.0 534883.0 0
320373.0 534865.0 0
325728.0 535321.0 0
330984.0 535031.0 0
335953.0 534929.0 0
347143.0 536188.0 0
351882.0 534276.0 0
355983.0 537489.0 0
359394.0 535136.0 0
360933.0 538451.0 0
364740.0 534472.0 0
370511.0 535975.0 0
367621.0 538815.0 0
375298.0 537225.0 0
380098.0 538785.0 0
384006.0 535286.0 0
388911.0 537536.0 0
393377.0 535785.0 0
398244.0 534728.0 0
401096.0 539222.0 0
403710.0 535463.0 0
408443.0 535528.0 0
410838.0 539790.0 0
413105.0 535580.0 0
417399.0 535398.0 0
422019.0 537333.0 0
427886.0 536481.0 0
433659.0 536650.0 0
439884.0 536944.0 0
446644.0 536787.0 0
451676.0 537076.0 0
455521.0 534907.0 0
454908.0 539786.0 0
459895.0 538541.0 0
465740.0 538021.0 0
470064.0 536496.0 0
474261.0 537930.0 0
478908.0 538546.0 0
483589.0 539998.0 0
486469.0 536176.0 0
488830.0 539830.0 0
490623.0 536396.0 0
493809.0 538241.0 0
497785.0 536331.0 0
1211.68 541559.0 0
3986.08 544269.0 0
8268.9 541241.0 0
13068.7 541807.0 0
18848.6 541758.0 0
24194.7 542967.0 0
27411.6 539679.0 0
28717.0 543897.0 0
36622.4 542034.0 0
41266.3 540180.0 0
44018.7 544637.0 0
47624.1 541664.0 0
51883.6 542250.0 0
60068.5 540798.0 0
65608.3 541493.0 0
70834.7 542572.0 0
76209.2 542572.0 0
80971.6 540655.0 0
84636.3 543046.0 0
88922.6 541471.0 0
91517.6 544189.0 0
94347.2 540102.0 0
102335.0 541525.0 0
98330.3 544108.0 0
109169.0 540557.0 0
116894.0 540161.0 0
121758.0 540557.0 0
142881.0 539235.0 0
371280.0 540957.0 0
376346.0 542198.0 0
384758.0 540386.0 0
391418.0 541815.0 0
396042.0 539911.0 0
405912.0 539630.0 0
403176.0 544189.0 0
416048.0 539858.0 0
413006.0 544263.0 0
421904.0 542415.0 0
418107.0 544550.0 0
425861.0 541095.0 0
430842.0 541373.0 0
435856.0 540943.0 0
439741.0 542471.0 0
444996.0 542913.0 0
450375.0 541217.0 0
454289.0 544699.0 0
463770.0 543083.0 0
470169.0 541874.0 0
476279.0 542552.0 0
480843.0 543800.0 0
486816.0 544801.0 0
492896.0 543493.0 0
497583.0 540751.0 0
497911.0 545144.0 0
1349.29 547465.0 0
5068.61 549121.0 0
9112.5 546190.0 0
15067.9 547264.0 0
21576.2 547606.0 0
33484.7 546151.0 0
39062.3 546515.0 0
49113.6 545398.0 0
56426.0 545455.0 0
62306.0 545473.0 0
425144.0 546011.0 0
430899.0 546718.0 0
435981.0 545533.0 0
440894.0 547043.0 0
449554.0 545728.0 0
459175.0 545526.0 0
467594.0 547573.0 0
473212.0 547037.0 0
478222.0 547235.0 0
482541.0 547444.0 0
490728.0 548386.0 0
495154.0 548026.0 0
8686.04 550477.0 0
POINT_DATA 5000
SCALARS Radius float 1
LOOKUP_TABLE default
3163.97 6810.52 5415.48 5120.0 6182.6 5258.36 5061.3 3951.75 3642.12 5812.43 5906.14 7513.1 5254.28 4436.4 5733.48 5580.89 5553.16 6110.27 5840.26 5073.35 4834.9 3863.18 2356.98 5085.53 4998.37 5351.6 5492.18 5867.73 5013.56 4499.64 5542.27 5122.66 5484.19 3557.27 4688.68 4402.52 4182.53 4672.91 3588.44 5176.86 5645.7 4366.19 2938.66 3672.51 4008.92 5561.06 5670.04 6044.04 5484.83 5538.89 4715.55 4730.36 6059.59 5701.86 4375.68 5054.98 6030.06 5170.02 4927.31 5185.34 4517.56 4432.58 5903.42 3761.32 4118.05 5065.13 4940.78 3615.22 5305.17 4380.59 6716.79 3850.77 5325.36 5546.39 6759.9 7021.47 5926.61 2720.68 4238.81 4955.55 3563.63 4468.59 5885.03 5200.76 5325.02 4862.64 5205.43 6684.56 3955.56 5292.64 2635.86 4385.06 6166.5 5936.02 4231.61 3379.84 7613.27 4133.88 5945.65 5418.62 5416.38 6051.14 5836.15 4345.55 2837.58 3653.41 5246.2 5017.13 4827.23 3673.74 6116.18 3968.64 7447.37 4688.67 7184.19 4290.3 3867.67 4861.08 3942.53 3607.45 4827.82 3589.27 4951.03 4094.62 4665.12 6483.19 6230.49 5493.32 4601.27 4195.44 5740.68 3261.21 4277.89 6704.06 5600.93 3871.88 3856.01 4390.66 4911.47 5803.39 4924.6 4733.32 2899.43 2924.37 5399.73 4003.05 4805.87 5759.91 4333.2 3260.67 3936.02 4927.02 4174.52 5109.54 7054.71 3641.64 5489.43 5747.75 5539.32 4796.33 6496.85 5541.59 4124.71 5279.39 6337.56 5863.59 4381.97 3255.82 6257.19 5242.73 2812.98 4065.69 5603.15 5390.22 4712.33 5227.21 3997.1 3038.33 3383.4 4780.03 5980.74 3856.1 3829.13 6458.82 5054.25 7325.81 5360.19 4874.39 4839.34 5083.08 2980.99 5728.85 3998.5 5525.39 4024.3 5555.28 4737.14 4686.65 4695.45 4660.72 6038.78 5123.52 4295.38 4392.68 5495.39 4044.71 4487.31 5816.2 3091.3 5693.81 5789.98 5527.54 5573.7 4055.8 4727.62 4794.96 6186.19 4840.01 6834.49 5938.34 6394.38 5169.36 5834.74 3888.21 5556.96 5697.78 3921.18 4667.36 5529.52 3554.9 3996.0 4002.16 4138.16 2540.31 6029.66 6138.47 5697.4 5206.78 6425.26 5143.58 4484.76 5611.2 4220.65 7933.0 5173.87 4455.12 5380.13 5118.27 5932.23 5788.23 6052.7 3798.62 5891.05 6902.81 7199.21 5252.48 4015.92 4778.34 4684.5 5120.49 6302.8 5409.61 4270.95 4005.44 5555.88 5280.17 5028.96 6362.12 3866.16 5152.36 4511.82 5826.64 6820.42 4894.16 5711.87 4896.52 5791.61 5581.75 4254.17 3666.57 5615.42 4091.31 4523.7 5255.32 6124.89 5708.81 5542.21 5043.05 5924.89 3486.22 4414.54 5262.61 6038.2 5713.22 6732.43 4524.28 3183.98 3794.63 3778.1 4727.24 4816.2 6959.81 6321.41 4941.22 3372.79 5282.64 6392.01 4479.66 6644.76 6372.62 7565.34 5337.48 5481.78 4937.14 6894.71 5201.36 4306.53 5094.81 5972.06 5861.71 4312.67 4359.04 5017.78 5015.69 6175.81 6677.09 4829.35 5813.4 4089.76 4751.02 5184.56 4715.72 3369.13 5367.2 5308.1 3043.85 6730.19 4937.02 6037.08 5637.59 3103.0 6084.86 3307.12 4467.94 5551.36 4850.81 6038.14 6135.57 5024.9 5998.38 4270.24 4947.52 4989.15 4520.1 4642.34 4305.57 5874.89 3791.79 5201.67 5526.55 4754.05 3192.41 6084.93 4987.87 3315.57 4669.66 4808.52 5461.13 4907.89 5629.19 4049.23 3586.91 3115.91 5478.92 4933.21 5094.44 5375.47 4723.12 5659.17 4717.05 4562.29 5423.8 4164.13 3417.33 4926.42 5080.66 5153.74 4165.81 4293.03 4424.7 4389.21 4951.47 4925.44 5246.61 5215.15 4764.96 5607.24 4726.76 3599.45 5655.21 5090.24 5091.39 6756.95 5601.05 4948.92 4516.43 4749.8 5810.84 3748.24 4655.49 4809.42 4566.18 5856.11 5287.2 4234.94 4109.88 5013.13 5714.58 5110.45 5248.77 4083.97 4528.09 3556.85 3895.51 4128.98 6291.51 6246.22 4307.28 5046.33 5804.71 5053.92 5020.12 6352.26 5839.13 3735.44 5923.5 4073.93 2240.39 5096.78 6324.23 4727.24 4929.8 4382.74 4651.28 4384.42 4493.48 4230.54 5082.6 6163.38 4964.09 3459.9 4093.08 4997.27 5543.27 4980.85 3327.49 3960.8 4923.9 3329.99 4973.78 3947.47 5208.32 4607.02 3296.27 6673.96 5174.89 5882.89 4188.32 4100.38 5538.93 5727.3 4242.52 3847.38 4907.06 4645.41 4786.6 4433.59 5740.84 4612.68 6355.42 4362.19 5690.56 3693.63 3937.74 5478.47 6061.47 4449.22 5628.24 5992.26 5070.39 4613.31 5091.68 4713.25 6243.0 5441.96 4288.3 5370.52 4739.42 3697.96 4899.11 4278.07 4745.45 5356.51 3057.03 5495.68 5163.9 4973.83 5530.87 3912.37 3320.52 4310.18 4151.94 5244.78 5762.84 6142.37 5119.37 3982.23 5806.08 5243.29 4853.39 5365.89 3130.65 4511.54 5004.67 5409.33 5196.0 4178.15 4204.84 6119.09 5069.25 5048.89 3991.03 3161.47 3435.9 4652.29 5774.81 4495.87 5344.77 5027.98 5097.87 4723.48 5281.28 3818.59 4863.72 2631.9 4087.15 5489.34 6043.3 6445.94 4281.49 4129.43 4320.28 5927.43 4685.34 5492.26 4220.88 6640.13 5351.39 4336.42 3402.32 4583.31 7589.94 4466.03 4898.94 4733.04 7531.29 5935.03 4755.47 6390.78 6826.57 4788.87 3746.31 5346.27 7267.18 4143.08 4758.21 5002.48 5708.14 5952.75 4262.82 5537.72 6342.25 5293.9 6327.9 6519.71 3092.35 3629.96 4714.54 5210.03 3320.11 4306.11 6022.17 4503.89 5903.66 5419.37 5985.29 4528.49 4247.23 4268.65 5788.66 4694.83 4354.08 3903.75 4485.99 5475.8 7435.25 5543.46 5498.32 6475.1 6255.18 2691.29 7500.97 3920.42 6332.36 5542.14 4218.06 4931.53 3843.58 6142.94 6082.81 3191.99 5449.18 5367.52 4048.37 5030.91 5507.24 6851.54 5313.66 5935.47 5275.32 5512.23 4649.22 5509.42 5936.36 4520.62 5475.7 5229.48 5314.69 5127.16 6050.81 4249.46 4244.99 6022.72 4643.31 5527.33 4969.21 6917.52 6256.02 4277.88 6623.85 8332.24 7134.64 6691.39 4602.25 5110.37 5664.98 4659.59 4322.15 5025.39 5101.59 4377.07 3848.93 3813.22 5570.3 2651.49 5234.29 5349.31 4711.62 4114.24 5394.55 2976.22 4256.43 2682.24 5415.19 4016.18 5435.74 5560.26 5965.81 2330.66 4177.19 3691.0 5402.21 2845.98 4880.14 4668.71 7228.46 5320.92 3948.23 5102.36 5228.18 5787.31 6122.55 5480.13 4329.05 4931.38 4736.58 3485.26 3240.09 4556.36 3369.23 4548.16 3688.8 5893.5 3695.36 6020.48 3963.86 5076.35 5200.05 4091.8 4645.58 5670.2 5094.52 5166.79 5928.32 4946.74 5526.75 3950.63 4612.62 4275.57 3619.07 5327.45 6185.89 2983.99 3702.37 5660.85 3990.25 4752.51 3758.07 4989.09 6362.14 6719.88 5978.82 4342.9 5978.9 2739.94 4270.53 4194.5 4792.73 5513.6 5264.06 4901.41 4515.71 3817.13 5358.59 6202.55 4547.19 5023.15 3844.9 6375.99 5273.35 5181.4 6259.23 4662.56 5417.15 3405.98 5996.33 3688.16 4681.72 6631.19 6385.23 4467.04 3997.96 2614.4 4439.35 4750.17 3460.94 6184.4 3587.05 4373.45 6229.37 4982.31 5269.18 4406.1 5065.11 6155.31 6308.71 4223.33 4790.08 5911.67 4187.56 5082.47 4840.84 4501.51 5138.31 4551.24 6387.01 7111.16 4871.44 4564.34 4853.02 6248.81 5088.44 4998.21 3931.07 3457.48 7440.72 3949.6 4945.39 5661.62 4867.08 5817.25 5626.61 6363.92 6205.93 3828.81 5830.72 5309.98 5289.52 4307.48 5034.59 5314.85 4305.43 4553.56 4942.77 3927.99 5069.84 5329.64 3629.62 3323.28 4997.27 5344.25 5191.63 5379.87 3708.04 6013.14 3610.4 4621.75 4581.13 6338.89 4219.07 6480.17 5584.06 3838.56 6445.22 5872.05 6079.11 4256.67 6430.39 5376.71 5703.6 6326.18 6648.68 5407.78 4713.74 6632.99 5061.98 4923.24 7177.44 6718.19 4407.87 5450.44 3848.54 5080.18 5266.5 5868.82 4050.9 4051.44 4301.06 4716.19 5135.69 5344.0 4602.86 5925.6 3856.59 2765.2 5572.95 5413.79 5372.61 3686.21 5402.24 5013.42 4962.77 5651.07 6101.92 5323.3 4427.28 4635.6 3082.32 4765.02 3658.37 5629.39 4448.13 5070.29 4807.28 4266.03 5075.55 4084.49 6179.96 4537.6 4419.61 5703.07 5147.36 6260.79 4563.46 4082.57 4236.14 5282.91 5941.4 6510.17 4263.33 4454.63 4066.38 6695.82 6049.55 5514.76 6405.76 3456.98 4290.14 5987.17 3979.82 5586.81 6723.16 4746.52 3868.18 5130.91 4948.5 4527.02 5210.48 4519.22 7552.94 3627.55 6239.84 5865.39 5370.85 3178.54 6157.04 2684.03 5246.47 4768.61 2261.36 5280.69 4522.21 4220.03 6923.84 5449.46 6113.54 4662.43 3963.76 5733.62 5169.9 4425.84 5331.02 4871.96 5742.65 4523.88 5709.62 4241.89 4877.67 5835.78 4593.7 6045.46 4043.57 4138.42 5006.58 5011.31 5077.33 3824.16 3689.45 3948.17 4959.34 5383.07 4531.14 4602.85 7644.38 4409.63 4051.34 5521.25 5278.36 3661.9 3776.94 5949.46 5136.08 4010.57 4187.31 6191.29 5506.19 6719.94 6166.29 4950.67 4043.66 5294.77 4709.05 6553.94 5255.18 5282.51 3797.33 3004.16 4460.92 7256.35 5945.89 4800.69 5592.32 3279.1 5054.74 4020.32 5941.72 3498.2 4245.72 4763.45 3815.26 4478.15 4481.53 5045.38 5330.45 5350.88 4790.78 4247.15 6552.22 5379.09 6004.68 6799.4 5107.23 5222.16 5533.42 5558.68 3240.51 4802.32 4599.38 7422.36 5161.01 4628.4 5227.59 5453.6 3077.84 5409.63 4630.82 5528.53 5726.66 5460.65 4105.55 4767.78 4042.28 5912.61 4402.67 4978.31 4099.77 4981.9 4403.98 4948.98 5794.24 4150.99 6562.18 4107.03 3771.48 5198.77 5681.38 4292.06 5147.67 5577.04 6318.18 5125.78 5452.83 5178.99 4591.87 4027.09 6422.84 5801.99 4502.18 5534.94 5180.76 4993.35 3312.06 6218.95 4690.55 5146.37 5533.72 3678.08 5518.57 5463.48 4527.99 5730.33 4543.1 4376.7 4298.15 5190.61 6051.83 4642.93 4263.16 3973.12 6024.75 4813.08 6799.88 3062.43 4540.86 5426.78 4863.23 5235.17 6566.1 5381.16 3555.86 4560.84 4414.48 4537.32 5163.02 5445.87 4127.74 4704.72 4216.92 4571.7 4177.94 5908.1 4344.58 3929.19 4271.69 3633.87 3970.25 4850.01 2775.04 4138.46 3821.72 6035.6 5643.58 5215.05 5198.29 3975.31 4986.77 5137.34 5423.0 5344.43 4373.47 6034.41 5197.52 5615.35 4135.62 5266.22 4860.33 3685.13 5226.97 3361.26 3418.99 4983.39 4480.95 5366.52 5417.8 7132.12 4836.16 5680.94 5581.55 5545.46 6550.44 5832.37 3764.06 5941.9 6642.76 6109.49 5860.67 5990.52 5987.42 5652.0 4340.76 4435.36 6386.78 6065.22 5565.13 5227.52 4996.99 6086.96 6193.35 4541.21 4302.5 3066.13 2476.04 6048.7 4156.38 5896.46 6009.88 4742.68 5634.83 5113.21 5499.11 4502.5 5922.5 4374.35 4810.12 5347.48 6898.19 5526.14 3627.82 4044.45 6070.58 5262.19 5022.28 5490.43 6169.11 4896.11 5172.53 4318.48 6132.95 5008.63 5754.18 4270.74 5132.68 6595.03 4558.15 6552.21 5227.02 4232.16 5151.11 5300.96 4344.51 5193.01 3474.5 4707.06 8325.01 4440.81 5732.27 5829.22 4523.39 5567.93 4497.78 5811.18 3764.1 2967.38 5332.65 5463.41 4421.12 4835.83 5254.49 4221.28 4456.39 6045.22 4470.61 4631.83 3701.27 4656.78 4092.24 4729.43 5233.78 5105.16 5991.09 4562.74 5126.91 6006.16 4164.68 4678.38 5495.84 5050.65 5316.75 6268.1 5022.8 3784.5 6133.92 5782.6 6261.42 4862.21 4011.77 5965.78 6396.74 4527.08 7099.43 5776.37 4516.28 5315.4 6449.45 4244.9 6048.86 4285.32 6894.26 5311.03 4986.51 5339.38 5255.12 4285.66 4238.4 3930.79 4004.35 4763.96 3450.93 6293.89 5097.45 5737.75 2761.07 3778.02 4367.78 4350.12 4095.75 3603.51 5670.0 5222.51 6609.84 3781.77 3834.43 5491.37 5658.37 6074.94 3860.83 4250.88 6348.03 5278.56 4792.39 5434.47 6917.62 4243.79 5433.65 6451.33 5604.35 4779.5 4159.35 4929.75 5225.33 4237.98 6439.37 6649.96 4384.88 4896.39 3633.79 6887.27 6008.49 4806.34 3942.07 5776.57 5133.97 5448.61 4827.33 7443.72 7055.53 3937.08 3719.84 5013.67 4178.4 5669.65 5253.55 5011.84 7034.11 5820.48 2586.12 5433.8 6125.34 5975.63 4274.61 5252.34 2965.79 4410.55 3921.08 4287.63 5486.68 4190.31 5100.25 5678.96 4049.02 4470.4 5296.29 4611.53 3872.61 5094.48 5576.92 6408.83 5365.24 4586.19 5293.51 6625.18 4446.06 4047.87 4185.61 5099.21 5742.47 4917.99 5636.4 3319.67 4298.45 4076.59 5164.1 5135.96 6464.15 4972.17 5699.53 3783.54 4222.77 3475.67 7038.89 5146.37 4814.12 5631.14 6137.8 4442.22 5413.31 6477.91 3091.67 4332.87 4614.3 4081.97 5401.99 4303.19 5514.84 6081.14 5421.53 5480.83 5653.9 7144.24 5683.26 6600.94 3600.43 4906.82 5371.02 4788.58 5513.57 5260.34 5729.23 5206.48 4709.35 5934.22 6586.45 3780.23 5826.04 4730.41 3471.03 4359.62 5696.88 5690.26 6057.22 5062.71 6946.21 4156.2 4289.17 4497.59 5564.02 6314.07 6444.77 5083.41 7055.42 5683.61 5443.58 3836.45 5805.86 4558.46 5346.68 5020.71 2681.29 5997.88 5839.71 4360.23 3755.95 6234.32 4585.31 5010.04 5323.91 4570.98 4275.07 5825.38 4573.72 4163.74 6969.28 5698.96 6471.42 5283.8 4428.14 6016.19 4479.11 4124.49 6685.4 4850.06 5268.38 5527.23 7044.29 4805.33 3863.67 5980.95 4013.38 5067.56 3352.35 4343.78 2735.53 5263.3 4887.76 4909.65 4008.15 3012.99 4669.06 6316.56 4811.32 6420.81 6400.08 5134.39 4715.58 4256.57 5580.92 5784.3 3914.2 4607.85 4220.46 4287.53 6088.68 5937.08 5598.74 6070.3 5131.24 5046.21 5894.61 6155.1 5687.83 5196.67 5004.23 6496.67 5876.71 5624.49 5474.8 5226.0 5339.78 4750.78 3095.48 4166.08 5188.81 3979.26 6608.73 3745.84 4203.26 3923.03 4004.04 5607.14 5411.85 6915.83 6072.45 4027.46 3901.8 4470.98 5511.88 4933.65 5759.46 4512.11 6098.1 6248.6 5708.99 5687.85 6333.29 6401.43 5731.57 5662.55 5737.92 2685.81 3056.7 5889.35 5591.76 4394.56 4587.67 5388.78 6101.13 5599.7 4296.69 3665.95 6238.32 6804.79 6372.13 5369.5 5404.01 5535.91 3230.13 5955.86 5714.25 5325.96 5412.24 6332.01 5016.02 4581.37 4234.18 4920.21 7085.01 4049.16 3936.95 6193.08 6069.3 5887.01 5168.35 5116.6 6523.86 7693.4 4286.49 4743.59 6184.88 3317.83 5208.14 3532.3 4450.7 5151.52 5769.98 5973.33 2221.99 3583.21 4643.56 5442.32 5612.21 4135.08 4929.14 5128.57 5945.08 6000.7 5139.5 3979.54 7493.3 6442.69 6320.71 4814.55 4648.04 3527.05 4373.3 5029.78 6262.72 5762.59 3664.11 3365.82 4861.06 6481.79 4298.67 5960.66 5873.69 4962.09 3999.48 4643.85 6062.05 5082.74 3999.94 4735.33 4413.85 4844.57 6171.13 5092.37 4864.22 2395.5 3374.08 3497.9 5941.61 5782.48 4031.78 5950.04 2435.33 4231.83 4074.48 4477.04 3614.96 4558.47 5703.74 3886.68 5831.96 4747.55 5464.68 4539.07 4475.83 4510.8 7509.24 5896.26 4146.81 5756.75 5951.81 5093.82 5212.43 3924.14 6918.35 6348.54 4066.57 5642.35 6357.47 4891.38 4793.65 4532.89 6176.67 4533.37 4848.46 2779.99 5887.38 6942.34 5851.61 6153.94 6836.82 3862.77 3858.17 4631.99 3747.03 5388.39 2783.85 4356.49 4326.48 4437.07 4526.81 3449.37 5829.32 5491.9 4396.25 3763.05 5551.95 5092.24 3918.87 4347.74 5369.08 4518.04 5291.9 5067.46 4009.62 4863.01 5620.74 3580.58 5356.79 5604.21 5233.29 4312.56 3169.67 4968.03 5204.04 5304.13 3361.92 5944.09 3306.14 5833.06 5698.77 4863.79 6607.87 4163.5 6515.84 5117.47 4143.78 5374.51 4123.6 5320.28 7092.87 5224.12 3637.61 4569.12 6098.14 4796.58 3493.7 5750.71 4472.17 6222.42 4200.03 5654.31 5470.77 4831.47 3474.39 6939.12 5563.79 4406.4 3905.51 4721.02 6853.85 3493.47 4020.4 3546.71 4254.37 4596.75 5768.57 4188.87 4498.25 5564.23 5151.21 3735.24 6574.95 5398.64 6853.04 6817.57 4745.43 3420.08 4912.04 4320.42 4691.91 5064.79 4255.34 5480.3 7046.11 3427.63 4863.97 6342.48 4840.44 6639.64 5454.12 3687.65 4834.3 6318.23 4206.98 5156.76 6101.57 5948.71 2949.12 3856.53 5460.89 6040.74 5260.85 5742.09 2884.65 5807.46 3658.05 4648.21 4393.16 5478.11 3311.29 3110.13 5526.31 5030.15 3477.1 3644.78 4078.93 4740.98 3185.39 3728.18 5335.47 5128.77 5633.61 3994.07 5048.19 4219.94 6405.0 5907.46 4659.16 4264.91 5399.29 5549.49 4766.06 3101.75 6605.86 4874.18 2081.58 2511.46 4011.37 2775.69 4778.82 5657.36 4612.06 6124.08 5467.84 5029.47 5490.58 4750.58 5395.14 4702.06 6710.88 2477.07 3967.48 3464.83 4923.41 5724.64 4538.95 2990.77 4925.63 4970.88 4763.66 5965.15 4850.14 6739.08 4666.81 7042.12 4797.52 5501.93 4471.58 5463.38 6313.06 5945.21 4938.74 6345.13 6470.3 4719.7 5313.22 5516.95 5328.22 3436.15 4151.76 5711.11 4216.17 4575.94 6484.17 4938.72 5956.65 5931.77 5108.06 4222.4 3573.73 4000.43 4693.52 4661.03 4568.41 3624.7 5160.59 5262.35 4732.09 4281.98 7165.9 5783.48 5344.83 4701.5 4449.98 4771.65 5589.37 5439.49 5216.26 3634.5 4887.52 5478.95 3851.85 6571.31 4392.65 4058.87 6103.11 5174.75 5932.07 5048.55 4984.46 4024.31 5844.72 3992.97 4147.31 5989.05 4054.22 7228.94 4441.22 5393.65 4961.99 6551.93 4595.12 4386.8 4549.69 6484.43 6423.81 3485.54 6192.77 4312.15 5934.82 4501.78 7122.87 4243.26 6799.23 4153.84 4888.27 6740.71 5789.55 6487.56 5423.42 4854.11 4633.05 6505.78 4901.2 2275.45 6522.59 5012.5 4785.25 6519.43 3619.79 5876.64 4270.15 3298.2 5053.95 5926.11 6213.04 6667.68 4497.31 3163.78 3830.46 4721.32 4305.16 4888.6 3293.56 5882.65 5078.86 5092.28 4780.2 4918.77 5163.55 6326.39 6817.32 6471.55 5960.56 6343.14 6643.85 4020.95 5462.21 6049.79 5374.98 5226.56 5274.19 4050.08 5599.49 4097.57 5017.5 5452.42 5005.85 4893.49 5102.75 5325.44 5021.88 5760.22 5938.17 4597.29 4200.09 4795.43 5097.95 2928.82 5313.12 4914.45 4698.87 5351.56 3984.88 3344.57 5318.53 5220.76 5138.2 6945.98 6412.67 7001.83 4504.35 4593.7 5012.97 4036.91 4349.13 4891.67 5110.11 6818.91 6379.14 3503.65 4027.63 6631.28 5420.67 6413.15 5416.45 6459.51 4955.16 4904.51 2202.77 5751.15 5950.88 4149.55 5853.89 6201.86 7554.58 3380.69 4140.4 4725.01 4625.67 5966.75 4583.52 4458.64 3657.69 6418.11 3492.83 6015.02 3572.94 4922.49 5797.36 5001.58 5119.86 4820.17 4592.15 5084.17 4901.44 4909.31 5971.22 4998.22 5533.19 5711.62 5417.21 6602.43 5435.19 5461.55 3562.79 7093.13 6865.76 6306.21 5253.37 5424.46 5235.11 5211.38 5266.01 6515.8 6031.67 6413.11 4739.14 5529.42 5274.14 4636.5 4819.73 5257.12 3382.7 4903.82 5100.1 5085.71 4940.42 3954.91 3703.1 5923.4 4623.61 2965.01 6263.44 6235.57 4319.79 5122.63 4863.27 5774.97 6766.43 5862.86 4703.08 2315.64 4390.41 4890.5 4488.85 6113.95 3981.07 3731.84 3554.48 4901.07 6496.52 5186.3 3991.42 3718.69 4388.63 5966.61 4514.79 4940.28 4834.87 3672.21 2216.82 4509.89 5269.38 6752.75 5607.3 3022.6 5375.1 4811.76 4172.6 4638.18 5498.42 4196.37 6448.66 5806.31 3556.79 4453.97 3503.41 7317.04 3971.08 6204.65 4482.9 6550.4 3766.69 5513.8 5188.53 4521.75 5569.2 3429.57 5410.33 5350.88 4642.74 6735.97 5305.59 3636.15 6114.89 4330.58 5135.63 3288.01 5754.6 4355.83 6870.97 3896.27 5351.86 6056.87 5474.01 5307.35 4342.18 5166.89 5446.4 3639.44 5491.63 5725.37 3868.62 5510.9 4883.63 4505.28 4971.29 6280.13 5244.22 3684.15 5585.14 7039.98 4438.76 6456.58 4729.42 5089.26 4159.81 5415.45 3886.72 5244.98 5792.98 3776.8 5096.43 6156.21 6104.26 3568.28 4383.56 4990.79 4798.17 4953.1 5166.79 2895.63 4516.53 6449.64 3940.49 5767.9 2040.66 2978.76 4857.84 5384.76 7016.27 6138.12 6622.11 4689.15 4434.19 4428.78 4965.89 5746.28 4371.99 4946.42 5187.7 5659.95 5409.66 4082.47 6090.91 4186.6 3561.29 3295.83 5551.9 5203.08 6413.02 5412.31 3492.19 5374.07 4584.5 5548.29 4118.84 5916.16 3623.87 5163.77 6934.37 6027.62 3423.15 5010.2 6098.95 4579.69 6123.03 4997.83 5148.08 5578.94 6192.0 7610.49 5885.28 6579.31 3004.34 5323.55 3804.5 6486.37 6083.28 5211.6 4745.79 6100.73 5456.71 5470.04 4908.75 6556.26 2628.22 5684.25 5438.92 4124.76 4244.49 4775.04 5036.98 4952.52 4120.07 4882.66 3840.21 6746.66 4954.76 3908.56 4844.83 5244.78 5652.87 5483.7 5018.69 6384.7 5952.38 5807.52 5963.36 5230.02 5087.14 5169.48 6016.08 4731.21 3124.7 6064.71 6102.98 5138.33 6060.17 3743.76 3425.69 5153.18 6711.21 5510.45 4236.86 4730.14 5832.29 2606.51 3994.39 6006.89 4618.73 3814.65 2955.36 3965.3 4960.64 4983.3 6592.93 6350.71 6436.74 5425.98 5583.61 4653.83 5996.66 6063.64 5818.95 6479.39 4093.99 4122.92 5079.22 6464.8 4452.54 4908.49 4684.44 4962.21 5884.9 4749.59 5089.62 3685.65 4858.44 3468.42 6790.73 4590.55 3685.13 4673.35 5243.43 3876.21 4741.26 4655.16 4916.22 5920.32 3701.16 4537.14 6022.7 4152.85 3867.19 5251.4 4219.78 4963.34 4188.3 5081.78 5499.39 4260.92 5644.82 4407.9 4440.57 4718.54 6736.03 3087.09 4055.54 7480.41 4588.7 3766.55 6107.89 5469.13 4233.8 5765.42 4976.12 4817.16 5660.55 5453.98 5653.03 3989.7 4157.29 4777.03 5107.0 6212.15 4246.61 3684.56 4286.17 6028.09 5452.36 4609.02 4896.65 5561.74 5975.23 4198.94 4788.08 6163.54 5212.37 4211.82 5965.58 6003.78 5058.51 3899.7 4901.29 7200.89 4050.03 4813.33 4802.98 4833.55 4081.34 3646.95 7224.99 6334.53 4749.96 5377.37 4658.24 5869.67 4311.48 4387.39 3152.86 4899.73 5457.66 6394.19 5973.89 6193.73 5518.11 5254.24 4192.21 5712.35 3742.11 4743.9 5701.52 4158.91 6776.22 3719.11 5321.17 4467.13 3877.8 6273.6 4763.4 5902.67 5454.11 5393.76 4941.02 3864.92 4983.1 6119.99 3668.93 7123.04 4128.1 5372.82 4009.24 4385.81 4402.17 4034.05 7778.01 5690.96 2460.79 5798.38 4456.11 4125.9 5096.24 4986.71 6171.71 7382.3 4405.42 4997.91 2995.67 3604.14 3598.08 4599.81 5381.54 4406.05 5698.23 4680.94 5810.77 5828.35 5089.1 5799.69 2711.19 5876.72 5571.72 5689.26 5869.4 4992.42 5297.19 4345.67 4940.84 4255.85 4453.64 5019.93 5511.6 3885.86 4459.28 4517.73 5235.29 5177.64 4255.31 5191.08 5453.3 6116.33 3838.47 4479.94 2588.37 4199.45 6250.23 5887.15 4435.51 7234.66 8659.64 6599.66 4886.12 6419.12 5683.95 4301.61 5206.33 4446.84 5530.49 5065.26 3746.36 4304.41 4892.44 6789.23 5069.89 4215.2 2205.51 5361.87 6813.72 5327.75 4946.23 4783.07 6200.63 4852.58 6816.66 4532.7 4504.86 3217.67 3844.54 4473.29 5034.69 5079.64 996.652 4680.69 6500.49 3352.34 4972.18 5329.76 4607.18 2403.72 5078.59 5134.33 4147.49 5419.57 5162.67 5760.98 3629.49 4705.68 5384.86 5469.35 4019.34 4869.48 4906.11 3623.19 4745.16 4564.1 5825.55 4848.14 5509.51 5719.79 5366.22 3199.4 4316.5 7261.51 4968.14 3597.43 4914.03 5086.29 5144.56 5311.55 3360.86 3034.16 4869.25 5049.99 5545.21 4333.87 5024.32 5136.87 5638.7 4708.17 3779.45 2741.2 5806.61 5784.37 6010.59 3682.35 3756.96 4446.58 5906.57 5401.4 5053.15 5127.82 5910.86 5124.17 3862.91 5366.11 5805.1 5039.12 3908.98 3419.87 4668.88 3628.89 4022.56 6589.82 5027.43 5522.21 3772.3 4855.01 7300.58 4714.83 4028.32 5236.43 7519.2 4099.92 3809.69 4771.13 3208.96 7051.9 5285.07 4680.14 5895.77 5097.69 4765.72 4732.09 6261.75 2908.7 5857.79 3757.34 4039.91 6415.61 4338.08 4642.66 5276.7 5149.72 4541.8 5660.16 6134.99 6200.54 5424.88 5148.58 4062.5 3548.39 3583.49 3673.28 5415.85 5421.64 4858.51 4207.54 3375.28 5625.65 4603.5 4936.96 4647.67 4214.44 4481.76 3184.64 5378.23 4787.97 5375.12 5452.78 4981.43 4356.36 5473.72 4061.6 4741.28 6214.73 2603.64 4553.68 2856.55 3894.64 3703.49 6502.97 4268.19 3758.22 4374.74 4062.56 4757.2 5969.37 4928.35 5241.75 5849.53 3763.9 4509.46 4651.99 4420.11 3538.53 6127.39 5640.12 6638.25 2646.13 4759.99 4368.12 4365.58 5214.4 4636.53 5399.43 5766.05 5117.64 3835.81 3916.42 5429.3 5510.96 6653.07 4697.91 5532.72 5071.98 4584.81 5579.39 4371.08 5270.51 5148.1 5224.64 5949.73 4312.48 5527.13 5139.18 4278.57 5081.08 5551.43 6318.25 4201.03 3667.93 5001.87 4493.79 5684.05 4279.44 5813.79 5790.42 4644.88 3142.09 5293.13 5591.77 5182.13 5167.53 6110.48 7541.76 4775.49 4681.29 6239.68 5499.59 5749.6 7320.78 4064.58 4834.44 4824.81 4234.88 4384.28 5769.14 6328.42 7307.21 3381.82 5522.75 3608.06 5867.64 5474.15 6208.9 4923.57 6633.61 3340.09 4884.59 6059.93 3858.06 5217.95 4478.6 4608.41 4184.23 4083.79 3988.3 4833.46 4144.57 4351.38 5750.07 6136.49 5980.59 5550.75 6543.13 5933.7 4809.67 4752.14 4687.64 4757.74 4378.3 5411.02 4950.97 5037.06 4989.56 5175.29 5842.56 4863.96 4094.73 5713.03 4652.01 5849.65 4928.27 5775.31 5134.67 4847.14 5052.84 4165.21 4366.74 5297.16 4215.0 3950.27 5354.66 5116.66 3566.79 3629.44 5003.78 3299.24 5374.67 6246.56 5826.78 4508.18 5064.67 5175.89 5836.26 6618.21 5232.85 2617.39 5144.44 3717.47 4051.18 3205.68 4583.94 5046.31 4337.32 1937.5 4731.53 5146.0 4788.7 5721.14 5863.0 4577.73 4987.28 5084.5 6206.98 4918.64 6562.03 4815.47 4410.82 6443.99 3889.98 5193.58 5490.64 5695.44 5034.34 3769.2 3422.21 4507.46 5036.14 5603.68 4944.51 4526.34 5610.95 5042.75 5179.17 3220.8 4598.92 5241.22 6647.08 5490.75 4979.52 3422.29 5214.63 4407.79 3495.68 6548.29 5783.94 6370.33 7362.42 4202.77 6864.06 5836.14 6008.81 4932.56 4899.19 5192.49 3487.31 5058.34 4028.22 7350.26 3918.94 3768.46 5487.63 3852.82 4507.36 5003.3 6245.52 4932.29 5800.81 4990.23 3220.29 3784.94 3845.9 6016.87 3125.13 4141.21 4439.71 6715.73 5782.43 4174.44 4456.26 5667.51 5944.3 5113.6 4810.98 3563.14 5135.5 3619.72 5091.22 5347.9 4646.51 4438.58 4565.93 4504.52 5602.53 6061.63 6355.68 5484.36 4511.7 4304.63 4829.35 4187.94 4063.9 3953.55 5263.27 4277.24 6834.41 5021.77 7248.4 4356.25 3796.15 5036.58 5469.47 4419.71 4888.12 5439.9 4244.21 5512.16 4588.99 3197.63 4617.55 3875.05 4287.16 3645.12 3456.47 5471.74 5199.44 4344.34 5580.34 5966.42 3852.6 5131.15 5009.83 4110.59 5717.8 4706.5 3332.49 5210.75 4811.22 3683.86 4474.83 4918.76 5293.75 5114.07 4208.41 5730.61 4385.49 7124.45 6358.93 4383.68 6666.67 6063.44 2904.46 4826.52 5120.92 6449.06 4685.4 4629.02 6240.42 5914.5 6006.16 4288.45 4608.62 5407.96 4071.75 4626.72 5131.77 5549.71 4967.51 5173.82 7212.97 3720.7 4211.36 5698.53 3856.73 4450.49 3468.45 5887.71 5635.32 4827.61 4316.45 5409.08 5481.64 5673.75 5360.67 5968.54 4501.05 6263.3 4537.03 3247.97 5124.34 4114.2 5352.24 3990.96 4326.06 5034.46 5793.12 5469.17 5473.05 5061.75 4373.2 5537.34 5884.99 5726.42 6643.4 4674.9 5575.11 5461.72 6599.28 7145.73 4168.52 3954.77 5403.97 5106.46 6793.1 5166.05 4506.66 5209.55 5515.73 4708.31 4564.41 3873.92 4027.33 4198.9 6331.74 5431.29 5951.86 5026.76 4833.67 5023.41 4659.88 6282.38 5640.72 4546.44 5851.63 7107.63 5212.92 5073.02 4831.93 2279.05 4867.7 6545.43 4075.28 6760.92 4989.2 4469.54 4023.93 4314.56 5868.89 6300.92 8137.11 5161.1 3928.53 5291.05 5776.96 6045.67 5329.59 4209.49 4216.95 6119.63 5464.25 3821.94 4209.31 5486.48 3498.16 4409.27 4752.9 4947.24 5301.47 4321.21 6506.86 3540.11 5950.45 5391.48 5088.57 4923.43 4568.64 5666.95 5210.38 4642.2 4127.53 4945.0 4489.99 4548.45 4658.11 4551.26 6555.44 5678.58 5658.14 6570.35 4263.18 4242.63 3269.54 7142.95 4559.74 6015.22 5064.23 6061.85 4454.74 5268.15 5512.44 5819.0 6347.72 4924.07 3460.93 3200.6 4927.73 4602.57 3565.32 3763.85 3419.07 5710.33 4096.86 5344.44 5001.51 3186.07 6432.8 5115.42 4369.86 4082.4 5482.76 3745.02 5728.58 4887.73 6297.99 3604.31 5378.24 4538.89 5817.74 6556.86 5661.6 3242.31 6099.28 5285.75 5385.03 3234.26 4830.13 4169.15 4778.37 3494.16 5134.17 4074.16 4904.35 5592.54 5390.33 4904.37 4651.64 4358.81 5757.29 5729.92 5275.57 5016.46 6224.13 3769.24 6022.78 3661.67 4087.32 6647.85 2569.12 7025.09 3392.26 2549.95 4433.12 4361.24 5138.93 6224.85 4556.19 6406.8 5368.66 4795.08 6562.92 4068.31 5501.73 3671.06 5077.29 4697.24 7035.54 3612.44 4850.5 5233.76 5763.05 5129.68 4252.18 2820.07 5357.39 5076.84 5325.91 4092.07 3791.41 5657.55 5727.79 4213.05 4224.3 4184.21 4700.07 5788.97 5188.82 3472.91 4464.73 5615.84 4928.85 6440.38 5556.0 5484.32 6650.77 5007.21 6226.14 5466.33 5742.74 5280.12 3946.28 5984.81 7216.98 5721.05 6329.53 7013.17 3805.67 5718.28 5367.73 4247.69 4514.39 4640.06 6242.79 4227.41 5993.0 6047.14 4803.57 4728.55 5467.63 4929.6 4368.28 3919.62 5750.35 5984.8 3127.83 4212.15 4585.04 5260.52 6102.49 2945.34 3469.18 3185.09 5114.23 3372.95 5495.0 4489.29 7407.91 5846.95 5716.42 5701.63 4620.95 5368.93 4488.39 5124.86 6121.56 7168.2 4571.74 5740.78 3622.48 4796.12 5997.91 5385.86 6791.86 4209.0 4930.72 5485.84 6424.77 5453.69 5918.95 5432.04 5689.56 3702.45 4898.29 4431.06 5372.25 5730.2 5620.88 5370.9 4941.52 4529.77 4325.13 6172.27 4262.74 3783.79 5078.73 4248.14 5278.54 5729.0 5192.92 7050.08 4179.87 4786.66 4761.84 5517.65 5370.1 4009.68 5114.51 4622.73 5161.74 4161.32 7336.37 5256.75 5099.9 6945.69 5118.86 7086.69 5648.78 6875.73 5226.42 6081.3 4983.43 5615.35 5117.52 5426.4 5866.91 6405.69 5679.74 4825.73 5247.01 5853.12 5288.33 5157.38 4208.37 6203.03 5235.87 5273.37 5043.14 4717.73 6089.45 4732.37 4985.3 4711.04 5072.5 3904.07 3274.85 5713.36 5748.9 7144.05 4173.54 5599.29 4619.2 5606.51 4801.8 6038.68 4444.97 5046.12 5271.02 4807.4 3000.29 6349.67 4264.54 5261.19 4350.15 3516.27 4139.3 6541.45 4590.01 4601.74 4263.78 6101.86 5078.31 4807.35 5228.75 6761.81 3903.91 2918.64 5630.9 4140.92 4554.68 4512.07 4692.32 4176.32 5463.06 5236.24 4639.8 3986.41 4241.68 5532.75 6949.65 4095.83 4975.85 5695.25 4495.75 5323.95 5676.61 6171.01 4301.93 5796.26 4468.26 4603.04 5578.18 4870.94 5293.37 5271.88 5559.79 2980.31 3148.79 5879.24 6348.93 6824.53 4332.64 4742.82 4422.23 6031.22 4820.68 3618.64 5703.84 4335.79 3530.82 5797.32 4886.99 3921.27 3161.1 5265.63 5764.52 5684.88 6523.78 4645.86 4045.67 6005.95 4308.49 5900.0 4930.17 4581.1 6241.77 5317.19 5762.82 7360.12 5279.19 4016.6 5821.49 3035.06 5580.44 5891.25 5129.4 5095.52 4746.15 3303.49 4655.37 3720.38 4758.84 5585.25 5023.61 6351.89 2960.5 5932.28 4975.32 4298.7 4183.4 6170.9 4733.79 5833.78 4436.48 4823.06 5758.98 3967.76 5254.49 6311.89 5288.64 4683.28 6213.24 4217.36 6549.8 4150.76 4851.18 4165.36 5005.72 5368.52 6296.54 4841.7 5797.21 5702.4 5069.9 5685.74 952.938 5473.89 6740.35 4678.7 5810.17 3673.6 3306.84 4966.07 4657.24 4400.14 5545.59 4749.18 4506.18 5553.94 5166.41 4067.96 4824.12 5740.65 6542.5 7104.73 5067.56 2596.96 3834.47 6162.3 5701.75 3272.75 2781.96 5262.47 3512.94 3104.96 7043.44 3831.52 4263.65 4750.49 4258.98 4643.9 6106.43 3787.08 5644.81 4013.86 6545.99 4177.47 5334.36 4218.16 6139.64 4933.49 3990.94 4357.11 4756.8 4896.43 5477.8 5486.89 4462.35 4549.51 6069.78 5196.08 3587.93 6379.38 4517.29 6257.79 4849.5 6229.83 4523.81 5065.74 5791.25 5106.33 5198.94 4873.23 5933.54 4028.35 5464.05 5453.2 5264.83 3901.53 5136.51 6815.51 5232.16 4457.05 5189.91 3989.26 5777.26 4171.02 6119.0 7012.36 5028.06 4293.3 4002.99 5587.3 5159.67 3572.73 4864.38 3770.22 4390.64 4491.96 5150.84 4608.01 4467.51 5087.97 5339.82 4519.03 5460.57 5110.27 4745.44 4085.96 6223.98 6649.52 5462.6 5617.29 4262.19 4597.88 5998.13 6275.25 4878.93 6892.33 4731.37 4505.3 4452.36 3976.0 4672.86 6530.78 5560.23 5059.37 3043.77 5237.55 4139.39 6264.03 3902.48 4304.64 3909.94 6030.39 4905.53 3799.01 7392.65 5319.1 3757.23 6734.39 5987.88 5942.45 4228.53 3579.59 6123.46 6142.88 4871.77 5811.26 5155.28 5388.73 5062.77 6019.35 6075.99 6028.63 3450.07 5265.21 4550.92 6215.87 5191.26 5494.28 5866.42 4704.92 3663.0 5610.53 4099.26 5206.47 2970.9 4834.39 4383.47 6304.49 4608.34 5971.21 3926.11 4835.97 5493.89 4057.17 5695.79 5464.83 3622.8 4770.51 4184.47 5414.58 7066.96 4431.23 4467.0 4994.65 4991.35 4587.7 5740.98 5601.55 4346.07 4462.87 5196.92 4012.92 5759.79 4598.54 4816.51 4711.15 5218.42 3825.48 5345.73 4658.59 5188.22 4770.63 4841.23 2804.54 4196.62 2809.19 5005.6 4104.04 5589.53 7208.19 5234.2 5025.42 4965.24 5327.05 5438.55 5353.23 4434.65 5977.66 5209.5 6175.27 5876.51 6731.89 5410.6 4286.61 4733.41 2932.52 4603.66 4969.68 3557.46 6636.43 5431.14 6298.8 5313.86 3689.24 5178.07 5151.19 6509.54 6079.55 3792.06 5128.59 4993.49 5310.33 6583.37 3688.83 3402.44 4848.98 4397.06 5184.98 4053.12 4479.5 6261.67 3435.13 5065.78 5703.34 4431.46 4521.42 4612.68 3207.84 6668.98 3977.98 6043.34 4232.33 4939.56 4747.68 5770.92 3093.38 4845.91 4723.71 2002.78 5631.32 4461.67 6322.0 5793.14 4491.26 4068.41 4511.34 4832.21 6463.71 4742.35 5783.38 5645.54 5088.64 5264.08 3562.8 6589.8 6920.92 3729.16 4174.22 3783.36 4181.93 3573.84 3038.91 6828.8 3922.28 6570.43 6883.86 6161.94 4065.28 4979.5 5057.59 4461.14 5111.26 5285.6 5205.38 4574.54 4884.93 4949.55 4600.71 4764.83 5262.79 3957.38 4494.15 5927.2 5035.71 5146.1 4419.79 6485.77 3669.32 6060.06 4762.1 5544.27 3484.81 3742.31 4954.81 4316.0 4546.96 5424.55 4287.25 4580.06 5755.15 5134.72 4271.07 4191.01 6419.64 4589.06 5340.05 4215.05 4140.04 4920.88 4668.8 5995.4 5577.41 5917.34 6511.37 4216.44 3999.5 6710.14 5034.05 4426.02 3953.26 4474.39 5467.51 5459.92 4096.47 3810.68 6478.35 5453.77 4916.7 2638.82 5030.33 5593.79 5157.73 5104.39 4612.13 5847.91 5846.6 4934.66 4984.01 4109.44 4903.84 4290.49 4605.39 4557.1 6688.53 5927.1 6500.45 4907.55 4103.76 6605.11 4757.87 6379.33 5971.95 5652.73 3979.46 6321.97 6412.84 6071.59 2589.19 3856.4 5485.61 4696.06 4137.16 4937.36 5308.4 4569.32 6581.13 5537.61 6084.88 4721.98 5252.82 3543.98 4199.44 5056.26 5878.55 4014.44 6604.72 6002.77 4610.55 4967.02 4614.49 5400.69 4462.5 4128.93 4712.17 4959.72 5004.68 3808.04 4023.88 5348.11 4405.61 6126.5 4034.88 6007.1 6345.2 4609.65 5009.21 5704.61 5410.73 5394.79 4379.91 4574.03 5290.37 5850.38 4526.87 4151.74 4227.66 5192.82 4691.01 4594.89 5245.95 4067.89 5821.42 6294.09 4571.57 3445.92 3820.19 3350.99 5236.69 4745.37 4586.82 5939.29 5418.98 6200.05 5575.11 5615.06 3132.34 1969.87 4841.28 5490.54 4047.95 5507.38 6889.5 4710.88 5001.69 5407.69 3869.39 5960.5 3987.69 5308.33 6502.99 6896.55 4666.12 4638.09 4392.75 4921.1 4685.65 6219.34 3814.16 6023.07 4420.6 5674.63 5287.25 6506.63 5939.22 3626.86 5418.12 6371.96 3495.3 4271.93 5890.25 5322.11 5700.79 4697.49 5524.45 5735.08 7133.44 4726.2 4750.81 4282.11 4625.53 6589.13 2347.41 5602.62 4542.16 5714.51 3543.37 5114.67 2030.03 5353.66 5527.27 5765.14 4541.22 4946.08 3539.68 2927.84 4696.03 6177.68 6217.33 4698.7 6270.59 6045.26 2848.44 6263.87 5743.8 4094.63 5084.76 5581.01 6834.92 5749.53 5130.57 5090.48 5402.45 5582.28 3985.93 5945.25 5985.75 5475.83 6189.29 5984.55 5803.3 5672.46 3228.27 3956.24 4142.1 5333.04 5445.91 4521.99 4812.59 3794.47 7115.67 5675.45 3361.11 6038.56 5573.31 2807.46 5599.16 4179.8 3488.34 5658.35 5428.24 5108.84 3511.5 4582.12 4520.14 5067.92 5488.96 5357.14 3188.21 5128.03 3720.92 5087.3 4942.63 6139.74 4975.57 7066.26 3057.3 3677.85 4730.97 5214.71 4515.02 4677.84 4811.11 3463.53 6126.03 5131.07 4121.07 5524.28 6026.04 3133.28 5731.43 6353.81 5859.17 3414.67 4052.49 4034.41 5061.74 5203.54 5326.03 6189.67 6142.94 4948.96 5117.83 4416.87 5256.82 5300.17 5152.78 4117.9 4052.43 5393.43 4057.4 5534.23 4753.76 6025.77 4441.91 5377.01 4466.22 5330.26 6470.23 5828.25 4475.38 4725.11 5483.37 5092.93 5934.05 2803.01 4604.1 4714.66 5125.17 4399.52 5322.07 4859.01 4444.0 5076.11 5770.07 5990.75 5600.21 4656.01 5781.62 4037.86 4138.59 4970.55 4938.33 5628.97 4819.83 4484.78 4621.33 4801.16 4767.54 5071.38 5121.08 5688.77 5368.28 5466.13 5257.38 6229.64 4220.43 5625.02 4975.56 7282.36 6666.34 4829.77 4645.91 3826.01 4444.92 6959.88 4125.75 5247.73 3746.62 4532.67 4876.37 5034.02 5260.13 4649.5 4810.74 5181.31 3900.93 5784.38 4149.17 4329.8 5728.27 3074.49 6571.26 5202.33 4313.38 5580.95 7558.99 3393.59 3549.92 4032.06 5043.14 5246.81 5089.1 5394.78 6842.54 2853.68 4998.37 5262.85 5329.84 5901.71 6559.82 3879.83 4577.98 6565.95 5043.34 5886.81 4487.51 4246.24 4295.25 6805.02 7394.47 4729.45 4850.95 5919.27 4793.06 6637.38 6188.33 6111.23 6916.18 6150.31 5873.62 4996.91 4924.52 3920.44 5379.52 4866.8 6044.69 3768.62 2970.24 4197.87 5105.54 5462.1 4000.51 6032.45 3518.14 5444.36 4150.44 5522.34 5771.98 4420.35 5899.78 5717.45 5000.74 5772.57 4813.81 6581.56 5268.27 4013.86 4061.87 3980.46 4896.67 5165.31 4585.37 5383.9 3934.11 5158.44 4288.5 4781.9 4496.51 6815.96 5339.6 5917.08 6561.94 5259.21 4256.08 6738.9 5881.93 5992.06 4460.89 4157.1 8052.53 6771.18 6182.19 4984.17 4867.12 5101.6 5910.66 5327.39 7415.84 4981.81 5141.03 5734.07 4840.44 8123.59 6033.28 6286.27 4188.16 6327.54 5507.07 5616.66 2943.17 4802.36 4880.78 5327.71 4322.56 5509.09 5075.23 3873.72 4592.49 5212.05 3625.98 5479.86 6474.5 3928.99 4763.04 5944.52 5971.9 4413.56 5050.2 2513.38 5316.05 4769.62 4908.32 3995.08 5019.84 4028.13 3874.12 4457.73 6476.35 6260.58 4067.24 3053.19 6139.9 4720.22 5827.3 6598.99 5250.56 2468.16 6294.14 5888.95 4339.97 5203.75 3463.34 5169.09 5122.38 2459.88 4691.15 4210.24 4512.6 5470.67 4932.27 5225.11 5342.9 5252.22 5733.12 6436.29 5402.81 4600.81 5354.48 5640.63 4900.26 6261.13 5374.09 4167.55 6271.22 3421.81 5378.75 3920.64 6186.24 5786.06 5822.7 4137.41 4159.89 3868.69 5447.74 4450.51 6033.72 3851.47 5314.67 4966.74 5658.05 5563.47 6593.1 4066.36 3162.27 6033.93 2827.92 5011.37 4026.03 5092.44 5044.68 2649.69 4441.44 6908.32 3467.11 6153.26 4817.75 5637.53 5244.95 4645.93 4634.25 3882.37 5448.64 4095.4 5901.8 3798.09 6351.48 6417.61 5715.51 3886.56 5783.69 4511.05 6153.71 3456.3 6074.39 5350.9 5317.83 3483.61 5640.67 5545.68 6080.69 3939.96 4554.24 4970.12 4967.93 6044.01 6520.19 4637.3 1458.87 5922.62 6241.48 3997.68 5125.45 4414.09 5957.82 3784.68 3717.22 6649.21 3470.69 4654.92 4859.95 5286.55 5522.18 5223.1 4850.49 4981.55 5093.41 5144.23 6188.62 6153.07 4702.32 5908.57 7296.47 4821.41 5742.39 4924.53 5616.11 4499.52 4813.24 5759.19 3113.64 5847.27 4490.2 4304.75 5480.86 4950.07 4582.24 2832.83 4474.96 4084.87 6036.99 3010.1 3633.58 3584.05 3825.98 4589.22 5087.03 4667.84 3906.41 6224.64 4260.38 4636.45 4221.03 3799.55 5638.51 6793.49 6060.19 4962.35 6786.37 4333.23 4328.76 4919.13 4124.33 5168.97 5783.88 5002.38 4720.34 6705.93 5244.47 4731.16 5510.89 6470.87 3780.07 4495.33 5282.67 5466.49 4038.17 5178.55 5007.41 4907.48 3692.99 6213.74 5651.46 4959.94 1635.31 5639.4 6185.73 5516.37 4083.24 6520.96 4232.44 4612.4 5336.61 3312.3 5563.09 6381.58 4848.15 3282.57 4439.09 5523.81 4798.13 4718.61 5188.57 6697.45 3873.79 5395.12 5357.33 3830.7 3721.69 6210.0 5432.4 4262.52 7430.48 4844.2 6572.17 3751.73 3374.62 2181.29 5555.89 4766.47 6369.66 6009.93 5678.08 5973.57 3482.73 5872.45 5270.1 5130.56 5191.29 4957.99 4947.64 6305.9 4542.62 5093.28 6131.52 4132.08 6009.88 4699.77 6842.35 5464.34 3621.63 4777.96 4414.06 5801.89 6833.5 2613.78 5417.07 4780.16 5738.37 3834.01 6789.66 4433.23 4739.41 5312.2 4706.59 5734.84 3982.31 3916.15 5367.05 4758.76 4790.63 5259.29 4916.75 3743.85 4818.53 5097.85 5584.64 4123.08 3795.63 5189.4 4576.71 5082.66 4550.77 4337.93 3563.33 3550.88 5536.0 6223.33 3860.8 5145.13 5561.63 5940.5 4358.06 5093.51 5647.93 4865.11 6201.49 5449.09 5502.14 4605.61 4465.56 4131.08 5386.95 5747.9 3864.19 5146.69 4287.93 6203.24 6818.23 2329.93 4488.41 4369.87 6938.87 5412.07 5512.57 4806.99 5432.2 3771.91 5217.62 6178.19 4746.19 5349.85 4616.81 5715.25 5212.2 4362.94 5648.59 4611.21 5108.42 4630.5 6296.36 5717.67 4432.32 5515.59 5252.37 4451.76 3224.81 4499.54 3775.38 5037.58 4046.22 6457.89 4104.97 4081.77 5114.61 4987.01 6118.13 4706.31 4420.3 4926.62 4871.1 4735.99 3917.09 6492.44 4083.1 4613.32 5145.39 3996.93 6351.95 4063.26 5195.09 5345.05 4997.89 7679.2 4881.51 4909.74 4311.92 2626.41 6729.99 6664.54 3922.98 4565.36 5161.73 5259.48 4025.08 5254.93 4803.4 8013.28 6608.94 3796.73 4644.68 3082.16 2892.36 5656.84 5416.41 4694.27 6760.64 4414.23 2515.5 4849.21 5177.88 3793.83 5551.79 6981.47 6189.81 4449.73 5647.11 4088.72 3945.62 6236.46 5342.17 6379.3 6189.04 5015.67 6538.04 4894.15 6157.59 5201.3 4345.51 4048.73 5438.6 4246.83 3747.96 5611.29 4521.88 6568.45 5004.22 4280.92 4696.92 5154.74 6437.99 6898.8 6632.04 6540.57 5332.11 5315.71 6158.93 5081.65 4823.14 6679.12 5652.19 5806.74 6578.62 4813.55 5856.43 4796.04 3465.03 3839.0 5229.56 6011.4 5799.86 5172.1 6052.22 4469.82 6545.78 3354.94 4404.87 5105.72 5237.27 5767.65 7885.41 5782.25 4907.03 5497.27 4575.72 5617.91 4948.21 4444.95 4721.2 4202.12 5161.02 6332.64 2694.25 5003.81 4203.68 4739.56 6262.18 4701.03 3818.37 3352.46 5663.36 6225.05 5434.04 5200.1 5994.21 3997.52 4444.54 5403.81 5779.9 6964.78 5310.33 4374.05 5299.03 5036.84 5669.41 5813.68 4008.67 5040.9 3618.53 4770.21 4868.66 3846.55 5283.65 5943.61 5981.54 5911.29 5020.37 4542.25 5233.88 4785.55 5245.4 5848.41 4090.28 7370.52 4726.5 5467.05 3724.23 5103.3 4601.54 7263.57 3832.09 5705.96 5175.88 5267.65 5360.88 3509.34 4893.72 6004.72 4072.4 4983.56 5373.78 5345.65 2489.44 5438.5 4621.32 5699.4 3878.8 4698.94 6284.12 3948.21 5669.15 5296.05 5263.86 4672.34 5056.32 3330.85 5533.52 5376.41 5003.63 4747.24 4870.14 4695.7 2932.2 4944.08 4082.01 5576.16 5269.39 5003.49 3964.03 4750.76 5210.22 4216.33 5832.72 3903.9 5606.22 3943.77 5242.38 6265.48 6081.35 5459.52 4609.98 5566.5 4752.31 4276.59 5579.04 5125.53 5405.6 4884.93 3929.35 4759.38 5082.25 4287.15 5282.51 5504.65 3760.4 5732.11 4602.7 5596.68 3783.35 4037.16 4004.39 5159.9 4987.48 4248.58 5479.17 4963.88 5888.94 4727.98 4122.2 4516.26 5739.69 4790.16 3647.26 3731.58 7360.62 4977.64 3166.37 4985.45 5205.53 5699.51 5499.37 4489.18 5863.36 4883.13 4632.75 5237.76 4752.94 4994.98 4286.84 6423.96 6058.13 5894.69 6988.4 6635.51 4060.17 5410.33 4713.56 6051.35 5302.53 4380.86 4909.13 4287.61 5648.02 4305.35 4867.13 3308.75 4604.34 4439.17 2451.27 5677.42 4929.35 5051.39 6673.92 4633.59 3124.49 5151.68 4884.94 5362.15 5268.93 4455.61 4738.72 5240.97 5569.85 5306.31 5523.96 4223.53 4733.37 4535.94 3037.72 6960.97 5126.08 4523.9 5604.0 4951.02 3919.47 6395.63 5369.42 5207.08 4714.52 4587.19 5543.05 4836.76 6028.89 5551.09 5333.16 3950.53 4888.17 4501.1 5581.47 4384.91 4274.05 6550.61 4987.01 5529.09 6094.34 6779.82 5543.67 3999.81 6210.48 6377.45 4863.27 4182.05 2701.42 4502.12 5442.79 6853.07 6327.61 5733.59 5575.8 3695.72 6874.6 5106.9 5755.98 5392.85 5077.2 5275.27 4277.54 4531.46 5925.82 5448.68 4739.5 4072.95 4491.62 3865.5 3255.93 
SCALARS Velocity float 1
LOOKUP_TABLE default
1.44176 1.48982 1.23811 1.33259 1.30424 1.51054 1.45622 1.46127 1.4488 1.46448 1.47657 1.50289 1.45259 1.48633 1.47586 1.45428 1.51155 1.44861 1.20592 1.2145 1.25895 1.23516 1.06555 1.18684 1.31668 1.47832 1.46439 1.51756 1.49093 1.45012 1.45061 1.47139 1.47721 1.50408 1.48977 1.49312 1.47414 1.47564 1.44948 1.48861 1.48091 1.49498 1.50385 1.489 1.36152 1.25799 1.24935 1.31899 1.51493 1.471 1.47068 1.47396 1.51201 1.49452 1.46533 1.44359 1.45413 1.5128 1.49484 1.48009 1.47935 1.48102 1.47235 1.47602 1.49468 1.5044 1.52293 1.39472 1.46436 1.33219 1.24787 1.26768 1.46713 1.25392 1.51084 1.46545 1.51591 1.48978 1.50882 1.48627 1.52781 1.45332 1.50002 1.50092 1.52087 1.48771 1.48677 1.47756 1.46165 1.49584 1.46198 1.52641 1.50527 1.52212 1.56984 1.44768 1.25131 1.23883 1.41834 1.45226 1.52228 1.4976 1.51615 1.56092 1.50708 1.50368 1.50924 1.49134 1.48741 1.48695 1.48546 1.47637 1.47558 1.53624 1.50549 1.51443 1.5186 1.53823 1.58693 1.34777 1.66714 1.69422 1.28109 1.50068 1.65429 1.2237 1.40608 1.45513 1.50745 1.53017 1.49466 1.52383 1.52176 1.53855 1.5063 1.50262 1.49868 1.48785 1.48945 1.48496 1.54029 1.51758 1.5104 1.51074 1.52574 1.52631 1.66607 1.65995 1.18915 1.19169 2.39645 1.65372 1.87127 1.66219 1.49424 1.51141 1.51945 1.51118 1.52817 1.52358 1.52687 1.4945 1.50547 1.49263 1.49022 1.49112 1.48045 1.53039 1.50626 1.52179 1.51143 1.52315 1.52335 1.59666 1.61597 1.70637 1.76595 1.23784 2.04889 1.51784 1.53577 1.10937 1.62529 1.58577 1.51413 1.51917 1.51944 1.51931 1.48465 1.50586 1.50397 1.49876 1.49614 1.49486 1.5046 1.48764 1.53586 1.51148 1.50877 1.6 1.57497 1.49703 1.39111 1.40952 1.46377 1.4673 1.48964 1.53378 1.56846 1.51699 1.53148 1.53371 1.51717 1.51613 1.51611 1.51735 1.49846 1.50852 1.49799 1.49311 1.4951 1.49637 1.51889 1.63631 1.52925 1.53512 1.62922 1.47897 1.43838 1.46526 1.4774 1.49133 1.50235 1.50845 1.50738 1.51377 1.51034 1.51126 1.50604 1.49575 1.50448 1.49719 1.49354 1.49074 1.48761 1.48576 1.47891 1.49398 1.50353 1.5197 1.46789 1.48096 1.44517 1.50966 1.48049 1.4725 1.48434 1.48921 1.49566 1.49818 1.50268 1.49506 1.50428 1.50565 1.49924 1.50309 1.49803 1.49784 1.49657 1.4982 1.49426 1.49271 1.48686 1.48067 1.49047 1.47932 1.48792 1.49996 1.46266 1.47838 1.46474 1.48784 1.47652 1.47935 1.47104 1.48356 1.47764 1.48669 1.48018 1.49067 1.49006 1.49082 1.49791 1.49492 1.49614 1.49451 1.49427 1.49164 1.49166 1.48973 1.48108 1.48532 1.47802 1.48273 1.47853 1.47973 1.48119 1.47738 1.46679 1.46483 1.47299 1.46594 1.4726 1.47608 1.4836 1.48423 1.48654 1.49114 1.49004 1.49174 1.4884 1.4894 1.49219 1.4888 1.48829 1.48369 1.47904 1.48006 1.47542 1.47461 1.47518 1.47201 1.47411 1.46592 1.46802 1.46095 1.46018 1.46124 1.46469 1.46162 1.45813 1.46103 1.46976 1.4708 1.47673 1.47408 1.47972 1.48492 1.47864 1.48498 1.48714 1.48576 1.48563 1.48388 1.48157 1.47908 1.47931 1.47556 1.47559 1.47137 1.47148 1.47153 1.4655 1.46898 1.46263 1.46385 1.45892 1.45537 1.45635 1.45654 1.45509 1.45549 1.45496 1.46323 1.46966 1.46251 1.46825 1.47457 1.48025 1.4754 1.47993 1.48307 1.48395 1.48197 1.47992 1.47929 1.4772 1.47384 1.47499 1.47122 1.46996 1.46686 1.46595 1.46281 1.45751 1.45867 1.4565 1.45364 1.45149 1.45237 1.44989 1.45206 1.45839 1.45036 1.4507 1.44723 1.44828 1.4539 1.45571 1.4622 1.46959 1.4642 1.47185 1.47633 1.47627 1.4729 1.4785 1.47588 1.47702 1.47525 1.46981 1.47223 1.46927 1.46775 1.46693 1.46363 1.45899 1.4579 1.45359 1.45058 1.45072 1.44823 1.44588 1.44896 1.44575 1.4496 1.44747 1.44922 1.44804 1.45192 1.44738 1.19178 1.44287 1.43748 1.44344 1.44262 1.44768 1.4406 1.4561 1.46615 1.46144 1.46098 1.45679 1.4673 1.47435 1.47108 1.47154 1.47286 1.47445 1.47254 1.47153 1.47264 1.46801 1.4692 1.46308 1.45491 1.45523 1.45048 1.45309 1.44572 1.44521 1.44372 1.44334 1.4432 1.44652 1.44484 1.44412 1.44489 1.44472 1.43123 1.43802 1.43183 1.43633 1.43417 1.4289 1.4489 1.45495 1.46153 1.46745 1.47114 1.47071 1.46935 1.4679 1.46408 1.45391 1.44547 1.44897 1.44287 1.44187 1.44244 1.43956 1.44107 1.44102 1.4412 1.43906 1.44135 1.44295 1.44234 1.44061 1.44293 1.44122 1.42702 1.42579 1.4239 1.44149 1.43358 1.43877 1.44973 1.44666 1.45389 1.46331 1.45452 1.46523 1.46113 1.46229 1.4716 1.47454 1.46495 1.46843 1.46407 1.45814 1.43979 1.44592 1.4457 1.43764 1.44028 1.43833 1.44007 1.43801 1.43812 1.43965 1.43722 1.4388 1.43847 1.43564 1.4346 1.43681 1.43898 1.44025 1.43811 1.43938 1.43714 1.42291 1.42082 1.41954 1.41813 1.42273 1.42905 1.4354 1.4322 1.42681 1.44845 1.45693 1.45141 1.48293 1.46212 1.46291 1.46053 1.43945 1.43111 1.43308 1.43808 1.43768 1.43465 1.43388 1.43162 1.43319 1.43545 1.43831 1.43884 1.43958 1.43468 1.19178 1.41757 1.42127 1.41469 1.41128 1.41513 1.41653 1.41268 1.4267 1.4208 1.41189 1.44233 1.44599 1.44284 1.42991 1.44384 1.44204 1.49091 1.42378 1.47255 1.52216 1.41994 1.44131 1.42111 1.4409 1.4407 1.43194 1.42838 1.42494 1.43133 1.43161 1.44037 1.43638 1.42747 1.43346 1.43124 1.19178 1.41116 1.40345 1.41885 1.41741 1.41615 1.41356 1.40872 1.41307 1.42265 1.38617 1.45088 1.46022 1.44396 1.42489 1.51352 1.50807 1.34607 1.40713 1.43583 1.37917 1.42179 1.42814 1.41821 1.43743 1.42722 1.43711 1.42556 1.42705 1.4231 1.4256 1.42403 1.43766 1.43402 1.42641 1.42389 1.39815 1.42302 1.41655 1.40345 1.39487 1.41225 1.41334 1.40639 1.4147 1.38902 1.41398 1.37346 1.4467 1.47222 1.44328 1.43161 1.45175 1.4453 1.43171 1.43519 1.40736 1.38418 1.43471 1.4223 1.43076 1.42602 1.42493 1.42104 1.42071 1.41961 1.42472 1.41497 1.41963 1.41809 1.42417 1.41612 1.43278 1.42101 1.4242 1.19178 1.39373 1.39493 1.41612 1.42614 1.40434 1.42122 1.43224 1.42387 1.40517 1.38481 1.40166 1.37979 1.39989 1.35573 1.43235 1.45026 1.44095 1.46267 1.42628 1.36366 1.3935 1.40763 1.34162 1.38745 1.39133 1.39305 1.43172 1.42466 1.41261 1.4251 1.42203 1.42753 1.42863 1.4414 1.41634 1.42239 1.41473 1.40906 1.44855 1.40105 1.41408 1.42027 1.40795 1.39095 1.37429 1.38743 1.37561 1.45264 1.36326 1.4727 1.37654 1.34926 1.3569 1.37929 1.38126 1.5023 1.44775 1.45411 1.43621 1.35414 1.41057 1.35347 1.36677 1.34489 1.33766 1.44754 1.42317 1.38927 1.42136 1.39415 1.40264 1.41134 1.41396 1.42701 1.43496 1.45046 1.4237 1.41769 1.40733 1.37089 1.38571 1.42665 1.40605 1.40658 1.42326 1.41383 1.4033 1.40833 1.19178 1.37163 1.35792 1.41833 1.43752 1.374 1.35664 1.47115 1.34744 1.43439 1.42752 1.44923 1.44377 1.42329 1.3567 1.32606 1.33142 1.34307 1.44048 1.35385 1.43694 1.4131 1.42205 1.43038 1.43037 1.4203 1.39993 1.3847 1.41283 1.39866 1.37022 1.34743 1.32781 1.4481 1.4013 1.42232 1.36517 1.41821 1.41673 1.19178 1.19178 1.35534 1.33893 1.37023 1.39813 1.42288 1.4612 1.43665 1.39229 1.44487 1.32896 1.34409 1.33158 1.42272 1.40852 1.44167 1.38521 1.34917 1.30812 1.32618 1.39449 1.36599 1.45699 1.43281 1.42034 1.4423 1.40214 1.38253 1.38747 1.40279 1.38419 1.32524 1.47872 1.47853 1.36284 1.34729 1.38134 1.31714 1.40793 1.31836 1.31588 1.45448 1.39165 1.38581 1.30982 1.52338 1.32354 1.34604 1.38909 1.34806 1.39326 1.34048 1.36521 1.41398 1.42019 1.41166 1.49997 1.42755 1.45419 1.44057 1.30382 1.29542 1.33703 1.33174 1.34457 1.43342 1.45273 1.4308 1.43726 1.42946 1.4529 1.41624 1.39235 1.38124 1.33966 1.42577 1.4594 1.3328 1.28166 1.31859 1.4902 1.45371 1.3166 1.35028 1.43073 1.4633 1.30658 1.36168 1.42625 1.40553 1.41937 1.41071 1.40666 1.27232 1.33944 1.43941 1.30332 1.36894 1.43948 1.3949 1.42672 1.44704 1.42552 1.25006 1.41158 1.26811 1.29197 1.27085 1.3607 1.22847 1.35531 1.29866 1.33521 1.3815 1.4616 1.43461 1.42227 1.39598 1.37421 1.3316 1.32985 1.34457 1.47082 1.46192 1.5224 1.3171 1.39989 1.39981 1.32435 1.39078 1.41294 1.36023 1.46666 1.27645 1.35513 1.38317 1.31222 1.38666 1.40038 1.42989 1.26881 1.38554 1.48188 1.31039 1.35652 1.43733 1.44049 1.41209 1.41834 1.40731 1.35997 1.30335 1.11999 1.35315 1.29739 1.30244 1.30356 1.40428 1.30134 1.37862 1.44621 1.38557 1.38169 1.36974 1.3842 1.33109 1.35077 1.38142 1.43978 1.40902 1.38033 1.55302 1.20712 1.40801 1.34567 1.13153 1.19188 0.834797 2.13938 1.71343 1.11643 1.58648 1.35755 1.457 1.47798 1.38154 1.32285 1.33513 1.20998 1.63889 1.70583 1.34616 1.15285 1.16871 1.15316 1.06687 1.23913 1.33863 1.29679 1.31574 1.26745 1.26669 1.33926 1.30513 1.43183 1.15485 1.35758 1.58586 1.41784 1.42413 1.44008 1.47345 1.37398 1.65626 1.40867 1.23473 1.42546 1.73493 0.748881 0.858967 0.883089 2.10703 1.68602 15.3767 3.05823 1.30886 1.29277 1.97666 1.60803 1.24083 1.44194 1.42296 1.39269 1.40119 1.45781 1.23314 1.31506 1.29493 1.28347 1.39227 1.26934 1.17076 1.16738 1.28594 1.43832 1.10438 1.16793 1.27391 1.17553 1.25497 1.26257 1.2764 1.26092 1.36321 1.22834 1.26285 1.39163 1.15041 1.21429 1.24984 1.39369 1.32782 1.37313 1.40945 1.19313 1.31929 1.42407 1.92149 1.33748 1.45821 1.53058 1.56465 1.37384 2.72249 2.70701 8.14861 2.82064 0.930059 2.08013 1.11405 0.842614 0.994 0.918954 0.957683 0.931379 0.957408 0.980963 0.942867 1.01582 0.861837 1.02867 1.12414 1.38206 1.46456 1.90532 1.84969 1.48871 0.965723 1.49442 1.44827 1.49211 1.46078 1.62364 1.27726 1.16611 1.05078 1.30303 1.13214 1.22348 1.20441 1.24585 1.19653 1.19427 1.10043 1.20106 1.18032 1.23939 1.24304 1.2975 1.20993 1.16423 1.21688 1.18041 1.25234 1.30503 1.26042 1.34441 1.19955 1.18325 1.46594 1.43148 1.31757 1.74182 1.48933 1.70184 1.63621 1.43183 1.12955 1.5051 1.32087 1.1797 1.24427 1.02895 1.06832 0.979453 0.96889 0.852072 0.834514 0.843471 0.810954 0.872599 0.955847 0.965469 0.968189 0.98861 0.939988 1.06935 1.28748 1.04342 0.926497 1.43252 1.42609 1.60495 1.53239 1.29944 1.3653 0.821147 1.16414 1.09604 1.1378 1.1769 1.24411 1.24733 1.15481 1.1392 1.19625 1.2261 1.13733 1.14994 1.16704 1.13634 1.20745 1.16828 1.1621 1.20551 1.16859 1.19166 1.20141 1.20585 1.23143 1.20105 1.20678 1.28685 1.02975 1.09497 1.32072 1.22889 1.47933 1.31662 1.28007 1.06589 1.00953 1.30401 1.15316 1.17778 1.20403 1.10115 1.31272 1.145 1.19053 0.911333 0.984589 1.16459 0.936634 0.962608 0.9928 0.896801 0.964383 0.955759 1.04124 0.841006 0.851997 0.856267 0.869214 0.875865 0.867086 0.889829 0.957457 1.01294 1.068 1.04204 0.917959 1.16217 1.40157 1.33978 1.09105 1.20043 1.22114 1.41814 1.295 1.33045 0.533097 0.904587 1.00924 0.887537 1.05955 1.16339 1.09095 1.13884 1.18568 1.17719 1.16052 1.20722 1.06165 0.984302 1.28466 0.932751 1.28108 1.09256 1.18072 1.13107 1.10518 1.1415 1.17328 1.13359 1.15126 1.10224 1.13146 1.17899 1.22415 1.21612 1.18763 1.19095 1.11487 1.10743 1.08188 1.10787 0.99988 1.17025 1.07569 1.41292 1.01423 0.988978 0.738835 1.08452 1.1049 1.10534 1.25549 0.853003 1.11728 1.35578 1.18236 0.831916 0.692198 0.963414 0.860175 0.844583 0.773631 0.808744 0.877458 0.886143 0.86697 0.871869 0.923527 0.840821 0.848322 0.931463 0.913031 0.817946 0.890786 1.06141 1.45429 0.992626 1.22215 1.27966 0.944918 1.06608 0.841402 0.993939 0.955599 1.12459 1.50376 1.08037 0.73536 0.806167 1.0081 1.01903 1.1509 1.08969 0.954424 1.10058 1.1415 1.11064 1.14017 1.10971 1.04233 1.04272 0.999655 0.92784 1.13074 1.10652 1.05696 1.13425 1.10941 1.14012 1.12335 1.0903 1.07156 1.16552 1.21945 1.19871 1.16388 1.1608 1.05745 0.730448 1.30485 1.19578 1.25005 1.22499 1.3791 1.33521 0.830077 0.883821 1.04025 1.02443 1.02608 0.797084 1.03418 0.910579 0.996609 1.00298 0.884856 0.906219 0.898771 0.864749 0.91626 0.925861 0.902601 0.84523 0.816094 0.787849 0.744719 0.642367 0.556672 0.895061 0.480253 0.796017 0.824252 0.810039 0.835329 0.748135 0.68219 0.799627 0.858739 0.868721 0.737468 1.13704 0.668865 0.907529 0.793815 0.915546 0.788757 0.88953 0.881434 0.881552 1.29242 1.03442 1.03551 0.746514 0.874427 0.949086 1.14024 0.756468 0.915471 1.03108 1.03104 0.668477 0.959521 1.05711 1.07837 1.03002 0.987139 0.982661 1.03195 1.09803 1.07459 1.05827 1.09002 1.08451 1.0841 1.06644 1.04186 1.04893 1.14032 1.19869 1.02165 1.21528 1.05975 1.10346 0.935274 1.12491 1.17418 1.05927 1.08943 1.02146 0.947893 0.633385 0.73609 1.0163 0.923057 1.04112 0.872556 0.809915 0.873393 0.882196 0.964081 0.966049 0.939961 0.832724 0.91749 0.888949 1.041 0.874126 1.09628 0.834061 0.826258 0.939078 0.80199 0.889956 0.889458 0.883528 0.857322 0.747287 0.857511 0.786484 0.774122 0.742434 0.688083 0.682582 0.679779 0.683842 0.687877 0.691434 0.712642 0.706397 0.834355 0.991414 0.896704 0.801903 0.728124 0.837759 0.73255 0.716834 0.71969 0.690478 0.63041 0.65699 0.750087 0.799236 0.791496 0.785825 0.830403 0.926911 0.918914 0.895422 0.992064 0.984281 0.927547 1.09136 0.949682 1.07434 0.957889 1.39328 0.561574 0.915615 0.986228 1.12456 1.09737 0.996835 0.99827 0.991462 0.833519 1.03002 1.03997 1.08318 1.0322 1.05473 1.03899 1.06102 1.04828 1.04303 1.0156 0.997234 0.982778 0.912453 0.894445 1.04267 0.985382 1.00276 0.971226 0.989858 1.01978 0.958566 0.89743 0.889697 0.94332 0.92616 0.868044 0.90542 0.936022 0.877941 0.934549 0.915955 0.929475 0.926457 0.926188 0.917737 0.944527 0.910092 0.876502 0.912497 0.830885 0.826351 0.842427 0.801946 0.851504 0.87869 0.825487 0.9792 0.570634 0.555946 0.797402 0.735372 0.664307 0.673163 0.66815 0.643092 0.668406 0.671282 0.686382 0.671942 0.689031 0.685315 0.735932 0.735334 0.792865 0.802268 0.856805 0.838187 0.849048 0.858811 0.856768 0.905641 0.806496 0.91237 0.7688 0.584375 0.682676 0.692987 0.708488 0.800461 0.812266 0.862792 0.908527 0.878424 0.871852 0.89417 0.877933 0.874099 0.917339 0.898753 0.997303 0.961966 0.90805 0.950543 0.860467 0.938811 0.767246 0.876405 0.711764 0.790749 0.944023 0.956037 1.09311 1.01792 0.979368 1.09882 0.899016 0.648183 1.02068 1.05742 0.988913 1.01503 1.01226 1.07257 1.05017 0.891864 0.852956 0.938534 0.914392 0.975183 0.963179 0.943225 1.0719 0.969567 1.00095 0.925112 0.959208 0.892509 0.872656 0.891655 0.922682 0.888094 0.927232 0.933756 0.897213 0.898063 0.890374 0.914739 0.901224 0.929442 0.915818 0.84023 0.886751 0.80352 0.919951 0.828266 0.753963 0.800615 0.876863 0.855544 0.840187 0.806021 0.833889 0.835901 0.818779 0.856535 0.819842 0.813319 0.787086 0.849644 0.693155 0.655397 0.700892 0.737016 0.698268 0.662041 0.670995 0.668843 0.662521 0.644775 0.658896 0.650013 0.665502 0.665899 0.69277 0.747147 0.771575 0.738991 0.658858 0.780359 0.673613 0.806261 0.495689 0.803963 0.72251 0.864087 0.75906 0.683098 0.846616 0.793527 1.01309 0.726986 0.628988 0.693218 0.802233 0.72213 0.594128 0.673437 0.759422 0.78663 0.89639 0.909672 0.925041 0.868339 0.882097 0.902901 0.891113 0.675834 0.953987 0.811474 0.811192 0.875383 0.826237 0.85723 0.805003 0.689071 0.806932 0.727039 0.96679 0.866763 0.96609 1.02964 0.923133 0.872171 0.825208 0.719784 0.87705 0.641586 0.991176 1.08919 0.983099 1.09051 0.981494 0.92248 0.878524 0.821668 0.853573 0.823071 0.85271 1.00632 0.744705 1.00345 0.948148 0.964439 0.934032 0.974769 0.93809 0.931322 0.919098 0.906271 0.862044 0.867442 0.835112 0.858703 0.916002 0.867846 0.855096 0.891569 0.856613 0.873496 0.881092 0.873333 0.789404 0.906141 0.79782 0.876236 0.70025 0.774368 0.765542 0.801192 0.848407 0.813691 0.826394 0.822471 0.835506 0.821262 0.849207 0.87297 0.793369 0.570741 0.787602 0.897109 0.595732 0.673588 0.698621 0.575187 0.814095 0.683596 0.622362 0.678456 0.642802 0.619163 0.596576 0.637029 0.639325 0.403123 0.659322 0.641001 0.652861 0.634355 0.675715 0.692211 0.652848 0.67019 0.561517 0.717045 0.749395 0.649368 0.708844 0.704963 0.756557 0.684987 0.69534 0.62848 0.426653 0.728589 0.384355 0.435236 0.593543 0.656731 0.824547 0.761544 0.878304 0.868378 0.622887 0.651526 0.651521 0.674765 0.74323 0.735093 0.7161 0.787722 0.784111 0.750165 0.7684 0.757009 0.749109 0.760823 0.80668 0.697 0.907023 1.03274 1.0705 1.0948 0.930119 0.850879 0.829197 0.776164 0.893235 0.906488 0.808778 1.03477 0.883724 0.932866 1.09041 0.856399 0.843881 0.939148 0.87419 0.817712 0.737247 0.916117 0.941249 0.847634 0.833267 0.887672 1.0064 0.950355 0.943279 0.944003 0.861167 0.85335 0.850404 0.856413 0.843296 0.864934 0.886048 0.860453 0.851245 0.891262 0.795776 0.72056 0.8121 0.788765 0.723816 0.745942 0.726109 0.795585 0.804802 0.795037 0.796008 0.791112 0.801032 0.81537 0.768791 0.820372 0.761189 0.657936 0.827906 0.777933 0.702249 0.553755 0.673867 0.577114 0.596873 0.638131 0.689285 0.712368 0.703959 0.660293 0.670238 0.663824 0.513756 0.485553 0.468119 0.409413 0.580017 0.79981 0.591706 0.685579 0.658034 0.729394 0.728846 0.689749 0.682853 0.683632 0.71225 0.722715 0.773736 0.761616 0.639419 0.722701 0.657272 0.362942 0.634359 0.780924 0.716999 0.913732 0.951777 0.910284 1.13756 0.647362 0.850353 0.670711 0.689264 0.811615 0.712753 0.69994 0.769147 0.79598 0.788715 0.838911 0.738778 0.807994 0.826285 0.813993 0.808556 0.864786 0.707725 0.69828 0.743398 0.865372 0.976615 0.876475 1.01512 0.891236 0.895679 0.922174 0.83481 0.848585 0.833709 0.793114 0.785086 0.747479 0.779182 0.854344 0.871411 0.903652 0.820353 0.851375 0.816341 0.7982 0.772204 0.773928 0.83658 0.764541 0.816781 0.752167 0.795781 0.821609 0.839301 0.831442 0.84644 0.854768 0.85847 0.757733 0.791696 0.764768 0.75921 0.745403 0.745357 0.752836 0.734214 0.771128 0.744592 0.753472 0.767417 0.811823 0.789844 0.80071 0.782712 0.664244 0.850236 0.571395 0.844068 0.745233 0.705531 1.02957 0.843291 0.778478 0.701033 0.655412 0.692446 0.691078 0.633501 0.657087 0.644236 0.642872 0.639472 0.64701 0.64204 0.584379 0.548029 0.568031 0.536568 0.547635 0.556996 0.563184 0.583593 0.909149 0.343032 0.685815 0.747326 0.653631 0.614999 0.654925 0.653762 0.620947 0.663088 0.687145 0.680837 0.672041 0.696977 0.699842 0.720442 0.731122 0.732224 0.702607 0.734534 0.761382 0.72286 0.707422 0.745573 0.668043 0.876684 0.782058 0.837065 0.885494 0.793781 0.803298 0.788305 0.659195 0.688185 0.674957 0.757736 0.74628 0.744042 0.674784 0.818389 0.828293 0.837139 0.780948 0.790935 0.847921 0.744994 0.857588 0.837933 0.828921 0.876427 0.830872 0.80175 0.913506 0.83988 0.833125 1.03538 0.812207 0.745132 0.861148 0.815872 0.78172 0.80522 0.719155 0.80871 0.832048 0.811713 0.779822 0.765141 0.757619 0.849957 0.853438 0.852483 0.894666 0.730544 0.834241 0.864145 0.836226 0.879293 0.793089 0.735934 0.724544 0.748305 0.794479 0.765523 0.821991 0.833802 0.872158 0.859927 0.827482 0.86566 0.858155 0.827482 0.76873 0.766202 0.757989 0.730349 0.706925 0.73911 0.750311 0.727024 0.750637 0.727977 0.745178 0.699062 0.841882 0.776021 0.989564 2.28 0.717118 0.994661 1.88164 0.900686 0.338683 0.56355 0.322852 0.641557 0.565377 0.641536 0.6273 0.641293 0.629793 0.644697 0.646446 0.624957 0.593401 0.633757 0.583419 0.549242 0.538065 0.522864 0.590347 0.598518 0.572339 0.582207 0.643307 0.606243 0.629402 0.613778 0.666437 0.636938 0.640966 0.597841 0.655607 0.670051 0.742667 0.722301 0.669171 0.692159 0.685922 0.709322 0.711914 0.706007 0.678624 0.688869 0.68953 0.740921 0.686999 0.773604 0.795886 0.780577 0.755574 0.706736 0.760894 0.726506 0.789286 0.84809 0.78768 0.77205 0.79463 0.78623 0.7966 0.799943 0.785899 0.821782 0.831495 0.791846 0.844102 0.863307 0.899304 0.81713 0.796654 0.606862 0.797637 0.659378 0.850727 0.798943 0.92065 0.753894 0.733965 0.790435 0.806707 0.800195 0.81074 0.790181 0.709805 0.68608 0.910081 0.731909 0.816038 0.779878 0.757667 0.867411 0.7968 0.926093 0.799396 0.872984 0.74135 0.734853 0.839534 0.732002 0.789841 0.826058 0.845947 0.893489 0.78877 0.807159 0.809165 0.776151 0.787161 0.752122 0.72944 0.72414 0.714902 0.724228 0.725369 0.735072 0.700649 0.788309 0.753701 0.809065 0.666628 0.751628 0.312951 0.461038 0.506519 0.442309 0.601201 0.44749 0.47678 0.556657 0.516608 0.63231 0.63691 0.55433 0.62153 0.635677 0.634604 0.644065 0.642645 0.652185 0.671738 0.712054 0.566503 0.732432 0.543685 0.526082 0.481457 0.513055 0.532646 0.507057 0.534135 0.682183 0.673515 0.654392 0.667675 0.694197 0.673675 0.673188 0.64193 0.639147 0.637056 0.635872 0.641868 0.643901 0.662871 0.691092 0.74568 0.714939 0.714898 0.725137 0.71886 0.74462 0.713614 0.716001 0.696804 0.691901 0.700881 0.668578 0.663756 0.680865 0.690943 0.824375 0.763406 0.776947 0.758722 0.716719 0.806818 0.809494 0.85118 0.851868 0.832436 0.833089 0.74109 0.795864 0.771457 0.797173 0.755566 0.773056 0.803804 0.815097 0.730436 0.926225 0.922218 0.738286 0.774359 0.688966 0.762373 0.697014 0.833334 1.04464 0.859712 1.19659 0.6242 1.18483 0.795447 0.707852 0.740527 0.798518 0.780517 0.805948 0.811736 0.797013 0.77604 0.774643 0.749292 0.73973 0.882042 0.725101 0.830344 0.841759 0.823832 0.77768 0.874161 0.917087 0.819325 0.813265 0.762353 0.877308 0.767571 0.837133 0.60693 0.885056 0.78447 0.645764 0.809244 0.814366 0.785683 0.820631 0.73981 0.71807 0.727729 0.724109 0.718558 0.705434 0.714194 0.681751 0.697431 0.718133 0.758132 0.718839 0.768484 0.69911 0.706247 0.861036 0.769869 0.711565 0.65658 0.618292 0.621252 0.598467 0.603484 0.617925 0.627769 0.634615 0.631426 0.642714 0.638088 0.636367 0.573162 0.58603 0.419717 0.521215 0.539742 0.519734 0.573313 0.578039 0.64518 0.630598 0.679595 0.540107 0.572236 0.616298 0.637408 0.639038 0.660592 0.693039 0.672369 0.667391 0.656175 0.636476 0.637957 0.641198 0.633893 0.633226 0.634361 0.632379 0.650638 0.705868 0.691678 0.725323 0.708908 0.713123 0.710136 0.719772 0.702918 0.673038 0.704582 0.697755 0.682743 0.632738 0.697535 0.806914 0.931398 0.804668 0.794541 0.757774 0.75307 0.732622 0.676514 0.717597 0.703874 0.708048 0.866044 0.851642 0.914509 0.895297 0.684694 0.73023 0.719053 0.783568 0.783558 0.782511 0.718539 0.826609 0.728509 0.74149 0.655451 0.647701 0.784518 0.603812 0.652524 0.645516 0.684347 0.840167 0.779685 0.885203 0.755034 0.325718 0.771826 0.753415 0.814517 0.745622 0.758961 0.733198 0.799249 0.780517 0.776659 0.774342 0.754065 0.74732 0.737924 0.733535 0.701452 0.680777 0.681984 0.746874 0.74776 0.907526 0.785846 0.871413 0.838942 0.877704 0.796021 0.843012 0.853983 0.938392 0.661134 0.521128 0.619155 0.628016 0.640721 0.690997 0.802386 0.729666 0.719302 0.690179 0.703626 0.718287 0.68478 0.689471 0.73507 0.716287 0.699666 0.703208 0.680102 0.732705 0.708457 0.71647 0.676279 0.616196 0.606788 0.635276 0.620687 0.620872 0.567849 0.629364 0.565345 0.538999 0.682403 0.52772 0.500228 0.291592 0.537539 0.392489 0.430943 0.595635 0.619409 0.51836 0.658658 0.640728 0.678955 0.680549 0.656153 0.64462 0.603374 0.456657 0.462051 0.531389 0.519548 0.488014 0.589761 0.702374 0.630604 0.665582 0.62301 0.624743 0.615068 0.642281 0.634233 0.61232 0.628414 0.621189 0.624136 0.608393 0.597285 0.625437 0.598765 0.597594 0.650018 0.687406 0.671033 0.658738 0.685773 0.730487 0.731791 0.702805 0.672831 0.716679 0.747124 0.745905 0.720954 0.751884 0.848189 0.742661 0.483858 0.421788 0.422866 0.860172 0.741149 0.710451 0.650999 0.585637 0.584409 0.968502 0.717883 0.649992 0.892113 0.703717 0.679 0.660611 0.724108 0.66961 0.665677 0.68706 0.605134 0.670345 0.669147 0.685807 0.651243 0.605685 0.614852 0.631024 0.726499 0.837069 0.691195 0.68048 0.636283 0.521123 0.73407 0.782972 0.777704 0.773234 0.785018 0.772482 0.752641 0.735146 0.744392 0.725731 0.730374 0.716555 0.72867 0.751445 0.718395 0.716923 0.70341 0.705664 0.575505 0.717883 0.80062 0.691876 0.891239 0.81899 1.2299 0.573463 1.10713 0.720342 0.681053 0.729976 0.795596 0.66098 0.72448 0.706674 0.704708 0.693953 0.663906 0.729469 0.741076 0.599832 0.556883 0.720243 0.695338 0.654512 0.669313 0.629468 0.659878 0.623789 0.636966 0.633308 0.609532 0.647906 0.609798 0.674011 0.700739 0.649768 0.900173 0.507724 0.262313 0.740166 0.460695 0.228424 0.492439 0.212873 0.538032 0.637086 0.301501 0.657013 0.649785 0.634965 0.636499 0.603878 0.552315 0.56856 0.527133 0.46601 0.466926 0.464675 0.493984 0.49787 0.528758 0.519607 0.552748 0.572301 0.599428 0.714616 0.676825 0.626132 0.695893 0.579703 0.579698 0.589496 0.612694 0.591088 0.587691 0.580074 0.602773 0.59705 0.60261 0.588316 0.572208 0.560878 0.618151 0.607619 0.581155 0.587474 0.629989 0.694324 0.625444 0.620967 0.494331 0.548301 0.570662 0.604861 0.6931 0.809997 0.817377 0.74217 0.653931 0.709968 0.644439 0.567407 0.722447 0.537533 0.646639 0.60221 0.59643 0.565109 0.607354 0.549421 0.636727 0.674884 0.682017 0.602818 0.647954 0.66399 0.65505 0.667468 0.665059 0.660029 0.623966 0.645071 0.648371 0.673115 0.728583 0.662868 0.674165 0.684472 0.695788 0.603704 0.690729 0.730597 0.747593 0.76322 0.750593 0.750334 0.771013 0.747856 0.749892 0.755513 0.750827 0.726591 0.732257 0.743372 0.764073 0.765745 0.729861 0.677004 0.589998 0.57369 0.592058 0.626544 0.654677 0.816678 0.594627 0.558363 0.510575 0.990481 0.595329 0.78041 0.750767 0.691881 0.749281 0.608555 0.679827 0.612209 0.693452 0.677398 0.670976 0.655159 0.636827 0.689807 0.733522 0.689253 0.601206 0.702439 0.590676 0.615342 0.607271 0.616575 0.61039 0.650648 0.63349 0.621113 0.645323 0.64826 0.704474 0.751927 0.766358 0.899957 0.700832 0.904548 0.648067 0.595385 0.620154 0.138977 0.57572 0.757164 0.561939 0.494526 0.628524 0.556734 0.555889 0.530552 0.530001 0.508576 0.52023 0.515762 0.484742 0.451883 0.45414 0.464274 0.467 0.487546 0.485497 0.508519 0.507941 0.515514 0.51349 0.502313 0.502468 0.52588 0.515462 0.59933 0.607667 0.550801 0.582423 0.571359 0.569958 0.560312 0.569461 0.557583 0.576098 0.571696 0.556542 0.567741 0.54779 0.566242 0.593091 0.574991 0.583128 0.588709 0.605562 0.619212 0.593673 0.529857 0.551345 0.644559 0.676321 0.629681 0.757924 0.629098 0.681211 0.507141 0.476803 0.619123 0.60028 0.590661 0.619018 0.622203 0.636932 0.649242 0.658972 0.616762 0.647957 0.653367 0.658107 0.660542 0.671178 0.663766 0.65535 0.655746 0.663702 0.651362 0.647159 0.677038 0.704616 0.714171 0.737048 0.741172 0.745876 0.747672 0.720276 0.733041 0.720946 0.785896 0.73529 0.761649 0.738736 0.731119 0.752352 0.754284 0.765872 0.737159 0.730069 0.679272 0.619542 0.603898 0.643416 0.634423 0.632581 0.608975 0.309128 0.68903 0.58184 0.655026 0.623644 0.587723 0.632544 0.645545 0.658511 0.639378 0.685467 0.639621 0.589299 0.625329 0.610585 0.630841 0.592612 0.600766 0.626068 0.595837 0.608331 0.618285 0.591295 0.630651 0.667813 0.59792 0.684785 0.623589 0.524304 0.820487 0.549944 0.953058 0.944593 0.508842 0.592892 0.786374 0.651072 0.48316 0.538831 0.331773 0.529773 0.526219 0.468434 0.530127 0.499801 0.522419 0.481643 0.485526 0.501388 0.487408 0.478921 0.477871 0.459451 0.454 0.472318 0.467821 0.454788 0.48765 0.471776 0.485732 0.482901 0.47295 0.542051 0.512625 0.498313 0.514176 0.485714 0.536562 0.556788 0.548284 0.562632 0.550211 0.556665 0.562327 0.559672 0.560565 0.550854 0.533599 0.543776 0.530426 0.548357 0.559875 0.565988 0.556609 0.534912 0.558163 0.589621 0.595654 0.547344 0.54216 0.556904 0.526685 0.556772 0.472207 0.533196 0.575437 0.579394 0.578809 0.590095 0.526681 0.504114 0.556074 0.543311 0.622441 0.579219 0.630805 0.639205 0.632033 0.628805 0.635318 0.653233 0.655949 0.662874 0.651328 0.652895 0.636331 0.666638 0.670871 0.670132 0.67667 0.667205 0.661724 0.660931 0.659204 0.657184 0.659801 0.69246 0.673465 0.695704 0.712982 0.725305 0.71558 0.736668 0.738536 0.744278 0.750025 0.733539 0.693123 0.738557 0.763548 0.738121 0.735628 0.725501 0.73897 0.733866 0.72045 0.706632 0.709443 0.659934 0.627079 0.651594 0.625039 0.664102 0.699771 0.542743 0.550764 0.589586 0.54677 0.57286 0.474146 0.628911 0.597695 0.608476 0.631294 0.627078 0.646591 0.656373 0.646202 0.634326 0.636221 0.58328 0.605279 0.578651 0.584489 0.654792 0.599034 0.690946 0.695584 0.581353 0.598273 0.687512 0.749253 0.751204 0.664646 0.643435 0.30616 0.631333 1.12368 0.446005 1.17655 0.319143 0.424008 0.703239 0.631992 0.557205 0.494949 0.500246 0.506028 0.484832 0.474739 0.462903 0.453208 0.448187 0.459844 0.443142 0.45561 0.46435 0.466441 0.486785 0.518454 0.453123 0.485161 0.430133 0.402372 0.438965 0.627693 0.56647 0.47428 0.497696 0.5441 0.535851 0.561381 0.540755 0.550134 0.544105 0.549899 0.55356 0.556356 0.53097 0.53626 0.535251 0.535097 0.529044 0.541042 0.541454 0.538571 0.523746 0.511464 0.529596 0.531909 0.53538 0.542142 0.514367 0.550489 0.565246 0.56451 0.575491 0.576514 0.573234 0.599637 0.623804 0.600669 0.616664 0.624731 0.626901 0.629295 0.652494 0.654151 0.65609 0.675964 0.679903 0.678944 0.66991 0.662897 0.66265 0.660601 0.662116 0.673059 0.705069 0.731184 0.733163 0.735194 0.741089 0.742778 0.7367 0.731895 0.713458 0.73088 0.73526 0.72755 0.717486 0.715712 0.723962 0.734029 0.720833 0.684249 0.702503 0.644663 0.65141 0.636334 0.561779 0.629372 0.544409 0.548536 0.569564 0.657513 0.566761 0.591157 0.618707 0.6266 0.631986 0.626392 0.627856 0.622099 0.59801 0.588583 0.584787 0.569723 0.61293 0.636517 0.633278 0.568086 0.529471 0.565983 0.78628 0.659318 0.480577 0.419353 0.411246 0.453897 0.532177 0.510561 0.578923 0.543013 0.542627 0.536364 0.471654 0.540891 0.488604 0.496494 0.477666 0.463887 0.484522 0.455261 0.446454 0.443063 0.481799 0.488139 0.466351 0.476237 0.568382 0.44286 0.394761 0.424321 0.437554 0.359848 0.369185 0.361165 0.421485 0.354787 0.329053 0.220395 0.150702 0.536569 0.125522 0.421493 0.354963 0.363318 0.430301 0.473715 0.544328 0.483465 0.50075 0.493672 0.509718 0.521656 0.503721 0.531668 0.53598 0.53681 0.531074 0.531224 0.527208 0.523515 0.524761 0.515118 0.511742 0.514315 0.511139 0.522173 0.518514 0.529469 0.528053 0.53111 0.551791 0.564796 0.583473 0.591354 0.596632 0.590041 0.604859 0.609896 0.617032 0.621647 0.624766 0.638267 0.636761 0.647175 0.656678 0.664403 0.672368 0.681332 0.67774 0.666376 0.666407 0.674406 0.691468 0.669598 0.656904 0.667419 0.676687 0.70644 0.752713 0.740591 0.726785 0.732839 0.738897 0.727513 0.737661 0.729795 0.725304 0.710835 0.698899 0.726963 0.733707 0.716136 0.692134 0.702308 0.657073 0.635015 0.61594 0.621337 0.607599 0.588859 0.572098 0.571497 0.319091 0.609776 0.430033 0.64709 0.611283 0.616871 0.62383 0.629714 0.616619 0.615776 0.61308 0.603112 0.605122 0.582355 0.586748 0.56962 0.564584 0.557973 0.558226 0.55121 0.560273 0.590683 0.587931 0.598475 0.669709 0.667558 0.677068 0.610301 0.445814 0.743935 0.448693 0.436797 0.512459 0.515096 0.561966 0.549459 0.562777 0.562192 0.549472 0.526334 0.491605 0.48524 0.467369 0.490599 0.447247 0.42745 0.404908 0.424552 0.335373 0.421861 0.385396 0.573541 0.555571 0.489023 0.478287 0.454385 0.318897 0.332666 0.353075 0.377478 0.361043 0.354007 0.343488 0.338909 0.372565 0.243375 0.204552 0.113727 0.107543 0.146526 0.502154 0.345224 0.3852 0.418095 0.420059 0.409572 0.441394 0.434535 0.453142 0.472855 0.456388 0.478789 0.497109 0.521863 0.527226 0.52907 0.527281 0.531951 0.52747 0.529975 0.524445 0.52139 0.520563 0.525188 0.537183 0.536025 0.555144 0.555384 0.570284 0.569334 0.590146 0.595713 0.605297 0.611203 0.612755 0.61749 0.622961 0.626331 0.630208 0.642874 0.642372 0.64075 0.640073 0.656175 0.664443 0.657888 0.676711 0.675465 0.659186 0.702299 0.695892 0.692129 0.655041 0.602879 0.650642 0.693682 0.66529 0.667033 0.671959 0.75435 0.693369 0.721947 0.740071 0.716889 0.710168 0.715715 0.69877 0.685252 0.746135 0.720535 0.701862 0.715717 0.687832 0.636137 0.612903 0.632552 0.635697 0.598937 0.596276 0.630783 0.479105 0.565292 0.496341 0.550249 0.550688 0.578002 0.594647 0.609209 0.606116 0.612193 0.625769 0.62431 0.604384 0.58933 0.572973 0.556354 0.551035 0.540839 0.543371 0.539287 0.564904 0.587816 0.641119 0.640343 0.599343 0.562128 0.583815 0.16582 0.364035 0.51583 0.582988 0.50852 0.501558 0.465534 0.411587 0.490455 0.393023 0.41461 0.346814 0.319132 0.31366 0.320395 0.289862 0.244069 0.186233 0.277228 0.344091 0.484109 0.413114 0.5766 0.443079 0.440669 0.490739 0.446771 0.484021 0.257246 0.27865 0.28711 0.316767 0.291063 0.359519 0.412783 0.34764 0.41664 0.418477 0.402689 0.37517 0.400164 0.236471 0.270866 0.123509 0.253902 0.310643 0.445781 0.388993 0.448484 0.402819 0.407556 0.424218 0.423143 0.422306 0.435284 0.426588 0.436537 0.44789 0.463971 0.473339 0.499601 0.532465 0.53436 0.531997 0.540267 0.53569 0.529405 0.532689 0.526838 0.524981 0.534702 0.554659 0.578015 0.586736 0.598014 0.599018 0.602093 0.609324 0.604722 0.610961 0.612301 0.614789 0.617742 0.621423 0.621486 0.626539 0.633351 0.645651 0.634871 0.636733 0.637476 0.62834 0.673491 0.722296 0.717093 0.702692 0.699933 0.676229 0.715635 0.642784 0.645742 0.624842 0.677211 0.702462 0.759864 0.745166 0.618914 0.670142 0.705775 0.754578 0.758588 0.691553 0.697377 0.696885 0.693186 0.670545 0.716246 0.713099 0.717762 0.704857 0.695365 0.722963 0.599434 0.629305 0.635658 0.623889 0.632868 0.632626 0.636994 0.58818 0.534324 0.574699 0.602077 0.592726 0.609176 0.613209 0.598666 0.592194 0.586675 0.586932 0.572951 0.577525 0.564862 0.559827 0.558104 0.553494 0.549053 0.54678 0.565921 0.567661 0.583441 0.586188 0.585718 0.597674 0.541753 0.441936 0.212417 0.345268 0.307714 0.315099 0.454221 0.367784 0.421029 0.511756 0.474691 0.463731 0.442465 0.420324 0.382378 0.390312 0.364065 0.363233 0.345235 0.322959 0.32067 0.331991 0.307568 0.327715 0.299549 0.120297 0.20213 0.32573 0.313277 0.419692 0.339894 0.481877 0.585091 0.0985892 0.109146 0.206239 0.199554 0.239093 0.23654 0.274765 0.324452 0.344942 0.205615 0.185704 0.486811 0.501013 1.00304 0.560307 0.668221 0.438176 0.434236 0.429625 0.432679 0.433772 0.448187 0.450775 0.463333 0.48524 0.496364 0.514303 0.540602 0.537401 0.544569 0.55268 0.557721 0.549425 0.544732 0.53787 0.542841 0.534642 0.529495 0.53116 0.550078 0.577735 0.600611 0.614458 0.614894 0.617759 0.616257 0.616194 0.617664 0.624035 0.634997 0.649004 0.643537 0.664433 0.603264 0.594632 0.546002 0.594225 0.637372 0.735674 0.729737 0.730872 0.746264 0.745938 0.68545 0.646073 0.584227 0.610874 0.636289 0.635224 0.647052 0.721687 0.682238 0.645992 0.625902 0.619716 0.663446 0.692783 0.695156 0.698757 0.713115 0.702426 0.723388 0.698359 0.741176 0.679185 0.615086 0.603279 0.634033 0.625085 0.64011 0.625711 0.609943 0.576175 0.602901 0.59356 0.595677 0.601559 0.605283 0.610096 0.608305 0.614041 0.612167 0.60611 0.593814 0.566381 0.580314 0.55694 0.551603 0.548364 0.549119 0.556651 0.559918 0.584448 0.567916 0.596915 0.565787 0.593271 0.537603 0.310658 0.455784 0.507925 0.365269 0.393402 0.341335 0.376481 0.410179 0.413212 0.38924 0.389232 0.354808 0.343157 0.330145 0.295117 0.316131 0.296638 0.291407 0.25055 0.220822 0.243577 0.236862 0.225126 0.310846 0.237841 0.355668 0.182289 0.313658 0.7454 0.868129 2.55266 0.0828089 0.15386 0.316421 0.389927 0.199621 0.244098 0.26762 0.303684 0.257318 0.176423 0.160945 0.143696 0.854432 0.523001 0.483707 0.5042 0.446967 0.479089 0.444199 0.440236 0.436762 0.431043 0.430807 0.444537 0.467689 0.503534 0.52083 0.54837 0.554976 0.563646 0.567249 0.567508 0.55269 0.541149 0.537553 0.531015 0.512556 0.543414 0.579441 0.604383 0.62236 0.626781 0.624037 0.621813 0.616798 0.615309 0.617499 0.628239 0.628507 0.646108 0.667317 0.477766 0.568852 0.642163 0.759373 0.79501 0.711828 0.7156 0.658564 0.637068 0.628286 0.612885 0.720567 0.688555 0.652007 0.615868 0.616169 0.637912 0.676533 0.655424 0.695523 0.754317 0.713156 0.692904 0.7351 0.653689 0.624519 0.631591 0.620769 0.63847 0.629946 0.640646 0.630314 0.610076 0.61097 0.6126 0.607487 0.609425 0.610933 0.612471 0.611561 0.600573 0.613325 0.59179 0.569982 0.579731 0.574108 0.563101 0.557226 0.548879 0.550424 0.56272 0.573531 0.565768 0.573373 0.561586 0.583553 0.562456 0.500791 0.533895 0.423706 0.306432 0.358092 0.32366 0.35776 0.38608 0.378305 0.376919 0.372955 0.350437 0.320509 0.259065 0.317156 0.24591 0.226717 0.257328 0.305502 0.293717 0.21395 0.204324 0.220277 0.143599 0.0611682 0.316726 0.492468 1.03364 1.20421 0.0836799 0.150995 0.172197 0.277652 0.229115 0.18118 0.190974 0.170043 0.225024 0.153991 0.316797 0.277045 0.276772 0.503529 0.536038 0.414103 0.433533 0.411349 0.433796 0.435919 0.442777 0.453587 0.457175 0.482035 0.523921 0.537863 0.559295 0.565688 0.579893 0.577153 0.553159 0.523727 0.522322 0.555991 0.53723 0.543754 0.593386 0.631823 0.657566 0.632924 0.64125 0.63433 0.631445 0.626843 0.617155 0.623096 0.61816 0.616902 0.617272 0.640663 0.6526 0.652558 0.64906 0.65994 0.706158 0.480354 0.54941 0.623003 0.645584 0.800394 0.742839 0.701036 0.690551 0.709349 0.675397 0.706668 0.661358 0.671071 0.621153 0.622995 0.563986 0.686573 0.654872 0.62618 0.651183 0.628936 0.652457 0.655841 0.638134 0.72105 0.675557 0.71461 0.709703 0.642358 0.65419 0.630893 0.625102 0.62555 0.648926 0.62799 0.616667 0.618796 0.61752 0.616885 0.616476 0.615481 0.602818 0.586832 0.576696 0.566889 0.570167 0.564614 0.555928 0.552144 0.561404 0.558276 0.577885 0.565834 0.570099 0.563471 0.517568 0.462494 0.450931 0.457633 0.401276 0.361203 0.345608 0.357207 0.360014 0.362919 0.373103 0.363613 0.344944 0.381161 0.359808 0.345883 0.263026 0.161974 0.306353 0.240383 0.363553 0.353506 0.246575 0.246573 0.196943 0.214032 0.225306 0.420468 0.551309 0.338226 0.854439 0.105512 0.12918 0.0918654 0.127312 0.214654 0.171085 0.207595 0.40266 0.321997 0.296525 0.3503 0.397782 0.437976 0.443776 0.424302 0.401337 0.420268 0.341069 0.469101 0.451294 0.468461 0.486465 0.517917 0.561421 0.595528 0.585397 0.601115 0.599979 0.542807 0.574885 0.523235 0.505673 0.50796 0.522347 0.542893 0.520868 0.570605 0.597599 0.652896 0.628987 0.632396 0.631073 0.627916 0.626285 0.622359 0.619765 0.622768 0.622335 0.625758 0.648066 0.663019 0.65703 0.64786 0.670785 0.738115 0.609956 0.758211 0.733734 0.470558 0.694261 0.681915 0.719359 0.736026 0.66631 0.602464 0.61567 0.635857 0.638919 0.632918 0.587675 0.656812 0.664741 0.65715 0.638497 0.659916 0.648233 0.639442 0.647657 0.652443 0.717326 0.693171 0.694481 0.606107 0.638749 0.615232 0.626545 0.675679 0.628252 0.624695 0.632364 0.624301 0.623599 0.624224 0.622079 0.622626 0.609769 0.621367 0.58994 0.610563 0.582628 0.579021 0.571212 0.565775 0.563486 0.55951 0.558677 0.562818 0.553112 0.564964 0.571795 0.596515 0.558022 0.458702 0.537107 0.430814 0.429782 0.401847 0.385425 0.412593 0.384933 0.368599 0.371011 0.370404 0.396836 0.403041 0.379491 0.302847 0.366954 0.0630053 0.401904 0.3704 0.322961 0.346787 0.272689 0.248344 0.150736 0.20561 0.0957 0.372247 0.316816 0.333796 0.407332 0.638925 0.532001 0.138118 0.15131 0.287907 0.363532 0.502321 0.323752 0.0759623 0.428716 0.470147 0.388935 0.405936 0.37574 0.424533 0.45766 0.482024 0.487081 0.504381 0.526054 0.602968 0.643194 0.623744 0.592009 0.64403 0.612449 0.579111 0.495642 0.493965 0.546003 0.477826 0.590419 0.628771 0.640172 0.636432 0.641393 0.624848 0.615736 0.619738 0.62692 0.592927 0.602478 0.663623 0.662995 0.672317 0.61093 0.645625 0.56878 0.716469 0.430345 0.469838 0.593124 0.733098 0.757213 0.753503 0.716894 0.657832 0.6236 0.614183 0.668132 0.649284 0.601107 0.592815 0.662453 0.680456 0.63575 0.685084 0.612106 0.632729 0.669483 0.702045 0.67841 0.606705 0.539776 0.673697 0.638415 0.627104 0.696012 0.679485 0.646912 0.627026 0.628487 0.623171 0.626258 0.62828 0.629487 0.615256 0.624414 0.612861 0.589457 0.576949 0.585641 0.572394 0.568378 0.562228 0.55676 0.557978 0.548338 0.556786 0.592682 0.597633 0.55137 0.479929 0.415259 0.408027 0.405178 0.387264 0.374536 0.382724 0.400522 0.417547 0.442096 0.426055 0.353813 0.49212 0.332957 0.540354 0.431328 0.350049 0.330337 0.340734 0.366012 0.155958 0.310708 0.282494 0.425412 0.155398 0.150323 0.179698 0.58338 0.927109 0.848012 0.681352 0.824543 0.480495 0.498592 0.459459 0.415979 0.39183 0.375121 0.353258 0.381549 0.481794 0.481638 0.443609 0.690964 0.667823 0.657979 0.704723 0.632488 0.612325 0.607796 0.590213 0.648911 0.626271 0.632953 0.65246 0.665725 0.65284 0.570485 0.587896 0.589285 0.597868 0.589774 0.591333 0.609481 0.556722 0.621464 0.657006 0.630277 0.749837 0.433601 0.760736 0.779793 0.503144 0.607381 0.631443 0.594411 0.66681 0.665205 0.599047 0.561135 0.655094 0.700867 0.607104 0.648234 0.571216 0.652933 0.662192 0.675382 0.716964 0.637399 0.565573 0.733472 0.671957 0.690413 0.704664 0.682636 0.649619 0.628245 0.643823 0.637092 0.631685 0.631881 0.632588 0.625486 0.61 0.593486 0.589222 0.58148 0.590248 0.577936 0.568147 0.545253 0.559475 0.541943 0.544154 0.57303 0.582715 0.489655 0.422172 0.454663 0.436302 0.423776 0.370326 0.483757 0.571029 0.407377 0.40609 0.337143 0.229374 0.452906 0.317047 0.354583 0.351519 0.323405 0.30345 0.352642 0.336401 0.390056 0.327826 0.275886 0.151886 0.366215 0.347694 0.187146 0.205107 0.153647 0.0800507 0.503329 0.291333 0.627756 0.817186 0.117694 0.625447 0.553652 0.537179 0.401266 0.43179 0.395882 0.321985 0.352858 0.448752 0.452638 0.43221 0.423616 0.727821 0.633445 0.637694 0.638856 0.611369 0.654352 0.601683 0.573211 0.641134 0.64997 0.672621 0.700583 0.678042 0.55511 0.629029 0.629086 0.601877 0.580172 0.580799 0.585988 0.583301 0.59249 0.566301 0.53121 0.619073 0.619395 0.681493 0.721626 0.76954 0.734242 0.742593 0.424418 0.818398 0.931296 0.510102 0.628968 0.582206 0.653387 0.648639 0.611369 0.559821 0.670751 0.617451 0.646601 0.653716 0.670962 0.677009 0.409892 0.728864 0.403542 0.744014 0.673956 0.651415 0.723495 0.694004 0.650829 0.638739 0.636278 0.63629 0.638459 0.619646 0.601198 0.599751 0.58705 0.580588 0.56939 0.557887 0.532635 0.558393 0.574911 0.561127 0.500176 0.457605 0.465147 0.449602 0.46147 0.450288 0.49643 0.552692 0.468546 0.408064 0.249551 0.319279 0.331888 0.274811 0.248077 0.305047 0.325246 0.355772 0.209618 0.342292 0.20686 0.181318 0.146692 0.0928203 0.648621 0.586167 0.33328 0.433974 0.372051 0.481915 0.405364 0.445482 0.361894 0.342721 0.32464 0.314896 0.380851 0.384811 0.501071 0.377385 0.442633 0.616655 0.661785 0.620449 0.621793 0.624408 0.484112 0.468186 0.491618 0.50192 0.656555 0.516257 0.692752 0.548742 0.611448 0.585287 0.610301 0.611555 0.587719 0.573362 0.581739 0.586879 0.58169 0.660035 0.646823 0.708161 0.688583 0.412158 0.640023 0.538463 0.70604 0.608626 0.662918 0.735684 0.666232 0.647267 0.640785 0.638774 0.638017 0.636396 0.639303 0.613249 0.620807 0.59519 0.593725 0.579063 0.587162 0.567001 0.543797 0.544398 0.525499 0.57722 0.580436 0.556051 0.556814 0.489696 0.47568 0.466195 0.450777 0.509614 0.543498 0.47176 0.551617 0.414271 0.338361 0.359085 0.374715 0.364553 0.432484 0.242762 0.241178 0.279644 0.283188 0.326369 0.310425 0.118201 0.346236 0.35993 0.313399 0.233641 0.488029 0.556486 0.534018 0.495386 0.420726 0.340597 0.35974 0.313484 0.397944 0.482183 0.540055 0.331889 0.381938 0.705337 0.633902 0.617564 0.627001 0.636836 0.497033 0.523275 0.535047 0.525171 0.622618 0.59274 0.528132 0.589431 0.624564 0.631738 0.589746 0.562841 0.58682 0.583421 0.662673 0.648337 0.642287 0.638213 0.667539 0.622828 0.622242 0.619551 0.621596 0.61146 0.606745 0.615156 0.600981 0.595127 0.575792 0.567668 0.538642 0.589299 0.583679 0.564756 0.531446 0.547886 0.462148 0.476668 0.458064 0.470897 0.464984 0.489351 0.517717 0.431074 0.37142 0.407109 0.372496 0.404914 0.459752 0.492819 0.290527 0.275403 0.269516 0.303642 0.277159 0.306362 0.30339 0.0225547 0.307635 0.48237 0.502166 0.525721 0.523862 0.377966 0.321082 0.325935 0.31113 0.373906 0.376098 0.498366 0.467386 0.338704 0.821777 0.525817 0.578917 0.566267 0.473022 0.503309 0.492598 0.531621 0.532353 0.533248 0.627583 0.615912 0.578852 0.613322 0.606787 0.58557 0.56074 0.53479 0.561491 0.586622 0.470938 0.522659 0.410912 0.48514 0.458404 0.473445 0.486503 0.503751 0.560406 0.492946 0.490671 0.371398 0.426338 0.47096 0.51137 0.296999 0.303216 0.275599 0.264431 0.385722 0.371472 0.509743 0.521176 0.528325 0.314602 0.367135 0.4532 0.183226 0.416432 0.404138 0.450508 0.491546 0.496256 0.541187 0.819234 0.37815 0.412877 0.465788 0.639035 0.305455 0.270348 0.556096 
SCALARS Stress float 1
LOOKUP_TABLE default
-39526500000.0 -258546000000.0 -33739300000.0 -68368700000.0 -103477000000.0 -145086000000.0 -138030000000.0 -247392000000.0 -243400000000.0 -224640000000.0 -195553000000.0 -329390000000.0 -146521000000.0 -110552000000.0 -191706000000.0 -139809000000.0 -368672000000.0 -232302000000.0 -101523000000.0 -32397100000.0 -54465800000.0 -65025800000.0 -88902900000.0 -69955100000.0 -249326000000.0 -535915000000.0 -385145000000.0 -849678000000.0 -403619000000.0 -302817000000.0 -634123000000.0 -609392000000.0 -648229000000.0 -643476000000.0 -365835000000.0 -412863000000.0 -393747000000.0 -522158000000.0 -313004000000.0 -511712000000.0 -604396000000.0 -566374000000.0 -313577000000.0 -296141000000.0 -58377700000.0 -175201000000.0 -65635500000.0 -176940000000.0 -254771000000.0 -928724000000.0 -341789000000.0 -814396000000.0 -1.48428e+12 -1.27038e+12 -365138000000.0 -736604000000.0 -891866000000.0 -1.37264e+12 -1.17004e+12 -823969000000.0 -570824000000.0 -1.43327e+12 -1.32921e+12 -763377000000.0 -772503000000.0 -862928000000.0 -564064000000.0 -339497000000.0 -460625000000.0 -215964000000.0 -114288000000.0 -47116600000.0 -415059000000.0 -116633000000.0 -1.08367e+12 -1.32728e+12 -1.52819e+12 -445350000000.0 -427587000000.0 -1.59522e+12 -518292000000.0 -379448000000.0 -2.16802e+12 -1.53656e+12 -2.66934e+12 -991607000000.0 -1.5636e+12 -2.17251e+12 -538440000000.0 -750379000000.0 -526326000000.0 -1.05355e+12 -1.22143e+12 -1.41634e+12 -607624000000.0 -282726000000.0 -160220000000.0 -42908200000.0 -669853000000.0 -1.23145e+12 -1.65925e+12 -1.42944e+12 -2.29377e+12 -1.50235e+12 -789655000000.0 -1.54639e+12 -1.42727e+12 -1.15747e+12 -1.94078e+12 -614547000000.0 -1.78038e+12 -634984000000.0 -3.59554e+12 -832548000000.0 -3.02e+12 -1.02202e+12 -859469000000.0 -536586000000.0 -591413000000.0 -295701000000.0 -759503000000.0 -358943000000.0 -82029800000.0 -265942000000.0 -457492000000.0 -735279000000.0 -3.03831e+12 -2.13188e+12 -2.27272e+12 -2.06434e+12 -2.45851e+12 -824589000000.0 -1.30057e+12 -3.13699e+12 -1.94048e+12 -1.1952e+12 -760171000000.0 -1.23147e+12 -3.01452e+12 -2.90562e+12 -2.58421e+12 -2.19545e+12 -1.04125e+12 -900657000000.0 -2.04116e+12 -728822000000.0 -1.27661e+12 -1.2436e+12 -182590000000.0 -43731600000.0 -541713000000.0 -1.09995e+12 -1.67074e+12 -2.37345e+12 -4.30901e+12 -1.37825e+12 -3.22045e+12 -3.01022e+12 -3.3357e+12 -2.83622e+12 -3.44909e+12 -3.01935e+12 -1.85644e+12 -1.68634e+12 -3.01044e+12 -3.06651e+12 -1.72904e+12 -1.86952e+12 -3.57595e+12 -1.86632e+12 -607371000000.0 -1.50546e+12 -2.19252e+12 -2.89599e+12 -2.9442e+12 -1.94671e+12 -1.31725e+12 -60194000000.0 -1.51941e+12 -1.94121e+12 -3.60137e+12 -2.06272e+12 -2.28922e+12 -3.69839e+12 -3.13422e+12 -5.84238e+12 -3.12713e+12 -3.31404e+12 -2.42171e+12 -2.91331e+12 -549056000000.0 -3.36544e+12 -2.70643e+12 -2.67815e+12 -1.01855e+12 -3.9189e+12 -2.06875e+12 -3.57082e+12 -1.91361e+12 -1.69765e+12 -2.9767e+12 -1.97904e+12 -1.44596e+12 -1.52159e+12 -2.38743e+12 -2.38308e+12 -2.36152e+12 -4.73571e+12 -1.02084e+12 -3.84467e+12 -3.15882e+12 -3.41221e+12 -4.1059e+12 -2.90843e+12 -4.17711e+12 -1.96997e+12 -3.56493e+12 -2.40322e+12 -4.25614e+12 -3.72543e+12 -4.51736e+12 -3.55825e+12 -4.65571e+12 -899019000000.0 -3.96809e+12 -4.23926e+12 -2.70679e+12 -3.49056e+12 -2.93182e+12 -1.5317e+12 -1.67849e+12 -1.5169e+12 -2.28817e+12 -1.59595e+12 -4.52927e+12 -5.02419e+12 -3.60087e+12 -4.02318e+12 -4.37484e+12 -3.2588e+12 -3.63995e+12 -4.45486e+12 -2.96483e+12 -5.29759e+12 -4.64572e+12 -3.2995e+12 -3.02033e+12 -4.38847e+12 -3.45151e+12 -4.96284e+12 -5.10722e+12 -1.61385e+12 -4.76765e+12 -6.00299e+12 -5.00909e+12 -2.40685e+12 -2.18285e+12 -3.28174e+12 -3.19097e+12 -4.06225e+12 -6.08208e+12 -4.89821e+12 -2.34881e+12 -2.66998e+12 -4.88091e+12 -3.819e+12 -3.08397e+12 -5.76813e+12 -3.08323e+12 -4.16524e+12 -3.12281e+12 -5.35364e+12 -5.77191e+12 -3.42121e+12 -4.89739e+12 -4.41045e+12 -3.69342e+12 -4.46844e+12 -3.56927e+12 -2.55913e+12 -5.3278e+12 -2.86975e+12 -2.66548e+12 -3.95544e+12 -4.06859e+12 -4.73251e+12 -6.15139e+12 -3.88413e+12 -6.05635e+12 -2.14844e+12 -2.87045e+12 -4.77131e+12 -6.09923e+12 -5.66284e+12 -5.33894e+12 -3.53815e+12 -2.01032e+12 -2.45563e+12 -2.89635e+12 -3.34117e+12 -4.19847e+12 -6.79328e+12 -4.89619e+12 -3.92366e+12 -2.47475e+12 -4.68278e+12 -6.14039e+12 -3.90071e+12 -6.81155e+12 -6.37902e+12 -6.12141e+12 -3.27609e+12 -4.25597e+12 -3.97914e+12 -7.06211e+12 -4.48845e+12 -3.81373e+12 -4.58784e+12 -6.62544e+12 -6.32928e+12 -4.32979e+12 -3.54545e+12 -4.26384e+12 -4.31652e+12 -6.20201e+12 -6.8866e+12 -3.94932e+12 -6.04135e+12 -3.38407e+12 -3.97704e+12 -4.88138e+12 -3.19717e+12 -2.55512e+12 -5.15825e+12 -5.09857e+12 -1.72627e+12 -6.59069e+12 -3.77074e+12 -4.4314e+12 -4.12961e+12 -1.34571e+12 -5.25259e+12 -2.15075e+12 -4.07267e+12 -4.47816e+12 -4.81745e+12 -5.75562e+12 -6.10703e+12 -5.47249e+12 -5.90335e+12 -3.98625e+12 -4.68736e+12 -3.87401e+12 -4.45243e+12 -4.25501e+12 -3.97353e+12 -5.68049e+12 -2.46769e+12 -4.76123e+12 -5.10727e+12 -4.27865e+12 -2.19451e+12 -5.65169e+12 -4.54293e+12 -2.66026e+12 -3.87194e+12 -4.03607e+12 -4.43384e+12 -5.00348e+12 -6.06331e+12 -1.98263e+12 -3.13458e+12 -2.43604e+12 -4.99199e+12 -4.46278e+12 -5.23886e+12 -5.19192e+12 -4.41735e+12 -6.23963e+12 -4.7676e+12 -4.06884e+12 -4.63705e+12 -3.75486e+12 -2.46663e+12 -4.07484e+12 -4.85277e+12 -5.05129e+12 -3.33192e+12 -3.45373e+12 -3.63379e+12 -3.59755e+12 -5.33819e+12 -4.84714e+12 -5.42593e+12 -5.53603e+12 -4.98397e+12 -5.09608e+12 -3.87997e+12 -2.93324e+12 -5.61413e+12 -5.61391e+12 -5.49623e+12 -6.35669e+12 -4.14232e+12 -5.39621e+12 -4.80344e+12 -4.75027e+12 -6.14017e+12 -3.3448e+12 -4.89596e+12 -4.52895e+12 -4.31135e+12 -6.7539e+12 -5.68146e+12 -3.98854e+12 -3.60698e+12 -4.71766e+12 -5.83423e+12 -5.22431e+12 -5.44298e+12 -3.60755e+12 -4.2585e+12 -2.97438e+12 -3.78667e+12 -3.71498e+12 -6.62724e+12 -6.43806e+12 -4.53478e+12 -4.82786e+12 -6.12735e+12 -4.7955e+12 -5.07493e+12 -7.58746e+12 -6.21427e+12 -3.56145e+12 -6.70842e+12 -3.65831e+12 -1.99959e+12 -5.6284e+12 -5.40942e+12 -3.17213e+12 -12549700000.0 -2.69343e+12 -3.02764e+12 -4.12272e+12 -4.25306e+12 -3.79369e+12 -5.61511e+12 -7.02816e+12 -5.04118e+12 -3.00002e+12 -3.80378e+12 -5.08815e+12 -5.96248e+12 -4.58142e+12 -2.65431e+12 -3.89673e+12 -5.10444e+12 -2.79628e+12 -5.20734e+12 -3.4869e+12 -5.27996e+12 -5.01782e+12 -2.91282e+12 -8.43396e+12 -5.63173e+12 -7.24391e+12 -3.64092e+12 -3.84085e+12 -5.93415e+12 -6.76256e+12 -3.9308e+12 -3.58547e+12 -5.11492e+12 -4.73148e+12 -4.85773e+12 -4.50467e+12 -6.02343e+12 -3.29905e+12 -5.91852e+12 -4.32232e+12 -6.99651e+12 -3.25038e+12 -3.97578e+12 -6.44318e+12 -7.61621e+12 -4.76173e+12 -6.83465e+12 -7.16082e+12 -5.62544e+12 -4.92236e+12 -5.68887e+12 -5.00231e+12 -7.88421e+12 -6.08929e+12 -4.24886e+12 -6.15888e+12 -4.67858e+12 -3.62679e+12 -5.46655e+12 -4.39808e+12 -4.95353e+12 -5.58986e+12 -2.55244e+12 -6.46337e+12 -5.31198e+12 -5.21327e+12 -5.90239e+12 -3.55961e+12 -2.02756e+12 -3.08785e+12 -3.19845e+12 -6.41413e+12 -7.41219e+12 -8.01926e+12 -6.15439e+12 -3.93992e+12 -6.78035e+12 -5.6972e+12 -5.49027e+12 -6.26038e+12 -3.03135e+12 -4.74855e+12 -5.65757e+12 -6.16579e+12 -5.97712e+12 -4.24404e+12 -4.85219e+12 -7.96503e+12 -5.95388e+12 -5.63555e+12 -3.92731e+12 -3.16476e+12 -3.04822e+12 -5.03862e+12 -6.7113e+12 -4.79293e+12 -6.17282e+12 -5.63174e+12 -6.08134e+12 -5.24176e+12 -6.04922e+12 -3.35945e+12 -5.23889e+12 -2.08743e+12 -3.90108e+12 -6.34358e+12 -7.92265e+12 -8.9662e+12 -4.54852e+12 -2.79565e+12 -3.31206e+12 -5.71184e+12 -4.02087e+12 -7.22074e+12 -5.16997e+12 -9.5242e+12 -6.576e+12 -4.52204e+12 -3.3462e+12 -5.19053e+12 -1.12022e+13 -4.91584e+12 -5.41422e+12 -5.47835e+12 -1.10372e+13 -7.79583e+12 -5.62624e+12 -8.91663e+12 -9.21359e+12 -5.67467e+12 -3.73577e+12 -6.97847e+12 -1.09868e+13 -4.43401e+12 -5.94879e+12 -6.00852e+12 -7.22788e+12 -7.82413e+12 -5.17774e+12 -6.9849e+12 -6.34595e+12 -12549700000.0 -7.02369e+12 -9.42628e+12 -3.17077e+12 -3.49155e+12 -5.36188e+12 -6.11701e+12 -3.40781e+12 -4.92199e+12 -7.85117e+12 -5.45574e+12 -7.98729e+12 -7.15336e+12 -7.43583e+12 -5.41461e+12 -4.54004e+12 -4.68335e+12 -7.34965e+12 -5.13566e+12 -5.03819e+12 -3.95068e+12 -4.97395e+12 -7.51808e+12 -1.19567e+13 -7.07118e+12 -6.79455e+12 -9.50804e+12 -8.97459e+12 -3.05518e+12 -1.1687e+13 -4.98888e+12 -9.28e+12 -7.36587e+12 -5.1927e+12 -7.11671e+12 -3.09383e+12 -12549700000.0 -6.23406e+12 -2.23542e+12 -7.26393e+12 -6.73207e+12 -4.614e+12 -5.88109e+12 -7.00963e+12 -1.05778e+13 -6.51849e+12 -8.08165e+12 -6.51913e+12 -6.48542e+12 -5.45404e+12 -6.83009e+12 -7.97772e+12 -5.03639e+12 -7.14333e+12 -6.73022e+12 -6.91205e+12 -6.57396e+12 -8.08983e+12 -4.87089e+12 -5.13515e+12 -7.83717e+12 -5.69336e+12 -7.22041e+12 -6.66577e+12 -1.02601e+13 -8.29022e+12 -5.24942e+12 -1.04684e+13 -1.48649e+13 -1.19581e+13 -7.72808e+12 -4.41112e+12 -4.52086e+12 -7.60197e+12 -6.01353e+12 -4.9843e+12 -6.34047e+12 -6.29963e+12 -4.97963e+12 -3.92357e+12 -4.23854e+12 -7.45433e+12 -2.66174e+12 -6.48864e+12 -6.647e+12 -5.23383e+12 -4.4274e+12 -6.71306e+12 -3.1084e+12 -5.01153e+12 -2.61566e+12 -7.43209e+12 -4.59422e+12 -6.97709e+12 -7.66666e+12 -8.65228e+12 -2.02498e+12 -4.12595e+12 -3.61286e+12 -6.86634e+12 -2.73744e+12 -5.86983e+12 -5.54726e+12 -1.13887e+13 -7.10014e+12 -5.18579e+12 -7.31519e+12 -7.09934e+12 -8.62081e+12 -8.44386e+12 -5.69855e+12 -12549700000.0 -4.49937e+12 -3.90064e+12 -3.37341e+12 -2.90456e+12 -5.35287e+12 -3.48123e+12 -5.10396e+12 -3.98965e+12 -8.22149e+12 -4.17198e+12 -8.24705e+12 -4.20917e+12 -6.81727e+12 -6.38668e+12 -4.49294e+12 -5.8307e+12 -7.38821e+12 -6.24353e+12 -6.31115e+12 -7.85653e+12 -6.18644e+12 -7.12388e+12 -4.54148e+12 -5.30955e+12 -4.64589e+12 -3.63003e+12 -7.18273e+12 -9.22342e+12 -3.55517e+12 -4.03806e+12 -7.71429e+12 -4.05543e+12 -5.46556e+12 -3.86887e+12 -6.17956e+12 -9.26967e+12 -1.0979e+13 -8.60316e+12 -5.51026e+12 -8.69672e+12 -2.97843e+12 -3.6443e+12 -3.54224e+12 -4.13829e+12 -5.58374e+12 -6.55268e+12 -6.40511e+12 -5.36018e+12 -4.34592e+12 -7.34035e+12 -9.28849e+12 -5.36847e+12 -6.59151e+12 -4.19362e+12 -9.78775e+12 -7.21995e+12 -6.68396e+12 -9.14468e+12 -5.75968e+12 -6.8961e+12 -3.63265e+12 -8.19985e+12 -4.23696e+12 -6.03215e+12 -9.9909e+12 -9.10186e+12 -5.60215e+12 -4.38496e+12 -2.90155e+12 -5.3202e+12 -5.84335e+12 -3.71872e+12 -8.64758e+12 -4.03642e+12 -5.08227e+12 -9.15302e+12 -6.05518e+12 -6.71695e+12 -5.68639e+12 -6.85566e+12 -8.74426e+12 -9.4182e+12 -5.47808e+12 -5.83108e+12 -7.84327e+12 -4.89194e+12 -4.90857e+12 -4.19263e+12 -12549700000.0 -4.84134e+12 -5.90036e+12 -1.07163e+13 -1.27643e+13 -6.18994e+12 -5.9843e+12 -7.19407e+12 -9.83355e+12 -7.01157e+12 -6.48965e+12 -4.79151e+12 -4.04595e+12 -1.31738e+13 -4.7706e+12 -6.58388e+12 -8.08486e+12 -7.07579e+12 -8.40496e+12 -8.50883e+12 -1.0141e+13 -9.78257e+12 -4.92569e+12 -8.43e+12 -8.03868e+12 -7.3565e+12 -4.93795e+12 -6.45863e+12 -7.01442e+12 -5.37438e+12 -5.35707e+12 -5.81394e+12 -4.76105e+12 -6.49706e+12 -7.15696e+12 -3.80538e+12 -2.90978e+12 -4.22544e+12 -4.9413e+12 -12549700000.0 -12549700000.0 -2.93876e+12 -6.59225e+12 -4.50001e+12 -6.23281e+12 -5.31448e+12 -9.7086e+12 -5.54292e+12 -1.02841e+13 -8.25547e+12 -5.16025e+12 -1.00108e+13 -9.1918e+12 -9.52881e+12 -5.55753e+12 -1.02844e+13 -7.82049e+12 -8.51106e+12 -9.99266e+12 -1.01942e+13 -8.0293e+12 -6.91382e+12 -1.02875e+13 -7.01638e+12 -7.10629e+12 -1.29842e+13 -1.047e+13 -5.40061e+12 -7.36793e+12 -4.52189e+12 -6.77978e+12 -7.18651e+12 -9.23527e+12 -5.11134e+12 -4.63604e+12 -5.25554e+12 -5.75627e+12 -6.39757e+12 -5.74541e+12 -3.97525e+12 -6.6848e+12 -4.5156e+12 -3.13782e+12 -8.09008e+12 -8.00764e+12 -7.61504e+12 -4.74888e+12 -8.61506e+12 -6.82701e+12 -7.18252e+12 -8.29058e+12 -9.05201e+12 -7.27519e+12 -5.19019e+12 -6.27588e+12 -3.31129e+12 -5.63488e+12 -4.33078e+12 -8.16129e+12 -5.88523e+12 -7.34869e+12 -5.85378e+12 -4.96684e+12 -6.78859e+12 -4.99326e+12 -9.37072e+12 -5.97674e+12 -6.31985e+12 -8.71826e+12 -6.85579e+12 -9.74094e+12 -6.05578e+12 -5.23745e+12 -4.86371e+12 -7.86341e+12 -9.07053e+12 -9.96483e+12 -5.23678e+12 -5.88261e+12 -5.20399e+12 -1.17572e+13 -8.80248e+12 -8.19789e+12 -9.32951e+12 -2.65973e+12 -3.47932e+12 -6.81547e+12 -5.66106e+12 -7.73463e+12 -1.14697e+13 -6.55909e+12 -4.69303e+12 -7.27319e+12 -6.90848e+12 -6.11586e+12 -8.06214e+12 -6.37802e+12 -1.36881e+13 -4.44799e+12 -9.51488e+12 -8.60893e+12 -7.4021e+12 -3.81312e+12 -8.95912e+12 -2.70882e+12 -7.42058e+12 -6.26088e+12 -2.43677e+12 -7.66022e+12 -6.3152e+12 -5.36941e+12 -1.18149e+13 -8.58062e+12 -1.02993e+13 -5.73626e+12 -4.28818e+12 -8.27668e+12 -6.69104e+12 -5.66211e+12 -8.10447e+12 -6.72086e+12 -8.66679e+12 -6.63519e+12 -9.58185e+12 -5.44606e+12 -6.92497e+12 -8.81801e+12 -4.49518e+12 -6.66508e+12 -3.7206e+12 -3.46287e+12 -7.25458e+12 -6.89673e+12 -7.45277e+12 -4.83757e+12 -4.78758e+12 -4.90124e+12 -7.24566e+12 -7.1078e+12 -6.62992e+12 -6.82437e+12 -1.45542e+13 -6.47291e+12 -6.23046e+12 -8.18334e+12 -7.6563e+12 -4.85979e+12 -4.5142e+12 -8.58958e+12 -7.19526e+12 -5.3916e+12 -4.93927e+12 -9.74167e+12 -8.88664e+12 -1.20489e+13 -1.05277e+13 -6.81581e+12 -4.90388e+12 -7.91977e+12 -6.06369e+12 -1.08024e+13 -8.17475e+12 -7.75825e+12 -5.15525e+12 -3.12557e+12 -5.92768e+12 -1.25246e+13 -9.84156e+12 -6.89474e+12 -8.79058e+12 -3.93049e+12 -7.11602e+12 -5.42853e+12 -9.4697e+12 -3.94766e+12 -4.84611e+12 -4.59965e+12 -2.89728e+12 -40440500000.0 -4.39394e+12 -7.46547e+12 -8.49098e+12 -7.96894e+12 -7.39784e+12 -5.08785e+12 -1.08937e+13 -9.06993e+12 -9.83277e+12 -1.17427e+13 -7.34546e+12 -8.27205e+12 -8.82044e+12 -8.57186e+12 -4.14983e+12 -6.73994e+12 -6.30199e+12 -1.42444e+13 -7.31722e+12 -6.09671e+12 -7.30252e+12 -7.8896e+12 -3.72307e+12 -7.79633e+12 -5.53602e+12 -8.33069e+12 -8.6642e+12 -7.76035e+12 -5.09731e+12 -6.63335e+12 -5.06925e+12 -9.45267e+12 -5.80788e+12 -7.03585e+12 -4.52842e+12 -6.99045e+12 -5.35013e+12 -6.93733e+12 -9.75639e+12 -3.49023e+12 -8.28318e+12 -4.40921e+12 -4.0638e+12 -6.27329e+12 -9.63986e+12 -5.26756e+12 -8.33096e+12 -9.23688e+12 -1.10562e+13 -8.16499e+12 -9.10517e+12 -7.65582e+12 -6.25736e+12 -5.42151e+12 -1.11658e+13 -9.84169e+12 -6.21502e+12 -8.46648e+12 -8.06103e+12 -6.92706e+12 -3.46523e+12 -1.08372e+13 -6.24966e+12 -7.70154e+12 -7.71991e+12 -5.38824e+12 -8.3137e+12 -8.12469e+12 -6.55834e+12 -8.37986e+12 -5.84556e+12 -4.9076e+12 -5.39193e+12 -7.93003e+12 -9.18937e+12 -6.91131e+12 -5.72098e+12 -5.34087e+12 -1.01293e+13 -7.54748e+12 -1.20753e+13 -4.11072e+12 -6.10798e+12 -8.0506e+12 -6.84926e+12 -7.68217e+12 -1.16748e+13 -8.1108e+12 -5.24591e+12 -6.5043e+12 -5.89192e+12 -5.63182e+12 -8.37102e+12 -16677000000.0 -5.73644e+12 -7.63676e+12 -5.5011e+12 -6.06306e+12 -4.39942e+12 -1.14026e+13 -5.0452e+12 -4.45177e+12 -4.8715e+12 -3.83652e+12 -3.28176e+12 -5.9611e+12 -3.6505e+12 -6.2959e+12 -5.6155e+12 -1.18567e+13 -1.00339e+13 -8.63777e+12 -8.95407e+12 -6.2467e+12 -8.20464e+12 -8.46143e+12 -9.26568e+12 -9.28376e+12 -6.74279e+12 -1.05781e+13 -8.73461e+12 -9.33878e+12 -5.11842e+12 -8.68743e+12 -6.7327e+12 -3.95878e+12 -7.48328e+12 -3.77147e+12 -3.89326e+12 -6.73073e+12 -6.10412e+12 -7.95784e+12 -8.25738e+12 -1.26336e+13 -6.88252e+12 -9.16698e+12 -8.41876e+12 -8.19618e+12 -1.10576e+13 -9.15336e+12 -5.32277e+12 -9.85325e+12 -1.03193e+13 -1.05956e+13 -9.15711e+12 -9.49293e+12 -9.86925e+12 -8.5049e+12 -6.52732e+12 -6.11634e+12 -1.15718e+13 -1.12109e+13 -1.02231e+13 -7.67044e+12 -7.61849e+12 -9.79072e+12 -1.05793e+13 -7.45973e+12 -6.51574e+12 -3.99407e+12 -2.8604e+12 -1.2286e+13 -6.49341e+12 -8.88825e+12 -1.04909e+13 -5.25506e+12 -8.3713e+12 -6.15513e+12 -7.68955e+12 -5.26923e+12 -8.37747e+12 -6.85562e+12 -9.01212e+12 -1.07918e+13 -1.49041e+13 -1.00365e+13 -5.8302e+12 -6.40139e+12 -1.07448e+13 -8.31233e+12 -7.94032e+12 -9.34419e+12 -1.07647e+13 -7.52709e+12 -7.70408e+12 -6.13314e+12 -1.01787e+13 -7.45568e+12 -8.90797e+12 -5.25342e+12 -6.94533e+12 -1.21544e+13 -6.98968e+12 -1.08636e+13 -7.78888e+12 -5.28478e+12 -8.07708e+12 -7.75984e+12 -5.74122e+12 -8.05121e+12 -4.5347e+12 -5.31873e+12 -1.80855e+13 -6.89492e+12 -9.35863e+12 -9.39482e+12 -6.23885e+12 -8.60271e+12 -6.10595e+12 -8.91031e+12 -5.0246e+12 -3.80775e+12 -7.938e+12 -7.80056e+12 -6.18991e+12 -6.81345e+12 -7.6072e+12 -6.39225e+12 -5.96516e+12 -1.13979e+13 -6.46173e+12 -7.15046e+12 -4.76644e+12 -6.14525e+12 -5.78031e+12 -6.54747e+12 -9.24978e+12 -9.49313e+12 -1.08092e+13 -7.51718e+12 -9.73297e+12 -1.24322e+13 -6.44342e+12 -7.48782e+12 -6.19019e+12 -8.90633e+12 -1.16548e+13 -9.85119e+12 -9.87668e+12 -4.6106e+12 -8.75482e+12 -7.53527e+12 -9.80642e+12 -6.12325e+12 -6.26871e+12 -1.17616e+13 -1.41857e+13 -7.72745e+12 -1.54594e+13 -1.09306e+13 -8.26323e+12 -1.01655e+13 -1.3632e+13 -7.58884e+12 -1.06246e+13 -6.76105e+12 -1.39493e+13 -8.60998e+12 -8.32976e+12 -8.74293e+12 -8.61396e+12 -5.5191e+12 -6.16458e+12 -4.78102e+12 -4.87507e+12 -5.81164e+12 -4.54797e+12 -1.13874e+13 -7.69578e+12 -8.73432e+12 -3.14037e+12 -4.88822e+12 -5.4633e+12 -6.66224e+12 -4.95438e+12 -4.24846e+12 -8.1191e+12 -7.21595e+12 -1.09985e+13 -4.30964e+12 -5.09992e+12 -7.62237e+12 -8.63089e+12 -8.67493e+12 -5.26328e+12 -5.56918e+12 -1.05614e+13 -8.20652e+12 -7.00965e+12 -8.21981e+12 -1.20484e+13 -5.31925e+12 -8.83886e+12 -1.04147e+13 -8.69257e+12 -6.63584e+12 -5.77293e+12 -6.81274e+12 -8.66228e+12 -6.18832e+12 -1.22833e+13 -1.29675e+13 -6.75042e+12 -7.22303e+12 -5.20924e+12 -1.32602e+13 -1.15777e+13 -7.77734e+12 -6.0129e+12 -1.14678e+13 -9.39828e+12 -1.1073e+13 -8.58124e+12 -1.73729e+13 -1.53448e+13 -7.26835e+12 -4.06022e+12 -1.04749e+13 -4.5514e+12 -8.43641e+12 -6.93194e+12 -6.33317e+12 -1.22769e+13 -8.6464e+12 -4.40217e+12 -1.02805e+13 -1.20028e+13 -1.22307e+13 -7.11087e+12 -9.57337e+12 -3.90349e+12 -7.36139e+12 -5.97956e+12 -7.03056e+12 -1.06226e+13 -7.73338e+12 -8.42762e+12 -1.07725e+13 -5.75696e+12 -7.49191e+12 -8.092e+12 -6.47829e+12 -5.78389e+12 -7.97266e+12 -9.92308e+12 -1.13093e+13 -8.35204e+12 -7.30751e+12 -8.00484e+12 -1.15398e+13 -5.07181e+12 -5.28095e+12 -5.49136e+12 -7.47669e+12 -9.56783e+12 -6.42007e+12 -9.14156e+12 -4.08876e+12 -5.31324e+12 -4.74369e+12 -8.07314e+12 -7.67432e+12 -1.08493e+13 -7.64537e+12 -9.13971e+12 -3.96423e+12 -4.51017e+12 -4.22119e+12 -1.29163e+13 -7.91924e+12 -7.02276e+12 -8.89612e+12 -9.6135e+12 -6.57717e+12 -8.32778e+12 -1.12468e+13 -4.45685e+12 -6.99132e+12 -7.10288e+12 -5.9977e+12 -8.92013e+12 -5.899e+12 -8.90798e+12 -1.14402e+13 -9.53429e+12 -9.67705e+12 -9.3706e+12 -1.52424e+13 -9.83457e+12 -1.33926e+13 -6.78701e+12 -8.45963e+12 -1.09407e+13 -8.48476e+12 -1.11488e+13 -1.03676e+13 -1.11025e+13 -9.86972e+12 -9.02305e+12 -8.15274e+12 -1.13433e+13 -3.76631e+12 -8.96894e+12 -5.4042e+12 -3.31474e+12 -4.36497e+12 -8.68147e+12 -1.14664e+13 -1.23227e+13 -9.54493e+12 -1.5185e+13 -6.29045e+12 -6.40611e+12 -8.40469e+12 -9.80196e+12 -1.28554e+13 -1.30749e+13 -9.09977e+12 -1.57554e+13 -9.66068e+12 -9.06417e+12 -6.00053e+12 -1.00318e+13 -8.63448e+12 -9.01534e+12 -8.18998e+12 -3.20055e+12 -1.01273e+13 -9.7467e+12 -6.39001e+12 -5.08143e+12 -1.09273e+13 -6.1465e+12 -7.50571e+12 -7.69665e+12 -7.11487e+12 -5.58221e+12 -9.00393e+12 -6.66744e+12 -5.55048e+12 -1.31849e+13 -9.45256e+12 -1.14315e+13 -7.85642e+12 -5.79283e+12 -1.01961e+13 -6.31397e+12 -5.42085e+12 -1.22206e+13 -6.41406e+12 -7.89429e+12 -8.28812e+12 -1.23687e+13 -7.36341e+12 -4.7681e+12 -9.78364e+12 -5.27285e+12 -7.05495e+12 -3.94701e+12 -5.27911e+12 -3.3062e+12 -8.17303e+12 -6.71858e+12 -6.62487e+12 -5.21382e+12 -3.73313e+12 -6.58036e+12 -1.13177e+13 -8.23536e+12 -1.05756e+13 -1.24034e+13 -8.2903e+12 -5.79017e+12 -6.50852e+12 -8.78824e+12 -9.23598e+12 -5.10125e+12 -7.50386e+12 -6.53943e+12 -7.29385e+12 -1.11784e+13 -9.97154e+12 -1.02566e+13 -1.13479e+13 -8.80468e+12 -9.10163e+12 -1.2726e+13 -1.22824e+13 -9.91969e+12 -9.91231e+12 -8.43989e+12 -1.50877e+13 -1.24606e+13 -7.45458e+12 -1.05743e+13 -1.06757e+13 -7.20116e+12 -5.94372e+12 -2.67271e+12 -3.9124e+12 -6.20142e+12 -4.03739e+12 -1.1823e+13 -3.48676e+12 -7.54128e+12 -6.23467e+12 -6.82289e+12 -1.06387e+13 -1.01106e+13 -1.46912e+13 -1.28128e+13 -6.13645e+12 -6.40838e+12 -7.37104e+12 -9.6292e+12 -9.47255e+12 -1.14401e+13 -7.54223e+12 -1.10861e+13 -1.44995e+13 -1.00671e+13 -1.04908e+13 -1.22185e+13 -1.2663e+13 -9.13757e+12 -8.98499e+12 -1.0278e+13 -3.40571e+12 -3.64983e+12 -8.584e+12 -9.65957e+12 -5.9667e+12 -6.33081e+12 -8.32467e+12 -9.46845e+12 -8.7655e+12 -5.83987e+12 -4.6039e+12 -1.10786e+13 -1.17357e+13 -1.10127e+13 -8.22748e+12 -8.3503e+12 -8.22847e+12 -3.41345e+12 -9.23915e+12 -9.24914e+12 -7.834e+12 -7.64016e+12 -9.81947e+12 -7.53517e+12 -6.01646e+12 -5.73599e+12 -7.02006e+12 -1.29881e+13 -5.28019e+12 -5.68784e+12 -1.04873e+13 -9.76361e+12 -8.85805e+12 -7.90628e+12 -7.79847e+12 -1.09107e+13 -1.62063e+13 -5.91988e+12 -6.70988e+12 -1.12118e+13 -3.78514e+12 -8.11733e+12 -4.93977e+12 -5.71952e+12 -7.89344e+12 -8.85236e+12 -9.58525e+12 -2.79573e+12 -4.43084e+12 -7.27283e+12 -8.25371e+12 -9.20932e+12 -6.71009e+12 -8.20781e+12 -8.83983e+12 -1.17584e+13 -1.08283e+13 -8.54053e+12 -6.43116e+12 -1.71765e+13 -1.32111e+13 -1.34216e+13 -8.68992e+12 -8.00004e+12 -5.40157e+12 -7.60976e+12 -9.48092e+12 -1.30906e+13 -9.07313e+12 -6.58358e+12 -4.14167e+12 -5.21849e+12 -1.0459e+13 -4.65475e+12 -8.84206e+12 -7.34993e+12 -9.15441e+12 -6.72491e+12 -8.33853e+12 -1.21767e+13 -8.82716e+12 -6.13999e+12 -8.42592e+12 -7.19974e+12 -9.02618e+12 -1.0889e+13 -8.00661e+12 -8.02906e+12 -3.12923e+12 -3.64888e+12 -4.79206e+12 -1.04573e+13 -1.00254e+13 -6.6931e+12 -1.03295e+13 -3.53842e+12 -7.59265e+12 -5.57928e+12 -5.94881e+12 -5.44342e+12 -7.5367e+12 -9.61529e+12 -5.12053e+12 -9.82076e+12 -7.3839e+12 -8.12213e+12 -6.90169e+12 -6.50528e+12 -6.82401e+12 -1.48894e+13 -1.03312e+13 -5.44806e+12 -1.01586e+13 -9.37308e+12 -7.45591e+12 -7.63925e+12 -5.10852e+12 -1.20804e+13 -1.15721e+13 -5.15372e+12 -9.26516e+12 -9.41698e+12 -6.16487e+12 -6.39754e+12 -5.84934e+12 -9.36968e+12 -5.92533e+12 -6.48872e+12 -3.01466e+12 -9.68901e+12 -1.15503e+13 -8.59255e+12 -9.88063e+12 -1.17156e+13 -5.14648e+12 -4.35143e+12 -6.11833e+12 -5.20612e+12 -7.12145e+12 -3.55096e+12 -5.41027e+12 -5.89878e+12 -6.00468e+12 -5.64059e+12 -4.59579e+12 -9.073e+12 -8.29081e+12 -6.60405e+12 -5.30305e+12 -8.71714e+12 -7.55416e+12 -5.65742e+12 -5.76644e+12 -7.96143e+12 -6.16281e+12 -8.55681e+12 -7.65831e+12 -5.90667e+12 -7.37425e+12 -9.89173e+12 -5.147e+12 -7.71483e+12 -9.66485e+12 -8.9231e+12 -5.81903e+12 -4.56617e+12 -7.85072e+12 -8.90503e+12 -1.00351e+13 -4.9679e+12 -1.13787e+13 -4.85771e+12 -1.08856e+13 -1.11767e+13 -8.59476e+12 -1.23179e+13 -6.30941e+12 -1.31531e+13 -8.71809e+12 -6.61426e+12 -9.84915e+12 -7.90697e+12 -6.10503e+12 -1.31159e+13 -6.21773e+12 -4.05158e+12 -4.8991e+12 -9.47236e+12 -4.93135e+12 -5.78968e+12 -1.09279e+13 -7.78118e+12 -1.26002e+13 -6.35524e+12 -1.06417e+13 -9.36908e+12 -8.39128e+12 -4.77384e+12 -1.40156e+13 -1.01573e+13 -7.26466e+12 -6.2321e+12 -7.1184e+12 -1.43042e+13 -4.85449e+12 -6.1116e+12 -5.31723e+12 -5.97658e+12 -6.45832e+12 -9.92893e+12 -6.33437e+12 -6.63881e+12 -8.44409e+12 -7.69096e+12 -5.9646e+12 -1.21318e+13 -8.57668e+12 -1.23349e+13 -1.23408e+13 -6.773e+12 -4.4559e+12 -6.99565e+12 -6.25866e+12 -6.61539e+12 -7.40975e+12 -6.2103e+12 -8.50888e+12 -1.25768e+13 -4.74136e+12 -7.10932e+12 -1.03584e+13 -6.39865e+12 -1.18293e+13 -7.4217e+12 -4.87634e+12 -6.56705e+12 -1.00845e+13 -5.06367e+12 -7.01859e+12 -9.77804e+12 -8.42556e+12 -3.33453e+12 -4.97156e+12 -7.19728e+12 -8.59325e+12 -7.51715e+12 -7.837e+12 -3.77309e+12 -8.94794e+12 -4.4052e+12 -6.16008e+12 -5.38006e+12 -8.12394e+12 -3.47431e+12 -2.96395e+12 -7.52107e+12 -7.23409e+12 -3.95985e+12 -4.04827e+12 -4.84822e+12 -5.76924e+12 -3.1835e+12 -4.07888e+12 -7.62204e+12 -7.25481e+12 -8.39031e+12 -5.31264e+12 -7.51754e+12 -5.77019e+12 -1.09149e+13 -9.75918e+12 -5.91241e+12 -6.48378e+12 -8.6683e+12 -8.29115e+12 -6.10824e+12 -4.33543e+12 -1.18058e+13 -6.51405e+12 -2.04012e+12 -2.98764e+12 -4.88229e+12 -3.25888e+12 -6.89013e+12 -9.50196e+12 -7.163e+12 -1.06902e+13 -9.10493e+12 -7.59619e+12 -9.33372e+12 -7.94402e+12 -9.21918e+12 -8.06096e+12 -1.44153e+13 -2.65057e+12 -6.90101e+12 -5.22191e+12 -7.34246e+12 -1.07073e+13 -7.304e+12 -4.43077e+12 -8.11572e+12 -8.86726e+12 -9.44464e+12 -1.09145e+13 -6.18819e+12 -1.02173e+13 -8.2441e+12 -1.13927e+13 -5.52148e+12 -6.8623e+12 -4.83059e+12 -7.17629e+12 -1.29797e+13 -1.04614e+13 -8.52884e+12 -1.31611e+13 -1.24585e+13 -7.28898e+12 -9.74843e+12 -9.75579e+12 -7.99503e+12 -4.29398e+12 -5.68883e+12 -1.0199e+13 -6.46555e+12 -7.09031e+12 -1.19798e+13 -7.17729e+12 -1.09155e+13 -9.69493e+12 -7.12154e+12 -5.4303e+12 -5.04374e+12 -5.0917e+12 -6.81949e+12 -6.20348e+12 -6.35595e+12 -5.24868e+12 -8.3008e+12 -7.68815e+12 -6.30342e+12 -5.89799e+12 -1.38347e+13 -8.49683e+12 -8.12059e+12 -6.85624e+12 -6.05935e+12 -6.87493e+12 -8.07283e+12 -8.17863e+12 -7.16066e+12 -4.62261e+12 -7.01001e+12 -7.45486e+12 -4.58709e+12 -1.05832e+13 -5.57608e+12 -5.04878e+12 -9.21213e+12 -7.08871e+12 -8.60728e+12 -6.86436e+12 -7.06228e+12 -4.64733e+12 -8.23048e+12 -4.76752e+12 -4.86381e+12 -8.97445e+12 -5.28259e+12 -1.21332e+13 -5.9054e+12 -7.6257e+12 -6.72091e+12 -1.03029e+13 -5.74853e+12 -5.60017e+12 -5.87785e+12 -1.00051e+13 -1.01944e+13 -4.12325e+12 -8.7838e+12 -5.4347e+12 -9.13557e+12 -6.3905e+12 -1.30647e+13 -5.65397e+12 -1.16719e+13 -5.91788e+12 -6.95817e+12 -1.12571e+13 -9.45081e+12 -1.06118e+13 -8.07842e+12 -8.13902e+12 -6.40259e+12 -1.19132e+13 -6.56653e+12 -3.04519e+12 -1.11695e+13 -8.99165e+12 -7.06757e+12 -1.26595e+13 -5.42041e+12 -1.07268e+13 -6.60776e+12 -4.55552e+12 -8.44506e+12 -1.04284e+13 -1.10584e+13 -1.31852e+13 -6.71599e+12 -4.40783e+12 -5.03769e+12 -7.55107e+12 -6.87905e+12 -8.39771e+12 -4.94143e+12 -1.10556e+13 -1.006e+13 -9.001e+12 -8.19493e+12 -7.88893e+12 -9.69464e+12 -9.81149e+12 -9.97041e+12 -9.86378e+12 -7.81022e+12 -9.37612e+12 -9.70615e+12 -6.86864e+12 -9.69631e+12 -1.13173e+13 -9.52678e+12 -8.18222e+12 -9.43505e+12 -5.36125e+12 -9.8969e+12 -6.07921e+12 -7.83557e+12 -8.57605e+12 -8.37785e+12 -8.2387e+12 -8.16361e+12 -8.19018e+12 -8.78656e+12 -9.13827e+12 -1.05475e+13 -7.38916e+12 -5.58456e+12 -6.80104e+12 -8.08328e+12 -3.60699e+12 -7.29133e+12 -7.87654e+12 -5.26774e+12 -8.48143e+12 -5.14639e+12 -4.3552e+12 -7.87473e+12 -7.80933e+12 -7.34221e+12 -1.3315e+13 -1.12662e+13 -1.23313e+13 -5.99405e+12 -6.26895e+12 -6.61105e+12 -4.76045e+12 -5.20452e+12 -6.37401e+12 -7.20181e+12 -1.14785e+13 -1.03273e+13 -4.11585e+12 -5.02626e+12 -1.03616e+13 -8.86457e+12 -1.01259e+13 -7.72141e+12 -9.80466e+12 -6.26775e+12 -5.88093e+12 -2.39978e+12 -8.06799e+12 -8.95891e+12 -5.34394e+12 -9.3669e+12 -9.38265e+12 -1.30722e+13 -3.79067e+12 -4.96021e+12 -5.74726e+12 -6.59781e+12 -8.44529e+12 -5.53762e+12 -5.31429e+12 -4.24855e+12 -1.01217e+13 -4.45187e+12 -9.04717e+12 -4.91229e+12 -6.56275e+12 -8.7549e+12 -7.32211e+12 -7.22309e+12 -6.59243e+12 -6.63811e+12 -7.38186e+12 -6.45644e+12 -7.35235e+12 -9.75777e+12 -7.38015e+12 -8.6977e+12 -9.78433e+12 -8.60637e+12 -1.19107e+13 -9.26212e+12 -8.47519e+12 -5.11605e+12 -1.40134e+13 -1.2229e+13 -1.2219e+13 -1.03847e+13 -8.78126e+12 -8.03309e+12 -8.81087e+12 -8.82781e+12 -1.21599e+13 -9.93613e+12 -1.23014e+13 -7.68274e+12 -1.0879e+13 -9.00456e+12 -7.23588e+12 -7.85978e+12 -9.32982e+12 -4.99948e+12 -7.55561e+12 -8.64585e+12 -5.93018e+12 -8.35549e+12 -5.75138e+12 -5.74267e+12 -8.33356e+12 -5.13994e+12 -2.80485e+12 -8.14842e+12 -8.21606e+12 -4.60739e+12 -8.85881e+12 -7.23864e+12 -1.15361e+13 -1.38194e+13 -1.09323e+13 -6.13392e+12 -3.39598e+12 -6.21659e+12 -8.65092e+12 -6.08928e+12 -1.21276e+13 -5.34909e+12 -4.59444e+12 -4.75757e+12 -8.17873e+12 -1.21676e+13 -8.22556e+12 -5.86139e+12 -5.0435e+12 -5.4168e+12 -1.0425e+13 -5.75816e+12 -8.36033e+12 -7.23578e+12 -5.11596e+12 -2.50976e+12 -7.0532e+12 -8.48417e+12 -1.27678e+13 -8.34688e+12 -3.31666e+12 -8.44635e+12 -6.98839e+12 -5.62376e+12 -5.93296e+12 -7.97894e+12 -5.54432e+12 -1.02687e+13 -9.08758e+12 -4.45465e+12 -6.14913e+12 -4.67018e+12 -1.33673e+13 -5.52715e+12 -1.03625e+13 -6.43987e+12 -1.08764e+13 -4.34561e+12 -7.55503e+12 -7.2895e+12 -5.7831e+12 -7.34396e+12 -3.90408e+12 -7.15017e+12 -7.77545e+12 -5.84192e+12 -1.06419e+13 -7.48428e+12 -4.44972e+12 -8.58813e+12 -5.72378e+12 -7.01963e+12 -3.62176e+12 -8.06079e+12 -5.36717e+12 -1.00999e+13 -4.68812e+12 -7.19443e+12 -8.2998e+12 -7.6289e+12 -6.80811e+12 -5.56913e+12 -6.9702e+12 -7.13846e+12 -4.45763e+12 -7.47267e+12 -7.78303e+12 -4.59379e+12 -7.33857e+12 -6.40908e+12 -5.42936e+12 -6.66475e+12 -9.98329e+12 -6.82257e+12 -4.09892e+12 -8.13984e+12 -1.22893e+13 -6.06418e+12 -1.0362e+13 -6.63748e+12 -6.6668e+12 -5.47318e+12 -8.25398e+12 -4.45069e+12 -6.87563e+12 -8.8154e+12 -5.11817e+12 -7.57345e+12 -1.10299e+13 -1.02067e+13 -4.68307e+12 -6.53497e+12 -8.18768e+12 -6.32312e+12 -7.78829e+12 -7.61428e+12 -3.7422e+12 -6.16961e+12 -1.14724e+13 -5.41666e+12 -9.19301e+12 -2.32571e+12 -4.47709e+12 -6.57121e+12 -1.01437e+13 -1.41014e+13 -1.24332e+13 -1.22248e+13 -7.24401e+12 -6.23586e+12 -6.86712e+12 -7.96532e+12 -1.1169e+13 -6.86054e+12 -8.28248e+12 -9.08997e+12 -1.03061e+13 -6.86699e+12 -3.94709e+12 -1.12609e+13 -6.15565e+12 -2.95649e+12 -2.53346e+12 -7.29267e+12 -6.55273e+12 -8.78223e+12 -8.48118e+12 -5.26276e+12 -9.02359e+12 -6.5892e+12 -8.49858e+12 -6.30451e+12 -1.01315e+13 -5.02462e+12 -9.39945e+12 -1.47529e+13 -1.0419e+13 -4.70645e+12 -8.0766e+12 -9.22407e+12 -6.57158e+12 -1.02068e+13 -7.14464e+12 -7.647e+12 -8.6503e+12 -1.06471e+13 -1.54847e+13 -9.42904e+12 -1.1208e+13 -3.39714e+12 -8.13372e+12 -5.00129e+12 -1.01815e+13 -1.05382e+13 -8.00967e+12 -6.85531e+12 -1.00573e+13 -7.75965e+12 -8.11688e+12 -6.68693e+12 -1.0474e+13 -2.9895e+12 -8.50069e+12 -7.69911e+12 -4.89257e+12 -5.11327e+12 -5.45542e+12 -6.22667e+12 -5.8211e+12 -4.59015e+12 -5.64939e+12 -3.96472e+12 -1.01556e+13 -6.6506e+12 -4.6236e+12 -5.98824e+12 -6.7237e+12 -7.83985e+12 -7.26328e+12 -6.1765e+12 -9.07301e+12 -8.42972e+12 -8.18058e+12 -8.3496e+12 -6.34664e+12 -6.02504e+12 -6.43968e+12 -8.33373e+12 -5.78083e+12 -3.26022e+12 -8.39984e+12 -8.61694e+12 -6.73129e+12 -8.92623e+12 -4.13234e+12 -3.48597e+12 -7.04415e+12 -1.04552e+13 -7.55577e+12 -4.96267e+12 -5.61786e+12 -7.89259e+12 -2.54233e+12 -4.42129e+12 -8.3537e+12 -5.68065e+12 -4.35981e+12 -2.75512e+12 -4.56267e+12 -6.17485e+12 -6.65294e+12 -1.14895e+13 -1.07319e+13 -1.05787e+13 -8.5916e+12 -8.34533e+12 -6.19541e+12 -9.89142e+12 -9.73491e+12 -8.87726e+12 -1.1306e+13 -5.95386e+12 -5.95588e+12 -6.86554e+12 -1.13952e+13 -6.80776e+12 -7.79964e+12 -6.49302e+12 -8.14883e+12 -9.76964e+12 -6.94854e+12 -8.53306e+12 -4.71348e+12 -7.4643e+12 -4.41536e+12 -1.31809e+13 -6.28247e+12 -5.24121e+12 -7.51033e+12 -7.89929e+12 -4.85755e+12 -7.53471e+12 -7.27212e+12 -7.2345e+12 -1.03613e+13 -4.77859e+12 -6.51872e+12 -1.07398e+13 -5.48098e+12 -5.4003e+12 -7.38606e+12 -4.16409e+12 -5.39552e+12 -6.22364e+12 -5.40915e+12 -6.09019e+12 -4.7987e+12 -6.63894e+12 -6.77518e+12 -7.31715e+12 -7.79175e+12 -1.3174e+13 -4.79218e+12 -6.6446e+12 -1.58248e+13 -6.76051e+12 -5.64548e+12 -1.07585e+13 -8.32244e+12 -5.73748e+12 -1.04824e+13 -7.18683e+12 -7.2256e+12 -8.38755e+12 -8.50532e+12 -8.89099e+12 -5.66455e+12 -5.25718e+12 -7.02038e+12 -7.68094e+12 -9.58804e+12 -5.60239e+12 -4.97085e+12 -5.85608e+12 -9.41007e+12 -8.01167e+12 -6.83143e+12 -6.31983e+12 -8.59778e+12 -9.541e+12 -5.53279e+12 -6.13893e+12 -9.48498e+12 -6.84808e+12 -5.36971e+12 -9.12211e+12 -8.88731e+12 -6.21497e+12 -4.59203e+12 -6.15954e+12 -1.14103e+13 -4.5712e+12 -6.02724e+12 -5.84112e+12 -5.86342e+12 -4.84346e+12 -3.95232e+12 -1.13192e+13 -9.18287e+12 -5.37054e+12 -6.881e+12 -5.34994e+12 -7.82269e+12 -5.02969e+12 -4.89057e+12 -3.39076e+12 -5.62894e+12 -6.85514e+12 -8.93773e+12 -8.5297e+12 -8.84351e+12 -7.02824e+12 -6.70576e+12 -4.44776e+12 -7.59698e+12 -3.91587e+12 -5.75172e+12 -7.10901e+12 -4.59284e+12 -9.42127e+12 -4.50079e+12 -6.5404e+12 -5.23824e+12 -4.32776e+12 -8.62904e+12 -5.78998e+12 -8.31589e+12 -6.9881e+12 -6.88424e+12 -5.85904e+12 -4.61244e+12 -6.56249e+12 -8.95588e+12 -4.33091e+12 -1.12641e+13 -5.16862e+12 -7.25326e+12 -4.53639e+12 -5.37752e+12 -5.69871e+12 -5.26851e+12 -1.34516e+13 -8.71045e+12 -2.8092e+12 -8.44604e+12 -5.07458e+12 -4.69415e+12 -7.01533e+12 -7.53361e+12 -1.00823e+13 -1.33774e+13 -5.46368e+12 -6.9299e+12 -3.44244e+12 -3.87035e+12 -3.88661e+12 -5.92318e+12 -8.81562e+12 -6.07257e+12 -8.80246e+12 -6.62185e+12 -9.3824e+12 -8.89042e+12 -7.51592e+12 -8.55963e+12 -3.36483e+12 -1.01178e+13 -8.95471e+12 -8.96919e+12 -9.66121e+12 -7.55298e+12 -8.92971e+12 -6.70324e+12 -8.28978e+12 -5.08221e+12 -5.93024e+12 -8.66515e+12 -8.63398e+12 -5.86651e+12 -4.42232e+12 -6.61572e+12 -5.73262e+12 -5.52228e+12 -3.87242e+12 -5.49412e+12 -6.50449e+12 -7.03632e+12 -4.8314e+12 -6.49485e+12 -3.01599e+12 -5.30465e+12 -1.08697e+13 -9.42622e+12 -7.9394e+12 -1.44241e+13 -1.94768e+13 -1.25519e+13 -7.1836e+12 -1.11524e+13 -9.18971e+12 -6.95371e+12 -7.18475e+12 -5.74007e+12 -8.0134e+12 -7.30338e+12 -4.59161e+12 -6.07734e+12 -6.32033e+12 -1.10999e+13 -6.99026e+12 -4.95874e+12 -2.39288e+12 -8.26714e+12 -1.19474e+13 -8.18686e+12 -7.2777e+12 -6.52192e+12 -9.80045e+12 -6.35523e+12 -1.13494e+13 -5.87827e+12 -5.46337e+12 -3.35766e+12 -4.4519e+12 -5.524e+12 -6.31577e+12 -6.62665e+12 -887052000000.0 -6.05858e+12 -9.39606e+12 -3.58418e+12 -6.68e+12 -7.31961e+12 -5.75015e+12 -2.15481e+12 -6.40822e+12 -6.50123e+12 -5.00563e+12 -6.95222e+12 -6.14473e+12 -7.53583e+12 -4.08559e+12 -5.758e+12 -6.76732e+12 -7.01265e+12 -4.23081e+12 -5.43869e+12 -5.6674e+12 -3.62578e+12 -5.42824e+12 -5.09954e+12 -7.08802e+12 -5.68191e+12 -6.51592e+12 -6.75432e+12 -6.8301e+12 -3.02805e+12 -4.6683e+12 -1.07046e+13 -6.26675e+12 -3.60835e+12 -5.14648e+12 -5.67341e+12 -5.77767e+12 -5.92464e+12 -3.25366e+12 -2.95684e+12 -5.55026e+12 -6.1069e+12 -7.04899e+12 -4.77716e+12 -6.48391e+12 -5.91058e+12 -7.26656e+12 -5.34394e+12 -4.08103e+12 -2.56263e+12 -7.87779e+12 -8.03608e+12 -8.74958e+12 -4.33033e+12 -4.26972e+12 -5.17707e+12 -8.60293e+12 -8.19034e+12 -7.60755e+12 -7.64152e+12 -8.29701e+12 -7.19341e+12 -4.68228e+12 -7.76988e+12 -8.21401e+12 -7.50506e+12 -4.76141e+12 -3.43814e+12 -6.0135e+12 -4.06727e+12 -5.16556e+12 -1.02859e+13 -7.11232e+12 -8.31153e+12 -4.52839e+12 -8.0382e+12 -1.31254e+13 -6.59833e+12 -5.33676e+12 -8.09107e+12 -1.42759e+13 -5.95553e+12 -5.35985e+12 -7.43291e+12 -4.11104e+12 -1.35506e+13 -7.5998e+12 -6.5135e+12 -9.1908e+12 -7.01569e+12 -7.71307e+12 -6.54725e+12 -1.08228e+13 -3.67967e+12 -9.77532e+12 -5.03075e+12 -5.25841e+12 -8.68714e+12 -4.5769e+12 -6.91051e+12 -5.49131e+12 -5.92351e+12 -4.70381e+12 -6.81668e+12 -9.75689e+12 -9.60335e+12 -8.72028e+12 -7.80225e+12 -4.7762e+12 -3.99634e+12 -3.91385e+12 -4.12321e+12 -8.70661e+12 -7.86765e+12 -7.40489e+12 -6.51455e+12 -3.73464e+12 -8.4234e+12 -5.85889e+12 -7.51688e+12 -6.00281e+12 -5.1235e+12 -5.83757e+12 -3.42653e+12 -7.5176e+12 -6.56005e+12 -7.45709e+12 -7.80408e+12 -7.63763e+12 -5.53567e+12 -7.4749e+12 -5.17215e+12 -5.88558e+12 -9.45285e+12 -2.33412e+12 -4.97061e+12 -2.94374e+12 -4.79464e+12 -4.48254e+12 -9.89675e+12 -5.19344e+12 -4.15103e+12 -5.22847e+12 -4.29105e+12 -6.07091e+12 -8.57997e+12 -6.80207e+12 -6.83228e+12 -7.95879e+12 -4.37055e+12 -5.39974e+12 -5.60695e+12 -5.15893e+12 -3.49805e+12 -8.89747e+12 -7.65547e+12 -9.36591e+12 -2.2344e+12 -5.47869e+12 -4.89328e+12 -4.37697e+12 -6.01164e+12 -5.30277e+12 -6.4625e+12 -7.34995e+12 -5.89362e+12 -3.89552e+12 -3.85841e+12 -6.41206e+12 -6.48719e+12 -8.83337e+12 -5.51319e+12 -6.18345e+12 -5.65275e+12 -4.71057e+12 -6.23315e+12 -4.34327e+12 -6.05465e+12 -5.40622e+12 -6.32637e+12 -7.08048e+12 -4.5988e+12 -6.51674e+12 -5.93443e+12 -4.5033e+12 -5.85657e+12 -6.22916e+12 -8.02108e+12 -4.83588e+12 -3.60622e+12 -5.62578e+12 -4.87207e+12 -6.80674e+12 -4.66379e+12 -7.03754e+12 -7.73342e+12 -5.06881e+12 -3.58738e+12 -6.86791e+12 -7.55628e+12 -6.86432e+12 -6.69556e+12 -8.94576e+12 -1.27732e+13 -6.52868e+12 -5.68523e+12 -9.61284e+12 -7.3515e+12 -8.57063e+12 -1.20543e+13 -5.15045e+12 -5.67372e+12 -6.37288e+12 -4.97737e+12 -5.81438e+12 -8.91678e+12 -1.05245e+13 -1.22317e+13 -4.10713e+12 -8.60501e+12 -5.19442e+12 -8.6297e+12 -8.25693e+12 -1.00348e+13 -7.16078e+12 -1.07053e+13 -3.95982e+12 -6.48965e+12 -9.16e+12 -5.04204e+12 -7.89086e+12 -5.34883e+12 -6.51468e+12 -5.10305e+12 -4.9312e+12 -5.61128e+12 -6.068e+12 -4.81583e+12 -6.05253e+12 -8.82821e+12 -1.11176e+13 -9.69934e+12 -9.17863e+12 -1.23862e+13 -9.9753e+12 -7.22709e+12 -4.62914e+12 -4.75734e+12 -7.2552e+12 -3.87366e+12 -5.91978e+12 -5.0343e+12 -4.8716e+12 -7.13299e+12 -7.43942e+12 -9.87344e+12 -6.69726e+12 -5.60298e+12 -8.76993e+12 -7.20206e+12 -8.34447e+12 -6.63668e+12 -8.25484e+12 -7.48948e+12 -6.74375e+12 -6.6779e+12 -4.69595e+12 -5.86109e+12 -7.61951e+12 -4.77451e+12 -4.39267e+12 -7.05611e+12 -6.79838e+12 -3.51789e+12 -3.90304e+12 -6.39764e+12 -3.29885e+12 -7.48113e+12 -1.01626e+13 -8.72468e+12 -5.42114e+12 -6.65404e+12 -7.02971e+12 -8.97402e+12 -1.0541e+13 -6.85201e+12 -2.80044e+12 -6.49602e+12 -4.21816e+12 -4.23475e+12 -3.16585e+12 -5.12661e+12 -6.02982e+12 -5.02494e+12 -1.78366e+12 -5.4707e+12 -6.74378e+12 -5.56912e+12 -7.5372e+12 -7.52214e+12 -5.32351e+12 -6.21462e+12 -6.46421e+12 -8.13769e+12 -6.3144e+12 -8.65183e+12 -5.59418e+12 -4.96212e+12 -8.80593e+12 -4.09429e+12 -6.2483e+12 -6.58919e+12 -6.53773e+12 -5.55182e+12 -3.53888e+12 -3.19132e+12 -4.27071e+12 -4.91062e+12 -5.93286e+12 -5.20877e+12 -4.57154e+12 -6.39453e+12 -5.35512e+12 -5.67177e+12 -2.72907e+12 -4.63457e+12 -5.8251e+12 -8.38109e+12 -6.31412e+12 -5.3271e+12 -3.11091e+12 -5.7372e+12 -4.41201e+12 -3.29754e+12 -7.61449e+12 -6.73921e+12 -8.1238e+12 -1.00077e+13 -4.68349e+12 -9.5594e+12 -7.23907e+12 -7.57696e+12 -5.55726e+12 -5.11776e+12 -5.86023e+12 -3.12158e+12 -5.32436e+12 -4.28206e+12 -1.10188e+13 -4.18912e+12 -4.20243e+12 -6.77738e+12 -4.08928e+12 -5.28418e+12 -6.84808e+12 -9.20361e+12 -6.49292e+12 -7.75826e+12 -5.94372e+12 -3.59161e+12 -4.05174e+12 -4.61635e+12 -8.36348e+12 -3.46139e+12 -4.92207e+12 -5.50836e+12 -9.82303e+12 -7.64509e+12 -5.42734e+12 -5.20833e+12 -7.61338e+12 -9.17986e+12 -6.32103e+12 -6.03331e+12 -4.18038e+12 -6.56886e+12 -4.4098e+12 -6.69154e+12 -6.88445e+12 -5.79896e+12 -5.50013e+12 -5.98503e+12 -6.30386e+12 -8.66245e+12 -9.50086e+12 -1.04388e+13 -7.77855e+12 -5.87634e+12 -5.70166e+12 -6.31484e+12 -5.05369e+12 -4.72602e+12 -5.02424e+12 -8.38276e+12 -5.29783e+12 -1.23462e+13 -8.44802e+12 -1.32786e+13 -6.50021e+12 -4.67517e+12 -7.12143e+12 -5.79593e+12 -4.30585e+12 -4.98117e+12 -5.13858e+12 -3.59606e+12 -5.76947e+12 -5.85439e+12 -3.71559e+12 -6.31656e+12 -4.33254e+12 -4.46903e+12 -4.44928e+12 -3.78965e+12 -7.8386e+12 -7.09266e+12 -5.39856e+12 -7.98248e+12 -8.51529e+12 -5.18287e+12 -7.26236e+12 -7.07874e+12 -4.54467e+12 -8.00943e+12 -5.62229e+12 -3.79829e+12 -6.77404e+12 -5.90357e+12 -4.27578e+12 -5.51595e+12 -6.55305e+12 -7.01753e+12 -6.38424e+12 -4.72336e+12 -8.02185e+12 -5.25049e+12 -1.16201e+13 -9.82984e+12 -5.61824e+12 -1.01479e+13 -8.72835e+12 -3.2442e+12 -6.02925e+12 -6.44415e+12 -9.04484e+12 -5.23009e+12 -5.16857e+12 -8.81145e+12 -7.63389e+12 -7.78964e+12 -4.88083e+12 -5.1456e+12 -6.47705e+12 -4.29408e+12 -4.5097e+12 -5.61642e+12 -6.81211e+12 -5.60183e+12 -5.9254e+12 -9.6132e+12 -3.37667e+12 -4.3522e+12 -6.55733e+12 -3.69108e+12 -4.37231e+12 -3.03924e+12 -5.74796e+12 -5.78351e+12 -5.22532e+12 -3.71851e+12 -5.80438e+12 -6.12536e+12 -6.35358e+12 -6.06344e+12 -7.28326e+12 -4.47018e+12 -7.21794e+12 -4.83015e+12 -2.77942e+12 -5.03126e+12 -3.3826e+12 -5.9707e+12 -3.85921e+12 -3.7807e+12 -4.91564e+12 -7.03584e+12 -6.09918e+12 -6.53386e+12 -5.1382e+12 -4.5828e+12 -6.54554e+12 -6.47099e+12 -6.81548e+12 -8.86607e+12 -5.09071e+12 -6.68272e+12 -6.20868e+12 -9.14498e+12 -1.06125e+13 -4.84272e+12 -4.11739e+12 -6.42677e+12 -5.98089e+12 -9.66338e+12 -6.70946e+12 -5.15596e+12 -6.99505e+12 -7.41068e+12 -5.55957e+12 -5.36013e+12 -3.84491e+12 -4.37532e+12 -4.9941e+12 -8.6909e+12 -7.0237e+12 -8.67524e+12 -6.43361e+12 -6.17e+12 -6.62022e+12 -6.18227e+12 -9.1651e+12 -8.00979e+12 -5.9133e+12 -8.42317e+12 -1.22424e+13 -7.05278e+12 -7.37428e+12 -6.08415e+12 -2.15392e+12 -6.70319e+12 -1.07237e+13 -5.76929e+12 -1.09038e+13 -6.7408e+12 -6.16649e+12 -4.80788e+12 -5.90302e+12 -9.35926e+12 -1.1212e+13 -1.54179e+13 -7.29e+12 -5.80748e+12 -8.3045e+12 -8.43701e+12 -9.11801e+12 -7.47144e+12 -5.67665e+12 -5.69636e+12 -7.10395e+12 -5.78207e+12 -3.25549e+12 -3.5444e+12 -5.18743e+12 -2.58582e+12 -6.09462e+12 -6.38565e+12 -6.60138e+12 -7.0809e+12 -5.26912e+12 -9.99778e+12 -3.99189e+12 -8.40447e+12 -7.7118e+12 -6.63782e+12 -6.64446e+12 -5.89952e+12 -7.56532e+12 -6.86357e+12 -5.42626e+12 -4.99628e+12 -5.759e+12 -5.46338e+12 -5.18319e+12 -5.19879e+12 -5.75379e+12 -9.84306e+12 -7.80528e+12 -7.71302e+12 -9.52227e+12 -4.81591e+12 -4.60893e+12 -3.46334e+12 -1.15625e+13 -5.78981e+12 -8.21383e+12 -6.58666e+12 -8.40657e+12 -5.60715e+12 -6.55818e+12 -7.20701e+12 -7.63759e+12 -8.60966e+12 -5.3823e+12 -3.12095e+12 -2.91894e+12 -5.67898e+12 -5.29901e+12 -3.53556e+12 -3.37984e+12 -3.1664e+12 -6.4756e+12 -3.66218e+12 -6.23657e+12 -5.54782e+12 -2.62466e+12 -7.87284e+12 -5.24599e+12 -4.37024e+12 -3.95046e+12 -6.07864e+12 -3.69004e+12 -6.82223e+12 -5.22518e+12 -7.36957e+12 -3.16051e+12 -5.94813e+12 -4.01169e+12 -5.94887e+12 -6.64535e+12 -6.57584e+12 -3.24123e+12 -7.07936e+12 -4.78552e+12 -5.78144e+12 -2.30588e+12 -4.18448e+12 -3.46824e+12 -4.66876e+12 -2.6699e+12 -5.36438e+12 -3.79709e+12 -4.59516e+12 -6.09857e+12 -4.96727e+12 -4.60515e+12 -4.06655e+12 -3.85823e+12 -6.61623e+12 -6.16633e+12 -5.29249e+12 -5.01585e+12 -6.84022e+12 -3.31781e+12 -5.64555e+12 -3.08015e+12 -3.87269e+12 -8.22876e+12 -2.17449e+12 -8.6702e+12 -3.22788e+12 -2.15239e+12 -4.75129e+12 -4.03355e+12 -6.17737e+12 -7.71643e+12 -4.6786e+12 -8.03795e+12 -6.37353e+12 -5.65531e+12 -8.79306e+12 -4.26518e+12 -6.73212e+12 -3.55481e+12 -6.08948e+12 -5.12674e+12 -1.05385e+13 -3.89358e+12 -5.63193e+12 -6.47713e+12 -8.05277e+12 -6.40936e+12 -4.842e+12 -2.76172e+12 -6.75747e+12 -6.39397e+12 -6.91294e+12 -4.55739e+12 -3.95827e+12 -7.98635e+12 -7.83534e+12 -4.71844e+12 -4.41596e+12 -4.78416e+12 -5.84972e+12 -8.33491e+12 -6.41997e+12 -4.35271e+12 -5.81477e+12 -8.02887e+12 -6.63706e+12 -1.00081e+13 -8.11952e+12 -8.45109e+12 -1.07025e+13 -7.31762e+12 -1.00853e+13 -7.85733e+12 -9.10566e+12 -7.70965e+12 -5.19325e+12 -6.39964e+12 -1.25146e+13 -6.15124e+12 -6.96163e+12 -8.73394e+12 -4.72274e+12 -7.60272e+12 -7.35217e+12 -4.86747e+12 -5.55993e+12 -5.99332e+12 -9.79401e+12 -5.02869e+12 -8.61906e+12 -8.84424e+12 -6.51523e+12 -5.93835e+12 -7.31122e+12 -6.1316e+12 -4.75786e+12 -4.28813e+12 -7.78724e+12 -8.40814e+12 -3.19691e+12 -4.59992e+12 -5.18343e+12 -6.68656e+12 -8.54095e+12 -2.49179e+12 -3.79981e+12 -3.21995e+12 -6.08789e+12 -2.974e+12 -6.99506e+12 -5.11327e+12 -1.14239e+13 -8.21362e+12 -7.66553e+12 -7.1941e+12 -5.09564e+12 -6.51361e+12 -4.46716e+12 -5.62599e+12 -7.18763e+12 -9.86777e+12 -4.6967e+12 -6.92746e+12 -3.32304e+12 -4.89442e+12 -6.61563e+12 -6.4261e+12 -7.42098e+12 -4.2957e+12 -4.8006e+12 -6.15006e+12 -7.5223e+12 -5.79176e+12 -6.63478e+12 -5.28223e+12 -6.00346e+12 -2.89017e+12 -4.61868e+12 -4.27119e+12 -5.1606e+12 -4.86848e+12 -4.82743e+12 -5.45581e+12 -4.34813e+12 -3.82595e+12 -3.35619e+12 -6.14652e+12 -3.77458e+12 -2.95155e+12 -4.74143e+12 -3.69906e+12 -4.27263e+12 -5.88232e+12 -4.62775e+12 -7.9529e+12 -3.97492e+12 -4.26517e+12 -4.42682e+12 -5.11835e+12 -5.44469e+12 -3.82916e+12 -4.99545e+12 -3.80184e+12 -5.11381e+12 -3.1144e+12 -8.99237e+12 -5.8863e+12 -6.08271e+12 -9.6376e+12 -4.77287e+12 -8.51633e+12 -7.52193e+12 -9.24945e+12 -6.33707e+12 -7.55321e+12 -5.95175e+12 -6.6905e+12 -5.95456e+12 -6.78803e+12 -7.84594e+12 -8.55466e+12 -7.69506e+12 -5.9216e+12 -6.03734e+12 -7.39062e+12 -6.25755e+12 -6.33692e+12 -4.36311e+12 -8.64408e+12 -6.83552e+12 -6.60343e+12 -6.70573e+12 -6.41748e+12 -8.51506e+12 -6.23776e+12 -6.05796e+12 -5.7778e+12 -6.29263e+12 -4.59401e+12 -3.19909e+12 -7.79674e+12 -8.01067e+12 -1.13716e+13 -5.53058e+12 -7.99413e+12 -5.55434e+12 -7.4895e+12 -6.49671e+12 -8.90238e+12 -5.97641e+12 -6.80198e+12 -5.0926e+12 -4.12844e+12 -2.87185e+12 -7.00771e+12 -3.2754e+12 -4.73769e+12 -3.34263e+12 -3.48634e+12 -4.517e+12 -1.02568e+13 -5.79063e+12 -5.79382e+12 -4.91694e+12 -9.12706e+12 -6.61689e+12 -5.90701e+12 -6.79706e+12 -1.03861e+13 -4.2309e+12 -2.97977e+12 -7.14698e+12 -4.39664e+12 -5.24475e+12 -4.94201e+12 -5.44097e+12 -4.38506e+12 -7.17745e+12 -6.69389e+12 -5.21349e+12 -4.45104e+12 -5.15119e+12 -6.92886e+12 -9.77798e+12 -4.14787e+12 -5.82221e+12 -6.75156e+12 -4.75003e+12 -5.73666e+12 -7.03253e+12 -7.19955e+12 -4.34843e+12 -6.94189e+12 -4.28996e+12 -4.61517e+12 -6.24069e+12 -4.99064e+12 -5.76887e+12 -5.43374e+12 -6.32057e+12 -2.365e+12 -2.49325e+12 -7.16037e+12 -7.24731e+12 -8.29403e+12 -3.94175e+12 -4.20662e+12 -3.82197e+12 -6.32984e+12 -3.99265e+12 -3.14839e+12 -6.35861e+12 -4.09612e+12 -2.36047e+12 -5.22205e+12 -4.22964e+12 -2.66171e+12 -2.16856e+12 -4.77196e+12 -5.01153e+12 -4.68367e+12 -6.05374e+12 -3.78346e+12 -3.38622e+12 -5.39308e+12 -3.82911e+12 -5.30435e+12 -3.95479e+12 -3.22868e+12 -5.74752e+12 -5.06247e+12 -5.46935e+12 -8.02722e+12 -4.56704e+12 -3.0391e+12 -4.27409e+12 -1.61533e+12 -5.41764e+12 -6.3317e+12 -4.63956e+12 -4.58411e+12 -4.21814e+12 -2.56459e+12 -3.83668e+12 -2.97843e+12 -3.69919e+12 -4.72475e+12 -4.49367e+12 -6.4526e+12 -2.41886e+12 -5.9868e+12 -4.816e+12 -4.25284e+12 -3.79565e+12 -6.70092e+12 -4.38198e+12 -7.15015e+12 -5.06644e+12 -5.22421e+12 -7.09495e+12 -4.14584e+12 -5.89971e+12 -7.66914e+12 -5.97622e+12 -5.14739e+12 -7.84979e+12 -4.47606e+12 -8.68853e+12 -4.01156e+12 -5.38797e+12 -4.49277e+12 -5.34365e+12 -6.5164e+12 -8.22589e+12 -6.28972e+12 -7.49787e+12 -7.72011e+12 -6.48942e+12 -6.9585e+12 -882454000000.0 -7.16301e+12 -9.42382e+12 -5.54421e+12 -7.44336e+12 -3.73279e+12 -3.05869e+12 -5.98667e+12 -5.60321e+12 -5.45556e+12 -7.13531e+12 -6.17783e+12 -5.47814e+12 -7.65949e+12 -6.59315e+12 -4.36212e+12 -6.34956e+12 -8.19087e+12 -9.58224e+12 -1.12169e+13 -6.84716e+12 -2.61888e+12 -4.55189e+12 -9.3672e+12 -5.94315e+12 -2.2816e+12 -1.56638e+12 -4.43245e+12 -3.60337e+12 -2.99895e+12 -1.0476e+13 -3.89684e+12 -4.58276e+12 -5.74401e+12 -4.36612e+12 -5.20799e+12 -8.46852e+12 -3.66476e+12 -7.29389e+12 -4.16343e+12 -9.66061e+12 -4.47169e+12 -6.9591e+12 -4.65161e+12 -7.95932e+12 -5.68826e+12 -3.85312e+12 -4.19202e+12 -5.06562e+12 -5.50093e+12 -6.35957e+12 -6.65143e+12 -4.67731e+12 -4.52499e+12 -7.56089e+12 -5.33014e+12 -3.4674e+12 -7.59491e+12 -5.25494e+12 -7.32649e+12 -4.8665e+12 -7.44566e+12 -4.00757e+12 -4.76012e+12 -6.51208e+12 -5.32148e+12 -5.48043e+12 -4.62815e+12 -6.11368e+12 -3.48927e+12 -6.42323e+12 -5.5185e+12 -5.43832e+12 -3.72123e+12 -5.88191e+12 -7.16436e+12 -3.88532e+12 -4.00567e+12 -4.48918e+12 -2.69864e+12 -4.9237e+12 -3.53922e+12 -4.74333e+12 -6.77201e+12 -4.06057e+12 -2.33233e+12 -3.09284e+12 -4.66421e+12 -3.98253e+12 -2.7995e+12 -2.90989e+12 -2.49912e+12 -2.54687e+12 -2.81711e+12 -4.28884e+12 -4.25562e+12 -3.29754e+12 -4.68585e+12 -4.17055e+12 -2.9788e+12 -4.62909e+12 -4.21525e+12 -3.54893e+12 -3.57061e+12 -4.90939e+12 -7.15308e+12 -4.35257e+12 -4.73851e+12 -2.72663e+12 -4.10031e+12 -5.47439e+12 -6.3532e+12 -4.04916e+12 -5.45257e+12 -3.79632e+12 -2.98353e+12 -3.091e+12 -3.19723e+12 -3.51288e+12 -7.71117e+12 -5.18824e+12 -5.24302e+12 -2.01726e+12 -4.5874e+12 -3.56327e+12 -6.12925e+12 -2.92404e+12 -3.99058e+12 -3.47527e+12 -5.88765e+12 -4.8525e+12 -3.93575e+12 -8.67704e+12 -4.78244e+12 -3.2549e+12 -9.13646e+12 -7.06524e+12 -6.86954e+12 -4.20467e+12 -3.03167e+12 -7.65239e+12 -7.49505e+12 -6.0218e+12 -7.44147e+12 -5.6294e+12 -6.65006e+12 -5.95261e+12 -7.2931e+12 -7.97858e+12 -7.22241e+12 -3.35958e+12 -6.0553e+12 -5.40983e+12 -8.56866e+12 -6.64701e+12 -7.08376e+12 -8.04086e+12 -5.17448e+12 -3.69693e+12 -6.92651e+12 -4.48155e+12 -6.51871e+12 -2.89723e+12 -6.14979e+12 -5.26272e+12 -8.25506e+12 -5.38048e+12 -8.64018e+12 -4.23449e+12 -6.09692e+12 -5.27285e+12 -3.0646e+12 -7.42329e+12 -4.94003e+12 -2.59024e+12 -3.75604e+12 -2.82022e+12 -6.132e+12 -7.38704e+12 -5.42135e+12 -5.1701e+12 -6.0599e+12 -6.24055e+12 -5.59383e+12 -6.9675e+12 -6.94138e+12 -4.67911e+12 -4.27147e+12 -5.73729e+12 -4.01879e+12 -6.66685e+12 -4.65784e+12 -4.64351e+12 -4.38807e+12 -5.57045e+12 -3.30782e+12 -5.84236e+12 -4.64938e+12 -5.57736e+12 -4.70143e+12 -4.81078e+12 -2.14004e+12 -3.72856e+12 -1.943e+12 -4.7583e+12 -3.93564e+12 -6.63306e+12 -9.42703e+12 -6.02865e+12 -5.14933e+12 -5.54884e+12 -5.3939e+12 -5.75451e+12 -5.84672e+12 -4.57951e+12 -6.98606e+12 -4.82111e+12 -7.16843e+12 -6.62719e+12 -7.30857e+12 -4.99485e+12 -3.82436e+12 -4.23198e+12 -1.69087e+12 -3.72946e+12 -4.58559e+12 -2.68884e+12 -7.1459e+12 -5.058e+12 -5.63923e+12 -4.84093e+12 -2.82954e+12 -4.5299e+12 -4.11227e+12 -5.27344e+12 -4.94988e+12 -2.16121e+12 -3.75199e+12 -3.43273e+12 -4.15684e+12 -5.24272e+12 -2.47521e+12 -1.8786e+12 -3.04878e+12 -3.41662e+12 -3.78625e+12 -2.84325e+12 -2.64769e+12 -5.13406e+12 -1.87644e+12 -4.1508e+12 -5.01412e+12 -3.70626e+12 -3.19927e+12 -4.31913e+12 -1.25514e+12 -5.79012e+12 -2.20805e+12 -3.92943e+12 -3.10661e+12 -3.52093e+12 -2.97117e+12 -4.43412e+12 -1.77878e+12 -3.41793e+12 -3.45797e+12 -1.08943e+12 -3.89567e+12 -3.14825e+12 -6.20865e+12 -5.21559e+12 -3.80457e+12 -2.24175e+12 -3.06629e+12 -3.42183e+12 -5.8236e+12 -3.20596e+12 -4.51135e+12 -3.8522e+12 -4.62544e+12 -3.87815e+12 -2.40075e+12 -5.84495e+12 -7.58364e+12 -3.30501e+12 -2.94089e+12 -2.97636e+12 -3.18691e+12 -2.09466e+12 -1.87673e+12 -7.52104e+12 -3.44476e+12 -7.90893e+12 -7.6433e+12 -6.805e+12 -4.09206e+12 -3.85915e+12 -4.87502e+12 -3.82774e+12 -5.34883e+12 -5.90985e+12 -5.80607e+12 -4.77417e+12 -5.4383e+12 -4.41744e+12 -4.65567e+12 -4.20268e+12 -5.94002e+12 -2.93552e+12 -3.98913e+12 -7.13117e+12 -5.25094e+12 -6.31153e+12 -4.85935e+12 -8.92973e+12 -3.55512e+12 -7.75996e+12 -4.8734e+12 -5.95197e+12 -3.00587e+12 -3.34073e+12 -5.33227e+12 -4.42387e+12 -5.12248e+12 -6.53754e+12 -4.70664e+12 -5.05536e+12 -6.77573e+12 -6.25283e+12 -4.5111e+12 -4.64957e+12 -8.26719e+12 -3.7945e+12 -4.67615e+12 -2.66489e+12 -2.53192e+12 -3.72983e+12 -4.65104e+12 -7.06764e+12 -7.03984e+12 -7.7273e+12 -8.43442e+12 -4.47039e+12 -4.36625e+12 -7.74242e+12 -5.03067e+12 -4.15834e+12 -3.36566e+12 -4.648e+12 -5.45311e+12 -5.75088e+12 -4.14145e+12 -3.56671e+12 -6.6012e+12 -4.83334e+12 -4.13133e+12 -2.16716e+12 -5.17378e+12 -6.54392e+12 -5.05504e+12 -5.18177e+12 -4.2431e+12 -5.85468e+12 -6.00016e+12 -4.35038e+12 -4.40721e+12 -3.61693e+12 -4.33016e+12 -3.57858e+12 -3.29781e+12 -4.48707e+12 -7.06863e+12 -5.82552e+12 -7.31867e+12 -3.72595e+12 -2.19025e+12 -5.40756e+12 -4.49064e+12 -5.44472e+12 -5.56723e+12 -5.07503e+12 -3.30746e+12 -5.82487e+12 -4.80247e+12 -4.46396e+12 -1.83082e+12 -2.86974e+12 -2.79492e+12 -2.45448e+12 -2.53927e+12 -3.33289e+12 -5.41349e+12 -3.96255e+12 -5.44113e+12 -3.91202e+12 -3.64931e+12 -3.47229e+12 -3.50668e+12 -2.03222e+12 -2.35763e+12 -2.2105e+12 -3.69454e+12 -2.65866e+12 -5.48289e+12 -4.67016e+12 -2.89902e+12 -3.14345e+12 -2.72257e+12 -2.9636e+12 -2.3332e+12 -2.79785e+12 -2.779e+12 -3.37334e+12 -3.1098e+12 -1.44634e+12 -1.79232e+12 -3.31701e+12 -3.42098e+12 -4.5138e+12 -3.06546e+12 -5.24128e+12 -4.54069e+12 -3.84508e+12 -3.40188e+12 -3.41506e+12 -3.91723e+12 -4.33304e+12 -2.5816e+12 -3.84154e+12 -3.95299e+12 -4.42755e+12 -3.03454e+12 -2.4837e+12 -2.44201e+12 -5.47226e+12 -3.54994e+12 -3.6838e+12 -4.43344e+12 -2.69853e+12 -4.89221e+12 -6.10143e+12 -3.48028e+12 -3.05136e+12 -2.72556e+12 -2.35515e+12 -4.90657e+12 -3.91507e+12 -4.14207e+12 -6.36308e+12 -5.81051e+12 -6.97124e+12 -6.25927e+12 -5.82239e+12 -2.31905e+12 -1.33152e+12 -4.47234e+12 -4.61463e+12 -3.03327e+12 -5.85268e+12 -8.18666e+12 -4.90593e+12 -4.5612e+12 -5.76541e+12 -3.67111e+12 -6.67754e+12 -3.37648e+12 -5.51543e+12 -7.88131e+12 -7.8179e+12 -5.25258e+12 -4.04928e+12 -4.54009e+12 -5.48933e+12 -4.56589e+12 -7.42622e+12 -4.09912e+12 -7.4408e+12 -4.90408e+12 -6.69425e+12 -6.33298e+12 -6.70131e+12 -6.06699e+12 -1.66064e+12 -3.94131e+12 -7.35955e+12 -2.90946e+12 -3.59421e+12 -7.12656e+12 -6.0591e+12 -6.50243e+12 -4.37914e+12 -5.28393e+12 -6.5821e+12 -8.09564e+12 -4.64101e+12 -4.57525e+12 -4.19804e+12 -4.64155e+12 -7.00137e+12 -1.75622e+12 -5.10714e+12 -4.0169e+12 -5.05189e+12 -3.14228e+12 -5.15483e+12 -1.40825e+12 -4.2896e+12 -5.07366e+12 -5.90051e+12 -3.57785e+12 -4.53086e+12 -2.89373e+12 -1.83855e+12 -3.97646e+12 -6.3747e+12 -5.57715e+12 -2.5719e+12 -5.4039e+12 -4.49089e+12 -1.86934e+12 -5.90324e+12 -4.90881e+12 -3.05673e+12 -3.67178e+12 -5.79461e+12 -6.37996e+12 -4.84843e+12 -3.62794e+12 -3.4172e+12 -4.58389e+12 -4.41676e+12 -2.98704e+12 -4.6785e+12 -4.02536e+12 -3.19436e+12 -4.3158e+12 -5.04746e+12 -3.7875e+12 -4.49953e+12 -1.51312e+12 -2.12894e+12 -2.28634e+12 -2.42632e+12 -3.70558e+12 -1.98788e+12 -3.44126e+12 -1.92106e+12 -4.17747e+12 -3.61413e+12 -1.93507e+12 -3.05426e+12 -3.04728e+12 -1.71776e+12 -2.37254e+12 -2.47029e+12 -1.99546e+12 -3.98411e+12 -3.19589e+12 -2.58603e+12 -2.31508e+12 -2.5586e+12 -3.24888e+12 -3.37337e+12 -3.83492e+12 -3.88635e+12 -2.40335e+12 -2.75642e+12 -2.2105e+12 -3.31054e+12 -3.20768e+12 -5.20687e+12 -3.16045e+12 -6.21201e+12 -2.01484e+12 -2.35981e+12 -3.59287e+12 -4.03362e+12 -3.28197e+12 -4.04059e+12 -3.27268e+12 -2.12052e+12 -4.70553e+12 -3.56383e+12 -3.20704e+12 -3.49032e+12 -5.81555e+12 -2.53292e+12 -5.51689e+12 -5.53725e+12 -5.63454e+12 -2.12489e+12 -2.72148e+12 -2.59478e+12 -4.66428e+12 -5.04403e+12 -4.98044e+12 -6.98348e+12 -7.05569e+12 -4.57096e+12 -4.72732e+12 -3.72393e+12 -4.95119e+12 -5.65697e+12 -5.34026e+12 -3.21325e+12 -3.47274e+12 -5.8897e+12 -3.47946e+12 -5.57362e+12 -3.86773e+12 -5.93435e+12 -3.89349e+12 -5.58531e+12 -4.14771e+12 -5.33617e+12 -7.90422e+12 -6.819e+12 -4.99299e+12 -3.80472e+12 -3.30775e+12 -3.64873e+12 -5.99603e+12 -2.40918e+12 -3.75787e+12 -3.75857e+12 -4.46621e+12 -4.21096e+12 -5.40903e+12 -4.36468e+12 -4.21606e+12 -4.34259e+12 -5.43686e+12 -5.86845e+12 -5.69828e+12 -3.98517e+12 -4.9828e+12 -1.75257e+12 -3.18099e+12 -3.71276e+12 -4.63436e+12 -4.67227e+12 -3.95315e+12 -2.85892e+12 -4.31416e+12 -3.33986e+12 -3.63705e+12 -3.53582e+12 -4.33171e+12 -4.21668e+12 -4.41927e+12 -4.49255e+12 -4.04056e+12 -5.67067e+12 -2.59491e+12 -4.73818e+12 -3.22934e+12 -5.42845e+12 -5.69706e+12 -4.0123e+12 -2.70459e+12 -1.46802e+12 -2.96392e+12 -6.12075e+12 -2.90441e+12 -3.58739e+12 -1.15507e+12 -1.78803e+12 -2.53996e+12 -3.21657e+12 -3.4778e+12 -2.96059e+12 -2.6691e+12 -3.27173e+12 -2.10365e+12 -3.08888e+12 -1.29082e+12 -2.68638e+12 -2.69699e+12 -1.24462e+12 -3.85795e+12 -3.35871e+12 -2.69627e+12 -3.53203e+12 -4.02411e+12 -1.52289e+12 -1.01331e+12 -448607000000.0 -2.87997e+12 -2.48994e+12 -2.23066e+12 -2.35236e+12 -4.00499e+12 -1.58248e+12 -2.78333e+12 -2.2758e+12 -3.49264e+12 -3.62459e+12 -4.2266e+12 -1.22409e+12 -2.18843e+12 -2.87785e+12 -1.95874e+12 -3.01779e+12 -2.52531e+12 -2.28441e+12 -1.71482e+12 -3.94351e+12 -4.32606e+12 -1.62211e+12 -2.73286e+12 -3.15921e+12 -3.5695e+12 -4.7171e+12 -3.37533e+12 -4.94217e+12 -5.22072e+12 -4.02014e+12 -2.06514e+12 -3.14257e+12 -3.45741e+12 -2.31752e+12 -2.71238e+12 -4.24368e+12 -4.43336e+12 -2.20524e+12 -1.3353e+12 -2.39412e+12 -4.56251e+12 -4.53279e+12 -2.42969e+12 -4.68357e+12 -2.14461e+12 -4.1862e+12 -3.28626e+12 -5.39023e+12 -4.89039e+12 -3.0144e+12 -5.53479e+12 -5.5925e+12 -3.76442e+12 -5.74122e+12 -4.55322e+12 -7.24103e+12 -3.06928e+12 -3.10074e+12 -2.87094e+12 -2.62631e+12 -3.17911e+12 -4.1375e+12 -3.44849e+12 -5.16717e+12 -3.36453e+12 -4.8462e+12 -3.29007e+12 -4.13538e+12 -4.09618e+12 -6.21216e+12 -4.56634e+12 -5.79414e+12 -6.28166e+12 -3.42762e+12 -3.04688e+12 -5.13972e+12 -5.98783e+12 -4.72051e+12 -3.69109e+12 -3.01499e+12 -6.50145e+12 -6.06005e+12 -4.34955e+12 -4.49957e+12 -3.05853e+12 -3.75558e+12 -4.63876e+12 -4.03561e+12 -6.36517e+12 -2.91009e+12 -3.68221e+12 -4.67325e+12 -2.76232e+12 -7.57687e+12 -3.42421e+12 -4.95959e+12 -3.11505e+12 -4.88388e+12 -4.26884e+12 -4.12169e+12 -2.15617e+12 -3.49517e+12 -3.44837e+12 -4.07958e+12 -3.26364e+12 -4.43397e+12 -4.00815e+12 -2.54123e+12 -2.57862e+12 -3.40239e+12 -1.67195e+12 -3.64087e+12 -3.34443e+12 -2.34239e+12 -2.38901e+12 -1.79519e+12 -4.07658e+12 -2.17881e+12 -2.2363e+12 -1.30134e+12 -2.255e+12 -2.45756e+12 -2.2158e+12 -1.35266e+12 -1.99144e+12 -881752000000.0 -1.03025e+12 -1.49319e+12 -2.79859e+12 -2.79757e+12 -1.63926e+12 -651111000000.0 -2.39494e+12 -1.83723e+12 -2.42727e+12 -2.59258e+12 -1.86213e+12 -794324000000.0 -2.18744e+12 -3.21893e+12 -1.14953e+12 -1.23881e+12 -504163000000.0 -2.29091e+12 -2.1442e+12 -958981000000.0 -991155000000.0 -1.43426e+12 -943844000000.0 -2.46827e+12 -1.51786e+12 -2.06781e+12 -1.79462e+12 -3.06295e+12 -2.88288e+12 -2.11662e+12 -2.20873e+12 -1.16288e+12 -2.69358e+12 -1.45331e+12 -2.28807e+12 -3.18478e+12 -3.40421e+12 -2.34991e+12 -2.88963e+12 -1.16198e+12 -2.7113e+12 -2.06904e+12 -4.92717e+12 -2.90305e+12 -3.89236e+12 -2.32328e+12 -2.44105e+12 -1.95511e+12 -2.70423e+12 -1.74715e+12 -3.38847e+12 -2.28998e+12 -3.00149e+12 -3.3493e+12 -4.00808e+12 -3.85883e+12 -4.86472e+12 -1.53957e+12 -1.62898e+12 -4.01276e+12 -973823000000.0 -3.02136e+12 -2.48433e+12 -3.58186e+12 -4.43331e+12 -1.89852e+12 -2.94586e+12 -5.68231e+12 -2.13845e+12 -4.6279e+12 -3.29808e+12 -4.21926e+12 -4.04418e+12 -3.32248e+12 -3.31225e+12 -1.61304e+12 -4.86351e+12 -3.04477e+12 -5.69195e+12 -2.96219e+12 -5.30132e+12 -6.13198e+12 -4.37869e+12 -3.16226e+12 -5.18078e+12 -3.36389e+12 -5.93368e+12 -1.9597e+12 -6.03737e+12 -4.75886e+12 -3.72102e+12 -1.96466e+12 -4.4553e+12 -3.76948e+12 -4.42627e+12 -2.68477e+12 -3.25357e+12 -3.54005e+12 -2.9519e+12 -4.39796e+12 -5.26205e+12 -2.37254e+12 -82132800000.0 -3.65084e+12 -5.5229e+12 -2.48239e+12 -2.6383e+12 -1.92871e+12 -2.76479e+12 -2.18031e+12 -2.22113e+12 -4.9358e+12 -1.70557e+12 -3.25922e+12 -2.66381e+12 -2.9135e+12 -3.01336e+12 -2.24658e+12 -2.75885e+12 -2.73796e+12 -1.93184e+12 -2.42439e+12 -2.39809e+12 -1.81598e+12 -1.61734e+12 -3.06916e+12 -2.51661e+12 -2.32187e+12 -2.06556e+12 -2.09893e+12 -2.78863e+12 -829007000000.0 -2.09214e+12 -2.0805e+12 -1.05103e+12 -2.31803e+12 -1.36595e+12 -1.59586e+12 -1.06338e+12 -1.13494e+12 -870605000000.0 -358781000000.0 -1.07695e+12 -1.49474e+12 -1.57018e+12 -697217000000.0 -1.02615e+12 -949670000000.0 -1.59117e+12 -1.24519e+12 -1.31791e+12 -1.1002e+12 -707341000000.0 -1.74089e+12 -1.24119e+12 -1.29621e+12 -1.02418e+12 -715504000000.0 -1.285e+12 -1.91074e+12 -2.37213e+12 -2.2608e+12 -2.58033e+12 -1.37081e+12 -1.6916e+12 -1.73184e+12 -1.42688e+12 -1.98815e+12 -1.86224e+12 -1.68461e+12 -3.28745e+12 -3.0953e+12 -2.6988e+12 -1.38298e+12 -3.02775e+12 -2.77117e+12 -1.78e+12 -1.37629e+12 -1.66567e+12 -2.28507e+12 -2.2132e+12 -2.99085e+12 -2.34046e+12 -2.4183e+12 -2.10973e+12 -4.70832e+12 -2.80545e+12 -2.8317e+12 -623429000000.0 -4.22225e+12 -3.8183e+12 -3.57987e+12 -2.31128e+12 -3.50119e+12 -2.73114e+12 -1.66426e+12 -4.05357e+12 -1.49504e+12 -4.44832e+12 -4.08508e+12 -3.13059e+12 -2.48821e+12 -2.13209e+12 -4.30846e+12 -2.66701e+12 -2.56331e+12 -4.15386e+12 -4.80022e+12 -1.81563e+12 -3.95587e+12 -4.05758e+12 -1.53427e+12 -1.91134e+12 -4.67714e+12 -2.81732e+12 -1.99971e+12 -5.60036e+12 -2.21399e+12 -5.16793e+12 -1.64122e+12 -904129000000.0 -682941000000.0 -3.06041e+12 -2.60044e+12 -4.33831e+12 -2.39449e+12 -3.93353e+12 -3.41079e+12 -1.26251e+12 -3.6849e+12 -3.74338e+12 -2.92104e+12 -3.33825e+12 -2.4058e+12 -2.91612e+12 -2.94355e+12 -2.42821e+12 -1.92506e+12 -2.26012e+12 -1.87569e+12 -3.75469e+12 -1.37904e+12 -3.28952e+12 -2.09185e+12 -1.0102e+12 -1.8802e+12 -2.06938e+12 -1.49885e+12 -3.92209e+12 -219871000000.0 -1.55685e+12 -1.74226e+12 -2.75453e+12 -883790000000.0 -2.22788e+12 -2.01419e+12 -1.03415e+12 -1.19504e+12 -954418000000.0 -731745000000.0 -798042000000.0 -1.13615e+12 -1.21773e+12 -1.02531e+12 -536708000000.0 -1.07938e+12 -627675000000.0 -271555000000.0 -683965000000.0 -1.17974e+12 -870652000000.0 -1.08029e+12 -270942000000.0 -557505000000.0 -517849000000.0 -658536000000.0 -736752000000.0 -586547000000.0 -669318000000.0 -618302000000.0 -1.38639e+12 -1.01824e+12 -1.11416e+12 -1.35021e+12 -1.23425e+12 -938272000000.0 -1.56819e+12 -1.37985e+12 -2.0027e+12 -2.08514e+12 -1.65057e+12 -1.06276e+12 -1.77711e+12 -1.32239e+12 -1.33827e+12 -1.72172e+12 -1.56995e+12 -2.91585e+12 -1.6214e+12 -1.81631e+12 -1.17088e+12 -2.6754e+12 -3.84861e+12 -1.14809e+12 -1.84118e+12 -1.53628e+12 -3.22371e+12 -2.53347e+12 -2.07258e+12 -2.12878e+12 -3.3422e+12 -1.63102e+12 -1.27727e+12 -3.723e+12 -2.20691e+12 -3.16266e+12 -1.70807e+12 -3.03076e+12 -2.56054e+12 -1.95456e+12 -3.06456e+12 -2.38731e+12 -2.78745e+12 -3.49295e+12 -2.7617e+12 -4.26745e+12 -2.10588e+12 -2.45387e+12 -2.42404e+12 -1.84771e+12 -2.49654e+12 -2.07525e+12 -2.16375e+12 -2.31257e+12 -1.08867e+12 -3.26083e+12 -2.07775e+12 -2.19853e+12 -2.7826e+12 -1.71877e+12 -3.36799e+12 -1.35247e+12 -1.50851e+12 -2.67006e+12 -2.03306e+12 -2.39152e+12 -1.96108e+12 -3.56963e+12 -2.13728e+12 -1.99755e+12 -1.81218e+12 -1.52864e+12 -3.98114e+12 -2.48725e+12 -2.45548e+12 -2.20723e+12 -2.71847e+12 -3.48262e+12 -1.60423e+12 -1.47958e+12 -1.68039e+12 -711961000000.0 -2.51863e+12 -2.05845e+12 -1.16261e+12 -1.82169e+12 -1.82138e+12 -1.7421e+12 -817671000000.0 -2.0665e+12 -1.56015e+12 -2.45691e+12 -2.51534e+12 -1.42164e+12 -837030000000.0 -789199000000.0 -394299000000.0 -1.39362e+12 -707759000000.0 -1.00398e+12 -1.91762e+12 -548344000000.0 -813957000000.0 -428301000000.0 -994187000000.0 -347485000000.0 -997906000000.0 -1.29594e+12 -310732000000.0 -242170000000.0 -270683000000.0 -270947000000.0 -123441000000.0 -434635000000.0 -231760000000.0 -389774000000.0 -584376000000.0 -219194000000.0 -459330000000.0 -355667000000.0 -248806000000.0 -195426000000.0 -701580000000.0 -418191000000.0 -720135000000.0 -249258000000.0 -1.29363e+12 -1.31168e+12 -1.15461e+12 -1.68303e+12 -937443000000.0 -309769000000.0 -1.30665e+12 -1.02645e+12 -1.87889e+12 -3.05579e+12 -1.94067e+12 -1.89852e+12 -1.10109e+12 -1.98325e+12 -1.51882e+12 -1.63888e+12 -1.75828e+12 -3.67861e+12 -2.53087e+12 -3.05476e+12 -2.6756e+12 -1.3591e+12 -3.77878e+12 -1.6365e+12 -1.07842e+12 -1.89458e+12 -2.62662e+12 -4.28003e+12 -3.36292e+12 -2.46158e+12 -1.11659e+12 -1.63629e+12 -4.28822e+12 -1.24524e+12 -1.6846e+12 -2.12441e+12 -2.90363e+12 -1.18334e+12 -4.63844e+12 -2.38378e+12 -1.53959e+12 -2.23938e+12 -1.88876e+12 -1.4697e+12 -2.31075e+12 -1.54525e+12 -1.47541e+12 -580759000000.0 -1.52151e+12 -2.87582e+12 -1.387e+12 -2.16005e+12 -987685000000.0 -1.63862e+12 -2.07104e+12 -1.13781e+12 -979306000000.0 -1.69374e+12 -1.77921e+12 -1.93894e+12 -1.83317e+12 -1.18458e+12 -1.52929e+12 -911221000000.0 -1.6679e+12 -1.41383e+12 -1.70293e+12 -1.37689e+12 -1.58336e+12 -1.23893e+12 -1.11819e+12 -1.01079e+12 -1.0454e+12 -1.11036e+12 -920235000000.0 -1.16576e+12 -468625000000.0 -593201000000.0 -549450000000.0 -618193000000.0 -1.12721e+12 -432140000000.0 -510961000000.0 -1.05944e+12 -246442000000.0 -311120000000.0 -190090000000.0 -157724000000.0 -342115000000.0 -185954000000.0 -68586000000.0 -357582000000.0 -192757000000.0 -237417000000.0 -334770000000.0 -628151000000.0 -543652000000.0 -1.55482e+12 -533596000000.0 -1.02604e+12 -267021000000.0 -841791000000.0 -1.3622e+12 -337781000000.0 -1.07924e+12 -1.76519e+12 -1.22145e+12 -699571000000.0 -1.34627e+12 -1.04694e+12 -328033000000.0 -1.34157e+12 -1.40715e+12 -2.73943e+12 -1.40503e+12 -996332000000.0 -2.47892e+12 -1.32654e+12 -1.42529e+12 -2.37298e+12 -1.64359e+12 -1.77407e+12 -1.87011e+12 -1.61977e+12 -2.10892e+12 -2.07116e+12 -2.20437e+12 -2.29226e+12 -1.72084e+12 -1.13295e+12 -1.16093e+12 -1.41171e+12 -1.88631e+12 -2.53275e+12 -1.89926e+12 -2.4227e+12 -1.55494e+12 -2.43642e+12 -1.17815e+12 -1.32672e+12 -1.8545e+12 -1.09951e+12 -2.02127e+12 -1.18754e+12 -1.60323e+12 -2.14283e+12 -1.23846e+12 -1.78053e+12 -1.67083e+12 -1.01752e+12 -556047000000.0 -1.11554e+12 -1.84452e+12 -1.14127e+12 -946281000000.0 -906101000000.0 -872059000000.0 -584477000000.0 -712952000000.0 -555095000000.0 -949443000000.0 -1.06425e+12 -385929000000.0 -849804000000.0 -137251000000.0 -192367000000.0 -189653000000.0 -123413000000.0 -573790000000.0 -456321000000.0 -198162000000.0 -133924000000.0 -216859000000.0 -218146000000.0 -371263000000.0 -191981000000.0 -97567500000.0 -120463000000.0 -501588000000.0 -176667000000.0 -426852000000.0 -90519100000.0 -1.38824e+12 -903281000000.0 -121166000000.0 -319732000000.0 -635491000000.0 -1.36025e+12 -809118000000.0 -876076000000.0 -959813000000.0 -545827000000.0 -819730000000.0 -1.66745e+12 -332710000000.0 -1.49482e+12 -1.76114e+12 -1.43415e+12 -2.0963e+12 -2.33549e+12 -1.13305e+12 -1.73625e+12 -1.34443e+12 -1.54511e+12 -993860000000.0 -992657000000.0 -1.514e+12 -1.39725e+12 -1.19143e+12 -544254000000.0 -995469000000.0 -1.18374e+12 -923054000000.0 -827430000000.0 -1.04689e+12 -743687000000.0 -408626000000.0 -839694000000.0 -1.10672e+12 -832704000000.0 -1.25036e+12 -1.0562e+12 -240672000000.0 -803558000000.0 -964244000000.0 -875515000000.0 -485370000000.0 -982929000000.0 -1.03479e+12 -582597000000.0 -820803000000.0 -297646000000.0 -238304000000.0 -309726000000.0 -220874000000.0 -500531000000.0 -64042100000.0 -1.17546e+12 -310227000000.0 -205079000000.0 -293883000000.0 -206085000000.0 -90682800000.0 -261568000000.0 -294668000000.0 -285939000000.0 -198690000000.0 -188349000000.0 -455529000000.0 -476796000000.0 -251548000000.0 -649566000000.0 -211409000000.0 -275894000000.0 -195518000000.0 -741987000000.0 -733571000000.0 -721727000000.0 -558987000000.0 -973527000000.0 -604412000000.0 -399135000000.0 -822909000000.0 -1.10987e+12 -626564000000.0 -277085000000.0 -763930000000.0 -977241000000.0 -866397000000.0 -165971000000.0 -49526800000.0 -163934000000.0 -518272000000.0 -614576000000.0 -404993000000.0 -487232000000.0 -416679000000.0 -82416900000.0 -721272000000.0 -379508000000.0 -216794000000.0 -213494000000.0 -230767000000.0 -253305000000.0 -201915000000.0 -240255000000.0 -382943000000.0 -429581000000.0 -335610000000.0 -254220000000.0 -171721000000.0 -108695000000.0 -62463600000.0 