# vtk DataFile Version 2.0
Time step 66
ASCII
DATASET UNSTRUCTURED_GRID
POINTS 5000 float
200690.0 228919.0 0
207182.0 228743.0 0
206942.0 232467.0 0
213957.0 228450.0 0
222231.0 229853.0 0
229492.0 228946.0 0
233403.0 227679.0 0
233284.0 231051.0 0
237996.0 230771.0 0
271354.0 229336.0 0
278040.0 227711.0 0
286233.0 230995.0 0
292084.0 229973.0 0
297694.0 227739.0 0
199429.0 233877.0 0
203860.0 232251.0 0
206080.0 236080.0 0
210567.0 232883.0 0
217738.0 232827.0 0
222725.0 235307.0 0
226286.0 232061.0 0
230164.0 233628.0 0
234779.0 235325.0 0
243777.0 231236.0 0
250297.0 232758.0 0
256428.0 231123.0 0
258039.0 235580.0 0
261504.0 232930.0 0
266518.0 232193.0 0
275348.0 233225.0 0
270858.0 233848.0 0
280901.0 233115.0 0
285013.0 235722.0 0
288778.0 235274.0 0
293547.0 235401.0 0
298566.0 233007.0 0
201306.0 238942.0 0
214009.0 236647.0 0
209661.0 239846.0 0
218629.0 238646.0 0
223532.0 240909.0 0
227686.0 237537.0 0
231996.0 239213.0 0
236448.0 240232.0 0
239945.0 235976.0 0
245125.0 236621.0 0
250076.0 238111.0 0
254080.0 237534.0 0
264040.0 236366.0 0
260685.0 238973.0 0
265321.0 241123.0 0
268406.0 237013.0 0
269949.0 240849.0 0
273219.0 238074.0 0
278240.0 237182.0 0
276722.0 240965.0 0
281137.0 240783.0 0
282081.0 237074.0 0
286297.0 239813.0 0
290372.0 238585.0 0
294508.0 240155.0 0
300419.0 238849.0 0
198570.0 243057.0 0
205291.0 242883.0 0
210420.0 245861.0 0
214649.0 241863.0 0
219172.0 243257.0 0
228773.0 242734.0 0
233619.0 243753.0 0
237836.0 244706.0 0
241666.0 241150.0 0
247277.0 241197.0 0
249637.0 245909.0 0
244911.0 245278.0 0
252044.0 241759.0 0
254338.0 245980.0 0
256767.0 241649.0 0
260966.0 243288.0 0
268779.0 244398.0 0
273235.0 243718.0 0
278490.0 245659.0 0
284382.0 244810.0 0
290579.0 242812.0 0
297496.0 245189.0 0
201522.0 246619.0 0
202044.0 251143.0 0
206483.0 250209.0 0
216706.0 248177.0 0
222969.0 246657.0 0
227165.0 246518.0 0
226986.0 250807.0 0
230846.0 247213.0 0
234956.0 247387.0 0
237215.0 250428.0 0
241253.0 248405.0 0
246541.0 249950.0 0
251389.0 250395.0 0
258874.0 247275.0 0
255579.0 249924.0 0
264543.0 247220.0 0
269326.0 249293.0 0
270848.0 246659.0 0
273680.0 248371.0 0
282263.0 249172.0 0
288617.0 246778.0 0
290559.0 249902.0 0
286328.0 250407.0 0
292296.0 246697.0 0
293998.0 249565.0 0
297559.0 251057.0 0
202029.0 254797.0 0
206814.0 256060.0 0
211797.0 251725.0 0
216736.0 254044.0 0
221574.0 251800.0 0
220863.0 256235.0 0
229561.0 254821.0 0
225454.0 256320.0 0
232784.0 251761.0 0
232646.0 256219.0 0
237356.0 255614.0 0
243924.0 252663.0 0
240991.0 252729.0 0
243093.0 256661.0 0
246719.0 254190.0 0
254428.0 253754.0 0
250374.0 254890.0 0
259598.0 252559.0 0
265917.0 253574.0 0
272015.0 252447.0 0
274584.0 256319.0 0
277786.0 251986.0 0
280588.0 255883.0 0
283017.0 253228.0 0
290740.0 253848.0 0
286645.0 254406.0 0
294510.0 253409.0 0
297855.0 255309.0 0
202300.0 258728.0 0
205537.0 261459.0 0
212468.0 257207.0 0
209331.0 260539.0 0
217604.0 260214.0 0
222534.0 259736.0 0
226302.0 261688.0 0
229818.0 258645.0 0
234222.0 260017.0 0
239688.0 261383.0 0
247663.0 257754.0 0
245022.0 261372.0 0
249221.0 261217.0 0
252721.0 258848.0 0
256988.0 257076.0 0
261580.0 258022.0 0
270395.0 256634.0 0
266057.0 259230.0 0
269378.0 259842.0 0
273126.0 260689.0 0
278012.0 256811.0 0
276673.0 259269.0 0
279882.0 259297.0 0
283938.0 257692.0 0
288988.0 257824.0 0
286663.0 261222.0 0
293995.0 257866.0 0
298372.0 258812.0 0
298500.0 261670.0 0
201939.0 262685.0 0
201645.0 265745.0 0
208572.0 265236.0 0
204526.0 265644.0 0
212920.0 262787.0 0
216880.0 266591.0 0
221724.0 264058.0 0
225674.0 266578.0 0
230746.0 262884.0 0
235263.0 264813.0 0
239325.0 266478.0 0
243431.0 265889.0 0
247747.0 265422.0 0
252495.0 264204.0 0
257397.0 262133.0 0
259886.0 265938.0 0
263106.0 263202.0 0
268388.0 263737.0 0
273204.0 265125.0 0
277536.0 263254.0 0
282481.0 262788.0 0
287091.0 265801.0 0
291045.0 262158.0 0
295340.0 262149.0 0
293544.0 266075.0 0
297873.0 265008.0 0
202347.0 269093.0 0
205736.0 270194.0 0
212586.0 266985.0 0
209739.0 270078.0 0
213801.0 270067.0 0
221461.0 269199.0 0
225931.0 271399.0 0
230918.0 268141.0 0
236502.0 269645.0 0
241656.0 270739.0 0
245825.0 268842.0 0
250749.0 269796.0 0
256115.0 267906.0 0
265142.0 267476.0 0
261133.0 269886.0 0
269615.0 268543.0 0
274123.0 268899.0 0
278213.0 267878.0 0
282487.0 267269.0 0
281251.0 271511.0 0
285387.0 270283.0 0
289877.0 269718.0 0
294277.0 270260.0 0
297838.0 268851.0 0
202720.0 273550.0 0
207227.0 274025.0 0
211989.0 274051.0 0
217093.0 272331.0 0
215036.0 275616.0 0
221960.0 274433.0 0
227097.0 276662.0 0
233702.0 272366.0 0
229863.0 273197.0 0
232388.0 276302.0 0
237477.0 274892.0 0
242382.0 275809.0 0
246139.0 272534.0 0
246373.0 276555.0 0
250342.0 275196.0 0
256229.0 274254.0 0
261951.0 274659.0 0
266211.0 272385.0 0
269185.0 276302.0 0
271695.0 272863.0 0
276375.0 272604.0 0
279108.0 276398.0 0
283998.0 275590.0 0
287489.0 273296.0 0
292062.0 274934.0 0
297299.0 273480.0 0
201745.0 277249.0 0
202600.0 280819.0 0
205215.0 277268.0 0
209068.0 277479.0 0
206727.0 280426.0 0
213049.0 278114.0 0
210690.0 281068.0 0
217757.0 277914.0 0
214877.0 281688.0 0
222900.0 279605.0 0
227161.0 281430.0 0
230324.0 279485.0 0
234904.0 279822.0 0
239331.0 279703.0 0
244221.0 280669.0 0
249051.0 279901.0 0
252939.0 278774.0 0
256879.0 281382.0 0
260485.0 278310.0 0
265032.0 278135.0 0
262071.0 282100.0 0
269840.0 280621.0 0
274022.0 277683.0 0
278034.0 280999.0 0
282036.0 279454.0 0
285000.0 281206.0 0
287989.0 278146.0 0
291909.0 280170.0 0
296470.0 279101.0 0
202993.0 285477.0 0
207921.0 284503.0 0
212647.0 285141.0 0
218969.0 282794.0 0
216387.0 285281.0 0
223219.0 284306.0 0
219691.0 287052.0 0
227504.0 285891.0 0
231553.0 283141.0 0
236710.0 284856.0 0
240816.0 283347.0 0
240981.0 286449.0 0
243941.0 285315.0 0
247735.0 284164.0 0
251990.0 283467.0 0
259803.0 285590.0 0
264318.0 287087.0 0
265899.0 282543.0 0
269154.0 285135.0 0
273920.0 283477.0 0
279205.0 285900.0 0
281934.0 282641.0 0
284918.0 286211.0 0
289002.0 283068.0 0
293373.0 283913.0 0
297440.0 284043.0 0
202598.0 290610.0 0
206295.0 289064.0 0
210537.0 289256.0 0
215683.0 289776.0 0
223535.0 288820.0 0
220278.0 291662.0 0
227754.0 290612.0 0
231899.0 287956.0 0
235853.0 290322.0 0
239840.0 289508.0 0
243389.0 288876.0 0
246539.0 287512.0 0
246779.0 291603.0 0
250124.0 287869.0 0
255271.0 287731.0 0
260066.0 289813.0 0
263214.0 291602.0 0
268265.0 288639.0 0
266671.0 291644.0 0
272007.0 288097.0 0
275511.0 287971.0 0
270563.0 291840.0 0
274847.0 292022.0 0
277957.0 290076.0 0
281821.0 290308.0 0
290479.0 287966.0 0
286518.0 291943.0 0
296275.0 289010.0 0
202760.0 294887.0 0
207372.0 293508.0 0
212055.0 293544.0 0
209678.0 296535.0 0
213056.0 296959.0 0
216845.0 295049.0 0
222041.0 296148.0 0
224441.0 292741.0 0
227751.0 295759.0 0
231600.0 293046.0 0
235411.0 294544.0 0
238806.0 293774.0 0
237194.0 297372.0 0
242331.0 292892.0 0
244643.0 296135.0 0
240691.0 297418.0 0
248401.0 295927.0 0
251881.0 292778.0 0
254740.0 296610.0 0
256936.0 293072.0 0
260808.0 294552.0 0
265105.0 295608.0 0
268635.0 294890.0 0
272222.0 295433.0 0
278982.0 293500.0 0
276168.0 296254.0 0
280332.0 297297.0 0
282571.0 294149.0 0
284506.0 297247.0 0
288719.0 295749.0 0
292024.0 292651.0 0
292603.0 297005.0 0
297033.0 294382.0 0
201525.0 298330.0 0
201981.0 301170.0 0
205932.0 298424.0 0
204952.0 302116.0 0
207899.0 301987.0 0
210828.0 300285.0 0
215492.0 299745.0 0
219040.0 299045.0 0
222249.0 301338.0 0
225246.0 299308.0 0
229385.0 300676.0 0
232966.0 298146.0 0
233536.0 302692.0 0
237355.0 301185.0 0
243521.0 299845.0 0
241014.0 301265.0 0
246898.0 299627.0 0
251349.0 298800.0 0
257915.0 297502.0 0
255414.0 300226.0 0
258703.0 301223.0 0
261305.0 298546.0 0
264864.0 299711.0 0
269229.0 299031.0 0
273621.0 298419.0 0
273074.0 301401.0 0
277093.0 300585.0 0
281303.0 301109.0 0
284527.0 300975.0 0
288572.0 300068.0 0
292575.0 301735.0 0
296727.0 299591.0 0
202703.0 305259.0 0
206874.0 305028.0 0
210774.0 305136.0 0
213892.0 307428.0 0
214451.0 303384.0 0
218820.0 303375.0 0
216842.0 306656.0 0
222685.0 305449.0 0
225891.0 303322.0 0
226776.0 307603.0 0
230000.0 304882.0 0
233124.0 306589.0 0
236489.0 305686.0 0
244415.0 303379.0 0
240350.0 304684.0 0
243035.0 307644.0 0
248825.0 302858.0 0
247066.0 306784.0 0
252862.0 302858.0 0
251000.0 306083.0 0
254217.0 306043.0 0
256319.0 303938.0 0
259394.0 305188.0 0
262100.0 302832.0 0
263099.0 307529.0 0
266193.0 303374.0 0
270241.0 303984.0 0
267450.0 306861.0 0
274499.0 304998.0 0
278504.0 304753.0 0
282856.0 305207.0 0
286519.0 303766.0 0
290230.0 305352.0 0
286790.0 307662.0 0
293500.0 304828.0 0
296930.0 304694.0 0
197272.0 312343.0 0
202117.0 309590.0 0
205285.0 308383.0 0
208732.0 308942.0 0
205474.0 311642.0 0
209117.0 312426.0 0
212088.0 309681.0 0
216637.0 311027.0 0
220088.0 307945.0 0
223477.0 309807.0 0
220623.0 311392.0 0
227627.0 312096.0 0
230673.0 309061.0 0
234545.0 309915.0 0
231272.0 311911.0 0
238938.0 309388.0 0
242501.0 311148.0 0
249844.0 309580.0 0
245965.0 310900.0 0
252988.0 308854.0 0
257298.0 308884.0 0
260981.0 311568.0 0
264756.0 312379.0 0
266842.0 309925.0 0
268924.0 312997.0 0
271164.0 308497.0 0
273557.0 312311.0 0
275889.0 308691.0 0
280120.0 309390.0 0
277472.0 312765.0 0
284181.0 309064.0 0
283541.0 312658.0 0
290119.0 309654.0 0
286937.0 311418.0 0
293844.0 308133.0 0
293714.0 312311.0 0
297695.0 309197.0 0
297752.0 312730.0 0
202266.0 313300.0 0
203090.0 317501.0 0
206319.0 314752.0 0
212803.0 313178.0 0
209854.0 315601.0 0
212784.0 316570.0 0
216649.0 316081.0 0
223643.0 313287.0 0
220218.0 314615.0 0
222638.0 316959.0 0
226249.0 316369.0 0
233550.0 313445.0 0
230638.0 316072.0 0
236876.0 313466.0 0
234735.0 317138.0 0
238439.0 317276.0 0
240519.0 313722.0 0
244021.0 314099.0 0
242194.0 317422.0 0
249270.0 312937.0 0
246796.0 314585.0 0
245909.0 317521.0 0
253588.0 312963.0 0
250180.0 317269.0 0
254750.0 317940.0 0
257716.0 314409.0 0
258856.0 318163.0 0
261950.0 315770.0 0
265700.0 316006.0 0
268817.0 316913.0 0
271976.0 316130.0 0
280425.0 313819.0 0
275941.0 316015.0 0
279420.0 317057.0 0
282890.0 315706.0 0
289897.0 313536.0 0
286534.0 315694.0 0
295001.0 316152.0 0
291121.0 317085.0 0
298394.0 315609.0 0
202005.0 321289.0 0
207784.0 318527.0 0
205867.0 321924.0 0
211692.0 319603.0 0
210257.0 323217.0 0
215737.0 320460.0 0
220249.0 319876.0 0
224583.0 320392.0 0
228601.0 320262.0 0
226555.0 323010.0 0
232400.0 320400.0 0
236265.0 320919.0 0
244187.0 320731.0 0
240230.0 321544.0 0
247534.0 321300.0 0
251594.0 321432.0 0
254727.0 322138.0 0
256899.0 320681.0 0
259413.0 321961.0 0
262861.0 319966.0 0
266982.0 320074.0 0
274225.0 319053.0 0
270811.0 319912.0 0
273828.0 322739.0 0
276980.0 319905.0 0
280062.0 321408.0 0
277164.0 322468.0 0
283182.0 319060.0 0
287099.0 320099.0 0
294836.0 319733.0 0
291427.0 321736.0 0
297908.0 318462.0 0
297990.0 321448.0 0
202881.0 325022.0 0
207392.0 326113.0 0
211956.0 328100.0 0
214388.0 324054.0 0
218554.0 323513.0 0
216733.0 327070.0 0
222825.0 323807.0 0
220309.0 326124.0 0
222526.0 327885.0 0
226780.0 327243.0 0
230264.0 323908.0 0
234338.0 324244.0 0
232147.0 327444.0 0
238204.0 324902.0 0
235908.0 327999.0 0
243683.0 325558.0 0
248967.0 325221.0 0
252835.0 324579.0 0
252009.0 328472.0 0
256908.0 325666.0 0
261883.0 324333.0 0
261081.0 327738.0 0
264132.0 327166.0 0
265471.0 323845.0 0
269675.0 323637.0 0
267797.0 327304.0 0
272740.0 327805.0 0
279399.0 324618.0 0
276564.0 325102.0 0
277472.0 328343.0 0
283564.0 323806.0 0
281218.0 327293.0 0
287675.0 324954.0 0
288873.0 328373.0 0
295167.0 323352.0 0
292529.0 326266.0 0
297919.0 324638.0 0
296899.0 328142.0 0
302750.0 326076.0 0
202250.0 328720.0 0
203075.0 332579.0 0
205434.0 328859.0 0
208401.0 331377.0 0
212552.0 331948.0 0
215903.0 331074.0 0
219712.0 329644.0 0
223291.0 330891.0 0
220272.0 333436.0 0
226751.0 332714.0 0
230594.0 330657.0 0
234575.0 331774.0 0
238523.0 331151.0 0
239666.0 328057.0 0
240124.0 334001.0 0
242982.0 330874.0 0
247071.0 329221.0 0
246176.0 332896.0 0
249150.0 331907.0 0
252904.0 333116.0 0
256997.0 331073.0 0
261651.0 331544.0 0
265189.0 330664.0 0
269581.0 331956.0 0
275106.0 332593.0 0
280157.0 332244.0 0
284786.0 328813.0 0
284559.0 332900.0 0
288158.0 332473.0 0
292120.0 330304.0 0
294964.0 331915.0 0
298162.0 331778.0 0
304194.0 331846.0 0
202950.0 336784.0 0
207050.0 335511.0 0
208250.0 338697.0 0
214042.0 334101.0 0
211069.0 334776.0 0
211977.0 337856.0 0
217012.0 334206.0 0
215641.0 337043.0 0
223976.0 334933.0 0
220186.0 338018.0 0
228256.0 336783.0 0
230815.0 334425.0 0
233456.0 336331.0 0
237038.0 334745.0 0
236472.0 338185.0 0
240043.0 337953.0 0
243226.0 334993.0 0
246294.0 336039.0 0
249675.0 335737.0 0
254103.0 336650.0 0
257910.0 335914.0 0
261997.0 335353.0 0
265875.0 335055.0 0
269652.0 336639.0 0
271997.0 334453.0 0
273815.0 337457.0 0
277685.0 336446.0 0
282558.0 336705.0 0
287751.0 337766.0 0
292235.0 334604.0 0
296748.0 335533.0 0
197681.0 344007.0 0
201534.0 339743.0 0
202484.0 342403.0 0
204943.0 339701.0 0
206499.0 343078.0 0
210048.0 341637.0 0
213471.0 340864.0 0
216595.0 341028.0 0
219692.0 342264.0 0
222980.0 342530.0 0
224950.0 338728.0 0
228068.0 340356.0 0
226691.0 343095.0 0
231100.0 339468.0 0
234483.0 341182.0 0
229994.0 343125.0 0
232832.0 343922.0 0
238292.0 342042.0 0
243908.0 339180.0 0
241691.0 342027.0 0
248322.0 339668.0 0
250145.0 342918.0 0
246098.0 342838.0 0
252013.0 339609.0 0
253502.0 343236.0 0
259169.0 339583.0 0
255859.0 339924.0 0
257564.0 343181.0 0
262350.0 338684.0 0
262113.0 342644.0 0
266402.0 339946.0 0
267028.0 343828.0 0
270745.0 340894.0 0
273479.0 341933.0 0
275684.0 340385.0 0
279730.0 340556.0 0
284337.0 341642.0 0
288114.0 343130.0 0
292972.0 339478.0 0
292376.0 343849.0 0
297788.0 339217.0 0
297317.0 342463.0 0
202374.0 345653.0 0
202283.0 348873.0 0
205382.0 346000.0 0
207679.0 347304.0 0
205302.0 348847.0 0
212601.0 344064.0 0
209293.0 345426.0 0
210997.0 347586.0 0
216228.0 344117.0 0
218998.0 344695.0 0
214534.0 347407.0 0
218304.0 347184.0 0
222294.0 346364.0 0
226316.0 346671.0 0
229797.0 346586.0 0
233503.0 347266.0 0
235731.0 344430.0 0
238018.0 346386.0 0
240241.0 344618.0 0
243400.0 345410.0 0
241083.0 348136.0 0
248606.0 345870.0 0
245512.0 348118.0 0
251968.0 346526.0 0
255422.0 347057.0 0
264870.0 344179.0 0
263912.0 346249.0 0
260100.0 346655.0 0
269518.0 344148.0 0
266652.0 346619.0 0
269546.0 347425.0 0
272553.0 344935.0 0
272963.0 348608.0 0
276011.0 344284.0 0
279516.0 344960.0 0
276781.0 348228.0 0
282887.0 344758.0 0
286025.0 346854.0 0
289603.0 347055.0 0
294626.0 346906.0 0
291951.0 348088.0 0
297952.0 345473.0 0
297983.0 348496.0 0
202326.0 351967.0 0
208711.0 349312.0 0
206433.0 351643.0 0
211141.0 350445.0 0
209986.0 353292.0 0
214104.0 350901.0 0
217324.0 350034.0 0
214232.0 354234.0 0
217842.0 353007.0 0
220470.0 349465.0 0
224193.0 350162.0 0
220728.0 352012.0 0
228037.0 349747.0 0
227111.0 352912.0 0
231291.0 350428.0 0
234551.0 352189.0 0
236382.0 349624.0 0
239416.0 351407.0 0
237055.0 353679.0 0
243834.0 351177.0 0
240348.0 354250.0 0
248708.0 349254.0 0
247900.0 352642.0 0
251562.0 349248.0 0
251319.0 352896.0 0
254506.0 351187.0 0
257739.0 349376.0 0
257999.0 352269.0 0
260540.0 350522.0 0
264169.0 349764.0 0
261367.0 353183.0 0
264588.0 353828.0 0
267399.0 349819.0 0
268136.0 352612.0 0
270250.0 350683.0 0
272733.0 352506.0 0
276218.0 352085.0 0
279420.0 352500.0 0
281320.0 349038.0 0
283097.0 353279.0 0
286246.0 351058.0 0
290280.0 351019.0 0
294227.0 350820.0 0
297542.0 351279.0 0
196515.0 357640.0 0
202659.0 355079.0 0
202489.0 358242.0 0
206042.0 354944.0 0
206158.0 358215.0 0
209962.0 357223.0 0
215420.0 358155.0 0
219335.0 356083.0 0
223086.0 354424.0 0
220615.0 359135.0 0
224214.0 358279.0 0
227573.0 356683.0 0
231015.0 354542.0 0
234571.0 355283.0 0
231824.0 358237.0 0
234516.0 358234.0 0
238202.0 357621.0 0
243130.0 354764.0 0
241949.0 357587.0 0
243938.0 359397.0 0
246351.0 356349.0 0
254031.0 356018.0 0
250538.0 357136.0 0
256718.0 354493.0 0
259418.0 354882.0 0
257761.0 358412.0 0
262358.0 357647.0 0
266856.0 356271.0 0
270385.0 355476.0 0
273376.0 357445.0 0
279918.0 355574.0 0
276004.0 355561.0 0
277779.0 358425.0 0
284608.0 356058.0 0
282104.0 357896.0 0
287243.0 354818.0 0
286995.0 358661.0 0
290348.0 357937.0 0
290899.0 354803.0 0
294336.0 354033.0 0
294550.0 356716.0 0
293621.0 358370.0 0
297655.0 354197.0 0
297573.0 357109.0 0
303051.0 356972.0 0
195692.0 362558.0 0
202929.0 363718.0 0
201767.0 360905.0 0
204803.0 360797.0 0
206554.0 363965.0 0
207678.0 361239.0 0
211677.0 361212.0 0
214401.0 363952.0 0
217837.0 361720.0 0
222668.0 361653.0 0
228986.0 359728.0 0
226356.0 362265.0 0
230568.0 362476.0 0
233754.0 362101.0 0
237633.0 362283.0 0
241525.0 362070.0 0
244962.0 363485.0 0
247361.0 360065.0 0
248376.0 364747.0 0
251184.0 361533.0 0
254613.0 360507.0 0
256478.0 363919.0 0
263262.0 362923.0 0
259950.0 362252.0 0
265459.0 359676.0 0
268997.0 359429.0 0
271808.0 361834.0 0
274396.0 364350.0 0
275398.0 360256.0 0
280049.0 360670.0 0
277026.0 362159.0 0
284057.0 359957.0 0
280842.0 364008.0 0
284106.0 362963.0 0
287647.0 362406.0 0
290988.0 360801.0 0
290959.0 364044.0 0
293892.0 360677.0 0
294060.0 363813.0 0
297401.0 359969.0 0
297432.0 363108.0 0
202877.0 369590.0 0
202203.0 366647.0 0
206948.0 366374.0 0
209887.0 364218.0 0
210530.0 366895.0 0
214331.0 367213.0 0
217666.0 365984.0 0
221153.0 368287.0 0
220948.0 364577.0 0
224589.0 365256.0 0
224180.0 369695.0 0
229393.0 365379.0 0
227223.0 368055.0 0
232203.0 368457.0 0
233019.0 365632.0 0
235895.0 365389.0 0
238448.0 366867.0 0
235453.0 367650.0 0
240800.0 365654.0 0
243387.0 366916.0 0
246888.0 368085.0 0
250099.0 369796.0 0
251134.0 366924.0 0
253450.0 364956.0 0
253034.0 370408.0 0
254168.0 368138.0 0
257403.0 367817.0 0
260433.0 366418.0 0
263018.0 366583.0 0
267063.0 364500.0 0
267033.0 368872.0 0
270760.0 365840.0 0
273038.0 366992.0 0
270218.0 369130.0 0
274839.0 369137.0 0
277519.0 365491.0 0
278849.0 369289.0 0
281962.0 366944.0 0
284643.0 366488.0 0
287135.0 365978.0 0
289978.0 367680.0 0
294824.0 367005.0 0
298345.0 365699.0 0
297821.0 370651.0 0
196923.0 379423.0 0
200894.0 376680.0 0
198856.0 378026.0 0
203076.0 378038.0 0
202855.0 372684.0 0
206560.0 372005.0 0
204339.0 375201.0 0
207335.0 375576.0 0
204953.0 366915.0 0
209474.0 373202.0 0
207422.0 369383.0 0
212107.0 370943.0 0
215780.0 371551.0 0
217731.0 369114.0 0
218545.0 374777.0 0
219943.0 372161.0 0
223727.0 373813.0 0
229854.0 370964.0 0
227443.0 372658.0 0
235256.0 370636.0 0
233034.0 373443.0 0
237271.0 373150.0 0
238924.0 370216.0 0
238503.0 375734.0 0
239458.0 373584.0 0
242172.0 370536.0 0
242411.0 374332.0 0
245489.0 370913.0 0
247901.0 371138.0 0
249686.0 373530.0 0
246326.0 373668.0 0
253919.0 374043.0 0
257013.0 371719.0 0
260721.0 370862.0 0
263761.0 369877.0 0
261387.0 374688.0 0
264845.0 373426.0 0
267512.0 372325.0 0
271902.0 371313.0 0
269873.0 374065.0 0
273421.0 375465.0 0
274987.0 372845.0 0
278023.0 372845.0 0
282396.0 370526.0 0
282780.0 373518.0 0
284975.0 369228.0 0
287477.0 370857.0 0
293372.0 370336.0 0
290565.0 373153.0 0
297129.0 374652.0 0
297934.0 368139.0 0
295467.0 373030.0 0
299901.0 377584.0 0
302205.0 378664.0 0
296111.0 377110.0 0
187980.0 384776.0 0
192218.0 381925.0 0
190435.0 383854.0 0
195012.0 381279.0 0
198528.0 381605.0 0
194811.0 383895.0 0
200975.0 380055.0 0
202644.0 383084.0 0
204933.0 379825.0 0
207113.0 378495.0 0
208446.0 380572.0 0
209847.0 377458.0 0
211123.0 375688.0 0
210926.0 379983.0 0
213542.0 375263.0 0
213759.0 378570.0 0
216129.0 374797.0 0
213925.0 381590.0 0
216731.0 378544.0 0
219199.0 377820.0 0
222793.0 377995.0 0
226824.0 378447.0 0
227752.0 375658.0 0
230342.0 379625.0 0
230404.0 376004.0 0
233245.0 378027.0 0
235676.0 376162.0 0
240541.0 376632.0 0
236858.0 379632.0 0
239919.0 379843.0 0
245289.0 377112.0 0
242842.0 379002.0 0
249021.0 377344.0 0
252768.0 378107.0 0
258221.0 376300.0 0
256126.0 379369.0 0
260359.0 380325.0 0
263036.0 377993.0 0
265820.0 375865.0 0
268559.0 377742.0 0
265217.0 380004.0 0
272150.0 378811.0 0
275885.0 376574.0 0
274910.0 378896.0 0
276799.0 380097.0 0
279420.0 376379.0 0
282792.0 378019.0 0
285559.0 377795.0 0
285742.0 374044.0 0
288305.0 378673.0 0
285628.0 381598.0 0
288334.0 375512.0 0
288506.0 381933.0 0
290698.0 377986.0 0
290973.0 380726.0 0
292831.0 375930.0 0
295395.0 381251.0 0
299441.0 379871.0 0
293662.0 378864.0 0
296961.0 379070.0 0
303783.0 380459.0 0
305970.0 381086.0 0
303954.0 384458.0 0
307851.0 382459.0 0
309885.0 383502.0 0
311564.0 384656.0 0
180225.0 389524.0 0
182477.0 388296.0 0
184334.0 387003.0 0
186373.0 386246.0 0
185169.0 388892.0 0
191558.0 385965.0 0
192577.0 388105.0 0
188324.0 387854.0 0
196833.0 385823.0 0
195662.0 388261.0 0
199848.0 384177.0 0
200196.0 387546.0 0
205310.0 382737.0 0
203756.0 386569.0 0
207827.0 383837.0 0
207894.0 386759.0 0
210812.0 383452.0 0
212587.0 384779.0 0
215963.0 385463.0 0
217564.0 382367.0 0
220731.0 382287.0 0
224525.0 382502.0 0
228014.0 382372.0 0
228845.0 386396.0 0
233592.0 381236.0 0
231905.0 384379.0 0
236508.0 383703.0 0
239459.0 383701.0 0
242126.0 383198.0 0
243791.0 381319.0 0
247562.0 381939.0 0
249720.0 385369.0 0
251792.0 381668.0 0
254033.0 383399.0 0
255159.0 386620.0 0
252258.0 385890.0 0
256908.0 382307.0 0
258437.0 385640.0 0
263658.0 381868.0 0
261521.0 383956.0 0
268110.0 382037.0 0
265360.0 384204.0 0
272240.0 382164.0 0
270621.0 385935.0 0
275335.0 382782.0 0
277958.0 384377.0 0
274508.0 385627.0 0
280132.0 381143.0 0
280561.0 385048.0 0
282810.0 382158.0 0
282906.0 385745.0 0
285400.0 385130.0 0
287601.0 386811.0 0
292237.0 385041.0 0
289289.0 384351.0 0
291009.0 387401.0 0
293067.0 382597.0 0
294550.0 386612.0 0
301115.0 382938.0 0
297998.0 383295.0 0
300656.0 386600.0 0
296632.0 385664.0 0
298880.0 388104.0 0
306602.0 385284.0 0
303034.0 387345.0 0
304036.0 388933.0 0
306145.0 389998.0 0
308145.0 387450.0 0
310925.0 388986.0 0
313308.0 386617.0 0
315749.0 387475.0 0
317829.0 389273.0 0
175954.0 392516.0 0
173911.0 394357.0 0
178662.0 391648.0 0
182647.0 390257.0 0
179974.0 393628.0 0
185752.0 390388.0 0
183498.0 392080.0 0
184135.0 395079.0 0
187358.0 393936.0 0
188507.0 390724.0 0
191355.0 393923.0 0
191202.0 390835.0 0
196127.0 390820.0 0
193542.0 391706.0 0
193693.0 394102.0 0
197955.0 392830.0 0
200020.0 389915.0 0
202592.0 391057.0 0
205112.0 389083.0 0
206692.0 391819.0 0
209995.0 388343.0 0
209827.0 391617.0 0
212218.0 387613.0 0
212790.0 391414.0 0
214943.0 389210.0 0
217905.0 390445.0 0
218979.0 387618.0 0
220340.0 391265.0 0
221092.0 386381.0 0
221662.0 389591.0 0
223750.0 386202.0 0
223330.0 390028.0 0
225989.0 387831.0 0
225895.0 390986.0 0
230287.0 389189.0 0
234385.0 386355.0 0
233146.0 389360.0 0
236857.0 388238.0 0
239450.0 387271.0 0
239563.0 390964.0 0
242732.0 387322.0 0
243371.0 390637.0 0
245196.0 385410.0 0
247590.0 387833.0 0
246588.0 390851.0 0
251152.0 389060.0 0
254584.0 389963.0 0
258253.0 389352.0 0
261051.0 388563.0 0
263105.0 386772.0 0
265665.0 389457.0 0
267096.0 386595.0 0
270185.0 390369.0 0
273533.0 388428.0 0
276972.0 387565.0 0
275754.0 391380.0 0
279601.0 388781.0 0
282716.0 389560.0 0
285554.0 389033.0 0
292058.0 390839.0 0
288817.0 390600.0 0
294454.0 389588.0 0
295164.0 393848.0 0
297395.0 390417.0 0
301248.0 389839.0 0
303228.0 390656.0 0
303406.0 393432.0 0
301232.0 392213.0 0
305290.0 392432.0 0
308119.0 394235.0 0
308764.0 391738.0 0
312832.0 391331.0 0
315516.0 390859.0 0
312746.0 393935.0 0
316256.0 393893.0 0
320149.0 390660.0 0
318645.0 393587.0 0
322469.0 392509.0 0
322810.0 395199.0 0
325530.0 393021.0 0
164677.0 400293.0 0
169589.0 396711.0 0
171661.0 395566.0 0
167421.0 398837.0 0
176146.0 395730.0 0
173713.0 397803.0 0
173078.0 400048.0 0
176805.0 399305.0 0
178425.0 397206.0 0
182274.0 397681.0 0
185582.0 399742.0 0
187982.0 398846.0 0
189512.0 396271.0 0
192460.0 397293.0 0
195255.0 395686.0 0
196469.0 397553.0 0
202681.0 393853.0 0
199826.0 394902.0 0
199880.0 397621.0 0
203042.0 398477.0 0
205203.0 395077.0 0
207421.0 396764.0 0
210034.0 394679.0 0
212498.0 396574.0 0
214451.0 393655.0 0
217120.0 393884.0 0
219533.0 395004.0 0
222077.0 392740.0 0
221551.0 396858.0 0
224197.0 393362.0 0
224938.0 397026.0 0
227692.0 395088.0 0
228719.0 392002.0 0
231750.0 393495.0 0
234862.0 396647.0 0
235755.0 392293.0 0
238374.0 395017.0 0
241226.0 394219.0 0
244399.0 394834.0 0
247194.0 396079.0 0
249641.0 392807.0 0
253428.0 395212.0 0
257114.0 392281.0 0
257638.0 395914.0 0
260016.0 393427.0 0
262823.0 391876.0 0
267652.0 393449.0 0
264981.0 396101.0 0
272968.0 393283.0 0
270479.0 395905.0 0
276708.0 395532.0 0
274742.0 395913.0 0
278413.0 393302.0 0
281073.0 392754.0 0
280122.0 396825.0 0
284552.0 392765.0 0
283033.0 395020.0 0
287503.0 393407.0 0
287184.0 396696.0 0
290883.0 395346.0 0
292741.0 394077.0 0
294640.0 396862.0 0
298411.0 393639.0 0
297739.0 396744.0 0
299356.0 398788.0 0
300768.0 395823.0 0
303346.0 396444.0 0
306297.0 396315.0 0
310743.0 395880.0 0
307832.0 399067.0 0
310820.0 398744.0 0
315827.0 396671.0 0
313678.0 397154.0 0
320221.0 396431.0 0
318839.0 399344.0 0
325916.0 397793.0 0
327413.0 395529.0 0
323055.0 398622.0 0
330350.0 396017.0 0
332056.0 397353.0 0
329774.0 399295.0 0
333786.0 399266.0 0
157534.0 404493.0 0
159784.0 403375.0 0
162597.0 402350.0 0
166341.0 402730.0 0
169856.0 400770.0 0
169041.0 403854.0 0
171610.0 404706.0 0
174269.0 402333.0 0
177055.0 401520.0 0
175818.0 404245.0 0
178959.0 402078.0 0
181315.0 400967.0 0
178187.0 404458.0 0
181706.0 404013.0 0
184550.0 402764.0 0
187315.0 403540.0 0
189695.0 401850.0 0
192664.0 400291.0 0
191183.0 404569.0 0
195598.0 401418.0 0
193618.0 404535.0 0
198652.0 400691.0 0
201295.0 401691.0 0
205439.0 399687.0 0
203381.0 402725.0 0
205757.0 402261.0 0
208181.0 400857.0 0
209200.0 398742.0 0
210034.0 403178.0 0
211630.0 400161.0 0
213106.0 404169.0 0
214265.0 401106.0 0
216336.0 404554.0 0
215316.0 398009.0 0
216614.0 401596.0 0
217682.0 398322.0 0
220041.0 400760.0 0
223659.0 401209.0 0
226461.0 401246.0 0
227704.0 399065.0 0
230932.0 397352.0 0
228859.0 401582.0 0
232329.0 400140.0 0
234569.0 400694.0 0
237132.0 398891.0 0
240402.0 398076.0 0
243342.0 398166.0 0
243306.0 401254.0 0
240898.0 401158.0 0
245986.0 399526.0 0
249226.0 400591.0 0
249615.0 397622.0 0
252146.0 399740.0 0
255536.0 400459.0 0
258940.0 399069.0 0
261503.0 396892.0 0
263619.0 399894.0 0
260772.0 402148.0 0
266473.0 402277.0 0
267708.0 398322.0 0
269690.0 401583.0 0
271801.0 398898.0 0
275160.0 398872.0 0
276056.0 402960.0 0
282560.0 398873.0 0
278111.0 398503.0 0
279113.0 402498.0 0
281347.0 401248.0 0
284919.0 397892.0 0
284168.0 402433.0 0
286388.0 400882.0 0
290097.0 398573.0 0
289578.0 402356.0 0
293764.0 399772.0 0
294511.0 403316.0 0
297015.0 400434.0 0
302406.0 400035.0 0
298117.0 402459.0 0
301302.0 403358.0 0
305861.0 400695.0 0
306925.0 403960.0 0
309783.0 403717.0 0
315508.0 400428.0 0
312423.0 401794.0 0
320904.0 401883.0 0
317358.0 403314.0 0
320245.0 405186.0 0
324050.0 402568.0 0
326595.0 401109.0 0
325059.0 405309.0 0
331456.0 401857.0 0
328935.0 403445.0 0
336213.0 400924.0 0
333335.0 403998.0 0
337687.0 403091.0 0
340373.0 402293.0 0
341930.0 404475.0 0
344119.0 405713.0 0
151593.0 407141.0 0
146074.0 410784.0 0
148298.0 409936.0 0
153609.0 406434.0 0
155487.0 405663.0 0
150390.0 409256.0 0
153601.0 409894.0 0
160066.0 407817.0 0
157436.0 408951.0 0
163232.0 406162.0 0
166823.0 405677.0 0
163842.0 409126.0 0
166439.0 409978.0 0
168574.0 408524.0 0
171379.0 409003.0 0
173927.0 406803.0 0
176618.0 408158.0 0
180357.0 407163.0 0
183929.0 407045.0 0
187078.0 406929.0 0
184009.0 409927.0 0
187707.0 409973.0 0
190360.0 407023.0 0
191363.0 409775.0 0
195146.0 406697.0 0
194671.0 409349.0 0
197687.0 404875.0 0
197957.0 407759.0 0
200081.0 405195.0 0
199449.0 408932.0 0
203021.0 406123.0 0
206868.0 405434.0 0
209585.0 407436.0 0
212646.0 408016.0 0
216092.0 408209.0 0
219205.0 404143.0 0
218654.0 407503.0 0
221632.0 405314.0 0
224557.0 404656.0 0
227734.0 404441.0 0
230495.0 404737.0 0
231574.0 402657.0 0
231531.0 406987.0 0
234208.0 404169.0 0
234448.0 407222.0 0
237790.0 403218.0 0
237514.0 407633.0 0
240910.0 404982.0 0
244001.0 404300.0 0
247146.0 403708.0 0
249649.0 406056.0 0
251672.0 402966.0 0
253975.0 403782.0 0
252743.0 406580.0 0
255438.0 405938.0 0
257562.0 403897.0 0
263456.0 404953.0 0
260159.0 407128.0 0
268191.0 406057.0 0
271500.0 406122.0 0
272535.0 402962.0 0
275451.0 406698.0 0
278277.0 407489.0 0
280641.0 405815.0 0
284165.0 405717.0 0
287124.0 404359.0 0
292366.0 404557.0 0
289162.0 406189.0 0
292133.0 408046.0 0
296669.0 404816.0 0
295520.0 407526.0 0
299828.0 406158.0 0
298943.0 408984.0 0
304559.0 405397.0 0
302773.0 407776.0 0
306368.0 407994.0 0
308698.0 407768.0 0
310928.0 406677.0 0
313071.0 407048.0 0
315022.0 404664.0 0
315602.0 409581.0 0
317705.0 406826.0 0
320203.0 409298.0 0
322766.0 406703.0 0
323444.0 409643.0 0
326816.0 409633.0 0
328103.0 406296.0 0
333248.0 406163.0 0
330518.0 407755.0 0
331865.0 410081.0 0
337975.0 406386.0 0
335304.0 408782.0 0
340199.0 408498.0 0
343030.0 408834.0 0
346645.0 407113.0 0
347255.0 409387.0 0
349457.0 407611.0 0
350900.0 409113.0 0
139844.0 414777.0 0
144439.0 412624.0 0
142781.0 414481.0 0
148022.0 412898.0 0
150324.0 412573.0 0
147182.0 414463.0 0
151769.0 414833.0 0
154050.0 412965.0 0
160772.0 411124.0 0
157514.0 412992.0 0
159792.0 414936.0 0
163333.0 412125.0 0
162283.0 414663.0 0
166122.0 413662.0 0
168551.0 412400.0 0
170670.0 413872.0 0
172967.0 412012.0 0
176336.0 411779.0 0
176646.0 415243.0 0
179927.0 410711.0 0
181604.0 413187.0 0
184973.0 412721.0 0
188305.0 413333.0 0
191494.0 413071.0 0
194634.0 414270.0 0
196964.0 411688.0 0
199770.0 412446.0 0
205991.0 409071.0 0
202503.0 409841.0 0
204221.0 413270.0 0
207869.0 410797.0 0
210598.0 411529.0 0
213613.0 412031.0 0
216883.0 411857.0 0
219629.0 411425.0 0
221129.0 408563.0 0
222177.0 412478.0 0
224791.0 409271.0 0
228581.0 408195.0 0
230383.0 411987.0 0
226710.0 413246.0 0
233310.0 410459.0 0
236141.0 410657.0 0
240921.0 409413.0 0
244361.0 407864.0 0
243732.0 412186.0 0
247162.0 409673.0 0
250534.0 410422.0 0
253408.0 409632.0 0
256684.0 408944.0 0
260710.0 411361.0 0
263493.0 409235.0 0
265761.0 407973.0 0
267317.0 411735.0 0
269308.0 409850.0 0
272105.0 409600.0 0
271939.0 412193.0 0
274830.0 409697.0 0
276319.0 412039.0 0
281613.0 410174.0 0
278925.0 410334.0 0
282653.0 408614.0 0
286995.0 408903.0 0
284544.0 411118.0 0
288724.0 411947.0 0
292485.0 411729.0 0
295562.0 414276.0 0
296391.0 411118.0 0
298688.0 412735.0 0
301197.0 411400.0 0
304496.0 410484.0 0
303556.0 413505.0 0
307320.0 412367.0 0
309982.0 410771.0 0
312871.0 411152.0 0
310780.0 413875.0 0
316477.0 414192.0 0
313816.0 414174.0 0
318220.0 411852.0 0
320585.0 413561.0 0
323242.0 412721.0 0
325613.0 414919.0 0
328108.0 412337.0 0
331085.0 412797.0 0
336274.0 412021.0 0
334331.0 415202.0 0
339908.0 412066.0 0
342953.0 412341.0 0
340143.0 415083.0 0
345104.0 411154.0 0
344121.0 414519.0 0
347492.0 413704.0 0
349453.0 411488.0 0
352698.0 411159.0 0
351051.0 414656.0 0
352633.0 413956.0 0
355169.0 412166.0 0
357487.0 414522.0 0
360476.0 415773.0 0
133085.0 419218.0 0
135672.0 418506.0 0
131040.0 420771.0 0
137881.0 417158.0 0
140804.0 417948.0 0
144529.0 416713.0 0
142582.0 420140.0 0
145604.0 419821.0 0
147296.0 416867.0 0
149929.0 416645.0 0
150367.0 419404.0 0
153827.0 416974.0 0
156317.0 416573.0 0
152965.0 419325.0 0
157712.0 419277.0 0
160504.0 417890.0 0
161465.0 420160.0 0
163158.0 417311.0 0
166544.0 416739.0 0
163959.0 419948.0 0
169974.0 416469.0 0
167134.0 419974.0 0
170139.0 419782.0 0
173551.0 416635.0 0
173292.0 419926.0 0
176726.0 418254.0 0
176599.0 420205.0 0
179790.0 416116.0 0
179258.0 419151.0 0
182486.0 419612.0 0
185039.0 416394.0 0
182849.0 417366.0 0
185223.0 419706.0 0
187973.0 417439.0 0
190901.0 416736.0 0
193424.0 418031.0 0
196368.0 416553.0 0
198113.0 415028.0 0
201225.0 415021.0 0
197767.0 418059.0 0
201308.0 418854.0 0
205590.0 417934.0 0
207136.0 414267.0 0
210045.0 414804.0 0
208937.0 417945.0 0
212551.0 419299.0 0
213524.0 415665.0 0
217236.0 415930.0 0
220234.0 414962.0 0
223833.0 414249.0 0
222764.0 417395.0 0
227311.0 417696.0 0
231564.0 415949.0 0
235223.0 414602.0 0
238768.0 412994.0 0
239926.0 417133.0 0
242103.0 414422.0 0
243890.0 415898.0 0
246784.0 414417.0 0
250243.0 414182.0 0
250773.0 418191.0 0
253812.0 414031.0 0
254168.0 418226.0 0
257492.0 413496.0 0
257343.0 417847.0 0
260530.0 415784.0 0
263970.0 413531.0 0
263268.0 417555.0 0
266665.0 416363.0 0
270050.0 414766.0 0
273795.0 412988.0 0
273622.0 416544.0 0
277184.0 415481.0 0
280463.0 417455.0 0
280631.0 413479.0 0
283190.0 418622.0 0
284067.0 414603.0 0
285419.0 418990.0 0
287812.0 416064.0 0
291673.0 415163.0 0
294256.0 417570.0 0
298659.0 415430.0 0
301215.0 415560.0 0
297882.0 418892.0 0
301091.0 419161.0 0
303746.0 418570.0 0
304027.0 415996.0 0
307334.0 415811.0 0
310259.0 415490.0 0
308042.0 418890.0 0
311182.0 418916.0 0
312777.0 416787.0 0
317590.0 416763.0 0
315723.0 418449.0 0
320417.0 416331.0 0
319873.0 419195.0 0
323472.0 417442.0 0
323182.0 420137.0 0
327846.0 419674.0 0
328189.0 417146.0 0
330391.0 416040.0 0
331048.0 419224.0 0
337600.0 417116.0 0
333093.0 418481.0 0
336485.0 419665.0 0
342677.0 416946.0 0
340387.0 419420.0 0
345467.0 418519.0 0
348229.0 416857.0 0
352885.0 416662.0 0
350793.0 419134.0 0
355254.0 416057.0 0
358227.0 418367.0 0
353700.0 420693.0 0
355611.0 418976.0 0
358345.0 420819.0 0
362795.0 418178.0 0
361244.0 420676.0 0
365868.0 419109.0 0
368269.0 420358.0 0
123902.0 424558.0 0
128711.0 422109.0 0
126895.0 424081.0 0
130521.0 425434.0 0
132120.0 423771.0 0
134432.0 422404.0 0
134273.0 426419.0 0
137267.0 421993.0 0
139848.0 421932.0 0
136586.0 425272.0 0
139498.0 424940.0 0
142943.0 423450.0 0
143236.0 425816.0 0
148074.0 421997.0 0
151369.0 423175.0 0
147043.0 424817.0 0
150490.0 425845.0 0
154677.0 421950.0 0
154172.0 425326.0 0
159576.0 421855.0 0
157525.0 423497.0 0
161324.0 423144.0 0
162961.0 421261.0 0
164195.0 423655.0 0
166784.0 422903.0 0
170099.0 422631.0 0
173313.0 423718.0 0
177559.0 424005.0 0
180745.0 422502.0 0
184726.0 422130.0 0
182469.0 425236.0 0
185675.0 424399.0 0
188700.0 420880.0 0
191562.0 420831.0 0
188699.0 424409.0 0
191243.0 424597.0 0
195702.0 420258.0 0
193697.0 422874.0 0
198403.0 422337.0 0
200659.0 423948.0 0
202994.0 422152.0 0
206351.0 422008.0 0
209441.0 421580.0 0
213960.0 422644.0 0
215919.0 419529.0 0
216778.0 423939.0 0
219331.0 420229.0 0
223900.0 421827.0 0
227074.0 422794.0 0
229736.0 421345.0 0
233226.0 419927.0 0
236703.0 418048.0 0
237630.0 421668.0 0
240501.0 421173.0 0
243554.0 419232.0 0
241714.0 423573.0 0
244380.0 422899.0 0
247201.0 418652.0 0
247667.0 422477.0 0
251009.0 421854.0 0
253620.0 420987.0 0
256958.0 421874.0 0
260390.0 419148.0 0
262284.0 422687.0 0
265596.0 419830.0 0
266822.0 423188.0 0
269876.0 423211.0 0
269593.0 419317.0 0
274264.0 421083.0 0
277354.0 419218.0 0
277808.0 422852.0 0
279871.0 420882.0 0
282929.0 421744.0 0
285841.0 421561.0 0
286789.0 423964.0 0
291216.0 419144.0 0
288383.0 420523.0 0
289980.0 423684.0 0
292211.0 421968.0 0
294612.0 420968.0 0
294600.0 423797.0 0
297820.0 422369.0 0
302033.0 422965.0 0
305326.0 420933.0 0
312216.0 421981.0 0
307473.0 423527.0 0
309387.0 421761.0 0
312256.0 425077.0 0
314831.0 421013.0 0
317210.0 422860.0 0
315349.0 424313.0 0
318663.0 420714.0 0
321654.0 422353.0 0
325883.0 421299.0 0
323812.0 423764.0 0
324894.0 422956.0 0
325801.0 424313.0 0
329901.0 421663.0 0
331911.0 422673.0 0
328050.0 423809.0 0
334463.0 421155.0 0
336003.0 423855.0 0
338070.0 421141.0 0
341860.0 422168.0 0
338828.0 424032.0 0
342836.0 424879.0 0
344988.0 421220.0 0
347069.0 423196.0 0
349249.0 421864.0 0
350472.0 424849.0 0
351313.0 423311.0 0
356783.0 422800.0 0
353613.0 423992.0 0
356802.0 425336.0 0
359796.0 424624.0 0
362338.0 423915.0 0
364972.0 422484.0 0
367140.0 423871.0 0
370378.0 422747.0 0
372786.0 424481.0 0
375937.0 425126.0 0
119238.0 427947.0 0
116566.0 430187.0 0
119616.0 430852.0 0
121957.0 426815.0 0
124079.0 428724.0 0
124233.0 431440.0 0
127302.0 427009.0 0
129540.0 429119.0 0
133015.0 429036.0 0
137388.0 428408.0 0
139908.0 427080.0 0
137386.0 430628.0 0
140832.0 429390.0 0
144367.0 428479.0 0
144614.0 430982.0 0
147461.0 427369.0 0
148959.0 429047.0 0
156449.0 426663.0 0
152436.0 428269.0 0
156291.0 429286.0 0
158239.0 425430.0 0
160697.0 426445.0 0
159844.0 429636.0 0
163638.0 426383.0 0
165635.0 427985.0 0
167970.0 425692.0 0
170613.0 426491.0 0
167557.0 429629.0 0
170643.0 429045.0 0
173984.0 427804.0 0
173560.0 430306.0 0
176839.0 427448.0 0
180104.0 427103.0 0
178097.0 429871.0 0
185234.0 427059.0 0
182537.0 428218.0 0
188432.0 428907.0 0
196116.0 425893.0 0
192292.0 427677.0 0
196259.0 429771.0 0
199664.0 427045.0 0
199990.0 430062.0 0
203499.0 425906.0 0
203678.0 429634.0 0
207279.0 425980.0 0
207398.0 429755.0 0
211038.0 425262.0 0
214433.0 426669.0 0
220191.0 424834.0 0
217712.0 428013.0 0
220975.0 428610.0 0
223669.0 426205.0 0
227366.0 425632.0 0
230786.0 424890.0 0
228684.0 428627.0 0
234760.0 424184.0 0
232840.0 428512.0 0
237390.0 428032.0 0
239020.0 424638.0 0
241821.0 426693.0 0
245798.0 426439.0 0
253773.0 424686.0 0
249960.0 425772.0 0
255340.0 427327.0 0
258588.0 425785.0 0
262418.0 426949.0 0
265744.0 425716.0 0
268502.0 426132.0 0
267783.0 428298.0 0
270538.0 428854.0 0
272314.0 425853.0 0
275969.0 425548.0 0
279745.0 424377.0 0
278682.0 426481.0 0
281663.0 427492.0 0
282341.0 424723.0 0
285018.0 425060.0 0
285258.0 428380.0 0
288457.0 427025.0 0
292709.0 426610.0 0
295954.0 427323.0 0
297818.0 425357.0 0
301017.0 426896.0 0
305069.0 425199.0 0
304399.0 428071.0 0
308101.0 429208.0 0
309082.0 426029.0 0
317043.0 427254.0 0
313959.0 427896.0 0
318271.0 430389.0 0
320188.0 425353.0 0
321085.0 429290.0 0
324447.0 427161.0 0
329119.0 426480.0 0
332705.0 425981.0 0
329039.0 429515.0 0
331389.0 430811.0 0
336972.0 427033.0 0
334566.0 429148.0 0
338460.0 429992.0 0
340166.0 427255.0 0
342873.0 429098.0 0
345898.0 426343.0 0
348079.0 429955.0 0
349296.0 425982.0 0
351399.0 429164.0 0
353495.0 427238.0 0
356396.0 427620.0 0
357772.0 429514.0 0
358781.0 426685.0 0
361361.0 427873.0 0
363521.0 429281.0 0
360135.0 429541.0 0
364039.0 426647.0 0
367016.0 427060.0 0
366936.0 430269.0 0
369898.0 427384.0 0
373342.0 428313.0 0
371750.0 430359.0 0
378189.0 427400.0 0
375901.0 429526.0 0
380788.0 429306.0 0
383277.0 430684.0 0
105892.0 436216.0 0
108819.0 435326.0 0
111762.0 433901.0 0
114177.0 432160.0 0
116960.0 433748.0 0
117552.0 436090.0 0
120874.0 433294.0 0
122217.0 435453.0 0
128603.0 432083.0 0
126292.0 433606.0 0
130799.0 433625.0 0
125541.0 436509.0 0
133814.0 431909.0 0
130956.0 436024.0 0
134823.0 434457.0 0
137992.0 433173.0 0
140852.0 431666.0 0
141692.0 434462.0 0
145133.0 433918.0 0
148175.0 431184.0 0
148850.0 433685.0 0
150140.0 436084.0 0
152077.0 431603.0 0
155703.0 431938.0 0
153919.0 434729.0 0
158642.0 432784.0 0
157535.0 435329.0 0
163131.0 430940.0 0
161442.0 434219.0 0
165678.0 432723.0 0
169624.0 431056.0 0
168085.0 433402.0 0
169941.0 435569.0 0
171744.0 432376.0 0
173605.0 433764.0 0
176251.0 432188.0 0
181088.0 430974.0 0
184731.0 430857.0 0
180870.0 434489.0 0
185019.0 433741.0 0
189188.0 432370.0 0
193178.0 430877.0 0
194009.0 433538.0 0
197294.0 432637.0 0
200392.0 433352.0 0
203403.0 432983.0 0
207595.0 433759.0 0
210921.0 429127.0 0
210988.0 432098.0 0
214269.0 429775.0 0
214393.0 433820.0 0
218629.0 432287.0 0
222805.0 430876.0 0
225552.0 429256.0 0
226492.0 433043.0 0
230351.0 432020.0 0
234836.0 431763.0 0
237941.0 432308.0 0
241125.0 430743.0 0
244635.0 429942.0 0
243581.0 433484.0 0
247180.0 432553.0 0
248259.0 429153.0 0
252437.0 430196.0 0
257565.0 429628.0 0
255960.0 433069.0 0
261299.0 429999.0 0
259628.0 433787.0 0
264434.0 433368.0 0
265147.0 429126.0 0
267965.0 431353.0 0
271543.0 433105.0 0
275016.0 429719.0 0
275604.0 434023.0 0
278118.0 433377.0 0
279179.0 430086.0 0
283268.0 430901.0 0
281728.0 433443.0 0
285880.0 434501.0 0
287343.0 431328.0 0
291211.0 430739.0 0
295380.0 430500.0 0
294714.0 432992.0 0
297921.0 434580.0 0
299261.0 430433.0 0
301850.0 434103.0 0
303326.0 431116.0 0
306245.0 432403.0 0
309422.0 434143.0 0
311815.0 431026.0 0
315536.0 431831.0 0
321290.0 431609.0 0
319179.0 433941.0 0
323058.0 433678.0 0
325232.0 430910.0 0
327809.0 433449.0 0
331902.0 433904.0 0
335518.0 432713.0 0
335855.0 435581.0 0
341100.0 431113.0 0
339455.0 434069.0 0
345229.0 431690.0 0
343922.0 434777.0 0
348107.0 436158.0 0
352721.0 432793.0 0
349455.0 433613.0 0
353134.0 435955.0 0
355695.0 431568.0 0
358102.0 433964.0 0
361061.0 432896.0 0
364412.0 432141.0 0
366375.0 435016.0 0
369539.0 431434.0 0
373635.0 432890.0 0
369514.0 434280.0 0
372227.0 435277.0 0
374656.0 436637.0 0
375908.0 432241.0 0
376908.0 436180.0 0
378362.0 434037.0 0
379037.0 431820.0 0
382839.0 433857.0 0
380922.0 435043.0 0
386125.0 431674.0 0
388236.0 433465.0 0
384799.0 435003.0 0
387733.0 436197.0 0
391069.0 434506.0 0
395276.0 436805.0 0
97840.7 440469.0 0
103792.0 438637.0 0
101115.0 440315.0 0
109066.0 438609.0 0
106462.0 440133.0 0
114063.0 437118.0 0
111942.0 439960.0 0
116047.0 439204.0 0
119064.0 438292.0 0
122009.0 438206.0 0
122607.0 440497.0 0
125695.0 439217.0 0
128424.0 436564.0 0
126996.0 441272.0 0
128714.0 439390.0 0
135315.0 437104.0 0
131964.0 439171.0 0
136316.0 439740.0 0
139374.0 436643.0 0
138882.0 439713.0 0
142557.0 438064.0 0
145003.0 436503.0 0
142963.0 440567.0 0
145256.0 439283.0 0
147184.0 437406.0 0
147306.0 440134.0 0
150899.0 439917.0 0
154460.0 438420.0 0
160520.0 436551.0 0
158146.0 438406.0 0
164259.0 436043.0 0
162170.0 438751.0 0
164702.0 440601.0 0
166956.0 437549.0 0
168721.0 439798.0 0
173046.0 437050.0 0
175649.0 439533.0 0
176822.0 435631.0 0
177933.0 438869.0 0
181779.0 438955.0 0
190290.0 435760.0 0
186167.0 437508.0 0
190655.0 439774.0 0
197022.0 435747.0 0
194009.0 437085.0 0
196611.0 438754.0 0
200044.0 436406.0 0
204006.0 437218.0 0
207984.0 437778.0 0
210699.0 435359.0 0
208722.0 440595.0 0
211240.0 438377.0 0
215036.0 438172.0 0
218590.0 437110.0 0
222478.0 435090.0 0
224316.0 438303.0 0
228104.0 436532.0 0
232454.0 435341.0 0
231190.0 439168.0 0
236639.0 435627.0 0
238341.0 438261.0 0
240277.0 435142.0 0
243130.0 435808.0 0
246183.0 436990.0 0
250701.0 435097.0 0
254251.0 435246.0 0
253483.0 439116.0 0
257462.0 437829.0 0
262494.0 438453.0 0
266562.0 437100.0 0
268322.0 435127.0 0
267384.0 439584.0 0
270301.0 438402.0 0
273271.0 437101.0 0
276825.0 437961.0 0
279603.0 435671.0 0
282555.0 436647.0 0
285093.0 438714.0 0
288130.0 437958.0 0
290575.0 435245.0 0
294185.0 435819.0 0
295072.0 439017.0 0
298651.0 438450.0 0
302873.0 438095.0 0
305622.0 435251.0 0
308449.0 437181.0 0
312767.0 435199.0 0
311600.0 438043.0 0
315688.0 435387.0 0
314047.0 439343.0 0
316717.0 438533.0 0
320055.0 437233.0 0
320631.0 439948.0 0
323755.0 436672.0 0
327371.0 436718.0 0
323760.0 440107.0 0
331646.0 437195.0 0
334933.0 437558.0 0
336806.0 439473.0 0
339209.0 437540.0 0
343637.0 438023.0 0
341368.0 440051.0 0
345998.0 440538.0 0
346745.0 438374.0 0
350976.0 438543.0 0
353671.0 440241.0 0
356322.0 436546.0 0
356600.0 439398.0 0
359821.0 436605.0 0
362876.0 436357.0 0
359311.0 438391.0 0
362640.0 439185.0 0
368134.0 438085.0 0
366389.0 440963.0 0
371255.0 438566.0 0
374366.0 439403.0 0
378739.0 438713.0 0
384652.0 437327.0 0
381700.0 438109.0 0
388825.0 438585.0 0
385994.0 440422.0 0
392855.0 436112.0 0
391599.0 439609.0 0
394369.0 440219.0 0
396207.0 438639.0 0
398071.0 438109.0 0
397594.0 441397.0 0
399754.0 440454.0 0
402105.0 441163.0 0
93833.8 444935.0 0
90905.8 446357.0 0
96150.7 442822.0 0
99390.5 443200.0 0
103705.0 442517.0 0
102795.0 445154.0 0
107018.0 442570.0 0
109716.0 442671.0 0
110380.0 444708.0 0
106098.0 445276.0 0
114208.0 442348.0 0
113380.0 445301.0 0
118088.0 441852.0 0
117465.0 445953.0 0
120956.0 443261.0 0
123855.0 442515.0 0
120907.0 446621.0 0
124368.0 445690.0 0
128203.0 444104.0 0
131186.0 442357.0 0
135117.0 441376.0 0
133579.0 444229.0 0
139870.0 442583.0 0
136849.0 444143.0 0
145715.0 443154.0 0
142538.0 445903.0 0
149393.0 444428.0 0
153358.0 442094.0 0
155323.0 441167.0 0
152820.0 445112.0 0
155447.0 443571.0 0
158396.0 441568.0 0
158353.0 445671.0 0
161523.0 441676.0 0
162553.0 444810.0 0
166750.0 442564.0 0
170118.0 443712.0 0
171635.0 440614.0 0
174803.0 442546.0 0
177990.0 441745.0 0
180403.0 444443.0 0
183964.0 442124.0 0
187532.0 441566.0 0
189700.0 444492.0 0
193698.0 441353.0 0
199316.0 439966.0 0
197309.0 442968.0 0
200017.0 444603.0 0
205930.0 440721.0 0
202181.0 441652.0 0
203924.0 444425.0 0
207864.0 444649.0 0
212145.0 442040.0 0
214426.0 444666.0 0
220241.0 440967.0 0
216149.0 441523.0 0
223960.0 441961.0 0
227656.0 441095.0 0
235112.0 439784.0 0
231814.0 442816.0 0
238544.0 441705.0 0
242017.0 439479.0 0
242819.0 443479.0 0
246102.0 441958.0 0
249554.0 439921.0 0
252477.0 443511.0 0
256327.0 442478.0 0
259870.0 441940.0 0
265327.0 441975.0 0
269749.0 442744.0 0
273847.0 441665.0 0
277610.0 441710.0 0
280868.0 439645.0 0
280651.0 443702.0 0
283957.0 442002.0 0
285917.0 444283.0 0
287701.0 441496.0 0
291361.0 440117.0 0
293544.0 444082.0 0
295833.0 441931.0 0
298940.0 442857.0 0
301967.0 441949.0 0
306748.0 440543.0 0
304648.0 444322.0 0
310742.0 440940.0 0
309263.0 443373.0 0
313688.0 442645.0 0
311413.0 444776.0 0
317758.0 442026.0 0
322139.0 443805.0 0
327263.0 440812.0 0
326630.0 444775.0 0
331154.0 440872.0 0
331656.0 444805.0 0
334503.0 441040.0 0
338515.0 442346.0 0
335476.0 444216.0 0
340758.0 445218.0 0
343901.0 442958.0 0
347906.0 445427.0 0
349181.0 441574.0 0
352300.0 442986.0 0
351286.0 445629.0 0
357471.0 442405.0 0
354770.0 443974.0 0
359050.0 445395.0 0
360827.0 441759.0 0
362363.0 444622.0 0
364927.0 444095.0 0
369647.0 443533.0 0
371780.0 441516.0 0
374010.0 443095.0 0
374002.0 445031.0 0
377105.0 441445.0 0
376870.0 444675.0 0
380336.0 442774.0 0
382919.0 441442.0 0
380318.0 445429.0 0
383793.0 444160.0 0
387582.0 442840.0 0
386146.0 445143.0 0
390793.0 443097.0 0
390444.0 446181.0 0
393628.0 443874.0 0
395600.0 442452.0 0
399809.0 443780.0 0
397853.0 445372.0 0
404201.0 442890.0 0
402131.0 444341.0 0
402377.0 446804.0 0
406583.0 444452.0 0
405304.0 446932.0 0
409445.0 445884.0 0
82416.1 451928.0 0
84855.3 449310.0 0
87922.4 448115.0 0
88691.8 451258.0 0
91983.5 449494.0 0
94646.7 449882.0 0
95559.5 447174.0 0
99350.3 446895.0 0
99017.7 451364.0 0
103496.0 447749.0 0
103002.0 449767.0 0
108218.0 447951.0 0
105432.0 450250.0 0
110014.0 451138.0 0
112192.0 447506.0 0
113801.0 450729.0 0
116076.0 448735.0 0
118384.0 450872.0 0
120777.0 449638.0 0
125170.0 448597.0 0
122907.0 451521.0 0
129428.0 447043.0 0
128061.0 450043.0 0
132621.0 447191.0 0
132527.0 450041.0 0
135848.0 447740.0 0
135582.0 450804.0 0
138769.0 447616.0 0
145617.0 447905.0 0
142162.0 449823.0 0
144685.0 450785.0 0
148693.0 448230.0 0
154399.0 447731.0 0
151495.0 449523.0 0
155836.0 450636.0 0
159286.0 449319.0 0
163118.0 449160.0 0
166587.0 446259.0 0
166523.0 450582.0 0
169648.0 447547.0 0
172652.0 445945.0 0
173691.0 449349.0 0
176728.0 445373.0 0
176658.0 448110.0 0
179308.0 449949.0 0
185016.0 445579.0 0
181877.0 447381.0 0
183342.0 449701.0 0
187084.0 448395.0 0
190135.0 447649.0 0
193211.0 445034.0 0
192941.0 447900.0 0
195281.0 450022.0 0
196207.0 446175.0 0
198783.0 448075.0 0
202039.0 446882.0 0
201664.0 450212.0 0
204877.0 448064.0 0
208683.0 450414.0 0
211543.0 446221.0 0
214105.0 449218.0 0
217208.0 445287.0 0
218282.0 449332.0 0
220707.0 445579.0 0
224343.0 445235.0 0
222368.0 449941.0 0
226063.0 448655.0 0
228410.0 445440.0 0
231552.0 447246.0 0
233918.0 448844.0 0
235487.0 444904.0 0
240048.0 445525.0 0
242107.0 449897.0 0
245032.0 446674.0 0
249009.0 445383.0 0
251502.0 448720.0 0
254728.0 446774.0 0
258714.0 445880.0 0
262511.0 445059.0 0
266868.0 445348.0 0
265547.0 448502.0 0
268983.0 446788.0 0
272447.0 446459.0 0
276984.0 445634.0 0
275391.0 449084.0 0
283554.0 445433.0 0
281124.0 448348.0 0
285931.0 447922.0 0
289661.0 445649.0 0
291769.0 449358.0 0
297216.0 445782.0 0
294882.0 447770.0 0
298310.0 449965.0 0
301453.0 445861.0 0
299588.0 447080.0 0
302113.0 449335.0 0
307888.0 445909.0 0
304568.0 447934.0 0
307581.0 449829.0 0
310372.0 447355.0 0
312828.0 447057.0 0
315432.0 445870.0 0
315673.0 449199.0 0
318838.0 449584.0 0
318686.0 446075.0 0
322439.0 450860.0 0
322212.0 447695.0 0
324992.0 447855.0 0
329412.0 448266.0 0
332904.0 449961.0 0
334355.0 447295.0 0
337279.0 447064.0 0
336249.0 449737.0 0
338714.0 451045.0 0
340767.0 448851.0 0
344437.0 447099.0 0
344894.0 450674.0 0
349092.0 450424.0 0
352296.0 448495.0 0
353901.0 450582.0 0
354723.0 447044.0 0
357379.0 447134.0 0
355938.0 449959.0 0
358775.0 449333.0 0
361765.0 447639.0 0
365081.0 448005.0 0
367191.0 446284.0 0
369340.0 448627.0 0
371378.0 446165.0 0
372330.0 450487.0 0
374345.0 448279.0 0
377441.0 447623.0 0
375879.0 451066.0 0
379613.0 450140.0 0
382604.0 447210.0 0
384728.0 449623.0 0
387830.0 447880.0 0
389712.0 450781.0 0
392849.0 447967.0 0
395532.0 446638.0 0
400162.0 447398.0 0
399332.0 449500.0 0
396890.0 450301.0 0
404082.0 449837.0 0
401682.0 451381.0 0
407928.0 448009.0 0
407342.0 451465.0 0
411796.0 447788.0 0
410208.0 450087.0 0
414519.0 449471.0 0
412252.0 451583.0 0
416836.0 451644.0 0
71935.2 457553.0 0
74491.7 455821.0 0
79576.5 453335.0 0
77026.5 454808.0 0
83021.1 455085.0 0
85434.0 452300.0 0
85796.8 454306.0 0
89718.6 453977.0 0
84788.1 456496.0 0
87278.6 456091.0 0
93129.6 452472.0 0
91677.5 456425.0 0
95724.6 455311.0 0
102017.0 454402.0 0
105324.0 453142.0 0
108269.0 454595.0 0
111938.0 454299.0 0
115277.0 453797.0 0
112413.0 456767.0 0
118227.0 453660.0 0
121203.0 454152.0 0
125404.0 452557.0 0
123849.0 455754.0 0
130243.0 452989.0 0
126534.0 455023.0 0
133813.0 453769.0 0
138945.0 451596.0 0
136766.0 455202.0 0
142465.0 454232.0 0
145981.0 455526.0 0
147269.0 451935.0 0
149841.0 453252.0 0
152893.0 452422.0 0
159758.0 452738.0 0
156981.0 453518.0 0
160181.0 455256.0 0
162719.0 452736.0 0
165702.0 453967.0 0
169982.0 451001.0 0
168196.0 453855.0 0
171407.0 454611.0 0
175505.0 452696.0 0
177846.0 454980.0 0
180616.0 452860.0 0
183647.0 452983.0 0
186570.0 451612.0 0
186700.0 453911.0 0
190769.0 452074.0 0
194819.0 453613.0 0
198162.0 452078.0 0
204406.0 451201.0 0
201420.0 454360.0 0
205308.0 454176.0 0
211884.0 453886.0 0
215699.0 453122.0 0
219281.0 453260.0 0
222553.0 454559.0 0
225694.0 452266.0 0
228989.0 450179.0 0
228652.0 454170.0 0
232390.0 451951.0 0
237256.0 449947.0 0
239599.0 453738.0 0
243844.0 453897.0 0
247374.0 450934.0 0
251374.0 453188.0 0
254585.0 451242.0 0
257861.0 449771.0 0
257811.0 453289.0 0
262000.0 449991.0 0
260490.0 453300.0 0
265166.0 452454.0 0
269214.0 450731.0 0
271339.0 454658.0 0
273472.0 451644.0 0
276722.0 453738.0 0
277957.0 450443.0 0
280412.0 452775.0 0
284184.0 452013.0 0
288262.0 451008.0 0
291145.0 453707.0 0
295138.0 451983.0 0
300933.0 453623.0 0
304658.0 452420.0 0
308518.0 454741.0 0
312346.0 451212.0 0
312362.0 455496.0 0
316967.0 452592.0 0
315237.0 454619.0 0
320353.0 453043.0 0
326518.0 451797.0 0
330794.0 453216.0 0
337518.0 453246.0 0
334785.0 453621.0 0
341737.0 452910.0 0
339725.0 455882.0 0
344971.0 454887.0 0
348150.0 454259.0 0
352984.0 452879.0 0
351025.0 454797.0 0
356383.0 452411.0 0
355922.0 456083.0 0
359969.0 451985.0 0
363419.0 451318.0 0
359706.0 454906.0 0
363862.0 454297.0 0
367337.0 451243.0 0
366872.0 454809.0 0
371496.0 453975.0 0
375580.0 453498.0 0
378270.0 452752.0 0
382636.0 452424.0 0
380948.0 456191.0 0
386726.0 451930.0 0
385676.0 454183.0 0
388116.0 456603.0 0
388856.0 454119.0 0
393365.0 451990.0 0
391762.0 455628.0 0
395907.0 454459.0 0
399311.0 453678.0 0
398471.0 456801.0 0
404096.0 453832.0 0
402352.0 455996.0 0
408831.0 454538.0 0
406163.0 455860.0 0
411239.0 453390.0 0
413647.0 453597.0 0
414093.0 456439.0 0
419811.0 452309.0 0
417283.0 455335.0 0
419954.0 457143.0 0
421968.0 454198.0 0
424748.0 455852.0 0
66616.3 461214.0 0
69430.6 459789.0 0
72365.4 461609.0 0
75186.5 459111.0 0
78113.9 460164.0 0
80239.8 457129.0 0
83072.0 458868.0 0
87977.2 458085.0 0
85971.4 459444.0 0
87920.7 460754.0 0
90843.1 459313.0 0
94850.6 459218.0 0
94271.8 462032.0 0
98693.6 457252.0 0
97361.1 460128.0 0
100062.0 459306.0 0
103221.0 457681.0 0
103903.0 461123.0 0
106409.0 457600.0 0
110154.0 457684.0 0
107100.0 460402.0 0
114994.0 457218.0 0
110554.0 460285.0 0
113837.0 460271.0 0
117961.0 457833.0 0
117444.0 461367.0 0
120520.0 457074.0 0
123174.0 458831.0 0
120534.0 460874.0 0
127222.0 457858.0 0
130165.0 456617.0 0
128839.0 459690.0 0
130228.0 460691.0 0
131673.0 458465.0 0
132937.0 456183.0 0
134625.0 457554.0 0
133342.0 460492.0 0
139469.0 457638.0 0
136152.0 459741.0 0
140001.0 461111.0 0
143009.0 458452.0 0
143164.0 461262.0 0
149796.0 456980.0 0
145734.0 458883.0 0
154239.0 456296.0 0
151953.0 460755.0 0
155720.0 460035.0 0
158247.0 456549.0 0
159674.0 459506.0 0
162618.0 456482.0 0
164724.0 458607.0 0
167429.0 456537.0 0
166825.0 460210.0 0
169871.0 458726.0 0
174006.0 458147.0 0
177851.0 459088.0 0
181294.0 456231.0 0
185001.0 456434.0 0
182231.0 460766.0 0
188799.0 456231.0 0
186723.0 459694.0 0
189866.0 459176.0 0
192738.0 456976.0 0
194579.0 460177.0 0
197154.0 456113.0 0
198053.0 459669.0 0
200561.0 457835.0 0
204178.0 458470.0 0
208371.0 456118.0 0
211082.0 458247.0 0
213793.0 456742.0 0
217061.0 456595.0 0
220313.0 456901.0 0
225549.0 456134.0 0
227782.0 458631.0 0
231516.0 456723.0 0
234214.0 459795.0 0
235504.0 454709.0 0
237759.0 458155.0 0
240920.0 456469.0 0
243301.0 457766.0 0
240804.0 460051.0 0
247912.0 457089.0 0
252488.0 457301.0 0
255373.0 455061.0 0
259200.0 456950.0 0
263136.0 455242.0 0
268001.0 455475.0 0
265651.0 458454.0 0
273745.0 455222.0 0
271802.0 458451.0 0
275886.0 457760.0 0
279917.0 456363.0 0
283369.0 455672.0 0
282864.0 459744.0 0
287627.0 455262.0 0
285571.0 457804.0 0
291117.0 458147.0 0
297659.0 454312.0 0
294327.0 455807.0 0
296972.0 456738.0 0
299874.0 458143.0 0
304382.0 457015.0 0
307627.0 458258.0 0
311227.0 458955.0 0
318992.0 456470.0 0
315092.0 457965.0 0
323301.0 455422.0 0
323875.0 460143.0 0
327608.0 456379.0 0
328283.0 459940.0 0
331750.0 460780.0 0
331774.0 457004.0 0
336163.0 457711.0 0
342831.0 458927.0 0
349356.0 456884.0 0
347132.0 457430.0 0
347415.0 460509.0 0
352533.0 457382.0 0
350431.0 459622.0 0
354681.0 460283.0 0
358717.0 459624.0 0
362265.0 457217.0 0
366461.0 459114.0 0
370327.0 457810.0 0
374239.0 457053.0 0
372942.0 460297.0 0
377043.0 456847.0 0
376767.0 461070.0 0
380305.0 460554.0 0
383369.0 460852.0 0
384949.0 457766.0 0
387859.0 460819.0 0
390502.0 458487.0 0
394353.0 457280.0 0
393128.0 460540.0 0
396732.0 458390.0 0
396642.0 461864.0 0
401011.0 458316.0 0
405047.0 458175.0 0
403646.0 460146.0 0
399838.0 460399.0 0
401959.0 462309.0 0
407702.0 458970.0 0
405597.0 462282.0 0
408006.0 461335.0 0
410555.0 457331.0 0
415156.0 459831.0 0
411836.0 461173.0 0
418377.0 460312.0 0
423297.0 458762.0 0
422434.0 461666.0 0
427236.0 457186.0 0
426595.0 460109.0 0
429694.0 458720.0 0
431784.0 459841.0 0
433864.0 461750.0 0
58070.2 466792.0 0
61034.2 464893.0 0
61999.5 467508.0 0
63759.2 462918.0 0
65153.7 465728.0 0
67954.9 464447.0 0
67971.6 467587.0 0
70471.8 464396.0 0
72613.1 466721.0 0
74522.6 463662.0 0
77319.3 464214.0 0
81273.6 461879.0 0
84383.7 462195.0 0
80652.5 465438.0 0
84170.4 465733.0 0
87621.6 463728.0 0
88838.3 466612.0 0
91289.7 462539.0 0
91947.5 465383.0 0
97416.4 463178.0 0
94818.1 465142.0 0
98547.0 466039.0 0
100846.0 462299.0 0
104909.0 463394.0 0
101683.0 465380.0 0
107363.0 462900.0 0
105092.0 466162.0 0
107529.0 465468.0 0
109549.0 466972.0 0
110469.0 463656.0 0
114306.0 464276.0 0
118343.0 465333.0 0
121385.0 463369.0 0
124052.0 465307.0 0
125440.0 461529.0 0
128583.0 463280.0 0
132596.0 463809.0 0
136912.0 462747.0 0
135559.0 465748.0 0
138772.0 465706.0 0
141073.0 463549.0 0
145095.0 462711.0 0
143267.0 464874.0 0
148126.0 461551.0 0
146042.0 465774.0 0
149492.0 465071.0 0
152687.0 463642.0 0
154455.0 465475.0 0
156012.0 463261.0 0
158919.0 462941.0 0
162703.0 461202.0 0
161332.0 464993.0 0
169847.0 462206.0 0
165393.0 463110.0 0
167369.0 465798.0 0
170951.0 466103.0 0
173713.0 462341.0 0
177347.0 462736.0 0
180409.0 465681.0 0
185252.0 463696.0 0
188569.0 462279.0 0
191340.0 461357.0 0
193012.0 464002.0 0
196723.0 463609.0 0
201015.0 461809.0 0
204650.0 463669.0 0
207725.0 460516.0 0
208943.0 464583.0 0
214252.0 460530.0 0
210811.0 461510.0 0
212272.0 463950.0 0
218206.0 460418.0 0
215769.0 464941.0 0
219873.0 464067.0 0
222979.0 460141.0 0
226494.0 462917.0 0
229715.0 464492.0 0
230368.0 461159.0 0
233185.0 463879.0 0
237456.0 463157.0 0
241618.0 463639.0 0
244801.0 461233.0 0
248031.0 463217.0 0
251372.0 461400.0 0
254041.0 464612.0 0
255754.0 459971.0 0
257438.0 463972.0 0
259177.0 461419.0 0
262293.0 460099.0 0
268603.0 460055.0 0
265866.0 463676.0 0
270736.0 463200.0 0
278988.0 460091.0 0
275284.0 462406.0 0
280687.0 464232.0 0
287881.0 460423.0 0
285096.0 462940.0 0
288861.0 464695.0 0
291864.0 462417.0 0
298987.0 462327.0 0
295351.0 460041.0 0
295450.0 464248.0 0
303019.0 461257.0 0
301730.0 464718.0 0
304564.0 465332.0 0
307651.0 462406.0 0
311973.0 463011.0 0
314842.0 465405.0 0
318805.0 460994.0 0
314901.0 462019.0 0
317896.0 465422.0 0
321327.0 464563.0 0
325600.0 465429.0 0
329011.0 463354.0 0
334941.0 461667.0 0
332640.0 464951.0 0
339073.0 461451.0 0
336233.0 464526.0 0
342502.0 463436.0 0
345247.0 463104.0 0
348859.0 463512.0 0
352216.0 462470.0 0
354858.0 465194.0 0
357212.0 462695.0 0
362524.0 462039.0 0
360036.0 464571.0 0
362221.0 466842.0 0
367013.0 462967.0 0
364824.0 464854.0 0
369828.0 461732.0 0
372729.0 463413.0 0
369738.0 464618.0 0
375872.0 464930.0 0
379323.0 464816.0 0
381777.0 463454.0 0
384051.0 466549.0 0
385161.0 463087.0 0
387909.0 465134.0 0
391204.0 463447.0 0
399970.0 464617.0 0
395432.0 465616.0 0
404267.0 464918.0 0
407603.0 464551.0 0
410128.0 463663.0 0
408247.0 466822.0 0
414634.0 464071.0 0
411346.0 465795.0 0
414951.0 467125.0 0
419012.0 464155.0 0
425766.0 463717.0 0
422367.0 466715.0 0
429504.0 462476.0 0
427565.0 466558.0 0
430267.0 466312.0 0
431985.0 464205.0 0
434161.0 466906.0 0
436572.0 462826.0 0
436884.0 465794.0 0
439726.0 465048.0 0
442243.0 467355.0 0
52016.9 470541.0 0
48722.2 471498.0 0
54568.7 468267.0 0
56805.0 470009.0 0
54137.6 472463.0 0
57482.0 472880.0 0
60210.9 469460.0 0
63070.7 470520.0 0
60555.6 472299.0 0
64336.6 468324.0 0
66274.9 469559.0 0
64296.4 472231.0 0
67604.8 472219.0 0
70304.8 469037.0 0
72452.0 471100.0 0
75622.0 467786.0 0
78914.4 468229.0 0
79278.8 471197.0 0
82470.1 469288.0 0
86026.7 468252.0 0
87259.3 471309.0 0
90206.2 469333.0 0
92530.7 467614.0 0
93539.9 470694.0 0
95676.8 467823.0 0
98661.2 468571.0 0
96955.0 471436.0 0
101929.0 468617.0 0
100830.0 472077.0 0
105942.0 469254.0 0
109343.0 470231.0 0
113170.0 467960.0 0
112362.0 471876.0 0
116902.0 470165.0 0
121641.0 468410.0 0
124956.0 469764.0 0
127405.0 466958.0 0
128921.0 471641.0 0
131750.0 468109.0 0
135869.0 469008.0 0
139088.0 469256.0 0
141684.0 467496.0 0
144711.0 469172.0 0
148224.0 468949.0 0
152460.0 468058.0 0
155137.0 471260.0 0
157079.0 466778.0 0
160078.0 469445.0 0
164226.0 467063.0 0
163818.0 470481.0 0
167618.0 469572.0 0
171429.0 469491.0 0
175040.0 466783.0 0
177458.0 470052.0 0
184764.0 466960.0 0
181810.0 470059.0 0
189426.0 466307.0 0
186161.0 470177.0 0
194824.0 468357.0 0
199989.0 466109.0 0
203382.0 468090.0 0
206654.0 466987.0 0
208896.0 468440.0 0
211805.0 467414.0 0
214982.0 469832.0 0
218780.0 468059.0 0
222995.0 466231.0 0
227240.0 467146.0 0
231217.0 467409.0 0
235506.0 467467.0 0
240294.0 468109.0 0
244838.0 466063.0 0
247866.0 467340.0 0
250726.0 466126.0 0
252883.0 469177.0 0
257053.0 468362.0 0
261213.0 465220.0 0
260800.0 469795.0 0
264247.0 468798.0 0
269146.0 468423.0 0
273342.0 466290.0 0
277240.0 467551.0 0
281599.0 469689.0 0
285252.0 467210.0 0
289239.0 469456.0 0
292415.0 466618.0 0
298821.0 466448.0 0
295714.0 468005.0 0
303129.0 469340.0 0
307810.0 467873.0 0
311754.0 466579.0 0
316275.0 469751.0 0
321585.0 469291.0 0
326160.0 469738.0 0
329794.0 467801.0 0
333180.0 469062.0 0
335312.0 467051.0 0
339410.0 465869.0 0
337839.0 470487.0 0
343074.0 465886.0 0
342417.0 469330.0 0
346573.0 467002.0 0
345543.0 471431.0 0
350976.0 466388.0 0
349807.0 470119.0 0
353846.0 468940.0 0
357949.0 467094.0 0
357309.0 470477.0 0
360452.0 469010.0 0
364389.0 468787.0 0
367541.0 467216.0 0
367467.0 471775.0 0
372730.0 466875.0 0
370663.0 469481.0 0
374127.0 470789.0 0
376691.0 468559.0 0
380483.0 468434.0 0
384240.0 470776.0 0
387577.0 469041.0 0
391771.0 468111.0 0
397511.0 468718.0 0
395249.0 471209.0 0
399247.0 472098.0 0
400640.0 467480.0 0
404589.0 468441.0 0
400663.0 469914.0 0
403175.0 471962.0 0
409105.0 470611.0 0
412106.0 468496.0 0
414817.0 470274.0 0
417799.0 467630.0 0
418190.0 470798.0 0
422875.0 470909.0 0
430622.0 468846.0 0
427180.0 469666.0 0
433811.0 470370.0 0
438610.0 468680.0 0
437155.0 470365.0 0
445536.0 469036.0 0
441671.0 471124.0 0
446212.0 471725.0 0
448744.0 470108.0 0
450882.0 472692.0 0
43126.0 475408.0 0
46416.9 474090.0 0
47219.1 477403.0 0
50145.5 473752.0 0
53388.8 475483.0 0
50390.3 476880.0 0
57624.3 476334.0 0
62247.7 475468.0 0
66231.8 475773.0 0
70848.4 473894.0 0
69857.1 476878.0 0
73874.9 475132.0 0
75677.5 471495.0 0
77151.2 475210.0 0
80664.2 474356.0 0
83830.5 472232.0 0
83716.6 476415.0 0
86441.9 474867.0 0
90248.4 473122.0 0
93328.7 473924.0 0
89302.5 476101.0 0
92417.1 476770.0 0
96234.9 474629.0 0
104841.0 472747.0 0
99324.4 475428.0 0
103347.0 476718.0 0
108500.0 474468.0 0
112259.0 475365.0 0
114994.0 473916.0 0
116977.0 475161.0 0
120954.0 473654.0 0
124938.0 476388.0 0
125312.0 472873.0 0
129273.0 475882.0 0
132864.0 472716.0 0
133659.0 476393.0 0
136759.0 472732.0 0
141233.0 472066.0 0
142653.0 476141.0 0
146213.0 472722.0 0
146253.0 476249.0 0
148729.0 474697.0 0
150211.0 471779.0 0
152070.0 474665.0 0
158579.0 472756.0 0
156043.0 475288.0 0
159435.0 475257.0 0
161584.0 473233.0 0
165222.0 474110.0 0
169627.0 473129.0 0
173742.0 471667.0 0
175994.0 473608.0 0
179026.0 473292.0 0
183334.0 473974.0 0
187227.0 473376.0 0
190075.0 475373.0 0
190214.0 470947.0 0
192938.0 473047.0 0
199616.0 470862.0 0
195934.0 472976.0 0
198624.0 475557.0 0
202004.0 474416.0 0
203397.0 471808.0 0
206453.0 470635.0 0
205921.0 475148.0 0
210243.0 472319.0 0
214071.0 474429.0 0
218244.0 472658.0 0
221021.0 470548.0 0
224424.0 470787.0 0
221973.0 475074.0 0
226224.0 475016.0 0
228683.0 471179.0 0
232796.0 471306.0 0
236980.0 471941.0 0
241357.0 473403.0 0
249580.0 470137.0 0
245329.0 470903.0 0
248756.0 474642.0 0
251701.0 472660.0 0
254828.0 473054.0 0
258673.0 472746.0 0
262416.0 472803.0 0
266182.0 473072.0 0
270645.0 474025.0 0
273986.0 470788.0 0
278229.0 472517.0 0
282492.0 474128.0 0
285572.0 471719.0 0
289326.0 474248.0 0
293682.0 471382.0 0
298611.0 470816.0 0
297635.0 475384.0 0
303107.0 474997.0 0
307278.0 472035.0 0
311590.0 470960.0 0
310103.0 474112.0 0
312595.0 474243.0 0
315275.0 473898.0 0
320316.0 474270.0 0
325104.0 473036.0 0
329506.0 471882.0 0
329030.0 475588.0 0
333534.0 472408.0 0
332909.0 475914.0 0
337922.0 475435.0 0
341966.0 472961.0 0
345046.0 474421.0 0
348673.0 473827.0 0
353675.0 473683.0 0
358905.0 473406.0 0
362400.0 472043.0 0
365426.0 475468.0 0
369802.0 475952.0 0
371500.0 473164.0 0
374826.0 474781.0 0
377589.0 472377.0 0
379074.0 476296.0 0
381040.0 472705.0 0
384484.0 474104.0 0
382474.0 476147.0 0
388004.0 473097.0 0
390535.0 476714.0 0
391730.0 472948.0 0
393883.0 475915.0 0
396267.0 474333.0 0
399623.0 475309.0 0
403163.0 475516.0 0
406433.0 472934.0 0
410040.0 474493.0 0
406795.0 476095.0 0
413188.0 472795.0 0
413265.0 476618.0 0
416911.0 474631.0 0
420838.0 475514.0 0
426058.0 474443.0 0
423844.0 476992.0 0
429902.0 472878.0 0
429882.0 476690.0 0
434682.0 474394.0 0
438503.0 473343.0 0
440891.0 476110.0 0
437889.0 477488.0 0
443736.0 474047.0 0
447966.0 475312.0 0
454097.0 474524.0 0
453019.0 477235.0 0
457457.0 476377.0 0
32903.5 481903.0 0
36484.5 480776.0 0
40483.8 478666.0 0
44387.2 478229.0 0
47895.5 480879.0 0
44159.3 481390.0 0
51433.8 479647.0 0
54343.3 478793.0 0
58605.1 479443.0 0
55554.4 481536.0 0
62331.0 479530.0 0
58843.7 482699.0 0
66633.2 479823.0 0
70874.2 480427.0 0
73663.6 478205.0 0
76911.9 478712.0 0
74698.6 481942.0 0
79837.9 477642.0 0
82046.7 479892.0 0
78527.6 481442.0 0
86754.3 479199.0 0
90408.4 479155.0 0
89496.8 482571.0 0
92892.5 480378.0 0
95623.2 478058.0 0
96138.2 481992.0 0
99418.0 479255.0 0
102850.0 480589.0 0
106696.0 477697.0 0
105046.0 479645.0 0
107185.0 480220.0 0
110140.0 478766.0 0
112366.0 481792.0 0
114372.0 478198.0 0
119089.0 478826.0 0
123260.0 479805.0 0
127687.0 480232.0 0
131886.0 480280.0 0
137838.0 476632.0 0
135858.0 480347.0 0
140218.0 480205.0 0
144654.0 479709.0 0
148736.0 478006.0 0
153273.0 479197.0 0
158346.0 478359.0 0
161955.0 476623.0 0
161497.0 480391.0 0
164468.0 478270.0 0
167811.0 477380.0 0
172593.0 476464.0 0
170159.0 480712.0 0
176654.0 476987.0 0
178633.0 479784.0 0
180148.0 476211.0 0
182098.0 478811.0 0
186144.0 477259.0 0
189604.0 480567.0 0
194016.0 477325.0 0
198058.0 480323.0 0
201976.0 477974.0 0
205273.0 480154.0 0
210062.0 478273.0 0
214081.0 478098.0 0
217882.0 477496.0 0
221646.0 480179.0 0
224573.0 478301.0 0
230186.0 475125.0 0
228112.0 478813.0 0
233868.0 475370.0 0
231453.0 478173.0 0
234861.0 479563.0 0
237818.0 476386.0 0
241401.0 477706.0 0
244878.0 476326.0 0
248048.0 479945.0 0
252469.0 477259.0 0
256872.0 476667.0 0
263636.0 476694.0 0
260317.0 475830.0 0
260246.0 480039.0 0
267756.0 477661.0 0
272027.0 478872.0 0
274964.0 475529.0 0
275857.0 479520.0 0
279512.0 477391.0 0
283702.0 478867.0 0
285500.0 475512.0 0
287277.0 477969.0 0
293160.0 475650.0 0
290999.0 479205.0 0
295030.0 478615.0 0
298525.0 480349.0 0
300622.0 478267.0 0
302568.0 480318.0 0
307649.0 475932.0 0
306217.0 479568.0 0
311926.0 478482.0 0
316920.0 477164.0 0
325076.0 477375.0 0
320985.0 480217.0 0
330363.0 480626.0 0
335204.0 479386.0 0
339999.0 481091.0 0
342601.0 476821.0 0
347284.0 477198.0 0
345251.0 480215.0 0
350861.0 476787.0 0
350527.0 480527.0 0
354264.0 478810.0 0
357495.0 476636.0 0
358590.0 480320.0 0
361708.0 477167.0 0
363082.0 481777.0 0
366698.0 479345.0 0
372591.0 476962.0 0
371187.0 480598.0 0
375704.0 478843.0 0
379625.0 480230.0 0
383051.0 479281.0 0
386763.0 477319.0 0
387187.0 481633.0 0
390153.0 480112.0 0
393384.0 479430.0 0
397558.0 478510.0 0
402168.0 478885.0 0
406306.0 479571.0 0
404199.0 482458.0 0
410457.0 478218.0 0
406912.0 482266.0 0
409800.0 481906.0 0
414218.0 481081.0 0
416806.0 478457.0 0
419961.0 479306.0 0
423242.0 480215.0 0
426671.0 478243.0 0
428929.0 479411.0 0
426638.0 482153.0 0
433792.0 478452.0 0
431087.0 481794.0 0
436126.0 482538.0 0
438708.0 480358.0 0
441026.0 482547.0 0
442457.0 479107.0 0
445413.0 478286.0 0
447428.0 481493.0 0
450470.0 479085.0 0
455871.0 479258.0 0
453549.0 482640.0 0
460531.0 478047.0 0
458661.0 480061.0 0
460145.0 481405.0 0
463381.0 480716.0 0
467137.0 482673.0 0
26754.5 485689.0 0
23888.8 488043.0 0
30131.9 484126.0 0
31066.2 487940.0 0
33770.4 484666.0 0
36254.8 484476.0 0
35091.3 487516.0 0
37857.1 487290.0 0
40500.0 483761.0 0
41397.4 487830.0 0
44114.1 485216.0 0
46716.5 484040.0 0
45114.1 488264.0 0
51565.2 483350.0 0
48937.7 486885.0 0
55205.7 485375.0 0
63115.1 483913.0 0
58970.6 486952.0 0
67359.8 483345.0 0
66469.2 485870.0 0
63912.3 488297.0 0
70669.9 483997.0 0
77220.6 484445.0 0
73707.0 485334.0 0
81102.0 483995.0 0
79889.2 487260.0 0
84963.0 483053.0 0
83775.8 486652.0 0
87384.7 485896.0 0
93066.6 483483.0 0
91249.8 487048.0 0
95801.3 485966.0 0
100301.0 484145.0 0
104888.0 482575.0 0
108724.0 483280.0 0
104814.0 486027.0 0
108317.0 487128.0 0
112406.0 485970.0 0
116018.0 482817.0 0
117800.0 486699.0 0
120564.0 483566.0 0
124651.0 483917.0 0
129285.0 484081.0 0
133453.0 483989.0 0
137729.0 483825.0 0
142434.0 483394.0 0
147729.0 482319.0 0
145178.0 486190.0 0
148864.0 486275.0 0
152077.0 483998.0 0
157269.0 482487.0 0
161459.0 485350.0 0
165792.0 482074.0 0
169725.0 484845.0 0
174645.0 482237.0 0
179988.0 483593.0 0
184582.0 481884.0 0
183175.0 485814.0 0
186980.0 485439.0 0
190872.0 485185.0 0
193995.0 482628.0 0
197363.0 485727.0 0
201580.0 482813.0 0
205004.0 484749.0 0
207790.0 482705.0 0
211084.0 483723.0 0
214314.0 481322.0 0
217802.0 482153.0 0
225628.0 482540.0 0
231053.0 482356.0 0
235937.0 483521.0 0
239104.0 480498.0 0
240845.0 484416.0 0
243342.0 480454.0 0
245264.0 483611.0 0
251960.0 481628.0 0
254357.0 485033.0 0
255644.0 480646.0 0
258321.0 483697.0 0
264696.0 481173.0 0
262247.0 484884.0 0
266340.0 485318.0 0
269175.0 482528.0 0
274157.0 483991.0 0
279082.0 481861.0 0
283149.0 483624.0 0
287267.0 481798.0 0
291033.0 484220.0 0
294589.0 482108.0 0
297647.0 483708.0 0
300929.0 483665.0 0
305029.0 484329.0 0
309216.0 482694.0 0
313523.0 485034.0 0
316131.0 481380.0 0
319214.0 485001.0 0
322889.0 484782.0 0
325477.0 482400.0 0
328669.0 484912.0 0
331855.0 485624.0 0
335525.0 484200.0 0
340043.0 486368.0 0
343788.0 484533.0 0
347637.0 483266.0 0
351452.0 485263.0 0
355495.0 483058.0 0
359647.0 483875.0 0
363714.0 486737.0 0
367505.0 483661.0 0
371417.0 484753.0 0
375774.0 483551.0 0
380310.0 483721.0 0
383641.0 482667.0 0
383080.0 486328.0 0
386988.0 485449.0 0
391893.0 484191.0 0
395694.0 482659.0 0
399896.0 482544.0 0
397439.0 486381.0 0
402588.0 486195.0 0
407548.0 485692.0 0
412505.0 485000.0 0
415697.0 484982.0 0
418589.0 482909.0 0
418517.0 486442.0 0
422320.0 483633.0 0
425596.0 485753.0 0
421617.0 487240.0 0
429421.0 485255.0 0
433080.0 484904.0 0
439621.0 485243.0 0
436637.0 487064.0 0
444326.0 483023.0 0
446013.0 486449.0 0
442755.0 486337.0 0
449625.0 485105.0 0
454585.0 486908.0 0
457844.0 483139.0 0
461074.0 483943.0 0
458097.0 486364.0 0
461038.0 487368.0 0
464377.0 485877.0 0
470749.0 483553.0 0
469015.0 486595.0 0
476400.0 487546.0 0
473157.0 486343.0 0
16760.4 491110.0 0
14993.6 492997.0 0
20590.7 491175.0 0
27086.0 488754.0 0
25273.7 491533.0 0
28255.6 491040.0 0
31407.5 492018.0 0
35306.9 491174.0 0
38899.9 490251.0 0
42797.2 491283.0 0
47131.2 490621.0 0
50169.7 490858.0 0
52997.5 488493.0 0
56260.7 489788.0 0
53600.3 492700.0 0
60471.7 490366.0 0
57857.3 492677.0 0
62832.2 492815.0 0
66520.0 490934.0 0
69163.6 487753.0 0
72658.8 488494.0 0
70496.0 491973.0 0
75963.7 487816.0 0
74029.4 491397.0 0
77939.0 491005.0 0
82698.5 490163.0 0
86706.6 489133.0 0
90001.9 490694.0 0
98074.6 488547.0 0
94627.1 490255.0 0
101413.0 488289.0 0
99597.1 492266.0 0
104951.0 490625.0 0
109744.0 490091.0 0
114446.0 489832.0 0
122024.0 487337.0 0
119579.0 490678.0 0
123510.0 491045.0 0
126471.0 487581.0 0
128481.0 491399.0 0
131074.0 487567.0 0
133071.0 491406.0 0
135304.0 487673.0 0
136984.0 491114.0 0
139924.0 487757.0 0
143399.0 490094.0 0
147861.0 489913.0 0
151066.0 487620.0 0
152044.0 490896.0 0
155521.0 487163.0 0
159168.0 489788.0 0
163842.0 490823.0 0
166219.0 486563.0 0
169335.0 489325.0 0
172895.0 486711.0 0
174284.0 490364.0 0
177016.0 487070.0 0
180838.0 488083.0 0
184291.0 488939.0 0
189310.0 490139.0 0
193371.0 486903.0 0
194665.0 490153.0 0
198453.0 489772.0 0
201704.0 487215.0 0
207816.0 485776.0 0
205598.0 488876.0 0
210543.0 488527.0 0
214017.0 490499.0 0
215234.0 486165.0 0
217541.0 490017.0 0
220634.0 485554.0 0
225071.0 487144.0 0
228603.0 485594.0 0
228872.0 489480.0 0
232914.0 487291.0 0
237253.0 487207.0 0
240370.0 489261.0 0
244391.0 487380.0 0
249379.0 485534.0 0
247467.0 489805.0 0
253125.0 489805.0 0
258663.0 488916.0 0
264928.0 489622.0 0
270087.0 487669.0 0
275481.0 488175.0 0
278968.0 486385.0 0
283108.0 489004.0 0
287286.0 486520.0 0
291802.0 489264.0 0
295116.0 486246.0 0
298627.0 486544.0 0
301829.0 487852.0 0
309202.0 486992.0 0
305649.0 488968.0 0
309223.0 490707.0 0
312572.0 490170.0 0
317034.0 489294.0 0
322409.0 489021.0 0
325724.0 486816.0 0
326110.0 490394.0 0
329639.0 489045.0 0
333646.0 488635.0 0
337087.0 488181.0 0
336223.0 491183.0 0
340519.0 491343.0 0
343789.0 488834.0 0
347661.0 487045.0 0
347015.0 490290.0 0
351535.0 491063.0 0
355204.0 487507.0 0
359073.0 487078.0 0
361303.0 490265.0 0
368771.0 488091.0 0
374255.0 488238.0 0
378706.0 487005.0 0
377587.0 490409.0 0
381632.0 490072.0 0
390051.0 488164.0 0
386397.0 490283.0 0
394018.0 489013.0 0
401187.0 489403.0 0
398014.0 491235.0 0
406060.0 490302.0 0
411257.0 488930.0 0
409905.0 492661.0 0
415711.0 488696.0 0
419403.0 489510.0 0
417918.0 492771.0 0
424711.0 489222.0 0
422288.0 492293.0 0
428866.0 488908.0 0
427032.0 492616.0 0
432815.0 488463.0 0
440748.0 489308.0 0
436844.0 491004.0 0
440344.0 492602.0 0
444046.0 489200.0 0
443688.0 492330.0 0
447724.0 490145.0 0
451369.0 488476.0 0
451485.0 491890.0 0
453928.0 489997.0 0
457618.0 490644.0 0
461770.0 490499.0 0
464796.0 489616.0 0
467513.0 489629.0 0
471407.0 490053.0 0
468755.0 492486.0 0
474869.0 491017.0 0
479052.0 490031.0 0
482280.0 490975.0 0
484624.0 492997.0 0
6536.33 498289.0 0
9501.62 496876.0 0
12453.8 494936.0 0
13954.5 498656.0 0
17174.1 495103.0 0
20890.9 495660.0 0
24295.1 494969.0 0
28140.1 494104.0 0
32196.5 495544.0 0
36098.6 494733.0 0
34975.3 498012.0 0
39239.9 493387.0 0
42063.4 494942.0 0
39157.5 498144.0 0
45968.6 493818.0 0
44378.6 497667.0 0
49669.3 493769.0 0
51877.4 496226.0 0
48241.0 497500.0 0
55734.5 495584.0 0
53872.0 498606.0 0
59772.0 495670.0 0
67142.7 494389.0 0
63918.9 496605.0 0
67511.6 497916.0 0
72677.1 494245.0 0
70293.8 495831.0 0
72909.5 496706.0 0
75734.3 494829.0 0
80548.9 494018.0 0
78178.0 497155.0 0
86144.0 493962.0 0
91804.9 493644.0 0
89766.2 497025.0 0
95622.8 494234.0 0
102998.0 495481.0 0
107345.0 494350.0 0
111492.0 493634.0 0
113405.0 496667.0 0
116632.0 493884.0 0
120848.0 494958.0 0
125404.0 495283.0 0
130636.0 495630.0 0
135615.0 495726.0 0
140264.0 493246.0 0
142444.0 496428.0 0
144732.0 493711.0 0
148721.0 494180.0 0
153427.0 495692.0 0
155727.0 491654.0 0
158765.0 494095.0 0
167446.0 493906.0 0
171401.0 492904.0 0
178940.0 491657.0 0
175156.0 494949.0 0
184058.0 493161.0 0
188465.0 494968.0 0
192565.0 494215.0 0
197164.0 493396.0 0
201772.0 491867.0 0
205612.0 495442.0 0
207832.0 491719.0 0
211039.0 493406.0 0
215369.0 494012.0 0
219220.0 493866.0 0
221576.0 490389.0 0
223618.0 494831.0 0
225355.0 491093.0 0
228077.0 493803.0 0
232192.0 492554.0 0
236174.0 491004.0 0
239393.0 493845.0 0
243636.0 491857.0 0
250131.0 491992.0 0
247106.0 494775.0 0
251614.0 495233.0 0
256108.0 494992.0 0
261498.0 494246.0 0
265839.0 494631.0 0
269374.0 492691.0 0
273802.0 491399.0 0
278027.0 490448.0 0
277242.0 495223.0 0
280813.0 492743.0 0
284445.0 494043.0 0
287434.0 491019.0 0
287597.0 494098.0 0
291096.0 494329.0 0
297447.0 491090.0 0
302782.0 491866.0 0
300668.0 495862.0 0
304715.0 495635.0 0
306898.0 492896.0 0
310917.0 493927.0 0
315602.0 494602.0 0
320290.0 492937.0 0
324583.0 494072.0 0
328350.0 492795.0 0
332723.0 493184.0 0
337527.0 494896.0 0
341318.0 495636.0 0
345532.0 494028.0 0
357411.0 491335.0 0
355284.0 494456.0 0
358309.0 495209.0 0
360951.0 493597.0 0
362459.0 496171.0 0
365072.0 497213.0 0
365457.0 492476.0 0
369448.0 496742.0 0
371526.0 492350.0 0
375538.0 492578.0 0
375080.0 497032.0 0
379672.0 494507.0 0
383946.0 493812.0 0
390780.0 492354.0 0
387549.0 495001.0 0
394741.0 493770.0 0
391646.0 496389.0 0
399399.0 495147.0 0
402881.0 492944.0 0
403727.0 496437.0 0
407233.0 495146.0 0
414002.0 492806.0 0
411935.0 495802.0 0
416233.0 495951.0 0
420237.0 496082.0 0
424827.0 495920.0 0
429029.0 495682.0 0
432279.0 493064.0 0
432772.0 497588.0 0
437003.0 495389.0 0
441404.0 496098.0 0
445149.0 495446.0 0
446989.0 493533.0 0
449795.0 494483.0 0
448043.0 496902.0 0
454667.0 493197.0 0
453101.0 497127.0 0
460459.0 494199.0 0
457182.0 495552.0 0
462565.0 497272.0 0
464939.0 493594.0 0
466101.0 497435.0 0
469243.0 496117.0 0
472308.0 493997.0 0
472541.0 498766.0 0
474852.0 495566.0 0
476992.0 493832.0 0
477650.0 498565.0 0
480601.0 494700.0 0
484207.0 496745.0 0
487500.0 495225.0 0
490618.0 497872.0 0
3715.46 499988.0 0
1750.88 501731.0 0
10041.4 500545.0 0
6520.73 502704.0 0
12621.0 502582.0 0
16496.2 502850.0 0
18668.4 499157.0 0
22943.3 499335.0 0
25517.5 503173.0 0
27658.0 498473.0 0
31607.8 499458.0 0
29799.0 502743.0 0
34526.2 501699.0 0
42853.2 501011.0 0
46424.8 500830.0 0
50394.1 500737.0 0
47704.1 503903.0 0
54368.6 502183.0 0
57539.9 499016.0 0
61245.3 499086.0 0
57311.8 502329.0 0
60159.8 502478.0 0
64956.3 501314.0 0
70635.5 499845.0 0
74760.0 499195.0 0
75988.4 501988.0 0
78846.3 500525.0 0
82440.6 497812.0 0
82536.3 502260.0 0
86243.6 499663.0 0
90520.7 501241.0 0
93739.8 497638.0 0
98493.9 497554.0 0
95317.9 501106.0 0
102286.0 499462.0 0
99449.6 502090.0 0
106018.0 498751.0 0
108889.0 501845.0 0
109604.0 497664.0 0
112261.0 499882.0 0
117281.0 499256.0 0
122432.0 499695.0 0
127793.0 499982.0 0
132768.0 500036.0 0
139555.0 497536.0 0
136988.0 500538.0 0
142074.0 501060.0 0
145596.0 497294.0 0
149350.0 497755.0 0
147200.0 500601.0 0
152041.0 501361.0 0
157297.0 498991.0 0
162665.0 496611.0 0
164739.0 500417.0 0
166947.0 497673.0 0
168932.0 501521.0 0
170964.0 496961.0 0
174760.0 500339.0 0
179729.0 497129.0 0
181905.0 500296.0 0
185423.0 498231.0 0
190576.0 498822.0 0
195334.0 497245.0 0
200277.0 496377.0 0
198272.0 500339.0 0
209888.0 497039.0 0
207592.0 499960.0 0
212921.0 496834.0 0
211663.0 500933.0 0
216589.0 499032.0 0
220649.0 497426.0 0
223966.0 499450.0 0
226803.0 497246.0 0
230540.0 496960.0 0
232478.0 500230.0 0
235312.0 496488.0 0
239414.0 498287.0 0
242731.0 496634.0 0
245949.0 499048.0 0
249743.0 498731.0 0
253266.0 498534.0 0
259501.0 498790.0 0
263956.0 499272.0 0
268639.0 497431.0 0
272754.0 496171.0 0
271737.0 500585.0 0
275873.0 499623.0 0
281106.0 496124.0 0
279748.0 499171.0 0
283578.0 498215.0 0
287452.0 496998.0 0
291046.0 500019.0 0
295528.0 496625.0 0
299453.0 500764.0 0
304666.0 500379.0 0
308413.0 496716.0 0
309394.0 500537.0 0
312466.0 498020.0 0
316723.0 499770.0 0
320337.0 497021.0 0
320939.0 501502.0 0
324653.0 498728.0 0
329428.0 497087.0 0
328074.0 501252.0 0
334567.0 498073.0 0
339205.0 498667.0 0
343028.0 498604.0 0
346921.0 498498.0 0
351455.0 496747.0 0
354181.0 501360.0 0
356403.0 497901.0 0
360035.0 497604.0 0
362708.0 499585.0 0
366989.0 501425.0 0
371716.0 501165.0 0
374847.0 501320.0 0
379737.0 498358.0 0
377866.0 501013.0 0
383777.0 497514.0 0
381672.0 501272.0 0
385449.0 501407.0 0
388279.0 498786.0 0
392712.0 500567.0 0
396198.0 497773.0 0
397847.0 502465.0 0
401162.0 499353.0 0
406196.0 499812.0 0
409317.0 497913.0 0
411354.0 498556.0 0
410854.0 501615.0 0
414366.0 498742.0 0
415860.0 502249.0 0
418340.0 498929.0 0
420492.0 502888.0 0
422903.0 499199.0 0
428506.0 499841.0 0
433473.0 501747.0 0
440312.0 499703.0 0
436736.0 499364.0 0
442072.0 502967.0 0
444731.0 499244.0 0
446729.0 503162.0 0
449692.0 500192.0 0
454274.0 501620.0 0
458809.0 499663.0 0
464127.0 500566.0 0
468335.0 500245.0 0
471238.0 502976.0 0
475602.0 502439.0 0
481929.0 499850.0 0
479895.0 503545.0 0
486511.0 499824.0 0
493975.0 503233.0 0
489804.0 503123.0 0
494109.0 499742.0 0
497661.0 500067.0 0
2635.89 505254.0 0
10323.6 504713.0 0
6802.05 507676.0 0
14055.2 506155.0 0
10983.9 508477.0 0
20894.5 503557.0 0
18363.8 507326.0 0
23261.3 506998.0 0
27885.1 506663.0 0
32660.8 505573.0 0
36370.1 508268.0 0
38809.1 503765.0 0
41744.3 508008.0 0
44146.8 504364.0 0
46498.1 507590.0 0
51567.8 505955.0 0
56724.1 505696.0 0
61726.3 506130.0 0
65573.2 505151.0 0
67671.3 506339.0 0
69084.3 503637.0 0
70579.9 507947.0 0
73409.5 503923.0 0
78136.0 504764.0 0
75140.6 508064.0 0
82615.4 506551.0 0
86358.0 503868.0 0
92965.4 504110.0 0
89650.8 505675.0 0
92924.6 506903.0 0
96008.9 505135.0 0
100027.0 506614.0 0
104485.0 503380.0 0
108796.0 506093.0 0
113451.0 503790.0 0
116192.0 506491.0 0
119305.0 504247.0 0
124648.0 504587.0 0
134247.0 503353.0 0
130031.0 504505.0 0
137751.0 504659.0 0
141748.0 506229.0 0
146934.0 505254.0 0
156432.0 504076.0 0
160853.0 501924.0 0
160261.0 506731.0 0
164671.0 504663.0 0
172040.0 504176.0 0
179246.0 503309.0 0
183599.0 502310.0 0
187209.0 502781.0 0
194278.0 501810.0 0
190687.0 503417.0 0
198502.0 505147.0 0
203132.0 501328.0 0
207796.0 504769.0 0
211814.0 505237.0 0
214873.0 503880.0 0
218911.0 503911.0 0
220913.0 500866.0 0
223732.0 503921.0 0
228147.0 501382.0 0
232203.0 504572.0 0
236901.0 502203.0 0
242398.0 501850.0 0
245032.0 505351.0 0
247584.0 502518.0 0
252039.0 502143.0 0
256239.0 500531.0 0
260304.0 503297.0 0
267875.0 501514.0 0
264971.0 504005.0 0
269963.0 505346.0 0
274552.0 503997.0 0
278464.0 502785.0 0
282655.0 502518.0 0
286569.0 500996.0 0
288560.0 504881.0 0
293131.0 505086.0 0
295118.0 501345.0 0
296797.0 504176.0 0
300127.0 505308.0 0
303927.0 505636.0 0
308292.0 504730.0 0
313236.0 502968.0 0
317953.0 504973.0 0
321914.0 505526.0 0
324936.0 503373.0 0
329007.0 505320.0 0
332154.0 501709.0 0
337197.0 502628.0 0
341546.0 502081.0 0
345571.0 502109.0 0
349899.0 501577.0 0
348789.0 505210.0 0
352234.0 504724.0 0
358902.0 501631.0 0
355977.0 505762.0 0
363018.0 503555.0 0
366231.0 505581.0 0
370642.0 505725.0 0
375644.0 504558.0 0
379538.0 504293.0 0
383766.0 505694.0 0
389030.0 503618.0 0
387162.0 506790.0 0
394076.0 505493.0 0
403125.0 503933.0 0
407194.0 503674.0 0
406610.0 507017.0 0
409590.0 505737.0 0
413395.0 505396.0 0
418092.0 506554.0 0
425438.0 503744.0 0
422606.0 507333.0 0
430555.0 504541.0 0
427498.0 507898.0 0
435228.0 505571.0 0
437975.0 502841.0 0
439581.0 506723.0 0
444389.0 507419.0 0
450837.0 503883.0 0
448659.0 506447.0 0
451564.0 507501.0 0
454005.0 505245.0 0
458111.0 504774.0 0
462026.0 503548.0 0
463241.0 507434.0 0
466774.0 504130.0 0
467145.0 508362.0 0
473974.0 505783.0 0
470548.0 507008.0 0
477574.0 506624.0 0
482450.0 508652.0 0
484829.0 504102.0 0
488184.0 507771.0 0
492893.0 507049.0 0
497341.0 504424.0 0
2496.65 509450.0 0
2071.04 513089.0 0
9182.61 510737.0 0
6339.96 512721.0 0
14346.1 510217.0 0
11320.8 512736.0 0
21141.4 510180.0 0
17367.3 511320.0 0
25775.6 511360.0 0
31055.2 509829.0 0
34689.7 512369.0 0
39274.5 511895.0 0
44415.0 511432.0 0
49795.2 510531.0 0
54525.1 509696.0 0
53230.4 513654.0 0
58405.5 508989.0 0
61978.9 510850.0 0
57687.3 512491.0 0
65642.1 508491.0 0
73109.4 511494.0 0
78963.7 508932.0 0
82601.9 511148.0 0
86326.9 508379.0 0
86701.7 512658.0 0
90436.0 509660.0 0
95329.8 509734.0 0
100137.0 511243.0 0
104598.0 508419.0 0
108400.0 510764.0 0
113014.0 508976.0 0
117989.0 508751.0 0
121848.0 508722.0 0
127267.0 509986.0 0
133660.0 508293.0 0
138553.0 509379.0 0
143948.0 511031.0 0
148974.0 509733.0 0
152161.0 506709.0 0
152348.0 511266.0 0
156104.0 508931.0 0
159856.0 511327.0 0
164135.0 509207.0 0
168811.0 507079.0 0
174952.0 506691.0 0
171824.0 510320.0 0
179277.0 508794.0 0
183710.0 506572.0 0
188479.0 507522.0 0
193724.0 506868.0 0
191489.0 510861.0 0
196185.0 511771.0 0
199466.0 509267.0 0
203107.0 507167.0 0
207035.0 510001.0 0
210836.0 508312.0 0
216075.0 509456.0 0
220996.0 507293.0 0
221008.0 510853.0 0
224373.0 509165.0 0
227861.0 506567.0 0
231792.0 509347.0 0
240015.0 506422.0 0
235828.0 507463.0 0
243810.0 509934.0 0
249865.0 507361.0 0
255544.0 505270.0 0
258848.0 511828.0 0
258609.0 507743.0 0
262827.0 508292.0 0
266584.0 506921.0 0
268349.0 510917.0 0
273809.0 509017.0 0
277510.0 506746.0 0
280531.0 505748.0 0
280311.0 509615.0 0
284340.0 507327.0 0
288712.0 510232.0 0
293337.0 509434.0 0
297057.0 507789.0 0
301221.0 509274.0 0
306572.0 510739.0 0
311563.0 508062.0 0
314891.0 506500.0 0
315663.0 509887.0 0
320481.0 509709.0 0
325278.0 507606.0 0
330016.0 510715.0 0
333795.0 506625.0 0
338576.0 507448.0 0
343830.0 506736.0 0
348401.0 508274.0 0
352582.0 509257.0 0
358222.0 510616.0 0
359933.0 506222.0 0
363357.0 507736.0 0
363428.0 511746.0 0
367382.0 509232.0 0
374458.0 508472.0 0
371422.0 511604.0 0
375914.0 511749.0 0
379292.0 508551.0 0
383210.0 509557.0 0
386557.0 509602.0 0
390496.0 508250.0 0
394838.0 510310.0 0
399254.0 507640.0 0
398386.0 512407.0 0
403898.0 507818.0 0
402826.0 511556.0 0
410809.0 508755.0 0
407605.0 510985.0 0
414821.0 509467.0 0
411661.0 512400.0 0
419878.0 510980.0 0
424737.0 511527.0 0
429554.0 512263.0 0
432424.0 508760.0 0
437116.0 509852.0 0
441256.0 511388.0 0
445572.0 511600.0 0
448603.0 509883.0 0
452267.0 511190.0 0
455410.0 508490.0 0
457032.0 512543.0 0
459307.0 508659.0 0
462044.0 512025.0 0
465877.0 511018.0 0
470407.0 511858.0 0
477667.0 510115.0 0
474199.0 509405.0 0
483215.0 513711.0 0
479759.0 512574.0 0
487048.0 512175.0 0
492502.0 511657.0 0
497414.0 508779.0 0
3346.78 517359.0 0
9421.08 516688.0 0
14595.5 514353.0 0
20075.3 515412.0 0
25776.6 516041.0 0
30504.4 514911.0 0
36332.7 515725.0 0
41511.5 515570.0 0
47725.7 515585.0 0
52647.2 518055.0 0
56928.7 516802.0 0
61623.6 515061.0 0
67471.0 513340.0 0
64759.5 517873.0 0
77697.3 513075.0 0
73142.4 516157.0 0
82381.7 516103.0 0
87678.0 517113.0 0
91606.8 513772.0 0
96421.8 514076.0 0
94294.8 516406.0 0
100300.0 515894.0 0
104185.0 512979.0 0
104130.0 517186.0 0
107920.0 515590.0 0
112079.0 513813.0 0
116913.0 512656.0 0
114804.0 516422.0 0
118646.0 516816.0 0
121781.0 513224.0 0
125895.0 515491.0 0
131772.0 513082.0 0
135940.0 512531.0 0
139629.0 513360.0 0
134689.0 515823.0 0
138381.0 516927.0 0
148629.0 514132.0 0
152543.0 516827.0 0
155615.0 513251.0 0
155946.0 516278.0 0
159497.0 515975.0 0
163615.0 513580.0 0
167854.0 512063.0 0
167744.0 516239.0 0
171874.0 514854.0 0
175541.0 511794.0 0
179093.0 513016.0 0
176542.0 515808.0 0
183341.0 511948.0 0
180752.0 516321.0 0
187824.0 512166.0 0
191569.0 515494.0 0
195915.0 516563.0 0
198532.0 514939.0 0
202232.0 512940.0 0
207017.0 514443.0 0
211205.0 512867.0 0
219563.0 513568.0 0
223499.0 513392.0 0
225236.0 515965.0 0
227904.0 512147.0 0
233752.0 513814.0 0
238347.0 511322.0 0
241560.0 514170.0 0
247876.0 511562.0 0
246306.0 514955.0 0
254651.0 510170.0 0
251028.0 513306.0 0
255174.0 514660.0 0
263526.0 513933.0 0
272506.0 513188.0 0
277419.0 513698.0 0
283957.0 512412.0 0
288218.0 516102.0 0
292347.0 513335.0 0
297511.0 512885.0 0
302702.0 514951.0 0
311962.0 512829.0 0
316942.0 514567.0 0
322179.0 514773.0 0
325131.0 511803.0 0
327781.0 516296.0 0
332220.0 515035.0 0
335795.0 512053.0 0
339147.0 515655.0 0
341377.0 511765.0 0
347482.0 512372.0 0
353099.0 514670.0 0
357528.0 515057.0 0
360921.0 514519.0 0
364919.0 516371.0 0
367404.0 513061.0 0
369804.0 516007.0 0
374636.0 515821.0 0
379655.0 513454.0 0
378696.0 517426.0 0
384679.0 513136.0 0
382647.0 517143.0 0
390442.0 513167.0 0
387607.0 517462.0 0
395441.0 514602.0 0
396799.0 517613.0 0
400790.0 516207.0 0
405900.0 515454.0 0
409466.0 514580.0 0
415808.0 513415.0 0
412967.0 516307.0 0
418907.0 514583.0 0
417281.0 517308.0 0
422577.0 516491.0 0
427158.0 515049.0 0
430830.0 516378.0 0
434532.0 513415.0 0
439252.0 515538.0 0
444413.0 515147.0 0
448704.0 513856.0 0
452921.0 514897.0 0
449778.0 517322.0 0
456786.0 516323.0 0
460760.0 516173.0 0
466287.0 515515.0 0
471591.0 516849.0 0
475524.0 513892.0 0
476262.0 518811.0 0
480235.0 516524.0 0
485442.0 516495.0 0
489934.0 516404.0 0
494649.0 516611.0 0
497393.0 512905.0 0
498307.0 516438.0 0
3702.88 522957.0 0
9639.03 521393.0 0
14375.2 518674.0 0
19311.6 521107.0 0
23811.1 519129.0 0
24379.0 522951.0 0
28102.1 519406.0 0
29301.1 523273.0 0
32890.0 518888.0 0
34368.4 523504.0 0
38108.6 519829.0 0
43572.5 520403.0 0
49030.1 521073.0 0
52478.7 521004.0 0
55757.0 521974.0 0
60881.8 519948.0 0
65178.7 521770.0 0
68794.1 519030.0 0
77567.5 517851.0 0
73471.9 521196.0 0
77394.0 521450.0 0
80322.3 520283.0 0
84670.7 521642.0 0
91906.8 518452.0 0
89280.1 521072.0 0
92967.1 522354.0 0
96643.0 519066.0 0
101510.0 520666.0 0
106724.0 520546.0 0
111236.0 518554.0 0
115347.0 520152.0 0
122248.0 517504.0 0
119896.0 521038.0 0
125269.0 521019.0 0
130378.0 517961.0 0
135005.0 519917.0 0
143592.0 517114.0 0
139783.0 521337.0 0
148348.0 518739.0 0
156152.0 519511.0 0
163971.0 517738.0 0
160486.0 520712.0 0
165478.0 522110.0 0
169879.0 519496.0 0
173775.0 518367.0 0
177932.0 520255.0 0
182184.0 519674.0 0
185881.0 517034.0 0
190056.0 520132.0 0
194708.0 520897.0 0
200048.0 518874.0 0
204983.0 518014.0 0
207073.0 521060.0 0
210064.0 518181.0 0
215713.0 516445.0 0
221318.0 517277.0 0
222712.0 521081.0 0
225030.0 518949.0 0
229323.0 517260.0 0
234159.0 518747.0 0
238191.0 516600.0 0
242856.0 518002.0 0
249366.0 516614.0 0
247798.0 519619.0 0
252306.0 517846.0 0
259058.0 516905.0 0
255759.0 520021.0 0
259557.0 521763.0 0
263432.0 519083.0 0
267917.0 516740.0 0
272843.0 517284.0 0
277406.0 519352.0 0
282229.0 517147.0 0
285716.0 520709.0 0
294093.0 517507.0 0
298970.0 518057.0 0
303474.0 519559.0 0
307781.0 516894.0 0
312721.0 517334.0 0
316193.0 521250.0 0
319679.0 518492.0 0
323636.0 518951.0 0
331706.0 519935.0 0
335557.0 517509.0 0
339889.0 520179.0 0
343689.0 516800.0 0
348879.0 518067.0 0
352823.0 519390.0 0
356067.0 518401.0 0
360317.0 518780.0 0
364530.0 521267.0 0
368102.0 519410.0 0
371995.0 520147.0 0
376460.0 520746.0 0
380337.0 520373.0 0
384644.0 521681.0 0
389776.0 521845.0 0
392874.0 518263.0 0
395857.0 519986.0 0
399186.0 520875.0 0
404684.0 520513.0 0
409455.0 518562.0 0
409873.0 522614.0 0
414662.0 521473.0 0
419690.0 520246.0 0
423832.0 521900.0 0
427320.0 518943.0 0
431324.0 520001.0 0
435155.0 518422.0 0
433855.0 522773.0 0
442345.0 518802.0 0
438895.0 522193.0 0
446537.0 519036.0 0
443450.0 522078.0 0
450359.0 521274.0 0
453830.0 518874.0 0
458381.0 519935.0 0
463694.0 520387.0 0
468571.0 519675.0 0
472727.0 521637.0 0
477533.0 523808.0 0
480133.0 520633.0 0
483059.0 523297.0 0
483426.0 519147.0 0
487691.0 520518.0 0
493226.0 520953.0 0
497882.0 519622.0 0
8975.41 525921.0 0
14462.3 524284.0 0
19556.2 525152.0 0
22450.1 526620.0 0
26599.5 526879.0 0
31158.0 527263.0 0
36127.8 527514.0 0
40168.4 525039.0 0
45735.6 525280.0 0
44323.5 529389.0 0
51458.7 525253.0 0
48476.2 528208.0 0
56203.3 527079.0 0
60374.4 524754.0 0
64886.6 526074.0 0
69081.4 523549.0 0
69058.1 527359.0 0
73307.2 526065.0 0
79582.4 525201.0 0
84706.6 526524.0 0
89097.7 525090.0 0
96956.1 523272.0 0
94011.8 527194.0 0
100797.0 525480.0 0
105840.0 525059.0 0
110701.0 523084.0 0
115811.0 525337.0 0
121792.0 525429.0 0
126129.0 525589.0 0
130605.0 523709.0 0
135531.0 524048.0 0
145572.0 523371.0 0
151796.0 522040.0 0
149747.0 525686.0 0
156742.0 523750.0 0
161400.0 525497.0 0
169586.0 523764.0 0
173427.0 522370.0 0
176841.0 525622.0 0
181939.0 523929.0 0
186494.0 522284.0 0
186102.0 526808.0 0
190776.0 524821.0 0
195461.0 525407.0 0
199451.0 524053.0 0
203845.0 522384.0 0
203087.0 526315.0 0
209917.0 523120.0 0
213667.0 521342.0 0
218465.0 521956.0 0
221622.0 526502.0 0
224591.0 523615.0 0
227360.0 521594.0 0
228219.0 525700.0 0
231333.0 522173.0 0
232900.0 526598.0 0
235867.0 522856.0 0
240212.0 521805.0 0
244311.0 521861.0 0
242787.0 526151.0 0
247143.0 524196.0 0
251879.0 523093.0 0
256621.0 524903.0 0
263096.0 523404.0 0
267308.0 522040.0 0
272830.0 522954.0 0
277217.0 524498.0 0
281298.0 522967.0 0
286057.0 525780.0 0
290834.0 522182.0 0
294576.0 525507.0 0
296141.0 521762.0 0
298642.0 526069.0 0
300138.0 522017.0 0
303697.0 525074.0 0
306954.0 521820.0 0
311104.0 521654.0 0
313782.0 525431.0 0
318221.0 526344.0 0
321215.0 522648.0 0
326996.0 522728.0 0
332068.0 524713.0 0
335861.0 522510.0 0
340086.0 525283.0 0
345198.0 522539.0 0
350558.0 522625.0 0
352633.0 526021.0 0
355448.0 522737.0 0
360396.0 524078.0 0
364816.0 525381.0 0
368784.0 523761.0 0
373894.0 525219.0 0
379944.0 525202.0 0
385303.0 526521.0 0
387499.0 524295.0 0
389689.0 526278.0 0
394728.0 524081.0 0
401707.0 524977.0 0
406927.0 525549.0 0
412009.0 526134.0 0
416012.0 526137.0 0
419849.0 524133.0 0
424437.0 526687.0 0
428807.0 523573.0 0
428709.0 527830.0 0
433123.0 527068.0 0
437994.0 527069.0 0
446892.0 523410.0 0
442905.0 526234.0 0
447598.0 527536.0 0
451081.0 525639.0 0
454892.0 523410.0 0
455974.0 527767.0 0
459506.0 524061.0 0
463849.0 525070.0 0
465805.0 528094.0 0
468470.0 524311.0 0
473260.0 526178.0 0
477078.0 528726.0 0
481024.0 527000.0 0
486938.0 524105.0 0
490613.0 524684.0 0
494304.0 525125.0 0
497519.0 523409.0 0
497982.0 527408.0 0
3220.19 528614.0 0
2017.24 532853.0 0
8127.78 529787.0 0
5970.08 533178.0 0
12547.9 529197.0 0
18067.0 529127.0 0
23699.5 529898.0 0
21280.9 531385.0 0
28591.0 531687.0 0
33870.0 530636.0 0
39540.2 530713.0 0
47872.4 531581.0 0
52129.6 530160.0 0
56222.4 531177.0 0
60985.8 529973.0 0
66398.3 530594.0 0
71566.7 530642.0 0
76356.1 529504.0 0
81988.3 531347.0 0
87840.5 529628.0 0
91810.4 531838.0 0
98335.0 529425.0 0
95407.2 531197.0 0
103696.0 530311.0 0
109955.0 528533.0 0
114806.0 530344.0 0
119157.0 529736.0 0
124295.0 529805.0 0
128847.0 528386.0 0
133853.0 528698.0 0
139740.0 527116.0 0
145261.0 530050.0 0
153333.0 527090.0 0
150044.0 529744.0 0
153481.0 531948.0 0
157611.0 527840.0 0
156978.0 530997.0 0
161152.0 530878.0 0
166643.0 528170.0 0
172190.0 527143.0 0
175309.0 530341.0 0
180798.0 529859.0 0
185155.0 530219.0 0
188684.0 530915.0 0
193513.0 529535.0 0
199410.0 529918.0 0
207361.0 527115.0 0
210248.0 530963.0 0
212286.0 526899.0 0
216829.0 526978.0 0
219691.0 530631.0 0
223400.0 532067.0 0
225331.0 528806.0 0
229709.0 531012.0 0
237751.0 527422.0 0
247828.0 529116.0 0
252613.0 527924.0 0
256702.0 529534.0 0
260608.0 526634.0 0
265434.0 527022.0 0
270153.0 527738.0 0
279161.0 527202.0 0
275286.0 527816.0 0
278362.0 531397.0 0
282466.0 529031.0 0
286290.0 530441.0 0
290937.0 528674.0 0
296227.0 530618.0 0
300565.0 529759.0 0
309021.0 526573.0 0
304887.0 530401.0 0
314600.0 530675.0 0
323369.0 527225.0 0
320145.0 531011.0 0
324702.0 531878.0 0
328848.0 528754.0 0
335623.0 528013.0 0
340471.0 530389.0 0
344357.0 527718.0 0
348555.0 526535.0 0
351669.0 531039.0 0
356792.0 527839.0 0
362422.0 529630.0 0
367495.0 528096.0 0
367349.0 532760.0 0
371613.0 529958.0 0
377096.0 530503.0 0
382694.0 530087.0 0
387560.0 530171.0 0
392919.0 530221.0 0
398379.0 528874.0 0
400380.0 533379.0 0
403684.0 529646.0 0
409437.0 530689.0 0
414761.0 530031.0 0
419691.0 528848.0 0
426679.0 530373.0 0
423431.0 532015.0 0
430684.0 531378.0 0
435967.0 531481.0 0
441273.0 531034.0 0
446259.0 531287.0 0
451706.0 530566.0 0
456958.0 532254.0 0
461148.0 528866.0 0
465920.0 531894.0 0
469235.0 529002.0 0
469651.0 532464.0 0
473061.0 530555.0 0
481065.0 531812.0 0
486563.0 528632.0 0
493154.0 529094.0 0
490356.0 533046.0 0
497558.0 531421.0 0
2725.63 536855.0 0
7852.64 537639.0 0
10436.2 533365.0 0
15094.0 533345.0 0
12727.8 537223.0 0
19724.3 533980.0 0
17252.8 537463.0 0
24007.2 533888.0 0
22189.7 537980.0 0
27693.5 537393.0 0
32375.0 533813.0 0
33178.2 537327.0 0
35804.3 534113.0 0
39988.1 536625.0 0
44126.6 533554.0 0
44773.8 537544.0 0
48313.0 535695.0 0
53764.6 533661.0 0
52746.2 537658.0 0
58095.0 535367.0 0
63742.5 534863.0 0
68913.2 534746.0 0
73113.8 537954.0 0
74741.9 533473.0 0
78017.9 535538.0 0
82470.9 537432.0 0
87481.7 534799.0 0
93255.7 537203.0 0
98228.5 533763.0 0
102887.0 535993.0 0
107683.0 534114.0 0
112120.0 533333.0 0
116870.0 534636.0 0
121314.0 533266.0 0
121959.0 537569.0 0
124772.0 534242.0 0
128742.0 532931.0 0
126200.0 537517.0 0
133314.0 533857.0 0
130252.0 537556.0 0
139413.0 534079.0 0
145068.0 535192.0 0
149303.0 534142.0 0
153878.0 537178.0 0
156626.0 533824.0 0
160024.0 536434.0 0
165564.0 534303.0 0
170823.0 532357.0 0
173724.0 536326.0 0
177509.0 534203.0 0
181134.0 537236.0 0
184772.0 533865.0 0
188716.0 536480.0 0
192001.0 533849.0 0
196284.0 535058.0 0
205285.0 532474.0 0
215075.0 531818.0 0
235373.0 531960.0 0
242272.0 531993.0 0
252385.0 532296.0 0
261914.0 531986.0 0
267482.0 531520.0 0
272842.0 532341.0 0
283107.0 534076.0 0
288556.0 533714.0 0
292663.0 533747.0 0
300616.0 535199.0 0
309474.0 531696.0 0
306635.0 535244.0 0
311789.0 536000.0 0
316288.0 535464.0 0
320590.0 535855.0 0
325354.0 536190.0 0
331021.0 534778.0 0
336422.0 532800.0 0
336051.0 536952.0 0
340560.0 535769.0 0
345620.0 532851.0 0
357478.0 533590.0 0
362894.0 535400.0 0
371995.0 534750.0 0
376949.0 536344.0 0
380902.0 533852.0 0
385441.0 534384.0 0
390619.0 535384.0 0
393450.0 537962.0 0
395963.0 535011.0 0
401181.0 538476.0 0
405119.0 534682.0 0
409426.0 535649.0 0
413308.0 534494.0 0
418440.0 534045.0 0
422893.0 536083.0 0
427400.0 535263.0 0
433043.0 535640.0 0
439227.0 535770.0 0
443998.0 535334.0 0
446451.0 538221.0 0
448837.0 535126.0 0
453716.0 535868.0 0
461731.0 533667.0 0
458791.0 537225.0 0
468187.0 535837.0 0
463997.0 537223.0 0
472621.0 534843.0 0
471399.0 538838.0 0
476648.0 533314.0 0
476302.0 538110.0 0
481284.0 536856.0 0
485615.0 534290.0 0
485625.0 538446.0 0
489108.0 536782.0 0
493601.0 536414.0 0
497908.0 535470.0 0
3965.38 541727.0 0
10389.5 541182.0 0
14748.2 541563.0 0
19241.8 541142.0 0
23223.3 542969.0 0
26978.2 541765.0 0
31399.3 542136.0 0
36794.0 540980.0 0
42790.5 540958.0 0
48104.1 540667.0 0
56772.2 540287.0 0
52994.2 542595.0 0
61566.5 539667.0 0
66713.7 539055.0 0
70144.3 542788.0 0
78066.2 539931.0 0
74671.3 542472.0 0
82065.4 542305.0 0
86777.2 540047.0 0
96481.0 541769.0 0
98687.4 538248.0 0
102230.0 541158.0 0
107068.0 539159.0 0
112396.0 538169.0 0
110315.0 542322.0 0
117525.0 540233.0 0
122230.0 542299.0 0
127285.0 541835.0 0
131918.0 541475.0 0
134828.0 538357.0 0
138874.0 539935.0 0
143382.0 539243.0 0
148421.0 539095.0 0
157412.0 540781.0 0
164501.0 539852.0 0
169385.0 538061.0 0
322831.0 540245.0 0
328189.0 540576.0 0
333451.0 540235.0 0
338408.0 540126.0 0
345168.0 538577.0 0
349979.0 536691.0 0
354904.0 539034.0 0
350447.0 541500.0 0
359428.0 538125.0 0
359073.0 542206.0 0
362500.0 539824.0 0
367853.0 538997.0 0
373653.0 540380.0 0
378463.0 541522.0 0
382038.0 538115.0 0
383291.0 542969.0 0
387141.0 539401.0 0
392056.0 541620.0 0
396407.0 539720.0 0
403716.0 543124.0 0
406338.0 539400.0 0
411066.0 539493.0 0
415710.0 538619.0 0
420030.0 538795.0 0
424655.0 540727.0 0
430440.0 540068.0 0
436169.0 539974.0 0
442411.0 540846.0 0
450502.0 540568.0 0
455553.0 540201.0 0
461819.0 541774.0 0
467225.0 540655.0 0
473553.0 542495.0 0
477953.0 542635.0 0
482607.0 541891.0 0
487822.0 542094.0 0
490783.0 539574.0 0
493986.0 541183.0 0
497795.0 539451.0 0
1208.94 544417.0 0
3639.02 547390.0 0
8047.05 544612.0 0
12558.9 546126.0 0
18330.6 546258.0 0
23555.0 547819.0 0
27583.9 545736.0 0
35262.1 545765.0 0
40228.9 544997.0 0
45088.4 544615.0 0
49441.6 545534.0 0
54558.0 548075.0 0
59120.2 544272.0 0
62055.0 548425.0 0
64798.2 543920.0 0
68404.7 547818.0 0
78143.4 544433.0 0
73692.6 546940.0 0
81774.0 546975.0 0
85814.7 544747.0 0
91338.9 543701.0 0
95270.7 547757.0 0
99404.4 545381.0 0
106300.0 544613.0 0
114134.0 544225.0 0
118803.0 544816.0 0
135889.0 542619.0 0
141131.0 544496.0 0
364164.0 543082.0 0
370828.0 543281.0 0
374538.0 545343.0 0
379629.0 546473.0 0
387953.0 544510.0 0
394176.0 546110.0 0
398722.0 544001.0 0
405686.0 548108.0 0
408515.0 543589.0 0
414259.0 543132.0 0
415972.0 547724.0 0
419371.0 543491.0 0
424366.0 545763.0 0
428367.0 544664.0 0
433352.0 544857.0 0
438169.0 544433.0 0
441818.0 546390.0 0
447032.0 545734.0 0
452780.0 545762.0 0
457187.0 544030.0 0
462877.0 547438.0 0
469144.0 546093.0 0
475810.0 546991.0 0
480395.0 545965.0 0
485416.0 546889.0 0
491700.0 545911.0 0
497574.0 543987.0 0
497911.0 548391.0 0
1347.65 550827.0 0
4582.77 552325.0 0
8664.04 549565.0 0
8147.07 553833.0 0
14333.2 551636.0 0
20773.3 552281.0 0
31489.4 549346.0 0
38156.3 549991.0 0
43479.3 549108.0 0
47920.0 549392.0 0
88249.4 547603.0 0
420974.0 548420.0 0
427361.0 549550.0 0
432893.0 550186.0 0
437993.0 549042.0 0
443867.0 550625.0 0
450581.0 549768.0 0
456914.0 548988.0 0
460732.0 552217.0 0
466780.0 551888.0 0
472399.0 551186.0 0
479758.0 550202.0 0
483872.0 551705.0 0
489160.0 550633.0 0
494363.0 550196.0 0
POINT_DATA 5000
SCALARS Radius float 1
LOOKUP_TABLE default
5415.48 5120.0 2356.98 6182.6 5258.36 5061.3 3163.97 3642.12 5812.43 5580.89 6810.52 6110.27 5840.26 5073.35 4834.9 3863.18 5085.53 4998.37 5492.18 5867.73 3951.75 4499.64 5542.27 5906.14 7513.1 5254.28 4402.52 4436.4 5733.48 5645.7 3588.44 5553.16 3672.51 4008.92 5561.06 5670.04 6044.04 5351.6 5484.83 4715.55 6059.59 5013.56 4375.68 5054.98 5122.66 5484.19 3557.27 4688.68 4182.53 4517.56 5903.42 4672.91 3761.32 5176.86 4366.19 4118.05 5065.13 2938.66 4940.78 3615.22 4380.59 6716.79 3850.77 5325.36 6759.9 5538.89 4730.36 5701.86 4238.81 4468.59 6030.06 5170.02 5200.76 5325.02 4927.31 4862.64 5185.34 4432.58 3955.56 5292.64 6166.5 5936.02 5305.17 7613.27 5546.39 4133.88 5945.65 7021.47 5926.61 2720.68 6051.14 4955.55 3563.63 4345.55 5885.03 5246.2 5017.13 5205.43 3673.74 6684.56 3968.64 2635.86 4385.06 4290.3 4231.61 3942.53 4861.08 3379.84 3607.45 4951.03 4094.62 6483.19 5418.62 5493.32 5416.38 4601.27 4195.44 5740.68 5836.15 3261.21 6704.06 2837.58 3653.41 5600.93 3871.88 4827.23 4390.66 6116.18 7447.37 4688.67 4733.32 7184.19 2924.37 3867.67 4827.82 4003.05 3589.27 4333.2 4665.12 4927.02 6230.49 4174.52 7054.71 3641.64 5747.75 4277.89 5539.32 6496.85 3856.01 5541.59 4124.71 5279.39 4911.47 5803.39 4924.6 4381.97 3255.82 5242.73 2899.43 2812.98 4065.69 5399.73 4805.87 4712.33 5759.91 3260.67 3038.33 3936.02 3383.4 5980.74 3856.1 5109.54 6458.82 5489.43 5054.25 4796.33 5360.19 4874.39 4839.34 5083.08 5728.85 6337.56 3998.5 5863.59 6257.19 4737.14 5603.15 5390.22 6038.78 5227.21 3997.1 5123.52 4295.38 4780.03 4044.71 3829.13 5816.2 3091.3 5527.54 5573.7 7325.81 4794.96 6186.19 2980.99 6834.49 5525.39 4024.3 5938.34 5555.28 4686.65 4695.45 4660.72 5556.96 3888.21 5697.78 4667.36 4392.68 5495.39 4487.31 5693.81 5789.98 2540.31 6138.47 5697.4 4055.8 4727.62 5206.78 6425.26 5143.58 4840.01 4484.76 5611.2 7933.0 5173.87 6394.38 5118.27 5169.36 5834.74 5788.23 6052.7 3921.18 6902.81 5529.52 3554.9 5252.48 3996.0 4002.16 4015.92 4138.16 4778.34 6029.66 4684.5 6302.8 4270.95 4005.44 5280.17 5028.96 6362.12 5152.36 4220.65 6820.42 4455.12 5380.13 4894.16 5711.87 5932.23 5581.75 3798.62 4254.17 5891.05 4091.31 7199.21 6124.89 5708.81 5043.05 5120.49 3486.22 5409.61 4414.54 6038.2 5555.88 6732.43 3866.16 3183.98 4524.28 4511.82 5826.64 4816.2 6321.41 4896.52 4941.22 5791.61 6392.01 3666.57 6644.76 5615.42 4523.7 5255.32 5337.48 5542.21 5924.89 6894.71 5262.61 5201.36 5094.81 5713.22 5861.71 5017.78 3794.63 3778.1 6175.81 4727.24 6959.81 4829.35 4089.76 3372.79 4751.02 5282.64 4479.66 5184.56 4715.72 3369.13 5308.1 6372.62 6730.19 7565.34 5637.59 5481.78 4937.14 3307.12 4467.94 5551.36 6038.14 4306.53 6135.57 5972.06 4312.67 4359.04 4270.24 5015.69 4947.52 4989.15 4520.1 6677.09 4305.57 5813.4 5201.67 5526.55 3192.41 4987.87 5367.2 4669.66 4808.52 3043.85 5461.13 4907.89 4937.02 5629.19 6037.08 3103.0 4049.23 6084.86 3586.91 3115.91 5478.92 4933.21 4850.81 4723.12 5024.9 5659.17 5998.38 4562.29 5423.8 4164.13 3417.33 4642.34 5874.89 3791.79 4293.03 4424.7 4754.05 4951.47 6084.93 3315.57 4764.96 5607.24 4726.76 3599.45 5655.21 5091.39 6756.95 5601.05 4948.92 5810.84 3748.24 5094.44 5375.47 4655.49 4809.42 4717.05 5856.11 5287.2 4234.94 5013.13 4926.42 5080.66 5110.45 5153.74 5248.77 4165.81 4528.09 3556.85 4389.21 4128.98 4925.44 6246.22 5246.61 5215.15 4307.28 5046.33 5053.92 5839.13 5090.24 5923.5 4073.93 2240.39 6324.23 4929.8 4382.74 4516.43 4749.8 4384.42 4493.48 4230.54 6163.38 4566.18 4964.09 3459.9 5543.27 4109.88 4980.85 3327.49 5714.58 3329.99 4083.97 5208.32 3895.51 6291.51 5882.89 4188.32 4100.38 5538.93 5804.71 5727.3 5020.12 6352.26 4242.52 3735.44 4907.06 4645.41 4786.6 5096.78 5740.84 4727.24 4612.68 4651.28 6355.42 4362.19 5082.6 3693.63 3937.74 6061.47 4093.08 4997.27 4449.22 5628.24 3960.8 5992.26 4923.9 5070.39 4613.31 4973.78 3947.47 5091.68 4607.02 3296.27 4713.25 6673.96 6243.0 5441.96 5174.89 4288.3 5370.52 4739.42 3697.96 4899.11 3847.38 4745.45 5356.51 3057.03 4433.59 5163.9 4973.83 5530.87 3320.52 4151.94 5690.56 5244.78 5478.47 5762.84 6142.37 5806.08 4853.39 5365.89 3130.65 4511.54 5196.0 4204.84 6119.09 5069.25 5048.89 3991.03 3435.9 4652.29 5774.81 5344.77 4278.07 4723.48 5281.28 3818.59 4863.72 2631.9 5495.68 6043.3 3912.37 6445.94 4310.18 4129.43 5927.43 5492.26 6640.13 5119.37 3982.23 5351.39 5243.29 4336.42 3402.32 7589.94 5004.67 5409.33 4466.03 4178.15 4898.94 7531.29 5935.03 3161.47 6390.78 6826.57 4495.87 4788.87 3746.31 5027.98 5097.87 5346.27 7267.18 4087.15 4143.08 4758.21 5489.34 5002.48 5952.75 4262.82 4281.49 5537.72 4320.28 6342.25 5293.9 4685.34 6327.9 4220.88 6519.71 3092.35 5210.03 4583.31 4306.11 6022.17 5903.66 5419.37 5985.29 4247.23 4733.04 4694.83 5788.66 4755.47 3903.75 4485.99 5475.8 7435.25 5543.46 5498.32 6475.1 6255.18 7500.97 5708.14 3920.42 6332.36 5542.14 4218.06 3843.58 6142.94 6082.81 5449.18 5367.52 3629.96 4714.54 5030.91 3320.11 5507.24 4503.89 6851.54 5313.66 4528.49 5275.32 4268.65 4649.22 5509.42 4354.08 4520.62 5475.7 5314.69 6050.81 6022.72 5527.33 4969.21 2691.29 6256.02 4277.88 6623.85 8332.24 4931.53 6691.39 4329.05 3191.99 5110.37 4048.37 5664.98 4659.59 4322.15 5101.59 3813.22 5570.3 5935.47 2651.49 5234.29 5512.23 5349.31 4711.62 4114.24 5394.55 5936.36 4256.43 5229.48 4016.18 5415.19 5127.16 5435.74 4249.46 4244.99 5560.26 4643.31 5965.81 6917.52 4177.19 5402.21 2845.98 4668.71 7228.46 5102.36 5787.31 7134.64 6122.55 4602.25 5480.13 4931.38 4736.58 3485.26 3240.09 4556.36 5025.39 4548.16 3688.8 4377.07 3848.93 5893.5 3695.36 6020.48 5200.05 4645.58 5670.2 2976.22 5094.52 2682.24 5928.32 4946.74 5526.75 3950.63 4275.57 5327.45 2330.66 3702.37 6185.89 3691.0 3990.25 4752.51 4880.14 4989.09 5320.92 3948.23 6362.14 5228.18 5978.82 4342.9 5978.9 2739.94 4270.53 4194.5 4792.73 3369.23 5264.06 4515.71 5358.59 3817.13 4547.19 6202.55 5023.15 3963.86 5076.35 3844.9 4091.8 5273.35 5181.4 4662.56 5166.79 5417.15 3405.98 5996.33 3688.16 4612.62 6631.19 3619.07 4467.04 6385.23 2983.99 3997.96 4750.17 5660.85 3460.94 6184.4 3758.07 4373.45 3587.05 4982.31 5269.18 4406.1 6719.88 5065.11 6155.31 6308.71 4790.08 5082.47 4501.51 5513.6 5138.31 4901.41 4551.24 6387.01 7111.16 4871.44 6375.99 4564.34 6248.81 4853.02 6259.23 3457.48 4998.21 3931.07 7440.72 4681.72 3949.6 4945.39 5661.62 5817.25 5626.61 2614.4 4439.35 6363.92 6205.93 3828.81 6229.37 5289.52 5034.59 5314.85 4305.43 4553.56 4942.77 4223.33 5069.84 5329.64 5911.67 4187.56 3629.62 3323.28 4840.84 4997.27 5191.63 5379.87 6013.14 3708.04 3610.4 4581.13 4621.75 6338.89 5584.06 6480.17 3838.56 5088.44 5872.05 4256.67 6079.11 6430.39 5376.71 5703.6 4867.08 6326.18 6648.68 5407.78 5061.98 4923.24 6632.99 5830.72 5309.98 6718.19 4407.87 4307.48 5450.44 3848.54 3927.99 5080.18 5266.5 5868.82 4051.44 4716.19 4301.06 5135.69 5344.25 5344.0 5925.6 4602.86 3856.59 4219.07 5413.79 5372.61 3686.21 5013.42 6445.22 4962.77 5651.07 5323.3 6101.92 4635.6 4427.28 3082.32 4765.02 3658.37 4448.13 5070.29 4807.28 5075.55 4266.03 4713.74 4220.03 4084.49 6179.96 4537.6 4419.61 7177.44 6260.79 4082.57 4236.14 4563.46 5282.91 5941.4 6510.17 4263.33 4454.63 4050.9 6695.82 5514.76 3456.98 4593.7 4478.15 4043.57 4138.42 5011.31 5987.17 3979.82 5006.58 5586.81 2765.2 4746.52 5572.95 6723.16 4948.5 5402.24 4519.22 5210.48 7552.94 6239.84 3627.55 5370.85 5865.39 3178.54 5629.39 3776.94 2684.03 6157.04 5246.47 4768.61 2261.36 5280.69 4522.21 6923.84 5449.46 5703.07 5147.36 6113.54 4662.43 3963.76 5169.9 5733.62 5282.51 4425.84 5331.02 4871.96 5742.65 4066.38 6049.55 6405.76 5709.62 6045.46 4290.14 4877.67 4763.45 4150.99 4020.32 4107.03 3771.48 5198.77 5681.38 4292.06 5147.67 4481.53 5330.45 5077.33 3824.16 3948.17 3689.45 3868.18 4959.34 5130.91 5383.07 4527.02 4247.15 4531.14 4602.85 7644.38 4051.34 4409.63 5278.36 5521.25 3661.9 5949.46 4010.57 5136.08 5558.68 6191.29 4187.31 5506.19 6719.94 6166.29 4950.67 5453.6 5294.77 4043.66 6553.94 4709.05 5255.18 3797.33 3004.16 4460.92 7256.35 4800.69 5592.32 4523.88 3279.1 5912.61 4241.89 4978.31 5054.74 4099.77 5835.78 5941.72 3815.26 3498.2 4245.72 5445.87 4216.92 4704.72 4571.7 4177.94 4344.58 3929.19 4271.69 3970.25 4850.01 2775.04 5643.58 5215.05 4138.46 5577.04 4986.77 6318.18 5423.0 5045.38 5125.78 5350.88 5452.83 4790.78 4591.87 6422.84 6552.22 5379.09 6004.68 6799.4 6218.95 5107.23 5222.16 5533.42 4802.32 4599.38 3240.51 7422.36 4527.99 5161.01 4628.4 4298.15 4376.7 5227.59 6051.83 3077.84 5409.63 5528.53 4630.82 5726.66 6799.88 5460.65 4767.78 3062.43 5945.89 4042.28 4105.55 4863.23 4402.67 5381.16 4948.98 4403.98 4560.84 4981.9 4414.48 6562.18 5794.24 4127.74 4537.32 5163.02 5908.1 4541.21 4302.5 4156.38 6048.7 6009.88 5896.46 4742.68 5634.83 4502.5 5499.11 5922.5 3633.87 5347.48 3821.72 4810.12 6898.19 5526.14 6035.6 3627.82 5198.29 5137.34 3975.31 4044.45 6070.58 5344.43 4373.47 6034.41 5197.52 5178.99 5615.35 4027.09 4135.62 5801.99 4860.33 4502.18 3685.13 5534.94 3312.06 5180.76 3361.26 4993.35 4983.39 4690.55 5533.72 5146.37 3678.08 5518.57 4836.16 5463.48 5680.94 5730.33 4543.1 5545.46 5190.61 5832.37 4642.93 3973.12 4263.16 6024.75 4813.08 5860.67 4540.86 5426.78 5990.52 5235.17 6566.1 3555.86 5565.13 6386.78 5227.52 4470.61 6086.96 3066.13 2476.04 4729.43 4656.78 4092.24 5991.09 5105.16 6006.16 4164.68 4678.38 5050.65 5495.84 5316.75 6268.1 5022.8 3784.5 5782.6 4862.21 5113.21 6261.42 4374.35 4011.77 5965.78 4527.08 6396.74 7099.43 4516.28 5315.4 6449.45 4244.9 5262.19 4285.32 5022.28 5490.43 4986.51 5339.38 6169.11 4896.11 5172.53 6132.95 5266.22 5226.97 5754.18 3418.99 5132.68 4480.95 6595.03 4558.15 5366.52 5417.8 5227.02 7132.12 4232.16 5151.11 5581.55 5193.01 6550.44 8325.01 3764.06 4440.81 5941.9 6642.76 6109.49 5829.22 5987.42 5567.93 2967.38 3764.1 5652.0 4340.76 5463.41 4435.36 4421.12 6065.22 5254.49 4221.28 4996.99 4456.39 6193.35 4631.83 4384.88 3701.27 5233.78 4562.74 5126.91 4806.34 5776.57 5448.61 3942.07 4827.33 7443.72 7055.53 6133.92 3937.08 3719.84 4178.4 5013.67 5669.65 5253.55 5820.48 7034.11 2586.12 6125.34 5975.63 4274.61 5252.34 2965.79 4410.55 4287.63 5776.37 3921.08 4190.31 5486.68 5100.25 5678.96 6048.86 4049.02 6894.26 4470.4 5311.03 5255.12 4285.66 3872.61 4238.4 3930.79 4318.48 5365.24 4004.35 5293.51 4763.96 4446.06 5008.63 3450.93 4270.74 6293.89 5737.75 2761.07 3778.02 6552.21 4367.78 4350.12 3603.51 5670.0 5300.96 4344.51 3781.77 3834.43 4707.06 5491.37 3474.5 3860.83 6348.03 5732.27 4523.39 5434.47 5278.56 6917.62 4497.78 4243.79 5811.18 5332.65 6451.33 4779.5 4835.83 5604.35 4159.35 4929.75 5225.33 4237.98 6045.22 6439.37 6649.96 4614.3 4896.39 6887.27 3633.79 6081.14 6008.49 5480.83 5653.9 5133.97 7144.24 6600.94 3600.43 4906.82 5371.02 5513.57 4788.58 5729.23 5260.34 5934.22 5206.48 6586.45 3780.23 5826.04 5624.49 3471.03 3745.84 4730.41 4359.62 5011.84 5696.88 5690.26 5062.71 6057.22 6946.21 5433.8 4289.17 4497.59 5564.02 6444.77 6314.07 5083.41 7055.42 5683.61 5805.86 3836.45 4558.46 5346.68 5020.71 5296.29 5997.88 4611.53 2681.29 5094.48 4360.23 5576.92 6408.83 4586.19 6625.18 5323.91 5097.45 4047.87 4185.61 5742.47 4917.99 3319.67 4095.75 4298.45 5222.51 4076.59 6609.84 5164.1 5135.96 5658.37 6074.94 5699.53 4250.88 3783.54 4222.77 3475.67 4792.39 5146.37 7038.89 5631.14 6137.8 5433.65 4442.22 4887.76 5413.31 6477.91 3091.67 4081.97 4332.87 6420.81 4303.19 5401.99 5514.84 5134.39 5421.53 4256.57 3914.2 4607.85 4220.46 4287.53 5683.26 6070.3 5598.74 5046.21 5131.24 5894.61 5687.83 6155.1 4709.35 5196.67 5004.23 5876.71 6496.67 5474.8 5226.0 5339.78 4750.78 3095.48 4166.08 3979.26 5188.81 6608.73 4203.26 4004.04 3923.03 5411.85 5607.14 4156.2 6915.83 4027.46 6072.45 3901.8 5511.88 4470.98 4512.11 5759.46 6248.6 5708.99 5443.58 5687.85 6401.43 5731.57 5662.55 5737.92 5839.71 3755.95 4585.31 6234.32 5889.35 5010.04 4570.98 4275.07 5825.38 4573.72 5099.21 4163.74 6969.28 5636.4 6471.42 5698.96 5283.8 4428.14 6464.15 4972.17 4479.11 6685.4 4850.06 5268.38 5527.23 4805.33 3863.67 4814.12 5980.95 4013.38 5067.56 3352.35 4343.78 5263.3 4008.15 4909.65 3012.99 6316.56 4669.06 4811.32 6400.08 4743.59 4715.58 3317.83 5580.92 5784.3 3532.3 5769.98 6088.68 5937.08 2221.99 4135.08 4643.56 5612.21 5128.57 4929.14 6000.7 5945.08 5139.5 6442.69 7493.3 6320.71 4648.04 4814.55 4373.3 3527.05 6262.72 5029.78 5762.59 3664.11 3365.82 4861.06 6481.79 5320.28 4298.67 5873.69 4796.58 5960.66 4962.09 3999.48 5654.31 6062.05 4643.85 5082.74 4735.33 3999.94 4844.57 4413.85 6171.13 5092.37 2395.5 4864.22 5941.61 3497.9 4933.65 5782.48 4031.78 6098.1 5950.04 2435.33 4231.83 6333.29 4074.48 3614.96 4558.47 4477.04 3886.68 5703.74 4747.55 5464.68 2685.81 3056.7 5591.76 4510.8 7509.24 5896.26 4394.56 5388.78 4587.67 5951.81 6101.13 5599.7 4296.69 3665.95 6238.32 6804.79 6372.13 5369.5 6016.19 5535.91 4124.49 3230.13 5714.25 5325.96 5412.24 6332.01 5016.02 7044.29 4581.37 4234.18 7085.01 4049.16 3936.95 6193.08 2735.53 6069.3 5887.01 5168.35 5116.6 3747.03 6523.86 2783.85 7693.4 4286.49 6184.88 5208.14 4450.7 5829.32 4396.25 3763.05 5151.52 5973.33 3583.21 5092.24 4347.74 5442.32 5067.46 5291.9 4863.01 3580.58 5620.74 5356.79 5233.29 5604.21 3979.54 3169.67 5304.13 4968.03 3361.92 5833.06 5944.09 5698.77 6607.87 4163.5 6515.84 5374.51 4123.6 5117.47 4143.78 4538.95 7092.87 4970.88 5224.12 4850.14 3637.61 4569.12 6098.14 3493.7 5750.71 4472.17 4938.74 6222.42 5470.77 4200.03 3474.39 4831.47 5516.95 6939.12 4406.4 5563.79 3905.51 6853.85 4721.02 4020.4 3493.47 4596.75 3374.08 4188.87 5564.23 3735.24 6574.95 6817.57 6853.04 4745.43 3420.08 4912.04 5831.96 4539.07 4691.91 4255.34 4475.83 5064.79 5480.3 3427.63 4146.81 5756.75 5093.82 5212.43 3924.14 5454.12 6918.35 6348.54 4066.57 5642.35 6357.47 5404.01 4891.38 4793.65 5955.86 2949.12 4532.89 6176.67 4533.37 4848.46 2779.99 5887.38 4920.21 6942.34 5851.61 3658.05 5478.11 6153.94 6836.82 3862.77 3858.17 4631.99 5388.39 4356.49 3728.18 4437.07 4326.48 5335.47 4526.81 3449.37 3994.07 5491.9 6405.0 5551.95 5369.08 4659.16 3918.87 5549.49 4518.04 4766.06 3101.75 4009.62 4874.18 4011.37 2511.46 2081.58 2775.69 4312.56 4612.06 4778.82 5204.04 5467.84 3306.14 5490.58 5029.47 4750.58 4863.79 5395.14 4702.06 2477.07 3464.83 5724.64 4923.41 2990.77 4925.63 5965.15 4763.66 4666.81 6739.08 7042.12 4797.52 4471.58 5501.93 5462.21 5463.38 6313.06 5374.98 5945.21 6345.13 6470.3 4719.7 5313.22 4097.57 3436.15 5328.22 5711.11 4151.76 4216.17 3546.71 6484.17 4938.72 4254.37 5768.57 5956.65 4498.25 5108.06 5151.21 5398.64 4222.4 3573.73 4693.52 4661.03 4568.41 3624.7 5160.59 4320.42 5262.35 7165.9 7046.11 5344.83 4449.98 4863.97 4771.65 6342.48 5589.37 4840.44 5439.49 6639.64 3687.65 4834.3 5478.95 3851.85 6318.23 4206.98 5156.76 5174.75 6101.57 5932.07 5948.71 3856.53 5460.89 6040.74 5742.09 5260.85 2884.65 5807.46 4648.21 4393.16 3311.29 3110.13 4549.69 5526.31 5030.15 3477.1 3644.78 4078.93 4740.98 3185.39 5934.82 5128.77 5633.61 5048.19 4219.94 5907.46 4264.91 4888.27 6740.71 5399.29 5423.42 5789.55 4633.05 6605.86 4901.2 6505.78 5657.36 6124.08 5012.5 4785.25 3619.79 6519.43 4270.15 5876.64 5053.95 6710.88 5926.11 3967.48 6667.68 6213.04 4497.31 3830.46 3163.78 4305.16 3293.56 4721.32 4888.6 5882.65 5092.28 5078.86 4780.2 4918.77 6326.39 5163.55 6817.32 6471.55 4319.79 5960.56 6643.85 6343.14 4020.95 5862.86 6049.79 4390.41 5274.19 5226.56 4050.08 6113.95 5599.49 4901.07 5452.42 5017.5 5005.85 4893.49 5325.44 4575.94 5102.75 5760.22 5021.88 4597.29 5938.17 4200.09 4795.43 5931.77 5097.95 4914.45 4000.43 4698.87 5351.56 3984.88 3344.57 5318.53 4732.09 4281.98 6945.98 5138.2 5783.48 4701.5 4504.35 5012.97 4036.91 5110.11 6379.14 5216.26 3634.5 4887.52 6631.28 6571.31 4392.65 4058.87 6103.11 5048.55 4984.46 4024.31 5844.72 3992.97 4147.31 5989.05 4054.22 7228.94 5393.65 4441.22 4961.99 5853.89 6551.93 4595.12 4386.8 6484.43 6423.81 4625.67 3485.54 6192.77 4312.15 4583.52 6418.11 4501.78 7122.87 4243.26 3572.94 5797.36 6799.23 5001.58 4153.84 5119.86 4592.15 6487.56 4854.11 2275.45 5971.22 4909.31 6522.59 5711.62 5435.19 5461.55 3562.79 3298.2 7093.13 6306.21 6865.76 5424.46 5235.11 5253.37 5266.01 5211.38 6515.8 6031.67 6413.11 5529.42 4739.14 4636.5 5274.14 5257.12 4434.19 4819.73 4903.82 5100.1 3382.7 3954.91 4940.42 5085.71 5923.4 3703.1 4946.42 4623.61 4082.47 2965.01 6263.44 6235.57 5122.63 4863.27 5774.97 6766.43 2315.64 4703.08 4890.5 4488.85 3731.84 3981.07 4579.69 3554.48 5186.3 6496.52 3991.42 5966.61 4388.63 4514.79 4834.87 4940.28 2216.82 3672.21 4509.89 6752.75 5269.38 2928.82 5607.3 5313.12 4811.76 4638.18 5498.42 4196.37 6448.66 3556.79 5220.76 4453.97 7317.04 7001.83 6412.67 4482.9 4349.13 4593.7 3766.69 4891.67 6818.91 3503.65 4027.63 3429.57 5569.2 5350.88 5420.67 6413.15 5305.59 5416.45 6459.51 4330.58 4955.16 3288.01 4904.51 2202.77 5751.15 5950.88 4149.55 5474.01 6201.86 7554.58 3380.69 4140.4 3639.44 5446.4 4725.01 5966.75 4458.64 3657.69 4883.63 3492.83 6015.02 4922.49 5244.22 5585.14 7039.98 4820.17 4729.42 5084.17 5089.26 4901.44 3886.72 5415.45 4998.22 3776.8 5533.19 5417.21 5096.43 6602.43 4383.56 4798.17 4990.79 4953.1 5166.79 4516.53 2895.63 6449.64 3940.49 5767.9 4857.84 2040.66 5384.76 2978.76 7016.27 6138.12 6622.11 4689.15 4428.78 4965.89 4371.99 5746.28 5187.7 5659.95 5409.66 6090.91 4186.6 3561.29 3295.83 4152.85 5551.9 4219.78 6413.02 5644.82 5203.08 5412.31 3492.19 5374.07 4584.5 4118.84 3623.87 5548.29 5916.16 5163.77 6934.37 6027.62 3423.15 5010.2 5765.42 6098.95 6123.03 4997.83 3718.69 5148.08 6192.0 5578.94 5885.28 7610.49 6579.31 3004.34 3022.6 5323.55 3804.5 5375.1 6486.37 4172.6 6083.28 5211.6 4745.79 5806.31 5456.71 3503.41 6556.26 3971.08 6204.65 5438.92 6550.4 5513.8 5036.98 4120.07 4521.75 5188.53 4882.66 6746.66 5410.33 3908.56 6735.97 4642.74 3636.15 6114.89 5754.6 5135.63 4355.83 6870.97 3896.27 5351.86 6056.87 5230.02 5307.35 4342.18 5166.89 5491.63 5725.37 3868.62 5510.9 5138.33 4505.28 3425.69 4971.29 6280.13 5510.45 3684.15 5832.29 4438.76 6456.58 6006.89 4159.81 3814.65 5244.98 3965.3 5792.98 6592.93 6156.21 6350.71 6104.26 6436.74 3568.28 5425.98 5583.61 6063.64 5996.66 6479.39 5818.95 4093.99 4122.92 6464.8 5079.22 4452.54 4908.49 4684.44 4962.21 5884.9 5089.62 3685.65 3468.42 6790.73 3685.13 4590.55 5243.43 4673.35 3876.21 4741.26 4655.16 5920.32 4916.22 3701.16 4537.14 3867.19 5251.4 4963.34 4188.3 4453.64 5081.78 5019.93 4459.28 6116.33 4260.92 5499.39 6250.23 4407.9 4718.54 4440.57 6736.03 8659.64 3087.09 4055.54 7480.41 4588.7 5683.95 3766.55 6107.89 5469.13 4233.8 4976.12 4817.16 5530.49 5453.98 5660.55 5653.03 3989.7 4157.29 5107.0 4777.03 4286.17 4246.61 3684.56 6028.09 5452.36 4609.02 4896.65 5561.74 5975.23 6100.73 4788.08 4198.94 5470.04 5212.37 4908.75 4211.82 6003.78 5684.25 2628.22 5058.51 4901.29 4124.76 4244.49 4050.03 4813.33 4775.04 4952.52 3840.21 4833.55 4081.34 7224.99 4954.76 6334.53 4844.83 5377.37 5244.78 5652.87 5869.67 4311.48 5483.7 5018.69 3152.86 6384.7 5952.38 5973.89 5807.52 5963.36 5518.11 5087.14 5169.48 6016.08 4731.21 4743.9 3124.7 6064.71 6102.98 3719.11 3743.76 6060.17 5153.18 6711.21 5902.67 4730.14 4236.86 5393.76 3994.39 2606.51 4941.02 4618.73 3864.92 6119.99 2955.36 3668.93 4960.64 4128.1 5372.82 4983.3 4402.17 4385.81 4034.05 5690.96 5798.38 2460.79 4653.83 4456.11 4125.9 5096.24 4986.71 6171.71 7382.3 4405.42 2995.67 4997.91 3604.14 3598.08 4599.81 5381.54 4406.05 4749.59 4680.94 4858.44 5089.1 5828.35 5799.69 2711.19 5876.72 5571.72 5689.26 5869.4 4992.42 5297.19 6022.7 4345.67 4255.85 4940.84 5511.6 5097.69 3885.86 6261.75 5235.29 4517.73 5177.64 3757.34 6415.61 4541.8 4255.31 5453.3 5191.08 3838.47 4479.94 2588.37 5887.15 4062.5 4199.45 4435.51 5415.85 7234.66 6599.66 4886.12 6419.12 4301.61 5206.33 3184.64 4446.84 5065.26 4304.41 3746.36 6789.23 4892.44 5069.89 6212.15 5361.87 6813.72 4783.07 5327.75 4946.23 4852.58 4504.86 4532.7 3217.67 4473.29 5079.64 6163.54 996.652 6500.49 5965.58 4972.18 3352.34 4607.18 3899.7 2403.72 7200.89 4147.49 4802.98 3646.95 5760.98 4705.68 5384.86 4749.96 4658.24 4906.11 4387.39 4899.73 4564.1 5457.66 6394.19 4848.14 5366.22 6193.73 5254.24 4192.21 5712.35 3742.11 5701.52 3597.43 4158.91 6776.22 3360.86 5321.17 4869.25 4467.13 3877.8 6273.6 4763.4 5024.32 5454.11 5806.61 4983.1 6010.59 7123.04 3682.35 4009.24 3756.96 4446.58 7778.01 5127.82 3862.91 5124.17 5366.11 5805.1 5039.12 3908.98 4668.88 3628.89 4022.56 6589.82 5522.21 5698.23 5027.43 3772.3 5810.77 4855.01 7300.58 4714.83 4028.32 5236.43 7519.2 3809.69 4099.92 3208.96 4771.13 7051.9 5285.07 4680.14 5895.77 4608.41 4765.72 4732.09 5857.79 3988.3 2908.7 4039.91 6136.49 4338.08 4642.66 6543.13 5276.7 5149.72 5037.06 5660.16 5842.56 6134.99 6200.54 5424.88 5148.58 3548.39 3583.49 3673.28 5421.64 4858.51 4366.74 4207.54 3375.28 4603.5 5625.65 4647.67 4936.96 4481.76 4214.44 5375.12 5378.23 4787.97 5452.78 4981.43 4356.36 5473.72 4061.6 4741.28 4215.2 2603.64 2856.55 4553.68 2205.51 3703.49 3894.64 6502.97 4268.19 4374.74 3758.22 4062.56 6200.63 4757.2 6816.66 4928.35 5241.75 3844.54 5849.53 5034.69 4509.46 4680.69 3538.53 4420.11 6127.39 5640.12 5329.76 5078.59 6638.25 5134.33 4759.99 2646.13 5419.57 5214.4 5162.67 4636.53 3629.49 5766.05 5469.35 3835.81 4019.34 4869.48 3623.19 4745.16 4697.91 5825.55 5071.98 5509.51 5719.79 3199.4 4316.5 4371.08 7261.51 4968.14 4914.03 5086.29 5144.56 5311.55 5139.18 3034.16 5551.43 5049.99 5545.21 4333.87 5001.87 5136.87 3667.93 5638.7 3779.45 4708.17 2741.2 5790.42 5784.37 3142.09 5591.77 5906.57 5182.13 5401.4 7541.76 5053.15 4775.49 4681.29 5910.86 6239.68 7320.78 3419.87 4064.58 4834.44 4824.81 4234.88 4384.28 5769.14 6328.42 7307.21 5522.75 3608.06 5867.64 5474.15 6208.9 4923.57 3340.09 6633.61 6059.93 4884.59 3858.06 5217.95 4478.6 6355.68 4184.23 4833.46 4144.57 4083.79 4511.7 4351.38 4304.63 4187.94 5750.07 5550.75 5980.59 5933.7 4809.67 5021.77 4752.14 4757.74 4687.64 4378.3 5469.47 5512.16 5411.02 3197.63 4950.97 4989.56 5175.29 3645.12 4863.96 5199.44 4094.73 5713.03 4652.01 4928.27 5849.65 5134.67 5775.31 4847.14 5052.84 4165.21 5297.16 4215.0 3950.27 5354.66 3566.79 5116.66 3629.44 5003.78 3299.24 4208.41 5374.67 6246.56 5826.78 4508.18 5064.67 6214.73 5175.89 6618.21 5232.85 2617.39 5144.44 3717.47 3205.68 4051.18 5969.37 4583.94 5046.31 4337.32 1937.5 4731.53 3763.9 4651.99 5721.14 5863.0 4788.7 4577.73 4987.28 5084.5 4918.64 6562.03 4815.47 4368.12 4365.58 3889.98 5193.58 5399.43 5695.44 5117.64 4507.46 5429.3 3916.42 3422.21 5510.96 5603.68 4944.51 6653.07 5532.72 3220.8 4584.81 5179.17 5579.39 5270.51 5148.1 5490.75 5224.64 5214.63 5949.73 3495.68 4312.48 5527.13 4278.57 6370.33 5081.08 4201.03 6318.25 6864.06 5684.05 4493.79 4932.56 4279.44 4644.88 5813.79 4899.19 5293.13 4028.22 3918.94 7350.26 3768.46 3852.82 6110.48 5167.53 4507.36 5003.3 6245.52 4932.29 5499.59 4990.23 5749.6 3220.29 3845.9 4141.21 4439.71 5782.43 5667.51 4456.26 5944.3 5113.6 3873.92 3563.14 4810.98 3381.82 3619.72 5135.5 5347.9 4646.51 4438.58 5640.72 4565.93 4504.52 5602.53 5484.36 6061.63 4829.35 3953.55 4063.9 4075.28 5263.27 4277.24 4469.54 6834.41 7248.4 6300.92 4356.25 5161.1 3796.15 5036.58 5776.96 4419.71 5329.59 4888.12 6119.63 5439.9 3498.16 4244.21 4588.99 4752.9 4947.24 4617.55 3875.05 4321.21 4287.16 3456.47 3540.11 5950.45 5471.74 4344.34 5580.34 3852.6 5009.83 5131.15 4110.59 5717.8 4706.5 3332.49 5210.75 4811.22 3683.86 4474.83 4918.76 6555.44 5293.75 5114.07 5730.61 4385.49 7124.45 6358.93 4383.68 5836.26 6015.22 6666.67 6063.44 2904.46 4826.52 5120.92 4685.4 6240.42 5914.5 5146.0 6006.16 4288.45 4608.62 5407.96 4071.75 6206.98 5131.77 4410.82 5549.71 6443.99 4967.51 7212.97 5490.64 5034.34 3769.2 3468.45 5036.14 5635.32 4526.34 5610.95 5042.75 4598.92 5241.22 6647.08 4979.52 3422.29 4407.79 4537.03 6548.29 5783.94 3990.96 5352.24 7362.42 4202.77 5836.14 5473.05 6008.81 5537.34 5192.49 5058.34 3487.31 6643.4 5575.11 5487.63 6599.28 7145.73 4168.52 5800.81 3954.77 3784.94 6016.87 6793.1 3125.13 5166.05 6715.73 4506.66 4174.44 5515.73 5209.55 4708.31 4564.41 4027.33 4198.9 5431.29 5951.86 5091.22 5026.76 4833.67 5023.41 6282.38 4546.44 5851.63 7107.63 5073.02 5212.92 4831.93 4867.7 6545.43 2279.05 5788.97 6760.92 4989.2 4023.93 4314.56 5868.89 8137.11 3928.53 5291.05 6045.67 4209.49 4216.95 5464.25 5742.74 3946.28 3821.94 5984.81 4209.31 5486.48 5718.28 4409.27 5301.47 4247.69 6242.79 6506.86 5391.48 5088.57 4803.57 4923.43 5966.42 4568.64 5666.95 5210.38 4642.2 4127.53 4489.99 4548.45 4945.0 4212.15 4658.11 5658.14 4551.26 5678.58 6570.35 4242.63 4263.18 3269.54 7142.95 5064.23 4559.74 6061.85 4454.74 5268.15 5512.44 6449.06 6347.72 4924.07 3460.93 3200.6 4629.02 4927.73 3565.32 4602.57 3763.85 3419.07 5710.33 5344.44 4626.72 3186.07 4369.86 5482.76 3745.02 4887.73 5173.82 3720.7 5698.53 4211.36 5378.24 3604.31 3856.73 4450.49 5817.74 5887.71 5661.6 4827.61 4316.45 5409.08 5285.75 5385.03 5481.64 5673.75 5360.67 5968.54 4501.05 6263.3 5592.54 3247.97 5124.34 4114.2 4326.06 5034.46 5757.29 5793.12 5469.17 5061.75 4373.2 6022.78 5884.99 5726.42 6647.85 7025.09 4674.9 5461.72 3392.26 2549.95 4361.24 6224.85 4556.19 5403.97 5368.66 5106.46 4795.08 6562.92 4068.31 3671.06 5077.29 7035.54 4850.5 6331.74 5763.05 5129.68 4252.18 5357.39 4659.88 5076.84 5325.91 4092.07 3791.41 5657.55 4213.05 5727.79 4224.3 4184.21 4700.07 5188.82 3472.91 4464.73 5615.84 4928.85 4717.73 6440.38 5556.0 5484.32 4711.04 6650.77 5007.21 6226.14 5466.33 5599.29 4173.54 5280.12 7216.98 5721.05 4444.97 5271.02 4350.15 6329.53 7013.17 3805.67 5367.73 4590.01 4514.39 4640.06 4227.41 5078.31 5993.0 4807.35 6047.14 5467.63 4728.55 4929.6 4554.68 3919.62 5750.35 4368.28 5984.8 3127.83 5236.24 4585.04 5260.52 4241.68 6102.49 3469.18 3185.09 2945.34 3372.95 5114.23 4489.29 5495.0 7407.91 5846.95 5716.42 5701.63 5819.0 4620.95 5368.93 4488.39 5124.86 7168.2 4571.74 4096.86 4796.12 3622.48 5001.51 6432.8 5385.86 5115.42 4209.0 4082.4 4930.72 5728.58 6424.77 6297.99 5918.95 4538.89 5689.56 6556.86 3242.31 6099.28 5372.25 3234.26 4169.15 4830.13 4778.37 3494.16 5370.9 5134.17 4074.16 4904.35 6172.27 5390.33 4904.37 4651.64 4358.81 5278.54 5729.92 5275.57 5016.46 4179.87 6224.13 4761.84 3769.24 3661.67 4087.32 5517.65 4009.68 4622.73 2569.12 4161.32 4433.12 5161.74 7336.37 5138.93 6406.8 6945.69 7086.69 5648.78 6875.73 5501.73 4697.24 5226.42 3612.44 6081.3 4983.43 5233.76 5117.52 5426.4 6311.89 5866.91 2820.07 6405.69 5679.74 4825.73 5247.01 5853.12 5288.33 4208.37 5157.38 6203.03 5235.87 5273.37 5069.9 5043.14 952.938 5473.89 6089.45 4732.37 4985.3 5072.5 3904.07 3274.85 5713.36 7144.05 5748.9 5545.59 4619.2 4506.18 5606.51 4801.8 5740.65 6038.68 5046.12 7104.73 4807.4 3000.29 2596.96 6349.67 5701.75 4264.54 5262.47 5261.19 7043.44 3516.27 4139.3 3831.52 4263.65 6541.45 4750.49 4263.78 4601.74 4643.9 6101.86 6106.43 5228.75 6761.81 6545.99 3903.91 2918.64 5334.36 5630.9 4512.07 4140.92 4692.32 4896.43 5463.06 4176.32 4639.8 3986.41 6069.78 5532.75 6949.65 4095.83 5695.25 4975.85 4495.75 5323.95 5676.61 6171.01 4301.93 5796.26 4603.04 4870.94 5293.37 5271.88 6121.56 5559.79 2980.31 5879.24 5740.78 6824.53 5997.91 4742.82 6791.86 6031.22 5485.84 3618.64 5703.84 4335.79 5453.69 5797.32 5432.04 3921.27 3702.45 5265.63 4898.29 4431.06 5730.2 5620.88 4941.52 4529.77 5900.0 4325.13 4262.74 3783.79 5317.19 5078.73 4248.14 5729.0 5279.19 4016.6 5192.92 7050.08 4786.66 5891.25 5370.1 5129.4 5114.51 3303.49 4655.37 5585.25 5256.75 6351.89 5099.9 5932.28 2960.5 5118.86 4298.7 4183.4 6170.9 4733.79 5833.78 4436.48 5758.98 5615.35 3967.76 6213.24 4683.28 4217.36 6549.8 4851.18 4165.36 5005.72 5368.52 6296.54 4841.7 5702.4 5797.21 5685.74 6740.35 4678.7 3673.6 5810.17 3306.84 4966.07 4657.24 5265.21 4400.14 4749.18 5494.28 5553.94 5166.41 4824.12 4067.96 6542.5 5206.47 5067.56 3834.47 4834.39 4383.47 6162.3 3272.75 5971.21 4057.17 5493.89 2781.96 4184.47 7066.96 3512.94 4467.0 3104.96 4587.7 5601.55 4258.98 5196.92 3787.08 4013.86 5644.81 4177.47 4816.51 4218.16 5218.42 5345.73 4933.49 6139.64 3990.94 4841.23 4756.8 4357.11 5477.8 5486.89 4462.35 4549.51 3587.93 5196.08 4517.29 6379.38 6257.79 4849.5 6229.83 4468.26 4523.81 5065.74 5578.18 5791.25 5106.33 4873.23 5198.94 4028.35 5933.54 5464.05 5453.2 3148.79 5264.83 6348.93 5136.51 6815.51 4332.64 5232.16 4422.23 5189.91 4820.68 3989.26 4171.02 7012.36 3530.82 5028.06 4002.99 4886.99 3161.1 5159.67 5764.52 3770.22 5684.88 4390.64 6523.78 4645.86 4045.67 5087.97 6005.95 4308.49 4930.17 4581.1 6241.77 4745.44 5762.82 7360.12 6223.98 5821.49 3035.06 5580.44 5998.13 5095.52 6275.25 4746.15 3720.38 4758.84 5023.61 4731.37 3976.0 4672.86 6530.78 5560.23 4975.32 3043.77 5237.55 3902.48 4304.64 3909.94 6030.39 4905.53 4823.06 3799.01 7392.65 5254.49 5288.64 3757.23 6734.39 5942.45 4150.76 4228.53 6123.46 4871.77 6142.88 5811.26 5062.77 5388.73 6019.35 6075.99 4884.93 6028.63 3450.07 5262.79 4550.92 5927.2 6215.87 5146.1 5191.26 4704.92 5866.42 3669.32 3663.0 4762.1 5610.53 4099.26 4954.81 2970.9 6304.49 4580.06 4608.34 3926.11 4835.97 5134.72 5695.79 5464.83 3622.8 4589.06 4140.04 4920.88 4770.51 5995.4 5414.58 4431.23 4991.35 4994.65 5740.98 4346.07 3999.5 4462.87 4012.92 6710.14 5759.79 5034.05 4598.54 4711.15 4426.02 3825.48 4474.39 4658.59 4770.63 5188.22 3810.68 2804.54 4196.62 2809.19 5005.6 5589.53 4104.04 7208.19 5025.42 5234.2 4965.24 5327.05 5438.55 5353.23 4434.65 5977.66 5209.5 6175.27 5876.51 6731.89 5410.6 2932.52 4733.41 4969.68 6636.43 3901.53 5431.14 5313.86 4457.05 5777.26 5151.19 6119.0 3792.06 5128.59 4293.3 5587.3 6583.37 3572.73 4864.38 4848.98 4491.96 5150.84 5184.98 4608.01 4467.51 5339.82 4519.03 5460.57 5110.27 4085.96 5703.34 4612.68 6668.98 6649.52 4232.33 5462.6 5617.29 4262.19 5770.92 4597.88 4845.91 4878.93 2002.78 5631.32 6892.33 4505.3 5793.14 4491.26 4452.36 4068.41 6463.71 5059.37 5783.38 4139.39 6264.03 5088.64 3562.8 6589.8 5319.1 3729.16 3783.36 4181.93 3038.91 3922.28 6828.8 6570.43 5987.88 3579.59 6883.86 6161.94 4065.28 5155.28 5057.59 5111.26 4461.14 5285.6 5205.38 4574.54 4949.55 4600.71 4764.83 3957.38 4494.15 5035.71 4419.79 6485.77 4710.88 6060.06 5544.27 3484.81 3742.31 4316.0 3987.69 4546.96 6502.99 5424.55 4287.25 4666.12 5755.15 4392.75 4921.1 4271.07 6219.34 3814.16 4191.01 6023.07 6419.64 4420.6 5340.05 6506.63 4215.05 3626.86 4668.8 6371.96 3495.3 5890.25 5577.41 5917.34 5700.79 6511.37 4216.44 4697.49 5735.08 4726.2 3953.26 5467.51 4282.11 4625.53 5459.92 4096.47 2347.41 4542.16 6478.35 5453.77 4916.7 2638.82 5030.33 5593.79 5157.73 5104.39 5847.91 4612.13 5846.6 4934.66 4109.44 4984.01 4903.84 4605.39 4290.49 4557.1 6688.53 5927.1 6500.45 4907.55 4286.61 4103.76 6605.11 4603.66 3557.46 4757.87 6379.33 5971.95 6298.8 3979.46 3689.24 6321.97 5178.07 6412.84 6509.54 2589.19 6079.55 5485.61 4993.49 5310.33 5308.4 3688.83 4569.32 3402.44 5537.61 6084.88 4397.06 4199.44 4053.12 4479.5 4014.44 6261.67 3435.13 5065.78 4431.46 4521.42 3207.84 3977.98 6043.34 4939.56 4747.68 4959.72 4712.17 3093.38 3808.04 4723.71 4461.67 6126.5 6322.0 6007.1 6345.2 4511.34 4609.65 4832.21 5009.21 4742.35 5410.73 5394.79 5645.54 4574.03 5264.08 4526.87 4151.74 5192.82 6920.92 5245.95 4174.22 3573.84 4067.89 6294.09 4571.57 3445.92 3350.99 3820.19 4979.5 5236.69 4586.82 4745.37 5939.29 5418.98 6200.05 5575.11 5615.06 3132.34 1969.87 5490.54 4841.28 5203.54 4047.95 6189.67 5507.38 6889.5 5001.69 3869.39 5407.69 5300.17 5960.5 5152.78 5308.33 5393.43 6896.55 4638.09 4685.65 4441.91 5377.01 5674.63 5330.26 5287.25 4475.38 5828.25 5939.22 4725.11 5418.12 4271.93 5934.05 5125.17 4604.1 5322.11 5322.07 4859.01 5076.11 5524.45 5990.75 7133.44 5600.21 4750.81 4656.01 6589.13 5602.62 5714.51 3543.37 2030.03 5114.67 5628.97 5353.66 5527.27 4484.78 5765.14 4541.22 3539.68 4946.08 2927.84 4696.03 6177.68 6217.33 4698.7 6270.59 2848.44 6045.26 6263.87 4094.63 5743.8 5084.76 5581.01 6834.92 5130.57 5652.73 5090.48 5402.45 3985.93 6071.59 3856.4 4696.06 4937.36 4137.16 5984.55 6581.13 5803.3 3228.27 4721.98 5252.82 3543.98 5056.26 5878.55 5445.91 6604.72 6002.77 3794.47 4610.55 4967.02 4614.49 5400.69 4128.93 4462.5 5573.31 5004.68 4023.88 5348.11 4405.61 5428.24 5108.84 4034.88 3511.5 4520.14 5067.92 5488.96 5704.61 5128.03 3720.92 4379.91 4942.63 5290.37 5850.38 4227.66 4691.01 4594.89 4730.97 3677.85 5821.42 5214.71 4515.02 3463.53 6126.03 5131.07 4121.07 5524.28 6026.04 3133.28 5731.43 5859.17 4052.49 3518.14 4034.41 5061.74 5326.03 6142.94 4420.35 4948.96 5717.45 5117.83 4416.87 5256.82 6581.56 4117.9 4052.43 3980.46 4057.4 5534.23 4753.76 5383.9 6025.77 3934.11 4466.22 5158.44 4781.9 6815.96 6470.23 5339.6 5917.08 5483.37 5092.93 4256.08 2803.01 5881.93 4714.66 4460.89 4444.0 4399.52 6771.18 5770.07 4984.17 5101.6 5327.39 5781.62 4037.86 4981.81 4138.59 4970.55 5141.03 4938.33 4819.83 4621.33 4801.16 4767.54 5071.38 5121.08 5688.77 5368.28 5466.13 5257.38 6229.64 4220.43 4975.56 7282.36 6666.34 4645.91 6959.88 4125.75 5749.53 3746.62 5247.73 4876.37 5034.02 5582.28 5945.25 4649.5 5181.31 5985.75 5475.83 6189.29 4329.8 5728.27 3074.49 5672.46 5202.33 3956.24 7558.99 4142.1 3393.59 5043.14 5333.04 5089.1 4812.59 4521.99 6842.54 7115.67 5675.45 5329.84 3361.11 6038.56 2807.46 6559.82 5599.16 4179.8 3488.34 4577.98 5658.35 5886.81 4487.51 4582.12 4295.25 7394.47 5357.14 3188.21 4850.95 5919.27 5087.3 6637.38 6139.74 4975.57 7066.26 3057.3 6150.31 5873.62 4677.84 4811.11 4996.91 4924.52 4866.8 5379.52 3768.62 6044.69 2970.24 4197.87 5105.54 5462.1 6353.81 4000.51 3414.67 6032.45 4150.44 5444.36 5522.34 4026.03 5771.98 5899.78 5000.74 5772.57 4813.81 5268.27 4013.86 4061.87 5165.31 4896.67 5448.64 4585.37 5901.8 3798.09 6417.61 4496.51 4288.5 4511.05 3886.56 6153.71 6561.94 5259.21 6738.9 5992.06 4157.1 8052.53 4554.24 6182.19 4867.12 5910.66 7415.84 4637.3 5734.07 4840.44 8123.59 3997.68 6286.27 6033.28 6327.54 5507.07 5616.66 4802.36 2943.17 5327.71 4880.78 4322.56 5509.09 5075.23 5625.02 3873.72 4592.49 5212.05 5479.86 4829.77 3826.01 4444.92 3928.99 4763.04 5971.9 5050.2 4532.67 2513.38 5316.05 4769.62 5260.13 3995.08 5019.84 4810.74 3900.93 4028.13 5784.38 4457.73 4149.17 6260.58 4067.24 3053.19 6571.26 4313.38 5580.95 3549.92 4032.06 2468.16 5246.81 5888.95 5394.78 3463.34 2853.68 5122.38 4998.37 5262.85 4210.24 5901.71 3879.83 6565.95 5043.34 6436.29 4246.24 6805.02 5354.48 4729.45 6261.13 5374.09 4793.06 6271.22 3421.81 6188.33 3920.64 6111.23 6916.18 5786.06 4137.41 3868.69 5447.74 3920.44 4450.51 6033.72 5314.67 3851.47 5658.05 4966.74 6593.1 5563.47 4066.36 3162.27 6033.93 5011.37 2827.92 5044.68 5092.44 2649.69 4441.44 6908.32 3467.11 4817.75 6153.26 5637.53 5244.95 4645.93 4634.25 3882.37 4095.4 5188.57 6351.48 5395.12 5715.51 5357.33 5783.69 3456.3 6074.39 5350.9 5317.83 3483.61 7430.48 5640.67 5545.68 6080.69 3939.96 5555.89 4970.12 4766.47 4967.93 6369.66 6044.01 6520.19 5973.57 1458.87 5922.62 6241.48 4414.09 5125.45 4188.16 5957.82 3784.68 3717.22 6649.21 4654.92 3470.69 4859.95 5286.55 5522.18 5223.1 4850.49 4981.55 3625.98 5144.23 6188.62 6474.5 4702.32 5944.52 5908.57 4413.56 4821.41 4908.32 4924.53 5616.11 4499.52 3874.12 5759.19 3113.64 6476.35 4304.75 5480.86 6139.9 4720.22 2832.83 5827.3 6598.99 5250.56 3010.1 3633.58 6294.14 4339.97 5203.75 5169.09 2459.88 4691.15 4512.6 5470.67 4260.38 4636.45 4932.27 5225.11 5342.9 5252.22 5733.12 4962.35 5402.81 4600.81 4919.13 5640.63 4900.26 5783.88 4167.55 4720.34 5244.47 5378.75 5510.89 6186.24 5822.7 3780.07 4159.89 5466.49 5178.55 4038.17 5007.41 4907.48 3692.99 6213.74 4959.94 5651.46 1635.31 5639.4 6185.73 5516.37 4083.24 6520.96 4232.44 4612.4 5336.61 3312.3 5563.09 4746.19 4848.15 6381.58 4439.09 3282.57 4798.13 5523.81 4718.61 6697.45 3873.79 5717.67 5515.59 3721.69 5252.37 3830.7 6210.0 5432.4 4262.52 4844.2 6572.17 3751.73 3374.62 4926.62 4871.1 3917.09 6009.93 5678.08 4083.1 5872.45 3482.73 5270.1 5130.56 4957.99 5191.29 4063.26 4947.64 6305.9 4542.62 5093.28 4132.08 6131.52 6009.88 4699.77 5093.41 6842.35 5464.34 3621.63 6153.07 4414.06 7296.47 5742.39 2613.78 4780.16 5738.37 4433.23 4813.24 5312.2 5847.27 4490.2 4706.59 5734.84 3982.31 4950.07 4582.24 3916.15 4474.96 4084.87 6036.99 5259.29 3584.05 3825.98 4916.75 4589.22 4818.53 5087.03 4667.84 3906.41 5584.64 4123.08 6224.64 4221.03 3799.55 5638.51 6793.49 3563.33 6060.19 5536.0 6786.37 3860.8 4333.23 5145.13 4328.76 5561.63 4124.33 5168.97 4358.06 5093.51 5002.38 6705.93 4865.11 4731.16 5502.14 6470.87 4495.33 4131.08 5282.67 5747.9 3864.19 5146.69 6203.24 6818.23 4488.41 2329.93 4369.87 6938.87 5412.07 5512.57 4806.99 3771.91 5432.2 5217.62 6178.19 3839.0 5349.85 4616.81 5212.2 5715.25 4362.94 4611.21 5648.59 4469.82 5108.42 4630.5 3354.94 6296.36 4432.32 5237.27 4451.76 3224.81 4499.54 3775.38 5037.58 4046.22 6457.89 4104.97 4081.77 4575.72 5114.61 6118.13 4420.3 2181.29 6332.64 4735.99 6492.44 4613.32 5145.39 3996.93 6351.95 5195.09 5345.05 4997.89 7679.2 4881.51 4909.74 4311.92 2626.41 6729.99 6664.54 3922.98 5161.73 5259.48 4777.96 5801.89 6833.5 6608.94 5417.07 3796.73 4644.68 3834.01 3082.16 5656.84 6789.66 4739.41 4694.27 6760.64 2515.5 5177.88 5551.79 6981.47 5367.05 4449.73 4758.76 4790.63 4088.72 3945.62 3743.85 6236.46 5097.85 6189.04 3795.63 5189.4 4576.71 5082.66 4550.77 3550.88 4337.93 5201.3 4345.51 4048.73 6223.33 5438.6 3747.96 5940.5 5611.29 6568.45 5647.93 5004.22 4280.92 6201.49 5449.09 5154.74 4605.61 4465.56 6898.8 5386.95 6540.57 4287.93 5332.11 5315.71 6158.93 5081.65 4823.14 6679.12 5652.19 4621.32 5806.74 6578.62 4813.55 5856.43 3465.03 4796.04 5229.56 6011.4 5799.86 5172.1 6052.22 5376.41 6545.78 4870.14 4404.87 2932.2 5105.72 5767.65 7885.41 5782.25 4750.76 4907.03 5497.27 5617.91 4948.21 4987.01 4444.95 4706.31 4721.2 4202.12 5161.02 6265.48 2694.25 5003.81 4203.68 6262.18 4739.56 3818.37 4701.03 3352.46 5663.36 6225.05 5434.04 5200.1 5994.21 3997.52 4444.54 5403.81 5779.9 6964.78 5310.33 5299.03 5036.84 4565.36 5813.68 4025.08 5040.9 4008.67 5254.93 3618.53 4803.4 4770.21 8013.28 3846.55 5283.65 5943.61 2892.36 5981.54 5911.29 5416.41 4542.25 4414.23 5233.88 4849.21 4785.55 3793.83 5245.4 6189.81 5647.11 5342.17 6379.3 5015.67 6538.04 4894.15 6157.59 5848.41 4090.28 4246.83 7370.52 4521.88 4726.5 5467.05 3724.23 5103.3 4601.54 7263.57 4696.92 3832.09 5705.96 6437.99 6632.04 5360.88 4893.72 6004.72 4072.4 5373.78 5345.65 2489.44 5438.5 5863.36 5699.4 3878.8 4698.94 6284.12 3948.21 5669.15 5296.05 5263.86 4672.34 3330.85 5056.32 5533.52 5003.63 5410.33 4695.7 4747.24 4944.08 4380.86 4082.01 5576.16 5269.39 5003.49 4305.35 3964.03 5210.22 4216.33 5832.72 3903.9 5606.22 3943.77 5242.38 3124.49 6081.35 5459.52 4609.98 5566.5 4276.59 4752.31 5579.04 5125.53 5405.6 4884.93 3929.35 4759.38 5082.25 4287.15 4374.05 5282.51 5504.65 5669.41 3760.4 5732.11 4602.7 5596.68 3783.35 4868.66 4004.39 5159.9 4987.48 4248.58 5479.17 5020.37 4963.88 5888.94 4727.98 4122.2 5175.88 5267.65 5739.69 4516.26 3509.34 4790.16 3647.26 7360.62 4977.64 4985.45 4983.56 5205.53 5699.51 5499.37 4489.18 4883.13 4632.75 5237.76 4994.98 4286.84 6423.96 6058.13 5894.69 6988.4 6635.51 4060.17 6051.35 5302.53 4909.13 4287.61 5648.02 4867.13 3308.75 4604.34 4439.17 2451.27 5677.42 4929.35 5051.39 6673.92 4633.59 5151.68 4884.94 5362.15 4455.61 4738.72 6874.6 5240.97 5106.9 5569.85 5306.31 4223.53 5523.96 4733.37 4535.94 6960.97 4523.9 5126.08 5604.0 4951.02 3919.47 4037.16 6395.63 3731.58 3166.37 5369.42 5207.08 4714.52 4587.19 5543.05 6028.89 4836.76 4752.94 5333.16 5551.09 3950.53 4501.1 5581.47 4384.91 4274.05 6550.61 4987.01 4713.56 6094.34 6779.82 5543.67 3999.81 6210.48 6377.45 4863.27 4182.05 2701.42 4502.12 5442.79 3255.93 6853.07 6327.61 5733.59 5575.8 5268.93 3695.72 3037.72 4888.17 5755.98 5392.85 5077.2 5275.27 4277.54 5529.09 4531.46 5925.82 5448.68 4739.5 4072.95 4491.62 3865.5 
SCALARS Velocity float 1
LOOKUP_TABLE default
1.33382 1.22019 1.25202 1.32887 1.49654 1.50333 1.48114 1.48233 1.45243 1.48537 1.49395 1.47625 1.43531 1.32282 1.31661 1.29456 1.27942 1.38223 1.42187 1.50321 1.5221 1.49946 1.4785 1.57098 1.52825 1.51917 1.51621 1.50649 1.49773 1.4773 1.48693 1.50698 1.44965 1.55599 1.46239 1.37139 1.28023 1.48304 1.45449 1.54061 1.50404 1.50213 1.49778 1.48119 1.59571 1.55903 1.52736 1.51664 1.50286 1.50945 1.50276 1.49541 1.49569 1.47728 1.49671 1.50327 1.49902 1.51537 1.42806 1.53385 1.5141 1.45454 1.57829 1.35418 1.50939 1.51285 1.53448 1.49742 1.49872 1.50159 1.57422 1.54661 1.50504 1.54671 1.51578 1.51764 1.51399 1.50979 1.49964 1.51228 1.50438 1.44243 1.57849 1.46745 1.63871 1.58812 1.5696 1.52764 1.51508 1.5008 1.50152 1.4963 1.52548 1.54608 1.47915 1.52645 1.47767 1.50576 1.50979 1.51446 1.52067 1.51265 1.51052 1.45005 1.60521 1.56466 1.59898 1.56396 1.56091 1.43537 1.56133 1.56692 1.51942 1.52503 1.52221 1.51911 1.50229 1.49606 1.50215 1.51142 1.54616 1.49618 1.48839 1.50093 1.51319 1.49964 1.46338 1.50597 1.51688 1.51728 1.51689 1.51245 1.52547 1.61482 1.53472 1.56537 1.46111 1.44641 1.5453 1.5622 1.52404 1.54028 1.51936 1.50761 1.49995 1.50634 1.52544 1.53317 1.49069 1.48366 1.49567 1.47538 1.49402 1.50712 1.50977 1.512 1.50217 1.50614 1.51532 1.51996 1.53028 1.57264 1.53178 1.53699 1.48104 1.45516 1.46164 1.52486 1.51194 1.53042 1.57114 1.52216 1.51494 1.50947 1.50262 1.51487 1.51447 1.52235 1.47442 1.49479 1.48838 1.4879 1.48788 1.51033 1.49976 1.49211 1.52882 1.55345 1.50974 1.49579 1.483 1.49115 1.47063 1.51866 1.48125 1.52093 1.51902 1.51514 1.50571 1.50432 1.51308 1.51431 1.4957 1.48264 1.49001 1.49194 1.49821 1.47915 1.49765 1.47132 1.52601 1.54058 1.55577 1.50436 1.51145 1.48201 1.47257 1.49394 1.49299 1.50947 1.50729 1.50279 1.50045 1.50188 1.51237 1.50955 1.50627 1.50229 1.49236 1.48597 1.48804 1.48858 1.48621 1.47819 1.48595 1.47239 1.47476 1.4836 1.4963 1.62674 1.51394 1.48109 1.47835 1.48354 1.47478 1.48969 1.49574 1.49428 1.50079 1.49218 1.4993 1.49349 1.49252 1.49731 1.49895 1.49689 1.49422 1.49073 1.48951 1.48714 1.48545 1.481 1.47893 1.48016 1.4747 1.47741 1.50386 1.54247 1.41901 1.49049 1.50172 1.48018 1.46186 1.49016 1.48689 1.49283 1.48801 1.48507 1.48417 1.49016 1.49023 1.48954 1.49174 1.48979 1.49046 1.49055 1.48943 1.48326 1.47823 1.47763 1.47611 1.48145 1.47951 1.49928 1.45432 1.47677 1.48788 1.47814 1.44493 1.48089 1.48135 1.48199 1.48243 1.47977 1.48274 1.48551 1.48445 1.48788 1.48915 1.49049 1.49006 1.49066 1.48947 1.48461 1.4777 1.47317 1.47115 1.47408 1.4698 1.46828 1.4641 1.46903 1.45954 1.47255 1.45831 1.47725 1.43773 1.47158 1.47683 1.46926 1.47192 1.47644 1.47631 1.47933 1.47756 1.48061 1.48152 1.4851 1.48237 1.4876 1.48834 1.48475 1.48976 1.49093 1.49008 1.48951 1.48217 1.46957 1.46489 1.4599 1.45799 1.45438 1.45262 1.45649 1.45433 1.4581 1.46715 1.46267 1.47058 1.43417 1.43223 1.44631 1.43855 1.44002 1.4604 1.47122 1.4741 1.47316 1.47435 1.47529 1.47824 1.47765 1.48083 1.48765 1.48392 1.48852 1.48979 1.48532 1.48632 1.47951 1.47548 1.46179 1.45692 1.45261 1.44869 1.44799 1.44912 1.45159 1.45548 1.45785 1.46506 1.42799 1.43273 1.44747 1.45375 1.46304 1.46947 1.46358 1.46991 1.47281 1.47127 1.47394 1.47761 1.48016 1.48712 1.48345 1.48677 1.48862 1.48832 1.4848 1.48599 1.4758 1.47791 1.47066 1.46367 1.44829 1.45317 1.4487 1.4476 1.44497 1.4441 1.44595 1.4526 1.45416 1.44889 1.45454 1.45789 1.19178 1.42131 1.42491 1.43583 1.42364 1.43076 1.44149 1.45629 1.46599 1.46802 1.46273 1.46959 1.47373 1.47883 1.47375 1.48453 1.48689 1.48412 1.48702 1.47643 1.46228 1.43235 1.43619 1.44237 1.43724 1.44227 1.44093 1.44211 1.44024 1.43851 1.44251 1.43809 1.44961 1.44397 1.45314 1.44879 1.45245 1.44934 1.41717 1.41282 1.41996 1.43477 1.4249 1.42983 1.45086 1.46363 1.45805 1.45611 1.46254 1.47602 1.47079 1.48365 1.4789 1.48463 1.48661 1.48708 1.48683 1.48433 1.48492 1.48231 1.46897 1.47653 1.4498 1.44109 1.42874 1.42489 1.4294 1.43303 1.43926 1.43618 1.43741 1.43376 1.43424 1.44526 1.43826 1.44697 1.44315 1.44713 1.41074 1.41672 1.41125 1.42263 1.41619 1.44469 1.44778 1.45348 1.46219 1.44902 1.47001 1.47687 1.47777 1.48566 1.47738 1.46255 1.44318 1.43374 1.42427 1.42039 1.42831 1.43773 1.43486 1.4344 1.43326 1.4306 1.42939 1.43138 1.43665 1.4434 1.44021 1.44502 1.44304 1.41012 1.41229 1.42221 1.43462 1.43913 1.42566 1.44376 1.44054 1.44241 1.44122 1.45956 1.46294 1.44945 1.4731 1.44753 1.4698 1.4654 1.44845 1.44128 1.43239 1.42239 1.42847 1.42234 1.42166 1.43074 1.42543 1.42998 1.42631 1.42785 1.42482 1.42989 1.4265 1.43801 1.44468 1.44147 1.44236 1.44054 1.43791 1.19178 1.41148 1.41462 1.41155 1.42078 1.41867 1.416 1.43687 1.43681 1.43403 1.44105 1.44356 1.42694 1.44396 1.46604 1.42435 1.45911 1.44933 1.44821 1.41292 1.45198 1.43344 1.42864 1.42693 1.42217 1.42403 1.42653 1.42877 1.42 1.44819 1.43775 1.42896 1.4347 1.19178 1.42583 1.41839 1.406 1.41369 1.41875 1.42022 1.40358 1.40293 1.44323 1.42646 1.44156 1.43609 1.38999 1.42489 1.43284 1.42052 1.45737 1.45742 1.41189 1.43891 1.43296 1.42996 1.42379 1.41421 1.41937 1.41941 1.42565 1.41598 1.44117 1.43283 1.42953 1.19178 1.40774 1.39596 1.43842 1.46191 1.41943 1.41845 1.39706 1.39923 1.42034 1.43666 1.41533 1.41522 1.39574 1.45046 1.39584 1.42822 1.41193 1.45646 1.43465 1.42602 1.3911 1.44505 1.38587 1.40021 1.42768 1.43443 1.42633 1.42889 1.41198 1.41197 1.40667 1.40753 1.41307 1.42823 1.41409 1.43069 1.43388 1.42908 1.42791 1.42814 1.42692 1.40258 1.41561 1.44933 1.46325 1.42596 1.40885 1.48891 1.53267 1.38709 1.39041 1.35614 1.3801 1.3988 1.41079 1.41333 1.42267 1.43387 1.41028 1.42481 1.40978 1.41223 1.39223 1.385 1.40917 1.40657 1.39925 1.39781 1.40349 1.40692 1.39834 1.40856 1.4046 1.40854 1.42131 1.40999 1.41857 1.42876 1.42424 1.42 1.43041 1.42322 1.42831 1.43303 1.4546 1.47897 1.44381 1.53686 1.50445 1.29674 1.35691 1.33321 1.36807 1.38211 1.40251 1.37696 1.42254 1.44081 1.4277 1.4206 1.40489 1.40026 1.3993 1.39408 1.39724 1.39493 1.40118 1.40588 1.38417 1.40785 1.38874 1.38072 1.38652 1.38951 1.3771 1.37582 1.39854 1.40869 1.43036 1.42076 1.41318 1.41028 1.41175 1.39011 1.40312 1.41743 1.42328 1.43308 1.19178 1.52047 1.54852 1.48522 1.43971 1.42727 1.37446 1.34313 1.41335 1.39222 1.40522 1.49346 1.43415 1.40232 1.42114 1.40509 1.38343 1.39953 1.40952 1.39058 1.38415 1.38762 1.36177 1.38998 1.39336 1.40877 1.36765 1.40184 1.46246 1.398 1.39425 1.40959 1.39466 1.40019 1.37769 1.39757 1.41119 1.38619 1.40357 1.41826 1.39911 1.3678 1.42033 1.39702 1.19178 1.19178 1.52285 1.57546 1.45656 1.61268 1.48766 1.37828 1.35039 1.48713 1.37096 1.45955 1.33092 1.42159 1.42151 1.35833 1.40803 1.30813 1.30848 1.28924 1.36634 1.4303 1.43152 1.33746 1.38141 1.3522 1.50421 1.37624 1.41001 1.4065 1.39306 1.41013 1.40345 1.36856 1.39615 1.41426 1.37848 1.40506 1.36124 1.43727 1.36888 1.31032 1.39727 1.47188 1.62861 1.41519 1.3126 1.41659 1.37301 1.34738 1.3811 1.34001 1.38922 1.33221 1.35778 1.34345 1.43408 1.33701 1.31914 1.29218 1.40951 1.32217 1.32416 1.28791 1.33274 1.43723 1.28491 1.40143 1.43197 1.35761 1.3935 1.44422 1.40723 1.27953 1.39 1.36631 1.38858 1.40054 1.36142 1.36071 1.39783 1.41871 1.50412 1.52418 1.50605 1.57282 1.08979 0.7819 0.918487 1.48651 1.02825 1.56855 1.57675 1.75455 1.63787 1.51976 1.48271 1.42943 1.43416 1.4022 1.26766 1.42443 1.33689 1.3506 1.40778 1.24284 1.36779 1.25393 1.34842 1.23271 1.28684 1.32278 1.29532 1.33644 1.31038 1.28237 1.31158 1.21271 1.42352 1.38702 1.34522 1.34507 1.37398 1.38899 1.40204 1.38491 1.3289 1.35361 1.4052 1.3381 1.2627 1.35963 1.47665 2.38352 1.72137 2.07265 1.8363 3.77065 2.64694 1.81259 1.93203 0.958702 1.00913 1.00937 1.08307 1.00731 0.931392 1.23284 1.18735 1.70206 1.84541 1.28537 1.29198 1.33394 1.29449 1.45635 1.46514 1.52102 1.24633 1.2768 1.30801 1.27912 1.31512 1.36203 1.41162 1.50501 1.3085 1.20106 1.27514 1.22534 1.26417 1.26801 1.26723 1.25358 1.24655 1.36314 1.16163 1.25966 1.35231 1.40471 1.38266 1.41348 1.3585 1.30752 1.3335 1.37458 1.48927 0.970161 1.65719 1.68531 1.11659 1.33918 1.58483 1.3105 1.1424 1.215 2.31168 1.27736 1.32967 1.62409 0.921539 1.42653 1.18482 0.841883 1.05426 0.845607 0.879763 0.907227 0.915863 0.927233 0.93081 0.89636 0.846128 0.892323 0.892846 0.899674 0.953636 0.98048 1.0203 1.56822 1.19366 1.20232 1.172 1.21146 1.17836 1.21621 1.17267 1.38429 1.26654 1.22388 1.20412 1.30768 1.42574 1.25059 1.23067 1.24746 1.24814 1.21911 1.36093 1.3211 1.09363 1.06965 0.999464 1.09152 1.22652 1.33904 1.32743 1.31643 1.31487 1.35322 1.19794 1.36373 1.32842 1.3423 1.40082 1.25123 1.0703 1.26986 1.26253 1.30808 1.29199 1.36196 1.23259 1.2019 1.16522 1.06104 0.856926 1.23264 1.30908 1.31642 0.946451 1.0772 1.16286 1.01268 0.938132 0.916338 0.794492 0.779238 0.794327 0.90177 0.903497 0.904673 0.906595 0.899262 0.900433 0.897973 0.894459 0.874751 0.877537 0.925819 0.869265 0.948003 0.944385 0.952936 1.04265 1.03261 1.06773 0.997373 1.15251 1.1808 1.30177 1.21203 1.30366 1.24796 1.14762 1.08906 1.04634 1.32104 1.25954 1.21125 1.19182 1.20932 1.15564 1.16122 1.31858 1.42113 1.2588 1.20675 1.14799 1.2068 1.18819 1.20091 1.24053 1.19242 1.11295 1.06259 1.12973 1.265 1.27085 1.34633 1.35452 1.14505 1.0105 1.4603 0.981541 1.34198 1.32063 1.19065 1.17898 1.15889 1.31435 1.08909 1.24805 1.26148 0.949587 0.907922 1.10418 1.02609 0.894897 0.859256 0.902713 0.825581 0.84746 0.85047 0.800186 0.831969 0.815338 0.813186 0.826741 0.919555 0.903938 0.904212 0.923702 0.898857 0.884753 0.894297 0.882777 0.884827 0.889452 0.922435 0.911049 0.922849 0.93382 0.982669 1.01446 1.06964 1.04881 1.11618 1.14612 1.19683 1.04288 1.21953 1.11588 1.09131 1.19468 1.22452 1.47755 1.25018 1.00218 0.880349 1.17683 1.25411 1.29201 1.13173 1.23982 1.07888 1.16096 1.12422 1.21624 1.10982 1.10448 1.05427 1.08266 1.15199 1.21075 1.08467 0.913294 1.23275 1.22165 1.04442 1.1412 0.821803 1.51854 1.13311 1.31206 1.1982 1.19067 1.26251 1.11911 1.21383 1.06728 1.21056 1.09256 1.11232 1.06561 1.05569 0.927326 0.815446 0.899774 0.891288 0.800973 0.848942 0.827719 0.823465 0.78139 0.854992 0.818758 0.861455 0.919322 0.831158 1.10241 0.915594 0.932725 0.930184 0.900003 0.881129 0.878274 0.951452 0.900614 0.893163 0.908173 0.894952 0.90281 0.887661 0.927583 0.928104 0.911404 0.928708 0.983027 0.922711 0.981116 0.902629 1.21936 1.07785 1.1281 1.15534 1.07585 1.10912 1.20806 1.04418 1.06528 0.996127 1.1335 0.975729 1.12644 1.08834 1.23928 1.05319 1.1219 1.00001 1.41303 1.54821 0.855422 1.07375 0.94756 0.661451 1.12709 1.07688 1.16245 1.08936 1.22099 0.968097 1.14179 1.2921 1.07003 1.0958 1.23634 1.00105 0.987164 0.98307 0.984108 0.962187 1.19263 1.05093 1.15082 1.04651 1.01537 0.962962 1.10472 1.08039 1.05037 1.06466 1.18648 0.941245 1.18276 1.13488 1.06043 0.992904 1.05413 1.02692 1.01467 1.00162 0.959051 0.860674 0.9043 0.859505 0.867461 0.852282 0.820213 0.851181 0.835365 0.969054 0.885299 1.18969 0.860638 1.47244 0.135215 0.271358 0.358964 0.881836 0.578968 0.460147 0.892188 0.924961 0.718388 0.863512 0.902263 0.833178 0.854482 0.854774 0.957421 0.954309 1.02287 0.941035 0.894739 0.841079 0.932128 0.907679 1.00157 1.00014 1.00097 0.94628 1.11979 1.13842 1.16077 1.15189 1.17922 1.18358 1.00326 1.04777 1.00474 0.98823 0.869103 0.954222 1.01128 1.00935 1.06532 1.09248 0.911498 1.01892 1.07937 0.950735 1.14151 1.04257 0.913884 0.976562 1.00812 1.14623 1.24722 0.985715 0.924058 0.719727 0.920194 0.839155 1.02914 0.953428 0.998075 0.957456 0.94867 1.07769 1.18947 0.75696 1.15354 1.03412 1.05655 0.866856 0.973082 1.00079 1.16326 0.879711 1.06707 1.00257 0.94873 0.892901 0.929433 0.958076 0.951877 0.909362 0.91935 0.786909 0.878118 0.794276 0.853828 0.879507 0.875332 0.621603 0.757893 0.804352 0.792501 1.0885 0.81906 1.04171 0.679765 0.45409 0.621607 0.594721 0.60552 0.572726 0.500746 0.45682 0.760195 0.893101 0.732291 0.805483 0.808114 0.796903 0.765635 0.687569 0.665555 0.605926 0.492484 0.69171 0.860579 0.671954 0.941003 0.891321 0.944406 0.895818 0.701462 0.847994 0.727768 0.816933 0.785882 1.04116 0.974383 0.968479 0.926901 0.92211 0.916117 0.866081 1.00278 1.0277 1.0608 0.943121 0.999611 0.985091 0.941765 0.96061 0.937529 1.01021 1.08671 1.17203 1.0872 0.945462 0.611622 0.976529 1.00184 1.0364 0.946561 0.919838 0.924882 0.932452 1.02367 1.02066 1.03565 0.915076 0.720914 0.775249 1.47027 1.14268 1.01849 1.03998 1.03186 0.905532 0.902824 0.86928 1.06202 0.639012 1.03065 0.815764 0.834277 0.821814 0.846787 0.814219 0.849159 0.755656 0.719717 0.762238 0.814984 0.955888 0.88834 0.878174 0.86277 0.872439 0.852738 0.835951 0.695744 0.810744 0.747004 0.685046 0.709705 0.75045 0.712874 0.729895 0.739103 0.749381 0.607138 0.598537 0.613932 0.572624 0.560545 0.525112 0.522727 0.872965 0.792484 0.851394 0.831184 0.779362 0.772479 0.80739 0.80743 0.697656 0.734583 0.634033 0.703611 0.757576 0.917652 0.843454 0.877611 0.889168 0.895475 0.810951 0.854398 0.80362 0.788515 1.00088 0.639522 0.737452 0.751955 0.873687 0.753511 0.935524 1.552 1.09174 0.906631 0.829765 0.853503 0.836128 0.86425 0.863963 0.819592 0.845652 0.805398 0.957251 0.909843 0.97297 0.945457 0.922275 0.920278 0.962917 1.03022 0.994006 1.07215 1.13391 1.0746 0.649427 0.683291 0.924974 1.03173 1.01975 0.956844 1.04122 0.913927 0.870817 0.912962 0.961974 0.99885 0.949965 0.915628 0.911834 0.794409 0.940994 0.872474 0.891214 0.948149 0.989197 0.986921 0.894264 0.888019 0.922772 0.912186 0.922982 0.88212 0.923631 0.854036 0.875993 0.878501 0.866761 0.8137 0.884681 0.734499 0.761583 0.720982 0.694074 0.758833 0.867572 0.896912 0.857716 0.856608 0.898551 0.901475 0.835939 0.823357 0.818644 0.777532 0.75394 0.766919 0.727143 0.745092 0.766461 0.747888 0.751292 0.759669 0.76572 0.766138 0.76395 0.619032 0.610876 0.612905 0.601831 0.602111 0.588142 0.587632 0.522592 0.534424 0.634869 0.829888 0.837196 0.810034 0.846949 0.896606 0.926028 0.858869 0.884272 0.853901 0.770912 0.806038 0.772963 0.773185 0.796857 0.83698 0.874281 0.926567 0.728932 0.719265 0.343491 0.599427 0.860206 0.808493 0.870259 0.855085 0.838323 0.751524 0.81948 0.883279 0.870298 0.860365 0.797799 0.822615 0.883339 0.911147 0.935142 0.957549 0.919564 0.913639 0.910178 0.919943 1.04065 1.01056 0.846302 1.07078 0.747211 1.0263 0.945453 1.00179 0.816927 0.936563 1.024 1.15239 0.918167 0.822084 0.825599 0.834781 0.878423 0.945718 0.912056 0.916296 0.933615 0.971975 0.88843 0.914826 0.972328 0.929178 0.916659 0.977694 0.975654 0.965458 0.895525 0.90916 0.905237 0.826224 0.871246 0.861632 0.847513 0.886369 1.00221 0.744887 0.894762 0.802786 0.689198 0.804667 0.763721 0.772933 0.825886 0.865684 0.812717 0.880196 0.807517 0.865324 0.821716 0.736752 0.772538 0.826877 0.809047 0.798783 0.782691 0.791315 0.747774 0.77186 0.752506 0.718933 0.771972 0.760685 0.760224 0.760529 0.758511 0.766104 0.620952 0.645477 0.634629 0.61737 0.623024 0.592769 0.608665 0.633113 0.655539 0.693399 0.704398 0.742058 0.800845 0.817661 0.814177 0.802349 0.796356 0.812134 0.826261 0.785076 0.78969 0.797932 0.708659 0.777319 0.937482 0.914687 0.880969 0.812464 0.762578 0.715265 0.721662 0.697706 0.685008 0.789991 0.827264 0.789335 0.827014 0.835044 0.859196 0.820739 0.846057 0.815193 0.804263 0.826544 0.833097 0.861531 0.876082 0.938898 0.922667 0.949993 0.900938 0.912907 0.898739 0.888392 0.879936 0.825126 0.812419 0.752102 0.884971 0.829295 1.12952 0.884133 0.849956 0.666338 0.807813 0.922783 0.86767 0.869907 0.819575 0.877454 0.915537 0.859451 0.916829 0.884874 0.970301 0.99616 0.791254 0.781741 0.848436 0.909491 0.881347 0.902151 0.909597 0.885351 0.905558 0.863253 0.856579 0.80498 0.851329 0.777233 1.12629 0.917412 0.878783 0.83402 0.812496 0.914461 0.875665 0.760648 0.896687 0.767602 0.761729 0.774217 0.79858 0.79603 0.797672 0.783435 0.78519 0.783502 0.747729 0.764181 0.687743 0.708307 0.783452 0.735952 0.758256 0.723846 0.753091 0.758172 0.710152 0.760485 0.766304 0.740252 0.757714 0.636217 0.63474 0.635734 0.634393 0.616203 0.670405 0.596444 0.673697 0.673859 0.680295 0.68116 0.713512 0.701173 0.70558 0.697903 0.665012 0.752787 0.786659 0.747973 0.819588 0.689475 0.710269 0.761762 0.744354 0.680998 0.713019 0.668461 0.811204 0.834533 0.799104 0.766303 0.757687 0.726891 0.727538 0.725744 0.758213 0.758701 0.810664 0.774582 0.79505 0.780911 0.82128 0.809192 0.793692 0.816565 0.851416 0.934876 0.915781 0.892837 0.94234 0.924032 0.87989 0.902496 0.872117 0.775161 0.816845 0.688295 0.875963 0.851022 0.938025 0.825879 0.773723 1.00726 0.75317 0.816493 0.921484 0.647194 0.782962 0.751867 0.894503 0.851862 0.891017 0.850102 0.881423 0.919488 0.925368 0.81908 0.75865 0.775595 0.829741 0.828058 0.896606 0.796111 0.815457 0.84967 0.735574 0.952896 0.962484 0.860054 0.899315 0.86757 0.894564 0.847943 0.896363 0.570508 0.667704 0.778099 0.86497 0.814656 0.759697 0.698256 0.761781 0.723357 0.735952 0.750826 0.768579 0.715879 0.763747 0.757361 0.756976 0.730576 0.73699 0.728264 0.702181 0.725912 0.706371 0.687303 0.730601 0.706727 0.681385 0.791068 0.672608 0.715977 0.740357 0.746717 0.698308 0.702104 0.740742 0.729512 0.660253 0.638845 0.64739 0.635438 0.63111 0.643723 0.641995 0.636247 0.588803 0.576792 0.751696 0.641834 0.688756 0.667161 0.674931 0.693124 0.664087 0.735934 0.7887 0.753837 0.732703 0.685113 0.696249 0.716525 0.696017 0.724673 0.718258 0.71511 0.903348 0.787506 0.767008 0.776846 0.78926 0.738754 0.713794 0.718949 0.729432 0.725987 0.749643 0.79181 0.794948 0.783863 0.78875 0.824522 0.817884 0.817128 0.815859 0.915027 0.870759 0.885335 0.750726 0.712166 0.928767 0.802993 0.865238 0.763748 0.67172 0.693887 0.691411 0.813171 0.807836 0.852331 0.906122 0.764259 0.652833 0.74817 0.69447 0.733345 0.886482 0.670279 0.766998 0.5847 0.743078 0.987916 0.863887 0.79282 0.790986 0.792514 0.76234 0.851976 0.80053 0.692489 0.788535 0.729257 0.687263 0.686118 0.853689 0.814703 0.844074 0.848395 0.883057 0.814755 0.781556 0.791365 0.722384 0.788856 0.742048 0.799139 0.78901 0.703469 0.692144 0.668674 0.697228 0.724078 0.766129 0.72174 0.710676 0.734185 0.731732 0.738278 0.739809 0.729534 0.730152 0.718539 0.715173 0.682719 0.686927 0.69276 0.689504 0.689967 0.669959 0.731608 0.671305 0.662475 0.685134 0.589698 0.602991 0.624525 0.623955 0.661623 0.68325 0.663845 0.650846 0.652208 0.68893 0.659076 0.652171 0.658143 0.672237 0.644376 0.652783 0.62268 0.686605 0.744567 0.652145 0.671813 0.605242 0.659462 0.683397 0.690833 0.705148 0.703291 0.737207 0.708969 0.692657 0.718414 0.727845 0.765919 0.711342 0.735364 0.750138 0.747892 0.790086 0.721217 0.697206 0.712802 0.699828 0.73148 0.769442 0.805495 0.786286 0.79485 0.806942 0.822452 0.784735 0.776426 0.761474 0.771551 0.895353 0.707445 0.68485 0.674048 0.677016 0.673154 0.79778 0.742651 0.776235 0.790714 0.755572 0.779274 0.927577 0.981976 0.735889 0.632157 0.721072 0.780955 0.769542 0.942223 0.742243 0.84857 0.838989 0.813668 0.793473 0.824784 0.860288 0.8149 0.767298 0.732189 0.707556 0.712269 0.749401 0.716446 0.709786 0.745262 0.738165 0.806032 0.790165 0.873917 0.647829 0.804426 0.711797 0.784688 0.826868 0.764304 0.735592 0.807287 0.718077 0.674681 0.665708 0.72867 0.768737 0.684463 0.718319 0.655993 0.688578 0.735425 0.71931 0.729315 0.71052 0.711164 0.699399 0.703856 0.680126 0.688532 0.675794 0.667387 0.678788 0.662982 0.660043 0.650659 0.674026 0.655236 0.670749 0.751242 0.56687 0.624693 0.623385 0.585378 0.597986 0.615619 0.606758 0.629392 0.664189 0.672937 0.686103 0.670894 0.696785 0.717533 0.729468 0.715786 0.677293 0.689728 0.673262 0.65972 0.662054 0.642217 0.632022 0.691929 0.655735 0.689185 0.636022 0.716054 0.815327 0.712319 0.755262 0.742033 0.778563 0.771734 0.762139 0.727686 0.718611 0.712211 0.694081 0.713935 0.751644 0.724305 0.733274 0.751617 0.755499 0.777393 0.752886 0.736285 0.737016 0.794661 0.798749 0.832418 0.794631 0.834364 0.873431 0.684114 0.566625 0.705221 0.790873 0.747618 0.819622 0.72288 0.754699 0.649866 0.630751 0.701513 0.677556 0.694983 0.706421 0.792245 0.742258 0.673456 0.736598 0.676296 0.735788 0.77437 0.774843 0.819095 0.835762 0.717284 0.749501 0.903801 0.720256 0.713289 0.727067 0.773154 0.64508 1.06848 0.736696 0.66282 0.871617 0.900618 1.00194 0.768585 0.847489 0.783177 0.910064 1.02235 0.706508 0.68284 0.617543 0.710102 0.603747 0.66174 0.77453 0.634886 0.716335 0.822331 0.747977 0.827715 0.738946 0.906991 0.983394 0.606364 0.607124 0.588109 0.692989 0.800976 0.808586 0.755075 0.730435 0.774797 0.646651 0.68345 0.612413 0.687525 0.664217 0.623408 0.591336 0.636181 0.628499 0.633176 0.659793 0.695329 0.721414 0.697031 0.720933 0.681774 0.716402 0.673034 0.693628 0.677747 0.667444 0.661627 0.645793 0.667031 0.656402 0.6901 0.622225 0.664776 0.685375 0.632688 0.658977 0.628685 0.644947 0.646833 0.65766 0.66906 0.664955 0.685664 0.591799 0.660967 0.680815 0.662453 0.661802 0.661155 0.663192 0.679711 0.63784 0.674648 0.687749 0.686691 0.670018 0.644765 0.644222 0.605661 0.664165 0.651574 0.678773 0.656756 0.730821 0.71575 0.727001 0.748985 0.73463 0.749956 0.702915 0.654539 0.669949 0.674418 0.685612 0.702652 0.745066 0.763405 0.775217 0.761915 0.764812 0.769155 0.749333 0.759256 0.804049 0.857999 0.548762 0.57487 0.672635 0.563259 0.659136 0.734567 0.777453 0.760782 0.705693 0.669484 0.680271 0.661953 0.70286 0.724353 0.709383 0.720194 0.789315 0.762097 0.810091 0.796487 0.789623 0.737201 0.793284 0.759204 0.754553 0.765159 0.760843 0.763485 0.793439 0.771485 0.557081 0.654466 0.761215 0.670111 0.847154 0.83275 0.847025 0.773386 0.754449 0.992454 0.557718 0.737357 0.64827 0.708674 0.677206 0.847546 0.673602 0.920908 0.582698 0.655433 0.61022 0.723074 0.732267 0.677952 0.675863 0.599992 0.68017 0.638248 0.631097 0.662341 0.627979 0.637912 0.631462 0.639407 0.671803 0.659089 0.690743 0.674656 0.688188 0.666607 0.665933 0.654342 0.650756 0.657045 0.642694 0.6912 0.642232 0.673987 0.658982 0.617837 0.637187 0.638987 0.629994 0.649418 0.653411 0.66428 0.659678 0.693569 0.686302 0.682245 0.694113 0.685205 0.53566 0.544414 0.523954 0.565736 0.568611 0.614217 0.56123 0.685335 0.640969 0.676881 0.688063 0.659796 0.645451 0.64315 0.638091 0.615561 0.610733 0.616877 0.607402 0.679904 0.672463 0.6803 0.675512 0.668012 0.68738 0.59258 0.749025 0.72827 0.729022 0.727038 0.756888 0.719531 0.667087 0.722518 0.777302 0.677822 0.632721 0.669265 0.648052 0.65792 0.645954 0.658377 0.768683 0.675747 0.80836 0.775337 0.729525 0.750436 0.742333 0.765661 0.742589 0.761429 0.718166 0.71922 0.678578 0.643791 0.676063 0.72336 0.691897 0.750515 0.740475 0.744409 0.739992 0.684698 0.717028 0.696348 0.668057 0.683094 0.682655 0.680238 0.668242 0.715841 0.728116 0.731933 0.759315 0.771961 0.772474 0.832618 0.839639 0.780085 0.692081 0.775443 0.74726 0.781579 0.785875 0.795014 0.782244 0.70781 0.767258 0.737615 0.727874 0.703725 0.715568 0.698699 0.700232 0.770364 0.644478 0.765449 0.989058 0.721563 0.999706 0.763542 0.637289 0.620591 0.697818 0.707853 0.65916 0.79196 0.770565 0.726897 0.744599 0.654851 0.697287 0.748549 0.751932 0.564481 0.716422 0.752421 0.642986 0.642498 0.688784 0.642897 0.634686 0.666689 0.711958 0.702472 0.730972 0.680868 0.735008 0.667563 0.669784 0.664744 0.675637 0.649927 0.674517 0.655389 0.706847 0.688974 0.642564 0.534003 0.796188 0.703867 0.653708 0.622052 0.768246 0.437839 0.666536 0.636939 0.630158 0.657619 0.687171 0.615833 0.673403 0.61126 0.592935 0.555044 0.578664 0.542003 0.542192 0.532017 0.542474 0.523163 0.535279 0.527216 0.529591 0.569377 0.578294 0.593754 0.602023 0.663647 0.648498 0.658856 0.680295 0.656193 0.656877 0.643836 0.62154 0.615374 0.611481 0.62439 0.684838 0.616379 0.684644 0.707877 0.660661 0.687231 0.664992 0.588055 0.672642 0.687853 0.61925 0.69083 0.6511 0.62924 0.630498 0.615539 0.611086 0.597504 0.77943 0.682732 0.837349 0.701272 0.74743 0.732367 0.714546 0.745025 0.763586 0.748429 0.682022 0.636649 0.678687 0.626937 0.636609 0.659042 0.642326 0.686742 0.691076 0.698061 0.703707 0.683696 0.683538 0.676674 0.692491 0.685437 0.694724 0.686637 0.688675 0.689836 0.726989 0.711493 0.737577 0.735593 0.756917 0.761688 0.759917 0.760491 0.780869 0.759631 0.713397 0.7485 0.775346 0.805612 0.810977 0.803174 0.79481 0.782173 0.75301 0.77646 0.760823 0.718333 0.73564 0.726101 0.702645 0.707478 0.713476 0.751073 0.716107 0.837647 0.768301 0.740887 0.713231 0.691681 0.633231 0.692906 0.648319 0.680629 0.647532 0.645613 0.711012 0.850822 0.783277 0.63841 0.481899 0.852988 0.520745 0.888701 0.70656 0.681904 0.696309 0.730933 0.658225 0.664927 0.615644 0.621987 0.6567 0.675397 0.704882 0.750789 0.703942 0.739021 0.669529 0.60809 0.644246 0.63575 0.666517 0.681173 0.613578 0.621096 0.571363 0.606356 0.292466 0.599962 0.508383 0.473096 0.543538 0.557153 0.660011 0.553479 0.442349 0.645756 0.663147 0.25271 0.436808 0.569764 0.550344 0.591527 0.578759 0.530253 0.525765 0.539883 0.540271 0.539632 0.556189 0.542188 0.530759 0.551831 0.518332 0.529057 0.54461 0.587813 0.541902 0.551066 0.631813 0.650012 0.555644 0.63005 0.6628 0.64595 0.630393 0.62087 0.598345 0.584837 0.553381 0.505147 0.607647 0.596534 0.591611 0.593292 0.623143 0.587444 0.632534 0.61032 0.664142 0.638343 0.659027 0.623312 0.592855 0.652582 0.679328 0.719539 0.722745 0.72029 0.679657 0.682711 0.664551 0.657434 0.654264 0.637444 0.648957 0.657607 0.662389 0.674216 0.669525 0.671675 0.676913 0.683155 0.687271 0.697797 0.698851 0.703256 0.702443 0.722975 0.733872 0.743595 0.76851 0.769746 0.778955 0.744494 0.755801 0.761601 0.758757 0.780298 0.804934 0.784797 0.774782 0.774083 0.779703 0.765603 0.773479 0.74875 0.711727 0.706813 0.724409 0.705541 0.729132 0.680914 0.656113 0.654443 0.624017 0.634398 0.663646 1.094 0.796176 0.64858 0.787383 0.727714 0.784277 0.791551 0.587644 0.653061 0.683412 0.556415 0.730193 0.674293 0.639896 0.636984 0.645692 0.610961 0.526706 0.724948 0.599315 0.600788 0.793171 0.70675 0.649726 0.603399 0.616152 0.580018 0.616209 0.6107 0.543959 0.586336 0.589977 0.586843 0.579022 0.535774 0.538258 0.532572 0.563958 0.57077 0.5546 0.576516 0.390439 0.498903 0.42481 0.513713 0.428876 0.432902 0.466747 0.424127 0.52168 0.524511 0.532783 0.526474 0.532225 0.533539 0.527184 0.50337 0.560583 0.58852 0.482717 0.859832 0.675989 0.599027 0.658772 0.657301 0.516996 0.541016 0.541827 0.508404 0.511892 0.474936 0.416529 0.565283 0.59966 0.516866 0.57411 0.514585 0.480902 0.678517 0.632387 0.77856 0.684567 0.649447 0.652771 0.65099 0.681603 0.717427 0.680077 0.698594 0.666018 0.661986 0.686793 0.660162 0.663554 0.67058 0.654629 0.647205 0.642823 0.642829 0.64836 0.645857 0.659204 0.671528 0.6726 0.66854 0.668966 0.674792 0.690158 0.683809 0.693084 0.699554 0.702263 0.704399 0.712899 0.713005 0.728534 0.733364 0.736306 0.760707 0.747109 0.77144 0.775848 0.789401 0.76009 0.754359 0.783472 0.746583 0.777848 0.77629 0.791877 0.784581 0.768503 0.768014 0.782271 0.78587 0.811456 0.755787 0.715186 0.710173 0.710061 0.702976 0.698733 0.683153 0.663082 0.660724 0.65806 0.669637 0.638005 0.639457 0.666212 0.930945 0.861585 0.0891531 0.350312 0.514106 0.750497 0.63539 0.620273 0.601511 0.680257 0.576688 0.557021 0.549782 0.530375 0.55139 0.652852 0.625779 0.52811 0.590343 0.457597 0.62073 0.590295 0.608757 0.593895 0.57184 0.569386 0.547582 0.594555 0.563241 0.562465 0.556823 0.557556 0.566184 0.579829 0.617298 0.585657 0.544925 0.551598 0.379354 0.437864 0.518018 0.455603 0.449538 0.44012 0.425509 0.406764 0.441108 0.500664 0.512884 0.515981 0.524677 0.530465 0.532393 0.549045 0.556587 0.683745 0.560549 0.623581 0.5659 0.603473 0.456833 0.647222 0.288117 0.553893 0.451101 0.563798 0.549082 0.529144 0.509973 0.495428 0.461275 0.437389 0.526939 0.609899 0.516736 0.567934 0.53913 0.559154 0.514737 0.559034 0.565948 0.416109 0.664162 0.4921 0.575252 0.664458 0.621441 0.640775 0.641768 0.633784 0.650173 0.650467 0.647902 0.64764 0.640639 0.642516 0.641607 0.641021 0.650775 0.650037 0.665513 0.659239 0.665121 0.668775 0.678631 0.695713 0.70743 0.726371 0.726904 0.727778 0.73786 0.743647 0.759924 0.782523 0.772069 0.78306 0.782225 0.781676 0.767655 0.761611 0.762638 0.809513 0.804492 0.785835 0.758097 0.769739 0.764707 0.754449 0.777864 0.798262 0.783174 0.861676 0.716314 0.700019 0.721087 0.720452 0.730132 0.715273 0.702615 0.688821 0.689493 0.66759 0.68199 0.669564 0.666784 0.669181 0.680235 0.676873 0.521001 0.587613 0.653847 0.605395 0.624008 0.622922 0.609644 0.625952 0.735324 0.670384 0.594333 0.556155 0.537091 0.651359 0.541975 0.661069 0.829877 0.525346 0.580348 0.538598 0.538598 0.554694 0.535309 0.505024 0.508311 0.483564 0.545036 0.484846 0.493825 0.538875 0.573538 0.574867 0.590498 0.619321 0.613217 0.609027 0.528021 0.599204 0.539538 0.42417 0.475488 0.486858 0.494107 0.502963 0.453151 0.412265 0.503132 0.43465 0.33935 0.327502 0.47124 0.54209 0.498469 0.487399 0.49839 0.528719 0.51828 0.524353 0.534426 0.535002 0.534475 0.529363 0.543319 0.530487 0.540427 0.523946 0.578381 0.443302 0.538901 0.570429 0.315345 0.175548 0.149782 0.367309 0.529957 0.584346 0.536365 0.500556 0.541142 0.510818 0.510216 0.510399 0.504571 0.514189 0.557973 0.554528 0.53916 0.53696 0.529532 0.525841 0.487076 0.54276 0.563786 0.587711 0.558025 0.597686 0.627116 0.620978 0.630241 0.632901 0.639578 0.651632 0.647936 0.649388 0.639715 0.643641 0.643497 0.650518 0.658402 0.651356 0.663503 0.67822 0.683576 0.698613 0.7163 0.745004 0.739871 0.734512 0.729475 0.738015 0.759872 0.778876 0.781705 0.76364 0.768749 0.781486 0.798634 0.843459 0.84337 0.801254 0.771656 0.738834 0.740829 0.729614 0.746624 0.805304 0.835431 0.672696 0.733302 0.731983 0.72001 0.70856 0.698535 0.692238 0.68586 0.686317 0.675048 0.681338 0.670393 0.670814 0.663814 0.673003 0.641022 0.649219 0.639768 0.6582 0.659561 0.625051 0.642841 0.56222 0.55678 0.559701 0.540333 0.723562 0.346803 0.579715 0.494906 0.537982 0.536783 0.513687 0.526109 0.500767 0.488858 0.495022 0.515993 0.565465 0.537425 0.583346 0.579502 0.554334 0.57478 0.607839 0.413841 0.62588 0.519697 0.548233 0.447997 0.519103 0.32848 0.584222 0.394184 0.428598 0.409658 0.526919 0.52895 0.586278 0.51754 0.527325 0.562268 0.648254 0.485617 0.513962 0.510531 0.516342 0.494697 0.500684 0.49572 0.473864 0.428463 0.464957 0.605511 0.768534 0.404293 0.535511 0.0288277 0.412654 0.460959 0.269958 0.574528 0.483871 0.478144 0.536005 0.497134 0.506495 0.512967 0.507861 0.535302 0.519962 0.544999 0.534925 0.532967 0.529103 0.535285 0.561253 0.551628 0.565964 0.582931 0.581503 0.579583 0.598276 0.609257 0.614533 0.622969 0.639783 0.639769 0.649696 0.659641 0.652975 0.660071 0.654849 0.646038 0.647918 0.641937 0.638302 0.645549 0.648689 0.655757 0.678582 0.68402 0.694075 0.716437 0.731316 0.748376 0.771064 0.73453 0.706051 0.72544 0.725679 0.740399 0.758797 0.770279 0.773563 0.789845 0.791665 0.821095 0.770121 0.904164 0.830389 0.949282 0.768012 0.740898 0.740507 0.765553 0.813673 0.715608 0.709044 0.736391 0.720879 0.703864 0.70153 0.694275 0.701165 0.70066 0.698906 0.688011 0.664778 0.672674 0.669595 0.673333 0.664102 0.65085 0.658192 0.653122 0.676045 0.688958 0.718647 0.732262 0.684205 0.555643 0.412587 0.579946 0.581171 0.643831 0.629714 0.598554 0.53452 0.581353 0.557512 0.497126 0.551489 0.493584 0.490109 0.49483 0.490257 0.515107 0.50615 0.573221 0.539314 0.580299 0.5832 0.537822 0.433571 0.61152 0.414001 0.494215 0.414492 0.586471 0.538662 0.89713 0.536789 0.394359 0.237836 0.277873 0.400598 0.456894 0.307942 0.440419 0.50727 0.656977 0.748002 0.712199 0.643009 0.631249 0.380222 0.457136 0.464488 0.480398 0.481628 0.48359 0.490816 0.475718 0.480871 0.44416 0.424239 0.416672 0.383907 0.441735 0.357439 0.389045 0.207766 0.261713 0.433203 0.494931 0.507282 0.494547 0.500556 0.46983 0.485769 0.511846 0.499135 0.48996 0.508119 0.522349 0.530269 0.52873 0.536262 0.538671 0.535558 0.550782 0.548234 0.562132 0.575301 0.600091 0.614022 0.632029 0.652817 0.650014 0.654544 0.669928 0.662513 0.664674 0.659813 0.646015 0.646812 0.623216 0.665193 0.680763 0.692151 0.722164 0.748692 0.766816 0.774583 0.70215 0.717292 0.736458 0.746556 0.757904 0.762252 0.775293 0.796943 0.810206 0.86406 0.883805 0.502415 0.768757 0.406521 0.865834 0.762995 0.745368 0.741641 0.717502 0.775427 0.737765 0.680219 0.712045 0.727056 0.723881 0.728946 0.708772 0.706923 0.7049 0.703639 0.70628 0.70665 0.705227 0.671236 0.6641 0.679784 0.667491 0.660139 0.659349 0.656874 0.679388 0.848816 1.03256 0.339299 0.393236 0.471105 0.537877 0.410174 0.572 0.587329 0.55483 0.598711 0.586033 0.571189 0.574426 0.572608 0.574525 0.562086 0.509014 0.518045 0.491947 0.494006 0.484312 0.493856 0.510863 0.541456 0.530748 0.656547 0.472001 0.955638 0.685685 0.609913 0.342246 0.271651 0.489389 0.938529 0.400924 0.153167 0.685304 0.13955 0.0766273 0.0935076 0.202655 0.257555 0.103079 0.252948 0.426401 0.226888 0.400439 0.40553 0.959399 1.08744 1.36887 1.27068 0.352323 0.32552 0.292991 0.333414 0.405323 0.435644 0.417748 0.430409 0.447853 0.421361 0.46122 0.31122 0.332072 0.31833 0.309948 0.380827 0.41975 0.467458 0.425232 0.447773 0.474662 0.472259 0.486873 0.477122 0.486595 0.498021 0.519736 0.526766 0.54228 0.532753 0.536819 0.540739 0.543291 0.544462 0.547576 0.560938 0.548026 0.557599 0.563064 0.576284 0.601501 0.619177 0.642521 0.634066 0.664213 0.663711 0.669029 0.6832 0.682012 0.673838 0.668137 0.669624 0.669559 0.667559 0.649015 0.588434 0.652597 0.706515 0.69583 0.674372 0.727391 0.771164 0.803365 0.704881 0.731238 0.722114 0.706346 0.720299 0.745867 0.759238 0.771101 0.791594 0.81009 0.827216 0.847764 0.854956 0.772384 0.617772 0.645708 0.829036 0.752808 0.743295 0.730181 0.72891 0.736408 0.700512 0.729574 0.722162 0.725303 0.717764 0.691056 0.694423 0.701271 0.706788 0.702307 0.712995 0.720158 0.678071 0.672534 0.667022 0.674169 0.67878 0.679221 0.666336 0.66143 0.666136 0.63037 0.655908 0.652596 1.02882 0.534217 0.384805 0.310946 0.608686 0.55782 0.53352 0.577939 0.529882 0.570928 0.573121 0.58154 0.578028 0.584959 0.578959 0.512321 0.476088 0.473708 0.4745 0.483066 0.473759 0.488836 0.4717 0.493349 0.519325 0.612458 0.0975925 0.68942 0.308474 0.338122 0.394178 0.415611 0.442512 0.451493 0.21185 0.140418 0.157886 0.0884978 0.248851 0.0685243 0.251185 0.68213 0.240585 0.916216 2.30788 0.890055 0.284193 0.275074 0.297444 0.222668 0.40218 0.393966 0.420818 0.435098 0.482799 0.293484 0.270756 0.326753 0.30656 0.337175 0.370349 0.417348 0.451164 0.459627 0.459432 0.464795 0.466565 0.460859 0.491835 0.445911 0.571676 0.55232 0.545559 0.546969 0.548732 0.544469 0.549634 0.555377 0.571276 0.575417 0.565557 0.572264 0.611458 0.63426 0.622382 0.641636 0.680124 0.703815 0.671743 0.669357 0.658542 0.665064 0.559948 0.734719 0.706364 0.728463 0.714544 0.684267 0.839585 0.779506 0.723075 0.710901 0.723973 0.715568 0.738433 0.758348 0.778342 0.80969 0.82187 0.858752 0.652403 0.66868 0.720291 0.828242 0.814258 0.743508 0.724157 0.73417 0.741694 0.74907 0.737778 0.727911 0.728434 0.717593 0.698331 0.702297 0.699226 0.700114 0.702297 0.708193 0.612466 0.662089 0.673537 0.675588 0.682945 0.689907 0.653975 0.675915 0.651196 0.688453 0.658549 0.874912 0.750762 0.611662 0.55209 0.421643 0.644209 0.568951 0.556953 0.563511 0.548884 0.575525 0.598989 0.500073 0.581292 0.475069 0.489575 0.46725 0.474408 0.452893 0.549311 0.478813 0.564093 0.542996 0.458594 0.335488 0.446166 0.326082 0.376159 0.452124 0.547731 0.370868 0.27376 0.274007 0.2476 0.218351 0.220209 0.211841 0.131294 0.090039 0.165381 0.628841 1.66623 0.654214 0.558056 0.260988 0.380481 0.295656 0.23444 0.407767 0.450191 0.376899 0.372785 0.251652 0.304736 0.338169 0.373734 0.406543 0.402905 0.429281 0.441519 0.420773 0.457634 0.387496 0.598948 0.5555 0.552195 0.559442 0.552688 0.54724 0.548736 0.559491 0.573577 0.585395 0.574357 0.629341 0.639716 0.653572 0.644261 0.748268 0.705821 0.68532 0.669018 0.662638 0.652008 0.645346 0.644721 0.819056 0.803773 0.721052 0.699764 0.711589 0.696357 0.676525 0.620607 0.791743 0.746427 0.727054 0.719776 0.732502 0.71633 0.694398 0.678972 0.765294 0.855539 0.85022 0.896147 0.498194 0.72618 0.883146 0.48366 0.585605 0.798148 0.697791 0.739305 0.725993 0.775127 0.759552 0.782393 0.742846 0.736557 0.73019 0.710501 0.704001 0.697498 0.704205 0.73585 0.718802 0.640882 0.66456 0.670486 0.676851 0.687098 0.652934 0.655451 0.642972 0.721344 0.897545 0.687196 0.531024 0.611924 0.525361 0.627211 0.558256 0.568485 0.552807 0.548329 0.553198 0.552942 0.584351 0.543538 0.660131 0.546516 0.399779 0.497765 0.436631 0.452076 0.442326 0.448499 0.430088 0.501058 0.613375 0.48128 0.390232 0.305637 0.36336 0.432248 0.452912 0.521139 0.408873 0.314563 0.237654 0.224982 0.213064 0.0912595 0.199149 0.206571 0.466584 1.12059 0.447554 0.323057 0.434547 0.372362 0.29608 0.27585 0.305788 0.327956 0.376029 0.399164 0.415862 0.431333 0.431343 0.43901 0.574176 0.459145 0.578214 0.547405 0.547903 0.544508 0.543336 0.54711 0.55802 0.556393 0.563183 0.560625 0.525652 0.541103 0.532109 0.540209 0.582271 0.693763 0.649539 0.71136 0.578048 0.642054 0.673587 0.665702 0.660422 0.660031 0.661028 0.665978 0.713064 0.729828 0.780201 0.768665 0.684413 0.693854 0.656593 0.672579 0.678089 0.648804 0.564731 0.574606 0.749094 0.746829 0.743424 0.709691 0.715656 0.386765 0.777648 0.656327 0.71014 0.733803 0.641706 0.570757 0.893758 0.813052 0.882066 0.633685 0.71454 0.724455 0.768632 0.752879 0.748399 0.721689 0.716113 0.713589 0.693563 0.660818 0.651893 0.654543 0.678081 0.679285 0.681664 0.681508 0.690061 0.685264 0.728941 0.635626 0.588235 0.542359 0.582691 0.587786 0.566683 0.575284 0.548266 0.562071 0.544406 0.548605 0.551034 0.554462 0.546212 0.529832 0.498787 0.457353 0.4804 0.46003 0.473492 0.471673 0.484996 0.518826 0.418664 0.22943 0.465226 0.312299 0.378651 0.343293 0.432377 0.380499 0.307353 0.231406 0.275775 0.290021 0.30464 0.274846 0.327082 0.496906 0.826788 0.70948 0.423518 0.358109 0.433502 0.388371 0.263183 0.196738 0.247513 0.273649 0.286217 0.289213 0.298368 0.368658 0.393215 0.39981 0.425124 0.434158 0.452447 0.455884 0.648712 0.397736 0.64899 0.574496 0.545663 0.546391 0.54195 0.534053 0.542664 0.558902 0.569486 0.57408 0.535988 0.556319 0.556555 0.599927 0.643343 0.596614 0.692515 0.685934 0.675913 0.657968 0.66594 0.652328 0.627664 0.613476 0.669168 0.685924 0.677073 0.640832 0.646185 0.57744 0.684587 0.736165 0.773939 0.772512 0.750857 0.696556 0.56672 0.377782 0.59273 0.636402 0.688654 0.81003 0.806226 1.01781 0.82189 0.549904 0.276346 0.514097 0.668389 0.690624 0.688681 0.729881 0.701884 0.675086 0.773709 0.714827 0.728134 0.703383 0.725509 0.729795 0.689196 0.666371 0.64518 0.675756 0.684098 0.69401 0.694237 0.685678 0.712519 0.655084 0.619537 0.596923 0.586194 0.580739 0.570437 0.563717 0.552479 0.543398 0.541469 0.555395 0.537515 0.51677 0.518198 0.503426 0.489309 0.486405 0.50396 0.522317 0.560001 0.491723 0.206576 0.58443 0.537655 0.408117 0.38798 0.357095 0.395586 0.348185 0.342204 0.347722 0.355838 0.272638 0.377744 0.400247 0.305224 0.401308 0.55507 0.389936 0.443952 0.422859 0.146658 0.276214 0.307003 0.450177 0.384716 0.401173 0.383661 0.428492 0.437046 0.423347 0.432657 0.444226 0.428091 0.428998 0.412882 0.547417 0.539821 0.535415 0.518091 0.525847 0.528802 0.551865 0.617541 0.574332 0.583291 0.640556 0.664829 0.653505 0.690579 0.666337 0.659832 0.643787 0.632062 0.636495 0.680693 0.682226 0.698038 0.649954 0.634097 0.607286 0.550389 0.698766 0.699379 0.705435 0.752074 0.759841 0.715212 0.747363 0.680006 0.572595 0.627382 0.614063 0.59992 0.668307 0.734751 0.754269 0.729261 0.52003 0.828444 0.839229 0.669932 0.672247 0.667469 0.596323 0.702262 0.679148 0.727395 0.778732 0.807148 0.647387 0.689894 0.725799 0.788085 0.711715 0.720451 0.704354 0.693055 0.66184 0.642516 0.664275 0.677276 0.6963 0.699047 0.704081 0.686234 0.6332 0.614169 0.607283 0.590402 0.580382 0.574285 0.566976 0.570225 0.540846 0.548417 0.539618 0.527179 0.522187 0.503123 0.483341 0.498008 0.486116 0.50731 0.55638 0.55792 0.468699 0.537593 0.478546 0.411208 0.466005 0.426124 0.418874 0.425773 0.362486 0.389749 0.369282 0.415239 0.30284 0.347502 0.387987 0.504271 0.474762 0.395265 0.384801 0.378622 0.374041 0.412691 0.496145 0.343709 0.811607 0.358229 0.48957 0.342882 0.423935 0.422348 0.440532 0.446625 0.446603 0.448741 0.524494 0.55394 0.543664 0.530209 0.53489 0.535814 0.569141 0.599499 0.577498 0.582176 0.571107 0.658991 0.667514 0.698488 0.672224 0.64597 0.644099 0.636266 0.626824 0.622168 0.637648 0.64024 0.635374 0.672117 0.710214 0.634016 0.604598 0.559481 0.70148 0.718053 0.770873 0.791238 0.715466 0.686395 0.661811 0.724313 0.630986 0.66909 0.402558 0.877009 0.849274 0.912476 0.6545 0.705943 0.629406 0.638521 0.63185 0.63304 0.651617 0.741037 0.660421 0.661285 0.703931 0.71632 0.728716 0.687435 0.710179 0.686582 0.664954 0.653714 0.673563 0.684226 0.709602 0.722128 0.668696 0.633749 0.608732 0.618535 0.595095 0.590552 0.584106 0.580035 0.583309 0.528628 0.516691 0.538431 0.535043 0.529776 0.534559 0.462809 0.547741 0.470812 0.524199 0.521305 0.549154 0.513591 0.491369 0.426518 0.370198 0.405214 0.408145 0.449412 0.352268 0.341938 0.401094 0.412157 0.454662 0.379014 0.381126 0.38981 0.409949 0.421329 0.565192 0.461172 0.324123 0.385807 0.19429 0.581194 0.311886 0.303418 0.390846 0.410588 0.434814 0.434571 0.453541 0.456465 0.438596 0.44955 0.452446 0.540367 0.552472 0.551179 0.573367 0.542574 0.523423 0.529754 0.55895 0.559983 0.595269 0.561185 0.590383 0.535576 0.492039 0.610142 0.407379 0.643115 0.598404 0.677392 0.667301 0.639141 0.622237 0.614862 0.645922 0.656189 0.671514 0.700913 0.698602 0.587037 0.623549 0.587396 0.561887 0.702187 0.724007 0.707458 0.780501 0.803639 0.9816 0.895412 0.67921 0.684546 0.635428 0.595073 0.709106 0.669252 0.719724 0.706017 0.748485 0.734465 0.680938 0.663032 0.657839 0.649383 0.647341 0.655618 0.682491 0.661995 0.647333 0.60604 0.599223 0.589733 0.58691 0.587546 0.592807 0.597447 0.496427 0.533002 0.540562 0.522347 0.532952 0.542086 0.53947 0.457529 0.508109 0.538619 0.569186 0.549118 0.507526 0.482386 0.504543 0.365221 0.501697 0.409818 0.319815 0.464738 0.446244 0.25293 0.363296 0.34592 0.460354 0.405385 0.440887 0.385585 0.363655 0.428319 0.375328 0.372453 0.247163 0.279987 0.416157 0.452399 0.443119 0.431132 0.444048 0.451019 0.463525 0.533728 0.556791 0.543325 0.561017 0.574969 0.550173 0.547138 0.554772 0.554808 0.583724 0.583838 0.490173 0.594528 0.498782 0.649903 0.665208 0.676695 0.672985 0.634965 0.65107 0.669408 0.687567 0.676044 0.660552 0.651585 0.646259 0.663241 0.701145 0.631474 0.740512 0.648878 0.642132 0.649281 0.627427 0.616954 0.603299 0.592321 0.593724 0.590927 0.595401 0.599304 0.483924 0.516875 0.535266 0.508941 0.526572 0.529193 0.532137 0.469624 0.480515 0.585276 0.51896 0.506814 0.435229 0.421505 0.510605 0.37037 0.289077 0.42862 0.404219 0.422474 0.392914 0.377369 0.38603 0.41372 0.381898 0.363298 0.26634 0.447692 0.472065 0.444377 0.42261 0.482162 0.459711 0.496597 0.492166 0.536773 0.559236 0.550769 0.564851 0.560563 0.534004 0.548101 0.556957 0.570045 0.479499 0.567897 0.670614 0.674223 0.664444 0.62661 0.621182 0.607645 0.59277 0.584794 0.598653 0.475888 0.509255 0.529209 0.522548 0.542487 0.510102 0.536491 0.51656 0.474476 0.480429 0.44268 0.569654 0.430335 0.464997 0.54196 0.501161 0.4286 0.2651 0.371925 0.412052 0.408727 0.364071 0.378135 0.397398 0.388751 0.400353 0.37563 0.47824 0.459588 0.445256 0.419803 0.532485 0.538513 0.509635 0.487922 0.454587 0.487249 0.498186 0.518234 0.564102 0.525824 0.596043 0.421484 0.256304 0.354354 0.201966 
SCALARS Stress float 1
LOOKUP_TABLE default
-74109300000.0 -19346900000.0 -68641400000.0 -106797000000.0 -137989000000.0 -136669000000.0 -45307300000.0 -164201000000.0 -254855000000.0 -181757000000.0 -264478000000.0 -319308000000.0 -181912000000.0 -58371600000.0 -78245300000.0 -130159000000.0 -189608000000.0 -152270000000.0 -361636000000.0 -843025000000.0 -216264000000.0 -425385000000.0 -885844000000.0 -331984000000.0 -424564000000.0 -185943000000.0 -500472000000.0 -144788000000.0 -278057000000.0 -655058000000.0 -312199000000.0 -559787000000.0 -158631000000.0 -311895000000.0 -472483000000.0 -234078000000.0 -185384000000.0 -504641000000.0 -538794000000.0 -136064000000.0 -2.01929e+12 -563967000000.0 -799298000000.0 -898944000000.0 -462807000000.0 -823122000000.0 -642987000000.0 -420879000000.0 -455530000000.0 -715487000000.0 -1.50625e+12 -474107000000.0 -818471000000.0 -485607000000.0 -546561000000.0 -949732000000.0 -1.00688e+12 -367168000000.0 -178158000000.0 -515287000000.0 -493328000000.0 -437686000000.0 -112640000000.0 -577035000000.0 -1.88854e+12 -1.41423e+12 -1.9446e+12 -1.47028e+12 -432271000000.0 -431203000000.0 -1.18728e+12 -1.49303e+12 -1.83979e+12 -3.16816e+12 -1.37948e+12 -1.10033e+12 -977747000000.0 -1.57221e+12 -933491000000.0 -1.16165e+12 -1.18378e+12 -1.50862e+12 -862782000000.0 -1.27887e+12 -604856000000.0 -1.33873e+12 -2.04112e+12 -1.94903e+12 -1.57391e+12 -440511000000.0 -1.82132e+12 -1.78386e+12 -437474000000.0 -1.82767e+12 -2.37822e+12 -1.59635e+12 -1.38212e+12 -1.80092e+12 -875959000000.0 -2.31961e+12 -879912000000.0 -728818000000.0 -956420000000.0 -1.3727e+12 -1.65068e+12 -1.2676e+12 -1.23206e+12 -496805000000.0 -845720000000.0 -1.83801e+12 -1.29606e+12 -2.7058e+12 -998082000000.0 -1.9906e+12 -1.76863e+12 -2.81889e+12 -2.40457e+12 -2.3065e+12 -2.38311e+12 -1.02195e+12 -3.81859e+12 -779145000000.0 -1.53508e+12 -2.1745e+12 -1.41631e+12 -2.06181e+12 -1.37584e+12 -1.99664e+12 -3.91082e+12 -1.00222e+12 -2.41247e+12 -3.27959e+12 -789705000000.0 -440487000000.0 -1.807e+12 -1.593e+12 -1.13571e+12 -1.24218e+12 -1.80642e+12 -2.89347e+12 -3.8606e+12 -2.42588e+12 -4.91098e+12 -1.62845e+12 -3.28981e+12 -1.50474e+12 -3.57837e+12 -3.59324e+12 -823880000000.0 -3.45945e+12 -2.08123e+12 -1.66331e+12 -3.14631e+12 -3.0753e+12 -2.91655e+12 -1.81195e+12 -2.13448e+12 -2.47202e+12 -1.02958e+12 -719718000000.0 -1.58455e+12 -2.17809e+12 -2.13618e+12 -3.44131e+12 -2.06015e+12 -487556000000.0 -711649000000.0 -1.39469e+12 -1.56678e+12 -4.4149e+12 -1.75429e+12 -2.90426e+12 -4.20781e+12 -3.54477e+12 -3.26398e+12 -3.00942e+12 -3.45068e+12 -3.73809e+12 -2.45967e+12 -2.97433e+12 -3.52598e+12 -3.25675e+12 -2.86827e+12 -3.23646e+12 -4.24922e+12 -2.81249e+12 -2.57811e+12 -2.76374e+12 -3.64654e+12 -2.50131e+12 -1.62745e+12 -2.17649e+12 -1.3217e+12 -2.32898e+12 -2.15427e+12 -2.53749e+12 -5.0497e+12 -1.15565e+12 -3.68905e+12 -4.34558e+12 -6.29154e+12 -2.32633e+12 -3.7152e+12 -423833000000.0 -4.50047e+12 -2.92475e+12 -1.31185e+12 -3.8734e+12 -4.08624e+12 -3.32783e+12 -2.17782e+12 -2.504e+12 -4.09925e+12 -1.27207e+12 -4.19823e+12 -3.75289e+12 -1.52209e+12 -2.54632e+12 -2.37501e+12 -3.99739e+12 -3.43528e+12 -1.65363e+12 -5.29457e+12 -3.83903e+12 -3.07438e+12 -4.31221e+12 -4.15108e+12 -4.62584e+12 -3.37687e+12 -2.63234e+12 -3.79586e+12 -4.6864e+12 -5.70567e+12 -4.8079e+12 -4.64146e+12 -4.56363e+12 -3.56847e+12 -4.82539e+12 -5.52378e+12 -5.25553e+12 -2.33338e+12 -6.85857e+12 -3.15342e+12 -1.62601e+12 -2.61866e+12 -1.80367e+12 -1.58158e+12 -2.23469e+12 -2.40605e+12 -3.37751e+12 -4.78978e+12 -3.33002e+12 -6.34991e+12 -2.42402e+12 -2.7381e+12 -3.98492e+12 -3.26626e+12 -5.95602e+12 -4.32601e+12 -3.11345e+12 -6.01213e+12 -3.41353e+12 -3.14115e+12 -3.55584e+12 -5.08869e+12 -3.83685e+12 -4.97222e+12 -2.62095e+12 -2.98775e+12 -5.4906e+12 -3.18062e+12 -5.30521e+12 -4.24282e+12 -4.91483e+12 -4.03555e+12 -4.21159e+12 -2.25186e+12 -4.94935e+12 -2.99506e+12 -6.31918e+12 -5.01762e+12 -5.62184e+12 -3.17074e+12 -2.08462e+12 -3.6295e+12 -3.25847e+12 -5.52411e+12 -4.31945e+12 -5.15187e+12 -4.50556e+12 -4.14006e+12 -4.05485e+12 -6.35288e+12 -2.76771e+12 -6.71915e+12 -5.34613e+12 -2.87557e+12 -4.02264e+12 -3.49536e+12 -6.22284e+12 -6.26156e+12 -7.27093e+12 -4.89407e+12 -4.64922e+12 -4.75555e+12 -5.84632e+12 -6.46316e+12 -4.3795e+12 -2.55919e+12 -2.96995e+12 -6.3678e+12 -3.51015e+12 -7.03431e+12 -4.10707e+12 -3.47549e+12 -2.56229e+12 -4.08058e+12 -4.85264e+12 -4.0029e+12 -4.97143e+12 -3.35529e+12 -2.65525e+12 -5.1747e+12 -6.50817e+12 -6.69768e+12 -6.3223e+12 -4.17842e+12 -4.54734e+12 -4.12156e+12 -2.26508e+12 -4.15695e+12 -4.70014e+12 -5.92259e+12 -3.90014e+12 -6.30222e+12 -6.7661e+12 -4.39482e+12 -3.64642e+12 -4.04901e+12 -4.43338e+12 -4.78453e+12 -4.00727e+12 -4.53621e+12 -7.09244e+12 -4.05436e+12 -6.175e+12 -4.86686e+12 -5.25484e+12 -2.28791e+12 -4.65547e+12 -5.21927e+12 -3.98199e+12 -4.12995e+12 -1.80608e+12 -4.56251e+12 -5.07203e+12 -3.88661e+12 -6.18162e+12 -4.55378e+12 -1.37746e+12 -2.07211e+12 -5.44196e+12 -3.21433e+12 -2.49799e+12 -5.11634e+12 -4.57786e+12 -4.90632e+12 -4.53239e+12 -5.5465e+12 -6.35424e+12 -6.07679e+12 -4.18224e+12 -4.79769e+12 -3.80795e+12 -2.53657e+12 -4.34896e+12 -5.83303e+12 -2.56912e+12 -3.55097e+12 -3.73171e+12 -4.38802e+12 -5.40535e+12 -5.86786e+12 -2.7035e+12 -5.03244e+12 -5.24865e+12 -3.9969e+12 -2.99909e+12 -5.72378e+12 -5.57538e+12 -6.46241e+12 -4.26522e+12 -5.45217e+12 -6.30004e+12 -3.40495e+12 -5.33045e+12 -5.32693e+12 -4.97158e+12 -4.63147e+12 -4.86144e+12 -6.84076e+12 -5.77011e+12 -4.04913e+12 -4.83322e+12 -4.21189e+12 -4.96431e+12 -5.32759e+12 -5.15191e+12 -5.54614e+12 -3.4303e+12 -4.33648e+12 -3.0438e+12 -3.7245e+12 -3.79764e+12 -4.97736e+12 -6.64292e+12 -5.5528e+12 -5.66268e+12 -4.58316e+12 -4.94243e+12 -4.93381e+12 -6.33722e+12 -5.66127e+12 -6.80142e+12 -3.72906e+12 -2.02577e+12 -5.51475e+12 -12549700000.0 -2.78249e+12 -4.84526e+12 -4.8493e+12 -4.19201e+12 -4.34409e+12 -3.88999e+12 -7.17032e+12 -4.42251e+12 -5.11785e+12 -3.04387e+12 -6.08903e+12 -3.69707e+12 -4.70259e+12 -2.72175e+12 -5.97643e+12 -2.85345e+12 -3.70568e+12 -5.38173e+12 -3.84263e+12 -6.8381e+12 -7.32676e+12 -3.78521e+12 -3.89939e+12 -6.06861e+12 -6.28417e+12 -6.86488e+12 -5.19742e+12 -7.72494e+12 -4.03514e+12 -3.6158e+12 -5.17791e+12 -4.81328e+12 -4.9327e+12 -5.71015e+12 -6.1632e+12 -3.25926e+12 -3.34852e+12 -3.10697e+12 -6.02275e+12 -4.41079e+12 -5.70285e+12 -3.3557e+12 -3.99119e+12 -7.69141e+12 -3.87699e+12 -5.19969e+12 -4.83771e+12 -6.93862e+12 -3.95251e+12 -7.29126e+12 -5.19965e+12 -5.71231e+12 -5.01948e+12 -5.28886e+12 -3.56057e+12 -5.76977e+12 -5.07518e+12 -2.96708e+12 -5.07834e+12 -8.6123e+12 -8.01186e+12 -6.22979e+12 -5.79414e+12 -4.3278e+12 -6.25847e+12 -4.79768e+12 -3.68364e+12 -5.53548e+12 -3.63534e+12 -5.02976e+12 -5.6927e+12 -2.60215e+12 -4.57062e+12 -5.44161e+12 -5.28452e+12 -6.05525e+12 -2.04595e+12 -3.23446e+12 -7.10528e+12 -6.5243e+12 -6.50535e+12 -7.53234e+12 -8.04702e+12 -6.92817e+12 -5.573e+12 -6.34631e+12 -3.09144e+12 -4.86249e+12 -6.06208e+12 -4.93997e+12 -8.06989e+12 -6.07841e+12 -5.71451e+12 -4.01491e+12 -3.1496e+12 -5.11267e+12 -6.85478e+12 -6.25581e+12 -4.43683e+12 -5.31205e+12 -6.15533e+12 -3.43248e+12 -5.30917e+12 -2.12364e+12 -6.56676e+12 -8.05551e+12 -3.64088e+12 -9.06252e+12 -3.12127e+12 -2.83175e+12 -5.78933e+12 -7.32647e+12 -9.69784e+12 -6.23999e+12 -4.03628e+12 -6.68569e+12 -5.8099e+12 -4.57404e+12 -3.41936e+12 -1.13481e+13 -5.75849e+12 -6.25569e+12 -5.04523e+12 -4.33593e+12 -5.5389e+12 -1.12853e+13 -7.85989e+12 -3.23405e+12 -9.11396e+12 -9.42969e+12 -4.88748e+12 -5.76096e+12 -3.78792e+12 -5.72276e+12 -6.18821e+12 -7.08165e+12 -1.114e+13 -3.96903e+12 -4.47381e+12 -6.05428e+12 -6.50018e+12 -6.07331e+12 -7.93906e+12 -5.22416e+12 -4.63342e+12 -7.06022e+12 -3.3368e+12 -6.45295e+12 -12549700000.0 -4.0245e+12 -7.10334e+12 -5.21073e+12 -9.57075e+12 -3.2594e+12 -6.24777e+12 -5.25583e+12 -5.03782e+12 -7.92924e+12 -8.08381e+12 -7.19007e+12 -7.59897e+12 -4.56435e+12 -5.49359e+12 -5.27062e+12 -7.36123e+12 -5.70423e+12 -3.88006e+12 -5.07147e+12 -7.57626e+12 -1.21571e+13 -7.10881e+12 -6.90572e+12 -9.65326e+12 -9.149e+12 -1.18509e+13 -7.38976e+12 -5.01115e+12 -9.33531e+12 -7.42392e+12 -5.24676e+12 -3.13794e+12 -12549700000.0 -6.29417e+12 -7.3401e+12 -6.79564e+12 -3.57434e+12 -5.45886e+12 -5.88349e+12 -3.43099e+12 -7.0531e+12 -5.59125e+12 -1.07827e+13 -6.57955e+12 -5.38757e+12 -6.53172e+12 -4.86528e+12 -5.53629e+12 -7.01715e+12 -5.04891e+12 -5.20007e+12 -7.14034e+12 -6.8871e+12 -8.1872e+12 -7.95356e+12 -7.32748e+12 -6.75204e+12 -3.09569e+12 -8.43221e+12 -5.34386e+12 -1.05485e+13 -1.49483e+13 -7.23931e+12 -7.81941e+12 -12549700000.0 -2.24671e+12 -4.57817e+12 -4.60605e+12 -7.69597e+12 -6.0204e+12 -5.01312e+12 -6.36486e+12 -4.29386e+12 -7.62934e+12 -8.20317e+12 -2.72398e+12 -6.62683e+12 -6.48498e+12 -6.69532e+12 -5.1901e+12 -4.41534e+12 -6.80785e+12 -8.04949e+12 -5.11138e+12 -6.88584e+12 -4.70776e+12 -7.3252e+12 -6.5811e+12 -7.03131e+12 -4.88412e+12 -5.21037e+12 -7.72159e+12 -5.76085e+12 -8.74903e+12 -1.04019e+13 -4.14003e+12 -6.94873e+12 -2.78968e+12 -5.58965e+12 -1.15493e+13 -7.50079e+12 -8.71106e+12 -1.20883e+13 -8.46144e+12 -4.46215e+12 -5.76355e+12 -4.62238e+12 -3.85033e+12 -3.4175e+12 -2.90125e+12 -5.54824e+12 -6.43369e+12 -5.05577e+12 -4.01399e+12 -5.05554e+12 -3.96345e+12 -8.19873e+12 -4.22514e+12 -8.31716e+12 -6.47229e+12 -5.78213e+12 -7.39446e+12 -3.07255e+12 -6.19573e+12 -2.81723e+12 -7.84318e+12 -6.14323e+12 -7.04202e+12 -4.47927e+12 -4.69769e+12 -7.18807e+12 -2.0458e+12 -4.079e+12 -9.24607e+12 -3.66465e+12 -4.145e+12 -5.45662e+12 -6.05364e+12 -6.29693e+12 -7.12e+12 -5.21776e+12 -9.4646e+12 -7.18849e+12 -8.70898e+12 -5.5339e+12 -8.7345e+12 -3.03126e+12 -3.67657e+12 -3.57286e+12 -4.32155e+12 -3.46435e+12 -6.48657e+12 -5.41471e+12 -7.38797e+12 -4.30805e+12 -5.52951e+12 -9.64668e+12 -6.55705e+12 -4.30109e+12 -7.00965e+12 -4.23435e+12 -4.61105e+12 -7.23462e+12 -6.6787e+12 -5.69226e+12 -6.27083e+12 -6.88396e+12 -3.81986e+12 -8.50847e+12 -4.21702e+12 -5.31547e+12 -1.01412e+13 -3.69264e+12 -5.72298e+12 -9.04815e+12 -3.58989e+12 -4.45019e+12 -5.90863e+12 -7.66201e+12 -3.74333e+12 -8.80934e+12 -3.98915e+12 -5.08465e+12 -3.83996e+12 -6.17933e+12 -6.77473e+12 -5.84662e+12 -1.09782e+13 -7.10147e+12 -8.87304e+12 -9.53168e+12 -5.85784e+12 -4.91338e+12 -12549700000.0 -5.61129e+12 -5.07772e+12 -6.69307e+12 -6.05605e+12 -1.09987e+13 -1.29564e+13 -6.2651e+12 -9.74992e+12 -6.17443e+12 -9.70861e+12 -6.99466e+12 -9.11503e+12 -4.19423e+12 -6.62065e+12 -4.72758e+12 -1.32821e+13 -6.16778e+12 -4.54042e+12 -6.79907e+12 -8.16378e+12 -8.43214e+12 -8.54593e+12 -2.8657e+12 -5.28515e+12 -1.00205e+13 -9.84831e+12 -5.05135e+12 -8.75599e+12 -7.47055e+12 -6.38925e+12 -7.08409e+12 -5.40818e+12 -5.31268e+12 -6.05616e+12 -5.55937e+12 -6.15713e+12 -7.00463e+12 -7.89013e+12 -5.01387e+12 -3.74203e+12 -2.96287e+12 -4.1995e+12 -4.24719e+12 -12549700000.0 -12549700000.0 -6.77507e+12 -3.02398e+12 -4.61077e+12 -5.49044e+12 -6.29433e+12 -1.00282e+13 -8.47319e+12 -1.03047e+13 -5.27419e+12 -7.04347e+12 -9.00264e+12 -5.54432e+12 -9.76826e+12 -1.0095e+13 -7.62844e+12 -8.50226e+12 -7.43722e+12 -1.02235e+13 -9.97779e+12 -8.13972e+12 -6.51039e+12 -6.92663e+12 -1.08355e+13 -8.61115e+12 -8.02916e+12 -1.07016e+13 -5.43182e+12 -5.18452e+12 -7.73234e+12 -4.53427e+12 -4.90789e+12 -6.69967e+12 -7.14046e+12 -9.19386e+12 -4.75469e+12 -6.10965e+12 -5.14554e+12 -6.80237e+12 -5.10663e+12 -5.86182e+12 -6.84824e+12 -4.07772e+12 -4.44014e+12 -5.32556e+12 -8.19711e+12 -8.17358e+12 -5.13274e+12 -7.03227e+12 -9.9035e+12 -7.32026e+12 -8.35936e+12 -7.58565e+12 -8.99578e+12 -6.30502e+12 -5.46841e+12 -3.68518e+12 -5.98947e+12 -4.34958e+12 -5.63034e+12 -6.60448e+12 -6.34914e+12 -7.02579e+12 -5.16939e+12 -6.79984e+12 -5.28558e+12 -4.66438e+12 -9.60822e+12 -5.58317e+12 -6.13631e+12 -1.30002e+13 -9.9923e+12 -5.58761e+12 -5.10107e+12 -5.88137e+12 -7.91115e+12 -9.25943e+12 -1.04688e+13 -5.78746e+12 -5.04337e+12 -4.89455e+12 -1.22599e+13 -8.85875e+12 -2.70722e+12 -5.22814e+12 -4.289e+12 -4.37372e+12 -4.10281e+12 -7.20582e+12 -6.87763e+12 -5.73502e+12 -6.97407e+12 -9.34177e+12 -3.54502e+12 -6.82836e+12 -8.73318e+12 -1.15736e+13 -7.65806e+12 -7.8388e+12 -6.70827e+12 -8.10488e+12 -1.38583e+13 -9.90826e+12 -4.55947e+12 -7.5224e+12 -8.47846e+12 -3.84268e+12 -7.41665e+12 -4.29145e+12 -2.69639e+12 -8.79811e+12 -7.30967e+12 -6.24146e+12 -2.52878e+12 -7.71444e+12 -6.07289e+12 -1.18335e+13 -8.61844e+12 -8.45523e+12 -6.53799e+12 -9.35859e+12 -6.0196e+12 -4.1825e+12 -7.39679e+12 -8.29662e+12 -8.08247e+12 -5.81106e+12 -7.73617e+12 -6.27423e+12 -9.39549e+12 -4.54874e+12 -9.72054e+12 -1.19503e+13 -9.77488e+12 -9.25323e+12 -3.78417e+12 -7.22863e+12 -5.91173e+12 -4.45726e+12 -6.19007e+12 -4.4281e+12 -4.17021e+12 -6.5535e+12 -7.72163e+12 -7.11775e+12 -9.40515e+12 -7.83601e+12 -8.8287e+12 -8.56143e+12 -4.81045e+12 -5.62988e+12 -4.69741e+12 -5.38773e+12 -6.82614e+12 -7.50257e+12 -8.57647e+12 -5.81577e+12 -6.89493e+12 -5.97151e+12 -6.23959e+12 -1.5074e+13 -6.25982e+12 -6.07947e+12 -7.51991e+12 -8.22468e+12 -4.84477e+12 -8.62661e+12 -4.6668e+12 -6.95465e+12 -8.03398e+12 -9.63416e+12 -4.96226e+12 -8.85863e+12 -1.21168e+13 -1.05716e+13 -6.94656e+12 -7.93826e+12 -7.70626e+12 -5.16368e+12 -1.11777e+13 -6.37869e+12 -7.44534e+12 -4.75371e+12 -3.1983e+12 -6.08734e+12 -1.29681e+13 -7.22064e+12 -8.49846e+12 -5.65601e+12 -4.24854e+12 -1.00728e+13 -6.25983e+12 -7.07844e+12 -7.57376e+12 -5.33757e+12 -1.06711e+13 -1.08264e+13 -6.22328e+12 -5.3749e+12 -6.61222e+12 -7.40024e+12 -4.30868e+12 -7.59059e+12 -5.4341e+12 -4.88946e+12 -4.82791e+12 -4.05893e+12 -4.51109e+12 -3.28106e+12 -5.73837e+12 -3.64446e+12 -1.00081e+13 -9.71904e+12 -6.30489e+12 -1.05386e+13 -8.57909e+12 -1.2195e+13 -9.57342e+12 -7.18839e+12 -9.14845e+12 -7.77199e+12 -8.96853e+12 -6.50151e+12 -5.97947e+12 -1.19703e+13 -1.12887e+13 -8.47519e+12 -1.00957e+13 -1.19039e+13 -1.08238e+13 -7.18828e+12 -8.07915e+12 -8.63204e+12 -6.15174e+12 -6.49291e+12 -3.81612e+12 -1.40698e+13 -6.42548e+12 -7.40734e+12 -5.98705e+12 -5.37386e+12 -5.56071e+12 -6.95808e+12 -9.13423e+12 -3.36415e+12 -7.45395e+12 -8.84475e+12 -6.22853e+12 -8.57558e+12 -1.22449e+13 -8.52645e+12 -6.40696e+12 -3.96181e+12 -1.03948e+13 -5.33793e+12 -4.90548e+12 -6.75122e+12 -5.70691e+12 -8.71542e+12 -6.93367e+12 -6.81263e+12 -8.04959e+12 -7.06475e+12 -6.49716e+12 -1.34768e+13 -1.02835e+13 -5.95487e+12 -7.00404e+12 -8.42517e+12 -1.09866e+13 -7.48013e+12 -5.9354e+12 -6.40969e+12 -1.18298e+13 -1.07354e+13 -9.45153e+12 -5.40589e+12 -8.50445e+12 -5.20174e+12 -7.41577e+12 -7.95152e+12 -4.8021e+12 -1.0832e+13 -5.81996e+12 -8.69224e+12 -1.51168e+13 -1.00392e+13 -1.16612e+13 -5.65952e+12 -8.68009e+12 -8.44682e+12 -6.15159e+12 -6.17061e+12 -1.13555e+13 -9.45999e+12 -6.96543e+12 -1.0694e+13 -8.49977e+12 -8.13438e+12 -9.02247e+12 -5.53488e+12 -5.37662e+12 -1.01405e+13 -7.03402e+12 -6.14251e+12 -4.15748e+12 -8.83893e+12 -3.50528e+12 -7.34761e+12 -3.8482e+12 -6.54375e+12 -6.02674e+12 -5.97732e+12 -8.10192e+12 -7.67529e+12 -4.69216e+12 -8.33711e+12 -7.05988e+12 -7.71235e+12 -8.72422e+12 -8.3398e+12 -5.60239e+12 -7.87488e+12 -7.68255e+12 -9.44402e+12 -6.64168e+12 -4.92889e+12 -5.87257e+12 -9.81861e+12 -6.77526e+12 -9.99544e+12 -6.86311e+12 -7.97581e+12 -9.45934e+12 -8.28556e+12 -1.15093e+13 -4.12337e+12 -9.52245e+12 -1.13783e+13 -8.24525e+12 -7.36575e+12 -1.13246e+13 -4.12973e+12 -3.06446e+12 -7.13077e+12 -7.35831e+12 -6.26029e+12 -1.16233e+13 -9.66686e+12 -1.24862e+13 -6.72567e+12 -7.8711e+12 -8.86033e+12 -6.33424e+12 -1.1445e+13 -1.01805e+13 -9.79026e+12 -4.48355e+12 -7.56594e+12 -6.13346e+12 -6.34455e+12 -1.00263e+13 -7.10457e+12 -6.39647e+12 -1.08407e+13 -7.82886e+12 -1.41098e+13 -1.43835e+13 -8.13716e+12 -9.36239e+12 -1.3513e+13 -6.34805e+12 -8.60679e+12 -6.75965e+12 -8.26624e+12 -9.1001e+12 -7.99683e+12 -9.09269e+12 -1.07129e+13 -6.92775e+12 -8.85455e+12 -1.0395e+13 -8.95449e+12 -7.17648e+12 -9.07048e+12 -3.2917e+12 -7.46428e+12 -5.90608e+12 -1.12009e+13 -6.65408e+12 -7.30797e+12 -9.1675e+12 -8.326e+12 -1.2332e+13 -6.15173e+12 -7.59664e+12 -8.61363e+12 -7.6362e+12 -1.09751e+13 -1.72442e+13 -5.33509e+12 -6.57362e+12 -8.6722e+12 -1.12883e+13 -1.09719e+13 -8.99836e+12 -9.7312e+12 -8.09003e+12 -3.55557e+12 -4.81721e+12 -8.69376e+12 -6.40612e+12 -8.02816e+12 -6.33347e+12 -6.4271e+12 -1.00665e+13 -7.3169e+12 -5.77867e+12 -7.25191e+12 -6.893e+12 -1.03853e+13 -7.40791e+12 -5.81643e+12 -5.97117e+12 -8.3641e+12 -7.17849e+12 -8.91802e+12 -7.8861e+12 -1.08142e+13 -1.06731e+13 -6.64725e+12 -8.69678e+12 -1.66616e+13 -1.50963e+13 -8.94679e+12 -7.36491e+12 -4.01723e+12 -4.35943e+12 -1.08088e+13 -8.60966e+12 -7.49705e+12 -8.43364e+12 -1.22177e+13 -4.53574e+12 -1.22661e+13 -1.22319e+13 -6.95963e+12 -9.46694e+12 -3.79081e+12 -6.83485e+12 -6.8466e+12 -1.07153e+13 -5.63688e+12 -6.99863e+12 -1.06459e+13 -8.40325e+12 -1.0089e+13 -1.13856e+13 -5.50254e+12 -1.38117e+13 -7.47808e+12 -8.31236e+12 -8.71128e+12 -5.9814e+12 -5.33525e+12 -5.73615e+12 -5.18056e+12 -5.96193e+12 -8.66072e+12 -5.47599e+12 -7.42426e+12 -6.7345e+12 -6.26929e+12 -7.21341e+12 -4.30847e+12 -5.48587e+12 -1.02017e+13 -8.73025e+12 -3.08732e+12 -4.67552e+12 -1.08651e+13 -5.46934e+12 -5.3523e+12 -4.76546e+12 -8.04252e+12 -7.48097e+12 -5.52726e+12 -4.40117e+12 -4.97978e+12 -6.02611e+12 -7.74362e+12 -4.28224e+12 -5.26054e+12 -1.05477e+13 -8.74806e+12 -6.51717e+12 -8.59243e+12 -8.27401e+12 -1.13076e+13 -7.07323e+12 -5.75332e+12 -9.13541e+12 -7.63736e+12 -1.15822e+13 -6.81091e+12 -6.52835e+12 -7.73532e+12 -4.70875e+12 -6.86265e+12 -8.46325e+12 -5.73446e+12 -1.05881e+13 -1.18211e+13 -1.17487e+13 -7.135e+12 -7.97323e+12 -1.30808e+13 -4.72354e+12 -1.07294e+13 -1.20749e+13 -8.60225e+12 -9.88384e+12 -9.95573e+12 -1.48033e+13 -1.32151e+13 -6.61742e+12 -7.76682e+12 -1.04534e+13 -1.08366e+13 -8.41348e+12 -1.11408e+13 -9.42065e+12 -7.88698e+12 -1.00203e+13 -1.19683e+13 -3.71486e+12 -9.781e+12 -6.96583e+12 -3.34427e+12 -3.57706e+12 -5.04278e+12 -5.64567e+12 -6.20548e+12 -8.41854e+12 -1.17081e+13 -8.52239e+12 -1.19908e+13 -1.53217e+13 -9.56257e+12 -6.45281e+12 -8.54333e+12 -9.36696e+12 -1.33631e+13 -1.3245e+13 -9.13137e+12 -1.46962e+13 -9.98559e+12 -9.41883e+12 -6.20536e+12 -7.79692e+12 -9.36618e+12 -7.68364e+12 -8.26011e+12 -1.07019e+13 -6.58374e+12 -3.36882e+12 -7.66732e+12 -6.11438e+12 -9.32983e+12 -1.11864e+13 -6.62324e+12 -1.17717e+13 -7.52752e+12 -6.8018e+12 -5.02058e+12 -5.88876e+12 -8.34524e+12 -6.47439e+12 -3.82503e+12 -4.5762e+12 -5.26005e+12 -7.50438e+12 -4.97078e+12 -1.05203e+13 -7.63421e+12 -7.53844e+12 -7.22798e+12 -9.6553e+12 -8.16089e+12 -5.9478e+12 -4.26343e+12 -5.05224e+12 -3.95005e+12 -6.5359e+12 -7.71984e+12 -1.20385e+13 -8.18921e+12 -1.02781e+13 -8.30482e+12 -5.7631e+12 -6.23774e+12 -8.23901e+12 -1.01258e+13 -4.02059e+12 -5.68528e+12 -6.43425e+12 -1.09068e+13 -5.351e+12 -9.40723e+12 -8.94709e+12 -7.34402e+12 -9.66398e+12 -6.79729e+12 -5.65859e+12 -6.9164e+12 -6.17527e+12 -6.75868e+12 -1.04941e+13 -1.15212e+13 -9.91338e+12 -9.71858e+12 -9.44346e+12 -1.07503e+13 -1.05232e+13 -1.09349e+13 -7.56948e+12 -9.51393e+12 -9.61533e+12 -1.03384e+13 -1.45691e+13 -1.08741e+13 -1.07537e+13 -6.59004e+12 -8.22317e+12 -2.73483e+12 -4.39278e+12 -4.14361e+12 -6.20145e+12 -1.1374e+13 -7.07827e+12 -6.91323e+12 -5.77505e+12 -8.64195e+12 -1.04392e+13 -6.31962e+12 -1.47346e+13 -5.92996e+12 -1.17876e+13 -5.88767e+12 -9.23657e+12 -7.80136e+12 -6.99214e+12 -1.0591e+13 -1.35538e+13 -9.16341e+12 -9.42865e+12 -9.87919e+12 -1.17257e+13 -9.97379e+12 -9.02746e+12 -9.60118e+12 -9.05852e+12 -4.86639e+12 -7.0674e+12 -1.06714e+13 -9.84449e+12 -7.67894e+12 -6.17374e+12 -5.90959e+12 -9.32916e+12 -5.57964e+12 -7.36921e+12 -5.62669e+12 -1.24895e+13 -8.70278e+12 -1.05239e+13 -9.26538e+12 -6.95807e+12 -6.05557e+12 -1.03812e+13 -7.14787e+12 -6.02979e+12 -1.10675e+13 -6.69245e+12 -7.36596e+12 -8.02663e+12 -7.13634e+12 -5.24071e+12 -6.36876e+12 -8.76695e+12 -5.14639e+12 -6.8425e+12 -3.08265e+12 -5.35753e+12 -7.41565e+12 -4.73466e+12 -6.35446e+12 -3.54631e+12 -9.84272e+12 -6.63612e+12 -7.37944e+12 -1.15811e+13 -7.01648e+12 -7.15136e+12 -4.05564e+12 -9.05903e+12 -9.45066e+12 -5.19005e+12 -9.44759e+12 -1.08523e+13 -9.23086e+12 -2.74422e+12 -5.93775e+12 -6.67697e+12 -9.49886e+12 -8.95415e+12 -8.23402e+12 -1.00872e+13 -1.11072e+13 -7.98591e+12 -1.29027e+13 -1.63561e+13 -1.29886e+13 -8.13136e+12 -8.53027e+12 -6.8385e+12 -4.97262e+12 -1.24317e+13 -8.26378e+12 -7.86186e+12 -6.46532e+12 -4.5743e+12 -5.69885e+12 -9.53855e+12 -6.04116e+12 -4.42124e+12 -7.92262e+12 -5.51535e+12 -8.96198e+12 -9.12767e+12 -6.61294e+12 -1.03947e+13 -1.16683e+13 -8.01387e+12 -8.55775e+12 -8.40152e+12 -6.27492e+12 -8.25174e+12 -6.68926e+12 -1.10695e+13 -8.04052e+12 -3.02713e+12 -7.66194e+12 -1.00274e+13 -4.62845e+12 -8.49156e+12 -9.64822e+12 -5.95996e+12 -1.13792e+13 -1.01471e+13 -3.44716e+12 -6.99845e+12 -1.16022e+13 -5.95139e+12 -5.05344e+12 -6.7501e+12 -6.361e+12 -5.60327e+12 -9.07769e+12 -7.76836e+12 -8.53496e+12 -2.74254e+12 -4.01913e+12 -9.14461e+12 -6.82941e+12 -1.42593e+13 -9.55246e+12 -5.6905e+12 -8.15543e+12 -6.52542e+12 -9.09631e+12 -9.74423e+12 -8.01299e+12 -5.77497e+12 -4.52578e+12 -1.04153e+13 -1.16627e+13 -1.04679e+13 -7.92377e+12 -9.0445e+12 -7.83711e+12 -4.8331e+12 -3.6282e+12 -7.96768e+12 -7.58751e+12 -7.33325e+12 -1.01134e+13 -6.6289e+12 -1.23137e+13 -6.18587e+12 -5.76556e+12 -1.22905e+13 -5.3064e+12 -5.56615e+12 -9.7864e+12 -2.78123e+12 -9.65915e+12 -8.28424e+12 -7.82123e+12 -8.0113e+12 -4.70311e+12 -1.01777e+13 -3.18387e+12 -1.48667e+13 -6.2044e+12 -1.05135e+13 -7.87359e+12 -5.92479e+12 -9.08807e+12 -6.38135e+12 -4.55165e+12 -7.32319e+12 -9.43147e+12 -4.56035e+12 -6.83702e+12 -5.85682e+12 -8.033e+12 -7.84152e+12 -7.87387e+12 -6.849e+12 -4.94051e+12 -9.47093e+12 -7.59791e+12 -8.21436e+12 -9.11452e+12 -6.16896e+12 -4.27836e+12 -9.56084e+12 -7.64421e+12 -4.86439e+12 -1.15747e+13 -1.12546e+13 -1.09483e+13 -1.27449e+13 -6.86969e+12 -1.30441e+13 -9.37123e+12 -7.71894e+12 -8.6056e+12 -7.14383e+12 -6.97161e+12 -1.21634e+13 -8.6067e+12 -5.81329e+12 -5.62863e+12 -4.03486e+12 -4.85275e+12 -9.42988e+12 -5.52379e+12 -1.12083e+13 -7.49763e+12 -7.61163e+12 -1.22541e+13 -9.71693e+12 -6.78755e+12 -5.078e+12 -8.25674e+12 -8.81071e+12 -1.36914e+13 -7.25075e+12 -9.99267e+12 -6.14161e+12 -1.37569e+13 -7.43022e+12 -5.73522e+12 -4.85634e+12 -6.54949e+12 -3.88424e+12 -5.88374e+12 -8.23896e+12 -6.12185e+12 -1.18625e+13 -1.22396e+13 -1.2509e+13 -6.6414e+12 -4.41233e+12 -7.62391e+12 -9.86799e+12 -6.11608e+12 -6.25854e+12 -6.42108e+12 -5.90056e+12 -7.42663e+12 -8.85692e+12 -4.54839e+12 -5.64599e+12 -9.74996e+12 -7.2707e+12 -7.5452e+12 -5.47161e+12 -7.72776e+12 -1.18997e+13 -1.08268e+13 -5.11738e+12 -7.90788e+12 -1.0184e+13 -7.57341e+12 -6.45045e+12 -6.08989e+12 -7.93554e+12 -2.69287e+12 -5.75263e+12 -9.3048e+12 -5.44903e+12 -6.32574e+12 -2.88424e+12 -8.82968e+12 -6.42357e+12 -1.14509e+13 -8.25309e+12 -4.18642e+12 -7.65925e+12 -1.01511e+13 -1.14773e+13 -5.01987e+12 -4.27622e+12 -5.59364e+12 -7.09794e+12 -4.84681e+12 -4.07474e+12 -6.05291e+12 -5.66468e+12 -7.10658e+12 -5.89147e+12 -4.41424e+12 -5.09057e+12 -7.65898e+12 -1.04509e+13 -8.84033e+12 -7.34775e+12 -5.66855e+12 -5.49189e+12 -8.03322e+12 -5.85287e+12 -6.66873e+12 -3.87057e+12 -5.34302e+12 -6.60865e+12 -4.95313e+12 -3.11467e+12 -1.88646e+12 -3.18738e+12 -5.37899e+12 -7.12772e+12 -7.63952e+12 -8.33184e+12 -9.26694e+12 -4.91018e+12 -9.3058e+12 -8.09086e+12 -7.8743e+12 -8.36954e+12 -8.94047e+12 -6.94587e+12 -2.63712e+12 -4.97966e+12 -1.06333e+13 -7.35701e+12 -4.25179e+12 -7.93313e+12 -1.09413e+13 -8.86121e+12 -7.96071e+12 -1.02775e+13 -1.06584e+13 -5.40506e+12 -4.89207e+12 -7.01359e+12 -9.66333e+12 -6.76734e+12 -1.29946e+13 -9.4554e+12 -1.03497e+13 -1.25719e+13 -1.22399e+13 -6.98442e+12 -8.96719e+12 -5.74136e+12 -4.15876e+12 -8.37108e+12 -9.46802e+12 -6.03982e+12 -5.66023e+12 -4.79502e+12 -1.14553e+13 -7.25938e+12 -6.42968e+12 -9.77732e+12 -1.00541e+13 -6.59124e+12 -6.90938e+12 -7.61903e+12 -8.1056e+12 -6.15757e+12 -4.26797e+12 -7.13133e+12 -6.32645e+12 -6.35412e+12 -5.15817e+12 -7.76099e+12 -5.62457e+12 -7.43381e+12 -1.34489e+13 -1.19686e+13 -7.90181e+12 -5.85949e+12 -6.98628e+12 -6.49651e+12 -1.02201e+13 -7.85881e+12 -6.52478e+12 -7.81283e+12 -1.08428e+13 -4.6657e+12 -7.12479e+12 -7.60581e+12 -4.73247e+12 -9.46709e+12 -4.82477e+12 -7.28605e+12 -7.07445e+12 -9.14151e+12 -8.81849e+12 -8.74761e+12 -4.64019e+12 -7.41211e+12 -8.17116e+12 -8.17692e+12 -7.25554e+12 -3.37884e+12 -8.59906e+12 -5.98e+12 -5.1171e+12 -3.32102e+12 -2.91076e+12 -5.62713e+12 -7.92907e+12 -6.79869e+12 -3.63811e+12 -3.82286e+12 -4.78655e+12 -5.53249e+12 -3.31114e+12 -8.20559e+12 -7.57395e+12 -8.47911e+12 -7.25919e+12 -5.39512e+12 -9.22713e+12 -6.5942e+12 -6.44272e+12 -1.13106e+13 -7.98778e+12 -8.39759e+12 -9.01417e+12 -6.25741e+12 -1.13021e+13 -8.25621e+12 -1.21223e+13 -8.69113e+12 -1.08638e+13 -7.94514e+12 -7.40688e+12 -5.5022e+12 -1.14992e+13 -6.67955e+12 -1.03738e+13 -8.04743e+12 -1.42831e+13 -9.9999e+12 -6.85329e+12 -1.27257e+13 -1.06589e+13 -6.91517e+12 -5.11927e+12 -3.99834e+12 -6.33496e+12 -4.99373e+12 -7.33388e+12 -7.81861e+12 -1.07433e+13 -8.67141e+12 -1.01609e+13 -7.90248e+12 -7.80187e+12 -9.45309e+12 -9.4404e+12 -1.01946e+13 -9.75123e+12 -4.63545e+12 -7.67589e+12 -9.19679e+12 -9.38249e+12 -6.72158e+12 -1.08188e+13 -1.13505e+13 -6.17094e+12 -8.98845e+12 -8.02574e+12 -5.59982e+12 -1.14047e+13 -9.28964e+12 -7.24772e+12 -8.95517e+12 -8.43871e+12 -8.3097e+12 -8.44187e+12 -8.2133e+12 -7.08176e+12 -7.36977e+12 -9.08563e+12 -8.21081e+12 -7.32618e+12 -9.65043e+12 -5.47714e+12 -7.33357e+12 -1.01859e+13 -8.11102e+12 -6.82588e+12 -4.60604e+12 -6.48881e+12 -7.44083e+12 -5.06991e+12 -4.31412e+12 -7.44236e+12 -6.08303e+12 -6.11414e+12 -1.28926e+13 -7.46621e+12 -8.16221e+12 -6.623e+12 -5.82047e+12 -6.57213e+12 -4.4545e+12 -7.15571e+12 -9.7602e+12 -6.74223e+12 -4.47006e+12 -6.74294e+12 -1.02607e+13 -1.06385e+13 -5.897e+12 -4.63715e+12 -8.47934e+12 -6.74545e+12 -6.57658e+12 -4.58119e+12 -7.70043e+12 -4.74218e+12 -4.69893e+12 -8.27335e+12 -5.12839e+12 -1.14969e+13 -7.39675e+12 -5.32206e+12 -6.53616e+12 -8.77161e+12 -9.85444e+12 -5.63699e+12 -5.45121e+12 -9.6117e+12 -9.91192e+12 -6.0356e+12 -3.56771e+12 -8.5363e+12 -5.50728e+12 -5.80507e+12 -9.61099e+12 -5.99145e+12 -1.20374e+13 -5.68785e+12 -4.16689e+12 -8.77297e+12 -1.1207e+13 -7.3731e+12 -5.2957e+12 -6.6949e+12 -6.91508e+12 -1.02888e+13 -7.69157e+12 -2.65921e+12 -1.00929e+13 -6.8118e+12 -1.07076e+13 -1.00983e+13 -8.10904e+12 -8.79295e+12 -4.96814e+12 -4.99795e+12 -1.28861e+13 -1.18699e+13 -1.21997e+13 -8.57854e+12 -8.11001e+12 -1.0106e+13 -8.40676e+12 -9.04536e+12 -1.18034e+13 -9.41001e+12 -1.22152e+13 -9.83936e+12 -7.33164e+12 -7.00131e+12 -9.34363e+12 -8.35903e+12 -5.98253e+12 -7.29252e+12 -8.00239e+12 -7.49149e+12 -5.18896e+12 -5.58239e+12 -8.3078e+12 -5.6963e+12 -8.13252e+12 -5.89471e+12 -8.11001e+12 -4.83637e+12 -3.84788e+12 -2.77031e+12 -8.1191e+12 -8.20068e+12 -8.7242e+12 -7.14945e+12 -1.12479e+13 -1.33819e+13 -3.5563e+12 -6.32987e+12 -8.1987e+12 -6.15735e+12 -4.73728e+12 -5.65134e+12 -6.45678e+12 -4.82666e+12 -8.04314e+12 -1.20707e+13 -5.84374e+12 -1.03488e+13 -5.84921e+12 -6.03599e+12 -6.69297e+12 -8.00363e+12 -2.3956e+12 -5.00842e+12 -6.86971e+12 -1.24559e+13 -8.47107e+12 -3.50848e+12 -8.05955e+12 -7.82143e+12 -6.87075e+12 -6.35212e+12 -7.9783e+12 -5.34935e+12 -1.00578e+13 -4.42727e+12 -7.85043e+12 -5.96011e+12 -1.31405e+13 -1.1619e+13 -1.07912e+13 -6.05219e+12 -5.00852e+12 -6.17048e+12 -4.40675e+12 -6.26889e+12 -1.10972e+13 -3.98454e+12 -4.73045e+12 -3.82592e+12 -7.40966e+12 -7.04947e+12 -7.55512e+12 -9.56799e+12 -6.86254e+12 -7.26573e+12 -9.10087e+12 -5.43072e+12 -6.12292e+12 -3.50668e+12 -5.92337e+12 -2.18967e+12 -7.98473e+12 -8.37685e+12 -4.76643e+12 -7.39355e+12 -8.94353e+12 -1.22658e+13 -3.76109e+12 -4.7022e+12 -4.00526e+12 -6.80378e+12 -5.91332e+12 -8.03975e+12 -5.23467e+12 -4.28379e+12 -6.17334e+12 -4.26308e+12 -8.52508e+12 -6.39515e+12 -6.57609e+12 -7.47501e+12 -1.16909e+13 -6.6135e+12 -5.95708e+12 -6.9577e+12 -6.57619e+12 -6.30013e+12 -4.42888e+12 -7.68972e+12 -6.89823e+12 -4.92057e+12 -8.34506e+12 -7.82209e+12 -7.42968e+12 -1.16454e+13 -5.4748e+12 -6.15969e+12 -7.55339e+12 -7.46911e+12 -7.58652e+12 -5.92994e+12 -3.60563e+12 -1.08866e+13 -5.75515e+12 -9.19154e+12 -5.89389e+12 -2.84356e+12 -9.34241e+12 -3.98323e+12 -1.40892e+13 -1.18849e+13 -1.18183e+13 -7.05288e+12 -6.71261e+12 -7.48409e+12 -6.43811e+12 -1.02458e+13 -8.62699e+12 -1.01092e+13 -6.83179e+12 -1.04507e+13 -6.02656e+12 -4.29795e+12 -2.63465e+12 -5.54279e+12 -7.05978e+12 -4.0728e+12 -8.67669e+12 -6.70042e+12 -6.34177e+12 -8.42834e+12 -5.33111e+12 -9.04494e+12 -6.56787e+12 -6.20986e+12 -4.82344e+12 -8.28768e+12 -1.03391e+13 -8.76633e+12 -1.48738e+13 -1.06892e+13 -5.08206e+12 -8.02403e+12 -1.02459e+13 -9.93808e+12 -1.01284e+13 -7.2319e+12 -4.80189e+12 -7.88607e+12 -1.00241e+13 -9.21817e+12 -9.23293e+12 -1.51134e+13 -1.08658e+13 -3.66163e+12 -3.52656e+12 -8.16618e+12 -4.98233e+12 -8.18136e+12 -1.06521e+13 -5.31585e+12 -1.01524e+13 -7.47568e+12 -6.71446e+12 -8.63891e+12 -7.68595e+12 -4.4839e+12 -9.96787e+12 -5.33978e+12 -9.79529e+12 -7.25028e+12 -1.02976e+13 -7.51124e+12 -6.01066e+12 -4.59164e+12 -5.73207e+12 -6.53427e+12 -6.03754e+12 -1.00734e+13 -7.31638e+12 -4.32205e+12 -9.58011e+12 -5.34289e+12 -4.1575e+12 -8.63303e+12 -7.53412e+12 -6.72492e+12 -5.08707e+12 -9.57805e+12 -4.46102e+12 -7.13819e+12 -8.25086e+12 -6.32015e+12 -6.46924e+12 -5.23406e+12 -6.64392e+12 -6.95783e+12 -7.57913e+12 -4.61782e+12 -7.44354e+12 -6.61411e+12 -5.38574e+12 -3.76206e+12 -6.41659e+12 -9.33085e+12 -7.22919e+12 -3.95103e+12 -7.54722e+12 -5.87317e+12 -1.0231e+13 -7.91226e+12 -4.96405e+12 -4.18915e+12 -6.54205e+12 -4.26657e+12 -8.74541e+12 -1.11593e+13 -1.0742e+13 -1.02296e+13 -9.53305e+12 -1.07404e+13 -4.65406e+12 -7.93325e+12 -8.377e+12 -9.74989e+12 -1.02451e+13 -1.08528e+13 -9.03978e+12 -5.3918e+12 -6.05273e+12 -1.13928e+13 -6.77024e+12 -6.56511e+12 -6.79955e+12 -6.54066e+12 -7.89226e+12 -9.44941e+12 -8.26546e+12 -4.78182e+12 -4.37641e+12 -1.34955e+13 -4.91477e+12 -6.30214e+12 -7.45135e+12 -7.12749e+12 -5.27037e+12 -6.89281e+12 -6.91397e+12 -1.03733e+13 -7.20488e+12 -4.79052e+12 -7.26099e+12 -5.13953e+12 -7.56459e+12 -5.61784e+12 -6.23677e+12 -6.18501e+12 -5.23531e+12 -8.40882e+12 -4.38864e+12 -7.0636e+12 -4.78508e+12 -6.13287e+12 -1.0698e+13 -6.7966e+12 -7.64261e+12 -7.30795e+12 -1.35061e+13 -1.92683e+13 -4.55029e+12 -6.54076e+12 -1.58715e+13 -6.69772e+12 -9.27256e+12 -5.43164e+12 -1.02608e+13 -8.32598e+12 -5.80341e+12 -7.22948e+12 -7.29922e+12 -7.9591e+12 -8.4706e+12 -8.46902e+12 -9.16475e+12 -5.5141e+12 -5.54702e+12 -7.96914e+12 -7.35025e+12 -5.9993e+12 -6.25612e+12 -4.49018e+12 -9.09752e+12 -7.57726e+12 -5.99527e+12 -6.22997e+12 -8.11476e+12 -9.37787e+12 -9.79452e+12 -6.2062e+12 -5.2712e+12 -7.57828e+12 -6.69641e+12 -6.39402e+12 -4.91399e+12 -7.89286e+12 -8.14952e+12 -2.94038e+12 -6.2801e+12 -6.2423e+12 -4.7292e+12 -4.87921e+12 -4.61342e+12 -5.92057e+12 -5.80146e+12 -5.81147e+12 -4.00551e+12 -5.56783e+12 -4.79798e+12 -1.11151e+13 -6.77836e+12 -8.79306e+12 -5.62695e+12 -6.73332e+12 -6.53968e+12 -7.39966e+12 -7.37545e+12 -4.90525e+12 -7.03137e+12 -5.93721e+12 -3.27931e+12 -8.91783e+12 -7.82062e+12 -7.99414e+12 -7.66373e+12 -7.50375e+12 -6.45493e+12 -5.74369e+12 -6.19864e+12 -7.67302e+12 -5.45534e+12 -5.50598e+12 -3.12684e+12 -8.05793e+12 -8.24136e+12 -3.91858e+12 -4.02543e+12 -8.08117e+12 -6.57555e+12 -9.71937e+12 -7.84744e+12 -5.47758e+12 -4.8164e+12 -6.50133e+12 -4.26578e+12 -2.24689e+12 -5.58316e+12 -5.53214e+12 -4.10633e+12 -8.49843e+12 -3.17121e+12 -3.89171e+12 -6.22786e+12 -4.87666e+12 -6.96089e+12 -6.87342e+12 -5.61639e+12 -5.57456e+12 -5.44145e+12 -8.8419e+12 -8.36931e+12 -2.90212e+12 -5.84684e+12 -5.2955e+12 -4.44919e+12 -7.47402e+12 -8.06301e+12 -9.71255e+12 -1.31627e+13 -5.27775e+12 -3.28195e+12 -6.67963e+12 -4.08184e+12 -3.68296e+12 -6.01343e+12 -8.36022e+12 -6.19513e+12 -6.78331e+12 -6.39767e+12 -7.33321e+12 -7.2965e+12 -8.86249e+12 -8.58553e+12 -3.11937e+12 -9.93004e+12 -9.01317e+12 -8.87908e+12 -9.78372e+12 -7.60992e+12 -8.71591e+12 -1.06003e+13 -6.4115e+12 -5.94845e+12 -7.818e+12 -8.88575e+12 -7.21172e+12 -6.18607e+12 -1.08329e+13 -5.74997e+12 -6.69483e+12 -5.69916e+12 -5.28403e+12 -8.96398e+12 -5.17596e+12 -3.91687e+12 -6.11109e+12 -5.91217e+12 -5.49652e+12 -6.56501e+12 -2.92881e+12 -9.38692e+12 -4.68241e+12 -5.11296e+12 -7.85422e+12 -8.60522e+12 -1.41921e+13 -1.21109e+13 -7.25775e+12 -1.07704e+13 -7.05356e+12 -7.47366e+12 -3.4243e+12 -5.00466e+12 -7.10422e+12 -6.05028e+12 -4.67264e+12 -1.10556e+13 -6.45948e+12 -6.95691e+12 -9.96044e+12 -7.89475e+12 -1.1738e+13 -6.26382e+12 -7.47461e+12 -7.00898e+12 -6.39244e+12 -5.34684e+12 -5.91406e+12 -3.21852e+12 -5.52608e+12 -6.07701e+12 -8.96712e+12 -928346000000.0 -9.51018e+12 -8.34644e+12 -6.01472e+12 -3.30467e+12 -5.09344e+12 -4.33253e+12 -2.1536e+12 -1.12113e+13 -4.84432e+12 -5.69399e+12 -3.9183e+12 -7.16522e+12 -5.49814e+12 -6.50702e+12 -5.40346e+12 -5.02027e+12 -5.04023e+12 -4.72196e+12 -5.35819e+12 -4.59951e+12 -6.5006e+12 -8.64026e+12 -5.52932e+12 -6.46323e+12 -7.6438e+12 -6.24114e+12 -3.96991e+12 -6.79304e+12 -3.35011e+12 -6.19992e+12 -3.21906e+12 -4.22992e+12 -9.08738e+12 -3.10477e+12 -6.05151e+12 -5.24024e+12 -4.69501e+12 -3.91669e+12 -8.24753e+12 -5.76287e+12 -6.26165e+12 -6.86522e+12 -7.42905e+12 -6.03893e+12 -8.37515e+12 -1.07372e+13 -4.24789e+12 -4.45963e+12 -4.05108e+12 -5.28014e+12 -1.30708e+13 -7.44483e+12 -4.58527e+12 -7.00353e+12 -7.88905e+12 -7.8448e+12 -6.97586e+12 -4.64107e+12 -5.98575e+12 -4.00292e+12 -5.25709e+12 -1.02006e+13 -7.97741e+12 -8.54346e+12 -7.01874e+12 -4.32441e+12 -9.17285e+12 -7.70749e+12 -1.28712e+13 -6.24041e+12 -5.24098e+12 -7.84077e+12 -1.41064e+13 -5.20484e+12 -5.81904e+12 -4.04675e+12 -7.3424e+12 -1.33275e+13 -7.67061e+12 -7.35889e+12 -9.91488e+12 -6.40603e+12 -8.04393e+12 -6.74377e+12 -9.8375e+12 -5.76443e+12 -3.60905e+12 -5.3461e+12 -1.14712e+13 -4.44033e+12 -6.7154e+12 -1.24909e+13 -5.76057e+12 -5.96828e+12 -4.8441e+12 -6.61236e+12 -9.62059e+12 -1.04876e+13 -9.4456e+12 -8.51978e+12 -7.8087e+12 -4.25478e+12 -4.22425e+12 -4.71457e+12 -7.73519e+12 -7.12183e+12 -5.64199e+12 -6.18709e+12 -4.02748e+12 -6.03115e+12 -8.26893e+12 -6.0442e+12 -7.29279e+12 -5.96296e+12 -4.99157e+12 -7.25922e+12 -7.26095e+12 -6.61652e+12 -7.96358e+12 -7.19194e+12 -5.26404e+12 -7.47364e+12 -4.76416e+12 -6.06598e+12 -4.85822e+12 -2.41061e+12 -2.86924e+12 -5.03931e+12 -2.2358e+12 -4.47252e+12 -4.51862e+12 -1.0098e+13 -5.0108e+12 -4.88956e+12 -4.42118e+12 -4.34822e+12 -9.53951e+12 -5.96238e+12 -1.09367e+13 -6.43616e+12 -6.73001e+12 -4.45844e+12 -7.31227e+12 -5.93864e+12 -4.56023e+12 -5.18534e+12 -3.50665e+12 -5.31208e+12 -8.17555e+12 -7.56856e+12 -7.18171e+12 -6.26937e+12 -9.49033e+12 -6.33025e+12 -5.38024e+12 -2.0825e+12 -6.55521e+12 -5.96064e+12 -5.92136e+12 -5.20452e+12 -3.80715e+12 -6.98605e+12 -6.50568e+12 -3.51098e+12 -3.8594e+12 -5.10668e+12 -3.43836e+12 -5.0651e+12 -4.82129e+12 -6.83053e+12 -5.39836e+12 -6.45389e+12 -6.49198e+12 -2.81004e+12 -4.65397e+12 -4.43718e+12 -9.45175e+12 -6.05385e+12 -4.95339e+12 -4.92934e+12 -4.90904e+12 -5.51956e+12 -5.76061e+12 -2.5954e+12 -5.65387e+12 -5.67112e+12 -6.32309e+12 -4.49686e+12 -5.35549e+12 -5.74314e+12 -3.51711e+12 -6.78513e+12 -3.85023e+12 -5.51898e+12 -2.50983e+12 -7.24929e+12 -7.25382e+12 -3.50301e+12 -7.0897e+12 -8.08279e+12 -6.61101e+12 -7.78458e+12 -1.20126e+13 -7.41272e+12 -6.2165e+12 -5.65501e+12 -8.26634e+12 -9.15587e+12 -1.19543e+13 -3.35954e+12 -4.9284e+12 -5.83202e+12 -6.07045e+12 -4.59632e+12 -5.55164e+12 -8.85709e+12 -1.02146e+13 -1.20168e+13 -8.44918e+12 -4.79449e+12 -8.2635e+12 -8.21911e+12 -9.56637e+12 -7.015e+12 -4.01964e+12 -1.11419e+13 -9.41059e+12 -6.49004e+12 -4.45968e+12 -7.38594e+12 -5.83475e+12 -9.76723e+12 -4.97244e+12 -6.47284e+12 -4.48483e+12 -5.46959e+12 -5.722e+12 -6.03672e+12 -5.60334e+12 -5.29846e+12 -8.91907e+12 -9.25458e+12 -1.03026e+13 -9.4086e+12 -7.61915e+12 -8.7571e+12 -4.71567e+12 -7.28261e+12 -4.44726e+12 -3.90531e+12 -6.21611e+12 -5.8798e+12 -5.87877e+12 -3.7363e+12 -5.02176e+12 -7.10528e+12 -7.40372e+12 -4.27327e+12 -6.54694e+12 -6.97481e+12 -5.62894e+12 -9.14685e+12 -6.62992e+12 -7.38084e+12 -8.82149e+12 -7.22959e+12 -8.40338e+12 -6.17414e+12 -6.76106e+12 -4.73174e+12 -7.54999e+12 -5.10876e+12 -4.63515e+12 -7.29073e+12 -3.7818e+12 -6.61669e+12 -4.16317e+12 -6.38514e+12 -3.41518e+12 -4.82577e+12 -7.62488e+12 -9.6584e+12 -8.29899e+12 -5.71293e+12 -6.60162e+12 -9.11855e+12 -6.74302e+12 -1.01477e+13 -6.9056e+12 -3.06611e+12 -6.13751e+12 -3.9201e+12 -3.04353e+12 -3.97994e+12 -8.20705e+12 -5.25824e+12 -6.15523e+12 -4.86836e+12 -1.9269e+12 -5.09852e+12 -3.80661e+12 -5.13806e+12 -7.02879e+12 -7.46005e+12 -5.35e+12 -5.15893e+12 -5.81184e+12 -5.98974e+12 -6.01496e+12 -8.70822e+12 -5.59592e+12 -4.49755e+12 -4.04191e+12 -3.92236e+12 -6.12225e+12 -6.26856e+12 -6.1968e+12 -5.49563e+12 -3.98671e+12 -5.89963e+12 -3.65003e+12 -2.98572e+12 -6.49167e+12 -5.83873e+12 -5.36973e+12 -7.58778e+12 -6.06557e+12 -2.7124e+12 -4.64057e+12 -5.50171e+12 -5.84895e+12 -6.17987e+12 -5.79437e+12 -5.64945e+12 -5.64394e+12 -5.20467e+12 -6.65106e+12 -3.16335e+12 -4.29879e+12 -5.96139e+12 -4.26469e+12 -7.41161e+12 -5.30135e+12 -4.56436e+12 -7.32505e+12 -8.97172e+12 -6.24708e+12 -4.95679e+12 -5.14637e+12 -4.02442e+12 -4.98117e+12 -6.98762e+12 -5.0435e+12 -6.28859e+12 -3.9033e+12 -4.25475e+12 -1.02293e+13 -3.95535e+12 -3.75615e+12 -8.674e+12 -5.82602e+12 -4.89377e+12 -6.83506e+12 -8.7862e+12 -5.99513e+12 -7.09791e+12 -5.83327e+12 -8.29288e+12 -3.27016e+12 -4.475e+12 -4.91767e+12 -5.36001e+12 -7.55568e+12 -7.39838e+12 -5.12353e+12 -8.86403e+12 -6.30236e+12 -3.68803e+12 -4.10021e+12 -5.70894e+12 -4.09294e+12 -4.25102e+12 -6.12305e+12 -6.98134e+12 -6.03197e+12 -5.38657e+12 -8.01283e+12 -5.94309e+12 -6.60301e+12 -8.57783e+12 -8.30081e+12 -9.07434e+12 -6.41077e+12 -4.81756e+12 -4.74425e+12 -5.27158e+12 -7.62553e+12 -5.57604e+12 -6.19255e+12 -1.20903e+13 -1.28779e+13 -1.0969e+13 -6.31838e+12 -7.40106e+12 -4.60868e+12 -6.29636e+12 -9.11914e+12 -4.08502e+12 -7.26058e+12 -4.8605e+12 -7.19507e+12 -5.37685e+12 -2.63884e+12 -3.66119e+12 -6.08898e+12 -6.36217e+12 -6.80549e+12 -6.36409e+12 -4.36646e+12 -5.3624e+12 -4.5512e+12 -3.86004e+12 -3.9382e+12 -8.34155e+12 -7.77405e+12 -5.64866e+12 -8.22341e+12 -5.10583e+12 -6.82348e+12 -7.20433e+12 -4.75595e+12 -7.9356e+12 -5.82963e+12 -3.80456e+12 -6.82262e+12 -5.87875e+12 -4.21456e+12 -5.32039e+12 -6.70519e+12 -9.99255e+12 -6.77008e+12 -6.7632e+12 -8.20851e+12 -5.79269e+12 -1.19088e+13 -9.92235e+12 -5.29306e+12 -8.5181e+12 -8.65963e+12 -1.01373e+13 -8.3653e+12 -3.03308e+12 -5.7789e+12 -6.23792e+12 -5.60632e+12 -8.61771e+12 -7.14391e+12 -6.20828e+12 -7.43489e+12 -4.57084e+12 -4.97945e+12 -6.106e+12 -4.13222e+12 -7.76514e+12 -5.64054e+12 -4.79379e+12 -6.6114e+12 -7.77233e+12 -5.22519e+12 -9.1937e+12 -6.14544e+12 -5.24861e+12 -3.38242e+12 -2.80547e+12 -4.79864e+12 -5.76526e+12 -3.84345e+12 -5.12689e+12 -5.19387e+12 -4.43104e+12 -5.41759e+12 -7.88982e+12 -5.11978e+12 -2.79609e+12 -3.70912e+12 -3.92288e+12 -7.45318e+12 -6.05788e+12 -3.58852e+12 -5.50392e+12 -9.31716e+12 -4.33356e+12 -6.73183e+12 -5.84928e+12 -7.16295e+12 -6.03052e+12 -5.32532e+12 -5.36125e+12 -3.09004e+12 -8.2882e+12 -6.66738e+12 -6.25008e+12 -7.8642e+12 -9.97397e+12 -4.63706e+12 -7.38153e+12 -3.82201e+12 -3.84912e+12 -8.12802e+12 -9.39505e+12 -3.24293e+12 -6.49035e+12 -9.50927e+12 -4.85966e+12 -5.26918e+12 -7.28066e+12 -6.7399e+12 -5.40813e+12 -5.25061e+12 -4.19596e+12 -4.89482e+12 -7.03395e+12 -8.54325e+12 -6.63486e+12 -6.40963e+12 -6.11475e+12 -6.44e+12 -9.01768e+12 -6.05216e+12 -8.30863e+12 -1.21428e+13 -6.96607e+12 -6.93246e+12 -6.02306e+12 -6.07372e+12 -1.0038e+13 -2.44504e+12 -8.272e+12 -1.09122e+13 -6.53546e+12 -4.96958e+12 -5.59151e+12 -8.79443e+12 -1.48217e+13 -5.808e+12 -7.98356e+12 -9.52315e+12 -5.79117e+12 -5.63459e+12 -5.73735e+12 -9.34519e+12 -5.15823e+12 -3.36526e+12 -6.39661e+12 -3.81904e+12 -5.09773e+12 -7.88823e+12 -5.98289e+12 -7.6672e+12 -4.80654e+12 -9.80666e+12 -9.69915e+12 -7.77029e+12 -6.7298e+12 -6.67639e+12 -6.56332e+12 -8.47339e+12 -5.8234e+12 -7.21215e+12 -7.12704e+12 -5.84965e+12 -5.04008e+12 -5.4994e+12 -5.16803e+12 -5.9119e+12 -4.55652e+12 -5.39983e+12 -7.93501e+12 -5.64649e+12 -7.94636e+12 -9.59621e+12 -4.95899e+12 -4.71959e+12 -3.6549e+12 -1.1147e+13 -6.33247e+12 -5.58248e+12 -8.00718e+12 -5.38891e+12 -6.31958e+12 -6.96201e+12 -9.1256e+12 -8.47771e+12 -5.35653e+12 -3.16873e+12 -2.82842e+12 -4.98351e+12 -5.425e+12 -3.44152e+12 -5.06683e+12 -3.30749e+12 -2.94703e+12 -6.20464e+12 -6.02644e+12 -4.33806e+12 -2.57359e+12 -4.19672e+12 -5.76593e+12 -3.52466e+12 -4.88818e+12 -5.59318e+12 -3.34281e+12 -6.10819e+12 -4.2154e+12 -5.69637e+12 -2.97543e+12 -3.51115e+12 -4.1768e+12 -5.54783e+12 -5.42072e+12 -6.17015e+12 -4.22185e+12 -3.546e+12 -5.51133e+12 -4.05398e+12 -5.38241e+12 -6.00783e+12 -6.15778e+12 -5.78494e+12 -6.93486e+12 -3.94707e+12 -6.53586e+12 -5.26693e+12 -2.26694e+12 -4.34642e+12 -3.19067e+12 -3.44635e+12 -4.44628e+12 -6.1716e+12 -6.72253e+12 -5.84595e+12 -4.73037e+12 -3.78465e+12 -6.11182e+12 -6.19219e+12 -6.57601e+12 -7.96336e+12 -7.90547e+12 -4.57843e+12 -5.65976e+12 -2.98361e+12 -2.00056e+12 -3.58633e+12 -6.53203e+12 -4.30504e+12 -5.65729e+12 -6.03619e+12 -5.55873e+12 -5.09128e+12 -8.3272e+12 -3.94009e+12 -3.38475e+12 -5.91774e+12 -1.02289e+13 -5.65906e+12 -8.64979e+12 -7.87698e+12 -6.22566e+12 -4.78312e+12 -6.39103e+12 -5.77292e+12 -5.94634e+12 -6.88628e+12 -4.64224e+12 -3.90283e+12 -7.67888e+12 -4.82428e+12 -7.84566e+12 -4.64854e+12 -4.83025e+12 -5.95259e+12 -6.3411e+12 -3.92423e+12 -5.59249e+12 -7.48713e+12 -6.66306e+12 -6.1669e+12 -9.99843e+12 -8.00354e+12 -8.44563e+12 -5.98994e+12 -1.10986e+13 -7.00764e+12 -1.01637e+13 -7.81282e+12 -8.01098e+12 -5.42979e+12 -7.50917e+12 -1.2445e+13 -6.09761e+12 -5.98558e+12 -5.11187e+12 -3.37438e+12 -7.34058e+12 -8.91834e+12 -4.56768e+12 -7.15922e+12 -6.24975e+12 -5.89051e+12 -5.4923e+12 -4.93837e+12 -6.50663e+12 -9.29097e+12 -6.6747e+12 -9.05448e+12 -7.10057e+12 -5.52139e+12 -5.72039e+12 -5.28931e+12 -4.44026e+12 -7.67162e+12 -4.81874e+12 -8.54661e+12 -3.22067e+12 -6.57857e+12 -5.15154e+12 -6.68735e+12 -5.01511e+12 -8.46204e+12 -3.7404e+12 -3.18756e+12 -2.55572e+12 -3.07852e+12 -6.25873e+12 -5.00904e+12 -7.01815e+12 -1.11432e+13 -7.68976e+12 -7.51907e+12 -6.94057e+12 -7.65861e+12 -4.8237e+12 -6.36152e+12 -4.36346e+12 -5.47628e+12 -9.60432e+12 -4.53713e+12 -3.4577e+12 -4.61542e+12 -3.14454e+12 -5.28159e+12 -7.47505e+12 -6.20426e+12 -5.1583e+12 -4.23977e+12 -3.91905e+12 -4.81782e+12 -6.64247e+12 -7.08692e+12 -7.0129e+12 -6.34441e+12 -3.76908e+12 -5.67935e+12 -5.94865e+12 -3.07326e+12 -6.20699e+12 -4.63125e+12 -1.95688e+12 -3.23482e+12 -3.87443e+12 -4.43401e+12 -2.55864e+12 -5.16384e+12 -5.09019e+12 -3.5505e+12 -4.0673e+12 -5.12571e+12 -4.07119e+12 -4.1005e+12 -3.73912e+12 -3.78647e+12 -3.63904e+12 -5.86479e+12 -4.92768e+12 -4.66886e+12 -3.86229e+12 -6.5767e+12 -3.28133e+12 -3.00918e+12 -2.9496e+12 -3.87031e+12 -4.94962e+12 -3.72761e+12 -3.56526e+12 -2.04106e+12 -2.76833e+12 -4.54707e+12 -4.68423e+12 -8.04057e+12 -5.85677e+12 -7.68036e+12 -8.5293e+12 -8.18257e+12 -7.18923e+12 -8.73447e+12 -6.3524e+12 -4.72195e+12 -5.83523e+12 -3.66177e+12 -6.80972e+12 -5.58268e+12 -6.53175e+12 -5.9697e+12 -6.61069e+12 -7.8635e+12 -7.65824e+12 -2.7596e+12 -8.47811e+12 -7.43764e+12 -5.33615e+12 -5.73057e+12 -7.54545e+12 -6.10535e+12 -4.60665e+12 -6.33681e+12 -8.64782e+12 -6.86248e+12 -6.70576e+12 -6.6487e+12 -6.71022e+12 -978487000000.0 -7.18369e+12 -8.3482e+12 -6.06913e+12 -6.12479e+12 -6.12394e+12 -4.62059e+12 -3.75396e+12 -7.7265e+12 -1.15935e+13 -8.26877e+12 -7.82169e+12 -6.04556e+12 -5.35913e+12 -7.6064e+12 -6.40769e+12 -8.21957e+12 -9.14194e+12 -6.96826e+12 -1.15069e+13 -4.18296e+12 -2.93452e+12 -2.66618e+12 -6.92428e+12 -6.03117e+12 -3.53121e+12 -4.77124e+12 -4.92183e+12 -1.08994e+13 -3.96769e+12 -4.75946e+12 -4.26866e+12 -4.8026e+12 -1.04688e+13 -6.01535e+12 -4.96786e+12 -5.57749e+12 -5.26966e+12 -9.00765e+12 -8.29365e+12 -6.95603e+12 -1.07722e+13 -9.37678e+12 -4.47542e+12 -2.97087e+12 -6.84765e+12 -6.79331e+12 -4.87461e+12 -4.18945e+12 -5.43064e+12 -5.57274e+12 -7.1759e+12 -4.38585e+12 -5.24126e+12 -4.37861e+12 -7.56391e+12 -6.86332e+12 -9.68875e+12 -4.18796e+12 -6.79258e+12 -5.73627e+12 -4.63967e+12 -5.56726e+12 -7.00882e+12 -7.3308e+12 -4.48719e+12 -6.92215e+12 -4.50024e+12 -4.82152e+12 -5.58956e+12 -5.25861e+12 -6.85923e+12 -6.12868e+12 -2.20403e+12 -6.93087e+12 -6.64583e+12 -7.82823e+12 -6.21344e+12 -3.89814e+12 -6.8224e+12 -6.10461e+12 -5.96747e+12 -3.03646e+12 -6.06862e+12 -3.97607e+12 -5.52125e+12 -4.81786e+12 -4.97039e+12 -2.36602e+12 -2.66433e+12 -4.42783e+12 -4.15766e+12 -3.82138e+12 -4.16239e+12 -4.16362e+12 -3.81412e+12 -3.43328e+12 -4.71526e+12 -2.8046e+12 -3.26854e+12 -2.35951e+12 -4.25884e+12 -4.09449e+12 -3.32547e+12 -5.52633e+12 -4.12129e+12 -2.8533e+12 -4.30989e+12 -7.09016e+12 -4.13201e+12 -5.14719e+12 -4.93863e+12 -4.26022e+12 -4.79395e+12 -2.43504e+12 -3.6883e+12 -4.30691e+12 -5.61983e+12 -6.07755e+12 -5.89163e+12 -6.45041e+12 -1.59382e+12 -5.19224e+12 -4.25332e+12 -3.68768e+12 -6.39259e+12 -4.1805e+12 -6.92067e+12 -4.95631e+12 -6.93995e+12 -5.64856e+12 -3.75516e+12 -6.86165e+12 -5.06159e+12 -4.52411e+12 -8.66525e+12 -5.19043e+12 -4.19886e+12 -5.3284e+12 -6.17866e+12 -7.37385e+12 -6.00403e+12 -7.71772e+12 -6.69502e+12 -7.21209e+12 -9.74587e+12 -5.70253e+12 -3.8867e+12 -7.3828e+12 -3.13561e+12 -5.97452e+12 -5.57176e+12 -5.99695e+12 -5.22363e+12 -5.78964e+12 -6.89666e+12 -7.52708e+12 -6.65525e+12 -5.91364e+12 -4.46554e+12 -1.00395e+13 -7.05279e+12 -6.54848e+12 -4.5805e+12 -5.8301e+12 -5.09696e+12 -9.1279e+12 -2.34096e+12 -8.56868e+12 -3.19099e+12 -5.28414e+12 -1.71485e+12 -2.94824e+12 -7.86468e+12 -3.80264e+12 -5.31643e+12 -3.19065e+12 -5.6054e+12 -7.059e+12 -4.56048e+12 -6.01918e+12 -3.77706e+12 -4.14772e+12 -7.23212e+12 -4.53144e+12 -5.03248e+12 -4.55352e+12 -5.54746e+12 -6.09569e+12 -5.78298e+12 -7.75273e+12 -3.89373e+12 -5.07786e+12 -5.32655e+12 -4.30488e+12 -6.51199e+12 -6.68283e+12 -4.65771e+12 -4.64222e+12 -3.46301e+12 -5.29307e+12 -5.2081e+12 -7.43047e+12 -7.21233e+12 -4.67017e+12 -7.49686e+12 -4.12418e+12 -3.93602e+12 -4.64984e+12 -6.14242e+12 -6.4002e+12 -5.15651e+12 -4.43262e+12 -5.30097e+12 -3.32425e+12 -5.82026e+12 -6.30486e+12 -5.22511e+12 -2.35554e+12 -5.20918e+12 -6.89887e+12 -5.68924e+12 -6.66841e+12 -3.67194e+12 -3.44653e+12 -3.63134e+12 -4.16923e+12 -3.67512e+12 -2.70905e+12 -3.05003e+12 -6.12948e+12 -2.18137e+12 -3.70716e+12 -2.8872e+12 -3.83112e+12 -1.93575e+12 -3.49259e+12 -4.42201e+12 -2.17123e+12 -3.99456e+12 -2.18586e+12 -5.34682e+12 -3.40898e+12 -3.03609e+12 -4.35079e+12 -4.80193e+12 -3.50782e+12 -3.53609e+12 -2.80693e+12 -4.36767e+12 -3.45654e+12 -4.02925e+12 -7.0484e+12 -4.30749e+12 -4.24908e+12 -1.93243e+12 -5.17825e+12 -4.75358e+12 -3.86393e+12 -5.51472e+12 -3.99647e+12 -2.86599e+12 -3.42129e+12 -4.27246e+12 -3.56369e+12 -3.06516e+12 -3.16093e+12 -7.55451e+12 -4.50207e+12 -4.43029e+12 -1.7479e+12 -4.24715e+12 -2.60462e+12 -3.84487e+12 -3.36901e+12 -5.5947e+12 -4.64224e+12 -4.98674e+12 -3.89056e+12 -8.49438e+12 -6.18411e+12 -5.28832e+12 -3.09348e+12 -8.75798e+12 -6.58902e+12 -3.86293e+12 -4.15564e+12 -7.6051e+12 -5.83961e+12 -7.33669e+12 -6.86667e+12 -5.72443e+12 -6.02893e+12 -7.34381e+12 -8.00094e+12 -5.39526e+12 -7.39647e+12 -3.37125e+12 -5.93225e+12 -5.3759e+12 -7.00365e+12 -8.39803e+12 -6.15042e+12 -6.75228e+12 -5.26181e+12 -7.82626e+12 -3.75805e+12 -3.66158e+12 -4.84761e+12 -6.84131e+12 -4.624e+12 -5.4671e+12 -3.05056e+12 -8.82366e+12 -5.45291e+12 -5.1709e+12 -4.25674e+12 -6.06951e+12 -5.87387e+12 -7.19649e+12 -5.19964e+12 -2.73354e+12 -3.92588e+12 -2.93005e+12 -3.98773e+12 -3.99896e+12 -7.4688e+12 -6.66376e+12 -5.48751e+12 -6.20515e+12 -6.16195e+12 -7.07386e+12 -4.80644e+12 -4.38791e+12 -4.9056e+12 -4.43838e+12 -8.83681e+12 -6.9232e+12 -5.58225e+12 -4.79754e+12 -4.53922e+12 -4.27589e+12 -3.31772e+12 -4.62278e+12 -4.66172e+12 -4.99971e+12 -5.83849e+12 -3.59643e+12 -2.14995e+12 -3.74709e+12 -1.99766e+12 -4.83174e+12 -6.74803e+12 -3.97483e+12 -9.35968e+12 -5.24056e+12 -6.02071e+12 -5.46131e+12 -5.3065e+12 -5.65299e+12 -5.81785e+12 -4.58153e+12 -6.97928e+12 -4.79294e+12 -7.10086e+12 -6.46999e+12 -7.01699e+12 -4.68806e+12 -1.50481e+12 -4.05931e+12 -4.34831e+12 -6.76242e+12 -3.54917e+12 -4.73266e+12 -4.56662e+12 -3.81954e+12 -4.27213e+12 -3.79466e+12 -4.54875e+12 -1.94769e+12 -3.39073e+12 -1.96071e+12 -4.19815e+12 -4.38766e+12 -2.53145e+12 -2.39967e+12 -2.67079e+12 -2.65969e+12 -3.99682e+12 -3.33604e+12 -4.07472e+12 -3.03999e+12 -3.83354e+12 -2.51888e+12 -4.26624e+12 -3.83712e+12 -3.47009e+12 -4.6953e+12 -3.49126e+12 -4.87776e+12 -6.76562e+12 -2.96338e+12 -4.00742e+12 -4.03067e+12 -2.60279e+12 -3.93062e+12 -3.86953e+12 -3.02728e+12 -3.68872e+12 -1.0054e+12 -3.83918e+12 -5.14903e+12 -2.7325e+12 -4.90816e+12 -3.6586e+12 -2.90092e+12 -1.95919e+12 -5.39642e+12 -4.96821e+12 -3.95517e+12 -3.35922e+12 -5.75185e+12 -4.41166e+12 -2.25111e+12 -5.57633e+12 -4.85775e+12 -3.10852e+12 -2.86211e+12 -3.25141e+12 -1.60464e+12 -3.23861e+12 -6.95841e+12 -7.70098e+12 -6.73541e+12 -2.92154e+12 -7.27823e+12 -6.62247e+12 -3.96903e+12 -5.39736e+12 -4.6333e+12 -5.13558e+12 -3.57776e+12 -5.52152e+12 -5.46291e+12 -4.70295e+12 -4.2155e+12 -4.67213e+12 -3.98509e+12 -2.80231e+12 -3.88438e+12 -5.20782e+12 -4.82764e+12 -8.74954e+12 -4.94036e+12 -7.59775e+12 -6.10232e+12 -3.16813e+12 -3.42041e+12 -4.28541e+12 -3.62244e+12 -5.21671e+12 -8.03896e+12 -6.79826e+12 -4.86721e+12 -5.41321e+12 -7.22698e+12 -4.60939e+12 -5.58515e+12 -4.522e+12 -7.66388e+12 -3.77539e+12 -4.52716e+12 -7.44962e+12 -8.87578e+12 -5.27205e+12 -4.94151e+12 -6.79309e+12 -2.95041e+12 -1.8328e+12 -4.72084e+12 -7.88888e+12 -3.09036e+12 -7.24751e+12 -7.16518e+12 -7.7609e+12 -6.73188e+12 -8.78098e+12 -4.58877e+12 -4.73583e+12 -6.70569e+12 -5.30418e+12 -3.28933e+12 -5.60021e+12 -3.97137e+12 -4.7427e+12 -5.7862e+12 -4.22695e+12 -1.78234e+12 -4.10068e+12 -6.8417e+12 -4.93182e+12 -4.26833e+12 -2.18208e+12 -5.20172e+12 -6.55235e+12 -5.09142e+12 -5.05629e+12 -5.78516e+12 -4.16954e+12 -5.84937e+12 -4.27706e+12 -3.54461e+12 -4.28776e+12 -4.26793e+12 -3.34015e+12 -3.54492e+12 -4.4922e+12 -7.1212e+12 -5.91124e+12 -7.21612e+12 -3.53508e+12 -3.66702e+12 -1.93349e+12 -4.90048e+12 -3.51392e+12 -2.51756e+12 -4.28512e+12 -4.94114e+12 -5.1786e+12 -5.22416e+12 -3.18143e+12 -2.6801e+12 -5.57861e+12 -4.25079e+12 -4.59631e+12 -4.81472e+12 -1.6454e+12 -4.56624e+12 -2.47979e+12 -3.11518e+12 -3.54382e+12 -5.0595e+12 -2.22576e+12 -3.60071e+12 -1.66676e+12 -3.39353e+12 -3.38166e+12 -3.22841e+12 -2.0488e+12 -2.80425e+12 -2.50415e+12 -2.44974e+12 -4.56778e+12 -1.44062e+12 -3.66121e+12 -3.52339e+12 -2.83188e+12 -1.51141e+12 -2.00786e+12 -3.92299e+12 -3.24767e+12 -2.48456e+12 -3.00432e+12 -2.41829e+12 -1.52195e+12 -1.1358e+12 -3.14991e+12 -2.89339e+12 -4.08292e+12 -5.47472e+12 -4.92214e+12 -4.11522e+12 -2.81474e+12 -3.7072e+12 -3.13306e+12 -2.82667e+12 -2.84286e+12 -4.02634e+12 -4.12e+12 -3.43501e+12 -3.69319e+12 -3.54906e+12 -2.8548e+12 -2.31149e+12 -5.33313e+12 -7.33126e+12 -4.34531e+12 -2.85043e+12 -2.04842e+12 -2.65494e+12 -6.00835e+12 -3.56812e+12 -2.87177e+12 -2.21574e+12 -2.58159e+12 -3.61844e+12 -4.81415e+12 -4.10399e+12 -3.77289e+12 -6.16314e+12 -5.31238e+12 -6.7274e+12 -5.64643e+12 -5.20423e+12 -2.17712e+12 -1.39356e+12 -4.4914e+12 -4.44121e+12 -4.8659e+12 -2.94244e+12 -6.89271e+12 -5.74242e+12 -8.06076e+12 -4.61405e+12 -3.3874e+12 -5.76681e+12 -5.48322e+12 -6.8793e+12 -5.48574e+12 -5.71132e+12 -5.93393e+12 -8.46917e+12 -4.58743e+12 -4.83512e+12 -4.12433e+12 -5.88502e+12 -7.23925e+12 -5.50146e+12 -6.7677e+12 -4.99989e+12 -7.04021e+12 -5.91275e+12 -2.42507e+12 -4.40797e+12 -3.85566e+12 -6.68639e+12 -5.26519e+12 -4.33546e+12 -5.86429e+12 -4.62373e+12 -4.26859e+12 -4.73802e+12 -5.61029e+12 -6.43523e+12 -9.25089e+12 -5.50242e+12 -4.37902e+12 -3.66488e+12 -6.95322e+12 -5.22209e+12 -5.21985e+12 -3.20978e+12 -1.43674e+12 -5.2527e+12 -4.96512e+12 -4.40336e+12 -5.16112e+12 -2.94551e+12 -5.74772e+12 -3.4352e+12 -2.83957e+12 -4.43573e+12 -1.76306e+12 -3.85164e+12 -6.20503e+12 -5.40976e+12 -2.40725e+12 -5.60291e+12 -2.24776e+12 -5.02424e+12 -5.94813e+12 -2.85841e+12 -4.73971e+12 -3.29016e+12 -5.53952e+12 -5.84091e+12 -3.30894e+12 -4.77055e+12 -3.1347e+12 -4.23102e+12 -3.23203e+12 -3.8015e+12 -2.78683e+12 -2.42699e+12 -3.0958e+12 -2.44457e+12 -4.13543e+12 -4.34538e+12 -2.96012e+12 -1.38381e+12 -3.28784e+12 -3.40573e+12 -1.85248e+12 -1.83505e+12 -3.54759e+12 -3.77348e+12 -4.71173e+12 -3.36417e+12 -1.91318e+12 -2.39743e+12 -2.88322e+12 -1.86055e+12 -1.55314e+12 -2.59416e+12 -2.00175e+12 -2.55307e+12 -2.83519e+12 -1.46455e+12 -3.1387e+12 -2.93966e+12 -3.04994e+12 -2.42497e+12 -2.84132e+12 -2.1987e+12 -3.04487e+12 -3.24334e+12 -3.68851e+12 -3.35375e+12 -2.42978e+12 -2.06996e+12 -2.45981e+12 -3.00445e+12 -3.63613e+12 -3.99368e+12 -2.39117e+12 -3.32066e+12 -3.54445e+12 -3.26851e+12 -2.37064e+12 -4.6677e+12 -3.90387e+12 -3.23292e+12 -2.13593e+12 -4.44943e+12 -3.61435e+12 -3.16344e+12 -3.41007e+12 -5.71705e+12 -2.51257e+12 -5.46688e+12 -5.04721e+12 -3.36999e+12 -1.65946e+12 -2.99426e+12 -4.52722e+12 -4.84815e+12 -6.96196e+12 -2.95078e+12 -4.49593e+12 -5.57698e+12 -4.44157e+12 -3.75594e+12 -5.02571e+12 -7.36778e+12 -3.45466e+12 -3.63802e+12 -3.0667e+12 -3.63883e+12 -5.46079e+12 -4.75041e+12 -4.82742e+12 -6.48852e+12 -3.38477e+12 -4.24619e+12 -5.13028e+12 -4.40022e+12 -6.76686e+12 -8.28937e+12 -4.9739e+12 -6.81147e+12 -3.91613e+12 -3.59209e+12 -2.9279e+12 -2.33896e+12 -5.69779e+12 -3.79812e+12 -3.19417e+12 -4.36185e+12 -4.11099e+12 -6.74275e+12 -5.99198e+12 -4.66586e+12 -3.95377e+12 -4.22264e+12 -5.12852e+12 -1.96113e+12 -3.29597e+12 -3.30586e+12 -3.93713e+12 -3.89806e+12 -4.7954e+12 -4.14909e+12 -4.10403e+12 -3.1685e+12 -3.47009e+12 -3.12697e+12 -4.12819e+12 -3.92318e+12 -4.20693e+12 -4.32797e+12 -3.80178e+12 -5.26836e+12 -2.88727e+12 -3.41538e+12 -4.92954e+12 -5.01631e+12 -2.41434e+12 -5.35087e+12 -2.65997e+12 -4.578e+12 -1.00776e+12 -3.39682e+12 -2.36775e+12 -2.79205e+12 -3.2893e+12 -3.6457e+12 -3.11943e+12 -2.89339e+12 -4.12958e+12 -2.77366e+12 -4.69362e+12 -2.64363e+12 -1.88187e+12 -1.04093e+12 -3.36107e+12 -2.57603e+12 -1.73963e+12 -3.80632e+12 -2.53159e+12 -1.50679e+12 -2.89128e+12 -3.01759e+12 -2.64008e+12 -2.16906e+12 -1.84619e+12 -4.3355e+12 -3.99833e+12 -3.19722e+12 -2.65657e+12 -1.30817e+12 -2.79258e+12 -1.45459e+12 -2.8698e+12 -2.33345e+12 -2.07597e+12 -1.80548e+12 -2.05067e+12 -3.36751e+12 -2.72668e+12 -2.20013e+12 -2.31331e+12 -1.38824e+12 -4.14424e+12 -3.67009e+12 -2.18919e+12 -2.77737e+12 -2.53463e+12 -3.0685e+12 -4.32007e+12 -4.93766e+12 -3.09747e+12 -5.77232e+12 -2.07188e+12 -3.59906e+12 -2.09981e+12 -3.73203e+12 -3.4325e+12 -2.73747e+12 -3.28952e+12 -4.10343e+12 -2.67162e+12 -2.16407e+12 -4.20305e+12 -1.4351e+12 -2.43411e+12 -4.54263e+12 -4.54142e+12 -5.66724e+12 -2.50946e+12 -2.21196e+12 -5.57682e+12 -3.04314e+12 -3.47974e+12 -5.19638e+12 -2.28989e+12 -4.73615e+12 -5.59933e+12 -4.0776e+12 -5.69877e+12 -3.83997e+12 -3.91422e+12 -3.15532e+12 -2.84451e+12 -4.40563e+12 -4.63129e+12 -4.14345e+12 -4.2858e+12 -5.90338e+12 -2.92459e+12 -6.10216e+12 -4.17964e+12 -3.32265e+12 -3.90098e+12 -3.2518e+12 -6.31083e+12 -6.7082e+12 -3.53108e+12 -4.70986e+12 -4.33806e+12 -2.37656e+12 -8.34213e+12 -3.8041e+12 -5.0919e+12 -2.95005e+12 -4.95434e+12 -7.36063e+12 -3.05247e+12 -4.80682e+12 -2.95644e+12 -8.28271e+12 -2.70344e+12 -4.90211e+12 -5.09535e+12 -4.05678e+12 -3.88434e+12 -3.78125e+12 -3.27465e+12 -2.07163e+12 -3.92168e+12 -3.28418e+12 -3.21312e+12 -4.2274e+12 -3.54247e+12 -3.89523e+12 -2.32346e+12 -2.22733e+12 -2.34568e+12 -3.64745e+12 -2.82242e+12 -1.45016e+12 -2.52977e+12 -1.85177e+12 -2.51072e+12 -3.81305e+12 -2.08827e+12 -1.62267e+12 -1.31556e+12 -2.31964e+12 -2.63864e+12 -3.00043e+12 -1.37999e+12 -1.43109e+12 -2.31285e+12 -2.02287e+12 -914065000000.0 -2.83383e+12 -1.32447e+12 -1.36155e+12 -3.07284e+12 -2.00535e+12 -1.8524e+12 -2.25988e+12 -2.13739e+12 -2.95502e+12 -1.15444e+12 -771808000000.0 -260132000000.0 -1.74664e+12 -2.56843e+12 -1.80059e+12 -1.0377e+12 -1.55043e+12 -1.90783e+12 -2.39157e+12 -2.01951e+12 -1.14093e+12 -3.03321e+12 -1.84604e+12 -2.22649e+12 -1.46303e+12 -1.61779e+12 -1.93758e+12 -3.62216e+12 -2.3999e+12 -1.36702e+12 -3.21142e+12 -3.14309e+12 -3.34693e+12 -2.63534e+12 -919053000000.0 -3.09939e+12 -1.96477e+12 -4.70812e+12 -4.92597e+12 -2.56123e+12 -2.26929e+12 -1.95803e+12 -2.56049e+12 -2.18634e+12 -1.65689e+12 -3.36973e+12 -3.09777e+12 -2.29738e+12 -3.87645e+12 -3.33766e+12 -4.89799e+12 -3.84378e+12 -1.65713e+12 -1.43649e+12 -4.20404e+12 -3.06976e+12 -820777000000.0 -4.38545e+12 -3.59499e+12 -1.85218e+12 -2.90101e+12 -5.5278e+12 -2.13997e+12 -3.41635e+12 -5.71643e+12 -3.8264e+12 -3.47437e+12 -2.75852e+12 -3.30983e+12 -2.05691e+12 -3.18213e+12 -3.99712e+12 -5.36645e+12 -4.0204e+12 -4.34011e+12 -4.00828e+12 -4.89348e+12 -1.42431e+12 -5.89464e+12 -4.81871e+12 -3.84909e+12 -1.91126e+12 -4.61229e+12 -3.53396e+12 -2.76014e+12 -4.65783e+12 -2.63238e+12 -3.02078e+12 -2.63672e+12 -2.58324e+12 -2.82042e+12 -4.8468e+12 -5.02669e+12 -6.09751e+12 -5.40611e+12 -533476000000.0 -3.51667e+12 -5.30396e+12 -2.2697e+12 -3.48302e+12 -1.76842e+12 -4.06533e+12 -2.50747e+12 -1.91377e+12 -4.46373e+12 -3.0374e+12 -1.56155e+12 -2.52136e+12 -2.41767e+12 -2.89722e+12 -2.17504e+12 -2.36103e+12 -2.70677e+12 -1.39827e+12 -2.27134e+12 -2.53392e+12 -4.38302e+12 -1.98972e+12 -1.51391e+12 -3.28445e+12 -1.97897e+12 -2.3765e+12 -2.58125e+12 -1.85986e+12 -2.0623e+12 -784590000000.0 -1.37317e+12 -2.00827e+12 -806106000000.0 -2.60268e+12 -1.5295e+12 -919481000000.0 -2.23903e+12 -1.42111e+12 -582786000000.0 -2.00055e+12 -2.05331e+12 -1.56519e+12 -534472000000.0 -1.14459e+12 -2.66048e+12 -1.08483e+12 -1.23368e+12 -2.04664e+12 -818876000000.0 -469001000000.0 -975581000000.0 -2.1976e+12 -1.33108e+12 -1.02644e+12 -1.37527e+12 -1.09967e+12 -2.05467e+12 -1.72573e+12 -1.50085e+12 -2.67811e+12 -1.70859e+12 -1.07171e+12 -1.71678e+12 -1.12691e+12 -1.97388e+12 -1.74033e+12 -2.06177e+12 -3.17662e+12 -2.5304e+12 -2.68911e+12 -2.89453e+12 -4.76974e+12 -3.69956e+12 -1.7087e+12 -2.1516e+12 -2.42993e+12 -2.88408e+12 -2.14684e+12 -2.24305e+12 -2.37681e+12 -2.09653e+12 -4.72235e+12 -2.91927e+12 -3.03971e+12 -380052000000.0 -4.14729e+12 -3.45657e+12 -3.72827e+12 -2.21021e+12 -2.9718e+12 -2.67669e+12 -1.57136e+12 -4.06964e+12 -1.53899e+12 -4.13227e+12 -2.78064e+12 -3.66127e+12 -3.93409e+12 -2.06864e+12 -1.67728e+12 -3.07599e+12 -4.89497e+12 -3.03829e+12 -5.46226e+12 -2.14066e+12 -4.4148e+12 -2.28943e+12 -2.13998e+12 -2.59445e+12 -2.10338e+12 -4.69212e+12 -2.6595e+12 -1.77204e+12 -1.55708e+12 -3.29274e+12 -1.86697e+12 -931960000000.0 -2.64114e+12 -2.80484e+12 -2.17848e+12 -3.03911e+12 -3.27005e+12 -1.42213e+12 -3.86614e+12 -1.78586e+12 -2.71803e+12 -2.76619e+12 -1.74647e+12 -3.18803e+12 -2.0626e+12 -1.70336e+12 -2.41872e+12 -2.40415e+12 -1.82186e+12 -1.92121e+12 -2.38394e+12 -3.80904e+12 -1.25095e+12 -2.04656e+12 -2.95396e+12 -2.13748e+12 -850833000000.0 -2.19127e+12 -1.73451e+12 -2.56685e+12 -1.52615e+12 -377906000000.0 -1.51116e+12 -2.76148e+12 -2.16952e+12 -1.77857e+12 -1.33624e+12 -2.08404e+12 -1.13904e+12 -694720000000.0 -1.17592e+12 -843806000000.0 -1.09016e+12 -916764000000.0 -1.11844e+12 -909460000000.0 -651113000000.0 -1.2788e+12 -981964000000.0 -713609000000.0 -1.15988e+12 -612982000000.0 -758180000000.0 -503088000000.0 -1.44228e+12 -1.07804e+12 -1.31808e+12 -834297000000.0 -1.02526e+12 -1.35436e+12 -474614000000.0 -928221000000.0 -1.87309e+12 -2.75684e+12 -1.40699e+12 -2.0875e+12 -1.41363e+12 -2.29829e+12 -1.11274e+12 -856903000000.0 -1.60295e+12 -1.92296e+12 -1.31377e+12 -1.17787e+12 -1.91768e+12 -1.19228e+12 -1.02642e+12 -1.68612e+12 -2.91218e+12 -2.07663e+12 -1.25486e+12 -1.61562e+12 -2.50418e+12 -1.14732e+12 -1.71e+12 -1.6615e+12 -2.53005e+12 -1.52143e+12 -1.723e+12 -2.61036e+12 -3.80913e+12 -1.81383e+12 -1.15445e+12 -1.52934e+12 -3.40577e+12 -2.92246e+12 -2.49732e+12 -1.73657e+12 -1.42374e+12 -3.13968e+12 -1.21992e+12 -3.67683e+12 -1.85113e+12 -2.29541e+12 -1.67841e+12 -3.47982e+12 -2.84432e+12 -2.26777e+12 -2.26959e+12 -3.93362e+12 -1.50887e+12 -3.3908e+12 -3.95339e+12 -1.44487e+12 -4.38011e+12 -1.67558e+12 -2.8776e+12 -2.46967e+12 -2.52118e+12 -2.1553e+12 -2.07229e+12 -2.37915e+12 -966680000000.0 -3.29563e+12 -2.08468e+12 -1.52334e+12 -1.73151e+12 -1.84557e+12 -2.4207e+12 -1.7086e+12 -867340000000.0 -2.77606e+12 -1.84497e+12 -3.13319e+12 -2.16371e+12 -2.18071e+12 -2.00047e+12 -2.55636e+12 -2.18441e+12 -2.24969e+12 -1.94891e+12 -3.8108e+12 -1.53034e+12 -1.6582e+12 -1.70101e+12 -443343000000.0 -2.43791e+12 -1.98099e+12 -1.021e+12 -1.83075e+12 -1.07499e+12 -2.05862e+12 -1.0757e+12 -3.49215e+12 -2.43295e+12 -1.86519e+12 -1.12745e+12 -1.01997e+12 -1.09552e+12 -712249000000.0 -1.36215e+12 -1.82023e+12 -958949000000.0 -924832000000.0 -1.75926e+12 -597032000000.0 -969479000000.0 -1.56966e+12 -1.49983e+12 -860448000000.0 -538477000000.0 -671676000000.0 -783979000000.0 -297321000000.0 -95505400000.0 -406163000000.0 -371111000000.0 -553120000000.0 -474918000000.0 -370728000000.0 -369567000000.0 -265826000000.0 -307327000000.0 -454977000000.0 -561613000000.0 -486556000000.0 -432386000000.0 -463172000000.0 -707755000000.0 -1.05898e+12 -864708000000.0 -989430000000.0 -1.21582e+12 -1.21018e+12 -1.29703e+12 -2.03618e+12 -999267000000.0 -312421000000.0 -1.64131e+12 -961175000000.0 -909922000000.0 -1.25118e+12 -1.09118e+12 -2.45804e+12 -1.3512e+12 -1.75681e+12 -1.11227e+12 -1.0301e+12 -1.93328e+12 -1.44461e+12 -1.59237e+12 -1.6514e+12 -3.54105e+12 -2.44391e+12 -1.32978e+12 -3.21523e+12 -3.0218e+12 -1.25218e+12 -3.62067e+12 -1.02669e+12 -1.58519e+12 -2.50698e+12 -3.40259e+12 -3.00858e+12 -2.4601e+12 -1.62038e+12 -2.54249e+12 -4.58069e+12 -1.46596e+12 -2.07331e+12 -639724000000.0 -2.86532e+12 -2.85469e+12 -5.6465e+12 -2.07625e+12 -2.00692e+12 -1.4046e+12 -2.19501e+12 -1.87827e+12 -1.97717e+12 -1.72823e+12 -946855000000.0 -1.81665e+12 -1.36064e+12 -1.14029e+12 -1.13709e+12 -1.92113e+12 -595904000000.0 -1.54663e+12 -1.77058e+12 -2.72505e+12 -1.72977e+12 -1.11812e+12 -1.42816e+12 -1.08297e+12 -1.62009e+12 -2.14226e+12 -1.65713e+12 -1.88174e+12 -1.0858e+12 -1.28486e+12 -1.15809e+12 -1.36762e+12 -1.08181e+12 -1.41151e+12 -1.35579e+12 -999950000000.0 -1.11301e+12 -1.67889e+12 -1.12673e+12 -1.45191e+12 -852939000000.0 -1.44262e+12 -1.61373e+12 -627341000000.0 -1.1487e+12 -548150000000.0 -2.44755e+12 -696855000000.0 -1.18359e+12 -388530000000.0 -450850000000.0 -588691000000.0 -774947000000.0 -604506000000.0 -359199000000.0 -580008000000.0 -220389000000.0 -588953000000.0 -189597000000.0 -344127000000.0 -227974000000.0 -504816000000.0 -396893000000.0 -195175000000.0 -222366000000.0 -101032000000.0 -403641000000.0 -487231000000.0 -422547000000.0 -262621000000.0 -155022000000.0 -186280000000.0 -411374000000.0 -1.11489e+12 -166421000000.0 -208893000000.0 -266675000000.0 -556135000000.0 -355606000000.0 -1.31846e+12 -1.0889e+12 -441883000000.0 -798685000000.0 -1.49137e+12 -2.20672e+12 -1.32196e+12 -1.04233e+12 -1.74089e+12 -1.21649e+12 -1.38609e+12 -1.03499e+12 -292845000000.0 -1.33469e+12 -951817000000.0 -2.5585e+12 -1.38637e+12 -1.12855e+12 -2.78556e+12 -1.25067e+12 -1.10949e+12 -2.23325e+12 -1.72737e+12 -1.09338e+12 -1.24853e+12 -1.76158e+12 -2.29743e+12 -3.21839e+12 -1.83222e+12 -1.30925e+12 -1.85287e+12 -2.35407e+12 -1.44445e+12 -687921000000.0 -1.06215e+12 -1.60798e+12 -2.13419e+12 -1.77711e+12 -1.28474e+12 -954800000000.0 -1.18484e+12 -1.79726e+12 -1.12889e+12 -2.11403e+12 -1.08015e+12 -834188000000.0 -837234000000.0 -2.02871e+12 -1.44166e+12 -1.09358e+12 -643441000000.0 -758438000000.0 -744559000000.0 -1.72524e+12 -1.2e+12 -515149000000.0 -978734000000.0 -807926000000.0 -741246000000.0 -713241000000.0 -484163000000.0 -1.11411e+12 -895346000000.0 -1.05964e+12 -939086000000.0 -359624000000.0 -964413000000.0 -178518000000.0 -256360000000.0 -137873000000.0 -809882000000.0 -467910000000.0 -406291000000.0 -174739000000.0 -121336000000.0 -267724000000.0 -335587000000.0 -218600000000.0 -358733000000.0 -178436000000.0 -93643800000.0 -224008000000.0 -549391000000.0 -407874000000.0 -120997000000.0 -324021000000.0 -140516000000.0 -328026000000.0 -1.33677e+12 -913414000000.0 -324478000000.0 -697738000000.0 -677426000000.0 -1.29135e+12 -859354000000.0 -1.09633e+12 -695108000000.0 -862330000000.0 -1.54582e+12 -1.46866e+12 -1.50309e+12 -1.59924e+12 -2.51386e+12 -1.85718e+12 -1.30193e+12 -2.26602e+12 -1.0721e+12 -1.77222e+12 -1.41869e+12 -1.19543e+12 -746263000000.0 -1.6354e+12 -1.07372e+12 -866459000000.0 -1.35419e+12 -823651000000.0 -497249000000.0 -714491000000.0 -1.39282e+12 -1.0471e+12 -1.09526e+12 -1.06599e+12 -1.22041e+12 -831060000000.0 -757851000000.0 -600405000000.0 -661310000000.0 -477959000000.0 -699124000000.0 -199599000000.0 -753166000000.0 -289093000000.0 -233513000000.0 -255009000000.0 -155129000000.0 -443279000000.0 -1.09766e+12 -203331000000.0 -297120000000.0 -273410000000.0 -233149000000.0 -92632300000.0 -77142600000.0 -236355000000.0 -90323900000.0 -113447000000.0 -292040000000.0 -286340000000.0 -219293000000.0 -166145000000.0 -431865000000.0 -266907000000.0 -456145000000.0 -555790000000.0 -270894000000.0 -348667000000.0 -410419000000.0 -690971000000.0 -875408000000.0 -1.00287e+12 -588262000000.0 -1.06881e+12 -457199000000.0 -862148000000.0 -725916000000.0 -911023000000.0 -595980000000.0 -411773000000.0 -697257000000.0 -755689000000.0 -447819000000.0 -161083000000.0 -93954400000.0 -180214000000.0 -705719000000.0 -63490500000.0 -703281000000.0 -487626000000.0 -306376000000.0 -260236000000.0 -279181000000.0 -110316000000.0 -61913300000.0 -246267000000.0 -214324000000.0 -206039000000.0 -173950000000.0 -211580000000.0 -127081000000.0 -252147000000.0 -138753000000.0 -317332000000.0 -263243000000.0 -186835000000.0 -135741000000.0 -172677000000.0 -139676000000.0 