# vtk DataFile Version 2.0
Time step 95
ASCII
DATASET UNSTRUCTURED_GRID
POINTS 4650 float
294611.0 278689.0 0
208891.0 279643.0 0
215549.0 279335.0 0
219235.0 280827.0 0
236937.0 281159.0 0
243881.0 280920.0 0
247292.0 278841.0 0
250806.0 280741.0 0
257740.0 280610.0 0
265034.0 281332.0 0
276073.0 281074.0 0
284340.0 280718.0 0
291179.0 280701.0 0
298003.0 280768.0 0
201998.0 283619.0 0
205438.0 281627.0 0
208887.0 283638.0 0
212325.0 281660.0 0
215771.0 283638.0 0
223033.0 282015.0 0
226635.0 283705.0 0
233557.0 283294.0 0
240480.0 283010.0 0
247397.0 282821.0 0
254306.0 282654.0 0
261230.0 282555.0 0
272250.0 283261.0 0
280909.0 282736.0 0
287780.0 282725.0 0
294589.0 282749.0 0
205442.0 285613.0 0
212343.0 285643.0 0
219551.0 284786.0 0
223315.0 285984.0 0
230205.0 285464.0 0
237104.0 285134.0 0
244002.0 284897.0 0
250897.0 284722.0 0
257783.0 284591.0 0
266617.0 284994.0 0
277507.0 284788.0 0
284378.0 284714.0 0
291197.0 284737.0 0
298005.0 284761.0 0
201997.0 287596.0 0
208889.0 287608.0 0
215813.0 287631.0 0
219651.0 288732.0 0
226880.0 287675.0 0
233752.0 287270.0 0
240631.0 286987.0 0
244133.0 288864.0 0
247504.0 286791.0 0
250982.0 288693.0 0
254373.0 286638.0 0
257826.0 288572.0 0
261231.0 286530.0 0
264653.0 288457.0 0
270098.0 286939.0 0
274078.0 286801.0 0
277681.0 288742.0 0
281009.0 286720.0 0
284450.0 288707.0 0
287812.0 286718.0 0
291226.0 288724.0 0
294608.0 286743.0 0
298006.0 288748.0 0
201996.0 291555.0 0
205433.0 289574.0 0
208857.0 291555.0 0
212338.0 289602.0 0
215775.0 291606.0 0
223454.0 289943.0 0
227074.0 291619.0 0
230420.0 289436.0 0
233972.0 291222.0 0
237287.0 289097.0 0
240789.0 290950.0 0
247610.0 290753.0 0
254436.0 290610.0 0
261256.0 290514.0 0
268066.0 290364.0 0
274386.0 290740.0 0
281117.0 290708.0 0
287863.0 290707.0 0
294624.0 290727.0 0
205409.0 293523.0 0
212252.0 293543.0 0
219613.0 292655.0 0
223392.0 293883.0 0
230690.0 293360.0 0
237477.0 293054.0 0
244262.0 292822.0 0
251062.0 292654.0 0
257868.0 292545.0 0
264668.0 292445.0 0
271149.0 292740.0 0
277806.0 292715.0 0
284522.0 292696.0 0
291258.0 292707.0 0
298007.0 292727.0 0
201994.0 295506.0 0
208791.0 295500.0 0
215607.0 295549.0 0
219378.0 296547.0 0
227480.0 295515.0 0
234202.0 295172.0 0
240944.0 294908.0 0
244383.0 296776.0 0
247710.0 294707.0 0
251133.0 296606.0 0
254490.0 294571.0 0
257888.0 296510.0 0
261273.0 294498.0 0
264553.0 296589.0 0
267863.0 294671.0 0
271214.0 296691.0 0
274519.0 294717.0 0
277892.0 296691.0 0
281200.0 294693.0 0
284579.0 296677.0 0
287910.0 294690.0 0
291286.0 296682.0 0
294639.0 294704.0 0
298008.0 296697.0 0
201992.0 299453.0 0
205377.0 297473.0 0
208724.0 299458.0 0
212130.0 297486.0 0
215426.0 299459.0 0
224350.0 297669.0 0
227816.0 299465.0 0
230980.0 297310.0 0
234421.0 299136.0 0
237661.0 297012.0 0
241087.0 298863.0 0
247798.0 298654.0 0
254529.0 298523.0 0
261222.0 298511.0 0
267894.0 298624.0 0
274578.0 298673.0 0
281258.0 298666.0 0
287946.0 298663.0 0
294652.0 298671.0 0
205346.0 301424.0 0
212032.0 301453.0 0
218300.0 301877.0 0
221327.0 299838.0 0
224712.0 301632.0 0
231225.0 301282.0 0
237827.0 300974.0 0
244489.0 300722.0 0
251192.0 300548.0 0
257890.0 300478.0 0
264566.0 300541.0 0
271254.0 300627.0 0
277938.0 300648.0 0
284617.0 300645.0 0
291306.0 300647.0 0
298009.0 300657.0 0
201990.0 303395.0 0
208664.0 303424.0 0
215111.0 303713.0 0
221600.0 303766.0 0
228071.0 303444.0 0
234604.0 303107.0 0
241210.0 302815.0 0
244577.0 304659.0 0
247873.0 302590.0 0
251241.0 304477.0 0
254561.0 302467.0 0
257917.0 304415.0 0
261240.0 302465.0 0
264594.0 304466.0 0
267923.0 302552.0 0
271282.0 304548.0 0
274613.0 302610.0 0
277965.0 304588.0 0
281291.0 302623.0 0
284639.0 304597.0 0
287970.0 302623.0 0
291319.0 304597.0 0
294660.0 302626.0 0
298010.0 304602.0 0
201988.0 307328.0 0
205315.0 305371.0 0
211868.0 305543.0 0
218400.0 305759.0 0
224924.0 305596.0 0
231415.0 305261.0 0
234747.0 307076.0 0
237963.0 304934.0 0
241308.0 306759.0 0
247934.0 306511.0 0
254597.0 306387.0 0
261268.0 306386.0 0
267950.0 306463.0 0
274635.0 306534.0 0
281309.0 306563.0 0
287982.0 306567.0 0
294665.0 306566.0 0
205292.0 309313.0 0
208588.0 307405.0 0
211888.0 309470.0 0
215155.0 307627.0 0
218500.0 309636.0 0
221733.0 307674.0 0
225062.0 309544.0 0
228243.0 307418.0 0
231555.0 309230.0 0
238069.0 308887.0 0
244645.0 308579.0 0
251284.0 308382.0 0
257946.0 308322.0 0
264619.0 308369.0 0
271302.0 308455.0 0
277978.0 308514.0 0
284647.0 308533.0 0
291323.0 308531.0 0
298011.0 308530.0 0
201986.0 311243.0 0
208603.0 311328.0 0
215235.0 311507.0 0
221857.0 311581.0 0
228374.0 311379.0 0
234859.0 311035.0 0
241381.0 310691.0 0
244691.0 312477.0 0
247981.0 310408.0 0
251316.0 312260.0 0
254628.0 310279.0 0
257964.0 312201.0 0
261290.0 310278.0 0
264629.0 312249.0 0
267966.0 310357.0 0
271307.0 312348.0 0
274644.0 310444.0 0
277978.0 312427.0 0
281313.0 310489.0 0
284645.0 312452.0 0
287984.0 310494.0 0
291322.0 312445.0 0
294666.0 310487.0 0
298011.0 312438.0 0
201986.0 315121.0 0
205303.0 313216.0 0
211946.0 313350.0 0
218615.0 313507.0 0
225201.0 313495.0 0
231674.0 313190.0 0
234952.0 314990.0 0
238149.0 312832.0 0
241429.0 314612.0 0
248011.0 314274.0 0
254644.0 314143.0 0
261292.0 314145.0 0
267963.0 314231.0 0
274638.0 314340.0 0
281306.0 314399.0 0
287978.0 314402.0 0
294664.0 314388.0 0
205320.0 317073.0 0
208640.0 315201.0 0
212004.0 317188.0 0
215322.0 315356.0 0
218723.0 317348.0 0
222011.0 315486.0 0
225418.0 317471.0 0
228519.0 315341.0 0
231792.0 317154.0 0
238209.0 316774.0 0
244716.0 316341.0 0
251333.0 316108.0 0
257958.0 316055.0 0
264611.0 316106.0 0
271290.0 316224.0 0
277964.0 316326.0 0
284634.0 316356.0 0
291316.0 316338.0 0
298011.0 316325.0 0
201987.0 318961.0 0
208672.0 319030.0 0
215393.0 319168.0 0
222138.0 319346.0 0
228815.0 319486.0 0
235033.0 318950.0 0
241454.0 318528.0 0
244725.0 320148.0 0
248029.0 318101.0 0
251337.0 319929.0 0
254638.0 317984.0 0
257912.0 319892.0 0
261257.0 317989.0 0
264545.0 319936.0 0
267926.0 318081.0 0
271238.0 320078.0 0
274611.0 318222.0 0
277934.0 320210.0 0
281289.0 318296.0 0
284621.0 320242.0 0
287968.0 318291.0 0
291311.0 320209.0 0
294662.0 318264.0 0
298012.0 320188.0 0
201987.0 322765.0 0
205332.0 320890.0 0
208690.0 322823.0 0
212043.0 320988.0 0
215427.0 322945.0 0
218798.0 321150.0 0
225536.0 321402.0 0
232214.0 321498.0 0
238256.0 320722.0 0
241466.0 322457.0 0
248053.0 321882.0 0
254593.0 321816.0 0
261162.0 321811.0 0
267831.0 321898.0 0
274556.0 322082.0 0
281270.0 322175.0 0
287963.0 322160.0 0
294661.0 322116.0 0
205337.0 324674.0 0
212055.0 324757.0 0
218815.0 324913.0 0
222205.0 323168.0 0
225601.0 325336.0 0
228910.0 323431.0 0
232292.0 325428.0 0
235625.0 323490.0 0
239045.0 325474.0 0
244771.0 323835.0 0
251294.0 323747.0 0
257819.0 323721.0 0
264387.0 323733.0 0
271126.0 323897.0 0
277899.0 324070.0 0
284619.0 324110.0 0
291314.0 324055.0 0
298012.0 324028.0 0
201986.0 326537.0 0
208690.0 326589.0 0
215420.0 326693.0 0
222196.0 326928.0 0
228967.0 327363.0 0
235675.0 327408.0 0
244534.0 327388.0 0
247988.0 325657.0 0
251194.0 327550.0 0
254506.0 325644.0 0
257698.0 327552.0 0
261018.0 325632.0 0
264175.0 327546.0 0
267570.0 325653.0 0
270646.0 327594.0 0
274480.0 325902.0 0
277896.0 327894.0 0
281272.0 326034.0 0
284656.0 327966.0 0
287977.0 326010.0 0
291339.0 327881.0 0
294669.0 325944.0 0
298014.0 327848.0 0
201986.0 330282.0 0
205335.0 328432.0 0
208676.0 330336.0 0
212039.0 328506.0 0
215380.0 330421.0 0
218782.0 328639.0 0
222151.0 330616.0 0
225667.0 329298.0 0
232333.0 329345.0 0
237833.0 330585.0 0
241109.0 328776.0 0
247821.0 329370.0 0
254395.0 329461.0 0
260859.0 329469.0 0
267264.0 329474.0 0
273605.0 329507.0 0
281338.0 329876.0 0
288040.0 329850.0 0
294694.0 329752.0 0
205331.0 332170.0 0
212002.0 332242.0 0
218721.0 332331.0 0
225760.0 333282.0 0
229026.0 331295.0 0
234574.0 332451.0 0
241140.0 332676.0 0
244437.0 331062.0 0
247747.0 333104.0 0
251075.0 331320.0 0
254298.0 333266.0 0
257576.0 331384.0 0
260724.0 333322.0 0
263974.0 331399.0 0
267040.0 333343.0 0
270283.0 331415.0 0
273268.0 333324.0 0
276501.0 331325.0 0
279393.0 333021.0 0
284782.0 331822.0 0
291412.0 331694.0 0
298017.0 331655.0 0
201985.0 333998.0 0
205333.0 335887.0 0
208665.0 334075.0 0
211980.0 335989.0 0
215302.0 334135.0 0
218570.0 335979.0 0
222095.0 334230.0 0
231329.0 334374.0 0
237913.0 334475.0 0
244456.0 334823.0 0
251020.0 335096.0 0
257487.0 335219.0 0
263835.0 335274.0 0
270079.0 335284.0 0
276260.0 335148.0 0
282346.0 334588.0 0
285408.0 336083.0 0
288200.0 333698.0 0
291558.0 335513.0 0
294750.0 333554.0 0
298021.0 335466.0 0
201985.0 337678.0 0
208667.0 337806.0 0
215272.0 337888.0 0
221773.0 337726.0 0
228125.0 336391.0 0
231588.0 338260.0 0
234721.0 336335.0 0
238069.0 338347.0 0
241234.0 336539.0 0
244543.0 338625.0 0
247760.0 336875.0 0
254253.0 337076.0 0
260642.0 337183.0 0
266918.0 337230.0 0
273118.0 337178.0 0
279293.0 336847.0 0
282385.0 338407.0 0
288566.0 337650.0 0
294826.0 337375.0 0
205337.0 339578.0 0
211983.0 339740.0 0
218561.0 339730.0 0
222016.0 341291.0 0
225189.0 338745.0 0
228605.0 340334.0 0
234962.0 340217.0 0
241382.0 340393.0 0
247829.0 340673.0 0
251028.0 338891.0 0
254261.0 340894.0 0
257450.0 339057.0 0
260620.0 341043.0 0
263770.0 339154.0 0
266885.0 341118.0 0
269994.0 339165.0 0
273078.0 341042.0 0
276180.0 338979.0 0
279276.0 340654.0 0
285527.0 339914.0 0
291743.0 339393.0 0
298026.0 339289.0 0
201984.0 341310.0 0
205329.0 343243.0 0
208664.0 341519.0 0
211954.0 343477.0 0
215295.0 341654.0 0
218686.0 343433.0 0
225642.0 342524.0 0
231949.0 342180.0 0
238278.0 342222.0 0
244670.0 342449.0 0
251084.0 342700.0 0
257464.0 342895.0 0
263773.0 343029.0 0
269998.0 343051.0 0
276176.0 342819.0 0
282408.0 342174.0 0
285575.0 343677.0 0
288681.0 341505.0 0
291829.0 343232.0 0
294905.0 341222.0 0
298030.0 343122.0 0
201982.0 344881.0 0
208600.0 345224.0 0
215228.0 345384.0 0
222777.0 344756.0 0
226117.0 346372.0 0
229000.0 344236.0 0
232267.0 346099.0 0
235243.0 344121.0 0
238506.0 346107.0 0
241560.0 344250.0 0
244818.0 346287.0 0
247932.0 344490.0 0
254309.0 344717.0 0
260647.0 344896.0 0
266920.0 345002.0 0
273112.0 344924.0 0
279285.0 344471.0 0
282427.0 345897.0 0
288749.0 345288.0 0
294947.0 345056.0 0
201981.0 348370.0 0
205284.0 346914.0 0
208409.0 348971.0 0
211770.0 347219.0 0
217176.0 348374.0 0
220024.0 346754.0 0
223264.0 348521.0 0
229342.0 348155.0 0
235503.0 348027.0 0
241749.0 348114.0 0
248054.0 348319.0 0
251168.0 346520.0 0
254379.0 348540.0 0
257511.0 346728.0 0
260698.0 348734.0 0
263822.0 346891.0 0
266998.0 348876.0 0
270066.0 346946.0 0
273206.0 348837.0 0
276224.0 346691.0 0
279332.0 348331.0 0
285642.0 347374.0 0
291884.0 347035.0 0
294965.0 348871.0 0
298032.0 346944.0 0
205202.0 350668.0 0
214144.0 349826.0 0
220336.0 350491.0 0
226435.0 350264.0 0
232540.0 350015.0 0
238725.0 349991.0 0
244975.0 350133.0 0
251265.0 350345.0 0
257570.0 350554.0 0
263877.0 350732.0 0
270184.0 350845.0 0
276332.0 350609.0 0
282512.0 349520.0 0
285766.0 351020.0 0
288823.0 349031.0 0
291904.0 350824.0 0
298033.0 350744.0 0
201971.0 351701.0 0
207760.0 353202.0 0
210959.0 351388.0 0
214051.0 353462.0 0
217272.0 352009.0 0
220453.0 354296.0 0
223476.0 352346.0 0
226617.0 354132.0 0
229593.0 352062.0 0
232766.0 353906.0 0
235736.0 351922.0 0
238927.0 353865.0 0
241934.0 351978.0 0
245127.0 353982.0 0
248179.0 352154.0 0
251362.0 354174.0 0
254454.0 352364.0 0
260744.0 352559.0 0
267055.0 352719.0 0
273394.0 352793.0 0
279414.0 352266.0 0
282683.0 352969.0 0
288840.0 352786.0 0
294959.0 352661.0 0
201958.0 354818.0 0
205010.0 355543.0 0
210870.0 355121.0 0
217265.0 355490.0 0
223590.0 356181.0 0
229786.0 355925.0 0
235944.0 355795.0 0
242107.0 355838.0 0
248299.0 355993.0 0
254521.0 356190.0 0
257621.0 354376.0 0
260766.0 356380.0 0
263904.0 354555.0 0
267042.0 356542.0 0
270231.0 354696.0 0
273373.0 356689.0 0
276613.0 354738.0 0
282437.0 356305.0 0
285748.0 354698.0 0
288740.0 356533.0 0
291868.0 354594.0 0
294928.0 356404.0 0
298033.0 354508.0 0
201968.0 358104.0 0
207965.0 357149.0 0
210995.0 358875.0 0
214011.0 357005.0 0
217227.0 358782.0 0
220575.0 358217.0 0
226776.0 357959.0 0
232967.0 357759.0 0
239114.0 357726.0 0
245267.0 357830.0 0
251448.0 358007.0 0
257653.0 358201.0 0
263882.0 358378.0 0
270132.0 358538.0 0
276170.0 359005.0 0
279236.0 357384.0 0
285507.0 358319.0 0
291771.0 358306.0 0
298032.0 358224.0 0
201967.0 361591.0 0
205048.0 359370.0 0
208078.0 360953.0 0
214132.0 360553.0 0
220842.0 362205.0 0
223762.0 360016.0 0
227012.0 361754.0 0
229985.0 359745.0 0
233172.0 361586.0 0
236138.0 359644.0 0
239285.0 361575.0 0
242264.0 359690.0 0
245391.0 361678.0 0
248405.0 359835.0 0
251516.0 361847.0 0
254569.0 360022.0 0
257659.0 362035.0 0
260754.0 360208.0 0
266950.0 360382.0 0
273046.0 360661.0 0
279098.0 361283.0 0
282243.0 359872.0 0
285330.0 361984.0 0
288550.0 360229.0 0
291637.0 361928.0 0
294875.0 360077.0 0
205087.0 363089.0 0
208268.0 364613.0 0
211219.0 362549.0 0
214562.0 364024.0 0
217468.0 361961.0 0
224105.0 363831.0 0
230225.0 363550.0 0
236325.0 363481.0 0
242405.0 363539.0 0
248492.0 363681.0 0
254596.0 363862.0 0
260710.0 364051.0 0
263812.0 362219.0 0
266802.0 364257.0 0
269919.0 362443.0 0
275966.0 362889.0 0
282135.0 363576.0 0
288393.0 363958.0 0
294821.0 363660.0 0
298030.0 361887.0 0
201970.0 365152.0 0
205207.0 366695.0 0
211667.0 366052.0 0
218082.0 365163.0 0
221347.0 366082.0 0
227328.0 365560.0 0
230496.0 367372.0 0
233389.0 365409.0 0
236507.0 367320.0 0
239442.0 365419.0 0
245495.0 365528.0 0
251562.0 365693.0 0
257641.0 365881.0 0
263708.0 366082.0 0
269740.0 366333.0 0
272844.0 364568.0 0
275780.0 366726.0 0
278944.0 365095.0 0
281969.0 367290.0 0
285230.0 365721.0 0
291538.0 365440.0 0
298033.0 365514.0 0
302245.0 366832.0 0
201980.0 368705.0 0
208757.0 368053.0 0
212276.0 369459.0 0
215157.0 367391.0 0
218567.0 368612.0 0
221785.0 369882.0 0
224528.0 367665.0 0
227672.0 369397.0 0
233609.0 369249.0 0
239582.0 369269.0 0
242525.0 367389.0 0
245575.0 369380.0 0
248556.0 367531.0 0
251587.0 369545.0 0
254601.0 367712.0 0
257603.0 369739.0 0
260643.0 367910.0 0
266658.0 368136.0 0
272657.0 368435.0 0
278731.0 368868.0 0
284994.0 369433.0 0
288335.0 367805.0 0
291747.0 368686.0 0
294910.0 367156.0 0
298037.0 369200.0 0
203163.0 371859.0 0
205888.0 370010.0 0
209465.0 371448.0 0
215726.0 370826.0 0
219027.0 372195.0 0
224910.0 371500.0 0
230766.0 371223.0 0
236674.0 371173.0 0
242621.0 371244.0 0
248597.0 371385.0 0
254587.0 371568.0 0
260569.0 371778.0 0
263602.0 369955.0 0
266523.0 372014.0 0
269573.0 370209.0 0
272461.0 372293.0 0
275563.0 370546.0 0
281661.0 371003.0 0
287828.0 371702.0 0
291317.0 371667.0 0
294937.0 370678.0 0
298003.0 372976.0 0
201931.0 374513.0 0
206767.0 373389.0 0
210250.0 374892.0 0
212936.0 372895.0 0
216259.0 374363.0 0
222179.0 373666.0 0
225236.0 375345.0 0
227980.0 373256.0 0
231002.0 375100.0 0
233812.0 373113.0 0
236818.0 375047.0 0
239700.0 373130.0 0
242693.0 375109.0 0
245631.0 373237.0 0
251591.0 373400.0 0
257557.0 373601.0 0
263498.0 373830.0 0
269409.0 374085.0 0
275313.0 374384.0 0
278438.0 372653.0 0
281222.0 374789.0 0
284461.0 373173.0 0
286975.0 375539.0 0
290257.0 374689.0 0
294028.0 373836.0 0
196587.0 379415.0 0
199515.0 377576.0 0
202419.0 377856.0 0
204894.0 375781.0 0
207958.0 377064.0 0
213544.0 376446.0 0
219456.0 375861.0 0
222518.0 377471.0 0
228236.0 377135.0 0
233983.0 377002.0 0
239792.0 377008.0 0
245662.0 377099.0 0
248615.0 375241.0 0
251578.0 377252.0 0
254561.0 375424.0 0
257506.0 377460.0 0
260495.0 375647.0 0
263401.0 377708.0 0
266392.0 375895.0 0
272257.0 376166.0 0
278094.0 376496.0 0
283824.0 377025.0 0
289322.0 378222.0 0
292584.0 377188.0 0
295928.0 376345.0 0
299030.0 376424.0 0
303666.0 379558.0 0
193580.0 381282.0 0
199712.0 380689.0 0
202906.0 380834.0 0
205618.0 379334.0 0
211001.0 378581.0 0
214155.0 380091.0 0
216753.0 377986.0 0
219814.0 379606.0 0
225501.0 379210.0 0
231191.0 378999.0 0
236933.0 378941.0 0
242740.0 378983.0 0
248612.0 379095.0 0
254526.0 379271.0 0
260427.0 379512.0 0
266266.0 379783.0 0
269246.0 377971.0 0
272047.0 380065.0 0
275046.0 378265.0 0
277748.0 380408.0 0
280755.0 378673.0 0
286248.0 379418.0 0
291650.0 380793.0 0
294731.0 379858.0 0
297782.0 379553.0 0
301114.0 378615.0 0
306486.0 381317.0 0
190616.0 383138.0 0
193694.0 384357.0 0
196522.0 382514.0 0
199215.0 383817.0 0
202218.0 383579.0 0
205658.0 383035.0 0
208450.0 380800.0 0
211600.0 382190.0 0
217163.0 381730.0 0
222786.0 381306.0 0
225694.0 383095.0 0
228433.0 381033.0 0
231335.0 382913.0 0
234118.0 380911.0 0
237025.0 382854.0 0
239860.0 380902.0 0
242771.0 382871.0 0
245671.0 380964.0 0
248595.0 382941.0 0
251552.0 381092.0 0
257459.0 381304.0 0
263310.0 381588.0 0
269079.0 381877.0 0
274781.0 382189.0 0
280349.0 382625.0 0
283276.0 380956.0 0
285718.0 383339.0 0
288620.0 381955.0 0
294115.0 383373.0 0
297134.0 382775.0 0
300214.0 382030.0 0
303244.0 382164.0 0
306370.0 384069.0 0
309472.0 383206.0 0
184246.0 387109.0 0
187426.0 385121.0 0
190260.0 386023.0 0
196686.0 385924.0 0
200303.0 386707.0 0
203445.0 386226.0 0
206716.0 386345.0 0
209000.0 384222.0 0
214534.0 383836.0 0
217431.0 385515.0 0
220101.0 383417.0 0
222971.0 385178.0 0
228569.0 384943.0 0
234224.0 384833.0 0
239921.0 384815.0 0
245678.0 384832.0 0
251526.0 384908.0 0
254490.0 383094.0 0
257421.0 385121.0 0
260367.0 383368.0 0
263220.0 385476.0 0
266137.0 383687.0 0
271832.0 383993.0 0
277442.0 384364.0 0
282877.0 384923.0 0
288205.0 385762.0 0
291092.0 384429.0 0
296849.0 386012.0 0
299828.0 385426.0 0
302812.0 384837.0 0
305673.0 386614.0 0
309195.0 386506.0 0
312314.0 384984.0 0
315337.0 386861.0 0
181103.0 389077.0 0
187046.0 388061.0 0
189871.0 389028.0 0
193045.0 387137.0 0
195490.0 388829.0 0
198400.0 389028.0 0
204769.0 388902.0 0
209420.0 388028.0 0
211906.0 385907.0 0
214790.0 387593.0 0
220261.0 387266.0 0
225810.0 386994.0 0
231435.0 386831.0 0
237107.0 386781.0 0
242814.0 386773.0 0
248597.0 386774.0 0
254471.0 386879.0 0
260314.0 387209.0 0
265977.0 387621.0 0
268895.0 385806.0 0
271609.0 387936.0 0
274533.0 386139.0 0
277202.0 388326.0 0
280047.0 386601.0 0
285405.0 387263.0 0
290794.0 388122.0 0
293702.0 386818.0 0
299935.0 388722.0 0
302787.0 387928.0 0
306706.0 389055.0 0
309768.0 389915.0 0
312375.0 388139.0 0
315534.0 389955.0 0
318443.0 388797.0 0
177998.0 391020.0 0
180826.0 392138.0 0
183914.0 390113.0 0
186782.0 391091.0 0
189670.0 392166.0 0
192656.0 390344.0 0
195838.0 391940.0 0
198881.0 391968.0 0
201723.0 389799.0 0
204399.0 392101.0 0
207349.0 390365.0 0
212230.0 389677.0 0
217576.0 389354.0 0
220320.0 391147.0 0
223057.0 389064.0 0
225850.0 390884.0 0
228647.0 388847.0 0
231496.0 390737.0 0
234303.0 388756.0 0
237179.0 390709.0 0
239991.0 388740.0 0
242893.0 390676.0 0
245725.0 388700.0 0
248688.0 390590.0 0
251551.0 388693.0 0
254532.0 390622.0 0
257406.0 388898.0 0
263086.0 389387.0 0
268661.0 389756.0 0
274328.0 390080.0 0
279853.0 390560.0 0
282636.0 388884.0 0
285259.0 391175.0 0
287999.0 389594.0 0
293461.0 390394.0 0
296427.0 389093.0 0
298639.0 391418.0 0
303953.0 390611.0 0
307127.0 392145.0 0
312816.0 391455.0 0
318740.0 391819.0 0
321623.0 390780.0 0
171931.0 394823.0 0
174938.0 392937.0 0
177795.0 394144.0 0
183730.0 393171.0 0
186672.0 394194.0 0
192762.0 393318.0 0
195750.0 395142.0 0
201618.0 393424.0 0
207160.0 393885.0 0
209940.0 391923.0 0
212484.0 393628.0 0
214942.0 391442.0 0
217616.0 393247.0 0
223056.0 392953.0 0
228667.0 392728.0 0
234361.0 392667.0 0
240080.0 392660.0 0
245862.0 392540.0 0
251724.0 392443.0 0
257491.0 392661.0 0
260237.0 391046.0 0
262594.0 393483.0 0
265668.0 391601.0 0
271419.0 391856.0 0
277033.0 392265.0 0
282523.0 392815.0 0
287940.0 393439.0 0
290665.0 391871.0 0
295937.0 392725.0 0
301519.0 392303.0 0
304498.0 393996.0 0
310184.0 393317.0 0
313258.0 394776.0 0
315958.0 393145.0 0
319180.0 394900.0 0
322002.0 393739.0 0
324865.0 392804.0 0
328164.0 394866.0 0
168965.0 396688.0 0
174850.0 396131.0 0
177900.0 397307.0 0
180748.0 395244.0 0
183747.0 396296.0 0
186765.0 397322.0 0
189685.0 395221.0 0
192697.0 396302.0 0
198629.0 395054.0 0
201389.0 396893.0 0
204290.0 395522.0 0
209768.0 395661.0 0
215031.0 395408.0 0
220287.0 395042.0 0
225820.0 394747.0 0
231511.0 394613.0 0
237253.0 394623.0 0
243056.0 394550.0 0
248973.0 394357.0 0
254853.0 394322.0 0
259475.0 395430.0 0
265483.0 395466.0 0
268473.0 393654.0 0
271258.0 395748.0 0
274167.0 393994.0 0
276925.0 396161.0 0
279751.0 394480.0 0
285234.0 395065.0 0
290645.0 395685.0 0
293288.0 394154.0 0
296233.0 396231.0 0
298974.0 394648.0 0
301951.0 395930.0 0
307583.0 395447.0 0
310628.0 396721.0 0
316418.0 396370.0 0
322460.0 396746.0 0
325315.0 395704.0 0
331473.0 396936.0 0
166066.0 398497.0 0
169177.0 400097.0 0
171956.0 398085.0 0
175119.0 399322.0 0
181020.0 398421.0 0
184180.0 399511.0 0
189737.0 398348.0 0
192644.0 399328.0 0
195493.0 398425.0 0
198356.0 398155.0 0
203791.0 399028.0 0
206859.0 397475.0 0
209452.0 399362.0 0
212336.0 397482.0 0
217594.0 397201.0 0
220201.0 398940.0 0
222982.0 396831.0 0
225722.0 398565.0 0
228629.0 396567.0 0
231471.0 398448.0 0
234381.0 396548.0 0
237301.0 398488.0 0
240214.0 396542.0 0
243345.0 398305.0 0
246210.0 396292.0 0
249676.0 397952.0 0
252270.0 396083.0 0
256360.0 397411.0 0
262470.0 397312.0 0
268312.0 397525.0 0
274046.0 397867.0 0
279717.0 398346.0 0
282505.0 396706.0 0
285297.0 398929.0 0
287984.0 397286.0 0
293554.0 397804.0 0
299306.0 398023.0 0
302362.0 399451.0 0
304968.0 397433.0 0
308025.0 398852.0 0
311057.0 400133.0 0
313711.0 398092.0 0
316865.0 399624.0 0
319635.0 398029.0 0
322886.0 399820.0 0
325759.0 398657.0 0
328634.0 397778.0 0
331940.0 399895.0 0
334764.0 398994.0 0
159700.0 402458.0 0
162809.0 400509.0 0
165530.0 401468.0 0
167919.0 402894.0 0
172450.0 401322.0 0
175726.0 402529.0 0
178343.0 400485.0 0
181606.0 401613.0 0
184916.0 402724.0 0
187359.0 400598.0 0
190586.0 401682.0 0
194142.0 401931.0 0
197233.0 401394.0 0
200610.0 400366.0 0
206314.0 400996.0 0
212093.0 401274.0 0
214900.0 399328.0 0
217468.0 401133.0 0
222841.0 400705.0 0
228527.0 400355.0 0
234338.0 400388.0 0
240379.0 400311.0 0
244280.0 401672.0 0
246930.0 399766.0 0
250401.0 401394.0 0
253308.0 399396.0 0
256488.0 401157.0 0
259464.0 399215.0 0
262392.0 401178.0 0
265349.0 399330.0 0
268185.0 401386.0 0
271125.0 399608.0 0
276862.0 400001.0 0
282556.0 400544.0 0
288171.0 401068.0 0
290873.0 399411.0 0
293905.0 401413.0 0
296605.0 399767.0 0
299716.0 401483.0 0
305433.0 400894.0 0
308503.0 402344.0 0
311494.0 403585.0 0
314129.0 401394.0 0
320046.0 401201.0 0
326148.0 401666.0 0
329061.0 400725.0 0
335166.0 402035.0 0
337998.0 401019.0 0
341178.0 403010.0 0
156666.0 404360.0 0
162491.0 403636.0 0
165186.0 404885.0 0
170592.0 403737.0 0
173508.0 404809.0 0
179018.0 403678.0 0
182345.0 404790.0 0
188339.0 403787.0 0
192091.0 404544.0 0
195811.0 404682.0 0
199466.0 403584.0 0
203003.0 402424.0 0
205622.0 404386.0 0
208936.0 402925.0 0
214816.0 403235.0 0
220044.0 402803.0 0
225536.0 402308.0 0
228381.0 404075.0 0
231363.0 402242.0 0
234166.0 404197.0 0
237279.0 402269.0 0
241716.0 403457.0 0
247609.0 403334.0 0
253568.0 403128.0 0
259453.0 403077.0 0
265245.0 403206.0 0
271022.0 403440.0 0
273955.0 401695.0 0
276827.0 403780.0 0
279728.0 402146.0 0
282660.0 404304.0 0
285449.0 402744.0 0
291155.0 403079.0 0
297026.0 403336.0 0
302838.0 402952.0 0
305998.0 404377.0 0
309148.0 405979.0 0
314520.0 404672.0 0
317267.0 402913.0 0
320402.0 404407.0 0
323247.0 402960.0 0
326343.0 404769.0 0
329328.0 403759.0 0
332272.0 402913.0 0
335440.0 405118.0 0
338338.0 404136.0 0
344297.0 404964.0 0
153677.0 406233.0 0
156550.0 407616.0 0
159506.0 405664.0 0
162350.0 406941.0 0
168057.0 406194.0 0
171019.0 407167.0 0
176609.0 405876.0 0
179839.0 406935.0 0
183189.0 407976.0 0
185740.0 405846.0 0
189241.0 406726.0 0
192540.0 407572.0 0
195535.0 407832.0 0
198747.0 406675.0 0
202177.0 405616.0 0
208231.0 406382.0 0
211604.0 404860.0 0
214355.0 406833.0 0
217658.0 405275.0 0
222532.0 404600.0 0
225334.0 405845.0 0
231082.0 406032.0 0
236389.0 406636.0 0
239108.0 405090.0 0
242024.0 407114.0 0
244851.0 405287.0 0
247840.0 407097.0 0
250699.0 405127.0 0
253643.0 406985.0 0
256537.0 405016.0 0
262318.0 405073.0 0
268086.0 405239.0 0
273887.0 405481.0 0
279761.0 405865.0 0
285613.0 406543.0 0
288385.0 404814.0 0
291410.0 406700.0 0
294262.0 404973.0 0
297438.0 406937.0 0
300177.0 404987.0 0
303390.0 406420.0 0
306737.0 407790.0 0
312043.0 407140.0 0
315168.0 407838.0 0
317683.0 406258.0 0
320380.0 407758.0 0
323358.0 406236.0 0
326481.0 407857.0 0
329501.0 406827.0 0
332489.0 405974.0 0
338515.0 407314.0 0
341427.0 406210.0 0
344430.0 408243.0 0
347364.0 406881.0 0
147790.0 409919.0 0
150721.0 408083.0 0
153620.0 409527.0 0
159466.0 408947.0 0
162436.0 410248.0 0
165267.0 408218.0 0
168297.0 409448.0 0
174073.0 408176.0 0
177229.0 409168.0 0
180491.0 410143.0 0
186659.0 408950.0 0
190165.0 409919.0 0
197802.0 409982.0 0
201304.0 408876.0 0
204781.0 407709.0 0
207403.0 409790.0 0
210904.0 408303.0 0
217079.0 408958.0 0
220500.0 407441.0 0
224565.0 409071.0 0
227994.0 407796.0 0
233539.0 408200.0 0
239117.0 408810.0 0
244931.0 409021.0 0
250741.0 408967.0 0
256498.0 408927.0 0
259403.0 406982.0 0
262235.0 408976.0 0
265157.0 407086.0 0
268013.0 409083.0 0
270947.0 407254.0 0
273847.0 409242.0 0
276798.0 407501.0 0
279761.0 409503.0 0
282768.0 407972.0 0
288523.0 408562.0 0
294602.0 408439.0 0
300575.0 408482.0 0
303810.0 409748.0 0
307091.0 410833.0 0
310139.0 409851.0 0
313674.0 410423.0 0
317482.0 410053.0 0
323516.0 409497.0 0
329418.0 409973.0 0
332492.0 409105.0 0
335527.0 408257.0 0
338478.0 410530.0 0
341510.0 409487.0 0
347418.0 410081.0 0
350460.0 408817.0 0
353756.0 410866.0 0
144880.0 411740.0 0
150707.0 411412.0 0
153673.0 412851.0 0
156571.0 410915.0 0
159577.0 412251.0 0
165481.0 411511.0 0
168597.0 412707.0 0
171381.0 410477.0 0
174517.0 411464.0 0
177715.0 412407.0 0
183841.0 411118.0 0
187195.0 412073.0 0
190534.0 412975.0 0
193833.0 410819.0 0
200527.0 412134.0 0
203960.0 411051.0 0
210050.0 411685.0 0
213573.0 410308.0 0
218933.0 411744.0 0
221787.0 410581.0 0
227390.0 411391.0 0
230575.0 409889.0 0
233177.0 412055.0 0
236161.0 410428.0 0
238927.0 412548.0 0
241951.0 410832.0 0
247799.0 410911.0 0
253583.0 410886.0 0
259322.0 410903.0 0
265077.0 410959.0 0
270907.0 411052.0 0
276795.0 411197.0 0
282790.0 411479.0 0
285730.0 410405.0 0
288582.0 412382.0 0
291527.0 410240.0 0
294808.0 411623.0 0
297889.0 410637.0 0
301243.0 411966.0 0
315930.0 413065.0 0
320691.0 410778.0 0
323096.0 413061.0 0
326275.0 411014.0 0
329333.0 413086.0 0
332370.0 412273.0 0
335418.0 411441.0 0
341206.0 412795.0 0
344389.0 411635.0 0
348196.0 412977.0 0
350926.0 411825.0 0
357016.0 412905.0 0
139078.0 415365.0 0
141982.0 413553.0 0
144943.0 415127.0 0
147814.0 413280.0 0
150781.0 414770.0 0
156697.0 414231.0 0
159780.0 415559.0 0
162643.0 413550.0 0
165763.0 414799.0 0
171742.0 413761.0 0
174917.0 414734.0 0
180969.0 413327.0 0
184224.0 414311.0 0
187416.0 415256.0 0
193622.0 414015.0 0
196927.0 412930.0 0
203198.0 414482.0 0
206522.0 413277.0 0
209135.0 415036.0 0
212593.0 413834.0 0
215867.0 412704.0 0
221401.0 414305.0 0
224416.0 412901.0 0
230068.0 413636.0 0
235880.0 414212.0 0
241746.0 414589.0 0
244798.0 412792.0 0
247631.0 414746.0 0
250633.0 412837.0 0
253452.0 414794.0 0
256401.0 412849.0 0
259232.0 414820.0 0
262157.0 412878.0 0
265021.0 414830.0 0
267949.0 412911.0 0
270862.0 414817.0 0
273863.0 412986.0 0
279791.0 413122.0 0
282968.0 414758.0 0
286165.0 415029.0 0
291905.0 413650.0 0
298615.0 414323.0 0
302037.0 415276.0 0
304827.0 413057.0 0
308787.0 413453.0 0
312231.0 413132.0 0
319349.0 413353.0 0
326235.0 413879.0 0
331759.0 415574.0 0
334907.0 414753.0 0
338043.0 413834.0 0
343044.0 415361.0 0
345737.0 414391.0 0
351329.0 415006.0 0
354162.0 413922.0 0
357348.0 416001.0 0
360248.0 414928.0 0
136108.0 417217.0 0
139152.0 418649.0 0
142080.0 416938.0 0
147905.0 416682.0 0
150915.0 418153.0 0
153805.0 416195.0 0
156892.0 417555.0 0
162916.0 416857.0 0
166087.0 418108.0 0
168922.0 415991.0 0
172091.0 417057.0 0
175274.0 418012.0 0
178132.0 415641.0 0
181385.0 416555.0 0
184665.0 417622.0 0
190439.0 416237.0 0
193337.0 417138.0 0
196517.0 416167.0 0
199777.0 415332.0 0
205630.0 416984.0 0
211884.0 417258.0 0
215133.0 416318.0 0
218290.0 415388.0 0
223909.0 416727.0 0
226987.0 415224.0 0
229615.0 417424.0 0
232768.0 415828.0 0
238660.0 416315.0 0
244576.0 416595.0 0
250457.0 416716.0 0
256286.0 416764.0 0
262098.0 416774.0 0
267926.0 416742.0 0
273825.0 416654.0 0
276916.0 414884.0 0
280168.0 416733.0 0
289485.0 416057.0 0
292944.0 417032.0 0
295348.0 414600.0 0
299873.0 417886.0 0
305440.0 416078.0 0
308487.0 416568.0 0
311570.0 416273.0 0
314793.0 416090.0 0
318141.0 416205.0 0
321641.0 416059.0 0
324908.0 416439.0 0
328508.0 416293.0 0
334045.0 418136.0 0
337158.0 417311.0 0
340164.0 416373.0 0
345639.0 417725.0 0
348569.0 416354.0 0
351508.0 418320.0 0
354426.0 417095.0 0
360533.0 418055.0 0
363470.0 416945.0 0
129906.0 421091.0 0
133044.0 419129.0 0
136097.0 420407.0 0
139173.0 421895.0 0
145038.0 418563.0 0
148019.0 420109.0 0
153990.0 419552.0 0
157139.0 420881.0 0
160042.0 418868.0 0
163237.0 420181.0 0
169279.0 419322.0 0
172460.0 420399.0 0
178480.0 418883.0 0
181720.0 419775.0 0
184942.0 420962.0 0
187925.0 418665.0 0
191310.0 419736.0 0
195260.0 419470.0 0
198758.0 418704.0 0
202195.0 417903.0 0
208570.0 418185.0 0
214295.0 419854.0 0
217578.0 419014.0 0
220774.0 418010.0 0
226423.0 419068.0 0
232354.0 419587.0 0
235531.0 417979.0 0
238336.0 420096.0 0
241477.0 418377.0 0
247410.0 418595.0 0
253301.0 418693.0 0
259157.0 418724.0 0
265005.0 418698.0 0
270877.0 418599.0 0
276848.0 418384.0 0
279777.0 420068.0 0
283732.0 418154.0 0
287222.0 418724.0 0
290683.0 419586.0 0
296564.0 417576.0 0
303288.0 418669.0 0
306754.0 419393.0 0
310270.0 419534.0 0
313616.0 419325.0 0
316971.0 419214.0 0
320437.0 419095.0 0
323805.0 419246.0 0
327293.0 419163.0 0
330789.0 418817.0 0
336435.0 420725.0 0
339567.0 419855.0 0
342620.0 418849.0 0
345363.0 421007.0 0
348502.0 419669.0 0
354539.0 420332.0 0
357550.0 419162.0 0
360711.0 421218.0 0
363729.0 420099.0 0
366694.0 418962.0 0
369926.0 420985.0 0
126701.0 423092.0 0
132946.0 422292.0 0
136014.0 423565.0 0
142154.0 420367.0 0
145110.0 422029.0 0
151062.0 421543.0 0
154208.0 422904.0 0
160347.0 422180.0 0
163604.0 423525.0 0
166456.0 421445.0 0
169677.0 422721.0 0
175647.0 421328.0 0
178876.0 422149.0 0
182183.0 423027.0 0
187993.0 421908.0 0
190842.0 422858.0 0
193968.0 422352.0 0
197482.0 421992.0 0
200901.0 421345.0 0
204282.0 420652.0 0
207447.0 421071.0 0
210962.0 420663.0 0
216605.0 422553.0 0
220020.0 421725.0 0
223245.0 420560.0 0
229094.0 421147.0 0
235156.0 421747.0 0
241164.0 422181.0 0
244313.0 420419.0 0
247176.0 422448.0 0
250265.0 420591.0 0
253157.0 422578.0 0
256181.0 420663.0 0
259109.0 422614.0 0
262072.0 420660.0 0
265039.0 422559.0 0
267961.0 420576.0 0
270972.0 422391.0 0
273886.0 420365.0 0
276932.0 422068.0 0
282503.0 421391.0 0
285514.0 421788.0 0
288702.0 422394.0 0
294260.0 420280.0 0
297790.0 420832.0 0
301226.0 421323.0 0
304772.0 421958.0 0
308489.0 422416.0 0
312133.0 422501.0 0
315666.0 422327.0 0
319221.0 422130.0 0
322708.0 422151.0 0
326221.0 422093.0 0
329731.0 421854.0 0
333176.0 421416.0 0
338970.0 423270.0 0
342170.0 422258.0 0
348286.0 422914.0 0
351467.0 421596.0 0
354527.0 423558.0 0
357647.0 422355.0 0
363912.0 423277.0 0
366944.0 422144.0 0
373170.0 423015.0 0
123504.0 425093.0 0
126491.0 426303.0 0
129675.0 424250.0 0
132653.0 425406.0 0
135628.0 426606.0 0
139115.0 425055.0 0
142183.0 423856.0 0
145071.0 425533.0 0
148094.0 423546.0 0
151239.0 424899.0 0
157418.0 424206.0 0
160690.0 425481.0 0
166872.0 424809.0 0
172855.0 423801.0 0
176049.0 424665.0 0
179323.0 425385.0 0
182702.0 426150.0 0
185533.0 424530.0 0
188728.0 425455.0 0
192350.0 425634.0 0
195800.0 425176.0 0
199300.0 424748.0 0
202702.0 424195.0 0
205995.0 424065.0 0
209574.0 423859.0 0
213142.0 423306.0 0
218918.0 425255.0 0
222515.0 424440.0 0
225764.0 422933.0 0
228585.0 424719.0 0
231923.0 423305.0 0
234735.0 425526.0 0
237966.0 423892.0 0
244029.0 424247.0 0
250081.0 424457.0 0
256096.0 424543.0 0
262092.0 424533.0 0
268061.0 424404.0 0
274045.0 424096.0 0
280021.0 423844.0 0
283259.0 424897.0 0
286549.0 425391.0 0
292107.0 423026.0 0
295612.0 423603.0 0
299137.0 424128.0 0
302691.0 424597.0 0
306410.0 425006.0 0
310288.0 425383.0 0
314157.0 425396.0 0
317918.0 425137.0 0
321533.0 425085.0 0
325117.0 425035.0 0
328690.0 424866.0 0
332227.0 424540.0 0
335686.0 424040.0 0
341636.0 425665.0 0
344992.0 424255.0 0
348012.0 426093.0 0
351325.0 424814.0 0
357705.0 425536.0 0
360833.0 424396.0 0
364057.0 426470.0 0
367136.0 425349.0 0
370174.0 424195.0 0
373411.0 426256.0 0
376421.0 425048.0 0
117114.0 429091.0 0
120314.0 427089.0 0
123331.0 428347.0 0
126386.0 429577.0 0
129495.0 427482.0 0
132520.0 428641.0 0
138618.0 427938.0 0
141977.0 427464.0 0
148227.0 426917.0 0
151473.0 428229.0 0
154461.0 426255.0 0
157715.0 427525.0 0
161018.0 428749.0 0
164006.0 426896.0 0
167327.0 428174.0 0
170136.0 426222.0 0
173314.0 427268.0 0
176606.0 427986.0 0
179967.0 428579.0 0
186601.0 428141.0 0
190287.0 428446.0 0
193988.0 428395.0 0
197531.0 428020.0 0
201040.0 427614.0 0
204474.0 427301.0 0
208020.0 426999.0 0
211675.0 426587.0 0
215314.0 425985.0 0
221076.0 428025.0 0
224709.0 427430.0 0
228155.0 428012.0 0
231485.0 427002.0 0
237505.0 427700.0 0
240809.0 425981.0 0
243751.0 428054.0 0
246949.0 426294.0 0
253033.0 426448.0 0
259092.0 426483.0 0
265140.0 426411.0 0
271129.0 426190.0 0
274263.0 427751.0 0
277263.0 425688.0 0
280692.0 427578.0 0
284183.0 428394.0 0
289955.0 425897.0 0
293447.0 426416.0 0
296982.0 426917.0 0
300538.0 427374.0 0
304102.0 427737.0 0
307626.0 428054.0 0
310904.0 428530.0 0
314007.0 428510.0 0
317177.0 428157.0 0
320557.0 428060.0 0
324054.0 428000.0 0
327614.0 427868.0 0
331199.0 427611.0 0
334777.0 427210.0 0
338312.0 426641.0 0
344571.0 427430.0 0
351309.0 427951.0 0
354528.0 426739.0 0
357776.0 428707.0 0
360936.0 427576.0 0
367287.0 428578.0 0
370367.0 427435.0 0
376646.0 428321.0 0
379676.0 427085.0 0
382935.0 429125.0 0
113897.0 431105.0 0
120171.0 430361.0 0
123281.0 431648.0 0
129479.0 430776.0 0
132649.0 431917.0 0
135603.0 429839.0 0
139038.0 430736.0 0
142296.0 431001.0 0
145195.0 428933.0 0
148464.0 430265.0 0
154754.0 429630.0 0
158016.0 430856.0 0
164342.0 430309.0 0
167582.0 431420.0 0
170673.0 429871.0 0
174101.0 430688.0 0
177659.0 431242.0 0
183416.0 428995.0 0
188436.0 431338.0 0
202803.0 430580.0 0
206379.0 430224.0 0
210026.0 429816.0 0
213723.0 429316.0 0
217411.0 428703.0 0
230580.0 430734.0 0
234121.0 429346.0 0
240451.0 429724.0 0
246749.0 430130.0 0
249919.0 428309.0 0
252936.0 430310.0 0
256036.0 428403.0 0
259098.0 430329.0 0
262155.0 428380.0 0
265304.0 430231.0 0
268261.0 428230.0 0
271453.0 430028.0 0
277568.0 429011.0 0
287733.0 428836.0 0
291294.0 429293.0 0
294867.0 429756.0 0
298449.0 430200.0 0
302034.0 430592.0 0
305584.0 430939.0 0
309047.0 431368.0 0
312592.0 431606.0 0
316082.0 431397.0 0
319481.0 431159.0 0
322947.0 431044.0 0
326476.0 430909.0 0
330054.0 430685.0 0
333671.0 430336.0 0
337333.0 429833.0 0
341077.0 429129.0 0
344879.0 430343.0 0
348067.0 429138.0 0
351421.0 431101.0 0
354594.0 429915.0 0
361020.0 430769.0 0
364171.0 429684.0 0
367375.0 431844.0 0
370498.0 430715.0 0
373587.0 429537.0 0
376795.0 431639.0 0
379879.0 430385.0 0
386204.0 431170.0 0
110657.0 433131.0 0
113779.0 434401.0 0
116990.0 432376.0 0
120151.0 433663.0 0
126433.0 432906.0 0
129661.0 434068.0 0
136032.0 432925.0 0
139452.0 433723.0 0
145587.0 432389.0 0
148863.0 433672.0 0
151765.0 431548.0 0
155042.0 433085.0 0
161345.0 431965.0 0
164705.0 433893.0 0
168344.0 434285.0 0
171746.0 433473.0 0
175452.0 433934.0 0
181293.0 431663.0 0
185040.0 431633.0 0
192063.0 431388.0 0
195700.0 431244.0 0
199264.0 430911.0 0
208274.0 433075.0 0
211970.0 432611.0 0
215681.0 432085.0 0
219370.0 431513.0 0
223018.0 430988.0 0
226610.0 430926.0 0
233471.0 433081.0 0
237024.0 431451.0 0
240191.0 433352.0 0
243521.0 431829.0 0
249777.0 432145.0 0
256016.0 432245.0 0
262216.0 432183.0 0
268581.0 432000.0 0
274720.0 431381.0 0
278350.0 432028.0 0
281828.0 431313.0 0
285531.0 431785.0 0
289185.0 432207.0 0
292817.0 432637.0 0
296440.0 433061.0 0
328805.0 433807.0 0
332368.0 433521.0 0
335895.0 433130.0 0
339286.0 432658.0 0
342249.0 432263.0 0
345209.0 433573.0 0
348273.0 432244.0 0
354666.0 433151.0 0
357839.0 431894.0 0
361012.0 433998.0 0
364214.0 432932.0 0
370548.0 434039.0 0
373686.0 432862.0 0
380003.0 433727.0 0
383119.0 432447.0 0
386374.0 434510.0 0
389489.0 433225.0 0
104073.0 437248.0 0
107375.0 435182.0 0
110476.0 436425.0 0
116981.0 435670.0 0
120282.0 436995.0 0
123375.0 434991.0 0
126683.0 436259.0 0
130086.0 437301.0 0
133037.0 435087.0 0
136479.0 436039.0 0
139884.0 436888.0 0
142737.0 434444.0 0
146008.0 435913.0 0
152195.0 434880.0 0
158159.0 434189.0 0
161396.0 434935.0 0
166369.0 437113.0 0
179194.0 434342.0 0
182979.0 434535.0 0
186646.0 434565.0 0
190175.0 434437.0 0
193782.0 434367.0 0
197404.0 434156.0 0
201001.0 433844.0 0
204617.0 433484.0 0
210126.0 435912.0 0
213837.0 435433.0 0
217541.0 434931.0 0
221216.0 434451.0 0
224875.0 434147.0 0
228710.0 433877.0 0
236804.0 435132.0 0
243326.0 435605.0 0
246564.0 433986.0 0
249637.0 435950.0 0
252863.0 434166.0 0
259174.0 434179.0 0
265365.0 433976.0 0
268491.0 435523.0 0
272036.0 433920.0 0
276000.0 434695.0 0
279982.0 434832.0 0
283546.0 434786.0 0
287192.0 435161.0 0
290844.0 435555.0 0
294499.0 435953.0 0
300065.0 433458.0 0
303677.0 433821.0 0
307255.0 434194.0 0
310898.0 434441.0 0
314590.0 434465.0 0
318175.0 434313.0 0
321700.0 434147.0 0
325244.0 434003.0 0
334710.0 436389.0 0
338294.0 435997.0 0
341871.0 435662.0 0
345282.0 436431.0 0
348492.0 435437.0 0
351551.0 434327.0 0
354508.0 436532.0 0
357767.0 435133.0 0
364153.0 436206.0 0
367374.0 435147.0 0
373699.0 436235.0 0
376863.0 435003.0 0
380041.0 437115.0 0
383221.0 435808.0 0
389650.0 436584.0 0
392792.0 435292.0 0
100760.0 439321.0 0
107179.0 438496.0 0
110314.0 439743.0 0
113609.0 437667.0 0
116736.0 438879.0 0
123743.0 438362.0 0
127279.0 439608.0 0
133574.0 438269.0 0
137019.0 439239.0 0
143233.0 437828.0 0
149158.0 437089.0 0
152400.0 437980.0 0
155569.0 436788.0 0
159110.0 437495.0 0
162952.0 437460.0 0
170092.0 436982.0 0
173537.0 436790.0 0
177205.0 437085.0 0
180967.0 437365.0 0
184671.0 437556.0 0
188287.0 437614.0 0
191846.0 437522.0 0
195464.0 437357.0 0
199103.0 437095.0 0
202753.0 436752.0 0
206427.0 436353.0 0
215634.0 438312.0 0
219316.0 437869.0 0
222966.0 437501.0 0
226625.0 437187.0 0
230228.0 436976.0 0
233687.0 436724.0 0
239965.0 436871.0 0
246332.0 437918.0 0
252849.0 438025.0 0
256041.0 436039.0 0
259287.0 438026.0 0
262393.0 436015.0 0
265704.0 437878.0 0
270994.0 437531.0 0
274378.0 437689.0 0
278029.0 437850.0 0
281718.0 438032.0 0
285313.0 438195.0 0
288954.0 438528.0 0
298159.0 436337.0 0
301823.0 436696.0 0
305485.0 437036.0 0
309188.0 437279.0 0
312929.0 437380.0 0
316648.0 437364.0 0
320299.0 437255.0 0
323910.0 437115.0 0
327517.0 436947.0 0
331118.0 436713.0 0
340559.0 438929.0 0
344069.0 438992.0 0
347913.0 438675.0 0
351303.0 437726.0 0
357515.0 438364.0 0
360873.0 437243.0 0
367271.0 438479.0 0
370505.0 437403.0 0
373593.0 439658.0 0
376832.0 438413.0 0
383233.0 439209.0 0
386461.0 437881.0 0
392951.0 438672.0 0
396116.0 437372.0 0
399459.0 439464.0 0
97438.7 441400.0 0
103885.0 440595.0 0
107047.0 441848.0 0
113458.0 440991.0 0
116562.0 442255.0 0
119741.0 440133.0 0
122602.0 441374.0 0
125457.0 442379.0 0
130841.0 440541.0 0
134315.0 441536.0 0
137740.0 442593.0 0
140355.0 440151.0 0
143676.0 441039.0 0
146603.0 439617.0 0
149958.0 440526.0 0
153651.0 440717.0 0
157026.0 440246.0 0
160797.0 440387.0 0
164510.0 440355.0 0
168115.0 440093.0 0
171732.0 440015.0 0
175304.0 439984.0 0
179006.0 440186.0 0
182736.0 440499.0 0
186339.0 440720.0 0
189885.0 440756.0 0
193481.0 440580.0 0
197134.0 440339.0 0
200813.0 440021.0 0
204507.0 439641.0 0
208214.0 439218.0 0
211927.0 438770.0 0
221075.0 440879.0 0
224741.0 440559.0 0
228389.0 440318.0 0
232044.0 440116.0 0
235715.0 439737.0 0
239221.0 440066.0 0
242900.0 439404.0 0
249620.0 439613.0 0
256076.0 439744.0 0
262600.0 439761.0 0
268553.0 440237.0 0
272368.0 440803.0 0
276091.0 440962.0 0
279787.0 441134.0 0
292618.0 438885.0 0
296299.0 439242.0 0
299996.0 439582.0 0
303709.0 439894.0 0
307456.0 440136.0 0
311229.0 440276.0 0
315003.0 440325.0 0
318749.0 440299.0 0
322452.0 440210.0 0
326124.0 440079.0 0
329774.0 439898.0 0
333398.0 439640.0 0
336988.0 439290.0 0
346828.0 441547.0 0
350639.0 441028.0 0
354105.0 440015.0 0
357217.0 441458.0 0
360651.0 440453.0 0
363990.0 439486.0 0
367034.0 441843.0 0
370325.0 440810.0 0
376660.0 441869.0 0
379970.0 440547.0 0
386463.0 441278.0 0
389733.0 439965.0 0
393039.0 442069.0 0
396276.0 440774.0 0
402822.0 441567.0 0
94105.7 443487.0 0
97283.2 444822.0 0
100589.0 442704.0 0
103787.0 443978.0 0
110236.0 443113.0 0
113424.0 444402.0 0
119619.0 443565.0 0
122713.0 444830.0 0
128537.0 443095.0 0
131791.0 443949.0 0
141093.0 443492.0 0
144518.0 444014.0 0
147739.0 443289.0 0
151442.0 443596.0 0
155183.0 443587.0 0
158771.0 443359.0 0
162483.0 443376.0 0
166190.0 443286.0 0
169814.0 443141.0 0
173442.0 443085.0 0
177078.0 443100.0 0
180780.0 443322.0 0
184453.0 443818.0 0
191461.0 443862.0 0
195119.0 443599.0 0
198825.0 443293.0 0
202541.0 442933.0 0
206259.0 442530.0 0
209979.0 442102.0 0
213695.0 441669.0 0
217396.0 441251.0 0
226526.0 443660.0 0
230199.0 443445.0 0
233877.0 443204.0 0
237465.0 443161.0 0
241259.0 442950.0 0
244914.0 442576.0 0
248492.0 442860.0 0
252270.0 442430.0 0
255909.0 443150.0 0
259404.0 441924.0 0
262957.0 443282.0 0
266612.0 443298.0 0
283466.0 441336.0 0
287112.0 441564.0 0
290782.0 441866.0 0
294476.0 442185.0 0
298193.0 442496.0 0
301933.0 442782.0 0
305704.0 443015.0 0
309503.0 443176.0 0
313309.0 443265.0 0
317106.0 443290.0 0
320882.0 443261.0 0
324629.0 443182.0 0
328349.0 443057.0 0
332038.0 442872.0 0
335690.0 442591.0 0
339314.0 442195.0 0
343028.0 441870.0 0
349588.0 444071.0 0
353405.0 443498.0 0
360321.0 443630.0 0
363704.0 442776.0 0
369957.0 444266.0 0
373314.0 443134.0 0
379752.0 444007.0 0
383142.0 442641.0 0
386374.0 444695.0 0
389743.0 443359.0 0
396394.0 444190.0 0
399628.0 442890.0 0
402988.0 445025.0 0
406195.0 443679.0 0
87435.5 447665.0 0
90770.4 445576.0 0
93972.4 446955.0 0
100511.0 446116.0 0
103785.0 447385.0 0
107022.0 445239.0 0
110278.0 446539.0 0
116594.0 445732.0 0
119778.0 447047.0 0
125928.0 445799.0 0
129199.0 446545.0 0
132564.0 447315.0 0
135200.0 444887.0 0
138727.0 446028.0 0
145879.0 446857.0 0
149361.0 446559.0 0
153086.0 446609.0 0
156821.0 446548.0 0
160496.0 446424.0 0
164217.0 446376.0 0
167912.0 446296.0 0
171562.0 446202.0 0
175203.0 446159.0 0
178839.0 446214.0 0
182463.0 446572.0 0
187878.0 444039.0 0
196811.0 446570.0 0
200560.0 446231.0 0
204291.0 445850.0 0
208013.0 445435.0 0
211735.0 445012.0 0
215454.0 444606.0 0
219161.0 444238.0 0
222852.0 443919.0 0
239363.0 446288.0 0
243055.0 446099.0 0
246641.0 446058.0 0
250367.0 445994.0 0
253925.0 446126.0 0
257693.0 446251.0 0
270335.0 443694.0 0
274135.0 444043.0 0
277875.0 444242.0 0
281585.0 444438.0 0
285281.0 444655.0 0
288968.0 444897.0 0
292675.0 445171.0 0
296405.0 445447.0 0
300162.0 445707.0 0
303947.0 445927.0 0
307758.0 446094.0 0
311584.0 446206.0 0
315411.0 446266.0 0
319230.0 446278.0 0
323033.0 446248.0 0
326818.0 446177.0 0
330581.0 446060.0 0
334316.0 445868.0 0
338029.0 445522.0 0
341889.0 444809.0 0
345737.0 444468.0 0
352145.0 446764.0 0
356838.0 444337.0 0
359493.0 446778.0 0
363083.0 446082.0 0
366558.0 445242.0 0
372817.0 446671.0 0
376295.0 445361.0 0
379312.0 447473.0 0
382896.0 446080.0 0
389850.0 446731.0 0
393126.0 445467.0 0
399743.0 446344.0 0
406347.0 447173.0 0
409576.0 445794.0 0
84103.2 449753.0 0
90662.7 449095.0 0
97224.5 448275.0 0
100526.0 449553.0 0
107096.0 448660.0 0
110440.0 449996.0 0
113543.0 447874.0 0
116821.0 449259.0 0
123044.0 448230.0 0
126393.0 449143.0 0
129771.0 449901.0 0
136095.0 448117.0 0
142204.0 446788.0 0
151000.0 449664.0 0
154767.0 449622.0 0
158525.0 449553.0 0
162258.0 449464.0 0
165994.0 449407.0 0
169708.0 449338.0 0
173390.0 449266.0 0
177058.0 449236.0 0
180725.0 449352.0 0
185777.0 447517.0 0
189380.0 447203.0 0
193074.0 446896.0 0
202343.0 449185.0 0
206056.0 448788.0 0
209768.0 448360.0 0
213497.0 447944.0 0
217227.0 447574.0 0
220942.0 447258.0 0
224639.0 446996.0 0
228325.0 446778.0 0
232006.0 446579.0 0
235658.0 446455.0 0
261218.0 446420.0 0
264881.0 446596.0 0
268510.0 446782.0 0
272222.0 447072.0 0
275978.0 447335.0 0
279715.0 447542.0 0
283438.0 447747.0 0
287158.0 447966.0 0
290882.0 448198.0 0
294625.0 448439.0 0
298392.0 448671.0 0
302187.0 448876.0 0
306005.0 449042.0 0
309840.0 449163.0 0
313682.0 449244.0 0
317524.0 449285.0 0
321358.0 449290.0 0
325184.0 449263.0 0
328995.0 449204.0 0
332787.0 449101.0 0
336552.0 448891.0 0
340841.0 447743.0 0
344610.0 447426.0 0
348388.0 447117.0 0
355694.0 447038.0 0
362093.0 449305.0 0
365754.0 448606.0 0
369333.0 447745.0 0
372044.0 450257.0 0
375679.0 448892.0 0
383460.0 449380.0 0
386621.0 448041.0 0
393186.0 448915.0 0
396469.0 447638.0 0
399784.0 449837.0 0
403080.0 448519.0 0
409702.0 449329.0 0
412959.0 447913.0 0
416346.0 450034.0 0
80773.9 451839.0 0
87359.4 451242.0 0
90660.6 452657.0 0
93937.8 450459.0 0
97259.9 451757.0 0
103874.0 450813.0 0
107269.0 452091.0 0
113812.0 451368.0 0
117202.0 452831.0 0
120123.0 450546.0 0
123506.0 451624.0 0
126967.0 452468.0 0
133198.0 450536.0 0
136672.0 451160.0 0
139778.0 449527.0 0
143541.0 449869.0 0
147307.0 449839.0 0
183742.0 451060.0 0
187433.0 450849.0 0
191065.0 450250.0 0
194812.0 449863.0 0
198584.0 449520.0 0
211537.0 451284.0 0
215278.0 450891.0 0
219012.0 450574.0 0
222726.0 450319.0 0
226424.0 450107.0 0
230112.0 449926.0 0
233785.0 449784.0 0
237472.0 449642.0 0
241150.0 449503.0 0
244793.0 449427.0 0
248449.0 449364.0 0
252080.0 449428.0 0
255739.0 449502.0 0
259391.0 449685.0 0
263046.0 449823.0 0
266715.0 450002.0 0
270392.0 450199.0 0
274113.0 450430.0 0
277858.0 450650.0 0
281600.0 450851.0 0
285341.0 451053.0 0
289087.0 451260.0 0
292844.0 451470.0 0
296622.0 451676.0 0
300422.0 451863.0 0
339724.0 450564.0 0
343465.0 450431.0 0
347180.0 450191.0 0
350888.0 449935.0 0
354517.0 449927.0 0
358294.0 449747.0 0
364664.0 451905.0 0
368360.0 451174.0 0
377210.0 451899.0 0
380338.0 450663.0 0
386675.0 451523.0 0
389920.0 450198.0 0
393168.0 452434.0 0
396474.0 451139.0 0
403079.0 452055.0 0
406405.0 450705.0 0
409724.0 452901.0 0
413055.0 451490.0 0
419733.0 452157.0 0
77449.1 453921.0 0
84062.5 453389.0 0
87395.3 454862.0 0
94001.8 453999.0 0
97384.6 455270.0 0
100629.0 453015.0 0
104048.0 454249.0 0
107520.0 455512.0 0
110711.0 453464.0 0
114181.0 454855.0 0
120603.0 454066.0 0
124111.0 455007.0 0
130510.0 453211.0 0
134050.0 453753.0 0
137801.0 453891.0 0
141268.0 452844.0 0
145102.0 452909.0 0
148923.0 452826.0 0
152702.0 452704.0 0
156499.0 452639.0 0
160289.0 452572.0 0
164065.0 452504.0 0
167836.0 452448.0 0
171591.0 452384.0 0
175334.0 452306.0 0
179098.0 452251.0 0
189275.0 454094.0 0
192858.0 453209.0 0
196625.0 452810.0 0
200405.0 452492.0 0
204156.0 452189.0 0
207823.0 451748.0 0
217066.0 453871.0 0
220790.0 453622.0 0
224497.0 453425.0 0
228191.0 453259.0 0
231874.0 453121.0 0
235557.0 452996.0 0
239234.0 452881.0 0
242896.0 452799.0 0
246555.0 452744.0 0
250200.0 452754.0 0
253859.0 452813.0 0
257516.0 452930.0 0
261196.0 453075.0 0
264878.0 453223.0 0
268572.0 453394.0 0
272282.0 453579.0 0
276017.0 453776.0 0
279767.0 453971.0 0
283523.0 454159.0 0
304244.0 452021.0 0
308083.0 452147.0 0
311932.0 452239.0 0
315784.0 452299.0 0
319634.0 452330.0 0
323477.0 452334.0 0
327309.0 452317.0 0
331123.0 452287.0 0
334896.0 452227.0 0
338337.0 453282.0 0
342118.0 453403.0 0
345870.0 453276.0 0
349595.0 453077.0 0
353289.0 452956.0 0
357051.0 452762.0 0
360870.0 452418.0 0
370671.0 453902.0 0
374027.0 453116.0 0
376711.0 455493.0 0
380115.0 454195.0 0
383420.0 452879.0 0
386559.0 455058.0 0
389872.0 453737.0 0
396395.0 454699.0 0
399738.0 453382.0 0
406366.0 454280.0 0
413042.0 455101.0 0
416411.0 453658.0 0
423109.0 454272.0 0
70807.9 458084.0 0
74129.6 456003.0 0
77489.0 457679.0 0
80773.3 455538.0 0
84140.0 457074.0 0
90761.7 456262.0 0
94164.8 457578.0 0
100810.0 456492.0 0
104283.0 457682.0 0
111023.0 456947.0 0
117690.0 456482.0 0
121221.0 457585.0 0
127758.0 455725.0 0
131527.0 456497.0 0
135372.0 456729.0 0
139278.0 456552.0 0
142945.0 455998.0 0
146789.0 455921.0 0
150628.0 455826.0 0
154449.0 455729.0 0
158275.0 455661.0 0
162100.0 455600.0 0
165921.0 455541.0 0
169743.0 455480.0 0
173570.0 455394.0 0
177421.0 455248.0 0
181746.0 454510.0 0
185515.0 454286.0 0
194672.0 456129.0 0
198460.0 455776.0 0
202249.0 455515.0 0
206005.0 455265.0 0
209611.0 454671.0 0
213329.0 454203.0 0
222535.0 456725.0 0
226236.0 456579.0 0
229926.0 456455.0 0
233614.0 456345.0 0
237296.0 456246.0 0
240971.0 456169.0 0
244642.0 456116.0 0
248305.0 456104.0 0
251972.0 456136.0 0
255643.0 456217.0 0
259328.0 456330.0 0
263026.0 456464.0 0
266733.0 456610.0 0
287285.0 454347.0 0
291058.0 454535.0 0
294846.0 454717.0 0
298652.0 454887.0 0
302477.0 455036.0 0
306318.0 455160.0 0
310170.0 455258.0 0
314027.0 455330.0 0
317884.0 455379.0 0
321734.0 455407.0 0
325572.0 455422.0 0
329388.0 455434.0 0
333165.0 455479.0 0
336758.0 456036.0 0
340562.0 456302.0 0
344391.0 456314.0 0
348184.0 456189.0 0
351945.0 456041.0 0
355728.0 455839.0 0
359543.0 455543.0 0
363357.0 455145.0 0
367107.0 454632.0 0
373164.0 456756.0 0
379713.0 457668.0 0
383188.0 456385.0 0
389701.0 457316.0 0
393051.0 456013.0 0
399601.0 456981.0 0
402989.0 455636.0 0
406234.0 457897.0 0
409649.0 456511.0 0
416356.0 457315.0 0
419762.0 455867.0 0
423108.0 458025.0 0
426486.0 456387.0 0
67474.5 460171.0 0
74203.5 459812.0 0
80890.8 459286.0 0
87539.2 458533.0 0
90969.8 459911.0 0
97597.5 458815.0 0
101065.0 459990.0 0
107804.0 458916.0 0
114532.0 458278.0 0
118370.0 460238.0 0
124919.0 458311.0 0
128710.0 458863.0 0
132984.0 459611.0 0
136962.0 459573.0 0
140884.0 459347.0 0
144668.0 459044.0 0
148518.0 458932.0 0
152374.0 458836.0 0
156227.0 458753.0 0
160086.0 458688.0 0
163949.0 458628.0 0
167820.0 458564.0 0
171710.0 458479.0 0
175631.0 458327.0 0
179713.0 457885.0 0
183556.0 457667.0 0
187377.0 457493.0 0
191177.0 457353.0 0
196466.0 459052.0 0
200281.0 458788.0 0
204086.0 458604.0 0
207853.0 458463.0 0
211381.0 457537.0 0
215098.0 457152.0 0
218823.0 456905.0 0
270453.0 456770.0 0
274188.0 456938.0 0
277939.0 457112.0 0
281704.0 457287.0 0
285478.0 457458.0 0
289263.0 457627.0 0
293061.0 457791.0 0
296874.0 457945.0 0
300703.0 458084.0 0
304546.0 458203.0 0
308400.0 458303.0 0
312259.0 458382.0 0
316120.0 458444.0 0
319976.0 458490.0 0
323819.0 458528.0 0
327640.0 458569.0 0
331422.0 458644.0 0
335115.0 458933.0 0
338922.0 459194.0 0
342789.0 459295.0 0
346647.0 459257.0 0
350476.0 459137.0 0
354303.0 458948.0 0
358141.0 458685.0 0
361988.0 458350.0 0
365820.0 457951.0 0
369598.0 457480.0 0
376101.0 458962.0 0
382888.0 459872.0 0
386319.0 458603.0 0
392808.0 459644.0 0
396206.0 458311.0 0
399361.0 460619.0 0
402803.0 459263.0 0
409485.0 460158.0 0
412933.0 458751.0 0
419704.0 459624.0 0
426459.0 460177.0 0
429867.0 458504.0 0
433255.0 460627.0 0
64123.3 462269.0 0
70901.9 461936.0 0
77637.0 461480.0 0
84327.2 460809.0 0
87799.2 462248.0 0
94423.5 461201.0 0
97898.1 462397.0 0
104566.0 461119.0 0
108117.0 462283.0 0
111323.0 460500.0 0
114802.0 461553.0 0
122178.0 461010.0 0
126060.0 461522.0 0
129991.0 461825.0 0
134690.0 462585.0 0
138635.0 462449.0 0
142538.0 462259.0 0
146389.0 462058.0 0
150264.0 461945.0 0
154145.0 461855.0 0
158029.0 461780.0 0
161921.0 461716.0 0
165823.0 461650.0 0
169744.0 461568.0 0
173693.0 461440.0 0
177672.0 461186.0 0
181560.0 460990.0 0
185424.0 460835.0 0
189273.0 460720.0 0
193106.0 460647.0 0
198218.0 462017.0 0
202061.0 461865.0 0
205879.0 461784.0 0
209660.0 461785.0 0
213055.0 460413.0 0
216794.0 460159.0 0
220520.0 460000.0 0
224233.0 459880.0 0
227936.0 459778.0 0
231634.0 459686.0 0
235328.0 459602.0 0
239017.0 459533.0 0
242703.0 459482.0 0
246385.0 459460.0 0
250068.0 459473.0 0
253754.0 459525.0 0
257451.0 459610.0 0
261159.0 459720.0 0
264880.0 459847.0 0
268611.0 459984.0 0
272354.0 460131.0 0
276111.0 460283.0 0
279882.0 460439.0 0
283665.0 460594.0 0
287459.0 460747.0 0
291266.0 460895.0 0
295086.0 461035.0 0
298919.0 461163.0 0
302765.0 461277.0 0
306621.0 461375.0 0
310483.0 461458.0 0
314348.0 461527.0 0
318211.0 461585.0 0
322064.0 461639.0 0
325901.0 461698.0 0
329711.0 461783.0 0
333478.0 461963.0 0
337284.0 462152.0 0
341149.0 462273.0 0
345036.0 462294.0 0
348916.0 462222.0 0
352784.0 462068.0 0
356646.0 461841.0 0
360505.0 461549.0 0
364365.0 461206.0 0
368237.0 460809.0 0
372180.0 460412.0 0
376246.0 462333.0 0
379466.0 461074.0 0
385925.0 462166.0 0
389391.0 460928.0 0
392427.0 463305.0 0
395904.0 461967.0 0
402531.0 462925.0 0
406014.0 461550.0 0
412740.0 462434.0 0
416219.0 461005.0 0
419567.0 463432.0 0
423022.0 461820.0 0
429818.0 462332.0 0
436636.0 462745.0 0
60756.3 464377.0 0
67583.3 464058.0 0
71084.6 465822.0 0
74370.9 463657.0 0
81111.6 463079.0 0
84626.2 464582.0 0
91300.2 463611.0 0
94825.5 464873.0 0
98366.3 466041.0 0
101373.0 463519.0 0
104821.0 464564.0 0
108209.0 465504.0 0
111927.0 464217.0 0
115927.0 464511.0 0
119674.0 463902.0 0
123604.0 464318.0 0
127573.0 464628.0 0
131581.0 464713.0 0
136399.0 465546.0 0
148129.0 465065.0 0
152032.0 464962.0 0
155938.0 464881.0 0
159849.0 464812.0 0
163768.0 464747.0 0
167700.0 464671.0 0
171647.0 464569.0 0
175605.0 464416.0 0
179521.0 464267.0 0
183413.0 464134.0 0
187295.0 464035.0 0
191169.0 463979.0 0
195034.0 463979.0 0
214639.0 463342.0 0
218415.0 463227.0 0
222160.0 463148.0 0
225888.0 463079.0 0
229606.0 463012.0 0
233318.0 462947.0 0
237027.0 462888.0 0
240732.0 462842.0 0
244435.0 462816.0 0
248138.0 462816.0 0
251844.0 462848.0 0
255556.0 462909.0 0
259278.0 462995.0 0
263010.0 463101.0 0
266754.0 463219.0 0
270509.0 463346.0 0
274275.0 463479.0 0
278054.0 463617.0 0
281845.0 463755.0 0
285647.0 463893.0 0
289461.0 464026.0 0
293287.0 464154.0 0
297125.0 464272.0 0
300974.0 464379.0 0
304833.0 464474.0 0
308698.0 464557.0 0
312567.0 464629.0 0
316436.0 464693.0 0
320302.0 464755.0 0
324157.0 464823.0 0
327996.0 464910.0 0
358952.0 464764.0 0
362787.0 464477.0 0
366567.0 464158.0 0
370224.0 463836.0 0
373579.0 463897.0 0
379049.0 464721.0 0
382432.0 463443.0 0
388916.0 464550.0 0
395516.0 465633.0 0
399034.0 464286.0 0
405720.0 465236.0 0
409238.0 463836.0 0
416000.0 464731.0 0
422861.0 465660.0 0
426348.0 464005.0 0
433180.0 464523.0 0
440014.0 464860.0 0
57373.9 466495.0 0
60884.2 468334.0 0
64241.8 466189.0 0
67762.7 467976.0 0
74631.7 467536.0 0
77885.1 465320.0 0
81438.9 466912.0 0
88178.9 465998.0 0
91773.8 467354.0 0
101919.0 467131.0 0
105481.0 468127.0 0
110345.0 467748.0 0
113857.0 467515.0 0
121408.0 467328.0 0
125302.0 467547.0 0
129280.0 467682.0 0
133258.0 467670.0 0
140324.0 465384.0 0
144235.0 465217.0 0
189149.0 467268.0 0
199925.0 465053.0 0
203793.0 465023.0 0
207627.0 465055.0 0
211441.0 465172.0 0
216167.0 466346.0 0
219986.0 466353.0 0
223762.0 466340.0 0
227517.0 466311.0 0
231259.0 466273.0 0
234994.0 466231.0 0
238725.0 466193.0 0
242453.0 466168.0 0
246179.0 466161.0 0
249907.0 466179.0 0
253638.0 466221.0 0
257377.0 466287.0 0
261124.0 466372.0 0
264881.0 466472.0 0
268649.0 466581.0 0
272426.0 466698.0 0
276214.0 466818.0 0
280014.0 466941.0 0
283824.0 467064.0 0
287646.0 467184.0 0
291478.0 467299.0 0
331814.0 465043.0 0
335644.0 465187.0 0
339506.0 465293.0 0
343397.0 465335.0 0
347298.0 465301.0 0
351198.0 465189.0 0
355085.0 465006.0 0
365064.0 467487.0 0
368817.0 467235.0 0
372473.0 467123.0 0
376168.0 466570.0 0
381746.0 467140.0 0
385340.0 465752.0 0
388319.0 468137.0 0
391964.0 466959.0 0
398696.0 467965.0 0
402204.0 466615.0 0
408914.0 467543.0 0
412470.0 466144.0 0
415707.0 468499.0 0
419360.0 467289.0 0
426163.0 467874.0 0
429678.0 466196.0 0
433047.0 468474.0 0
436533.0 466684.0 0
439879.0 468830.0 0
443395.0 466977.0 0
64421.8 470145.0 0
71329.3 469728.0 0
74935.3 471443.0 0
78222.1 469197.0 0
85032.5 468391.0 0
88689.0 469765.0 0
95384.3 468587.0 0
99028.9 469711.0 0
102691.0 470768.0 0
107916.0 470580.0 0
117696.0 467471.0 0
123139.0 470637.0 0
138115.0 468518.0 0
142042.0 468348.0 0
145972.0 468198.0 0
149895.0 468077.0 0
153818.0 467990.0 0
157743.0 467921.0 0
161671.0 467857.0 0
165608.0 467791.0 0
169553.0 467710.0 0
173501.0 467608.0 0
177432.0 467501.0 0
181346.0 467399.0 0
185250.0 467316.0 0
193046.0 467271.0 0
196944.0 467342.0 0
201600.0 468177.0 0
205491.0 468262.0 0
209351.0 468389.0 0
213206.0 468585.0 0
217682.0 469434.0 0
221542.0 469529.0 0
225354.0 469566.0 0
229140.0 469570.0 0
232913.0 469554.0 0
236676.0 469531.0 0
240434.0 469512.0 0
244188.0 469504.0 0
247941.0 469513.0 0
251696.0 469542.0 0
255454.0 469591.0 0
259219.0 469659.0 0
262991.0 469741.0 0
295321.0 467408.0 0
299174.0 467508.0 0
303035.0 467598.0 0
306904.0 467679.0 0
310776.0 467752.0 0
314652.0 467818.0 0
318526.0 467882.0 0
322398.0 467951.0 0
326263.0 468035.0 0
330120.0 468147.0 0
333979.0 468265.0 0
337853.0 468360.0 0
341746.0 468407.0 0
345657.0 468392.0 0
349573.0 468313.0 0
353485.0 468171.0 0
357380.0 467976.0 0
361244.0 467742.0 0
375030.0 469989.0 0
378805.0 469302.0 0
384615.0 469284.0 0
388361.0 471699.0 0
391773.0 470586.0 0
395204.0 469279.0 0
401814.0 470359.0 0
405354.0 468965.0 0
412123.0 469875.0 0
419101.0 471196.0 0
422636.0 469549.0 0
429478.0 470095.0 0
67997.1 471924.0 0
71602.5 473668.0 0
81859.4 470787.0 0
85559.5 472207.0 0
92389.1 471144.0 0
96111.8 472308.0 0
99842.5 473387.0 0
105319.0 473268.0 0
111691.0 470886.0 0
115495.0 470698.0 0
119329.0 470659.0 0
127058.0 470723.0 0
131032.0 470755.0 0
134993.0 470692.0 0
139853.0 471500.0 0
143796.0 471326.0 0
147740.0 471200.0 0
151676.0 471108.0 0
155611.0 471039.0 0
159546.0 470981.0 0
163485.0 470924.0 0
167427.0 470861.0 0
171370.0 470789.0 0
175305.0 470712.0 0
179231.0 470637.0 0
183149.0 470572.0 0
187063.0 470531.0 0
190978.0 470531.0 0
194898.0 470591.0 0
198825.0 470733.0 0
203265.0 471391.0 0
207177.0 471566.0 0
211069.0 471758.0 0
214964.0 472002.0 0
266772.0 469835.0 0
270562.0 469935.0 0
274361.0 470041.0 0
278170.0 470149.0 0
281989.0 470258.0 0
285818.0 470366.0 0
289657.0 470471.0 0
293505.0 470570.0 0
297362.0 470663.0 0
301228.0 470748.0 0
305099.0 470826.0 0
308976.0 470897.0 0
312856.0 470962.0 0
316738.0 471025.0 0
320620.0 471090.0 0
324504.0 471165.0 0
328389.0 471259.0 0
332283.0 471369.0 0
336177.0 471462.0 0
340080.0 471514.0 0
343997.0 471510.0 0
347926.0 471449.0 0
351856.0 471336.0 0
355778.0 471177.0 0
359680.0 470984.0 0
363553.0 470771.0 0
367391.0 470552.0 0
371191.0 470366.0 0
381329.0 472163.0 0
384961.0 472655.0 0
391175.0 474299.0 0
394750.0 473027.0 0
398289.0 471709.0 0
404916.0 472756.0 0
408518.0 471280.0 0
411706.0 473627.0 0
415368.0 472321.0 0
422393.0 473484.0 0
425935.0 471781.0 0
75379.0 475378.0 0
78627.5 473086.0 0
82491.1 474689.0 0
89279.3 473519.0 0
93224.8 474971.0 0
97018.0 476041.0 0
109168.0 473935.0 0
113262.0 473948.0 0
117137.0 473904.0 0
121001.0 473895.0 0
124886.0 473875.0 0
128849.0 473871.0 0
132823.0 473854.0 0
136776.0 473763.0 0
141626.0 474478.0 0
145574.0 474327.0 0
149519.0 474233.0 0
153460.0 474168.0 0
157399.0 474117.0 0
161338.0 474071.0 0
165278.0 474023.0 0
169218.0 473971.0 0
173153.0 473917.0 0
177083.0 473862.0 0
181007.0 473814.0 0
184928.0 473781.0 0
188849.0 473777.0 0
192776.0 473820.0 0
196716.0 473933.0 0
200674.0 474152.0 0
204934.0 474688.0 0
208874.0 474912.0 0
212794.0 475149.0 0
216720.0 475418.0 0
219221.0 472601.0 0
223113.0 472752.0 0
226958.0 472823.0 0
230778.0 472847.0 0
234583.0 472849.0 0
238377.0 472843.0 0
242164.0 472839.0 0
245946.0 472845.0 0
249726.0 472866.0 0
253507.0 472904.0 0
257292.0 472957.0 0
261081.0 473025.0 0
264877.0 473104.0 0
268681.0 473190.0 0
272492.0 473282.0 0
276312.0 473378.0 0
280141.0 473475.0 0
283978.0 473571.0 0
287823.0 473666.0 0
291678.0 473756.0 0
295540.0 473842.0 0
299409.0 473922.0 0
303285.0 473996.0 0
307165.0 474064.0 0
311049.0 474127.0 0
314936.0 474186.0 0
318826.0 474246.0 0
322719.0 474310.0 0
326620.0 474384.0 0
330536.0 474473.0 0
334472.0 474585.0 0
338391.0 474653.0 0
342319.0 474658.0 0
346258.0 474608.0 0
350202.0 474512.0 0
354145.0 474376.0 0
358078.0 474210.0 0
361995.0 474024.0 0
365893.0 473827.0 0
369775.0 473625.0 0
373674.0 473323.0 0
377553.0 472854.0 0
394001.0 476763.0 0
397682.0 475492.0 0
401334.0 474166.0 0
408059.0 475040.0 0
415074.0 476206.0 0
418843.0 475142.0 0
425697.0 475727.0 0
429340.0 474042.0 0
79276.2 476996.0 0
86220.0 476067.0 0
90021.5 477240.0 0
94272.5 478817.0 0
102562.0 475928.0 0
106414.0 476777.0 0
110955.0 477005.0 0
114901.0 477129.0 0
118794.0 477150.0 0
122715.0 477127.0 0
126698.0 477039.0 0
130677.0 477024.0 0
134655.0 476982.0 0
138640.0 476849.0 0
143402.0 477469.0 0
147348.0 477366.0 0
151292.0 477305.0 0
155233.0 477263.0 0
159173.0 477228.0 0
163111.0 477194.0 0
167049.0 477159.0 0
170983.0 477122.0 0
174913.0 477085.0 0
178838.0 477051.0 0
182760.0 477027.0 0
186681.0 477022.0 0
190604.0 477050.0 0
194538.0 477130.0 0
198491.0 477289.0 0
202490.0 477608.0 0
220800.0 475841.0 0
224715.0 476018.0 0
228593.0 476101.0 0
232447.0 476139.0 0
236283.0 476154.0 0
240106.0 476162.0 0
243921.0 476172.0 0
247730.0 476190.0 0
251536.0 476220.0 0
255343.0 476264.0 0
259151.0 476320.0 0
262964.0 476386.0 0
266783.0 476460.0 0
270607.0 476541.0 0
274439.0 476625.0 0
278277.0 476711.0 0
282123.0 476797.0 0
285977.0 476882.0 0
289838.0 476965.0 0
293705.0 477044.0 0
297580.0 477119.0 0
301460.0 477189.0 0
305344.0 477253.0 0
309232.0 477313.0 0
313124.0 477369.0 0
317018.0 477423.0 0
320916.0 477478.0 0
324821.0 477535.0 0
328741.0 477599.0 0
332687.0 477675.0 0
336676.0 477814.0 0
340623.0 477835.0 0
344574.0 477794.0 0
348529.0 477708.0 0
352486.0 477585.0 0
356441.0 477434.0 0
360389.0 477264.0 0
364329.0 477082.0 0
368259.0 476885.0 0
372195.0 476631.0 0
376124.0 476284.0 0
379998.0 475831.0 0
383758.0 475850.0 0
387581.0 475332.0 0
396913.0 479254.0 0
400653.0 477954.0 0
404403.0 476640.0 0
407699.0 478773.0 0
411353.0 477409.0 0
87085.2 479923.0 0
90908.0 480958.0 0
99794.7 478694.0 0
103634.0 479546.0 0
108402.0 479870.0 0
112537.0 480228.0 0
116514.0 480403.0 0
120468.0 480400.0 0
124590.0 480249.0 0
128547.0 480229.0 0
132511.0 480206.0 0
136587.0 480072.0 0
140553.0 479993.0 0
145152.0 480501.0 0
149103.0 480447.0 0
153049.0 480417.0 0
156990.0 480395.0 0
160929.0 480375.0 0
164866.0 480354.0 0
168799.0 480333.0 0
172728.0 480311.0 0
176653.0 480291.0 0
180573.0 480276.0 0
184490.0 480274.0 0
188406.0 480293.0 0
206645.0 478034.0 0
210593.0 478298.0 0
214528.0 478558.0 0
218467.0 478833.0 0
222436.0 479145.0 0
226372.0 479309.0 0
230277.0 479396.0 0
234157.0 479442.0 0
238020.0 479468.0 0
241869.0 479488.0 0
245709.0 479509.0 0
249542.0 479537.0 0
253372.0 479575.0 0
257202.0 479622.0 0
261033.0 479679.0 0
264867.0 479744.0 0
268705.0 479814.0 0
272549.0 479888.0 0
276398.0 479965.0 0
280254.0 480042.0 0
284116.0 480119.0 0
287984.0 480195.0 0
291859.0 480267.0 0
295739.0 480337.0 0
362711.0 480334.0 0
366677.0 480148.0 0
370640.0 479927.0 0
374600.0 479651.0 0
378531.0 479323.0 0
382397.0 479123.0 0
386349.0 478764.0 0
390260.0 478039.0 0
399711.0 481753.0 0
403516.0 480515.0 0
406899.0 482423.0 0
410926.0 481242.0 0
414765.0 480144.0 0
97134.4 481583.0 0
100984.0 482426.0 0
105717.0 482689.0 0
109990.0 483198.0 0
192324.0 480348.0 0
196251.0 480458.0 0
200193.0 480652.0 0
204352.0 481075.0 0
208376.0 481437.0 0
212331.0 481718.0 0
216269.0 481985.0 0
220200.0 482253.0 0
224152.0 482483.0 0
228092.0 482622.0 0
232013.0 482704.0 0
235913.0 482755.0 0
239797.0 482791.0 0
299624.0 480402.0 0
303513.0 480464.0 0
307406.0 480521.0 0
311302.0 480574.0 0
315200.0 480624.0 0
319101.0 480671.0 0
323007.0 480718.0 0
326920.0 480763.0 0
330845.0 480809.0 0
334790.0 480867.0 0
338935.0 481044.0 0
342887.0 481012.0 0
346846.0 480930.0 0
350810.0 480813.0 0
354778.0 480670.0 0
358745.0 480508.0 0
373010.0 482987.0 0
376978.0 482722.0 0
380916.0 482475.0 0
384881.0 482149.0 0
388958.0 481646.0 0
393249.0 480469.0 0
93750.8 483525.0 0
98472.5 485466.0 0
103147.0 485669.0 0
114044.0 483527.0 0
117953.0 483807.0 0
122481.0 483450.0 0
126416.0 483473.0 0
130355.0 483462.0 0
134527.0 483276.0 0
138501.0 483232.0 0
142459.0 483199.0 0
146883.0 483581.0 0
150842.0 483571.0 0
154790.0 483567.0 0
158733.0 483563.0 0
162672.0 483557.0 0
166606.0 483551.0 0
170534.0 483543.0 0
174458.0 483536.0 0
178376.0 483531.0 0
182289.0 483534.0 0
186199.0 483551.0 0
190107.0 483592.0 0
194017.0 483669.0 0
197935.0 483801.0 0
201878.0 483993.0 0
206188.0 484567.0 0
210154.0 484885.0 0
214104.0 485172.0 0
218031.0 485438.0 0
243667.0 482820.0 0
247528.0 482852.0 0
251382.0 482888.0 0
255233.0 482931.0 0
259083.0 482981.0 0
262933.0 483038.0 0
266787.0 483100.0 0
270643.0 483166.0 0
274504.0 483234.0 0
278370.0 483304.0 0
282241.0 483374.0 0
286117.0 483443.0 0
289999.0 483510.0 0
293885.0 483575.0 0
297776.0 483636.0 0
301671.0 483694.0 0
305569.0 483748.0 0
309470.0 483799.0 0
313374.0 483846.0 0
317279.0 483889.0 0
321187.0 483929.0 0
325099.0 483965.0 0
329016.0 483995.0 0
332941.0 484021.0 0
336884.0 484031.0 0
341220.0 484273.0 0
345167.0 484189.0 0
349128.0 484071.0 0
353098.0 483928.0 0
357073.0 483768.0 0
361052.0 483596.0 0
365036.0 483413.0 0
369027.0 483222.0 0
383339.0 485556.0 0
387381.0 485151.0 0
392093.0 483989.0 0
396044.0 483257.0 0
402426.0 484346.0 0
405888.0 486099.0 0
409830.0 484984.0 0
90224.0 485403.0 0
94900.6 487202.0 0
107348.0 486111.0 0
111555.0 486566.0 0
115500.0 486956.0 0
120336.0 486619.0 0
124244.0 486732.0 0
128172.0 486755.0 0
132472.0 486483.0 0
136433.0 486465.0 0
140390.0 486447.0 0
144348.0 486447.0 0
148604.0 486713.0 0
152570.0 486738.0 0
156523.0 486755.0 0
160467.0 486766.0 0
164405.0 486775.0 0
168335.0 486782.0 0
172258.0 486788.0 0
176175.0 486794.0 0
180087.0 486804.0 0
183993.0 486823.0 0
187894.0 486857.0 0
191794.0 486915.0 0
195695.0 487008.0 0
199607.0 487142.0 0
203539.0 487326.0 0
208021.0 488073.0 0
211966.0 488366.0 0
221961.0 485667.0 0
225916.0 485834.0 0
229864.0 485948.0 0
233796.0 486025.0 0
237711.0 486080.0 0
241611.0 486123.0 0
245498.0 486161.0 0
249376.0 486200.0 0
253248.0 486243.0 0
257117.0 486290.0 0
260984.0 486341.0 0
264852.0 486397.0 0
268722.0 486457.0 0
272594.0 486518.0 0
276471.0 486582.0 0
280351.0 486645.0 0
284236.0 486709.0 0
288125.0 486771.0 0
292019.0 486831.0 0
295916.0 486889.0 0
299817.0 486943.0 0
303722.0 486995.0 0
307629.0 487043.0 0
311538.0 487087.0 0
315449.0 487128.0 0
319363.0 487164.0 0
323279.0 487195.0 0
327197.0 487218.0 0
331119.0 487231.0 0
335048.0 487225.0 0
338989.0 487177.0 0
343506.0 487497.0 0
347449.0 487368.0 0
351411.0 487218.0 0
355385.0 487054.0 0
359367.0 486881.0 0
363354.0 486699.0 0
367344.0 486508.0 0
371375.0 486315.0 0
375363.0 486083.0 0
379343.0 485847.0 0
390551.0 487446.0 0
394596.0 486955.0 0
398528.0 486373.0 0
402540.0 488257.0 0
410373.0 488830.0 0
91504.5 489244.0 0
97079.5 490407.0 0
100704.0 488784.0 0
104871.0 489181.0 0
109016.0 489554.0 0
113027.0 490031.0 0
118047.0 489712.0 0
121989.0 489995.0 0
125930.0 490056.0 0
130422.0 489692.0 0
134363.0 489707.0 0
138305.0 489704.0 0
142252.0 489701.0 0
146213.0 489722.0 0
150328.0 489896.0 0
154298.0 489945.0 0
158255.0 489977.0 0
162199.0 490003.0 0
166133.0 490027.0 0
170059.0 490047.0 0
173976.0 490065.0 0
177888.0 490084.0 0
181792.0 490107.0 0
185691.0 490139.0 0
189585.0 490188.0 0
193477.0 490259.0 0
197371.0 490357.0 0
201273.0 490485.0 0
205192.0 490645.0 0
215904.0 488665.0 0
219813.0 488912.0 0
223766.0 489063.0 0
227728.0 489189.0 0
231683.0 489286.0 0
235622.0 489359.0 0
239546.0 489417.0 0
243458.0 489466.0 0
247358.0 489511.0 0
251250.0 489556.0 0
255136.0 489603.0 0
259020.0 489652.0 0
262902.0 489704.0 0
266785.0 489759.0 0
270670.0 489815.0 0
274557.0 489873.0 0
278447.0 489932.0 0
282341.0 489990.0 0
286238.0 490048.0 0
290139.0 490104.0 0
294043.0 490158.0 0
297951.0 490210.0 0
301862.0 490259.0 0
305776.0 490305.0 0
309692.0 490347.0 0
313610.0 490386.0 0
317530.0 490419.0 0
321453.0 490447.0 0
325378.0 490467.0 0
329306.0 490476.0 0
333237.0 490466.0 0
337173.0 490422.0 0
341111.0 490320.0 0
345783.0 490716.0 0
349726.0 490548.0 0
353690.0 490372.0 0
357668.0 490192.0 0
361654.0 490009.0 0
365646.0 489821.0 0
369640.0 489622.0 0
373698.0 489439.0 0
377689.0 489219.0 0
381709.0 488959.0 0
385750.0 488650.0 0
396911.0 490124.0 0
400552.0 491660.0 0
406521.0 489884.0 0
93725.0 492576.0 0
102500.0 492355.0 0
106640.0 492686.0 0
110603.0 493075.0 0
115651.0 492803.0 0
119586.0 493179.0 0
123495.0 493471.0 0
128354.0 492884.0 0
132283.0 492958.0 0
136212.0 492980.0 0
140146.0 492979.0 0
144090.0 492980.0 0
148052.0 493013.0 0
152064.0 493128.0 0
156039.0 493186.0 0
159994.0 493234.0 0
163933.0 493276.0 0
167861.0 493312.0 0
209868.0 491595.0 0
213788.0 491876.0 0
217690.0 492222.0 0
221656.0 492337.0 0
225625.0 492448.0 0
229589.0 492549.0 0
233543.0 492636.0 0
237485.0 492707.0 0
241414.0 492768.0 0
245332.0 492821.0 0
249242.0 492871.0 0
253145.0 492920.0 0
257044.0 492970.0 0
260940.0 493020.0 0
264835.0 493072.0 0
268731.0 493124.0 0
272628.0 493178.0 0
276528.0 493232.0 0
280431.0 493286.0 0
359940.0 493345.0 0
363929.0 493156.0 0
367924.0 492965.0 0
371918.0 492765.0 0
375991.0 492598.0 0
380018.0 492365.0 0
384018.0 492121.0 0
388953.0 490931.0 0
392933.0 490541.0 0
405585.0 493679.0 0
409425.0 492653.0 0
98826.8 493886.0 0
104371.0 495898.0 0
113232.0 495934.0 0
171781.0 493344.0 0
175694.0 493372.0 0
179600.0 493402.0 0
183499.0 493437.0 0
187393.0 493481.0 0
191281.0 493540.0 0
195168.0 493617.0 0
199055.0 493713.0 0
202948.0 493825.0 0
206855.0 493945.0 0
211762.0 495140.0 0
219624.0 495667.0 0
223578.0 495745.0 0
227534.0 495835.0 0
284336.0 493340.0 0
288245.0 493393.0 0
292157.0 493444.0 0
296072.0 493493.0 0
299990.0 493540.0 0
303910.0 493584.0 0
307833.0 493625.0 0
311758.0 493661.0 0
315686.0 493693.0 0
319617.0 493719.0 0
323550.0 493737.0 0
327487.0 493744.0 0
331428.0 493735.0 0
335371.0 493699.0 0
339315.0 493618.0 0
343253.0 493473.0 0
348044.0 493929.0 0
351990.0 493731.0 0
355958.0 493536.0 0
374176.0 495941.0 0
378275.0 495777.0 0
382265.0 495581.0 0
387230.0 494398.0 0
391246.0 494125.0 0
395212.0 493726.0 0
402026.0 495343.0 0
95536.0 496140.0 0
100687.0 497329.0 0
108356.0 496255.0 0
117189.0 496351.0 0
121130.0 496706.0 0
126245.0 496051.0 0
130176.0 496205.0 0
134110.0 496268.0 0
138040.0 496285.0 0
141969.0 496279.0 0
145907.0 496278.0 0
149861.0 496315.0 0
153837.0 496396.0 0
157797.0 496465.0 0
161739.0 496529.0 0
165669.0 496584.0 0
169591.0 496630.0 0
173506.0 496669.0 0
177415.0 496707.0 0
181319.0 496746.0 0
185216.0 496790.0 0
189107.0 496843.0 0
192993.0 496908.0 0
196877.0 496986.0 0
200761.0 497072.0 0
204649.0 497158.0 0
208547.0 497222.0 0
215671.0 495649.0 0
231487.0 495922.0 0
235435.0 496001.0 0
239375.0 496071.0 0
243306.0 496133.0 0
247230.0 496189.0 0
251146.0 496242.0 0
255058.0 496294.0 0
258966.0 496344.0 0
262873.0 496394.0 0
266779.0 496444.0 0
270687.0 496495.0 0
274596.0 496546.0 0
278507.0 496596.0 0
282421.0 496646.0 0
286338.0 496696.0 0
290257.0 496744.0 0
294179.0 496791.0 0
298104.0 496836.0 0
302031.0 496879.0 0
305961.0 496918.0 0
309893.0 496953.0 0
313828.0 496983.0 0
317766.0 497007.0 0
321708.0 497024.0 0
325655.0 497031.0 0
329606.0 497024.0 0
333561.0 496996.0 0
337517.0 496933.0 0
341470.0 496819.0 0
345413.0 496641.0 0
350290.0 497137.0 0
354243.0 496917.0 0
358214.0 496711.0 0
362198.0 496516.0 0
366188.0 496327.0 0
370182.0 496138.0 0
385466.0 497880.0 0
389457.0 497648.0 0
393552.0 497344.0 0
398208.0 496262.0 0
405148.0 497815.0 0
97115.1 499809.0 0
100829.0 501261.0 0
106124.0 499465.0 0
110797.0 499396.0 0
114793.0 499528.0 0
118773.0 499926.0 0
124073.0 499201.0 0
128030.0 499436.0 0
131989.0 499551.0 0
135940.0 499606.0 0
139870.0 499616.0 0
143792.0 499598.0 0
147722.0 499585.0 0
151668.0 499623.0 0
155619.0 499704.0 0
159556.0 499788.0 0
163483.0 499862.0 0
167406.0 499923.0 0
171324.0 499974.0 0
175239.0 500020.0 0
179148.0 500064.0 0
183051.0 500111.0 0
186949.0 500162.0 0
190842.0 500222.0 0
194730.0 500289.0 0
198616.0 500361.0 0
202501.0 500431.0 0
206385.0 500484.0 0
210266.0 500485.0 0
213900.0 499310.0 0
217719.0 499088.0 0
221608.0 499101.0 0
225529.0 499159.0 0
229465.0 499233.0 0
233406.0 499309.0 0
237348.0 499382.0 0
241285.0 499450.0 0
245217.0 499512.0 0
249143.0 499570.0 0
253065.0 499624.0 0
256984.0 499676.0 0
260901.0 499726.0 0
264817.0 499775.0 0
268733.0 499823.0 0
272651.0 499871.0 0
276571.0 499919.0 0
280493.0 499966.0 0
284417.0 500013.0 0
288344.0 500059.0 0
292273.0 500104.0 0
296204.0 500147.0 0
300138.0 500188.0 0
304075.0 500226.0 0
308014.0 500260.0 0
311955.0 500289.0 0
315901.0 500313.0 0
319850.0 500329.0 0
323804.0 500335.0 0
327765.0 500329.0 0
331731.0 500306.0 0
335703.0 500259.0 0
339674.0 500173.0 0
343638.0 500032.0 0
347590.0 499828.0 0
352522.0 500341.0 0
356480.0 500111.0 0
360454.0 499904.0 0
364437.0 499711.0 0
368426.0 499525.0 0
372418.0 499339.0 0
376415.0 499148.0 0
380486.0 499026.0 0
391729.0 500882.0 0
396613.0 499877.0 0
400776.0 499318.0 0
104380.0 502988.0 0
108430.0 502718.0 0
112409.0 503042.0 0
116400.0 503130.0 0
121864.0 502358.0 0
125870.0 502661.0 0
129858.0 502825.0 0
133838.0 502913.0 0
137803.0 502975.0 0
141723.0 502969.0 0
145637.0 502923.0 0
149542.0 502901.0 0
153465.0 502958.0 0
157385.0 503058.0 0
161303.0 503150.0 0
165225.0 503225.0 0
169147.0 503287.0 0
173067.0 503341.0 0
176985.0 503392.0 0
180897.0 503441.0 0
184804.0 503494.0 0
188707.0 503550.0 0
192605.0 503612.0 0
196500.0 503677.0 0
215846.0 502938.0 0
219671.0 502528.0 0
223559.0 502536.0 0
227473.0 502581.0 0
231401.0 502642.0 0
235336.0 502710.0 0
239273.0 502778.0 0
243208.0 502844.0 0
247140.0 502906.0 0
251069.0 502963.0 0
254995.0 503017.0 0
258920.0 503068.0 0
262844.0 503116.0 0
266769.0 503163.0 0
270695.0 503208.0 0
274622.0 503253.0 0
278552.0 503298.0 0
282483.0 503342.0 0
286417.0 503386.0 0
290353.0 503429.0 0
294291.0 503471.0 0
298232.0 503511.0 0
302175.0 503548.0 0
306120.0 503582.0 0
310068.0 503611.0 0
314019.0 503634.0 0
317974.0 503650.0 0
321935.0 503656.0 0
325902.0 503651.0 0
329876.0 503631.0 0
333859.0 503592.0 0
337849.0 503529.0 0
341841.0 503423.0 0
345825.0 503250.0 0
349788.0 503037.0 0
354737.0 503547.0 0
358699.0 503320.0 0
362674.0 503119.0 0
366654.0 502932.0 0
370638.0 502752.0 0
374622.0 502574.0 0
378600.0 502410.0 0
383664.0 501369.0 0
387653.0 501168.0 0
399123.0 502962.0 0
97954.1 504002.0 0
119581.0 505509.0 0
123662.0 505858.0 0
127743.0 506105.0 0
131741.0 506218.0 0
135731.0 506291.0 0
139723.0 506384.0 0
143644.0 506320.0 0
147507.0 506274.0 0
151333.0 506241.0 0
155218.0 506342.0 0
200395.0 503739.0 0
204290.0 503787.0 0
208188.0 503802.0 0
212086.0 503741.0 0
221600.0 505962.0 0
225498.0 505969.0 0
229412.0 506007.0 0
233338.0 506061.0 0
237271.0 506124.0 0
364872.0 506361.0 0
368849.0 506184.0 0
372826.0 506013.0 0
376801.0 505850.0 0
381721.0 504803.0 0
385828.0 504686.0 0
389909.0 504419.0 0
394795.0 503400.0 0
101772.0 506270.0 0
105888.0 506617.0 0
110118.0 506339.0 0
114254.0 506577.0 0
159121.0 506452.0 0
163042.0 506537.0 0
166970.0 506607.0 0
170900.0 506669.0 0
174827.0 506726.0 0
178750.0 506780.0 0
182669.0 506834.0 0
186583.0 506891.0 0
190493.0 506950.0 0
194400.0 507010.0 0
198307.0 507067.0 0
202215.0 507114.0 0
206127.0 507136.0 0
210042.0 507113.0 0
213945.0 507031.0 0
217770.0 506476.0 0
241205.0 506189.0 0
245139.0 506252.0 0
249071.0 506312.0 0
253003.0 506368.0 0
256933.0 506420.0 0
260864.0 506468.0 0
264796.0 506513.0 0
268729.0 506557.0 0
272663.0 506600.0 0
276599.0 506642.0 0
280537.0 506684.0 0
284477.0 506726.0 0
288420.0 506767.0 0
292364.0 506807.0 0
296311.0 506846.0 0
300260.0 506884.0 0
304211.0 506918.0 0
308164.0 506947.0 0
312121.0 506971.0 0
316081.0 506987.0 0
320046.0 506993.0 0
324017.0 506989.0 0
327996.0 506971.0 0
331983.0 506937.0 0
335977.0 506884.0 0
339993.0 506804.0 0
344041.0 506667.0 0
348028.0 506485.0 0
352000.0 506273.0 0
356930.0 506766.0 0
360897.0 506551.0 0
379865.0 508317.0 0
383844.0 508119.0 0
388086.0 507954.0 0
392978.0 506941.0 0
397098.0 506638.0 0
401091.0 506431.0 0
100048.0 510025.0 0
104042.0 510152.0 0
108106.0 509880.0 0
112084.0 509925.0 0
117544.0 508837.0 0
121524.0 509106.0 0
125542.0 509333.0 0
129667.0 509538.0 0
133662.0 509624.0 0
137638.0 509682.0 0
142962.0 510114.0 0
147636.0 510108.0 0
152975.0 509612.0 0
156903.0 509761.0 0
160844.0 509855.0 0
164788.0 509934.0 0
168732.0 510003.0 0
172672.0 510066.0 0
176608.0 510126.0 0
180539.0 510183.0 0
184466.0 510241.0 0
188389.0 510300.0 0
192309.0 510358.0 0
196228.0 510413.0 0
200148.0 510458.0 0
204072.0 510486.0 0
207998.0 510483.0 0
211919.0 510440.0 0
215825.0 510359.0 0
219687.0 509989.0 0
223523.0 509393.0 0
227430.0 509403.0 0
231349.0 509438.0 0
235276.0 509490.0 0
239208.0 509550.0 0
243141.0 509613.0 0
247074.0 509674.0 0
251008.0 509731.0 0
254942.0 509783.0 0
258878.0 509831.0 0
262815.0 509875.0 0
266753.0 509918.0 0
270694.0 509958.0 0
274636.0 509998.0 0
278580.0 510038.0 0
282526.0 510077.0 0
286474.0 510116.0 0
290424.0 510156.0 0
294377.0 510194.0 0
298331.0 510231.0 0
302288.0 510265.0 0
306247.0 510296.0 0
310208.0 510321.0 0
314173.0 510339.0 0
318141.0 510347.0 0
322116.0 510344.0 0
326096.0 510328.0 0
330084.0 510297.0 0
334079.0 510251.0 0
338094.0 510181.0 0
342174.0 510062.0 0
346245.0 509922.0 0
350240.0 509741.0 0
354217.0 509542.0 0
359102.0 510005.0 0
363073.0 509808.0 0
367048.0 509632.0 0
371022.0 509465.0 0
374999.0 509305.0 0
386049.0 511379.0 0
391156.0 510492.0 0
395270.0 510194.0 0
399263.0 509985.0 0
115411.0 512110.0 0
119385.0 512384.0 0
123410.0 512622.0 0
127476.0 512792.0 0
131625.0 512970.0 0
135624.0 513044.0 0
140056.0 512733.0 0
145325.0 513254.0 0
150573.0 512692.0 0
154640.0 513062.0 0
158629.0 513172.0 0
162601.0 513262.0 0
166563.0 513341.0 0
170519.0 513411.0 0
174470.0 513477.0 0
178415.0 513539.0 0
182355.0 513600.0 0
186290.0 513660.0 0
190223.0 513719.0 0
194154.0 513773.0 0
198085.0 513819.0 0
202019.0 513850.0 0
205954.0 513860.0 0
209888.0 513841.0 0
213813.0 513793.0 0
217723.0 513719.0 0
221608.0 513493.0 0
225445.0 512827.0 0
229361.0 512840.0 0
233285.0 512876.0 0
237214.0 512928.0 0
241145.0 512988.0 0
245078.0 513049.0 0
249012.0 513107.0 0
252949.0 513159.0 0
256888.0 513206.0 0
260828.0 513249.0 0
264771.0 513290.0 0
268717.0 513329.0 0
272664.0 513366.0 0
276613.0 513403.0 0
280564.0 513441.0 0
284517.0 513478.0 0
288472.0 513515.0 0
292430.0 513553.0 0
296389.0 513590.0 0
300351.0 513625.0 0
304315.0 513657.0 0
308281.0 513684.0 0
312251.0 513704.0 0
316223.0 513715.0 0
320200.0 513715.0 0
324182.0 513701.0 0
328170.0 513674.0 0
332164.0 513633.0 0
336179.0 513569.0 0
340263.0 513455.0 0
344357.0 513327.0 0
348441.0 513194.0 0
352444.0 513025.0 0
356424.0 512843.0 0
361253.0 513270.0 0
365230.0 513094.0 0
369207.0 512935.0 0
373180.0 512773.0 0
378014.0 511849.0 0
381996.0 511647.0 0
101040.0 513899.0 0
105031.0 514020.0 0
109004.0 513739.0 0
112762.0 514997.0 0
117204.0 515665.0 0
121250.0 515904.0 0
125361.0 516105.0 0
129445.0 516245.0 0
133594.0 516406.0 0
138099.0 516137.0 0
142421.0 515879.0 0
148245.0 515887.0 0
152228.0 516237.0 0
156433.0 516485.0 0
227372.0 516264.0 0
231295.0 516282.0 0
235222.0 516324.0 0
239152.0 516379.0 0
243082.0 516439.0 0
247016.0 516496.0 0
250954.0 516548.0 0
342434.0 516737.0 0
346526.0 516609.0 0
350622.0 516490.0 0
354632.0 516337.0 0
358615.0 516173.0 0
363385.0 516564.0 0
367370.0 516409.0 0
371354.0 516267.0 0
376065.0 515465.0 0
380042.0 515252.0 0
384021.0 515043.0 0
387993.0 514811.0 0
391951.0 514400.0 0
395931.0 514127.0 0
399918.0 513925.0 0
100082.0 517874.0 0
104076.0 517900.0 0
108055.0 517609.0 0
111852.0 518825.0 0
140500.0 519303.0 0
145323.0 518602.0 0
160421.0 516590.0 0
164401.0 516680.0 0
168372.0 516760.0 0
172336.0 516832.0 0
176294.0 516901.0 0
180247.0 516966.0 0
184195.0 517029.0 0
188140.0 517090.0 0
192082.0 517147.0 0
196024.0 517194.0 0
199966.0 517229.0 0
203911.0 517247.0 0
207854.0 517244.0 0
211792.0 517218.0 0
215720.0 517171.0 0
219635.0 517108.0 0
223536.0 516985.0 0
254895.0 516594.0 0
258838.0 516636.0 0
262785.0 516674.0 0
266734.0 516711.0 0
270685.0 516746.0 0
274638.0 516781.0 0
278593.0 516816.0 0
282550.0 516851.0 0
286510.0 516887.0 0
290471.0 516923.0 0
294435.0 516959.0 0
298401.0 516994.0 0
302370.0 517028.0 0
306341.0 517058.0 0
310314.0 517081.0 0
314290.0 517096.0 0
318270.0 517100.0 0
322254.0 517091.0 0
326242.0 517067.0 0
330236.0 517030.0 0
334254.0 516967.0 0
338336.0 516862.0 0
378212.0 518808.0 0
382198.0 518592.0 0
386189.0 518374.0 0
390203.0 518096.0 0
394175.0 517717.0 0
398167.0 517689.0 0
115801.0 519347.0 0
119788.0 519557.0 0
123796.0 519722.0 0
127836.0 519841.0 0
132098.0 520045.0 0
136076.0 519523.0 0
149888.0 519464.0 0
154092.0 519693.0 0
158256.0 519924.0 0
162247.0 520023.0 0
166232.0 520113.0 0
170208.0 520194.0 0
174179.0 520268.0 0
178144.0 520339.0 0
182104.0 520407.0 0
186060.0 520472.0 0
190013.0 520532.0 0
193964.0 520584.0 0
197915.0 520623.0 0
201868.0 520647.0 0
205820.0 520654.0 0
209768.0 520644.0 0
213710.0 520617.0 0
217641.0 520573.0 0
221561.0 520520.0 0
225469.0 520468.0 0
229303.0 519707.0 0
233230.0 519734.0 0
237158.0 519784.0 0
241088.0 519843.0 0
245021.0 519899.0 0
248959.0 519950.0 0
252900.0 519995.0 0
256846.0 520035.0 0
260795.0 520071.0 0
264747.0 520105.0 0
268701.0 520138.0 0
272657.0 520170.0 0
276615.0 520203.0 0
280575.0 520235.0 0
284538.0 520269.0 0
288502.0 520304.0 0
292469.0 520339.0 0
296439.0 520374.0 0
300411.0 520409.0 0
304385.0 520441.0 0
308363.0 520468.0 0
312343.0 520487.0 0
316326.0 520496.0 0
320312.0 520494.0 0
324302.0 520476.0 0
328296.0 520441.0 0
332323.0 520377.0 0
336395.0 520281.0 0
340496.0 520163.0 0
344593.0 520037.0 0
348676.0 519912.0 0
352782.0 519810.0 0
356800.0 519676.0 0
360784.0 519528.0 0
365501.0 519887.0 0
369483.0 519764.0 0
374223.0 519011.0 0
101447.0 521800.0 0
105438.0 521702.0 0
109414.0 521946.0 0
113379.0 522494.0 0
117627.0 522879.0 0
121670.0 523065.0 0
125740.0 523204.0 0
129834.0 523292.0 0
134560.0 523181.0 0
138522.0 522719.0 0
143022.0 522381.0 0
147008.0 522223.0 0
151780.0 522929.0 0
155955.0 523164.0 0
160109.0 523374.0 0
164102.0 523472.0 0
168089.0 523561.0 0
172070.0 523643.0 0
176045.0 523720.0 0
180015.0 523793.0 0
183981.0 523863.0 0
187944.0 523929.0 0
191906.0 523987.0 0
195866.0 524031.0 0
199826.0 524060.0 0
203786.0 524075.0 0
207744.0 524075.0 0
211697.0 524061.0 0
215642.0 524038.0 0
219576.0 523995.0 0
223497.0 523954.0 0
227407.0 523945.0 0
231237.0 523160.0 0
235164.0 523201.0 0
239094.0 523259.0 0
243026.0 523315.0 0
246963.0 523366.0 0
250906.0 523410.0 0
254852.0 523448.0 0
258804.0 523481.0 0
262758.0 523512.0 0
266714.0 523542.0 0
270672.0 523572.0 0
274633.0 523602.0 0
278595.0 523632.0 0
282559.0 523664.0 0
286525.0 523696.0 0
290493.0 523730.0 0
294465.0 523765.0 0
298439.0 523799.0 0
302417.0 523833.0 0
306397.0 523864.0 0
310380.0 523888.0 0
314366.0 523902.0 0
318357.0 523906.0 0
322352.0 523897.0 0
326352.0 523869.0 0
330383.0 523798.0 0
334448.0 523711.0 0
338543.0 523604.0 0
342644.0 523481.0 0
346734.0 523358.0 0
350803.0 523237.0 0
354915.0 523152.0 0
358942.0 523046.0 0
362933.0 522897.0 0
367447.0 523337.0 0
371428.0 523219.0 0
375375.0 522825.0 0
379341.0 522632.0 0
383310.0 522415.0 0
387281.0 522204.0 0
391250.0 521933.0 0
395222.0 521697.0 0
399211.0 521742.0 0
101311.0 525798.0 0
105302.0 525707.0 0
109281.0 525919.0 0
113227.0 526455.0 0
117194.0 526815.0 0
137400.0 526528.0 0
141409.0 526037.0 0
145406.0 526007.0 0
149398.0 526123.0 0
153658.0 526416.0 0
157840.0 526639.0 0
161984.0 526839.0 0
165978.0 526936.0 0
233167.0 526627.0 0
237094.0 526685.0 0
241027.0 526744.0 0
244965.0 526794.0 0
248911.0 526837.0 0
252859.0 526874.0 0
256812.0 526903.0 0
260768.0 526932.0 0
264727.0 526959.0 0
336576.0 527061.0 0
340682.0 526940.0 0
344776.0 526818.0 0
348852.0 526701.0 0
352909.0 526585.0 0
357009.0 526529.0 0
361329.0 526537.0 0
373751.0 526478.0 0
377745.0 526297.0 0
381737.0 526085.0 0
385731.0 525883.0 0
389927.0 525697.0 0
394000.0 525662.0 0
398000.0 525685.0 0
121179.0 526999.0 0
125171.0 527133.0 0
129166.0 527203.0 0
133375.0 526968.0 0
169968.0 527026.0 0
173951.0 527109.0 0
177929.0 527187.0 0
181903.0 527263.0 0
185875.0 527335.0 0
189846.0 527400.0 0
193817.0 527453.0 0
197787.0 527487.0 0
201755.0 527507.0 0
205722.0 527515.0 0
209684.0 527512.0 0
213638.0 527497.0 0
217579.0 527487.0 0
221508.0 527447.0 0
225426.0 527419.0 0
229337.0 527427.0 0
268686.0 526985.0 0
272648.0 527013.0 0
276610.0 527041.0 0
280575.0 527070.0 0
284541.0 527101.0 0
288510.0 527133.0 0
292482.0 527166.0 0
296456.0 527200.0 0
300434.0 527234.0 0
304416.0 527267.0 0
308402.0 527296.0 0
312391.0 527317.0 0
316384.0 527326.0 0
320381.0 527322.0 0
324393.0 527303.0 0
328453.0 527241.0 0
332500.0 527151.0 0
365334.0 526720.0 0
369606.0 526764.0 0
102000.0 529777.0 0
106000.0 529704.0 0
110188.0 529799.0 0
114430.0 530243.0 0
118409.0 530596.0 0
122393.0 530786.0 0
126375.0 530928.0 0
130357.0 531001.0 0
134334.0 530835.0 0
138294.0 530411.0 0
142253.0 529947.0 0
146244.0 529993.0 0
150241.0 530028.0 0
154438.0 530304.0 0
158573.0 530528.0 0
162692.0 530726.0 0
166701.0 530823.0 0
170766.0 530902.0 0
174875.0 530961.0 0
178984.0 531008.0 0
183122.0 531039.0 0
187245.0 531063.0 0
191373.0 531070.0 0
195456.0 531077.0 0
199507.0 531067.0 0
203500.0 531070.0 0
207482.0 531071.0 0
211453.0 531065.0 0
215413.0 531052.0 0
219368.0 531045.0 0
223321.0 530993.0 0
227272.0 530953.0 0
231223.0 530928.0 0
235074.0 530119.0 0
239015.0 530178.0 0
242961.0 530234.0 0
246912.0 530272.0 0
250865.0 530314.0 0
254822.0 530338.0 0
258781.0 530363.0 0
262740.0 530387.0 0
266701.0 530412.0 0
270663.0 530437.0 0
274625.0 530463.0 0
278589.0 530490.0 0
282554.0 530518.0 0
286522.0 530548.0 0
290492.0 530580.0 0
294464.0 530613.0 0
298441.0 530645.0 0
302422.0 530678.0 0
306409.0 530711.0 0
310401.0 530738.0 0
314398.0 530754.0 0
318398.0 530755.0 0
322415.0 530740.0 0
326495.0 530681.0 0
330570.0 530614.0 0
334594.0 530530.0 0
338590.0 530486.0 0
342577.0 530427.0 0
346554.0 530363.0 0
350521.0 530294.0 0
354478.0 530220.0 0
358425.0 530248.0 0
362372.0 530391.0 0
366325.0 530592.0 0
370288.0 530700.0 0
374248.0 530447.0 0
378219.0 530268.0 0
382194.0 530054.0 0
386173.0 529853.0 0
390158.0 529683.0 0
394150.0 529663.0 0
398146.0 529687.0 0
101926.0 533778.0 0
105924.0 533703.0 0
109920.0 533777.0 0
113894.0 534189.0 0
141814.0 533927.0 0
145792.0 533994.0 0
149764.0 533996.0 0
153724.0 534217.0 0
157685.0 534399.0 0
161650.0 534553.0 0
233895.0 533999.0 0
237887.0 534000.0 0
241876.0 534071.0 0
245862.0 534109.0 0
249846.0 534163.0 0
253828.0 534182.0 0
257810.0 534210.0 0
261792.0 534236.0 0
265777.0 534263.0 0
269762.0 534292.0 0
273751.0 534322.0 0
277742.0 534353.0 0
281735.0 534387.0 0
285731.0 534422.0 0
289729.0 534459.0 0
293727.0 534497.0 0
337876.0 534405.0 0
341874.0 534344.0 0
345873.0 534282.0 0
349884.0 534218.0 0
353915.0 534153.0 0
357964.0 534214.0 0
377991.0 534261.0 0
381990.0 534045.0 0
385990.0 533845.0 0
389997.0 533675.0 0
394000.0 533662.0 0
398000.0 533685.0 0
117876.0 534539.0 0
121870.0 534734.0 0
125903.0 534887.0 0
129897.0 534961.0 0
133887.0 534802.0 0
137858.0 534411.0 0
165622.0 534644.0 0
169599.0 534700.0 0
173581.0 534722.0 0
177566.0 534729.0 0
181555.0 534704.0 0
185546.0 534673.0 0
189536.0 534617.0 0
193526.0 534577.0 0
197514.0 534525.0 0
201502.0 534522.0 0
205494.0 534526.0 0
209490.0 534537.0 0
213488.0 534548.0 0
217509.0 534584.0 0
221507.0 534555.0 0
225504.0 534548.0 0
229497.0 534514.0 0
297752.0 534538.0 0
301782.0 534581.0 0
305821.0 534624.0 0
309848.0 534659.0 0
313863.0 534680.0 0
317863.0 534681.0 0
321864.0 534665.0 0
325863.0 534590.0 0
329876.0 534520.0 0
333877.0 534453.0 0
361970.0 534367.0 0
365965.0 534571.0 0
369971.0 534680.0 0
373991.0 534439.0 0
102000.0 537777.0 0
106000.0 537704.0 0
110006.0 537767.0 0
114022.0 538173.0 0
118023.0 538519.0 0
122018.0 538718.0 0
126014.0 538875.0 0
130013.0 538949.0 0
134010.0 538794.0 0
138002.0 538407.0 0
142000.0 537936.0 0
146000.0 537989.0 0
150002.0 537989.0 0
154030.0 538188.0 0
158049.0 538361.0 0
162069.0 538507.0 0
166074.0 538597.0 0
170079.0 538653.0 0
174085.0 538674.0 0
178093.0 538681.0 0
182094.0 538658.0 0
186093.0 538629.0 0
190092.0 538575.0 0
194090.0 538535.0 0
198090.0 538479.0 0
202095.0 538470.0 0
206094.0 538473.0 0
210092.0 538484.0 0
214089.0 538498.0 0
218086.0 538541.0 0
222082.0 538513.0 0
226080.0 538513.0 0
230078.0 538459.0 0
234047.0 537996.0 0
238045.0 537988.0 0
242042.0 538060.0 0
246041.0 538091.0 0
250040.0 538148.0 0
254039.0 538157.0 0
258040.0 538180.0 0
262040.0 538203.0 0
266041.0 538227.0 0
270042.0 538253.0 0
274043.0 538280.0 0
278043.0 538310.0 0
282042.0 538342.0 0
286041.0 538376.0 0
290040.0 538413.0 0
294037.0 538451.0 0
298035.0 538494.0 0
302031.0 538540.0 0
306028.0 538588.0 0
310025.0 538627.0 0
314022.0 538651.0 0
318020.0 538652.0 0
322018.0 538637.0 0
326016.0 538560.0 0
330015.0 538499.0 0
334013.0 538441.0 0
338013.0 538389.0 0
342012.0 538327.0 0
346011.0 538263.0 0
350010.0 538196.0 0
354009.0 538132.0 0
358007.0 538211.0 0
362004.0 538367.0 0
366004.0 538566.0 0
370003.0 538675.0 0
374000.0 538439.0 0
378000.0 538260.0 0
382000.0 538042.0 0
386000.0 537841.0 0
390000.0 537671.0 0
394000.0 537662.0 0
398000.0 537685.0 0
102000.0 541777.0 0
106000.0 541704.0 0
110000.0 541761.0 0
113998.0 542163.0 0
142000.0 541936.0 0
146000.0 541989.0 0
150000.0 541988.0 0
153999.0 542176.0 0
233999.0 542002.0 0
237999.0 541985.0 0
241999.0 542058.0 0
245999.0 542082.0 0
249998.0 542141.0 0
253998.0 542144.0 0
257998.0 542165.0 0
261998.0 542186.0 0
265998.0 542209.0 0
269997.0 542233.0 0
273997.0 542260.0 0
277997.0 542289.0 0
345999.0 542251.0 0
349999.0 542183.0 0
354000.0 542119.0 0
382000.0 542039.0 0
386000.0 541839.0 0
390000.0 541668.0 0
394000.0 541662.0 0
398000.0 541685.0 0
117996.0 542508.0 0
121998.0 542708.0 0
126000.0 542868.0 0
130000.0 542942.0 0
134000.0 542791.0 0
138000.0 542407.0 0
157995.0 542346.0 0
161992.0 542489.0 0
165991.0 542581.0 0
169991.0 542639.0 0
173991.0 542663.0 0
177991.0 542670.0 0
181991.0 542650.0 0
185991.0 542623.0 0
189991.0 542571.0 0
193991.0 542532.0 0
197990.0 542474.0 0
201990.0 542463.0 0
205990.0 542466.0 0
209990.0 542478.0 0
213990.0 542493.0 0
217990.0 542539.0 0
221989.0 542511.0 0
225989.0 542512.0 0
229989.0 542450.0 0
281997.0 542320.0 0
285997.0 542354.0 0
289997.0 542390.0 0
293997.0 542429.0 0
297998.0 542472.0 0
301998.0 542518.0 0
305999.0 542567.0 0
309999.0 542609.0 0
313999.0 542635.0 0
317999.0 542635.0 0
321999.0 542620.0 0
325999.0 542543.0 0
329999.0 542491.0 0
333999.0 542434.0 0
337999.0 542381.0 0
341999.0 542317.0 0
358000.0 542209.0 0
362000.0 542367.0 0
366000.0 542563.0 0
370000.0 542671.0 0
374000.0 542439.0 0
378000.0 542260.0 0
102000.0 545777.0 0
106000.0 545704.0 0
110000.0 545758.0 0
114000.0 546158.0 0
118000.0 546502.0 0
122000.0 546704.0 0
126000.0 546865.0 0
130000.0 546938.0 0
134000.0 546790.0 0
138000.0 546407.0 0
142000.0 545936.0 0
146000.0 545989.0 0
150000.0 545988.0 0
154000.0 546170.0 0
158000.0 546338.0 0
162000.0 546480.0 0
166000.0 546574.0 0
170000.0 546632.0 0
174000.0 546657.0 0
178000.0 546666.0 0
182000.0 546647.0 0
186000.0 546621.0 0
190000.0 546569.0 0
194000.0 546531.0 0
198000.0 546473.0 0
202000.0 546461.0 0
206001.0 546463.0 0
210001.0 546476.0 0
214001.0 546491.0 0
218000.0 546539.0 0
222000.0 546511.0 0
226000.0 546512.0 0
230002.0 546447.0 0
234000.0 546002.0 0
238000.0 545983.0 0
242000.0 546057.0 0
246000.0 546078.0 0
250000.0 546138.0 0
254000.0 546137.0 0
258000.0 546158.0 0
262000.0 546178.0 0
266000.0 546200.0 0
270000.0 546223.0 0
274000.0 546250.0 0
278000.0 546278.0 0
282000.0 546310.0 0
286000.0 546343.0 0
290000.0 546379.0 0
294000.0 546418.0 0
298000.0 546461.0 0
302000.0 546507.0 0
306000.0 546557.0 0
310000.0 546600.0 0
314000.0 546627.0 0
318000.0 546628.0 0
322000.0 546612.0 0
326000.0 546535.0 0
330000.0 546488.0 0
334000.0 546430.0 0
338000.0 546377.0 0
342000.0 546312.0 0
346000.0 546246.0 0
350000.0 546177.0 0
354000.0 546112.0 0
358000.0 546209.0 0
362000.0 546367.0 0
366000.0 546561.0 0
370000.0 546669.0 0
374000.0 546439.0 0
378000.0 546259.0 0
382000.0 546038.0 0
386000.0 545837.0 0
390000.0 545667.0 0
394000.0 545662.0 0
398000.0 545685.0 0
POINT_DATA 4650
SCALARS Radius float 1
LOOKUP_TABLE default
4000.0 4000.0 4000.0 4000.0 4000.0 4000.0 4000.0 4000.0 4000.0 4000.0 4000.0 4000.0 4000.0 4000.0 4000.0 4000.0 4000.0 4000.0 4000.0 4000.0 4000.0 4000.0 4000.0 4000.0 4000.0 4000.0 4000.0 4000.0 4000.0 4000.0 4000.0 4000.0 4000.0 4000.0 4000.0 4000.0 4000.0 4000.0 4000.0 4000.0 4000.0 4000.0 4000.0 4000.0 4000.0 4000.0 4000.0 4000.0 4000.0 4000.0 4000.0 4000.0 4000.0 4000.0 4000.0 4000.0 4000.0 4000.0 4000.0 4000.0 4000.0 4000.0 4000.0 4000.0 4000.0 4000.0 4000.0 4000.0 4000.0 4000.0 4000.0 4000.0 4000.0 4000.0 4000.0 4000.0 4000.0 4000.0 4000.0 4000.0 4000.0 4000.0 4000.0 4000.0 4000.0 4000.0 4000.0 4000.0 4000.0 4000.0 4000.0 4000.0 4000.0 4000.0 4000.0 4000.0 4000.0 4000.0 4000.0 4000.0 4000.0 4000.0 4000.0 4000.0 4000.0 4000.0 4000.0 4000.0 4000.0 4000.0 4000.0 4000.0 4000.0 4000.0 4000.0 4000.0 4000.0 4000.0 4000.0 4000.0 4000.0 4000.0 4000.0 4000.0 4000.0 4000.0 4000.0 4000.0 4000.0 4000.0 4000.0 4000.0 4000.0 4000.0 4000.0 4000.0 4000.0 4000.0 4000.0 4000.0 4000.0 4000.0 4000.0 4000.0 4000.0 4000.0 4000.0 4000.0 4000.0 4000.0 4000.0 4000.0 4000.0 4000.0 4000.0 4000.0 4000.0 4000.0 4000.0 4000.0 4000.0 4000.0 4000.0 4000.0 4000.0 4000.0 4000.0 4000.0 4000.0 4000.0 4000.0 4000.0 4000.0 4000.0 4000.0 4000.0 4000.0 4000.0 4000.0 4000.0 4000.0 4000.0 4000.0 4000.0 4000.0 4000.0 4000.0 4000.0 4000.0 4000.0 4000.0 4000.0 4000.0 4000.0 4000.0 4000.0 4000.0 4000.0 4000.0 4000.0 4000.0 4000.0 4000.0 4000.0 4000.0 4000.0 4000.0 4000.0 4000.0 4000.0 4000.0 4000.0 4000.0 4000.0 4000.0 4000.0 4000.0 4000.0 4000.0 4000.0 4000.0 4000.0 4000.0 4000.0 4000.0 4000.0 4000.0 4000.0 4000.0 4000.0 4000.0 4000.0 4000.0 4000.0 4000.0 4000.0 4000.0 4000.0 4000.0 4000.0 4000.0 4000.0 4000.0 4000.0 4000.0 4000.0 4000.0 4000.0 4000.0 4000.0 4000.0 4000.0 4000.0 4000.0 4000.0 4000.0 4000.0 4000.0 4000.0 4000.0 4000.0 4000.0 4000.0 4000.0 4000.0 4000.0 4000.0 4000.0 4000.0 4000.0 4000.0 4000.0 4000.0 4000.0 4000.0 4000.0 4000.0 4000.0 4000.0 4000.0 4000.0 4000.0 4000.0 4000.0 4000.0 4000.0 4000.0 4000.0 4000.0 4000.0 4000.0 4000.0 4000.0 4000.0 4000.0 4000.0 4000.0 4000.0 4000.0 4000.0 4000.0 4000.0 4000.0 4000.0 4000.0 4000.0 4000.0 4000.0 4000.0 4000.0 4000.0 4000.0 4000.0 4000.0 4000.0 4000.0 4000.0 4000.0 4000.0 4000.0 4000.0 4000.0 4000.0 4000.0 4000.0 4000.0 4000.0 4000.0 4000.0 4000.0 4000.0 4000.0 4000.0 4000.0 4000.0 4000.0 4000.0 4000.0 4000.0 4000.0 4000.0 4000.0 4000.0 4000.0 4000.0 4000.0 4000.0 4000.0 4000.0 4000.0 4000.0 4000.0 4000.0 4000.0 4000.0 4000.0 4000.0 4000.0 4000.0 4000.0 4000.0 4000.0 4000.0 4000.0 4000.0 4000.0 4000.0 4000.0 4000.0 4000.0 4000.0 4000.0 4000.0 4000.0 4000.0 4000.0 4000.0 4000.0 4000.0 4000.0 4000.0 4000.0 4000.0 4000.0 4000.0 4000.0 4000.0 4000.0 4000.0 4000.0 4000.0 4000.0 4000.0 4000.0 4000.0 4000.0 4000.0 4000.0 4000.0 4000.0 4000.0 4000.0 4000.0 4000.0 4000.0 4000.0 4000.0 4000.0 4000.0 4000.0 4000.0 4000.0 4000.0 4000.0 4000.0 4000.0 4000.0 4000.0 4000.0 4000.0 4000.0 4000.0 4000.0 4000.0 4000.0 4000.0 4000.0 4000.0 4000.0 4000.0 4000.0 4000.0 4000.0 4000.0 4000.0 4000.0 4000.0 4000.0 4000.0 4000.0 4000.0 4000.0 4000.0 4000.0 4000.0 4000.0 4000.0 4000.0 4000.0 4000.0 4000.0 4000.0 4000.0 4000.0 4000.0 4000.0 4000.0 4000.0 4000.0 4000.0 4000.0 4000.0 4000.0 4000.0 4000.0 4000.0 4000.0 4000.0 4000.0 4000.0 4000.0 4000.0 4000.0 4000.0 4000.0 4000.0 4000.0 4000.0 4000.0 4000.0 4000.0 4000.0 4000.0 4000.0 4000.0 4000.0 4000.0 4000.0 4000.0 4000.0 4000.0 4000.0 4000.0 4000.0 4000.0 4000.0 4000.0 4000.0 4000.0 4000.0 4000.0 4000.0 4000.0 4000.0 4000.0 4000.0 4000.0 4000.0 4000.0 4000.0 4000.0 4000.0 4000.0 4000.0 4000.0 4000.0 4000.0 4000.0 4000.0 4000.0 4000.0 4000.0 4000.0 4000.0 4000.0 4000.0 4000.0 4000.0 4000.0 4000.0 4000.0 4000.0 4000.0 4000.0 4000.0 4000.0 4000.0 4000.0 4000.0 4000.0 4000.0 4000.0 4000.0 4000.0 4000.0 4000.0 4000.0 4000.0 4000.0 4000.0 4000.0 4000.0 4000.0 4000.0 4000.0 4000.0 4000.0 4000.0 4000.0 4000.0 4000.0 4000.0 4000.0 4000.0 4000.0 4000.0 4000.0 4000.0 4000.0 4000.0 4000.0 4000.0 4000.0 4000.0 4000.0 4000.0 4000.0 4000.0 4000.0 4000.0 4000.0 4000.0 4000.0 4000.0 4000.0 4000.0 4000.0 4000.0 4000.0 4000.0 4000.0 4000.0 4000.0 4000.0 4000.0 4000.0 4000.0 4000.0 4000.0 4000.0 4000.0 4000.0 4000.0 4000.0 4000.0 4000.0 4000.0 4000.0 4000.0 4000.0 4000.0 4000.0 4000.0 4000.0 4000.0 4000.0 4000.0 4000.0 4000.0 4000.0 4000.0 4000.0 4000.0 4000.0 4000.0 4000.0 4000.0 4000.0 4000.0 4000.0 4000.0 4000.0 4000.0 4000.0 4000.0 4000.0 4000.0 4000.0 4000.0 4000.0 4000.0 4000.0 4000.0 4000.0 4000.0 4000.0 4000.0 4000.0 4000.0 4000.0 4000.0 4000.0 4000.0 4000.0 4000.0 4000.0 4000.0 4000.0 4000.0 4000.0 4000.0 4000.0 4000.0 4000.0 4000.0 4000.0 4000.0 4000.0 4000.0 4000.0 4000.0 4000.0 4000.0 4000.0 4000.0 4000.0 4000.0 4000.0 4000.0 4000.0 4000.0 4000.0 4000.0 4000.0 4000.0 4000.0 4000.0 4000.0 4000.0 4000.0 4000.0 4000.0 4000.0 4000.0 4000.0 4000.0 4000.0 4000.0 4000.0 4000.0 4000.0 4000.0 4000.0 4000.0 4000.0 4000.0 4000.0 4000.0 4000.0 4000.0 4000.0 4000.0 4000.0 4000.0 4000.0 4000.0 4000.0 4000.0 4000.0 4000.0 4000.0 4000.0 4000.0 4000.0 4000.0 4000.0 4000.0 4000.0 4000.0 4000.0 4000.0 4000.0 4000.0 4000.0 4000.0 4000.0 4000.0 4000.0 4000.0 4000.0 4000.0 4000.0 4000.0 4000.0 4000.0 4000.0 4000.0 4000.0 4000.0 4000.0 4000.0 4000.0 4000.0 4000.0 4000.0 4000.0 4000.0 4000.0 4000.0 4000.0 4000.0 4000.0 4000.0 4000.0 4000.0 4000.0 4000.0 4000.0 4000.0 4000.0 4000.0 4000.0 4000.0 4000.0 4000.0 4000.0 4000.0 4000.0 4000.0 4000.0 4000.0 4000.0 4000.0 4000.0 4000.0 4000.0 4000.0 4000.0 4000.0 4000.0 4000.0 4000.0 4000.0 4000.0 4000.0 4000.0 4000.0 4000.0 4000.0 4000.0 4000.0 4000.0 4000.0 4000.0 4000.0 4000.0 4000.0 4000.0 4000.0 4000.0 4000.0 4000.0 4000.0 4000.0 4000.0 4000.0 4000.0 4000.0 4000.0 4000.0 4000.0 4000.0 4000.0 4000.0 4000.0 4000.0 4000.0 4000.0 4000.0 4000.0 4000.0 4000.0 4000.0 4000.0 4000.0 4000.0 4000.0 4000.0 4000.0 4000.0 4000.0 4000.0 4000.0 4000.0 4000.0 4000.0 4000.0 4000.0 4000.0 4000.0 4000.0 4000.0 4000.0 4000.0 4000.0 4000.0 4000.0 4000.0 4000.0 4000.0 4000.0 4000.0 4000.0 4000.0 4000.0 4000.0 4000.0 4000.0 4000.0 4000.0 4000.0 4000.0 4000.0 4000.0 4000.0 4000.0 4000.0 4000.0 4000.0 4000.0 4000.0 4000.0 4000.0 4000.0 4000.0 4000.0 4000.0 4000.0 4000.0 4000.0 4000.0 4000.0 4000.0 4000.0 4000.0 4000.0 4000.0 4000.0 4000.0 4000.0 4000.0 4000.0 4000.0 4000.0 4000.0 4000.0 4000.0 4000.0 4000.0 4000.0 4000.0 4000.0 4000.0 4000.0 4000.0 4000.0 4000.0 4000.0 4000.0 4000.0 4000.0 4000.0 4000.0 4000.0 4000.0 4000.0 4000.0 4000.0 4000.0 4000.0 4000.0 4000.0 4000.0 4000.0 4000.0 4000.0 4000.0 4000.0 4000.0 4000.0 4000.0 4000.0 4000.0 4000.0 4000.0 4000.0 4000.0 4000.0 4000.0 4000.0 4000.0 4000.0 4000.0 4000.0 4000.0 4000.0 4000.0 4000.0 4000.0 4000.0 4000.0 4000.0 4000.0 4000.0 4000.0 4000.0 4000.0 4000.0 4000.0 4000.0 4000.0 4000.0 4000.0 4000.0 4000.0 4000.0 4000.0 4000.0 4000.0 4000.0 4000.0 4000.0 4000.0 4000.0 4000.0 4000.0 4000.0 4000.0 4000.0 4000.0 4000.0 4000.0 4000.0 4000.0 4000.0 4000.0 4000.0 4000.0 4000.0 4000.0 4000.0 4000.0 4000.0 4000.0 4000.0 4000.0 4000.0 4000.0 4000.0 4000.0 4000.0 4000.0 4000.0 4000.0 4000.0 4000.0 4000.0 4000.0 4000.0 4000.0 4000.0 4000.0 4000.0 4000.0 4000.0 4000.0 4000.0 4000.0 4000.0 4000.0 4000.0 4000.0 4000.0 4000.0 4000.0 4000.0 4000.0 4000.0 4000.0 4000.0 4000.0 4000.0 4000.0 4000.0 4000.0 4000.0 4000.0 4000.0 4000.0 4000.0 4000.0 4000.0 4000.0 4000.0 4000.0 4000.0 4000.0 4000.0 4000.0 4000.0 4000.0 4000.0 4000.0 4000.0 4000.0 4000.0 4000.0 4000.0 4000.0 4000.0 4000.0 4000.0 4000.0 4000.0 4000.0 4000.0 4000.0 4000.0 4000.0 4000.0 4000.0 4000.0 4000.0 4000.0 4000.0 4000.0 4000.0 4000.0 4000.0 4000.0 4000.0 4000.0 4000.0 4000.0 4000.0 4000.0 4000.0 4000.0 4000.0 4000.0 4000.0 4000.0 4000.0 4000.0 4000.0 4000.0 4000.0 4000.0 4000.0 4000.0 4000.0 4000.0 4000.0 4000.0 4000.0 4000.0 4000.0 4000.0 4000.0 4000.0 4000.0 4000.0 4000.0 4000.0 4000.0 4000.0 4000.0 4000.0 4000.0 4000.0 4000.0 4000.0 4000.0 4000.0 4000.0 4000.0 4000.0 4000.0 4000.0 4000.0 4000.0 4000.0 4000.0 4000.0 4000.0 4000.0 4000.0 4000.0 4000.0 4000.0 4000.0 4000.0 4000.0 4000.0 4000.0 4000.0 4000.0 4000.0 4000.0 4000.0 4000.0 4000.0 4000.0 4000.0 4000.0 4000.0 4000.0 4000.0 4000.0 4000.0 4000.0 4000.0 4000.0 4000.0 4000.0 4000.0 4000.0 4000.0 4000.0 4000.0 4000.0 4000.0 4000.0 4000.0 4000.0 4000.0 4000.0 4000.0 4000.0 4000.0 4000.0 4000.0 4000.0 4000.0 4000.0 4000.0 4000.0 4000.0 4000.0 4000.0 4000.0 4000.0 4000.0 4000.0 4000.0 4000.0 4000.0 4000.0 4000.0 4000.0 4000.0 4000.0 4000.0 4000.0 4000.0 4000.0 4000.0 4000.0 4000.0 4000.0 4000.0 4000.0 4000.0 4000.0 4000.0 4000.0 4000.0 4000.0 4000.0 4000.0 4000.0 4000.0 4000.0 4000.0 4000.0 4000.0 4000.0 4000.0 4000.0 4000.0 4000.0 4000.0 4000.0 4000.0 4000.0 4000.0 4000.0 4000.0 4000.0 4000.0 4000.0 4000.0 4000.0 4000.0 4000.0 4000.0 4000.0 4000.0 4000.0 4000.0 4000.0 4000.0 4000.0 4000.0 4000.0 4000.0 4000.0 4000.0 4000.0 4000.0 4000.0 4000.0 4000.0 4000.0 4000.0 4000.0 4000.0 4000.0 4000.0 4000.0 4000.0 4000.0 4000.0 4000.0 4000.0 4000.0 4000.0 4000.0 4000.0 4000.0 4000.0 4000.0 4000.0 4000.0 4000.0 4000.0 4000.0 4000.0 4000.0 4000.0 4000.0 4000.0 4000.0 4000.0 4000.0 4000.0 4000.0 4000.0 4000.0 4000.0 4000.0 4000.0 4000.0 4000.0 4000.0 4000.0 4000.0 4000.0 4000.0 4000.0 4000.0 4000.0 4000.0 4000.0 4000.0 4000.0 4000.0 4000.0 4000.0 4000.0 4000.0 4000.0 4000.0 4000.0 4000.0 4000.0 4000.0 4000.0 4000.0 4000.0 4000.0 4000.0 4000.0 4000.0 4000.0 4000.0 4000.0 4000.0 4000.0 4000.0 4000.0 4000.0 4000.0 4000.0 4000.0 4000.0 4000.0 4000.0 4000.0 4000.0 4000.0 4000.0 4000.0 4000.0 4000.0 4000.0 4000.0 4000.0 4000.0 4000.0 4000.0 4000.0 4000.0 4000.0 4000.0 4000.0 4000.0 4000.0 4000.0 4000.0 4000.0 4000.0 4000.0 4000.0 4000.0 4000.0 4000.0 4000.0 4000.0 4000.0 4000.0 4000.0 4000.0 4000.0 4000.0 4000.0 4000.0 4000.0 4000.0 4000.0 4000.0 4000.0 4000.0 4000.0 4000.0 4000.0 4000.0 4000.0 4000.0 4000.0 4000.0 4000.0 4000.0 4000.0 4000.0 4000.0 4000.0 4000.0 4000.0 4000.0 4000.0 4000.0 4000.0 4000.0 4000.0 4000.0 4000.0 4000.0 4000.0 4000.0 4000.0 4000.0 4000.0 4000.0 4000.0 4000.0 4000.0 4000.0 4000.0 4000.0 4000.0 4000.0 4000.0 4000.0 4000.0 4000.0 4000.0 4000.0 4000.0 4000.0 4000.0 4000.0 4000.0 4000.0 4000.0 4000.0 4000.0 4000.0 4000.0 4000.0 4000.0 4000.0 4000.0 4000.0 4000.0 4000.0 4000.0 4000.0 4000.0 4000.0 4000.0 4000.0 4000.0 4000.0 4000.0 4000.0 4000.0 4000.0 4000.0 4000.0 4000.0 4000.0 4000.0 4000.0 4000.0 4000.0 4000.0 4000.0 4000.0 4000.0 4000.0 4000.0 4000.0 4000.0 4000.0 4000.0 4000.0 4000.0 4000.0 4000.0 4000.0 4000.0 4000.0 4000.0 4000.0 4000.0 4000.0 4000.0 4000.0 4000.0 4000.0 4000.0 4000.0 4000.0 4000.0 4000.0 4000.0 4000.0 4000.0 4000.0 4000.0 4000.0 4000.0 4000.0 4000.0 4000.0 4000.0 4000.0 4000.0 4000.0 4000.0 4000.0 4000.0 4000.0 4000.0 4000.0 4000.0 4000.0 4000.0 4000.0 4000.0 4000.0 4000.0 4000.0 4000.0 4000.0 4000.0 4000.0 4000.0 4000.0 4000.0 4000.0 4000.0 4000.0 4000.0 4000.0 4000.0 4000.0 4000.0 4000.0 4000.0 4000.0 4000.0 4000.0 4000.0 4000.0 4000.0 4000.0 4000.0 4000.0 4000.0 4000.0 4000.0 4000.0 4000.0 4000.0 4000.0 4000.0 4000.0 4000.0 4000.0 4000.0 4000.0 4000.0 4000.0 4000.0 4000.0 4000.0 4000.0 4000.0 4000.0 4000.0 4000.0 4000.0 4000.0 4000.0 4000.0 4000.0 4000.0 4000.0 4000.0 4000.0 4000.0 4000.0 4000.0 4000.0 4000.0 4000.0 4000.0 4000.0 4000.0 4000.0 4000.0 4000.0 4000.0 4000.0 4000.0 4000.0 4000.0 4000.0 4000.0 4000.0 4000.0 4000.0 4000.0 4000.0 4000.0 4000.0 4000.0 4000.0 4000.0 4000.0 4000.0 4000.0 4000.0 4000.0 4000.0 4000.0 4000.0 4000.0 4000.0 4000.0 4000.0 4000.0 4000.0 4000.0 4000.0 4000.0 4000.0 4000.0 4000.0 4000.0 4000.0 4000.0 4000.0 4000.0 4000.0 4000.0 4000.0 4000.0 4000.0 4000.0 4000.0 4000.0 4000.0 4000.0 4000.0 4000.0 4000.0 4000.0 4000.0 4000.0 4000.0 4000.0 4000.0 4000.0 4000.0 4000.0 4000.0 4000.0 4000.0 4000.0 4000.0 4000.0 4000.0 4000.0 4000.0 4000.0 4000.0 4000.0 4000.0 4000.0 4000.0 4000.0 4000.0 4000.0 4000.0 4000.0 4000.0 4000.0 4000.0 4000.0 4000.0 4000.0 4000.0 4000.0 4000.0 4000.0 4000.0 4000.0 4000.0 4000.0 4000.0 4000.0 4000.0 4000.0 4000.0 4000.0 4000.0 4000.0 4000.0 4000.0 4000.0 4000.0 4000.0 4000.0 4000.0 4000.0 4000.0 4000.0 4000.0 4000.0 4000.0 4000.0 4000.0 4000.0 4000.0 4000.0 4000.0 4000.0 4000.0 4000.0 4000.0 4000.0 4000.0 4000.0 4000.0 4000.0 4000.0 4000.0 4000.0 4000.0 4000.0 4000.0 4000.0 4000.0 4000.0 4000.0 4000.0 4000.0 4000.0 4000.0 4000.0 4000.0 4000.0 4000.0 4000.0 4000.0 4000.0 4000.0 4000.0 4000.0 4000.0 4000.0 4000.0 4000.0 4000.0 4000.0 4000.0 4000.0 4000.0 4000.0 4000.0 4000.0 4000.0 4000.0 4000.0 4000.0 4000.0 4000.0 4000.0 4000.0 4000.0 4000.0 4000.0 4000.0 4000.0 4000.0 4000.0 4000.0 4000.0 4000.0 4000.0 4000.0 4000.0 4000.0 4000.0 4000.0 4000.0 4000.0 4000.0 4000.0 4000.0 4000.0 4000.0 4000.0 4000.0 4000.0 4000.0 4000.0 4000.0 4000.0 4000.0 4000.0 4000.0 4000.0 4000.0 4000.0 4000.0 4000.0 4000.0 4000.0 4000.0 4000.0 4000.0 4000.0 4000.0 4000.0 4000.0 4000.0 4000.0 4000.0 4000.0 4000.0 4000.0 4000.0 4000.0 4000.0 4000.0 4000.0 4000.0 4000.0 4000.0 4000.0 4000.0 4000.0 4000.0 4000.0 4000.0 4000.0 4000.0 4000.0 4000.0 4000.0 4000.0 4000.0 4000.0 4000.0 4000.0 4000.0 4000.0 4000.0 4000.0 4000.0 4000.0 4000.0 4000.0 4000.0 4000.0 4000.0 4000.0 4000.0 4000.0 4000.0 4000.0 4000.0 4000.0 4000.0 4000.0 4000.0 4000.0 4000.0 4000.0 4000.0 4000.0 4000.0 4000.0 4000.0 4000.0 4000.0 4000.0 4000.0 4000.0 4000.0 4000.0 4000.0 4000.0 4000.0 4000.0 4000.0 4000.0 4000.0 4000.0 4000.0 4000.0 4000.0 4000.0 4000.0 4000.0 4000.0 4000.0 4000.0 4000.0 4000.0 4000.0 4000.0 4000.0 4000.0 4000.0 4000.0 4000.0 4000.0 4000.0 4000.0 4000.0 4000.0 4000.0 4000.0 4000.0 4000.0 4000.0 4000.0 4000.0 4000.0 4000.0 4000.0 4000.0 4000.0 4000.0 4000.0 4000.0 4000.0 4000.0 4000.0 4000.0 4000.0 4000.0 4000.0 4000.0 4000.0 4000.0 4000.0 4000.0 4000.0 4000.0 4000.0 4000.0 4000.0 4000.0 4000.0 4000.0 4000.0 4000.0 4000.0 4000.0 4000.0 4000.0 4000.0 4000.0 4000.0 4000.0 4000.0 4000.0 4000.0 4000.0 4000.0 4000.0 4000.0 4000.0 4000.0 4000.0 4000.0 4000.0 4000.0 4000.0 4000.0 4000.0 4000.0 4000.0 4000.0 4000.0 4000.0 4000.0 4000.0 4000.0 4000.0 4000.0 4000.0 4000.0 4000.0 4000.0 4000.0 4000.0 4000.0 4000.0 4000.0 4000.0 4000.0 4000.0 4000.0 4000.0 4000.0 4000.0 4000.0 4000.0 4000.0 4000.0 4000.0 4000.0 4000.0 4000.0 4000.0 4000.0 4000.0 4000.0 4000.0 4000.0 4000.0 4000.0 4000.0 4000.0 4000.0 4000.0 4000.0 4000.0 4000.0 4000.0 4000.0 4000.0 4000.0 4000.0 4000.0 4000.0 4000.0 4000.0 4000.0 4000.0 4000.0 4000.0 4000.0 4000.0 4000.0 4000.0 4000.0 4000.0 4000.0 4000.0 4000.0 4000.0 4000.0 4000.0 4000.0 4000.0 4000.0 4000.0 4000.0 4000.0 4000.0 4000.0 4000.0 4000.0 4000.0 4000.0 4000.0 4000.0 4000.0 4000.0 4000.0 4000.0 4000.0 4000.0 4000.0 4000.0 4000.0 4000.0 4000.0 4000.0 4000.0 4000.0 4000.0 4000.0 4000.0 4000.0 4000.0 4000.0 4000.0 4000.0 4000.0 4000.0 4000.0 4000.0 4000.0 4000.0 4000.0 4000.0 4000.0 4000.0 4000.0 4000.0 4000.0 4000.0 4000.0 4000.0 4000.0 4000.0 4000.0 4000.0 4000.0 4000.0 4000.0 4000.0 4000.0 4000.0 4000.0 4000.0 4000.0 4000.0 4000.0 4000.0 4000.0 4000.0 4000.0 4000.0 4000.0 4000.0 4000.0 4000.0 4000.0 4000.0 4000.0 4000.0 4000.0 4000.0 4000.0 4000.0 4000.0 4000.0 4000.0 4000.0 4000.0 4000.0 4000.0 4000.0 4000.0 4000.0 4000.0 4000.0 4000.0 4000.0 4000.0 4000.0 4000.0 4000.0 4000.0 4000.0 4000.0 4000.0 4000.0 4000.0 4000.0 4000.0 4000.0 4000.0 4000.0 4000.0 4000.0 4000.0 4000.0 4000.0 4000.0 4000.0 4000.0 4000.0 4000.0 4000.0 4000.0 4000.0 4000.0 4000.0 4000.0 4000.0 4000.0 4000.0 4000.0 4000.0 4000.0 4000.0 4000.0 4000.0 4000.0 4000.0 4000.0 4000.0 4000.0 4000.0 4000.0 4000.0 4000.0 4000.0 4000.0 4000.0 4000.0 4000.0 4000.0 4000.0 4000.0 4000.0 4000.0 4000.0 4000.0 4000.0 4000.0 4000.0 4000.0 4000.0 4000.0 4000.0 4000.0 4000.0 4000.0 4000.0 4000.0 4000.0 4000.0 4000.0 4000.0 4000.0 4000.0 4000.0 4000.0 4000.0 4000.0 4000.0 4000.0 4000.0 4000.0 4000.0 4000.0 4000.0 4000.0 4000.0 4000.0 4000.0 4000.0 4000.0 4000.0 4000.0 4000.0 4000.0 4000.0 4000.0 4000.0 4000.0 4000.0 4000.0 4000.0 4000.0 4000.0 4000.0 4000.0 4000.0 4000.0 4000.0 4000.0 4000.0 4000.0 4000.0 4000.0 4000.0 4000.0 4000.0 4000.0 4000.0 4000.0 4000.0 4000.0 4000.0 4000.0 4000.0 4000.0 4000.0 4000.0 4000.0 4000.0 4000.0 4000.0 4000.0 4000.0 4000.0 4000.0 4000.0 4000.0 4000.0 4000.0 4000.0 4000.0 4000.0 4000.0 4000.0 4000.0 4000.0 4000.0 4000.0 4000.0 4000.0 4000.0 4000.0 4000.0 4000.0 4000.0 4000.0 4000.0 4000.0 4000.0 4000.0 4000.0 4000.0 4000.0 4000.0 4000.0 4000.0 4000.0 4000.0 4000.0 4000.0 4000.0 4000.0 4000.0 4000.0 4000.0 4000.0 4000.0 4000.0 4000.0 4000.0 4000.0 4000.0 4000.0 4000.0 4000.0 4000.0 4000.0 4000.0 4000.0 4000.0 4000.0 4000.0 4000.0 4000.0 4000.0 4000.0 4000.0 4000.0 4000.0 4000.0 4000.0 4000.0 4000.0 4000.0 4000.0 4000.0 4000.0 4000.0 4000.0 4000.0 4000.0 4000.0 4000.0 4000.0 4000.0 4000.0 4000.0 4000.0 4000.0 4000.0 4000.0 4000.0 4000.0 4000.0 4000.0 4000.0 4000.0 4000.0 4000.0 4000.0 4000.0 4000.0 4000.0 4000.0 4000.0 4000.0 4000.0 4000.0 4000.0 4000.0 4000.0 4000.0 4000.0 4000.0 4000.0 4000.0 4000.0 4000.0 4000.0 4000.0 4000.0 4000.0 4000.0 4000.0 4000.0 4000.0 4000.0 4000.0 4000.0 4000.0 4000.0 4000.0 4000.0 4000.0 4000.0 4000.0 4000.0 4000.0 4000.0 4000.0 4000.0 4000.0 4000.0 4000.0 4000.0 4000.0 4000.0 4000.0 4000.0 4000.0 4000.0 4000.0 4000.0 4000.0 4000.0 4000.0 4000.0 4000.0 4000.0 4000.0 4000.0 4000.0 4000.0 4000.0 4000.0 4000.0 4000.0 4000.0 4000.0 4000.0 4000.0 4000.0 4000.0 4000.0 4000.0 4000.0 4000.0 4000.0 4000.0 4000.0 4000.0 4000.0 4000.0 4000.0 4000.0 4000.0 4000.0 4000.0 4000.0 4000.0 4000.0 4000.0 4000.0 4000.0 4000.0 4000.0 4000.0 4000.0 4000.0 4000.0 4000.0 4000.0 4000.0 4000.0 4000.0 4000.0 4000.0 4000.0 4000.0 4000.0 4000.0 4000.0 4000.0 4000.0 4000.0 4000.0 4000.0 4000.0 4000.0 4000.0 4000.0 4000.0 4000.0 4000.0 4000.0 4000.0 4000.0 4000.0 4000.0 4000.0 4000.0 4000.0 4000.0 4000.0 4000.0 4000.0 4000.0 4000.0 4000.0 4000.0 4000.0 4000.0 4000.0 4000.0 4000.0 4000.0 4000.0 4000.0 4000.0 4000.0 4000.0 4000.0 4000.0 4000.0 4000.0 4000.0 4000.0 4000.0 4000.0 4000.0 4000.0 4000.0 4000.0 4000.0 4000.0 4000.0 4000.0 4000.0 4000.0 4000.0 4000.0 4000.0 4000.0 4000.0 4000.0 4000.0 4000.0 4000.0 4000.0 4000.0 4000.0 4000.0 4000.0 4000.0 4000.0 4000.0 4000.0 4000.0 4000.0 4000.0 4000.0 4000.0 4000.0 4000.0 4000.0 4000.0 4000.0 4000.0 4000.0 4000.0 4000.0 4000.0 4000.0 4000.0 4000.0 4000.0 4000.0 4000.0 4000.0 4000.0 4000.0 4000.0 4000.0 4000.0 4000.0 4000.0 4000.0 4000.0 4000.0 4000.0 4000.0 4000.0 4000.0 4000.0 4000.0 4000.0 4000.0 4000.0 4000.0 4000.0 4000.0 4000.0 4000.0 4000.0 4000.0 4000.0 4000.0 4000.0 4000.0 4000.0 4000.0 4000.0 4000.0 4000.0 4000.0 4000.0 4000.0 4000.0 4000.0 4000.0 4000.0 4000.0 4000.0 4000.0 4000.0 4000.0 4000.0 4000.0 4000.0 4000.0 4000.0 4000.0 4000.0 4000.0 4000.0 4000.0 4000.0 4000.0 4000.0 4000.0 4000.0 4000.0 4000.0 4000.0 4000.0 4000.0 4000.0 4000.0 4000.0 4000.0 4000.0 4000.0 4000.0 4000.0 4000.0 4000.0 4000.0 4000.0 4000.0 4000.0 4000.0 4000.0 4000.0 4000.0 4000.0 4000.0 4000.0 4000.0 4000.0 4000.0 4000.0 4000.0 4000.0 4000.0 4000.0 4000.0 4000.0 4000.0 4000.0 4000.0 4000.0 4000.0 4000.0 4000.0 4000.0 4000.0 4000.0 4000.0 4000.0 4000.0 4000.0 4000.0 4000.0 4000.0 4000.0 4000.0 4000.0 4000.0 4000.0 4000.0 4000.0 4000.0 4000.0 4000.0 4000.0 4000.0 4000.0 4000.0 4000.0 4000.0 4000.0 4000.0 4000.0 4000.0 4000.0 4000.0 4000.0 4000.0 4000.0 4000.0 4000.0 4000.0 4000.0 4000.0 4000.0 4000.0 4000.0 4000.0 4000.0 4000.0 4000.0 4000.0 4000.0 4000.0 4000.0 4000.0 4000.0 4000.0 4000.0 4000.0 4000.0 4000.0 4000.0 4000.0 4000.0 4000.0 4000.0 4000.0 4000.0 4000.0 4000.0 4000.0 4000.0 4000.0 4000.0 4000.0 4000.0 4000.0 4000.0 4000.0 4000.0 4000.0 4000.0 4000.0 4000.0 4000.0 4000.0 4000.0 4000.0 4000.0 4000.0 4000.0 4000.0 4000.0 4000.0 4000.0 4000.0 4000.0 4000.0 4000.0 4000.0 4000.0 4000.0 4000.0 4000.0 4000.0 4000.0 4000.0 4000.0 4000.0 4000.0 4000.0 4000.0 4000.0 4000.0 4000.0 4000.0 4000.0 4000.0 4000.0 4000.0 4000.0 4000.0 4000.0 4000.0 4000.0 4000.0 4000.0 4000.0 4000.0 4000.0 4000.0 4000.0 4000.0 4000.0 4000.0 4000.0 4000.0 4000.0 4000.0 4000.0 4000.0 4000.0 4000.0 4000.0 4000.0 4000.0 4000.0 4000.0 4000.0 4000.0 4000.0 4000.0 4000.0 4000.0 4000.0 4000.0 4000.0 4000.0 4000.0 4000.0 4000.0 4000.0 4000.0 4000.0 4000.0 4000.0 4000.0 4000.0 4000.0 4000.0 4000.0 4000.0 4000.0 4000.0 4000.0 4000.0 4000.0 4000.0 4000.0 4000.0 4000.0 4000.0 4000.0 4000.0 4000.0 4000.0 4000.0 4000.0 4000.0 4000.0 4000.0 4000.0 4000.0 4000.0 4000.0 4000.0 4000.0 4000.0 4000.0 4000.0 4000.0 4000.0 4000.0 4000.0 4000.0 4000.0 4000.0 4000.0 4000.0 4000.0 4000.0 4000.0 4000.0 4000.0 4000.0 4000.0 4000.0 4000.0 4000.0 4000.0 4000.0 4000.0 4000.0 4000.0 4000.0 4000.0 4000.0 4000.0 4000.0 4000.0 4000.0 4000.0 4000.0 4000.0 4000.0 4000.0 4000.0 4000.0 4000.0 4000.0 4000.0 4000.0 4000.0 4000.0 4000.0 4000.0 4000.0 4000.0 4000.0 4000.0 4000.0 4000.0 4000.0 4000.0 4000.0 4000.0 4000.0 4000.0 4000.0 4000.0 4000.0 4000.0 4000.0 4000.0 4000.0 4000.0 4000.0 4000.0 4000.0 4000.0 4000.0 4000.0 4000.0 4000.0 4000.0 4000.0 4000.0 4000.0 4000.0 4000.0 4000.0 4000.0 4000.0 4000.0 4000.0 4000.0 4000.0 4000.0 4000.0 4000.0 4000.0 4000.0 4000.0 4000.0 4000.0 4000.0 4000.0 4000.0 4000.0 4000.0 4000.0 4000.0 4000.0 4000.0 4000.0 4000.0 4000.0 4000.0 4000.0 4000.0 4000.0 4000.0 4000.0 4000.0 4000.0 4000.0 4000.0 4000.0 4000.0 4000.0 4000.0 4000.0 4000.0 4000.0 4000.0 4000.0 4000.0 4000.0 4000.0 4000.0 4000.0 4000.0 4000.0 4000.0 4000.0 4000.0 4000.0 4000.0 4000.0 4000.0 4000.0 4000.0 4000.0 4000.0 4000.0 4000.0 4000.0 4000.0 4000.0 4000.0 4000.0 4000.0 4000.0 4000.0 4000.0 4000.0 4000.0 4000.0 4000.0 4000.0 4000.0 4000.0 4000.0 4000.0 4000.0 4000.0 4000.0 4000.0 4000.0 4000.0 4000.0 4000.0 4000.0 4000.0 4000.0 4000.0 4000.0 4000.0 4000.0 4000.0 4000.0 4000.0 4000.0 4000.0 4000.0 4000.0 4000.0 4000.0 4000.0 4000.0 4000.0 4000.0 4000.0 4000.0 4000.0 4000.0 4000.0 4000.0 4000.0 4000.0 4000.0 4000.0 4000.0 4000.0 4000.0 4000.0 4000.0 4000.0 4000.0 4000.0 4000.0 4000.0 4000.0 4000.0 4000.0 4000.0 4000.0 4000.0 4000.0 4000.0 4000.0 4000.0 4000.0 4000.0 4000.0 4000.0 4000.0 4000.0 4000.0 4000.0 4000.0 4000.0 4000.0 4000.0 4000.0 4000.0 4000.0 4000.0 4000.0 4000.0 4000.0 4000.0 4000.0 4000.0 4000.0 4000.0 4000.0 4000.0 4000.0 4000.0 4000.0 4000.0 4000.0 4000.0 4000.0 4000.0 4000.0 4000.0 4000.0 4000.0 4000.0 4000.0 4000.0 4000.0 4000.0 4000.0 4000.0 4000.0 4000.0 4000.0 4000.0 4000.0 4000.0 4000.0 4000.0 4000.0 4000.0 4000.0 4000.0 4000.0 4000.0 4000.0 4000.0 4000.0 4000.0 4000.0 4000.0 4000.0 4000.0 4000.0 4000.0 4000.0 4000.0 4000.0 4000.0 4000.0 4000.0 4000.0 4000.0 4000.0 4000.0 4000.0 4000.0 4000.0 4000.0 4000.0 4000.0 4000.0 4000.0 4000.0 4000.0 4000.0 4000.0 4000.0 4000.0 4000.0 4000.0 4000.0 4000.0 4000.0 4000.0 4000.0 4000.0 4000.0 4000.0 4000.0 4000.0 4000.0 4000.0 4000.0 4000.0 4000.0 4000.0 4000.0 4000.0 4000.0 4000.0 4000.0 4000.0 4000.0 4000.0 4000.0 4000.0 4000.0 4000.0 4000.0 4000.0 4000.0 4000.0 4000.0 4000.0 4000.0 4000.0 4000.0 4000.0 4000.0 4000.0 4000.0 4000.0 4000.0 4000.0 4000.0 4000.0 4000.0 4000.0 4000.0 4000.0 4000.0 4000.0 4000.0 4000.0 4000.0 4000.0 4000.0 4000.0 4000.0 4000.0 4000.0 4000.0 4000.0 4000.0 4000.0 4000.0 4000.0 4000.0 4000.0 4000.0 4000.0 4000.0 4000.0 4000.0 4000.0 4000.0 4000.0 4000.0 4000.0 4000.0 4000.0 4000.0 4000.0 4000.0 4000.0 4000.0 4000.0 4000.0 4000.0 4000.0 4000.0 4000.0 4000.0 4000.0 4000.0 4000.0 4000.0 4000.0 4000.0 4000.0 4000.0 4000.0 4000.0 4000.0 4000.0 4000.0 4000.0 4000.0 4000.0 4000.0 4000.0 4000.0 4000.0 4000.0 4000.0 4000.0 4000.0 4000.0 4000.0 4000.0 4000.0 4000.0 4000.0 4000.0 4000.0 4000.0 4000.0 4000.0 4000.0 4000.0 4000.0 4000.0 4000.0 4000.0 4000.0 4000.0 4000.0 4000.0 4000.0 4000.0 4000.0 4000.0 4000.0 4000.0 4000.0 4000.0 4000.0 4000.0 4000.0 4000.0 4000.0 4000.0 4000.0 4000.0 4000.0 4000.0 4000.0 4000.0 4000.0 4000.0 4000.0 4000.0 4000.0 4000.0 4000.0 4000.0 4000.0 4000.0 4000.0 4000.0 4000.0 4000.0 4000.0 4000.0 4000.0 4000.0 4000.0 4000.0 4000.0 4000.0 4000.0 4000.0 4000.0 4000.0 4000.0 4000.0 4000.0 4000.0 4000.0 4000.0 4000.0 4000.0 4000.0 4000.0 4000.0 4000.0 4000.0 4000.0 4000.0 4000.0 4000.0 4000.0 4000.0 4000.0 4000.0 4000.0 4000.0 4000.0 4000.0 4000.0 4000.0 4000.0 4000.0 4000.0 4000.0 4000.0 4000.0 4000.0 4000.0 4000.0 4000.0 4000.0 4000.0 4000.0 4000.0 4000.0 4000.0 4000.0 4000.0 4000.0 4000.0 4000.0 4000.0 4000.0 4000.0 4000.0 4000.0 4000.0 4000.0 4000.0 4000.0 4000.0 4000.0 4000.0 4000.0 4000.0 4000.0 4000.0 4000.0 4000.0 4000.0 4000.0 4000.0 4000.0 4000.0 4000.0 4000.0 4000.0 4000.0 4000.0 4000.0 4000.0 4000.0 4000.0 4000.0 4000.0 4000.0 4000.0 4000.0 4000.0 4000.0 4000.0 4000.0 4000.0 4000.0 4000.0 4000.0 4000.0 4000.0 4000.0 4000.0 4000.0 4000.0 4000.0 4000.0 4000.0 4000.0 4000.0 4000.0 4000.0 4000.0 4000.0 4000.0 4000.0 4000.0 4000.0 4000.0 4000.0 4000.0 4000.0 4000.0 4000.0 4000.0 4000.0 4000.0 4000.0 4000.0 4000.0 4000.0 4000.0 4000.0 4000.0 4000.0 4000.0 4000.0 4000.0 4000.0 4000.0 4000.0 4000.0 4000.0 4000.0 4000.0 4000.0 4000.0 4000.0 4000.0 4000.0 4000.0 4000.0 4000.0 4000.0 4000.0 4000.0 4000.0 4000.0 4000.0 4000.0 4000.0 4000.0 4000.0 4000.0 4000.0 4000.0 4000.0 4000.0 4000.0 4000.0 4000.0 4000.0 4000.0 4000.0 4000.0 4000.0 4000.0 4000.0 4000.0 4000.0 4000.0 4000.0 4000.0 4000.0 4000.0 4000.0 4000.0 4000.0 4000.0 4000.0 4000.0 4000.0 4000.0 4000.0 4000.0 4000.0 4000.0 4000.0 4000.0 4000.0 4000.0 4000.0 4000.0 4000.0 4000.0 4000.0 4000.0 4000.0 4000.0 4000.0 4000.0 4000.0 4000.0 4000.0 4000.0 4000.0 4000.0 4000.0 4000.0 4000.0 4000.0 4000.0 4000.0 4000.0 4000.0 4000.0 4000.0 4000.0 4000.0 4000.0 4000.0 4000.0 4000.0 4000.0 4000.0 4000.0 4000.0 4000.0 4000.0 4000.0 4000.0 4000.0 4000.0 4000.0 4000.0 4000.0 4000.0 4000.0 4000.0 4000.0 4000.0 4000.0 4000.0 4000.0 4000.0 4000.0 4000.0 4000.0 4000.0 4000.0 4000.0 4000.0 4000.0 4000.0 4000.0 4000.0 4000.0 4000.0 4000.0 4000.0 4000.0 4000.0 4000.0 4000.0 4000.0 4000.0 4000.0 4000.0 4000.0 4000.0 4000.0 4000.0 4000.0 4000.0 4000.0 4000.0 4000.0 4000.0 4000.0 4000.0 4000.0 4000.0 4000.0 4000.0 4000.0 4000.0 4000.0 4000.0 4000.0 4000.0 4000.0 4000.0 4000.0 4000.0 4000.0 4000.0 4000.0 4000.0 4000.0 4000.0 4000.0 4000.0 4000.0 4000.0 4000.0 4000.0 4000.0 4000.0 4000.0 4000.0 4000.0 4000.0 4000.0 4000.0 4000.0 4000.0 4000.0 4000.0 4000.0 4000.0 4000.0 4000.0 4000.0 4000.0 4000.0 4000.0 4000.0 4000.0 4000.0 4000.0 4000.0 4000.0 4000.0 4000.0 4000.0 4000.0 4000.0 4000.0 4000.0 4000.0 4000.0 4000.0 4000.0 4000.0 4000.0 4000.0 4000.0 4000.0 4000.0 4000.0 4000.0 4000.0 4000.0 4000.0 4000.0 4000.0 4000.0 4000.0 4000.0 4000.0 4000.0 4000.0 4000.0 4000.0 4000.0 4000.0 4000.0 4000.0 4000.0 4000.0 4000.0 4000.0 4000.0 4000.0 4000.0 4000.0 4000.0 4000.0 4000.0 4000.0 4000.0 4000.0 4000.0 4000.0 4000.0 4000.0 4000.0 4000.0 4000.0 4000.0 4000.0 4000.0 4000.0 4000.0 4000.0 4000.0 4000.0 4000.0 4000.0 4000.0 4000.0 4000.0 4000.0 4000.0 4000.0 4000.0 4000.0 4000.0 4000.0 4000.0 4000.0 4000.0 4000.0 4000.0 4000.0 4000.0 4000.0 4000.0 4000.0 4000.0 4000.0 4000.0 4000.0 4000.0 4000.0 4000.0 4000.0 4000.0 4000.0 4000.0 4000.0 4000.0 4000.0 4000.0 4000.0 4000.0 4000.0 4000.0 4000.0 4000.0 4000.0 4000.0 4000.0 4000.0 4000.0 4000.0 4000.0 4000.0 4000.0 4000.0 4000.0 4000.0 4000.0 4000.0 4000.0 4000.0 4000.0 4000.0 4000.0 4000.0 4000.0 4000.0 4000.0 4000.0 4000.0 4000.0 4000.0 4000.0 4000.0 4000.0 4000.0 4000.0 4000.0 4000.0 4000.0 4000.0 4000.0 4000.0 4000.0 4000.0 4000.0 4000.0 4000.0 4000.0 4000.0 4000.0 4000.0 4000.0 4000.0 4000.0 4000.0 4000.0 4000.0 4000.0 4000.0 4000.0 4000.0 4000.0 4000.0 4000.0 4000.0 4000.0 4000.0 4000.0 4000.0 4000.0 4000.0 4000.0 4000.0 4000.0 4000.0 4000.0 4000.0 4000.0 4000.0 4000.0 4000.0 4000.0 4000.0 4000.0 4000.0 4000.0 4000.0 4000.0 4000.0 4000.0 4000.0 4000.0 4000.0 4000.0 4000.0 4000.0 4000.0 4000.0 4000.0 4000.0 4000.0 4000.0 4000.0 4000.0 4000.0 4000.0 4000.0 4000.0 4000.0 4000.0 4000.0 4000.0 4000.0 4000.0 4000.0 4000.0 4000.0 4000.0 4000.0 4000.0 4000.0 4000.0 4000.0 4000.0 4000.0 4000.0 4000.0 4000.0 4000.0 4000.0 4000.0 4000.0 4000.0 4000.0 4000.0 4000.0 4000.0 4000.0 4000.0 4000.0 4000.0 4000.0 4000.0 4000.0 4000.0 4000.0 4000.0 4000.0 4000.0 4000.0 4000.0 4000.0 4000.0 4000.0 4000.0 4000.0 4000.0 4000.0 4000.0 4000.0 4000.0 4000.0 4000.0 4000.0 4000.0 4000.0 4000.0 4000.0 4000.0 4000.0 4000.0 4000.0 4000.0 4000.0 4000.0 4000.0 4000.0 4000.0 4000.0 4000.0 4000.0 4000.0 4000.0 4000.0 4000.0 4000.0 4000.0 4000.0 4000.0 4000.0 4000.0 4000.0 4000.0 4000.0 4000.0 4000.0 4000.0 4000.0 4000.0 4000.0 4000.0 4000.0 4000.0 4000.0 4000.0 4000.0 4000.0 4000.0 4000.0 4000.0 4000.0 4000.0 4000.0 4000.0 4000.0 4000.0 4000.0 4000.0 4000.0 4000.0 4000.0 4000.0 4000.0 4000.0 4000.0 4000.0 4000.0 4000.0 4000.0 4000.0 4000.0 4000.0 4000.0 4000.0 4000.0 4000.0 4000.0 4000.0 4000.0 4000.0 4000.0 4000.0 4000.0 4000.0 4000.0 4000.0 4000.0 4000.0 4000.0 4000.0 4000.0 4000.0 4000.0 4000.0 4000.0 4000.0 4000.0 4000.0 4000.0 4000.0 4000.0 4000.0 4000.0 4000.0 4000.0 4000.0 4000.0 4000.0 4000.0 4000.0 4000.0 4000.0 4000.0 4000.0 4000.0 4000.0 4000.0 4000.0 4000.0 4000.0 4000.0 4000.0 4000.0 4000.0 4000.0 4000.0 4000.0 4000.0 4000.0 4000.0 4000.0 4000.0 4000.0 4000.0 4000.0 4000.0 4000.0 4000.0 4000.0 4000.0 4000.0 4000.0 4000.0 4000.0 4000.0 4000.0 4000.0 4000.0 4000.0 4000.0 4000.0 4000.0 4000.0 4000.0 4000.0 4000.0 4000.0 4000.0 4000.0 4000.0 4000.0 4000.0 4000.0 4000.0 4000.0 4000.0 4000.0 4000.0 4000.0 4000.0 4000.0 4000.0 4000.0 4000.0 4000.0 4000.0 4000.0 4000.0 4000.0 4000.0 4000.0 4000.0 4000.0 4000.0 4000.0 4000.0 4000.0 4000.0 4000.0 4000.0 4000.0 4000.0 4000.0 4000.0 4000.0 4000.0 4000.0 4000.0 4000.0 4000.0 4000.0 4000.0 4000.0 4000.0 4000.0 4000.0 4000.0 4000.0 4000.0 4000.0 4000.0 4000.0 4000.0 4000.0 4000.0 4000.0 4000.0 4000.0 4000.0 4000.0 4000.0 4000.0 4000.0 4000.0 4000.0 4000.0 4000.0 4000.0 4000.0 4000.0 4000.0 4000.0 4000.0 4000.0 4000.0 4000.0 4000.0 4000.0 4000.0 4000.0 4000.0 4000.0 4000.0 4000.0 4000.0 4000.0 4000.0 4000.0 4000.0 4000.0 4000.0 4000.0 4000.0 4000.0 4000.0 4000.0 4000.0 4000.0 4000.0 4000.0 4000.0 4000.0 4000.0 4000.0 4000.0 4000.0 4000.0 4000.0 4000.0 4000.0 4000.0 4000.0 4000.0 4000.0 4000.0 4000.0 4000.0 4000.0 4000.0 4000.0 4000.0 4000.0 4000.0 4000.0 4000.0 4000.0 4000.0 4000.0 4000.0 4000.0 4000.0 4000.0 4000.0 4000.0 4000.0 4000.0 4000.0 4000.0 4000.0 4000.0 4000.0 4000.0 4000.0 4000.0 4000.0 4000.0 4000.0 4000.0 4000.0 4000.0 4000.0 4000.0 4000.0 4000.0 4000.0 4000.0 4000.0 4000.0 4000.0 4000.0 4000.0 4000.0 4000.0 4000.0 4000.0 4000.0 4000.0 4000.0 4000.0 4000.0 4000.0 4000.0 4000.0 4000.0 4000.0 4000.0 4000.0 4000.0 4000.0 4000.0 4000.0 4000.0 4000.0 4000.0 4000.0 4000.0 4000.0 4000.0 4000.0 4000.0 4000.0 4000.0 4000.0 4000.0 4000.0 4000.0 4000.0 4000.0 4000.0 4000.0 4000.0 4000.0 4000.0 4000.0 4000.0 4000.0 4000.0 4000.0 4000.0 4000.0 4000.0 4000.0 4000.0 4000.0 4000.0 4000.0 4000.0 4000.0 4000.0 4000.0 4000.0 4000.0 4000.0 4000.0 4000.0 4000.0 4000.0 4000.0 4000.0 4000.0 4000.0 4000.0 4000.0 4000.0 4000.0 4000.0 4000.0 4000.0 4000.0 4000.0 4000.0 4000.0 4000.0 4000.0 4000.0 4000.0 4000.0 4000.0 4000.0 4000.0 4000.0 4000.0 4000.0 4000.0 4000.0 4000.0 4000.0 4000.0 4000.0 4000.0 4000.0 4000.0 4000.0 4000.0 4000.0 4000.0 4000.0 4000.0 4000.0 4000.0 4000.0 4000.0 4000.0 4000.0 4000.0 4000.0 4000.0 4000.0 4000.0 4000.0 4000.0 4000.0 4000.0 4000.0 4000.0 4000.0 4000.0 4000.0 4000.0 4000.0 4000.0 4000.0 4000.0 4000.0 4000.0 4000.0 4000.0 4000.0 4000.0 4000.0 4000.0 4000.0 4000.0 4000.0 4000.0 4000.0 4000.0 4000.0 4000.0 4000.0 4000.0 4000.0 4000.0 4000.0 4000.0 4000.0 4000.0 4000.0 4000.0 4000.0 4000.0 4000.0 4000.0 4000.0 4000.0 4000.0 4000.0 4000.0 4000.0 4000.0 4000.0 4000.0 4000.0 4000.0 4000.0 4000.0 4000.0 4000.0 4000.0 4000.0 4000.0 4000.0 4000.0 4000.0 4000.0 4000.0 4000.0 4000.0 4000.0 4000.0 4000.0 4000.0 4000.0 4000.0 4000.0 4000.0 4000.0 4000.0 4000.0 4000.0 4000.0 4000.0 4000.0 4000.0 4000.0 4000.0 4000.0 4000.0 4000.0 4000.0 4000.0 4000.0 4000.0 4000.0 4000.0 4000.0 4000.0 4000.0 4000.0 4000.0 4000.0 4000.0 4000.0 4000.0 4000.0 4000.0 4000.0 4000.0 4000.0 4000.0 4000.0 4000.0 4000.0 4000.0 4000.0 4000.0 4000.0 4000.0 4000.0 4000.0 4000.0 4000.0 4000.0 4000.0 4000.0 4000.0 4000.0 4000.0 4000.0 4000.0 4000.0 4000.0 4000.0 4000.0 4000.0 4000.0 4000.0 4000.0 4000.0 4000.0 4000.0 4000.0 4000.0 4000.0 4000.0 4000.0 4000.0 4000.0 4000.0 4000.0 4000.0 4000.0 4000.0 4000.0 4000.0 4000.0 4000.0 4000.0 4000.0 4000.0 4000.0 4000.0 4000.0 4000.0 4000.0 4000.0 4000.0 4000.0 4000.0 4000.0 4000.0 4000.0 4000.0 4000.0 4000.0 4000.0 4000.0 4000.0 4000.0 4000.0 4000.0 4000.0 4000.0 4000.0 4000.0 4000.0 4000.0 4000.0 4000.0 4000.0 4000.0 4000.0 4000.0 SCALARS Mass float 1
LOOKUP_TABLE default
11309700000.0 11309700000.0 11309700000.0 11309700000.0 11309700000.0 11309700000.0 11309700000.0 11309700000.0 11309700000.0 11309700000.0 11309700000.0 11309700000.0 11309700000.0 11309700000.0 11309700000.0 11309700000.0 11309700000.0 11309700000.0 11309700000.0 11309700000.0 11309700000.0 11309700000.0 11309700000.0 11309700000.0 11309700000.0 11309700000.0 11309700000.0 11309700000.0 11309700000.0 11309700000.0 11309700000.0 11309700000.0 11309700000.0 11309700000.0 11309700000.0 11309700000.0 11309700000.0 11309700000.0 11309700000.0 11309700000.0 11309700000.0 11309700000.0 11309700000.0 11309700000.0 11309700000.0 11309700000.0 11309700000.0 11309700000.0 11309700000.0 11309700000.0 11309700000.0 11309700000.0 11309700000.0 11309700000.0 11309700000.0 11309700000.0 11309700000.0 11309700000.0 11309700000.0 11309700000.0 11309700000.0 11309700000.0 11309700000.0 11309700000.0 11309700000.0 11309700000.0 11309700000.0 11309700000.0 11309700000.0 11309700000.0 11309700000.0 11309700000.0 11309700000.0 11309700000.0 11309700000.0 11309700000.0 11309700000.0 11309700000.0 11309700000.0 11309700000.0 11309700000.0 11309700000.0 11309700000.0 11309700000.0 11309700000.0 11309700000.0 11309700000.0 11309700000.0 11309700000.0 11309700000.0 11309700000.0 11309700000.0 11309700000.0 11309700000.0 11309700000.0 11309700000.0 11309700000.0 11309700000.0 11309700000.0 11309700000.0 11309700000.0 11309700000.0 11309700000.0 11309700000.0 11309700000.0 11309700000.0 11309700000.0 11309700000.0 11309700000.0 11309700000.0 11309700000.0 11309700000.0 11309700000.0 11309700000.0 11309700000.0 11309700000.0 11309700000.0 11309700000.0 11309700000.0 11309700000.0 11309700000.0 11309700000.0 11309700000.0 11309700000.0 11309700000.0 11309700000.0 11309700000.0 11309700000.0 11309700000.0 11309700000.0 11309700000.0 11309700000.0 11309700000.0 11309700000.0 11309700000.0 11309700000.0 11309700000.0 11309700000.0 11309700000.0 11309700000.0 11309700000.0 11309700000.0 11309700000.0 11309700000.0 11309700000.0 11309700000.0 11309700000.0 11309700000.0 11309700000.0 11309700000.0 11309700000.0 11309700000.0 11309700000.0 11309700000.0 11309700000.0 11309700000.0 11309700000.0 11309700000.0 11309700000.0 11309700000.0 11309700000.0 11309700000.0 11309700000.0 11309700000.0 11309700000.0 11309700000.0 11309700000.0 11309700000.0 11309700000.0 11309700000.0 11309700000.0 11309700000.0 11309700000.0 11309700000.0 11309700000.0 11309700000.0 11309700000.0 11309700000.0 11309700000.0 11309700000.0 11309700000.0 11309700000.0 11309700000.0 11309700000.0 11309700000.0 11309700000.0 11309700000.0 11309700000.0 11309700000.0 11309700000.0 11309700000.0 11309700000.0 11309700000.0 11309700000.0 11309700000.0 11309700000.0 11309700000.0 11309700000.0 11309700000.0 11309700000.0 11309700000.0 11309700000.0 11309700000.0 11309700000.0 11309700000.0 11309700000.0 11309700000.0 11309700000.0 11309700000.0 11309700000.0 11309700000.0 11309700000.0 11309700000.0 11309700000.0 11309700000.0 11309700000.0 11309700000.0 11309700000.0 11309700000.0 11309700000.0 11309700000.0 11309700000.0 11309700000.0 11309700000.0 11309700000.0 11309700000.0 11309700000.0 11309700000.0 11309700000.0 11309700000.0 11309700000.0 11309700000.0 11309700000.0 11309700000.0 11309700000.0 11309700000.0 11309700000.0 11309700000.0 11309700000.0 11309700000.0 11309700000.0 11309700000.0 11309700000.0 11309700000.0 11309700000.0 11309700000.0 11309700000.0 11309700000.0 11309700000.0 11309700000.0 11309700000.0 11309700000.0 11309700000.0 11309700000.0 11309700000.0 11309700000.0 11309700000.0 11309700000.0 11309700000.0 11309700000.0 11309700000.0 11309700000.0 11309700000.0 11309700000.0 11309700000.0 11309700000.0 11309700000.0 11309700000.0 11309700000.0 11309700000.0 11309700000.0 11309700000.0 11309700000.0 11309700000.0 11309700000.0 11309700000.0 11309700000.0 11309700000.0 11309700000.0 11309700000.0 11309700000.0 11309700000.0 11309700000.0 11309700000.0 11309700000.0 11309700000.0 11309700000.0 11309700000.0 11309700000.0 11309700000.0 11309700000.0 11309700000.0 11309700000.0 11309700000.0 11309700000.0 11309700000.0 11309700000.0 11309700000.0 11309700000.0 11309700000.0 11309700000.0 11309700000.0 11309700000.0 11309700000.0 11309700000.0 11309700000.0 11309700000.0 11309700000.0 11309700000.0 11309700000.0 11309700000.0 11309700000.0 11309700000.0 11309700000.0 11309700000.0 11309700000.0 11309700000.0 11309700000.0 11309700000.0 11309700000.0 11309700000.0 11309700000.0 11309700000.0 11309700000.0 11309700000.0 11309700000.0 11309700000.0 11309700000.0 11309700000.0 11309700000.0 11309700000.0 11309700000.0 11309700000.0 11309700000.0 11309700000.0 11309700000.0 11309700000.0 11309700000.0 11309700000.0 11309700000.0 11309700000.0 11309700000.0 11309700000.0 11309700000.0 11309700000.0 11309700000.0 11309700000.0 11309700000.0 11309700000.0 11309700000.0 11309700000.0 11309700000.0 11309700000.0 11309700000.0 11309700000.0 11309700000.0 11309700000.0 11309700000.0 11309700000.0 11309700000.0 11309700000.0 11309700000.0 11309700000.0 11309700000.0 11309700000.0 11309700000.0 11309700000.0 11309700000.0 11309700000.0 11309700000.0 11309700000.0 11309700000.0 11309700000.0 11309700000.0 11309700000.0 11309700000.0 11309700000.0 11309700000.0 11309700000.0 11309700000.0 11309700000.0 11309700000.0 11309700000.0 11309700000.0 11309700000.0 11309700000.0 11309700000.0 11309700000.0 11309700000.0 11309700000.0 11309700000.0 11309700000.0 11309700000.0 11309700000.0 11309700000.0 11309700000.0 11309700000.0 11309700000.0 11309700000.0 11309700000.0 11309700000.0 11309700000.0 11309700000.0 11309700000.0 11309700000.0 11309700000.0 11309700000.0 11309700000.0 11309700000.0 11309700000.0 11309700000.0 11309700000.0 11309700000.0 11309700000.0 11309700000.0 11309700000.0 11309700000.0 11309700000.0 11309700000.0 11309700000.0 11309700000.0 11309700000.0 11309700000.0 11309700000.0 11309700000.0 11309700000.0 11309700000.0 11309700000.0 11309700000.0 11309700000.0 11309700000.0 11309700000.0 11309700000.0 11309700000.0 11309700000.0 11309700000.0 11309700000.0 11309700000.0 11309700000.0 11309700000.0 11309700000.0 11309700000.0 11309700000.0 11309700000.0 11309700000.0 11309700000.0 11309700000.0 11309700000.0 11309700000.0 11309700000.0 11309700000.0 11309700000.0 11309700000.0 11309700000.0 11309700000.0 11309700000.0 11309700000.0 11309700000.0 11309700000.0 11309700000.0 11309700000.0 11309700000.0 11309700000.0 11309700000.0 11309700000.0 11309700000.0 11309700000.0 11309700000.0 11309700000.0 11309700000.0 11309700000.0 11309700000.0 11309700000.0 11309700000.0 11309700000.0 11309700000.0 11309700000.0 11309700000.0 11309700000.0 11309700000.0 11309700000.0 11309700000.0 11309700000.0 11309700000.0 11309700000.0 11309700000.0 11309700000.0 11309700000.0 11309700000.0 11309700000.0 11309700000.0 11309700000.0 11309700000.0 11309700000.0 11309700000.0 11309700000.0 11309700000.0 11309700000.0 11309700000.0 11309700000.0 11309700000.0 11309700000.0 11309700000.0 11309700000.0 11309700000.0 11309700000.0 11309700000.0 11309700000.0 11309700000.0 11309700000.0 11309700000.0 11309700000.0 11309700000.0 11309700000.0 11309700000.0 11309700000.0 11309700000.0 11309700000.0 11309700000.0 11309700000.0 11309700000.0 11309700000.0 11309700000.0 11309700000.0 11309700000.0 11309700000.0 11309700000.0 11309700000.0 11309700000.0 11309700000.0 11309700000.0 11309700000.0 11309700000.0 11309700000.0 11309700000.0 11309700000.0 11309700000.0 11309700000.0 11309700000.0 11309700000.0 11309700000.0 11309700000.0 11309700000.0 11309700000.0 11309700000.0 11309700000.0 11309700000.0 11309700000.0 11309700000.0 11309700000.0 11309700000.0 11309700000.0 11309700000.0 11309700000.0 11309700000.0 11309700000.0 11309700000.0 11309700000.0 11309700000.0 11309700000.0 11309700000.0 11309700000.0 11309700000.0 11309700000.0 11309700000.0 11309700000.0 11309700000.0 11309700000.0 11309700000.0 11309700000.0 11309700000.0 11309700000.0 11309700000.0 11309700000.0 11309700000.0 11309700000.0 11309700000.0 11309700000.0 11309700000.0 11309700000.0 11309700000.0 11309700000.0 11309700000.0 11309700000.0 11309700000.0 11309700000.0 11309700000.0 11309700000.0 11309700000.0 11309700000.0 11309700000.0 11309700000.0 11309700000.0 11309700000.0 11309700000.0 11309700000.0 11309700000.0 11309700000.0 11309700000.0 11309700000.0 11309700000.0 11309700000.0 11309700000.0 11309700000.0 11309700000.0 11309700000.0 11309700000.0 11309700000.0 11309700000.0 11309700000.0 11309700000.0 11309700000.0 11309700000.0 11309700000.0 11309700000.0 11309700000.0 11309700000.0 11309700000.0 11309700000.0 11309700000.0 11309700000.0 11309700000.0 11309700000.0 11309700000.0 11309700000.0 11309700000.0 11309700000.0 11309700000.0 11309700000.0 11309700000.0 11309700000.0 11309700000.0 11309700000.0 11309700000.0 11309700000.0 11309700000.0 11309700000.0 11309700000.0 11309700000.0 11309700000.0 11309700000.0 11309700000.0 11309700000.0 11309700000.0 11309700000.0 11309700000.0 11309700000.0 11309700000.0 11309700000.0 11309700000.0 11309700000.0 11309700000.0 11309700000.0 11309700000.0 11309700000.0 11309700000.0 11309700000.0 11309700000.0 11309700000.0 11309700000.0 11309700000.0 11309700000.0 11309700000.0 11309700000.0 11309700000.0 11309700000.0 11309700000.0 11309700000.0 11309700000.0 11309700000.0 11309700000.0 11309700000.0 11309700000.0 11309700000.0 11309700000.0 11309700000.0 11309700000.0 11309700000.0 11309700000.0 11309700000.0 11309700000.0 11309700000.0 11309700000.0 11309700000.0 11309700000.0 11309700000.0 11309700000.0 11309700000.0 11309700000.0 11309700000.0 11309700000.0 11309700000.0 11309700000.0 11309700000.0 11309700000.0 11309700000.0 11309700000.0 11309700000.0 11309700000.0 11309700000.0 11309700000.0 11309700000.0 11309700000.0 11309700000.0 11309700000.0 11309700000.0 11309700000.0 11309700000.0 11309700000.0 11309700000.0 11309700000.0 11309700000.0 11309700000.0 11309700000.0 11309700000.0 11309700000.0 11309700000.0 11309700000.0 11309700000.0 11309700000.0 11309700000.0 11309700000.0 11309700000.0 11309700000.0 11309700000.0 11309700000.0 11309700000.0 11309700000.0 11309700000.0 11309700000.0 11309700000.0 11309700000.0 11309700000.0 11309700000.0 11309700000.0 11309700000.0 11309700000.0 11309700000.0 11309700000.0 11309700000.0 11309700000.0 11309700000.0 11309700000.0 11309700000.0 11309700000.0 11309700000.0 11309700000.0 11309700000.0 11309700000.0 11309700000.0 11309700000.0 11309700000.0 11309700000.0 11309700000.0 11309700000.0 11309700000.0 11309700000.0 11309700000.0 11309700000.0 11309700000.0 11309700000.0 11309700000.0 11309700000.0 11309700000.0 11309700000.0 11309700000.0 11309700000.0 11309700000.0 11309700000.0 11309700000.0 11309700000.0 11309700000.0 11309700000.0 11309700000.0 11309700000.0 11309700000.0 11309700000.0 11309700000.0 11309700000.0 11309700000.0 11309700000.0 11309700000.0 11309700000.0 11309700000.0 11309700000.0 11309700000.0 11309700000.0 11309700000.0 11309700000.0 11309700000.0 11309700000.0 11309700000.0 11309700000.0 11309700000.0 11309700000.0 11309700000.0 11309700000.0 11309700000.0 11309700000.0 11309700000.0 11309700000.0 11309700000.0 11309700000.0 11309700000.0 11309700000.0 11309700000.0 11309700000.0 11309700000.0 11309700000.0 11309700000.0 11309700000.0 11309700000.0 11309700000.0 11309700000.0 11309700000.0 11309700000.0 11309700000.0 11309700000.0 11309700000.0 11309700000.0 11309700000.0 11309700000.0 11309700000.0 11309700000.0 11309700000.0 11309700000.0 11309700000.0 11309700000.0 11309700000.0 11309700000.0 11309700000.0 11309700000.0 11309700000.0 11309700000.0 11309700000.0 11309700000.0 11309700000.0 11309700000.0 11309700000.0 11309700000.0 11309700000.0 11309700000.0 11309700000.0 11309700000.0 11309700000.0 11309700000.0 11309700000.0 11309700000.0 11309700000.0 11309700000.0 11309700000.0 11309700000.0 11309700000.0 11309700000.0 11309700000.0 11309700000.0 11309700000.0 11309700000.0 11309700000.0 11309700000.0 11309700000.0 11309700000.0 11309700000.0 11309700000.0 11309700000.0 11309700000.0 11309700000.0 11309700000.0 11309700000.0 11309700000.0 11309700000.0 11309700000.0 11309700000.0 11309700000.0 11309700000.0 11309700000.0 11309700000.0 11309700000.0 11309700000.0 11309700000.0 11309700000.0 11309700000.0 11309700000.0 11309700000.0 11309700000.0 11309700000.0 11309700000.0 11309700000.0 11309700000.0 11309700000.0 11309700000.0 11309700000.0 11309700000.0 11309700000.0 11309700000.0 11309700000.0 11309700000.0 11309700000.0 11309700000.0 11309700000.0 11309700000.0 11309700000.0 11309700000.0 11309700000.0 11309700000.0 11309700000.0 11309700000.0 11309700000.0 11309700000.0 11309700000.0 11309700000.0 11309700000.0 11309700000.0 11309700000.0 11309700000.0 11309700000.0 11309700000.0 11309700000.0 11309700000.0 11309700000.0 11309700000.0 11309700000.0 11309700000.0 11309700000.0 11309700000.0 11309700000.0 11309700000.0 11309700000.0 11309700000.0 11309700000.0 11309700000.0 11309700000.0 11309700000.0 11309700000.0 11309700000.0 11309700000.0 11309700000.0 11309700000.0 11309700000.0 11309700000.0 11309700000.0 11309700000.0 11309700000.0 11309700000.0 11309700000.0 11309700000.0 11309700000.0 11309700000.0 11309700000.0 11309700000.0 11309700000.0 11309700000.0 11309700000.0 11309700000.0 11309700000.0 11309700000.0 11309700000.0 11309700000.0 11309700000.0 11309700000.0 11309700000.0 11309700000.0 11309700000.0 11309700000.0 11309700000.0 11309700000.0 11309700000.0 11309700000.0 11309700000.0 11309700000.0 11309700000.0 11309700000.0 11309700000.0 11309700000.0 11309700000.0 11309700000.0 11309700000.0 11309700000.0 11309700000.0 11309700000.0 11309700000.0 11309700000.0 11309700000.0 11309700000.0 11309700000.0 11309700000.0 11309700000.0 11309700000.0 11309700000.0 11309700000.0 11309700000.0 11309700000.0 11309700000.0 11309700000.0 11309700000.0 11309700000.0 11309700000.0 11309700000.0 11309700000.0 11309700000.0 11309700000.0 11309700000.0 11309700000.0 11309700000.0 11309700000.0 11309700000.0 11309700000.0 11309700000.0 11309700000.0 11309700000.0 11309700000.0 11309700000.0 11309700000.0 11309700000.0 11309700000.0 11309700000.0 11309700000.0 11309700000.0 11309700000.0 11309700000.0 11309700000.0 11309700000.0 11309700000.0 11309700000.0 11309700000.0 11309700000.0 11309700000.0 11309700000.0 11309700000.0 11309700000.0 11309700000.0 11309700000.0 11309700000.0 11309700000.0 11309700000.0 11309700000.0 11309700000.0 11309700000.0 11309700000.0 11309700000.0 11309700000.0 11309700000.0 11309700000.0 11309700000.0 11309700000.0 11309700000.0 11309700000.0 11309700000.0 11309700000.0 11309700000.0 11309700000.0 11309700000.0 11309700000.0 11309700000.0 11309700000.0 11309700000.0 11309700000.0 11309700000.0 11309700000.0 11309700000.0 11309700000.0 11309700000.0 11309700000.0 11309700000.0 11309700000.0 11309700000.0 11309700000.0 11309700000.0 11309700000.0 11309700000.0 11309700000.0 11309700000.0 11309700000.0 11309700000.0 11309700000.0 11309700000.0 11309700000.0 11309700000.0 11309700000.0 11309700000.0 11309700000.0 11309700000.0 11309700000.0 11309700000.0 11309700000.0 11309700000.0 11309700000.0 11309700000.0 11309700000.0 11309700000.0 11309700000.0 11309700000.0 11309700000.0 11309700000.0 11309700000.0 11309700000.0 11309700000.0 11309700000.0 11309700000.0 11309700000.0 11309700000.0 11309700000.0 11309700000.0 11309700000.0 11309700000.0 11309700000.0 11309700000.0 11309700000.0 11309700000.0 11309700000.0 11309700000.0 11309700000.0 11309700000.0 11309700000.0 11309700000.0 11309700000.0 11309700000.0 11309700000.0 11309700000.0 11309700000.0 11309700000.0 11309700000.0 11309700000.0 11309700000.0 11309700000.0 11309700000.0 11309700000.0 11309700000.0 11309700000.0 11309700000.0 11309700000.0 11309700000.0 11309700000.0 11309700000.0 11309700000.0 11309700000.0 11309700000.0 11309700000.0 11309700000.0 11309700000.0 11309700000.0 11309700000.0 11309700000.0 11309700000.0 11309700000.0 11309700000.0 11309700000.0 11309700000.0 11309700000.0 11309700000.0 11309700000.0 11309700000.0 11309700000.0 11309700000.0 11309700000.0 11309700000.0 11309700000.0 11309700000.0 11309700000.0 11309700000.0 11309700000.0 11309700000.0 11309700000.0 11309700000.0 11309700000.0 11309700000.0 11309700000.0 11309700000.0 11309700000.0 11309700000.0 11309700000.0 11309700000.0 11309700000.0 11309700000.0 11309700000.0 11309700000.0 11309700000.0 11309700000.0 11309700000.0 11309700000.0 11309700000.0 11309700000.0 11309700000.0 11309700000.0 11309700000.0 11309700000.0 11309700000.0 11309700000.0 11309700000.0 11309700000.0 11309700000.0 11309700000.0 11309700000.0 11309700000.0 11309700000.0 11309700000.0 11309700000.0 11309700000.0 11309700000.0 11309700000.0 11309700000.0 11309700000.0 11309700000.0 11309700000.0 11309700000.0 11309700000.0 11309700000.0 11309700000.0 11309700000.0 11309700000.0 11309700000.0 11309700000.0 11309700000.0 11309700000.0 11309700000.0 11309700000.0 11309700000.0 11309700000.0 11309700000.0 11309700000.0 11309700000.0 11309700000.0 11309700000.0 11309700000.0 11309700000.0 11309700000.0 11309700000.0 11309700000.0 11309700000.0 11309700000.0 11309700000.0 11309700000.0 11309700000.0 11309700000.0 11309700000.0 11309700000.0 11309700000.0 11309700000.0 11309700000.0 11309700000.0 11309700000.0 11309700000.0 11309700000.0 11309700000.0 11309700000.0 11309700000.0 11309700000.0 11309700000.0 11309700000.0 11309700000.0 11309700000.0 11309700000.0 11309700000.0 11309700000.0 11309700000.0 11309700000.0 11309700000.0 11309700000.0 11309700000.0 11309700000.0 11309700000.0 11309700000.0 11309700000.0 11309700000.0 11309700000.0 11309700000.0 11309700000.0 11309700000.0 11309700000.0 11309700000.0 11309700000.0 11309700000.0 11309700000.0 11309700000.0 11309700000.0 11309700000.0 11309700000.0 11309700000.0 11309700000.0 11309700000.0 11309700000.0 11309700000.0 11309700000.0 11309700000.0 11309700000.0 11309700000.0 11309700000.0 11309700000.0 11309700000.0 11309700000.0 11309700000.0 11309700000.0 11309700000.0 11309700000.0 11309700000.0 11309700000.0 11309700000.0 11309700000.0 11309700000.0 11309700000.0 11309700000.0 11309700000.0 11309700000.0 11309700000.0 11309700000.0 11309700000.0 11309700000.0 11309700000.0 11309700000.0 11309700000.0 11309700000.0 11309700000.0 11309700000.0 11309700000.0 11309700000.0 11309700000.0 11309700000.0 11309700000.0 11309700000.0 11309700000.0 11309700000.0 11309700000.0 11309700000.0 11309700000.0 11309700000.0 11309700000.0 11309700000.0 11309700000.0 11309700000.0 11309700000.0 11309700000.0 11309700000.0 11309700000.0 11309700000.0 11309700000.0 11309700000.0 11309700000.0 11309700000.0 11309700000.0 11309700000.0 11309700000.0 11309700000.0 11309700000.0 11309700000.0 11309700000.0 11309700000.0 11309700000.0 11309700000.0 11309700000.0 11309700000.0 11309700000.0 11309700000.0 11309700000.0 11309700000.0 11309700000.0 11309700000.0 11309700000.0 11309700000.0 11309700000.0 11309700000.0 11309700000.0 11309700000.0 11309700000.0 11309700000.0 11309700000.0 11309700000.0 11309700000.0 11309700000.0 11309700000.0 11309700000.0 11309700000.0 11309700000.0 11309700000.0 11309700000.0 11309700000.0 11309700000.0 11309700000.0 11309700000.0 11309700000.0 11309700000.0 11309700000.0 11309700000.0 11309700000.0 11309700000.0 11309700000.0 11309700000.0 11309700000.0 11309700000.0 11309700000.0 11309700000.0 11309700000.0 11309700000.0 11309700000.0 11309700000.0 11309700000.0 11309700000.0 11309700000.0 11309700000.0 11309700000.0 11309700000.0 11309700000.0 11309700000.0 11309700000.0 11309700000.0 11309700000.0 11309700000.0 11309700000.0 11309700000.0 11309700000.0 11309700000.0 11309700000.0 11309700000.0 11309700000.0 11309700000.0 11309700000.0 11309700000.0 11309700000.0 11309700000.0 11309700000.0 11309700000.0 11309700000.0 11309700000.0 11309700000.0 11309700000.0 11309700000.0 11309700000.0 11309700000.0 11309700000.0 11309700000.0 11309700000.0 11309700000.0 11309700000.0 11309700000.0 11309700000.0 11309700000.0 11309700000.0 11309700000.0 11309700000.0 11309700000.0 11309700000.0 11309700000.0 11309700000.0 11309700000.0 11309700000.0 11309700000.0 11309700000.0 11309700000.0 11309700000.0 11309700000.0 11309700000.0 11309700000.0 11309700000.0 11309700000.0 11309700000.0 11309700000.0 11309700000.0 11309700000.0 11309700000.0 11309700000.0 11309700000.0 11309700000.0 11309700000.0 11309700000.0 11309700000.0 11309700000.0 11309700000.0 11309700000.0 11309700000.0 11309700000.0 11309700000.0 11309700000.0 11309700000.0 11309700000.0 11309700000.0 11309700000.0 11309700000.0 11309700000.0 11309700000.0 11309700000.0 11309700000.0 11309700000.0 11309700000.0 11309700000.0 11309700000.0 11309700000.0 11309700000.0 11309700000.0 11309700000.0 11309700000.0 11309700000.0 11309700000.0 11309700000.0 11309700000.0 11309700000.0 11309700000.0 11309700000.0 11309700000.0 11309700000.0 11309700000.0 11309700000.0 11309700000.0 11309700000.0 11309700000.0 11309700000.0 11309700000.0 11309700000.0 11309700000.0 11309700000.0 11309700000.0 11309700000.0 11309700000.0 11309700000.0 11309700000.0 11309700000.0 11309700000.0 11309700000.0 11309700000.0 11309700000.0 11309700000.0 11309700000.0 11309700000.0 11309700000.0 11309700000.0 11309700000.0 11309700000.0 11309700000.0 11309700000.0 11309700000.0 11309700000.0 11309700000.0 11309700000.0 11309700000.0 11309700000.0 11309700000.0 11309700000.0 11309700000.0 11309700000.0 11309700000.0 11309700000.0 11309700000.0 11309700000.0 11309700000.0 11309700000.0 11309700000.0 11309700000.0 11309700000.0 11309700000.0 11309700000.0 11309700000.0 11309700000.0 11309700000.0 11309700000.0 11309700000.0 11309700000.0 11309700000.0 11309700000.0 11309700000.0 11309700000.0 11309700000.0 11309700000.0 11309700000.0 11309700000.0 11309700000.0 11309700000.0 11309700000.0 11309700000.0 11309700000.0 11309700000.0 11309700000.0 11309700000.0 11309700000.0 11309700000.0 11309700000.0 11309700000.0 11309700000.0 11309700000.0 11309700000.0 11309700000.0 11309700000.0 11309700000.0 11309700000.0 11309700000.0 11309700000.0 11309700000.0 11309700000.0 11309700000.0 11309700000.0 11309700000.0 11309700000.0 11309700000.0 11309700000.0 11309700000.0 11309700000.0 11309700000.0 11309700000.0 11309700000.0 11309700000.0 11309700000.0 11309700000.0 11309700000.0 11309700000.0 11309700000.0 11309700000.0 11309700000.0 11309700000.0 11309700000.0 11309700000.0 11309700000.0 11309700000.0 11309700000.0 11309700000.0 11309700000.0 11309700000.0 11309700000.0 11309700000.0 11309700000.0 11309700000.0 11309700000.0 11309700000.0 11309700000.0 11309700000.0 11309700000.0 11309700000.0 11309700000.0 11309700000.0 11309700000.0 11309700000.0 11309700000.0 11309700000.0 11309700000.0 11309700000.0 11309700000.0 11309700000.0 11309700000.0 11309700000.0 11309700000.0 11309700000.0 11309700000.0 11309700000.0 11309700000.0 11309700000.0 11309700000.0 11309700000.0 11309700000.0 11309700000.0 11309700000.0 11309700000.0 11309700000.0 11309700000.0 11309700000.0 11309700000.0 11309700000.0 11309700000.0 11309700000.0 11309700000.0 11309700000.0 11309700000.0 11309700000.0 11309700000.0 11309700000.0 11309700000.0 11309700000.0 11309700000.0 11309700000.0 11309700000.0 11309700000.0 11309700000.0 11309700000.0 11309700000.0 11309700000.0 11309700000.0 11309700000.0 11309700000.0 11309700000.0 11309700000.0 11309700000.0 11309700000.0 11309700000.0 11309700000.0 11309700000.0 11309700000.0 11309700000.0 11309700000.0 11309700000.0 11309700000.0 11309700000.0 11309700000.0 11309700000.0 11309700000.0 11309700000.0 11309700000.0 11309700000.0 11309700000.0 11309700000.0 11309700000.0 11309700000.0 11309700000.0 11309700000.0 11309700000.0 11309700000.0 11309700000.0 11309700000.0 11309700000.0 11309700000.0 11309700000.0 11309700000.0 11309700000.0 11309700000.0 11309700000.0 11309700000.0 11309700000.0 11309700000.0 11309700000.0 11309700000.0 11309700000.0 11309700000.0 11309700000.0 11309700000.0 11309700000.0 11309700000.0 11309700000.0 11309700000.0 11309700000.0 11309700000.0 11309700000.0 11309700000.0 11309700000.0 11309700000.0 11309700000.0 11309700000.0 11309700000.0 11309700000.0 11309700000.0 11309700000.0 11309700000.0 11309700000.0 11309700000.0 11309700000.0 11309700000.0 11309700000.0 11309700000.0 11309700000.0 11309700000.0 11309700000.0 11309700000.0 11309700000.0 11309700000.0 11309700000.0 11309700000.0 11309700000.0 11309700000.0 11309700000.0 11309700000.0 11309700000.0 11309700000.0 11309700000.0 11309700000.0 11309700000.0 11309700000.0 11309700000.0 11309700000.0 11309700000.0 11309700000.0 11309700000.0 11309700000.0 11309700000.0 11309700000.0 11309700000.0 11309700000.0 11309700000.0 11309700000.0 11309700000.0 11309700000.0 11309700000.0 11309700000.0 11309700000.0 11309700000.0 11309700000.0 11309700000.0 11309700000.0 11309700000.0 11309700000.0 11309700000.0 11309700000.0 11309700000.0 11309700000.0 11309700000.0 11309700000.0 11309700000.0 11309700000.0 11309700000.0 11309700000.0 11309700000.0 11309700000.0 11309700000.0 11309700000.0 11309700000.0 11309700000.0 11309700000.0 11309700000.0 11309700000.0 11309700000.0 11309700000.0 11309700000.0 11309700000.0 11309700000.0 11309700000.0 11309700000.0 11309700000.0 11309700000.0 11309700000.0 11309700000.0 11309700000.0 11309700000.0 11309700000.0 11309700000.0 11309700000.0 11309700000.0 11309700000.0 11309700000.0 11309700000.0 11309700000.0 11309700000.0 11309700000.0 11309700000.0 11309700000.0 11309700000.0 11309700000.0 11309700000.0 11309700000.0 11309700000.0 11309700000.0 11309700000.0 11309700000.0 11309700000.0 11309700000.0 11309700000.0 11309700000.0 11309700000.0 11309700000.0 11309700000.0 11309700000.0 11309700000.0 11309700000.0 11309700000.0 11309700000.0 11309700000.0 11309700000.0 11309700000.0 11309700000.0 11309700000.0 11309700000.0 11309700000.0 11309700000.0 11309700000.0 11309700000.0 11309700000.0 11309700000.0 11309700000.0 11309700000.0 11309700000.0 11309700000.0 11309700000.0 11309700000.0 11309700000.0 11309700000.0 11309700000.0 11309700000.0 11309700000.0 11309700000.0 11309700000.0 11309700000.0 11309700000.0 11309700000.0 11309700000.0 11309700000.0 11309700000.0 11309700000.0 11309700000.0 11309700000.0 11309700000.0 11309700000.0 11309700000.0 11309700000.0 11309700000.0 11309700000.0 11309700000.0 11309700000.0 11309700000.0 11309700000.0 11309700000.0 11309700000.0 11309700000.0 11309700000.0 11309700000.0 11309700000.0 11309700000.0 11309700000.0 11309700000.0 11309700000.0 11309700000.0 11309700000.0 11309700000.0 11309700000.0 11309700000.0 11309700000.0 11309700000.0 11309700000.0 11309700000.0 11309700000.0 11309700000.0 11309700000.0 11309700000.0 11309700000.0 11309700000.0 11309700000.0 11309700000.0 11309700000.0 11309700000.0 11309700000.0 11309700000.0 11309700000.0 11309700000.0 11309700000.0 11309700000.0 11309700000.0 11309700000.0 11309700000.0 11309700000.0 11309700000.0 11309700000.0 11309700000.0 11309700000.0 11309700000.0 11309700000.0 11309700000.0 11309700000.0 11309700000.0 11309700000.0 11309700000.0 11309700000.0 11309700000.0 11309700000.0 11309700000.0 11309700000.0 11309700000.0 11309700000.0 11309700000.0 11309700000.0 11309700000.0 11309700000.0 11309700000.0 11309700000.0 11309700000.0 11309700000.0 11309700000.0 11309700000.0 11309700000.0 11309700000.0 11309700000.0 11309700000.0 11309700000.0 11309700000.0 11309700000.0 11309700000.0 11309700000.0 11309700000.0 11309700000.0 11309700000.0 11309700000.0 11309700000.0 11309700000.0 11309700000.0 11309700000.0 11309700000.0 11309700000.0 11309700000.0 11309700000.0 11309700000.0 11309700000.0 11309700000.0 11309700000.0 11309700000.0 11309700000.0 11309700000.0 11309700000.0 11309700000.0 11309700000.0 11309700000.0 11309700000.0 11309700000.0 11309700000.0 11309700000.0 11309700000.0 11309700000.0 11309700000.0 11309700000.0 11309700000.0 11309700000.0 11309700000.0 11309700000.0 11309700000.0 11309700000.0 11309700000.0 11309700000.0 11309700000.0 11309700000.0 11309700000.0 11309700000.0 11309700000.0 11309700000.0 11309700000.0 11309700000.0 11309700000.0 11309700000.0 11309700000.0 11309700000.0 11309700000.0 11309700000.0 11309700000.0 11309700000.0 11309700000.0 11309700000.0 11309700000.0 11309700000.0 11309700000.0 11309700000.0 11309700000.0 11309700000.0 11309700000.0 11309700000.0 11309700000.0 11309700000.0 11309700000.0 11309700000.0 11309700000.0 11309700000.0 11309700000.0 11309700000.0 11309700000.0 11309700000.0 11309700000.0 11309700000.0 11309700000.0 11309700000.0 11309700000.0 11309700000.0 11309700000.0 11309700000.0 11309700000.0 11309700000.0 11309700000.0 11309700000.0 11309700000.0 11309700000.0 11309700000.0 11309700000.0 11309700000.0 11309700000.0 11309700000.0 11309700000.0 11309700000.0 11309700000.0 11309700000.0 11309700000.0 11309700000.0 11309700000.0 11309700000.0 11309700000.0 11309700000.0 11309700000.0 11309700000.0 11309700000.0 11309700000.0 11309700000.0 11309700000.0 11309700000.0 11309700000.0 11309700000.0 11309700000.0 11309700000.0 11309700000.0 11309700000.0 11309700000.0 11309700000.0 11309700000.0 11309700000.0 11309700000.0 11309700000.0 11309700000.0 11309700000.0 11309700000.0 11309700000.0 11309700000.0 11309700000.0 11309700000.0 11309700000.0 11309700000.0 11309700000.0 11309700000.0 11309700000.0 11309700000.0 11309700000.0 11309700000.0 11309700000.0 11309700000.0 11309700000.0 11309700000.0 11309700000.0 11309700000.0 11309700000.0 11309700000.0 11309700000.0 11309700000.0 11309700000.0 11309700000.0 11309700000.0 11309700000.0 11309700000.0 11309700000.0 11309700000.0 11309700000.0 11309700000.0 11309700000.0 11309700000.0 11309700000.0 11309700000.0 11309700000.0 11309700000.0 11309700000.0 11309700000.0 11309700000.0 11309700000.0 11309700000.0 11309700000.0 11309700000.0 11309700000.0 11309700000.0 11309700000.0 11309700000.0 11309700000.0 11309700000.0 11309700000.0 11309700000.0 11309700000.0 11309700000.0 11309700000.0 11309700000.0 11309700000.0 11309700000.0 11309700000.0 11309700000.0 11309700000.0 11309700000.0 11309700000.0 11309700000.0 11309700000.0 11309700000.0 11309700000.0 11309700000.0 11309700000.0 11309700000.0 11309700000.0 11309700000.0 11309700000.0 11309700000.0 11309700000.0 11309700000.0 11309700000.0 11309700000.0 11309700000.0 11309700000.0 11309700000.0 11309700000.0 11309700000.0 11309700000.0 11309700000.0 11309700000.0 11309700000.0 11309700000.0 11309700000.0 11309700000.0 11309700000.0 11309700000.0 11309700000.0 11309700000.0 11309700000.0 11309700000.0 11309700000.0 11309700000.0 11309700000.0 11309700000.0 11309700000.0 11309700000.0 11309700000.0 11309700000.0 11309700000.0 11309700000.0 11309700000.0 11309700000.0 11309700000.0 11309700000.0 11309700000.0 11309700000.0 11309700000.0 11309700000.0 11309700000.0 11309700000.0 11309700000.0 11309700000.0 11309700000.0 11309700000.0 11309700000.0 11309700000.0 11309700000.0 11309700000.0 11309700000.0 11309700000.0 11309700000.0 11309700000.0 11309700000.0 11309700000.0 11309700000.0 11309700000.0 11309700000.0 11309700000.0 11309700000.0 11309700000.0 11309700000.0 11309700000.0 11309700000.0 11309700000.0 11309700000.0 11309700000.0 11309700000.0 11309700000.0 11309700000.0 11309700000.0 11309700000.0 11309700000.0 11309700000.0 11309700000.0 11309700000.0 11309700000.0 11309700000.0 11309700000.0 11309700000.0 11309700000.0 11309700000.0 11309700000.0 11309700000.0 11309700000.0 11309700000.0 11309700000.0 11309700000.0 11309700000.0 11309700000.0 11309700000.0 11309700000.0 11309700000.0 11309700000.0 11309700000.0 11309700000.0 11309700000.0 11309700000.0 11309700000.0 11309700000.0 11309700000.0 11309700000.0 11309700000.0 11309700000.0 11309700000.0 11309700000.0 11309700000.0 11309700000.0 11309700000.0 11309700000.0 11309700000.0 11309700000.0 11309700000.0 11309700000.0 11309700000.0 11309700000.0 11309700000.0 11309700000.0 11309700000.0 11309700000.0 11309700000.0 11309700000.0 11309700000.0 11309700000.0 11309700000.0 11309700000.0 11309700000.0 11309700000.0 11309700000.0 11309700000.0 11309700000.0 11309700000.0 11309700000.0 11309700000.0 11309700000.0 11309700000.0 11309700000.0 11309700000.0 11309700000.0 11309700000.0 11309700000.0 11309700000.0 11309700000.0 11309700000.0 11309700000.0 11309700000.0 11309700000.0 11309700000.0 11309700000.0 11309700000.0 11309700000.0 11309700000.0 11309700000.0 11309700000.0 11309700000.0 11309700000.0 11309700000.0 11309700000.0 11309700000.0 11309700000.0 11309700000.0 11309700000.0 11309700000.0 11309700000.0 11309700000.0 11309700000.0 11309700000.0 11309700000.0 11309700000.0 11309700000.0 11309700000.0 11309700000.0 11309700000.0 11309700000.0 11309700000.0 11309700000.0 11309700000.0 11309700000.0 11309700000.0 11309700000.0 11309700000.0 11309700000.0 11309700000.0 11309700000.0 11309700000.0 11309700000.0 11309700000.0 11309700000.0 11309700000.0 11309700000.0 11309700000.0 11309700000.0 11309700000.0 11309700000.0 11309700000.0 11309700000.0 11309700000.0 11309700000.0 11309700000.0 11309700000.0 11309700000.0 11309700000.0 11309700000.0 11309700000.0 11309700000.0 11309700000.0 11309700000.0 11309700000.0 11309700000.0 11309700000.0 11309700000.0 11309700000.0 11309700000.0 11309700000.0 11309700000.0 11309700000.0 11309700000.0 11309700000.0 11309700000.0 11309700000.0 11309700000.0 11309700000.0 11309700000.0 11309700000.0 11309700000.0 11309700000.0 11309700000.0 11309700000.0 11309700000.0 11309700000.0 11309700000.0 11309700000.0 11309700000.0 11309700000.0 11309700000.0 11309700000.0 11309700000.0 11309700000.0 11309700000.0 11309700000.0 11309700000.0 11309700000.0 11309700000.0 11309700000.0 11309700000.0 11309700000.0 11309700000.0 11309700000.0 11309700000.0 11309700000.0 11309700000.0 11309700000.0 11309700000.0 11309700000.0 11309700000.0 11309700000.0 11309700000.0 11309700000.0 11309700000.0 11309700000.0 11309700000.0 11309700000.0 11309700000.0 11309700000.0 11309700000.0 11309700000.0 11309700000.0 11309700000.0 11309700000.0 11309700000.0 11309700000.0 11309700000.0 11309700000.0 11309700000.0 11309700000.0 11309700000.0 11309700000.0 11309700000.0 11309700000.0 11309700000.0 11309700000.0 11309700000.0 11309700000.0 11309700000.0 11309700000.0 11309700000.0 11309700000.0 11309700000.0 11309700000.0 11309700000.0 11309700000.0 11309700000.0 11309700000.0 11309700000.0 11309700000.0 11309700000.0 11309700000.0 11309700000.0 11309700000.0 11309700000.0 11309700000.0 11309700000.0 11309700000.0 11309700000.0 11309700000.0 11309700000.0 11309700000.0 11309700000.0 11309700000.0 11309700000.0 11309700000.0 11309700000.0 11309700000.0 11309700000.0 11309700000.0 11309700000.0 11309700000.0 11309700000.0 11309700000.0 11309700000.0 11309700000.0 11309700000.0 11309700000.0 11309700000.0 11309700000.0 11309700000.0 11309700000.0 11309700000.0 11309700000.0 11309700000.0 11309700000.0 11309700000.0 11309700000.0 11309700000.0 11309700000.0 11309700000.0 11309700000.0 11309700000.0 11309700000.0 11309700000.0 11309700000.0 11309700000.0 11309700000.0 11309700000.0 11309700000.0 11309700000.0 11309700000.0 11309700000.0 11309700000.0 11309700000.0 11309700000.0 11309700000.0 11309700000.0 11309700000.0 11309700000.0 11309700000.0 11309700000.0 11309700000.0 11309700000.0 11309700000.0 11309700000.0 11309700000.0 11309700000.0 11309700000.0 11309700000.0 11309700000.0 11309700000.0 11309700000.0 11309700000.0 11309700000.0 11309700000.0 11309700000.0 11309700000.0 11309700000.0 11309700000.0 11309700000.0 11309700000.0 11309700000.0 11309700000.0 11309700000.0 11309700000.0 11309700000.0 11309700000.0 11309700000.0 11309700000.0 11309700000.0 11309700000.0 11309700000.0 11309700000.0 11309700000.0 11309700000.0 11309700000.0 11309700000.0 11309700000.0 11309700000.0 11309700000.0 11309700000.0 11309700000.0 11309700000.0 11309700000.0 11309700000.0 11309700000.0 11309700000.0 11309700000.0 11309700000.0 11309700000.0 11309700000.0 11309700000.0 11309700000.0 11309700000.0 11309700000.0 11309700000.0 11309700000.0 11309700000.0 11309700000.0 11309700000.0 11309700000.0 11309700000.0 11309700000.0 11309700000.0 11309700000.0 11309700000.0 11309700000.0 11309700000.0 11309700000.0 11309700000.0 11309700000.0 11309700000.0 11309700000.0 11309700000.0 11309700000.0 11309700000.0 11309700000.0 11309700000.0 11309700000.0 11309700000.0 11309700000.0 11309700000.0 11309700000.0 11309700000.0 11309700000.0 11309700000.0 11309700000.0 11309700000.0 11309700000.0 11309700000.0 11309700000.0 11309700000.0 11309700000.0 11309700000.0 11309700000.0 11309700000.0 11309700000.0 11309700000.0 11309700000.0 11309700000.0 11309700000.0 11309700000.0 11309700000.0 11309700000.0 11309700000.0 11309700000.0 11309700000.0 11309700000.0 11309700000.0 11309700000.0 11309700000.0 11309700000.0 11309700000.0 11309700000.0 11309700000.0 11309700000.0 11309700000.0 11309700000.0 11309700000.0 11309700000.0 11309700000.0 11309700000.0 11309700000.0 11309700000.0 11309700000.0 11309700000.0 11309700000.0 11309700000.0 11309700000.0 11309700000.0 11309700000.0 11309700000.0 11309700000.0 11309700000.0 11309700000.0 11309700000.0 11309700000.0 11309700000.0 11309700000.0 11309700000.0 11309700000.0 11309700000.0 11309700000.0 11309700000.0 11309700000.0 11309700000.0 11309700000.0 11309700000.0 11309700000.0 11309700000.0 11309700000.0 11309700000.0 11309700000.0 11309700000.0 11309700000.0 11309700000.0 11309700000.0 11309700000.0 11309700000.0 11309700000.0 11309700000.0 11309700000.0 11309700000.0 11309700000.0 11309700000.0 11309700000.0 11309700000.0 11309700000.0 11309700000.0 11309700000.0 11309700000.0 11309700000.0 11309700000.0 11309700000.0 11309700000.0 11309700000.0 11309700000.0 11309700000.0 11309700000.0 11309700000.0 11309700000.0 11309700000.0 11309700000.0 11309700000.0 11309700000.0 11309700000.0 11309700000.0 11309700000.0 11309700000.0 11309700000.0 11309700000.0 11309700000.0 11309700000.0 11309700000.0 11309700000.0 11309700000.0 11309700000.0 11309700000.0 11309700000.0 11309700000.0 11309700000.0 11309700000.0 11309700000.0 11309700000.0 11309700000.0 11309700000.0 11309700000.0 11309700000.0 11309700000.0 11309700000.0 11309700000.0 11309700000.0 11309700000.0 11309700000.0 11309700000.0 11309700000.0 11309700000.0 11309700000.0 11309700000.0 11309700000.0 11309700000.0 11309700000.0 11309700000.0 11309700000.0 11309700000.0 11309700000.0 11309700000.0 11309700000.0 11309700000.0 11309700000.0 11309700000.0 11309700000.0 11309700000.0 11309700000.0 11309700000.0 11309700000.0 11309700000.0 11309700000.0 11309700000.0 11309700000.0 11309700000.0 11309700000.0 11309700000.0 11309700000.0 11309700000.0 11309700000.0 11309700000.0 11309700000.0 11309700000.0 11309700000.0 11309700000.0 11309700000.0 11309700000.0 11309700000.0 11309700000.0 11309700000.0 11309700000.0 11309700000.0 11309700000.0 11309700000.0 11309700000.0 11309700000.0 11309700000.0 11309700000.0 11309700000.0 11309700000.0 11309700000.0 11309700000.0 11309700000.0 11309700000.0 11309700000.0 11309700000.0 11309700000.0 11309700000.0 11309700000.0 11309700000.0 11309700000.0 11309700000.0 11309700000.0 11309700000.0 11309700000.0 11309700000.0 11309700000.0 11309700000.0 11309700000.0 11309700000.0 11309700000.0 11309700000.0 11309700000.0 11309700000.0 11309700000.0 11309700000.0 11309700000.0 11309700000.0 11309700000.0 11309700000.0 11309700000.0 11309700000.0 11309700000.0 11309700000.0 11309700000.0 11309700000.0 11309700000.0 11309700000.0 11309700000.0 11309700000.0 11309700000.0 11309700000.0 11309700000.0 11309700000.0 11309700000.0 11309700000.0 11309700000.0 11309700000.0 11309700000.0 11309700000.0 11309700000.0 11309700000.0 11309700000.0 11309700000.0 11309700000.0 11309700000.0 11309700000.0 11309700000.0 11309700000.0 11309700000.0 11309700000.0 11309700000.0 11309700000.0 11309700000.0 11309700000.0 11309700000.0 11309700000.0 11309700000.0 11309700000.0 11309700000.0 11309700000.0 11309700000.0 11309700000.0 11309700000.0 11309700000.0 11309700000.0 11309700000.0 11309700000.0 11309700000.0 11309700000.0 11309700000.0 11309700000.0 11309700000.0 11309700000.0 11309700000.0 11309700000.0 11309700000.0 11309700000.0 11309700000.0 11309700000.0 11309700000.0 11309700000.0 11309700000.0 11309700000.0 11309700000.0 11309700000.0 11309700000.0 11309700000.0 11309700000.0 11309700000.0 11309700000.0 11309700000.0 11309700000.0 11309700000.0 11309700000.0 11309700000.0 11309700000.0 11309700000.0 11309700000.0 11309700000.0 11309700000.0 11309700000.0 11309700000.0 11309700000.0 11309700000.0 11309700000.0 11309700000.0 11309700000.0 11309700000.0 11309700000.0 11309700000.0 11309700000.0 11309700000.0 11309700000.0 11309700000.0 11309700000.0 11309700000.0 11309700000.0 11309700000.0 11309700000.0 11309700000.0 11309700000.0 11309700000.0 11309700000.0 11309700000.0 11309700000.0 11309700000.0 11309700000.0 11309700000.0 11309700000.0 11309700000.0 11309700000.0 11309700000.0 11309700000.0 11309700000.0 11309700000.0 11309700000.0 11309700000.0 11309700000.0 11309700000.0 11309700000.0 11309700000.0 11309700000.0 11309700000.0 11309700000.0 11309700000.0 11309700000.0 11309700000.0 11309700000.0 11309700000.0 11309700000.0 11309700000.0 11309700000.0 11309700000.0 11309700000.0 11309700000.0 11309700000.0 11309700000.0 11309700000.0 11309700000.0 11309700000.0 11309700000.0 11309700000.0 11309700000.0 11309700000.0 11309700000.0 11309700000.0 11309700000.0 11309700000.0 11309700000.0 11309700000.0 11309700000.0 11309700000.0 11309700000.0 11309700000.0 11309700000.0 11309700000.0 11309700000.0 11309700000.0 11309700000.0 11309700000.0 11309700000.0 11309700000.0 11309700000.0 11309700000.0 11309700000.0 11309700000.0 11309700000.0 11309700000.0 11309700000.0 11309700000.0 11309700000.0 11309700000.0 11309700000.0 11309700000.0 11309700000.0 11309700000.0 11309700000.0 11309700000.0 11309700000.0 11309700000.0 11309700000.0 11309700000.0 11309700000.0 11309700000.0 11309700000.0 11309700000.0 11309700000.0 11309700000.0 11309700000.0 11309700000.0 11309700000.0 11309700000.0 11309700000.0 11309700000.0 11309700000.0 11309700000.0 11309700000.0 11309700000.0 11309700000.0 11309700000.0 11309700000.0 11309700000.0 11309700000.0 11309700000.0 11309700000.0 11309700000.0 11309700000.0 11309700000.0 11309700000.0 11309700000.0 11309700000.0 11309700000.0 11309700000.0 11309700000.0 11309700000.0 11309700000.0 11309700000.0 11309700000.0 11309700000.0 11309700000.0 11309700000.0 11309700000.0 11309700000.0 11309700000.0 11309700000.0 11309700000.0 11309700000.0 11309700000.0 11309700000.0 11309700000.0 11309700000.0 11309700000.0 11309700000.0 11309700000.0 11309700000.0 11309700000.0 11309700000.0 11309700000.0 11309700000.0 11309700000.0 11309700000.0 11309700000.0 11309700000.0 11309700000.0 11309700000.0 11309700000.0 11309700000.0 11309700000.0 11309700000.0 11309700000.0 11309700000.0 11309700000.0 11309700000.0 11309700000.0 11309700000.0 11309700000.0 11309700000.0 11309700000.0 11309700000.0 11309700000.0 11309700000.0 11309700000.0 11309700000.0 11309700000.0 11309700000.0 11309700000.0 11309700000.0 11309700000.0 11309700000.0 11309700000.0 11309700000.0 11309700000.0 11309700000.0 11309700000.0 11309700000.0 11309700000.0 11309700000.0 11309700000.0 11309700000.0 11309700000.0 11309700000.0 11309700000.0 11309700000.0 11309700000.0 11309700000.0 11309700000.0 11309700000.0 11309700000.0 11309700000.0 11309700000.0 11309700000.0 11309700000.0 11309700000.0 11309700000.0 11309700000.0 11309700000.0 11309700000.0 11309700000.0 11309700000.0 11309700000.0 11309700000.0 11309700000.0 11309700000.0 11309700000.0 11309700000.0 11309700000.0 11309700000.0 11309700000.0 11309700000.0 11309700000.0 11309700000.0 11309700000.0 11309700000.0 11309700000.0 11309700000.0 11309700000.0 11309700000.0 11309700000.0 11309700000.0 11309700000.0 11309700000.0 11309700000.0 11309700000.0 11309700000.0 11309700000.0 11309700000.0 11309700000.0 11309700000.0 11309700000.0 11309700000.0 11309700000.0 11309700000.0 11309700000.0 11309700000.0 11309700000.0 11309700000.0 11309700000.0 11309700000.0 11309700000.0 11309700000.0 11309700000.0 11309700000.0 11309700000.0 11309700000.0 11309700000.0 11309700000.0 11309700000.0 11309700000.0 11309700000.0 11309700000.0 11309700000.0 11309700000.0 11309700000.0 11309700000.0 11309700000.0 11309700000.0 11309700000.0 11309700000.0 11309700000.0 11309700000.0 11309700000.0 11309700000.0 11309700000.0 11309700000.0 11309700000.0 11309700000.0 11309700000.0 11309700000.0 11309700000.0 11309700000.0 11309700000.0 11309700000.0 11309700000.0 11309700000.0 11309700000.0 11309700000.0 11309700000.0 11309700000.0 11309700000.0 11309700000.0 11309700000.0 11309700000.0 11309700000.0 11309700000.0 11309700000.0 11309700000.0 11309700000.0 11309700000.0 11309700000.0 11309700000.0 11309700000.0 11309700000.0 11309700000.0 11309700000.0 11309700000.0 11309700000.0 11309700000.0 11309700000.0 11309700000.0 11309700000.0 11309700000.0 11309700000.0 11309700000.0 11309700000.0 11309700000.0 11309700000.0 11309700000.0 11309700000.0 11309700000.0 11309700000.0 11309700000.0 11309700000.0 11309700000.0 11309700000.0 11309700000.0 11309700000.0 11309700000.0 11309700000.0 11309700000.0 11309700000.0 11309700000.0 11309700000.0 11309700000.0 11309700000.0 11309700000.0 11309700000.0 11309700000.0 11309700000.0 11309700000.0 11309700000.0 11309700000.0 11309700000.0 11309700000.0 11309700000.0 11309700000.0 11309700000.0 11309700000.0 11309700000.0 11309700000.0 11309700000.0 11309700000.0 11309700000.0 11309700000.0 11309700000.0 11309700000.0 11309700000.0 11309700000.0 11309700000.0 11309700000.0 11309700000.0 11309700000.0 11309700000.0 11309700000.0 11309700000.0 11309700000.0 11309700000.0 11309700000.0 11309700000.0 11309700000.0 11309700000.0 11309700000.0 11309700000.0 11309700000.0 11309700000.0 11309700000.0 11309700000.0 11309700000.0 11309700000.0 11309700000.0 11309700000.0 11309700000.0 11309700000.0 11309700000.0 11309700000.0 11309700000.0 11309700000.0 11309700000.0 11309700000.0 11309700000.0 11309700000.0 11309700000.0 11309700000.0 11309700000.0 11309700000.0 11309700000.0 11309700000.0 11309700000.0 11309700000.0 11309700000.0 11309700000.0 11309700000.0 11309700000.0 11309700000.0 11309700000.0 11309700000.0 11309700000.0 11309700000.0 11309700000.0 11309700000.0 11309700000.0 11309700000.0 11309700000.0 11309700000.0 11309700000.0 11309700000.0 11309700000.0 11309700000.0 11309700000.0 11309700000.0 11309700000.0 11309700000.0 11309700000.0 11309700000.0 11309700000.0 11309700000.0 11309700000.0 11309700000.0 11309700000.0 11309700000.0 11309700000.0 11309700000.0 11309700000.0 11309700000.0 11309700000.0 11309700000.0 11309700000.0 11309700000.0 11309700000.0 11309700000.0 11309700000.0 11309700000.0 11309700000.0 11309700000.0 11309700000.0 11309700000.0 11309700000.0 11309700000.0 11309700000.0 11309700000.0 11309700000.0 11309700000.0 11309700000.0 11309700000.0 11309700000.0 11309700000.0 11309700000.0 11309700000.0 11309700000.0 11309700000.0 11309700000.0 11309700000.0 11309700000.0 11309700000.0 11309700000.0 11309700000.0 11309700000.0 11309700000.0 11309700000.0 11309700000.0 11309700000.0 11309700000.0 11309700000.0 11309700000.0 11309700000.0 11309700000.0 11309700000.0 11309700000.0 11309700000.0 11309700000.0 11309700000.0 11309700000.0 11309700000.0 11309700000.0 11309700000.0 11309700000.0 11309700000.0 11309700000.0 11309700000.0 11309700000.0 11309700000.0 11309700000.0 11309700000.0 11309700000.0 11309700000.0 11309700000.0 11309700000.0 11309700000.0 11309700000.0 11309700000.0 11309700000.0 11309700000.0 11309700000.0 11309700000.0 11309700000.0 11309700000.0 11309700000.0 11309700000.0 11309700000.0 11309700000.0 11309700000.0 11309700000.0 11309700000.0 11309700000.0 11309700000.0 11309700000.0 11309700000.0 11309700000.0 11309700000.0 11309700000.0 11309700000.0 11309700000.0 11309700000.0 11309700000.0 11309700000.0 11309700000.0 11309700000.0 11309700000.0 11309700000.0 11309700000.0 11309700000.0 11309700000.0 11309700000.0 11309700000.0 11309700000.0 11309700000.0 11309700000.0 11309700000.0 11309700000.0 11309700000.0 11309700000.0 11309700000.0 11309700000.0 11309700000.0 11309700000.0 11309700000.0 11309700000.0 11309700000.0 11309700000.0 11309700000.0 11309700000.0 11309700000.0 11309700000.0 11309700000.0 11309700000.0 11309700000.0 11309700000.0 11309700000.0 11309700000.0 11309700000.0 11309700000.0 11309700000.0 11309700000.0 11309700000.0 11309700000.0 11309700000.0 11309700000.0 11309700000.0 11309700000.0 11309700000.0 11309700000.0 11309700000.0 11309700000.0 11309700000.0 11309700000.0 11309700000.0 11309700000.0 11309700000.0 11309700000.0 11309700000.0 11309700000.0 11309700000.0 11309700000.0 11309700000.0 11309700000.0 11309700000.0 11309700000.0 11309700000.0 11309700000.0 11309700000.0 11309700000.0 11309700000.0 11309700000.0 11309700000.0 11309700000.0 11309700000.0 11309700000.0 11309700000.0 11309700000.0 11309700000.0 11309700000.0 11309700000.0 11309700000.0 11309700000.0 11309700000.0 11309700000.0 11309700000.0 11309700000.0 11309700000.0 11309700000.0 11309700000.0 11309700000.0 11309700000.0 11309700000.0 11309700000.0 11309700000.0 11309700000.0 11309700000.0 11309700000.0 11309700000.0 11309700000.0 11309700000.0 11309700000.0 11309700000.0 11309700000.0 11309700000.0 11309700000.0 11309700000.0 11309700000.0 11309700000.0 11309700000.0 11309700000.0 11309700000.0 11309700000.0 11309700000.0 11309700000.0 11309700000.0 11309700000.0 11309700000.0 11309700000.0 11309700000.0 11309700000.0 11309700000.0 11309700000.0 11309700000.0 11309700000.0 11309700000.0 11309700000.0 11309700000.0 11309700000.0 11309700000.0 11309700000.0 11309700000.0 11309700000.0 11309700000.0 11309700000.0 11309700000.0 11309700000.0 11309700000.0 11309700000.0 11309700000.0 11309700000.0 11309700000.0 11309700000.0 11309700000.0 11309700000.0 11309700000.0 11309700000.0 11309700000.0 11309700000.0 11309700000.0 11309700000.0 11309700000.0 11309700000.0 11309700000.0 11309700000.0 11309700000.0 11309700000.0 11309700000.0 11309700000.0 11309700000.0 11309700000.0 11309700000.0 11309700000.0 11309700000.0 11309700000.0 11309700000.0 11309700000.0 11309700000.0 11309700000.0 11309700000.0 11309700000.0 11309700000.0 11309700000.0 11309700000.0 11309700000.0 11309700000.0 11309700000.0 11309700000.0 11309700000.0 11309700000.0 11309700000.0 11309700000.0 11309700000.0 11309700000.0 11309700000.0 11309700000.0 11309700000.0 11309700000.0 11309700000.0 11309700000.0 11309700000.0 11309700000.0 11309700000.0 11309700000.0 11309700000.0 11309700000.0 11309700000.0 11309700000.0 11309700000.0 11309700000.0 11309700000.0 11309700000.0 11309700000.0 11309700000.0 11309700000.0 11309700000.0 11309700000.0 11309700000.0 11309700000.0 11309700000.0 11309700000.0 11309700000.0 11309700000.0 11309700000.0 11309700000.0 11309700000.0 11309700000.0 11309700000.0 11309700000.0 11309700000.0 11309700000.0 11309700000.0 11309700000.0 11309700000.0 11309700000.0 11309700000.0 11309700000.0 11309700000.0 11309700000.0 11309700000.0 11309700000.0 11309700000.0 11309700000.0 11309700000.0 11309700000.0 11309700000.0 11309700000.0 11309700000.0 11309700000.0 11309700000.0 11309700000.0 11309700000.0 11309700000.0 11309700000.0 11309700000.0 11309700000.0 11309700000.0 11309700000.0 11309700000.0 11309700000.0 11309700000.0 11309700000.0 11309700000.0 11309700000.0 11309700000.0 11309700000.0 11309700000.0 11309700000.0 11309700000.0 11309700000.0 11309700000.0 11309700000.0 11309700000.0 11309700000.0 11309700000.0 11309700000.0 11309700000.0 11309700000.0 11309700000.0 11309700000.0 11309700000.0 11309700000.0 11309700000.0 11309700000.0 11309700000.0 11309700000.0 11309700000.0 11309700000.0 11309700000.0 11309700000.0 11309700000.0 11309700000.0 11309700000.0 11309700000.0 11309700000.0 11309700000.0 11309700000.0 11309700000.0 11309700000.0 11309700000.0 11309700000.0 11309700000.0 11309700000.0 11309700000.0 11309700000.0 11309700000.0 11309700000.0 11309700000.0 11309700000.0 11309700000.0 11309700000.0 11309700000.0 11309700000.0 11309700000.0 11309700000.0 11309700000.0 11309700000.0 11309700000.0 11309700000.0 11309700000.0 11309700000.0 11309700000.0 11309700000.0 11309700000.0 11309700000.0 11309700000.0 11309700000.0 11309700000.0 11309700000.0 11309700000.0 11309700000.0 11309700000.0 11309700000.0 11309700000.0 11309700000.0 11309700000.0 11309700000.0 11309700000.0 11309700000.0 11309700000.0 11309700000.0 11309700000.0 11309700000.0 11309700000.0 11309700000.0 11309700000.0 11309700000.0 11309700000.0 11309700000.0 11309700000.0 11309700000.0 11309700000.0 11309700000.0 11309700000.0 11309700000.0 11309700000.0 11309700000.0 11309700000.0 11309700000.0 11309700000.0 11309700000.0 11309700000.0 11309700000.0 11309700000.0 11309700000.0 11309700000.0 11309700000.0 11309700000.0 11309700000.0 11309700000.0 11309700000.0 11309700000.0 11309700000.0 11309700000.0 11309700000.0 11309700000.0 11309700000.0 11309700000.0 11309700000.0 11309700000.0 11309700000.0 11309700000.0 11309700000.0 11309700000.0 11309700000.0 11309700000.0 11309700000.0 11309700000.0 11309700000.0 11309700000.0 11309700000.0 11309700000.0 11309700000.0 11309700000.0 11309700000.0 11309700000.0 11309700000.0 11309700000.0 11309700000.0 11309700000.0 11309700000.0 11309700000.0 11309700000.0 11309700000.0 11309700000.0 11309700000.0 11309700000.0 11309700000.0 11309700000.0 11309700000.0 11309700000.0 11309700000.0 11309700000.0 11309700000.0 11309700000.0 11309700000.0 11309700000.0 11309700000.0 11309700000.0 11309700000.0 11309700000.0 11309700000.0 11309700000.0 11309700000.0 11309700000.0 11309700000.0 11309700000.0 11309700000.0 11309700000.0 11309700000.0 11309700000.0 11309700000.0 11309700000.0 11309700000.0 11309700000.0 11309700000.0 11309700000.0 11309700000.0 11309700000.0 11309700000.0 11309700000.0 11309700000.0 11309700000.0 11309700000.0 11309700000.0 11309700000.0 11309700000.0 11309700000.0 11309700000.0 11309700000.0 11309700000.0 11309700000.0 11309700000.0 11309700000.0 11309700000.0 11309700000.0 11309700000.0 11309700000.0 11309700000.0 11309700000.0 11309700000.0 11309700000.0 11309700000.0 11309700000.0 11309700000.0 11309700000.0 11309700000.0 11309700000.0 11309700000.0 11309700000.0 11309700000.0 11309700000.0 11309700000.0 11309700000.0 11309700000.0 11309700000.0 11309700000.0 11309700000.0 11309700000.0 11309700000.0 11309700000.0 11309700000.0 11309700000.0 11309700000.0 11309700000.0 11309700000.0 11309700000.0 11309700000.0 11309700000.0 11309700000.0 11309700000.0 11309700000.0 11309700000.0 11309700000.0 11309700000.0 11309700000.0 11309700000.0 11309700000.0 11309700000.0 11309700000.0 11309700000.0 11309700000.0 11309700000.0 11309700000.0 11309700000.0 11309700000.0 11309700000.0 11309700000.0 11309700000.0 11309700000.0 11309700000.0 11309700000.0 11309700000.0 11309700000.0 11309700000.0 11309700000.0 11309700000.0 11309700000.0 11309700000.0 11309700000.0 11309700000.0 11309700000.0 11309700000.0 11309700000.0 11309700000.0 11309700000.0 11309700000.0 11309700000.0 11309700000.0 11309700000.0 11309700000.0 11309700000.0 11309700000.0 11309700000.0 11309700000.0 11309700000.0 11309700000.0 11309700000.0 11309700000.0 11309700000.0 11309700000.0 11309700000.0 11309700000.0 11309700000.0 11309700000.0 11309700000.0 11309700000.0 11309700000.0 11309700000.0 11309700000.0 11309700000.0 11309700000.0 11309700000.0 11309700000.0 11309700000.0 11309700000.0 11309700000.0 11309700000.0 11309700000.0 11309700000.0 11309700000.0 11309700000.0 11309700000.0 11309700000.0 11309700000.0 11309700000.0 11309700000.0 11309700000.0 11309700000.0 11309700000.0 11309700000.0 11309700000.0 11309700000.0 11309700000.0 11309700000.0 11309700000.0 11309700000.0 11309700000.0 11309700000.0 11309700000.0 11309700000.0 11309700000.0 11309700000.0 11309700000.0 11309700000.0 11309700000.0 11309700000.0 11309700000.0 11309700000.0 11309700000.0 11309700000.0 11309700000.0 11309700000.0 11309700000.0 11309700000.0 11309700000.0 11309700000.0 11309700000.0 11309700000.0 11309700000.0 11309700000.0 11309700000.0 11309700000.0 11309700000.0 11309700000.0 11309700000.0 11309700000.0 11309700000.0 11309700000.0 11309700000.0 11309700000.0 11309700000.0 11309700000.0 11309700000.0 11309700000.0 11309700000.0 11309700000.0 11309700000.0 11309700000.0 11309700000.0 11309700000.0 11309700000.0 11309700000.0 11309700000.0 11309700000.0 11309700000.0 11309700000.0 11309700000.0 11309700000.0 11309700000.0 11309700000.0 11309700000.0 11309700000.0 11309700000.0 11309700000.0 11309700000.0 11309700000.0 11309700000.0 11309700000.0 11309700000.0 11309700000.0 11309700000.0 11309700000.0 11309700000.0 11309700000.0 11309700000.0 11309700000.0 11309700000.0 11309700000.0 11309700000.0 11309700000.0 11309700000.0 11309700000.0 11309700000.0 11309700000.0 11309700000.0 11309700000.0 11309700000.0 11309700000.0 11309700000.0 11309700000.0 11309700000.0 11309700000.0 11309700000.0 11309700000.0 11309700000.0 11309700000.0 11309700000.0 11309700000.0 11309700000.0 11309700000.0 11309700000.0 11309700000.0 11309700000.0 11309700000.0 11309700000.0 11309700000.0 11309700000.0 11309700000.0 11309700000.0 11309700000.0 11309700000.0 11309700000.0 11309700000.0 11309700000.0 11309700000.0 11309700000.0 11309700000.0 11309700000.0 11309700000.0 11309700000.0 11309700000.0 11309700000.0 11309700000.0 11309700000.0 11309700000.0 11309700000.0 11309700000.0 11309700000.0 11309700000.0 11309700000.0 11309700000.0 11309700000.0 11309700000.0 11309700000.0 11309700000.0 11309700000.0 11309700000.0 11309700000.0 11309700000.0 11309700000.0 11309700000.0 11309700000.0 11309700000.0 11309700000.0 11309700000.0 11309700000.0 11309700000.0 11309700000.0 11309700000.0 11309700000.0 11309700000.0 11309700000.0 11309700000.0 11309700000.0 11309700000.0 11309700000.0 11309700000.0 11309700000.0 11309700000.0 11309700000.0 11309700000.0 11309700000.0 11309700000.0 11309700000.0 11309700000.0 11309700000.0 11309700000.0 11309700000.0 11309700000.0 11309700000.0 11309700000.0 11309700000.0 11309700000.0 11309700000.0 11309700000.0 11309700000.0 11309700000.0 11309700000.0 11309700000.0 11309700000.0 11309700000.0 11309700000.0 11309700000.0 11309700000.0 11309700000.0 11309700000.0 11309700000.0 11309700000.0 11309700000.0 11309700000.0 11309700000.0 11309700000.0 11309700000.0 11309700000.0 11309700000.0 11309700000.0 11309700000.0 11309700000.0 11309700000.0 11309700000.0 11309700000.0 11309700000.0 11309700000.0 11309700000.0 11309700000.0 11309700000.0 11309700000.0 11309700000.0 11309700000.0 11309700000.0 11309700000.0 11309700000.0 11309700000.0 11309700000.0 11309700000.0 11309700000.0 11309700000.0 11309700000.0 11309700000.0 11309700000.0 11309700000.0 11309700000.0 11309700000.0 11309700000.0 11309700000.0 11309700000.0 11309700000.0 11309700000.0 11309700000.0 11309700000.0 11309700000.0 11309700000.0 11309700000.0 11309700000.0 11309700000.0 11309700000.0 11309700000.0 11309700000.0 11309700000.0 11309700000.0 11309700000.0 11309700000.0 11309700000.0 11309700000.0 11309700000.0 11309700000.0 11309700000.0 11309700000.0 11309700000.0 11309700000.0 11309700000.0 11309700000.0 11309700000.0 11309700000.0 11309700000.0 11309700000.0 11309700000.0 11309700000.0 11309700000.0 11309700000.0 11309700000.0 11309700000.0 11309700000.0 11309700000.0 11309700000.0 11309700000.0 11309700000.0 11309700000.0 11309700000.0 11309700000.0 11309700000.0 11309700000.0 11309700000.0 11309700000.0 11309700000.0 11309700000.0 11309700000.0 11309700000.0 11309700000.0 11309700000.0 11309700000.0 11309700000.0 11309700000.0 11309700000.0 11309700000.0 11309700000.0 11309700000.0 11309700000.0 11309700000.0 11309700000.0 11309700000.0 11309700000.0 11309700000.0 11309700000.0 11309700000.0 11309700000.0 11309700000.0 11309700000.0 11309700000.0 11309700000.0 11309700000.0 11309700000.0 11309700000.0 11309700000.0 11309700000.0 11309700000.0 11309700000.0 11309700000.0 11309700000.0 11309700000.0 11309700000.0 11309700000.0 11309700000.0 11309700000.0 11309700000.0 11309700000.0 11309700000.0 11309700000.0 11309700000.0 11309700000.0 11309700000.0 11309700000.0 11309700000.0 11309700000.0 11309700000.0 11309700000.0 11309700000.0 11309700000.0 11309700000.0 11309700000.0 11309700000.0 11309700000.0 11309700000.0 11309700000.0 11309700000.0 11309700000.0 11309700000.0 11309700000.0 11309700000.0 11309700000.0 11309700000.0 11309700000.0 11309700000.0 11309700000.0 11309700000.0 11309700000.0 11309700000.0 11309700000.0 11309700000.0 11309700000.0 11309700000.0 11309700000.0 11309700000.0 11309700000.0 11309700000.0 11309700000.0 11309700000.0 11309700000.0 11309700000.0 11309700000.0 11309700000.0 11309700000.0 11309700000.0 11309700000.0 11309700000.0 11309700000.0 11309700000.0 11309700000.0 11309700000.0 11309700000.0 11309700000.0 11309700000.0 11309700000.0 11309700000.0 11309700000.0 11309700000.0 11309700000.0 11309700000.0 11309700000.0 11309700000.0 11309700000.0 11309700000.0 11309700000.0 11309700000.0 11309700000.0 11309700000.0 11309700000.0 11309700000.0 11309700000.0 11309700000.0 11309700000.0 11309700000.0 11309700000.0 11309700000.0 11309700000.0 11309700000.0 11309700000.0 11309700000.0 11309700000.0 11309700000.0 11309700000.0 11309700000.0 11309700000.0 11309700000.0 11309700000.0 11309700000.0 11309700000.0 11309700000.0 11309700000.0 11309700000.0 11309700000.0 11309700000.0 11309700000.0 11309700000.0 11309700000.0 11309700000.0 11309700000.0 11309700000.0 11309700000.0 11309700000.0 11309700000.0 11309700000.0 11309700000.0 11309700000.0 11309700000.0 11309700000.0 11309700000.0 11309700000.0 11309700000.0 11309700000.0 11309700000.0 11309700000.0 11309700000.0 11309700000.0 11309700000.0 11309700000.0 11309700000.0 11309700000.0 11309700000.0 11309700000.0 11309700000.0 11309700000.0 11309700000.0 11309700000.0 11309700000.0 11309700000.0 11309700000.0 11309700000.0 11309700000.0 11309700000.0 11309700000.0 11309700000.0 11309700000.0 11309700000.0 11309700000.0 11309700000.0 11309700000.0 11309700000.0 11309700000.0 11309700000.0 11309700000.0 11309700000.0 11309700000.0 11309700000.0 11309700000.0 11309700000.0 11309700000.0 11309700000.0 11309700000.0 11309700000.0 11309700000.0 11309700000.0 11309700000.0 11309700000.0 11309700000.0 11309700000.0 11309700000.0 11309700000.0 11309700000.0 11309700000.0 11309700000.0 11309700000.0 11309700000.0 11309700000.0 11309700000.0 11309700000.0 11309700000.0 11309700000.0 11309700000.0 11309700000.0 11309700000.0 11309700000.0 11309700000.0 11309700000.0 11309700000.0 11309700000.0 11309700000.0 11309700000.0 11309700000.0 11309700000.0 11309700000.0 11309700000.0 11309700000.0 11309700000.0 11309700000.0 11309700000.0 11309700000.0 11309700000.0 11309700000.0 11309700000.0 11309700000.0 11309700000.0 11309700000.0 11309700000.0 11309700000.0 11309700000.0 11309700000.0 11309700000.0 11309700000.0 11309700000.0 11309700000.0 11309700000.0 11309700000.0 11309700000.0 11309700000.0 11309700000.0 11309700000.0 11309700000.0 11309700000.0 11309700000.0 11309700000.0 11309700000.0 11309700000.0 11309700000.0 11309700000.0 11309700000.0 11309700000.0 11309700000.0 11309700000.0 11309700000.0 11309700000.0 11309700000.0 11309700000.0 11309700000.0 11309700000.0 11309700000.0 11309700000.0 11309700000.0 11309700000.0 11309700000.0 11309700000.0 11309700000.0 11309700000.0 11309700000.0 11309700000.0 11309700000.0 11309700000.0 11309700000.0 11309700000.0 11309700000.0 11309700000.0 11309700000.0 11309700000.0 11309700000.0 11309700000.0 11309700000.0 11309700000.0 11309700000.0 11309700000.0 11309700000.0 11309700000.0 11309700000.0 11309700000.0 11309700000.0 11309700000.0 11309700000.0 11309700000.0 11309700000.0 11309700000.0 11309700000.0 11309700000.0 11309700000.0 11309700000.0 11309700000.0 11309700000.0 11309700000.0 11309700000.0 11309700000.0 11309700000.0 11309700000.0 11309700000.0 11309700000.0 11309700000.0 11309700000.0 11309700000.0 11309700000.0 11309700000.0 11309700000.0 11309700000.0 11309700000.0 11309700000.0 11309700000.0 11309700000.0 11309700000.0 11309700000.0 11309700000.0 11309700000.0 11309700000.0 11309700000.0 11309700000.0 11309700000.0 11309700000.0 11309700000.0 11309700000.0 11309700000.0 11309700000.0 11309700000.0 11309700000.0 11309700000.0 11309700000.0 11309700000.0 11309700000.0 11309700000.0 11309700000.0 11309700000.0 11309700000.0 11309700000.0 11309700000.0 11309700000.0 11309700000.0 11309700000.0 11309700000.0 11309700000.0 11309700000.0 11309700000.0 11309700000.0 11309700000.0 11309700000.0 11309700000.0 11309700000.0 11309700000.0 11309700000.0 11309700000.0 11309700000.0 11309700000.0 11309700000.0 11309700000.0 11309700000.0 11309700000.0 11309700000.0 11309700000.0 11309700000.0 11309700000.0 11309700000.0 11309700000.0 11309700000.0 11309700000.0 11309700000.0 11309700000.0 
SCALARS Velocity float 1
LOOKUP_TABLE default
1.08054 1.07698 1.09057 1.10386 1.09055 1.09412 1.09446 1.09438 1.08908 0.989098 1.04634 1.08089 1.08017 1.07542 1.07488 1.07578 1.07647 1.07774 1.07869 1.0941 1.08306 1.08878 1.09278 1.09496 1.09157 1.07283 1.02348 1.08289 1.07731 1.07546 1.07532 1.07706 1.10446 1.09422 1.08706 1.09065 1.094 1.09467 1.08727 1.0101 1.08659 1.07931 1.07495 1.07507 1.07491 1.07572 1.07867 1.10378 1.08314 1.08875 1.09225 1.09325 1.09484 1.09451 1.09228 1.08561 1.07209 1.04749 0.967206 1.08687 1.08399 1.08077 1.078 1.07653 1.07491 1.07477 1.07453 1.07488 1.07511 1.07552 1.0761 1.0781 1.09325 1.08341 1.08689 1.08775 1.08995 1.0911 1.0936 1.09117 1.06997 1.01249 1.08462 1.0798 1.07591 1.07436 1.07501 1.07596 1.10294 1.09169 1.08621 1.08891 1.09165 1.0923 1.08336 1.04448 1.08096 1.08159 1.0772 1.07464 1.07415 1.07471 1.07544 1.077 1.10179 1.08366 1.08725 1.08962 1.08939 1.09095 1.08856 1.08838 1.08187 1.06592 1.09606 1.09237 1.0843 1.08129 1.07974 1.07853 1.07636 1.07541 1.07431 1.07403 1.07386 1.07436 1.07468 1.07496 1.07677 1.07776 1.08412 1.0843 1.08567 1.08658 1.08792 1.08796 1.08789 1.08493 1.09372 1.09128 1.08155 1.07753 1.07489 1.07376 1.07408 1.07639 1.0724 1.08185 1.08331 1.08542 1.08679 1.08712 1.08553 1.08604 1.09353 1.08549 1.0792 1.07565 1.07397 1.07371 1.074 1.0736 1.07018 1.07871 1.08404 1.08594 1.08626 1.08512 1.08551 1.08426 1.08468 1.08574 1.09036 1.08966 1.08947 1.08481 1.08191 1.07891 1.07698 1.07516 1.07437 1.07366 1.07358 1.07374 1.07352 1.07348 1.06941 1.07256 1.08113 1.08498 1.08524 1.08567 1.0847 1.0838 1.08387 1.08703 1.08653 1.08112 1.07633 1.07393 1.07357 1.0724 1.07163 1.06936 1.0698 1.07129 1.07627 1.07914 1.08308 1.08445 1.08456 1.0833 1.0828 1.08397 1.08577 1.08284 1.0779 1.07442 1.07346 1.07405 1.07305 1.07065 1.0688 1.07366 1.08249 1.08453 1.08319 1.0815 1.08192 1.08058 1.08203 1.08109 1.08357 1.08196 1.08322 1.08045 1.07945 1.07627 1.07521 1.07337 1.07338 1.07337 1.07379 1.07474 1.07314 1.07186 1.06866 1.06893 1.07702 1.0843 1.08382 1.08339 1.08169 1.07975 1.07917 1.0797 1.07989 1.07743 1.07358 1.07271 1.07435 1.07199 1.07005 1.06752 1.067 1.06557 1.07005 1.07392 1.08277 1.08418 1.08233 1.07967 1.078 1.07746 1.0778 1.07801 1.07418 1.07195 1.07347 1.07595 1.07402 1.06986 1.06422 1.06569 1.07227 1.08341 1.08049 1.07805 1.07761 1.07549 1.07602 1.07354 1.0753 1.07301 1.07615 1.07564 1.07508 1.07141 1.07138 1.07014 1.07197 1.07392 1.07541 1.07786 1.07586 1.07294 1.07026 1.06626 1.06081 1.06018 1.07293 1.07097 1.08193 1.07998 1.07558 1.0731 1.07048 1.07162 1.07226 1.06849 1.07135 1.0772 1.07492 1.06512 1.0533 1.05662 1.07342 1.07166 1.07121 1.0708 1.07042 1.07649 1.07328 1.0703 1.0669 1.07371 1.0677 1.06829 1.07503 1.08069 1.07887 1.07153 1.05664 1.04364 1.07146 1.07166 1.07433 1.07363 1.07207 1.07111 1.06849 1.06693 1.06339 1.06318 1.06379 1.06793 1.06508 1.06571 1.06695 1.07115 1.07709 1.08003 1.08449 1.08309 1.07823 1.07389 1.06426 1.05157 1.04378 1.02635 1.07252 1.07162 1.06063 1.06127 1.0727 1.07035 1.0655 1.06184 1.0526 1.06403 1.07152 1.08392 1.0829 1.06367 1.03204 1.07006 1.07074 1.05743 1.0628 1.07147 1.07182 1.07175 1.07031 1.06809 1.06555 1.06298 1.05958 1.05838 1.048 1.04009 1.03069 1.0667 1.08004 1.08891 1.08846 1.08893 1.07722 1.06258 1.04561 1.01846 1.00381 1.05379 1.0601 1.0686 1.07139 1.06836 1.06214 1.05268 1.03627 1.03229 1.0469 1.07191 1.08337 1.08833 1.09284 1.09465 1.08105 1.03602 0.979012 1.05071 1.05 1.05571 1.05817 1.06287 1.06675 1.07027 1.07038 1.06553 1.05633 1.04154 1.02868 1.0339 1.06953 1.09136 1.09543 1.05918 0.996184 0.957601 1.04568 1.04233 1.05142 1.06133 1.06898 1.07071 1.07028 1.06859 1.06547 1.06088 1.0534 1.04704 1.03545 1.03098 1.02514 1.05086 1.08305 1.0953 1.10042 1.10038 1.08441 1.05281 1.01915 0.964775 1.04088 1.0418 1.0547 1.06506 1.0701 1.06882 1.06023 1.04292 1.02632 1.0353 1.05304 1.06948 1.08242 1.09183 1.09572 1.10399 1.08525 0.999128 0.995201 1.00093 1.03099 1.0311 1.04491 1.0507 1.05912 1.06343 1.06779 1.07027 1.06592 1.0523 1.0316 1.01854 1.03603 1.06857 1.09068 1.10477 1.099 1.07741 1.04232 1.1365 1.0226 0.964327 1.005 1.03839 1.05686 1.06675 1.06954 1.0705 1.06951 1.06761 1.06102 1.05373 1.04192 1.03271 1.02375 1.00507 1.05327 1.07922 1.0883 1.09469 1.085 1.22595 0.974005 0.969183 1.01875 1.04723 1.06195 1.06915 1.07068 1.06462 1.04332 1.02969 1.04239 1.04247 1.0619 1.07468 1.09176 1.11283 1.19671 1.23447 1.22785 1.14101 0.908084 0.936396 0.962913 0.991736 1.01321 1.03266 1.04397 1.05476 1.06053 1.06584 1.069 1.07086 1.07014 1.06008 1.03238 0.98509 1.03618 1.05456 1.085 1.14488 1.21209 1.20428 1.24366 0.929264 0.99162 1.02908 1.05253 1.06514 1.07154 1.07189 1.07238 1.06848 1.06393 1.05502 1.04277 0.96845 1.01739 1.03937 1.03971 1.06884 1.08101 1.08733 1.19468 1.18646 1.17126 1.21063 1.33156 0.820116 0.967524 1.01164 1.04075 1.0591 1.06911 1.07351 1.07223 1.06005 1.07869 1.02961 1.01146 1.06024 1.07796 1.22758 1.20493 1.17791 1.19451 0.806539 0.915551 0.967569 0.992782 1.00633 1.02511 1.03645 1.04995 1.0574 1.06456 1.06969 1.07265 1.07578 1.07506 1.07393 1.06735 1.04092 1.00512 0.98635 1.00921 1.0503 1.07265 1.2066 1.20623 1.16921 1.2262 1.36276 0.934665 0.982626 1.01819 1.04629 1.06406 1.07447 1.07943 1.07742 1.08369 1.0781 1.07463 0.999811 0.972288 1.05682 1.05621 1.251 1.2224 1.20554 1.3142 0.914818 0.952457 0.96499 0.994127 1.00717 1.02979 1.05493 1.07089 1.07944 1.08606 1.08854 1.07952 1.07044 1.03863 1.00873 0.970539 1.06231 1.0169 0.893832 1.24776 1.23304 1.24726 1.22633 1.12554 0.943492 0.923163 0.931595 0.979058 1.01963 1.0405 1.05076 1.06341 1.07346 1.07775 1.08562 1.08624 1.09204 1.08194 1.03435 1.00242 0.925043 1.14968 1.03509 0.940667 1.1511 1.23491 1.2737 1.15181 1.04681 0.923201 0.947868 0.992352 1.03108 1.06242 1.084 1.09356 1.09289 1.09358 1.09069 1.07432 1.05536 1.00735 0.96696 1.25405 0.940688 1.09318 1.07269 1.29557 1.19522 1.18472 1.11568 0.944769 0.917801 0.92488 0.935328 0.962638 0.973592 1.00416 1.01531 1.04334 1.07947 1.09529 1.09571 1.08397 1.03651 1.01217 0.981278 0.983513 0.971981 1.08578 1.1156 1.173 0.997246 1.20606 1.35798 1.20448 1.13385 1.02216 0.938782 0.920364 0.945132 0.980371 1.03141 1.06141 1.09299 1.09628 1.11273 1.10251 1.0963 1.08778 1.05576 0.987727 0.959505 1.02417 0.988923 0.905965 4.24161 0.820648 1.05267 1.14452 1.21006 1.19381 1.13227 1.10884 1.05964 0.988782 0.914104 0.926612 0.946837 0.990634 1.06366 1.12079 1.1189 1.07173 1.06451 1.02632 1.01211 0.972327 0.954536 0.950416 1.03201 0.983433 1.37969 2.57039 0.406883 0.887259 0.815272 0.950147 0.567977 0.80427 0.864735 1.05095 1.00817 1.04446 0.938853 0.926964 0.915303 0.917026 0.923656 0.914691 0.946236 0.961498 1.01638 1.07487 1.12042 1.14796 1.10135 1.0306 0.987425 0.942522 0.935831 0.929756 0.986533 1.04708 0.947975 1.55696 0.19602 0.528349 0.0944055 0.57232 0.674827 0.719638 0.613124 0.757063 1.14895 0.67971 0.813101 1.071 0.947353 0.952335 0.929825 0.922764 0.907795 0.919493 1.0085 1.15824 1.16598 1.21226 1.15847 1.12558 1.03997 0.987417 0.958417 0.92639 0.945153 1.02149 0.963974 1.20641 0.692461 0.959636 0.535636 0.285962 0.405263 0.54614 0.56532 0.56815 0.529141 0.337137 0.710976 0.877178 1.31914 1.10215 0.921436 0.929402 0.93332 0.91091 0.904822 0.962681 1.08542 1.21998 1.23658 0.973677 0.975488 0.949918 0.96247 0.948678 0.936952 0.915095 0.949541 1.03306 1.43527 1.02366 0.311251 0.336027 0.493561 0.523342 0.49559 0.532274 0.519828 0.511187 0.562126 0.581936 0.570533 0.778207 1.3433 0.763772 0.715763 1.49339 0.87103 0.911799 0.951497 0.951247 0.951645 0.926649 0.91109 0.901101 0.913145 0.933443 1.00237 1.03355 1.06669 1.18139 1.21996 1.27308 1.19495 0.916047 0.95139 0.934719 0.920635 0.90862 0.908683 0.92934 0.973956 0.809277 0.426998 0.193563 0.462641 0.556616 0.575369 0.456953 0.496304 0.509718 0.543517 0.554817 0.62654 0.899528 0.838411 0.985089 0.78542 0.823501 0.850135 0.927932 0.97114 0.931858 0.906383 0.967541 1.07033 1.21333 1.40451 1.35032 0.88479 0.945195 0.943633 0.944899 0.923691 0.897783 0.897805 0.859267 1.08387 0.580354 0.382845 0.500727 0.531564 0.557902 0.588197 0.595363 0.591057 0.420649 0.488564 0.603972 0.555635 0.553878 0.524269 0.524413 0.269097 1.54723 0.620395 0.644562 0.825803 0.895179 0.976127 0.961826 0.910019 0.966902 1.13176 1.11458 1.38472 0.946017 0.958652 0.955865 0.949015 0.946059 0.942764 0.937696 0.917474 0.88992 0.878429 0.847518 0.824073 0.814247 0.512363 0.541276 0.568346 0.584416 0.612973 0.55137 0.61116 0.486485 0.443485 0.730408 0.574508 0.566618 0.367926 0.125209 0.527053 1.34909 0.769002 0.864866 0.863732 0.87994 0.97513 1.00233 0.989767 0.965547 0.935158 0.918879 0.925233 1.0951 1.11879 1.36572 1.14563 0.954464 1.36319 1.08328 0.909213 0.960403 0.941848 0.942417 0.934511 0.934895 0.909574 0.881938 0.7853 0.707877 0.586161 0.500993 0.551221 0.584605 0.587242 0.573728 0.536946 0.57234 0.575805 0.543318 0.507062 0.485314 0.48627 0.546047 0.345758 1.00971 0.693581 0.618079 0.589547 0.568796 0.525069 0.45642 0.42734 0.849755 0.855828 0.848876 0.860476 0.892511 1.03732 0.996795 0.941423 0.994933 1.41728 1.19106 0.689428 0.753075 1.0943 1.03759 0.924981 0.921176 0.953514 0.939727 0.944256 0.939253 0.947633 0.925484 0.903875 0.899803 0.849467 0.808629 0.531782 0.450415 0.5034 0.562423 0.534934 0.548176 0.56458 0.5094 0.454658 0.371345 0.508613 0.473494 0.186351 0.971708 0.550343 0.616199 0.580056 0.555802 0.569501 0.821072 0.811695 0.83063 0.81007 0.835813 0.919602 0.979057 0.976734 0.935107 0.944852 1.18767 1.42057 0.957389 0.946934 0.85414 0.956253 0.92617 0.919288 0.9317 0.928152 0.944075 0.954981 0.956283 0.919563 0.872671 0.742507 0.575973 0.517167 0.453443 0.522694 0.510334 0.531592 0.551009 0.565772 0.550495 0.523577 0.440799 0.281521 0.535842 0.514828 0.491107 0.374891 0.566846 0.84974 0.520129 0.536191 0.500257 0.531126 0.488658 0.32263 0.62411 0.688685 0.767547 0.810741 0.871105 0.870471 0.833712 1.06672 0.929432 0.989033 0.383786 0.770975 0.42394 0.796432 0.651848 0.744769 0.744301 0.877271 0.930827 0.902812 0.906997 0.933365 0.979797 0.943104 0.952511 0.921988 0.872562 0.910311 0.981751 1.01371 0.374053 0.364979 0.491153 0.50755 0.539508 0.55827 0.578899 0.576717 0.501316 0.346181 0.353314 0.370998 0.520933 0.540448 0.542894 0.471335 0.515081 0.523135 0.620382 0.580123 0.538011 0.524665 0.487009 0.454984 0.721972 0.734679 0.784153 0.753306 0.832785 0.879629 1.02997 0.905871 0.90827 0.538158 0.159535 0.484659 0.607068 0.792921 0.879339 0.863791 0.892009 0.859278 0.882618 0.871637 0.905019 0.909737 0.936298 0.965773 0.993306 0.950683 0.946965 0.714596 0.862507 0.633037 0.508988 0.547983 0.585089 0.594984 0.619173 0.748052 0.44453 0.541266 0.473294 0.343183 0.476151 0.54646 0.523509 0.51383 0.516315 0.565634 0.585216 0.697622 0.56375 0.530494 0.490957 0.497249 0.546911 0.5726 0.700839 0.722249 0.809281 0.861936 0.456966 0.539657 0.861803 0.789888 0.617911 0.320131 0.319732 0.327834 0.540967 0.691461 0.80912 0.828398 0.8378 0.870325 0.88805 0.966383 0.897558 1.05414 1.23491 0.900351 0.931355 0.67086 0.498917 0.551893 0.568257 0.58995 0.593651 0.630291 1.06007 0.726868 0.368173 0.411724 0.285653 0.281348 0.399095 0.538174 0.554211 0.54929 0.511664 0.491074 0.515386 0.520029 0.59351 0.5321 0.473306 0.452266 0.509228 0.582553 0.681169 0.669795 0.687697 0.797018 0.771415 0.699852 0.58746 0.77827 0.749122 0.473091 0.424693 0.465512 0.55566 0.599996 0.676514 0.740733 0.740728 0.785094 0.762937 0.797013 0.770234 0.830579 0.880794 0.821047 0.54902 0.860496 0.54404 0.612521 1.07426 0.802887 0.823868 0.594205 0.561738 0.595084 0.6085 0.711863 1.19881 0.612554 0.340154 0.289671 0.259341 0.250884 0.255277 0.279878 0.448631 0.589472 0.54115 0.517467 0.484902 0.477479 0.490898 0.533635 0.553614 0.517967 0.48849 0.4271 0.46959 0.53442 0.563124 0.611694 0.66283 0.576149 0.775835 0.698602 0.572345 0.683667 0.756896 0.699877 0.641064 0.46724 0.520977 0.619149 0.69746 0.729268 0.744397 0.743961 0.848501 0.944673 0.698985 0.800175 0.970107 0.648371 1.02604 0.170245 0.487552 0.545008 0.568161 0.575243 0.57451 0.589181 0.499129 0.453252 0.529599 0.452575 0.111458 0.209614 0.287715 0.239173 0.211978 0.397505 0.343414 0.334906 0.440025 0.621557 0.603493 0.470054 0.435376 0.453249 0.4599 0.525535 0.510757 0.471834 0.436752 0.480589 0.517932 0.533327 0.582935 0.605414 0.622265 0.893343 0.656187 0.603825 0.600422 0.688443 0.65167 0.568311 0.565754 0.518245 0.583829 0.652146 0.694908 0.721749 0.728892 0.716718 0.804631 0.787847 0.634063 0.720798 0.784219 0.878129 0.722302 0.353016 0.432986 0.503489 0.548095 0.553694 0.569095 0.560797 0.511594 0.533218 0.838906 0.537499 0.355135 0.269127 0.248282 0.23197 0.200211 0.180685 0.158065 0.339587 0.368337 0.286012 0.594658 0.680544 0.463396 0.408832 0.431237 0.46632 0.479242 0.485992 0.484297 0.441597 0.399867 0.564363 0.520307 0.554474 0.53854 0.541888 0.527317 0.874941 0.695382 0.619791 0.609658 0.645632 0.67618 0.621465 0.586391 0.572436 0.60726 0.62105 0.640228 0.664141 0.668033 0.69447 0.695091 0.716643 0.72198 0.720842 0.764047 0.367581 0.452928 0.604403 0.754204 0.7577 0.816889 0.858616 0.840733 0.52952 0.476344 0.562686 0.566064 0.562423 0.571388 0.551346 0.531013 0.651686 0.444438 0.335412 0.31898 0.278429 0.210417 0.174006 0.134813 0.285228 0.210933 0.284565 0.216774 0.400285 0.180592 0.500298 0.661253 0.540179 0.409817 0.421434 0.435369 0.445867 0.486003 0.45972 0.446613 0.443989 0.540511 0.498108 0.48441 0.530051 0.533161 0.529236 0.707838 0.748977 0.654055 0.628431 0.632768 0.667027 0.670125 0.65897 0.641022 0.615873 0.609882 0.626804 0.649326 0.67044 0.703578 0.744434 0.620809 0.440435 0.519056 0.66933 0.677059 0.711629 0.767601 0.717026 0.975274 0.718387 0.575527 0.57803 0.56628 0.568033 0.554692 0.528483 0.55298 0.520102 0.4334 0.396074 0.30999 0.267333 0.237798 0.190323 0.152742 0.131286 0.11872 0.294881 0.278431 0.252444 0.224268 0.0607393 0.097316 0.667792 0.665708 0.470313 0.422909 0.415679 0.422304 0.410285 0.43089 0.434761 0.467897 0.453898 0.439973 0.385784 0.465261 0.473393 0.497093 0.52177 0.518282 0.616081 0.69253 0.696445 0.643324 0.629196 0.613575 0.672518 0.660366 0.637077 0.622293 0.629092 0.625444 0.638578 0.653328 0.673488 0.729965 0.728757 0.707265 0.536991 0.511655 0.592939 0.610021 0.596852 0.610022 0.682094 0.596806 1.26385 0.850198 0.436051 0.338428 0.473214 0.52488 0.54143 0.532279 0.524242 0.475968 0.391628 0.36805 0.349892 0.293898 0.216575 0.153851 0.112015 0.117911 0.121201 0.287836 0.276554 0.342804 0.12227 0.0837731 0.194457 0.653069 0.600717 0.486347 0.467176 0.440317 0.430567 0.430212 0.428587 0.454564 0.437085 0.397727 0.1904 0.442231 0.57813 0.657277 0.682785 0.672269 0.643284 0.665425 0.647484 0.636177 0.636165 0.634542 0.6382 0.642936 0.645155 0.655817 0.657137 0.682418 0.697382 0.75365 0.563749 0.597053 0.605577 0.603002 0.638918 0.644753 0.886211 0.325134 0.34221 0.252195 0.369448 0.455037 0.506579 0.526989 0.532292 0.52522 0.487045 0.432869 0.409685 0.373743 0.315666 0.259237 0.239139 0.148447 0.132124 0.0946412 0.111891 0.129199 0.232807 0.335536 0.339064 0.466018 0.406139 0.189669 0.199206 0.349014 0.614591 0.599991 0.482439 0.487683 0.41418 0.43919 0.421083 0.427085 0.395795 0.292368 0.339206 0.49614 0.511822 0.528735 0.667645 0.6726 0.659172 0.639482 0.625294 0.645316 0.648422 0.64696 0.641716 0.638288 0.639013 0.639916 0.64622 0.655873 0.659375 0.773194 0.57862 0.54253 0.584506 0.606868 0.619172 0.452142 0.497228 0.523564 0.527939 0.517629 0.493486 0.45147 0.39209 0.367064 0.329136 0.291761 0.171221 0.123426 0.0776821 0.100595 0.126887 0.121142 0.0502793 0.12763 0.17531 0.502819 0.88336 0.631465 0.652237 0.599816 0.349969 0.57068 0.617915 0.570304 0.706899 0.539348 0.459069 0.405865 0.437279 0.343307 0.323803 0.326336 0.432573 0.504626 0.532352 0.592221 0.631306 0.662483 0.662754 0.653666 0.641041 0.64511 0.650909 0.657106 0.641558 0.64241 0.643208 0.637277 0.642274 0.636936 0.614249 0.697308 0.702673 0.656768 0.56851 0.57603 0.600158 0.614349 0.657891 0.697949 0.736152 0.417436 0.169492 0.157688 0.27898 0.386215 0.501791 0.518167 0.508767 0.483112 0.455848 0.420187 0.408185 0.38559 0.351757 0.258196 0.130713 0.0720983 0.108366 0.122801 0.1449 0.12215 0.00679992 0.0714946 0.230472 0.241814 0.377116 1.20321 0.765024 0.755156 0.587082 0.686842 0.717079 0.537028 0.519347 0.431438 0.41267 0.422353 0.398029 0.3504 0.306673 0.272928 0.343246 0.455328 0.546797 0.591295 0.625714 0.64735 0.658093 0.655119 0.653867 0.651426 0.642575 0.648502 0.636846 0.65115 0.632536 0.637495 0.642537 0.646142 0.626769 0.694762 0.697891 0.685959 0.642313 0.586468 0.594484 0.638228 0.673097 0.668052 0.503991 0.347635 0.239618 0.234135 0.332094 0.40618 0.460608 0.500892 0.485762 0.456111 0.430497 0.395814 0.370441 0.308851 0.223436 0.198706 0.0980508 0.192155 0.148106 0.144232 0.124644 0.10619 0.0467406 0.0648239 0.124496 0.381703 0.663045 1.08534 1.60474 1.63846 0.768791 0.179961 0.482135 0.812878 0.99361 0.94626 0.578111 0.376618 0.435325 0.405188 0.428864 0.437243 0.414403 0.375405 0.293185 0.207042 0.237874 0.421382 0.522773 0.58238 0.613567 0.631353 0.647807 0.656379 0.66212 0.658815 0.648719 0.646495 0.649074 0.635001 0.641643 0.64757 0.636262 0.655376 0.706249 0.691158 0.688162 0.661233 0.607537 0.625213 0.637658 0.604453 0.51562 0.430128 0.335934 0.303797 0.312609 0.375409 0.429177 0.477466 0.501371 0.45996 0.447376 0.434623 0.434795 0.424324 0.404578 0.321823 0.30013 0.235042 0.217126 0.253442 0.16857 0.176991 0.138019 0.0669861 0.0465845 0.0960758 0.0846068 0.131556 0.269559 0.441269 0.898677 0.806302 0.88545 0.390906 0.497559 0.351758 0.630267 0.378689 0.333949 0.394433 0.409348 0.423154 0.437569 0.408855 0.323837 0.171393 0.234896 0.51566 0.562024 0.587235 0.609784 0.626391 0.645111 0.656614 0.6615 0.657797 0.651027 0.646708 0.641612 0.639129 0.648013 0.633188 0.707572 0.640329 0.638741 0.675064 0.703746 0.628225 0.600695 0.599968 0.608879 0.612728 0.592393 0.52427 0.453255 0.410506 0.36298 0.356659 0.368878 0.412474 0.453528 0.488725 0.492419 0.476554 0.446228 0.472261 0.479821 0.448106 0.351277 0.233324 0.468663 0.343544 0.533244 0.265778 0.123478 0.0986608 0.0601703 0.0514983 0.00232258 0.0173772 0.0740578 0.158853 0.216361 0.20461 0.313073 0.568254 0.616097 0.778095 0.914669 0.51401 0.351544 0.493849 0.3229 0.426741 0.353479 0.347249 0.391196 0.415559 0.433955 0.447594 0.403058 0.237694 0.147447 0.370687 0.56379 0.574448 0.599081 0.627795 0.652969 0.667566 0.669122 0.665837 0.641112 0.642726 0.641663 0.634883 0.645446 0.655073 0.694972 0.683334 0.667809 0.645398 0.623102 0.604852 0.598529 0.592365 0.575634 0.536833 0.483813 0.436658 0.415114 0.3982 0.399309 0.41357 0.438394 0.464287 0.499985 0.46534 0.458838 0.475422 0.477603 0.501591 0.48789 0.443035 0.407076 0.475978 0.935301 0.781766 0.200763 0.116985 0.0944224 0.0343593 0.0265164 0.0252789 0.0631318 0.120533 0.175753 0.274564 0.353371 0.395348 0.437056 0.298032 0.522946 0.636887 0.5789 0.51491 0.428295 0.399941 0.401045 0.427832 0.449337 0.466861 0.482782 0.410441 0.290852 1.15665 0.535767 0.55184 0.556003 0.597287 0.644052 0.676614 0.680844 0.675646 0.666199 0.657078 0.649842 0.643608 0.67893 0.689483 0.694759 0.684797 0.669417 0.652706 0.635377 0.617579 0.601797 0.588052 0.56726 0.535804 0.501447 0.47034 0.443848 0.432598 0.430268 0.431486 0.440611 0.450698 0.475103 0.465327 0.467734 0.464707 0.472023 0.504969 0.531126 0.510712 0.711761 0.870556 0.885467 0.601555 0.178996 0.115814 0.0990342 0.0697338 0.027418 0.0222075 0.0353916 0.0301146 0.0505228 0.0467822 0.0695018 0.124093 0.206858 0.273681 0.378249 0.347948 0.356152 0.16762 0.370159 0.364672 0.305518 0.596329 0.52184 0.397448 0.975142 0.935295 0.481757 0.521428 0.540591 0.691702 0.699657 0.690023 0.676229 0.663255 0.653248 0.646162 0.642112 0.641312 0.640726 0.640052 0.642811 0.653929 0.668432 0.683641 0.687685 0.684489 0.671946 0.656364 0.640612 0.624724 0.608878 0.591569 0.571302 0.54434 0.432819 0.476423 0.479115 0.492549 0.48112 0.482357 0.481582 0.613195 1.05434 1.06527 0.569883 0.396645 0.307079 0.157601 0.0820718 0.0435847 0.04495 0.0406121 0.0352167 0.0250955 0.058976 0.0679418 0.0991518 0.124872 0.1741 0.220338 0.316235 0.341462 0.346654 0.249864 0.191714 0.477522 0.406827 0.297655 0.694874 0.590083 0.467241 0.443656 0.422163 0.426327 0.44555 0.461551 0.49262 0.48247 0.405444 0.803909 0.473985 0.504373 0.524555 0.54179 0.619858 0.709561 0.688905 0.670858 0.657359 0.648303 0.643222 0.641109 0.640495 0.641077 0.644068 0.651063 0.662869 0.674562 0.681766 0.680731 0.672924 0.659589 0.644285 0.629013 0.514372 0.490551 0.474079 0.460326 0.451986 0.451837 0.453609 0.458323 0.463304 0.450639 0.462724 0.483912 0.495812 0.484374 0.465707 0.455703 0.571608 1.06896 0.161531 0.393245 0.57209 0.41808 0.396307 0.229343 0.135669 0.046787 0.0493799 0.0631634 0.0352402 0.0199857 0.0155195 0.0545491 0.0501373 0.0994909 0.0914091 0.153018 0.175577 0.275164 0.332726 0.307191 0.290523 0.337225 0.336179 0.367483 0.342241 0.662417 0.56428 0.476353 0.454104 0.441338 0.44078 0.451449 0.467296 0.494548 0.425801 0.920592 0.850183 0.461562 0.499191 0.524641 0.539278 0.714841 0.725487 0.680918 0.662818 0.651179 0.644713 0.641736 0.640809 0.641604 0.644336 0.649873 0.658289 0.667819 0.674731 0.676422 0.61326 0.596204 0.577441 0.554265 0.530159 0.509936 0.493584 0.481693 0.474089 0.469061 0.468528 0.470519 0.476076 0.482293 0.472562 0.482489 0.498721 0.506371 0.486919 0.454572 0.420392 0.505513 0.756272 0.265325 0.238598 0.319757 0.327388 0.135538 0.0719139 0.0297741 0.037352 0.0723318 0.0544641 0.0454277 0.0366765 0.109176 0.0868642 0.146888 0.112162 0.162118 0.159444 0.234708 0.389561 0.308878 0.390992 0.299258 0.393128 0.216796 0.283658 0.40516 0.554043 0.515046 0.473927 0.468714 0.461426 0.456954 0.454206 0.460957 0.489414 0.818178 0.782373 0.749095 0.724771 0.466069 0.504236 0.519528 0.477926 0.763036 0.737975 0.706509 0.671543 0.6614 0.647829 0.632887 0.6173 0.601143 0.583345 0.563376 0.5442 0.526691 0.511425 0.500434 0.492697 0.487615 0.484811 0.484446 0.484938 0.484948 0.487234 0.493915 0.506247 0.518888 0.508414 0.477335 0.446684 0.568852 0.800887 0.590984 0.0820383 0.201029 0.28576 0.23923 0.19347 0.0853264 0.0375968 0.0449613 0.0691567 0.0288421 0.0273206 0.0389474 0.140219 0.0989556 0.178206 0.170536 0.197314 0.1983 0.28661 0.3059 0.552383 0.400552 0.546154 0.305546 0.353109 0.425678 0.207736 0.316088 0.426727 0.500914 0.494701 0.480539 0.474108 0.470233 0.464551 0.461831 0.478402 0.719813 0.704727 0.70515 0.694977 0.693509 0.476865 0.506709 0.498168 0.46323 0.797898 0.738044 0.697376 0.671396 0.65586 0.647502 0.643416 0.641961 0.642498 0.644818 0.649127 0.655405 0.662733 0.668882 0.671454 0.669093 0.661644 0.650365 0.636702 0.621859 0.60651 0.590054 0.572887 0.556206 0.541013 0.528195 0.518183 0.511103 0.505772 0.501726 0.499402 0.497669 0.496591 0.49483 0.496648 0.505608 0.524825 0.537597 0.525795 0.494871 0.533367 0.723835 0.904033 1.30982 0.322603 0.139635 0.241302 0.327995 0.248538 0.138757 0.0136548 0.0766882 0.0686487 0.0922589 0.0592821 0.03336 0.0429149 0.191965 0.112862 0.110803 0.124411 0.195229 0.219437 0.235965 0.33928 0.465911 0.383586 0.574153 1.11839 0.358464 0.336891 0.124606 0.278165 0.362444 0.472855 0.280466 0.486051 0.488298 0.482928 0.482379 0.48313 0.491195 0.512356 0.612616 0.665043 0.671724 0.675612 0.673097 0.678762 0.810195 0.730994 0.688106 0.664996 0.653044 0.646904 0.644688 0.644474 0.646154 0.64931 0.6539 0.659433 0.664442 0.667195 0.6662 0.660991 0.651959 0.640102 0.626633 0.612256 0.597171 0.582105 0.567526 0.554136 0.543011 0.534458 0.528045 0.522845 0.518602 0.514655 0.511644 0.534396 0.53066 0.615338 0.785897 1.31915 1.03027 0.351528 0.424546 0.395446 0.24195 0.0553349 0.0673382 0.115322 0.0778917 0.0519088 0.0397277 0.0317727 0.166037 0.169137 0.178864 0.0973291 0.114268 0.203421 0.250692 0.253318 0.352052 0.646847 1.08612 0.918222 0.582904 0.309663 0.336281 0.423637 0.498624 0.36113 0.438124 0.65996 0.488728 0.50444 0.494324 0.467291 0.803438 0.722549 0.683887 0.664136 0.6538 0.65051 0.648605 0.649038 0.650829 0.653888 0.657812 0.661663 0.664062 0.663745 0.660052 0.652942 0.643068 0.631188 0.618054 0.604398 0.590821 0.50887 0.505536 0.503802 0.507988 0.515999 0.526643 0.536291 0.576976 0.614704 0.813323 1.25763 0.763887 0.555528 0.712502 0.679198 0.242275 0.152699 0.0424529 0.0950967 0.181969 0.0798723 0.0705849 0.0256151 0.0489638 0.0495918 0.0405703 0.0467807 0.188162 0.0734845 0.0365581 0.269546 0.320735 0.374216 0.478255 0.658134 0.953047 1.01238 0.554039 0.337894 0.324407 0.384967 0.448808 0.485928 0.493249 0.497434 0.500055 0.508205 0.527961 0.576145 0.61504 0.645728 0.656572 0.661565 0.664819 0.498384 0.506924 0.500242 0.486533 0.780538 0.712418 0.680653 0.666373 0.66128 0.65676 0.654804 0.654424 0.655634 0.657922 0.660538 0.662346 0.662218 0.577802 0.566086 0.556286 0.548532 0.542698 0.538112 0.534151 0.530353 0.526397 0.521875 0.517813 0.512844 0.509322 0.512109 0.51988 0.52522 0.525235 0.532041 0.851943 1.1642 0.904535 0.391251 0.188787 0.312796 0.281273 0.115119 0.05016 0.116827 0.0835251 0.0531772 0.0268434 0.0994362 0.374431 0.398348 0.484764 0.646209 0.874384 0.78006 0.514365 0.412359 0.34516 0.384684 0.459515 0.501437 0.354179 0.423354 0.472777 0.499869 0.507001 0.511534 0.519022 0.536193 0.564871 0.593086 0.619768 0.638127 0.648095 0.652967 0.653159 0.645934 0.503706 0.51584 0.5168 0.508342 0.659442 0.653851 0.645673 0.635392 0.623775 0.611467 0.599144 0.587381 0.576771 0.567919 0.560842 0.555333 0.55112 0.547861 0.544913 0.541424 0.536724 0.530289 0.52448 0.518469 0.513233 0.509915 0.5112 0.511053 0.509208 0.53039 0.585306 0.681669 1.10127 0.310288 0.356968 0.104611 0.294703 0.114588 0.068527 0.0275648 0.118372 0.119156 0.102185 0.464648 0.473199 0.478049 0.471708 0.735721 0.884682 0.553376 0.410106 0.355984 0.356082 0.388948 0.428536 0.464035 0.511025 0.417767 0.469353 0.498493 0.511768 0.517501 0.526643 0.54261 0.562693 0.584601 0.604976 0.622672 0.636872 0.645244 0.647955 0.643408 0.617785 0.519912 0.52981 0.527138 0.518935 0.74523 0.689319 0.678928 0.675032 0.670752 0.665299 0.661449 0.659705 0.65994 0.661132 0.662099 0.661806 0.659594 0.655095 0.648249 0.639459 0.629313 0.618428 0.607312 0.596523 0.586746 0.578462 0.571797 0.566607 0.562686 0.559787 0.55761 0.555579 0.55242 0.546783 0.535346 0.527993 0.522953 0.515884 0.507382 0.49741 0.490987 0.489784 0.522715 0.592568 0.704693 0.861198 0.227585 0.16817 0.249288 0.0844976 0.162337 0.243309 0.10716 0.0303684 0.292296 0.518449 0.659155 1.04753 0.639332 0.513481 0.465485 0.337434 0.330889 0.378549 0.391604 0.448456 0.463991 0.561491 0.472571 0.501549 0.512895 0.5211 0.532937 0.546747 0.56296 0.580365 0.596807 0.612789 0.62717 0.637387 0.642239 0.641433 0.63269 0.597046 0.690045 0.685481 0.676722 0.683912 0.679384 0.672979 0.66724 0.66434 0.663494 0.663371 0.662681 0.660617 0.656797 0.65105 0.643549 0.634747 0.625163 0.61525 0.605523 0.596493 0.588618 0.582092 0.576901 0.573077 0.57041 0.568644 0.56767 0.56658 0.563959 0.557527 0.535085 0.530622 0.52562 0.518006 0.505502 0.490655 0.478042 0.483494 0.5179 0.59149 0.688912 0.872037 0.157468 0.461024 0.339376 0.220621 0.134457 0.119595 0.120785 0.85086 0.984603 0.557777 0.464962 0.503525 0.388753 0.367611 0.377037 0.382702 0.42847 0.442272 0.553779 0.58153 0.507322 0.516144 0.524434 0.534731 0.548042 0.562263 0.576867 0.592328 0.6073 0.620319 0.630356 0.636806 0.532503 0.521481 0.521046 0.516386 0.652802 0.678487 0.686027 0.685343 0.683338 0.677111 0.671518 0.668058 0.666254 0.66486 0.662701 0.65919 0.654152 0.647689 0.640076 0.631676 0.622906 0.614223 0.606068 0.598714 0.484265 0.481313 0.521941 0.611904 0.711887 0.469015 0.39887 0.31105 0.585087 0.647045 0.653515 0.279412 0.258241 0.824963 0.447216 0.526879 0.43442 0.63845 0.635506 0.635417 0.576575 0.524967 0.520826 0.516923 0.550851 0.646597 0.685723 0.688099 0.68665 0.682476 0.592319 0.587013 0.582985 0.58027 0.578588 0.577656 0.577404 0.577131 0.575879 0.570395 0.533172 0.531015 0.526822 0.519265 0.506102 0.491302 0.542304 0.612975 0.603317 0.47439 0.374029 0.291898 0.648194 0.584156 0.587388 0.410682 0.409939 0.357047 0.40889 0.423911 0.578196 0.574833 0.574757 0.527256 0.528133 0.535042 0.545986 0.560002 0.575556 0.591088 0.60493 0.616265 0.625426 0.632175 0.635722 0.635838 0.637111 0.640176 0.54927 0.523409 0.521351 0.528593 0.677927 0.674007 0.670819 0.668368 0.66583 0.662405 0.657819 0.652084 0.645382 0.638028 0.630375 0.622765 0.61549 0.608729 0.60263 0.597349 0.593118 0.590109 0.588117 0.586879 0.586388 0.586363 0.586852 0.586262 0.587992 0.52998 0.530273 0.527101 0.519779 0.509704 0.502276 0.498203 0.483946 0.565192 0.483208 0.490424 0.731338 1.03564 0.907616 0.786815 0.869675 0.660738 0.427942 0.426156 0.43376 0.364295 0.388237 0.410837 0.608195 0.586807 0.575427 0.564275 0.5409 0.537069 0.545217 0.560124 0.576894 0.592418 0.604711 0.615028 0.623451 0.629421 0.633243 0.634999 0.636294 0.640152 0.643492 0.5354 0.518168 0.598182 0.66229 0.685148 0.687067 0.684343 0.680547 0.677924 0.675515 0.672849 0.669918 0.666405 0.662042 0.656823 0.650869 0.644426 0.637812 0.631287 0.624966 0.618877 0.613173 0.608044 0.603658 0.600242 0.597786 0.596117 0.595014 0.594501 0.594849 0.595782 0.59849 0.606733 0.527473 0.528357 0.526458 0.521467 0.515578 0.515362 0.522374 0.506163 0.547247 0.567922 0.662828 0.746815 0.934456 0.536949 0.722667 0.846844 0.706833 0.667215 0.541383 0.433226 0.42258 0.364712 0.373249 0.404401 0.632005 0.605038 0.583833 0.569428 0.556401 0.547771 0.550085 0.564746 0.581809 0.595522 0.606343 0.615761 0.623567 0.628929 0.63241 0.634276 0.63553 0.638389 0.645896 0.648593 0.547331 0.59771 0.624844 0.672529 0.679335 0.680169 0.682663 0.680143 0.678393 0.676906 0.674401 0.670955 0.666746 0.661858 0.656495 0.65093 0.645376 0.639918 0.634512 0.629169 0.62402 0.619195 0.614747 0.610887 0.607833 0.605558 0.603959 0.602661 0.602186 0.60243 0.605214 0.61265 0.624073 0.525478 0.526744 0.525859 0.523803 0.522778 0.529691 0.558745 0.529625 0.548068 0.552495 0.549422 0.702265 0.378515 0.89832 0.885683 0.625987 0.587451 0.391462 0.360941 0.383121 0.368985 0.654039 0.62098 0.594811 0.576224 0.562726 0.552811 0.55903 0.571591 0.587121 0.59995 0.610772 0.532617 0.523726 0.679654 0.630313 0.640291 0.663476 0.674427 0.679114 0.679686 0.679753 0.679988 0.678587 0.675596 0.671626 0.667093 0.662333 0.65768 0.653216 0.648746 0.528432 0.532325 0.552229 0.584573 0.545932 0.566151 0.616881 0.713389 0.781169 0.547228 0.404099 0.657576 0.742773 0.355957 0.618985 0.625306 0.630191 0.633348 0.634809 0.636305 0.63887 0.644506 0.652925 0.655253 0.502484 0.639456 0.631273 0.644028 0.644212 0.639622 0.634993 0.630436 0.626188 0.62226 0.61866 0.615671 0.61326 0.611306 0.610154 0.609618 0.610542 0.615224 0.625315 0.641055 0.522545 0.524781 0.526721 0.599368 0.580032 0.620459 0.762095 0.772521 0.757606 0.400873 0.871933 0.591855 0.565185 0.378785 0.392355 0.684246 0.639 0.606308 0.582821 0.56684 0.559203 0.55878 0.576154 0.58952 0.605217 0.617393 0.625221 0.630176 0.633238 0.635492 0.636631 0.637715 0.639997 0.644367 0.65218 0.654393 0.65454 0.737313 0.661202 0.671396 0.674825 0.679148 0.682103 0.682054 0.67982 0.676371 0.672427 0.668559 0.66504 0.661546 0.657837 0.654097 0.65024 0.645999 0.641777 0.63775 0.633872 0.630326 0.627057 0.623991 0.621161 0.619041 0.617881 0.617304 0.620577 0.625016 0.637223 0.653394 0.521583 0.523114 0.528897 0.535206 0.547811 0.572095 0.766849 0.774222 0.752919 0.761317 0.809768 0.892502 0.606739 0.718023 0.877677 0.366189 0.407663 0.706302 0.661049 0.62036 0.592202 0.573099 0.560444 0.560961 0.571301 0.594167 0.610711 0.622927 0.632719 0.637981 0.638635 0.638876 0.639058 0.639244 0.640787 0.644545 0.650973 0.656048 0.654984 0.66204 1.22385 0.669499 0.632473 0.634716 0.647105 0.658657 0.668939 0.677831 0.683046 0.684404 0.683292 0.680802 0.67792 0.675397 0.673061 0.670213 0.667088 0.664142 0.660755 0.656919 0.653126 0.649517 0.645939 0.642179 0.639033 0.636116 0.632718 0.629335 0.626993 0.626304 0.627912 0.632842 0.630947 0.637873 0.671905 0.517559 0.521284 0.533409 0.547362 0.563963 0.587932 0.620577 0.608311 0.730417 0.761139 0.843689 0.721867 0.83113 0.887305 0.35873 0.725442 0.661671 0.640695 0.61291 0.581916 0.56608 0.558171 0.569088 0.59855 0.619087 0.630655 0.639329 0.645327 0.647322 0.644728 0.642605 0.640981 0.641161 0.643439 0.648722 1.00962 0.648015 0.643502 0.637458 0.650524 0.665515 0.676281 0.683008 0.685745 0.685974 0.684983 0.683907 0.682985 0.681283 0.678665 0.676408 0.674035 0.671001 0.667782 0.66451 0.661366 0.657863 0.654657 0.651535 0.647867 0.644648 0.641365 0.638725 0.637144 0.638226 0.641279 0.644223 0.608593 0.666889 0.677634 0.508259 0.524964 0.543307 0.560302 0.579534 0.602108 0.628152 0.760139 0.764133 0.830117 0.769313 0.686347 0.695066 0.682396 0.63085 0.609148 0.565973 0.570576 0.559562 0.602817 0.628016 0.655519 0.657128 0.660329 0.630378 0.640583 0.641656 0.65043 0.66412 0.675324 0.553374 0.570181 0.589455 0.606769 0.763509 0.757377 0.706541 0.780601 0.893832 0.814478 0.856166 0.910246 0.638003 0.647647 0.652491 0.654344 0.651984 0.647427 0.64376 0.64131 0.641559 0.644805 0.650722 0.655102 0.656816 0.646422 0.634757 0.898527 0.682805 0.686588 0.688318 0.689418 0.690646 0.690931 0.689068 0.687068 0.68588 0.683436 0.681105 0.678506 0.675525 0.672775 0.669819 0.666788 0.664215 0.661272 0.656694 0.653444 0.652327 0.652035 0.65261 0.653883 0.654928 0.627202 0.606081 0.678759 0.694223 0.510736 0.533807 0.747692 0.762403 0.69929 0.799277 0.830862 0.823422 0.903268 0.866281 0.823933 0.929698 0.801051 0.785268 0.715423 0.660654 0.634651 0.604006 0.601757 0.568434 0.642475 0.642289 0.655992 0.659832 0.660733 0.658438 0.653379 0.646918 0.642095 0.639711 0.640538 0.64409 0.648879 0.652164 0.650093 0.645532 0.639281 0.87114 0.641024 0.651927 0.664417 0.674921 0.682752 0.687617 0.691004 0.694672 0.698281 0.699018 0.697038 0.696291 0.695005 0.692815 0.691162 0.688684 0.685666 0.683473 0.681006 0.678598 0.676617 0.674429 0.670767 0.667663 0.665375 0.666142 0.668396 0.67011 0.670077 0.639325 0.637465 0.576763 0.700811 0.715258 0.519525 0.543313 0.561867 0.57834 0.592596 0.703236 0.822765 0.832244 0.83271 0.791807 0.791716 0.800084 0.707582 0.661966 0.629313 0.60905 0.569105 0.738542 0.681634 0.663433 0.6659 0.665962 0.664053 0.658227 0.650525 0.643024 0.638155 0.636577 0.638371 0.641634 0.645431 0.647376 0.647569 0.646779 0.64803 0.838397 0.650408 0.664198 0.675105 0.683404 0.689399 0.695435 0.701608 0.706763 0.707055 0.706488 0.706483 0.703924 0.702538 0.700572 0.698207 0.695535 0.693486 0.691907 0.689688 0.688589 0.687662 0.685494 0.683797 0.682761 0.678699 0.677304 0.677883 0.682798 0.658636 0.640567 0.641923 0.568631 0.716482 0.731536 0.528245 0.55297 0.570356 0.584205 0.739955 0.748608 0.893833 0.856894 0.812519 0.809669 0.791342 0.776146 0.787083 0.720517 0.669927 0.629744 0.597265 0.730778 0.750499 0.674972 0.66218 0.673245 0.68401 0.694126 0.704948 0.713199 0.716736 0.643758 0.649578 0.584934 0.730287 0.74297 0.535167 0.562889 0.58026 0.803634 0.798699 0.800775 0.811155 0.860234 0.834982 0.851299 0.897459 0.846794 0.810926 0.797956 0.618597 0.739778 0.673524 0.671826 0.665563 0.661364 0.653879 0.644334 0.636709 0.632966 0.633068 0.635549 0.638708 0.641657 0.644711 0.647358 0.651255 0.65963 0.794005 0.715349 0.716426 0.715908 0.713921 0.711612 0.709533 0.707233 0.70483 0.702683 0.701571 0.699731 0.699523 0.699983 0.700786 0.701037 0.701633 0.695684 0.68664 0.684741 0.691059 0.678124 0.650468 0.801283 0.797979 0.805664 0.760254 0.832265 0.897879 0.767572 0.779234 0.793953 0.796552 0.729488 0.673505 0.751196 0.72832 0.67852 0.675535 0.671301 0.66113 0.654831 0.64543 0.635489 0.628947 0.627714 0.630141 0.633219 0.636315 0.639417 0.643506 0.648919 0.657312 0.670574 0.744038 0.66451 0.678337 0.697156 0.717616 0.729737 0.72646 0.728727 0.727352 0.724227 0.722857 0.721053 0.717965 0.715719 0.712855 0.710851 0.709614 0.70806 0.708524 0.710547 0.71277 0.715834 0.717114 0.714153 0.707559 0.698128 0.706379 0.691417 0.675269 0.645998 0.651393 0.658199 0.630357 0.731244 0.74329 0.548556 0.572484 0.798413 0.899205 0.910389 0.831585 0.787406 0.765382 0.776258 0.792823 0.795813 0.730393 0.716912 0.787166 0.764776 0.741657 0.720514 0.675164 0.671639 0.666052 0.655459 0.64465 0.633472 0.625612 0.622668 0.62425 0.628688 0.631796 0.634044 0.638199 0.644005 0.652175 0.665836 0.691295 0.710338 0.663556 0.695885 0.724083 0.735072 0.738396 0.740539 0.739023 0.735426 0.729949 0.729058 0.725986 0.722893 0.719961 0.717875 0.716548 0.715094 0.71596 0.71791 0.721353 0.725526 0.731136 0.731695 0.729076 0.728632 0.699766 0.691953 0.702751 0.649343 0.648893 0.658403 0.670096 0.64967 0.718821 0.760901 0.651962 0.693069 0.799591 0.803371 0.802255 0.806511 0.801091 0.916925 0.904116 0.896661 0.907726 0.827217 0.782397 0.776458 0.772473 0.867987 0.89686 0.835203 0.745292 0.706826 0.668656 0.664035 0.686559 0.72668 0.759076 0.756763 0.747995 0.746774 0.74523 0.741375 0.734635 0.658485 0.647237 0.652323 0.663568 0.682532 0.673205 0.771963 0.879229 0.880284 0.877505 0.880507 0.871553 0.893832 0.893832 0.779735 0.785688 0.768789 0.761308 0.656709 0.645724 0.631795 0.621503 0.617378 0.619041 0.62282 0.629021 0.629712 0.6321 0.637728 0.64512 0.6547 0.662539 0.702673 0.708269 0.732526 0.728662 0.725833 0.72375 0.722022 0.72091 0.720525 0.722377 0.72601 0.731959 0.740354 0.746189 0.748173 0.747636 0.740299 0.68881 0.699193 0.842388 0.844039 0.893832 0.893846 0.866933 0.845562 0.839491 0.846272 0.855308 0.842665 0.83164 0.793379 0.909459 0.895551 0.868808 0.807545 0.791465 0.77736 0.76791 0.768384 0.767739 0.765538 0.761181 0.755513 0.746914 0.742004 0.738896 0.738397 0.730665 0.738739 0.749881 0.769654 0.775543 0.799653 0.753693 0.718954 0.76381 0.768056 0.7588 0.763712 0.754802 0.747218 0.74341 0.736914 0.733628 0.730225 0.727786 0.725956 0.724544 0.724346 0.724139 0.72812 0.735046 0.744569 0.755184 0.75982 0.760551 0.75887 0.74332 0.738338 0.846263 0.837362 0.827193 0.82087 0.816945 0.815943 0.831301 0.867839 0.899334 0.880055 0.901062 0.896875 0.890479 0.891455 0.880407 0.895936 0.895113 0.893829 0.894931 0.867995 0.8532 0.916706 0.895147 0.894251 0.842262 0.829696 0.820635 0.898029 0.843577 0.841837 0.831251 0.839546 0.823668 0.817066 0.809103 0.803838 0.798484 0.794431 0.791097 0.788502 0.78668 0.786283 0.78983 0.856995 0.850532 0.845982 0.838622 0.831035 0.875314 0.894501 0.887282 0.886889 0.881344 0.893832 0.893832 0.84648 0.854848 0.867697 0.860947 0.862122 0.89426 0.823028 0.830718 0.840836 0.85064 0.863785 0.871866 0.878748 0.882192 0.869925 0.850774 0.849819 0.866661 0.872498 0.882853 0.883885 0.894289 0.842031 0.78831 0.787227 0.788447 0.7922 0.796513 0.793856 0.800892 0.778946 0.772467 0.876235 0.876003 0.891066 0.879709 0.89495 0.893834 0.893832 0.866066 0.850272 0.842775 0.853065 0.862617 0.861262 0.867131 0.891985 0.893832 0.893848 0.892202 0.840555 0.828031 0.820335 0.827983 0.836671 0.846967 0.855858 0.86602 0.875774 0.884476 0.888848 0.880146 0.871406 0.869306 0.872646 0.878854 0.890719 0.891558 0.893582 0.856572 0.896601 0.858848 0.86196 0.844555 0.854697 0.830311 0.819829 0.812668 0.805809 0.800228 0.795588 0.791537 0.788703 0.786636 0.785829 0.786466 0.784949 0.786933 0.793836 0.80271 0.809301 0.808028 0.809709 0.803474 0.82654 0.864068 0.854727 0.848595 0.842493 0.833851 0.830116 0.88713 0.893185 0.882138 0.877589 0.894287 0.892159 0.884453 0.883316 0.881887 0.893832 0.893832 0.893832 0.893832 0.864788 0.847979 0.893832 0.893707 0.891356 0.837207 0.893832 0.879778 0.887829 0.85702 0.865659 0.836574 0.82618 0.816927 0.809041 0.802497 0.797781 0.793495 0.840389 0.832122 0.831496 0.882408 0.88103 0.882079 0.893832 0.893832 0.83985 0.85112 0.861108 0.861534 0.883144 0.892022 0.822546 0.810433 0.82388 0.832818 0.842177 0.850184 0.861411 0.870941 0.880902 0.886663 0.880368 0.870004 0.867472 0.870735 0.876517 0.8907 0.891099 0.893808 0.856385 0.790635 0.788626 0.787994 0.788345 0.787708 0.79074 0.799417 0.810803 0.819292 0.818654 0.819501 0.818233 0.859745 0.858184 0.853117 0.846733 0.886313 0.893745 0.876298 0.876022 0.893129 0.890576 0.89383 0.893832 0.864183 0.846886 0.838452 0.850132 0.860439 0.862009 0.890365 0.892032 0.893832 0.893631 0.890927 0.83542 0.820049 0.805948 0.822428 0.831008 0.839755 0.847339 0.858782 0.868046 0.878925 0.885478 0.88027 0.869165 0.866521 0.86946 0.875093 0.890684 0.890674 0.893831 0.854773 0.893832 0.888255 0.893229 0.866854 0.877166 0.839333 0.829945 0.819418 0.810807 0.804072 0.799146 0.794952 0.792093 0.790004 0.789563 0.789599 0.78961 0.793171 0.803043 0.814618 0.823513 0.824976 0.82782 0.830021 0.865744 0.856618 0.852213 0.845716 0.839246 0.831623 0.832348 0.884676 0.893832 0.873608 0.875154 0.89241 0.889836 0.881309 0.879845 0.882126 0.893832 0.893832 
SCALARS Axial_Stress float 1
LOOKUP_TABLE default
-100011000000.0 -91239800000.0 -110541000000.0 -156833000000.0 -65083900000.0 -89255700000.0 -72473400000.0 -95442000000.0 -68490600000.0 -41515400000.0 -49905800000.0 -94716600000.0 -185843000000.0 -173883000000.0 -150820000000.0 -140176000000.0 -228311000000.0 -249120000000.0 -233092000000.0 -138590000000.0 -139548000000.0 -77534200000.0 -109488000000.0 -201904000000.0 -140116000000.0 -80711900000.0 -44238700000.0 -148769000000.0 -332927000000.0 -379005000000.0 -302714000000.0 -246015000000.0 -371763000000.0 -337705000000.0 -166999000000.0 -233266000000.0 -273809000000.0 -276902000000.0 -261442000000.0 -95244000000.0 -237786000000.0 -367314000000.0 -475846000000.0 -257199000000.0 -262255000000.0 -343767000000.0 -103108000000.0 -299819000000.0 -372567000000.0 -316284000000.0 -364274000000.0 -491382000000.0 -387429000000.0 -477721000000.0 -358063000000.0 -449192000000.0 -382887000000.0 -452112000000.0 -105630000000.0 -224345000000.0 -715443000000.0 -478572000000.0 -588166000000.0 -511187000000.0 -606764000000.0 -539636000000.0 -347482000000.0 -374962000000.0 -462483000000.0 -518496000000.0 -312513000000.0 -251957000000.0 -246580000000.0 -310252000000.0 -392707000000.0 -605276000000.0 -482229000000.0 -603152000000.0 -596137000000.0 -558818000000.0 -503058000000.0 -463861000000.0 -902285000000.0 -722895000000.0 -678698000000.0 -683214000000.0 -652684000000.0 -590256000000.0 -455355000000.0 -368272000000.0 -740663000000.0 -730005000000.0 -712057000000.0 -686154000000.0 -620194000000.0 -493924000000.0 -1.22901e+12 -888613000000.0 -776542000000.0 -756085000000.0 -435859000000.0 -485319000000.0 -746272000000.0 -696532000000.0 -739986000000.0 -1.01527e+12 -866299000000.0 -832531000000.0 -929293000000.0 -809338000000.0 -898206000000.0 -765212000000.0 -822702000000.0 -593620000000.0 -1.12402e+12 -1.17533e+12 -1.18728e+12 -1.08327e+12 -1.04227e+12 -897974000000.0 -934690000000.0 -838447000000.0 -901754000000.0 -827320000000.0 -526452000000.0 -599290000000.0 -855909000000.0 -943747000000.0 -878483000000.0 -1.07014e+12 -1.32614e+12 -1.2954e+12 -1.05531e+12 -1.11166e+12 -961815000000.0 -1.05041e+12 -1.02224e+12 -982451000000.0 -1.04412e+12 -1.20329e+12 -1.15528e+12 -1.04481e+12 -983208000000.0 -966750000000.0 -1.06104e+12 -1.00171e+12 -2.3016e+12 -1.95406e+12 -1.62012e+12 -1.28684e+12 -1.17947e+12 -1.14152e+12 -1.11339e+12 -1.11361e+12 -1.20405e+12 -1.23363e+12 -1.15018e+12 -1.07267e+12 -1.03825e+12 -618844000000.0 -724590000000.0 -1.10089e+12 -1.8733e+12 -1.93681e+12 -1.49645e+12 -1.31887e+12 -1.25818e+12 -1.35032e+12 -1.23512e+12 -1.33331e+12 -1.21895e+12 -1.31945e+12 -1.23353e+12 -1.33209e+12 -1.27952e+12 -1.31655e+12 -1.24028e+12 -1.25107e+12 -1.16377e+12 -1.19222e+12 -1.1142e+12 -1.16468e+12 -1.09838e+12 -712687000000.0 -860094000000.0 -1.2826e+12 -1.61642e+12 -1.9302e+12 -1.69083e+12 -1.46944e+12 -1.4978e+12 -1.37695e+12 -1.45431e+12 -1.44922e+12 -1.42738e+12 -1.40668e+12 -1.38896e+12 -1.3336e+12 -1.26992e+12 -1.23215e+12 -1.22169e+12 -1.53126e+12 -1.4876e+12 -1.65111e+12 -1.75838e+12 -1.77739e+12 -1.79144e+12 -1.67224e+12 -1.6052e+12 -1.60669e+12 -1.55733e+12 -1.55728e+12 -1.54466e+12 -1.50972e+12 -1.47319e+12 -1.41714e+12 -1.3472e+12 -1.29902e+12 -1.28158e+12 -807943000000.0 -1.01641e+12 -1.63626e+12 -1.71638e+12 -1.70441e+12 -1.66684e+12 -1.65506e+12 -1.63665e+12 -1.76722e+12 -1.66319e+12 -1.75678e+12 -1.6288e+12 -1.69696e+12 -1.57555e+12 -1.61936e+12 -1.51048e+12 -1.52071e+12 -1.42799e+12 -1.43421e+12 -1.36527e+12 -1.39394e+12 -1.33952e+12 -1.39123e+12 -1.33803e+12 -904965000000.0 -1.15597e+12 -1.68902e+12 -1.71389e+12 -1.69687e+12 -1.61523e+12 -1.73186e+12 -1.79752e+12 -1.7195e+12 -1.79643e+12 -1.88659e+12 -1.83256e+12 -1.74516e+12 -1.63478e+12 -1.5134e+12 -1.44644e+12 -1.4377e+12 -1.45079e+12 -1.81496e+12 -1.75296e+12 -1.79577e+12 -1.7374e+12 -1.69791e+12 -1.57628e+12 -1.25916e+12 -1.74651e+12 -1.84748e+12 -1.8599e+12 -1.99807e+12 -1.97941e+12 -1.88796e+12 -1.7675e+12 -1.61625e+12 -1.50295e+12 -1.47515e+12 -1.49722e+12 -1.00469e+12 -1.28529e+12 -1.86513e+12 -1.8033e+12 -1.56644e+12 -1.11666e+12 -1.89895e+12 -1.90855e+12 -2.29128e+12 -2.13528e+12 -2.23035e+12 -2.04789e+12 -2.08122e+12 -1.91686e+12 -1.92087e+12 -1.75733e+12 -1.68729e+12 -1.57533e+12 -1.5361e+12 -1.50565e+12 -1.54057e+12 -1.52866e+12 -1.60607e+12 -1.56607e+12 -1.1088e+12 -1.40875e+12 -1.93616e+12 -1.98634e+12 -1.90056e+12 -1.91873e+12 -1.7643e+12 -1.27235e+12 -1.05622e+12 -1.9318e+12 -1.80982e+12 -2.48982e+12 -2.23597e+12 -2.11731e+12 -1.87063e+12 -1.57741e+12 -1.53453e+12 -1.61699e+12 -1.69443e+12 -2.06579e+12 -2.02956e+12 -1.93097e+12 -1.67364e+12 -1.15768e+12 -1.19562e+12 -1.18132e+12 -987457000000.0 -788754000000.0 -3.02783e+12 -2.40937e+12 -2.25712e+12 -2.16898e+12 -1.62511e+12 -1.51484e+12 -1.59049e+12 -1.72923e+12 -1.22026e+12 -1.53096e+12 -2.12107e+12 -2.07603e+12 -1.9623e+12 -1.22714e+12 -1.12434e+12 -2.529e+12 -2.65079e+12 -2.49942e+12 -2.38008e+12 -2.4058e+12 -2.3081e+12 -2.39349e+12 -2.24968e+12 -2.58379e+12 -1.39992e+12 -1.32587e+12 -1.52929e+12 -1.62189e+12 -1.71032e+12 -1.88676e+12 -1.85376e+12 -1.34404e+12 -1.65453e+12 -2.20765e+12 -2.27081e+12 -2.17714e+12 -2.24625e+12 -2.14945e+12 -2.24393e+12 -1.09171e+12 -1.25535e+12 -1.64103e+12 -1.45831e+12 -2.46691e+12 -2.48343e+12 -2.47137e+12 -2.57642e+12 -3.02861e+12 -1.34762e+12 -1.82059e+12 -2.07097e+12 -2.34826e+12 -2.34928e+12 -2.33464e+12 -968903000000.0 -1.26893e+12 -1.63328e+12 -1.90695e+12 -2.28629e+12 -2.43328e+12 -2.4925e+12 -2.5486e+12 -2.52614e+12 -2.60786e+12 -2.58909e+12 -2.76226e+12 -2.86479e+12 -3.14562e+12 -3.34234e+12 -3.48759e+12 -1.51631e+12 -2.11281e+12 -1.48457e+12 -1.7859e+12 -2.48112e+12 -2.40059e+12 -2.45325e+12 -2.47306e+12 -2.70949e+12 -2.34837e+12 -1.51181e+12 -1.95499e+12 -2.32049e+12 -2.53749e+12 -2.62199e+12 -2.72223e+12 -2.96248e+12 -3.32672e+12 -3.42573e+12 -3.13736e+12 -1.91451e+12 -2.44927e+12 -2.36817e+12 -1.63034e+12 -1.93912e+12 -2.5012e+12 -2.5147e+12 -3.45443e+12 -1.22817e+12 -1.92498e+12 -1.94796e+12 -2.20232e+12 -2.18686e+12 -2.44372e+12 -2.49868e+12 -2.62602e+12 -2.70902e+12 -2.85629e+12 -3.13157e+12 -3.36212e+12 -3.29293e+12 -2.86327e+12 -2.70066e+12 -2.62202e+12 -2.47985e+12 -2.6578e+12 -2.37882e+12 -2.04011e+12 -2.25088e+12 -2.23471e+12 -2.40324e+12 -2.60458e+12 -2.61958e+12 -2.71378e+12 -2.70839e+12 -2.78525e+12 -2.80348e+12 -2.893e+12 -2.98584e+12 -3.07637e+12 -3.2203e+12 -3.20504e+12 -3.18523e+12 -2.96173e+12 -1.78255e+12 -2.13804e+12 -2.80351e+12 -2.60622e+12 -2.49058e+12 -2.38224e+12 -1.77319e+12 -2.62821e+12 -2.40817e+12 -2.43817e+12 -2.59055e+12 -2.72094e+12 -2.79081e+12 -2.85005e+12 -2.95925e+12 -3.1137e+12 -3.26051e+12 -3.3524e+12 -3.17946e+12 -3.27634e+12 -3.0852e+12 -1.95731e+12 -2.4195e+12 -2.76825e+12 -1.91157e+12 -3.42279e+12 -3.05605e+12 -2.64673e+12 -2.70274e+12 -2.54332e+12 -2.67221e+12 -2.6018e+12 -2.74745e+12 -2.72903e+12 -2.81055e+12 -2.84932e+12 -2.89024e+12 -2.98202e+12 -3.0749e+12 -3.38232e+12 -3.45835e+12 -3.3767e+12 -2.80823e+12 -3.02091e+12 -2.88793e+12 -2.36578e+12 -4.07752e+12 -4.00695e+12 -3.57844e+12 -2.9371e+12 -2.78542e+12 -2.79516e+12 -2.86491e+12 -2.83506e+12 -2.91728e+12 -2.87882e+12 -2.92322e+12 -2.87914e+12 -2.85943e+12 -2.88948e+12 -2.82653e+12 -2.98959e+12 -2.85144e+12 -3.6443e+12 -3.54136e+12 -3.58863e+12 -2.11152e+12 -2.98344e+12 -3.74349e+12 -3.68943e+12 -3.22167e+12 -2.94228e+12 -2.88119e+12 -2.90951e+12 -2.959e+12 -2.97827e+12 -2.93452e+12 -2.74633e+12 -2.83841e+12 -3.79896e+12 -4.08445e+12 -3.74639e+12 -3.72548e+12 -2.25117e+12 -3.53581e+12 -2.75356e+12 -3.27939e+12 -3.94607e+12 -3.91277e+12 -3.0508e+12 -3.40383e+12 -3.24193e+12 -3.1215e+12 -3.13666e+12 -2.99993e+12 -3.07566e+12 -2.97866e+12 -3.07065e+12 -3.00768e+12 -3.08957e+12 -3.03327e+12 -3.01604e+12 -2.89399e+12 -2.39084e+12 -2.60438e+12 -4.63672e+12 -3.90536e+12 -3.73849e+12 -3.91763e+12 -3.52165e+12 -3.76806e+12 -4.21591e+12 -3.18391e+12 -3.24559e+12 -3.19154e+12 -3.15354e+12 -3.15234e+12 -3.1561e+12 -3.08873e+12 -3.12422e+12 -3.02453e+12 -2.98966e+12 -2.75223e+12 -2.34284e+12 -1.8749e+12 -4.11347e+12 -4.23309e+12 -3.90847e+12 -3.8377e+12 -3.8444e+12 -2.38393e+12 -3.24819e+12 -3.865e+12 -4.29151e+12 -4.37656e+12 -4.87719e+12 -2.47356e+12 -3.26214e+12 -3.30294e+12 -3.25448e+12 -3.22759e+12 -3.22287e+12 -3.20762e+12 -3.13644e+12 -2.88507e+12 -3.1789e+12 -2.87876e+12 -3.8886e+12 -3.89228e+12 -2.50075e+12 -3.00911e+12 -3.97588e+12 -4.18111e+12 -4.7694e+12 -2.5207e+12 -3.12851e+12 -3.40267e+12 -3.37836e+12 -3.45651e+12 -3.36108e+12 -3.41602e+12 -3.31728e+12 -3.37694e+12 -3.29505e+12 -3.35568e+12 -3.28252e+12 -3.33199e+12 -3.24437e+12 -3.12396e+12 -3.06713e+12 -3.2639e+12 -3.64815e+12 -3.62006e+12 -3.70996e+12 -3.90343e+12 -3.90602e+12 -4.10108e+12 -4.21743e+12 -4.44905e+12 -4.67705e+12 -5.02847e+12 -3.42933e+12 -3.53232e+12 -3.5139e+12 -3.46763e+12 -3.43292e+12 -3.41018e+12 -3.37529e+12 -3.27054e+12 -3.33746e+12 -3.21817e+12 -3.33008e+12 -3.48682e+12 -3.37919e+12 -3.96516e+12 -2.57633e+12 -2.82617e+12 -3.81633e+12 -4.48521e+12 -4.30639e+12 -3.57976e+12 -3.61373e+12 -3.69988e+12 -3.60511e+12 -3.65313e+12 -3.56138e+12 -3.51668e+12 -3.48625e+12 -3.46083e+12 -3.43445e+12 -3.43728e+12 -3.35096e+12 -3.50983e+12 -3.42353e+12 -3.48624e+12 -3.32705e+12 -3.93685e+12 -2.6369e+12 -9035750000.0 -2.25333e+12 -4.37014e+12 -4.52489e+12 -4.48506e+12 -4.40462e+12 -4.05262e+12 -3.80061e+12 -3.84218e+12 -3.74651e+12 -3.69175e+12 -3.60445e+12 -3.64676e+12 -3.56492e+12 -3.6152e+12 -3.53885e+12 -3.59491e+12 -3.51775e+12 -3.51488e+12 -3.55641e+12 -3.59896e+12 -3.27312e+12 -2.33156e+12 -4.8628e+12 -4.32236e+12 -2.47583e+12 -3.9801e+12 -4.30433e+12 -4.57756e+12 -4.60333e+12 -4.52256e+12 -4.045e+12 -3.86168e+12 -3.77812e+12 -3.72827e+12 -3.69226e+12 -3.67063e+12 -3.65807e+12 -3.58701e+12 -3.66798e+12 -3.61209e+12 -3.71523e+12 -3.676e+12 -3.63943e+12 -2.73109e+12 -5.05479e+12 -4.233e+12 -1.56835e+12 -4.07811e+12 -4.31223e+12 -4.75241e+12 -4.73348e+12 -4.73364e+12 -4.30103e+12 -4.20356e+12 -4.01218e+12 -3.98894e+12 -3.87328e+12 -3.88515e+12 -3.80662e+12 -3.83876e+12 -3.76834e+12 -3.74578e+12 -3.73209e+12 -3.72816e+12 -3.75409e+12 -3.81006e+12 -3.75913e+12 -3.84725e+12 -3.65975e+12 -3.9062e+12 -4.50054e+12 -4.34324e+12 -4.21752e+12 -4.09212e+12 -6.36959e+12 -5.78197e+12 -5.39845e+12 -4.84549e+12 -4.63654e+12 -4.43548e+12 -4.13176e+12 -3.97323e+12 -3.90257e+12 -3.8829e+12 -3.81813e+12 -3.88442e+12 -3.80924e+12 -3.879e+12 -3.79766e+12 -3.86089e+12 -3.8007e+12 -3.83641e+12 -3.89622e+12 -4.04471e+12 -4.87021e+12 -5.08651e+12 -4.86275e+12 -4.85851e+12 -4.66734e+12 -4.42084e+12 -6.13614e+12 -6.67225e+12 -5.98129e+12 -5.1562e+12 -5.12718e+12 -4.85644e+12 -4.69614e+12 -4.30727e+12 -4.0807e+12 -3.96606e+12 -3.93312e+12 -3.94868e+12 -3.96617e+12 -3.94484e+12 -3.91442e+12 -3.86773e+12 -3.92708e+12 -3.91345e+12 -4.0132e+12 -4.03686e+12 -4.37993e+12 -5.29046e+12 -5.40469e+12 -6.0837e+12 -5.04862e+12 -4.75438e+12 -4.07619e+12 -6.6583e+12 -6.85939e+12 -6.89382e+12 -6.57413e+12 -5.00148e+12 -5.42989e+12 -5.46957e+12 -4.95207e+12 -4.51179e+12 -4.37406e+12 -4.21412e+12 -4.14715e+12 -4.04306e+12 -4.0155e+12 -3.97141e+12 -4.00626e+12 -3.99253e+12 -4.09251e+12 -4.0441e+12 -4.05282e+12 -3.99049e+12 -3.95273e+12 -3.99878e+12 -4.18218e+12 -4.27439e+12 -4.61623e+12 -5.0019e+12 -5.5508e+12 -5.97032e+12 -5.88418e+12 -6.72091e+12 -6.55003e+12 -4.30593e+12 -4.03254e+12 -3.99065e+12 -6.80807e+12 -6.24189e+12 -6.39974e+12 -5.89626e+12 -6.04325e+12 -5.67007e+12 -5.2186e+12 -5.0153e+12 -4.76214e+12 -4.56665e+12 -4.28014e+12 -4.09117e+12 -4.01006e+12 -4.09742e+12 -4.23953e+12 -4.16404e+12 -4.28659e+12 -4.1189e+12 -4.12035e+12 -4.00115e+12 -3.99308e+12 -4.12202e+12 -4.43549e+12 -5.04415e+12 -5.4268e+12 -5.67949e+12 -5.74972e+12 -6.67278e+12 -6.81322e+12 -5.88117e+12 -4.12407e+12 -4.05278e+12 -4.08868e+12 -6.90089e+12 -6.84278e+12 -6.78186e+12 -7.0801e+12 -6.64892e+12 -6.88376e+12 -5.55667e+12 -5.39278e+12 -5.22453e+12 -4.77333e+12 -4.43741e+12 -4.20738e+12 -4.04398e+12 -4.06031e+12 -4.2412e+12 -4.42857e+12 -4.35481e+12 -4.01764e+12 -3.99633e+12 -4.04019e+12 -4.08209e+12 -4.24048e+12 -4.31385e+12 -4.72833e+12 -5.38585e+12 -5.81001e+12 -5.22779e+12 -6.08485e+12 -6.57119e+12 -6.49456e+12 -6.42005e+12 -6.59652e+12 -3.9206e+12 -4.14186e+12 -6.91762e+12 -6.9351e+12 -6.83152e+12 -6.9302e+12 -7.11261e+12 -6.18061e+12 -6.54972e+12 -5.66843e+12 -6.65563e+12 -6.23058e+12 -5.36698e+12 -4.95598e+12 -4.76113e+12 -4.5976e+12 -4.50782e+12 -4.35163e+12 -4.2714e+12 -4.13225e+12 -4.05579e+12 -4.0337e+12 -4.09954e+12 -4.1914e+12 -4.36796e+12 -4.46089e+12 -4.73726e+12 -4.6143e+12 -4.23721e+12 -3.96576e+12 -4.19148e+12 -4.423e+12 -4.54141e+12 -4.76872e+12 -5.03142e+12 -5.64412e+12 -6.1432e+12 -6.99163e+12 -6.25134e+12 -6.71196e+12 -6.59663e+12 -6.64439e+12 -3.76758e+12 -4.15694e+12 -4.18475e+12 -6.87474e+12 -6.83245e+12 -6.83917e+12 -6.82755e+12 -6.16653e+12 -6.44499e+12 -6.23596e+12 -5.82928e+12 -5.38807e+12 -5.08482e+12 -4.86351e+12 -4.63701e+12 -4.4418e+12 -4.16563e+12 -4.02779e+12 -4.25403e+12 -4.67466e+12 -4.8834e+12 -4.61413e+12 -3.54484e+12 -3.77208e+12 -4.1457e+12 -4.35072e+12 -4.60723e+12 -4.98989e+12 -5.27603e+12 -6.20456e+12 -5.75184e+12 -6.43757e+12 -6.4833e+12 -6.5426e+12 -6.59896e+12 -6.57279e+12 -6.6054e+12 -3.60845e+12 -3.48601e+12 -4.01919e+12 -6.72328e+12 -6.7487e+12 -6.84633e+12 -6.85215e+12 -6.88172e+12 -6.80789e+12 -7.05023e+12 -6.56551e+12 -6.53865e+12 -6.49593e+12 -5.70403e+12 -5.06112e+12 -4.77609e+12 -4.6083e+12 -4.34868e+12 -4.05466e+12 -4.10884e+12 -4.4305e+12 -4.90173e+12 -3.40691e+12 -3.97168e+12 -4.08006e+12 -4.23719e+12 -4.2965e+12 -4.44839e+12 -4.51023e+12 -4.77504e+12 -5.26737e+12 -5.63247e+12 -5.85606e+12 -6.47524e+12 -6.08005e+12 -6.49559e+12 -6.4139e+12 -6.52557e+12 -6.50728e+12 -6.52529e+12 -3.46433e+12 -3.68712e+12 -5.55497e+12 -6.437e+12 -6.56998e+12 -6.74562e+12 -6.72713e+12 -7.01569e+12 -7.27696e+12 -6.57084e+12 -6.53329e+12 -6.17178e+12 -5.9655e+12 -5.51262e+12 -5.31233e+12 -4.87265e+12 -4.89042e+12 -4.68581e+12 -4.74873e+12 -4.55328e+12 -4.42877e+12 -4.19642e+12 -4.02529e+12 -4.01825e+12 -3.94867e+12 -4.2019e+12 -4.40629e+12 -4.69368e+12 -3.41161e+12 -3.87131e+12 -4.15079e+12 -4.38905e+12 -4.58387e+12 -4.65074e+12 -4.7765e+12 -4.9981e+12 -5.45934e+12 -6.10206e+12 -5.98971e+12 -6.26844e+12 -6.26625e+12 -6.30808e+12 -6.4985e+12 -6.47146e+12 -6.51077e+12 -6.45211e+12 -6.42995e+12 -6.42184e+12 -6.40513e+12 -3.55022e+12 -4.09562e+12 -3.89389e+12 -6.45716e+12 -7.00002e+12 -6.18033e+12 -6.35029e+12 -6.5764e+12 -6.53073e+12 -6.43168e+12 -6.73838e+12 -6.77825e+12 -6.46943e+12 -6.24523e+12 -6.23061e+12 -5.74339e+12 -5.14272e+12 -4.99252e+12 -4.83063e+12 -4.71238e+12 -4.685e+12 -4.20773e+12 -3.5638e+12 -4.61168e+12 -4.41061e+12 -4.20586e+12 -3.74591e+12 -3.87943e+12 -3.83398e+12 -3.95322e+12 -4.04392e+12 -4.20386e+12 -4.30804e+12 -4.53393e+12 -4.68879e+12 -4.94987e+12 -5.18907e+12 -5.30587e+12 -5.58307e+12 -5.77717e+12 -6.07343e+12 -5.968e+12 -6.19402e+12 -6.48589e+12 -6.4965e+12 -6.43895e+12 -6.34499e+12 -6.42094e+12 -3.66707e+12 -3.76646e+12 -4.1638e+12 -6.69672e+12 -6.86012e+12 -6.48128e+12 -6.50467e+12 -6.38549e+12 -6.33403e+12 -6.16169e+12 -5.38968e+12 -5.00645e+12 -5.5837e+12 -5.81294e+12 -5.59825e+12 -5.39759e+12 -4.58663e+12 -4.97449e+12 -4.9216e+12 -4.92111e+12 -4.525e+12 -3.88105e+12 -3.62958e+12 -5.06773e+12 -4.4621e+12 -4.03843e+12 -3.92364e+12 -4.0925e+12 -4.36021e+12 -4.4625e+12 -4.60806e+12 -4.65404e+12 -4.71338e+12 -4.6983e+12 -5.1103e+12 -5.28261e+12 -5.7896e+12 -5.85822e+12 -5.34624e+12 -6.55794e+12 -6.41659e+12 -6.62178e+12 -6.48863e+12 -6.43052e+12 -6.29266e+12 -6.29933e+12 -6.30589e+12 -6.43089e+12 -3.82232e+12 -4.18545e+12 -6.62506e+12 -6.70469e+12 -6.69058e+12 -6.84704e+12 -6.4758e+12 -6.4182e+12 -6.27991e+12 -6.06511e+12 -6.23552e+12 -6.01143e+12 -5.9298e+12 -6.15665e+12 -5.87292e+12 -5.71918e+12 -5.15811e+12 -5.02641e+12 -4.5488e+12 -3.75964e+12 -4.35742e+12 -5.37922e+12 -4.4216e+12 -5.01231e+12 -5.18246e+12 -4.97406e+12 -4.79587e+12 -4.43363e+12 -4.25355e+12 -4.05024e+12 -3.9609e+12 -4.00615e+12 -4.23649e+12 -4.51933e+12 -4.71919e+12 -4.50206e+12 -4.84501e+12 -5.01434e+12 -5.19503e+12 -4.91505e+12 -5.47868e+12 -5.52122e+12 -5.39751e+12 -6.00733e+12 -6.84e+12 -6.3686e+12 -6.36343e+12 -6.36151e+12 -6.5932e+12 -6.33518e+12 -6.25405e+12 -6.2743e+12 -6.39149e+12 -6.29933e+12 -3.84799e+12 -4.16925e+12 -4.18476e+12 -6.52416e+12 -6.5579e+12 -6.46668e+12 -6.61364e+12 -6.49322e+12 -6.33753e+12 -6.19924e+12 -6.03338e+12 -5.72788e+12 -5.33752e+12 -5.27783e+12 -5.39152e+12 -5.31397e+12 -4.88509e+12 -4.86461e+12 -3.61379e+12 -3.17176e+12 -4.04365e+12 -4.83372e+12 -4.62051e+12 -4.92833e+12 -4.59228e+12 -4.17563e+12 -3.96709e+12 -3.96643e+12 -4.0301e+12 -4.12103e+12 -4.2436e+12 -4.38254e+12 -4.5357e+12 -4.68244e+12 -4.85988e+12 -4.75729e+12 -4.65826e+12 -5.0038e+12 -5.30174e+12 -5.75117e+12 -6.3405e+12 -3.73058e+12 -5.55594e+12 -5.1518e+12 -6.45336e+12 -6.32314e+12 -6.23412e+12 -6.2381e+12 -6.25784e+12 -6.18044e+12 -5.9838e+12 -3.48743e+12 -3.45566e+12 -4.1443e+12 -6.41786e+12 -6.31852e+12 -6.43673e+12 -6.34248e+12 -6.35068e+12 -6.20115e+12 -6.24328e+12 -6.08665e+12 -5.95638e+12 -5.78914e+12 -5.57164e+12 -5.14794e+12 -4.14245e+12 -5.27295e+12 -5.15421e+12 -4.80375e+12 -4.51593e+12 -5.11985e+12 -5.11773e+12 -4.40075e+12 -4.64683e+12 -4.53473e+12 -4.71731e+12 -4.53459e+12 -4.61742e+12 -4.26662e+12 -3.99949e+12 -3.96272e+12 -4.1256e+12 -4.3635e+12 -4.71249e+12 -5.09637e+12 -3.96816e+12 -3.86508e+12 -4.97376e+12 -5.61455e+12 -3.96622e+12 -4.8694e+12 -5.03373e+12 -6.75323e+12 -5.40324e+12 -6.41151e+12 -6.62815e+12 -6.35649e+12 -6.2803e+12 -5.9383e+12 -5.32563e+12 -6.21283e+12 -6.21474e+12 -3.5044e+12 -4.07442e+12 -4.10627e+12 -6.22589e+12 -6.3152e+12 -6.2081e+12 -6.21699e+12 -6.11495e+12 -6.22965e+12 -6.10424e+12 -5.99552e+12 -5.83515e+12 -5.84083e+12 -5.71201e+12 -5.60804e+12 -5.68574e+12 -5.10034e+12 -4.97096e+12 -4.52808e+12 -4.98521e+12 -4.96971e+12 -4.72469e+12 -4.90712e+12 -4.62079e+12 -4.38427e+12 -4.41862e+12 -4.291e+12 -4.31358e+12 -4.06059e+12 -4.04493e+12 -3.90533e+12 -3.92552e+12 -3.91389e+12 -4.00755e+12 -4.07595e+12 -4.23807e+12 -4.37101e+12 -4.47115e+12 -4.96424e+12 -5.10281e+12 -3.30979e+12 -5.16821e+12 -3.98135e+12 -5.19861e+12 -4.96169e+12 -4.08554e+12 -4.57803e+12 -5.62337e+12 -6.88254e+12 -6.34076e+12 -6.20249e+12 -6.1092e+12 -6.21283e+12 -6.77499e+12 -6.28969e+12 -6.29913e+12 -6.24731e+12 -3.48852e+12 -3.93745e+12 -6.27394e+12 -6.17848e+12 -6.10573e+12 -5.9828e+12 -6.09311e+12 -5.98532e+12 -5.99245e+12 -5.8656e+12 -5.94181e+12 -5.76147e+12 -5.62228e+12 -5.71764e+12 -5.65446e+12 -5.44344e+12 -5.79724e+12 -6.58329e+12 -5.9702e+12 -5.26396e+12 -3.53095e+12 -5.35735e+12 -4.9081e+12 -4.84598e+12 -4.37771e+12 -4.32833e+12 -4.24197e+12 -4.27621e+12 -4.22666e+12 -4.05318e+12 -3.88785e+12 -3.84197e+12 -3.936e+12 -4.16219e+12 -4.55184e+12 -4.50652e+12 -4.08142e+12 -4.44428e+12 -5.03973e+12 -5.68501e+12 -4.72155e+12 -5.55531e+12 -6.2402e+12 -5.44694e+12 -5.07298e+12 -5.48236e+12 -5.44353e+12 -5.98928e+12 -6.50411e+12 -6.10746e+12 -6.10487e+12 -6.16139e+12 -6.55866e+12 -6.59849e+12 -6.27994e+12 -6.1973e+12 -6.11125e+12 -3.4252e+12 -3.48873e+12 -3.72105e+12 -6.19927e+12 -6.13291e+12 -6.02491e+12 -5.8758e+12 -5.84932e+12 -5.75211e+12 -5.88724e+12 -5.74732e+12 -5.68401e+12 -5.51876e+12 -5.57569e+12 -5.64622e+12 -5.43839e+12 -5.29506e+12 -4.66046e+12 -5.53827e+12 -5.32079e+12 -4.77e+12 -5.91498e+12 -4.94585e+12 -4.59417e+12 -4.48079e+12 -3.98961e+12 -4.08613e+12 -4.13242e+12 -3.95164e+12 -4.01919e+12 -3.85481e+12 -3.77835e+12 -3.81837e+12 -3.97807e+12 -4.26337e+12 -4.73028e+12 -4.92156e+12 -3.05348e+12 -3.72635e+12 -4.42604e+12 -5.01102e+12 -5.22995e+12 -5.70274e+12 -5.63207e+12 -5.25534e+12 -5.25339e+12 -5.31519e+12 -5.6084e+12 -5.85673e+12 -6.12876e+12 -5.81964e+12 -5.91409e+12 -6.12869e+12 -6.12232e+12 -6.26948e+12 -6.05067e+12 -6.05986e+12 -5.87768e+12 -5.94165e+12 -3.3316e+12 -3.22525e+12 -3.39964e+12 -5.96964e+12 -5.93477e+12 -5.9479e+12 -5.76764e+12 -5.72012e+12 -5.6021e+12 -5.65929e+12 -5.48685e+12 -5.63391e+12 -5.38532e+12 -5.41294e+12 -5.42657e+12 -5.58569e+12 -5.49458e+12 -6.56705e+12 -5.67189e+12 -5.51432e+12 -4.97802e+12 -3.94433e+12 -5.4975e+12 -5.47037e+12 -4.4662e+12 -4.00771e+12 -3.88997e+12 -4.10869e+12 -3.90818e+12 -3.76654e+12 -3.81478e+12 -3.64101e+12 -3.71561e+12 -3.61819e+12 -3.71687e+12 -3.67726e+12 -3.82033e+12 -3.84155e+12 -4.03982e+12 -4.09448e+12 -4.39734e+12 -4.65951e+12 -5.49486e+12 -4.33282e+12 -4.30417e+12 -4.71423e+12 -4.92083e+12 -4.90233e+12 -5.14694e+12 -5.11245e+12 -5.02143e+12 -5.03374e+12 -5.10812e+12 -5.28994e+12 -5.45744e+12 -5.60463e+12 -5.76208e+12 -5.51513e+12 -5.72773e+12 -5.8911e+12 -6.0078e+12 -5.75698e+12 -5.83217e+12 -5.69572e+12 -5.76786e+12 -3.12271e+12 -3.33694e+12 -5.79055e+12 -5.89048e+12 -5.89303e+12 -6.0124e+12 -5.85976e+12 -5.5392e+12 -5.28355e+12 -5.5462e+12 -5.48324e+12 -5.51162e+12 -5.44049e+12 -5.39426e+12 -5.24963e+12 -5.20295e+12 -5.4136e+12 -5.64321e+12 -4.79178e+12 -5.61375e+12 -5.69604e+12 -5.21046e+12 -5.00238e+12 -4.54717e+12 -4.9107e+12 -5.04498e+12 -4.8343e+12 -3.82182e+12 -2.81077e+12 -3.36529e+12 -4.19225e+12 -3.95297e+12 -3.67713e+12 -3.69119e+12 -3.5697e+12 -3.52684e+12 -3.55647e+12 -3.65919e+12 -3.89066e+12 -4.27917e+12 -4.61593e+12 -4.40977e+12 -4.11338e+12 -4.52274e+12 -4.69746e+12 -4.84746e+12 -4.86456e+12 -4.69053e+12 -4.07909e+12 -3.88693e+12 -4.54201e+12 -4.87545e+12 -5.07083e+12 -5.20255e+12 -5.2939e+12 -5.35432e+12 -5.12886e+12 -5.67735e+12 -5.34198e+12 -5.60726e+12 -5.58137e+12 -5.63639e+12 -5.4633e+12 -5.52883e+12 -5.6001e+12 -5.44317e+12 -3.03255e+12 -3.12979e+12 -3.25529e+12 -5.63944e+12 -5.56942e+12 -5.76501e+12 -5.85129e+12 -6.22887e+12 -4.47664e+12 -5.29705e+12 -5.28135e+12 -5.35521e+12 -5.30733e+12 -5.32038e+12 -5.16293e+12 -5.08764e+12 -4.93294e+12 -4.86558e+12 -5.14968e+12 -5.67089e+12 -4.05775e+12 -5.00489e+12 -5.07526e+12 -4.84643e+12 -4.66835e+12 -4.73719e+12 -4.65392e+12 -4.54113e+12 -4.2763e+12 -3.26023e+12 -2.17348e+12 -4.72677e+12 -3.9039e+12 -3.29538e+12 -3.50066e+12 -3.32727e+12 -3.41079e+12 -3.42749e+12 -3.49795e+12 -3.64531e+12 -3.91979e+12 -4.28816e+12 -4.46125e+12 -2.99359e+12 -3.64076e+12 -4.26869e+12 -4.45035e+12 -4.63491e+12 -4.82365e+12 -4.9571e+12 -5.10287e+12 -5.71259e+12 -5.8729e+12 -5.12288e+12 -4.92424e+12 -4.91963e+12 -4.95915e+12 -4.9758e+12 -4.95086e+12 -4.83959e+12 -4.83598e+12 -5.33986e+12 -5.47637e+12 -5.38869e+12 -5.41913e+12 -5.31153e+12 -5.3722e+12 -5.29066e+12 -2.94408e+12 -2.84113e+12 -2.98441e+12 -5.46411e+12 -5.36103e+12 -5.57265e+12 -5.65054e+12 -6.03905e+12 -5.66215e+12 -4.58501e+12 -5.00863e+12 -5.12605e+12 -5.09635e+12 -5.10067e+12 -4.87623e+12 -5.06046e+12 -3.81596e+12 -4.49553e+12 -5.01213e+12 -6.04142e+12 -4.60176e+12 -4.55618e+12 -4.45358e+12 -4.29753e+12 -4.10106e+12 -3.78619e+12 -2.5268e+12 -3.04767e+12 -3.2629e+12 -3.15428e+12 -3.32042e+12 -3.18186e+12 -3.37601e+12 -3.30736e+12 -3.45976e+12 -3.36651e+12 -3.66516e+12 -3.44576e+12 -4.82346e+12 -3.9189e+12 -4.14849e+12 -4.35282e+12 -4.53856e+12 -4.71554e+12 -4.8879e+12 -5.26907e+12 -5.59624e+12 -5.41443e+12 -5.03985e+12 -4.89381e+12 -4.84089e+12 -4.79491e+12 -4.68079e+12 -4.34481e+12 -3.16772e+12 -5.24375e+12 -5.22177e+12 -5.24359e+12 -5.30609e+12 -5.27438e+12 -5.27138e+12 -5.11128e+12 -5.15235e+12 -5.21984e+12 -5.05969e+12 -5.12801e+12 -2.72002e+12 -2.81084e+12 -5.00291e+12 -5.26339e+12 -5.14169e+12 -5.27397e+12 -5.32094e+12 -5.49664e+12 -5.26078e+12 -4.9362e+12 -5.01426e+12 -5.21661e+12 -4.84173e+12 -5.08694e+12 -3.62905e+12 -5.24892e+12 -3.14285e+12 -4.37225e+12 -5.31743e+12 -5.09666e+12 -4.79146e+12 -4.74563e+12 -4.58076e+12 -4.13153e+12 -3.9584e+12 -3.74655e+12 -3.45113e+12 -3.04799e+12 -3.29553e+12 -1.90115e+12 -2.7932e+12 -3.28699e+12 -3.1137e+12 -3.09769e+12 -3.15088e+12 -3.34105e+12 -3.18514e+12 -3.93205e+12 -4.77517e+12 -2.25091e+12 -3.49048e+12 -3.82119e+12 -4.05636e+12 -4.24874e+12 -4.69075e+12 -4.67969e+12 -4.69519e+12 -4.52919e+12 -6.04473e+12 -5.73964e+12 -5.29255e+12 -5.2957e+12 -5.32805e+12 -5.16378e+12 -5.1085e+12 -4.93147e+12 -4.98958e+12 -4.88168e+12 -4.94365e+12 -4.74462e+12 -2.5783e+12 -2.56313e+12 -2.68586e+12 -4.89686e+12 -4.79437e+12 -4.30382e+12 -4.96995e+12 -4.94663e+12 -5.04141e+12 -5.27524e+12 -5.25196e+12 -5.22157e+12 -5.03814e+12 -4.81864e+12 -5.04172e+12 -5.17369e+12 -6.08555e+12 -4.54961e+12 -4.70044e+12 -4.75427e+12 -4.78326e+12 -4.49648e+12 -4.49259e+12 -4.43142e+12 -4.35655e+12 -4.26959e+12 -3.84303e+12 -3.68658e+12 -3.50157e+12 -3.28456e+12 -3.28073e+12 -2.73487e+12 -2.66637e+12 -2.83846e+12 -2.77907e+12 -2.84069e+12 -2.84939e+12 -2.98537e+12 -3.35779e+12 -3.85903e+12 -1.45761e+12 -3.10082e+12 -3.47161e+12 -3.17741e+12 -3.58991e+12 -3.80188e+12 -3.98115e+12 -4.41585e+12 -4.58872e+12 -4.83e+12 -5.00058e+12 -5.07655e+12 -4.98725e+12 -4.8131e+12 -4.73041e+12 -4.33873e+12 -4.19408e+12 -3.66371e+12 -6.17796e+12 -5.84312e+12 -5.38648e+12 -5.12184e+12 -5.28087e+12 -4.94216e+12 -4.91203e+12 -4.745e+12 -4.81236e+12 -4.60736e+12 -4.67951e+12 -4.52349e+12 -2.42357e+12 -2.43275e+12 -4.75211e+12 -4.71322e+12 -4.82213e+12 -4.79657e+12 -3.98918e+12 -4.42492e+12 -5.19325e+12 -5.2418e+12 -5.10374e+12 -5.14743e+12 -5.82612e+12 -3.54064e+12 -4.98139e+12 -4.69548e+12 -4.4896e+12 -4.14034e+12 -4.43296e+12 -4.44683e+12 -4.50756e+12 -4.4205e+12 -4.22014e+12 -4.19258e+12 -4.1521e+12 -4.07808e+12 -3.97661e+12 -3.52008e+12 -3.41339e+12 -3.40628e+12 -3.34016e+12 -3.60949e+12 -3.54495e+12 -3.70003e+12 -1.8532e+12 -2.4154e+12 -2.98654e+12 -2.55553e+12 -2.98056e+12 -2.41781e+12 -4.21512e+12 -3.7948e+12 -3.51823e+12 -3.58024e+12 -3.42626e+12 -3.6061e+12 -4.13826e+12 -4.28921e+12 -4.46794e+12 -4.59136e+12 -4.64618e+12 -4.69368e+12 -4.63923e+12 -4.5406e+12 -4.47054e+12 -4.40642e+12 -4.17929e+12 -4.69957e+12 -5.37643e+12 -5.28184e+12 -5.11145e+12 -5.02646e+12 -4.73053e+12 -4.71015e+12 -4.4763e+12 -4.53123e+12 -4.37917e+12 -4.46292e+12 -4.29372e+12 -2.26741e+12 -2.11339e+12 -2.28338e+12 -4.55663e+12 -4.53719e+12 -4.72306e+12 -4.88272e+12 -5.20924e+12 -5.62256e+12 -5.49744e+12 -4.984e+12 -5.14552e+12 -5.14606e+12 -5.37389e+12 -5.60498e+12 -3.98139e+12 -4.95047e+12 -4.94751e+12 -3.97057e+12 -4.41715e+12 -4.60335e+12 -4.30842e+12 -4.43498e+12 -4.30662e+12 -4.33372e+12 -4.21203e+12 -4.17909e+12 -3.96966e+12 -3.92676e+12 -3.91314e+12 -3.8826e+12 -3.82053e+12 -3.73362e+12 -3.63093e+12 -3.40024e+12 -3.34214e+12 -3.37016e+12 -3.41466e+12 -2.53544e+12 -4.13163e+12 -2.19579e+12 -3.12449e+12 -2.88024e+12 -2.71752e+12 -2.38285e+12 -3.53157e+12 -3.38435e+12 -3.3752e+12 -3.75387e+12 -3.89198e+12 -4.02285e+12 -4.16043e+12 -4.26172e+12 -4.31418e+12 -4.35032e+12 -4.36656e+12 -4.32149e+12 -4.24935e+12 -4.18389e+12 -4.14157e+12 -4.15473e+12 -4.39339e+12 -4.5812e+12 -4.43205e+12 -5.11226e+12 -4.96471e+12 -4.81157e+12 -4.59549e+12 -4.50017e+12 -4.19299e+12 -4.27853e+12 -4.13281e+12 -4.22893e+12 -3.97474e+12 -4.06259e+12 -1.97707e+12 -2.13288e+12 -4.05717e+12 -4.32155e+12 -4.3057e+12 -4.54154e+12 -4.60189e+12 -5.16794e+12 -5.30145e+12 -5.2217e+12 -5.14923e+12 -5.44679e+12 -5.52387e+12 -3.43192e+12 -4.35579e+12 -4.41364e+12 -4.09839e+12 -4.29726e+12 -4.31113e+12 -4.27099e+12 -4.3482e+12 -4.324e+12 -4.29476e+12 -3.85146e+12 -3.63056e+12 -3.65485e+12 -3.6675e+12 -3.65628e+12 -3.61658e+12 -3.5592e+12 -3.49508e+12 -3.43445e+12 -3.30662e+12 -3.27076e+12 -3.02046e+12 -3.28935e+12 -2.98197e+12 -2.04832e+12 -3.28222e+12 -1.17659e+12 -3.61065e+12 -1.43995e+12 -2.88515e+12 -2.37272e+12 -3.44698e+12 -3.44855e+12 -3.56426e+12 -3.67808e+12 -3.78836e+12 -3.89547e+12 -3.97739e+12 -4.02881e+12 -4.05913e+12 -4.07458e+12 -4.06277e+12 -4.00954e+12 -3.93054e+12 -3.8533e+12 -3.82413e+12 -3.93468e+12 -4.40896e+12 -3.98488e+12 -3.30451e+12 -5.15289e+12 -4.79762e+12 -4.24342e+12 -4.15034e+12 -3.86883e+12 -3.99796e+12 -3.56539e+12 -3.83312e+12 -3.80253e+12 -3.86178e+12 -3.65642e+12 -1.85008e+12 -1.84519e+12 -1.99346e+12 -3.78058e+12 -4.04139e+12 -4.04134e+12 -4.31221e+12 -4.32733e+12 -4.68471e+12 -4.77974e+12 -5.05128e+12 -4.85088e+12 -4.87143e+12 -5.11238e+12 -4.72204e+12 -4.3214e+12 -3.83453e+12 -4.07917e+12 -4.12259e+12 -4.03515e+12 -4.10351e+12 -4.16231e+12 -4.20481e+12 -4.32018e+12 -4.45394e+12 -4.43658e+12 -3.50602e+12 -3.44801e+12 -3.47597e+12 -3.48546e+12 -3.47107e+12 -3.44417e+12 -3.41825e+12 -3.38984e+12 -3.34051e+12 -2.91928e+12 -2.67365e+12 -2.77782e+12 -2.48235e+12 -2.71027e+12 -2.74113e+12 -2.86876e+12 -3.22295e+12 -3.24204e+12 -3.28387e+12 -3.35106e+12 -3.40153e+12 -3.49117e+12 -3.58148e+12 -3.66651e+12 -3.73351e+12 -3.77787e+12 -3.80606e+12 -3.81868e+12 -3.81131e+12 -3.7737e+12 -3.69549e+12 -3.57999e+12 -3.44052e+12 -3.23307e+12 -4.15868e+12 -4.14771e+12 -3.71523e+12 -5.48465e+12 -4.87529e+12 -4.68048e+12 -4.41353e+12 -3.72172e+12 -3.76861e+12 -3.05843e+12 -3.26653e+12 -3.75931e+12 -3.74737e+12 -3.61143e+12 -3.43691e+12 -1.71701e+12 -1.68382e+12 -3.49065e+12 -3.76077e+12 -3.75335e+12 -4.0577e+12 -4.04574e+12 -4.36329e+12 -4.31598e+12 -4.75196e+12 -4.66393e+12 -4.625e+12 -4.78666e+12 -4.69284e+12 -3.7252e+12 -3.84655e+12 -3.90005e+12 -3.88181e+12 -3.94111e+12 -4.01561e+12 -4.11818e+12 -4.31157e+12 -4.46001e+12 -2.32145e+12 -3.14141e+12 -3.35614e+12 -3.32395e+12 -3.35743e+12 -3.37077e+12 -3.38943e+12 -3.38202e+12 -3.33967e+12 -3.28267e+12 -3.21393e+12 -3.08547e+12 -3.12898e+12 -2.93455e+12 -2.90435e+12 -2.76386e+12 -2.9285e+12 -3.09042e+12 -3.14138e+12 -3.19611e+12 -3.26057e+12 -3.32178e+12 -3.39449e+12 -3.46351e+12 -3.51948e+12 -3.55835e+12 -3.58279e+12 -3.59543e+12 -3.59262e+12 -3.56568e+12 -3.50452e+12 -3.38962e+12 -3.20165e+12 -2.73308e+12 -4.46148e+12 -4.24241e+12 -4.07725e+12 -4.55127e+12 -4.30856e+12 -4.1682e+12 -3.88793e+12 -2.8992e+12 -2.91226e+12 -4.2701e+12 -3.97315e+12 -3.58392e+12 -3.58171e+12 -3.37673e+12 -3.40076e+12 -3.18624e+12 -1.57403e+12 -1.41638e+12 -1.5091e+12 -3.17405e+12 -3.16655e+12 -3.47123e+12 -3.46193e+12 -3.76846e+12 -3.78603e+12 -4.03679e+12 -3.77814e+12 -4.30315e+12 -4.28879e+12 -4.32773e+12 -4.84445e+12 -5.21098e+12 -3.31184e+12 -3.7691e+12 -3.84168e+12 -2.10865e+12 -2.30405e+12 -3.04195e+12 -3.26979e+12 -3.3304e+12 -3.36311e+12 -3.39439e+12 -3.35579e+12 -3.28327e+12 -3.19433e+12 -3.08713e+12 -3.03548e+12 -2.90727e+12 -2.75779e+12 -2.75597e+12 -2.57185e+12 -2.69977e+12 -2.60368e+12 -2.84618e+12 -2.78067e+12 -2.82096e+12 -2.81289e+12 -2.8992e+12 -2.99167e+12 -3.04833e+12 -3.1048e+12 -3.16422e+12 -3.22124e+12 -3.27792e+12 -3.32541e+12 -4.66753e+12 -4.43096e+12 -4.15381e+12 -3.94001e+12 -4.1233e+12 -4.232e+12 -3.81581e+12 -3.58177e+12 -4.37396e+12 -4.42934e+12 -3.90693e+12 -3.69404e+12 -3.42914e+12 -3.3803e+12 -3.15108e+12 -3.16795e+12 -2.90787e+12 -2.90227e+12 -1.22101e+12 -1.3246e+12 -2.81967e+12 -2.82536e+12 -3.16103e+12 -3.17905e+12 -3.47237e+12 -3.51119e+12 -3.54112e+12 -3.69825e+12 -3.63625e+12 -3.71943e+12 -3.76807e+12 -4.33664e+12 -4.62528e+12 -4.64177e+12 -2.91162e+12 -3.45365e+12 -3.59123e+12 -3.59646e+12 -3.66602e+12 -3.69915e+12 -3.7115e+12 -3.76201e+12 -3.83803e+12 -3.97254e+12 -4.09805e+12 -2.15793e+12 -3.11994e+12 -3.23931e+12 -3.22041e+12 -3.13664e+12 -3.24928e+12 -3.4111e+12 -3.31166e+12 -3.19697e+12 -3.07944e+12 -2.98591e+12 -2.87676e+12 -2.7663e+12 -2.70658e+12 -2.61524e+12 -2.60761e+12 -2.59766e+12 -2.6489e+12 -2.70815e+12 -2.71671e+12 -2.7521e+12 -2.77837e+12 -2.83727e+12 -2.90139e+12 -2.95468e+12 -3.35996e+12 -3.38289e+12 -3.39573e+12 -3.39785e+12 -3.38476e+12 -3.34723e+12 -3.27182e+12 -3.11868e+12 -2.6796e+12 -4.35886e+12 -4.34295e+12 -4.13594e+12 -3.94414e+12 -3.95903e+12 -3.92432e+12 -3.8808e+12 -3.4726e+12 -4.10959e+12 -3.89667e+12 -4.11371e+12 -4.08659e+12 -3.66536e+12 -3.53831e+12 -3.17943e+12 -3.14884e+12 -2.89851e+12 -2.6186e+12 -2.57831e+12 -1.06955e+12 -933901000000.0 -1.13988e+12 -2.0531e+12 -2.43503e+12 -2.44029e+12 -2.83436e+12 -2.8603e+12 -3.22056e+12 -3.29742e+12 -3.35359e+12 -2.81994e+12 -2.99797e+12 -3.90489e+12 -3.60711e+12 -3.85478e+12 -3.79315e+12 -3.05375e+12 -3.34733e+12 -3.43534e+12 -3.45562e+12 -3.48562e+12 -3.50215e+12 -3.51072e+12 -3.53409e+12 -3.57917e+12 -3.62853e+12 -2.13902e+12 -2.30849e+12 -3.15733e+12 -3.16256e+12 -3.03615e+12 -2.74871e+12 -3.3581e+12 -3.46271e+12 -3.21794e+12 -3.0736e+12 -2.95165e+12 -2.83905e+12 -2.73776e+12 -2.66273e+12 -2.5909e+12 -2.55742e+12 -2.53619e+12 -2.55838e+12 -2.58342e+12 -2.62061e+12 -2.64501e+12 -3.00687e+12 -3.05811e+12 -3.10497e+12 -3.14579e+12 -3.17699e+12 -3.19863e+12 -3.21248e+12 -3.21856e+12 -3.21566e+12 -3.20044e+12 -3.16573e+12 -3.09588e+12 -2.83473e+12 -3.77464e+12 -3.9462e+12 -3.91766e+12 -3.8231e+12 -3.78916e+12 -3.74174e+12 -3.65479e+12 -3.57475e+12 -3.47367e+12 -2.99565e+12 -3.54285e+12 -3.69846e+12 -3.32729e+12 -3.23327e+12 -2.91607e+12 -2.89656e+12 -2.62497e+12 -2.62757e+12 -2.31402e+12 -2.12571e+12 -1.83317e+12 -911040000000.0 -720735000000.0 -1.67261e+12 -2.03644e+12 -2.47029e+12 -2.50716e+12 -2.91528e+12 -3.00936e+12 -3.40869e+12 -3.45693e+12 -1.36825e+12 -3.3907e+12 -3.80687e+12 -2.98599e+12 -3.30786e+12 -3.32793e+12 -3.17022e+12 -3.25316e+12 -3.28883e+12 -3.29269e+12 -3.29467e+12 -3.28559e+12 -3.26183e+12 -3.21978e+12 -3.1437e+12 -2.23182e+12 -2.30102e+12 -2.19752e+12 -1.96289e+12 -3.11214e+12 -3.00449e+12 -2.76366e+12 -2.32244e+12 -3.58905e+12 -3.52893e+12 -3.37462e+12 -2.67809e+12 -2.71188e+12 -2.75856e+12 -2.80873e+12 -2.85552e+12 -2.90024e+12 -2.94155e+12 -2.97696e+12 -3.0052e+12 -3.02585e+12 -3.04004e+12 -3.04847e+12 -3.05152e+12 -3.04905e+12 -3.04045e+12 -3.02534e+12 -2.98669e+12 -3.26905e+12 -3.48416e+12 -3.56917e+12 -3.58015e+12 -3.56831e+12 -3.5287e+12 -3.44778e+12 -3.32923e+12 -3.18782e+12 -2.84084e+12 -2.86802e+12 -3.52734e+12 -3.45057e+12 -2.99964e+12 -2.94975e+12 -2.65954e+12 -2.64106e+12 -2.34922e+12 -2.34097e+12 -1.78089e+12 -1.52424e+12 -740557000000.0 -539862000000.0 -504823000000.0 -1.28883e+12 -1.64544e+12 -2.05274e+12 -2.10038e+12 -2.57512e+12 -2.71365e+12 -3.15141e+12 -3.40202e+12 -2.95224e+12 -3.69516e+12 -2.524e+12 -3.20951e+12 -3.58995e+12 -2.94311e+12 -3.11067e+12 -3.15887e+12 -3.09789e+12 -3.12279e+12 -3.12879e+12 -3.11464e+12 -3.08936e+12 -3.04442e+12 -2.96562e+12 -2.82006e+12 -2.37405e+12 -2.32103e+12 -2.19866e+12 -2.04974e+12 -1.76543e+12 -2.964e+12 -2.77404e+12 -2.48775e+12 -2.06833e+12 -3.62502e+12 -3.46428e+12 -3.24935e+12 -3.067e+12 -2.91773e+12 -2.79304e+12 -2.68928e+12 -2.60806e+12 -2.54092e+12 -2.49716e+12 -2.47104e+12 -2.47017e+12 -2.48494e+12 -2.50774e+12 -2.53712e+12 -2.56433e+12 -2.59548e+12 -2.62905e+12 -2.66835e+12 -2.70943e+12 -2.74858e+12 -2.78472e+12 -2.81619e+12 -2.84178e+12 -2.86143e+12 -2.87565e+12 -2.88522e+12 -2.89066e+12 -2.89287e+12 -2.89272e+12 -2.8919e+12 -2.89772e+12 -3.03731e+12 -3.13973e+12 -3.2297e+12 -3.28359e+12 -3.31026e+12 -3.30082e+12 -3.25653e+12 -3.16601e+12 -3.01122e+12 -2.66292e+12 -1.24127e+12 -4.00262e+12 -3.65934e+12 -3.22743e+12 -3.10355e+12 -2.72944e+12 -2.68971e+12 -2.37133e+12 -2.35314e+12 -2.05727e+12 -2.01986e+12 -1.41698e+12 -1.49069e+12 -1.20223e+12 -386307000000.0 -296303000000.0 -922281000000.0 -863924000000.0 -1.24846e+12 -1.61635e+12 -1.62924e+12 -2.13926e+12 -2.24885e+12 -2.4439e+12 -2.95636e+12 -3.43603e+12 -4.05166e+12 -1.3249e+12 -3.30315e+12 -1.33985e+12 -2.51932e+12 -2.96733e+12 -3.07875e+12 -2.84737e+12 -2.98017e+12 -2.97803e+12 -2.96071e+12 -2.92563e+12 -2.8729e+12 -2.79341e+12 -2.67189e+12 -2.45829e+12 -2.33879e+12 -2.20313e+12 -2.05724e+12 -1.8905e+12 -1.59473e+12 -3.48408e+12 -3.2783e+12 -3.05091e+12 -2.87342e+12 -2.73379e+12 -2.62359e+12 -2.53865e+12 -2.47236e+12 -2.42513e+12 -2.39483e+12 -2.38339e+12 -2.38699e+12 -2.40183e+12 -2.42341e+12 -2.44914e+12 -2.4756e+12 -2.50444e+12 -2.53531e+12 -2.56868e+12 -2.60231e+12 -2.6338e+12 -2.66168e+12 -2.68509e+12 -2.70367e+12 -2.71778e+12 -2.72808e+12 -2.73504e+12 -2.73935e+12 -2.74206e+12 -2.74497e+12 -2.7545e+12 -3.03803e+12 -3.02276e+12 -3.05785e+12 -3.11567e+12 -4.48978e+12 -3.56386e+12 -3.30726e+12 -2.79712e+12 -2.40333e+12 -2.3885e+12 -2.09841e+12 -2.08013e+12 -1.70464e+12 -1.13654e+12 -1.19071e+12 -766891000000.0 -241206000000.0 -92556700000.0 -238925000000.0 -579665000000.0 -508909000000.0 -781542000000.0 -1.19438e+12 -1.13178e+12 -1.68375e+12 -1.69304e+12 -2.73293e+12 -2.90259e+12 -4.00603e+12 -2.89337e+12 -2.18326e+12 -2.53592e+12 -2.67744e+12 -2.73423e+12 -2.97593e+12 -3.00176e+12 -1.91125e+12 -2.72882e+12 -2.50852e+12 -2.24723e+12 -1.88472e+12 -3.20891e+12 -3.00947e+12 -2.80808e+12 -2.65485e+12 -2.53832e+12 -2.45197e+12 -2.3868e+12 -2.33958e+12 -2.30782e+12 -2.29114e+12 -2.28784e+12 -2.29549e+12 -2.31114e+12 -2.33169e+12 -2.35503e+12 -2.37965e+12 -2.40575e+12 -2.43301e+12 -2.46094e+12 -2.48799e+12 -2.51257e+12 -2.82457e+12 -2.8965e+12 -2.95176e+12 -3.00207e+12 -3.04162e+12 -3.05971e+12 -3.05679e+12 -2.82731e+12 -2.8701e+12 -3.36714e+12 -3.11539e+12 -2.80869e+12 -2.97695e+12 -2.3599e+12 -2.2277e+12 -2.20524e+12 -2.13563e+12 -1.81637e+12 -1.77077e+12 -1.33179e+12 -1.03112e+12 -872448000000.0 -904919000000.0 -407946000000.0 -484737000000.0 -152310000000.0 -72822000000.0 -176902000000.0 -425514000000.0 -290728000000.0 -680934000000.0 -1.15566e+12 -1.26979e+12 -1.84141e+12 -2.09382e+12 -2.12799e+12 -3.09708e+12 -2.72574e+12 -2.23702e+12 -2.74845e+12 -2.84246e+12 -2.86455e+12 -2.8487e+12 -2.82514e+12 -2.78619e+12 -2.73036e+12 -2.65526e+12 -2.55528e+12 -2.42167e+12 -2.31372e+12 -2.19183e+12 -2.05791e+12 -1.74317e+12 -1.45913e+12 -2.44053e+12 -2.23643e+12 -2.02027e+12 -1.74635e+12 -2.86169e+12 -2.70248e+12 -2.54655e+12 -2.42847e+12 -2.34485e+12 -2.28389e+12 -2.23979e+12 -2.20944e+12 -2.19144e+12 -2.18452e+12 -2.18738e+12 -2.19808e+12 -2.21424e+12 -2.53383e+12 -2.55141e+12 -2.56536e+12 -2.57625e+12 -2.58458e+12 -2.59075e+12 -2.59531e+12 -2.5993e+12 -2.60542e+12 -2.629e+12 -2.67046e+12 -2.71149e+12 -2.74734e+12 -2.78421e+12 -2.81145e+12 -2.82457e+12 -2.82705e+12 -2.82171e+12 -2.68431e+12 -2.14447e+12 -2.7444e+12 -3.19829e+12 -2.74776e+12 -2.32563e+12 -1.84644e+12 -1.81001e+12 -1.52709e+12 -647749000000.0 -773451000000.0 -614634000000.0 -120400000000.0 -99985000000.0 -540873000000.0 -797266000000.0 -1.05907e+12 -1.44914e+12 -1.68742e+12 -2.27554e+12 -2.81545e+12 -2.44812e+12 -2.39058e+12 -2.33631e+12 -2.44493e+12 -2.46477e+12 -2.6348e+12 -2.73885e+12 -2.74308e+12 -2.71065e+12 -2.66537e+12 -2.60767e+12 -2.53677e+12 -2.45149e+12 -2.35198e+12 -2.25701e+12 -2.15549e+12 -2.04307e+12 -1.9186e+12 -1.78104e+12 -1.6203e+12 -1.35e+12 -2.12914e+12 -1.96165e+12 -1.8146e+12 -1.62691e+12 -2.23369e+12 -2.25501e+12 -2.27732e+12 -2.30039e+12 -2.32372e+12 -2.34663e+12 -2.36805e+12 -2.38716e+12 -2.4036e+12 -2.41733e+12 -2.42866e+12 -2.43812e+12 -2.44624e+12 -2.45321e+12 -2.45919e+12 -2.46445e+12 -2.46956e+12 -2.45654e+12 -2.47878e+12 -2.50398e+12 -2.53726e+12 -2.56826e+12 -2.58953e+12 -2.60068e+12 -2.60294e+12 -2.59731e+12 -2.6033e+12 -2.74834e+12 -1.48235e+12 -3.95292e+12 -2.41076e+12 -2.21105e+12 -1.92547e+12 -1.38907e+12 -1.55528e+12 -1.28037e+12 -930237000000.0 -424077000000.0 -583127000000.0 -130052000000.0 -365630000000.0 -334997000000.0 -1.08738e+12 -599382000000.0 -1.16261e+12 -1.90222e+12 -2.3976e+12 -2.18256e+12 -2.09739e+12 -2.04009e+12 -2.15715e+12 -2.2211e+12 -2.22802e+12 -2.62091e+12 -2.66335e+12 -2.62183e+12 -2.56378e+12 -2.49992e+12 -2.43004e+12 -2.35326e+12 -2.27059e+12 -2.18775e+12 -2.10149e+12 -2.00886e+12 -1.90799e+12 -1.79839e+12 -1.67635e+12 -1.52649e+12 -1.22996e+12 -1.79355e+12 -1.71967e+12 -1.62439e+12 -1.51747e+12 -2.49448e+12 -2.38647e+12 -2.2835e+12 -2.21176e+12 -2.16167e+12 -2.1254e+12 -2.0997e+12 -2.08347e+12 -2.07583e+12 -2.07616e+12 -2.08348e+12 -2.09614e+12 -2.11231e+12 -2.13051e+12 -2.1498e+12 -2.16957e+12 -2.18945e+12 -2.20894e+12 -2.22744e+12 -2.24438e+12 -2.25946e+12 -2.27268e+12 -2.28423e+12 -2.29451e+12 -2.30418e+12 -2.3137e+12 -2.32302e+12 -2.33153e+12 -2.33609e+12 -2.31958e+12 -2.23219e+12 -2.24981e+12 -2.28904e+12 -2.32725e+12 -2.3576e+12 -2.3769e+12 -2.38582e+12 -2.38428e+12 -2.37809e+12 -2.406e+12 -2.33452e+12 -2.10104e+12 -1.86754e+12 -1.65882e+12 -1.40144e+12 -1.28433e+12 -640077000000.0 -414205000000.0 -106354000000.0 -101492000000.0 -157999000000.0 -391738000000.0 -969820000000.0 -291670000000.0 -1.55224e+12 -1.53428e+12 -2.275e+12 -2.05089e+12 -1.82712e+12 -1.70092e+12 -1.93183e+12 -1.95637e+12 -1.92738e+12 -2.02684e+12 -2.6007e+12 -2.55828e+12 -2.47971e+12 -2.40376e+12 -2.33041e+12 -2.25758e+12 -2.18413e+12 -2.11094e+12 -2.03668e+12 -1.95979e+12 -1.87919e+12 -1.7949e+12 -1.70649e+12 -1.60873e+12 -1.4849e+12 -1.04065e+12 -2.11641e+12 -2.07934e+12 -2.04273e+12 -2.01547e+12 -1.99473e+12 -1.97862e+12 -1.96751e+12 -1.96165e+12 -1.96141e+12 -1.96686e+12 -1.97711e+12 -1.99073e+12 -2.00641e+12 -2.02314e+12 -2.04026e+12 -2.05738e+12 -2.07414e+12 -2.09013e+12 -2.10499e+12 -2.11856e+12 -2.13089e+12 -2.14219e+12 -2.15277e+12 -2.16327e+12 -2.17456e+12 -2.18714e+12 -2.20088e+12 -2.21358e+12 -2.2143e+12 -2.17333e+12 -1.87832e+12 -2.01335e+12 -2.07999e+12 -2.12596e+12 -2.15673e+12 -2.17395e+12 -2.17921e+12 -2.171e+12 -2.1648e+12 -2.09682e+12 -1.93928e+12 -1.53219e+12 -2.72805e+12 -2.77777e+12 -1.44859e+12 -1.17083e+12 -540077000000.0 -1.30037e+12 -1.02721e+12 -228121000000.0 -778564000000.0 -920911000000.0 -1.31317e+12 -1.69274e+12 -1.82308e+12 -1.41986e+12 -1.41324e+12 -1.9124e+12 -1.80494e+12 -1.70928e+12 -1.9876e+12 -1.84701e+12 -2.4855e+12 -2.40365e+12 -2.31231e+12 -2.23299e+12 -2.16099e+12 -2.09335e+12 -2.02798e+12 -1.96358e+12 -1.89928e+12 -1.8348e+12 -1.77112e+12 -1.71043e+12 -1.57088e+12 -1.50361e+12 -1.46975e+12 -1.46897e+12 -1.7827e+12 -1.82557e+12 -1.8393e+12 -1.845e+12 -1.84519e+12 -1.84351e+12 -1.84251e+12 -1.84358e+12 -1.84833e+12 -1.85712e+12 -1.86899e+12 -1.88275e+12 -1.89747e+12 -1.91246e+12 -1.92733e+12 -1.94183e+12 -1.95572e+12 -1.96872e+12 -1.98074e+12 -1.99187e+12 -1.97701e+12 -1.9492e+12 -1.89716e+12 -1.79357e+12 -1.58856e+12 -1.90323e+12 -1.74245e+12 -1.39576e+12 -1.17196e+12 -617031000000.0 -1.29003e+12 -489327000000.0 -114337000000.0 -499780000000.0 -762312000000.0 -1.16861e+12 -1.41641e+12 -1.65609e+12 -1.6155e+12 -1.62564e+12 -936959000000.0 -1.29991e+12 -1.3121e+12 -1.35125e+12 -1.43639e+12 -1.57344e+12 -1.64121e+12 -1.6777e+12 -1.69891e+12 -1.71045e+12 -2.00238e+12 -2.0126e+12 -2.02312e+12 -2.03491e+12 -2.04904e+12 -2.06663e+12 -2.08855e+12 -2.11475e+12 -2.14618e+12 -2.20655e+12 -1.66147e+12 -1.83284e+12 -1.90027e+12 -1.94349e+12 -1.96979e+12 -1.98102e+12 -1.64198e+12 -1.53939e+12 -1.53896e+12 -1.45192e+12 -1.00804e+12 -1.61801e+12 -813902000000.0 -175504000000.0 -580921000000.0 -1.52459e+12 -1.31857e+12 -1.92421e+12 -1.70691e+12 -1.52542e+12 -1.91539e+12 -1.83871e+12 -1.69033e+12 -2.30833e+12 -2.21661e+12 -2.13122e+12 -2.05966e+12 -1.9973e+12 -1.93897e+12 -1.88289e+12 -1.82868e+12 -1.77647e+12 -1.72757e+12 -1.68454e+12 -1.65149e+12 -1.63557e+12 -1.65209e+12 -1.66795e+12 -918840000000.0 -1.12078e+12 -1.16013e+12 -1.22241e+12 -1.71803e+12 -1.72326e+12 -1.72862e+12 -1.73657e+12 -1.74729e+12 -1.75971e+12 -1.77291e+12 -1.78626e+12 -1.79934e+12 -1.81198e+12 -1.82407e+12 -1.83545e+12 -1.846e+12 -1.85579e+12 -1.86511e+12 -1.87436e+12 -1.88408e+12 -1.89513e+12 -1.90857e+12 -1.9258e+12 -1.94854e+12 -1.97901e+12 -2.0223e+12 -2.09464e+12 -2.17724e+12 -1.52471e+12 -1.69017e+12 -1.74501e+12 -1.77888e+12 -1.79652e+12 -1.79772e+12 -1.77879e+12 -1.68768e+12 -1.22623e+12 -924062000000.0 -1.35449e+12 -267469000000.0 -909237000000.0 -942541000000.0 -637859000000.0 -16538500000.0 -658984000000.0 -972862000000.0 -1.34268e+12 -1.16996e+12 -1.83625e+12 -1.57142e+12 -1.33183e+12 -1.87487e+12 -1.78849e+12 -1.69221e+12 -1.56263e+12 -2.09652e+12 -2.01701e+12 -1.94861e+12 -1.89417e+12 -1.84392e+12 -1.79541e+12 -1.74912e+12 -1.70623e+12 -1.66794e+12 -1.6366e+12 -1.61587e+12 -1.61153e+12 -1.63267e+12 -1.67869e+12 -1.73944e+12 -874884000000.0 -1.01521e+12 -1.28327e+12 -1.41215e+12 -1.49156e+12 -1.54144e+12 -1.56912e+12 -1.58632e+12 -1.59913e+12 -1.60802e+12 -1.61617e+12 -1.62607e+12 -1.63759e+12 -1.64973e+12 -1.66183e+12 -1.67352e+12 -1.68466e+12 -1.69524e+12 -1.70519e+12 -1.71441e+12 -1.72288e+12 -1.73084e+12 -1.73871e+12 -1.74703e+12 -1.75651e+12 -1.76798e+12 -1.78253e+12 -1.80177e+12 -1.828e+12 -1.86521e+12 -1.92175e+12 -2.00271e+12 -2.06299e+12 -1.4218e+12 -1.56638e+12 -1.60609e+12 -1.6286e+12 -1.63688e+12 -1.63204e+12 -1.62149e+12 -1.48501e+12 -1.42208e+12 -1.34394e+12 -1.08181e+12 -584180000000.0 -90045800000.0 -323165000000.0 -361757000000.0 -81944400000.0 -524175000000.0 -151585000000.0 -502890000000.0 -892153000000.0 -1.11136e+12 -1.42082e+12 -1.15736e+12 -1.15689e+12 -1.8665e+12 -1.74293e+12 -1.63864e+12 -1.55947e+12 -1.46717e+12 -1.87495e+12 -1.81945e+12 -1.78189e+12 -1.74318e+12 -1.70207e+12 -1.66191e+12 -1.62549e+12 -1.59471e+12 -1.57132e+12 -1.5581e+12 -1.55936e+12 -1.58122e+12 -1.62874e+12 -1.71295e+12 -1.80838e+12 -1.00303e+12 -1.00136e+12 -1.16647e+12 -1.29039e+12 -1.37233e+12 -1.42157e+12 -1.45049e+12 -1.47117e+12 -1.48564e+12 -1.49604e+12 -1.50591e+12 -1.51679e+12 -1.52818e+12 -1.53937e+12 -1.55002e+12 -1.56e+12 -1.56935e+12 -1.5781e+12 -1.58613e+12 -1.59335e+12 -1.59992e+12 -1.60624e+12 -1.6128e+12 -1.62023e+12 -1.62921e+12 -1.64038e+12 -1.65479e+12 -1.67418e+12 -1.70126e+12 -1.73985e+12 -1.79342e+12 -1.8635e+12 -1.88817e+12 -1.33167e+12 -1.45109e+12 -1.47678e+12 -1.48741e+12 -1.48396e+12 -1.46937e+12 -1.43944e+12 -1.30973e+12 -1.23537e+12 -1.14818e+12 -792082000000.0 -283675000000.0 -280082000000.0 -509634000000.0 -24470700000.0 -125617000000.0 -531002000000.0 -946043000000.0 -958636000000.0 -1.00269e+12 -992149000000.0 -1.80354e+12 -1.66856e+12 -1.55556e+12 -1.49142e+12 -1.45218e+12 -1.40767e+12 -1.64598e+12 -1.65584e+12 -1.63768e+12 -1.60482e+12 -1.56897e+12 -816338000000.0 -991283000000.0 -546588000000.0 -913023000000.0 -1.08469e+12 -1.19955e+12 -1.27244e+12 -1.3135e+12 -1.34253e+12 -1.3623e+12 -1.37583e+12 -1.38693e+12 -1.39771e+12 -1.4086e+12 -1.41914e+12 -1.429e+12 -1.43814e+12 -1.44658e+12 -1.45436e+12 -1.35075e+12 -1.33387e+12 -1.30458e+12 -1.25735e+12 -1.14573e+12 -1.02013e+12 -764433000000.0 -841841000000.0 -526035000000.0 -372938000000.0 -172480000000.0 -446734000000.0 -282833000000.0 -514289000000.0 -1.53633e+12 -1.50982e+12 -1.49148e+12 -1.48285e+12 -1.48664e+12 -1.50716e+12 -1.54949e+12 -1.62306e+12 -1.73803e+12 -1.86108e+12 -746454000000.0 -711802000000.0 -926608000000.0 -1.04631e+12 -1.46137e+12 -1.46747e+12 -1.47273e+12 -1.47749e+12 -1.48221e+12 -1.48738e+12 -1.49361e+12 -1.50139e+12 -1.51112e+12 -1.52375e+12 -1.54089e+12 -1.56401e+12 -1.59459e+12 -1.63493e+12 -1.68497e+12 -1.67659e+12 -1.24426e+12 -1.34057e+12 -1.35337e+12 -1.08717e+12 -931706000000.0 -754333000000.0 -688525000000.0 -420451000000.0 -417987000000.0 -387040000000.0 -47414000000.0 -396874000000.0 -508441000000.0 -648866000000.0 -666814000000.0 -1.60269e+12 -1.52045e+12 -1.42033e+12 -1.3756e+12 -1.37121e+12 -1.3954e+12 -1.44027e+12 -1.53608e+12 -1.53696e+12 -1.5081e+12 -1.47219e+12 -1.44079e+12 -1.41605e+12 -1.39977e+12 -1.39354e+12 -1.39819e+12 -1.41636e+12 -1.45173e+12 -1.511e+12 -1.60245e+12 -1.73066e+12 -1.84599e+12 -258035000000.0 -1.12997e+12 -1.18214e+12 -1.21614e+12 -1.23974e+12 -1.25664e+12 -1.26963e+12 -1.28076e+12 -1.29131e+12 -1.30135e+12 -1.31067e+12 -1.31929e+12 -1.32713e+12 -1.33417e+12 -1.34038e+12 -1.34555e+12 -1.34963e+12 -1.35297e+12 -1.35593e+12 -1.35886e+12 -1.36234e+12 -1.36684e+12 -1.37249e+12 -1.3794e+12 -1.38837e+12 -1.39973e+12 -1.41298e+12 -1.42866e+12 -1.4492e+12 -1.47778e+12 -1.44864e+12 -1.16245e+12 -1.23548e+12 -1.23341e+12 -1.2161e+12 -1.18609e+12 -1.14512e+12 -561473000000.0 -408895000000.0 -218119000000.0 -409002000000.0 -43062200000.0 -45560300000.0 -313565000000.0 -395689000000.0 -85104900000.0 -317666000000.0 -355610000000.0 -1.16409e+12 -1.23795e+12 -1.22199e+12 -1.19293e+12 -1.22021e+12 -1.28683e+12 -1.3944e+12 -1.44042e+12 -1.45571e+12 -1.41804e+12 -1.37364e+12 -1.3393e+12 -1.31474e+12 -1.2989e+12 -1.29281e+12 -1.29713e+12 -1.31244e+12 -1.34117e+12 -1.38725e+12 -1.45701e+12 -1.55663e+12 -1.68878e+12 -1.82761e+12 -696742000000.0 -809209000000.0 -875237000000.0 -949041000000.0 -1.01349e+12 -1.06239e+12 -1.09661e+12 -1.12157e+12 -1.14025e+12 -1.15469e+12 -1.16631e+12 -1.17663e+12 -1.18631e+12 -1.19532e+12 -1.20366e+12 -1.21117e+12 -1.21776e+12 -1.22344e+12 -1.22787e+12 -1.23097e+12 -1.23307e+12 -1.23447e+12 -1.23536e+12 -1.23616e+12 -1.23755e+12 -1.23964e+12 -1.24206e+12 -1.24476e+12 -1.24768e+12 -1.24943e+12 -1.24848e+12 -1.24196e+12 -1.23489e+12 -1.2505e+12 -1.22172e+12 -1.08986e+12 -1.13415e+12 -1.1134e+12 -1.08275e+12 -1.04209e+12 -986081000000.0 -867892000000.0 -724852000000.0 -250015000000.0 -270987000000.0 -24654500000.0 -381018000000.0 -58228700000.0 -90552100000.0 -206333000000.0 -762588000000.0 -829684000000.0 -952144000000.0 -999946000000.0 -974530000000.0 -1.0882e+12 -1.29269e+12 -1.45087e+12 -1.42722e+12 -1.34748e+12 -1.27498e+12 -1.23237e+12 -1.20576e+12 -1.19032e+12 -1.18357e+12 -1.18635e+12 -1.19846e+12 -1.22085e+12 -1.25533e+12 -1.30469e+12 -603790000000.0 -849869000000.0 -884044000000.0 -921646000000.0 -958705000000.0 -987926000000.0 -1.01079e+12 -1.02886e+12 -1.04336e+12 -1.05497e+12 -1.06496e+12 -1.07432e+12 -1.08319e+12 -1.09144e+12 -1.09887e+12 -1.10537e+12 -1.11073e+12 -1.11472e+12 -1.11712e+12 -1.11821e+12 -1.11826e+12 -1.11726e+12 -1.11561e+12 -1.11397e+12 -1.11264e+12 -1.11154e+12 -1.10974e+12 -1.1071e+12 -1.10234e+12 -1.09255e+12 -1.07327e+12 -1.025e+12 -975599000000.0 -1.03971e+12 -996651000000.0 -1.01796e+12 -1.02882e+12 -992142000000.0 -953341000000.0 -907753000000.0 -851931000000.0 -790891000000.0 -450170000000.0 -367301000000.0 -74684900000.0 -61191900000.0 -463920000000.0 -670197000000.0 -658826000000.0 -767651000000.0 -825991000000.0 -618095000000.0 -1.08901e+12 -1.34735e+12 -1.59209e+12 -1.32617e+12 -1.37158e+12 -1.45426e+12 -1.54139e+12 -1.53635e+12 -823864000000.0 -849937000000.0 -870678000000.0 -891478000000.0 -909382000000.0 -864949000000.0 -821557000000.0 -776039000000.0 -738130000000.0 -420582000000.0 -283028000000.0 -235426000000.0 -234066000000.0 -9035750000.0 -276333000000.0 -16900800000.0 -70417500000.0 -1.17103e+12 -1.1157e+12 -1.08721e+12 -1.07295e+12 -1.0673e+12 -1.06867e+12 -1.07772e+12 -1.0944e+12 -1.11986e+12 -1.15487e+12 -1.19986e+12 -1.25262e+12 -1.3035e+12 -1.32217e+12 -1.27933e+12 -530495000000.0 -924561000000.0 -937164000000.0 -947566000000.0 -956811000000.0 -965854000000.0 -974690000000.0 -982857000000.0 -990388000000.0 -997062000000.0 -1.00232e+12 -1.00622e+12 -1.00825e+12 -1.0086e+12 -1.00759e+12 -1.00495e+12 -1.00103e+12 -996635000000.0 -992039000000.0 -987413000000.0 -982670000000.0 -976911000000.0 -969347000000.0 -957895000000.0 -939259000000.0 -907231000000.0 -853085000000.0 -839344000000.0 -858399000000.0 -786741000000.0 -930680000000.0 -912654000000.0 -335928000000.0 -392581000000.0 -167640000000.0 -160792000000.0 -94568600000.0 -39993600000.0 -18568500000.0 -55766100000.0 -234857000000.0 -111383000000.0 -425389000000.0 -431021000000.0 -513495000000.0 -556025000000.0 -660747000000.0 -823288000000.0 -593615000000.0 -678204000000.0 -1.18485e+12 -983979000000.0 -961919000000.0 -950469000000.0 -944358000000.0 -942898000000.0 -945427000000.0 -952485000000.0 -964590000000.0 -982662000000.0 -1.00745e+12 -1.03847e+12 -1.07373e+12 -1.10706e+12 -1.12388e+12 -1.11672e+12 -1.07139e+12 -479844000000.0 -768628000000.0 -794236000000.0 -806460000000.0 -818419000000.0 -828835000000.0 -837557000000.0 -845077000000.0 -852795000000.0 -861373000000.0 -870068000000.0 -878122000000.0 -885847000000.0 -892649000000.0 -898222000000.0 -902273000000.0 -904334000000.0 -904237000000.0 -902626000000.0 -898702000000.0 -892762000000.0 -885856000000.0 -878325000000.0 -870108000000.0 -862340000000.0 -854129000000.0 -845275000000.0 -833813000000.0 -818353000000.0 -795371000000.0 -761014000000.0 -752038000000.0 -713363000000.0 -679914000000.0 -606177000000.0 -821857000000.0 -782848000000.0 -725922000000.0 -683340000000.0 -628101000000.0 -272880000000.0 -81084500000.0 -79609200000.0 -57456500000.0 -458796000000.0 -363015000000.0 -339256000000.0 -416505000000.0 -471434000000.0 -493595000000.0 -654447000000.0 -631925000000.0 -625973000000.0 -638179000000.0 -761452000000.0 -792619000000.0 -805480000000.0 -812022000000.0 -817785000000.0 -824425000000.0 -833178000000.0 -845092000000.0 -861832000000.0 -883336000000.0 -907855000000.0 -931643000000.0 -947027000000.0 -948095000000.0 -932480000000.0 -892174000000.0 -453848000000.0 -704870000000.0 -731262000000.0 -738252000000.0 -743175000000.0 -746046000000.0 -748913000000.0 -753578000000.0 -760762000000.0 -768834000000.0 -777214000000.0 -785423000000.0 -792416000000.0 -798416000000.0 -802977000000.0 -805388000000.0 -805254000000.0 -803325000000.0 -798814000000.0 -791175000000.0 -782098000000.0 -772065000000.0 -760492000000.0 -748968000000.0 -737621000000.0 -726087000000.0 -715258000000.0 -701632000000.0 -685935000000.0 -668876000000.0 -646807000000.0 -650411000000.0 -588564000000.0 -532615000000.0 -456304000000.0 -691751000000.0 -636455000000.0 -570027000000.0 -534598000000.0 -240311000000.0 -249309000000.0 -25025000000.0 -81393900000.0 -219797000000.0 -371364000000.0 -279577000000.0 -306945000000.0 -275450000000.0 -304285000000.0 -387362000000.0 -389561000000.0 -484221000000.0 -384448000000.0 -376417000000.0 -607320000000.0 -644041000000.0 -668643000000.0 -668391000000.0 -664232000000.0 -660743000000.0 -660709000000.0 -664423000000.0 -536207000000.0 -544713000000.0 -469294000000.0 -404036000000.0 -331802000000.0 -545010000000.0 -470679000000.0 -342390000000.0 -211837000000.0 -198046000000.0 -241071000000.0 -294138000000.0 -108809000000.0 -74175900000.0 -35055600000.0 -20940300000.0 -50069200000.0 -83392600000.0 -324031000000.0 -346002000000.0 -82522500000.0 -644904000000.0 -666607000000.0 -678822000000.0 -687239000000.0 -694728000000.0 -701567000000.0 -708600000000.0 -717850000000.0 -731498000000.0 -748676000000.0 -766812000000.0 -781467000000.0 -788103000000.0 -782720000000.0 -767298000000.0 -739019000000.0 -440128000000.0 -671026000000.0 -679684000000.0 -688800000000.0 -696973000000.0 -703090000000.0 -708351000000.0 -711300000000.0 -711540000000.0 -709636000000.0 -705226000000.0 -696745000000.0 -685973000000.0 -673594000000.0 -659209000000.0 -643746000000.0 -629111000000.0 -612946000000.0 -599074000000.0 -588554000000.0 -575682000000.0 -583730000000.0 -539219000000.0 -118133000000.0 -132547000000.0 -111157000000.0 -152812000000.0 -64012600000.0 -23287700000.0 -278525000000.0 -261664000000.0 -223086000000.0 -225955000000.0 -242396000000.0 -225264000000.0 -284296000000.0 -371032000000.0 -493819000000.0 -528000000000.0 -545179000000.0 -555472000000.0 -563788000000.0 -570407000000.0 -574147000000.0 -576416000000.0 -581390000000.0 -592063000000.0 -606529000000.0 -621296000000.0 -631824000000.0 -635446000000.0 -627319000000.0 -620157000000.0 -614936000000.0 -433232000000.0 -589893000000.0 -605406000000.0 -590883000000.0 -578657000000.0 -573665000000.0 -573039000000.0 -578750000000.0 -585959000000.0 -595417000000.0 -604911000000.0 -612694000000.0 -617904000000.0 -621950000000.0 -622823000000.0 -621349000000.0 -617408000000.0 -609084000000.0 -597436000000.0 -583238000000.0 -566396000000.0 -547410000000.0 -528844000000.0 -509367000000.0 -487440000000.0 -472110000000.0 -474288000000.0 -497480000000.0 -443492000000.0 -419869000000.0 -426949000000.0 -439030000000.0 -365693000000.0 -282226000000.0 -220612000000.0 -421457000000.0 -244509000000.0 -121166000000.0 -25194500000.0 -57087500000.0 -167145000000.0 -186700000000.0 -207255000000.0 -190175000000.0 -164759000000.0 -179036000000.0 -197236000000.0 -190802000000.0 -77549300000.0 -64367000000.0 -261508000000.0 -305176000000.0 -396416000000.0 -413430000000.0 -424965000000.0 -432269000000.0 -439077000000.0 -442131000000.0 -439135000000.0 -434743000000.0 -434336000000.0 -445384000000.0 -462503000000.0 -476593000000.0 -486148000000.0 -490933000000.0 -473188000000.0 -511187000000.0 -514401000000.0 -437283000000.0 -544897000000.0 -533819000000.0 -501398000000.0 -490154000000.0 -485682000000.0 -488316000000.0 -495054000000.0 -506251000000.0 -515727000000.0 -525584000000.0 -532329000000.0 -536836000000.0 -538955000000.0 -538009000000.0 -534705000000.0 -527284000000.0 -515889000000.0 -500947000000.0 -482387000000.0 -460006000000.0 -436473000000.0 -413325000000.0 -388512000000.0 -355443000000.0 -339388000000.0 -404472000000.0 -363579000000.0 -296813000000.0 -309873000000.0 -320734000000.0 -332009000000.0 -265944000000.0 -123975000000.0 -157577000000.0 -139238000000.0 -202576000000.0 -165445000000.0 -146171000000.0 -155218000000.0 -146948000000.0 -157851000000.0 -72512800000.0 -30043000000.0 -24188300000.0 -54683300000.0 -155367000000.0 -196766000000.0 -195478000000.0 -95617500000.0 -23195500000.0 -26996700000.0 -63424800000.0 -188986000000.0 -228988000000.0 -272338000000.0 -281083000000.0 -490737000000.0 -438835000000.0 -409812000000.0 -401212000000.0 -398838000000.0 -402071000000.0 -418911000000.0 -431124000000.0 -440818000000.0 -173742000000.0 -186365000000.0 -199373000000.0 -211590000000.0 -222012000000.0 -131894000000.0 -64419600000.0 -15954700000.0 -22420000000.0 -40379100000.0 -35690300000.0 -44367700000.0 -9035750000.0 -9035750000.0 -157843000000.0 -123452000000.0 -118039000000.0 -101678000000.0 -290632000000.0 -298132000000.0 -305837000000.0 -300325000000.0 -289962000000.0 -276982000000.0 -271694000000.0 -298553000000.0 -319575000000.0 -333188000000.0 -347707000000.0 -371562000000.0 -380981000000.0 -425467000000.0 -435324000000.0 -435735000000.0 -450261000000.0 -455718000000.0 -459033000000.0 -459308000000.0 -456637000000.0 -450840000000.0 -440072000000.0 -425751000000.0 -406855000000.0 -381921000000.0 -352963000000.0 -324849000000.0 -302997000000.0 -280428000000.0 -267482000000.0 -280120000000.0 -287308000000.0 -37236800000.0 -47169200000.0 -9035750000.0 -9038090000.0 -63944100000.0 -105324000000.0 -141718000000.0 -145260000000.0 -137246000000.0 -147561000000.0 -128787000000.0 -100757000000.0 -55195500000.0 -31901600000.0 -32453700000.0 -121943000000.0 -147670000000.0 -169448000000.0 -157909000000.0 -144188000000.0 -129189000000.0 -115747000000.0 -97053700000.0 -81612400000.0 -67509800000.0 -58910800000.0 -113492000000.0 -163759000000.0 -190666000000.0 -225617000000.0 -244737000000.0 -229461000000.0 -233806000000.0 -225387000000.0 -316176000000.0 -323857000000.0 -326654000000.0 -293562000000.0 -320430000000.0 -290101000000.0 -327078000000.0 -339937000000.0 -351623000000.0 -360449000000.0 -367559000000.0 -371143000000.0 -372831000000.0 -370567000000.0 -365857000000.0 -356743000000.0 -341136000000.0 -325250000000.0 -301261000000.0 -267311000000.0 -230283000000.0 -202119000000.0 -197911000000.0 -194035000000.0 -210849000000.0 -176491000000.0 -95188200000.0 -125734000000.0 -177066000000.0 -227981000000.0 -281677000000.0 -328801000000.0 -265159000000.0 -212403000000.0 -179847000000.0 -167852000000.0 -120908000000.0 -100075000000.0 -96365900000.0 -82016300000.0 -74068300000.0 -33612900000.0 -17204500000.0 -12426300000.0 -19236000000.0 -65963300000.0 -86993500000.0 -81766200000.0 -106382000000.0 -138286000000.0 -225279000000.0 -240616000000.0 -239466000000.0 -25703300000.0 -91899600000.0 -96451800000.0 -137273000000.0 -132747000000.0 -177239000000.0 -187312000000.0 -194826000000.0 -198255000000.0 -197528000000.0 -193708000000.0 -189235000000.0 -183221000000.0 -177105000000.0 -173332000000.0 -167937000000.0 -71724200000.0 -80853100000.0 -86797700000.0 -96765500000.0 -101453000000.0 -28241700000.0 -11703500000.0 -23451000000.0 -24913200000.0 -27132000000.0 -9035750000.0 -9035750000.0 -91795100000.0 -71870100000.0 -64954200000.0 -80885700000.0 -69704200000.0 -58346300000.0 -207574000000.0 -178171000000.0 -148712000000.0 -122417000000.0 -96087600000.0 -77387200000.0 -65480000000.0 -64307700000.0 -81081800000.0 -106966000000.0 -96198000000.0 -56895200000.0 -38734300000.0 -18935300000.0 -25293500000.0 -29404900000.0 -86275500000.0 -166006000000.0 -162838000000.0 -153619000000.0 -141225000000.0 -131909000000.0 -133159000000.0 -131113000000.0 -141653000000.0 -108407000000.0 -54409100000.0 -17436300000.0 -27070200000.0 -33633000000.0 -9113090000.0 -9035780000.0 -9035750000.0 -39031500000.0 -55759800000.0 -64409200000.0 -54563100000.0 -44576600000.0 -44566800000.0 -26855900000.0 -11029700000.0 -9035760000.0 -9125310000.0 -11259100000.0 -66187000000.0 -79850900000.0 -90264700000.0 -79137000000.0 -70554800000.0 -60709200000.0 -52032800000.0 -42358300000.0 -35572000000.0 -26055600000.0 -17404000000.0 -23495800000.0 -35804100000.0 -41901700000.0 -41857200000.0 -38777700000.0 -25254800000.0 -23070900000.0 -18196600000.0 -58458400000.0 -20809900000.0 -41905100000.0 -33920400000.0 -56905100000.0 -44280200000.0 -73035700000.0 -82215900000.0 -90482400000.0 -97761800000.0 -103647000000.0 -108287000000.0 -112945000000.0 -117084000000.0 -121026000000.0 -124077000000.0 -125989000000.0 -128961000000.0 -127964000000.0 -120718000000.0 -110151000000.0 -100730000000.0 -99371700000.0 -96342400000.0 -99221200000.0 -65531500000.0 -45704000000.0 -51750800000.0 -58330900000.0 -65549200000.0 -74787700000.0 -77880300000.0 -20246800000.0 -10961700000.0 -24506900000.0 -27278200000.0 -9263150000.0 -11745600000.0 -20289900000.0 -21553400000.0 -21717300000.0 -9036350000.0 -9035750000.0 -9035740000.0 -9035750000.0 -27084400000.0 -37206500000.0 -9035750000.0 -9119590000.0 -10513200000.0 -43889500000.0 -9068850000.0 -18360200000.0 -13620900000.0 -33836600000.0 -28077000000.0 -46876400000.0 -51895600000.0 -57310000000.0 -61777600000.0 -65263300000.0 -67815800000.0 -70077300000.0 -41879600000.0 -46848000000.0 -47876800000.0 -16128700000.0 -16903000000.0 -16516600000.0 -9035750000.0 -9035750000.0 -42031200000.0 -35390100000.0 -29413300000.0 -29241200000.0 -15822000000.0 -10232100000.0 -52633700000.0 -59234100000.0 -51189500000.0 -46045000000.0 -40408100000.0 -35441000000.0 -28611000000.0 -22862800000.0 -16871900000.0 -13526600000.0 -18010600000.0 -24246500000.0 -25501000000.0 -23366100000.0 -19694400000.0 -11041300000.0 -10872200000.0 -9528930000.0 -32221100000.0 -71599800000.0 -72645400000.0 -72961200000.0 -72735500000.0 -73218100000.0 -71733100000.0 -67061000000.0 -61026200000.0 -56186600000.0 -56094400000.0 -55829300000.0 -58325600000.0 -30790800000.0 -30982600000.0 -34095100000.0 -38000800000.0 -13756400000.0 -9073420000.0 -19317200000.0 -20200800000.0 -9325030000.0 -10967600000.0 -9035700000.0 -9035750000.0 -14704000000.0 -17891900000.0 -19419600000.0 -17323800000.0 -15441900000.0 -15354300000.0 -10416300000.0 -9424670000.0 -9035740000.0 -9069300000.0 -9512240000.0 -19809500000.0 -22537000000.0 -24918500000.0 -22227700000.0 -20671200000.0 -18960300000.0 -17418300000.0 -15232000000.0 -13471600000.0 -11561200000.0 -10394400000.0 -11694100000.0 -13693100000.0 -14134500000.0 -13539400000.0 -12439500000.0 -9640050000.0 -9528210000.0 -9036740000.0 -16150500000.0 -9035800000.0 -11096700000.0 -9486770000.0 -16525900000.0 -14705300000.0 -20618000000.0 -22010600000.0 -23881100000.0 -25279500000.0 -26426300000.0 -27252400000.0 -27985300000.0 -28514300000.0 -28886500000.0 -28996400000.0 -28943500000.0 -29064300000.0 -28593700000.0 -27116900000.0 -25180500000.0 -23590900000.0 -23512200000.0 -23387200000.0 -24769200000.0 -14598800000.0 -16054900000.0 -16886700000.0 -18134200000.0 -19362600000.0 -20903900000.0 -21182200000.0 -10562800000.0 -9035750000.0 -12369300000.0 -12575000000.0 -9147020000.0 -9679570000.0 -11308900000.0 -11541300000.0 -11371900000.0 -9035750000.0 -9035750000.0 
SCALARS Shear_Stress float 1
LOOKUP_TABLE default
27716800000.0 12198400000.0 35791800000.0 2098220000.0 51739200000.0 39608000000.0 40206000000.0 24886200000.0 43291600000.0 17241700000.0 39915900000.0 15925700000.0 69317000000.0 45082100000.0 15436800000.0 8487100000.0 8272040000.0 46568200000.0 109454000000.0 3906020000.0 6912800000.0 39718600000.0 28880700000.0 62516100000.0 5289450000.0 50054700000.0 30273300000.0 7104640000.0 123996000000.0 146598000000.0 25445800000.0 67446200000.0 9863210000.0 17217700000.0 1480620000.0 66711600000.0 42844900000.0 18613600000.0 1828920000.0 32989100000.0 76429100000.0 128073000000.0 175924000000.0 49182200000.0 80501600000.0 94184000000.0 58095200000.0 244609000000.0 30834300000.0 44319000000.0 4008760000.0 11927300000.0 23138600000.0 19936700000.0 33025800000.0 69069600000.0 51433300000.0 136973000000.0 20550100000.0 69517500000.0 121049000000.0 133145000000.0 213962000000.0 177484000000.0 186847000000.0 178515000000.0 50498500000.0 98399900000.0 54893800000.0 78319700000.0 157216000000.0 109467000000.0 178212000000.0 253597000000.0 78687200000.0 17534900000.0 1429410000.0 57912300000.0 35438500000.0 61067100000.0 133767000000.0 131511000000.0 197171000000.0 251594000000.0 224976000000.0 197214000000.0 4972770000.0 64262500000.0 281973000000.0 252167000000.0 759133000.0 103708000000.0 79989400000.0 65046800000.0 103475000000.0 159719000000.0 374294000000.0 259203000000.0 267776000000.0 221600000000.0 42260000000.0 79832200000.0 64738400000.0 10332400000.0 200239000000.0 68932900000.0 167840000000.0 143452000000.0 148156000000.0 93896000000.0 112684000000.0 101281000000.0 177871000000.0 208141000000.0 374570000000.0 384761000000.0 222949000000.0 306916000000.0 284378000000.0 288369000000.0 279410000000.0 255857000000.0 238642000000.0 216597000000.0 27193100000.0 53216100000.0 107361000000.0 214254000000.0 150367000000.0 102817000000.0 193196000000.0 407843000000.0 281899000000.0 337715000000.0 224747000000.0 228036000000.0 143452000000.0 154651000000.0 347523000000.0 218145000000.0 226357000000.0 278274000000.0 257973000000.0 220842000000.0 194140000000.0 305449000000.0 565246000000.0 292827000000.0 553665000000.0 460046000000.0 331342000000.0 202167000000.0 149188000000.0 239975000000.0 208787000000.0 162722000000.0 237069000000.0 262353000000.0 232428000000.0 771175000.0 36031000000.0 331589000000.0 593059000000.0 435327000000.0 561053000000.0 443408000000.0 293408000000.0 230104000000.0 171206000000.0 151771000000.0 175370000000.0 170161000000.0 213529000000.0 134233000000.0 139751000000.0 126707000000.0 178291000000.0 197545000000.0 240536000000.0 228404000000.0 237431000000.0 205511000000.0 204814000000.0 43682700000.0 49239500000.0 269028000000.0 538003000000.0 216399000000.0 533677000000.0 536098000000.0 494278000000.0 399325000000.0 333950000000.0 164703000000.0 132127000000.0 127572000000.0 97491700000.0 147136000000.0 203653000000.0 201054000000.0 169157000000.0 269199000000.0 419269000000.0 235968000000.0 251006000000.0 127294000000.0 303706000000.0 484028000000.0 557616000000.0 545825000000.0 443150000000.0 224212000000.0 113900000000.0 102565000000.0 78563800000.0 99316000000.0 166539000000.0 189338000000.0 161665000000.0 100769000000.0 122228000000.0 197177000000.0 61250900000.0 258835000000.0 547278000000.0 528091000000.0 363284000000.0 177875000000.0 120613000000.0 61247500000.0 79148300000.0 50447400000.0 63593800000.0 25434300000.0 56957400000.0 64984600000.0 120637000000.0 136007000000.0 168674000000.0 145859000000.0 154373000000.0 104298000000.0 116461000000.0 169589000000.0 257210000000.0 118969000000.0 33214100000.0 1057810000.0 541484000000.0 581136000000.0 590614000000.0 490559000000.0 409090000000.0 46143400000.0 41706100000.0 14662200000.0 1706490000.0 85295900000.0 129300000000.0 98702400000.0 50510900000.0 41901500000.0 4869070000.0 134941000000.0 102196000000.0 166016000000.0 79172100000.0 294278000000.0 661747000000.0 681444000000.0 565195000000.0 65533700000.0 21260400000.0 29344700000.0 35929000000.0 8187910000.0 92182100000.0 94620400000.0 36749000000.0 245778000000.0 393489000000.0 148874000000.0 255068000000.0 124926000000.0 263928000000.0 660171000000.0 523360000000.0 201427000000.0 49451200000.0 61238500000.0 59518300000.0 57196300000.0 18861000000.0 110420000000.0 88723300000.0 102400000000.0 19865500000.0 6113910000.0 73558600000.0 34958400000.0 36293400000.0 33467800000.0 22263000000.0 321601000000.0 509139000000.0 171883000000.0 252402000000.0 261661000000.0 363133000000.0 332464000000.0 243687000000.0 147400000000.0 619696000000.0 674698000000.0 10110200000.0 110308000000.0 20507600000.0 259489000000.0 139286000000.0 9318930000.0 22061500000.0 89179300000.0 258077000000.0 331023000000.0 440555000000.0 314828000000.0 314659000000.0 210427000000.0 118233000000.0 39930900000.0 1070630000.0 383644000000.0 94331400000.0 121456000000.0 31533200000.0 457676000000.0 158118000000.0 18687500000.0 89885300000.0 383336000000.0 601162000000.0 301488000000.0 408327000000.0 479811000000.0 184967000000.0 35171200000.0 676394000000.0 91518600000.0 23029800000.0 136542000000.0 191179000000.0 139644000000.0 195462000000.0 83205600000.0 45984100000.0 574356000000.0 520221000000.0 106809000000.0 31498800000.0 50502800000.0 102114000000.0 125936000000.0 408158000000.0 684264000000.0 302084000000.0 292713000000.0 341614000000.0 409651000000.0 507743000000.0 657295000000.0 478265000000.0 91614100000.0 225858000000.0 363028000000.0 281173000000.0 128081000000.0 280590000000.0 333990000000.0 132082000000.0 326768000000.0 825246000.0 90196200000.0 332160000000.0 261839000000.0 599601000000.0 420011000000.0 161930000000.0 189762000000.0 313091000000.0 344569000000.0 156865000000.0 45123400000.0 137322000000.0 248616000000.0 388194000000.0 415939000000.0 547543000000.0 452698000000.0 519053000000.0 401435000000.0 703685000000.0 40180000000.0 17377100000.0 367434000000.0 782937000000.0 379512000000.0 270719000000.0 179106000000.0 235184000000.0 268431000000.0 991769000000.0 162838000000.0 274051000000.0 41063300000.0 34608600000.0 298443000000.0 523564000000.0 604994000000.0 565500000000.0 918773000000.0 981017000000.0 209908000000.0 251698000000.0 68902400000.0 270613000000.0 912664000000.0 282417000000.0 97850500000.0 434743000000.0 227595000000.0 329235000000.0 267979000000.0 340055000000.0 286472000000.0 158527000000.0 30325800000.0 201267000000.0 440878000000.0 614627000000.0 599054000000.0 583656000000.0 509583000000.0 830031000000.0 299713000000.0 425159000000.0 185900000000.0 164124000000.0 941148000000.0 656599000000.0 652128000000.0 428027000000.0 347223000000.0 187863000000.0 153121000000.0 270871000000.0 342116000000.0 452526000000.0 550558000000.0 618900000000.0 644838000000.0 641616000000.0 561740000000.0 533001000000.0 478650000000.0 555829000000.0 163570000000.0 1.06972e+12 362741000000.0 284536000000.0 186153000000.0 209526000000.0 847487000000.0 246246000000.0 625973000000.0 455912000000.0 298618000000.0 257179000000.0 366314000000.0 529597000000.0 662576000000.0 624114000000.0 298424000000.0 226201000000.0 509821000000.0 495105000000.0 490370000000.0 99410600000.0 1.25028e+12 118883000000.0 501388000000.0 301808000000.0 643307000000.0 660454000000.0 701858000000.0 599947000000.0 557634000000.0 438067000000.0 403888000000.0 307077000000.0 326133000000.0 431276000000.0 586271000000.0 723002000000.0 667103000000.0 71986200000.0 343230000000.0 524083000000.0 1.51757e+12 468849000.0 367578000000.0 36515000000.0 434491000000.0 215533000000.0 498756000000.0 763402000000.0 654922000000.0 514280000000.0 397376000000.0 339161000000.0 371743000000.0 376979000000.0 402327000000.0 465775000000.0 481138000000.0 664273000000.0 846689000000.0 758946000000.0 996005000000.0 67894200000.0 474092000000.0 499617000000.0 122417000000.0 781576000000.0 531170000000.0 526667000000.0 730588000000.0 714980000000.0 600289000000.0 480934000000.0 406809000000.0 392538000000.0 403398000000.0 499688000000.0 985459000000.0 231019000000.0 184279000000.0 370422000000.0 459131000000.0 204501000000.0 1.66342e+12 596566000000.0 524082000000.0 157251000000.0 257987000000.0 879743000000.0 555782000000.0 584509000000.0 703378000000.0 644968000000.0 651779000000.0 610880000000.0 560338000000.0 536769000000.0 468434000000.0 469221000000.0 419195000000.0 398794000000.0 390680000000.0 574261000000.0 1.4064e+12 321217000000.0 429542000000.0 403874000000.0 1.35539e+12 1.5632e+12 306434000000.0 682178000000.0 477814000000.0 556603000000.0 616870000000.0 590360000000.0 528846000000.0 476653000000.0 428726000000.0 439306000000.0 398282000000.0 416088000000.0 392966000000.0 550733000000.0 447218000000.0 413622000000.0 216671000000.0 339375000000.0 343274000000.0 211786000000.0 336253000000.0 1.28352e+12 1.00309e+12 438219000000.0 181826000000.0 784962000000.0 1.37351e+12 427863000000.0 565422000000.0 612216000000.0 583036000000.0 532014000000.0 490908000000.0 468302000000.0 524253000000.0 1.01052e+12 1.18323e+12 16098300000.0 77921900000.0 501027000000.0 987636000000.0 774633000000.0 505088000000.0 58307700000.0 1.416e+12 418469000000.0 426938000000.0 476641000000.0 550718000000.0 595003000000.0 627660000000.0 618231000000.0 627620000000.0 585225000000.0 595854000000.0 544842000000.0 571920000000.0 521543000000.0 555040000000.0 991753000000.0 805254000000.0 30727700000.0 132804000000.0 259990000000.0 325589000000.0 80315800000.0 246651000000.0 135803000000.0 69457600000.0 387968000000.0 653483000000.0 542704000000.0 522152000000.0 618422000000.0 654392000000.0 639470000000.0 617266000000.0 623721000000.0 588982000000.0 719872000000.0 783858000000.0 724626000000.0 158940000000.0 551850000000.0 401040000000.0 648845000000.0 933199000000.0 561751000000.0 354238000000.0 513794000000.0 1.05353e+12 573463000000.0 654206000000.0 615647000000.0 686829000000.0 669233000000.0 673794000000.0 656439000000.0 655474000000.0 709007000000.0 788831000000.0 814436000000.0 622955000000.0 506650000000.0 166070000000.0 113952000000.0 968361000000.0 525864000000.0 9035750000.0 1.44698e+12 537469000000.0 451522000000.0 493816000000.0 127589000000.0 774226000000.0 735329000000.0 749900000000.0 727569000000.0 732975000000.0 701971000000.0 720321000000.0 689434000000.0 706337000000.0 682662000000.0 722463000000.0 714830000000.0 779018000000.0 750936000000.0 458200000000.0 89486100000.0 817277000000.0 1.18504e+12 291669000000.0 199998000000.0 1.2856e+12 785237000000.0 412680000000.0 220510000000.0 207125000000.0 796912000000.0 799714000000.0 779017000000.0 757000000000.0 730484000000.0 728265000000.0 770868000000.0 776205000000.0 819462000000.0 799762000000.0 783966000000.0 649579000000.0 317057000000.0 1.1199e+12 949116000000.0 544762000000.0 990721000000.0 1.21229e+12 615427000000.0 98993000000.0 158240000000.0 97285000000.0 739637000000.0 860512000000.0 859207000000.0 908188000000.0 844126000000.0 871950000000.0 807114000000.0 814268000000.0 763478000000.0 736682000000.0 758320000000.0 820065000000.0 844574000000.0 776394000000.0 601373000000.0 677374000000.0 489920000000.0 1.19832e+12 549421000000.0 1.37132e+12 135132000000.0 555119000000.0 107962000000.0 876496000000.0 862612000000.0 137705000000.0 469550000000.0 802715000000.0 938071000000.0 937859000000.0 882332000000.0 800457000000.0 757190000000.0 738389000000.0 742627000000.0 760372000000.0 800296000000.0 859100000000.0 865898000000.0 874518000000.0 845231000000.0 983628000000.0 550643000000.0 466899000000.0 1.12061e+12 189137000000.0 115715000000.0 241607000000.0 330267000000.0 653265000000.0 888057000000.0 491939000000.0 555359000000.0 422220000000.0 679645000000.0 930535000000.0 980373000000.0 952671000000.0 872791000000.0 765399000000.0 717629000000.0 810787000000.0 930017000000.0 916462000000.0 981761000000.0 938564000000.0 1.05783e+12 1.02041e+12 1.24556e+12 804945000000.0 996743000000.0 42247300000.0 1.27102e+12 87537200000.0 118342000000.0 807171000000.0 180005000000.0 302060000000.0 484460000000.0 460081000000.0 395170000000.0 607479000000.0 685941000000.0 888208000000.0 976372000000.0 991919000000.0 1.01452e+12 1.00113e+12 1.01398e+12 955234000000.0 931993000000.0 832452000000.0 757438000000.0 706329000000.0 724867000000.0 909398000000.0 1.005e+12 1.06512e+12 1.19602e+12 1.20616e+12 1.26727e+12 958505000000.0 661764000000.0 119758000000.0 873314000000.0 668726000000.0 1.22133e+12 779789000000.0 223041000000.0 170418000000.0 258364000000.0 822670000000.0 545407000000.0 365399000000.0 784176000000.0 335677000000.0 706989000000.0 839161000000.0 854782000000.0 969960000000.0 1.00365e+12 1.02713e+12 1.01292e+12 855212000000.0 652513000000.0 650160000000.0 660914000000.0 809850000000.0 999611000000.0 1.0309e+12 1.06326e+12 1.1609e+12 1.27197e+12 1.0382e+12 804663000000.0 101106000000.0 611292000000.0 669073000000.0 607426000000.0 107760000000.0 57430800000.0 97389800000.0 251640000000.0 153218000000.0 187372000000.0 531551000000.0 521529000000.0 267217000000.0 587080000000.0 740445000000.0 609946000000.0 798057000000.0 945769000000.0 988534000000.0 1.00682e+12 1.04094e+12 966356000000.0 737837000000.0 574188000000.0 835103000000.0 1.18987e+12 1.08713e+12 1.04334e+12 1.1039e+12 1.16675e+12 1.23794e+12 1.21734e+12 819811000000.0 506679000000.0 78371100000.0 244406000000.0 793533000000.0 512016000000.0 273932000000.0 272941000000.0 36065800000.0 291228000000.0 139707000000.0 141011000000.0 179366000000.0 174170000000.0 252867000000.0 3153400000.0 395526000000.0 939078000000.0 229677000000.0 935120000000.0 866937000000.0 950652000000.0 997323000000.0 993166000000.0 941437000000.0 965122000000.0 948681000000.0 1.01815e+12 1.02689e+12 1.03022e+12 931647000000.0 821128000000.0 669204000000.0 593135000000.0 525338000000.0 649830000000.0 1.21311e+12 981603000000.0 1.08144e+12 1.18217e+12 1.23096e+12 1.14888e+12 1.03146e+12 595846000000.0 196978000000.0 45883400000.0 263762000000.0 406691000000.0 69611700000.0 297700000000.0 4568030000.0 376611000000.0 343761000000.0 127910000000.0 171923000000.0 149608000000.0 740881000000.0 470834000000.0 887557000000.0 351139000000.0 981309000000.0 1.08678e+12 994396000000.0 1.06877e+12 995158000000.0 879980000000.0 958291000000.0 958139000000.0 636218000000.0 447245000000.0 697051000000.0 1.05132e+12 540599000000.0 865352000000.0 1.0032e+12 1.09427e+12 1.14252e+12 1.00473e+12 857774000000.0 688779000000.0 1.60483e+12 99500300000.0 262232000000.0 4066390000.0 107968000000.0 244243000000.0 294653000000.0 43694100000.0 6292010000.0 564583000000.0 175357000000.0 205118000000.0 130254000000.0 45016100000.0 81464600000.0 251542000000.0 615615000000.0 167337000000.0 602418000000.0 201710000000.0 643556000000.0 1.16777e+12 1.00464e+12 846170000000.0 856927000000.0 929665000000.0 674747000000.0 392636000000.0 258446000000.0 130849000000.0 848662000000.0 926893000000.0 932610000000.0 1.00426e+12 968256000000.0 1.06736e+12 1.08013e+12 891566000000.0 837945000000.0 351128000000.0 319192000000.0 666853000000.0 28878200000.0 205115000000.0 106095000000.0 286222000000.0 321180000000.0 43076600000.0 290913000000.0 438951000000.0 205704000000.0 253650000000.0 176187000000.0 113406000000.0 308696000000.0 33176500000.0 1.0928e+12 287286000000.0 108764000000.0 274344000000.0 407736000000.0 853254000000.0 1.19164e+12 986659000000.0 1.01556e+12 684222000000.0 759192000000.0 751592000000.0 864022000000.0 704439000000.0 702908000000.0 73824700000.0 53303900000.0 172545000000.0 129247000000.0 188511000000.0 770426000000.0 881456000000.0 891331000000.0 906886000000.0 1.02311e+12 1.01525e+12 954134000000.0 534300000000.0 61147700000.0 332187000000.0 189747000000.0 234964000000.0 237000000000.0 70805000000.0 74200000000.0 262393000000.0 277374000000.0 357377000000.0 265201000000.0 175959000000.0 125544000000.0 362183000000.0 346811000000.0 29475500000.0 403115000000.0 386395000000.0 311853000000.0 278854000000.0 293490000000.0 384278000000.0 63930800000.0 58306400000.0 105085000000.0 238906000000.0 87079300000.0 25783100000.0 470932000000.0 1.11547e+12 1.3279e+12 1.17907e+12 601013000000.0 787449000000.0 213282000000.0 178595000000.0 140134000000.0 8935690000.0 178037000000.0 579501000000.0 664019000000.0 891583000000.0 874724000000.0 857484000000.0 851739000000.0 807513000000.0 855960000000.0 790651000000.0 639153000000.0 319640000000.0 343320000000.0 72224500000.0 195439000000.0 592457000000.0 436219000000.0 169421000000.0 273661000000.0 362836000000.0 282246000000.0 139909000000.0 185949000000.0 258401000000.0 377447000000.0 23156200000.0 393995000000.0 1.02824e+12 518135000000.0 292136000000.0 317932000000.0 821400000000.0 1.32978e+12 1.29205e+12 922392000000.0 383507000000.0 136462000000.0 170717000000.0 454669000000.0 977473000000.0 264723000000.0 642760000000.0 743151000000.0 504372000000.0 55199000000.0 147722000000.0 348969000000.0 603498000000.0 886156000000.0 900877000000.0 784338000000.0 766105000000.0 631950000000.0 701150000000.0 596907000000.0 948087000000.0 425521000000.0 383561000000.0 152460000000.0 31752300000.0 1.33128e+12 294018000000.0 44559400000.0 133392000000.0 132861000000.0 485697000000.0 328894000000.0 224577000000.0 151469000000.0 80578500000.0 316324000000.0 400966000000.0 47749500000.0 47749600000.0 80955500000.0 32437400000.0 306494000000.0 136585000000.0 179858000000.0 449913000000.0 386787000000.0 278121000000.0 357531000000.0 515775000000.0 162405000000.0 306553000000.0 72686200000.0 34679700000.0 69068900000.0 370772000000.0 1.04269e+12 102311000000.0 654485000000.0 1.06534e+12 644649000000.0 487627000000.0 439509000000.0 689512000000.0 619411000000.0 896906000000.0 894804000000.0 955357000000.0 832028000000.0 666427000000.0 452486000000.0 1.09244e+12 702686000000.0 139309000000.0 19281500000.0 668004000000.0 30595000000.0 256703000000.0 945429000000.0 704302000000.0 21828500000.0 916810000000.0 609994000000.0 154282000000.0 430796000000.0 260018000000.0 196036000000.0 99940000000.0 23267200000.0 144040000000.0 102483000000.0 455661000000.0 426164000000.0 39671100000.0 34987600000.0 31067600000.0 67745600000.0 122633000000.0 135211000000.0 81955600000.0 343700000000.0 749016000000.0 1.18763e+12 1.2354e+12 558539000000.0 327528000000.0 43685600000.0 313251000000.0 112545000000.0 493541000000.0 23555100000.0 360826000000.0 1.22192e+12 589968000000.0 583254000000.0 835979000000.0 1.00358e+12 990863000000.0 966995000000.0 895829000000.0 786801000000.0 726174000000.0 590979000000.0 509750000000.0 337642000000.0 189989000000.0 807787000000.0 676861000000.0 113350000000.0 80018400000.0 140992000000.0 1.0668e+12 1.02551e+12 385250000000.0 668222000000.0 370393000000.0 203232000000.0 150386000000.0 27693300000.0 3351070000.0 677570000000.0 184330000000.0 69402200000.0 470105000000.0 10840700000.0 58041300000.0 64976600000.0 94408600000.0 91715600000.0 160751000000.0 14827700000.0 61916400000.0 206723000000.0 499933000000.0 617222000000.0 679551000000.0 1.80656e+12 596960000000.0 232927000000.0 532478000000.0 342050000000.0 1.07656e+12 634581000000.0 572001000000.0 856216000000.0 848341000000.0 749779000000.0 579892000000.0 539103000000.0 759108000000.0 974455000000.0 1.00836e+12 884521000000.0 630848000000.0 453321000000.0 184101000000.0 1.58875e+12 340415000000.0 128925000000.0 824217000000.0 855220000000.0 496799000000.0 262575000000.0 312257000000.0 168825000000.0 922067000000.0 101533000000.0 126778000000.0 73865000000.0 117442000000.0 369714000000.0 193491000000.0 138725000000.0 76479900000.0 235078000000.0 439195000000.0 84317700000.0 42621400000.0 15973700000.0 115495000000.0 170873000000.0 115578000000.0 155598000000.0 94893500000.0 146016000000.0 335491000000.0 200428000000.0 15871800000.0 622811000000.0 843964000000.0 19654300000.0 485033000000.0 827254000000.0 76725600000.0 1.01685e+12 733351000000.0 988797000000.0 654106000000.0 652573000000.0 583295000000.0 635686000000.0 773125000000.0 877562000000.0 952293000000.0 1.00386e+12 973756000000.0 951258000000.0 868614000000.0 772568000000.0 631333000000.0 393846000000.0 433135000000.0 32825100000.0 1.661e+12 98630100000.0 1.0586e+12 18139400000.0 1.44301e+12 1.15647e+12 592076000000.0 808586000000.0 425948000000.0 60791900000.0 142301000000.0 56654900000.0 1.12797e+12 440458000000.0 83170400.0 152304000000.0 240949000000.0 57965500000.0 83344000000.0 313744000000.0 92867200000.0 55907900000.0 45342700000.0 86790400000.0 182275000000.0 171047000000.0 182429000000.0 131856000000.0 74112300000.0 109067000000.0 286365000000.0 445756000000.0 268650000000.0 544569000000.0 241503000000.0 161492000000.0 43477300000.0 1.1355e+12 287202000000.0 689863000000.0 738710000000.0 977010000000.0 913577000000.0 509779000000.0 600612000000.0 590211000000.0 670715000000.0 857886000000.0 949935000000.0 912960000000.0 765535000000.0 426868000000.0 7115720000.0 581501000000.0 469973000000.0 222672000000.0 478802000000.0 717756000000.0 55350900000.0 421051000000.0 596254000000.0 505685000000.0 167260000000.0 207800000000.0 431295000000.0 400833000000.0 265619000000.0 551666000000.0 808809000000.0 86861000000.0 184944000000.0 42430900000.0 179949000000.0 309392000000.0 37851500000.0 3203900000.0 32551700000.0 491270000000.0 567944000000.0 131768000000.0 40350600000.0 149477000000.0 258040000000.0 255000000000.0 211731000000.0 45500200000.0 18404300000.0 234428000000.0 380389000000.0 453610000000.0 537990000000.0 1.41582e+12 1.15392e+12 228471000000.0 23100000000.0 513734000000.0 471675000000.0 626938000000.0 770135000000.0 934207000000.0 438728000000.0 559090000000.0 586248000000.0 607357000000.0 760291000000.0 886693000000.0 911537000000.0 835097000000.0 648974000000.0 149826000000.0 284365000000.0 526683000000.0 544738000000.0 66335700000.0 142133000000.0 62149400000.0 254415000000.0 19147100000.0 392742000000.0 68346200000.0 6517580000.0 369173000000.0 435669000000.0 166015000000.0 253614000000.0 426208000000.0 396838000000.0 331999000000.0 194093000000.0 286374000000.0 327015000000.0 421181000000.0 352036000000.0 19872000000.0 3774270000.0 75310000000.0 537771000000.0 712863000000.0 221083000000.0 156651000000.0 161408000000.0 230495000000.0 366747000000.0 240649000000.0 211538000000.0 142525000000.0 60000200000.0 305276000000.0 744809000000.0 385786000000.0 231941000000.0 367486000000.0 38958900000.0 312875000000.0 1.35773e+12 78396100000.0 107116000000.0 266117000000.0 568556000000.0 1.03251e+12 15379400000.0 547269000000.0 566277000000.0 660671000000.0 702937000000.0 795423000000.0 800808000000.0 864218000000.0 819135000000.0 850709000000.0 779553000000.0 734786000000.0 642900000000.0 440398000000.0 209884000000.0 957796000000.0 1.60132e+12 1.03363e+12 166009000000.0 69176100000.0 123534000000.0 411319000000.0 478987000000.0 173126000000.0 147649000000.0 260897000000.0 442309000000.0 511425000000.0 391478000000.0 90369300000.0 136395000000.0 138831000000.0 551297000000.0 347425000000.0 542299000000.0 475323000000.0 441878000000.0 360619000000.0 2317530000.0 80667900000.0 269101000000.0 295633000000.0 365362000000.0 471403000000.0 1.03275e+12 527973000000.0 134871000000.0 143189000000.0 323415000000.0 359687000000.0 557272000000.0 324792000000.0 172355000000.0 8160500000.0 321800000000.0 1.10781e+12 883415000000.0 61547800000.0 434306000000.0 36036400000.0 185582000000.0 829639000000.0 233506000000.0 211951000000.0 6701200000.0 30923500000.0 502363000000.0 1.09062e+12 694579000000.0 338956000000.0 673682000000.0 590137000000.0 559101000000.0 703930000000.0 753183000000.0 738062000000.0 692140000000.0 299875000000.0 879156000000.0 493158000000.0 809617000000.0 359813000000.0 35540400000.0 126495000000.0 407754000000.0 1.07191e+12 1.56926e+12 1.56977e+12 1.07865e+12 767077000000.0 684731000000.0 593254000000.0 425883000000.0 137837000000.0 55797500000.0 685354000000.0 1.12714e+12 748052000000.0 632115000000.0 533045000000.0 500638000000.0 418867000000.0 352721000000.0 334969000000.0 9232670000.0 5335180000.0 39291600000.0 290847000000.0 255354000000.0 218271000000.0 255311000000.0 939476000000.0 413733000000.0 338917000000.0 488363000000.0 269388000000.0 413225000000.0 761248000000.0 255880000000.0 788597000000.0 488667000000.0 250076000000.0 73422200000.0 73609900000.0 439313000000.0 630068000000.0 442961000000.0 13160600000.0 286781000000.0 129758000000.0 168386000000.0 294216000000.0 175156000000.0 160725000000.0 1.12557e+12 231219000000.0 710680000000.0 333329000000.0 341251000000.0 381293000000.0 615282000000.0 713354000000.0 692419000000.0 647881000000.0 769496000000.0 289420000000.0 544662000000.0 837441000000.0 151041000000.0 473194000000.0 176985000000.0 2742920000.0 92884200000.0 32232900000.0 271072000000.0 419063000000.0 373832000000.0 186442000000.0 187623000000.0 439489000000.0 549099000000.0 561426000000.0 494403000000.0 261337000000.0 1.61954e+12 874085000000.0 709999000000.0 708908000000.0 608262000000.0 432226000000.0 369774000000.0 329495000000.0 22463000000.0 46017000000.0 54765400000.0 384213000000.0 340163000000.0 299390000000.0 493013000000.0 452722000000.0 973372000000.0 298615000000.0 264153000000.0 358955000000.0 174401000000.0 464087000000.0 220288000000.0 1.1326e+12 662214000000.0 93331800000.0 373086000000.0 344360000000.0 250017000000.0 9065860000.0 145979000000.0 292768000000.0 318470000000.0 181875000000.0 221270000000.0 259060000000.0 124750000000.0 585927000000.0 586544000000.0 616649000000.0 626589000000.0 618029000000.0 542291000000.0 330515000000.0 495937000000.0 958013000000.0 954674000000.0 188079000000.0 108743000000.0 12649400000.0 62501400000.0 58750800000.0 74248600000.0 72354300000.0 320267000000.0 20409100000.0 31698700000.0 184124000000.0 358116000000.0 476394000000.0 604840000000.0 890437000000.0 1.15036e+12 1.48084e+12 1.1054e+12 715820000000.0 668003000000.0 602583000000.0 505832000000.0 419381000000.0 353884000000.0 335232000000.0 326119000000.0 355708000000.0 82372500000.0 130122000000.0 604357000000.0 478572000000.0 492477000000.0 296444000000.0 515121000000.0 812274000000.0 814434000000.0 17772200000.0 297010000000.0 548356000000.0 560791000000.0 1.33016e+12 415273000000.0 785830000000.0 386916000000.0 603864000000.0 674142000000.0 236116000000.0 264372000000.0 209669000000.0 22251900000.0 268930000000.0 311793000000.0 235686000000.0 15335200000.0 478145000000.0 462071000000.0 714320000000.0 177985000000.0 540142000000.0 294818000000.0 398415000000.0 394778000000.0 514381000000.0 398164000000.0 53435100000.0 640173000000.0 778863000000.0 132985000000.0 49202800000.0 54795700000.0 98247300000.0 224086000000.0 111732000000.0 270748000000.0 1.24626e+12 860774000000.0 974278000000.0 841610000000.0 324680000000.0 658069000000.0 615281000000.0 503482000000.0 329796000000.0 316818000000.0 365849000000.0 395319000000.0 458176000000.0 118112000000.0 122215000000.0 125303000000.0 500555000000.0 861445000000.0 1.14313e+12 426242000000.0 370070000000.0 634538000000.0 736532000000.0 758730000000.0 636493000000.0 34018400000.0 612746000000.0 1.07279e+12 56612400000.0 561343000000.0 29636100000.0 726248000000.0 583075000000.0 264496000000.0 47320700000.0 143934000000.0 138135000000.0 111986000000.0 180842000000.0 299770000000.0 257801000000.0 118854000000.0 86978100000.0 329257000000.0 887833000000.0 577418000000.0 403718000000.0 735542000000.0 132147000000.0 522839000000.0 518481000000.0 697121000000.0 223957000000.0 290685000000.0 1.40982e+12 488163000000.0 499942000000.0 59891900000.0 44346500000.0 126103000000.0 127425000000.0 117137000000.0 263233000000.0 494779000000.0 435586000000.0 194721000000.0 138071000000.0 209990000000.0 186514000000.0 158320000000.0 31345900000.0 849768000000.0 192718000000.0 211011000000.0 28914400000.0 719360000000.0 549159000000.0 410468000000.0 280041000000.0 316588000000.0 377248000000.0 432092000000.0 515267000000.0 154622000000.0 129557000000.0 476772000000.0 472269000000.0 562948000000.0 551309000000.0 972943000000.0 809979000000.0 617316000000.0 359581000000.0 665274000000.0 170034000000.0 682219000000.0 760495000000.0 769464000000.0 309560000000.0 19899700000.0 284037000000.0 429575000000.0 474548000000.0 308976000000.0 67943000000.0 37977200000.0 119961000000.0 185731000000.0 225404000000.0 276301000000.0 153350000000.0 20504400000.0 80350700000.0 264051000000.0 500049000000.0 264122000000.0 928200000000.0 773537000000.0 853768000000.0 13923900000.0 542078000000.0 178781000000.0 554298000000.0 292087000000.0 555575000000.0 140515000000.0 102140000000.0 306191000000.0 49141100000.0 197383000000.0 256866000000.0 396198000000.0 564160000000.0 587517000000.0 481267000000.0 330704000000.0 270258000000.0 260751000000.0 229361000000.0 118080000000.0 994978000000.0 922125000000.0 234387000000.0 1.124e+12 758463000000.0 379224000000.0 291897000000.0 226739000000.0 316185000000.0 493837000000.0 539215000000.0 554571000000.0 187083000000.0 212694000000.0 139955000000.0 473610000000.0 484548000000.0 390960000000.0 128151000000.0 259215000000.0 406260000000.0 1.06555e+12 548950000000.0 409611000000.0 23888700000.0 189705000000.0 742200000000.0 1.04692e+12 239025000000.0 298894000000.0 223415000000.0 546654000000.0 452675000000.0 33704600000.0 87728300000.0 108956000000.0 406224000000.0 160670000000.0 95443800000.0 169511000000.0 24175700000.0 186792000000.0 261354000000.0 292466000000.0 298756000000.0 260262000000.0 8770220000.0 127423000000.0 145289000000.0 17495400000.0 871056000000.0 456985000000.0 181885000000.0 632767000000.0 819969000000.0 578087000000.0 119667000000.0 603566000000.0 78346000000.0 29222500000.0 97899400000.0 216837000000.0 326721000000.0 472514000000.0 608132000000.0 657453000000.0 624388000000.0 532395000000.0 421203000000.0 337574000000.0 250073000000.0 130155000000.0 14028000000.0 1.39871e+12 928707000000.0 33564100000.0 1.49541e+12 850385000000.0 559925000000.0 261188000000.0 208822000000.0 347993000000.0 440181000000.0 659824000000.0 634439000000.0 700929000000.0 582212000000.0 216607000000.0 134901000000.0 488080000000.0 490940000000.0 527125000000.0 418080000000.0 267758000000.0 34434000000.0 2829230000.0 791017000000.0 128992000000.0 33970300000.0 232190000000.0 752125000000.0 557852000000.0 419920000000.0 75916300000.0 409586000000.0 278341000000.0 95923300000.0 157226000000.0 252276000000.0 347883000000.0 466240000000.0 81904300000.0 166495000000.0 281430000000.0 306895000000.0 301464000000.0 273626000000.0 206446000000.0 93346400000.0 80144000000.0 90616900000.0 434643000000.0 632670000.0 62241600000.0 963645000000.0 250846000000.0 843055000000.0 750055000000.0 623648000000.0 448077000000.0 476639000000.0 76214900000.0 102798000000.0 61409400000.0 205406000000.0 340467000000.0 485379000000.0 618144000000.0 691493000000.0 695582000000.0 654337000000.0 580853000000.0 487435000000.0 382041000000.0 250439000000.0 131621000000.0 225578000000.0 1.27998e+12 1.34061e+12 332847000000.0 597324000000.0 403117000000.0 167256000000.0 158423000000.0 592215000000.0 646670000000.0 1.07996e+12 879107000000.0 619320000000.0 553426000000.0 521855000000.0 212615000000.0 83144100000.0 115494000000.0 455272000000.0 553829000000.0 605527000000.0 519328000000.0 420816000000.0 28164300000.0 22917000000.0 3651610000.0 96322500000.0 378775000000.0 430495000000.0 158206000000.0 181536000000.0 165809000000.0 432245000000.0 391935000000.0 262247000000.0 326009000000.0 226463000000.0 122798000000.0 132188000000.0 140659000000.0 251879000000.0 613799000000.0 329572000000.0 319030000000.0 279115000000.0 260206000000.0 239408000000.0 185215000000.0 97380900000.0 13335500000.0 182515000000.0 565642000000.0 435671000000.0 675094000000.0 522684000000.0 495504000000.0 84682500000.0 313319000000.0 90358400000.0 11677600000.0 4688230000.0 52626200000.0 187708000000.0 329314000000.0 471318000000.0 596864000000.0 682702000000.0 719871000000.0 712072000000.0 675517000000.0 616751000000.0 534104000000.0 424889000000.0 310405000000.0 273302000000.0 1.65153e+12 1.50102e+12 242612000000.0 1.10822e+12 954139000000.0 516683000000.0 287291000000.0 104445000000.0 403397000000.0 1.17056e+12 1.22629e+12 686154000000.0 678161000000.0 554965000000.0 499648000000.0 205538000000.0 50306800000.0 404675000000.0 531408000000.0 615618000000.0 616274000000.0 521336000000.0 289010000000.0 24027900000.0 244835000000.0 294879000000.0 151714000000.0 1.21067e+12 351944000000.0 323973000000.0 482583000000.0 435002000000.0 349936000000.0 329959000000.0 250701000000.0 189940000000.0 227781000000.0 311358000000.0 1.06091e+12 132152000000.0 206023000000.0 227427000000.0 171044000000.0 209042000000.0 242243000000.0 193719000000.0 89614800000.0 10043900000.0 82017300000.0 232944000000.0 136825000000.0 637693000000.0 399229000000.0 366036000000.0 6384060000.0 129560000000.0 73327400000.0 61524500000.0 99292700000.0 181444000000.0 306852000000.0 440445000000.0 561923000000.0 650921000000.0 701654000000.0 718868000000.0 706862000000.0 673067000000.0 619494000000.0 528770000000.0 381202000000.0 3845500000.0 1.56819e+12 1.14652e+12 955337000000.0 953932000000.0 868426000000.0 529442000000.0 281043000000.0 466029000000.0 831454000000.0 368955000000.0 600109000000.0 513046000000.0 558224000000.0 496262000000.0 508352000000.0 484252000000.0 200365000000.0 186746000000.0 7745380000.0 343736000000.0 379230000000.0 467112000000.0 558867000000.0 708850000000.0 788876000000.0 461534000000.0 24055000000.0 109134000000.0 391225000000.0 565810000000.0 368092000000.0 1.12147e+12 65112800000.0 680523000000.0 525764000000.0 694582000000.0 466967000000.0 11180500000.0 321355000000.0 346399000000.0 230537000000.0 263522000000.0 173958000000.0 56625400000.0 48696300000.0 160324000000.0 183161000000.0 244041000000.0 416571000000.0 456378000000.0 601996000000.0 515257000000.0 538941000000.0 387309000000.0 403757000000.0 314706000000.0 208271000000.0 19736100000.0 72107300000.0 89553800000.0 125714000000.0 193275000000.0 289008000000.0 404287000000.0 515432000000.0 1.11057e+12 841703000000.0 678315000000.0 379947000000.0 823745000000.0 1.07616e+12 724422000000.0 484727000000.0 399770000000.0 25416300000.0 330792000000.0 399861000000.0 339721000000.0 441593000000.0 466061000000.0 486294000000.0 477486000000.0 474562000000.0 95506900000.0 28226800000.0 273019000000.0 301591000000.0 447914000000.0 545806000000.0 675057000000.0 834562000000.0 987954000000.0 666610000000.0 860491000000.0 231734000000.0 678614000000.0 336927000000.0 644210000000.0 905309000000.0 106300000000.0 702830000000.0 616710000000.0 503788000000.0 536219000000.0 495005000000.0 441785000000.0 411172000000.0 380270000000.0 449829000000.0 751666000000.0 361606000000.0 83805500000.0 338079000000.0 279986000000.0 28646300000.0 26552800000.0 227977000000.0 110318000000.0 10876100000.0 120880000000.0 189029000000.0 258578000000.0 364305000000.0 435700000000.0 528762000000.0 536993000000.0 516690000000.0 440924000000.0 346516000000.0 310309000000.0 222034000000.0 119140000000.0 424666000.0 78310000000.0 130928000000.0 605248000000.0 663712000000.0 690908000000.0 693004000000.0 672142000000.0 626205000000.0 544587000000.0 362990000000.0 224587000000.0 644653000000.0 797746000000.0 646181000000.0 496360000000.0 722798000000.0 953715000000.0 959370000000.0 711088000000.0 940764000000.0 353421000000.0 340358000000.0 317661000000.0 342177000000.0 274922000000.0 319194000000.0 398145000000.0 450617000000.0 464280000000.0 451141000000.0 95144400000.0 56173500000.0 53923600000.0 135333000000.0 196148000000.0 220643000000.0 335136000000.0 387097000000.0 700000000000.0 919647000000.0 640960000000.0 149033000000.0 486917000000.0 1.11673e+12 800820000000.0 1.15178e+12 805148000000.0 277417000000.0 670306000000.0 642746000000.0 593347000000.0 597433000000.0 579651000000.0 565109000000.0 584080000000.0 662902000000.0 969534000000.0 151514000000.0 113381000000.0 216880000000.0 361606000000.0 226414000000.0 216947000000.0 23641800000.0 266070000000.0 33086500000.0 82412500000.0 170524000000.0 246427000000.0 327713000000.0 397529000000.0 466729000000.0 497884000000.0 494766000000.0 440582000000.0 365750000000.0 291475000000.0 227895000000.0 194750000000.0 276690000000.0 371768000000.0 469139000000.0 552824000000.0 613486000000.0 648912000000.0 658671000000.0 642330000000.0 597241000000.0 512898000000.0 354819000000.0 148707000000.0 370675000000.0 827699000000.0 786385000000.0 651443000000.0 703518000000.0 824755000000.0 845015000000.0 673509000000.0 160115000000.0 272423000000.0 926860000000.0 550870000000.0 213815000000.0 209949000000.0 327035000000.0 406457000000.0 420125000000.0 458153000000.0 423112000000.0 252074000000.0 249422000000.0 88499500000.0 42239300000.0 96775100000.0 152695000000.0 239874000000.0 244670000000.0 482884000000.0 644086000000.0 1.18523e+12 1.34211e+12 12232400000.0 939907000000.0 1.42627e+12 1.00985e+12 1.21739e+12 828406000000.0 518027000000.0 673608000000.0 679528000000.0 666098000000.0 675500000000.0 692606000000.0 735786000000.0 829109000000.0 1.03862e+12 333891000000.0 203963000000.0 33112000000.0 284851000000.0 389059000000.0 390635000000.0 168201000000.0 358253000000.0 125095000000.0 258268000000.0 160113000000.0 143675000000.0 53477500000.0 38017300000.0 114376000000.0 183316000000.0 258701000000.0 341776000000.0 425991000000.0 501750000000.0 561364000000.0 600828000000.0 617382000000.0 608394000000.0 568893000000.0 489153000000.0 348713000000.0 80011700000.0 333222000000.0 769048000000.0 870743000000.0 804009000000.0 776900000000.0 810002000000.0 833994000000.0 788776000000.0 610757000000.0 53131000000.0 1.41044e+12 365645000000.0 340915000000.0 142960000000.0 235305000000.0 312645000000.0 359816000000.0 442543000000.0 436277000000.0 168948000000.0 237061000000.0 80991200000.0 64635300.0 29227900000.0 71811800000.0 115580000000.0 176251000000.0 206897000000.0 261849000000.0 276910000000.0 931282000000.0 1.56519e+12 60134900000.0 1.291e+12 844809000000.0 1.16017e+12 1.29378e+12 848299000000.0 1.00134e+12 827544000000.0 685897000000.0 733542000000.0 738460000000.0 742537000000.0 764834000000.0 808343000000.0 883930000000.0 982801000000.0 630951000000.0 417884000000.0 260299000000.0 107680000000.0 189421000000.0 553193000000.0 397148000000.0 114342000000.0 319458000000.0 383783000000.0 294701000000.0 126529000000.0 13111000000.0 120861000000.0 206668000000.0 282315000000.0 347539000000.0 405452000000.0 441796000000.0 450373000000.0 421321000000.0 363371000000.0 294932000000.0 224189000000.0 153673000000.0 75327900000.0 5315380000.0 85626400000.0 160996000000.0 234509000000.0 310025000000.0 385037000000.0 453823000000.0 510964000000.0 552214000000.0 574980000000.0 576685000000.0 553415000000.0 499028000000.0 406395000000.0 276613000000.0 386986000000.0 644775000000.0 831597000000.0 868150000000.0 846223000000.0 821707000000.0 797077000000.0 763280000000.0 754634000000.0 890124000000.0 698320000000.0 410715000000.0 252527000000.0 326727000000.0 201257000000.0 225799000000.0 261545000000.0 355950000000.0 401738000000.0 429832000000.0 386139000000.0 81520600000.0 195804000000.0 210209000000.0 32425400000.0 31089200000.0 76575800000.0 129913000000.0 112372000000.0 126151000000.0 174413000000.0 165755000000.0 162495000000.0 157538000000.0 261262000000.0 214052000000.0 474117000000.0 638838000000.0 1.30091e+12 64167000000.0 949065000000.0 1.22377e+12 1.10163e+12 805663000000.0 787437000000.0 794663000000.0 794123000000.0 801398000000.0 825432000000.0 860554000000.0 880952000000.0 730585000000.0 558787000000.0 415947000000.0 299441000000.0 180093000000.0 59584800000.0 641151000000.0 361985000000.0 137738000000.0 15517900000.0 126340000000.0 211846000000.0 279728000000.0 335145000000.0 374112000000.0 391370000000.0 380319000000.0 342313000000.0 286393000000.0 222272000000.0 154824000000.0 85721900000.0 13273700000.0 60486800000.0 134256000000.0 206366000000.0 276980000000.0 345299000000.0 408341000000.0 462511000000.0 504594000000.0 532366000000.0 544343000000.0 538535000000.0 512018000000.0 462874000000.0 399571000000.0 645289000000.0 431391000000.0 7647880000.0 910795000000.0 614672000000.0 508034000000.0 9186390000.0 372670000000.0 447799000000.0 361715000000.0 338802000000.0 430654000000.0 330768000000.0 123677000000.0 194951000000.0 9875910000.0 46145100000.0 50236300000.0 3309850000.0 47039000000.0 100352000000.0 169204000000.0 127940000000.0 122555000000.0 256809000000.0 132040000000.0 110470000000.0 128188000000.0 160267000000.0 317555000000.0 37235700000.0 773200000000.0 1.04251e+12 907646000000.0 921340000000.0 850272000000.0 345661000000.0 662716000000.0 396348000000.0 136059000000.0 154771000000.0 824604000000.0 438178000000.0 181204000000.0 14285100000.0 101376000000.0 184335000000.0 247141000000.0 292377000000.0 318631000000.0 322196000000.0 302224000000.0 262677000000.0 210205000000.0 150859000000.0 88138500000.0 23483600000.0 43080000000.0 110624000000.0 178164000000.0 244143000000.0 307134000000.0 445600000000.0 593674000000.0 743698000000.0 835812000000.0 863725000000.0 841211000000.0 770730000000.0 299955000000.0 18734900000.0 400647000000.0 270378000000.0 271111000000.0 532735000000.0 864028000000.0 604379000000.0 203077000000.0 250491000000.0 418168000000.0 440257000000.0 255496000000.0 6082810000.0 139837000000.0 159378000000.0 104109000000.0 83457500000.0 5310220000.0 38293800000.0 27651200000.0 190505000000.0 212725000000.0 234528000000.0 257330000000.0 454247000000.0 187394000000.0 224497000000.0 98511200000.0 272974000000.0 117966000000.0 315146000000.0 797150000000.0 903721000000.0 884894000000.0 843096000000.0 827122000000.0 818915000000.0 822370000000.0 832354000000.0 826686000000.0 751273000000.0 645065000000.0 529888000000.0 429763000000.0 261335000000.0 79404200000.0 706123000000.0 409102000000.0 208535000000.0 61322700000.0 905602000000.0 495821000000.0 230702000000.0 60966700000.0 52074200000.0 133649000000.0 192121000000.0 230726000000.0 248767000000.0 245665000000.0 223204000000.0 185528000000.0 137635000000.0 365327000000.0 416364000000.0 458144000000.0 489309000000.0 509135000000.0 517372000000.0 514180000000.0 500976000000.0 484901000000.0 505526000000.0 583735000000.0 685885000000.0 775490000000.0 834463000000.0 844483000000.0 800173000000.0 698515000000.0 535410000000.0 611291000000.0 69462900000.0 1.2495e+12 65018500000.0 12354100000.0 153809000000.0 73564800000.0 217033000000.0 444072000000.0 36982500000.0 44610200000.0 82636100000.0 73265300000.0 98930200000.0 151808000000.0 250500000000.0 137019000000.0 248102000000.0 133782000000.0 292244000000.0 505705000000.0 283289000000.0 259576000000.0 753636000000.0 911921000000.0 758355000000.0 809865000000.0 920393000000.0 893930000000.0 849935000000.0 825157000000.0 811692000000.0 803016000000.0 785377000000.0 738314000000.0 670576000000.0 591001000000.0 511997000000.0 445600000000.0 395070000000.0 349558000000.0 204691000000.0 694482000000.0 430215000000.0 304734000000.0 258183000000.0 83802500000.0 26740600000.0 32258600000.0 92670000000.0 153578000000.0 213744000000.0 271490000000.0 325106000000.0 372911000000.0 413502000000.0 446123000000.0 470692000000.0 487905000000.0 499901000000.0 511186000000.0 530348000000.0 573399000000.0 607954000000.0 656220000000.0 720368000000.0 789128000000.0 827766000000.0 820359000000.0 764278000000.0 666800000000.0 541649000000.0 419409000000.0 642219000000.0 678541000000.0 477959000000.0 121835000000.0 11991600000.0 33412000000.0 27885100000.0 427549000000.0 469001000000.0 175138000000.0 81653500000.0 68459300000.0 59122800000.0 199411000000.0 2528340000.0 581509000000.0 6540350000.0 137884000000.0 808374000000.0 888044000000.0 409045000000.0 372782000000.0 539502000000.0 795838000000.0 805745000000.0 645858000000.0 815989000000.0 896275000000.0 860747000000.0 821598000000.0 794921000000.0 773508000000.0 748439000000.0 711035000000.0 661699000000.0 604430000000.0 545251000000.0 492786000000.0 457864000000.0 447822000000.0 456722000000.0 303037000000.0 656413000000.0 463675000000.0 375803000000.0 402912000000.0 894209000000.0 511585000000.0 271486000000.0 119371000000.0 9780050000.0 69978700000.0 126019000000.0 160599000000.0 174662000000.0 169550000000.0 148017000000.0 113936000000.0 71323700000.0 23442700000.0 27566500000.0 80396600000.0 134120000000.0 187641000000.0 239632000000.0 288536000000.0 332856000000.0 371499000000.0 403937000000.0 430332000000.0 451768000000.0 470966000000.0 493487000000.0 529469000000.0 594464000000.0 685349000000.0 674864000000.0 682730000000.0 744676000000.0 795168000000.0 816351000000.0 802277000000.0 755942000000.0 693826000000.0 644975000000.0 734855000000.0 729870000000.0 355698000000.0 363766000000.0 150600000000.0 133205000000.0 640826000000.0 17334700000.0 154774000000.0 87800000000.0 101236000000.0 39695100000.0 159091000000.0 570790000000.0 3211320000.0 216637000000.0 642192000000.0 865540000000.0 621215000000.0 452393000000.0 559950000000.0 784525000000.0 774386000000.0 754606000000.0 642769000000.0 846804000000.0 854044000000.0 812872000000.0 775779000000.0 744267000000.0 713856000000.0 678575000000.0 636757000000.0 589823000000.0 541006000000.0 496130000000.0 464101000000.0 456907000000.0 490074000000.0 589331000000.0 342888000000.0 809024000000.0 503678000000.0 311348000000.0 175364000000.0 72306500000.0 5166710000.0 59102600000.0 91402600000.0 103966000000.0 99184800000.0 80166800000.0 50396200000.0 13191600000.0 28780700000.0 73619800000.0 119956000000.0 166659000000.0 212572000000.0 256406000000.0 296854000000.0 332898000000.0 364066000000.0 390506000000.0 413069000000.0 433909000000.0 457578000000.0 492607000000.0 553388000000.0 657576000000.0 826209000000.0 712836000000.0 723746000000.0 761158000000.0 792632000000.0 804419000000.0 795789000000.0 775264000000.0 754314000000.0 783470000000.0 770853000000.0 560314000000.0 148282000000.0 629898000000.0 319263000000.0 98864600000.0 233511000000.0 62442600000.0 700388000000.0 355939000000.0 7282170000.0 183497000000.0 13816100000.0 422336000000.0 657161000000.0 936547000000.0 679201000000.0 544721000000.0 752442000000.0 623097000000.0 638906000000.0 778165000000.0 539296000000.0 886298000000.0 824673000000.0 766661000000.0 722758000000.0 684921000000.0 646833000000.0 605376000000.0 560902000000.0 515435000000.0 472181000000.0 436252000000.0 415107000000.0 591169000000.0 424824000000.0 380488000000.0 437264000000.0 648970000000.0 487572000000.0 337118000000.0 216299000000.0 122409000000.0 50798900000.0 358890000.0 29828600000.0 41723600000.0 38075200000.0 21944700000.0 3587030000.0 35685500000.0 72011000000.0 110798000000.0 150695000000.0 190511000000.0 229094000000.0 265359000000.0 298405000000.0 808049000000.0 816007000000.0 794279000000.0 678928000000.0 333542000000.0 706965000000.0 830930000000.0 331646000000.0 20669600000.0 82305800000.0 605376000000.0 422118000000.0 84382900000.0 186113000000.0 139645000000.0 448605000000.0 747360000000.0 418733000000.0 462396000000.0 620869000000.0 290053000000.0 495834000000.0 358615000000.0 306148000000.0 377441000000.0 488214000000.0 430751000000.0 334062000000.0 238445000000.0 156388000000.0 327701000000.0 353189000000.0 375370000000.0 395578000000.0 416481000000.0 442699000000.0 481125000000.0 539096000000.0 626036000000.0 819910000000.0 605119000000.0 688752000000.0 738482000000.0 772444000000.0 790432000000.0 798704000000.0 742113000000.0 587835000000.0 666607000000.0 739428000000.0 419388000000.0 546820000000.0 101851000000.0 12562800000.0 221735000000.0 679745000000.0 336362000000.0 652254000000.0 475794000000.0 475377000000.0 742884000000.0 642396000000.0 509463000000.0 899930000000.0 792174000000.0 719367000000.0 666697000000.0 620593000000.0 574151000000.0 527489000000.0 481435000000.0 437123000000.0 397288000000.0 366631000000.0 353309000000.0 372577000000.0 463805000000.0 625397000000.0 204328000000.0 331878000000.0 233984000000.0 210936000000.0 92514800000.0 47374900000.0 20278000000.0 9297630000.0 11969800000.0 25580900000.0 47375000000.0 74872100000.0 106027000000.0 139185000000.0 173031000000.0 206462000000.0 238489000000.0 268326000000.0 295430000000.0 319563000000.0 340946000000.0 360369000000.0 379327000000.0 400203000000.0 426171000000.0 460428000000.0 507974000000.0 596252000000.0 737689000000.0 481664000000.0 621813000000.0 694392000000.0 741719000000.0 772370000000.0 797921000000.0 832237000000.0 807752000000.0 666302000000.0 354591000000.0 704558000000.0 901240000.0 28091100000.0 443677000000.0 346585000000.0 3675570000.0 250639000000.0 493208000000.0 637416000000.0 352086000000.0 405429000000.0 352094000000.0 337022000000.0 667258000000.0 588746000000.0 546915000000.0 512320000000.0 877470000000.0 748570000000.0 666958000000.0 606069000000.0 549463000000.0 496078000000.0 445918000000.0 399074000000.0 355947000000.0 318735000000.0 293184000000.0 290481000000.0 332434000000.0 434729000000.0 599092000000.0 79921900000.0 185133000000.0 314709000000.0 423360000000.0 396408000000.0 324851000000.0 246853000000.0 176901000000.0 120489000000.0 80998100000.0 57656700000.0 48229800000.0 50532100000.0 62264900000.0 81021200000.0 104616000000.0 131248000000.0 159439000000.0 187985000000.0 215941000000.0 242553000000.0 267265000000.0 289832000000.0 310331000000.0 329218000000.0 347483000000.0 366478000000.0 387687000000.0 412585000000.0 443794000000.0 492307000000.0 565666000000.0 622918000000.0 383644000000.0 555189000000.0 645009000000.0 703624000000.0 740577000000.0 761102000000.0 777293000000.0 726660000000.0 683171000000.0 683168000000.0 478136000000.0 140750000000.0 34112100000.0 211230000000.0 305456000000.0 34729400000.0 176578000000.0 9733440000.0 238209000000.0 445774000000.0 398186000000.0 335492000000.0 373352000000.0 271534000000.0 569525000000.0 482813000000.0 463702000000.0 484034000000.0 529051000000.0 819082000000.0 690084000000.0 608576000000.0 535292000000.0 469510000000.0 412339000000.0 362010000000.0 316327000000.0 275233000000.0 241687000000.0 222787000000.0 231485000000.0 280830000000.0 388648000000.0 552719000000.0 66294700000.0 119939000000.0 328938000000.0 391032000000.0 366101000000.0 304989000000.0 240741000000.0 181523000000.0 134186000000.0 101659000000.0 82698700000.0 75456900000.0 78125000000.0 88726300000.0 105230000000.0 125788000000.0 148808000000.0 172933000000.0 197105000000.0 220608000000.0 242959000000.0 263838000000.0 283232000000.0 301586000000.0 319649000000.0 338334000000.0 358622000000.0 381215000000.0 407176000000.0 440452000000.0 483556000000.0 526116000000.0 503979000000.0 317060000000.0 501034000000.0 599273000000.0 661434000000.0 696065000000.0 710196000000.0 694495000000.0 641741000000.0 628571000000.0 595937000000.0 309887000000.0 2983850000.0 39170500000.0 435604000000.0 6949050000.0 863782000.0 184917000000.0 278096000000.0 169411000000.0 231423000000.0 91146300000.0 456874000000.0 394047000000.0 363872000000.0 379693000000.0 441631000000.0 549168000000.0 734249000000.0 623044000000.0 526011000000.0 444215000000.0 379374000000.0 72550900000.0 11037200000.0 66961800000.0 262313000000.0 333787000000.0 342963000000.0 315221000000.0 269220000000.0 218138000000.0 172361000000.0 136067000000.0 110848000000.0 96592400000.0 92105600000.0 95891900000.0 106298000000.0 121630000000.0 140200000000.0 160442000000.0 613769000000.0 640340000000.0 640270000000.0 606524000000.0 564772000000.0 520379000000.0 293169000000.0 361839000000.0 214008000000.0 21867700000.0 60290500000.0 184870000000.0 9672730000.0 110543000000.0 326628000000.0 280512000000.0 238455000000.0 201203000000.0 172782000000.0 161134000000.0 175438000000.0 227057000000.0 333786000000.0 483341000000.0 105855000000.0 81223200000.0 191337000000.0 246308000000.0 181243000000.0 201908000000.0 221902000000.0 240913000000.0 259048000000.0 276633000000.0 294210000000.0 312769000000.0 333323000000.0 356420000000.0 382490000000.0 412340000000.0 443958000000.0 470682000000.0 478087000000.0 398874000000.0 278428000000.0 461801000000.0 558258000000.0 521984000000.0 441909000000.0 286256000000.0 269880000000.0 152534000000.0 54542900000.0 177545000000.0 10640600000.0 154208000000.0 192457000000.0 193893000000.0 74420900000.0 294947000000.0 355464000000.0 309057000000.0 279986000000.0 301893000000.0 381817000000.0 499731000000.0 575200000000.0 491737000000.0 406449000000.0 341165000000.0 290916000000.0 247984000000.0 208357000000.0 171265000000.0 139028000000.0 116730000000.0 110909000000.0 128976000000.0 179604000000.0 278787000000.0 399734000000.0 175886000000.0 262086000000.0 249370000000.0 221663000000.0 186923000000.0 153633000000.0 127350000000.0 109870000000.0 101060000000.0 100183000000.0 106200000000.0 117643000000.0 132657000000.0 149615000000.0 167521000000.0 185651000000.0 203388000000.0 220473000000.0 236971000000.0 253292000000.0 270113000000.0 288185000000.0 308541000000.0 332207000000.0 359674000000.0 390623000000.0 422402000000.0 446114000000.0 450945000000.0 427518000000.0 315271000000.0 262100000000.0 432459000000.0 513381000000.0 554817000000.0 569799000000.0 559864000000.0 197863000000.0 184373000000.0 69181500000.0 78040500000.0 3033240000.0 1662820000.0 47941100000.0 187837000000.0 33974700000.0 191629000000.0 101312000000.0 217314000000.0 378477000000.0 347450000000.0 250342000000.0 188105000000.0 221180000000.0 337947000000.0 412429000000.0 408210000000.0 339717000000.0 287659000000.0 251755000000.0 218422000000.0 184816000000.0 151098000000.0 119152000000.0 92866100000.0 77162900000.0 77102200000.0 96508400000.0 135459000000.0 185316000000.0 156977000000.0 595285000000.0 411110000000.0 114647000000.0 52010000000.0 140438000000.0 179912000000.0 185122000000.0 170573000000.0 149003000000.0 127954000000.0 111700000000.0 101966000000.0 99250900000.0 103231000000.0 112412000000.0 124814000000.0 139223000000.0 154872000000.0 170839000000.0 186572000000.0 201835000000.0 216615000000.0 231240000000.0 246379000000.0 263208000000.0 282757000000.0 305818000000.0 333153000000.0 365615000000.0 401955000000.0 434852000000.0 447740000000.0 427670000000.0 385526000000.0 261866000000.0 257154000000.0 399605000000.0 457378000000.0 483307000000.0 489052000000.0 480966000000.0 419321000000.0 290701000000.0 74556400000.0 110248000000.0 10666500000.0 122206000000.0 6857310000.0 11186500000.0 50926000000.0 211848000000.0 354295000000.0 382186000000.0 332926000000.0 148990000000.0 66786100000.0 126336000000.0 238537000000.0 270714000000.0 234632000000.0 212493000000.0 205745000000.0 190998000000.0 167739000000.0 139510000000.0 110168000000.0 83639400000.0 64655500000.0 57903800000.0 67636500000.0 548025000000.0 327288000000.0 132016000000.0 2409540000.0 76160800000.0 114303000000.0 125684000000.0 121175000000.0 110207000000.0 99406900000.0 92533500000.0 91327700000.0 95697500000.0 103960000000.0 114744000000.0 127698000000.0 141829000000.0 156202000000.0 170503000000.0 184360000000.0 197538000000.0 210309000000.0 223533000000.0 238133000000.0 255179000000.0 276211000000.0 302349000000.0 334251000000.0 371382000000.0 411747000000.0 447372000000.0 454207000000.0 422036000000.0 384700000000.0 219620000000.0 253340000000.0 356566000000.0 389048000000.0 394430000000.0 381377000000.0 335677000000.0 247996000000.0 133620000000.0 156564000000.0 28008500000.0 483013000.0 141737000000.0 297620000000.0 299723000000.0 344767000000.0 354707000000.0 45925400000.0 42198600000.0 60310300000.0 28437300000.0 99907300000.0 95414000000.0 138859000000.0 184631000000.0 65746600000.0 261992000000.0 120409000000.0 29876400000.0 30588400000.0 62931700000.0 312880000000.0 299790000000.0 271453000000.0 229564000000.0 107913000000.0 134364000000.0 76832700000.0 75205900000.0 9035750000.0 157475000000.0 13804300000.0 24296200000.0 129233000000.0 168127000000.0 173349000000.0 159634000000.0 136337000000.0 109342000000.0 83371100000.0 62937900000.0 52616900000.0 56592400000.0 77025200000.0 112061000000.0 150585000000.0 136773000000.0 9383690000.0 492238000000.0 74665100000.0 75233400000.0 72634800000.0 71809000000.0 74924800000.0 81551000000.0 90281900000.0 101160000000.0 113926000000.0 127245000000.0 140851000000.0 154383000000.0 167249000000.0 179206000000.0 190493000000.0 201783000000.0 213926000000.0 227877000000.0 244789000000.0 267135000000.0 296084000000.0 330611000000.0 368217000000.0 403236000000.0 423649000000.0 409162000000.0 385416000000.0 338154000000.0 179464000000.0 246360000000.0 307712000000.0 28621100000.0 128593000000.0 59481300000.0 43784800000.0 36334700000.0 20838200000.0 2708240000.0 27948700000.0 71443800000.0 42151000000.0 144136000000.0 150153000000.0 227181000000.0 241040000000.0 237250000000.0 273497000000.0 286340000000.0 351273000000.0 428100000000.0 186836000000.0 201140000000.0 191007000000.0 170649000000.0 144682000000.0 116337000000.0 89057700000.0 66314300000.0 52291600000.0 50677000000.0 63681000000.0 89332600000.0 117852000000.0 120035000000.0 64252400000.0 71582000000.0 435693000000.0 213985000000.0 107277000000.0 44229300000.0 2720400000.0 18687400000.0 28038000000.0 33458000000.0 40107800000.0 49342800000.0 59762700000.0 70974300000.0 83891600000.0 97309800000.0 110775000000.0 124298000000.0 137332000000.0 149557000000.0 160857000000.0 171326000000.0 181369000000.0 191216000000.0 201966000000.0 214852000000.0 231705000000.0 254938000000.0 285480000000.0 319261000000.0 350138000000.0 370604000000.0 361345000000.0 355129000000.0 349629000000.0 290945000000.0 136452000000.0 230757000000.0 252767000000.0 236215000000.0 220442000000.0 196958000000.0 123865000000.0 33491300000.0 42392800000.0 31042500000.0 68492100000.0 109998000000.0 145080000000.0 183577000000.0 218130000000.0 218476000000.0 141388000000.0 66791800000.0 167154000000.0 342168000000.0 313842000000.0 245201000000.0 198855000000.0 161548000000.0 128200000000.0 97940800000.0 72317900000.0 53500500000.0 45089500000.0 49826500000.0 66442300000.0 87377000000.0 94551400000.0 66768800000.0 4610020000.0 119177000000.0 379467000000.0 183218000000.0 98222300000.0 58421300000.0 36139500000.0 24588100000.0 13994400000.0 57448400.0 15867200000.0 31242800000.0 46915800000.0 62685300000.0 77408700000.0 91674900000.0 105214000000.0 118061000000.0 130273000000.0 141571000000.0 151970000000.0 161537000000.0 170111000000.0 178081000000.0 187321000000.0 200049000000.0 217339000000.0 239338000000.0 266298000000.0 293577000000.0 317411000000.0 319622000000.0 302138000000.0 305447000000.0 290310000000.0 231099000000.0 101408000000.0 208289000000.0 201837000000.0 161403000000.0 147709000000.0 13886600000.0 84325000000.0 4389940000.0 18160900000.0 8741910000.0 77092300000.0 162213000000.0 172656000000.0 151728000000.0 160226000000.0 210117000000.0 160623000000.0 95017400000.0 98364000000.0 208158000000.0 288853000000.0 167227000000.0 100032000000.0 82273700000.0 74841700000.0 63410600000.0 44195400000.0 22782200000.0 249886000000.0 254972000000.0 231347000000.0 173922000000.0 71128200000.0 182852000000.0 161013000000.0 105537000000.0 7700490000.0 2418020000.0 9765140000.0 19280000000.0 27785800000.0 2898750000.0 5063370000.0 2965930000.0 16567100000.0 8074630000.0 123999000000.0 153345000000.0 10095300000.0 257786000000.0 215420000000.0 173884000000.0 138390000000.0 106236000000.0 77419800000.0 54119400000.0 38815100000.0 34727200000.0 42682900000.0 57065100000.0 65050400000.0 52094200000.0 6746470000.0 66419200000.0 155349000000.0 329723000000.0 2445030000.0 18001500000.0 36764400000.0 53632900000.0 68788900000.0 82776800000.0 95846300000.0 108344000000.0 119783000000.0 130383000000.0 140273000000.0 148888000000.0 155957000000.0 163309000000.0 172696000000.0 184773000000.0 197603000000.0 213493000000.0 238759000000.0 265351000000.0 281578000000.0 252438000000.0 22927700000.0 47452200000.0 59160000000.0 53294200000.0 18499500000.0 5307590000.0 90983400000.0 136652000000.0 130940000000.0 131034000000.0 131574000000.0 119607000000.0 150517000000.0 182697000000.0 236269000000.0 214603000000.0 177602000000.0 139942000000.0 107004000000.0 78023300000.0 52481400000.0 31768100000.0 18745300000.0 17432800000.0 26111500000.0 33960800000.0 28207100000.0 1555010000.0 54707500000.0 120922000000.0 186552000000.0 298928000000.0 167914000000.0 118612000000.0 116948000000.0 108314000000.0 88532500000.0 65638600000.0 40007300000.0 15421500000.0 7187080000.0 26032900000.0 42546900000.0 57095200000.0 70204200000.0 82498600000.0 93977900000.0 104869000000.0 115492000000.0 125599000000.0 133938000000.0 140631000000.0 146920000000.0 154710000000.0 165199000000.0 174320000000.0 186970000000.0 215362000000.0 241910000000.0 209794000000.0 195406000000.0 199255000000.0 205002000000.0 179548000000.0 111802000000.0 34625600000.0 132245000000.0 76039100000.0 21497100000.0 6975610000.0 38554800000.0 43751200000.0 127512000000.0 140786000000.0 127463000000.0 108784000000.0 108067000000.0 96330400000.0 82937200000.0 423500000.0 7617270000.0 127436000000.0 151209000000.0 185520000000.0 161883000000.0 131400000000.0 99753300000.0 70254900000.0 43625600000.0 21470400000.0 4225340000.0 7531760000.0 5631220000.0 2685310000.0 1025300000.0 16490300000.0 49004300000.0 114038000000.0 164743000000.0 229328000000.0 290395000000.0 186940000000.0 148937000000.0 149518000000.0 134489000000.0 107951000000.0 78390700000.0 50748700000.0 24201800000.0 4253560000.0 12904000000.0 27235400000.0 40083700000.0 51812400000.0 63492600000.0 74631700000.0 85788000000.0 97263400000.0 108018000000.0 116314000000.0 121658000000.0 127864000000.0 138428000000.0 153925000000.0 163810000000.0 167409000000.0 198795000000.0 175380000000.0 137922000000.0 143900000000.0 149997000000.0 154683000000.0 130346000000.0 48515000000.0 39509600000.0 18953000000.0 42556700000.0 87876800000.0 75594800000.0 48759600000.0 43993000000.0 24429700000.0 54056800000.0 12434300000.0 5988740000.0 36262700000.0 18440600000.0 49792400000.0 76741200000.0 82475900000.0 9666860000.0 8878920000.0 14819400000.0 124291000000.0 150435000000.0 171516000000.0 144524000000.0 204713000000.0 185835000000.0 167906000000.0 138084000000.0 111247000000.0 85755200000.0 54400700000.0 34295500000.0 19218900000.0 83737900000.0 92263200000.0 102712000000.0 113455000000.0 121773000000.0 76235500000.0 47165200000.0 8845580000.0 4970060000.0 20279900000.0 25920800000.0 39557400000.0 9035750000.0 9035750000.0 80315800000.0 73383900000.0 91512900000.0 85462900000.0 110954000000.0 75410900000.0 44515800000.0 16315400000.0 1995750000.0 16148500000.0 28086800000.0 23723100000.0 22406800000.0 34699600000.0 65527900000.0 114377000000.0 182094000000.0 229016000000.0 280412000000.0 280352000000.0 6399910000.0 5248100000.0 16502500000.0 27426400000.0 38253200000.0 49470200000.0 60597200000.0 73491600000.0 86482500000.0 96719800000.0 103451000000.0 110481000000.0 123072000000.0 132428000000.0 133700000000.0 140463000000.0 142035000000.0 23195200000.0 34708400000.0 9035750000.0 9038090000.0 60350900000.0 74045400000.0 62131000000.0 25504200000.0 2533090000.0 6141990000.0 20370100000.0 27548500000.0 34971300000.0 13919100000.0 18665700000.0 112670000000.0 134415000000.0 151368000000.0 140506000000.0 125730000000.0 108633000000.0 93406600000.0 74158300000.0 59122900000.0 46163800000.0 38626900000.0 45120200000.0 17473400000.0 36662400000.0 83271900000.0 122322000000.0 152260000000.0 157503000000.0 171575000000.0 157557000000.0 187972000000.0 156410000000.0 145625000000.0 103664000000.0 102300000000.0 60212000000.0 44777200000.0 29710300000.0 16980900000.0 6009910000.0 4448340000.0 15240700000.0 26201100000.0 37759100000.0 50036300000.0 62433200000.0 80460600000.0 97489100000.0 110720000000.0 121218000000.0 128992000000.0 135999000000.0 132363000000.0 142519000000.0 118983000000.0 47745800000.0 33087700000.0 9468420000.0 19406800000.0 46178700000.0 75453900000.0 151695000000.0 155812000000.0 131376000000.0 99026100000.0 101231000000.0 76995800000.0 43606000000.0 27011700000.0 5928900000.0 15566500000.0 812890000.0 5626650000.0 1129860000.0 36040800000.0 58229000000.0 62120900000.0 88441200000.0 106164000000.0 50249400000.0 31707400000.0 6479030000.0 7497090000.0 10834800000.0 4917730000.0 15690400000.0 6575280000.0 24225300000.0 39095200000.0 54710600000.0 70113900000.0 86787300000.0 102951000000.0 118235000000.0 131880000000.0 143842000000.0 150453000000.0 153645000000.0 60865400000.0 70246000000.0 81131100000.0 93925000000.0 99132900000.0 27862300000.0 11695700000.0 23409100000.0 24876500000.0 27097500000.0 9035750000.0 9035750000.0 74656200000.0 66340700000.0 44546600000.0 32336300000.0 4731410000.0 36836000000.0 712474000.0 6146820000.0 8149490000.0 9402250000.0 4323220000.0 3184070000.0 15539800000.0 28224700000.0 21758900000.0 5974210000.0 22204100000.0 22697300000.0 25298700000.0 10325600000.0 3357680000.0 11388500000.0 42672200000.0 158880000000.0 156921000000.0 149052000000.0 137641000000.0 128835000000.0 130058000000.0 123997000000.0 133255000000.0 104227000000.0 49311700000.0 16546900000.0 26185500000.0 33453900000.0 9113090000.0 9035780000.0 9035750000.0 39014200000.0 55698700000.0 62907600000.0 51037600000.0 40847600000.0 41625100000.0 25579900000.0 11026500000.0 9035760000.0 9125090000.0 11250200000.0 65759600000.0 79089000000.0 89083900000.0 77951700000.0 69395200000.0 59642700000.0 51073900000.0 38523800000.0 25770200000.0 15775300000.0 13428600000.0 23111700000.0 31404700000.0 29907600000.0 22783400000.0 13605700000.0 1017660000.0 252224000.0 135446000.0 36729000000.0 2298970000.0 23177900000.0 20641600000.0 48862300000.0 41019000000.0 72622200000.0 81892300000.0 90065600000.0 97243300000.0 103028000000.0 107236000000.0 110349000000.0 111592000000.0 111577000000.0 109998000000.0 107182000000.0 106176000000.0 102757000000.0 95422900000.0 87203200000.0 81759700000.0 84173700000.0 84185300000.0 89488800000.0 57602900000.0 41057500000.0 49946200000.0 56213400000.0 61698900000.0 69237300000.0 71259900000.0 14875800000.0 9091030000.0 24505100000.0 27276800000.0 9263150000.0 11745600000.0 20289800000.0 21553300000.0 21716100000.0 9035160000.0 9035750000.0 9035740000.0 9035750000.0 27084400000.0 37205200000.0 9035750000.0 9119110000.0 10512700000.0 42874800000.0 9002740000.0 18292100000.0 13238100000.0 32810800000.0 26761700000.0 45563400000.0 50566200000.0 55950500000.0 60521000000.0 64206100000.0 66983000000.0 69425800000.0 41879200000.0 46847600000.0 47876600000.0 16128700000.0 16903000000.0 16516600000.0 9035750000.0 9035750000.0 42029000000.0 35389200000.0 29412900000.0 29240900000.0 15822000000.0 10232100000.0 51154500000.0 58599900000.0 51011900000.0 46019600000.0 40383500000.0 35416700000.0 28592700000.0 22850300000.0 16716900000.0 12951000000.0 17054500000.0 23360200000.0 25022100000.0 23236800000.0 19685300000.0 10858000000.0 10322200000.0 8541700000.0 31585200000.0 71177000000.0 72504400000.0 72950700000.0 72726200000.0 73210200000.0 71726900000.0 67056500000.0 61023200000.0 56184400000.0 56092600000.0 55827700000.0 58324300000.0 30790300000.0 30982200000.0 34094700000.0 38000400000.0 13756400000.0 9073420000.0 19317200000.0 20200800000.0 9325030000.0 10967600000.0 9035700000.0 9035750000.0 14704000000.0 17891900000.0 19419500000.0 17323800000.0 15441900000.0 15354300000.0 10416300000.0 9424670000.0 9035740000.0 9069300000.0 9512240000.0 19809500000.0 22536900000.0 24918400000.0 22227500000.0 20671100000.0 18960200000.0 17418100000.0 15231900000.0 13471500000.0 11561200000.0 10394400000.0 11694100000.0 13693000000.0 14134400000.0 13539400000.0 12428200000.0 9628720000.0 9526200000.0 9034740000.0 16150400000.0 9035800000.0 11096700000.0 9486770000.0 16525900000.0 14705300000.0 20618000000.0 22010600000.0 23881100000.0 25279500000.0 26426200000.0 27252400000.0 27985200000.0 28514300000.0 28886500000.0 28996400000.0 28943400000.0 29064300000.0 28593700000.0 27116900000.0 25180500000.0 23590900000.0 23512200000.0 23387200000.0 24769200000.0 14598800000.0 16054900000.0 16886700000.0 18134200000.0 19362600000.0 20903900000.0 21182200000.0 10562800000.0 9035750000.0 12369300000.0 12575000000.0 9147020000.0 9679570000.0 11308900000.0 11541300000.0 11371900000.0 9035750000.0 9035750000.0 