# vtk DataFile Version 2.0
Time step 57
ASCII
DATASET UNSTRUCTURED_GRID
POINTS 4650 float
199953.0 377370.0 0
203688.0 378407.0 0
296312.0 378407.0 0
300047.0 377370.0 0
193000.0 381697.0 0
196391.0 379582.0 0
199743.0 381158.0 0
206865.0 380732.0 0
209735.0 378016.0 0
216347.0 379563.0 0
220251.0 380228.0 0
224197.0 379817.0 0
231573.0 380067.0 0
268427.0 380067.0 0
275803.0 379817.0 0
279749.0 380228.0 0
283653.0 379563.0 0
290265.0 378016.0 0
293135.0 380732.0 0
300257.0 381158.0 0
303609.0 379582.0 0
307000.0 381697.0 0
189638.0 383797.0 0
196267.0 383274.0 0
203281.0 382416.0 0
212608.0 380768.0 0
227849.0 381435.0 0
234892.0 382287.0 0
238555.0 380845.0 0
242307.0 382096.0 0
246146.0 381117.0 0
250000.0 382044.0 0
253854.0 381117.0 0
257693.0 382096.0 0
261445.0 380845.0 0
265108.0 382287.0 0
272151.0 381435.0 0
287392.0 380768.0 0
296719.0 382416.0 0
303733.0 383274.0 0
310362.0 383797.0 0
186301.0 385881.0 0
192895.0 385372.0 0
199507.0 384921.0 0
202847.0 386422.0 0
206381.0 384659.0 0
210103.0 383728.0 0
213994.0 384521.0 0
217766.0 383327.0 0
221158.0 385430.0 0
224676.0 383769.0 0
231393.0 384055.0 0
238369.0 384986.0 0
242210.0 386078.0 0
246099.0 385173.0 0
250000.0 386031.0 0
253901.0 385173.0 0
257790.0 386078.0 0
261631.0 384986.0 0
268607.0 384055.0 0
275324.0 383769.0 0
278842.0 385430.0 0
282234.0 383327.0 0
286006.0 384521.0 0
289897.0 383728.0 0
293619.0 384659.0 0
297153.0 386422.0 0
300493.0 384921.0 0
307105.0 385372.0 0
313699.0 385881.0 0
182987.0 387951.0 0
186224.0 389529.0 0
189549.0 387458.0 0
192777.0 389095.0 0
196129.0 387011.0 0
199350.0 388700.0 0
205955.0 388489.0 0
211349.0 387423.0 0
217766.0 387303.0 0
224594.0 387759.0 0
227995.0 385932.0 0
234630.0 386377.0 0
265370.0 386377.0 0
272005.0 385932.0 0
275406.0 387759.0 0
282234.0 387303.0 0
288651.0 387423.0 0
294045.0 388489.0 0
300650.0 388700.0 0
303871.0 387011.0 0
307223.0 389095.0 0
310451.0 387458.0 0
313776.0 389529.0 0
317013.0 387951.0 0
176414.0 392057.0 0
179692.0 390009.0 0
182919.0 391585.0 0
189442.0 391164.0 0
195990.0 390787.0 0
202555.0 390410.0 0
209057.0 390501.0 0
214654.0 389535.0 0
221150.0 389416.0 0
227287.0 390681.0 0
230814.0 388709.0 0
234436.0 390368.0 0
238215.0 389081.0 0
242088.0 390061.0 0
246047.0 389248.0 0
250000.0 390020.0 0
253953.0 389248.0 0
257912.0 390061.0 0
261785.0 389081.0 0
265564.0 390368.0 0
269186.0 388709.0 0
272713.0 390681.0 0
278850.0 389416.0 0
285346.0 389535.0 0
290943.0 390501.0 0
297445.0 390410.0 0
304010.0 390787.0 0
310558.0 391164.0 0
317081.0 391585.0 0
320308.0 390009.0 0
323586.0 392057.0 0
173148.0 394096.0 0
179632.0 393628.0 0
186127.0 393220.0 0
192642.0 392853.0 0
199193.0 392529.0 0
202358.0 394360.0 0
205700.0 392413.0 0
212217.0 392467.0 0
218042.0 391587.0 0
223674.0 392533.0 0
230748.0 392673.0 0
238135.0 393073.0 0
246006.0 393239.0 0
253994.0 393239.0 0
261865.0 393073.0 0
269252.0 392673.0 0
276326.0 392533.0 0
281958.0 391587.0 0
287783.0 392467.0 0
294300.0 392413.0 0
297642.0 394360.0 0
300807.0 392529.0 0
307358.0 392853.0 0
313873.0 393220.0 0
320368.0 393628.0 0
326852.0 394096.0 0
169889.0 396131.0 0
176358.0 395657.0 0
179550.0 397287.0 0
182831.0 395262.0 0
186012.0 396953.0 0
189317.0 394910.0 0
192490.0 396649.0 0
195827.0 394593.0 0
198989.0 396390.0 0
205562.0 396326.0 0
208903.0 394428.0 0
212191.0 396381.0 0
215475.0 394353.0 0
220408.0 394812.0 0
227309.0 394663.0 0
234356.0 394365.0 0
242013.0 394050.0 0
250000.0 394012.0 0
257987.0 394050.0 0
265644.0 394365.0 0
272691.0 394663.0 0
279592.0 394812.0 0
284525.0 394353.0 0
287809.0 396381.0 0
291097.0 394428.0 0
294438.0 396326.0 0
301011.0 396390.0 0
304173.0 394593.0 0
307510.0 396649.0 0
310683.0 394910.0 0
313988.0 396953.0 0
317169.0 395262.0 0
320450.0 397287.0 0
323642.0 395657.0 0
330111.0 396131.0 0
166630.0 398166.0 0
169824.0 399682.0 0
173091.0 397674.0 0
176278.0 399294.0 0
182724.0 398978.0 0
189177.0 398694.0 0
195645.0 398437.0 0
202145.0 398246.0 0
208863.0 398348.0 0
217513.0 397515.0 0
220928.0 399249.0 0
223928.0 396708.0 0
227476.0 398646.0 0
230898.0 396638.0 0
234492.0 398360.0 0
238266.0 397058.0 0
242140.0 398044.0 0
246054.0 397223.0 0
250000.0 398008.0 0
253946.0 397223.0 0
257860.0 398044.0 0
261734.0 397058.0 0
265508.0 398360.0 0
269102.0 396638.0 0
272524.0 398646.0 0
276072.0 396708.0 0
279072.0 399249.0 0
282487.0 397515.0 0
291137.0 398348.0 0
297855.0 398246.0 0
304355.0 398437.0 0
310823.0 398694.0 0
317276.0 398978.0 0
323722.0 399294.0 0
326909.0 397674.0 0
330176.0 399682.0 0
333370.0 398166.0 0
160107.0 402242.0 0
163367.0 400204.0 0
166552.0 401692.0 0
173009.0 401282.0 0
179447.0 400984.0 0
185881.0 400723.0 0
192327.0 400482.0 0
198792.0 400268.0 0
201941.0 402135.0 0
205316.0 400151.0 0
208409.0 402130.0 0
214209.0 399597.0 0
217627.0 401427.0 0
224355.0 401055.0 0
231047.0 400613.0 0
238351.0 401037.0 0
246095.0 401198.0 0
253905.0 401198.0 0
261649.0 401037.0 0
268953.0 400613.0 0
275645.0 401055.0 0
282373.0 401427.0 0
285791.0 399597.0 0
291591.0 402130.0 0
294684.0 400151.0 0
298059.0 402135.0 0
301208.0 400268.0 0
307673.0 400482.0 0
314119.0 400723.0 0
320553.0 400984.0 0
326991.0 401282.0 0
333448.0 401692.0 0
336633.0 400204.0 0
339893.0 402242.0 0
156874.0 404265.0 0
163279.0 403723.0 0
166464.0 405238.0 0
169738.0 403258.0 0
172908.0 404922.0 0
176175.0 402965.0 0
179319.0 404716.0 0
182597.0 402732.0 0
185734.0 404528.0 0
189026.0 402515.0 0
192165.0 404345.0 0
195470.0 402309.0 0
198616.0 404167.0 0
205084.0 404047.0 0
211986.0 402694.0 0
215248.0 404496.0 0
221051.0 403219.0 0
227808.0 402878.0 0
234603.0 402392.0 0
242202.0 402083.0 0
250000.0 402036.0 0
257798.0 402083.0 0
265397.0 402392.0 0
272192.0 402878.0 0
278949.0 403219.0 0
284752.0 404496.0 0
288014.0 402694.0 0
294916.0 404047.0 0
301384.0 404167.0 0
304530.0 402309.0 0
307835.0 404345.0 0
310974.0 402515.0 0
314266.0 404528.0 0
317403.0 402732.0 0
320681.0 404716.0 0
323825.0 402965.0 0
327092.0 404922.0 0
330262.0 403258.0 0
333536.0 405238.0 0
336721.0 403723.0 0
343126.0 404265.0 0
153686.0 406261.0 0
156863.0 407862.0 0
160036.0 405794.0 0
163210.0 407275.0 0
169641.0 406858.0 0
176046.0 406671.0 0
182445.0 406518.0 0
188867.0 406364.0 0
195308.0 406204.0 0
201773.0 406046.0 0
208326.0 405925.0 0
211958.0 406619.0 0
218565.0 406263.0 0
224490.0 405042.0 0
227968.0 406858.0 0
231317.0 404674.0 0
234794.0 406576.0 0
238438.0 405013.0 0
242251.0 406151.0 0
246115.0 405166.0 0
250000.0 406076.0 0
253885.0 405166.0 0
257749.0 406151.0 0
261562.0 405013.0 0
265206.0 406576.0 0
268683.0 404674.0 0
272032.0 406858.0 0
275510.0 405042.0 0
281435.0 406263.0 0
288042.0 406619.0 0
291674.0 405925.0 0
298227.0 406046.0 0
304692.0 406204.0 0
311133.0 406364.0 0
317555.0 406518.0 0
323954.0 406671.0 0
330359.0 406858.0 0
336790.0 407275.0 0
339964.0 405794.0 0
343137.0 407862.0 0
346314.0 406261.0 0
147400.0 410194.0 0
150539.0 408232.0 0
153761.0 409892.0 0
160035.0 409417.0 0
166385.0 408809.0 0
172780.0 408595.0 0
175872.0 410416.0 0
179156.0 408481.0 0
182260.0 410330.0 0
185567.0 408360.0 0
192004.0 408230.0 0
198467.0 408080.0 0
201670.0 409943.0 0
204993.0 407916.0 0
208287.0 409734.0 0
215262.0 408438.0 0
221916.0 408040.0 0
231438.0 408712.0 0
238537.0 408994.0 0
246138.0 409129.0 0
253862.0 409129.0 0
261463.0 408994.0 0
268562.0 408712.0 0
278084.0 408040.0 0
284738.0 408438.0 0
291713.0 409734.0 0
295007.0 407916.0 0
298330.0 409943.0 0
301533.0 408080.0 0
307996.0 408230.0 0
314433.0 408360.0 0
317740.0 410330.0 0
320844.0 408481.0 0
324128.0 410416.0 0
327220.0 408595.0 0
333615.0 408809.0 0
339965.0 409417.0 0
346239.0 409892.0 0
349461.0 408232.0 0
352600.0 410194.0 0
144224.0 412176.0 0
150674.0 411864.0 0
156988.0 411543.0 0
160167.0 413163.0 0
163185.0 410874.0 0
166318.0 412413.0 0
169528.0 410492.0 0
172595.0 412313.0 0
178946.0 412276.0 0
185375.0 412210.0 0
188696.0 410234.0 0
191841.0 412130.0 0
195159.0 410111.0 0
198350.0 411993.0 0
204937.0 411776.0 0
211937.0 410557.0 0
218601.0 410225.0 0
221975.0 412007.0 0
225306.0 409815.0 0
228714.0 411617.0 0
234918.0 410617.0 0
242312.0 410259.0 0
250000.0 410154.0 0
257688.0 410259.0 0
265082.0 410617.0 0
271286.0 411617.0 0
274694.0 409815.0 0
278025.0 412007.0 0
281399.0 410225.0 0
288063.0 410557.0 0
295063.0 411776.0 0
301650.0 411993.0 0
304841.0 410111.0 0
308159.0 412130.0 0
311304.0 410234.0 0
314625.0 412210.0 0
321054.0 412276.0 0
327405.0 412313.0 0
330472.0 410492.0 0
333682.0 412413.0 0
336815.0 410874.0 0
339833.0 413163.0 0
343012.0 411543.0 0
349326.0 411864.0 0
355776.0 412176.0 0
137708.0 416247.0 0
140987.0 414198.0 0
144287.0 415710.0 0
147521.0 413784.0 0
153992.0 413570.0 0
163255.0 414540.0 0
169339.0 414179.0 0
175624.0 414194.0 0
182035.0 414157.0 0
188507.0 414117.0 0
195021.0 414018.0 0
201596.0 413830.0 0
208267.0 413550.0 0
211917.0 414510.0 0
215264.0 412383.0 0
218628.0 414177.0 0
225374.0 413798.0 0
232134.0 413448.0 0
238825.0 412971.0 0
242490.0 414532.0 0
246207.0 413084.0 0
250000.0 414330.0 0
253793.0 413084.0 0
257510.0 414532.0 0
261175.0 412971.0 0
267866.0 413448.0 0
274626.0 413798.0 0
281372.0 414177.0 0
284736.0 412383.0 0
288083.0 414510.0 0
291733.0 413550.0 0
298404.0 413830.0 0
304979.0 414018.0 0
311493.0 414117.0 0
317965.0 414157.0 0
324376.0 414194.0 0
330661.0 414179.0 0
336745.0 414540.0 0
346008.0 413570.0 0
352479.0 413784.0 0
355713.0 415710.0 0
359013.0 414198.0 0
362292.0 416247.0 0
134399.0 418318.0 0
141000.0 417736.0 0
147651.0 417340.0 0
150863.0 415484.0 0
154248.0 417211.0 0
157368.0 415324.0 0
160839.0 417092.0 0
166129.0 416093.0 0
168934.0 417895.0 0
172295.0 416070.0 0
175281.0 417984.0 0
178673.0 416083.0 0
181766.0 417986.0 0
185151.0 416071.0 0
188292.0 418008.0 0
191668.0 416037.0 0
198253.0 415909.0 0
201553.0 417703.0 0
204906.0 415641.0 0
208272.0 417360.0 0
215269.0 416327.0 0
222022.0 415968.0 0
228790.0 415606.0 0
232237.0 417433.0 0
235588.0 415264.0 0
239095.0 417079.0 0
246268.0 417034.0 0
253732.0 417034.0 0
260905.0 417079.0 0
264412.0 415264.0 0
267763.0 417433.0 0
271210.0 415606.0 0
277978.0 415968.0 0
284731.0 416327.0 0
291728.0 417360.0 0
295094.0 415641.0 0
298447.0 417703.0 0
301747.0 415909.0 0
308332.0 416037.0 0
311708.0 418008.0 0
314849.0 416071.0 0
318234.0 417986.0 0
321327.0 416083.0 0
324719.0 417984.0 0
327705.0 416070.0 0
331066.0 417895.0 0
333871.0 416093.0 0
339161.0 417092.0 0
342632.0 415324.0 0
345752.0 417211.0 0
349137.0 415484.0 0
352349.0 417340.0 0
359000.0 417736.0 0
365601.0 418318.0 0
131090.0 420392.0 0
137692.0 419793.0 0
144362.0 419194.0 0
151038.0 419087.0 0
157698.0 418996.0 0
164526.0 419249.0 0
171828.0 419806.0 0
178339.0 419883.0 0
184891.0 419938.0 0
191462.0 419952.0 0
194884.0 417910.0 0
198176.0 419834.0 0
204929.0 419530.0 0
211909.0 418478.0 0
218661.0 418125.0 0
222070.0 419926.0 0
225434.0 417774.0 0
228869.0 419580.0 0
235725.0 419231.0 0
242685.0 418768.0 0
250000.0 418431.0 0
257315.0 418768.0 0
264275.0 419231.0 0
271131.0 419580.0 0
274566.0 417774.0 0
277930.0 419926.0 0
281339.0 418125.0 0
288091.0 418478.0 0
295071.0 419530.0 0
301824.0 419834.0 0
305116.0 417910.0 0
308538.0 419952.0 0
315109.0 419938.0 0
321661.0 419883.0 0
328172.0 419806.0 0
335474.0 419249.0 0
342302.0 418996.0 0
348962.0 419087.0 0
355638.0 419194.0 0
362308.0 419793.0 0
368910.0 420392.0 0
127803.0 422452.0 0
131143.0 424090.0 0
134394.0 421927.0 0
137763.0 423340.0 0
141046.0 421272.0 0
144459.0 422599.0 0
147785.0 420872.0 0
151176.0 422723.0 0
154442.0 420802.0 0
157840.0 422663.0 0
161149.0 420867.0 0
164493.0 422973.0 0
167919.0 421342.0 0
171230.0 423426.0 0
174850.0 421748.0 0
177978.0 423654.0 0
181468.0 421803.0 0
188027.0 421906.0 0
194729.0 421737.0 0
201571.0 421523.0 0
208345.0 421158.0 0
211924.0 422467.0 0
215295.0 420263.0 0
218706.0 422073.0 0
225489.0 421749.0 0
232319.0 421414.0 0
239215.0 421073.0 0
242770.0 422834.0 0
246295.0 420984.0 0
250000.0 422457.0 0
253705.0 420984.0 0
257230.0 422834.0 0
260785.0 421073.0 0
267681.0 421414.0 0
274511.0 421749.0 0
281294.0 422073.0 0
284705.0 420263.0 0
288076.0 422467.0 0
291655.0 421158.0 0
298429.0 421523.0 0
305271.0 421737.0 0
311973.0 421906.0 0
318532.0 421803.0 0
322022.0 423654.0 0
325150.0 421748.0 0
328770.0 423426.0 0
332081.0 421342.0 0
335507.0 422973.0 0
338851.0 420867.0 0
342160.0 422663.0 0
345558.0 420802.0 0
348824.0 422723.0 0
352215.0 420872.0 0
355541.0 422599.0 0
358954.0 421272.0 0
362237.0 423340.0 0
365606.0 421927.0 0
368857.0 424090.0 0
372197.0 422452.0 0
123495.0 425115.0 0
126710.0 425944.0 0
134514.0 425574.0 0
141164.0 424852.0 0
144652.0 425830.0 0
147960.0 424400.0 0
154491.0 424372.0 0
161152.0 424667.0 0
167785.0 425099.0 0
174446.0 425484.0 0
181150.0 425595.0 0
184615.0 423832.0 0
191150.0 423885.0 0
197935.0 423788.0 0
201389.0 425277.0 0
204921.0 423494.0 0
208517.0 424947.0 0
215345.0 424183.0 0
222116.0 423883.0 0
228937.0 423545.0 0
235816.0 423194.0 0
239287.0 425063.0 0
260713.0 425063.0 0
264184.0 423194.0 0
271063.0 423545.0 0
277884.0 423883.0 0
284655.0 424183.0 0
291483.0 424947.0 0
295079.0 423494.0 0
298611.0 425277.0 0
302065.0 423788.0 0
308850.0 423885.0 0
315385.0 423832.0 0
318850.0 425595.0 0
325554.0 425484.0 0
332215.0 425099.0 0
338848.0 424667.0 0
345509.0 424372.0 0
352040.0 424400.0 0
355348.0 425830.0 0
358836.0 424852.0 0
365486.0 425574.0 0
373290.0 425944.0 0
376505.0 425115.0 0
116959.0 429217.0 0
120223.0 427172.0 0
123453.0 428571.0 0
129724.0 427469.0 0
132816.0 428806.0 0
137834.0 426877.0 0
140840.0 428491.0 0
147811.0 427993.0 0
151185.0 426529.0 0
154580.0 427799.0 0
157864.0 426363.0 0
164361.0 426762.0 0
171066.0 427240.0 0
177602.0 427416.0 0
184293.0 427764.0 0
187766.0 425855.0 0
194439.0 425507.0 0
197431.0 427779.0 0
204495.0 427457.0 0
211629.0 427218.0 0
218750.0 426039.0 0
222165.0 427831.0 0
225539.0 425728.0 0
228992.0 427509.0 0
232379.0 425395.0 0
235882.0 427158.0 0
242832.0 426828.0 0
246326.0 424935.0 0
250000.0 426465.0 0
253674.0 424935.0 0
257168.0 426828.0 0
264118.0 427158.0 0
267621.0 425395.0 0
271008.0 427509.0 0
274461.0 425728.0 0
277835.0 427831.0 0
281250.0 426039.0 0
288371.0 427218.0 0
295505.0 427457.0 0
302569.0 427779.0 0
305561.0 425507.0 0
312234.0 425855.0 0
315707.0 427764.0 0
322398.0 427416.0 0
328934.0 427240.0 0
335639.0 426762.0 0
342136.0 426363.0 0
345420.0 427799.0 0
348815.0 426529.0 0
352189.0 427993.0 0
359160.0 428491.0 0
362166.0 426877.0 0
367184.0 428806.0 0
370276.0 427469.0 0
376547.0 428571.0 0
379777.0 427172.0 0
383041.0 429217.0 0
113690.0 431264.0 0
120210.0 430736.0 0
123498.0 432145.0 0
126689.0 429772.0 0
129946.0 431279.0 0
136020.0 429975.0 0
144272.0 428908.0 0
150149.0 430773.0 0
153756.0 430948.0 0
157539.0 430187.0 0
160952.0 428529.0 0
164120.0 430529.0 0
167609.0 428886.0 0
174370.0 429410.0 0
180614.0 429304.0 0
186854.0 430613.0 0
190165.0 428768.0 0
193836.0 429193.0 0
200916.0 429027.0 0
208020.0 428770.0 0
215364.0 428075.0 0
225487.0 429863.0 0
232426.0 429379.0 0
239339.0 429050.0 0
246348.0 428890.0 0
250000.0 430457.0 0
253652.0 428890.0 0
260661.0 429050.0 0
267574.0 429379.0 0
274513.0 429863.0 0
284636.0 428075.0 0
291980.0 428770.0 0
299084.0 429027.0 0
306164.0 429193.0 0
309835.0 428768.0 0
313146.0 430613.0 0
319386.0 429304.0 0
325630.0 429410.0 0
332391.0 428886.0 0
335880.0 430529.0 0
339048.0 428529.0 0
342461.0 430187.0 0
346244.0 430948.0 0
349851.0 430773.0 0
355728.0 428908.0 0
363980.0 429975.0 0
370054.0 431279.0 0
373311.0 429772.0 0
376502.0 432145.0 0
379790.0 430736.0 0
386310.0 431264.0 0
110405.0 433320.0 0
116963.0 432837.0 0
120281.0 434361.0 0
126743.0 433524.0 0
133390.0 432581.0 0
138958.0 431606.0 0
142568.0 431822.0 0
146453.0 431497.0 0
160607.0 432424.0 0
167419.0 432657.0 0
170892.0 431045.0 0
174103.0 433290.0 0
177703.0 431838.0 0
183201.0 431588.0 0
189153.0 433639.0 0
192789.0 432846.0 0
196529.0 431852.0 0
200137.0 432750.0 0
203811.0 431436.0 0
207364.0 432587.0 0
210999.0 431167.0 0
214708.0 431940.0 0
218366.0 430498.0 0
221994.0 431762.0 0
229040.0 431468.0 0
235927.0 431119.0 0
239365.0 433040.0 0
242878.0 430810.0 0
257122.0 430810.0 0
260635.0 433040.0 0
264073.0 431119.0 0
270960.0 431468.0 0
278006.0 431762.0 0
281634.0 430498.0 0
285292.0 431940.0 0
289001.0 431167.0 0
292636.0 432587.0 0
296189.0 431436.0 0
299863.0 432750.0 0
303471.0 431852.0 0
307211.0 432846.0 0
310847.0 433639.0 0
316799.0 431588.0 0
322297.0 431838.0 0
325897.0 433290.0 0
329108.0 431045.0 0
332581.0 432657.0 0
339393.0 432424.0 0
353547.0 431497.0 0
357432.0 431822.0 0
361042.0 431606.0 0
366610.0 432581.0 0
373257.0 433524.0 0
379719.0 434361.0 0
383037.0 432837.0 0
389595.0 433320.0 0
107106.0 435382.0 0
110431.0 437007.0 0
113705.0 434922.0 0
117041.0 436498.0 0
123614.0 435839.0 0
126934.0 437336.0 0
129930.0 434985.0 0
133086.0 436200.0 0
136686.0 434517.0 0
140607.0 434841.0 0
144553.0 434694.0 0
148414.0 434331.0 0
152106.0 434062.0 0
156073.0 433674.0 0
164068.0 434174.0 0
170478.0 434870.0 0
177273.0 435769.0 0
181104.0 434845.0 0
185445.0 434424.0 0
195435.0 435666.0 0
202917.0 435321.0 0
210249.0 435083.0 0
217651.0 434423.0 0
221283.0 435665.0 0
224970.0 434219.0 0
228648.0 435403.0 0
232250.0 433730.0 0
235942.0 435071.0 0
242906.0 434772.0 0
246366.0 432857.0 0
250000.0 434437.0 0
253634.0 432857.0 0
257094.0 434772.0 0
264058.0 435071.0 0
267750.0 433730.0 0
271352.0 435403.0 0
275030.0 434219.0 0
278717.0 435665.0 0
282349.0 434423.0 0
289751.0 435083.0 0
297083.0 435321.0 0
304565.0 435666.0 0
314555.0 434424.0 0
318896.0 434845.0 0
322727.0 435769.0 0
329522.0 434870.0 0
335932.0 434174.0 0
343927.0 433674.0 0
347894.0 434062.0 0
351586.0 434331.0 0
355447.0 434694.0 0
359393.0 434841.0 0
363314.0 434517.0 0
366914.0 436200.0 0
370070.0 434985.0 0
373066.0 437336.0 0
376386.0 435839.0 0
382959.0 436498.0 0
386295.0 434922.0 0
389569.0 437007.0 0
392894.0 435382.0 0
100452.0 439548.0 0
103789.0 437460.0 0
107129.0 439090.0 0
113783.0 438614.0 0
120416.0 438044.0 0
123801.0 439581.0 0
130297.0 438840.0 0
135716.0 438082.0 0
139041.0 438022.0 0
142746.0 437885.0 0
146550.0 437674.0 0
150310.0 437419.0 0
154076.0 437053.0 0
157764.0 436752.0 0
161273.0 436223.0 0
166881.0 436574.0 0
169921.0 438673.0 0
173568.0 437095.0 0
180156.0 438657.0 0
183987.0 437946.0 0
187909.0 437370.0 0
191675.0 436621.0 0
199148.0 436480.0 0
206545.0 436395.0 0
213976.0 435823.0 0
216919.0 438329.0 0
224278.0 438131.0 0
231689.0 437835.0 0
239102.0 437442.0 0
246349.0 436843.0 0
253651.0 436843.0 0
260898.0 437442.0 0
268311.0 437835.0 0
275722.0 438131.0 0
283081.0 438329.0 0
286024.0 435823.0 0
293455.0 436395.0 0
300852.0 436480.0 0
308325.0 436621.0 0
312091.0 437370.0 0
316013.0 437946.0 0
319844.0 438657.0 0
326432.0 437095.0 0
330079.0 438673.0 0
333119.0 436574.0 0
338727.0 436223.0 0
342236.0 436752.0 0
345924.0 437053.0 0
349690.0 437419.0 0
353450.0 437674.0 0
357254.0 437885.0 0
360959.0 438022.0 0
364284.0 438082.0 0
369703.0 438840.0 0
376199.0 439581.0 0
379584.0 438044.0 0
386217.0 438614.0 0
392871.0 439090.0 0
396211.0 437460.0 0
399548.0 439548.0 0
97100.6 441645.0 0
103814.0 441193.0 0
110501.0 440723.0 0
117175.0 440197.0 0
127198.0 441135.0 0
133415.0 440757.0 0
137033.0 441428.0 0
140828.0 441167.0 0
144648.0 440982.0 0
148468.0 440764.0 0
152288.0 440466.0 0
156096.0 440142.0 0
159953.0 439730.0 0
163838.0 439052.0 0
172816.0 440864.0 0
176442.0 439647.0 0
186604.0 440953.0 0
190469.0 440391.0 0
194321.0 439462.0 0
198124.0 440256.0 0
201942.0 439136.0 0
205663.0 440221.0 0
209426.0 438945.0 0
213211.0 439727.0 0
220583.0 439590.0 0
227986.0 439322.0 0
235434.0 438992.0 0
242855.0 438703.0 0
250000.0 438396.0 0
257145.0 438703.0 0
264566.0 438992.0 0
272014.0 439322.0 0
279417.0 439590.0 0
286789.0 439727.0 0
290574.0 438945.0 0
294337.0 440221.0 0
298058.0 439136.0 0
301876.0 440256.0 0
305679.0 439462.0 0
309531.0 440391.0 0
313396.0 440953.0 0
323558.0 439647.0 0
327184.0 440864.0 0
336162.0 439052.0 0
340047.0 439730.0 0
343904.0 440142.0 0
347712.0 440466.0 0
351532.0 440764.0 0
355352.0 440982.0 0
359172.0 441167.0 0
362967.0 441428.0 0
366585.0 440757.0 0
372802.0 441135.0 0
382825.0 440197.0 0
389499.0 440723.0 0
396186.0 441193.0 0
402899.0 441645.0 0
93737.3 443753.0 0
100476.0 443303.0 0
103892.0 444949.0 0
107207.0 442831.0 0
110630.0 444472.0 0
113908.0 442333.0 0
117350.0 443915.0 0
120598.0 441758.0 0
124039.0 443345.0 0
130546.0 442776.0 0
131108.0 446448.0 0
146569.0 444093.0 0
150435.0 443842.0 0
154301.0 443528.0 0
158200.0 443130.0 0
162154.0 442609.0 0
167005.0 441212.0 0
175337.0 443640.0 0
179031.0 442492.0 0
182782.0 441644.0 0
193226.0 443228.0 0
201001.0 442916.0 0
208629.0 442764.0 0
216229.0 442211.0 0
223647.0 442025.0 0
227392.0 443274.0 0
231061.0 441747.0 0
234824.0 442909.0 0
238517.0 441456.0 0
242306.0 442578.0 0
246093.0 441347.0 0
250000.0 442337.0 0
253907.0 441347.0 0
257694.0 442578.0 0
261483.0 441456.0 0
265176.0 442909.0 0
268939.0 441747.0 0
272608.0 443274.0 0
276353.0 442025.0 0
283771.0 442211.0 0
291371.0 442764.0 0
298999.0 442916.0 0
306774.0 443228.0 0
317218.0 441644.0 0
320969.0 442492.0 0
324663.0 443640.0 0
332995.0 441212.0 0
337846.0 442609.0 0
341800.0 443130.0 0
345699.0 443528.0 0
349565.0 443842.0 0
353431.0 444093.0 0
368892.0 446448.0 0
369454.0 442776.0 0
375961.0 443345.0 0
379402.0 441758.0 0
382650.0 443915.0 0
386092.0 442333.0 0
389370.0 444472.0 0
392793.0 442831.0 0
396108.0 444949.0 0
399524.0 443303.0 0
406263.0 443753.0 0
90389.5 445843.0 0
93776.1 447621.0 0
97125.9 445431.0 0
100571.0 447081.0 0
107335.0 446598.0 0
114080.0 446082.0 0
120814.0 445497.0 0
127484.0 444955.0 0
134423.0 444412.0 0
138829.0 444432.0 0
142703.0 444281.0 0
156325.0 446564.0 0
160219.0 446114.0 0
164022.0 445692.0 0
167698.0 444979.0 0
171450.0 444365.0 0
177842.0 446550.0 0
181594.0 445417.0 0
185413.0 444616.0 0
189374.0 444234.0 0
197200.0 444097.0 0
204807.0 444086.0 0
212503.0 443661.0 0
216340.0 446112.0 0
219961.0 443538.0 0
223607.0 445944.0 0
230977.0 445684.0 0
238486.0 445442.0 0
246135.0 445342.0 0
253865.0 445342.0 0
261514.0 445442.0 0
269023.0 445684.0 0
276393.0 445944.0 0
280039.0 443538.0 0
283660.0 446112.0 0
287497.0 443661.0 0
295193.0 444086.0 0
302800.0 444097.0 0
310626.0 444234.0 0
314587.0 444616.0 0
318406.0 445417.0 0
322158.0 446550.0 0
328550.0 444365.0 0
332302.0 444979.0 0
335978.0 445692.0 0
339781.0 446114.0 0
343675.0 446564.0 0
357297.0 444281.0 0
361171.0 444432.0 0
365577.0 444412.0 0
372516.0 444955.0 0
379186.0 445497.0 0
385920.0 446082.0 0
392665.0 446598.0 0
399429.0 447081.0 0
402874.0 445431.0 0
406224.0 447621.0 0
409611.0 445843.0 0
83298.9 450294.0 0
86673.3 448182.0 0
90328.5 449631.0 0
97235.1 449224.0 0
104033.0 448743.0 0
110804.0 448250.0 0
117555.0 447655.0 0
121079.0 449246.0 0
124284.0 447141.0 0
127758.0 448681.0 0
131182.0 450115.0 0
136660.0 447473.0 0
140671.0 447539.0 0
144608.0 447406.0 0
148522.0 447199.0 0
152425.0 446925.0 0
162313.0 449179.0 0
166214.0 448676.0 0
170059.0 448025.0 0
173946.0 447316.0 0
183308.0 448929.0 0
187044.0 448151.0 0
190814.0 447958.0 0
194471.0 446939.0 0
198145.0 447976.0 0
201791.0 446702.0 0
205408.0 448010.0 0
209019.0 446608.0 0
212747.0 447645.0 0
219994.0 447521.0 0
227339.0 447251.0 0
234772.0 446853.0 0
242326.0 446488.0 0
250000.0 446286.0 0
257674.0 446488.0 0
265228.0 446853.0 0
272661.0 447251.0 0
280006.0 447521.0 0
287253.0 447645.0 0
290981.0 446608.0 0
294592.0 448010.0 0
298209.0 446702.0 0
301855.0 447976.0 0
305529.0 446939.0 0
309186.0 447958.0 0
312956.0 448151.0 0
316692.0 448929.0 0
326054.0 447316.0 0
329941.0 448025.0 0
333786.0 448676.0 0
337687.0 449179.0 0
347575.0 446925.0 0
351478.0 447199.0 0
355392.0 447406.0 0
359329.0 447539.0 0
363340.0 447473.0 0
368818.0 450115.0 0
372242.0 448681.0 0
375716.0 447141.0 0
378921.0 449246.0 0
382445.0 447655.0 0
389196.0 448250.0 0
395967.0 448743.0 0
402765.0 449224.0 0
409672.0 449631.0 0
413327.0 448182.0 0
416701.0 450294.0 0
93730.9 451544.0 0
100714.0 450886.0 0
104218.0 452571.0 0
107521.0 450392.0 0
111030.0 452076.0 0
114287.0 449870.0 0
117790.0 451401.0 0
124635.0 451013.0 0
134770.0 450720.0 0
138650.0 450729.0 0
142611.0 450691.0 0
146568.0 450539.0 0
150513.0 450315.0 0
154451.0 450008.0 0
158404.0 449582.0 0
172095.0 451236.0 0
175875.0 450634.0 0
179641.0 449988.0 0
185861.0 451943.0 0
193552.0 450816.0 0
201066.0 450614.0 0
208454.0 450531.0 0
215880.0 450062.0 0
223190.0 449888.0 0
226921.0 451185.0 0
230558.0 449627.0 0
234363.0 450770.0 0
238180.0 449618.0 0
242095.0 450396.0 0
246023.0 449645.0 0
250000.0 450232.0 0
253977.0 449645.0 0
257905.0 450396.0 0
261820.0 449618.0 0
265637.0 450770.0 0
269442.0 449627.0 0
273079.0 451185.0 0
276810.0 449888.0 0
284120.0 450062.0 0
291546.0 450531.0 0
298934.0 450614.0 0
306448.0 450816.0 0
314139.0 451943.0 0
320359.0 449988.0 0
324125.0 450634.0 0
327905.0 451236.0 0
341596.0 449582.0 0
345549.0 450008.0 0
349487.0 450315.0 0
353432.0 450539.0 0
357389.0 450691.0 0
361350.0 450729.0 0
365230.0 450720.0 0
375365.0 451013.0 0
382210.0 451401.0 0
385713.0 449870.0 0
388970.0 452076.0 0
392479.0 450392.0 0
395782.0 452571.0 0
399286.0 450886.0 0
406269.0 451544.0 0
89412.4 453377.0 0
93250.2 455469.0 0
97347.1 453027.0 0
100884.0 454715.0 0
107751.0 454199.0 0
114539.0 453709.0 0
121347.0 452954.0 0
128223.0 452509.0 0
132166.0 453756.0 0
136575.0 453986.0 0
140575.0 453958.0 0
144573.0 453860.0 0
148552.0 453691.0 0
152517.0 453449.0 0
156591.0 453012.0 0
160530.0 452643.0 0
164446.0 452230.0 0
168300.0 451780.0 0
178241.0 453701.0 0
182104.0 453019.0 0
189748.0 451779.0 0
197320.0 451833.0 0
204758.0 451867.0 0
212225.0 451560.0 0
219554.0 451444.0 0
222700.0 453854.0 0
230272.0 453610.0 0
238153.0 453620.0 0
246038.0 453642.0 0
253962.0 453642.0 0
261847.0 453620.0 0
269728.0 453610.0 0
277300.0 453854.0 0
280446.0 451444.0 0
287775.0 451560.0 0
295242.0 451867.0 0
302680.0 451833.0 0
310252.0 451779.0 0
317896.0 453019.0 0
321759.0 453701.0 0
331700.0 451780.0 0
335554.0 452230.0 0
339470.0 452643.0 0
343409.0 453012.0 0
347483.0 453449.0 0
351448.0 453691.0 0
355427.0 453860.0 0
359425.0 453958.0 0
363425.0 453986.0 0
367834.0 453756.0 0
371777.0 452509.0 0
378653.0 452954.0 0
385461.0 453709.0 0
392249.0 454199.0 0
399116.0 454715.0 0
402653.0 453027.0 0
406750.0 455469.0 0
410588.0 453377.0 0
89142.3 457271.0 0
97537.5 456871.0 0
104431.0 456428.0 0
111317.0 455966.0 0
118079.0 455134.0 0
121683.0 456604.0 0
125223.0 454971.0 0
129086.0 456198.0 0
138489.0 457210.0 0
146557.0 457054.0 0
150528.0 456880.0 0
154775.0 456408.0 0
158732.0 456089.0 0
162679.0 455733.0 0
166604.0 455348.0 0
170499.0 454883.0 0
174375.0 454314.0 0
180603.0 456778.0 0
184470.0 456152.0 0
188324.0 455498.0 0
192209.0 454873.0 0
196051.0 455568.0 0
199917.0 454799.0 0
203734.0 455625.0 0
207573.0 454638.0 0
211428.0 455420.0 0
215204.0 454158.0 0
218977.0 455328.0 0
226482.0 455090.0 0
234308.0 454712.0 0
242099.0 454324.0 0
250000.0 454185.0 0
257901.0 454324.0 0
265692.0 454712.0 0
273518.0 455090.0 0
281023.0 455328.0 0
284796.0 454158.0 0
288572.0 455420.0 0
292427.0 454638.0 0
296266.0 455625.0 0
300083.0 454799.0 0
303949.0 455568.0 0
307791.0 454873.0 0
311676.0 455498.0 0
315530.0 456152.0 0
319397.0 456778.0 0
325625.0 454314.0 0
329501.0 454883.0 0
333396.0 455348.0 0
337321.0 455733.0 0
341268.0 456089.0 0
345225.0 456408.0 0
349472.0 456880.0 0
353443.0 457054.0 0
361511.0 457210.0 0
370914.0 456198.0 0
374777.0 454971.0 0
378317.0 456604.0 0
381921.0 455134.0 0
388683.0 455966.0 0
395569.0 456428.0 0
402462.0 456871.0 0
410858.0 457271.0 0
95550.5 460228.0 0
101140.0 458569.0 0
107988.0 457958.0 0
114858.0 457629.0 0
118547.0 458824.0 0
134173.0 457006.0 0
142563.0 457171.0 0
156895.0 459517.0 0
160864.0 459204.0 0
164832.0 458862.0 0
168805.0 458481.0 0
172773.0 457955.0 0
176703.0 457377.0 0
190814.0 458603.0 0
198625.0 458572.0 0
206419.0 458494.0 0
214186.0 458240.0 0
222058.0 457794.0 0
225846.0 458980.0 0
229598.0 457551.0 0
233446.0 458574.0 0
237867.0 457607.0 0
241811.0 458255.0 0
245990.0 457635.0 0
250000.0 458144.0 0
254010.0 457635.0 0
258189.0 458255.0 0
262133.0 457607.0 0
266554.0 458574.0 0
270402.0 457551.0 0
274154.0 458980.0 0
277942.0 457794.0 0
285814.0 458240.0 0
293581.0 458494.0 0
301375.0 458572.0 0
309186.0 458603.0 0
323297.0 457377.0 0
327227.0 457955.0 0
331195.0 458481.0 0
335168.0 458862.0 0
339136.0 459204.0 0
343105.0 459517.0 0
357437.0 457171.0 0
365827.0 457006.0 0
381453.0 458824.0 0
385142.0 457629.0 0
392012.0 457958.0 0
398860.0 458569.0 0
404449.0 460228.0 0
91617.9 460321.0 0
99126.4 461860.0 0
104654.0 460369.0 0
108373.0 461633.0 0
112180.0 460551.0 0
115995.0 461703.0 0
120250.0 462130.0 0
123371.0 459865.0 0
127218.0 459571.0 0
131179.0 459491.0 0
136137.0 460293.0 0
140445.0 460429.0 0
144547.0 460405.0 0
148517.0 460303.0 0
152923.0 459779.0 0
166965.0 462018.0 0
171116.0 461549.0 0
175131.0 461020.0 0
179081.0 460454.0 0
183013.0 459871.0 0
186921.0 459252.0 0
194711.0 459288.0 0
202519.0 459356.0 0
210316.0 459227.0 0
218046.0 459164.0 0
222892.0 461681.0 0
230441.0 461451.0 0
269559.0 461451.0 0
277108.0 461681.0 0
281954.0 459164.0 0
289684.0 459227.0 0
297481.0 459356.0 0
305289.0 459288.0 0
313079.0 459252.0 0
316987.0 459871.0 0
320919.0 460454.0 0
324869.0 461020.0 0
328884.0 461549.0 0
333035.0 462018.0 0
347077.0 459779.0 0
351483.0 460303.0 0
355453.0 460405.0 0
359555.0 460429.0 0
363863.0 460293.0 0
368821.0 459491.0 0
372782.0 459571.0 0
376629.0 459865.0 0
379750.0 462130.0 0
384005.0 461703.0 0
387820.0 460551.0 0
391627.0 461633.0 0
395346.0 460369.0 0
400874.0 461860.0 0
408382.0 460321.0 0
93676.5 463727.0 0
102039.0 464497.0 0
105985.0 464680.0 0
110172.0 464963.0 0
125365.0 463079.0 0
129268.0 462920.0 0
133206.0 462849.0 0
138126.0 463569.0 0
142406.0 463664.0 0
146480.0 463714.0 0
151036.0 463149.0 0
155016.0 462936.0 0
158998.0 462660.0 0
162979.0 462351.0 0
176702.0 464561.0 0
180570.0 464061.0 0
184448.0 463543.0 0
188305.0 462971.0 0
192168.0 462346.0 0
196034.0 463024.0 0
199895.0 462327.0 0
203747.0 463111.0 0
207600.0 462270.0 0
211462.0 463019.0 0
215289.0 462056.0 0
219133.0 462960.0 0
226694.0 462824.0 0
234307.0 462446.0 0
238193.0 461586.0 0
242126.0 462196.0 0
246058.0 461624.0 0
250000.0 462110.0 0
253942.0 461624.0 0
257874.0 462196.0 0
261807.0 461586.0 0
265693.0 462446.0 0
273306.0 462824.0 0
280867.0 462960.0 0
284711.0 462056.0 0
288538.0 463019.0 0
292400.0 462270.0 0
296253.0 463111.0 0
300105.0 462327.0 0
303966.0 463024.0 0
307832.0 462346.0 0
311695.0 462971.0 0
315552.0 463543.0 0
319430.0 464061.0 0
323298.0 464561.0 0
337021.0 462351.0 0
341002.0 462660.0 0
344984.0 462936.0 0
348964.0 463149.0 0
353520.0 463714.0 0
357594.0 463664.0 0
361874.0 463569.0 0
366794.0 462849.0 0
370732.0 462920.0 0
374635.0 463079.0 0
389828.0 464963.0 0
394015.0 464680.0 0
397961.0 464497.0 0
406323.0 463727.0 0
97314.1 465339.0 0
114078.0 465075.0 0
118020.0 465252.0 0
122213.0 465387.0 0
127328.0 466388.0 0
131274.0 466281.0 0
135235.0 466205.0 0
140140.0 466868.0 0
144254.0 466982.0 0
149121.0 466532.0 0
153113.0 466357.0 0
157105.0 466113.0 0
161082.0 465837.0 0
165036.0 465553.0 0
168955.0 465285.0 0
172838.0 464982.0 0
182913.0 467209.0 0
186853.0 466716.0 0
190772.0 466085.0 0
194688.0 466748.0 0
198587.0 466072.0 0
202479.0 466870.0 0
206375.0 466063.0 0
210275.0 466809.0 0
214167.0 465909.0 0
218050.0 466781.0 0
221942.0 465735.0 0
225804.0 466688.0 0
229665.0 465428.0 0
233540.0 466340.0 0
237855.0 465566.0 0
241811.0 466141.0 0
245987.0 465616.0 0
250000.0 466076.0 0
254013.0 465616.0 0
258189.0 466141.0 0
262145.0 465566.0 0
266460.0 466340.0 0
270335.0 465428.0 0
274196.0 466688.0 0
278058.0 465735.0 0
281950.0 466781.0 0
285833.0 465909.0 0
289725.0 466809.0 0
293625.0 466063.0 0
297521.0 466870.0 0
301413.0 466072.0 0
305312.0 466748.0 0
309228.0 466085.0 0
313147.0 466716.0 0
317087.0 467209.0 0
327162.0 464982.0 0
331045.0 465285.0 0
334964.0 465553.0 0
338918.0 465837.0 0
342895.0 466113.0 0
346887.0 466357.0 0
350879.0 466532.0 0
355746.0 466982.0 0
359860.0 466868.0 0
364765.0 466205.0 0
368726.0 466281.0 0
372672.0 466388.0 0
377787.0 465387.0 0
381980.0 465252.0 0
385922.0 465075.0 0
402686.0 465339.0 0
98245.1 469189.0 0
103881.0 468010.0 0
107883.0 468159.0 0
111991.0 468411.0 0
115974.0 468567.0 0
120051.0 468660.0 0
124153.0 468720.0 0
129321.0 469728.0 0
133292.0 469639.0 0
137274.0 469569.0 0
146901.0 469762.0 0
151213.0 469785.0 0
155225.0 469567.0 0
159212.0 469317.0 0
163176.0 469060.0 0
167125.0 468802.0 0
171075.0 468537.0 0
175034.0 468184.0 0
178981.0 467720.0 0
321019.0 467720.0 0
324966.0 468184.0 0
328925.0 468537.0 0
332875.0 468802.0 0
336824.0 469060.0 0
340788.0 469317.0 0
344775.0 469567.0 0
348787.0 469785.0 0
353099.0 469762.0 0
362726.0 469569.0 0
366708.0 469639.0 0
370679.0 469728.0 0
375847.0 468720.0 0
379949.0 468660.0 0
384026.0 468567.0 0
388009.0 468411.0 0
392117.0 468159.0 0
396119.0 468010.0 0
401755.0 469189.0 0
101643.0 471276.0 0
105768.0 471497.0 0
109762.0 471648.0 0
113858.0 471873.0 0
117965.0 472001.0 0
122089.0 472078.0 0
126144.0 472080.0 0
142071.0 470238.0 0
161334.0 472563.0 0
165286.0 472321.0 0
169222.0 472072.0 0
173129.0 471837.0 0
176991.0 471554.0 0
180826.0 471171.0 0
184647.0 470733.0 0
188459.0 470698.0 0
192199.0 469803.0 0
195996.0 470648.0 0
199833.0 469833.0 0
203674.0 470672.0 0
207542.0 469848.0 0
211412.0 470613.0 0
215276.0 469729.0 0
219143.0 470601.0 0
222974.0 469573.0 0
226824.0 470521.0 0
230573.0 469293.0 0
234409.0 470218.0 0
238285.0 469532.0 0
242185.0 470089.0 0
246090.0 469604.0 0
250000.0 470048.0 0
253910.0 469604.0 0
257815.0 470089.0 0
261715.0 469532.0 0
265591.0 470218.0 0
269427.0 469293.0 0
273176.0 470521.0 0
277026.0 469573.0 0
280857.0 470601.0 0
284724.0 469729.0 0
288588.0 470613.0 0
292458.0 469848.0 0
296326.0 470672.0 0
300167.0 469833.0 0
304004.0 470648.0 0
307801.0 469803.0 0
311541.0 470698.0 0
315353.0 470733.0 0
319174.0 471171.0 0
323009.0 471554.0 0
326871.0 471837.0 0
330778.0 472072.0 0
334714.0 472321.0 0
338666.0 472563.0 0
357929.0 470238.0 0
373856.0 472080.0 0
377911.0 472078.0 0
382035.0 472001.0 0
386142.0 471873.0 0
390238.0 471648.0 0
394232.0 471497.0 0
398357.0 471276.0 0
107659.0 474990.0 0
131323.0 473083.0 0
135304.0 473006.0 0
139276.0 472975.0 0
144734.0 473071.0 0
148974.0 473013.0 0
153351.0 473021.0 0
157365.0 472790.0 0
179212.0 474807.0 0
183111.0 474392.0 0
187030.0 474450.0 0
190909.0 473808.0 0
194775.0 474463.0 0
198618.0 473619.0 0
202454.0 474476.0 0
206310.0 473637.0 0
210176.0 474403.0 0
214048.0 473570.0 0
217909.0 474380.0 0
221794.0 473568.0 0
225694.0 474305.0 0
229730.0 473661.0 0
233699.0 474116.0 0
237907.0 473689.0 0
241890.0 474036.0 0
245999.0 473698.0 0
250000.0 474011.0 0
254001.0 473698.0 0
258110.0 474036.0 0
262093.0 473689.0 0
266301.0 474116.0 0
270270.0 473661.0 0
274306.0 474305.0 0
278206.0 473568.0 0
282091.0 474380.0 0
285952.0 473570.0 0
289824.0 474403.0 0
293690.0 473637.0 0
297546.0 474476.0 0
301382.0 473619.0 0
305225.0 474463.0 0
309091.0 473808.0 0
312970.0 474450.0 0
316889.0 474392.0 0
320788.0 474807.0 0
342635.0 472790.0 0
346649.0 473021.0 0
351026.0 473013.0 0
355266.0 473071.0 0
360724.0 472975.0 0
364696.0 473006.0 0
368677.0 473083.0 0
392341.0 474990.0 0
99655.5 474734.0 0
103647.0 474848.0 0
111654.0 475135.0 0
115805.0 475309.0 0
119991.0 475428.0 0
124146.0 475494.0 0
128158.0 475472.0 0
133333.0 476450.0 0
137321.0 476393.0 0
141941.0 475913.0 0
146860.0 476324.0 0
151110.0 476257.0 0
155531.0 476246.0 0
159514.0 476062.0 0
163481.0 475842.0 0
167430.0 475608.0 0
171363.0 475376.0 0
175292.0 475144.0 0
324708.0 475144.0 0
328637.0 475376.0 0
332570.0 475608.0 0
336519.0 475842.0 0
340486.0 476062.0 0
344469.0 476246.0 0
348890.0 476257.0 0
353140.0 476324.0 0
358059.0 475913.0 0
362679.0 476393.0 0
366667.0 476450.0 0
371842.0 475472.0 0
375854.0 475494.0 0
380009.0 475428.0 0
384195.0 475309.0 0
388346.0 475135.0 0
396353.0 474848.0 0
400344.0 474734.0 0
101569.0 478248.0 0
105566.0 478352.0 0
109564.0 478491.0 0
113599.0 478602.0 0
117806.0 478736.0 0
122032.0 478856.0 0
126191.0 478923.0 0
130193.0 478887.0 0
135348.0 479824.0 0
139626.0 479590.0 0
143604.0 479524.0 0
147526.0 480120.0 0
151463.0 480110.0 0
155392.0 480095.0 0
159332.0 479956.0 0
163292.0 479756.0 0
167266.0 479531.0 0
171253.0 479302.0 0
175292.0 479094.0 0
179273.0 478751.0 0
183284.0 478344.0 0
187273.0 478434.0 0
191212.0 477790.0 0
195154.0 478427.0 0
199054.0 477582.0 0
202957.0 478420.0 0
206855.0 477587.0 0
210771.0 478334.0 0
214666.0 477512.0 0
218571.0 478290.0 0
222464.0 477504.0 0
226377.0 478198.0 0
230295.0 477617.0 0
234234.0 478048.0 0
238172.0 477677.0 0
242115.0 477995.0 0
246057.0 477694.0 0
250000.0 477980.0 0
253943.0 477694.0 0
257885.0 477995.0 0
261828.0 477677.0 0
265766.0 478048.0 0
269705.0 477617.0 0
273623.0 478198.0 0
277536.0 477504.0 0
281429.0 478290.0 0
285334.0 477512.0 0
289229.0 478334.0 0
293145.0 477587.0 0
297043.0 478420.0 0
300946.0 477582.0 0
304846.0 478427.0 0
308788.0 477790.0 0
312727.0 478434.0 0
316716.0 478344.0 0
320727.0 478751.0 0
324708.0 479094.0 0
328747.0 479302.0 0
332734.0 479531.0 0
336708.0 479756.0 0
340668.0 479956.0 0
344608.0 480095.0 0
348537.0 480110.0 0
352474.0 480120.0 0
356396.0 479524.0 0
360374.0 479590.0 0
364652.0 479824.0 0
369807.0 478887.0 0
373809.0 478923.0 0
377968.0 478856.0 0
382194.0 478736.0 0
386401.0 478602.0 0
390436.0 478491.0 0
394434.0 478352.0 0
398431.0 478248.0 0
100694.0 482145.0 0
104683.0 482228.0 0
108670.0 482356.0 0
112662.0 482460.0 0
116657.0 482535.0 0
120664.0 482596.0 0
124669.0 482607.0 0
128665.0 482567.0 0
169441.0 482842.0 0
173435.0 482613.0 0
177581.0 482357.0 0
181621.0 481956.0 0
185749.0 482128.0 0
189735.0 481695.0 0
193708.0 482148.0 0
197684.0 481716.0 0
201653.0 482183.0 0
205699.0 481724.0 0
209671.0 482156.0 0
213732.0 481733.0 0
217704.0 482158.0 0
221824.0 481737.0 0
225802.0 482109.0 0
229925.0 481745.0 0
233915.0 482000.0 0
237974.0 481751.0 0
241968.0 481957.0 0
246000.0 481753.0 0
250000.0 481947.0 0
254000.0 481753.0 0
258032.0 481957.0 0
262026.0 481751.0 0
266085.0 482000.0 0
270075.0 481745.0 0
274198.0 482109.0 0
278176.0 481737.0 0
282296.0 482158.0 0
286268.0 481733.0 0
290329.0 482156.0 0
294301.0 481724.0 0
298347.0 482183.0 0
302316.0 481716.0 0
306292.0 482148.0 0
310265.0 481695.0 0
314251.0 482128.0 0
318379.0 481956.0 0
322419.0 482357.0 0
326565.0 482613.0 0
330559.0 482842.0 0
371335.0 482567.0 0
375331.0 482607.0 0
379336.0 482596.0 0
383343.0 482535.0 0
387338.0 482460.0 0
391330.0 482356.0 0
395317.0 482228.0 0
399306.0 482145.0 0
132654.0 482753.0 0
137225.0 483280.0 0
141203.0 483232.0 0
145172.0 483259.0 0
149470.0 483515.0 0
153443.0 483508.0 0
157436.0 483438.0 0
161443.0 483277.0 0
165449.0 483074.0 0
334551.0 483074.0 0
338557.0 483277.0 0
342564.0 483438.0 0
346557.0 483508.0 0
350530.0 483515.0 0
354828.0 483259.0 0
358797.0 483232.0 0
362775.0 483280.0 0
367346.0 482753.0 0
102023.0 485952.0 0
106074.0 485967.0 0
110281.0 486000.0 0
114398.0 486049.0 0
118511.0 486063.0 0
122505.0 486143.0 0
126499.0 486162.0 0
130496.0 486122.0 0
134574.0 486253.0 0
139225.0 486703.0 0
143201.0 486688.0 0
147182.0 486713.0 0
151444.0 486926.0 0
155441.0 486887.0 0
159426.0 486815.0 0
163387.0 486703.0 0
167334.0 486564.0 0
171260.0 486369.0 0
175173.0 486184.0 0
179080.0 486054.0 0
182976.0 485692.0 0
186870.0 486080.0 0
190756.0 485558.0 0
194660.0 486035.0 0
198577.0 485612.0 0
202499.0 486082.0 0
206430.0 485655.0 0
210370.0 486077.0 0
214315.0 485689.0 0
218265.0 486088.0 0
222216.0 485716.0 0
226176.0 486051.0 0
230136.0 485738.0 0
234105.0 485965.0 0
238075.0 485749.0 0
242050.0 485925.0 0
246024.0 485752.0 0
250000.0 485919.0 0
253976.0 485752.0 0
257950.0 485925.0 0
261925.0 485749.0 0
265895.0 485965.0 0
269864.0 485738.0 0
273824.0 486051.0 0
277784.0 485716.0 0
281735.0 486088.0 0
285685.0 485689.0 0
289630.0 486077.0 0
293570.0 485655.0 0
297501.0 486082.0 0
301423.0 485612.0 0
305340.0 486035.0 0
309244.0 485558.0 0
313130.0 486080.0 0
317024.0 485692.0 0
320920.0 486054.0 0
324827.0 486184.0 0
328740.0 486369.0 0
332666.0 486564.0 0
336613.0 486703.0 0
340574.0 486815.0 0
344559.0 486887.0 0
348556.0 486926.0 0
352818.0 486713.0 0
356799.0 486688.0 0
360775.0 486703.0 0
365426.0 486253.0 0
369504.0 486122.0 0
373501.0 486162.0 0
377495.0 486143.0 0
381489.0 486063.0 0
385602.0 486049.0 0
389719.0 486000.0 0
393926.0 485967.0 0
397977.0 485952.0 0
101680.0 489946.0 0
105673.0 489940.0 0
109662.0 489942.0 0
113646.0 489971.0 0
117626.0 489956.0 0
121601.0 490038.0 0
125572.0 490068.0 0
129537.0 490037.0 0
133495.0 490088.0 0
137449.0 490261.0 0
141412.0 490230.0 0
145384.0 490240.0 0
153454.0 490328.0 0
157465.0 490277.0 0
161471.0 490197.0 0
165465.0 490079.0 0
169586.0 489986.0 0
173709.0 489892.0 0
177933.0 489879.0 0
181937.0 489754.0 0
185930.0 489954.0 0
189949.0 489755.0 0
193943.0 489959.0 0
197942.0 489757.0 0
201932.0 490023.0 0
205956.0 489759.0 0
209945.0 490031.0 0
213968.0 489760.0 0
217956.0 490044.0 0
221982.0 489760.0 0
225973.0 490008.0 0
229993.0 489761.0 0
233988.0 489933.0 0
237998.0 489761.0 0
241995.0 489898.0 0
246000.0 489761.0 0
250000.0 489893.0 0
254000.0 489761.0 0
258005.0 489898.0 0
262002.0 489761.0 0
266012.0 489933.0 0
270007.0 489761.0 0
274027.0 490008.0 0
278018.0 489760.0 0
282044.0 490044.0 0
286032.0 489760.0 0
290055.0 490031.0 0
294044.0 489759.0 0
298068.0 490023.0 0
302058.0 489757.0 0
306057.0 489959.0 0
310051.0 489755.0 0
314070.0 489954.0 0
318063.0 489754.0 0
322067.0 489879.0 0
326291.0 489892.0 0
330414.0 489986.0 0
334535.0 490079.0 0
338529.0 490197.0 0
342535.0 490277.0 0
346546.0 490328.0 0
354616.0 490240.0 0
358588.0 490230.0 0
362551.0 490261.0 0
366505.0 490088.0 0
370463.0 490037.0 0
374428.0 490068.0 0
378399.0 490038.0 0
382374.0 489956.0 0
386354.0 489971.0 0
390338.0 489942.0 0
394327.0 489940.0 0
398320.0 489946.0 0
149372.0 490310.0 0
350628.0 490310.0 0
102004.0 493933.0 0
106007.0 493921.0 0
110026.0 493918.0 0
114039.0 493945.0 0
118053.0 493927.0 0
122055.0 494009.0 0
126055.0 494037.0 0
130055.0 494008.0 0
134090.0 494032.0 0
138176.0 494176.0 0
142181.0 494133.0 0
146203.0 494128.0 0
150245.0 494192.0 0
154246.0 494197.0 0
158239.0 494148.0 0
162225.0 494079.0 0
166204.0 493970.0 0
170181.0 493930.0 0
174159.0 493855.0 0
178140.0 493869.0 0
182123.0 493749.0 0
186106.0 493939.0 0
190092.0 493752.0 0
194079.0 493947.0 0
198068.0 493755.0 0
202055.0 494002.0 0
206043.0 493757.0 0
210032.0 494007.0 0
214022.0 493760.0 0
218012.0 494013.0 0
222003.0 493761.0 0
226005.0 493975.0 0
230000.0 493761.0 0
234001.0 493906.0 0
238000.0 493761.0 0
242000.0 493875.0 0
246000.0 493761.0 0
250000.0 493872.0 0
254000.0 493761.0 0
258000.0 493875.0 0
262000.0 493761.0 0
265999.0 493906.0 0
270000.0 493761.0 0
273995.0 493975.0 0
277997.0 493761.0 0
281988.0 494013.0 0
285978.0 493760.0 0
289968.0 494007.0 0
293957.0 493757.0 0
297945.0 494002.0 0
301932.0 493755.0 0
305921.0 493947.0 0
309908.0 493752.0 0
313894.0 493939.0 0
317877.0 493749.0 0
321860.0 493869.0 0
325841.0 493855.0 0
329819.0 493930.0 0
333796.0 493970.0 0
337775.0 494079.0 0
341761.0 494148.0 0
345754.0 494197.0 0
349755.0 494192.0 0
353797.0 494128.0 0
357819.0 494133.0 0
361824.0 494176.0 0
365910.0 494032.0 0
369945.0 494008.0 0
373945.0 494037.0 0
377945.0 494009.0 0
381947.0 493927.0 0
385961.0 493945.0 0
389974.0 493918.0 0
393993.0 493921.0 0
397996.0 493933.0 0
101975.0 497932.0 0
105974.0 497916.0 0
109973.0 497910.0 0
113972.0 497937.0 0
117970.0 497920.0 0
121967.0 498003.0 0
125964.0 498034.0 0
129960.0 498005.0 0
133956.0 498019.0 0
157925.0 498092.0 0
161924.0 498030.0 0
165950.0 497934.0 0
169969.0 497913.0 0
173981.0 497840.0 0
177993.0 497862.0 0
181996.0 497760.0 0
185993.0 497926.0 0
189998.0 497761.0 0
193994.0 497934.0 0
198000.0 497761.0 0
201994.0 497983.0 0
206000.0 497761.0 0
209997.0 497984.0 0
214000.0 497761.0 0
217999.0 497985.0 0
222000.0 497761.0 0
226000.0 497945.0 0
230000.0 497761.0 0
234000.0 497883.0 0
238000.0 497761.0 0
242000.0 497855.0 0
246000.0 497761.0 0
250000.0 497853.0 0
254000.0 497761.0 0
258000.0 497855.0 0
262000.0 497761.0 0
266000.0 497883.0 0
270000.0 497761.0 0
274000.0 497945.0 0
278000.0 497761.0 0
282001.0 497985.0 0
286000.0 497761.0 0
290003.0 497984.0 0
294000.0 497761.0 0
298006.0 497983.0 0
302000.0 497761.0 0
306006.0 497934.0 0
310002.0 497761.0 0
314007.0 497926.0 0
318004.0 497760.0 0
322007.0 497862.0 0
326019.0 497840.0 0
330031.0 497913.0 0
334050.0 497934.0 0
338076.0 498030.0 0
342075.0 498092.0 0
366044.0 498019.0 0
370040.0 498005.0 0
374036.0 498034.0 0
378033.0 498003.0 0
382030.0 497920.0 0
386028.0 497937.0 0
390027.0 497910.0 0
394026.0 497916.0 0
398025.0 497932.0 0
137948.0 498153.0 0
141943.0 498107.0 0
145938.0 498096.0 0
149933.0 498158.0 0
153928.0 498144.0 0
346072.0 498144.0 0
350067.0 498158.0 0
354062.0 498096.0 0
358057.0 498107.0 0
362052.0 498153.0 0
102000.0 501931.0 0
106000.0 501913.0 0
110001.0 501903.0 0
114002.0 501930.0 0
118003.0 501913.0 0
122005.0 501997.0 0
126005.0 502029.0 0
130005.0 502003.0 0
134007.0 502009.0 0
138018.0 502136.0 0
142018.0 502091.0 0
146019.0 502075.0 0
150021.0 502134.0 0
154021.0 502110.0 0
158020.0 502053.0 0
162019.0 501999.0 0
166016.0 501912.0 0
170015.0 501900.0 0
174013.0 501830.0 0
178012.0 501857.0 0
182010.0 501760.0 0
186006.0 501915.0 0
190003.0 501761.0 0
194000.0 501923.0 0
198000.0 501761.0 0
202000.0 501965.0 0
206000.0 501761.0 0
210000.0 501963.0 0
214000.0 501761.0 0
218000.0 501960.0 0
222000.0 501761.0 0
226000.0 501920.0 0
230000.0 501761.0 0
234000.0 501862.0 0
238000.0 501761.0 0
242000.0 501839.0 0
246000.0 501761.0 0
250000.0 501838.0 0
254000.0 501761.0 0
258000.0 501839.0 0
262000.0 501761.0 0
266000.0 501862.0 0
270000.0 501761.0 0
274000.0 501920.0 0
278000.0 501761.0 0
282000.0 501960.0 0
286000.0 501761.0 0
290000.0 501963.0 0
294000.0 501761.0 0
298000.0 501965.0 0
302000.0 501761.0 0
306000.0 501923.0 0
309997.0 501761.0 0
313994.0 501915.0 0
317990.0 501760.0 0
321988.0 501857.0 0
325987.0 501830.0 0
329985.0 501900.0 0
333984.0 501912.0 0
337981.0 501999.0 0
341980.0 502053.0 0
345979.0 502110.0 0
349979.0 502134.0 0
353981.0 502075.0 0
357982.0 502091.0 0
361982.0 502136.0 0
365993.0 502009.0 0
369995.0 502003.0 0
373995.0 502029.0 0
377995.0 501997.0 0
381997.0 501913.0 0
385998.0 501930.0 0
389999.0 501903.0 0
394000.0 501913.0 0
398000.0 501931.0 0
109999.0 505896.0 0
165997.0 505895.0 0
169998.0 505889.0 0
173999.0 505820.0 0
178000.0 505853.0 0
182000.0 505761.0 0
190000.0 505761.0 0
198000.0 505761.0 0
206000.0 505761.0 0
214000.0 505761.0 0
222000.0 505761.0 0
226000.0 505897.0 0
230000.0 505761.0 0
234000.0 505845.0 0
238000.0 505761.0 0
242000.0 505825.0 0
246000.0 505761.0 0
250000.0 505825.0 0
254000.0 505761.0 0
258000.0 505825.0 0
262000.0 505761.0 0
266000.0 505845.0 0
270000.0 505761.0 0
274000.0 505897.0 0
278000.0 505761.0 0
286000.0 505761.0 0
294000.0 505761.0 0
302000.0 505761.0 0
310000.0 505761.0 0
318000.0 505761.0 0
322000.0 505853.0 0
326001.0 505820.0 0
330002.0 505889.0 0
334003.0 505895.0 0
390001.0 505896.0 0
101999.0 505929.0 0
105999.0 505910.0 0
113999.0 505922.0 0
117999.0 505906.0 0
121998.0 505989.0 0
125997.0 506023.0 0
129997.0 506000.0 0
133997.0 506001.0 0
137995.0 506119.0 0
141994.0 506076.0 0
145994.0 506057.0 0
149993.0 506111.0 0
153993.0 506080.0 0
157993.0 506021.0 0
161996.0 505973.0 0
186000.0 505905.0 0
194000.0 505912.0 0
202000.0 505947.0 0
210000.0 505943.0 0
218000.0 505937.0 0
282000.0 505937.0 0
290000.0 505943.0 0
298000.0 505947.0 0
306000.0 505912.0 0
314000.0 505905.0 0
338004.0 505973.0 0
342007.0 506021.0 0
346007.0 506080.0 0
350007.0 506111.0 0
354006.0 506057.0 0
358006.0 506076.0 0
362005.0 506119.0 0
366003.0 506001.0 0
370003.0 506000.0 0
374003.0 506023.0 0
378002.0 505989.0 0
382001.0 505906.0 0
386001.0 505922.0 0
394001.0 505910.0 0
398001.0 505929.0 0
102000.0 509927.0 0
106000.0 509907.0 0
110000.0 509890.0 0
114000.0 509914.0 0
118000.0 509899.0 0
122000.0 509980.0 0
126000.0 510016.0 0
130000.0 509996.0 0
134000.0 509992.0 0
138002.0 510103.0 0
142002.0 510062.0 0
146002.0 510041.0 0
150002.0 510087.0 0
154002.0 510054.0 0
158002.0 509993.0 0
162001.0 509951.0 0
166001.0 509881.0 0
170001.0 509877.0 0
174000.0 509810.0 0
178000.0 509849.0 0
182000.0 509761.0 0
186000.0 509895.0 0
190000.0 509761.0 0
194000.0 509901.0 0
198000.0 509761.0 0
202000.0 509931.0 0
206000.0 509761.0 0
210000.0 509924.0 0
214000.0 509761.0 0
218000.0 509916.0 0
222000.0 509761.0 0
226000.0 509878.0 0
230000.0 509761.0 0
234000.0 509830.0 0
238000.0 509761.0 0
242000.0 509814.0 0
246000.0 509761.0 0
250000.0 509814.0 0
254000.0 509761.0 0
258000.0 509814.0 0
262000.0 509761.0 0
266000.0 509830.0 0
270000.0 509761.0 0
274000.0 509878.0 0
278000.0 509761.0 0
282000.0 509916.0 0
286000.0 509761.0 0
290000.0 509924.0 0
294000.0 509761.0 0
298000.0 509931.0 0
302000.0 509761.0 0
306000.0 509901.0 0
310000.0 509761.0 0
314000.0 509895.0 0
318000.0 509761.0 0
322000.0 509849.0 0
326000.0 509810.0 0
329999.0 509877.0 0
333999.0 509881.0 0
337999.0 509951.0 0
341998.0 509993.0 0
345998.0 510054.0 0
349998.0 510087.0 0
353998.0 510041.0 0
357998.0 510062.0 0
361998.0 510103.0 0
366000.0 509992.0 0
370000.0 509996.0 0
374000.0 510016.0 0
378000.0 509980.0 0
382000.0 509899.0 0
386000.0 509914.0 0
390000.0 509890.0 0
394000.0 509907.0 0
398000.0 509927.0 0
102000.0 513924.0 0
106000.0 513905.0 0
110000.0 513885.0 0
114000.0 513906.0 0
118000.0 513891.0 0
122000.0 513971.0 0
126000.0 514007.0 0
130000.0 513991.0 0
134000.0 513984.0 0
137999.0 514087.0 0
141999.0 514049.0 0
145999.0 514026.0 0
149999.0 514062.0 0
153999.0 514029.0 0
158000.0 513969.0 0
162000.0 513933.0 0
166000.0 513869.0 0
170000.0 513866.0 0
174000.0 513802.0 0
178000.0 513844.0 0
182000.0 513761.0 0
186000.0 513885.0 0
190000.0 513761.0 0
194000.0 513890.0 0
198000.0 513761.0 0
202000.0 513915.0 0
206000.0 513761.0 0
210000.0 513907.0 0
214000.0 513761.0 0
218000.0 513897.0 0
222000.0 513761.0 0
226000.0 513861.0 0
230000.0 513761.0 0
234000.0 513817.0 0
238000.0 513761.0 0
242000.0 513804.0 0
246000.0 513761.0 0
250000.0 513804.0 0
254000.0 513761.0 0
258000.0 513804.0 0
262000.0 513761.0 0
266000.0 513817.0 0
270000.0 513761.0 0
274000.0 513861.0 0
278000.0 513761.0 0
282000.0 513897.0 0
286000.0 513761.0 0
290000.0 513907.0 0
294000.0 513761.0 0
298000.0 513915.0 0
302000.0 513761.0 0
306000.0 513890.0 0
310000.0 513761.0 0
314000.0 513885.0 0
318000.0 513761.0 0
322000.0 513844.0 0
326000.0 513802.0 0
330000.0 513866.0 0
334000.0 513869.0 0
338000.0 513933.0 0
342000.0 513969.0 0
346001.0 514029.0 0
350001.0 514062.0 0
354001.0 514026.0 0
358001.0 514049.0 0
362001.0 514087.0 0
366000.0 513984.0 0
370000.0 513991.0 0
374000.0 514007.0 0
378000.0 513971.0 0
382000.0 513891.0 0
386000.0 513906.0 0
390000.0 513885.0 0
394000.0 513905.0 0
398000.0 513924.0 0
102000.0 517921.0 0
106000.0 517902.0 0
110000.0 517880.0 0
114000.0 517899.0 0
118000.0 517884.0 0
122000.0 517961.0 0
126000.0 517998.0 0
130000.0 517986.0 0
134000.0 517975.0 0
138000.0 518071.0 0
142000.0 518036.0 0
146000.0 518012.0 0
150000.0 518038.0 0
154000.0 518007.0 0
158000.0 517948.0 0
162000.0 517918.0 0
166000.0 517857.0 0
170000.0 517856.0 0
174000.0 517795.0 0
178000.0 517840.0 0
182000.0 517761.0 0
186000.0 517876.0 0
190000.0 517761.0 0
194000.0 517880.0 0
198000.0 517761.0 0
202000.0 517901.0 0
206000.0 517761.0 0
210000.0 517891.0 0
214000.0 517761.0 0
218000.0 517880.0 0
222000.0 517761.0 0
226000.0 517846.0 0
230000.0 517761.0 0
234000.0 517806.0 0
238000.0 517761.0 0
242000.0 517797.0 0
246000.0 517761.0 0
250000.0 517797.0 0
254000.0 517761.0 0
258000.0 517797.0 0
262000.0 517761.0 0
266000.0 517806.0 0
270000.0 517761.0 0
274000.0 517846.0 0
278000.0 517761.0 0
282000.0 517880.0 0
286000.0 517761.0 0
290000.0 517891.0 0
294000.0 517761.0 0
298000.0 517901.0 0
302000.0 517761.0 0
306000.0 517880.0 0
310000.0 517761.0 0
314000.0 517876.0 0
318000.0 517761.0 0
322000.0 517840.0 0
326000.0 517795.0 0
330000.0 517856.0 0
334000.0 517857.0 0
338000.0 517918.0 0
342000.0 517948.0 0
346000.0 518007.0 0
350000.0 518038.0 0
354000.0 518012.0 0
358000.0 518036.0 0
362000.0 518071.0 0
366000.0 517975.0 0
370000.0 517986.0 0
374000.0 517998.0 0
378000.0 517961.0 0
382000.0 517884.0 0
386000.0 517899.0 0
390000.0 517880.0 0
394000.0 517902.0 0
398000.0 517921.0 0
102000.0 521917.0 0
106000.0 521899.0 0
110000.0 521876.0 0
114000.0 521892.0 0
118000.0 521876.0 0
122000.0 521951.0 0
126000.0 521989.0 0
130000.0 521980.0 0
134000.0 521966.0 0
138000.0 522055.0 0
142000.0 522022.0 0
146000.0 521998.0 0
150000.0 522014.0 0
154000.0 521986.0 0
158000.0 521928.0 0
162000.0 521904.0 0
166000.0 521846.0 0
170000.0 521847.0 0
174000.0 521788.0 0
178000.0 521835.0 0
182000.0 521761.0 0
186000.0 521867.0 0
190000.0 521761.0 0
194000.0 521870.0 0
198000.0 521761.0 0
202000.0 521888.0 0
206000.0 521761.0 0
210000.0 521877.0 0
214000.0 521761.0 0
218000.0 521865.0 0
222000.0 521761.0 0
226000.0 521833.0 0
230000.0 521761.0 0
234000.0 521798.0 0
238000.0 521761.0 0
242000.0 521790.0 0
246000.0 521761.0 0
250000.0 521790.0 0
254000.0 521761.0 0
258000.0 521790.0 0
262000.0 521761.0 0
266000.0 521798.0 0
270000.0 521761.0 0
274000.0 521833.0 0
278000.0 521761.0 0
282000.0 521865.0 0
286000.0 521761.0 0
290000.0 521877.0 0
294000.0 521761.0 0
298000.0 521888.0 0
302000.0 521761.0 0
306000.0 521870.0 0
310000.0 521761.0 0
314000.0 521867.0 0
318000.0 521761.0 0
322000.0 521835.0 0
326000.0 521788.0 0
330000.0 521847.0 0
334000.0 521846.0 0
338000.0 521904.0 0
342000.0 521928.0 0
346000.0 521986.0 0
350000.0 522014.0 0
354000.0 521998.0 0
358000.0 522022.0 0
362000.0 522055.0 0
366000.0 521966.0 0
370000.0 521980.0 0
374000.0 521989.0 0
378000.0 521951.0 0
382000.0 521876.0 0
386000.0 521892.0 0
390000.0 521876.0 0
394000.0 521899.0 0
398000.0 521917.0 0
102000.0 525913.0 0
106000.0 525896.0 0
110000.0 525872.0 0
114000.0 525886.0 0
118000.0 525869.0 0
122000.0 525941.0 0
126000.0 525978.0 0
130000.0 525973.0 0
134000.0 525957.0 0
138000.0 526040.0 0
142000.0 526009.0 0
146000.0 525985.0 0
150000.0 525992.0 0
154000.0 525966.0 0
158000.0 525911.0 0
162000.0 525891.0 0
166000.0 525835.0 0
170000.0 525838.0 0
174000.0 525783.0 0
178000.0 525831.0 0
182000.0 525761.0 0
186000.0 525859.0 0
190000.0 525761.0 0
194000.0 525861.0 0
198000.0 525761.0 0
202000.0 525875.0 0
206000.0 525761.0 0
210000.0 525864.0 0
214000.0 525761.0 0
218000.0 525852.0 0
222000.0 525761.0 0
226000.0 525821.0 0
230000.0 525761.0 0
234000.0 525790.0 0
238000.0 525761.0 0
242000.0 525784.0 0
246000.0 525761.0 0
250000.0 525785.0 0
254000.0 525761.0 0
258000.0 525784.0 0
262000.0 525761.0 0
266000.0 525790.0 0
270000.0 525761.0 0
274000.0 525821.0 0
278000.0 525761.0 0
282000.0 525852.0 0
286000.0 525761.0 0
290000.0 525864.0 0
294000.0 525761.0 0
298000.0 525875.0 0
302000.0 525761.0 0
306000.0 525861.0 0
310000.0 525761.0 0
314000.0 525859.0 0
318000.0 525761.0 0
322000.0 525831.0 0
326000.0 525783.0 0
330000.0 525838.0 0
334000.0 525835.0 0
338000.0 525891.0 0
342000.0 525911.0 0
346000.0 525966.0 0
350000.0 525992.0 0
354000.0 525985.0 0
358000.0 526009.0 0
362000.0 526040.0 0
366000.0 525957.0 0
370000.0 525973.0 0
374000.0 525978.0 0
378000.0 525941.0 0
382000.0 525869.0 0
386000.0 525886.0 0
390000.0 525872.0 0
394000.0 525896.0 0
398000.0 525913.0 0
102000.0 529909.0 0
106000.0 529893.0 0
110000.0 529869.0 0
114000.0 529880.0 0
118000.0 529862.0 0
122000.0 529932.0 0
126000.0 529968.0 0
130000.0 529966.0 0
134000.0 529948.0 0
138000.0 530025.0 0
142000.0 529995.0 0
146000.0 529971.0 0
150000.0 529970.0 0
154000.0 529947.0 0
158000.0 529894.0 0
162000.0 529879.0 0
166000.0 529826.0 0
170000.0 529831.0 0
174000.0 529778.0 0
178000.0 529827.0 0
182000.0 529761.0 0
186000.0 529851.0 0
190000.0 529761.0 0
194000.0 529852.0 0
198000.0 529761.0 0
202000.0 529864.0 0
206000.0 529761.0 0
210000.0 529853.0 0
214000.0 529761.0 0
218000.0 529840.0 0
222000.0 529761.0 0
226000.0 529812.0 0
230000.0 529761.0 0
234000.0 529784.0 0
238000.0 529761.0 0
242000.0 529780.0 0
246000.0 529761.0 0
250000.0 529780.0 0
254000.0 529761.0 0
258000.0 529780.0 0
262000.0 529761.0 0
266000.0 529784.0 0
270000.0 529761.0 0
274000.0 529812.0 0
278000.0 529761.0 0
282000.0 529840.0 0
286000.0 529761.0 0
290000.0 529853.0 0
294000.0 529761.0 0
298000.0 529864.0 0
302000.0 529761.0 0
306000.0 529852.0 0
310000.0 529761.0 0
314000.0 529851.0 0
318000.0 529761.0 0
322000.0 529827.0 0
326000.0 529778.0 0
330000.0 529831.0 0
334000.0 529826.0 0
338000.0 529879.0 0
342000.0 529894.0 0
346000.0 529947.0 0
350000.0 529970.0 0
354000.0 529971.0 0
358000.0 529995.0 0
362000.0 530025.0 0
366000.0 529948.0 0
370000.0 529966.0 0
374000.0 529968.0 0
378000.0 529932.0 0
382000.0 529862.0 0
386000.0 529880.0 0
390000.0 529869.0 0
394000.0 529893.0 0
398000.0 529909.0 0
102000.0 533905.0 0
106000.0 533889.0 0
110000.0 533866.0 0
114000.0 533875.0 0
118000.0 533855.0 0
122000.0 533922.0 0
126000.0 533958.0 0
130000.0 533959.0 0
134000.0 533939.0 0
138000.0 534011.0 0
142000.0 533981.0 0
146000.0 533958.0 0
150000.0 533949.0 0
154000.0 533930.0 0
158000.0 533879.0 0
162000.0 533868.0 0
166000.0 533817.0 0
170000.0 533824.0 0
174000.0 533775.0 0
178000.0 533822.0 0
182000.0 533761.0 0
186000.0 533844.0 0
190000.0 533761.0 0
194000.0 533845.0 0
198000.0 533761.0 0
202000.0 533853.0 0
206000.0 533761.0 0
210000.0 533842.0 0
214000.0 533761.0 0
218000.0 533829.0 0
222000.0 533761.0 0
226000.0 533803.0 0
230000.0 533761.0 0
234000.0 533779.0 0
238000.0 533761.0 0
242000.0 533776.0 0
246000.0 533761.0 0
250000.0 533777.0 0
254000.0 533761.0 0
258000.0 533776.0 0
262000.0 533761.0 0
266000.0 533779.0 0
270000.0 533761.0 0
274000.0 533803.0 0
278000.0 533761.0 0
282000.0 533829.0 0
286000.0 533761.0 0
290000.0 533842.0 0
294000.0 533761.0 0
298000.0 533853.0 0
302000.0 533761.0 0
306000.0 533845.0 0
310000.0 533761.0 0
314000.0 533844.0 0
318000.0 533761.0 0
322000.0 533822.0 0
326000.0 533775.0 0
330000.0 533824.0 0
334000.0 533817.0 0
338000.0 533868.0 0
342000.0 533879.0 0
346000.0 533930.0 0
350000.0 533949.0 0
354000.0 533958.0 0
358000.0 533981.0 0
362000.0 534011.0 0
366000.0 533939.0 0
370000.0 533959.0 0
374000.0 533958.0 0
378000.0 533922.0 0
382000.0 533855.0 0
386000.0 533875.0 0
390000.0 533866.0 0
394000.0 533889.0 0
398000.0 533905.0 0
102000.0 537901.0 0
106000.0 537886.0 0
110000.0 537863.0 0
114000.0 537869.0 0
118000.0 537849.0 0
122000.0 537913.0 0
126000.0 537947.0 0
130000.0 537952.0 0
134000.0 537930.0 0
138000.0 537997.0 0
142000.0 537968.0 0
146000.0 537946.0 0
150000.0 537931.0 0
154000.0 537914.0 0
158000.0 537866.0 0
162000.0 537857.0 0
166000.0 537809.0 0
170000.0 537818.0 0
174000.0 537772.0 0
178000.0 537818.0 0
182000.0 537761.0 0
186000.0 537837.0 0
190000.0 537761.0 0
194000.0 537837.0 0
198000.0 537761.0 0
202000.0 537844.0 0
206000.0 537761.0 0
210000.0 537833.0 0
214000.0 537761.0 0
218000.0 537820.0 0
222000.0 537761.0 0
226000.0 537796.0 0
230000.0 537761.0 0
234000.0 537775.0 0
238000.0 537761.0 0
242000.0 537773.0 0
246000.0 537761.0 0
250000.0 537774.0 0
254000.0 537761.0 0
258000.0 537773.0 0
262000.0 537761.0 0
266000.0 537775.0 0
270000.0 537761.0 0
274000.0 537796.0 0
278000.0 537761.0 0
282000.0 537820.0 0
286000.0 537761.0 0
290000.0 537833.0 0
294000.0 537761.0 0
298000.0 537844.0 0
302000.0 537761.0 0
306000.0 537837.0 0
310000.0 537761.0 0
314000.0 537837.0 0
318000.0 537761.0 0
322000.0 537818.0 0
326000.0 537772.0 0
330000.0 537818.0 0
334000.0 537809.0 0
338000.0 537857.0 0
342000.0 537866.0 0
346000.0 537914.0 0
350000.0 537931.0 0
354000.0 537946.0 0
358000.0 537968.0 0
362000.0 537997.0 0
366000.0 537930.0 0
370000.0 537952.0 0
374000.0 537947.0 0
378000.0 537913.0 0
382000.0 537849.0 0
386000.0 537869.0 0
390000.0 537863.0 0
394000.0 537886.0 0
398000.0 537901.0 0
102000.0 541897.0 0
106000.0 541883.0 0
110000.0 541861.0 0
114000.0 541865.0 0
118000.0 541843.0 0
122000.0 541904.0 0
126000.0 541937.0 0
130000.0 541944.0 0
134000.0 541922.0 0
138000.0 541984.0 0
142000.0 541954.0 0
146000.0 541933.0 0
150000.0 541913.0 0
154000.0 541899.0 0
158000.0 541853.0 0
162000.0 541848.0 0
166000.0 541801.0 0
170000.0 541812.0 0
174000.0 541769.0 0
178000.0 541814.0 0
182000.0 541761.0 0
186000.0 541830.0 0
190000.0 541761.0 0
194000.0 541830.0 0
198000.0 541761.0 0
202000.0 541835.0 0
206000.0 541761.0 0
210000.0 541824.0 0
214000.0 541761.0 0
218000.0 541812.0 0
222000.0 541761.0 0
226000.0 541790.0 0
230000.0 541761.0 0
234000.0 541772.0 0
238000.0 541761.0 0
242000.0 541771.0 0
246000.0 541761.0 0
250000.0 541771.0 0
254000.0 541761.0 0
258000.0 541771.0 0
262000.0 541761.0 0
266000.0 541772.0 0
270000.0 541761.0 0
274000.0 541790.0 0
278000.0 541761.0 0
282000.0 541812.0 0
286000.0 541761.0 0
290000.0 541824.0 0
294000.0 541761.0 0
298000.0 541835.0 0
302000.0 541761.0 0
306000.0 541830.0 0
310000.0 541761.0 0
314000.0 541830.0 0
318000.0 541761.0 0
322000.0 541814.0 0
326000.0 541769.0 0
330000.0 541812.0 0
334000.0 541801.0 0
338000.0 541848.0 0
342000.0 541853.0 0
346000.0 541899.0 0
350000.0 541913.0 0
354000.0 541933.0 0
358000.0 541954.0 0
362000.0 541984.0 0
366000.0 541922.0 0
370000.0 541944.0 0
374000.0 541937.0 0
378000.0 541904.0 0
382000.0 541843.0 0
386000.0 541865.0 0
390000.0 541861.0 0
394000.0 541883.0 0
398000.0 541897.0 0
102000.0 545892.0 0
106000.0 545879.0 0
110000.0 545858.0 0
114000.0 545860.0 0
118000.0 545838.0 0
122000.0 545896.0 0
126000.0 545927.0 0
130000.0 545937.0 0
134000.0 545914.0 0
138000.0 545972.0 0
142000.0 545941.0 0
146000.0 545921.0 0
150000.0 545897.0 0
154000.0 545886.0 0
158000.0 545842.0 0
162000.0 545839.0 0
166000.0 545795.0 0
170000.0 545808.0 0
174000.0 545767.0 0
178000.0 545810.0 0
182000.0 545761.0 0
186000.0 545824.0 0
190000.0 545761.0 0
194000.0 545824.0 0
198000.0 545761.0 0
202000.0 545827.0 0
206000.0 545761.0 0
210000.0 545817.0 0
214000.0 545761.0 0
218000.0 545804.0 0
222000.0 545761.0 0
226000.0 545785.0 0
230000.0 545761.0 0
234000.0 545770.0 0
238000.0 545761.0 0
242000.0 545769.0 0
246000.0 545761.0 0
250000.0 545769.0 0
254000.0 545761.0 0
258000.0 545769.0 0
262000.0 545761.0 0
266000.0 545770.0 0
270000.0 545761.0 0
274000.0 545785.0 0
278000.0 545761.0 0
282000.0 545804.0 0
286000.0 545761.0 0
290000.0 545817.0 0
294000.0 545761.0 0
298000.0 545827.0 0
302000.0 545761.0 0
306000.0 545824.0 0
310000.0 545761.0 0
314000.0 545824.0 0
318000.0 545761.0 0
322000.0 545810.0 0
326000.0 545767.0 0
330000.0 545808.0 0
334000.0 545795.0 0
338000.0 545839.0 0
342000.0 545842.0 0
346000.0 545886.0 0
350000.0 545897.0 0
354000.0 545921.0 0
358000.0 545941.0 0
362000.0 545972.0 0
366000.0 545914.0 0
370000.0 545937.0 0
374000.0 545927.0 0
378000.0 545896.0 0
382000.0 545838.0 0
386000.0 545860.0 0
390000.0 545858.0 0
394000.0 545879.0 0
398000.0 545892.0 0
102000.0 549888.0 0
106000.0 549876.0 0
110000.0 549856.0 0
114000.0 549856.0 0
118000.0 549833.0 0
122000.0 549889.0 0
126000.0 549918.0 0
130000.0 549929.0 0
134000.0 549906.0 0
138000.0 549961.0 0
142000.0 549929.0 0
146000.0 549910.0 0
150000.0 549883.0 0
154000.0 549873.0 0
158000.0 549832.0 0
162000.0 549832.0 0
166000.0 549790.0 0
170000.0 549804.0 0
174000.0 549766.0 0
178000.0 549807.0 0
182000.0 549761.0 0
186000.0 549818.0 0
190000.0 549761.0 0
194000.0 549818.0 0
198000.0 549761.0 0
202000.0 549820.0 0
206000.0 549761.0 0
210000.0 549810.0 0
214000.0 549761.0 0
218000.0 549798.0 0
222000.0 549761.0 0
226000.0 549780.0 0
230000.0 549761.0 0
234000.0 549768.0 0
238000.0 549761.0 0
242000.0 549767.0 0
246000.0 549761.0 0
250000.0 549768.0 0
254000.0 549761.0 0
258000.0 549767.0 0
262000.0 549761.0 0
266000.0 549768.0 0
270000.0 549761.0 0
274000.0 549780.0 0
278000.0 549761.0 0
282000.0 549798.0 0
286000.0 549761.0 0
290000.0 549810.0 0
294000.0 549761.0 0
298000.0 549820.0 0
302000.0 549761.0 0
306000.0 549818.0 0
310000.0 549761.0 0
314000.0 549818.0 0
318000.0 549761.0 0
322000.0 549807.0 0
326000.0 549766.0 0
330000.0 549804.0 0
334000.0 549790.0 0
338000.0 549832.0 0
342000.0 549832.0 0
346000.0 549873.0 0
350000.0 549883.0 0
354000.0 549910.0 0
358000.0 549929.0 0
362000.0 549961.0 0
366000.0 549906.0 0
370000.0 549929.0 0
374000.0 549918.0 0
378000.0 549889.0 0
382000.0 549833.0 0
386000.0 549856.0 0
390000.0 549856.0 0
394000.0 549876.0 0
398000.0 549888.0 0
102000.0 553884.0 0
106000.0 553872.0 0
110000.0 553854.0 0
114000.0 553852.0 0
118000.0 553828.0 0
122000.0 553881.0 0
126000.0 553909.0 0
130000.0 553922.0 0
134000.0 553898.0 0
138000.0 553949.0 0
142000.0 553917.0 0
146000.0 553899.0 0
150000.0 553870.0 0
154000.0 553863.0 0
158000.0 553823.0 0
162000.0 553825.0 0
166000.0 553785.0 0
170000.0 553800.0 0
174000.0 553764.0 0
178000.0 553804.0 0
182000.0 553761.0 0
186000.0 553813.0 0
190000.0 553761.0 0
194000.0 553813.0 0
198000.0 553761.0 0
202000.0 553814.0 0
206000.0 553761.0 0
210000.0 553804.0 0
214000.0 553761.0 0
218000.0 553792.0 0
222000.0 553761.0 0
226000.0 553776.0 0
230000.0 553761.0 0
234000.0 553766.0 0
238000.0 553761.0 0
242000.0 553766.0 0
246000.0 553761.0 0
250000.0 553766.0 0
254000.0 553761.0 0
258000.0 553766.0 0
262000.0 553761.0 0
266000.0 553766.0 0
270000.0 553761.0 0
274000.0 553776.0 0
278000.0 553761.0 0
282000.0 553792.0 0
286000.0 553761.0 0
290000.0 553804.0 0
294000.0 553761.0 0
298000.0 553814.0 0
302000.0 553761.0 0
306000.0 553813.0 0
310000.0 553761.0 0
314000.0 553813.0 0
318000.0 553761.0 0
322000.0 553804.0 0
326000.0 553764.0 0
330000.0 553800.0 0
334000.0 553785.0 0
338000.0 553825.0 0
342000.0 553823.0 0
346000.0 553863.0 0
350000.0 553870.0 0
354000.0 553899.0 0
358000.0 553917.0 0
362000.0 553949.0 0
366000.0 553898.0 0
370000.0 553922.0 0
374000.0 553909.0 0
378000.0 553881.0 0
382000.0 553828.0 0
386000.0 553852.0 0
390000.0 553854.0 0
394000.0 553872.0 0
398000.0 553884.0 0
102000.0 557880.0 0
106000.0 557869.0 0
110000.0 557851.0 0
114000.0 557848.0 0
118000.0 557824.0 0
122000.0 557875.0 0
126000.0 557900.0 0
130000.0 557915.0 0
134000.0 557891.0 0
138000.0 557939.0 0
142000.0 557905.0 0
146000.0 557888.0 0
150000.0 557858.0 0
154000.0 557853.0 0
158000.0 557815.0 0
162000.0 557819.0 0
166000.0 557781.0 0
170000.0 557797.0 0
174000.0 557763.0 0
178000.0 557800.0 0
182000.0 557761.0 0
186000.0 557809.0 0
190000.0 557761.0 0
194000.0 557808.0 0
198000.0 557761.0 0
202000.0 557808.0 0
206000.0 557761.0 0
210000.0 557798.0 0
214000.0 557761.0 0
218000.0 557788.0 0
222000.0 557761.0 0
226000.0 557773.0 0
230000.0 557761.0 0
234000.0 557765.0 0
238000.0 557761.0 0
242000.0 557765.0 0
246000.0 557761.0 0
250000.0 557765.0 0
254000.0 557761.0 0
258000.0 557765.0 0
262000.0 557761.0 0
266000.0 557765.0 0
270000.0 557761.0 0
274000.0 557773.0 0
278000.0 557761.0 0
282000.0 557788.0 0
286000.0 557761.0 0
290000.0 557798.0 0
294000.0 557761.0 0
298000.0 557808.0 0
302000.0 557761.0 0
306000.0 557808.0 0
310000.0 557761.0 0
314000.0 557809.0 0
318000.0 557761.0 0
322000.0 557800.0 0
326000.0 557763.0 0
330000.0 557797.0 0
334000.0 557781.0 0
338000.0 557819.0 0
342000.0 557815.0 0
346000.0 557853.0 0
350000.0 557858.0 0
354000.0 557888.0 0
358000.0 557905.0 0
362000.0 557939.0 0
366000.0 557891.0 0
370000.0 557915.0 0
374000.0 557900.0 0
378000.0 557875.0 0
382000.0 557824.0 0
386000.0 557848.0 0
390000.0 557851.0 0
394000.0 557869.0 0
398000.0 557880.0 0
102000.0 561876.0 0
106000.0 561866.0 0
110000.0 561849.0 0
114000.0 561844.0 0
118000.0 561820.0 0
122000.0 561869.0 0
126000.0 561892.0 0
130000.0 561908.0 0
134000.0 561884.0 0
138000.0 561929.0 0
142000.0 561895.0 0
146000.0 561879.0 0
150000.0 561848.0 0
154000.0 561844.0 0
158000.0 561809.0 0
162000.0 561813.0 0
166000.0 561778.0 0
170000.0 561794.0 0
174000.0 561763.0 0
178000.0 561797.0 0
182000.0 561761.0 0
186000.0 561804.0 0
190000.0 561761.0 0
194000.0 561804.0 0
198000.0 561761.0 0
202000.0 561803.0 0
206000.0 561761.0 0
210000.0 561793.0 0
214000.0 561761.0 0
218000.0 561783.0 0
222000.0 561761.0 0
226000.0 561771.0 0
230000.0 561761.0 0
234000.0 561764.0 0
238000.0 561761.0 0
242000.0 561764.0 0
246000.0 561761.0 0
250000.0 561764.0 0
254000.0 561761.0 0
258000.0 561764.0 0
262000.0 561761.0 0
266000.0 561764.0 0
270000.0 561761.0 0
274000.0 561771.0 0
278000.0 561761.0 0
282000.0 561783.0 0
286000.0 561761.0 0
290000.0 561793.0 0
294000.0 561761.0 0
298000.0 561803.0 0
302000.0 561761.0 0
306000.0 561804.0 0
310000.0 561761.0 0
314000.0 561804.0 0
318000.0 561761.0 0
322000.0 561797.0 0
326000.0 561763.0 0
330000.0 561794.0 0
334000.0 561778.0 0
338000.0 561813.0 0
342000.0 561809.0 0
346000.0 561844.0 0
350000.0 561848.0 0
354000.0 561879.0 0
358000.0 561895.0 0
362000.0 561929.0 0
366000.0 561884.0 0
370000.0 561908.0 0
374000.0 561892.0 0
378000.0 561869.0 0
382000.0 561820.0 0
386000.0 561844.0 0
390000.0 561849.0 0
394000.0 561866.0 0
398000.0 561876.0 0
166000.0 565775.0 0
174000.0 565762.0 0
182000.0 565761.0 0
190000.0 565761.0 0
198000.0 565761.0 0
206000.0 565761.0 0
210000.0 565789.0 0
214000.0 565761.0 0
218000.0 565780.0 0
222000.0 565761.0 0
226000.0 565769.0 0
230000.0 565761.0 0
234000.0 565763.0 0
238000.0 565761.0 0
242000.0 565763.0 0
246000.0 565761.0 0
250000.0 565764.0 0
254000.0 565761.0 0
258000.0 565763.0 0
262000.0 565761.0 0
266000.0 565763.0 0
270000.0 565761.0 0
274000.0 565769.0 0
278000.0 565761.0 0
282000.0 565780.0 0
286000.0 565761.0 0
290000.0 565789.0 0
294000.0 565761.0 0
302000.0 565761.0 0
310000.0 565761.0 0
318000.0 565761.0 0
326000.0 565762.0 0
334000.0 565775.0 0
102000.0 565872.0 0
106000.0 565863.0 0
110000.0 565847.0 0
114000.0 565841.0 0
118000.0 565817.0 0
122000.0 565863.0 0
126000.0 565884.0 0
130000.0 565902.0 0
134000.0 565877.0 0
138000.0 565919.0 0
142000.0 565884.0 0
146000.0 565870.0 0
150000.0 565838.0 0
154000.0 565836.0 0
158000.0 565802.0 0
162000.0 565808.0 0
170000.0 565791.0 0
178000.0 565795.0 0
186000.0 565800.0 0
194000.0 565800.0 0
202000.0 565798.0 0
298000.0 565798.0 0
306000.0 565800.0 0
314000.0 565800.0 0
322000.0 565795.0 0
330000.0 565791.0 0
338000.0 565808.0 0
342000.0 565802.0 0
346000.0 565836.0 0
350000.0 565838.0 0
354000.0 565870.0 0
358000.0 565884.0 0
362000.0 565919.0 0
366000.0 565877.0 0
370000.0 565902.0 0
374000.0 565884.0 0
378000.0 565863.0 0
382000.0 565817.0 0
386000.0 565841.0 0
390000.0 565847.0 0
394000.0 565863.0 0
398000.0 565872.0 0
102000.0 569868.0 0
106000.0 569860.0 0
110000.0 569845.0 0
114000.0 569838.0 0
118000.0 569814.0 0
122000.0 569858.0 0
126000.0 569877.0 0
130000.0 569895.0 0
134000.0 569871.0 0
138000.0 569910.0 0
142000.0 569875.0 0
146000.0 569862.0 0
150000.0 569830.0 0
154000.0 569829.0 0
158000.0 569797.0 0
162000.0 569804.0 0
166000.0 569773.0 0
170000.0 569789.0 0
174000.0 569762.0 0
178000.0 569792.0 0
182000.0 569761.0 0
186000.0 569797.0 0
190000.0 569761.0 0
194000.0 569796.0 0
198000.0 569761.0 0
202000.0 569794.0 0
206000.0 569761.0 0
210000.0 569785.0 0
214000.0 569761.0 0
218000.0 569777.0 0
222000.0 569761.0 0
226000.0 569767.0 0
230000.0 569761.0 0
234000.0 569763.0 0
238000.0 569761.0 0
242000.0 569763.0 0
246000.0 569761.0 0
250000.0 569763.0 0
254000.0 569761.0 0
258000.0 569763.0 0
262000.0 569761.0 0
266000.0 569763.0 0
270000.0 569761.0 0
274000.0 569767.0 0
278000.0 569761.0 0
282000.0 569777.0 0
286000.0 569761.0 0
290000.0 569785.0 0
294000.0 569761.0 0
298000.0 569794.0 0
302000.0 569761.0 0
306000.0 569796.0 0
310000.0 569761.0 0
314000.0 569797.0 0
318000.0 569761.0 0
322000.0 569792.0 0
326000.0 569762.0 0
330000.0 569789.0 0
334000.0 569773.0 0
338000.0 569804.0 0
342000.0 569797.0 0
346000.0 569829.0 0
350000.0 569830.0 0
354000.0 569862.0 0
358000.0 569875.0 0
362000.0 569910.0 0
366000.0 569871.0 0
370000.0 569895.0 0
374000.0 569877.0 0
378000.0 569858.0 0
382000.0 569814.0 0
386000.0 569838.0 0
390000.0 569845.0 0
394000.0 569860.0 0
398000.0 569868.0 0
102000.0 573865.0 0
106000.0 573857.0 0
110000.0 573843.0 0
114000.0 573835.0 0
118000.0 573811.0 0
122000.0 573854.0 0
126000.0 573871.0 0
130000.0 573889.0 0
134000.0 573865.0 0
138000.0 573902.0 0
142000.0 573866.0 0
146000.0 573854.0 0
150000.0 573822.0 0
154000.0 573823.0 0
158000.0 573793.0 0
162000.0 573800.0 0
166000.0 573771.0 0
170000.0 573787.0 0
174000.0 573761.0 0
178000.0 573790.0 0
182000.0 573761.0 0
186000.0 573793.0 0
190000.0 573761.0 0
194000.0 573793.0 0
198000.0 573761.0 0
202000.0 573790.0 0
206000.0 573761.0 0
210000.0 573782.0 0
214000.0 573761.0 0
218000.0 573774.0 0
222000.0 573761.0 0
226000.0 573766.0 0
230000.0 573761.0 0
234000.0 573762.0 0
238000.0 573761.0 0
242000.0 573762.0 0
246000.0 573761.0 0
250000.0 573762.0 0
254000.0 573761.0 0
258000.0 573762.0 0
262000.0 573761.0 0
266000.0 573762.0 0
270000.0 573761.0 0
274000.0 573766.0 0
278000.0 573761.0 0
282000.0 573774.0 0
286000.0 573761.0 0
290000.0 573782.0 0
294000.0 573761.0 0
298000.0 573790.0 0
302000.0 573761.0 0
306000.0 573793.0 0
310000.0 573761.0 0
314000.0 573793.0 0
318000.0 573761.0 0
322000.0 573790.0 0
326000.0 573761.0 0
330000.0 573787.0 0
334000.0 573771.0 0
338000.0 573800.0 0
342000.0 573793.0 0
346000.0 573823.0 0
350000.0 573822.0 0
354000.0 573854.0 0
358000.0 573866.0 0
362000.0 573902.0 0
366000.0 573865.0 0
370000.0 573889.0 0
374000.0 573871.0 0
378000.0 573854.0 0
382000.0 573811.0 0
386000.0 573835.0 0
390000.0 573843.0 0
394000.0 573857.0 0
398000.0 573865.0 0
102000.0 577862.0 0
106000.0 577855.0 0
110000.0 577841.0 0
114000.0 577832.0 0
118000.0 577809.0 0
122000.0 577849.0 0
126000.0 577864.0 0
130000.0 577884.0 0
134000.0 577860.0 0
138000.0 577894.0 0
142000.0 577858.0 0
146000.0 577847.0 0
150000.0 577816.0 0
154000.0 577818.0 0
158000.0 577789.0 0
162000.0 577797.0 0
166000.0 577769.0 0
170000.0 577785.0 0
174000.0 577761.0 0
178000.0 577787.0 0
182000.0 577761.0 0
186000.0 577790.0 0
190000.0 577761.0 0
194000.0 577790.0 0
198000.0 577761.0 0
202000.0 577786.0 0
206000.0 577761.0 0
210000.0 577779.0 0
214000.0 577761.0 0
218000.0 577772.0 0
222000.0 577761.0 0
226000.0 577765.0 0
230000.0 577761.0 0
234000.0 577762.0 0
238000.0 577761.0 0
242000.0 577762.0 0
246000.0 577761.0 0
250000.0 577762.0 0
254000.0 577761.0 0
258000.0 577762.0 0
262000.0 577761.0 0
266000.0 577762.0 0
270000.0 577761.0 0
274000.0 577765.0 0
278000.0 577761.0 0
282000.0 577772.0 0
286000.0 577761.0 0
290000.0 577779.0 0
294000.0 577761.0 0
298000.0 577786.0 0
302000.0 577761.0 0
306000.0 577790.0 0
310000.0 577761.0 0
314000.0 577790.0 0
318000.0 577761.0 0
322000.0 577787.0 0
326000.0 577761.0 0
330000.0 577785.0 0
334000.0 577769.0 0
338000.0 577797.0 0
342000.0 577789.0 0
346000.0 577818.0 0
350000.0 577816.0 0
354000.0 577847.0 0
358000.0 577858.0 0
362000.0 577894.0 0
366000.0 577860.0 0
370000.0 577884.0 0
374000.0 577864.0 0
378000.0 577849.0 0
382000.0 577809.0 0
386000.0 577832.0 0
390000.0 577841.0 0
394000.0 577855.0 0
398000.0 577862.0 0
102000.0 581858.0 0
106000.0 581852.0 0
110000.0 581839.0 0
114000.0 581829.0 0
118000.0 581807.0 0
122000.0 581846.0 0
126000.0 581859.0 0
130000.0 581879.0 0
134000.0 581855.0 0
138000.0 581887.0 0
142000.0 581851.0 0
146000.0 581841.0 0
150000.0 581810.0 0
154000.0 581813.0 0
158000.0 581785.0 0
162000.0 581794.0 0
166000.0 581768.0 0
170000.0 581784.0 0
174000.0 581761.0 0
178000.0 581785.0 0
182000.0 581761.0 0
186000.0 581788.0 0
190000.0 581761.0 0
194000.0 581787.0 0
198000.0 581761.0 0
202000.0 581783.0 0
206000.0 581761.0 0
210000.0 581776.0 0
214000.0 581761.0 0
218000.0 581770.0 0
222000.0 581761.0 0
226000.0 581764.0 0
230000.0 581761.0 0
234000.0 581761.0 0
238000.0 581761.0 0
242000.0 581762.0 0
246000.0 581761.0 0
250000.0 581762.0 0
254000.0 581761.0 0
258000.0 581762.0 0
262000.0 581761.0 0
266000.0 581761.0 0
270000.0 581761.0 0
274000.0 581764.0 0
278000.0 581761.0 0
282000.0 581770.0 0
286000.0 581761.0 0
290000.0 581776.0 0
294000.0 581761.0 0
298000.0 581783.0 0
302000.0 581761.0 0
306000.0 581787.0 0
310000.0 581761.0 0
314000.0 581788.0 0
318000.0 581761.0 0
322000.0 581785.0 0
326000.0 581761.0 0
330000.0 581784.0 0
334000.0 581768.0 0
338000.0 581794.0 0
342000.0 581785.0 0
346000.0 581813.0 0
350000.0 581810.0 0
354000.0 581841.0 0
358000.0 581851.0 0
362000.0 581887.0 0
366000.0 581855.0 0
370000.0 581879.0 0
374000.0 581859.0 0
378000.0 581846.0 0
382000.0 581807.0 0
386000.0 581829.0 0
390000.0 581839.0 0
394000.0 581852.0 0
398000.0 581858.0 0
102000.0 585856.0 0
106000.0 585850.0 0
110000.0 585837.0 0
114000.0 585827.0 0
118000.0 585805.0 0
122000.0 585842.0 0
126000.0 585854.0 0
130000.0 585874.0 0
134000.0 585850.0 0
138000.0 585880.0 0
142000.0 585844.0 0
146000.0 585835.0 0
150000.0 585805.0 0
154000.0 585809.0 0
158000.0 585782.0 0
162000.0 585792.0 0
166000.0 585767.0 0
170000.0 585782.0 0
174000.0 585761.0 0
178000.0 585783.0 0
182000.0 585761.0 0
186000.0 585785.0 0
190000.0 585761.0 0
194000.0 585784.0 0
198000.0 585761.0 0
202000.0 585781.0 0
206000.0 585761.0 0
210000.0 585774.0 0
214000.0 585761.0 0
218000.0 585768.0 0
222000.0 585761.0 0
226000.0 585763.0 0
230000.0 585761.0 0
234000.0 585761.0 0
238000.0 585761.0 0
242000.0 585761.0 0
246000.0 585761.0 0
250000.0 585762.0 0
254000.0 585761.0 0
258000.0 585761.0 0
262000.0 585761.0 0
266000.0 585761.0 0
270000.0 585761.0 0
274000.0 585763.0 0
278000.0 585761.0 0
282000.0 585768.0 0
286000.0 585761.0 0
290000.0 585774.0 0
294000.0 585761.0 0
298000.0 585781.0 0
302000.0 585761.0 0
306000.0 585784.0 0
310000.0 585761.0 0
314000.0 585785.0 0
318000.0 585761.0 0
322000.0 585783.0 0
326000.0 585761.0 0
330000.0 585782.0 0
334000.0 585767.0 0
338000.0 585792.0 0
342000.0 585782.0 0
346000.0 585809.0 0
350000.0 585805.0 0
354000.0 585835.0 0
358000.0 585844.0 0
362000.0 585880.0 0
366000.0 585850.0 0
370000.0 585874.0 0
374000.0 585854.0 0
378000.0 585842.0 0
382000.0 585805.0 0
386000.0 585827.0 0
390000.0 585837.0 0
394000.0 585850.0 0
398000.0 585856.0 0
102000.0 589853.0 0
106000.0 589848.0 0
110000.0 589836.0 0
114000.0 589824.0 0
118000.0 589803.0 0
122000.0 589840.0 0
126000.0 589849.0 0
130000.0 589869.0 0
134000.0 589846.0 0
138000.0 589874.0 0
142000.0 589838.0 0
146000.0 589830.0 0
150000.0 589801.0 0
154000.0 589805.0 0
158000.0 589779.0 0
162000.0 589789.0 0
166000.0 589766.0 0
170000.0 589781.0 0
174000.0 589761.0 0
178000.0 589782.0 0
182000.0 589761.0 0
186000.0 589783.0 0
190000.0 589761.0 0
194000.0 589782.0 0
198000.0 589761.0 0
202000.0 589778.0 0
206000.0 589761.0 0
210000.0 589772.0 0
214000.0 589761.0 0
218000.0 589767.0 0
222000.0 589761.0 0
226000.0 589762.0 0
230000.0 589761.0 0
234000.0 589761.0 0
238000.0 589761.0 0
242000.0 589761.0 0
246000.0 589761.0 0
250000.0 589761.0 0
254000.0 589761.0 0
258000.0 589761.0 0
262000.0 589761.0 0
266000.0 589761.0 0
270000.0 589761.0 0
274000.0 589762.0 0
278000.0 589761.0 0
282000.0 589767.0 0
286000.0 589761.0 0
290000.0 589772.0 0
294000.0 589761.0 0
298000.0 589778.0 0
302000.0 589761.0 0
306000.0 589782.0 0
310000.0 589761.0 0
314000.0 589783.0 0
318000.0 589761.0 0
322000.0 589782.0 0
326000.0 589761.0 0
330000.0 589781.0 0
334000.0 589766.0 0
338000.0 589789.0 0
342000.0 589779.0 0
346000.0 589805.0 0
350000.0 589801.0 0
354000.0 589830.0 0
358000.0 589838.0 0
362000.0 589874.0 0
366000.0 589846.0 0
370000.0 589869.0 0
374000.0 589849.0 0
378000.0 589840.0 0
382000.0 589803.0 0
386000.0 589824.0 0
390000.0 589836.0 0
394000.0 589848.0 0
398000.0 589853.0 0
102000.0 593851.0 0
106000.0 593846.0 0
110000.0 593834.0 0
114000.0 593822.0 0
118000.0 593801.0 0
122000.0 593837.0 0
126000.0 593845.0 0
130000.0 593865.0 0
134000.0 593842.0 0
138000.0 593868.0 0
142000.0 593832.0 0
146000.0 593826.0 0
150000.0 593797.0 0
154000.0 593802.0 0
158000.0 593777.0 0
162000.0 593788.0 0
166000.0 593765.0 0
170000.0 593780.0 0
174000.0 593761.0 0
178000.0 593780.0 0
182000.0 593761.0 0
186000.0 593781.0 0
190000.0 593761.0 0
194000.0 593780.0 0
198000.0 593761.0 0
202000.0 593776.0 0
206000.0 593761.0 0
210000.0 593771.0 0
214000.0 593761.0 0
218000.0 593766.0 0
222000.0 593761.0 0
226000.0 593762.0 0
230000.0 593761.0 0
234000.0 593761.0 0
238000.0 593761.0 0
242000.0 593761.0 0
246000.0 593761.0 0
250000.0 593761.0 0
254000.0 593761.0 0
258000.0 593761.0 0
262000.0 593761.0 0
266000.0 593761.0 0
270000.0 593761.0 0
274000.0 593762.0 0
278000.0 593761.0 0
282000.0 593766.0 0
286000.0 593761.0 0
290000.0 593771.0 0
294000.0 593761.0 0
298000.0 593776.0 0
302000.0 593761.0 0
306000.0 593780.0 0
310000.0 593761.0 0
314000.0 593781.0 0
318000.0 593761.0 0
322000.0 593780.0 0
326000.0 593761.0 0
330000.0 593780.0 0
334000.0 593765.0 0
338000.0 593788.0 0
342000.0 593777.0 0
346000.0 593802.0 0
350000.0 593797.0 0
354000.0 593826.0 0
358000.0 593832.0 0
362000.0 593868.0 0
366000.0 593842.0 0
370000.0 593865.0 0
374000.0 593845.0 0
378000.0 593837.0 0
382000.0 593801.0 0
386000.0 593822.0 0
390000.0 593834.0 0
394000.0 593846.0 0
398000.0 593851.0 0
102000.0 597849.0 0
106000.0 597845.0 0
110000.0 597833.0 0
114000.0 597820.0 0
118000.0 597800.0 0
122000.0 597835.0 0
126000.0 597842.0 0
130000.0 597862.0 0
134000.0 597838.0 0
138000.0 597863.0 0
142000.0 597828.0 0
146000.0 597822.0 0
150000.0 597793.0 0
154000.0 597799.0 0
158000.0 597775.0 0
162000.0 597786.0 0
166000.0 597764.0 0
170000.0 597779.0 0
174000.0 597761.0 0
178000.0 597779.0 0
182000.0 597761.0 0
186000.0 597780.0 0
190000.0 597761.0 0
194000.0 597778.0 0
198000.0 597761.0 0
202000.0 597775.0 0
206000.0 597761.0 0
210000.0 597769.0 0
214000.0 597761.0 0
218000.0 597765.0 0
222000.0 597761.0 0
226000.0 597762.0 0
230000.0 597761.0 0
234000.0 597761.0 0
238000.0 597761.0 0
242000.0 597761.0 0
246000.0 597761.0 0
250000.0 597761.0 0
254000.0 597761.0 0
258000.0 597761.0 0
262000.0 597761.0 0
266000.0 597761.0 0
270000.0 597761.0 0
274000.0 597762.0 0
278000.0 597761.0 0
282000.0 597765.0 0
286000.0 597761.0 0
290000.0 597769.0 0
294000.0 597761.0 0
298000.0 597775.0 0
302000.0 597761.0 0
306000.0 597778.0 0
310000.0 597761.0 0
314000.0 597780.0 0
318000.0 597761.0 0
322000.0 597779.0 0
326000.0 597761.0 0
330000.0 597779.0 0
334000.0 597764.0 0
338000.0 597786.0 0
342000.0 597775.0 0
346000.0 597799.0 0
350000.0 597793.0 0
354000.0 597822.0 0
358000.0 597828.0 0
362000.0 597863.0 0
366000.0 597838.0 0
370000.0 597862.0 0
374000.0 597842.0 0
378000.0 597835.0 0
382000.0 597800.0 0
386000.0 597820.0 0
390000.0 597833.0 0
394000.0 597845.0 0
398000.0 597849.0 0
102000.0 601847.0 0
106000.0 601843.0 0
110000.0 601832.0 0
114000.0 601819.0 0
118000.0 601799.0 0
122000.0 601833.0 0
126000.0 601839.0 0
130000.0 601859.0 0
134000.0 601835.0 0
138000.0 601859.0 0
142000.0 601823.0 0
146000.0 601818.0 0
150000.0 601791.0 0
154000.0 601797.0 0
158000.0 601774.0 0
162000.0 601785.0 0
166000.0 601764.0 0
170000.0 601778.0 0
174000.0 601761.0 0
178000.0 601778.0 0
182000.0 601761.0 0
186000.0 601778.0 0
190000.0 601761.0 0
194000.0 601777.0 0
198000.0 601761.0 0
202000.0 601773.0 0
206000.0 601761.0 0
210000.0 601768.0 0
214000.0 601761.0 0
218000.0 601764.0 0
222000.0 601761.0 0
226000.0 601761.0 0
230000.0 601761.0 0
234000.0 601761.0 0
238000.0 601761.0 0
242000.0 601761.0 0
246000.0 601761.0 0
250000.0 601761.0 0
254000.0 601761.0 0
258000.0 601761.0 0
262000.0 601761.0 0
266000.0 601761.0 0
270000.0 601761.0 0
274000.0 601761.0 0
278000.0 601761.0 0
282000.0 601764.0 0
286000.0 601761.0 0
290000.0 601768.0 0
294000.0 601761.0 0
298000.0 601773.0 0
302000.0 601761.0 0
306000.0 601777.0 0
310000.0 601761.0 0
314000.0 601778.0 0
318000.0 601761.0 0
322000.0 601778.0 0
326000.0 601761.0 0
330000.0 601778.0 0
334000.0 601764.0 0
338000.0 601785.0 0
342000.0 601774.0 0
346000.0 601797.0 0
350000.0 601791.0 0
354000.0 601818.0 0
358000.0 601823.0 0
362000.0 601859.0 0
366000.0 601835.0 0
370000.0 601859.0 0
374000.0 601839.0 0
378000.0 601833.0 0
382000.0 601799.0 0
386000.0 601819.0 0
390000.0 601832.0 0
394000.0 601843.0 0
398000.0 601847.0 0
102000.0 605845.0 0
106000.0 605842.0 0
110000.0 605831.0 0
114000.0 605817.0 0
118000.0 605798.0 0
122000.0 605831.0 0
126000.0 605836.0 0
130000.0 605856.0 0
134000.0 605833.0 0
138000.0 605855.0 0
142000.0 605820.0 0
146000.0 605815.0 0
150000.0 605788.0 0
154000.0 605795.0 0
158000.0 605773.0 0
162000.0 605783.0 0
166000.0 605763.0 0
170000.0 605777.0 0
174000.0 605761.0 0
178000.0 605777.0 0
182000.0 605761.0 0
186000.0 605777.0 0
190000.0 605761.0 0
194000.0 605776.0 0
198000.0 605761.0 0
202000.0 605772.0 0
206000.0 605761.0 0
210000.0 605767.0 0
214000.0 605761.0 0
218000.0 605763.0 0
222000.0 605761.0 0
226000.0 605761.0 0
230000.0 605761.0 0
234000.0 605761.0 0
238000.0 605761.0 0
242000.0 605761.0 0
246000.0 605761.0 0
250000.0 605761.0 0
254000.0 605761.0 0
258000.0 605761.0 0
262000.0 605761.0 0
266000.0 605761.0 0
270000.0 605761.0 0
274000.0 605761.0 0
278000.0 605761.0 0
282000.0 605763.0 0
286000.0 605761.0 0
290000.0 605767.0 0
294000.0 605761.0 0
298000.0 605772.0 0
302000.0 605761.0 0
306000.0 605776.0 0
310000.0 605761.0 0
314000.0 605777.0 0
318000.0 605761.0 0
322000.0 605777.0 0
326000.0 605761.0 0
330000.0 605777.0 0
334000.0 605763.0 0
338000.0 605783.0 0
342000.0 605773.0 0
346000.0 605795.0 0
350000.0 605788.0 0
354000.0 605815.0 0
358000.0 605820.0 0
362000.0 605855.0 0
366000.0 605833.0 0
370000.0 605856.0 0
374000.0 605836.0 0
378000.0 605831.0 0
382000.0 605798.0 0
386000.0 605817.0 0
390000.0 605831.0 0
394000.0 605842.0 0
398000.0 605845.0 0
102000.0 609844.0 0
106000.0 609841.0 0
110000.0 609830.0 0
114000.0 609816.0 0
118000.0 609797.0 0
122000.0 609830.0 0
126000.0 609834.0 0
130000.0 609854.0 0
134000.0 609830.0 0
138000.0 609852.0 0
142000.0 609817.0 0
146000.0 609813.0 0
150000.0 609786.0 0
154000.0 609793.0 0
158000.0 609772.0 0
162000.0 609783.0 0
166000.0 609763.0 0
170000.0 609777.0 0
174000.0 609761.0 0
178000.0 609776.0 0
182000.0 609761.0 0
186000.0 609776.0 0
190000.0 609761.0 0
194000.0 609775.0 0
198000.0 609761.0 0
202000.0 609771.0 0
206000.0 609761.0 0
210000.0 609766.0 0
214000.0 609761.0 0
218000.0 609763.0 0
222000.0 609761.0 0
226000.0 609761.0 0
230000.0 609761.0 0
234000.0 609761.0 0
238000.0 609761.0 0
242000.0 609761.0 0
246000.0 609761.0 0
250000.0 609761.0 0
254000.0 609761.0 0
258000.0 609761.0 0
262000.0 609761.0 0
266000.0 609761.0 0
270000.0 609761.0 0
274000.0 609761.0 0
278000.0 609761.0 0
282000.0 609763.0 0
286000.0 609761.0 0
290000.0 609766.0 0
294000.0 609761.0 0
298000.0 609771.0 0
302000.0 609761.0 0
306000.0 609775.0 0
310000.0 609761.0 0
314000.0 609776.0 0
318000.0 609761.0 0
322000.0 609776.0 0
326000.0 609761.0 0
330000.0 609777.0 0
334000.0 609763.0 0
338000.0 609783.0 0
342000.0 609772.0 0
346000.0 609793.0 0
350000.0 609786.0 0
354000.0 609813.0 0
358000.0 609817.0 0
362000.0 609852.0 0
366000.0 609830.0 0
370000.0 609854.0 0
374000.0 609834.0 0
378000.0 609830.0 0
382000.0 609797.0 0
386000.0 609816.0 0
390000.0 609830.0 0
394000.0 609841.0 0
398000.0 609844.0 0
102000.0 613843.0 0
106000.0 613840.0 0
110000.0 613829.0 0
114000.0 613815.0 0
118000.0 613796.0 0
122000.0 613829.0 0
126000.0 613832.0 0
130000.0 613852.0 0
134000.0 613829.0 0
138000.0 613850.0 0
142000.0 613815.0 0
146000.0 613811.0 0
150000.0 613785.0 0
154000.0 613792.0 0
158000.0 613771.0 0
162000.0 613782.0 0
166000.0 613763.0 0
170000.0 613776.0 0
174000.0 613761.0 0
178000.0 613775.0 0
182000.0 613761.0 0
186000.0 613775.0 0
190000.0 613761.0 0
194000.0 613774.0 0
198000.0 613761.0 0
202000.0 613770.0 0
206000.0 613761.0 0
210000.0 613766.0 0
214000.0 613761.0 0
218000.0 613763.0 0
222000.0 613761.0 0
226000.0 613761.0 0
230000.0 613761.0 0
234000.0 613761.0 0
238000.0 613761.0 0
242000.0 613761.0 0
246000.0 613761.0 0
250000.0 613761.0 0
254000.0 613761.0 0
258000.0 613761.0 0
262000.0 613761.0 0
266000.0 613761.0 0
270000.0 613761.0 0
274000.0 613761.0 0
278000.0 613761.0 0
282000.0 613763.0 0
286000.0 613761.0 0
290000.0 613766.0 0
294000.0 613761.0 0
298000.0 613770.0 0
302000.0 613761.0 0
306000.0 613774.0 0
310000.0 613761.0 0
314000.0 613775.0 0
318000.0 613761.0 0
322000.0 613775.0 0
326000.0 613761.0 0
330000.0 613776.0 0
334000.0 613763.0 0
338000.0 613782.0 0
342000.0 613771.0 0
346000.0 613792.0 0
350000.0 613785.0 0
354000.0 613811.0 0
358000.0 613815.0 0
362000.0 613850.0 0
366000.0 613829.0 0
370000.0 613852.0 0
374000.0 613832.0 0
378000.0 613829.0 0
382000.0 613796.0 0
386000.0 613815.0 0
390000.0 613829.0 0
394000.0 613840.0 0
398000.0 613843.0 0
102000.0 617842.0 0
106000.0 617840.0 0
110000.0 617828.0 0
114000.0 617815.0 0
118000.0 617796.0 0
122000.0 617828.0 0
126000.0 617831.0 0
130000.0 617850.0 0
134000.0 617827.0 0
138000.0 617848.0 0
142000.0 617813.0 0
146000.0 617810.0 0
150000.0 617784.0 0
154000.0 617791.0 0
158000.0 617770.0 0
162000.0 617781.0 0
166000.0 617763.0 0
170000.0 617776.0 0
174000.0 617761.0 0
178000.0 617775.0 0
182000.0 617761.0 0
186000.0 617775.0 0
190000.0 617761.0 0
194000.0 617773.0 0
198000.0 617761.0 0
202000.0 617769.0 0
206000.0 617761.0 0
210000.0 617765.0 0
214000.0 617761.0 0
218000.0 617762.0 0
222000.0 617761.0 0
226000.0 617761.0 0
230000.0 617761.0 0
234000.0 617761.0 0
238000.0 617761.0 0
242000.0 617761.0 0
246000.0 617761.0 0
250000.0 617761.0 0
254000.0 617761.0 0
258000.0 617761.0 0
262000.0 617761.0 0
266000.0 617761.0 0
270000.0 617761.0 0
274000.0 617761.0 0
278000.0 617761.0 0
282000.0 617762.0 0
286000.0 617761.0 0
290000.0 617765.0 0
294000.0 617761.0 0
298000.0 617769.0 0
302000.0 617761.0 0
306000.0 617773.0 0
310000.0 617761.0 0
314000.0 617775.0 0
318000.0 617761.0 0
322000.0 617775.0 0
326000.0 617761.0 0
330000.0 617776.0 0
334000.0 617763.0 0
338000.0 617781.0 0
342000.0 617770.0 0
346000.0 617791.0 0
350000.0 617784.0 0
354000.0 617810.0 0
358000.0 617813.0 0
362000.0 617848.0 0
366000.0 617827.0 0
370000.0 617850.0 0
374000.0 617831.0 0
378000.0 617828.0 0
382000.0 617796.0 0
386000.0 617815.0 0
390000.0 617828.0 0
394000.0 617840.0 0
398000.0 617842.0 0
102000.0 621842.0 0
106000.0 621839.0 0
110000.0 621828.0 0
114000.0 621814.0 0
118000.0 621796.0 0
122000.0 621828.0 0
126000.0 621830.0 0
130000.0 621849.0 0
134000.0 621826.0 0
138000.0 621846.0 0
142000.0 621812.0 0
146000.0 621809.0 0
150000.0 621783.0 0
154000.0 621790.0 0
158000.0 621770.0 0
162000.0 621781.0 0
166000.0 621763.0 0
170000.0 621776.0 0
174000.0 621761.0 0
178000.0 621775.0 0
182000.0 621761.0 0
186000.0 621774.0 0
190000.0 621761.0 0
194000.0 621773.0 0
198000.0 621761.0 0
202000.0 621769.0 0
206000.0 621761.0 0
210000.0 621765.0 0
214000.0 621761.0 0
218000.0 621762.0 0
222000.0 621761.0 0
226000.0 621761.0 0
230000.0 621761.0 0
234000.0 621761.0 0
238000.0 621761.0 0
242000.0 621761.0 0
246000.0 621761.0 0
250000.0 621761.0 0
254000.0 621761.0 0
258000.0 621761.0 0
262000.0 621761.0 0
266000.0 621761.0 0
270000.0 621761.0 0
274000.0 621761.0 0
278000.0 621761.0 0
282000.0 621762.0 0
286000.0 621761.0 0
290000.0 621765.0 0
294000.0 621761.0 0
298000.0 621769.0 0
302000.0 621761.0 0
306000.0 621773.0 0
310000.0 621761.0 0
314000.0 621774.0 0
318000.0 621761.0 0
322000.0 621775.0 0
326000.0 621761.0 0
330000.0 621776.0 0
334000.0 621763.0 0
338000.0 621781.0 0
342000.0 621770.0 0
346000.0 621790.0 0
350000.0 621783.0 0
354000.0 621809.0 0
358000.0 621812.0 0
362000.0 621846.0 0
366000.0 621826.0 0
370000.0 621849.0 0
374000.0 621830.0 0
378000.0 621828.0 0
382000.0 621796.0 0
386000.0 621814.0 0
390000.0 621828.0 0
394000.0 621839.0 0
398000.0 621842.0 0
102000.0 625841.0 0
106000.0 625839.0 0
110000.0 625828.0 0
114000.0 625814.0 0
118000.0 625795.0 0
122000.0 625827.0 0
126000.0 625829.0 0
130000.0 625849.0 0
134000.0 625826.0 0
138000.0 625846.0 0
142000.0 625811.0 0
146000.0 625808.0 0
150000.0 625783.0 0
154000.0 625790.0 0
158000.0 625770.0 0
162000.0 625781.0 0
166000.0 625763.0 0
170000.0 625775.0 0
174000.0 625761.0 0
178000.0 625774.0 0
182000.0 625761.0 0
186000.0 625774.0 0
190000.0 625761.0 0
194000.0 625773.0 0
198000.0 625761.0 0
202000.0 625769.0 0
206000.0 625761.0 0
210000.0 625765.0 0
214000.0 625761.0 0
218000.0 625762.0 0
222000.0 625761.0 0
226000.0 625761.0 0
230000.0 625761.0 0
234000.0 625761.0 0
238000.0 625761.0 0
242000.0 625761.0 0
246000.0 625761.0 0
250000.0 625761.0 0
254000.0 625761.0 0
258000.0 625761.0 0
262000.0 625761.0 0
266000.0 625761.0 0
270000.0 625761.0 0
274000.0 625761.0 0
278000.0 625761.0 0
282000.0 625762.0 0
286000.0 625761.0 0
290000.0 625765.0 0
294000.0 625761.0 0
298000.0 625769.0 0
302000.0 625761.0 0
306000.0 625773.0 0
310000.0 625761.0 0
314000.0 625774.0 0
318000.0 625761.0 0
322000.0 625774.0 0
326000.0 625761.0 0
330000.0 625775.0 0
334000.0 625763.0 0
338000.0 625781.0 0
342000.0 625770.0 0
346000.0 625790.0 0
350000.0 625783.0 0
354000.0 625808.0 0
358000.0 625811.0 0
362000.0 625846.0 0
366000.0 625826.0 0
370000.0 625849.0 0
374000.0 625829.0 0
378000.0 625827.0 0
382000.0 625795.0 0
386000.0 625814.0 0
390000.0 625828.0 0
394000.0 625839.0 0
398000.0 625841.0 0
POINT_DATA 4650
SCALARS Radius float 1
LOOKUP_TABLE default
4000.0 4000.0 4000.0 4000.0 4000.0 4000.0 4000.0 4000.0 4000.0 4000.0 4000.0 4000.0 4000.0 4000.0 4000.0 4000.0 4000.0 4000.0 4000.0 4000.0 4000.0 4000.0 4000.0 4000.0 4000.0 4000.0 4000.0 4000.0 4000.0 4000.0 4000.0 4000.0 4000.0 4000.0 4000.0 4000.0 4000.0 4000.0 4000.0 4000.0 4000.0 4000.0 4000.0 4000.0 4000.0 4000.0 4000.0 4000.0 4000.0 4000.0 4000.0 4000.0 4000.0 4000.0 4000.0 4000.0 4000.0 4000.0 4000.0 4000.0 4000.0 4000.0 4000.0 4000.0 4000.0 4000.0 4000.0 4000.0 4000.0 4000.0 4000.0 4000.0 4000.0 4000.0 4000.0 4000.0 4000.0 4000.0 4000.0 4000.0 4000.0 4000.0 4000.0 4000.0 4000.0 4000.0 4000.0 4000.0 4000.0 4000.0 4000.0 4000.0 4000.0 4000.0 4000.0 4000.0 4000.0 4000.0 4000.0 4000.0 4000.0 4000.0 4000.0 4000.0 4000.0 4000.0 4000.0 4000.0 4000.0 4000.0 4000.0 4000.0 4000.0 4000.0 4000.0 4000.0 4000.0 4000.0 4000.0 4000.0 4000.0 4000.0 4000.0 4000.0 4000.0 4000.0 4000.0 4000.0 4000.0 4000.0 4000.0 4000.0 4000.0 4000.0 4000.0 4000.0 4000.0 4000.0 4000.0 4000.0 4000.0 4000.0 4000.0 4000.0 4000.0 4000.0 4000.0 4000.0 4000.0 4000.0 4000.0 4000.0 4000.0 4000.0 4000.0 4000.0 4000.0 4000.0 4000.0 4000.0 4000.0 4000.0 4000.0 4000.0 4000.0 4000.0 4000.0 4000.0 4000.0 4000.0 4000.0 4000.0 4000.0 4000.0 4000.0 4000.0 4000.0 4000.0 4000.0 4000.0 4000.0 4000.0 4000.0 4000.0 4000.0 4000.0 4000.0 4000.0 4000.0 4000.0 4000.0 4000.0 4000.0 4000.0 4000.0 4000.0 4000.0 4000.0 4000.0 4000.0 4000.0 4000.0 4000.0 4000.0 4000.0 4000.0 4000.0 4000.0 4000.0 4000.0 4000.0 4000.0 4000.0 4000.0 4000.0 4000.0 4000.0 4000.0 4000.0 4000.0 4000.0 4000.0 4000.0 4000.0 4000.0 4000.0 4000.0 4000.0 4000.0 4000.0 4000.0 4000.0 4000.0 4000.0 4000.0 4000.0 4000.0 4000.0 4000.0 4000.0 4000.0 4000.0 4000.0 4000.0 4000.0 4000.0 4000.0 4000.0 4000.0 4000.0 4000.0 4000.0 4000.0 4000.0 4000.0 4000.0 4000.0 4000.0 4000.0 4000.0 4000.0 4000.0 4000.0 4000.0 4000.0 4000.0 4000.0 4000.0 4000.0 4000.0 4000.0 4000.0 4000.0 4000.0 4000.0 4000.0 4000.0 4000.0 4000.0 4000.0 4000.0 4000.0 4000.0 4000.0 4000.0 4000.0 4000.0 4000.0 4000.0 4000.0 4000.0 4000.0 4000.0 4000.0 4000.0 4000.0 4000.0 4000.0 4000.0 4000.0 4000.0 4000.0 4000.0 4000.0 4000.0 4000.0 4000.0 4000.0 4000.0 4000.0 4000.0 4000.0 4000.0 4000.0 4000.0 4000.0 4000.0 4000.0 4000.0 4000.0 4000.0 4000.0 4000.0 4000.0 4000.0 4000.0 4000.0 4000.0 4000.0 4000.0 4000.0 4000.0 4000.0 4000.0 4000.0 4000.0 4000.0 4000.0 4000.0 4000.0 4000.0 4000.0 4000.0 4000.0 4000.0 4000.0 4000.0 4000.0 4000.0 4000.0 4000.0 4000.0 4000.0 4000.0 4000.0 4000.0 4000.0 4000.0 4000.0 4000.0 4000.0 4000.0 4000.0 4000.0 4000.0 4000.0 4000.0 4000.0 4000.0 4000.0 4000.0 4000.0 4000.0 4000.0 4000.0 4000.0 4000.0 4000.0 4000.0 4000.0 4000.0 4000.0 4000.0 4000.0 4000.0 4000.0 4000.0 4000.0 4000.0 4000.0 4000.0 4000.0 4000.0 4000.0 4000.0 4000.0 4000.0 4000.0 4000.0 4000.0 4000.0 4000.0 4000.0 4000.0 4000.0 4000.0 4000.0 4000.0 4000.0 4000.0 4000.0 4000.0 4000.0 4000.0 4000.0 4000.0 4000.0 4000.0 4000.0 4000.0 4000.0 4000.0 4000.0 4000.0 4000.0 4000.0 4000.0 4000.0 4000.0 4000.0 4000.0 4000.0 4000.0 4000.0 4000.0 4000.0 4000.0 4000.0 4000.0 4000.0 4000.0 4000.0 4000.0 4000.0 4000.0 4000.0 4000.0 4000.0 4000.0 4000.0 4000.0 4000.0 4000.0 4000.0 4000.0 4000.0 4000.0 4000.0 4000.0 4000.0 4000.0 4000.0 4000.0 4000.0 4000.0 4000.0 4000.0 4000.0 4000.0 4000.0 4000.0 4000.0 4000.0 4000.0 4000.0 4000.0 4000.0 4000.0 4000.0 4000.0 4000.0 4000.0 4000.0 4000.0 4000.0 4000.0 4000.0 4000.0 4000.0 4000.0 4000.0 4000.0 4000.0 4000.0 4000.0 4000.0 4000.0 4000.0 4000.0 4000.0 4000.0 4000.0 4000.0 4000.0 4000.0 4000.0 4000.0 4000.0 4000.0 4000.0 4000.0 4000.0 4000.0 4000.0 4000.0 4000.0 4000.0 4000.0 4000.0 4000.0 4000.0 4000.0 4000.0 4000.0 4000.0 4000.0 4000.0 4000.0 4000.0 4000.0 4000.0 4000.0 4000.0 4000.0 4000.0 4000.0 4000.0 4000.0 4000.0 4000.0 4000.0 4000.0 4000.0 4000.0 4000.0 4000.0 4000.0 4000.0 4000.0 4000.0 4000.0 4000.0 4000.0 4000.0 4000.0 4000.0 4000.0 4000.0 4000.0 4000.0 4000.0 4000.0 4000.0 4000.0 4000.0 4000.0 4000.0 4000.0 4000.0 4000.0 4000.0 4000.0 4000.0 4000.0 4000.0 4000.0 4000.0 4000.0 4000.0 4000.0 4000.0 4000.0 4000.0 4000.0 4000.0 4000.0 4000.0 4000.0 4000.0 4000.0 4000.0 4000.0 4000.0 4000.0 4000.0 4000.0 4000.0 4000.0 4000.0 4000.0 4000.0 4000.0 4000.0 4000.0 4000.0 4000.0 4000.0 4000.0 4000.0 4000.0 4000.0 4000.0 4000.0 4000.0 4000.0 4000.0 4000.0 4000.0 4000.0 4000.0 4000.0 4000.0 4000.0 4000.0 4000.0 4000.0 4000.0 4000.0 4000.0 4000.0 4000.0 4000.0 4000.0 4000.0 4000.0 4000.0 4000.0 4000.0 4000.0 4000.0 4000.0 4000.0 4000.0 4000.0 4000.0 4000.0 4000.0 4000.0 4000.0 4000.0 4000.0 4000.0 4000.0 4000.0 4000.0 4000.0 4000.0 4000.0 4000.0 4000.0 4000.0 4000.0 4000.0 4000.0 4000.0 4000.0 4000.0 4000.0 4000.0 4000.0 4000.0 4000.0 4000.0 4000.0 4000.0 4000.0 4000.0 4000.0 4000.0 4000.0 4000.0 4000.0 4000.0 4000.0 4000.0 4000.0 4000.0 4000.0 4000.0 4000.0 4000.0 4000.0 4000.0 4000.0 4000.0 4000.0 4000.0 4000.0 4000.0 4000.0 4000.0 4000.0 4000.0 4000.0 4000.0 4000.0 4000.0 4000.0 4000.0 4000.0 4000.0 4000.0 4000.0 4000.0 4000.0 4000.0 4000.0 4000.0 4000.0 4000.0 4000.0 4000.0 4000.0 4000.0 4000.0 4000.0 4000.0 4000.0 4000.0 4000.0 4000.0 4000.0 4000.0 4000.0 4000.0 4000.0 4000.0 4000.0 4000.0 4000.0 4000.0 4000.0 4000.0 4000.0 4000.0 4000.0 4000.0 4000.0 4000.0 4000.0 4000.0 4000.0 4000.0 4000.0 4000.0 4000.0 4000.0 4000.0 4000.0 4000.0 4000.0 4000.0 4000.0 4000.0 4000.0 4000.0 4000.0 4000.0 4000.0 4000.0 4000.0 4000.0 4000.0 4000.0 4000.0 4000.0 4000.0 4000.0 4000.0 4000.0 4000.0 4000.0 4000.0 4000.0 4000.0 4000.0 4000.0 4000.0 4000.0 4000.0 4000.0 4000.0 4000.0 4000.0 4000.0 4000.0 4000.0 4000.0 4000.0 4000.0 4000.0 4000.0 4000.0 4000.0 4000.0 4000.0 4000.0 4000.0 4000.0 4000.0 4000.0 4000.0 4000.0 4000.0 4000.0 4000.0 4000.0 4000.0 4000.0 4000.0 4000.0 4000.0 4000.0 4000.0 4000.0 4000.0 4000.0 4000.0 4000.0 4000.0 4000.0 4000.0 4000.0 4000.0 4000.0 4000.0 4000.0 4000.0 4000.0 4000.0 4000.0 4000.0 4000.0 4000.0 4000.0 4000.0 4000.0 4000.0 4000.0 4000.0 4000.0 4000.0 4000.0 4000.0 4000.0 4000.0 4000.0 4000.0 4000.0 4000.0 4000.0 4000.0 4000.0 4000.0 4000.0 4000.0 4000.0 4000.0 4000.0 4000.0 4000.0 4000.0 4000.0 4000.0 4000.0 4000.0 4000.0 4000.0 4000.0 4000.0 4000.0 4000.0 4000.0 4000.0 4000.0 4000.0 4000.0 4000.0 4000.0 4000.0 4000.0 4000.0 4000.0 4000.0 4000.0 4000.0 4000.0 4000.0 4000.0 4000.0 4000.0 4000.0 4000.0 4000.0 4000.0 4000.0 4000.0 4000.0 4000.0 4000.0 4000.0 4000.0 4000.0 4000.0 4000.0 4000.0 4000.0 4000.0 4000.0 4000.0 4000.0 4000.0 4000.0 4000.0 4000.0 4000.0 4000.0 4000.0 4000.0 4000.0 4000.0 4000.0 4000.0 4000.0 4000.0 4000.0 4000.0 4000.0 4000.0 4000.0 4000.0 4000.0 4000.0 4000.0 4000.0 4000.0 4000.0 4000.0 4000.0 4000.0 4000.0 4000.0 4000.0 4000.0 4000.0 4000.0 4000.0 4000.0 4000.0 4000.0 4000.0 4000.0 4000.0 4000.0 4000.0 4000.0 4000.0 4000.0 4000.0 4000.0 4000.0 4000.0 4000.0 4000.0 4000.0 4000.0 4000.0 4000.0 4000.0 4000.0 4000.0 4000.0 4000.0 4000.0 4000.0 4000.0 4000.0 4000.0 4000.0 4000.0 4000.0 4000.0 4000.0 4000.0 4000.0 4000.0 4000.0 4000.0 4000.0 4000.0 4000.0 4000.0 4000.0 4000.0 4000.0 4000.0 4000.0 4000.0 4000.0 4000.0 4000.0 4000.0 4000.0 4000.0 4000.0 4000.0 4000.0 4000.0 4000.0 4000.0 4000.0 4000.0 4000.0 4000.0 4000.0 4000.0 4000.0 4000.0 4000.0 4000.0 4000.0 4000.0 4000.0 4000.0 4000.0 4000.0 4000.0 4000.0 4000.0 4000.0 4000.0 4000.0 4000.0 4000.0 4000.0 4000.0 4000.0 4000.0 4000.0 4000.0 4000.0 4000.0 4000.0 4000.0 4000.0 4000.0 4000.0 4000.0 4000.0 4000.0 4000.0 4000.0 4000.0 4000.0 4000.0 4000.0 4000.0 4000.0 4000.0 4000.0 4000.0 4000.0 4000.0 4000.0 4000.0 4000.0 4000.0 4000.0 4000.0 4000.0 4000.0 4000.0 4000.0 4000.0 4000.0 4000.0 4000.0 4000.0 4000.0 4000.0 4000.0 4000.0 4000.0 4000.0 4000.0 4000.0 4000.0 4000.0 4000.0 4000.0 4000.0 4000.0 4000.0 4000.0 4000.0 4000.0 4000.0 4000.0 4000.0 4000.0 4000.0 4000.0 4000.0 4000.0 4000.0 4000.0 4000.0 4000.0 4000.0 4000.0 4000.0 4000.0 4000.0 4000.0 4000.0 4000.0 4000.0 4000.0 4000.0 4000.0 4000.0 4000.0 4000.0 4000.0 4000.0 4000.0 4000.0 4000.0 4000.0 4000.0 4000.0 4000.0 4000.0 4000.0 4000.0 4000.0 4000.0 4000.0 4000.0 4000.0 4000.0 4000.0 4000.0 4000.0 4000.0 4000.0 4000.0 4000.0 4000.0 4000.0 4000.0 4000.0 4000.0 4000.0 4000.0 4000.0 4000.0 4000.0 4000.0 4000.0 4000.0 4000.0 4000.0 4000.0 4000.0 4000.0 4000.0 4000.0 4000.0 4000.0 4000.0 4000.0 4000.0 4000.0 4000.0 4000.0 4000.0 4000.0 4000.0 4000.0 4000.0 4000.0 4000.0 4000.0 4000.0 4000.0 4000.0 4000.0 4000.0 4000.0 4000.0 4000.0 4000.0 4000.0 4000.0 4000.0 4000.0 4000.0 4000.0 4000.0 4000.0 4000.0 4000.0 4000.0 4000.0 4000.0 4000.0 4000.0 4000.0 4000.0 4000.0 4000.0 4000.0 4000.0 4000.0 4000.0 4000.0 4000.0 4000.0 4000.0 4000.0 4000.0 4000.0 4000.0 4000.0 4000.0 4000.0 4000.0 4000.0 4000.0 4000.0 4000.0 4000.0 4000.0 4000.0 4000.0 4000.0 4000.0 4000.0 4000.0 4000.0 4000.0 4000.0 4000.0 4000.0 4000.0 4000.0 4000.0 4000.0 4000.0 4000.0 4000.0 4000.0 4000.0 4000.0 4000.0 4000.0 4000.0 4000.0 4000.0 4000.0 4000.0 4000.0 4000.0 4000.0 4000.0 4000.0 4000.0 4000.0 4000.0 4000.0 4000.0 4000.0 4000.0 4000.0 4000.0 4000.0 4000.0 4000.0 4000.0 4000.0 4000.0 4000.0 4000.0 4000.0 4000.0 4000.0 4000.0 4000.0 4000.0 4000.0 4000.0 4000.0 4000.0 4000.0 4000.0 4000.0 4000.0 4000.0 4000.0 4000.0 4000.0 4000.0 4000.0 4000.0 4000.0 4000.0 4000.0 4000.0 4000.0 4000.0 4000.0 4000.0 4000.0 4000.0 4000.0 4000.0 4000.0 4000.0 4000.0 4000.0 4000.0 4000.0 4000.0 4000.0 4000.0 4000.0 4000.0 4000.0 4000.0 4000.0 4000.0 4000.0 4000.0 4000.0 4000.0 4000.0 4000.0 4000.0 4000.0 4000.0 4000.0 4000.0 4000.0 4000.0 4000.0 4000.0 4000.0 4000.0 4000.0 4000.0 4000.0 4000.0 4000.0 4000.0 4000.0 4000.0 4000.0 4000.0 4000.0 4000.0 4000.0 4000.0 4000.0 4000.0 4000.0 4000.0 4000.0 4000.0 4000.0 4000.0 4000.0 4000.0 4000.0 4000.0 4000.0 4000.0 4000.0 4000.0 4000.0 4000.0 4000.0 4000.0 4000.0 4000.0 4000.0 4000.0 4000.0 4000.0 4000.0 4000.0 4000.0 4000.0 4000.0 4000.0 4000.0 4000.0 4000.0 4000.0 4000.0 4000.0 4000.0 4000.0 4000.0 4000.0 4000.0 4000.0 4000.0 4000.0 4000.0 4000.0 4000.0 4000.0 4000.0 4000.0 4000.0 4000.0 4000.0 4000.0 4000.0 4000.0 4000.0 4000.0 4000.0 4000.0 4000.0 4000.0 4000.0 4000.0 4000.0 4000.0 4000.0 4000.0 4000.0 4000.0 4000.0 4000.0 4000.0 4000.0 4000.0 4000.0 4000.0 4000.0 4000.0 4000.0 4000.0 4000.0 4000.0 4000.0 4000.0 4000.0 4000.0 4000.0 4000.0 4000.0 4000.0 4000.0 4000.0 4000.0 4000.0 4000.0 4000.0 4000.0 4000.0 4000.0 4000.0 4000.0 4000.0 4000.0 4000.0 4000.0 4000.0 4000.0 4000.0 4000.0 4000.0 4000.0 4000.0 4000.0 4000.0 4000.0 4000.0 4000.0 4000.0 4000.0 4000.0 4000.0 4000.0 4000.0 4000.0 4000.0 4000.0 4000.0 4000.0 4000.0 4000.0 4000.0 4000.0 4000.0 4000.0 4000.0 4000.0 4000.0 4000.0 4000.0 4000.0 4000.0 4000.0 4000.0 4000.0 4000.0 4000.0 4000.0 4000.0 4000.0 4000.0 4000.0 4000.0 4000.0 4000.0 4000.0 4000.0 4000.0 4000.0 4000.0 4000.0 4000.0 4000.0 4000.0 4000.0 4000.0 4000.0 4000.0 4000.0 4000.0 4000.0 4000.0 4000.0 4000.0 4000.0 4000.0 4000.0 4000.0 4000.0 4000.0 4000.0 4000.0 4000.0 4000.0 4000.0 4000.0 4000.0 4000.0 4000.0 4000.0 4000.0 4000.0 4000.0 4000.0 4000.0 4000.0 4000.0 4000.0 4000.0 4000.0 4000.0 4000.0 4000.0 4000.0 4000.0 4000.0 4000.0 4000.0 4000.0 4000.0 4000.0 4000.0 4000.0 4000.0 4000.0 4000.0 4000.0 4000.0 4000.0 4000.0 4000.0 4000.0 4000.0 4000.0 4000.0 4000.0 4000.0 4000.0 4000.0 4000.0 4000.0 4000.0 4000.0 4000.0 4000.0 4000.0 4000.0 4000.0 4000.0 4000.0 4000.0 4000.0 4000.0 4000.0 4000.0 4000.0 4000.0 4000.0 4000.0 4000.0 4000.0 4000.0 4000.0 4000.0 4000.0 4000.0 4000.0 4000.0 4000.0 4000.0 4000.0 4000.0 4000.0 4000.0 4000.0 4000.0 4000.0 4000.0 4000.0 4000.0 4000.0 4000.0 4000.0 4000.0 4000.0 4000.0 4000.0 4000.0 4000.0 4000.0 4000.0 4000.0 4000.0 4000.0 4000.0 4000.0 4000.0 4000.0 4000.0 4000.0 4000.0 4000.0 4000.0 4000.0 4000.0 4000.0 4000.0 4000.0 4000.0 4000.0 4000.0 4000.0 4000.0 4000.0 4000.0 4000.0 4000.0 4000.0 4000.0 4000.0 4000.0 4000.0 4000.0 4000.0 4000.0 4000.0 4000.0 4000.0 4000.0 4000.0 4000.0 4000.0 4000.0 4000.0 4000.0 4000.0 4000.0 4000.0 4000.0 4000.0 4000.0 4000.0 4000.0 4000.0 4000.0 4000.0 4000.0 4000.0 4000.0 4000.0 4000.0 4000.0 4000.0 4000.0 4000.0 4000.0 4000.0 4000.0 4000.0 4000.0 4000.0 4000.0 4000.0 4000.0 4000.0 4000.0 4000.0 4000.0 4000.0 4000.0 4000.0 4000.0 4000.0 4000.0 4000.0 4000.0 4000.0 4000.0 4000.0 4000.0 4000.0 4000.0 4000.0 4000.0 4000.0 4000.0 4000.0 4000.0 4000.0 4000.0 4000.0 4000.0 4000.0 4000.0 4000.0 4000.0 4000.0 4000.0 4000.0 4000.0 4000.0 4000.0 4000.0 4000.0 4000.0 4000.0 4000.0 4000.0 4000.0 4000.0 4000.0 4000.0 4000.0 4000.0 4000.0 4000.0 4000.0 4000.0 4000.0 4000.0 4000.0 4000.0 4000.0 4000.0 4000.0 4000.0 4000.0 4000.0 4000.0 4000.0 4000.0 4000.0 4000.0 4000.0 4000.0 4000.0 4000.0 4000.0 4000.0 4000.0 4000.0 4000.0 4000.0 4000.0 4000.0 4000.0 4000.0 4000.0 4000.0 4000.0 4000.0 4000.0 4000.0 4000.0 4000.0 4000.0 4000.0 4000.0 4000.0 4000.0 4000.0 4000.0 4000.0 4000.0 4000.0 4000.0 4000.0 4000.0 4000.0 4000.0 4000.0 4000.0 4000.0 4000.0 4000.0 4000.0 4000.0 4000.0 4000.0 4000.0 4000.0 4000.0 4000.0 4000.0 4000.0 4000.0 4000.0 4000.0 4000.0 4000.0 4000.0 4000.0 4000.0 4000.0 4000.0 4000.0 4000.0 4000.0 4000.0 4000.0 4000.0 4000.0 4000.0 4000.0 4000.0 4000.0 4000.0 4000.0 4000.0 4000.0 4000.0 4000.0 4000.0 4000.0 4000.0 4000.0 4000.0 4000.0 4000.0 4000.0 4000.0 4000.0 4000.0 4000.0 4000.0 4000.0 4000.0 4000.0 4000.0 4000.0 4000.0 4000.0 4000.0 4000.0 4000.0 4000.0 4000.0 4000.0 4000.0 4000.0 4000.0 4000.0 4000.0 4000.0 4000.0 4000.0 4000.0 4000.0 4000.0 4000.0 4000.0 4000.0 4000.0 4000.0 4000.0 4000.0 4000.0 4000.0 4000.0 4000.0 4000.0 4000.0 4000.0 4000.0 4000.0 4000.0 4000.0 4000.0 4000.0 4000.0 4000.0 4000.0 4000.0 4000.0 4000.0 4000.0 4000.0 4000.0 4000.0 4000.0 4000.0 4000.0 4000.0 4000.0 4000.0 4000.0 4000.0 4000.0 4000.0 4000.0 4000.0 4000.0 4000.0 4000.0 4000.0 4000.0 4000.0 4000.0 4000.0 4000.0 4000.0 4000.0 4000.0 4000.0 4000.0 4000.0 4000.0 4000.0 4000.0 4000.0 4000.0 4000.0 4000.0 4000.0 4000.0 4000.0 4000.0 4000.0 4000.0 4000.0 4000.0 4000.0 4000.0 4000.0 4000.0 4000.0 4000.0 4000.0 4000.0 4000.0 4000.0 4000.0 4000.0 4000.0 4000.0 4000.0 4000.0 4000.0 4000.0 4000.0 4000.0 4000.0 4000.0 4000.0 4000.0 4000.0 4000.0 4000.0 4000.0 4000.0 4000.0 4000.0 4000.0 4000.0 4000.0 4000.0 4000.0 4000.0 4000.0 4000.0 4000.0 4000.0 4000.0 4000.0 4000.0 4000.0 4000.0 4000.0 4000.0 4000.0 4000.0 4000.0 4000.0 4000.0 4000.0 4000.0 4000.0 4000.0 4000.0 4000.0 4000.0 4000.0 4000.0 4000.0 4000.0 4000.0 4000.0 4000.0 4000.0 4000.0 4000.0 4000.0 4000.0 4000.0 4000.0 4000.0 4000.0 4000.0 4000.0 4000.0 4000.0 4000.0 4000.0 4000.0 4000.0 4000.0 4000.0 4000.0 4000.0 4000.0 4000.0 4000.0 4000.0 4000.0 4000.0 4000.0 4000.0 4000.0 4000.0 4000.0 4000.0 4000.0 4000.0 4000.0 4000.0 4000.0 4000.0 4000.0 4000.0 4000.0 4000.0 4000.0 4000.0 4000.0 4000.0 4000.0 4000.0 4000.0 4000.0 4000.0 4000.0 4000.0 4000.0 4000.0 4000.0 4000.0 4000.0 4000.0 4000.0 4000.0 4000.0 4000.0 4000.0 4000.0 4000.0 4000.0 4000.0 4000.0 4000.0 4000.0 4000.0 4000.0 4000.0 4000.0 4000.0 4000.0 4000.0 4000.0 4000.0 4000.0 4000.0 4000.0 4000.0 4000.0 4000.0 4000.0 4000.0 4000.0 4000.0 4000.0 4000.0 4000.0 4000.0 4000.0 4000.0 4000.0 4000.0 4000.0 4000.0 4000.0 4000.0 4000.0 4000.0 4000.0 4000.0 4000.0 4000.0 4000.0 4000.0 4000.0 4000.0 4000.0 4000.0 4000.0 4000.0 4000.0 4000.0 4000.0 4000.0 4000.0 4000.0 4000.0 4000.0 4000.0 4000.0 4000.0 4000.0 4000.0 4000.0 4000.0 4000.0 4000.0 4000.0 4000.0 4000.0 4000.0 4000.0 4000.0 4000.0 4000.0 4000.0 4000.0 4000.0 4000.0 4000.0 4000.0 4000.0 4000.0 4000.0 4000.0 4000.0 4000.0 4000.0 4000.0 4000.0 4000.0 4000.0 4000.0 4000.0 4000.0 4000.0 4000.0 4000.0 4000.0 4000.0 4000.0 4000.0 4000.0 4000.0 4000.0 4000.0 4000.0 4000.0 4000.0 4000.0 4000.0 4000.0 4000.0 4000.0 4000.0 4000.0 4000.0 4000.0 4000.0 4000.0 4000.0 4000.0 4000.0 4000.0 4000.0 4000.0 4000.0 4000.0 4000.0 4000.0 4000.0 4000.0 4000.0 4000.0 4000.0 4000.0 4000.0 4000.0 4000.0 4000.0 4000.0 4000.0 4000.0 4000.0 4000.0 4000.0 4000.0 4000.0 4000.0 4000.0 4000.0 4000.0 4000.0 4000.0 4000.0 4000.0 4000.0 4000.0 4000.0 4000.0 4000.0 4000.0 4000.0 4000.0 4000.0 4000.0 4000.0 4000.0 4000.0 4000.0 4000.0 4000.0 4000.0 4000.0 4000.0 4000.0 4000.0 4000.0 4000.0 4000.0 4000.0 4000.0 4000.0 4000.0 4000.0 4000.0 4000.0 4000.0 4000.0 4000.0 4000.0 4000.0 4000.0 4000.0 4000.0 4000.0 4000.0 4000.0 4000.0 4000.0 4000.0 4000.0 4000.0 4000.0 4000.0 4000.0 4000.0 4000.0 4000.0 4000.0 4000.0 4000.0 4000.0 4000.0 4000.0 4000.0 4000.0 4000.0 4000.0 4000.0 4000.0 4000.0 4000.0 4000.0 4000.0 4000.0 4000.0 4000.0 4000.0 4000.0 4000.0 4000.0 4000.0 4000.0 4000.0 4000.0 4000.0 4000.0 4000.0 4000.0 4000.0 4000.0 4000.0 4000.0 4000.0 4000.0 4000.0 4000.0 4000.0 4000.0 4000.0 4000.0 4000.0 4000.0 4000.0 4000.0 4000.0 4000.0 4000.0 4000.0 4000.0 4000.0 4000.0 4000.0 4000.0 4000.0 4000.0 4000.0 4000.0 4000.0 4000.0 4000.0 4000.0 4000.0 4000.0 4000.0 4000.0 4000.0 4000.0 4000.0 4000.0 4000.0 4000.0 4000.0 4000.0 4000.0 4000.0 4000.0 4000.0 4000.0 4000.0 4000.0 4000.0 4000.0 4000.0 4000.0 4000.0 4000.0 4000.0 4000.0 4000.0 4000.0 4000.0 4000.0 4000.0 4000.0 4000.0 4000.0 4000.0 4000.0 4000.0 4000.0 4000.0 4000.0 4000.0 4000.0 4000.0 4000.0 4000.0 4000.0 4000.0 4000.0 4000.0 4000.0 4000.0 4000.0 4000.0 4000.0 4000.0 4000.0 4000.0 4000.0 4000.0 4000.0 4000.0 4000.0 4000.0 4000.0 4000.0 4000.0 4000.0 4000.0 4000.0 4000.0 4000.0 4000.0 4000.0 4000.0 4000.0 4000.0 4000.0 4000.0 4000.0 4000.0 4000.0 4000.0 4000.0 4000.0 4000.0 4000.0 4000.0 4000.0 4000.0 4000.0 4000.0 4000.0 4000.0 4000.0 4000.0 4000.0 4000.0 4000.0 4000.0 4000.0 4000.0 4000.0 4000.0 4000.0 4000.0 4000.0 4000.0 4000.0 4000.0 4000.0 4000.0 4000.0 4000.0 4000.0 4000.0 4000.0 4000.0 4000.0 4000.0 4000.0 4000.0 4000.0 4000.0 4000.0 4000.0 4000.0 4000.0 4000.0 4000.0 4000.0 4000.0 4000.0 4000.0 4000.0 4000.0 4000.0 4000.0 4000.0 4000.0 4000.0 4000.0 4000.0 4000.0 4000.0 4000.0 4000.0 4000.0 4000.0 4000.0 4000.0 4000.0 4000.0 4000.0 4000.0 4000.0 4000.0 4000.0 4000.0 4000.0 4000.0 4000.0 4000.0 4000.0 4000.0 4000.0 4000.0 4000.0 4000.0 4000.0 4000.0 4000.0 4000.0 4000.0 4000.0 4000.0 4000.0 4000.0 4000.0 4000.0 4000.0 4000.0 4000.0 4000.0 4000.0 4000.0 4000.0 4000.0 4000.0 4000.0 4000.0 4000.0 4000.0 4000.0 4000.0 4000.0 4000.0 4000.0 4000.0 4000.0 4000.0 4000.0 4000.0 4000.0 4000.0 4000.0 4000.0 4000.0 4000.0 4000.0 4000.0 4000.0 4000.0 4000.0 4000.0 4000.0 4000.0 4000.0 4000.0 4000.0 4000.0 4000.0 4000.0 4000.0 4000.0 4000.0 4000.0 4000.0 4000.0 4000.0 4000.0 4000.0 4000.0 4000.0 4000.0 4000.0 4000.0 4000.0 4000.0 4000.0 4000.0 4000.0 4000.0 4000.0 4000.0 4000.0 4000.0 4000.0 4000.0 4000.0 4000.0 4000.0 4000.0 4000.0 4000.0 4000.0 4000.0 4000.0 4000.0 4000.0 4000.0 4000.0 4000.0 4000.0 4000.0 4000.0 4000.0 4000.0 4000.0 4000.0 4000.0 4000.0 4000.0 4000.0 4000.0 4000.0 4000.0 4000.0 4000.0 4000.0 4000.0 4000.0 4000.0 4000.0 4000.0 4000.0 4000.0 4000.0 4000.0 4000.0 4000.0 4000.0 4000.0 4000.0 4000.0 4000.0 4000.0 4000.0 4000.0 4000.0 4000.0 4000.0 4000.0 4000.0 4000.0 4000.0 4000.0 4000.0 4000.0 4000.0 4000.0 4000.0 4000.0 4000.0 4000.0 4000.0 4000.0 4000.0 4000.0 4000.0 4000.0 4000.0 4000.0 4000.0 4000.0 4000.0 4000.0 4000.0 4000.0 4000.0 4000.0 4000.0 4000.0 4000.0 4000.0 4000.0 4000.0 4000.0 4000.0 4000.0 4000.0 4000.0 4000.0 4000.0 4000.0 4000.0 4000.0 4000.0 4000.0 4000.0 4000.0 4000.0 4000.0 4000.0 4000.0 4000.0 4000.0 4000.0 4000.0 4000.0 4000.0 4000.0 4000.0 4000.0 4000.0 4000.0 4000.0 4000.0 4000.0 4000.0 4000.0 4000.0 4000.0 4000.0 4000.0 4000.0 4000.0 4000.0 4000.0 4000.0 4000.0 4000.0 4000.0 4000.0 4000.0 4000.0 4000.0 4000.0 4000.0 4000.0 4000.0 4000.0 4000.0 4000.0 4000.0 4000.0 4000.0 4000.0 4000.0 4000.0 4000.0 4000.0 4000.0 4000.0 4000.0 4000.0 4000.0 4000.0 4000.0 4000.0 4000.0 4000.0 4000.0 4000.0 4000.0 4000.0 4000.0 4000.0 4000.0 4000.0 4000.0 4000.0 4000.0 4000.0 4000.0 4000.0 4000.0 4000.0 4000.0 4000.0 4000.0 4000.0 4000.0 4000.0 4000.0 4000.0 4000.0 4000.0 4000.0 4000.0 4000.0 4000.0 4000.0 4000.0 4000.0 4000.0 4000.0 4000.0 4000.0 4000.0 4000.0 4000.0 4000.0 4000.0 4000.0 4000.0 4000.0 4000.0 4000.0 4000.0 4000.0 4000.0 4000.0 4000.0 4000.0 4000.0 4000.0 4000.0 4000.0 4000.0 4000.0 4000.0 4000.0 4000.0 4000.0 4000.0 4000.0 4000.0 4000.0 4000.0 4000.0 4000.0 4000.0 4000.0 4000.0 4000.0 4000.0 4000.0 4000.0 4000.0 4000.0 4000.0 4000.0 4000.0 4000.0 4000.0 4000.0 4000.0 4000.0 4000.0 4000.0 4000.0 4000.0 4000.0 4000.0 4000.0 4000.0 4000.0 4000.0 4000.0 4000.0 4000.0 4000.0 4000.0 4000.0 4000.0 4000.0 4000.0 4000.0 4000.0 4000.0 4000.0 4000.0 4000.0 4000.0 4000.0 4000.0 4000.0 4000.0 4000.0 4000.0 4000.0 4000.0 4000.0 4000.0 4000.0 4000.0 4000.0 4000.0 4000.0 4000.0 4000.0 4000.0 4000.0 4000.0 4000.0 4000.0 4000.0 4000.0 4000.0 4000.0 4000.0 4000.0 4000.0 4000.0 4000.0 4000.0 4000.0 4000.0 4000.0 4000.0 4000.0 4000.0 4000.0 4000.0 4000.0 4000.0 4000.0 4000.0 4000.0 4000.0 4000.0 4000.0 4000.0 4000.0 4000.0 4000.0 4000.0 4000.0 4000.0 4000.0 4000.0 4000.0 4000.0 4000.0 4000.0 4000.0 4000.0 4000.0 4000.0 4000.0 4000.0 4000.0 4000.0 4000.0 4000.0 4000.0 4000.0 4000.0 4000.0 4000.0 4000.0 4000.0 4000.0 4000.0 4000.0 4000.0 4000.0 4000.0 4000.0 4000.0 4000.0 4000.0 4000.0 4000.0 4000.0 4000.0 4000.0 4000.0 4000.0 4000.0 4000.0 4000.0 4000.0 4000.0 4000.0 4000.0 4000.0 4000.0 4000.0 4000.0 4000.0 4000.0 4000.0 4000.0 4000.0 4000.0 4000.0 4000.0 4000.0 4000.0 4000.0 4000.0 4000.0 4000.0 4000.0 4000.0 4000.0 4000.0 4000.0 4000.0 4000.0 4000.0 4000.0 4000.0 4000.0 4000.0 4000.0 4000.0 4000.0 4000.0 4000.0 4000.0 4000.0 4000.0 4000.0 4000.0 4000.0 4000.0 4000.0 4000.0 4000.0 4000.0 4000.0 4000.0 4000.0 4000.0 4000.0 4000.0 4000.0 4000.0 4000.0 4000.0 4000.0 4000.0 4000.0 4000.0 4000.0 4000.0 4000.0 4000.0 4000.0 4000.0 4000.0 4000.0 4000.0 4000.0 4000.0 4000.0 4000.0 4000.0 4000.0 4000.0 4000.0 4000.0 4000.0 4000.0 4000.0 4000.0 4000.0 4000.0 4000.0 4000.0 4000.0 4000.0 4000.0 4000.0 4000.0 4000.0 4000.0 4000.0 4000.0 4000.0 4000.0 4000.0 4000.0 4000.0 4000.0 4000.0 4000.0 4000.0 4000.0 4000.0 4000.0 4000.0 4000.0 4000.0 4000.0 4000.0 4000.0 4000.0 4000.0 4000.0 4000.0 4000.0 4000.0 4000.0 4000.0 4000.0 4000.0 4000.0 4000.0 4000.0 4000.0 4000.0 4000.0 4000.0 4000.0 4000.0 4000.0 4000.0 4000.0 4000.0 4000.0 4000.0 4000.0 4000.0 4000.0 4000.0 4000.0 4000.0 4000.0 4000.0 4000.0 4000.0 4000.0 4000.0 4000.0 4000.0 4000.0 4000.0 4000.0 4000.0 4000.0 4000.0 4000.0 4000.0 4000.0 4000.0 4000.0 4000.0 4000.0 4000.0 4000.0 4000.0 4000.0 4000.0 4000.0 4000.0 4000.0 4000.0 4000.0 4000.0 4000.0 4000.0 4000.0 4000.0 4000.0 4000.0 4000.0 4000.0 4000.0 4000.0 4000.0 4000.0 4000.0 4000.0 4000.0 4000.0 4000.0 4000.0 4000.0 4000.0 4000.0 4000.0 4000.0 4000.0 4000.0 4000.0 4000.0 4000.0 4000.0 4000.0 4000.0 4000.0 4000.0 4000.0 4000.0 4000.0 4000.0 4000.0 4000.0 4000.0 4000.0 4000.0 4000.0 4000.0 4000.0 4000.0 4000.0 4000.0 4000.0 4000.0 4000.0 4000.0 4000.0 4000.0 4000.0 4000.0 4000.0 4000.0 4000.0 4000.0 4000.0 4000.0 4000.0 4000.0 4000.0 4000.0 4000.0 4000.0 4000.0 4000.0 4000.0 4000.0 4000.0 4000.0 4000.0 4000.0 4000.0 4000.0 4000.0 4000.0 4000.0 4000.0 4000.0 4000.0 4000.0 4000.0 4000.0 4000.0 4000.0 4000.0 4000.0 4000.0 4000.0 4000.0 4000.0 4000.0 4000.0 4000.0 4000.0 4000.0 4000.0 4000.0 4000.0 4000.0 4000.0 4000.0 4000.0 4000.0 4000.0 4000.0 4000.0 4000.0 4000.0 4000.0 4000.0 4000.0 4000.0 4000.0 4000.0 4000.0 4000.0 4000.0 4000.0 4000.0 4000.0 4000.0 4000.0 4000.0 4000.0 4000.0 4000.0 4000.0 4000.0 4000.0 4000.0 4000.0 4000.0 4000.0 4000.0 4000.0 4000.0 4000.0 4000.0 4000.0 4000.0 4000.0 4000.0 4000.0 4000.0 4000.0 4000.0 4000.0 4000.0 4000.0 4000.0 4000.0 4000.0 4000.0 4000.0 4000.0 4000.0 4000.0 4000.0 4000.0 4000.0 4000.0 4000.0 4000.0 4000.0 4000.0 4000.0 4000.0 4000.0 4000.0 4000.0 4000.0 4000.0 4000.0 4000.0 4000.0 4000.0 4000.0 4000.0 4000.0 4000.0 4000.0 4000.0 4000.0 4000.0 4000.0 4000.0 4000.0 4000.0 4000.0 4000.0 4000.0 4000.0 4000.0 4000.0 4000.0 4000.0 4000.0 4000.0 4000.0 4000.0 4000.0 4000.0 4000.0 4000.0 4000.0 4000.0 4000.0 4000.0 4000.0 4000.0 4000.0 4000.0 4000.0 4000.0 4000.0 4000.0 4000.0 4000.0 4000.0 4000.0 4000.0 4000.0 4000.0 4000.0 4000.0 4000.0 4000.0 4000.0 4000.0 4000.0 4000.0 4000.0 4000.0 4000.0 4000.0 4000.0 4000.0 4000.0 4000.0 4000.0 4000.0 4000.0 4000.0 4000.0 4000.0 4000.0 4000.0 4000.0 4000.0 4000.0 4000.0 4000.0 4000.0 4000.0 4000.0 4000.0 4000.0 4000.0 4000.0 4000.0 4000.0 4000.0 4000.0 4000.0 4000.0 4000.0 4000.0 4000.0 4000.0 4000.0 4000.0 4000.0 4000.0 4000.0 4000.0 4000.0 4000.0 4000.0 4000.0 4000.0 4000.0 4000.0 4000.0 4000.0 4000.0 4000.0 4000.0 4000.0 4000.0 4000.0 4000.0 4000.0 4000.0 4000.0 4000.0 4000.0 4000.0 4000.0 4000.0 4000.0 4000.0 4000.0 4000.0 4000.0 4000.0 4000.0 4000.0 4000.0 4000.0 4000.0 4000.0 4000.0 4000.0 4000.0 4000.0 4000.0 4000.0 4000.0 4000.0 4000.0 4000.0 4000.0 4000.0 4000.0 4000.0 4000.0 4000.0 4000.0 4000.0 4000.0 4000.0 4000.0 4000.0 4000.0 4000.0 4000.0 4000.0 4000.0 4000.0 4000.0 4000.0 4000.0 4000.0 4000.0 4000.0 4000.0 4000.0 4000.0 4000.0 4000.0 4000.0 4000.0 4000.0 4000.0 4000.0 4000.0 4000.0 4000.0 4000.0 4000.0 4000.0 4000.0 4000.0 4000.0 4000.0 4000.0 4000.0 4000.0 4000.0 4000.0 4000.0 4000.0 4000.0 4000.0 4000.0 4000.0 4000.0 4000.0 4000.0 4000.0 4000.0 4000.0 4000.0 4000.0 4000.0 4000.0 4000.0 4000.0 4000.0 4000.0 4000.0 4000.0 4000.0 4000.0 4000.0 4000.0 4000.0 4000.0 4000.0 4000.0 4000.0 4000.0 4000.0 4000.0 4000.0 4000.0 4000.0 4000.0 4000.0 4000.0 4000.0 4000.0 4000.0 4000.0 4000.0 4000.0 4000.0 4000.0 4000.0 4000.0 4000.0 4000.0 4000.0 4000.0 4000.0 4000.0 4000.0 4000.0 4000.0 4000.0 4000.0 4000.0 4000.0 4000.0 4000.0 4000.0 4000.0 4000.0 4000.0 4000.0 4000.0 4000.0 4000.0 4000.0 4000.0 4000.0 4000.0 4000.0 4000.0 4000.0 4000.0 4000.0 4000.0 4000.0 4000.0 4000.0 4000.0 4000.0 4000.0 4000.0 4000.0 4000.0 4000.0 4000.0 4000.0 4000.0 4000.0 4000.0 4000.0 4000.0 4000.0 4000.0 4000.0 4000.0 4000.0 4000.0 4000.0 4000.0 4000.0 4000.0 4000.0 4000.0 4000.0 4000.0 4000.0 4000.0 4000.0 4000.0 4000.0 4000.0 4000.0 4000.0 4000.0 4000.0 4000.0 4000.0 4000.0 4000.0 4000.0 4000.0 4000.0 4000.0 4000.0 4000.0 4000.0 4000.0 4000.0 4000.0 4000.0 4000.0 4000.0 4000.0 4000.0 4000.0 4000.0 4000.0 4000.0 4000.0 4000.0 4000.0 4000.0 4000.0 4000.0 4000.0 4000.0 4000.0 4000.0 4000.0 4000.0 4000.0 4000.0 4000.0 4000.0 4000.0 4000.0 4000.0 4000.0 4000.0 4000.0 4000.0 4000.0 4000.0 4000.0 4000.0 4000.0 4000.0 4000.0 4000.0 4000.0 4000.0 4000.0 4000.0 4000.0 4000.0 4000.0 4000.0 4000.0 4000.0 4000.0 4000.0 4000.0 4000.0 4000.0 4000.0 4000.0 4000.0 4000.0 4000.0 4000.0 4000.0 4000.0 4000.0 4000.0 4000.0 4000.0 4000.0 4000.0 4000.0 4000.0 4000.0 4000.0 4000.0 4000.0 4000.0 4000.0 4000.0 4000.0 4000.0 4000.0 4000.0 4000.0 4000.0 4000.0 4000.0 4000.0 4000.0 4000.0 4000.0 4000.0 4000.0 4000.0 4000.0 4000.0 4000.0 4000.0 4000.0 4000.0 4000.0 4000.0 4000.0 4000.0 4000.0 4000.0 4000.0 4000.0 4000.0 4000.0 4000.0 4000.0 4000.0 4000.0 4000.0 4000.0 4000.0 4000.0 4000.0 4000.0 4000.0 4000.0 4000.0 4000.0 4000.0 4000.0 4000.0 4000.0 4000.0 4000.0 4000.0 4000.0 4000.0 4000.0 4000.0 4000.0 4000.0 4000.0 4000.0 4000.0 4000.0 4000.0 4000.0 4000.0 4000.0 4000.0 4000.0 4000.0 4000.0 4000.0 4000.0 4000.0 4000.0 4000.0 4000.0 4000.0 4000.0 4000.0 4000.0 4000.0 4000.0 4000.0 4000.0 4000.0 4000.0 4000.0 4000.0 4000.0 4000.0 4000.0 4000.0 4000.0 4000.0 4000.0 4000.0 4000.0 4000.0 4000.0 4000.0 4000.0 4000.0 4000.0 4000.0 4000.0 4000.0 4000.0 4000.0 4000.0 4000.0 4000.0 4000.0 4000.0 4000.0 4000.0 4000.0 4000.0 4000.0 4000.0 4000.0 4000.0 4000.0 4000.0 4000.0 4000.0 4000.0 4000.0 4000.0 4000.0 4000.0 4000.0 4000.0 4000.0 4000.0 4000.0 4000.0 4000.0 4000.0 4000.0 4000.0 4000.0 4000.0 4000.0 4000.0 4000.0 4000.0 4000.0 4000.0 4000.0 4000.0 4000.0 4000.0 4000.0 4000.0 4000.0 4000.0 4000.0 4000.0 4000.0 4000.0 4000.0 4000.0 4000.0 4000.0 4000.0 4000.0 4000.0 4000.0 4000.0 4000.0 4000.0 4000.0 4000.0 4000.0 4000.0 4000.0 4000.0 4000.0 4000.0 4000.0 4000.0 4000.0 4000.0 4000.0 4000.0 4000.0 4000.0 4000.0 4000.0 4000.0 4000.0 4000.0 4000.0 4000.0 4000.0 4000.0 4000.0 4000.0 4000.0 4000.0 4000.0 4000.0 4000.0 4000.0 4000.0 4000.0 4000.0 4000.0 4000.0 4000.0 4000.0 4000.0 4000.0 4000.0 4000.0 4000.0 4000.0 4000.0 4000.0 4000.0 4000.0 4000.0 4000.0 4000.0 4000.0 4000.0 4000.0 4000.0 4000.0 4000.0 4000.0 4000.0 4000.0 4000.0 4000.0 4000.0 4000.0 4000.0 4000.0 4000.0 4000.0 4000.0 4000.0 4000.0 4000.0 4000.0 4000.0 4000.0 4000.0 4000.0 4000.0 4000.0 4000.0 4000.0 4000.0 4000.0 4000.0 4000.0 4000.0 4000.0 4000.0 4000.0 4000.0 4000.0 4000.0 4000.0 4000.0 4000.0 4000.0 4000.0 4000.0 4000.0 4000.0 4000.0 4000.0 4000.0 4000.0 4000.0 4000.0 4000.0 4000.0 4000.0 4000.0 4000.0 4000.0 4000.0 4000.0 4000.0 4000.0 4000.0 4000.0 4000.0 4000.0 4000.0 4000.0 4000.0 4000.0 4000.0 4000.0 4000.0 4000.0 4000.0 4000.0 4000.0 4000.0 4000.0 4000.0 4000.0 4000.0 4000.0 4000.0 4000.0 4000.0 4000.0 4000.0 4000.0 4000.0 4000.0 4000.0 4000.0 4000.0 4000.0 4000.0 4000.0 4000.0 4000.0 4000.0 4000.0 4000.0 4000.0 4000.0 4000.0 4000.0 4000.0 4000.0 4000.0 4000.0 4000.0 4000.0 4000.0 4000.0 4000.0 4000.0 4000.0 4000.0 4000.0 4000.0 4000.0 4000.0 4000.0 4000.0 4000.0 4000.0 4000.0 4000.0 4000.0 4000.0 4000.0 4000.0 4000.0 4000.0 4000.0 4000.0 4000.0 4000.0 4000.0 4000.0 4000.0 4000.0 4000.0 4000.0 4000.0 4000.0 4000.0 4000.0 4000.0 4000.0 4000.0 4000.0 4000.0 4000.0 4000.0 4000.0 4000.0 4000.0 4000.0 4000.0 4000.0 4000.0 4000.0 4000.0 4000.0 4000.0 4000.0 4000.0 4000.0 4000.0 4000.0 4000.0 4000.0 4000.0 4000.0 4000.0 4000.0 4000.0 4000.0 4000.0 4000.0 4000.0 4000.0 4000.0 4000.0 4000.0 4000.0 4000.0 4000.0 4000.0 4000.0 4000.0 4000.0 4000.0 4000.0 4000.0 4000.0 4000.0 4000.0 4000.0 4000.0 4000.0 4000.0 4000.0 4000.0 4000.0 4000.0 4000.0 4000.0 4000.0 4000.0 4000.0 4000.0 4000.0 4000.0 4000.0 4000.0 4000.0 4000.0 4000.0 4000.0 4000.0 4000.0 4000.0 4000.0 4000.0 4000.0 4000.0 4000.0 4000.0 4000.0 4000.0 4000.0 4000.0 4000.0 4000.0 4000.0 4000.0 4000.0 4000.0 4000.0 4000.0 4000.0 4000.0 4000.0 4000.0 4000.0 4000.0 4000.0 4000.0 4000.0 4000.0 4000.0 4000.0 4000.0 4000.0 4000.0 4000.0 4000.0 4000.0 4000.0 4000.0 4000.0 4000.0 4000.0 4000.0 4000.0 4000.0 4000.0 4000.0 4000.0 4000.0 4000.0 4000.0 4000.0 4000.0 4000.0 4000.0 4000.0 4000.0 4000.0 4000.0 4000.0 4000.0 4000.0 4000.0 4000.0 4000.0 4000.0 4000.0 4000.0 4000.0 4000.0 4000.0 4000.0 4000.0 4000.0 4000.0 4000.0 4000.0 4000.0 4000.0 4000.0 4000.0 4000.0 4000.0 4000.0 4000.0 4000.0 4000.0 4000.0 4000.0 4000.0 4000.0 4000.0 4000.0 4000.0 4000.0 4000.0 4000.0 4000.0 4000.0 4000.0 4000.0 4000.0 4000.0 4000.0 4000.0 4000.0 4000.0 4000.0 4000.0 4000.0 4000.0 4000.0 4000.0 4000.0 4000.0 4000.0 4000.0 4000.0 4000.0 4000.0 4000.0 4000.0 4000.0 4000.0 4000.0 4000.0 4000.0 4000.0 4000.0 4000.0 4000.0 4000.0 4000.0 4000.0 4000.0 4000.0 4000.0 4000.0 4000.0 4000.0 4000.0 4000.0 4000.0 4000.0 4000.0 4000.0 4000.0 4000.0 4000.0 4000.0 4000.0 4000.0 4000.0 4000.0 4000.0 4000.0 4000.0 4000.0 4000.0 4000.0 4000.0 4000.0 4000.0 4000.0 4000.0 4000.0 4000.0 4000.0 4000.0 4000.0 4000.0 4000.0 4000.0 4000.0 4000.0 4000.0 4000.0 4000.0 4000.0 4000.0 4000.0 4000.0 4000.0 4000.0 4000.0 4000.0 4000.0 4000.0 4000.0 4000.0 4000.0 4000.0 4000.0 4000.0 4000.0 4000.0 4000.0 4000.0 4000.0 4000.0 4000.0 4000.0 4000.0 4000.0 4000.0 4000.0 4000.0 4000.0 4000.0 4000.0 4000.0 4000.0 4000.0 4000.0 4000.0 4000.0 4000.0 4000.0 4000.0 4000.0 4000.0 4000.0 4000.0 4000.0 4000.0 4000.0 4000.0 4000.0 4000.0 4000.0 4000.0 4000.0 4000.0 4000.0 4000.0 4000.0 4000.0 4000.0 4000.0 4000.0 4000.0 4000.0 4000.0 4000.0 4000.0 4000.0 4000.0 4000.0 4000.0 4000.0 4000.0 4000.0 4000.0 4000.0 4000.0 4000.0 4000.0 4000.0 4000.0 4000.0 4000.0 4000.0 4000.0 4000.0 4000.0 4000.0 4000.0 4000.0 4000.0 4000.0 4000.0 4000.0 4000.0 4000.0 4000.0 4000.0 4000.0 4000.0 4000.0 4000.0 4000.0 4000.0 4000.0 4000.0 4000.0 4000.0 4000.0 4000.0 4000.0 4000.0 4000.0 4000.0 4000.0 4000.0 4000.0 4000.0 4000.0 4000.0 4000.0 4000.0 4000.0 4000.0 4000.0 4000.0 4000.0 4000.0 4000.0 4000.0 4000.0 4000.0 4000.0 4000.0 4000.0 4000.0 4000.0 4000.0 4000.0 4000.0 4000.0 4000.0 4000.0 4000.0 4000.0 4000.0 4000.0 4000.0 4000.0 4000.0 4000.0 4000.0 4000.0 4000.0 4000.0 4000.0 4000.0 4000.0 4000.0 4000.0 4000.0 4000.0 4000.0 4000.0 4000.0 4000.0 4000.0 4000.0 4000.0 4000.0 4000.0 4000.0 4000.0 4000.0 4000.0 4000.0 4000.0 4000.0 4000.0 4000.0 4000.0 4000.0 4000.0 4000.0 4000.0 4000.0 4000.0 4000.0 4000.0 4000.0 4000.0 4000.0 4000.0 4000.0 4000.0 4000.0 4000.0 4000.0 4000.0 4000.0 4000.0 4000.0 4000.0 4000.0 4000.0 4000.0 4000.0 4000.0 4000.0 4000.0 4000.0 4000.0 4000.0 4000.0 4000.0 4000.0 4000.0 4000.0 4000.0 4000.0 4000.0 4000.0 4000.0 4000.0 4000.0 4000.0 4000.0 4000.0 4000.0 4000.0 4000.0 4000.0 4000.0 4000.0 4000.0 SCALARS Mass float 1
LOOKUP_TABLE default
11309700000.0 11309700000.0 11309700000.0 11309700000.0 11309700000.0 11309700000.0 11309700000.0 11309700000.0 11309700000.0 11309700000.0 11309700000.0 11309700000.0 11309700000.0 11309700000.0 11309700000.0 11309700000.0 11309700000.0 11309700000.0 11309700000.0 11309700000.0 11309700000.0 11309700000.0 11309700000.0 11309700000.0 11309700000.0 11309700000.0 11309700000.0 11309700000.0 11309700000.0 11309700000.0 11309700000.0 11309700000.0 11309700000.0 11309700000.0 11309700000.0 11309700000.0 11309700000.0 11309700000.0 11309700000.0 11309700000.0 11309700000.0 11309700000.0 11309700000.0 11309700000.0 11309700000.0 11309700000.0 11309700000.0 11309700000.0 11309700000.0 11309700000.0 11309700000.0 11309700000.0 11309700000.0 11309700000.0 11309700000.0 11309700000.0 11309700000.0 11309700000.0 11309700000.0 11309700000.0 11309700000.0 11309700000.0 11309700000.0 11309700000.0 11309700000.0 11309700000.0 11309700000.0 11309700000.0 11309700000.0 11309700000.0 11309700000.0 11309700000.0 11309700000.0 11309700000.0 11309700000.0 11309700000.0 11309700000.0 11309700000.0 11309700000.0 11309700000.0 11309700000.0 11309700000.0 11309700000.0 11309700000.0 11309700000.0 11309700000.0 11309700000.0 11309700000.0 11309700000.0 11309700000.0 11309700000.0 11309700000.0 11309700000.0 11309700000.0 11309700000.0 11309700000.0 11309700000.0 11309700000.0 11309700000.0 11309700000.0 11309700000.0 11309700000.0 11309700000.0 11309700000.0 11309700000.0 11309700000.0 11309700000.0 11309700000.0 11309700000.0 11309700000.0 11309700000.0 11309700000.0 11309700000.0 11309700000.0 11309700000.0 11309700000.0 11309700000.0 11309700000.0 11309700000.0 11309700000.0 11309700000.0 11309700000.0 11309700000.0 11309700000.0 11309700000.0 11309700000.0 11309700000.0 11309700000.0 11309700000.0 11309700000.0 11309700000.0 11309700000.0 11309700000.0 11309700000.0 11309700000.0 11309700000.0 11309700000.0 11309700000.0 11309700000.0 11309700000.0 11309700000.0 11309700000.0 11309700000.0 11309700000.0 11309700000.0 11309700000.0 11309700000.0 11309700000.0 11309700000.0 11309700000.0 11309700000.0 11309700000.0 11309700000.0 11309700000.0 11309700000.0 11309700000.0 11309700000.0 11309700000.0 11309700000.0 11309700000.0 11309700000.0 11309700000.0 11309700000.0 11309700000.0 11309700000.0 11309700000.0 11309700000.0 11309700000.0 11309700000.0 11309700000.0 11309700000.0 11309700000.0 11309700000.0 11309700000.0 11309700000.0 11309700000.0 11309700000.0 11309700000.0 11309700000.0 11309700000.0 11309700000.0 11309700000.0 11309700000.0 11309700000.0 11309700000.0 11309700000.0 11309700000.0 11309700000.0 11309700000.0 11309700000.0 11309700000.0 11309700000.0 11309700000.0 11309700000.0 11309700000.0 11309700000.0 11309700000.0 11309700000.0 11309700000.0 11309700000.0 11309700000.0 11309700000.0 11309700000.0 11309700000.0 11309700000.0 11309700000.0 11309700000.0 11309700000.0 11309700000.0 11309700000.0 11309700000.0 11309700000.0 11309700000.0 11309700000.0 11309700000.0 11309700000.0 11309700000.0 11309700000.0 11309700000.0 11309700000.0 11309700000.0 11309700000.0 11309700000.0 11309700000.0 11309700000.0 11309700000.0 11309700000.0 11309700000.0 11309700000.0 11309700000.0 11309700000.0 11309700000.0 11309700000.0 11309700000.0 11309700000.0 11309700000.0 11309700000.0 11309700000.0 11309700000.0 11309700000.0 11309700000.0 11309700000.0 11309700000.0 11309700000.0 11309700000.0 11309700000.0 11309700000.0 11309700000.0 11309700000.0 11309700000.0 11309700000.0 11309700000.0 11309700000.0 11309700000.0 11309700000.0 11309700000.0 11309700000.0 11309700000.0 11309700000.0 11309700000.0 11309700000.0 11309700000.0 11309700000.0 11309700000.0 11309700000.0 11309700000.0 11309700000.0 11309700000.0 11309700000.0 11309700000.0 11309700000.0 11309700000.0 11309700000.0 11309700000.0 11309700000.0 11309700000.0 11309700000.0 11309700000.0 11309700000.0 11309700000.0 11309700000.0 11309700000.0 11309700000.0 11309700000.0 11309700000.0 11309700000.0 11309700000.0 11309700000.0 11309700000.0 11309700000.0 11309700000.0 11309700000.0 11309700000.0 11309700000.0 11309700000.0 11309700000.0 11309700000.0 11309700000.0 11309700000.0 11309700000.0 11309700000.0 11309700000.0 11309700000.0 11309700000.0 11309700000.0 11309700000.0 11309700000.0 11309700000.0 11309700000.0 11309700000.0 11309700000.0 11309700000.0 11309700000.0 11309700000.0 11309700000.0 11309700000.0 11309700000.0 11309700000.0 11309700000.0 11309700000.0 11309700000.0 11309700000.0 11309700000.0 11309700000.0 11309700000.0 11309700000.0 11309700000.0 11309700000.0 11309700000.0 11309700000.0 11309700000.0 11309700000.0 11309700000.0 11309700000.0 11309700000.0 11309700000.0 11309700000.0 11309700000.0 11309700000.0 11309700000.0 11309700000.0 11309700000.0 11309700000.0 11309700000.0 11309700000.0 11309700000.0 11309700000.0 11309700000.0 11309700000.0 11309700000.0 11309700000.0 11309700000.0 11309700000.0 11309700000.0 11309700000.0 11309700000.0 11309700000.0 11309700000.0 11309700000.0 11309700000.0 11309700000.0 11309700000.0 11309700000.0 11309700000.0 11309700000.0 11309700000.0 11309700000.0 11309700000.0 11309700000.0 11309700000.0 11309700000.0 11309700000.0 11309700000.0 11309700000.0 11309700000.0 11309700000.0 11309700000.0 11309700000.0 11309700000.0 11309700000.0 11309700000.0 11309700000.0 11309700000.0 11309700000.0 11309700000.0 11309700000.0 11309700000.0 11309700000.0 11309700000.0 11309700000.0 11309700000.0 11309700000.0 11309700000.0 11309700000.0 11309700000.0 11309700000.0 11309700000.0 11309700000.0 11309700000.0 11309700000.0 11309700000.0 11309700000.0 11309700000.0 11309700000.0 11309700000.0 11309700000.0 11309700000.0 11309700000.0 11309700000.0 11309700000.0 11309700000.0 11309700000.0 11309700000.0 11309700000.0 11309700000.0 11309700000.0 11309700000.0 11309700000.0 11309700000.0 11309700000.0 11309700000.0 11309700000.0 11309700000.0 11309700000.0 11309700000.0 11309700000.0 11309700000.0 11309700000.0 11309700000.0 11309700000.0 11309700000.0 11309700000.0 11309700000.0 11309700000.0 11309700000.0 11309700000.0 11309700000.0 11309700000.0 11309700000.0 11309700000.0 11309700000.0 11309700000.0 11309700000.0 11309700000.0 11309700000.0 11309700000.0 11309700000.0 11309700000.0 11309700000.0 11309700000.0 11309700000.0 11309700000.0 11309700000.0 11309700000.0 11309700000.0 11309700000.0 11309700000.0 11309700000.0 11309700000.0 11309700000.0 11309700000.0 11309700000.0 11309700000.0 11309700000.0 11309700000.0 11309700000.0 11309700000.0 11309700000.0 11309700000.0 11309700000.0 11309700000.0 11309700000.0 11309700000.0 11309700000.0 11309700000.0 11309700000.0 11309700000.0 11309700000.0 11309700000.0 11309700000.0 11309700000.0 11309700000.0 11309700000.0 11309700000.0 11309700000.0 11309700000.0 11309700000.0 11309700000.0 11309700000.0 11309700000.0 11309700000.0 11309700000.0 11309700000.0 11309700000.0 11309700000.0 11309700000.0 11309700000.0 11309700000.0 11309700000.0 11309700000.0 11309700000.0 11309700000.0 11309700000.0 11309700000.0 11309700000.0 11309700000.0 11309700000.0 11309700000.0 11309700000.0 11309700000.0 11309700000.0 11309700000.0 11309700000.0 11309700000.0 11309700000.0 11309700000.0 11309700000.0 11309700000.0 11309700000.0 11309700000.0 11309700000.0 11309700000.0 11309700000.0 11309700000.0 11309700000.0 11309700000.0 11309700000.0 11309700000.0 11309700000.0 11309700000.0 11309700000.0 11309700000.0 11309700000.0 11309700000.0 11309700000.0 11309700000.0 11309700000.0 11309700000.0 11309700000.0 11309700000.0 11309700000.0 11309700000.0 11309700000.0 11309700000.0 11309700000.0 11309700000.0 11309700000.0 11309700000.0 11309700000.0 11309700000.0 11309700000.0 11309700000.0 11309700000.0 11309700000.0 11309700000.0 11309700000.0 11309700000.0 11309700000.0 11309700000.0 11309700000.0 11309700000.0 11309700000.0 11309700000.0 11309700000.0 11309700000.0 11309700000.0 11309700000.0 11309700000.0 11309700000.0 11309700000.0 11309700000.0 11309700000.0 11309700000.0 11309700000.0 11309700000.0 11309700000.0 11309700000.0 11309700000.0 11309700000.0 11309700000.0 11309700000.0 11309700000.0 11309700000.0 11309700000.0 11309700000.0 11309700000.0 11309700000.0 11309700000.0 11309700000.0 11309700000.0 11309700000.0 11309700000.0 11309700000.0 11309700000.0 11309700000.0 11309700000.0 11309700000.0 11309700000.0 11309700000.0 11309700000.0 11309700000.0 11309700000.0 11309700000.0 11309700000.0 11309700000.0 11309700000.0 11309700000.0 11309700000.0 11309700000.0 11309700000.0 11309700000.0 11309700000.0 11309700000.0 11309700000.0 11309700000.0 11309700000.0 11309700000.0 11309700000.0 11309700000.0 11309700000.0 11309700000.0 11309700000.0 11309700000.0 11309700000.0 11309700000.0 11309700000.0 11309700000.0 11309700000.0 11309700000.0 11309700000.0 11309700000.0 11309700000.0 11309700000.0 11309700000.0 11309700000.0 11309700000.0 11309700000.0 11309700000.0 11309700000.0 11309700000.0 11309700000.0 11309700000.0 11309700000.0 11309700000.0 11309700000.0 11309700000.0 11309700000.0 11309700000.0 11309700000.0 11309700000.0 11309700000.0 11309700000.0 11309700000.0 11309700000.0 11309700000.0 11309700000.0 11309700000.0 11309700000.0 11309700000.0 11309700000.0 11309700000.0 11309700000.0 11309700000.0 11309700000.0 11309700000.0 11309700000.0 11309700000.0 11309700000.0 11309700000.0 11309700000.0 11309700000.0 11309700000.0 11309700000.0 11309700000.0 11309700000.0 11309700000.0 11309700000.0 11309700000.0 11309700000.0 11309700000.0 11309700000.0 11309700000.0 11309700000.0 11309700000.0 11309700000.0 11309700000.0 11309700000.0 11309700000.0 11309700000.0 11309700000.0 11309700000.0 11309700000.0 11309700000.0 11309700000.0 11309700000.0 11309700000.0 11309700000.0 11309700000.0 11309700000.0 11309700000.0 11309700000.0 11309700000.0 11309700000.0 11309700000.0 11309700000.0 11309700000.0 11309700000.0 11309700000.0 11309700000.0 11309700000.0 11309700000.0 11309700000.0 11309700000.0 11309700000.0 11309700000.0 11309700000.0 11309700000.0 11309700000.0 11309700000.0 11309700000.0 11309700000.0 11309700000.0 11309700000.0 11309700000.0 11309700000.0 11309700000.0 11309700000.0 11309700000.0 11309700000.0 11309700000.0 11309700000.0 11309700000.0 11309700000.0 11309700000.0 11309700000.0 11309700000.0 11309700000.0 11309700000.0 11309700000.0 11309700000.0 11309700000.0 11309700000.0 11309700000.0 11309700000.0 11309700000.0 11309700000.0 11309700000.0 11309700000.0 11309700000.0 11309700000.0 11309700000.0 11309700000.0 11309700000.0 11309700000.0 11309700000.0 11309700000.0 11309700000.0 11309700000.0 11309700000.0 11309700000.0 11309700000.0 11309700000.0 11309700000.0 11309700000.0 11309700000.0 11309700000.0 11309700000.0 11309700000.0 11309700000.0 11309700000.0 11309700000.0 11309700000.0 11309700000.0 11309700000.0 11309700000.0 11309700000.0 11309700000.0 11309700000.0 11309700000.0 11309700000.0 11309700000.0 11309700000.0 11309700000.0 11309700000.0 11309700000.0 11309700000.0 11309700000.0 11309700000.0 11309700000.0 11309700000.0 11309700000.0 11309700000.0 11309700000.0 11309700000.0 11309700000.0 11309700000.0 11309700000.0 11309700000.0 11309700000.0 11309700000.0 11309700000.0 11309700000.0 11309700000.0 11309700000.0 11309700000.0 11309700000.0 11309700000.0 11309700000.0 11309700000.0 11309700000.0 11309700000.0 11309700000.0 11309700000.0 11309700000.0 11309700000.0 11309700000.0 11309700000.0 11309700000.0 11309700000.0 11309700000.0 11309700000.0 11309700000.0 11309700000.0 11309700000.0 11309700000.0 11309700000.0 11309700000.0 11309700000.0 11309700000.0 11309700000.0 11309700000.0 11309700000.0 11309700000.0 11309700000.0 11309700000.0 11309700000.0 11309700000.0 11309700000.0 11309700000.0 11309700000.0 11309700000.0 11309700000.0 11309700000.0 11309700000.0 11309700000.0 11309700000.0 11309700000.0 11309700000.0 11309700000.0 11309700000.0 11309700000.0 11309700000.0 11309700000.0 11309700000.0 11309700000.0 11309700000.0 11309700000.0 11309700000.0 11309700000.0 11309700000.0 11309700000.0 11309700000.0 11309700000.0 11309700000.0 11309700000.0 11309700000.0 11309700000.0 11309700000.0 11309700000.0 11309700000.0 11309700000.0 11309700000.0 11309700000.0 11309700000.0 11309700000.0 11309700000.0 11309700000.0 11309700000.0 11309700000.0 11309700000.0 11309700000.0 11309700000.0 11309700000.0 11309700000.0 11309700000.0 11309700000.0 11309700000.0 11309700000.0 11309700000.0 11309700000.0 11309700000.0 11309700000.0 11309700000.0 11309700000.0 11309700000.0 11309700000.0 11309700000.0 11309700000.0 11309700000.0 11309700000.0 11309700000.0 11309700000.0 11309700000.0 11309700000.0 11309700000.0 11309700000.0 11309700000.0 11309700000.0 11309700000.0 11309700000.0 11309700000.0 11309700000.0 11309700000.0 11309700000.0 11309700000.0 11309700000.0 11309700000.0 11309700000.0 11309700000.0 11309700000.0 11309700000.0 11309700000.0 11309700000.0 11309700000.0 11309700000.0 11309700000.0 11309700000.0 11309700000.0 11309700000.0 11309700000.0 11309700000.0 11309700000.0 11309700000.0 11309700000.0 11309700000.0 11309700000.0 11309700000.0 11309700000.0 11309700000.0 11309700000.0 11309700000.0 11309700000.0 11309700000.0 11309700000.0 11309700000.0 11309700000.0 11309700000.0 11309700000.0 11309700000.0 11309700000.0 11309700000.0 11309700000.0 11309700000.0 11309700000.0 11309700000.0 11309700000.0 11309700000.0 11309700000.0 11309700000.0 11309700000.0 11309700000.0 11309700000.0 11309700000.0 11309700000.0 11309700000.0 11309700000.0 11309700000.0 11309700000.0 11309700000.0 11309700000.0 11309700000.0 11309700000.0 11309700000.0 11309700000.0 11309700000.0 11309700000.0 11309700000.0 11309700000.0 11309700000.0 11309700000.0 11309700000.0 11309700000.0 11309700000.0 11309700000.0 11309700000.0 11309700000.0 11309700000.0 11309700000.0 11309700000.0 11309700000.0 11309700000.0 11309700000.0 11309700000.0 11309700000.0 11309700000.0 11309700000.0 11309700000.0 11309700000.0 11309700000.0 11309700000.0 11309700000.0 11309700000.0 11309700000.0 11309700000.0 11309700000.0 11309700000.0 11309700000.0 11309700000.0 11309700000.0 11309700000.0 11309700000.0 11309700000.0 11309700000.0 11309700000.0 11309700000.0 11309700000.0 11309700000.0 11309700000.0 11309700000.0 11309700000.0 11309700000.0 11309700000.0 11309700000.0 11309700000.0 11309700000.0 11309700000.0 11309700000.0 11309700000.0 11309700000.0 11309700000.0 11309700000.0 11309700000.0 11309700000.0 11309700000.0 11309700000.0 11309700000.0 11309700000.0 11309700000.0 11309700000.0 11309700000.0 11309700000.0 11309700000.0 11309700000.0 11309700000.0 11309700000.0 11309700000.0 11309700000.0 11309700000.0 11309700000.0 11309700000.0 11309700000.0 11309700000.0 11309700000.0 11309700000.0 11309700000.0 11309700000.0 11309700000.0 11309700000.0 11309700000.0 11309700000.0 11309700000.0 11309700000.0 11309700000.0 11309700000.0 11309700000.0 11309700000.0 11309700000.0 11309700000.0 11309700000.0 11309700000.0 11309700000.0 11309700000.0 11309700000.0 11309700000.0 11309700000.0 11309700000.0 11309700000.0 11309700000.0 11309700000.0 11309700000.0 11309700000.0 11309700000.0 11309700000.0 11309700000.0 11309700000.0 11309700000.0 11309700000.0 11309700000.0 11309700000.0 11309700000.0 11309700000.0 11309700000.0 11309700000.0 11309700000.0 11309700000.0 11309700000.0 11309700000.0 11309700000.0 11309700000.0 11309700000.0 11309700000.0 11309700000.0 11309700000.0 11309700000.0 11309700000.0 11309700000.0 11309700000.0 11309700000.0 11309700000.0 11309700000.0 11309700000.0 11309700000.0 11309700000.0 11309700000.0 11309700000.0 11309700000.0 11309700000.0 11309700000.0 11309700000.0 11309700000.0 11309700000.0 11309700000.0 11309700000.0 11309700000.0 11309700000.0 11309700000.0 11309700000.0 11309700000.0 11309700000.0 11309700000.0 11309700000.0 11309700000.0 11309700000.0 11309700000.0 11309700000.0 11309700000.0 11309700000.0 11309700000.0 11309700000.0 11309700000.0 11309700000.0 11309700000.0 11309700000.0 11309700000.0 11309700000.0 11309700000.0 11309700000.0 11309700000.0 11309700000.0 11309700000.0 11309700000.0 11309700000.0 11309700000.0 11309700000.0 11309700000.0 11309700000.0 11309700000.0 11309700000.0 11309700000.0 11309700000.0 11309700000.0 11309700000.0 11309700000.0 11309700000.0 11309700000.0 11309700000.0 11309700000.0 11309700000.0 11309700000.0 11309700000.0 11309700000.0 11309700000.0 11309700000.0 11309700000.0 11309700000.0 11309700000.0 11309700000.0 11309700000.0 11309700000.0 11309700000.0 11309700000.0 11309700000.0 11309700000.0 11309700000.0 11309700000.0 11309700000.0 11309700000.0 11309700000.0 11309700000.0 11309700000.0 11309700000.0 11309700000.0 11309700000.0 11309700000.0 11309700000.0 11309700000.0 11309700000.0 11309700000.0 11309700000.0 11309700000.0 11309700000.0 11309700000.0 11309700000.0 11309700000.0 11309700000.0 11309700000.0 11309700000.0 11309700000.0 11309700000.0 11309700000.0 11309700000.0 11309700000.0 11309700000.0 11309700000.0 11309700000.0 11309700000.0 11309700000.0 11309700000.0 11309700000.0 11309700000.0 11309700000.0 11309700000.0 11309700000.0 11309700000.0 11309700000.0 11309700000.0 11309700000.0 11309700000.0 11309700000.0 11309700000.0 11309700000.0 11309700000.0 11309700000.0 11309700000.0 11309700000.0 11309700000.0 11309700000.0 11309700000.0 11309700000.0 11309700000.0 11309700000.0 11309700000.0 11309700000.0 11309700000.0 11309700000.0 11309700000.0 11309700000.0 11309700000.0 11309700000.0 11309700000.0 11309700000.0 11309700000.0 11309700000.0 11309700000.0 11309700000.0 11309700000.0 11309700000.0 11309700000.0 11309700000.0 11309700000.0 11309700000.0 11309700000.0 11309700000.0 11309700000.0 11309700000.0 11309700000.0 11309700000.0 11309700000.0 11309700000.0 11309700000.0 11309700000.0 11309700000.0 11309700000.0 11309700000.0 11309700000.0 11309700000.0 11309700000.0 11309700000.0 11309700000.0 11309700000.0 11309700000.0 11309700000.0 11309700000.0 11309700000.0 11309700000.0 11309700000.0 11309700000.0 11309700000.0 11309700000.0 11309700000.0 11309700000.0 11309700000.0 11309700000.0 11309700000.0 11309700000.0 11309700000.0 11309700000.0 11309700000.0 11309700000.0 11309700000.0 11309700000.0 11309700000.0 11309700000.0 11309700000.0 11309700000.0 11309700000.0 11309700000.0 11309700000.0 11309700000.0 11309700000.0 11309700000.0 11309700000.0 11309700000.0 11309700000.0 11309700000.0 11309700000.0 11309700000.0 11309700000.0 11309700000.0 11309700000.0 11309700000.0 11309700000.0 11309700000.0 11309700000.0 11309700000.0 11309700000.0 11309700000.0 11309700000.0 11309700000.0 11309700000.0 11309700000.0 11309700000.0 11309700000.0 11309700000.0 11309700000.0 11309700000.0 11309700000.0 11309700000.0 11309700000.0 11309700000.0 11309700000.0 11309700000.0 11309700000.0 11309700000.0 11309700000.0 11309700000.0 11309700000.0 11309700000.0 11309700000.0 11309700000.0 11309700000.0 11309700000.0 11309700000.0 11309700000.0 11309700000.0 11309700000.0 11309700000.0 11309700000.0 11309700000.0 11309700000.0 11309700000.0 11309700000.0 11309700000.0 11309700000.0 11309700000.0 11309700000.0 11309700000.0 11309700000.0 11309700000.0 11309700000.0 11309700000.0 11309700000.0 11309700000.0 11309700000.0 11309700000.0 11309700000.0 11309700000.0 11309700000.0 11309700000.0 11309700000.0 11309700000.0 11309700000.0 11309700000.0 11309700000.0 11309700000.0 11309700000.0 11309700000.0 11309700000.0 11309700000.0 11309700000.0 11309700000.0 11309700000.0 11309700000.0 11309700000.0 11309700000.0 11309700000.0 11309700000.0 11309700000.0 11309700000.0 11309700000.0 11309700000.0 11309700000.0 11309700000.0 11309700000.0 11309700000.0 11309700000.0 11309700000.0 11309700000.0 11309700000.0 11309700000.0 11309700000.0 11309700000.0 11309700000.0 11309700000.0 11309700000.0 11309700000.0 11309700000.0 11309700000.0 11309700000.0 11309700000.0 11309700000.0 11309700000.0 11309700000.0 11309700000.0 11309700000.0 11309700000.0 11309700000.0 11309700000.0 11309700000.0 11309700000.0 11309700000.0 11309700000.0 11309700000.0 11309700000.0 11309700000.0 11309700000.0 11309700000.0 11309700000.0 11309700000.0 11309700000.0 11309700000.0 11309700000.0 11309700000.0 11309700000.0 11309700000.0 11309700000.0 11309700000.0 11309700000.0 11309700000.0 11309700000.0 11309700000.0 11309700000.0 11309700000.0 11309700000.0 11309700000.0 11309700000.0 11309700000.0 11309700000.0 11309700000.0 11309700000.0 11309700000.0 11309700000.0 11309700000.0 11309700000.0 11309700000.0 11309700000.0 11309700000.0 11309700000.0 11309700000.0 11309700000.0 11309700000.0 11309700000.0 11309700000.0 11309700000.0 11309700000.0 11309700000.0 11309700000.0 11309700000.0 11309700000.0 11309700000.0 11309700000.0 11309700000.0 11309700000.0 11309700000.0 11309700000.0 11309700000.0 11309700000.0 11309700000.0 11309700000.0 11309700000.0 11309700000.0 11309700000.0 11309700000.0 11309700000.0 11309700000.0 11309700000.0 11309700000.0 11309700000.0 11309700000.0 11309700000.0 11309700000.0 11309700000.0 11309700000.0 11309700000.0 11309700000.0 11309700000.0 11309700000.0 11309700000.0 11309700000.0 11309700000.0 11309700000.0 11309700000.0 11309700000.0 11309700000.0 11309700000.0 11309700000.0 11309700000.0 11309700000.0 11309700000.0 11309700000.0 11309700000.0 11309700000.0 11309700000.0 11309700000.0 11309700000.0 11309700000.0 11309700000.0 11309700000.0 11309700000.0 11309700000.0 11309700000.0 11309700000.0 11309700000.0 11309700000.0 11309700000.0 11309700000.0 11309700000.0 11309700000.0 11309700000.0 11309700000.0 11309700000.0 11309700000.0 11309700000.0 11309700000.0 11309700000.0 11309700000.0 11309700000.0 11309700000.0 11309700000.0 11309700000.0 11309700000.0 11309700000.0 11309700000.0 11309700000.0 11309700000.0 11309700000.0 11309700000.0 11309700000.0 11309700000.0 11309700000.0 11309700000.0 11309700000.0 11309700000.0 11309700000.0 11309700000.0 11309700000.0 11309700000.0 11309700000.0 11309700000.0 11309700000.0 11309700000.0 11309700000.0 11309700000.0 11309700000.0 11309700000.0 11309700000.0 11309700000.0 11309700000.0 11309700000.0 11309700000.0 11309700000.0 11309700000.0 11309700000.0 11309700000.0 11309700000.0 11309700000.0 11309700000.0 11309700000.0 11309700000.0 11309700000.0 11309700000.0 11309700000.0 11309700000.0 11309700000.0 11309700000.0 11309700000.0 11309700000.0 11309700000.0 11309700000.0 11309700000.0 11309700000.0 11309700000.0 11309700000.0 11309700000.0 11309700000.0 11309700000.0 11309700000.0 11309700000.0 11309700000.0 11309700000.0 11309700000.0 11309700000.0 11309700000.0 11309700000.0 11309700000.0 11309700000.0 11309700000.0 11309700000.0 11309700000.0 11309700000.0 11309700000.0 11309700000.0 11309700000.0 11309700000.0 11309700000.0 11309700000.0 11309700000.0 11309700000.0 11309700000.0 11309700000.0 11309700000.0 11309700000.0 11309700000.0 11309700000.0 11309700000.0 11309700000.0 11309700000.0 11309700000.0 11309700000.0 11309700000.0 11309700000.0 11309700000.0 11309700000.0 11309700000.0 11309700000.0 11309700000.0 11309700000.0 11309700000.0 11309700000.0 11309700000.0 11309700000.0 11309700000.0 11309700000.0 11309700000.0 11309700000.0 11309700000.0 11309700000.0 11309700000.0 11309700000.0 11309700000.0 11309700000.0 11309700000.0 11309700000.0 11309700000.0 11309700000.0 11309700000.0 11309700000.0 11309700000.0 11309700000.0 11309700000.0 11309700000.0 11309700000.0 11309700000.0 11309700000.0 11309700000.0 11309700000.0 11309700000.0 11309700000.0 11309700000.0 11309700000.0 11309700000.0 11309700000.0 11309700000.0 11309700000.0 11309700000.0 11309700000.0 11309700000.0 11309700000.0 11309700000.0 11309700000.0 11309700000.0 11309700000.0 11309700000.0 11309700000.0 11309700000.0 11309700000.0 11309700000.0 11309700000.0 11309700000.0 11309700000.0 11309700000.0 11309700000.0 11309700000.0 11309700000.0 11309700000.0 11309700000.0 11309700000.0 11309700000.0 11309700000.0 11309700000.0 11309700000.0 11309700000.0 11309700000.0 11309700000.0 11309700000.0 11309700000.0 11309700000.0 11309700000.0 11309700000.0 11309700000.0 11309700000.0 11309700000.0 11309700000.0 11309700000.0 11309700000.0 11309700000.0 11309700000.0 11309700000.0 11309700000.0 11309700000.0 11309700000.0 11309700000.0 11309700000.0 11309700000.0 11309700000.0 11309700000.0 11309700000.0 11309700000.0 11309700000.0 11309700000.0 11309700000.0 11309700000.0 11309700000.0 11309700000.0 11309700000.0 11309700000.0 11309700000.0 11309700000.0 11309700000.0 11309700000.0 11309700000.0 11309700000.0 11309700000.0 11309700000.0 11309700000.0 11309700000.0 11309700000.0 11309700000.0 11309700000.0 11309700000.0 11309700000.0 11309700000.0 11309700000.0 11309700000.0 11309700000.0 11309700000.0 11309700000.0 11309700000.0 11309700000.0 11309700000.0 11309700000.0 11309700000.0 11309700000.0 11309700000.0 11309700000.0 11309700000.0 11309700000.0 11309700000.0 11309700000.0 11309700000.0 11309700000.0 11309700000.0 11309700000.0 11309700000.0 11309700000.0 11309700000.0 11309700000.0 11309700000.0 11309700000.0 11309700000.0 11309700000.0 11309700000.0 11309700000.0 11309700000.0 11309700000.0 11309700000.0 11309700000.0 11309700000.0 11309700000.0 11309700000.0 11309700000.0 11309700000.0 11309700000.0 11309700000.0 11309700000.0 11309700000.0 11309700000.0 11309700000.0 11309700000.0 11309700000.0 11309700000.0 11309700000.0 11309700000.0 11309700000.0 11309700000.0 11309700000.0 11309700000.0 11309700000.0 11309700000.0 11309700000.0 11309700000.0 11309700000.0 11309700000.0 11309700000.0 11309700000.0 11309700000.0 11309700000.0 11309700000.0 11309700000.0 11309700000.0 11309700000.0 11309700000.0 11309700000.0 11309700000.0 11309700000.0 11309700000.0 11309700000.0 11309700000.0 11309700000.0 11309700000.0 11309700000.0 11309700000.0 11309700000.0 11309700000.0 11309700000.0 11309700000.0 11309700000.0 11309700000.0 11309700000.0 11309700000.0 11309700000.0 11309700000.0 11309700000.0 11309700000.0 11309700000.0 11309700000.0 11309700000.0 11309700000.0 11309700000.0 11309700000.0 11309700000.0 11309700000.0 11309700000.0 11309700000.0 11309700000.0 11309700000.0 11309700000.0 11309700000.0 11309700000.0 11309700000.0 11309700000.0 11309700000.0 11309700000.0 11309700000.0 11309700000.0 11309700000.0 11309700000.0 11309700000.0 11309700000.0 11309700000.0 11309700000.0 11309700000.0 11309700000.0 11309700000.0 11309700000.0 11309700000.0 11309700000.0 11309700000.0 11309700000.0 11309700000.0 11309700000.0 11309700000.0 11309700000.0 11309700000.0 11309700000.0 11309700000.0 11309700000.0 11309700000.0 11309700000.0 11309700000.0 11309700000.0 11309700000.0 11309700000.0 11309700000.0 11309700000.0 11309700000.0 11309700000.0 11309700000.0 11309700000.0 11309700000.0 11309700000.0 11309700000.0 11309700000.0 11309700000.0 11309700000.0 11309700000.0 11309700000.0 11309700000.0 11309700000.0 11309700000.0 11309700000.0 11309700000.0 11309700000.0 11309700000.0 11309700000.0 11309700000.0 11309700000.0 11309700000.0 11309700000.0 11309700000.0 11309700000.0 11309700000.0 11309700000.0 11309700000.0 11309700000.0 11309700000.0 11309700000.0 11309700000.0 11309700000.0 11309700000.0 11309700000.0 11309700000.0 11309700000.0 11309700000.0 11309700000.0 11309700000.0 11309700000.0 11309700000.0 11309700000.0 11309700000.0 11309700000.0 11309700000.0 11309700000.0 11309700000.0 11309700000.0 11309700000.0 11309700000.0 11309700000.0 11309700000.0 11309700000.0 11309700000.0 11309700000.0 11309700000.0 11309700000.0 11309700000.0 11309700000.0 11309700000.0 11309700000.0 11309700000.0 11309700000.0 11309700000.0 11309700000.0 11309700000.0 11309700000.0 11309700000.0 11309700000.0 11309700000.0 11309700000.0 11309700000.0 11309700000.0 11309700000.0 11309700000.0 11309700000.0 11309700000.0 11309700000.0 11309700000.0 11309700000.0 11309700000.0 11309700000.0 11309700000.0 11309700000.0 11309700000.0 11309700000.0 11309700000.0 11309700000.0 11309700000.0 11309700000.0 11309700000.0 11309700000.0 11309700000.0 11309700000.0 11309700000.0 11309700000.0 11309700000.0 11309700000.0 11309700000.0 11309700000.0 11309700000.0 11309700000.0 11309700000.0 11309700000.0 11309700000.0 11309700000.0 11309700000.0 11309700000.0 11309700000.0 11309700000.0 11309700000.0 11309700000.0 11309700000.0 11309700000.0 11309700000.0 11309700000.0 11309700000.0 11309700000.0 11309700000.0 11309700000.0 11309700000.0 11309700000.0 11309700000.0 11309700000.0 11309700000.0 11309700000.0 11309700000.0 11309700000.0 11309700000.0 11309700000.0 11309700000.0 11309700000.0 11309700000.0 11309700000.0 11309700000.0 11309700000.0 11309700000.0 11309700000.0 11309700000.0 11309700000.0 11309700000.0 11309700000.0 11309700000.0 11309700000.0 11309700000.0 11309700000.0 11309700000.0 11309700000.0 11309700000.0 11309700000.0 11309700000.0 11309700000.0 11309700000.0 11309700000.0 11309700000.0 11309700000.0 11309700000.0 11309700000.0 11309700000.0 11309700000.0 11309700000.0 11309700000.0 11309700000.0 11309700000.0 11309700000.0 11309700000.0 11309700000.0 11309700000.0 11309700000.0 11309700000.0 11309700000.0 11309700000.0 11309700000.0 11309700000.0 11309700000.0 11309700000.0 11309700000.0 11309700000.0 11309700000.0 11309700000.0 11309700000.0 11309700000.0 11309700000.0 11309700000.0 11309700000.0 11309700000.0 11309700000.0 11309700000.0 11309700000.0 11309700000.0 11309700000.0 11309700000.0 11309700000.0 11309700000.0 11309700000.0 11309700000.0 11309700000.0 11309700000.0 11309700000.0 11309700000.0 11309700000.0 11309700000.0 11309700000.0 11309700000.0 11309700000.0 11309700000.0 11309700000.0 11309700000.0 11309700000.0 11309700000.0 11309700000.0 11309700000.0 11309700000.0 11309700000.0 11309700000.0 11309700000.0 11309700000.0 11309700000.0 11309700000.0 11309700000.0 11309700000.0 11309700000.0 11309700000.0 11309700000.0 11309700000.0 11309700000.0 11309700000.0 11309700000.0 11309700000.0 11309700000.0 11309700000.0 11309700000.0 11309700000.0 11309700000.0 11309700000.0 11309700000.0 11309700000.0 11309700000.0 11309700000.0 11309700000.0 11309700000.0 11309700000.0 11309700000.0 11309700000.0 11309700000.0 11309700000.0 11309700000.0 11309700000.0 11309700000.0 11309700000.0 11309700000.0 11309700000.0 11309700000.0 11309700000.0 11309700000.0 11309700000.0 11309700000.0 11309700000.0 11309700000.0 11309700000.0 11309700000.0 11309700000.0 11309700000.0 11309700000.0 11309700000.0 11309700000.0 11309700000.0 11309700000.0 11309700000.0 11309700000.0 11309700000.0 11309700000.0 11309700000.0 11309700000.0 11309700000.0 11309700000.0 11309700000.0 11309700000.0 11309700000.0 11309700000.0 11309700000.0 11309700000.0 11309700000.0 11309700000.0 11309700000.0 11309700000.0 11309700000.0 11309700000.0 11309700000.0 11309700000.0 11309700000.0 11309700000.0 11309700000.0 11309700000.0 11309700000.0 11309700000.0 11309700000.0 11309700000.0 11309700000.0 11309700000.0 11309700000.0 11309700000.0 11309700000.0 11309700000.0 11309700000.0 11309700000.0 11309700000.0 11309700000.0 11309700000.0 11309700000.0 11309700000.0 11309700000.0 11309700000.0 11309700000.0 11309700000.0 11309700000.0 11309700000.0 11309700000.0 11309700000.0 11309700000.0 11309700000.0 11309700000.0 11309700000.0 11309700000.0 11309700000.0 11309700000.0 11309700000.0 11309700000.0 11309700000.0 11309700000.0 11309700000.0 11309700000.0 11309700000.0 11309700000.0 11309700000.0 11309700000.0 11309700000.0 11309700000.0 11309700000.0 11309700000.0 11309700000.0 11309700000.0 11309700000.0 11309700000.0 11309700000.0 11309700000.0 11309700000.0 11309700000.0 11309700000.0 11309700000.0 11309700000.0 11309700000.0 11309700000.0 11309700000.0 11309700000.0 11309700000.0 11309700000.0 11309700000.0 11309700000.0 11309700000.0 11309700000.0 11309700000.0 11309700000.0 11309700000.0 11309700000.0 11309700000.0 11309700000.0 11309700000.0 11309700000.0 11309700000.0 11309700000.0 11309700000.0 11309700000.0 11309700000.0 11309700000.0 11309700000.0 11309700000.0 11309700000.0 11309700000.0 11309700000.0 11309700000.0 11309700000.0 11309700000.0 11309700000.0 11309700000.0 11309700000.0 11309700000.0 11309700000.0 11309700000.0 11309700000.0 11309700000.0 11309700000.0 11309700000.0 11309700000.0 11309700000.0 11309700000.0 11309700000.0 11309700000.0 11309700000.0 11309700000.0 11309700000.0 11309700000.0 11309700000.0 11309700000.0 11309700000.0 11309700000.0 11309700000.0 11309700000.0 11309700000.0 11309700000.0 11309700000.0 11309700000.0 11309700000.0 11309700000.0 11309700000.0 11309700000.0 11309700000.0 11309700000.0 11309700000.0 11309700000.0 11309700000.0 11309700000.0 11309700000.0 11309700000.0 11309700000.0 11309700000.0 11309700000.0 11309700000.0 11309700000.0 11309700000.0 11309700000.0 11309700000.0 11309700000.0 11309700000.0 11309700000.0 11309700000.0 11309700000.0 11309700000.0 11309700000.0 11309700000.0 11309700000.0 11309700000.0 11309700000.0 11309700000.0 11309700000.0 11309700000.0 11309700000.0 11309700000.0 11309700000.0 11309700000.0 11309700000.0 11309700000.0 11309700000.0 11309700000.0 11309700000.0 11309700000.0 11309700000.0 11309700000.0 11309700000.0 11309700000.0 11309700000.0 11309700000.0 11309700000.0 11309700000.0 11309700000.0 11309700000.0 11309700000.0 11309700000.0 11309700000.0 11309700000.0 11309700000.0 11309700000.0 11309700000.0 11309700000.0 11309700000.0 11309700000.0 11309700000.0 11309700000.0 11309700000.0 11309700000.0 11309700000.0 11309700000.0 11309700000.0 11309700000.0 11309700000.0 11309700000.0 11309700000.0 11309700000.0 11309700000.0 11309700000.0 11309700000.0 11309700000.0 11309700000.0 11309700000.0 11309700000.0 11309700000.0 11309700000.0 11309700000.0 11309700000.0 11309700000.0 11309700000.0 11309700000.0 11309700000.0 11309700000.0 11309700000.0 11309700000.0 11309700000.0 11309700000.0 11309700000.0 11309700000.0 11309700000.0 11309700000.0 11309700000.0 11309700000.0 11309700000.0 11309700000.0 11309700000.0 11309700000.0 11309700000.0 11309700000.0 11309700000.0 11309700000.0 11309700000.0 11309700000.0 11309700000.0 11309700000.0 11309700000.0 11309700000.0 11309700000.0 11309700000.0 11309700000.0 11309700000.0 11309700000.0 11309700000.0 11309700000.0 11309700000.0 11309700000.0 11309700000.0 11309700000.0 11309700000.0 11309700000.0 11309700000.0 11309700000.0 11309700000.0 11309700000.0 11309700000.0 11309700000.0 11309700000.0 11309700000.0 11309700000.0 11309700000.0 11309700000.0 11309700000.0 11309700000.0 11309700000.0 11309700000.0 11309700000.0 11309700000.0 11309700000.0 11309700000.0 11309700000.0 11309700000.0 11309700000.0 11309700000.0 11309700000.0 11309700000.0 11309700000.0 11309700000.0 11309700000.0 11309700000.0 11309700000.0 11309700000.0 11309700000.0 11309700000.0 11309700000.0 11309700000.0 11309700000.0 11309700000.0 11309700000.0 11309700000.0 11309700000.0 11309700000.0 11309700000.0 11309700000.0 11309700000.0 11309700000.0 11309700000.0 11309700000.0 11309700000.0 11309700000.0 11309700000.0 11309700000.0 11309700000.0 11309700000.0 11309700000.0 11309700000.0 11309700000.0 11309700000.0 11309700000.0 11309700000.0 11309700000.0 11309700000.0 11309700000.0 11309700000.0 11309700000.0 11309700000.0 11309700000.0 11309700000.0 11309700000.0 11309700000.0 11309700000.0 11309700000.0 11309700000.0 11309700000.0 11309700000.0 11309700000.0 11309700000.0 11309700000.0 11309700000.0 11309700000.0 11309700000.0 11309700000.0 11309700000.0 11309700000.0 11309700000.0 11309700000.0 11309700000.0 11309700000.0 11309700000.0 11309700000.0 11309700000.0 11309700000.0 11309700000.0 11309700000.0 11309700000.0 11309700000.0 11309700000.0 11309700000.0 11309700000.0 11309700000.0 11309700000.0 11309700000.0 11309700000.0 11309700000.0 11309700000.0 11309700000.0 11309700000.0 11309700000.0 11309700000.0 11309700000.0 11309700000.0 11309700000.0 11309700000.0 11309700000.0 11309700000.0 11309700000.0 11309700000.0 11309700000.0 11309700000.0 11309700000.0 11309700000.0 11309700000.0 11309700000.0 11309700000.0 11309700000.0 11309700000.0 11309700000.0 11309700000.0 11309700000.0 11309700000.0 11309700000.0 11309700000.0 11309700000.0 11309700000.0 11309700000.0 11309700000.0 11309700000.0 11309700000.0 11309700000.0 11309700000.0 11309700000.0 11309700000.0 11309700000.0 11309700000.0 11309700000.0 11309700000.0 11309700000.0 11309700000.0 11309700000.0 11309700000.0 11309700000.0 11309700000.0 11309700000.0 11309700000.0 11309700000.0 11309700000.0 11309700000.0 11309700000.0 11309700000.0 11309700000.0 11309700000.0 11309700000.0 11309700000.0 11309700000.0 11309700000.0 11309700000.0 11309700000.0 11309700000.0 11309700000.0 11309700000.0 11309700000.0 11309700000.0 11309700000.0 11309700000.0 11309700000.0 11309700000.0 11309700000.0 11309700000.0 11309700000.0 11309700000.0 11309700000.0 11309700000.0 11309700000.0 11309700000.0 11309700000.0 11309700000.0 11309700000.0 11309700000.0 11309700000.0 11309700000.0 11309700000.0 11309700000.0 11309700000.0 11309700000.0 11309700000.0 11309700000.0 11309700000.0 11309700000.0 11309700000.0 11309700000.0 11309700000.0 11309700000.0 11309700000.0 11309700000.0 11309700000.0 11309700000.0 11309700000.0 11309700000.0 11309700000.0 11309700000.0 11309700000.0 11309700000.0 11309700000.0 11309700000.0 11309700000.0 11309700000.0 11309700000.0 11309700000.0 11309700000.0 11309700000.0 11309700000.0 11309700000.0 11309700000.0 11309700000.0 11309700000.0 11309700000.0 11309700000.0 11309700000.0 11309700000.0 11309700000.0 11309700000.0 11309700000.0 11309700000.0 11309700000.0 11309700000.0 11309700000.0 11309700000.0 11309700000.0 11309700000.0 11309700000.0 11309700000.0 11309700000.0 11309700000.0 11309700000.0 11309700000.0 11309700000.0 11309700000.0 11309700000.0 11309700000.0 11309700000.0 11309700000.0 11309700000.0 11309700000.0 11309700000.0 11309700000.0 11309700000.0 11309700000.0 11309700000.0 11309700000.0 11309700000.0 11309700000.0 11309700000.0 11309700000.0 11309700000.0 11309700000.0 11309700000.0 11309700000.0 11309700000.0 11309700000.0 11309700000.0 11309700000.0 11309700000.0 11309700000.0 11309700000.0 11309700000.0 11309700000.0 11309700000.0 11309700000.0 11309700000.0 11309700000.0 11309700000.0 11309700000.0 11309700000.0 11309700000.0 11309700000.0 11309700000.0 11309700000.0 11309700000.0 11309700000.0 11309700000.0 11309700000.0 11309700000.0 11309700000.0 11309700000.0 11309700000.0 11309700000.0 11309700000.0 11309700000.0 11309700000.0 11309700000.0 11309700000.0 11309700000.0 11309700000.0 11309700000.0 11309700000.0 11309700000.0 11309700000.0 11309700000.0 11309700000.0 11309700000.0 11309700000.0 11309700000.0 11309700000.0 11309700000.0 11309700000.0 11309700000.0 11309700000.0 11309700000.0 11309700000.0 11309700000.0 11309700000.0 11309700000.0 11309700000.0 11309700000.0 11309700000.0 11309700000.0 11309700000.0 11309700000.0 11309700000.0 11309700000.0 11309700000.0 11309700000.0 11309700000.0 11309700000.0 11309700000.0 11309700000.0 11309700000.0 11309700000.0 11309700000.0 11309700000.0 11309700000.0 11309700000.0 11309700000.0 11309700000.0 11309700000.0 11309700000.0 11309700000.0 11309700000.0 11309700000.0 11309700000.0 11309700000.0 11309700000.0 11309700000.0 11309700000.0 11309700000.0 11309700000.0 11309700000.0 11309700000.0 11309700000.0 11309700000.0 11309700000.0 11309700000.0 11309700000.0 11309700000.0 11309700000.0 11309700000.0 11309700000.0 11309700000.0 11309700000.0 11309700000.0 11309700000.0 11309700000.0 11309700000.0 11309700000.0 11309700000.0 11309700000.0 11309700000.0 11309700000.0 11309700000.0 11309700000.0 11309700000.0 11309700000.0 11309700000.0 11309700000.0 11309700000.0 11309700000.0 11309700000.0 11309700000.0 11309700000.0 11309700000.0 11309700000.0 11309700000.0 11309700000.0 11309700000.0 11309700000.0 11309700000.0 11309700000.0 11309700000.0 11309700000.0 11309700000.0 11309700000.0 11309700000.0 11309700000.0 11309700000.0 11309700000.0 11309700000.0 11309700000.0 11309700000.0 11309700000.0 11309700000.0 11309700000.0 11309700000.0 11309700000.0 11309700000.0 11309700000.0 11309700000.0 11309700000.0 11309700000.0 11309700000.0 11309700000.0 11309700000.0 11309700000.0 11309700000.0 11309700000.0 11309700000.0 11309700000.0 11309700000.0 11309700000.0 11309700000.0 11309700000.0 11309700000.0 11309700000.0 11309700000.0 11309700000.0 11309700000.0 11309700000.0 11309700000.0 11309700000.0 11309700000.0 11309700000.0 11309700000.0 11309700000.0 11309700000.0 11309700000.0 11309700000.0 11309700000.0 11309700000.0 11309700000.0 11309700000.0 11309700000.0 11309700000.0 11309700000.0 11309700000.0 11309700000.0 11309700000.0 11309700000.0 11309700000.0 11309700000.0 11309700000.0 11309700000.0 11309700000.0 11309700000.0 11309700000.0 11309700000.0 11309700000.0 11309700000.0 11309700000.0 11309700000.0 11309700000.0 11309700000.0 11309700000.0 11309700000.0 11309700000.0 11309700000.0 11309700000.0 11309700000.0 11309700000.0 11309700000.0 11309700000.0 11309700000.0 11309700000.0 11309700000.0 11309700000.0 11309700000.0 11309700000.0 11309700000.0 11309700000.0 11309700000.0 11309700000.0 11309700000.0 11309700000.0 11309700000.0 11309700000.0 11309700000.0 11309700000.0 11309700000.0 11309700000.0 11309700000.0 11309700000.0 11309700000.0 11309700000.0 11309700000.0 11309700000.0 11309700000.0 11309700000.0 11309700000.0 11309700000.0 11309700000.0 11309700000.0 11309700000.0 11309700000.0 11309700000.0 11309700000.0 11309700000.0 11309700000.0 11309700000.0 11309700000.0 11309700000.0 11309700000.0 11309700000.0 11309700000.0 11309700000.0 11309700000.0 11309700000.0 11309700000.0 11309700000.0 11309700000.0 11309700000.0 11309700000.0 11309700000.0 11309700000.0 11309700000.0 11309700000.0 11309700000.0 11309700000.0 11309700000.0 11309700000.0 11309700000.0 11309700000.0 11309700000.0 11309700000.0 11309700000.0 11309700000.0 11309700000.0 11309700000.0 11309700000.0 11309700000.0 11309700000.0 11309700000.0 11309700000.0 11309700000.0 11309700000.0 11309700000.0 11309700000.0 11309700000.0 11309700000.0 11309700000.0 11309700000.0 11309700000.0 11309700000.0 11309700000.0 11309700000.0 11309700000.0 11309700000.0 11309700000.0 11309700000.0 11309700000.0 11309700000.0 11309700000.0 11309700000.0 11309700000.0 11309700000.0 11309700000.0 11309700000.0 11309700000.0 11309700000.0 11309700000.0 11309700000.0 11309700000.0 11309700000.0 11309700000.0 11309700000.0 11309700000.0 11309700000.0 11309700000.0 11309700000.0 11309700000.0 11309700000.0 11309700000.0 11309700000.0 11309700000.0 11309700000.0 11309700000.0 11309700000.0 11309700000.0 11309700000.0 11309700000.0 11309700000.0 11309700000.0 11309700000.0 11309700000.0 11309700000.0 11309700000.0 11309700000.0 11309700000.0 11309700000.0 11309700000.0 11309700000.0 11309700000.0 11309700000.0 11309700000.0 11309700000.0 11309700000.0 11309700000.0 11309700000.0 11309700000.0 11309700000.0 11309700000.0 11309700000.0 11309700000.0 11309700000.0 11309700000.0 11309700000.0 11309700000.0 11309700000.0 11309700000.0 11309700000.0 11309700000.0 11309700000.0 11309700000.0 11309700000.0 11309700000.0 11309700000.0 11309700000.0 11309700000.0 11309700000.0 11309700000.0 11309700000.0 11309700000.0 11309700000.0 11309700000.0 11309700000.0 11309700000.0 11309700000.0 11309700000.0 11309700000.0 11309700000.0 11309700000.0 11309700000.0 11309700000.0 11309700000.0 11309700000.0 11309700000.0 11309700000.0 11309700000.0 11309700000.0 11309700000.0 11309700000.0 11309700000.0 11309700000.0 11309700000.0 11309700000.0 11309700000.0 11309700000.0 11309700000.0 11309700000.0 11309700000.0 11309700000.0 11309700000.0 11309700000.0 11309700000.0 11309700000.0 11309700000.0 11309700000.0 11309700000.0 11309700000.0 11309700000.0 11309700000.0 11309700000.0 11309700000.0 11309700000.0 11309700000.0 11309700000.0 11309700000.0 11309700000.0 11309700000.0 11309700000.0 11309700000.0 11309700000.0 11309700000.0 11309700000.0 11309700000.0 11309700000.0 11309700000.0 11309700000.0 11309700000.0 11309700000.0 11309700000.0 11309700000.0 11309700000.0 11309700000.0 11309700000.0 11309700000.0 11309700000.0 11309700000.0 11309700000.0 11309700000.0 11309700000.0 11309700000.0 11309700000.0 11309700000.0 11309700000.0 11309700000.0 11309700000.0 11309700000.0 11309700000.0 11309700000.0 11309700000.0 11309700000.0 11309700000.0 11309700000.0 11309700000.0 11309700000.0 11309700000.0 11309700000.0 11309700000.0 11309700000.0 11309700000.0 11309700000.0 11309700000.0 11309700000.0 11309700000.0 11309700000.0 11309700000.0 11309700000.0 11309700000.0 11309700000.0 11309700000.0 11309700000.0 11309700000.0 11309700000.0 11309700000.0 11309700000.0 11309700000.0 11309700000.0 11309700000.0 11309700000.0 11309700000.0 11309700000.0 11309700000.0 11309700000.0 11309700000.0 11309700000.0 11309700000.0 11309700000.0 11309700000.0 11309700000.0 11309700000.0 11309700000.0 11309700000.0 11309700000.0 11309700000.0 11309700000.0 11309700000.0 11309700000.0 11309700000.0 11309700000.0 11309700000.0 11309700000.0 11309700000.0 11309700000.0 11309700000.0 11309700000.0 11309700000.0 11309700000.0 11309700000.0 11309700000.0 11309700000.0 11309700000.0 11309700000.0 11309700000.0 11309700000.0 11309700000.0 11309700000.0 11309700000.0 11309700000.0 11309700000.0 11309700000.0 11309700000.0 11309700000.0 11309700000.0 11309700000.0 11309700000.0 11309700000.0 11309700000.0 11309700000.0 11309700000.0 11309700000.0 11309700000.0 11309700000.0 11309700000.0 11309700000.0 11309700000.0 11309700000.0 11309700000.0 11309700000.0 11309700000.0 11309700000.0 11309700000.0 11309700000.0 11309700000.0 11309700000.0 11309700000.0 11309700000.0 11309700000.0 11309700000.0 11309700000.0 11309700000.0 11309700000.0 11309700000.0 11309700000.0 11309700000.0 11309700000.0 11309700000.0 11309700000.0 11309700000.0 11309700000.0 11309700000.0 11309700000.0 11309700000.0 11309700000.0 11309700000.0 11309700000.0 11309700000.0 11309700000.0 11309700000.0 11309700000.0 11309700000.0 11309700000.0 11309700000.0 11309700000.0 11309700000.0 11309700000.0 11309700000.0 11309700000.0 11309700000.0 11309700000.0 11309700000.0 11309700000.0 11309700000.0 11309700000.0 11309700000.0 11309700000.0 11309700000.0 11309700000.0 11309700000.0 11309700000.0 11309700000.0 11309700000.0 11309700000.0 11309700000.0 11309700000.0 11309700000.0 11309700000.0 11309700000.0 11309700000.0 11309700000.0 11309700000.0 11309700000.0 11309700000.0 11309700000.0 11309700000.0 11309700000.0 11309700000.0 11309700000.0 11309700000.0 11309700000.0 11309700000.0 11309700000.0 11309700000.0 11309700000.0 11309700000.0 11309700000.0 11309700000.0 11309700000.0 11309700000.0 11309700000.0 11309700000.0 11309700000.0 11309700000.0 11309700000.0 11309700000.0 11309700000.0 11309700000.0 11309700000.0 11309700000.0 11309700000.0 11309700000.0 11309700000.0 11309700000.0 11309700000.0 11309700000.0 11309700000.0 11309700000.0 11309700000.0 11309700000.0 11309700000.0 11309700000.0 11309700000.0 11309700000.0 11309700000.0 11309700000.0 11309700000.0 11309700000.0 11309700000.0 11309700000.0 11309700000.0 11309700000.0 11309700000.0 11309700000.0 11309700000.0 11309700000.0 11309700000.0 11309700000.0 11309700000.0 11309700000.0 11309700000.0 11309700000.0 11309700000.0 11309700000.0 11309700000.0 11309700000.0 11309700000.0 11309700000.0 11309700000.0 11309700000.0 11309700000.0 11309700000.0 11309700000.0 11309700000.0 11309700000.0 11309700000.0 11309700000.0 11309700000.0 11309700000.0 11309700000.0 11309700000.0 11309700000.0 11309700000.0 11309700000.0 11309700000.0 11309700000.0 11309700000.0 11309700000.0 11309700000.0 11309700000.0 11309700000.0 11309700000.0 11309700000.0 11309700000.0 11309700000.0 11309700000.0 11309700000.0 11309700000.0 11309700000.0 11309700000.0 11309700000.0 11309700000.0 11309700000.0 11309700000.0 11309700000.0 11309700000.0 11309700000.0 11309700000.0 11309700000.0 11309700000.0 11309700000.0 11309700000.0 11309700000.0 11309700000.0 11309700000.0 11309700000.0 11309700000.0 11309700000.0 11309700000.0 11309700000.0 11309700000.0 11309700000.0 11309700000.0 11309700000.0 11309700000.0 11309700000.0 11309700000.0 11309700000.0 11309700000.0 11309700000.0 11309700000.0 11309700000.0 11309700000.0 11309700000.0 11309700000.0 11309700000.0 11309700000.0 11309700000.0 11309700000.0 11309700000.0 11309700000.0 11309700000.0 11309700000.0 11309700000.0 11309700000.0 11309700000.0 11309700000.0 11309700000.0 11309700000.0 11309700000.0 11309700000.0 11309700000.0 11309700000.0 11309700000.0 11309700000.0 11309700000.0 11309700000.0 11309700000.0 11309700000.0 11309700000.0 11309700000.0 11309700000.0 11309700000.0 11309700000.0 11309700000.0 11309700000.0 11309700000.0 11309700000.0 11309700000.0 11309700000.0 11309700000.0 11309700000.0 11309700000.0 11309700000.0 11309700000.0 11309700000.0 11309700000.0 11309700000.0 11309700000.0 11309700000.0 11309700000.0 11309700000.0 11309700000.0 11309700000.0 11309700000.0 11309700000.0 11309700000.0 11309700000.0 11309700000.0 11309700000.0 11309700000.0 11309700000.0 11309700000.0 11309700000.0 11309700000.0 11309700000.0 11309700000.0 11309700000.0 11309700000.0 11309700000.0 11309700000.0 11309700000.0 11309700000.0 11309700000.0 11309700000.0 11309700000.0 11309700000.0 11309700000.0 11309700000.0 11309700000.0 11309700000.0 11309700000.0 11309700000.0 11309700000.0 11309700000.0 11309700000.0 11309700000.0 11309700000.0 11309700000.0 11309700000.0 11309700000.0 11309700000.0 11309700000.0 11309700000.0 11309700000.0 11309700000.0 11309700000.0 11309700000.0 11309700000.0 11309700000.0 11309700000.0 11309700000.0 11309700000.0 11309700000.0 11309700000.0 11309700000.0 11309700000.0 11309700000.0 11309700000.0 11309700000.0 11309700000.0 11309700000.0 11309700000.0 11309700000.0 11309700000.0 11309700000.0 11309700000.0 11309700000.0 11309700000.0 11309700000.0 11309700000.0 11309700000.0 11309700000.0 11309700000.0 11309700000.0 11309700000.0 11309700000.0 11309700000.0 11309700000.0 11309700000.0 11309700000.0 11309700000.0 11309700000.0 11309700000.0 11309700000.0 11309700000.0 11309700000.0 11309700000.0 11309700000.0 11309700000.0 11309700000.0 11309700000.0 11309700000.0 11309700000.0 11309700000.0 11309700000.0 11309700000.0 11309700000.0 11309700000.0 11309700000.0 11309700000.0 11309700000.0 11309700000.0 11309700000.0 11309700000.0 11309700000.0 11309700000.0 11309700000.0 11309700000.0 11309700000.0 11309700000.0 11309700000.0 11309700000.0 11309700000.0 11309700000.0 11309700000.0 11309700000.0 11309700000.0 11309700000.0 11309700000.0 11309700000.0 11309700000.0 11309700000.0 11309700000.0 11309700000.0 11309700000.0 11309700000.0 11309700000.0 11309700000.0 11309700000.0 11309700000.0 11309700000.0 11309700000.0 11309700000.0 11309700000.0 11309700000.0 11309700000.0 11309700000.0 11309700000.0 11309700000.0 11309700000.0 11309700000.0 11309700000.0 11309700000.0 11309700000.0 11309700000.0 11309700000.0 11309700000.0 11309700000.0 11309700000.0 11309700000.0 11309700000.0 11309700000.0 11309700000.0 11309700000.0 11309700000.0 11309700000.0 11309700000.0 11309700000.0 11309700000.0 11309700000.0 11309700000.0 11309700000.0 11309700000.0 11309700000.0 11309700000.0 11309700000.0 11309700000.0 11309700000.0 11309700000.0 11309700000.0 11309700000.0 11309700000.0 11309700000.0 11309700000.0 11309700000.0 11309700000.0 11309700000.0 11309700000.0 11309700000.0 11309700000.0 11309700000.0 11309700000.0 11309700000.0 11309700000.0 11309700000.0 11309700000.0 11309700000.0 11309700000.0 11309700000.0 11309700000.0 11309700000.0 11309700000.0 11309700000.0 11309700000.0 11309700000.0 11309700000.0 11309700000.0 11309700000.0 11309700000.0 11309700000.0 11309700000.0 11309700000.0 11309700000.0 11309700000.0 11309700000.0 11309700000.0 11309700000.0 11309700000.0 11309700000.0 11309700000.0 11309700000.0 11309700000.0 11309700000.0 11309700000.0 11309700000.0 11309700000.0 11309700000.0 11309700000.0 11309700000.0 11309700000.0 11309700000.0 11309700000.0 11309700000.0 11309700000.0 11309700000.0 11309700000.0 11309700000.0 11309700000.0 11309700000.0 11309700000.0 11309700000.0 11309700000.0 11309700000.0 11309700000.0 11309700000.0 11309700000.0 11309700000.0 11309700000.0 11309700000.0 11309700000.0 11309700000.0 11309700000.0 11309700000.0 11309700000.0 11309700000.0 11309700000.0 11309700000.0 11309700000.0 11309700000.0 11309700000.0 11309700000.0 11309700000.0 11309700000.0 11309700000.0 11309700000.0 11309700000.0 11309700000.0 11309700000.0 11309700000.0 11309700000.0 11309700000.0 11309700000.0 11309700000.0 11309700000.0 11309700000.0 11309700000.0 11309700000.0 11309700000.0 11309700000.0 11309700000.0 11309700000.0 11309700000.0 11309700000.0 11309700000.0 11309700000.0 11309700000.0 11309700000.0 11309700000.0 11309700000.0 11309700000.0 11309700000.0 11309700000.0 11309700000.0 11309700000.0 11309700000.0 11309700000.0 11309700000.0 11309700000.0 11309700000.0 11309700000.0 11309700000.0 11309700000.0 11309700000.0 11309700000.0 11309700000.0 11309700000.0 11309700000.0 11309700000.0 11309700000.0 11309700000.0 11309700000.0 11309700000.0 11309700000.0 11309700000.0 11309700000.0 11309700000.0 11309700000.0 11309700000.0 11309700000.0 11309700000.0 11309700000.0 11309700000.0 11309700000.0 11309700000.0 11309700000.0 11309700000.0 11309700000.0 11309700000.0 11309700000.0 11309700000.0 11309700000.0 11309700000.0 11309700000.0 11309700000.0 11309700000.0 11309700000.0 11309700000.0 11309700000.0 11309700000.0 11309700000.0 11309700000.0 11309700000.0 11309700000.0 11309700000.0 11309700000.0 11309700000.0 11309700000.0 11309700000.0 11309700000.0 11309700000.0 11309700000.0 11309700000.0 11309700000.0 11309700000.0 11309700000.0 11309700000.0 11309700000.0 11309700000.0 11309700000.0 11309700000.0 11309700000.0 11309700000.0 11309700000.0 11309700000.0 11309700000.0 11309700000.0 11309700000.0 11309700000.0 11309700000.0 11309700000.0 11309700000.0 11309700000.0 11309700000.0 11309700000.0 11309700000.0 11309700000.0 11309700000.0 11309700000.0 11309700000.0 11309700000.0 11309700000.0 11309700000.0 11309700000.0 11309700000.0 11309700000.0 11309700000.0 11309700000.0 11309700000.0 11309700000.0 11309700000.0 11309700000.0 11309700000.0 11309700000.0 11309700000.0 11309700000.0 11309700000.0 11309700000.0 11309700000.0 11309700000.0 11309700000.0 11309700000.0 11309700000.0 11309700000.0 11309700000.0 11309700000.0 11309700000.0 11309700000.0 11309700000.0 11309700000.0 11309700000.0 11309700000.0 11309700000.0 11309700000.0 11309700000.0 11309700000.0 11309700000.0 11309700000.0 11309700000.0 11309700000.0 11309700000.0 11309700000.0 11309700000.0 11309700000.0 11309700000.0 11309700000.0 11309700000.0 11309700000.0 11309700000.0 11309700000.0 11309700000.0 11309700000.0 11309700000.0 11309700000.0 11309700000.0 11309700000.0 11309700000.0 11309700000.0 11309700000.0 11309700000.0 11309700000.0 11309700000.0 11309700000.0 11309700000.0 11309700000.0 11309700000.0 11309700000.0 11309700000.0 11309700000.0 11309700000.0 11309700000.0 11309700000.0 11309700000.0 11309700000.0 11309700000.0 11309700000.0 11309700000.0 11309700000.0 11309700000.0 11309700000.0 11309700000.0 11309700000.0 11309700000.0 11309700000.0 11309700000.0 11309700000.0 11309700000.0 11309700000.0 11309700000.0 11309700000.0 11309700000.0 11309700000.0 11309700000.0 11309700000.0 11309700000.0 11309700000.0 11309700000.0 11309700000.0 11309700000.0 11309700000.0 11309700000.0 11309700000.0 11309700000.0 11309700000.0 11309700000.0 11309700000.0 11309700000.0 11309700000.0 11309700000.0 11309700000.0 11309700000.0 11309700000.0 11309700000.0 11309700000.0 11309700000.0 11309700000.0 11309700000.0 11309700000.0 11309700000.0 11309700000.0 11309700000.0 11309700000.0 11309700000.0 11309700000.0 11309700000.0 11309700000.0 11309700000.0 11309700000.0 11309700000.0 11309700000.0 11309700000.0 11309700000.0 11309700000.0 11309700000.0 11309700000.0 11309700000.0 11309700000.0 11309700000.0 11309700000.0 11309700000.0 11309700000.0 11309700000.0 11309700000.0 11309700000.0 11309700000.0 11309700000.0 11309700000.0 11309700000.0 11309700000.0 11309700000.0 11309700000.0 11309700000.0 11309700000.0 11309700000.0 11309700000.0 11309700000.0 11309700000.0 11309700000.0 11309700000.0 11309700000.0 11309700000.0 11309700000.0 11309700000.0 11309700000.0 11309700000.0 11309700000.0 11309700000.0 11309700000.0 11309700000.0 11309700000.0 11309700000.0 11309700000.0 11309700000.0 11309700000.0 11309700000.0 11309700000.0 11309700000.0 11309700000.0 11309700000.0 11309700000.0 11309700000.0 11309700000.0 11309700000.0 11309700000.0 11309700000.0 11309700000.0 11309700000.0 11309700000.0 11309700000.0 11309700000.0 11309700000.0 11309700000.0 11309700000.0 11309700000.0 11309700000.0 11309700000.0 11309700000.0 11309700000.0 11309700000.0 11309700000.0 11309700000.0 11309700000.0 11309700000.0 11309700000.0 11309700000.0 11309700000.0 11309700000.0 11309700000.0 11309700000.0 11309700000.0 11309700000.0 11309700000.0 11309700000.0 11309700000.0 11309700000.0 11309700000.0 11309700000.0 11309700000.0 11309700000.0 11309700000.0 11309700000.0 11309700000.0 11309700000.0 11309700000.0 11309700000.0 11309700000.0 11309700000.0 11309700000.0 11309700000.0 11309700000.0 11309700000.0 11309700000.0 11309700000.0 11309700000.0 11309700000.0 11309700000.0 11309700000.0 11309700000.0 11309700000.0 11309700000.0 11309700000.0 11309700000.0 11309700000.0 11309700000.0 11309700000.0 11309700000.0 11309700000.0 11309700000.0 11309700000.0 11309700000.0 11309700000.0 11309700000.0 11309700000.0 11309700000.0 11309700000.0 11309700000.0 11309700000.0 11309700000.0 11309700000.0 11309700000.0 11309700000.0 11309700000.0 11309700000.0 11309700000.0 11309700000.0 11309700000.0 11309700000.0 11309700000.0 11309700000.0 11309700000.0 11309700000.0 11309700000.0 11309700000.0 11309700000.0 11309700000.0 11309700000.0 11309700000.0 11309700000.0 11309700000.0 11309700000.0 11309700000.0 11309700000.0 11309700000.0 11309700000.0 11309700000.0 11309700000.0 11309700000.0 11309700000.0 11309700000.0 11309700000.0 11309700000.0 11309700000.0 11309700000.0 11309700000.0 11309700000.0 11309700000.0 11309700000.0 11309700000.0 11309700000.0 11309700000.0 11309700000.0 11309700000.0 11309700000.0 11309700000.0 11309700000.0 11309700000.0 11309700000.0 11309700000.0 11309700000.0 11309700000.0 11309700000.0 11309700000.0 11309700000.0 11309700000.0 11309700000.0 11309700000.0 11309700000.0 11309700000.0 11309700000.0 11309700000.0 11309700000.0 11309700000.0 11309700000.0 11309700000.0 11309700000.0 11309700000.0 11309700000.0 11309700000.0 11309700000.0 11309700000.0 11309700000.0 11309700000.0 11309700000.0 11309700000.0 11309700000.0 11309700000.0 11309700000.0 11309700000.0 11309700000.0 11309700000.0 11309700000.0 11309700000.0 11309700000.0 11309700000.0 11309700000.0 11309700000.0 11309700000.0 11309700000.0 11309700000.0 11309700000.0 11309700000.0 11309700000.0 11309700000.0 11309700000.0 11309700000.0 11309700000.0 11309700000.0 11309700000.0 11309700000.0 11309700000.0 11309700000.0 11309700000.0 11309700000.0 11309700000.0 11309700000.0 11309700000.0 11309700000.0 11309700000.0 11309700000.0 11309700000.0 11309700000.0 11309700000.0 11309700000.0 11309700000.0 11309700000.0 11309700000.0 11309700000.0 11309700000.0 11309700000.0 11309700000.0 11309700000.0 11309700000.0 11309700000.0 11309700000.0 11309700000.0 11309700000.0 11309700000.0 11309700000.0 11309700000.0 11309700000.0 11309700000.0 11309700000.0 11309700000.0 11309700000.0 11309700000.0 11309700000.0 11309700000.0 11309700000.0 11309700000.0 11309700000.0 11309700000.0 11309700000.0 11309700000.0 11309700000.0 11309700000.0 11309700000.0 11309700000.0 11309700000.0 11309700000.0 11309700000.0 11309700000.0 11309700000.0 11309700000.0 11309700000.0 11309700000.0 11309700000.0 11309700000.0 11309700000.0 11309700000.0 11309700000.0 11309700000.0 11309700000.0 11309700000.0 11309700000.0 11309700000.0 11309700000.0 11309700000.0 11309700000.0 11309700000.0 11309700000.0 11309700000.0 11309700000.0 11309700000.0 11309700000.0 11309700000.0 11309700000.0 11309700000.0 11309700000.0 11309700000.0 11309700000.0 11309700000.0 11309700000.0 11309700000.0 11309700000.0 11309700000.0 11309700000.0 11309700000.0 11309700000.0 11309700000.0 11309700000.0 11309700000.0 11309700000.0 11309700000.0 11309700000.0 11309700000.0 11309700000.0 11309700000.0 11309700000.0 11309700000.0 11309700000.0 11309700000.0 11309700000.0 11309700000.0 11309700000.0 11309700000.0 11309700000.0 11309700000.0 11309700000.0 11309700000.0 11309700000.0 11309700000.0 11309700000.0 11309700000.0 11309700000.0 11309700000.0 11309700000.0 11309700000.0 11309700000.0 11309700000.0 11309700000.0 11309700000.0 11309700000.0 11309700000.0 11309700000.0 11309700000.0 11309700000.0 11309700000.0 11309700000.0 11309700000.0 11309700000.0 11309700000.0 11309700000.0 11309700000.0 11309700000.0 11309700000.0 11309700000.0 11309700000.0 11309700000.0 11309700000.0 11309700000.0 11309700000.0 11309700000.0 11309700000.0 11309700000.0 11309700000.0 11309700000.0 11309700000.0 11309700000.0 11309700000.0 11309700000.0 11309700000.0 11309700000.0 11309700000.0 11309700000.0 11309700000.0 11309700000.0 11309700000.0 11309700000.0 11309700000.0 11309700000.0 11309700000.0 11309700000.0 11309700000.0 11309700000.0 11309700000.0 11309700000.0 11309700000.0 11309700000.0 11309700000.0 11309700000.0 11309700000.0 11309700000.0 11309700000.0 11309700000.0 11309700000.0 11309700000.0 11309700000.0 11309700000.0 11309700000.0 11309700000.0 11309700000.0 11309700000.0 11309700000.0 11309700000.0 11309700000.0 11309700000.0 11309700000.0 11309700000.0 11309700000.0 11309700000.0 11309700000.0 11309700000.0 11309700000.0 11309700000.0 11309700000.0 11309700000.0 11309700000.0 11309700000.0 11309700000.0 11309700000.0 11309700000.0 11309700000.0 11309700000.0 11309700000.0 11309700000.0 11309700000.0 11309700000.0 11309700000.0 11309700000.0 11309700000.0 11309700000.0 11309700000.0 11309700000.0 11309700000.0 11309700000.0 11309700000.0 11309700000.0 11309700000.0 11309700000.0 11309700000.0 11309700000.0 11309700000.0 11309700000.0 11309700000.0 11309700000.0 11309700000.0 11309700000.0 11309700000.0 11309700000.0 11309700000.0 11309700000.0 11309700000.0 11309700000.0 11309700000.0 11309700000.0 11309700000.0 11309700000.0 11309700000.0 11309700000.0 11309700000.0 11309700000.0 11309700000.0 11309700000.0 11309700000.0 11309700000.0 11309700000.0 11309700000.0 11309700000.0 11309700000.0 11309700000.0 11309700000.0 11309700000.0 11309700000.0 11309700000.0 11309700000.0 11309700000.0 11309700000.0 11309700000.0 11309700000.0 11309700000.0 11309700000.0 11309700000.0 11309700000.0 11309700000.0 11309700000.0 11309700000.0 11309700000.0 11309700000.0 11309700000.0 11309700000.0 11309700000.0 11309700000.0 11309700000.0 11309700000.0 11309700000.0 11309700000.0 11309700000.0 11309700000.0 11309700000.0 11309700000.0 11309700000.0 11309700000.0 11309700000.0 11309700000.0 11309700000.0 11309700000.0 11309700000.0 11309700000.0 11309700000.0 11309700000.0 11309700000.0 11309700000.0 11309700000.0 11309700000.0 11309700000.0 11309700000.0 11309700000.0 11309700000.0 11309700000.0 11309700000.0 11309700000.0 11309700000.0 11309700000.0 11309700000.0 11309700000.0 11309700000.0 11309700000.0 11309700000.0 11309700000.0 11309700000.0 11309700000.0 11309700000.0 11309700000.0 11309700000.0 11309700000.0 11309700000.0 11309700000.0 11309700000.0 11309700000.0 11309700000.0 11309700000.0 11309700000.0 11309700000.0 11309700000.0 11309700000.0 11309700000.0 11309700000.0 11309700000.0 11309700000.0 11309700000.0 11309700000.0 11309700000.0 11309700000.0 11309700000.0 11309700000.0 11309700000.0 11309700000.0 11309700000.0 11309700000.0 11309700000.0 11309700000.0 11309700000.0 11309700000.0 11309700000.0 11309700000.0 11309700000.0 11309700000.0 11309700000.0 11309700000.0 11309700000.0 11309700000.0 11309700000.0 11309700000.0 11309700000.0 11309700000.0 11309700000.0 11309700000.0 11309700000.0 11309700000.0 11309700000.0 11309700000.0 11309700000.0 11309700000.0 11309700000.0 11309700000.0 11309700000.0 11309700000.0 11309700000.0 11309700000.0 11309700000.0 11309700000.0 11309700000.0 11309700000.0 11309700000.0 11309700000.0 11309700000.0 11309700000.0 11309700000.0 11309700000.0 11309700000.0 11309700000.0 11309700000.0 11309700000.0 11309700000.0 11309700000.0 11309700000.0 11309700000.0 11309700000.0 11309700000.0 11309700000.0 11309700000.0 11309700000.0 11309700000.0 11309700000.0 11309700000.0 11309700000.0 11309700000.0 11309700000.0 11309700000.0 11309700000.0 11309700000.0 11309700000.0 11309700000.0 11309700000.0 11309700000.0 11309700000.0 11309700000.0 11309700000.0 11309700000.0 11309700000.0 11309700000.0 11309700000.0 11309700000.0 11309700000.0 11309700000.0 11309700000.0 11309700000.0 11309700000.0 11309700000.0 11309700000.0 11309700000.0 11309700000.0 11309700000.0 11309700000.0 11309700000.0 11309700000.0 11309700000.0 
SCALARS Velocity float 1
LOOKUP_TABLE default
1.00818 1.19761 1.19761 1.00818 0.804546 0.815417 0.898312 1.05974 1.28707 1.16331 1.04695 1.12725 1.12637 1.12637 1.12725 1.04695 1.16331 1.28707 1.05974 0.898312 0.815417 0.804546 0.797378 0.803938 1.10698 1.34623 1.11741 0.995503 1.19261 0.837809 1.04365 0.853779 1.04365 0.837809 1.19261 0.995503 1.11741 1.34623 1.10698 0.803938 0.797378 0.791931 0.799955 0.840577 0.954938 0.936053 1.26186 1.21688 1.07634 1.11267 1.11007 1.10195 0.94787 0.840139 0.923079 0.858232 0.923079 0.840139 0.94787 1.10195 1.11007 1.11267 1.07634 1.21688 1.26186 0.936053 0.954938 0.840577 0.799955 0.791931 0.785931 0.790007 0.795519 0.808789 0.819584 0.841759 0.921577 1.08391 1.08537 1.08882 1.07648 0.803169 0.803168 1.07648 1.08882 1.08537 1.08391 0.921577 0.841759 0.819584 0.808789 0.795519 0.790007 0.785931 0.77055 0.779053 0.783295 0.799105 0.830655 0.91863 0.970515 1.09703 1.10162 0.93526 1.01074 0.806799 0.97591 0.839225 0.963173 0.85871 0.963173 0.839225 0.97591 0.806799 1.01074 0.93526 1.10162 1.09703 0.970515 0.91863 0.830655 0.799105 0.783295 0.779053 0.77055 0.758846 0.776458 0.790288 0.815947 0.87768 0.915959 0.933646 0.965722 1.11909 1.00106 1.02216 0.974255 0.964947 0.964947 0.974255 1.02216 1.00106 1.11909 0.965722 0.933646 0.915959 0.87768 0.815947 0.790288 0.776458 0.758846 0.742226 0.768831 0.777271 0.782887 0.790119 0.801556 0.820963 0.846642 0.879284 0.916103 0.930984 0.942231 0.967259 1.04366 0.963315 0.807624 0.843049 0.858905 0.843049 0.807624 0.963315 1.04366 0.967259 0.942231 0.930984 0.916103 0.879284 0.846642 0.820963 0.801556 0.790119 0.782887 0.777271 0.768831 0.742226 0.722981 0.739331 0.756688 0.771814 0.783234 0.80069 0.845058 0.894063 0.892065 0.852526 0.862994 1.04783 0.965703 1.02591 0.794753 0.973513 0.846173 0.969096 0.859008 0.969096 0.846173 0.973513 0.794753 1.02591 0.965703 1.04783 0.862994 0.852526 0.892065 0.894063 0.845058 0.80069 0.783234 0.771814 0.756688 0.739331 0.722981 0.696948 0.697429 0.711463 0.761515 0.781872 0.787387 0.815742 0.863364 0.860543 0.876215 0.777637 0.870997 0.845816 0.858794 1.04076 0.984203 0.975156 0.975156 0.984203 1.04076 0.858794 0.845816 0.870997 0.777637 0.876215 0.860543 0.863364 0.815742 0.787387 0.781872 0.761515 0.711463 0.697429 0.696948 0.724456 0.685783 0.714051 0.744649 0.777149 0.781983 0.788376 0.783294 0.780257 0.793121 0.802859 0.832264 0.840915 0.811868 0.916636 0.885999 0.848979 0.903977 0.751134 0.854007 0.86669 0.854007 0.751134 0.903977 0.848979 0.885999 0.916636 0.811868 0.840915 0.832264 0.802859 0.793121 0.780257 0.783294 0.788376 0.781983 0.777149 0.744649 0.714051 0.685783 0.724456 0.719995 0.754741 0.702883 0.679933 0.757862 0.799196 0.779616 0.779013 0.815407 0.823252 0.744765 0.917009 0.872827 0.872793 0.896524 0.89361 0.732229 1.02275 0.82575 0.987235 0.860277 0.987235 0.82575 1.02275 0.732229 0.89361 0.896524 0.872793 0.872827 0.917009 0.744765 0.823252 0.815407 0.779013 0.779616 0.799196 0.757862 0.679933 0.702883 0.754741 0.719995 0.604935 0.680594 0.716175 0.672149 0.713002 0.811277 0.824777 0.794688 0.76943 0.765174 0.785238 0.821238 0.803103 0.78307 0.726463 0.889117 0.880238 0.844625 1.02497 0.992719 0.992719 1.02497 0.844625 0.880238 0.889117 0.726463 0.78307 0.803103 0.821238 0.785238 0.765174 0.76943 0.794688 0.824777 0.811277 0.713002 0.672149 0.716175 0.680594 0.604935 0.57725 0.630453 0.692333 0.61333 0.642154 0.814644 0.818947 0.867647 0.793659 0.743785 0.758518 0.766353 0.801009 0.817291 0.768171 0.919578 0.877801 0.887196 0.903681 0.847476 0.851131 0.832115 0.873861 0.832115 0.85113 0.847476 0.903681 0.887196 0.877801 0.919578 0.768171 0.817291 0.801009 0.766353 0.758518 0.743785 0.793659 0.867647 0.818947 0.814644 0.642154 0.61333 0.692333 0.630453 0.57725 0.469337 0.524091 0.55324 0.582646 0.643918 0.834792 0.916182 0.838286 0.749434 0.735971 0.797938 0.790433 0.710873 0.921584 0.890957 0.881646 0.876381 0.863971 1.01588 0.794275 0.994735 0.845731 0.994735 0.794275 1.01588 0.863971 0.876381 0.881646 0.890957 0.921584 0.710873 0.790433 0.797938 0.735971 0.749434 0.838286 0.916182 0.834792 0.643918 0.582646 0.55324 0.524091 0.469337 0.427791 0.504217 0.552217 0.57228 0.60309 0.59865 0.759952 0.978726 0.965518 0.9023 0.821133 0.771422 0.713092 0.718111 0.721763 0.755107 0.837031 0.759242 0.749336 0.718294 0.884989 0.875348 0.865094 0.865408 0.871092 0.883663 1.00487 1.00487 0.883663 0.871092 0.865408 0.865094 0.875348 0.884989 0.718294 0.749336 0.759242 0.837031 0.755107 0.721763 0.718111 0.713092 0.771422 0.821133 0.9023 0.965518 0.978726 0.759952 0.59865 0.60309 0.57228 0.552217 0.504217 0.427791 0.423679 0.416891 0.544956 0.527834 0.682909 0.764945 0.883947 0.718701 0.69531 0.763416 0.825416 0.91878 0.754249 0.918216 0.876469 0.868552 0.872704 0.862353 0.874406 0.690589 0.793459 0.690589 0.874406 0.862353 0.872704 0.868552 0.876469 0.918216 0.754249 0.91878 0.825416 0.763416 0.69531 0.718701 0.883947 0.764945 0.682909 0.527834 0.544956 0.416891 0.423679 0.467346 0.419689 0.376895 0.467118 0.528747 0.592631 0.562508 0.588385 0.64958 0.719273 0.749705 0.758886 0.723212 0.727557 0.731604 0.669706 0.678921 0.719502 0.925251 0.762599 0.678604 0.947238 0.867406 0.887162 0.85928 0.856433 0.88475 0.738194 1.0151 0.805051 1.0151 0.738194 0.88475 0.856433 0.85928 0.887162 0.867406 0.947238 0.678604 0.762599 0.925251 0.719502 0.678921 0.669706 0.731604 0.727557 0.723212 0.758886 0.749705 0.719273 0.64958 0.588385 0.562508 0.592631 0.528747 0.467118 0.376895 0.419689 0.467346 0.0966914 0.348556 0.446515 0.605131 0.627945 0.606001 0.630592 0.747914 0.735119 0.677384 0.658962 0.691799 0.7644 0.978922 0.826334 0.846451 0.760186 0.87119 0.853091 0.852671 0.869914 0.880102 0.880102 0.869914 0.852671 0.853091 0.87119 0.760186 0.846451 0.826334 0.978922 0.7644 0.691799 0.658962 0.677384 0.735119 0.747914 0.630592 0.606001 0.627945 0.605131 0.446515 0.348556 0.0966913 0.177994 0.141665 0.142469 0.318826 0.370201 0.570445 0.648123 0.572155 0.567701 0.695609 0.718339 0.738279 0.700348 0.617494 0.714753 0.750391 0.992497 1.0422 0.87662 0.77503 0.927465 0.846191 0.861482 0.850067 0.856776 0.871343 0.73894 1.02171 0.817183 1.02171 0.73894 0.871343 0.856776 0.850067 0.861482 0.846191 0.927465 0.77503 0.87662 1.0422 0.992497 0.750391 0.714753 0.617494 0.700348 0.738279 0.718339 0.695609 0.567701 0.572155 0.648123 0.570445 0.370201 0.318826 0.142469 0.141665 0.177994 0.171205 0.0853017 0.175097 0.217078 0.285633 0.542988 0.58343 0.562225 0.650641 0.633267 0.743537 0.690494 0.695381 0.643754 0.687685 0.741149 0.661375 1.00653 0.861544 0.782578 0.916606 0.911968 0.864166 0.88398 1.03219 0.814884 1.03219 0.88398 0.864166 0.911968 0.916606 0.782578 0.861544 1.00653 0.661375 0.741149 0.687685 0.643754 0.695381 0.690494 0.743537 0.633267 0.650641 0.562225 0.58343 0.542988 0.285633 0.217078 0.175097 0.0853017 0.171205 0.140569 0.10102 0.171548 0.24268 0.401664 0.667968 0.506918 0.54692 0.810236 0.64969 0.664041 0.642014 0.861299 0.723643 0.512488 0.851197 0.787346 0.839348 0.773932 0.803993 0.776903 0.936423 0.932637 0.867439 0.858071 0.873422 0.888375 0.747353 0.747353 0.888375 0.873422 0.858071 0.867439 0.932637 0.936423 0.776903 0.803993 0.773932 0.839348 0.787346 0.851197 0.512488 0.723643 0.861299 0.642014 0.664041 0.64969 0.810236 0.54692 0.506918 0.667968 0.401664 0.24268 0.171548 0.101021 0.140569 0.0889129 0.144427 0.11683 0.125849 0.234037 0.326832 0.3796 0.377908 0.661313 0.508267 0.547674 0.564168 0.605421 0.610193 0.599958 0.64836 0.845056 0.658789 0.385754 0.836383 0.747947 0.76206 0.928287 0.862242 0.877333 0.87175 0.883903 0.871525 0.758499 1.044 0.813427 1.044 0.758499 0.871525 0.883903 0.87175 0.877333 0.862242 0.928287 0.76206 0.747947 0.836383 0.385754 0.658789 0.845056 0.64836 0.599958 0.610193 0.605421 0.564168 0.547674 0.508267 0.661313 0.377908 0.3796 0.326832 0.234037 0.125849 0.11683 0.144427 0.0889129 0.0218678 0.023097 0.0760404 0.10801 0.319423 0.312443 0.432534 0.804327 0.448234 0.55296 0.572145 0.59617 0.602168 0.608681 0.697952 0.620468 0.641451 0.677349 0.689873 0.534092 0.604559 0.866533 0.838302 0.804418 0.941785 0.917412 0.885804 0.927393 0.837405 1.05346 1.05346 0.837405 0.927393 0.885804 0.917412 0.941785 0.804418 0.838302 0.866533 0.604559 0.534092 0.689873 0.677349 0.641451 0.620468 0.697952 0.608681 0.602168 0.59617 0.572145 0.55296 0.448234 0.804327 0.432534 0.312443 0.319423 0.10801 0.0760404 0.023097 0.0218678 0.0346437 0.0222842 0.1612 0.253789 0.328279 1.00404 0.382494 0.469163 0.569421 0.589706 0.603464 0.612801 0.657966 0.715036 0.738421 0.851999 0.354829 0.824604 0.721039 0.848554 0.746656 0.801115 0.751281 0.936818 0.874465 0.882412 0.84911 0.764224 0.813044 0.764224 0.84911 0.882412 0.874465 0.936818 0.751281 0.801115 0.746656 0.848554 0.721039 0.824604 0.354829 0.851999 0.738421 0.715036 0.657966 0.612801 0.603464 0.589706 0.569421 0.469163 0.382494 1.00404 0.328279 0.253789 0.1612 0.0222842 0.0346437 0.00268742 0.0544988 0.119322 0.145687 0.209195 0.185081 0.300158 0.324352 0.36037 0.567804 0.228492 0.578637 0.594258 0.612828 0.638003 0.689963 0.74887 0.588103 0.630561 0.434506 0.7555 0.752557 0.757744 0.904706 0.901992 0.901416 0.953169 0.882736 0.991041 0.786741 1.00176 0.819147 1.00176 0.786741 0.991041 0.882736 0.953169 0.901416 0.901992 0.904706 0.757744 0.752557 0.7555 0.434506 0.630561 0.588103 0.74887 0.689963 0.638003 0.612828 0.594258 0.578637 0.228492 0.567804 0.36037 0.324352 0.300158 0.185081 0.209195 0.145687 0.119322 0.0544988 0.00268734 0.034148 0.122233 0.0821145 0.108285 0.169207 0.271885 0.417194 0.437587 0.840031 0.537885 0.542231 0.621199 0.64351 0.664527 0.71835 0.715104 0.521055 0.449898 0.241922 0.913567 0.856233 0.794978 0.925444 0.85442 0.913559 0.831683 0.875923 0.919721 0.957063 0.957063 0.919721 0.875923 0.831683 0.913559 0.85442 0.925444 0.794978 0.856233 0.913567 0.241922 0.449898 0.521055 0.715104 0.71835 0.664527 0.64351 0.621199 0.542231 0.537885 0.840031 0.437587 0.417194 0.271885 0.169207 0.108285 0.0821145 0.122233 0.0341481 0.1109 0.111614 0.0971317 0.140876 0.127911 0.251189 0.346198 0.403607 0.333851 0.396315 0.319599 0.77377 0.5474 0.530636 0.5635 0.592597 0.655 0.682254 0.707277 0.629987 0.572122 0.391991 0.998884 0.863501 0.8672 0.777089 0.811633 0.737141 0.876537 0.855844 0.814909 0.768309 0.735014 0.825451 0.735014 0.768309 0.814909 0.855844 0.876537 0.737141 0.811633 0.777089 0.8672 0.863501 0.998884 0.391991 0.572122 0.629987 0.707277 0.682254 0.655 0.592597 0.5635 0.530636 0.5474 0.77377 0.319599 0.396315 0.333851 0.403607 0.346198 0.251189 0.127911 0.140876 0.0971317 0.111614 0.1109 0.148479 0.0552812 0.105976 0.184187 0.296074 0.327746 0.421091 0.297556 0.504648 0.667019 0.578274 0.560685 0.575951 0.589768 0.635445 0.723205 0.707154 0.683831 0.409832 0.877396 0.771089 0.732554 0.850681 0.829437 0.824844 0.879273 0.746403 0.943487 0.748631 0.926279 0.827692 0.926279 0.748631 0.943487 0.746403 0.879273 0.824844 0.829437 0.850681 0.732554 0.771089 0.877396 0.409832 0.683831 0.707154 0.723205 0.635445 0.589768 0.575951 0.560685 0.578274 0.667019 0.504648 0.297556 0.421091 0.327746 0.296074 0.184187 0.105976 0.0552811 0.148479 0.650352 0.291878 0.0956472 0.121553 0.245872 0.340418 0.393319 0.275971 0.342865 0.557717 0.619828 0.602876 0.572302 0.577299 0.635697 0.652083 0.668756 0.693123 0.674298 0.614573 0.956465 0.870439 0.819807 0.867104 0.879197 0.807678 0.863381 0.931167 0.926579 0.926579 0.931167 0.863381 0.807678 0.879197 0.867104 0.819807 0.870439 0.956465 0.614573 0.674298 0.693123 0.668756 0.652083 0.635697 0.577299 0.572302 0.602876 0.619828 0.557717 0.342865 0.275971 0.393319 0.340418 0.245872 0.121553 0.0956472 0.291878 0.650352 0.920415 0.19743 0.403392 0.343057 0.430353 0.411849 0.532856 0.51128 0.55088 0.59574 0.570542 0.643112 0.646433 0.662863 0.682298 0.702518 0.693198 0.700786 0.739808 0.909951 0.948654 0.867003 0.882501 0.8399 0.775233 0.861107 0.792206 0.857043 0.855844 0.72681 0.757371 0.830103 0.757371 0.72681 0.855844 0.857043 0.792206 0.861107 0.775233 0.8399 0.882501 0.867003 0.948654 0.909951 0.739808 0.700786 0.693198 0.702518 0.682298 0.662863 0.646433 0.643112 0.570542 0.59574 0.55088 0.51128 0.532856 0.411849 0.430353 0.343057 0.403392 0.19743 0.920415 0.772807 0.185789 0.383995 0.24209 0.355061 0.509338 0.635618 0.64863 0.656175 0.678658 0.698892 0.673229 0.674193 0.9243 0.878121 0.867713 0.850398 0.843718 0.831904 0.83667 0.765727 0.938542 0.778907 0.927288 0.832076 0.927288 0.778907 0.938542 0.765727 0.83667 0.831904 0.843718 0.850398 0.867713 0.878121 0.9243 0.674193 0.673229 0.698892 0.678658 0.656175 0.64863 0.635618 0.509338 0.355061 0.24209 0.383995 0.185789 0.772807 0.743172 0.75836 0.506411 0.390082 0.719571 0.885498 0.519425 0.553343 0.522869 0.683916 0.577238 0.571519 0.621384 0.566994 0.657469 0.690188 0.660621 0.674277 0.699486 0.733319 0.821321 0.871752 0.851198 0.860797 0.841338 0.843645 0.881569 0.881569 0.843645 0.841338 0.860797 0.851198 0.871752 0.821321 0.733319 0.699486 0.674277 0.660621 0.690188 0.657469 0.566994 0.621384 0.571519 0.577238 0.683916 0.522869 0.553343 0.519425 0.885499 0.719571 0.390082 0.506411 0.758359 0.743172 0.672797 0.734135 0.687725 0.532654 0.551707 0.624409 0.687949 0.530258 0.581206 0.570877 0.674364 0.65611 0.657621 0.67132 0.70315 0.707183 0.719475 0.82616 0.891815 0.868108 0.875546 0.853451 0.86978 0.857755 0.848787 0.827182 0.827259 0.804007 0.939948 0.79135 0.928749 0.833371 0.928749 0.79135 0.939947 0.804007 0.827259 0.827182 0.848787 0.857755 0.86978 0.853451 0.875546 0.868108 0.891815 0.82616 0.719475 0.707183 0.70315 0.67132 0.657621 0.65611 0.674364 0.570877 0.581206 0.530258 0.687949 0.624409 0.551707 0.532654 0.687725 0.734135 0.672797 0.680943 0.634382 0.707708 0.538765 0.664596 0.672253 0.665837 0.630006 0.525857 0.688589 0.666046 0.659927 0.664572 0.661949 0.679216 0.697016 0.709884 0.752245 0.872394 0.873962 0.882763 0.846278 0.873993 0.856381 0.860791 0.845572 0.844536 0.823622 0.912466 0.800448 0.95177 0.807891 0.929807 0.835877 0.929807 0.807891 0.95177 0.800448 0.912466 0.823622 0.844536 0.845572 0.860791 0.856381 0.873993 0.846278 0.882764 0.873962 0.872394 0.752245 0.709884 0.697016 0.679216 0.661949 0.664572 0.659927 0.666046 0.688589 0.525857 0.630006 0.665837 0.672253 0.664596 0.538765 0.707708 0.634382 0.680943 0.480635 0.72691 0.728448 0.596214 0.678222 0.690994 0.626207 0.695873 0.68218 0.664703 0.667595 0.684302 0.674922 0.671683 0.667152 0.673739 0.690986 0.701939 0.701213 0.701213 0.701939 0.690986 0.673739 0.667152 0.671683 0.674922 0.684302 0.667595 0.664703 0.68218 0.695873 0.626207 0.690994 0.678222 0.596214 0.728448 0.72691 0.480635 0.626426 0.707124 0.673818 0.615767 0.682831 0.725489 0.647732 0.674882 0.679581 0.676206 0.688554 0.718128 0.745075 0.739849 0.728674 0.889138 0.882948 0.788154 0.864855 0.829052 0.871672 0.840685 0.845974 0.862372 0.819336 0.81803 0.918973 0.793297 0.96439 0.816021 0.931214 0.838146 0.931214 0.816021 0.96439 0.793297 0.918973 0.81803 0.819336 0.862372 0.845974 0.840685 0.871672 0.829052 0.864855 0.788154 0.882948 0.889138 0.728674 0.739849 0.745075 0.718128 0.688554 0.676206 0.679581 0.674882 0.647732 0.725489 0.682831 0.615767 0.673818 0.707124 0.626426 0.709101 0.700694 0.680167 0.655875 0.773494 0.679677 0.694589 0.694046 0.755542 0.724704 0.878206 0.901149 0.822781 0.849785 0.825066 0.869248 0.838807 0.908616 0.845868 0.951066 0.820682 0.935146 0.836453 0.927276 0.827998 0.923862 0.841619 0.923862 0.827998 0.927276 0.836453 0.935146 0.820682 0.951066 0.845868 0.908616 0.838807 0.869248 0.825066 0.849785 0.822781 0.901149 0.878206 0.724704 0.755542 0.694046 0.694589 0.679677 0.773494 0.655875 0.680167 0.700694 0.709101 0.875279 0.790096 0.661236 0.599286 0.727132 0.725454 0.675639 0.688041 0.673136 0.750568 0.772824 0.714981 0.720973 0.701581 0.677375 0.685481 0.710286 0.740755 0.740755 0.710286 0.685481 0.677375 0.701581 0.720973 0.714981 0.772824 0.750568 0.673136 0.688041 0.675639 0.725454 0.727132 0.599286 0.661236 0.790096 0.875279 0.853708 0.770667 0.710677 0.662876 0.617502 0.731218 0.726153 0.691831 0.67473 0.704054 0.737332 0.753176 0.678904 0.701004 0.705034 0.625182 0.638527 0.659089 0.686821 0.716337 0.658357 0.830748 0.851272 0.771969 0.797477 0.787047 0.830758 0.807204 0.875155 0.808192 0.925327 0.794686 0.94699 0.851856 0.93042 0.834904 0.924773 0.844947 0.924773 0.834904 0.93042 0.851856 0.94699 0.794686 0.925327 0.808192 0.875155 0.807204 0.830758 0.787047 0.797477 0.771969 0.851272 0.830748 0.658357 0.716337 0.686821 0.659089 0.638527 0.625182 0.705034 0.701004 0.678904 0.753176 0.737332 0.704054 0.67473 0.691831 0.726153 0.731218 0.617502 0.662876 0.710677 0.770667 0.853708 0.850229 0.784282 0.725229 0.728072 0.736728 0.779145 0.788719 0.785185 0.63353 0.67031 0.712127 0.704504 0.860155 0.934164 0.811751 0.918236 0.829329 0.913996 0.851673 0.912022 0.84529 0.911371 0.825601 0.906772 0.858109 0.902588 0.842263 0.901039 0.849617 0.901039 0.842263 0.902588 0.858109 0.906772 0.825601 0.911371 0.84529 0.912022 0.851673 0.913996 0.829329 0.918236 0.811751 0.934164 0.860155 0.704504 0.712127 0.67031 0.63353 0.785185 0.788719 0.779145 0.736728 0.728072 0.725229 0.784282 0.850229 0.822715 0.735563 0.739165 0.711288 0.714246 0.701455 0.741993 0.647152 0.639548 0.639548 0.647152 0.741993 0.701455 0.714246 0.711288 0.739165 0.735563 0.822715 0.893832 0.859537 0.851423 0.852483 0.845905 0.871084 0.886639 0.890747 0.862493 0.743215 0.72278 0.685836 0.720331 0.764622 0.792727 0.79117 0.770751 0.75039 0.786016 0.829567 0.83329 0.849006 1.02386 0.872808 0.988752 0.882741 0.962973 0.886107 0.945341 0.867434 0.929315 0.84379 0.914121 0.861415 0.905207 0.848921 0.901877 0.853947 0.901877 0.848921 0.905207 0.861415 0.914121 0.84379 0.929315 0.867434 0.945341 0.886107 0.962973 0.882741 0.988752 0.872808 1.02386 0.849006 0.83329 0.829567 0.786016 0.75039 0.770751 0.79117 0.792727 0.764622 0.720331 0.685836 0.72278 0.743215 0.862493 0.890747 0.886639 0.871084 0.845905 0.852483 0.851423 0.859537 0.893832 0.89777 0.877937 0.887811 0.893426 0.890761 0.910522 0.902863 0.90392 0.868596 0.851734 0.830058 0.811016 0.761412 0.79575 0.810355 0.794121 0.880482 0.882389 0.879873 0.896939 0.882214 0.896921 0.893235 0.896442 0.892114 0.89581 0.888431 0.894906 0.869685 0.894458 0.850596 0.894013 0.862001 0.893879 0.855312 0.893832 0.859153 0.893832 0.855312 0.893879 0.862001 0.894013 0.850596 0.894458 0.869685 0.894906 0.888431 0.89581 0.892114 0.896442 0.893235 0.896921 0.882214 0.896939 0.879873 0.882389 0.880482 0.794121 0.810355 0.79575 0.761412 0.811016 0.830058 0.851734 0.868596 0.90392 0.902863 0.910522 0.890761 0.893426 0.887811 0.877937 0.89777 0.850519 0.850519 0.899652 0.884131 0.892451 0.899247 0.897886 0.912363 0.909969 0.903506 0.881498 0.887987 0.865507 0.861461 0.903488 0.813893 0.821445 0.815767 0.807243 0.898301 0.893239 0.89051 0.901478 0.886491 0.899407 0.895353 0.898343 0.89059 0.89713 0.884959 0.896302 0.869691 0.894592 0.855485 0.893832 0.863038 0.893832 0.860928 0.893832 0.863843 0.893832 0.860928 0.893832 0.863038 0.893832 0.855485 0.894592 0.869691 0.896302 0.884959 0.89713 0.89059 0.898343 0.895353 0.899407 0.886491 0.901478 0.89051 0.893239 0.898301 0.807243 0.815767 0.821445 0.813893 0.903488 0.861461 0.865507 0.887987 0.881498 0.903506 0.909969 0.912363 0.897886 0.899247 0.892451 0.884131 0.899652 0.899312 0.888677 0.890782 0.898416 0.898356 0.908674 0.909214 0.903754 0.885599 0.836287 0.838056 0.834602 0.894878 0.89104 0.893446 0.894004 0.888263 0.893889 0.894166 0.893832 0.888255 0.893832 0.882289 0.893832 0.87017 0.893832 0.860143 0.893832 0.86481 0.893832 0.86583 0.893832 0.868015 0.893832 0.86583 0.893832 0.86481 0.893832 0.860143 0.893832 0.87017 0.893832 0.882289 0.893832 0.888255 0.893832 0.894166 0.893889 0.888263 0.894004 0.893446 0.89104 0.894878 0.834602 0.838056 0.836287 0.885599 0.903754 0.909214 0.908674 0.898356 0.898416 0.890782 0.888677 0.899312 0.892549 0.873794 0.865039 0.90359 0.844857 0.844857 0.90359 0.865039 0.873794 0.892549 0.898872 0.89132 0.888787 0.895585 0.897641 0.904763 0.907575 0.903225 0.890146 0.893696 0.881528 0.872521 0.902024 0.860002 0.844524 0.845781 0.856101 0.891693 0.888946 0.893864 0.894037 0.889398 0.893909 0.892643 0.893832 0.886405 0.893832 0.880631 0.893832 0.871466 0.893832 0.864394 0.893832 0.86708 0.893832 0.870063 0.893832 0.871693 0.893832 0.870063 0.893832 0.86708 0.893832 0.864394 0.893832 0.871466 0.893832 0.880631 0.893832 0.886405 0.893832 0.892643 0.893909 0.889398 0.894037 0.893864 0.888946 0.891693 0.856101 0.845781 0.844524 0.860002 0.902024 0.872521 0.881528 0.893696 0.890146 0.903225 0.907575 0.904763 0.897641 0.895585 0.888787 0.89132 0.898872 0.887294 0.876365 0.889563 0.886853 0.894192 0.893832 0.893832 0.893832 0.893832 0.893832 0.893832 0.868135 0.893832 0.869636 0.893832 0.87369 0.893832 0.874911 0.893832 0.87369 0.893832 0.869636 0.893832 0.868135 0.893832 0.893832 0.893832 0.893832 0.893832 0.893832 0.894192 0.886853 0.889563 0.876365 0.887294 0.898406 0.892911 0.892872 0.896804 0.901347 0.905661 0.902428 0.89335 0.894463 0.887656 0.879879 0.900309 0.869658 0.854783 0.854165 0.889994 0.891284 0.885112 0.879784 0.873036 0.873036 0.879784 0.885112 0.891284 0.889994 0.854165 0.854783 0.869658 0.900309 0.879879 0.887656 0.894463 0.89335 0.902428 0.905661 0.901347 0.896804 0.892872 0.892911 0.898406 0.897912 0.893907 0.886699 0.891199 0.89585 0.898691 0.903497 0.901466 0.894553 0.893679 0.892477 0.884965 0.897089 0.875806 0.864133 0.864619 0.887728 0.887966 0.885162 0.894673 0.893832 0.890247 0.893832 0.890187 0.893832 0.884323 0.893832 0.87961 0.893832 0.874625 0.893832 0.871356 0.893832 0.872305 0.893832 0.876788 0.893832 0.877713 0.893832 0.876788 0.893832 0.872305 0.893832 0.871356 0.893832 0.874625 0.893832 0.87961 0.893832 0.884323 0.893832 0.890187 0.893832 0.890247 0.893832 0.894673 0.885162 0.887966 0.887728 0.864619 0.864133 0.875806 0.897089 0.884965 0.892477 0.893679 0.894553 0.901466 0.903497 0.898691 0.89585 0.891199 0.886699 0.893907 0.897912 0.897395 0.894623 0.887046 0.890303 0.894587 0.896611 0.90126 0.900392 0.895223 0.891962 0.895282 0.888544 0.892783 0.879467 0.870887 0.874681 0.89015 0.886768 0.884281 0.894638 0.893832 0.890286 0.893832 0.889366 0.893832 0.883945 0.893832 0.879945 0.893832 0.876181 0.893832 0.874092 0.893832 0.874955 0.893832 0.879429 0.893832 0.880142 0.893832 0.879429 0.893832 0.874955 0.893832 0.874092 0.893832 0.876181 0.893832 0.879945 0.893832 0.883945 0.893832 0.889366 0.893832 0.890286 0.893832 0.894638 0.884281 0.886768 0.89015 0.874681 0.870887 0.879467 0.892783 0.888544 0.895282 0.891962 0.895223 0.900392 0.90126 0.896611 0.894587 0.890303 0.887046 0.894623 0.897395 0.896866 0.895151 0.887974 0.88984 0.893171 0.894895 0.899165 0.899258 0.895584 0.890365 0.896173 0.89098 0.888437 0.881744 0.876049 0.882058 0.888904 0.886041 0.884204 0.894145 0.893832 0.890185 0.893832 0.888797 0.893832 0.883886 0.893832 0.88062 0.893832 0.877674 0.893832 0.876407 0.893832 0.87749 0.893832 0.881683 0.893832 0.882239 0.893832 0.881683 0.893832 0.87749 0.893832 0.876407 0.893832 0.877674 0.893832 0.88062 0.893832 0.883886 0.893832 0.888797 0.893832 0.890185 0.893832 0.894145 0.884204 0.886041 0.888904 0.882058 0.876049 0.881744 0.888437 0.89098 0.896173 0.890365 0.895584 0.899258 0.899165 0.894895 0.893171 0.88984 0.887974 0.895151 0.896866 0.896336 0.895345 0.889126 0.889699 0.891883 0.893456 0.897291 0.89813 0.895233 0.889228 0.895959 0.89227 0.884848 0.882637 0.879548 0.885677 0.887186 0.885769 0.884708 0.893541 0.893832 0.890014 0.893832 0.888458 0.893832 0.884074 0.893832 0.881488 0.893832 0.879076 0.893832 0.878378 0.893832 0.879847 0.893832 0.883607 0.893832 0.884045 0.893832 0.883607 0.893832 0.879847 0.893832 0.878378 0.893832 0.879076 0.893832 0.881488 0.893832 0.884074 0.893832 0.888458 0.893832 0.890014 0.893832 0.893541 0.884708 0.885769 0.887186 0.885677 0.879548 0.882637 0.884848 0.89227 0.895959 0.889228 0.895233 0.89813 0.897291 0.893456 0.891883 0.889699 0.889126 0.895345 0.896336 0.895814 0.895207 0.89028 0.889806 0.890884 0.892256 0.895638 0.897058 0.894329 0.888509 0.89513 0.892636 0.882271 0.882441 0.881201 0.886541 0.885924 0.885864 0.885555 0.893017 0.893832 0.889834 0.893832 0.888319 0.893832 0.884441 0.893832 0.882442 0.893832 0.880379 0.893832 0.880089 0.893832 0.881987 0.893832 0.885249 0.893832 0.885596 0.893832 0.885249 0.893832 0.881987 0.893832 0.880089 0.893832 0.880379 0.893832 0.882442 0.893832 0.884441 0.893832 0.888319 0.893832 0.889834 0.893832 0.893017 0.885555 0.885864 0.885924 0.886541 0.881201 0.882441 0.882271 0.892636 0.89513 0.888509 0.894329 0.897058 0.895638 0.892256 0.890884 0.889806 0.89028 0.895207 0.895814 0.895308 0.894887 0.891289 0.890063 0.890201 0.891269 0.894197 0.896069 0.893293 0.888126 0.893903 0.89233 0.880637 0.881866 0.881679 0.886263 0.88522 0.886226 0.886557 0.892623 0.893832 0.889683 0.893832 0.888337 0.893832 0.884927 0.893832 0.883406 0.893832 0.881589 0.893832 0.881602 0.893832 0.883893 0.893832 0.886649 0.893832 0.886923 0.893832 0.886649 0.893832 0.883893 0.893832 0.881602 0.893832 0.881589 0.893832 0.883406 0.893832 0.884927 0.893832 0.888337 0.893832 0.889683 0.893832 0.892623 0.886557 0.886226 0.88522 0.886263 0.881679 0.881866 0.880637 0.89233 0.893903 0.888126 0.893293 0.896069 0.894197 0.891269 0.890201 0.890063 0.891289 0.894887 0.895308 0.894824 0.894514 0.892075 0.890393 0.889799 0.890472 0.892962 0.895175 0.89239 0.888007 0.892526 0.891572 0.879777 0.881429 0.881787 0.885838 0.884994 0.886763 0.887584 0.892355 0.893832 0.889585 0.893832 0.888473 0.893832 0.885479 0.893832 0.88433 0.893832 0.882716 0.893832 0.88296 0.893832 0.885561 0.893832 0.887842 0.893832 0.888056 0.893832 0.887842 0.893832 0.885561 0.893832 0.88296 0.893832 0.882716 0.893832 0.88433 0.893832 0.885479 0.893832 0.888473 0.893832 0.889585 0.893832 0.892355 0.887584 0.886763 0.884994 0.885838 0.881787 0.881429 0.879777 0.891572 0.892526 0.888007 0.89239 0.895175 0.892962 0.890472 0.889799 0.890393 0.892075 0.894514 0.894824 0.89437 0.894151 0.892638 0.890749 0.88962 0.889854 0.891928 0.894381 0.891697 0.888071 0.891239 0.890607 0.879515 0.881316 0.881964 0.885616 0.885142 0.887398 0.888557 0.892192 0.893832 0.889553 0.893832 0.88869 0.893832 0.886058 0.893832 0.885182 0.893832 0.883766 0.893832 0.884196 0.893832 0.887 0.893832 0.888855 0.893832 0.889019 0.893832 0.888855 0.893832 0.887 0.893832 0.884196 0.893832 0.883766 0.893832 0.885182 0.893832 0.886058 0.893832 0.88869 0.893832 0.889553 0.893832 0.892192 0.888557 0.887398 0.885142 0.885616 0.881964 0.881316 0.879515 0.890607 0.891239 0.888071 0.891697 0.894381 0.891928 0.889854 0.88962 0.890749 0.892638 0.894151 0.89437 0.893948 0.893819 0.893017 0.891101 0.889608 0.889401 0.891084 0.893683 0.891202 0.888238 0.890173 0.889659 0.879692 0.88153 0.882341 0.88565 0.885561 0.888072 0.889438 0.892106 0.893832 0.889589 0.893832 0.888955 0.893832 0.886635 0.893832 0.885955 0.893832 0.884742 0.893832 0.885328 0.893832 0.888227 0.893832 0.889712 0.893832 0.889835 0.893832 0.889712 0.893832 0.888227 0.893832 0.885328 0.893832 0.884742 0.893832 0.885955 0.893832 0.886635 0.893832 0.888955 0.893832 0.889589 0.893832 0.892106 0.889438 0.888072 0.885561 0.88565 0.882341 0.88153 0.879692 0.889659 0.890173 0.888238 0.891202 0.893683 0.891084 0.889401 0.889608 0.891101 0.893017 0.893819 0.893948 0.893561 0.893522 0.893256 0.891421 0.889713 0.889097 0.890412 0.893079 0.890868 0.888444 0.889352 0.888862 0.880182 0.882002 0.88291 0.885903 0.886163 0.888741 0.890211 0.892068 0.893832 0.889687 0.893832 0.889244 0.893832 0.88719 0.893832 0.886651 0.893832 0.885647 0.893832 0.886371 0.893832 0.889262 0.893832 0.890435 0.893832 0.890524 0.893832 0.890435 0.893832 0.889262 0.893832 0.886371 0.893832 0.885647 0.893832 0.886651 0.893832 0.88719 0.893832 0.889244 0.893832 0.889687 0.893832 0.892068 0.890211 0.888741 0.886163 0.885903 0.88291 0.882002 0.880182 0.888862 0.889352 0.888444 0.890868 0.893079 0.890412 0.889097 0.889713 0.891421 0.893256 0.893522 0.893561 0.893212 0.89326 0.893389 0.891692 0.889896 0.888924 0.889896 0.892558 0.890658 0.888641 0.888746 0.888264 0.880881 0.882657 0.88362 0.88632 0.886871 0.889373 0.890875 0.892057 0.893832 0.88983 0.893832 0.889538 0.893832 0.887713 0.893832 0.88728 0.893832 0.886481 0.893832 0.887328 0.893832 0.890127 0.893832 0.891042 0.893832 0.891102 0.893832 0.891042 0.893832 0.890127 0.893832 0.887328 0.893832 0.886481 0.893832 0.88728 0.893832 0.887713 0.893832 0.889538 0.893832 0.88983 0.893832 0.892057 0.890875 0.889373 0.886871 0.88632 0.88362 0.882657 0.880881 0.888264 0.888746 0.888641 0.890658 0.892558 0.889896 0.888924 0.889896 0.891692 0.893389 0.89326 0.893212 0.892901 0.893034 0.893441 0.891902 0.890125 0.888866 0.889516 0.89211 0.890533 0.888801 0.888313 0.88786 0.88171 0.883423 0.884415 0.886844 0.887624 0.88995 0.891437 0.892061 0.893832 0.890004 0.893832 0.889825 0.893832 0.888198 0.893832 0.887851 0.893832 0.887249 0.893832 0.888204 0.893832 0.890845 0.893832 0.89155 0.893832 0.891587 0.893832 0.89155 0.893832 0.890845 0.893832 0.888204 0.893832 0.887249 0.893832 0.887851 0.893832 0.888198 0.893832 0.889825 0.893832 0.890004 0.893832 0.892061 0.891437 0.88995 0.887624 0.886844 0.884415 0.883423 0.88171 0.88786 0.888313 0.888801 0.890533 0.89211 0.889516 0.888866 0.890125 0.891902 0.893441 0.893034 0.892901 0.892628 0.89284 0.893429 0.89205 0.890376 0.888904 0.889253 0.891724 0.890465 0.888908 0.888014 0.887623 0.882606 0.884243 0.885248 0.887426 0.888376 0.890461 0.891907 0.89207 0.893832 0.890195 0.893832 0.890095 0.893832 0.888644 0.893832 0.888373 0.893832 0.887955 0.893832 0.888999 0.893832 0.891437 0.893832 0.891972 0.893832 0.891991 0.893832 0.891972 0.893832 0.891437 0.893832 0.888999 0.893832 0.887955 0.893832 0.888373 0.893832 0.888644 0.893832 0.890095 0.893832 0.890195 0.893832 0.89207 0.891907 0.890461 0.888376 0.887426 0.885248 0.884243 0.882606 0.887623 0.888014 0.888908 0.890465 0.891724 0.889253 0.888904 0.890376 0.89205 0.893429 0.89284 0.892628 0.89239 0.892675 0.893372 0.892137 0.890631 0.88902 0.889089 0.891389 0.89043 0.88896 0.887815 0.887521 0.883519 0.885074 0.88608 0.888025 0.889094 0.890904 0.892298 0.892082 0.893832 0.890392 0.893832 0.890344 0.893832 0.889053 0.893832 0.888854 0.893832 0.888602 0.893832 0.889714 0.893832 0.891922 0.893832 0.892322 0.893832 0.892327 0.893832 0.892322 0.893832 0.891922 0.893832 0.889714 0.893832 0.888602 0.893832 0.888854 0.893832 0.889053 0.893832 0.890344 0.893832 0.890392 0.893832 0.892082 0.892298 0.890904 0.889094 0.888025 0.88608 0.885074 0.883519 0.887521 0.887815 0.88896 0.89043 0.891389 0.889089 0.88902 0.890631 0.892137 0.893372 0.892675 0.89239 0.889758 0.89262 0.893832 0.893832 0.893832 0.893832 0.889297 0.893832 0.889195 0.893832 0.890351 0.893832 0.892316 0.893832 0.89261 0.893832 0.892605 0.893832 0.89261 0.893832 0.892316 0.893832 0.890351 0.893832 0.889195 0.893832 0.889297 0.893832 0.893832 0.893832 0.893832 0.89262 0.889758 0.892188 0.892536 0.893284 0.892175 0.890878 0.889195 0.889005 0.891099 0.890408 0.888959 0.887693 0.887525 0.884414 0.885881 0.886885 0.888611 0.891281 0.892094 0.890588 0.890571 0.889426 0.889426 0.890571 0.890588 0.892094 0.891281 0.888611 0.886885 0.885881 0.884414 0.887525 0.887693 0.888959 0.890408 0.891099 0.889005 0.889195 0.890878 0.892175 0.893284 0.892536 0.892188 0.892018 0.892421 0.893177 0.892172 0.891111 0.889409 0.888984 0.890849 0.89039 0.888916 0.887631 0.887607 0.885264 0.886641 0.88764 0.889163 0.890356 0.891596 0.892885 0.892107 0.893832 0.890778 0.893832 0.890774 0.893832 0.889768 0.893832 0.889709 0.893832 0.889737 0.893832 0.890914 0.893832 0.892636 0.893832 0.892847 0.893832 0.892834 0.893832 0.892847 0.893832 0.892636 0.893832 0.890914 0.893832 0.889737 0.893832 0.889709 0.893832 0.889768 0.893832 0.890774 0.893832 0.890778 0.893832 0.892107 0.892885 0.891596 0.890356 0.889163 0.88764 0.886641 0.885264 0.887607 0.887631 0.888916 0.89039 0.890849 0.888984 0.889409 0.891111 0.892172 0.893177 0.892421 0.892018 0.891877 0.892325 0.893062 0.892141 0.891323 0.889646 0.88901 0.890632 0.890365 0.88884 0.887614 0.887744 0.886055 0.887341 0.888336 0.889668 0.890883 0.891856 0.8931 0.892122 0.893832 0.890957 0.893832 0.890956 0.893832 0.890081 0.893832 0.890089 0.893832 0.89023 0.893832 0.891406 0.893832 0.892894 0.893832 0.893041 0.893832 0.893022 0.893832 0.893041 0.893832 0.892894 0.893832 0.891406 0.893832 0.89023 0.893832 0.890089 0.893832 0.890081 0.893832 0.890956 0.893832 0.890957 0.893832 0.892122 0.8931 0.891856 0.890883 0.889668 0.888336 0.887341 0.886055 0.887744 0.887614 0.88884 0.890365 0.890632 0.88901 0.889646 0.891323 0.892141 0.893062 0.892325 0.891877 0.891763 0.892245 0.892945 0.892092 0.891512 0.889891 0.889069 0.890445 0.890331 0.888743 0.887633 0.887919 0.886776 0.887972 0.888964 0.890119 0.891341 0.892067 0.893275 0.892138 0.893832 0.891125 0.893832 0.891117 0.893832 0.890367 0.893832 0.890441 0.893832 0.890677 0.893832 0.891832 0.893832 0.8931 0.893832 0.893199 0.893832 0.893176 0.893832 0.893199 0.893832 0.8931 0.893832 0.891832 0.893832 0.890677 0.893832 0.890441 0.893832 0.890367 0.893832 0.891117 0.893832 0.891125 0.893832 0.892138 0.893275 0.892067 0.891341 0.890119 0.888964 0.887972 0.886776 0.887919 0.887633 0.888743 0.890331 0.890445 0.889069 0.889891 0.891512 0.892092 0.892945 0.892245 0.891763 0.891673 0.89218 0.892832 0.892033 0.891678 0.890134 0.88915 0.890286 0.890287 0.888636 0.887682 0.888115 0.887424 0.888533 0.889523 0.890516 0.891733 0.892238 0.893414 0.892157 0.893832 0.891278 0.893832 0.891261 0.893832 0.890628 0.893832 0.890764 0.893832 0.89108 0.893832 0.892196 0.893832 0.893264 0.893832 0.893328 0.893832 0.893302 0.893832 0.893328 0.893832 0.893264 0.893832 0.892196 0.893832 0.89108 0.893832 0.890764 0.893832 0.890628 0.893832 0.891261 0.893832 0.891278 0.893832 0.892157 0.893414 0.892238 0.891733 0.890516 0.889523 0.888533 0.887424 0.888115 0.887682 0.888636 0.890287 0.890286 0.88915 0.890134 0.891678 0.892033 0.892832 0.89218 0.891673 0.891603 0.892126 0.892725 0.891971 0.891822 0.890366 0.889243 0.890149 0.890233 0.888528 0.887752 0.888321 0.887999 0.889024 0.890013 0.89086 0.892065 0.892373 0.893525 0.892178 0.893832 0.891418 0.893832 0.891389 0.893832 0.890867 0.893832 0.891059 0.893832 0.89144 0.893832 0.892505 0.893832 0.893394 0.893832 0.893431 0.893832 0.893405 0.893832 0.893431 0.893832 0.893394 0.893832 0.892505 0.893832 0.89144 0.893832 0.891059 0.893832 0.890867 0.893832 0.891389 0.893832 0.891418 0.893832 0.892178 0.893525 0.892373 0.892065 0.89086 0.890013 0.889024 0.887999 0.888321 0.887752 0.888528 0.890233 0.890149 0.889243 0.890366 0.891822 0.891971 0.892725 0.892126 0.891603 0.89155 0.892081 0.892627 0.891911 0.891944 0.890581 0.88934 0.890033 0.890171 0.888427 0.887838 0.888527 0.888504 0.88945 0.890439 0.891153 0.892344 0.89248 0.89361 0.892201 0.893832 0.891543 0.893832 0.891502 0.893832 0.891084 0.893832 0.891327 0.893832 0.891761 0.893832 0.892763 0.893832 0.893496 0.893832 0.893514 0.893832 0.893487 0.893832 0.893514 0.893832 0.893496 0.893832 0.892763 0.893832 0.891761 0.893832 0.891327 0.893832 0.891084 0.893832 0.891502 0.893832 0.891543 0.893832 0.892201 0.89361 0.89248 0.892344 0.891153 0.890439 0.88945 0.888504 0.888527 0.887838 0.888427 0.890171 0.890033 0.88934 0.890581 0.891944 0.891911 0.892627 0.892081 0.89155 0.891512 0.892043 0.892537 0.891856 0.892047 0.890776 0.889437 0.889934 0.890104 0.888336 0.887936 0.888727 0.888942 0.889814 0.890805 0.891401 0.892577 0.892564 0.893675 0.892226 0.893832 0.891654 0.893832 0.891603 0.893832 0.891279 0.893832 0.891567 0.893832 0.892043 0.893832 0.892978 0.893832 0.893575 0.893832 0.893581 0.893832 0.893554 0.893832 0.893581 0.893832 0.893575 0.893832 0.892978 0.893832 0.892043 0.893832 0.891567 0.893832 0.891279 0.893832 0.891603 0.893832 0.891654 0.893832 0.892226 0.893675 0.892564 0.892577 0.891401 0.890805 0.889814 0.888942 0.888727 0.887936 0.888336 0.890104 0.889934 0.889437 0.890776 0.892047 0.891856 0.892537 0.892043 0.891512 0.891486 0.892012 0.892457 0.891808 0.892132 0.890948 0.889529 0.889852 0.890036 0.888258 0.888038 0.888913 0.889318 0.890121 0.891115 0.891609 0.892768 0.892628 0.893723 0.89225 0.893832 0.89175 0.893832 0.891692 0.893832 0.891452 0.893832 0.89178 0.893832 0.892289 0.893832 0.893153 0.893832 0.893637 0.893832 0.893634 0.893832 0.893608 0.893832 0.893634 0.893832 0.893637 0.893832 0.893153 0.893832 0.892289 0.893832 0.89178 0.893832 0.891452 0.893832 0.891692 0.893832 0.89175 0.893832 0.89225 0.893723 0.892628 0.892768 0.891609 0.891115 0.890121 0.889318 0.888913 0.888038 0.888258 0.890036 0.889852 0.889529 0.890948 0.892132 0.891808 0.892457 0.892012 0.891486 0.891468 0.891986 0.892388 0.891767 0.892202 0.891097 0.889614 0.889783 0.889969 0.888194 0.888141 0.889083 0.889636 0.890379 0.891375 0.891779 0.892925 0.892677 0.893758 0.892275 0.893832 0.891834 0.893832 0.891769 0.893832 0.891605 0.893832 0.891965 0.893832 0.8925 0.893832 0.893294 0.893832 0.893685 0.893832 0.893675 0.893832 0.89365 0.893832 0.893675 0.893832 0.893685 0.893832 0.893294 0.893832 0.8925 0.893832 0.891965 0.893832 0.891605 0.893832 0.891769 0.893832 0.891834 0.893832 0.892275 0.893758 0.892677 0.892925 0.891779 0.891375 0.890379 0.889636 0.889083 0.888141 0.888194 0.889969 0.889783 0.889614 0.891097 0.892202 0.891767 0.892388 0.891986 0.891468 0.891457 0.891965 0.892328 0.891733 0.892258 0.891222 0.889689 0.889727 0.889907 0.888144 0.888239 0.889233 0.889901 0.89059 0.891588 0.891918 0.893051 0.892714 0.893783 0.892297 0.893832 0.891905 0.893832 0.891836 0.893832 0.891735 0.893832 0.892124 0.893832 0.892677 0.893832 0.893407 0.893832 0.893721 0.893832 0.893708 0.893832 0.893683 0.893832 0.893708 0.893832 0.893721 0.893832 0.893407 0.893832 0.892677 0.893832 0.892124 0.893832 0.891735 0.893832 0.891836 0.893832 0.891905 0.893832 0.892297 0.893783 0.892714 0.893051 0.891918 0.891588 0.89059 0.889901 0.889233 0.888239 0.888144 0.889907 0.889727 0.889689 0.891222 0.892258 0.891733 0.892328 0.891965 0.891457 0.891451 0.891947 0.892278 0.891707 0.892302 0.891324 0.889753 0.889682 0.889851 0.888106 0.888328 0.889361 0.890116 0.890759 0.89176 0.892028 0.893151 0.89274 0.8938 0.892318 0.893832 0.891963 0.893832 0.891892 0.893832 0.891845 0.893832 0.892256 0.893832 0.892823 0.893832 0.893494 0.893832 0.893747 0.893832 0.893732 0.893832 0.893709 0.893832 0.893732 0.893832 0.893747 0.893832 0.893494 0.893832 0.892823 0.893832 0.892256 0.893832 0.891845 0.893832 0.891892 0.893832 0.891963 0.893832 0.892318 0.8938 0.89274 0.893151 0.892028 0.89176 0.890759 0.890116 0.889361 0.888328 0.888106 0.889851 0.889682 0.889753 0.891324 0.892302 0.891707 0.892278 0.891947 0.891451 0.891448 0.891933 0.892238 0.891686 0.892336 0.891405 0.889805 0.889647 0.889804 0.888078 0.888404 0.889465 0.890285 0.890891 0.891894 0.892113 0.893227 0.892759 0.893812 0.892335 0.893832 0.892009 0.893832 0.891937 0.893832 0.891933 0.893832 0.892361 0.893832 0.892937 0.893832 0.893559 0.893832 0.893767 0.893832 0.893751 0.893832 0.893728 0.893832 0.893751 0.893832 0.893767 0.893832 0.893559 0.893832 0.892937 0.893832 0.892361 0.893832 0.891933 0.893832 0.891937 0.893832 0.892009 0.893832 0.892335 0.893812 0.892759 0.893227 0.892113 0.891894 0.890891 0.890285 0.889465 0.888404 0.888078 0.889804 0.889647 0.889805 0.891405 0.892336 0.891686 0.892238 0.891933 0.891448 0.891447 0.891923 0.892208 0.891672 0.89236 0.891464 0.889845 0.889621 0.889768 0.888059 0.888464 0.889544 0.890409 0.890987 0.891991 0.892174 0.893282 0.892772 0.893819 0.892348 0.893832 0.892043 0.893832 0.891971 0.893832 0.891999 0.893832 0.89244 0.893832 0.893022 0.893832 0.893606 0.893832 0.893781 0.893832 0.893764 0.893832 0.893742 0.893832 0.893764 0.893832 0.893781 0.893832 0.893606 0.893832 0.893022 0.893832 0.89244 0.893832 0.891999 0.893832 0.891971 0.893832 0.892043 0.893832 0.892348 0.893819 0.892772 0.893282 0.892174 0.891991 0.890987 0.890409 0.889544 0.888464 0.888059 0.889768 0.889621 0.889845 0.891464 0.89236 0.891672 0.892208 0.891923 0.891447 0.891447 0.891916 0.892188 0.891663 0.892376 0.891503 0.889871 0.889605 0.889743 0.888048 0.888505 0.889597 0.890491 0.89105 0.892055 0.892214 0.893318 0.892779 0.893823 0.892357 0.893832 0.892066 0.893832 0.891994 0.893832 0.892043 0.893832 0.892492 0.893832 0.893078 0.893832 0.893636 0.893832 0.893789 0.893832 0.893772 0.893832 0.89375 0.893832 0.893772 0.893832 0.893789 0.893832 0.893636 0.893832 0.893078 0.893832 0.892492 0.893832 0.892043 0.893832 0.891994 0.893832 0.892066 0.893832 0.892357 0.893823 0.892779 0.893318 0.892214 0.892055 0.89105 0.890491 0.889597 0.888505 0.888048 0.889743 0.889605 0.889871 0.891503 0.892376 0.891663 0.892188 0.891916 0.891447 0.891447 0.891913 0.892178 0.891658 0.892384 0.891522 0.889884 0.889596 0.889731 0.888042 0.888526 0.889624 0.890532 0.891081 0.892087 0.892234 0.893335 0.892783 0.893825 0.892362 0.893832 0.892077 0.893832 0.892005 0.893832 0.892065 0.893832 0.892519 0.893832 0.893106 0.893832 0.893651 0.893832 0.893793 0.893832 0.893776 0.893832 0.893755 0.893832 0.893776 0.893832 0.893793 0.893832 0.893651 0.893832 0.893106 0.893832 0.892519 0.893832 0.892065 0.893832 0.892005 0.893832 0.892077 0.893832 0.892362 0.893825 0.892783 0.893335 0.892234 0.892087 0.891081 0.890532 0.889624 0.888526 0.888042 0.889731 0.889596 0.889884 0.891522 0.892384 0.891658 0.892178 0.891913 0.891447 
SCALARS Axial_Stress float 1
LOOKUP_TABLE default
-642293000000.0 -378831000000.0 -378831000000.0 -642293000000.0 -1.35431e+12 -1.12908e+12 -1.84192e+12 -397241000000.0 -158184000000.0 -233253000000.0 -211189000000.0 -128498000000.0 -109507000000.0 -109507000000.0 -128498000000.0 -211189000000.0 -233253000000.0 -158184000000.0 -397241000000.0 -1.84192e+12 -1.12908e+12 -1.35431e+12 -1.51633e+12 -2.45375e+12 -883956000000.0 -440967000000.0 -210758000000.0 -305802000000.0 -227908000000.0 -208369000000.0 -160468000000.0 -175171000000.0 -160468000000.0 -208369000000.0 -227908000000.0 -305802000000.0 -210758000000.0 -440967000000.0 -883956000000.0 -2.45375e+12 -1.51633e+12 -1.66034e+12 -2.65296e+12 -2.19089e+12 -1.23082e+12 -1.12276e+12 -822564000000.0 -304466000000.0 -219940000000.0 -516728000000.0 -477763000000.0 -448392000000.0 -44696600000.0 -101118000000.0 -34690300000.0 -79899800000.0 -34690300000.0 -101118000000.0 -44696600000.0 -448392000000.0 -477763000000.0 -516728000000.0 -219940000000.0 -304466000000.0 -822564000000.0 -1.12276e+12 -1.23082e+12 -2.19089e+12 -2.65296e+12 -1.66034e+12 -1.79288e+12 -3.00978e+12 -2.83508e+12 -2.58203e+12 -2.41242e+12 -2.15789e+12 -1.66767e+12 -817717000000.0 -650425000000.0 -693229000000.0 -671897000000.0 -67086300000.0 -67086300000.0 -671897000000.0 -693229000000.0 -650425000000.0 -817717000000.0 -1.66767e+12 -2.15789e+12 -2.41242e+12 -2.58203e+12 -2.83508e+12 -3.00978e+12 -1.79288e+12 -2.02454e+12 -1.91448e+12 -3.17632e+12 -2.75815e+12 -2.321e+12 -1.50872e+12 -1.80193e+12 -926094000000.0 -798316000000.0 -113463000000.0 -199335000000.0 -68155200000.0 -47936000000.0 -66773700000.0 -26452000000.0 -46059200000.0 -26452000000.0 -66773600000.0 -47935900000.0 -68155100000.0 -199335000000.0 -113463000000.0 -798316000000.0 -926094000000.0 -1.80193e+12 -1.50872e+12 -2.321e+12 -2.75815e+12 -3.17632e+12 -1.91448e+12 -2.02454e+12 -2.12107e+12 -3.33645e+12 -2.92632e+12 -2.50696e+12 -2.01445e+12 -1.77638e+12 -1.74261e+12 -1.78533e+12 -913185000000.0 -47166900000.0 -245388000000.0 -64051800000.0 -58839800000.0 -58839800000.0 -64051800000.0 -245388000000.0 -47166900000.0 -913185000000.0 -1.78533e+12 -1.74261e+12 -1.77638e+12 -2.01445e+12 -2.50696e+12 -2.92632e+12 -3.33645e+12 -2.12107e+12 -2.20033e+12 -3.49233e+12 -3.24591e+12 -3.0877e+12 -2.83726e+12 -2.6776e+12 -2.43546e+12 -2.2548e+12 -2.05904e+12 -1.66049e+12 -1.63888e+12 -1.43158e+12 -1.60091e+12 -130516000000.0 -224486000000.0 -60040100000.0 -36425000000.0 -31094900000.0 -36425000000.0 -60040100000.0 -224486000000.0 -130516000000.0 -1.60091e+12 -1.43158e+12 -1.63888e+12 -1.66049e+12 -2.05904e+12 -2.2548e+12 -2.43546e+12 -2.6776e+12 -2.83726e+12 -3.0877e+12 -3.24591e+12 -3.49233e+12 -2.20033e+12 -2.25841e+12 -3.77968e+12 -3.6426e+12 -3.4034e+12 -2.99301e+12 -2.59148e+12 -2.22564e+12 -1.92463e+12 -1.07867e+12 -1.2133e+12 -856277000000.0 -246930000000.0 -214500000000.0 -214265000000.0 -54058200000.0 -96633000000.0 -24300700000.0 -94240400000.0 -15965300000.0 -94240400000.0 -24300700000.0 -96632900000.0 -54058200000.0 -214265000000.0 -214500000000.0 -246930000000.0 -856277000000.0 -1.2133e+12 -1.07867e+12 -1.92463e+12 -2.22564e+12 -2.59148e+12 -2.99301e+12 -3.4034e+12 -3.6426e+12 -3.77968e+12 -2.25841e+12 -2.3285e+12 -2.29411e+12 -3.88394e+12 -3.55888e+12 -3.15077e+12 -2.73921e+12 -2.36435e+12 -2.06138e+12 -1.95971e+12 -1.88601e+12 -2.35646e+12 -1.17596e+12 -993205000000.0 -672676000000.0 -196850000000.0 -144147000000.0 -149088000000.0 -149088000000.0 -144147000000.0 -196850000000.0 -672676000000.0 -993205000000.0 -1.17596e+12 -2.35646e+12 -1.88601e+12 -1.95971e+12 -2.06138e+12 -2.36435e+12 -2.73921e+12 -3.15077e+12 -3.55888e+12 -3.88394e+12 -2.29411e+12 -2.3285e+12 -2.39238e+12 -3.92951e+12 -3.8204e+12 -3.70525e+12 -3.48993e+12 -3.31512e+12 -3.04733e+12 -2.88859e+12 -2.62669e+12 -2.4948e+12 -2.2709e+12 -2.16972e+12 -2.01873e+12 -2.08182e+12 -1.70667e+12 -1.47771e+12 -770450000000.0 -515499000000.0 -81467400000.0 -41828100000.0 -33296700000.0 -41828100000.0 -81467400000.0 -515499000000.0 -770450000000.0 -1.47771e+12 -1.70667e+12 -2.08182e+12 -2.01873e+12 -2.16972e+12 -2.2709e+12 -2.4948e+12 -2.62669e+12 -2.88859e+12 -3.04733e+12 -3.31512e+12 -3.48993e+12 -3.70525e+12 -3.8204e+12 -3.92951e+12 -2.39238e+12 -2.44478e+12 -3.8734e+12 -3.9081e+12 -3.86253e+12 -3.67285e+12 -3.22559e+12 -2.7678e+12 -2.37674e+12 -2.08234e+12 -1.97234e+12 -2.01932e+12 -1.43165e+12 -1.15815e+12 -564283000000.0 -370844000000.0 -198289000000.0 -191628000000.0 -204075000000.0 -73593800000.0 -191868000000.0 -48940100000.0 -191868000000.0 -73593700000.0 -204075000000.0 -191628000000.0 -198289000000.0 -370844000000.0 -564283000000.0 -1.15815e+12 -1.43165e+12 -2.01932e+12 -1.97234e+12 -2.08234e+12 -2.37674e+12 -2.7678e+12 -3.22559e+12 -3.67285e+12 -3.86253e+12 -3.9081e+12 -3.8734e+12 -2.44478e+12 -2.36458e+12 -2.43483e+12 -3.77538e+12 -3.75861e+12 -3.84401e+12 -3.4398e+12 -3.11687e+12 -2.9259e+12 -2.62388e+12 -2.49207e+12 -2.14771e+12 -1.94091e+12 -1.84637e+12 -1.92879e+12 -1.80281e+12 -1.26755e+12 -951620000000.0 -280708000000.0 -176708000000.0 -201768000000.0 -201768000000.0 -176708000000.0 -280708000000.0 -951620000000.0 -1.26755e+12 -1.80281e+12 -1.92879e+12 -1.84637e+12 -1.94091e+12 -2.14771e+12 -2.49207e+12 -2.62388e+12 -2.9259e+12 -3.11687e+12 -3.4398e+12 -3.84401e+12 -3.75861e+12 -3.77538e+12 -2.43483e+12 -2.36458e+12 -2.2648e+12 -3.63336e+12 -3.63949e+12 -3.54329e+12 -3.91182e+12 -4.05357e+12 -3.71283e+12 -3.37714e+12 -2.77334e+12 -2.33143e+12 -2.23077e+12 -1.98456e+12 -1.96214e+12 -1.78025e+12 -1.74657e+12 -1.21137e+12 -1.04174e+12 -850450000000.0 -721634000000.0 -598511000000.0 -197567000000.0 -65286700000.0 -28051200000.0 -65286700000.0 -197567000000.0 -598511000000.0 -721634000000.0 -850450000000.0 -1.04174e+12 -1.21137e+12 -1.74657e+12 -1.78025e+12 -1.96214e+12 -1.98456e+12 -2.23077e+12 -2.33143e+12 -2.77334e+12 -3.37714e+12 -3.71283e+12 -4.05357e+12 -3.91182e+12 -3.54329e+12 -3.63949e+12 -3.63336e+12 -2.2648e+12 -1.95336e+12 -2.09959e+12 -3.59723e+12 -3.61281e+12 -3.40034e+12 -4.22277e+12 -3.7605e+12 -2.9563e+12 -2.45668e+12 -2.05125e+12 -1.79604e+12 -1.68084e+12 -1.65644e+12 -1.0181e+12 -1.09365e+12 -918979000000.0 -687750000000.0 -556506000000.0 -136328000000.0 -62277600000.0 -235804000000.0 -39599300000.0 -235804000000.0 -62277600000.0 -136328000000.0 -556506000000.0 -687750000000.0 -918979000000.0 -1.09365e+12 -1.0181e+12 -1.65644e+12 -1.68084e+12 -1.79604e+12 -2.05125e+12 -2.45668e+12 -2.9563e+12 -3.7605e+12 -4.22277e+12 -3.40034e+12 -3.61281e+12 -3.59723e+12 -2.09959e+12 -1.95336e+12 -1.78821e+12 -3.42584e+12 -3.42213e+12 -3.3878e+12 -3.14349e+12 -3.00288e+12 -2.09395e+12 -4.20453e+12 -3.60042e+12 -3.23073e+12 -2.70801e+12 -2.58064e+12 -2.2726e+12 -2.14436e+12 -1.83692e+12 -1.75943e+12 -1.53724e+12 -1.50108e+12 -1.53546e+12 -1.56565e+12 -956626000000.0 -776597000000.0 -581271000000.0 -441077000000.0 -443626000000.0 -186622000000.0 -276168000000.0 -276168000000.0 -186622000000.0 -443626000000.0 -441077000000.0 -581271000000.0 -776597000000.0 -956626000000.0 -1.56565e+12 -1.53546e+12 -1.50108e+12 -1.53724e+12 -1.75943e+12 -1.83692e+12 -2.14436e+12 -2.2726e+12 -2.58064e+12 -2.70801e+12 -3.23073e+12 -3.60042e+12 -4.20453e+12 -2.09395e+12 -3.00288e+12 -3.14349e+12 -3.3878e+12 -3.42213e+12 -3.42584e+12 -1.78821e+12 -1.62763e+12 -3.27543e+12 -3.47663e+12 -3.14721e+12 -2.67519e+12 -1.83947e+12 -2.90019e+12 -2.33562e+12 -1.9393e+12 -1.43177e+12 -1.60322e+12 -1.11995e+12 -1.22574e+12 -818570000000.0 -838863000000.0 -728112000000.0 -628529000000.0 -553109000000.0 -399107000000.0 -108661000000.0 -65384700000.0 -108661000000.0 -399107000000.0 -553109000000.0 -628529000000.0 -728112000000.0 -838863000000.0 -818570000000.0 -1.22574e+12 -1.11995e+12 -1.60322e+12 -1.43177e+12 -1.9393e+12 -2.33562e+12 -2.90019e+12 -1.83947e+12 -2.67519e+12 -3.14721e+12 -3.47663e+12 -3.27543e+12 -1.62763e+12 -1.38002e+12 -2.4623e+12 -2.95864e+12 -3.11957e+12 -3.20585e+12 -3.48162e+12 -3.283e+12 -2.91994e+12 -3.01416e+12 -2.55418e+12 -1.94996e+12 -2.03488e+12 -1.7774e+12 -1.82645e+12 -2.31658e+12 -2.10337e+12 -2.08296e+12 -1.63757e+12 -1.7582e+12 -1.60364e+12 -1.54908e+12 -723269000000.0 -913892000000.0 -795366000000.0 -576382000000.0 -417735000000.0 -206473000000.0 -119988000000.0 -270027000000.0 -57627800000.0 -270027000000.0 -119988000000.0 -206473000000.0 -417735000000.0 -576382000000.0 -795366000000.0 -913892000000.0 -723269000000.0 -1.54908e+12 -1.60364e+12 -1.7582e+12 -1.63757e+12 -2.08296e+12 -2.10337e+12 -2.31658e+12 -1.82645e+12 -1.7774e+12 -2.03488e+12 -1.94996e+12 -2.55418e+12 -3.01416e+12 -2.91994e+12 -3.283e+12 -3.48162e+12 -3.20585e+12 -3.11957e+12 -2.95864e+12 -2.4623e+12 -1.38002e+12 -2.32981e+12 -3.13396e+12 -2.74989e+12 -2.80301e+12 -4.35859e+12 -3.33266e+12 -3.02023e+12 -2.24502e+12 -1.86882e+12 -1.91147e+12 -1.95956e+12 -1.63819e+12 -1.44866e+12 -1.10899e+12 -1.80325e+12 -648882000000.0 -1.19761e+12 -1.00577e+12 -701710000000.0 -550231000000.0 -412880000000.0 -249560000000.0 -249560000000.0 -412880000000.0 -550231000000.0 -701710000000.0 -1.00577e+12 -1.19761e+12 -648882000000.0 -1.80325e+12 -1.10899e+12 -1.44866e+12 -1.63819e+12 -1.95956e+12 -1.91147e+12 -1.86882e+12 -2.24502e+12 -3.02023e+12 -3.33266e+12 -4.35859e+12 -2.80301e+12 -2.74989e+12 -3.13396e+12 -2.32981e+12 -1.98838e+12 -2.16749e+12 -3.68827e+12 -3.44172e+12 -3.45458e+12 -3.53347e+12 -3.69964e+12 -3.40316e+12 -2.01033e+12 -3.99867e+12 -2.76618e+12 -2.05381e+12 -1.66328e+12 -2.17125e+12 -925999000000.0 -1.2344e+12 -2.18936e+12 -1.28338e+12 -1.05583e+12 -756622000000.0 -691979000000.0 -771229000000.0 -537811000000.0 -573657000000.0 -425420000000.0 -431399000000.0 -181993000000.0 -288744000000.0 -101325000000.0 -288744000000.0 -181992000000.0 -431399000000.0 -425420000000.0 -573657000000.0 -537811000000.0 -771229000000.0 -691979000000.0 -756622000000.0 -1.05583e+12 -1.28338e+12 -2.18936e+12 -1.2344e+12 -925999000000.0 -2.17125e+12 -1.66328e+12 -2.05381e+12 -2.76618e+12 -3.99867e+12 -2.01033e+12 -3.40316e+12 -3.69964e+12 -3.53347e+12 -3.45458e+12 -3.44172e+12 -3.68827e+12 -2.16749e+12 -1.98838e+12 -1.8128e+12 -3.40157e+12 -3.14491e+12 -2.88773e+12 -2.79356e+12 -3.36932e+12 -5.05943e+12 -2.22759e+12 -3.78448e+12 -2.15034e+12 -2.04137e+12 -1.99136e+12 -1.79806e+12 -1.14391e+12 -2.51211e+12 -1.51991e+12 -1.39215e+12 -2.1192e+12 -1.97148e+12 -1.45648e+12 -1.06709e+12 -462311000000.0 -435560000000.0 -283638000000.0 -285050000000.0 -166550000000.0 -285050000000.0 -283638000000.0 -435560000000.0 -462312000000.0 -1.06709e+12 -1.45648e+12 -1.97148e+12 -2.1192e+12 -1.39215e+12 -1.51991e+12 -2.51211e+12 -1.14391e+12 -1.79806e+12 -1.99136e+12 -2.04137e+12 -2.15034e+12 -3.78448e+12 -2.22759e+12 -5.05943e+12 -3.36932e+12 -2.79356e+12 -2.88773e+12 -3.14491e+12 -3.40157e+12 -1.8128e+12 -1.63986e+12 -3.12368e+12 -2.95324e+12 -2.89984e+12 -2.49202e+12 -3.66495e+12 -4.01868e+12 -3.61499e+12 -1.10026e+12 -2.00873e+12 -1.59136e+12 -1.00171e+12 -600119000000.0 -2.35295e+12 -1.61522e+12 -1.54152e+12 -1.25455e+12 -1.77396e+12 -1.16099e+12 -1.49703e+12 -962149000000.0 -1.08128e+12 -739087000000.0 -826538000000.0 -563735000000.0 -496852000000.0 -302566000000.0 -277096000000.0 -277096000000.0 -302566000000.0 -496852000000.0 -563735000000.0 -826538000000.0 -739087000000.0 -1.08128e+12 -962149000000.0 -1.49703e+12 -1.16099e+12 -1.77396e+12 -1.25455e+12 -1.54152e+12 -1.61522e+12 -2.35295e+12 -600119000000.0 -1.00171e+12 -1.59136e+12 -2.00873e+12 -1.10026e+12 -3.61499e+12 -4.01868e+12 -3.66495e+12 -2.49202e+12 -2.89984e+12 -2.95324e+12 -3.12368e+12 -1.63986e+12 -1.47554e+12 -2.59809e+12 -2.8579e+12 -2.7357e+12 -2.76939e+12 -2.59539e+12 -3.0698e+12 -3.31321e+12 -1.65479e+12 -2.94779e+12 -3.10366e+12 -2.84239e+12 -2.87035e+12 -2.20326e+12 -2.96328e+12 -1.51832e+12 -409306000000.0 -506722000000.0 -1.75805e+12 -1.02801e+12 -1.08171e+12 -1.00793e+12 -812619000000.0 -720150000000.0 -674459000000.0 -676849000000.0 -352269000000.0 -471805000000.0 -421795000000.0 -270177000000.0 -277334000000.0 -270177000000.0 -421795000000.0 -471805000000.0 -352269000000.0 -676849000000.0 -674459000000.0 -720150000000.0 -812619000000.0 -1.00793e+12 -1.08171e+12 -1.02801e+12 -1.75805e+12 -506722000000.0 -409306000000.0 -1.51832e+12 -2.96328e+12 -2.20326e+12 -2.87035e+12 -2.84239e+12 -3.10366e+12 -2.94779e+12 -1.65479e+12 -3.31321e+12 -3.0698e+12 -2.59539e+12 -2.76939e+12 -2.7357e+12 -2.8579e+12 -2.59809e+12 -1.47554e+12 -1.15884e+12 -1.32133e+12 -2.35954e+12 -2.51019e+12 -2.60305e+12 -2.45288e+12 -2.14754e+12 -4.48979e+12 -3.25305e+12 -3.07914e+12 -2.88416e+12 -2.91108e+12 -2.72049e+12 -3.19857e+12 -2.82585e+12 -1.40793e+12 -1.84979e+12 -1.45316e+12 -699429000000.0 -875598000000.0 -1.25627e+12 -1.17274e+12 -1.22019e+12 -1.19913e+12 -921681000000.0 -750999000000.0 -665436000000.0 -472085000000.0 -221847000000.0 -187210000000.0 -187210000000.0 -221847000000.0 -472085000000.0 -665436000000.0 -750999000000.0 -921681000000.0 -1.19913e+12 -1.22019e+12 -1.17274e+12 -1.25627e+12 -875598000000.0 -699429000000.0 -1.45316e+12 -1.84979e+12 -1.40793e+12 -2.82585e+12 -3.19857e+12 -2.72049e+12 -2.91108e+12 -2.88416e+12 -3.07914e+12 -3.25305e+12 -4.48979e+12 -2.14754e+12 -2.45288e+12 -2.60305e+12 -2.51019e+12 -2.35954e+12 -1.32133e+12 -1.15884e+12 -1.00757e+12 -2.12239e+12 -2.27186e+12 -2.40186e+12 -2.24685e+12 -3.31256e+12 -2.72731e+12 -2.77145e+12 -2.64036e+12 -2.61965e+12 -2.51777e+12 -2.52101e+12 -2.40195e+12 -1.05947e+12 -2.23436e+12 -1.30698e+12 -1.07861e+12 -525590000000.0 -772214000000.0 -702938000000.0 -894635000000.0 -708960000000.0 -908458000000.0 -573020000000.0 -508054000000.0 -457235000000.0 -467893000000.0 -474966000000.0 -334842000000.0 -474966000000.0 -467893000000.0 -457235000000.0 -508054000000.0 -573020000000.0 -908458000000.0 -708960000000.0 -894635000000.0 -702938000000.0 -772214000000.0 -525590000000.0 -1.07861e+12 -1.30698e+12 -2.23436e+12 -1.05947e+12 -2.40195e+12 -2.52101e+12 -2.51777e+12 -2.61965e+12 -2.64036e+12 -2.77145e+12 -2.72731e+12 -3.31256e+12 -2.24685e+12 -2.40186e+12 -2.27186e+12 -2.12239e+12 -1.00757e+12 -833312000000.0 -1.88438e+12 -1.8236e+12 -2.04674e+12 -1.95468e+12 -2.17901e+12 -2.10622e+12 -2.28985e+12 -2.09696e+12 -2.46703e+12 -1.50906e+12 -2.34383e+12 -2.27208e+12 -2.20504e+12 -2.038e+12 -1.55166e+12 -910982000000.0 -1.26587e+12 -1.07371e+12 -931999000000.0 -453389000000.0 -702226000000.0 -690186000000.0 -570763000000.0 -577961000000.0 -215445000000.0 -546281000000.0 -372991000000.0 -299096000000.0 -483178000000.0 -55797000000.0 -224285000000.0 -55797000000.0 -483178000000.0 -299096000000.0 -372991000000.0 -546282000000.0 -215445000000.0 -577961000000.0 -570763000000.0 -690186000000.0 -702226000000.0 -453389000000.0 -931999000000.0 -1.07371e+12 -1.26587e+12 -910982000000.0 -1.55166e+12 -2.038e+12 -2.20504e+12 -2.27208e+12 -2.34383e+12 -1.50906e+12 -2.46703e+12 -2.09696e+12 -2.28985e+12 -2.10622e+12 -2.17901e+12 -1.95468e+12 -2.04674e+12 -1.8236e+12 -1.88438e+12 -833312000000.0 -840592000000.0 -1.11556e+12 -1.61351e+12 -1.60884e+12 -1.74698e+12 -1.86802e+12 -2.02119e+12 -2.04921e+12 -1.08229e+12 -2.64155e+12 -2.4119e+12 -1.90523e+12 -1.91231e+12 -2.30698e+12 -1.49854e+12 -1.35321e+12 -759688000000.0 -834303000000.0 -790104000000.0 -112050000000.0 -278660000000.0 -198948000000.0 -81787500000.0 -591328000000.0 -157835000000.0 -437430000000.0 -334065000000.0 -132165000000.0 -105707000000.0 -105707000000.0 -132165000000.0 -334065000000.0 -437430000000.0 -157835000000.0 -591328000000.0 -81787500000.0 -198948000000.0 -278660000000.0 -112050000000.0 -790104000000.0 -834303000000.0 -759688000000.0 -1.35321e+12 -1.49854e+12 -2.30698e+12 -1.91231e+12 -1.90523e+12 -2.4119e+12 -2.64155e+12 -1.08229e+12 -2.04921e+12 -2.02119e+12 -1.86802e+12 -1.74698e+12 -1.60884e+12 -1.61351e+12 -1.11556e+12 -840592000000.0 -38331600000.0 -172368000000.0 -1.01966e+12 -1.46651e+12 -1.50845e+12 -1.63948e+12 -1.83315e+12 -1.75122e+12 -1.8394e+12 -1.88614e+12 -2.60134e+12 -1.7046e+12 -2.10824e+12 -2.05501e+12 -2.01325e+12 -1.95952e+12 -1.75555e+12 -1.46171e+12 -1.11956e+12 -868681000000.0 -981080000000.0 -1.03911e+12 -984311000000.0 -1.05964e+12 -873516000000.0 -882330000000.0 -872151000000.0 -837494000000.0 -644805000000.0 -468632000000.0 -307844000000.0 -351626000000.0 -433896000000.0 -299819000000.0 -433896000000.0 -351626000000.0 -307844000000.0 -468632000000.0 -644805000000.0 -837494000000.0 -872151000000.0 -882330000000.0 -873516000000.0 -1.05964e+12 -984311000000.0 -1.03911e+12 -981080000000.0 -868681000000.0 -1.11956e+12 -1.46171e+12 -1.75555e+12 -1.95952e+12 -2.01325e+12 -2.05501e+12 -2.10824e+12 -1.7046e+12 -2.60134e+12 -1.88614e+12 -1.8394e+12 -1.75122e+12 -1.83315e+12 -1.63948e+12 -1.50845e+12 -1.46651e+12 -1.01966e+12 -172368000000.0 -38331600000.0 -609484000000.0 -1.30068e+12 -1.1757e+12 -1.46188e+12 -1.28816e+12 -1.56283e+12 -1.67328e+12 -1.04304e+12 -1.85041e+12 -1.80831e+12 -1.81127e+12 -1.75285e+12 -1.6774e+12 -1.55619e+12 -1.71289e+12 -1.39326e+12 -1.28555e+12 -1.17747e+12 -545619000000.0 -459428000000.0 -493836000000.0 -484376000000.0 -386882000000.0 -316260000000.0 -417641000000.0 -230397000000.0 -321557000000.0 -53582200000.0 -332912000000.0 -18593600000.0 -207257000000.0 -18593600000.0 -332912000000.0 -53582200000.0 -321557000000.0 -230397000000.0 -417641000000.0 -316260000000.0 -386882000000.0 -484376000000.0 -493836000000.0 -459428000000.0 -545619000000.0 -1.17747e+12 -1.28555e+12 -1.39326e+12 -1.71289e+12 -1.55619e+12 -1.6774e+12 -1.75285e+12 -1.81127e+12 -1.80831e+12 -1.85041e+12 -1.04304e+12 -1.67328e+12 -1.56283e+12 -1.28816e+12 -1.46188e+12 -1.1757e+12 -1.30068e+12 -609484000000.0 -470323000000.0 -92355600000.0 -1.02116e+12 -977685000000.0 -1.2329e+12 -1.1838e+12 -1.85891e+12 -1.49767e+12 -912150000000.0 -1.51403e+12 -1.43001e+12 -1.48914e+12 -1.43587e+12 -1.26879e+12 -1.65812e+12 -1.59228e+12 -1.47971e+12 -1.51345e+12 -897572000000.0 -664833000000.0 -564875000000.0 -650729000000.0 -819015000000.0 -594632000000.0 -564179000000.0 -146294000000.0 -26381800000.0 -21945900000.0 -36529400000.0 -36529400000.0 -21945900000.0 -26381900000.0 -146294000000.0 -564179000000.0 -594632000000.0 -819015000000.0 -650729000000.0 -564875000000.0 -664833000000.0 -897572000000.0 -1.51345e+12 -1.47971e+12 -1.59228e+12 -1.65812e+12 -1.26879e+12 -1.43587e+12 -1.48914e+12 -1.43001e+12 -1.51403e+12 -912150000000.0 -1.49767e+12 -1.85891e+12 -1.1838e+12 -1.2329e+12 -977685000000.0 -1.02116e+12 -92355600000.0 -470323000000.0 -337959000000.0 -556444000000.0 -888374000000.0 -770006000000.0 -1.70351e+12 -1.92781e+12 -432029000000.0 -1.00945e+12 -1.41168e+12 -1.25841e+12 -1.09656e+12 -1.61104e+12 -1.47233e+12 -1.3315e+12 -1.21299e+12 -1.11432e+12 -1.04767e+12 -705518000000.0 -596907000000.0 -390741000000.0 -451127000000.0 -597041000000.0 -446167000000.0 -758167000000.0 -308221000000.0 -467657000000.0 -235842000000.0 -459511000000.0 -363557000000.0 -209347000000.0 -266266000000.0 -185738000000.0 -266266000000.0 -209347000000.0 -363557000000.0 -459511000000.0 -235842000000.0 -467657000000.0 -308221000000.0 -758167000000.0 -446167000000.0 -597041000000.0 -451127000000.0 -390741000000.0 -596907000000.0 -705518000000.0 -1.04767e+12 -1.11432e+12 -1.21299e+12 -1.3315e+12 -1.47233e+12 -1.61104e+12 -1.09656e+12 -1.25841e+12 -1.41168e+12 -1.00945e+12 -432029000000.0 -1.92781e+12 -1.70351e+12 -770006000000.0 -888374000000.0 -556444000000.0 -337959000000.0 -527349000000.0 -821185000000.0 -1.48664e+12 -613871000000.0 -1.88081e+12 -1.16049e+12 -1.28911e+12 -1.34842e+12 -1.20065e+12 -1.0294e+12 -728366000000.0 -786269000000.0 -771643000000.0 -313245000000.0 -289588000000.0 -311363000000.0 -244921000000.0 -238181000000.0 -309527000000.0 -124254000000.0 -193130000000.0 -37043200000.0 -219461000000.0 -44108000000.0 -155392000000.0 -44108000000.0 -219461000000.0 -37043200000.0 -193130000000.0 -124254000000.0 -309527000000.0 -238181000000.0 -244921000000.0 -311363000000.0 -289588000000.0 -313245000000.0 -771643000000.0 -786269000000.0 -728366000000.0 -1.0294e+12 -1.20065e+12 -1.34842e+12 -1.28911e+12 -1.16049e+12 -1.88081e+12 -613872000000.0 -1.48664e+12 -821185000000.0 -527349000000.0 -317888000000.0 -706420000000.0 -350225000000.0 -1.447e+12 -190050000000.0 -565833000000.0 -1.49112e+12 -1.57016e+12 -837525000000.0 -778897000000.0 -1.10558e+12 -1.26196e+12 -1.14826e+12 -940430000000.0 -1.4591e+12 -731532000000.0 -699986000000.0 -590646000000.0 -525058000000.0 -421492000000.0 -357273000000.0 -345008000000.0 -391893000000.0 -232144000000.0 -283479000000.0 -175287000000.0 -62993000000.0 -62993000000.0 -175287000000.0 -283480000000.0 -232144000000.0 -391893000000.0 -345008000000.0 -357273000000.0 -421492000000.0 -525058000000.0 -590646000000.0 -699986000000.0 -731532000000.0 -1.4591e+12 -940430000000.0 -1.14826e+12 -1.26196e+12 -1.10558e+12 -778897000000.0 -837525000000.0 -1.57016e+12 -1.49112e+12 -565833000000.0 -190050000000.0 -1.447e+12 -350225000000.0 -706420000000.0 -317888000000.0 -149514000000.0 -309665000000.0 -544755000000.0 -923934000000.0 -1.13944e+12 -817734000000.0 -768336000000.0 -945098000000.0 -1.14554e+12 -736486000000.0 -1.23989e+12 -1.19095e+12 -1.09265e+12 -944004000000.0 -892572000000.0 -733170000000.0 -575856000000.0 -490765000000.0 -427805000000.0 -507721000000.0 -504009000000.0 -511288000000.0 -363695000000.0 -459153000000.0 -276684000000.0 -427584000000.0 -376948000000.0 -192057000000.0 -113364000000.0 -277363000000.0 -154048000000.0 -252833000000.0 -154048000000.0 -277363000000.0 -113364000000.0 -192057000000.0 -376948000000.0 -427584000000.0 -276684000000.0 -459153000000.0 -363695000000.0 -511288000000.0 -504009000000.0 -507721000000.0 -427805000000.0 -490765000000.0 -575856000000.0 -733170000000.0 -892572000000.0 -944004000000.0 -1.09265e+12 -1.19095e+12 -1.23989e+12 -736486000000.0 -1.14554e+12 -945098000000.0 -768336000000.0 -817734000000.0 -1.13944e+12 -923934000000.0 -544755000000.0 -309665000000.0 -149514000000.0 -277259000000.0 -706823000000.0 -692576000000.0 -987250000000.0 -790197000000.0 -709321000000.0 -644178000000.0 -761487000000.0 -945185000000.0 -912982000000.0 -984563000000.0 -981315000000.0 -942952000000.0 -914240000000.0 -982596000000.0 -1.0271e+12 -473418000000.0 -161944000000.0 -234145000000.0 -347643000000.0 -336070000000.0 -253283000000.0 -310658000000.0 -192397000000.0 -185056000000.0 -159743000000.0 -206752000000.0 -188006000000.0 -202866000000.0 -158114000000.0 -47530800000.0 -163052000000.0 -46075600000.0 -131813000000.0 -46075600000.0 -163052000000.0 -47530800000.0 -158114000000.0 -202866000000.0 -188006000000.0 -206752000000.0 -159743000000.0 -185056000000.0 -192397000000.0 -310658000000.0 -253283000000.0 -336070000000.0 -347643000000.0 -234145000000.0 -161944000000.0 -473418000000.0 -1.0271e+12 -982596000000.0 -914240000000.0 -942952000000.0 -981315000000.0 -984563000000.0 -912982000000.0 -945185000000.0 -761487000000.0 -644178000000.0 -709321000000.0 -790197000000.0 -987250000000.0 -692576000000.0 -706823000000.0 -277259000000.0 -105748000000.0 -342278000000.0 -383605000000.0 -624371000000.0 -495775000000.0 -383193000000.0 -703384000000.0 -625652000000.0 -579244000000.0 -462933000000.0 -838006000000.0 -793629000000.0 -842760000000.0 -849333000000.0 -813257000000.0 -790588000000.0 -666765000000.0 -561064000000.0 -520451000000.0 -520451000000.0 -561064000000.0 -666765000000.0 -790588000000.0 -813257000000.0 -849333000000.0 -842760000000.0 -793629000000.0 -838006000000.0 -462933000000.0 -579244000000.0 -625652000000.0 -703384000000.0 -383193000000.0 -495775000000.0 -624371000000.0 -383605000000.0 -342278000000.0 -105748000000.0 -131826000000.0 -299893000000.0 -389367000000.0 -506680000000.0 -321375000000.0 -282170000000.0 -479905000000.0 -775733000000.0 -720709000000.0 -714287000000.0 -721815000000.0 -825514000000.0 -911746000000.0 -897616000000.0 -867235000000.0 -743760000000.0 -673928000000.0 -444790000000.0 -469808000000.0 -337667000000.0 -314009000000.0 -350353000000.0 -195994000000.0 -290748000000.0 -195189000000.0 -350987000000.0 -284321000000.0 -365590000000.0 -276108000000.0 -404796000000.0 -287729000000.0 -392062000000.0 -287729000000.0 -404796000000.0 -276108000000.0 -365590000000.0 -284321000000.0 -350987000000.0 -195189000000.0 -290748000000.0 -195994000000.0 -350353000000.0 -314009000000.0 -337667000000.0 -469808000000.0 -444790000000.0 -673928000000.0 -743760000000.0 -867235000000.0 -897616000000.0 -911746000000.0 -825514000000.0 -721815000000.0 -714287000000.0 -720709000000.0 -775733000000.0 -479905000000.0 -282170000000.0 -321375000000.0 -506680000000.0 -389367000000.0 -299893000000.0 -131826000000.0 -276122000000.0 -513079000000.0 -504148000000.0 -519863000000.0 -563453000000.0 -789859000000.0 -713591000000.0 -775978000000.0 -563635000000.0 -571913000000.0 -317782000000.0 -391888000000.0 -327096000000.0 -421112000000.0 -308853000000.0 -350741000000.0 -276439000000.0 -292729000000.0 -294964000000.0 -191800000000.0 -265590000000.0 -27774000000.0 -157322000000.0 -21392700000.0 -164841000000.0 -16488900000.0 -143159000000.0 -16488900000.0 -164841000000.0 -21392700000.0 -157322000000.0 -27774000000.0 -265590000000.0 -191800000000.0 -294964000000.0 -292729000000.0 -276439000000.0 -350741000000.0 -308853000000.0 -421112000000.0 -327096000000.0 -391888000000.0 -317782000000.0 -571913000000.0 -563635000000.0 -775978000000.0 -713591000000.0 -789859000000.0 -563453000000.0 -519863000000.0 -504148000000.0 -513079000000.0 -276122000000.0 -44908500000.0 -128904000000.0 -339367000000.0 -336363000000.0 -227841000000.0 -190584000000.0 -285068000000.0 -434142000000.0 -463305000000.0 -151748000000.0 -649991000000.0 -610210000000.0 -698306000000.0 -560307000000.0 -547941000000.0 -573293000000.0 -604244000000.0 -513176000000.0 -513176000000.0 -604244000000.0 -573293000000.0 -547941000000.0 -560307000000.0 -698306000000.0 -610210000000.0 -649990000000.0 -151748000000.0 -463305000000.0 -434142000000.0 -285068000000.0 -190584000000.0 -227841000000.0 -336363000000.0 -339368000000.0 -128904000000.0 -44908500000.0 -53423800000.0 -148497000000.0 -192656000000.0 -186284000000.0 -199506000000.0 -120689000000.0 -103303000000.0 -135853000000.0 -397734000000.0 -225529000000.0 -161814000000.0 -799291000000.0 -761876000000.0 -840708000000.0 -584975000000.0 -402406000000.0 -314332000000.0 -274430000000.0 -182585000000.0 -211716000000.0 -157315000000.0 -68817600000.0 -53787700000.0 -92083700000.0 -68335200000.0 -131596000000.0 -87330200000.0 -166902000000.0 -104164000000.0 -238025000000.0 -133571000000.0 -323537000000.0 -170496000000.0 -302874000000.0 -190960000000.0 -327375000000.0 -201280000000.0 -319802000000.0 -201280000000.0 -327375000000.0 -190960000000.0 -302874000000.0 -170496000000.0 -323537000000.0 -133571000000.0 -238025000000.0 -104164000000.0 -166902000000.0 -87330200000.0 -131596000000.0 -68335200000.0 -92083700000.0 -53787700000.0 -68817600000.0 -157315000000.0 -211716000000.0 -182585000000.0 -274430000000.0 -314332000000.0 -402406000000.0 -584975000000.0 -840709000000.0 -761876000000.0 -799291000000.0 -161814000000.0 -225529000000.0 -397734000000.0 -135853000000.0 -103303000000.0 -120689000000.0 -199506000000.0 -186284000000.0 -192656000000.0 -148497000000.0 -53423800000.0 -39687300000.0 -118622000000.0 -139746000000.0 -113434000000.0 -105871000000.0 -50252300000.0 -44211200000.0 -61437800000.0 -193024000000.0 -171206000000.0 -88804600000.0 -157974000000.0 -15580200000.0 -21751100000.0 -28709100000.0 -23153800000.0 -70298700000.0 -21577800000.0 -96338300000.0 -23426300000.0 -149701000000.0 -22203600000.0 -188932000000.0 -16075300000.0 -142931000000.0 -12940400000.0 -140678000000.0 -10893000000.0 -128963000000.0 -10893000000.0 -140677000000.0 -12940400000.0 -142931000000.0 -16075300000.0 -188932000000.0 -22203600000.0 -149701000000.0 -23426300000.0 -96338300000.0 -21577800000.0 -70298700000.0 -23153800000.0 -28709100000.0 -21751100000.0 -15580200000.0 -157974000000.0 -88804600000.0 -171206000000.0 -193024000000.0 -61437800000.0 -44211200000.0 -50252300000.0 -105871000000.0 -113434000000.0 -139746000000.0 -118622000000.0 -39687300000.0 -77928000000.0 -287844000000.0 -200426000000.0 -314142000000.0 -589821000000.0 -568567000000.0 -438777000000.0 -297543000000.0 -194394000000.0 -194394000000.0 -297543000000.0 -438777000000.0 -568567000000.0 -589821000000.0 -314142000000.0 -200426000000.0 -287844000000.0 -77928000000.0 -9035750000.0 -44324800000.0 -58360500000.0 -47852900000.0 -62966800000.0 -41013500000.0 -26750800000.0 -16101300000.0 -88993600000.0 -183761000000.0 -260847000000.0 -265988000000.0 -365992000000.0 -371761000000.0 -403280000000.0 -401626000000.0 -346231000000.0 -395370000000.0 -430350000000.0 -390630000000.0 -400661000000.0 -357430000000.0 -308656000000.0 -280806000000.0 -231237000000.0 -254911000000.0 -179179000000.0 -237071000000.0 -143406000000.0 -254188000000.0 -125994000000.0 -268439000000.0 -115377000000.0 -225283000000.0 -102188000000.0 -208338000000.0 -94995700000.0 -197288000000.0 -94995700000.0 -208338000000.0 -102188000000.0 -225283000000.0 -115377000000.0 -268439000000.0 -125994000000.0 -254188000000.0 -143406000000.0 -237071000000.0 -179179000000.0 -254911000000.0 -231237000000.0 -280806000000.0 -308656000000.0 -357430000000.0 -400661000000.0 -390630000000.0 -430350000000.0 -395370000000.0 -346231000000.0 -401626000000.0 -403280000000.0 -371761000000.0 -365992000000.0 -265988000000.0 -260847000000.0 -183761000000.0 -88993600000.0 -16101300000.0 -26750800000.0 -41013500000.0 -62966800000.0 -47852900000.0 -58360500000.0 -44324800000.0 -9035750000.0 -21729100000.0 -68426100000.0 -96918600000.0 -107406000000.0 -123122000000.0 -123904000000.0 -138863000000.0 -159096000000.0 -229873000000.0 -248510000000.0 -242466000000.0 -219197000000.0 -254281000000.0 -253782000000.0 -230281000000.0 -201577000000.0 -59629100000.0 -58789800000.0 -31597700000.0 -13070400000.0 -60942000000.0 -11897300000.0 -54297100000.0 -12609500000.0 -86144800000.0 -12295700000.0 -104454000000.0 -11951700000.0 -136545000000.0 -11111700000.0 -152001000000.0 -9938260000.0 -122253000000.0 -9354820000.0 -108426000000.0 -9035750000.0 -102094000000.0 -9035750000.0 -108426000000.0 -9354820000.0 -122253000000.0 -9938260000.0 -152001000000.0 -11111700000.0 -136545000000.0 -11951700000.0 -104454000000.0 -12295700000.0 -86144800000.0 -12609500000.0 -54297100000.0 -11897300000.0 -60942000000.0 -13070400000.0 -31597700000.0 -58789800000.0 -59629100000.0 -201577000000.0 -230281000000.0 -253782000000.0 -254281000000.0 -219197000000.0 -242466000000.0 -248510000000.0 -229873000000.0 -159096000000.0 -138863000000.0 -123904000000.0 -123122000000.0 -107406000000.0 -96918600000.0 -68426100000.0 -21729100000.0 -137857000000.0 -137857000000.0 -10522900000.0 -27163900000.0 -39455900000.0 -36526600000.0 -33332600000.0 -25331100000.0 -17869000000.0 -11671100000.0 -52994800000.0 -77468900000.0 -88104100000.0 -108637000000.0 -94609400000.0 -199805000000.0 -237804000000.0 -237672000000.0 -225195000000.0 -142898000000.0 -131968000000.0 -95116100000.0 -64261400000.0 -99070200000.0 -46024700000.0 -82044600000.0 -32744800000.0 -101771000000.0 -24852000000.0 -111928000000.0 -18372500000.0 -129858000000.0 -11265600000.0 -132758000000.0 -9035750000.0 -108428000000.0 -9035750000.0 -92763200000.0 -9035750000.0 -88216200000.0 -9035750000.0 -92763200000.0 -9035750000.0 -108428000000.0 -9035750000.0 -132758000000.0 -11265600000.0 -129858000000.0 -18372500000.0 -111928000000.0 -24851900000.0 -101771000000.0 -32744800000.0 -82044600000.0 -46024700000.0 -99070200000.0 -64261400000.0 -95116100000.0 -131968000000.0 -142898000000.0 -225195000000.0 -237672000000.0 -237804000000.0 -199805000000.0 -94609400000.0 -108637000000.0 -88104100000.0 -77468900000.0 -52994800000.0 -11671100000.0 -17869000000.0 -25331100000.0 -33332600000.0 -36526600000.0 -39455900000.0 -27163900000.0 -10522900000.0 -14069900000.0 -26576600000.0 -43312000000.0 -44913700000.0 -43349300000.0 -42781300000.0 -36588900000.0 -31276100000.0 -67321300000.0 -174365000000.0 -143176000000.0 -107189000000.0 -56380100000.0 -50992200000.0 -26518600000.0 -9408490000.0 -54040800000.0 -9285110000.0 -54583700000.0 -9035750000.0 -82315100000.0 -9035750000.0 -96188800000.0 -9035750000.0 -114602000000.0 -9035750000.0 -117440000000.0 -9035750000.0 -95979000000.0 -9035750000.0 -79591000000.0 -9035750000.0 -76174000000.0 -9035750000.0 -79591000000.0 -9035750000.0 -95979000000.0 -9035750000.0 -117440000000.0 -9035750000.0 -114602000000.0 -9035750000.0 -96188800000.0 -9035750000.0 -82315100000.0 -9035750000.0 -54583700000.0 -9285110000.0 -54040800000.0 -9408490000.0 -26518600000.0 -50992200000.0 -56380100000.0 -107189000000.0 -143176000000.0 -174365000000.0 -67321300000.0 -31276100000.0 -36588900000.0 -42781300000.0 -43349300000.0 -44913700000.0 -43312000000.0 -26576600000.0 -14069900000.0 -94896200000.0 -97645400000.0 -114644000000.0 -115675000000.0 -166969000000.0 -166969000000.0 -115675000000.0 -114644000000.0 -97645400000.0 -94896200000.0 -15282500000.0 -21350100000.0 -36750900000.0 -39566000000.0 -36307100000.0 -38205400000.0 -30180700000.0 -19467800000.0 -45113700000.0 -74370900000.0 -69834800000.0 -84030400000.0 -101243000000.0 -134716000000.0 -149183000000.0 -125111000000.0 -90470200000.0 -61847700000.0 -53699000000.0 -29733600000.0 -11339300000.0 -52724200000.0 -9517620000.0 -54188000000.0 -9035760000.0 -79706200000.0 -9035750000.0 -91209100000.0 -9035750000.0 -104938000000.0 -9035750000.0 -103899000000.0 -9035760000.0 -84272900000.0 -9035750000.0 -68337100000.0 -9035750000.0 -65777100000.0 -9035750000.0 -68337100000.0 -9035750000.0 -84272900000.0 -9035760000.0 -103899000000.0 -9035750000.0 -104938000000.0 -9035750000.0 -91209100000.0 -9035750000.0 -79706200000.0 -9035760000.0 -54188000000.0 -9517620000.0 -52724200000.0 -11339300000.0 -29733600000.0 -53699000000.0 -61847700000.0 -90470200000.0 -125111000000.0 -149183000000.0 -134716000000.0 -101243000000.0 -84030400000.0 -69834800000.0 -74370900000.0 -45113700000.0 -19467800000.0 -30180700000.0 -38205400000.0 -36307100000.0 -39566000000.0 -36750900000.0 -21350200000.0 -15282500000.0 -35047600000.0 -69123500000.0 -55349300000.0 -46868600000.0 -26414000000.0 -9035760000.0 -9035750000.0 -9035760000.0 -9035760000.0 -9035760000.0 -9035760000.0 -91992500000.0 -9035760000.0 -73493700000.0 -9035750000.0 -58753900000.0 -9035750000.0 -56839500000.0 -9035750000.0 -58753900000.0 -9035750000.0 -73493700000.0 -9035760000.0 -91992500000.0 -9035760000.0 -9035760000.0 -9035760000.0 -9035760000.0 -9035750000.0 -9035760000.0 -26414000000.0 -46868600000.0 -55349300000.0 -69123500000.0 -35047600000.0 -17446700000.0 -20646700000.0 -40629600000.0 -38343700000.0 -43297600000.0 -36572900000.0 -24497900000.0 -45079600000.0 -75439500000.0 -66626800000.0 -77131500000.0 -104473000000.0 -120140000000.0 -127091000000.0 -102171000000.0 -49500000000.0 -53456400000.0 -76414400000.0 -85644600000.0 -95767900000.0 -95767900000.0 -85644600000.0 -76414400000.0 -53456400000.0 -49500000000.0 -102171000000.0 -127091000000.0 -120140000000.0 -104473000000.0 -77131500000.0 -66626700000.0 -75439500000.0 -45079600000.0 -24497900000.0 -36572900000.0 -43297700000.0 -38343700000.0 -40629600000.0 -20646700000.0 -17446700000.0 -19239400000.0 -20108600000.0 -32090000000.0 -39597200000.0 -38550900000.0 -45321700000.0 -40195000000.0 -26735000000.0 -43319000000.0 -73696900000.0 -62768300000.0 -70319100000.0 -105174000000.0 -109989000000.0 -112020000000.0 -87490100000.0 -60958600000.0 -53508700000.0 -43900400000.0 -26468600000.0 -9035760000.0 -47788400000.0 -9035760000.0 -52206800000.0 -9035760000.0 -72647300000.0 -9035760000.0 -79797000000.0 -9035760000.0 -87222400000.0 -9035760000.0 -81541300000.0 -9035760000.0 -63747300000.0 -9035750000.0 -50613500000.0 -9035750000.0 -49186200000.0 -9035750000.0 -50613500000.0 -9035750000.0 -63747300000.0 -9035760000.0 -81541300000.0 -9035760000.0 -87222500000.0 -9035760000.0 -79797000000.0 -9035760000.0 -72647300000.0 -9035760000.0 -52206800000.0 -9035760000.0 -47788400000.0 -9035760000.0 -26468600000.0 -43900400000.0 -53508700000.0 -60958600000.0 -87490100000.0 -112020000000.0 -109989000000.0 -105174000000.0 -70319100000.0 -62768300000.0 -73696900000.0 -43319000000.0 -26735000000.0 -40195000000.0 -45321700000.0 -38550900000.0 -39597200000.0 -32090000000.0 -20108600000.0 -19239400000.0 -20894100000.0 -20185700000.0 -29342100000.0 -38447000000.0 -39070200000.0 -47102300000.0 -43936700000.0 -29788200000.0 -43534600000.0 -73261100000.0 -62041000000.0 -66797800000.0 -105509000000.0 -102127000000.0 -99757800000.0 -75643500000.0 -57098200000.0 -50702100000.0 -40211400000.0 -26646400000.0 -9035760000.0 -46172800000.0 -9035760000.0 -50541800000.0 -9035760000.0 -68598600000.0 -9035760000.0 -73913200000.0 -9035760000.0 -79319200000.0 -9035760000.0 -72358400000.0 -9035760000.0 -55074400000.0 -9035750000.0 -43712400000.0 -9035750000.0 -42655900000.0 -9035750000.0 -43712400000.0 -9035750000.0 -55074400000.0 -9035760000.0 -72358400000.0 -9035760000.0 -79319200000.0 -9035760000.0 -73913200000.0 -9035760000.0 -68598600000.0 -9035760000.0 -50541800000.0 -9035760000.0 -46172800000.0 -9035760000.0 -26646400000.0 -40211400000.0 -50702100000.0 -57098200000.0 -75643500000.0 -99757800000.0 -102127000000.0 -105509000000.0 -66797800000.0 -62041000000.0 -73261100000.0 -43534600000.0 -29788200000.0 -43936700000.0 -47102300000.0 -39070200000.0 -38447000000.0 -29342100000.0 -20185700000.0 -20894100000.0 -22323700000.0 -20499400000.0 -26722300000.0 -36951300000.0 -39119200000.0 -48021400000.0 -46766300000.0 -32383600000.0 -43906800000.0 -72261200000.0 -62356900000.0 -64547300000.0 -104342000000.0 -95831200000.0 -90265900000.0 -67491200000.0 -54944500000.0 -47672500000.0 -36319500000.0 -26831500000.0 -9035770000.0 -44572600000.0 -9035760000.0 -48571200000.0 -9035760000.0 -64427600000.0 -9035760000.0 -68182200000.0 -9035760000.0 -72045700000.0 -9035760000.0 -64267500000.0 -9035760000.0 -47465500000.0 -9035750000.0 -37873400000.0 -9035750000.0 -37102700000.0 -9035750000.0 -37873300000.0 -9035750000.0 -47465500000.0 -9035760000.0 -64267500000.0 -9035760000.0 -72045700000.0 -9035760000.0 -68182200000.0 -9035760000.0 -64427600000.0 -9035760000.0 -48571200000.0 -9035760000.0 -44572600000.0 -9035770000.0 -26831500000.0 -36319500000.0 -47672500000.0 -54944500000.0 -67491200000.0 -90265900000.0 -95831200000.0 -104342000000.0 -64547300000.0 -62356900000.0 -72261200000.0 -43906800000.0 -32383600000.0 -46766300000.0 -48021400000.0 -39119200000.0 -36951300000.0 -26722300000.0 -20499400000.0 -22323700000.0 -23525100000.0 -20982000000.0 -24447700000.0 -35291800000.0 -38650200000.0 -48240900000.0 -48734800000.0 -34505600000.0 -44361900000.0 -70679400000.0 -63007400000.0 -63177600000.0 -101613000000.0 -90389000000.0 -82649700000.0 -62109200000.0 -52579100000.0 -44398100000.0 -32422100000.0 -26857000000.0 -9035770000.0 -42938800000.0 -9035770000.0 -46394900000.0 -9035760000.0 -60257000000.0 -9035760000.0 -62731300000.0 -9035760000.0 -65378700000.0 -9035760000.0 -57111900000.0 -9035760000.0 -40874300000.0 -9035750000.0 -32943600000.0 -9035750000.0 -32395900000.0 -9035750000.0 -32943600000.0 -9035750000.0 -40874300000.0 -9035760000.0 -57111900000.0 -9035760000.0 -65378700000.0 -9035760000.0 -62731300000.0 -9035760000.0 -60257000000.0 -9035760000.0 -46394900000.0 -9035770000.0 -42938800000.0 -9035770000.0 -26857000000.0 -32422100000.0 -44398100000.0 -52579100000.0 -62109200000.0 -82649700000.0 -90389000000.0 -101613000000.0 -63177600000.0 -63007400000.0 -70679400000.0 -44361900000.0 -34505600000.0 -48734800000.0 -48240900000.0 -38650200000.0 -35291800000.0 -24447700000.0 -20982000000.0 -23525100000.0 -24499800000.0 -21531800000.0 -22606400000.0 -33589700000.0 -37703700000.0 -47879900000.0 -49935500000.0 -36159500000.0 -44701800000.0 -68673300000.0 -63550000000.0 -62259700000.0 -97558500000.0 -85370600000.0 -76401900000.0 -58293400000.0 -49644600000.0 -41047700000.0 -28736200000.0 -26663300000.0 -9035770000.0 -41247600000.0 -9035770000.0 -44101000000.0 -9035760000.0 -56179500000.0 -9035760000.0 -57633100000.0 -9035760000.0 -59285600000.0 -9035760000.0 -50760800000.0 -9035760000.0 -35229800000.0 -9035750000.0 -28791900000.0 -9035750000.0 -28419700000.0 -9035750000.0 -28791900000.0 -9035750000.0 -35229800000.0 -9035760000.0 -50760800000.0 -9035760000.0 -59285600000.0 -9035760000.0 -57633100000.0 -9035760000.0 -56179500000.0 -9035760000.0 -44101000000.0 -9035770000.0 -41247600000.0 -9035770000.0 -26663300000.0 -28736200000.0 -41047700000.0 -49644600000.0 -58293400000.0 -76401900000.0 -85370600000.0 -97558500000.0 -62259700000.0 -63550000000.0 -68673300000.0 -44701800000.0 -36159500000.0 -49935500000.0 -47879900000.0 -37703700000.0 -33589700000.0 -22606400000.0 -21531800000.0 -24499800000.0 -25253000000.0 -22031000000.0 -21201600000.0 -31937400000.0 -36383200000.0 -47040500000.0 -50464900000.0 -37370700000.0 -44726600000.0 -66401500000.0 -63760000000.0 -61456800000.0 -92549800000.0 -80391700000.0 -70914000000.0 -54996200000.0 -46266800000.0 -37759200000.0 -25393100000.0 -26271200000.0 -9035780000.0 -39497300000.0 -9035770000.0 -41765400000.0 -9035760000.0 -52262800000.0 -9035760000.0 -52919900000.0 -9035760000.0 -53728500000.0 -9035760000.0 -45112600000.0 -9035760000.0 -30445700000.0 -9035750000.0 -25305500000.0 -9035750000.0 -25071800000.0 -9035750000.0 -25305500000.0 -9035750000.0 -30445700000.0 -9035760000.0 -45112600000.0 -9035760000.0 -53728500000.0 -9035760000.0 -52919900000.0 -9035760000.0 -52262800000.0 -9035760000.0 -41765400000.0 -9035770000.0 -39497300000.0 -9035780000.0 -26271200000.0 -25393100000.0 -37759200000.0 -46266800000.0 -54996200000.0 -70914000000.0 -80391700000.0 -92549800000.0 -61456800000.0 -63760000000.0 -66401500000.0 -44726600000.0 -37370700000.0 -50464900000.0 -47040500000.0 -36383200000.0 -31937400000.0 -21201600000.0 -22031000000.0 -25253000000.0 -25792900000.0 -22404700000.0 -20183700000.0 -30392300000.0 -34808100000.0 -45812400000.0 -50414300000.0 -38175100000.0 -44367900000.0 -63989100000.0 -63504700000.0 -60532000000.0 -86944100000.0 -75278700000.0 -65727900000.0 -51702500000.0 -42651800000.0 -34632800000.0 -22452900000.0 -25727200000.0 -9035780000.0 -37700500000.0 -9035770000.0 -39448500000.0 -9035770000.0 -48550900000.0 -9035760000.0 -48596400000.0 -9035760000.0 -48670000000.0 -9035760000.0 -40088800000.0 -9035760000.0 -26428500000.0 -9035750000.0 -22387400000.0 -9035750000.0 -22262500000.0 -9035750000.0 -22387400000.0 -9035750000.0 -26428400000.0 -9035760000.0 -40088800000.0 -9035760000.0 -48670000000.0 -9035760000.0 -48596400000.0 -9035760000.0 -48550900000.0 -9035770000.0 -39448500000.0 -9035770000.0 -37700500000.0 -9035780000.0 -25727200000.0 -22452900000.0 -34632800000.0 -42651800000.0 -51702500000.0 -65727900000.0 -75278700000.0 -86944100000.0 -60532000000.0 -63504700000.0 -63989100000.0 -44367900000.0 -38175100000.0 -50414300000.0 -45812400000.0 -34808100000.0 -30392300000.0 -20183700000.0 -22404700000.0 -25792900000.0 -26130500000.0 -22627800000.0 -19471800000.0 -28980800000.0 -33086500000.0 -44275600000.0 -49870500000.0 -38613200000.0 -43663600000.0 -61531600000.0 -62728400000.0 -59328100000.0 -81038700000.0 -70053700000.0 -60660800000.0 -48301400000.0 -38981300000.0 -31733700000.0 -19926000000.0 -25078500000.0 -9035780000.0 -35877500000.0 -9035770000.0 -37194800000.0 -9035770000.0 -45068600000.0 -9035760000.0 -44647700000.0 -9035760000.0 -44076000000.0 -9035760000.0 -35627600000.0 -9035760000.0 -23083500000.0 -9035750000.0 -19953400000.0 -9035750000.0 -19913100000.0 -9035750000.0 -19953400000.0 -9035750000.0 -23083500000.0 -9035760000.0 -35627600000.0 -9035760000.0 -44076000000.0 -9035760000.0 -44647700000.0 -9035760000.0 -45068600000.0 -9035770000.0 -37194800000.0 -9035770000.0 -35877500000.0 -9035780000.0 -25078500000.0 -19926000000.0 -31733700000.0 -38981300000.0 -48301400000.0 -60660800000.0 -70053700000.0 -81038700000.0 -59328100000.0 -62728400000.0 -61531600000.0 -43663600000.0 -38613200000.0 -49870500000.0 -44275600000.0 -33086500000.0 -28980800000.0 -19471800000.0 -22627800000.0 -26130500000.0 -26278800000.0 -22702400000.0 -18979600000.0 -27710400000.0 -31304800000.0 -42503800000.0 -48916400000.0 -38726000000.0 -42689900000.0 -59095600000.0 -61457600000.0 -57769000000.0 -75063400000.0 -64825500000.0 -55711700000.0 -44849600000.0 -35396900000.0 -29097600000.0 -17791800000.0 -24364500000.0 -9035780000.0 -34052600000.0 -9035770000.0 -35034600000.0 -9035770000.0 -41825500000.0 -9035760000.0 -41047500000.0 -9035760000.0 -39915200000.0 -9035760000.0 -31678200000.0 -9035760000.0 -20319400000.0 -9035750000.0 -17931000000.0 -9035750000.0 -17955200000.0 -9035750000.0 -17931000000.0 -9035750000.0 -20319400000.0 -9035760000.0 -31678200000.0 -9035760000.0 -39915200000.0 -9035760000.0 -41047500000.0 -9035760000.0 -41825500000.0 -9035770000.0 -35034600000.0 -9035770000.0 -34052600000.0 -9035780000.0 -24364500000.0 -17791800000.0 -29097600000.0 -35396900000.0 -44849600000.0 -55711700000.0 -64825500000.0 -75063400000.0 -57769000000.0 -61457600000.0 -59095600000.0 -42689900000.0 -38726000000.0 -48916500000.0 -42503800000.0 -31304800000.0 -27710400000.0 -18979600000.0 -22702400000.0 -26278800000.0 -26252200000.0 -22640700000.0 -18633400000.0 -26575900000.0 -29527500000.0 -40563900000.0 -47629800000.0 -38553100000.0 -41522300000.0 -56718600000.0 -59770800000.0 -55856300000.0 -69187300000.0 -59712200000.0 -50944900000.0 -41438500000.0 -32000800000.0 -26737500000.0 -16013600000.0 -23614900000.0 -9035780000.0 -32251100000.0 -9035770000.0 -32986000000.0 -9035770000.0 -38820200000.0 -9035760000.0 -37765400000.0 -9035760000.0 -36157800000.0 -9035760000.0 -28197600000.0 -9035760000.0 -18051000000.0 -9035750000.0 -16257000000.0 -9035750000.0 -16329000000.0 -9035750000.0 -16257000000.0 -9035750000.0 -18051000000.0 -9035760000.0 -28197600000.0 -9035760000.0 -36157800000.0 -9035760000.0 -37765400000.0 -9035760000.0 -38820200000.0 -9035770000.0 -32986000000.0 -9035770000.0 -32251100000.0 -9035780000.0 -23614900000.0 -16013600000.0 -26737500000.0 -32000800000.0 -41438500000.0 -50944900000.0 -59712200000.0 -69187300000.0 -55856300000.0 -59770800000.0 -56718600000.0 -41522300000.0 -38553100000.0 -47629800000.0 -40563900000.0 -29527500000.0 -26575900000.0 -18633400000.0 -22640700000.0 -26252200000.0 -26066400000.0 -22457500000.0 -18376700000.0 -25563400000.0 -27799800000.0 -38516200000.0 -46081000000.0 -38132000000.0 -40223000000.0 -54414000000.0 -57760600000.0 -53644200000.0 -63529700000.0 -54810200000.0 -46428800000.0 -38148900000.0 -28861100000.0 -24649200000.0 -14548200000.0 -22848900000.0 -9035790000.0 -30495600000.0 -9035780000.0 -31057500000.0 -9035770000.0 -36043900000.0 -9035760000.0 -34771700000.0 -9035760000.0 -32774500000.0 -9035760000.0 -25147700000.0 -9035760000.0 -16201200000.0 -9035750000.0 -14876800000.0 -9035750000.0 -14983000000.0 -9035750000.0 -14876800000.0 -9035750000.0 -16201200000.0 -9035760000.0 -25147700000.0 -9035760000.0 -32774500000.0 -9035760000.0 -34771700000.0 -9035760000.0 -36043900000.0 -9035770000.0 -31057500000.0 -9035780000.0 -30495600000.0 -9035790000.0 -22848900000.0 -14548200000.0 -24649200000.0 -28861100000.0 -38148900000.0 -46428800000.0 -54810200000.0 -63529700000.0 -53644200000.0 -57760600000.0 -54414000000.0 -40223000000.0 -38132000000.0 -46081000000.0 -38516200000.0 -27799800000.0 -25563400000.0 -18376700000.0 -22457500000.0 -26066400000.0 -25737300000.0 -22167700000.0 -18167100000.0 -24652500000.0 -26151300000.0 -36412800000.0 -44332600000.0 -37496700000.0 -38839100000.0 -52177900000.0 -55511400000.0 -51207900000.0 -58169600000.0 -50186800000.0 -42214500000.0 -35041000000.0 -26016500000.0 -22817100000.0 -13352100000.0 -22078000000.0 -9035790000.0 -28803100000.0 -9035780000.0 -29250700000.0 -9035770000.0 -33483500000.0 -9035760000.0 -32039400000.0 -9035760000.0 -29737100000.0 -9035760000.0 -22492800000.0 -9035760000.0 -14701600000.0 -9035750000.0 -13743500000.0 -9035750000.0 -13872500000.0 -9035750000.0 -13743500000.0 -9035750000.0 -14701600000.0 -9035760000.0 -22492800000.0 -9035760000.0 -29737100000.0 -9035760000.0 -32039400000.0 -9035760000.0 -33483500000.0 -9035770000.0 -29250700000.0 -9035780000.0 -28803100000.0 -9035790000.0 -22078000000.0 -13352100000.0 -22817100000.0 -26016500000.0 -35041000000.0 -42214500000.0 -50186800000.0 -58169600000.0 -51207900000.0 -55511400000.0 -52177900000.0 -38839100000.0 -37496700000.0 -44332600000.0 -36412800000.0 -26151300000.0 -24652500000.0 -18167100000.0 -22167700000.0 -25737300000.0 -25281300000.0 -21785600000.0 -17972400000.0 -23819600000.0 -24599500000.0 -34298500000.0 -42439000000.0 -36677200000.0 -37403500000.0 -49995500000.0 -53091900000.0 -48622000000.0 -53155400000.0 -45883100000.0 -38332700000.0 -32153900000.0 -23482000000.0 -21218100000.0 -12384200000.0 -21308200000.0 -9035790000.0 -27185200000.0 -9035780000.0 -27561800000.0 -9035770000.0 -31123900000.0 -9035760000.0 -29545300000.0 -9035760000.0 -27018200000.0 -9035760000.0 -20198300000.0 -9035760000.0 -13492800000.0 -9035750000.0 -12816400000.0 -9035750000.0 -12959100000.0 -9035750000.0 -12816400000.0 -9035750000.0 -13492800000.0 -9035760000.0 -20198300000.0 -9035760000.0 -27018200000.0 -9035760000.0 -29545300000.0 -9035760000.0 -31123900000.0 -9035770000.0 -27561800000.0 -9035780000.0 -27185200000.0 -9035790000.0 -21308200000.0 -12384200000.0 -21218100000.0 -23482000000.0 -32153900000.0 -38332700000.0 -45883100000.0 -53155400000.0 -48622000000.0 -53091900000.0 -49995500000.0 -37403500000.0 -36677200000.0 -42439000000.0 -34298500000.0 -24599500000.0 -23819600000.0 -17972400000.0 -21785600000.0 -25281300000.0 -24714000000.0 -21324500000.0 -17768500000.0 -23040200000.0 -23151900000.0 -32210300000.0 -40446500000.0 -35698800000.0 -35937600000.0 -47846900000.0 -50555400000.0 -45951700000.0 -48510500000.0 -41917900000.0 -34795700000.0 -29508000000.0 -21255400000.0 -19825600000.0 -11607400000.0 -20542400000.0 -9035790000.0 -25648100000.0 -9035780000.0 -25984000000.0 -9035770000.0 -28949300000.0 -9035760000.0 -27269500000.0 -9035760000.0 -24592300000.0 -9035760000.0 -18230300000.0 -9035760000.0 -12523700000.0 -9035750000.0 -12061000000.0 -9035750000.0 -12210100000.0 -9035750000.0 -12061000000.0 -9035750000.0 -12523700000.0 -9035760000.0 -18230300000.0 -9035760000.0 -24592300000.0 -9035760000.0 -27269500000.0 -9035760000.0 -28949300000.0 -9035770000.0 -25984000000.0 -9035780000.0 -25648100000.0 -9035790000.0 -20542400000.0 -11607400000.0 -19825600000.0 -21255400000.0 -29508000000.0 -34795700000.0 -41917900000.0 -48510500000.0 -45951700000.0 -50555400000.0 -47846900000.0 -35937600000.0 -35698800000.0 -40446500000.0 -32210300000.0 -23151900000.0 -23040200000.0 -17768500000.0 -21324500000.0 -24714000000.0 -19321800000.0 -10989300000.0 -9035790000.0 -9035780000.0 -9035770000.0 -9035760000.0 -25194500000.0 -9035760000.0 -22435100000.0 -9035760000.0 -16555500000.0 -9035760000.0 -11750900000.0 -9035750000.0 -11447700000.0 -9035750000.0 -11597700000.0 -9035750000.0 -11447700000.0 -9035750000.0 -11750900000.0 -9035760000.0 -16555500000.0 -9035760000.0 -22435100000.0 -9035760000.0 -25194500000.0 -9035760000.0 -9035770000.0 -9035780000.0 -9035790000.0 -10989300000.0 -19321800000.0 -24050700000.0 -20796300000.0 -17537700000.0 -22291600000.0 -21809600000.0 -30177400000.0 -38393800000.0 -34583100000.0 -34453700000.0 -45711400000.0 -47942600000.0 -43249700000.0 -44240200000.0 -38293000000.0 -31601300000.0 -27108300000.0 -18611900000.0 -19781900000.0 -24193800000.0 -24508700000.0 -26944700000.0 -26944700000.0 -24508700000.0 -24193800000.0 -19781900000.0 -18611900000.0 -27108300000.0 -31601300000.0 -38293000000.0 -44240200000.0 -43249700000.0 -47942600000.0 -45711400000.0 -34453700000.0 -34583100000.0 -38393800000.0 -30177400000.0 -21809600000.0 -22291600000.0 -17537700000.0 -20796300000.0 -24050700000.0 -23305700000.0 -20211800000.0 -17268400000.0 -21554700000.0 -20569000000.0 -28221700000.0 -36312200000.0 -33348600000.0 -32957200000.0 -43569700000.0 -45284700000.0 -40556900000.0 -40335400000.0 -34997400000.0 -28736700000.0 -24948100000.0 -17658500000.0 -17550100000.0 -10501800000.0 -19027100000.0 -9035790000.0 -22821400000.0 -9035780000.0 -23126700000.0 -9035770000.0 -25095500000.0 -9035760000.0 -23305100000.0 -9035760000.0 -20523900000.0 -9035760000.0 -15141500000.0 -9035760000.0 -11138000000.0 -9035750000.0 -10951700000.0 -9035750000.0 -11098400000.0 -9035750000.0 -10951700000.0 -9035750000.0 -11138000000.0 -9035760000.0 -15141500000.0 -9035760000.0 -20523900000.0 -9035760000.0 -23305100000.0 -9035760000.0 -25095500000.0 -9035770000.0 -23126700000.0 -9035780000.0 -22821400000.0 -9035790000.0 -19027100000.0 -10501800000.0 -17550100000.0 -17658500000.0 -24948100000.0 -28736700000.0 -34997400000.0 -40335400000.0 -40556900000.0 -45284700000.0 -43569700000.0 -32957200000.0 -33348600000.0 -36312200000.0 -28221700000.0 -20569000000.0 -21554700000.0 -17268400000.0 -20211800000.0 -23305700000.0 -22492400000.0 -19580100000.0 -16953800000.0 -20814500000.0 -19423300000.0 -26357600000.0 -34225900000.0 -32011200000.0 -31448900000.0 -41406000000.0 -42605500000.0 -37903600000.0 -36777500000.0 -32011600000.0 -26181000000.0 -23012800000.0 -16238400000.0 -16615300000.0 -10121400000.0 -18278600000.0 -9035790000.0 -21527800000.0 -9035770000.0 -21828500000.0 -9035770000.0 -23388700000.0 -9035760000.0 -21587400000.0 -9035760000.0 -18837300000.0 -9035760000.0 -13957300000.0 -9035760000.0 -10654500000.0 -9035750000.0 -10552100000.0 -9035750000.0 -10692300000.0 -9035750000.0 -10552100000.0 -9035750000.0 -10654500000.0 -9035760000.0 -13957300000.0 -9035760000.0 -18837300000.0 -9035760000.0 -21587400000.0 -9035760000.0 -23388700000.0 -9035770000.0 -21828500000.0 -9035770000.0 -21527800000.0 -9035790000.0 -18278600000.0 -10121400000.0 -16615300000.0 -16238400000.0 -23012800000.0 -26181000000.0 -32011600000.0 -36777500000.0 -37903600000.0 -42605500000.0 -41406000000.0 -31448900000.0 -32011200000.0 -34225900000.0 -26357600000.0 -19423300000.0 -20814500000.0 -16953800000.0 -19580100000.0 -22492400000.0 -21622800000.0 -18909400000.0 -16590600000.0 -20060200000.0 -18364000000.0 -24593000000.0 -32153000000.0 -30585100000.0 -29926800000.0 -39208800000.0 -39923500000.0 -35311000000.0 -33541500000.0 -29310200000.0 -23909200000.0 -21282900000.0 -15032700000.0 -15785200000.0 -9828140000.0 -17537100000.0 -9035790000.0 -20308700000.0 -9035770000.0 -20605300000.0 -9035770000.0 -21812200000.0 -9035760000.0 -20028300000.0 -9035760000.0 -17354900000.0 -9035760000.0 -12973700000.0 -9035760000.0 -10275200000.0 -9035750000.0 -10231300000.0 -9035750000.0 -10362800000.0 -9035750000.0 -10231300000.0 -9035750000.0 -10275200000.0 -9035760000.0 -12973700000.0 -9035760000.0 -17354900000.0 -9035760000.0 -20028300000.0 -9035760000.0 -21812200000.0 -9035770000.0 -20605300000.0 -9035770000.0 -20308700000.0 -9035790000.0 -17537100000.0 -9828140000.0 -15785200000.0 -15032700000.0 -21282900000.0 -23909200000.0 -29310200000.0 -33541500000.0 -35311000000.0 -39923500000.0 -39208800000.0 -29926800000.0 -30585100000.0 -32153000000.0 -24593000000.0 -18364000000.0 -20060200000.0 -16590600000.0 -18909400000.0 -21622800000.0 -20707700000.0 -18206200000.0 -16178700000.0 -19285000000.0 -17381700000.0 -22930300000.0 -30106200000.0 -29082600000.0 -28387300000.0 -36970800000.0 -37253300000.0 -32793100000.0 -30598900000.0 -26865300000.0 -21893400000.0 -19736600000.0 -14013200000.0 -15040300000.0 -9605020000.0 -16803400000.0 -9035780000.0 -19158700000.0 -9035770000.0 -19448900000.0 -9035770000.0 -20354600000.0 -9035760000.0 -18615300000.0 -9035760000.0 -16057100000.0 -9035760000.0 -12163300000.0 -9035760000.0 -9979260000.0 -9035750000.0 -9974570000.0 -9035750000.0 -10096000000.0 -9035750000.0 -9974570000.0 -9035750000.0 -9979260000.0 -9035760000.0 -12163300000.0 -9035760000.0 -16057100000.0 -9035760000.0 -18615300000.0 -9035760000.0 -20354600000.0 -9035770000.0 -19448900000.0 -9035770000.0 -19158700000.0 -9035780000.0 -16803400000.0 -9605020000.0 -15040300000.0 -14013200000.0 -19736600000.0 -21893400000.0 -26865300000.0 -30598900000.0 -32793100000.0 -37253300000.0 -36970800000.0 -28387300000.0 -29082600000.0 -30106200000.0 -22930300000.0 -17381700000.0 -19285000000.0 -16178700000.0 -18206200000.0 -20707700000.0 -19756800000.0 -17476200000.0 -15719600000.0 -18485700000.0 -16466900000.0 -21367600000.0 -28093500000.0 -27514600000.0 -26826800000.0 -34689000000.0 -34605800000.0 -30357600000.0 -27919800000.0 -24648000000.0 -20105100000.0 -18351400000.0 -13153100000.0 -14363900000.0 -9437880000.0 -16078200000.0 -9035780000.0 -18072000000.0 -9035770000.0 -18351900000.0 -9035770000.0 -19005600000.0 -9035760000.0 -17336300000.0 -9035760000.0 -14925400000.0 -9035760000.0 -11500900000.0 -9035760000.0 -9749660000.0 -9035750000.0 -9769900000.0 -9035750000.0 -9880340000.0 -9035750000.0 -9769900000.0 -9035750000.0 -9749660000.0 -9035760000.0 -11500900000.0 -9035760000.0 -14925400000.0 -9035760000.0 -17336300000.0 -9035760000.0 -19005600000.0 -9035770000.0 -18351900000.0 -9035770000.0 -18072000000.0 -9035780000.0 -16078200000.0 -9437880000.0 -14363900000.0 -13153100000.0 -18351400000.0 -20105100000.0 -24648000000.0 -27919800000.0 -30357600000.0 -34605800000.0 -34689000000.0 -26826800000.0 -27514600000.0 -28093500000.0 -21367600000.0 -16466900000.0 -18485700000.0 -15719600000.0 -17476200000.0 -19756800000.0 -18778200000.0 -16723900000.0 -15216300000.0 -17661200000.0 -15610300000.0 -19899800000.0 -26119300000.0 -25890600000.0 -25241800000.0 -32363500000.0 -31989400000.0 -28007500000.0 -25474100000.0 -22629700000.0 -18516400000.0 -17105500000.0 -12428000000.0 -13742100000.0 -9314760000.0 -15362400000.0 -9035780000.0 -17042500000.0 -9035770000.0 -17307700000.0 -9035760000.0 -17755400000.0 -9035760000.0 -16179100000.0 -9035760000.0 -13942000000.0 -9035760000.0 -10963700000.0 -9035760000.0 -9572520000.0 -9035750000.0 -9607210000.0 -9035750000.0 -9706240000.0 -9035750000.0 -9607210000.0 -9035750000.0 -9572520000.0 -9035760000.0 -10963700000.0 -9035760000.0 -13942000000.0 -9035760000.0 -16179100000.0 -9035760000.0 -17755400000.0 -9035760000.0 -17307700000.0 -9035770000.0 -17042500000.0 -9035780000.0 -15362400000.0 -9314760000.0 -13742100000.0 -12428000000.0 -17105500000.0 -18516400000.0 -22629700000.0 -25474100000.0 -28007500000.0 -31989400000.0 -32363500000.0 -25241800000.0 -25890600000.0 -26119300000.0 -19899800000.0 -15610300000.0 -17661200000.0 -15216300000.0 -16723900000.0 -18778200000.0 -17778800000.0 -15953200000.0 -14672400000.0 -16812500000.0 -14803000000.0 -18519500000.0 -24185100000.0 -24219100000.0 -23629700000.0 -29997100000.0 -29410000000.0 -25742100000.0 -23232900000.0 -20783400000.0 -17100500000.0 -15978500000.0 -11816100000.0 -13163200000.0 -9225740000.0 -14656600000.0 -9035780000.0 -16064200000.0 -9035770000.0 -16310200000.0 -9035760000.0 -16594200000.0 -9035760000.0 -15131900000.0 -9035760000.0 -13090000000.0 -9035760000.0 -10531100000.0 -9035760000.0 -9436580000.0 -9035750000.0 -9478220000.0 -9035750000.0 -9565720000.0 -9035750000.0 -9478220000.0 -9035750000.0 -9436580000.0 -9035760000.0 -10531100000.0 -9035760000.0 -13090000000.0 -9035760000.0 -15131900000.0 -9035760000.0 -16594200000.0 -9035760000.0 -16310200000.0 -9035770000.0 -16064200000.0 -9035780000.0 -14656600000.0 -9225740000.0 -13163200000.0 -11816100000.0 -15978500000.0 -17100500000.0 -20783400000.0 -23232900000.0 -25742100000.0 -29410000000.0 -29997100000.0 -23629700000.0 -24219100000.0 -24185100000.0 -18519500000.0 -14803000000.0 -16812500000.0 -14672400000.0 -15953200000.0 -17778800000.0 -16764300000.0 -15167200000.0 -14091900000.0 -15941600000.0 -14037100000.0 -17217900000.0 -22290100000.0 -22507500000.0 -21989300000.0 -27594200000.0 -26870900000.0 -23557700000.0 -21168600000.0 -19083900000.0 -15832600000.0 -14951600000.0 -11298300000.0 -12617800000.0 -9162620000.0 -13961000000.0 -9035780000.0 -15130900000.0 -9035770000.0 -15353900000.0 -9035760000.0 -15512800000.0 -9035760000.0 -14182800000.0 -9035760000.0 -12353000000.0 -9035760000.0 -10184900000.0 -9035760000.0 -9332790000.0 -9035750000.0 -9376120000.0 -9035750000.0 -9452200000.0 -9035750000.0 -9376120000.0 -9035750000.0 -9332790000.0 -9035760000.0 -10184900000.0 -9035760000.0 -12353000000.0 -9035760000.0 -14182800000.0 -9035760000.0 -15512800000.0 -9035760000.0 -15353900000.0 -9035770000.0 -15130900000.0 -9035780000.0 -13961000000.0 -9162620000.0 -12617800000.0 -11298300000.0 -14951600000.0 -15832600000.0 -19083900000.0 -21168600000.0 -23557700000.0 -26870900000.0 -27594200000.0 -21989300000.0 -22507500000.0 -22290100000.0 -17217900000.0 -14037100000.0 -15941600000.0 -14091900000.0 -15167200000.0 -16764300000.0 -15739300000.0 -14368400000.0 -13478900000.0 -15051400000.0 -13305500000.0 -15985500000.0 -20432000000.0 -20762300000.0 -20320500000.0 -25159900000.0 -24373400000.0 -21448500000.0 -19255300000.0 -17508000000.0 -14689500000.0 -14008000000.0 -10857900000.0 -12098100000.0 -9118760000.0 -13275600000.0 -9035770000.0 -14236800000.0 -9035770000.0 -14433700000.0 -9035760000.0 -14501800000.0 -9035760000.0 -13320000000.0 -9035760000.0 -11715500000.0 -9035760000.0 -9909220000.0 -9035760000.0 -9253870000.0 -9035750000.0 -9295320000.0 -9035750000.0 -9360220000.0 -9035750000.0 -9295320000.0 -9035750000.0 -9253870000.0 -9035760000.0 -9909220000.0 -9035760000.0 -11715500000.0 -9035760000.0 -13320000000.0 -9035760000.0 -14501800000.0 -9035760000.0 -14433700000.0 -9035770000.0 -14236800000.0 -9035770000.0 -13275600000.0 -9118760000.0 -12098100000.0 -10857900000.0 -14008000000.0 -14689500000.0 -17508000000.0 -19255300000.0 -21448500000.0 -24373400000.0 -25159900000.0 -20320500000.0 -20762300000.0 -20432000000.0 -15985500000.0 -13305500000.0 -15051400000.0 -13478900000.0 -14368400000.0 -15739300000.0 -14707300000.0 -13559000000.0 -12837700000.0 -14144700000.0 -12601800000.0 -14812300000.0 -18607500000.0 -18989200000.0 -18624400000.0 -22699900000.0 -21916600000.0 -19406900000.0 -17469000000.0 -16034800000.0 -13650400000.0 -13132800000.0 -10480300000.0 -11597800000.0 -9088900000.0 -12599900000.0 -9035770000.0 -13376200000.0 -9035760000.0 -13544800000.0 -9035760000.0 -13552000000.0 -9035760000.0 -12531700000.0 -9035760000.0 -11162600000.0 -9035760000.0 -9690190000.0 -9035760000.0 -9193970000.0 -9035750000.0 -9231210000.0 -9035750000.0 -9285260000.0 -9035750000.0 -9231210000.0 -9035750000.0 -9193970000.0 -9035760000.0 -9690190000.0 -9035760000.0 -11162600000.0 -9035760000.0 -12531700000.0 -9035760000.0 -13552000000.0 -9035760000.0 -13544800000.0 -9035760000.0 -13376200000.0 -9035770000.0 -12599900000.0 -9088900000.0 -11597800000.0 -10480300000.0 -13132800000.0 -13650400000.0 -16034800000.0 -17469000000.0 -19406900000.0 -21916600000.0 -22699900000.0 -18624400000.0 -18989200000.0 -18607500000.0 -14812300000.0 -12601800000.0 -14144700000.0 -12837700000.0 -13559000000.0 -14707300000.0 -13670800000.0 -12741000000.0 -12172700000.0 -13224800000.0 -11920300000.0 -13688400000.0 -16812100000.0 -17193500000.0 -16903400000.0 -20219300000.0 -19497800000.0 -17423900000.0 -15787100000.0 -14644900000.0 -12695800000.0 -12312500000.0 -10152800000.0 -11112000000.0 -9068980000.0 -11933200000.0 -9035770000.0 -12543400000.0 -9035760000.0 -12682200000.0 -9035760000.0 -12653900000.0 -9035760000.0 -11806300000.0 -9035760000.0 -10680000000.0 -9035760000.0 -9515770000.0 -9035760000.0 -9148430000.0 -9035750000.0 -9180000000.0 -9035750000.0 -9223540000.0 -9035750000.0 -9180000000.0 -9035750000.0 -9148430000.0 -9035760000.0 -9515770000.0 -9035760000.0 -10680000000.0 -9035760000.0 -11806300000.0 -9035760000.0 -12653900000.0 -9035760000.0 -12682200000.0 -9035760000.0 -12543400000.0 -9035770000.0 -11933200000.0 -9068980000.0 -11112000000.0 -10152800000.0 -12312500000.0 -12695800000.0 -14644900000.0 -15787100000.0 -17423900000.0 -19497800000.0 -20219300000.0 -16903400000.0 -17193500000.0 -16812100000.0 -13688400000.0 -11920300000.0 -13224800000.0 -12172700000.0 -12741000000.0 -13670800000.0 -12631700000.0 -11916000000.0 -11488300000.0 -12294300000.0 -11256000000.0 -12604300000.0 -15041000000.0 -15379800000.0 -15160600000.0 -17723200000.0 -17112300000.0 -15489900000.0 -14188500000.0 -13320900000.0 -11808200000.0 -11535100000.0 -9864340000.0 -10636600000.0 -9055910000.0 -11274200000.0 -9035760000.0 -11733200000.0 -9035760000.0 -11841300000.0 -9035760000.0 -11798200000.0 -9035760000.0 -11132100000.0 -9035760000.0 -10254100000.0 -9035750000.0 -9375570000.0 -9035760000.0 -9113500000.0 -9035750000.0 -9138530000.0 -9035750000.0 -9171900000.0 -9035750000.0 -9138530000.0 -9035750000.0 -9113500000.0 -9035760000.0 -9375570000.0 -9035750000.0 -10254100000.0 -9035760000.0 -11132100000.0 -9035760000.0 -11798200000.0 -9035760000.0 -11841300000.0 -9035760000.0 -11733200000.0 -9035760000.0 -11274200000.0 -9055910000.0 -10636600000.0 -9864340000.0 -11535100000.0 -11808200000.0 -13320900000.0 -14188500000.0 -15489900000.0 -17112300000.0 -17723200000.0 -15160600000.0 -15379800000.0 -15041000000.0 -12604300000.0 -11256000000.0 -12294300000.0 -11488300000.0 -11916000000.0 -12631700000.0 -11591200000.0 -11085800000.0 -10788700000.0 -11356100000.0 -10604600000.0 -11550400000.0 -13289000000.0 -13552500000.0 -13400200000.0 -15215600000.0 -14754200000.0 -13594300000.0 -12653300000.0 -12046600000.0 -10971100000.0 -10789800000.0 -9604930000.0 -10168500000.0 -9047370000.0 -10621500000.0 -9035760000.0 -10940300000.0 -9035760000.0 -11017300000.0 -9035760000.0 -10975400000.0 -9035760000.0 -10497600000.0 -9035760000.0 -9871500000.0 -9035750000.0 -9260530000.0 -9035750000.0 -9086130000.0 -9035750000.0 -9104130000.0 -9035750000.0 -9127620000.0 -9035750000.0 -9104130000.0 -9035750000.0 -9086130000.0 -9035750000.0 -9260530000.0 -9035750000.0 -9871500000.0 -9035760000.0 -10497600000.0 -9035760000.0 -10975400000.0 -9035760000.0 -11017300000.0 -9035760000.0 -10940300000.0 -9035760000.0 -10621500000.0 -9047370000.0 -10168500000.0 -9604930000.0 -10789800000.0 -10971100000.0 -12046600000.0 -12653300000.0 -13594300000.0 -14754200000.0 -15215600000.0 -13400200000.0 -13552500000.0 -13289000000.0 -11550400000.0 -10604600000.0 -11356100000.0 -10788700000.0 -11085800000.0 -11591200000.0 -10550000000.0 -10251800000.0 -10078400000.0 -10412500000.0 -9962020000.0 -10517600000.0 -11550600000.0 -11715500000.0 -11626700000.0 -12700200000.0 -12416100000.0 -11726200000.0 -11162500000.0 -10806700000.0 -10169300000.0 -10066800000.0 -9365540000.0 -9705200000.0 -9041660000.0 -9973500000.0 -9035760000.0 -10159500000.0 -9035760000.0 -10205200000.0 -9035750000.0 -10176100000.0 -9035750000.0 -9891250000.0 -9035750000.0 -9519440000.0 -9035750000.0 -9162620000.0 -9035750000.0 -9063780000.0 -9035750000.0 -9074520000.0 -9035750000.0 -9088350000.0 -9035750000.0 -9074520000.0 -9035750000.0 -9063780000.0 -9035750000.0 -9162620000.0 -9035750000.0 -9519440000.0 -9035750000.0 -9891250000.0 -9035750000.0 -10176100000.0 -9035750000.0 -10205200000.0 -9035760000.0 -10159500000.0 -9035760000.0 -9973500000.0 -9041660000.0 -9705200000.0 -9365540000.0 -10066800000.0 -10169300000.0 -10806700000.0 -11162500000.0 -11726200000.0 -12416100000.0 -12700200000.0 -11626700000.0 -11715500000.0 -11550600000.0 -10517600000.0 -9962020000.0 -10412500000.0 -10078400000.0 -10251800000.0 -10550000000.0 -9508430000.0 -9415490000.0 -9361700000.0 -9465730000.0 -9324480000.0 -9497350000.0 -9820120000.0 -9872660000.0 -9845120000.0 -10180000000.0 -10090000000.0 -9874310000.0 -9697590000.0 -9586990000.0 -9387980000.0 -9356570000.0 -9137790000.0 -9244500000.0 -9037480000.0 -9328250000.0 -9035750000.0 -9385980000.0 -9035750000.0 -9400230000.0 -9035750000.0 -9390630000.0 -9035750000.0 -9301500000.0 -9035750000.0 -9185340000.0 -9035750000.0 -9074580000.0 -9035750000.0 -9044280000.0 -9035750000.0 -9047640000.0 -9035750000.0 -9051940000.0 -9035750000.0 -9047640000.0 -9035750000.0 -9044280000.0 -9035750000.0 -9074580000.0 -9035750000.0 -9185340000.0 -9035750000.0 -9301500000.0 -9035750000.0 -9390630000.0 -9035750000.0 -9400230000.0 -9035750000.0 -9385980000.0 -9035750000.0 -9328250000.0 -9037480000.0 -9244500000.0 -9137790000.0 -9356570000.0 -9387980000.0 -9586990000.0 -9697590000.0 -9874310000.0 -10090000000.0 -10180000000.0 -9845120000.0 -9872660000.0 -9820120000.0 -9497350000.0 -9324480000.0 -9465730000.0 -9361700000.0 -9415490000.0 -9508430000.0 
SCALARS Shear_Stress float 1
LOOKUP_TABLE default
179635000000.0 245803000000.0 245803000000.0 179635000000.0 135127000000.0 208367000000.0 108716000000.0 14400000000.0 9855740000.0 175630000000.0 116430000000.0 24554700000.0 27764800000.0 27764900000.0 24554800000.0 116430000000.0 175630000000.0 9855740000.0 14400000000.0 108716000000.0 208367000000.0 135127000000.0 97433200000.0 211567000000.0 511716000000.0 57806200000.0 82007700000.0 179775000000.0 145975000000.0 95866200000.0 118703000000.0 93067200000.0 118703000000.0 95866300000.0 145975000000.0 179775000000.0 82007700000.0 57806200000.0 511716000000.0 211567000000.0 97433200000.0 67102900000.0 198416000000.0 10743300000.0 665317000000.0 82974500000.0 120907000000.0 95930500000.0 8522570000.0 232846000000.0 134643000000.0 197363000000.0 17383300000.0 48862500000.0 12967400000.0 34274500000.0 12967400000.0 48862500000.0 17383300000.0 197363000000.0 134643000000.0 232846000000.0 8522590000.0 95930600000.0 120907000000.0 82974500000.0 665317000000.0 10743200000.0 198416000000.0 67102900000.0 40738400000.0 182347000000.0 193057000000.0 60238600000.0 52273000000.0 55893300000.0 110303000000.0 206152000000.0 185171000000.0 326396000000.0 291248000000.0 10924600000.0 10924600000.0 291248000000.0 326396000000.0 185171000000.0 206152000000.0 110303000000.0 55893300000.0 52273000000.0 60238600000.0 193057000000.0 182347000000.0 40738400000.0 13178000000.0 21753300000.0 175742000000.0 54970500000.0 49107400000.0 613102000000.0 367262000000.0 126747000000.0 317546000000.0 43257700000.0 58021700000.0 12747900000.0 3913350000.0 49944500000.0 26448500000.0 46059200000.0 26448500000.0 49944600000.0 3913470000.0 12747900000.0 58021700000.0 43257700000.0 317546000000.0 126747000000.0 367262000000.0 613102000000.0 49107400000.0 54970500000.0 175742000000.0 21753300000.0 13178000000.0 17820700000.0 179044000000.0 49075800000.0 62310000000.0 155757000000.0 407160000000.0 355516000000.0 354439000000.0 127270000000.0 2426440000.0 89331400000.0 39973900000.0 58826800000.0 58826800000.0 39973900000.0 89331300000.0 2426430000.0 127270000000.0 354439000000.0 355516000000.0 407160000000.0 155757000000.0 62310000000.0 49075800000.0 179044000000.0 17820700000.0 33726400000.0 196962000000.0 70268000000.0 52875700000.0 73917300000.0 74637600000.0 190648000000.0 167261000000.0 289876000000.0 72769000000.0 338689000000.0 70479700000.0 126214000000.0 8854340000.0 222629000.0 12943300000.0 35519500000.0 31094900000.0 35519500000.0 12943300000.0 222624000.0 8854340000.0 126214000000.0 70479700000.0 338689000000.0 72769000000.0 289876000000.0 167261000000.0 190648000000.0 74637600000.0 73917300000.0 52875700000.0 70268000000.0 196962000000.0 33726400000.0 51065200000.0 285651000000.0 233419000000.0 106405000000.0 59125800000.0 194794000000.0 302004000000.0 307826000000.0 246165000000.0 76920500000.0 328878000000.0 57644100000.0 25810000000.0 68339800000.0 19080700000.0 60305900000.0 9571580000.0 90420700000.0 15965300000.0 90420700000.0 9571570000.0 60305900000.0 19080700000.0 68339800000.0 25810000000.0 57644100000.0 328878000000.0 76920600000.0 246165000000.0 307826000000.0 302004000000.0 194794000000.0 59125800000.0 106405000000.0 233419000000.0 285651000000.0 51065200000.0 54693600000.0 34668900000.0 334804000000.0 163781000000.0 30616600000.0 181627000000.0 306226000000.0 371462000000.0 370333000000.0 113540000000.0 320162000000.0 71334800000.0 88987400000.0 286182000000.0 4563100000.0 57385400000.0 98037600000.0 98037500000.0 57385300000.0 4563110000.0 286182000000.0 88987300000.0 71334800000.0 320162000000.0 113540000000.0 370333000000.0 371462000000.0 306226000000.0 181627000000.0 30616600000.0 163781000000.0 334804000000.0 34668900000.0 54693600000.0 160284000000.0 297976000000.0 293813000000.0 242297000000.0 77404200000.0 13315300000.0 126506000000.0 156864000000.0 264009000000.0 291825000000.0 380840000000.0 388958000000.0 428565000000.0 342658000000.0 658750000000.0 415600000000.0 219889000000.0 196479000000.0 44006200000.0 21307000000.0 14119100000.0 21307000000.0 44006200000.0 196479000000.0 219889000000.0 415600000000.0 658750000000.0 342658000000.0 428565000000.0 388958000000.0 380840000000.0 291825000000.0 264009000000.0 156864000000.0 126506000000.0 13315300000.0 77404200000.0 242297000000.0 293813000000.0 297976000000.0 160284000000.0 231303000000.0 49341000000.0 97451000000.0 177290000000.0 160905000000.0 96443300000.0 230750000000.0 350884000000.0 427734000000.0 397335000000.0 111966000000.0 544829000000.0 401161000000.0 195282000000.0 115430000000.0 102068000000.0 102367000000.0 10309800000.0 48733800000.0 105936000000.0 27984000000.0 105936000000.0 48733700000.0 10309800000.0 102367000000.0 102068000000.0 115430000000.0 195282000000.0 401161000000.0 544829000000.0 111966000000.0 397335000000.0 427734000000.0 350884000000.0 230750000000.0 96443300000.0 160905000000.0 177290000000.0 97451000000.0 49341000000.0 231303000000.0 73216100000.0 209267000000.0 26930300000.0 256088000000.0 191601000000.0 55409700000.0 205447000000.0 208389000000.0 262311000000.0 308596000000.0 411682000000.0 431232000000.0 279584000000.0 174997000000.0 27090400000.0 307982000000.0 348990000000.0 117630000000.0 4386860000.0 147782000000.0 147782000000.0 4386860000.0 117630000000.0 348990000000.0 307981000000.0 27090400000.0 174997000000.0 279584000000.0 431232000000.0 411682000000.0 308596000000.0 262311000000.0 208389000000.0 205447000000.0 55409700000.0 191601000000.0 256088000000.0 26930300000.0 209267000000.0 73216100000.0 82179100000.0 175534000000.0 337241000000.0 977125000000.0 65982700000.0 92116000000.0 22119000000.0 207167000000.0 240203000000.0 308246000000.0 366985000000.0 398105000000.0 404875000000.0 370732000000.0 92732500000.0 472991000000.0 291187000000.0 243160000000.0 312015000000.0 269072000000.0 72264300000.0 39149100000.0 8225000000.0 39149100000.0 72264300000.0 269072000000.0 312015000000.0 243160000000.0 291187000000.0 472991000000.0 92732500000.0 370732000000.0 404875000000.0 398105000000.0 366985000000.0 308246000000.0 240203000000.0 207167000000.0 22119000000.0 92116000000.0 65982700000.0 977125000000.0 337241000000.0 175534000000.0 82179100000.0 146205000000.0 110260000000.0 646043000000.0 391051000000.0 167490000000.0 880268000000.0 217984000000.0 244039000000.0 229349000000.0 341541000000.0 288803000000.0 147629000000.0 68755800000.0 432519000000.0 233751000000.0 189495000000.0 247994000000.0 220584000000.0 10593400000.0 32324000000.0 170168000000.0 17285400000.0 170168000000.0 32324000000.0 10593400000.0 220584000000.0 247994000000.0 189495000000.0 233751000000.0 432519000000.0 68755800000.0 147629000000.0 288803000000.0 341541000000.0 229349000000.0 244039000000.0 217984000000.0 880268000000.0 167490000000.0 391051000000.0 646043000000.0 110260000000.0 146205000000.0 70265100000.0 544101000000.0 603489000000.0 335894000000.0 446135000000.0 101014000000.0 78073400000.0 299394000000.0 81102300000.0 202154000000.0 121985000000.0 176174000000.0 124269000000.0 271146000000.0 292601000000.0 349650000000.0 303908000000.0 110581000000.0 87019700000.0 184588000000.0 145787000000.0 172828000000.0 198331000000.0 137542000000.0 128256000000.0 87766000000.0 161124000000.0 161124000000.0 87766000000.0 128256000000.0 137542000000.0 198331000000.0 172828000000.0 145787000000.0 184588000000.0 87019700000.0 110581000000.0 303908000000.0 349650000000.0 292601000000.0 271146000000.0 124269000000.0 176174000000.0 121985000000.0 202154000000.0 81102300000.0 299394000000.0 78073400000.0 101014000000.0 446135000000.0 335894000000.0 603489000000.0 544101000000.0 70265100000.0 45235000000.0 573720000000.0 973950000000.0 394189000000.0 413016000000.0 686884000000.0 227767000000.0 13322900000.0 267096000000.0 316760000000.0 10736500000.0 259530000000.0 236314000000.0 410954000000.0 135100000000.0 130919000000.0 191335000000.0 114291000000.0 11303600000.0 61080700000.0 36820100000.0 61080700000.0 11303500000.0 114291000000.0 191335000000.0 130919000000.0 135100000000.0 410954000000.0 236314000000.0 259530000000.0 10736500000.0 316760000000.0 267096000000.0 13322900000.0 227767000000.0 686884000000.0 413016000000.0 394189000000.0 973950000000.0 573720000000.0 45235000000.0 91703100000.0 200724000000.0 350703000000.0 688008000000.0 523682000000.0 1.42955e+12 719901000000.0 31216800000.0 676648000000.0 408265000000.0 119439000000.0 278384000000.0 736975000000.0 488527000000.0 184785000000.0 194510000000.0 53094100000.0 349090000000.0 235427000000.0 363517000000.0 244205000000.0 443040000000.0 59225200000.0 160443000000.0 172511000000.0 111504000000.0 66924100000.0 45863000000.0 166470000000.0 29238000000.0 166470000000.0 45863000000.0 66924200000.0 111504000000.0 172511000000.0 160443000000.0 59225200000.0 443040000000.0 244205000000.0 363517000000.0 235427000000.0 349090000000.0 53094100000.0 194509000000.0 184785000000.0 488527000000.0 736975000000.0 278384000000.0 119439000000.0 408265000000.0 676648000000.0 31216800000.0 719901000000.0 1.42955e+12 523682000000.0 688008000000.0 350703000000.0 200724000000.0 91703100000.0 162572000000.0 768336000000.0 1937990000.0 342497000000.0 1.3881e+12 494230000000.0 1.02992e+12 211157000000.0 288234000000.0 42412800000.0 315028000000.0 315879000000.0 587688000000.0 507352000000.0 366340000000.0 226103000000.0 406468000000.0 18970300000.0 88186300000.0 83194000000.0 2460310000.0 61200400000.0 61200400000.0 2460260000.0 83194000000.0 88186300000.0 18970300000.0 406468000000.0 226103000000.0 366340000000.0 507352000000.0 587688000000.0 315879000000.0 315028000000.0 42412800000.0 288234000000.0 211157000000.0 1.02992e+12 494230000000.0 1.3881e+12 342497000000.0 1937950000.0 768336000000.0 162572000000.0 30544400000.0 38359000000.0 329980000000.0 669233000000.0 864248000000.0 36724400000.0 267604000000.0 101575000000.0 693669000000.0 938818000000.0 189157000000.0 192530000000.0 193716000000.0 379356000000.0 929546000.0 156917000000.0 262223000000.0 738177000000.0 563888000000.0 468862000000.0 258557000000.0 36814300000.0 224823000000.0 72698200000.0 122646000000.0 2057140000.0 25386100000.0 140336000000.0 33811900000.0 140336000000.0 25386200000.0 2057090000.0 122646000000.0 72698200000.0 224823000000.0 36814300000.0 258557000000.0 468862000000.0 563888000000.0 738177000000.0 262223000000.0 156917000000.0 929536000.0 379356000000.0 193716000000.0 192530000000.0 189157000000.0 938818000000.0 693669000000.0 101575000000.0 267604000000.0 36724300000.0 864248000000.0 669233000000.0 329980000000.0 38359000000.0 30544400000.0 19808700000.0 277911000000.0 141022000000.0 512224000000.0 140754000000.0 979226000000.0 586334000000.0 781469000000.0 703328000000.0 93078500000.0 337594000000.0 621062000000.0 286554000000.0 42568500000.0 64866000000.0 431576000000.0 677317000000.0 47995100000.0 119442000000.0 4200860000.0 30878900000.0 244610000000.0 183824000000.0 76735500000.0 93705800000.0 10269800000.0 93705800000.0 76735500000.0 183824000000.0 244610000000.0 30878900000.0 4200850000.0 119442000000.0 47995100000.0 677317000000.0 431576000000.0 64866100000.0 42568500000.0 286554000000.0 621062000000.0 337594000000.0 93078500000.0 703328000000.0 781469000000.0 586334000000.0 979226000000.0 140754000000.0 512224000000.0 141022000000.0 277911000000.0 19808700000.0 812221000.0 260800000000.0 252730000000.0 452230000000.0 382370000000.0 416156000000.0 509456000000.0 498847000000.0 168881000000.0 282838000000.0 137984000000.0 227873000000.0 106932000000.0 179589000000.0 594879000000.0 239531000000.0 627909000000.0 59777600000.0 603869000000.0 170714000000.0 550819000000.0 273170000000.0 368196000000.0 122125000000.0 23808300000.0 1656980000.0 126176000000.0 22573100000.0 22573100000.0 126176000000.0 1656960000.0 23808300000.0 122125000000.0 368196000000.0 273170000000.0 550819000000.0 170714000000.0 603869000000.0 59777600000.0 627909000000.0 239531000000.0 594879000000.0 179589000000.0 106932000000.0 227873000000.0 137984000000.0 282838000000.0 168881000000.0 498847000000.0 509456000000.0 416156000000.0 382370000000.0 452229000000.0 252730000000.0 260800000000.0 812244000.0 34575800000.0 256738000000.0 248109000000.0 274153000000.0 28005500000.0 287391000000.0 640489000000.0 564942000000.0 303647000000.0 1.12807e+12 827144000000.0 94181000000.0 560071000000.0 915874000000.0 247586000000.0 242808000000.0 45255500000.0 126412000000.0 103953000000.0 399200000000.0 331366000000.0 390778000000.0 319528000000.0 259043000000.0 264038000000.0 153788000000.0 188037000000.0 35170000000.0 97595000000.0 8117550000.0 29295400000.0 8117520000.0 97594900000.0 35170000000.0 188037000000.0 153788000000.0 264038000000.0 259043000000.0 319528000000.0 390778000000.0 331366000000.0 399200000000.0 103953000000.0 126412000000.0 45255500000.0 242808000000.0 247586000000.0 915874000000.0 560071000000.0 94180900000.0 827144000000.0 1.12807e+12 303647000000.0 564942000000.0 640489000000.0 287391000000.0 28005500000.0 274153000000.0 248109000000.0 256738000000.0 34575800000.0 67814400000.0 46328100000.0 262344000000.0 276967000000.0 242252000000.0 51277400000.0 412070000000.0 377045000000.0 771317000000.0 78498100000.0 136743000000.0 136306000000.0 188617000000.0 424217000000.0 389857000000.0 252696000000.0 162353000000.0 286514000000.0 311450000000.0 174640000000.0 89570200000.0 266932000000.0 61041900000.0 165734000000.0 355691000000.0 126447000000.0 91817200000.0 110905000000.0 110948000000.0 50615100000.0 50615100000.0 110948000000.0 110905000000.0 91817200000.0 126447000000.0 355691000000.0 165734000000.0 61041900000.0 266932000000.0 89570200000.0 174640000000.0 311451000000.0 286514000000.0 162353000000.0 252696000000.0 389857000000.0 424217000000.0 188617000000.0 136306000000.0 136743000000.0 78498100000.0 771317000000.0 377044000000.0 412070000000.0 51277400000.0 242252000000.0 276967000000.0 262344000000.0 46328100000.0 67814400000.0 63743300000.0 280635000000.0 268460000000.0 306957000000.0 128509000000.0 648318000000.0 80611000000.0 298011000000.0 254581000000.0 261488000000.0 180795000000.0 315638000000.0 565322000000.0 131254000000.0 210679000000.0 469263000000.0 118540000000.0 146535000000.0 51179100000.0 10193400000.0 41311200000.0 62903700000.0 43448100000.0 276315000000.0 232222000000.0 160252000000.0 16798800000.0 192569000000.0 116335000000.0 192569000000.0 16798800000.0 160252000000.0 232222000000.0 276315000000.0 43448100000.0 62903600000.0 41311200000.0 10193400000.0 51179100000.0 146536000000.0 118540000000.0 469263000000.0 210679000000.0 131254000000.0 565322000000.0 315638000000.0 180795000000.0 261488000000.0 254581000000.0 298011000000.0 80611000000.0 648318000000.0 128509000000.0 306957000000.0 268460000000.0 280635000000.0 63743300000.0 69314400000.0 286600000000.0 275353000000.0 275678000000.0 268123000000.0 297083000000.0 352202000000.0 275154000000.0 108197000000.0 135171000000.0 906722000000.0 357696000000.0 333735000000.0 411778000000.0 592131000000.0 572233000000.0 156491000000.0 97667000000.0 411509000000.0 218020000000.0 239711000000.0 343712000000.0 367641000000.0 202826000000.0 124421000000.0 61850200000.0 24476600000.0 36649300000.0 112581000000.0 234507000000.0 10636800000.0 224285000000.0 10636800000.0 234507000000.0 112581000000.0 36649400000.0 24476600000.0 61850200000.0 124421000000.0 202826000000.0 367641000000.0 343712000000.0 239711000000.0 218020000000.0 411509000000.0 97667000000.0 156491000000.0 572233000000.0 592131000000.0 411778000000.0 333735000000.0 357696000000.0 906722000000.0 135171000000.0 108197000000.0 275154000000.0 352202000000.0 297083000000.0 268123000000.0 275678000000.0 275353000000.0 286600000000.0 69314400000.0 164795000000.0 26339700000.0 302287000000.0 301681000000.0 292305000000.0 267476000000.0 329272000000.0 220340000000.0 378353000000.0 825249000000.0 402975000000.0 332666000000.0 82646500000.0 130945000000.0 396497000000.0 66532200000.0 4920840000.0 92333200000.0 158709000000.0 46202600000.0 79539500000.0 105160000000.0 14994000000.0 6089630000.0 36393200000.0 82388500000.0 95568300000.0 39112700000.0 55833200000.0 55833200000.0 39112700000.0 95568300000.0 82388500000.0 36393200000.0 6089640000.0 14994000000.0 105160000000.0 79539500000.0 46202600000.0 158709000000.0 92333200000.0 4920840000.0 66532200000.0 396497000000.0 130945000000.0 82646500000.0 332666000000.0 402975000000.0 825249000000.0 378353000000.0 220340000000.0 329272000000.0 267476000000.0 292305000000.0 301681000000.0 302287000000.0 26339700000.0 164795000000.0 16754000000.0 114408000000.0 442139000000.0 325839000000.0 248168000000.0 223742000000.0 421636000000.0 584616000000.0 79094100000.0 71329200000.0 90901200000.0 673081000000.0 783961000000.0 534319000000.0 433706000000.0 382242000000.0 371824000000.0 101236000000.0 85455000000.0 160916000000.0 486848000000.0 563594000000.0 673651000000.0 453942000000.0 397747000000.0 158702000000.0 197702000000.0 65652800000.0 244055000000.0 71974600000.0 13038600000.0 146724000000.0 276220000000.0 140067000000.0 276220000000.0 146724000000.0 13038600000.0 71974600000.0 244055000000.0 65652800000.0 197702000000.0 158702000000.0 397747000000.0 453942000000.0 673651000000.0 563594000000.0 486848000000.0 160916000000.0 85455000000.0 101236000000.0 371824000000.0 382242000000.0 433706000000.0 534319000000.0 783961000000.0 673081000000.0 90901200000.0 71329200000.0 79094100000.0 584616000000.0 421636000000.0 223742000000.0 248168000000.0 325839000000.0 442139000000.0 114408000000.0 16754000000.0 13701400000.0 324572000000.0 244427000000.0 330545000000.0 94550200000.0 169844000000.0 485186000000.0 197104000000.0 359652000000.0 363180000000.0 589686000000.0 534534000000.0 464014000000.0 412861000000.0 445015000000.0 333521000000.0 378720000000.0 395675000000.0 303291000000.0 255033000000.0 219191000000.0 201056000000.0 148903000000.0 71395500000.0 89571800000.0 15169400000.0 170393000000.0 27852700000.0 296218000000.0 14952800000.0 207257000000.0 14952700000.0 296218000000.0 27852700000.0 170393000000.0 15169400000.0 89571800000.0 71395500000.0 148903000000.0 201056000000.0 219191000000.0 255033000000.0 303291000000.0 395675000000.0 378720000000.0 333521000000.0 445015000000.0 412861000000.0 464014000000.0 534534000000.0 589686000000.0 363180000000.0 359652000000.0 197104000000.0 485186000000.0 169844000000.0 94550200000.0 330545000000.0 244427000000.0 324572000000.0 13701400000.0 428084000000.0 88323500000.0 425790000000.0 363702000000.0 550388000000.0 44519100000.0 743781000000.0 354468000000.0 493822000000.0 668465000000.0 642615000000.0 622213000000.0 520507000000.0 391768000000.0 561185000000.0 375253000000.0 99785000000.0 156676000000.0 106201000000.0 213407000000.0 231162000000.0 50428100000.0 83386300000.0 26596900000.0 56666400000.0 24156000000.0 25990500000.0 10815800000.0 24054800000.0 24054800000.0 10815800000.0 25990500000.0 24156000000.0 56666400000.0 26596900000.0 83386300000.0 50428100000.0 231162000000.0 213407000000.0 106201000000.0 156676000000.0 99785000000.0 375253000000.0 561185000000.0 391768000000.0 520507000000.0 622213000000.0 642615000000.0 668465000000.0 493822000000.0 354468000000.0 743781000000.0 44519100000.0 550388000000.0 363702000000.0 425789000000.0 88323500000.0 428084000000.0 205853000000.0 345190000000.0 62778300000.0 97373600000.0 523749000000.0 572017000000.0 170573000000.0 560139000000.0 602132000000.0 495227000000.0 308571000000.0 562334000000.0 434475000000.0 296771000000.0 136478000000.0 19297000000.0 69021800000.0 122019000000.0 246126000000.0 246569000000.0 238861000000.0 100284000000.0 233021000000.0 80387600000.0 178907000000.0 23491700000.0 116054000000.0 134607000000.0 204043000000.0 190006000000.0 257271000000.0 176262000000.0 257271000000.0 190006000000.0 204043000000.0 134607000000.0 116054000000.0 23491700000.0 178907000000.0 80387600000.0 233021000000.0 100284000000.0 238861000000.0 246569000000.0 246126000000.0 122019000000.0 69021800000.0 19297000000.0 136478000000.0 296771000000.0 434475000000.0 562334000000.0 308571000000.0 495227000000.0 602132000000.0 560139000000.0 170573000000.0 572017000000.0 523749000000.0 97373600000.0 62778300000.0 345190000000.0 205853000000.0 96171600000.0 246631000000.0 707351000000.0 165343000000.0 553451000000.0 332309000000.0 562196000000.0 471566000000.0 409528000000.0 354783000000.0 224395000000.0 201079000000.0 47201500000.0 106054000000.0 6095060000.0 14421600000.0 9636390000.0 6689260000.0 180593000000.0 15048900000.0 113585000000.0 24641100000.0 204833000000.0 44091700000.0 155392000000.0 44091700000.0 204833000000.0 24641100000.0 113585000000.0 15048900000.0 180593000000.0 6689270000.0 9636390000.0 14421600000.0 6095060000.0 106054000000.0 47201500000.0 201079000000.0 224395000000.0 354783000000.0 409528000000.0 471566000000.0 562196000000.0 332309000000.0 553451000000.0 165343000000.0 707351000000.0 246631000000.0 96171600000.0 87351400000.0 104372000000.0 67059900000.0 650736000000.0 84758200000.0 138173000000.0 495861000000.0 177516000000.0 93135700000.0 118601000000.0 335926000000.0 540045000000.0 445394000000.0 228782000000.0 503566000000.0 307598000000.0 325950000000.0 259921000000.0 159005000000.0 6531770000.0 103161000000.0 22269100000.0 154944000000.0 54138400000.0 131405000000.0 44531100000.0 3848840000.0 3848850000.0 44531100000.0 131405000000.0 54138400000.0 154944000000.0 22269100000.0 103161000000.0 6531770000.0 159005000000.0 259921000000.0 325950000000.0 307598000000.0 503566000000.0 228782000000.0 445394000000.0 540045000000.0 335926000000.0 118601000000.0 93135700000.0 177516000000.0 495861000000.0 138173000000.0 84758300000.0 650735000000.0 67059900000.0 104372000000.0 87351400000.0 21732500000.0 67726100000.0 58042400000.0 202287000000.0 125155000000.0 49750900000.0 60954200000.0 307693000000.0 523032000000.0 237259000000.0 412396000000.0 456279000000.0 426620000000.0 380990000000.0 154998000000.0 156791000000.0 218406000000.0 280828000000.0 239354000000.0 145384000000.0 140050000000.0 75332600000.0 120237000000.0 89970500000.0 128283000000.0 3303760000.0 107107000000.0 76080800000.0 38077700000.0 91156400000.0 60515400000.0 36871800000.0 60515400000.0 91156300000.0 38077700000.0 76080800000.0 107107000000.0 3303770000.0 128283000000.0 89970500000.0 120237000000.0 75332600000.0 140050000000.0 145384000000.0 239354000000.0 280828000000.0 218406000000.0 156791000000.0 154998000000.0 380990000000.0 426620000000.0 456279000000.0 412396000000.0 237259000000.0 523032000000.0 307693000000.0 60954200000.0 49750900000.0 125155000000.0 202287000000.0 58042400000.0 67726100000.0 21732500000.0 125775000000.0 77917200000.0 121039000000.0 319101000000.0 135696000000.0 83231300000.0 101741000000.0 280494000000.0 312895000000.0 290219000000.0 425392000000.0 387678000000.0 268070000000.0 91321000000.0 51002600000.0 109246000000.0 48254300000.0 98853400000.0 52123000000.0 39871600000.0 314919000.0 2301290000.0 13446600000.0 42934700000.0 5190950000.0 64076600000.0 9968750000.0 85178800000.0 15697700000.0 75945100000.0 38287200000.0 152147000000.0 46036200000.0 131813000000.0 46036200000.0 152147000000.0 38287200000.0 75945100000.0 15697700000.0 85178900000.0 9968740000.0 64076600000.0 5190950000.0 42934700000.0 13446600000.0 2301290000.0 314915000.0 39871600000.0 52123000000.0 98853400000.0 48254300000.0 109246000000.0 51002600000.0 91321000000.0 268070000000.0 387678000000.0 425392000000.0 290219000000.0 312895000000.0 280494000000.0 101741000000.0 83231400000.0 135696000000.0 319101000000.0 121039000000.0 77917200000.0 125775000000.0 61218700000.0 161353000000.0 169628000000.0 264530000000.0 188726000000.0 167835000000.0 247305000000.0 150129000000.0 150999000000.0 108027000000.0 227277000000.0 334963000000.0 359375000000.0 287322000000.0 161992000000.0 117077000000.0 112262000000.0 100793000000.0 59077600000.0 59077600000.0 100793000000.0 112262000000.0 117077000000.0 161992000000.0 287322000000.0 359375000000.0 334963000000.0 227277000000.0 108027000000.0 150999000000.0 150129000000.0 247305000000.0 167835000000.0 188726000000.0 264530000000.0 169628000000.0 161353000000.0 61218700000.0 33721400000.0 137187000000.0 167917000000.0 235723000000.0 145417000000.0 130580000000.0 160453000000.0 188181000000.0 144448000000.0 48693300000.0 76045400000.0 217606000000.0 336742000000.0 404506000000.0 510247000000.0 595016000000.0 400529000000.0 316183000000.0 148989000000.0 155993000000.0 84446800000.0 77775100000.0 84710100000.0 25901500000.0 67751600000.0 806692000.0 119671000000.0 87811100000.0 198215000000.0 83398400000.0 216607000000.0 111793000000.0 216607000000.0 83398400000.0 198215000000.0 87811100000.0 119671000000.0 806716000.0 67751600000.0 25901500000.0 84710100000.0 77775200000.0 84446800000.0 155993000000.0 148989000000.0 316183000000.0 400529000000.0 595016000000.0 510247000000.0 404506000000.0 336742000000.0 217606000000.0 76045400000.0 48693300000.0 144448000000.0 188181000000.0 160453000000.0 130580000000.0 145417000000.0 235723000000.0 167917000000.0 137187000000.0 33721400000.0 124597000000.0 140966000000.0 109283000000.0 62808400000.0 144576000000.0 318207000000.0 293725000000.0 289851000000.0 90432700000.0 140003000000.0 261854000000.0 231313000000.0 221907000000.0 161112000000.0 159271000000.0 137885000000.0 103927000000.0 133388000000.0 42670900000.0 86217600000.0 121724000000.0 7052170000.0 129659000000.0 12139900000.0 154256000000.0 16486000000.0 143159000000.0 16486000000.0 154256000000.0 12139900000.0 129659000000.0 7052170000.0 121724000000.0 86217600000.0 42670900000.0 133388000000.0 103927000000.0 137885000000.0 159271000000.0 161112000000.0 221907000000.0 231313000000.0 261854000000.0 140003000000.0 90432700000.0 289851000000.0 293725000000.0 318207000000.0 144576000000.0 62808400000.0 109283000000.0 140966000000.0 124597000000.0 6869680000.0 42353900000.0 146668000000.0 152829000000.0 102231000000.0 92209000000.0 89001300000.0 141499000000.0 177619000000.0 44070900000.0 419554000000.0 385776000000.0 436807000000.0 251893000000.0 135895000000.0 44911600000.0 6706150000.0 75467500000.0 75467500000.0 6706150000.0 44911600000.0 135895000000.0 251893000000.0 436807000000.0 385776000000.0 419554000000.0 44070900000.0 177619000000.0 141499000000.0 89001300000.0 92209000000.0 102231000000.0 152830000000.0 146668000000.0 42353900000.0 6869700000.0 28316900000.0 86630400000.0 120700000000.0 110997000000.0 114260000000.0 68167300000.0 60552300000.0 38512000000.0 186696000000.0 41740800000.0 68703800000.0 214445000000.0 109967000000.0 180350000000.0 113308000000.0 115675000000.0 148204000000.0 187182000000.0 129193000000.0 145644000000.0 101643000000.0 7186910000.0 7752070000.0 24804100000.0 3529120000.0 40278500000.0 17849100000.0 30882400000.0 41065600000.0 51723500000.0 76248500000.0 61203700000.0 130129000000.0 22431400000.0 154670000000.0 29433000000.0 166230000000.0 47339700000.0 166230000000.0 29433100000.0 154670000000.0 22431400000.0 130129000000.0 61203700000.0 76248500000.0 51723500000.0 41065600000.0 30882400000.0 17849100000.0 40278500000.0 3529130000.0 24804100000.0 7752070000.0 7186910000.0 101643000000.0 145644000000.0 129193000000.0 187182000000.0 148204000000.0 115675000000.0 113308000000.0 180350000000.0 109967000000.0 214445000000.0 68703800000.0 41740800000.0 186696000000.0 38512000000.0 60552300000.0 68167300000.0 114260000000.0 110997000000.0 120700000000.0 86630400000.0 28316800000.0 527017000.0 25036800000.0 49536400000.0 50645100000.0 64228500000.0 37832200000.0 20386600000.0 8234700000.0 95562900000.0 90125500000.0 51632000000.0 91940500000.0 13458800000.0 15931200000.0 16792500000.0 4345790000.0 45337700000.0 3453730000.0 69451900000.0 588006000.0 116647000000.0 1592650000.0 162998000000.0 7842650000.0 133531000000.0 9396750000.0 136888000000.0 10892900000.0 128963000000.0 10892900000.0 136888000000.0 9396750000.0 133531000000.0 7842650000.0 162998000000.0 1592640000.0 116647000000.0 588006000.0 69451900000.0 3453730000.0 45337700000.0 4345790000.0 16792500000.0 15931200000.0 13458800000.0 91940500000.0 51632000000.0 90125500000.0 95562900000.0 8234700000.0 20386600000.0 37832200000.0 64228500000.0 50645100000.0 49536400000.0 25036800000.0 527021000.0 4071310000.0 73382400000.0 41814400000.0 36207600000.0 191803000000.0 183125000000.0 197300000000.0 145896000000.0 93556000000.0 93556000000.0 145896000000.0 197300000000.0 183125000000.0 191803000000.0 36207600000.0 41814400000.0 73382400000.0 4071310000.0 9035750000.0 38568400000.0 46742000000.0 36866200000.0 26023800000.0 6805240000.0 5980630000.0 4417060000.0 47471500000.0 27088100000.0 11093100000.0 62608500000.0 173615000000.0 132521000000.0 43570100000.0 56302900000.0 169873000000.0 235852000000.0 277178000000.0 313523000000.0 287198000000.0 284613000000.0 258582000000.0 215308000000.0 196050000000.0 122276000000.0 148740000000.0 57039100000.0 116899000000.0 10964900000.0 99816800000.0 54085800000.0 90246300000.0 33935900000.0 79327800000.0 36322700000.0 72872700000.0 32129500000.0 72872700000.0 36322700000.0 79327800000.0 33935900000.0 90246300000.0 54085900000.0 99816800000.0 10964900000.0 116899000000.0 57039100000.0 148740000000.0 122276000000.0 196050000000.0 215308000000.0 258582000000.0 284613000000.0 287198000000.0 313523000000.0 277178000000.0 235852000000.0 169873000000.0 56302900000.0 43570100000.0 132521000000.0 173615000000.0 62608500000.0 11093100000.0 27088100000.0 47471500000.0 4417060000.0 5980630000.0 6805240000.0 26023800000.0 36866200000.0 46742000000.0 38568400000.0 9035750000.0 3660320000.0 2815630000.0 12190100000.0 35573700000.0 53601200000.0 89792500000.0 116458000000.0 140841000000.0 107526000000.0 88895000000.0 42393000000.0 27309900000.0 170925000000.0 172402000000.0 143629000000.0 124115000000.0 48084200000.0 50501800000.0 29295800000.0 6000950000.0 50907000000.0 7391630000.0 48325500000.0 6180690000.0 78134200000.0 6296620000.0 97341200000.0 6179420000.0 129959000000.0 6994890000.0 147479000000.0 8142730000.0 120352000000.0 8719180000.0 107770000000.0 9035750000.0 102094000000.0 9035750000.0 107770000000.0 8719180000.0 120352000000.0 8142730000.0 147479000000.0 6994890000.0 129959000000.0 6179420000.0 97341200000.0 6296620000.0 78134200000.0 6180690000.0 48325500000.0 7391630000.0 50907000000.0 6000950000.0 29295800000.0 50501800000.0 48084200000.0 124115000000.0 143629000000.0 172402000000.0 170925000000.0 27309800000.0 42393000000.0 88895000000.0 107526000000.0 140841000000.0 116458000000.0 89792500000.0 53601200000.0 35573700000.0 12190100000.0 2815630000.0 3660310000.0 52778600000.0 52778600000.0 10522200000.0 27017400000.0 39188500000.0 36256100000.0 33049100000.0 24268500000.0 16128800000.0 10902700000.0 51884400000.0 74761500000.0 84456200000.0 103304000000.0 89736700000.0 164892000000.0 148420000000.0 97977200000.0 49333000000.0 34265000000.0 26909200000.0 40827200000.0 44895800000.0 10316700000.0 26500200000.0 23504700000.0 13770900000.0 64154600000.0 6113310000.0 87000600000.0 136263000.0 118449000000.0 6848240000.0 132749000000.0 9035750000.0 108427000000.0 9035750000.0 92763100000.0 9035750000.0 88216200000.0 9035750000.0 92763100000.0 9035750000.0 108427000000.0 9035750000.0 132749000000.0 6848230000.0 118449000000.0 136262000.0 87000600000.0 6113310000.0 64154600000.0 13770900000.0 23504700000.0 26500200000.0 10316700000.0 44895800000.0 40827200000.0 26909200000.0 34265000000.0 49333000000.0 97977200000.0 148420000000.0 164892000000.0 89736700000.0 103304000000.0 84456200000.0 74761500000.0 51884400000.0 10902700000.0 16128800000.0 24268500000.0 33049100000.0 36256100000.0 39188500000.0 27017400000.0 10522200000.0 11922200000.0 20264000000.0 33230300000.0 31309500000.0 26145700000.0 21769500000.0 10944100000.0 527826000.0 29525900000.0 160282000000.0 138905000000.0 106682000000.0 56237600000.0 50902000000.0 26494000000.0 8719300000.0 53313500000.0 8797960000.0 54075900000.0 9035750000.0 82296700000.0 9035750000.0 96181600000.0 9035750000.0 114600000000.0 9035750000.0 117439000000.0 9035750000.0 95979000000.0 9035750000.0 79591000000.0 9035750000.0 76174000000.0 9035750000.0 79591000000.0 9035750000.0 95978900000.0 9035750000.0 117439000000.0 9035750000.0 114600000000.0 9035750000.0 96181600000.0 9035750000.0 82296700000.0 9035750000.0 54075900000.0 8797960000.0 53313500000.0 8719300000.0 26494000000.0 50902000000.0 56237600000.0 106682000000.0 138905000000.0 160282000000.0 29525900000.0 527824000.0 10944100000.0 21769500000.0 26145700000.0 31309500000.0 33230300000.0 20264000000.0 11922200000.0 54294800000.0 56592500000.0 74564000000.0 78357400000.0 138671000000.0 138671000000.0 78357400000.0 74564000000.0 56592500000.0 54294800000.0 15282300000.0 21349600000.0 36749500000.0 39564200000.0 36305300000.0 38101900000.0 29962300000.0 19351200000.0 45107100000.0 74331900000.0 69793400000.0 83992600000.0 100764000000.0 132052000000.0 142423000000.0 114483000000.0 78563800000.0 51160500000.0 44912000000.0 22952400000.0 6792600000.0 50065100000.0 8566460000.0 54187900000.0 9035760000.0 79706000000.0 9035750000.0 91209000000.0 9035750000.0 104938000000.0 9035750000.0 103899000000.0 9035760000.0 84272900000.0 9035750000.0 68337100000.0 9035750000.0 65777100000.0 9035750000.0 68337100000.0 9035750000.0 84272900000.0 9035760000.0 103899000000.0 9035750000.0 104938000000.0 9035750000.0 91209000000.0 9035750000.0 79706000000.0 9035760000.0 54187900000.0 8566460000.0 50065100000.0 6792600000.0 22952400000.0 44912000000.0 51160500000.0 78563800000.0 114483000000.0 142423000000.0 132052000000.0 100764000000.0 83992600000.0 69793400000.0 74331900000.0 45107100000.0 19351200000.0 29962300000.0 38101900000.0 36305300000.0 39564200000.0 36749500000.0 21349600000.0 15282300000.0 34254200000.0 69121900000.0 55348400000.0 46868100000.0 26413800000.0 9035760000.0 9035750000.0 9035760000.0 9035760000.0 9035760000.0 9035760000.0 91992500000.0 9035760000.0 73493700000.0 9035750000.0 58753900000.0 9035750000.0 56839500000.0 9035750000.0 58753900000.0 9035750000.0 73493700000.0 9035760000.0 91992500000.0 9035760000.0 9035760000.0 9035760000.0 9035760000.0 9035750000.0 9035760000.0 26413900000.0 46868100000.0 55348400000.0 69121900000.0 34254200000.0 17285300000.0 20166900000.0 39533500000.0 36926900000.0 41566000000.0 34520900000.0 22012500000.0 42124900000.0 72395700000.0 63777900000.0 74514500000.0 102519000000.0 119407000000.0 127084000000.0 102167000000.0 49499900000.0 53456400000.0 76414400000.0 85644600000.0 95767900000.0 95767900000.0 85644600000.0 76414400000.0 53456400000.0 49499900000.0 102167000000.0 127084000000.0 119407000000.0 102519000000.0 74514500000.0 63777900000.0 72395700000.0 42124900000.0 22012500000.0 34520900000.0 41566000000.0 36926900000.0 39533500000.0 20166900000.0 17285300000.0 19239400000.0 20108600000.0 32090000000.0 39597200000.0 38550900000.0 45321700000.0 40188600000.0 26728500000.0 43319000000.0 73696600000.0 62768000000.0 70318800000.0 105026000000.0 109580000000.0 111465000000.0 86987800000.0 60532500000.0 53120800000.0 43729600000.0 26468600000.0 9035760000.0 47788400000.0 9035760000.0 52206800000.0 9035760000.0 72647300000.0 9035760000.0 79797000000.0 9035760000.0 87222400000.0 9035760000.0 81541300000.0 9035760000.0 63747300000.0 9035750000.0 50613500000.0 9035750000.0 49186200000.0 9035750000.0 50613500000.0 9035750000.0 63747300000.0 9035760000.0 81541300000.0 9035760000.0 87222500000.0 9035760000.0 79797000000.0 9035760000.0 72647300000.0 9035760000.0 52206800000.0 9035760000.0 47788400000.0 9035760000.0 26468600000.0 43729600000.0 53120800000.0 60532500000.0 86987800000.0 111465000000.0 109580000000.0 105026000000.0 70318800000.0 62768000000.0 73696600000.0 43319000000.0 26728500000.0 40188600000.0 45321700000.0 38550900000.0 39597200000.0 32090000000.0 20108600000.0 19239400000.0 20894100000.0 20185700000.0 29342100000.0 38447000000.0 39070200000.0 47102300000.0 43936700000.0 29785800000.0 43532200000.0 73261100000.0 62041000000.0 66763300000.0 105475000000.0 102127000000.0 99757700000.0 75643500000.0 57098200000.0 50702100000.0 40211400000.0 26646400000.0 9035760000.0 46172800000.0 9035760000.0 50541800000.0 9035760000.0 68598600000.0 9035760000.0 73913200000.0 9035760000.0 79319200000.0 9035760000.0 72358400000.0 9035760000.0 55074400000.0 9035750000.0 43712400000.0 9035750000.0 42655900000.0 9035750000.0 43712400000.0 9035750000.0 55074400000.0 9035760000.0 72358400000.0 9035760000.0 79319200000.0 9035760000.0 73913200000.0 9035760000.0 68598600000.0 9035760000.0 50541800000.0 9035760000.0 46172800000.0 9035760000.0 26646400000.0 40211400000.0 50702100000.0 57098200000.0 75643500000.0 99757700000.0 102127000000.0 105475000000.0 66763300000.0 62041000000.0 73261100000.0 43532200000.0 29785800000.0 43936700000.0 47102300000.0 39070200000.0 38447000000.0 29342100000.0 20185700000.0 20894100000.0 22323700000.0 20499400000.0 26722300000.0 36951300000.0 39119200000.0 48021400000.0 46766300000.0 32383600000.0 43906800000.0 72261200000.0 62356900000.0 64547300000.0 104342000000.0 95831200000.0 90265900000.0 67491200000.0 54944100000.0 47672100000.0 36319500000.0 26831500000.0 9035770000.0 44572600000.0 9035760000.0 48571200000.0 9035760000.0 64427600000.0 9035760000.0 68182200000.0 9035760000.0 72045700000.0 9035760000.0 64267500000.0 9035760000.0 47465500000.0 9035750000.0 37873400000.0 9035750000.0 37102700000.0 9035750000.0 37873300000.0 9035750000.0 47465500000.0 9035760000.0 64267500000.0 9035760000.0 72045700000.0 9035760000.0 68182200000.0 9035760000.0 64427600000.0 9035760000.0 48571200000.0 9035760000.0 44572600000.0 9035770000.0 26831500000.0 36319500000.0 47672100000.0 54944100000.0 67491200000.0 90265900000.0 95831200000.0 104342000000.0 64547300000.0 62356900000.0 72261200000.0 43906800000.0 32383600000.0 46766300000.0 48021400000.0 39119200000.0 36951300000.0 26722300000.0 20499400000.0 22323700000.0 23525100000.0 20982000000.0 24447700000.0 35291800000.0 38650200000.0 48240900000.0 48734800000.0 34505600000.0 44361900000.0 70679400000.0 63007400000.0 63177600000.0 101613000000.0 90389000000.0 82649700000.0 62109200000.0 52579100000.0 44398100000.0 32422100000.0 26857000000.0 9035770000.0 42938800000.0 9035770000.0 46394900000.0 9035760000.0 60257000000.0 9035760000.0 62731300000.0 9035760000.0 65378700000.0 9035760000.0 57111900000.0 9035760000.0 40874300000.0 9035750000.0 32943600000.0 9035750000.0 32395900000.0 9035750000.0 32943600000.0 9035750000.0 40874300000.0 9035760000.0 57111900000.0 9035760000.0 65378700000.0 9035760000.0 62731300000.0 9035760000.0 60257000000.0 9035760000.0 46394900000.0 9035770000.0 42938800000.0 9035770000.0 26857000000.0 32422100000.0 44398100000.0 52579100000.0 62109200000.0 82649700000.0 90389000000.0 101613000000.0 63177600000.0 63007400000.0 70679400000.0 44361900000.0 34505600000.0 48734800000.0 48240900000.0 38650200000.0 35291800000.0 24447700000.0 20982000000.0 23525100000.0 24499800000.0 21531800000.0 22606400000.0 33589700000.0 37703700000.0 47879900000.0 49935500000.0 36159500000.0 44701800000.0 68673300000.0 63550000000.0 62259700000.0 97558500000.0 85370600000.0 76401900000.0 58293400000.0 49644600000.0 41047700000.0 28736200000.0 26663300000.0 9035770000.0 41247600000.0 9035770000.0 44101000000.0 9035760000.0 56179500000.0 9035760000.0 57633100000.0 9035760000.0 59285600000.0 9035760000.0 50760800000.0 9035760000.0 35229800000.0 9035750000.0 28791900000.0 9035750000.0 28419700000.0 9035750000.0 28791900000.0 9035750000.0 35229800000.0 9035760000.0 50760800000.0 9035760000.0 59285600000.0 9035760000.0 57633100000.0 9035760000.0 56179500000.0 9035760000.0 44101000000.0 9035770000.0 41247600000.0 9035770000.0 26663300000.0 28736200000.0 41047700000.0 49644600000.0 58293400000.0 76401900000.0 85370600000.0 97558500000.0 62259700000.0 63550000000.0 68673300000.0 44701800000.0 36159500000.0 49935500000.0 47879900000.0 37703700000.0 33589700000.0 22606400000.0 21531800000.0 24499800000.0 25253000000.0 22031000000.0 21201600000.0 31937400000.0 36383200000.0 47040500000.0 50464900000.0 37370700000.0 44726600000.0 66401500000.0 63760000000.0 61456800000.0 92549800000.0 80391700000.0 70914000000.0 54996200000.0 46266800000.0 37759200000.0 25393100000.0 26271200000.0 9035780000.0 39497300000.0 9035770000.0 41765400000.0 9035760000.0 52262800000.0 9035760000.0 52919900000.0 9035760000.0 53728500000.0 9035760000.0 45112600000.0 9035760000.0 30445700000.0 9035750000.0 25305500000.0 9035750000.0 25071800000.0 9035750000.0 25305500000.0 9035750000.0 30445700000.0 9035760000.0 45112600000.0 9035760000.0 53728500000.0 9035760000.0 52919900000.0 9035760000.0 52262800000.0 9035760000.0 41765400000.0 9035770000.0 39497300000.0 9035780000.0 26271200000.0 25393100000.0 37759200000.0 46266800000.0 54996200000.0 70914000000.0 80391700000.0 92549800000.0 61456800000.0 63760000000.0 66401500000.0 44726600000.0 37370700000.0 50464900000.0 47040500000.0 36383200000.0 31937400000.0 21201600000.0 22031000000.0 25253000000.0 25792900000.0 22404700000.0 20183700000.0 30392300000.0 34808100000.0 45812400000.0 50414300000.0 38175100000.0 44367900000.0 63989100000.0 63504700000.0 60532000000.0 86944100000.0 75278700000.0 65727900000.0 51702500000.0 42651800000.0 34632800000.0 22452900000.0 25727200000.0 9035780000.0 37700500000.0 9035770000.0 39448500000.0 9035770000.0 48550900000.0 9035760000.0 48596400000.0 9035760000.0 48670000000.0 9035760000.0 40088800000.0 9035760000.0 26428500000.0 9035750000.0 22387400000.0 9035750000.0 22262500000.0 9035750000.0 22387400000.0 9035750000.0 26428400000.0 9035760000.0 40088800000.0 9035760000.0 48670000000.0 9035760000.0 48596400000.0 9035760000.0 48550900000.0 9035770000.0 39448500000.0 9035770000.0 37700500000.0 9035780000.0 25727200000.0 22452900000.0 34632800000.0 42651800000.0 51702500000.0 65727900000.0 75278700000.0 86944100000.0 60532000000.0 63504700000.0 63989100000.0 44367900000.0 38175100000.0 50414300000.0 45812400000.0 34808100000.0 30392300000.0 20183700000.0 22404700000.0 25792900000.0 26130500000.0 22627800000.0 19471800000.0 28980800000.0 33086500000.0 44275600000.0 49870500000.0 38613200000.0 43663600000.0 61531600000.0 62728400000.0 59328100000.0 81038700000.0 70053700000.0 60660800000.0 48301400000.0 38981300000.0 31733700000.0 19926000000.0 25078500000.0 9035780000.0 35877500000.0 9035770000.0 37194800000.0 9035770000.0 45068600000.0 9035760000.0 44647700000.0 9035760000.0 44076000000.0 9035760000.0 35627600000.0 9035760000.0 23083500000.0 9035750000.0 19953400000.0 9035750000.0 19913100000.0 9035750000.0 19953400000.0 9035750000.0 23083500000.0 9035760000.0 35627600000.0 9035760000.0 44076000000.0 9035760000.0 44647700000.0 9035760000.0 45068600000.0 9035770000.0 37194800000.0 9035770000.0 35877500000.0 9035780000.0 25078500000.0 19926000000.0 31733700000.0 38981300000.0 48301400000.0 60660800000.0 70053700000.0 81038700000.0 59328100000.0 62728400000.0 61531600000.0 43663600000.0 38613200000.0 49870500000.0 44275600000.0 33086500000.0 28980800000.0 19471800000.0 22627800000.0 26130500000.0 26278800000.0 22702400000.0 18979600000.0 27710400000.0 31304800000.0 42503800000.0 48916400000.0 38726000000.0 42689900000.0 59095600000.0 61457600000.0 57769000000.0 75063400000.0 64825500000.0 55711700000.0 44849600000.0 35396900000.0 29097600000.0 17791800000.0 24364500000.0 9035780000.0 34052600000.0 9035770000.0 35034600000.0 9035770000.0 41825500000.0 9035760000.0 41047500000.0 9035760000.0 39915200000.0 9035760000.0 31678200000.0 9035760000.0 20319400000.0 9035750000.0 17931000000.0 9035750000.0 17955200000.0 9035750000.0 17931000000.0 9035750000.0 20319400000.0 9035760000.0 31678200000.0 9035760000.0 39915200000.0 9035760000.0 41047500000.0 9035760000.0 41825500000.0 9035770000.0 35034600000.0 9035770000.0 34052600000.0 9035780000.0 24364500000.0 17791800000.0 29097600000.0 35396900000.0 44849600000.0 55711700000.0 64825500000.0 75063400000.0 57769000000.0 61457600000.0 59095600000.0 42689900000.0 38726000000.0 48916500000.0 42503800000.0 31304800000.0 27710400000.0 18979600000.0 22702400000.0 26278800000.0 26252200000.0 22640700000.0 18633400000.0 26575900000.0 29527500000.0 40563900000.0 47629800000.0 38553100000.0 41522300000.0 56718600000.0 59770800000.0 55856300000.0 69187300000.0 59712200000.0 50944900000.0 41438500000.0 32000800000.0 26737500000.0 16013600000.0 23614900000.0 9035780000.0 32251100000.0 9035770000.0 32986000000.0 9035770000.0 38820200000.0 9035760000.0 37765400000.0 9035760000.0 36157800000.0 9035760000.0 28197600000.0 9035760000.0 18051000000.0 9035750000.0 16257000000.0 9035750000.0 16329000000.0 9035750000.0 16257000000.0 9035750000.0 18051000000.0 9035760000.0 28197600000.0 9035760000.0 36157800000.0 9035760000.0 37765400000.0 9035760000.0 38820200000.0 9035770000.0 32986000000.0 9035770000.0 32251100000.0 9035780000.0 23614900000.0 16013600000.0 26737500000.0 32000800000.0 41438500000.0 50944900000.0 59712200000.0 69187300000.0 55856300000.0 59770800000.0 56718600000.0 41522300000.0 38553100000.0 47629800000.0 40563900000.0 29527500000.0 26575900000.0 18633400000.0 22640700000.0 26252200000.0 26066400000.0 22457500000.0 18376700000.0 25563400000.0 27799800000.0 38516200000.0 46081000000.0 38132000000.0 40223000000.0 54414000000.0 57760600000.0 53644200000.0 63529700000.0 54810200000.0 46428800000.0 38148900000.0 28861100000.0 24649200000.0 14548200000.0 22848900000.0 9035790000.0 30495600000.0 9035780000.0 31057500000.0 9035770000.0 36043900000.0 9035760000.0 34771700000.0 9035760000.0 32774500000.0 9035760000.0 25147700000.0 9035760000.0 16201200000.0 9035750000.0 14876800000.0 9035750000.0 14983000000.0 9035750000.0 14876800000.0 9035750000.0 16201200000.0 9035760000.0 25147700000.0 9035760000.0 32774500000.0 9035760000.0 34771700000.0 9035760000.0 36043900000.0 9035770000.0 31057500000.0 9035780000.0 30495600000.0 9035790000.0 22848900000.0 14548200000.0 24649200000.0 28861100000.0 38148900000.0 46428800000.0 54810200000.0 63529700000.0 53644200000.0 57760600000.0 54414000000.0 40223000000.0 38132000000.0 46081000000.0 38516200000.0 27799800000.0 25563400000.0 18376700000.0 22457500000.0 26066400000.0 25737300000.0 22167700000.0 18167100000.0 24652500000.0 26151300000.0 36412800000.0 44332600000.0 37496700000.0 38839100000.0 52177900000.0 55511400000.0 51207900000.0 58169600000.0 50186800000.0 42214500000.0 35041000000.0 26016500000.0 22817100000.0 13352100000.0 22078000000.0 9035790000.0 28803100000.0 9035780000.0 29250700000.0 9035770000.0 33483500000.0 9035760000.0 32039400000.0 9035760000.0 29737100000.0 9035760000.0 22492800000.0 9035760000.0 14701600000.0 9035750000.0 13743500000.0 9035750000.0 13872500000.0 9035750000.0 13743500000.0 9035750000.0 14701600000.0 9035760000.0 22492800000.0 9035760000.0 29737100000.0 9035760000.0 32039400000.0 9035760000.0 33483500000.0 9035770000.0 29250700000.0 9035780000.0 28803100000.0 9035790000.0 22078000000.0 13352100000.0 22817100000.0 26016500000.0 35041000000.0 42214500000.0 50186800000.0 58169600000.0 51207900000.0 55511400000.0 52177900000.0 38839100000.0 37496700000.0 44332600000.0 36412800000.0 26151300000.0 24652500000.0 18167100000.0 22167700000.0 25737300000.0 25281300000.0 21785600000.0 17972400000.0 23819600000.0 24599500000.0 34298500000.0 42439000000.0 36677200000.0 37403500000.0 49995500000.0 53091900000.0 48622000000.0 53155400000.0 45883100000.0 38332700000.0 32153900000.0 23482000000.0 21218100000.0 12384200000.0 21308200000.0 9035790000.0 27185200000.0 9035780000.0 27561800000.0 9035770000.0 31123900000.0 9035760000.0 29545300000.0 9035760000.0 27018200000.0 9035760000.0 20198300000.0 9035760000.0 13492800000.0 9035750000.0 12816400000.0 9035750000.0 12959100000.0 9035750000.0 12816400000.0 9035750000.0 13492800000.0 9035760000.0 20198300000.0 9035760000.0 27018200000.0 9035760000.0 29545300000.0 9035760000.0 31123900000.0 9035770000.0 27561800000.0 9035780000.0 27185200000.0 9035790000.0 21308200000.0 12384200000.0 21218100000.0 23482000000.0 32153900000.0 38332700000.0 45883100000.0 53155400000.0 48622000000.0 53091900000.0 49995500000.0 37403500000.0 36677200000.0 42439000000.0 34298500000.0 24599500000.0 23819600000.0 17972400000.0 21785600000.0 25281300000.0 24714000000.0 21324500000.0 17768500000.0 23040200000.0 23151900000.0 32210300000.0 40446500000.0 35698800000.0 35937600000.0 47846900000.0 50555400000.0 45951700000.0 48510500000.0 41917900000.0 34795700000.0 29508000000.0 21255400000.0 19825600000.0 11607400000.0 20542400000.0 9035790000.0 25648100000.0 9035780000.0 25984000000.0 9035770000.0 28949300000.0 9035760000.0 27269500000.0 9035760000.0 24592300000.0 9035760000.0 18230300000.0 9035760000.0 12523700000.0 9035750000.0 12061000000.0 9035750000.0 12210100000.0 9035750000.0 12061000000.0 9035750000.0 12523700000.0 9035760000.0 18230300000.0 9035760000.0 24592300000.0 9035760000.0 27269500000.0 9035760000.0 28949300000.0 9035770000.0 25984000000.0 9035780000.0 25648100000.0 9035790000.0 20542400000.0 11607400000.0 19825600000.0 21255400000.0 29508000000.0 34795700000.0 41917900000.0 48510500000.0 45951700000.0 50555400000.0 47846900000.0 35937600000.0 35698800000.0 40446500000.0 32210300000.0 23151900000.0 23040200000.0 17768500000.0 21324500000.0 24714000000.0 19321800000.0 10989300000.0 9035790000.0 9035780000.0 9035770000.0 9035760000.0 25194500000.0 9035760000.0 22435100000.0 9035760000.0 16555500000.0 9035760000.0 11750900000.0 9035750000.0 11447700000.0 9035750000.0 11597700000.0 9035750000.0 11447700000.0 9035750000.0 11750900000.0 9035760000.0 16555500000.0 9035760000.0 22435100000.0 9035760000.0 25194500000.0 9035760000.0 9035770000.0 9035780000.0 9035790000.0 10989300000.0 19321800000.0 24050700000.0 20796300000.0 17537700000.0 22291600000.0 21809600000.0 30177400000.0 38393800000.0 34583100000.0 34453700000.0 45711400000.0 47942600000.0 43249700000.0 44240200000.0 38293000000.0 31601300000.0 27108300000.0 18611900000.0 19781900000.0 24193800000.0 24508700000.0 26944700000.0 26944700000.0 24508700000.0 24193800000.0 19781900000.0 18611900000.0 27108300000.0 31601300000.0 38293000000.0 44240200000.0 43249700000.0 47942600000.0 45711400000.0 34453700000.0 34583100000.0 38393800000.0 30177400000.0 21809600000.0 22291600000.0 17537700000.0 20796300000.0 24050700000.0 23305700000.0 20211800000.0 17268400000.0 21554700000.0 20569000000.0 28221700000.0 36312200000.0 33348600000.0 32957200000.0 43569700000.0 45284700000.0 40556900000.0 40335400000.0 34997400000.0 28736700000.0 24948100000.0 17658500000.0 17550100000.0 10501800000.0 19027100000.0 9035790000.0 22821400000.0 9035780000.0 23126700000.0 9035770000.0 25095500000.0 9035760000.0 23305100000.0 9035760000.0 20523900000.0 9035760000.0 15141500000.0 9035760000.0 11138000000.0 9035750000.0 10951700000.0 9035750000.0 11098400000.0 9035750000.0 10951700000.0 9035750000.0 11138000000.0 9035760000.0 15141500000.0 9035760000.0 20523900000.0 9035760000.0 23305100000.0 9035760000.0 25095500000.0 9035770000.0 23126700000.0 9035780000.0 22821400000.0 9035790000.0 19027100000.0 10501800000.0 17550100000.0 17658500000.0 24948100000.0 28736700000.0 34997400000.0 40335400000.0 40556900000.0 45284700000.0 43569700000.0 32957200000.0 33348600000.0 36312200000.0 28221700000.0 20569000000.0 21554700000.0 17268400000.0 20211800000.0 23305700000.0 22492400000.0 19580100000.0 16953800000.0 20814500000.0 19423300000.0 26357600000.0 34225900000.0 32011200000.0 31448900000.0 41406000000.0 42605500000.0 37903600000.0 36777500000.0 32011600000.0 26181000000.0 23012800000.0 16238400000.0 16615300000.0 10121400000.0 18278600000.0 9035790000.0 21527800000.0 9035770000.0 21828500000.0 9035770000.0 23388700000.0 9035760000.0 21587400000.0 9035760000.0 18837300000.0 9035760000.0 13957300000.0 9035760000.0 10654500000.0 9035750000.0 10552100000.0 9035750000.0 10692300000.0 9035750000.0 10552100000.0 9035750000.0 10654500000.0 9035760000.0 13957300000.0 9035760000.0 18837300000.0 9035760000.0 21587400000.0 9035760000.0 23388700000.0 9035770000.0 21828500000.0 9035770000.0 21527800000.0 9035790000.0 18278600000.0 10121400000.0 16615300000.0 16238400000.0 23012800000.0 26181000000.0 32011600000.0 36777500000.0 37903600000.0 42605500000.0 41406000000.0 31448900000.0 32011200000.0 34225900000.0 26357600000.0 19423300000.0 20814500000.0 16953800000.0 19580100000.0 22492400000.0 21622800000.0 18909400000.0 16590600000.0 20060200000.0 18364000000.0 24593000000.0 32153000000.0 30585100000.0 29926800000.0 39208800000.0 39923500000.0 35311000000.0 33541500000.0 29310200000.0 23909200000.0 21282900000.0 15032700000.0 15785200000.0 9828140000.0 17537100000.0 9035790000.0 20308700000.0 9035770000.0 20605300000.0 9035770000.0 21812200000.0 9035760000.0 20028300000.0 9035760000.0 17354900000.0 9035760000.0 12973700000.0 9035760000.0 10275200000.0 9035750000.0 10231300000.0 9035750000.0 10362800000.0 9035750000.0 10231300000.0 9035750000.0 10275200000.0 9035760000.0 12973700000.0 9035760000.0 17354900000.0 9035760000.0 20028300000.0 9035760000.0 21812200000.0 9035770000.0 20605300000.0 9035770000.0 20308700000.0 9035790000.0 17537100000.0 9828140000.0 15785200000.0 15032700000.0 21282900000.0 23909200000.0 29310200000.0 33541500000.0 35311000000.0 39923500000.0 39208800000.0 29926800000.0 30585100000.0 32153000000.0 24593000000.0 18364000000.0 20060200000.0 16590600000.0 18909400000.0 21622800000.0 20707700000.0 18206200000.0 16178700000.0 19285000000.0 17381700000.0 22930300000.0 30106200000.0 29082600000.0 28387300000.0 36970800000.0 37253300000.0 32793100000.0 30598900000.0 26865300000.0 21893400000.0 19736600000.0 14013200000.0 15040300000.0 9605020000.0 16803400000.0 9035780000.0 19158700000.0 9035770000.0 19448900000.0 9035770000.0 20354600000.0 9035760000.0 18615300000.0 9035760000.0 16057100000.0 9035760000.0 12163300000.0 9035760000.0 9979260000.0 9035750000.0 9974570000.0 9035750000.0 10096000000.0 9035750000.0 9974570000.0 9035750000.0 9979260000.0 9035760000.0 12163300000.0 9035760000.0 16057100000.0 9035760000.0 18615300000.0 9035760000.0 20354600000.0 9035770000.0 19448900000.0 9035770000.0 19158700000.0 9035780000.0 16803400000.0 9605020000.0 15040300000.0 14013200000.0 19736600000.0 21893400000.0 26865300000.0 30598900000.0 32793100000.0 37253300000.0 36970800000.0 28387300000.0 29082600000.0 30106200000.0 22930300000.0 17381700000.0 19285000000.0 16178700000.0 18206200000.0 20707700000.0 19756800000.0 17476200000.0 15719600000.0 18485700000.0 16466900000.0 21367600000.0 28093500000.0 27514600000.0 26826800000.0 34689000000.0 34605800000.0 30357600000.0 27919800000.0 24648000000.0 20105100000.0 18351400000.0 13153100000.0 14363900000.0 9437880000.0 16078200000.0 9035780000.0 18072000000.0 9035770000.0 18351900000.0 9035770000.0 19005600000.0 9035760000.0 17336300000.0 9035760000.0 14925400000.0 9035760000.0 11500900000.0 9035760000.0 9749660000.0 9035750000.0 9769900000.0 9035750000.0 9880340000.0 9035750000.0 9769900000.0 9035750000.0 9749660000.0 9035760000.0 11500900000.0 9035760000.0 14925400000.0 9035760000.0 17336300000.0 9035760000.0 19005600000.0 9035770000.0 18351900000.0 9035770000.0 18072000000.0 9035780000.0 16078200000.0 9437880000.0 14363900000.0 13153100000.0 18351400000.0 20105100000.0 24648000000.0 27919800000.0 30357600000.0 34605800000.0 34689000000.0 26826800000.0 27514600000.0 28093500000.0 21367600000.0 16466900000.0 18485700000.0 15719600000.0 17476200000.0 19756800000.0 18778200000.0 16723900000.0 15216300000.0 17661200000.0 15610300000.0 19899800000.0 26119300000.0 25890600000.0 25241800000.0 32363500000.0 31989400000.0 28007500000.0 25474100000.0 22629700000.0 18516400000.0 17105500000.0 12428000000.0 13742100000.0 9314760000.0 15362400000.0 9035780000.0 17042500000.0 9035770000.0 17307700000.0 9035760000.0 17755400000.0 9035760000.0 16179100000.0 9035760000.0 13942000000.0 9035760000.0 10963700000.0 9035760000.0 9572520000.0 9035750000.0 9607210000.0 9035750000.0 9706240000.0 9035750000.0 9607210000.0 9035750000.0 9572520000.0 9035760000.0 10963700000.0 9035760000.0 13942000000.0 9035760000.0 16179100000.0 9035760000.0 17755400000.0 9035760000.0 17307700000.0 9035770000.0 17042500000.0 9035780000.0 15362400000.0 9314760000.0 13742100000.0 12428000000.0 17105500000.0 18516400000.0 22629700000.0 25474100000.0 28007500000.0 31989400000.0 32363500000.0 25241800000.0 25890600000.0 26119300000.0 19899800000.0 15610300000.0 17661200000.0 15216300000.0 16723900000.0 18778200000.0 17778800000.0 15953200000.0 14672400000.0 16812500000.0 14803000000.0 18519500000.0 24185100000.0 24219100000.0 23629700000.0 29997100000.0 29410000000.0 25742100000.0 23232900000.0 20783400000.0 17100500000.0 15978500000.0 11816100000.0 13163200000.0 9225740000.0 14656600000.0 9035780000.0 16064200000.0 9035770000.0 16310200000.0 9035760000.0 16594200000.0 9035760000.0 15131900000.0 9035760000.0 13090000000.0 9035760000.0 10531100000.0 9035760000.0 9436580000.0 9035750000.0 9478220000.0 9035750000.0 9565720000.0 9035750000.0 9478220000.0 9035750000.0 9436580000.0 9035760000.0 10531100000.0 9035760000.0 13090000000.0 9035760000.0 15131900000.0 9035760000.0 16594200000.0 9035760000.0 16310200000.0 9035770000.0 16064200000.0 9035780000.0 14656600000.0 9225740000.0 13163200000.0 11816100000.0 15978500000.0 17100500000.0 20783400000.0 23232900000.0 25742100000.0 29410000000.0 29997100000.0 23629700000.0 24219100000.0 24185100000.0 18519500000.0 14803000000.0 16812500000.0 14672400000.0 15953200000.0 17778800000.0 16764300000.0 15167200000.0 14091900000.0 15941600000.0 14037100000.0 17217900000.0 22290100000.0 22507500000.0 21989300000.0 27594200000.0 26870900000.0 23557700000.0 21168600000.0 19083900000.0 15832600000.0 14951600000.0 11298300000.0 12617800000.0 9162620000.0 13961000000.0 9035780000.0 15130900000.0 9035770000.0 15353900000.0 9035760000.0 15512800000.0 9035760000.0 14182800000.0 9035760000.0 12353000000.0 9035760000.0 10184900000.0 9035760000.0 9332790000.0 9035750000.0 9376120000.0 9035750000.0 9452200000.0 9035750000.0 9376120000.0 9035750000.0 9332790000.0 9035760000.0 10184900000.0 9035760000.0 12353000000.0 9035760000.0 14182800000.0 9035760000.0 15512800000.0 9035760000.0 15353900000.0 9035770000.0 15130900000.0 9035780000.0 13961000000.0 9162620000.0 12617800000.0 11298300000.0 14951600000.0 15832600000.0 19083900000.0 21168600000.0 23557700000.0 26870900000.0 27594200000.0 21989300000.0 22507500000.0 22290100000.0 17217900000.0 14037100000.0 15941600000.0 14091900000.0 15167200000.0 16764300000.0 15739300000.0 14368400000.0 13478900000.0 15051400000.0 13305500000.0 15985500000.0 20432000000.0 20762300000.0 20320500000.0 25159900000.0 24373400000.0 21448500000.0 19255300000.0 17508000000.0 14689500000.0 14008000000.0 10857900000.0 12098100000.0 9118760000.0 13275600000.0 9035770000.0 14236800000.0 9035770000.0 14433700000.0 9035760000.0 14501800000.0 9035760000.0 13320000000.0 9035760000.0 11715500000.0 9035760000.0 9909220000.0 9035760000.0 9253870000.0 9035750000.0 9295320000.0 9035750000.0 9360220000.0 9035750000.0 9295320000.0 9035750000.0 9253870000.0 9035760000.0 9909220000.0 9035760000.0 11715500000.0 9035760000.0 13320000000.0 9035760000.0 14501800000.0 9035760000.0 14433700000.0 9035770000.0 14236800000.0 9035770000.0 13275600000.0 9118760000.0 12098100000.0 10857900000.0 14008000000.0 14689500000.0 17508000000.0 19255300000.0 21448500000.0 24373400000.0 25159900000.0 20320500000.0 20762300000.0 20432000000.0 15985500000.0 13305500000.0 15051400000.0 13478900000.0 14368400000.0 15739300000.0 14707300000.0 13559000000.0 12837700000.0 14144700000.0 12601800000.0 14812300000.0 18607500000.0 18989200000.0 18624400000.0 22699900000.0 21916600000.0 19406900000.0 17469000000.0 16034800000.0 13650400000.0 13132800000.0 10480300000.0 11597800000.0 9088900000.0 12599900000.0 9035770000.0 13376200000.0 9035760000.0 13544800000.0 9035760000.0 13552000000.0 9035760000.0 12531700000.0 9035760000.0 11162600000.0 9035760000.0 9690190000.0 9035760000.0 9193970000.0 9035750000.0 9231210000.0 9035750000.0 9285260000.0 9035750000.0 9231210000.0 9035750000.0 9193970000.0 9035760000.0 9690190000.0 9035760000.0 11162600000.0 9035760000.0 12531700000.0 9035760000.0 13552000000.0 9035760000.0 13544800000.0 9035760000.0 13376200000.0 9035770000.0 12599900000.0 9088900000.0 11597800000.0 10480300000.0 13132800000.0 13650400000.0 16034800000.0 17469000000.0 19406900000.0 21916600000.0 22699900000.0 18624400000.0 18989200000.0 18607500000.0 14812300000.0 12601800000.0 14144700000.0 12837700000.0 13559000000.0 14707300000.0 13670800000.0 12741000000.0 12172700000.0 13224800000.0 11920300000.0 13688400000.0 16812100000.0 17193500000.0 16903400000.0 20219300000.0 19497800000.0 17423900000.0 15787100000.0 14644900000.0 12695800000.0 12312500000.0 10152800000.0 11112000000.0 9068980000.0 11933200000.0 9035770000.0 12543400000.0 9035760000.0 12682200000.0 9035760000.0 12653900000.0 9035760000.0 11806300000.0 9035760000.0 10680000000.0 9035760000.0 9515770000.0 9035760000.0 9148430000.0 9035750000.0 9180000000.0 9035750000.0 9223540000.0 9035750000.0 9180000000.0 9035750000.0 9148430000.0 9035760000.0 9515770000.0 9035760000.0 10680000000.0 9035760000.0 11806300000.0 9035760000.0 12653900000.0 9035760000.0 12682200000.0 9035760000.0 12543400000.0 9035770000.0 11933200000.0 9068980000.0 11112000000.0 10152800000.0 12312500000.0 12695800000.0 14644900000.0 15787100000.0 17423900000.0 19497800000.0 20219300000.0 16903400000.0 17193500000.0 16812100000.0 13688400000.0 11920300000.0 13224800000.0 12172700000.0 12741000000.0 13670800000.0 12631700000.0 11916000000.0 11488300000.0 12294300000.0 11256000000.0 12604300000.0 15041000000.0 15379800000.0 15160600000.0 17723200000.0 17112300000.0 15489900000.0 14188500000.0 13320900000.0 11808200000.0 11535100000.0 9864340000.0 10636600000.0 9055910000.0 11274200000.0 9035760000.0 11733200000.0 9035760000.0 11841300000.0 9035760000.0 11798200000.0 9035760000.0 11132100000.0 9035760000.0 10254100000.0 9035750000.0 9375570000.0 9035760000.0 9113500000.0 9035750000.0 9138530000.0 9035750000.0 9171900000.0 9035750000.0 9138530000.0 9035750000.0 9113500000.0 9035760000.0 9375570000.0 9035750000.0 10254100000.0 9035760000.0 11132100000.0 9035760000.0 11798200000.0 9035760000.0 11841300000.0 9035760000.0 11733200000.0 9035760000.0 11274200000.0 9055910000.0 10636600000.0 9864340000.0 11535100000.0 11808200000.0 13320900000.0 14188500000.0 15489900000.0 17112300000.0 17723200000.0 15160600000.0 15379800000.0 15041000000.0 12604300000.0 11256000000.0 12294300000.0 11488300000.0 11916000000.0 12631700000.0 11591200000.0 11085800000.0 10788700000.0 11356100000.0 10604600000.0 11550400000.0 13289000000.0 13552500000.0 13400200000.0 15215600000.0 14754200000.0 13594300000.0 12653300000.0 12046600000.0 10971100000.0 10789800000.0 9604930000.0 10168500000.0 9047370000.0 10621500000.0 9035760000.0 10940300000.0 9035760000.0 11017300000.0 9035760000.0 10975400000.0 9035760000.0 10497600000.0 9035760000.0 9871500000.0 9035750000.0 9260530000.0 9035750000.0 9086130000.0 9035750000.0 9104130000.0 9035750000.0 9127620000.0 9035750000.0 9104130000.0 9035750000.0 9086130000.0 9035750000.0 9260530000.0 9035750000.0 9871500000.0 9035760000.0 10497600000.0 9035760000.0 10975400000.0 9035760000.0 11017300000.0 9035760000.0 10940300000.0 9035760000.0 10621500000.0 9047370000.0 10168500000.0 9604930000.0 10789800000.0 10971100000.0 12046600000.0 12653300000.0 13594300000.0 14754200000.0 15215600000.0 13400200000.0 13552500000.0 13289000000.0 11550400000.0 10604600000.0 11356100000.0 10788700000.0 11085800000.0 11591200000.0 10550000000.0 10251800000.0 10078400000.0 10412500000.0 9962020000.0 10517600000.0 11550600000.0 11715500000.0 11626700000.0 12700200000.0 12416100000.0 11726200000.0 11162500000.0 10806700000.0 10169300000.0 10066800000.0 9365540000.0 9705200000.0 9041660000.0 9973500000.0 9035760000.0 10159500000.0 9035760000.0 10205200000.0 9035750000.0 10176100000.0 9035750000.0 9891250000.0 9035750000.0 9519440000.0 9035750000.0 9162620000.0 9035750000.0 9063780000.0 9035750000.0 9074520000.0 9035750000.0 9088350000.0 9035750000.0 9074520000.0 9035750000.0 9063780000.0 9035750000.0 9162620000.0 9035750000.0 9519440000.0 9035750000.0 9891250000.0 9035750000.0 10176100000.0 9035750000.0 10205200000.0 9035760000.0 10159500000.0 9035760000.0 9973500000.0 9041660000.0 9705200000.0 9365540000.0 10066800000.0 10169300000.0 10806700000.0 11162500000.0 11726200000.0 12416100000.0 12700200000.0 11626700000.0 11715500000.0 11550600000.0 10517600000.0 9962020000.0 10412500000.0 10078400000.0 10251800000.0 10550000000.0 9508430000.0 9415490000.0 9361700000.0 9465730000.0 9324480000.0 9497350000.0 9820120000.0 9872660000.0 9845120000.0 10180000000.0 10090000000.0 9874310000.0 9697590000.0 9586990000.0 9387980000.0 9356570000.0 9137790000.0 9244500000.0 9037480000.0 9328250000.0 9035750000.0 9385980000.0 9035750000.0 9400230000.0 9035750000.0 9390630000.0 9035750000.0 9301500000.0 9035750000.0 9185340000.0 9035750000.0 9074580000.0 9035750000.0 9044280000.0 9035750000.0 9047640000.0 9035750000.0 9051940000.0 9035750000.0 9047640000.0 9035750000.0 9044280000.0 9035750000.0 9074580000.0 9035750000.0 9185340000.0 9035750000.0 9301500000.0 9035750000.0 9390630000.0 9035750000.0 9400230000.0 9035750000.0 9385980000.0 9035750000.0 9328250000.0 9037480000.0 9244500000.0 9137790000.0 9356570000.0 9387980000.0 9586990000.0 9697590000.0 9874310000.0 10090000000.0 10180000000.0 9845120000.0 9872660000.0 9820120000.0 9497350000.0 9324480000.0 9465730000.0 9361700000.0 9415490000.0 9508430000.0 