# vtk DataFile Version 2.0
Time step 75
ASCII
DATASET UNSTRUCTURED_GRID
POINTS 5000 float
233402.0 189544.0 0
279178.0 189366.0 0
196719.0 195256.0 0
202905.0 193979.0 0
209843.0 192762.0 0
215298.0 194708.0 0
219936.0 190755.0 0
228217.0 190881.0 0
225123.0 194134.0 0
232151.0 192693.0 0
236930.0 192296.0 0
242670.0 193152.0 0
249210.0 194353.0 0
255519.0 193629.0 0
263361.0 193701.0 0
268385.0 194028.0 0
273309.0 191293.0 0
283351.0 193888.0 0
289090.0 193119.0 0
296231.0 195031.0 0
301660.0 195094.0 0
195416.0 200525.0 0
200241.0 198252.0 0
203294.0 198713.0 0
206682.0 197324.0 0
211536.0 199039.0 0
216493.0 199612.0 0
220731.0 196211.0 0
229055.0 195563.0 0
225567.0 198696.0 0
233779.0 196932.0 0
239058.0 197304.0 0
244168.0 198596.0 0
252290.0 198833.0 0
259665.0 195997.0 0
256321.0 198983.0 0
265037.0 197683.0 0
261384.0 200018.0 0
270688.0 198640.0 0
273527.0 195816.0 0
275353.0 200052.0 0
278044.0 195446.0 0
281512.0 198994.0 0
284897.0 197758.0 0
288141.0 197894.0 0
291917.0 197255.0 0
302702.0 200354.0 0
199781.0 202824.0 0
204978.0 202227.0 0
210020.0 204221.0 0
215058.0 204047.0 0
221215.0 202014.0 0
226625.0 203894.0 0
230357.0 200571.0 0
231399.0 204883.0 0
234829.0 201915.0 0
240196.0 202669.0 0
248693.0 201186.0 0
245242.0 204943.0 0
253289.0 202882.0 0
258029.0 203503.0 0
262556.0 204194.0 0
267108.0 202261.0 0
271846.0 202685.0 0
275545.0 205251.0 0
279242.0 202480.0 0
285382.0 201658.0 0
290548.0 201394.0 0
293842.0 204033.0 0
297111.0 200834.0 0
302403.0 205363.0 0
307915.0 205030.0 0
192010.0 210250.0 0
194242.0 205837.0 0
199464.0 208004.0 0
205458.0 208253.0 0
213086.0 209558.0 0
219064.0 207341.0 0
223261.0 206380.0 0
228765.0 208600.0 0
233025.0 208323.0 0
236396.0 206212.0 0
240992.0 208419.0 0
246280.0 209976.0 0
250126.0 206601.0 0
255030.0 207546.0 0
260023.0 208102.0 0
265944.0 208314.0 0
270863.0 206339.0 0
273627.0 208546.0 0
270915.0 210205.0 0
278269.0 209244.0 0
282464.0 206361.0 0
288382.0 206175.0 0
293090.0 207854.0 0
296087.0 210504.0 0
297679.0 206228.0 0
195621.0 213222.0 0
201316.0 213305.0 0
206865.0 213983.0 0
211931.0 215458.0 0
218358.0 212707.0 0
223773.0 210697.0 0
227242.0 214148.0 0
231839.0 212757.0 0
236324.0 210416.0 0
243957.0 213005.0 0
240937.0 212866.0 0
246844.0 214411.0 0
251044.0 211456.0 0
254632.0 214451.0 0
257073.0 211225.0 0
261449.0 213289.0 0
267779.0 214703.0 0
274860.0 211894.0 0
282732.0 212921.0 0
288010.0 210990.0 0
287762.0 214811.0 0
292235.0 212520.0 0
299559.0 211446.0 0
297104.0 214685.0 0
301158.0 215728.0 0
304981.0 211551.0 0
191247.0 217507.0 0
195305.0 217981.0 0
200319.0 219480.0 0
206546.0 219615.0 0
216578.0 217137.0 0
222380.0 216261.0 0
219470.0 219767.0 0
226845.0 218071.0 0
230287.0 216902.0 0
233232.0 219998.0 0
236981.0 215627.0 0
242834.0 216913.0 0
247225.0 218128.0 0
250488.0 216013.0 0
253720.0 219303.0 0
258148.0 217307.0 0
262951.0 218960.0 0
267620.0 220111.0 0
273395.0 216122.0 0
270974.0 218920.0 0
277831.0 215614.0 0
276031.0 220142.0 0
279837.0 218661.0 0
285376.0 217212.0 0
282600.0 218064.0 0
284918.0 220643.0 0
289201.0 218856.0 0
293295.0 216781.0 0
296794.0 219403.0 0
301758.0 220940.0 0
304455.0 217125.0 0
306740.0 220349.0 0
308992.0 216356.0 0
190735.0 221877.0 0
190951.0 226168.0 0
195445.0 222425.0 0
203422.0 223789.0 0
207869.0 224903.0 0
212812.0 221334.0 0
218329.0 223954.0 0
223614.0 221639.0 0
228739.0 221786.0 0
234413.0 224999.0 0
238988.0 221404.0 0
244746.0 221844.0 0
249528.0 221154.0 0
248182.0 225355.0 0
253103.0 224410.0 0
258411.0 222579.0 0
265345.0 224092.0 0
271352.0 223369.0 0
276300.0 224806.0 0
280686.0 222636.0 0
288287.0 223875.0 0
292966.0 222007.0 0
297448.0 224360.0 0
305395.0 224205.0 0
308965.0 224657.0 0
191544.0 230001.0 0
194435.0 227865.0 0
197492.0 231105.0 0
199037.0 226314.0 0
203426.0 229781.0 0
207996.0 229168.0 0
212837.0 227527.0 0
218450.0 229149.0 0
222803.0 226446.0 0
228824.0 227306.0 0
239097.0 226490.0 0
235874.0 229571.0 0
243663.0 226636.0 0
246690.0 228800.0 0
251354.0 229976.0 0
256986.0 228182.0 0
261278.0 226239.0 0
265916.0 228437.0 0
270487.0 228600.0 0
275367.0 228963.0 0
279734.0 227679.0 0
284079.0 226023.0 0
287594.0 228389.0 0
292597.0 227184.0 0
301929.0 226954.0 0
297630.0 229823.0 0
305654.0 229764.0 0
308742.0 227795.0 0
191983.0 234045.0 0
196697.0 235997.0 0
201336.0 234389.0 0
206386.0 234396.0 0
210219.0 231405.0 0
210369.0 233948.0 0
214243.0 232830.0 0
223788.0 231077.0 0
219648.0 234341.0 0
228212.0 232669.0 0
232282.0 231603.0 0
236321.0 234730.0 0
241098.0 231111.0 0
246201.0 232306.0 0
250286.0 235381.0 0
256628.0 234740.0 0
261785.0 230571.0 0
262676.0 235245.0 0
267253.0 232989.0 0
273148.0 232910.0 0
278472.0 232903.0 0
283478.0 230679.0 0
288230.0 233204.0 0
292772.0 231866.0 0
296283.0 235570.0 0
301912.0 232767.0 0
308921.0 232590.0 0
193271.0 238929.0 0
199238.0 239989.0 0
202755.0 238288.0 0
206843.0 239308.0 0
210414.0 236972.0 0
215135.0 237973.0 0
220737.0 239584.0 0
225126.0 236290.0 0
228619.0 239056.0 0
231037.0 235826.0 0
233799.0 239546.0 0
238458.0 239716.0 0
241516.0 236125.0 0
245866.0 236448.0 0
248731.0 239982.0 0
252952.0 239082.0 0
261137.0 238828.0 0
270493.0 236599.0 0
266001.0 238634.0 0
275482.0 237709.0 0
279955.0 240016.0 0
283155.0 235943.0 0
286310.0 239067.0 0
290812.0 238109.0 0
296735.0 240426.0 0
302101.0 239384.0 0
308018.0 237440.0 0
195505.0 242643.0 0
199465.0 246406.0 0
202885.0 242283.0 0
207427.0 243970.0 0
211219.0 241005.0 0
212350.0 245289.0 0
216408.0 242659.0 0
221187.0 244415.0 0
225407.0 241076.0 0
230348.0 242802.0 0
235742.0 244684.0 0
243744.0 240822.0 0
240179.0 243321.0 0
243301.0 245645.0 0
247383.0 244329.0 0
251899.0 243661.0 0
257223.0 241797.0 0
262788.0 242561.0 0
266912.0 243012.0 0
270346.0 245527.0 0
271042.0 240942.0 0
275422.0 243528.0 0
284022.0 241679.0 0
288584.0 242156.0 0
293255.0 243017.0 0
298559.0 243841.0 0
302873.0 245907.0 0
204647.0 247787.0 0
209327.0 249308.0 0
216171.0 246119.0 0
214757.0 250430.0 0
218972.0 247968.0 0
222906.0 249040.0 0
226211.0 245593.0 0
227165.0 250675.0 0
230997.0 247796.0 0
235399.0 250231.0 0
239656.0 249602.0 0
239971.0 246318.0 0
243290.0 249281.0 0
246315.0 247676.0 0
250059.0 248075.0 0
260345.0 246007.0 0
255467.0 248020.0 0
265155.0 247518.0 0
260532.0 250162.0 0
269390.0 248989.0 0
273495.0 248405.0 0
280575.0 245132.0 0
277359.0 248352.0 0
278739.0 251204.0 0
282148.0 250083.0 0
285979.0 246125.0 0
291361.0 247920.0 0
297443.0 249221.0 0
202617.0 251454.0 0
202752.0 255956.0 0
206965.0 253854.0 0
211452.0 254034.0 0
216368.0 255763.0 0
219712.0 252337.0 0
223961.0 253071.0 0
231187.0 253087.0 0
235030.0 254632.0 0
238453.0 253864.0 0
242116.0 253229.0 0
246744.0 251911.0 0
251949.0 253102.0 0
257157.0 253401.0 0
263820.0 252010.0 0
261160.0 254895.0 0
267458.0 252061.0 0
269283.0 255377.0 0
271469.0 252229.0 0
275764.0 252725.0 0
280090.0 254672.0 0
283390.0 253619.0 0
287229.0 251967.0 0
292511.0 253000.0 0
297029.0 255046.0 0
201524.0 259522.0 0
205864.0 259429.0 0
209254.0 257195.0 0
212571.0 257647.0 0
218767.0 259752.0 0
215158.0 260549.0 0
221748.0 256779.0 0
227434.0 256070.0 0
225064.0 259906.0 0
232711.0 258415.0 0
236927.0 257546.0 0
244551.0 256491.0 0
240463.0 257735.0 0
243374.0 260217.0 0
248380.0 256301.0 0
246832.0 260069.0 0
254839.0 256988.0 0
251360.0 259241.0 0
258093.0 257865.0 0
255457.0 260673.0 0
261567.0 258913.0 0
265143.0 260268.0 0
265585.0 256071.0 0
269572.0 259718.0 0
272839.0 256098.0 0
274008.0 259314.0 0
276780.0 257182.0 0
280624.0 259076.0 0
284597.0 257120.0 0
288934.0 256266.0 0
288297.0 260812.0 0
292577.0 257837.0 0
296721.0 260488.0 0
201984.0 262455.0 0
204934.0 263343.0 0
207789.0 263237.0 0
210603.0 261248.0 0
214166.0 264413.0 0
218539.0 264141.0 0
222045.0 262084.0 0
229202.0 261177.0 0
225744.0 264025.0 0
233318.0 263197.0 0
229791.0 265574.0 0
237151.0 261560.0 0
240877.0 261705.0 0
244328.0 263865.0 0
240197.0 265202.0 0
248818.0 263389.0 0
252891.0 263424.0 0
258761.0 261614.0 0
256321.0 264499.0 0
259309.0 265616.0 0
262179.0 263228.0 0
266340.0 264074.0 0
270146.0 265101.0 0
273048.0 262453.0 0
277095.0 261924.0 0
278229.0 266354.0 0
281311.0 263107.0 0
284088.0 260920.0 0
285671.0 264373.0 0
292494.0 262714.0 0
293249.0 265880.0 0
296914.0 265786.0 0
202701.0 266690.0 0
202119.0 271259.0 0
206745.0 266447.0 0
205172.0 269944.0 0
208609.0 270445.0 0
210584.0 266415.0 0
213525.0 268664.0 0
211877.0 271233.0 0
216469.0 267722.0 0
222593.0 266306.0 0
219824.0 268485.0 0
223266.0 270919.0 0
226576.0 268514.0 0
232962.0 267241.0 0
230522.0 269843.0 0
234416.0 270658.0 0
236314.0 266245.0 0
238848.0 270036.0 0
242991.0 268234.0 0
247069.0 267374.0 0
249883.0 270265.0 0
251073.0 266708.0 0
254385.0 266729.0 0
253121.0 269499.0 0
257539.0 269684.0 0
262949.0 267945.0 0
267214.0 268017.0 0
266175.0 271306.0 0
274216.0 266319.0 0
270711.0 269904.0 0
275514.0 270186.0 0
279827.0 271115.0 0
282663.0 267200.0 0
284147.0 270797.0 0
289750.0 266163.0 0
286654.0 268723.0 0
290023.0 270726.0 0
293648.0 269131.0 0
297681.0 270426.0 0
202275.0 275102.0 0
205519.0 273334.0 0
209195.0 274164.0 0
212933.0 275018.0 0
216285.0 272205.0 0
220020.0 271505.0 0
223903.0 274614.0 0
220531.0 274683.0 0
227572.0 273111.0 0
231192.0 272784.0 0
233365.0 274389.0 0
236718.0 274247.0 0
242454.0 271830.0 0
240412.0 274458.0 0
243974.0 274844.0 0
245969.0 271590.0 0
249281.0 273747.0 0
246773.0 275374.0 0
253628.0 273650.0 0
257974.0 275167.0 0
261697.0 272523.0 0
264889.0 274674.0 0
268650.0 274522.0 0
273262.0 273831.0 0
277176.0 274417.0 0
280273.0 275468.0 0
283471.0 274291.0 0
286962.0 272740.0 0
289876.0 274829.0 0
293661.0 273520.0 0
297749.0 274097.0 0
197272.0 280669.0 0
203094.0 279430.0 0
206405.0 276565.0 0
207748.0 280461.0 0
210038.0 277497.0 0
213243.0 278379.0 0
211657.0 281513.0 0
217302.0 277440.0 0
221934.0 278206.0 0
225878.0 277774.0 0
228445.0 281536.0 0
230357.0 277115.0 0
234536.0 278085.0 0
232221.0 281517.0 0
238274.0 278101.0 0
242115.0 278211.0 0
245865.0 278365.0 0
250163.0 278174.0 0
254757.0 278503.0 0
258513.0 279578.0 0
261602.0 277303.0 0
265427.0 278180.0 0
268536.0 278575.0 0
271673.0 277742.0 0
273866.0 280741.0 0
270453.0 281639.0 0
275634.0 277683.0 0
279199.0 278704.0 0
276675.0 281594.0 0
282755.0 277345.0 0
283077.0 280679.0 0
286499.0 277179.0 0
294996.0 277525.0 0
291107.0 278495.0 0
294819.0 281238.0 0
298392.0 277065.0 0
297904.0 279980.0 0
202008.0 283337.0 0
205849.0 284002.0 0
210199.0 285284.0 0
215891.0 282039.0 0
214390.0 285887.0 0
218434.0 285522.0 0
220302.0 281892.0 0
224384.0 281755.0 0
222819.0 285650.0 0
226404.0 284462.0 0
230078.0 285245.0 0
234143.0 285442.0 0
236097.0 281914.0 0
238038.0 285851.0 0
244246.0 281588.0 0
240162.0 282352.0 0
243583.0 286416.0 0
247711.0 282238.0 0
249066.0 286167.0 0
252024.0 282407.0 0
254953.0 284272.0 0
252766.0 286044.0 0
255832.0 281643.0 0
258564.0 283461.0 0
262318.0 281824.0 0
261266.0 286129.0 0
265001.0 285732.0 0
266665.0 282056.0 0
269332.0 285556.0 0
273516.0 284473.0 0
279836.0 283050.0 0
276918.0 284201.0 0
279159.0 286344.0 0
283379.0 285456.0 0
287041.0 281661.0 0
287554.0 286558.0 0
291402.0 283281.0 0
295180.0 284985.0 0
297987.0 283047.0 0
297917.0 286336.0 0
202887.0 287191.0 0
202252.0 290942.0 0
207431.0 288349.0 0
205447.0 291130.0 0
212083.0 290257.0 0
216696.0 289220.0 0
220309.0 288086.0 0
222522.0 289880.0 0
219704.0 291705.0 0
226727.0 288927.0 0
232027.0 288887.0 0
235727.0 289290.0 0
239355.0 289009.0 0
242510.0 291753.0 0
246850.0 290079.0 0
251779.0 290051.0 0
256783.0 287968.0 0
260757.0 289948.0 0
263681.0 288982.0 0
267359.0 289290.0 0
272445.0 289652.0 0
276253.0 286864.0 0
277255.0 290117.0 0
281060.0 289019.0 0
284705.0 290522.0 0
288912.0 289970.0 0
292490.0 287871.0 0
296896.0 289924.0 0
203081.0 294873.0 0
208513.0 293668.0 0
212600.0 294370.0 0
214116.0 296677.0 0
215923.0 293488.0 0
217042.0 296843.0 0
223280.0 292954.0 0
220248.0 295624.0 0
226782.0 294478.0 0
230594.0 292319.0 0
234507.0 293345.0 0
230834.0 296239.0 0
238328.0 292487.0 0
237441.0 296245.0 0
240490.0 295336.0 0
243663.0 296293.0 0
245448.0 293528.0 0
248644.0 293086.0 0
247204.0 296341.0 0
251578.0 295142.0 0
256230.0 293502.0 0
264727.0 292739.0 0
260855.0 293684.0 0
269307.0 293897.0 0
274911.0 294453.0 0
271794.0 296440.0 0
280036.0 294002.0 0
284425.0 294726.0 0
288164.0 294029.0 0
292248.0 292042.0 0
295036.0 293924.0 0
292177.0 296435.0 0
298159.0 293707.0 0
302750.0 294402.0 0
202950.0 299180.0 0
207032.0 297903.0 0
208285.0 301230.0 0
204874.0 302126.0 0
211059.0 297292.0 0
212168.0 300469.0 0
215807.0 299810.0 0
223996.0 297130.0 0
220483.0 300439.0 0
227964.0 298711.0 0
225131.0 301388.0 0
233958.0 297960.0 0
231142.0 300860.0 0
237147.0 299799.0 0
240743.0 299384.0 0
245099.0 300144.0 0
249632.0 298972.0 0
253854.0 298626.0 0
257925.0 298433.0 0
259351.0 302001.0 0
262021.0 297443.0 0
262479.0 300905.0 0
265907.0 297253.0 0
269638.0 298742.0 0
274012.0 299303.0 0
277684.0 298405.0 0
282230.0 298656.0 0
287551.0 299406.0 0
292813.0 301405.0 0
296748.0 297643.0 0
297777.0 301468.0 0
304194.0 300171.0 0
201537.0 302278.0 0
202486.0 305048.0 0
206523.0 305487.0 0
213890.0 303731.0 0
210474.0 304172.0 0
212969.0 307077.0 0
217107.0 303761.0 0
216635.0 306943.0 0
220158.0 304886.0 0
223432.0 305216.0 0
228238.0 302540.0 0
227215.0 305833.0 0
234735.0 302725.0 0
230550.0 304587.0 0
233421.0 305906.0 0
238755.0 303605.0 0
236212.0 306055.0 0
242374.0 303094.0 0
241574.0 305573.0 0
248580.0 302927.0 0
245469.0 304996.0 0
249885.0 305928.0 0
252369.0 302374.0 0
253279.0 305923.0 0
255834.0 302160.0 0
257435.0 305392.0 0
262130.0 305090.0 0
265198.0 306441.0 0
266424.0 302328.0 0
267677.0 306258.0 0
270321.0 305933.0 0
270906.0 302802.0 0
273234.0 304792.0 0
275282.0 302763.0 0
279583.0 302862.0 0
276381.0 306589.0 0
284318.0 303404.0 0
283512.0 306786.0 0
288306.0 304987.0 0
293137.0 305974.0 0
297331.0 304779.0 0
197681.0 312333.0 0
202388.0 308371.0 0
202288.0 311583.0 0
205480.0 308504.0 0
207843.0 309738.0 0
205540.0 311463.0 0
208864.0 312006.0 0
209393.0 307698.0 0
210972.0 310245.0 0
219485.0 307412.0 0
214993.0 310471.0 0
218716.0 309997.0 0
222766.0 309125.0 0
226751.0 309623.0 0
230573.0 308326.0 0
230029.0 311394.0 0
234422.0 309294.0 0
238929.0 307603.0 0
237586.0 311246.0 0
243345.0 308329.0 0
241205.0 311331.0 0
248006.0 308602.0 0
245244.0 311523.0 0
248242.0 312233.0 0
251580.0 309390.0 0
250895.0 312139.0 0
255401.0 309363.0 0
259936.0 309134.0 0
257696.0 312008.0 0
263794.0 308528.0 0
264001.0 312197.0 0
266450.0 308987.0 0
269729.0 309491.0 0
267511.0 311892.0 0
272911.0 307594.0 0
273292.0 311180.0 0
280091.0 307310.0 0
277259.0 310595.0 0
281885.0 311316.0 0
290147.0 308510.0 0
286513.0 309383.0 0
294631.0 309725.0 0
291737.0 310706.0 0
297940.0 307895.0 0
297985.0 311063.0 0
202321.0 314744.0 0
206067.0 314562.0 0
212078.0 313065.0 0
209611.0 315435.0 0
213599.0 317449.0 0
217955.0 313134.0 0
215103.0 314364.0 0
218291.0 316415.0 0
220793.0 312404.0 0
224236.0 313183.0 0
221194.0 315294.0 0
224259.0 317577.0 0
227775.0 313857.0 0
232766.0 312659.0 0
231292.0 316367.0 0
234728.0 317154.0 0
235769.0 314264.0 0
239538.0 315103.0 0
237204.0 317345.0 0
243673.0 314669.0 0
247766.0 316123.0 0
254398.0 313416.0 0
251120.0 315595.0 0
257915.0 315024.0 0
256419.0 316846.0 0
260417.0 313185.0 0
261352.0 315781.0 0
264571.0 316471.0 0
270372.0 312787.0 0
267835.0 314742.0 0
273480.0 314726.0 0
270693.0 316998.0 0
277052.0 314487.0 0
280176.0 314989.0 0
285373.0 314343.0 0
282874.0 316940.0 0
289525.0 313070.0 0
290738.0 316883.0 0
293933.0 313499.0 0
294375.0 316793.0 0
297533.0 314000.0 0
297657.0 317053.0 0
202669.0 318098.0 0
202486.0 321322.0 0
206204.0 318178.0 0
206203.0 321577.0 0
210048.0 320008.0 0
216516.0 320734.0 0
220774.0 319267.0 0
221843.0 322296.0 0
228024.0 318036.0 0
225408.0 322147.0 0
228989.0 321487.0 0
232028.0 320548.0 0
234712.0 319688.0 0
238127.0 321368.0 0
240424.0 317998.0 0
243269.0 318462.0 0
242058.0 321159.0 0
246471.0 320246.0 0
253497.0 318316.0 0
250469.0 320553.0 0
259468.0 317621.0 0
257161.0 320572.0 0
262494.0 320285.0 0
267026.0 318590.0 0
265838.0 322298.0 0
269454.0 321012.0 0
273651.0 319802.0 0
279790.0 318750.0 0
276341.0 317943.0 0
277601.0 321584.0 0
284476.0 319572.0 0
281725.0 321554.0 0
287252.0 317619.0 0
287496.0 321139.0 0
290957.0 320435.0 0
294424.0 319373.0 0
294125.0 321623.0 0
297575.0 320072.0 0
196515.0 325966.0 0
201775.0 324176.0 0
202920.0 327176.0 0
204782.0 323810.0 0
208613.0 324160.0 0
206435.0 326129.0 0
212797.0 323539.0 0
210625.0 326831.0 0
218891.0 324518.0 0
215376.0 326662.0 0
223345.0 325413.0 0
226905.0 326337.0 0
233492.0 324262.0 0
229959.0 324657.0 0
237391.0 326171.0 0
243945.0 323288.0 0
241435.0 325514.0 0
247345.0 324076.0 0
245272.0 327601.0 0
254165.0 323202.0 0
250882.0 325437.0 0
259999.0 324211.0 0
256510.0 325933.0 0
263658.0 325544.0 0
268018.0 326743.0 0
275293.0 323151.0 0
271661.0 324277.0 0
273690.0 327049.0 0
279829.0 324329.0 0
276729.0 325462.0 0
284283.0 323108.0 0
283472.0 326224.0 0
287658.0 324836.0 0
290737.0 327055.0 0
291094.0 323625.0 0
293784.0 324023.0 0
293969.0 327070.0 0
297409.0 323204.0 0
297420.0 326461.0 0
303051.0 325297.0 0
195692.0 330884.0 0
202223.0 330154.0 0
207598.0 328177.0 0
205441.0 329590.0 0
206576.0 332448.0 0
213289.0 329241.0 0
209404.0 330461.0 0
217586.0 329091.0 0
216672.0 331862.0 0
221091.0 328227.0 0
220595.0 331951.0 0
224720.0 329232.0 0
227869.0 332081.0 0
229691.0 328934.0 0
232457.0 327716.0 0
232867.0 331386.0 0
234829.0 328613.0 0
238606.0 329570.0 0
235937.0 330638.0 0
241767.0 328988.0 0
243830.0 331681.0 0
239949.0 332821.0 0
248691.0 329151.0 0
246897.0 332512.0 0
253754.0 328112.0 0
252266.0 330677.0 0
254570.0 332319.0 0
260153.0 328438.0 0
257217.0 330060.0 0
262864.0 328591.0 0
262311.0 332181.0 0
266045.0 330487.0 0
269634.0 332228.0 0
270844.0 329408.0 0
273214.0 330256.0 0
280219.0 328053.0 0
276807.0 328993.0 0
277364.0 332929.0 0
284024.0 329757.0 0
281118.0 331100.0 0
286703.0 328166.0 0
289610.0 330618.0 0
285917.0 332762.0 0
294538.0 330355.0 0
298335.0 328988.0 0
297915.0 331322.0 0
202865.0 333073.0 0
202884.0 336717.0 0
206217.0 335835.0 0
212479.0 333579.0 0
209467.0 335171.0 0
213568.0 337440.0 0
216604.0 335531.0 0
224265.0 333071.0 0
219940.0 335267.0 0
223695.0 337339.0 0
227388.0 336180.0 0
230768.0 334492.0 0
234036.0 336650.0 0
236049.0 333638.0 0
238164.0 335803.0 0
242995.0 335931.0 0
239963.0 336462.0 0
246473.0 335635.0 0
249001.0 335710.0 0
250339.0 333364.0 0
252823.0 334800.0 0
250994.0 337780.0 0
259062.0 333233.0 0
256069.0 335719.0 0
263479.0 335302.0 0
260295.0 337197.0 0
266407.0 333586.0 0
266922.0 336561.0 0
270272.0 335508.0 0
273372.0 333323.0 0
273764.0 336918.0 0
280141.0 335340.0 0
276576.0 337165.0 0
282388.0 333451.0 0
284358.0 336087.0 0
289225.0 335539.0 0
286367.0 337673.0 0
293299.0 333934.0 0
297781.0 333891.0 0
297079.0 337001.0 0
201935.0 339951.0 0
202000.0 342426.0 0
208351.0 338435.0 0
205311.0 339714.0 0
208898.0 341652.0 0
205498.0 342552.0 0
211181.0 338687.0 0
211699.0 341175.0 0
217848.0 338427.0 0
215135.0 340484.0 0
218593.0 341975.0 0
220505.0 339712.0 0
221816.0 342948.0 0
229212.0 338438.0 0
225837.0 341542.0 0
229440.0 342427.0 0
232035.0 339715.0 0
237535.0 338988.0 0
235101.0 340977.0 0
238866.0 342533.0 0
244431.0 339890.0 0
240892.0 338964.0 0
241694.0 341619.0 0
247479.0 338452.0 0
249251.0 341536.0 0
254648.0 339551.0 0
258259.0 340961.0 0
263689.0 338905.0 0
261971.0 341635.0 0
267453.0 340340.0 0
271349.0 339241.0 0
274096.0 340530.0 0
271476.0 342201.0 0
278087.0 340807.0 0
281695.0 338253.0 0
284199.0 340953.0 0
281416.0 343131.0 0
290622.0 338990.0 0
287847.0 340653.0 0
288270.0 343190.0 0
293638.0 338172.0 0
294666.0 341102.0 0
291750.0 341780.0 0
297698.0 340141.0 0
298155.0 342504.0 0
202163.0 344939.0 0
202054.0 347376.0 0
205745.0 345660.0 0
209277.0 344635.0 0
211823.0 343692.0 0
210249.0 347731.0 0
213723.0 346951.0 0
214686.0 343713.0 0
217680.0 344397.0 0
217046.0 347498.0 0
220952.0 346538.0 0
224615.0 346629.0 0
227923.0 346400.0 0
232393.0 343315.0 0
231362.0 347105.0 0
236008.0 344032.0 0
234974.0 347319.0 0
242825.0 344124.0 0
240022.0 346012.0 0
243342.0 346879.0 0
246250.0 343405.0 0
247176.0 347425.0 0
252683.0 343336.0 0
250937.0 346336.0 0
255605.0 345306.0 0
258879.0 344806.0 0
259769.0 348053.0 0
264552.0 342976.0 0
262006.0 344867.0 0
263161.0 347264.0 0
268992.0 343764.0 0
265910.0 345900.0 0
273331.0 343594.0 0
271311.0 346415.0 0
274376.0 347833.0 0
276346.0 344528.0 0
278488.0 346379.0 0
285416.0 343614.0 0
281812.0 346051.0 0
285112.0 346109.0 0
288451.0 346357.0 0
291530.0 344724.0 0
294951.0 343521.0 0
293402.0 347763.0 0
298005.0 344749.0 0
296816.0 347592.0 0
196497.0 350830.0 0
202747.0 350158.0 0
202484.0 353191.0 0
206423.0 349109.0 0
207601.0 352386.0 0
211171.0 350839.0 0
217570.0 350845.0 0
214413.0 350732.0 0
220937.0 350723.0 0
224727.0 350697.0 0
227653.0 350767.0 0
231275.0 351465.0 0
237608.0 348684.0 0
234722.0 351645.0 0
237443.0 352899.0 0
242041.0 349389.0 0
239756.0 350959.0 0
244795.0 350976.0 0
249696.0 350724.0 0
247427.0 352942.0 0
252552.0 348905.0 0
253530.0 351685.0 0
255566.0 348514.0 0
255693.0 353273.0 0
258236.0 351380.0 0
261403.0 352304.0 0
263260.0 350212.0 0
268034.0 348559.0 0
266599.0 351691.0 0
269702.0 353199.0 0
270979.0 349662.0 0
272523.0 351571.0 0
277902.0 348954.0 0
275820.0 350944.0 0
279266.0 351431.0 0
281082.0 349101.0 0
285380.0 349112.0 0
283599.0 351014.0 0
281485.0 353014.0 0
288448.0 349524.0 0
288083.0 352257.0 0
291276.0 349822.0 0
292215.0 352768.0 0
294811.0 351655.0 0
297981.0 350454.0 0
297728.0 353004.0 0
303399.0 351200.0 0
201794.0 355834.0 0
202489.0 358466.0 0
205350.0 354415.0 0
208902.0 357553.0 0
205678.0 357499.0 0
210601.0 354678.0 0
213838.0 357278.0 0
214583.0 353991.0 0
217472.0 354309.0 0
216982.0 358015.0 0
220849.0 354364.0 0
219968.0 357296.0 0
224205.0 356870.0 0
224702.0 354059.0 0
229979.0 354634.0 0
227207.0 354172.0 0
226666.0 356999.0 0
229035.0 357490.0 0
232948.0 356053.0 0
235370.0 355275.0 0
238423.0 357904.0 0
240307.0 354274.0 0
243338.0 354050.0 0
244882.0 357067.0 0
248224.0 355827.0 0
251347.0 353649.0 0
253338.0 356483.0 0
258902.0 355095.0 0
256763.0 356436.0 0
261832.0 355891.0 0
264996.0 354925.0 0
267061.0 357720.0 0
270333.0 356564.0 0
273600.0 355306.0 0
276948.0 354605.0 0
280621.0 356100.0 0
285497.0 353632.0 0
284257.0 356935.0 0
289776.0 355339.0 0
287499.0 358085.0 0
293996.0 355452.0 0
293688.0 358162.0 0
291424.0 358050.0 0
297147.0 355691.0 0
197463.0 363848.0 0
201976.0 361428.0 0
205370.0 361236.0 0
208798.0 361271.0 0
211963.0 359788.0 0
213910.0 361867.0 0
217272.0 361308.0 0
222550.0 359225.0 0
220675.0 361441.0 0
225839.0 359989.0 0
227916.0 359927.0 0
225127.0 362758.0 0
229590.0 361703.0 0
232103.0 359165.0 0
232020.0 363063.0 0
235487.0 360058.0 0
239864.0 361716.0 0
242073.0 358576.0 0
242953.0 361843.0 0
246298.0 360615.0 0
250175.0 359173.0 0
254664.0 359587.0 0
252168.0 363289.0 0
257869.0 359703.0 0
256519.0 362763.0 0
261214.0 359809.0 0
265199.0 360543.0 0
268920.0 361071.0 0
271637.0 360090.0 0
274368.0 358888.0 0
272805.0 363152.0 0
276587.0 358812.0 0
279881.0 359858.0 0
278463.0 362698.0 0
275631.0 362337.0 0
282990.0 360904.0 0
282260.0 363989.0 0
285590.0 361383.0 0
289081.0 360654.0 0
290310.0 362869.0 0
291335.0 359994.0 0
294748.0 360795.0 0
293381.0 363235.0 0
297811.0 358547.0 0
298013.0 361503.0 0
202001.0 363825.0 0
201322.0 365784.0 0
204763.0 366389.0 0
205212.0 363870.0 0
209130.0 364461.0 0
209008.0 367561.0 0
212477.0 364543.0 0
212096.0 367892.0 0
217229.0 364436.0 0
215196.0 366265.0 0
219601.0 365796.0 0
219146.0 368465.0 0
222320.0 364587.0 0
223698.0 367476.0 0
227755.0 364286.0 0
226457.0 367235.0 0
230605.0 366323.0 0
234298.0 367712.0 0
235252.0 363740.0 0
238586.0 364019.0 0
237415.0 368079.0 0
243426.0 364841.0 0
240602.0 366523.0 0
245015.0 367278.0 0
247316.0 363860.0 0
247491.0 367425.0 0
249865.0 366689.0 0
254031.0 367271.0 0
258426.0 364503.0 0
257457.0 367408.0 0
261391.0 364024.0 0
261918.0 367063.0 0
265462.0 363846.0 0
268600.0 363120.0 0
266134.0 366552.0 0
269228.0 367825.0 0
270266.0 364768.0 0
272749.0 367128.0 0
279319.0 365809.0 0
275641.0 366056.0 0
284291.0 365203.0 0
283338.0 367657.0 0
286517.0 363852.0 0
288993.0 364777.0 0
285694.0 368319.0 0
287989.0 367650.0 0
293448.0 366588.0 0
297910.0 364029.0 0
297165.0 366657.0 0
202051.0 370132.0 0
200447.0 375623.0 0
202304.0 372920.0 0
201903.0 367785.0 0
204784.0 371993.0 0
206037.0 369126.0 0
208556.0 372506.0 0
210187.0 370010.0 0
213295.0 370397.0 0
212464.0 372941.0 0
216608.0 369059.0 0
216411.0 372042.0 0
219095.0 372394.0 0
221222.0 369260.0 0
224008.0 370641.0 0
220661.0 371721.0 0
223269.0 373409.0 0
226167.0 370613.0 0
229126.0 369749.0 0
228226.0 373244.0 0
232450.0 371327.0 0
234256.0 373653.0 0
235826.0 371400.0 0
237857.0 371069.0 0
236307.0 374282.0 0
238594.0 373863.0 0
244121.0 369579.0 0
240954.0 370250.0 0
242519.0 373506.0 0
248773.0 370385.0 0
245807.0 370943.0 0
249111.0 374005.0 0
251168.0 369258.0 0
252282.0 372820.0 0
253909.0 370998.0 0
258864.0 370057.0 0
256429.0 372307.0 0
262248.0 371104.0 0
265167.0 369156.0 0
266579.0 372293.0 0
269656.0 371318.0 0
272963.0 370050.0 0
274561.0 372947.0 0
275722.0 368857.0 0
277523.0 371669.0 0
280331.0 369046.0 0
282574.0 371479.0 0
285283.0 371652.0 0
287672.0 371882.0 0
290835.0 368269.0 0
293169.0 372065.0 0
290430.0 371738.0 0
294586.0 370021.0 0
297733.0 369626.0 0
297348.0 372617.0 0
193811.0 381371.0 0
198044.0 379227.0 0
199364.0 377594.0 0
196157.0 380739.0 0
203984.0 376394.0 0
203071.0 379789.0 0
207035.0 375509.0 0
209350.0 377552.0 0
211946.0 375891.0 0
214748.0 378535.0 0
215991.0 374720.0 0
218237.0 378683.0 0
219086.0 375391.0 0
221713.0 375876.0 0
226051.0 374381.0 0
228953.0 376955.0 0
226042.0 377035.0 0
228437.0 379735.0 0
231181.0 375246.0 0
233534.0 376732.0 0
236445.0 376610.0 0
238401.0 377700.0 0
240617.0 375975.0 0
242753.0 378651.0 0
245398.0 374093.0 0
245221.0 377398.0 0
248275.0 378270.0 0
251904.0 375854.0 0
253814.0 375530.0 0
251288.0 378151.0 0
257124.0 375731.0 0
259715.0 378573.0 0
260426.0 374617.0 0
263148.0 375843.0 0
262034.0 379019.0 0
266155.0 375940.0 0
268775.0 376589.0 0
271452.0 374462.0 0
272781.0 377595.0 0
275230.0 375587.0 0
276959.0 376573.0 0
279132.0 374439.0 0
279254.0 377625.0 0
281689.0 374419.0 0
284391.0 376317.0 0
281072.0 378073.0 0
287502.0 376152.0 0
290040.0 374899.0 0
292186.0 375927.0 0
294453.0 379048.0 0
294456.0 374434.0 0
296498.0 376392.0 0
297258.0 380565.0 0
299002.0 377436.0 0
301249.0 379248.0 0
304995.0 380185.0 0
190065.0 384064.0 0
187843.0 385271.0 0
192158.0 382988.0 0
193992.0 385157.0 0
196788.0 383637.0 0
200211.0 382404.0 0
196234.0 385654.0 0
200732.0 385231.0 0
204345.0 383113.0 0
206736.0 380186.0 0
208977.0 380583.0 0
206076.0 384815.0 0
209009.0 384138.0 0
211777.0 380548.0 0
212290.0 383895.0 0
214942.0 384912.0 0
215344.0 382215.0 0
218092.0 383626.0 0
220665.0 381384.0 0
222569.0 383987.0 0
223316.0 378887.0 0
225801.0 381238.0 0
228741.0 384146.0 0
231106.0 381375.0 0
234132.0 379980.0 0
236802.0 379783.0 0
235838.0 384536.0 0
238545.0 382757.0 0
240201.0 380136.0 0
244371.0 382325.0 0
248075.0 382109.0 0
253291.0 379843.0 0
251260.0 382383.0 0
255802.0 379287.0 0
258531.0 381248.0 0
262537.0 382459.0 0
265172.0 384032.0 0
265360.0 379767.0 0
267667.0 380726.0 0
267735.0 383592.0 0
270006.0 379417.0 0
270721.0 381900.0 0
271644.0 384166.0 0
274473.0 383567.0 0
274508.0 380132.0 0
277735.0 379778.0 0
279209.0 382117.0 0
281775.0 381590.0 0
284402.0 380475.0 0
286981.0 381639.0 0
289311.0 379375.0 0
291920.0 379481.0 0
292076.0 384884.0 0
294469.0 382895.0 0
298468.0 383561.0 0
302384.0 381196.0 0
306546.0 382526.0 0
303774.0 383578.0 0
308560.0 384307.0 0
311871.0 384470.0 0
313652.0 385832.0 0
178508.0 391643.0 0
183536.0 388508.0 0
181390.0 390558.0 0
185534.0 391003.0 0
185996.0 387254.0 0
188755.0 389187.0 0
191743.0 387324.0 0
193396.0 389311.0 0
195857.0 387587.0 0
195739.0 389947.0 0
198637.0 387146.0 0
198415.0 389060.0 0
202208.0 387323.0 0
201760.0 390452.0 0
205020.0 387819.0 0
207101.0 389388.0 0
209298.0 387231.0 0
212310.0 387608.0 0
215150.0 387300.0 0
218279.0 386855.0 0
221826.0 386722.0 0
220940.0 389876.0 0
224640.0 387061.0 0
225759.0 384048.0 0
228064.0 386890.0 0
225127.0 389639.0 0
230764.0 387155.0 0
232570.0 385357.0 0
237142.0 388307.0 0
240459.0 387367.0 0
241629.0 384214.0 0
243798.0 387447.0 0
245812.0 386080.0 0
248586.0 386697.0 0
245179.0 389192.0 0
251461.0 386967.0 0
253889.0 384539.0 0
256991.0 384608.0 0
255715.0 388745.0 0
258710.0 389518.0 0
260639.0 386175.0 0
263202.0 388387.0 0
265647.0 386557.0 0
267306.0 387356.0 0
269355.0 385480.0 0
270983.0 388427.0 0
273319.0 387420.0 0
276027.0 388413.0 0
277800.0 385503.0 0
280928.0 387182.0 0
283198.0 384934.0 0
285553.0 386538.0 0
286560.0 384679.0 0
288887.0 387658.0 0
286084.0 389362.0 0
289458.0 384042.0 0
290347.0 389869.0 0
292673.0 390519.0 0
296443.0 386221.0 0
293699.0 387795.0 0
296490.0 389442.0 0
300838.0 385671.0 0
303437.0 387027.0 0
299088.0 388888.0 0
304039.0 391101.0 0
301543.0 390535.0 0
306219.0 387304.0 0
307050.0 390293.0 0
310217.0 387300.0 0
309058.0 391615.0 0
312078.0 389071.0 0
315254.0 387699.0 0
317494.0 389244.0 0
319917.0 391072.0 0
174048.0 394013.0 0
171852.0 395015.0 0
176170.0 392814.0 0
178760.0 395531.0 0
185327.0 393525.0 0
182126.0 394102.0 0
188880.0 391783.0 0
187991.0 394821.0 0
192151.0 392076.0 0
193447.0 394617.0 0
196262.0 392526.0 0
199534.0 392743.0 0
204490.0 391837.0 0
202012.0 394819.0 0
205268.0 394510.0 0
208811.0 391320.0 0
208106.0 394490.0 0
212236.0 394204.0 0
212027.0 390886.0 0
214954.0 390780.0 0
214888.0 393729.0 0
217686.0 393849.0 0
217606.0 390618.0 0
220479.0 394089.0 0
222845.0 391371.0 0
224059.0 394498.0 0
227942.0 390172.0 0
226959.0 394093.0 0
231237.0 390783.0 0
234463.0 390555.0 0
239320.0 392066.0 0
235287.0 394430.0 0
242099.0 390723.0 0
244599.0 393176.0 0
247646.0 390761.0 0
248900.0 394756.0 0
250636.0 391699.0 0
253032.0 389864.0 0
251952.0 394377.0 0
254718.0 393751.0 0
256901.0 391896.0 0
259217.0 393153.0 0
261031.0 391395.0 0
263305.0 394418.0 0
265359.0 391147.0 0
268419.0 390142.0 0
267710.0 394335.0 0
270205.0 393480.0 0
273259.0 392233.0 0
276782.0 392405.0 0
279682.0 390271.0 0
283416.0 389826.0 0
282136.0 392374.0 0
285728.0 392709.0 0
288576.0 392077.0 0
287994.0 394908.0 0
284081.0 394465.0 0
291170.0 394872.0 0
293750.0 393366.0 0
296768.0 393304.0 0
299836.0 393244.0 0
301880.0 395558.0 0
304698.0 393985.0 0
307079.0 395227.0 0
312912.0 391605.0 0
309825.0 395545.0 0
312211.0 394296.0 0
315665.0 392140.0 0
314623.0 396132.0 0
317189.0 395166.0 0
323227.0 391597.0 0
320208.0 394087.0 0
322610.0 396046.0 0
324875.0 393785.0 0
327134.0 395092.0 0
329357.0 396320.0 0
161922.0 400898.0 0
163966.0 400165.0 0
167606.0 397161.0 0
170198.0 396814.0 0
166036.0 399400.0 0
168130.0 400387.0 0
171108.0 399663.0 0
174432.0 399364.0 0
175867.0 396875.0 0
179150.0 398350.0 0
177533.0 400851.0 0
182817.0 396976.0 0
181205.0 399532.0 0
183058.0 401280.0 0
185815.0 397215.0 0
190327.0 396661.0 0
185663.0 399198.0 0
187418.0 400757.0 0
190192.0 399518.0 0
195275.0 397195.0 0
194978.0 400243.0 0
198544.0 396370.0 0
200494.0 399109.0 0
203480.0 397787.0 0
206050.0 399621.0 0
208613.0 397832.0 0
214464.0 396342.0 0
211355.0 397098.0 0
212700.0 399289.0 0
216914.0 397191.0 0
219999.0 397599.0 0
222902.0 397695.0 0
225808.0 398719.0 0
230241.0 395242.0 0
227951.0 398409.0 0
233035.0 397659.0 0
235513.0 399065.0 0
238571.0 395538.0 0
239067.0 399293.0 0
242821.0 398197.0 0
242305.0 395405.0 0
245183.0 398334.0 0
246350.0 395943.0 0
247943.0 399710.0 0
250432.0 396809.0 0
252878.0 398097.0 0
256442.0 397657.0 0
259849.0 396105.0 0
261170.0 398759.0 0
265631.0 397309.0 0
268785.0 397509.0 0
269469.0 399974.0 0
273462.0 396233.0 0
271071.0 396620.0 0
272343.0 399724.0 0
275312.0 396224.0 0
274975.0 399376.0 0
276890.0 398015.0 0
278993.0 399507.0 0
279333.0 395359.0 0
281614.0 400061.0 0
282504.0 397385.0 0
284734.0 399668.0 0
286408.0 396378.0 0
287788.0 398747.0 0
290960.0 398244.0 0
293830.0 398108.0 0
294432.0 396378.0 0
297006.0 396630.0 0
296304.0 399433.0 0
299650.0 397332.0 0
299325.0 400334.0 0
303534.0 398255.0 0
302077.0 400561.0 0
306038.0 398391.0 0
308590.0 400411.0 0
311114.0 398948.0 0
313941.0 399001.0 0
319261.0 398762.0 0
317631.0 401119.0 0
323655.0 398882.0 0
326702.0 398755.0 0
329367.0 399547.0 0
331539.0 397350.0 0
333534.0 398786.0 0
332573.0 401689.0 0
335852.0 399118.0 0
337290.0 400611.0 0
153813.0 406053.0 0
158775.0 403673.0 0
156950.0 405585.0 0
160286.0 401976.0 0
163023.0 403689.0 0
160496.0 407233.0 0
162585.0 405946.0 0
165445.0 402802.0 0
167644.0 403860.0 0
166510.0 406352.0 0
169384.0 406438.0 0
170132.0 402835.0 0
172184.0 403898.0 0
174859.0 402368.0 0
179243.0 402144.0 0
176148.0 404792.0 0
178909.0 404317.0 0
183706.0 403982.0 0
181282.0 406102.0 0
185588.0 406170.0 0
187102.0 403220.0 0
189371.0 405025.0 0
191991.0 402044.0 0
194811.0 403424.0 0
192775.0 404946.0 0
198053.0 401579.0 0
200218.0 404168.0 0
196531.0 404556.0 0
198876.0 405925.0 0
202176.0 402385.0 0
201646.0 406440.0 0
204055.0 406174.0 0
204676.0 402981.0 0
208738.0 401240.0 0
207403.0 404515.0 0
210738.0 401556.0 0
212487.0 404140.0 0
215860.0 401119.0 0
216107.0 404830.0 0
219382.0 401819.0 0
219586.0 405449.0 0
222337.0 401102.0 0
222804.0 405616.0 0
225192.0 402315.0 0
227800.0 402692.0 0
230841.0 401092.0 0
231109.0 405022.0 0
233301.0 405390.0 0
233727.0 402626.0 0
236194.0 402087.0 0
237941.0 405058.0 0
240824.0 402812.0 0
243415.0 400821.0 0
245796.0 402345.0 0
247568.0 404528.0 0
250715.0 401634.0 0
253355.0 401410.0 0
254413.0 404869.0 0
256209.0 401996.0 0
258950.0 404228.0 0
259452.0 400895.0 0
261587.0 402044.0 0
261632.0 404012.0 0
263749.0 400098.0 0
265080.0 403457.0 0
267658.0 401619.0 0
269474.0 403323.0 0
272383.0 405204.0 0
272124.0 402426.0 0
274725.0 403106.0 0
276014.0 401697.0 0
278651.0 402390.0 0
277863.0 405281.0 0
281703.0 402675.0 0
282016.0 405215.0 0
287903.0 401310.0 0
284724.0 402621.0 0
286669.0 405446.0 0
291850.0 401387.0 0
289810.0 403656.0 0
292060.0 405909.0 0
293879.0 404351.0 0
294802.0 401536.0 0
296596.0 404386.0 0
298822.0 403129.0 0
303743.0 402735.0 0
301134.0 404185.0 0
303510.0 405404.0 0
306503.0 402408.0 0
307585.0 405294.0 0
311665.0 402993.0 0
314001.0 402482.0 0
310583.0 405378.0 0
314594.0 405081.0 0
317074.0 404238.0 0
321484.0 403560.0 0
323201.0 401662.0 0
320190.0 405609.0 0
324168.0 405997.0 0
326965.0 401729.0 0
329688.0 401854.0 0
326673.0 404053.0 0
329492.0 405743.0 0
332609.0 405117.0 0
335295.0 402124.0 0
338644.0 402398.0 0
336553.0 404020.0 0
337940.0 406070.0 0
340884.0 403253.0 0
342946.0 405461.0 0
345764.0 406559.0 0
145174.0 411934.0 0
147376.0 410256.0 0
149899.0 409614.0 0
151980.0 408351.0 0
154635.0 409741.0 0
157409.0 408423.0 0
159185.0 410582.0 0
161958.0 410814.0 0
164790.0 409074.0 0
168141.0 410018.0 0
171382.0 408494.0 0
174056.0 406876.0 0
173451.0 411173.0 0
176153.0 409126.0 0
177495.0 407153.0 0
178966.0 407616.0 0
175923.0 411493.0 0
178325.0 409598.0 0
180111.0 410528.0 0
185171.0 408236.0 0
182500.0 409111.0 0
184218.0 411846.0 0
188868.0 408342.0 0
186999.0 411313.0 0
194948.0 407513.0 0
192525.0 409786.0 0
197969.0 408571.0 0
197246.0 411197.0 0
200626.0 408936.0 0
204772.0 408431.0 0
207376.0 409488.0 0
209638.0 406620.0 0
213970.0 406854.0 0
211887.0 409231.0 0
214105.0 410905.0 0
216980.0 408019.0 0
219266.0 410225.0 0
225805.0 406510.0 0
222407.0 409211.0 0
225412.0 409946.0 0
228567.0 406227.0 0
228780.0 410240.0 0
231926.0 408323.0 0
234726.0 410553.0 0
235553.0 406941.0 0
238473.0 410170.0 0
240237.0 407862.0 0
242619.0 409404.0 0
243293.0 405545.0 0
244645.0 410300.0 0
245640.0 406992.0 0
247924.0 409128.0 0
250879.0 405732.0 0
252518.0 409152.0 0
256499.0 407056.0 0
259633.0 407145.0 0
255676.0 410102.0 0
262235.0 409423.0 0
262610.0 406421.0 0
265519.0 410964.0 0
266438.0 407057.0 0
270164.0 410150.0 0
269555.0 406734.0 0
272413.0 409093.0 0
275045.0 406517.0 0
276059.0 409539.0 0
280146.0 407392.0 0
283827.0 407323.0 0
283088.0 410319.0 0
287801.0 408740.0 0
290776.0 408118.0 0
290826.0 411295.0 0
294207.0 408596.0 0
296932.0 407461.0 0
299169.0 409944.0 0
299762.0 406082.0 0
301714.0 407508.0 0
304522.0 409941.0 0
302203.0 412144.0 0
305882.0 407100.0 0
308300.0 408334.0 0
307764.0 409774.0 0
309355.0 410277.0 0
310139.0 408222.0 0
313597.0 406774.0 0
312423.0 409168.0 0
313157.0 411691.0 0
315803.0 408363.0 0
318035.0 406977.0 0
317009.0 411579.0 0
321674.0 407392.0 0
320039.0 409687.0 0
322271.0 410863.0 0
325207.0 408819.0 0
328403.0 408365.0 0
326427.0 411538.0 0
330302.0 410447.0 0
332633.0 409546.0 0
334108.0 411796.0 0
335064.0 407291.0 0
339569.0 409480.0 0
336646.0 410097.0 0
340298.0 407214.0 0
343086.0 408777.0 0
343136.0 410873.0 0
347920.0 408907.0 0
346038.0 411208.0 0
350704.0 409602.0 0
353116.0 410876.0 0
138050.0 415720.0 0
141054.0 415242.0 0
142755.0 413313.0 0
146698.0 413887.0 0
144475.0 415969.0 0
147625.0 416135.0 0
149842.0 412761.0 0
152247.0 414164.0 0
150300.0 416669.0 0
153730.0 416883.0 0
154622.0 412491.0 0
157531.0 413191.0 0
156254.0 416138.0 0
159089.0 415317.0 0
161683.0 413536.0 0
162871.0 417057.0 0
163554.0 414660.0 0
165295.0 412335.0 0
168837.0 412727.0 0
166960.0 415052.0 0
170925.0 412417.0 0
172963.0 413484.0 0
169998.0 416531.0 0
172688.0 416240.0 0
177166.0 413701.0 0
179913.0 412979.0 0
176388.0 416464.0 0
182350.0 414074.0 0
183893.0 416114.0 0
180178.0 416481.0 0
188597.0 413498.0 0
185783.0 414954.0 0
187956.0 416198.0 0
191320.0 412765.0 0
195217.0 412150.0 0
192484.0 415362.0 0
195199.0 414764.0 0
198999.0 412509.0 0
197939.0 414665.0 0
202633.0 411750.0 0
202350.0 415394.0 0
209342.0 411871.0 0
206323.0 412921.0 0
206988.0 415358.0 0
209620.0 416322.0 0
210978.0 413442.0 0
212912.0 415347.0 0
215496.0 413244.0 0
219124.0 413861.0 0
222505.0 412344.0 0
221900.0 415651.0 0
225363.0 414166.0 0
228644.0 415993.0 0
231265.0 413280.0 0
233734.0 415862.0 0
237095.0 414389.0 0
240811.0 412596.0 0
241216.0 415811.0 0
243662.0 413276.0 0
245977.0 412712.0 0
248820.0 412343.0 0
251690.0 412043.0 0
254237.0 414034.0 0
259396.0 411500.0 0
257931.0 416075.0 0
261895.0 415471.0 0
262658.0 413243.0 0
265632.0 414871.0 0
268702.0 411977.0 0
271495.0 413236.0 0
273759.0 411574.0 0
273177.0 415175.0 0
276537.0 414659.0 0
279198.0 411200.0 0
281152.0 414198.0 0
283374.0 414281.0 0
285942.0 412097.0 0
289206.0 413415.0 0
293993.0 412337.0 0
292750.0 415501.0 0
297482.0 413204.0 0
304543.0 415023.0 0
301164.0 414948.0 0
306758.0 412736.0 0
309722.0 413374.0 0
307532.0 415739.0 0
311348.0 416873.0 0
314270.0 414994.0 0
318167.0 414873.0 0
320777.0 413725.0 0
324031.0 413555.0 0
322739.0 416025.0 0
329566.0 413675.0 0
326993.0 415715.0 0
332869.0 413520.0 0
334390.0 416913.0 0
335333.0 412869.0 0
338104.0 412714.0 0
336874.0 415692.0 0
341102.0 412479.0 0
344038.0 414399.0 0
340747.0 415034.0 0
342758.0 416139.0 0
346622.0 414650.0 0
349493.0 412936.0 0
348680.0 416694.0 0
351658.0 414039.0 0
355079.0 413198.0 0
351496.0 417298.0 0
357315.0 414780.0 0
360491.0 415449.0 0
133655.0 418952.0 0
129345.0 422250.0 0
131783.0 420688.0 0
136245.0 417882.0 0
138204.0 420160.0 0
135735.0 422421.0 0
141298.0 418187.0 0
144175.0 419729.0 0
147190.0 419561.0 0
152850.0 419451.0 0
150078.0 420350.0 0
154494.0 421234.0 0
156133.0 418311.0 0
157456.0 419991.0 0
160068.0 417995.0 0
161653.0 420689.0 0
164639.0 420629.0 0
165830.0 418173.0 0
168944.0 419335.0 0
169262.0 421856.0 0
172924.0 419217.0 0
172573.0 421531.0 0
176736.0 419156.0 0
175213.0 421148.0 0
179023.0 420950.0 0
181054.0 418559.0 0
184065.0 418592.0 0
183972.0 421602.0 0
186666.0 418339.0 0
187743.0 420071.0 0
190686.0 417396.0 0
195222.0 417862.0 0
190883.0 419971.0 0
195042.0 420940.0 0
199108.0 417092.0 0
199442.0 420531.0 0
204124.0 418417.0 0
207316.0 419333.0 0
209889.0 419638.0 0
212685.0 418868.0 0
216098.0 417559.0 0
219523.0 418002.0 0
218483.0 420591.0 0
222090.0 418922.0 0
225132.0 418528.0 0
229835.0 418962.0 0
233081.0 419286.0 0
236235.0 419647.0 0
238706.0 417560.0 0
241994.0 419427.0 0
244658.0 416995.0 0
248166.0 415725.0 0
249671.0 419895.0 0
251860.0 416641.0 0
254465.0 419409.0 0
258017.0 420402.0 0
261032.0 418563.0 0
263889.0 417692.0 0
268929.0 416014.0 0
266974.0 419600.0 0
269558.0 420746.0 0
271901.0 418157.0 0
275092.0 418336.0 0
277514.0 419190.0 0
283781.0 417393.0 0
280134.0 417456.0 0
284338.0 420923.0 0
286706.0 416614.0 0
287509.0 420937.0 0
289932.0 416457.0 0
291106.0 420494.0 0
294527.0 417927.0 0
297180.0 416580.0 0
296148.0 420410.0 0
298633.0 420613.0 0
300164.0 417806.0 0
302752.0 419049.0 0
305482.0 417785.0 0
308763.0 418637.0 0
308980.0 422049.0 0
313842.0 419686.0 0
316522.0 417702.0 0
319069.0 420237.0 0
321117.0 418150.0 0
324612.0 420758.0 0
325041.0 417392.0 0
328644.0 419550.0 0
331195.0 417642.0 0
334234.0 420625.0 0
339457.0 417105.0 0
337063.0 421080.0 0
339313.0 420042.0 0
341677.0 417731.0 0
343837.0 419115.0 0
342309.0 422141.0 0
345469.0 417999.0 0
347504.0 419042.0 0
348469.0 421962.0 0
354095.0 417645.0 0
350923.0 420465.0 0
353522.0 421728.0 0
357666.0 418228.0 0
360281.0 419474.0 0
355720.0 420264.0 0
357298.0 422384.0 0
360123.0 421857.0 0
362818.0 417772.0 0
365416.0 419735.0 0
363523.0 422110.0 0
367841.0 421043.0 0
370769.0 422058.0 0
121828.0 427189.0 0
127268.0 424009.0 0
124666.0 425796.0 0
133295.0 423882.0 0
129449.0 426919.0 0
131985.0 426476.0 0
136403.0 426104.0 0
138922.0 425799.0 0
139946.0 422922.0 0
142987.0 422812.0 0
144106.0 425172.0 0
141515.0 426707.0 0
146747.0 423105.0 0
148518.0 425020.0 0
151022.0 423371.0 0
153490.0 424220.0 0
150402.0 427127.0 0
157551.0 422499.0 0
156439.0 425327.0 0
160054.0 425850.0 0
160736.0 423134.0 0
163078.0 424435.0 0
162502.0 427225.0 0
165837.0 423360.0 0
166601.0 426945.0 0
170074.0 425415.0 0
173494.0 424685.0 0
176401.0 423542.0 0
178336.0 425336.0 0
181070.0 423086.0 0
182179.0 425724.0 0
184947.0 426731.0 0
186654.0 423305.0 0
190082.0 422771.0 0
188840.0 425864.0 0
190707.0 426085.0 0
194043.0 424643.0 0
197645.0 425378.0 0
204121.0 422010.0 0
200465.0 423693.0 0
204737.0 425640.0 0
207136.0 422346.0 0
209997.0 423077.0 0
208215.0 426161.0 0
211321.0 426536.0 0
213106.0 422424.0 0
214087.0 425697.0 0
216061.0 421748.0 0
217928.0 425246.0 0
220880.0 422224.0 0
221448.0 426086.0 0
223815.0 423165.0 0
227154.0 421841.0 0
227329.0 426190.0 0
230218.0 423009.0 0
233125.0 423165.0 0
236205.0 423600.0 0
239487.0 422202.0 0
239071.0 426043.0 0
243779.0 422109.0 0
242427.0 425212.0 0
246267.0 421164.0 0
245793.0 426309.0 0
248756.0 424686.0 0
252205.0 422580.0 0
253891.0 425727.0 0
256211.0 423070.0 0
259268.0 425474.0 0
260643.0 421759.0 0
263619.0 421848.0 0
262852.0 425805.0 0
266433.0 424372.0 0
269699.0 424633.0 0
272468.0 422222.0 0
273774.0 425251.0 0
275157.0 421634.0 0
275663.0 424851.0 0
277863.0 422519.0 0
280978.0 421519.0 0
281904.0 425450.0 0
284579.0 424246.0 0
287474.0 425040.0 0
290335.0 425164.0 0
293904.0 423518.0 0
297537.0 424029.0 0
300563.0 422155.0 0
303416.0 422490.0 0
300355.0 425343.0 0
303817.0 426447.0 0
306162.0 421967.0 0
306412.0 425356.0 0
309165.0 425716.0 0
311961.0 422289.0 0
313487.0 425469.0 0
317011.0 422546.0 0
317609.0 426425.0 0
321713.0 422362.0 0
320729.0 424445.0 0
322814.0 426130.0 0
325212.0 424459.0 0
329309.0 423211.0 0
329265.0 426537.0 0
332710.0 423026.0 0
331896.0 426627.0 0
334934.0 426176.0 0
337385.0 424443.0 0
340615.0 424757.0 0
343441.0 426140.0 0
345648.0 422947.0 0
345954.0 426177.0 0
350566.0 425158.0 0
353355.0 424506.0 0
356672.0 425008.0 0
359354.0 425575.0 0
361471.0 423940.0 0
363787.0 425064.0 0
368013.0 424321.0 0
365983.0 425404.0 0
369728.0 425452.0 0
372832.0 423837.0 0
375628.0 424839.0 0
372494.0 426721.0 0
377449.0 426454.0 0
379870.0 427194.0 0
111378.0 432004.0 0
117002.0 430405.0 0
114576.0 431906.0 0
118966.0 428048.0 0
122213.0 430458.0 0
119763.0 432049.0 0
126970.0 428782.0 0
125296.0 431671.0 0
129359.0 429714.0 0
131938.0 429864.0 0
134771.0 428556.0 0
136403.0 430055.0 0
138888.0 428893.0 0
134770.0 432579.0 0
137338.0 432413.0 0
140592.0 430472.0 0
142398.0 428676.0 0
145887.0 427743.0 0
148941.0 429018.0 0
145167.0 430815.0 0
152582.0 427398.0 0
150306.0 431546.0 0
153447.0 430391.0 0
156439.0 428102.0 0
158722.0 430673.0 0
159476.0 427803.0 0
162062.0 430843.0 0
169267.0 429101.0 0
165759.0 430305.0 0
170974.0 428053.0 0
174076.0 427647.0 0
170085.0 431055.0 0
173313.0 431025.0 0
176932.0 427741.0 0
177482.0 431456.0 0
180153.0 428127.0 0
182891.0 429840.0 0
187467.0 428918.0 0
186096.0 431809.0 0
190477.0 429231.0 0
194113.0 429102.0 0
196473.0 431700.0 0
198119.0 428989.0 0
201188.0 427602.0 0
202476.0 430402.0 0
205250.0 429259.0 0
208293.0 429629.0 0
211276.0 429615.0 0
214155.0 428740.0 0
214140.0 431510.0 0
216687.0 428898.0 0
220191.0 429301.0 0
224131.0 426535.0 0
223554.0 430370.0 0
227062.0 430450.0 0
230358.0 430455.0 0
230764.0 426608.0 0
233864.0 427357.0 0
233809.0 430875.0 0
236590.0 427032.0 0
236990.0 430907.0 0
240785.0 429446.0 0
244626.0 430430.0 0
248562.0 430684.0 0
251029.0 427731.0 0
253622.0 430067.0 0
256489.0 428196.0 0
258564.0 431270.0 0
261309.0 429213.0 0
264217.0 428151.0 0
266457.0 427782.0 0
268504.0 429304.0 0
271709.0 428041.0 0
271942.0 431459.0 0
278428.0 427066.0 0
275209.0 428922.0 0
280071.0 430713.0 0
283287.0 428401.0 0
285971.0 427784.0 0
289004.0 428118.0 0
287239.0 430761.0 0
294224.0 427473.0 0
291116.0 428218.0 0
290521.0 431256.0 0
293256.0 431329.0 0
297290.0 426966.0 0
299821.0 428207.0 0
296109.0 430483.0 0
298370.0 429650.0 0
299929.0 431571.0 0
302279.0 429932.0 0
305895.0 429483.0 0
309318.0 428992.0 0
313276.0 429582.0 0
316957.0 430642.0 0
320499.0 427797.0 0
324113.0 429229.0 0
320817.0 430819.0 0
326796.0 427961.0 0
329174.0 431569.0 0
330994.0 429288.0 0
334362.0 429703.0 0
338379.0 428178.0 0
337766.0 430248.0 0
341122.0 427557.0 0
344625.0 428206.0 0
340335.0 432113.0 0
342751.0 430289.0 0
349039.0 428258.0 0
347224.0 430855.0 0
355195.0 427970.0 0
352941.0 430076.0 0
358128.0 429247.0 0
360219.0 427931.0 0
358741.0 431960.0 0
362642.0 428134.0 0
361232.0 431372.0 0
364531.0 430736.0 0
367269.0 428695.0 0
369743.0 427944.0 0
369670.0 432258.0 0
374095.0 428919.0 0
371908.0 430975.0 0
377436.0 429774.0 0
380977.0 430698.0 0
381613.0 427992.0 0
383229.0 429597.0 0
385374.0 430182.0 0
383910.0 432723.0 0
386864.0 432424.0 0
104812.0 437675.0 0
107493.0 436407.0 0
109747.0 434309.0 0
112970.0 434743.0 0
117182.0 434329.0 0
116900.0 436754.0 0
120642.0 434297.0 0
123461.0 434415.0 0
120261.0 437058.0 0
128093.0 433507.0 0
124515.0 436367.0 0
127439.0 436638.0 0
131539.0 432779.0 0
132803.0 435994.0 0
138598.0 434931.0 0
135762.0 436919.0 0
142224.0 432793.0 0
143630.0 435472.0 0
147644.0 432664.0 0
146871.0 435479.0 0
151744.0 434860.0 0
149930.0 436255.0 0
153703.0 437329.0 0
155943.0 433832.0 0
159348.0 435450.0 0
162422.0 434514.0 0
167764.0 432690.0 0
165528.0 434768.0 0
169683.0 435149.0 0
172869.0 434532.0 0
176542.0 435597.0 0
180674.0 432784.0 0
183751.0 433784.0 0
180539.0 436341.0 0
184388.0 437186.0 0
189967.0 432330.0 0
187758.0 434880.0 0
192980.0 433442.0 0
190245.0 437054.0 0
194478.0 436942.0 0
199757.0 432251.0 0
196745.0 434162.0 0
198553.0 436289.0 0
204828.0 432208.0 0
202421.0 435349.0 0
207686.0 432621.0 0
206181.0 435749.0 0
209446.0 435458.0 0
211544.0 432970.0 0
213819.0 435449.0 0
217471.0 432934.0 0
221156.0 433879.0 0
224373.0 434331.0 0
227209.0 434593.0 0
230476.0 433806.0 0
233547.0 434311.0 0
237058.0 434924.0 0
240452.0 433643.0 0
243857.0 434214.0 0
247696.0 435925.0 0
251947.0 432876.0 0
252058.0 436693.0 0
255490.0 432490.0 0
258267.0 434636.0 0
255423.0 435515.0 0
264728.0 431957.0 0
261358.0 433424.0 0
261074.0 436594.0 0
268979.0 432843.0 0
265135.0 436004.0 0
268019.0 435904.0 0
271957.0 434998.0 0
275616.0 432746.0 0
279117.0 434454.0 0
283771.0 432040.0 0
282172.0 435300.0 0
285468.0 435785.0 0
287447.0 433995.0 0
290520.0 435016.0 0
294010.0 434560.0 0
297326.0 433752.0 0
303136.0 432713.0 0
301161.0 435964.0 0
306145.0 433199.0 0
309341.0 432553.0 0
305225.0 436117.0 0
309264.0 435508.0 0
312461.0 432858.0 0
313335.0 436562.0 0
319865.0 433809.0 0
316855.0 434281.0 0
322744.0 433457.0 0
322067.0 435965.0 0
324247.0 437229.0 0
325929.0 432739.0 0
326772.0 436106.0 0
333911.0 433376.0 0
330335.0 435097.0 0
337423.0 433051.0 0
338481.0 436151.0 0
344984.0 432902.0 0
340948.0 435094.0 0
343534.0 434802.0 0
344931.0 437147.0 0
348926.0 433591.0 0
347508.0 435760.0 0
351471.0 432898.0 0
353230.0 435433.0 0
351012.0 436853.0 0
356098.0 433271.0 0
360701.0 433938.0 0
357530.0 436166.0 0
360694.0 436786.0 0
363358.0 433782.0 0
363768.0 437184.0 0
367071.0 433245.0 0
366514.0 435559.0 0
370472.0 435110.0 0
369126.0 437522.0 0
373056.0 435537.0 0
374038.0 433197.0 0
377167.0 432846.0 0
380372.0 433049.0 0
377405.0 435859.0 0
379931.0 437181.0 0
382390.0 435100.0 0
384777.0 437053.0 0
386845.0 435389.0 0
389293.0 433144.0 0
391315.0 434849.0 0
389165.0 436323.0 0
393602.0 436347.0 0
396254.0 437649.0 0
98833.5 440566.0 0
101925.0 439367.0 0
102607.0 442517.0 0
105991.0 440942.0 0
109772.0 438221.0 0
108723.0 440860.0 0
113586.0 438101.0 0
112992.0 442468.0 0
117712.0 439331.0 0
117093.0 441271.0 0
122387.0 439705.0 0
119546.0 441888.0 0
126074.0 439187.0 0
128054.0 441932.0 0
130005.0 438425.0 0
132676.0 440303.0 0
131571.0 442589.0 0
135822.0 440545.0 0
138733.0 440658.0 0
139771.0 438049.0 0
142721.0 438514.0 0
140373.0 442843.0 0
144044.0 441513.0 0
146752.0 438436.0 0
147496.0 442084.0 0
149624.0 439237.0 0
152637.0 440201.0 0
156582.0 438096.0 0
159320.0 438760.0 0
155738.0 442236.0 0
162769.0 438155.0 0
160093.0 441825.0 0
163756.0 441803.0 0
166415.0 437423.0 0
167599.0 440958.0 0
170122.0 438195.0 0
172900.0 438162.0 0
170915.0 441896.0 0
172584.0 440630.0 0
175673.0 439167.0 0
175087.0 442330.0 0
178935.0 439188.0 0
178425.0 442313.0 0
181593.0 438520.0 0
181838.0 440776.0 0
186445.0 440256.0 0
192670.0 439402.0 0
190328.0 441320.0 0
196836.0 437770.0 0
195370.0 440463.0 0
199333.0 439503.0 0
201013.0 441693.0 0
203497.0 439486.0 0
207266.0 438862.0 0
206308.0 442033.0 0
211507.0 438266.0 0
214403.0 440389.0 0
216956.0 437592.0 0
218956.0 440387.0 0
223778.0 436937.0 0
220787.0 437268.0 0
222427.0 440789.0 0
226492.0 439446.0 0
230164.0 436957.0 0
230468.0 440655.0 0
233808.0 438249.0 0
238600.0 438754.0 0
236063.0 441606.0 0
240894.0 436557.0 0
243223.0 438015.0 0
241445.0 440790.0 0
245629.0 440605.0 0
249659.0 440342.0 0
254055.0 440041.0 0
257908.0 438353.0 0
261182.0 441211.0 0
264200.0 439246.0 0
269956.0 436774.0 0
268457.0 439781.0 0
272144.0 439280.0 0
275200.0 437174.0 0
278310.0 437621.0 0
275755.0 440814.0 0
278938.0 441200.0 0
281614.0 438538.0 0
282616.0 441731.0 0
287916.0 437096.0 0
285355.0 439392.0 0
290372.0 439349.0 0
294223.0 438386.0 0
297710.0 438716.0 0
296304.0 442023.0 0
299864.0 442063.0 0
302250.0 439583.0 0
304777.0 439035.0 0
307678.0 437707.0 0
307418.0 441527.0 0
311016.0 439940.0 0
314266.0 442286.0 0
319491.0 437330.0 0
316564.0 439490.0 0
324063.0 439595.0 0
321436.0 440435.0 0
327919.0 439306.0 0
326434.0 442295.0 0
331368.0 438734.0 0
331609.0 442132.0 0
335424.0 437684.0 0
340228.0 438534.0 0
335342.0 441307.0 0
337761.0 442403.0 0
339209.0 440452.0 0
341982.0 437624.0 0
343377.0 439606.0 0
347319.0 439739.0 0
350629.0 439678.0 0
350461.0 442632.0 0
355263.0 437868.0 0
354335.0 440380.0 0
359243.0 439595.0 0
358301.0 442786.0 0
362347.0 440256.0 0
364659.0 442175.0 0
366095.0 439810.0 0
369027.0 442303.0 0
371486.0 439664.0 0
374700.0 438017.0 0
373160.0 442011.0 0
376596.0 440266.0 0
380301.0 440916.0 0
383425.0 440077.0 0
385886.0 441451.0 0
386965.0 439098.0 0
389149.0 438762.0 0
390637.0 441861.0 0
392151.0 438936.0 0
394586.0 440003.0 0
396604.0 441860.0 0
398456.0 439462.0 0
401005.0 441036.0 0
90630.9 446286.0 0
88115.1 447309.0 0
93266.8 444781.0 0
96201.2 443297.0 0
97028.4 446618.0 0
99146.2 443387.0 0
99652.8 445371.0 0
103385.0 445278.0 0
98885.6 447541.0 0
101163.0 447378.0 0
106935.0 443629.0 0
105479.0 447589.0 0
109519.0 446078.0 0
115769.0 445704.0 0
119170.0 444690.0 0
121991.0 446277.0 0
124147.0 443101.0 0
125988.0 446049.0 0
128791.0 445512.0 0
132178.0 444964.0 0
135392.0 443703.0 0
138093.0 444215.0 0
135522.0 446876.0 0
138426.0 447534.0 0
143930.0 445019.0 0
141276.0 446226.0 0
146664.0 444570.0 0
145515.0 446924.0 0
148125.0 446150.0 0
150153.0 443769.0 0
152814.0 446081.0 0
155866.0 447480.0 0
157810.0 445051.0 0
161107.0 445826.0 0
164844.0 445626.0 0
168193.0 445201.0 0
172214.0 444845.0 0
174781.0 447112.0 0
176619.0 445014.0 0
179486.0 445266.0 0
182876.0 443924.0 0
187525.0 444378.0 0
192800.0 443336.0 0
190420.0 446940.0 0
197819.0 442672.0 0
195610.0 444955.0 0
197954.0 446975.0 0
203603.0 443235.0 0
200345.0 444553.0 0
202683.0 447359.0 0
209743.0 442367.0 0
206511.0 445665.0 0
213073.0 444112.0 0
217008.0 442145.0 0
216176.0 444638.0 0
220098.0 444247.0 0
217531.0 446800.0 0
224270.0 444202.0 0
228265.0 444140.0 0
232500.0 442856.0 0
234936.0 445466.0 0
231353.0 445746.0 0
239141.0 444151.0 0
243390.0 443876.0 0
247978.0 444295.0 0
252016.0 443846.0 0
257652.0 442036.0 0
255500.0 443710.0 0
259370.0 445568.0 0
263794.0 445212.0 0
265717.0 442120.0 0
268486.0 444391.0 0
272459.0 443413.0 0
276862.0 445488.0 0
280962.0 444346.0 0
284736.0 444603.0 0
287974.0 442354.0 0
288249.0 446734.0 0
293444.0 442455.0 0
290761.0 444506.0 0
293638.0 446301.0 0
297536.0 446163.0 0
303673.0 442685.0 0
302034.0 446225.0 0
306271.0 446211.0 0
311052.0 445248.0 0
318625.0 442732.0 0
316116.0 445657.0 0
319512.0 446464.0 0
323179.0 444347.0 0
329478.0 445338.0 0
334486.0 443602.0 0
333552.0 446333.0 0
336812.0 444482.0 0
339672.0 445144.0 0
336644.0 447087.0 0
342406.0 442585.0 0
343873.0 446038.0 0
346286.0 442721.0 0
348694.0 445233.0 0
353465.0 443538.0 0
352748.0 447438.0 0
356773.0 446417.0 0
360695.0 446217.0 0
362183.0 442967.0 0
363568.0 446238.0 0
367456.0 445798.0 0
372151.0 444117.0 0
375523.0 443169.0 0
374962.0 445620.0 0
371766.0 447394.0 0
378732.0 444483.0 0
377403.0 447195.0 0
381390.0 445635.0 0
383467.0 443943.0 0
385962.0 445729.0 0
381801.0 447932.0 0
388148.0 443214.0 0
390672.0 445987.0 0
388838.0 447817.0 0
393721.0 443606.0 0
395346.0 446413.0 0
398630.0 443237.0 0
397728.0 445135.0 0
400115.0 445183.0 0
400587.0 448110.0 0
403266.0 443170.0 0
406243.0 443827.0 0
403729.0 446824.0 0
408439.0 445740.0 0
411281.0 447431.0 0
80932.7 452612.0 0
83252.5 450515.0 0
86134.7 449629.0 0
91331.7 449729.0 0
88275.2 452149.0 0
94621.4 448118.0 0
96166.3 450799.0 0
93166.8 451977.0 0
98390.7 449844.0 0
100175.0 450947.0 0
101811.0 449573.0 0
104608.0 450485.0 0
103388.0 453187.0 0
107386.0 452637.0 0
108707.0 449829.0 0
112415.0 448285.0 0
113247.0 450567.0 0
110655.0 451232.0 0
116625.0 449033.0 0
116989.0 452273.0 0
119811.0 449076.0 0
123696.0 449014.0 0
120461.0 451707.0 0
123810.0 451751.0 0
126246.0 448472.0 0
127170.0 451297.0 0
129553.0 448813.0 0
132956.0 448146.0 0
131127.0 452064.0 0
134507.0 450809.0 0
137678.0 451095.0 0
141544.0 448927.0 0
143453.0 448438.0 0
141308.0 451473.0 0
146531.0 449209.0 0
144733.0 452183.0 0
149539.0 448332.0 0
152756.0 449843.0 0
149314.0 451522.0 0
152771.0 452598.0 0
158321.0 448020.0 0
155668.0 450224.0 0
158628.0 450323.0 0
161925.0 449504.0 0
165052.0 448574.0 0
167934.0 449064.0 0
165085.0 450659.0 0
170756.0 447903.0 0
173148.0 449802.0 0
170421.0 452041.0 0
177973.0 448891.0 0
175495.0 451971.0 0
179058.0 452785.0 0
181624.0 448507.0 0
182877.0 452120.0 0
184922.0 447228.0 0
187045.0 450393.0 0
194072.0 448010.0 0
191475.0 451168.0 0
196083.0 451113.0 0
199892.0 448896.0 0
205500.0 449868.0 0
208926.0 451321.0 0
210024.0 447204.0 0
214318.0 447666.0 0
212162.0 450151.0 0
214647.0 450987.0 0
217636.0 449900.0 0
221240.0 447988.0 0
223054.0 451380.0 0
225484.0 447929.0 0
229270.0 448507.0 0
232757.0 448650.0 0
236899.0 448557.0 0
241255.0 448605.0 0
245375.0 447217.0 0
248292.0 448308.0 0
249954.0 451164.0 0
245876.0 451696.0 0
250905.0 447474.0 0
253130.0 450818.0 0
255230.0 447497.0 0
256984.0 451731.0 0
259009.0 449518.0 0
262438.0 449519.0 0
267369.0 449453.0 0
271152.0 447299.0 0
274171.0 449027.0 0
277962.0 450954.0 0
281302.0 448453.0 0
285190.0 448566.0 0
288543.0 450651.0 0
291505.0 448448.0 0
291605.0 451939.0 0
294797.0 450366.0 0
298386.0 450557.0 0
300969.0 449592.0 0
303828.0 449350.0 0
307564.0 449537.0 0
305898.0 452299.0 0
310635.0 450054.0 0
314887.0 449153.0 0
318661.0 449698.0 0
322553.0 448823.0 0
322354.0 452453.0 0
325153.0 451493.0 0
326361.0 447968.0 0
328517.0 451791.0 0
330862.0 449137.0 0
331835.0 451689.0 0
333826.0 449156.0 0
335490.0 452289.0 0
338087.0 449339.0 0
339427.0 452577.0 0
341292.0 448310.0 0
342382.0 451969.0 0
345231.0 450681.0 0
346525.0 448005.0 0
350167.0 450748.0 0
354024.0 451862.0 0
355644.0 450231.0 0
359029.0 449137.0 0
357669.0 452747.0 0
360640.0 452830.0 0
362928.0 450230.0 0
366866.0 449860.0 0
369989.0 450259.0 0
370330.0 452636.0 0
374504.0 449759.0 0
372893.0 452760.0 0
379760.0 449510.0 0
377491.0 452025.0 0
384494.0 448424.0 0
383331.0 452361.0 0
388019.0 449900.0 0
386363.0 451395.0 0
390108.0 451920.0 0
392613.0 448110.0 0
392109.0 450416.0 0
394819.0 451035.0 0
397199.0 449114.0 0
401758.0 451428.0 0
406536.0 448619.0 0
404988.0 451646.0 0
409810.0 450397.0 0
409470.0 453256.0 0
413894.0 448842.0 0
416527.0 450449.0 0
413139.0 451522.0 0
419178.0 451939.0 0
72273.3 457860.0 0
75066.9 455854.0 0
78002.2 454082.0 0
79556.1 457037.0 0
82290.3 456986.0 0
84347.4 454418.0 0
86593.5 456447.0 0
89868.0 455046.0 0
89919.0 458011.0 0
93448.6 455049.0 0
97122.4 453944.0 0
94278.3 458025.0 0
97592.9 457189.0 0
100339.0 453862.0 0
101051.0 456941.0 0
105120.0 455075.0 0
107256.0 456413.0 0
103597.0 457208.0 0
109970.0 454329.0 0
110886.0 457009.0 0
113690.0 453495.0 0
114477.0 456162.0 0
117928.0 454280.0 0
117402.0 457098.0 0
120490.0 454191.0 0
120049.0 456363.0 0
121940.0 457662.0 0
123808.0 454833.0 0
128237.0 454819.0 0
125684.0 458347.0 0
133251.0 453933.0 0
131070.0 457278.0 0
135836.0 454998.0 0
139487.0 455331.0 0
143289.0 456589.0 0
147117.0 454448.0 0
149924.0 454821.0 0
150672.0 457793.0 0
153267.0 455871.0 0
155443.0 452865.0 0
158802.0 453200.0 0
156729.0 456088.0 0
162709.0 453240.0 0
160397.0 456750.0 0
164570.0 457282.0 0
166606.0 452905.0 0
169108.0 456345.0 0
173187.0 454097.0 0
172850.0 457268.0 0
176555.0 456031.0 0
180384.0 456036.0 0
188273.0 454244.0 0
184212.0 455520.0 0
192661.0 454291.0 0
196524.0 455478.0 0
199055.0 457298.0 0
201116.0 452815.0 0
202111.0 457076.0 0
205718.0 454466.0 0
209444.0 454853.0 0
212242.0 453435.0 0
220021.0 453116.0 0
216013.0 454422.0 0
223909.0 455089.0 0
220538.0 456895.0 0
226578.0 452313.0 0
227887.0 456745.0 0
230345.0 452678.0 0
234134.0 452298.0 0
231626.0 456393.0 0
238143.0 452703.0 0
235042.0 456140.0 0
238802.0 456987.0 0
242175.0 453916.0 0
245184.0 457050.0 0
248592.0 455415.0 0
251493.0 454039.0 0
254448.0 454105.0 0
258361.0 455095.0 0
260499.0 452743.0 0
261621.0 456537.0 0
264197.0 453553.0 0
268187.0 455081.0 0
271563.0 452197.0 0
272094.0 456892.0 0
275419.0 454126.0 0
279542.0 455381.0 0
281549.0 452742.0 0
284881.0 452587.0 0
284080.0 457029.0 0
288847.0 455047.0 0
293578.0 454742.0 0
297802.0 454487.0 0
302003.0 453036.0 0
301740.0 457217.0 0
305435.0 456505.0 0
309855.0 454393.0 0
314512.0 453752.0 0
319026.0 453514.0 0
316924.0 457376.0 0
320391.0 457556.0 0
325391.0 454339.0 0
323139.0 455749.0 0
328460.0 456716.0 0
332184.0 455061.0 0
335265.0 456969.0 0
338624.0 456009.0 0
342190.0 456112.0 0
345228.0 455023.0 0
347537.0 453046.0 0
346753.0 457653.0 0
349303.0 455618.0 0
351995.0 454047.0 0
352478.0 457240.0 0
355645.0 455149.0 0
360798.0 455672.0 0
358120.0 457679.0 0
364264.0 453948.0 0
365601.0 457050.0 0
367354.0 452927.0 0
369297.0 456638.0 0
375644.0 454813.0 0
372744.0 456662.0 0
380547.0 454440.0 0
378676.0 457935.0 0
385710.0 455706.0 0
383249.0 458043.0 0
388353.0 453879.0 0
390743.0 456188.0 0
388166.0 458079.0 0
392436.0 454010.0 0
395319.0 453461.0 0
394938.0 456062.0 0
397838.0 456147.0 0
398854.0 453336.0 0
400580.0 457961.0 0
402257.0 455690.0 0
406491.0 455207.0 0
410843.0 458072.0 0
413312.0 455132.0 0
416738.0 453467.0 0
416388.0 457661.0 0
418540.0 455646.0 0
421306.0 453910.0 0
421345.0 457465.0 0
424092.0 455025.0 0
426432.0 457019.0 0
65568.4 461391.0 0
69240.8 459819.0 0
67813.4 462899.0 0
71534.3 462388.0 0
73315.5 460327.0 0
76572.6 458459.0 0
75706.1 461021.0 0
74373.3 463251.0 0
77689.1 462178.0 0
79417.6 460105.0 0
81569.8 461873.0 0
83686.6 459608.0 0
86765.2 459438.0 0
91731.8 459987.0 0
88378.7 462424.0 0
94833.8 462306.0 0
97708.1 460568.0 0
100872.0 459821.0 0
105470.0 459067.0 0
103084.0 461427.0 0
106996.0 461712.0 0
108889.0 458653.0 0
112954.0 459162.0 0
110578.0 462082.0 0
116006.0 460592.0 0
119689.0 460157.0 0
122812.0 460931.0 0
128465.0 461362.0 0
124496.0 462884.0 0
134583.0 458905.0 0
138415.0 458619.0 0
137297.0 461974.0 0
141545.0 460671.0 0
147025.0 457952.0 0
145344.0 461437.0 0
153581.0 460086.0 0
149506.0 461135.0 0
157731.0 459551.0 0
156200.0 462790.0 0
158812.0 462409.0 0
161430.0 460293.0 0
167415.0 459641.0 0
164823.0 461562.0 0
168203.0 462157.0 0
170208.0 459977.0 0
173540.0 460634.0 0
177622.0 459579.0 0
181347.0 458942.0 0
184060.0 458705.0 0
180662.0 463308.0 0
186896.0 458131.0 0
184859.0 461721.0 0
188445.0 461059.0 0
190622.0 457761.0 0
193961.0 457851.0 0
192257.0 461831.0 0
196311.0 459888.0 0
200442.0 461096.0 0
205168.0 458791.0 0
208389.0 457512.0 0
208998.0 460734.0 0
212216.0 457789.0 0
213334.0 462760.0 0
216692.0 458552.0 0
217105.0 462052.0 0
224431.0 458863.0 0
220751.0 461326.0 0
227219.0 460892.0 0
230145.0 460339.0 0
233061.0 459219.0 0
236278.0 460239.0 0
242034.0 458277.0 0
240236.0 461163.0 0
244026.0 461036.0 0
248222.0 460588.0 0
252022.0 458117.0 0
251980.0 462223.0 0
255776.0 457525.0 0
255410.0 461460.0 0
259026.0 459457.0 0
262223.0 461524.0 0
265176.0 458273.0 0
269181.0 459911.0 0
272742.0 460925.0 0
276272.0 458786.0 0
279209.0 462121.0 0
280401.0 458740.0 0
282479.0 460776.0 0
287912.0 458809.0 0
285927.0 462011.0 0
289765.0 461815.0 0
292503.0 459051.0 0
295003.0 462459.0 0
297609.0 459667.0 0
304575.0 459613.0 0
301920.0 460924.0 0
306897.0 460030.0 0
308884.0 458424.0 0
309919.0 461998.0 0
313172.0 459009.0 0
317408.0 460678.0 0
324874.0 458703.0 0
321633.0 461319.0 0
325223.0 462568.0 0
329547.0 461566.0 0
332609.0 458926.0 0
335495.0 459940.0 0
338808.0 459682.0 0
343026.0 460341.0 0
350097.0 458544.0 0
347609.0 461074.0 0
354900.0 459869.0 0
351654.0 462249.0 0
359846.0 460455.0 0
362496.0 458413.0 0
362928.0 462342.0 0
365817.0 460438.0 0
369203.0 460609.0 0
371926.0 461366.0 0
374781.0 459717.0 0
379826.0 462054.0 0
385746.0 459235.0 0
383257.0 461604.0 0
390064.0 461206.0 0
386464.0 461769.0 0
393518.0 459051.0 0
393540.0 462886.0 0
397641.0 458535.0 0
401131.0 461025.0 0
397484.0 462183.0 0
404079.0 458897.0 0
404377.0 461803.0 0
407149.0 459127.0 0
407453.0 462636.0 0
411944.0 462538.0 0
415659.0 460574.0 0
419406.0 459053.0 0
419025.0 462741.0 0
424084.0 459368.0 0
422577.0 462493.0 0
429238.0 458542.0 0
427009.0 461155.0 0
431811.0 460832.0 0
428752.0 462873.0 0
435518.0 462761.0 0
56920.9 467522.0 0
59082.7 465016.0 0
60999.3 466086.0 0
62994.9 463682.0 0
65232.9 465619.0 0
64829.2 468599.0 0
68593.8 465846.0 0
71426.9 465092.0 0
76125.5 464750.0 0
73745.9 467607.0 0
79320.5 464945.0 0
82834.1 466328.0 0
84582.9 463439.0 0
86780.6 466006.0 0
89923.7 467001.0 0
91861.8 464255.0 0
92054.1 468793.0 0
96554.0 465021.0 0
94356.7 466976.0 0
99319.5 463775.0 0
102053.0 464607.0 0
98452.3 467660.0 0
101188.0 467571.0 0
105637.0 464550.0 0
104629.0 467847.0 0
108761.0 465498.0 0
112463.0 467101.0 0
114619.0 463975.0 0
116216.0 467165.0 0
119203.0 464281.0 0
122721.0 464997.0 0
119638.0 468332.0 0
126051.0 465038.0 0
123654.0 468096.0 0
128533.0 468010.0 0
132438.0 463403.0 0
136227.0 465641.0 0
140063.0 465028.0 0
144080.0 464777.0 0
148169.0 464828.0 0
152719.0 465134.0 0
157446.0 465674.0 0
161917.0 465240.0 0
166681.0 464825.0 0
170585.0 463328.0 0
172897.0 464847.0 0
169473.0 466734.0 0
175975.0 463706.0 0
177423.0 467120.0 0
188113.0 464501.0 0
184669.0 465488.0 0
191437.0 466371.0 0
196188.0 464578.0 0
204963.0 462905.0 0
201146.0 465694.0 0
209009.0 464918.0 0
205413.0 467512.0 0
211803.0 467142.0 0
215141.0 467657.0 0
217908.0 465149.0 0
221392.0 465763.0 0
224732.0 463505.0 0
228609.0 464887.0 0
233141.0 463528.0 0
231476.0 467509.0 0
237615.0 464143.0 0
242322.0 465025.0 0
246095.0 464253.0 0
249888.0 465928.0 0
254711.0 465318.0 0
258734.0 463871.0 0
262686.0 465898.0 0
266226.0 463085.0 0
266542.0 467151.0 0
270633.0 465196.0 0
275443.0 463517.0 0
278885.0 466560.0 0
282683.0 464640.0 0
285815.0 467174.0 0
289073.0 465219.0 0
292887.0 464015.0 0
291967.0 467164.0 0
295071.0 467504.0 0
300253.0 464396.0 0
296788.0 464642.0 0
303043.0 467882.0 0
305616.0 464047.0 0
309994.0 466360.0 0
314346.0 464388.0 0
319267.0 464801.0 0
323564.0 467037.0 0
328315.0 465776.0 0
333859.0 463020.0 0
332722.0 467385.0 0
337730.0 462817.0 0
337641.0 466302.0 0
340655.0 463591.0 0
345298.0 464271.0 0
342491.0 466712.0 0
348840.0 465191.0 0
351427.0 467838.0 0
354302.0 465459.0 0
357491.0 462921.0 0
360709.0 465006.0 0
357779.0 467986.0 0
363907.0 465528.0 0
366839.0 464016.0 0
369979.0 464475.0 0
366573.0 467721.0 0
372822.0 464296.0 0
376240.0 463489.0 0
373500.0 467660.0 0
380687.0 465369.0 0
377397.0 467189.0 0
383594.0 465112.0 0
386494.0 464651.0 0
390048.0 464540.0 0
388119.0 467927.0 0
393012.0 465697.0 0
396444.0 466204.0 0
400277.0 465401.0 0
402790.0 464504.0 0
406234.0 466571.0 0
410484.0 467140.0 0
415594.0 465483.0 0
413790.0 468377.0 0
419649.0 466611.0 0
425043.0 464989.0 0
429116.0 466351.0 0
432447.0 464834.0 0
436812.0 465547.0 0
434173.0 467957.0 0
438993.0 464007.0 0
441341.0 466718.0 0
444600.0 468594.0 0
50704.7 472281.0 0
53598.4 468872.0 0
54868.6 471335.0 0
58405.3 470337.0 0
61626.4 468498.0 0
61553.0 471881.0 0
64663.9 471634.0 0
68993.4 469503.0 0
67951.8 473032.0 0
72831.9 471855.0 0
76806.6 472743.0 0
77454.1 468651.0 0
80910.4 469297.0 0
80829.6 472538.0 0
84711.8 469259.0 0
84277.8 472237.0 0
87379.7 472825.0 0
88105.6 469755.0 0
91485.3 472047.0 0
95793.8 470721.0 0
99481.0 470768.0 0
101995.0 470777.0 0
104987.0 471859.0 0
108198.0 469181.0 0
111918.0 470416.0 0
114631.0 469495.0 0
116680.0 469532.0 0
113948.0 472081.0 0
117467.0 472728.0 0
121086.0 471588.0 0
124782.0 472137.0 0
133118.0 468659.0 0
128844.0 472796.0 0
132515.0 472718.0 0
137174.0 469707.0 0
136617.0 473354.0 0
141270.0 469079.0 0
140560.0 472939.0 0
144795.0 468248.0 0
148260.0 468770.0 0
144838.0 472211.0 0
151726.0 469147.0 0
149229.0 472624.0 0
153427.0 472956.0 0
155904.0 469329.0 0
157123.0 472984.0 0
160161.0 470116.0 0
165232.0 468868.0 0
169073.0 471645.0 0
173331.0 468471.0 0
173559.0 472863.0 0
176936.0 471195.0 0
181719.0 468749.0 0
179967.0 472913.0 0
184113.0 472860.0 0
187044.0 469179.0 0
190529.0 470147.0 0
194285.0 469678.0 0
198136.0 468350.0 0
197950.0 471477.0 0
201837.0 470297.0 0
206397.0 471503.0 0
209197.0 469130.0 0
212047.0 469954.0 0
210304.0 473066.0 0
215113.0 472080.0 0
219477.0 469683.0 0
224568.0 468777.0 0
228768.0 469794.0 0
232517.0 471545.0 0
235373.0 468200.0 0
239378.0 467539.0 0
238775.0 471170.0 0
242272.0 469987.0 0
245718.0 468176.0 0
248665.0 470676.0 0
253115.0 469737.0 0
258532.0 468950.0 0
264180.0 470673.0 0
268800.0 471069.0 0
274921.0 468059.0 0
271739.0 469393.0 0
273448.0 471983.0 0
278164.0 471795.0 0
282296.0 469464.0 0
286383.0 472142.0 0
289550.0 469389.0 0
292739.0 470143.0 0
298968.0 468829.0 0
295722.0 471607.0 0
302981.0 471811.0 0
307487.0 470060.0 0
313163.0 469525.0 0
317777.0 468919.0 0
315667.0 471987.0 0
318854.0 473063.0 0
321349.0 470755.0 0
324605.0 471844.0 0
328358.0 470545.0 0
332742.0 472563.0 0
340066.0 469570.0 0
336384.0 470688.0 0
343784.0 471680.0 0
346920.0 468876.0 0
350145.0 471114.0 0
354589.0 470889.0 0
359281.0 472172.0 0
362440.0 469223.0 0
363383.0 473113.0 0
370092.0 467591.0 0
367474.0 472154.0 0
371538.0 471238.0 0
375393.0 470916.0 0
378977.0 471267.0 0
381167.0 468525.0 0
384108.0 468415.0 0
382951.0 473022.0 0
386827.0 471578.0 0
390953.0 472486.0 0
392108.0 469029.0 0
395729.0 470007.0 0
394849.0 473360.0 0
399673.0 468801.0 0
399425.0 472437.0 0
402799.0 468681.0 0
406764.0 470303.0 0
403727.0 472498.0 0
409947.0 470871.0 0
413386.0 471515.0 0
416996.0 468873.0 0
416689.0 472492.0 0
419276.0 470196.0 0
422823.0 468776.0 0
426971.0 468851.0 0
424613.0 472691.0 0
427911.0 471547.0 0
431147.0 469772.0 0
435660.0 472048.0 0
432564.0 473018.0 0
438450.0 469265.0 0
440790.0 473147.0 0
443462.0 471301.0 0
447947.0 470443.0 0
446313.0 473407.0 0
451007.0 472102.0 0
39377.3 478349.0 0
42343.8 475998.0 0
46405.7 474565.0 0
45046.4 478061.0 0
49782.0 477669.0 0
53905.6 474721.0 0
54146.2 477736.0 0
57357.5 473984.0 0
61401.1 474923.0 0
58110.2 477851.0 0
65085.5 474779.0 0
62580.8 478526.0 0
66816.8 478261.0 0
70794.2 475569.0 0
75012.0 476004.0 0
73493.6 478365.0 0
79041.7 476756.0 0
82599.5 475549.0 0
85612.0 475660.0 0
82953.3 478773.0 0
87081.9 478562.0 0
89476.9 475485.0 0
91263.2 477923.0 0
94025.5 475230.0 0
96763.5 477756.0 0
98292.3 473970.0 0
101594.0 473725.0 0
100692.0 477986.0 0
104699.0 475486.0 0
107477.0 477908.0 0
109358.0 473770.0 0
110673.0 477931.0 0
113820.0 475600.0 0
117272.0 476668.0 0
121113.0 475521.0 0
126145.0 476135.0 0
130125.0 476546.0 0
134099.0 476737.0 0
138628.0 476585.0 0
142746.0 476188.0 0
147028.0 476351.0 0
151372.0 476861.0 0
155892.0 476545.0 0
159114.0 473975.0 0
163279.0 473438.0 0
159975.0 477260.0 0
163558.0 477909.0 0
166813.0 476001.0 0
171327.0 477073.0 0
176514.0 475501.0 0
181278.0 476230.0 0
187773.0 473541.0 0
185565.0 477113.0 0
190789.0 472963.0 0
190313.0 477611.0 0
194875.0 474734.0 0
199951.0 474442.0 0
203575.0 473923.0 0
202681.0 477357.0 0
206840.0 475933.0 0
212927.0 475292.0 0
218636.0 473713.0 0
215996.0 476710.0 0
222162.0 473276.0 0
220201.0 476839.0 0
224130.0 477181.0 0
226005.0 473528.0 0
229682.0 473811.0 0
228492.0 477709.0 0
232617.0 476200.0 0
236013.0 473669.0 0
244864.0 472724.0 0
240789.0 474903.0 0
244483.0 477500.0 0
248222.0 475369.0 0
251462.0 473418.0 0
251912.0 477463.0 0
255742.0 474558.0 0
260971.0 474512.0 0
266160.0 475789.0 0
270889.0 475367.0 0
275423.0 475166.0 0
279599.0 476521.0 0
282416.0 473846.0 0
282732.0 476787.0 0
286135.0 477223.0 0
291349.0 474521.0 0
299495.0 473368.0 0
296493.0 475257.0 0
302450.0 475573.0 0
299768.0 477743.0 0
305962.0 474670.0 0
311046.0 473934.0 0
315585.0 475588.0 0
319269.0 476472.0 0
322616.0 475035.0 0
326472.0 474794.0 0
329861.0 474393.0 0
328917.0 477303.0 0
333128.0 477477.0 0
336321.0 474958.0 0
340089.0 473302.0 0
339519.0 476490.0 0
343974.0 477261.0 0
347684.0 473780.0 0
349608.0 478093.0 0
351806.0 474607.0 0
356316.0 475537.0 0
353476.0 478263.0 0
361234.0 476469.0 0
366361.0 476808.0 0
370482.0 475279.0 0
373880.0 474013.0 0
377691.0 474807.0 0
381289.0 476758.0 0
384914.0 478232.0 0
387746.0 475413.0 0
392374.0 476813.0 0
397301.0 474046.0 0
401414.0 475979.0 0
397398.0 477440.0 0
404718.0 476445.0 0
408041.0 474601.0 0
412057.0 474804.0 0
410712.0 477691.0 0
415669.0 475801.0 0
420427.0 473696.0 0
418580.0 477041.0 0
422530.0 476756.0 0
426049.0 476110.0 0
429334.0 474255.0 0
429957.0 477808.0 0
433619.0 476370.0 0
437547.0 475389.0 0
443808.0 476677.0 0
449100.0 474191.0 0
450642.0 475476.0 0
448338.0 477365.0 0
451299.0 478129.0 0
453898.0 474796.0 0
457743.0 476802.0 0
461519.0 477783.0 0
32081.4 482917.0 0
35450.4 480243.0 0
35203.6 483295.0 0
39287.9 482405.0 0
42704.3 479349.0 0
46140.9 480633.0 0
43520.7 482097.0 0
48901.3 482173.0 0
52338.1 480816.0 0
56096.8 481855.0 0
60625.3 482049.0 0
64300.8 482142.0 0
71090.6 480511.0 0
67776.2 482283.0 0
76461.1 479989.0 0
73799.2 483063.0 0
80359.2 480753.0 0
81397.6 483589.0 0
84745.5 482045.0 0
89670.6 481218.0 0
93927.5 479672.0 0
97434.7 481407.0 0
100999.0 482549.0 0
104590.0 479867.0 0
108948.0 481930.0 0
114089.0 480279.0 0
118575.0 479757.0 0
123009.0 479459.0 0
120282.0 483388.0 0
127957.0 480085.0 0
125300.0 483444.0 0
131634.0 480360.0 0
136453.0 480392.0 0
140997.0 480022.0 0
144734.0 479610.0 0
148666.0 480846.0 0
152964.0 480424.0 0
156912.0 480714.0 0
161542.0 482015.0 0
166582.0 480324.0 0
170422.0 482831.0 0
174872.0 480055.0 0
178619.0 478870.0 0
178427.0 482892.0 0
182268.0 480716.0 0
186780.0 482255.0 0
192279.0 482450.0 0
194729.0 479345.0 0
198409.0 478317.0 0
197356.0 482854.0 0
201329.0 480973.0 0
205721.0 480354.0 0
210831.0 478818.0 0
212821.0 483146.0 0
214974.0 480313.0 0
217780.0 479796.0 0
221337.0 481307.0 0
225704.0 480909.0 0
229196.0 481657.0 0
232386.0 480154.0 0
236877.0 478447.0 0
235038.0 482857.0 0
241213.0 479118.0 0
244553.0 482239.0 0
248429.0 479761.0 0
255068.0 478932.0 0
252230.0 481238.0 0
258370.0 478661.0 0
256205.0 482070.0 0
262300.0 478424.0 0
260746.0 482475.0 0
269222.0 479598.0 0
265334.0 480526.0 0
273748.0 479367.0 0
276998.0 478056.0 0
275616.0 483131.0 0
278526.0 480925.0 0
282401.0 479558.0 0
285947.0 482841.0 0
290287.0 480153.0 0
295060.0 478808.0 0
298210.0 481348.0 0
303902.0 478440.0 0
301905.0 481334.0 0
308380.0 478476.0 0
306051.0 482203.0 0
312934.0 478994.0 0
314133.0 482781.0 0
317697.0 480033.0 0
321354.0 478780.0 0
325488.0 479258.0 0
322199.0 483085.0 0
330113.0 480957.0 0
333776.0 481693.0 0
337928.0 480081.0 0
343547.0 482863.0 0
347367.0 480949.0 0
350309.0 481839.0 0
353157.0 481203.0 0
357792.0 480822.0 0
363651.0 480874.0 0
367658.0 480957.0 0
369838.0 478755.0 0
371608.0 482868.0 0
373840.0 478277.0 0
375594.0 482543.0 0
378272.0 479496.0 0
382242.0 481430.0 0
386280.0 482640.0 0
389381.0 479765.0 0
390798.0 483645.0 0
393904.0 480812.0 0
398569.0 482182.0 0
402640.0 479947.0 0
405936.0 482835.0 0
407579.0 479216.0 0
411106.0 480732.0 0
413807.0 478806.0 0
417209.0 480047.0 0
414381.0 483312.0 0
421608.0 480294.0 0
419097.0 483599.0 0
426056.0 479953.0 0
429517.0 482432.0 0
432565.0 480122.0 0
435766.0 479488.0 0
437382.0 482538.0 0
434094.0 482980.0 0
439878.0 479177.0 0
440736.0 483969.0 0
443600.0 481208.0 0
447108.0 480802.0 0
450615.0 481540.0 0
448150.0 483951.0 0
454621.0 479858.0 0
454161.0 483550.0 0
457490.0 483723.0 0
459531.0 480550.0 0
461525.0 484075.0 0
463971.0 480609.0 0
467435.0 481945.0 0
24417.8 486321.0 0
22761.1 488145.0 0
28132.3 486454.0 0
32716.2 486343.0 0
35446.8 485485.0 0
35102.5 489000.0 0
38115.6 486477.0 0
42356.0 486149.0 0
45742.8 484317.0 0
45974.5 488248.0 0
48892.4 486162.0 0
52080.4 484206.0 0
55010.6 485372.0 0
52535.1 488590.0 0
58514.5 485317.0 0
61976.5 485824.0 0
56685.4 487897.0 0
65780.2 485367.0 0
63866.5 488680.0 0
70273.7 485114.0 0
67651.3 488534.0 0
71761.0 488949.0 0
74703.3 486492.0 0
77912.9 484058.0 0
80269.6 486369.0 0
77962.8 487889.0 0
80761.6 488714.0 0
83480.6 486634.0 0
86221.1 488913.0 0
87603.8 484962.0 0
90259.7 488169.0 0
93472.2 484221.0 0
98290.7 485659.0 0
102301.0 486741.0 0
104646.0 483814.0 0
107335.0 486955.0 0
112071.0 485183.0 0
116275.0 484111.0 0
115073.0 488495.0 0
122325.0 486415.0 0
118586.0 487436.0 0
126340.0 488763.0 0
129450.0 484369.0 0
133890.0 484431.0 0
139141.0 484233.0 0
141703.0 488195.0 0
144179.0 483896.0 0
148321.0 484968.0 0
146046.0 488197.0 0
151112.0 483552.0 0
151079.0 488112.0 0
154168.0 483979.0 0
157816.0 484295.0 0
155915.0 487231.0 0
160635.0 487814.0 0
165402.0 485274.0 0
168887.0 488136.0 0
172648.0 486526.0 0
174634.0 483795.0 0
176828.0 487508.0 0
182279.0 486028.0 0
189442.0 485009.0 0
187261.0 488088.0 0
191446.0 486727.0 0
194922.0 486526.0 0
203051.0 484423.0 0
199389.0 486977.0 0
208379.0 484562.0 0
213394.0 487627.0 0
217000.0 483984.0 0
223895.0 484190.0 0
220542.0 486396.0 0
224257.0 487844.0 0
227180.0 484618.0 0
231697.0 485169.0 0
239408.0 483328.0 0
236180.0 487458.0 0
242341.0 487007.0 0
249064.0 483820.0 0
245938.0 486326.0 0
253325.0 485255.0 0
257782.0 486444.0 0
264440.0 484649.0 0
261890.0 487312.0 0
268028.0 483921.0 0
271886.0 483286.0 0
270613.0 487505.0 0
274384.0 486387.0 0
278593.0 485753.0 0
281660.0 483306.0 0
283513.0 487374.0 0
289787.0 484898.0 0
294177.0 483956.0 0
291823.0 487495.0 0
299289.0 485750.0 0
303780.0 484890.0 0
310327.0 483042.0 0
308039.0 486906.0 0
313160.0 487089.0 0
317570.0 484812.0 0
320749.0 487230.0 0
324724.0 487655.0 0
327145.0 484115.0 0
331575.0 484676.0 0
335295.0 484564.0 0
333822.0 487940.0 0
339034.0 484525.0 0
337661.0 488099.0 0
341866.0 487581.0 0
348429.0 484347.0 0
346071.0 487459.0 0
350742.0 488183.0 0
352034.0 484518.0 0
354664.0 483941.0 0
354631.0 487143.0 0
357239.0 485351.0 0
361606.0 485270.0 0
367068.0 485428.0 0
371516.0 486859.0 0
375402.0 486295.0 0
379092.0 484130.0 0
379860.0 487772.0 0
383158.0 485337.0 0
387528.0 486578.0 0
395166.0 484804.0 0
392077.0 487902.0 0
396092.0 488752.0 0
399288.0 486708.0 0
402481.0 484643.0 0
405878.0 486415.0 0
402456.0 488223.0 0
404428.0 488826.0 0
409762.0 483846.0 0
409653.0 487269.0 0
417286.0 487005.0 0
413010.0 487104.0 0
421326.0 486806.0 0
424498.0 484328.0 0
425077.0 488966.0 0
428963.0 486759.0 0
432611.0 485422.0 0
436563.0 485763.0 0
433668.0 488788.0 0
437748.0 488726.0 0
439982.0 487329.0 0
444938.0 484366.0 0
443238.0 487602.0 0
447107.0 487128.0 0
451237.0 486010.0 0
455686.0 486989.0 0
458997.0 486652.0 0
462191.0 487993.0 0
465420.0 485111.0 0
470177.0 484467.0 0
468365.0 487497.0 0
472622.0 488935.0 0
473727.0 485610.0 0
476566.0 487968.0 0
12764.4 494401.0 0
16258.4 492640.0 0
19689.6 490410.0 0
20270.6 494584.0 0
23944.8 490908.0 0
27437.1 490929.0 0
31260.3 490075.0 0
34506.3 493540.0 0
39057.8 490219.0 0
43074.2 489891.0 0
41793.4 492941.0 0
46151.3 493307.0 0
48905.4 490098.0 0
51594.1 492803.0 0
55901.2 491124.0 0
54924.4 494067.0 0
59810.3 489127.0 0
58961.4 493753.0 0
62118.9 491496.0 0
65800.4 492184.0 0
69451.5 491807.0 0
75376.1 490075.0 0
73219.0 493745.0 0
78710.7 491822.0 0
83013.1 490964.0 0
87617.8 492187.0 0
84486.8 493399.0 0
91812.2 491798.0 0
95024.2 488981.0 0
95285.2 493259.0 0
99193.1 490150.0 0
101719.0 493057.0 0
104028.0 490149.0 0
108183.0 491361.0 0
111135.0 488883.0 0
118066.0 491614.0 0
113191.0 492708.0 0
121275.0 489638.0 0
123073.0 493288.0 0
131362.0 489027.0 0
128645.0 493838.0 0
136715.0 488704.0 0
134044.0 493514.0 0
143587.0 491095.0 0
139476.0 492723.0 0
147210.0 492026.0 0
151160.0 493255.0 0
156095.0 491938.0 0
161162.0 493262.0 0
164934.0 490509.0 0
168612.0 493124.0 0
172528.0 490691.0 0
176354.0 492778.0 0
179834.0 490486.0 0
183527.0 491489.0 0
191768.0 490847.0 0
196282.0 489758.0 0
195248.0 493879.0 0
200136.0 491990.0 0
204073.0 492990.0 0
204222.0 488856.0 0
208862.0 489821.0 0
212368.0 492757.0 0
217522.0 488227.0 0
215909.0 491160.0 0
220642.0 492433.0 0
228435.0 488638.0 0
225507.0 491670.0 0
232389.0 490457.0 0
239588.0 490145.0 0
236071.0 492682.0 0
244455.0 491741.0 0
249666.0 489065.0 0
254885.0 490091.0 0
256199.0 494111.0 0
259635.0 491704.0 0
263174.0 490235.0 0
266369.0 488640.0 0
273352.0 490193.0 0
269876.0 492568.0 0
276296.0 489066.0 0
275901.0 492951.0 0
279868.0 490430.0 0
284344.0 492741.0 0
287939.0 488569.0 0
288847.0 492757.0 0
295426.0 488565.0 0
292060.0 490938.0 0
295649.0 492475.0 0
299439.0 490777.0 0
303632.0 488981.0 0
303844.0 493450.0 0
306961.0 491076.0 0
310557.0 491025.0 0
314425.0 491070.0 0
317328.0 489096.0 0
317744.0 493265.0 0
321398.0 491136.0 0
329659.0 488693.0 0
326074.0 492495.0 0
330649.0 493511.0 0
335671.0 492636.0 0
340626.0 491196.0 0
343990.0 490674.0 0
347556.0 491837.0 0
354676.0 491011.0 0
351429.0 492655.0 0
358794.0 489608.0 0
357421.0 493586.0 0
363581.0 489746.0 0
366688.0 489545.0 0
369595.0 489514.0 0
366982.0 492897.0 0
370949.0 492803.0 0
373280.0 489959.0 0
376999.0 490243.0 0
380536.0 492530.0 0
384213.0 489533.0 0
389218.0 491414.0 0
394335.0 492588.0 0
399523.0 491137.0 0
403742.0 491968.0 0
407375.0 489779.0 0
411231.0 490315.0 0
408385.0 493426.0 0
415498.0 490489.0 0
420888.0 491088.0 0
425762.0 493075.0 0
429259.0 490904.0 0
432797.0 492375.0 0
437214.0 492152.0 0
440979.0 490239.0 0
441893.0 493947.0 0
445647.0 491308.0 0
449733.0 489863.0 0
450780.0 494321.0 0
453767.0 490313.0 0
455610.0 494178.0 0
458307.0 490593.0 0
462656.0 491797.0 0
465637.0 489512.0 0
467104.0 493835.0 0
468837.0 490458.0 0
471987.0 493396.0 0
476110.0 492055.0 0
479531.0 490262.0 0
482998.0 493086.0 0
6932.0 497777.0 0
9738.98 496306.0 0
12102.7 499214.0 0
15909.0 496420.0 0
18760.0 498412.0 0
25000.9 494920.0 0
22531.9 499022.0 0
29580.0 494299.0 0
27553.2 498557.0 0
32211.2 498276.0 0
36684.2 497744.0 0
38480.3 494273.0 0
41447.9 496643.0 0
49585.6 496255.0 0
53234.5 497033.0 0
56783.4 497041.0 0
62844.2 495296.0 0
65798.2 495554.0 0
65419.5 498919.0 0
68654.5 495390.0 0
70318.9 499015.0 0
73981.7 497590.0 0
76138.1 498617.0 0
77413.2 495810.0 0
81710.1 495576.0 0
86241.6 496221.0 0
91082.6 495932.0 0
95221.0 497477.0 0
98612.8 494730.0 0
101823.0 495960.0 0
99384.6 498722.0 0
104733.0 494201.0 0
104200.0 498875.0 0
108695.0 495840.0 0
113086.0 497760.0 0
117116.0 495399.0 0
121133.0 497628.0 0
125337.0 496723.0 0
128119.0 497981.0 0
132121.0 498013.0 0
137566.0 498268.0 0
143610.0 495847.0 0
148316.0 496671.0 0
153634.0 497848.0 0
158335.0 496408.0 0
161553.0 497902.0 0
164974.0 495561.0 0
168681.0 497965.0 0
172328.0 495473.0 0
176392.0 497469.0 0
180095.0 494757.0 0
183811.0 496325.0 0
187652.0 493518.0 0
187059.0 497794.0 0
191133.0 496786.0 0
195298.0 498175.0 0
198539.0 496351.0 0
202698.0 497011.0 0
207627.0 495120.0 0
211661.0 497202.0 0
215885.0 495847.0 0
223020.0 496970.0 0
225358.0 495178.0 0
228725.0 493329.0 0
228058.0 497547.0 0
232124.0 495684.0 0
240158.0 494836.0 0
236210.0 497905.0 0
243164.0 497337.0 0
248648.0 493647.0 0
246650.0 496665.0 0
252185.0 494063.0 0
250625.0 498446.0 0
255134.0 497767.0 0
260172.0 497454.0 0
264759.0 494156.0 0
268413.0 497076.0 0
273093.0 497059.0 0
279711.0 495065.0 0
287423.0 496255.0 0
292586.0 496436.0 0
299301.0 496305.0 0
304679.0 498067.0 0
308081.0 494816.0 0
313138.0 495296.0 0
317676.0 497475.0 0
322375.0 496482.0 0
327984.0 497972.0 0
333480.0 497736.0 0
340002.0 494225.0 0
339433.0 498352.0 0
344116.0 495139.0 0
349408.0 496680.0 0
354261.0 495384.0 0
358199.0 497241.0 0
361883.0 494144.0 0
365781.0 496782.0 0
370603.0 496912.0 0
375182.0 494419.0 0
374469.0 498259.0 0
378565.0 495566.0 0
377914.0 498311.0 0
385584.0 494450.0 0
381921.0 497089.0 0
390863.0 496592.0 0
395404.0 496613.0 0
397903.0 494771.0 0
401171.0 495369.0 0
398528.0 497883.0 0
405190.0 496083.0 0
402145.0 498763.0 0
409921.0 497709.0 0
412934.0 494324.0 0
414602.0 498659.0 0
417766.0 495119.0 0
422679.0 495957.0 0
427005.0 497099.0 0
430007.0 494750.0 0
431185.0 498881.0 0
434172.0 495678.0 0
438639.0 496425.0 0
442715.0 497896.0 0
446073.0 496292.0 0
449628.0 499321.0 0
453917.0 498296.0 0
457581.0 497233.0 0
459723.0 494439.0 0
461641.0 498900.0 0
463392.0 495478.0 0
466335.0 498330.0 0
470336.0 497686.0 0
475017.0 496568.0 0
478910.0 494969.0 0
482775.0 498101.0 0
487058.0 495351.0 0
485276.0 500673.0 0
490631.0 496826.0 0
493615.0 499175.0 0
3718.79 500062.0 0
2529.64 503627.0 0
7773.76 502109.0 0
11784.9 502887.0 0
15013.0 503622.0 0
16256.3 500223.0 0
19409.7 502405.0 0
25327.3 502282.0 0
29832.0 502244.0 0
34716.7 501696.0 0
39585.8 500639.0 0
45631.4 499284.0 0
43137.1 503840.0 0
51004.8 500516.0 0
48334.1 503980.0 0
55517.2 500650.0 0
60452.5 499267.0 0
58633.6 503997.0 0
67139.9 502255.0 0
63307.9 503139.0 0
70794.6 503769.0 0
74352.4 501013.0 0
79195.1 499958.0 0
81768.1 503431.0 0
83692.6 499606.0 0
86441.6 503476.0 0
88190.6 499620.0 0
91979.2 500472.0 0
95984.4 501814.0 0
100786.0 502922.0 0
105493.0 503310.0 0
108912.0 500580.0 0
112844.0 502413.0 0
116793.0 499982.0 0
120528.0 502535.0 0
125032.0 500827.0 0
129726.0 501755.0 0
134188.0 502775.0 0
142116.0 500483.0 0
146020.0 500073.0 0
144096.0 503336.0 0
147773.0 503747.0 0
149677.0 500485.0 0
158140.0 500921.0 0
161947.0 503656.0 0
164719.0 500001.0 0
165305.0 503013.0 0
168793.0 502637.0 0
172684.0 500006.0 0
176662.0 501585.0 0
180411.0 499330.0 0
180858.0 503246.0 0
184343.0 500447.0 0
188244.0 501229.0 0
193041.0 502273.0 0
199020.0 501047.0 0
203889.0 501750.0 0
205844.0 499254.0 0
208863.0 500568.0 0
213791.0 500990.0 0
219460.0 499853.0 0
224771.0 500587.0 0
228178.0 500555.0 0
227934.0 503479.0 0
232005.0 501319.0 0
236962.0 502830.0 0
240370.0 499971.0 0
244678.0 501295.0 0
247749.0 500126.0 0
252861.0 501905.0 0
249019.0 503124.0 0
257215.0 502006.0 0
261568.0 502988.0 0
264942.0 499708.0 0
269524.0 501388.0 0
274121.0 502752.0 0
277838.0 499432.0 0
283328.0 498816.0 0
288462.0 500460.0 0
292536.0 501927.0 0
296409.0 500755.0 0
301036.0 502197.0 0
309621.0 499584.0 0
305746.0 502404.0 0
314768.0 500316.0 0
312097.0 503738.0 0
320204.0 502083.0 0
324471.0 500811.0 0
327607.0 503405.0 0
331213.0 501587.0 0
335716.0 502744.0 0
345206.0 500485.0 0
349813.0 500679.0 0
354169.0 499616.0 0
352143.0 502918.0 0
358374.0 500925.0 0
360962.0 503910.0 0
362452.0 499627.0 0
365797.0 503850.0 0
367242.0 499988.0 0
371005.0 501738.0 0
376075.0 501750.0 0
386342.0 499131.0 0
381837.0 501897.0 0
390016.0 501162.0 0
386835.0 503280.0 0
394751.0 500535.0 0
399556.0 501664.0 0
406242.0 500196.0 0
403249.0 503073.0 0
411500.0 501977.0 0
416587.0 502803.0 0
419496.0 499377.0 0
421498.0 503933.0 0
424194.0 500503.0 0
428478.0 501448.0 0
432006.0 504108.0 0
435661.0 500480.0 0
436613.0 504500.0 0
439971.0 499824.0 0
439884.0 503193.0 0
442777.0 501321.0 0
445703.0 500512.0 0
448284.0 503504.0 0
452623.0 502313.0 0
457307.0 501313.0 0
461583.0 502775.0 0
465427.0 502050.0 0
469286.0 501465.0 0
471873.0 504681.0 0
473598.0 500925.0 0
478611.0 500098.0 0
486992.0 504843.0 0
488873.0 500463.0 0
497384.0 500091.0 0
2086.17 507006.0 0
6789.1 507021.0 0
11137.4 505601.0 0
14662.9 507206.0 0
18421.7 506489.0 0
22493.1 504936.0 0
26849.1 505720.0 0
28442.1 509006.0 0
32233.9 506183.0 0
37968.0 504957.0 0
41600.6 508246.0 0
45779.9 507474.0 0
50208.4 508326.0 0
53359.5 504456.0 0
56308.8 509166.0 0
61963.0 507272.0 0
66462.5 505902.0 0
70498.6 507991.0 0
76495.1 505739.0 0
82736.5 508104.0 0
87395.5 507532.0 0
91788.6 505297.0 0
97033.8 506271.0 0
101190.0 507664.0 0
103471.0 505625.0 0
105844.0 508314.0 0
109318.0 505414.0 0
113019.0 506783.0 0
116571.0 504785.0 0
123438.0 504845.0 0
120128.0 507190.0 0
127116.0 505112.0 0
124279.0 508584.0 0
130974.0 505527.0 0
128998.0 508991.0 0
134495.0 508346.0 0
139255.0 504704.0 0
143986.0 507019.0 0
153091.0 503949.0 0
149068.0 507968.0 0
157757.0 505475.0 0
161142.0 508717.0 0
165597.0 506273.0 0
173313.0 504330.0 0
169946.0 507402.0 0
177471.0 505275.0 0
180955.0 507371.0 0
185103.0 504905.0 0
189314.0 504687.0 0
193428.0 507382.0 0
196937.0 505369.0 0
201502.0 505665.0 0
206979.0 505625.0 0
210631.0 503589.0 0
213045.0 505914.0 0
216805.0 504177.0 0
216761.0 508209.0 0
221242.0 505624.0 0
225081.0 504376.0 0
226829.0 506816.0 0
230325.0 506077.0 0
234250.0 505948.0 0
238129.0 508370.0 0
241013.0 504485.0 0
242353.0 508186.0 0
245491.0 505790.0 0
254189.0 505507.0 0
250109.0 508205.0 0
258261.0 506576.0 0
254976.0 509450.0 0
262095.0 507207.0 0
265921.0 504994.0 0
270957.0 507672.0 0
276889.0 507207.0 0
280181.0 503458.0 0
290075.0 504906.0 0
285132.0 504972.0 0
288619.0 508640.0 0
292412.0 507904.0 0
295621.0 505286.0 0
299410.0 506757.0 0
303649.0 506467.0 0
308714.0 506376.0 0
313445.0 508036.0 0
315992.0 504511.0 0
319089.0 508462.0 0
323887.0 505953.0 0
327901.0 508609.0 0
331853.0 506076.0 0
337202.0 508339.0 0
340978.0 503905.0 0
344985.0 505133.0 0
342578.0 508397.0 0
348340.0 504082.0 0
347247.0 508622.0 0
351741.0 506756.0 0
356185.0 504212.0 0
359306.0 507300.0 0
363104.0 508108.0 0
369830.0 505603.0 0
367506.0 508828.0 0
373826.0 505542.0 0
371390.0 508607.0 0
378847.0 506080.0 0
384108.0 507012.0 0
386603.0 509121.0 0
387985.0 506172.0 0
392016.0 504995.0 0
397080.0 505270.0 0
400871.0 505273.0 0
400191.0 509098.0 0
404193.0 507100.0 0
407281.0 504194.0 0
410366.0 505485.0 0
408621.0 508055.0 0
414033.0 507433.0 0
418812.0 506424.0 0
422465.0 508046.0 0
426636.0 505494.0 0
430852.0 508931.0 0
435350.0 507734.0 0
439970.0 506748.0 0
443181.0 508857.0 0
443968.0 504749.0 0
447002.0 507675.0 0
451188.0 506827.0 0
455706.0 505463.0 0
459734.0 504816.0 0
459808.0 509077.0 0
464260.0 506691.0 0
468395.0 505209.0 0
473186.0 508142.0 0
477022.0 505183.0 0
482436.0 504143.0 0
480850.0 508688.0 0
484733.0 508342.0 0
489570.0 508500.0 0
492501.0 503924.0 0
494643.0 508387.0 0
497389.0 504184.0 0
498303.0 507637.0 0
3329.36 511121.0 0
8391.78 513599.0 0
11469.4 510150.0 0
16668.1 511017.0 0
22833.6 510159.0 0
27692.6 512350.0 0
31990.3 511928.0 0
36540.2 509568.0 0
36348.9 514365.0 0
40483.9 512054.0 0
45534.0 512048.0 0
51352.2 513272.0 0
60947.1 511731.0 0
65658.3 510433.0 0
70226.8 512926.0 0
73949.0 510156.0 0
74911.0 513560.0 0
78645.1 511111.0 0
86405.3 510760.0 0
83259.7 513769.0 0
89830.9 509671.0 0
89255.9 514243.0 0
94223.1 510790.0 0
98714.0 510274.0 0
102345.0 511626.0 0
106317.0 512398.0 0
110655.0 510467.0 0
115963.0 509814.0 0
114304.0 513975.0 0
120330.0 511540.0 0
125463.0 513560.0 0
131354.0 512959.0 0
135724.0 512868.0 0
139968.0 510599.0 0
144923.0 510832.0 0
149189.0 513599.0 0
154994.0 510091.0 0
158328.0 513552.0 0
162256.0 513799.0 0
165885.0 510539.0 0
170495.0 512293.0 0
174817.0 509161.0 0
179181.0 511225.0 0
183935.0 510955.0 0
188803.0 508838.0 0
193024.0 511643.0 0
197841.0 509886.0 0
202658.0 509632.0 0
201517.0 513876.0 0
206424.0 511372.0 0
210145.0 513527.0 0
210573.0 509387.0 0
214452.0 512312.0 0
219550.0 511724.0 0
224125.0 510113.0 0
229065.0 510173.0 0
226614.0 513658.0 0
233696.0 510336.0 0
236651.0 514047.0 0
241476.0 512478.0 0
245611.0 510150.0 0
251041.0 512984.0 0
258935.0 510908.0 0
255303.0 513984.0 0
263488.0 511137.0 0
267786.0 512062.0 0
274675.0 511179.0 0
271693.0 513364.0 0
278065.0 511755.0 0
281688.0 509435.0 0
286014.0 512704.0 0
291365.0 512099.0 0
296272.0 510392.0 0
301527.0 511174.0 0
306106.0 510196.0 0
310203.0 511529.0 0
315163.0 512757.0 0
323979.0 510726.0 0
327689.0 513688.0 0
332220.0 511113.0 0
336398.0 513648.0 0
340485.0 512134.0 0
344569.0 512015.0 0
351512.0 511727.0 0
355810.0 509127.0 0
355832.0 513200.0 0
359857.0 511703.0 0
364820.0 513242.0 0
370828.0 513383.0 0
375679.0 510090.0 0
380850.0 510498.0 0
378415.0 512801.0 0
385617.0 513100.0 0
389868.0 509588.0 0
395125.0 509852.0 0
391937.0 514112.0 0
401166.0 513107.0 0
405907.0 512076.0 0
410937.0 511040.0 0
414895.0 512731.0 0
418685.0 510252.0 0
422480.0 511833.0 0
426320.0 510739.0 0
430298.0 514537.0 0
434738.0 512056.0 0
438786.0 510295.0 0
442049.0 512610.0 0
438179.0 513549.0 0
446469.0 511880.0 0
450573.0 511057.0 0
453659.0 513543.0 0
454880.0 509995.0 0
459061.0 514186.0 0
464525.0 511990.0 0
468953.0 509634.0 0
473401.0 512094.0 0
476861.0 509593.0 0
478657.0 513153.0 0
482779.0 511670.0 0
486985.0 512493.0 0
492762.0 512590.0 0
497896.0 510885.0 0
3666.29 516817.0 0
8990.39 518435.0 0
13677.0 515847.0 0
19565.5 515475.0 0
25629.2 514935.0 0
21005.0 519077.0 0
23778.2 517867.0 0
29129.1 514963.0 0
28020.1 518340.0 0
32418.5 516563.0 0
41296.3 516416.0 0
36486.1 518695.0 0
47170.8 517238.0 0
52466.8 518393.0 0
56947.0 515116.0 0
60456.9 514665.0 0
60089.4 519336.0 0
63902.0 515418.0 0
68463.0 517261.0 0
73333.5 517518.0 0
77195.0 519403.0 0
78385.2 515595.0 0
81566.5 518687.0 0
85951.1 518250.0 0
94302.8 515712.0 0
97450.6 518835.0 0
98598.8 514303.0 0
103478.0 516518.0 0
109317.0 515553.0 0
119677.0 516818.0 0
124717.0 518429.0 0
129130.0 517594.0 0
138586.0 515626.0 0
134014.0 516939.0 0
143484.0 515388.0 0
154326.0 516769.0 0
159045.0 516599.0 0
162375.0 518710.0 0
166587.0 514562.0 0
165826.0 517664.0 0
170008.0 517694.0 0
175647.0 515211.0 0
181363.0 515080.0 0
184323.0 518641.0 0
188275.0 514801.0 0
192730.0 514991.0 0
192690.0 518448.0 0
196419.0 515065.0 0
199694.0 517979.0 0
206411.0 517315.0 0
212852.0 517746.0 0
217716.0 515819.0 0
222864.0 514547.0 0
221383.0 519119.0 0
225799.0 517334.0 0
231202.0 515203.0 0
235462.0 519026.0 0
241250.0 518291.0 0
246613.0 515074.0 0
251629.0 517348.0 0
260631.0 516102.0 0
266228.0 516386.0 0
271260.0 518485.0 0
275889.0 515331.0 0
281041.0 514252.0 0
284237.0 517355.0 0
289741.0 516975.0 0
293947.0 515373.0 0
298373.0 515508.0 0
301869.0 518914.0 0
305903.0 515355.0 0
311486.0 516226.0 0
320479.0 514551.0 0
316134.0 517443.0 0
328213.0 518515.0 0
332272.0 516137.0 0
336993.0 518947.0 0
342681.0 516934.0 0
347941.0 515051.0 0
353215.0 517303.0 0
358349.0 515966.0 0
362347.0 517966.0 0
367777.0 518562.0 0
376092.0 514923.0 0
373323.0 518381.0 0
380459.0 514917.0 0
378100.0 518680.0 0
383358.0 519098.0 0
388819.0 518140.0 0
394087.0 518826.0 0
397293.0 514780.0 0
403204.0 516468.0 0
407123.0 516889.0 0
410731.0 514988.0 0
414908.0 517247.0 0
419662.0 515086.0 0
418450.0 519363.0 0
424723.0 515037.0 0
422756.0 519586.0 0
427311.0 518261.0 0
435536.0 516848.0 0
440401.0 516553.0 0
445001.0 516173.0 0
449793.0 515780.0 0
454989.0 517283.0 0
463807.0 515800.0 0
461121.0 518692.0 0
469063.0 514954.0 0
466126.0 519615.0 0
471258.0 519466.0 0
478667.0 517450.0 0
474418.0 516376.0 0
482813.0 516065.0 0
486672.0 516389.0 0
490263.0 516361.0 0
494203.0 516270.0 0
497507.0 514591.0 0
497985.0 518607.0 0
3199.2 522368.0 0
8082.78 522516.0 0
12382.2 521424.0 0
17515.8 520680.0 0
22729.5 521792.0 0
27138.7 522361.0 0
32170.6 521517.0 0
39921.7 521461.0 0
36494.5 522273.0 0
43734.3 519900.0 0
44629.0 524039.0 0
49075.1 521576.0 0
53065.9 522994.0 0
55999.7 520370.0 0
57601.0 524105.0 0
61913.7 523562.0 0
65018.8 520632.0 0
70197.1 521889.0 0
75069.3 522966.0 0
79839.0 522954.0 0
84197.1 522157.0 0
91380.9 520377.0 0
96621.7 523830.0 0
101356.0 521447.0 0
104967.0 520210.0 0
105761.0 523747.0 0
108368.0 520163.0 0
110757.0 524243.0 0
113676.0 519317.0 0
118123.0 522195.0 0
122444.0 521599.0 0
127254.0 522430.0 0
131878.0 520974.0 0
137442.0 520259.0 0
134667.0 523540.0 0
142040.0 520228.0 0
148144.0 520436.0 0
153819.0 521794.0 0
158173.0 520983.0 0
162808.0 523902.0 0
165524.0 520496.0 0
168731.0 523281.0 0
174259.0 521280.0 0
179541.0 519689.0 0
183156.0 523043.0 0
188492.0 520308.0 0
192190.0 523360.0 0
196710.0 520930.0 0
202155.0 521633.0 0
279695.0 519105.0 0
283146.0 522589.0 0
286744.0 520614.0 0
294802.0 520754.0 0
300302.0 523165.0 0
305320.0 522413.0 0
308676.0 519469.0 0
312658.0 520927.0 0
317264.0 521630.0 0
322847.0 520414.0 0
327666.0 522715.0 0
332068.0 521751.0 0
341361.0 522687.0 0
347827.0 520853.0 0
353243.0 522943.0 0
357919.0 520585.0 0
362384.0 522800.0 0
367308.0 524338.0 0
371382.0 522068.0 0
375853.0 522819.0 0
380933.0 524167.0 0
386274.0 524000.0 0
390739.0 522548.0 0
395357.0 523979.0 0
399773.0 520140.0 0
405396.0 520448.0 0
403257.0 524278.0 0
410542.0 520102.0 0
415276.0 521881.0 0
419272.0 522393.0 0
422397.0 524767.0 0
427066.0 522827.0 0
431858.0 520348.0 0
435337.0 523824.0 0
442950.0 519710.0 0
438699.0 521025.0 0
442833.0 523832.0 0
447443.0 520773.0 0
452093.0 519944.0 0
452060.0 524244.0 0
457184.0 521915.0 0
462106.0 522167.0 0
465010.0 524435.0 0
469532.0 523526.0 0
473812.0 524438.0 0
476053.0 520810.0 0
481067.0 520255.0 0
486853.0 521158.0 0
493380.0 520090.0 0
497560.0 522681.0 0
2029.2 526767.0 0
6161.81 526383.0 0
10567.3 525938.0 0
15196.3 525392.0 0
19930.3 525279.0 0
24705.6 525816.0 0
22056.2 528979.0 0
30083.0 526777.0 0
35497.4 525740.0 0
39801.7 525571.0 0
45658.7 529590.0 0
49568.6 525743.0 0
50482.6 529614.0 0
53868.6 527262.0 0
61716.3 526851.0 0
58338.5 529194.0 0
66197.4 526117.0 0
72059.4 527071.0 0
77293.0 527326.0 0
82859.6 527095.0 0
87328.1 524572.0 0
87624.3 529083.0 0
91763.4 526436.0 0
95913.9 529141.0 0
101413.0 527339.0 0
106885.0 528219.0 0
111338.0 529355.0 0
115550.0 526392.0 0
121059.0 526368.0 0
126320.0 527990.0 0
131106.0 525880.0 0
138682.0 524912.0 0
135169.0 527178.0 0
143400.0 524737.0 0
140996.0 528329.0 0
147490.0 526206.0 0
144726.0 528992.0 0
151971.0 525712.0 0
156991.0 525863.0 0
166163.0 527657.0 0
173191.0 526777.0 0
178437.0 524713.0 0
314480.0 525494.0 0
319820.0 526130.0 0
325073.0 525970.0 0
329800.0 526043.0 0
336554.0 524634.0 0
340372.0 527463.0 0
345282.0 526358.0 0
349707.0 525472.0 0
352661.0 527318.0 0
357990.0 526797.0 0
363762.0 528127.0 0
372244.0 526378.0 0
377226.0 527932.0 0
383660.0 526836.0 0
386492.0 528775.0 0
391289.0 527608.0 0
399557.0 525246.0 0
397215.0 528537.0 0
402074.0 528897.0 0
408192.0 525081.0 0
411460.0 529015.0 0
412965.0 525289.0 0
417401.0 526322.0 0
426443.0 527957.0 0
431228.0 525937.0 0
439025.0 525160.0 0
442473.0 529318.0 0
447274.0 526131.0 0
451510.0 529137.0 0
456188.0 527317.0 0
460762.0 525804.0 0
467465.0 526900.0 0
464269.0 528666.0 0
471039.0 527811.0 0
479442.0 524600.0 0
475907.0 528542.0 0
484214.0 526311.0 0
488499.0 526751.0 0
491879.0 524430.0 0
493829.0 528343.0 0
497909.0 526750.0 0
2760.2 530864.0 0
8221.11 530629.0 0
13009.9 529628.0 0
11830.9 533534.0 0
17726.6 529691.0 0
16074.6 534417.0 0
21842.3 534090.0 0
26235.7 530474.0 0
30024.0 532078.0 0
34391.4 530838.0 0
39950.8 530061.0 0
38008.2 534754.0 0
43017.7 534391.0 0
49079.6 533445.0 0
53967.8 532332.0 0
60034.1 533797.0 0
63121.7 530240.0 0
64860.1 534507.0 0
68812.9 531149.0 0
74505.0 531541.0 0
79710.5 531743.0 0
84241.3 531718.0 0
91666.0 531394.0 0
87770.0 533531.0 0
99441.7 533835.0 0
104625.0 531786.0 0
108826.0 533760.0 0
118252.0 530046.0 0
114953.0 533253.0 0
122323.0 531454.0 0
128442.0 532245.0 0
132280.0 530438.0 0
137309.0 531123.0 0
149554.0 530864.0 0
349277.0 529665.0 0
354088.0 530679.0 0
360953.0 531058.0 0
364659.0 533078.0 0
368478.0 529594.0 0
373210.0 531287.0 0
377781.0 533069.0 0
382010.0 530368.0 0
389221.0 532851.0 0
394234.0 531980.0 0
398994.0 532764.0 0
406869.0 530176.0 0
403600.0 533595.0 0
410402.0 533750.0 0
415847.0 531877.0 0
421596.0 530052.0 0
425524.0 534181.0 0
430362.0 531305.0 0
436115.0 529276.0 0
447373.0 530741.0 0
445128.0 534409.0 0
450256.0 533890.0 0
455433.0 532701.0 0
459968.0 530281.0 0
463701.0 533405.0 0
467924.0 531028.0 0
472419.0 532184.0 0
477705.0 532914.0 0
480950.0 529700.0 0
483578.0 534136.0 0
486339.0 530166.0 0
488985.0 533776.0 0
490055.0 529927.0 0
493564.0 532854.0 0
497787.0 530815.0 0
2903.06 536061.0 0
1223.84 539767.0 0
8102.33 535746.0 0
12579.1 538127.0 0
27395.9 534964.0 0
32043.9 535702.0 0
35784.3 539479.0 0
41385.1 539426.0 0
47005.0 537801.0 0
51816.1 536841.0 0
56348.9 536682.0 0
54059.9 540181.0 0
61370.2 539341.0 0
71517.2 535849.0 0
67299.3 538966.0 0
76877.0 536146.0 0
82817.4 536139.0 0
89859.6 537376.0 0
93950.6 535279.0 0
96616.8 537924.0 0
104657.0 536124.0 0
369564.0 534789.0 0
384549.0 534622.0 0
395865.0 537082.0 0
406628.0 537522.0 0
412630.0 538357.0 0
416736.0 536924.0 0
420322.0 534884.0 0
422792.0 539172.0 0
428136.0 540464.0 0
430237.0 536204.0 0
434177.0 534466.0 0
433952.0 539054.0 0
439477.0 534966.0 0
443420.0 538637.0 0
448316.0 538508.0 0
453209.0 537402.0 0
459374.0 536945.0 0
468700.0 536416.0 0
474756.0 536614.0 0
479466.0 536531.0 0
486855.0 538812.0 0
492912.0 538065.0 0
497577.0 535214.0 0
1908.26 542215.0 0
5987.59 540600.0 0
10498.7 542609.0 0
14227.7 542152.0 0
18502.5 539723.0 0
25028.5 539708.0 0
438830.0 540718.0 0
464034.0 540521.0 0
472161.0 541352.0 0
477708.0 540672.0 0
481912.0 539626.0 0
490352.0 542788.0 0
497912.0 539629.0 0
495228.0 542580.0 0
POINT_DATA 5000
SCALARS Radius float 1
LOOKUP_TABLE default
3163.97 6810.52 5415.48 5120.0 6182.6 5492.18 5258.36 5061.3 3951.75 3642.12 5812.43 5906.14 7513.1 5254.28 4436.4 5733.48 5580.89 5553.16 6110.27 5840.26 5073.35 4834.9 3863.18 2356.98 4998.37 5351.6 4715.55 5867.73 4499.64 5013.56 5542.27 5122.66 5484.19 3557.27 4402.52 4688.68 4182.53 4517.56 4672.91 3588.44 5176.86 5645.7 4366.19 2938.66 3672.51 4008.92 5670.04 5085.53 5484.83 5538.89 4730.36 6059.59 5701.86 4375.68 4238.81 5054.98 6030.06 5170.02 5325.02 4927.31 5185.34 4432.58 5903.42 3761.32 5292.64 4118.05 5065.13 4940.78 3615.22 5561.06 4380.59 6716.79 3850.77 6044.04 5325.36 6759.9 7021.47 5926.61 2720.68 4955.55 3563.63 4468.59 5885.03 5246.2 5200.76 4862.64 5205.43 6684.56 3955.56 2635.86 3968.64 4385.06 6166.5 5936.02 4231.61 3942.53 5305.17 5546.39 5945.65 5418.62 5493.32 5416.38 6051.14 4195.44 5836.15 4345.55 2837.58 3653.41 3871.88 5017.13 4827.23 3673.74 6116.18 7447.37 4688.67 7184.19 4290.3 3867.67 4861.08 3379.84 4827.82 3607.45 7613.27 4133.88 4094.62 6483.19 6230.49 4601.27 5740.68 3641.64 4277.89 3261.21 5539.32 6704.06 5600.93 3856.01 4390.66 5279.39 4911.47 5803.39 4381.97 4924.6 3255.82 4733.32 5242.73 2812.98 2924.37 2899.43 4065.69 5399.73 4003.05 4805.87 5759.91 3589.27 4333.2 4951.03 4665.12 3936.02 4927.02 4174.52 5109.54 7054.71 5489.43 5747.75 4796.33 5360.19 6496.85 5541.59 4124.71 5083.08 5728.85 6337.56 5863.59 6257.19 4737.14 5603.15 5390.22 4712.33 5227.21 3997.1 3260.67 3383.4 3856.1 4044.71 5980.74 5816.2 3829.13 6458.82 5527.54 5054.25 7325.81 4874.39 4794.96 4839.34 2980.99 6834.49 5525.39 3998.5 4024.3 5555.28 4686.65 4695.45 4660.72 3888.21 6038.78 5123.52 5697.78 4295.38 3038.33 4780.03 5495.39 4487.31 5693.81 3091.3 2540.31 5789.98 5573.7 6138.47 4727.62 4055.8 6425.26 6186.19 4840.01 5611.2 7933.0 5938.34 5173.87 6394.38 5169.36 5834.74 5556.96 6052.7 3921.18 6902.81 4667.36 4392.68 3554.9 3996.0 4002.16 4778.34 4138.16 6029.66 6302.8 5697.4 4005.44 5206.78 5280.17 5028.96 5143.58 4484.76 5152.36 4220.65 4455.12 5118.27 5380.13 5932.23 5581.75 5788.23 3798.62 5891.05 4091.31 7199.21 5529.52 5252.48 6124.89 4015.92 5708.81 4684.5 5043.05 5120.49 5409.61 4270.95 5555.88 6732.43 6362.12 3866.16 4524.28 4511.82 5826.64 6820.42 4894.16 4896.52 4941.22 5711.87 5791.61 3666.57 4254.17 5615.42 4523.7 5255.32 5542.21 5924.89 3486.22 6894.71 4414.54 5262.61 6038.2 5094.81 5713.22 5861.71 5017.78 3183.98 3794.63 3778.1 4727.24 4816.2 6959.81 6321.41 4829.35 3372.79 5282.64 6392.01 4479.66 3369.13 5308.1 6644.76 6372.62 7565.34 5337.48 5637.59 5481.78 4937.14 5551.36 5201.36 4306.53 5972.06 4312.67 4359.04 5015.69 6175.81 6677.09 5813.4 4089.76 5201.67 4751.02 3192.41 5184.56 4715.72 5367.2 3043.85 6730.19 4937.02 6037.08 3103.0 6084.86 3307.12 4467.94 4850.81 4933.21 6038.14 6135.57 5024.9 5998.38 4270.24 4947.52 4989.15 4164.13 4520.1 4642.34 4305.57 5874.89 3791.79 4293.03 4754.05 4951.47 5526.55 6084.93 4987.87 3315.57 4669.66 4808.52 5461.13 4907.89 5655.21 5629.19 6756.95 4049.23 3586.91 3115.91 5478.92 5094.44 5375.47 4723.12 5659.17 4717.05 4562.29 5287.2 5423.8 3417.33 4926.42 5080.66 5153.74 4165.81 4424.7 4389.21 4128.98 4925.44 5246.61 5215.15 4764.96 5607.24 5053.92 4726.76 3599.45 5090.24 5091.39 2240.39 6324.23 5601.05 4382.74 4948.92 4516.43 4749.8 5810.84 3748.24 4230.54 4655.49 4809.42 4566.18 4964.09 5856.11 4234.94 4109.88 4980.85 5013.13 5714.58 5110.45 5248.77 4083.97 4528.09 3556.85 3895.51 6291.51 6246.22 4307.28 4100.38 5046.33 5804.71 5020.12 6352.26 5839.13 3735.44 5923.5 4073.93 4645.41 5096.78 4727.24 4651.28 4384.42 4493.48 5082.6 6163.38 3459.9 4093.08 4997.27 5543.27 3327.49 3960.8 4923.9 3329.99 4973.78 3947.47 5208.32 4607.02 3296.27 6673.96 5174.89 5882.89 4188.32 5538.93 5727.3 4242.52 3847.38 4907.06 4786.6 4433.59 5740.84 4612.68 4929.8 6355.42 4362.19 5690.56 3693.63 3937.74 5478.47 6061.47 4449.22 5628.24 5365.89 5992.26 5070.39 4511.54 4613.31 5091.68 4713.25 6243.0 5441.96 4288.3 5370.52 4739.42 3697.96 4899.11 4278.07 4723.48 4745.45 5356.51 3818.59 3057.03 5495.68 5163.9 4973.83 5530.87 3912.37 3320.52 4310.18 4151.94 5244.78 5762.84 6142.37 5119.37 3982.23 5806.08 4853.39 5243.29 3130.65 5004.67 5409.33 5196.0 4178.15 4204.84 6119.09 7531.29 5069.25 5935.03 5048.89 3991.03 3161.47 3435.9 4652.29 5774.81 4495.87 5027.98 5344.77 5097.87 5281.28 4863.72 2631.9 4087.15 5489.34 6043.3 5952.75 6445.94 4281.49 4129.43 4320.28 5927.43 4685.34 5492.26 4220.88 6640.13 5351.39 4336.42 3402.32 4583.31 7589.94 4466.03 4898.94 4733.04 5788.66 4755.47 6390.78 6826.57 4788.87 3746.31 5346.27 7267.18 4143.08 4758.21 5002.48 5708.14 4262.82 5537.72 6342.25 6327.9 6519.71 3092.35 3629.96 5210.03 3320.11 4306.11 6022.17 5903.66 5419.37 5985.29 4528.49 4247.23 4268.65 4694.83 4354.08 3903.75 4485.99 4520.62 5475.8 7435.25 5498.32 5543.46 6475.1 6255.18 2691.29 7500.97 3920.42 6332.36 5542.14 4218.06 4931.53 3843.58 5293.9 6082.81 5449.18 5367.52 4048.37 4714.54 5030.91 5507.24 4503.89 6851.54 5313.66 5935.47 5275.32 5512.23 4649.22 5509.42 5936.36 5475.7 5314.69 6050.81 4249.46 6022.72 4643.31 5527.33 4969.21 6256.02 4277.88 6623.85 8332.24 7134.64 6691.39 4602.25 6142.94 3191.99 5110.37 5664.98 4322.15 4659.59 5025.39 5101.59 4377.07 3813.22 5570.3 2651.49 5234.29 5349.31 4711.62 4114.24 5394.55 2976.22 4256.43 2682.24 5229.48 5415.19 4016.18 5127.16 5435.74 4244.99 5560.26 5965.81 2330.66 6917.52 4177.19 3691.0 5402.21 2845.98 4668.71 7228.46 5320.92 5102.36 5228.18 5787.31 6122.55 5480.13 4329.05 4931.38 4736.58 3485.26 3240.09 4556.36 3369.23 4548.16 3688.8 3848.93 5893.5 3695.36 6020.48 5200.05 4645.58 4091.8 5670.2 5094.52 5166.79 5928.32 4946.74 5526.75 3950.63 4612.62 4275.57 3619.07 5327.45 6185.89 2983.99 3702.37 5660.85 3990.25 4752.51 3758.07 4880.14 4989.09 3948.23 6362.14 6719.88 4342.9 5978.82 5978.9 2739.94 4270.53 4194.5 4792.73 5264.06 4515.71 5358.59 6202.55 4547.19 3817.13 5023.15 3963.86 5076.35 3844.9 6375.99 5273.35 5181.4 6259.23 3457.48 4662.56 5417.15 3405.98 5996.33 6631.19 6385.23 4467.04 3997.96 2614.4 4750.17 3460.94 6184.4 3587.05 4373.45 4982.31 6229.37 5269.18 4406.1 6155.31 5065.11 6308.71 5911.67 4790.08 4187.56 5082.47 4840.84 5513.6 5138.31 4901.41 4551.24 6387.01 7111.16 4871.44 4564.34 4853.02 6248.81 5088.44 4998.21 3931.07 7440.72 3688.16 4681.72 3949.6 5661.62 5817.25 5626.61 4439.35 6363.92 6205.93 3828.81 5830.72 5309.98 5289.52 5034.59 5314.85 4305.43 4553.56 4942.77 4223.33 5069.84 5329.64 3629.62 3323.28 4997.27 4501.51 3708.04 6013.14 3610.4 4621.75 4581.13 6338.89 4219.07 6480.17 5584.06 3838.56 5872.05 6079.11 4256.67 6430.39 4945.39 5376.71 4867.08 5703.6 5407.78 6648.68 6632.99 5061.98 4923.24 7177.44 4307.48 6718.19 4407.87 5450.44 3848.54 3927.99 5266.5 5868.82 4716.19 4051.44 4301.06 5135.69 5344.25 5344.0 5191.63 5379.87 4602.86 3856.59 2765.2 5572.95 5372.61 5413.79 3686.21 5402.24 6445.22 5013.42 4962.77 6101.92 5323.3 4427.28 4635.6 3082.32 4765.02 3658.37 4448.13 5070.29 5629.39 6326.18 4807.28 4713.74 4266.03 4084.49 4537.6 6179.96 4419.61 5147.36 6260.79 4563.46 4082.57 4236.14 5080.18 5941.4 6510.17 4454.63 4263.33 4050.9 6695.82 6049.55 5514.76 3456.98 4290.14 5925.6 5987.17 3979.82 6723.16 4746.52 5130.91 4948.5 5651.07 5210.48 7552.94 3627.55 6239.84 5865.39 5370.85 3178.54 6157.04 2684.03 4768.61 2261.36 5075.55 4220.03 5280.69 5703.07 5449.46 4662.43 6113.54 3963.76 5733.62 5169.9 5282.91 4425.84 4871.96 5331.02 4066.38 4523.88 5709.62 4241.89 6405.76 4593.7 6045.46 4043.57 4138.42 5586.81 5006.58 3824.16 5011.31 3868.18 3689.45 4527.02 5383.07 4531.14 4519.22 4602.85 4409.63 7644.38 4051.34 5521.25 5949.46 3661.9 5136.08 5246.47 3776.94 4010.57 4522.21 5506.19 6923.84 6166.29 4043.66 5294.77 6553.94 5282.51 3797.33 3004.16 7256.35 5742.65 5592.32 4800.69 5835.78 5054.74 4099.77 4877.67 4020.32 3498.2 4763.45 3815.26 4481.53 4292.06 5330.45 5077.33 3948.17 5045.38 5350.88 4959.34 4247.15 4790.78 6552.22 5379.09 6004.68 5278.36 6799.4 5107.23 5222.16 4187.31 5558.68 3240.51 6191.29 7422.36 6719.94 5161.01 4950.67 5453.6 5409.63 4709.05 3077.84 4630.82 5255.18 5528.53 4460.92 5460.65 4767.78 5945.89 4105.55 3279.1 5912.61 4978.31 4981.9 5941.72 4245.72 5794.24 4150.99 6562.18 4478.15 5681.38 5147.67 6318.18 5577.04 5125.78 4591.87 5452.83 6422.84 5534.94 5180.76 6218.95 5533.42 5533.72 3678.08 4599.38 4802.32 5730.33 4527.99 4543.1 4628.4 4376.7 5227.59 4298.15 6051.83 4263.16 4813.08 5726.66 6799.88 4540.86 3062.43 5426.78 4042.28 4863.23 3555.86 4402.67 4403.98 5381.16 4560.84 4948.98 4414.48 4537.32 5163.02 4127.74 4216.92 4704.72 5445.87 3771.48 5198.77 4986.77 5423.0 5643.58 6034.41 5197.52 5178.99 4027.09 5615.35 5801.99 4135.62 4860.33 4502.18 4993.35 3312.06 3361.26 4983.39 4690.55 5146.37 7132.12 5518.57 5463.48 5680.94 5545.46 5190.61 5832.37 3973.12 4642.93 6024.75 5860.67 5987.42 5990.52 5235.17 6566.1 6386.78 5227.52 5565.13 6086.96 6193.35 4541.21 4302.5 3066.13 5908.1 4850.01 4107.03 5215.05 5137.34 5344.43 4373.47 6169.11 5266.22 5172.53 3685.13 3418.99 5226.97 4480.95 5366.52 4558.15 5417.8 4232.16 4836.16 5151.11 5581.55 6550.44 3764.06 8325.01 5941.9 4440.81 6642.76 6109.49 3764.1 5652.0 4340.76 5463.41 4435.36 6065.22 5254.49 4421.12 4996.99 4221.28 4470.61 4656.78 4156.38 2476.04 6048.7 6009.88 4571.7 4177.94 4138.46 2775.04 5198.29 3975.31 6070.58 4044.45 5490.43 4285.32 4896.11 5022.28 4318.48 4285.66 6132.95 5008.63 5754.18 4270.74 5132.68 6595.03 6552.21 5227.02 4350.12 5300.96 5670.0 4344.51 5193.01 4707.06 3474.5 6348.03 4523.39 5732.27 5829.22 4497.78 5567.93 2967.38 5811.18 5332.65 4835.83 4779.5 6045.22 4929.75 4456.39 3701.27 4631.83 4092.24 4729.43 5105.16 6006.16 4344.58 5896.46 4271.69 3633.87 4810.12 3970.25 3821.72 6035.6 6449.45 3627.82 5262.19 4244.9 5339.38 4986.51 3872.61 4004.35 4763.96 3930.79 5293.51 3450.93 6293.89 5097.45 5737.75 2761.07 3778.02 3603.51 4367.78 4095.75 3834.43 6609.84 5135.96 5491.37 3781.77 6074.94 3860.83 4250.88 4792.39 5434.47 5278.56 6917.62 4243.79 5433.65 6451.33 4159.35 5225.33 4237.98 6439.37 6649.96 4896.39 5233.78 4562.74 5991.09 4678.38 5126.91 4164.68 4742.68 5634.83 4502.5 5347.48 3929.19 5922.5 6898.19 7099.43 5526.14 4470.4 6048.86 6894.26 5311.03 5255.12 4238.4 5365.24 4446.06 4185.61 4047.87 5099.21 5742.47 4917.99 3319.67 4076.59 5222.51 5164.1 5658.37 4972.17 5699.53 3783.54 3475.67 4222.77 7038.89 3863.67 5146.37 5631.14 4814.12 6137.8 4442.22 5604.35 5413.31 3091.67 4332.87 4614.3 4303.19 4384.88 6887.27 3633.79 6008.49 4806.34 3942.07 5448.61 5050.65 5316.75 4827.33 5495.84 6268.1 3784.5 5113.21 4862.21 5499.11 4011.77 4374.35 6396.74 4527.08 5776.37 5486.68 4516.28 5315.4 5100.25 5678.96 4611.53 5296.29 2681.29 5094.48 5576.92 6408.83 4586.19 6625.18 4573.72 4163.74 6969.28 5636.4 4298.45 6471.42 5283.8 4428.14 6464.15 6685.4 5268.38 4850.06 5527.23 4805.33 5980.95 4013.38 5067.56 4343.78 5263.3 4887.76 3012.99 4008.15 6316.56 6477.91 4081.97 5401.99 5514.84 6081.14 5421.53 5480.83 5776.57 7144.24 5133.97 7443.72 5022.8 6133.92 3937.08 7055.53 3719.84 4178.4 5820.48 5782.6 7034.11 2586.12 6261.42 6125.34 5965.78 5252.34 2965.79 4410.55 4287.63 3921.08 4190.31 5683.61 5805.86 5346.68 4049.02 5997.88 4360.23 6234.32 4585.31 5010.04 4570.98 5323.91 4296.69 4275.07 3665.95 5698.96 6372.13 5369.5 6016.19 4124.49 4479.11 5714.25 3230.13 5325.96 6332.01 7044.29 4581.37 4234.18 7085.01 6193.08 3352.35 2735.53 4909.65 5116.6 4669.06 4811.32 6420.81 6400.08 5134.39 4256.57 3914.2 4607.85 5580.92 5653.9 4220.46 4287.53 3600.43 5683.26 5598.74 6600.94 5371.02 4906.82 4788.58 5131.24 5513.57 6155.1 5013.67 5260.34 5729.23 5669.65 5934.22 6586.45 5011.84 4359.62 5253.55 5062.71 5433.8 6946.21 5975.63 5564.02 4274.61 6314.07 5083.41 7055.42 4558.46 3836.45 5731.57 5020.71 5662.55 5737.92 5839.71 3755.95 3056.7 5591.76 5889.35 4394.56 5388.78 6101.13 5825.38 5599.7 6238.32 6804.79 5404.01 5642.35 5535.91 5955.86 6176.67 4533.37 5412.24 5016.02 2779.99 5887.38 4920.21 4049.16 3936.95 6153.94 6069.3 5887.01 3862.77 5168.35 6523.86 7693.4 4286.49 4715.58 4743.59 3317.83 5784.3 3532.3 5208.14 5769.98 6088.68 5937.08 6070.3 5612.21 5046.21 5894.61 5206.48 5687.83 5196.67 4709.35 5004.23 6496.67 3780.23 5876.71 5474.8 5826.04 5624.49 5339.78 3745.84 4730.41 3471.03 5690.26 5696.88 4004.04 5607.14 6915.83 6057.22 4156.2 4027.46 4289.17 6072.45 5511.88 4497.59 6444.77 4470.98 4512.11 5759.46 6248.6 5708.99 5443.58 5687.85 6401.43 5703.74 4747.55 2685.81 5464.68 4510.8 5896.26 4587.67 5951.81 3924.14 6918.35 4834.3 6348.54 4066.57 6357.47 6101.57 4891.38 4793.65 2949.12 4532.89 6040.74 4848.46 5742.09 6942.34 5851.61 3658.05 6836.82 3858.17 3477.1 3747.03 4631.99 5388.39 2783.85 4356.49 4326.48 4437.07 6184.88 3449.37 5829.32 4396.25 4450.7 5151.52 5973.33 3583.21 2221.99 4643.56 5442.32 4135.08 5291.9 5128.57 5067.46 4929.14 6000.7 5945.08 5139.5 6442.69 7493.3 6320.71 5226.0 4373.3 4750.78 5029.78 6262.72 3095.48 4166.08 3979.26 5188.81 6608.73 3923.03 4643.85 3999.48 6062.05 4203.26 5082.74 4735.33 4413.85 5411.85 3999.94 4844.57 3901.8 5092.37 4864.22 5941.61 5782.48 4031.78 4933.65 5950.04 6098.1 2435.33 4231.83 6333.29 4477.04 4074.48 3614.96 4558.47 3886.68 4691.91 5831.96 4539.07 5064.79 4475.83 5480.3 7509.24 4146.81 5756.75 4840.44 5093.82 6639.64 5212.43 5454.12 6318.23 3851.85 4058.87 4206.98 5156.76 5932.07 5948.71 3856.53 5460.89 4054.22 5260.85 2884.65 5393.65 5807.46 4648.21 4393.16 3311.29 3110.13 5478.11 5526.31 5030.15 3644.78 4078.93 4740.98 3185.39 3728.18 5335.47 5128.77 4526.81 3994.07 3763.05 5491.9 6405.0 5092.24 5551.95 4659.16 3918.87 4347.74 5369.08 4518.04 4863.01 4009.62 3580.58 5620.74 5356.79 5604.21 3979.54 5233.29 3169.67 4968.03 5304.13 4814.55 3361.92 5944.09 4648.04 3527.05 5833.06 5698.77 6607.87 3664.11 5762.59 3365.82 4163.5 4861.06 6481.79 5320.28 4796.58 4298.67 5873.69 5960.66 4962.09 5654.31 4831.47 5563.79 6939.12 4406.4 6853.85 6171.13 3493.47 4020.4 2395.5 3497.9 4596.75 3374.08 4188.87 3735.24 5564.23 5151.21 6574.95 5398.64 6853.04 6817.57 4745.43 3420.08 4912.04 4255.34 5344.83 7046.11 3427.63 4863.97 5589.37 6342.48 5439.49 3687.65 5216.26 4887.52 5478.95 6571.31 4392.65 6103.11 5174.75 5048.55 4984.46 4024.31 5844.72 4147.31 3992.97 5989.05 7228.94 4441.22 4961.99 4595.12 5853.89 4386.8 4549.69 6484.43 6423.81 3485.54 6192.77 4312.15 5934.82 4501.78 5633.61 4219.94 5048.19 5907.46 4264.91 4888.27 5399.29 5549.49 5789.55 3101.75 4766.06 6605.86 5423.42 4874.18 2081.58 2511.46 2775.69 4011.37 4312.56 4778.82 5657.36 4612.06 5204.04 6124.08 3306.14 5467.84 5029.47 5490.58 4863.79 4750.58 5395.14 4702.06 3464.83 6515.84 4143.78 5117.47 5374.51 4123.6 4538.95 7092.87 4970.88 5224.12 4850.14 3637.61 6098.14 4569.12 5750.71 3493.7 4938.74 4472.17 6222.42 4200.03 5313.22 5470.77 5516.95 3474.39 5328.22 4151.76 4575.94 4216.17 3905.51 4721.02 6484.17 3546.71 4254.37 4938.72 5956.65 5768.57 4498.25 5931.77 5108.06 4000.43 4222.4 4693.52 3573.73 4661.03 4568.41 3624.7 5160.59 5262.35 4320.42 4281.98 7165.9 5783.48 4449.98 4701.5 4504.35 5012.97 4771.65 4036.91 5110.11 6379.14 3634.5 4027.63 6631.28 5420.67 6413.15 5416.45 6459.51 4955.16 3288.01 4904.51 2202.77 5950.88 4149.55 6201.86 6551.93 7554.58 3380.69 4140.4 4725.01 4625.67 4458.64 4583.52 3657.69 6418.11 7122.87 4243.26 3572.94 6799.23 4153.84 6740.71 5119.86 6487.56 4633.05 4854.11 4901.2 6505.78 2275.45 6522.59 5012.5 6519.43 3619.79 5876.64 4270.15 6710.88 5053.95 3967.48 6667.68 2477.07 4923.41 6213.04 5724.64 4925.63 2990.77 3163.78 5965.15 4763.66 4888.6 4666.81 6739.08 5882.65 7042.12 4797.52 4471.58 5501.93 5462.21 5463.38 6313.06 5374.98 5945.21 6345.13 6470.3 4719.7 5599.49 4097.57 3436.15 5005.85 5711.11 5325.44 5102.75 5021.88 4597.29 5938.17 4200.09 4795.43 5097.95 2928.82 5313.12 4914.45 4698.87 5351.56 3984.88 3344.57 5318.53 4732.09 5220.76 6945.98 5138.2 6412.67 7001.83 4593.7 4349.13 4891.67 6818.91 3503.65 3429.57 5569.2 5350.88 5305.59 6114.89 4330.58 5754.6 4355.83 6870.97 5751.15 6056.87 5474.01 5307.35 4342.18 3639.44 5446.4 5966.75 5725.37 3868.62 5510.9 4883.63 3492.83 4922.49 6015.02 5244.22 5797.36 5585.14 5001.58 7039.98 4820.17 4592.15 4729.42 5089.26 5084.17 4901.44 5971.22 4909.31 5533.19 5711.62 4785.25 5435.19 5461.55 7093.13 3298.2 6306.21 5926.11 5253.37 4497.31 5235.11 5211.38 3830.46 4721.32 6515.8 4305.16 3293.56 6413.11 5078.86 5092.28 4739.14 4780.2 5163.55 4918.77 4636.5 4819.73 6326.39 6817.32 3382.7 6471.55 5085.71 5960.56 6343.14 6643.85 6049.79 4020.95 5862.86 4390.41 6113.95 5226.56 5274.19 4901.07 3981.07 4050.08 5186.3 5452.42 5017.5 3991.42 4893.49 5966.61 4514.79 4834.87 3672.21 4509.89 5760.22 6752.75 5269.38 5607.3 4811.76 4638.18 5498.42 4196.37 5806.31 6448.66 4453.97 3556.79 3503.41 7317.04 3971.08 4482.9 6204.65 6550.4 3766.69 5513.8 5036.98 4120.07 5188.53 4882.66 4521.75 6746.66 5410.33 3908.56 4642.74 6735.97 5244.78 3636.15 5483.7 5135.63 6384.7 3152.86 3896.27 5952.38 5351.86 5807.52 5963.36 5230.02 5087.14 5169.48 6016.08 5166.89 5491.63 4731.21 6064.71 6102.98 5138.33 3743.76 4505.28 3425.69 4971.29 6280.13 5510.45 3684.15 5832.29 4438.76 6456.58 4159.81 3886.72 5415.45 5244.98 5792.98 4998.22 3776.8 5096.43 5417.21 6156.21 6602.43 6104.26 3562.79 4383.56 4798.17 4990.79 6865.76 4953.1 5424.46 2895.63 6449.64 5266.01 5767.9 2040.66 6031.67 5384.76 5529.42 5274.14 5257.12 4434.19 4903.82 5100.1 3954.91 4940.42 3703.1 5923.4 4623.61 4946.42 5409.66 4082.47 2965.01 6263.44 6235.57 4319.79 5122.63 4863.27 5774.97 6766.43 2315.64 4703.08 4890.5 4488.85 3731.84 3423.15 5010.2 4579.69 3554.48 6496.52 3718.69 4997.83 4388.63 5578.94 6192.0 4940.28 5885.28 2216.82 6579.31 3004.34 5323.55 3022.6 5375.1 3804.5 6486.37 4172.6 6083.28 5211.6 4745.79 5456.71 5470.04 4908.75 6556.26 2628.22 5684.25 5438.92 4124.76 4244.49 4775.04 4952.52 3840.21 3646.95 4081.34 4954.76 4844.83 6334.53 5377.37 5869.67 5652.87 4311.48 4899.73 5018.69 5457.66 6394.19 5973.89 6193.73 5518.11 4192.21 5712.35 5701.52 4743.9 3124.7 3719.11 4467.13 6060.17 3877.8 6711.21 5153.18 5902.67 4236.86 4730.14 2606.51 5393.76 6006.89 3994.39 4941.02 3864.92 3814.65 3965.3 4618.73 2955.36 3668.93 4960.64 4983.3 6592.93 6350.71 6436.74 3568.28 5425.98 5583.61 5166.79 5996.66 4516.53 5818.95 3940.49 4093.99 4857.84 2978.76 5079.22 6464.8 7016.27 4908.49 6138.12 6622.11 4689.15 4428.78 5089.62 4965.89 3685.65 6790.73 5746.28 4371.99 5243.43 5187.7 5659.95 6090.91 4186.6 3561.29 4537.14 3295.83 4152.85 5551.9 5644.82 6413.02 5203.08 5412.31 3492.19 5374.07 4584.5 4118.84 5548.29 5916.16 3623.87 5163.77 6934.37 6027.62 6098.95 5765.42 6123.03 5453.98 5148.08 5653.03 4777.03 4157.29 4246.61 7610.49 4286.17 6028.09 5452.36 4609.02 4896.65 5561.74 5975.23 6100.73 4198.94 4788.08 6163.54 4211.82 5212.37 6003.78 5965.58 4607.18 4901.29 5058.51 3899.7 4050.03 7200.89 4813.33 4147.49 4802.98 4833.55 4705.68 7224.99 4749.96 4658.24 4906.11 4387.39 4564.1 5509.51 4848.14 5366.22 7261.51 5254.24 4968.14 3742.11 3597.43 4914.03 6776.22 4158.91 5144.56 5321.17 5311.55 3360.86 4869.25 6273.6 4763.4 5454.11 5024.32 4708.17 3779.45 5806.61 4983.1 6119.99 4128.1 7123.04 5372.82 4385.81 4009.24 4402.17 4034.05 7778.01 2460.79 5690.96 4653.83 4456.11 4125.9 6063.64 5096.24 6479.39 4986.71 4122.92 4405.42 4452.54 4997.91 3604.14 4599.81 4684.44 5381.54 4962.21 4749.59 4406.05 5884.9 3468.42 4858.44 5828.35 3685.13 5799.69 4590.55 4673.35 3876.21 5571.72 4655.16 4741.26 5920.32 3701.16 4916.22 5297.19 6022.7 5251.4 3867.19 4219.78 4963.34 4188.3 5081.78 4459.28 4260.92 5499.39 6250.23 4407.9 4440.57 4718.54 6736.03 8659.64 3087.09 4055.54 7480.41 4588.7 3766.55 6107.89 5469.13 4976.12 4233.8 5530.49 4304.41 4817.16 5660.55 4892.44 6789.23 3989.7 5069.89 5107.0 6212.15 3684.56 5327.75 6813.72 4946.23 4783.07 6200.63 4852.58 6816.66 4532.7 4504.86 3844.54 3217.67 4473.29 5034.69 5079.64 4509.46 996.652 4680.69 6500.49 3352.34 4972.18 2403.72 5078.59 5134.33 2646.13 5419.57 5162.67 3629.49 5760.98 5469.35 5384.86 4019.34 3623.19 4869.48 5510.96 6653.07 4745.16 4697.91 5825.55 5719.79 5071.98 3199.4 4316.5 4371.08 5148.1 5224.64 5949.73 5086.29 5527.13 5139.18 3034.16 5551.43 5049.99 5545.21 4333.87 4201.03 5001.87 5136.87 3667.93 2741.2 5638.7 5790.42 5784.37 6010.59 3142.09 5591.77 3682.35 3756.96 4446.58 5906.57 5401.4 5053.15 5798.38 5127.82 3862.91 5124.17 5366.11 5805.1 6171.71 5039.12 7382.3 2995.67 3908.98 3628.89 4668.88 3598.08 4022.56 5522.21 5698.23 3772.3 4680.94 5810.77 5089.1 7300.58 2711.19 4028.32 5876.72 5236.43 5689.26 5869.4 3809.69 4992.42 7051.9 4940.84 4255.85 4345.67 4453.64 5511.6 5019.93 3885.86 4517.73 5235.29 5177.64 5191.08 4255.31 5453.3 6116.33 3838.47 4479.94 2588.37 5887.15 4062.5 4199.45 4435.51 5415.85 7234.66 6599.66 4886.12 6419.12 5683.95 4301.61 5206.33 4446.84 5065.26 3746.36 4356.36 5473.72 4215.2 4741.28 2205.51 4553.68 3703.49 5361.87 6502.97 3758.22 4757.2 5969.37 4928.35 5241.75 5849.53 4651.99 3538.53 4420.11 6127.39 5640.12 5329.76 6638.25 4365.58 4759.99 4368.12 4636.53 5214.4 5193.58 5766.05 5399.43 5117.64 3835.81 3916.42 5429.3 3422.21 4944.51 5532.72 4584.81 5179.17 3220.8 5579.39 5270.51 5490.75 5214.63 4312.48 3495.68 5783.94 6370.33 4278.57 5081.08 6318.25 6864.06 4493.79 5684.05 5813.79 4279.44 5293.13 4644.88 4028.22 7350.26 5182.13 5167.53 6110.48 7541.76 5910.86 4775.49 4681.29 6239.68 7320.78 4064.58 4834.44 3419.87 4824.81 4234.88 6589.82 4384.28 5027.43 6328.42 4855.01 7307.21 5522.75 3608.06 4714.83 5474.15 7519.2 4099.92 4771.13 3208.96 6633.61 5285.07 4884.59 3858.06 4680.14 5895.77 4478.6 5097.69 4765.72 4732.09 6261.75 5857.79 3757.34 2908.7 4039.91 6136.49 6415.61 4338.08 4642.66 5276.7 5149.72 5660.16 4541.8 6134.99 5424.88 6200.54 5148.58 4928.27 4652.01 3583.49 3673.28 3548.39 5421.64 5052.84 4366.74 4858.51 4207.54 4603.5 3375.28 5625.65 4647.67 4936.96 4481.76 4214.44 5378.23 3184.64 4787.97 5375.12 5452.78 4981.43 4061.6 6214.73 2603.64 2856.55 5175.89 3894.64 6618.21 4268.19 4374.74 5232.85 3717.47 3205.68 4062.56 4583.94 5046.31 4337.32 4731.53 1937.5 3763.9 4788.7 5721.14 5863.0 4577.73 4987.28 5084.5 6206.98 4918.64 6562.03 4815.47 4410.82 6443.99 3889.98 5490.64 5034.34 5695.44 4507.46 3769.2 3468.45 5036.14 5603.68 4526.34 5610.95 5042.75 4598.92 5241.22 6647.08 4979.52 3422.29 4501.05 6263.3 4407.79 4537.03 6548.29 4114.2 3990.96 5352.24 7362.42 4202.77 5836.14 5473.05 6008.81 4932.56 5192.49 4899.19 3487.31 5058.34 3918.94 3768.46 3852.82 4507.36 5487.63 5003.3 6245.52 4932.29 5499.59 4990.23 3220.29 5749.6 6016.87 3845.9 3125.13 4141.21 6715.73 4439.71 4174.44 5782.43 5667.51 4456.26 5769.14 5944.3 3563.14 3381.82 5867.64 5135.5 3619.72 6208.9 4923.57 3340.09 4438.58 6059.93 4565.93 5217.95 5602.53 4608.41 6355.68 4184.23 4083.79 4144.57 3988.3 4833.46 4351.38 5750.07 5550.75 6543.13 5933.7 4809.67 5021.77 4752.14 4687.64 4757.74 4378.3 5411.02 4950.97 5037.06 5175.29 4863.96 5842.56 4094.73 5713.03 3852.6 5849.65 5134.67 5131.15 4110.59 5775.31 4847.14 4165.21 4215.0 3332.49 5297.16 3950.27 5354.66 5116.66 3566.79 5003.78 3629.44 3299.24 4208.41 5374.67 6246.56 5730.61 4508.18 5826.78 5064.67 5836.26 6666.67 2617.39 5144.44 2904.46 4826.52 4051.18 4685.4 5120.92 6240.42 4629.02 5914.5 5146.0 6006.16 4288.45 4608.62 5407.96 4071.75 5549.71 5131.77 4967.51 5173.82 3720.7 7212.97 4211.36 5698.53 3856.73 4450.49 5635.32 5887.71 4316.45 4827.61 5409.08 5385.03 5481.64 5673.75 4169.15 5360.67 4778.37 5134.17 5968.54 4904.35 5592.54 3247.97 5124.34 4358.81 4326.06 4651.64 5034.46 5757.29 5793.12 5016.46 5469.17 5061.75 4373.2 5537.34 6022.78 5884.99 5726.42 6643.4 5575.11 4674.9 5461.72 6599.28 7145.73 5800.81 4168.52 5403.97 3784.94 3954.77 6793.1 5166.05 4506.66 5515.73 5209.55 4708.31 5113.6 4564.41 3873.92 4810.98 4198.9 5431.29 5091.22 5026.76 5347.9 5023.41 4646.51 6282.38 4504.52 5640.72 6061.63 7107.63 5484.36 5073.02 4511.7 4829.35 4867.7 4304.63 4187.94 3953.55 4063.9 5980.59 4277.24 5263.27 6834.41 6300.92 7248.4 4356.25 5161.1 3796.15 5469.47 5036.58 4419.71 5329.59 4244.21 5512.16 4588.99 4617.55 3197.63 4989.56 4287.16 3875.05 3456.47 3645.12 5471.74 5199.44 5580.34 5009.83 5966.42 5210.38 5717.8 4706.5 4811.22 5210.75 4474.83 3683.86 4918.76 6555.44 5293.75 5114.07 4385.49 7124.45 4263.18 6358.93 4383.68 4559.74 6015.22 6063.44 4454.74 6449.06 5512.44 4924.07 3460.93 3200.6 4927.73 3565.32 4602.57 3763.85 3419.07 5710.33 5344.44 4626.72 3186.07 6432.8 4369.86 5115.42 4082.4 5482.76 3745.02 5728.58 4887.73 6297.99 5378.24 3604.31 4538.89 5817.74 6556.86 5661.6 3242.31 5285.75 6099.28 3234.26 4830.13 3494.16 5370.9 4074.16 4529.77 4325.13 6172.27 5390.33 3783.79 4904.37 5078.73 5278.54 5729.0 5729.92 5275.57 4179.87 6224.13 4761.84 3769.24 3661.67 4087.32 5517.65 4009.68 6647.85 2569.12 7025.09 3392.26 4433.12 2549.95 4361.24 5138.93 6224.85 4556.19 5106.46 5368.66 4795.08 6562.92 4068.31 3671.06 5077.29 7035.54 4027.33 4850.5 5951.86 6331.74 4252.18 4833.67 5357.39 4659.88 5325.91 4546.44 5851.63 5727.79 2279.05 5212.92 5788.97 4831.93 6545.43 3472.91 4075.28 4989.2 6760.92 4469.54 4023.93 4314.56 5868.89 8137.11 5291.05 3928.53 6650.77 5776.96 6045.67 4888.12 4209.49 6119.63 4216.95 5464.25 5486.48 3498.16 4409.27 5439.9 4752.9 5301.47 4947.24 4321.21 3540.11 6506.86 5950.45 5088.57 4344.34 4923.43 4568.64 5666.95 3919.62 4127.53 4642.2 4489.99 4548.45 4945.0 4212.15 4658.11 5260.52 4551.26 5678.58 5658.14 3185.09 6570.35 4242.63 5114.23 3269.54 5495.0 7407.91 7142.95 5064.23 6061.85 5268.15 5819.0 6347.72 5124.86 7168.2 4571.74 4096.86 3622.48 4796.12 5001.51 5385.86 4930.72 4209.0 5485.84 6424.77 5918.95 5453.69 5689.56 5432.04 3702.45 5265.63 4898.29 4431.06 5372.25 5730.2 5620.88 4045.67 4941.52 5900.0 4262.74 6241.77 5317.19 4248.14 5279.19 5192.92 4016.6 7050.08 4786.66 5891.25 5370.1 5129.4 5114.51 4622.73 3303.49 4655.37 5161.74 4161.32 5256.75 7336.37 5099.9 6945.69 6406.8 7086.69 5648.78 5501.73 6875.73 4697.24 5226.42 3612.44 4983.43 6081.3 5233.76 5117.52 5426.4 5763.05 5129.68 5866.91 2820.07 5076.84 3791.41 5679.74 4092.07 5657.55 5247.01 4213.05 5853.12 4224.3 4184.21 4700.07 6203.03 5188.82 5615.84 4464.73 4928.85 6440.38 5556.0 5484.32 4711.04 5007.21 6226.14 5466.33 5742.74 3946.28 5280.12 3821.94 5984.81 5721.05 7013.17 4209.31 3805.67 5718.28 4247.69 4514.39 4640.06 6242.79 4227.41 5993.0 6047.14 5391.48 4803.57 5467.63 4728.55 4554.68 4368.28 4929.6 5750.35 5984.8 3127.83 4585.04 4241.68 6102.49 3469.18 2945.34 3372.95 4095.83 5695.25 4489.29 5676.61 5846.95 4301.93 5796.26 5716.42 4603.04 5701.63 4870.94 4620.95 5368.93 5293.37 4488.39 5271.88 5559.79 6121.56 2980.31 5879.24 5740.78 6824.53 5997.91 4332.64 4742.82 6791.86 4422.23 4820.68 6031.22 3618.64 5703.84 4335.79 3530.82 5797.32 4886.99 3921.27 3161.1 5159.67 5764.52 5684.88 6523.78 4645.86 5087.97 6005.95 4308.49 4519.03 4930.17 4581.1 4745.44 5762.82 7360.12 6223.98 5821.49 5580.44 3035.06 4262.19 5998.13 5095.52 6275.25 4746.15 3720.38 5585.25 4758.84 5023.61 6351.89 5932.28 5118.86 2960.5 4975.32 4298.7 4183.4 6170.9 4733.79 4436.48 5833.78 5758.98 5615.35 3967.76 6311.89 4683.28 6405.69 4217.36 4825.73 6549.8 4851.18 4165.36 5288.33 4208.37 5157.38 6296.54 4841.7 5702.4 5235.87 5273.37 5069.9 5043.14 5473.89 4717.73 4732.37 6089.45 4985.3 5072.5 3904.07 5713.36 3274.85 7144.05 4173.54 5545.59 4619.2 5599.29 4801.8 5606.51 7216.98 6038.68 4444.97 5271.02 5046.12 4807.4 5261.19 4350.15 6329.53 4139.3 6541.45 4590.01 4601.74 5367.73 5078.31 6101.86 4807.35 5228.75 6545.99 6761.81 3903.91 2918.64 5630.9 4140.92 4512.07 4756.8 4896.43 4692.32 4176.32 5463.06 4639.8 5236.24 3986.41 6069.78 5532.75 3587.93 6949.65 4517.29 4975.85 4495.75 5323.95 6171.01 4468.26 5578.18 5106.33 5198.94 5933.54 5464.05 5453.2 3148.79 6348.93 5264.83 3901.53 5136.51 6815.51 5232.16 5189.91 3989.26 5777.26 4171.02 6119.0 7012.36 5028.06 4002.99 4293.3 5587.3 3572.73 3770.22 4864.38 4390.64 4848.98 4491.96 5150.84 4608.01 5184.98 4467.51 5339.82 5110.27 5460.57 5065.78 5703.34 4085.96 4612.68 6668.98 6649.52 5462.6 5617.29 4597.88 4845.91 4878.93 2002.78 5631.32 6892.33 4731.37 4505.3 3976.0 4452.36 4672.86 6530.78 5560.23 3043.77 5237.55 3902.48 4304.64 3909.94 6030.39 4905.53 4823.06 3799.01 7392.65 5254.49 5319.1 5288.64 6213.24 3757.23 6734.39 5942.45 4150.76 5005.72 5368.52 4871.77 5811.26 5797.21 5685.74 952.938 4678.7 6740.35 3673.6 5810.17 4966.07 3306.84 4657.24 5748.9 4400.14 4749.18 5553.94 4506.18 5494.28 5166.41 5740.65 7104.73 3000.29 2596.96 5067.56 3834.47 6349.67 5701.75 3272.75 5262.47 4264.54 3512.94 7043.44 3516.27 4263.65 3831.52 4750.49 4263.78 6106.43 5644.81 4177.47 5334.36 4218.16 6139.64 4933.49 3990.94 4357.11 5477.8 5486.89 4462.35 4549.51 5025.42 5196.08 6379.38 6257.79 4849.5 6229.83 5353.23 4523.81 5977.66 5065.74 5791.25 4873.23 4028.35 5410.6 4733.41 4969.68 6636.43 5431.14 6298.8 5313.86 4457.05 5178.07 5151.19 6509.54 6079.55 3792.06 5128.59 5485.61 4993.49 5310.33 6583.37 4569.32 3688.83 3402.44 6084.88 4397.06 4053.12 4479.5 6261.67 4014.44 3435.13 6002.77 4431.46 3207.84 4521.42 3977.98 4614.49 4232.33 6043.34 4747.68 4939.56 5770.92 3093.38 3808.04 4723.71 4461.67 6126.5 6322.0 5793.14 4491.26 4068.41 4511.34 6463.71 4832.21 5059.37 4742.35 5783.38 4139.39 6264.03 5645.54 5088.64 3562.8 6589.8 6920.92 3729.16 3783.36 4181.93 6828.8 5987.88 3579.59 4228.53 6161.94 6123.46 4065.28 6142.88 5155.28 5111.26 5388.73 5285.6 5062.77 6019.35 6075.99 4600.71 6028.63 3450.07 5265.21 4550.92 5927.2 6215.87 5146.1 5191.26 5866.42 4067.96 4824.12 3663.0 4704.92 6542.5 5610.53 4099.26 5206.47 4834.39 2970.9 6162.3 4383.47 4608.34 5971.21 4835.97 5493.89 4057.17 2781.96 4184.47 7066.96 4467.0 3104.96 4994.65 4587.7 5601.55 4258.98 4462.87 5196.92 4643.9 3787.08 5759.79 4013.86 4816.51 4598.54 5218.42 3825.48 5345.73 4658.59 5188.22 4770.63 4841.23 2804.54 4196.62 2809.19 5005.6 4104.04 5589.53 5593.79 7208.19 5234.2 4612.13 4965.24 5846.6 5327.05 5438.55 4903.84 4434.65 4290.49 6688.53 5209.5 6175.27 5876.51 4907.55 6731.89 4286.61 4103.76 2932.52 6605.11 4603.66 3557.46 4757.87 6379.33 5971.95 5652.73 3979.46 3689.24 6321.97 6412.84 2589.19 6071.59 3856.4 4696.06 5308.4 4937.36 6581.13 5803.3 5537.61 3543.98 4721.98 5252.82 4199.44 5878.55 6604.72 5445.91 4812.59 4610.55 3794.47 4967.02 5400.69 4128.93 4462.5 4959.72 4712.17 5004.68 4023.88 5348.11 4405.61 5428.24 4034.88 6007.1 3511.5 6345.2 4609.65 5009.21 5704.61 5410.73 5394.79 4574.03 5290.37 5264.08 4526.87 4151.74 4227.66 5192.82 4691.01 4594.89 4174.22 5245.95 5821.42 3573.84 3038.91 4067.89 3922.28 6570.43 6883.86 3350.99 4979.5 5057.59 4745.37 4461.14 5418.98 5205.38 5575.11 4574.54 4949.55 4884.93 4764.83 3132.34 1969.87 5262.79 3957.38 5035.71 4494.15 4419.79 6485.77 4710.88 6060.06 3669.32 4762.1 5544.27 3484.81 3742.31 4954.81 4316.0 4546.96 6304.49 4580.06 3926.11 5134.72 5695.79 5464.83 4191.01 6419.64 3622.8 4589.06 4140.04 4920.88 4770.51 5995.4 5414.58 4431.23 4991.35 6511.37 5740.98 4346.07 3999.5 6710.14 4012.92 5034.05 4426.02 3953.26 4711.15 5467.51 4474.39 5459.92 4096.47 3810.68 6478.35 5453.77 4916.7 5030.33 2638.82 5157.73 5104.39 4541.22 5847.91 3539.68 4934.66 4984.01 4109.44 4605.39 6217.33 4557.1 6270.59 5927.1 6045.26 6500.45 6263.87 4094.63 5743.8 5084.76 5581.01 6834.92 5749.53 5130.57 5090.48 5402.45 5582.28 3985.93 5945.25 5985.75 4137.16 5475.83 6189.29 3074.49 5984.55 5672.46 5202.33 3228.27 3956.24 7558.99 5056.26 4142.1 5333.04 4521.99 5089.1 6842.54 7115.67 5675.45 3361.11 6038.56 2807.46 5573.31 4179.8 5599.16 3488.34 4577.98 5658.35 5886.81 5108.84 4487.51 4520.14 4582.12 4295.25 5067.92 5488.96 5357.14 3188.21 5128.03 3720.92 4379.91 5087.3 4942.63 5850.38 6139.74 4975.57 7066.26 4730.97 3677.85 5214.71 4515.02 4677.84 6294.09 3463.53 4571.57 3445.92 3820.19 5131.07 4121.07 5236.69 4586.82 6026.04 5939.29 6200.05 5859.17 5615.06 5490.54 4841.28 4047.95 5203.54 5507.38 6889.5 5001.69 5407.69 3869.39 5960.5 3987.69 5308.33 6502.99 4287.25 6896.55 5424.55 4666.12 5755.15 4921.1 4271.07 6219.34 3814.16 6023.07 4420.6 5340.05 6506.63 3626.86 4215.05 6371.96 4668.8 3495.3 5577.41 5890.25 5917.34 5322.11 5700.79 4697.49 4216.44 5735.08 4726.2 4750.81 4282.11 4625.53 2347.41 5602.62 4542.16 5714.51 3543.37 2030.03 5114.67 5353.66 5527.27 5765.14 4767.54 4946.08 2927.84 5121.08 4696.03 5688.77 6177.68 5466.13 4698.7 6229.64 2848.44 4220.43 4975.56 7282.36 6666.34 4645.91 6959.88 4125.75 3746.62 5247.73 4876.37 5034.02 5260.13 4649.5 4810.74 5181.31 3900.93 5784.38 4149.17 4329.8 5728.27 6571.26 4313.38 5580.95 3549.92 3393.59 5043.14 4032.06 5246.81 5394.78 5888.95 3463.34 2853.68 5122.38 4998.37 5262.85 5329.84 5901.71 6559.82 3879.83 6565.95 5043.34 4246.24 6805.02 7394.47 4729.45 4850.95 5919.27 4793.06 6637.38 6188.33 6111.23 3057.3 6916.18 6150.31 5873.62 4811.11 4924.52 6126.03 4866.8 6044.69 5524.28 2970.24 3133.28 4197.87 5731.43 5105.54 6353.81 3414.67 4052.49 4034.41 3518.14 5061.74 4150.44 5326.03 6189.67 4420.35 6142.94 4948.96 5117.83 4416.87 5256.82 5300.17 5152.78 4117.9 5393.43 5534.23 4753.76 4638.09 4392.75 6025.77 4685.65 4441.91 5377.01 5674.63 5287.25 5828.25 5939.22 4475.38 4725.11 5483.37 5418.12 5092.93 5934.05 2803.01 4604.1 4271.93 5125.17 5322.07 4859.01 5076.11 5524.45 7133.44 5990.75 5600.21 5101.6 4656.01 6589.13 5781.62 4138.59 4037.86 4970.55 4938.33 5628.97 4819.83 4484.78 6286.27 4621.33 4801.16 5071.38 5616.66 4802.36 5368.28 4880.78 5257.38 5075.23 5625.02 5212.05 5479.86 4829.77 3826.01 3928.99 4763.04 4444.92 5971.9 5050.2 4532.67 2513.38 5316.05 4769.62 3995.08 5019.84 3874.12 4028.13 4457.73 6476.35 6260.58 4067.24 3053.19 4720.22 5827.3 6598.99 5250.56 2468.16 3633.58 6294.14 4339.97 5203.75 5169.09 2459.88 4210.24 4512.6 5470.67 4932.27 5225.11 5342.9 5252.22 5733.12 6436.29 5402.81 4600.81 5354.48 5640.63 6261.13 4900.26 5374.09 4167.55 6271.22 3421.81 5378.75 3920.64 6186.24 5786.06 4137.41 4996.91 3868.69 3920.44 4450.51 5379.52 6033.72 3768.62 5314.67 5658.05 5462.1 6593.1 4000.51 4066.36 6032.45 5444.36 5522.34 4026.03 5771.98 5899.78 5717.45 5000.74 5772.57 4813.81 5268.27 6581.56 4013.86 4052.43 4061.87 3980.46 4057.4 4896.67 4585.37 5383.9 3934.11 5158.44 4466.22 4781.9 5330.26 6470.23 5339.6 5917.08 5259.21 4256.08 5881.93 4460.89 4157.1 4714.66 4399.52 4444.0 4554.24 6771.18 5770.07 4984.17 4867.12 5910.66 5327.39 7415.84 4981.81 5141.03 4840.44 8123.59 6033.28 4188.16 6327.54 5507.07 4654.92 2943.17 5286.55 5327.71 4322.56 5509.09 3873.72 4850.49 4592.49 4981.55 3625.98 5144.23 6188.62 6474.5 4702.32 5944.52 5908.57 4413.56 5742.39 4821.41 4908.32 4924.53 4499.52 4813.24 5759.19 3113.64 4490.2 4304.75 5480.86 6139.9 2832.83 4474.96 4084.87 4758.76 6036.99 3010.1 3584.05 3825.98 4589.22 5087.03 4667.84 3906.41 4691.15 4260.38 6224.64 4636.45 4221.03 3799.55 5638.51 6793.49 6060.19 4962.35 4333.23 6786.37 3860.8 4328.76 4919.13 4124.33 5168.97 5783.88 5002.38 4720.34 6705.93 5244.47 4731.16 5510.89 6470.87 5822.7 3780.07 4495.33 4159.89 5282.67 5466.49 5447.74 4038.17 5007.41 3851.47 4907.48 4966.74 3692.99 5563.47 5651.46 1635.31 3162.27 6033.93 5011.37 2827.92 5516.37 5092.44 5044.68 2649.69 4441.44 6908.32 3467.11 4817.75 6153.26 5637.53 5244.95 4645.93 3882.37 5165.31 4634.25 5448.64 5901.8 3798.09 6351.48 6417.61 4288.5 4496.51 6815.96 6153.71 4511.05 3456.3 6074.39 6561.94 5350.9 5317.83 3483.61 6738.9 5640.67 5992.06 5545.68 8052.53 3939.96 5555.89 6182.19 4970.12 4967.93 6044.01 6520.19 4637.3 5734.07 6241.48 3997.68 4414.09 5125.45 3784.68 5957.82 3717.22 6305.9 6649.21 3470.69 4859.95 4132.08 5522.18 5223.1 4699.77 5093.41 6842.35 5464.34 3621.63 6153.07 4414.06 6833.5 7296.47 2613.78 5417.07 4780.16 5738.37 5616.11 4433.23 5312.2 5847.27 4706.59 5734.84 3982.31 5551.79 4950.07 3916.15 4582.24 5367.05 4790.63 5259.29 4916.75 3743.85 4818.53 5097.85 5584.64 4123.08 3795.63 4576.71 5189.4 5082.66 4550.77 3563.33 4337.93 3550.88 5536.0 6223.33 5145.13 5561.63 5940.5 4358.06 5093.51 5647.93 4865.11 5449.09 5502.14 4605.61 4465.56 4131.08 5747.9 5178.55 3864.19 5146.69 6203.24 6818.23 6213.74 4959.94 2329.93 6938.87 5639.4 6185.73 5412.07 4083.24 6520.96 4232.44 4612.4 5336.61 3312.3 5563.09 6381.58 4848.15 4439.09 4798.13 3282.57 5523.81 4095.4 4718.61 5188.57 6697.45 5395.12 5715.51 5357.33 3886.56 5783.69 3830.7 6210.0 5432.4 4262.52 7430.48 4844.2 6572.17 6080.69 3751.73 2181.29 4420.3 3374.62 4926.62 4766.47 6369.66 4871.1 6009.93 5678.08 5973.57 1458.87 5872.45 5922.62 5130.56 4957.99 4063.26 5191.29 4947.64 4997.89 4542.62 4881.51 5093.28 6131.52 6009.88 6664.54 3922.98 5161.73 4777.96 5259.48 5801.89 6608.94 3796.73 4644.68 3834.01 3082.16 5656.84 6789.66 4739.41 4694.27 6760.64 2515.5 4849.21 5177.88 3793.83 6981.47 6189.81 4449.73 4088.72 5647.11 3945.62 6236.46 5342.17 6379.3 6189.04 5015.67 6538.04 4894.15 6157.59 5201.3 4345.51 4048.73 5438.6 3747.96 5611.29 4521.88 6568.45 5004.22 6201.49 4280.92 4696.92 5154.74 6437.99 6898.8 5386.95 6540.57 4287.93 5315.71 6158.93 4488.41 5081.65 4369.87 4823.14 6679.12 5652.19 5806.74 5512.57 4806.99 3771.91 5432.2 5217.62 6178.19 3839.0 4746.19 5349.85 4616.81 5715.25 5212.2 4611.21 5648.59 5108.42 3873.79 4630.5 5717.67 6296.36 4432.32 3721.69 5515.59 5252.37 3224.81 4499.54 3775.38 5037.58 4046.22 6457.89 4081.77 5114.61 6118.13 4706.31 4202.12 6332.64 4735.99 2694.25 3917.09 6492.44 4083.1 4613.32 3482.73 5145.39 3996.93 5270.1 6351.95 5195.09 5345.05 3997.52 7679.2 5779.9 4909.74 2626.41 5310.33 4311.92 5299.03 6729.99 5036.84 4565.36 5813.68 4025.08 5254.93 4008.67 4803.4 8013.28 3846.55 5283.65 5943.61 2892.36 5981.54 5911.29 5416.41 4542.25 4414.23 5233.88 4785.55 5245.4 5848.41 4090.28 4246.83 7370.52 4726.5 5467.05 3724.23 5103.3 4601.54 7263.57 3832.09 5705.96 5267.65 6632.04 5360.88 5332.11 4893.72 6004.72 4072.4 5373.78 5345.65 5438.5 4621.32 5699.4 6578.62 4813.55 4698.94 5856.43 4796.04 3465.03 5229.56 6011.4 5799.86 4672.34 4362.94 5172.1 5056.32 6052.22 4469.82 5376.41 6545.78 3354.94 4404.87 5105.72 4082.01 5237.27 4451.76 7885.41 5782.25 4907.03 4104.97 4575.72 4948.21 4987.01 4721.2 5161.02 3943.77 6265.48 5003.81 4203.68 6262.18 4739.56 3818.37 4701.03 3352.46 5663.36 6225.05 5434.04 5200.1 5994.21 4444.54 4884.93 5403.81 5082.25 6964.78 4374.05 5282.51 5504.65 5669.41 5732.11 5040.9 4770.21 3618.53 4868.66 3783.35 4004.39 4037.16 5159.9 4987.48 4248.58 5479.17 5020.37 4963.88 5888.94 4727.98 4122.2 5175.88 4516.26 5739.69 3509.34 3647.26 7360.62 4977.64 4983.56 5699.51 2489.44 4489.18 5863.36 3878.8 4632.75 5237.76 6284.12 4286.84 3948.21 5669.15 5296.05 5263.86 3330.85 6635.51 5533.52 5410.33 5003.63 4870.14 2932.2 4695.7 4944.08 5767.65 5576.16 5003.49 3964.03 4750.76 5210.22 4216.33 5497.27 5617.91 4444.95 3903.9 5606.22 5051.39 6673.92 5242.38 3124.49 6081.35 5459.52 4884.94 5362.15 4609.98 5566.5 4752.31 4276.59 5240.97 5579.04 5125.53 5405.6 3929.35 4759.38 4223.53 6960.97 4287.15 5126.08 3760.4 5604.0 4951.02 3919.47 4602.7 5596.68 6395.63 4790.16 3731.58 3166.37 5369.42 4985.45 5205.53 4714.52 5499.37 5543.05 4883.13 4836.76 4994.98 4752.94 5551.09 6423.96 6058.13 5581.47 5894.69 6988.4 4060.17 4987.01 4713.56 6051.35 4747.24 5302.53 4380.86 4909.13 4287.61 5269.39 5648.02 4305.35 4867.13 3308.75 4604.34 4439.17 5832.72 2451.27 4929.35 5442.79 4633.59 5151.68 5733.59 5575.8 5268.93 4455.61 4738.72 3695.72 6874.6 5569.85 5106.9 5306.31 5523.96 4733.37 4535.94 3037.72 4523.9 5207.08 4587.19 6028.89 5333.16 4888.17 3950.53 4501.1 5755.98 5392.85 4384.91 4274.05 5077.2 6550.61 4277.54 5529.09 4531.46 6094.34 6779.82 5543.67 3999.81 6210.48 6377.45 4863.27 2701.42 5677.42 4502.12 3255.93 6853.07 6327.61 5275.27 5925.82 5448.68 4739.5 4072.95 4491.62 4182.05 3865.5 
SCALARS Velocity float 1
LOOKUP_TABLE default
1.41146 1.34771 1.23096 1.2334 1.32738 1.36787 1.37278 1.37405 1.35195 1.39723 1.44161 1.3554 1.31671 1.3101 1.39587 1.28584 1.3923 1.40577 1.38184 1.3028 1.23843 1.2582 1.14747 1.42697 1.276 1.33988 1.37472 1.36886 1.37421 1.37218 1.41299 1.44609 1.36101 1.41872 1.48907 1.432 1.33362 1.45612 1.35105 1.40325 1.33067 1.33709 1.35839 1.41052 1.36296 1.43188 1.18751 1.19293 1.36724 1.42345 1.45058 1.36652 1.35593 1.41335 1.35867 1.40088 1.44121 1.44374 1.48566 1.40997 1.41519 1.47257 1.38373 1.34461 1.33816 1.3474 1.40604 1.41716 1.20821 1.26219 1.1883 1.23409 1.28832 1.23686 1.17738 1.34447 1.43893 1.44476 1.54104 1.35049 1.37862 1.41605 1.45949 1.47734 1.4508 1.39324 1.45073 1.40893 1.39811 1.50118 1.41347 1.33772 1.38006 1.41892 1.20207 1.24574 1.27261 1.32796 1.17316 1.33384 1.43854 1.41382 1.5281 1.56464 1.37435 1.41849 1.45438 1.45697 1.46888 1.44687 1.48706 1.4225 1.46232 1.41769 1.53253 1.3843 1.40426 1.38775 1.13875 1.35492 1.28496 1.19408 1.21097 1.24161 1.36993 1.24342 1.38663 1.34929 1.49794 1.44269 1.54618 1.38763 1.44882 1.43646 1.4516 1.46463 1.45042 1.48714 1.51185 1.43589 1.44892 1.48754 1.49036 1.52696 1.49549 1.5673 1.38448 1.39031 1.37811 1.36983 1.20224 1.26447 1.11568 1.19707 1.34431 1.35491 1.29719 1.23934 1.4127 1.27335 1.41956 1.46198 1.51684 1.47414 1.55253 1.43607 1.43071 1.46123 1.47657 1.47388 1.47837 1.50597 1.44731 1.51066 1.45822 1.5164 1.36616 1.32257 1.18021 1.35123 1.27694 1.23245 1.11277 1.19174 1.45785 1.50515 1.44467 1.4672 1.5096 1.5072 1.5397 1.4563 1.46921 1.46717 1.48013 1.48081 1.49075 1.54418 1.49466 1.48982 1.4116 1.49619 1.50021 1.34038 1.24058 1.50787 1.67835 1.12079 1.17396 1.21054 1.15141 1.40041 1.59583 1.5122 1.55163 1.48036 1.50332 1.50646 1.49132 1.55967 1.51734 1.47459 1.48303 1.48744 1.5095 1.55377 1.52842 1.51096 1.49172 1.32798 1.42421 1.414 1.2574 1.77637 1.19177 1.2596 1.66553 1.09252 1.3481 1.66793 1.57289 1.52004 1.45393 1.54522 1.62928 1.54506 1.54276 1.51735 1.4849 1.48222 1.49238 1.50299 1.5119 1.52856 1.50471 1.46469 1.73115 1.40189 1.66807 1.74806 1.57148 1.45636 1.36615 1.62976 1.54843 1.1708 1.65753 1.63662 1.50754 1.56273 1.41401 1.5567 1.59909 1.58239 1.47629 1.50513 1.45815 1.49523 1.50957 1.5085 1.50645 1.48242 1.47854 1.49551 1.48185 1.85003 1.67813 1.62313 1.70818 1.24129 2.4634 1.6756 1.52432 1.59371 1.29524 1.45194 1.55887 1.52917 1.57612 1.58283 1.49287 1.53066 1.45828 1.51196 1.51458 1.51199 1.52127 1.50984 1.52452 1.52243 1.48187 1.8394 1.55127 1.23412 1.72586 1.7407 1.74157 2.07222 1.53992 1.48862 1.4067 1.59108 1.53817 1.43172 1.4813 1.56522 1.55888 1.5318 1.47315 1.49642 1.51778 1.52471 1.51994 1.52575 1.52418 1.50613 1.50963 1.36555 1.45036 1.76691 1.80162 1.86458 1.39577 1.47861 1.45544 1.47597 1.55903 1.5153 1.52189 1.47264 1.52429 1.50001 1.53789 1.53638 1.49424 1.50577 1.50584 1.50614 1.50401 1.5202 1.51538 1.52575 1.52212 1.52527 1.5165 1.51946 1.48372 1.44838 1.44895 1.42588 1.45679 1.677 1.86142 1.65332 1.63365 1.50122 1.46942 1.46399 1.47433 1.4981 1.49832 1.50792 1.4968 1.50937 1.49807 1.51151 1.49702 1.51709 1.50499 1.5069 1.50586 1.51209 1.51936 1.52595 1.52343 1.52401 1.51906 1.5009 1.469 1.45306 1.42426 1.40816 1.43708 1.56853 1.53831 1.60073 1.59157 1.54134 1.46687 1.45947 1.47244 1.4678 1.4753 1.48551 1.48413 1.47325 1.49285 1.49313 1.50047 1.48351 1.48764 1.49959 1.48792 1.49363 1.50443 1.50055 1.50409 1.50966 1.51016 1.51553 1.52456 1.52247 1.51992 1.50646 1.48632 1.48061 1.43586 1.455 1.41935 1.39994 1.42546 1.43668 1.58006 1.50423 1.53582 1.56398 1.5359 1.45261 1.46337 1.46472 1.46352 1.48363 1.50018 1.46884 1.4908 1.47664 1.47977 1.48016 1.49432 1.50163 1.4998 1.50206 1.50431 1.49943 1.50006 1.51853 1.50272 1.49879 1.47398 1.45855 1.43332 1.41233 1.40958 1.4253 1.47884 1.50472 1.53735 1.52119 1.19178 1.44284 1.453 1.44406 1.45432 1.4574 1.44851 1.47457 1.47378 1.46002 1.45242 1.46945 1.47629 1.46317 1.49676 1.50509 1.50083 1.49483 1.50446 1.47203 1.47993 1.46391 1.45176 1.44119 1.43682 1.4398 1.423 1.42035 1.43131 1.42467 1.43888 1.46043 1.51933 1.49869 1.49667 1.50809 1.49753 1.43531 1.43608 1.43989 1.46396 1.45149 1.45132 1.46329 1.45617 1.44506 1.44501 1.44648 1.45648 1.47147 1.47563 1.51313 1.51155 1.52815 1.49256 1.49058 1.48216 1.44169 1.47062 1.47699 1.4519 1.45849 1.43928 1.4423 1.45407 1.44166 1.44507 1.43816 1.44016 1.44805 1.45464 1.46602 1.46856 1.48498 1.47566 1.48216 1.46723 1.42801 1.42286 1.42824 1.42401 1.43562 1.4401 1.43822 1.43664 1.4326 1.43449 1.44164 1.4602 1.46278 1.47993 1.54568 1.47841 1.41456 1.41083 1.425 1.41842 1.46926 1.45125 1.46684 1.46924 1.46412 1.454 1.47001 1.45853 1.41855 1.42242 1.41863 1.40954 1.42477 1.41111 1.42848 1.42742 1.4288 1.43259 1.45032 1.43206 1.46171 1.46645 1.49933 1.44057 1.44462 1.62003 1.47038 1.39715 1.40845 1.3894 1.46345 1.43888 1.51716 1.42062 1.49928 1.45265 1.44233 1.45614 1.44613 1.44919 1.44374 1.19178 1.41215 1.41236 1.40153 1.40623 1.40853 1.40006 1.3957 1.42782 1.42262 1.4356 1.42153 1.4538 1.46234 1.44132 1.50172 1.43166 1.23722 1.43413 1.39927 1.37111 1.4878 1.43563 1.33553 1.4616 1.50716 1.63014 1.44807 1.4234 1.42155 1.42922 1.41101 1.19178 1.41601 1.41793 1.39226 1.38491 1.38905 1.37409 1.3907 1.38119 1.43824 1.42398 1.44212 1.4295 1.45248 1.4532 1.44495 1.45147 1.45544 1.53058 1.47202 1.18619 1.4027 1.29755 1.36689 1.4042 1.44761 1.42438 1.38905 1.40625 1.35308 1.39738 1.44222 1.64361 1.11996 1.02772 1.5152 1.36914 1.44499 1.46769 1.42673 1.42133 1.39766 1.19178 1.41468 1.41642 1.39089 1.39143 1.40304 1.38699 1.38788 1.37368 1.42066 1.36083 1.41853 1.4026 1.4112 1.44132 1.43029 1.44692 1.44876 1.45473 1.35326 1.32712 1.40232 1.35741 1.38962 1.3744 1.40139 1.39983 1.41337 1.40228 1.42473 1.41345 1.4269 1.42476 1.44071 1.12184 1.25578 1.47078 1.39074 1.42389 1.41387 1.42574 1.39771 1.38546 1.39912 1.40391 1.40984 1.39972 1.36439 1.39192 1.39875 1.42634 1.38247 1.39016 1.41682 1.3715 1.38917 1.37108 1.42334 1.43898 1.42488 1.45101 1.44917 1.35885 1.37425 1.33619 1.36707 1.39611 1.40266 1.4177 1.40378 1.41806 1.414 1.40312 1.40761 1.41714 1.3567 1.41983 1.39703 1.39341 1.37662 1.37992 1.40439 1.39062 1.38939 1.38856 1.40186 1.39013 1.39825 1.39093 1.382 1.38154 1.37855 1.40497 1.39768 1.38722 1.44613 1.38263 1.44506 1.40078 1.42597 1.36459 1.34988 1.34678 1.34565 1.3598 1.3932 1.39541 1.41486 1.39108 1.4113 1.4093 1.40537 1.4112 1.37469 1.37867 1.39247 1.36933 1.3728 1.36822 1.37603 1.37726 1.37886 1.38572 1.37753 1.38023 1.19178 1.38574 1.37862 1.3784 1.38173 1.37954 1.3903 1.38631 1.39334 1.39487 1.3791 1.3802 1.42358 1.42441 1.34954 1.33748 1.35654 1.3957 1.39412 1.38371 1.39405 1.39697 1.37302 1.41499 1.40128 1.35264 1.39616 1.36323 1.34489 1.3545 1.37557 1.36819 1.36867 1.36657 1.37553 1.37184 1.36912 1.36969 1.3623 1.19178 1.19178 1.37772 1.37837 1.3781 1.37552 1.38898 1.37819 1.39095 1.38903 1.38324 1.3726 1.37374 1.35043 1.35588 1.45302 1.41501 1.38529 1.35809 1.36162 1.35793 1.34636 1.3527 1.41378 1.45521 1.38522 1.39129 1.35057 1.35889 1.34351 1.44943 1.43426 1.39376 1.39273 1.38213 1.354 1.34349 1.35291 1.35044 1.35261 1.34022 1.3573 1.36042 1.35192 1.36014 1.3568 1.35206 1.37618 1.37073 1.36771 1.37725 1.37132 1.36487 1.37482 1.36056 1.36558 1.35357 1.36147 1.37165 1.33109 1.36123 1.3476 1.34664 1.40779 1.39106 1.22932 1.44198 1.37222 1.31268 1.32501 1.33988 1.4661 1.42313 1.3959 1.38385 1.39404 1.35998 1.36155 1.3443 1.35244 1.34392 1.34342 1.34717 1.34763 1.34749 1.3508 1.34403 1.35631 1.34596 1.36202 1.35903 1.37147 1.35164 1.37234 1.36346 1.36321 1.35824 1.35099 1.35956 1.34399 1.3739 1.35315 1.37607 1.36059 1.36999 1.34281 1.40404 1.38778 1.40603 1.39033 1.34913 1.36267 1.2783 1.36743 1.44776 1.40261 1.40599 1.38698 1.35974 1.3792 1.35029 1.3414 1.33643 1.33999 1.33746 1.34118 1.33112 1.34248 1.33865 1.33831 1.34279 1.35572 1.33811 1.32195 1.33168 1.36246 1.37203 1.36435 1.38878 1.35635 1.34944 1.32181 1.32806 1.34167 1.38258 1.3657 1.37859 1.34744 1.35017 1.39218 1.36506 1.41451 1.38004 1.38134 1.31675 1.33774 1.28778 1.39618 1.3849 1.45246 1.45042 1.49242 1.39537 1.44694 1.36463 1.37459 1.3564 1.35687 1.35771 1.33078 1.33604 1.32866 1.3097 1.32839 1.34235 1.30805 1.37893 1.39767 1.19178 1.30942 1.31077 1.33779 1.36797 1.39251 1.28027 1.38502 1.29381 1.34915 1.39295 1.35468 1.30086 1.31373 1.31901 1.40212 1.35229 1.43599 1.33512 1.38522 1.33269 1.32842 1.29688 1.30627 1.34486 1.40096 1.47653 1.42288 1.47762 1.39715 1.3627 1.37237 1.3598 1.32533 1.3439 1.34962 1.32386 1.30815 1.38558 1.3185 1.35452 1.30888 1.2657 1.37285 1.40175 1.41264 1.19178 1.32453 1.354 1.33365 1.41208 1.38954 1.38263 1.31783 1.36666 1.29945 1.35895 1.29604 1.29937 1.4276 1.384 1.35697 1.42137 1.40387 1.38782 1.25222 1.35011 1.33335 1.36232 1.39753 1.36876 1.3874 1.35435 1.334 1.37748 1.3418 1.36083 1.48241 1.60717 1.3815 1.33324 1.32616 1.36346 1.32647 1.38558 1.31599 1.12161 1.33069 1.51277 1.30409 1.45098 1.19178 1.40223 1.5605 1.27295 1.26855 1.35936 1.33314 1.33478 1.34925 1.37717 1.37591 1.33745 1.36427 1.29151 1.34351 1.31731 1.3264 1.35615 1.32488 1.34696 1.34341 1.34603 1.30725 1.40143 1.42977 1.41205 1.51528 1.38546 1.3116 1.17177 1.13911 1.6184 1.31923 1.43084 1.5803 1.23921 1.22242 1.30609 1.24381 1.41543 1.32481 1.6094 1.44426 1.31013 1.14465 1.45063 1.46297 1.43438 1.85832 1.28429 1.55167 1.36655 1.31328 1.31764 1.39362 1.30467 1.24507 1.32423 1.31514 1.36763 1.37895 1.37626 1.43316 1.33266 1.30424 1.13545 1.27126 1.30722 1.18674 1.25943 1.18716 1.2241 1.50984 1.45951 1.36167 1.45616 1.31641 1.32938 1.37854 1.2963 1.17443 1.37304 1.10326 1.41046 1.55335 1.29572 1.25833 1.26502 1.48899 1.3051 1.34582 1.35491 1.16682 1.09111 1.12927 6.74268 1.60394 1.43915 1.55686 1.14765 1.74174 1.87193 1.2721 1.48074 1.41671 1.05584 1.53998 1.30911 1.39193 1.18615 1.40542 1.41431 1.4321 1.41371 1.42725 0.78356 1.01818 1.1633 1.11503 1.18988 1.21778 1.24869 1.21509 1.14913 1.24383 1.30108 1.2543 0.963305 1.7464 1.14424 1.27451 1.20762 1.42815 1.23953 1.17325 1.15464 1.37069 1.52458 1.45341 1.39649 1.32878 1.25955 1.46099 1.58262 1.63212 1.48928 1.34785 1.16915 1.22268 0.080014 0.963764 1.90941 0.620474 1.59008 2.11902 1.5775 1.72074 1.56089 1.10183 1.17499 1.34112 1.33236 1.38728 1.348 0.984456 1.40432 1.14466 1.32913 1.04625 1.25255 1.18799 1.20714 1.15835 1.27659 1.32983 1.20541 0.873591 0.958063 0.897624 1.38115 1.19141 1.15249 1.06777 1.12804 1.15367 1.14281 1.23027 1.54002 1.3772 1.18194 1.34542 1.09237 1.28692 1.40146 1.28915 1.31052 1.56016 1.42125 1.38632 1.52524 2.22208 1.68998 0.750089 1.14052 0.591929 0.461952 0.528555 0.0401603 0.989514 1.24434 1.77883 0.907341 0.975042 1.40245 1.64649 1.4648 1.41676 1.45352 1.43388 1.11124 1.06604 1.1637 1.31135 1.36951 1.39515 1.42142 1.45427 1.06805 0.810193 1.25711 1.22271 1.16128 1.31446 1.33208 1.10532 1.1548 0.907655 1.14955 1.38893 1.23813 1.22653 1.16844 1.15002 1.21276 1.1523 1.1358 1.00009 0.863716 1.32157 1.31951 1.16345 1.22306 1.10128 1.53548 1.52856 1.42048 1.46374 1.2348 1.2916 1.06855 1.34506 0.778551 0.975214 0.983674 0.965534 0.975933 0.792705 0.675565 0.712682 0.760622 0.574839 0.796975 0.846509 1.06595 1.04829 1.08514 1.09777 0.843175 1.45335 1.04282 1.21585 1.00181 1.21082 1.04927 1.0604 1.43709 1.21038 1.07906 1.13485 1.30175 1.08363 1.08994 1.23358 1.1464 1.34019 1.27918 1.41154 1.1213 1.08315 0.883763 1.05992 1.27348 1.46783 0.958524 1.20178 1.09039 1.22088 1.1855 1.12703 1.0623 0.983728 0.769664 1.2045 1.26969 1.25421 1.2343 1.148 0.529683 1.51562 1.15334 1.08499 1.97164 0.695777 1.11011 1.2019 1.35971 1.11712 1.44503 0.955964 1.18933 0.300895 1.07856 1.11081 0.841063 0.960615 0.93836 0.882787 0.925505 0.901232 0.900236 0.831873 0.879759 0.777738 0.757323 0.753433 0.7139 0.931018 0.721364 1.11667 0.963203 0.991129 1.01207 1.17599 1.05681 1.09567 1.10883 1.07706 1.092 1.06228 0.927125 1.07293 1.13157 1.24069 1.10154 1.06166 1.02335 1.05828 1.11631 1.31743 1.19588 1.24013 0.923816 0.865885 1.06082 1.14264 1.10516 0.913632 1.54759 0.585043 1.28196 1.24178 1.1607 1.16197 1.16833 1.12455 1.03799 1.01934 0.909661 0.954823 1.31905 1.326 1.09308 1.20513 1.10992 1.2807 1.03638 1.08112 1.25008 1.02257 0.977893 1.1707 1.03183 0.80578 0.715865 1.01644 0.766686 0.829923 0.948365 0.872325 0.926179 0.916896 0.916725 0.908787 0.899847 0.873938 0.861923 1.00656 0.78787 0.920746 0.906637 0.967099 0.986425 0.894834 0.783645 0.840407 0.754016 0.700918 0.764953 0.786321 0.811736 0.803587 0.928654 0.816707 0.92713 0.933643 0.990823 1.00774 1.00404 0.98383 1.05131 1.09208 1.13258 1.08896 1.10981 1.09413 1.04981 0.990797 1.03537 0.902449 1.28 1.24801 0.858511 0.922296 1.36557 1.2086 1.01334 0.968391 1.17849 1.10636 1.03122 0.871903 0.741775 1.27471 1.19516 1.21396 1.11681 0.978208 0.999582 0.974313 0.886239 0.944828 1.02861 1.067 1.02374 1.00774 1.41048 0.756722 1.20829 1.12118 1.13687 1.05363 1.10544 1.12376 1.09639 1.08379 1.09811 1.0819 1.09161 0.953536 1.04139 0.887524 0.89747 0.734059 0.786556 0.78074 1.04008 0.882569 0.881324 0.851461 0.855218 0.853951 0.747444 0.814908 0.796965 0.636204 0.876607 0.570965 0.668133 1.06176 0.682705 1.02285 1.03549 0.642265 0.663489 0.794301 0.768608 0.769285 0.661833 0.796245 0.736059 0.737281 0.850496 0.783992 0.829109 0.881455 0.979256 1.0014 0.90835 0.849639 0.977726 0.919717 0.88855 0.890703 0.991131 1.00553 1.00052 1.02559 1.10637 1.09662 1.1075 1.06857 1.07088 1.00933 0.989946 0.815694 1.04943 0.889117 1.00291 0.889166 1.03808 0.912754 0.916363 0.914845 0.787747 0.9923 1.1892 1.10621 1.07274 1.04441 0.89739 0.858711 0.909215 0.910582 0.963034 1.28792 1.25499 1.02036 1.13597 1.12043 1.01218 1.02035 0.971972 0.96762 0.985749 1.0834 1.00275 1.00787 0.933444 1.01165 0.967677 0.887834 0.731798 1.06246 0.997482 1.04924 0.960421 1.08349 0.987342 1.0941 1.01035 1.02698 0.871249 1.07102 1.11865 1.02693 0.817834 0.94747 0.791095 0.721615 0.73434 0.896064 0.839819 0.780942 0.976658 0.821863 0.736551 0.799498 0.684865 0.791978 0.781532 0.729074 0.753887 0.78587 0.75583 0.729297 0.555467 0.550252 0.542039 0.602486 0.517109 0.671739 0.493464 0.731099 0.777967 0.80567 0.74136 0.702584 0.723627 0.718913 0.718968 0.717009 0.70896 0.694422 0.708206 0.566846 0.681689 0.746474 0.823208 0.856525 0.830653 0.850581 0.950771 0.921174 0.980299 0.795659 1.12029 1.10605 0.993883 0.992697 0.856913 0.863324 0.865339 0.903162 0.882667 0.861576 0.885198 0.870846 0.834456 0.819966 0.871025 1.03934 1.07639 0.987793 1.13123 1.03948 1.06885 1.09029 0.937559 0.951383 0.894883 0.965919 0.882523 0.803859 0.833113 0.87032 1.02965 1.0936 1.08912 0.976042 0.932214 0.901141 0.978815 0.926949 0.845291 0.67342 0.785787 0.653186 0.874777 0.948957 0.968682 0.923051 0.727797 0.538537 0.805607 0.798463 0.933748 0.773231 0.7981 0.66668 1.01463 0.719676 0.797361 0.839449 0.855711 0.761433 0.843934 0.844755 0.826273 0.866932 0.77132 0.873165 0.803513 0.798736 0.805086 0.734614 0.710423 0.747597 0.755716 0.73026 0.720014 0.736031 0.697658 0.721757 0.712766 0.627927 0.613044 0.60272 0.633884 0.626384 0.644263 0.647389 0.561885 0.636631 0.700884 0.541378 0.604149 0.755896 0.822658 0.880086 0.768236 0.791306 0.937832 0.840195 0.832192 0.766488 0.720859 0.736706 0.705987 0.707516 0.698612 0.688279 0.740972 0.740453 0.73313 0.842972 0.792884 0.793326 0.863022 0.856486 0.821639 0.86254 0.880927 0.87115 0.876727 0.82935 0.888205 0.932243 0.884283 0.904143 0.971722 0.844048 0.860439 0.857336 0.860904 0.821828 0.78955 0.8447 0.853885 0.840917 0.839333 0.909935 0.858177 0.905095 1.05478 1.24497 0.906561 0.910324 0.817504 0.787133 0.816511 0.807428 0.888836 1.00385 0.972021 0.946963 0.984537 0.945663 0.952929 0.899536 0.865121 0.846521 0.698441 0.772574 0.678252 0.875806 0.647716 0.691573 0.635521 0.667963 0.666413 0.695889 0.71442 0.775329 0.836068 0.863713 0.863313 0.755155 0.865848 0.76736 0.727468 0.826181 0.8274 0.848648 0.719414 0.786833 0.783941 0.734527 0.761179 0.711575 0.724483 0.7132 0.703668 0.70972 0.694676 0.684767 0.634208 0.61563 0.623995 0.626808 0.64152 0.636972 0.635597 0.654477 0.623075 0.768558 0.69088 0.655157 0.716733 0.946677 0.858143 0.713903 0.731369 0.77043 0.767397 0.816458 0.764177 0.785931 0.727319 0.708717 0.753085 0.744266 0.771567 0.790263 0.795727 0.801344 0.828934 0.825563 0.808122 0.78653 0.778518 0.79542 0.809327 0.897728 0.801665 0.762675 0.816223 0.830954 0.835245 0.815281 0.749347 0.85807 0.865301 0.85549 0.856008 0.893417 0.959491 1.29163 0.91152 0.928687 0.859273 0.711042 0.797525 0.839627 0.907726 0.879016 0.896841 0.958735 1.01049 0.916173 0.867341 0.906926 0.837923 0.819448 0.857693 0.745958 0.832054 0.761311 0.826332 0.740546 0.887608 0.871276 0.748725 0.654784 0.688592 0.715736 0.712712 0.655408 0.667041 0.779644 0.891113 0.840163 0.746545 0.907976 0.720293 0.881037 0.65067 0.710562 0.664007 0.594519 0.614788 0.693145 0.662452 0.644615 0.688443 0.673469 0.673405 0.678492 0.673039 0.673602 0.664054 0.669517 0.67523 0.666922 0.674477 0.666314 0.661851 0.603942 0.620374 0.614656 0.634098 0.622136 0.63363 0.628263 0.622558 0.643497 0.631233 0.621506 0.602955 0.629688 0.603067 0.651485 0.516041 0.548481 0.704513 0.775342 0.727972 0.712929 0.732936 0.729914 0.765091 0.745631 0.784685 0.718596 0.741819 0.797285 0.79978 0.771981 0.794988 0.786378 0.790632 0.788053 0.807089 0.792792 0.782704 0.857036 0.785747 0.750174 0.817144 0.770129 0.779393 0.804127 0.789908 0.835961 0.834979 0.883467 0.919999 0.837373 0.776548 0.832267 0.832394 0.852365 0.865166 0.826841 0.881763 0.878522 0.905215 0.918959 0.82179 0.768344 0.71273 0.701435 0.70521 0.888742 0.903939 0.784132 0.787228 0.696259 0.875908 0.879796 0.938855 0.866802 0.969885 0.940601 0.869081 0.891434 0.861249 0.783567 0.866862 0.701351 0.825446 0.823167 1.01335 0.803504 0.797474 0.623291 0.764358 0.773932 0.739255 0.70995 0.716052 0.656223 0.65458 0.675462 0.586884 0.634774 0.694726 0.614553 0.52811 0.763454 0.621969 0.662004 0.716252 0.670402 0.621596 0.62694 0.649893 0.653996 0.641722 0.688942 0.690508 0.671532 0.669561 0.657359 0.675098 0.662536 0.653086 0.648353 0.663627 0.649265 0.632089 0.582353 0.598015 0.58983 0.601156 0.603138 0.597621 0.613989 0.600224 0.593969 0.600985 0.606739 0.612091 0.598596 0.606118 0.607678 0.615529 0.579465 0.539783 0.578023 0.569687 0.602401 0.619725 0.724899 0.706078 0.709266 0.756825 0.701985 0.703054 0.675208 0.74603 0.860818 0.654306 0.716147 0.753652 0.428303 0.742745 0.921015 0.814599 0.765134 0.793323 0.768247 0.694295 0.743013 0.705697 0.760275 0.786204 0.818705 0.81508 0.855305 0.731777 0.775281 0.80919 0.798537 0.815827 0.803642 0.817 0.847135 0.825379 0.817123 0.840008 0.781894 0.843654 0.855069 0.655098 0.648129 0.696038 0.853729 0.884328 0.819295 0.726845 0.904907 0.673729 0.931732 0.821479 0.820829 1.01334 0.848181 0.913288 0.752918 0.753078 0.764522 0.615177 0.789578 0.806199 0.760259 0.814333 0.796171 0.709238 0.876388 0.815271 0.76991 0.696487 0.724779 0.751943 0.733784 0.638798 0.679257 0.701419 0.628708 0.643897 0.585069 0.660664 0.702971 0.696664 0.680123 0.581507 0.692878 0.7036 0.691245 0.551222 0.617002 0.798471 0.690983 0.666546 0.529545 0.674118 0.619885 0.597314 0.652723 0.645533 0.608386 0.633388 0.622551 0.615205 0.604038 0.63449 0.624547 0.621964 0.607449 0.613798 0.567158 0.566256 0.577416 0.584174 0.59405 0.59695 0.598676 0.597434 0.593029 0.596689 0.594774 0.597769 0.605762 0.594984 0.59455 0.605699 0.548957 0.618055 0.594256 0.606608 0.67414 0.661488 0.70658 0.674611 0.715324 0.686469 0.670945 0.685451 0.667942 0.627 0.519886 1.05552 0.631543 0.87449 0.652326 0.768591 0.69641 0.703394 0.736576 0.766021 0.70968 0.725719 0.726746 0.802258 0.800862 0.804806 0.708206 0.617707 0.661777 0.689825 0.718663 0.897069 0.805677 0.808622 0.806903 0.792163 0.769911 0.837718 0.870381 0.67023 0.692605 0.706708 0.71477 0.766679 0.720951 0.804261 0.811095 0.697779 0.647831 0.819303 0.56004 0.807793 0.942157 0.75083 0.919766 0.7606 0.847175 0.831055 0.780536 0.783715 0.699029 0.746794 0.781505 0.738776 0.759647 0.74791 0.775071 0.772646 0.817915 0.735906 0.750236 0.721455 0.741924 0.737659 0.696168 0.716351 0.630455 0.673737 0.661851 0.649407 0.707124 0.661447 0.684797 0.702332 0.601879 0.639985 0.574229 0.599556 0.596354 0.644543 0.573382 0.653947 0.6266 0.637068 0.637977 0.619845 0.62474 0.620561 0.62578 0.618316 0.615511 0.618078 0.612037 0.61537 0.613134 0.608326 0.605939 0.604869 0.611248 0.609248 0.604865 0.601425 0.594105 0.56596 0.567529 0.573945 0.569401 0.592273 0.580022 0.589899 0.609182 0.59779 0.603988 0.596813 0.601648 0.599831 0.592453 0.597056 0.607421 0.598123 0.604072 0.605134 0.620493 0.599827 0.615361 0.617435 0.637587 0.673158 0.707139 0.709436 0.696704 0.727849 0.674039 0.690595 0.680477 0.669063 0.684986 0.678905 0.672253 0.623281 0.701941 0.684889 0.658032 0.657802 0.606698 0.690647 0.990353 1.09795 0.878737 0.820113 0.845625 0.693447 0.635851 0.638056 0.605532 0.671209 0.552515 0.586394 0.635995 0.69257 0.689565 0.76372 0.823569 0.848082 0.84184 0.773842 0.785988 0.788134 0.776114 0.730178 0.725006 0.846055 0.784366 0.675356 0.689897 0.699752 0.712358 0.725589 0.751035 0.747456 0.677031 0.685777 0.732313 0.934919 0.634017 0.781134 0.547113 0.706496 0.603321 0.812983 0.757342 0.764598 0.7552 0.586139 0.595381 0.58764 0.75269 0.679212 0.735651 0.648244 0.709685 0.736045 0.754334 0.841993 0.757879 0.75975 0.746532 0.766461 0.694219 0.712168 0.66524 0.645907 0.676745 0.646822 0.66476 0.654956 0.64081 0.635284 0.611102 0.629524 0.575444 0.63253 0.586324 0.612952 0.597355 0.570695 0.636468 0.605395 0.630703 0.619237 0.618068 0.617066 0.611296 0.609405 0.603525 0.607129 0.606649 0.600168 0.60266 0.595213 0.581304 0.588296 0.578086 0.558481 0.56416 0.571847 0.584553 0.562615 0.570529 0.554914 0.593263 0.535582 0.565182 0.567021 0.56917 0.653847 0.626304 0.603262 0.62932 0.604736 0.582174 0.589771 0.617183 0.599067 0.594925 0.582563 0.659746 0.656411 0.649082 0.646176 0.614939 0.630992 0.660354 0.671703 0.63569 0.673596 0.743906 0.707226 0.696709 0.679667 0.644153 0.664158 0.550772 0.851061 0.734248 0.699912 0.675314 0.612591 0.592807 0.623637 0.664413 0.630584 0.643815 0.666535 0.624069 0.700831 0.703059 0.689971 0.836967 0.822862 0.861679 0.757104 0.693007 0.66305 0.637949 0.67873 0.648953 0.702876 0.714791 0.735768 0.736883 0.738156 0.695345 0.666664 0.702544 0.756418 0.714387 0.626516 0.562385 0.738378 0.596034 0.804859 0.764063 0.839634 0.647499 0.689998 0.647708 0.77406 0.655006 0.814262 0.675432 0.736799 0.717209 0.765778 0.727693 0.723731 0.71799 0.67078 0.708573 0.657416 0.67738 0.644451 0.653852 0.613927 0.655942 0.597059 0.658823 0.60782 0.620912 0.612186 0.613014 0.600241 0.607459 0.598603 0.583203 0.587816 0.583228 0.591122 0.584327 0.585196 0.595988 0.578987 0.601907 0.590913 0.584704 0.578273 0.585107 0.579889 0.579381 0.571906 0.56911 0.573836 0.574629 0.577783 0.501986 0.525631 0.54659 0.558811 0.55046 0.554514 0.570003 0.576623 0.561532 0.567874 0.593951 0.587545 0.59392 0.666528 0.677845 0.627317 0.62576 0.599904 0.602875 0.557009 0.610117 0.577365 0.558101 0.569233 0.593176 0.564048 0.611683 0.594994 0.51332 0.469046 0.506664 0.628094 0.610904 0.554993 0.626397 0.596659 0.669459 0.647193 0.646889 0.670949 0.687881 0.668146 0.720616 0.710408 0.690052 0.670904 0.675357 0.665502 0.606138 0.640104 0.55909 0.651123 0.712191 0.723003 0.76222 0.775818 0.751326 0.586947 0.628592 0.632092 0.648881 0.694529 0.852031 0.740045 0.669609 0.779144 0.583724 0.750832 0.897067 1.00651 0.840924 0.608598 0.634196 0.635854 0.65809 0.664717 0.688364 0.700565 0.670311 0.720525 0.731433 0.729976 0.73173 0.733239 0.712526 0.729526 0.747813 0.664498 0.665301 0.686841 0.592842 0.643585 0.655405 0.652967 0.672784 0.596465 0.621621 0.609144 0.751315 0.561607 0.61908 0.658511 0.692156 0.636499 0.471826 0.635336 0.741239 0.65739 0.750813 0.683874 0.666519 0.624535 0.678008 0.62124 0.667959 0.673151 0.595593 0.663129 0.610146 0.580876 0.667691 0.630314 0.59418 0.157734 0.712259 0.639374 0.596235 0.604419 0.588839 0.579768 0.588728 0.594619 0.59173 0.611491 0.555024 0.650411 0.597351 0.588801 0.578272 0.583312 0.582953 0.578404 0.571572 0.575451 0.576137 0.59955 0.573622 0.588997 0.596594 0.583304 0.517896 0.511059 0.498911 0.550002 0.530768 0.511919 0.539376 0.55122 0.606347 0.573074 0.594069 0.612712 0.62103 0.635019 0.527491 0.730683 0.416637 0.558047 0.427834 0.534069 0.517536 0.529019 0.518006 0.529299 0.540023 0.526097 0.548455 0.53603 0.499903 0.530102 0.503894 0.535771 0.559408 0.596986 0.63045 0.661774 0.696039 0.693532 0.681044 0.682005 0.691612 0.69029 0.683698 0.699076 0.741274 0.656306 0.758558 0.700042 0.78677 0.749589 0.707049 0.637876 0.662086 0.619151 0.618433 0.699414 0.662533 0.724793 0.783505 0.903449 0.767554 1.16129 0.719653 0.623437 0.618213 0.575807 0.57852 0.595436 0.617859 0.58449 0.630629 0.620325 0.646368 0.648784 0.65216 0.681394 0.708274 0.730221 0.734304 0.727511 0.737155 0.735182 0.707792 0.679546 0.662578 0.624123 0.657204 0.69871 0.613825 0.6463 0.642529 0.664577 0.623512 0.58171 0.608708 0.598734 0.589328 0.548695 0.677281 0.547383 0.683394 0.552809 0.447812 0.60115 0.680033 0.665278 0.607492 0.630715 0.642764 0.631574 0.607911 0.615158 0.686146 0.543111 0.835554 0.451648 0.794213 0.522353 0.632888 0.74502 0.75604 0.593302 0.461844 0.644209 0.577554 0.632909 0.603503 0.620769 0.592646 0.603283 0.593378 0.590456 0.5733 0.582864 0.589218 0.564885 0.572084 0.587559 0.602994 0.606354 0.627037 0.615516 0.649735 0.595773 0.635919 0.57353 0.546406 0.409313 0.509657 0.514654 0.531151 0.540348 0.535226 0.538164 0.497666 0.508088 0.541871 0.422807 0.526002 0.626078 0.640061 0.701384 0.190531 0.415388 0.379444 0.419077 0.411146 0.769438 0.493803 0.520094 0.560539 0.565909 0.57321 0.551323 0.547741 0.584948 0.58445 0.616863 0.673203 0.665303 0.711617 0.695088 0.639608 0.652102 0.651659 0.628547 0.636506 0.698162 0.722289 0.728209 0.70795 0.685644 0.579963 0.553751 0.519156 0.633866 0.514574 0.522507 0.546693 0.503587 0.590202 0.606738 0.660473 0.660891 0.75284 0.795058 0.826135 0.748394 0.73237 0.472342 0.203573 0.25551 0.694855 0.654963 0.687444 0.578765 0.602073 0.640525 0.651988 0.650842 0.65536 0.669193 0.70199 0.692204 0.730814 0.716505 0.732398 0.71476 0.713749 0.670394 0.638177 0.638135 0.620422 0.647638 0.646622 0.655006 0.65739 0.677312 0.676109 0.682746 0.647141 0.601648 0.626764 0.603212 0.613684 0.643808 0.586562 0.534747 0.500671 0.611536 0.566592 0.593347 0.651434 0.670776 0.627891 0.592131 0.579119 0.614644 0.666871 0.617146 0.688789 0.505162 0.636297 0.444419 0.950439 0.666328 0.563798 0.490585 0.612982 0.537132 0.546026 0.574426 0.56953 0.533978 0.559512 0.544181 0.567565 0.52408 0.521131 0.552824 0.52511 0.529936 0.573211 0.640899 0.571959 0.611807 0.659125 0.488863 0.59299 0.415136 0.606383 0.296794 0.258941 0.13181 0.629117 0.42178 0.37356 0.449941 0.481019 0.427843 0.504184 0.444935 0.422513 0.797976 0.709003 0.810193 0.477464 0.0892023 0.529361 0.389558 0.463911 0.378441 0.477803 0.467546 0.526953 0.644347 0.622388 0.561875 0.430292 0.494208 0.442942 0.468821 0.494052 0.479113 0.404487 0.478254 0.494484 0.667059 0.812688 0.821793 0.811463 0.709427 0.631659 0.623275 0.719185 0.665793 0.585873 0.544648 0.537102 0.534186 0.51343 0.461073 0.511001 0.794893 0.713483 0.790866 0.761642 0.633352 0.696508 0.549396 0.541195 0.447986 0.636829 0.638047 0.627345 0.622577 0.625598 0.641614 0.654651 0.66408 0.674104 0.696649 0.704424 0.688426 0.678304 0.644811 0.628317 0.617215 0.598559 0.621752 0.621866 0.681725 0.684235 0.683674 0.677724 0.675177 0.688499 0.679344 0.628564 0.764609 0.662732 0.416769 0.568843 0.573377 0.639078 0.560325 0.679238 0.56431 0.655088 0.528413 0.590852 0.461224 0.4795 0.579009 0.649278 0.638154 0.53761 0.639269 0.578326 0.793818 0.691789 0.178539 0.452705 0.277802 0.443013 0.464004 0.464653 0.529935 0.533328 0.52311 0.531997 0.550539 0.618686 0.517842 0.419791 0.444468 0.483601 0.431125 0.5253 0.573505 0.663664 0.340263 0.288722 0.388092 0.303154 0.301413 0.304025 0.388963 0.293419 0.454886 0.68259 0.796767 0.563472 0.42017 0.482148 0.405769 0.389343 0.496035 0.340123 0.569727 0.518292 0.537088 0.408224 0.274956 0.31331 0.323499 0.488867 0.56372 0.604377 0.592044 0.549057 0.435422 0.468171 0.454172 0.509237 0.473263 0.473482 0.482329 0.640975 0.431813 0.519868 0.494324 0.483673 0.464427 0.468931 0.508921 0.474682 0.493242 0.538628 0.515698 0.519988 0.438703 0.532666 0.581932 0.574788 0.522523 0.523504 0.52286 0.51493 0.550622 0.484757 0.448789 0.513781 1.07099 0.733339 0.720898 0.633055 0.692488 0.660727 0.622837 0.569842 0.595021 0.535605 0.529539 0.589812 0.617272 0.627323 0.635165 0.647327 0.648468 0.657965 0.662115 0.664191 0.671798 0.674583 0.649409 0.603864 0.596586 0.622608 0.594415 0.575915 0.586023 0.588316 0.647605 0.659366 0.720494 0.655186 0.817317 0.544939 0.928127 0.57732 1.25042 0.877503 0.548895 0.57349 0.561163 0.554972 0.580745 0.532962 0.573025 0.559938 0.564772 0.502164 0.515376 0.603515 0.555749 0.671583 0.650701 0.595485 0.380749 0.423082 0.452651 0.462615 0.447302 0.415269 0.438364 0.512862 0.5028 0.485887 0.489186 0.504845 0.465316 0.385676 0.475998 0.404612 0.436525 0.355697 0.445008 0.321637 0.554797 0.455122 0.656536 0.480186 0.500309 0.471257 0.511477 0.313151 0.395341 0.342705 0.341049 0.354751 0.373831 0.372574 0.387105 0.407994 0.361582 0.327269 0.286899 0.373834 0.389057 0.492652 0.424969 0.353192 0.492358 0.430012 0.371684 0.446845 0.495659 0.409569 0.38393 0.311016 0.391433 0.416939 0.352792 0.46046 0.443283 0.464447 0.505283 0.547049 0.478513 0.500732 0.505165 0.501464 0.474591 0.474994 0.460562 0.462099 0.439139 0.478416 0.494478 0.479599 0.486749 0.511566 0.521019 0.553174 0.572738 0.555526 0.562558 0.542383 0.527069 0.521733 0.486626 0.472209 0.19242 0.353049 0.816132 0.565908 0.649464 0.649786 0.698921 0.754028 0.62207 0.527508 0.519837 0.526062 0.547604 0.544092 0.564802 0.590394 0.617706 0.598078 0.6358 0.654504 0.654117 0.661135 0.644075 0.654329 0.661385 0.635681 0.648243 0.634627 0.599959 0.576479 0.569689 0.559777 0.561978 0.564155 0.575061 0.599564 0.70547 0.636468 0.787297 0.687224 0.876868 0.606508 0.394861 0.387377 0.651047 0.584254 0.575258 0.572458 0.561858 0.549992 0.557801 0.560869 0.548814 0.550135 0.531796 0.53615 0.524312 0.530294 0.528767 0.572972 0.564108 0.583586 0.481235 0.530416 0.501319 0.432547 0.440245 0.464829 0.459451 0.444505 0.448172 0.405126 0.41243 0.374813 0.454305 0.459949 0.481612 0.562719 0.719894 0.5354 0.59039 0.520994 0.479253 0.425915 0.338507 0.361524 0.409485 0.395577 0.405605 0.425196 0.448024 0.317324 0.340572 0.345367 0.338097 0.35296 0.337648 0.330974 0.355834 0.39122 0.444943 0.504672 0.495645 0.468634 0.47794 0.403883 0.393287 0.407035 0.437134 0.43051 0.449427 0.446794 0.462262 0.479583 0.503126 0.490257 0.47086 0.460274 0.446886 0.457674 0.475976 0.477356 0.487692 0.494571 0.498322 0.504493 0.518083 0.537523 0.558198 0.561895 0.540031 0.540401 0.527883 0.479636 0.488825 0.473914 0.548505 0.608348 0.601283 0.675124 0.635714 0.87829 0.57003 0.521607 0.496347 0.505485 0.543828 0.555916 0.575753 0.604217 0.63347 0.685158 0.672341 0.683672 0.620002 0.633417 0.629557 0.616962 0.623908 0.615725 0.604206 0.58465 0.566088 0.576035 0.554212 0.560804 0.537557 0.551058 0.560717 0.586505 0.568996 0.592898 0.573865 0.78131 0.595253 1.13462 0.741986 0.529114 0.209264 0.223838 0.447138 0.577946 0.417467 0.565213 0.56818 0.556724 0.549397 0.532767 0.53043 0.529338 0.524762 0.535354 0.554378 0.549848 0.534471 0.543423 0.517502 0.490451 0.502425 0.486014 0.471086 0.469828 0.459166 0.453786 0.447238 0.440895 0.404449 0.387218 0.382511 0.375772 0.402855 0.381064 0.379131 0.446255 0.387624 0.515779 0.440261 0.380356 0.429526 0.40354 0.354289 0.378033 0.396338 0.407837 0.389637 0.418301 0.437231 0.44338 0.435948 0.465203 0.461558 0.462342 0.261123 0.268891 0.251765 0.248995 0.264142 0.300877 0.328753 0.307983 0.344082 0.382866 0.397131 0.411741 0.431939 0.423268 0.465587 0.462316 0.449531 0.46032 0.449516 0.421653 0.424665 0.412145 0.407736 0.422337 0.439098 0.435182 0.438997 0.436509 0.437725 0.441948 0.436654 0.438123 0.46826 0.479105 0.490003 0.480468 0.469623 0.465028 0.473289 0.478078 0.470031 0.494266 0.489994 0.497876 0.506916 0.518428 0.507922 0.525856 0.526305 0.532539 0.540732 0.550496 0.561363 0.554433 0.563314 0.553879 0.541369 0.517324 0.54053 0.525345 0.539632 0.582564 0.540402 0.538178 0.56856 0.635147 0.3096 0.504299 0.525836 0.5339 0.585808 0.582436 0.61298 0.604347 0.626719 0.746621 0.652621 0.710664 0.600658 0.531956 0.620682 0.572095 0.57073 0.561098 0.553901 0.538853 0.535728 0.506866 0.556743 0.562164 0.600275 0.550078 0.56489 0.55599 0.553373 0.666787 0.734245 0.769606 0.53348 0.233938 0.303696 0.419028 0.498427 0.543593 0.569552 0.580595 0.548987 0.547415 0.546595 0.539656 0.55096 0.545308 0.535637 0.534687 0.537455 0.534641 0.534682 0.536454 0.52844 0.516978 0.493018 0.499705 0.490896 0.481828 0.4615 0.471517 0.464794 0.458622 0.451468 0.440034 0.455154 0.451045 0.423135 0.428929 0.397285 0.419074 0.381406 0.36954 0.376886 0.350446 0.365758 0.384941 0.380086 0.382119 0.366224 0.359475 0.352085 0.377953 0.407734 0.43579 0.449387 0.458209 0.495328 0.470611 0.568339 0.589993 0.443744 0.514555 0.275007 0.275771 0.256826 0.240988 0.223605 0.230089 0.269026 0.351785 0.394497 0.381698 0.398037 0.409321 0.40995 0.427371 0.448532 0.444779 0.448186 0.442855 0.446544 0.425728 0.418431 0.416673 0.417498 0.42564 0.432887 0.435136 0.422881 0.4533 0.457735 0.467793 0.47423 0.480111 0.476924 0.480402 0.475122 0.479239 0.478384 0.482233 0.504175 0.504855 0.514975 0.513684 0.522951 0.531558 0.528623 0.540196 0.545918 0.556006 0.564415 0.552632 0.539228 0.521788 0.56895 0.564894 0.548604 0.475837 0.383563 0.318411 0.345258 0.528463 0.519459 0.470963 0.558089 0.566787 0.577099 0.633231 0.625781 0.620948 0.647625 0.573132 0.606177 0.767084 0.631961 0.542513 0.529421 0.544161 0.545159 0.560631 0.477284 0.574827 0.508319 0.481038 0.612697 0.642645 0.523821 0.521205 0.566912 0.537669 0.505436 0.573426 0.681007 0.658107 0.764448 0.657001 0.565038 0.438316 0.508788 0.442732 0.447378 0.496994 0.51233 0.607363 0.563177 0.561604 0.562629 0.544752 0.556686 0.5403 0.547657 0.538515 0.54183 0.531898 0.544686 0.531136 0.524476 0.515298 0.509975 0.493732 0.485267 0.474613 0.462578 0.461007 0.444739 0.432368 0.452408 0.410816 0.390479 0.396945 0.378643 0.384777 0.401732 0.375741 0.390818 0.364319 0.394151 0.409922 0.41817 0.433741 0.43988 0.452935 0.485305 0.439253 0.512918 0.510766 0.628436 0.526987 0.507188 0.278522 0.306538 0.207183 0.228283 0.262314 0.226565 0.230768 0.308943 0.362446 0.396882 0.428284 0.409687 0.430511 0.431421 0.43484 0.437272 0.432471 0.421507 0.421455 0.424572 0.408483 0.403258 0.406536 0.41214 0.42423 0.432991 0.456757 0.484373 0.483227 0.482862 0.486372 0.482715 0.486767 0.486394 0.485375 0.478796 0.505528 0.514548 0.52569 0.533518 0.541006 0.544443 0.550207 0.55993 0.561419 0.56634 0.546125 0.538052 0.552306 0.55953 0.581866 0.548606 0.538346 0.505959 0.236263 0.388136 0.378648 0.484013 0.506234 0.565035 0.599777 0.642208 0.61472 0.637469 0.633784 0.609094 0.625783 0.618302 0.532696 0.625662 0.623627 0.555243 0.556748 0.512661 0.516971 0.527879 0.52034 0.624594 0.68352 0.564586 0.509602 0.490916 0.62258 0.691005 0.625065 0.578537 0.504288 0.524607 0.555998 0.595243 0.586379 0.577572 0.573997 0.552441 0.546856 0.546596 0.556101 0.538498 0.527699 0.534952 0.523197 0.52888 0.503958 0.518527 0.494192 0.481918 0.47273 0.463302 0.480697 0.472086 0.459406 0.459868 0.435043 0.436736 0.412145 0.393798 0.407492 0.409156 0.461343 0.412762 0.467728 0.444573 0.411815 0.415345 0.408624 0.447539 0.449033 0.429173 0.431005 0.390339 0.396586 0.507221 0.630395 0.559831 0.37762 1.43916 0.293113 0.359729 0.838433 0.111246 0.248749 0.198246 0.225245 0.23905 0.18406 0.474435 0.435805 0.448413 0.44047 0.424232 0.421558 0.431763 0.429803 0.425972 0.428748 0.414723 0.39211 0.415384 0.412618 0.414007 0.417169 0.422738 0.431803 0.428762 0.446133 0.491369 0.479855 0.478952 0.482135 0.48512 0.485934 0.490371 0.510809 0.523714 0.540406 0.547721 0.552558 0.556455 0.561062 0.564711 0.560767 0.57108 0.550834 0.538456 0.562095 0.558236 0.5509 0.585809 0.574479 0.624464 0.521123 0.655307 0.436488 0.476319 0.533936 0.527739 0.528521 0.579196 0.555004 0.691575 0.611268 0.611559 0.57343 0.573566 0.579008 0.530204 0.60407 0.525817 0.56136 0.469512 0.564234 0.511827 0.464021 0.633682 0.853277 0.641695 0.561273 0.551131 0.477956 0.504465 0.681948 0.577269 0.629409 0.66026 0.618971 0.493107 0.500865 0.549565 0.566884 0.576001 0.568784 0.549029 0.562586 0.546505 0.547452 0.539588 0.538539 0.562914 0.547915 0.537604 0.518028 0.529901 0.509842 0.540957 0.50411 0.51312 0.474881 0.534845 0.463274 0.440559 0.402513 0.401583 0.377613 0.366013 0.383708 0.501303 0.408672 0.62071 0.479855 0.71379 0.467183 0.165739 0.318783 0.355888 0.339998 0.437146 0.28136 0.451758 0.224437 0.55 0.211802 0.980639 0.117805 0.185246 0.164081 0.178141 0.296787 0.317319 0.405754 0.376882 0.480824 0.440297 0.432796 0.393896 0.416492 0.405661 0.416743 0.397413 0.406337 0.38662 0.43775 0.418538 0.437395 0.465277 0.469937 0.468944 0.478724 0.472072 0.476876 0.468469 0.47219 0.486305 0.522752 0.521314 0.543669 0.545211 0.551272 0.553307 0.556739 0.556457 0.566582 0.57126 0.574408 0.567869 0.573285 0.576045 0.581713 0.590166 0.643332 0.602736 0.590595 0.576287 0.550639 0.540403 0.537578 0.567047 0.597885 0.546621 0.55138 0.546187 0.560182 0.664192 0.583326 0.59967 0.484166 0.5292 0.567775 0.616114 0.582048 0.517957 0.468069 0.474188 0.418667 0.591714 0.502682 0.692779 0.595893 0.82171 0.546815 0.673702 0.600428 0.555062 0.561465 0.570742 0.548609 0.551374 0.591116 0.647948 0.619001 0.650496 0.630834 0.54887 0.56815 0.575803 0.574497 0.573597 0.574155 0.577349 0.565021 0.553974 0.554758 0.547777 0.538587 0.543195 0.54005 0.540678 0.530705 0.520066 0.52606 0.543827 0.50602 0.49729 0.515197 0.503564 0.538455 0.507642 0.486395 0.522477 0.481261 0.427272 0.399305 0.374141 0.326963 0.335749 0.376914 0.458576 0.528732 0.593719 0.373363 0.32994 0.328805 0.234573 0.293067 0.547035 0.243003 0.465019 0.510009 0.165734 0.513141 0.491092 0.543006 0.40101 0.211444 0.241193 0.207146 0.301592 0.269171 0.322671 0.363878 0.502776 0.450427 0.402096 0.362198 0.368977 0.39592 0.389916 0.387076 0.332279 0.437593 0.427343 0.401727 0.426666 0.468376 0.464823 0.463402 0.452575 0.465106 0.463928 0.466805 0.472121 0.477017 0.507722 0.497911 0.541997 0.554011 0.557668 0.560521 0.563265 0.574843 0.580373 0.578351 0.623445 0.607824 0.607528 0.626297 0.636612 0.621151 0.686994 0.653974 0.511024 0.502903 0.469072 0.440049 0.562105 0.565589 0.559209 0.574655 0.507754 0.542735 0.61893 0.60483 0.483001 0.384003 0.559101 0.50559 0.446691 0.452789 0.376307 0.568563 0.675481 0.637983 0.503769 0.658211 0.50395 0.454479 0.536876 0.555067 0.559482 0.530131 0.524465 0.544863 0.64925 0.628076 0.593408 0.589635 0.575685 0.569234 0.568479 0.560089 0.55976 0.558987 0.550787 0.546721 0.539107 0.528685 0.537886 0.516717 0.555069 0.520582 0.571745 0.549297 0.563648 0.533681 0.521762 0.484936 0.481395 0.361757 0.38113 0.267178 0.336299 0.322635 0.255068 0.42789 0.0683785 0.207102 0.135878 0.239799 0.329412 0.464166 0.325617 0.454998 0.291316 0.227816 0.357904 0.202662 0.196868 0.214875 0.319666 0.296398 0.348724 0.520599 0.467562 0.635899 0.494113 0.239968 0.334333 0.387249 0.398156 0.401005 0.334333 0.364129 0.397071 0.290255 0.298304 0.386603 0.355105 0.479297 0.488612 0.459838 0.428196 0.482424 0.499178 0.473742 0.466473 0.480128 0.54771 0.554532 0.55684 0.560791 0.559144 0.57955 0.58723 0.607169 0.60835 0.621498 0.616813 0.631229 0.640507 0.668486 0.595877 0.59493 0.491241 0.559582 0.462041 0.416909 0.566888 0.568171 0.55466 0.551997 0.594333 0.683576 0.517156 0.397134 0.53023 0.506091 0.435131 0.456386 0.598047 0.461909 0.607948 0.621008 0.312218 0.463692 0.527624 0.550914 0.547011 0.536247 0.525237 0.590085 0.494108 0.631978 0.605747 0.596992 0.586333 0.562275 0.562211 0.551729 0.540271 0.550492 0.546394 0.546461 0.536579 0.552402 0.53727 0.530385 0.549939 0.563587 0.532039 0.54453 0.553396 0.559051 0.539476 0.571494 0.583598 0.575065 0.694861 0.23328 0.277039 0.359433 0.240319 0.156093 0.287453 0.215183 0.372556 0.294609 0.296902 0.465686 0.269214 0.345248 0.42309 0.280751 0.12809 0.203552 0.249454 0.224117 0.329966 0.350571 0.4135 0.598946 0.380542 0.42808 0.413258 0.403628 0.414298 0.244292 0.290305 0.283901 0.275484 0.302564 0.342044 0.350118 0.354344 0.456945 0.411923 0.358477 0.50461 0.478563 0.475854 0.545163 0.506434 0.526659 0.535681 0.533923 0.546804 0.55388 0.556164 0.556084 0.551656 0.547733 0.580335 0.582869 0.59325 0.607969 0.613837 0.612058 0.628078 0.634558 0.646478 0.592742 0.544396 0.49665 0.463514 0.575248 0.538657 0.527549 0.311965 0.487567 0.485541 0.545869 0.533568 0.522903 0.533623 0.600148 0.622421 0.624109 0.589741 0.578565 0.571016 0.556244 0.549313 0.561485 0.545794 0.538799 0.5169 0.521744 0.525422 0.533796 0.55117 0.541716 0.548949 0.553106 0.537448 0.533467 0.508335 0.540457 0.738809 0.848043 0.29513 0.497564 0.329545 0.361921 0.312096 0.285319 0.190269 0.223384 0.261367 0.313891 0.519623 0.445806 0.428097 0.360225 0.195998 0.331653 0.200294 0.337007 0.351922 0.431935 0.481751 0.373648 0.414161 0.384493 0.333816 0.328381 0.280457 0.289276 0.318445 0.311149 0.346139 0.34541 0.357729 0.429243 0.45416 0.506342 0.510614 0.496547 0.48042 0.463111 0.47757 0.477516 0.533149 0.537529 0.550158 0.554114 0.544867 0.549289 0.547257 0.579329 0.581676 0.584457 0.585613 0.590854 0.606263 0.628332 0.627579 0.654926 0.494786 0.52871 0.57651 0.616869 0.611338 0.607983 0.583237 0.584258 0.58365 0.565317 0.593073 0.554431 0.550927 0.513236 0.508099 0.531059 0.537905 0.526747 0.522074 0.52416 0.480408 0.595279 0.528759 0.47987 0.549151 0.608591 0.377682 0.352215 0.288589 0.209377 0.210664 0.256503 0.246131 0.368721 0.382784 0.522673 0.244109 0.312733 0.340333 0.471339 0.399521 0.201698 0.364516 0.31799 0.335612 0.451921 0.433876 0.428356 0.41356 0.497513 0.364565 0.337298 0.311003 0.237712 0.348302 0.3554 0.394333 0.361976 0.421508 0.428209 0.456799 0.50294 0.51144 0.464416 0.477164 0.474588 0.476569 0.528071 0.549983 0.550382 0.557494 0.581077 0.572023 0.580111 0.595938 0.578132 0.591147 0.549902 0.560854 0.575057 0.564741 0.558836 0.549411 0.489188 0.524188 0.533787 0.51413 0.513688 0.5368 0.408208 0.492217 0.523628 0.491682 0.669515 0.368903 0.406721 0.359962 0.264205 0.190874 0.249863 0.337854 0.393654 0.487254 0.294998 0.386368 0.322836 0.310096 0.331079 0.503939 0.44657 0.167173 0.163378 0.357182 0.372007 0.419125 0.38748 0.348758 0.249796 0.297008 0.380549 0.391544 0.393302 0.430911 0.465484 0.461258 0.513344 0.530988 0.512816 0.500453 0.465809 0.504742 0.494407 0.535703 0.51817 0.502164 0.547949 0.3764 0.418484 0.588962 0.448385 0.443186 0.647999 0.61195 0.558239 0.525902 0.398211 0.371717 0.325903 0.353403 0.356481 0.54948 0.313547 0.514977 0.487038 0.508247 0.358319 0.351907 0.419817 0.45224 0.435145 0.478997 0.401405 0.357608 0.328667 0.491447 0.459217 0.512397 0.52105 
SCALARS Stress float 1
LOOKUP_TABLE default
-44735400000.0 -156424000000.0 -31240900000.0 -31858700000.0 -137278000000.0 -214124000000.0 -84347700000.0 -87199400000.0 -141666000000.0 -110286000000.0 -251288000000.0 -282125000000.0 -301509000000.0 -131421000000.0 -155811000000.0 -176349000000.0 -142259000000.0 -298151000000.0 -166744000000.0 -138316000000.0 -63113300000.0 -46845200000.0 -46513400000.0 -73283100000.0 -203233000000.0 -167445000000.0 -333214000000.0 -415403000000.0 -295768000000.0 -257706000000.0 -619071000000.0 -292525000000.0 -374529000000.0 -386652000000.0 -322335000000.0 -303577000000.0 -57356600000.0 -294878000000.0 -527037000000.0 -303550000000.0 -385807000000.0 -430235000000.0 -220908000000.0 -261449000000.0 -164874000000.0 -303096000000.0 -39806100000.0 -136533000000.0 -415422000000.0 -605180000000.0 -425785000000.0 -1.00279e+12 -709476000000.0 -123346000000.0 -397122000000.0 -839741000000.0 -897048000000.0 -604773000000.0 -886485000000.0 -826563000000.0 -982197000000.0 -1.19403e+12 -856468000000.0 -306129000000.0 -335961000000.0 -395902000000.0 -327482000000.0 -516339000000.0 -163248000000.0 -50385300000.0 -107126000000.0 -76814600000.0 -42378600000.0 -58857900000.0 -169774000000.0 -569554000000.0 -888824000000.0 -1.38507e+12 -111990000000.0 -681160000000.0 -319507000000.0 -653061000000.0 -977611000000.0 -909548000000.0 -765423000000.0 -140388000000.0 -1.01198e+12 -1.27933e+12 -207350000000.0 -345762000000.0 -567195000000.0 -497405000000.0 -862965000000.0 -1.01479e+12 -234425000000.0 -374332000000.0 -190290000000.0 -174760000000.0 -241518000000.0 -918372000000.0 -1.2496e+12 -1.05124e+12 -991838000000.0 -848397000000.0 -1.42673e+12 -722335000000.0 -672174000000.0 -1.14888e+12 -513544000000.0 -823789000000.0 -1.24531e+12 -511126000000.0 -1.48912e+12 -3.13725e+12 -751527000000.0 -1.09966e+12 -856048000000.0 -835864000000.0 -208200000000.0 -213565000000.0 -353353000000.0 -61092400000.0 -179219000000.0 -43250800000.0 -250921000000.0 -325176000000.0 -1.00895e+12 -902043000000.0 -1.22852e+12 -792465000000.0 -1.28602e+12 -411227000000.0 -1.61611e+12 -2.87145e+12 -1.37315e+12 -999057000000.0 -983360000000.0 -1.43384e+12 -1.91258e+12 -1.77908e+12 -2.34324e+12 -2.06096e+12 -1.01837e+12 -1.19363e+12 -1.14449e+12 -301961000000.0 -79291600000.0 -56587600000.0 -417426000000.0 -1.17053e+12 -294972000000.0 -436455000000.0 -162617000000.0 -43664700000.0 -210978000000.0 -118084000000.0 -82986900000.0 -38203000000.0 -379941000000.0 -126874000000.0 -831436000000.0 -2.13815e+12 -1.11539e+12 -1.56526e+12 -1.73656e+12 -1.60644e+12 -2.37202e+12 -1.83758e+12 -659661000000.0 -2.28535e+12 -2.61664e+12 -2.39313e+12 -1.88988e+12 -2.1521e+12 -1.92113e+12 -1.302e+12 -1.29502e+12 -602471000000.0 -61739400000.0 -276941000000.0 -44725900000.0 -50492800000.0 -128649000000.0 -12548800000.0 -755231000000.0 -1.18097e+12 -761875000000.0 -2.37239e+12 -1.62626e+12 -1.91963e+12 -2.7198e+12 -2.39798e+12 -1.69828e+12 -1.633e+12 -901460000000.0 -3.41542e+12 -1.74427e+12 -1.72555e+12 -1.8194e+12 -2.43551e+12 -1.69451e+12 -894460000000.0 -1.33936e+12 -292350000000.0 -1.27361e+12 -534258000000.0 -1.18923e+12 -93124800000.0 -19839800000.0 -72670600000.0 -191406000000.0 -384508000000.0 -1.09065e+12 -728482000000.0 -674196000000.0 -2.70253e+12 -2.59514e+12 -3.68661e+12 -2.90538e+12 -1.18463e+12 -3.3033e+12 -2.78151e+12 -1.63101e+12 -3.39209e+12 -3.88834e+12 -3.29877e+12 -4.09412e+12 -3.68572e+12 -2.05157e+12 -1.49159e+12 -2.30701e+12 -1.84025e+12 -1.05119e+12 -2.47894e+12 -12549500000.0 -74765000000.0 -117090000000.0 -168050000000.0 -403111000000.0 -1.47302e+12 -1.24351e+12 -3.52067e+12 -4.59445e+12 -2.42492e+12 -2.04204e+12 -2.89561e+12 -3.37167e+12 -2.60075e+12 -3.01082e+12 -2.59835e+12 -3.33762e+12 -2.33944e+12 -2.63153e+12 -3.8559e+12 -2.0809e+12 -2.57668e+12 -2.91821e+12 -2.12808e+12 -1.10515e+12 -2.34467e+12 -2.0025e+12 -878714000000.0 -261858000000.0 -457487000000.0 -961163000000.0 -44417900000.0 -2.78271e+12 -1.81713e+12 -2.48743e+12 -2.67064e+12 -3.43787e+12 -1.69549e+12 -3.87467e+12 -4.70326e+12 -4.74461e+12 -2.74914e+12 -2.61906e+12 -2.33176e+12 -4.48602e+12 -4.75563e+12 -2.64041e+12 -3.96865e+12 -3.03178e+12 -4.04662e+12 -2.24894e+12 -1.05397e+12 -1.78466e+12 -2.14279e+12 -1.56947e+12 -217275000000.0 -4.05963e+12 -4.07518e+12 -2.33177e+12 -6.4665e+12 -3.41012e+12 -4.41715e+12 -4.76012e+12 -3.945e+12 -4.76226e+12 -5.44944e+12 -3.57856e+12 -1.94176e+12 -2.48984e+12 -2.58028e+12 -2.60625e+12 -3.6029e+12 -5.7508e+12 -3.78887e+12 -3.27396e+12 -1.93038e+12 -3.60272e+12 -5.48792e+12 -2.6096e+12 -2.4716e+12 -3.79586e+12 -5.5226e+12 -5.03709e+12 -3.49899e+12 -2.98726e+12 -4.09025e+12 -3.61208e+12 -3.58127e+12 -3.94419e+12 -4.22939e+12 -3.48749e+12 -5.94929e+12 -4.02848e+12 -3.03653e+12 -4.0239e+12 -5.75285e+12 -6.16246e+12 -5.60333e+12 -3.11808e+12 -4.42495e+12 -3.61168e+12 -1.83076e+12 -4.3963e+12 -2.34902e+12 -3.9883e+12 -2.3188e+12 -6.19181e+12 -2.5651e+12 -4.12332e+12 -1.30965e+12 -4.72858e+12 -1.85664e+12 -3.84289e+12 -4.6177e+12 -4.27661e+12 -5.28379e+12 -5.35221e+12 -5.23246e+12 -5.19039e+12 -3.74303e+12 -4.38432e+12 -3.42535e+12 -3.5594e+12 -4.20011e+12 -3.95615e+12 -3.72589e+12 -5.20807e+12 -2.16544e+12 -3.18056e+12 -4.00667e+12 -5.14724e+12 -4.57767e+12 -4.88761e+12 -4.06296e+12 -2.39444e+12 -3.18991e+12 -3.74198e+12 -4.07461e+12 -4.43525e+12 -4.51846e+12 -5.32888e+12 -5.88796e+12 -1.78643e+12 -2.93723e+12 -2.26131e+12 -4.59772e+12 -4.96304e+12 -4.99506e+12 -4.05742e+12 -5.85136e+12 -4.50428e+12 -3.64427e+12 -5.38585e+12 -4.0533e+12 -2.23176e+12 -3.6528e+12 -4.45831e+12 -4.7505e+12 -3.06955e+12 -3.45617e+12 -3.26272e+12 -3.64781e+12 -4.77285e+12 -5.13339e+12 -5.0508e+12 -4.79384e+12 -4.61516e+12 -4.69539e+12 -4.05981e+12 -2.47666e+12 -4.69303e+12 -4.84721e+12 -1.74544e+12 -4.84375e+12 -3.83841e+12 -2.44185e+12 -5.24117e+12 -4.70363e+12 -4.50928e+12 -5.67055e+12 -3.24507e+12 -3.5945e+12 -4.67843e+12 -4.15434e+12 -4.17093e+12 -4.58464e+12 -6.42547e+12 -3.77477e+12 -3.3698e+12 -4.21311e+12 -4.28081e+12 -5.37153e+12 -4.88624e+12 -5.13406e+12 -3.39516e+12 -4.02413e+12 -2.75962e+12 -3.63462e+12 -6.03888e+12 -6.76538e+12 -4.21551e+12 -3.17997e+12 -4.456e+12 -5.43583e+12 -4.7831e+12 -7.45283e+12 -6.62521e+12 -3.58811e+12 -5.79465e+12 -3.23814e+12 -4.27376e+12 -5.05106e+12 -2.82587e+12 -2.77103e+12 -3.91085e+12 -4.00897e+12 -5.24065e+12 -6.82418e+12 -3.29299e+12 -3.8193e+12 -5.26364e+12 -5.60052e+12 -2.4708e+12 -3.69377e+12 -4.80688e+12 -2.61313e+12 -4.95287e+12 -3.28548e+12 -4.95315e+12 -4.83334e+12 -2.75791e+12 -8.21041e+12 -5.17902e+12 -6.56756e+12 -4.09532e+12 -5.51456e+12 -6.55819e+12 -3.75657e+12 -3.54983e+12 -5.01785e+12 -4.57772e+12 -4.2491e+12 -5.47483e+12 -3.16047e+12 -12549700000.0 -5.62895e+12 -3.9657e+12 -6.77225e+12 -2.96423e+12 -3.8933e+12 -6.32312e+12 -6.97861e+12 -4.27158e+12 -6.48783e+12 -6.04228e+12 -6.69663e+12 -5.34942e+12 -4.42411e+12 -4.65495e+12 -5.48584e+12 -4.79682e+12 -7.48972e+12 -6.00206e+12 -3.87913e+12 -5.94907e+12 -4.66225e+12 -3.39537e+12 -5.31686e+12 -4.33491e+12 -5.03949e+12 -4.82053e+12 -5.4064e+12 -3.23311e+12 -2.44247e+12 -6.22958e+12 -4.95098e+12 -4.98795e+12 -5.43894e+12 -3.31161e+12 -1.97771e+12 -2.98313e+12 -3.08814e+12 -6.17074e+12 -7.13655e+12 -7.88895e+12 -5.88163e+12 -3.77449e+12 -6.83857e+12 -5.17864e+12 -5.57427e+12 -2.81287e+12 -5.37334e+12 -5.89685e+12 -5.75831e+12 -3.96999e+12 -4.68109e+12 -7.76697e+12 -1.05926e+13 -5.54977e+12 -7.39741e+12 -5.0415e+12 -4.01451e+12 -2.97424e+12 -2.97852e+12 -4.75306e+12 -6.4154e+12 -4.58727e+12 -5.44819e+12 -6.11358e+12 -5.88961e+12 -5.82945e+12 -5.09484e+12 -2.00007e+12 -3.76926e+12 -6.02781e+12 -7.60905e+12 -7.59249e+12 -8.70786e+12 -4.28561e+12 -2.68947e+12 -3.23378e+12 -5.50087e+12 -3.94403e+12 -6.93824e+12 -5.01197e+12 -9.06697e+12 -6.37097e+12 -4.38138e+12 -3.18742e+12 -5.01864e+12 -1.08357e+13 -4.69999e+12 -5.16993e+12 -5.34005e+12 -7.17186e+12 -5.55043e+12 -8.82603e+12 -9.32625e+12 -5.4119e+12 -3.55548e+12 -6.69366e+12 -1.07266e+13 -4.35028e+12 -5.78063e+12 -5.89671e+12 -6.94892e+12 -5.0688e+12 -6.8015e+12 -6.05708e+12 -6.8227e+12 -9.08859e+12 -2.97148e+12 -3.31318e+12 -5.83091e+12 -3.22375e+12 -4.58432e+12 -7.68775e+12 -7.82804e+12 -7.01141e+12 -7.15926e+12 -5.31972e+12 -4.44524e+12 -4.50843e+12 -5.07765e+12 -4.74293e+12 -4.00962e+12 -5.04872e+12 -5.14722e+12 -7.29079e+12 -1.15669e+13 -6.71092e+12 -7.15612e+12 -9.20577e+12 -8.71335e+12 -2.95278e+12 -1.14731e+13 -4.88225e+12 -9.12929e+12 -7.25032e+12 -5.08172e+12 -6.91222e+12 -2.96048e+12 -12549700000.0 -6.07762e+12 -7.10413e+12 -6.50096e+12 -4.4621e+12 -5.21588e+12 -5.73683e+12 -6.84543e+12 -5.34084e+12 -1.00887e+13 -6.4379e+12 -7.8316e+12 -6.3431e+12 -6.61834e+12 -5.37737e+12 -6.70016e+12 -8.0017e+12 -7.28565e+12 -7.1296e+12 -8.27437e+12 -4.82346e+12 -7.65031e+12 -5.69748e+12 -7.06192e+12 -6.51503e+12 -8.35221e+12 -5.20143e+12 -1.05092e+13 -1.47019e+13 -1.16823e+13 -7.49532e+12 -4.22791e+12 -12549700000.0 -2.19572e+12 -4.43038e+12 -7.26442e+12 -4.80753e+12 -5.79297e+12 -6.0908e+12 -6.21148e+12 -4.74436e+12 -3.93551e+12 -7.1832e+12 -2.46258e+12 -6.29051e+12 -6.5382e+12 -5.38051e+12 -4.44365e+12 -6.55489e+12 -2.8797e+12 -4.67262e+12 -2.51293e+12 -6.43407e+12 -6.78323e+12 -4.24191e+12 -6.31865e+12 -6.64468e+12 -4.88466e+12 -7.42424e+12 -8.44965e+12 -2.06284e+12 -9.85796e+12 -4.30336e+12 -3.5426e+12 -6.91096e+12 -2.71539e+12 -5.77714e+12 -1.10597e+13 -7.05046e+12 -7.29394e+12 -6.91474e+12 -8.47032e+12 -8.54432e+12 -5.43226e+12 -12549700000.0 -4.27647e+12 -3.94575e+12 -3.2527e+12 -2.81281e+12 -5.01117e+12 -3.28569e+12 -4.97059e+12 -3.78371e+12 -3.90999e+12 -7.89983e+12 -4.01255e+12 -7.88797e+12 -6.51355e+12 -5.4096e+12 -4.26798e+12 -6.84654e+12 -6.20029e+12 -6.57477e+12 -7.7035e+12 -6.51275e+12 -6.81871e+12 -4.54815e+12 -5.23816e+12 -4.69686e+12 -3.5485e+12 -7.11022e+12 -8.98697e+12 -3.45335e+12 -4.01724e+12 -7.55564e+12 -4.11258e+12 -5.48747e+12 -3.83749e+12 -5.69443e+12 -6.01807e+12 -4.97073e+12 -9.09809e+12 -1.05013e+13 -5.71104e+12 -8.87879e+12 -8.39595e+12 -2.80556e+12 -3.50921e+12 -3.43116e+12 -4.0748e+12 -6.76509e+12 -5.42229e+12 -7.341e+12 -9.42394e+12 -5.29799e+12 -4.45745e+12 -6.57147e+12 -4.21434e+12 -6.65048e+12 -4.35535e+12 -9.14529e+12 -7.01913e+12 -6.21168e+12 -8.84731e+12 -3.32276e+12 -5.63117e+12 -7.0546e+12 -3.85926e+12 -8.25521e+12 -9.85635e+12 -9.11263e+12 -5.37973e+12 -4.28282e+12 -2.82063e+12 -5.69235e+12 -3.59138e+12 -8.41229e+12 -3.91528e+12 -5.11792e+12 -6.13169e+12 -8.61384e+12 -6.71888e+12 -5.15721e+12 -8.82046e+12 -6.43645e+12 -9.22853e+12 -8.08592e+12 -5.89182e+12 -4.58566e+12 -4.80747e+12 -4.16633e+12 -5.37312e+12 -4.86152e+12 -6.43167e+12 -5.53417e+12 -1.01513e+13 -1.2075e+13 -6.33881e+12 -5.81687e+12 -6.6971e+12 -9.3608e+12 -6.45123e+12 -6.03596e+12 -4.62526e+12 -1.26335e+13 -4.29146e+12 -5.80292e+12 -4.75035e+12 -7.98998e+12 -8.30547e+12 -8.02454e+12 -5.11064e+12 -9.89367e+12 -9.38339e+12 -4.75012e+12 -8.402e+12 -7.86006e+12 -7.33758e+12 -6.14178e+12 -6.5997e+12 -5.27889e+12 -5.26911e+12 -6.09523e+12 -5.12917e+12 -6.39194e+12 -6.65265e+12 -3.82113e+12 -3.37568e+12 -4.29191e+12 -12549700000.0 -2.90806e+12 -6.55477e+12 -4.35575e+12 -5.97229e+12 -4.95563e+12 -9.86301e+12 -5.19585e+12 -1.01868e+13 -7.78206e+12 -5.31296e+12 -8.16629e+12 -9.06991e+12 -4.98355e+12 -1.03847e+13 -6.25868e+12 -7.8146e+12 -6.73981e+12 -8.28764e+12 -7.67711e+12 -1.00933e+13 -1.00792e+13 -7.22944e+12 -6.80316e+12 -1.21114e+13 -4.99635e+12 -1.02309e+13 -5.51472e+12 -7.06649e+12 -4.18843e+12 -4.643e+12 -7.16583e+12 -8.30396e+12 -5.988e+12 -4.58248e+12 -5.14216e+12 -6.45454e+12 -5.05047e+12 -5.58146e+12 -12549700000.0 -12549700000.0 -3.98368e+12 -4.07636e+12 -2.56688e+12 -7.79322e+12 -7.66048e+12 -7.63922e+12 -4.46929e+12 -7.92529e+12 -9.57297e+12 -6.3962e+12 -6.83161e+12 -9.12547e+12 -6.89113e+12 -5.17272e+12 -6.001e+12 -2.93197e+12 -5.86506e+12 -3.99958e+12 -5.91679e+12 -6.92219e+12 -8.20618e+12 -1.00661e+13 -6.10571e+12 -6.28162e+12 -5.02517e+12 -4.94896e+12 -5.77039e+12 -8.73362e+12 -5.80004e+12 -7.04747e+12 -9.24142e+12 -5.92525e+12 -4.81743e+12 -5.29931e+12 -6.6715e+12 -8.47296e+12 -1.01654e+13 -5.33255e+12 -5.08859e+12 -5.18875e+12 -1.1261e+13 -9.06615e+12 -7.96912e+12 -2.51192e+12 -3.38794e+12 -6.47407e+12 -6.6872e+12 -5.73717e+12 -1.10016e+13 -6.64481e+12 -7.10652e+12 -6.85165e+12 -8.64446e+12 -8.02267e+12 -1.30145e+13 -4.67231e+12 -9.65462e+12 -8.2303e+12 -7.56517e+12 -3.64797e+12 -9.21411e+12 -3.09365e+12 -5.9396e+12 -2.13526e+12 -7.17355e+12 -5.16891e+12 -7.41225e+12 -8.25563e+12 -7.70688e+12 -6.12295e+12 -1.01196e+13 -4.91274e+12 -8.09785e+12 -7.27159e+12 -7.20765e+12 -5.42159e+12 -6.75269e+12 -7.79798e+12 -4.86505e+12 -5.89389e+12 -8.84837e+12 -5.75689e+12 -1.07838e+13 -4.36434e+12 -7.11761e+12 -3.49531e+12 -3.39842e+12 -7.70027e+12 -6.91608e+12 -4.44795e+12 -6.82788e+12 -4.18306e+12 -4.3211e+12 -6.20552e+12 -7.02925e+12 -6.31226e+12 -6.37276e+12 -6.39686e+12 -5.80699e+12 -1.38327e+13 -5.71087e+12 -8.09636e+12 -8.64204e+12 -4.80616e+12 -7.0535e+12 -7.42503e+12 -4.75248e+12 -4.46248e+12 -5.78382e+12 -8.50763e+12 -1.1588e+13 -9.65802e+12 -5.466e+12 -7.91715e+12 -1.06671e+13 -7.24043e+12 -4.84497e+12 -3.21532e+12 -1.24094e+13 -8.52319e+12 -8.08423e+12 -6.14802e+12 -8.6478e+12 -6.37786e+12 -4.96362e+12 -6.60495e+12 -4.74848e+12 -3.72439e+12 -4.38548e+12 -2.83423e+12 -4.13764e+12 -4.18751e+12 -7.36801e+12 -6.92504e+12 -4.54505e+12 -6.69493e+12 -7.77423e+12 -6.75025e+12 -5.20995e+12 -7.43564e+12 -1.0834e+13 -8.33806e+12 -9.61169e+12 -7.972e+12 -1.18779e+13 -7.69336e+12 -7.618e+12 -5.42666e+12 -8.09385e+12 -4.0311e+12 -9.07725e+12 -1.40162e+13 -1.05608e+13 -7.16638e+12 -6.51946e+12 -7.70929e+12 -8.07533e+12 -6.25653e+12 -3.65539e+12 -5.64113e+12 -8.11074e+12 -7.8962e+12 -5.92521e+12 -7.59223e+12 -6.14796e+12 -8.82734e+12 -4.67472e+12 -3.35541e+12 -8.74561e+12 -6.20586e+12 -6.87091e+12 -8.59075e+12 -5.66378e+12 -8.36654e+12 -3.49054e+12 -8.42144e+12 -12549700000.0 -6.36796e+12 -4.88262e+12 -1.0397e+13 -8.25773e+12 -8.35607e+12 -6.31202e+12 -7.85089e+12 -1.06345e+13 -8.43455e+12 -7.99427e+12 -9.28195e+12 -8.14504e+12 -8.68558e+12 -5.06202e+12 -6.41734e+12 -6.53446e+12 -8.22785e+12 -6.34868e+12 -6.80259e+12 -5.88902e+12 -6.0456e+12 -7.40195e+12 -5.56781e+12 -9.32202e+12 -5.89503e+12 -6.70749e+12 -8.62539e+12 -1.12291e+13 -5.98091e+12 -3.13079e+12 -8.28913e+12 -4.74534e+12 -6.46494e+12 -4.37302e+12 -5.66958e+12 -5.83312e+12 -7.12411e+12 -6.85041e+12 -5.97757e+12 -5.92175e+12 -5.66326e+12 -7.00286e+12 -5.90507e+12 -3.67314e+12 -4.33589e+12 -12549700000.0 -3.43038e+12 -5.56758e+12 -7.28624e+12 -8.34474e+12 -8.50326e+12 -1.01286e+13 -7.69086e+12 -8.05445e+12 -4.81039e+12 -8.40229e+12 -9.38336e+12 -5.34642e+12 -6.13555e+12 -6.19173e+12 -6.56921e+12 -3.42089e+12 -3.37159e+12 -6.94799e+12 -6.63752e+12 -7.4834e+12 -1.18679e+13 -8.18794e+12 -8.12398e+12 -8.65113e+12 -8.57147e+12 -7.522e+12 -9.54344e+12 -4.91216e+12 -6.11172e+12 -9.977e+12 -9.19874e+12 -9.81988e+12 -9.55854e+12 -7.72943e+12 -1.16614e+13 -1.04297e+13 -8.62834e+12 -8.60848e+12 -9.7334e+12 -9.79242e+12 -6.02024e+12 -5.69624e+12 -3.74009e+12 -6.89927e+12 -12549700000.0 -3.36101e+12 -8.27301e+12 -7.63925e+12 -8.3096e+12 -5.37349e+12 -9.63357e+12 -7.34517e+12 -7.88595e+12 -4.13833e+12 -3.62388e+12 -7.55039e+12 -5.80646e+12 -7.98927e+12 -7.04231e+12 -8.1487e+12 -5.69284e+12 -7.55309e+12 -7.47557e+12 -9.39564e+12 -1.16771e+13 -5.81702e+12 -1.74963e+13 -9.92496e+12 -6.22824e+12 -1.02785e+13 -1.01397e+13 -5.13461e+12 -8.83895e+12 -5.96538e+12 -7.90096e+12 -6.33856e+12 -9.8176e+12 -7.74811e+12 -6.2856e+12 -7.18596e+12 -5.41272e+12 -5.98775e+12 -6.1669e+12 -4.96886e+12 -2.74667e+12 -9.40883e+12 -9.83555e+12 -4.49407e+12 -3.81593e+12 -3.84193e+12 -1.83815e+12 -7.09047e+12 -4.49002e+12 -1.0119e+13 -5.31481e+12 -8.43244e+12 -6.20408e+12 -7.42399e+12 -7.31473e+12 -5.87083e+12 -4.90396e+12 -1.01903e+13 -6.68701e+12 -9.14138e+12 -5.90098e+12 -8.01182e+12 -1.19711e+13 -1.15565e+13 -7.54679e+12 -6.91685e+12 -7.24284e+12 -8.31292e+12 -5.83845e+12 -8.5919e+12 -6.45815e+12 -5.26594e+12 -1.07548e+13 -5.69894e+12 -9.52594e+12 -1.00081e+13 -6.69077e+12 -7.91844e+12 -2.93699e+12 -8.99339e+12 -8.00357e+12 -7.33721e+12 -7.59326e+12 -9.3932e+12 -7.42955e+12 -5.83353e+12 -4.63902e+12 -6.09469e+12 -5.47832e+12 -6.78265e+12 -7.27838e+12 -8.77754e+12 -4.20605e+12 -7.37895e+12 -4.08322e+12 -4.24276e+12 -5.17726e+12 -3.65071e+12 -5.92278e+12 -1.01096e+13 -1.29806e+13 -4.97336e+12 -8.55877e+12 -6.01222e+12 -7.90383e+12 -7.14592e+12 -4.95656e+12 -4.96998e+12 -6.83265e+12 -4.91103e+12 -7.82631e+12 -4.38013e+12 -1.11955e+13 -7.97754e+12 -9.37588e+12 -3.3049e+12 -4.97382e+12 -4.41638e+12 -5.48725e+12 -5.50746e+12 -4.20898e+12 -1.14981e+13 -7.06763e+12 -8.03926e+12 -5.11716e+12 -9.9561e+12 -4.75417e+12 -5.65511e+12 -6.08549e+12 -8.25e+12 -8.31411e+12 -1.33563e+13 -6.09295e+12 -8.60213e+12 -1.10421e+13 -5.98745e+12 -8.33734e+12 -6.72509e+12 -1.10876e+13 -1.10643e+13 -7.61372e+12 -8.05609e+12 -6.91788e+12 -1.03794e+13 -7.01159e+12 -7.44404e+12 -6.80494e+12 -4.56264e+12 -7.4946e+12 -4.77656e+12 -7.40904e+12 -5.11819e+12 -9.41667e+12 -1.31388e+13 -1.57768e+13 -8.7861e+12 -6.95416e+12 -1.11474e+13 -1.21387e+13 -9.1627e+12 -9.54913e+12 -5.52809e+12 -8.02615e+12 -5.58157e+12 -5.73035e+12 -5.19762e+12 -7.28986e+12 -8.23577e+12 -6.77329e+12 -3.72525e+12 -4.72717e+12 -7.59615e+12 -6.65655e+12 -9.19649e+12 -7.49865e+12 -9.4919e+12 -4.83073e+12 -3.74226e+12 -5.59889e+12 -1.27963e+13 -5.49593e+12 -8.21559e+12 -9.82734e+12 -7.1948e+12 -1.03565e+13 -5.67044e+12 -8.56816e+12 -8.26346e+12 -3.57774e+12 -6.64842e+12 -5.98299e+12 -5.55464e+12 -5.82519e+12 -1.31817e+13 -4.52811e+12 -1.06036e+13 -7.49796e+12 -5.60091e+12 -9.95162e+12 -7.78388e+12 -8.36771e+12 -8.85621e+12 -7.53494e+12 -9.29105e+12 -3.9904e+12 -6.83592e+12 -6.44306e+12 -8.28081e+12 -6.54001e+12 -7.76724e+12 -1.3627e+13 -7.23931e+12 -1.13331e+13 -1.10128e+13 -7.71917e+12 -7.70261e+12 -7.29061e+12 -1.06633e+13 -7.83746e+12 -8.90685e+12 -4.02286e+12 -8.46914e+12 -8.78205e+12 -1.08867e+13 -7.2301e+12 -1.23125e+13 -6.52724e+12 -5.72221e+12 -1.31387e+13 -8.09061e+12 -5.83259e+12 -1.24607e+13 -7.51402e+12 -6.98614e+12 -1.10085e+13 -1.17225e+13 -7.9398e+12 -6.80111e+12 -8.55958e+12 -7.67781e+12 -1.00398e+13 -4.95483e+12 -8.39797e+12 -4.84231e+12 -7.97266e+12 -7.49539e+12 -3.77032e+12 -5.4323e+12 -1.08584e+13 -1.1372e+13 -5.56896e+12 -9.57386e+12 -8.82341e+12 -1.11513e+13 -8.84787e+12 -9.79882e+12 -9.72019e+12 -1.40399e+13 -9.88489e+12 -1.88793e+13 -8.98507e+12 -8.6218e+12 -7.205e+12 -1.21019e+13 -3.73261e+12 -4.903e+12 -8.77033e+12 -7.73982e+12 -1.30942e+13 -4.52914e+12 -1.07624e+13 -1.28986e+13 -1.31851e+13 -9.69721e+12 -4.11024e+12 -7.14821e+12 -6.51395e+12 -6.04213e+12 -5.27485e+12 -1.02383e+13 -1.15066e+13 -8.15412e+12 -6.42181e+12 -1.06021e+13 -6.69967e+12 -1.10759e+13 -6.24764e+12 -7.62099e+12 -6.76848e+12 -7.8913e+12 -6.09189e+12 -5.33952e+12 -4.57764e+12 -9.51108e+12 -1.06544e+13 -8.60381e+12 -1.00174e+13 -5.68829e+12 -7.04285e+12 -8.46531e+12 -4.30262e+12 -8.04743e+12 -1.05865e+13 -1.2516e+13 -7.12263e+12 -6.44666e+12 -1.24876e+13 -1.00745e+13 -3.94526e+12 -2.96011e+12 -6.74478e+12 -6.68626e+12 -7.28952e+12 -8.33918e+12 -1.14191e+13 -1.21648e+13 -8.43226e+12 -6.32634e+12 -5.44459e+12 -8.2614e+12 -8.95747e+12 -9.47948e+12 -6.3383e+12 -6.70105e+12 -6.72694e+12 -9.90069e+12 -1.11148e+13 -1.30176e+13 -1.04598e+13 -8.93808e+12 -8.08034e+12 -8.78051e+12 -1.08889e+13 -1.2893e+13 -9.49221e+12 -1.02249e+13 -1.16378e+13 -8.29736e+12 -8.18644e+12 -1.1644e+13 -6.91134e+12 -4.88033e+12 -7.14656e+12 -1.05495e+13 -1.11104e+13 -1.62474e+13 -1.32345e+13 -9.732e+12 -7.08565e+12 -1.27896e+13 -9.48156e+12 -1.50786e+13 -8.06107e+12 -6.30425e+12 -1.03351e+13 -8.6502e+12 -1.07289e+13 -9.87507e+12 -1.01549e+13 -5.41311e+12 -3.94755e+12 -8.51471e+12 -1.03037e+13 -7.63229e+12 -8.53593e+12 -9.60056e+12 -1.01772e+13 -9.13195e+12 -1.05952e+13 -1.19559e+13 -9.62984e+12 -9.87169e+12 -8.87287e+12 -9.28849e+12 -1.01873e+13 -6.5986e+12 -8.00668e+12 -7.10226e+12 -3.4291e+12 -1.01031e+13 -6.87193e+12 -5.6872e+12 -5.62271e+12 -1.00449e+13 -9.46523e+12 -1.02196e+13 -5.74152e+12 -7.21418e+12 -1.22418e+13 -1.51665e+13 -6.49863e+12 -6.65348e+12 -7.73634e+12 -4.2634e+12 -1.09821e+13 -4.88545e+12 -8.14575e+12 -9.33016e+12 -1.13251e+13 -9.37897e+12 -1.21653e+13 -9.65786e+12 -9.05103e+12 -1.22853e+13 -9.2521e+12 -1.0346e+13 -1.00132e+13 -9.88912e+12 -9.13344e+12 -1.57635e+13 -4.00396e+12 -1.1954e+13 -1.08853e+13 -9.52496e+12 -7.957e+12 -7.25417e+12 -3.60562e+12 -5.26239e+12 -3.19313e+12 -9.24253e+12 -8.81428e+12 -6.71523e+12 -1.0497e+13 -1.51495e+13 -1.19239e+13 -6.92271e+12 -7.57984e+12 -7.30754e+12 -1.28383e+13 -9.25074e+12 -8.13157e+12 -1.37805e+13 -6.90808e+12 -7.77149e+12 -1.05237e+13 -1.33615e+13 -9.79706e+12 -1.09103e+13 -8.83084e+12 -1.27181e+13 -9.37167e+12 -7.85053e+12 -3.18475e+12 -8.7757e+12 -6.1886e+12 -1.0278e+13 -7.74293e+12 -1.0062e+13 -4.56782e+12 -1.43776e+13 -7.78213e+12 -1.06922e+13 -5.37635e+12 -1.05394e+13 -1.00402e+13 -7.22971e+12 -7.22792e+12 -3.15564e+12 -6.4775e+12 -9.76383e+12 -6.31211e+12 -9.87661e+12 -1.19385e+13 -9.17873e+12 -4.84813e+12 -1.23446e+13 -4.876e+12 -4.44361e+12 -5.38375e+12 -6.57359e+12 -7.61765e+12 -3.41842e+12 -5.32272e+12 -5.6167e+12 -6.77141e+12 -1.07742e+13 -4.67673e+12 -9.31496e+12 -6.22449e+12 -6.5837e+12 -7.58351e+12 -9.9834e+12 -5.06671e+12 -2.82128e+12 -8.14578e+12 -8.98018e+12 -7.0327e+12 -8.66724e+12 -8.92534e+12 -8.41729e+12 -8.74748e+12 -1.11512e+13 -1.13985e+13 -9.42468e+12 -1.37824e+13 -1.70866e+13 -1.37888e+13 -9.82736e+12 -7.7553e+12 -5.68802e+12 -6.36746e+12 -1.28542e+13 -2.73286e+12 -4.41941e+12 -4.38137e+12 -6.99275e+12 -1.13524e+13 -4.20027e+12 -7.14092e+12 -7.38713e+12 -1.24504e+13 -7.15507e+12 -8.03941e+12 -8.50913e+12 -7.81615e+12 -9.77659e+12 -6.55969e+12 -8.38195e+12 -5.56651e+12 -8.22443e+12 -7.67408e+12 -1.10951e+13 -1.00428e+13 -7.01316e+12 -8.89679e+12 -1.14984e+13 -1.20936e+13 -3.89117e+12 -6.87093e+12 -1.27345e+13 -6.42377e+12 -6.10186e+12 -5.75775e+12 -7.40073e+12 -4.96416e+12 -7.23042e+12 -1.04282e+13 -6.86509e+12 -7.54841e+12 -6.92656e+12 -8.89614e+12 -1.51797e+13 -6.63986e+12 -1.03271e+13 -7.62743e+12 -7.68339e+12 -1.27816e+13 -7.39416e+12 -8.02313e+12 -1.1081e+13 -5.05476e+12 -4.91903e+12 -5.09412e+12 -8.37747e+12 -9.47437e+12 -1.04128e+13 -4.95071e+12 -8.35263e+12 -5.69267e+12 -8.18177e+12 -3.43339e+12 -8.02172e+12 -9.345e+12 -6.8187e+12 -6.53871e+12 -3.80291e+12 -3.06719e+12 -8.37034e+12 -8.56246e+12 -7.65145e+12 -4.41736e+12 -5.22099e+12 -7.02775e+12 -3.73768e+12 -4.59965e+12 -7.74049e+12 -7.01052e+12 -5.81309e+12 -5.6965e+12 -5.82036e+12 -8.52155e+12 -1.0407e+13 -7.89683e+12 -8.82479e+12 -6.30771e+12 -5.60364e+12 -5.69623e+12 -8.7004e+12 -6.36755e+12 -6.64967e+12 -5.83567e+12 -5.02224e+12 -9.97529e+12 -9.8067e+12 -1.10947e+13 -6.21138e+12 -8.07469e+12 -4.34488e+12 -8.0629e+12 -1.04359e+13 -8.8783e+12 -4.83415e+12 -1.11157e+13 -8.00425e+12 -5.74261e+12 -1.07954e+13 -1.12822e+13 -1.29101e+13 -6.15947e+12 -8.79173e+12 -5.37463e+12 -6.6719e+12 -5.37432e+12 -1.08024e+13 -6.2374e+12 -4.65404e+12 -5.02676e+12 -8.24721e+12 -8.77349e+12 -9.7949e+12 -1.12105e+13 -7.76848e+12 -1.0691e+13 -1.42705e+13 -7.20836e+12 -1.43099e+13 -1.13516e+13 -4.87449e+12 -6.0157e+12 -3.16864e+12 -5.25494e+12 -6.90967e+12 -4.11723e+12 -6.20296e+12 -5.86363e+12 -1.00858e+13 -7.95677e+12 -1.29834e+13 -8.67577e+12 -1.35591e+13 -1.35412e+13 -6.83975e+12 -4.28376e+12 -7.19274e+12 -5.7483e+12 -9.06161e+12 -1.35707e+13 -5.23517e+12 -7.30944e+12 -8.31825e+12 -1.0504e+13 -8.24139e+12 -4.62408e+12 -7.48121e+12 -7.57943e+12 -8.60168e+12 -1.13438e+13 -6.91241e+12 -1.00872e+13 -7.39662e+12 -7.69551e+12 -6.99214e+12 -4.90698e+12 -9.26923e+12 -4.95995e+12 -4.71719e+12 -9.07382e+12 -1.21304e+13 -6.22144e+12 -7.38828e+12 -6.36225e+12 -9.3498e+12 -6.45163e+12 -6.26899e+12 -1.10904e+13 -1.00164e+13 -4.21028e+12 -1.07905e+13 -5.91527e+12 -9.97292e+12 -6.58529e+12 -9.75016e+12 -6.24257e+12 -7.98382e+12 -1.00041e+13 -6.26074e+12 -8.27108e+12 -9.55684e+12 -8.79505e+12 -1.0545e+13 -4.21674e+12 -7.74152e+12 -1.27926e+13 -9.33781e+12 -6.8819e+12 -2.20201e+12 -3.2891e+12 -3.19241e+12 -5.55457e+12 -6.44018e+12 -7.6174e+12 -9.92334e+12 -7.87057e+12 -9.29873e+12 -1.17921e+13 -5.08289e+12 -9.29766e+12 -7.94781e+12 -9.95958e+12 -8.8918e+12 -8.63764e+12 -9.30256e+12 -8.49892e+12 -4.49873e+12 -1.27295e+13 -6.6583e+12 -8.89575e+12 -1.02705e+13 -8.02171e+12 -7.12732e+12 -1.31773e+13 -9.20569e+12 -6.3354e+12 -6.33084e+12 -3.93039e+12 -9.13786e+12 -5.17323e+12 -1.10636e+13 -6.35428e+12 -8.48974e+12 -7.30023e+12 -1.24893e+13 -7.80807e+12 -9.42538e+12 -9.78861e+12 -1.05635e+13 -5.4418e+12 -8.33256e+12 -6.28768e+12 -8.5598e+12 -6.44027e+12 -6.5021e+12 -7.81301e+12 -1.30358e+13 -4.89999e+12 -6.7644e+12 -7.63679e+12 -1.05989e+13 -9.87643e+12 -6.63115e+12 -1.02713e+13 -7.91753e+12 -5.30458e+12 -6.24454e+12 -7.62537e+12 -5.10409e+12 -6.10457e+12 -6.91212e+12 -4.80473e+12 -8.15127e+12 -8.37883e+12 -6.53937e+12 -5.6329e+12 -1.35713e+13 -9.61928e+12 -6.16594e+12 -6.56616e+12 -6.24365e+12 -7.35444e+12 -6.3224e+12 -5.69748e+12 -7.89112e+12 -1.08923e+13 -5.20393e+12 -5.43163e+12 -1.22229e+13 -8.19599e+12 -1.07533e+13 -8.35641e+12 -1.08386e+13 -6.37742e+12 -4.32786e+12 -6.68244e+12 -2.17763e+12 -9.22229e+12 -5.34422e+12 -1.05127e+13 -1.188e+13 -1.45002e+13 -4.17667e+12 -5.82538e+12 -6.74915e+12 -6.01983e+12 -5.63752e+12 -6.08101e+12 -4.92973e+12 -1.10678e+13 -1.29364e+13 -6.27093e+12 -4.80453e+12 -1.21252e+13 -6.40946e+12 -1.2317e+13 -8.29434e+12 -1.19941e+13 -6.93458e+12 -7.15251e+12 -7.25039e+12 -1.26929e+13 -3.26869e+12 -1.22279e+13 -9.83351e+12 -1.23254e+13 -5.52779e+12 -1.13627e+13 -6.47863e+12 -1.46734e+13 -9.23163e+12 -6.63829e+12 -1.28734e+13 -3.52717e+12 -7.55125e+12 -1.10728e+13 -1.08453e+13 -8.2229e+12 -4.35222e+12 -4.41453e+12 -1.11435e+13 -9.52656e+12 -8.47191e+12 -8.40098e+12 -1.03993e+13 -1.15861e+13 -1.15402e+13 -5.81832e+12 -5.14886e+12 -6.9342e+12 -7.2403e+12 -7.35003e+12 -1.24391e+13 -1.07843e+13 -1.13475e+13 -1.23871e+13 -1.26035e+13 -6.92871e+12 -9.6664e+12 -6.70528e+12 -4.59124e+12 -8.00901e+12 -9.20031e+12 -9.46545e+12 -8.05489e+12 -8.34745e+12 -7.19298e+12 -1.10766e+13 -6.39758e+12 -7.10895e+12 -7.81716e+12 -3.5924e+12 -8.33678e+12 -8.11176e+12 -5.84864e+12 -8.36608e+12 -5.14187e+12 -4.10153e+12 -8.14491e+12 -7.47771e+12 -8.31777e+12 -1.27689e+13 -8.65237e+12 -1.08396e+13 -1.27651e+13 -6.57837e+12 -5.61499e+12 -6.91778e+12 -1.2184e+13 -4.37607e+12 -4.65812e+12 -8.33373e+12 -8.17122e+12 -7.4642e+12 -8.49517e+12 -5.84752e+12 -8.67147e+12 -5.66656e+12 -1.14811e+13 -8.33529e+12 -1.05223e+13 -8.54975e+12 -8.59691e+12 -5.77599e+12 -4.7789e+12 -8.2005e+12 -9.3656e+12 -9.14599e+12 -4.90991e+12 -8.09187e+12 -6.81059e+12 -4.68151e+12 -7.21963e+12 -9.7079e+12 -7.84425e+12 -1.00219e+13 -7.92415e+12 -6.83386e+12 -1.3869e+13 -6.40622e+12 -6.96365e+12 -6.98375e+12 -7.12513e+12 -6.97235e+12 -7.45958e+12 -1.00948e+13 -7.4395e+12 -8.48721e+12 -9.55848e+12 -8.25264e+12 -8.96711e+12 -8.83999e+12 -1.56171e+13 -4.93707e+12 -1.17387e+13 -1.09376e+13 -8.88875e+12 -6.68211e+12 -9.24532e+12 -9.00031e+12 -5.68436e+12 -7.1827e+12 -1.25679e+13 -6.86579e+12 -4.74921e+12 -1.33028e+13 -1.02391e+13 -8.87714e+12 -8.47715e+12 -8.71744e+12 -9.7425e+12 -7.99482e+12 -7.99385e+12 -7.95436e+12 -9.72124e+12 -9.46044e+12 -5.25284e+12 -9.76845e+12 -5.798e+12 -8.20977e+12 -9.45693e+12 -1.02162e+13 -1.09094e+13 -5.86065e+12 -1.03491e+13 -6.98545e+12 -1.20684e+13 -9.27711e+12 -9.77722e+12 -7.67358e+12 -6.13272e+12 -7.31411e+12 -8.42195e+12 -9.63389e+12 -7.17427e+12 -6.25565e+12 -7.67789e+12 -9.8093e+12 -6.78335e+12 -7.40706e+12 -5.60586e+12 -6.46851e+12 -9.80999e+12 -1.31396e+13 -9.15105e+12 -8.70436e+12 -7.46846e+12 -6.80428e+12 -8.94132e+12 -5.62085e+12 -9.88271e+12 -1.12231e+13 -6.68282e+12 -4.96028e+12 -4.54586e+12 -1.38228e+13 -5.51949e+12 -6.82993e+12 -1.08045e+13 -1.11107e+13 -5.21793e+12 -8.27342e+12 -7.16323e+12 -5.12807e+12 -7.49117e+12 -6.65501e+12 -6.22562e+12 -1.11464e+13 -7.21144e+12 -5.16214e+12 -6.19248e+12 -1.05105e+13 -7.24835e+12 -4.46159e+12 -7.31754e+12 -6.92761e+12 -1.02987e+13 -4.04644e+12 -4.73277e+12 -8.77111e+12 -7.39184e+12 -8.34414e+12 -8.85913e+12 -7.42722e+12 -6.95885e+12 -7.71027e+12 -8.37139e+12 -6.90681e+12 -8.20599e+12 -6.43951e+12 -8.70469e+12 -9.36404e+12 -6.95336e+12 -4.84888e+12 -5.55381e+12 -3.87725e+12 -6.56706e+12 -1.05137e+13 -8.0264e+12 -4.63503e+12 -8.53933e+12 -6.17097e+12 -1.03341e+13 -5.77137e+12 -4.73428e+12 -8.55927e+12 -7.72841e+12 -9.03535e+12 -7.58598e+12 -5.18774e+12 -7.62821e+12 -8.95339e+12 -1.14921e+13 -1.27789e+13 -1.12919e+13 -4.74333e+12 -6.74855e+12 -6.88043e+12 -7.83317e+12 -1.45631e+13 -7.17471e+12 -8.91914e+12 -4.19164e+12 -1.15198e+13 -8.61042e+12 -1.00232e+13 -2.25252e+12 -1.04589e+13 -1.03888e+13 -1.05005e+13 -9.67463e+12 -8.81749e+12 -7.62258e+12 -7.85019e+12 -7.88532e+12 -5.71637e+12 -7.89146e+12 -6.30738e+12 -8.30028e+12 -5.04745e+12 -8.09098e+12 -6.97336e+12 -4.29156e+12 -2.82165e+12 -8.15988e+12 -8.6101e+12 -4.52311e+12 -9.40213e+12 -7.29435e+12 -1.20242e+13 -1.39937e+13 -2.77533e+12 -6.61053e+12 -8.40261e+12 -6.02417e+12 -4.90006e+12 -4.84937e+12 -8.0004e+12 -6.76682e+12 -5.33058e+12 -1.24733e+13 -5.16523e+12 -7.42892e+12 -6.66213e+12 -9.19842e+12 -1.14515e+13 -7.76294e+12 -1.02595e+13 -2.68166e+12 -1.13824e+13 -3.82403e+12 -8.13594e+12 -3.97495e+12 -8.4916e+12 -4.4131e+12 -1.12506e+13 -6.11441e+12 -1.03021e+13 -8.69503e+12 -6.98232e+12 -8.06526e+12 -8.29161e+12 -7.20015e+12 -1.07823e+13 -3.34517e+12 -8.75282e+12 -8.37875e+12 -5.38537e+12 -5.73082e+12 -5.91184e+12 -6.38954e+12 -4.42364e+12 -4.42193e+12 -5.43415e+12 -7.06136e+12 -6.07293e+12 -9.41203e+12 -7.10011e+12 -8.32087e+12 -7.96099e+12 -5.38504e+12 -5.86302e+12 -6.4552e+12 -7.46896e+12 -9.97862e+12 -8.90768e+12 -8.93429e+12 -7.38618e+12 -4.82487e+12 -8.01758e+12 -6.99748e+12 -6.44943e+12 -3.43009e+12 -4.29025e+12 -5.57251e+12 -8.3509e+12 -4.81258e+12 -1.10282e+13 -7.20497e+12 -9.17189e+12 -5.48131e+12 -6.07801e+12 -2.90788e+12 -6.97192e+12 -9.00241e+12 -4.28202e+12 -6.18606e+12 -4.68789e+12 -5.03979e+12 -4.75209e+12 -5.86797e+12 -2.79366e+12 -4.75626e+12 -6.36001e+12 -6.85315e+12 -1.17283e+13 -1.07904e+13 -1.02313e+13 -5.0613e+12 -8.49057e+12 -8.79812e+12 -8.77952e+12 -1.02464e+13 -6.71117e+12 -9.43541e+12 -6.00129e+12 -5.67587e+12 -6.80554e+12 -3.66541e+12 -6.98587e+12 -1.20126e+13 -1.44176e+13 -7.18532e+12 -1.13746e+13 -1.20352e+13 -7.76391e+12 -6.72652e+12 -7.43357e+12 -8.55598e+12 -5.27836e+12 -1.28083e+13 -1.07432e+13 -6.19159e+12 -8.68795e+12 -9.30134e+12 -9.84151e+12 -1.09079e+13 -6.46169e+12 -3.05943e+12 -4.72366e+12 -2.69012e+12 -5.7287e+12 -7.64045e+12 -6.55827e+12 -8.71979e+12 -6.76608e+12 -8.66314e+12 -5.09621e+12 -9.13525e+12 -6.92625e+12 -6.06427e+12 -8.63843e+12 -1.02494e+13 -4.97871e+12 -8.50832e+12 -1.40007e+13 -1.05389e+13 -1.04252e+13 -1.00638e+13 -1.05338e+13 -8.77412e+12 -8.02533e+12 -9.98134e+12 -7.53332e+12 -5.40866e+12 -6.07031e+12 -1.61034e+13 -5.72489e+12 -1.04071e+13 -7.6524e+12 -6.65825e+12 -6.80705e+12 -8.22933e+12 -1.08818e+13 -1.04668e+13 -5.80732e+12 -6.70941e+12 -9.65936e+12 -5.91538e+12 -7.55234e+12 -9.58381e+12 -9.31322e+12 -6.22737e+12 -6.70798e+12 -6.79523e+12 -4.57261e+12 -4.86528e+12 -1.22485e+13 -6.21166e+12 -5.27284e+12 -6.41754e+12 -5.92154e+12 -6.29392e+12 -1.21609e+13 -6.19416e+12 -5.67638e+12 -5.95917e+12 -5.08511e+12 -5.57611e+12 -7.12381e+12 -6.1265e+12 -7.12388e+12 -1.19661e+13 -7.30022e+12 -6.64862e+12 -4.1765e+12 -4.01283e+12 -5.97919e+12 -1.02141e+13 -4.95861e+12 -6.47291e+12 -7.11859e+12 -6.88944e+12 -3.14342e+12 -6.33831e+12 -9.31296e+12 -6.07416e+12 -7.68771e+12 -6.49616e+12 -5.80928e+12 -4.22447e+12 -8.56207e+12 -6.31996e+12 -9.67319e+12 -5.04569e+12 -1.23483e+13 -8.23075e+12 -6.16318e+12 -4.6166e+12 -5.54067e+12 -5.41982e+12 -1.48083e+13 -2.93e+12 -8.58014e+12 -6.24752e+12 -4.99139e+12 -5.23891e+12 -1.0264e+13 -7.10263e+12 -1.14746e+13 -8.07429e+12 -6.34213e+12 -5.67725e+12 -6.09867e+12 -7.38138e+12 -4.43377e+12 -6.31024e+12 -6.66528e+12 -8.44248e+12 -8.08374e+12 -6.94908e+12 -6.15754e+12 -1.06155e+13 -4.22892e+12 -7.38236e+12 -8.66774e+12 -5.34141e+12 -8.73717e+12 -6.59564e+12 -7.4802e+12 -5.08303e+12 -9.32606e+12 -7.50406e+12 -8.13473e+12 -1.05095e+13 -5.09828e+12 -7.65535e+12 -9.04323e+12 -1.08018e+13 -8.39475e+12 -5.13956e+12 -4.19362e+12 -5.49633e+12 -6.38461e+12 -5.33504e+12 -4.44478e+12 -4.78076e+12 -6.07066e+12 -1.09303e+13 -6.72716e+12 -7.57906e+12 -8.34789e+12 -1.29389e+13 -1.94898e+13 -4.77224e+12 -6.77771e+12 -1.58674e+13 -6.88023e+12 -5.61454e+12 -1.1366e+13 -9.11045e+12 -8.29799e+12 -5.89846e+12 -8.34027e+12 -5.57547e+12 -7.4646e+12 -9.18663e+12 -6.55984e+12 -1.12227e+13 -6.08196e+12 -7.07274e+12 -7.63133e+12 -9.84341e+12 -5.13315e+12 -8.5172e+12 -1.15683e+13 -7.40815e+12 -7.19592e+12 -1.02313e+13 -7.58203e+12 -1.13044e+13 -6.41357e+12 -5.74618e+12 -4.60697e+12 -3.51208e+12 -5.72456e+12 -6.2462e+12 -6.81028e+12 -5.97528e+12 -1.19472e+12 -6.51892e+12 -1.07443e+13 -4.00682e+12 -6.89293e+12 -2.31582e+12 -6.57038e+12 -6.94582e+12 -2.7124e+12 -7.43407e+12 -7.18953e+12 -4.33397e+12 -7.66235e+12 -7.04864e+12 -7.13492e+12 -4.72742e+12 -4.01794e+12 -6.3339e+12 -7.47206e+12 -9.55129e+12 -6.19521e+12 -5.95652e+12 -8.03876e+12 -7.26612e+12 -6.36518e+12 -3.18336e+12 -5.0176e+12 -4.80682e+12 -6.47967e+12 -7.15644e+12 -8.2182e+12 -6.43605e+12 -7.4332e+12 -6.5108e+12 -2.93435e+12 -7.14764e+12 -6.54633e+12 -7.34352e+12 -4.89837e+12 -5.08179e+12 -6.19178e+12 -6.60692e+12 -4.15852e+12 -2.96765e+12 -7.85548e+12 -8.26854e+12 -8.63575e+12 -8.78335e+12 -3.84804e+12 -8.10114e+12 -4.43023e+12 -4.69177e+12 -5.71486e+12 -9.07865e+12 -8.08844e+12 -7.79061e+12 -9.0592e+12 -7.34368e+12 -4.35079e+12 -7.13411e+12 -7.91602e+12 -8.15768e+12 -9.67048e+12 -7.64055e+12 -1.38399e+13 -3.28503e+12 -4.97015e+12 -4.39884e+12 -6.05624e+12 -4.21035e+12 -4.91327e+12 -8.84477e+12 -8.75017e+12 -5.01002e+12 -6.38256e+12 -9.09057e+12 -7.94869e+12 -1.31957e+13 -3.44683e+12 -5.16803e+12 -1.03116e+13 -8.3592e+12 -9.11734e+12 -9.46542e+12 -4.90498e+12 -7.82174e+12 -1.34839e+13 -7.93582e+12 -5.95702e+12 -6.42357e+12 -5.89054e+12 -8.71045e+12 -8.50327e+12 -6.05601e+12 -6.59437e+12 -5.79621e+12 -5.54731e+12 -5.61684e+12 -4.28763e+12 -5.96966e+12 -7.56304e+12 -4.77663e+12 -6.33968e+12 -3.2491e+12 -9.37487e+12 -4.69644e+12 -5.33989e+12 -7.73198e+12 -8.74684e+12 -1.45752e+13 -1.24566e+13 -7.32637e+12 -1.09423e+13 -9.1382e+12 -6.49226e+12 -7.7457e+12 -5.90767e+12 -7.45716e+12 -4.8029e+12 -5.77726e+12 -7.73347e+12 -4.8774e+12 -6.26776e+12 -2.56029e+12 -5.43226e+12 -4.45972e+12 -8.03721e+12 -1.09764e+13 -4.20526e+12 -6.78279e+12 -9.25049e+12 -6.87799e+12 -7.31533e+12 -8.58289e+12 -5.35037e+12 -4.18497e+12 -5.35606e+12 -9.46515e+12 -8.36241e+12 -6.94799e+12 -1.00711e+13 -4.86051e+12 -5.82181e+12 -4.94464e+12 -5.67345e+12 -6.37515e+12 -6.66285e+12 -8.25731e+12 -7.09505e+12 -6.21442e+12 -3.85372e+12 -4.0239e+12 -6.97951e+12 -3.45432e+12 -6.18221e+12 -7.02627e+12 -5.21646e+12 -6.31305e+12 -3.07823e+12 -6.90715e+12 -6.6438e+12 -6.78401e+12 -6.69124e+12 -5.05792e+12 -3.86794e+12 -7.84759e+12 -9.2492e+12 -5.20793e+12 -6.62591e+12 -8.66798e+12 -1.02924e+13 -5.62266e+12 -7.64858e+12 -7.757e+12 -5.10724e+12 -7.03011e+12 -5.40289e+12 -4.75359e+12 -1.15471e+13 -7.19416e+12 -7.16032e+12 -9.2347e+12 -1.37557e+13 -9.39781e+12 -6.6819e+12 -6.35368e+12 -1.02422e+13 -1.22892e+13 -4.80614e+12 -6.50619e+12 -3.6577e+12 -6.38042e+12 -4.92089e+12 -1.07109e+13 -6.03649e+12 -6.81347e+12 -1.05958e+13 -8.28883e+12 -1.2808e+13 -8.67652e+12 -5.20192e+12 -6.80096e+12 -8.383e+12 -1.46597e+13 -6.26364e+12 -7.03621e+12 -4.08295e+12 -1.07028e+13 -7.84984e+12 -6.82169e+12 -4.95034e+12 -6.9431e+12 -9.68796e+12 -6.02365e+12 -7.28765e+12 -7.84133e+12 -6.21327e+12 -1.09217e+13 -9.89295e+12 -5.1447e+12 -3.69355e+12 -5.29373e+12 -1.13082e+13 -8.70089e+12 -4.48983e+12 -6.85579e+12 -5.56291e+12 -6.11594e+12 -6.75438e+12 -4.56884e+12 -7.71653e+12 -8.57856e+12 -1.00989e+13 -8.61756e+12 -6.93349e+12 -7.2245e+12 -3.78551e+12 -4.29423e+12 -4.15063e+12 -7.99139e+12 -7.00737e+12 -5.95616e+12 -7.67915e+12 -6.70694e+12 -5.84934e+12 -4.00485e+12 -8.25208e+12 -6.21597e+12 -7.79964e+12 -6.14414e+12 -5.10557e+12 -7.69149e+12 -3.64862e+12 -6.89559e+12 -7.58285e+12 -7.88829e+12 -7.28974e+12 -4.78154e+12 -9.65054e+12 -2.47308e+12 -2.93303e+12 -7.55904e+12 -4.68717e+12 -1.02147e+13 -5.3731e+12 -5.35364e+12 -7.08738e+12 -4.14299e+12 -3.56065e+12 -4.3499e+12 -5.52342e+12 -6.28116e+12 -5.00839e+12 -5.66536e+12 -1.78824e+12 -4.49755e+12 -6.0035e+12 -7.90675e+12 -8.32357e+12 -5.42164e+12 -6.17977e+12 -6.73374e+12 -8.64596e+12 -6.81861e+12 -9.4623e+12 -6.17557e+12 -5.59324e+12 -9.33418e+12 -4.56354e+12 -7.1346e+12 -6.0009e+12 -7.33988e+12 -4.96152e+12 -3.85426e+12 -3.41146e+12 -5.89e+12 -7.03632e+12 -5.25154e+12 -7.25667e+12 -5.77032e+12 -5.12691e+12 -6.51982e+12 -9.37014e+12 -6.19573e+12 -3.3395e+12 -4.67444e+12 -8.23394e+12 -4.76943e+12 -4.86006e+12 -8.97504e+12 -4.06871e+12 -4.36599e+12 -6.94055e+12 -1.10122e+13 -4.87849e+12 -7.53873e+12 -6.9686e+12 -8.07255e+12 -6.09597e+12 -6.50484e+12 -5.66465e+12 -3.65768e+12 -6.30247e+12 -4.54978e+12 -4.07976e+12 -4.48456e+12 -5.60792e+12 -7.01858e+12 -6.91486e+12 -9.27028e+12 -6.45918e+12 -7.67995e+12 -6.02595e+12 -3.65752e+12 -8.26965e+12 -8.72744e+12 -4.6824e+12 -3.65595e+12 -4.56875e+12 -1.0451e+13 -5.12156e+12 -5.38874e+12 -8.69327e+12 -7.45642e+12 -5.51638e+12 -8.44363e+12 -9.00114e+12 -4.59752e+12 -4.26018e+12 -9.16132e+12 -6.75391e+12 -4.74925e+12 -1.00064e+13 -7.23489e+12 -3.93818e+12 -5.60407e+12 -9.11958e+12 -5.93676e+12 -7.89187e+12 -8.66256e+12 -6.10669e+12 -1.00036e+13 -4.97637e+12 -5.14619e+12 -4.78818e+12 -5.44046e+12 -6.17715e+12 -5.98302e+12 -8.76752e+12 -8.96587e+12 -1.21908e+13 -1.00198e+13 -7.15287e+12 -8.48189e+12 -4.55603e+12 -4.97782e+12 -7.52566e+12 -3.9821e+12 -5.89394e+12 -4.80527e+12 -4.98656e+12 -7.50151e+12 -6.17645e+12 -9.89708e+12 -5.46828e+12 -8.45216e+12 -4.58324e+12 -8.57244e+12 -6.91761e+12 -7.00613e+12 -5.56614e+12 -8.15421e+12 -6.16013e+12 -4.6505e+12 -4.94493e+12 -3.11483e+12 -7.04891e+12 -4.69193e+12 -7.04386e+12 -7.12372e+12 -3.8899e+12 -6.19473e+12 -3.96841e+12 -3.4968e+12 -5.18613e+12 -7.7733e+12 -9.92599e+12 -8.74368e+12 -5.56129e+12 -8.62901e+12 -6.81727e+12 -8.77496e+12 -1.06539e+13 -3.09515e+12 -6.56792e+12 -3.50655e+12 -6.08309e+12 -4.64056e+12 -5.65475e+12 -6.70809e+12 -9.20761e+12 -6.11553e+12 -8.49114e+12 -7.10145e+12 -8.32486e+12 -5.13528e+12 -5.18414e+12 -6.47706e+12 -4.28858e+12 -7.08544e+12 -5.89316e+12 -6.07766e+12 -6.33776e+12 -3.86614e+12 -1.08699e+13 -4.82906e+12 -7.45887e+12 -3.98076e+12 -4.8176e+12 -6.84202e+12 -7.47828e+12 -4.47674e+12 -5.33232e+12 -6.42805e+12 -5.58044e+12 -6.38276e+12 -6.73491e+12 -3.70879e+12 -6.68745e+12 -5.01863e+12 -5.79004e+12 -7.74497e+12 -5.26437e+12 -6.66646e+12 -2.85e+12 -5.66352e+12 -4.43621e+12 -4.368e+12 -4.72227e+12 -5.80241e+12 -7.29825e+12 -7.52943e+12 -5.66946e+12 -6.71899e+12 -5.63402e+12 -4.66861e+12 -6.89599e+12 -6.70567e+12 -7.52434e+12 -7.26453e+12 -9.35438e+12 -7.14829e+12 -5.58805e+12 -6.81222e+12 -9.89262e+12 -1.15967e+13 -7.66027e+12 -5.1944e+12 -6.56432e+12 -4.29381e+12 -4.04565e+12 -1.00075e+13 -6.97976e+12 -5.52105e+12 -7.36067e+12 -6.88645e+12 -5.69934e+12 -6.6901e+12 -5.423e+12 -4.10433e+12 -6.09783e+12 -4.95023e+12 -7.35671e+12 -6.28399e+12 -6.46445e+12 -7.56565e+12 -6.47466e+12 -6.16588e+12 -9.14401e+12 -6.19325e+12 -8.1381e+12 -9.92512e+12 -1.24238e+13 -7.91113e+12 -6.88759e+12 -6.00076e+12 -6.21175e+12 -6.68828e+12 -5.82684e+12 -5.1691e+12 -4.83975e+12 -4.83791e+12 -9.76101e+12 -5.46037e+12 -8.22265e+12 -1.19237e+13 -1.1133e+13 -1.32346e+13 -6.4142e+12 -7.36032e+12 -4.99164e+12 -5.92473e+12 -7.19992e+12 -4.632e+12 -5.48593e+12 -3.5172e+12 -5.61148e+12 -5.93871e+12 -5.97459e+12 -3.58197e+12 -7.15273e+12 -4.52659e+12 -4.62248e+12 -4.08996e+12 -3.97293e+12 -7.76548e+12 -7.29983e+12 -7.80703e+12 -7.14104e+12 -8.91777e+12 -7.15621e+12 -8.07978e+12 -5.41188e+12 -5.8887e+12 -6.64283e+12 -5.74573e+12 -4.2266e+12 -6.32346e+12 -1.00473e+13 -8.12585e+12 -7.02929e+12 -5.34169e+12 -1.13745e+13 -4.7888e+12 -9.52651e+12 -5.72288e+12 -6.33336e+12 -8.66149e+12 -8.6162e+12 -5.85112e+12 -9.4738e+12 -7.80737e+12 -6.1349e+12 -3.77283e+12 -3.39914e+12 -6.2211e+12 -3.81643e+12 -5.601e+12 -3.48115e+12 -3.35357e+12 -6.67835e+12 -6.4207e+12 -5.06434e+12 -3.02648e+12 -8.64244e+12 -4.94389e+12 -5.82698e+12 -4.3422e+12 -6.89919e+12 -3.8257e+12 -6.8586e+12 -5.55246e+12 -8.2307e+12 -6.35891e+12 -3.61274e+12 -4.88316e+12 -7.12994e+12 -8.0586e+12 -7.10941e+12 -3.41925e+12 -5.89316e+12 -7.72436e+12 -2.49817e+12 -4.31943e+12 -2.93244e+12 -5.95656e+12 -4.0804e+12 -4.39975e+12 -4.13993e+12 -7.22428e+12 -5.86482e+12 -3.4472e+12 -5.74633e+12 -5.30578e+12 -5.79672e+12 -6.58839e+12 -6.7897e+12 -5.85093e+12 -4.29219e+12 -7.60323e+12 -4.94348e+12 -3.768e+12 -3.44399e+12 -4.27293e+12 -5.77277e+12 -4.16328e+12 -8.76989e+12 -2.36244e+12 -9.5294e+12 -3.25854e+12 -5.05626e+12 -2.10146e+12 -4.91496e+12 -6.42302e+12 -8.75756e+12 -5.47836e+12 -6.26759e+12 -6.54017e+12 -5.88714e+12 -8.99375e+12 -4.83083e+12 -3.77457e+12 -6.24488e+12 -1.03492e+13 -4.33586e+12 -6.55446e+12 -8.22998e+12 -8.95842e+12 -4.78239e+12 -6.56526e+12 -6.86766e+12 -6.23912e+12 -6.75716e+12 -5.22304e+12 -8.12239e+12 -7.91465e+12 -2.41389e+12 -6.80716e+12 -8.0157e+12 -5.99164e+12 -1.06211e+13 -4.39963e+12 -5.2871e+12 -6.7413e+12 -1.11196e+13 -6.27896e+12 -4.85211e+12 -6.20183e+12 -9.29435e+12 -1.58167e+13 -8.44794e+12 -5.15367e+12 -1.07818e+13 -8.83092e+12 -9.39809e+12 -4.62079e+12 -5.97963e+12 -7.15633e+12 -5.69015e+12 -5.58368e+12 -5.12655e+12 -2.29068e+12 -4.95389e+12 -4.86066e+12 -5.95179e+12 -7.18038e+12 -6.7676e+12 -5.23796e+12 -4.1331e+12 -1.03957e+13 -8.41159e+12 -7.05816e+12 -5.96881e+12 -6.66987e+12 -5.60352e+12 -7.94777e+12 -4.70702e+12 -4.78396e+12 -5.83684e+12 -5.3591e+12 -5.20669e+12 -5.84639e+12 -4.44106e+12 -5.56962e+12 -6.86675e+12 -5.83843e+12 -7.76954e+12 -8.03285e+12 -3.3328e+12 -9.90068e+12 -4.74483e+12 -6.28632e+12 -3.8747e+12 -7.433e+12 -1.1832e+13 -1.18309e+13 -6.94099e+12 -8.44973e+12 -6.96622e+12 -7.85853e+12 -9.06005e+12 -6.50929e+12 -1.05663e+13 -5.11282e+12 -3.76995e+12 -3.38645e+12 -5.10839e+12 -5.70179e+12 -6.70514e+12 -5.22924e+12 -4.60613e+12 -6.29771e+12 -8.11043e+12 -7.62525e+12 -6.59776e+12 -6.86164e+12 -6.27935e+12 -3.37496e+12 -5.47648e+12 -5.15155e+12 -4.71488e+12 -6.02001e+12 -5.4819e+12 -5.64189e+12 -3.71953e+12 -5.18279e+12 -6.15092e+12 -4.29602e+12 -6.7139e+12 -5.74476e+12 -3.59164e+12 -5.42376e+12 -5.74141e+12 -3.65563e+12 -8.33432e+12 -4.9034e+12 -6.89074e+12 -5.95301e+12 -5.17729e+12 -5.39789e+12 -4.33469e+12 -2.80467e+12 -4.29809e+12 -5.7419e+12 -3.62428e+12 -6.31446e+12 -1.0253e+13 -6.45027e+12 -9.55957e+12 -8.81719e+12 -9.18837e+12 -7.72913e+12 -6.71036e+12 -9.25787e+12 -5.1557e+12 -6.21836e+12 -3.67003e+12 -6.15021e+12 -7.57772e+12 -6.55302e+12 -6.19626e+12 -6.90586e+12 -7.78675e+12 -6.50735e+12 -8.18975e+12 -3.08595e+12 -6.41185e+12 -3.81355e+12 -7.40678e+12 -4.19024e+12 -8.05664e+12 -6.49372e+12 -4.70953e+12 -7.93257e+12 -4.37541e+12 -4.84944e+12 -5.81571e+12 -9.02409e+12 -6.81945e+12 -8.11742e+12 -5.78906e+12 -6.37155e+12 -9.59078e+12 -8.0888e+12 -8.58371e+12 -6.07328e+12 -7.0363e+12 -9.88981e+12 -7.51628e+12 -9.19526e+12 -5.33878e+12 -7.35679e+12 -3.17805e+12 -6.33982e+12 -5.93037e+12 -8.26535e+12 -3.26275e+12 -4.8773e+12 -7.28365e+12 -4.59127e+12 -5.43696e+12 -5.69487e+12 -9.68363e+12 -4.94001e+12 -8.6549e+12 -8.4905e+12 -7.43509e+12 -6.27419e+12 -7.25705e+12 -5.65207e+12 -5.41773e+12 -5.12003e+12 -6.37378e+12 -7.79611e+12 -8.46957e+12 -2.96809e+12 -4.75435e+12 -5.10099e+12 -8.75812e+12 -3.91908e+12 -2.44982e+12 -2.95448e+12 -4.17132e+12 -7.06323e+12 -5.26387e+12 -7.39339e+12 -8.54494e+12 -4.86529e+12 -7.25661e+12 -7.45971e+12 -5.13107e+12 -7.43713e+12 -5.61084e+12 -5.42738e+12 -6.26109e+12 -6.15947e+12 -5.29095e+12 -6.32595e+12 -6.74773e+12 -8.16519e+12 -2.35863e+12 -7.25492e+12 -7.36876e+12 -8.95272e+12 -7.11911e+12 -4.43089e+12 -4.87917e+12 -8.85112e+12 -4.33946e+12 -4.79087e+12 -6.35108e+12 -3.33542e+12 -6.31308e+12 -4.60919e+12 -3.30297e+12 -6.49534e+12 -4.90057e+12 -3.20066e+12 -2.4172e+12 -4.45068e+12 -5.82773e+12 -5.5611e+12 -6.92903e+12 -3.99127e+12 -4.83205e+12 -6.3042e+12 -4.53548e+12 -4.38893e+12 -4.40003e+12 -3.84425e+12 -4.05165e+12 -6.43593e+12 -9.21437e+12 -7.07182e+12 -5.18061e+12 -6.32949e+12 -2.81217e+12 -3.41663e+12 -5.83134e+12 -5.16229e+12 -7.17933e+12 -4.70696e+12 -3.288e+12 -5.4016e+12 -4.49553e+12 -5.02593e+12 -7.33623e+12 -6.81019e+12 -4.86329e+12 -2.2298e+12 -4.96636e+12 -4.26096e+12 -4.15021e+12 -7.46056e+12 -4.83978e+12 -5.14975e+12 -7.38945e+12 -7.29259e+12 -6.81278e+12 -4.1477e+12 -8.4511e+12 -5.51509e+12 -8.98974e+12 -4.69099e+12 -5.63684e+12 -9.00075e+12 -5.622e+12 -4.60275e+12 -6.45404e+12 -4.74338e+12 -6.44734e+12 -8.23254e+12 -6.40682e+12 -7.917e+12 -6.62567e+12 -6.84852e+12 -6.42243e+12 -6.37001e+12 -7.22949e+12 -6.05685e+12 -6.26124e+12 -8.17623e+12 -6.25702e+12 -5.80184e+12 -4.36294e+12 -7.50221e+12 -4.09705e+12 -1.16985e+13 -5.92766e+12 -7.86512e+12 -5.55514e+12 -8.18784e+12 -6.41179e+12 -7.24965e+12 -1.23502e+13 -8.69055e+12 -5.89278e+12 -5.00018e+12 -6.51292e+12 -4.05385e+12 -4.32598e+12 -3.27188e+12 -6.81932e+12 -4.56415e+12 -9.96747e+12 -5.6171e+12 -5.61406e+12 -7.03167e+12 -6.46289e+12 -8.89483e+12 -5.81169e+12 -7.02286e+12 -9.23482e+12 -9.84583e+12 -4.57045e+12 -3.05117e+12 -7.59954e+12 -4.76211e+12 -5.13968e+12 -5.31958e+12 -5.51091e+12 -5.44604e+12 -4.29529e+12 -6.96666e+12 -5.29157e+12 -6.32295e+12 -4.08242e+12 -7.76209e+12 -6.93897e+12 -3.85276e+12 -1.01996e+13 -5.47113e+12 -5.9918e+12 -4.83863e+12 -6.13e+12 -7.93795e+12 -4.5173e+12 -6.83944e+12 -5.87526e+12 -5.88071e+12 -7.34522e+12 -6.36421e+12 -5.44408e+12 -2.43532e+12 -7.66042e+12 -5.52048e+12 -3.85213e+12 -6.10907e+12 -7.975e+12 -4.76205e+12 -5.12153e+12 -3.08589e+12 -6.07838e+12 -3.52366e+12 -5.93801e+12 -8.75807e+12 -5.19313e+12 -3.79909e+12 -3.48916e+12 -5.82394e+12 -3.26825e+12 -2.99235e+12 -3.63068e+12 -3.06619e+12 -3.95298e+12 -2.80063e+12 -4.46819e+12 -4.27848e+12 -3.63267e+12 -3.21004e+12 -4.93487e+12 -4.42717e+12 -4.05436e+12 -4.08624e+12 -5.7398e+12 -3.77533e+12 -3.73563e+12 -7.21337e+12 -7.89558e+12 -3.64393e+12 -5.12934e+12 -3.89302e+12 -3.67366e+12 -4.4679e+12 -1.2188e+12 -4.50472e+12 -7.006e+12 -4.08721e+12 -4.08854e+12 -3.22694e+12 -2.5483e+12 -4.04907e+12 -7.41231e+12 -5.71644e+12 -2.31603e+12 -4.83467e+12 -3.1453e+12 -4.23791e+12 -3.70717e+12 -6.36488e+12 -5.14622e+12 -5.42422e+12 -4.04386e+12 -9.27543e+12 -6.03231e+12 -5.02604e+12 -6.24574e+12 -8.30596e+12 -3.27927e+12 -9.42251e+12 -7.26862e+12 -4.31132e+12 -5.67083e+12 -6.39542e+12 -5.73176e+12 -7.26687e+12 -7.80918e+12 -7.62116e+12 -1.0463e+12 -5.79603e+12 -9.61148e+12 -4.10401e+12 -7.76987e+12 -6.03521e+12 -3.33207e+12 -4.94044e+12 -7.93709e+12 -4.97576e+12 -6.02629e+12 -7.31502e+12 -5.37235e+12 -7.43347e+12 -6.60062e+12 -8.22162e+12 -1.14317e+13 -2.81335e+12 -2.57884e+12 -6.32171e+12 -4.22874e+12 -6.76833e+12 -5.85904e+12 -2.20834e+12 -3.82141e+12 -2.94667e+12 -3.42198e+12 -1.03631e+13 -3.62101e+12 -4.38107e+12 -3.86792e+12 -5.53657e+12 -5.0368e+12 -8.39095e+12 -7.41254e+12 -4.49005e+12 -6.93756e+12 -4.78329e+12 -7.91157e+12 -5.74254e+12 -3.99547e+12 -4.31017e+12 -6.3189e+12 -6.73222e+12 -4.97585e+12 -4.9092e+12 -5.4013e+12 -6.26484e+12 -8.11071e+12 -7.70077e+12 -5.04339e+12 -8.04307e+12 -6.06934e+12 -4.36564e+12 -7.29986e+12 -5.24555e+12 -7.01455e+12 -5.12884e+12 -4.05292e+12 -5.33128e+12 -4.18827e+12 -4.72864e+12 -7.44318e+12 -5.54066e+12 -6.28078e+12 -5.35886e+12 -4.34175e+12 -5.02587e+12 -4.82132e+12 -6.38485e+12 -5.88431e+12 -3.0241e+12 -5.08698e+12 -4.30654e+12 -4.83206e+12 -4.93802e+12 -5.88613e+12 -4.14108e+12 -2.7477e+12 -2.36657e+12 -5.32022e+12 -3.02372e+12 -3.04169e+12 -2.69552e+12 -5.48062e+12 -2.77073e+12 -1.95406e+12 -4.65421e+12 -2.87211e+12 -1.84525e+12 -2.94578e+12 -2.30226e+12 -3.08453e+12 -3.41681e+12 -5.1201e+12 -3.27948e+12 -3.7784e+12 -5.21791e+12 -2.5236e+12 -2.65595e+12 -3.02733e+12 -3.19601e+12 -4.98178e+12 -6.65601e+12 -5.93108e+12 -3.92911e+12 -2.49572e+12 -3.12895e+12 -7.3936e+12 -3.84869e+12 -4.80955e+12 -4.59495e+12 -5.35431e+12 -3.79872e+12 -6.49701e+12 -4.41161e+12 -4.92808e+12 -2.62095e+12 -6.62801e+12 -8.15421e+12 -3.49916e+12 -3.06242e+12 -3.26699e+12 -8.00133e+12 -7.3718e+12 -3.1969e+12 -4.25934e+12 -6.83182e+12 -7.63371e+12 -4.14543e+12 -7.92133e+12 -5.78485e+12 -5.53701e+12 -6.53816e+12 -5.89498e+12 -5.95438e+12 -7.68938e+12 -7.8757e+12 -5.154e+12 -7.57496e+12 -3.32646e+12 -6.12173e+12 -5.13376e+12 -6.89792e+12 -8.40317e+12 -5.92431e+12 -6.83914e+12 -7.76329e+12 -4.81807e+12 -6.17478e+12 -4.00123e+12 -5.18406e+12 -9.88188e+12 -6.76788e+12 -5.15884e+12 -6.37521e+12 -5.64585e+12 -2.82642e+12 -9.10053e+12 -5.08859e+12 -5.37573e+12 -8.39294e+12 -5.97718e+12 -5.02567e+12 -3.0075e+12 -1.75035e+12 -2.60734e+12 -6.68626e+12 -5.03325e+12 -2.62438e+12 -5.95653e+12 -5.38454e+12 -6.81919e+12 -4.32068e+12 -4.64568e+12 -6.04727e+12 -5.42324e+12 -3.95494e+12 -6.85837e+12 -4.19151e+12 -4.89035e+12 -4.88603e+12 -5.8214e+12 -3.38998e+12 -6.10878e+12 -4.74431e+12 -5.69687e+12 -4.94592e+12 -5.09597e+12 -2.17444e+12 -3.77282e+12 -2.00944e+12 -4.9399e+12 -3.903e+12 -6.6667e+12 -6.55643e+12 -9.82504e+12 -5.63209e+12 -4.10794e+12 -5.65013e+12 -6.04581e+12 -5.54979e+12 -5.87275e+12 -4.38776e+12 -4.65708e+12 -3.69952e+12 -7.64818e+12 -5.27864e+12 -7.57707e+12 -7.02794e+12 -4.15827e+12 -7.83195e+12 -3.99434e+12 -2.55526e+12 -1.79947e+12 -5.81832e+12 -3.81349e+12 -2.80314e+12 -4.67852e+12 -5.86778e+12 -6.03767e+12 -5.40847e+12 -3.48622e+12 -3.0905e+12 -6.27583e+12 -5.63703e+12 -2.09316e+12 -5.37625e+12 -3.17847e+12 -3.25761e+12 -4.56109e+12 -3.17588e+12 -5.65404e+12 -4.10515e+12 -4.13871e+12 -2.38896e+12 -2.8968e+12 -4.53322e+12 -2.66004e+12 -4.30443e+12 -6.3781e+12 -3.24858e+12 -3.32046e+12 -2.84205e+12 -2.37484e+12 -3.43528e+12 -4.02406e+12 -3.02685e+12 -2.82928e+12 -3.75084e+12 -3.46631e+12 -3.63812e+12 -2.33113e+12 -3.70349e+12 -3.66919e+12 -3.61366e+12 -2.73878e+12 -5.15396e+12 -1.97304e+12 -5.76013e+12 -4.14231e+12 -4.15754e+12 -4.00886e+12 -3.53219e+12 -4.93098e+12 -4.06825e+12 -4.21266e+12 -4.2118e+12 -3.41272e+12 -2.81284e+12 -3.08417e+12 -5.69976e+12 -3.8677e+12 -4.04265e+12 -3.18592e+12 -4.90141e+12 -5.27514e+12 -2.28419e+12 -2.04555e+12 -2.80815e+12 -3.59824e+12 -8.11457e+12 -7.79687e+12 -2.42008e+12 -4.01039e+12 -5.17698e+12 -4.10352e+12 -3.94365e+12 -5.83218e+12 -5.79345e+12 -6.31088e+12 -4.77208e+12 -5.02666e+12 -5.09697e+12 -4.32723e+12 -1.77456e+12 -1.29612e+12 -5.30612e+12 -3.56333e+12 -5.35444e+12 -4.14742e+12 -4.69512e+12 -8.72374e+12 -4.89603e+12 -7.7407e+12 -3.60119e+12 -4.87533e+12 -5.98537e+12 -3.07138e+12 -3.3982e+12 -5.57961e+12 -4.33169e+12 -4.99038e+12 -8.0326e+12 -5.17262e+12 -4.03245e+12 -6.03547e+12 -7.16598e+12 -4.8876e+12 -4.61701e+12 -8.64529e+12 -2.47291e+12 -3.39342e+12 -2.25059e+12 -3.43817e+12 -3.49896e+12 -6.79982e+12 -5.71478e+12 -4.97154e+12 -6.21518e+12 -8.23717e+12 -6.69363e+12 -4.80876e+12 -4.31257e+12 -7.95069e+12 -4.14264e+12 -4.64018e+12 -4.00216e+12 -3.68092e+12 -4.13845e+12 -5.37881e+12 -4.61733e+12 -5.8076e+12 -4.21469e+12 -3.54793e+12 -6.60214e+12 -4.97219e+12 -4.0688e+12 -4.54246e+12 -2.10861e+12 -5.60262e+12 -5.3921e+12 -3.52732e+12 -5.68945e+12 -2.89004e+12 -4.38884e+12 -4.55468e+12 -3.72813e+12 -2.94442e+12 -5.85231e+12 -4.51817e+12 -5.85184e+12 -6.25101e+12 -4.70274e+12 -7.69604e+12 -6.2185e+12 -3.27753e+12 -5.40579e+12 -4.02587e+12 -5.98304e+12 -6.83638e+12 -5.11325e+12 -3.90133e+12 -3.64881e+12 -4.92042e+12 -5.10818e+12 -2.89893e+12 -5.52831e+12 -4.40236e+12 -3.05097e+12 -4.76579e+12 -5.14728e+12 -1.8527e+12 -4.93585e+12 -5.20709e+12 -3.92053e+12 -1.2789e+12 -2.61636e+12 -5.0027e+12 -3.97322e+12 -3.32991e+12 -3.62765e+12 -2.71755e+12 -2.8678e+12 -5.3624e+12 -6.79302e+12 -4.7648e+12 -1.51454e+12 -3.89793e+12 -1.95526e+12 -3.61848e+12 -2.72003e+12 -3.11434e+12 -2.15337e+12 -2.43921e+12 -4.69482e+12 -2.83734e+12 -2.20372e+12 -3.18208e+12 -2.77748e+12 -2.60674e+12 -2.96477e+12 -3.51064e+12 -4.82662e+12 -3.98314e+12 -1.51964e+12 -3.59562e+12 -2.28807e+12 -2.68585e+12 -3.49951e+12 -3.41036e+12 -4.39266e+12 -5.53044e+12 -3.88912e+12 -6.24703e+12 -3.74407e+12 -2.8018e+12 -4.70301e+12 -3.3303e+12 -4.33933e+12 -6.3158e+12 -2.13791e+12 -3.54459e+12 -3.06933e+12 -2.78175e+12 -3.58783e+12 -3.2637e+12 -5.00056e+12 -4.22195e+12 -5.92832e+12 -6.45031e+12 -7.01149e+12 -5.58727e+12 -5.13625e+12 -5.20405e+12 -4.81663e+12 -3.38389e+12 -5.24596e+12 -6.04814e+12 -8.16077e+12 -4.59466e+12 -5.74206e+12 -3.59551e+12 -6.5816e+12 -3.47934e+12 -5.60421e+12 -7.81288e+12 -4.9108e+12 -8.55702e+12 -6.46953e+12 -4.40879e+12 -6.46243e+12 -5.38189e+12 -4.38538e+12 -7.51922e+12 -4.21766e+12 -7.91779e+12 -4.5058e+12 -4.41919e+12 -6.46461e+12 -1.57346e+12 -2.58366e+12 -6.32767e+12 -4.37216e+12 -2.88745e+12 -6.57171e+12 -6.3224e+12 -7.35235e+12 -5.76649e+12 -6.09282e+12 -4.30725e+12 -4.37663e+12 -6.43054e+12 -5.11153e+12 -4.53527e+12 -4.15722e+12 -4.62822e+12 -1.75336e+12 -5.0711e+12 -4.05099e+12 -4.9187e+12 -3.12959e+12 -1.39711e+12 -5.24921e+12 -4.56721e+12 -5.61666e+12 -5.17586e+12 -3.56368e+12 -4.48891e+12 -1.84737e+12 -4.27255e+12 -4.01629e+12 -4.33417e+12 -6.57052e+12 -4.91217e+12 -3.48524e+12 -6.02142e+12 -1.27258e+12 -3.35509e+12 -3.28739e+12 -6.58447e+12 -6.2307e+12 -3.02589e+12 -6.43157e+12 -3.06681e+12 -1.48741e+12 -3.77457e+12 -2.62214e+12 -3.51251e+12 -3.87127e+12 -3.05012e+12 -3.04268e+12 -3.56294e+12 -2.28213e+12 -3.36847e+12 -3.00578e+12 -3.54756e+12 -3.87972e+12 -5.01765e+12 -2.82366e+12 -3.71979e+12 -1.89238e+12 -1.1129e+12 -3.60622e+12 -947369000000.0 -2.82344e+12 -3.60119e+12 -4.34245e+12 -1.72569e+12 -1.28133e+12 -2.99238e+12 -2.84373e+12 -3.38809e+12 -3.43789e+12 -2.55152e+12 -4.71128e+12 -1.66272e+12 -3.93395e+12 -3.13519e+12 -2.63578e+12 -3.78424e+12 -6.26396e+12 -1.89415e+12 -2.53622e+12 -3.73884e+12 -3.67072e+12 -5.00957e+12 -3.84335e+12 -5.23142e+12 -2.40489e+12 -5.43778e+12 -4.83254e+12 -3.64762e+12 -3.22468e+12 -3.1891e+12 -4.69199e+12 -4.15758e+12 -4.58084e+12 -3.5657e+12 -1.33095e+12 -2.54247e+12 -2.4368e+12 -5.56327e+12 -4.61678e+12 -5.55796e+12 -2.19474e+12 -3.23289e+12 -2.54193e+12 -1.52524e+12 -4.39702e+12 -2.58022e+12 -4.786e+12 -7.19474e+12 -2.94718e+12 -7.09275e+12 -4.52568e+12 -4.72767e+12 -3.70443e+12 -4.9009e+12 -5.58916e+12 -5.39026e+12 -3.23844e+12 -5.5902e+12 -5.61784e+12 -3.97747e+12 -4.61765e+12 -4.11791e+12 -6.32968e+12 -5.02189e+12 -3.91192e+12 -5.81435e+12 -6.62906e+12 -6.08168e+12 -6.34745e+12 -4.94118e+12 -4.23602e+12 -3.95349e+12 -5.05088e+12 -3.27212e+12 -2.61609e+12 -4.83469e+12 -2.03146e+12 -2.8107e+12 -3.92352e+12 -4.00629e+12 -5.14053e+12 -3.76678e+12 -4.16185e+12 -5.34865e+12 -8.51277e+12 -6.18795e+12 -5.77263e+12 -4.30272e+12 -3.81634e+12 -6.85434e+12 -4.8374e+12 -3.09706e+12 -1.65806e+12 -3.54262e+12 -4.64481e+12 -4.72049e+12 -4.21079e+12 -3.12835e+12 -5.4657e+12 -3.8844e+12 -3.61275e+12 -3.55768e+12 -4.1699e+12 -3.48853e+12 -4.58005e+12 -3.60985e+12 -4.47851e+12 -4.13301e+12 -4.27384e+12 -4.12761e+12 -3.43173e+12 -4.21706e+12 -1.72762e+12 -2.26862e+12 -2.66767e+12 -3.23262e+12 -4.10807e+12 -2.5463e+12 -1.76826e+12 -1.3409e+12 -2.23329e+12 -2.39135e+12 -1.35084e+12 -2.59522e+12 -1.25695e+12 -1.56469e+12 -1.92685e+12 -3.66793e+12 -4.11208e+12 -1.02678e+12 -1.65869e+12 -1.42127e+12 -3.11152e+12 -3.67259e+12 -2.18941e+12 -1.12149e+12 -1.17214e+12 -2.55844e+12 -1.18485e+12 -3.28344e+12 -2.06803e+12 -1.2122e+12 -1.93859e+12 -1.10005e+12 -3.20936e+12 -1.97785e+12 -2.07145e+12 -2.25629e+12 -2.21209e+12 -4.09351e+12 -3.2428e+12 -3.31536e+12 -2.77332e+12 -4.21753e+12 -2.57107e+12 -4.07001e+12 -2.99512e+12 -3.68941e+12 -2.22437e+12 -2.97625e+12 -1.36735e+12 -2.85743e+12 -2.15865e+12 -5.09423e+12 -2.52531e+12 -2.523e+12 -1.99364e+12 -2.42321e+12 -2.0929e+12 -1.81402e+12 -2.74046e+12 -3.2819e+12 -2.31089e+12 -3.05379e+12 -4.10535e+12 -4.60768e+12 -4.98694e+12 -2.41596e+12 -1.66728e+12 -4.48848e+12 -4.41841e+12 -4.71173e+12 -2.37661e+12 -4.5157e+12 -5.46201e+12 -5.51535e+12 -3.63526e+12 -5.59813e+12 -4.48203e+12 -2.94799e+12 -7.21296e+12 -2.97797e+12 -3.77216e+12 -2.88446e+12 -3.30099e+12 -2.65109e+12 -3.57643e+12 -3.10663e+12 -4.53935e+12 -3.12828e+12 -4.88053e+12 -3.64989e+12 -4.04004e+12 -5.35226e+12 -7.85497e+12 -4.91852e+12 -6.94953e+12 -2.67073e+12 -2.7974e+12 -3.9942e+12 -3.07016e+12 -3.08779e+12 -3.04268e+12 -3.23694e+12 -2.57891e+12 -3.9377e+12 -6.3458e+12 -5.48791e+12 -3.78181e+12 -4.47322e+12 -4.91813e+12 -4.14883e+12 -6.46213e+12 -2.65405e+12 -3.44221e+12 -2.43424e+12 -7.5763e+12 -3.79218e+12 -3.1027e+12 -4.33429e+12 -4.19255e+12 -3.16886e+12 -2.10335e+12 -2.81271e+12 -3.92648e+12 -3.14975e+12 -4.5827e+12 -2.55142e+12 -3.00365e+12 -2.76951e+12 -3.03655e+12 -1.8508e+12 -2.67689e+12 -2.4672e+12 -3.5375e+12 -1.86505e+12 -2.03044e+12 -3.21539e+12 -2.32961e+12 -2.12858e+12 -2.34176e+12 -2.12639e+12 -1.72841e+12 -2.166e+12 -2.25528e+12 -2.38028e+12 -1.08928e+12 -1.5971e+12 -2.29597e+12 -2.51006e+12 -1.21207e+12 -1.0623e+12 -1.16793e+12 -1.96207e+12 -1.69795e+12 -2.07961e+12 -1.27739e+12 -811288000000.0 -682135000000.0 -1.61606e+12 -810167000000.0 -1.05415e+12 -1.57782e+12 -1.35156e+12 -1.55931e+12 -1.73389e+12 -1.31715e+12 -913179000000.0 -1.06135e+12 -2.22973e+12 -2.13001e+12 -2.99969e+12 -2.49154e+12 -2.10234e+12 -3.73587e+12 -1.00144e+12 -2.07967e+12 -1.93268e+12 -1.15295e+12 -2.80987e+12 -2.82382e+12 -2.1154e+12 -3.41119e+12 -3.30879e+12 -2.76744e+12 -1.25875e+12 -3.04038e+12 -2.86029e+12 -3.77762e+12 -1.66367e+12 -1.34659e+12 -1.67531e+12 -2.05294e+12 -3.86657e+12 -2.9078e+12 -2.28187e+12 -2.34606e+12 -2.29278e+12 -2.45062e+12 -3.4018e+12 -2.14478e+12 -3.92813e+12 -2.78299e+12 -781391000000.0 -1.73563e+12 -4.25645e+12 -3.13053e+12 -998687000000.0 -3.24953e+12 -3.39233e+12 -4.29329e+12 -1.89784e+12 -2.88404e+12 -5.72435e+12 -2.04849e+12 -3.19996e+12 -4.36723e+12 -3.87697e+12 -3.92159e+12 -2.90852e+12 -1.70001e+12 -3.33402e+12 -3.13568e+12 -4.20503e+12 -6.14652e+12 -3.02568e+12 -6.61573e+12 -6.23391e+12 -3.48583e+12 -3.74028e+12 -7.36795e+12 -5.26688e+12 -2.19763e+12 -481900000000.0 -5.77207e+12 -7.16783e+12 -4.71362e+12 -3.63616e+12 -1.86709e+12 -5.30313e+12 -4.30149e+12 -4.28522e+12 -3.66772e+12 -7.0242e+12 -3.00502e+12 -3.77228e+12 -6.1648e+12 -3.01318e+12 -4.28246e+12 -3.1229e+12 -5.17455e+12 -2.39532e+12 -3.66701e+12 -4.28161e+12 -2.72848e+12 -2.87723e+12 -3.22918e+12 -2.26442e+12 -2.60123e+12 -2.1972e+12 -3.532e+12 -4.91761e+12 -1.72568e+12 -2.72077e+12 -2.107e+12 -1.88867e+12 -2.21665e+12 -1.21953e+12 -2.71635e+12 -3.80188e+12 -2.58162e+12 -789978000000.0 -1.86807e+12 -2.25791e+12 -4.6235e+12 -2.8426e+12 -320665000000.0 -1.60666e+12 -1.69401e+12 -2.54628e+12 -1.63002e+12 -1.32843e+12 -1.50858e+12 -2.34626e+12 -1.12826e+12 -1.12919e+12 -1.40168e+12 -1.50938e+12 -700369000000.0 -644993000000.0 -915436000000.0 -1.04997e+12 -780275000000.0 -1.24077e+12 -993027000000.0 -575828000000.0 -1.04373e+12 -860785000000.0 -1.34571e+12 -880648000000.0 -419316000000.0 -1.0194e+12 -792317000000.0 -1.17343e+12 -1.29462e+12 -787383000000.0 -868849000000.0 -751814000000.0 -2.38837e+12 -1.808e+12 -1.63551e+12 -1.44035e+12 -2.66544e+12 -2.2341e+12 -1.54641e+12 -2.23199e+12 -2.19236e+12 -1.24428e+12 -2.06849e+12 -952676000000.0 -1.72277e+12 -1.39952e+12 -3.23096e+12 -3.30002e+12 -1.68399e+12 -1.96515e+12 -2.85377e+12 -4.02397e+12 -4.78863e+12 -2.85969e+12 -1.15905e+12 -3.38161e+12 -4.34889e+12 -4.31608e+12 -2.52439e+12 -2.36003e+12 -3.69735e+12 -2.80539e+12 -2.05445e+12 -3.98597e+12 -1.51817e+12 -3.99344e+12 -3.29311e+12 -2.79751e+12 -2.67336e+12 -2.72303e+12 -1.57362e+12 -3.76537e+12 -1.95322e+12 -3.66847e+12 -3.97193e+12 -4.61623e+12 -3.08077e+12 -3.80846e+12 -3.77547e+12 -2.60708e+12 -3.29175e+12 -1.96445e+12 -4.10961e+12 -2.95707e+12 -2.07464e+12 -5.84718e+12 -2.53579e+12 -2.86143e+12 -4.02214e+12 -1.73426e+12 -935140000000.0 -2.181e+12 -1.77521e+12 -2.2581e+12 -2.49199e+12 -4.12305e+12 -2.48555e+12 -3.51293e+12 -3.47295e+12 -3.08227e+12 -358148000000.0 -3.1047e+12 -3.20656e+12 -3.57519e+12 -1.33428e+12 -1.75524e+12 -3.35102e+12 -2.49131e+12 -2.51676e+12 -2.5295e+12 -1.27316e+12 -2.08846e+12 -1.92573e+12 -3.2521e+12 -1.74129e+12 -1.11457e+12 -2.02696e+12 -1.6321e+12 -2.0468e+12 -1.81149e+12 -2.79745e+12 -1.35128e+12 -1.12121e+12 -1.11968e+12 -740590000000.0 -1.2275e+12 -1.64293e+12 -695625000000.0 -742631000000.0 -1.58072e+12 -751667000000.0 -592782000000.0 -691516000000.0 -541960000000.0 -921464000000.0 -538420000000.0 -549969000000.0 -305315000000.0 -259119000000.0 -118293000000.0 -644046000000.0 -264803000000.0 -328000000000.0 -651894000000.0 -286696000000.0 -588678000000.0 -404797000000.0 -352250000000.0 -750202000000.0 -337884000000.0 -333321000000.0 -823341000000.0 -824961000000.0 -1.37151e+12 -656725000000.0 -1.44757e+12 -1.08625e+12 -1.89729e+12 -358300000000.0 -1.18227e+12 -1.27206e+12 -2.49664e+12 -3.34023e+12 -2.4977e+12 -2.28227e+12 -1.24965e+12 -1.87603e+12 -1.86328e+12 -1.92856e+12 -1.77928e+12 -1.60612e+12 -1.88143e+12 -3.7474e+12 -2.85504e+12 -3.1262e+12 -2.17414e+12 -2.64572e+12 -1.58273e+12 -3.58333e+12 -3.00839e+12 -3.76794e+12 -2.01977e+12 -1.95915e+12 -1.63281e+12 -2.82386e+12 -3.11677e+12 -3.54812e+12 -1.98981e+12 -2.69847e+12 -3.684e+12 -2.07013e+12 -2.63609e+12 -2.01796e+12 -3.39192e+12 -1.37498e+12 -1.47837e+12 -3.31849e+12 -1.99727e+12 -2.32348e+12 -2.09163e+12 -2.3375e+12 -2.12186e+12 -985861000000.0 -3.87024e+12 -1.25929e+12 -1.85262e+12 -2.62521e+12 -1.58818e+12 -1.16359e+12 -3.47845e+12 -1.94013e+12 -708232000000.0 -2.85881e+12 -3.52152e+12 -1.23869e+12 -1.65696e+12 -1.38836e+12 -1.29827e+12 -1.48174e+12 -2.63931e+12 -4.19182e+12 -2.73083e+12 -2.76244e+12 -890476000000.0 -4.17603e+12 -1.9607e+12 -740606000000.0 -767217000000.0 -2.23347e+12 -1.30161e+12 -1.24679e+12 -3.04032e+12 -2.36012e+12 -1.50622e+12 -1.52991e+12 -650018000000.0 -1.96474e+12 -1.14393e+12 -1.42474e+12 -2.22868e+12 -701489000000.0 -1.12745e+12 -452125000000.0 -504165000000.0 -583102000000.0 -1.02289e+12 -958722000000.0 -134653000000.0 -260010000000.0 -165660000000.0 -209463000000.0 -205881000000.0 -478552000000.0 -148403000000.0 -256078000000.0 -588352000000.0 -201589000000.0 -275295000000.0 -641834000000.0 -809135000000.0 -766480000000.0 -1.83903e+12 -754525000000.0 -1.30283e+12 -658860000000.0 -1.56386e+12 -1.4342e+12 -1.23183e+12 -1.14446e+12 -1.97431e+12 -1.33598e+12 -1.42387e+12 -1.16882e+12 -1.28781e+12 -1.64027e+12 -2.60019e+12 -2.53924e+12 -1.54907e+12 -2.01432e+12 -2.58537e+12 -1.77451e+12 -1.15615e+12 -2.0805e+12 -3.84299e+12 -2.3157e+12 -1.92006e+12 -2.78697e+12 -1.96248e+12 -1.78798e+12 -2.54612e+12 -2.57262e+12 -2.17057e+12 -3.04362e+12 -856466000000.0 -1.47553e+12 -2.07466e+12 -1.07602e+12 -1.96017e+12 -1.72298e+12 -3.88437e+12 -2.9481e+12 -1.403e+12 -1.69244e+12 -1.68217e+12 -1.5821e+12 -1.50448e+12 -1.22483e+12 -2.29895e+12 -1.35446e+12 -2.34885e+12 -1.52397e+12 -1.42758e+12 -2.3263e+12 -1.4943e+12 -1.14131e+12 -1.1673e+12 -1.13734e+12 -1.90312e+12 -1.77588e+12 -1.53921e+12 -1.25469e+12 -1.48979e+12 -1.01135e+12 -1.24277e+12 -1.75353e+12 -1.15397e+12 -2.41986e+12 -825069000000.0 -1.10944e+12 -1.14678e+12 -1.07806e+12 -820492000000.0 -1.02265e+12 -680642000000.0 -350844000000.0 -429961000000.0 -349888000000.0 -706151000000.0 -261692000000.0 -571913000000.0 -211490000000.0 -131461000000.0 -227177000000.0 -178000000000.0 -233969000000.0 -401194000000.0 -210941000000.0 -99958900000.0 -453425000000.0 -253153000000.0 -711523000000.0 -411049000000.0 -523166000000.0 -1.58348e+12 -1.00381e+12 -805888000000.0 -1.44772e+12 -344166000000.0 -983504000000.0 -1.17066e+12 -1.39383e+12 -999961000000.0 -831375000000.0 -2.69656e+12 -555172000000.0 -1.05803e+12 -1.94259e+12 -1.97751e+12 -1.59041e+12 -500515000000.0 -2.39672e+12 -2.38583e+12 -2.25615e+12 -1.03171e+12 -1.71424e+12 -604683000000.0 -1.33077e+12 -1.95234e+12 -2.2448e+12 -1.98805e+12 -2.32277e+12 -774941000000.0 -2.18639e+12 -1.82515e+12 -1.11969e+12 -1.39671e+12 -1.13848e+12 -931373000000.0 -510662000000.0 -2.03952e+12 -1.04418e+12 -1.39264e+12 -1.89814e+12 -145126000000.0 -1.58581e+12 -1.05028e+12 -562204000000.0 -1.04449e+12 -921028000000.0 -1.05076e+12 -751682000000.0 -537371000000.0 -869135000000.0 -1.20815e+12 -632428000000.0 -954523000000.0 -652659000000.0 -694100000000.0 -391369000000.0 -792215000000.0 -527195000000.0 -284842000000.0 -349774000000.0 -265156000000.0 -214353000000.0 -107658000000.0 -189783000000.0 -242834000000.0 -309549000000.0 -207522000000.0 -95233900000.0 -160883000000.0 -363318000000.0 -342022000000.0 -747976000000.0 -232050000000.0 -911617000000.0 -477624000000.0 -705301000000.0 -601504000000.0 -1.16769e+12 -479664000000.0 -998043000000.0 -1.37744e+12 -2.11599e+12 -329943000000.0 -1.89288e+12 -2.54039e+12 -1.22459e+12 -635270000000.0 -579707000000.0 -1.64708e+12 -1.05431e+12 -911534000000.0 -601563000000.0 -1.21857e+12 -825490000000.0 -1.7291e+12 -952370000000.0 -746783000000.0 -390382000000.0 -430648000000.0 -920967000000.0 -724204000000.0 -1.27182e+12 -96560300000.0 -670865000000.0 -418723000000.0 -851271000000.0 -680293000000.0 -358038000000.0 -308429000000.0 -230243000000.0 -329932000000.0 -602826000000.0 -91017200000.0 -554316000000.0 -562271000000.0 -315893000000.0 -300866000000.0 -207859000000.0 -157315000000.0 -333488000000.0 -67407400000.0 -180886000000.0 -314061000000.0 -198442000000.0 -270720000000.0 -247027000000.0 -211398000000.0 -261661000000.0 -774790000000.0 -330895000000.0 -271913000000.0 -541593000000.0 -528323000000.0 -183594000000.0 -1.04938e+12 -127118000000.0 -249609000000.0 -175748000000.0 -757574000000.0 -1.28284e+12 -999933000000.0 -364057000000.0 -940190000000.0 -1.01403e+12 -679997000000.0 -24446100000.0 -566430000000.0 -340742000000.0 -285470000000.0 -817538000000.0 -412138000000.0 -211250000000.0 -414164000000.0 -257182000000.0 -236392000000.0 -337683000000.0 -159992000000.0 -195151000000.0 -96604700000.0 