# vtk DataFile Version 2.0
Time step 16
ASCII
DATASET UNSTRUCTURED_GRID
POINTS 5000 float
96094.1 442818.0 0
396140.0 440355.0 0
400486.0 440013.0 0
403471.0 442104.0 0
84501.7 450287.0 0
88387.8 447532.0 0
92096.3 445162.0 0
95016.1 446886.0 0
99853.9 440325.0 0
102378.0 443617.0 0
106038.0 445052.0 0
110258.0 443853.0 0
115801.0 443492.0 0
119817.0 447714.0 0
125042.0 446416.0 0
129768.0 444876.0 0
134806.0 445725.0 0
139427.0 446737.0 0
143318.0 446290.0 0
147572.0 446330.0 0
152501.0 446301.0 0
157687.0 445669.0 0
162680.0 445816.0 0
167017.0 445632.0 0
171815.0 444431.0 0
177725.0 444514.0 0
182928.0 443691.0 0
187375.0 445555.0 0
192500.0 446749.0 0
196095.0 445928.0 0
201736.0 445258.0 0
207651.0 446036.0 0
212985.0 445374.0 0
218129.0 446458.0 0
222481.0 446470.0 0
225801.0 445724.0 0
230433.0 445581.0 0
235810.0 446572.0 0
241169.0 445277.0 0
246499.0 447283.0 0
252674.0 445259.0 0
259038.0 445745.0 0
263762.0 446821.0 0
268730.0 445739.0 0
273926.0 445992.0 0
278881.0 444678.0 0
286326.0 446318.0 0
291718.0 446777.0 0
297322.0 444651.0 0
303634.0 445415.0 0
312083.0 445831.0 0
317881.0 446472.0 0
323188.0 446180.0 0
327497.0 446705.0 0
332113.0 446244.0 0
337110.0 445771.0 0
345053.0 445088.0 0
354115.0 446435.0 0
360347.0 444194.0 0
366519.0 444698.0 0
370473.0 441353.0 0
374830.0 444344.0 0
380273.0 444623.0 0
385479.0 444080.0 0
390286.0 441543.0 0
394054.0 445321.0 0
400157.0 443081.0 0
398272.0 445923.0 0
402599.0 445915.0 0
406745.0 444729.0 0
410695.0 447277.0 0
414499.0 449224.0 0
417719.0 450938.0 0
77671.9 454007.0 0
80625.3 451938.0 0
83385.1 455134.0 0
88320.0 451613.0 0
92050.0 453445.0 0
92345.9 449291.0 0
98924.8 447057.0 0
103471.0 448217.0 0
100672.0 451135.0 0
108094.0 449583.0 0
112977.0 448164.0 0
116310.0 450651.0 0
119307.0 452109.0 0
122577.0 451427.0 0
128742.0 449140.0 0
132888.0 451466.0 0
137884.0 451245.0 0
143036.0 450175.0 0
146997.0 450640.0 0
151989.0 451080.0 0
156827.0 449689.0 0
161265.0 450479.0 0
166499.0 450301.0 0
173041.0 449980.0 0
178443.0 449914.0 0
183597.0 448748.0 0
188668.0 449977.0 0
193622.0 450902.0 0
198300.0 450256.0 0
203950.0 450861.0 0
213707.0 449922.0 0
209383.0 451100.0 0
217613.0 451534.0 0
222044.0 451300.0 0
226817.0 449956.0 0
232215.0 450997.0 0
237696.0 451819.0 0
243294.0 451666.0 0
248456.0 451357.0 0
252672.0 451826.0 0
257259.0 450387.0 0
262318.0 450997.0 0
267080.0 450591.0 0
271624.0 449903.0 0
277019.0 450278.0 0
282030.0 448010.0 0
282821.0 451698.0 0
287500.0 451408.0 0
292900.0 451272.0 0
298237.0 450163.0 0
303118.0 451087.0 0
307668.0 447932.0 0
307391.0 451223.0 0
312501.0 451603.0 0
317476.0 451350.0 0
322342.0 450634.0 0
327500.0 451388.0 0
332500.0 451461.0 0
340605.0 447671.0 0
337373.0 450435.0 0
343411.0 450223.0 0
349580.0 447477.0 0
347570.0 450422.0 0
351665.0 451270.0 0
360925.0 450349.0 0
357153.0 450560.0 0
364222.0 448702.0 0
370727.0 448927.0 0
377079.0 448672.0 0
380536.0 449994.0 0
383959.0 448731.0 0
389257.0 447624.0 0
391182.0 451720.0 0
395729.0 450122.0 0
401044.0 449563.0 0
406683.0 449373.0 0
404380.0 452685.0 0
411316.0 451861.0 0
415721.0 453836.0 0
420547.0 452762.0 0
423769.0 454747.0 0
67595.6 460697.0 0
71156.9 457893.0 0
71936.0 460992.0 0
74202.9 455835.0 0
78470.4 457452.0 0
82072.0 459603.0 0
87991.1 455251.0 0
91531.7 458354.0 0
95261.1 455380.0 0
96823.8 451910.0 0
103924.0 452388.0 0
100518.0 455796.0 0
107643.0 455171.0 0
112081.0 452779.0 0
116064.0 454535.0 0
119583.0 456209.0 0
123579.0 456286.0 0
127800.0 453750.0 0
131907.0 457410.0 0
137117.0 456765.0 0
141463.0 454373.0 0
146734.0 455551.0 0
156530.0 454276.0 0
162018.0 456117.0 0
170096.0 454780.0 0
176380.0 455675.0 0
182260.0 453886.0 0
188120.0 456135.0 0
194330.0 455925.0 0
200035.0 455356.0 0
204316.0 456326.0 0
208141.0 456013.0 0
213320.0 454732.0 0
217709.0 456462.0 0
222569.0 455575.0 0
226879.0 454960.0 0
232446.0 456462.0 0
237427.0 456244.0 0
241801.0 456898.0 0
246856.0 455433.0 0
251799.0 456721.0 0
257725.0 455139.0 0
262711.0 455775.0 0
267477.0 455047.0 0
273035.0 455149.0 0
279814.0 454343.0 0
283478.0 456641.0 0
287130.0 456738.0 0
290897.0 455530.0 0
296605.0 455170.0 0
302093.0 456293.0 0
307533.0 455654.0 0
313016.0 456759.0 0
318000.0 455865.0 0
322233.0 454626.0 0
326376.0 456782.0 0
335935.0 455024.0 0
331399.0 456386.0 0
340843.0 454060.0 0
346235.0 454692.0 0
351171.0 456116.0 0
355089.0 454265.0 0
360180.0 454992.0 0
364976.0 452872.0 0
369139.0 455309.0 0
375456.0 454352.0 0
382111.0 453756.0 0
387104.0 452193.0 0
388684.0 456515.0 0
393978.0 455879.0 0
399879.0 454674.0 0
408361.0 454925.0 0
404641.0 457263.0 0
412680.0 457409.0 0
417048.0 457843.0 0
420014.0 456034.0 0
420852.0 460436.0 0
427207.0 457207.0 0
423872.0 458215.0 0
430652.0 459897.0 0
63230.2 463771.0 0
67166.3 465203.0 0
74846.0 459658.0 0
70563.9 463644.0 0
75008.9 464701.0 0
78662.6 461995.0 0
86381.2 459375.0 0
83024.8 463685.0 0
87315.5 463256.0 0
96346.6 458525.0 0
90296.5 462114.0 0
94263.0 462893.0 0
99246.4 461494.0 0
104568.0 460097.0 0
110966.0 459837.0 0
116127.0 458815.0 0
120688.0 460721.0 0
126613.0 459861.0 0
130312.0 461432.0 0
134730.0 461580.0 0
138488.0 460632.0 0
143065.0 461017.0 0
152161.0 457430.0 0
148195.0 460204.0 0
156944.0 459478.0 0
153712.0 462081.0 0
160521.0 460836.0 0
166686.0 458271.0 0
164463.0 461895.0 0
170984.0 460860.0 0
177167.0 462228.0 0
182354.0 459359.0 0
186738.0 461769.0 0
191745.0 461267.0 0
197313.0 460639.0 0
203133.0 460484.0 0
208805.0 462371.0 0
214405.0 460396.0 0
218757.0 461700.0 0
222069.0 459836.0 0
227551.0 460504.0 0
234324.0 460846.0 0
237863.0 459570.0 0
241776.0 461500.0 0
246241.0 460618.0 0
251524.0 461978.0 0
255877.0 459861.0 0
260340.0 459516.0 0
266339.0 459728.0 0
271739.0 461415.0 0
278336.0 459855.0 0
284334.0 461371.0 0
288735.0 459857.0 0
292943.0 461606.0 0
298898.0 461503.0 0
303979.0 461728.0 0
307500.0 461552.0 0
312164.0 461374.0 0
316126.0 460391.0 0
320950.0 460057.0 0
325589.0 461966.0 0
329460.0 460215.0 0
333888.0 462185.0 0
339093.0 459402.0 0
345296.0 460913.0 0
356078.0 458294.0 0
351883.0 461664.0 0
360073.0 461127.0 0
364761.0 458269.0 0
369432.0 460904.0 0
379625.0 458837.0 0
384449.0 458119.0 0
382707.0 461985.0 0
388119.0 462320.0 0
394261.0 461710.0 0
398154.0 459100.0 0
398714.0 462595.0 0
402349.0 460809.0 0
408386.0 460100.0 0
405944.0 463725.0 0
412659.0 461677.0 0
416261.0 461095.0 0
419491.0 463944.0 0
426527.0 461121.0 0
424425.0 464714.0 0
429841.0 464683.0 0
434612.0 462271.0 0
438953.0 465405.0 0
53132.3 470103.0 0
58404.2 467499.0 0
63577.4 468706.0 0
60443.8 471011.0 0
71101.8 467694.0 0
74467.1 469109.0 0
77916.3 469942.0 0
79322.3 466058.0 0
82579.1 468801.0 0
86175.1 466565.0 0
90361.4 465685.0 0
93698.6 468227.0 0
97745.3 465936.0 0
102108.0 464797.0 0
101515.0 468552.0 0
105595.0 467112.0 0
107892.0 463770.0 0
107996.0 469890.0 0
111073.0 467023.0 0
115170.0 463601.0 0
119531.0 466186.0 0
124615.0 464788.0 0
129248.0 464732.0 0
133242.0 465896.0 0
138518.0 465309.0 0
148566.0 464534.0 0
144046.0 466798.0 0
153108.0 466867.0 0
159148.0 465801.0 0
167683.0 464133.0 0
164739.0 466432.0 0
171184.0 466860.0 0
183065.0 466266.0 0
193803.0 465342.0 0
189324.0 466194.0 0
198331.0 466562.0 0
203243.0 465583.0 0
212160.0 466624.0 0
216356.0 465016.0 0
221209.0 465350.0 0
226358.0 467125.0 0
232012.0 465362.0 0
237966.0 464304.0 0
242865.0 466152.0 0
248051.0 465697.0 0
252892.0 466009.0 0
257723.0 465045.0 0
262627.0 463097.0 0
267553.0 465638.0 0
272643.0 467301.0 0
278419.0 466508.0 0
283507.0 465950.0 0
288766.0 465176.0 0
293427.0 466088.0 0
297418.0 467525.0 0
302639.0 466034.0 0
306716.0 466407.0 0
311540.0 466172.0 0
316503.0 464849.0 0
321783.0 465721.0 0
330394.0 465584.0 0
326641.0 466344.0 0
341003.0 465184.0 0
336657.0 466040.0 0
345540.0 467458.0 0
350423.0 467243.0 0
356413.0 465567.0 0
364813.0 463134.0 0
361331.0 466085.0 0
368227.0 466089.0 0
375080.0 462560.0 0
372344.0 467120.0 0
379130.0 466639.0 0
383717.0 465743.0 0
392312.0 467130.0 0
397164.0 466145.0 0
401698.0 465611.0 0
405016.0 467577.0 0
408499.0 467343.0 0
410363.0 464126.0 0
411784.0 468036.0 0
415402.0 465855.0 0
420473.0 467230.0 0
424051.0 469482.0 0
427955.0 468348.0 0
432531.0 469988.0 0
434267.0 466137.0 0
440335.0 469027.0 0
436757.0 468994.0 0
443577.0 466940.0 0
446883.0 469570.0 0
41601.9 476264.0 0
44640.1 474045.0 0
48573.7 472647.0 0
52002.1 474545.0 0
56942.5 473413.0 0
62022.5 473865.0 0
66350.3 473225.0 0
67695.1 469122.0 0
70503.8 471865.0 0
74171.1 472964.0 0
78164.0 474696.0 0
84003.7 473347.0 0
80553.2 472231.0 0
88258.2 470294.0 0
97795.6 470707.0 0
104250.0 471292.0 0
108070.0 473517.0 0
112710.0 472130.0 0
115563.0 468438.0 0
117691.0 472212.0 0
122984.0 470672.0 0
129345.0 470001.0 0
135092.0 470325.0 0
140314.0 470950.0 0
145182.0 471517.0 0
149686.0 470832.0 0
154003.0 471710.0 0
158194.0 471644.0 0
162553.0 470294.0 0
167194.0 470345.0 0
172500.0 472655.0 0
176900.0 468498.0 0
186976.0 471181.0 0
192499.0 470716.0 0
197906.0 472267.0 0
202676.0 470167.0 0
207369.0 467754.0 0
206713.0 472368.0 0
210686.0 471126.0 0
216431.0 470916.0 0
222729.0 471010.0 0
228345.0 472672.0 0
236046.0 469302.0 0
240961.0 471733.0 0
246438.0 472288.0 0
250915.0 470166.0 0
256765.0 471251.0 0
262820.0 468674.0 0
268244.0 471060.0 0
272864.0 472189.0 0
277816.0 472532.0 0
282029.0 469882.0 0
287046.0 471262.0 0
292967.0 470558.0 0
301766.0 469936.0 0
306024.0 471906.0 0
311258.0 471884.0 0
316579.0 469958.0 0
321953.0 471629.0 0
327546.0 470930.0 0
333365.0 469773.0 0
340936.0 471192.0 0
346626.0 472236.0 0
350883.0 471809.0 0
354115.0 469746.0 0
358992.0 470867.0 0
364772.0 469870.0 0
369874.0 472796.0 0
375523.0 471060.0 0
379554.0 471076.0 0
382851.0 470092.0 0
387260.0 468501.0 0
396362.0 471560.0 0
402178.0 471245.0 0
406688.0 470460.0 0
410624.0 471705.0 0
414370.0 470294.0 0
418837.0 471084.0 0
415001.0 474503.0 0
423174.0 474000.0 0
428432.0 473437.0 0
437604.0 472644.0 0
443019.0 471505.0 0
445005.0 475325.0 0
446779.0 473204.0 0
448019.0 476470.0 0
450965.0 473044.0 0
455851.0 475443.0 0
34068.8 481161.0 0
38112.8 479597.0 0
41993.9 479363.0 0
44053.8 481622.0 0
46105.9 477127.0 0
54880.7 478478.0 0
50368.3 477764.0 0
60065.2 477669.0 0
58283.9 481737.0 0
62556.5 480848.0 0
64589.6 477496.0 0
69705.4 476693.0 0
74279.7 476954.0 0
77492.4 480082.0 0
81409.8 476870.0 0
85061.8 477395.0 0
88251.5 475180.0 0
92825.8 473463.0 0
97157.6 475439.0 0
100822.0 473782.0 0
104115.0 475641.0 0
100182.0 478448.0 0
107575.0 477589.0 0
110970.0 476183.0 0
115577.0 477228.0 0
121107.0 476040.0 0
125766.0 476932.0 0
132773.0 474786.0 0
128679.0 474781.0 0
136416.0 477101.0 0
140807.0 476473.0 0
146045.0 476204.0 0
151633.0 476045.0 0
157508.0 477013.0 0
162504.0 474955.0 0
167559.0 475423.0 0
177207.0 472803.0 0
176492.0 476541.0 0
181483.0 472970.0 0
185943.0 476465.0 0
191714.0 476598.0 0
197435.0 477815.0 0
202714.0 475616.0 0
207665.0 476407.0 0
212175.0 475511.0 0
217244.0 477303.0 0
223374.0 476979.0 0
234011.0 473833.0 0
238471.0 477488.0 0
243849.0 476791.0 0
248973.0 476406.0 0
252366.0 474463.0 0
255546.0 477350.0 0
262530.0 475854.0 0
268716.0 476027.0 0
273473.0 476725.0 0
278356.0 477920.0 0
282758.0 475286.0 0
287928.0 477282.0 0
293152.0 475886.0 0
297792.0 472890.0 0
302483.0 475849.0 0
308249.0 476844.0 0
313173.0 476383.0 0
317247.0 475745.0 0
325240.0 474569.0 0
321954.0 477178.0 0
329166.0 476176.0 0
334119.0 477120.0 0
336407.0 473651.0 0
339337.0 477266.0 0
349880.0 476276.0 0
354661.0 474279.0 0
359335.0 476871.0 0
364672.0 475532.0 0
368760.0 477684.0 0
374796.0 478135.0 0
381081.0 475154.0 0
385753.0 473423.0 0
390491.0 472785.0 0
387906.0 477559.0 0
393642.0 475578.0 0
397465.0 477286.0 0
402459.0 477042.0 0
406813.0 474617.0 0
408432.0 477857.0 0
411273.0 476427.0 0
419178.0 476475.0 0
423467.0 478278.0 0
427861.0 478748.0 0
433367.0 474966.0 0
432577.0 479798.0 0
437070.0 477751.0 0
441411.0 475914.0 0
445157.0 479344.0 0
448934.0 480226.0 0
451891.0 477806.0 0
460300.0 479033.0 0
455623.0 479760.0 0
465355.0 481055.0 0
27234.4 485599.0 0
30955.6 483418.0 0
35977.6 484682.0 0
40668.5 483369.0 0
45239.2 485507.0 0
47827.2 481353.0 0
49740.6 484616.0 0
51441.1 480953.0 0
53800.4 483946.0 0
57277.6 485682.0 0
61644.7 485101.0 0
66837.4 481367.0 0
72108.7 480848.0 0
69938.7 485157.0 0
74580.9 484231.0 0
78907.9 484185.0 0
83062.6 481750.0 0
88931.7 480144.0 0
94015.8 478842.0 0
97040.0 482757.0 0
101917.0 482856.0 0
104466.0 479620.0 0
106322.0 483305.0 0
110521.0 480721.0 0
115148.0 483510.0 0
120773.0 481631.0 0
126208.0 481527.0 0
129954.0 478705.0 0
134485.0 481354.0 0
138853.0 480277.0 0
142816.0 481448.0 0
148298.0 481413.0 0
153833.0 481192.0 0
157994.0 483006.0 0
162416.0 480527.0 0
167738.0 480368.0 0
171835.0 478032.0 0
171334.0 482065.0 0
176902.0 481552.0 0
181191.0 478611.0 0
187002.0 481493.0 0
191646.0 481896.0 0
201646.0 481074.0 0
207172.0 481369.0 0
213003.0 481008.0 0
219846.0 482382.0 0
228998.0 478684.0 0
224954.0 482292.0 0
228693.0 482778.0 0
233425.0 478297.0 0
232739.0 482063.0 0
237004.0 482729.0 0
242098.0 481029.0 0
246555.0 480777.0 0
251474.0 480353.0 0
257774.0 482614.0 0
262742.0 481922.0 0
268248.0 481643.0 0
274060.0 481676.0 0
284546.0 481362.0 0
289608.0 482235.0 0
293189.0 480320.0 0
297601.0 478214.0 0
302292.0 481457.0 0
307336.0 482070.0 0
311810.0 480661.0 0
316526.0 480330.0 0
321039.0 482271.0 0
326115.0 480743.0 0
331519.0 481245.0 0
337125.0 482901.0 0
344817.0 478029.0 0
342210.0 482604.0 0
346034.0 482452.0 0
350227.0 481391.0 0
354894.0 479819.0 0
360502.0 482876.0 0
365204.0 480336.0 0
369458.0 481989.0 0
379965.0 481769.0 0
383707.0 479654.0 0
388024.0 482203.0 0
392768.0 479923.0 0
400355.0 482037.0 0
405633.0 484120.0 0
406143.0 479604.0 0
409914.0 480206.0 0
410770.0 484026.0 0
415319.0 480638.0 0
420441.0 480519.0 0
424311.0 482468.0 0
420013.0 484699.0 0
428781.0 483437.0 0
433755.0 485069.0 0
437375.0 482578.0 0
441092.0 480754.0 0
443994.0 483359.0 0
447169.0 483469.0 0
452221.0 483594.0 0
457656.0 483409.0 0
462845.0 484296.0 0
469196.0 484380.0 0
474205.0 487755.0 0
23539.7 487857.0 0
19560.1 491578.0 0
27122.4 488902.0 0
31473.7 487830.0 0
35998.3 489003.0 0
40582.4 487975.0 0
45119.9 489853.0 0
49646.2 488544.0 0
54327.2 488477.0 0
58436.3 488358.0 0
61984.4 489814.0 0
65569.3 485828.0 0
67124.7 490415.0 0
72839.2 488920.0 0
77036.3 487082.0 0
81884.8 487987.0 0
87289.6 485474.0 0
92224.7 484209.0 0
103727.0 486666.0 0
100008.0 486308.0 0
110036.0 486156.0 0
113724.0 488533.0 0
118775.0 488548.0 0
124165.0 486305.0 0
130220.0 485993.0 0
135564.0 486498.0 0
138875.0 484133.0 0
143087.0 486692.0 0
149025.0 487884.0 0
154322.0 485971.0 0
158615.0 487198.0 0
163614.0 486340.0 0
168911.0 485523.0 0
173803.0 485349.0 0
178195.0 485876.0 0
182487.0 483428.0 0
181840.0 487997.0 0
186656.0 486760.0 0
191758.0 486399.0 0
196435.0 483256.0 0
201240.0 486670.0 0
207247.0 487407.0 0
212178.0 485948.0 0
216877.0 487178.0 0
221643.0 488016.0 0
226106.0 486821.0 0
231051.0 486130.0 0
235902.0 487369.0 0
241305.0 485941.0 0
246746.0 485710.0 0
252440.0 485860.0 0
257587.0 487839.0 0
263702.0 487424.0 0
269593.0 487308.0 0
274561.0 486652.0 0
279336.0 483434.0 0
283955.0 485813.0 0
288532.0 487259.0 0
292590.0 485664.0 0
296415.0 483128.0 0
298627.0 487826.0 0
303515.0 486439.0 0
307649.0 486405.0 0
312160.0 485881.0 0
317412.0 485523.0 0
323123.0 487207.0 0
327746.0 485350.0 0
332423.0 486360.0 0
337288.0 488192.0 0
340887.0 486583.0 0
344409.0 486013.0 0
348487.0 485525.0 0
354251.0 486031.0 0
359580.0 488024.0 0
365776.0 485547.0 0
376274.0 484501.0 0
371471.0 486794.0 0
380193.0 488129.0 0
384001.0 484326.0 0
384705.0 488824.0 0
388255.0 486793.0 0
391500.0 484367.0 0
395845.0 484463.0 0
393065.0 488051.0 0
401271.0 486854.0 0
404981.0 488894.0 0
409332.0 488242.0 0
415079.0 487374.0 0
420099.0 489265.0 0
424933.0 487499.0 0
429702.0 487778.0 0
433962.0 490227.0 0
438030.0 487970.0 0
441029.0 485317.0 0
442125.0 489563.0 0
448872.0 486986.0 0
444998.0 486619.0 0
452356.0 490140.0 0
455443.0 487140.0 0
459283.0 487221.0 0
457735.0 491390.0 0
466008.0 488008.0 0
462370.0 489614.0 0
465980.0 492217.0 0
469571.0 489392.0 0
472576.0 491457.0 0
475851.0 492056.0 0
479689.0 491021.0 0
484491.0 493212.0 0
12267.7 494043.0 0
9948.04 497029.0 0
15306.5 492904.0 0
15337.8 496997.0 0
20869.4 496687.0 0
24433.0 492347.0 0
26573.3 496877.0 0
29221.6 492377.0 0
31018.7 496093.0 0
33740.9 492562.0 0
35325.0 496900.0 0
38822.2 492722.0 0
48132.3 492188.0 0
44098.0 494035.0 0
52174.4 492230.0 0
49087.2 496430.0 0
53841.2 495869.0 0
57318.9 492425.0 0
62336.7 494144.0 0
71622.5 493795.0 0
77121.6 492333.0 0
82822.1 494163.0 0
86348.8 490371.0 0
90498.7 489123.0 0
92972.4 492876.0 0
95825.9 488409.0 0
97834.5 492809.0 0
101323.0 490314.0 0
106456.0 488942.0 0
105307.0 493191.0 0
109912.0 491019.0 0
114251.0 492794.0 0
123859.0 491700.0 0
128249.0 490936.0 0
134187.0 491400.0 0
139792.0 490688.0 0
144399.0 491504.0 0
152560.0 491837.0 0
157204.0 491988.0 0
162090.0 491214.0 0
167176.0 490484.0 0
173477.0 491531.0 0
178835.0 491663.0 0
183801.0 492584.0 0
189535.0 491674.0 0
196030.0 488970.0 0
193997.0 492753.0 0
199845.0 491709.0 0
203980.0 492253.0 0
208415.0 492550.0 0
212799.0 490576.0 0
219099.0 491933.0 0
223351.0 491483.0 0
227647.0 491532.0 0
232479.0 490863.0 0
237814.0 491798.0 0
242360.0 492339.0 0
246735.0 490544.0 0
251911.0 492106.0 0
257373.0 492133.0 0
267659.0 491488.0 0
271726.0 491054.0 0
279877.0 488778.0 0
276063.0 491477.0 0
284231.0 490220.0 0
288508.0 492502.0 0
293521.0 490208.0 0
298634.0 492581.0 0
302455.0 491408.0 0
306509.0 490264.0 0
311452.0 491629.0 0
316549.0 490319.0 0
320996.0 492286.0 0
324469.0 491129.0 0
328243.0 490051.0 0
333611.0 492018.0 0
338991.0 492306.0 0
343113.0 490197.0 0
348956.0 491138.0 0
355415.0 492819.0 0
361754.0 492817.0 0
367514.0 490866.0 0
375635.0 488866.0 0
372807.0 492251.0 0
377547.0 492543.0 0
385386.0 492994.0 0
389920.0 491424.0 0
394341.0 491990.0 0
397439.0 489002.0 0
397853.0 493924.0 0
401561.0 491680.0 0
407312.0 493829.0 0
412042.0 490987.0 0
412931.0 494492.0 0
417154.0 492681.0 0
423303.0 492406.0 0
428702.0 492533.0 0
433622.0 494996.0 0
438601.0 493114.0 0
443260.0 493504.0 0
447056.0 491249.0 0
450668.0 493766.0 0
454488.0 494542.0 0
458925.0 496109.0 0
462146.0 493278.0 0
469894.0 493454.0 0
467238.0 496485.0 0
473783.0 494047.0 0
472440.0 497558.0 0
477181.0 495886.0 0
481580.0 496208.0 0
485315.0 497168.0 0
488266.0 495563.0 0
492074.0 497624.0 0
5924.95 499465.0 0
6398.39 504012.0 0
11749.3 501478.0 0
17917.8 501641.0 0
23066.1 500532.0 0
27095.9 500728.0 0
31737.8 500366.0 0
40352.0 497602.0 0
44857.2 498364.0 0
52920.3 500007.0 0
58272.5 497945.0 0
63383.8 498348.0 0
66895.8 495678.0 0
66996.0 500187.0 0
70763.3 498268.0 0
74672.1 496660.0 0
78547.7 497160.0 0
82518.7 499757.0 0
88417.7 494581.0 0
87151.0 499048.0 0
92305.8 497113.0 0
95596.7 495334.0 0
96588.3 499266.0 0
100885.0 495951.0 0
105125.0 497874.0 0
109842.0 496125.0 0
115257.0 498112.0 0
119243.0 494281.0 0
124946.0 496772.0 0
129758.0 495148.0 0
134173.0 497187.0 0
139504.0 496364.0 0
144538.0 495603.0 0
147398.0 498017.0 0
148604.0 493818.0 0
152738.0 495949.0 0
162964.0 495445.0 0
158718.0 496397.0 0
168261.0 495931.0 0
172757.0 497160.0 0
177399.0 496980.0 0
182569.0 497493.0 0
187241.0 496595.0 0
192405.0 496784.0 0
198066.0 496435.0 0
203035.0 496240.0 0
207431.0 497261.0 0
212141.0 495528.0 0
217273.0 497004.0 0
222524.0 495704.0 0
227489.0 497096.0 0
232487.0 495569.0 0
237120.0 496103.0 0
241406.0 496799.0 0
246122.0 495557.0 0
250344.0 497177.0 0
254513.0 496597.0 0
258797.0 497267.0 0
262201.0 493626.0 0
267342.0 496814.0 0
272426.0 494951.0 0
277089.0 496770.0 0
283028.0 495582.0 0
288028.0 497043.0 0
292565.0 495780.0 0
297174.0 496513.0 0
301895.0 496436.0 0
306712.0 494987.0 0
315861.0 495224.0 0
311193.0 496984.0 0
320190.0 496709.0 0
325867.0 495842.0 0
332201.0 498075.0 0
337894.0 497137.0 0
342970.0 495228.0 0
347535.0 496730.0 0
352137.0 497377.0 0
356961.0 498312.0 0
361469.0 498189.0 0
365859.0 497014.0 0
370408.0 496275.0 0
375431.0 497274.0 0
381287.0 494171.0 0
379943.0 497459.0 0
384099.0 497272.0 0
388801.0 496111.0 0
393301.0 496136.0 0
397789.0 498614.0 0
402140.0 496283.0 0
411010.0 498893.0 0
416245.0 497963.0 0
420559.0 496050.0 0
425623.0 497349.0 0
431305.0 499409.0 0
436577.0 498384.0 0
441886.0 497821.0 0
447039.0 496349.0 0
449271.0 499720.0 0
451477.0 497130.0 0
452029.0 500738.0 0
455987.0 499467.0 0
460964.0 500353.0 0
463269.0 496946.0 0
465217.0 500531.0 0
469090.0 500063.0 0
476135.0 499554.0 0
473027.0 502388.0 0
479702.0 499670.0 0
477592.0 502739.0 0
481449.0 503031.0 0
484177.0 500575.0 0
488388.0 503167.0 0
488356.0 499580.0 0
492125.0 502143.0 0
495667.0 500013.0 0
2099.02 501740.0 0
10783.3 506007.0 0
14879.3 505747.0 0
19159.3 506793.0 0
21455.5 504104.0 0
24917.0 504137.0 0
28891.9 504021.0 0
37005.6 502011.0 0
37207.0 505820.0 0
42495.1 501865.0 0
40423.3 505847.0 0
47844.9 501935.0 0
44517.1 505634.0 0
52073.6 504747.0 0
56589.7 503141.0 0
61650.7 502487.0 0
65714.0 503473.0 0
70294.8 502474.0 0
74260.4 500761.0 0
78120.7 501013.0 0
80171.6 504762.0 0
85876.7 503287.0 0
91350.1 502387.0 0
101578.0 501428.0 0
106435.0 501850.0 0
110987.0 501654.0 0
115667.0 503546.0 0
120561.0 499339.0 0
124940.0 501866.0 0
129503.0 500241.0 0
133937.0 501654.0 0
138410.0 501715.0 0
143734.0 499825.0 0
147156.0 502261.0 0
151103.0 500050.0 0
156029.0 499937.0 0
161529.0 500405.0 0
167472.0 502010.0 0
173223.0 501433.0 0
178335.0 502450.0 0
183976.0 502189.0 0
189445.0 501292.0 0
194373.0 501275.0 0
203885.0 500469.0 0
199218.0 502111.0 0
208372.0 502306.0 0
213206.0 500818.0 0
217927.0 502298.0 0
222500.0 501469.0 0
227501.0 501673.0 0
231575.0 499741.0 0
235552.0 500210.0 0
241064.0 501188.0 0
246280.0 501429.0 0
252720.0 501895.0 0
257760.0 501004.0 0
262571.0 500224.0 0
268503.0 501535.0 0
272345.0 499602.0 0
276521.0 501809.0 0
282710.0 501379.0 0
287940.0 501453.0 0
293229.0 501241.0 0
297895.0 500360.0 0
302023.0 502399.0 0
306625.0 499858.0 0
311243.0 502203.0 0
317008.0 501005.0 0
322724.0 501087.0 0
326534.0 500748.0 0
331161.0 502499.0 0
335193.0 502947.0 0
340271.0 501853.0 0
344491.0 499752.0 0
348992.0 501487.0 0
354550.0 503484.0 0
360498.0 502957.0 0
366027.0 502333.0 0
371244.0 501029.0 0
376139.0 503183.0 0
381611.0 501771.0 0
387506.0 501103.0 0
392972.0 500909.0 0
399430.0 503768.0 0
404495.0 504452.0 0
405677.0 499693.0 0
409595.0 503966.0 0
414756.0 502841.0 0
420951.0 502123.0 0
427020.0 502095.0 0
434732.0 502389.0 0
438895.0 502476.0 0
446233.0 500876.0 0
443097.0 502269.0 0
442100.0 504511.0 0
449739.0 503232.0 0
454092.0 503912.0 0
458777.0 503969.0 0
463555.0 504335.0 0
468389.0 504045.0 0
475490.0 505542.0 0
479904.0 506841.0 0
485374.0 505779.0 0
490572.0 506245.0 0
497874.0 503047.0 0
495083.0 505739.0 0
2102.37 505839.0 0
2773.07 510346.0 0
7626.56 509021.0 0
12426.6 509665.0 0
22979.5 507490.0 0
16384.3 509853.0 0
27309.3 508279.0 0
33021.6 506435.0 0
37594.4 509610.0 0
48239.1 507553.0 0
55498.2 508243.0 0
59515.1 506409.0 0
63524.0 506991.0 0
68499.8 506654.0 0
74000.8 505765.0 0
77558.7 507546.0 0
75934.5 509968.0 0
84244.3 507217.0 0
90540.7 508721.0 0
96931.0 504520.0 0
95417.5 508658.0 0
100059.0 508765.0 0
104361.0 505970.0 0
109822.0 507579.0 0
115597.0 508463.0 0
120514.0 504437.0 0
124910.0 506844.0 0
129825.0 505362.0 0
134635.0 506087.0 0
142328.0 504352.0 0
138869.0 507758.0 0
145888.0 507210.0 0
151038.0 505729.0 0
157091.0 505181.0 0
162902.0 506363.0 0
171335.0 506316.0 0
175671.0 507982.0 0
183387.0 506115.0 0
179915.0 507114.0 0
187430.0 506349.0 0
192792.0 505873.0 0
198098.0 507732.0 0
203068.0 505523.0 0
206965.0 507831.0 0
211107.0 506374.0 0
215767.0 506639.0 0
221268.0 506717.0 0
227208.0 507013.0 0
231682.0 503930.0 0
237653.0 505958.0 0
243915.0 506619.0 0
248966.0 506393.0 0
254209.0 508013.0 0
257365.0 504343.0 0
260307.0 506376.0 0
265453.0 505380.0 0
272337.0 505907.0 0
279435.0 506522.0 0
285605.0 505550.0 0
290243.0 505400.0 0
297227.0 505577.0 0
302201.0 507481.0 0
306737.0 505218.0 0
312120.0 508287.0 0
318074.0 506832.0 0
323175.0 506043.0 0
327755.0 504299.0 0
331947.0 506809.0 0
336367.0 508170.0 0
340025.0 506413.0 0
344738.0 505184.0 0
349995.0 507114.0 0
358537.0 507842.0 0
363368.0 507296.0 0
367913.0 506927.0 0
372142.0 506030.0 0
375878.0 508560.0 0
379766.0 506608.0 0
385275.0 507089.0 0
390598.0 504650.0 0
391176.0 509330.0 0
394676.0 505404.0 0
397248.0 508918.0 0
401957.0 508613.0 0
407174.0 508569.0 0
412494.0 508814.0 0
416836.0 506683.0 0
420971.0 508246.0 0
425842.0 506493.0 0
431228.0 505153.0 0
436065.0 506302.0 0
440504.0 506976.0 0
445819.0 506158.0 0
448087.0 511290.0 0
451278.0 507602.0 0
456369.0 508098.0 0
461194.0 507980.0 0
463441.0 511795.0 0
466957.0 508490.0 0
471744.0 511168.0 0
471926.0 506768.0 0
476544.0 511852.0 0
475600.0 508894.0 0
479097.0 510651.0 0
483844.0 511012.0 0
488869.0 509667.0 0
493294.0 509715.0 0
497811.0 509046.0 0
2483.82 515472.0 0
6053.65 513435.0 0
10159.0 513235.0 0
14139.2 513167.0 0
12215.2 517015.0 0
16990.3 512979.0 0
17385.6 516661.0 0
21125.5 511959.0 0
26751.0 513339.0 0
31993.6 514622.0 0
30690.0 510701.0 0
33801.6 511152.0 0
38017.3 515435.0 0
43335.4 510696.0 0
51125.5 511714.0 0
46837.4 514764.0 0
55888.3 512441.0 0
53999.1 515718.0 0
60299.9 510897.0 0
58368.7 515494.0 0
65656.7 511179.0 0
71339.0 511572.0 0
76697.1 513600.0 0
80303.7 510316.0 0
81386.4 514587.0 0
85692.1 511647.0 0
94433.0 512953.0 0
99346.7 513550.0 0
104916.0 511604.0 0
109059.0 514131.0 0
112767.0 512177.0 0
117290.0 513678.0 0
120527.0 509563.0 0
127465.0 511726.0 0
133204.0 510948.0 0
137737.0 512355.0 0
142832.0 511560.0 0
148195.0 510885.0 0
153044.0 511317.0 0
157886.0 510235.0 0
162328.0 511937.0 0
167473.0 510303.0 0
172729.0 511331.0 0
178429.0 512349.0 0
183727.0 510201.0 0
190635.0 510898.0 0
195581.0 512449.0 0
203466.0 510832.0 0
199945.0 513082.0 0
208304.0 511831.0 0
212686.0 510912.0 0
217766.0 511348.0 0
223439.0 511513.0 0
227823.0 511995.0 0
232864.0 511255.0 0
238042.0 511963.0 0
242312.0 510809.0 0
246640.0 510704.0 0
251488.0 512456.0 0
257650.0 512331.0 0
262655.0 510595.0 0
268051.0 510623.0 0
273565.0 512533.0 0
279354.0 512701.0 0
283923.0 509735.0 0
288971.0 510458.0 0
293414.0 508577.0 0
293800.0 512782.0 0
298785.0 511324.0 0
302845.0 510905.0 0
307153.0 510748.0 0
316114.0 511690.0 0
321014.0 511840.0 0
327261.0 510219.0 0
333064.0 511762.0 0
340023.0 510540.0 0
337211.0 513523.0 0
345733.0 511663.0 0
351697.0 511853.0 0
361505.0 511012.0 0
357094.0 513338.0 0
366320.0 512033.0 0
371731.0 510772.0 0
375925.0 513291.0 0
381214.0 512109.0 0
386842.0 512978.0 0
391507.0 514519.0 0
395093.0 512377.0 0
399472.0 513108.0 0
404858.0 513283.0 0
410219.0 514067.0 0
417286.0 511141.0 0
414082.0 512898.0 0
420963.0 512671.0 0
418733.0 515043.0 0
425008.0 511512.0 0
429735.0 509960.0 0
434186.0 510269.0 0
433411.0 514117.0 0
438181.0 509909.0 0
438391.0 514505.0 0
442862.0 511114.0 0
449331.0 515507.0 0
453622.0 512556.0 0
458859.0 511786.0 0
462201.0 516119.0 0
467694.0 513160.0 0
470967.0 515831.0 0
475209.0 514609.0 0
480025.0 514195.0 0
488204.0 513734.0 0
492994.0 514062.0 0
497579.0 513178.0 0
2472.62 520033.0 0
7138.35 517635.0 0
10272.5 520445.0 0
14405.0 520845.0 0
19278.9 521350.0 0
22978.9 517657.0 0
28302.2 518170.0 0
33207.1 519349.0 0
42383.6 519613.0 0
43147.8 515664.0 0
47186.7 519247.0 0
50321.0 516285.0 0
52143.8 519414.0 0
55996.2 518762.0 0
60646.6 520251.0 0
63171.3 515271.0 0
66207.2 519103.0 0
67688.5 515169.0 0
70610.4 518739.0 0
73503.7 515943.0 0
75713.9 520162.0 0
80852.1 518448.0 0
84930.7 516256.0 0
89767.6 514762.0 0
88150.0 518456.0 0
91788.7 518712.0 0
96728.9 517982.0 0
102589.0 517361.0 0
108002.0 518827.0 0
113133.0 516925.0 0
122462.0 514352.0 0
118990.0 518643.0 0
123933.0 518915.0 0
127858.0 516840.0 0
132407.0 516179.0 0
137389.0 516916.0 0
141924.0 517959.0 0
147015.0 515886.0 0
152170.0 518119.0 0
156605.0 515150.0 0
162165.0 518226.0 0
169564.0 516652.0 0
176206.0 518097.0 0
181826.0 517091.0 0
186389.0 514587.0 0
191199.0 516180.0 0
195928.0 517121.0 0
200694.0 518288.0 0
205055.0 515366.0 0
208567.0 517599.0 0
211752.0 515506.0 0
216635.0 516670.0 0
221841.0 515959.0 0
226833.0 516486.0 0
232119.0 515517.0 0
236212.0 516851.0 0
241573.0 515315.0 0
246894.0 515809.0 0
251546.0 516706.0 0
256249.0 517464.0 0
261518.0 515919.0 0
266279.0 515058.0 0
270497.0 517316.0 0
276575.0 517503.0 0
284797.0 514860.0 0
290216.0 515269.0 0
293866.0 517384.0 0
297432.0 515686.0 0
302754.0 514060.0 0
307355.0 514675.0 0
309923.0 517370.0 0
312627.0 514091.0 0
316803.0 515735.0 0
325859.0 515568.0 0
321327.0 517806.0 0
331435.0 516738.0 0
336182.0 517640.0 0
341166.0 516312.0 0
346050.0 517285.0 0
349863.0 515897.0 0
353727.0 517556.0 0
362356.0 516699.0 0
371610.0 515495.0 0
367602.0 517140.0 0
375637.0 518420.0 0
379872.0 516765.0 0
384281.0 517667.0 0
390483.0 519433.0 0
396045.0 517374.0 0
401739.0 517650.0 0
406480.0 518027.0 0
410702.0 518986.0 0
414850.0 516756.0 0
418762.0 519301.0 0
423584.0 516908.0 0
429056.0 514740.0 0
434808.0 518135.0 0
444198.0 516828.0 0
448423.0 519347.0 0
453419.0 518693.0 0
457668.0 515672.0 0
464402.0 520291.0 0
466650.0 516673.0 0
469228.0 519981.0 0
474560.0 519210.0 0
478435.0 517333.0 0
484316.0 516509.0 0
490124.0 517628.0 0
496672.0 518176.0 0
2688.23 524865.0 0
6778.75 522163.0 0
11187.3 523818.0 0
15955.1 525094.0 0
24110.9 522246.0 0
28287.4 522354.0 0
37735.6 521019.0 0
40836.8 524649.0 0
45129.1 522754.0 0
49753.8 523729.0 0
55092.2 522789.0 0
65023.2 524322.0 0
70754.1 523636.0 0
80398.3 523214.0 0
84839.8 520215.0 0
84493.6 523630.0 0
89004.7 522830.0 0
94525.3 523182.0 0
100209.0 522647.0 0
105175.0 522974.0 0
108404.0 522804.0 0
112709.0 522637.0 0
121381.0 523183.0 0
125092.0 522251.0 0
128845.0 521345.0 0
133231.0 520483.0 0
137121.0 521597.0 0
141360.0 522148.0 0
146749.0 521794.0 0
152183.0 523487.0 0
156738.0 521309.0 0
161023.0 523764.0 0
167048.0 522931.0 0
172550.0 521614.0 0
179543.0 521602.0 0
184388.0 522374.0 0
189536.0 520679.0 0
193852.0 521715.0 0
197688.0 521372.0 0
203082.0 522152.0 0
206373.0 519916.0 0
212401.0 521261.0 0
216951.0 521188.0 0
221111.0 520791.0 0
225869.0 521484.0 0
231102.0 519907.0 0
235800.0 521776.0 0
240526.0 520528.0 0
248581.0 520557.0 0
252690.0 520348.0 0
260057.0 520535.0 0
256137.0 522458.0 0
265468.0 520307.0 0
272726.0 520818.0 0
275453.0 521429.0 0
281894.0 520408.0 0
288272.0 519965.0 0
293431.0 522044.0 0
298768.0 520134.0 0
304618.0 518782.0 0
309062.0 521060.0 0
313742.0 518760.0 0
312893.0 523524.0 0
317443.0 520797.0 0
323209.0 522957.0 0
327472.0 520049.0 0
332500.0 521533.0 0
336405.0 522235.0 0
341658.0 521825.0 0
346631.0 521633.0 0
351150.0 521043.0 0
357330.0 520695.0 0
362817.0 522928.0 0
368001.0 521343.0 0
372638.0 523148.0 0
381389.0 521282.0 0
377653.0 522834.0 0
386019.0 523101.0 0
394541.0 522227.0 0
399233.0 522195.0 0
404284.0 521900.0 0
409194.0 523893.0 0
414568.0 522083.0 0
419331.0 523892.0 0
424433.0 522889.0 0
429806.0 520328.0 0
435318.0 523135.0 0
439570.0 519950.0 0
445475.0 522338.0 0
450104.0 522875.0 0
454658.0 523915.0 0
459056.0 520525.0 0
462192.0 524124.0 0
466094.0 524177.0 0
469942.0 525117.0 0
472312.0 522608.0 0
476238.0 524718.0 0
481155.0 521117.0 0
484797.0 524620.0 0
486895.0 520861.0 0
488793.0 525244.0 0
492217.0 521989.0 0
497294.0 523487.0 0
3489.55 529967.0 0
7535.2 526636.0 0
12216.3 527935.0 0
13220.0 531723.0 0
17654.2 530098.0 0
21143.5 525815.0 0
26250.1 526339.0 0
28743.2 529977.0 0
33460.1 525796.0 0
39160.4 530307.0 0
45545.0 527167.0 0
49235.8 530165.0 0
53616.5 527873.0 0
59220.3 525974.0 0
63199.4 529393.0 0
67970.7 528657.0 0
76186.2 525308.0 0
72902.1 528678.0 0
79169.3 528790.0 0
84414.2 527912.0 0
89606.6 527824.0 0
94301.6 527904.0 0
98121.5 526947.0 0
103179.0 528039.0 0
108034.0 525979.0 0
112273.0 528916.0 0
117239.0 525542.0 0
121147.0 528776.0 0
126368.0 526287.0 0
132167.0 525623.0 0
137713.0 526455.0 0
143575.0 527153.0 0
148679.0 526432.0 0
157376.0 526310.0 0
153091.0 528012.0 0
163632.0 526085.0 0
168458.0 528314.0 0
171197.0 525057.0 0
176223.0 525598.0 0
182063.0 527642.0 0
189286.0 525914.0 0
194397.0 526426.0 0
199597.0 525738.0 0
203787.0 527585.0 0
207584.0 524703.0 0
211039.0 528373.0 0
216319.0 526702.0 0
221772.0 525061.0 0
226636.0 526751.0 0
232584.0 525884.0 0
238569.0 525704.0 0
244826.0 524738.0 0
251430.0 525408.0 0
256885.0 526983.0 0
261886.0 525116.0 0
270061.0 524315.0 0
266274.0 528449.0 0
274148.0 527097.0 0
277843.0 524424.0 0
283189.0 526770.0 0
288733.0 525283.0 0
293027.0 527507.0 0
297071.0 524965.0 0
302857.0 525218.0 0
308662.0 526051.0 0
318235.0 526052.0 0
323904.0 528391.0 0
328489.0 525230.0 0
333698.0 527073.0 0
339191.0 526516.0 0
344563.0 526165.0 0
349583.0 525476.0 0
354101.0 524299.0 0
358333.0 527315.0 0
363492.0 528463.0 0
367735.0 526082.0 0
371619.0 527853.0 0
376201.0 527595.0 0
381336.0 525992.0 0
387474.0 527134.0 0
391025.0 524675.0 0
389966.0 528617.0 0
394154.0 528143.0 0
399126.0 527459.0 0
404437.0 527085.0 0
408725.0 528654.0 0
413239.0 527483.0 0
418489.0 529129.0 0
424094.0 528259.0 0
427896.0 529568.0 0
429070.0 525897.0 0
430138.0 530371.0 0
434283.0 528920.0 0
440922.0 525438.0 0
446429.0 526534.0 0
451045.0 527564.0 0
458537.0 525024.0 0
456148.0 528340.0 0
461335.0 528756.0 0
466921.0 528903.0 0
472536.0 529145.0 0
477595.0 529709.0 0
480882.0 526532.0 0
484931.0 529343.0 0
489524.0 529191.0 0
492304.0 531777.0 0
493653.0 527313.0 0
498108.0 527831.0 0
2113.18 534317.0 0
8796.51 531109.0 0
11121.9 534537.0 0
14707.8 534965.0 0
18064.1 534479.0 0
23226.7 530469.0 0
21963.2 535055.0 0
26818.2 534152.0 0
33040.7 533312.0 0
44237.3 531352.0 0
41967.8 534946.0 0
52724.3 533123.0 0
57971.8 531623.0 0
64406.4 534191.0 0
68883.4 532895.0 0
72956.8 533364.0 0
77620.1 533470.0 0
82341.7 532603.0 0
87175.1 531808.0 0
92089.5 532314.0 0
97463.1 531297.0 0
101995.0 533832.0 0
108008.0 533834.0 0
116919.0 531556.0 0
113216.0 533794.0 0
121625.0 533523.0 0
126167.0 532067.0 0
132097.0 531641.0 0
137932.0 532099.0 0
147954.0 531006.0 0
142965.0 532499.0 0
152984.0 532644.0 0
157786.0 531283.0 0
162962.0 530555.0 0
167561.0 533292.0 0
172672.0 530406.0 0
178324.0 530804.0 0
182632.0 532746.0 0
186636.0 530300.0 0
192329.0 530948.0 0
196902.0 531442.0 0
201409.0 531161.0 0
207063.0 531051.0 0
212749.0 531509.0 0
217705.0 532635.0 0
221966.0 529720.0 0
226886.0 531837.0 0
231633.0 531498.0 0
236530.0 530860.0 0
241319.0 530186.0 0
240132.0 533547.0 0
245884.0 530077.0 0
250495.0 531292.0 0
255239.0 531136.0 0
260805.0 531275.0 0
266743.0 533892.0 0
271158.0 530795.0 0
277985.0 530500.0 0
283223.0 533551.0 0
288296.0 530559.0 0
293339.0 532395.0 0
298303.0 530155.0 0
303364.0 530757.0 0
308084.0 531057.0 0
314224.0 531343.0 0
319122.0 530776.0 0
322299.0 533997.0 0
329387.0 530589.0 0
333502.0 531370.0 0
337041.0 531063.0 0
342324.0 531545.0 0
347577.0 530774.0 0
352822.0 530131.0 0
357587.0 532284.0 0
362201.0 533275.0 0
367416.0 531607.0 0
373067.0 532365.0 0
383176.0 530870.0 0
378327.0 531811.0 0
386937.0 531641.0 0
390107.0 532393.0 0
393442.0 531839.0 0
397221.0 531936.0 0
405162.0 533076.0 0
411291.0 532501.0 0
416463.0 534379.0 0
421480.0 533625.0 0
426141.0 532821.0 0
431003.0 533685.0 0
435838.0 534484.0 0
440048.0 531245.0 0
444689.0 529835.0 0
444230.0 534108.0 0
448748.0 532338.0 0
454472.0 532687.0 0
459396.0 533665.0 0
464242.0 533214.0 0
469441.0 533373.0 0
474735.0 534054.0 0
481133.0 534158.0 0
488180.0 533597.0 0
497015.0 532375.0 0
2702.97 538892.0 0
6693.88 535524.0 0
7101.79 540305.0 0
10967.4 538449.0 0
18444.1 538561.0 0
24289.4 538344.0 0
27911.7 538345.0 0
34002.7 538810.0 0
37770.2 536371.0 0
42304.1 539817.0 0
47489.6 535161.0 0
52168.1 538964.0 0
59788.7 536391.0 0
57139.7 539998.0 0
63670.6 539517.0 0
68544.5 537398.0 0
73404.0 537798.0 0
82289.6 537675.0 0
77600.9 537771.0 0
88007.0 536584.0 0
93241.9 537391.0 0
98098.1 537232.0 0
102878.0 538973.0 0
107199.0 538950.0 0
111994.0 537926.0 0
117687.0 537120.0 0
123554.0 537368.0 0
128834.0 537132.0 0
134078.0 536459.0 0
137978.0 536514.0 0
141619.0 536440.0 0
146610.0 536614.0 0
152073.0 537468.0 0
159751.0 535444.0 0
163685.0 535765.0 0
166937.0 537845.0 0
172414.0 534674.0 0
178019.0 536316.0 0
183457.0 537439.0 0
188399.0 535307.0 0
194066.0 536030.0 0
199221.0 535915.0 0
204334.0 535865.0 0
214174.0 535024.0 0
209664.0 536182.0 0
217513.0 537018.0 0
222207.0 535210.0 0
226343.0 535627.0 0
230547.0 537001.0 0
235820.0 535593.0 0
244021.0 534353.0 0
240169.0 537212.0 0
250360.0 536675.0 0
256460.0 536513.0 0
262639.0 536900.0 0
272592.0 536409.0 0
278388.0 536298.0 0
283047.0 539105.0 0
289518.0 536104.0 0
294444.0 536927.0 0
298890.0 535569.0 0
303126.0 534743.0 0
307298.0 536160.0 0
312456.0 537396.0 0
317450.0 536001.0 0
324091.0 538516.0 0
327530.0 535362.0 0
332743.0 535577.0 0
338600.0 536676.0 0
346278.0 534197.0 0
343908.0 537042.0 0
350588.0 536143.0 0
358166.0 536600.0 0
363314.0 538038.0 0
367957.0 536917.0 0
373085.0 537913.0 0
377494.0 535893.0 0
382294.0 535932.0 0
386896.0 536046.0 0
389801.0 536751.0 0
394022.0 536396.0 0
400056.0 536146.0 0
403740.0 539306.0 0
409199.0 538391.0 0
416427.0 540074.0 0
422726.0 539010.0 0
427820.0 537073.0 0
432754.0 538117.0 0
437947.0 539233.0 0
440599.0 535686.0 0
443547.0 539008.0 0
447560.0 536855.0 0
451708.0 536360.0 0
450085.0 539708.0 0
456835.0 538779.0 0
462270.0 537444.0 0
466471.0 536855.0 0
471059.0 538118.0 0
476974.0 539684.0 0
483390.0 539978.0 0
488877.0 538571.0 0
492781.0 535682.0 0
493033.0 539298.0 0
497147.0 538029.0 0
1742.97 543063.0 0
10223.0 543228.0 0
5382.03 544148.0 0
14287.0 541268.0 0
18124.3 543144.0 0
22168.0 541686.0 0
26062.4 541373.0 0
30254.3 541785.0 0
35091.6 543263.0 0
37865.7 540132.0 0
39665.1 543931.0 0
44508.7 544554.0 0
47193.4 540476.0 0
49938.3 542984.0 0
53912.2 544319.0 0
60199.9 543730.0 0
66938.1 543795.0 0
70817.7 541188.0 0
75570.7 541770.0 0
78636.8 540456.0 0
81143.8 542599.0 0
86736.4 542607.0 0
93449.4 542276.0 0
98861.7 542502.0 0
103457.0 542938.0 0
109626.0 541976.0 0
113821.0 541854.0 0
122343.0 541312.0 0
118003.0 542770.0 0
126464.0 541953.0 0
131866.0 541305.0 0
136827.0 540762.0 0
139836.0 543502.0 0
143503.0 541619.0 0
149452.0 541203.0 0
156948.0 540214.0 0
162904.0 540418.0 0
167704.0 542430.0 0
173005.0 540357.0 0
183194.0 541878.0 0
178649.0 542436.0 0
186904.0 540700.0 0
192051.0 540923.0 0
197021.0 540286.0 0
202102.0 540701.0 0
207590.0 541318.0 0
213796.0 539397.0 0
217057.0 542250.0 0
220560.0 540052.0 0
225454.0 539553.0 0
229439.0 542050.0 0
236451.0 541066.0 0
240616.0 543279.0 0
245157.0 540487.0 0
252440.0 541586.0 0
257152.0 541965.0 0
262077.0 541640.0 0
267405.0 539402.0 0
272471.0 542509.0 0
277661.0 541278.0 0
289314.0 540855.0 0
285778.0 542919.0 0
292955.0 540496.0 0
297413.0 541391.0 0
303264.0 539821.0 0
308907.0 541870.0 0
314847.0 542780.0 0
319910.0 540276.0 0
323720.0 543335.0 0
328587.0 540895.0 0
334495.0 540796.0 0
338317.0 542548.0 0
343009.0 542324.0 0
348504.0 541329.0 0
354732.0 540177.0 0
358955.0 540495.0 0
362146.0 541929.0 0
366558.0 541827.0 0
371714.0 543112.0 0
376819.0 539775.0 0
377090.0 544013.0 0
380511.0 540441.0 0
385107.0 540145.0 0
389880.0 540212.0 0
396054.0 541902.0 0
400169.0 540499.0 0
406589.0 543645.0 0
411877.0 544048.0 0
416623.0 545227.0 0
420259.0 543537.0 0
425417.0 543668.0 0
429224.0 541273.0 0
434007.0 543162.0 0
441194.0 544014.0 0
447375.0 542652.0 0
452601.0 543031.0 0
457398.0 544358.0 0
461709.0 541785.0 0
466886.0 540834.0 0
465113.0 544427.0 0
470999.0 543567.0 0
480255.0 543761.0 0
485625.0 544576.0 0
491422.0 544038.0 0
497376.0 543313.0 0
2103.24 546760.0 0
8427.05 547983.0 0
14230.3 546613.0 0
20185.5 547461.0 0
25673.1 545911.0 0
31255.5 546942.0 0
41124.1 547859.0 0
36589.4 547873.0 0
44962.8 549150.0 0
48971.7 546879.0 0
52797.5 549507.0 0
57588.9 548427.0 0
63205.8 547961.0 0
67782.3 548547.0 0
72313.9 545983.0 0
77768.4 545824.0 0
82808.9 547455.0 0
88791.7 548864.0 0
92704.8 546225.0 0
97470.6 546583.0 0
102103.0 546560.0 0
106868.0 545615.0 0
111941.0 545771.0 0
122446.0 544832.0 0
117635.0 547323.0 0
122155.0 549212.0 0
127029.0 547008.0 0
131877.0 545904.0 0
137049.0 545726.0 0
142101.0 546470.0 0
147272.0 545938.0 0
152975.0 544449.0 0
156982.0 547311.0 0
160724.0 544851.0 0
165030.0 546251.0 0
171573.0 546244.0 0
176522.0 546914.0 0
180627.0 546902.0 0
185382.0 545819.0 0
190209.0 545175.0 0
195324.0 545893.0 0
201305.0 546109.0 0
206562.0 546555.0 0
212553.0 545233.0 0
218399.0 546463.0 0
223136.0 544401.0 0
227684.0 547172.0 0
232736.0 545551.0 0
238092.0 547134.0 0
243710.0 546784.0 0
248552.0 545403.0 0
254952.0 545697.0 0
251663.0 548702.0 0
259727.0 545935.0 0
266451.0 546406.0 0
272394.0 547460.0 0
276265.0 546130.0 0
281334.0 545064.0 0
286821.0 547503.0 0
292437.0 545306.0 0
298356.0 547235.0 0
303059.0 545112.0 0
307210.0 546471.0 0
312017.0 547934.0 0
318589.0 547064.0 0
323254.0 547706.0 0
327507.0 546445.0 0
332103.0 545195.0 0
337174.0 546286.0 0
341565.0 547468.0 0
347403.0 546811.0 0
353248.0 545467.0 0
358852.0 544325.0 0
363386.0 546359.0 0
368077.0 546054.0 0
371696.0 547015.0 0
378448.0 548959.0 0
382931.0 545390.0 0
391735.0 544744.0 0
387948.0 547485.0 0
395820.0 546862.0 0
400992.0 545610.0 0
408086.0 548133.0 0
412333.0 548893.0 0
418810.0 548235.0 0
422574.0 546992.0 0
429514.0 546008.0 0
433149.0 547265.0 0
437208.0 546740.0 0
445359.0 546660.0 0
449722.0 547099.0 0
453999.0 547290.0 0
457799.0 548728.0 0
461380.0 546088.0 0
466630.0 548744.0 0
472309.0 549269.0 0
476171.0 545288.0 0
477388.0 549534.0 0
481949.0 548032.0 0
487576.0 549360.0 0
492990.0 549708.0 0
497601.0 548193.0 0
3519.89 552049.0 0
8862.46 552664.0 0
12917.9 551741.0 0
18512.2 553277.0 0
23932.6 551241.0 0
29064.1 552041.0 0
33628.6 551142.0 0
39093.6 552520.0 0
44172.3 553477.0 0
48413.7 551596.0 0
52158.0 554005.0 0
57022.9 553745.0 0
61558.1 552310.0 0
66087.4 552721.0 0
71361.5 551782.0 0
77892.3 552012.0 0
83790.6 552371.0 0
87469.5 553737.0 0
94606.5 549842.0 0
99484.2 551787.0 0
104149.0 552250.0 0
108475.0 550460.0 0
113754.0 550446.0 0
118248.0 551579.0 0
126261.0 551945.0 0
130628.0 550768.0 0
134680.0 549374.0 0
139327.0 550370.0 0
144569.0 550919.0 0
152043.0 550623.0 0
157451.0 552764.0 0
161626.0 550002.0 0
167687.0 550283.0 0
174277.0 551537.0 0
179584.0 551072.0 0
184411.0 551145.0 0
189263.0 549448.0 0
198656.0 550209.0 0
193943.0 551855.0 0
202557.0 552131.0 0
207317.0 551679.0 0
212757.0 551624.0 0
217656.0 550929.0 0
222266.0 549738.0 0
226592.0 551858.0 0
231523.0 550978.0 0
236422.0 551661.0 0
241303.0 551786.0 0
247271.0 550785.0 0
251883.0 552705.0 0
256729.0 550951.0 0
261932.0 550880.0 0
266175.0 553713.0 0
272371.0 552204.0 0
277573.0 551251.0 0
282423.0 550546.0 0
287434.0 552758.0 0
293415.0 551984.0 0
298875.0 552121.0 0
303271.0 550166.0 0
308136.0 551185.0 0
315537.0 552195.0 0
311367.0 553254.0 0
320599.0 551814.0 0
326291.0 552004.0 0
333344.0 551223.0 0
339319.0 551755.0 0
343666.0 551288.0 0
347585.0 551613.0 0
351991.0 550971.0 0
357760.0 549584.0 0
362966.0 551391.0 0
368130.0 550866.0 0
372187.0 554280.0 0
373758.0 549781.0 0
383119.0 551521.0 0
392037.0 549686.0 0
388211.0 552733.0 0
396841.0 551217.0 0
402551.0 552148.0 0
407188.0 551718.0 0
410841.0 553124.0 0
416050.0 551519.0 0
421237.0 551906.0 0
426458.0 550249.0 0
430714.0 553237.0 0
435007.0 550810.0 0
441401.0 550633.0 0
448102.0 552384.0 0
454232.0 551409.0 0
458408.0 552754.0 0
461809.0 550184.0 0
464785.0 553146.0 0
468974.0 553050.0 0
475512.0 553098.0 0
480250.0 553236.0 0
485554.0 554701.0 0
490482.0 553270.0 0
496831.0 553603.0 0
3161.6 558629.0 0
8229.79 556760.0 0
13529.3 556965.0 0
18495.7 558599.0 0
23722.9 556699.0 0
29096.8 557101.0 0
34345.2 555948.0 0
39416.1 557353.0 0
43123.1 557329.0 0
47980.5 556679.0 0
53945.4 557975.0 0
58628.6 558804.0 0
63183.7 556576.0 0
68310.9 556323.0 0
73377.3 557566.0 0
78731.9 557703.0 0
83009.3 556803.0 0
87719.9 557612.0 0
92147.6 554924.0 0
97550.1 556829.0 0
102071.0 555843.0 0
107180.0 556585.0 0
113313.0 555843.0 0
121336.0 554998.0 0
117548.0 557114.0 0
125784.0 557762.0 0
129605.0 554952.0 0
135315.0 555028.0 0
141531.0 555385.0 0
147622.0 556383.0 0
152838.0 556022.0 0
156799.0 557210.0 0
162279.0 556075.0 0
168457.0 555798.0 0
173567.0 556813.0 0
178590.0 556050.0 0
183382.0 556940.0 0
188714.0 555361.0 0
193868.0 556765.0 0
198483.0 555230.0 0
203658.0 556204.0 0
201101.0 558882.0 0
207502.0 556083.0 0
211437.0 556429.0 0
216555.0 555517.0 0
218994.0 559462.0 0
223164.0 556127.0 0
229031.0 555918.0 0
233468.0 555297.0 0
238075.0 556373.0 0
243286.0 556526.0 0
248665.0 556231.0 0
254433.0 556486.0 0
259269.0 555943.0 0
262925.0 557596.0 0
267060.0 559427.0 0
270332.0 556330.0 0
276279.0 555725.0 0
282118.0 556672.0 0
287487.0 557480.0 0
291803.0 557601.0 0
297434.0 556413.0 0
305403.0 555647.0 0
309532.0 557327.0 0
313439.0 556937.0 0
318498.0 555584.0 0
322500.0 556590.0 0
328308.0 557037.0 0
332726.0 557288.0 0
336762.0 555947.0 0
340849.0 555743.0 0
345892.0 555956.0 0
357087.0 554850.0 0
352095.0 557071.0 0
361693.0 556190.0 0
367340.0 556737.0 0
372393.0 559469.0 0
377854.0 554596.0 0
383642.0 557642.0 0
388787.0 557309.0 0
392876.0 554770.0 0
398242.0 556624.0 0
406802.0 555462.0 0
410783.0 557397.0 0
407972.0 558927.0 0
414567.0 556065.0 0
419494.0 557079.0 0
425920.0 556658.0 0
432243.0 557070.0 0
437294.0 556322.0 0
443177.0 556601.0 0
447942.0 557934.0 0
452713.0 556092.0 0
457501.0 556669.0 0
461355.0 555364.0 0
467061.0 557332.0 0
472193.0 556369.0 0
476985.0 557002.0 0
481594.0 558337.0 0
489899.0 557585.0 0
493250.0 558926.0 0
497159.0 559385.0 0
2173.25 563822.0 0
6264.29 562808.0 0
11557.9 562841.0 0
17182.1 562862.0 0
21978.4 561906.0 0
28576.7 562070.0 0
33676.9 561314.0 0
38667.0 561828.0 0
43618.0 561371.0 0
47992.6 561307.0 0
52381.6 562329.0 0
56682.4 562808.0 0
62751.4 562156.0 0
67636.5 560574.0 0
76370.9 562158.0 0
71779.3 563055.0 0
80967.1 561587.0 0
85523.4 561134.0 0
91778.9 561312.0 0
97940.5 562196.0 0
102536.0 560231.0 0
106814.0 562368.0 0
111163.0 560426.0 0
115558.0 560391.0 0
120841.0 560851.0 0
125876.0 562900.0 0
131102.0 560657.0 0
137613.0 561168.0 0
143073.0 561176.0 0
152999.0 559948.0 0
148962.0 562078.0 0
157028.0 561874.0 0
161593.0 562655.0 0
165813.0 560390.0 0
170746.0 560712.0 0
176181.0 561646.0 0
180897.0 560208.0 0
186073.0 561779.0 0
191463.0 560261.0 0
196677.0 560915.0 0
202554.0 563713.0 0
208583.0 560994.0 0
214400.0 560301.0 0
218120.0 564101.0 0
222477.0 561874.0 0
227107.0 560688.0 0
232901.0 560400.0 0
237274.0 563668.0 0
241006.0 560788.0 0
246629.0 562267.0 0
252785.0 561805.0 0
257497.0 560253.0 0
262221.0 562604.0 0
272365.0 560345.0 0
275275.0 564257.0 0
277520.0 560360.0 0
282601.0 563712.0 0
288950.0 562178.0 0
295468.0 561674.0 0
301431.0 560273.0 0
307308.0 561343.0 0
312779.0 562028.0 0
317657.0 560059.0 0
325879.0 561210.0 0
321532.0 562418.0 0
331273.0 562149.0 0
336314.0 560438.0 0
342177.0 561089.0 0
347998.0 561141.0 0
352557.0 562848.0 0
357695.0 560562.0 0
363344.0 560984.0 0
368036.0 562354.0 0
377722.0 560520.0 0
381979.0 564310.0 0
387502.0 562315.0 0
392996.0 560465.0 0
397653.0 563367.0 0
403297.0 560960.0 0
409013.0 562227.0 0
413572.0 560996.0 0
418079.0 561877.0 0
422310.0 561449.0 0
427524.0 563117.0 0
432754.0 561277.0 0
436859.0 561205.0 0
442684.0 562131.0 0
446731.0 561246.0 0
451524.0 561092.0 0
455789.0 560335.0 0
461738.0 561349.0 0
468411.0 562380.0 0
474346.0 561787.0 0
479608.0 562420.0 0
486152.0 562249.0 0
492685.0 563216.0 0
498369.0 563486.0 0
2130.66 568080.0 0
6162.31 566628.0 0
10702.1 569495.0 0
15810.3 567137.0 0
25075.9 565999.0 0
20194.5 566493.0 0
32093.1 566533.0 0
37592.2 566712.0 0
42833.1 566443.0 0
48297.0 566260.0 0
53020.2 566641.0 0
58304.8 566757.0 0
62443.7 566445.0 0
67204.6 566143.0 0
72831.3 567276.0 0
77187.3 565662.0 0
81163.5 566646.0 0
76888.1 569733.0 0
86789.8 566125.0 0
92905.5 567836.0 0
98529.7 567544.0 0
102665.0 565004.0 0
106285.0 568298.0 0
111128.0 565768.0 0
116712.0 564962.0 0
121571.0 567550.0 0
126197.0 566883.0 0
130660.0 567447.0 0
134251.0 564788.0 0
139008.0 567298.0 0
145808.0 566627.0 0
152493.0 566727.0 0
158457.0 566395.0 0
162184.0 568893.0 0
165855.0 565603.0 0
171360.0 565917.0 0
177071.0 567872.0 0
182931.0 566977.0 0
188232.0 567562.0 0
192496.0 564698.0 0
197260.0 567607.0 0
202234.0 569109.0 0
206973.0 568125.0 0
212582.0 566011.0 0
222782.0 566769.0 0
228441.0 566112.0 0
233476.0 565654.0 0
237309.0 567762.0 0
241750.0 566072.0 0
247083.0 568674.0 0
252663.0 567300.0 0
257100.0 564816.0 0
263112.0 568206.0 0
268528.0 565387.0 0
273666.0 568517.0 0
278230.0 567157.0 0
287481.0 566909.0 0
292520.0 567082.0 0
299011.0 567112.0 0
303742.0 564653.0 0
303754.0 569565.0 0
307192.0 567098.0 0
311847.0 566875.0 0
316797.0 564873.0 0
321359.0 566826.0 0
316507.0 569423.0 0
327447.0 567231.0 0
333883.0 567519.0 0
338051.0 564738.0 0
338985.0 569256.0 0
342641.0 566535.0 0
347236.0 566058.0 0
356918.0 566276.0 0
352052.0 567704.0 0
361846.0 565582.0 0
366114.0 566283.0 0
370522.0 566720.0 0
376104.0 566066.0 0
386398.0 567283.0 0
383069.0 568439.0 0
391695.0 566425.0 0
396432.0 567464.0 0
401506.0 567685.0 0
406807.0 565898.0 0
411651.0 565901.0 0
416901.0 566355.0 0
422573.0 566719.0 0
427423.0 568375.0 0
432376.0 566746.0 0
437985.0 565452.0 0
442742.0 567768.0 0
448007.0 565432.0 0
451548.0 568912.0 0
455467.0 565675.0 0
460926.0 567770.0 0
465557.0 566510.0 0
471323.0 567870.0 0
477003.0 566578.0 0
481659.0 566290.0 0
479336.0 569389.0 0
486625.0 568946.0 0
491974.0 568385.0 0
497015.0 567691.0 0
5040.55 571782.0 0
8530.58 574059.0 0
14339.5 573502.0 0
17536.3 571034.0 0
22705.0 571352.0 0
27993.2 570044.0 0
32632.0 572241.0 0
38284.9 571955.0 0
43400.6 571375.0 0
48111.8 571661.0 0
52344.4 571411.0 0
56637.5 571423.0 0
61674.9 570641.0 0
66373.8 571280.0 0
71446.8 571990.0 0
82500.0 571570.0 0
87718.6 571399.0 0
92112.1 573689.0 0
97367.8 571650.0 0
102164.0 570763.0 0
106076.0 572435.0 0
110363.0 571527.0 0
116472.0 570619.0 0
121941.0 572832.0 0
126347.0 571024.0 0
131097.0 572888.0 0
136271.0 572748.0 0
143182.0 571094.0 0
148787.0 572179.0 0
154128.0 572227.0 0
158540.0 571196.0 0
162320.0 573578.0 0
166229.0 570938.0 0
171865.0 571779.0 0
177252.0 573792.0 0
180929.0 571297.0 0
185186.0 571723.0 0
192447.0 571028.0 0
196639.0 573219.0 0
201623.0 574228.0 0
207241.0 573040.0 0
211730.0 571711.0 0
217303.0 570271.0 0
223117.0 572491.0 0
228518.0 571558.0 0
233607.0 570466.0 0
236413.0 573627.0 0
240425.0 571736.0 0
248944.0 573680.0 0
253419.0 572315.0 0
257925.0 569869.0 0
260908.0 572667.0 0
265130.0 573608.0 0
269682.0 571064.0 0
277908.0 572641.0 0
283752.0 570072.0 0
289137.0 571795.0 0
295441.0 572139.0 0
300704.0 572785.0 0
305157.0 573040.0 0
308100.0 571045.0 0
311865.0 571281.0 0
322478.0 571509.0 0
326872.0 573208.0 0
331739.0 571682.0 0
342681.0 572486.0 0
347197.0 570962.0 0
351804.0 572858.0 0
355742.0 570588.0 0
360379.0 570491.0 0
366850.0 571402.0 0
362560.0 574854.0 0
373311.0 571692.0 0
379666.0 571248.0 0
384295.0 574095.0 0
388387.0 571671.0 0
397482.0 571044.0 0
393323.0 572608.0 0
401379.0 573838.0 0
406857.0 571360.0 0
413624.0 571851.0 0
421931.0 571365.0 0
418829.0 572943.0 0
425871.0 572576.0 0
430448.0 571679.0 0
436737.0 571618.0 0
442584.0 572690.0 0
447734.0 571530.0 0
452540.0 572482.0 0
457391.0 571797.0 0
462164.0 571659.0 0
466263.0 571279.0 0
470702.0 574017.0 0
476108.0 570769.0 0
481972.0 572390.0 0
486379.0 574483.0 0
490749.0 572782.0 0
497258.0 573261.0 0
2629.77 576407.0 0
6976.94 576969.0 0
11456.4 576834.0 0
16487.6 577100.0 0
20797.8 576160.0 0
23010.6 579508.0 0
27643.3 575784.0 0
33997.3 576707.0 0
38213.2 577045.0 0
42364.5 576200.0 0
46379.8 576235.0 0
55866.2 576051.0 0
51039.7 576271.0 0
61348.7 576535.0 0
67427.7 576076.0 0
73193.2 576842.0 0
78609.9 575298.0 0
83247.2 575512.0 0
82982.7 579802.0 0
87502.4 576235.0 0
91853.2 578292.0 0
95586.7 578935.0 0
97811.1 575635.0 0
102118.0 575325.0 0
103632.0 579256.0 0
107500.0 576339.0 0
112777.0 575929.0 0
117979.0 576466.0 0
127007.0 575446.0 0
123121.0 577347.0 0
130916.0 578843.0 0
135855.0 577284.0 0
141051.0 575896.0 0
146865.0 577785.0 0
152331.0 576844.0 0
158301.0 577240.0 0
167464.0 575778.0 0
163478.0 577467.0 0
172743.0 578302.0 0
177886.0 578102.0 0
180898.0 576223.0 0
185829.0 577434.0 0
192379.0 577041.0 0
197757.0 577883.0 0
205992.0 576978.0 0
210588.0 576746.0 0
216110.0 576296.0 0
221366.0 577721.0 0
226825.0 577593.0 0
231646.0 575240.0 0
235619.0 576916.0 0
244595.0 574891.0 0
240310.0 577442.0 0
252286.0 577237.0 0
257676.0 575437.0 0
261845.0 576495.0 0
270377.0 576189.0 0
275330.0 577818.0 0
279835.0 577961.0 0
282623.0 575059.0 0
283607.0 578655.0 0
286588.0 576106.0 0
291995.0 577002.0 0
298232.0 577808.0 0
303392.0 576597.0 0
306813.0 579435.0 0
311438.0 576504.0 0
317512.0 575285.0 0
322989.0 576466.0 0
331159.0 576221.0 0
337327.0 575019.0 0
343316.0 578093.0 0
347829.0 575346.0 0
351558.0 577943.0 0
357306.0 575163.0 0
366338.0 576681.0 0
371140.0 577285.0 0
376828.0 576643.0 0
381615.0 577257.0 0
388341.0 576868.0 0
392703.0 577352.0 0
396659.0 576211.0 0
402860.0 579016.0 0
408122.0 577353.0 0
412812.0 578029.0 0
417031.0 577051.0 0
422102.0 575813.0 0
427417.0 577550.0 0
432271.0 575802.0 0
436705.0 577710.0 0
442067.0 577859.0 0
446818.0 579382.0 0
450195.0 576238.0 0
455632.0 577671.0 0
461297.0 575941.0 0
466532.0 577524.0 0
471528.0 579096.0 0
475964.0 575588.0 0
481175.0 577707.0 0
486200.0 579171.0 0
493596.0 576014.0 0
497972.0 577919.0 0
3565.17 582466.0 0
9127.75 580949.0 0
13947.4 581149.0 0
19021.1 581560.0 0
27041.5 581933.0 0
32454.4 581049.0 0
37453.3 581617.0 0
42313.3 581599.0 0
47620.5 581014.0 0
52739.1 581005.0 0
57209.0 580354.0 0
60981.5 582984.0 0
64987.8 580720.0 0
70109.9 581070.0 0
76499.5 581617.0 0
88503.0 581240.0 0
94048.9 583859.0 0
99421.7 581214.0 0
98515.3 585029.0 0
106146.0 582215.0 0
110934.0 580943.0 0
117243.0 582815.0 0
121906.0 580990.0 0
126006.0 581568.0 0
132441.0 584303.0 0
137164.0 581807.0 0
142768.0 581925.0 0
147082.0 581929.0 0
152797.0 582069.0 0
157418.0 582561.0 0
161977.0 581711.0 0
167193.0 580971.0 0
173122.0 584280.0 0
177439.0 582076.0 0
181241.0 580134.0 0
184165.0 583937.0 0
189401.0 582204.0 0
195437.0 582193.0 0
201392.0 581845.0 0
207637.0 581767.0 0
213164.0 581154.0 0
218676.0 582747.0 0
223758.0 581521.0 0
227614.0 583777.0 0
231925.0 580547.0 0
236829.0 580624.0 0
236283.0 584635.0 0
241111.0 583150.0 0
246174.0 579926.0 0
250891.0 581679.0 0
256519.0 581805.0 0
262672.0 580539.0 0
267807.0 580897.0 0
273152.0 582962.0 0
278679.0 582296.0 0
282887.0 583006.0 0
287504.0 581601.0 0
293543.0 582302.0 0
298314.0 582645.0 0
302552.0 580892.0 0
306384.0 583524.0 0
310577.0 584730.0 0
312893.0 581241.0 0
317776.0 581408.0 0
322713.0 582073.0 0
327074.0 580174.0 0
329305.0 583743.0 0
332631.0 581263.0 0
338097.0 581484.0 0
346849.0 582052.0 0
343138.0 583211.0 0
351498.0 583097.0 0
355892.0 580348.0 0
357510.0 584732.0 0
362243.0 580914.0 0
368596.0 582038.0 0
374227.0 581715.0 0
379684.0 581674.0 0
384502.0 580068.0 0
388529.0 581545.0 0
392724.0 581179.0 0
396097.0 584984.0 0
398362.0 580465.0 0
401490.0 583588.0 0
406337.0 582492.0 0
411229.0 582048.0 0
416837.0 582754.0 0
422566.0 581247.0 0
427804.0 583253.0 0
433314.0 581938.0 0
438742.0 582459.0 0
443793.0 582999.0 0
448640.0 583555.0 0
453489.0 582964.0 0
458564.0 581922.0 0
463377.0 582194.0 0
468194.0 581760.0 0
471791.0 583422.0 0
476547.0 581499.0 0
482382.0 582948.0 0
487135.0 583836.0 0
491572.0 580626.0 0
497173.0 582559.0 0
1390.53 586871.0 0
6470.59 587411.0 0
11429.7 585972.0 0
17150.7 586623.0 0
22297.8 585994.0 0
27970.7 587931.0 0
33959.5 586312.0 0
39044.8 586508.0 0
43500.7 586362.0 0
48025.9 586218.0 0
52818.3 585721.0 0
57500.0 586506.0 0
62818.9 587016.0 0
67331.5 585719.0 0
72343.9 585591.0 0
76166.2 587604.0 0
81743.3 586433.0 0
86318.0 590056.0 0
87900.2 585898.0 0
91483.6 589530.0 0
97729.8 589600.0 0
102330.0 585742.0 0
106919.0 586014.0 0
108188.0 590133.0 0
112308.0 586861.0 0
117438.0 588684.0 0
121618.0 589999.0 0
122856.0 585737.0 0
127807.0 586006.0 0
131163.0 588220.0 0
134662.0 586071.0 0
140057.0 587528.0 0
148801.0 585859.0 0
152577.0 589807.0 0
154555.0 586145.0 0
163013.0 586132.0 0
158620.0 586967.0 0
167420.0 586106.0 0
171169.0 588486.0 0
177500.0 586764.0 0
181569.0 587612.0 0
186974.0 589416.0 0
192377.0 586649.0 0
197382.0 586826.0 0
202871.0 588233.0 0
208811.0 587331.0 0
214101.0 586517.0 0
218873.0 588119.0 0
223882.0 587596.0 0
228389.0 587947.0 0
231991.0 585999.0 0
236836.0 590096.0 0
240947.0 587249.0 0
246180.0 586061.0 0
251987.0 586553.0 0
256902.0 587705.0 0
260749.0 585801.0 0
265883.0 585938.0 0
272920.0 587914.0 0
276711.0 586925.0 0
280893.0 586194.0 0
285670.0 587251.0 0
290894.0 586284.0 0
296206.0 586875.0 0
301836.0 585800.0 0
306571.0 587592.0 0
315774.0 586651.0 0
320994.0 586335.0 0
325999.0 585322.0 0
327196.0 589984.0 0
331934.0 585717.0 0
336703.0 587369.0 0
332257.0 589629.0 0
346448.0 586128.0 0
342059.0 587272.0 0
350475.0 587888.0 0
361580.0 587452.0 0
366735.0 586757.0 0
372193.0 586837.0 0
378209.0 587501.0 0
384767.0 585795.0 0
390818.0 585333.0 0
397188.0 590091.0 0
400859.0 587772.0 0
404548.0 586416.0 0
409021.0 586602.0 0
413935.0 587599.0 0
418487.0 587664.0 0
423512.0 586244.0 0
427610.0 588154.0 0
431467.0 586510.0 0
435892.0 586469.0 0
440891.0 587261.0 0
445889.0 587386.0 0
451409.0 587508.0 0
457458.0 586595.0 0
462623.0 587401.0 0
467641.0 586263.0 0
473483.0 587197.0 0
478849.0 586818.0 0
483931.0 587709.0 0
488284.0 587864.0 0
492809.0 586453.0 0
498190.0 586944.0 0
2818.36 590700.0 0
8217.48 592092.0 0
13816.8 591283.0 0
18856.7 591292.0 0
23175.2 590139.0 0
22335.1 594950.0 0
27856.5 593274.0 0
32404.2 590976.0 0
37297.1 591566.0 0
40800.2 591133.0 0
45091.1 591686.0 0
50299.4 591043.0 0
55880.4 591570.0 0
60739.7 590892.0 0
65867.6 590906.0 0
67193.1 595133.0 0
71981.7 591042.0 0
78632.4 591797.0 0
82369.2 592175.0 0
94129.7 594819.0 0
103411.0 592457.0 0
108729.0 594796.0 0
113843.0 592144.0 0
118265.0 592209.0 0
117381.0 595219.0 0
122099.0 594514.0 0
126361.0 590975.0 0
131432.0 592304.0 0
135694.0 590786.0 0
140135.0 593695.0 0
145416.0 590862.0 0
157071.0 591456.0 0
153478.0 594874.0 0
161382.0 590811.0 0
166874.0 592159.0 0
172862.0 592602.0 0
177780.0 591659.0 0
182169.0 591624.0 0
184953.0 594437.0 0
192376.0 591803.0 0
198324.0 590995.0 0
201669.0 593894.0 0
206603.0 592887.0 0
210736.0 591344.0 0
215517.0 592100.0 0
221117.0 592276.0 0
226739.0 593437.0 0
231251.0 590554.0 0
242922.0 590548.0 0
248547.0 591465.0 0
254302.0 591752.0 0
258452.0 595167.0 0
262283.0 590886.0 0
269089.0 591808.0 0
275416.0 591377.0 0
279858.0 590220.0 0
278856.0 594898.0 0
283868.0 592404.0 0
289468.0 591310.0 0
294260.0 591382.0 0
298698.0 592127.0 0
302748.0 590313.0 0
303140.0 594725.0 0
306115.0 591524.0 0
308057.0 595117.0 0
311382.0 590470.0 0
317541.0 590902.0 0
322304.0 591612.0 0
330477.0 593672.0 0
335938.0 593369.0 0
340567.0 590753.0 0
344330.0 590718.0 0
348097.0 591371.0 0
351198.0 595220.0 0
355886.0 590459.0 0
364891.0 591300.0 0
369611.0 591456.0 0
374590.0 590721.0 0
373351.0 594900.0 0
382096.0 590683.0 0
378939.0 594290.0 0
387064.0 591194.0 0
384000.0 594166.0 0
392036.0 590420.0 0
401265.0 591863.0 0
405955.0 590827.0 0
411113.0 591639.0 0
408146.0 595110.0 0
416566.0 592047.0 0
421731.0 590242.0 0
421149.0 595238.0 0
425849.0 592461.0 0
431451.0 591676.0 0
437128.0 591263.0 0
442565.0 592725.0 0
448431.0 591975.0 0
454712.0 591193.0 0
457283.0 595242.0 0
463378.0 591583.0 0
459385.0 591251.0 0
467529.0 591331.0 0
471979.0 591835.0 0
476110.0 590774.0 0
480392.0 591429.0 0
486519.0 591490.0 0
490829.0 591081.0 0
493234.0 594786.0 0
496041.0 590799.0 0
497708.0 595353.0 0
2385.07 595762.0 0
6750.61 596744.0 0
12081.3 597155.0 0
17320.5 595813.0 0
16946.0 599801.0 0
23388.3 600233.0 0
27416.1 597624.0 0
31902.7 595658.0 0
36899.2 596511.0 0
42424.4 596296.0 0
47924.4 595932.0 0
53055.0 596617.0 0
58065.2 595997.0 0
62991.3 595547.0 0
61181.4 599793.0 0
69833.0 598952.0 0
74703.1 596195.0 0
79825.8 597496.0 0
86086.4 596006.0 0
91210.5 599526.0 0
96694.7 600274.0 0
99286.8 595707.0 0
105281.0 596529.0 0
102417.0 599603.0 0
113090.0 597169.0 0
117178.0 599862.0 0
126732.0 596317.0 0
122615.0 600274.0 0
130964.0 596477.0 0
135080.0 595342.0 0
143021.0 598330.0 0
148130.0 596077.0 0
158390.0 595663.0 0
162500.0 596727.0 0
158629.0 600144.0 0
166126.0 598273.0 0
170580.0 596455.0 0
176033.0 596195.0 0
180844.0 596155.0 0
184485.0 598321.0 0
189818.0 597306.0 0
196403.0 595739.0 0
200812.0 599076.0 0
205771.0 598108.0 0
211092.0 595973.0 0
216904.0 597709.0 0
222129.0 597238.0 0
227582.0 598119.0 0
232535.0 595537.0 0
237451.0 595426.0 0
237009.0 600324.0 0
242247.0 596084.0 0
247964.0 597438.0 0
253537.0 597039.0 0
258368.0 600354.0 0
263004.0 596721.0 0
267579.0 597964.0 0
273619.0 596859.0 0
282441.0 596459.0 0
286904.0 597458.0 0
292824.0 596150.0 0
298596.0 597960.0 0
308679.0 600001.0 0
313122.0 596739.0 0
318668.0 595613.0 0
325667.0 596081.0 0
321840.0 598950.0 0
330658.0 599034.0 0
337266.0 598024.0 0
342083.0 595610.0 0
347070.0 597695.0 0
359301.0 595677.0 0
361673.0 599700.0 0
364354.0 596134.0 0
368739.0 596027.0 0
377340.0 598429.0 0
387436.0 596502.0 0
382856.0 599437.0 0
391684.0 595509.0 0
397536.0 595570.0 0
393764.0 600037.0 0
403466.0 597098.0 0
412431.0 596220.0 0
408969.0 599830.0 0
416591.0 596723.0 0
423829.0 599523.0 0
428810.0 596995.0 0
434886.0 596133.0 0
436015.0 599951.0 0
439872.0 597826.0 0
447822.0 596490.0 0
444415.0 597240.0 0
447353.0 599903.0 0
452385.0 595787.0 0
457457.0 600151.0 0
462180.0 597076.0 0
467357.0 596012.0 0
471710.0 595969.0 0
472014.0 599688.0 0
476934.0 596081.0 0
483443.0 595714.0 0
480511.0 600328.0 0
488787.0 595464.0 0
491552.0 599549.0 0
497330.0 600222.0 0
2460.41 600598.0 0
7824.17 601664.0 0
13668.3 602277.0 0
19431.1 604544.0 0
25088.9 604642.0 0
28922.9 602074.0 0
33775.0 600590.0 0
38812.3 600969.0 0
40726.4 605377.0 0
43128.8 601678.0 0
47388.2 600725.0 0
46375.9 605402.0 0
52325.0 602039.0 0
57013.9 600423.0 0
60088.5 604697.0 0
65100.5 601017.0 0
73930.8 601575.0 0
77500.0 601547.0 0
81129.7 605135.0 0
82726.3 601549.0 0
87109.5 601760.0 0
91028.8 604976.0 0
108321.0 600416.0 0
113442.0 602873.0 0
117694.0 604300.0 0
128249.0 601012.0 0
133631.0 600383.0 0
136528.0 604436.0 0
138770.0 600613.0 0
142473.0 603639.0 0
147066.0 601243.0 0
152817.0 600810.0 0
163098.0 602176.0 0
166754.0 602756.0 0
170488.0 601235.0 0
175773.0 601143.0 0
181190.0 601672.0 0
186386.0 602166.0 0
191298.0 603470.0 0
196384.0 601594.0 0
200697.0 603450.0 0
205058.0 603061.0 0
210123.0 601648.0 0
215167.0 602273.0 0
219879.0 601950.0 0
225033.0 601581.0 0
230947.0 601493.0 0
242009.0 602980.0 0
247753.0 603503.0 0
253488.0 602402.0 0
259694.0 604564.0 0
263585.0 601714.0 0
269097.0 603155.0 0
274213.0 602205.0 0
279715.0 600576.0 0
285276.0 602908.0 0
289655.0 601501.0 0
293744.0 601342.0 0
297868.0 602856.0 0
303307.0 601920.0 0
307679.0 604261.0 0
313249.0 602206.0 0
317845.0 600624.0 0
321240.0 602142.0 0
325625.0 601871.0 0
334886.0 600446.0 0
332779.0 605234.0 0
339241.0 602251.0 0
344557.0 601387.0 0
350545.0 601159.0 0
356676.0 600610.0 0
362080.0 605230.0 0
366713.0 601524.0 0
373029.0 600641.0 0
378019.0 602218.0 0
381838.0 605452.0 0
388569.0 601081.0 0
392307.0 605463.0 0
399182.0 601386.0 0
404495.0 602533.0 0
410731.0 604595.0 0
414060.0 600935.0 0
419185.0 600407.0 0
427548.0 602099.0 0
432769.0 601075.0 0
438378.0 603734.0 0
443547.0 601323.0 0
447226.0 604101.0 0
451920.0 601477.0 0
462277.0 603026.0 0
467733.0 601114.0 0
471465.0 605068.0 0
475793.0 601927.0 0
481694.0 604835.0 0
485737.0 601336.0 0
490331.0 605480.0 0
2997.07 606022.0 0
8380.38 607718.0 0
13852.4 607230.0 0
23306.2 608847.0 0
29620.7 606781.0 0
34991.1 605710.0 0
32789.0 609639.0 0
38187.6 608872.0 0
43699.3 607780.0 0
50761.8 607036.0 0
55331.6 606597.0 0
65773.4 605853.0 0
67882.0 610427.0 0
71994.1 606411.0 0
77499.6 606002.0 0
80764.6 609649.0 0
85458.4 606452.0 0
94086.3 609877.0 0
97771.6 605812.0 0
103309.0 605551.0 0
104838.0 610541.0 0
109328.0 606722.0 0
115305.0 606621.0 0
113758.0 610279.0 0
121396.0 605570.0 0
118494.0 609487.0 0
126618.0 606288.0 0
132439.0 607558.0 0
139665.0 608102.0 0
147115.0 606792.0 0
154254.0 607239.0 0
159781.0 605923.0 0
162503.0 610540.0 0
164320.0 606563.0 0
168590.0 605741.0 0
173362.0 605705.0 0
172983.0 610214.0 0
178213.0 606515.0 0
182327.0 606224.0 0
186873.0 607367.0 0
192141.0 608686.0 0
197453.0 606691.0 0
202904.0 607294.0 0
207648.0 606416.0 0
212877.0 606266.0 0
217506.0 605928.0 0
217594.0 610477.0 0
221901.0 606745.0 0
227089.0 606817.0 0
232734.0 607153.0 0
237683.0 605682.0 0
244526.0 607638.0 0
240817.0 608180.0 0
251642.0 607697.0 0
256190.0 606422.0 0
258134.0 610525.0 0
262915.0 606320.0 0
267657.0 608354.0 0
272786.0 606415.0 0
277511.0 606197.0 0
282443.0 606567.0 0
289455.0 605789.0 0
294624.0 606257.0 0
299781.0 606477.0 0
304614.0 607763.0 0
311287.0 607162.0 0
316917.0 606189.0 0
322110.0 605715.0 0
322250.0 610031.0 0
326815.0 607274.0 0
336158.0 610343.0 0
338021.0 607025.0 0
342468.0 607065.0 0
347328.0 605657.0 0
351882.0 606088.0 0
356823.0 606627.0 0
366797.0 606951.0 0
371328.0 606067.0 0
376745.0 606816.0 0
373634.0 609835.0 0
386981.0 605845.0 0
393601.0 610554.0 0
402503.0 605960.0 0
398130.0 607376.0 0
406424.0 607571.0 0
412632.0 609554.0 0
415604.0 605885.0 0
421374.0 605714.0 0
427153.0 607392.0 0
433032.0 607184.0 0
443360.0 607705.0 0
451062.0 607062.0 0
456748.0 605945.0 0
461454.0 608092.0 0
466323.0 607448.0 0
476843.0 607973.0 0
484970.0 608636.0 0
496748.0 606041.0 0
2069.7 611865.0 0
5840.68 611314.0 0
7851.39 615120.0 0
11548.4 611889.0 0
18410.0 610671.0 0
23955.2 614733.0 0
28904.7 611453.0 0
32882.0 613786.0 0
37378.0 613019.0 0
42252.6 610967.0 0
46699.4 611537.0 0
50535.9 611987.0 0
55704.3 611414.0 0
62038.5 611038.0 0
67763.0 615209.0 0
71731.8 611730.0 0
75999.2 612032.0 0
85777.5 611933.0 0
81699.7 614655.0 0
90756.1 614787.0 0
99692.6 610926.0 0
101906.0 615551.0 0
109401.0 612567.0 0
116579.0 614771.0 0
123379.0 610628.0 0
128087.0 611332.0 0
132040.0 612326.0 0
136048.0 611557.0 0
133760.0 615361.0 0
143666.0 610599.0 0
147702.0 612167.0 0
143681.0 615300.0 0
152522.0 612809.0 0
157816.0 612195.0 0
162128.0 615202.0 0
167898.0 611109.0 0
177377.0 611356.0 0
182661.0 611025.0 0
188647.0 612808.0 0
193197.0 613020.0 0
196112.0 610802.0 0
200633.0 611898.0 0
206072.0 611392.0 0
212113.0 611980.0 0
218324.0 615556.0 0
222110.0 611799.0 0
226733.0 611996.0 0
231539.0 612292.0 0
236779.0 611036.0 0
241747.0 611837.0 0
247499.0 612597.0 0
253593.0 612416.0 0
263107.0 610657.0 0
262845.0 615357.0 0
267459.0 613671.0 0
272058.0 610995.0 0
280082.0 610976.0 0
275944.0 613618.0 0
284363.0 610777.0 0
285275.0 615363.0 0
288396.0 610624.0 0
293006.0 610848.0 0
297592.0 610591.0 0
302061.0 612146.0 0
307835.0 611561.0 0
313027.0 612116.0 0
317962.0 611522.0 0
326258.0 612660.0 0
321726.0 613958.0 0
331653.0 611539.0 0
340212.0 611337.0 0
346555.0 611666.0 0
352748.0 610765.0 0
357705.0 611842.0 0
363280.0 610934.0 0
369277.0 611172.0 0
376917.0 611611.0 0
373517.0 613999.0 0
382335.0 611696.0 0
388648.0 610592.0 0
397925.0 612681.0 0
403304.0 612815.0 0
408966.0 612170.0 0
417351.0 610668.0 0
413647.0 614210.0 0
422630.0 611619.0 0
418747.0 615484.0 0
427945.0 612748.0 0
432682.0 614258.0 0
437350.0 611394.0 0
442641.0 613382.0 0
447910.0 611565.0 0
453080.0 611397.0 0
457955.0 611993.0 0
463226.0 612236.0 0
467859.0 612231.0 0
472260.0 611569.0 0
476832.0 613810.0 0
481107.0 611822.0 0
489608.0 611289.0 0
485294.0 613533.0 0
497033.0 612187.0 0
2377.97 616257.0 0
2107.42 620689.0 0
6179.97 619506.0 0
12633.4 616542.0 0
17813.3 616252.0 0
21383.6 620758.0 0
29336.3 616053.0 0
27148.0 620294.0 0
35962.2 617870.0 0
41868.3 616302.0 0
47828.1 616403.0 0
52585.5 616002.0 0
52459.4 620728.0 0
57376.7 616694.0 0
62920.7 617372.0 0
69544.7 619874.0 0
72808.7 615987.0 0
77625.4 616556.0 0
81347.7 620610.0 0
85722.8 617021.0 0
96745.6 616177.0 0
92729.3 620650.0 0
106478.0 616754.0 0
102870.0 620528.0 0
111543.0 617428.0 0
119685.0 619713.0 0
125123.0 616412.0 0
130557.0 616975.0 0
133701.0 620766.0 0
138236.0 616226.0 0
141881.0 620145.0 0
149142.0 617490.0 0
154795.0 616278.0 0
154136.0 620369.0 0
158250.0 617786.0 0
162912.0 620361.0 0
166914.0 616856.0 0
172993.0 615740.0 0
179309.0 616334.0 0
184567.0 616282.0 0
186842.0 620621.0 0
188847.0 617532.0 0
192944.0 616972.0 0
197649.0 616193.0 0
197331.0 620447.0 0
202920.0 616900.0 0
208139.0 616186.0 0
213314.0 617982.0 0
222696.0 615711.0 0
221608.0 619694.0 0
226730.0 616865.0 0
232056.0 617575.0 0
237361.0 616498.0 0
242557.0 616516.0 0
247262.0 618962.0 0
252356.0 617349.0 0
257756.0 615942.0 0
266162.0 619159.0 0
272133.0 617329.0 0
279687.0 616395.0 0
282680.0 619936.0 0
291794.0 616239.0 0
298208.0 616044.0 0
303640.0 616567.0 0
308631.0 617228.0 0
312845.0 616288.0 0
317766.0 617396.0 0
324543.0 617636.0 0
329575.0 617039.0 0
335520.0 616161.0 0
341892.0 616424.0 0
351874.0 616059.0 0
347156.0 617481.0 0
357266.0 617024.0 0
363434.0 617974.0 0
369277.0 616530.0 0
373979.0 619645.0 0
377975.0 615821.0 0
382133.0 618649.0 0
387262.0 616186.0 0
393762.0 616234.0 0
399836.0 617995.0 0
404879.0 618164.0 0
409324.0 617076.0 0
413886.0 620275.0 0
419823.0 620498.0 0
423796.0 617083.0 0
429042.0 617749.0 0
433705.0 619486.0 0
437476.0 616725.0 0
441594.0 617859.0 0
446440.0 616547.0 0
451167.0 615952.0 0
455979.0 616649.0 0
460959.0 617067.0 0
465549.0 616208.0 0
466014.0 620659.0 0
470333.0 616356.0 0
475231.0 619383.0 0
481355.0 617537.0 0
487402.0 617937.0 0
492593.0 615952.0 0
497638.0 617460.0 0
1812.72 624596.0 0
6794.16 624788.0 0
10546.5 620786.0 0
12598.1 625326.0 0
15383.1 620949.0 0
18124.0 625627.0 0
32400.4 622004.0 0
37599.9 622638.0 0
41831.4 621587.0 0
43710.2 625475.0 0
46435.2 621495.0 0
49759.5 624262.0 0
59979.7 621794.0 0
56169.0 622212.0 0
65082.8 622327.0 0
75020.2 621335.0 0
87089.9 621931.0 0
97978.1 621619.0 0
104679.0 625535.0 0
108208.0 621519.0 0
114490.0 622187.0 0
119316.0 625207.0 0
124486.0 622897.0 0
129337.0 620958.0 0
131966.0 625392.0 0
137560.0 620841.0 0
137214.0 625034.0 0
142575.0 625593.0 0
147738.0 623212.0 0
158427.0 622001.0 0
163218.0 625548.0 0
168397.0 621374.0 0
173425.0 621166.0 0
177326.0 621871.0 0
173722.0 625437.0 0
182220.0 621107.0 0
192339.0 621405.0 0
188899.0 623728.0 0
198504.0 625078.0 0
203618.0 622462.0 0
208443.0 620898.0 0
207840.0 625531.0 0
212400.0 622849.0 0
217248.0 622569.0 0
222153.0 624925.0 0
225993.0 621685.0 0
230767.0 622810.0 0
236707.0 622623.0 0
242424.0 621575.0 0
247393.0 623398.0 0
251140.0 622057.0 0
255873.0 621194.0 0
262131.0 621456.0 0
270330.0 622902.0 0
265783.0 624013.0 0
277108.0 622045.0 0
283300.0 624888.0 0
287588.0 620982.0 0
293088.0 622268.0 0
297455.0 624527.0 0
301006.0 621075.0 0
307136.0 622634.0 0
312671.0 620885.0 0
318575.0 624160.0 0
323917.0 622146.0 0
330600.0 620900.0 0
327639.0 621003.0 0
330016.0 625801.0 0
334004.0 621419.0 0
336220.0 625586.0 0
338741.0 621139.0 0
344412.0 622199.0 0
352217.0 622274.0 0
358928.0 622670.0 0
364731.0 624195.0 0
369006.0 621353.0 0
371954.0 625530.0 0
378843.0 622869.0 0
384544.0 622486.0 0
389601.0 621991.0 0
395683.0 622273.0 0
402917.0 622027.0 0
399897.0 624497.0 0
408064.0 622490.0 0
412591.0 625755.0 0
417150.0 624452.0 0
421940.0 625293.0 0
425408.0 621793.0 0
430078.0 622709.0 0
436323.0 621597.0 0
434479.0 623356.0 0
439715.0 621830.0 0
442401.0 625369.0 0
444855.0 621273.0 0
451919.0 621857.0 0
457495.0 620949.0 0
461660.0 621685.0 0
463547.0 625221.0 0
468219.0 625299.0 0
470544.0 621085.0 0
473438.0 624662.0 0
479497.0 622861.0 0
485866.0 623458.0 0
491624.0 621684.0 0
497258.0 622527.0 0
2708.51 629027.0 0
12591.4 630334.0 0
23495.4 626458.0 0
28157.9 625936.0 0
28656.0 630376.0 0
34327.2 627704.0 0
39011.3 626388.0 0
41757.6 630152.0 0
47500.0 626944.0 0
52077.5 628215.0 0
57335.0 626360.0 0
62624.6 626865.0 0
67475.9 626624.0 0
72683.4 627055.0 0
78205.5 626238.0 0
81020.6 630501.0 0
83578.7 626015.0 0
88230.8 627659.0 0
93347.7 626712.0 0
98557.1 626073.0 0
101721.0 629669.0 0
107098.0 630397.0 0
110601.0 626167.0 0
115068.0 627309.0 0
112389.0 630856.0 0
120605.0 630479.0 0
123098.0 627105.0 0
126017.0 630151.0 0
127596.0 626158.0 0
138315.0 630738.0 0
147774.0 628262.0 0
143886.0 630577.0 0
153162.0 626232.0 0
157213.0 630377.0 0
158690.0 626125.0 0
168489.0 626298.0 0
179110.0 626921.0 0
184867.0 625969.0 0
188610.0 629451.0 0
192850.0 626509.0 0
203346.0 628217.0 0
212420.0 627634.0 0
217729.0 628043.0 0
227309.0 627031.0 0
232780.0 627690.0 0
238310.0 628868.0 0
244102.0 626937.0 0
249670.0 626623.0 0
253893.0 628203.0 0
259031.0 626144.0 0
264120.0 627693.0 0
268320.0 627300.0 0
273424.0 627073.0 0
278730.0 628384.0 0
288568.0 626854.0 0
293786.0 627488.0 0
297891.0 629093.0 0
302164.0 626714.0 0
307089.0 627815.0 0
312391.0 627048.0 0
316739.0 628571.0 0
319948.0 629577.0 0
323907.0 627107.0 0
335133.0 630984.0 0
341611.0 628233.0 0
347959.0 626722.0 0
356272.0 627159.0 0
352254.0 628476.0 0
360835.0 627762.0 0
367635.0 628661.0 0
377642.0 628154.0 0
382697.0 626719.0 0
388498.0 628415.0 0
395337.0 628686.0 0
400257.0 630039.0 0
403989.0 627105.0 0
408907.0 628420.0 0
418331.0 629242.0 0
427089.0 627055.0 0
432635.0 627250.0 0
437925.0 626517.0 0
442964.0 630816.0 0
447362.0 626508.0 0
452781.0 627736.0 0
458398.0 626369.0 0
462903.0 629183.0 0
467311.0 630492.0 0
471379.0 628628.0 0
477533.0 626551.0 0
481709.0 626758.0 0
485725.0 628787.0 0
491177.0 627858.0 0
497370.0 627878.0 0
2546.03 634277.0 0
7546.57 631980.0 0
11109.9 635535.0 0
18105.1 631877.0 0
23966.2 631478.0 0
27400.5 635323.0 0
32701.9 633667.0 0
37341.4 632066.0 0
43623.8 634817.0 0
47301.1 631264.0 0
55989.4 631411.0 0
52022.7 633951.0 0
60799.7 631653.0 0
57487.6 635708.0 0
63006.6 635964.0 0
66339.6 631726.0 0
71920.3 632391.0 0
75847.3 635418.0 0
76534.6 630926.0 0
81411.9 636036.0 0
85465.5 631703.0 0
90890.4 632542.0 0
96793.4 631110.0 0
103356.0 635042.0 0
109336.0 635783.0 0
116484.0 634921.0 0
122316.0 635252.0 0
127313.0 635346.0 0
131771.0 631435.0 0
142986.0 636061.0 0
152957.0 632130.0 0
148272.0 633215.0 0
162590.0 630983.0 0
158948.0 634411.0 0
168257.0 631899.0 0
165054.0 635128.0 0
174132.0 631058.0 0
178980.0 634443.0 0
183828.0 631516.0 0
188161.0 635179.0 0
192879.0 632259.0 0
198985.0 632483.0 0
203846.0 633079.0 0
208233.0 631484.0 0
218956.0 632174.0 0
214662.0 632447.0 0
222567.0 631360.0 0
228991.0 631977.0 0
226878.0 635532.0 0
234211.0 632719.0 0
238654.0 633874.0 0
242873.0 632381.0 0
248013.0 631383.0 0
252398.0 631795.0 0
256545.0 632235.0 0
261460.0 631327.0 0
266077.0 631437.0 0
268293.0 635955.0 0
270561.0 631178.0 0
275393.0 633022.0 0
283223.0 631347.0 0
282973.0 635937.0 0
288674.0 632698.0 0
294157.0 632385.0 0
300027.0 632126.0 0
297708.0 635995.0 0
304606.0 631921.0 0
309328.0 631395.0 0
308209.0 635824.0 0
315317.0 631852.0 0
311956.0 633926.0 0
322235.0 633686.0 0
327846.0 632273.0 0
339275.0 632597.0 0
346777.0 631272.0 0
343031.0 633994.0 0
350762.0 632222.0 0
348023.0 635873.0 0
352587.0 635669.0 0
357677.0 632117.0 0
363137.0 631980.0 0
367264.0 633321.0 0
372705.0 632064.0 0
379038.0 633251.0 0
383095.0 631221.0 0
386354.0 633484.0 0
391666.0 634313.0 0
398375.0 633091.0 0
402995.0 633164.0 0
407829.0 632686.0 0
413023.0 631236.0 0
417143.0 635684.0 0
422876.0 632318.0 0
427660.0 631847.0 0
427124.0 635850.0 0
432161.0 632497.0 0
437290.0 631739.0 0
442067.0 636041.0 0
448416.0 631941.0 0
452141.0 635312.0 0
455928.0 631776.0 0
460509.0 632421.0 0
474080.0 631629.0 0
470464.0 634193.0 0
479046.0 631103.0 0
483606.0 632313.0 0
487276.0 632455.0 0
491745.0 634107.0 0
497342.0 633152.0 0
2127.67 638924.0 0
7079.48 637864.0 0
15193.1 636665.0 0
11907.3 639620.0 0
17385.8 640594.0 0
21637.3 637273.0 0
26475.6 640869.0 0
33085.0 640247.0 0
38019.3 636513.0 0
42261.4 639252.0 0
47824.0 636579.0 0
53156.8 640381.0 0
60084.7 640201.0 0
67638.2 636961.0 0
71878.6 636966.0 0
76577.4 640200.0 0
86785.9 636380.0 0
86854.8 640959.0 0
91893.4 638938.0 0
97525.9 636624.0 0
113058.0 639104.0 0
117042.0 640398.0 0
119940.0 638256.0 0
122928.0 640500.0 0
131732.0 636559.0 0
127691.0 640444.0 0
136245.0 636348.0 0
139334.0 640935.0 0
149310.0 638382.0 0
154711.0 636205.0 0
153883.0 640950.0 0
158660.0 638972.0 0
164078.0 639718.0 0
169363.0 637381.0 0
174293.0 636435.0 0
177575.0 638687.0 0
183321.0 638005.0 0
188146.0 640336.0 0
192931.0 637093.0 0
197040.0 637236.0 0
196858.0 640663.0 0
202602.0 637146.0 0
207672.0 636950.0 0
212324.0 636737.0 0
217634.0 637118.0 0
222892.0 636716.0 0
226732.0 640257.0 0
231084.0 636921.0 0
236019.0 637268.0 0
240836.0 637451.0 0
243003.0 641149.0 0
246058.0 636924.0 0
251805.0 636071.0 0
252468.0 640607.0 0
257716.0 637192.0 0
262802.0 636234.0 0
261211.0 640720.0 0
265965.0 640938.0 0
273321.0 638053.0 0
278524.0 637530.0 0
286978.0 637947.0 0
292300.0 637548.0 0
299794.0 640789.0 0
303244.0 637047.0 0
308626.0 640219.0 0
312656.0 637834.0 0
317568.0 636410.0 0
322288.0 638825.0 0
327026.0 637801.0 0
332552.0 636647.0 0
338583.0 636798.0 0
344343.0 637754.0 0
346761.0 640385.0 0
351944.0 640713.0 0
356659.0 637565.0 0
362505.0 637686.0 0
369228.0 638301.0 0
374525.0 637756.0 0
382500.0 636525.0 0
378281.0 637738.0 0
381308.0 640943.0 0
387420.0 637390.0 0
391090.0 639847.0 0
395773.0 637177.0 0
400109.0 637375.0 0
405856.0 636989.0 0
411158.0 636913.0 0
408205.0 640412.0 0
422689.0 638029.0 0
427713.0 640730.0 0
431508.0 637741.0 0
437129.0 637282.0 0
447024.0 637084.0 0
451596.0 640723.0 0
456783.0 637629.0 0
461626.0 636594.0 0
466604.0 637383.0 0
475266.0 636847.0 0
481119.0 636247.0 0
482852.0 640526.0 0
486625.0 637034.0 0
494227.0 639220.0 0
498259.0 637449.0 0
3369.22 644269.0 0
8752.86 642753.0 0
12931.9 643771.0 0
21776.1 642321.0 0
24419.9 645839.0 0
38644.5 642536.0 0
43100.2 645162.0 0
46767.0 641366.0 0
49252.3 645016.0 0
57479.0 645193.0 0
65236.7 641246.0 0
62276.8 645000.0 0
70169.3 641304.0 0
73860.6 642866.0 0
76945.7 645851.0 0
81620.6 642219.0 0
85933.2 645516.0 0
92897.9 643381.0 0
97271.8 642598.0 0
103417.0 641364.0 0
109109.0 641243.0 0
107310.0 646248.0 0
113545.0 643174.0 0
117747.0 645019.0 0
123485.0 646059.0 0
129124.0 645379.0 0
133359.0 641569.0 0
145028.0 642301.0 0
149965.0 642992.0 0
157985.0 644086.0 0
168364.0 642215.0 0
173940.0 642481.0 0
179952.0 642235.0 0
184428.0 642770.0 0
188309.0 645568.0 0
192903.0 641951.0 0
197013.0 645937.0 0
200967.0 642405.0 0
206680.0 642145.0 0
212779.0 642182.0 0
218358.0 642245.0 0
222656.0 642837.0 0
227952.0 645937.0 0
231968.0 641997.0 0
237382.0 642297.0 0
241642.0 645348.0 0
247977.0 642824.0 0
256696.0 642280.0 0
268185.0 646241.0 0
270546.0 641711.0 0
276303.0 642665.0 0
282703.0 642038.0 0
288944.0 642900.0 0
294718.0 642978.0 0
304688.0 641767.0 0
301442.0 646216.0 0
312192.0 642508.0 0
316817.0 641490.0 0
318059.0 645889.0 0
325502.0 642036.0 0
321625.0 643276.0 0
330701.0 642857.0 0
336326.0 641603.0 0
341887.0 641399.0 0
347795.0 645151.0 0
358896.0 641245.0 0
361909.0 643636.0 0
357844.0 645135.0 0
366565.0 643723.0 0
371369.0 645740.0 0
377520.0 641391.0 0
373659.0 641629.0 0
376882.0 646181.0 0
382042.0 645973.0 0
386284.0 642366.0 0
394759.0 643012.0 0
397884.0 645583.0 0
399266.0 641976.0 0
401457.0 645803.0 0
404080.0 641717.0 0
407423.0 645857.0 0
411986.0 642723.0 0
417972.0 641905.0 0
422734.0 645525.0 0
424284.0 642432.0 0
427137.0 645973.0 0
431700.0 643018.0 0
436836.0 641492.0 0
436712.0 646269.0 0
441110.0 641542.0 0
446486.0 642411.0 0
456516.0 642661.0 0
461410.0 641528.0 0
461809.0 646072.0 0
466265.0 642408.0 0
471476.0 641685.0 0
478173.0 642531.0 0
487229.0 642982.0 0
492869.0 644414.0 0
497869.0 642344.0 0
3714.71 651334.0 0
9511.4 647952.0 0
18082.9 647029.0 0
23483.6 650664.0 0
29120.1 648585.0 0
35161.1 646891.0 0
39120.1 646398.0 0
40362.8 650331.0 0
47058.7 649640.0 0
53039.7 648300.0 0
61352.1 650463.0 0
66347.5 647771.0 0
71677.6 647862.0 0
77453.0 651067.0 0
81826.1 648416.0 0
86475.8 651174.0 0
91009.6 647502.0 0
96213.2 647613.0 0
101434.0 647414.0 0
113064.0 648543.0 0
118472.0 650177.0 0
127893.0 651100.0 0
133080.0 646653.0 0
138158.0 646492.0 0
143725.0 648131.0 0
148195.0 646383.0 0
148748.0 651045.0 0
153251.0 647302.0 0
163141.0 646784.0 0
158345.0 651112.0 0
169429.0 647240.0 0
174345.0 647864.0 0
183443.0 646797.0 0
178746.0 647159.0 0
188605.0 651000.0 0
192819.0 646321.0 0
194546.0 651095.0 0
202798.0 646806.0 0
208429.0 646868.0 0
207226.0 651327.0 0
213062.0 648001.0 0
217794.0 646829.0 0
222605.0 647400.0 0
233075.0 646485.0 0
232057.0 650796.0 0
237523.0 647708.0 0
241631.0 650679.0 0
245612.0 647782.0 0
250014.0 647566.0 0
254929.0 647520.0 0
261407.0 646520.0 0
273833.0 647734.0 0
279420.0 647449.0 0
283717.0 646975.0 0
283544.0 651373.0 0
287224.0 647966.0 0
291590.0 647246.0 0
296232.0 648198.0 0
308009.0 646545.0 0
313696.0 646886.0 0
317029.0 650228.0 0
326345.0 646433.0 0
321974.0 648043.0 0
330763.0 648589.0 0
335077.0 646341.0 0
340118.0 646679.0 0
337801.0 651375.0 0
342331.0 651120.0 0
347220.0 650576.0 0
353111.0 646353.0 0
357013.0 649417.0 0
361431.0 648028.0 0
366513.0 648605.0 0
373474.0 650519.0 0
385829.0 647216.0 0
387165.0 651181.0 0
390936.0 647142.0 0
396393.0 649834.0 0
402181.0 650673.0 0
413015.0 648214.0 0
418753.0 648049.0 0
423572.0 651203.0 0
427473.0 650821.0 0
431481.0 647847.0 0
441851.0 646943.0 0
442015.0 651341.0 0
445974.0 647287.0 0
451425.0 646681.0 0
457379.0 647809.0 0
462779.0 650673.0 0
465740.0 646737.0 0
467961.0 650538.0 0
471629.0 647220.0 0
476157.0 647227.0 0
479042.0 651055.0 0
482442.0 646613.0 0
487434.0 648694.0 0
492260.0 649322.0 0
497441.0 646970.0 0
8988.23 655170.0 0
13720.0 652218.0 0
19201.4 654152.0 0
27341.2 653792.0 0
33388.8 653084.0 0
38467.9 656321.0 0
44101.3 654944.0 0
50534.1 654133.0 0
56034.6 653488.0 0
61377.2 655696.0 0
66919.4 653437.0 0
72832.4 653342.0 0
77348.2 656479.0 0
81737.6 653758.0 0
86144.1 656323.0 0
91564.5 653218.0 0
96635.9 652233.0 0
101597.0 653017.0 0
107719.0 653008.0 0
114616.0 653552.0 0
122234.0 653631.0 0
117907.0 655599.0 0
132256.0 656163.0 0
134467.0 651417.0 0
140156.0 652156.0 0
144728.0 654406.0 0
153225.0 652455.0 0
168352.0 651453.0 0
164303.0 652965.0 0
172560.0 652461.0 0
169005.0 656171.0 0
178334.0 652443.0 0
183475.0 651439.0 0
181966.0 656168.0 0
187080.0 656077.0 0
198051.0 655427.0 0
199659.0 651582.0 0
203169.0 652077.0 0
212339.0 652755.0 0
217231.0 651689.0 0
218409.0 656229.0 0
222147.0 652153.0 0
227120.0 651547.0 0
226768.0 656443.0 0
232132.0 656359.0 0
236815.0 652847.0 0
242153.0 655739.0 0
246715.0 652886.0 0
251700.0 651572.0 0
252184.0 656107.0 0
257055.0 653355.0 0
263707.0 653136.0 0
268864.0 651414.0 0
273200.0 652893.0 0
278018.0 652429.0 0
287972.0 651566.0 0
292935.0 651768.0 0
291930.0 656440.0 0
296420.0 651970.0 0
300263.0 652037.0 0
296344.0 655206.0 0
306176.0 652887.0 0
312131.0 651790.0 0
321346.0 652549.0 0
316831.0 655632.0 0
326429.0 651726.0 0
332650.0 653440.0 0
341835.0 655831.0 0
347350.0 656281.0 0
352624.0 651881.0 0
358330.0 654897.0 0
363578.0 652219.0 0
367242.0 656235.0 0
369205.0 651738.0 0
373247.0 656053.0 0
378242.0 651802.0 0
382758.0 653227.0 0
387476.0 656321.0 0
391789.0 652753.0 0
395804.0 655868.0 0
401222.0 656198.0 0
408193.0 651820.0 0
411214.0 656209.0 0
413530.0 652912.0 0
418409.0 654068.0 0
428388.0 654674.0 0
432700.0 651900.0 0
437036.0 651829.0 0
438204.0 656094.0 0
442143.0 655664.0 0
448550.0 651785.0 0
446117.0 656326.0 0
453752.0 651663.0 0
458258.0 652764.0 0
456462.0 656260.0 0
466006.0 655330.0 0
473136.0 652965.0 0
484291.0 653047.0 0
480281.0 655976.0 0
488652.0 652752.0 0
493699.0 653179.0 0
497977.0 651479.0 0
497110.0 656502.0 0
3259.6 658261.0 0
8500.5 660374.0 0
14372.2 658236.0 0
19432.5 659250.0 0
23818.6 657698.0 0
28949.7 658380.0 0
33754.5 658687.0 0
43056.0 660736.0 0
48087.9 658224.0 0
52830.1 658965.0 0
58067.7 657910.0 0
64645.9 657909.0 0
68923.7 660827.0 0
74002.8 658286.0 0
81871.6 659059.0 0
90450.7 657909.0 0
87033.6 661442.0 0
95317.6 657350.0 0
100799.0 658243.0 0
97398.5 661550.0 0
106144.0 659047.0 0
112166.0 657119.0 0
116422.0 660873.0 0
121354.0 658558.0 0
127012.0 657930.0 0
137294.0 656775.0 0
133336.0 661084.0 0
142324.0 658977.0 0
148877.0 657285.0 0
151243.0 661570.0 0
154177.0 657143.0 0
159935.0 657081.0 0
165258.0 658696.0 0
173177.0 657800.0 0
177548.0 657189.0 0
192859.0 657454.0 0
198669.0 660574.0 0
202973.0 656553.0 0
208779.0 656658.0 0
205550.0 660988.0 0
214155.0 656804.0 0
212420.0 661298.0 0
216814.0 661424.0 0
222511.0 656614.0 0
221102.0 661145.0 0
231478.0 661452.0 0
238126.0 657093.0 0
243020.0 661203.0 0
247110.0 657937.0 0
251827.0 660653.0 0
257522.0 658270.0 0
261076.0 657752.0 0
269080.0 656539.0 0
266091.0 661412.0 0
274101.0 657333.0 0
271015.0 661421.0 0
278642.0 657234.0 0
283429.0 656610.0 0
282225.0 661316.0 0
287679.0 656677.0 0
286738.0 661403.0 0
291423.0 661443.0 0
300913.0 657872.0 0
295981.0 659712.0 0
305984.0 658059.0 0
310976.0 657578.0 0
307910.0 661300.0 0
315929.0 661252.0 0
323214.0 657237.0 0
325653.0 660955.0 0
328496.0 656729.0 0
332731.0 658001.0 0
335455.0 661273.0 0
336880.0 656543.0 0
341250.0 661573.0 0
352809.0 657281.0 0
360234.0 661612.0 0
362771.0 657321.0 0
374274.0 660809.0 0
378650.0 656623.0 0
383002.0 657581.0 0
391759.0 657920.0 0
393790.0 661273.0 0
398122.0 660453.0 0
402955.0 661579.0 0
406604.0 657729.0 0
407519.0 661256.0 0
411151.0 661059.0 0
414765.0 656870.0 0
417057.0 660942.0 0
422160.0 661440.0 0
423513.0 656761.0 0
427454.0 661303.0 0
433197.0 656811.0 0
432585.0 661498.0 0
437024.0 660863.0 0
442705.0 660588.0 0
448075.0 661035.0 0
451669.0 656876.0 0
457848.0 660447.0 0
460932.0 656520.0 0
466417.0 660692.0 0
470424.0 657936.0 0
475790.0 658895.0 0
484281.0 658026.0 0
480921.0 661509.0 0
490446.0 658007.0 0
2051.99 663399.0 0
6241.94 664493.0 0
12227.7 663666.0 0
17836.3 663919.0 0
22088.7 661814.0 0
23341.3 666057.0 0
26201.5 662366.0 0
32485.4 662891.0 0
37442.8 662678.0 0
41624.8 665493.0 0
48115.6 663062.0 0
52857.2 665187.0 0
56820.2 662087.0 0
62431.9 662399.0 0
66411.8 666404.0 0
71152.0 665959.0 0
73585.0 662782.0 0
75934.0 666497.0 0
77629.3 661821.0 0
82760.0 663680.0 0
92898.5 662205.0 0
96978.0 665883.0 0
102186.0 663150.0 0
106275.0 663519.0 0
110570.0 662020.0 0
121534.0 663125.0 0
126222.0 663728.0 0
130813.0 666464.0 0
135916.0 665586.0 0
138126.0 661898.0 0
142157.0 663862.0 0
146438.0 661917.0 0
152598.0 666210.0 0
156149.0 662564.0 0
161086.0 662246.0 0
165422.0 664112.0 0
170541.0 662433.0 0
176239.0 661854.0 0
177640.0 666456.0 0
182064.0 661724.0 0
188144.0 661615.0 0
193642.0 663527.0 0
198398.0 666144.0 0
202294.0 663266.0 0
208663.0 666475.0 0
216049.0 665189.0 0
220489.0 666359.0 0
226540.0 661664.0 0
230890.0 666144.0 0
236762.0 661919.0 0
247849.0 661983.0 0
256356.0 662185.0 0
261134.0 662047.0 0
268966.0 666353.0 0
273384.0 666135.0 0
276012.0 661787.0 0
283223.0 665798.0 0
287031.0 665368.0 0
296755.0 664567.0 0
301891.0 663395.0 0
306435.0 665068.0 0
311503.0 663089.0 0
321257.0 662293.0 0
330082.0 662019.0 0
326595.0 666114.0 0
337270.0 666636.0 0
342391.0 666467.0 0
347600.0 662434.0 0
353736.0 662733.0 0
366555.0 662156.0 0
371323.0 663505.0 0
368673.0 666441.0 0
375075.0 666496.0 0
378722.0 662174.0 0
383645.0 661712.0 0
384318.0 666390.0 0
388878.0 661881.0 0
392698.0 664884.0 0
397516.0 666008.0 0
402499.0 665195.0 0
407088.0 665857.0 0
413254.0 666161.0 0
418695.0 666557.0 0
423756.0 665588.0 0
433632.0 666195.0 0
438371.0 665185.0 0
442774.0 666484.0 0
448341.0 666264.0 0
452926.0 662791.0 0
457652.0 665229.0 0
462095.0 662903.0 0
467044.0 666483.0 0
472180.0 662096.0 0
472742.0 666216.0 0
476881.0 664132.0 0
486122.0 663282.0 0
493115.0 663732.0 0
497547.0 661822.0 0
497892.0 666366.0 0
3052.85 668389.0 0
8036.0 668420.0 0
12539.5 668681.0 0
20276.8 667274.0 0
17443.2 669464.0 0
24096.7 670299.0 0
29413.1 666988.0 0
27459.4 671052.0 0
36611.0 668872.0 0
42084.6 669804.0 0
46809.1 667236.0 0
50470.7 669070.0 0
46634.0 671544.0 0
57570.8 666979.0 0
62038.7 667572.0 0
65818.6 671537.0 0
81152.6 668548.0 0
87064.2 667199.0 0
92409.8 667239.0 0
101462.0 667875.0 0
97137.8 670852.0 0
106520.0 667897.0 0
112174.0 667619.0 0
118333.0 667503.0 0
123610.0 667494.0 0
127225.0 671170.0 0
139924.0 668097.0 0
143584.0 667143.0 0
147532.0 666892.0 0
144896.0 671220.0 0
157260.0 667054.0 0
154617.0 671065.0 0
161754.0 667375.0 0
159641.0 671635.0 0
168035.0 667593.0 0
167750.0 671546.0 0
172870.0 667832.0 0
181846.0 666973.0 0
187542.0 667437.0 0
192337.0 667842.0 0
192090.0 670896.0 0
202922.0 666802.0 0
203431.0 671541.0 0
213844.0 668243.0 0
213920.0 671713.0 0
217680.0 671243.0 0
222311.0 671491.0 0
225607.0 667201.0 0
232921.0 671764.0 0
235717.0 667379.0 0
240372.0 667111.0 0
242979.0 671461.0 0
246195.0 667033.0 0
253166.0 667311.0 0
259550.0 666940.0 0
264203.0 667165.0 0
265924.0 671155.0 0
278441.0 666805.0 0
276985.0 671311.0 0
282199.0 671578.0 0
287666.0 670514.0 0
291324.0 666939.0 0
300783.0 668056.0 0
296073.0 670211.0 0
305754.0 670720.0 0
310203.0 667406.0 0
316042.0 667470.0 0
322090.0 667712.0 0
331516.0 667479.0 0
327426.0 671611.0 0
346474.0 668103.0 0
341851.0 670763.0 0
350969.0 666916.0 0
351949.0 671528.0 0
357520.0 667563.0 0
363504.0 667089.0 0
367655.0 670851.0 0
372359.0 670470.0 0
376915.0 671488.0 0
379815.0 666789.0 0
382071.0 671250.0 0
389179.0 667350.0 0
393966.0 671471.0 0
402135.0 668579.0 0
411480.0 671395.0 0
423324.0 671263.0 0
428358.0 666969.0 0
437523.0 668757.0 0
440937.0 671444.0 0
453881.0 668145.0 0
458312.0 671586.0 0
461496.0 667400.0 0
464026.0 671621.0 0
473937.0 670846.0 0
477985.0 667630.0 0
478666.0 671765.0 0
481894.0 666698.0 0
483130.0 671122.0 0
489748.0 667256.0 0
494160.0 668028.0 0
492510.0 671817.0 0
497308.0 671364.0 0
2916.19 674052.0 0
8578.03 673229.0 0
14312.5 673171.0 0
17518.6 676924.0 0
20640.2 673106.0 0
25992.4 675281.0 0
30956.0 672303.0 0
35084.5 674010.0 0
39543.8 673718.0 0
50291.6 673698.0 0
46310.2 676452.0 0
54797.2 671904.0 0
60568.2 671960.0 0
58196.5 676715.0 0
63487.9 676262.0 0
68071.1 675961.0 0
72313.2 671955.0 0
78432.8 673328.0 0
82148.2 672812.0 0
85545.5 672125.0 0
81842.7 676834.0 0
91589.7 672893.0 0
86945.6 676723.0 0
103015.0 673569.0 0
109075.0 672545.0 0
112214.0 676887.0 0
113609.0 672306.0 0
116849.0 674972.0 0
121541.0 672543.0 0
133706.0 672406.0 0
140126.0 673485.0 0
144532.0 676344.0 0
149572.0 672586.0 0
153233.0 676566.0 0
158270.0 675883.0 0
162873.0 676293.0 0
163817.0 671906.0 0
168157.0 676422.0 0
171791.0 672834.0 0
177245.0 672123.0 0
174028.0 675885.0 0
183611.0 671960.0 0
181755.0 676901.0 0
188768.0 672176.0 0
192337.0 675818.0 0
197368.0 671938.0 0
201768.0 676198.0 0
209185.0 673531.0 0
214539.0 676068.0 0
218942.0 676655.0 0
222500.0 676700.0 0
227443.0 672078.0 0
232259.0 676833.0 0
238566.0 671884.0 0
242394.0 676124.0 0
247864.0 672776.0 0
251801.0 672148.0 0
252500.0 676703.0 0
255785.0 672916.0 0
260852.0 672115.0 0
267213.0 676862.0 0
271811.0 671970.0 0
277619.0 675875.0 0
286755.0 675702.0 0
291579.0 673311.0 0
300552.0 672573.0 0
296761.0 676333.0 0
307587.0 676119.0 0
311668.0 672100.0 0
316848.0 673932.0 0
321923.0 672521.0 0
332615.0 672120.0 0
331730.0 676619.0 0
337057.0 672119.0 0
342960.0 675693.0 0
347080.0 673117.0 0
357735.0 673869.0 0
362962.0 672217.0 0
366541.0 675420.0 0
362430.0 676665.0 0
372135.0 675482.0 0
376912.0 676007.0 0
381053.0 676105.0 0
387565.0 672664.0 0
396901.0 676646.0 0
399565.0 672300.0 0
405516.0 672942.0 0
412901.0 676328.0 0
417176.0 672007.0 0
422479.0 676423.0 0
429661.0 672360.0 0
432781.0 676413.0 0
435220.0 672229.0 0
442995.0 676287.0 0
446539.0 671885.0 0
451829.0 672614.0 0
452401.0 676571.0 0
456582.0 676863.0 0
461871.0 676627.0 0
469206.0 671902.0 0
467418.0 676792.0 0
472620.0 675382.0 0
477317.0 676228.0 0
482290.0 676001.0 0
487725.0 671972.0 0
493000.0 676268.0 0
497500.0 676346.0 0
1225.6 677832.0 0
2838.6 681561.0 0
6720.47 677612.0 0
11856.6 677036.0 0
13288.0 681844.0 0
18042.2 681443.0 0
21656.9 677078.0 0
27253.0 681321.0 0
31697.6 677127.0 0
37329.7 678744.0 0
42108.0 677142.0 0
47701.4 681439.0 0
52502.6 677942.0 0
62048.3 681217.0 0
67596.5 681551.0 0
71623.2 678234.0 0
76728.5 678376.0 0
91638.5 679178.0 0
97182.9 676957.0 0
107114.0 677949.0 0
102116.0 678873.0 0
112930.0 681463.0 0
118062.0 679836.0 0
122830.0 677686.0 0
128679.0 677366.0 0
135209.0 679188.0 0
139547.0 677622.0 0
143442.0 681322.0 0
148598.0 677735.0 0
151015.0 681814.0 0
157222.0 681393.0 0
162974.0 681068.0 0
172973.0 680239.0 0
177417.0 677603.0 0
183244.0 681692.0 0
186646.0 676983.0 0
188101.0 681582.0 0
192561.0 681357.0 0
197470.0 677583.0 0
202500.0 681576.0 0
206058.0 678898.0 0
212656.0 681388.0 0
217500.0 681532.0 0
222500.0 681401.0 0
226811.0 677734.0 0
232848.0 681508.0 0
237229.0 677012.0 0
237720.0 681923.0 0
242755.0 680683.0 0
247092.0 677620.0 0
247898.0 681952.0 0
252099.0 680955.0 0
256711.0 677560.0 0
256406.0 681783.0 0
261545.0 677303.0 0
272697.0 677793.0 0
277066.0 681917.0 0
282127.0 678654.0 0
286919.0 681658.0 0
291419.0 678311.0 0
302650.0 676916.0 0
304055.0 681576.0 0
308259.0 680533.0 0
312219.0 677204.0 0
320942.0 677457.0 0
316450.0 678794.0 0
326418.0 677548.0 0
323334.0 681573.0 0
337572.0 677800.0 0
342769.0 681616.0 0
347472.0 678189.0 0
352879.0 677357.0 0
357995.0 679390.0 0
368516.0 679745.0 0
378328.0 680381.0 0
385456.0 678023.0 0
391355.0 677545.0 0
401804.0 677331.0 0
398017.0 681753.0 0
407793.0 678555.0 0
412630.0 681560.0 0
417869.0 677717.0 0
422260.0 680975.0 0
426727.0 677002.0 0
430313.0 679707.0 0
437557.0 676964.0 0
441126.0 681645.0 0
448171.0 677324.0 0
452469.0 681727.0 0
464419.0 680690.0 0
474391.0 680085.0 0
479393.0 681108.0 0
483968.0 680638.0 0
488500.0 677371.0 0
492762.0 680217.0 0
497500.0 681320.0 0
1606.41 686616.0 0
8060.39 682472.0 0
5652.2 687077.0 0
10876.0 686591.0 0
17004.9 686725.0 0
22083.7 683615.0 0
28271.3 686796.0 0
32883.4 682552.0 0
37563.9 684403.0 0
42139.7 682181.0 0
47081.4 686606.0 0
52126.3 683696.0 0
56760.4 682028.0 0
62435.3 686467.0 0
67100.8 686487.0 0
73058.7 683178.0 0
78394.3 683542.0 0
84275.8 682248.0 0
89771.4 683634.0 0
87172.0 687094.0 0
94474.2 683496.0 0
99105.0 682232.0 0
104188.0 683276.0 0
108974.0 682148.0 0
108570.0 687032.0 0
115977.0 683751.0 0
122200.0 682661.0 0
119289.0 686950.0 0
128233.0 684770.0 0
134940.0 684406.0 0
139047.0 682699.0 0
147028.0 683602.0 0
143430.0 686352.0 0
162834.0 686188.0 0
167823.0 682380.0 0
173413.0 686526.0 0
178021.0 682161.0 0
181764.0 686943.0 0
187123.0 686342.0 0
197246.0 682227.0 0
198738.0 686206.0 0
202933.0 686204.0 0
208031.0 683442.0 0
212275.0 686788.0 0
217524.0 686301.0 0
222455.0 686425.0 0
227998.0 683044.0 0
231436.0 686254.0 0
236422.0 686631.0 0
241592.0 685284.0 0
247239.0 687064.0 0
253438.0 686162.0 0
258765.0 686607.0 0
260823.0 682304.0 0
262771.0 686418.0 0
265601.0 682051.0 0
267192.0 686833.0 0
270820.0 682888.0 0
282291.0 683057.0 0
281902.0 686592.0 0
286952.0 686861.0 0
292494.0 683446.0 0
298607.0 682680.0 0
301837.0 686911.0 0
306200.0 685800.0 0
310594.0 686477.0 0
312847.0 682405.0 0
318515.0 683378.0 0
327898.0 682781.0 0
333231.0 682187.0 0
337959.0 683696.0 0
351184.0 682407.0 0
347014.0 685028.0 0
356604.0 684725.0 0
362941.0 682321.0 0
367751.0 687073.0 0
373221.0 683405.0 0
382981.0 682497.0 0
384879.0 687067.0 0
388416.0 682868.0 0
393453.0 682964.0 0
399968.0 687035.0 0
403360.0 682170.0 0
407984.0 683840.0 0
404006.0 686360.0 0
412936.0 686923.0 0
417708.0 682880.0 0
422665.0 686046.0 0
426984.0 682938.0 0
431798.0 686543.0 0
434934.0 682412.0 0
446525.0 684204.0 0
459267.0 682124.0 0
462140.0 687016.0 0
469190.0 682359.0 0
473662.0 686960.0 0
484239.0 684773.0 0
479809.0 686545.0 0
488137.0 682615.0 0
492976.0 685704.0 0
2251.05 691028.0 0
23584.5 688588.0 0
33263.5 687946.0 0
38076.4 688905.0 0
42392.6 687327.0 0
51729.0 688437.0 0
57066.4 687593.0 0
63550.9 691816.0 0
71200.0 688100.0 0
68422.8 691709.0 0
76013.1 687847.0 0
81800.8 688755.0 0
87351.6 691495.0 0
91899.1 687966.0 0
97762.5 687613.0 0
103191.0 688929.0 0
113930.0 687564.0 0
112277.0 691728.0 0
117342.0 691663.0 0
123859.0 689497.0 0
128106.0 690776.0 0
133531.0 688681.0 0
137285.0 692189.0 0
138542.0 687210.0 0
147006.0 687541.0 0
142960.0 691625.0 0
151442.0 687615.0 0
148095.0 691483.0 0
157386.0 687739.0 0
162927.0 691284.0 0
167750.0 687381.0 0
167360.0 691918.0 0
177954.0 687469.0 0
177548.0 691322.0 0
182500.0 691869.0 0
186767.0 691429.0 0
193332.0 687270.0 0
197785.0 692121.0 0
203473.0 691102.0 0
207314.0 687804.0 0
213261.0 691913.0 0
218097.0 691357.0 0
222114.0 691333.0 0
226548.0 687571.0 0
225922.0 691856.0 0
230911.0 691756.0 0
236700.0 691846.0 0
242527.0 691221.0 0
256709.0 690839.0 0
273235.0 687373.0 0
272410.0 692022.0 0
277679.0 687448.0 0
283236.0 690759.0 0
290992.0 687996.0 0
296083.0 688675.0 0
301153.0 691555.0 0
307547.0 691911.0 0
315025.0 687979.0 0
320098.0 688362.0 0
325638.0 688155.0 0
331337.0 687163.0 0
336106.0 687731.0 0
332217.0 692067.0 0
342010.0 688303.0 0
351392.0 687833.0 0
347234.0 690166.0 0
356261.0 690565.0 0
361417.0 688452.0 0
372898.0 690147.0 0
378738.0 687629.0 0
382420.0 691491.0 0
389728.0 688204.0 0
394635.0 687335.0 0
397530.0 692085.0 0
402467.0 691603.0 0
407192.0 688770.0 0
411682.0 691983.0 0
418127.0 687595.0 0
422818.0 691217.0 0
427345.0 688198.0 0
432602.0 691329.0 0
436436.0 687664.0 0
441473.0 687453.0 0
446091.0 689325.0 0
451484.0 688423.0 0
457330.0 688269.0 0
462301.0 692134.0 0
467377.0 688349.0 0
477763.0 691672.0 0
482857.0 691698.0 0
487460.0 688734.0 0
492474.0 691886.0 0
497909.0 687584.0 0
497459.0 691583.0 0
5537.42 693088.0 0
10561.2 692533.0 0
17115.3 693222.0 0
22593.5 693379.0 0
27762.2 692278.0 0
33304.3 693413.0 0
38717.5 693724.0 0
42847.0 695466.0 0
47163.4 692417.0 0
53067.2 693434.0 0
58246.2 692901.0 0
72804.4 692633.0 0
77436.5 692496.0 0
82566.1 693695.0 0
92576.5 693125.0 0
98302.0 693140.0 0
102958.0 693638.0 0
107349.0 692232.0 0
121509.0 693129.0 0
125562.0 693890.0 0
131978.0 694245.0 0
153250.0 693051.0 0
158499.0 693090.0 0
172160.0 692391.0 0
191029.0 692933.0 0
208229.0 692316.0 0
248078.0 692603.0 0
252476.0 692342.0 0
261172.0 692821.0 0
266726.0 692624.0 0
277895.0 692690.0 0
288543.0 692294.0 0
293446.0 693106.0 0
297353.0 694558.0 0
313510.0 692920.0 0
318602.0 693125.0 0
323175.0 692673.0 0
327462.0 693719.0 0
337539.0 693123.0 0
342801.0 694245.0 0
351788.0 693259.0 0
347225.0 694143.0 0
359222.0 694458.0 0
363701.0 693195.0 0
367757.0 692319.0 0
377190.0 692954.0 0
372530.0 694636.0 0
386600.0 692352.0 0
392347.0 692575.0 0
406579.0 693776.0 0
417382.0 692976.0 0
427688.0 693406.0 0
438087.0 692327.0 0
443262.0 693116.0 0
448201.0 693106.0 0
452854.0 694174.0 0
457459.0 692906.0 0
467076.0 693716.0 0
472275.0 693163.0 0
487932.0 693854.0 0
POINT_DATA 5000
SCALARS Radius float 1
LOOKUP_TABLE default
4931.38 6324.23 3843.58 4194.5 5379.87 4792.73 4736.58 3485.26 4329.05 4151.94 4049.23 5337.48 6124.89 5708.81 5252.48 4780.03 5495.39 3996.0 3856.1 4665.12 3383.4 4133.88 4834.9 3850.77 6044.04 5415.48 5120.0 3863.18 2356.98 4998.37 6182.6 5492.18 5258.36 5061.3 3642.12 3163.97 5812.43 5122.66 5906.14 5484.19 7513.1 5254.28 4436.4 5733.48 4672.91 5580.89 5645.7 5176.86 6810.52 5840.26 6110.27 5561.06 5073.35 3615.22 5670.04 4380.59 6716.79 5759.91 7613.27 4951.03 5529.52 5255.32 6037.08 5096.78 6756.95 4129.43 3320.52 4727.24 4270.53 5191.63 5344.25 4593.7 4150.99 4478.15 4043.57 5925.6 4501.51 5513.6 4556.36 6082.81 4685.34 3191.99 5601.05 4929.8 3586.91 3103.0 3554.9 4015.92 5542.21 4487.31 3936.02 4044.71 5980.74 4094.62 4927.02 5546.39 5325.36 5484.83 5085.53 5351.6 4730.36 4715.55 5867.73 3951.75 5013.56 4499.64 4375.68 5542.27 5054.98 6030.06 5170.02 3557.27 4927.31 4688.68 4402.52 4517.56 4182.53 5903.42 3588.44 3955.56 3761.32 4118.05 4366.19 5553.16 3672.51 2938.66 4940.78 4231.61 4008.92 3942.53 3379.84 3589.27 4827.82 3997.1 3607.45 3260.67 5123.52 3038.33 4392.68 4333.2 7199.21 4523.7 2240.39 5091.39 5293.9 3912.37 6142.94 4602.25 5082.47 4790.08 4763.45 5445.87 4216.92 4177.94 5113.21 4107.03 3929.19 3771.48 5681.38 4138.42 3708.04 6013.14 3240.09 5110.37 4382.74 5664.98 5927.43 4651.28 4384.42 3693.63 4516.43 5481.78 5637.59 4937.14 5043.05 5816.2 5109.54 6483.19 5945.65 6759.9 5538.89 7021.47 5416.38 6059.59 2720.68 4955.55 5701.86 3563.63 4238.81 4468.59 5885.03 2837.58 5325.02 5200.76 5017.13 4862.64 5185.34 4432.58 6684.56 3968.64 4688.67 2635.86 5292.64 6166.5 5065.13 5936.02 5305.17 4861.08 4003.05 5390.22 4805.87 4712.33 5227.21 5697.78 4667.36 4091.31 6372.62 4295.38 5615.42 7565.34 5923.5 4612.68 4973.83 6342.25 6691.39 5344.0 4840.84 6045.46 3815.26 4704.72 5908.1 4742.68 4571.7 5634.83 5782.6 4862.21 4271.69 4502.5 5922.5 5198.77 5987.17 5147.67 3979.82 4901.41 2765.2 5138.31 5264.06 6327.9 6355.42 4362.19 5690.56 4948.92 3115.91 4493.48 3307.12 5924.89 5693.81 4002.16 4174.52 4138.16 3486.22 3829.13 4684.5 6230.49 6458.82 5418.62 4601.27 5493.32 5740.68 5926.61 6051.14 5836.15 3261.21 4345.55 6704.06 3653.41 3871.88 3856.01 5246.2 4390.66 5279.39 3673.74 5205.43 6116.18 7447.37 4924.6 4385.06 4733.32 7184.19 2899.43 2924.37 3867.67 4290.3 5399.73 4660.72 3888.21 5891.05 6038.78 6902.81 4254.17 6644.76 5629.19 5090.24 5740.84 5530.87 4281.49 4310.18 7134.64 5978.9 4187.56 3629.62 4997.27 5135.69 4301.06 4020.32 4245.72 4541.21 4344.58 6048.7 5896.46 5495.84 6268.1 5820.48 7034.11 6261.42 2586.12 5499.11 3633.87 4850.01 3970.25 5643.58 4292.06 5011.31 5006.58 4602.86 4659.59 3688.8 4548.16 4048.37 3369.23 5449.18 5492.26 5244.78 5762.84 3937.74 4749.8 6084.86 4778.34 5478.92 5551.36 6894.71 3091.3 4414.54 5789.98 7054.71 3641.64 5489.43 5747.75 4277.89 4796.33 4195.44 5539.32 5360.19 6496.85 5600.93 4874.39 5541.59 4124.71 5728.85 4827.23 4911.47 5803.39 5863.59 4381.97 6257.19 3255.82 5242.73 2812.98 4065.69 5603.15 4695.45 6052.7 3921.18 3798.62 5308.1 3666.57 4907.89 4937.02 5655.21 4786.6 4645.41 4433.59 6445.94 4320.28 5542.14 4218.06 6308.71 4716.19 5514.76 3456.98 4877.67 4290.14 3066.13 6562.18 4156.38 5316.75 4164.68 6133.92 5022.8 4178.4 3719.84 3784.5 4861.06 3979.26 3471.03 5253.55 5011.84 6946.21 5433.8 6125.34 4011.77 4527.08 5347.48 4810.12 5215.05 2775.04 5577.04 5586.81 4621.75 4551.24 5358.59 4220.88 4515.71 6519.71 6640.13 5082.6 5810.84 4230.54 5094.44 3748.24 4655.49 4467.94 4850.81 6038.14 6138.47 5527.54 5573.7 5697.4 4727.62 5054.25 4270.95 4055.8 7325.81 5280.17 6425.26 4794.96 6186.19 4839.34 5083.08 6834.49 6337.56 5525.39 3998.5 5938.34 4024.3 6394.38 5555.28 4737.14 4686.65 5834.74 5556.96 5788.23 5581.75 6392.01 6730.19 4907.06 3735.44 4073.93 6043.3 5952.75 6332.36 6122.55 2739.94 4931.53 5480.13 6695.82 6405.76 3498.2 5105.16 4302.5 6006.16 5448.61 6009.88 7055.53 5669.65 5934.22 3095.48 3780.23 4166.08 6481.79 5320.28 4298.67 5960.66 3999.48 4203.26 6608.73 6057.22 4359.62 5062.71 5690.26 4156.2 4497.59 5965.78 4374.35 6396.74 4138.46 3821.72 4986.77 6318.18 4481.53 3948.17 4581.13 5330.45 4219.07 3610.4 6387.01 5367.52 4322.15 5210.03 3092.35 3629.96 5478.47 5351.39 6142.37 6061.47 4933.21 5375.47 2540.31 5120.49 6029.66 5262.61 6302.8 5409.61 6038.2 4005.44 5206.78 5555.88 6732.43 5143.58 6362.12 4484.76 4840.01 2980.99 5611.2 7933.0 4455.12 5173.87 4894.16 5380.13 5711.87 5118.27 5169.36 5932.23 5791.61 3369.13 4479.66 3043.85 5367.2 5461.13 4726.76 3599.45 5839.13 5489.34 5163.9 5708.14 5537.72 3920.42 8332.24 6155.31 4223.33 5911.67 5329.64 3323.28 5709.62 5835.78 5794.24 2476.04 4678.38 5050.65 4827.33 5513.57 5013.67 5729.23 5826.04 5624.49 5762.59 4123.6 5374.51 6739.08 5224.12 4797.52 4569.12 4796.58 5873.69 4962.09 5654.31 5188.81 4730.41 3745.84 5696.88 3923.03 5607.14 5975.63 5252.34 5564.02 4274.61 2965.79 6898.19 6035.6 5137.34 5423.0 5077.33 3856.59 4746.52 5413.79 6338.89 6202.55 5025.39 4714.54 5893.5 3320.11 5030.91 6022.17 5119.37 3982.23 6163.38 4566.18 4723.12 3459.9 4964.09 5201.36 5024.9 4306.53 5094.81 5972.06 5713.22 5861.71 5028.96 4359.04 3183.98 3866.16 3794.63 4524.28 3778.1 5152.36 4511.82 5826.64 4220.65 6820.42 4816.2 4896.52 4751.02 3372.79 4941.22 5282.64 4715.72 4669.66 4808.52 5046.33 5607.24 5053.92 6352.26 5495.68 3847.38 3818.59 4863.72 5002.48 6623.85 4262.82 5102.36 4342.9 4553.56 4051.44 6049.55 5941.72 5991.09 4127.74 3942.07 5133.97 7443.72 3937.08 5260.34 5371.02 5206.48 6586.45 5226.0 5339.78 3365.82 4143.78 7092.87 4850.14 7042.12 6326.39 6817.32 4471.58 6643.85 3637.61 6098.14 4472.17 6222.42 4938.74 5470.77 4643.85 4004.04 5082.74 4289.17 6915.83 6072.45 4410.55 7099.43 5526.14 5198.29 3689.45 3975.31 5572.95 3868.18 6723.16 5584.06 7111.16 3817.13 4547.19 5507.24 6851.54 4583.31 4503.89 5806.08 4997.27 4853.39 4093.08 4809.42 4449.22 5543.27 4717.05 5659.17 6135.57 5998.38 4312.67 5423.8 4270.24 4989.15 5017.78 5015.69 6175.81 4727.24 6677.09 4305.57 6959.81 4829.35 5201.67 6321.41 4089.76 5526.55 3192.41 5184.56 5215.15 4987.87 3315.57 5804.71 4764.96 5727.3 4242.52 5356.51 4277.88 3057.03 4087.15 4143.08 7500.97 3948.23 5228.18 5065.11 5787.31 5868.82 5069.84 4050.9 4978.31 4241.89 5054.74 4099.77 4537.32 4656.78 5126.91 6600.94 4788.58 6155.1 4709.35 5876.71 4373.3 4750.78 5029.78 4538.95 4163.5 5724.64 4970.88 4763.66 5965.15 5163.55 4666.81 4636.5 4819.73 3382.7 3954.91 6471.55 5085.71 2965.01 5644.82 4319.79 6263.44 5960.56 6343.14 5774.97 5501.93 4020.95 5463.38 5462.21 5945.21 3474.39 5750.71 4831.47 6470.3 4200.03 6062.05 4735.33 5092.37 6444.77 6314.07 4287.63 5315.4 4516.28 6449.45 4044.45 5125.78 3824.16 5344.43 4373.47 5045.38 5372.61 3686.21 6480.17 5023.15 4377.07 3813.22 5570.3 4336.42 5243.29 7589.94 3130.65 5628.24 5856.11 5287.2 3327.49 4109.88 4234.94 4562.29 5013.13 5080.66 3417.33 4926.42 4164.13 4642.34 4520.1 4947.52 5874.89 4293.03 4389.21 3791.79 4424.7 4925.44 4754.05 4951.47 6084.93 4307.28 3697.96 4739.42 5538.93 5020.12 4745.45 2631.9 5281.28 6255.18 4668.71 4758.21 7228.46 6362.14 6719.88 5978.82 3927.99 5266.5 4523.88 4948.98 5227.52 4414.48 4981.9 4092.24 5163.02 7144.24 3600.43 4906.82 5131.24 5196.67 6496.67 5474.8 6262.72 3664.11 6515.84 2990.77 4888.6 5078.86 4780.2 4940.42 5100.1 3703.1 6090.91 4946.42 5923.4 3295.83 5081.78 4459.28 5499.39 6116.33 6250.23 6413.02 4863.27 4118.84 5862.86 6313.06 3493.7 4719.7 6939.12 4406.4 5411.85 4413.85 4844.57 4027.46 4470.98 5759.46 5776.37 3921.08 4190.31 3627.82 5678.96 5262.19 4244.9 6070.58 6034.41 5350.88 5130.91 5402.24 4519.22 6445.22 3844.9 3695.36 5101.59 3963.86 4306.11 3848.93 5935.47 3402.32 5903.66 4528.49 5004.67 5365.89 5992.26 3960.8 5070.39 4980.85 5714.58 5110.45 5208.32 5248.77 4083.97 4607.02 5153.74 3895.51 4528.09 4165.81 5813.4 6291.51 4128.98 5882.89 6246.22 4188.32 5246.61 4100.38 5344.77 4723.48 4899.11 5097.87 4278.07 7267.18 6256.02 5320.92 5269.18 4406.1 5034.59 4942.77 4263.33 5080.18 4454.63 5912.61 4066.38 3279.1 4403.98 4560.84 4729.43 5776.57 4562.74 5598.74 5687.83 5004.23 6442.69 6320.71 4648.04 6607.87 5117.47 3163.78 4925.63 3293.56 5882.65 4739.14 4918.77 4434.19 4371.99 3561.29 5187.7 4219.78 4623.61 4188.3 4963.34 3885.86 5019.93 5235.29 5177.64 4260.92 4479.94 5453.3 4407.9 3492.19 4584.5 5122.63 6049.79 2315.64 5374.98 4703.08 6345.13 4390.41 5274.19 5516.95 5313.22 3905.51 3999.94 4864.22 3901.8 5511.88 5083.41 7055.42 6048.86 4285.32 5490.43 5022.28 5452.83 4959.34 4948.5 4527.02 4531.14 4564.34 3838.56 4871.44 5076.35 6020.48 6375.99 5200.05 5234.29 5313.66 5419.37 4466.03 4511.54 5409.33 5196.0 4923.9 4973.78 3329.99 3947.47 3296.27 4713.25 4204.84 6243.0 6673.96 3556.85 5441.96 3435.9 5174.89 4288.3 5370.52 4652.29 5774.81 3746.31 5498.32 5027.98 5346.27 6475.1 4969.21 2691.29 2845.98 5289.52 5314.85 4305.43 5450.44 6510.17 5742.65 5592.32 5381.16 5565.13 6193.35 6086.96 5233.78 5653.9 5046.21 5683.26 5894.61 5139.5 7493.3 4814.55 3527.05 5698.77 4721.32 3464.83 2477.07 4305.16 5092.28 5274.14 4903.82 5746.28 4082.47 5511.6 6261.75 4338.08 4378.3 5469.47 4255.31 5660.16 6134.99 4094.73 4440.57 4718.54 5548.29 6766.43 5916.16 5226.56 5599.49 4097.57 5017.5 5563.79 6171.13 2395.5 3497.9 4512.11 6248.6 5486.68 3836.45 5683.61 5100.25 6894.26 4986.51 5197.52 5178.99 5383.07 4591.87 5013.42 4790.78 4247.15 6552.22 5651.07 6248.81 5273.35 4091.8 2651.49 4645.58 5512.23 5275.32 5985.29 4898.94 4178.15 4613.31 4733.04 6119.09 5788.66 5091.68 7531.29 5069.25 5048.89 5935.03 3161.47 3991.03 6390.78 7435.25 6826.57 4788.87 4495.87 6022.72 4643.31 5527.33 6917.52 5402.21 4989.09 4880.14 4982.31 4307.48 3848.54 5941.4 5331.02 4871.96 4863.23 4402.67 4470.61 4631.83 4384.88 6887.27 3701.27 6008.49 4806.34 4287.53 5612.21 4929.14 5945.08 3979.54 5304.13 5944.09 5833.06 4923.41 4497.31 6413.11 5384.76 5529.42 5257.12 4965.89 5243.43 5659.95 5551.9 4152.85 2908.7 4453.64 3757.34 6415.61 4517.73 4687.64 4419.71 5037.06 4541.8 4989.56 3838.47 5175.29 2588.37 5842.56 6736.03 6235.57 5412.31 3623.87 3087.09 7480.41 6934.37 6113.95 4890.5 4050.08 3981.07 5452.42 4901.07 5328.22 6853.85 4020.4 5941.61 3493.47 5782.48 5443.58 4558.46 5805.86 4049.02 4470.4 5311.03 5339.38 6169.11 5615.35 4027.09 6422.84 4502.18 5379.09 4602.85 4962.77 5872.05 4853.02 6259.23 5181.4 5670.2 4711.62 4247.23 4114.24 4268.65 4694.83 5509.42 4354.08 4256.43 5936.36 4520.62 3903.75 4755.47 4485.99 5127.16 5475.8 5314.69 6050.81 5543.46 4249.46 5965.81 3702.37 4750.17 5660.85 2330.66 4177.19 3587.05 6229.37 6718.19 5282.91 4425.84 3797.33 7256.35 4800.69 3555.86 6566.1 6386.78 4996.99 4896.39 6081.14 5480.83 4607.85 4220.46 5128.57 6000.7 5604.21 4968.03 3169.67 3306.14 3361.92 5490.58 4863.79 4702.06 3967.48 3830.46 6213.04 6031.67 4689.15 6138.12 4428.78 5409.66 4537.14 4345.67 4765.72 4642.66 4752.14 5329.59 4888.12 4950.97 5512.16 3197.63 4863.96 5191.08 5887.15 5203.08 5374.07 5163.77 3423.15 4488.85 3731.84 4579.69 3554.48 6496.52 5186.3 5005.85 3436.15 4216.17 4151.76 6484.17 4721.02 4596.75 4933.65 3374.08 4031.78 6098.1 5708.99 5687.85 5346.68 5255.12 5296.29 4611.53 4285.66 4896.11 5172.53 4135.62 5801.99 5534.94 5210.48 7644.38 7552.94 6101.92 5323.3 5088.44 4998.21 4662.56 5166.79 5349.31 2976.22 4649.22 5394.55 5094.52 4946.74 2682.24 5928.32 5229.48 5475.7 4016.18 5526.75 5435.74 4244.99 5327.45 5560.26 6185.89 3997.96 4439.35 3460.94 3990.25 3691.0 3758.07 4752.51 4236.14 4407.87 5733.62 5282.51 4460.92 5945.89 4042.28 4105.55 4340.76 6065.22 4456.39 4221.28 5514.84 3633.79 5421.53 5937.08 6070.3 5233.29 4312.56 4612.06 5204.04 4750.58 6710.88 5395.14 5235.11 6622.11 3685.13 6790.73 4655.16 5251.4 3867.19 5097.69 5857.79 4039.91 5276.7 5036.58 6119.63 5411.02 4752.9 4287.16 5199.44 4062.5 4435.51 4588.7 5683.95 3766.55 6027.62 5010.2 5966.61 5711.11 4938.72 4254.37 3546.71 5768.57 5564.23 5950.04 4231.83 2435.33 6401.43 5020.71 2681.29 5094.48 3872.61 4238.4 4318.48 6132.95 5266.22 4860.33 3685.13 6004.68 4051.34 3627.55 6239.84 4635.6 4256.67 3457.48 3931.07 3405.98 5417.15 3688.16 4681.72 4945.39 5996.33 3950.63 5415.19 4612.62 3619.07 4275.57 4467.04 6385.23 2983.99 2614.4 6363.92 6205.93 4923.24 5830.72 6184.4 3828.81 4373.45 5309.98 4082.57 5255.18 5169.9 3004.16 4767.78 5235.17 4779.5 4421.12 5254.49 6649.96 4303.19 5784.3 3914.2 4256.57 6088.68 4135.08 5620.74 4778.82 6124.08 5467.84 5053.95 5926.11 6667.68 5767.9 5211.38 5089.62 4590.55 4741.26 5920.32 4186.6 4255.85 4732.09 3988.3 6136.49 6543.13 4356.25 5149.72 4216.95 5776.96 5464.25 5486.48 5301.47 4617.55 3645.12 6200.54 5424.88 5415.85 4199.45 8659.64 6599.66 5469.13 4233.8 5765.42 6123.03 4997.83 4893.49 4575.94 5325.44 5021.88 5956.65 4498.25 4188.87 3735.24 6574.95 4074.48 6333.29 4558.47 5731.57 5997.88 5839.71 5576.92 6408.83 3930.79 5226.97 4004.35 3312.06 5180.76 3361.26 6799.4 5278.36 5865.39 4427.28 6079.11 3082.32 6430.39 3658.37 7440.72 3949.6 5703.6 6326.18 5661.62 6631.19 6648.68 4713.74 5626.61 5817.25 5407.78 4084.49 5061.98 6632.99 4537.6 5147.36 4419.61 7177.44 4563.46 6553.94 5726.66 5460.65 5652.0 5463.41 5225.33 4929.75 4435.36 6045.22 4614.3 5134.39 3532.3 5769.98 5442.32 2221.99 4643.56 3580.58 4863.01 5356.79 5657.36 3619.79 5029.47 6306.21 5266.01 2978.76 5253.37 2040.66 7016.27 6515.8 3685.65 5869.4 3701.16 4916.22 6022.7 5895.77 5750.07 4809.67 4757.74 6045.67 4209.49 3946.28 5742.74 3821.94 4244.21 4947.24 3875.05 3540.11 3456.47 5148.58 4652.01 5421.64 7234.66 4055.54 4886.12 4976.12 6098.95 5453.98 3991.42 4388.63 5102.75 4597.29 4200.09 5931.77 5151.21 5398.64 6817.57 4477.04 3614.96 3886.68 5703.74 5662.55 5737.92 5365.24 4360.23 5293.51 4763.96 5754.18 5008.63 3418.99 4480.95 4993.35 4409.63 5521.25 3661.9 5370.85 5949.46 3178.54 4765.02 5376.71 4448.13 5070.29 4807.28 4867.08 2261.36 4266.03 5280.69 4220.03 6923.84 5227.59 5449.46 6179.96 5703.07 6113.54 4662.43 6260.79 3963.76 5528.53 6799.88 3062.43 5990.52 5426.78 2967.38 4159.35 6477.91 4237.98 6439.37 4081.97 5401.99 5580.92 5973.33 5067.46 3583.21 2511.46 4011.37 2775.69 4785.25 6519.43 5876.64 5424.46 4857.84 4908.49 4962.21 4858.44 5884.9 3876.21 4673.35 5689.26 4992.42 5297.19 4940.84 4833.46 5933.7 7248.4 5280.12 5984.81 5439.9 5367.73 4409.27 4640.06 5471.74 3548.39 3673.28 4858.51 4207.54 5625.65 6419.12 6107.89 4817.16 4446.84 5660.55 5148.08 4834.87 5760.22 3672.21 5938.17 4795.43 5097.95 5108.06 3573.73 4693.52 6853.04 4745.43 5831.96 4747.55 3056.7 3755.95 6234.32 4586.19 4446.06 3450.93 4270.74 5132.68 6595.03 4558.15 6218.95 5222.16 5107.23 5136.08 3776.94 5558.68 4010.57 5629.39 2684.03 6157.04 4768.61 5075.55 4522.21 5506.19 6719.94 4950.67 6166.29 5453.6 5409.63 5294.77 4709.05 4630.82 4043.66 4813.08 5860.67 4540.86 3764.1 4835.83 5604.35 6316.56 3091.67 4332.87 6420.81 4715.58 4450.7 5151.52 5369.08 4347.74 5291.9 4009.62 2081.58 6505.78 5461.55 4270.15 6865.76 6449.64 6464.8 4684.44 4749.59 5799.69 3468.42 5571.72 3809.69 4771.13 3208.96 7051.9 4184.23 4351.38 5550.75 6834.41 6226.14 5466.33 4444.97 3000.29 5721.05 3498.16 4514.39 4247.69 4588.99 4321.21 4344.34 3583.49 4928.27 5052.84 3375.28 4366.74 5297.16 4301.61 3184.64 5206.33 5530.49 5653.03 3718.69 4514.79 2216.82 4509.89 6752.75 5269.38 5607.3 2928.82 4222.4 4000.43 3420.08 4568.41 4912.04 4539.07 5464.68 2685.81 5591.76 4585.31 6625.18 5323.91 5097.45 6293.89 2761.07 5737.75 4983.39 5366.52 4690.55 5533.72 5533.42 4802.32 3678.08 4599.38 5246.47 4187.31 6191.29 3240.51 7422.36 5161.01 4298.15 4628.4 5832.37 6051.83 4642.93 4263.16 3973.12 3077.84 6024.75 6109.49 5567.93 5987.42 5332.65 4442.22 6451.33 5413.31 3012.99 6400.08 4743.59 5208.14 3317.83 3763.05 5092.24 5549.49 3101.75 5423.42 4518.04 4766.06 4874.18 5435.19 3298.2 4953.1 5818.95 4093.99 3940.49 4406.05 4680.94 5828.35 5876.72 5236.43 5285.07 4680.14 4608.41 4144.57 4187.94 5980.59 3796.15 4801.8 7216.98 5271.02 4209.31 5718.28 6242.79 5950.45 5713.03 5849.65 4165.21 5134.67 4215.0 4936.96 4481.76 5452.78 5065.26 4304.41 6192.0 4940.28 5885.28 6579.31 3004.34 3022.6 4811.76 4914.45 4698.87 3624.7 4661.03 5160.59 5262.35 4691.91 4475.83 4510.8 5889.35 5010.04 4394.56 4570.98 4275.07 5825.38 4185.61 4047.87 5742.47 3778.02 6552.21 5417.8 5146.37 7132.12 4836.16 5518.57 5151.11 5463.48 5730.33 5545.46 4527.99 4376.7 4543.1 5190.61 8325.01 3764.06 4440.81 5941.9 5434.47 6642.76 5829.22 4497.78 4243.79 5811.18 5433.65 4008.15 4887.76 4669.06 4811.32 4286.49 6184.88 5829.32 4396.25 5551.95 3918.87 2275.45 4901.2 6605.86 5012.5 4383.56 3562.79 7093.13 4516.53 4122.92 3604.14 4452.54 5089.1 2711.19 4028.32 4099.92 4884.59 3858.06 4511.7 4083.79 5263.27 6300.92 5021.77 4173.54 5599.29 6038.68 5046.12 4807.4 7013.17 3805.67 4601.74 6506.86 5088.57 5580.34 3852.6 5775.31 4706.5 4603.5 4647.67 5375.12 4356.36 4892.44 5578.94 7610.49 4286.17 3684.56 5323.55 5375.1 4172.6 5313.12 5351.56 3984.88 4732.09 4320.42 4255.34 5064.79 5480.3 7509.24 4146.81 5896.26 5388.78 6101.13 4573.72 5099.21 4917.99 4367.78 5636.4 4350.12 5227.02 5670.0 4232.16 5300.96 4344.51 5680.94 3781.77 5581.55 5193.01 3474.5 6550.44 3860.83 6348.03 5732.27 4523.39 5278.56 5146.37 6917.62 4013.38 5631.14 4343.78 5263.3 3352.35 4909.65 6523.86 7693.4 4326.48 4437.07 3449.37 5491.9 6405.0 4659.16 5789.55 4909.31 4633.05 5711.62 4990.79 4798.17 5166.79 6479.39 2895.63 4997.91 5079.22 5381.54 5810.77 4714.83 5474.15 7519.2 6355.68 4478.6 3953.55 4304.63 4469.54 4314.56 3928.53 5606.51 5740.65 3834.47 6349.67 6329.53 4590.01 6101.86 4227.41 5993.0 4803.57 5966.42 4110.59 3332.49 5354.66 4214.44 5378.23 4787.97 3746.36 6789.23 3989.7 4777.03 4246.61 6028.09 5452.36 3804.5 6486.37 5498.42 5318.53 3344.57 5220.76 4281.98 7165.9 5344.83 7046.11 3427.63 4863.97 6342.48 5756.75 4587.67 5599.7 4163.74 6969.28 3665.95 5698.96 4095.75 3319.67 3603.51 4298.45 5222.51 4076.59 6609.84 5135.96 3834.43 5658.37 4707.06 6074.94 5491.37 4250.88 3783.54 5268.38 3475.67 4792.39 7038.89 3863.67 4814.12 5067.56 6137.8 2735.53 5116.6 3747.03 2783.85 4356.49 4526.81 3994.07 4219.94 5907.46 4264.91 6740.71 5399.29 5971.22 5533.19 6522.59 6602.43 3568.28 5425.98 5996.66 4405.42 3598.08 2995.67 4599.81 5698.23 7300.58 3608.06 6633.61 5217.95 4867.7 5484.36 4277.24 4063.9 5291.05 5161.1 4619.2 5166.41 5067.56 2596.96 5701.75 4350.15 4139.3 6541.45 4750.49 5078.31 5391.48 4923.43 5131.15 4847.14 3950.27 5116.66 3566.79 5374.67 4981.43 4215.2 4741.28 5069.89 4157.29 6813.72 5327.75 4609.02 4896.65 4638.18 4196.37 6448.66 4453.97 6945.98 5138.2 5783.48 4449.98 4701.5 4504.35 4771.65 4840.44 5093.82 5951.81 3924.14 6918.35 4296.69 6238.32 6804.79 6471.42 5283.8 5369.5 4428.14 5164.1 6464.15 4479.11 4972.17 6685.4 5699.53 4222.77 6332.01 5527.23 4234.18 4805.33 7085.01 5980.95 6193.08 6069.3 5887.01 5168.35 5388.39 5335.47 3728.18 5633.61 5048.19 6799.23 4888.27 4592.15 6487.56 4854.11 4998.22 5417.21 6104.26 5583.61 6063.64 4986.71 7382.3 4022.56 5522.21 3772.3 4855.01 6208.9 4923.57 3340.09 6061.63 2279.05 4829.35 4075.28 8137.11 5484.32 6650.77 4067.96 7104.73 6162.3 3272.75 4264.54 3516.27 7043.44 4263.78 5228.75 4643.9 6047.14 5009.83 5210.38 5717.8 3629.44 5003.78 3299.24 6246.56 4061.6 2603.64 5107.0 5473.72 6212.15 6502.97 4783.07 4946.23 4852.58 6083.28 5211.6 5806.31 3556.79 5456.71 3503.41 7317.04 6412.67 7001.83 5012.97 4036.91 5589.37 5439.49 6639.64 5212.43 5454.12 4834.3 6348.54 4066.57 5642.35 6372.13 5404.01 6016.19 4124.49 3230.13 5714.25 6176.67 5325.96 4850.06 5016.02 7044.29 4920.21 4049.16 3936.95 6153.94 6836.82 3862.77 3858.17 4631.99 4740.98 3185.39 5128.77 5934.82 7122.87 5797.36 4243.26 5001.58 4153.84 5119.86 5084.17 5089.26 4901.44 3776.8 5096.43 6156.21 4653.83 2460.79 6171.71 3628.89 6589.82 4668.88 5027.43 5522.75 5867.64 4438.58 6059.93 5602.53 5073.02 6545.43 3472.91 6760.92 4989.2 4711.04 7144.05 4506.18 4824.12 2970.9 6542.5 4383.47 5971.21 5261.19 3104.96 3831.52 4263.65 6106.43 4807.35 5467.63 5666.95 4642.2 4811.22 3683.86 4918.76 5293.75 4208.41 5826.78 2856.55 4553.68 5361.87 3758.22 4757.2 3205.68 5561.74 6100.73 4788.08 4745.79 5470.04 4908.75 3971.08 6204.65 4482.9 4593.7 4349.13 5110.11 6379.14 5216.26 3687.65 4887.52 5478.95 3851.85 6318.23 4206.98 5156.76 6357.47 6101.57 4891.38 5535.91 2949.12 5955.86 4533.37 4848.46 5412.24 2779.99 5887.38 4581.37 6942.34 5851.61 5478.11 5526.31 5030.15 3644.78 3477.1 4078.93 4501.78 4922.49 3572.94 4820.17 4729.42 5244.98 3886.72 5415.45 6592.93 4385.81 6350.71 6436.74 4456.11 5096.24 3908.98 5039.12 5769.14 6328.42 7307.21 3619.72 3381.82 4646.51 4565.93 7107.63 4831.93 5788.97 4023.93 5868.89 3274.85 5007.21 5494.28 4099.26 5206.47 4580.06 4834.39 5493.89 5262.47 3512.94 4991.35 4587.7 4258.98 3787.08 6761.81 3903.91 4568.64 3919.62 4127.53 4474.83 5210.75 6555.44 5658.14 4508.18 6214.73 2205.51 6358.93 5175.89 3894.64 3703.49 4268.19 4374.74 4062.56 4532.7 4504.86 5975.23 4198.94 4473.29 6163.54 4211.82 6556.26 5684.25 5438.92 6550.4 4891.67 3766.69 6818.91 3503.65 3634.5 6631.28 6571.31 4392.65 4058.87 5174.75 5932.07 4984.46 5948.71 4793.65 3856.53 4532.89 5460.89 5260.85 5742.09 2884.65 5807.46 4648.21 4393.16 3658.05 3311.29 4549.69 6423.81 6192.77 4312.15 4583.52 6418.11 6015.02 5244.22 5585.14 7039.98 6456.58 4159.81 4960.64 5792.98 4034.05 5690.96 5798.38 3862.91 5366.11 3419.87 4824.81 5113.6 5944.3 3563.14 5135.5 5347.9 5851.63 4504.52 5212.92 5615.84 4464.73 4928.85 6440.38 5556.0 5545.59 4954.81 5610.53 5755.15 4835.97 3926.11 4057.17 7066.96 4467.0 4994.65 5196.92 5644.81 5334.36 4728.55 4929.6 5750.35 4489.99 4548.45 4658.11 4551.26 5730.61 7124.45 5064.67 6618.21 5232.85 2617.39 3717.47 6200.63 6816.66 3217.67 5079.64 996.652 5212.37 6003.78 2628.22 5058.51 4244.49 5036.98 5513.8 5188.53 4521.75 4027.63 5569.2 5350.88 5420.67 6413.15 6103.11 5048.55 6459.51 4024.31 4955.16 5844.72 3992.97 4147.31 5989.05 6040.74 4054.22 7228.94 5393.65 4961.99 6551.93 4595.12 3110.13 6484.43 4625.67 3485.54 4458.64 3657.69 4883.63 3492.83 6280.13 3684.15 5832.29 2606.51 4438.76 6006.89 3965.3 3814.65 5372.82 4983.3 4402.17 7778.01 5127.82 5124.17 5805.1 4125.9 4064.58 4234.88 5782.43 4384.28 4456.26 4810.98 5091.22 6282.38 5640.72 5657.55 5727.79 5188.82 5043.14 4717.73 5072.5 3904.07 5748.9 3663.0 3742.31 6304.49 5134.72 4608.34 6419.64 5464.83 2781.96 4431.23 5917.34 5601.55 4462.87 6545.99 5630.9 4554.68 4368.28 4692.32 4945.0 3127.83 4212.15 5114.07 4385.49 4263.18 7142.95 4559.74 4383.68 5836.26 6666.67 5144.44 4051.18 4583.94 5969.37 4928.35 3844.54 5034.69 4509.46 3538.53 4680.69 6500.49 5965.58 4972.18 3352.34 4050.03 4901.29 4775.04 4120.07 4882.66 3429.57 6746.66 5410.33 4642.74 6735.97 5305.59 5416.45 4330.58 5754.6 3288.01 4904.51 6870.97 2202.77 5751.15 5950.88 4149.55 4441.22 5853.89 3380.69 4140.4 4386.8 5446.4 4725.01 5966.75 5510.9 4505.28 4971.29 5510.45 4730.14 4941.02 3994.39 6119.99 3864.92 4128.1 4618.73 4446.58 5401.4 5053.15 5910.86 6239.68 7320.78 4834.44 4708.31 4027.33 3873.92 5026.76 5023.41 4092.07 4546.44 4224.3 4184.21 4700.07 5273.37 4732.37 4985.3 5713.36 4749.18 5553.94 4546.96 5424.55 4921.1 3814.16 5695.79 3622.8 5414.58 5577.41 5740.98 4346.07 4013.86 5759.79 4177.47 4218.16 2918.64 4140.92 4512.07 5984.8 5236.24 4585.04 5678.58 3185.09 6570.35 4242.63 3269.54 6015.22 6063.44 4826.52 5046.31 1937.5 4337.32 5241.75 5849.53 4651.99 4420.11 5863.0 6127.39 4607.18 5329.76 4124.76 7200.89 4813.33 4952.52 3840.21 4081.34 4954.76 3908.56 4844.83 5244.78 3636.15 6114.89 5135.63 6384.7 4355.83 5351.86 6056.87 5474.01 5307.35 6201.86 7554.58 5166.89 3639.44 4731.21 5491.63 5725.37 3868.62 5138.33 3743.76 5153.18 3425.69 4763.4 6711.21 4236.86 5393.76 4983.1 6010.59 2955.36 3668.93 4009.24 5906.57 7541.76 4775.49 4681.29 3220.29 5499.59 3845.9 5749.6 4439.71 4141.21 5667.51 4198.9 5431.29 4833.67 4252.18 5325.91 4213.05 5853.12 5157.38 6203.03 5235.87 6089.45 5810.17 4966.07 4657.24 3669.32 4400.14 4704.92 4316.0 4287.25 4392.75 4271.07 4420.6 4475.38 5287.25 4589.06 4770.51 4184.47 6511.37 4012.92 3999.5 5034.05 4598.54 5218.42 4933.49 6139.64 4896.43 5463.06 4639.8 5260.52 3986.41 6102.49 5114.23 5495.0 7407.91 5064.23 6061.85 4454.74 2904.46 5512.44 5120.92 4685.4 4731.53 6240.42 3763.9 4788.7 5084.5 5640.12 3899.7 2403.72 5078.59 5134.33 4147.49 4802.98 4833.55 3646.95 7224.99 6334.53 4749.96 5377.37 5652.87 5483.7 5018.69 3152.86 5952.38 3896.27 5973.89 5807.52 5963.36 5230.02 5087.14 4342.18 5169.48 6016.08 3124.7 6064.71 6102.98 6060.17 5136.87 5902.67 5454.11 5806.61 3779.45 5784.37 3682.35 7123.04 3756.96 4932.29 3954.77 4990.23 3784.94 3125.13 4174.44 6715.73 4564.41 6331.74 5426.4 5951.86 4659.88 5357.39 3791.41 4208.37 5702.4 5069.9 952.938 5473.89 3306.84 3673.6 3450.07 5265.21 5191.26 5866.42 4762.1 3987.69 3484.81 6502.99 6219.34 4666.12 4191.01 5674.63 5340.05 4920.88 5890.25 4216.44 6710.14 4426.02 4816.51 5345.73 4770.63 4841.23 3990.94 4756.8 4357.11 5477.8 4462.35 6069.78 4241.68 3469.18 2945.34 3372.95 4489.29 4301.93 5846.95 6449.06 4924.07 3200.6 5146.0 5721.14 4288.45 4577.73 4987.28 4918.64 6638.25 4759.99 2646.13 5419.57 5162.67 5760.98 4705.68 5469.35 5384.86 4019.34 4658.24 5869.67 4311.48 4899.73 5457.66 6394.19 5366.22 6193.73 5518.11 3742.11 5712.35 5701.52 4743.9 6776.22 5321.17 3719.11 4467.13 3877.8 6273.6 3667.93 5024.32 4708.17 2741.2 5790.42 3142.09 7350.26 5591.77 5182.13 6110.48 6245.52 5106.46 6793.1 6016.87 4506.66 5515.73 5209.55 5866.91 5763.05 5129.68 4825.73 5076.84 5247.01 4841.7 5685.74 6740.35 4678.7 4550.92 6215.87 6060.06 5544.27 5393.43 5308.33 4685.65 6023.07 6470.23 5995.4 5322.11 5700.79 4726.2 4711.15 5188.22 3825.48 3810.68 2804.54 5005.6 4176.32 5532.75 4549.51 6949.65 4095.83 5695.25 5676.61 5716.42 5268.15 5819.0 4620.95 6347.72 3460.93 4488.39 4629.02 5124.86 5914.5 6006.16 5407.96 6206.98 6562.03 4815.47 4410.82 4368.12 4365.58 5214.4 3889.98 4636.53 3629.49 5766.05 5117.64 3835.81 4869.48 3623.19 4906.11 4387.39 4745.16 4564.1 5825.55 5509.51 4848.14 4316.5 3199.4 5254.24 4192.21 4914.03 3597.43 5144.56 4158.91 5311.55 3360.86 4869.25 5545.21 4333.87 5684.05 5638.7 5813.79 4644.88 4028.22 5293.13 3852.82 3768.46 5167.53 5003.3 4168.52 5800.81 4068.31 5166.05 5077.29 3671.06 4850.5 4683.28 2820.07 6405.69 5679.74 4165.36 5288.33 6296.54 5797.21 6019.35 6028.63 5146.1 6485.77 3869.39 5960.5 6896.55 5377.01 6506.63 4140.04 3495.3 5125.17 4697.49 5735.08 7133.44 4750.81 4474.39 4658.59 4196.62 2809.19 4916.7 5486.89 7208.19 5025.42 3587.93 4975.85 5323.95 4495.75 6171.01 5701.63 4603.04 5368.93 6121.56 4927.73 4602.57 3565.32 4608.62 3419.07 4071.75 4626.72 5344.44 5131.77 5549.71 4967.51 6443.99 5193.58 5399.43 5695.44 3422.21 3916.42 5429.3 5510.96 6653.07 5532.72 4697.91 4584.81 5071.98 5719.79 4371.08 7261.51 4968.14 5086.29 4312.48 5527.13 5139.18 5551.43 4278.57 3034.16 6318.25 5049.99 4201.03 5001.87 4493.79 4279.44 4899.19 5058.34 5575.11 3918.94 5487.63 4507.36 7145.73 5403.97 4795.08 6562.92 5501.73 3612.44 4697.24 7035.54 5233.76 4217.36 6549.8 4851.18 4871.77 5368.52 5811.26 5155.28 5062.77 4884.93 6075.99 5262.79 5927.2 4419.79 5407.69 5152.78 4117.9 4753.76 4781.9 4638.09 5330.26 4441.91 5939.22 4668.8 4215.05 4271.93 4859.01 5524.45 5990.75 3953.26 5600.21 5459.92 6478.35 5453.77 4104.04 5353.66 5589.53 5593.79 4965.24 5196.08 4517.29 6257.79 4849.5 5796.26 6229.83 4870.94 5578.18 5271.88 5559.79 7168.2 3763.85 4096.86 5710.33 5001.51 6432.8 3186.07 5115.42 4369.86 5482.76 5173.82 7212.97 5490.64 5034.34 3604.31 3769.2 4507.46 5036.14 3468.45 5603.68 4944.51 5610.95 3220.8 5042.75 5179.17 5579.39 5270.51 5148.1 5490.75 5224.64 5949.73 5783.94 6370.33 5081.08 4202.77 6864.06 6008.81 4932.56 5192.49 3487.31 6643.4 4674.9 5461.72 6599.28 6224.85 5368.66 4556.19 5648.78 6875.73 5226.42 6081.3 4983.43 5117.52 6311.89 6734.39 5942.45 4150.76 5005.72 6142.88 5111.26 5388.73 5205.38 4764.83 4600.71 3957.38 4494.15 5035.71 4710.88 5300.17 4057.4 4896.67 5534.23 6025.77 6815.96 5339.6 5828.25 4725.11 3626.86 6371.96 4604.1 5322.07 5076.11 5770.07 5467.51 4625.53 4096.47 4542.16 5114.67 3543.37 5030.33 2638.82 5234.2 6379.38 5353.23 4468.26 5106.33 5293.37 5933.54 5464.05 5879.24 4571.74 5740.78 3622.48 4796.12 5997.91 5385.86 4082.4 4930.72 3745.02 3720.7 4211.36 4887.73 5698.53 4450.49 3856.73 5887.71 5635.32 4526.34 4827.61 4316.45 5409.08 5481.64 4598.92 5241.22 6647.08 4979.52 3422.29 4407.79 5214.63 3495.68 5352.24 3990.96 7362.42 5793.12 5836.14 5473.05 4373.2 5537.34 5884.99 5726.42 7025.09 4433.12 2549.95 3392.26 7336.37 4361.24 5099.9 5138.93 6406.8 7086.69 6170.9 5833.78 4436.48 5758.98 5615.35 3967.76 6213.24 5987.88 4228.53 3579.59 6123.46 5057.59 4461.14 5285.6 4574.54 4949.55 1969.87 3132.34 4841.28 4047.95 5507.38 6889.5 4416.87 4052.43 3980.46 5383.9 3934.11 5158.44 4466.22 6153.71 5917.08 5483.37 5418.12 4714.66 5101.6 4282.11 4656.01 6589.13 2347.41 5602.62 2030.03 5628.97 5527.27 5104.39 4612.13 5846.6 5327.05 4903.84 5438.55 4434.65 5977.66 4523.81 5065.74 5791.25 5198.94 4028.35 4873.23 5410.6 2980.31 5453.2 3148.79 6824.53 4742.82 4332.64 6791.86 4820.68 4209.0 5728.58 6297.99 5378.24 4538.89 5817.74 5661.6 5285.75 5385.03 5673.75 5360.67 5968.54 6263.3 4501.05 4537.03 6548.29 4114.2 4326.06 5034.46 5757.29 5469.17 5061.75 3769.24 6022.78 4087.32 6647.85 2569.12 4161.32 5161.74 5932.28 6945.69 5118.86 4304.64 4183.4 4733.79 4823.06 5254.49 5288.64 6828.8 6883.86 3350.99 6161.94 4065.28 5418.98 5615.06 5490.54 5203.54 6189.67 6142.94 5001.69 6581.56 4061.87 5165.31 3798.09 3886.56 4496.51 4511.05 6561.94 5259.21 5092.93 5934.05 2803.01 6771.18 4984.17 5327.39 5781.62 4037.86 4138.59 5714.51 4484.78 4938.33 5157.73 4621.33 4541.22 5847.91 4934.66 4984.01 4109.44 6217.33 4290.49 6688.53 5209.5 6175.27 5876.51 6731.89 4733.41 5264.83 6348.93 6815.51 4422.23 5232.16 6031.22 3989.26 5485.84 3618.64 6424.77 5453.69 5918.95 5432.04 5689.56 6556.86 3242.31 6099.28 3234.26 5372.25 4169.15 4778.37 3494.16 5134.17 4074.16 4904.35 5592.54 3247.97 5124.34 4904.37 4358.81 5729.0 4651.64 5729.92 5016.46 4179.87 6224.13 4761.84 3661.67 5370.1 5517.65 4009.68 5114.51 4622.73 3303.49 5256.75 6351.89 2960.5 4298.7 4975.32 3902.48 5237.55 3909.94 6030.39 4905.53 3799.01 7392.65 5319.1 3757.23 4181.93 6570.43 3820.19 4979.5 4745.37 5939.29 6200.05 5575.11 4052.49 4034.41 5061.74 5326.03 4420.35 4948.96 5117.83 5256.82 4013.86 4288.5 4585.37 5715.51 3721.69 3456.3 6074.39 5317.83 4256.08 5881.93 4444.0 4399.52 4554.24 6182.19 5910.66 7415.84 4981.81 5141.03 4970.55 8123.59 5765.14 4946.08 3539.68 4696.03 4557.1 4605.39 6270.59 5927.1 4103.76 4286.61 2932.52 4603.66 3901.53 4969.68 5136.51 5431.14 5313.86 4457.05 5178.07 5189.91 5777.26 5703.84 4335.79 3530.82 5797.32 4886.99 3921.27 3702.45 3161.1 5265.63 4898.29 4431.06 5730.2 4830.13 5620.88 5370.9 4529.77 4325.13 4262.74 6172.27 5390.33 3783.79 5078.73 5278.54 4248.14 5279.19 5192.92 5275.57 4786.66 5891.25 5095.52 5129.4 3720.38 4655.37 5585.25 5023.61 4672.86 6530.78 5560.23 3043.77 4139.39 6264.03 5088.64 6589.8 6920.92 3729.16 3038.91 3783.36 4067.89 3922.28 4571.57 3445.92 5236.69 4586.82 6026.04 3133.28 5859.17 4150.44 5522.34 5771.98 5717.45 5772.57 5268.27 4645.93 5448.64 6417.61 5395.12 3830.7 5783.69 5350.9 3483.61 6738.9 4460.89 4157.1 3939.96 4867.12 4637.3 5734.07 4840.44 3997.68 4819.83 4767.54 4801.16 5121.08 2927.84 5688.77 6177.68 4698.7 2848.44 6045.26 6500.45 4907.55 5743.8 4094.63 5084.76 6605.11 4757.87 6636.43 6298.8 3689.24 5151.19 4171.02 7012.36 5028.06 4002.99 5587.3 5159.67 4864.38 5764.52 5684.88 6523.78 4645.86 4045.67 6005.95 4941.52 5900.0 4581.1 6241.77 5317.19 6223.98 4016.6 5821.49 7050.08 5580.44 5998.13 4746.15 6275.25 4758.84 4731.37 4452.36 4068.41 3976.0 6463.71 5059.37 5783.38 5645.54 3562.8 4151.74 4526.87 5192.82 5245.95 3573.84 4174.22 5821.42 4515.02 6294.09 5131.07 2970.24 4121.07 4197.87 5524.28 5105.54 5731.43 6353.81 3414.67 3518.14 5444.36 5044.68 2649.69 6908.32 5899.78 5000.74 4813.81 5244.95 3882.37 4634.25 5901.8 6351.48 6210.0 5432.4 4262.52 7430.48 5992.06 8052.53 4970.12 6044.01 6520.19 1458.87 5973.57 6241.48 6033.28 6286.27 5071.38 5616.66 4802.36 5368.28 5466.13 6229.64 4220.43 6263.87 6666.34 4645.91 6834.92 3557.46 5971.95 5652.73 3979.46 5402.45 6321.97 6509.54 6412.84 6119.0 3792.06 4293.3 5128.59 5310.33 3572.73 6583.37 3770.22 4390.64 4848.98 5150.84 4608.01 5087.97 4308.49 4519.03 4930.17 5110.27 4745.44 4085.96 5762.82 7360.12 5462.6 5617.29 3035.06 5770.92 4262.19 4597.88 4878.93 6892.33 4505.3 4491.26 4832.21 4511.34 5009.21 4742.35 5394.79 4379.91 4574.03 5290.37 5264.08 4227.66 4691.01 4594.89 5214.71 3463.53 4924.52 6126.03 6044.69 5658.05 5462.1 6032.45 5011.37 2827.92 4026.03 3467.11 5336.61 4817.75 6153.26 5637.53 5523.81 4095.4 4718.61 5188.57 3873.79 5717.67 5357.33 5252.37 4499.54 5037.58 5640.67 5545.68 6080.69 4967.93 6369.66 5678.08 5922.62 5125.45 5957.82 4188.16 6327.54 5507.07 2943.17 5327.71 4880.78 5257.38 5075.23 4975.56 7282.36 3826.01 5581.01 3928.99 4125.75 6379.33 5130.57 5090.48 3985.93 2589.19 6071.59 6079.55 3856.4 5485.61 4993.49 4937.36 5308.4 4569.32 3688.83 3402.44 4491.96 5184.98 4199.44 4467.51 5339.82 4479.5 6261.67 5460.57 5065.78 5703.34 4612.68 4521.42 6668.98 6649.52 4232.33 4939.56 4747.68 3093.38 4845.91 4723.71 2002.78 5631.32 4461.67 6322.0 5793.14 4609.65 6345.2 5704.61 5410.73 4942.63 6139.74 5850.38 7066.26 4730.97 6150.31 3677.85 5873.62 4677.84 4811.11 5379.52 4866.8 5314.67 5563.47 6593.1 4066.36 4000.51 6033.93 5092.44 4441.44 4232.44 4612.4 3312.3 5563.09 4746.19 4848.15 4439.09 3282.57 5648.59 6697.45 5515.59 4432.32 3224.81 3775.38 4046.22 5782.25 6457.89 4844.2 6572.17 3751.73 5555.89 4766.47 4871.1 5872.45 4414.09 5191.29 3784.68 3717.22 6649.21 4654.92 5286.55 4322.56 5522.18 5509.09 5625.02 3873.72 5212.05 4829.77 6474.5 4444.92 6959.88 5749.53 5971.9 5247.73 5034.02 4769.62 5582.28 5945.25 5181.31 4696.06 4137.16 6581.13 5803.3 5537.61 6084.88 4721.98 4397.06 5252.82 3543.98 4053.12 5056.26 4014.44 3435.13 6002.77 4431.46 4610.55 3207.84 3977.98 6043.34 5400.69 4128.93 4462.5 4959.72 4712.17 5004.68 3808.04 4023.88 5348.11 6126.5 4405.61 4034.88 6007.1 3511.5 5067.92 5488.96 3188.21 5128.03 3720.92 4793.06 5087.3 6637.38 4975.57 6916.18 3057.3 3868.69 4996.91 3920.44 3768.62 3851.47 4966.74 4959.94 5651.46 1635.31 5639.4 3162.27 6185.73 4083.24 5516.37 6520.96 5432.2 3771.91 5217.62 6178.19 4616.81 6381.58 5212.2 4798.13 5108.42 4630.5 6296.36 4451.76 5237.27 7885.41 4104.97 4575.72 5114.61 6118.13 3374.62 4420.3 4926.62 3917.09 6009.93 4083.1 5270.1 5130.56 4947.64 6305.9 4997.89 4542.62 3470.69 5093.28 4859.95 4132.08 5223.1 4850.49 4592.49 3625.98 5479.86 4702.32 4763.04 5944.52 4413.56 3746.62 4532.67 4876.37 4908.32 5260.13 4649.5 4810.74 5985.75 5475.83 4149.17 6189.29 5984.55 5672.46 5202.33 3228.27 7558.99 4142.1 5043.14 5878.55 5445.91 6604.72 3794.47 4967.02 4614.49 6038.56 2807.46 5573.31 4179.8 3488.34 5428.24 5108.84 4582.12 4520.14 5357.14 5919.27 4850.95 6271.22 3421.81 6188.33 6111.23 5786.06 4137.41 3780.07 5466.49 5447.74 4450.51 5007.41 6033.72 3692.99 6213.74 2329.93 6938.87 5412.07 5512.57 4806.99 5856.43 3839.0 5349.85 5799.86 5715.25 4362.94 4611.21 6545.78 3354.94 4870.14 4404.87 5767.65 4750.76 4907.03 4216.33 5497.27 4081.77 4948.21 2181.29 4987.01 4202.12 6332.64 2694.25 6492.44 4613.32 3482.73 3996.93 5145.39 4957.99 4063.26 5345.05 6131.52 6009.88 4699.77 4981.55 5093.41 5144.23 6188.62 6153.07 4414.06 5908.57 5050.2 2513.38 5316.05 4821.41 3995.08 5616.11 5019.84 4499.52 3900.93 4028.13 5784.38 4329.8 5728.27 3074.49 3053.19 3956.24 5580.95 3393.59 3549.92 4032.06 5246.81 5333.04 5888.95 4521.99 4812.59 3463.34 6842.54 7115.67 5675.45 3361.11 5329.84 5599.16 3879.83 6565.95 4577.98 5658.35 4487.51 5886.81 6805.02 4295.25 7394.47 4729.45 5374.09 6261.13 5378.75 5244.47 3920.64 5510.89 6186.24 5822.7 5282.67 4159.89 5178.55 4038.17 5146.69 4907.48 6818.23 4369.87 5652.19 6578.62 4813.55 3465.03 5229.56 5172.1 6052.22 4469.82 5376.41 4695.7 2932.2 4944.08 5105.72 4082.01 5003.49 3964.03 4305.35 5210.22 5832.72 5617.91 4721.2 5161.02 4706.31 6265.48 4735.99 4203.68 4739.56 3352.46 4701.03 6351.95 5195.09 5434.04 5200.1 3997.52 7679.2 4881.51 2626.41 4311.92 4909.74 6729.99 5310.33 6842.35 5464.34 5259.48 3621.63 4777.96 5801.89 7296.47 5742.39 4780.16 4924.53 5738.37 4433.23 4813.24 3874.12 5759.19 4457.73 6476.35 3113.64 6260.58 4304.75 4067.24 6139.9 6571.26 4313.38 6598.99 5250.56 3633.58 2468.16 5089.1 4339.97 5394.78 5169.09 5122.38 2853.68 2459.88 5262.85 4998.37 5901.71 6559.82 5342.9 5733.12 5043.34 4246.24 6436.29 4600.81 5354.48 5640.63 4900.26 4167.55 5002.38 4720.34 4865.11 4731.16 6470.87 4495.33 4131.08 4465.56 5747.9 3864.19 4287.93 6203.24 5081.65 4488.41 6679.12 4621.32 5806.74 3878.8 6284.12 3948.21 4796.04 5296.05 6011.4 4672.34 3330.85 5056.32 5533.52 5003.63 5410.33 4747.24 4380.86 5576.16 5269.39 3308.75 4439.17 2451.27 5677.42 3903.9 4444.95 5606.22 3943.77 3124.49 6081.35 5003.81 6262.18 3818.37 5663.36 6225.05 5125.53 5994.21 4444.54 5779.9 5299.03 6664.54 5161.73 3922.98 4008.67 5254.93 4803.4 6833.5 6608.94 2613.78 5417.07 3834.01 5656.84 6789.66 4739.41 5847.27 4490.2 5734.84 5480.86 3982.31 4950.07 4720.22 2832.83 5827.3 6036.99 3010.1 3825.98 6294.14 5087.03 5203.75 4667.84 3906.41 4691.15 4123.08 4512.6 4210.24 4260.38 5470.67 5225.11 6793.49 5252.22 6060.19 4962.35 5402.81 4333.23 4328.76 4919.13 5168.97 4124.33 5783.88 4358.06 6705.93 6201.49 5449.09 5502.14 4605.61 5386.95 5332.11 5315.71 6158.93 4823.14 5373.78 5438.5 5863.36 5699.4 5237.76 4698.94 4286.84 5669.15 6058.13 5263.86 6988.4 4060.17 5302.53 4909.13 4287.61 5648.02 4604.34 4863.27 2701.42 4929.35 5442.79 5051.39 6673.92 5242.38 4884.94 5459.52 4609.98 5566.5 4752.31 4276.59 5579.04 5405.6 3929.35 5403.81 5082.25 6964.78 4374.05 4287.15 5036.84 4565.36 5813.68 4025.08 5732.11 3618.53 4770.21 5596.68 8013.28 3846.55 3796.73 3082.16 4644.68 5416.41 5312.2 6760.64 4706.59 5177.88 5551.79 4582.24 3916.15 4474.96 4084.87 4790.63 5259.29 3584.05 4589.22 4818.53 5097.85 5584.64 6189.04 6224.64 4221.03 4636.45 3799.55 4932.27 5082.66 5638.51 3563.33 3550.88 4345.51 5536.0 6786.37 3860.8 5145.13 3747.96 5561.63 5940.5 5093.51 5647.93 4280.92 5154.74 4696.92 6437.99 6898.8 6632.04 6540.57 4893.72 4977.64 6004.72 4072.4 5699.51 5345.65 4489.18 2489.44 4883.13 4632.75 4752.94 4994.98 3950.53 6423.96 5894.69 6635.51 4713.56 6051.35 6779.82 3999.81 5543.67 4867.13 6377.45 4502.12 5151.68 5362.15 4455.61 4738.72 5240.97 5569.85 5523.96 4884.93 4223.53 4759.38 6960.97 4523.9 5282.51 5504.65 5669.41 5040.9 3919.47 4602.7 4868.66 4004.39 5159.9 4987.48 5283.65 2892.36 5943.61 5981.54 4248.58 5911.29 4542.25 4694.27 4414.23 2515.5 4849.21 4785.55 3793.83 6981.47 6189.81 5367.05 4758.76 5647.11 4088.72 3945.62 4916.75 3743.85 6236.46 5342.17 6379.3 5189.4 4550.77 4894.15 4337.93 5201.3 4048.73 6223.33 5438.6 7370.52 5611.29 4521.88 6568.45 5004.22 4601.54 4963.88 7263.57 5705.96 3832.09 5267.65 5739.69 5360.88 7360.62 3166.37 4985.45 4983.56 5205.53 4714.52 5499.37 5543.05 4836.76 5333.16 5551.09 5755.98 4501.1 5581.47 4384.91 6550.61 4987.01 5529.09 6094.34 5448.68 4739.5 6210.48 4491.62 4182.05 3865.5 3255.93 6853.07 6327.61 4633.59 5733.59 5575.8 5268.93 3695.72 6874.6 5106.9 5306.31 4733.37 4535.94 3037.72 5126.08 5604.0 3760.4 4951.02 3783.35 4037.16 6395.63 5479.17 5020.37 5233.88 5245.4 4449.73 5015.67 3795.63 4576.71 6538.04 6157.59 5848.41 4090.28 4246.83 4726.5 5467.05 3724.23 5103.3 5888.94 4727.98 5175.88 4122.2 4516.26 4790.16 3509.34 3731.58 3647.26 5369.42 5207.08 4587.19 6028.89 4888.17 5392.85 5077.2 4274.05 5275.27 4277.54 4531.46 5925.82 4072.95 
SCALARS Velocity float 1
LOOKUP_TABLE default
1.24178 1.44551 0.975446 1.07925 1.24573 1.2681 1.28763 1.17774 1.88034 2.00208 1.6556 1.59489 1.61439 1.05559 1.31907 1.34053 1.18909 1.16144 1.20962 1.21776 1.19178 1.21185 1.22619 1.19332 1.19861 1.20084 1.19825 1.19866 1.19178 1.19178 1.1941 1.19176 1.19444 1.19178 1.19174 1.19424 1.19424 1.19236 1.1927 1.19223 1.19208 1.19289 1.19163 1.19413 1.19897 1.1921 1.19183 1.19197 1.19242 1.19875 1.19489 1.19399 1.2237 1.18476 1.19151 1.21268 1.25577 1.20927 1.29138 1.41794 1.51914 1.29934 1.45724 1.26026 1.67074 1.4774 1.16161 1.40202 1.23371 1.13686 1.11543 1.12703 1.17203 1.21636 1.24147 1.11307 1.33505 1.06269 1.11516 1.72642 1.56376 1.10136 1.41914 1.66544 1.14399 1.06251 1.20073 1.31571 1.14756 1.24107 1.21945 1.23061 1.18885 1.21567 1.23133 1.1947 1.19731 1.2019 1.1994 1.20191 1.19073 1.19361 1.19573 1.19488 1.19441 1.19033 1.19496 1.19439 1.19267 1.19205 1.19446 1.1932 1.19244 1.19215 1.19186 1.19467 1.19401 1.19824 1.19153 1.19152 1.19178 1.19219 1.19287 1.19776 1.20343 1.20412 1.19178 1.194 1.2267 1.19178 1.19178 1.12201 1.25711 1.18988 1.24423 1.27254 1.23475 1.22138 1.27606 1.3602 1.24054 1.33691 1.30239 1.47142 1.41541 1.30548 1.35555 1.3331 1.13784 1.34837 0.939597 0.966697 1.14479 1.0637 1.0129 0.893681 1.29865 1.08413 1.17887 1.15041 1.14534 1.06909 1.92171 1.63451 1.32638 1.42075 1.34952 1.61948 1.18537 1.0812 1.15542 1.31505 1.27721 1.23227 1.21803 1.24892 1.21255 1.2386 1.19798 1.2031 1.20094 1.20257 1.19063 1.19372 1.20004 1.19206 1.1949 1.19178 1.19502 1.19438 1.19268 1.19215 1.19169 1.19432 1.193 1.19211 1.19216 1.19518 1.19471 1.19218 1.19523 1.1877 1.20169 1.20057 1.20296 1.20419 1.20526 1.19126 1.22931 1.21277 1.26898 1.20225 1.23422 1.23323 1.21886 1.29542 1.25053 1.34948 1.26257 1.31857 1.35495 1.46481 1.56164 1.24728 1.40378 1.32687 1.40803 1.24455 1.1051 0.989996 1.08228 1.03226 0.987069 0.994 0.865851 0.822189 1.28429 0.473879 1.53703 1.17556 1.15333 1.02119 1.15821 1.01956 1.10096 1.00105 1.09137 1.43139 1.21415 1.25686 1.12412 1.24403 1.26293 1.31304 1.27974 1.19043 1.21145 1.24303 1.22742 1.21199 1.24505 1.18273 1.18017 1.22851 1.20604 1.20358 1.1996 1.2024 1.19584 1.19844 1.19052 1.19582 1.18776 1.19516 1.19425 1.19576 1.19339 1.19131 1.19482 1.19316 1.19316 1.19473 1.19732 1.1961 1.19064 1.19471 1.19314 1.18888 1.19378 1.19178 1.19178 1.19178 1.2232 1.20459 1.14758 1.20809 1.19549 1.25024 1.24379 1.2852 1.22716 1.26567 1.21789 1.24999 1.41562 1.2775 1.09138 1.29254 1.10022 1.07169 1.08907 0.909062 1.37021 0.840835 1.27038 1.18181 1.13392 0.983978 1.07283 0.995102 0.978431 0.954096 0.797942 0.737547 0.848012 1.00056 1.29004 2.16499 1.23694 0.806468 1.18272 1.22721 0.984893 1.52839 1.35849 1.48584 1.26223 1.22191 1.22999 1.06811 1.18923 1.2558 1.38115 1.22856 1.30446 1.27925 1.30224 1.27123 1.19797 1.20402 1.22869 1.2382 1.18521 1.22245 1.20182 1.20356 1.20099 1.19039 1.19851 1.18831 1.19428 1.18671 1.19405 1.19747 1.19333 1.18824 1.1969 1.1928 1.19296 1.19408 1.19853 1.19554 1.19122 1.19523 1.19332 1.20428 1.19598 1.19178 1.19111 1.18342 1.22133 1.1978 1.19936 1.23565 1.19577 1.20781 1.1557 1.2106 1.18224 1.22397 1.26532 1.31489 1.43109 1.38696 1.21082 1.09045 1.19919 1.09764 1.08684 1.16007 0.844191 1.42077 0.88785 1.26485 1.15917 1.11264 1.00807 0.999403 0.985788 0.943026 0.988126 0.91297 0.852199 0.731401 0.871923 0.812902 0.851623 0.852189 0.880598 1.23787 1.29104 0.946029 1.36507 0.94678 0.963325 1.10434 0.92982 1.15333 1.13828 1.05834 1.17849 1.25301 1.05825 1.23733 1.31817 1.25437 1.25783 1.16396 1.21544 1.1977 1.1954 1.2026 1.16728 1.19863 1.20969 1.20202 1.20065 1.19068 1.19401 1.19053 1.1895 1.19634 1.19184 1.1912 1.19319 1.19284 1.19297 1.18988 1.19393 1.19335 1.19414 1.1951 1.19561 1.19018 1.19395 1.19303 1.19534 1.19386 1.1861 1.1801 1.22226 1.20468 1.23826 1.21165 1.20465 1.14838 1.19401 1.14678 1.20131 1.33587 1.10867 1.18561 0.86261 1.19199 1.1927 1.07411 1.19429 1.07409 0.963272 1.028 1.19468 1.05545 1.28168 1.06535 0.974242 0.911837 0.8909 0.854245 0.830559 0.796442 0.754257 0.7743 0.75319 0.744916 0.764373 0.744901 0.824816 0.839033 0.896894 0.924546 0.971014 1.08355 1.11726 1.17685 1.01244 0.978163 0.966133 1.06892 1.37145 1.132 1.04512 1.15464 1.19535 1.05714 1.14285 1.02352 1.24306 1.13998 1.30343 1.3348 1.27764 1.25624 1.15373 1.2066 1.20561 1.20748 1.16406 1.21463 1.21523 1.18941 1.20238 1.20047 1.18617 1.19308 1.18467 1.19433 1.19127 1.19098 1.1914 1.19077 1.19484 1.19488 1.19829 1.19275 1.1948 1.19523 1.19568 1.19006 1.19036 1.19412 1.19578 1.1915 1.18484 1.17968 1.19178 1.21128 1.22969 1.20093 1.23368 1.1859 1.18818 1.1995 1.18118 1.15879 1.15655 1.32872 1.1316 1.13686 0.939722 1.30888 1.21796 1.2975 1.15218 1.11813 1.44258 1.07522 1.06288 1.00263 1.10561 1.11048 0.919668 1.02866 0.959857 0.992499 0.944815 0.906842 0.817709 0.772854 0.720855 0.76321 0.676432 0.820205 0.79626 0.772865 0.746465 0.803009 0.81018 0.820156 0.817283 0.83233 0.80243 0.716352 1.234 1.12512 1.06608 1.02083 0.979043 0.965077 0.980667 1.24187 1.21841 1.20252 1.16236 1.27545 1.20822 1.04143 1.26141 1.16344 1.32355 1.27036 1.25645 1.26496 1.15992 1.20735 1.19357 1.20582 1.16602 1.18147 1.18314 1.214 1.18156 1.20049 1.20085 1.19649 1.18629 1.20213 1.19151 1.19153 1.19119 1.19162 1.19113 1.19039 1.19161 1.19221 1.19587 1.19107 1.19352 1.19485 1.19494 1.19592 1.1943 1.19458 1.2069 1.18103 1.21151 1.18811 1.17736 1.21064 1.2016 1.20399 1.18448 1.17221 1.21093 1.19166 1.21335 1.18816 1.17617 1.1788 1.34142 1.11014 1.1037 1.03375 1.16355 1.15746 1.07909 1.06432 1.42175 1.12636 0.88799 1.06055 1.10058 1.09303 1.09432 0.987335 0.969593 0.98732 0.971482 0.955109 0.916949 0.761027 0.735978 0.669745 0.646134 0.650191 0.846967 0.930541 0.785761 0.780939 0.781998 0.770094 0.864833 0.831992 0.78884 0.750643 0.658241 1.23799 1.04916 0.971827 0.97527 0.970118 0.995548 1.06866 1.27558 1.26616 1.11851 1.11843 1.05545 1.17157 1.14943 1.05951 1.26427 1.26942 1.18513 1.21065 1.19268 1.2065 1.19588 1.17049 1.23739 1.17984 1.17958 1.1999 1.202 1.18805 1.19585 1.19232 1.20034 1.19187 1.19278 1.19131 1.1918 1.19053 1.19257 1.19582 1.19129 1.19189 1.19389 1.19369 1.19523 1.19052 1.19403 1.19439 1.19469 1.18539 1.19697 1.21209 1.1986 1.17828 1.18358 1.20751 1.2104 1.19364 1.17654 1.18614 1.22737 1.20293 1.18188 1.17595 1.08915 1.17528 1.13749 1.22056 1.15486 1.16096 1.20992 0.960334 1.15211 1.03084 1.10147 1.06778 1.05386 0.89639 1.04436 1.04725 0.993308 0.982524 0.943963 0.999815 1.00297 0.981847 0.979513 0.947658 0.739187 0.710952 0.846649 0.629535 0.714158 0.65938 0.653617 0.640749 0.644487 0.637692 0.637723 1.1715 1.27161 1.05349 0.776473 0.685315 0.768405 0.699063 0.754605 0.766566 0.762339 0.75813 0.741542 0.821491 0.829717 0.790215 0.799207 0.761684 0.747379 0.699745 0.965514 0.977356 0.99739 1.03996 1.08284 1.19944 1.22476 1.25777 1.28978 1.06507 1.04076 1.13121 1.10819 1.11574 1.24938 1.07289 1.21125 1.24037 1.15107 1.1982 1.20544 1.17009 1.17415 1.1916 1.17735 1.18628 1.1856 1.19163 1.18826 1.19326 1.19117 1.19906 1.19246 1.19178 1.1903 1.19896 1.18646 1.19333 1.19587 1.19195 1.19201 1.19379 1.19354 1.19053 1.19539 1.19433 1.1916 1.19467 1.1975 1.19017 1.20274 1.16603 1.19214 1.18781 1.19936 1.21082 1.18916 1.18001 1.23802 1.20964 1.18333 1.15402 1.1115 1.16805 1.11567 1.19004 1.15022 1.2505 1.06897 1.08436 1.05084 1.08585 1.01705 1.08656 0.937037 0.836031 1.02779 1.05483 1.07106 0.917923 1.08462 0.934264 0.877833 0.876258 0.78495 0.897557 0.642122 0.537391 0.636914 0.57783 0.614398 0.626065 0.682109 0.61024 0.558678 1.3314 0.579514 0.456265 0.459295 0.617446 0.622437 0.759388 0.816216 0.828145 0.765543 0.769337 0.803892 0.950603 0.972679 0.982376 0.967074 1.02408 0.893661 1.10413 1.03131 1.22992 1.22864 1.07024 1.05228 1.03382 1.13127 1.03691 1.04273 1.14346 1.26625 1.16942 1.20391 1.21132 1.19928 1.1897 1.20741 1.18837 1.19198 1.17026 1.19226 1.17247 1.17934 1.18115 1.18882 1.18953 1.19422 1.1895 1.19832 1.19187 1.19394 1.18793 1.199 1.18564 1.1923 1.19535 1.19146 1.19387 1.19412 1.19307 1.1936 1.19346 1.19549 1.19558 1.19197 1.19729 1.19369 1.18857 1.20352 1.19194 1.17911 1.18873 1.20456 1.18863 1.17731 1.21109 1.19404 1.14539 1.20071 1.15205 1.19616 1.06011 1.11202 1.1921 1.09276 1.16913 1.20709 1.04683 1.03881 1.11749 1.0597 0.879833 0.845266 0.953633 0.980944 1.09036 0.879549 0.76871 0.771958 0.736375 0.762985 0.774572 0.783515 0.808433 0.725953 0.585446 0.576959 0.563784 0.584167 0.598075 0.597536 0.576674 0.794914 0.721802 0.907735 2.75835 1.68519 0.525238 0.404965 0.639605 0.67784 0.690051 0.831518 0.810267 0.834435 0.823771 0.839391 0.796629 0.808662 0.73577 0.759982 0.764855 0.912427 0.946858 0.929202 1.00743 0.912264 1.0025 1.18345 1.0554 0.949496 1.10359 1.03788 1.04034 1.11178 1.28784 1.17072 1.19886 1.20744 1.18441 1.19891 1.20572 1.17978 1.17083 1.19374 1.17505 1.18512 1.18553 1.19102 1.1924 1.18489 1.18874 1.19596 1.19202 1.19178 1.18796 1.20195 1.19054 1.19237 1.19558 1.19272 1.19178 1.19476 1.19363 1.19318 1.19496 1.19566 1.19191 1.19769 1.19228 1.20449 1.20302 1.18389 1.17771 1.1871 1.20879 1.19217 1.18902 1.17715 1.20633 1.16166 1.20059 1.16533 1.19064 1.08887 1.03482 1.09504 1.21195 1.06582 1.05707 0.926745 1.07792 1.03218 0.803233 0.848549 0.969261 1.04975 1.02911 0.847415 0.909269 0.959313 0.810454 0.779163 0.793143 0.76268 0.673352 0.447084 0.634899 0.550369 0.649055 0.254442 1.0399 1.38352 1.16733 0.547674 0.493704 0.669304 0.58768 0.859108 0.818654 0.846457 0.76198 0.799774 0.798031 0.8542 0.926219 0.894833 0.870432 0.860615 0.991329 1.16535 1.08895 1.15121 0.990842 0.953306 1.12746 1.05908 1.06297 1.12024 1.29271 1.18574 1.19816 1.16697 1.15358 1.20021 1.20529 1.17672 1.18858 1.18195 1.18606 1.17999 1.18459 1.18872 1.18562 1.1927 1.18342 1.19059 1.18915 1.19602 1.18783 1.20224 1.19443 1.19592 1.19431 1.19203 1.19178 1.19178 1.19452 1.19693 1.19337 1.19668 1.18722 1.2052 1.19881 1.19612 1.17702 1.17668 1.18505 1.19838 1.19551 1.13619 1.1794 1.15958 1.19579 1.16933 1.17363 1.1827 1.09071 1.16089 1.04637 1.15914 1.08808 1.05406 1.11706 1.0952 0.995886 0.923003 1.11526 0.893508 0.724199 0.921284 1.01783 1.0423 1.00603 0.909627 0.886033 0.84394 0.799555 0.802004 0.821564 0.618076 0.688818 0.579951 0.797002 0.300599 0.714962 0.49926 0.518414 0.613463 1.20509 0.885924 0.884009 0.328685 0.496426 0.555282 0.669855 0.738791 0.69437 0.876711 0.809474 0.844854 0.796848 0.816654 0.782207 0.832558 0.850814 0.831198 0.843244 0.847734 0.861592 0.873743 0.890848 0.95581 0.985473 0.793556 0.984776 1.18314 1.03016 1.12698 1.08872 1.1072 1.13744 1.09726 1.09975 1.197 1.14765 1.12888 1.17776 1.21879 1.21447 1.17404 1.19547 1.18454 1.18027 1.18011 1.18763 1.18465 1.19721 1.18297 1.18588 1.19801 1.19141 1.19247 1.18615 1.19315 1.19448 1.19641 1.195 1.19209 1.19323 1.19446 1.19527 1.19667 1.1935 1.19494 1.18741 1.19357 1.19371 1.18767 1.20816 1.19694 1.16761 1.17596 1.18505 1.2022 1.17485 1.16647 1.17028 1.20504 1.17713 1.16902 1.17639 1.22708 1.16779 1.25255 1.14501 1.07166 1.015 0.999067 0.991287 1.16044 0.841847 1.0943 0.650442 0.809994 0.820076 1.01936 1.09339 0.99902 0.985947 0.910311 1.00886 0.864407 0.877089 0.769463 0.936319 0.734779 0.794393 0.832931 0.522067 0.613005 0.551794 1.11058 0.82416 0.87765 0.679531 0.736108 0.803726 0.825459 0.874631 0.859456 0.786281 0.776803 0.842147 0.853716 0.868734 0.863423 0.921061 0.884361 0.997583 1.24687 1.09865 1.03166 0.872773 0.800669 0.975296 0.968705 1.05427 0.75535 1.08822 1.03533 1.10018 1.13195 1.08336 1.07737 1.04342 1.09043 1.20113 1.15525 1.19295 1.17123 1.16735 1.22766 1.17517 1.19133 1.18515 1.19232 1.17759 1.18598 1.18294 1.1997 1.1935 1.17905 1.19805 1.19681 1.19501 1.18692 1.19245 1.19392 1.19626 1.19489 1.19209 1.1937 1.19427 1.19495 1.19424 1.19351 1.19345 1.1879 1.19433 1.20403 1.20889 1.19828 1.18112 1.17868 1.20472 1.18432 1.17704 1.20658 1.16065 1.16405 1.17551 1.2055 1.17389 1.17606 1.21972 1.19692 1.15487 1.22408 1.10602 1.07107 1.02374 1.01707 1.02556 1.14738 1.1023 1.1654 0.722288 0.969927 0.983205 0.965969 0.860693 0.869928 0.908051 0.868168 0.85636 0.769066 0.891318 0.683661 0.640238 0.743138 1.02008 0.759722 0.799601 0.759462 0.765241 0.776242 0.87663 0.788209 0.823434 0.850296 0.89632 0.87815 0.980588 1.03224 0.847241 0.980784 1.00535 1.07011 1.07623 1.09254 1.13571 1.08508 1.15107 1.10861 1.08678 1.12129 1.21368 1.15565 1.18833 1.16937 1.16506 1.20335 1.1847 1.18596 1.18519 1.19694 1.18066 1.18142 1.17754 1.19326 1.20182 1.1885 1.19753 1.19711 1.1944 1.19123 1.1923 1.19178 1.19608 1.19493 1.19245 1.19474 1.19356 1.19477 1.19486 1.19187 1.19337 1.19214 1.19521 1.20092 1.20079 1.18037 1.20742 1.20541 1.18355 1.18143 1.1899 1.19178 1.16163 1.16468 1.18027 1.16323 1.20366 1.18532 1.19439 1.17316 1.15933 1.12161 1.09909 1.04522 1.0345 1.05254 1.11073 1.20891 1.12851 0.778091 1.0134 1.02213 0.959048 0.972292 0.813328 0.865862 0.945987 1.04798 0.800759 1.05022 0.581542 0.975565 0.771839 0.731922 0.665305 0.980562 1.00697 0.82868 0.811312 0.821063 0.720254 0.681747 0.811728 0.765355 0.857706 0.863596 0.889563 0.890327 0.902058 0.975485 0.919901 0.920892 1.00885 1.05573 0.927037 1.03522 0.879292 0.996559 1.02585 1.0811 1.13424 1.08852 1.09525 1.16139 1.09264 1.13527 1.11158 1.14274 1.16487 1.16592 1.1674 1.19752 1.15406 1.21436 1.18261 1.1782 1.19676 1.19165 1.18116 1.1862 1.19508 1.18801 1.18648 1.18836 1.1962 1.19445 1.19223 1.19393 1.19401 1.19504 1.19462 1.19331 1.19524 1.19526 1.19541 1.19144 1.19027 1.19457 1.19333 1.19396 1.19846 1.19843 1.19724 1.18633 1.18161 1.19219 1.17464 1.15954 1.17284 1.19777 1.18725 1.1758 1.188 1.20789 1.04837 1.1269 1.08192 1.24275 1.07275 1.06848 1.10798 1.05874 1.09764 1.13327 1.19707 1.00616 0.831243 0.937453 0.878889 1.14876 0.932359 1.00972 0.950949 0.776035 0.890197 0.831954 0.965957 0.570093 1.07392 0.936731 0.807006 0.79406 0.886467 0.877355 0.872579 0.928874 0.879355 0.793166 0.724224 0.634386 0.877407 0.866325 0.924996 0.874928 0.910145 0.974793 0.951296 0.913864 0.923618 0.962033 1.01637 1.04326 0.967303 1.08085 1.08682 1.06858 1.141 1.09708 1.18476 1.15814 1.1413 1.12331 1.12052 1.19178 1.1601 1.16659 1.17182 1.15436 1.20264 1.21342 1.18554 1.19236 1.18418 1.19185 1.19418 1.19525 1.19175 1.18833 1.19943 1.19178 1.19564 1.19435 1.19175 1.19461 1.19869 1.19153 1.19144 1.19584 1.194 1.19234 1.19523 1.19288 1.19095 1.19482 1.19193 1.19373 1.19401 1.19867 1.1984 1.19751 1.18113 1.18792 1.18149 1.19416 1.17394 1.20543 1.16978 1.21784 1.19307 1.17926 1.19102 1.18928 1.07134 1.20936 1.19178 1.20617 1.0577 1.10026 1.08236 1.12848 1.19756 1.03804 0.994326 0.860712 1.04521 0.949047 0.980406 0.993671 1.09234 0.999973 1.14326 1.24338 0.833958 0.865971 0.954671 0.92394 0.839423 1.02794 0.913225 0.876795 0.883861 0.733902 0.951097 1.10731 1.01398 0.973966 0.983127 0.971868 1.03231 1.0692 0.899418 0.941374 1.00464 1.02906 1.08604 1.07977 0.986366 1.07815 1.07298 1.12961 1.09238 1.19105 1.08974 1.14818 1.13052 1.13686 1.19431 1.19173 1.19201 1.18331 1.16746 1.19099 1.19555 1.18679 1.19179 1.18501 1.19212 1.19468 1.1952 1.18764 1.19803 1.19492 1.20051 1.19556 1.19414 1.19175 1.19395 1.19843 1.19437 1.19865 1.19381 1.19598 1.19576 1.19126 1.19479 1.19209 1.19216 1.1929 1.19813 1.19883 1.19836 1.18541 1.17828 1.18481 1.18932 1.17098 1.15975 1.20241 1.19817 1.18116 1.18786 1.19993 1.19461 1.08497 1.2197 1.24013 1.27366 1.14179 1.09896 1.11445 1.14669 1.16864 1.03362 0.987737 0.911074 1.00965 0.958949 1.00488 1.0623 1.16652 0.863239 1.04165 0.98629 1.32255 0.97781 0.844775 0.963709 0.953503 0.872663 0.913843 0.938578 1.07598 0.959123 1.04574 0.917599 0.982007 0.996659 1.06995 1.05611 0.920927 0.995143 0.974084 0.980216 1.03434 1.03479 1.06048 1.08842 1.04394 1.09128 1.07123 1.0882 1.00543 1.08034 1.07475 1.08526 1.12327 1.09257 1.1863 1.12693 1.20295 1.1667 1.1929 1.16153 1.21185 1.16151 1.18374 1.17713 1.19523 1.19357 1.18596 1.19052 1.19178 1.1859 1.1933 1.19423 1.18625 1.19592 1.1989 1.19336 1.19287 1.194 1.19435 1.19383 1.1957 1.18894 1.19359 1.18983 1.19452 1.19594 1.192 1.19113 1.19549 1.19182 1.18979 1.19268 1.19383 1.19524 1.18591 1.18918 1.18104 1.18107 1.18893 1.16936 1.18888 1.19708 1.19178 1.19369 1.18852 1.19708 1.18828 1.08159 1.16917 1.17288 1.19889 1.23782 1.13948 1.12172 1.1138 1.20479 1.12448 1.01106 0.991815 1.09083 1.02161 0.977982 1.03654 0.972786 1.1315 1.03661 1.25147 0.945703 0.924096 0.903583 0.973882 1.00346 0.95147 1.10896 1.00495 1.04319 1.01577 1.01731 1.05673 0.977055 1.01669 1.05664 1.07452 1.06373 1.02094 1.09443 1.09476 1.10907 1.07151 1.1184 1.0717 1.06872 1.10218 1.15041 1.10716 1.22974 1.15571 1.20346 1.17764 1.20294 1.18892 1.16208 1.20794 1.18628 1.17749 1.1988 1.19318 1.19516 1.19023 1.18917 1.18474 1.18828 1.1938 1.1919 1.19024 1.1966 1.19997 1.1934 1.1969 1.1944 1.1979 1.19538 1.18838 1.19218 1.19688 1.19131 1.19075 1.19764 1.19272 1.18579 1.18825 1.19323 1.19023 1.19253 1.19411 1.19489 1.18412 1.18921 1.18268 1.17239 1.19238 1.1791 1.18847 1.19604 1.19432 1.1927 1.19375 1.17757 1.16388 1.0917 1.18337 1.20587 1.16254 1.09831 1.18046 1.11114 1.2301 1.14664 1.10221 1.10833 1.05405 1.01815 1.04848 0.939035 1.05175 1.15796 1.06332 1.23581 0.985199 0.97893 1.01289 1.05459 1.02708 0.974091 1.00925 1.10339 1.08574 1.02517 1.0594 1.03779 1.02813 0.984469 1.0739 1.0776 1.10848 1.06704 1.02734 1.09833 1.13171 1.15017 1.0815 1.12235 1.05432 1.09558 1.13867 1.13724 1.20025 1.24487 1.16565 1.18351 1.1807 1.19078 1.18857 1.18701 1.18061 1.19786 1.18533 1.19348 1.19334 1.18701 1.18906 1.19357 1.19306 1.19348 1.19359 1.18626 1.19962 1.1931 1.19738 1.19476 1.19815 1.19566 1.19178 1.19054 1.18637 1.19342 1.1957 1.20233 1.19285 1.18564 1.19309 1.19336 1.19021 1.19217 1.19356 1.19474 1.1916 1.19351 1.19528 1.19048 1.18628 1.18625 1.19386 1.19512 1.19436 1.19227 1.19256 1.1757 1.16408 1.18516 1.18994 1.20062 1.17759 1.20245 1.16972 1.13334 1.2318 1.17023 1.14395 1.04013 1.10736 1.11625 1.08027 1.06181 1.10991 1.15084 1.08373 1.22926 1.06304 1.1324 1.05646 1.04672 0.991637 0.999337 1.08071 1.12425 1.02733 1.07593 1.06557 1.04661 1.0166 1.14636 1.08582 1.12677 1.05979 1.02923 1.11002 1.13953 1.18172 1.10629 1.1328 1.04867 1.11054 1.16778 1.15876 1.19426 1.15852 1.17246 1.17165 1.19009 1.17081 1.18183 1.19074 1.16606 1.195 1.19824 1.18467 1.19427 1.19208 1.18715 1.18936 1.19479 1.1931 1.19178 1.19328 1.1907 1.19741 1.20018 1.18881 1.19627 1.19597 1.19509 1.20024 1.19657 1.19233 1.19097 1.1893 1.19 1.20652 1.18726 1.19403 1.18929 1.1913 1.19285 1.18871 1.19044 1.19254 1.19439 1.19165 1.19419 1.1921 1.19178 1.18542 1.18722 1.1864 1.19348 1.19444 1.19246 1.19248 1.17864 1.19054 1.18524 1.18561 1.19619 1.19178 1.17944 1.16067 1.14477 1.16987 1.14834 1.1657 1.04777 1.13627 1.13025 1.09121 1.09856 1.12022 1.15749 1.09611 1.11516 1.106 1.17775 1.07488 1.04211 1.02016 1.09965 1.09295 1.1365 1.13081 1.10185 1.12408 1.10177 1.05532 1.16595 1.11464 1.11744 1.06223 1.06745 1.15416 1.12809 1.18293 1.07436 1.12822 1.1117 1.16024 1.16856 1.15904 1.20577 1.19802 1.17053 1.20346 1.17337 1.18683 1.18271 1.19178 1.193 1.19778 1.19391 1.18432 1.19199 1.19142 1.19193 1.19854 1.18824 1.19386 1.19184 1.19362 1.1949 1.19675 1.19639 1.19606 1.19446 1.20114 1.19636 1.19468 1.19267 1.19081 1.19044 1.18737 1.18648 1.19567 1.19277 1.19135 1.193 1.18908 1.19026 1.19376 1.1959 1.19408 1.19257 1.1853 1.19055 1.18791 1.18698 1.19365 1.19104 1.19178 1.1836 1.18061 1.18581 1.18654 1.19348 1.18541 1.18282 1.15781 1.17149 1.15735 1.17086 1.18885 1.094 1.15625 1.14707 1.10088 1.11042 1.11998 1.15241 1.08413 1.12601 1.10743 1.14075 1.07589 1.07664 1.10505 1.1047 1.14629 1.13309 1.09811 1.15292 1.09518 1.19396 1.14238 1.10721 1.19178 1.19178 1.07814 1.17217 1.1346 1.17941 1.13814 1.19178 1.12089 1.17498 1.17862 1.15645 1.18202 1.20631 1.18903 1.17462 1.19409 1.19091 1.18511 1.18205 1.16943 1.18328 1.1934 1.19363 1.18671 1.18779 1.19125 1.19155 1.19892 1.19182 1.19367 1.19177 1.19357 1.19409 1.19083 1.19665 1.19375 1.20081 1.19611 1.19178 1.19234 1.1911 1.18958 1.18972 1.18615 1.19464 1.19312 1.19385 1.18848 1.18956 1.19033 1.19495 1.1837 1.18939 1.19446 1.19908 1.19039 1.19929 1.18603 1.18811 1.18888 1.18905 1.19383 1.19097 1.18439 1.18602 1.18086 1.18462 1.18818 1.18488 1.18505 1.19154 1.18446 1.15502 1.16907 1.16469 1.16358 1.18154 1.11293 1.15521 1.15381 1.11945 1.13677 1.13521 1.12592 1.09965 1.13229 1.11165 1.12632 1.15502 1.12034 1.14621 1.1012 1.09797 1.11512 1.15269 1.11559 1.15371 1.22501 1.21048 1.16415 1.15329 1.10945 1.19731 1.18779 1.19545 1.18589 1.14409 1.17835 1.1575 1.19178 1.17985 1.15942 1.19445 1.20398 1.18948 1.17897 1.19008 1.19147 1.18565 1.18298 1.18637 1.1885 1.19299 1.19384 1.18675 1.18945 1.19149 1.19164 1.19902 1.20518 1.19165 1.19516 1.19201 1.19375 1.19067 1.19677 1.19578 1.19301 1.20061 1.1959 1.19012 1.19398 1.19003 1.18815 1.18923 1.19051 1.18296 1.19289 1.19369 1.19281 1.19356 1.19014 1.18721 1.18554 1.19068 1.19434 1.18856 1.18696 1.19561 1.18674 1.19075 1.18612 1.1867 1.18363 1.18527 1.18622 1.18715 1.18372 1.18346 1.18612 1.15902 1.17986 1.17063 1.17119 1.17783 1.13103 1.12969 1.15757 1.15544 1.14235 1.14024 1.13984 1.13668 1.15176 1.14113 1.11592 1.12999 1.15127 1.14285 1.10937 1.09848 1.12283 1.16193 1.10571 1.17659 1.14444 1.20248 1.1917 1.16815 1.16553 1.11347 1.20236 1.19567 1.1873 1.18951 1.14675 1.16702 1.1696 1.17946 1.19178 1.1828 1.18189 1.16094 1.18661 1.19788 1.2039 1.20693 1.19178 1.18934 1.19152 1.18549 1.18812 1.19018 1.18642 1.1907 1.19186 1.1933 1.18972 1.18856 1.18612 1.18975 1.19636 1.18402 1.19151 1.19496 1.18806 1.19192 1.19732 1.19618 1.19281 1.19531 1.19763 1.19 1.19674 1.19398 1.18831 1.18958 1.18213 1.19418 1.18939 1.19617 1.2006 1.1865 1.19312 1.19434 1.18581 1.18843 1.18831 1.19472 1.19832 1.1889 1.19398 1.19017 1.1866 1.18955 1.18669 1.18576 1.18593 1.18844 1.18468 1.18525 1.18542 1.18521 1.18623 1.17288 1.17355 1.2004 1.18086 1.14767 1.15983 1.15909 1.15542 1.14141 1.14688 1.14547 1.16596 1.14754 1.16796 1.12795 1.15455 1.14416 1.10796 1.1343 1.12387 1.17137 1.18719 1.16683 1.1883 1.17212 1.18434 1.12113 1.19145 1.19803 1.19105 1.1905 1.1902 1.17316 1.18504 1.18245 1.18202 1.19503 1.18427 1.19015 1.18945 1.192 1.19147 1.18749 1.19366 1.19194 1.18681 1.19021 1.19175 1.19261 1.19109 1.18221 1.18849 1.18999 1.19495 1.19361 1.19328 1.19343 1.19111 1.18755 1.19307 1.19988 1.19118 1.19338 1.19273 1.1973 1.19169 1.19167 1.19383 1.19766 1.18742 1.19011 1.18201 1.19542 1.19006 1.19674 1.19178 1.18768 1.19258 1.18589 1.18814 1.1902 1.19648 1.19553 1.19798 1.1971 1.19479 1.1946 1.19178 1.18971 1.19531 1.18579 1.18672 1.18477 1.18532 1.18701 1.18754 1.19151 1.18542 1.19178 1.18577 1.18548 1.18325 1.18683 1.17889 1.19449 1.19459 1.18193 1.16028 1.16132 1.16377 1.16332 1.15251 1.14882 1.17673 1.19184 1.15939 1.15984 1.12893 1.15572 1.14939 1.15491 1.15045 1.12911 1.17875 1.17102 1.17719 1.19372 1.19947 1.17914 1.19351 1.19048 1.19188 1.19881 1.19123 1.19178 1.19131 1.19573 1.18458 1.17996 1.18415 1.18185 1.18591 1.19674 1.19041 1.19151 1.19117 1.19067 1.19291 1.19135 1.19843 1.19662 1.1955 1.18822 1.19008 1.19106 1.18879 1.19661 1.19619 1.18208 1.19062 1.18843 1.19216 1.19462 1.19073 1.192 1.18879 1.19246 1.1862 1.19146 1.19326 1.19114 1.18841 1.1878 1.19177 1.19181 1.19178 1.18639 1.18745 1.18798 1.19117 1.19647 1.18968 1.18655 1.1945 1.18957 1.19448 1.19451 1.18881 1.19033 1.19777 1.19728 1.1946 1.19476 1.19341 1.18961 1.19315 1.19178 1.19347 1.18996 1.18716 1.18523 1.19049 1.18454 1.1904 1.18242 1.18511 1.17665 1.19919 1.19277 1.18613 1.18154 1.16954 1.16488 1.16496 1.16553 1.19005 1.1491 1.16859 1.19809 1.18238 1.15758 1.15758 1.15774 1.14969 1.15507 1.15582 1.14004 1.17925 1.178 1.18474 1.19823 1.20021 1.19867 1.18225 1.19113 1.1917 1.19194 1.19387 1.19575 1.19248 1.19066 1.19168 1.19268 1.18571 1.1919 1.19478 1.19398 1.19002 1.191 1.19131 1.19506 1.1971 1.19824 1.19738 1.18816 1.19896 1.18985 1.18908 1.18693 1.19438 1.21035 1.19439 1.19044 1.19381 1.19008 1.19115 1.18835 1.19139 1.18606 1.18614 1.19087 1.19358 1.18973 1.19062 1.19099 1.18522 1.18651 1.18719 1.18643 1.19069 1.1956 1.18576 1.19182 1.18745 1.18902 1.19192 1.19079 1.1853 1.18968 1.18992 1.18944 1.19192 1.19673 1.19812 1.19733 1.19179 1.18912 1.19133 1.19288 1.19459 1.19176 1.18473 1.18607 1.19257 1.20017 1.20285 1.18823 1.18424 1.19183 1.18898 1.18344 1.17714 1.19818 1.18945 1.19578 1.18298 1.18184 1.18476 1.16905 1.16843 1.16931 1.19396 1.1673 1.16578 1.18415 1.15988 1.20041 1.1613 1.17192 1.18099 1.1484 1.15402 1.15665 1.15862 1.15574 1.16571 1.18113 1.18327 1.18846 1.19359 1.19355 1.19681 1.18358 1.1931 1.19372 1.19007 1.19264 1.18907 1.19514 1.18839 1.1943 1.18065 1.1807 1.18397 1.18442 1.19282 1.19505 1.19656 1.19065 1.19334 1.18981 1.19349 1.19 1.19509 1.18844 1.19863 1.19162 1.18894 1.20486 1.19178 1.20472 1.19382 1.1917 1.19346 1.19508 1.19149 1.18662 1.19077 1.18653 1.18635 1.19104 1.19172 1.18848 1.18953 1.19026 1.19195 1.19245 1.18525 1.18586 1.18692 1.18621 1.19078 1.19336 1.19721 1.18793 1.18487 1.19113 1.1915 1.18996 1.17901 1.19746 1.19444 1.19345 1.19171 1.18971 1.19075 1.18288 1.19184 1.18649 1.18451 1.1919 1.18819 1.1888 1.18894 1.18295 1.18564 1.18166 1.18404 1.20262 1.19692 1.18154 1.19506 1.17158 1.1745 1.19178 1.1929 1.1672 1.19391 1.20481 1.18174 1.18203 1.17731 1.16165 1.16963 1.16814 1.18967 1.16602 1.17793 1.19236 1.17372 1.16752 1.18257 1.18505 1.19013 1.19386 1.19706 1.18516 1.19359 1.19318 1.19605 1.19999 1.19336 1.19563 1.1896 1.19688 1.19387 1.187 1.19313 1.19178 1.18855 1.18981 1.18727 1.1926 1.19129 1.19563 1.1954 1.19276 1.19484 1.18926 1.1854 1.18949 1.18828 1.1931 1.19568 1.19148 1.19125 1.19262 1.19007 1.186 1.1867 1.19062 1.18623 1.18514 1.1916 1.19008 1.19137 1.1889 1.19071 1.1929 1.18537 1.1868 1.19043 1.19021 1.19132 1.19714 1.18733 1.18458 1.18886 1.19236 1.1899 1.18271 1.18824 1.18968 1.19862 1.19377 1.19454 1.19232 1.19185 1.19085 1.18822 1.18979 1.19453 1.18943 1.18271 1.20297 1.19396 1.18994 1.18678 1.18347 1.18918 1.18581 1.19506 1.19307 1.18501 1.17746 1.17643 1.19203 1.19402 1.18342 1.18409 1.17719 1.16193 1.17565 1.18415 1.17891 1.1786 1.17364 1.1834 1.19085 1.19049 1.1946 1.18635 1.19229 1.1876 1.19856 1.18767 1.19234 1.19136 1.18865 1.19272 1.19453 1.18956 1.18871 1.18684 1.19487 1.19571 1.19379 1.19385 1.19184 1.19482 1.19425 1.19597 1.19514 1.19378 1.18773 1.19005 1.18782 1.1923 1.20478 1.19345 1.19528 1.19144 1.19133 1.19023 1.19477 1.19032 1.18573 1.18668 1.19178 1.187 1.19178 1.19041 1.1894 1.18885 1.18693 1.1893 1.19021 1.19268 1.18693 1.1898 1.19489 1.19461 1.1897 1.18843 1.19154 1.19532 1.1867 1.19178 1.18876 1.19215 1.18837 1.18032 1.18757 1.19304 1.19452 1.19381 1.19461 1.18214 1.18392 1.19626 1.19378 1.18717 1.19421 1.18273 1.19409 1.19511 1.19077 1.18852 1.18531 1.18697 1.1904 1.1852 1.18765 1.18994 1.18632 1.17848 1.20244 1.18153 1.18428 1.18076 1.19474 1.18588 1.18046 1.17848 1.1698 1.1935 1.19176 1.19207 1.19162 1.19281 1.19422 1.18692 1.18749 1.19865 1.18966 1.19195 1.19287 1.19161 1.19362 1.19309 1.19157 1.19018 1.18684 1.18834 1.19471 1.19517 1.19134 1.19126 1.19458 1.19264 1.19403 1.18745 1.18976 1.18964 1.19196 1.18678 1.19172 1.19173 1.18891 1.19295 1.18917 1.19435 1.18361 1.18571 1.19629 1.19361 1.18479 1.1893 1.18941 1.18816 1.19251 1.18905 1.18845 1.19344 1.19104 1.18927 1.19009 1.18764 1.19409 1.19052 1.19562 1.18632 1.19444 1.19516 1.19346 1.18872 1.19338 1.18968 1.18157 1.18541 1.18667 1.19279 1.19427 1.19335 1.19214 1.1935 1.19383 1.18624 1.19378 1.18921 1.18696 1.19213 1.19032 1.19016 1.19076 1.19026 1.18686 1.18442 1.19178 1.18821 1.18889 1.1917 1.18114 1.18406 1.19941 1.1894 1.18255 1.18685 1.19902 1.19327 1.18427 1.19078 1.1806 1.17997 1.17536 1.17821 1.17218 1.19354 1.1935 1.19269 1.1919 1.1923 1.19288 1.19432 1.19244 1.19432 1.18771 1.19317 1.19333 1.19353 1.19139 1.19207 1.19238 1.19114 1.18924 1.19237 1.19619 1.19424 1.19258 1.19345 1.19119 1.19167 1.19401 1.19292 1.19146 1.19178 1.19242 1.19207 1.18791 1.19561 1.19502 1.19109 1.19344 1.19653 1.18942 1.19631 1.17735 1.19165 1.18536 1.19623 1.18443 1.19178 1.18481 1.18908 1.18855 1.19203 1.19092 1.18915 1.18753 1.19309 1.19072 1.18923 1.18986 1.18961 1.19096 1.19074 1.18962 1.19186 1.19531 1.1883 1.17856 1.18385 1.18643 1.18981 1.19477 1.19328 1.19163 1.19148 1.18512 1.19358 1.19273 1.1917 1.18704 1.18748 1.1888 1.18807 1.19105 1.18535 1.18458 1.18951 1.1851 1.19131 1.19174 1.18917 1.18279 1.18802 1.199 1.18764 1.18484 1.18171 1.19862 1.20167 1.19463 1.19476 1.18586 1.18398 1.18021 1.17759 1.17437 1.1734 1.19331 1.19271 1.19224 1.19201 1.19246 1.1928 1.20216 1.18562 1.18773 1.19025 1.19408 1.19633 1.19267 1.18536 1.19009 1.19019 1.19442 1.19006 1.1916 1.19402 1.19091 1.19334 1.19248 1.19047 1.19013 1.19274 1.19223 1.19214 1.18648 1.19104 1.19335 1.19178 1.18779 1.1888 1.18873 1.18553 1.19506 1.19988 1.18909 1.18498 1.18874 1.18815 1.18726 1.19263 1.19052 1.18868 1.18604 1.19136 1.19081 1.18881 1.19167 1.18956 1.19074 1.19102 1.18967 1.18727 1.19211 1.19394 1.19467 1.18442 1.18395 1.19121 1.18622 1.18974 1.19462 1.19298 1.19249 1.19236 1.19098 1.19043 1.19039 1.19187 1.18525 1.19167 1.19165 1.187 1.19178 1.18705 1.18705 1.19091 1.18495 1.18228 1.18072 1.18546 1.18971 1.19069 1.19502 1.19043 1.18426 1.17688 1.18485 1.18741 1.18653 1.18606 1.18251 1.19989 1.20215 1.19727 1.18953 1.18593 1.1853 1.18374 1.17819 1.17537 1.1743 1.19311 1.19162 1.19187 1.19883 1.19874 1.19605 1.19178 1.18953 1.19178 1.19629 1.19066 1.18752 1.19118 1.19059 1.19231 1.19127 1.19161 1.19091 1.19245 1.18992 1.19176 1.19038 1.19332 1.19743 1.19491 1.19293 1.19291 1.19194 1.19216 1.19181 1.18632 1.19155 1.19545 1.19276 1.1907 1.18835 1.18742 1.1936 1.19291 1.19426 1.19228 1.18646 1.18502 1.18745 1.18466 1.1872 1.19045 1.18834 1.1915 1.19246 1.18822 1.19034 1.19093 1.18752 1.19002 1.19182 1.18133 1.18299 1.19415 1.18572 1.1894 1.19011 1.18821 1.1887 1.1908 1.19194 1.19264 1.19219 1.191 1.18928 1.18687 1.1864 1.19054 1.18505 1.18348 1.18298 1.18716 1.19204 1.18823 1.18014 1.18805 1.18613 1.18703 1.18142 1.19867 1.19729 1.19014 1.18694 1.18273 1.18557 1.17873 1.17697 1.17486 1.19296 1.19266 1.19178 1.19159 1.19188 1.1892 1.19478 1.19711 1.19644 1.18849 1.19465 1.19619 1.18797 1.19626 1.19276 1.19269 1.19124 1.20148 1.20234 1.19041 1.19187 1.1915 1.19427 1.19073 1.18937 1.19356 1.19405 1.1928 1.18915 1.19185 1.19004 1.18604 1.1939 1.19254 1.18856 1.19171 1.18792 1.18909 1.19406 1.1937 1.19383 1.19404 1.19087 1.18996 1.18483 1.18543 1.19212 1.19163 1.19869 1.18389 1.18696 1.19086 1.1893 1.19324 1.18831 1.19037 1.18599 1.18574 1.1885 1.18794 1.19123 1.19136 1.19006 1.1949 1.18813 1.19076 1.18825 1.18058 1.18834 1.18832 1.18299 1.19064 1.18926 1.18736 1.19061 1.19088 1.19031 1.19051 1.18997 1.19242 1.18904 1.18572 1.19085 1.18507 1.18571 1.19217 1.18784 1.18397 1.18404 1.1873 1.19013 1.19007 1.18326 1.18769 1.18686 1.18084 1.18885 1.1853 1.18724 1.19035 1.18755 1.18694 1.1905 1.19324 1.18367 1.17624 1.18365 1.17828 1.17516 1.19267 1.19217 1.19037 1.1929 1.18958 1.18898 1.18848 1.1948 1.19702 1.19626 1.18809 1.19703 1.19605 1.19677 1.1847 1.20151 1.18968 1.18956 1.19104 1.19384 1.19189 1.1947 1.19513 1.18546 1.18909 1.19213 1.19027 1.18858 1.18695 1.19088 1.19059 1.19148 1.19017 1.18914 1.18802 1.18806 1.18937 1.1932 1.19178 1.19187 1.19181 1.19165 1.19018 1.18865 1.18317 1.19704 1.18893 1.18537 1.1891 1.18676 1.18753 1.18898 1.19395 1.19466 1.18822 1.19028 1.19131 1.18726 1.18718 1.18832 1.18958 1.18681 1.19126 1.18747 1.18822 1.18246 1.18741 1.19058 1.19219 1.18854 1.18705 1.18985 1.19019 1.18979 1.19104 1.18822 1.18728 1.19219 1.19178 1.18385 1.20693 1.19127 1.1875 1.18566 1.18715 1.18836 1.19013 1.19401 1.18328 1.1882 1.18098 1.18932 1.18623 1.19119 1.18931 1.18607 1.18208 1.18944 1.18198 1.19704 1.18746 1.17882 1.17534 1.19224 1.19187 1.19274 1.18844 1.18812 1.19474 1.18672 1.18758 1.19124 1.19844 1.19687 1.196 1.19266 1.19877 1.18897 1.18923 1.18932 1.19083 1.19369 1.18985 1.19228 1.19083 1.19109 1.1938 1.18449 1.19333 1.18693 1.18998 1.19317 1.19074 1.18902 1.18731 1.18789 1.1899 1.19298 1.19144 1.18596 1.19072 1.18955 1.1887 1.18261 1.17889 1.18945 1.18595 1.18974 1.18822 1.18973 1.18856 1.18854 1.19022 1.18684 1.18771 1.18736 1.18771 1.18662 1.19015 1.18274 1.18756 1.18722 1.18132 1.19119 1.18971 1.18988 1.18721 1.18818 1.18933 1.18436 1.19012 1.18889 1.19331 1.18913 1.19063 1.19498 1.19933 1.19053 1.18754 1.19045 1.1862 1.1906 1.19083 1.19178 1.189 1.18891 1.17923 1.18134 1.19577 1.18074 1.19376 1.19359 1.18336 1.18696 1.18972 1.18644 1.18628 1.18267 1.18878 1.19527 1.18733 1.18032 1.18082 1.19162 1.19178 1.18853 1.1883 1.19095 1.19461 1.19199 1.1868 1.19103 1.19079 1.19646 1.1922 1.17341 1.18864 1.19012 1.19049 1.18985 1.19287 1.188 1.18705 1.20607 1.1863 1.18695 1.18757 1.18976 1.19191 1.19228 1.18979 1.18777 1.18778 1.18838 1.18708 1.19039 1.18788 1.19247 1.18976 1.18822 1.19067 1.18843 1.18748 1.18841 1.18242 1.17891 1.18487 1.19178 1.18958 1.19183 1.19055 1.18892 1.18718 1.19136 1.18752 1.18705 1.1878 1.18775 1.18834 1.18755 1.18698 1.18291 1.1829 1.18838 1.18931 1.1839 1.18947 1.18982 1.18855 1.19178 1.18888 1.18725 1.18812 1.18834 1.18498 1.18841 1.19373 1.19053 1.19027 1.19127 1.19264 1.18996 1.1886 1.18843 1.19177 1.19225 1.1877 1.19139 1.1914 1.18633 1.19074 1.18935 1.18893 1.18269 1.1915 1.18898 1.1925 1.18805 1.19178 1.18692 1.18048 1.18137 1.18736 1.18812 1.18965 1.19095 1.19351 1.19005 1.19073 1.18709 1.1878 1.19612 1.19161 1.18752 1.19178 1.18986 1.18992 1.18976 1.19236 1.18707 1.19094 1.18703 1.19137 1.18282 1.18723 1.18857 1.19105 1.19106 1.18971 1.18848 1.18774 1.18727 1.19234 1.18754 1.19035 1.18937 1.19122 1.18991 1.1919 1.19037 1.18854 1.18331 1.18584 1.17911 1.18911 1.18891 1.18759 1.18892 1.1916 1.18998 1.18822 1.18799 1.18653 1.19103 1.18834 1.18744 1.18731 1.18846 1.18674 1.18733 1.19178 1.19022 1.19243 1.18372 1.18438 1.18361 1.1883 1.1886 1.19042 1.18794 1.18706 1.1874 1.18793 1.18966 1.18943 1.18864 1.1936 1.19331 1.18405 1.19017 1.19144 1.19071 1.18994 1.1891 1.18996 1.1888 1.18807 1.19343 1.18754 1.19361 1.19417 1.19151 1.18823 1.18809 1.19223 1.19147 1.1922 1.19328 1.18732 1.18266 1.18675 1.18827 1.18397 1.18195 1.18092 1.19137 1.18627 1.18795 1.19072 1.19206 1.19063 1.19295 1.19119 1.18626 1.19798 1.18805 1.19187 1.19164 1.18856 1.1895 1.18461 1.18876 1.19243 1.18649 1.19009 1.19076 1.18996 1.18882 1.19008 1.18591 1.18973 1.18739 1.19022 1.19066 1.18984 1.19005 1.18759 1.19094 1.18712 1.18703 1.18757 1.18909 1.18913 1.18207 1.18602 1.19036 1.19216 1.19614 1.18624 1.19436 1.18828 1.18804 1.19128 1.18998 1.18802 1.18665 1.19025 1.18817 1.18884 1.18673 1.18777 1.18668 1.18793 1.18901 1.1869 1.19178 1.18759 1.18929 1.19059 1.18374 1.18704 1.18864 1.18738 1.18479 1.19178 1.18968 1.19026 1.19058 1.19068 1.18708 1.18701 1.18754 1.18777 1.1934 1.19289 1.18379 1.19106 1.19371 1.19054 1.18915 1.18872 1.18904 1.18996 1.18983 1.19039 1.19187 1.19482 1.19151 1.18767 1.19041 1.19473 1.18938 1.19439 1.19049 1.19078 1.1901 1.19288 1.18947 1.1852 1.18266 1.18322 1.18714 1.19152 1.1855 1.18757 1.19069 1.19224 1.19085 1.19172 1.19407 1.18883 1.18998 1.18577 1.18804 1.18921 1.19046 1.1908 1.19285 1.19446 1.18591 1.18554 1.18816 1.19124 1.18903 1.18658 1.18652 1.18969 1.18979 1.18581 1.18759 1.18598 1.19146 1.19015 1.18781 1.19043 1.19189 1.18741 1.1858 1.1886 1.18472 1.18553 1.18904 1.19064 1.1872 1.18911 1.18911 1.18596 1.19562 1.19167 1.18995 1.18803 1.18861 1.18913 1.18807 1.19018 1.19152 1.19178 1.18645 1.19077 1.1999 1.19143 1.18978 1.18988 1.18218 1.18643 1.18971 1.19078 1.18931 1.18573 1.187 1.18661 1.1889 1.19097 1.18977 1.19045 1.18544 1.18359 1.18403 1.18963 1.19238 1.19025 1.18903 1.19028 1.18973 1.19032 1.19173 1.19028 1.1944 1.18928 1.19044 1.18893 1.19073 1.18823 1.19256 1.18947 1.18983 1.18481 1.18628 1.1866 1.18096 1.18098 1.19051 1.18475 1.18707 1.19044 1.19061 1.19006 1.19208 1.19318 1.18917 1.18881 1.18842 1.18825 1.18768 1.18905 1.1899 1.19072 1.18571 1.18851 1.18811 1.18623 1.18903 1.18647 1.18952 1.18941 1.18563 1.18684 1.18826 1.19196 1.18846 1.19065 1.19074 1.18873 1.19046 1.1888 1.18697 1.18713 1.18937 1.18867 1.1909 1.19221 1.19196 1.19045 1.19039 1.19041 1.19022 1.194 1.19229 1.19047 1.18663 1.18815 1.19278 1.19178 1.1883 1.18727 1.18989 1.1936 1.19344 1.18804 1.18898 1.18478 1.18526 1.18738 1.18949 1.18984 1.18986 1.18997 1.18708 1.1883 1.18904 1.18916 1.18774 1.1854 1.18971 1.19034 1.18646 1.18797 1.19034 1.19183 1.1894 1.18635 1.19374 1.18916 1.19217 1.18787 1.1895 1.19172 1.1912 1.19313 1.18897 1.18897 1.18694 1.18804 1.18878 1.19138 1.18463 1.19088 1.19205 1.19358 1.18543 1.18433 1.18422 1.18962 1.19035 1.18427 1.18805 1.18607 1.18869 1.19321 1.19103 1.18844 1.18763 1.18849 1.18725 1.18916 1.19015 1.18964 1.18985 1.19049 1.19237 1.18625 1.18528 1.18911 1.18781 1.18767 1.18994 1.18641 1.18773 1.18662 1.19007 1.1877 1.18926 1.18703 1.18803 1.19015 1.18949 1.18778 1.1877 1.19339 1.18989 1.18739 1.18964 1.18906 1.19034 1.1877 1.1879 1.1919 1.19016 1.18899 1.19112 1.18572 1.19077 1.19155 1.19178 1.19132 1.18727 1.19172 1.19207 1.18927 1.19515 1.19178 1.18792 1.1902 1.19235 1.18963 1.18892 1.18647 1.18732 1.19084 1.1899 1.19011 1.18737 1.18685 1.18825 1.18887 1.18859 1.189 1.18552 1.18804 1.18572 1.188 1.1897 1.18766 1.19189 1.18933 1.19182 1.19051 1.19274 1.19178 1.1874 1.18912 1.19017 1.19193 1.19104 1.19077 1.19178 1.18929 1.19003 1.18977 1.18974 1.18689 1.18867 1.19054 1.19094 1.19118 1.19079 1.19213 1.1852 1.19203 1.19178 1.19036 1.19037 1.1866 1.18678 1.18483 1.18578 1.18347 1.19322 1.18976 1.1874 1.1872 1.18748 1.18868 1.18959 1.18991 1.19022 1.18513 1.18807 1.19139 1.18528 1.18716 1.18661 1.1881 1.18964 1.1866 1.18693 1.18804 1.19009 1.18783 1.18775 1.18764 1.19335 1.19065 1.18903 1.18782 1.18709 1.19165 1.1901 1.18895 1.19178 1.18735 1.19121 1.19178 1.19178 1.19125 1.18851 1.19172 1.19173 1.19178 1.18978 1.19037 1.1924 1.18793 1.18787 1.19025 1.18975 1.18894 1.18788 1.19165 1.18727 1.19133 1.19194 1.19045 1.18733 1.18794 1.18664 1.18887 1.18825 1.18882 1.18868 1.18788 1.18646 1.1852 1.18842 1.19029 1.19063 1.19103 1.18807 1.19281 1.18829 1.18894 1.18997 1.19184 1.1918 1.19156 1.19048 1.18971 1.18999 1.18959 1.18822 1.19086 1.19167 1.19215 1.18538 1.19174 1.19178 1.19203 1.18969 1.19146 1.18694 1.18532 1.1863 1.19352 1.18555 1.18858 1.18975 1.18725 1.18802 1.18934 1.18948 1.18988 1.19178 1.18585 1.18885 1.18674 1.18679 1.18968 1.19238 1.18884 1.18552 1.19036 1.18813 1.18902 1.18904 1.18621 1.1869 1.1888 1.18892 1.19004 1.19178 1.18929 1.1905 1.18888 1.18859 1.19178 1.1889 1.18857 1.19178 1.18939 1.19137 1.19178 1.19179 1.19135 1.19007 1.19175 1.19178 1.19036 1.19178 1.19239 1.1901 1.19209 1.19194 1.19076 1.18933 1.18797 1.18876 1.19164 1.18764 1.19061 1.18876 1.19056 1.18829 1.18741 1.18703 1.18906 1.18826 1.18809 1.18685 1.18764 1.18476 1.18724 1.18815 1.18937 1.18966 1.18966 1.19071 1.19115 1.19219 1.18817 1.18994 1.1933 1.18895 1.18985 1.192 1.18999 1.19081 1.19116 1.19024 1.18901 1.18986 1.19081 1.19144 1.19216 1.19161 1.18545 1.19152 1.19212 1.18634 1.18532 1.18848 1.18968 1.18798 1.18925 1.18963 1.19026 1.18986 1.18723 1.18948 1.18673 1.18805 1.18993 1.18854 1.18851 1.18962 1.19068 1.18655 1.18614 1.18604 1.18909 1.18892 1.18954 1.19016 1.18753 1.19047 1.1875 1.19201 1.1893 1.18926 1.18943 1.19178 1.18873 1.19203 1.18973 1.19013 1.19076 1.18965 1.19137 1.19189 1.19199 1.19139 1.19151 1.18995 1.19166 1.19116 1.19154 1.19062 1.19099 1.18938 1.1901 1.18866 1.19164 1.19157 1.1906 1.18815 1.18641 1.18974 1.18883 1.18884 1.18891 1.18871 1.18679 1.18765 1.18469 1.18695 1.18847 1.18996 1.19178 1.19108 1.19153 1.19181 1.19134 1.1901 1.18959 1.18974 1.19123 1.18989 1.19091 1.19139 1.18972 1.19017 1.18945 1.19178 1.1898 1.19107 1.19199 1.19124 1.19142 1.19178 1.19141 1.19142 1.19096 1.18657 1.18513 1.18675 1.19178 1.18522 1.18855 1.18784 1.1871 1.18817 1.18941 1.19047 1.18956 1.18959 1.18761 1.18976 1.18859 1.19006 1.18957 1.18997 1.1861 1.18772 1.18762 1.19036 1.18996 1.18939 1.19024 1.19159 1.19165 1.19059 1.18926 1.18853 1.19148 1.19129 1.18805 1.18628 1.18973 1.19064 1.18818 1.18862 1.18672 1.18763 1.18783 1.18782 1.1921 1.19071 1.18869 1.19178 1.19014 1.19004 1.18992 1.18993 1.1915 1.19026 1.19059 1.18951 1.19187 1.19114 1.19168 1.19142 
SCALARS Stress float 1
LOOKUP_TABLE default
-902868000000.0 -1.65565e+12 -1.52233e+12 -1.44973e+12 -2.67392e+12 -1.74649e+12 -1.78378e+12 -1.8593e+12 -261052000000.0 -593690000000.0 -824260000000.0 -649648000000.0 -492933000000.0 -361046000000.0 -246973000000.0 -123578000000.0 -67585600000.0 -39801300000.0 -30321600000.0 -26657700000.0 -12549700000.0 -16217000000.0 -24747000000.0 -16611100000.0 -17140400000.0 -16097500000.0 -14694400000.0 -13853400000.0 -12549700000.0 -12549700000.0 -13912100000.0 -12594400000.0 -13430800000.0 -12565200000.0 -12583100000.0 -12865900000.0 -14562800000.0 -14440900000.0 -13953000000.0 -14481400000.0 -13965600000.0 -14360900000.0 -14656700000.0 -15756800000.0 -16894700000.0 -12832500000.0 -12636300000.0 -12685000000.0 -12966900000.0 -16447900000.0 -17780600000.0 -19147000000.0 -28029900000.0 -21016100000.0 -23627700000.0 -26101300000.0 -82638600000.0 -182474000000.0 -303231000000.0 -428549000000.0 -241058000000.0 -556094000000.0 -942632000000.0 -1.38201e+12 -1.68288e+12 -406210000000.0 -1.23072e+12 -1.65201e+12 -1.48438e+12 -2.2235e+12 -2.69411e+12 -2.2734e+12 -2.48713e+12 -2.16756e+12 -1.93284e+12 -3.83027e+12 -2.79776e+12 -3.97028e+12 -2.19906e+12 -3.14015e+12 -1.87496e+12 -717686000000.0 -877294000000.0 -601309000000.0 -301002000000.0 -19929200000.0 -18632100000.0 -155296000000.0 -58575000000.0 -44976200000.0 -23456200000.0 -39150900000.0 -18326200000.0 -29908500000.0 -51470000000.0 -15404400000.0 -23728300000.0 -29551300000.0 -21467400000.0 -22604500000.0 -14447200000.0 -13635000000.0 -20160900000.0 -15574400000.0 -17198800000.0 -13811400000.0 -14629300000.0 -16560200000.0 -12992500000.0 -14387600000.0 -14393500000.0 -14142500000.0 -13549400000.0 -13304400000.0 -13240400000.0 -14420500000.0 -13083500000.0 -20927200000.0 -12700600000.0 -12578600000.0 -12549700000.0 -12767200000.0 -13592700000.0 -18788500000.0 -19588300000.0 -19948100000.0 -12549700000.0 -15199900000.0 -33780900000.0 -12549700000.0 -12549700000.0 -31587600000.0 -35296700000.0 -12871900000.0 -144417000000.0 -31968800000.0 -190055000000.0 -17300000000.0 -38429300000.0 -171927000000.0 -628769000000.0 -392299000000.0 -35328600000.0 -753790000000.0 -124596000000.0 -660796000000.0 -1.75065e+12 -1.2979e+12 -2.27187e+12 -2.91443e+12 -2.24756e+12 -3.73706e+12 -2.04092e+12 -1.89947e+12 -1.60377e+12 -1.0962e+12 -2.62691e+12 -777662000000.0 -4.6078e+12 -3.00116e+12 -1.49817e+12 -3.76079e+12 -1.59102e+12 -1.41209e+12 -1.47292e+12 -802948000000.0 -2.20165e+12 -640376000000.0 -521019000000.0 -311973000000.0 -263234000000.0 -238980000000.0 -234432000000.0 -118228000000.0 -109598000000.0 -124844000000.0 -48380700000.0 -110218000000.0 -38329600000.0 -46183500000.0 -39296900000.0 -48193600000.0 -26969900000.0 -28250000000.0 -15166500000.0 -13276700000.0 -18787600000.0 -12549700000.0 -14928500000.0 -17379700000.0 -13449400000.0 -13494000000.0 -12656600000.0 -17696800000.0 -15586600000.0 -13113000000.0 -13430900000.0 -16264800000.0 -18401300000.0 -22580800000.0 -31633200000.0 -30358700000.0 -36904800000.0 -48219300000.0 -88287300000.0 -87162400000.0 -96184100000.0 -68282000000.0 -79236400000.0 -88652500000.0 -101568000000.0 -66294400000.0 -105099000000.0 -137529000000.0 -238423000000.0 -272780000000.0 -475311000000.0 -373387000000.0 -690032000000.0 -1.63002e+12 -664573000000.0 -651375000000.0 -1.1127e+12 -2.14708e+12 -3.98291e+12 -3.1721e+12 -2.59354e+12 -4.21658e+12 -2.58903e+12 -3.56754e+12 -5.07667e+12 -2.7377e+12 -3.95549e+12 -3.84204e+12 -3.1416e+12 -4.36953e+12 -2.10999e+12 -4.12606e+12 -3.92978e+12 -4.05588e+12 -4.3918e+12 -2.46795e+12 -2.5566e+12 -2.95624e+12 -863558000000.0 -1.24459e+12 -2.34792e+12 -1.55951e+12 -1.39249e+12 -399960000000.0 -271526000000.0 -130120000000.0 -133494000000.0 -140481000000.0 -105698000000.0 -38895900000.0 -74247900000.0 -110877000000.0 -24216500000.0 -60669100000.0 -113623000000.0 -62337200000.0 -25216000000.0 -74717500000.0 -100285000000.0 -45103500000.0 -88064600000.0 -55850700000.0 -48660300000.0 -53053100000.0 -46255300000.0 -30685800000.0 -24028000000.0 -20468300000.0 -26139400000.0 -15249200000.0 -14085100000.0 -12912800000.0 -18355800000.0 -12855100000.0 -17227900000.0 -14690100000.0 -22813700000.0 -32812500000.0 -29827700000.0 -14463300000.0 -22447200000.0 -18887800000.0 -55768800000.0 -12549700000.0 -12549700000.0 -12549700000.0 -65216000000.0 -49053400000.0 -69558600000.0 -130929000000.0 -235087000000.0 -293476000000.0 -479264000000.0 -248367000000.0 -719484000000.0 -175874000000.0 -400735000000.0 -668093000000.0 -1.53555e+12 -590570000000.0 -1.40691e+12 -2.30727e+12 -2.45171e+12 -1.68858e+12 -1.54228e+12 -1.59987e+12 -1.76377e+12 -891067000000.0 -2.33435e+12 -2.32269e+12 -3.81492e+12 -3.21426e+12 -4.39558e+12 -4.61673e+12 -3.61535e+12 -4.10608e+12 -3.86355e+12 -5.18409e+12 -7.14656e+12 -2.45048e+12 -5.18824e+12 -2.47045e+12 -2.161e+12 -2.01772e+12 -3.25983e+12 -2.9362e+12 -2.74961e+12 -2.13153e+12 -1.2903e+12 -1.84515e+12 -1.00699e+12 -1.17323e+12 -1.03723e+12 -788816000000.0 -836946000000.0 -1.02693e+12 -1.20588e+12 -778835000000.0 -534371000000.0 -603805000000.0 -303092000000.0 -229819000000.0 -274468000000.0 -361783000000.0 -302898000000.0 -48939500000.0 -92135800000.0 -86461700000.0 -145028000000.0 -28436400000.0 -51234100000.0 -27451000000.0 -24021600000.0 -36628300000.0 -18331000000.0 -23229900000.0 -32526300000.0 -43916700000.0 -18882600000.0 -16839800000.0 -23615600000.0 -14112200000.0 -21361300000.0 -23662700000.0 -17786400000.0 -38629000000.0 -30262100000.0 -26585700000.0 -32838100000.0 -28778600000.0 -78827600000.0 -12549700000.0 -18086100000.0 -36420600000.0 -103146000000.0 -106199000000.0 -107355000000.0 -95062000000.0 -208057000000.0 -179712000000.0 -105115000000.0 -140378000000.0 -634924000000.0 -633320000000.0 -732456000000.0 -353997000000.0 -930140000000.0 -445250000000.0 -990955000000.0 -1.31264e+12 -3.66724e+12 -2.00218e+12 -2.82887e+12 -1.66885e+12 -2.78855e+12 -1.87957e+12 -1.5908e+12 -4.17168e+12 -2.90099e+12 -4.23269e+12 -2.67124e+12 -5.09866e+12 -5.33082e+12 -3.4914e+12 -3.24242e+12 -718972000000.0 -2.31345e+12 -1.66756e+12 -1.59075e+12 -2.84773e+12 -5.07957e+12 -8.52685e+12 -5.77668e+12 -6.85685e+12 -3.65191e+12 -3.72422e+12 -3.68433e+12 -2.09517e+12 -2.57247e+12 -1.15871e+12 -2.23741e+12 -2.55186e+12 -1.00681e+12 -1.14755e+12 -465319000000.0 -545761000000.0 -67236700000.0 -1.04478e+12 -641319000000.0 -701084000000.0 -672288000000.0 -311394000000.0 -339275000000.0 -47512800000.0 -24145400000.0 -145892000000.0 -108314000000.0 -138442000000.0 -218691000000.0 -57799800000.0 -53415700000.0 -43853400000.0 -14067700000.0 -23161400000.0 -20395700000.0 -14226600000.0 -36483700000.0 -29044200000.0 -16746300000.0 -35998500000.0 -38514800000.0 -37038800000.0 -40831300000.0 -54957300000.0 -35480300000.0 -29376700000.0 -45067900000.0 -28855500000.0 -31769600000.0 -50788900000.0 -58726300000.0 -59780400000.0 -83428700000.0 -117692000000.0 -150638000000.0 -203932000000.0 -227023000000.0 -267970000000.0 -97152000000.0 -129739000000.0 -164665000000.0 -371672000000.0 -427330000000.0 -1.03879e+12 -1.21927e+12 -1.47142e+12 -850945000000.0 -1.73807e+12 -2.43334e+12 -3.3272e+12 -3.25752e+12 -1.7689e+12 -2.3267e+12 -3.28398e+12 -3.92272e+12 -3.63557e+12 -6.08842e+12 -6.75045e+12 -4.1538e+12 -5.376e+12 -2.08796e+12 -3.25494e+12 -3.54466e+12 -4.24872e+12 -2.94911e+12 -2.62361e+12 -3.6868e+12 -3.5455e+12 -3.85757e+12 -7.34074e+12 -5.85926e+12 -3.96627e+12 -4.31372e+12 -5.70364e+12 -2.98354e+12 -2.99037e+12 -4.2967e+12 -3.07192e+12 -3.95814e+12 -1.88827e+12 -2.02847e+12 -3.11271e+12 -3.40795e+12 -2.16428e+12 -1.20037e+12 -1.62688e+12 -1.62425e+12 -1.80311e+12 -776990000000.0 -798567000000.0 -1.0711e+12 -275334000000.0 -554216000000.0 -199857000000.0 -363692000000.0 -638465000000.0 -500362000000.0 -579220000000.0 -509980000000.0 -284603000000.0 -276546000000.0 -67275600000.0 -140093000000.0 -21285700000.0 -74120000000.0 -51999700000.0 -32240700000.0 -52930000000.0 -33837700000.0 -33738000000.0 -39106400000.0 -36668000000.0 -19359100000.0 -25682400000.0 -14109100000.0 -23923600000.0 -13637900000.0 -23407400000.0 -41384900000.0 -33602900000.0 -51371100000.0 -42032300000.0 -40477900000.0 -34923400000.0 -40631400000.0 -24121600000.0 -63339900000.0 -58269400000.0 -12549700000.0 -20036500000.0 -45182200000.0 -119566000000.0 -188677000000.0 -185815000000.0 -193897000000.0 -426928000000.0 -497003000000.0 -507128000000.0 -407226000000.0 -589605000000.0 -554649000000.0 -1.47072e+12 -1.29724e+12 -925360000000.0 -2.19867e+12 -1.13587e+12 -1.25715e+12 -2.89562e+12 -3.67069e+12 -3.83654e+12 -1.39362e+12 -2.51142e+12 -3.29948e+12 -3.7891e+12 -4.05952e+12 -3.90389e+12 -3.87888e+12 -5.47574e+12 -5.46164e+12 -5.31099e+12 -3.66322e+12 -5.51477e+12 -4.76774e+12 -5.87463e+12 -2.92187e+12 -1.92091e+12 -2.39781e+12 -4.65246e+12 -4.17955e+12 -4.74784e+12 -5.32125e+12 -4.29465e+12 -3.11254e+12 -4.88655e+12 -3.03388e+12 -3.99548e+12 -4.40633e+12 -3.62746e+12 -4.24075e+12 -1.92821e+12 -970439000000.0 -4.94048e+12 -2.66399e+12 -1.37724e+12 -1.59778e+12 -2.66174e+12 -1.24473e+12 -1.47482e+12 -1.44246e+12 -2.04672e+12 -1.18782e+12 -769164000000.0 -461648000000.0 -663422000000.0 -386763000000.0 -167950000000.0 -131349000000.0 -208525000000.0 -35928000000.0 -259363000000.0 -130332000000.0 -129338000000.0 -132691000000.0 -57477200000.0 -90281200000.0 -39452100000.0 -39333100000.0 -25826800000.0 -15575300000.0 -24204800000.0 -20930000000.0 -23478200000.0 -20854200000.0 -17180600000.0 -25569000000.0 -17534400000.0 -14714200000.0 -17450900000.0 -20193600000.0 -23377500000.0 -39280600000.0 -48455300000.0 -38177200000.0 -53853400000.0 -25473400000.0 -16240800000.0 -15683700000.0 -49594200000.0 -19684500000.0 -15480900000.0 -49208500000.0 -47779000000.0 -187482000000.0 -161946000000.0 -43819400000.0 -138019000000.0 -459062000000.0 -25362300000.0 -202558000000.0 -187849000000.0 -66506700000.0 -418488000000.0 -364074000000.0 -893754000000.0 -330198000000.0 -803217000000.0 -131349000000.0 -2.04006e+12 -2.324e+12 -2.34117e+12 -1.66821e+12 -1.78915e+12 -3.351e+12 -4.36304e+12 -2.35259e+12 -3.57146e+12 -2.62463e+12 -3.29668e+12 -6.28353e+12 -4.16681e+12 -4.99802e+12 -2.06005e+12 -2.74114e+12 -7.1985e+12 -4.7037e+12 -8.49359e+12 -3.73985e+12 -4.30171e+12 -1.61214e+12 -4.57998e+12 -2.59491e+12 -5.21397e+12 -3.82512e+12 -5.44506e+12 -3.93528e+12 -3.73907e+12 -2.52198e+12 -2.79421e+12 -3.39739e+12 -3.02006e+12 -4.98548e+12 -4.88489e+12 -2.76068e+12 -4.8684e+12 -2.65461e+12 -1.6743e+12 -501517000000.0 -1.7343e+12 -1.58816e+12 -860534000000.0 -1.78933e+12 -1.31475e+12 -1.23896e+12 -326258000000.0 -382675000000.0 -456323000000.0 -399082000000.0 -278899000000.0 -266867000000.0 -329122000000.0 -112028000000.0 -209515000000.0 -142544000000.0 -55550000000.0 -178012000000.0 -74932800000.0 -60610900000.0 -24573100000.0 -70864100000.0 -59871000000.0 -49267800000.0 -43708400000.0 -39393500000.0 -39138300000.0 -41594300000.0 -41747500000.0 -32381100000.0 -37132600000.0 -51028900000.0 -12573600000.0 -33774300000.0 -29603500000.0 -46471400000.0 -56490500000.0 -46244600000.0 -39039800000.0 -12953100000.0 -33141800000.0 -78058900000.0 -69804000000.0 -55464200000.0 -67605300000.0 -104779000000.0 -89328600000.0 -121115000000.0 -104171000000.0 -64690600000.0 -16041600000.0 -110492000000.0 -217080000000.0 -382742000000.0 -229359000000.0 -99916800000.0 -808811000000.0 -986563000000.0 -1.13922e+12 -434750000000.0 -1.19433e+12 -1.36776e+12 -1.72982e+12 -1.20907e+12 -475127000000.0 -1.37639e+12 -2.69828e+12 -2.18437e+12 -2.77534e+12 -2.53069e+12 -2.99641e+12 -3.68039e+12 -4.93816e+12 -2.0443e+12 -2.89312e+12 -3.18704e+12 -3.67337e+12 -2.20581e+12 -3.90323e+12 -4.99145e+12 -4.97609e+12 -5.18657e+12 -5.38029e+12 -4.04136e+12 -3.02976e+12 -4.33721e+12 -2.94162e+12 -3.50544e+12 -3.56757e+12 -2.90805e+12 -1.20633e+12 -3.66917e+12 -2.70214e+12 -5.26382e+12 -4.82834e+12 -6.98058e+12 -3.87622e+12 -5.08426e+12 -2.46271e+12 -4.66351e+12 -4.09942e+12 -4.91874e+12 -1.88669e+12 -4.03765e+12 -2.79188e+12 -4.6339e+12 -2.5244e+12 -3.71989e+12 -1.69718e+12 -2.42455e+12 -3.39433e+12 -2.91484e+12 -1.87492e+12 -2.41838e+12 -1.5677e+12 -2.6821e+12 -1.51721e+12 -1.12163e+12 -642536000000.0 -1.26369e+12 -383954000000.0 -429300000000.0 -474027000000.0 -276590000000.0 -576901000000.0 -365468000000.0 -49688800000.0 -140049000000.0 -183608000000.0 -22186700000.0 -189225000000.0 -164835000000.0 -14065800000.0 -139594000000.0 -21871700000.0 -72157400000.0 -41865800000.0 -18871300000.0 -14525300000.0 -28024600000.0 -14826600000.0 -34765300000.0 -12549700000.0 -12948000000.0 -14045900000.0 -25934900000.0 -24235000000.0 -30102200000.0 -45563000000.0 -12829500000.0 -25637300000.0 -15042000000.0 -22176200000.0 -47264100000.0 -34209800000.0 -29542400000.0 -73316300000.0 -35183900000.0 -24704100000.0 -50121900000.0 -48949900000.0 -92287100000.0 -81770400000.0 -144950000000.0 -179527000000.0 -278394000000.0 -322338000000.0 -268296000000.0 -484376000000.0 -728527000000.0 -1.02698e+12 -927206000000.0 -961000000000.0 -802848000000.0 -601084000000.0 -1.29611e+12 -1.14305e+12 -1.52262e+12 -1.35144e+12 -858189000000.0 -1.3709e+12 -2.28517e+12 -1.52457e+12 -2.72999e+12 -1.63989e+12 -2.93659e+12 -3.95344e+12 -4.24535e+12 -3.88595e+12 -2.02989e+12 -5.12057e+12 -1.22206e+12 -3.13749e+12 -3.82664e+12 -4.04901e+12 -4.41694e+12 -3.84465e+12 -3.07753e+12 -5.58997e+12 -3.38049e+12 -5.75371e+12 -2.32931e+12 -2.92226e+12 -1.9592e+12 -2.92724e+12 -4.6318e+12 -4.34524e+12 -4.5997e+12 -3.29757e+12 -3.00924e+12 -3.66895e+12 -6.00089e+12 -1.55236e+12 -1.54748e+12 -5.00818e+12 -2.29106e+12 -3.26756e+12 -1.99871e+12 -2.47846e+12 -1.61903e+12 -1.842e+12 -2.34722e+12 -1.99976e+12 -678228000000.0 -1.15966e+12 -1.59532e+12 -2.25495e+12 -788748000000.0 -649921000000.0 -1.37705e+12 -1.63199e+12 -972101000000.0 -601103000000.0 -747866000000.0 -305082000000.0 -362729000000.0 -153749000000.0 -176771000000.0 -158751000000.0 -15594800000.0 -14226300000.0 -135491000000.0 -111408000000.0 -33636500000.0 -129037000000.0 -95305000000.0 -122452000000.0 -74861600000.0 -27939600000.0 -20840500000.0 -41340000000.0 -36900300000.0 -49245200000.0 -21750100000.0 -20045400000.0 -22498400000.0 -25193100000.0 -26464600000.0 -21116900000.0 -20738100000.0 -52080300000.0 -42018500000.0 -32496300000.0 -40221300000.0 -14347700000.0 -65050300000.0 -45936300000.0 -47337000000.0 -58775100000.0 -41502800000.0 -18293700000.0 -33685500000.0 -46420100000.0 -33743000000.0 -128575000000.0 -237586000000.0 -259027000000.0 -137279000000.0 -107669000000.0 -275925000000.0 -394775000000.0 -239943000000.0 -578059000000.0 -402524000000.0 -587061000000.0 -258986000000.0 -651018000000.0 -337636000000.0 -651067000000.0 -633433000000.0 -888804000000.0 -1.38605e+12 -1.00196e+12 -2.1097e+12 -2.73076e+12 -2.58789e+12 -4.05554e+12 -3.36657e+12 -1.73765e+12 -4.56842e+12 -2.64383e+12 -1.59492e+12 -3.32478e+12 -1.8204e+12 -3.79499e+12 -2.55957e+12 -3.97063e+12 -2.68916e+12 -3.56469e+12 -2.06053e+12 -3.20682e+12 -2.51881e+12 -3.23135e+12 -3.02661e+12 -2.91751e+12 -2.84806e+12 -4.04886e+12 -4.05023e+12 -2.68209e+12 -1.06135e+12 -3.62277e+12 -4.21076e+12 -2.12808e+12 -2.04962e+12 -3.32257e+12 -4.97899e+12 -3.6477e+12 -1.21266e+12 -3.75825e+12 -2.56224e+12 -3.84608e+12 -2.85274e+12 -3.13169e+12 -3.43072e+12 -2.54466e+12 -1.87693e+12 -948539000000.0 -2.19639e+12 -1.56319e+12 -1.29292e+12 -2.06406e+12 -2.53382e+12 -1.87874e+12 -917202000000.0 -1.37023e+12 -710865000000.0 -1.39224e+12 -447772000000.0 -386296000000.0 -307606000000.0 -170076000000.0 -169917000000.0 -14090400000.0 -178954000000.0 -146654000000.0 -197145000000.0 -186721000000.0 -34555300000.0 -64704200000.0 -55387600000.0 -90764600000.0 -83055500000.0 -45241700000.0 -66629700000.0 -25170000000.0 -16587600000.0 -42561500000.0 -12549700000.0 -13094400000.0 -18111100000.0 -18400300000.0 -26499500000.0 -20707700000.0 -44912400000.0 -12549700000.0 -43789600000.0 -27128700000.0 -40220600000.0 -69387200000.0 -21627400000.0 -33801600000.0 -62334600000.0 -57428200000.0 -79448200000.0 -36107300000.0 -79792600000.0 -114558000000.0 -34168100000.0 -81842500000.0 -40494700000.0 -355210000000.0 -409564000000.0 -280314000000.0 -357652000000.0 -522453000000.0 -741296000000.0 -360735000000.0 -466558000000.0 -634714000000.0 -1.25132e+12 -1.3285e+12 -1.02914e+12 -1.21342e+12 -1.97177e+12 -1.66593e+12 -2.053e+12 -1.04779e+12 -2.15971e+12 -2.72442e+12 -1.24863e+12 -3.59764e+12 -2.63479e+12 -2.00607e+12 -1.39026e+12 -2.05368e+12 -3.3534e+12 -3.23478e+12 -2.20914e+12 -4.45179e+12 -2.70037e+12 -3.14876e+12 -3.93359e+12 -1.97344e+12 -1.97728e+12 -3.73539e+12 -1.24077e+12 -2.50493e+12 -5.25792e+12 -1.62169e+12 -2.94378e+12 -3.01761e+12 -3.59441e+12 -4.4614e+12 -4.60473e+12 -2.60449e+12 -2.67064e+12 -1.97482e+12 -2.3489e+12 -2.48627e+12 -1.95586e+12 -723487000000.0 -1.05824e+12 -1.72608e+12 -1.27633e+12 -1.82339e+12 -888522000000.0 -1.40045e+12 -1.19981e+12 -1.12989e+12 -469912000000.0 -928001000000.0 -892632000000.0 -397163000000.0 -447419000000.0 -261581000000.0 -387300000000.0 -204696000000.0 -190926000000.0 -110732000000.0 -116619000000.0 -145797000000.0 -125767000000.0 -89403200000.0 -129407000000.0 -138558000000.0 -52571400000.0 -29949000000.0 -40047400000.0 -34547600000.0 -28225800000.0 -31461300000.0 -44073400000.0 -35149600000.0 -33431000000.0 -49941000000.0 -24482600000.0 -32198500000.0 -45058900000.0 -12549700000.0 -12549700000.0 -71260700000.0 -57893200000.0 -83975500000.0 -35183100000.0 -60573200000.0 -47266200000.0 -58522300000.0 -122842000000.0 -125044000000.0 -137732000000.0 -116735000000.0 -147692000000.0 -356546000000.0 -66072800000.0 -91172400000.0 -326580000000.0 -334225000000.0 -127033000000.0 -348417000000.0 -319080000000.0 -312579000000.0 -399461000000.0 -473775000000.0 -845477000000.0 -548517000000.0 -1.02671e+12 -1.03561e+12 -674523000000.0 -1.86234e+12 -873050000000.0 -1.13066e+12 -611264000000.0 -2.04307e+12 -3.30928e+12 -2.25919e+12 -2.18375e+12 -2.13803e+12 -3.16307e+12 -2.56895e+12 -3.11854e+12 -2.81403e+12 -2.51369e+12 -3.20622e+12 -2.56842e+12 -2.45106e+12 -1.60371e+12 -1.40658e+12 -2.3084e+12 -2.15285e+12 -3.98415e+12 -1.86207e+12 -1.80396e+12 -1.25029e+12 -1.65641e+12 -3.56056e+12 -3.06889e+12 -1.3348e+12 -2.68842e+12 -1.53516e+12 -2.52953e+12 -4.00794e+12 -4.11929e+12 -2.73542e+12 -1.64466e+12 -1.09215e+12 -3.76518e+12 -3.20015e+12 -2.26284e+12 -2.09495e+12 -1.80985e+12 -835595000000.0 -1.00308e+12 -1.88419e+12 -1.85869e+12 -2.68411e+12 -302337000000.0 -2.04631e+12 -677606000000.0 -2.40501e+12 -1.03901e+12 -810919000000.0 -274092000000.0 -239501000000.0 -777949000000.0 -509341000000.0 -753262000000.0 -594758000000.0 -294080000000.0 -218223000000.0 -501922000000.0 -234201000000.0 -262651000000.0 -94054600000.0 -91131800000.0 -164694000000.0 -56567800000.0 -71783100000.0 -38209100000.0 -94543100000.0 -31192100000.0 -14399800000.0 -17934700000.0 -32051300000.0 -21902300000.0 -49488500000.0 -12712400000.0 -19729600000.0 -16689300000.0 -42599600000.0 -13959200000.0 -25342500000.0 -13965600000.0 -48207400000.0 -56524600000.0 -23018700000.0 -36992300000.0 -47500500000.0 -82854000000.0 -85428800000.0 -40826100000.0 -44180400000.0 -47359700000.0 -19053500000.0 -20803300000.0 -25944100000.0 -74270100000.0 -185584000000.0 -182540000000.0 -78121000000.0 -101345000000.0 -463703000000.0 -275575000000.0 -219495000000.0 -465903000000.0 -593115000000.0 -405363000000.0 -298624000000.0 -288415000000.0 -690961000000.0 -877444000000.0 -962743000000.0 -1.11371e+12 -1.98463e+12 -1.22852e+12 -1.2418e+12 -1.18516e+12 -454755000000.0 -113241000000.0 -2.59435e+12 -1.62754e+12 -1.49054e+12 -1.20753e+12 -1.46578e+12 -2.5737e+12 -3.39176e+12 -2.40987e+12 -2.35008e+12 -1.47809e+12 -2.72005e+12 -2.23669e+12 -1.11112e+12 -2.05421e+12 -2.01438e+12 -2.27522e+12 -2.49037e+12 -1.59536e+12 -972880000000.0 -2.05243e+12 -694499000000.0 -1.89808e+12 -1.95474e+12 -2.17929e+12 -2.30186e+12 -2.38788e+12 -1.24653e+12 -1.2822e+12 -417336000000.0 -1.4269e+12 -1.60472e+12 -803765000000.0 -2.19224e+12 -1.58031e+12 -777319000000.0 -57360300000.0 -532359000000.0 -1.71803e+12 -1.68958e+12 -682497000000.0 -1.31659e+12 -704591000000.0 -455586000000.0 -194731000000.0 -1.23926e+12 -361418000000.0 -330099000000.0 -528988000000.0 -522383000000.0 -121792000000.0 -291236000000.0 -236252000000.0 -15052500000.0 -61637100000.0 -12816200000.0 -322986000000.0 -174391000000.0 -259881000000.0 -319767000000.0 -234227000000.0 -129324000000.0 -19238800000.0 -19590400000.0 -76777100000.0 -35803900000.0 -47438400000.0 -33983500000.0 -15187000000.0 -16599400000.0 -45096900000.0 -14822100000.0 -18047800000.0 -12718800000.0 -39352400000.0 -43700800000.0 -46837500000.0 -32839300000.0 -43351400000.0 -64997400000.0 -26036800000.0 -37103900000.0 -22084600000.0 -116443000000.0 -66135600000.0 -14590600000.0 -14597200000.0 -36502300000.0 -19846200000.0 -24578800000.0 -37871400000.0 -33169900000.0 -109489000000.0 -75813100000.0 -202826000000.0 -133486000000.0 -342074000000.0 -99625200000.0 -61614900000.0 -178726000000.0 -456373000000.0 -33488500000.0 -113024000000.0 -252765000000.0 -89730200000.0 -302332000000.0 -936858000000.0 -488066000000.0 -870003000000.0 -455850000000.0 -1.00118e+12 -964288000000.0 -1.25776e+12 -1.89706e+12 -1.82609e+12 -2.60168e+12 -2.44503e+12 -1.20583e+12 -3.78448e+12 -2.37338e+12 -2.64377e+12 -1.2949e+12 -1.58657e+12 -3.01058e+12 -2.34674e+12 -1.48916e+12 -2.58517e+12 -1.54993e+12 -1.26074e+12 -1.58946e+12 -865397000000.0 -1.71204e+12 -631500000000.0 -1.76864e+12 -1.6102e+12 -1.35378e+12 -821476000000.0 -1.67419e+12 -1.2345e+12 -1.05453e+12 -300773000000.0 -417966000000.0 -1.18505e+12 -1.13007e+12 -656074000000.0 -700610000000.0 -803898000000.0 -238655000000.0 -321119000000.0 -587905000000.0 -96347600000.0 -275523000000.0 -236721000000.0 -39208600000.0 -61505700000.0 -16467600000.0 -178224000000.0 -131618000000.0 -50359400000.0 -42468600000.0 -185244000000.0 -47931600000.0 -102412000000.0 -84717900000.0 -81519200000.0 -26898900000.0 -28349000000.0 -34168100000.0 -12861800000.0 -19728700000.0 -55329000000.0 -25900600000.0 -30246100000.0 -39033000000.0 -12549700000.0 -39006200000.0 -30173200000.0 -16185100000.0 -67439200000.0 -30216400000.0 -56064000000.0 -25768100000.0 -26402600000.0 -55774800000.0 -119093000000.0 -23091400000.0 -27078900000.0 -63879100000.0 -47483500000.0 -21965700000.0 -74920200000.0 -28019200000.0 -178185000000.0 -237939000000.0 -12549700000.0 -38025100000.0 -202572000000.0 -163815000000.0 -146837000000.0 -84806300000.0 -572256000000.0 -214859000000.0 -279823000000.0 -130506000000.0 -135199000000.0 -970368000000.0 -502799000000.0 -1.10165e+12 -596522000000.0 -1.25454e+12 -606563000000.0 -1.41762e+12 -1.6912e+12 -2.27723e+12 -1.77505e+12 -1.36743e+12 -1.19504e+12 -1.44728e+12 -1.13599e+12 -2.25211e+12 -1.61307e+12 -1.72312e+12 -2.42999e+12 -2.8241e+12 -2.61291e+12 -2.51859e+12 -2.01356e+12 -1.45518e+12 -775392000000.0 -1.94677e+12 -1.70592e+12 -919274000000.0 -1.90267e+12 -942804000000.0 -691141000000.0 -1.78528e+12 -1.79382e+12 -1.66592e+12 -1.2658e+12 -3.42218e+12 -1.80786e+12 -1.48503e+12 -273173000000.0 -894982000000.0 -2.01394e+12 -1.03373e+12 -734775000000.0 -1.07274e+12 -768651000000.0 -642084000000.0 -1.33609e+12 -291869000000.0 -404462000000.0 -157697000000.0 -350133000000.0 -189563000000.0 -384579000000.0 -260922000000.0 -320818000000.0 -483056000000.0 -339955000000.0 -313899000000.0 -312712000000.0 -85139600000.0 -37334300000.0 -59665200000.0 -44313100000.0 -113883000000.0 -91030300000.0 -113009000000.0 -13965700000.0 -67326400000.0 -37484900000.0 -44591300000.0 -13437400000.0 -29683300000.0 -45482200000.0 -73967400000.0 -13412900000.0 -31008000000.0 -38358300000.0 -35361900000.0 -35246900000.0 -41361600000.0 -30205600000.0 -92974700000.0 -42237500000.0 -58994200000.0 -53451600000.0 -58393500000.0 -64128400000.0 -107607000000.0 -37622100000.0 -49421000000.0 -61378200000.0 -40218700000.0 -195002000000.0 -116061000000.0 -150473000000.0 -115219000000.0 -203736000000.0 -96238300000.0 -70835300000.0 -129404000000.0 -376204000000.0 -280809000000.0 -165596000000.0 -166291000000.0 -777872000000.0 -729407000000.0 -14505700000.0 -433152000000.0 -66894400000.0 -282216000000.0 -911964000000.0 -689865000000.0 -342391000000.0 -562525000000.0 -1.47771e+12 -668567000000.0 -666995000000.0 -991514000000.0 -303707000000.0 -1.9689e+12 -1.32218e+12 -201133000000.0 -1.75177e+12 -1.14052e+12 -1.40751e+12 -2.28377e+12 -2.44305e+12 -2.01526e+12 -1.59046e+12 -1.93366e+12 -2.96599e+12 -1.74425e+12 -1.11806e+12 -1.8149e+12 -856096000000.0 -698271000000.0 -1.30122e+12 -1.02143e+12 -204652000000.0 -1.05402e+12 -932484000000.0 -600850000000.0 -863894000000.0 -2.19403e+12 -1.13021e+12 -1.43321e+12 -326327000000.0 -1.30742e+12 -780206000000.0 -350981000000.0 -569058000000.0 -417911000000.0 -394134000000.0 -795428000000.0 -774738000000.0 -302458000000.0 -516899000000.0 -356123000000.0 -218149000000.0 -30619400000.0 -151746000000.0 -200625000000.0 -12549700000.0 -25826900000.0 -209826000000.0 -17316300000.0 -167006000000.0 -113070000000.0 -109669000000.0 -179679000000.0 -12619600000.0 -86608100000.0 -51424500000.0 -48502700000.0 -17536300000.0 -12612100000.0 -37209900000.0 -45069400000.0 -12549700000.0 -51277900000.0 -41180900000.0 -12621600000.0 -24562500000.0 -15991800000.0 -29513100000.0 -12553300000.0 -35316600000.0 -43671200000.0 -22808000000.0 -133962000000.0 -13160100000.0 -60366400000.0 -30456100000.0 -65281200000.0 -169462000000.0 -95466700000.0 -65831100000.0 -74065800000.0 -78559600000.0 -147793000000.0 -18098700000.0 -109247000000.0 -48451200000.0 -51461600000.0 -40352900000.0 -315277000000.0 -153044000000.0 -252689000000.0 -177721000000.0 -137219000000.0 -267319000000.0 -541521000000.0 -120374000000.0 -12549700000.0 -15057600000.0 -39636100000.0 -129396000000.0 -536022000000.0 -237213000000.0 -707455000000.0 -978861000000.0 -706952000000.0 -782482000000.0 -693888000000.0 -548720000000.0 -1.46266e+12 -107991000000.0 -1.00383e+12 -1.44959e+12 -838550000000.0 -1.63222e+12 -1.36316e+12 -678512000000.0 -2.07263e+12 -2.58265e+12 -1.13995e+12 -814764000000.0 -1.06164e+12 -856009000000.0 -1.04276e+12 -876249000000.0 -989441000000.0 -132461000000.0 -457041000000.0 -1.29736e+12 -337228000000.0 -999137000000.0 -1.03062e+12 -714111000000.0 -980847000000.0 -631674000000.0 -1.24376e+12 -431678000000.0 -567027000000.0 -318404000000.0 -240333000000.0 -745677000000.0 -590135000000.0 -274031000000.0 -127767000000.0 -73237500000.0 -122382000000.0 -235041000000.0 -30186700000.0 -117077000000.0 -17948700000.0 -13496100000.0 -13474200000.0 -110539000000.0 -90392500000.0 -20772700000.0 -14958100000.0 -121801000000.0 -78021300000.0 -132654000000.0 -96737600000.0 -48796800000.0 -40155700000.0 -48593500000.0 -57004000000.0 -39012800000.0 -48056500000.0 -23267300000.0 -57864000000.0 -12571800000.0 -38356000000.0 -26627600000.0 -45786200000.0 -30626600000.0 -65609900000.0 -76948300000.0 -75951300000.0 -79469100000.0 -83837300000.0 -13698300000.0 -86534800000.0 -104163000000.0 -61870100000.0 -71317000000.0 -109663000000.0 -168122000000.0 -69343600000.0 -73084000000.0 -53776000000.0 -33554100000.0 -180756000000.0 -85295200000.0 -37133200000.0 -116738000000.0 -107040000000.0 -130748000000.0 -148423000000.0 -416741000000.0 -47688300000.0 -211647000000.0 -110888000000.0 -128655000000.0 -571290000000.0 -162600000000.0 -91344600000.0 -470862000000.0 -793245000000.0 -609567000000.0 -917670000000.0 -280118000000.0 -954743000000.0 -658983000000.0 -1.0058e+12 -378517000000.0 -1.34197e+12 -564566000000.0 -1.79496e+12 -93481200000.0 -932649000000.0 -1.36312e+12 -1.48672e+12 -1.8422e+12 -1.3107e+12 -629859000000.0 -299230000000.0 -779301000000.0 -411756000000.0 -470473000000.0 -347945000000.0 -711840000000.0 -1.0962e+12 -159201000000.0 -338551000000.0 -506184000000.0 -1.04869e+12 -159436000000.0 -322159000000.0 -585105000000.0 -125074000000.0 -140962000000.0 -49230100000.0 -690565000000.0 -748494000000.0 -52607500000.0 -377569000000.0 -135870000000.0 -367223000000.0 -612648000000.0 -332832000000.0 -116889000000.0 -25984400000.0 -50168100000.0 -36473500000.0 -13887500000.0 -140875000000.0 -12846800000.0 -79775500000.0 -32616500000.0 -47819100000.0 -77262800000.0 -97193200000.0 -69626600000.0 -67673600000.0 -132299000000.0 -29171000000.0 -12549700000.0 -50218700000.0 -110190000000.0 -80618600000.0 -58814200000.0 -71478900000.0 -60243900000.0 -13085000000.0 -19677000000.0 -31308600000.0 -74748600000.0 -53304000000.0 -20627500000.0 -13178700000.0 -96573200000.0 -15432900000.0 -53582200000.0 -61363000000.0 -58195300000.0 -77022700000.0 -73314600000.0 -97226200000.0 -69027700000.0 -79963900000.0 -52290900000.0 -55737500000.0 -19448400000.0 -136707000000.0 -48936500000.0 -17115400000.0 -119952000000.0 -174780000000.0 -35928200000.0 -55360500000.0 -12549700000.0 -125875000000.0 -145428000000.0 -183926000000.0 -75102800000.0 -253399000000.0 -149352000000.0 -169944000000.0 -280152000000.0 -121835000000.0 -219108000000.0 -385898000000.0 -101582000000.0 -323356000000.0 -598937000000.0 -367178000000.0 -156482000000.0 -233796000000.0 -653406000000.0 -1.03866e+12 -703456000000.0 -660009000000.0 -606035000000.0 -650308000000.0 -312340000000.0 -568931000000.0 -486963000000.0 -1.08433e+12 -405940000000.0 -1.31872e+12 -1.71273e+12 -841019000000.0 -363003000000.0 -255836000000.0 -684381000000.0 -1.26711e+12 -448985000000.0 -882936000000.0 -361388000000.0 -868576000000.0 -568536000000.0 -267347000000.0 -181149000000.0 -325170000000.0 -302719000000.0 -576976000000.0 -436615000000.0 -645619000000.0 -665755000000.0 -544278000000.0 -293137000000.0 -15709400000.0 -42149000000.0 -34458500000.0 -46662900000.0 -16873100000.0 -137105000000.0 -52245000000.0 -19610300000.0 -52197800000.0 -44137400000.0 -19826300000.0 -104815000000.0 -61469400000.0 -25174200000.0 -31621800000.0 -67804600000.0 -99136500000.0 -49530900000.0 -70839800000.0 -96707200000.0 -12704400000.0 -35593200000.0 -47526300000.0 -39664200000.0 -66276600000.0 -51075700000.0 -59867200000.0 -40887700000.0 -71732600000.0 -48072800000.0 -98383600000.0 -16442600000.0 -26568100000.0 -34964100000.0 -114947000000.0 -159992000000.0 -40613800000.0 -40234700000.0 -108003000000.0 -39570400000.0 -143879000000.0 -64105500000.0 -39246400000.0 -21899300000.0 -78571100000.0 -75786200000.0 -43243200000.0 -87597700000.0 -121510000000.0 -23105400000.0 -17975900000.0 -60910300000.0 -96043900000.0 -91506600000.0 -195804000000.0 -184016000000.0 -24009000000.0 -157518000000.0 -266592000000.0 -228363000000.0 -168075000000.0 -21965700000.0 -426590000000.0 -32860200000.0 -283053000000.0 -352616000000.0 -254734000000.0 -741785000000.0 -233117000000.0 -530372000000.0 -678805000000.0 -518900000000.0 -375462000000.0 -712298000000.0 -219561000000.0 -403308000000.0 -1.38724e+12 -868161000000.0 -773503000000.0 -655870000000.0 -985073000000.0 -1.02351e+12 -443036000000.0 -372708000000.0 -224036000000.0 -347915000000.0 -536647000000.0 -573722000000.0 -661815000000.0 -269577000000.0 -477476000000.0 -287519000000.0 -434051000000.0 -531386000000.0 -490175000000.0 -305058000000.0 -311309000000.0 -351615000000.0 -517832000000.0 -254149000000.0 -290523000000.0 -342203000000.0 -260071000000.0 -238096000000.0 -167482000000.0 -180624000000.0 -133343000000.0 -44783300000.0 -19774700000.0 -77991800000.0 -16336900000.0 -60194900000.0 -127852000000.0 -61708800000.0 -80887800000.0 -24387800000.0 -88742300000.0 -62529400000.0 -47879200000.0 -61638500000.0 -71896700000.0 -70950100000.0 -35278200000.0 -50064600000.0 -51470100000.0 -40907500000.0 -29382200000.0 -31131300000.0 -72034500000.0 -12549700000.0 -58455400000.0 -55452700000.0 -12834400000.0 -102545000000.0 -18375200000.0 -100031000000.0 -20651200000.0 -13821400000.0 -92826000000.0 -13808000000.0 -122019000000.0 -56909600000.0 -70615500000.0 -74281800000.0 -55848000000.0 -38615300000.0 -87489400000.0 -117440000000.0 -137737000000.0 -42160600000.0 -37641000000.0 -77138800000.0 -99947900000.0 -153780000000.0 -235077000000.0 -168795000000.0 -183098000000.0 -29356000000.0 -129921000000.0 -247708000000.0 -71231800000.0 -113080000000.0 -320794000000.0 -90502800000.0 -254589000000.0 -232035000000.0 -422322000000.0 -823665000000.0 -503781000000.0 -733034000000.0 -997070000000.0 -246252000000.0 -162707000000.0 -342254000000.0 -440119000000.0 -853823000000.0 -821907000000.0 -324074000000.0 -1.00704e+12 -851518000000.0 -285270000000.0 -814953000000.0 -331990000000.0 -198777000000.0 -541409000000.0 -101148000000.0 -215448000000.0 -330225000000.0 -159578000000.0 -239206000000.0 -70047900000.0 -157796000000.0 -186764000000.0 -273476000000.0 -51357100000.0 -235157000000.0 -383734000000.0 -192142000000.0 -58291000000.0 -195277000000.0 -143284000000.0 -61381600000.0 -14436500000.0 -105342000000.0 -33801900000.0 -121293000000.0 -13249100000.0 -117263000000.0 -51944000000.0 -150921000000.0 -108471000000.0 -131902000000.0 -59193600000.0 -63353500000.0 -60071500000.0 -24682400000.0 -90030500000.0 -60531400000.0 -35561700000.0 -81279100000.0 -12549700000.0 -61453300000.0 -24707700000.0 -57182900000.0 -36998400000.0 -17239900000.0 -55379800000.0 -61994400000.0 -22304900000.0 -33678800000.0 -81421300000.0 -67243800000.0 -32690800000.0 -65993500000.0 -113297000000.0 -23291700000.0 -24810900000.0 -119058000000.0 -15201900000.0 -18051200000.0 -133174000000.0 -66919900000.0 -107506000000.0 -82478600000.0 -48301100000.0 -12606400000.0 -46158400000.0 -48377700000.0 -12549700000.0 -77012100000.0 -84015600000.0 -63117000000.0 -52828900000.0 -114555000000.0 -142207000000.0 -206526000000.0 -250297000000.0 -50356900000.0 -172231000000.0 -262340000000.0 -118737000000.0 -12549700000.0 -229558000000.0 -148278000000.0 -162412000000.0 -211013000000.0 -286251000000.0 -419157000000.0 -469178000000.0 -765790000000.0 -94765700000.0 -419029000000.0 -523578000000.0 -420778000000.0 -259648000000.0 -412103000000.0 -525545000000.0 -572769000000.0 -328254000000.0 -689772000000.0 -654012000000.0 -718048000000.0 -478953000000.0 -848836000000.0 -166609000000.0 -149414000000.0 -435996000000.0 -121028000000.0 -126054000000.0 -254782000000.0 -121842000000.0 -228008000000.0 -75592100000.0 -94333800000.0 -116981000000.0 -66946600000.0 -189534000000.0 -210697000000.0 -51068200000.0 -175571000000.0 -150728000000.0 -150891000000.0 -162002000000.0 -23360400000.0 -16137300000.0 -26189500000.0 -113995000000.0 -63013000000.0 -88283300000.0 -61086000000.0 -156157000000.0 -12662700000.0 -13312100000.0 -46803400000.0 -109301000000.0 -70730000000.0 -54331900000.0 -84442200000.0 -126045000000.0 -42395600000.0 -46674600000.0 -70991600000.0 -70910200000.0 -54320500000.0 -143879000000.0 -102444000000.0 -73434500000.0 -72931100000.0 -69683800000.0 -66459300000.0 -79313500000.0 -81805200000.0 -85297200000.0 -110818000000.0 -119271000000.0 -14462300000.0 -51193800000.0 -52804000000.0 -72028900000.0 -94073900000.0 -33786900000.0 -28570200000.0 -135225000000.0 -71832200000.0 -60304400000.0 -89935700000.0 -84340300000.0 -79769800000.0 -77805200000.0 -84758600000.0 -106283000000.0 -142388000000.0 -136929000000.0 -12549700000.0 -101507000000.0 -190076000000.0 -155470000000.0 -238129000000.0 -183450000000.0 -145763000000.0 -198997000000.0 -174739000000.0 -298739000000.0 -181248000000.0 -188602000000.0 -160729000000.0 -486123000000.0 -486338000000.0 -112594000000.0 -226686000000.0 -337002000000.0 -120065000000.0 -394777000000.0 -472306000000.0 -601050000000.0 -728029000000.0 -903310000000.0 -247785000000.0 -591049000000.0 -251919000000.0 -462181000000.0 -128195000000.0 -17757400000.0 -321050000000.0 -97284000000.0 -175259000000.0 -74363600000.0 -218750000000.0 -200166000000.0 -12549700000.0 -12549700000.0 -25091400000.0 -46437900000.0 -87441200000.0 -85057400000.0 -134787000000.0 -12549700000.0 -79169800000.0 -91377900000.0 -119764000000.0 -139550000000.0 -45563000000.0 -43975300000.0 -33576600000.0 -68502100000.0 -31761700000.0 -32703800000.0 -47293500000.0 -41946800000.0 -106873000000.0 -133521000000.0 -158476000000.0 -143477000000.0 -144093000000.0 -106776000000.0 -17506300000.0 -88965700000.0 -41685600000.0 -12675800000.0 -74176100000.0 -46107900000.0 -61886300000.0 -134101000000.0 -52310100000.0 -72548700000.0 -96202700000.0 -65495400000.0 -78779100000.0 -12549700000.0 -104130000000.0 -68192800000.0 -66309700000.0 -64053900000.0 -14281000000.0 -69658300000.0 -88467500000.0 -19328300000.0 -27191100000.0 -67346600000.0 -135030000000.0 -85416300000.0 -50575800000.0 -81245200000.0 -106196000000.0 -13469200000.0 -108626000000.0 -137358000000.0 -142460000000.0 -70453400000.0 -62830500000.0 -99212900000.0 -70387600000.0 -111371000000.0 -97503500000.0 -59863200000.0 -143934000000.0 -66051000000.0 -90208400000.0 -48876400000.0 -281371000000.0 -95615700000.0 -171054000000.0 -181964000000.0 -196923000000.0 -183484000000.0 -33851500000.0 -80395000000.0 -237731000000.0 -275544000000.0 -388056000000.0 -478670000000.0 -179539000000.0 -475873000000.0 -153451000000.0 -186750000000.0 -407107000000.0 -227135000000.0 -605165000000.0 -244332000000.0 -179968000000.0 -227897000000.0 -610465000000.0 -359696000000.0 -569901000000.0 -222642000000.0 -76228200000.0 -80584200000.0 -32870200000.0 -46906600000.0 -158009000000.0 -70578800000.0 -119343000000.0 -28703200000.0 -28520200000.0 -29460800000.0 -45760300000.0 -105791000000.0 -81709500000.0 -80472000000.0 -12549700000.0 -82063200000.0 -78484000000.0 -19792400000.0 -20233100000.0 -13739600000.0 -55041700000.0 -15789000000.0 -28879700000.0 -34422800000.0 -55687300000.0 -71724900000.0 -41723800000.0 -73413200000.0 -39086500000.0 -30537300000.0 -47962700000.0 -148239000000.0 -211288000000.0 -148417000000.0 -38882200000.0 -59667800000.0 -56216000000.0 -12752300000.0 -140964000000.0 -17219600000.0 -20482200000.0 -37048500000.0 -112318000000.0 -69488900000.0 -64738000000.0 -64265300000.0 -80290600000.0 -87441300000.0 -76544100000.0 -42624900000.0 -32163700000.0 -61127700000.0 -121574000000.0 -90970300000.0 -63848800000.0 -73018300000.0 -59872800000.0 -66751200000.0 -28723600000.0 -26659500000.0 -41890800000.0 -14592000000.0 -77445400000.0 -18312800000.0 -35226700000.0 -72974000000.0 -83477900000.0 -73481400000.0 -116424000000.0 -48716600000.0 -75255800000.0 -121116000000.0 -150506000000.0 -74938600000.0 -202891000000.0 -143833000000.0 -128766000000.0 -252577000000.0 -191032000000.0 -135193000000.0 -139603000000.0 -76293500000.0 -184640000000.0 -89759300000.0 -326249000000.0 -162665000000.0 -224564000000.0 -172370000000.0 -222659000000.0 -138595000000.0 -128661000000.0 -556987000000.0 -128592000000.0 -389097000000.0 -95089900000.0 -240013000000.0 -452865000000.0 -128101000000.0 -23888200000.0 -48368200000.0 -58241000000.0 -48972600000.0 -42618100000.0 -98959500000.0 -50589600000.0 -77054800000.0 -29037300000.0 -32077000000.0 -51835300000.0 -36623100000.0 -84319100000.0 -108553000000.0 -38319600000.0 -66748800000.0 -12549700000.0 -75530300000.0 -79912800000.0 -61891500000.0 -39475900000.0 -25234400000.0 -26847700000.0 -32418600000.0 -12549700000.0 -57146400000.0 -50314600000.0 -40495100000.0 -38587900000.0 -35212200000.0 -41571000000.0 -76544600000.0 -106800000000.0 -63794600000.0 -59541800000.0 -29524000000.0 -13701400000.0 -96345100000.0 -65725500000.0 -147250000000.0 -219904000000.0 -156842000000.0 -160341000000.0 -87368500000.0 -58824700000.0 -52602100000.0 -122152000000.0 -37985200000.0 -60237600000.0 -66902200000.0 -80273700000.0 -40529500000.0 -65560500000.0 -76782300000.0 -50272100000.0 -87857400000.0 -81825200000.0 -66794500000.0 -18987100000.0 -52956900000.0 -39371300000.0 -138081000000.0 -87915300000.0 -42089600000.0 -79847900000.0 -90588300000.0 -153734000000.0 -98440600000.0 -112273000000.0 -150928000000.0 -102380000000.0 -96566700000.0 -80073100000.0 -53256700000.0 -91065400000.0 -137177000000.0 -104995000000.0 -48589100000.0 -107405000000.0 -22866100000.0 -88753900000.0 -200561000000.0 -61461100000.0 -58370300000.0 -71454300000.0 -192152000000.0 -153827000000.0 -105725000000.0 -333344000000.0 -179817000000.0 -260461000000.0 -310610000000.0 -321137000000.0 -308416000000.0 -315294000000.0 -280183000000.0 -243559000000.0 -474058000000.0 -197422000000.0 -409352000000.0 -147407000000.0 -101363000000.0 -15585400000.0 -67157500000.0 -28418000000.0 -109429000000.0 -43477700000.0 -28313600000.0 -13433300000.0 -19576100000.0 -17374200000.0 -24020100000.0 -25805100000.0 -34388000000.0 -109378000000.0 -107440000000.0 -96011300000.0 -22236200000.0 -29453400000.0 -21998200000.0 -32757600000.0 -46469900000.0 -50066700000.0 -38289900000.0 -36451800000.0 -12622500000.0 -23698900000.0 -108462000000.0 -30571500000.0 -28215600000.0 -32771600000.0 -35268300000.0 -44310400000.0 -64898600000.0 -57629300000.0 -26617800000.0 -14750400000.0 -102876000000.0 -55950300000.0 -96691600000.0 -100360000000.0 -63574200000.0 -126243000000.0 -75142000000.0 -99967200000.0 -59169700000.0 -112490000000.0 -108490000000.0 -113120000000.0 -64956900000.0 -58953500000.0 -189225000000.0 -108840000000.0 -136151000000.0 -116983000000.0 -40416000000.0 -12549700000.0 -107922000000.0 -23389300000.0 -15441100000.0 -98053200000.0 -31101600000.0 -15436700000.0 -13969700000.0 -77891900000.0 -18064400000.0 -119144000000.0 -37928200000.0 -12549700000.0 -68391300000.0 -14237000000.0 -47922700000.0 -41758300000.0 -78418800000.0 -85462100000.0 -109964000000.0 -63038600000.0 -44217900000.0 -111737000000.0 -12549700000.0 -103767000000.0 -13424600000.0 -102732000000.0 -102603000000.0 -39263200000.0 -161997000000.0 -118040000000.0 -137877000000.0 -187022000000.0 -231128000000.0 -161417000000.0 -139349000000.0 -138815000000.0 -110074000000.0 -148382000000.0 -38228400000.0 -35085200000.0 -197994000000.0 -34162700000.0 -298806000000.0 -222258000000.0 -129830000000.0 -495636000000.0 -146914000000.0 -39273600000.0 -65224600000.0 -57740000000.0 -21331600000.0 -14225500000.0 -81517500000.0 -38431600000.0 -20888800000.0 -19181000000.0 -25254400000.0 -13507400000.0 -12549700000.0 -22709200000.0 -30842500000.0 -64092800000.0 -24565100000.0 -74643300000.0 -111023000000.0 -79624800000.0 -59499500000.0 -34832700000.0 -13828200000.0 -27998200000.0 -68895400000.0 -79290400000.0 -24154900000.0 -27853000000.0 -13943900000.0 -27203100000.0 -22295000000.0 -21725200000.0 -104857000000.0 -43048200000.0 -29858700000.0 -13170900000.0 -25613000000.0 -30104200000.0 -32605000000.0 -71007300000.0 -48997000000.0 -12864700000.0 -36232100000.0 -141127000000.0 -78848200000.0 -136500000000.0 -92097900000.0 -47343200000.0 -78946800000.0 -54354600000.0 -14202000000.0 -81935000000.0 -90369400000.0 -12549700000.0 -97311600000.0 -142137000000.0 -20174700000.0 -67538300000.0 -71328100000.0 -36731200000.0 -78451400000.0 -70801800000.0 -130654000000.0 -14557700000.0 -40540600000.0 -80713900000.0 -32294300000.0 -78262900000.0 -83077400000.0 -91322800000.0 -85414100000.0 -39690600000.0 -96984100000.0 -29172000000.0 -12549700000.0 -62377600000.0 -43313900000.0 -150642000000.0 -113140000000.0 -94314700000.0 -96828600000.0 -127869000000.0 -102319000000.0 -152898000000.0 -72536200000.0 -91257000000.0 -50868200000.0 -48907400000.0 -37263700000.0 -25113600000.0 -117117000000.0 -134739000000.0 -84267000000.0 -19178800000.0 -90933800000.0 -152929000000.0 -66291200000.0 -25158600000.0 -177952000000.0 -19122700000.0 -289475000000.0 -84129000000.0 -91062500000.0 -311510000000.0 -104371000000.0 -48362800000.0 -27666700000.0 -33308700000.0 -27676200000.0 -19073600000.0 -35543300000.0 -55506200000.0 -39220700000.0 -12585300000.0 -12749400000.0 -14132500000.0 -32461200000.0 -26097400000.0 -23725400000.0 -59338900000.0 -16576800000.0 -69638200000.0 -12732000000.0 -13328200000.0 -50429300000.0 -50667800000.0 -47948600000.0 -29634000000.0 -12711200000.0 -58713900000.0 -65397300000.0 -43689700000.0 -49043900000.0 -53852700000.0 -69964100000.0 -36652000000.0 -41923000000.0 -52369500000.0 -31686700000.0 -53621000000.0 -55904600000.0 -58631700000.0 -30532900000.0 -29885700000.0 -100729000000.0 -21341200000.0 -41756600000.0 -126912000000.0 -110115000000.0 -151710000000.0 -113043000000.0 -80933500000.0 -75108100000.0 -45608600000.0 -54722800000.0 -84805500000.0 -89713000000.0 -57444500000.0 -131710000000.0 -102163000000.0 -12564500000.0 -77449600000.0 -35427900000.0 -92531000000.0 -39024600000.0 -20248100000.0 -69314600000.0 -106204000000.0 -36494500000.0 -138761000000.0 -82077600000.0 -14947800000.0 -81573700000.0 -135427000000.0 -124504000000.0 -12575800000.0 -62156100000.0 -57294500000.0 -175231000000.0 -172518000000.0 -71668700000.0 -32373800000.0 -14909300000.0 -39276200000.0 -84775600000.0 -22644700000.0 -82095700000.0 -110269000000.0 -117418000000.0 -46470400000.0 -101945000000.0 -13319500000.0 -122092000000.0 -27741600000.0 -38320200000.0 -149489000000.0 -181356000000.0 -158248000000.0 -117019000000.0 -134597000000.0 -203021000000.0 -76059400000.0 -150507000000.0 -69051700000.0 -95210700000.0 -212056000000.0 -95931400000.0 -147588000000.0 -138036000000.0 -83199300000.0 -110240000000.0 -107929000000.0 -274213000000.0 -243053000000.0 -42095400000.0 -24045900000.0 -22113900000.0 -12853300000.0 -13672500000.0 -81032500000.0 -73045200000.0 -55297200000.0 -34272300000.0 -31389500000.0 -37328500000.0 -21163600000.0 -24483600000.0 -39344800000.0 -44238900000.0 -41886300000.0 -76360800000.0 -73636400000.0 -129311000000.0 -101794000000.0 -147045000000.0 -34594800000.0 -29918300000.0 -88301700000.0 -78612400000.0 -43983500000.0 -51796700000.0 -43835600000.0 -56870200000.0 -51997500000.0 -58684000000.0 -30640200000.0 -14854200000.0 -12549700000.0 -38624600000.0 -40510400000.0 -19666800000.0 -94171800000.0 -28531600000.0 -31716500000.0 -115687000000.0 -92383400000.0 -54142900000.0 -93857200000.0 -27446500000.0 -81345700000.0 -53548800000.0 -42317300000.0 -50421600000.0 -80327100000.0 -76026000000.0 -45387900000.0 -69236300000.0 -64622300000.0 -50713100000.0 -48435300000.0 -102823000000.0 -15520800000.0 -79569400000.0 -78944900000.0 -154458000000.0 -144072000000.0 -93734800000.0 -68441000000.0 -83974900000.0 -67266000000.0 -54720400000.0 -81863600000.0 -53028400000.0 -139305000000.0 -118399000000.0 -15553100000.0 -70944100000.0 -60936600000.0 -13188200000.0 -12860800000.0 -31143200000.0 -161137000000.0 -55532000000.0 -143337000000.0 -157165000000.0 -75813300000.0 -91516200000.0 -83991500000.0 -98782200000.0 -13900700000.0 -84338300000.0 -35101900000.0 -12549700000.0 -63415100000.0 -16129600000.0 -18265900000.0 -17641700000.0 -160300000000.0 -62841000000.0 -112364000000.0 -179666000000.0 -76409600000.0 -23556700000.0 -115814000000.0 -173352000000.0 -111000000000.0 -12573600000.0 -68288600000.0 -220871000000.0 -33346000000.0 -15214400000.0 -17879000000.0 -80930900000.0 -36574300000.0 -46851200000.0 -46401100000.0 -29635800000.0 -26337900000.0 -35667300000.0 -38580300000.0 -14150000000.0 -43966900000.0 -39081900000.0 -27248600000.0 -38015200000.0 -12772800000.0 -12549700000.0 -26053000000.0 -36309800000.0 -76641500000.0 -29248900000.0 -100999000000.0 -39310600000.0 -13240200000.0 -65528000000.0 -94782000000.0 -74010100000.0 -29040300000.0 -13480200000.0 -73971200000.0 -78088100000.0 -47156600000.0 -16156400000.0 -37277700000.0 -117215000000.0 -65796800000.0 -76849600000.0 -51533100000.0 -34886200000.0 -43112100000.0 -52637400000.0 -68815100000.0 -57521000000.0 -55006600000.0 -92159700000.0 -91873300000.0 -50429300000.0 -89831300000.0 -78516900000.0 -15791700000.0 -40107900000.0 -135290000000.0 -78373300000.0 -113013000000.0 -72415500000.0 -16932900000.0 -45056700000.0 -60033000000.0 -47330300000.0 -109022000000.0 -34065000000.0 -28724700000.0 -43413700000.0 -68655800000.0 -52224700000.0 -132975000000.0 -14814400000.0 -21241500000.0 -208025000000.0 -80046000000.0 -63662500000.0 -115302000000.0 -107061000000.0 -126990000000.0 -125633000000.0 -74853100000.0 -117482000000.0 -51249700000.0 -85199400000.0 -75311300000.0 -41078700000.0 -113749000000.0 -46437100000.0 -35072100000.0 -97473200000.0 -34296400000.0 -33753700000.0 -125982000000.0 -137523000000.0 -135705000000.0 -124489000000.0 -27389500000.0 -76841400000.0 -217447000000.0 -274218000000.0 -42790400000.0 -65125500000.0 -72737100000.0 -41743100000.0 -25020300000.0 -25922400000.0 -19888500000.0 -33169600000.0 -13687900000.0 -27864100000.0 -13770300000.0 -24582200000.0 -35563600000.0 -18665900000.0 -17392600000.0 -43145700000.0 -53687800000.0 -52375300000.0 -84347100000.0 -13952600000.0 -18593200000.0 -54559800000.0 -29326600000.0 -32332700000.0 -17735500000.0 -43362500000.0 -41532300000.0 -19349500000.0 -76775600000.0 -48593900000.0 -62984100000.0 -31924600000.0 -61952400000.0 -72169100000.0 -57845900000.0 -115549000000.0 -84722500000.0 -34530900000.0 -36719400000.0 -71154200000.0 -65663900000.0 -12549700000.0 -77363500000.0 -12549700000.0 -62347000000.0 -68323200000.0 -82776600000.0 -25741600000.0 -78473800000.0 -107666000000.0 -71830900000.0 -45419500000.0 -48071200000.0 -25874200000.0 -42980200000.0 -87031000000.0 -14045100000.0 -103380000000.0 -48193500000.0 -34873500000.0 -12549700000.0 -72129100000.0 -98424400000.0 -42066600000.0 -70591400000.0 -83699300000.0 -57656000000.0 -93876800000.0 -57893000000.0 -96215800000.0 -35084600000.0 -69281000000.0 -80737500000.0 -122313000000.0 -121777000000.0 -68409700000.0 -19149700000.0 -14023000000.0 -111216000000.0 -107584000000.0 -93858300000.0 -102286000000.0 -53475100000.0 -65268600000.0 -94157400000.0 -25363600000.0 -68581400000.0 -155211000000.0 -131341000000.0 -102962000000.0 -55098800000.0 -145842000000.0 -82998000000.0 -27292500000.0 -77209700000.0 -117488000000.0 -45848900000.0 -305785000000.0 -20265900000.0 -32339900000.0 -30136300000.0 -17247100000.0 -70037500000.0 -55200600000.0 -26904700000.0 -28358700000.0 -44044600000.0 -12832600000.0 -12649500000.0 -30815200000.0 -18656300000.0 -38285400000.0 -33619000000.0 -22181600000.0 -32358500000.0 -48832400000.0 -43528100000.0 -67733800000.0 -84854200000.0 -83853300000.0 -70970100000.0 -27637300000.0 -47551300000.0 -36946400000.0 -30716600000.0 -31096600000.0 -26214100000.0 -73870400000.0 -88934200000.0 -41041500000.0 -91793000000.0 -41482900000.0 -56932300000.0 -21657800000.0 -27950300000.0 -20874800000.0 -46607900000.0 -27483000000.0 -61753500000.0 -94010800000.0 -64045700000.0 -109488000000.0 -38462700000.0 -51366000000.0 -78276600000.0 -81508800000.0 -54449000000.0 -73894600000.0 -81809800000.0 -89477400000.0 -82965200000.0 -36893100000.0 -119908000000.0 -77667400000.0 -33588600000.0 -72229300000.0 -26801900000.0 -80009000000.0 -56658600000.0 -49768500000.0 -101782000000.0 -73256900000.0 -14153500000.0 -63380200000.0 -35701100000.0 -151638000000.0 -116939000000.0 -101018000000.0 -39077900000.0 -114320000000.0 -137516000000.0 -129976000000.0 -112229000000.0 -103487000000.0 -12630000000.0 -95404200000.0 -54199100000.0 -47446700000.0 -23701800000.0 -57441900000.0 -51261400000.0 -12549700000.0 -26009100000.0 -67311900000.0 -30409500000.0 -60369200000.0 -23116200000.0 -76224500000.0 -81178300000.0 -160576000000.0 -17613300000.0 -22220200000.0 -28861500000.0 -54339300000.0 -13019600000.0 -15715100000.0 -74433200000.0 -180481000000.0 -88843200000.0 -243034000000.0 -15685500000.0 -19434500000.0 -27027100000.0 -24362000000.0 -72348300000.0 -92411100000.0 -27435700000.0 -49729600000.0 -30766900000.0 -31477100000.0 -39759600000.0 -28539700000.0 -15692200000.0 -28608400000.0 -51878000000.0 -38164200000.0 -40817100000.0 -39239700000.0 -12891400000.0 -29255800000.0 -16754900000.0 -79756200000.0 -59897400000.0 -91435400000.0 -40258400000.0 -30159700000.0 -50194100000.0 -23291400000.0 -12612700000.0 -36968100000.0 -34479500000.0 -93779400000.0 -40044200000.0 -57278000000.0 -38016900000.0 -55327200000.0 -52130200000.0 -115875000000.0 -39117700000.0 -27732700000.0 -25112600000.0 -24325800000.0 -29576600000.0 -22135700000.0 -12549700000.0 -66360300000.0 -62775500000.0 -51155000000.0 -26445500000.0 -36772600000.0 -55943100000.0 -85968100000.0 -49042900000.0 -68656900000.0 -86718100000.0 -65284100000.0 -42250000000.0 -62918000000.0 -65023500000.0 -82454200000.0 -32949200000.0 -95696700000.0 -111707000000.0 -107190000000.0 -84585800000.0 -88925300000.0 -142015000000.0 -14256500000.0 -106860000000.0 -134979000000.0 -184486000000.0 -130101000000.0 -123482000000.0 -150960000000.0 -120205000000.0 -118858000000.0 -53528500000.0 -82589600000.0 -108097000000.0 -119547000000.0 -151933000000.0 -73579400000.0 -15902600000.0 -38801500000.0 -18573200000.0 -49024400000.0 -60611800000.0 -68984100000.0 -45721500000.0 -40462800000.0 -56013900000.0 -54679400000.0 -65481400000.0 -44364500000.0 -38938000000.0 -41576700000.0 -19928700000.0 -75785200000.0 -107976000000.0 -108131000000.0 -107753000000.0 -299411000000.0 -87662800000.0 -35383500000.0 -76710000000.0 -18943500000.0 -82815600000.0 -45861200000.0 -96082000000.0 -54030500000.0 -14714000000.0 -18207300000.0 -24801600000.0 -29257200000.0 -22317300000.0 -19908000000.0 -14136600000.0 -51500100000.0 -37618100000.0 -44174900000.0 -47002600000.0 -65896400000.0 -67124400000.0 -31903200000.0 -61522000000.0 -49270200000.0 -19365000000.0 -34049700000.0 -17068000000.0 -36924600000.0 -55560900000.0 -64294700000.0 -52173200000.0 -52553600000.0 -12549700000.0 -70159200000.0 -15871900000.0 -77884400000.0 -29947100000.0 -26875100000.0 -31008400000.0 -73589900000.0 -83707100000.0 -56462600000.0 -67505600000.0 -65980900000.0 -30305300000.0 -81516700000.0 -73351500000.0 -89988800000.0 -16844800000.0 -22446100000.0 -58810800000.0 -12672500000.0 -41929000000.0 -12799200000.0 -23151000000.0 -56135000000.0 -74920000000.0 -83674300000.0 -62220100000.0 -33709000000.0 -35519600000.0 -92404600000.0 -13392100000.0 -77300400000.0 -129853000000.0 -60739500000.0 -49545600000.0 -66776600000.0 -83970200000.0 -53332500000.0 -90617100000.0 -48090800000.0 -134287000000.0 -17060300000.0 -125264000000.0 -21167400000.0 -17998900000.0 -12549700000.0 -79033700000.0 -49292300000.0 -54287700000.0 -117017000000.0 -47145700000.0 -59449400000.0 -43004900000.0 -62992300000.0 -71885600000.0 -43375900000.0 -23893700000.0 -55471800000.0 -22725600000.0 -18893700000.0 -37667400000.0 -29649900000.0 -84163100000.0 -46128700000.0 -34200100000.0 -33332500000.0 -46616600000.0 -49441300000.0 -13399600000.0 -76958700000.0 -15917500000.0 -75397600000.0 -195246000000.0 -71858900000.0 -42104700000.0 -74521500000.0 -13718400000.0 -14285000000.0 -20996600000.0 -51223700000.0 -12549700000.0 -33111500000.0 -12549700000.0 -34971400000.0 -21949600000.0 -36291100000.0 -28767700000.0 -25049700000.0 -43909900000.0 -47090100000.0 -45500200000.0 -20815800000.0 -53230100000.0 -26309400000.0 -36488000000.0 -102258000000.0 -68029600000.0 -30060500000.0 -115445000000.0 -59592500000.0 -12694500000.0 -49413800000.0 -37746900000.0 -30778000000.0 -70683400000.0 -72670500000.0 -56814100000.0 -99382600000.0 -47604400000.0 -27288700000.0 -22466100000.0 -33053700000.0 -66378700000.0 -82776900000.0 -46051800000.0 -100266000000.0 -71211700000.0 -36200000000.0 -89762000000.0 -48021100000.0 -56983300000.0 -45487700000.0 -43103700000.0 -56093300000.0 -63183600000.0 -37450700000.0 -12847700000.0 -119366000000.0 -37887100000.0 -38543500000.0 -33804000000.0 -99490100000.0 -42973500000.0 -103092000000.0 -56314300000.0 -28584900000.0 -16503600000.0 -39366900000.0 -122405000000.0 -56104900000.0 -77227300000.0 -53767500000.0 -54651400000.0 -16778200000.0 -98372000000.0 -78857100000.0 -70459600000.0 -88566700000.0 -54087300000.0 -81268100000.0 -82722300000.0 -48622300000.0 -46810500000.0 -49048600000.0 -39629900000.0 -48745500000.0 -110650000000.0 -65990700000.0 -54415000000.0 -61817000000.0 -58625700000.0 -37249700000.0 -43132900000.0 -65214600000.0 -31164600000.0 -164449000000.0 -56789100000.0 -41622500000.0 -71126800000.0 -12549700000.0 -122254000000.0 -21034500000.0 -14126600000.0 -38460200000.0 -50896400000.0 -13558900000.0 -29260300000.0 -30133300000.0 -18143500000.0 -35366400000.0 -21493900000.0 -35096300000.0 -21900300000.0 -14438900000.0 -24728000000.0 -15329900000.0 -51560400000.0 -12691900000.0 -36697400000.0 -33837200000.0 -87577600000.0 -16712600000.0 -134178000000.0 -18056300000.0 -29097700000.0 -31093800000.0 -117512000000.0 -58912600000.0 -81050500000.0 -86073900000.0 -60369800000.0 -78509900000.0 -27973800000.0 -112130000000.0 -123514000000.0 -80979900000.0 -49049800000.0 -60627100000.0 -61872900000.0 -18277200000.0 -29228500000.0 -13619600000.0 -94671400000.0 -12781800000.0 -16287500000.0 -22315800000.0 -71946200000.0 -63384100000.0 -47171500000.0 -73842200000.0 -51318200000.0 -66479300000.0 -64008000000.0 -70300100000.0 -58621800000.0 -63250000000.0 -127423000000.0 -26660800000.0 -19340000000.0 -25600400000.0 -17906600000.0 -30138400000.0 -31797100000.0 -98573700000.0 -50087300000.0 -46953600000.0 -83832100000.0 -51574700000.0 -71124200000.0 -95031500000.0 -20724800000.0 -35076600000.0 -100617000000.0 -39167700000.0 -38035100000.0 -34885700000.0 -67204400000.0 -61876300000.0 -51376500000.0 -99076500000.0 -18109500000.0 -19261600000.0 -20610800000.0 -50031200000.0 -13807600000.0 -40418500000.0 -31361300000.0 -66154400000.0 -41227200000.0 -37586500000.0 -45390400000.0 -29551500000.0 -54731300000.0 -48562400000.0 -26398100000.0 -50615300000.0 -51145400000.0 -42861100000.0 -45190800000.0 -36436400000.0 -65643200000.0 -53570400000.0 -15180400000.0 -13981200000.0 -194038000000.0 -66180200000.0 -41812800000.0 -36298500000.0 -20466100000.0 -23446700000.0 -13033600000.0 -97331100000.0 -103182000000.0 -117817000000.0 -57703900000.0 -50121200000.0 -20284600000.0 -74177300000.0 -70644100000.0 -35809100000.0 -17308700000.0 -27951300000.0 -21828900000.0 -41123700000.0 -52656200000.0 -60802600000.0 -52351400000.0 -43558900000.0 -85007700000.0 -94133100000.0 -17453800000.0 -81641500000.0 -14007300000.0 -145609000000.0 -20296700000.0 -18997400000.0 -51924700000.0 -89015800000.0 -56232500000.0 -18703600000.0 -13822800000.0 -68092600000.0 -56412300000.0 -20613800000.0 -12549700000.0 -12561900000.0 -12610000000.0 -48984800000.0 -40686000000.0 -59278000000.0 -54068700000.0 -28578800000.0 -49034100000.0 -61422400000.0 -27326800000.0 -30703100000.0 -40288000000.0 -31633100000.0 -18046800000.0 -24832100000.0 -38155900000.0 -33112500000.0 -29458300000.0 -29357600000.0 -99529900000.0 -63186700000.0 -19616400000.0 -25925600000.0 -94310700000.0 -81915100000.0 -19937400000.0 -45235300000.0 -103634000000.0 -21322900000.0 -13031700000.0 -99930200000.0 -59911600000.0 -83533200000.0 -61401100000.0 -42677300000.0 -76379700000.0 -39225200000.0 -89727500000.0 -13591300000.0 -12549700000.0 -13900300000.0 -26058000000.0 -24253400000.0 -38414100000.0 -15153700000.0 -18477600000.0 -31198000000.0 -57746800000.0 -17869600000.0 -43097100000.0 -26576400000.0 -50162800000.0 -40521600000.0 -33941200000.0 -41482100000.0 -28173400000.0 -45680600000.0 -38953100000.0 -90645300000.0 -98141900000.0 -14690000000.0 -123545000000.0 -110720000000.0 -35111300000.0 -55468500000.0 -35260500000.0 -39421100000.0 -57143800000.0 -70312400000.0 -59656700000.0 -65715900000.0 -75814500000.0 -22023500000.0 -40029500000.0 -43542600000.0 -56405700000.0 -51413600000.0 -50057400000.0 -96317700000.0 -78670800000.0 -54545700000.0 -28615000000.0 -43426800000.0 -83750700000.0 -52563300000.0 -57723600000.0 -13328200000.0 -66928300000.0 -98750100000.0 -17030600000.0 -95040600000.0 -42009500000.0 -48769700000.0 -64495400000.0 -56617700000.0 -74420700000.0 -52636900000.0 -45913300000.0 -48925700000.0 -12841400000.0 -45534900000.0 -49807800000.0 -35314500000.0 -62047300000.0 -50093000000.0 -35927500000.0 -31508800000.0 -19730500000.0 -22098400000.0 -40813000000.0 -32432300000.0 -49725400000.0 -61344500000.0 -45922300000.0 -59197500000.0 -80159900000.0 -58916000000.0 -73733500000.0 -22291600000.0 -75107600000.0 -58773400000.0 -76728400000.0 -68533900000.0 -18494100000.0 -12629400000.0 -78776100000.0 -14843800000.0 -72484300000.0 -57063800000.0 -68325600000.0 -51188500000.0 -61717400000.0 -80206500000.0 -44089000000.0 -24249300000.0 -31706500000.0 -24193000000.0 -21731900000.0 -43870200000.0 -26690600000.0 -23013900000.0 -16924300000.0 -28269000000.0 -28418200000.0 -12549700000.0 -43338000000.0 -16965400000.0 -34193800000.0 -30929300000.0 -21810600000.0 -21518700000.0 -12952300000.0 -27689100000.0 -25302400000.0 -40198200000.0 -38426300000.0 -37547500000.0 -20445600000.0 -39842700000.0 -53541800000.0 -17516400000.0 -67284000000.0 -73111000000.0 -27294000000.0 -61448600000.0 -12549700000.0 -101301000000.0 -25803000000.0 -54592700000.0 -61970400000.0 -12585800000.0 -50683700000.0 -62403700000.0 -46070900000.0 -35319400000.0 -57648800000.0 -49480500000.0 -31961500000.0 -62669400000.0 -64316400000.0 -83699500000.0 -81810700000.0 -99439700000.0 -79531800000.0 -29739300000.0 -125115000000.0 -29549900000.0 -87833200000.0 -63930200000.0 -56509700000.0 -31180500000.0 -66855700000.0 -49419000000.0 -32966400000.0 -76509400000.0 -27414900000.0 -17584000000.0 -37814000000.0 -45325100000.0 -30576500000.0 -44278300000.0 -12707300000.0 -17517400000.0 -14100400000.0 -50172200000.0 -35120200000.0 -28671000000.0 -28709500000.0 -12549700000.0 -42674800000.0 -24455200000.0 -39441800000.0 -40329000000.0 -65848400000.0 -40163200000.0 -24152900000.0 -51944300000.0 -25808000000.0 -23417100000.0 -23763400000.0 -32220600000.0 -24928100000.0 -55417000000.0 -24035700000.0 -43607900000.0 -51909800000.0 -55118100000.0 -53714700000.0 -59276100000.0 -90482200000.0 -12549700000.0 -80634500000.0 -72190000000.0 -47929200000.0 -52452600000.0 -18312100000.0 -40230200000.0 -51003100000.0 -36821300000.0 -50391700000.0 -14409300000.0 -26116100000.0 -35709300000.0 -52770500000.0 -39913000000.0 -12554300000.0 -12598100000.0 -22970700000.0 -24063000000.0 -12846300000.0 -35003100000.0 -21523300000.0 -28899800000.0 -14114700000.0 -24397800000.0 -36618500000.0 -40948400000.0 -22399200000.0 -19912100000.0 -12549700000.0 -68362200000.0 -70302000000.0 -18515600000.0 -79210400000.0 -76931900000.0 -19402600000.0 -30243300000.0 -34926800000.0 -17124000000.0 -68940200000.0 -25818300000.0 -37028400000.0 -28307900000.0 -31199100000.0 -23873600000.0 -12549700000.0 -38885500000.0 -72445800000.0 -13399900000.0 -37720700000.0 -65056400000.0 -50452000000.0 -17710900000.0 -46214400000.0 -15238900000.0 -61341700000.0 -152766000000.0 -82503100000.0 -60894100000.0 -14413400000.0 -34460800000.0 -39582000000.0 -73240900000.0 -12712800000.0 -50238000000.0 -21967200000.0 -48028300000.0 -49263900000.0 -28679500000.0 -13689800000.0 -13399900000.0 -43824200000.0 -20515100000.0 -27731200000.0 -15033400000.0 -15277300000.0 -27702600000.0 -35108700000.0 -43324000000.0 -23439900000.0 -24997300000.0 -34873800000.0 -28062900000.0 -29781700000.0 -24599200000.0 -48184300000.0 -30942800000.0 -38635200000.0 -12828400000.0 -28802200000.0 -48043000000.0 -12549700000.0 -57617300000.0 -37756800000.0 -31713900000.0 -20481800000.0 -52118000000.0 -72233300000.0 -35518200000.0 -26975500000.0 -86049900000.0 -54943600000.0 -66463600000.0 -78835000000.0 -40199800000.0 -48574500000.0 -34571800000.0 -35733200000.0 -33714100000.0 -38335200000.0 -20079500000.0 -44459600000.0 -49701700000.0 -50234900000.0 -36780000000.0 -29406300000.0 -27166200000.0 -31800300000.0 -14025100000.0 -16014500000.0 -15125100000.0 -16030200000.0 -13142200000.0 -32436200000.0 -20224300000.0 -27248300000.0 -34827100000.0 -12945900000.0 -53122600000.0 -21556900000.0 -51552100000.0 -33536900000.0 -16626700000.0 -65514300000.0 -14017500000.0 -46577800000.0 -21114400000.0 -55170100000.0 -31861000000.0 -15859900000.0 -17252900000.0 -29420300000.0 -38611400000.0 -49557000000.0 -32347600000.0 -20432500000.0 -30800600000.0 -37217800000.0 -26996900000.0 -13305000000.0 -49964200000.0 -56183500000.0 -45325600000.0 -68350800000.0 -86389600000.0 -34812900000.0 -60141000000.0 -14368200000.0 -52612800000.0 -54842000000.0 -71446500000.0 -55334200000.0 -68859300000.0 -38760600000.0 -45312200000.0 -45300500000.0 -29890400000.0 -41872000000.0 -13301400000.0 -54821100000.0 -19885500000.0 -30469400000.0 -15645900000.0 -23385000000.0 -29119600000.0 -16528300000.0 -35879800000.0 -39152800000.0 -20457700000.0 -25293000000.0 -21716500000.0 -30546700000.0 -25811100000.0 -30947700000.0 -13941600000.0 -37613000000.0 -17425900000.0 -15460500000.0 -36236200000.0 -46787100000.0 -28703800000.0 -32063700000.0 -46759300000.0 -37150800000.0 -14646500000.0 -31451800000.0 -14147300000.0 -32077900000.0 -52754900000.0 -16783600000.0 -33111100000.0 -28716000000.0 -18689600000.0 -53575100000.0 -21032000000.0 -12549700000.0 -23010900000.0 -35952900000.0 -12853400000.0 -34427600000.0 -75990900000.0 -64234500000.0 -62826200000.0 -21271900000.0 -31369500000.0 -18659100000.0 -27367900000.0 -26378900000.0 -13157900000.0 -22457700000.0 -17973300000.0 -53938700000.0 -12568900000.0 -50240100000.0 -18602900000.0 -31991500000.0 -30477900000.0 -27775800000.0 -47885900000.0 -14012900000.0 -42268800000.0 -43122100000.0 -42064700000.0 -36119400000.0 -22908300000.0 -50913900000.0 -52295200000.0 -30265500000.0 -51678100000.0 -54158500000.0 -29847700000.0 -44690000000.0 -50140400000.0 -26872300000.0 -52201000000.0 -39965900000.0 -18714100000.0 -15859400000.0 -22400500000.0 -26656300000.0 -22086600000.0 -33466000000.0 -45571700000.0 -30463000000.0 -36084000000.0 -46441000000.0 -36874300000.0 -42479300000.0 -42883100000.0 -33102500000.0 -30251200000.0 -38408400000.0 -26903000000.0 -13606200000.0 -45587900000.0 -36274300000.0 -21714300000.0 -70766600000.0 -33013200000.0 -52059100000.0 -81282800000.0 -20932200000.0 -12833100000.0 -23559700000.0 -31672400000.0 -24317100000.0 -35543000000.0 -40127700000.0 -49210600000.0 -54698000000.0 -35116400000.0 -20524500000.0 -46478300000.0 -48382700000.0 -40075200000.0 -36711900000.0 -15758000000.0 -44712400000.0 -15812800000.0 -15175900000.0 -23682100000.0 -18997600000.0 -38959900000.0 -34438900000.0 -42635700000.0 -40866200000.0 -21302500000.0 -12549700000.0 -54627000000.0 -17095900000.0 -16809300000.0 -12975600000.0 -37910400000.0 -23012800000.0 -17078100000.0 -14461500000.0 -34133500000.0 -39975000000.0 -59218300000.0 -24012400000.0 -45250900000.0 -61003600000.0 -51516500000.0 -34481500000.0 -25654300000.0 -24292600000.0 -26006200000.0 -34348500000.0 -21238500000.0 -30203300000.0 -28655500000.0 -31383800000.0 -12616300000.0 -23730100000.0 -42337000000.0 -33226800000.0 -35237400000.0 -27035600000.0 -21156300000.0 -21664600000.0 -30224900000.0 -56222500000.0 -16419100000.0 -29014100000.0 -23989700000.0 -12933200000.0 -22044300000.0 -23515300000.0 -43143900000.0 -23286800000.0 -30931100000.0 -21952300000.0 -15651400000.0 -41130800000.0 -37150000000.0 -19095300000.0 -20789800000.0 -18730700000.0 -24312900000.0 -25094300000.0 -14956600000.0 -49843100000.0 -17652400000.0 -28976900000.0 -42886400000.0 -26269200000.0 -22731900000.0 -32954500000.0 -46219800000.0 -55918400000.0 -39463600000.0 -54552500000.0 -13391900000.0 -27661500000.0 -63832700000.0 -48164400000.0 -34704400000.0 -60241300000.0 -26501400000.0 -12592300000.0 -17748300000.0 -17592200000.0 -20292400000.0 -31423800000.0 -26418100000.0 -25646600000.0 -19334600000.0 -17733100000.0 -32857100000.0 -29971000000.0 -23468000000.0 -12587200000.0 -12711100000.0 -35918800000.0 -20019900000.0 -16781000000.0 -18858900000.0 -16524000000.0 -17380900000.0 -16564100000.0 -25242300000.0 -31720200000.0 -23239800000.0 -12549700000.0 -32053100000.0 -27911800000.0 -16355000000.0 -12808400000.0 -18205900000.0 -46924800000.0 -28497500000.0 -37069100000.0 -21541500000.0 -35575000000.0 -39763200000.0 -44066600000.0 -43022300000.0 -28995200000.0 -70487300000.0 -41602200000.0 -40072100000.0 -24479000000.0 -26743800000.0 -18954400000.0 -14832100000.0 -13091800000.0 -84265300000.0 -24131700000.0 -27053400000.0 -15446500000.0 -20422500000.0 -18826100000.0 -16920200000.0 -21278800000.0 -13901900000.0 -30438700000.0 -32924600000.0 -15117300000.0 -27688100000.0 -17960200000.0 -19079300000.0 -28391600000.0 -19886100000.0 -23744900000.0 -30137600000.0 -19645800000.0 -13172600000.0 -19343200000.0 -14954900000.0 -19620700000.0 -36333600000.0 -25064000000.0 -14379200000.0 -13342100000.0 -20621700000.0 -40689500000.0 -34018800000.0 -26014000000.0 -17338200000.0 -24622800000.0 -17063900000.0 -18671700000.0 -39819100000.0 -24253800000.0 -25422900000.0 -29622200000.0 -22347000000.0 -36042100000.0 -35972600000.0 -28218300000.0 -43672900000.0 -48274200000.0 -18020400000.0 -29406600000.0 -33605600000.0 -16775100000.0 -40082600000.0 -62493000000.0 -42342200000.0 -27594900000.0 -23385700000.0 -34407300000.0 -37030200000.0 -69583500000.0 -49281500000.0 -37325500000.0 -14751900000.0 -33824700000.0 -24463200000.0 -17122300000.0 -15856200000.0 -16506400000.0 -22724800000.0 -18628800000.0 -18581000000.0 -33941000000.0 -26246800000.0 -23622400000.0 -28314000000.0 -20214200000.0 -18965400000.0 -26261200000.0 -15045000000.0 -12778800000.0 -12549700000.0 -19144900000.0 -17660500000.0 -12647800000.0 -12847000000.0 -18353600000.0 -14057300000.0 -12549700000.0 -19662200000.0 -18870300000.0 -14565900000.0 -28168500000.0 -22510200000.0 -35469000000.0 -27508100000.0 -24951800000.0 -24962800000.0 -18908400000.0 -39656700000.0 -37480200000.0 -26011700000.0 -17740600000.0 -13399700000.0 -39666200000.0 -15202600000.0 -22131700000.0 -75601100000.0 -20378200000.0 -25352600000.0 -27451300000.0 -12919400000.0 -16503100000.0 -12574500000.0 -20610500000.0 -18131300000.0 -12549700000.0 -29691900000.0 -23228000000.0 -17969400000.0 -16200600000.0 -18674700000.0 -17958700000.0 -12549700000.0 -25294900000.0 -25861100000.0 -24258600000.0 -23224200000.0 -17258900000.0 -24927900000.0 -18841400000.0 -12839100000.0 -12746100000.0 -14224200000.0 -12829400000.0 -27645700000.0 -12579700000.0 -12549700000.0 -14636700000.0 -17313000000.0 -13360200000.0 -38470300000.0 -43304200000.0 -26558600000.0 -16154700000.0 -37068800000.0 -13286300000.0 -38063900000.0 -15086300000.0 -37525000000.0 -30506900000.0 -23889100000.0 -19249200000.0 -25914800000.0 -31406700000.0 -45468200000.0 -42396100000.0 -20225800000.0 -20878700000.0 -20551500000.0 -20867300000.0 -13112700000.0 -38069900000.0 -28932400000.0 -12812000000.0 -18294700000.0 -34321500000.0 -24754800000.0 -29584600000.0 -19946700000.0 -21405200000.0 -22380000000.0 -19082700000.0 -17230200000.0 -14523000000.0 -19821400000.0 -19031300000.0 -12549700000.0 -19549600000.0 -14501800000.0 -12549700000.0 -12549700000.0 -13498900000.0 -15706000000.0 -12608700000.0 -12577800000.0 -12549700000.0 -16136400000.0 -15653700000.0 -13148900000.0 -15034700000.0 -13629000000.0 -15105000000.0 -23074900000.0 -19267400000.0 -23873600000.0 -12786600000.0 -25392600000.0 -19213200000.0 -16524900000.0 -12936600000.0 -23943700000.0 -21981100000.0 -25987000000.0 -14163900000.0 -25183000000.0 -42888500000.0 -41723000000.0 -32752200000.0 -32070900000.0 -43680600000.0 -23177300000.0 -17311700000.0 -12993400000.0 -20112800000.0 -20088100000.0 -14798100000.0 -14005200000.0 -20934300000.0 -19464900000.0 -15872400000.0 -15711600000.0 -18276300000.0 -17118500000.0 -21613500000.0 -15406900000.0 -24700000000.0 -15175300000.0 -14252400000.0 -12715100000.0 -12876600000.0 -19841200000.0 -13812600000.0 -12549700000.0 -12701100000.0 -20242000000.0 -13676200000.0 -21889800000.0 -27318800000.0 -33761000000.0 -14246300000.0 -39500000000.0 -17883800000.0 -25123900000.0 -23507200000.0 -20669300000.0 -24224000000.0 -20597300000.0 -18483100000.0 -12549700000.0 -19673900000.0 -22835900000.0 -26697700000.0 -19378600000.0 -19689500000.0 -15283900000.0 -22296700000.0 -17592400000.0 -14794100000.0 -21520400000.0 -16349800000.0 -18259800000.0 -30965100000.0 -19295000000.0 -16961100000.0 -13027200000.0 -15925000000.0 -12549700000.0 -20074600000.0 -15149000000.0 -13163800000.0 -15727300000.0 -12549700000.0 -14546400000.0 -13088800000.0 -12649300000.0 -16382900000.0 -12946800000.0 -12549700000.0 -12555400000.0 -13119800000.0 -14764000000.0 -12558200000.0 -12549700000.0 -15038200000.0 -12549700000.0 -12917100000.0 -13327900000.0 -13142100000.0 -12989400000.0 -14783600000.0 -17043200000.0 -14760900000.0 -13942500000.0 -12624000000.0 -18546500000.0 -16982600000.0 -13388800000.0 -16588700000.0 -15052400000.0 -16345200000.0 -28596200000.0 -25453700000.0 -31950900000.0 -17286000000.0 -15899200000.0 -19828200000.0 -35670100000.0 -30755100000.0 -20270000000.0 -22823300000.0 -15656500000.0 -19320900000.0 -19608800000.0 -15042500000.0 -13598700000.0 -16962100000.0 -16913700000.0 -12831600000.0 -14863600000.0 -16852900000.0 -12712700000.0 -16555400000.0 -14309500000.0 -18399400000.0 -17979000000.0 -21590100000.0 -16211300000.0 -14935200000.0 -14165000000.0 -13174900000.0 -13295400000.0 -14205600000.0 -13891200000.0 -12671800000.0 -17218500000.0 -22288200000.0 -17810800000.0 -16993700000.0 -20564600000.0 -19766700000.0 -14909100000.0 -18472500000.0 -14355700000.0 -19575800000.0 -20345800000.0 -13473800000.0 -16417400000.0 -16495600000.0 -16610300000.0 -14804900000.0 -12863500000.0 -12817300000.0 -17884300000.0 -17827400000.0 -18434100000.0 -13803900000.0 -16356500000.0 -13565300000.0 -13203900000.0 -19432800000.0 -12883600000.0 -17800700000.0 -12740400000.0 -14273200000.0 -13146900000.0 -13338700000.0 -12549700000.0 -13346100000.0 -12714900000.0 -17085000000.0 -14242600000.0 -13799900000.0 -15004200000.0 -13001800000.0 -12931400000.0 -12938700000.0 -12649800000.0 -13029900000.0 -14024600000.0 -13242900000.0 -13518400000.0 -12852400000.0 -13385200000.0 -12848700000.0 -15371200000.0 -13874400000.0 -15780500000.0 -13689600000.0 -13839200000.0 -15622900000.0 -16824500000.0 -19361800000.0 -18602500000.0 -19445800000.0 -14755700000.0 -15492300000.0 -24060900000.0 -23696800000.0 -16437000000.0 -18630500000.0 -18084700000.0 -16989900000.0 -21636100000.0 -12549700000.0 -15817800000.0 -14408200000.0 -12788400000.0 -12830400000.0 -14025900000.0 -13356300000.0 -14649200000.0 -12887000000.0 -15147600000.0 -13038100000.0 -12948700000.0 -13821700000.0 -14829300000.0 -16141500000.0 -12549700000.0 -14028800000.0 -14011800000.0 -13101600000.0 -13052200000.0 -13599800000.0 -12549700000.0 -12980800000.0 -12590800000.0 -12817900000.0 -16047700000.0 -16662700000.0 -13889900000.0 -12549700000.0 -15159700000.0 -14350800000.0 -13674800000.0 -17041100000.0 -13996200000.0 -14273800000.0 -13739500000.0 -14003500000.0 -12733900000.0 -13763000000.0 -13342200000.0 -12991400000.0 -13225300000.0 -12871300000.0 -12857700000.0 -16189200000.0 -14276900000.0 -13989500000.0 -13120000000.0 -13304200000.0 -13116900000.0 -13083200000.0 -12716900000.0 -12702600000.0 -13344100000.0 -13789700000.0 -14332800000.0 -12688200000.0 -12706300000.0 -15552300000.0 -15782000000.0 -14040000000.0 -13629200000.0 -15739300000.0 -13733200000.0 -15148200000.0 -13787400000.0 -13715900000.0 -14059800000.0 -12730900000.0 -12725100000.0 -12904000000.0 -12549700000.0 -13270600000.0 -12960700000.0 -13350700000.0 -13033700000.0 -13055000000.0 -13246200000.0 -12905300000.0 -13606300000.0 -13076600000.0 -13229300000.0 -13184100000.0 -12611700000.0 