# vtk DataFile Version 2.0
Time step 58
ASCII
DATASET UNSTRUCTURED_GRID
POINTS 5000 float
202706.0 263861.0 0
207587.0 261915.0 0
206638.0 266256.0 0
213946.0 263346.0 0
209505.0 265073.0 0
221908.0 265641.0 0
228951.0 265356.0 0
232660.0 263591.0 0
237547.0 265947.0 0
271143.0 265073.0 0
277919.0 263626.0 0
285639.0 266566.0 0
291126.0 264248.0 0
297464.0 262170.0 0
202415.0 268892.0 0
207043.0 270591.0 0
211335.0 268191.0 0
217166.0 268156.0 0
221914.0 271108.0 0
226120.0 268755.0 0
232959.0 266944.0 0
230245.0 269919.0 0
235033.0 270944.0 0
243038.0 267779.0 0
249695.0 268477.0 0
255950.0 267438.0 0
261148.0 269105.0 0
266255.0 267866.0 0
270555.0 269561.0 0
275028.0 269057.0 0
280482.0 269141.0 0
284127.0 271664.0 0
287693.0 271067.0 0
292077.0 269760.0 0
297167.0 267448.0 0
203018.0 274140.0 0
213995.0 272412.0 0
209497.0 275084.0 0
218229.0 274728.0 0
223067.0 276734.0 0
226955.0 273089.0 0
231932.0 274701.0 0
236439.0 275860.0 0
240020.0 272378.0 0
245113.0 272921.0 0
249578.0 273956.0 0
253550.0 273104.0 0
257723.0 271811.0 0
264084.0 272182.0 0
260771.0 274745.0 0
268368.0 272882.0 0
269899.0 276742.0 0
273093.0 273938.0 0
277741.0 273200.0 0
281345.0 273219.0 0
285074.0 275730.0 0
288971.0 274457.0 0
292346.0 276060.0 0
296672.0 273440.0 0
201898.0 278589.0 0
206098.0 278829.0 0
214153.0 277700.0 0
218698.0 279257.0 0
228421.0 278092.0 0
226856.0 281933.0 0
233166.0 278994.0 0
237151.0 280319.0 0
241585.0 277653.0 0
247145.0 277431.0 0
249798.0 281705.0 0
251965.0 277446.0 0
254499.0 281592.0 0
256728.0 277163.0 0
260925.0 279036.0 0
265294.0 276971.0 0
268636.0 280256.0 0
272970.0 279826.0 0
276277.0 277080.0 0
280470.0 276952.0 0
278037.0 281889.0 0
283792.0 280898.0 0
288929.0 278863.0 0
296212.0 280358.0 0
202761.0 282814.0 0
206655.0 286560.0 0
210570.0 282226.0 0
216692.0 284328.0 0
222692.0 282432.0 0
226835.0 286271.0 0
230536.0 282572.0 0
234556.0 283086.0 0
232517.0 287190.0 0
237008.0 285993.0 0
240744.0 283516.0 0
243689.0 287885.0 0
245142.0 281791.0 0
247201.0 286213.0 0
251933.0 285767.0 0
258977.0 282974.0 0
255877.0 285603.0 0
264537.0 283089.0 0
269312.0 285301.0 0
270572.0 282639.0 0
273378.0 284497.0 0
281924.0 285341.0 0
287881.0 283008.0 0
285993.0 286610.0 0
290220.0 285743.0 0
291420.0 282416.0 0
293628.0 285177.0 0
297549.0 286133.0 0
202044.0 287159.0 0
202034.0 290733.0 0
211882.0 287954.0 0
216805.0 290079.0 0
221610.0 287712.0 0
229378.0 290271.0 0
225343.0 291815.0 0
232387.0 291749.0 0
236903.0 291121.0 0
240554.0 287904.0 0
242497.0 291837.0 0
246342.0 290236.0 0
254463.0 289420.0 0
250205.0 289944.0 0
259723.0 288253.0 0
265923.0 289444.0 0
271806.0 288634.0 0
277480.0 288174.0 0
280296.0 292032.0 0
282688.0 289340.0 0
286353.0 290459.0 0
290507.0 289540.0 0
294389.0 288634.0 0
297851.0 290431.0 0
202300.0 294572.0 0
206877.0 292142.0 0
212587.0 293256.0 0
209408.0 296483.0 0
217831.0 296144.0 0
220868.0 292115.0 0
222723.0 295461.0 0
226549.0 297183.0 0
229649.0 294086.0 0
233706.0 295786.0 0
239404.0 296673.0 0
248192.0 293234.0 0
244924.0 296316.0 0
249192.0 296649.0 0
252610.0 294070.0 0
257049.0 292637.0 0
261602.0 293739.0 0
270130.0 292854.0 0
266078.0 295099.0 0
269297.0 296074.0 0
274311.0 292528.0 0
272938.0 296926.0 0
277753.0 292984.0 0
276443.0 295415.0 0
279660.0 295462.0 0
283654.0 293747.0 0
288884.0 293515.0 0
286536.0 297015.0 0
294042.0 293126.0 0
291204.0 297356.0 0
298375.0 293986.0 0
298500.0 296880.0 0
201937.0 298393.0 0
201650.0 301339.0 0
205549.0 297377.0 0
204641.0 301498.0 0
208686.0 301020.0 0
213083.0 298631.0 0
217204.0 302257.0 0
222235.0 299791.0 0
226541.0 302213.0 0
230538.0 299518.0 0
235154.0 300415.0 0
239409.0 301631.0 0
243438.0 300876.0 0
247645.0 300586.0 0
252405.0 299496.0 0
257229.0 297566.0 0
259568.0 301350.0 0
262918.0 298883.0 0
268102.0 299813.0 0
272660.0 301422.0 0
277264.0 299363.0 0
282347.0 298915.0 0
287958.0 301272.0 0
295382.0 297465.0 0
293464.0 301418.0 0
297871.0 300266.0 0
202338.0 304632.0 0
205848.0 305255.0 0
212825.0 302648.0 0
209899.0 305639.0 0
213933.0 305621.0 0
221910.0 304652.0 0
226196.0 307018.0 0
231718.0 304957.0 0
236929.0 304946.0 0
241958.0 305784.0 0
245916.0 303981.0 0
250595.0 305049.0 0
255828.0 303296.0 0
264808.0 303175.0 0
260658.0 305263.0 0
269265.0 304796.0 0
272916.0 307347.0 0
279781.0 303461.0 0
275615.0 303771.0 0
283643.0 303130.0 0
286081.0 305751.0 0
290040.0 305521.0 0
294375.0 305513.0 0
297841.0 304074.0 0
202727.0 308771.0 0
201741.0 312296.0 0
207158.0 309234.0 0
205238.0 312455.0 0
211943.0 309480.0 0
217172.0 307722.0 0
214875.0 310855.0 0
221808.0 309722.0 0
226412.0 312348.0 0
229769.0 309590.0 0
233527.0 310096.0 0
237760.0 309726.0 0
242518.0 310932.0 0
246194.0 307776.0 0
246385.0 311843.0 0
250219.0 310540.0 0
255862.0 309661.0 0
261273.0 310085.0 0
265388.0 307914.0 0
269433.0 310150.0 0
273848.0 312364.0 0
277471.0 307807.0 0
278914.0 312108.0 0
282432.0 307732.0 0
283685.0 312635.0 0
286912.0 309109.0 0
292053.0 310221.0 0
297301.0 308705.0 0
202587.0 315710.0 0
208918.0 312778.0 0
206605.0 315795.0 0
212805.0 313454.0 0
210475.0 316385.0 0
217344.0 313197.0 0
214621.0 316985.0 0
221967.0 314898.0 0
225661.0 316862.0 0
231198.0 313446.0 0
235365.0 314386.0 0
239596.0 314710.0 0
244337.0 315896.0 0
249048.0 315265.0 0
252797.0 314198.0 0
260110.0 313749.0 0
256637.0 316829.0 0
264597.0 313246.0 0
261779.0 317421.0 0
265542.0 317570.0 0
269127.0 314769.0 0
280560.0 315830.0 0
276738.0 316716.0 0
282929.0 317358.0 0
288341.0 313419.0 0
285776.0 316724.0 0
292112.0 315450.0 0
296480.0 314252.0 0
203009.0 320108.0 0
207875.0 319919.0 0
212551.0 320383.0 0
218546.0 318224.0 0
216175.0 320639.0 0
222758.0 319826.0 0
219553.0 322418.0 0
228683.0 316235.0 0
227665.0 320742.0 0
232185.0 318085.0 0
232045.0 322835.0 0
236969.0 319769.0 0
240999.0 318450.0 0
241097.0 321578.0 0
244015.0 320547.0 0
247737.0 319505.0 0
246564.0 322814.0 0
251900.0 318920.0 0
259548.0 320979.0 0
264000.0 322296.0 0
268556.0 319892.0 0
272605.0 317865.0 0
271886.0 322636.0 0
275559.0 321517.0 0
279927.0 320515.0 0
285281.0 321486.0 0
289454.0 318435.0 0
293553.0 319156.0 0
297449.0 319168.0 0
202572.0 324722.0 0
206225.0 324480.0 0
210602.0 324414.0 0
215687.0 325017.0 0
223741.0 323940.0 0
220457.0 326751.0 0
227964.0 325487.0 0
224701.0 327739.0 0
231782.0 327929.0 0
235978.0 325200.0 0
239941.0 324574.0 0
243462.0 324085.0 0
246812.0 326902.0 0
250092.0 323270.0 0
255149.0 323215.0 0
259868.0 325235.0 0
262956.0 326892.0 0
268064.0 323437.0 0
266416.0 326615.0 0
270320.0 326408.0 0
274654.0 326079.0 0
277705.0 324175.0 0
278631.0 327749.0 0
281710.0 325128.0 0
290643.0 323277.0 0
286458.0 327024.0 0
292008.0 327808.0 0
296286.0 324133.0 0
202775.0 328910.0 0
201519.0 332388.0 0
207765.0 328587.0 0
205772.0 332736.0 0
212259.0 328708.0 0
209837.0 331666.0 0
213221.0 332024.0 0
217048.0 330065.0 0
222294.0 331068.0 0
228010.0 330640.0 0
233137.0 333060.0 0
235533.0 329452.0 0
238863.0 328767.0 0
237279.0 332350.0 0
242375.0 328027.0 0
240721.0 332457.0 0
244670.0 331316.0 0
248401.0 331269.0 0
251851.0 328212.0 0
254681.0 332095.0 0
256839.0 328585.0 0
260613.0 330015.0 0
264836.0 330740.0 0
268384.0 329614.0 0
271948.0 329801.0 0
273260.0 332704.0 0
275805.0 330386.0 0
279976.0 331580.0 0
282312.0 328821.0 0
284262.0 331967.0 0
288630.0 330773.0 0
292500.0 332027.0 0
297032.0 329321.0 0
201970.0 335289.0 0
204846.0 336451.0 0
207693.0 335834.0 0
210860.0 335238.0 0
215653.0 334620.0 0
219253.0 333882.0 0
214672.0 338093.0 0
219101.0 338057.0 0
222539.0 336122.0 0
225544.0 334135.0 0
226160.0 338113.0 0
229635.0 335561.0 0
233733.0 337634.0 0
237439.0 336190.0 0
240986.0 336316.0 0
243480.0 334937.0 0
246850.0 334875.0 0
248720.0 338125.0 0
251307.0 334187.0 0
257768.0 333083.0 0
255296.0 335755.0 0
258481.0 336917.0 0
261054.0 333990.0 0
264577.0 334885.0 0
268930.0 333698.0 0
272687.0 335693.0 0
276698.0 334681.0 0
280897.0 335381.0 0
284176.0 335604.0 0
288296.0 334948.0 0
286004.0 338433.0 0
292340.0 336581.0 0
296719.0 334281.0 0
197272.0 340498.0 0
202706.0 339353.0 0
202119.0 343538.0 0
207290.0 338887.0 0
205391.0 342086.0 0
208661.0 343145.0 0
211059.0 339847.0 0
214194.0 342093.0 0
217127.0 341195.0 0
222947.0 340148.0 0
220347.0 342549.0 0
226993.0 342332.0 0
230252.0 339734.0 0
233328.0 341537.0 0
236633.0 340704.0 0
240381.0 339774.0 0
244283.0 338467.0 0
242863.0 342886.0 0
246612.0 341847.0 0
252694.0 338276.0 0
250609.0 341466.0 0
253505.0 341548.0 0
256049.0 339537.0 0
259151.0 341019.0 0
261811.0 338190.0 0
263248.0 342444.0 0
266069.0 338308.0 0
269916.0 338644.0 0
267353.0 341970.0 0
274059.0 339074.0 0
270953.0 343066.0 0
275221.0 342558.0 0
277975.0 338809.0 0
282113.0 339543.0 0
285692.0 342131.0 0
289643.0 340217.0 0
293154.0 339426.0 0
293928.0 342340.0 0
296922.0 339072.0 0
297703.0 343431.0 0
202260.0 347184.0 0
205393.0 345455.0 0
206279.0 348509.0 0
209120.0 346532.0 0
212140.0 344120.0 0
212943.0 347387.0 0
216845.0 345477.0 0
223685.0 344459.0 0
220831.0 345928.0 0
223873.0 347875.0 0
227805.0 346753.0 0
230856.0 343874.0 0
234698.0 344910.0 0
231527.0 346681.0 0
233839.0 348459.0 0
238941.0 344537.0 0
237084.0 348567.0 0
242349.0 346449.0 0
249040.0 344653.0 0
245684.0 346252.0 0
249446.0 347945.0 0
252024.0 344737.0 0
256133.0 344290.0 0
260093.0 345764.0 0
263916.0 346889.0 0
266772.0 345266.0 0
269639.0 347468.0 0
274157.0 346667.0 0
279125.0 343640.0 0
277807.0 347558.0 0
283002.0 343479.0 0
284209.0 346276.0 0
281131.0 347194.0 0
287396.0 344879.0 0
290630.0 344132.0 0
289913.0 347753.0 0
293917.0 346611.0 0
297761.0 346884.0 0
203083.0 351283.0 0
207695.0 352175.0 0
209903.0 349527.0 0
212753.0 350696.0 0
211300.0 353650.0 0
216725.0 350316.0 0
220396.0 349034.0 0
220077.0 354132.0 0
222755.0 351406.0 0
226446.0 351017.0 0
230753.0 350615.0 0
235074.0 352200.0 0
238498.0 352596.0 0
240599.0 349042.0 0
244139.0 349408.0 0
242285.0 352646.0 0
247128.0 349734.0 0
246073.0 352619.0 0
253475.0 348863.0 0
250261.0 352744.0 0
257547.0 349519.0 0
261580.0 350198.0 0
264158.0 353048.0 0
266049.0 349359.0 0
268511.0 351390.0 0
271946.0 350690.0 0
275674.0 350649.0 0
279749.0 350740.0 0
277340.0 353628.0 0
283136.0 349286.0 0
283268.0 352620.0 0
286684.0 349399.0 0
295122.0 350387.0 0
291363.0 351133.0 0
294887.0 353900.0 0
298398.0 349726.0 0
297915.0 352597.0 0
302750.0 354231.0 0
202003.0 355011.0 0
202875.0 358654.0 0
205881.0 355557.0 0
209909.0 357174.0 0
213885.0 358060.0 0
215397.0 354505.0 0
217990.0 357502.0 0
224483.0 354771.0 0
222290.0 358012.0 0
228603.0 354969.0 0
225882.0 357445.0 0
232691.0 358008.0 0
232370.0 354508.0 0
236258.0 356437.0 0
244454.0 355722.0 0
240288.0 356650.0 0
247877.0 356518.0 0
254931.0 353673.0 0
252026.0 357103.0 0
255267.0 357687.0 0
258795.0 353006.0 0
257681.0 356006.0 0
261092.0 355282.0 0
264118.0 357526.0 0
267364.0 354672.0 0
268124.0 358005.0 0
270896.0 354288.0 0
274120.0 353947.0 0
271940.0 357773.0 0
280053.0 355204.0 0
275814.0 357046.0 0
278152.0 358163.0 0
280353.0 358329.0 0
284185.0 356851.0 0
287461.0 353612.0 0
287971.0 358831.0 0
291494.0 355823.0 0
295163.0 357423.0 0
297994.0 355535.0 0
297922.0 358646.0 0
304194.0 360001.0 0
202265.0 362136.0 0
206856.0 359944.0 0
205750.0 362758.0 0
211153.0 362035.0 0
215968.0 361017.0 0
219557.0 359982.0 0
218750.0 363494.0 0
221520.0 361975.0 0
229011.0 358801.0 0
225727.0 361876.0 0
235273.0 360935.0 0
231434.0 361667.0 0
238441.0 360172.0 0
237335.0 363957.0 0
243840.0 360367.0 0
240285.0 363151.0 0
249058.0 360537.0 0
253017.0 361998.0 0
256022.0 360236.0 0
259710.0 359601.0 0
263234.0 361434.0 0
265957.0 360496.0 0
266107.0 364477.0 0
269380.0 361575.0 0
274209.0 362070.0 0
277999.0 360808.0 0
282535.0 360377.0 0
280102.0 362604.0 0
285181.0 362195.0 0
288849.0 362668.0 0
292591.0 360355.0 0
296913.0 362077.0 0
202949.0 369954.0 0
203062.0 365880.0 0
208388.0 365591.0 0
213460.0 368531.0 0
212153.0 366226.0 0
215804.0 368269.0 0
214906.0 364933.0 0
218914.0 367266.0 0
222112.0 365058.0 0
222767.0 368815.0 0
225676.0 367060.0 0
229690.0 364791.0 0
229640.0 368256.0 0
233821.0 365272.0 0
232717.0 369223.0 0
239834.0 366909.0 0
236861.0 367696.0 0
243771.0 365782.0 0
242474.0 369464.0 0
245641.0 369692.0 0
247338.0 364075.0 0
247614.0 367366.0 0
250392.0 365357.0 0
253377.0 367273.0 0
257456.0 364825.0 0
261917.0 365012.0 0
263115.0 368831.0 0
267026.0 368738.0 0
270587.0 365902.0 0
273711.0 366924.0 0
276914.0 365892.0 0
281762.0 366521.0 0
288618.0 367094.0 0
285994.0 365312.0 0
291968.0 364146.0 0
295092.0 365451.0 0
292814.0 368192.0 0
298167.0 365809.0 0
197682.0 372162.0 0
200488.0 377497.0 0
198347.0 378706.0 0
202280.0 375274.0 0
201532.0 372761.0 0
207275.0 375444.0 0
204783.0 373220.0 0
206787.0 369299.0 0
208229.0 372427.0 0
210873.0 369215.0 0
211901.0 372504.0 0
215250.0 371626.0 0
219266.0 371742.0 0
223894.0 372607.0 0
227090.0 370993.0 0
226883.0 374328.0 0
230378.0 372629.0 0
235605.0 370743.0 0
233581.0 374148.0 0
239411.0 371208.0 0
237186.0 374536.0 0
243290.0 373569.0 0
247322.0 372856.0 0
249978.0 374574.0 0
250022.0 369856.0 0
252389.0 372941.0 0
254911.0 370488.0 0
258760.0 369595.0 0
256711.0 373359.0 0
261037.0 372560.0 0
264561.0 372687.0 0
268683.0 373038.0 0
271507.0 369773.0 0
272840.0 374167.0 0
275259.0 370306.0 0
279036.0 370105.0 0
276724.0 373838.0 0
284279.0 370005.0 0
280839.0 373759.0 0
285201.0 374513.0 0
289389.0 372250.0 0
296775.0 369489.0 0
293890.0 373403.0 0
297817.0 373739.0 0
299828.0 377247.0 0
302473.0 378858.0 0
191606.0 382751.0 0
196246.0 380020.0 0
194085.0 381767.0 0
195529.0 384130.0 0
198327.0 383638.0 0
202129.0 379482.0 0
199600.0 381510.0 0
202883.0 381167.0 0
201827.0 382815.0 0
205045.0 377787.0 0
204836.0 381571.0 0
207235.0 380480.0 0
211155.0 375503.0 0
209488.0 378091.0 0
212083.0 380565.0 0
213636.0 377680.0 0
215148.0 375344.0 0
216428.0 378898.0 0
217843.0 375761.0 0
219472.0 379424.0 0
221370.0 376050.0 0
225005.0 377045.0 0
228991.0 375859.0 0
227716.0 379039.0 0
231566.0 377220.0 0
234193.0 377321.0 0
233825.0 380666.0 0
240260.0 375713.0 0
236980.0 378135.0 0
239630.0 378682.0 0
243002.0 378372.0 0
246761.0 376998.0 0
250633.0 377936.0 0
254268.0 376167.0 0
259026.0 375359.0 0
257119.0 379076.0 0
263234.0 376277.0 0
261041.0 379824.0 0
266181.0 375720.0 0
265639.0 378604.0 0
268114.0 377399.0 0
270889.0 377170.0 0
273325.0 380512.0 0
274203.0 377373.0 0
276683.0 376650.0 0
279086.0 377853.0 0
282668.0 377664.0 0
285554.0 377890.0 0
289035.0 377545.0 0
291625.0 381290.0 0
292735.0 377862.0 0
294517.0 380259.0 0
293363.0 383852.0 0
296694.0 377368.0 0
300834.0 380839.0 0
298042.0 380537.0 0
304926.0 380956.0 0
302862.0 383176.0 0
301109.0 384567.0 0
307472.0 382658.0 0
310069.0 384273.0 0
181599.0 388730.0 0
184573.0 387972.0 0
187207.0 386380.0 0
189457.0 384587.0 0
191860.0 385579.0 0
189481.0 388643.0 0
192038.0 388350.0 0
194328.0 386548.0 0
199086.0 386159.0 0
196558.0 388020.0 0
198910.0 388913.0 0
202349.0 385344.0 0
205069.0 384033.0 0
207773.0 385227.0 0
209262.0 382332.0 0
211062.0 386148.0 0
212584.0 383826.0 0
214984.0 384868.0 0
215234.0 381112.0 0
216327.0 383047.0 0
218939.0 383005.0 0
222370.0 383912.0 0
223217.0 380465.0 0
226002.0 381536.0 0
230505.0 380749.0 0
228394.0 383896.0 0
232036.0 384669.0 0
234905.0 383946.0 0
237422.0 381962.0 0
240531.0 381658.0 0
238022.0 385093.0 0
240759.0 385562.0 0
244138.0 383193.0 0
246402.0 380573.0 0
248953.0 381270.0 0
248641.0 385304.0 0
253773.0 380170.0 0
251716.0 381751.0 0
252642.0 384322.0 0
256085.0 383649.0 0
259021.0 382545.0 0
259174.0 385273.0 0
264148.0 381531.0 0
261145.0 383884.0 0
262959.0 385503.0 0
267951.0 381501.0 0
265309.0 384260.0 0
270683.0 379799.0 0
270936.0 383174.0 0
276712.0 380583.0 0
273498.0 383408.0 0
276466.0 383873.0 0
279656.0 384761.0 0
281123.0 381302.0 0
284833.0 382242.0 0
282653.0 386110.0 0
289230.0 385336.0 0
288435.0 381948.0 0
292118.0 386684.0 0
295324.0 387618.0 0
296550.0 383343.0 0
298478.0 386110.0 0
305440.0 385142.0 0
302113.0 387182.0 0
304404.0 387629.0 0
309156.0 386733.0 0
307337.0 388363.0 0
310969.0 388371.0 0
312851.0 385597.0 0
314657.0 387535.0 0
313562.0 390009.0 0
317405.0 388541.0 0
319684.0 389608.0 0
177624.0 391483.0 0
175848.0 393275.0 0
173108.0 393879.0 0
179609.0 390067.0 0
179347.0 394079.0 0
181447.0 392399.0 0
187722.0 390682.0 0
184383.0 391270.0 0
185652.0 394141.0 0
190549.0 390771.0 0
193271.0 390382.0 0
192256.0 392748.0 0
189062.0 393278.0 0
195660.0 390432.0 0
197195.0 392479.0 0
202665.0 388676.0 0
200548.0 392033.0 0
206368.0 389345.0 0
204648.0 393412.0 0
209744.0 390644.0 0
213060.0 388649.0 0
215487.0 387381.0 0
217595.0 391094.0 0
214266.0 391488.0 0
219226.0 387067.0 0
222365.0 388808.0 0
225124.0 385863.0 0
224485.0 391223.0 0
227196.0 388813.0 0
229581.0 386888.0 0
229801.0 391651.0 0
231388.0 388422.0 0
235346.0 388132.0 0
239164.0 388628.0 0
242340.0 389016.0 0
244956.0 387355.0 0
247511.0 390065.0 0
251940.0 388109.0 0
255971.0 387917.0 0
259868.0 388659.0 0
264525.0 388835.0 0
268121.0 386205.0 0
271601.0 386214.0 0
268956.0 390578.0 0
271711.0 389427.0 0
274944.0 387341.0 0
278603.0 388418.0 0
281892.0 389216.0 0
284641.0 390148.0 0
285738.0 386609.0 0
287471.0 391469.0 0
288485.0 388572.0 0
290854.0 392565.0 0
291399.0 389372.0 0
294559.0 389804.0 0
294094.0 392819.0 0
299475.0 388789.0 0
297647.0 390687.0 0
300586.0 392642.0 0
303853.0 390243.0 0
305464.0 393273.0 0
301494.0 390535.0 0
308091.0 391183.0 0
311044.0 391876.0 0
315329.0 392471.0 0
316339.0 394729.0 0
317206.0 391362.0 0
321542.0 391530.0 0
319249.0 392895.0 0
318548.0 394930.0 0
323956.0 392326.0 0
325886.0 393741.0 0
322154.0 395038.0 0
328019.0 394820.0 0
164680.0 399466.0 0
166393.0 398222.0 0
171219.0 395871.0 0
168553.0 396925.0 0
169119.0 399424.0 0
172790.0 397852.0 0
175880.0 396101.0 0
178110.0 397659.0 0
181194.0 397995.0 0
182405.0 395261.0 0
184573.0 398928.0 0
186149.0 396767.0 0
189656.0 395685.0 0
191987.0 396439.0 0
188684.0 397874.0 0
191615.0 398245.0 0
194203.0 394602.0 0
196578.0 397039.0 0
200304.0 395770.0 0
203526.0 396599.0 0
207208.0 394285.0 0
206175.0 398007.0 0
211224.0 393700.0 0
208563.0 396789.0 0
213402.0 396123.0 0
216349.0 394602.0 0
220735.0 392933.0 0
223136.0 395306.0 0
226077.0 396277.0 0
226717.0 393156.0 0
228993.0 395925.0 0
231274.0 395928.0 0
233349.0 393024.0 0
234501.0 396820.0 0
237290.0 392709.0 0
240538.0 392364.0 0
237588.0 396190.0 0
244675.0 392967.0 0
240912.0 396317.0 0
247842.0 394585.0 0
250826.0 392173.0 0
253622.0 395459.0 0
250633.0 396792.0 0
255143.0 391865.0 0
258082.0 392876.0 0
256394.0 396192.0 0
262206.0 393246.0 0
266251.0 392960.0 0
267403.0 396107.0 0
271218.0 394887.0 0
273995.0 391768.0 0
278011.0 396526.0 0
277464.0 392516.0 0
275014.0 396168.0 0
280709.0 395600.0 0
281223.0 392460.0 0
283631.0 393114.0 0
286364.0 395024.0 0
283027.0 396913.0 0
290119.0 396407.0 0
293679.0 396072.0 0
297670.0 393841.0 0
296537.0 396660.0 0
300091.0 396170.0 0
300124.0 398579.0 0
303036.0 395092.0 0
302751.0 398515.0 0
305493.0 397966.0 0
308362.0 396214.0 0
312104.0 394764.0 0
309625.0 398669.0 0
312153.0 399834.0 0
314068.0 397098.0 0
316728.0 398816.0 0
319937.0 397841.0 0
324979.0 396892.0 0
322801.0 399238.0 0
329806.0 396050.0 0
331832.0 397511.0 0
327394.0 398759.0 0
334002.0 399396.0 0
156404.0 405309.0 0
161052.0 402698.0 0
158463.0 403451.0 0
162571.0 400574.0 0
165306.0 401644.0 0
167081.0 400961.0 0
164117.0 404071.0 0
169993.0 401577.0 0
167916.0 402950.0 0
172449.0 403429.0 0
173624.0 400329.0 0
176531.0 400475.0 0
174993.0 404797.0 0
177798.0 402856.0 0
180681.0 401385.0 0
179062.0 405053.0 0
182736.0 403383.0 0
185377.0 401768.0 0
191661.0 400796.0 0
188488.0 400625.0 0
192140.0 403728.0 0
194856.0 399643.0 0
195729.0 402677.0 0
199483.0 399402.0 0
202676.0 399661.0 0
198872.0 402253.0 0
201989.0 402545.0 0
205814.0 400871.0 0
208643.0 401514.0 0
210392.0 399228.0 0
214601.0 400518.0 0
218446.0 397346.0 0
218951.0 401548.0 0
221773.0 399041.0 0
225686.0 400049.0 0
229165.0 399570.0 0
231969.0 398319.0 0
232994.0 400430.0 0
236033.0 400168.0 0
239777.0 400210.0 0
244223.0 397120.0 0
243343.0 400425.0 0
246036.0 400057.0 0
247454.0 397878.0 0
249569.0 400887.0 0
253702.0 400062.0 0
257711.0 400560.0 0
259709.0 397306.0 0
263047.0 399860.0 0
264337.0 396605.0 0
267260.0 399505.0 0
271189.0 399509.0 0
274942.0 399170.0 0
278376.0 399737.0 0
281549.0 400018.0 0
284403.0 401770.0 0
285898.0 398978.0 0
289008.0 399881.0 0
287327.0 402620.0 0
292022.0 402799.0 0
293535.0 399282.0 0
297048.0 399775.0 0
296070.0 403140.0 0
300484.0 401914.0 0
305676.0 400678.0 0
303409.0 402187.0 0
308134.0 400982.0 0
309999.0 403075.0 0
313134.0 402166.0 0
316145.0 401517.0 0
317013.0 404195.0 0
319717.0 401438.0 0
321679.0 402103.0 0
321795.0 404016.0 0
319516.0 404254.0 0
323712.0 401644.0 0
326233.0 401412.0 0
324330.0 404734.0 0
330510.0 400384.0 0
327584.0 404432.0 0
330617.0 403370.0 0
336380.0 400817.0 0
333994.0 403020.0 0
338590.0 402633.0 0
341533.0 403052.0 0
151744.0 407829.0 0
148554.0 410382.0 0
154200.0 406487.0 0
155317.0 409017.0 0
158516.0 407001.0 0
161416.0 406190.0 0
158064.0 409426.0 0
161928.0 409454.0 0
166798.0 405878.0 0
165581.0 409580.0 0
170427.0 406042.0 0
172122.0 409062.0 0
176238.0 406694.0 0
174932.0 408814.0 0
177122.0 410035.0 0
179041.0 407982.0 0
185673.0 406082.0 0
182404.0 406460.0 0
183606.0 409854.0 0
186531.0 409404.0 0
188076.0 404356.0 0
189484.0 407413.0 0
192908.0 406739.0 0
196022.0 405939.0 0
196780.0 408553.0 0
199076.0 405304.0 0
201024.0 407552.0 0
204320.0 404502.0 0
204447.0 408851.0 0
207660.0 405284.0 0
211964.0 404849.0 0
215250.0 407214.0 0
217292.0 403635.0 0
219556.0 406656.0 0
221321.0 403104.0 0
224598.0 403616.0 0
223620.0 407213.0 0
227225.0 407266.0 0
227736.0 403836.0 0
230398.0 407179.0 0
230651.0 402964.0 0
233885.0 406466.0 0
234281.0 403189.0 0
236957.0 406348.0 0
236524.0 403552.0 0
239323.0 404124.0 0
243257.0 404732.0 0
246370.0 402596.0 0
248893.0 405114.0 0
252924.0 405237.0 0
256829.0 404537.0 0
260902.0 403312.0 0
263255.0 407035.0 0
265903.0 403509.0 0
269493.0 403206.0 0
272599.0 403691.0 0
270348.0 406392.0 0
274579.0 402154.0 0
274361.0 406708.0 0
277717.0 403958.0 0
281402.0 404275.0 0
284354.0 404789.0 0
285349.0 407886.0 0
287074.0 405245.0 0
290308.0 406125.0 0
292905.0 408155.0 0
294894.0 406209.0 0
298794.0 404775.0 0
297509.0 408399.0 0
301726.0 406008.0 0
301169.0 408189.0 0
304684.0 405555.0 0
305823.0 409002.0 0
307471.0 404378.0 0
311322.0 405963.0 0
309370.0 407659.0 0
314120.0 405221.0 0
314907.0 408344.0 0
320468.0 406659.0 0
318128.0 408117.0 0
323358.0 407533.0 0
326313.0 409126.0 0
332259.0 406293.0 0
328322.0 407383.0 0
331439.0 408807.0 0
335266.0 405452.0 0
336148.0 408237.0 0
338553.0 405773.0 0
341524.0 407978.0 0
339093.0 409805.0 0
343403.0 405549.0 0
346335.0 406004.0 0
346130.0 408726.0 0
348592.0 407653.0 0
350846.0 409931.0 0
141033.0 414793.0 0
146348.0 412504.0 0
143478.0 413566.0 0
150432.0 413598.0 0
151732.0 410724.0 0
154050.0 412600.0 0
157584.0 412064.0 0
159054.0 414064.0 0
161595.0 412520.0 0
165521.0 413366.0 0
163060.0 414360.0 0
169233.0 410681.0 0
169530.0 413418.0 0
173421.0 412808.0 0
176531.0 413042.0 0
180554.0 410728.0 0
179947.0 414328.0 0
183914.0 413124.0 0
186609.0 413935.0 0
189443.0 411266.0 0
191272.0 414166.0 0
193274.0 409859.0 0
194660.0 412531.0 0
197433.0 411093.0 0
200223.0 411320.0 0
203401.0 412099.0 0
207392.0 409197.0 0
206156.0 412216.0 0
208817.0 412522.0 0
210449.0 409326.0 0
210736.0 412977.0 0
212687.0 410245.0 0
213181.0 413081.0 0
215702.0 410876.0 0
219640.0 411003.0 0
223729.0 410729.0 0
227168.0 411243.0 0
230894.0 410908.0 0
234475.0 409967.0 0
237842.0 409251.0 0
240411.0 407613.0 0
239611.0 412342.0 0
241627.0 409660.0 0
245785.0 408515.0 0
247754.0 412944.0 0
250277.0 409536.0 0
253376.0 409944.0 0
259244.0 407611.0 0
256042.0 408673.0 0
257740.0 412342.0 0
261705.0 411212.0 0
265656.0 411030.0 0
267300.0 407592.0 0
268905.0 412043.0 0
269595.0 409733.0 0
272334.0 409465.0 0
275482.0 411479.0 0
278255.0 409059.0 0
282004.0 408158.0 0
282938.0 411934.0 0
285303.0 410829.0 0
287686.0 412467.0 0
288840.0 409345.0 0
292323.0 410980.0 0
295464.0 410902.0 0
295691.0 413762.0 0
299545.0 411458.0 0
302982.0 410874.0 0
306171.0 413873.0 0
308244.0 412057.0 0
310724.0 410352.0 0
310025.0 414560.0 0
312455.0 414035.0 0
313880.0 411300.0 0
317087.0 412042.0 0
319481.0 410778.0 0
321002.0 414348.0 0
322238.0 410161.0 0
326881.0 412075.0 0
323969.0 412767.0 0
329837.0 410740.0 0
332054.0 413370.0 0
335093.0 411352.0 0
337918.0 413576.0 0
341017.0 413604.0 0
343002.0 411117.0 0
345380.0 412668.0 0
348266.0 411358.0 0
349298.0 414887.0 0
352496.0 414879.0 0
353400.0 411684.0 0
356332.0 412304.0 0
358023.0 414542.0 0
131084.0 420992.0 0
136661.0 417042.0 0
134322.0 417976.0 0
132638.0 419176.0 0
138764.0 416071.0 0
136493.0 420237.0 0
139848.0 420559.0 0
141601.0 418496.0 0
144438.0 420861.0 0
144398.0 417802.0 0
147590.0 416483.0 0
150519.0 416369.0 0
147517.0 419843.0 0
150813.0 420303.0 0
153802.0 415954.0 0
153357.0 419405.0 0
156741.0 416524.0 0
160743.0 416116.0 0
158728.0 418963.0 0
166480.0 416060.0 0
163068.0 417120.0 0
165113.0 419606.0 0
169692.0 416056.0 0
168802.0 419749.0 0
172815.0 416372.0 0
175525.0 416915.0 0
178205.0 417478.0 0
181367.0 419636.0 0
182581.0 416947.0 0
185478.0 417675.0 0
188773.0 416091.0 0
187467.0 419432.0 0
190050.0 418395.0 0
192639.0 416546.0 0
193744.0 418759.0 0
196228.0 415342.0 0
196757.0 418638.0 0
199634.0 415097.0 0
199714.0 418802.0 0
203175.0 415461.0 0
202846.0 418787.0 0
206894.0 415383.0 0
206053.0 418728.0 0
210027.0 416380.0 0
213837.0 416767.0 0
217152.0 414302.0 0
217127.0 418797.0 0
219628.0 416659.0 0
221814.0 414121.0 0
225028.0 415008.0 0
229324.0 416023.0 0
232862.0 413527.0 0
233685.0 416912.0 0
236112.0 413440.0 0
237228.0 417315.0 0
243677.0 412794.0 0
240687.0 416379.0 0
245356.0 416378.0 0
248856.0 416561.0 0
250775.0 413196.0 0
254124.0 413130.0 0
252444.0 417480.0 0
260822.0 415046.0 0
263905.0 414993.0 0
267029.0 414512.0 0
270225.0 416934.0 0
272254.0 413382.0 0
276422.0 415765.0 0
279831.0 413395.0 0
282185.0 416826.0 0
285430.0 415200.0 0
291003.0 413924.0 0
288581.0 416199.0 0
290514.0 418277.0 0
293590.0 416536.0 0
296994.0 417739.0 0
298507.0 413684.0 0
302947.0 414186.0 0
300090.0 416141.0 0
304089.0 417731.0 0
308053.0 417454.0 0
311812.0 418382.0 0
317309.0 415675.0 0
313850.0 416490.0 0
314751.0 419640.0 0
318256.0 419014.0 0
326108.0 416908.0 0
323180.0 416921.0 0
326484.0 420170.0 0
329171.0 415306.0 0
331421.0 418360.0 0
334266.0 415473.0 0
334763.0 417806.0 0
338145.0 416999.0 0
342647.0 416074.0 0
341228.0 418429.0 0
346113.0 415876.0 0
346355.0 418669.0 0
350978.0 418101.0 0
349796.0 420477.0 0
355361.0 416694.0 0
358660.0 419173.0 0
354961.0 419640.0 0
360446.0 415948.0 0
362727.0 417206.0 0
365282.0 417511.0 0
366700.0 419007.0 0
368082.0 420829.0 0
125976.0 423438.0 0
124011.0 425867.0 0
129185.0 422989.0 0
131033.0 425230.0 0
134239.0 421825.0 0
133769.0 424145.0 0
136401.0 424770.0 0
137599.0 423291.0 0
140879.0 423717.0 0
144803.0 423855.0 0
148826.0 422745.0 0
155819.0 421450.0 0
152644.0 423531.0 0
161206.0 420618.0 0
157457.0 424231.0 0
161076.0 424269.0 0
164842.0 423395.0 0
172080.0 420165.0 0
168588.0 422891.0 0
171722.0 423531.0 0
175071.0 420423.0 0
174902.0 424190.0 0
178199.0 420573.0 0
178296.0 424406.0 0
181030.0 421981.0 0
181937.0 424788.0 0
184228.0 421507.0 0
187592.0 422621.0 0
191482.0 421597.0 0
195623.0 421732.0 0
199185.0 422173.0 0
202341.0 422235.0 0
204954.0 421511.0 0
208971.0 420619.0 0
212679.0 420907.0 0
215813.0 423515.0 0
215901.0 421422.0 0
219934.0 421989.0 0
222741.0 418499.0 0
223854.0 422578.0 0
226062.0 419462.0 0
229373.0 421377.0 0
232591.0 419908.0 0
235842.0 421061.0 0
239443.0 420615.0 0
242020.0 423027.0 0
243181.0 419805.0 0
245355.0 423423.0 0
247470.0 420284.0 0
250598.0 420505.0 0
253155.0 422002.0 0
257319.0 418160.0 0
260728.0 422633.0 0
262152.0 418348.0 0
264066.0 421671.0 0
266058.0 418624.0 0
269495.0 421578.0 0
273864.0 418873.0 0
277141.0 420969.0 0
279440.0 418964.0 0
281891.0 422560.0 0
284658.0 420171.0 0
287538.0 418724.0 0
287881.0 423009.0 0
291297.0 421467.0 0
294355.0 420138.0 0
296858.0 422862.0 0
299451.0 419740.0 0
300234.0 423029.0 0
302726.0 420869.0 0
305825.0 422204.0 0
308127.0 420902.0 0
311584.0 421230.0 0
309653.0 424037.0 0
314421.0 422752.0 0
321742.0 419805.0 0
317737.0 421866.0 0
320891.0 422831.0 0
324460.0 421413.0 0
327404.0 424637.0 0
328924.0 420298.0 0
330278.0 423234.0 0
336037.0 420662.0 0
333351.0 422290.0 0
337843.0 424491.0 0
335123.0 425235.0 0
339024.0 421194.0 0
342657.0 423636.0 0
343855.0 420711.0 0
346963.0 422645.0 0
346761.0 425193.0 0
351743.0 423371.0 0
355574.0 422715.0 0
358246.0 423405.0 0
360425.0 420788.0 0
363246.0 419879.0 0
361661.0 423980.0 0
364820.0 422099.0 0
365912.0 424624.0 0
368172.0 423818.0 0
370608.0 421844.0 0
372623.0 424031.0 0
375624.0 425247.0 0
115332.0 430478.0 0
117518.0 429234.0 0
119430.0 427770.0 0
120398.0 430990.0 0
121990.0 427116.0 0
127255.0 426200.0 0
128391.0 428644.0 0
125945.0 430582.0 0
133477.0 426792.0 0
131459.0 428988.0 0
136039.0 430028.0 0
136540.0 427416.0 0
139703.0 426679.0 0
140179.0 429236.0 0
143307.0 427246.0 0
145839.0 429430.0 0
147073.0 426581.0 0
149640.0 425837.0 0
148906.0 429084.0 0
152885.0 426181.0 0
152153.0 429427.0 0
156364.0 426714.0 0
155476.0 429929.0 0
158751.0 429786.0 0
161302.0 427572.0 0
166615.0 426021.0 0
164647.0 428798.0 0
170225.0 426510.0 0
174014.0 427850.0 0
177585.0 428355.0 0
181097.0 428962.0 0
185230.0 425498.0 0
184302.0 428023.0 0
188708.0 426814.0 0
191336.0 430026.0 0
191889.0 424981.0 0
193983.0 427640.0 0
195482.0 424888.0 0
199053.0 426338.0 0
206201.0 424138.0 0
202909.0 425717.0 0
204061.0 429514.0 0
209526.0 424532.0 0
206864.0 427116.0 0
209873.0 428122.0 0
212936.0 424944.0 0
217501.0 425579.0 0
219313.0 429114.0 0
221348.0 425756.0 0
224309.0 425702.0 0
226600.0 423331.0 0
227913.0 426238.0 0
229815.0 428747.0 0
232198.0 424651.0 0
236486.0 424953.0 0
239215.0 423787.0 0
241841.0 426565.0 0
246747.0 427003.0 0
249935.0 423964.0 0
253175.0 425924.0 0
256483.0 423795.0 0
259445.0 426633.0 0
262793.0 425824.0 0
266458.0 423965.0 0
270206.0 426095.0 0
273731.0 423578.0 0
273478.0 428402.0 0
277153.0 426958.0 0
278658.0 423703.0 0
281282.0 427498.0 0
284975.0 425475.0 0
287892.0 427982.0 0
290535.0 426535.0 0
293396.0 424712.0 0
296341.0 426673.0 0
294122.0 428233.0 0
300089.0 426706.0 0
302973.0 424711.0 0
306335.0 426000.0 0
309541.0 428206.0 0
312699.0 428702.0 0
312660.0 425625.0 0
315709.0 427765.0 0
318024.0 425019.0 0
318423.0 429193.0 0
321107.0 427136.0 0
323836.0 424896.0 0
326609.0 427494.0 0
325024.0 428520.0 0
332034.0 426427.0 0
329553.0 427753.0 0
332886.0 429636.0 0
335576.0 428216.0 0
338199.0 429499.0 0
340463.0 426373.0 0
343107.0 428659.0 0
345306.0 427246.0 0
347798.0 429598.0 0
350774.0 427086.0 0
352548.0 430181.0 0
355147.0 426453.0 0
357314.0 428371.0 0
358812.0 425999.0 0
363207.0 427081.0 0
360753.0 429386.0 0
367935.0 426072.0 0
366365.0 429338.0 0
370771.0 426515.0 0
373325.0 428177.0 0
369982.0 429163.0 0
373225.0 430564.0 0
377770.0 427576.0 0
376270.0 430394.0 0
380805.0 428437.0 0
383282.0 429749.0 0
110483.0 432964.0 0
106033.0 436210.0 0
108674.0 435134.0 0
113482.0 432531.0 0
113791.0 435588.0 0
118157.0 432900.0 0
117337.0 435165.0 0
123398.0 431516.0 0
121182.0 434825.0 0
125216.0 434459.0 0
128652.0 432652.0 0
127875.0 435297.0 0
133042.0 432270.0 0
131687.0 435806.0 0
136026.0 434165.0 0
138263.0 431169.0 0
139762.0 434129.0 0
142908.0 431172.0 0
143082.0 435342.0 0
144927.0 433543.0 0
146836.0 431804.0 0
148725.0 432024.0 0
146983.0 434567.0 0
149465.0 434667.0 0
151908.0 432962.0 0
155338.0 433081.0 0
161337.0 431188.0 0
158506.0 433760.0 0
163458.0 431790.0 0
161951.0 433721.0 0
165734.0 433108.0 0
169794.0 429793.0 0
167322.0 430868.0 0
169584.0 432943.0 0
173030.0 431538.0 0
177017.0 431751.0 0
180238.0 433003.0 0
183540.0 430771.0 0
186543.0 430278.0 0
183083.0 432495.0 0
185175.0 433782.0 0
189645.0 434293.0 0
194648.0 431579.0 0
196884.0 429640.0 0
198688.0 432995.0 0
200600.0 429926.0 0
202890.0 433800.0 0
207408.0 430754.0 0
210794.0 431666.0 0
214461.0 429254.0 0
211213.0 434630.0 0
213842.0 433346.0 0
217548.0 433289.0 0
225524.0 428878.0 0
222812.0 428463.0 0
222389.0 432520.0 0
227265.0 431586.0 0
231141.0 431584.0 0
233702.0 428787.0 0
234618.0 433355.0 0
238013.0 428813.0 0
238272.0 433262.0 0
243794.0 429977.0 0
241025.0 431626.0 0
247518.0 432511.0 0
250763.0 428848.0 0
254260.0 429751.0 0
252102.0 433105.0 0
256311.0 427482.0 0
258201.0 430226.0 0
255893.0 433970.0 0
261858.0 429748.0 0
266668.0 428775.0 0
264894.0 432788.0 0
270653.0 430061.0 0
274033.0 432457.0 0
277016.0 430368.0 0
280023.0 431330.0 0
283181.0 431421.0 0
284959.0 429510.0 0
285343.0 432581.0 0
288307.0 431508.0 0
291700.0 430203.0 0
295263.0 432936.0 0
297077.0 429625.0 0
300401.0 430880.0 0
304234.0 429548.0 0
307858.0 431062.0 0
304028.0 433357.0 0
307461.0 434611.0 0
311799.0 431228.0 0
311583.0 434535.0 0
315069.0 434416.0 0
315346.0 431280.0 0
317942.0 434209.0 0
322577.0 430666.0 0
318891.0 431852.0 0
322145.0 434416.0 0
327962.0 430225.0 0
325857.0 432123.0 0
328903.0 434724.0 0
330591.0 432147.0 0
332996.0 434081.0 0
337258.0 432751.0 0
334562.0 431812.0 0
335723.0 435435.0 0
341762.0 431316.0 0
339003.0 435365.0 0
340334.0 433672.0 0
345558.0 430693.0 0
344349.0 433056.0 0
346613.0 434024.0 0
349014.0 432484.0 0
351848.0 433109.0 0
355709.0 431353.0 0
353993.0 433840.0 0
358074.0 433749.0 0
360681.0 432116.0 0
363123.0 434368.0 0
364520.0 431872.0 0
366402.0 434063.0 0
368840.0 432372.0 0
371914.0 432640.0 0
368820.0 435842.0 0
371288.0 435429.0 0
377310.0 433408.0 0
374777.0 434796.0 0
380169.0 431732.0 0
379610.0 435574.0 0
382212.0 433645.0 0
385340.0 432136.0 0
387804.0 433859.0 0
391051.0 434571.0 0
103993.0 438089.0 0
101556.0 440073.0 0
110525.0 437585.0 0
107128.0 439707.0 0
115756.0 438394.0 0
111534.0 440473.0 0
119841.0 438130.0 0
120120.0 441421.0 0
123687.0 436034.0 0
123976.0 438493.0 0
123783.0 440999.0 0
127272.0 438191.0 0
126750.0 440719.0 0
130585.0 439265.0 0
134281.0 437132.0 0
134087.0 439615.0 0
136522.0 437060.0 0
139781.0 437381.0 0
138037.0 440549.0 0
143952.0 437267.0 0
142210.0 438560.0 0
150139.0 437064.0 0
146727.0 437893.0 0
150182.0 439747.0 0
153373.0 436274.0 0
156028.0 436503.0 0
153460.0 439777.0 0
156537.0 440542.0 0
159327.0 438039.0 0
163529.0 436913.0 0
167609.0 436140.0 0
167237.0 440009.0 0
169843.0 439141.0 0
171607.0 435579.0 0
175249.0 435035.0 0
172573.0 438683.0 0
175722.0 438981.0 0
178454.0 435983.0 0
182709.0 435678.0 0
180995.0 438114.0 0
186021.0 437624.0 0
188706.0 439182.0 0
191434.0 438040.0 0
194507.0 434781.0 0
195386.0 438558.0 0
198671.0 436452.0 0
201695.0 438367.0 0
207208.0 434024.0 0
205194.0 437295.0 0
209158.0 438379.0 0
214583.0 437332.0 0
219638.0 437554.0 0
225301.0 436026.0 0
229867.0 435077.0 0
232895.0 437786.0 0
237332.0 437326.0 0
240216.0 435190.0 0
243543.0 434740.0 0
246238.0 438511.0 0
249922.0 436458.0 0
253478.0 437985.0 0
257584.0 438459.0 0
260922.0 435026.0 0
265158.0 436406.0 0
269366.0 434359.0 0
267484.0 438555.0 0
273470.0 436330.0 0
277817.0 435036.0 0
275915.0 439400.0 0
282675.0 435117.0 0
284695.0 438660.0 0
287342.0 435728.0 0
291221.0 434534.0 0
291208.0 438755.0 0
294097.0 436711.0 0
296486.0 437171.0 0
298632.0 439526.0 0
299991.0 435004.0 0
302049.0 439045.0 0
304745.0 437219.0 0
307016.0 439488.0 0
308644.0 437779.0 0
311990.0 438126.0 0
316295.0 438143.0 0
319926.0 436968.0 0
325678.0 435225.0 0
323507.0 437988.0 0
328484.0 437481.0 0
326260.0 439523.0 0
330493.0 440203.0 0
331479.0 436657.0 0
338116.0 436428.0 0
334816.0 438970.0 0
340315.0 436454.0 0
342802.0 435602.0 0
339242.0 439681.0 0
343344.0 438778.0 0
347068.0 437422.0 0
350605.0 436071.0 0
353796.0 436492.0 0
351175.0 439211.0 0
356655.0 436252.0 0
357663.0 439640.0 0
360853.0 437353.0 0
364761.0 437232.0 0
366311.0 436098.0 0
365951.0 440394.0 0
372885.0 436550.0 0
369214.0 439046.0 0
372208.0 438687.0 0
375938.0 437480.0 0
377980.0 437652.0 0
374978.0 439613.0 0
381922.0 437935.0 0
379779.0 440137.0 0
383917.0 441112.0 0
384298.0 436654.0 0
388105.0 437417.0 0
386362.0 439539.0 0
390706.0 438853.0 0
393316.0 436866.0 0
390722.0 441303.0 0
393911.0 441291.0 0
395874.0 438752.0 0
398589.0 440288.0 0
401380.0 441207.0 0
92632.2 444493.0 0
98812.4 442000.0 0
95779.9 443471.0 0
95863.7 446683.0 0
103720.0 442139.0 0
100855.0 445454.0 0
104176.0 445062.0 0
107224.0 442415.0 0
108941.0 444246.0 0
112556.0 442939.0 0
112545.0 445968.0 0
116009.0 441641.0 0
116486.0 443958.0 0
117981.0 446083.0 0
120756.0 444114.0 0
124425.0 443739.0 0
122209.0 447292.0 0
130638.0 442292.0 0
127439.0 443182.0 0
134305.0 442202.0 0
131532.0 445731.0 0
134881.0 445090.0 0
138220.0 444212.0 0
141944.0 441295.0 0
145491.0 441412.0 0
141512.0 444339.0 0
144734.0 444542.0 0
148948.0 442743.0 0
152445.0 443356.0 0
155301.0 443746.0 0
158741.0 442876.0 0
161140.0 441548.0 0
157837.0 444982.0 0
164158.0 440514.0 0
161961.0 444343.0 0
165586.0 443192.0 0
169304.0 442535.0 0
172281.0 441643.0 0
175466.0 443700.0 0
178453.0 439801.0 0
179819.0 443004.0 0
183757.0 441270.0 0
187821.0 442224.0 0
191840.0 441864.0 0
195779.0 442820.0 0
198742.0 440916.0 0
201237.0 444236.0 0
204727.0 441127.0 0
208257.0 443093.0 0
212293.0 441328.0 0
216220.0 442254.0 0
220142.0 442301.0 0
223312.0 440247.0 0
225512.0 443253.0 0
228558.0 439840.0 0
231953.0 443016.0 0
235316.0 440993.0 0
238371.0 442064.0 0
241430.0 439081.0 0
244092.0 442601.0 0
241110.0 443010.0 0
247536.0 442783.0 0
250431.0 440797.0 0
253561.0 443327.0 0
255529.0 440676.0 0
258170.0 443333.0 0
260733.0 440195.0 0
263841.0 439670.0 0
267005.0 443036.0 0
271150.0 439654.0 0
274216.0 443443.0 0
270989.0 443856.0 0
278211.0 444123.0 0
280694.0 439853.0 0
287652.0 439832.0 0
284547.0 441830.0 0
287032.0 442958.0 0
290176.0 442655.0 0
292924.0 442399.0 0
295085.0 440200.0 0
298031.0 442670.0 0
301190.0 442798.0 0
304437.0 441243.0 0
307322.0 443091.0 0
310116.0 440844.0 0
314579.0 441924.0 0
318658.0 441659.0 0
321259.0 440158.0 0
323507.0 442474.0 0
327609.0 443476.0 0
331586.0 443470.0 0
334791.0 442548.0 0
334417.0 445001.0 0
338402.0 444285.0 0
342088.0 443043.0 0
348542.0 441362.0 0
345077.0 442008.0 0
348738.0 445223.0 0
352273.0 442586.0 0
354310.0 440124.0 0
359199.0 443041.0 0
355615.0 442995.0 0
362528.0 441499.0 0
364155.0 445226.0 0
367408.0 444096.0 0
370598.0 442828.0 0
373064.0 441744.0 0
377777.0 442120.0 0
375410.0 444384.0 0
383002.0 443191.0 0
380607.0 445126.0 0
387696.0 441846.0 0
385343.0 445813.0 0
387270.0 444005.0 0
391573.0 443844.0 0
390079.0 445875.0 0
394432.0 444050.0 0
396852.0 443144.0 0
399687.0 444104.0 0
402190.0 445468.0 0
403895.0 443256.0 0
406625.0 444251.0 0
408937.0 445367.0 0
410961.0 446184.0 0
83457.0 449486.0 0
90258.8 447083.0 0
86985.3 449110.0 0
93262.5 448025.0 0
91177.3 450826.0 0
93871.3 450764.0 0
98926.6 448320.0 0
96326.7 450634.0 0
102853.0 448099.0 0
100976.0 451093.0 0
104905.0 451021.0 0
109000.0 447102.0 0
105801.0 447275.0 0
108894.0 449662.0 0
115187.0 446940.0 0
112333.0 448975.0 0
114097.0 450878.0 0
115822.0 449330.0 0
119301.0 449525.0 0
125198.0 447801.0 0
122245.0 451248.0 0
128169.0 446362.0 0
125048.0 450987.0 0
128896.0 449508.0 0
135021.0 448083.0 0
131969.0 448807.0 0
134289.0 450970.0 0
138251.0 447985.0 0
145484.0 447688.0 0
141992.0 447697.0 0
148276.0 446045.0 0
146358.0 451024.0 0
148760.0 448857.0 0
151940.0 446644.0 0
155233.0 447034.0 0
151448.0 449739.0 0
159955.0 446394.0 0
157959.0 449126.0 0
164556.0 446814.0 0
161813.0 448020.0 0
165212.0 450141.0 0
168078.0 446211.0 0
169749.0 449850.0 0
171485.0 445453.0 0
173868.0 448335.0 0
178021.0 447641.0 0
185255.0 445363.0 0
181659.0 446092.0 0
183746.0 448605.0 0
188826.0 445710.0 0
187183.0 448917.0 0
190551.0 449326.0 0
192631.0 446211.0 0
194507.0 449745.0 0
197000.0 445983.0 0
199200.0 449673.0 0
203631.0 448232.0 0
205249.0 444941.0 0
207744.0 447326.0 0
211696.0 445280.0 0
214538.0 446698.0 0
218313.0 446673.0 0
221214.0 448687.0 0
222062.0 444774.0 0
224597.0 447460.0 0
228662.0 445738.0 0
231758.0 448369.0 0
235459.0 446019.0 0
238937.0 445480.0 0
242017.0 446243.0 0
246186.0 446963.0 0
250295.0 445639.0 0
255905.0 446098.0 0
258823.0 448144.0 0
262455.0 444509.0 0
262864.0 448740.0 0
266331.0 447664.0 0
269925.0 446947.0 0
272704.0 446596.0 0
272698.0 449199.0 0
275650.0 447543.0 0
282316.0 444658.0 0
280078.0 448648.0 0
285033.0 449075.0 0
285364.0 445114.0 0
288205.0 445816.0 0
289143.0 449022.0 0
292161.0 446435.0 0
295659.0 444588.0 0
295635.0 448815.0 0
299652.0 447483.0 0
303923.0 449496.0 0
304309.0 445813.0 0
307895.0 446919.0 0
311435.0 444957.0 0
311366.0 449376.0 0
314673.0 448082.0 0
316365.0 445258.0 0
320211.0 445445.0 0
321399.0 450340.0 0
324439.0 447312.0 0
328658.0 446976.0 0
332144.0 447079.0 0
336305.0 447167.0 0
338984.0 450156.0 0
341446.0 447472.0 0
344950.0 445757.0 0
345968.0 448806.0 0
348452.0 448343.0 0
351255.0 449742.0 0
352891.0 446278.0 0
357001.0 446997.0 0
361115.0 446825.0 0
362448.0 450467.0 0
365677.0 448448.0 0
369124.0 447422.0 0
367745.0 451239.0 0
372568.0 446576.0 0
370540.0 450418.0 0
371852.0 450178.0 0
378231.0 447443.0 0
375514.0 450071.0 0
383220.0 448423.0 0
380799.0 451055.0 0
388158.0 447863.0 0
386146.0 450164.0 0
392557.0 448404.0 0
390456.0 451096.0 0
395117.0 447167.0 0
398113.0 445746.0 0
397467.0 450193.0 0
399928.0 448238.0 0
403071.0 449138.0 0
405741.0 447801.0 0
408268.0 447733.0 0
408917.0 451261.0 0
410105.0 449123.0 0
412587.0 448502.0 0
412739.0 451751.0 0
415019.0 449236.0 0
417113.0 450972.0 0
78121.8 454332.0 0
74968.8 456229.0 0
78932.9 457193.0 0
81500.1 452644.0 0
82352.1 455694.0 0
84980.6 452405.0 0
88778.4 451840.0 0
86301.8 456327.0 0
89625.3 454886.0 0
93012.5 453843.0 0
90802.1 457172.0 0
97281.3 452678.0 0
95770.6 455988.0 0
100199.0 454335.0 0
104358.0 455204.0 0
107946.0 452849.0 0
107944.0 456060.0 0
110655.0 451687.0 0
111483.0 455263.0 0
115047.0 453975.0 0
118230.0 452557.0 0
120014.0 455272.0 0
122184.0 453454.0 0
125510.0 454746.0 0
128449.0 452094.0 0
131257.0 451233.0 0
132226.0 454024.0 0
138014.0 452024.0 0
135977.0 455843.0 0
140366.0 454693.0 0
142339.0 451327.0 0
142260.0 454237.0 0
145492.0 454598.0 0
149690.0 452433.0 0
152612.0 454327.0 0
154428.0 451079.0 0
161146.0 451460.0 0
156784.0 452996.0 0
163615.0 454122.0 0
166175.0 453255.0 0
170613.0 454843.0 0
175173.0 452356.0 0
180290.0 451378.0 0
184596.0 452206.0 0
188038.0 452301.0 0
191471.0 452587.0 0
195791.0 454247.0 0
199838.0 453671.0 0
202384.0 451903.0 0
206361.0 452030.0 0
211284.0 450228.0 0
215395.0 450031.0 0
214031.0 454332.0 0
218543.0 452585.0 0
223450.0 451915.0 0
227764.0 450269.0 0
231149.0 453194.0 0
234792.0 450276.0 0
235618.0 453833.0 0
238787.0 450003.0 0
242816.0 449853.0 0
242372.0 453078.0 0
246241.0 452042.0 0
249374.0 449816.0 0
253604.0 449483.0 0
257267.0 452279.0 0
261049.0 452691.0 0
266075.0 452519.0 0
269598.0 450271.0 0
272074.0 452484.0 0
275920.0 452049.0 0
279895.0 453288.0 0
282687.0 452226.0 0
285236.0 453854.0 0
288376.0 452417.0 0
292681.0 451703.0 0
297494.0 452938.0 0
301750.0 451729.0 0
307206.0 450290.0 0
305273.0 453871.0 0
310849.0 454018.0 0
317993.0 449388.0 0
314885.0 451644.0 0
318678.0 453190.0 0
322059.0 454254.0 0
328077.0 450489.0 0
324932.0 451854.0 0
325800.0 455189.0 0
328924.0 454440.0 0
331443.0 450781.0 0
332382.0 453691.0 0
335282.0 450796.0 0
335837.0 454218.0 0
339975.0 454167.0 0
343890.0 451521.0 0
348507.0 451707.0 0
347198.0 454289.0 0
350760.0 454828.0 0
353219.0 452392.0 0
355812.0 450638.0 0
359095.0 450223.0 0
357809.0 452897.0 0
360928.0 453962.0 0
364083.0 455320.0 0
365341.0 452742.0 0
367172.0 455754.0 0
373405.0 452802.0 0
370220.0 454055.0 0
375454.0 455581.0 0
377944.0 453788.0 0
383064.0 454214.0 0
386051.0 452917.0 0
389796.0 454544.0 0
387721.0 455017.0 0
393459.0 454024.0 0
391687.0 456392.0 0
395154.0 451918.0 0
399680.0 452674.0 0
395801.0 455793.0 0
398121.0 454900.0 0
402889.0 452579.0 0
402924.0 455660.0 0
406692.0 451091.0 0
406150.0 453595.0 0
408297.0 455857.0 0
410628.0 453491.0 0
415196.0 454911.0 0
412891.0 455536.0 0
415050.0 452525.0 0
419562.0 452573.0 0
418377.0 455111.0 0
422481.0 454045.0 0
420944.0 456309.0 0
424799.0 455931.0 0
69459.6 460008.0 0
66151.1 461707.0 0
72032.9 457348.0 0
72675.2 460313.0 0
76166.1 459782.0 0
79405.5 460992.0 0
81274.4 458410.0 0
85505.7 460493.0 0
90044.6 459460.0 0
92939.5 458551.0 0
94575.2 462080.0 0
97805.8 459188.0 0
100475.0 457095.0 0
103092.0 458538.0 0
100664.0 461586.0 0
105351.0 460093.0 0
108023.0 459038.0 0
109969.0 461143.0 0
112529.0 458477.0 0
116524.0 457215.0 0
115415.0 461033.0 0
119449.0 459677.0 0
122923.0 457534.0 0
129288.0 457285.0 0
125958.0 459908.0 0
130053.0 461176.0 0
133313.0 458744.0 0
133028.0 461419.0 0
139922.0 457583.0 0
137073.0 460573.0 0
142848.0 456746.0 0
142060.0 460753.0 0
148775.0 455243.0 0
146120.0 459008.0 0
155408.0 456226.0 0
150906.0 458191.0 0
159502.0 455431.0 0
155655.0 459937.0 0
159514.0 458989.0 0
163330.0 457321.0 0
166440.0 456028.0 0
167001.0 459095.0 0
171248.0 460094.0 0
174295.0 457143.0 0
177765.0 456388.0 0
181603.0 455546.0 0
180727.0 459828.0 0
185140.0 456292.0 0
188943.0 455363.0 0
188232.0 459405.0 0
191887.0 457005.0 0
195406.0 459583.0 0
198980.0 457087.0 0
202252.0 454920.0 0
201793.0 457987.0 0
205368.0 456758.0 0
209927.0 455307.0 0
208300.0 459528.0 0
212388.0 458725.0 0
216894.0 458285.0 0
221646.0 456310.0 0
226395.0 454842.0 0
229082.0 457465.0 0
233105.0 457968.0 0
236944.0 457068.0 0
239329.0 454580.0 0
242291.0 455659.0 0
240887.0 459365.0 0
245515.0 456697.0 0
250370.0 454439.0 0
254474.0 454397.0 0
253603.0 458410.0 0
258098.0 456980.0 0
263584.0 457811.0 0
267859.0 456665.0 0
269972.0 454595.0 0
270392.0 457921.0 0
273753.0 456654.0 0
277883.0 456701.0 0
282176.0 456690.0 0
286084.0 458368.0 0
288126.0 455654.0 0
289549.0 459282.0 0
291247.0 455809.0 0
293256.0 459364.0 0
294562.0 455655.0 0
297331.0 458444.0 0
301090.0 455732.0 0
301193.0 459563.0 0
304659.0 458451.0 0
308119.0 457231.0 0
311805.0 459435.0 0
315870.0 456143.0 0
318853.0 459691.0 0
320141.0 457117.0 0
324033.0 457894.0 0
328309.0 458855.0 0
332810.0 457605.0 0
338075.0 458200.0 0
344151.0 456222.0 0
342436.0 459787.0 0
345990.0 459974.0 0
348078.0 457924.0 0
352579.0 458801.0 0
355633.0 455816.0 0
356234.0 460433.0 0
363444.0 457886.0 0
359670.0 457938.0 0
364498.0 460654.0 0
367084.0 458744.0 0
368414.0 461418.0 0
370087.0 458426.0 0
372459.0 456949.0 0
371155.0 461010.0 0
374333.0 459551.0 0
379884.0 456350.0 0
377464.0 458281.0 0
384351.0 457425.0 0
381676.0 458906.0 0
386839.0 456762.0 0
389361.0 458878.0 0
386469.0 460842.0 0
394636.0 458439.0 0
392213.0 461240.0 0
397621.0 459964.0 0
400075.0 457530.0 0
402337.0 460097.0 0
405396.0 457479.0 0
406383.0 461432.0 0
409859.0 459464.0 0
412181.0 457664.0 0
412618.0 461889.0 0
414795.0 459495.0 0
417000.0 457871.0 0
417586.0 462079.0 0
420413.0 459926.0 0
423178.0 458440.0 0
424424.0 461707.0 0
427508.0 457601.0 0
425315.0 459820.0 0
426887.0 461930.0 0
429876.0 459798.0 0
433016.0 460552.0 0
57739.0 467090.0 0
60424.8 464764.0 0
63076.0 462951.0 0
63374.2 466647.0 0
66718.3 464674.0 0
68546.1 466906.0 0
69905.7 462989.0 0
72663.4 462722.0 0
71211.6 464571.0 0
73414.9 465925.0 0
75653.0 463477.0 0
78113.6 465211.0 0
81964.3 463934.0 0
85107.6 466447.0 0
88473.4 464190.0 0
91406.4 462336.0 0
93942.5 465885.0 0
97734.4 463619.0 0
97079.1 466475.0 0
99747.7 465425.0 0
103149.0 463671.0 0
106028.0 462786.0 0
108595.0 464620.0 0
112447.0 462585.0 0
112658.0 465443.0 0
119584.0 462846.0 0
116770.0 465124.0 0
122850.0 461090.0 0
122429.0 464090.0 0
126666.0 463535.0 0
131061.0 465211.0 0
135503.0 464053.0 0
139709.0 463688.0 0
143918.0 463810.0 0
146181.0 466366.0 0
147842.0 462635.0 0
151987.0 462557.0 0
156087.0 464235.0 0
159219.0 462213.0 0
163065.0 461424.0 0
164769.0 465124.0 0
167050.0 462420.0 0
170161.0 464773.0 0
173550.0 463242.0 0
176077.0 460952.0 0
178633.0 463878.0 0
184381.0 460411.0 0
182355.0 463441.0 0
185795.0 463036.0 0
188974.0 463082.0 0
191821.0 460820.0 0
193272.0 463947.0 0
199182.0 460845.0 0
196745.0 463190.0 0
203374.0 461763.0 0
207202.0 463743.0 0
210670.0 462230.0 0
213793.0 462691.0 0
217664.0 463310.0 0
224916.0 459440.0 0
220619.0 460083.0 0
221691.0 463524.0 0
226029.0 464114.0 0
229419.0 461252.0 0
233369.0 463463.0 0
236447.0 460217.0 0
238148.0 464271.0 0
242017.0 464123.0 0
245159.0 461858.0 0
249264.0 459631.0 0
252726.0 463104.0 0
256814.0 461838.0 0
260536.0 461270.0 0
264412.0 463908.0 0
267893.0 460565.0 0
272283.0 461335.0 0
276706.0 460720.0 0
280380.0 460072.0 0
280520.0 464507.0 0
283895.0 461653.0 0
287671.0 462341.0 0
290874.0 462134.0 0
294888.0 463995.0 0
299505.0 462847.0 0
303442.0 462516.0 0
306135.0 461966.0 0
308174.0 460857.0 0
307090.0 464921.0 0
310155.0 463350.0 0
313971.0 464352.0 0
315715.0 460426.0 0
317607.0 462467.0 0
322042.0 460412.0 0
320257.0 462353.0 0
322981.0 464080.0 0
325484.0 461978.0 0
329269.0 463234.0 0
332017.0 461707.0 0
335328.0 461052.0 0
338899.0 463007.0 0
342930.0 464557.0 0
346235.0 462567.0 0
349140.0 461452.0 0
346649.0 465824.0 0
349415.0 464816.0 0
352621.0 463008.0 0
356529.0 464463.0 0
361103.0 462731.0 0
366095.0 462388.0 0
368270.0 464057.0 0
365323.0 465083.0 0
372102.0 464094.0 0
379243.0 461483.0 0
375831.0 462975.0 0
383453.0 461926.0 0
382478.0 465803.0 0
389046.0 462797.0 0
387011.0 464741.0 0
390886.0 464297.0 0
395342.0 463310.0 0
399085.0 462592.0 0
398361.0 465283.0 0
401747.0 463030.0 0
400704.0 465552.0 0
404381.0 465341.0 0
407653.0 466462.0 0
408734.0 463793.0 0
411430.0 464934.0 0
414159.0 466350.0 0
415680.0 464045.0 0
419703.0 464470.0 0
418216.0 466510.0 0
422362.0 463308.0 0
423812.0 466779.0 0
426997.0 465135.0 0
430357.0 463138.0 0
432991.0 465355.0 0
435188.0 462473.0 0
440172.0 465295.0 0
437877.0 464094.0 0
442718.0 466656.0 0
48930.3 472462.0 0
51723.0 470444.0 0
54689.7 468657.0 0
56045.2 471610.0 0
60061.6 469237.0 0
62554.8 471079.0 0
65897.0 470013.0 0
71135.1 468338.0 0
73261.1 469759.0 0
69432.6 471268.0 0
75072.6 467646.0 0
78110.3 468646.0 0
75486.5 470395.0 0
78967.8 472124.0 0
81708.6 468215.0 0
81737.9 471348.0 0
84480.9 469137.0 0
87428.1 468470.0 0
90951.6 467180.0 0
91317.7 470538.0 0
94550.2 469219.0 0
94410.3 471784.0 0
98122.2 469269.0 0
101784.0 467176.0 0
101840.0 470494.0 0
105040.0 471024.0 0
105504.0 467042.0 0
108057.0 469192.0 0
109876.0 467229.0 0
112814.0 468700.0 0
116117.0 468846.0 0
114485.0 470939.0 0
118835.0 470227.0 0
120298.0 467136.0 0
121977.0 469295.0 0
121393.0 471448.0 0
124509.0 467407.0 0
128377.0 468884.0 0
131909.0 470272.0 0
134085.0 467911.0 0
135511.0 470780.0 0
137868.0 467041.0 0
141715.0 466667.0 0
144357.0 470039.0 0
149689.0 466246.0 0
148461.0 468830.0 0
153082.0 466478.0 0
151718.0 469865.0 0
156132.0 468259.0 0
159046.0 468669.0 0
160196.0 465771.0 0
162593.0 469719.0 0
167418.0 468286.0 0
174878.0 465891.0 0
172012.0 467895.0 0
177853.0 468016.0 0
180828.0 466546.0 0
180812.0 469226.0 0
185039.0 467563.0 0
189743.0 466274.0 0
188958.0 469915.0 0
192656.0 468301.0 0
196322.0 466661.0 0
199180.0 468354.0 0
199765.0 464882.0 0
203795.0 467775.0 0
210112.0 466665.0 0
214818.0 467024.0 0
219256.0 468105.0 0
223333.0 467231.0 0
226570.0 468927.0 0
229406.0 466015.0 0
232046.0 467500.0 0
235379.0 469018.0 0
240365.0 468618.0 0
244585.0 467095.0 0
248671.0 464988.0 0
252078.0 468130.0 0
255819.0 466235.0 0
258932.0 469256.0 0
260189.0 465193.0 0
263433.0 469321.0 0
267001.0 467867.0 0
268956.0 464492.0 0
271925.0 465054.0 0
271246.0 469333.0 0
275558.0 465443.0 0
278926.0 468199.0 0
282143.0 469158.0 0
285533.0 466181.0 0
290029.0 465460.0 0
292907.0 468599.0 0
296612.0 469365.0 0
299227.0 466610.0 0
303093.0 466414.0 0
306575.0 469499.0 0
310574.0 467289.0 0
314921.0 469541.0 0
318933.0 466400.0 0
321750.0 469962.0 0
323395.0 467492.0 0
326572.0 466336.0 0
329312.0 469833.0 0
330445.0 466707.0 0
333134.0 470392.0 0
334893.0 465802.0 0
339973.0 467612.0 0
344289.0 468559.0 0
348869.0 468982.0 0
352517.0 467133.0 0
356136.0 468610.0 0
359379.0 469776.0 0
362600.0 466750.0 0
359641.0 467143.0 0
362524.0 469737.0 0
366606.0 469017.0 0
369946.0 466723.0 0
374282.0 466559.0 0
372022.0 469998.0 0
378152.0 465944.0 0
376900.0 469937.0 0
381273.0 470128.0 0
389276.0 467559.0 0
385923.0 468022.0 0
385131.0 471260.0 0
389024.0 471571.0 0
394003.0 467294.0 0
392832.0 471217.0 0
398186.0 469374.0 0
401883.0 468099.0 0
405818.0 469042.0 0
409202.0 471093.0 0
410206.0 467687.0 0
412863.0 468584.0 0
414544.0 470515.0 0
416609.0 468257.0 0
417614.0 471041.0 0
420056.0 470245.0 0
420758.0 467870.0 0
424213.0 470690.0 0
430215.0 467751.0 0
427766.0 470000.0 0
435419.0 467380.0 0
432896.0 470458.0 0
437735.0 468437.0 0
440438.0 468772.0 0
440236.0 471961.0 0
445002.0 468698.0 0
443247.0 471051.0 0
447765.0 469837.0 0
450737.0 471941.0 0
42842.4 475616.0 0
45933.1 474395.0 0
47994.9 477157.0 0
49823.5 475116.0 0
53147.3 473239.0 0
52121.0 475837.0 0
55642.9 475065.0 0
58791.6 472671.0 0
58307.3 476231.0 0
61961.8 474120.0 0
60945.3 477900.0 0
65592.3 474051.0 0
68860.5 475126.0 0
72238.0 472701.0 0
72585.4 476525.0 0
75576.8 473623.0 0
77276.1 476564.0 0
79995.6 475034.0 0
84674.6 472232.0 0
81097.4 477488.0 0
82651.5 474839.0 0
87949.8 471511.0 0
85872.3 475459.0 0
91692.8 473239.0 0
89003.2 474790.0 0
93898.9 475052.0 0
97487.2 472667.0 0
96670.7 475777.0 0
100995.0 474164.0 0
107986.0 472881.0 0
105189.0 475215.0 0
109297.0 475822.0 0
110710.0 471315.0 0
113195.0 474117.0 0
116248.0 471842.0 0
118273.0 474021.0 0
124077.0 470677.0 0
122636.0 475102.0 0
126128.0 472517.0 0
129530.0 472837.0 0
130896.0 475457.0 0
132908.0 473096.0 0
139349.0 470954.0 0
135814.0 473668.0 0
142177.0 474258.0 0
148278.0 471532.0 0
145991.0 474724.0 0
150611.0 474300.0 0
154609.0 471978.0 0
158388.0 470972.0 0
157378.0 473933.0 0
160833.0 473776.0 0
165885.0 473298.0 0
170295.0 470707.0 0
174381.0 470678.0 0
170646.0 474446.0 0
178494.0 471710.0 0
182610.0 471965.0 0
186598.0 473231.0 0
191325.0 472497.0 0
195766.0 471141.0 0
196876.0 474544.0 0
200013.0 471730.0 0
203976.0 473364.0 0
207815.0 471182.0 0
207134.0 475682.0 0
210073.0 474112.0 0
212179.0 470747.0 0
216039.0 471348.0 0
219555.0 472977.0 0
222933.0 470802.0 0
226297.0 472933.0 0
230418.0 470847.0 0
234036.0 474068.0 0
238390.0 472904.0 0
243239.0 472356.0 0
247790.0 470697.0 0
251951.0 472920.0 0
258198.0 472979.0 0
255272.0 470786.0 0
261102.0 472722.0 0
264069.0 474370.0 0
267171.0 472035.0 0
270673.0 474441.0 0
273970.0 473326.0 0
275891.0 470270.0 0
276603.0 473942.0 0
279526.0 472008.0 0
283135.0 474040.0 0
285115.0 470553.0 0
286885.0 473816.0 0
289264.0 470352.0 0
289883.0 474841.0 0
293456.0 473350.0 0
297812.0 473305.0 0
301389.0 470445.0 0
301246.0 475014.0 0
304313.0 472623.0 0
304218.0 475110.0 0
307953.0 474609.0 0
310994.0 471838.0 0
314255.0 473361.0 0
317546.0 474464.0 0
318741.0 470936.0 0
321683.0 473370.0 0
325758.0 471174.0 0
330605.0 474952.0 0
337511.0 470763.0 0
335417.0 473960.0 0
338904.0 475052.0 0
341734.0 471951.0 0
346609.0 472742.0 0
346132.0 476596.0 0
352896.0 472576.0 0
357450.0 471824.0 0
358037.0 474887.0 0
360905.0 472564.0 0
364685.0 472905.0 0
368985.0 473335.0 0
373956.0 474393.0 0
377903.0 473843.0 0
380357.0 473515.0 0
383000.0 473835.0 0
386240.0 475710.0 0
390026.0 475339.0 0
393145.0 474337.0 0
395776.0 472212.0 0
400093.0 473070.0 0
396648.0 474920.0 0
403606.0 471841.0 0
407089.0 474422.0 0
412335.0 472948.0 0
411299.0 476180.0 0
415660.0 474189.0 0
418640.0 473799.0 0
421268.0 472768.0 0
419362.0 476168.0 0
422260.0 475329.0 0
425442.0 474241.0 0
429788.0 473557.0 0
436394.0 472589.0 0
433606.0 475724.0 0
441324.0 474568.0 0
438860.0 476100.0 0
444806.0 473867.0 0
444318.0 477332.0 0
447794.0 472990.0 0
449424.0 475675.0 0
447648.0 477390.0 0
453238.0 474244.0 0
456428.0 475841.0 0
459372.0 476763.0 0
31398.2 482742.0 0
34726.6 481375.0 0
36928.1 478879.0 0
40238.3 477901.0 0
38763.7 481052.0 0
42489.1 479645.0 0
42657.1 482641.0 0
45101.7 478283.0 0
46277.5 481371.0 0
50998.4 478091.0 0
49040.2 480138.0 0
52877.9 479575.0 0
54255.4 477168.0 0
56498.2 479612.0 0
60011.6 481087.0 0
64054.8 477870.0 0
67040.9 478295.0 0
63736.0 481891.0 0
67456.7 481514.0 0
70327.8 479236.0 0
72441.0 481610.0 0
74721.3 478449.0 0
78864.6 479221.0 0
76331.2 481600.0 0
84053.8 478084.0 0
81761.3 481059.0 0
87582.8 477936.0 0
86074.5 480776.0 0
91293.2 477289.0 0
90222.7 481090.0 0
98482.8 477289.0 0
94971.8 479067.0 0
98510.9 480894.0 0
102103.0 478674.0 0
106752.0 480060.0 0
111895.0 479107.0 0
115785.0 477122.0 0
115553.0 481160.0 0
119119.0 478702.0 0
123836.0 480050.0 0
127228.0 476098.0 0
127950.0 478852.0 0
134048.0 476150.0 0
131101.0 478636.0 0
138282.0 475943.0 0
135375.0 479265.0 0
139453.0 479996.0 0
142520.0 477664.0 0
144983.0 477782.0 0
147698.0 478009.0 0
154392.0 475673.0 0
151234.0 478050.0 0
154441.0 479733.0 0
158107.0 477034.0 0
159543.0 480351.0 0
162602.0 477074.0 0
166993.0 477818.0 0
171050.0 478468.0 0
175467.0 475741.0 0
178860.0 479315.0 0
180300.0 475358.0 0
183629.0 475328.0 0
182399.0 478297.0 0
185703.0 477646.0 0
189458.0 476550.0 0
191814.0 480000.0 0
193582.0 475655.0 0
196157.0 478717.0 0
200043.0 476144.0 0
203763.0 478061.0 0
206929.0 479256.0 0
210512.0 478168.0 0
213601.0 474593.0 0
214915.0 478704.0 0
217052.0 475238.0 0
220121.0 478667.0 0
222873.0 474687.0 0
225362.0 477367.0 0
229520.0 475647.0 0
232666.0 478904.0 0
237030.0 477757.0 0
240376.0 475225.0 0
243287.0 476272.0 0
240733.0 478504.0 0
247755.0 476691.0 0
252562.0 477295.0 0
255809.0 475066.0 0
259989.0 476550.0 0
263813.0 479294.0 0
267417.0 476928.0 0
270868.0 478815.0 0
274729.0 477309.0 0
279162.0 476305.0 0
282628.0 478229.0 0
286745.0 477621.0 0
291845.0 478054.0 0
296816.0 477306.0 0
301383.0 479272.0 0
304951.0 477827.0 0
308708.0 479139.0 0
313214.0 477735.0 0
317857.0 478610.0 0
321153.0 477654.0 0
325284.0 476175.0 0
327849.0 479622.0 0
332323.0 480558.0 0
335723.0 477822.0 0
339634.0 479065.0 0
342973.0 476495.0 0
343207.0 480356.0 0
349774.0 476302.0 0
347212.0 480109.0 0
351054.0 480220.0 0
352806.0 477869.0 0
355493.0 476761.0 0
358873.0 478512.0 0
362259.0 476081.0 0
363407.0 479988.0 0
366369.0 476119.0 0
367187.0 479184.0 0
370743.0 477216.0 0
370050.0 480698.0 0
374706.0 477875.0 0
373370.0 480441.0 0
378171.0 476674.0 0
377642.0 480284.0 0
381816.0 476696.0 0
381361.0 480321.0 0
385227.0 479259.0 0
390003.0 479386.0 0
393990.0 477823.0 0
393865.0 482058.0 0
399336.0 477139.0 0
397431.0 479803.0 0
403420.0 477343.0 0
401338.0 481755.0 0
405797.0 481520.0 0
408380.0 478413.0 0
409664.0 481850.0 0
411299.0 479034.0 0
415246.0 477800.0 0
413357.0 481433.0 0
419422.0 480093.0 0
422914.0 478388.0 0
425951.0 477374.0 0
424403.0 480918.0 0
429005.0 477145.0 0
427667.0 480928.0 0
432550.0 480494.0 0
437125.0 478892.0 0
441298.0 478072.0 0
440298.0 481670.0 0
444955.0 481492.0 0
448883.0 480268.0 0
452223.0 478107.0 0
456263.0 478554.0 0
453921.0 481402.0 0
461558.0 479365.0 0
458475.0 481693.0 0
464782.0 481204.0 0
468220.0 483105.0 0
28636.3 486080.0 0
32786.5 485189.0 0
32819.1 488068.0 0
36031.9 484227.0 0
36491.5 487456.0 0
39610.1 483911.0 0
43437.8 485969.0 0
40255.3 486638.0 0
47204.5 484890.0 0
51481.0 482941.0 0
55291.3 483056.0 0
56163.2 486966.0 0
59045.1 484165.0 0
61788.9 485703.0 0
65406.5 485400.0 0
69271.8 484390.0 0
73319.6 485125.0 0
76449.9 485260.0 0
84168.7 483439.0 0
79479.2 483583.0 0
81731.5 485903.0 0
87574.0 484456.0 0
94232.4 483145.0 0
90962.6 485654.0 0
98230.8 485115.0 0
102278.0 482408.0 0
102629.0 485430.0 0
105692.0 484198.0 0
107427.0 486368.0 0
111001.0 484107.0 0
115893.0 484410.0 0
119763.0 483170.0 0
123475.0 484993.0 0
127561.0 482197.0 0
132385.0 481890.0 0
130085.0 484235.0 0
136199.0 483096.0 0
144306.0 481485.0 0
140077.0 483587.0 0
149348.0 481324.0 0
146975.0 485555.0 0
152325.0 484139.0 0
156833.0 482453.0 0
160390.0 484521.0 0
163679.0 481159.0 0
164489.0 484695.0 0
168359.0 482324.0 0
174308.0 481451.0 0
179033.0 482913.0 0
183792.0 482488.0 0
187860.0 480416.0 0
189505.0 485086.0 0
195019.0 483226.0 0
200068.0 481223.0 0
204750.0 482264.0 0
202159.0 484600.0 0
208490.0 481741.0 0
207803.0 485226.0 0
212144.0 482943.0 0
216670.0 482555.0 0
220187.0 484774.0 0
224153.0 481646.0 0
228378.0 480065.0 0
227486.0 483533.0 0
231143.0 483135.0 0
235651.0 482722.0 0
239932.0 482398.0 0
243994.0 480593.0 0
247483.0 482825.0 0
251419.0 481397.0 0
256211.0 479965.0 0
258336.0 483706.0 0
260187.0 480805.0 0
262565.0 484409.0 0
267920.0 482424.0 0
273412.0 481946.0 0
278567.0 481124.0 0
284210.0 482607.0 0
288795.0 481073.0 0
292170.0 483147.0 0
295046.0 480934.0 0
298565.0 482171.0 0
302597.0 483899.0 0
305437.0 481578.0 0
308940.0 482380.0 0
312546.0 483541.0 0
317018.0 482272.0 0
320522.0 481188.0 0
324033.0 480908.0 0
327865.0 484484.0 0
332912.0 484742.0 0
337011.0 482573.0 0
341099.0 482686.0 0
345348.0 484657.0 0
355195.0 481408.0 0
350506.0 483759.0 0
353971.0 485722.0 0
359936.0 481641.0 0
358668.0 485170.0 0
363155.0 484234.0 0
366941.0 482922.0 0
371269.0 484356.0 0
376021.0 483901.0 0
380321.0 483886.0 0
383894.0 483314.0 0
387405.0 482561.0 0
387463.0 486103.0 0
391097.0 484350.0 0
394293.0 485939.0 0
397530.0 484202.0 0
404113.0 484612.0 0
401227.0 486068.0 0
407906.0 485067.0 0
411861.0 485468.0 0
415917.0 485485.0 0
416728.0 482363.0 0
419668.0 484480.0 0
422870.0 483326.0 0
426923.0 485075.0 0
431127.0 485049.0 0
434271.0 486652.0 0
436177.0 483643.0 0
439338.0 485847.0 0
443827.0 486334.0 0
447722.0 484522.0 0
450788.0 483147.0 0
448936.0 487399.0 0
455450.0 484970.0 0
452348.0 486447.0 0
460641.0 485272.0 0
457621.0 487858.0 0
463663.0 483890.0 0
466683.0 485857.0 0
469371.0 486934.0 0
471341.0 484805.0 0
470894.0 488017.0 0
474286.0 487517.0 0
17736.8 491317.0 0
20746.2 489489.0 0
23102.4 491661.0 0
24556.2 488249.0 0
25610.5 492759.0 0
29064.9 491045.0 0
33372.8 490872.0 0
36496.5 490780.0 0
40450.1 490210.0 0
44003.6 489405.0 0
46975.4 488366.0 0
45538.3 492561.0 0
51458.5 487151.0 0
49056.3 490504.0 0
54000.2 491071.0 0
58220.6 492122.0 0
59552.3 489011.0 0
63658.2 488975.0 0
67284.2 488295.0 0
66311.2 491846.0 0
70765.1 487589.0 0
69935.7 490658.0 0
74109.3 489021.0 0
78438.4 488262.0 0
82656.2 488731.0 0
80965.5 491434.0 0
85214.6 486873.0 0
85215.0 490277.0 0
88651.1 488556.0 0
93944.0 487984.0 0
91338.7 491548.0 0
97233.3 489160.0 0
95864.2 491481.0 0
98611.9 491213.0 0
104690.0 488551.0 0
100671.0 488804.0 0
101510.0 491796.0 0
104908.0 492126.0 0
109898.0 490125.0 0
114550.0 487688.0 0
115346.0 491701.0 0
119269.0 487816.0 0
123648.0 489111.0 0
127266.0 486611.0 0
128694.0 490565.0 0
132660.0 486484.0 0
134082.0 490585.0 0
137779.0 486962.0 0
137925.0 490538.0 0
142330.0 486016.0 0
140458.0 488913.0 0
143884.0 489339.0 0
147895.0 489926.0 0
151409.0 490046.0 0
150507.0 487424.0 0
153725.0 488139.0 0
156184.0 485709.0 0
157814.0 489115.0 0
162595.0 488261.0 0
167076.0 487056.0 0
169572.0 489126.0 0
171263.0 485731.0 0
172925.0 489245.0 0
175924.0 486075.0 0
177369.0 490391.0 0
180409.0 486531.0 0
181453.0 490044.0 0
184592.0 487574.0 0
187421.0 489934.0 0
190603.0 490064.0 0
194545.0 488183.0 0
198609.0 485669.0 0
198632.0 489422.0 0
201964.0 488287.0 0
204608.0 486111.0 0
211151.0 487881.0 0
215356.0 486370.0 0
217987.0 488875.0 0
224753.0 486088.0 0
221728.0 489617.0 0
228987.0 486727.0 0
233601.0 487044.0 0
238927.0 487572.0 0
243555.0 485257.0 0
247043.0 486852.0 0
250454.0 485935.0 0
254441.0 484655.0 0
253013.0 489016.0 0
257950.0 488112.0 0
262248.0 488830.0 0
266197.0 487604.0 0
271709.0 487172.0 0
276292.0 485109.0 0
276955.0 489744.0 0
280510.0 486447.0 0
284906.0 488588.0 0
288602.0 485845.0 0
292765.0 488192.0 0
295929.0 485226.0 0
297665.0 489845.0 0
299544.0 485989.0 0
302793.0 488497.0 0
307414.0 486150.0 0
311923.0 488066.0 0
314906.0 489968.0 0
316523.0 486623.0 0
317385.0 489997.0 0
320156.0 489543.0 0
321929.0 485462.0 0
326329.0 489647.0 0
331455.0 488122.0 0
336179.0 486913.0 0
339575.0 490438.0 0
340593.0 486437.0 0
344862.0 489928.0 0
349259.0 487412.0 0
352531.0 488516.0 0
356708.0 488532.0 0
362518.0 489078.0 0
366800.0 486774.0 0
370655.0 488427.0 0
375302.0 488350.0 0
379339.0 487316.0 0
383604.0 487063.0 0
381117.0 489698.0 0
391032.0 487859.0 0
387774.0 489535.0 0
394641.0 489538.0 0
391384.0 491905.0 0
398017.0 487759.0 0
397990.0 491526.0 0
401140.0 489872.0 0
405376.0 488404.0 0
410151.0 488765.0 0
414771.0 489163.0 0
415413.0 492067.0 0
419244.0 488057.0 0
418300.0 491761.0 0
422845.0 487021.0 0
426470.0 488925.0 0
422850.0 491216.0 0
430432.0 488798.0 0
434449.0 490267.0 0
437188.0 488031.0 0
440055.0 488852.0 0
438229.0 491871.0 0
442657.0 491152.0 0
451128.0 490475.0 0
447024.0 490151.0 0
454432.0 489788.0 0
456287.0 492756.0 0
460009.0 491333.0 0
463775.0 488859.0 0
467940.0 489853.0 0
470816.0 490309.0 0
467683.0 493187.0 0
474256.0 491933.0 0
478263.0 489630.0 0
481745.0 490434.0 0
484599.0 492642.0 0
7841.08 496675.0 0
12071.8 496480.0 0
15116.8 493539.0 0
17667.1 495277.0 0
16091.3 497965.0 0
20125.6 493232.0 0
22731.8 496289.0 0
19136.7 497294.0 0
27107.9 495448.0 0
29904.6 495025.0 0
33167.7 493818.0 0
36661.4 493791.0 0
32985.2 496885.0 0
36553.9 497133.0 0
40783.1 493971.0 0
40174.0 497483.0 0
44470.4 496303.0 0
49949.0 494586.0 0
55458.9 494864.0 0
58987.6 494644.0 0
62212.2 492733.0 0
61719.6 497232.0 0
65649.2 495128.0 0
69296.7 494051.0 0
72754.7 492760.0 0
68822.2 497280.0 0
73078.2 496201.0 0
76729.5 492824.0 0
77164.5 496259.0 0
80596.2 495123.0 0
83980.2 493308.0 0
87397.5 492918.0 0
89169.9 496385.0 0
94125.3 495320.0 0
98643.2 493704.0 0
102473.0 495307.0 0
107773.0 495004.0 0
112197.0 494580.0 0
116195.0 496465.0 0
119755.0 492590.0 0
124170.0 493310.0 0
127973.0 494674.0 0
131972.0 494479.0 0
136534.0 494162.0 0
140480.0 492526.0 0
145111.0 494134.0 0
150333.0 493197.0 0
154125.0 491488.0 0
153718.0 495316.0 0
156864.0 493131.0 0
160617.0 492399.0 0
165813.0 491770.0 0
170121.0 492648.0 0
173918.0 492459.0 0
175960.0 495337.0 0
180226.0 494087.0 0
184387.0 492311.0 0
188488.0 494500.0 0
193444.0 492963.0 0
197073.0 491951.0 0
201327.0 492879.0 0
206056.0 490151.0 0
210285.0 492527.0 0
214730.0 490872.0 0
218695.0 493472.0 0
223299.0 494282.0 0
226192.0 490445.0 0
227781.0 494492.0 0
230695.0 490828.0 0
235365.0 491566.0 0
240121.0 493302.0 0
244321.0 490306.0 0
249126.0 489821.0 0
247891.0 494292.0 0
251534.0 492474.0 0
255291.0 492659.0 0
260133.0 492166.0 0
264122.0 491668.0 0
268499.0 491690.0 0
265824.0 495073.0 0
273313.0 492960.0 0
277940.0 494745.0 0
281431.0 491801.0 0
285820.0 493303.0 0
289075.0 490613.0 0
289372.0 494341.0 0
293330.0 493144.0 0
297371.0 494428.0 0
301969.0 493435.0 0
307784.0 492000.0 0
312576.0 492084.0 0
317260.0 494347.0 0
322481.0 492599.0 0
331196.0 492673.0 0
335315.0 490713.0 0
342019.0 494064.0 0
349881.0 491367.0 0
347042.0 495838.0 0
354437.0 491685.0 0
352448.0 495229.0 0
358261.0 491460.0 0
357436.0 495496.0 0
361356.0 493349.0 0
365477.0 494051.0 0
367848.0 491221.0 0
370431.0 496032.0 0
372976.0 492168.0 0
375225.0 495754.0 0
378530.0 492535.0 0
383840.0 491524.0 0
387579.0 497023.0 0
387603.0 493515.0 0
391162.0 495535.0 0
395382.0 494424.0 0
400350.0 495086.0 0
403952.0 492737.0 0
405772.0 496699.0 0
408142.0 492539.0 0
411095.0 495952.0 0
412718.0 492160.0 0
416237.0 495660.0 0
421181.0 495192.0 0
424669.0 494798.0 0
427690.0 492609.0 0
427655.0 496040.0 0
431307.0 496123.0 0
431655.0 492393.0 0
434964.0 494501.0 0
438562.0 495675.0 0
446065.0 494136.0 0
441809.0 494975.0 0
450106.0 493776.0 0
449426.0 497327.0 0
453355.0 493786.0 0
456343.0 496766.0 0
452789.0 496957.0 0
462120.0 495240.0 0
459492.0 495059.0 0
464414.0 493448.0 0
465283.0 497804.0 0
468837.0 496628.0 0
470773.0 493497.0 0
472651.0 496233.0 0
475783.0 495614.0 0
478673.0 493795.0 0
482025.0 493476.0 0
483383.0 497181.0 0
487053.0 495025.0 0
490289.0 495984.0 0
492495.0 497929.0 0
2463.84 500028.0 0
2405.96 503040.0 0
9437.96 499750.0 0
5798.2 498774.0 0
13915.5 500768.0 0
18488.0 500429.0 0
22289.5 500619.0 0
26127.8 498770.0 0
26149.1 502669.0 0
29669.0 498899.0 0
30710.7 502471.0 0
33668.2 500101.0 0
34771.4 502809.0 0
38181.8 500820.0 0
41819.3 502493.0 0
42347.5 499314.0 0
47641.2 497868.0 0
45662.1 500720.0 0
50338.7 499943.0 0
53068.6 497361.0 0
57450.7 497757.0 0
54719.1 500636.0 0
59111.8 501180.0 0
63130.3 501532.0 0
65444.0 498410.0 0
67179.5 500995.0 0
71293.3 500187.0 0
75861.3 499490.0 0
80228.6 498614.0 0
83470.6 500818.0 0
84708.7 496953.0 0
87667.2 500963.0 0
91191.1 499372.0 0
98265.7 497500.0 0
94546.8 499664.0 0
101379.0 499312.0 0
105513.0 498704.0 0
111018.0 498724.0 0
114649.0 500741.0 0
118685.0 500574.0 0
120969.0 496720.0 0
122871.0 500580.0 0
125234.0 497608.0 0
129543.0 498392.0 0
134354.0 497978.0 0
139571.0 497303.0 0
144039.0 499237.0 0
149289.0 497470.0 0
153673.0 500354.0 0
158308.0 496926.0 0
163039.0 495807.0 0
162485.0 499851.0 0
167708.0 497802.0 0
172091.0 495763.0 0
173274.0 499791.0 0
178432.0 498899.0 0
183662.0 497805.0 0
188437.0 499931.0 0
192828.0 497775.0 0
197094.0 495586.0 0
200774.0 497934.0 0
205950.0 496207.0 0
210221.0 496196.0 0
210608.0 499441.0 0
214361.0 495853.0 0
218651.0 498699.0 0
222160.0 497867.0 0
225719.0 498165.0 0
229230.0 497659.0 0
231924.0 494953.0 0
232693.0 499284.0 0
236205.0 496148.0 0
240029.0 498015.0 0
243760.0 496489.0 0
247558.0 499773.0 0
252286.0 496585.0 0
257990.0 495757.0 0
255967.0 499605.0 0
262148.0 495293.0 0
260936.0 499318.0 0
265888.0 499628.0 0
269933.0 496468.0 0
274469.0 497958.0 0
278511.0 498853.0 0
282763.0 497178.0 0
287613.0 497694.0 0
291362.0 497038.0 0
295270.0 498307.0 0
299524.0 497255.0 0
303446.0 498228.0 0
305430.0 495670.0 0
307627.0 497482.0 0
311581.0 496103.0 0
315052.0 499136.0 0
321773.0 497245.0 0
326698.0 495672.0 0
328911.0 499790.0 0
331758.0 497561.0 0
334837.0 500079.0 0
336971.0 495601.0 0
342301.0 499106.0 0
351078.0 499597.0 0
355218.0 498746.0 0
359331.0 500862.0 0
362263.0 497388.0 0
364806.0 500925.0 0
366558.0 497630.0 0
375221.0 500301.0 0
378728.0 497219.0 0
383032.0 496213.0 0
381128.0 501015.0 0
385845.0 500191.0 0
390181.0 499557.0 0
393930.0 498241.0 0
397656.0 498897.0 0
402062.0 499763.0 0
409579.0 499333.0 0
414335.0 500230.0 0
419970.0 499339.0 0
424709.0 498527.0 0
428574.0 498588.0 0
436033.0 498805.0 0
431927.0 499571.0 0
440742.0 499065.0 0
444912.0 497967.0 0
448008.0 500010.0 0
451916.0 500286.0 0
454900.0 499832.0 0
455680.0 502648.0 0
460748.0 498165.0 0
458350.0 500468.0 0
462679.0 501151.0 0
467512.0 501564.0 0
471018.0 499730.0 0
475771.0 498754.0 0
474367.0 502089.0 0
478209.0 501620.0 0
479367.0 497723.0 0
481049.0 500588.0 0
487991.0 499481.0 0
489440.0 503772.0 0
483952.0 500903.0 0
492050.0 501796.0 0
495655.0 499992.0 0
496860.0 503007.0 0
2016.3 505848.0 0
6475.18 503028.0 0
5391.47 506762.0 0
8749.25 506887.0 0
11035.0 503583.0 0
16267.6 503904.0 0
21191.3 504830.0 0
17440.1 508469.0 0
25098.3 506808.0 0
28517.4 505318.0 0
32917.2 506235.0 0
36751.4 508687.0 0
38036.4 505019.0 0
41617.6 505912.0 0
45115.5 504402.0 0
48422.4 502892.0 0
51876.7 503700.0 0
48333.5 506190.0 0
52063.9 507510.0 0
56165.2 504391.0 0
60119.9 504268.0 0
63135.3 505188.0 0
65720.2 503557.0 0
66260.8 505741.0 0
69219.6 504166.0 0
73948.5 503667.0 0
79257.9 503373.0 0
84399.8 504556.0 0
88097.4 505323.0 0
92215.0 503538.0 0
97746.0 502400.0 0
102705.0 502526.0 0
99850.6 506447.0 0
107705.0 502517.0 0
104279.0 506141.0 0
112314.0 503731.0 0
116417.0 504531.0 0
121551.0 504824.0 0
126767.0 502078.0 0
126234.0 506044.0 0
131623.0 502313.0 0
136881.0 501547.0 0
134788.0 505699.0 0
140686.0 501464.0 0
139755.0 505300.0 0
143018.0 502970.0 0
147666.0 502401.0 0
151574.0 504964.0 0
158503.0 501307.0 0
161472.0 503999.0 0
165631.0 502477.0 0
169596.0 502884.0 0
173294.0 504386.0 0
176361.0 502546.0 0
180560.0 503096.0 0
184931.0 502385.0 0
188022.0 504132.0 0
192293.0 503187.0 0
196756.0 500428.0 0
197041.0 504940.0 0
200495.0 502582.0 0
203520.0 500604.0 0
203526.0 503716.0 0
207068.0 501732.0 0
214522.0 500578.0 0
211570.0 504289.0 0
217493.0 504313.0 0
222839.0 501993.0 0
228547.0 501996.0 0
233804.0 503465.0 0
237010.0 500336.0 0
238989.0 504234.0 0
242577.0 500834.0 0
244854.0 504055.0 0
252021.0 500938.0 0
254797.0 504192.0 0
258844.0 502826.0 0
263212.0 503763.0 0
267408.0 503855.0 0
270810.0 501244.0 0
276128.0 503378.0 0
281231.0 501859.0 0
286004.0 502284.0 0
290967.0 501061.0 0
295304.0 503240.0 0
299474.0 500945.0 0
302971.0 501542.0 0
302927.0 504332.0 0
306333.0 501389.0 0
310633.0 500924.0 0
310615.0 505579.0 0
314701.0 503658.0 0
319445.0 501522.0 0
325219.0 501025.0 0
328397.0 505295.0 0
331511.0 502164.0 0
338323.0 500606.0 0
335954.0 504097.0 0
340203.0 503640.0 0
343843.0 503173.0 0
347022.0 501289.0 0
350817.0 504002.0 0
355053.0 502465.0 0
354020.0 505695.0 0
362879.0 504176.0 0
369661.0 501125.0 0
367020.0 504512.0 0
372761.0 505595.0 0
378316.0 505068.0 0
384891.0 503301.0 0
382565.0 505266.0 0
389348.0 503559.0 0
394270.0 502940.0 0
398782.0 503155.0 0
400168.0 507081.0 0
402993.0 504386.0 0
406344.0 501629.0 0
407109.0 506043.0 0
410840.0 506927.0 0
410870.0 503195.0 0
414833.0 505410.0 0
417571.0 503003.0 0
419373.0 506705.0 0
421318.0 503478.0 0
424765.0 502702.0 0
423443.0 506428.0 0
429108.0 502329.0 0
427280.0 506136.0 0
431692.0 506181.0 0
434083.0 502882.0 0
435916.0 506229.0 0
439205.0 503412.0 0
444338.0 502508.0 0
443239.0 506867.0 0
446816.0 506305.0 0
449006.0 503111.0 0
450956.0 506894.0 0
452974.0 503453.0 0
455413.0 506554.0 0
459896.0 504384.0 0
464699.0 503774.0 0
471457.0 503989.0 0
468448.0 505490.0 0
472404.0 507458.0 0
476352.0 505628.0 0
481260.0 504663.0 0
485623.0 504158.0 0
492942.0 505717.0 0
489047.0 507855.0 0
497091.0 506986.0 0
2072.64 508684.0 0
1769.58 511241.0 0
6369.01 510941.0 0
12958.4 507185.0 0
10345.9 509940.0 0
14365.9 511410.0 0
21500.4 509696.0 0
25017.4 510709.0 0
28606.0 509152.0 0
32813.2 511972.0 0
37947.2 512248.0 0
40140.6 508715.0 0
41484.0 511545.0 0
44582.4 508581.0 0
48642.8 510009.0 0
51814.1 510791.0 0
55455.7 507935.0 0
54796.1 511265.0 0
59369.4 508504.0 0
61930.5 512412.0 0
64372.2 508750.0 0
66385.2 512849.0 0
68441.2 508403.0 0
71955.7 506795.0 0
69363.4 511497.0 0
72325.9 510303.0 0
76244.7 507916.0 0
78816.9 511240.0 0
81491.6 507882.0 0
85787.6 508740.0 0
90663.9 508999.0 0
95316.8 507179.0 0
94337.2 511256.0 0
98080.8 510743.0 0
101925.0 509910.0 0
105822.0 509574.0 0
109255.0 507125.0 0
113367.0 508296.0 0
117988.0 508844.0 0
123032.0 509692.0 0
128110.0 510798.0 0
130249.0 506358.0 0
132962.0 509770.0 0
137290.0 509326.0 0
141439.0 509721.0 0
144349.0 506293.0 0
148317.0 506989.0 0
151796.0 509483.0 0
156394.0 505958.0 0
160810.0 508610.0 0
164806.0 506328.0 0
164981.0 510580.0 0
168774.0 507205.0 0
173335.0 508695.0 0
176917.0 505828.0 0
178692.0 509999.0 0
184102.0 507363.0 0
189626.0 507669.0 0
193631.0 507289.0 0
197029.0 509725.0 0
201237.0 506896.0 0
203770.0 509967.0 0
206454.0 506533.0 0
210319.0 508482.0 0
214094.0 508296.0 0
218171.0 509707.0 0
222034.0 506761.0 0
225872.0 505345.0 0
226032.0 509381.0 0
230439.0 507124.0 0
235140.0 507302.0 0
238500.0 509426.0 0
242326.0 507202.0 0
249620.0 505128.0 0
246023.0 508756.0 0
249571.0 510084.0 0
253729.0 509118.0 0
259533.0 508018.0 0
266047.0 508516.0 0
271140.0 506258.0 0
278606.0 507078.0 0
275496.0 509409.0 0
282259.0 506311.0 0
279781.0 510172.0 0
287086.0 507762.0 0
291560.0 505749.0 0
299225.0 505093.0 0
296072.0 508807.0 0
302242.0 509158.0 0
306457.0 505572.0 0
307514.0 509649.0 0
311363.0 509603.0 0
314288.0 507552.0 0
316546.0 510347.0 0
318126.0 506604.0 0
323070.0 505881.0 0
326467.0 509826.0 0
332412.0 505725.0 0
331167.0 509706.0 0
334819.0 507997.0 0
339175.0 508361.0 0
342792.0 506248.0 0
343977.0 510101.0 0
347221.0 506454.0 0
347789.0 510886.0 0
352255.0 509443.0 0
358607.0 506902.0 0
362255.0 510830.0 0
364725.0 508010.0 0
368773.0 507425.0 0
368041.0 510255.0 0
371337.0 510327.0 0
376183.0 510197.0 0
381814.0 509690.0 0
386801.0 507431.0 0
386151.0 511425.0 0
390190.0 510645.0 0
392114.0 507209.0 0
396289.0 507262.0 0
394395.0 510816.0 0
399510.0 511439.0 0
403970.0 509031.0 0
408742.0 510819.0 0
413529.0 509605.0 0
416949.0 508530.0 0
418964.0 509754.0 0
421972.0 509835.0 0
425542.0 509146.0 0
429639.0 509754.0 0
435004.0 510501.0 0
439451.0 508310.0 0
443087.0 510669.0 0
447173.0 510149.0 0
452006.0 510630.0 0
455650.0 510385.0 0
459378.0 509082.0 0
462683.0 512499.0 0
464427.0 507989.0 0
467257.0 512276.0 0
469199.0 509162.0 0
472427.0 512201.0 0
475748.0 509804.0 0
478215.0 512552.0 0
480034.0 508994.0 0
484498.0 508626.0 0
488360.0 512212.0 0
493227.0 510240.0 0
497701.0 510421.0 0
2661.6 514300.0 0
7165.67 516094.0 0
10841.1 513547.0 0
11537.5 517479.0 0
18615.4 512953.0 0
15114.9 515404.0 0
22839.9 514349.0 0
27385.2 514041.0 0
30855.9 516929.0 0
36013.4 516240.0 0
40463.7 515376.0 0
45264.1 513565.0 0
50466.8 513857.0 0
47840.4 517153.0 0
54481.6 515333.0 0
58029.2 512846.0 0
60135.7 514560.0 0
58399.6 516655.0 0
63239.7 516712.0 0
70872.3 514769.0 0
75190.9 513028.0 0
82933.7 512477.0 0
78706.4 515397.0 0
82124.6 517082.0 0
87591.1 512536.0 0
85406.4 515610.0 0
91556.2 513949.0 0
88417.2 516951.0 0
96339.8 515504.0 0
100810.0 513881.0 0
104394.0 512642.0 0
109475.0 512723.0 0
114407.0 513243.0 0
119561.0 513947.0 0
124531.0 514494.0 0
128709.0 515622.0 0
131963.0 513942.0 0
135214.0 512672.0 0
138543.0 513090.0 0
140532.0 516489.0 0
142394.0 513354.0 0
146498.0 511151.0 0
151042.0 514518.0 0
156329.0 511960.0 0
159199.0 515540.0 0
160944.0 512380.0 0
163816.0 515581.0 0
169249.0 511957.0 0
174069.0 514100.0 0
183005.0 512157.0 0
179723.0 515341.0 0
187303.0 511807.0 0
190631.0 514739.0 0
192464.0 510963.0 0
195390.0 514581.0 0
200817.0 513485.0 0
205444.0 514773.0 0
207366.0 511302.0 0
208804.0 514748.0 0
211896.0 512080.0 0
216022.0 513600.0 0
220511.0 514631.0 0
222245.0 510872.0 0
225237.0 513841.0 0
229774.0 512392.0 0
234310.0 511344.0 0
238209.0 514204.0 0
242507.0 511695.0 0
247038.0 513852.0 0
251650.0 513582.0 0
256803.0 514077.0 0
262679.0 513473.0 0
267438.0 513437.0 0
271047.0 511298.0 0
275125.0 514314.0 0
280067.0 514653.0 0
284148.0 514800.0 0
283584.0 511136.0 0
287477.0 513065.0 0
291159.0 510324.0 0
290648.0 513481.0 0
294227.0 513910.0 0
299440.0 514597.0 0
305217.0 513874.0 0
309814.0 513410.0 0
313735.0 512725.0 0
317501.0 514623.0 0
321131.0 511126.0 0
325268.0 513841.0 0
329827.0 514359.0 0
335753.0 512513.0 0
340892.0 513504.0 0
345501.0 514042.0 0
349417.0 513914.0 0
353341.0 514184.0 0
358094.0 512733.0 0
363070.0 514391.0 0
365583.0 511888.0 0
366480.0 514927.0 0
369131.0 513102.0 0
373382.0 514819.0 0
378079.0 514864.0 0
381086.0 513870.0 0
384152.0 514107.0 0
388043.0 514414.0 0
392103.0 514616.0 0
396270.0 515155.0 0
404682.0 513827.0 0
409786.0 515893.0 0
417082.0 512437.0 0
412721.0 513251.0 0
414673.0 516133.0 0
421483.0 513547.0 0
418726.0 516620.0 0
426266.0 513377.0 0
423828.0 517429.0 0
431419.0 514433.0 0
436617.0 515300.0 0
439882.0 512454.0 0
441221.0 516298.0 0
444812.0 514341.0 0
449822.0 514660.0 0
454473.0 513685.0 0
458207.0 512730.0 0
453959.0 517328.0 0
456885.0 515734.0 0
460573.0 515820.0 0
465550.0 516265.0 0
469367.0 515117.0 0
472715.0 516989.0 0
475938.0 515182.0 0
483324.0 513271.0 0
479558.0 516345.0 0
487962.0 516942.0 0
492714.0 514773.0 0
497303.0 513739.0 0
497409.0 517541.0 0
2500.93 518126.0 0
2069.85 521768.0 0
9440.64 519571.0 0
6263.77 520953.0 0
14829.1 519500.0 0
11637.4 521756.0 0
19691.6 518096.0 0
25394.2 518628.0 0
29542.2 520856.0 0
34173.3 520457.0 0
37134.4 524087.0 0
39003.7 519692.0 0
43566.2 518533.0 0
51034.6 518373.0 0
47396.9 520868.0 0
51203.3 522578.0 0
54815.1 519718.0 0
60243.4 521681.0 0
67430.0 517029.0 0
66244.3 520776.0 0
70540.9 519489.0 0
74668.6 517755.0 0
78649.1 519749.0 0
82788.9 521222.0 0
85362.2 518561.0 0
87618.1 521740.0 0
92482.7 518962.0 0
100336.0 517929.0 0
103026.0 521803.0 0
105111.0 516759.0 0
106878.0 520276.0 0
110442.0 518405.0 0
115764.0 518478.0 0
121452.0 518580.0 0
126068.0 518009.0 0
130070.0 519532.0 0
135181.0 517165.0 0
139749.0 521274.0 0
145557.0 516768.0 0
150180.0 519442.0 0
155294.0 517528.0 0
160104.0 519755.0 0
164741.0 520149.0 0
168934.0 517284.0 0
173471.0 520333.0 0
176206.0 517401.0 0
177933.0 519491.0 0
181613.0 520086.0 0
184805.0 516133.0 0
188599.0 518623.0 0
192994.0 519000.0 0
198321.0 519540.0 0
203027.0 517905.0 0
207265.0 518787.0 0
212437.0 517095.0 0
217255.0 517740.0 0
221096.0 518818.0 0
224506.0 517685.0 0
228378.0 516760.0 0
233358.0 516503.0 0
239316.0 518193.0 0
242768.0 516384.0 0
246673.0 518688.0 0
252874.0 517601.0 0
256588.0 518594.0 0
260459.0 517896.0 0
266065.0 518142.0 0
270908.0 515997.0 0
274515.0 519040.0 0
270344.0 520006.0 0
278929.0 519145.0 0
282776.0 518975.0 0
286413.0 517622.0 0
290368.0 516462.0 0
294518.0 519226.0 0
298965.0 519608.0 0
303367.0 518783.0 0
308812.0 518339.0 0
313659.0 516810.0 0
317823.0 519522.0 0
321721.0 516609.0 0
326343.0 518072.0 0
330622.0 518981.0 0
333741.0 516496.0 0
334768.0 520753.0 0
338129.0 517231.0 0
343353.0 518281.0 0
347803.0 517406.0 0
351829.0 517849.0 0
354752.0 521251.0 0
356191.0 517534.0 0
358360.0 520777.0 0
360607.0 517634.0 0
365331.0 518774.0 0
369470.0 517121.0 0
372557.0 519221.0 0
376848.0 519551.0 0
381693.0 517554.0 0
385607.0 517512.0 0
389906.0 518715.0 0
393583.0 518222.0 0
396907.0 520030.0 0
400805.0 516944.0 0
405667.0 519389.0 0
410305.0 519941.0 0
412988.0 518805.0 0
416262.0 519768.0 0
420520.0 520486.0 0
425698.0 521808.0 0
428414.0 517984.0 0
430661.0 522265.0 0
433403.0 518665.0 0
438281.0 519701.0 0
446757.0 518780.0 0
442887.0 520119.0 0
450896.0 518904.0 0
457839.0 519359.0 0
453946.0 521230.0 0
462490.0 518844.0 0
461294.0 522406.0 0
466467.0 521332.0 0
469165.0 518425.0 0
472613.0 521620.0 0
476569.0 519024.0 0
480055.0 519736.0 0
483270.0 517967.0 0
483168.0 522507.0 0
486026.0 520127.0 0
492715.0 519790.0 0
497384.0 521640.0 0
3338.22 525966.0 0
8447.66 524239.0 0
11965.4 525506.0 0
17122.3 524201.0 0
22425.4 522272.0 0
22231.9 526255.0 0
26566.7 524246.0 0
31819.6 524249.0 0
34592.1 527873.0 0
42752.0 524314.0 0
47795.2 525063.0 0
48393.8 527657.0 0
51484.0 527832.0 0
54864.7 524000.0 0
61038.6 526358.0 0
65375.6 525505.0 0
70439.1 524117.0 0
75004.5 522351.0 0
79169.0 524141.0 0
83972.7 525623.0 0
88443.2 526672.0 0
92073.4 523715.0 0
97279.4 521207.0 0
100004.0 525607.0 0
108096.0 522911.0 0
104977.0 526324.0 0
112616.0 523007.0 0
118427.0 523713.0 0
125068.0 522490.0 0
129620.0 524102.0 0
134000.0 522538.0 0
142502.0 525349.0 0
145516.0 522020.0 0
149752.0 524256.0 0
154036.0 522054.0 0
157968.0 524164.0 0
162848.0 524114.0 0
168429.0 523091.0 0
173132.0 525588.0 0
178026.0 523813.0 0
183233.0 524865.0 0
185225.0 520767.0 0
188845.0 523711.0 0
194275.0 524059.0 0
203277.0 522782.0 0
207304.0 523050.0 0
210589.0 521957.0 0
214911.0 521687.0 0
218757.0 521379.0 0
217676.0 524930.0 0
222433.0 522855.0 0
227288.0 521469.0 0
231666.0 521130.0 0
236434.0 521719.0 0
242488.0 521549.0 0
246972.0 522778.0 0
250233.0 520871.0 0
254492.0 521805.0 0
258836.0 521505.0 0
263181.0 522445.0 0
267729.0 523054.0 0
272427.0 523812.0 0
277227.0 523155.0 0
281383.0 522618.0 0
285664.0 522413.0 0
289719.0 520568.0 0
292549.0 524234.0 0
297446.0 523802.0 0
301113.0 522478.0 0
304767.0 523398.0 0
308927.0 523823.0 0
313094.0 521493.0 0
316203.0 525050.0 0
319530.0 523073.0 0
322855.0 521463.0 0
327110.0 522000.0 0
330908.0 523225.0 0
339651.0 522263.0 0
344398.0 523405.0 0
349548.0 522373.0 0
353838.0 524413.0 0
358210.0 525276.0 0
362104.0 522318.0 0
369591.0 521368.0 0
366273.0 523610.0 0
369799.0 526139.0 0
373500.0 523122.0 0
377920.0 525211.0 0
385782.0 521928.0 0
381020.0 521791.0 0
382426.0 525214.0 0
389846.0 522511.0 0
391369.0 525940.0 0
393174.0 521772.0 0
401159.0 522047.0 0
396953.0 525374.0 0
401793.0 526550.0 0
404614.0 524346.0 0
408858.0 523644.0 0
413535.0 522869.0 0
412034.0 527518.0 0
415522.0 526229.0 0
417545.0 523595.0 0
421668.0 524469.0 0
424746.0 525522.0 0
428486.0 527234.0 0
435544.0 523203.0 0
433115.0 525914.0 0
436901.0 527338.0 0
440699.0 524463.0 0
445751.0 523749.0 0
450007.0 522597.0 0
449564.0 526810.0 0
456929.0 523629.0 0
453202.0 525291.0 0
460118.0 526112.0 0
464153.0 525911.0 0
469299.0 525646.0 0
478094.0 523361.0 0
474514.0 526544.0 0
482212.0 526291.0 0
488752.0 523009.0 0
485444.0 526071.0 0
493869.0 524987.0 0
498279.0 524833.0 0
497888.0 527693.0 0
3682.24 531908.0 0
8586.75 528553.0 0
13731.5 529470.0 0
19282.2 529986.0 0
25287.8 528849.0 0
29769.0 528331.0 0
28384.6 532483.0 0
33466.0 532563.0 0
39733.4 529819.0 0
45929.1 529667.0 0
56883.2 527904.0 0
53701.8 532582.0 0
61854.9 529689.0 0
66419.1 530481.0 0
70612.9 528848.0 0
73121.9 531714.0 0
75194.5 527555.0 0
80348.8 528850.0 0
85822.1 529028.0 0
88609.2 531647.0 0
92494.5 528539.0 0
95878.0 525668.0 0
97106.3 529657.0 0
101760.0 529835.0 0
106412.0 530440.0 0
109548.0 527015.0 0
111208.0 531208.0 0
114331.0 527645.0 0
118959.0 529680.0 0
122785.0 526926.0 0
126868.0 527070.0 0
124507.0 531510.0 0
129272.0 529579.0 0
132190.0 527027.0 0
133241.0 531120.0 0
137400.0 527112.0 0
142785.0 529729.0 0
146135.0 526567.0 0
149459.0 528778.0 0
153589.0 526643.0 0
157458.0 528538.0 0
161917.0 529255.0 0
166112.0 527353.0 0
170011.0 529017.0 0
174047.0 529769.0 0
178487.0 529086.0 0
183125.0 529562.0 0
186703.0 527942.0 0
191424.0 528884.0 0
198946.0 525986.0 0
195710.0 528761.0 0
203327.0 528153.0 0
207128.0 526351.0 0
212465.0 527374.0 0
217429.0 528555.0 0
221101.0 527337.0 0
225842.0 526506.0 0
230925.0 525719.0 0
239716.0 525924.0 0
235498.0 526850.0 0
244829.0 527334.0 0
248393.0 530220.0 0
251315.0 526530.0 0
257247.0 526064.0 0
261307.0 526037.0 0
260630.0 530184.0 0
265392.0 527524.0 0
269369.0 526236.0 0
275640.0 527836.0 0
280210.0 526500.0 0
283845.0 526273.0 0
284680.0 530136.0 0
288243.0 527005.0 0
293248.0 529500.0 0
297976.0 528259.0 0
301658.0 526194.0 0
306077.0 527469.0 0
311630.0 528915.0 0
317374.0 529644.0 0
320741.0 526433.0 0
325641.0 526134.0 0
327787.0 531021.0 0
330545.0 527487.0 0
335714.0 526300.0 0
338036.0 530829.0 0
341653.0 527919.0 0
347500.0 527767.0 0
353677.0 528745.0 0
359534.0 530757.0 0
363621.0 527380.0 0
367462.0 529793.0 0
373985.0 526958.0 0
371829.0 530559.0 0
376488.0 529894.0 0
386297.0 526870.0 0
381341.0 529425.0 0
385592.0 530889.0 0
389608.0 530313.0 0
394558.0 530272.0 0
399689.0 530632.0 0
403310.0 529483.0 0
407129.0 528411.0 0
415558.0 530317.0 0
418947.0 527614.0 0
423205.0 528399.0 0
425606.0 531222.0 0
429706.0 532425.0 0
433381.0 529814.0 0
437495.0 531042.0 0
441228.0 529581.0 0
445683.0 528213.0 0
448992.0 530436.0 0
452646.0 529536.0 0
456626.0 527900.0 0
461215.0 529740.0 0
466448.0 530454.0 0
471453.0 529551.0 0
475632.0 531248.0 0
479274.0 528207.0 0
484160.0 530068.0 0
489157.0 528247.0 0
487441.0 532487.0 0
493974.0 529509.0 0
491095.0 532494.0 0
497524.0 531666.0 0
3209.58 537572.0 0
9804.49 533396.0 0
15216.0 534454.0 0
19853.1 534535.0 0
23637.5 532778.0 0
22477.5 536546.0 0
26487.9 536482.0 0
30904.9 536571.0 0
37952.0 535543.0 0
43298.7 533966.0 0
48728.1 534575.0 0
53108.1 537720.0 0
58471.3 532208.0 0
57647.9 536136.0 0
62488.6 534079.0 0
67006.1 535317.0 0
70016.9 532538.0 0
72036.5 536540.0 0
77472.1 533496.0 0
83814.8 531692.0 0
81911.7 534840.0 0
85759.2 535595.0 0
90294.5 535837.0 0
93739.6 532885.0 0
98775.2 533936.0 0
103637.0 533693.0 0
108156.0 534430.0 0
112994.0 535355.0 0
115083.0 531715.0 0
118436.0 534947.0 0
129355.0 533510.0 0
133625.0 536238.0 0
138034.0 532892.0 0
142636.0 534497.0 0
146742.0 532631.0 0
150095.0 531907.0 0
150468.0 535270.0 0
153597.0 531411.0 0
154980.0 536134.0 0
158283.0 532858.0 0
162259.0 533593.0 0
166225.0 531832.0 0
168886.0 535097.0 0
171794.0 532778.0 0
175881.0 533347.0 0
181072.0 534270.0 0
187061.0 532805.0 0
191876.0 533608.0 0
194660.0 531619.0 0
199237.0 531981.0 0
203925.0 534433.0 0
207310.0 531092.0 0
212113.0 534211.0 0
215982.0 531513.0 0
219491.0 531436.0 0
217736.0 535521.0 0
223754.0 531258.0 0
221269.0 534092.0 0
228460.0 530596.0 0
233287.0 531107.0 0
238543.0 530660.0 0
236425.0 535405.0 0
242478.0 531497.0 0
241483.0 535434.0 0
246102.0 533166.0 0
248928.0 535496.0 0
251283.0 532700.0 0
255752.0 530887.0 0
255173.0 535308.0 0
259877.0 535350.0 0
265058.0 533321.0 0
270448.0 530651.0 0
274989.0 532199.0 0
279804.0 531799.0 0
284550.0 535219.0 0
288813.0 532270.0 0
297288.0 532300.0 0
302447.0 531494.0 0
307748.0 533456.0 0
312844.0 535111.0 0
317846.0 534152.0 0
322357.0 531319.0 0
325628.0 534963.0 0
329779.0 535182.0 0
333460.0 531804.0 0
337233.0 535563.0 0
341510.0 533438.0 0
345327.0 531689.0 0
346079.0 536146.0 0
350070.0 532999.0 0
355703.0 534527.0 0
364222.0 532094.0 0
360547.0 535154.0 0
364341.0 536059.0 0
368392.0 534206.0 0
374013.0 534290.0 0
378631.0 533865.0 0
383408.0 534237.0 0
387433.0 533736.0 0
391912.0 534842.0 0
397113.0 534771.0 0
401718.0 533447.0 0
405244.0 533145.0 0
410900.0 532875.0 0
415833.0 534467.0 0
420663.0 532853.0 0
425853.0 535210.0 0
430467.0 536791.0 0
435004.0 534437.0 0
440220.0 534173.0 0
445422.0 533169.0 0
451482.0 533817.0 0
457190.0 532534.0 0
455727.0 536478.0 0
462082.0 534127.0 0
466651.0 534981.0 0
471487.0 534041.0 0
469217.0 537638.0 0
476470.0 535851.0 0
480316.0 532960.0 0
480869.0 537533.0 0
484610.0 534773.0 0
494449.0 534500.0 0
489763.0 537470.0 0
498006.0 535229.0 0
2010.68 541924.0 0
8526.64 537807.0 0
5789.03 542043.0 0
9483.33 541603.0 0
13249.2 539344.0 0
18818.3 539023.0 0
23844.5 539699.0 0
21607.2 541821.0 0
28836.2 541214.0 0
34329.3 538832.0 0
38644.8 541326.0 0
41974.1 537935.0 0
45556.1 537603.0 0
44113.9 541127.0 0
48760.4 540059.0 0
52755.2 541933.0 0
57640.0 541433.0 0
61746.1 538257.0 0
65772.9 538930.0 0
76616.0 538644.0 0
72902.6 541642.0 0
81262.0 538701.0 0
87965.2 540021.0 0
92604.8 541814.0 0
94960.4 537790.0 0
100077.0 538494.0 0
104574.0 537822.0 0
109596.0 539952.0 0
115413.0 539794.0 0
119612.0 539324.0 0
123874.0 537182.0 0
126995.0 541838.0 0
128990.0 537656.0 0
139398.0 538957.0 0
143634.0 541340.0 0
145923.0 537861.0 0
150723.0 539642.0 0
155547.0 541108.0 0
159920.0 537682.0 0
164033.0 540208.0 0
165041.0 536219.0 0
168289.0 539256.0 0
172950.0 537333.0 0
177230.0 536833.0 0
181554.0 539537.0 0
185171.0 537393.0 0
189856.0 537868.0 0
195443.0 536868.0 0
200668.0 537378.0 0
203701.0 539445.0 0
207506.0 537848.0 0
214279.0 539832.0 0
219423.0 539221.0 0
221836.0 537012.0 0
223919.0 540032.0 0
226569.0 535850.0 0
229203.0 540333.0 0
231706.0 535768.0 0
233912.0 539761.0 0
238726.0 539644.0 0
242877.0 539563.0 0
246511.0 537856.0 0
251582.0 537540.0 0
255441.0 539466.0 0
259726.0 540255.0 0
264037.0 538455.0 0
269537.0 536389.0 0
274689.0 536342.0 0
279697.0 537601.0 0
288753.0 538183.0 0
293416.0 535442.0 0
299216.0 536560.0 0
304137.0 536812.0 0
308614.0 538209.0 0
312550.0 539862.0 0
316715.0 538787.0 0
321822.0 537595.0 0
327313.0 538978.0 0
332962.0 539313.0 0
338251.0 540245.0 0
342063.0 538369.0 0
346184.0 541280.0 0
351456.0 538731.0 0
356782.0 539221.0 0
361501.0 539384.0 0
366689.0 540350.0 0
371472.0 538126.0 0
376247.0 537876.0 0
381262.0 538812.0 0
387249.0 538594.0 0
394881.0 537412.0 0
392601.0 539768.0 0
401892.0 537594.0 0
396924.0 539612.0 0
408038.0 537598.0 0
413364.0 537950.0 0
418358.0 537806.0 0
421586.0 541197.0 0
422398.0 537426.0 0
426672.0 540215.0 0
431243.0 540710.0 0
434117.0 538953.0 0
438334.0 538458.0 0
442988.0 537855.0 0
447988.0 537686.0 0
452425.0 538219.0 0
450703.0 542108.0 0
456176.0 541495.0 0
459670.0 537914.0 0
464691.0 539062.0 0
473181.0 538497.0 0
469813.0 541108.0 0
473550.0 541943.0 0
477180.0 540306.0 0
484384.0 540822.0 0
493340.0 542043.0 0
497115.0 539105.0 0
2733.41 546007.0 0
8114.88 546222.0 0
12422.2 543978.0 0
16479.6 543330.0 0
24273.5 543427.0 0
20502.6 544826.0 0
27212.3 547041.0 0
30867.0 544942.0 0
33796.8 543077.0 0
37079.1 546126.0 0
42182.5 545094.0 0
50500.7 544390.0 0
46758.9 544414.0 0
54710.2 546444.0 0
60441.9 546500.0 0
63218.1 542490.0 0
65749.1 546585.0 0
68283.3 542192.0 0
70411.7 546017.0 0
78001.2 544132.0 0
83657.7 542769.0 0
87340.8 545482.0 0
90035.9 543485.0 0
92158.9 546486.0 0
97553.5 543354.0 0
103897.0 543199.0 0
108646.0 545097.0 0
113073.0 544465.0 0
117986.0 544283.0 0
122111.0 542124.0 0
123943.0 546422.0 0
133136.0 542336.0 0
128801.0 546170.0 0
138967.0 545370.0 0
143860.0 545956.0 0
147176.0 543064.0 0
151645.0 543618.0 0
160674.0 544163.0 0
166766.0 543705.0 0
171665.0 542686.0 0
176890.0 541200.0 0
181161.0 543986.0 0
185914.0 542077.0 0
192177.0 541860.0 0
196550.0 542121.0 0
201176.0 541945.0 0
205617.0 542538.0 0
209850.0 542130.0 0
214069.0 545072.0 0
218657.0 543214.0 0
222945.0 543499.0 0
226969.0 544439.0 0
231747.0 544154.0 0
236552.0 543966.0 0
241700.0 543902.0 0
249253.0 541028.0 0
247208.0 545615.0 0
253178.0 544135.0 0
258256.0 544280.0 0
263126.0 542691.0 0
268197.0 541545.0 0
274293.0 542045.0 0
279457.0 541937.0 0
284146.0 540973.0 0
281989.0 545160.0 0
289834.0 543174.0 0
295615.0 541343.0 0
301036.0 541002.0 0
303178.0 545217.0 0
305207.0 541061.0 0
309484.0 543310.0 0
315141.0 544058.0 0
319768.0 542197.0 0
324232.0 542393.0 0
329236.0 543861.0 0
335900.0 544845.0 0
341599.0 543865.0 0
346203.0 546439.0 0
350293.0 543888.0 0
354627.0 543039.0 0
358822.0 542779.0 0
363162.0 544538.0 0
370782.0 542456.0 0
374479.0 541747.0 0
374397.0 546307.0 0
378757.0 543527.0 0
384386.0 544046.0 0
389994.0 543539.0 0
394764.0 543532.0 0
400087.0 543847.0 0
405504.0 542197.0 0
410766.0 542364.0 0
407807.0 546374.0 0
416603.0 542980.0 0
424679.0 545320.0 0
429994.0 544180.0 0
434852.0 543043.0 0
440241.0 543070.0 0
445506.0 542233.0 0
443762.0 547258.0 0
448474.0 546201.0 0
453438.0 545916.0 0
461356.0 543013.0 0
458210.0 546857.0 0
466384.0 544098.0 0
471452.0 545019.0 0
476161.0 544672.0 0
480418.0 543381.0 0
488772.0 543401.0 0
484513.0 546013.0 0
492310.0 545758.0 0
497555.0 543969.0 0
4884.73 550621.0 0
1216.38 552094.0 0
9669.26 550574.0 0
12747.9 548045.0 0
13977.5 552455.0 0
17206.6 548001.0 0
18639.0 551964.0 0
22019.3 549102.0 0
25453.0 551228.0 0
29826.3 552059.0 0
33039.9 547807.0 0
40365.0 549973.0 0
44888.3 548021.0 0
49422.2 548604.0 0
53331.0 551258.0 0
58028.7 551096.0 0
63252.4 550897.0 0
69041.0 550716.0 0
73743.8 548266.0 0
78115.8 550356.0 0
83019.3 548008.0 0
88325.7 551184.0 0
96397.5 548887.0 0
101207.0 548097.0 0
105915.0 548301.0 0
110884.0 549226.0 0
115669.0 548238.0 0
119748.0 548359.0 0
122820.0 550479.0 0
126953.0 550400.0 0
133446.0 549748.0 0
139096.0 550367.0 0
143364.0 550401.0 0
147426.0 547958.0 0
150644.0 549641.0 0
150910.0 546786.0 0
155143.0 546663.0 0
159554.0 550272.0 0
164882.0 548360.0 0
169778.0 547224.0 0
171770.0 551230.0 0
175510.0 547206.0 0
180105.0 547297.0 0
184616.0 547368.0 0
179973.0 550864.0 0
188084.0 550157.0 0
189734.0 545878.0 0
195456.0 547866.0 0
200434.0 546016.0 0
204775.0 547316.0 0
209639.0 546484.0 0
213296.0 550166.0 0
217526.0 547761.0 0
221393.0 546874.0 0
224938.0 548231.0 0
229796.0 549230.0 0
236621.0 549110.0 0
242468.0 549723.0 0
251939.0 548960.0 0
256511.0 548703.0 0
261173.0 547386.0 0
265765.0 546225.0 0
270501.0 546079.0 0
269910.0 550707.0 0
278239.0 545652.0 0
275322.0 549883.0 0
281022.0 549414.0 0
285747.0 545859.0 0
289288.0 547873.0 0
294252.0 547523.0 0
298800.0 545457.0 0
299396.0 550012.0 0
307095.0 547107.0 0
311521.0 548445.0 0
316501.0 549071.0 0
321668.0 547277.0 0
327298.0 548649.0 0
331849.0 547937.0 0
336530.0 551248.0 0
341929.0 548777.0 0
346134.0 551790.0 0
351330.0 549031.0 0
357599.0 547751.0 0
363469.0 550504.0 0
368628.0 546872.0 0
379207.0 548349.0 0
384235.0 549892.0 0
388244.0 547389.0 0
389336.0 551690.0 0
392817.0 547919.0 0
398023.0 549155.0 0
403449.0 548581.0 0
408336.0 551254.0 0
417261.0 548000.0 0
412683.0 547519.0 0
421205.0 549021.0 0
417864.0 552448.0 0
425512.0 550234.0 0
428741.0 548067.0 0
429996.0 552881.0 0
433316.0 547970.0 0
438542.0 547956.0 0
441751.0 552204.0 0
447767.0 551854.0 0
451169.0 548753.0 0
454837.0 551579.0 0
460107.0 551153.0 0
463314.0 547839.0 0
468310.0 548209.0 0
473965.0 548332.0 0
471257.0 551961.0 0
476343.0 551884.0 0
479769.0 548051.0 0
480810.0 552635.0 0
488847.0 547759.0 0
485467.0 551251.0 0
493752.0 549574.0 0
489943.0 551139.0 0
497907.0 548083.0 0
497783.0 552160.0 0
2837.42 555769.0 0
8026.21 554485.0 0
11897.4 557183.0 0
17646.8 557089.0 0
22648.3 554093.0 0
27108.9 556655.0 0
35334.5 552385.0 0
32348.3 556604.0 0
45611.6 552386.0 0
41595.1 555138.0 0
45777.9 557358.0 0
50230.7 554236.0 0
55071.4 555510.0 0
60456.0 555836.0 0
65831.5 555346.0 0
70396.9 555379.0 0
73856.7 552836.0 0
82329.8 553224.0 0
77906.1 555317.0 0
91218.0 555926.0 0
93706.2 552608.0 0
98403.9 553417.0 0
103555.0 552670.0 0
108658.0 554353.0 0
114202.0 553707.0 0
119307.0 552781.0 0
124183.0 554716.0 0
129305.0 554545.0 0
133555.0 555615.0 0
137959.0 554515.0 0
142922.0 555457.0 0
148118.0 553191.0 0
153999.0 552267.0 0
158338.0 555842.0 0
163253.0 554183.0 0
167593.0 552437.0 0
175847.0 553628.0 0
184476.0 552347.0 0
191772.0 552669.0 0
200868.0 551476.0 0
208183.0 550824.0 0
248087.0 551084.0 0
264361.0 551840.0 0
286069.0 551507.0 0
291037.0 551522.0 0
295328.0 552615.0 0
305261.0 552207.0 0
311040.0 553543.0 0
315990.0 554034.0 0
319922.0 551972.0 0
324205.0 552498.0 0
327827.0 555887.0 0
330677.0 552108.0 0
341659.0 552963.0 0
348453.0 556661.0 0
353105.0 554471.0 0
358464.0 553874.0 0
365095.0 555245.0 0
368778.0 552862.0 0
374889.0 552425.0 0
377919.0 556690.0 0
380732.0 553778.0 0
385695.0 555074.0 0
390516.0 556616.0 0
394403.0 553042.0 0
400983.0 551603.0 0
399394.0 555210.0 0
403886.0 553442.0 0
410295.0 556111.0 0
413196.0 552446.0 0
419675.0 557039.0 0
422727.0 553476.0 0
429227.0 557804.0 0
436068.0 552911.0 0
433335.0 557264.0 0
439761.0 557297.0 0
444606.0 556426.0 0
456580.0 556825.0 0
461126.0 555320.0 0
465727.0 552699.0 0
477989.0 556553.0 0
482737.0 556144.0 0
489168.0 554894.0 0
493737.0 554096.0 0
497576.0 556640.0 0
1347.09 559578.0 0
3291.63 562524.0 0
7070.47 559367.0 0
22898.1 558918.0 0
27005.2 561994.0 0
32620.1 561692.0 0
37296.1 557300.0 0
41792.3 559579.0 0
45377.2 561504.0 0
50965.0 559875.0 0
57304.7 560091.0 0
63586.7 560174.0 0
68962.8 559791.0 0
73905.7 557309.0 0
76351.7 560973.0 0
80530.4 559051.0 0
86048.6 557727.0 0
88281.2 562164.0 0
91522.8 560248.0 0
95544.3 557620.0 0
101019.0 558027.0 0
105646.0 557894.0 0
111834.0 558493.0 0
116191.0 558029.0 0
120372.0 557954.0 0
127133.0 558279.0 0
130993.0 558645.0 0
136292.0 559946.0 0
151684.0 556787.0 0
333144.0 556742.0 0
339364.0 556505.0 0
343871.0 556191.0 0
356059.0 558342.0 0
361890.0 557796.0 0
367985.0 557293.0 0
371602.0 556800.0 0
381649.0 558747.0 0
386724.0 560045.0 0
395239.0 558124.0 0
400890.0 559966.0 0
405557.0 558082.0 0
412165.0 561158.0 0
415064.0 556638.0 0
420707.0 561870.0 0
424645.0 558154.0 0
430829.0 562234.0 0
436220.0 561257.0 0
441985.0 562057.0 0
446324.0 560341.0 0
450954.0 557573.0 0
455058.0 561131.0 0
460243.0 560342.0 0
465669.0 558498.0 0
471994.0 557620.0 0
476379.0 561753.0 0
481215.0 560328.0 0
486481.0 559476.0 0
492684.0 559257.0 0
497910.0 561051.0 0
6996.36 563669.0 0
13034.9 562820.0 0
19587.1 563179.0 0
37951.9 562489.0 0
425632.0 563192.0 0
450879.0 563411.0 0
464078.0 563510.0 0
469275.0 563238.0 0
483821.0 563825.0 0
489669.0 563712.0 0
494990.0 563774.0 0
POINT_DATA 5000
SCALARS Radius float 1
LOOKUP_TABLE default
5415.48 5120.0 3863.18 6182.6 2356.98 5258.36 5061.3 3163.97 5812.43 5580.89 6810.52 6110.27 5840.26 5073.35 4834.9 5085.53 4998.37 5492.18 5867.73 3951.75 3642.12 4499.64 5542.27 5906.14 7513.1 5254.28 4436.4 5733.48 3588.44 5645.7 5553.16 3672.51 4008.92 5561.06 5670.04 6044.04 5351.6 5484.83 4715.55 6059.59 5013.56 4375.68 5054.98 5122.66 5484.19 3557.27 4688.68 4402.52 4182.53 4517.56 4672.91 3761.32 5176.86 4366.19 2938.66 4940.78 3615.22 4380.59 6716.79 3850.77 5325.36 5538.89 4730.36 5701.86 2720.68 4238.81 4468.59 6030.06 5170.02 5200.76 4927.31 4862.64 5185.34 4432.58 5903.42 3955.56 5292.64 4118.05 5065.13 6166.5 5936.02 5305.17 7613.27 5546.39 5945.65 6759.9 7021.47 5926.61 6051.14 4955.55 3563.63 5836.15 4345.55 5885.03 2837.58 5325.02 5246.2 5017.13 5205.43 3673.74 6684.56 3968.64 2635.86 4385.06 4290.3 4231.61 4861.08 3942.53 3379.84 3607.45 4951.03 4133.88 4094.62 5418.62 5493.32 5416.38 4195.44 5740.68 3261.21 6704.06 3653.41 5600.93 3871.88 4827.23 4390.66 6116.18 7447.37 4688.67 7184.19 2924.37 3867.67 4003.05 4827.82 3589.27 4333.2 4665.12 6483.19 6230.49 4174.52 7054.71 4601.27 3641.64 5747.75 4277.89 5539.32 6496.85 3856.01 5541.59 4124.71 5279.39 4911.47 5803.39 4924.6 4381.97 3255.82 4733.32 5242.73 2899.43 2812.98 4065.69 5399.73 4805.87 4712.33 5759.91 5227.21 3260.67 3038.33 3936.02 3383.4 4927.02 3856.1 5980.74 5109.54 6458.82 5489.43 5054.25 4796.33 5360.19 4874.39 4839.34 5083.08 5728.85 6337.56 3998.5 5863.59 6257.19 4737.14 5603.15 5390.22 6038.78 3997.1 5123.52 4295.38 4780.03 4044.71 3829.13 5816.2 3091.3 5527.54 5573.7 7325.81 4794.96 6186.19 2980.99 6834.49 5525.39 4024.3 5938.34 5555.28 5169.36 4695.45 4686.65 4660.72 3888.21 5697.78 4667.36 4392.68 5495.39 3554.9 4487.31 3996.0 5693.81 5789.98 2540.31 6138.47 5697.4 4727.62 4055.8 6425.26 5143.58 4840.01 4484.76 5611.2 7933.0 5173.87 6394.38 5118.27 5932.23 5834.74 5788.23 5556.96 6052.7 3921.18 6902.81 5529.52 5252.48 4002.16 4015.92 4138.16 4778.34 6029.66 4684.5 6302.8 4270.95 5206.78 5280.17 5028.96 6362.12 5152.36 4220.65 4455.12 6820.42 5380.13 4894.16 4896.52 5711.87 3798.62 5581.75 3666.57 5891.05 4254.17 4091.31 7199.21 6124.89 5708.81 5043.05 5120.49 3486.22 5409.61 4414.54 4005.44 6038.2 5555.88 5713.22 6732.43 3866.16 3183.98 4524.28 4511.82 3778.1 5826.64 4816.2 6321.41 4941.22 5791.61 5282.64 4479.66 6392.01 6644.76 5615.42 4523.7 5255.32 5337.48 5542.21 5924.89 6894.71 5262.61 5201.36 5094.81 4306.53 5972.06 5861.71 5017.78 3794.63 6175.81 4727.24 6959.81 4829.35 4089.76 3372.79 4751.02 5184.56 4715.72 3369.13 5367.2 5308.1 6372.62 6730.19 4937.02 7565.34 5637.59 3103.0 5481.78 6084.86 4937.14 3307.12 4467.94 5551.36 6038.14 6135.57 5998.38 4312.67 4359.04 4270.24 5015.69 4989.15 4947.52 4520.1 6677.09 4305.57 5813.4 5201.67 5526.55 3192.41 4987.87 3315.57 4669.66 4808.52 3043.85 5461.13 4907.89 5629.19 6037.08 4049.23 3586.91 3115.91 5478.92 4933.21 4850.81 5094.44 5375.47 4723.12 5024.9 4717.05 5659.17 4562.29 5423.8 3417.33 4164.13 4642.34 5153.74 5874.89 3791.79 4293.03 4424.7 4754.05 4951.47 6084.93 4764.96 5607.24 4726.76 3599.45 5655.21 5090.24 5091.39 6756.95 4929.8 5601.05 4382.74 4948.92 4516.43 4749.8 5810.84 3748.24 4655.49 4809.42 4566.18 5856.11 5287.2 4234.94 5013.13 5080.66 4926.42 5110.45 5248.77 4165.81 4528.09 3556.85 4389.21 4128.98 4925.44 6246.22 5246.61 5215.15 4307.28 5046.33 5804.71 5020.12 5053.92 5839.13 4073.93 5923.5 2240.39 5096.78 6324.23 4727.24 4651.28 4384.42 4362.19 4493.48 4230.54 5082.6 6163.38 4964.09 3459.9 4093.08 5543.27 4109.88 4980.85 3327.49 3960.8 5714.58 4923.9 3329.99 4083.97 5208.32 4607.02 3895.51 6291.51 5882.89 4188.32 4100.38 5538.93 5727.3 6352.26 4242.52 3735.44 4907.06 3847.38 4786.6 4645.41 4433.59 5740.84 4612.68 6355.42 5690.56 3693.63 3937.74 5478.47 6061.47 4997.27 5806.08 4449.22 5628.24 5992.26 5070.39 4613.31 4973.78 3947.47 5091.68 3296.27 4713.25 6673.96 6243.0 5174.89 5370.52 5774.81 4739.42 3697.96 4899.11 4745.45 5356.51 3818.59 3057.03 5495.68 5163.9 4973.83 5530.87 3912.37 3320.52 4310.18 5293.9 4151.94 5927.43 5244.78 5762.84 5119.37 6142.37 3982.23 4853.39 5243.29 5365.89 3130.65 5409.33 4511.54 5196.0 4204.84 6119.09 5069.25 5441.96 5048.89 3991.03 4288.3 3435.9 4652.29 4495.87 5344.77 5027.98 4723.48 4278.07 5097.87 4863.72 5281.28 2631.9 4087.15 5489.34 6043.3 5952.75 6445.94 4281.49 4129.43 4320.28 6142.94 4685.34 5492.26 4220.88 6640.13 5351.39 4336.42 4583.31 3402.32 5004.67 7589.94 4898.94 4466.03 4178.15 4247.23 7531.29 4733.04 5935.03 6390.78 3161.47 6826.57 4788.87 3746.31 5498.32 5346.27 7267.18 4143.08 5002.48 4758.21 5708.14 4262.82 5537.72 6342.25 6082.81 6327.9 6519.71 3629.96 3092.35 3320.11 5210.03 6022.17 4306.11 4503.89 5903.66 5419.37 4528.49 5985.29 5275.32 4694.83 4268.65 5788.66 4354.08 4520.62 4755.47 3903.75 4485.99 5475.8 7435.25 5543.46 6022.72 5527.33 6475.1 2691.29 6255.18 7500.97 6332.36 3920.42 5542.14 4218.06 4931.53 3843.58 4329.05 4931.38 4736.58 5110.37 3191.99 4659.59 4048.37 5449.18 5367.52 4714.54 5030.91 5507.24 6851.54 5935.47 5313.66 2651.49 5512.23 4649.22 5349.31 5509.42 5394.55 5936.36 5229.48 4016.18 5475.7 5127.16 5314.69 6050.81 4244.99 4249.46 4643.31 6917.52 4969.21 5402.21 6256.02 4277.88 4668.71 6623.85 7228.46 5102.36 8332.24 6691.39 7134.64 4602.25 4270.53 4194.5 4501.51 4792.73 5513.6 4901.41 5264.06 3485.26 4556.36 3240.09 3369.23 5664.98 3688.8 4548.16 4322.15 5025.39 5893.5 4377.07 5101.59 3848.93 3813.22 6020.48 5570.3 5234.29 4711.62 4645.58 4114.24 2976.22 5166.79 4256.43 5094.52 2682.24 5928.32 5415.19 5526.75 5435.74 5560.26 5327.45 5965.81 6185.89 2330.66 3702.37 4177.19 3691.0 4752.51 4880.14 2845.98 5320.92 3948.23 5228.18 5787.31 4342.9 6122.55 2739.94 6155.31 5480.13 4790.08 5978.9 5191.63 5082.47 4187.56 5344.25 5344.0 4043.57 5925.6 6013.14 5379.87 3708.04 4602.86 4581.13 5138.31 4551.24 4621.75 3610.4 5358.59 4515.71 6202.55 3817.13 5023.15 4547.19 3844.9 3695.36 3963.86 5076.35 5273.35 5200.05 4091.8 5670.2 5181.4 4662.56 3405.98 5417.15 4946.74 3688.16 4681.72 5996.33 3950.63 4612.62 6631.19 4275.57 3619.07 4467.04 6385.23 2983.99 2614.4 4750.17 3997.96 4439.35 5660.85 3460.94 3990.25 3758.07 4989.09 3587.05 4982.31 5269.18 6362.14 6719.88 4406.1 5065.11 5978.82 4553.56 4223.33 6308.71 5911.67 4840.84 3629.62 4997.27 5135.69 4301.06 3456.98 4593.7 6045.46 4290.14 4763.45 4150.99 4478.15 5681.38 3771.48 4138.42 4292.06 5011.31 3979.82 5987.17 5006.58 2765.2 3856.59 4746.52 5586.81 4219.07 5413.79 6387.01 6338.89 7111.16 5584.06 6480.17 4564.34 4871.44 6248.81 3838.56 6375.99 4853.02 6259.23 5088.44 4998.21 3457.48 6079.11 3931.07 7440.72 3949.6 4945.39 5661.62 4867.08 5626.61 5817.25 6363.92 6205.93 6184.4 4373.45 5830.72 3828.81 6229.37 5289.52 5314.85 4305.43 5034.59 5450.44 4942.77 5080.18 3927.99 5069.84 5266.5 5329.64 4051.44 4050.9 4716.19 6695.82 3323.28 5514.76 6405.76 4877.67 3498.2 4020.32 5445.87 3815.26 4245.72 4216.92 4571.7 4704.72 4177.94 4271.69 3970.25 5198.77 4107.03 4850.01 5643.58 5147.67 5577.04 6318.18 4481.53 5330.45 5077.33 3948.17 3689.45 3824.16 3868.18 5572.95 6723.16 5372.61 5402.24 3686.21 4519.22 6445.22 5013.42 5651.07 4962.77 5872.05 5323.3 4635.6 4256.67 4427.28 3082.32 6430.39 4765.02 5376.71 5703.6 4448.13 6326.18 5070.29 4266.03 6648.68 4713.74 4220.03 5407.78 5061.98 4084.49 6632.99 4923.24 4419.61 7177.44 5309.98 4236.14 6718.19 4082.57 4407.87 4307.48 3848.54 5941.4 5282.91 6510.17 4263.33 5868.82 4454.63 4066.38 4523.88 6049.55 3279.1 4241.89 5709.62 5835.78 5054.74 4981.9 5941.72 5794.24 6562.18 5908.1 4541.21 4344.58 4742.68 6048.7 5634.83 5499.11 5922.5 4502.5 3929.19 3633.87 2775.04 4810.12 4138.46 3821.72 6035.6 5215.05 4986.77 5198.29 5137.34 5423.0 3975.31 5344.43 5125.78 5350.88 5045.38 5452.83 5130.91 4959.34 4948.5 4527.02 5383.07 4247.15 4531.14 4602.85 5210.48 7552.94 6101.92 3627.55 6239.84 5865.39 5370.85 3658.37 3178.54 5629.39 6157.04 4807.28 4768.61 2261.36 5075.55 5280.69 6923.84 5449.46 6179.96 5703.07 4537.6 5147.36 6260.79 4563.46 5733.62 5169.9 5282.51 4425.84 5331.02 3797.33 7256.35 4871.96 5742.65 4800.69 5592.32 4978.31 5912.61 4099.77 4948.98 4414.48 4537.32 5163.02 4127.74 3066.13 2476.04 4656.78 4302.5 4156.38 5105.16 5896.46 6006.16 6009.88 5495.84 4164.68 6268.1 3784.5 4862.21 5782.6 5113.21 4011.77 4374.35 5347.48 4527.08 6396.74 6898.19 7099.43 5526.14 6449.45 4044.45 3627.82 4244.9 5262.19 4373.47 6070.58 5490.43 5022.28 6034.41 5197.52 5178.99 4790.78 4027.09 4591.87 6422.84 6552.22 4502.18 5379.09 7644.38 6004.68 4051.34 6799.4 4409.63 5521.25 5278.36 5107.23 3661.9 5136.08 5949.46 5558.68 3776.94 4010.57 2684.03 5246.47 6191.29 4522.21 5506.19 6719.94 4950.67 6166.29 5453.6 6113.54 4662.43 4043.66 4709.05 3963.76 5528.53 6553.94 5255.18 3004.16 5460.65 4460.92 5945.89 4042.28 4105.55 4863.23 6566.1 4402.67 3555.86 5381.16 6386.78 4403.98 4560.84 5565.13 5227.52 6086.96 4092.24 4729.43 5991.09 5126.91 5050.65 4678.38 5448.61 5316.75 4827.33 5022.8 7055.53 3937.08 6133.92 3719.84 5013.67 4178.4 5669.65 5253.55 7034.11 5820.48 2586.12 6261.42 6125.34 5965.78 5252.34 2965.79 5776.37 4287.63 5315.4 4516.28 5678.96 6048.86 4285.32 6894.26 4986.51 5339.38 6169.11 4896.11 5615.35 5172.53 4135.62 5801.99 4860.33 5534.94 3685.13 3312.06 5180.76 3418.99 3361.26 4480.95 4993.35 6218.95 5222.16 5533.72 5533.42 4802.32 4599.38 4187.31 5463.48 3240.51 7422.36 4527.99 5161.01 4298.15 5227.59 4628.4 5832.37 6051.83 5409.63 5294.77 4263.16 3077.84 4630.82 4813.08 6799.88 5726.66 4540.86 3062.43 5426.78 4767.78 5235.17 4340.76 4779.5 4435.36 6065.22 4221.28 4996.99 4470.61 4456.39 4631.83 6193.35 3701.27 5233.78 6008.49 4562.74 5776.57 4806.34 3942.07 5133.97 7443.72 6600.94 5371.02 5513.57 5260.34 5729.23 5206.48 6586.45 5934.22 3780.23 5826.04 5188.81 4359.62 3471.03 3745.84 5011.84 5696.88 5690.26 6057.22 4156.2 5062.71 6946.21 5433.8 4289.17 4497.59 5975.63 5564.02 4274.61 4410.55 6314.07 4190.31 3921.08 7055.42 5486.68 5683.61 5100.25 4049.02 4470.4 4611.53 5311.03 5255.12 4285.66 3872.61 4238.4 4318.48 3930.79 6132.95 4004.35 5266.22 4763.96 5226.97 5008.63 5754.18 4270.74 5132.68 6595.03 4983.39 4558.15 5366.52 4690.55 5146.37 7132.12 3678.08 4836.16 5518.57 5151.11 5730.33 5680.94 5545.46 4543.1 4376.7 5190.61 6550.44 3764.06 4642.93 3973.12 6642.76 6024.75 6109.49 5860.67 5987.42 5990.52 5652.0 2967.38 4835.83 5463.41 5225.33 4421.12 5254.49 4929.75 6045.22 6649.96 4896.39 6887.27 4384.88 3633.79 6081.14 5653.9 5480.83 4220.46 7144.24 5683.26 3600.43 5598.74 4906.82 4788.58 5131.24 6155.1 5196.67 4709.35 6496.67 5876.71 5226.0 5474.8 5624.49 5339.78 3095.48 4166.08 5762.59 3979.26 5960.66 6608.73 3999.48 4730.41 4203.26 3923.03 4004.04 5607.14 6915.83 6072.45 6444.77 4470.98 5083.41 5759.46 6248.6 5443.58 5805.86 3836.45 4558.46 5346.68 5020.71 5296.29 5997.88 2681.29 5839.71 5094.48 5576.92 6408.83 5365.24 5293.51 4446.06 3450.93 6293.89 5737.75 2761.07 3778.02 6552.21 5417.8 4350.12 5227.02 5670.0 4232.16 5300.96 4344.51 3781.77 5581.55 4707.06 5193.01 3474.5 3860.83 8325.01 5732.27 4440.81 4523.39 5941.9 5434.47 5829.22 4497.78 5567.93 5811.18 5332.65 3764.1 6451.33 5604.35 4159.35 6477.91 4237.98 3091.67 6439.37 4081.97 4614.3 4303.19 5401.99 5514.84 5421.53 4256.57 3914.2 4607.85 5937.08 4287.53 6070.3 5046.21 5612.21 4929.14 5128.57 5894.61 5945.08 5687.83 5004.23 5139.5 6442.69 6320.71 4648.04 4373.3 4750.78 6262.72 5029.78 3664.11 3365.82 4861.06 6481.79 5320.28 4569.12 4796.58 4298.67 4472.17 5873.69 4962.09 5654.31 5470.77 4643.85 6062.05 4735.33 5082.74 5411.85 3999.94 4844.57 5092.37 4027.46 3901.8 4864.22 5511.88 5941.61 4512.11 4933.65 6098.1 5708.99 5687.85 6333.29 6401.43 5731.57 5662.55 5737.92 4360.23 3755.95 6234.32 5889.35 4585.31 5010.04 4586.19 6625.18 5097.45 5323.91 5825.38 4185.61 4047.87 5099.21 5742.47 4917.99 5636.4 4367.78 4095.75 3603.51 5222.51 4076.59 6609.84 5135.96 3834.43 5658.37 6074.94 5491.37 4250.88 6348.03 3475.67 4792.39 5278.56 5146.37 6917.62 4814.12 5631.14 4243.79 6137.8 5433.65 4442.22 4887.76 5413.31 3012.99 4008.15 6316.56 4332.87 6420.81 4715.58 3317.83 5134.39 5580.92 5784.3 3532.3 5769.98 6088.68 2221.99 3583.21 4135.08 4643.56 5067.46 4863.01 5620.74 6000.7 5604.21 3979.54 4968.03 7493.3 5304.13 4814.55 5833.06 3527.05 6607.87 5698.77 4163.5 6515.84 5374.51 4123.6 4143.78 4538.95 7092.87 4970.88 5224.12 4850.14 3637.61 4471.58 5463.38 6098.14 5945.21 5750.71 3493.7 6222.42 4938.74 3474.39 4831.47 5516.95 6939.12 5563.79 4406.4 4413.85 6853.85 6171.13 3493.47 4020.4 2395.5 3497.9 4596.75 3374.08 5782.48 4031.78 2435.33 5950.04 4074.48 4231.83 3614.96 4558.47 4477.04 3886.68 5703.74 4747.55 5464.68 3056.7 5591.76 2685.81 4510.8 7509.24 4394.56 4570.98 5388.78 4275.07 6101.13 4573.72 4163.74 6969.28 4296.69 3665.95 5698.96 4298.45 3319.67 6471.42 5283.8 4428.14 5164.1 6016.19 6464.15 4124.49 4972.17 4479.11 6685.4 5699.53 4222.77 4850.06 3783.54 5268.38 6332.01 5527.23 7038.89 4805.33 3863.67 5980.95 4013.38 5067.56 3352.35 4343.78 2735.53 5263.3 4909.65 6523.86 4669.06 4811.32 6400.08 4743.59 4286.49 6184.88 5208.14 5829.32 4396.25 4450.7 3763.05 5973.33 5151.52 5092.24 5442.32 4347.74 4518.04 5291.9 4009.62 5356.79 3580.58 4874.18 5233.29 2081.58 4011.37 3169.67 4312.56 4612.06 5204.04 3361.92 5944.09 3306.14 5490.58 4863.79 5395.14 4702.06 3464.83 5117.47 5724.64 4923.41 2990.77 5965.15 4925.63 4763.66 4888.6 4666.81 6739.08 7042.12 4797.52 5501.93 6343.14 6313.06 5462.21 6345.13 5374.98 6470.3 5599.49 4200.03 4719.7 4097.57 5313.22 3436.15 5328.22 4151.76 4216.17 3905.51 4721.02 6484.17 4254.37 3546.71 4188.87 5768.57 4498.25 5564.23 3735.24 5151.21 5398.64 6574.95 6817.57 6853.04 3624.7 3420.08 4745.43 5831.96 4912.04 4691.91 4539.07 4475.83 5064.79 5480.3 3427.63 4146.81 5896.26 5756.75 4587.67 5951.81 5599.7 3924.14 6918.35 6238.32 6804.79 6372.13 5369.5 5404.01 5535.91 3230.13 5714.25 6176.67 5325.96 5412.24 5016.02 7044.29 4234.18 7085.01 4049.16 3936.95 6193.08 6153.94 6069.3 3862.77 5887.01 5116.6 5168.35 3747.03 2783.85 4356.49 7693.4 4326.48 4437.07 3994.07 3449.37 5491.9 6405.0 5551.95 5369.08 3918.87 3101.75 5549.49 5423.42 4766.06 2511.46 6605.86 2775.69 4778.82 6505.78 5657.36 6124.08 5467.84 5029.47 3619.79 4750.58 5053.95 6710.88 3967.48 2477.07 6667.68 3163.78 6213.04 4497.31 4305.16 3293.56 4721.32 5882.65 5092.28 4739.14 5078.86 4780.2 4918.77 5163.55 6326.39 4819.73 3382.7 6817.32 6471.55 5085.71 4319.79 6643.85 5960.56 5122.63 4020.95 5774.97 5862.86 6049.79 4390.41 5226.56 6113.95 5274.19 4050.08 4901.07 5452.42 5017.5 5186.3 5711.11 5005.85 4575.94 5325.44 5102.75 5021.88 4938.72 5956.65 4597.29 4200.09 5931.77 5108.06 4222.4 3573.73 4693.52 4000.43 4568.41 4661.03 5160.59 5262.35 4320.42 7165.9 4255.34 5344.83 7046.11 4863.97 6342.48 4840.44 5093.82 6639.64 5212.43 5454.12 4834.3 6348.54 4066.57 5642.35 5156.76 6357.47 6101.57 4891.38 4793.65 5955.86 4532.89 2949.12 4533.37 4848.46 5742.09 2779.99 5887.38 4581.37 4920.21 6942.34 5851.61 5478.11 3658.05 5526.31 6836.82 4631.99 3858.17 3477.1 4740.98 3185.39 5388.39 3728.18 5335.47 4526.81 5048.19 4219.94 5907.46 4264.91 4659.16 5399.29 5789.55 4633.05 4901.2 2275.45 6522.59 5012.5 6519.43 4785.25 5461.55 4270.15 5876.64 6306.21 3298.2 5926.11 5253.37 5235.11 5211.38 3830.46 6413.11 6031.67 5274.14 5529.42 4636.5 5257.12 4434.19 5100.1 4903.82 4940.42 3954.91 3703.1 4946.42 5923.4 4623.61 4082.47 3295.83 2965.01 6263.44 6235.57 4863.27 3492.19 4584.5 6766.43 4118.84 2315.64 5916.16 6934.37 4890.5 4703.08 4488.85 3981.07 3731.84 4579.69 3554.48 6496.52 5966.61 3991.42 4893.49 4388.63 4514.79 3672.21 4834.87 4509.89 5760.22 4795.43 5938.17 5097.95 5607.3 2928.82 4914.45 4698.87 5313.12 3984.88 5351.56 5318.53 3344.57 5220.76 4732.09 6945.98 4281.98 5138.2 5783.48 4449.98 4701.5 4504.35 4771.65 5012.97 4036.91 5589.37 5110.11 5439.49 6379.14 5216.26 3687.65 4887.52 5478.95 3851.85 6318.23 4058.87 4206.98 5174.75 5932.07 4984.46 5948.71 3856.53 5460.89 6040.74 5260.85 2884.65 5393.65 5807.46 4961.99 4648.21 4393.16 3311.29 3110.13 4549.69 5030.15 6423.81 6192.77 3644.78 4078.93 4312.15 5934.82 5128.77 4501.78 7122.87 3572.94 5633.61 4243.26 6799.23 5001.58 4153.84 4888.27 6740.71 4592.15 6487.56 4854.11 5971.22 4909.31 5417.21 5711.62 5435.19 4383.56 3562.79 4990.79 7093.13 6865.76 5424.46 6449.64 5266.01 5767.9 4857.84 6515.8 2978.76 2040.66 5384.76 7016.27 6138.12 6622.11 4428.78 4689.15 4965.89 6790.73 5746.28 4371.99 5659.95 5187.7 6090.91 5409.66 3561.29 4537.14 4152.85 5551.9 3867.19 4219.78 4963.34 5644.82 5499.39 4407.9 6413.02 4440.57 5203.08 5412.31 6736.03 5374.07 5548.29 3087.09 3623.87 7480.41 5163.77 6027.62 3423.15 5765.42 5010.2 6098.95 6123.03 4997.83 5148.08 3718.69 6192.0 4940.28 2216.82 5885.28 6752.75 6579.31 3004.34 5269.38 3022.6 5375.1 4811.76 4638.18 5498.42 6448.66 4196.37 3556.79 4453.97 7317.04 6412.67 7001.83 4593.7 4349.13 4891.67 6818.91 3503.65 3634.5 6631.28 6571.31 4392.65 5420.67 6413.15 6103.11 5048.55 6459.51 4024.31 4955.16 5844.72 3992.97 4147.31 5989.05 4054.22 7228.94 4441.22 5853.89 6551.93 4595.12 4386.8 6484.43 4625.67 3485.54 4458.64 4583.52 6418.11 6015.02 4922.49 5797.36 5585.14 7039.98 5119.86 4820.17 4729.42 5089.26 4901.44 5084.17 3886.72 5415.45 4998.22 3776.8 5533.19 5096.43 6156.21 6602.43 4798.17 3568.28 5425.98 5166.79 4953.1 2895.63 4516.53 5818.95 4093.99 3940.49 5079.22 4908.49 6464.8 4684.44 4962.21 5884.9 5089.62 3685.13 3685.65 4590.55 4673.35 5243.43 4741.26 3876.21 4655.16 5920.32 4916.22 4186.6 3701.16 6022.7 5251.4 4453.64 4345.67 4188.3 5081.78 5019.93 4459.28 3885.86 5235.29 6116.33 5453.3 4260.92 4479.94 6250.23 4435.51 4718.54 8659.64 4055.54 4588.7 6419.12 5683.95 3766.55 5469.13 6107.89 4233.8 4976.12 5530.49 4817.16 5453.98 5660.55 5653.03 5578.94 7610.49 4777.03 4246.61 4286.17 3684.56 5323.55 6028.09 3804.5 5452.36 4172.6 6486.37 5211.6 6083.28 5806.31 6100.73 4745.79 5456.71 3503.41 4908.75 6556.26 3971.08 6204.65 4482.9 5438.92 6550.4 3766.69 5036.98 5513.8 5188.53 4521.75 4027.63 3429.57 5569.2 5350.88 5410.33 4642.74 6735.97 5305.59 5416.45 4330.58 5754.6 3288.01 4904.51 2202.77 6870.97 5751.15 5950.88 4149.55 5474.01 6201.86 7554.58 3380.69 4140.4 3639.44 5446.4 4725.01 5966.75 5510.9 3657.69 4505.28 4883.63 4971.29 3492.83 6280.13 5244.22 3684.15 5832.29 4438.76 6006.89 6456.58 3814.65 4159.81 5244.98 5792.98 6592.93 6350.71 6104.26 6436.74 2460.79 5583.61 6063.64 5996.66 4986.71 4122.92 6479.39 4405.42 4997.91 3598.08 3604.14 4452.54 4599.81 5381.54 4749.59 4406.05 4858.44 4680.94 3468.42 5799.69 5828.35 5571.72 5876.72 5689.26 5869.4 4992.42 5297.19 7051.9 4940.84 4255.85 5895.77 5097.69 5511.6 4765.72 6261.75 4517.73 2908.7 5177.64 3757.34 4039.91 6415.61 4338.08 5660.16 4541.8 4255.31 6134.99 5191.08 5424.88 3838.47 2588.37 4062.5 4199.45 5887.15 5415.85 7234.66 4207.54 6599.66 4886.12 4936.96 4301.61 4481.76 3184.64 5206.33 4446.84 5065.26 4304.41 4892.44 3989.7 6789.23 4157.29 5107.0 6212.15 6813.72 5327.75 4609.02 4896.65 4532.7 5561.74 5975.23 4788.08 4198.94 5470.04 5212.37 4211.82 6003.78 2628.22 5684.25 4901.29 4244.49 4124.76 4050.03 4775.04 4120.07 4952.52 4882.66 3840.21 6746.66 4954.76 3908.56 4844.83 5244.78 6114.89 3636.15 5652.87 5483.7 5135.63 6384.7 4355.83 5952.38 3896.27 5351.86 6056.87 5230.02 5307.35 4342.18 6016.08 5166.89 5491.63 5725.37 3868.62 6102.98 5138.33 3743.76 3425.69 6711.21 5510.45 4730.14 2606.51 3994.39 4941.02 3864.92 6119.99 4618.73 2955.36 3965.3 3668.93 4128.1 4960.64 4983.3 4385.81 4034.05 5690.96 5798.38 4456.11 4653.83 3862.91 4125.9 5096.24 6171.71 7382.3 2995.67 4022.56 4668.88 5522.21 5810.77 5698.23 5089.1 7300.58 2711.19 4714.83 4028.32 5236.43 3809.69 4099.92 4771.13 3208.96 5285.07 3858.06 4680.14 4608.41 4184.23 4732.09 3988.3 4833.46 5857.79 5750.07 6136.49 4642.66 6543.13 5276.7 4752.14 5149.72 4378.3 5411.02 4950.97 5037.06 5175.29 5842.56 4094.73 6200.54 5148.58 3583.49 4652.01 3548.39 5421.64 3673.28 5052.84 4858.51 4366.74 3375.28 4603.5 5625.65 4647.67 4214.44 3629.44 5378.23 5375.12 4787.97 4981.43 5452.78 4356.36 3746.36 4741.28 4215.2 2603.64 4553.68 5069.89 2205.51 3894.64 5361.87 6502.97 3758.22 4783.07 4757.2 4946.23 4852.58 6816.66 4504.86 3217.67 4473.29 5034.69 5079.64 996.652 6163.54 6500.49 5965.58 5058.51 3352.34 4607.18 3899.7 2403.72 7200.89 4813.33 4147.49 4802.98 4833.55 3646.95 4081.34 7224.99 6334.53 5377.37 5869.67 4311.48 4899.73 5018.69 3152.86 6394.19 5973.89 5807.52 5963.36 5518.11 5087.14 5712.35 5169.48 5701.52 4743.9 4731.21 3124.7 6776.22 6064.71 3719.11 4467.13 6060.17 5153.18 4763.4 5902.67 4236.86 5393.76 5806.61 4983.1 6010.59 7123.04 3756.96 4009.24 5372.82 4446.58 4402.17 5401.4 7778.01 5127.82 5124.17 5805.1 5366.11 5039.12 3419.87 3628.89 3908.98 4824.81 6589.82 5027.43 3772.3 6328.42 4855.01 7307.21 5522.75 5474.15 3608.06 5867.64 6208.9 7519.2 4923.57 6633.61 4884.59 5217.95 6355.68 4478.6 4083.79 4511.7 4144.57 4304.63 4187.94 4351.38 5980.59 5933.7 5550.75 4809.67 5021.77 4757.74 4687.64 4356.25 5469.47 5036.58 4419.71 4888.12 4244.21 5512.16 4617.55 3197.63 4989.56 4287.16 3645.12 4863.96 5471.74 5199.44 4344.34 5713.03 5849.65 4928.27 5134.67 5775.31 4847.14 4165.21 5297.16 3332.49 4215.0 5354.66 3950.27 3566.79 5116.66 5003.78 5374.67 3299.24 6246.56 4061.6 5826.78 4508.18 5473.72 6214.73 2856.55 5175.89 3703.49 6618.21 4268.19 4374.74 3717.47 4062.56 6200.63 3205.68 4928.35 3844.54 5241.75 5849.53 4509.46 4680.69 3538.53 4420.11 6127.39 4972.18 5329.76 5640.12 5078.59 5134.33 5419.57 5162.67 5760.98 3629.49 4705.68 5469.35 5384.86 3835.81 4019.34 4749.96 4658.24 4906.11 4387.39 4564.1 5457.66 5509.51 4848.14 5366.22 6193.73 5254.24 3742.11 4192.21 3597.43 5144.56 4158.91 5311.55 3360.86 5321.17 3034.16 4869.25 5545.21 3877.8 4333.87 6273.6 3667.93 5136.87 5024.32 5454.11 4708.17 3779.45 2741.2 5790.42 5784.37 3142.09 5591.77 3682.35 5182.13 5906.57 7541.76 5053.15 4775.49 4681.29 5910.86 6239.68 3220.29 7320.78 4064.58 4834.44 4234.88 4384.28 5769.14 5944.3 3563.14 3381.82 3619.72 5347.9 4646.51 4438.58 3340.09 6059.93 4565.93 5602.53 6061.63 5484.36 4867.7 4829.35 3953.55 4063.9 4075.28 4277.24 5263.27 6834.41 7248.4 6300.92 3796.15 5161.1 5776.96 6045.67 5329.59 4209.49 4216.95 6119.63 5464.25 3821.94 4209.31 5486.48 3498.16 5439.9 4409.27 4752.9 5301.47 4588.99 4947.24 3875.05 4321.21 3540.11 3456.47 5950.45 5088.57 5580.34 3852.6 5966.42 5009.83 5131.15 5210.38 4110.59 4706.5 5717.8 4811.22 5210.75 3683.86 4474.83 4918.76 6555.44 4208.41 5293.75 5114.07 5730.61 7124.45 6358.93 5064.67 4383.68 5836.26 6666.67 5232.85 2617.39 4051.18 5144.44 5969.37 4583.94 5046.31 4337.32 1937.5 4731.53 4651.99 3763.9 5721.14 4788.7 4577.73 5863.0 5084.5 4918.64 6638.25 4815.47 4759.99 2646.13 4368.12 4365.58 5214.4 5193.58 4636.53 5399.43 5766.05 5117.64 3916.42 5429.3 4869.48 5510.96 3623.19 6653.07 4745.16 4697.91 5825.55 5071.98 5719.79 3199.4 4316.5 4371.08 7261.51 4968.14 4914.03 5086.29 5527.13 5139.18 4278.57 5551.43 5049.99 4201.03 5001.87 5684.05 5638.7 5813.79 4644.88 5293.13 7350.26 3768.46 5167.53 6110.48 5003.3 6245.52 4932.29 4990.23 5499.59 3784.94 5749.6 6016.87 3125.13 3845.9 4141.21 4439.71 5782.43 5667.51 4456.26 4708.31 5113.6 4027.33 3873.92 4198.9 4810.98 5431.29 5135.5 5026.76 5091.22 6282.38 5640.72 4546.44 4504.52 5851.63 7107.63 5727.79 5212.92 5073.02 4831.93 2279.05 6545.43 5788.97 6760.92 4989.2 4469.54 4023.93 4314.56 5868.89 8137.11 5291.05 3928.53 6650.77 6226.14 5466.33 5742.74 3946.28 5280.12 5984.81 7216.98 5721.05 5271.02 7013.17 3805.67 4590.01 5718.28 5367.73 4247.69 4640.06 4514.39 6242.79 6506.86 5391.48 6047.14 4803.57 4923.43 4568.64 5666.95 4642.2 4127.53 4548.45 4489.99 4945.0 4658.11 5658.14 4551.26 6570.35 4385.49 4242.63 4263.18 3269.54 7142.95 4559.74 6015.22 4454.74 6063.44 4826.52 2904.46 5120.92 6240.42 4685.4 5146.0 5914.5 6006.16 4288.45 5407.96 4987.28 4071.75 6206.98 6562.03 4410.82 6443.99 3889.98 7212.97 5490.64 5695.44 4507.46 3769.2 3422.21 5036.14 5603.68 4944.51 5610.95 5532.72 4584.81 3220.8 5179.17 5579.39 5270.51 5148.1 5490.75 5224.64 5949.73 3495.68 4312.48 5783.94 6370.33 5081.08 6318.25 6864.06 4493.79 4932.56 4279.44 4899.19 5058.34 4028.22 3918.94 5575.11 5487.63 3852.82 4507.36 7145.73 4168.52 5800.81 3954.77 6793.1 6715.73 5166.05 4506.66 4174.44 5515.73 5209.55 4564.41 6331.74 5951.86 4252.18 4833.67 5023.41 4659.88 5325.91 4092.07 5657.55 4184.21 4224.3 4700.07 5188.82 5615.84 3472.91 4464.73 4928.85 6440.38 5556.0 4711.04 5484.32 5007.21 7144.05 4173.54 5599.29 4619.2 4801.8 5606.51 6038.68 5740.65 4444.97 5046.12 3000.29 4807.4 2596.96 6349.67 4264.54 4350.15 3516.27 6329.53 4139.3 6541.45 4263.78 4601.74 6101.86 5078.31 4227.41 5228.75 5993.0 4807.35 6761.81 3903.91 5467.63 4728.55 4929.6 4554.68 3919.62 4368.28 5750.35 5984.8 3127.83 5236.24 4212.15 4585.04 5260.52 5678.58 6102.49 3185.09 3469.18 2945.34 5495.0 5114.23 3372.95 4489.29 7407.91 5064.23 5846.95 6061.85 5268.15 5512.44 5819.0 6449.06 6347.72 4924.07 3460.93 4629.02 3200.6 4927.73 4602.57 3763.85 3565.32 3419.07 4608.62 5710.33 5344.44 4626.72 3186.07 5131.77 4369.86 5549.71 5482.76 4967.51 3745.02 5173.82 3720.7 4211.36 5698.53 5034.34 3856.73 4450.49 3468.45 5635.32 4526.34 4316.45 5042.75 5409.08 4598.92 5241.22 6647.08 4979.52 3422.29 4407.79 5214.63 4537.03 6548.29 3990.96 5352.24 7362.42 4202.77 5793.12 5836.14 5473.05 6008.81 5537.34 5192.49 5884.99 3487.31 5726.42 6643.4 4674.9 3392.26 5461.72 2549.95 4361.24 6599.28 6224.85 4556.19 5403.97 4795.08 5106.46 6562.92 4068.31 3671.06 5077.29 7035.54 4850.5 5426.4 5763.05 5129.68 5357.39 2820.07 3791.41 5076.84 5853.12 5247.01 4213.05 4208.37 5157.38 6203.03 5235.87 5273.37 952.938 5043.14 5473.89 4717.73 4732.37 6089.45 4985.3 5072.5 3904.07 3274.85 5713.36 5748.9 4506.18 5545.59 5166.41 4824.12 6542.5 7104.73 5067.56 3834.47 4834.39 6162.3 5701.75 3272.75 4057.17 2781.96 7066.96 5262.47 3512.94 4467.0 5261.19 7043.44 3104.96 3831.52 4263.65 4750.49 4643.9 4258.98 5196.92 6106.43 3787.08 5644.81 6545.99 5334.36 2918.64 5630.9 6139.64 4140.92 4512.07 4692.32 4756.8 4896.43 5463.06 4176.32 4639.8 3986.41 4241.68 5532.75 6949.65 4095.83 5695.25 5676.61 4301.93 5796.26 5716.42 5701.63 4620.95 5368.93 4488.39 5124.86 7168.2 4571.74 4096.86 4796.12 3622.48 5001.51 6432.8 5115.42 4082.4 4930.72 5728.58 4887.73 6297.99 5378.24 3604.31 5817.74 5887.71 5661.6 4827.61 5285.75 5385.03 5481.64 4169.15 5673.75 5360.67 5968.54 6263.3 4501.05 5592.54 3247.97 5124.34 4114.2 4326.06 5034.46 4651.64 5757.29 5016.46 5469.17 5061.75 4373.2 3769.24 6022.78 4087.32 6647.85 7025.09 4433.12 7336.37 5138.93 6406.8 5368.66 5648.78 5501.73 6875.73 4697.24 5226.42 3612.44 6081.3 4983.43 5117.52 5233.76 6311.89 5866.91 4683.28 6405.69 5679.74 4851.18 4825.73 4165.36 5288.33 6296.54 4841.7 5797.21 5702.4 5685.74 5069.9 6740.35 4678.7 3673.6 5810.17 3306.84 5265.21 4966.07 4657.24 4400.14 5553.94 4749.18 5494.28 4704.92 4067.96 5610.53 3663.0 2970.9 4099.26 5206.47 6304.49 4580.06 4383.47 4608.34 3926.11 5971.21 5493.89 5695.79 5464.83 3622.8 4589.06 4770.51 4920.88 5414.58 4184.47 4431.23 4991.35 4994.65 4587.7 5740.98 5601.55 4346.07 4462.87 4012.92 5759.79 4598.54 4013.86 4177.47 4816.51 5218.42 4218.16 4933.49 5345.73 4770.63 4841.23 3990.94 4357.11 5477.8 5486.89 4462.35 4549.51 6069.78 5196.08 3587.93 4975.85 4517.29 4495.75 5323.95 6171.01 4468.26 5578.18 4603.04 5106.33 4870.94 5293.37 5271.88 6121.56 5879.24 5740.78 6824.53 5997.91 5385.86 4742.82 6791.86 4209.0 6031.22 5485.84 6424.77 5453.69 5918.95 4538.89 5689.56 6556.86 3242.31 4898.29 6099.28 5372.25 3234.26 4830.13 3494.16 4778.37 5370.9 5134.17 4074.16 4904.35 6172.27 5390.33 4904.37 5078.73 4358.81 5278.54 5729.0 5729.92 5275.57 4179.87 6224.13 4761.84 3661.67 5517.65 4009.68 4622.73 2569.12 4161.32 5161.74 5256.75 5099.9 6945.69 2960.5 5118.86 4298.7 7086.69 6170.9 5833.78 4436.48 5758.98 5615.35 5288.64 3967.76 6734.39 4217.36 6549.8 5942.45 4150.76 5005.72 5368.52 4871.77 5811.26 5062.77 6019.35 6075.99 6028.63 3450.07 6215.87 4550.92 5191.26 5866.42 3669.32 4762.1 3742.31 3987.69 4954.81 4316.0 4546.96 5424.55 5755.15 5134.72 4921.1 4271.07 4835.97 3814.16 6419.64 4420.6 4191.01 5287.25 5340.05 6506.63 4140.04 5995.4 4668.8 3495.3 5577.41 5917.34 6511.37 5322.11 4216.44 3999.5 6710.14 4726.2 5034.05 4426.02 4711.15 3825.48 4658.59 4474.39 5459.92 5188.22 3810.68 4196.62 2804.54 2809.19 5005.6 5589.53 7208.19 5025.42 4965.24 6379.38 6257.79 4849.5 5438.55 6229.83 5353.23 4523.81 5065.74 5791.25 5198.94 4873.23 5933.54 5559.79 5464.05 2980.31 5453.2 3148.79 6348.93 5136.51 4332.64 5232.16 4422.23 4820.68 3989.26 3618.64 5703.84 4335.79 3530.82 5797.32 5432.04 4886.99 3921.27 3702.45 3161.1 5265.63 4431.06 5684.88 6523.78 5730.2 5620.88 4941.52 4529.77 5900.0 4325.13 4262.74 3783.79 5317.19 4248.14 5279.19 4016.6 5192.92 7050.08 4786.66 5891.25 5370.1 5129.4 5114.51 3303.49 3720.38 4655.37 5585.25 4731.37 5023.61 6351.89 5932.28 5560.23 4975.32 4183.4 5237.55 3902.48 4304.64 4733.79 4905.53 4823.06 3799.01 5254.49 6213.24 3757.23 6828.8 5987.88 4228.53 3579.59 6123.46 6142.88 5155.28 4461.14 5111.26 5388.73 5285.6 4574.54 5205.38 4949.55 4884.93 4764.83 4600.71 5262.79 3957.38 5927.2 4494.15 5035.71 5146.1 4419.79 6485.77 6060.06 5407.69 3869.39 5544.27 5960.5 3484.81 5308.33 6502.99 4287.25 4392.75 4666.12 4685.65 6219.34 6023.07 5674.63 4475.38 6470.23 5939.22 4215.05 3626.86 6371.96 5890.25 4271.93 5125.17 5700.79 4697.49 5735.08 7133.44 4750.81 3953.26 4282.11 5467.51 4625.53 2347.41 4096.47 4542.16 6478.35 5114.67 5453.77 5353.66 4916.7 4104.04 2638.82 5030.33 5593.79 5104.39 5234.2 4612.13 5846.6 5327.05 4109.44 4903.84 4290.49 4434.65 5977.66 5209.5 6175.27 5876.51 6731.89 4028.35 5410.6 4733.41 4969.68 5264.83 3901.53 5431.14 6815.51 5313.86 4457.05 5178.07 5189.91 5777.26 4171.02 6119.0 7012.36 5028.06 4002.99 5587.3 5159.67 3572.73 5764.52 3770.22 4390.64 5150.84 4645.86 4045.67 5087.97 6005.95 4308.49 4930.17 4581.1 6241.77 4745.44 4085.96 5762.82 7360.12 6223.98 5821.49 3035.06 5617.29 5580.44 4262.19 5998.13 5095.52 4746.15 6275.25 6892.33 4758.84 4505.3 4452.36 3976.0 4068.41 4672.86 6530.78 5059.37 3043.77 5783.38 4139.39 6264.03 3909.94 5088.64 6030.39 3562.8 6589.8 7392.65 3729.16 5319.1 4181.93 3038.91 3922.28 6570.43 6883.86 6161.94 3350.99 4979.5 4065.28 5057.59 4745.37 5939.29 5418.98 5575.11 5615.06 3132.34 1969.87 4841.28 4047.95 5507.38 6889.5 4710.88 4416.87 5300.17 5152.78 4117.9 5393.43 5534.23 6896.55 4753.76 4638.09 6025.77 4441.91 4781.9 5377.01 5330.26 5339.6 5828.25 4725.11 5418.12 5934.05 4604.1 4714.66 4859.01 5322.07 5076.11 5524.45 5990.75 5600.21 4656.01 6589.13 5602.62 4037.86 5714.51 3543.37 2030.03 4938.33 5628.97 5527.27 5157.73 5847.91 4541.22 4946.08 4934.66 3539.68 4984.01 4696.03 6217.33 4605.39 4557.1 6688.53 5927.1 6500.45 4907.55 4103.76 4286.61 2932.52 4603.66 4757.87 3557.46 6636.43 5971.95 6298.8 3979.46 3689.24 6321.97 5151.19 6509.54 3792.06 6079.55 5128.59 4993.49 4293.3 5310.33 6583.37 3688.83 4864.38 3402.44 4848.98 4491.96 5184.98 4608.01 4467.51 5339.82 4519.03 5460.57 5110.27 5703.34 4612.68 6668.98 6649.52 4232.33 5462.6 4747.68 5770.92 3093.38 4597.88 4845.91 4878.93 2002.78 5631.32 6322.0 5793.14 4491.26 4511.34 4832.21 6463.71 4742.35 5394.79 5645.54 5264.08 4526.87 4151.74 5192.82 6920.92 4174.22 3783.36 3573.84 4067.89 6294.09 4571.57 3445.92 3820.19 5236.69 4586.82 6026.04 6200.05 5859.17 5490.54 4052.49 4034.41 5203.54 5061.74 6189.67 5326.03 6142.94 4948.96 5001.69 5117.83 5256.82 6581.56 4052.43 4057.4 4061.87 3980.46 4896.67 5383.9 3934.11 5158.44 4466.22 6815.96 4496.51 6153.71 5917.08 5483.37 5259.21 5092.93 4256.08 2803.01 5881.93 4444.0 4399.52 6771.18 5770.07 4984.17 5101.6 5910.66 5327.39 5781.62 4138.59 4981.81 5141.03 4970.55 8123.59 4484.78 4819.83 4621.33 5765.14 4767.54 5121.08 2927.84 5688.77 6177.68 4698.7 6229.64 6270.59 2848.44 6045.26 6263.87 5743.8 4094.63 5084.76 6605.11 6834.92 6379.33 5130.57 5652.73 5402.45 3985.93 6412.84 6071.59 2589.19 3856.4 4696.06 5485.61 4937.36 5308.4 6581.13 4569.32 5537.61 6084.88 4397.06 4199.44 4053.12 4479.5 6261.67 3435.13 5065.78 4431.46 4521.42 3207.84 3977.98 6043.34 4939.56 4959.72 4128.93 4712.17 3808.04 4723.71 4461.67 6126.5 4034.88 6007.1 6345.2 4609.65 5704.61 5009.21 5410.73 4379.91 4574.03 4942.63 5290.37 5850.38 4227.66 4691.01 4730.97 4594.89 3677.85 5245.95 5821.42 4515.02 3463.53 6126.03 5131.07 4121.07 5524.28 3133.28 5105.54 5731.43 6353.81 3414.67 3518.14 4150.44 5522.34 5771.98 4420.35 5899.78 5717.45 5772.57 5268.27 4813.81 4013.86 5165.31 4645.93 4585.37 5448.64 5901.8 3798.09 6417.61 4288.5 3886.56 4511.05 5783.69 3456.3 6561.94 5317.83 6738.9 4460.89 4157.1 8052.53 4554.24 3939.96 6182.19 4867.12 6044.01 7415.84 4637.3 1458.87 5734.07 4840.44 3997.68 6033.28 6286.27 4801.16 5071.38 5616.66 4802.36 5368.28 5466.13 5257.38 4220.43 5075.23 4975.56 7282.36 6666.34 4645.91 5581.01 4125.75 5749.53 5247.73 5090.48 5034.02 5582.28 5945.25 5181.31 5985.75 5475.83 4137.16 6189.29 5984.55 5803.3 3228.27 4721.98 5252.82 3543.98 4142.1 5056.26 5878.55 4014.44 6604.72 6002.77 3794.47 4610.55 4967.02 4614.49 5400.69 4462.5 5573.31 5004.68 4023.88 5348.11 4405.61 5428.24 5108.84 3511.5 4520.14 5067.92 5488.96 5357.14 3188.21 5128.03 3720.92 5087.3 6139.74 4975.57 7066.26 3057.3 6150.31 5214.71 4811.11 4677.84 4996.91 4924.52 5379.52 6044.69 4866.8 3768.62 2970.24 5658.05 4197.87 5462.1 6593.1 4066.36 4000.51 6032.45 5444.36 5011.37 2827.92 4026.03 5044.68 2649.69 6908.32 5000.74 3467.11 4817.75 6153.26 5637.53 5244.95 4439.09 4634.25 3882.37 4095.4 5188.57 6351.48 5715.51 5395.12 3721.69 6074.39 3830.7 5350.9 3483.61 4262.52 7430.48 5992.06 5545.68 6080.69 4970.12 4967.93 4766.47 6369.66 6520.19 5973.57 6241.48 5922.62 5125.45 5957.82 4188.16 3717.22 6327.54 5507.07 2943.17 5286.55 5327.71 4880.78 4322.56 5509.09 3873.72 5625.02 4592.49 5212.05 5479.86 4829.77 3826.01 6474.5 3928.99 4444.92 4763.04 6959.88 5971.9 3746.62 4532.67 4876.37 4769.62 5260.13 4649.5 4810.74 3900.93 5784.38 4149.17 4329.8 5728.27 5672.46 3074.49 5202.33 3956.24 7558.99 3393.59 5043.14 5333.04 5445.91 4812.59 4521.99 6842.54 2853.68 7115.67 5675.45 3361.11 5329.84 6038.56 2807.46 5599.16 4179.8 3488.34 4577.98 5658.35 5886.81 4487.51 4582.12 4295.25 7394.47 4729.45 4850.95 5919.27 5374.09 4793.06 6637.38 3421.81 6188.33 6111.23 6916.18 5786.06 5873.62 3868.69 3920.44 5447.74 4450.51 5314.67 6033.72 3851.47 4966.74 5563.47 5651.46 3162.27 6033.93 5516.37 5092.44 4441.44 4232.44 4612.4 5336.61 3312.3 5563.09 4848.15 3282.57 4798.13 5523.81 4718.61 6697.45 3873.79 5717.67 5357.33 5252.37 6210.0 3224.81 5432.4 4499.54 5037.58 6457.89 5640.67 6572.17 3751.73 5555.89 3374.62 4926.62 4871.1 6009.93 5678.08 5872.45 5270.1 4414.09 5130.56 5191.29 4947.64 3784.68 6305.9 6649.21 4654.92 3470.69 4859.95 4132.08 5522.18 5223.1 4850.49 4981.55 5144.23 3625.98 6188.62 4702.32 5908.57 5944.52 4413.56 5050.2 2513.38 4821.41 5316.05 4924.53 4908.32 3995.08 5019.84 3874.12 4028.13 4457.73 6476.35 6260.58 4067.24 3053.19 6571.26 4313.38 5580.95 6598.99 3549.92 4032.06 5250.56 5246.81 2468.16 5089.1 5888.95 5394.78 5203.75 3463.34 5169.09 5122.38 2459.88 5262.85 4998.37 4210.24 5470.67 5901.71 6559.82 3879.83 6565.95 5733.12 5043.34 4246.24 6805.02 5354.48 5640.63 4900.26 6261.13 4167.55 4720.34 6271.22 5244.47 5378.75 3920.64 5510.89 6186.24 5822.7 4137.41 3780.07 4159.89 5466.49 4038.17 5007.41 4907.48 3692.99 6213.74 4959.94 1635.31 5639.4 6185.73 4083.24 6520.96 5432.2 5217.62 6178.19 4746.19 6381.58 5212.2 5648.59 4611.21 5108.42 4630.5 6296.36 3354.94 4432.32 5515.59 5237.27 4451.76 3775.38 7885.41 4046.22 4104.97 4844.2 4575.72 4081.77 5114.61 6118.13 4420.3 2181.29 6332.64 3917.09 6492.44 4083.1 3482.73 4613.32 5145.39 3996.93 6351.95 4957.99 4063.26 4542.62 4997.89 5093.28 6131.52 4311.92 6009.88 4699.77 5093.41 6842.35 5464.34 3621.63 6153.07 5801.89 4414.06 7296.47 2613.78 5742.39 4780.16 5738.37 5616.11 4433.23 4499.52 4813.24 5759.19 3113.64 4490.2 4304.75 5480.86 6139.9 4720.22 2832.83 5827.3 6036.99 3010.1 3633.58 3825.98 6294.14 4589.22 4339.97 5087.03 4667.84 3906.41 4691.15 4512.6 4260.38 4636.45 4932.27 5225.11 5342.9 5252.22 4962.35 6436.29 5402.81 4600.81 4919.13 4124.33 5168.97 5783.88 5002.38 6705.93 4865.11 4731.16 5502.14 6470.87 4495.33 5282.67 5747.9 5178.55 5146.69 6203.24 6818.23 2329.93 4488.41 6938.87 4369.87 5412.07 5512.57 4806.99 4813.55 3771.91 5856.43 3465.03 3839.0 5349.85 4616.81 5715.25 4362.94 5172.1 6052.22 4469.82 6545.78 4404.87 4870.14 2932.2 5105.72 5767.65 4750.76 5782.25 5497.27 5617.91 4948.21 4987.01 4202.12 4706.31 6265.48 2694.25 4735.99 4203.68 4739.56 3352.46 4701.03 6225.05 5434.04 5195.09 5200.1 5345.05 3997.52 7679.2 4881.51 4909.74 2626.41 5310.33 6729.99 6664.54 3922.98 5161.73 5259.48 4777.96 5254.93 6833.5 4803.4 6608.94 3796.73 5417.07 3834.01 6789.66 4739.41 5312.2 5847.27 4706.59 5734.84 3982.31 4950.07 4582.24 4474.96 4084.87 4790.63 5259.29 3584.05 4916.75 4818.53 5097.85 5584.64 4123.08 6189.04 6224.64 4221.03 3799.55 5638.51 6793.49 3563.33 6060.19 3550.88 5536.0 6786.37 4333.23 5145.13 4328.76 5561.63 5940.5 4358.06 5093.51 5647.93 6201.49 5449.09 5154.74 4605.61 4465.56 4131.08 5386.95 3864.19 4287.93 5332.11 5315.71 6158.93 5081.65 4823.14 6679.12 5652.19 5806.74 4621.32 6578.62 6284.12 4796.04 5229.56 6011.4 5799.86 5263.86 4672.34 5056.32 5376.41 5533.52 5003.63 4695.7 4944.08 4082.01 5003.49 5269.39 3964.03 4907.03 5832.72 2451.27 3903.9 4444.95 5606.22 4721.2 3943.77 5161.02 3124.49 6081.35 5003.81 6262.18 3818.37 5663.36 4276.59 5579.04 5125.53 5994.21 4444.54 5403.81 5779.9 6964.78 5299.03 5036.84 4565.36 5813.68 4025.08 4008.67 3618.53 4770.21 8013.28 3846.55 5283.65 4644.68 2892.36 3082.16 5656.84 5911.29 5416.41 4694.27 4414.23 6760.64 2515.5 5177.88 4849.21 3793.83 5551.79 6981.47 3916.15 5367.05 4758.76 5647.11 4088.72 3945.62 3743.85 6236.46 5342.17 6379.3 3795.63 5189.4 4576.71 5082.66 4550.77 4894.15 4337.93 6157.59 5201.3 4345.51 4048.73 6223.33 3860.8 5438.6 3747.96 5611.29 4521.88 6568.45 5004.22 4280.92 7263.57 4696.92 5705.96 6437.99 6898.8 6632.04 6540.57 4893.72 6004.72 4072.4 4983.56 5373.78 5345.65 5438.5 5863.36 3878.8 5699.4 4698.94 5237.76 4286.84 3948.21 6423.96 5669.15 5296.05 5894.69 6988.4 3330.85 6635.51 4060.17 5410.33 4747.24 4380.86 5302.53 4909.13 5576.16 4287.61 4305.35 5648.02 5210.22 3308.75 4216.33 4439.17 5677.42 4929.35 5051.39 6673.92 5242.38 5151.68 5459.52 4884.94 5566.5 4609.98 4738.72 4752.31 5240.97 5569.85 5405.6 3929.35 4884.93 5082.25 4759.38 4287.15 4374.05 5282.51 5504.65 5669.41 5732.11 5040.9 5596.68 4868.66 4004.39 5159.9 4987.48 5943.61 5981.54 5479.17 5020.37 4542.25 5233.88 4785.55 5245.4 6189.81 4449.73 5015.67 6538.04 5848.41 4090.28 4246.83 7370.52 4726.5 5467.05 3724.23 5103.3 4963.88 4601.54 3832.09 5175.88 5267.65 5739.69 3509.34 5360.88 7360.62 3166.37 4977.64 4985.45 5205.53 5699.51 2489.44 5499.37 4489.18 4883.13 4632.75 4752.94 4994.98 3950.53 6058.13 4501.1 5581.47 4384.91 4987.01 4713.56 6051.35 5543.67 3999.81 4867.13 4604.34 4863.27 2701.42 4502.12 5442.79 4633.59 5733.59 5575.8 5362.15 4455.61 3695.72 6874.6 5106.9 5306.31 5523.96 4223.53 4733.37 4535.94 6960.97 3037.72 4523.9 5126.08 5604.0 3760.4 4951.02 3919.47 4602.7 3783.35 4037.16 6395.63 4248.58 5888.94 4727.98 4122.2 4516.26 4790.16 3647.26 3731.58 5369.42 5207.08 4714.52 4587.19 5543.05 6028.89 4836.76 5333.16 5551.09 5755.98 5392.85 5077.2 4274.05 6550.61 4277.54 5529.09 6094.34 6779.82 5448.68 4739.5 6210.48 6377.45 4182.05 3255.93 6853.07 6327.61 5268.93 4888.17 5275.27 4531.46 5925.82 4072.95 4491.62 3865.5 
SCALARS Velocity float 1
LOOKUP_TABLE default
1.52157 1.52461 1.52086 1.49397 1.52757 1.5425 1.60916 1.56319 1.49535 1.52323 1.52275 1.51561 1.51221 1.51339 1.52241 1.51731 1.52836 1.49788 1.54356 1.49246 1.56031 1.60151 1.52871 1.54922 1.51526 1.56738 1.55785 1.52693 1.52489 1.51864 1.52611 1.52978 1.51721 1.51271 1.51287 1.52445 1.53936 1.51988 1.56619 1.53645 1.47927 1.48721 1.55242 1.56961 1.53858 1.52494 1.51616 1.56913 1.52099 1.52534 1.51864 1.51794 1.51562 1.52226 1.52708 1.52868 1.52027 1.51052 1.51222 1.52655 1.52825 1.54653 1.54681 1.46453 1.47041 1.55749 1.55535 1.55581 1.54128 1.53357 1.52298 1.52137 1.51802 1.52212 1.521 1.51879 1.51987 1.5197 1.52528 1.52063 1.52573 1.52131 1.50977 1.52885 1.54548 1.5526 1.54794 1.53222 1.5009 1.4942 1.45043 1.47393 1.42416 1.54642 1.46744 1.54432 1.54176 1.52855 1.52253 1.52266 1.52006 1.51967 1.51946 1.51904 1.5205 1.51874 1.51416 1.51994 1.52272 1.50756 1.50843 1.52941 1.52897 1.5555 1.54364 1.53331 1.48846 1.51402 1.48597 1.45268 1.51037 1.48007 1.5432 1.52606 1.53169 1.52176 1.51988 1.5198 1.51878 1.51435 1.51712 1.51336 1.51539 1.50718 1.50616 1.52657 1.53659 1.54875 1.53943 1.53807 1.5342 1.5255 1.51566 1.48778 1.48522 1.44577 1.53048 1.5065 1.51823 1.5277 1.52622 1.52085 1.52154 1.52032 1.52312 1.52003 1.52452 1.51526 1.51348 1.51205 1.51479 1.51294 1.51388 1.50641 1.50528 1.50395 1.50155 1.52343 1.52078 1.52767 1.51777 1.53324 1.53797 1.52546 1.52138 1.51871 1.52565 1.48222 1.44179 1.53552 1.50389 1.5208 1.52826 1.53177 1.5192 1.5248 1.53423 1.50692 1.51256 1.50525 1.50228 1.50196 1.4991 1.51724 1.51102 1.52819 1.52253 1.52191 1.51034 1.50621 1.52808 1.44822 1.49891 1.49866 1.51716 1.52528 1.52684 1.53527 1.52908 1.47885 1.49575 1.4972 1.5035 1.50388 1.50067 1.49797 1.49537 1.50972 1.50465 1.50988 1.50548 1.51382 1.51148 1.50398 1.49822 1.50775 1.51589 1.54147 1.47169 1.49277 1.50354 1.50216 1.51654 1.52579 1.53067 1.5382 1.47817 1.49163 1.49887 1.49646 1.49869 1.49407 1.49839 1.49441 1.49148 1.49919 1.50573 1.50285 1.50464 1.49927 1.49898 1.49459 1.4933 1.50329 1.52833 1.50991 1.48359 1.49667 1.50972 1.52028 1.52903 1.52585 1.52996 1.52793 1.51736 1.48757 1.49316 1.49169 1.48956 1.49112 1.48852 1.48672 1.48324 1.4909 1.49721 1.48899 1.49285 1.48713 1.49482 1.48901 1.51795 1.50709 1.51484 1.50655 1.49985 1.48966 1.49413 1.49573 1.50428 1.50089 1.51635 1.52568 1.51951 1.50022 1.48904 1.49461 1.48678 1.48914 1.48257 1.48364 1.47793 1.47302 1.48109 1.49568 1.48311 1.47967 1.49374 1.48363 1.5002 1.48961 1.49987 1.4958 1.49483 1.49686 1.50262 1.50968 1.52061 1.52398 1.52419 1.50452 1.51481 1.49873 1.49036 1.48683 1.4832 1.48141 1.47421 1.47173 1.46017 1.46395 1.47657 1.4748 1.48046 1.47135 1.47215 1.46449 1.46296 1.46903 1.47931 1.49228 1.49058 1.49244 1.49161 1.48969 1.49392 1.48868 1.49538 1.50638 1.51389 1.51737 1.52121 1.5297 1.5227 1.50806 1.49677 1.48448 1.47732 1.47951 1.47628 1.47301 1.45836 1.45099 1.44973 1.47271 1.46421 1.46762 1.44916 1.45643 1.46371 1.44193 1.45226 1.4712 1.48424 1.47848 1.48559 1.48401 1.48548 1.48433 1.48941 1.49772 1.49555 1.50819 1.52671 1.51933 1.5305 1.53483 1.53166 1.50975 1.47993 1.45969 1.48748 1.48681 1.45204 1.46939 1.44124 1.43452 1.19178 1.46985 1.46848 1.45705 1.46136 1.44266 1.43036 1.43053 1.43428 1.46103 1.44124 1.47557 1.48129 1.4766 1.47962 1.48127 1.48681 1.4838 1.48379 1.50868 1.4953 1.51041 1.52151 1.535 1.54071 1.54754 1.52968 1.5005 1.5135 1.45834 1.49689 1.44069 1.43429 1.52743 1.49745 1.4395 1.43338 1.40941 1.41971 1.41308 1.47018 1.45279 1.45029 1.43549 1.42242 1.40862 1.41973 1.45529 1.43789 1.44532 1.46475 1.47273 1.471 1.46675 1.45709 1.47621 1.46289 1.48387 1.48506 1.48194 1.48393 1.49823 1.51903 1.54403 1.55854 1.51875 1.48908 1.49201 1.39532 1.48167 1.71408 1.57163 1.23756 1.39627 1.43454 1.45053 1.43243 1.39984 1.47311 1.44359 1.42865 1.39933 1.41819 1.38753 1.42583 1.40703 1.43294 1.4685 1.46415 1.43454 1.47473 1.48204 1.48092 1.47815 1.47614 1.47312 1.5027 1.48664 1.5205 1.57662 1.4342 1.47754 1.4786 1.48918 1.44812 1.41312 1.39823 1.42166 1.46883 1.50561 1.41278 1.4637 1.43605 1.3982 1.40698 1.19178 1.47021 1.46348 1.46252 1.43021 1.398 1.36786 1.39113 1.4515 1.42533 1.48719 1.47484 1.43519 1.42525 1.43102 1.45895 1.47461 1.48624 1.52032 1.50766 1.50471 1.5269 1.51431 1.38204 1.41899 1.48144 1.45541 1.47944 1.4737 1.48902 1.50482 1.45408 1.68889 1.46407 1.44827 1.45791 1.47903 1.51197 1.4439 1.4208 1.45889 1.19178 1.43847 1.46119 1.47862 1.42369 1.43039 1.3996 1.44575 1.42503 1.53489 1.50201 1.41675 1.44646 1.39574 1.3745 1.45119 1.33667 1.50608 1.49722 1.48918 1.44064 1.4057 1.36741 1.35317 1.43935 1.4887 1.60848 1.41936 1.50057 1.51548 1.47867 1.48184 1.4763 1.81124 1.46411 1.50498 1.57979 1.5929 1.5256 1.44898 1.46995 1.4479 1.341 1.48029 1.43863 1.46195 1.42466 1.34378 1.33286 1.32952 1.39508 1.38761 1.38777 1.4917 1.41667 1.46133 1.57 1.48599 1.37762 1.30313 1.30284 1.39984 1.51888 1.59895 1.47105 1.55428 1.46118 1.54167 1.40284 1.35377 1.54309 1.19174 0.521855 0.717974 2.56538 2.46174 1.29249 1.47548 1.38227 1.34974 1.71398 1.64875 1.6202 1.3718 1.41263 1.54063 1.40014 1.3266 1.28554 1.28726 1.33006 1.26624 1.38962 1.43519 1.41043 1.39203 1.27501 1.56545 1.46185 1.60819 1.34404 1.35419 1.29751 1.33437 1.55645 1.71102 1.48136 1.49525 1.54898 1.46885 1.33064 1.55213 1.48796 1.76188 1.8666 1.28015 1.26843 0.957332 0.827416 0.930412 1.05776 1.21773 1.91954 1.4681 1.88417 1.90122 2.0765 1.69411 1.75787 1.31282 1.37288 1.17046 1.30339 1.80354 1.60695 1.25576 1.42804 1.50914 1.29366 1.28429 1.28081 1.33605 1.23762 1.24561 1.34252 1.24894 1.30411 1.28888 1.4961 1.36884 1.30919 1.24974 1.11813 1.35238 1.31496 1.36634 1.30994 1.30509 1.66078 1.29182 1.18041 1.61528 1.50207 1.32887 1.54402 1.489 1.41182 1.09451 1.43384 1.56561 1.94444 1.22036 1.13558 1.28376 1.1389 1.36111 1.18627 1.07389 1.01409 1.02281 1.00895 0.973145 0.99543 1.01885 1.06139 1.10695 1.15049 1.13728 1.02961 1.56915 1.48417 1.30264 1.20949 1.40081 1.51198 1.32676 1.44597 1.24623 1.43041 1.32963 1.38637 1.29621 1.34763 1.29112 1.24723 1.29558 1.2865 1.25181 1.23711 1.26686 1.32794 1.5801 1.32617 1.39086 1.36452 1.33916 1.33316 1.19154 1.18336 1.17851 1.31339 1.37185 1.15442 1.09314 1.35689 1.73679 1.38671 1.39258 1.13521 1.26741 1.27445 1.38984 1.50411 1.36668 1.55656 1.79893 0.645098 1.06984 1.6408 1.62878 1.16592 1.21295 1.05361 1.06136 1.09727 1.01313 1.01042 1.00743 0.912379 0.959765 0.951032 0.989914 0.935729 0.923181 0.999754 0.943375 1.03303 1.01723 0.985603 1.05615 1.0717 1.0974 1.05483 1.02783 1.06835 1.06198 1.33501 1.20695 1.19745 1.17754 1.1776 1.07687 1.22218 1.30078 1.20911 1.29613 1.37931 1.371 1.3371 1.23234 1.20499 1.08012 1.1059 1.25616 1.21098 1.11923 0.967037 1.18836 1.33585 1.26034 1.17381 1.14341 1.34907 1.35235 1.25755 1.31648 1.11647 1.13903 1.33098 1.36995 1.36605 1.22627 1.23416 1.1681 0.852286 0.520065 1.01665 1.02662 0.838148 0.832983 0.980992 0.918632 0.888774 1.03327 1.01645 0.908869 0.876615 0.902501 0.936509 0.85186 0.889345 0.947724 0.936451 0.869355 0.908356 0.892023 0.92712 0.920546 0.945682 0.852101 0.9082 0.912148 0.904756 0.926696 0.914992 0.921313 0.892473 1.07977 1.11379 1.13334 1.21401 1.12357 1.15228 1.13774 1.0902 1.12122 1.10505 1.11755 1.11635 1.21318 1.25278 1.28043 1.12138 1.05497 1.12857 1.19574 1.10287 1.18382 1.16722 1.25384 1.10793 1.21423 1.15161 1.20376 1.15352 1.05774 1.12253 1.14477 1.28868 1.11802 1.06368 1.23186 1.14776 1.12315 1.21784 1.23947 0.770753 1.01641 1.15325 1.30223 1.36314 1.31305 1.18636 1.20743 1.21423 1.12871 1.09588 1.06856 0.983052 0.939467 1.07069 1.02951 1.08045 1.04392 0.884845 1.18953 1.04612 0.957259 0.995232 0.888775 0.908484 0.905154 0.884527 0.819218 0.95997 0.843737 0.906754 0.89231 0.858488 0.873432 1.00397 0.858286 1.1624 0.976039 1.01766 0.921973 0.914143 0.908915 0.92774 0.910882 0.917868 0.851336 0.884932 0.897502 0.853286 1.1867 0.989166 1.02001 0.928903 1.0483 1.03145 0.951707 0.989987 1.03711 1.05675 1.08846 1.14126 1.12689 1.09798 1.1051 0.987809 1.0631 1.12458 1.16978 1.11991 1.31082 1.16987 1.17971 1.11579 1.14121 1.06598 1.04624 1.00903 1.01139 1.03465 1.19524 1.11005 1.19102 1.19552 1.03522 1.34174 1.25267 1.1071 1.13652 1.16391 1.21504 1.15947 1.09455 1.08797 1.00601 1.0681 0.954094 1.085 1.07909 0.868468 0.957584 0.942538 0.936645 0.927258 0.911348 0.897467 0.926047 0.945471 0.91322 1.04586 0.917559 0.953998 0.816942 1.02707 0.858073 0.879563 1.19378 0.611828 1.01868 0.969072 0.871227 1.10582 1.22995 0.980023 0.944246 0.888304 0.942233 0.780105 0.895726 0.8354 0.760061 0.730228 0.861351 0.856966 0.927736 0.947362 0.957985 1.0079 0.985954 0.964597 0.968644 0.957171 1.00291 1.02862 1.0001 0.999974 1.01841 1.13897 1.12027 1.14926 1.16877 1.10519 1.11905 1.04893 1.03407 1.104 1.09096 1.13742 1.16101 1.12979 1.0397 1.33256 1.19481 1.10167 1.05708 1.02918 0.994353 1.03132 0.993745 1.03214 1.09019 1.10731 1.02145 1.15601 1.09068 1.09283 1.0305 1.03678 0.999539 1.00862 1.04723 0.9534 1.22286 1.00158 1.08931 0.984219 1.04007 0.933668 0.974427 1.02332 1.13879 1.01382 0.907696 0.947721 0.900156 0.843293 0.886202 0.880501 0.920272 0.910285 0.896423 0.990328 0.922578 0.861406 0.856494 0.842732 0.882081 0.882036 0.887985 0.902664 0.898968 0.637623 0.583142 0.655946 0.826196 0.840665 0.889091 0.558815 0.942489 0.873238 0.773725 0.856812 0.764188 0.756247 0.82375 0.913388 0.895931 0.915633 0.921634 0.824981 0.87131 0.966776 0.934736 0.976854 0.995456 0.995896 0.966956 0.984766 0.969839 1.03671 1.03638 1.00535 0.987807 0.995923 1.16575 1.14381 1.12159 1.05551 1.12708 1.08608 0.997107 1.08973 1.03507 1.0016 1.12072 1.08807 1.01267 1.03599 1.00635 0.945188 0.953656 0.986623 0.961689 1.0375 1.07522 1.05463 0.972557 0.951526 1.04908 1.06025 0.997636 0.987211 0.987157 1.04019 1.12518 0.751568 0.486803 1.16333 1.0026 0.85854 0.944521 1.03094 0.902815 0.922986 1.05505 0.966816 0.892735 0.88056 0.890226 0.883756 0.886017 0.894143 0.885966 0.892155 0.896053 0.848065 0.858882 0.855557 0.90364 0.877184 0.922609 0.886915 0.874183 0.857139 0.940875 0.744415 0.873348 0.925101 0.682915 0.826117 0.775929 0.790031 0.802282 0.746959 0.77773 0.889118 0.857503 0.782826 0.890096 0.827335 0.827423 0.833806 0.847792 0.809433 0.823447 0.832397 0.804088 0.848497 0.861158 0.893973 0.866914 0.815107 0.779037 0.854903 0.949518 0.962592 0.966368 0.98448 0.983889 1.01173 0.949263 0.965286 0.949986 0.95574 0.967248 1.01154 1.02996 0.986864 0.931603 1.06119 1.18775 1.23219 1.16858 0.952988 1.00237 0.939 0.874317 0.843576 0.738867 1.01977 0.997729 1.00017 1.12173 1.01079 1.00707 0.938146 0.979214 0.962603 0.998679 0.842127 0.968776 0.974879 0.988532 0.956223 0.947611 1.02255 1.02828 1.00361 1.02815 0.937053 0.878857 0.810519 0.939855 0.939485 0.884478 0.840739 0.829471 0.956467 0.881512 0.868538 0.848849 0.859533 0.830864 0.901173 0.894796 0.894905 0.92112 0.875567 0.850882 0.844675 0.838829 0.840629 0.841461 0.816975 0.921592 0.812022 0.842878 0.851842 0.824048 0.774929 0.775751 0.760394 1.24874 0.894561 0.936815 0.51712 0.935543 0.828521 0.692591 0.765774 0.826787 0.805051 0.797086 0.864671 0.889178 0.854351 0.883118 0.841656 0.846214 0.900941 0.897326 0.952544 0.92252 0.90276 0.932911 0.863724 0.916281 0.736662 0.908715 1.03582 1.00655 0.922825 0.984407 0.970685 0.999767 0.903115 0.942906 1.29166 1.10409 0.96353 0.905195 0.975654 0.967306 1.22303 0.973963 0.746441 0.955712 0.927922 0.939794 0.916325 1.00333 0.791707 0.941407 1.06532 0.898174 0.967277 1.00548 1.01135 0.940257 0.938831 0.969059 0.99276 0.968861 0.96442 1.08213 0.978666 0.947199 0.988071 0.949953 0.97441 0.99334 1.00261 0.965519 0.919267 0.886126 0.866673 0.878251 0.874942 0.891797 0.880753 0.901602 0.832593 0.846122 0.822719 0.903929 0.812536 0.817186 0.833579 0.880851 0.800776 0.828503 0.785776 0.774054 0.777086 0.863643 0.900868 0.791373 0.802921 0.807431 0.81719 0.785847 0.789404 0.751228 0.733706 0.722744 0.366416 0.333201 0.741859 1.72814 2.61092 0.140824 1.15139 1.31555 0.508555 0.532679 0.788233 0.544362 0.750119 0.782813 0.780298 0.803308 0.80267 0.848665 0.818767 0.828416 0.815074 0.849324 0.852522 0.838642 0.814023 0.86083 0.83192 0.942269 0.851466 0.75 0.743402 0.916957 0.842493 0.891087 0.872277 0.915638 0.827421 0.879818 1.02206 0.850801 0.824682 0.891176 0.936334 0.867821 1.02498 1.07682 0.928671 0.937024 0.875283 0.971039 1.13389 1.16698 0.808562 0.830404 0.690529 0.944993 0.978765 0.801493 0.810553 0.876358 1.17804 0.973682 0.919627 0.917098 0.899947 1.00157 0.920346 1.0214 0.973049 0.925432 0.973375 0.973164 0.937663 0.955036 0.934899 0.942443 0.972108 1.0412 0.963242 0.861874 0.965024 0.902813 0.892473 0.885756 0.879814 0.882688 0.851462 0.837967 0.867984 0.82726 0.847963 0.835725 0.855104 0.851541 0.822629 0.82388 0.806476 0.779695 0.780948 0.786398 0.780932 0.809075 0.82703 0.700452 0.801094 0.750404 0.787125 0.784345 0.770054 0.768905 0.765368 0.705894 0.747065 0.693619 0.695668 0.380714 0.604408 0.460714 0.101503 0.725731 1.00521 0.847657 1.307 0.580365 0.972185 0.758184 1.03074 0.831897 0.808139 0.813395 0.817179 0.875918 0.829896 0.791736 0.797271 0.805339 0.828493 0.786396 0.806384 0.828953 0.847464 0.852486 0.864149 0.902585 0.937628 1.04698 0.950872 0.995204 0.626852 0.723585 0.744759 0.844591 0.911823 0.896221 0.879243 0.878015 0.89035 0.948722 1.15995 1.13982 1.0805 0.856093 1.0041 0.90131 0.900807 0.75603 0.807508 0.853268 1.08332 0.931944 0.907662 0.609636 0.859886 0.826282 0.845908 0.737697 0.753196 0.889756 0.658548 0.89435 0.905144 1.01225 1.045 1.07914 0.755569 0.806124 0.946162 0.852745 0.88946 0.870958 0.948847 1.00056 0.845763 0.837556 0.94914 0.894129 0.952667 0.947593 0.899576 0.904897 0.914122 1.0601 0.911354 0.988887 0.748551 0.916402 0.842571 0.896252 0.92846 0.885143 0.879079 0.884474 0.865757 0.826903 0.886703 0.809831 0.83714 0.823323 0.866547 0.845855 0.803978 0.851418 0.842688 0.873658 0.830569 0.853621 0.849006 0.842567 0.87355 0.783512 0.818086 0.94896 0.700608 0.828386 0.669437 0.789871 0.762843 0.737461 0.831682 0.781808 0.743386 0.768592 0.716026 0.760336 0.730247 0.69194 0.707876 0.704488 0.681167 0.695058 0.59374 0.62551 0.840183 0.719013 0.735219 0.740116 1.04423 0.84011 0.826087 0.893352 0.847608 0.840175 0.5583 0.749376 0.7745 0.763102 0.79323 0.751631 0.764082 0.823341 0.780585 0.771316 0.811794 0.813739 0.772531 0.775218 0.797489 0.765505 0.655887 0.757643 0.850148 0.869655 0.819201 0.909103 0.821763 0.839594 0.893905 0.929855 0.922983 0.653795 0.622424 0.772899 0.767928 0.989262 0.950542 0.766618 0.779409 0.691417 0.792923 0.842244 0.742438 0.807516 0.842874 0.803667 0.741276 0.773244 0.860566 1.01231 0.863049 0.819781 0.831882 0.895709 0.902162 0.875952 0.927342 0.882559 0.878935 0.824081 0.844856 0.898545 0.936492 0.918181 0.896375 0.900404 0.909966 0.896715 0.836022 0.947458 0.939632 0.773101 0.809366 0.831018 0.832217 0.8634 0.838379 0.787561 0.839476 0.770496 0.788823 0.820717 0.793049 0.833325 0.888176 0.783694 0.829431 0.828948 0.896787 0.774794 0.974081 0.615461 0.718683 0.782555 0.783704 0.842732 0.802315 0.775491 0.826009 0.82347 0.786964 0.790036 0.806871 0.791615 0.785308 0.76259 0.741959 0.727013 0.745245 0.723266 0.717421 0.741335 0.754674 0.725671 0.727184 0.700106 0.711175 0.707623 0.715751 0.710366 0.690739 0.709577 0.724622 0.704362 0.739127 0.807138 0.682726 0.752701 0.788424 0.687886 0.806396 0.849998 0.58997 0.854145 0.897595 0.78378 0.815858 0.802166 0.767036 0.748243 0.731621 0.739778 0.72661 0.756008 0.753359 0.75116 0.787103 0.763578 0.791122 0.729799 0.797889 0.843231 0.885944 0.899649 0.840116 0.936409 0.922703 0.935736 0.766532 0.749844 0.903625 1.04572 0.77095 0.761801 0.758169 0.722755 0.829268 0.83748 0.797765 0.840192 0.832415 0.831686 0.826497 0.814509 0.795368 0.854961 0.822514 0.824711 0.882845 0.867457 0.875129 0.851669 0.810256 0.888795 0.862917 0.879408 0.855823 0.875826 0.833334 0.845463 0.890544 0.849413 0.869865 0.922998 0.8653 0.905005 0.908552 0.797406 0.862232 0.826105 0.896475 0.922815 0.892217 0.814102 0.802795 0.774624 0.760737 0.785019 0.76405 0.77094 0.764306 0.883847 0.793734 0.829016 1.05038 0.955343 0.784786 0.932874 0.76409 0.738126 0.750927 0.796174 0.818239 0.8081 0.799114 0.8145 0.799527 0.744637 0.80777 0.746314 0.746816 0.734101 0.778227 0.801212 0.772908 0.71467 0.723048 0.650163 0.554169 0.654827 0.660103 0.704399 0.695663 0.707846 0.691639 0.720661 0.709272 0.712695 0.701066 0.689178 0.6845 0.658207 0.684173 0.688185 0.689822 0.686298 0.672983 0.665796 0.659527 0.832167 0.737306 0.824142 0.832428 0.81575 0.780608 0.802141 0.741986 0.755635 0.707662 0.754433 0.725415 0.74706 0.7474 0.748538 0.76435 0.785137 0.816723 0.819616 0.820302 0.811499 0.832693 0.833651 0.838316 0.836013 0.854668 0.859646 0.746135 0.879129 0.713343 0.687391 0.700641 0.739081 0.757471 0.713595 0.713986 0.749867 0.739356 0.756996 0.754482 0.776339 0.866811 0.836303 0.829062 0.832197 0.84207 0.816881 0.814947 0.828208 0.824923 0.850999 0.845948 0.853662 0.857989 0.865311 0.849358 0.85935 0.861114 0.870848 0.858328 0.852983 0.831558 0.83458 0.824189 0.82444 0.832073 0.874984 0.846244 0.910209 0.846617 0.89274 0.771781 0.752425 0.772407 0.76829 0.822182 0.752142 0.871079 0.90789 0.794426 0.772823 0.773238 0.744725 0.771529 0.766599 0.791579 0.741091 0.725572 0.691777 0.754753 0.807145 0.885476 0.668465 0.681272 0.681437 0.677447 0.697081 0.67964 0.73933 0.674764 0.685821 0.75097 0.689764 0.803795 0.668591 0.681721 0.7938 0.681525 0.566287 0.677924 0.81923 0.717748 0.685802 0.435225 0.773351 0.679056 0.681034 0.698422 0.579758 0.698535 0.56375 0.601761 0.633582 0.663318 0.638305 0.617394 0.642186 0.648773 0.657033 0.676402 0.68424 0.70519 0.709598 0.691318 0.680151 0.677185 0.673288 0.683906 0.684029 0.684956 0.688583 0.705726 0.726158 0.809045 0.812978 0.847677 0.818932 0.774365 0.735748 0.739812 0.76465 0.723854 0.735959 0.713381 0.699518 0.826252 0.8011 0.788612 0.844132 0.82036 0.824603 0.785722 0.733853 0.726332 0.689977 0.737582 0.772592 0.765378 0.755668 0.768269 0.76118 0.789214 0.823556 0.862797 0.839444 0.840735 0.837118 0.828498 0.825253 0.823928 0.829726 0.840743 0.852853 0.849498 0.851817 0.855969 0.855356 0.867203 0.872399 0.863777 0.871866 0.861475 0.834155 0.828182 0.824054 0.825661 0.839554 0.844858 0.828797 0.77173 0.673228 0.712577 0.701343 0.855427 0.812132 0.798179 0.742645 0.688242 0.786634 0.80773 0.691739 0.758922 0.762142 0.749747 0.738834 0.802386 0.76228 0.75685 0.974385 0.943612 0.785047 0.732291 0.641796 0.735353 0.715041 0.709815 0.698841 0.71282 0.670758 0.706536 0.684316 0.669702 0.626006 0.791087 0.595823 0.897712 0.719355 0.581414 0.536095 0.912027 0.6765 0.268186 0.892516 0.947318 0.717044 1.03326 0.991266 0.738488 0.759686 0.80519 0.652591 0.638874 0.69096 0.675201 0.686956 0.707182 0.701954 0.711855 0.67883 0.676035 0.64361 0.669905 0.644517 0.678177 0.719763 0.724181 0.697311 0.673802 0.674347 0.660248 0.714169 0.730469 0.70106 0.674187 0.690236 0.762521 0.732862 0.802219 0.795443 0.786079 0.796529 0.759416 0.776952 0.740765 0.725617 0.7892 0.724469 0.823315 0.82705 0.814685 0.839221 0.87291 0.889169 0.649717 0.811306 0.714666 0.687341 0.692861 0.693147 0.683507 0.661301 0.707978 0.722028 0.764048 0.782212 0.790181 0.783198 0.78769 0.778602 0.785763 0.788736 0.794981 0.823644 0.824356 0.812442 0.842494 0.846638 0.830778 0.831957 0.829595 0.828687 0.839536 0.845319 0.839424 0.859217 0.866015 0.86961 0.877776 0.875558 0.875309 0.860741 0.853346 0.850033 0.850102 0.838115 0.828716 0.834504 0.838136 0.843928 0.843256 0.865133 0.850815 0.850439 0.802154 0.81061 0.731656 0.724694 0.722407 0.756636 0.749938 0.74171 0.748315 0.737157 0.683638 0.695819 0.88249 0.532706 0.739889 0.973593 0.932143 0.81741 0.812669 0.764555 0.809487 0.724761 0.719665 0.717139 0.72561 0.741711 0.736723 0.755674 0.645117 0.693584 0.663703 0.688264 0.606022 0.557551 0.726004 0.753842 0.64853 0.705387 0.514909 0.468224 0.8425 0.753337 0.945839 0.662597 0.716269 0.686183 0.777749 0.774862 0.737513 0.692012 0.685044 0.735538 0.71988 0.704761 0.780234 0.759081 0.629644 0.666198 0.700578 0.687142 0.70395 0.666811 0.69799 0.711665 0.697247 0.666091 0.680487 0.674827 0.667104 0.689095 0.745297 0.784853 0.722015 0.719838 0.636384 0.653734 0.571107 0.607049 0.723286 0.602409 0.749479 0.783124 0.789538 0.734256 0.654108 0.735862 0.675691 0.740197 0.781212 0.678006 0.710577 0.703088 0.78567 0.787151 0.868028 0.803574 0.749259 0.676108 0.709291 0.695419 0.685172 0.725427 0.771538 0.754427 0.77021 0.807811 0.797462 0.802908 0.78642 0.809221 0.778486 0.841686 0.755663 0.823253 0.899291 0.843895 0.864257 0.851347 0.848128 0.836435 0.828694 0.81832 0.824931 0.844127 0.86225 0.882318 0.892686 0.884821 0.87346 0.871118 0.862145 0.850947 0.846644 0.838373 0.846973 0.83912 0.845349 0.861074 0.899235 0.851602 0.773814 0.721781 0.737167 0.749633 0.733822 0.754575 0.755494 0.756512 0.778336 0.771312 0.782754 0.775221 0.787961 0.734256 0.768083 0.655008 0.571205 0.724174 0.866148 0.695829 0.775476 0.849641 0.765159 0.810551 0.727349 0.739808 0.779578 0.742856 0.745463 0.754362 0.756065 0.807637 0.662082 0.731551 0.6784 0.736561 0.696368 0.797497 0.659573 0.768987 0.759454 0.82489 0.783949 0.479546 0.60579 0.694216 0.854384 0.640061 0.749536 0.850484 0.722773 0.827532 0.835408 0.796303 0.674335 0.58417 0.539814 0.596952 0.592007 0.622979 0.606809 0.674562 0.654997 0.65654 0.654004 0.575007 0.626524 0.613501 0.57303 0.588948 0.655895 0.588243 0.666583 0.698934 0.776519 0.824082 0.765348 0.648151 0.632307 0.684707 0.56076 0.716345 0.846136 0.653297 0.899074 0.904211 0.511982 0.747408 0.658055 0.640952 0.617098 0.593803 0.585344 0.61787 0.65761 0.733339 0.776549 0.678547 0.767667 0.722627 0.729679 0.754135 0.737229 0.856462 0.805386 0.763729 0.746758 0.749353 0.733305 0.762984 0.700232 0.721122 0.736143 0.746375 0.76291 0.786786 0.810781 0.820984 0.8217 0.847058 0.821384 0.787491 0.787943 0.746229 0.942846 0.867115 0.852312 0.839431 0.836084 0.829302 0.837333 0.831848 0.857993 0.892278 0.901893 0.893414 0.880683 0.874656 0.872372 0.878794 0.86264 0.848928 0.842694 0.843201 0.844927 0.846566 0.847877 0.855405 0.879283 0.985493 0.883534 0.791945 0.801299 0.727794 0.770392 0.775226 0.787444 0.787462 0.78421 0.770907 0.785432 0.769772 0.78612 0.718515 0.641749 0.697127 0.807807 0.757392 0.764517 0.819431 0.785065 0.777362 0.764375 0.715487 0.747504 0.727053 0.766172 0.727829 0.747782 0.723546 0.776747 0.798251 0.771886 0.659807 0.70876 0.619226 0.703606 0.721206 0.680977 0.849474 0.573852 0.326579 0.699258 0.945126 0.43711 0.892901 0.606291 0.460502 0.49219 0.87212 0.585442 0.927002 0.944304 0.561162 0.57258 0.624478 0.545449 0.495332 0.593746 0.612199 0.615278 0.610121 0.618972 0.635792 0.650198 0.669872 0.66081 0.625172 0.575221 0.648145 0.601141 0.598843 0.597486 0.642303 0.617237 0.63228 0.753284 0.72166 0.738724 0.815472 0.78143 0.727835 0.795195 0.594915 0.707107 0.764626 0.629461 0.677774 0.663018 0.591633 0.618899 0.615525 0.721726 0.603304 0.620943 0.693772 0.719558 0.709307 0.679571 0.693405 0.715839 0.670567 0.737916 0.765674 0.766311 0.780663 0.732447 0.753275 0.761833 0.758408 0.754522 0.75972 0.719898 0.776555 0.754657 0.797586 0.841126 0.865642 0.906561 0.814369 0.947216 0.835568 0.700039 0.662203 0.69935 0.980236 0.835623 0.845807 0.847303 0.833627 0.834495 0.841982 0.830854 0.835013 0.895783 0.914121 0.892081 0.898337 0.879888 0.861247 0.880814 0.840138 0.832907 0.833616 0.833801 0.836636 0.842651 0.850106 0.833056 0.856199 0.857186 0.886646 0.965051 0.842126 0.845859 0.845356 0.811615 0.889777 0.72244 0.73626 0.803118 0.788764 0.806642 0.791471 0.775691 0.752947 0.740761 0.713507 0.717283 0.682719 0.662094 0.713481 0.716457 0.729055 0.732946 0.739406 0.737355 0.685348 0.692447 0.670069 0.551395 0.629758 0.655844 0.526098 0.696764 0.582746 0.662278 0.643836 0.74078 0.753355 0.547723 0.697273 0.80693 0.43475 0.685967 0.673673 0.607707 0.549598 0.40741 0.640912 0.535547 0.569718 0.525498 0.544984 0.546233 0.549671 0.537297 0.500109 0.503805 0.51366 0.588908 0.56661 0.564725 0.565926 0.582767 0.629677 0.555176 0.614078 0.575479 0.626596 0.593518 0.595731 0.6358 0.591111 0.58427 0.595737 0.579768 0.60853 0.632014 0.609004 0.592161 0.613967 0.651497 0.64135 0.739861 0.696163 0.635925 0.605882 0.577022 0.616684 0.517768 0.583051 0.583472 0.604999 0.664836 0.599998 0.582191 0.669161 0.689295 0.733445 0.718034 0.746359 0.696986 0.71037 0.744763 0.75 0.768662 0.757203 0.776596 0.777066 0.76537 0.782777 0.758381 0.736034 0.766461 0.759168 0.782054 0.776817 0.739835 0.770697 0.786005 0.8598 0.895462 0.829708 0.817834 0.776047 0.790027 0.787352 0.981478 0.733425 0.40207 0.74402 0.854264 0.928628 0.824787 0.868768 0.829312 0.826618 0.836854 0.846465 0.838263 0.813668 0.815823 0.796865 0.903632 0.939172 0.92331 0.901518 0.865398 0.804357 0.820844 0.837104 0.840288 0.844364 0.842432 0.852831 0.831562 0.746637 0.838937 1.09875 0.735751 0.844453 0.822381 0.811088 0.791455 0.765773 0.736427 0.710638 0.69573 0.70505 0.714814 0.679097 0.695076 0.706548 0.723795 0.729323 0.728969 0.729817 0.745705 0.743556 0.76139 0.758714 0.712831 0.745429 0.770924 0.750409 0.694163 0.665709 0.72546 0.767756 0.354243 0.49281 0.771852 0.326948 0.664341 0.529486 0.587442 0.664244 0.595392 0.560515 0.615508 0.565923 0.660651 0.693693 0.673251 0.68851 0.627851 0.671187 0.593442 0.657259 0.592855 0.67818 0.646489 0.55139 0.572348 0.561348 0.545052 0.511493 0.52403 0.514194 0.520525 0.614633 0.564748 0.534628 0.53819 0.514818 0.511679 0.545723 0.579439 0.552332 0.578307 0.573956 0.550155 0.587958 0.611835 0.603085 0.584569 0.571998 0.591719 0.503462 0.640264 0.555658 0.585552 0.641781 0.594561 0.708714 0.659145 0.78745 0.767843 0.744912 0.680518 0.678921 0.710957 0.726655 0.737013 0.759894 0.781419 0.770078 0.781128 0.786935 0.775587 0.787546 0.781633 0.790623 0.7751 0.771733 0.772528 0.783716 0.786524 0.702885 0.810694 0.785861 0.80742 0.804155 0.943348 0.499102 0.680035 0.540724 0.677027 0.816137 1.06078 0.753143 0.841431 0.845032 0.873181 0.86574 0.857451 0.816588 0.84316 0.886114 0.945171 0.958785 0.99847 0.922277 0.89036 0.816571 0.8202 0.842739 0.856099 0.85318 0.848844 0.821233 0.778158 0.772517 0.692733 1.0076 0.563914 0.793057 0.829158 0.813695 0.778629 0.757366 0.739698 0.721421 0.719122 0.713482 0.684287 0.714723 0.731437 0.720971 0.730252 0.739809 0.755906 0.774857 0.723909 0.670997 0.917104 0.692165 1.07953 0.638331 0.697376 0.518788 0.633086 0.569834 0.599203 0.61517 0.590548 0.640022 0.691387 0.697255 0.690182 0.656288 0.616149 0.573432 0.583438 0.609036 0.487333 0.593176 0.505416 0.49621 0.515927 0.511216 0.518223 0.508614 0.513122 0.526057 0.513657 0.557157 0.562668 0.601566 0.601201 0.621294 0.573755 0.551513 0.528947 0.494979 0.552799 0.528093 0.526973 0.533178 0.555228 0.570867 0.546855 0.576441 0.580138 0.538437 0.509233 0.496874 0.522077 0.49381 0.485852 0.512409 0.558051 0.559812 0.588949 0.576233 0.598732 0.702157 0.681979 0.802004 0.664174 0.675168 0.821543 0.830893 0.507656 0.617079 0.640511 0.660677 0.677622 0.689672 0.730598 0.765095 0.771102 0.775354 0.8108 0.796921 0.819577 0.793615 0.807104 0.801299 0.795956 0.790691 0.790972 0.78796 0.791333 0.783405 0.775615 0.775889 0.775918 0.781291 0.769237 0.745053 0.78781 0.772901 0.799643 0.820489 0.81086 0.831656 0.846432 0.864417 0.882315 0.832967 0.526955 0.880559 0.976879 0.69659 0.861629 0.820998 0.881177 0.8772 0.853066 0.83162 0.864676 0.91869 0.984834 0.953961 1.06727 0.842594 0.818749 0.813401 0.840231 0.856926 0.8659 0.884968 0.873539 0.854435 0.806756 0.825702 0.784805 0.796398 0.849018 0.677265 0.724411 0.688175 0.694843 0.719013 0.813009 0.787171 0.773615 0.751424 0.751565 0.738992 0.737142 0.727446 0.758437 0.733416 0.72984 0.733493 0.744802 0.758453 0.738541 0.68336 0.756973 0.701297 0.78593 0.192808 0.833502 0.580463 0.30356 0.614499 0.55677 0.569959 0.597863 0.61999 0.633241 0.601347 0.664658 0.654048 0.60771 0.646627 0.585538 0.652474 0.626176 0.609804 0.595525 0.593824 0.594998 0.518203 0.496892 0.5367 0.51233 0.503636 0.514541 0.515815 0.576355 0.57818 0.579952 0.538684 0.378778 0.485016 0.54455 0.593405 0.563915 0.582597 0.571877 0.562679 0.503957 0.514398 0.48965 0.530179 0.363859 0.417667 0.508593 0.439676 0.512423 0.584615 0.556152 0.542078 0.519496 0.513232 0.507049 0.503853 0.496965 0.504755 0.52082 0.546182 0.528352 0.582646 0.569829 0.616831 0.625564 0.619218 0.545025 0.589609 0.609349 0.636996 0.695587 0.686309 0.723546 0.772449 0.830664 0.841075 0.815787 0.805177 0.792781 0.788714 0.788308 0.783132 0.778635 0.774014 0.774085 0.793574 0.810389 0.81125 0.813023 0.819716 0.836358 0.859874 0.869855 0.769529 0.873937 0.827532 0.765067 0.857984 0.872967 0.865741 0.881727 0.881217 0.890228 0.827682 0.892404 0.902937 0.92619 1.04381 0.95753 0.851599 0.814464 0.796954 0.852054 0.877033 0.884337 0.893021 0.888024 0.896227 0.883058 0.869641 0.83674 0.775194 0.71624 0.733756 0.718047 0.787407 0.762551 0.749009 0.740685 0.749698 0.757598 0.752224 0.743336 0.755461 0.738113 0.733801 0.733331 0.730162 0.74625 0.734098 0.74809 0.79644 0.809065 0.85335 0.845141 0.599094 0.511374 0.610065 0.577796 0.58447 0.622755 0.618343 0.654513 0.610033 0.528451 0.617679 0.577607 0.611634 0.634597 0.578374 0.593762 0.548186 0.540104 0.541985 0.534181 0.521417 0.474835 0.453618 0.482082 0.491984 0.591051 0.511916 0.315476 0.546511 0.447052 0.469437 0.54494 0.570854 0.517723 0.564249 0.778619 0.979416 1.419 0.0751495 0.481739 0.348845 0.479005 0.464829 0.460227 0.414984 0.378651 0.403749 0.401602 0.399223 0.401759 0.439857 0.520997 0.535348 0.594909 0.548744 0.524786 0.532367 0.520076 0.525398 0.50469 0.505179 0.498959 0.513389 0.500065 0.497089 0.565354 0.559368 0.544187 0.594182 0.605662 0.576917 0.629277 0.600545 0.611609 0.648873 0.740176 0.760512 0.696861 0.700586 0.722859 0.867657 0.882808 0.824195 0.794808 0.788356 0.783846 0.780336 0.776207 0.774315 0.773504 0.795708 0.817979 0.831186 0.811169 0.827631 0.833342 0.855821 0.859016 0.840494 0.874632 0.860275 0.843968 0.811488 0.876654 0.849206 0.869591 0.884121 0.906285 0.895318 0.92281 0.974438 0.939278 0.937164 0.774656 0.721856 1.00333 0.874751 0.779079 0.859869 0.862445 0.879945 0.892401 0.883742 0.90914 0.92888 0.930749 0.853957 0.804875 0.745579 0.753557 0.797901 0.760553 0.771374 0.772592 0.780034 0.770387 0.768575 0.760285 0.758745 0.755744 0.756054 0.745835 0.74973 0.740053 0.71842 0.732855 0.777006 0.719642 0.720452 0.753229 0.815664 0.666846 0.571667 0.623645 0.646533 0.777017 0.521814 0.574227 0.554878 0.590505 0.563012 0.526038 0.606574 0.544777 0.405467 0.304765 0.481266 0.504638 0.497779 0.513662 0.309756 0.457895 0.274717 0.445086 0.476148 0.473313 0.508667 0.555031 0.42992 0.846408 1.66908 0.903818 0.0708946 0.473341 0.488623 0.431604 0.467703 0.419972 0.427263 0.411889 0.388222 0.380835 0.415615 0.422771 0.446758 0.518126 0.540632 0.51008 0.507914 0.490062 0.51612 0.513598 0.485873 0.504687 0.525565 0.499371 0.481717 0.491027 0.532862 0.611676 0.610794 0.620231 0.602373 0.614759 0.630581 0.654843 0.665098 0.699891 0.707515 0.60049 0.922545 0.728931 0.954036 0.837475 0.77112 0.793405 0.743576 0.769691 0.777058 0.779116 0.783063 0.780259 0.757526 0.806966 0.845929 0.837804 0.870526 0.828431 0.820353 0.828939 0.844034 0.838104 0.848768 0.847846 0.847901 0.848806 0.846359 0.859783 0.859614 0.868575 0.874029 0.922807 0.916753 0.95788 0.97629 0.958222 0.876949 0.81055 0.819499 0.826328 0.813727 0.836969 0.845351 0.905409 0.864883 0.903805 0.873729 1.08116 1.06321 0.887824 0.838392 0.767715 0.707032 0.805944 0.8253 0.790896 0.813051 0.783351 0.769112 0.770616 0.765994 0.766784 0.760907 0.765 0.762243 0.76792 0.756644 0.73576 0.751894 0.737701 0.709381 0.715607 0.694014 0.634396 0.714069 0.597652 0.5765 0.541243 0.559082 0.543386 0.553211 0.613682 0.670255 0.635679 0.752472 0.794872 0.332613 0.609001 0.53682 0.503393 0.58763 0.550216 0.56158 0.515912 0.542139 0.416449 0.629319 0.66453 0.88823 0.483387 0.58844 0.522395 0.553247 0.379842 0.542764 0.367551 0.249108 0.450707 0.4085 0.360244 0.113266 0.573922 0.122192 0.241576 0.469116 0.413931 0.430594 0.435706 0.403805 0.401381 0.391454 0.415142 0.419769 0.478394 0.452119 0.494412 0.510275 0.536027 0.516137 0.523245 0.492607 0.485735 0.497287 0.501728 0.508872 0.500066 0.599609 0.554214 0.584221 0.669054 0.621929 0.640287 0.630962 0.606119 0.611781 0.639117 0.700808 0.70694 0.703532 0.717653 0.677832 0.681966 0.815874 0.893679 0.854935 0.710908 0.749081 0.7652 0.773493 0.773849 0.777962 0.765101 0.74637 0.765555 0.803839 0.84624 0.843653 0.823449 0.829049 0.822875 0.833067 0.835925 0.846526 0.833838 0.846809 0.85773 0.878638 0.881941 0.875158 0.894214 0.912397 0.87997 0.970909 0.954222 0.921192 0.884705 0.868482 0.872038 0.847115 0.830093 0.839201 0.838635 0.817483 0.827889 0.902022 0.836072 0.876544 0.964428 1.03921 1.04296 0.854885 0.670072 0.708499 0.731653 0.750927 0.760872 0.791366 0.819287 0.84379 0.785423 0.807454 0.773368 0.770475 0.771551 0.779275 0.772045 0.780719 0.77478 0.762313 0.763989 0.75701 0.753629 0.749966 0.744558 0.74797 0.677464 0.715142 0.699998 0.746602 0.655217 0.611446 0.633709 0.57887 0.5099 0.530266 0.559707 0.725361 0.824543 0.703354 0.618033 0.614888 0.638691 0.531349 0.304191 0.39916 0.865897 0.314896 0.45423 0.450607 0.5346 0.511548 0.601659 0.60119 0.0564064 0.541314 0.337333 0.238624 0.074188 0.347771 0.44475 0.386201 0.479291 0.455268 0.479892 0.4221 0.457599 0.425346 0.415347 0.410701 0.397506 0.445954 0.515939 0.538039 0.552228 0.531434 0.498071 0.496328 0.521847 0.523653 0.614503 0.656639 0.642269 0.69211 0.583262 0.630144 0.592797 0.629171 0.591478 0.698988 0.74715 0.734104 0.749344 0.717363 0.721448 0.760274 0.809499 0.871978 0.869485 0.744144 0.740806 0.755981 0.769663 0.771851 0.76964 0.773988 0.774138 0.777524 0.830408 0.831478 0.838795 0.838996 0.832033 0.85592 0.839935 0.8274 0.81887 0.85793 0.859343 0.878507 0.878833 0.868808 0.799927 0.856135 0.954378 0.903064 0.98513 0.970064 0.905278 0.854602 0.879884 0.831259 0.864047 0.84921 0.837 0.833674 0.835558 0.882948 0.871555 0.901438 0.959921 0.952513 1.01351 0.875285 0.829023 0.748948 0.735793 0.763882 0.793322 0.826665 0.751892 0.774733 0.785968 0.788243 0.783134 0.782012 0.773539 0.77231 0.759029 0.764617 0.739604 0.725143 0.732708 0.569873 0.685348 0.726589 0.719013 0.620154 0.55123 0.59748 0.617808 0.54913 0.589435 0.50058 0.583404 0.553438 0.520873 0.585429 0.62858 0.736553 0.790253 0.295518 0.625296 0.382875 0.233662 0.435406 0.413842 0.346014 0.443656 0.468584 0.510282 0.820871 0.292522 0.445297 0.161812 0.262321 0.343612 0.306737 0.443853 0.469319 0.480857 0.495244 0.490278 0.500518 0.453727 0.441755 0.41787 0.365186 0.275145 0.384563 0.546572 0.558191 0.595934 0.576239 0.546828 0.552336 0.573046 0.595918 0.64695 0.724765 0.600082 0.525043 0.562216 0.568263 0.610249 0.91479 0.800973 0.823767 0.805489 0.756484 0.730437 0.753458 0.772329 0.751392 0.791315 0.740802 0.778869 0.765963 0.760505 0.788924 0.803285 0.821331 0.826703 0.831012 0.843025 0.85845 0.851041 0.870968 0.842185 0.802555 0.833409 0.879694 0.895122 0.859232 0.762547 1.03062 0.871303 0.97509 0.909254 0.884687 0.872709 0.885799 0.88111 0.855669 0.872719 0.845697 0.843441 0.855821 0.853889 0.897487 0.908833 0.94824 0.973943 0.875116 0.896914 0.797094 0.755189 0.767345 0.804557 0.849834 0.731431 0.710092 0.733402 0.770172 0.791014 0.788965 0.783411 0.765957 0.776336 0.782884 0.787906 0.782842 0.741184 0.725612 0.754935 0.61616 0.752437 0.699569 0.61233 0.637471 0.612937 0.630164 0.643041 0.620575 0.575866 0.560777 0.522351 0.539869 0.522749 0.570117 0.648645 0.455183 0.769172 0.515413 0.459324 0.480038 0.388184 0.484422 0.421631 0.52529 0.548144 0.652372 0.486644 0.459993 0.496047 0.801973 0.337152 0.202543 0.492909 0.516149 0.511667 0.498335 0.463106 0.493447 0.454555 0.387349 0.251453 0.640401 0.597783 0.589981 0.593025 0.56155 0.540651 0.577156 0.573866 0.628054 0.573133 0.548999 0.78689 0.658077 0.966791 0.901844 0.697784 0.620221 0.70014 0.741099 0.748153 0.749071 0.752272 0.754492 0.771778 0.769801 0.757299 0.793075 0.819236 0.804795 0.825714 0.853985 0.874121 0.870991 0.868481 0.82653 0.847199 0.879422 0.910382 0.860511 0.843615 0.837703 0.711969 0.912987 1.10091 0.852989 0.904248 0.885644 0.857651 0.889753 0.928752 0.915355 0.89654 0.850911 0.858518 0.875544 0.916004 0.949303 0.960653 0.910397 0.882668 0.919778 0.822444 0.782411 0.821672 0.791535 0.804941 0.869199 0.711875 0.776529 0.790753 0.799367 0.760733 0.771143 0.809971 0.733112 0.807222 0.714288 0.712445 0.706428 0.825728 0.708724 0.726386 0.726109 0.712013 0.69295 0.640233 0.698069 0.660124 0.652757 0.671546 0.630954 0.665864 0.61428 0.594832 0.564991 0.511021 0.517497 0.57298 0.544499 0.563017 0.706088 0.599907 0.479788 0.554127 0.523715 0.459705 0.508172 0.467967 0.392831 0.678055 0.468444 0.243123 0.839612 0.524999 0.362293 0.247229 0.317309 0.495145 0.516675 0.523282 0.512253 0.477711 0.419239 0.458816 0.327707 0.740183 0.62337 0.551669 0.600599 0.55769 0.623842 0.623475 0.648915 0.618786 0.544053 0.877633 0.84478 0.89916 1.11178 0.665189 0.704371 0.651387 0.642531 0.731932 0.738301 0.763263 0.753744 0.745148 0.744582 0.720391 0.731707 0.722202 0.730601 0.750962 0.771071 0.763361 0.761031 0.790261 0.824622 0.80771 0.857898 0.791544 0.834752 0.86883 0.862996 0.86529 0.93572 0.962688 0.816506 0.864628 0.875638 0.834991 0.769612 0.837436 1.07105 0.900754 0.834937 0.883394 0.919076 0.866602 0.93049 0.903407 0.907786 0.919802 0.914834 0.870963 0.871354 0.919359 0.916111 0.925079 0.954558 0.918984 0.901786 0.894086 0.848773 0.822357 0.80578 0.83963 0.801782 0.712831 0.729927 0.831945 0.787852 0.777542 0.726066 0.722833 0.838405 0.711472 0.701433 0.637788 0.711758 0.77771 0.742575 0.778109 0.752668 0.732515 0.701302 0.664507 0.694607 0.633858 0.596458 0.56243 0.552586 0.540806 0.558996 0.532685 0.677876 0.612025 0.530552 0.508529 0.56536 0.492284 0.463167 0.43631 0.50485 0.6065 0.40585 0.594638 0.528535 0.233893 0.532159 0.384182 0.493282 0.520353 0.529729 0.499723 0.494862 0.49361 0.486985 0.42695 0.750256 0.667915 0.61261 0.546581 0.552365 0.561144 0.629091 0.654447 0.669913 0.64311 0.584044 0.898539 0.923371 0.925649 0.418744 0.375669 0.677431 0.706169 0.78835 0.775182 0.770288 0.768017 0.713948 0.719187 0.726035 0.740078 0.752448 0.775475 0.783387 0.776178 0.780837 0.801312 0.841354 0.813348 0.779096 0.809792 0.817455 0.859986 0.869506 0.877062 0.932419 0.908881 0.963208 0.875435 0.870838 0.852401 0.812947 0.842716 0.827318 0.823537 0.835038 0.8428 0.881418 0.864786 0.825306 0.821841 0.892227 0.802909 0.864503 0.973387 0.950608 0.896802 0.952577 0.940764 0.880601 0.874526 0.898619 0.942174 0.931787 0.899475 0.862923 0.845679 0.811246 0.822255 0.815854 0.807849 0.71844 0.748414 0.823765 0.789685 0.791013 0.763819 0.732993 0.875872 0.963409 1.13523 0.706871 0.885904 0.711599 0.75995 0.75929 0.755136 0.722577 0.741669 0.670783 0.690156 0.624046 0.603045 0.57688 0.564521 0.586648 0.686132 0.621967 0.566671 0.614525 0.441163 0.498275 0.49164 0.497015 0.485649 0.54465 0.558325 0.538791 0.450065 0.568323 0.51068 0.440102 0.486193 0.544682 0.483743 0.558105 0.562431 0.49283 0.482816 0.49254 0.492873 0.754361 0.695055 0.663503 0.640408 0.639729 0.604136 0.552759 0.566441 0.608107 0.754533 0.506215 0.503803 0.729967 0.367753 0.596 0.53479 0.742602 0.788365 0.80913 0.775996 0.76211 0.748294 0.717407 0.713415 0.719867 0.746768 0.757365 0.820404 0.805463 0.837626 0.777446 0.789156 0.787385 0.817648 0.836939 0.860354 0.869182 0.883053 0.85401 0.940051 0.934191 0.957688 0.870942 0.837627 0.817337 0.829256 0.843242 0.852645 0.864344 0.866014 0.846316 0.788298 0.902253 0.851464 0.95392 0.89936 0.96795 0.942931 0.879703 0.889446 0.878415 0.955571 0.924915 0.893554 0.867109 0.844604 0.820905 0.780397 0.80885 0.83932 0.762963 0.839078 0.80403 0.77034 0.726121 0.612284 1.12818 0.922957 0.536972 0.729046 0.738951 0.750531 0.741379 0.762581 0.766583 0.697014 0.692714 0.62086 0.605567 0.60469 0.587196 0.580413 0.573361 0.652533 0.651612 0.619249 0.560384 0.589746 0.506739 0.369111 0.491399 0.532533 0.460896 0.544462 0.585634 0.563917 0.507736 0.478884 0.477911 0.513182 0.577323 0.455133 0.470552 0.506915 0.539311 0.577531 0.708845 0.696794 0.656752 0.559065 0.614218 0.569378 0.621335 0.630385 0.706193 0.797063 0.810395 0.624193 0.64956 0.709771 0.583662 0.568929 0.675016 0.843896 0.802706 0.782508 0.760223 0.74759 0.723799 0.702978 0.707756 0.6783 0.873908 0.804487 0.83951 0.749793 0.772162 0.814069 0.845877 0.854861 0.875837 0.897024 0.838768 0.94515 0.944832 0.959569 0.878244 0.849356 0.838383 0.863785 0.861403 0.855774 0.807303 0.91195 0.857729 0.988821 0.922552 0.967441 0.921568 0.887833 0.896013 0.893208 0.910587 0.87308 0.957669 0.916599 0.912465 0.900623 0.860931 0.832951 0.800971 0.774904 0.817658 0.816738 0.773734 0.793711 0.794766 0.758811 0.695707 0.955573 0.989331 0.727626 0.680589 0.815716 0.736471 0.74491 0.752329 0.769165 0.738329 0.7188 0.736812 0.668158 0.606071 0.593081 0.583245 0.639375 0.637091 0.623651 0.616235 0.571908 0.513616 0.519214 0.532691 0.464784 0.609284 0.609954 0.546863 0.550162 0.532642 0.510672 0.493223 0.51509 0.527676 0.571691 0.582782 0.469455 0.530224 0.551526 0.546002 0.607764 0.638302 0.663957 0.631129 0.582123 0.586598 0.610852 0.687712 0.767483 0.673919 0.672498 0.670414 0.688434 0.669659 0.899913 0.816835 0.784918 0.767345 0.732977 0.721074 0.710505 0.692957 0.653061 0.870238 0.807138 0.868157 0.848659 0.772014 0.755778 0.752334 0.809413 0.835127 0.856998 0.841608 0.870756 0.830473 0.891999 0.892446 0.830653 0.956296 0.953128 0.960873 0.897412 0.835521 0.838668 0.86701 0.864866 0.8588 0.824205 0.985078 0.956235 0.912853 0.909238 0.913404 0.919225 0.899826 0.931297 0.902525 0.877457 0.873829 0.941908 0.983894 0.993198 0.859817 0.85403 0.827722 0.798778 0.885688 0.793536 0.810432 0.781062 0.782812 0.796729 0.744745 0.925935 0.835841 0.803224 0.745487 0.745373 0.752186 0.7566 0.773107 0.767212 0.731695 0.647304 0.735076 0.639572 0.621754 0.618548 0.601317 0.602803 0.600093 0.633142 0.620592 0.610335 0.623445 0.596452 0.521488 0.480411 0.605262 0.570947 0.662225 0.501527 0.593539 0.612656 0.562685 0.541112 0.555599 0.584166 0.52825 0.541689 0.506851 0.525294 0.582241 0.550636 0.559695 0.604516 0.600899 0.599436 0.618449 0.662306 0.62194 0.614171 0.606617 0.639611 0.728994 0.749183 0.694646 0.66668 0.673921 0.712718 0.720669 0.568806 0.846624 0.807355 0.720562 0.729064 0.716031 0.702698 0.686689 0.658271 0.871936 0.876626 0.767646 0.830002 0.809309 0.787294 0.772832 0.874559 0.822846 0.88272 0.959275 0.864417 0.91298 0.844229 0.892482 0.948921 0.836693 0.842808 0.811519 0.786131 0.801147 0.769164 0.792602 0.784456 0.807204 0.806951 0.725477 0.917083 0.928591 0.70557 0.702213 0.675707 0.743161 0.752233 0.765678 0.779538 0.78559 0.773617 0.728584 0.768623 0.607834 0.640832 0.564812 0.619507 0.5482 0.62058 0.607025 0.717706 0.561682 0.5534 0.551162 0.668903 0.578339 0.555559 0.544447 0.504977 0.523158 0.531272 0.577008 0.606383 0.605806 0.589821 0.666134 0.622059 0.619692 0.630973 0.707101 0.752151 0.69391 0.759839 0.735912 0.703669 0.657283 0.685543 0.599879 0.645362 0.744898 0.750778 0.673918 0.80605 0.706584 0.693222 0.662455 0.802954 0.789599 0.804453 0.83635 0.77962 0.753048 0.92172 0.674515 0.683785 0.741369 0.763206 0.791013 0.780145 0.74678 0.800984 0.613022 0.648794 0.566083 0.54139 0.858673 0.820658 0.843405 0.815623 0.541809 0.563278 0.655567 0.576279 0.492961 0.597726 0.560712 0.545602 0.532137 0.594886 0.568765 0.602873 0.645296 0.80905 0.56857 0.619489 0.556604 0.578637 0.559981 
SCALARS Stress float 1
LOOKUP_TABLE default
-186700000000.0 -132245000000.0 -252273000000.0 -210369000000.0 -124563000000.0 -164064000000.0 -209449000000.0 -57866700000.0 -278745000000.0 -192976000000.0 -289781000000.0 -281858000000.0 -196110000000.0 -132645000000.0 -372395000000.0 -818434000000.0 -579720000000.0 -377422000000.0 -897508000000.0 -296656000000.0 -276009000000.0 -478519000000.0 -917086000000.0 -377264000000.0 -493472000000.0 -219448000000.0 -141478000000.0 -257187000000.0 -414223000000.0 -809570000000.0 -824235000000.0 -655701000000.0 -773121000000.0 -816110000000.0 -440196000000.0 -1.01132e+12 -1.10375e+12 -1.14497e+12 -928964000000.0 -2.14709e+12 -806949000000.0 -389514000000.0 -983033000000.0 -677528000000.0 -1.11565e+12 -300598000000.0 -607553000000.0 -646397000000.0 -625671000000.0 -1.00661e+12 -657209000000.0 -881871000000.0 -835572000000.0 -469485000000.0 -400211000000.0 -969780000000.0 -679018000000.0 -1.66526e+12 -1.6856e+12 -1.2511e+12 -1.87508e+12 -1.50032e+12 -1.91624e+12 -1.59309e+12 -369508000000.0 -657238000000.0 -1.21272e+12 -749468000000.0 -1.68045e+12 -2.27484e+12 -1.24964e+12 -1.01689e+12 -850669000000.0 -1.5087e+12 -1.72922e+12 -1.3084e+12 -1.71896e+12 -1.1939e+12 -1.56725e+12 -1.47993e+12 -1.96201e+12 -1.40161e+12 -1.82014e+12 -1.68945e+12 -2.93054e+12 -2.90133e+12 -2.95356e+12 -1.99456e+12 -2.27643e+12 -1.78304e+12 -717562000000.0 -2.64381e+12 -1.89435e+12 -2.67753e+12 -348184000000.0 -3.10536e+12 -1.63557e+12 -2.24779e+12 -2.24779e+12 -1.26813e+12 -2.34764e+12 -1.05033e+12 -825916000000.0 -855427000000.0 -1.36983e+12 -2.22387e+12 -1.5664e+12 -1.48907e+12 -695974000000.0 -788381000000.0 -1.39198e+12 -1.43768e+12 -1.32322e+12 -1.76136e+12 -2.53329e+12 -1.97981e+12 -2.56143e+12 -2.48627e+12 -1.13328e+12 -4.10825e+12 -1.16465e+12 -2.74422e+12 -1.62392e+12 -2.01521e+12 -1.18108e+12 -2.29148e+12 -4.55921e+12 -1.2504e+12 -3.56424e+12 -859370000000.0 -600447000000.0 -1.7464e+12 -1.84971e+12 -785555000000.0 -1.06486e+12 -2.0242e+12 -3.2921e+12 -4.32083e+12 -2.71474e+12 -5.3831e+12 -3.23836e+12 -1.78442e+12 -3.51308e+12 -1.99034e+12 -2.82485e+12 -3.55417e+12 -1.27471e+12 -2.91376e+12 -2.52127e+12 -1.30883e+12 -3.41688e+12 -3.41003e+12 -2.85967e+12 -1.7557e+12 -2.33111e+12 -2.45449e+12 -2.58848e+12 -1.06597e+12 -808653000000.0 -1.58162e+12 -2.26907e+12 -2.32446e+12 -3.20863e+12 -2.11687e+12 -3.22063e+12 -488284000000.0 -668834000000.0 -1.61872e+12 -1.60938e+12 -3.15179e+12 -1.95101e+12 -4.73941e+12 -3.29443e+12 -4.64589e+12 -3.47111e+12 -2.17929e+12 -2.36238e+12 -3.51035e+12 -3.98247e+12 -2.5507e+12 -3.17967e+12 -3.82772e+12 -3.59314e+12 -3.1178e+12 -3.47839e+12 -4.61179e+12 -2.84495e+12 -2.64627e+12 -2.19307e+12 -4.05251e+12 -1.68478e+12 -1.91585e+12 -1.27074e+12 -2.81552e+12 -1.81687e+12 -2.69327e+12 -5.56908e+12 -1.38441e+12 -3.59716e+12 -4.36745e+12 -5.62977e+12 -3.52055e+12 -4.46218e+12 -715513000000.0 -5.03481e+12 -3.46485e+12 -1.79452e+12 -4.55527e+12 -3.77232e+12 -3.91335e+12 -2.28919e+12 -3.36632e+12 -3.27989e+12 -2.56875e+12 -4.76936e+12 -3.93767e+12 -1.60803e+12 -2.82856e+12 -1.83181e+12 -2.51519e+12 -2.12895e+12 -4.2635e+12 -3.82957e+12 -1.76777e+12 -5.81627e+12 -4.83168e+12 -4.49073e+12 -2.53549e+12 -5.21069e+12 -3.72533e+12 -3.14605e+12 -3.9933e+12 -5.07315e+12 -6.57524e+12 -5.433e+12 -6.08933e+12 -3.71577e+12 -4.10737e+12 -4.85526e+12 -5.37752e+12 -3.14756e+12 -5.27474e+12 -1.38623e+12 -7.24592e+12 -3.29035e+12 -3.26706e+12 -1.77786e+12 -2.25616e+12 -2.73714e+12 -3.5781e+12 -5.43603e+12 -3.63498e+12 -7.37335e+12 -4.02995e+12 -4.72093e+12 -4.03342e+12 -3.60638e+12 -6.2799e+12 -4.55629e+12 -3.37315e+12 -3.64974e+12 -6.34426e+12 -3.7662e+12 -3.76211e+12 -4.582e+12 -4.89421e+12 -3.097e+12 -5.09742e+12 -2.72947e+12 -6.22223e+12 -4.0371e+12 -3.57551e+12 -5.67357e+12 -4.5203e+12 -5.29502e+12 -4.37457e+12 -4.59856e+12 -2.47675e+12 -5.56977e+12 -3.46012e+12 -3.30014e+12 -5.93344e+12 -5.38107e+12 -5.89457e+12 -5.81595e+12 -3.34142e+12 -2.17698e+12 -3.77678e+12 -3.44915e+12 -3.09145e+12 -5.79105e+12 -4.50026e+12 -5.44869e+12 -4.24459e+12 -5.43013e+12 -4.96657e+12 -3.1456e+12 -6.7541e+12 -7.77704e+12 -5.99941e+12 -3.50376e+12 -4.18158e+12 -4.27504e+12 -5.85782e+12 -6.79737e+12 -7.85743e+12 -4.95797e+12 -4.91817e+12 -4.86381e+12 -4.02466e+12 -6.88394e+12 -6.50608e+12 -4.46517e+12 -2.68361e+12 -6.64254e+12 -3.77883e+12 -7.37919e+12 -4.19066e+12 -3.54807e+12 -2.55243e+12 -4.17845e+12 -5.05382e+12 -3.05319e+12 -2.3486e+12 -5.25107e+12 -5.35557e+12 -7.19866e+12 -7.21575e+12 -4.18909e+12 -6.91678e+12 -3.91314e+12 -1.4598e+12 -5.57632e+12 -6.01039e+12 -4.57598e+12 -2.4976e+12 -4.27283e+12 -5.20366e+12 -6.25642e+12 -6.54605e+12 -6.28573e+12 -4.45122e+12 -3.738e+12 -4.142e+12 -4.6266e+12 -4.22804e+12 -4.97163e+12 -4.66497e+12 -7.38484e+12 -4.12327e+12 -6.24178e+12 -4.9068e+12 -5.40143e+12 -2.37156e+12 -4.43867e+12 -2.79695e+12 -4.03181e+12 -4.29459e+12 -1.98781e+12 -4.94482e+12 -5.21819e+12 -6.34152e+12 -4.88177e+12 -2.31989e+12 -3.45303e+12 -2.80743e+12 -5.05816e+12 -4.7912e+12 -5.1414e+12 -5.54918e+12 -5.67974e+12 -4.79942e+12 -5.69034e+12 -5.05695e+12 -6.54463e+12 -4.3287e+12 -5.01922e+12 -2.66692e+12 -3.91053e+12 -4.51067e+12 -5.32722e+12 -6.06124e+12 -2.54817e+12 -3.62386e+12 -3.57754e+12 -4.31952e+12 -5.34204e+12 -6.01328e+12 -5.20743e+12 -5.52188e+12 -4.36797e+12 -3.15214e+12 -5.82103e+12 -5.81075e+12 -5.52095e+12 -6.77839e+12 -12549700000.0 -4.38229e+12 -2.95802e+12 -5.17635e+12 -4.85348e+12 -5.07896e+12 -6.89116e+12 -3.6762e+12 -5.18507e+12 -4.86351e+12 -4.67867e+12 -7.05045e+12 -5.94347e+12 -4.12146e+12 -4.94082e+12 -5.07238e+12 -4.51124e+12 -5.45151e+12 -5.85004e+12 -3.55283e+12 -4.44569e+12 -3.1093e+12 -3.84778e+12 -3.44801e+12 -5.03349e+12 -7.53514e+12 -5.61822e+12 -5.75417e+12 -4.59442e+12 -5.24687e+12 -6.64424e+12 -5.76693e+12 -5.31751e+12 -6.74675e+12 -3.83053e+12 -6.5428e+12 -1.9392e+12 -6.03638e+12 -5.8557e+12 -3.60471e+12 -3.32409e+12 -4.38528e+12 -4.61283e+12 -4.5313e+12 -4.21805e+12 -5.90305e+12 -7.62946e+12 -5.30174e+12 -3.14145e+12 -4.00337e+12 -6.42555e+12 -3.89586e+12 -4.90789e+12 -2.93966e+12 -3.97604e+12 -6.16145e+12 -5.26178e+12 -2.91017e+12 -4.04038e+12 -5.51511e+12 -4.80443e+12 -3.65899e+12 -7.5979e+12 -7.17404e+12 -4.30323e+12 -3.81769e+12 -6.43388e+12 -6.90033e+12 -7.5809e+12 -4.65333e+12 -3.55824e+12 -4.89006e+12 -3.73474e+12 -4.77852e+12 -5.37566e+12 -4.78138e+12 -6.90049e+12 -3.55542e+12 -6.36626e+12 -7.28915e+12 -3.5539e+12 -4.21378e+12 -6.75546e+12 -8.06166e+12 -5.49873e+12 -7.30763e+12 -4.99676e+12 -7.09224e+12 -7.68175e+12 -5.64045e+12 -4.99412e+12 -5.25297e+12 -3.65491e+12 -5.96386e+12 -2.86415e+12 -5.16392e+12 -9.09371e+12 -8.0229e+12 -6.08196e+12 -6.18417e+12 -6.77119e+12 -4.91844e+12 -3.51007e+12 -5.46239e+12 -5.29405e+12 -6.16834e+12 -3.8921e+12 -2.80932e+12 -6.90138e+12 -5.68896e+12 -5.65229e+12 -6.73566e+12 -3.96421e+12 -2.11531e+12 -3.24964e+12 -12549700000.0 -3.32848e+12 -5.8421e+12 -6.84845e+12 -7.79817e+12 -6.51568e+12 -8.35761e+12 -4.27626e+12 -5.74183e+12 -6.21297e+12 -6.42048e+12 -3.36647e+12 -6.6442e+12 -5.12179e+12 -5.79657e+12 -5.0158e+12 -8.23862e+12 -6.26877e+12 -6.30772e+12 -5.88093e+12 -3.99043e+12 -4.29251e+12 -3.38981e+12 -4.97548e+12 -5.03946e+12 -6.16591e+12 -5.94871e+12 -5.21577e+12 -4.56048e+12 -6.24473e+12 -5.34481e+12 -6.22162e+12 -2.23779e+12 -4.3094e+12 -7.20694e+12 -8.56641e+12 -8.18894e+12 -9.40558e+12 -4.93543e+12 -2.95487e+12 -3.42177e+12 -12549700000.0 -3.99986e+12 -7.29862e+12 -4.93214e+12 -9.97648e+12 -6.85647e+12 -4.66991e+12 -5.54255e+12 -3.63088e+12 -6.16639e+12 -1.18242e+13 -5.37641e+12 -5.37814e+12 -4.32376e+12 -4.53674e+12 -1.2003e+13 -5.62419e+12 -8.1506e+12 -8.77821e+12 -3.51672e+12 -9.61478e+12 -5.76839e+12 -3.95425e+12 -7.5682e+12 -7.43825e+12 -1.12193e+13 -4.39297e+12 -5.63201e+12 -6.01198e+12 -7.76389e+12 -5.32043e+12 -7.30441e+12 -6.81134e+12 -6.74586e+12 -7.48932e+12 -9.73766e+12 -3.63289e+12 -3.4122e+12 -3.60938e+12 -6.67932e+12 -8.42034e+12 -5.46979e+12 -5.87023e+12 -8.57092e+12 -7.31096e+12 -5.6987e+12 -7.79622e+12 -6.40688e+12 -5.35941e+12 -4.709e+12 -7.89924e+12 -5.18368e+12 -5.41131e+12 -5.97473e+12 -4.1866e+12 -5.07169e+12 -7.11289e+12 -1.15911e+13 -7.53868e+12 -8.21095e+12 -7.85079e+12 -9.73767e+12 -3.04653e+12 -9.40736e+12 -1.21994e+13 -1.00954e+13 -4.83026e+12 -7.73369e+12 -5.47397e+12 -7.87477e+12 -3.19385e+12 -12548900000.0 -5.5464e+12 -4.4179e+12 -5.64073e+12 -2.50599e+12 -5.67611e+12 -5.20261e+12 -7.94358e+12 -7.16008e+12 -6.20508e+12 -6.3226e+12 -7.2211e+12 -1.13813e+13 -8.68395e+12 -6.66348e+12 -2.70101e+12 -6.91576e+12 -5.51819e+12 -6.5724e+12 -7.02348e+12 -6.8246e+12 -8.27826e+12 -6.51555e+12 -4.42922e+12 -6.90145e+12 -6.09444e+12 -6.8723e+12 -8.3549e+12 -4.94986e+12 -5.18146e+12 -5.73257e+12 -1.0353e+13 -6.86713e+12 -7.56432e+12 -8.98561e+12 -5.7038e+12 -6.19605e+12 -1.16764e+13 -1.16962e+13 -8.39191e+12 -1.65586e+13 -8.10799e+12 -1.31697e+13 -4.89748e+12 -4.69378e+12 -4.05234e+12 -4.69879e+12 -5.5892e+12 -6.6786e+12 -7.86879e+12 -8.70701e+12 -3.97267e+12 -6.60697e+12 -3.39771e+12 -4.08578e+12 -9.00525e+12 -4.25574e+12 -6.19483e+12 -5.27769e+12 -7.09243e+12 -8.06485e+12 -5.36976e+12 -6.9213e+12 -4.29806e+12 -4.59748e+12 -8.61157e+12 -8.44031e+12 -6.79141e+12 -5.38419e+12 -5.35039e+12 -4.54372e+12 -2.88373e+12 -6.68651e+12 -5.06002e+12 -6.19559e+12 -2.56543e+12 -8.53973e+12 -7.26362e+12 -7.00467e+12 -7.09761e+12 -7.62595e+12 -7.1197e+12 -8.21845e+12 -8.98161e+12 -2.29937e+12 -4.03586e+12 -4.7541e+12 -4.09993e+12 -5.58054e+12 -6.10728e+12 -2.45188e+12 -7.78378e+12 -5.57396e+12 -7.2939e+12 -9.17302e+12 -5.64776e+12 -1.0416e+13 -4.03246e+12 -1.11394e+13 -8.55772e+12 -7.5759e+12 -9.78369e+12 -6.24134e+12 -7.77481e+12 -5.53341e+12 -6.54126e+12 -5.68611e+12 -4.45449e+12 -7.17556e+12 -7.43156e+12 -6.26842e+12 -5.29985e+12 -7.02003e+12 -6.53955e+12 -7.97868e+12 -6.8214e+12 -6.66681e+12 -5.21104e+12 -8.76452e+12 -6.05993e+12 -1.0589e+13 -4.5855e+12 -7.29786e+12 -5.84139e+12 -3.94457e+12 -4.10321e+12 -4.01125e+12 -6.66849e+12 -7.48231e+12 -6.90409e+12 -4.97798e+12 -7.41646e+12 -6.50351e+12 -6.11195e+12 -3.96221e+12 -6.69949e+12 -6.02691e+12 -3.96444e+12 -5.80209e+12 -8.84901e+12 -4.36534e+12 -5.26784e+12 -1.03525e+13 -5.13686e+12 -4.09442e+12 -5.58566e+12 -8.95223e+12 -3.09754e+12 -2.4361e+12 -5.70271e+12 -4.29177e+12 -5.15275e+12 -7.61464e+12 -3.84992e+12 -4.31684e+12 -4.45161e+12 -6.31185e+12 -3.86465e+12 -6.50965e+12 -7.38042e+12 -1.01021e+13 -1.10164e+13 -5.75668e+12 -7.76042e+12 -9.58097e+12 -6.44672e+12 -6.29685e+12 -1.01407e+13 -1.00643e+13 -7.92477e+12 -5.18855e+12 -6.6193e+12 -8.6651e+12 -6.26097e+12 -5.39428e+12 -4.76167e+12 -8.22472e+12 -6.00092e+12 -4.99218e+12 -3.99965e+12 -4.54952e+12 -7.30193e+12 -4.0731e+12 -3.7235e+12 -7.5239e+12 -7.93521e+12 -6.1938e+12 -1.08507e+13 -7.638e+12 -3.81269e+12 -4.99319e+12 -6.81341e+12 -9.94879e+12 -5.82004e+12 -9.40286e+12 -1.12596e+13 -1.09972e+13 -1.35626e+13 -9.51645e+12 -1.08655e+13 -5.60435e+12 -6.27467e+12 -9.57682e+12 -4.95756e+12 -1.01475e+13 -6.47372e+12 -9.20217e+12 -7.06305e+12 -6.33815e+12 -3.52026e+12 -8.4186e+12 -4.71975e+12 -1.22015e+13 -4.66222e+12 -6.32881e+12 -8.08834e+12 -6.3808e+12 -8.04926e+12 -7.7974e+12 -9.72303e+12 -1.0083e+13 -9.09752e+12 -5.10188e+12 -8.71548e+12 -4.55102e+12 -9.98505e+12 -7.11159e+12 -7.60603e+12 -5.07759e+12 -7.22144e+12 -7.76365e+12 -7.05823e+12 -7.60514e+12 -4.663e+12 -7.30278e+12 -7.96586e+12 -8.09925e+12 -5.52116e+12 -6.07993e+12 -7.73221e+12 -1.22497e+13 -3.21946e+12 -9.44325e+12 -1.30867e+13 -8.95568e+12 -4.93247e+12 -5.75652e+12 -6.48988e+12 -5.16391e+12 -6.58116e+12 -4.08911e+12 -4.93428e+12 -8.24881e+12 -4.70381e+12 -3.96159e+12 -3.66813e+12 -6.1809e+12 -4.05619e+12 -8.05423e+12 -9.94101e+12 -8.6841e+12 -9.65649e+12 -1.11047e+13 -7.58817e+12 -9.27094e+12 -8.29395e+12 -5.20198e+12 -4.92695e+12 -4.92038e+12 -5.32316e+12 -8.97758e+12 -1.21016e+13 -9.20621e+12 -7.85649e+12 -5.05422e+12 -5.9909e+12 -1.0467e+13 -6.75491e+12 -8.93531e+12 -7.46299e+12 -8.73327e+12 -7.79778e+12 -5.98764e+12 -5.376e+12 -5.29515e+12 -3.0242e+12 -9.8032e+12 -5.77284e+12 -7.28561e+12 -7.77505e+12 -5.73192e+12 -9.5693e+12 -6.64225e+12 -5.01402e+12 -1.00805e+13 -6.08901e+12 -5.38496e+12 -7.46937e+12 -6.65213e+12 -4.76691e+12 -1.06071e+13 -7.2774e+12 -5.47204e+12 -1.18447e+13 -7.53836e+12 -5.13071e+12 -1.16309e+13 -4.91993e+12 -5.65639e+12 -5.01415e+12 -4.84195e+12 -8.92215e+12 -6.95119e+12 -1.13898e+13 -5.74167e+12 -9.51353e+12 -6.26498e+12 -5.38111e+12 -6.60821e+12 -1.03978e+13 -4.29866e+12 -6.60216e+12 -1.01614e+13 -1.00087e+13 -8.27511e+12 -7.98037e+12 -1.03185e+13 -9.67136e+12 -1.26014e+13 -1.11237e+13 -7.24664e+12 -4.92117e+12 -5.55728e+12 -1.19711e+13 -7.9565e+12 -7.24445e+12 -8.18533e+12 -4.93821e+12 -3.68295e+12 -5.31611e+12 -3.28184e+12 -7.49168e+12 -5.77964e+12 -5.91752e+12 -1.08058e+13 -8.52153e+12 -9.09953e+12 -8.65532e+12 -7.67625e+12 -1.04381e+13 -6.23897e+12 -8.62405e+12 -7.89106e+12 -8.45737e+12 -8.58656e+12 -9.21905e+12 -8.07395e+12 -7.4252e+12 -7.54037e+12 -6.72301e+12 -8.37021e+12 -5.68705e+12 -5.54756e+12 -6.28033e+12 -8.14072e+12 -1.32878e+13 -9.96399e+12 -4.73571e+12 -9.55984e+12 -8.09432e+12 -6.85312e+12 -3.64331e+12 -3.36555e+12 -7.53333e+12 -8.61933e+12 -5.57659e+12 -5.80984e+12 -1.97963e+12 -5.82215e+12 -7.09986e+12 -1.0446e+13 -7.40413e+12 -9.05851e+12 -8.1583e+12 -6.26443e+12 -7.17675e+12 -9.27106e+12 -5.61305e+12 -7.60626e+12 -7.13975e+12 -7.47791e+12 -6.2447e+12 -7.86463e+12 -4.6974e+12 -1.3414e+13 -7.70805e+12 -8.9633e+12 -7.10233e+12 -8.55893e+12 -6.56969e+12 -9.36362e+12 -5.28867e+12 -7.88426e+12 -5.91323e+12 -7.08066e+12 -8.33138e+12 -6.62036e+12 -3.78741e+12 -2.77946e+12 -6.40265e+12 -6.17032e+12 -6.63401e+12 -7.70711e+12 -1.14366e+13 -1.19587e+13 -1.12957e+13 -6.15031e+12 -7.51145e+12 -1.00592e+13 -3.94754e+12 -5.62827e+12 -6.8445e+12 -5.93101e+12 -7.66244e+12 -7.20426e+12 -1.05855e+13 -6.93788e+12 -1.3248e+13 -1.43992e+13 -1.38791e+13 -9.6264e+12 -1.26633e+13 -5.69457e+12 -4.73386e+12 -6.38984e+12 -7.84702e+12 -7.10338e+12 -1.0467e+13 -8.89538e+12 -8.20935e+12 -1.04285e+13 -9.18072e+12 -7.19732e+12 -7.30263e+12 -5.39729e+12 -6.23815e+12 -1.08801e+13 -1.11222e+13 -6.32903e+12 -7.94443e+12 -1.39547e+13 -9.3654e+12 -5.71184e+12 -1.07765e+13 -5.43434e+12 -7.90047e+12 -7.06529e+12 -6.56854e+12 -3.92888e+12 -6.3771e+12 -8.06236e+12 -7.40165e+12 -4.18664e+12 -4.18364e+12 -2.52925e+12 -6.74067e+12 -9.1688e+12 -5.37757e+12 -7.82276e+12 -9.98211e+12 -6.81159e+12 -9.27643e+12 -8.03725e+12 -9.1604e+12 -5.85193e+12 -4.82303e+12 -5.89909e+12 -4.85693e+12 -7.8852e+12 -1.03313e+13 -7.27207e+12 -3.4396e+12 -7.65491e+12 -5.8121e+12 -9.07853e+12 -5.25937e+12 -5.71991e+12 -6.38939e+12 -1.0876e+13 -6.79147e+12 -4.27551e+12 -7.68956e+12 -1.05209e+13 -6.69072e+12 -6.13184e+12 -8.86642e+12 -7.66955e+12 -1.06648e+13 -5.633e+12 -6.479e+12 -1.03866e+13 -8.59214e+12 -8.71385e+12 -7.82625e+12 -8.86989e+12 -1.02272e+13 -8.05526e+12 -8.62207e+12 -1.44543e+13 -7.01176e+12 -9.07412e+12 -3.62769e+12 -1.01434e+13 -4.62153e+12 -7.59253e+12 -6.59516e+12 -1.19462e+13 -8.36472e+12 -4.37375e+12 -1.20602e+13 -1.11448e+13 -1.05018e+13 -8.6073e+12 -3.72031e+12 -1.07333e+13 -6.2992e+12 -9.68374e+12 -7.02466e+12 -9.78529e+12 -1.01487e+13 -6.83701e+12 -1.22544e+13 -7.65353e+12 -8.24388e+12 -9.91966e+12 -7.26047e+12 -9.12226e+12 -6.94335e+12 -5.50209e+12 -8.8601e+12 -7.12432e+12 -7.996e+12 -4.25053e+12 -3.68149e+12 -7.18105e+12 -3.11648e+12 -3.53903e+12 -5.61442e+12 -6.76835e+12 -9.74813e+12 -7.24128e+12 -7.43074e+12 -7.37729e+12 -5.54606e+12 -5.38573e+12 -4.85983e+12 -6.85775e+12 -3.53718e+12 -1.17983e+13 -5.76665e+12 -6.77307e+12 -4.79118e+12 -7.12917e+12 -5.51375e+12 -8.09938e+12 -8.49936e+12 -7.08827e+12 -6.67719e+12 -4.87727e+12 -2.89174e+12 -5.57941e+12 -6.65274e+12 -1.07598e+13 -7.75863e+12 -5.91866e+12 -3.13715e+12 -7.65146e+12 -6.06566e+12 -7.32123e+12 -5.2591e+12 -6.21216e+12 -5.68927e+12 -9.10741e+12 -6.49016e+12 -7.38744e+12 -6.47127e+12 -5.95615e+12 -6.2641e+12 -9.49117e+12 -5.22512e+12 -8.82151e+12 -1.05591e+13 -6.74006e+12 -9.29545e+12 -7.55882e+12 -6.45039e+12 -8.32787e+12 -1.5344e+13 -1.21676e+13 -9.42469e+12 -9.79598e+12 -9.39498e+12 -1.17715e+13 -9.4171e+12 -1.39404e+13 -8.60795e+12 -3.82545e+12 -8.29753e+12 -5.7496e+12 -4.12581e+12 -3.05973e+12 -3.69521e+12 -6.37752e+12 -1.02578e+13 -9.34323e+12 -1.18608e+13 -6.54169e+12 -8.77449e+12 -1.40996e+13 -9.62697e+12 -7.2859e+12 -7.20624e+12 -1.09002e+13 -9.61365e+12 -6.93251e+12 -5.99996e+12 -1.25836e+13 -6.34499e+12 -5.64237e+12 -1.35798e+13 -9.63578e+12 -8.93507e+12 -8.12104e+12 -5.4945e+12 -6.78824e+12 -6.35753e+12 -7.86786e+12 -7.50537e+12 -5.84553e+12 -5.09798e+12 -5.11657e+12 -5.45749e+12 -5.33794e+12 -9.98927e+12 -4.83722e+12 -7.14108e+12 -6.25517e+12 -7.30173e+12 -6.3998e+12 -8.25375e+12 -5.25336e+12 -6.69643e+12 -9.90549e+12 -7.02898e+12 -5.9342e+12 -7.19559e+12 -6.19092e+12 -6.98033e+12 -1.14013e+13 -4.35399e+12 -6.18708e+12 -7.16868e+12 -6.23092e+12 -8.3394e+12 -7.77549e+12 -7.56737e+12 -5.2365e+12 -5.02328e+12 -6.75731e+12 -9.46175e+12 -4.61863e+12 -5.43951e+12 -4.66534e+12 -9.96945e+12 -8.48905e+12 -8.60044e+12 -8.35925e+12 -8.43394e+12 -8.19076e+12 -7.9764e+12 -3.33131e+12 -6.25094e+12 -7.32961e+12 -7.52499e+12 -5.1232e+12 -7.30824e+12 -6.57849e+12 -9.34628e+12 -1.08498e+13 -6.59911e+12 -1.26306e+13 -5.4117e+12 -4.96699e+12 -1.00008e+13 -9.3081e+12 -8.40498e+12 -5.10152e+12 -1.34419e+13 -9.88275e+12 -5.7672e+12 -9.7484e+12 -8.05342e+12 -7.58911e+12 -7.24679e+12 -1.10474e+13 -8.19705e+12 -7.48756e+12 -1.22454e+13 -1.07426e+13 -1.03955e+13 -9.8062e+12 -6.9443e+12 -6.68579e+12 -2.59102e+12 -4.4544e+12 -7.79158e+12 -4.20498e+12 -8.27024e+12 -1.00995e+13 -6.30086e+12 -7.33698e+12 -6.34722e+12 -5.70868e+12 -6.52275e+12 -9.69411e+12 -1.33598e+13 -1.0848e+13 -1.17899e+13 -6.74337e+12 -8.19967e+12 -9.51288e+12 -1.14946e+13 -8.77999e+12 -9.34428e+12 -6.23455e+12 -6.52751e+12 -8.48494e+12 -7.95339e+12 -7.34472e+12 -9.95712e+12 -3.53985e+12 -8.61248e+12 -7.64095e+12 -7.95309e+12 -1.0484e+13 -7.38485e+12 -7.37459e+12 -5.65179e+12 -3.94692e+12 -9.73666e+12 -7.9727e+12 -2.71055e+12 -4.17879e+12 -9.74431e+12 -7.40884e+12 -5.06245e+12 -7.00372e+12 -7.70607e+12 -5.0233e+12 -6.49406e+12 -4.80089e+12 -3.99578e+12 -7.30568e+12 -5.43154e+12 -6.36753e+12 -3.61351e+12 -4.08918e+12 -1.44879e+13 -7.67832e+12 -5.59214e+12 -5.17141e+12 -8.28039e+12 -7.53313e+12 -8.43832e+12 -5.49687e+12 -7.16305e+12 -7.88578e+12 -7.11567e+12 -4.17875e+12 -9.46121e+12 -7.37366e+12 -5.21689e+12 -1.03635e+13 -5.38884e+12 -3.98852e+12 -9.85701e+12 -5.47947e+12 -6.09708e+12 -5.69258e+12 -8.23122e+12 -8.73758e+12 -8.03036e+12 -5.59806e+12 -5.63117e+12 -6.51469e+12 -9.27628e+12 -6.35338e+12 -1.00399e+13 -7.64172e+12 -8.97842e+12 -7.7474e+12 -7.26865e+12 -1.04746e+13 -1.07064e+13 -9.87972e+12 -9.00708e+12 -8.30271e+12 -1.25469e+13 -1.14304e+13 -6.96845e+12 -6.32078e+12 -8.13432e+12 -1.18064e+13 -8.23418e+12 -5.51868e+12 -4.9785e+12 -5.0591e+12 -9.92649e+12 -5.91143e+12 -4.47769e+12 -5.94551e+12 -3.976e+12 -7.10264e+12 -7.5791e+12 -8.53948e+12 -9.85044e+12 -8.66645e+12 -6.96445e+12 -1.04409e+13 -7.26196e+12 -7.8914e+12 -8.95997e+12 -5.77764e+12 -8.52516e+12 -7.83764e+12 -6.20973e+12 -5.56145e+12 -7.05756e+12 -9.15458e+12 -9.02849e+12 -6.23391e+12 -8.02046e+12 -9.81004e+12 -8.43646e+12 -8.21045e+12 -1.11555e+13 -1.08153e+13 -9.06633e+12 -8.24701e+12 -8.57739e+12 -5.66745e+12 -4.96367e+12 -1.00958e+13 -9.03634e+12 -5.92555e+12 -7.14815e+12 -6.13524e+12 -1.0646e+13 -6.53296e+12 -6.97096e+12 -7.98948e+12 -5.17578e+12 -4.90187e+12 -6.70803e+12 -8.25303e+12 -6.5951e+12 -7.9009e+12 -5.11576e+12 -4.29272e+12 -3.7992e+12 -6.17056e+12 -4.31741e+12 -9.4118e+12 -6.27664e+12 -3.64499e+12 -6.80519e+12 -8.32618e+12 -6.61863e+12 -4.34022e+12 -8.84383e+12 -3.25999e+12 -5.69026e+12 -6.64637e+12 -6.96657e+12 -1.08909e+13 -6.06859e+12 -7.38924e+12 -5.15528e+12 -8.46757e+12 -7.16288e+12 -5.24001e+12 -5.76962e+12 -7.03275e+12 -3.47627e+12 -4.46166e+12 -9.7372e+12 -5.93021e+12 -9.85855e+12 -6.51513e+12 -3.80489e+12 -6.8365e+12 -8.15293e+12 -8.60855e+12 -4.45328e+12 -8.82748e+12 -9.18445e+12 -2.59851e+12 -4.67019e+12 -5.79369e+12 -6.82442e+12 -6.81751e+12 -6.82306e+12 -8.55545e+12 -9.78745e+12 -9.39671e+12 -4.70554e+12 -7.54535e+12 -1.52209e+13 -8.48542e+12 -8.56345e+12 -9.21251e+12 -5.60232e+12 -1.21995e+13 -1.00933e+13 -6.00537e+12 -1.18687e+13 -8.94835e+12 -7.44607e+12 -6.61707e+12 -6.29343e+12 -1.20762e+13 -8.04006e+12 -5.69776e+12 -5.47577e+12 -3.62268e+12 -5.05462e+12 -6.8152e+12 -8.27767e+12 -1.04545e+13 -1.13596e+13 -5.11514e+12 -1.09335e+13 -7.84856e+12 -4.38322e+12 -8.34079e+12 -8.67766e+12 -1.29335e+13 -9.29603e+12 -6.75723e+12 -6.93781e+12 -1.26062e+13 -1.10323e+13 -4.47757e+12 -5.03802e+12 -2.64774e+12 -4.58024e+12 -5.81058e+12 -4.02497e+12 -9.36689e+12 -5.61364e+12 -3.10526e+12 -9.77294e+12 -4.92148e+12 -5.33882e+12 -4.76292e+12 -6.2914e+12 -5.99381e+12 -5.03687e+12 -8.67699e+12 -6.58876e+12 -7.38121e+12 -3.4741e+12 -8.39264e+12 -2.54194e+12 -6.04536e+12 -1.28749e+13 -5.77738e+12 -5.64511e+12 -7.01669e+12 -5.40314e+12 -8.54372e+12 -5.39177e+12 -4.87898e+12 -1.08547e+13 -5.05876e+12 -4.19038e+12 -8.2201e+12 -4.44711e+12 -3.42278e+12 -9.21687e+12 -6.41494e+12 -5.17085e+12 -6.49685e+12 -7.58524e+12 -8.26793e+12 -4.44187e+12 -6.14881e+12 -4.76269e+12 -9.47379e+12 -7.26103e+12 -4.37669e+12 -5.60741e+12 -3.75752e+12 -6.31083e+12 -8.48678e+12 -7.13619e+12 -1.07602e+13 -6.41815e+12 -4.62718e+12 -8.01313e+12 -4.34205e+12 -6.17999e+12 -3.34193e+12 -4.89983e+12 -2.58829e+12 -6.41907e+12 -5.76688e+12 -9.36082e+12 -5.72183e+12 -6.61403e+12 -9.92352e+12 -6.19428e+12 -5.34112e+12 -8.83789e+12 -6.93079e+12 -8.05051e+12 -5.35447e+12 -5.36667e+12 -4.45062e+12 -9.10248e+12 -7.0058e+12 -7.04865e+12 -7.59824e+12 -5.40401e+12 -5.63251e+12 -7.40771e+12 -4.62739e+12 -7.53298e+12 -4.57459e+12 -6.50677e+12 -8.14244e+12 -1.7253e+12 -4.62229e+12 -3.74333e+12 -5.12689e+12 -6.16064e+12 -8.26261e+12 -4.29585e+12 -9.9907e+12 -4.23981e+12 -8.90172e+12 -7.48875e+12 -8.08157e+12 -7.50993e+12 -4.60182e+12 -7.884e+12 -9.78969e+12 -7.79835e+12 -3.79117e+12 -1.07896e+13 -6.63457e+12 -9.21932e+12 -7.8155e+12 -8.27112e+12 -9.33797e+12 -1.05833e+13 -5.48921e+12 -6.66651e+12 -8.52022e+12 -1.20386e+13 -9.76682e+12 -1.19749e+13 -9.22236e+12 -1.23698e+13 -8.96417e+12 -6.44495e+12 -6.53209e+12 -5.61293e+12 -7.99685e+12 -4.35836e+12 -8.20836e+12 -5.66687e+12 -6.19837e+12 -5.64708e+12 -6.62918e+12 -1.12188e+13 -5.6745e+12 -4.26529e+12 -5.85926e+12 -9.12728e+12 -6.43528e+12 -7.99243e+12 -4.90659e+12 -7.11124e+12 -7.54013e+12 -1.0656e+13 -1.21123e+13 -1.13173e+13 -4.77123e+12 -4.02534e+12 -6.48561e+12 -8.75318e+12 -6.5602e+12 -5.89556e+12 -5.67839e+12 -5.37807e+12 -6.38125e+12 -7.80938e+12 -3.83297e+12 -5.27152e+12 -8.62199e+12 -7.99937e+12 -5.79959e+12 -7.93372e+12 -7.63124e+12 -4.95487e+12 -1.04697e+13 -8.94638e+12 -9.79469e+12 -9.03428e+12 -6.86263e+12 -6.62744e+12 -6.58436e+12 -3.00613e+12 -7.32401e+12 -7.80275e+12 -6.54915e+12 -5.97657e+12 -6.06896e+12 -9.98931e+12 -4.98302e+12 -1.03388e+13 -4.7241e+12 -4.67332e+12 -8.68443e+12 -8.63187e+12 -8.31791e+12 -4.44367e+12 -7.70698e+12 -6.54339e+12 -5.90943e+12 -4.09425e+12 -2.86757e+12 -5.15152e+12 -1.22497e+13 -5.26638e+12 -5.14185e+12 -4.17289e+12 -3.61282e+12 -7.40434e+12 -9.90906e+12 -7.37738e+12 -7.192e+12 -4.94415e+12 -3.66127e+12 -7.83203e+12 -8.08848e+12 -6.73207e+12 -2.75576e+12 -1.0424e+13 -3.17397e+12 -7.02219e+12 -1.10067e+13 -8.70568e+12 -1.02257e+13 -8.62399e+12 -6.83057e+12 -5.02534e+12 -7.51249e+12 -7.38785e+12 -1.35209e+13 -5.59922e+12 -2.62683e+12 -1.25077e+13 -3.73384e+12 -1.0064e+13 -6.28343e+12 -6.18174e+12 -4.51153e+12 -6.61254e+12 -1.00634e+13 -7.25344e+12 -6.69771e+12 -9.22988e+12 -7.58364e+12 -7.72401e+12 -9.07254e+12 -8.82323e+12 -6.92699e+12 -4.89584e+12 -9.65958e+12 -8.17706e+12 -5.53078e+12 -4.77981e+12 -9.03957e+12 -7.5446e+12 -8.30607e+12 -6.82365e+12 -9.99545e+12 -9.98058e+12 -1.06401e+13 -6.11157e+12 -7.47076e+12 -9.73517e+12 -8.42781e+12 -5.46497e+12 -7.25479e+12 -7.95745e+12 -7.85742e+12 -7.96177e+12 -9.06549e+12 -7.19687e+12 -6.60847e+12 -7.86766e+12 -7.5368e+12 -7.25643e+12 -6.85319e+12 -9.33556e+12 -6.36983e+12 -6.03009e+12 -9.29146e+12 -7.19407e+12 -5.14111e+12 -3.96165e+12 -6.37685e+12 -4.34891e+12 -5.7755e+12 -5.84103e+12 -7.14411e+12 -6.56988e+12 -5.2824e+12 -1.17643e+13 -5.27444e+12 -7.465e+12 -1.05954e+13 -6.19675e+12 -9.25912e+12 -6.23553e+12 -6.4208e+12 -9.27182e+12 -6.66458e+12 -7.09126e+12 -6.31114e+12 -8.20358e+12 -4.39749e+12 -7.28601e+12 -6.24045e+12 -8.65941e+12 -7.70769e+12 -5.55145e+12 -4.88033e+12 -7.26395e+12 -4.64518e+12 -2.56876e+12 -4.8728e+12 -5.26019e+12 -6.4066e+12 -2.61289e+12 -7.04834e+12 -5.01086e+12 -5.45193e+12 -9.46221e+12 -7.57569e+12 -6.58958e+12 -3.73023e+12 -7.09919e+12 -9.95661e+12 -5.18504e+12 -3.87241e+12 -3.18957e+12 -5.14635e+12 -2.95274e+12 -6.33999e+12 -3.94086e+12 -6.79403e+12 -5.25007e+12 -6.56813e+12 -5.03879e+12 -8.61463e+12 -5.11852e+12 -5.6195e+12 -7.61644e+12 -8.69404e+12 -5.79833e+12 -6.70868e+12 -2.55592e+12 -1.01897e+13 -7.93659e+12 -1.11437e+13 -6.82747e+12 -8.14845e+12 -5.96897e+12 -9.65868e+12 -1.11373e+13 -4.7097e+12 -9.11508e+12 -8.35293e+12 -8.13538e+12 -9.07591e+12 -5.49328e+12 -1.1242e+13 -1.0972e+13 -8.09856e+12 -9.13765e+12 -6.88968e+12 -8.37881e+12 -5.93093e+12 -7.56214e+12 -7.20411e+12 -7.49776e+12 -5.99599e+12 -5.53735e+12 -8.40059e+12 -7.17439e+12 -4.55895e+12 -3.72932e+12 -2.71101e+12 -2.49329e+12 -8.27595e+12 -7.5098e+12 -7.2049e+12 -5.04335e+12 -6.54381e+12 -1.24309e+13 -6.11485e+12 -3.64938e+12 -9.61236e+12 -1.34887e+13 -7.2328e+12 -6.5283e+12 -6.19665e+12 -5.07287e+12 -4.8196e+12 -6.18739e+12 -4.16795e+12 -1.06927e+13 -9.04655e+12 -5.22298e+12 -7.2479e+12 -5.7005e+12 -5.98958e+12 -4.58333e+12 -6.38188e+12 -6.07978e+12 -8.90844e+12 -6.15819e+12 -9.43199e+12 -6.76782e+12 -7.59977e+12 -3.12329e+12 -6.36195e+12 -6.17673e+12 -7.08613e+12 -3.9025e+12 -7.4122e+12 -6.92951e+12 -3.87682e+12 -6.81794e+12 -6.26073e+12 -1.1236e+13 -5.76864e+12 -7.21145e+12 -8.43911e+12 -5.37984e+12 -5.82957e+12 -5.27927e+12 -5.66876e+12 -5.63593e+12 -4.15787e+12 -7.27885e+12 -6.41632e+12 -6.99531e+12 -8.58398e+12 -6.40138e+12 -4.05297e+12 -5.76049e+12 -6.53583e+12 -3.9179e+12 -7.79327e+12 -4.2509e+12 -4.08456e+12 -6.15082e+12 -7.44936e+12 -5.38451e+12 -6.73807e+12 -3.60864e+12 -6.16114e+12 -7.22961e+12 -6.01353e+12 -2.85175e+12 -5.68901e+12 -6.6098e+12 -5.53471e+12 -4.81039e+12 -4.22996e+12 -2.77412e+12 -2.2791e+12 -4.75966e+12 -5.87242e+12 -8.41727e+12 -7.32226e+12 -3.47566e+12 -4.24739e+12 -4.90421e+12 -7.54463e+12 -6.20433e+12 -5.56534e+12 -1.02534e+13 -3.56455e+12 -7.35557e+12 -5.10999e+12 -1.03911e+13 -6.49489e+12 -4.80106e+12 -6.51051e+12 -1.02526e+13 -5.835e+12 -1.0302e+13 -6.3506e+12 -8.56616e+12 -6.55134e+12 -7.65566e+12 -8.54879e+12 -7.90415e+12 -5.60001e+12 -4.26917e+12 -6.34357e+12 -1.22138e+13 -1.15549e+13 -8.48606e+12 -1.03688e+13 -8.16395e+12 -8.76204e+12 -7.16565e+12 -1.08571e+13 -3.63654e+12 -2.14305e+12 -9.33827e+12 -1.32811e+13 -1.04798e+13 -1.16546e+13 -6.43205e+12 -6.97613e+12 -7.01869e+12 -1.3186e+13 -9.91686e+12 -6.46426e+12 -8.42868e+12 -8.3244e+12 -9.88898e+12 -9.09354e+12 -4.21094e+12 -6.60977e+12 -5.29794e+12 -6.35255e+12 -5.01967e+12 -4.06811e+12 -5.30459e+12 -6.32455e+12 -6.3517e+12 -6.6059e+12 -7.88237e+12 -7.70533e+12 -8.45168e+12 -9.68371e+12 -1.276e+13 -7.44143e+12 -8.81909e+12 -3.52108e+12 -5.27427e+12 -1.48674e+13 -7.9136e+12 -1.01945e+13 -4.99838e+12 -8.87701e+12 -7.53975e+12 -9.62367e+12 -9.90139e+12 -6.87207e+12 -7.43289e+12 -4.6589e+12 -9.87543e+12 -7.17708e+12 -2.48379e+12 -8.96006e+12 -1.11029e+13 -1.09018e+13 -3.27097e+12 -7.58363e+12 -2.94335e+12 -7.60916e+12 -6.02697e+12 -5.62984e+12 -7.37236e+12 -9.17605e+12 -5.24751e+12 -3.77572e+12 -5.47392e+12 -1.16705e+13 -9.83845e+12 -1.06029e+13 -5.42625e+12 -4.5613e+12 -5.61246e+12 -9.32541e+12 -3.51364e+12 -3.74781e+12 -8.74775e+12 -8.54917e+12 -4.81845e+12 -6.15499e+12 -7.73852e+12 -7.85787e+12 -5.68562e+12 -7.63264e+12 -3.92663e+12 -4.90501e+12 -5.71405e+12 -4.09693e+12 -3.58655e+12 -7.12322e+12 -4.17424e+12 -8.99316e+12 -4.59469e+12 -7.10689e+12 -8.12451e+12 -4.35945e+12 -4.26086e+12 -7.90261e+12 -5.21077e+12 -3.25996e+12 -4.385e+12 -4.82232e+12 -8.41228e+12 -7.43353e+12 -5.7725e+12 -7.41373e+12 -6.72837e+12 -1.04156e+13 -6.45267e+12 -6.01313e+12 -5.45754e+12 -6.0233e+12 -6.18839e+12 -6.43131e+12 -4.18518e+12 -7.1805e+12 -6.43234e+12 -4.57921e+12 -7.70431e+12 -6.92003e+12 -9.27089e+12 -1.08353e+13 -6.33905e+12 -4.46853e+12 -7.60701e+12 -6.56269e+12 -7.08809e+12 -3.56395e+12 -5.61082e+12 -8.45344e+12 -4.63967e+12 -5.05187e+12 -6.72527e+12 -6.58574e+12 -9.79504e+12 -6.37332e+12 -7.09802e+12 -8.81878e+12 -7.47745e+12 -4.49951e+12 -4.09897e+12 -6.25055e+12 -6.1996e+12 -8.38831e+12 -7.27976e+12 -4.6916e+12 -5.62966e+12 -8.85648e+12 -6.64242e+12 -5.89649e+12 -4.89123e+12 -1.0251e+13 -7.12506e+12 -5.98501e+12 -5.78246e+12 -5.63517e+12 -4.97591e+12 -7.84201e+12 -4.17496e+12 -5.93749e+12 -5.64203e+12 -7.18448e+12 -5.79057e+12 -4.30946e+12 -6.54949e+12 -1.00139e+13 -7.15889e+12 -7.16837e+12 -1.86397e+13 -5.88855e+12 -6.91009e+12 -1.0751e+13 -8.91125e+12 -5.60067e+12 -7.88464e+12 -9.07503e+12 -5.23045e+12 -6.76537e+12 -7.56862e+12 -6.86015e+12 -8.33886e+12 -8.44937e+12 -8.51763e+12 -8.41795e+12 -1.3524e+13 -6.59842e+12 -5.68861e+12 -5.64732e+12 -4.30665e+12 -7.25655e+12 -9.10118e+12 -4.57239e+12 -7.32848e+12 -5.01101e+12 -9.6463e+12 -6.64582e+12 -8.80154e+12 -8.02002e+12 -8.5061e+12 -5.84917e+12 -6.9258e+12 -3.88613e+12 -5.949e+12 -9.4005e+12 -4.91631e+12 -8.73357e+12 -5.3165e+12 -6.07765e+12 -8.3623e+12 -3.82773e+12 -5.46122e+12 -6.60097e+12 -5.26548e+12 -4.45415e+12 -3.61298e+12 -3.22013e+12 -6.59915e+12 -6.15529e+12 -6.10037e+12 -4.37194e+12 -7.63911e+12 -5.86226e+12 -6.02788e+12 -4.41982e+12 -5.86762e+12 -2.77686e+12 -4.88593e+12 -1.77402e+12 -7.92647e+12 -5.86681e+12 -6.06717e+12 -4.07278e+12 -5.73196e+12 -7.037e+12 -1.02889e+13 -3.11041e+12 -3.58937e+12 -3.13598e+12 -5.35517e+12 -4.723e+12 -6.72771e+12 -6.05361e+12 -3.35592e+12 -4.34469e+12 -5.02324e+12 -5.27312e+12 -3.35137e+12 -7.47353e+12 -6.31894e+12 -3.8899e+12 -6.98854e+12 -5.15583e+12 -7.73577e+12 -8.75273e+12 -3.50199e+12 -4.07441e+12 -6.07094e+12 -7.46811e+12 -9.77025e+12 -9.5285e+12 -8.83836e+12 -9.45094e+12 -2.32997e+12 -7.57989e+12 -8.8794e+12 -9.41469e+12 -7.38423e+12 -5.33608e+12 -9.77767e+12 -4.90803e+12 -5.94335e+12 -3.33126e+12 -4.11114e+12 -5.66718e+12 -5.28137e+12 -7.60781e+12 -6.1835e+12 -5.33965e+12 -6.47032e+12 -6.16488e+12 -3.97464e+12 -8.65025e+12 -8.44282e+12 -8.65009e+12 -9.11326e+12 -8.19686e+12 -8.79077e+12 -7.71713e+12 -8.09124e+12 -1.29589e+13 -7.121e+12 -6.04332e+12 -9.61704e+12 -6.9006e+12 -8.3949e+12 -7.36385e+12 -1.03614e+13 -6.07927e+12 -3.08822e+12 -5.47712e+12 -5.1157e+12 -5.52289e+12 -8.15237e+12 -4.6118e+12 -6.13033e+12 -4.73126e+12 -4.30892e+12 -1.06475e+13 -7.60933e+12 -8.23848e+12 -5.05664e+12 -2.69803e+12 -5.25539e+12 -4.64854e+12 -9.51067e+12 -7.82299e+12 -1.34606e+13 -6.17921e+12 -1.14811e+13 -7.62333e+12 -6.50823e+12 -5.7054e+12 -5.70506e+12 -3.62417e+12 -7.17521e+12 -5.68845e+12 -6.46657e+12 -5.57172e+12 -6.26137e+12 -4.88716e+12 -1.09514e+13 -5.5377e+12 -6.74025e+12 -9.92149e+12 -1.0664e+13 -7.30832e+12 -5.75567e+12 -5.95572e+12 -5.27391e+12 -7.41083e+12 -8.33274e+12 -5.92385e+12 -4.96115e+12 -6.69079e+12 -6.33727e+12 -4.70161e+12 -7.26839e+12 -2.52294e+12 -6.76183e+12 -4.93964e+12 -4.3446e+12 -3.95742e+12 -3.76897e+12 -4.60807e+12 -4.14849e+12 -4.52493e+12 -5.08779e+12 -3.39027e+12 -8.4724e+12 -5.81768e+12 -3.62875e+12 -4.14352e+12 -5.13713e+12 -6.77383e+12 -3.22575e+12 -6.24319e+12 -6.02689e+12 -5.19325e+12 -7.21806e+12 -4.61551e+12 -6.82586e+12 -3.43778e+12 -5.40191e+12 -6.6581e+12 -5.14083e+12 -5.14175e+12 -4.34335e+12 -5.94471e+12 -5.45153e+12 -5.41715e+12 -6.04943e+12 -3.38249e+12 -6.35999e+12 -5.23335e+12 -2.823e+12 -2.89953e+12 -7.5799e+12 -6.3511e+12 -4.98589e+12 -2.1117e+12 -3.74614e+12 -4.76775e+12 -3.64583e+12 -7.48515e+12 -5.28756e+12 -2.77571e+12 -3.54701e+12 -3.52595e+12 -4.04032e+12 -5.49104e+12 -5.5552e+12 -5.11897e+12 -5.20488e+12 -8.3374e+12 -7.82915e+12 -4.91287e+12 -5.49054e+12 -4.11759e+12 -4.52481e+12 -6.65647e+12 -8.99367e+12 -1.23432e+13 -2.97585e+12 -4.46023e+12 -5.46715e+12 -7.29492e+12 -8.98772e+12 -7.68177e+12 -7.35874e+12 -1.25033e+13 -3.05719e+12 -6.3447e+12 -5.06219e+12 -7.72098e+12 -4.30366e+12 -5.42906e+12 -6.41267e+12 -3.52661e+12 -7.73075e+12 -4.78132e+12 -6.64315e+12 -5.98242e+12 -5.18538e+12 -6.25638e+12 -5.25869e+12 -6.10274e+12 -9.69213e+12 -8.29255e+12 -1.05145e+13 -7.33664e+12 -1.15993e+13 -5.34923e+12 -4.59219e+12 -5.7289e+12 -4.05512e+12 -5.72757e+12 -4.91753e+12 -4.74914e+12 -7.89426e+12 -9.31402e+12 -5.87106e+12 -9.7947e+12 -7.27267e+12 -3.60421e+12 -6.6406e+12 -4.4978e+12 -7.4951e+12 -4.42468e+12 -6.5422e+12 -6.81745e+12 -5.36767e+12 -3.75314e+12 -6.39186e+12 -8.15797e+12 -5.52503e+12 -5.4778e+12 -3.83824e+12 -6.90397e+12 -7.20492e+12 -5.96222e+12 -6.53207e+12 -7.71782e+12 -5.13127e+12 -4.34455e+12 -5.75272e+12 -4.66566e+12 -2.56221e+12 -4.99662e+12 -6.40798e+12 -1.93171e+12 -4.02919e+12 -7.21282e+12 -9.63205e+12 -4.06625e+12 -5.80441e+12 -5.46032e+12 -6.06445e+12 -5.84405e+12 -9.72339e+12 -5.13672e+12 -3.10801e+12 -5.03598e+12 -5.33502e+12 -5.50526e+12 -747342000000.0 -7.96237e+12 -8.75127e+12 -7.44321e+12 -4.77205e+12 -2.97332e+12 -4.34821e+12 -3.70999e+12 -1.5586e+12 -8.46632e+12 -5.13801e+12 -4.15045e+12 -4.66746e+12 -4.5827e+12 -2.91764e+12 -3.34175e+12 -7.97461e+12 -6.57172e+12 -5.18688e+12 -5.61435e+12 -4.25426e+12 -4.43396e+12 -4.95861e+12 -2.91931e+12 -6.80404e+12 -6.4989e+12 -6.01483e+12 -6.42108e+12 -5.35292e+12 -4.70995e+12 -6.21847e+12 -4.90268e+12 -4.74523e+12 -4.62667e+12 -4.44626e+12 -2.75529e+12 -7.22777e+12 -6.63055e+12 -3.30524e+12 -3.44726e+12 -6.03987e+12 -5.24301e+12 -4.81753e+12 -6.51679e+12 -4.1709e+12 -5.7491e+12 -5.97429e+12 -5.0546e+12 -6.97108e+12 -9.93223e+12 -3.72457e+12 -4.08929e+12 -5.89659e+12 -4.71378e+12 -4.97638e+12 -6.93392e+12 -1.16508e+13 -6.37844e+12 -6.30456e+12 -7.63645e+12 -7.1399e+12 -6.37754e+12 -3.29114e+12 -4.16694e+12 -4.49514e+12 -5.56538e+12 -9.72816e+12 -6.27263e+12 -4.70042e+12 -9.75861e+12 -6.5403e+12 -1.21528e+13 -7.39635e+12 -7.5306e+12 -4.3841e+12 -8.22584e+12 -9.22786e+12 -1.3503e+13 -6.14307e+12 -1.01742e+13 -6.37454e+12 -7.2808e+12 -9.62232e+12 -5.68967e+12 -5.19457e+12 -5.54824e+12 -4.72649e+12 -4.8427e+12 -4.84418e+12 -5.55471e+12 -8.9424e+12 -9.71151e+12 -8.80051e+12 -6.57726e+12 -7.80328e+12 -6.27063e+12 -6.88674e+12 -5.85328e+12 -6.11672e+12 -6.88493e+12 -3.92563e+12 -4.84692e+12 -3.75266e+12 -5.84135e+12 -5.9268e+12 -3.58681e+12 -6.73902e+12 -4.72062e+12 -4.4286e+12 -6.5395e+12 -7.70646e+12 -7.78367e+12 -5.63785e+12 -8.72978e+12 -8.86146e+12 -7.16255e+12 -7.12612e+12 -8.04522e+12 -5.99242e+12 -4.6721e+12 -6.85315e+12 -3.63129e+12 -4.96655e+12 -6.99533e+12 -4.51485e+12 -3.8483e+12 -6.24014e+12 -6.26385e+12 -7.09681e+12 -3.38198e+12 -9.19721e+12 -4.70743e+12 -8.45023e+12 -5.78995e+12 -7.01076e+12 -8.6436e+12 -2.74551e+12 -6.64832e+12 -3.95597e+12 -9.62857e+12 -4.94754e+12 -4.95452e+12 -3.64308e+12 -3.95758e+12 -8.45656e+12 -3.03443e+12 -6.1681e+12 -4.05798e+12 -5.93999e+12 -6.67304e+12 -4.51376e+12 -4.99148e+12 -3.09142e+12 -4.31496e+12 -7.18717e+12 -5.42505e+12 -5.13023e+12 -6.07489e+12 -5.24986e+12 -5.19273e+12 -4.93992e+12 -5.01069e+12 -5.53752e+12 -2.89109e+12 -4.06907e+12 -5.41828e+12 -5.23157e+12 -2.37506e+12 -3.28409e+12 -4.35014e+12 -3.88503e+12 -3.99528e+12 -3.68198e+12 -3.59423e+12 -4.86189e+12 -4.89997e+12 -3.77e+12 -3.97747e+12 -6.35691e+12 -5.04668e+12 -3.06066e+12 -3.08471e+12 -2.86125e+12 -4.05179e+12 -2.62685e+12 -4.61581e+12 -2.4342e+12 -5.51163e+12 -2.04955e+12 -4.46685e+12 -4.70996e+12 -3.39542e+12 -4.11738e+12 -6.56345e+12 -2.68484e+12 -3.57588e+12 -5.16931e+12 -5.29073e+12 -3.80696e+12 -3.28063e+12 -2.13106e+12 -6.20481e+12 -6.38158e+12 -3.08073e+12 -5.7647e+12 -3.65381e+12 -5.90033e+12 -6.71205e+12 -1.00753e+13 -5.79314e+12 -5.41281e+12 -4.76869e+12 -7.26166e+12 -8.17692e+12 -3.39973e+12 -1.01889e+13 -4.42049e+12 -5.35484e+12 -4.53573e+12 -5.09832e+12 -7.5701e+12 -8.31019e+12 -3.75552e+12 -3.37538e+12 -3.90928e+12 -6.93108e+12 -5.64464e+12 -5.27394e+12 -3.78586e+12 -8.955e+12 -5.39657e+12 -8.27275e+12 -9.14759e+12 -7.79788e+12 -6.00004e+12 -6.26486e+12 -4.12824e+12 -4.59654e+12 -5.0652e+12 -4.68073e+12 -7.59659e+12 -1.17976e+13 -1.29153e+13 -1.08703e+13 -4.99002e+12 -7.1743e+12 -8.29125e+12 -9.23476e+12 -7.51754e+12 -5.51774e+12 -5.64728e+12 -7.0138e+12 -5.74356e+12 -3.38471e+12 -3.47117e+12 -5.33019e+12 -2.63805e+12 -5.16288e+12 -6.15785e+12 -6.16518e+12 -7.221e+12 -5.79599e+12 -6.81833e+12 -4.42957e+12 -5.12737e+12 -3.95554e+12 -3.85681e+12 -8.6168e+12 -6.43563e+12 -8.08398e+12 -4.62339e+12 -8.21944e+12 -6.51168e+12 -6.79272e+12 -6.59357e+12 -4.6859e+12 -5.49094e+12 -7.5438e+12 -5.49797e+12 -6.42504e+12 -4.2942e+12 -5.34533e+12 -6.18172e+12 -9.49252e+12 -4.93461e+12 -7.00825e+12 -6.50905e+12 -8.3599e+12 -1.09935e+13 -9.56476e+12 -6.57936e+12 -4.83706e+12 -8.10984e+12 -9.49884e+12 -6.27468e+12 -2.5441e+12 -3.94908e+12 -5.54781e+12 -7.362e+12 -4.66697e+12 -5.36384e+12 -4.3272e+12 -1.43759e+12 -4.82364e+12 -4.75748e+12 -3.49512e+12 -5.5502e+12 -4.61543e+12 -4.05415e+12 -6.7175e+12 -5.14436e+12 -5.40855e+12 -7.41502e+12 -4.17443e+12 -4.54347e+12 -1.55339e+12 -3.87448e+12 -3.25139e+12 -4.90316e+12 -4.53794e+12 -3.8206e+12 -5.23422e+12 -6.11695e+12 -4.53147e+12 -3.09517e+12 -4.56124e+12 -4.3253e+12 -5.42068e+12 -2.64593e+12 -5.43463e+12 -4.47716e+12 -3.665e+12 -5.65373e+12 -4.09308e+12 -4.4805e+12 -2.17013e+12 -4.08014e+12 -4.11078e+12 -6.90143e+12 -5.25255e+12 -4.16985e+12 -3.68788e+12 -4.81534e+12 -4.33043e+12 -3.44894e+12 -4.37388e+12 -4.53711e+12 -3.16963e+12 -3.16981e+12 -4.33703e+12 -4.53217e+12 -5.74428e+12 -4.38822e+12 -5.66973e+12 -7.8886e+12 -3.33808e+12 -5.23307e+12 -7.57481e+12 -5.92271e+12 -7.38829e+12 -4.87877e+12 -4.96632e+12 -5.89614e+12 -3.35685e+12 -7.25524e+12 -6.86692e+12 -2.59892e+12 -3.84346e+12 -4.19449e+12 -4.51741e+12 -6.97115e+12 -6.43192e+12 -4.65393e+12 -5.00982e+12 -5.67268e+12 -4.20508e+12 -3.93965e+12 -4.27154e+12 -5.16739e+12 -6.24846e+12 -5.88073e+12 -5.70219e+12 -6.28563e+12 -8.40183e+12 -7.46531e+12 -5.30597e+12 -5.52311e+12 -7.73197e+12 -1.1533e+13 -7.66279e+12 -6.86669e+12 -6.7292e+12 -5.84386e+12 -2.25241e+12 -9.80017e+12 -7.75018e+12 -1.02476e+13 -6.25629e+12 -5.64781e+12 -4.93882e+12 -6.30928e+12 -8.83333e+12 -1.43652e+13 -8.00162e+12 -4.80105e+12 -1.11382e+13 -9.61397e+12 -7.95137e+12 -9.15213e+12 -4.93684e+12 -7.71872e+12 -6.24173e+12 -1.22811e+13 -5.89506e+12 -4.8505e+12 -8.58299e+12 -4.84922e+12 -5.73853e+12 -7.73792e+12 -7.14672e+12 -4.78506e+12 -5.6134e+12 -5.53711e+12 -9.63358e+12 -1.02419e+13 -7.27855e+12 -8.66117e+12 -6.06681e+12 -5.88474e+12 -5.69983e+12 -7.43068e+12 -5.72723e+12 -4.74467e+12 -5.03159e+12 -5.19953e+12 -5.68727e+12 -5.50596e+12 -7.70725e+12 -5.36712e+12 -8.95195e+12 -4.98467e+12 -4.66996e+12 -4.4301e+12 -3.44216e+12 -1.02734e+13 -5.13748e+12 -7.74928e+12 -4.16631e+12 -7.40984e+12 -5.40727e+12 -3.04349e+12 -5.49506e+12 -6.69596e+12 -4.81368e+12 -5.07554e+12 -5.87901e+12 -6.36475e+12 -4.21151e+12 -4.9838e+12 -4.59322e+12 -3.57726e+12 -6.25917e+12 -6.84987e+12 -3.75628e+12 -5.1069e+12 -2.92461e+12 -6.02855e+12 -4.59122e+12 -4.6865e+12 -2.79264e+12 -2.88793e+12 -2.28905e+12 -3.88439e+12 -4.36948e+12 -4.54579e+12 -3.45149e+12 -4.80353e+12 -3.44912e+12 -1.99917e+12 -4.34887e+12 -4.53738e+12 -4.43418e+12 -4.82836e+12 -4.63163e+12 -4.34104e+12 -5.22646e+12 -2.24599e+12 -3.72083e+12 -3.9663e+12 -4.68631e+12 -3.56027e+12 -5.14164e+12 -6.5422e+12 -3.93051e+12 -4.03395e+12 -3.73973e+12 -4.17976e+12 -4.38701e+12 -3.00703e+12 -3.59517e+12 -4.59699e+12 -4.98024e+12 -3.24302e+12 -3.79832e+12 -8.11215e+12 -3.68155e+12 -5.59653e+12 -3.4492e+12 -7.91171e+12 -7.96998e+12 -4.80652e+12 -4.04592e+12 -4.30019e+12 -5.98141e+12 -5.78062e+12 -4.60756e+12 -7.82868e+12 -7.44281e+12 -4.23063e+12 -5.27164e+12 -6.13772e+12 -4.8652e+12 -6.13644e+12 -3.91214e+12 -6.86095e+12 -4.58319e+12 -4.24667e+12 -5.44129e+12 -6.44111e+12 -7.35985e+12 -4.02874e+12 -5.44928e+12 -6.10201e+12 -9.46556e+12 -7.98021e+12 -5.35333e+12 -8.07168e+12 -6.63623e+12 -1.20652e+13 -5.32066e+12 -7.87823e+12 -5.99144e+12 -6.47578e+12 -7.51531e+12 -8.95546e+12 -8.2849e+12 -6.03297e+12 -6.94791e+12 -2.75483e+12 -4.17907e+12 -2.54104e+12 -6.93003e+12 -3.13763e+12 -3.57335e+12 -4.0591e+12 -7.03063e+12 -4.75691e+12 -9.93169e+12 -4.75114e+12 -5.20586e+12 -8.50738e+12 -5.94299e+12 -4.89357e+12 -6.45093e+12 -9.22453e+12 -5.99326e+12 -1.0148e+13 -4.12852e+12 -6.82392e+12 -5.61099e+12 -5.90295e+12 -4.8524e+12 -4.3971e+12 -4.74955e+12 -7.50984e+12 -7.84062e+12 -2.96499e+12 -6.00564e+12 -4.5936e+12 -4.76639e+12 -5.88714e+12 -6.72984e+12 -7.47626e+12 -2.95812e+12 -2.86284e+12 -2.15214e+12 -6.21687e+12 -5.78376e+12 -2.54041e+12 -4.60208e+12 -1.01911e+13 -6.1494e+12 -6.84655e+12 -6.61663e+12 -5.1766e+12 -6.30032e+12 -5.8304e+12 -7.71e+12 -7.544e+12 -4.23893e+12 -2.76026e+12 -4.00015e+12 -2.29376e+12 -4.70891e+12 -4.19565e+12 -3.00886e+12 -2.91857e+12 -2.29898e+12 -4.61427e+12 -5.1331e+12 -5.03458e+12 -3.64301e+12 -2.01286e+12 -4.62134e+12 -3.32887e+12 -5.40205e+12 -4.33712e+12 -4.05091e+12 -2.73661e+12 -4.12938e+12 -2.39013e+12 -3.21761e+12 -4.36243e+12 -4.32118e+12 -2.81786e+12 -3.25872e+12 -2.31733e+12 -4.56693e+12 -2.69716e+12 -2.97364e+12 -3.97803e+12 -4.37512e+12 -3.21616e+12 -3.93422e+12 -5.06788e+12 -3.5815e+12 -1.89825e+12 -2.72531e+12 -4.08841e+12 -2.7057e+12 -5.45403e+12 -2.80496e+12 -4.04253e+12 -7.11606e+12 -3.14494e+12 -4.99525e+12 -5.00742e+12 -4.23903e+12 -6.00236e+12 -4.79306e+12 -4.69319e+12 -4.61112e+12 -2.32023e+12 -5.29755e+12 -6.55373e+12 -2.99841e+12 -2.49965e+12 -4.21702e+12 -1.86337e+12 -3.10776e+12 -5.41235e+12 -5.00095e+12 -3.17783e+12 -4.89299e+12 -3.6167e+12 -4.25684e+12 -6.1661e+12 -2.96679e+12 -2.4378e+12 -4.57743e+12 -7.51088e+12 -4.97145e+12 -6.63417e+12 -7.04488e+12 -5.6907e+12 -5.63572e+12 -2.70957e+12 -3.32848e+12 -5.32748e+12 -6.64334e+12 -5.47973e+12 -4.19467e+12 -4.40154e+12 -5.63738e+12 -7.82855e+12 -6.14745e+12 -6.09523e+12 -692572000000.0 -6.21721e+12 -6.59946e+12 -5.74987e+12 -5.74852e+12 -7.94985e+12 -6.28599e+12 -6.084e+12 -4.27623e+12 -3.78671e+12 -7.20491e+12 -8.02872e+12 -5.43588e+12 -7.78943e+12 -6.24343e+12 -6.02285e+12 -9.75714e+12 -1.19369e+13 -6.50389e+12 -4.31683e+12 -5.68128e+12 -9.5668e+12 -6.06726e+12 -1.96189e+12 -2.80816e+12 -1.6857e+12 -7.76854e+12 -4.87403e+12 -3.29251e+12 -5.077e+12 -6.5291e+12 -1.0195e+13 -2.96247e+12 -4.19578e+12 -4.73282e+12 -5.52268e+12 -5.14206e+12 -4.62755e+12 -6.06697e+12 -7.7579e+12 -3.91479e+12 -6.97403e+12 -8.94564e+12 -6.39657e+12 -2.64334e+12 -6.71702e+12 -7.4293e+12 -4.05578e+12 -4.45941e+12 -5.22342e+12 -4.6562e+12 -4.5843e+12 -6.32394e+12 -3.96712e+12 -4.81095e+12 -4.0266e+12 -4.05208e+12 -6.12445e+12 -8.8872e+12 -3.42262e+12 -5.93967e+12 -6.25196e+12 -4.22002e+12 -5.23638e+12 -6.06224e+12 -5.97179e+12 -4.88675e+12 -5.59705e+12 -3.80227e+12 -4.80116e+12 -8.30372e+12 -3.6734e+12 -2.84354e+12 -3.6759e+12 -2.68433e+12 -4.48627e+12 -6.22728e+12 -4.44022e+12 -3.46341e+12 -3.90139e+12 -5.39543e+12 -3.48922e+12 -5.00365e+12 -4.54192e+12 -2.16745e+12 -3.74935e+12 -3.64907e+12 -4.9475e+12 -3.08867e+12 -2.92524e+12 -3.56826e+12 -4.72918e+12 -2.05737e+12 -4.99754e+12 -4.09293e+12 -4.61659e+12 -4.44331e+12 -2.61499e+12 -3.47167e+12 -1.29254e+12 -3.04955e+12 -1.97057e+12 -2.37046e+12 -3.41864e+12 -3.6307e+12 -4.5571e+12 -2.95504e+12 -3.97157e+12 -3.54863e+12 -2.5558e+12 -2.52361e+12 -4.51932e+12 -2.97483e+12 -6.64044e+12 -5.77147e+12 -3.78741e+12 -6.31589e+12 -4.4633e+12 -6.60178e+12 -5.57638e+12 -6.06826e+12 -5.15195e+12 -6.66471e+12 -3.91137e+12 -4.90043e+12 -3.07049e+12 -5.90805e+12 -5.66288e+12 -4.8088e+12 -4.69473e+12 -6.06079e+12 -6.90213e+12 -4.95761e+12 -6.86973e+12 -6.58022e+12 -5.01144e+12 -5.06576e+12 -3.72472e+12 -4.97248e+12 -6.94837e+12 -5.62781e+12 -6.14584e+12 -7.01971e+12 -6.68803e+12 -5.94084e+12 -8.78146e+12 -5.0803e+12 -3.65036e+12 -7.26815e+12 -2.99188e+12 -5.71843e+12 -6.00747e+12 -5.32984e+12 -4.99335e+12 -7.41208e+12 -5.67507e+12 -6.75153e+12 -5.13426e+12 -4.24914e+12 -6.61034e+12 -3.37547e+12 -2.97108e+12 -4.69555e+12 -6.84467e+12 -8.22153e+12 -5.33737e+12 -5.13217e+12 -5.61624e+12 -4.54775e+12 -8.09306e+12 -6.80822e+12 -7.44585e+12 -5.41337e+12 -2.72346e+12 -3.88826e+12 -2.68097e+12 -4.02367e+12 -6.86181e+12 -3.03609e+12 -4.80108e+12 -5.32431e+12 -6.12432e+12 -5.51217e+12 -6.42877e+12 -6.58618e+12 -4.19221e+12 -4.65242e+12 -3.99543e+12 -6.80556e+12 -4.59584e+12 -3.92202e+12 -4.56399e+12 -4.88527e+12 -5.73529e+12 -4.52062e+12 -5.50019e+12 -5.93453e+12 -4.85588e+12 -4.40391e+12 -3.83693e+12 -3.94033e+12 -6.00614e+12 -6.31946e+12 -4.27975e+12 -4.62669e+12 -6.68137e+12 -4.49425e+12 -3.02309e+12 -5.24003e+12 -4.83727e+12 -4.53169e+12 -5.37076e+12 -5.9335e+12 -4.15272e+12 -5.53642e+12 -3.67268e+12 -5.07549e+12 -4.37056e+12 -5.12166e+12 -4.56747e+12 -5.61071e+12 -6.06079e+12 -5.58319e+12 -6.53616e+12 -5.08702e+12 -5.59768e+12 -3.15124e+12 -5.03808e+12 -3.68761e+12 -4.69748e+12 -4.48277e+12 -4.69084e+12 -4.18504e+12 -5.05779e+12 -2.61521e+12 -4.56752e+12 -3.73933e+12 -2.58848e+12 -3.08397e+12 -4.6573e+12 -2.54337e+12 -1.87522e+12 -3.01206e+12 -1.92354e+12 -3.22304e+12 -4.10366e+12 -3.73724e+12 -2.05335e+12 -2.6359e+12 -2.79183e+12 -2.1235e+12 -2.98909e+12 -2.71731e+12 -2.5841e+12 -3.16849e+12 -3.67041e+12 -4.85214e+12 -3.56067e+12 -2.88012e+12 -3.80335e+12 -2.73272e+12 -2.19289e+12 -3.04924e+12 -2.84795e+12 -2.47198e+12 -1.64407e+12 -1.82019e+12 -3.59385e+12 -4.51754e+12 -4.30144e+12 -7.13501e+12 -1.64519e+12 -4.25132e+12 -3.59302e+12 -6.12324e+12 -4.91794e+12 -5.76727e+12 -4.05535e+12 -4.6074e+12 -5.93077e+12 -4.91854e+12 -3.60043e+12 -6.55482e+12 -4.02314e+12 -7.38069e+12 -5.27717e+12 -3.01189e+12 -4.92773e+12 -5.8437e+12 -4.34969e+12 -6.35435e+12 -5.65397e+12 -6.59618e+12 -6.93747e+12 -6.54899e+12 -3.22585e+12 -7.61728e+12 -5.09826e+12 -6.25663e+12 -7.49391e+12 -3.72167e+12 -4.49406e+12 -3.29015e+12 -3.44045e+12 -5.7229e+12 -4.26332e+12 -4.79683e+12 -5.89716e+12 -7.03535e+12 -5.9985e+12 -5.81064e+12 -4.67317e+12 -5.55933e+12 -3.89628e+12 -9.04701e+12 -5.28642e+12 -4.71937e+12 -7.01498e+12 -4.61287e+12 -6.43636e+12 -2.94645e+12 -7.21874e+12 -4.73473e+12 -2.57758e+12 -6.61832e+12 -7.29056e+12 -8.24275e+12 -5.97663e+12 -3.9261e+12 -4.00097e+12 -8.82018e+12 -5.04965e+12 -5.11764e+12 -4.37873e+12 -4.83738e+12 -3.48885e+12 -4.44126e+12 -4.06698e+12 -5.34471e+12 -5.05299e+12 -3.22471e+12 -3.45739e+12 -1.87473e+12 -1.9189e+12 -4.55599e+12 -6.41007e+12 -9.23223e+12 -4.71139e+12 -4.96824e+12 -6.70373e+12 -6.54667e+12 -4.35943e+12 -5.24268e+12 -6.90079e+12 -5.44559e+12 -3.25917e+12 -4.03085e+12 -4.56858e+12 -4.01545e+12 -3.57732e+12 -5.34794e+12 -5.11181e+12 -4.86607e+12 -1.58223e+12 -3.85776e+12 -1.76016e+12 -5.84302e+12 -5.22502e+12 -3.35636e+12 -4.28576e+12 -2.69831e+12 -2.98694e+12 -1.8929e+12 -2.21877e+12 -3.72259e+12 -3.19608e+12 -1.57521e+12 -3.35023e+12 -3.85291e+12 -2.62773e+12 -1.40493e+12 -2.10371e+12 -1.30126e+12 -3.37162e+12 -2.87109e+12 -2.40221e+12 -3.24371e+12 -2.48054e+12 -2.47391e+12 -2.621e+12 -2.85256e+12 -2.72277e+12 -1.26621e+12 -1.38378e+12 -1.46517e+12 -3.08492e+12 -2.69008e+12 -3.15632e+12 -2.10025e+12 -3.00018e+12 -4.73683e+12 -3.30487e+12 -2.73299e+12 -3.0285e+12 -2.84828e+12 -3.14369e+12 -2.13189e+12 -1.93194e+12 -2.6129e+12 -3.63654e+12 -2.31208e+12 -3.17039e+12 -4.62592e+12 -4.57453e+12 -3.77241e+12 -3.16645e+12 -3.14594e+12 -3.19761e+12 -1.7109e+12 -3.3674e+12 -3.00824e+12 -3.68698e+12 -3.98188e+12 -3.54576e+12 -5.25956e+12 -6.41696e+12 -2.29095e+12 -7.15358e+12 -5.89151e+12 -3.69969e+12 -2.49878e+12 -6.43591e+12 -6.0047e+12 -4.70718e+12 -3.97242e+12 -5.0088e+12 -5.67302e+12 -5.06699e+12 -4.61296e+12 -5.20474e+12 -4.05434e+12 -5.27687e+12 -3.70762e+12 -4.67251e+12 -5.42879e+12 -3.01496e+12 -6.40887e+12 -3.88706e+12 -4.83019e+12 -5.68184e+12 -4.55196e+12 -7.62598e+12 -7.41681e+12 -5.52585e+12 -3.68654e+12 -6.43322e+12 -6.82237e+12 -3.00742e+12 -5.22058e+12 -7.972e+12 -4.54138e+12 -4.21253e+12 -4.73769e+12 -4.4825e+12 -7.414e+12 -7.38155e+12 -7.31457e+12 -4.96236e+12 -8.56308e+12 -5.83231e+12 -2.93371e+12 -2.38083e+12 -6.57165e+12 -7.12755e+12 -4.0231e+12 -5.12947e+12 -6.32528e+12 -4.95699e+12 -6.86691e+12 -9.26377e+12 -4.48672e+12 -3.14083e+12 -3.95508e+12 -5.44058e+12 -4.29495e+12 -1.53234e+12 -4.19547e+12 -3.2501e+12 -6.70144e+12 -5.05795e+12 -5.76094e+12 -4.66585e+12 -4.25219e+12 -3.7801e+12 -1.98401e+12 -4.77335e+12 -5.13482e+12 -5.20478e+12 -4.91182e+12 -3.37739e+12 -4.84579e+12 -4.73941e+12 -3.16264e+12 -3.87912e+12 -3.36998e+12 -4.38267e+12 -6.51834e+12 -3.91715e+12 -6.25165e+12 -5.59975e+12 -6.47422e+12 -2.32176e+12 -4.70562e+12 -3.39936e+12 -3.55968e+12 -4.33173e+12 -3.02597e+12 -4.09933e+12 -6.09646e+12 -3.93667e+12 -2.98488e+12 -3.03514e+12 -2.87446e+12 -3.73645e+12 -2.22708e+12 -3.38622e+12 -5.07505e+12 -2.55142e+12 -2.37248e+12 -3.23334e+12 -1.94986e+12 -1.65161e+12 -3.09803e+12 -1.76504e+12 -1.6969e+12 -2.18921e+12 -1.92129e+12 -1.95404e+12 -2.94678e+12 -3.01125e+12 -2.27226e+12 -2.37517e+12 -2.67374e+12 -3.17438e+12 -2.17823e+12 -2.2447e+12 -3.57592e+12 -5.22193e+12 -2.66605e+12 -3.96659e+12 -1.90645e+12 -3.12058e+12 -3.00327e+12 -2.39627e+12 -3.66119e+12 -2.8484e+12 -3.63062e+12 -3.12056e+12 -4.86986e+12 -2.4728e+12 -2.09627e+12 -2.61666e+12 -2.09388e+12 -2.05381e+12 -2.34716e+12 -6.03113e+12 -3.20677e+12 -1.30272e+12 -4.00168e+12 -3.04219e+12 -4.66259e+12 -2.92201e+12 -3.7369e+12 -4.49131e+12 -1.74649e+12 -4.07402e+12 -6.60498e+12 -2.35967e+12 -3.83967e+12 -3.06638e+12 -1.55711e+12 -1.96093e+12 -6.45499e+12 -6.65986e+12 -5.82468e+12 -2.16644e+12 -3.62138e+12 -2.10385e+12 -3.78608e+12 -2.99626e+12 -4.27089e+12 -4.88363e+12 -4.45477e+12 -5.90309e+12 -2.16743e+12 -1.013e+12 -3.62117e+12 -3.46235e+12 -5.77886e+12 -7.79908e+12 -4.3597e+12 -3.81071e+12 -4.49493e+12 -5.11307e+12 -3.57899e+12 -5.9697e+12 -5.63132e+12 -8.869e+12 -4.26051e+12 -4.772e+12 -5.66111e+12 -4.27204e+12 -4.37411e+12 -5.96388e+12 -5.83055e+12 -5.28353e+12 -6.57076e+12 -3.9768e+12 -4.55011e+12 -5.92359e+12 -3.80541e+12 -4.00687e+12 -4.25771e+12 -5.09536e+12 -4.57988e+12 -5.60502e+12 -6.29127e+12 -5.52853e+12 -3.87065e+12 -7.3519e+12 -5.10273e+12 -3.39093e+12 -5.51916e+12 -2.09304e+12 -1.15996e+12 -4.54318e+12 -4.87874e+12 -4.90673e+12 -4.71917e+12 -5.23469e+12 -3.19008e+12 -4.05419e+12 -3.87615e+12 -2.61039e+12 -3.8042e+12 -3.32424e+12 -4.99513e+12 -3.41257e+12 -4.35408e+12 -6.02357e+12 -5.10705e+12 -6.58474e+12 -3.30575e+12 -2.31443e+12 -2.87936e+12 -1.22441e+12 -2.79774e+12 -3.41161e+12 -2.03701e+12 -5.64861e+12 -3.92613e+12 -3.9114e+12 -2.34016e+12 -2.08399e+12 -4.44084e+12 -2.87514e+12 -3.90129e+12 -1.63604e+12 -3.99975e+12 -2.45679e+12 -2.61072e+12 -1.51871e+12 -2.24785e+12 -3.36736e+12 -1.26657e+12 -2.14892e+12 -1.18901e+12 -1.8236e+12 -1.4791e+12 -1.91425e+12 -3.12721e+12 -1.3758e+12 -2.31528e+12 -1.13462e+12 -2.31418e+12 -2.60584e+12 -2.33844e+12 -2.22269e+12 -3.82587e+12 -4.99257e+12 -2.23316e+12 -3.10618e+12 -1.20068e+12 -2.29635e+12 -955555000000.0 -1.9391e+12 -1.59113e+12 -2.91401e+12 -752746000000.0 -3.71582e+12 -2.83435e+12 -3.76831e+12 -2.08455e+12 -2.59667e+12 -2.39552e+12 -4.42609e+12 -3.3107e+12 -2.67334e+12 -2.8113e+12 -2.71046e+12 -2.29778e+12 -1.93492e+12 -4.84696e+12 -6.16542e+12 -2.15214e+12 -2.10194e+12 -2.25482e+12 -2.38162e+12 -5.089e+12 -3.20645e+12 -2.59419e+12 -2.19128e+12 -4.51881e+12 -3.16383e+12 -5.77305e+12 -5.59257e+12 -4.3865e+12 -4.467e+12 -3.05952e+12 -2.03146e+12 -5.06799e+12 -4.13499e+12 -5.78219e+12 -4.34923e+12 -6.37292e+12 -4.08955e+12 -4.28999e+12 -4.41109e+12 -4.10871e+12 -6.71356e+12 -3.05967e+12 -3.1121e+12 -2.62319e+12 -3.31826e+12 -4.36559e+12 -4.52017e+12 -3.31872e+12 -5.02719e+12 -3.88805e+12 -7.44961e+12 -3.72602e+12 -5.86053e+12 -6.17773e+12 -4.51778e+12 -3.81688e+12 -3.75051e+12 -2.99522e+12 -1.96421e+12 -5.66967e+12 -4.01633e+12 -2.39839e+12 -6.58913e+12 -4.03564e+12 -4.70855e+12 -4.11436e+12 -5.14454e+12 -4.54725e+12 -5.68859e+12 -2.47818e+12 -4.04517e+12 -3.88369e+12 -4.16937e+12 -8.62112e+12 -3.76401e+12 -2.80151e+12 -3.01106e+12 -4.87233e+12 -3.25568e+12 -3.89531e+12 -1.5551e+12 -3.48095e+12 -5.31403e+12 -3.76284e+12 -4.49701e+12 -5.63281e+12 -1.91181e+12 -3.81536e+12 -4.65015e+12 -4.42855e+12 -2.67017e+12 -1.98732e+12 -4.14038e+12 -4.8471e+12 -4.18864e+12 -2.35587e+12 -2.80121e+12 -1.97881e+12 -1.50193e+12 -4.2709e+12 -3.18719e+12 -1.54403e+12 -2.49807e+12 -1.83876e+12 -2.47835e+12 -3.33083e+12 -2.83354e+12 -2.58343e+12 -2.85472e+12 -2.45775e+12 -3.1625e+12 -1.53957e+12 -2.03118e+12 -1.42803e+12 -1.75689e+12 -2.64354e+12 -1.31751e+12 -2.30958e+12 -1.07382e+12 -1.48216e+12 -954201000000.0 -841531000000.0 -2.666e+12 -2.25489e+12 -1.27078e+12 -2.10518e+12 -2.23838e+12 -888321000000.0 -1.62909e+12 -2.043e+12 -2.95624e+12 -1.77888e+12 -4.05247e+12 -3.55151e+12 -1.94951e+12 -2.41113e+12 -2.17363e+12 -3.24316e+12 -1.97684e+12 -2.75258e+12 -2.16704e+12 -2.75345e+12 -2.66403e+12 -2.13168e+12 -2.96552e+12 -2.88626e+12 -3.07122e+12 -2.19418e+12 -3.78378e+12 -4.05998e+12 -3.03031e+12 -1.83652e+12 -3.82813e+12 -3.13166e+12 -2.80974e+12 -3.84845e+12 -1.48922e+12 -3.57661e+12 -4.70071e+12 -5.09287e+12 -2.04323e+12 -2.03395e+12 -2.39603e+12 -4.78762e+12 -4.30881e+12 -2.22039e+12 -5.14609e+12 -5.12836e+12 -5.43698e+12 -3.7962e+12 -4.02635e+12 -3.30093e+12 -3.90787e+12 -3.27586e+12 -4.08373e+12 -4.84375e+12 -4.46831e+12 -2.83454e+12 -5.37324e+12 -2.92331e+12 -3.00926e+12 -3.82763e+12 -4.89418e+12 -3.06071e+12 -7.12536e+12 -3.85377e+12 -4.67231e+12 -3.3972e+12 -3.21589e+12 -7.83085e+12 -3.46805e+12 -2.02227e+12 -4.595e+12 -3.31035e+12 -6.18104e+12 -6.79978e+12 -3.85836e+12 -1.07384e+12 -3.07761e+12 -4.1137e+12 -3.95259e+12 -4.99341e+12 -4.43877e+12 -2.83916e+12 -3.05628e+12 -3.72193e+12 -2.55608e+12 -3.98826e+12 -2.3908e+12 -3.39589e+12 -1.31061e+12 -2.70495e+12 -1.67584e+12 -5.19202e+12 -4.89492e+12 -2.6796e+12 -3.32881e+12 -2.21712e+12 -3.44644e+12 -2.9495e+12 -2.84715e+12 -2.13634e+12 -2.3759e+12 -2.17012e+12 -1.9846e+12 -3.12536e+12 -1.48809e+12 -2.27728e+12 -3.08296e+12 -3.10423e+12 -1.94647e+12 -1.29902e+12 -2.62465e+12 -2.89611e+12 -1.36722e+12 -1.27758e+12 -1.95315e+12 -2.45301e+12 -1.58274e+12 -3.04251e+12 -2.02101e+12 -1.06624e+12 -1.76253e+12 -2.27173e+12 -2.04022e+12 -2.3102e+12 -1.38523e+12 -2.32783e+12 -2.06555e+12 -959779000000.0 -1.70358e+12 -1.5995e+12 -2.30476e+12 -1.56691e+12 -1.54943e+12 -1.93933e+12 -2.28737e+12 -3.22913e+12 -2.58727e+12 -1.72299e+12 -1.32289e+12 -1.60326e+12 -2.35466e+12 -4.04285e+12 -2.72865e+12 -4.86229e+12 -1.74035e+12 -3.72213e+12 -3.60751e+12 -2.81013e+12 -3.08688e+12 -1.66581e+12 -2.66386e+12 -1.76076e+12 -3.8317e+12 -3.64624e+12 -1.84862e+12 -1.52116e+12 -3.13268e+12 -1.8825e+12 -3.92357e+12 -4.09618e+12 -1.65467e+12 -2.20466e+12 -5.72337e+12 -3.6601e+12 -2.94722e+12 -835963000000.0 -1.98239e+12 -4.20045e+12 -1.76168e+12 -5.38023e+12 -3.57778e+12 -1.88878e+12 -3.07966e+12 -4.73594e+12 -4.38377e+12 -4.08542e+12 -2.26736e+12 -3.29885e+12 -1.43199e+12 -3.24977e+12 -4.07575e+12 -6.37141e+12 -4.00121e+12 -4.17896e+12 -2.4208e+12 -4.77767e+12 -2.68207e+12 -2.7971e+12 -1.61729e+12 -1.94595e+12 -4.9909e+12 -5.21276e+12 -3.60657e+12 -3.65786e+12 -3.09847e+12 -2.82195e+12 -2.23507e+12 -4.4662e+12 -3.50933e+12 -3.03751e+12 -4.99006e+12 -3.38977e+12 -4.09171e+12 -4.64839e+12 -2.2032e+12 -1.65696e+12 -3.7428e+12 -3.70041e+12 -1.37009e+12 -1.62436e+12 -3.56107e+12 -3.65734e+12 -1.35288e+12 -3.18472e+12 -424316000000.0 -3.29819e+12 -1.85594e+12 -2.56494e+12 -2.582e+12 -3.51245e+12 -1.34668e+12 -2.67508e+12 -1.20443e+12 -2.1887e+12 -1.38816e+12 -4.37328e+12 -3.33875e+12 -945909000000.0 -1.00163e+12 -2.05773e+12 -2.43241e+12 -1.67904e+12 -2.46077e+12 -1.70052e+12 -1.28765e+12 -2.18551e+12 -1.16191e+12 -2.00173e+12 -1.53057e+12 -2.42898e+12 -318806000000.0 -2.19257e+12 -1.10372e+12 -2.88412e+12 -1.24203e+12 -2.29048e+12 -2.06112e+12 -839600000000.0 -2.1471e+12 -1.74553e+12 -2.83175e+12 -1.11172e+12 -2.39038e+12 -2.42404e+12 -1.34035e+12 -1.48161e+12 -2.23093e+12 -748440000000.0 -2.26372e+12 -582456000000.0 -551953000000.0 -1.34889e+12 -1.75823e+12 -1.9012e+12 -1.50232e+12 -1.44865e+12 -538962000000.0 -2.7266e+12 -1.55167e+12 -2.10496e+12 -1.9354e+12 -2.55465e+12 -2.69322e+12 -3.2091e+12 -452003000000.0 -2.03367e+12 -3.34867e+12 -4.2696e+12 -2.40269e+12 -2.79708e+12 -944163000000.0 -1.94593e+12 -2.49724e+12 -1.31868e+12 -2.74616e+12 -2.78969e+12 -2.08301e+12 -2.81579e+12 -3.07344e+12 -2.44842e+12 -1.73335e+12 -4.13622e+12 -3.8322e+12 -3.44433e+12 -2.65426e+12 -2.60488e+12 -2.1117e+12 -3.74177e+12 -1.32227e+12 -3.52951e+12 -2.92847e+12 -945827000000.0 -2.39896e+12 -4.36755e+12 -2.36404e+12 -5.25712e+12 -2.34131e+12 -4.64604e+12 -3.74855e+12 -2.26539e+12 -4.5755e+12 -781538000000.0 -4.57617e+12 -3.40773e+12 -2.86794e+12 -3.55469e+12 -3.01762e+12 -4.49426e+12 -2.08358e+12 -4.06634e+12 -1.62796e+12 -2.79137e+12 -2.53787e+12 -3.00704e+12 -3.70767e+12 -2.13345e+12 -2.02719e+12 -3.06541e+12 -2.60625e+12 -2.87764e+12 -2.67781e+12 -2.32842e+12 -2.78441e+12 -2.97508e+12 -2.06207e+12 -1.44851e+12 -1.60938e+12 -975396000000.0 -3.0125e+12 -1.60645e+12 -2.42301e+12 -1.44844e+12 -1.76521e+12 -1.17098e+12 -2.31235e+12 -1.74139e+12 -2.23046e+12 -3.14121e+12 -2.04477e+12 -1.94634e+12 -1.14434e+12 -1.64055e+12 -1.65543e+12 -1.40668e+12 -1.67965e+12 -1.41581e+12 -1.46039e+12 -1.00617e+12 -1.03004e+12 -944082000000.0 -2.05854e+12 -2.02077e+12 -1.04813e+12 -557634000000.0 -1.44329e+12 -725557000000.0 -1.66854e+12 -2.5134e+12 -1.01683e+12 -1.20743e+12 -829539000000.0 -2.11339e+12 -234971000000.0 -1.85127e+12 -2.28612e+12 -1.40488e+12 -929754000000.0 -1.42157e+12 -623027000000.0 -919846000000.0 -591491000000.0 -943256000000.0 -1.19503e+12 -606104000000.0 -763403000000.0 -1.41582e+12 -1.89817e+12 -1.82277e+12 -2.17004e+12 -1.36674e+12 -1.0505e+12 -1.48085e+12 -2.12346e+12 -1.82215e+12 -1.0231e+12 -1.31287e+12 -2.08816e+12 -1.65634e+12 -2.45732e+12 -2.70971e+12 -1.94999e+12 -1.83426e+12 -1.46034e+12 -2.50043e+12 -3.84661e+12 -1.86703e+12 -772379000000.0 -593071000000.0 -1.11728e+12 -1.71001e+12 -857598000000.0 -1.34307e+12 -1.85335e+12 -1.72567e+12 -3.94827e+12 -1.85915e+12 -382972000000.0 -3.01267e+12 -2.30545e+12 -1.77264e+12 -2.7831e+12 -3.33279e+12 -3.02703e+12 -3.85506e+12 -1.71765e+12 -3.56459e+12 -1.33348e+12 -2.69443e+12 -2.40853e+12 -2.01322e+12 -3.68106e+12 -4.46105e+12 -1.65232e+12 -1.39178e+12 -3.63011e+12 -2.73481e+12 -1.44705e+12 -1.10763e+12 -4.49349e+12 -2.03778e+12 -2.07621e+12 -1.73969e+12 -1.97097e+12 -2.06663e+12 -1.43476e+12 -2.80791e+12 -2.07954e+12 -622295000000.0 -2.55054e+12 -715545000000.0 -3.19501e+12 -2.45032e+12 -1.31961e+12 -1.71467e+12 -1.11583e+12 -1.4533e+12 -2.50557e+12 -3.08564e+12 -1.97423e+12 -1.81669e+12 -2.16546e+12 -959962000000.0 -2.28822e+12 -1.77885e+12 -2.36188e+12 -1.23671e+12 -2.63536e+12 -2.83115e+12 -1.66431e+12 -1.32363e+12 -2.43435e+12 -2.54598e+12 -1.53459e+12 -2.41748e+12 -209213000000.0 -1.1482e+12 -1.36287e+12 -1.64551e+12 -861530000000.0 -1.60348e+12 -1.43097e+12 -1.36883e+12 -1.5166e+12 -501236000000.0 -966723000000.0 -1.45905e+12 -742612000000.0 -1.25852e+12 -631467000000.0 -466015000000.0 -1.08348e+12 -1.08522e+12 -182875000000.0 -357879000000.0 -291223000000.0 -1.46396e+12 -654704000000.0 -693560000000.0 -739272000000.0 -411925000000.0 -907011000000.0 -917176000000.0 -516700000000.0 -328755000000.0 -608276000000.0 -560980000000.0 -618472000000.0 -1.32635e+12 -625178000000.0 -1.01314e+12 -1.88837e+12 -677441000000.0 -501991000000.0 -1.06151e+12 -1.18189e+12 -1.37196e+12 -954597000000.0 -1.5304e+12 -2.64049e+12 -2.21592e+12 -1.40416e+12 -1.48899e+12 -1.79757e+12 -1.11767e+12 -1.5206e+12 -1.00959e+12 -1.32201e+12 -2.54827e+12 -2.84447e+12 -3.29971e+12 -873909000000.0 -1.50163e+12 -3.27593e+12 -1.2193e+12 -1.48211e+12 -2.01608e+12 -1.45371e+12 -1.81766e+12 -1.48084e+12 -2.55242e+12 -1.12162e+12 -1.77664e+12 -2.71327e+12 -1.12216e+12 -3.35586e+12 -2.49501e+12 -2.20145e+12 -2.09436e+12 -1.48031e+12 -4.14883e+12 -1.88406e+12 -2.27347e+12 -519991000000.0 -2.12421e+12 -2.64699e+12 -2.16723e+12 -2.07432e+12 -1.68244e+12 -1.75877e+12 -3.10882e+12 -2.42738e+12 -1.94121e+12 -1.83187e+12 -2.40975e+12 -1.00458e+12 -1.26519e+12 -851060000000.0 -1.6569e+12 -847852000000.0 -1.46646e+12 -2.11105e+12 -1.32809e+12 -2.32056e+12 -1.37402e+12 -2.03968e+12 -653352000000.0 -3.63544e+12 -1.93405e+12 -1.62528e+12 -1.27513e+12 -1.28108e+12 -2.194e+12 -2.27803e+12 -749142000000.0 -1.3355e+12 -1.31474e+12 -2.02065e+12 -918451000000.0 -930097000000.0 -1.96054e+12 -2.18343e+12 -782742000000.0 -1.11993e+12 -836810000000.0 -1.68158e+12 -451710000000.0 -837932000000.0 -1.41981e+12 -754086000000.0 -901399000000.0 -307377000000.0 -666529000000.0 -536948000000.0 -308874000000.0 -284856000000.0 -619068000000.0 -501178000000.0 -402426000000.0 -367132000000.0 -601573000000.0 -744106000000.0 -867905000000.0 -741426000000.0 -537882000000.0 -666863000000.0 -489743000000.0 -115033000000.0 -558856000000.0 -1.15874e+12 -164803000000.0 -686429000000.0 -409139000000.0 -469870000000.0 -1.42075e+12 -441866000000.0 -384881000000.0 -731901000000.0 -832639000000.0 -643121000000.0 -802432000000.0 -1.541e+12 -1.10495e+12 -1.50485e+12 -846960000000.0 -578219000000.0 -1.12969e+12 -657492000000.0 -1.32965e+12 -304756000000.0 -1.03928e+12 -1.29919e+12 -1.00855e+12 -1.39535e+12 -1.12063e+12 -1.25751e+12 -1.61561e+12 -2.89731e+12 -2.78499e+12 -2.57717e+12 -1.5075e+12 -1.84299e+12 -2.62469e+12 -1.31662e+12 -1.16427e+12 -2.79088e+12 -2.71955e+12 -1.06531e+12 -1.2847e+12 -2.01414e+12 -2.35878e+12 -2.09929e+12 -1.94107e+12 -1.44607e+12 -1.76259e+12 -594302000000.0 -1.906e+12 -1.2495e+12 -1.38698e+12 -1.23655e+12 -2.18175e+12 -236640000000.0 -701648000000.0 -1.53766e+12 -1.23047e+12 -576801000000.0 -543143000000.0 -1.09031e+12 -624765000000.0 -2.27436e+12 -1.00283e+12 -1.50904e+12 -1.12495e+12 -1.59013e+12 -1.28405e+12 -1.57062e+12 -631136000000.0 -1.00097e+12 -596914000000.0 -1.39745e+12 -1.83867e+12 -930622000000.0 -2.09885e+12 -1.00289e+12 -579024000000.0 -1.22974e+12 -127689000000.0 -397222000000.0 -692970000000.0 -430226000000.0 -2.03592e+12 -1.17377e+12 -882354000000.0 -881327000000.0 -471015000000.0 -573987000000.0 -947171000000.0 -523819000000.0 -456539000000.0 -339829000000.0 -477795000000.0 -603796000000.0 -272981000000.0 -234595000000.0 -341362000000.0 -282486000000.0 -888215000000.0 -897859000000.0 -430963000000.0 -498580000000.0 -428024000000.0 -112272000000.0 -123823000000.0 -185845000000.0 -121976000000.0 -185381000000.0 -103674000000.0 -186617000000.0 -51837700000.0 -128841000000.0 -421648000000.0 -391384000000.0 -365403000000.0 -217916000000.0 -740025000000.0 -217171000000.0 -211382000000.0 -393714000000.0 -542370000000.0 -782087000000.0 -418476000000.0 -477301000000.0 -554827000000.0 -402565000000.0 -222572000000.0 -813834000000.0 -399091000000.0 -553013000000.0 -1.05221e+12 -430648000000.0 -653132000000.0 -1.33661e+12 -1.76263e+12 -1.52904e+12 -1.02941e+12 -852824000000.0 -1.56987e+12 -993587000000.0 -464202000000.0 -827360000000.0 -821530000000.0 -824454000000.0 -1.35304e+12 -723322000000.0 -1.30579e+12 -1.15299e+12 -865897000000.0 -1.20804e+12 -1.30902e+12 -1.14676e+12 -1.68895e+12 -1.5313e+12 -2.09158e+12 -2.04868e+12 -1.83112e+12 -1.31008e+12 -447049000000.0 -1.6878e+12 -1.3307e+12 -1.57039e+12 -1.3006e+12 -971939000000.0 -1.2665e+12 -731394000000.0 -962052000000.0 -542549000000.0 -1.4729e+12 -619243000000.0 -1.0325e+12 -525633000000.0 -455286000000.0 -1.27006e+12 -986517000000.0 -1.10937e+12 -837029000000.0 -713446000000.0 -1.04794e+12 -708393000000.0 -1.54714e+12 -745624000000.0 -378017000000.0 -643798000000.0 -531526000000.0 -647646000000.0 -572281000000.0 -543389000000.0 -909039000000.0 -711489000000.0 -388273000000.0 -648472000000.0 -693222000000.0 -1.0812e+12 -792258000000.0 -870379000000.0 -786659000000.0 -583810000000.0 -682042000000.0 -457466000000.0 -468793000000.0 -471490000000.0 -111720000000.0 -288248000000.0 -613116000000.0 -239055000000.0 -318349000000.0 -369685000000.0 -211094000000.0 -170018000000.0 -161058000000.0 -239301000000.0 -60722600000.0 -101438000000.0 -223626000000.0 -206266000000.0 -64731500000.0 -62470000000.0 -590848000000.0 -394791000000.0 -338363000000.0 -456471000000.0 -390413000000.0 -208895000000.0 -205613000000.0 -557855000000.0 -221233000000.0 -474162000000.0 -735494000000.0 -221249000000.0 -694779000000.0 -1.36379e+12 -78031900000.0 -776188000000.0 -241881000000.0 -436537000000.0 -1.16044e+12 -238420000000.0 -585536000000.0 -728591000000.0 -558479000000.0 -1.15e+12 -685545000000.0 -1.22928e+12 -688854000000.0 -1.40578e+12 -294060000000.0 -901694000000.0 -368834000000.0 -904103000000.0 -324753000000.0 -1.34951e+12 -856987000000.0 -268588000000.0 -771379000000.0 -1.03454e+12 -546812000000.0 -167758000000.0 -127182000000.0 -382286000000.0 -576999000000.0 -252355000000.0 -262147000000.0 -639003000000.0 -200112000000.0 -64417800000.0 -340800000000.0 -160716000000.0 -199510000000.0 -176692000000.0 -272024000000.0 -124931000000.0 -245545000000.0 -680876000000.0 -58321000000.0 -121998000000.0 -251595000000.0 -254408000000.0 -142810000000.0 -186935000000.0 -226229000000.0 -212625000000.0 -117398000000.0 -108604000000.0 -239793000000.0 -92303900000.0 -259104000000.0 -104480000000.0 -117526000000.0 -101845000000.0 -134890000000.0 -78375100000.0 -140175000000.0 -231261000000.0 -214991000000.0 -121205000000.0 -117437000000.0 -254798000000.0 -188970000000.0 -522993000000.0 -183421000000.0 -679999000000.0 -350587000000.0 -393102000000.0 -117295000000.0 -99815600000.0 -636409000000.0 -98588400000.0 -444462000000.0 -748050000000.0 -980831000000.0 -273918000000.0 -523176000000.0 -865942000000.0 -697715000000.0 -142982000000.0 -54247200000.0 -340333000000.0 -338695000000.0 -209291000000.0 -178258000000.0 -134019000000.0 -174329000000.0 -289711000000.0 -107747000000.0 -143786000000.0 -96178700000.0 