# vtk DataFile Version 2.0
Time step 42
ASCII
DATASET UNSTRUCTURED_GRID
POINTS 5000 float
2398.29 104556.0 0
8533.23 103930.0 0
12438.9 103764.0 0
16747.6 103082.0 0
22243.6 104729.0 0
27669.4 101465.0 0
33204.4 104152.0 0
38184.8 104736.0 0
42703.4 104889.0 0
47472.4 104795.0 0
52137.1 104895.0 0
57005.0 103734.0 0
62763.5 104810.0 0
67994.7 104943.0 0
72702.5 104076.0 0
77500.0 104823.0 0
82500.0 104812.0 0
87407.7 104110.0 0
92500.0 104850.0 0
97192.6 104872.0 0
101292.0 104789.0 0
105946.0 104179.0 0
111936.0 104658.0 0
117850.0 104843.0 0
123330.0 104919.0 0
128345.0 105040.0 0
133428.0 104289.0 0
138124.0 104972.0 0
142500.0 104894.0 0
147500.0 104827.0 0
152501.0 104797.0 0
157589.0 104425.0 0
162561.0 104580.0 0
167010.0 104122.0 0
171830.0 103005.0 0
177734.0 103043.0 0
182938.0 102229.0 0
187393.0 104084.0 0
196079.0 104408.0 0
201747.0 103768.0 0
207650.0 104532.0 0
212985.0 103868.0 0
218128.0 104954.0 0
222479.0 104966.0 0
225794.0 104196.0 0
230434.0 104068.0 0
235810.0 105065.0 0
241170.0 103770.0 0
252680.0 103755.0 0
259052.0 104230.0 0
268740.0 104227.0 0
273935.0 104523.0 0
278881.0 103174.0 0
286325.0 104814.0 0
297319.0 103139.0 0
303664.0 103923.0 0
312126.0 104348.0 0
317928.0 104965.0 0
323245.0 104870.0 0
327581.0 105141.0 0
332206.0 104739.0 0
337223.0 104449.0 0
345896.0 103995.0 0
355259.0 104901.0 0
361815.0 103541.0 0
372012.0 101560.0 0
367954.0 104875.0 0
377031.0 103531.0 0
382609.0 104405.0 0
388132.0 103706.0 0
394019.0 103022.0 0
399200.0 104691.0 0
403650.0 101948.0 0
408587.0 103160.0 0
412474.0 104811.0 0
417500.0 104856.0 0
422737.0 102967.0 0
427271.0 104676.0 0
432478.0 102479.0 0
437540.0 104832.0 0
442089.0 103774.0 0
446251.0 103355.0 0
450665.0 104123.0 0
455208.0 104063.0 0
460242.0 103907.0 0
465794.0 104296.0 0
471628.0 103552.0 0
477063.0 102356.0 0
485844.0 102287.0 0
491674.0 103826.0 0
497601.0 102320.0 0
2284.5 109571.0 0
6062.08 107250.0 0
11086.9 108281.0 0
17332.2 108984.0 0
23005.1 110240.0 0
28519.1 107817.0 0
34968.9 109427.0 0
40341.4 109745.0 0
44464.2 110087.0 0
48279.4 108790.0 0
52500.0 109855.0 0
57995.1 109176.0 0
62849.9 109909.0 0
67505.2 109581.0 0
72116.1 109196.0 0
77500.0 109981.0 0
82116.1 109627.0 0
87907.8 108868.0 0
92500.0 109990.0 0
97183.5 109619.0 0
102467.0 109523.0 0
108243.0 108770.0 0
112500.0 109926.0 0
117500.0 110008.0 0
122500.0 109931.0 0
127727.0 109473.0 0
132494.0 109824.0 0
137520.0 109839.0 0
142774.0 109316.0 0
146926.0 109664.0 0
151938.0 109542.0 0
156861.0 108474.0 0
161296.0 109294.0 0
166509.0 108793.0 0
172971.0 108574.0 0
178375.0 108455.0 0
183532.0 107297.0 0
188603.0 108529.0 0
192498.0 105245.0 0
193570.0 109390.0 0
198250.0 108753.0 0
203920.0 109388.0 0
213692.0 108418.0 0
209357.0 109602.0 0
217601.0 110024.0 0
222033.0 109791.0 0
226801.0 108431.0 0
232205.0 109492.0 0
243283.0 110141.0 0
246502.0 105771.0 0
248462.0 109845.0 0
257263.0 108868.0 0
263773.0 105318.0 0
262325.0 109494.0 0
267062.0 109070.0 0
271611.0 108374.0 0
277074.0 108778.0 0
282030.0 106506.0 0
282828.0 110193.0 0
287500.0 109904.0 0
291717.0 105270.0 0
292912.0 109761.0 0
298249.0 108649.0 0
303118.0 109594.0 0
307730.0 106493.0 0
307441.0 109786.0 0
312501.0 110099.0 0
317476.0 109841.0 0
322433.0 109338.0 0
327500.0 109884.0 0
332500.0 109957.0 0
341019.0 105659.0 0
337713.0 109290.0 0
343307.0 108685.0 0
350687.0 105917.0 0
347752.0 109082.0 0
352668.0 109807.0 0
361441.0 108854.0 0
357755.0 109322.0 0
365114.0 108547.0 0
372930.0 108360.0 0
378819.0 108082.0 0
382004.0 109220.0 0
388375.0 108794.0 0
393554.0 109169.0 0
402999.0 108148.0 0
398136.0 109603.0 0
408388.0 107441.0 0
412864.0 108753.0 0
417519.0 109371.0 0
422128.0 107604.0 0
428326.0 109618.0 0
433428.0 107713.0 0
437510.0 109901.0 0
443214.0 108056.0 0
447601.0 107365.0 0
451945.0 108600.0 0
457176.0 108790.0 0
462429.0 110279.0 0
466599.0 108865.0 0
470193.0 110045.0 0
475181.0 108845.0 0
481305.0 105219.0 0
486589.0 108477.0 0
496837.0 107829.0 0
6739.14 112295.0 0
11843.4 114112.0 0
16323.5 114191.0 0
20503.0 114202.0 0
27043.3 114649.0 0
32615.7 114483.0 0
38263.3 114258.0 0
42970.2 114644.0 0
47588.6 113511.0 0
51800.3 115276.0 0
56554.3 114796.0 0
62114.9 114766.0 0
67697.5 114425.0 0
73695.5 114738.0 0
78211.1 115178.0 0
81954.6 114353.0 0
86960.4 114384.0 0
92531.5 114741.0 0
97548.4 114138.0 0
102630.0 115285.0 0
107924.0 113550.0 0
116732.0 114611.0 0
112494.0 114823.0 0
120857.0 114461.0 0
125864.0 113841.0 0
140992.0 113437.0 0
146306.0 114555.0 0
156245.0 113034.0 0
161703.0 114985.0 0
169997.0 113360.0 0
176294.0 114213.0 0
182187.0 112436.0 0
188049.0 114691.0 0
194261.0 114416.0 0
199972.0 113858.0 0
208111.0 114511.0 0
204288.0 114853.0 0
213300.0 113229.0 0
217709.0 114958.0 0
222564.0 114065.0 0
226872.0 113436.0 0
232444.0 114957.0 0
237686.0 110317.0 0
237422.0 114742.0 0
241792.0 115396.0 0
246842.0 113913.0 0
252678.0 110315.0 0
251784.0 115207.0 0
257737.0 113620.0 0
262719.0 114272.0 0
267489.0 113525.0 0
273047.0 113615.0 0
279878.0 112841.0 0
283554.0 115126.0 0
287216.0 115194.0 0
291017.0 114068.0 0
296734.0 113693.0 0
302234.0 114829.0 0
307700.0 114216.0 0
313207.0 115341.0 0
318189.0 114331.0 0
322509.0 113343.0 0
326812.0 115225.0 0
336511.0 113955.0 0
331856.0 114941.0 0
341414.0 112890.0 0
346845.0 113468.0 0
351893.0 114642.0 0
356026.0 113195.0 0
361260.0 113556.0 0
366513.0 112628.0 0
371101.0 114501.0 0
377673.0 114017.0 0
384354.0 112558.0 0
392424.0 113991.0 0
397217.0 113951.0 0
402858.0 114389.0 0
409243.0 113086.0 0
419144.0 114061.0 0
424121.0 112421.0 0
432249.0 113336.0 0
437341.0 114074.0 0
442358.0 113293.0 0
448275.0 112437.0 0
454178.0 114004.0 0
458991.0 115054.0 0
463187.0 114817.0 0
467519.0 114925.0 0
472372.0 113368.0 0
477746.0 114316.0 0
480797.0 110494.0 0
482622.0 115189.0 0
492077.0 110727.0 0
491506.0 114789.0 0
496591.0 114398.0 0
2238.62 115494.0 0
2182.12 119908.0 0
8050.25 118136.0 0
13471.8 118738.0 0
17752.3 118036.0 0
22417.2 118575.0 0
32072.3 118770.0 0
37588.9 119463.0 0
43205.5 119708.0 0
49063.5 118302.0 0
53807.2 119976.0 0
59222.9 119474.0 0
63616.9 119098.0 0
68064.9 120097.0 0
72603.0 119614.0 0
77068.8 119098.0 0
82136.1 119374.0 0
87334.1 119558.0 0
92269.2 120071.0 0
97732.2 119491.0 0
107685.0 119048.0 0
113113.0 119153.0 0
118139.0 119087.0 0
123420.0 118449.0 0
127500.0 120005.0 0
131158.0 115540.0 0
136445.0 115492.0 0
137738.0 119406.0 0
132691.0 120368.0 0
142524.0 119556.0 0
151834.0 116153.0 0
148002.0 119164.0 0
156828.0 118429.0 0
160406.0 119798.0 0
166528.0 116803.0 0
164429.0 120507.0 0
170842.0 119389.0 0
182233.0 117915.0 0
186625.0 120325.0 0
191646.0 119813.0 0
197223.0 119143.0 0
203055.0 118997.0 0
214360.0 118900.0 0
218717.0 120207.0 0
222021.0 118323.0 0
227506.0 118986.0 0
234332.0 119337.0 0
237874.0 118067.0 0
241749.0 119997.0 0
246211.0 119098.0 0
251518.0 120465.0 0
255872.0 118336.0 0
260337.0 118006.0 0
266350.0 118208.0 0
271757.0 119884.0 0
278361.0 118344.0 0
284358.0 119865.0 0
288758.0 118347.0 0
292983.0 120063.0 0
298941.0 119993.0 0
303985.0 120225.0 0
307500.0 120048.0 0
316256.0 119045.0 0
312166.0 119867.0 0
321078.0 118570.0 0
325851.0 120158.0 0
329893.0 118768.0 0
339780.0 118281.0 0
346088.0 119723.0 0
352844.0 120218.0 0
357350.0 117153.0 0
361674.0 119544.0 0
366551.0 117321.0 0
371934.0 120135.0 0
382813.0 118074.0 0
387369.0 119932.0 0
388338.0 115746.0 0
399508.0 119559.0 0
408059.0 118435.0 0
404321.0 119585.0 0
412347.0 120104.0 0
414412.0 115640.0 0
416949.0 119443.0 0
427685.0 115457.0 0
425658.0 119084.0 0
431066.0 119528.0 0
437115.0 118269.0 0
441812.0 118879.0 0
446525.0 117435.0 0
450849.0 117933.0 0
455408.0 119777.0 0
461201.0 119467.0 0
466976.0 119251.0 0
472594.0 118327.0 0
478847.0 119816.0 0
487506.0 116291.0 0
484705.0 120329.0 0
492124.0 118644.0 0
1482.5 124584.0 0
7154.66 124443.0 0
11904.9 122478.0 0
17161.3 123215.0 0
23052.8 123959.0 0
26988.6 120572.0 0
30224.1 123310.0 0
34874.9 124104.0 0
39764.1 123526.0 0
43682.8 125361.0 0
48582.2 123526.0 0
57213.3 123867.0 0
63065.0 123873.0 0
68310.7 125273.0 0
73401.0 123672.0 0
78302.1 124246.0 0
83593.4 124315.0 0
88397.8 124375.0 0
92508.5 124914.0 0
97237.0 124906.0 0
101195.0 124971.0 0
102767.0 120742.0 0
105586.0 124564.0 0
111306.0 123737.0 0
116640.0 124345.0 0
122098.0 123639.0 0
126931.0 124048.0 0
131218.0 124749.0 0
136577.0 123956.0 0
142212.0 125249.0 0
147011.0 123441.0 0
151801.0 125374.0 0
153419.0 120807.0 0
157942.0 124366.0 0
167047.0 123381.0 0
163657.0 124992.0 0
171003.0 125397.0 0
177032.0 120781.0 0
182933.0 124835.0 0
193693.0 123898.0 0
189204.0 124731.0 0
198249.0 125030.0 0
203175.0 124098.0 0
208748.0 120857.0 0
212115.0 125108.0 0
216320.0 123517.0 0
221176.0 123856.0 0
231983.0 123836.0 0
237943.0 122803.0 0
242843.0 124653.0 0
248029.0 124177.0 0
252898.0 124493.0 0
257727.0 123518.0 0
262637.0 121580.0 0
267588.0 124159.0 0
278480.0 124998.0 0
283574.0 124452.0 0
288835.0 123668.0 0
293487.0 124661.0 0
302639.0 124530.0 0
307115.0 124890.0 0
311941.0 124608.0 0
316966.0 123482.0 0
322296.0 124165.0 0
330938.0 124283.0 0
327151.0 125028.0 0
334357.0 120764.0 0
341521.0 123774.0 0
337122.0 124661.0 0
357892.0 123731.0 0
367104.0 122228.0 0
362982.0 124518.0 0
377880.0 121468.0 0
383272.0 124086.0 0
388209.0 124112.0 0
393045.0 120663.0 0
397892.0 125495.0 0
403054.0 123561.0 0
408162.0 123285.0 0
414684.0 123752.0 0
417929.0 125004.0 0
421365.0 120691.0 0
422499.0 125552.0 0
427477.0 123535.0 0
431262.0 124956.0 0
436126.0 123253.0 0
441995.0 124539.0 0
448330.0 122946.0 0
454027.0 124937.0 0
459445.0 125079.0 0
464981.0 124357.0 0
473888.0 123543.0 0
469646.0 125209.0 0
481986.0 124769.0 0
489148.0 121054.0 0
486773.0 124665.0 0
492177.0 125221.0 0
496754.0 121040.0 0
2749.61 128622.0 0
12670.9 126983.0 0
18088.3 128985.0 0
23745.4 129717.0 0
28648.4 127356.0 0
33632.7 129660.0 0
39134.8 128367.0 0
43745.4 129571.0 0
48694.1 129496.0 0
53134.7 125977.0 0
54181.6 130681.0 0
59720.1 128878.0 0
64871.6 129978.0 0
68289.7 129463.0 0
72212.6 127551.0 0
76319.4 129142.0 0
81940.6 129736.0 0
87885.8 129444.0 0
96906.4 129479.0 0
92636.8 129840.0 0
101491.0 129608.0 0
106437.0 129900.0 0
111043.0 128586.0 0
115385.0 129062.0 0
120870.0 129663.0 0
127440.0 129312.0 0
133301.0 129202.0 0
138726.0 129689.0 0
143743.0 129856.0 0
148389.0 129459.0 0
152799.0 129963.0 0
157000.0 130064.0 0
161442.0 128841.0 0
166774.0 128733.0 0
176728.0 127072.0 0
186882.0 129732.0 0
192410.0 129239.0 0
202629.0 128674.0 0
207321.0 126237.0 0
210631.0 129636.0 0
216384.0 129412.0 0
222686.0 129499.0 0
226331.0 125624.0 0
236017.0 127786.0 0
240938.0 130220.0 0
250905.0 128643.0 0
256764.0 129725.0 0
262830.0 127159.0 0
268273.0 129516.0 0
272698.0 125769.0 0
272894.0 130665.0 0
282084.0 128382.0 0
287110.0 129754.0 0
293046.0 129080.0 0
297507.0 126038.0 0
301871.0 128457.0 0
306177.0 130371.0 0
311437.0 130336.0 0
316864.0 128607.0 0
322341.0 130085.0 0
328008.0 129639.0 0
333888.0 128512.0 0
346659.0 125689.0 0
342204.0 129755.0 0
351578.0 125869.0 0
347982.0 130442.0 0
355551.0 127995.0 0
352293.0 130146.0 0
360517.0 129260.0 0
366514.0 129369.0 0
370165.0 125676.0 0
374542.0 125691.0 0
372526.0 130633.0 0
378546.0 129041.0 0
383422.0 128224.0 0
387241.0 128583.0 0
392170.0 126909.0 0
400401.0 129794.0 0
405311.0 128801.0 0
411971.0 127869.0 0
417776.0 129741.0 0
422968.0 130421.0 0
427293.0 127788.0 0
432240.0 129546.0 0
437084.0 128585.0 0
441852.0 130146.0 0
447111.0 129111.0 0
452640.0 130126.0 0
458109.0 130441.0 0
462539.0 130037.0 0
466555.0 129039.0 0
471813.0 129775.0 0
477663.0 126616.0 0
482254.0 130126.0 0
487738.0 129513.0 0
497457.0 126776.0 0
3057.87 134421.0 0
7838.96 130964.0 0
13609.7 132831.0 0
23880.2 135419.0 0
28782.4 132699.0 0
33719.7 135364.0 0
38541.7 133553.0 0
43271.3 133828.0 0
49672.0 134389.0 0
53686.9 135426.0 0
58566.3 134746.0 0
63416.6 133925.0 0
67007.1 134387.0 0
71705.5 132887.0 0
77975.3 134472.0 0
83400.2 135817.0 0
88019.0 134477.0 0
93070.6 134459.0 0
98000.0 133949.0 0
105783.0 134337.0 0
102078.0 135601.0 0
110766.0 133939.0 0
116642.0 133841.0 0
126500.0 134573.0 0
122654.0 135132.0 0
131193.0 133897.0 0
135219.0 135722.0 0
139747.0 135240.0 0
145104.0 134450.0 0
150851.0 134509.0 0
156884.0 135421.0 0
162036.0 133504.0 0
167180.0 133830.0 0
172235.0 131181.0 0
177078.0 131397.0 0
176185.0 135122.0 0
181363.0 131445.0 0
185795.0 135017.0 0
191577.0 135118.0 0
197843.0 130739.0 0
202645.0 134111.0 0
206636.0 130849.0 0
207608.0 134872.0 0
212134.0 134017.0 0
217212.0 135799.0 0
223347.0 135469.0 0
228326.0 131168.0 0
233994.0 132324.0 0
243836.0 135263.0 0
246423.0 130772.0 0
248990.0 134875.0 0
252376.0 132918.0 0
262543.0 134321.0 0
268735.0 134485.0 0
273494.0 135212.0 0
277851.0 131007.0 0
282796.0 133760.0 0
287975.0 135745.0 0
293224.0 134414.0 0
297883.0 131395.0 0
302611.0 134304.0 0
308390.0 135286.0 0
313173.0 134879.0 0
317437.0 134361.0 0
325880.0 133622.0 0
322201.0 135661.0 0
329966.0 134802.0 0
335030.0 135348.0 0
337523.0 131938.0 0
340297.0 135756.0 0
351084.0 134613.0 0
356011.0 132590.0 0
360814.0 135137.0 0
366436.0 135114.0 0
371143.0 135569.0 0
383497.0 132671.0 0
390733.0 131543.0 0
396043.0 131319.0 0
403887.0 134838.0 0
409494.0 133467.0 0
414469.0 133718.0 0
417767.0 133876.0 0
420956.0 134232.0 0
427627.0 134299.0 0
433304.0 133912.0 0
437889.0 133564.0 0
442651.0 135039.0 0
448517.0 134996.0 0
453997.0 134992.0 0
458540.0 135410.0 0
462991.0 135191.0 0
467794.0 134019.0 0
472983.0 135521.0 0
476954.0 131335.0 0
479981.0 135240.0 0
484309.0 135093.0 0
488548.0 134640.0 0
492469.0 131076.0 0
492635.0 135231.0 0
497459.0 131859.0 0
2142.5 140325.0 0
8752.11 136847.0 0
13671.6 140474.0 0
18380.0 136566.0 0
22344.2 139905.0 0
27491.7 140351.0 0
32329.6 139615.0 0
37271.5 140163.0 0
46373.3 138190.0 0
51408.3 140578.0 0
57400.0 140876.0 0
63644.9 139094.0 0
68688.9 137669.0 0
73557.4 140738.0 0
79820.7 139950.0 0
85124.2 140741.0 0
90126.5 138958.0 0
95037.5 140815.0 0
98603.0 138124.0 0
105637.0 138846.0 0
111336.0 140277.0 0
118204.0 139411.0 0
123813.0 139660.0 0
128387.0 137990.0 0
133268.0 140066.0 0
137790.0 139180.0 0
141902.0 140033.0 0
147422.0 139761.0 0
152993.0 139717.0 0
161786.0 139072.0 0
167144.0 138800.0 0
171462.0 136506.0 0
170762.0 140537.0 0
176882.0 140116.0 0
180973.0 137047.0 0
186887.0 140043.0 0
191537.0 140423.0 0
197331.0 136268.0 0
201626.0 139583.0 0
207154.0 139840.0 0
212988.0 139528.0 0
219801.0 140887.0 0
228979.0 137163.0 0
224910.0 140790.0 0
233411.0 136791.0 0
232796.0 140572.0 0
238461.0 135984.0 0
242101.0 139513.0 0
246558.0 139239.0 0
251470.0 138838.0 0
255538.0 135826.0 0
262740.0 140395.0 0
268253.0 140102.0 0
274071.0 140173.0 0
278387.0 136397.0 0
284549.0 139794.0 0
289722.0 140676.0 0
293312.0 138773.0 0
297717.0 136673.0 0
302307.0 139991.0 0
307427.0 140551.0 0
312021.0 139051.0 0
316759.0 138955.0 0
321330.0 140794.0 0
326427.0 139246.0 0
331733.0 139753.0 0
345918.0 136480.0 0
351164.0 139789.0 0
356392.0 138158.0 0
366974.0 139985.0 0
371656.0 140051.0 0
377226.0 136297.0 0
382201.0 140223.0 0
386894.0 140571.0 0
387808.0 135847.0 0
392749.0 135873.0 0
391451.0 140380.0 0
398357.0 136834.0 0
405864.0 140611.0 0
411606.0 138990.0 0
416992.0 137601.0 0
422628.0 139231.0 0
428258.0 140384.0 0
432998.0 138556.0 0
438724.0 139210.0 0
444698.0 139920.0 0
455669.0 139386.0 0
461373.0 140279.0 0
468722.0 139244.0 0
477805.0 139751.0 0
482449.0 139921.0 0
486595.0 138795.0 0
490650.0 139246.0 0
497770.0 136620.0 0
495005.0 140601.0 0
2239.97 144897.0 0
7229.67 142926.0 0
18603.7 141508.0 0
18049.3 145965.0 0
23274.9 144758.0 0
32590.6 143089.0 0
35952.6 145981.0 0
42440.1 141485.0 0
40992.3 145704.0 0
47007.7 144672.0 0
52812.1 145321.0 0
62195.5 144489.0 0
67963.6 144555.0 0
78090.1 144546.0 0
82804.1 145458.0 0
88774.0 145280.0 0
93972.6 145658.0 0
101293.0 141481.0 0
97844.1 144182.0 0
101251.0 145766.0 0
105727.0 144339.0 0
110243.0 145715.0 0
115522.0 145290.0 0
121623.0 144492.0 0
128112.0 144029.0 0
137500.0 143122.0 0
133715.0 144901.0 0
142031.0 145300.0 0
157246.0 141335.0 0
153546.0 144536.0 0
157984.0 145513.0 0
163103.0 144910.0 0
173356.0 143785.0 0
168439.0 144071.0 0
177762.0 144558.0 0
182321.0 141868.0 0
186463.0 145310.0 0
191579.0 144934.0 0
196350.0 141715.0 0
201125.0 145176.0 0
207148.0 145901.0 0
212098.0 144461.0 0
216813.0 145674.0 0
228653.0 141257.0 0
226069.0 145318.0 0
231021.0 144605.0 0
236990.0 141225.0 0
235877.0 145863.0 0
241284.0 144423.0 0
246730.0 144176.0 0
252429.0 144350.0 0
257766.0 141093.0 0
263720.0 145899.0 0
269613.0 145765.0 0
274591.0 145155.0 0
279359.0 141920.0 0
284011.0 144255.0 0
288600.0 145690.0 0
292658.0 144098.0 0
296528.0 141595.0 0
303660.0 144945.0 0
307811.0 144870.0 0
312333.0 144279.0 0
317610.0 143991.0 0
323360.0 145783.0 0
328006.0 143910.0 0
332710.0 144866.0 0
337285.0 141056.0 0
342892.0 141087.0 0
346829.0 141047.0 0
345478.0 144762.0 0
341915.0 145016.0 0
349519.0 143981.0 0
355329.0 144358.0 0
361678.0 141242.0 0
366486.0 144705.0 0
373421.0 145202.0 0
378336.0 142903.0 0
383175.0 145867.0 0
392582.0 144751.0 0
388073.0 144976.0 0
395529.0 141133.0 0
397114.0 144990.0 0
400529.0 141943.0 0
408059.0 145368.0 0
412515.0 144236.0 0
417169.0 142728.0 0
421020.0 144779.0 0
425371.0 144416.0 0
431956.0 144200.0 0
437684.0 145450.0 0
443669.0 145501.0 0
450508.0 141675.0 0
454498.0 144632.0 0
458798.0 145570.0 0
463933.0 145395.0 0
465833.0 141922.0 0
469296.0 144730.0 0
473166.0 141093.0 0
474376.0 145629.0 0
479087.0 144639.0 0
486588.0 142999.0 0
491386.0 145067.0 0
497411.0 145218.0 0
2127.45 149265.0 0
6960.22 148810.0 0
12440.4 146537.0 0
16008.5 149971.0 0
20037.3 150250.0 0
24884.8 150010.0 0
29082.6 146324.0 0
32221.8 150689.0 0
43318.0 150126.0 0
48686.1 150670.0 0
53579.4 149849.0 0
57602.8 147037.0 0
62542.2 149721.0 0
67219.3 149807.0 0
73651.4 147444.0 0
79098.4 150066.0 0
84542.2 150057.0 0
88606.0 150315.0 0
92508.1 149765.0 0
97466.5 148573.0 0
102445.0 150192.0 0
107194.0 149091.0 0
111837.0 149878.0 0
117995.0 150798.0 0
123248.0 149724.0 0
127766.0 149416.0 0
132819.0 149971.0 0
138523.0 149226.0 0
143145.0 150129.0 0
148122.0 146343.0 0
151877.0 150129.0 0
156564.0 150346.0 0
161568.0 149844.0 0
166875.0 148946.0 0
173249.0 150005.0 0
181596.0 146440.0 0
178608.0 150154.0 0
183533.0 151091.0 0
189457.0 150160.0 0
195893.0 147466.0 0
199741.0 150192.0 0
203874.0 150773.0 0
208360.0 151040.0 0
212779.0 149119.0 0
219058.0 150422.0 0
221590.0 146491.0 0
223358.0 149991.0 0
227641.0 150020.0 0
232481.0 149316.0 0
237726.0 150324.0 0
242288.0 150746.0 0
246693.0 149013.0 0
251866.0 150601.0 0
257588.0 146340.0 0
257453.0 150637.0 0
267689.0 149954.0 0
271757.0 149517.0 0
279916.0 147264.0 0
276114.0 149984.0 0
284285.0 148668.0 0
288579.0 150929.0 0
293600.0 148640.0 0
298742.0 146300.0 0
298814.0 151060.0 0
302641.0 149888.0 0
306701.0 148741.0 0
311690.0 149972.0 0
316843.0 148823.0 0
321344.0 150716.0 0
324883.0 149675.0 0
328697.0 148622.0 0
334154.0 150489.0 0
337434.0 146369.0 0
339612.0 150276.0 0
344143.0 148978.0 0
350100.0 149637.0 0
360665.0 146430.0 0
363252.0 151094.0 0
369396.0 149494.0 0
374924.0 150521.0 0
378300.0 147400.0 0
388069.0 149476.0 0
397921.0 149170.0 0
393145.0 149823.0 0
401988.0 150416.0 0
403355.0 146090.0 0
406596.0 149992.0 0
412747.0 150131.0 0
418442.0 148162.0 0
423545.0 149580.0 0
428716.0 148223.0 0
433882.0 150685.0 0
445499.0 150220.0 0
450715.0 148107.0 0
456147.0 149714.0 0
463205.0 149439.0 0
460062.0 150177.0 0
467453.0 149995.0 0
472541.0 149928.0 0
477866.0 149968.0 0
483695.0 146322.0 0
482744.0 150570.0 0
487589.0 149565.0 0
492465.0 150256.0 0
497811.0 149979.0 0
3067.48 154374.0 0
8554.5 153310.0 0
12580.8 151945.0 0
16420.4 154144.0 0
21311.8 155153.0 0
27465.4 155365.0 0
32650.4 154498.0 0
37673.1 151583.0 0
42304.9 155278.0 0
47950.8 156179.0 0
53255.7 154805.0 0
57458.6 151947.0 0
58928.6 155838.0 0
62499.3 154143.0 0
71132.9 152212.0 0
66930.3 154243.0 0
76176.6 155257.0 0
82351.1 153662.0 0
86392.8 153997.0 0
91253.7 154847.0 0
96601.5 153695.0 0
101325.0 154854.0 0
106448.0 154260.0 0
112395.0 155390.0 0
118078.0 156225.0 0
123220.0 154975.0 0
128380.0 153919.0 0
133236.0 155455.0 0
138695.0 154957.0 0
143897.0 154171.0 0
147994.0 152318.0 0
152641.0 154561.0 0
158023.0 154824.0 0
162828.0 153977.0 0
168108.0 154398.0 0
172596.0 155683.0 0
177246.0 155441.0 0
182427.0 156048.0 0
187087.0 155046.0 0
192265.0 155313.0 0
193908.0 151289.0 0
197934.0 154913.0 0
202908.0 154756.0 0
207315.0 155742.0 0
212052.0 154063.0 0
217205.0 155491.0 0
222465.0 154213.0 0
227444.0 155563.0 0
232440.0 154022.0 0
237066.0 154637.0 0
241373.0 155216.0 0
246106.0 154029.0 0
254522.0 155072.0 0
250345.0 155612.0 0
258823.0 155701.0 0
262304.0 152126.0 0
267464.0 155289.0 0
272516.0 153404.0 0
277258.0 155265.0 0
283202.0 154061.0 0
288221.0 155485.0 0
292772.0 154245.0 0
297382.0 155012.0 0
302104.0 155028.0 0
306891.0 153468.0 0
316042.0 153718.0 0
311367.0 155487.0 0
320406.0 155136.0 0
326140.0 154463.0 0
338274.0 155537.0 0
343317.0 153923.0 0
348162.0 155122.0 0
356712.0 151204.0 0
353180.0 155676.0 0
372381.0 154663.0 0
367630.0 155053.0 0
377383.0 156024.0 0
379745.0 151371.0 0
382004.0 154552.0 0
384038.0 151493.0 0
387375.0 154101.0 0
391836.0 154539.0 0
396414.0 153753.0 0
401428.0 155319.0 0
406577.0 154855.0 0
417742.0 154086.0 0
428007.0 154431.0 0
435853.0 155957.0 0
440195.0 151615.0 0
448655.0 152769.0 0
444885.0 155373.0 0
448961.0 155882.0 0
453284.0 154489.0 0
458569.0 153600.0 0
463269.0 153632.0 0
468255.0 155051.0 0
473568.0 155110.0 0
478469.0 154881.0 0
481960.0 155409.0 0
485372.0 154028.0 0
490340.0 154142.0 0
495333.0 154234.0 0
2830.06 160280.0 0
7503.97 157729.0 0
12197.9 156493.0 0
12524.2 160131.0 0
17164.8 159684.0 0
23590.5 160586.0 0
28518.3 160452.0 0
32916.2 158605.0 0
37796.1 156949.0 0
44154.3 160638.0 0
51665.6 159295.0 0
56222.2 159385.0 0
61495.1 159817.0 0
71359.5 156393.0 0
67362.0 159744.0 0
73114.4 160760.0 0
80897.5 157923.0 0
86724.1 159622.0 0
92877.5 160831.0 0
98368.9 159067.0 0
103676.0 159009.0 0
108521.0 159656.0 0
113658.0 160772.0 0
123558.0 160009.0 0
128427.0 159094.0 0
133082.0 159975.0 0
137596.0 160334.0 0
146817.0 156556.0 0
143072.0 158296.0 0
146707.0 160602.0 0
150635.0 158497.0 0
155609.0 158577.0 0
161150.0 158860.0 0
167133.0 160476.0 0
172930.0 159971.0 0
178054.0 160951.0 0
183653.0 160814.0 0
189253.0 159786.0 0
194195.0 159835.0 0
203778.0 158974.0 0
199079.0 160562.0 0
208282.0 160783.0 0
213126.0 159322.0 0
217850.0 160796.0 0
222500.0 159965.0 0
227501.0 160141.0 0
231367.0 158157.0 0
235337.0 158682.0 0
241012.0 159607.0 0
246229.0 159878.0 0
252670.0 160358.0 0
257745.0 159490.0 0
262637.0 158622.0 0
268648.0 160007.0 0
272486.0 158056.0 0
276646.0 160314.0 0
282614.0 159839.0 0
287961.0 159897.0 0
293356.0 159724.0 0
298041.0 158880.0 0
302180.0 160938.0 0
306759.0 158342.0 0
311375.0 160709.0 0
317140.0 159406.0 0
322856.0 159672.0 0
326678.0 159412.0 0
331450.0 160955.0 0
332574.0 156542.0 0
340793.0 160234.0 0
345207.0 158322.0 0
349873.0 159743.0 0
358609.0 156721.0 0
361543.0 161300.0 0
363217.0 156585.0 0
367146.0 160451.0 0
372563.0 159577.0 0
382878.0 159206.0 0
389046.0 159073.0 0
397276.0 158933.0 0
393441.0 161225.0 0
402362.0 160957.0 0
407528.0 159565.0 0
411926.0 156492.0 0
417011.0 159786.0 0
422243.0 157014.0 0
426096.0 160537.0 0
432012.0 159825.0 0
437800.0 160912.0 0
440095.0 156565.0 0
443153.0 160394.0 0
447789.0 159563.0 0
452658.0 160404.0 0
457753.0 158449.0 0
463134.0 158804.0 0
468196.0 160195.0 0
473085.0 160271.0 0
478098.0 159719.0 0
482742.0 160029.0 0
487709.0 158934.0 0
493260.0 158969.0 0
497791.0 158524.0 0
2518.14 165623.0 0
9657.08 161582.0 0
7269.82 165026.0 0
12116.6 165359.0 0
17592.4 165958.0 0
28809.4 164961.0 0
32722.9 163304.0 0
37936.8 162615.0 0
43273.7 166070.0 0
48947.0 162328.0 0
47708.7 166148.0 0
52883.8 164988.0 0
58210.2 164161.0 0
64169.5 165420.0 0
71362.5 164304.0 0
69258.1 166367.0 0
75108.5 166133.0 0
78024.5 161765.0 0
81048.6 165931.0 0
87053.7 166284.0 0
96751.2 164887.0 0
92020.4 165413.0 0
101923.0 163362.0 0
107424.0 165750.0 0
113364.0 165768.0 0
118712.0 161527.0 0
123398.0 165076.0 0
128618.0 164259.0 0
133599.0 164505.0 0
141641.0 162867.0 0
137995.0 166143.0 0
145475.0 165464.0 0
150726.0 164208.0 0
156814.0 163804.0 0
162657.0 164927.0 0
170995.0 164837.0 0
183159.0 164765.0 0
179616.0 165637.0 0
187240.0 164868.0 0
192616.0 164442.0 0
197965.0 166202.0 0
202934.0 163983.0 0
206812.0 166342.0 0
210961.0 164891.0 0
215629.0 165112.0 0
221238.0 165187.0 0
227184.0 165501.0 0
231614.0 162344.0 0
237590.0 164374.0 0
243851.0 165080.0 0
248905.0 164850.0 0
257368.0 162829.0 0
260306.0 164868.0 0
265515.0 163791.0 0
272406.0 164361.0 0
279500.0 165083.0 0
285572.0 163968.0 0
290283.0 163838.0 0
297350.0 164077.0 0
302308.0 166042.0 0
306881.0 163817.0 0
318328.0 165225.0 0
323489.0 164620.0 0
328118.0 162913.0 0
335630.0 161439.0 0
332372.0 165408.0 0
340948.0 164813.0 0
337054.0 166024.0 0
345693.0 163613.0 0
350920.0 165724.0 0
355447.0 161909.0 0
359291.0 166106.0 0
364353.0 165796.0 0
368943.0 165114.0 0
373329.0 164447.0 0
377582.0 161759.0 0
381329.0 165032.0 0
386961.0 165216.0 0
393351.0 166079.0 0
398526.0 164512.0 0
402913.0 165897.0 0
407774.0 164965.0 0
411987.0 161798.0 0
415878.0 165597.0 0
421587.0 161640.0 0
424598.0 164573.0 0
428964.0 165110.0 0
434132.0 164804.0 0
438737.0 166095.0 0
442787.0 164755.0 0
447718.0 164827.0 0
453045.0 165426.0 0
458330.0 164255.0 0
463624.0 163622.0 0
468161.0 165522.0 0
473598.0 164683.0 0
478149.0 164877.0 0
482808.0 164228.0 0
487497.0 164516.0 0
492502.0 163920.0 0
497556.0 163172.0 0
2475.48 170616.0 0
7677.25 170047.0 0
12004.7 169559.0 0
15772.0 170993.0 0
23416.7 166645.0 0
26808.2 171031.0 0
34064.8 168694.0 0
39402.1 167583.0 0
44705.2 170535.0 0
48759.5 169859.0 0
53065.2 170162.0 0
59515.3 169253.0 0
63885.4 170557.0 0
67606.3 169817.0 0
71692.0 169758.0 0
78264.2 169640.0 0
82471.9 170921.0 0
91999.3 170053.0 0
97000.1 170002.0 0
102128.0 169253.0 0
111124.0 170062.0 0
115819.0 171431.0 0
118426.0 166787.0 0
121102.0 171433.0 0
126570.0 169781.0 0
132454.0 169479.0 0
137140.0 170614.0 0
142292.0 169745.0 0
147728.0 169213.0 0
152626.0 169863.0 0
157521.0 168887.0 0
162025.0 170497.0 0
167210.0 168927.0 0
172467.0 169985.0 0
175347.0 166564.0 0
178178.0 170897.0 0
183467.0 168689.0 0
190430.0 169459.0 0
195416.0 170904.0 0
203351.0 169339.0 0
199785.0 171522.0 0
208221.0 170323.0 0
212605.0 169391.0 0
217696.0 169797.0 0
223413.0 170037.0 0
227694.0 170497.0 0
232731.0 169725.0 0
237917.0 170391.0 0
242250.0 169271.0 0
246578.0 169165.0 0
254147.0 166486.0 0
251458.0 170950.0 0
257659.0 170760.0 0
262656.0 168990.0 0
268086.0 169049.0 0
273563.0 171069.0 0
279477.0 171277.0 0
284059.0 168226.0 0
289117.0 168937.0 0
293632.0 167210.0 0
293859.0 171430.0 0
298811.0 169825.0 0
302794.0 169508.0 0
307471.0 169375.0 0
312363.0 166760.0 0
316382.0 170142.0 0
321289.0 170244.0 0
327597.0 168790.0 0
333606.0 170390.0 0
340751.0 168945.0 0
346463.0 170167.0 0
352479.0 170543.0 0
362684.0 169661.0 0
367601.0 170389.0 0
377200.0 166843.0 0
373234.0 169572.0 0
383127.0 170444.0 0
388875.0 171096.0 0
397598.0 168929.0 0
393912.0 171358.0 0
401995.0 170515.0 0
407554.0 170767.0 0
417738.0 169757.0 0
413356.0 170792.0 0
421177.0 166899.0 0
420740.0 171041.0 0
426078.0 170485.0 0
432064.0 169583.0 0
436732.0 169938.0 0
442765.0 169777.0 0
453408.0 169597.0 0
458510.0 170783.0 0
463599.0 168164.0 0
467768.0 170838.0 0
471814.0 168381.0 0
476448.0 169909.0 0
481100.0 168219.0 0
485658.0 169180.0 0
490709.0 170215.0 0
496001.0 168451.0 0
3210.84 175745.0 0
8257.47 175147.0 0
12762.8 174783.0 0
17406.3 175751.0 0
20838.9 171690.0 0
22006.2 176286.0 0
26229.0 175816.0 0
30952.1 174317.0 0
40053.8 171826.0 0
35932.0 174432.0 0
43629.6 174520.0 0
47755.0 173891.0 0
51808.7 174220.0 0
56829.3 174441.0 0
62579.0 174571.0 0
67170.4 174995.0 0
72520.3 174944.0 0
77991.5 173738.0 0
82526.7 175346.0 0
86294.3 175941.0 0
87140.8 171874.0 0
90159.9 175188.0 0
95222.2 175025.0 0
101125.0 174923.0 0
106970.0 171628.0 0
111795.0 174925.0 0
118332.0 176101.0 0
123280.0 175860.0 0
132214.0 174795.0 0
127624.0 174900.0 0
137231.0 175213.0 0
141708.0 176486.0 0
146468.0 174209.0 0
156132.0 173831.0 0
169286.0 175310.0 0
181607.0 175706.0 0
186112.0 173090.0 0
190992.0 174763.0 0
195753.0 175579.0 0
204961.0 173859.0 0
208467.0 176104.0 0
211619.0 173958.0 0
216505.0 175117.0 0
221706.0 174442.0 0
226696.0 174990.0 0
231957.0 173996.0 0
236067.0 175277.0 0
241437.0 173764.0 0
246764.0 174277.0 0
251419.0 175201.0 0
256143.0 175866.0 0
261548.0 174332.0 0
266314.0 173487.0 0
270639.0 175949.0 0
276599.0 176025.0 0
284957.0 173366.0 0
290185.0 173803.0 0
293755.0 176050.0 0
297270.0 174248.0 0
302711.0 172667.0 0
307445.0 173309.0 0
310131.0 175888.0 0
312805.0 172578.0 0
316962.0 174288.0 0
326197.0 174173.0 0
321557.0 176219.0 0
331853.0 175373.0 0
336695.0 175909.0 0
337889.0 171897.0 0
341783.0 174823.0 0
346627.0 176040.0 0
350388.0 174474.0 0
354412.0 175754.0 0
358046.0 171687.0 0
363421.0 175003.0 0
368529.0 175611.0 0
372653.0 174263.0 0
377756.0 171577.0 0
381263.0 174954.0 0
385750.0 175562.0 0
391603.0 176111.0 0
397806.0 175011.0 0
403437.0 175491.0 0
408193.0 175884.0 0
412655.0 175957.0 0
417328.0 174456.0 0
422294.0 174788.0 0
433144.0 175517.0 0
438898.0 173997.0 0
448811.0 171926.0 0
443938.0 175368.0 0
453765.0 174552.0 0
463037.0 175244.0 0
468112.0 175607.0 0
472249.0 173426.0 0
476530.0 174944.0 0
481591.0 173488.0 0
487406.0 174092.0 0
492246.0 176626.0 0
497268.0 174103.0 0
2743.23 181174.0 0
8042.91 180169.0 0
14922.1 179985.0 0
19909.9 180562.0 0
25329.4 180658.0 0
32699.5 181112.0 0
40008.7 177556.0 0
47201.9 179166.0 0
52669.4 178415.0 0
57753.4 180682.0 0
63751.3 179931.0 0
69579.2 180287.0 0
74694.6 180824.0 0
78841.1 178492.0 0
82761.3 180115.0 0
87411.7 180374.0 0
93077.6 180448.0 0
98832.3 180282.0 0
106555.0 176650.0 0
103893.0 180835.0 0
107222.0 180657.0 0
111638.0 180796.0 0
120397.0 180829.0 0
124184.0 180128.0 0
128406.0 179525.0 0
132872.0 179130.0 0
136853.0 179903.0 0
141100.0 180669.0 0
146522.0 180176.0 0
151573.0 176673.0 0
156635.0 180270.0 0
161834.0 176797.0 0
166704.0 181578.0 0
172255.0 180295.0 0
175976.0 176672.0 0
179233.0 180285.0 0
184127.0 180909.0 0
189314.0 179279.0 0
193668.0 180181.0 0
197502.0 179764.0 0
200538.0 176701.0 0
202965.0 180548.0 0
206276.0 178424.0 0
212258.0 179795.0 0
216808.0 179649.0 0
220976.0 179275.0 0
225741.0 179959.0 0
230982.0 178391.0 0
235664.0 180200.0 0
240544.0 179011.0 0
248382.0 179055.0 0
252560.0 178844.0 0
259973.0 178925.0 0
256058.0 180870.0 0
265489.0 178737.0 0
272928.0 179418.0 0
275665.0 180004.0 0
281962.0 178879.0 0
288337.0 178558.0 0
293477.0 180723.0 0
298770.0 178645.0 0
304642.0 177374.0 0
309149.0 179553.0 0
313928.0 177342.0 0
317700.0 179255.0 0
323366.0 181408.0 0
327809.0 178683.0 0
332500.0 180029.0 0
336870.0 180520.0 0
342208.0 180397.0 0
351679.0 179294.0 0
347216.0 180412.0 0
357651.0 179293.0 0
363234.0 181357.0 0
368505.0 179873.0 0
376988.0 176725.0 0
373400.0 181090.0 0
382576.0 178985.0 0
379100.0 181131.0 0
387079.0 181162.0 0
395893.0 179742.0 0
400749.0 180205.0 0
405935.0 179829.0 0
411228.0 181132.0 0
416962.0 180285.0 0
422189.0 179689.0 0
427069.0 177175.0 0
431391.0 181214.0 0
437982.0 179422.0 0
443846.0 181249.0 0
448492.0 177773.0 0
453591.0 179779.0 0
457908.0 176697.0 0
458352.0 180894.0 0
462240.0 180234.0 0
467267.0 180612.0 0
472251.0 178571.0 0
478243.0 179708.0 0
483445.0 178612.0 0
487729.0 178764.0 0
492457.0 181615.0 0
497114.0 179704.0 0
2122.09 185999.0 0
6629.75 185104.0 0
11765.4 182650.0 0
10874.7 186303.0 0
16445.1 185230.0 0
22133.4 185362.0 0
26805.6 185234.0 0
38045.8 186555.0 0
42537.8 182526.0 0
47182.2 184297.0 0
52162.2 183843.0 0
57345.6 186780.0 0
62695.8 185310.0 0
67631.1 185630.0 0
72734.0 185370.0 0
77869.6 184744.0 0
83358.2 184829.0 0
88734.0 185334.0 0
93487.7 185307.0 0
97430.5 184918.0 0
102461.0 186045.0 0
107419.0 183908.0 0
116412.0 183486.0 0
120437.0 186691.0 0
125857.0 184451.0 0
131746.0 183853.0 0
137378.0 184783.0 0
143319.0 185567.0 0
151900.0 182063.0 0
148470.0 185126.0 0
152879.0 186594.0 0
157301.0 185270.0 0
160657.0 182339.0 0
163242.0 184695.0 0
170863.0 183730.0 0
175911.0 184303.0 0
181671.0 186118.0 0
189132.0 184526.0 0
194263.0 184925.0 0
199454.0 184115.0 0
203612.0 186136.0 0
207411.0 183209.0 0
216143.0 185173.0 0
221749.0 183521.0 0
226488.0 185231.0 0
232442.0 184377.0 0
238430.0 184130.0 0
244737.0 183335.0 0
251358.0 183835.0 0
256820.0 185396.0 0
261842.0 183509.0 0
270071.0 182766.0 0
274196.0 185503.0 0
278052.0 183044.0 0
283489.0 185195.0 0
289032.0 183884.0 0
293267.0 186233.0 0
297213.0 183528.0 0
303005.0 183851.0 0
308804.0 184761.0 0
312953.0 182085.0 0
318356.0 184532.0 0
328791.0 183906.0 0
334065.0 185655.0 0
339591.0 185063.0 0
344932.0 184862.0 0
349988.0 184397.0 0
354428.0 182910.0 0
358649.0 186015.0 0
368160.0 184589.0 0
372314.0 185824.0 0
376962.0 185666.0 0
382471.0 184627.0 0
387497.0 185642.0 0
392324.0 182296.0 0
392129.0 186403.0 0
396150.0 185116.0 0
401229.0 185674.0 0
406693.0 184991.0 0
411220.0 186004.0 0
415491.0 185324.0 0
421158.0 185275.0 0
426356.0 182732.0 0
428521.0 186240.0 0
430959.0 185644.0 0
435835.0 185443.0 0
446665.0 185613.0 0
449070.0 182122.0 0
451288.0 186839.0 0
456077.0 184564.0 0
461499.0 185284.0 0
466931.0 186019.0 0
472915.0 183770.0 0
478057.0 185178.0 0
482525.0 183075.0 0
487864.0 183893.0 0
493644.0 185516.0 0
498089.0 184386.0 0
2813.67 190791.0 0
8166.02 190047.0 0
12894.9 189412.0 0
16332.4 190061.0 0
20384.8 189939.0 0
25269.1 191169.0 0
31181.3 188913.0 0
37228.8 191897.0 0
44045.1 187043.0 0
41794.3 190906.0 0
47445.6 191026.0 0
53101.3 190336.0 0
63565.4 190463.0 0
68267.8 190027.0 0
72453.4 190219.0 0
77185.3 189858.0 0
86321.8 188953.0 0
82034.7 189937.0 0
91303.6 189872.0 0
96817.4 189318.0 0
101396.0 191937.0 0
111801.0 187162.0 0
116464.0 189895.0 0
121274.0 191427.0 0
126005.0 190611.0 0
132122.0 190238.0 0
137820.0 190423.0 0
142840.0 190957.0 0
147532.0 189679.0 0
152629.0 191236.0 0
157561.0 190258.0 0
162712.0 189197.0 0
168107.0 186992.0 0
172608.0 189493.0 0
177852.0 189599.0 0
182305.0 191215.0 0
186375.0 188860.0 0
192084.0 189396.0 0
196623.0 190088.0 0
201112.0 189594.0 0
206769.0 189396.0 0
210865.0 186886.0 0
212749.0 190005.0 0
217644.0 191088.0 0
221800.0 188184.0 0
226800.0 190338.0 0
231547.0 190004.0 0
236390.0 189035.0 0
241208.0 188602.0 0
245774.0 188684.0 0
250431.0 189727.0 0
255179.0 189578.0 0
260750.0 189687.0 0
266227.0 186856.0 0
271141.0 189162.0 0
278164.0 188757.0 0
288464.0 189179.0 0
293485.0 191133.0 0
298392.0 188737.0 0
303461.0 189403.0 0
308192.0 189770.0 0
314355.0 189877.0 0
319270.0 189482.0 0
324039.0 186857.0 0
328968.0 189466.0 0
333146.0 189865.0 0
336742.0 189815.0 0
342591.0 190225.0 0
347880.0 189370.0 0
353211.0 189080.0 0
357775.0 191696.0 0
363896.0 186950.0 0
362516.0 191764.0 0
367792.0 190238.0 0
373565.0 190455.0 0
382650.0 189879.0 0
378335.0 190173.0 0
387500.0 190178.0 0
390841.0 189980.0 0
394209.0 189571.0 0
397990.0 189576.0 0
405861.0 191022.0 0
412257.0 190637.0 0
417886.0 190142.0 0
423011.0 190540.0 0
427877.0 190131.0 0
432790.0 190600.0 0
437676.0 191088.0 0
442045.0 187188.0 0
441768.0 191856.0 0
447084.0 189868.0 0
456330.0 189512.0 0
461273.0 190940.0 0
466168.0 190602.0 0
470975.0 188763.0 0
476162.0 190204.0 0
482656.0 189077.0 0
488908.0 189459.0 0
497008.0 189168.0 0
2316.9 195233.0 0
7488.63 194894.0 0
11899.6 193379.0 0
17721.7 194303.0 0
22192.5 194897.0 0
25714.1 195695.0 0
33500.7 194497.0 0
36829.7 196919.0 0
41261.3 196135.0 0
46266.6 196256.0 0
51636.5 195681.0 0
58687.6 192070.0 0
56873.5 196332.0 0
62241.3 195919.0 0
67515.8 194743.0 0
72506.5 194830.0 0
81267.0 195058.0 0
76625.2 195893.0 0
87014.8 193974.0 0
92308.9 195140.0 0
97255.5 195162.0 0
107501.0 192136.0 0
111799.0 195965.0 0
113002.0 191989.0 0
117643.0 195436.0 0
123436.0 195163.0 0
128783.0 195666.0 0
134059.0 195278.0 0
137961.0 195009.0 0
142163.0 194958.0 0
147504.0 195479.0 0
152870.0 196170.0 0
158962.0 194645.0 0
162909.0 194569.0 0
167293.0 192022.0 0
167203.0 196660.0 0
171990.0 193932.0 0
177729.0 195136.0 0
183253.0 195895.0 0
188243.0 193835.0 0
193899.0 194691.0 0
199056.0 194413.0 0
204159.0 194850.0 0
214028.0 193361.0 0
209492.0 194464.0 0
217435.0 195471.0 0
222151.0 193676.0 0
226340.0 194199.0 0
230558.0 195530.0 0
235732.0 193777.0 0
240055.0 191975.0 0
243732.0 192885.0 0
240025.0 195933.0 0
250366.0 195120.0 0
256478.0 195005.0 0
262642.0 195314.0 0
266798.0 192377.0 0
272519.0 194804.0 0
278324.0 194572.0 0
283290.0 192032.0 0
289987.0 194676.0 0
294959.0 195580.0 0
299384.0 194091.0 0
303666.0 193401.0 0
307823.0 194927.0 0
313036.0 196068.0 0
317922.0 194285.0 0
322912.0 192606.0 0
327988.0 194503.0 0
333196.0 194151.0 0
338997.0 195517.0 0
344322.0 195506.0 0
346990.0 192924.0 0
351177.0 195180.0 0
358164.0 196078.0 0
362968.0 196670.0 0
367648.0 195602.0 0
372886.0 196085.0 0
377591.0 194850.0 0
387666.0 194634.0 0
383033.0 195044.0 0
390579.0 195522.0 0
394661.0 194190.0 0
400640.0 193960.0 0
409727.0 196485.0 0
416361.0 195923.0 0
422813.0 196198.0 0
428624.0 194962.0 0
433383.0 195419.0 0
438577.0 196340.0 0
448819.0 194729.0 0
444221.0 195653.0 0
452131.0 192001.0 0
452094.0 195991.0 0
457220.0 195772.0 0
462827.0 195418.0 0
466793.0 196688.0 0
470795.0 193952.0 0
476400.0 196584.0 0
482885.0 195817.0 0
488671.0 194980.0 0
492846.0 192311.0 0
492896.0 196033.0 0
497140.0 195031.0 0
2879.03 199065.0 0
7660.86 199355.0 0
13296.0 197777.0 0
17519.3 199196.0 0
21982.2 199183.0 0
29625.0 197484.0 0
25925.4 199588.0 0
33841.2 200351.0 0
38550.8 200386.0 0
43314.6 201196.0 0
47500.0 199991.0 0
51975.1 201328.0 0
58910.6 200886.0 0
64497.8 201111.0 0
69007.7 199839.0 0
73877.4 199300.0 0
77217.2 199718.0 0
80691.5 200161.0 0
86321.6 200282.0 0
92811.5 200147.0 0
98242.9 200422.0 0
102435.0 197087.0 0
106772.0 197281.0 0
103094.0 201051.0 0
109027.0 200460.0 0
113211.0 200076.0 0
122442.0 199946.0 0
117544.0 201146.0 0
126563.0 200557.0 0
131864.0 200015.0 0
136845.0 199557.0 0
140200.0 201870.0 0
144007.0 200246.0 0
150411.0 200041.0 0
157086.0 199865.0 0
162990.0 198956.0 0
167631.0 201325.0 0
173049.0 199566.0 0
183030.0 200506.0 0
178838.0 201201.0 0
186680.0 199214.0 0
191843.0 199570.0 0
196806.0 198764.0 0
201799.0 199860.0 0
207325.0 199569.0 0
213594.0 197629.0 0
216949.0 200664.0 0
220483.0 198510.0 0
225384.0 198048.0 0
229374.0 200565.0 0
235824.0 199256.0 0
240224.0 200954.0 0
245170.0 198966.0 0
252494.0 200131.0 0
257218.0 200464.0 0
262355.0 200095.0 0
267377.0 197893.0 0
272615.0 200912.0 0
277797.0 199592.0 0
282853.0 197571.0 0
289757.0 199449.0 0
285974.0 201074.0 0
293416.0 199155.0 0
297870.0 200089.0 0
303739.0 198553.0 0
309258.0 200492.0 0
315429.0 201487.0 0
320303.0 198610.0 0
324618.0 197175.0 0
323691.0 202132.0 0
328766.0 200155.0 0
334658.0 199462.0 0
338217.0 201717.0 0
342801.0 200653.0 0
348333.0 199983.0 0
354571.0 199901.0 0
358832.0 200038.0 0
362305.0 200723.0 0
366732.0 200641.0 0
371988.0 201470.0 0
376885.0 198672.0 0
380638.0 199325.0 0
386648.0 199822.0 0
391380.0 198906.0 0
396439.0 199898.0 0
400517.0 198338.0 0
404214.0 197263.0 0
407475.0 201948.0 0
413219.0 201779.0 0
418109.0 200966.0 0
422107.0 201352.0 0
426878.0 199806.0 0
431420.0 199707.0 0
436288.0 201685.0 0
442100.0 200995.0 0
447550.0 199910.0 0
452804.0 200178.0 0
457500.0 201844.0 0
461585.0 199636.0 0
465842.0 200744.0 0
470827.0 199746.0 0
480519.0 200234.0 0
485119.0 200860.0 0
491128.0 200826.0 0
497365.0 200523.0 0
2104.64 203222.0 0
6793.25 204851.0 0
12523.0 203138.0 0
18520.4 204233.0 0
24345.7 203960.0 0
30115.2 204330.0 0
35415.9 205767.0 0
39873.2 204442.0 0
43534.1 206480.0 0
47481.4 204166.0 0
51744.4 206167.0 0
56705.3 205915.0 0
61964.3 205926.0 0
66638.1 205606.0 0
71690.6 204186.0 0
77191.3 203335.0 0
82291.3 205148.0 0
88450.0 206599.0 0
93313.1 204254.0 0
97500.0 205025.0 0
107094.0 204599.0 0
102236.0 204825.0 0
112291.0 204327.0 0
117489.0 205761.0 0
122473.0 204015.0 0
132589.0 204774.0 0
127669.0 205523.0 0
137654.0 204499.0 0
142126.0 204934.0 0
147636.0 204717.0 0
153045.0 204051.0 0
157497.0 205745.0 0
161579.0 203893.0 0
165668.0 205580.0 0
171230.0 205433.0 0
176235.0 205426.0 0
180327.0 205873.0 0
184961.0 204294.0 0
190263.0 203860.0 0
195405.0 204348.0 0
201311.0 205314.0 0
206583.0 205639.0 0
212322.0 203459.0 0
218106.0 204994.0 0
222871.0 202970.0 0
227523.0 205581.0 0
232627.0 204128.0 0
238165.0 204939.0 0
243791.0 205301.0 0
248620.0 203870.0 0
254997.0 204190.0 0
251703.0 207197.0 0
259925.0 204360.0 0
266658.0 204934.0 0
272632.0 205856.0 0
276489.0 204459.0 0
281554.0 203319.0 0
287001.0 205664.0 0
292798.0 203975.0 0
298711.0 205956.0 0
303425.0 203847.0 0
307680.0 205147.0 0
312790.0 206763.0 0
319110.0 205852.0 0
323804.0 206356.0 0
328217.0 205798.0 0
332684.0 204101.0 0
337213.0 205498.0 0
341745.0 205890.0 0
346956.0 205381.0 0
352959.0 205179.0 0
358289.0 203857.0 0
363852.0 205116.0 0
368576.0 204752.0 0
377264.0 202975.0 0
372516.0 205347.0 0
383137.0 204294.0 0
392796.0 203642.0 0
388492.0 205526.0 0
396697.0 205420.0 0
401633.0 203413.0 0
408624.0 206541.0 0
412939.0 206742.0 0
417500.0 204924.0 0
423655.0 205253.0 0
429096.0 204003.0 0
432842.0 205184.0 0
439598.0 205337.0 0
445091.0 204987.0 0
449570.0 204641.0 0
453928.0 204987.0 0
458052.0 206406.0 0
461735.0 204192.0 0
466235.0 205453.0 0
472009.0 205772.0 0
476634.0 202507.0 0
477068.0 207126.0 0
481396.0 204857.0 0
487085.0 206078.0 0
492809.0 206722.0 0
497596.0 205557.0 0
3506.58 210303.0 0
8912.79 210117.0 0
12819.2 208564.0 0
18045.9 210443.0 0
23734.8 209326.0 0
29009.0 210125.0 0
33721.4 209929.0 0
38524.6 210249.0 0
43678.4 211201.0 0
47740.9 208929.0 0
52003.8 210724.0 0
56979.4 211322.0 0
61796.2 210634.0 0
66400.0 210198.0 0
71634.2 210071.0 0
78211.3 210552.0 0
84123.0 209893.0 0
87688.3 211674.0 0
94100.3 208468.0 0
99300.5 209722.0 0
103853.0 211159.0 0
108319.0 209564.0 0
113637.0 209169.0 0
122393.0 208407.0 0
118189.0 210206.0 0
126889.0 210468.0 0
131335.0 209619.0 0
135400.0 208255.0 0
139962.0 209205.0 0
145195.0 209851.0 0
151682.0 210160.0 0
157461.0 210912.0 0
162224.0 209322.0 0
167838.0 209897.0 0
173461.0 211070.0 0
178657.0 209847.0 0
183498.0 209841.0 0
188826.0 207964.0 0
193402.0 210592.0 0
198163.0 209060.0 0
202226.0 210638.0 0
207012.0 210808.0 0
212377.0 209859.0 0
217313.0 209458.0 0
221939.0 208310.0 0
226297.0 210376.0 0
231236.0 209524.0 0
236066.0 210121.0 0
240758.0 209965.0 0
247331.0 209337.0 0
251815.0 211204.0 0
256819.0 209341.0 0
262023.0 209480.0 0
266302.0 212262.0 0
272433.0 210600.0 0
277768.0 208889.0 0
282670.0 208816.0 0
287573.0 211148.0 0
294278.0 210592.0 0
299740.0 210771.0 0
304166.0 208857.0 0
308988.0 210128.0 0
315364.0 211665.0 0
320387.0 210864.0 0
326099.0 211096.0 0
333159.0 210263.0 0
339146.0 210785.0 0
343439.0 209910.0 0
347373.0 210180.0 0
351810.0 210726.0 0
357562.0 209208.0 0
363013.0 210152.0 0
368207.0 209592.0 0
373385.0 209007.0 0
378060.0 208075.0 0
382809.0 210444.0 0
392116.0 208598.0 0
388001.0 211248.0 0
397057.0 209770.0 0
402872.0 210085.0 0
407560.0 210091.0 0
411391.0 211036.0 0
416297.0 209888.0 0
421524.0 209684.0 0
427086.0 209069.0 0
431837.0 211333.0 0
436283.0 208848.0 0
442626.0 210252.0 0
449564.0 210268.0 0
454946.0 209656.0 0
459034.0 210689.0 0
462488.0 208426.0 0
466447.0 210315.0 0
470795.0 210939.0 0
475071.0 210682.0 0
479814.0 211172.0 0
485459.0 211738.0 0
491394.0 210931.0 0
496535.0 211033.0 0
3164.77 216966.0 0
7860.76 214180.0 0
13198.6 214474.0 0
18016.5 216417.0 0
22913.6 214957.0 0
28302.8 215269.0 0
33684.8 214838.0 0
38744.3 215188.0 0
42462.6 215033.0 0
47500.0 214801.0 0
52557.7 215120.0 0
57797.4 216636.0 0
62773.9 215100.0 0
67039.9 214999.0 0
72935.3 216122.0 0
78321.3 216352.0 0
82589.4 214945.0 0
87056.7 215589.0 0
92062.4 213783.0 0
97669.7 215012.0 0
102295.0 214831.0 0
107409.0 215397.0 0
113346.0 214586.0 0
121263.0 213696.0 0
117556.0 215937.0 0
125793.0 216389.0 0
129830.0 213884.0 0
135551.0 214054.0 0
141807.0 214072.0 0
147624.0 216202.0 0
152815.0 215510.0 0
156959.0 215390.0 0
162562.0 215436.0 0
168612.0 215416.0 0
178546.0 214933.0 0
173681.0 216443.0 0
183146.0 216565.0 0
188007.0 213851.0 0
193372.0 215400.0 0
197865.0 214084.0 0
202705.0 214834.0 0
206537.0 215197.0 0
210415.0 214441.0 0
215937.0 213981.0 0
222031.0 214451.0 0
227891.0 214841.0 0
232869.0 213992.0 0
237577.0 214597.0 0
243286.0 214446.0 0
248664.0 214811.0 0
254447.0 214874.0 0
259269.0 214182.0 0
262861.0 215979.0 0
270744.0 214883.0 0
276853.0 213456.0 0
282830.0 214973.0 0
288069.0 216478.0 0
292395.0 216147.0 0
298265.0 215065.0 0
306027.0 214452.0 0
310185.0 215999.0 0
311332.0 213180.0 0
314051.0 216686.0 0
318483.0 214916.0 0
322500.0 215086.0 0
328894.0 215763.0 0
333249.0 216640.0 0
337017.0 214652.0 0
341123.0 214573.0 0
346185.0 214705.0 0
357135.0 214526.0 0
352140.0 216834.0 0
361937.0 215065.0 0
372172.0 213621.0 0
367473.0 216362.0 0
377870.0 214068.0 0
383977.0 216489.0 0
389039.0 216008.0 0
392970.0 213813.0 0
398548.0 215192.0 0
404604.0 215244.0 0
408305.0 215248.0 0
411601.0 215329.0 0
415648.0 214683.0 0
420774.0 215173.0 0
427258.0 215622.0 0
432708.0 215403.0 0
437828.0 215454.0 0
443856.0 216501.0 0
448897.0 216390.0 0
453712.0 214491.0 0
458585.0 214780.0 0
462382.0 212895.0 0
466455.0 215195.0 0
471665.0 215597.0 0
476743.0 215260.0 0
482112.0 216044.0 0
489724.0 215057.0 0
493000.0 217046.0 0
497149.0 217028.0 0
2175.08 222213.0 0
6289.97 221165.0 0
11599.4 220590.0 0
17536.7 220880.0 0
22463.8 220628.0 0
27690.2 220330.0 0
32846.4 220218.0 0
37849.1 219721.0 0
42860.5 219822.0 0
47500.0 219884.0 0
52500.0 219803.0 0
57471.2 221097.0 0
62273.8 220157.0 0
67614.2 219385.0 0
72220.4 221843.0 0
81627.5 219850.0 0
77001.2 220239.0 0
86238.9 219710.0 0
91741.1 220196.0 0
97809.6 220400.0 0
102672.0 219378.0 0
106903.0 221543.0 0
111197.0 219470.0 0
115541.0 220268.0 0
120820.0 219587.0 0
126021.0 221221.0 0
131559.0 219872.0 0
137589.0 220241.0 0
143032.0 220681.0 0
152333.0 219498.0 0
148508.0 222009.0 0
156774.0 220070.0 0
161250.0 221285.0 0
165866.0 219947.0 0
170815.0 220374.0 0
176300.0 221016.0 0
181148.0 220080.0 0
186186.0 222082.0 0
190723.0 218786.0 0
195906.0 219722.0 0
202303.0 218520.0 0
207017.0 220212.0 0
212685.0 218659.0 0
217358.0 218407.0 0
221319.0 219955.0 0
226106.0 219671.0 0
231886.0 219046.0 0
236933.0 221157.0 0
240965.0 218692.0 0
246407.0 220779.0 0
252566.0 220143.0 0
257956.0 218232.0 0
262511.0 221025.0 0
267434.0 217958.0 0
272735.0 218972.0 0
277835.0 218153.0 0
276231.0 222378.0 0
283411.0 222011.0 0
290024.0 220996.0 0
296065.0 220247.0 0
302091.0 219116.0 0
308498.0 219967.0 0
313706.0 221816.0 0
318496.0 219484.0 0
325751.0 219451.0 0
322152.0 222205.0 0
331013.0 221202.0 0
336305.0 220325.0 0
342218.0 219973.0 0
347987.0 220904.0 0
352469.0 222490.0 0
357715.0 220392.0 0
363372.0 219987.0 0
372128.0 219741.0 0
367626.0 222471.0 0
377595.0 220032.0 0
388203.0 220878.0 0
393858.0 219489.0 0
403548.0 221042.0 0
409206.0 221787.0 0
413408.0 219516.0 0
418015.0 220125.0 0
422331.0 220215.0 0
427432.0 222375.0 0
432985.0 219659.0 0
437053.0 220380.0 0
442560.0 221990.0 0
447415.0 219764.0 0
451703.0 220344.0 0
455863.0 218759.0 0
461827.0 220073.0 0
468601.0 220774.0 0
474668.0 220682.0 0
480001.0 220150.0 0
486587.0 220272.0 0
493165.0 221422.0 0
498364.0 221347.0 0
2648.29 226494.0 0
6704.61 225034.0 0
11883.6 227377.0 0
17237.5 225378.0 0
21689.6 225503.0 0
26625.8 225532.0 0
32269.6 225673.0 0
37800.7 224791.0 0
42911.0 224938.0 0
48373.5 224757.0 0
53049.3 224985.0 0
57491.6 225382.0 0
62500.0 224970.0 0
67351.0 224994.0 0
72974.1 226179.0 0
77090.0 225167.0 0
80945.3 225154.0 0
86598.4 224883.0 0
92662.9 226790.0 0
98143.0 225444.0 0
102893.0 224396.0 0
107106.0 226897.0 0
112144.0 224771.0 0
117789.0 224638.0 0
127517.0 224937.0 0
123040.0 226305.0 0
131674.0 226677.0 0
135063.0 223747.0 0
139793.0 226374.0 0
146644.0 227244.0 0
153456.0 225293.0 0
159439.0 225829.0 0
165968.0 225161.0 0
171465.0 225600.0 0
177279.0 227235.0 0
183204.0 227363.0 0
191883.0 223525.0 0
195939.0 227373.0 0
201237.0 223477.0 0
206405.0 226945.0 0
211860.0 224429.0 0
217584.0 223125.0 0
222974.0 224608.0 0
228684.0 224631.0 0
233716.0 224013.0 0
236983.0 225702.0 0
241135.0 224040.0 0
246168.0 227206.0 0
251686.0 225585.0 0
257178.0 222702.0 0
263480.0 226615.0 0
268884.0 223940.0 0
274513.0 226620.0 0
279023.0 225437.0 0
288597.0 225745.0 0
293684.0 225943.0 0
300196.0 225285.0 0
305284.0 223632.0 0
305009.0 227615.0 0
308885.0 225883.0 0
313476.0 226823.0 0
316784.0 224640.0 0
320576.0 226344.0 0
326685.0 225886.0 0
333861.0 226157.0 0
338665.0 224699.0 0
342799.0 225437.0 0
347415.0 225875.0 0
352858.0 227315.0 0
357815.0 226177.0 0
362633.0 224809.0 0
367022.0 226817.0 0
371864.0 225212.0 0
377440.0 225958.0 0
382625.0 227118.0 0
382670.0 222759.0 0
386622.0 226408.0 0
391984.0 225670.0 0
397810.0 223350.0 0
396543.0 227467.0 0
406986.0 225991.0 0
411809.0 225489.0 0
417019.0 224665.0 0
422567.0 225951.0 0
432185.0 226253.0 0
437979.0 225600.0 0
442950.0 227543.0 0
448193.0 224819.0 0
455966.0 224672.0 0
461566.0 226631.0 0
466226.0 225284.0 0
471900.0 227000.0 0
477523.0 225482.0 0
481988.0 224127.0 0
486495.0 227589.0 0
491854.0 226530.0 0
497014.0 226111.0 0
162838.0 228817.0 0
188838.0 227671.0 0
201230.0 228913.0 0
204477.0 231476.0 0
210792.0 230093.0 0
216418.0 228871.0 0
222472.0 230339.0 0
227960.0 230037.0 0
233922.0 228838.0 0
236555.0 232164.0 0
240341.0 229821.0 0
248994.0 231754.0 0
253469.0 230349.0 0
258378.0 227690.0 0
261359.0 230756.0 0
265887.0 231506.0 0
270705.0 229460.0 0
278602.0 230917.0 0
284479.0 228390.0 0
289820.0 230290.0 0
297137.0 230656.0 0
302386.0 231203.0 0
401644.0 227764.0 0
427263.0 228079.0 0
452071.0 227989.0 0
481329.0 227969.0 0
199569.0 233832.0 0
204444.0 235609.0 0
209452.0 235082.0 0
215732.0 234977.0 0
221140.0 235719.0 0
226645.0 235754.0 0
231463.0 233380.0 0
235321.0 235335.0 0
244602.0 232877.0 0
240447.0 235921.0 0
252386.0 235286.0 0
257901.0 233246.0 0
262173.0 233839.0 0
271469.0 234598.0 0
276417.0 236284.0 0
283461.0 233034.0 0
280936.0 236170.0 0
284565.0 237463.0 0
287255.0 234598.0 0
293224.0 235171.0 0
299484.0 236024.0 0
200568.0 240119.0 0
206826.0 240097.0 0
212344.0 239297.0 0
218217.0 240652.0 0
223360.0 239638.0 0
227342.0 241711.0 0
231815.0 238687.0 0
236724.0 239000.0 0
240957.0 241644.0 0
245799.0 238026.0 0
250599.0 239587.0 0
256856.0 239646.0 0
262923.0 237909.0 0
268033.0 238743.0 0
273344.0 240965.0 0
278893.0 240186.0 0
283257.0 241051.0 0
288820.0 239888.0 0
294305.0 240769.0 0
298360.0 240731.0 0
202165.0 246497.0 0
208342.0 245596.0 0
213594.0 244378.0 0
218682.0 246027.0 0
223710.0 245645.0 0
228232.0 246275.0 0
231677.0 244060.0 0
236091.0 243062.0 0
240599.0 245724.0 0
246379.0 243894.0 0
252214.0 244322.0 0
257463.0 245539.0 0
261596.0 243049.0 0
266660.0 243974.0 0
271774.0 245727.0 0
276905.0 244952.0 0
279542.0 247812.0 0
281084.0 244106.0 0
285901.0 245091.0 0
291468.0 244828.0 0
297266.0 245329.0 0
341742.0 247591.0 0
10310.7 249927.0 0
206117.0 250999.0 0
210331.0 249600.0 0
215196.0 249917.0 0
220811.0 250254.0 0
226489.0 251220.0 0
231213.0 248666.0 0
237006.0 248494.0 0
243164.0 248497.0 0
248815.0 249271.0 0
254688.0 249471.0 0
258640.0 253137.0 0
261854.0 248364.0 0
268410.0 250445.0 0
274603.0 248996.0 0
278616.0 251893.0 0
283537.0 250022.0 0
289170.0 249620.0 0
293917.0 248930.0 0
297979.0 251485.0 0
309756.0 251457.0 0
48261.5 257351.0 0
174681.0 256376.0 0
201808.0 253622.0 0
206249.0 256308.0 0
211440.0 254445.0 0
216916.0 255455.0 0
222264.0 255119.0 0
228039.0 255730.0 0
232133.0 253738.0 0
237055.0 253878.0 0
241906.0 253933.0 0
247660.0 255168.0 0
253230.0 254620.0 0
262729.0 255697.0 0
267373.0 256722.0 0
273139.0 255311.0 0
279212.0 257616.0 0
282868.0 254278.0 0
287185.0 255849.0 0
293022.0 254135.0 0
297887.0 257994.0 0
362467.0 257600.0 0
368610.0 257382.0 0
389098.0 256447.0 0
404603.0 254713.0 0
421499.0 255984.0 0
443009.0 255632.0 0
455114.0 256013.0 0
472319.0 256756.0 0
492537.0 257733.0 0
497243.0 255581.0 0
6878.9 259737.0 0
56374.4 261265.0 0
63868.7 261274.0 0
68827.6 262293.0 0
79658.9 263028.0 0
96187.4 261541.0 0
100416.0 260988.0 0
107589.0 262725.0 0
115161.0 263027.0 0
121008.0 262920.0 0
126005.0 260708.0 0
154054.0 263330.0 0
158565.0 262724.0 0
167796.0 259599.0 0
177286.0 260429.0 0
191569.0 261581.0 0
196244.0 262509.0 0
201363.0 258399.0 0
200885.0 262757.0 0
205141.0 261202.0 0
210419.0 260115.0 0
215510.0 260146.0 0
220079.0 259571.0 0
225520.0 259222.0 0
231419.0 259869.0 0
237509.0 258792.0 0
242307.0 261812.0 0
248058.0 261233.0 0
253775.0 259966.0 0
258819.0 258331.0 0
259056.0 262740.0 0
263576.0 260887.0 0
269203.0 261840.0 0
274268.0 260571.0 0
284339.0 260826.0 0
288858.0 260446.0 0
292819.0 259416.0 0
297459.0 262996.0 0
309917.0 262962.0 0
317421.0 259676.0 0
322450.0 261067.0 0
357807.0 259183.0 0
374583.0 260024.0 0
391311.0 263125.0 0
437044.0 259274.0 0
461586.0 259874.0 0
476569.0 260000.0 0
481239.0 261093.0 0
14254.8 264290.0 0
17655.2 267606.0 0
22442.4 265605.0 0
30433.9 265510.0 0
36537.1 266043.0 0
48339.7 268254.0 0
53010.0 268252.0 0
75161.9 264329.0 0
85031.3 263726.0 0
93065.2 267642.0 0
111005.0 264570.0 0
124379.0 267815.0 0
131855.0 265031.0 0
137504.0 264044.0 0
142262.0 266297.0 0
150902.0 267619.0 0
173221.0 265452.0 0
178042.0 267296.0 0
178735.0 263795.0 0
207998.0 264198.0 0
204081.0 265846.0 0
213358.0 265016.0 0
217846.0 263815.0 0
222322.0 263738.0 0
220062.0 267807.0 0
227457.0 264520.0 0
233020.0 265602.0 0
238128.0 264746.0 0
241701.0 266596.0 0
245360.0 265742.0 0
251059.0 266106.0 0
255502.0 264504.0 0
257880.0 268387.0 0
261791.0 265186.0 0
267220.0 266887.0 0
273096.0 264865.0 0
277796.0 264285.0 0
282145.0 264608.0 0
284676.0 267100.0 0
287763.0 264599.0 0
292967.0 264420.0 0
296827.0 267503.0 0
322451.0 265779.0 0
326630.0 266538.0 0
330913.0 266812.0 0
339605.0 266156.0 0
345114.0 268348.0 0
388726.0 267640.0 0
396056.0 264564.0 0
417127.0 265630.0 0
423600.0 263935.0 0
426612.0 267504.0 0
431907.0 268207.0 0
439714.0 266495.0 0
449230.0 265646.0 0
462790.0 266323.0 0
466760.0 265136.0 0
471850.0 263733.0 0
479717.0 266376.0 0
484429.0 266456.0 0
497839.0 265032.0 0
2631.23 272896.0 0
8033.11 269926.0 0
14588.8 271114.0 0
18911.2 273441.0 0
30589.4 271712.0 0
40985.6 270448.0 0
45936.2 271923.0 0
88220.9 269716.0 0
92904.6 272651.0 0
97919.2 269767.0 0
102310.0 271874.0 0
113050.0 271932.0 0
119140.0 269917.0 0
126262.0 272022.0 0
137141.0 273482.0 0
146000.0 269748.0 0
155278.0 270985.0 0
169989.0 270704.0 0
177569.0 271465.0 0
183086.0 273119.0 0
188923.0 271770.0 0
194747.0 273042.0 0
199533.0 270369.0 0
204405.0 270985.0 0
209314.0 268571.0 0
215066.0 270549.0 0
222085.0 272073.0 0
225949.0 269502.0 0
230701.0 270357.0 0
236386.0 270096.0 0
241424.0 270371.0 0
247379.0 271168.0 0
253469.0 270613.0 0
262773.0 269416.0 0
267282.0 272223.0 0
271753.0 269315.0 0
276231.0 270769.0 0
280753.0 268841.0 0
287946.0 269555.0 0
292566.0 269332.0 0
300501.0 269917.0 0
296385.0 272248.0 0
304858.0 270411.0 0
308759.0 269595.0 0
314014.0 272501.0 0
318278.0 269800.0 0
335045.0 269472.0 0
342101.0 271749.0 0
348027.0 271903.0 0
364943.0 270906.0 0
368691.0 273539.0 0
377600.0 271768.0 0
383597.0 270559.0 0
390690.0 271570.0 0
393964.0 269447.0 0
398809.0 271599.0 0
407296.0 268717.0 0
403236.0 272470.0 0
412976.0 271039.0 0
422388.0 269402.0 0
436080.0 270044.0 0
444222.0 268753.0 0
458451.0 268512.0 0
473827.0 273161.0 0
478880.0 271596.0 0
489239.0 269381.0 0
492521.0 273379.0 0
497266.0 273136.0 0
4198.95 278000.0 0
10165.2 276149.0 0
27252.5 275764.0 0
31965.1 278249.0 0
37311.7 274043.0 0
44551.6 277404.0 0
49617.5 278340.0 0
54909.3 274913.0 0
60744.6 275961.0 0
73247.1 277999.0 0
79797.4 278497.0 0
85759.2 274931.0 0
91010.0 275064.0 0
96476.5 274089.0 0
100409.0 276257.0 0
105708.0 274964.0 0
118044.0 277221.0 0
127597.0 276750.0 0
132697.0 275401.0 0
140009.0 277709.0 0
145853.0 277726.0 0
166524.0 274760.0 0
169946.0 278464.0 0
175196.0 276800.0 0
182125.0 278361.0 0
208774.0 273781.0 0
204248.0 276499.0 0
213000.0 276943.0 0
218416.0 275638.0 0
222787.0 275970.0 0
226654.0 274333.0 0
231895.0 275547.0 0
237319.0 275511.0 0
242504.0 275006.0 0
247181.0 277541.0 0
252149.0 275535.0 0
257610.0 274169.0 0
262741.0 274115.0 0
265988.0 277980.0 0
272534.0 275016.0 0
278427.0 274902.0 0
284101.0 273741.0 0
281569.0 278352.0 0
290975.0 274684.0 0
296245.0 278380.0 0
305457.0 274344.0 0
301917.0 277378.0 0
309713.0 273758.0 0
308862.0 278375.0 0
312812.0 277752.0 0
335177.0 276978.0 0
341691.0 276643.0 0
360423.0 274708.0 0
373639.0 275958.0 0
380959.0 276548.0 0
385630.0 275290.0 0
388242.0 278528.0 0
394399.0 274237.0 0
398411.0 275616.0 0
402468.0 277372.0 0
411664.0 278479.0 0
415149.0 275482.0 0
431773.0 273729.0 0
462565.0 276144.0 0
468005.0 277802.0 0
483291.0 275194.0 0
488293.0 276642.0 0
494690.0 278086.0 0
1396.57 280990.0 0
8211.08 279956.0 0
11918.4 281431.0 0
16619.4 280900.0 0
21754.5 279596.0 0
31750.6 282992.0 0
40529.6 281870.0 0
36111.9 282241.0 0
53511.7 279882.0 0
65233.2 279105.0 0
75981.4 282887.0 0
97591.4 279692.0 0
101262.0 280807.0 0
122206.0 279220.0 0
125707.0 280443.0 0
132217.0 281484.0 0
137709.0 282965.0 0
150246.0 281142.0 0
157949.0 279895.0 0
162385.0 280674.0 0
166757.0 283251.0 0
178322.0 280313.0 0
173828.0 281619.0 0
182575.0 283138.0 0
203600.0 282081.0 0
208493.0 279263.0 0
212185.0 281840.0 0
217002.0 282507.0 0
221535.0 279908.0 0
226387.0 279275.0 0
231035.0 280888.0 0
236952.0 281458.0 0
242597.0 280070.0 0
247334.0 281994.0 0
251017.0 280667.0 0
255658.0 279399.0 0
261566.0 279511.0 0
265044.0 282776.0 0
270038.0 281800.0 0
276308.0 280752.0 0
282379.0 283284.0 0
286619.0 279304.0 0
291669.0 281847.0 0
305267.0 281154.0 0
315851.0 281579.0 0
321609.0 281346.0 0
329672.0 280069.0 0
345721.0 281803.0 0
350533.0 279396.0 0
355714.0 280890.0 0
365233.0 283602.0 0
368277.0 279043.0 0
371514.0 283511.0 0
376826.0 281001.0 0
392773.0 282995.0 0
397327.0 280832.0 0
402414.0 282132.0 0
406830.0 279985.0 0
417627.0 280294.0 0
430432.0 283043.0 0
435876.0 281377.0 0
440796.0 278983.0 0
443743.0 283272.0 0
448497.0 281342.0 0
472750.0 278836.0 0
472922.0 283160.0 0
477904.0 283281.0 0
490331.0 281226.0 0
498185.0 281179.0 0
9024.03 284835.0 0
22141.1 285083.0 0
27556.0 286107.0 0
42506.5 285513.0 0
47221.1 286227.0 0
55082.9 283984.0 0
57767.4 287724.0 0
71070.6 284333.0 0
66580.1 287372.0 0
78232.9 288260.0 0
87177.6 285829.0 0
92596.4 288278.0 0
101304.0 286031.0 0
105416.0 286438.0 0
110427.0 288320.0 0
115988.0 284050.0 0
121376.0 284857.0 0
119859.0 288512.0 0
127453.0 283890.0 0
125026.0 287290.0 0
134374.0 285842.0 0
136926.0 286138.0 0
142940.0 285598.0 0
149278.0 287729.0 0
154955.0 286531.0 0
159503.0 285254.0 0
162950.0 287570.0 0
170964.0 285058.0 0
178095.0 284576.0 0
179935.0 287977.0 0
188423.0 285068.0 0
193802.0 287898.0 0
198192.0 284726.0 0
202878.0 287683.0 0
208335.0 284306.0 0
213345.0 286499.0 0
221887.0 285158.0 0
227462.0 285013.0 0
232908.0 285896.0 0
238286.0 287676.0 0
244006.0 285512.0 0
249419.0 285363.0 0
253932.0 285596.0 0
259255.0 284052.0 0
263830.0 286787.0 0
268008.0 286193.0 0
272688.0 286272.0 0
278029.0 287082.0 0
283189.0 288627.0 0
287569.0 285469.0 0
292512.0 287283.0 0
296088.0 284017.0 0
296865.0 288025.0 0
305810.0 288632.0 0
310186.0 284757.0 0
315912.0 287447.0 0
326129.0 284545.0 0
329885.0 286489.0 0
332766.0 284462.0 0
354804.0 288272.0 0
359390.0 284559.0 0
363529.0 288211.0 0
368250.0 288666.0 0
375763.0 286904.0 0
382983.0 283841.0 0
388117.0 287375.0 0
405524.0 285095.0 0
418256.0 285459.0 0
423877.0 285511.0 0
448865.0 286217.0 0
453540.0 287537.0 0
457751.0 284783.0 0
463509.0 284894.0 0
469551.0 286277.0 0
473869.0 287276.0 0
480010.0 288755.0 0
485101.0 287357.0 0
492549.0 285082.0 0
497345.0 286076.0 0
12432.9 290470.0 0
18261.9 290431.0 0
31572.7 292606.0 0
35807.4 289606.0 0
40409.5 290314.0 0
62118.7 289230.0 0
83627.7 290526.0 0
88025.0 291338.0 0
98112.3 291979.0 0
115498.0 290151.0 0
119756.0 292400.0 0
124322.0 291319.0 0
137186.0 293397.0 0
145130.0 289602.0 0
152637.0 290968.0 0
157044.0 291078.0 0
175791.0 289325.0 0
203858.0 292774.0 0
208376.0 289769.0 0
213631.0 292068.0 0
218055.0 289010.0 0
223604.0 290090.0 0
220713.0 292402.0 0
229038.0 289996.0 0
226284.0 293082.0 0
233880.0 291053.0 0
238181.0 292696.0 0
242504.0 291205.0 0
247734.0 290121.0 0
252004.0 288977.0 0
255720.0 290904.0 0
260652.0 290000.0 0
265216.0 290791.0 0
269723.0 290341.0 0
274713.0 291771.0 0
281330.0 292965.0 0
288140.0 291288.0 0
293576.0 292079.0 0
297769.0 291680.0 0
301394.0 289174.0 0
309214.0 289756.0 0
320548.0 291537.0 0
332502.0 289386.0 0
332244.0 293320.0 0
337497.0 289279.0 0
344487.0 290196.0 0
350089.0 289735.0 0
359342.0 290088.0 0
379842.0 289472.0 0
383935.0 289541.0 0
396224.0 291544.0 0
401114.0 293501.0 0
420703.0 289185.0 0
428710.0 289020.0 0
443848.0 291709.0 0
460614.0 292721.0 0
475351.0 292478.0 0
486287.0 292907.0 0
2385.26 295523.0 0
11457.4 296607.0 0
19755.7 294955.0 0
23726.9 296183.0 0
28043.2 296938.0 0
37894.0 296463.0 0
42563.5 294233.0 0
44669.6 298885.0 0
48901.4 297061.0 0
59411.4 295590.0 0
57735.5 299063.0 0
73236.5 294345.0 0
78992.8 296174.0 0
84814.0 296391.0 0
103476.0 295406.0 0
108327.0 296835.0 0
127047.0 295622.0 0
133529.0 296105.0 0
141682.0 296150.0 0
147366.0 298056.0 0
166764.0 299069.0 0
178009.0 296393.0 0
182816.0 296066.0 0
188845.0 295993.0 0
195076.0 298256.0 0
203964.0 298319.0 0
208073.0 295259.0 0
212465.0 296829.0 0
217763.0 295777.0 0
223042.0 295693.0 0
230320.0 294915.0 0
235415.0 295991.0 0
240556.0 296160.0 0
245781.0 295669.0 0
251494.0 294123.0 0
251771.0 298701.0 0
256395.0 295961.0 0
259937.0 298994.0 0
262262.0 294835.0 0
267760.0 295146.0 0
272921.0 296930.0 0
278143.0 296457.0 0
284670.0 295961.0 0
290896.0 296682.0 0
296524.0 296500.0 0
320417.0 297129.0 0
324961.0 297054.0 0
327915.0 294044.0 0
349617.0 296454.0 0
356286.0 297372.0 0
366109.0 297622.0 0
370489.0 297916.0 0
373783.0 294642.0 0
391305.0 294984.0 0
405441.0 295618.0 0
410203.0 297539.0 0
415232.0 296021.0 0
420447.0 296671.0 0
429055.0 299067.0 0
436061.0 297481.0 0
441300.0 295973.0 0
447423.0 295560.0 0
452098.0 297340.0 0
463371.0 297041.0 0
468386.0 294475.0 0
472620.0 297371.0 0
478625.0 297638.0 0
482264.0 295269.0 0
488314.0 296779.0 0
491602.0 294495.0 0
497634.0 298312.0 0
6006.39 299219.0 0
10345.6 302033.0 0
14356.5 302967.0 0
17628.4 300652.0 0
21198.9 302837.0 0
31549.5 299911.0 0
53337.5 299155.0 0
81396.5 300492.0 0
88732.2 301729.0 0
94616.0 302433.0 0
115852.0 302939.0 0
131487.0 300155.0 0
151889.0 301819.0 0
157006.0 300412.0 0
162148.0 300110.0 0
172721.0 299231.0 0
208986.0 300501.0 0
204534.0 304100.0 0
215423.0 301439.0 0
220829.0 300038.0 0
223891.0 303122.0 0
226901.0 299217.0 0
232157.0 299732.0 0
233633.0 304116.0 0
237585.0 300732.0 0
242700.0 299880.0 0
241571.0 304155.0 0
247669.0 301582.0 0
255609.0 301147.0 0
264650.0 299687.0 0
269297.0 299771.0 0
275665.0 301704.0 0
282088.0 301286.0 0
288379.0 301836.0 0
294168.0 301760.0 0
307859.0 300744.0 0
313339.0 302304.0 0
318165.0 301386.0 0
333604.0 302823.0 0
339112.0 299245.0 0
344315.0 301387.0 0
348224.0 303354.0 0
361855.0 300185.0 0
373349.0 300918.0 0
382120.0 300984.0 0
377846.0 301521.0 0
386421.0 301212.0 0
412280.0 304026.0 0
424465.0 299517.0 0
425494.0 303460.0 0
434661.0 302482.0 0
444448.0 301993.0 0
456662.0 302442.0 0
461427.0 303889.0 0
475464.0 300658.0 0
478873.0 303322.0 0
484076.0 301726.0 0
2520.43 307713.0 0
23712.7 306185.0 0
27712.7 307099.0 0
38957.8 308169.0 0
64003.3 308299.0 0
69034.9 308211.0 0
73587.4 305607.0 0
78890.1 307435.0 0
99836.4 305468.0 0
106851.0 308584.0 0
111993.0 308050.0 0
115838.0 308700.0 0
124424.0 304260.0 0
129417.0 304573.0 0
132091.0 307986.0 0
137331.0 306152.0 0
141484.0 307789.0 0
178121.0 306425.0 0
173534.0 307810.0 0
182877.0 304972.0 0
190151.0 305191.0 0
198863.0 306621.0 0
194183.0 308428.0 0
206165.0 308579.0 0
209812.0 305470.0 0
214273.0 307162.0 0
219382.0 305351.0 0
223634.0 307681.0 0
228552.0 305001.0 0
232406.0 308585.0 0
237509.0 306628.0 0
249635.0 306357.0 0
245266.0 307000.0 0
254553.0 306607.0 0
260839.0 304728.0 0
267630.0 304612.0 0
273080.0 306719.0 0
278624.0 306599.0 0
282937.0 306257.0 0
286582.0 306417.0 0
291009.0 306264.0 0
295788.0 307074.0 0
304833.0 305173.0 0
320801.0 308632.0 0
326082.0 307618.0 0
339966.0 308624.0 0
345237.0 305904.0 0
348323.0 307684.0 0
353398.0 308856.0 0
375332.0 304286.0 0
387759.0 307915.0 0
391971.0 309113.0 0
396070.0 306170.0 0
405148.0 306190.0 0
416387.0 305681.0 0
422843.0 308345.0 0
431748.0 306477.0 0
439140.0 304286.0 0
452878.0 305900.0 0
457920.0 307397.0 0
465643.0 305941.0 0
493893.0 308349.0 0
35470.8 309791.0 0
31330.3 310204.0 0
58276.5 312935.0 0
62760.5 313086.0 0
79117.6 312253.0 0
83595.1 309885.0 0
102136.0 310197.0 0
118035.0 312215.0 0
122579.0 310334.0 0
182265.0 314243.0 0
187621.0 310626.0 0
186511.0 314328.0 0
204357.0 311677.0 0
210208.0 310073.0 0
219003.0 310233.0 0
214471.0 311979.0 0
223352.0 312451.0 0
227926.0 310642.0 0
236316.0 311684.0 0
241300.0 309925.0 0
246217.0 312183.0 0
251079.0 310460.0 0
256303.0 312588.0 0
262861.0 311434.0 0
268059.0 309823.0 0
272177.0 311841.0 0
277010.0 311523.0 0
282246.0 311026.0 0
286579.0 310095.0 0
288280.0 313681.0 0
292295.0 310825.0 0
296350.0 310578.0 0
296139.0 313804.0 0
334097.0 312869.0 0
338749.0 311831.0 0
344226.0 309850.0 0
377578.0 310389.0 0
383309.0 312525.0 0
417562.0 310073.0 0
429251.0 311120.0 0
440415.0 312069.0 0
448734.0 309574.0 0
444373.0 311146.0 0
476982.0 314202.0 0
483950.0 311793.0 0
488519.0 309663.0 0
23860.2 316851.0 0
85357.4 314556.0 0
89677.3 315724.0 0
114635.0 315921.0 0
119205.0 316375.0 0
148593.0 315495.0 0
154063.0 316571.0 0
160451.0 317285.0 0
172783.0 317821.0 0
177642.0 316054.0 0
204007.0 316133.0 0
209786.0 315524.0 0
219173.0 314922.0 0
215089.0 316381.0 0
222789.0 316909.0 0
226786.0 315417.0 0
232143.0 315800.0 0
237492.0 315974.0 0
241630.0 315003.0 0
247322.0 317145.0 0
251264.0 315023.0 0
257637.0 317343.0 0
261119.0 316454.0 0
267903.0 315289.0 0
273126.0 316275.0 0
279254.0 315827.0 0
284088.0 315975.0 0
287843.0 317986.0 0
292285.0 316301.0 0
295739.0 319284.0 0
343860.0 317178.0 0
354633.0 317191.0 0
362728.0 316359.0 0
367860.0 314767.0 0
374256.0 315103.0 0
378320.0 318879.0 0
388742.0 314982.0 0
441465.0 318261.0 0
447200.0 318656.0 0
449043.0 314624.0 0
472532.0 314752.0 0
487877.0 317357.0 0
18980.9 320766.0 0
24601.3 321977.0 0
29372.6 323151.0 0
41944.7 323330.0 0
46285.1 321285.0 0
57656.8 319618.0 0
59419.7 323519.0 0
125705.0 324222.0 0
131308.0 322876.0 0
136308.0 322745.0 0
164978.0 321014.0 0
169679.0 322217.0 0
175845.0 319693.0 0
203274.0 321902.0 0
207137.0 320309.0 0
212541.0 320478.0 0
216903.0 319913.0 0
216026.0 323654.0 0
221028.0 321126.0 0
226469.0 320587.0 0
231407.0 320885.0 0
236716.0 320933.0 0
242994.0 320366.0 0
247799.0 321317.0 0
251624.0 319574.0 0
256146.0 321148.0 0
260920.0 320746.0 0
263538.0 324509.0 0
265927.0 320659.0 0
270797.0 319884.0 0
273818.0 323562.0 0
276141.0 320075.0 0
281425.0 320316.0 0
285814.0 321372.0 0
291085.0 321218.0 0
295574.0 324198.0 0
300752.0 321124.0 0
347413.0 319664.0 0
351113.0 320685.0 0
354750.0 323977.0 0
359569.0 320363.0 0
378180.0 323261.0 0
388980.0 324566.0 0
496741.0 319871.0 0
3000.82 326416.0 0
34198.8 325111.0 0
38189.5 328164.0 0
44756.1 326785.0 0
49720.9 325613.0 0
78998.1 326312.0 0
109302.0 327536.0 0
203607.0 325482.0 0
199008.0 328010.0 0
209616.0 326177.0 0
215005.0 327281.0 0
219940.0 326057.0 0
225128.0 326151.0 0
230480.0 325523.0 0
235397.0 326338.0 0
240006.0 325599.0 0
245797.0 326244.0 0
252776.0 326162.0 0
259145.0 325575.0 0
264996.0 328603.0 0
269639.0 325010.0 0
277559.0 325478.0 0
282425.0 324798.0 0
286250.0 325103.0 0
290629.0 326702.0 0
286405.0 329593.0 0
303326.0 326521.0 0
318205.0 327540.0 0
324319.0 328734.0 0
344872.0 327306.0 0
374379.0 324918.0 0
382647.0 325806.0 0
399809.0 329099.0 0
425901.0 329562.0 0
430527.0 327649.0 0
435600.0 327000.0 0
441425.0 324669.0 0
463934.0 325760.0 0
5576.43 330817.0 0
30674.9 334059.0 0
40981.1 330908.0 0
78850.0 329766.0 0
104572.0 331362.0 0
110496.0 332295.0 0
114684.0 333758.0 0
199280.0 333731.0 0
204506.0 330306.0 0
213854.0 330557.0 0
209705.0 333477.0 0
217595.0 329941.0 0
215563.0 334731.0 0
222169.0 330717.0 0
222849.0 334514.0 0
227333.0 330920.0 0
232822.0 330862.0 0
238449.0 330459.0 0
242878.0 330490.0 0
241918.0 334698.0 0
247483.0 331984.0 0
251330.0 330933.0 0
255291.0 331818.0 0
260317.0 330790.0 0
270308.0 331273.0 0
275508.0 329764.0 0
275365.0 334412.0 0
280916.0 330550.0 0
285529.0 334683.0 0
290401.0 332272.0 0
295369.0 329996.0 0
306624.0 332796.0 0
321222.0 329810.0 0
349594.0 334154.0 0
389404.0 334757.0 0
394819.0 332590.0 0
406576.0 331384.0 0
412274.0 331063.0 0
420030.0 331016.0 0
466754.0 332217.0 0
470906.0 333573.0 0
13308.9 337508.0 0
118920.0 336249.0 0
123167.0 338504.0 0
190052.0 337925.0 0
194107.0 334853.0 0
203762.0 335197.0 0
207021.0 339081.0 0
219946.0 335454.0 0
222500.0 339897.0 0
226713.0 336578.0 0
231988.0 335908.0 0
236793.0 335499.0 0
242687.0 339245.0 0
246392.0 336768.0 0
252119.0 335115.0 0
251699.0 339246.0 0
255128.0 336551.0 0
259939.0 336013.0 0
265585.0 335336.0 0
270872.0 337197.0 0
280266.0 336424.0 0
289387.0 338388.0 0
294635.0 336147.0 0
336311.0 338126.0 0
351904.0 339568.0 0
355596.0 336954.0 0
417609.0 337141.0 0
431254.0 338468.0 0
4937.82 341735.0 0
2103.89 344295.0 0
9627.86 341987.0 0
187646.0 344163.0 0
203371.0 341411.0 0
213627.0 340033.0 0
209713.0 343243.0 0
218154.0 340034.0 0
218306.0 344693.0 0
222726.0 344807.0 0
228118.0 341835.0 0
233101.0 340488.0 0
237975.0 340292.0 0
241624.0 343892.0 0
247738.0 340964.0 0
255829.0 340728.0 0
260264.0 341072.0 0
265036.0 340726.0 0
262430.0 344691.0 0
269992.0 342561.0 0
275872.0 340543.0 0
280221.0 343354.0 0
284132.0 340551.0 0
288836.0 343942.0 0
294885.0 342774.0 0
329037.0 344581.0 0
341778.0 341593.0 0
361777.0 343308.0 0
367623.0 343360.0 0
378832.0 342088.0 0
204452.0 345045.0 0
208611.0 347525.0 0
213389.0 345729.0 0
218165.0 349447.0 0
222182.0 349523.0 0
226681.0 346365.0 0
231449.0 345157.0 0
236417.0 345082.0 0
247090.0 346079.0 0
253246.0 345290.0 0
258473.0 345346.0 0
256535.0 349955.0 0
261403.0 349572.0 0
266448.0 346583.0 0
273824.0 345918.0 0
271274.0 349893.0 0
278168.0 346859.0 0
282084.0 346384.0 0
285751.0 347848.0 0
289876.0 348620.0 0
294931.0 349531.0 0
315116.0 350043.0 0
320148.0 347918.0 0
325382.0 348308.0 0
371598.0 346923.0 0
375018.0 348857.0 0
385884.0 346110.0 0
390115.0 348465.0 0
35193.8 352143.0 0
68661.0 351700.0 0
74935.4 353303.0 0
139476.0 352403.0 0
144683.0 353103.0 0
154306.0 354234.0 0
161601.0 355120.0 0
204665.0 350698.0 0
208958.0 353078.0 0
213534.0 350945.0 0
225758.0 350933.0 0
230740.0 350639.0 0
236519.0 350301.0 0
242380.0 350240.0 0
247901.0 351646.0 0
252047.0 350155.0 0
266160.0 352446.0 0
276404.0 351948.0 0
281975.0 350846.0 0
287124.0 352851.0 0
292000.0 353807.0 0
302840.0 354441.0 0
61778.3 357459.0 0
68580.0 356074.0 0
71617.3 357588.0 0
81810.3 360126.0 0
90847.8 355659.0 0
137181.0 357118.0 0
149546.0 356039.0 0
157366.0 358391.0 0
295743.0 355643.0 0
300503.0 358571.0 0
306217.0 357751.0 0
78448.2 362941.0 0
132100.0 360468.0 0
135499.0 363991.0 0
309713.0 362916.0 0
1669.0 375615.0 0
5450.75 375221.0 0
9901.74 375280.0 0
14358.5 375198.0 0
18509.4 375143.0 0
23040.0 375104.0 0
26918.6 375430.0 0
30769.7 375245.0 0
34429.4 375519.0 0
37332.0 375626.0 0
41215.6 375470.0 0
45879.7 375112.0 0
49246.6 375250.0 0
52955.7 375796.0 0
57061.4 375460.0 0
61103.4 375902.0 0
65835.4 375028.0 0
69403.6 375487.0 0
72793.5 375636.0 0
76571.8 375165.0 0
80740.1 375342.0 0
85322.1 375209.0 0
90304.8 375325.0 0
94689.4 375273.0 0
99263.9 375310.0 0
103304.0 375387.0 0
111079.0 375297.0 0
107144.0 375311.0 0
115324.0 375204.0 0
119336.0 375647.0 0
123388.0 375181.0 0
128777.0 375210.0 0
132307.0 376428.0 0
137450.0 375620.0 0
134720.0 375389.0 0
141177.0 375030.0 0
146399.0 375125.0 0
143859.0 376778.0 0
151232.0 375772.0 0
155561.0 375223.0 0
158973.0 376113.0 0
162890.0 375780.0 0
166594.0 375317.0 0
170419.0 375540.0 0
173454.0 375424.0 0
177329.0 375148.0 0
181845.0 375215.0 0
185287.0 375505.0 0
185973.0 370676.0 0
188901.0 375550.0 0
193496.0 375029.0 0
197549.0 375122.0 0
196293.0 377246.0 0
199752.0 376248.0 0
300946.0 376191.0 0
305097.0 368393.0 0
308845.0 367457.0 0
308702.0 376140.0 0
312287.0 375278.0 0
316822.0 375897.0 0
321069.0 375646.0 0
324404.0 375644.0 0
327830.0 375464.0 0
331882.0 375366.0 0
336147.0 375075.0 0
339908.0 375859.0 0
343662.0 375403.0 0
348609.0 375777.0 0
352706.0 376020.0 0
356303.0 375033.0 0
360910.0 375288.0 0
365777.0 375933.0 0
370474.0 375271.0 0
376024.0 375303.0 0
373188.0 377291.0 0
380021.0 375736.0 0
383962.0 375466.0 0
388380.0 375973.0 0
393622.0 375216.0 0
397160.0 375484.0 0
400165.0 375336.0 0
404154.0 375326.0 0
408534.0 375041.0 0
410602.0 377390.0 0
413200.0 375123.0 0
417937.0 375164.0 0
422183.0 375477.0 0
426419.0 375620.0 0
430132.0 375266.0 0
434157.0 375431.0 0
438540.0 375072.0 0
443120.0 375213.0 0
441302.0 377228.0 0
446542.0 375187.0 0
451666.0 375474.0 0
456422.0 375624.0 0
461386.0 375645.0 0
465662.0 375647.0 0
470236.0 375557.0 0
474299.0 375311.0 0
479384.0 375302.0 0
484167.0 375467.0 0
487970.0 375265.0 0
492807.0 375210.0 0
497781.0 375452.0 0
4048.07 378769.0 0
1267.19 378718.0 0
1382.93 381462.0 0
7731.12 378062.0 0
10009.5 380689.0 0
5649.34 382303.0 0
12107.2 378239.0 0
13839.6 382167.0 0
16126.9 379051.0 0
20653.4 378549.0 0
25194.0 378464.0 0
23245.5 382295.0 0
26956.8 381096.0 0
28948.0 378381.0 0
30153.0 381733.0 0
32819.5 378710.0 0
37281.2 378970.0 0
38707.0 382202.0 0
40684.7 379896.0 0
44721.6 377960.0 0
43791.1 381128.0 0
48593.0 377947.0 0
47718.5 381141.0 0
50842.1 382073.0 0
51819.5 379247.0 0
54354.2 382046.0 0
56381.1 379035.0 0
59959.5 380378.0 0
64979.5 379101.0 0
69299.4 378264.0 0
68299.6 382291.0 0
71943.8 380107.0 0
74914.8 378201.0 0
75874.9 382584.0 0
78607.4 378366.0 0
81063.6 381805.0 0
83212.2 378458.0 0
85505.3 381874.0 0
87718.5 378844.0 0
92616.7 379421.0 0
96791.2 378860.0 0
101007.0 378644.0 0
98695.9 381716.0 0
104838.0 378604.0 0
102477.0 382098.0 0
109088.0 378599.0 0
107061.0 382355.0 0
111439.0 382323.0 0
113082.0 378699.0 0
115161.0 382095.0 0
117271.0 379024.0 0
121241.0 379500.0 0
125961.0 379145.0 0
122621.0 382418.0 0
129851.0 379217.0 0
129976.0 382039.0 0
132491.0 379838.0 0
136200.0 379010.0 0
140142.0 378496.0 0
147636.0 378549.0 0
143813.0 380146.0 0
147809.0 382327.0 0
151354.0 380430.0 0
155210.0 378586.0 0
161227.0 378666.0 0
158632.0 379848.0 0
162021.0 381172.0 0
167604.0 378088.0 0
164582.0 379248.0 0
168056.0 381322.0 0
171068.0 378724.0 0
171898.0 382425.0 0
175092.0 378655.0 0
179322.0 377039.0 0
176710.0 383551.0 0
179181.0 379470.0 0
180998.0 382258.0 0
182571.0 378638.0 0
184252.0 381536.0 0
186521.0 378666.0 0
190172.0 380334.0 0
191779.0 377606.0 0
194550.0 379462.0 0
198741.0 379284.0 0
301137.0 380385.0 0
304898.0 375728.0 0
304597.0 379297.0 0
308428.0 380594.0 0
312624.0 379018.0 0
320620.0 379375.0 0
316763.0 381215.0 0
323494.0 378138.0 0
323817.0 381128.0 0
326164.0 378740.0 0
326914.0 381090.0 0
329865.0 379145.0 0
329447.0 382644.0 0
334032.0 378498.0 0
340840.0 378984.0 0
337853.0 378082.0 0
337711.0 381129.0 0
344871.0 379918.0 0
349435.0 380094.0 0
353680.0 380164.0 0
357685.0 377949.0 0
358038.0 381678.0 0
361846.0 379706.0 0
366579.0 380662.0 0
369808.0 379088.0 0
373158.0 380832.0 0
377145.0 379790.0 0
381427.0 379103.0 0
385236.0 378743.0 0
383640.0 382399.0 0
388086.0 381395.0 0
392341.0 379528.0 0
395763.0 381711.0 0
397687.0 378663.0 0
400607.0 381746.0 0
402123.0 378095.0 0
406387.0 377744.0 0
404371.0 380303.0 0
408733.0 381024.0 0
412836.0 379947.0 0
415716.0 377763.0 0
416838.0 382248.0 0
419740.0 378918.0 0
421747.0 382443.0 0
427789.0 379245.0 0
424050.0 379254.0 0
431157.0 378328.0 0
430933.0 380939.0 0
432945.0 381020.0 0
428900.0 382565.0 0
434709.0 378704.0 0
437469.0 378330.0 0
436213.0 382054.0 0
439911.0 380508.0 0
444564.0 379180.0 0
448460.0 382543.0 0
448677.0 378033.0 0
452217.0 379692.0 0
455173.0 379303.0 0
457045.0 382414.0 0
459457.0 379244.0 0
461007.0 382424.0 0
463706.0 379823.0 0
468188.0 379142.0 0
471295.0 381930.0 0
472671.0 378674.0 0
476257.0 378365.0 0
475697.0 382172.0 0
482394.0 378307.0 0
479495.0 380388.0 0
484040.0 382244.0 0
486185.0 378553.0 0
488330.0 382330.0 0
489992.0 378702.0 0
494653.0 379173.0 0
492517.0 382566.0 0
498641.0 379047.0 0
497790.0 382589.0 0
1879.51 384851.0 0
10080.1 384137.0 0
6183.35 387159.0 0
14495.7 386255.0 0
10368.3 387650.0 0
18470.3 383276.0 0
19293.4 387123.0 0
23058.5 386014.0 0
26895.9 384284.0 0
30742.7 385454.0 0
34803.0 382706.0 0
34702.5 387029.0 0
38317.3 385782.0 0
41108.0 386559.0 0
44967.2 383514.0 0
41373.9 383510.0 0
44063.1 386862.0 0
48474.3 384947.0 0
52112.5 384491.0 0
55673.1 385905.0 0
57312.9 382689.0 0
59700.1 384728.0 0
63549.4 383491.0 0
63093.4 387723.0 0
67006.9 385859.0 0
70262.2 387543.0 0
71570.2 384189.0 0
74716.7 387448.0 0
79103.7 385940.0 0
83566.8 385576.0 0
90131.9 382845.0 0
87307.0 385090.0 0
91157.9 387581.0 0
94909.0 383837.0 0
99622.1 385119.0 0
104417.0 385436.0 0
109253.0 385750.0 0
114305.0 386185.0 0
118852.0 383444.0 0
119169.0 387581.0 0
126409.0 383492.0 0
122596.0 385660.0 0
130022.0 385706.0 0
134009.0 383554.0 0
136763.0 387295.0 0
139332.0 383095.0 0
144230.0 383818.0 0
147286.0 386114.0 0
150933.0 384539.0 0
155360.0 383093.0 0
153576.0 386935.0 0
159820.0 383431.0 0
162204.0 386343.0 0
164759.0 383626.0 0
168717.0 385553.0 0
172663.0 386011.0 0
175496.0 388120.0 0
180490.0 387093.0 0
183277.0 384218.0 0
187324.0 383444.0 0
191056.0 384138.0 0
193292.0 382318.0 0
189861.0 387009.0 0
196462.0 382392.0 0
194499.0 386088.0 0
199561.0 382311.0 0
199003.0 385960.0 0
301334.0 384686.0 0
304752.0 382885.0 0
307449.0 384538.0 0
312453.0 382266.0 0
314138.0 384578.0 0
310764.0 384518.0 0
317687.0 386310.0 0
320937.0 383716.0 0
325864.0 385183.0 0
330946.0 386901.0 0
333687.0 382916.0 0
335617.0 387406.0 0
340840.0 382764.0 0
337581.0 384381.0 0
340027.0 386972.0 0
344229.0 384506.0 0
346490.0 386639.0 0
347940.0 383557.0 0
351387.0 383666.0 0
349468.0 386953.0 0
355357.0 384143.0 0
353031.0 386189.0 0
359738.0 384878.0 0
363538.0 383443.0 0
364462.0 386872.0 0
366997.0 384560.0 0
370102.0 383228.0 0
374772.0 385388.0 0
379475.0 383271.0 0
379220.0 387595.0 0
382281.0 385862.0 0
386487.0 386354.0 0
392246.0 385110.0 0
397455.0 384873.0 0
401464.0 385620.0 0
405031.0 384297.0 0
409077.0 384965.0 0
412696.0 383778.0 0
415701.0 386573.0 0
419674.0 385523.0 0
425393.0 383131.0 0
423710.0 386894.0 0
428199.0 386552.0 0
432468.0 384128.0 0
436421.0 386024.0 0
439393.0 384078.0 0
443135.0 383246.0 0
445817.0 386782.0 0
453258.0 383016.0 0
451050.0 386243.0 0
455847.0 386864.0 0
463510.0 383850.0 0
459832.0 385167.0 0
462384.0 386632.0 0
466684.0 382811.0 0
466397.0 386910.0 0
469537.0 384992.0 0
473209.0 385898.0 0
477282.0 385500.0 0
480130.0 384003.0 0
483976.0 386077.0 0
488516.0 386582.0 0
494027.0 386315.0 0
498378.0 386412.0 0
1897.62 388812.0 0
1444.57 392449.0 0
8815.08 390250.0 0
5542.62 391850.0 0
12139.7 390319.0 0
16621.2 390760.0 0
22512.0 390526.0 0
26824.5 388214.0 0
26679.0 392879.0 0
31794.7 390468.0 0
37122.6 390002.0 0
40870.6 389276.0 0
44415.3 391261.0 0
47762.9 388862.0 0
51714.8 387811.0 0
54677.6 389862.0 0
58929.1 388914.0 0
62174.3 391847.0 0
66830.7 390462.0 0
71637.0 390838.0 0
75891.0 391741.0 0
78594.0 389508.0 0
82269.1 389089.0 0
86484.6 388490.0 0
84889.8 391633.0 0
88529.6 391692.0 0
96476.3 388463.0 0
93312.2 392249.0 0
101570.0 388850.0 0
106701.0 388970.0 0
110902.0 389045.0 0
109300.0 392474.0 0
116479.0 389788.0 0
113307.0 391103.0 0
119562.0 390759.0 0
126195.0 388100.0 0
122658.0 389820.0 0
126298.0 392258.0 0
129749.0 390043.0 0
133075.0 387825.0 0
133870.0 391930.0 0
142206.0 387618.0 0
138598.0 390862.0 0
146660.0 390094.0 0
150596.0 388340.0 0
150558.0 392204.0 0
154456.0 390498.0 0
157913.0 387656.0 0
161541.0 389619.0 0
165608.0 388786.0 0
163206.0 392105.0 0
170746.0 389865.0 0
174861.0 391652.0 0
178748.0 391151.0 0
183458.0 391755.0 0
185549.0 387503.0 0
188320.0 390958.0 0
192860.0 389967.0 0
198034.0 390658.0 0
305181.0 386864.0 0
301078.0 388731.0 0
304527.0 390751.0 0
309196.0 387600.0 0
307505.0 390391.0 0
310614.0 391472.0 0
313478.0 388337.0 0
317652.0 390370.0 0
322110.0 388620.0 0
327728.0 390599.0 0
333013.0 390937.0 0
337413.0 391072.0 0
341703.0 391047.0 0
343929.0 387987.0 0
346722.0 390616.0 0
356157.0 387889.0 0
352078.0 390513.0 0
356496.0 391814.0 0
360702.0 389551.0 0
365260.0 390269.0 0
369531.0 388214.0 0
371754.0 392718.0 0
373635.0 389903.0 0
376752.0 390208.0 0
374931.0 392588.0 0
379673.0 390953.0 0
382608.0 389309.0 0
385503.0 390889.0 0
389923.0 390161.0 0
396206.0 388117.0 0
394031.0 389269.0 0
393951.0 392132.0 0
397436.0 391618.0 0
399853.0 388568.0 0
402121.0 392374.0 0
403666.0 388448.0 0
405769.0 390937.0 0
407447.0 388266.0 0
411702.0 387908.0 0
409724.0 392388.0 0
414910.0 391266.0 0
418974.0 389237.0 0
422671.0 391319.0 0
426410.0 390313.0 0
429472.0 390150.0 0
432573.0 388024.0 0
432590.0 392279.0 0
436533.0 390038.0 0
441014.0 387861.0 0
439955.0 391951.0 0
444539.0 391656.0 0
448726.0 389473.0 0
452776.0 390227.0 0
456975.0 391162.0 0
459761.0 388757.0 0
460589.0 392141.0 0
463764.0 389912.0 0
468326.0 391222.0 0
470133.0 388023.0 0
472896.0 389954.0 0
476115.0 388236.0 0
477465.0 392088.0 0
480499.0 388022.0 0
481777.0 391618.0 0
484817.0 389308.0 0
488231.0 390523.0 0
492350.0 390295.0 0
497729.0 390265.0 0
2769.67 396662.0 0
9726.43 393186.0 0
7497.7 395745.0 0
13022.3 393920.0 0
11172.8 397083.0 0
19869.6 393465.0 0
16732.9 397291.0 0
22488.2 395604.0 0
26337.2 397602.0 0
31418.0 395757.0 0
35979.2 393802.0 0
40243.5 392979.0 0
38059.7 395417.0 0
40695.2 397219.0 0
44434.5 394961.0 0
50356.4 393074.0 0
47266.3 396860.0 0
54099.1 396564.0 0
57155.1 393144.0 0
58015.2 397351.0 0
61334.1 395537.0 0
65531.1 394526.0 0
69555.6 394254.0 0
73311.0 393860.0 0
73075.2 397140.0 0
76736.7 395696.0 0
80573.2 393401.0 0
85240.2 395838.0 0
89715.3 395159.0 0
95958.3 394859.0 0
93578.4 397734.0 0
98950.2 393017.0 0
97803.7 397240.0 0
104172.0 393268.0 0
107358.0 396690.0 0
117054.0 393149.0 0
112848.0 395508.0 0
121930.0 394227.0 0
117835.0 396977.0 0
126937.0 397218.0 0
129774.0 393771.0 0
132755.0 397251.0 0
137828.0 395456.0 0
142790.0 393136.0 0
147104.0 393721.0 0
145610.0 396504.0 0
149925.0 396989.0 0
154294.0 394661.0 0
158824.0 392577.0 0
157963.0 397568.0 0
167196.0 393417.0 0
162944.0 396486.0 0
172282.0 395426.0 0
176656.0 394519.0 0
180105.0 395141.0 0
183844.0 395949.0 0
187125.0 394935.0 0
191385.0 394177.0 0
194807.0 393531.0 0
196784.0 395168.0 0
194425.0 396890.0 0
199398.0 394694.0 0
301279.0 393536.0 0
306880.0 395241.0 0
314615.0 392639.0 0
311753.0 394998.0 0
315235.0 396671.0 0
318171.0 394556.0 0
320777.0 392555.0 0
324333.0 392931.0 0
322084.0 395887.0 0
326044.0 396068.0 0
330404.0 394989.0 0
335187.0 394587.0 0
339467.0 394472.0 0
337384.0 397638.0 0
343953.0 394517.0 0
348934.0 394651.0 0
353447.0 395003.0 0
360065.0 393421.0 0
357695.0 394969.0 0
361308.0 396785.0 0
363563.0 393484.0 0
365668.0 396661.0 0
367814.0 393007.0 0
370162.0 396492.0 0
374612.0 396426.0 0
377940.0 393520.0 0
378943.0 397195.0 0
382317.0 393803.0 0
385247.0 397301.0 0
387277.0 393996.0 0
391547.0 394566.0 0
395596.0 394976.0 0
393610.0 397304.0 0
399459.0 395093.0 0
405798.0 394265.0 0
403112.0 397602.0 0
413320.0 395856.0 0
418917.0 394449.0 0
423202.0 395385.0 0
425616.0 393572.0 0
426728.0 397146.0 0
428629.0 393428.0 0
431379.0 396364.0 0
436250.0 394716.0 0
438215.0 397456.0 0
441429.0 395586.0 0
445942.0 396062.0 0
449179.0 393189.0 0
450814.0 397121.0 0
453972.0 393886.0 0
458058.0 394909.0 0
461641.0 395657.0 0
464746.0 393838.0 0
468135.0 395861.0 0
464437.0 397816.0 0
472163.0 393854.0 0
476312.0 396811.0 0
481464.0 395635.0 0
485336.0 393088.0 0
485989.0 396682.0 0
490046.0 394477.0 0
493921.0 397763.0 0
498834.0 393676.0 0
495192.0 393790.0 0
498251.0 396802.0 0
2879.1 402394.0 0
7794.52 399849.0 0
12359.1 401490.0 0
17527.6 402843.0 0
21772.8 399935.0 0
25679.8 401845.0 0
30627.9 400946.0 0
35910.4 398398.0 0
40038.6 402042.0 0
44848.9 400220.0 0
50378.7 399573.0 0
55390.9 400985.0 0
60982.3 400807.0 0
64379.3 398135.0 0
65189.3 402090.0 0
68621.8 398829.0 0
76393.1 398943.0 0
73363.9 401406.0 0
80398.6 398453.0 0
77731.2 402086.0 0
81217.4 402406.0 0
84569.2 400636.0 0
88985.2 399413.0 0
92952.9 402287.0 0
101799.0 398092.0 0
97540.9 401190.0 0
105269.0 400850.0 0
110621.0 400939.0 0
115130.0 399367.0 0
121774.0 399269.0 0
118083.0 400619.0 0
129707.0 401082.0 0
133790.0 402119.0 0
137736.0 399981.0 0
141964.0 398122.0 0
142045.0 402545.0 0
146293.0 400474.0 0
150838.0 402211.0 0
153633.0 398795.0 0
155953.0 402291.0 0
161199.0 402015.0 0
164486.0 400362.0 0
167768.0 398680.0 0
172130.0 399709.0 0
169742.0 403427.0 0
176904.0 398306.0 0
174701.0 402295.0 0
181696.0 398883.0 0
179369.0 402095.0 0
186136.0 398872.0 0
184271.0 402397.0 0
190406.0 398129.0 0
189173.0 402349.0 0
198266.0 398154.0 0
194483.0 401375.0 0
199047.0 401687.0 0
302218.0 398110.0 0
306720.0 401278.0 0
311087.0 399049.0 0
315567.0 401156.0 0
319242.0 398295.0 0
323882.0 399757.0 0
328655.0 399163.0 0
331039.0 402041.0 0
333539.0 399179.0 0
337876.0 401486.0 0
341252.0 398123.0 0
346154.0 398654.0 0
342739.0 402819.0 0
350948.0 399069.0 0
356253.0 399082.0 0
360257.0 400001.0 0
363870.0 400819.0 0
368109.0 399352.0 0
372100.0 400770.0 0
376482.0 400545.0 0
380564.0 401123.0 0
382175.0 398281.0 0
384931.0 401650.0 0
389388.0 398404.0 0
389443.0 402859.0 0
393575.0 400760.0 0
397632.0 398671.0 0
401205.0 401596.0 0
405761.0 402530.0 0
408702.0 398063.0 0
410219.0 402212.0 0
413172.0 400367.0 0
416810.0 398514.0 0
417353.0 402872.0 0
421745.0 399172.0 0
426036.0 401349.0 0
429936.0 399976.0 0
428886.0 402718.0 0
434857.0 400074.0 0
439548.0 399364.0 0
439385.0 402958.0 0
442977.0 399730.0 0
447459.0 400428.0 0
452329.0 401531.0 0
455507.0 398330.0 0
456428.0 402401.0 0
460172.0 399164.0 0
464325.0 402124.0 0
467757.0 399761.0 0
471695.0 398502.0 0
474883.0 400968.0 0
479497.0 400207.0 0
484000.0 399557.0 0
489206.0 398983.0 0
486636.0 402832.0 0
490324.0 402213.0 0
493322.0 401540.0 0
497707.0 400557.0 0
3307.68 408005.0 0
8236.32 404922.0 0
13394.9 406780.0 0
18438.2 406715.0 0
22376.7 404708.0 0
27380.4 405369.0 0
31386.1 405442.0 0
35358.4 403330.0 0
34431.1 407579.0 0
38949.2 407132.0 0
43902.8 405741.0 0
47777.6 403640.0 0
48570.7 408048.0 0
51585.1 404231.0 0
55337.0 405037.0 0
58695.8 404172.0 0
57914.9 407747.0 0
63045.9 406249.0 0
69058.8 404377.0 0
74839.7 405910.0 0
79622.7 405566.0 0
84095.4 404948.0 0
88335.0 403665.0 0
91610.0 405852.0 0
96403.7 405718.0 0
101546.0 403729.0 0
100254.0 407671.0 0
106695.0 404791.0 0
104058.0 407930.0 0
111622.0 406134.0 0
115447.0 403211.0 0
116904.0 407687.0 0
119885.0 403585.0 0
121881.0 407037.0 0
125198.0 403131.0 0
130159.0 405757.0 0
134773.0 405920.0 0
138295.0 404410.0 0
142057.0 407181.0 0
145921.0 404780.0 0
149785.0 406318.0 0
154109.0 406440.0 0
158673.0 406131.0 0
163425.0 406501.0 0
165569.0 403028.0 0
173086.0 406803.0 0
177011.0 405367.0 0
181489.0 406447.0 0
187134.0 406508.0 0
192782.0 406795.0 0
197971.0 405030.0 0
301467.0 402694.0 0
304791.0 405352.0 0
307773.0 405999.0 0
311461.0 404474.0 0
320242.0 402686.0 0
316660.0 405923.0 0
323774.0 404119.0 0
321392.0 407180.0 0
325795.0 407413.0 0
327077.0 403031.0 0
330407.0 406121.0 0
334502.0 403926.0 0
338816.0 406718.0 0
343327.0 407017.0 0
348139.0 403525.0 0
350852.0 407154.0 0
353315.0 403504.0 0
359199.0 404403.0 0
364206.0 406285.0 0
368090.0 403279.0 0
371269.0 405232.0 0
368408.0 407782.0 0
374730.0 404523.0 0
378384.0 403983.0 0
381795.0 405157.0 0
377799.0 408073.0 0
386380.0 406493.0 0
390785.0 406280.0 0
393268.0 404290.0 0
397267.0 403764.0 0
398572.0 406758.0 0
401762.0 405733.0 0
406145.0 405762.0 0
409624.0 406163.0 0
413098.0 403635.0 0
414669.0 407553.0 0
419477.0 406623.0 0
422648.0 404122.0 0
427423.0 405803.0 0
431592.0 403617.0 0
431632.0 407728.0 0
435315.0 405105.0 0
441947.0 407307.0 0
438809.0 406944.0 0
443945.0 404146.0 0
449191.0 405272.0 0
453880.0 404737.0 0
457446.0 406741.0 0
460075.0 403348.0 0
462193.0 406562.0 0
466268.0 406136.0 0
470865.0 403631.0 0
473720.0 407427.0 0
477237.0 404561.0 0
482139.0 403805.0 0
485081.0 406446.0 0
491030.0 406922.0 0
495440.0 404158.0 0
498573.0 404145.0 0
1622.15 412034.0 0
8642.21 409536.0 0
5538.43 412654.0 0
12748.1 412026.0 0
17580.0 410779.0 0
21205.0 408380.0 0
25021.2 408708.0 0
22069.7 411711.0 0
30149.3 409943.0 0
25939.9 412690.0 0
35953.5 411810.0 0
41083.3 411287.0 0
44704.7 410032.0 0
47509.3 411931.0 0
53292.2 408296.0 0
51413.2 412253.0 0
56179.0 411736.0 0
60337.4 410395.0 0
63984.4 411927.0 0
67153.8 408948.0 0
71308.5 408696.0 0
74262.2 410080.0 0
77986.4 409445.0 0
82583.5 409017.0 0
85227.4 412091.0 0
87765.0 408414.0 0
92781.0 409368.0 0
94444.9 413140.0 0
97432.8 410289.0 0
101700.0 411542.0 0
106397.0 411797.0 0
108055.0 408348.0 0
111719.0 411120.0 0
116884.0 412920.0 0
121248.0 410868.0 0
125838.0 408419.0 0
129958.0 411088.0 0
133753.0 408914.0 0
137737.0 408549.0 0
140456.0 411655.0 0
146628.0 409343.0 0
143381.0 410174.0 0
151485.0 410177.0 0
155768.0 410180.0 0
160106.0 409869.0 0
164412.0 411004.0 0
168280.0 408322.0 0
168105.0 413065.0 0
172461.0 411695.0 0
176886.0 409301.0 0
180802.0 410985.0 0
184501.0 410011.0 0
188844.0 411464.0 0
193814.0 412157.0 0
198012.0 409408.0 0
301454.0 407617.0 0
305435.0 409023.0 0
301874.0 411750.0 0
309497.0 409148.0 0
313392.0 408576.0 0
317983.0 411442.0 0
323741.0 411325.0 0
329265.0 411254.0 0
334303.0 408828.0 0
338006.0 411789.0 0
342434.0 410735.0 0
346814.0 408522.0 0
350941.0 411248.0 0
355382.0 408469.0 0
360756.0 410172.0 0
365376.0 410287.0 0
368870.0 411336.0 0
372692.0 409026.0 0
375389.0 412680.0 0
379358.0 411944.0 0
382484.0 409329.0 0
386757.0 411427.0 0
390070.0 409214.0 0
394879.0 408251.0 0
396978.0 412339.0 0
399837.0 409500.0 0
405200.0 409568.0 0
410721.0 411199.0 0
415575.0 412843.0 0
418903.0 410123.0 0
423812.0 409357.0 0
428277.0 410111.0 0
431787.0 412873.0 0
435777.0 409586.0 0
436405.0 413215.0 0
440876.0 411505.0 0
445137.0 408645.0 0
446174.0 413211.0 0
448930.0 409974.0 0
453185.0 408592.0 0
456537.0 411754.0 0
460299.0 409836.0 0
464260.0 410291.0 0
469395.0 409814.0 0
474308.0 411359.0 0
477150.0 408782.0 0
478412.0 411868.0 0
481134.0 408212.0 0
482332.0 412862.0 0
486029.0 410472.0 0
494049.0 411516.0 0
490039.0 412869.0 0
497398.0 408130.0 0
497931.0 412883.0 0
2422.91 416055.0 0
9105.79 413676.0 0
7215.42 417707.0 0
11998.9 416661.0 0
19739.5 414218.0 0
16390.1 415373.0 0
22852.2 415458.0 0
28860.3 413647.0 0
27572.0 417381.0 0
31981.8 414878.0 0
35737.3 416627.0 0
39742.4 415442.0 0
44330.1 414362.0 0
42477.3 418227.0 0
48652.6 415191.0 0
50335.2 418136.0 0
54562.0 416561.0 0
59742.0 414534.0 0
64038.9 416723.0 0
69744.4 414064.0 0
75710.1 413421.0 0
74629.3 417549.0 0
80684.9 413769.0 0
85237.7 415890.0 0
82337.9 417222.0 0
89529.8 413571.0 0
93637.4 417924.0 0
98467.2 414969.0 0
103704.0 416637.0 0
109246.0 415814.0 0
113345.0 415582.0 0
116685.0 417782.0 0
121249.0 415788.0 0
125366.0 413238.0 0
129872.0 416988.0 0
135485.0 413760.0 0
140708.0 416857.0 0
144315.0 413440.0 0
145802.0 417442.0 0
148627.0 413594.0 0
149867.0 417234.0 0
153518.0 414379.0 0
157872.0 413344.0 0
157580.0 417216.0 0
161509.0 413818.0 0
161885.0 417819.0 0
164928.0 414896.0 0
170860.0 416011.0 0
177544.0 414516.0 0
174079.0 417206.0 0
180935.0 418123.0 0
183813.0 414527.0 0
188114.0 415966.0 0
191232.0 415017.0 0
198066.0 414535.0 0
194384.0 416180.0 0
301837.0 415723.0 0
306704.0 413723.0 0
310902.0 417102.0 0
312317.0 412807.0 0
315793.0 417007.0 0
321080.0 415854.0 0
326133.0 415419.0 0
333868.0 412982.0 0
331200.0 416296.0 0
336914.0 416895.0 0
342201.0 415228.0 0
346474.0 413231.0 0
346357.0 417960.0 0
350782.0 415883.0 0
356128.0 413881.0 0
361043.0 414713.0 0
365614.0 414377.0 0
362955.0 417937.0 0
370820.0 415211.0 0
375156.0 416709.0 0
378864.0 415720.0 0
382899.0 413899.0 0
387229.0 416671.0 0
391931.0 413407.0 0
396273.0 416617.0 0
401411.0 414427.0 0
407175.0 415009.0 0
412191.0 416339.0 0
416839.0 417016.0 0
421145.0 414620.0 0
426674.0 413946.0 0
424690.0 418201.0 0
429946.0 418168.0 0
434966.0 416673.0 0
438805.0 415481.0 0
442918.0 416522.0 0
448205.0 418117.0 0
451628.0 413619.0 0
452485.0 417456.0 0
455987.0 416179.0 0
461011.0 414352.0 0
466436.0 414300.0 0
471394.0 414773.0 0
479311.0 415184.0 0
475853.0 415219.0 0
482346.0 417111.0 0
486236.0 415116.0 0
490272.0 417223.0 0
494335.0 415389.0 0
497985.0 416819.0 0
2725.06 421042.0 0
7230.33 422145.0 0
10986.4 420998.0 0
15264.7 419738.0 0
19803.4 418556.0 0
18481.5 422428.0 0
23647.6 419014.0 0
22919.1 422706.0 0
28394.3 422863.0 0
32562.3 419440.0 0
38307.1 420622.0 0
43740.4 422496.0 0
46421.3 418415.0 0
49262.7 422202.0 0
54821.0 422342.0 0
59563.7 419315.0 0
64101.7 421640.0 0
67463.9 419143.0 0
71184.5 419531.0 0
74686.2 422559.0 0
78965.4 419212.0 0
83909.6 420104.0 0
88450.8 419000.0 0
98876.5 420647.0 0
103735.0 421769.0 0
107834.0 420583.0 0
112494.0 419721.0 0
116238.0 421812.0 0
120452.0 420577.0 0
124966.0 419248.0 0
135414.0 420144.0 0
139667.0 420641.0 0
143265.0 421578.0 0
148508.0 421554.0 0
153483.0 419576.0 0
158462.0 422457.0 0
167076.0 418616.0 0
163606.0 421876.0 0
172093.0 420947.0 0
176884.0 419522.0 0
180826.0 422432.0 0
185636.0 419827.0 0
191290.0 419283.0 0
197187.0 419888.0 0
302265.0 420133.0 0
306700.0 418902.0 0
310610.0 421658.0 0
315288.0 421722.0 0
319568.0 420432.0 0
323733.0 419172.0 0
328098.0 420118.0 0
332915.0 421041.0 0
337272.0 422250.0 0
341759.0 420464.0 0
346325.0 422869.0 0
350608.0 420851.0 0
354600.0 418594.0 0
358871.0 418485.0 0
362187.0 422938.0 0
367098.0 419305.0 0
372443.0 420685.0 0
377857.0 420093.0 0
381540.0 423234.0 0
382512.0 418684.0 0
386783.0 422463.0 0
392085.0 419610.0 0
396212.0 423300.0 0
399365.0 419582.0 0
404122.0 419146.0 0
406086.0 423077.0 0
408881.0 419737.0 0
414747.0 420965.0 0
420069.0 419980.0 0
426534.0 421868.0 0
434384.0 420610.0 0
438938.0 419771.0 0
443900.0 421260.0 0
454013.0 421716.0 0
459117.0 419250.0 0
464038.0 418710.0 0
469030.0 418712.0 0
466706.0 422477.0 0
473787.0 418954.0 0
478230.0 418551.0 0
476716.0 422790.0 0
481507.0 421545.0 0
486106.0 419780.0 0
494047.0 419228.0 0
490464.0 422463.0 0
494618.0 422910.0 0
497854.0 420945.0 0
1117.92 424703.0 0
4798.53 425988.0 0
1164.28 427236.0 0
9779.31 425508.0 0
14470.4 424447.0 0
19549.7 427316.0 0
25265.6 427258.0 0
30200.2 427716.0 0
33828.9 424130.0 0
38409.3 425803.0 0
42613.9 427267.0 0
46914.2 426439.0 0
51688.3 426916.0 0
56251.4 427275.0 0
59961.0 424478.0 0
64640.1 426717.0 0
69112.0 423729.0 0
72856.6 427294.0 0
81112.3 423865.0 0
77392.8 426589.0 0
86914.2 424687.0 0
91331.8 427837.0 0
92653.0 423355.0 0
96921.9 425851.0 0
101571.0 425227.0 0
106506.0 425514.0 0
110980.0 423903.0 0
114983.0 425779.0 0
118881.0 424282.0 0
123036.0 424378.0 0
129189.0 423879.0 0
134860.0 424963.0 0
139174.0 423636.0 0
142415.0 426277.0 0
138030.0 427903.0 0
145874.0 424867.0 0
148688.0 425653.0 0
152915.0 425053.0 0
162678.0 426592.0 0
167657.0 423944.0 0
172305.0 427241.0 0
176291.0 423793.0 0
176808.0 427253.0 0
180482.0 427627.0 0
185078.0 425127.0 0
189148.0 423399.0 0
193442.0 424135.0 0
198027.0 425139.0 0
301993.0 424743.0 0
305952.0 423100.0 0
305497.0 427687.0 0
308961.0 425680.0 0
313298.0 426069.0 0
318515.0 425554.0 0
324157.0 424082.0 0
329659.0 424851.0 0
334708.0 425713.0 0
340502.0 426757.0 0
345891.0 426932.0 0
350361.0 425947.0 0
355710.0 423469.0 0
359028.0 428227.0 0
363945.0 428431.0 0
368343.0 425153.0 0
376396.0 425990.0 0
383893.0 427085.0 0
391390.0 424251.0 0
388627.0 427617.0 0
393830.0 428178.0 0
398741.0 427590.0 0
401513.0 423711.0 0
402179.0 427403.0 0
405969.0 427700.0 0
410596.0 424472.0 0
414610.0 427306.0 0
418127.0 424398.0 0
422708.0 424036.0 0
426587.0 425784.0 0
431113.0 424156.0 0
436989.0 424756.0 0
433917.0 428676.0 0
442385.0 426201.0 0
448369.0 423526.0 0
452014.0 427969.0 0
457230.0 426463.0 0
461899.0 423915.0 0
466952.0 427383.0 0
471384.0 423554.0 0
475059.0 428438.0 0
480598.0 426210.0 0
485127.0 424336.0 0
488778.0 427185.0 0
484619.0 428274.0 0
493506.0 426385.0 0
497825.0 425348.0 0
2462.68 430464.0 0
4933.62 433401.0 0
7809.63 430191.0 0
12927.4 429367.0 0
17201.5 433086.0 0
22493.1 431943.0 0
27517.3 432107.0 0
34882.6 429194.0 0
39433.5 430168.0 0
43223.3 431379.0 0
48383.0 431877.0 0
54253.8 431335.0 0
60345.4 429875.0 0
65484.3 431961.0 0
68757.1 428601.0 0
71443.9 431572.0 0
75846.0 430947.0 0
82213.5 429607.0 0
85730.8 433118.0 0
87719.7 430090.0 0
90949.9 432927.0 0
95075.2 430452.0 0
100259.0 429819.0 0
105613.0 430894.0 0
110895.0 428938.0 0
109462.0 433427.0 0
115523.0 430054.0 0
119832.0 428390.0 0
122470.0 432158.0 0
118401.0 433166.0 0
124893.0 428596.0 0
126285.0 432794.0 0
128914.0 429856.0 0
133129.0 428938.0 0
141675.0 431311.0 0
146553.0 429300.0 0
151418.0 429661.0 0
157488.0 428596.0 0
154310.0 433302.0 0
167054.0 428746.0 0
163454.0 431384.0 0
167515.0 433179.0 0
172295.0 433101.0 0
176765.0 430868.0 0
181295.0 432447.0 0
184434.0 429588.0 0
189716.0 428716.0 0
195210.0 428449.0 0
198252.0 431139.0 0
301516.0 428758.0 0
303936.0 432634.0 0
310230.0 431523.0 0
316103.0 430216.0 0
322140.0 429106.0 0
324367.0 432549.0 0
326853.0 429004.0 0
331650.0 429235.0 0
336267.0 431570.0 0
341212.0 433129.0 0
344618.0 430544.0 0
349084.0 431126.0 0
354001.0 429780.0 0
357593.0 433048.0 0
367505.0 430124.0 0
368881.0 433366.0 0
371777.0 429962.0 0
376423.0 431165.0 0
380412.0 430510.0 0
385358.0 431872.0 0
390535.0 432317.0 0
397369.0 432243.0 0
402045.0 430836.0 0
406603.0 433029.0 0
410578.0 429708.0 0
415047.0 432585.0 0
418818.0 428880.0 0
420631.0 433528.0 0
423670.0 429119.0 0
429125.0 429798.0 0
433321.0 433432.0 0
438563.0 430302.0 0
443732.0 431427.0 0
446843.0 427964.0 0
448368.0 431919.0 0
452768.0 433710.0 0
456552.0 430881.0 0
461090.0 429274.0 0
464699.0 432081.0 0
470143.0 432285.0 0
481249.0 431033.0 0
486347.0 432830.0 0
492358.0 431421.0 0
497604.0 429703.0 0
11083.5 435075.0 0
32704.4 434039.0 0
38043.0 434658.0 0
58131.5 434702.0 0
78985.0 434262.0 0
96623.6 435256.0 0
101935.0 435008.0 0
113706.0 433944.0 0
136482.0 433449.0 0
159427.0 433643.0 0
186205.0 433633.0 0
193930.0 433601.0 0
319898.0 433451.0 0
374201.0 433742.0 0
425730.0 433811.0 0
460129.0 434164.0 0
477199.0 434015.0 0
481857.0 435305.0 0
490295.0 436357.0 0
494450.0 436016.0 0
497933.0 434091.0 0
POINT_DATA 5000
SCALARS Radius float 1
LOOKUP_TABLE default
4796.58 3979.26 3471.03 5253.55 5820.48 5782.6 4862.21 5113.21 3929.19 4107.03 4478.15 5379.87 5925.6 4501.51 4792.73 4736.58 4931.38 3485.26 4329.05 4151.94 4049.23 5337.48 6124.89 5708.81 5252.48 4780.03 5495.39 3996.0 3856.1 4665.12 3383.4 4133.88 4834.9 3850.77 6044.04 5415.48 5120.0 3863.18 4998.37 6182.6 5492.18 5258.36 5061.3 3642.12 3163.97 5812.43 5122.66 5906.14 7513.1 5254.28 5733.48 4672.91 5580.89 5645.7 6810.52 5840.26 6110.27 5561.06 5073.35 3615.22 5670.04 4380.59 6716.79 5759.91 7613.27 5529.52 4951.03 5255.32 6037.08 5096.78 6756.95 4129.43 6324.23 3843.58 3320.52 4194.5 4270.53 5344.25 5191.63 4593.7 4150.99 4216.92 4742.68 4344.58 5634.83 5495.84 6268.1 4861.06 5320.28 6739.08 4797.52 4569.12 4298.67 5960.66 6608.73 5011.84 7034.11 6261.42 4502.5 3771.48 4043.57 4271.69 5681.38 4138.42 3708.04 5513.6 3240.09 4556.36 6082.81 3191.99 4685.34 5601.05 4929.8 3586.91 3103.0 3554.9 4015.92 5542.21 4487.31 3936.02 4044.71 5980.74 4094.62 4927.02 5546.39 5325.36 5484.83 5085.53 5351.6 2356.98 4730.36 4715.55 5867.73 3951.75 5013.56 4499.64 4375.68 5542.27 5054.98 5170.02 5484.19 3557.27 4688.68 4436.4 4402.52 4517.56 4182.53 5903.42 3588.44 3955.56 3761.32 5176.86 4118.05 4366.19 5553.16 3672.51 2938.66 4940.78 4231.61 4008.92 3942.53 3379.84 3589.27 4827.82 3997.1 3607.45 3260.67 5123.52 3038.33 4392.68 4333.2 7199.21 4523.7 2240.39 5091.39 5293.9 6142.94 3912.37 4727.24 4602.25 4790.08 5082.47 4763.45 5445.87 3815.26 4704.72 4177.94 4571.7 5896.46 5022.8 3784.5 3780.23 6481.79 5374.51 7042.12 6326.39 5873.69 4962.09 3999.48 4359.62 6946.21 2586.12 5433.8 4011.77 5499.11 3633.87 5922.5 5198.77 5987.17 6013.14 2765.2 4901.41 5110.37 5664.98 4382.74 5927.43 4651.28 3693.63 4384.42 4516.43 5481.78 5043.05 5816.2 5109.54 6483.19 5945.65 6759.9 5538.89 7021.47 5416.38 6059.59 4955.55 2720.68 5701.86 3563.63 4238.81 4468.59 5885.03 6030.06 2837.58 5325.02 5200.76 4927.31 5017.13 4862.64 5185.34 4432.58 6684.56 3968.64 4688.67 2635.86 5292.64 6166.5 5065.13 5936.02 5305.17 4861.08 4003.05 5390.22 4805.87 4712.33 5227.21 5697.78 4667.36 4091.31 6372.62 4295.38 5615.42 7565.34 5923.5 4612.68 4973.83 6342.25 6691.39 5135.69 5344.0 6045.46 4245.72 5908.1 6048.7 6133.92 3719.84 4178.4 3095.48 4166.08 4123.6 5224.12 4850.14 4819.73 3382.7 6817.32 4471.58 4319.79 6098.14 4472.17 4203.26 5188.81 6057.22 5062.71 6125.34 4527.08 5347.48 4850.01 3970.25 5147.67 3979.82 5011.31 5138.31 5264.06 4659.59 6327.9 6355.42 4362.19 5690.56 4948.92 3115.91 5637.59 4937.14 3307.12 4493.48 5924.89 5693.81 4002.16 4174.52 3486.22 3829.13 4684.5 6230.49 5418.62 4601.27 5493.32 5740.68 5926.61 5836.15 3261.21 4345.55 6704.06 3653.41 3871.88 3856.01 5246.2 4390.66 5279.39 3673.74 5205.43 6116.18 7447.37 4924.6 4385.06 4733.32 7184.19 2899.43 2924.37 4290.3 3867.67 5399.73 4660.72 3888.21 6038.78 6902.81 6644.76 4254.17 5629.19 5090.24 5740.84 5530.87 4310.18 4281.49 5978.9 4187.56 3629.62 4997.27 4840.84 4301.06 4020.32 4290.14 6562.18 4156.38 5316.75 4541.21 4164.68 5669.65 5934.22 5624.49 5762.59 7092.87 5163.55 4666.81 3954.91 2965.01 6643.85 3637.61 6222.42 5654.31 4730.41 3745.84 5690.26 4156.2 4497.59 5965.78 4810.12 5643.58 5215.05 4292.06 5577.04 5006.58 4602.86 3688.8 4548.16 3369.23 4048.37 5449.18 5492.26 5244.78 5762.84 3937.74 4749.8 6084.86 5478.92 4778.34 5551.36 4138.16 6894.71 3091.3 4414.54 5789.98 6458.82 7054.71 3641.64 5489.43 5747.75 4277.89 6051.14 4796.33 4195.44 5539.32 6496.85 5600.93 4874.39 5541.59 4124.71 5728.85 4827.23 4911.47 5863.59 4381.97 6257.19 3255.82 2812.98 4065.69 5603.15 4695.45 6052.7 3921.18 3798.62 5891.05 5308.1 3666.57 5655.21 4786.6 4645.41 6445.94 5542.14 4218.06 7134.64 6308.71 4716.19 5514.76 3456.98 3498.2 4877.67 5105.16 3066.13 4302.5 6006.16 6009.88 7055.53 5013.67 5826.04 5339.78 4970.88 4143.78 4636.5 3703.1 4940.42 5923.4 6471.55 5499.39 5501.93 5463.38 5945.21 4938.74 5696.88 5607.14 3923.03 5975.63 4374.35 5252.34 6396.74 4138.46 2775.04 3821.72 4986.77 6318.18 5586.81 4621.75 3948.17 4551.24 5358.59 4220.88 4515.71 6519.71 6640.13 5082.6 5810.84 4230.54 5094.44 3748.24 4655.49 4467.94 4850.81 6138.47 5527.54 5573.7 4727.62 5054.25 4055.8 7325.81 5280.17 5360.19 4794.96 6186.19 5083.08 6834.49 6337.56 5525.39 5803.39 3998.5 4024.3 6394.38 5555.28 5242.73 4737.14 4686.65 5834.74 5556.96 5788.23 5581.75 6392.01 4907.89 6730.19 4937.02 4907.06 4073.93 3735.44 6043.3 5952.75 4433.59 4320.28 6332.36 6122.55 2739.94 4931.53 5480.13 3323.28 6695.82 6405.76 5794.24 4678.38 5448.61 5050.65 4827.33 5206.48 5513.57 5729.23 5226.0 3365.82 4538.95 5965.15 4763.66 6090.91 4946.42 5085.71 6116.33 5644.82 6343.14 5462.21 5750.71 5470.77 4831.47 4643.85 4004.04 4289.17 5564.02 4274.61 2965.79 6898.19 6035.6 5137.34 4481.53 5330.45 4581.13 3610.4 4219.07 6387.01 5367.52 3092.35 4322.15 5210.03 3629.96 5478.47 5351.39 6142.37 6061.47 4933.21 5375.47 6038.14 2540.31 5120.49 6029.66 5262.61 6302.8 5697.4 6038.2 4270.95 4005.44 5206.78 5555.88 6732.43 6425.26 5143.58 4484.76 4839.34 4840.01 2980.99 7933.0 4455.12 5173.87 5938.34 5380.13 5711.87 5118.27 5169.36 5932.23 5791.61 3369.13 4479.66 3043.85 5367.2 5461.13 4726.76 3599.45 5839.13 5489.34 5163.9 5708.14 5537.72 3920.42 6155.31 4223.33 5911.67 5709.62 5835.78 4127.74 2476.04 3942.07 7443.72 3937.08 5260.34 4709.35 6586.45 4373.3 4750.78 4163.5 5724.64 5078.86 4780.2 5100.1 3561.29 4963.34 5019.93 3295.83 5081.78 4260.92 6263.44 5960.56 5774.97 4020.95 6313.06 3474.39 6470.3 6062.05 5082.74 6915.83 6072.45 4410.55 7099.43 5526.14 5198.29 5423.0 5077.33 3856.59 5413.79 6338.89 6202.55 5025.39 4714.54 5893.5 3320.11 5030.91 6022.17 5119.37 6163.38 4566.18 4723.12 3459.9 4964.09 5201.36 5024.9 4306.53 5409.61 5094.81 5972.06 5713.22 5861.71 5028.96 4359.04 3866.16 3794.63 6362.12 3778.1 5152.36 4511.82 5611.2 4220.65 6820.42 4816.2 4894.16 4896.52 4751.02 3372.79 4941.22 5282.64 4715.72 4669.66 4808.52 5046.33 5607.24 5053.92 5495.68 4863.72 5002.48 4262.82 5102.36 8332.24 4342.9 5069.84 4553.56 5329.64 4051.44 6049.55 5941.72 5991.09 5133.97 6600.94 4788.58 5371.02 6155.1 5876.71 5029.78 6515.84 4888.6 4918.77 4371.99 4219.78 3885.86 4459.28 5235.29 4479.94 6250.23 4118.84 4863.27 5862.86 3493.7 5374.98 4200.03 4719.7 6939.12 4735.33 5092.37 6444.77 4287.63 5315.4 6449.45 3975.31 4746.52 3689.45 3824.16 5572.95 3868.18 6723.16 5584.06 7111.16 4547.19 3817.13 5507.24 3982.23 4583.31 4503.89 5806.08 4853.39 4997.27 4093.08 4809.42 5543.27 4717.05 5659.17 6135.57 5998.38 4312.67 5423.8 3183.98 4989.15 5017.78 4524.28 5015.69 6175.81 4727.24 6677.09 5826.64 6959.81 4829.35 5201.67 6321.41 4089.76 5526.55 3192.41 5184.56 4987.87 3315.57 5804.71 4764.96 5727.3 4242.52 5356.51 6352.26 3847.38 3818.59 4087.15 3057.03 4143.08 7500.97 6623.85 5228.18 5787.31 5065.11 5868.82 4978.31 4050.9 4241.89 4099.77 5054.74 4537.32 4656.78 5126.91 3600.43 5131.24 5196.67 6496.67 5474.8 6262.72 3664.11 5117.47 4925.63 2990.77 5882.65 4739.14 4434.19 5187.7 4188.3 6261.75 5177.64 4255.31 5453.3 6413.02 3492.19 4584.5 5122.63 6049.79 4703.08 5274.19 5516.95 4406.4 5411.85 4844.57 4027.46 6314.07 5776.37 4516.28 3627.82 4044.45 5125.78 5344.43 4373.47 5045.38 5350.88 5372.61 3686.21 6480.17 5023.15 4377.07 6851.54 3813.22 5570.3 4336.42 5243.29 7589.94 4449.22 3130.65 5628.24 5856.11 5287.2 4109.88 4234.94 4562.29 5013.13 5080.66 4270.24 3417.33 4926.42 4164.13 4642.34 4520.1 4947.52 5874.89 4305.57 4293.03 4389.21 3791.79 4424.7 4925.44 4754.05 4951.47 6084.93 5215.15 4307.28 3697.96 4739.42 5538.93 5020.12 4745.45 2631.9 5281.28 6255.18 4277.88 4668.71 4758.21 7228.46 3948.23 6719.88 5978.82 5266.5 3927.99 4948.98 4414.48 5227.52 4092.24 4981.9 5163.02 7144.24 4906.82 5687.83 5004.23 6442.69 4648.04 6607.87 4721.32 3293.56 3163.78 5274.14 4903.82 5746.28 4623.61 4082.47 5511.6 4338.08 4378.3 6134.99 4094.73 4407.9 4440.57 5548.29 6766.43 2315.64 6345.13 5226.56 5599.49 5313.22 4413.85 3905.51 3999.94 4470.98 4864.22 5759.46 3921.08 4190.31 5678.96 5262.19 4244.9 6070.58 6034.41 5452.83 5130.91 5402.24 4519.22 6445.22 3844.9 5101.59 3963.86 3848.93 4306.11 5935.47 3402.32 5903.66 4528.49 5004.67 5365.89 3327.49 5992.26 3960.8 5070.39 4980.85 5714.58 5110.45 5208.32 5248.77 4083.97 4607.02 5153.74 4528.09 3895.51 4165.81 5813.4 6291.51 4128.98 5882.89 6246.22 4188.32 5246.61 4100.38 5344.77 4723.48 4899.11 5097.87 4278.07 7267.18 5320.92 5269.18 4406.1 6362.14 5034.59 4454.63 5080.18 5912.61 4523.88 3279.1 4066.38 4403.98 4560.84 4729.43 5776.57 4562.74 5598.74 7493.3 4814.55 6320.71 3464.83 5698.77 2477.07 6413.11 4305.16 5092.28 4965.89 5659.95 4152.85 2908.7 4453.64 4517.73 5469.47 5660.16 4989.56 4718.54 2588.37 6736.03 6235.57 3623.87 5916.16 4390.41 6113.95 4097.57 5017.5 5563.79 3901.8 6171.13 5511.88 5083.41 7055.42 5486.68 6048.86 4285.32 5490.43 5022.28 4959.34 4948.5 4527.02 4531.14 3695.36 4564.34 3838.56 4871.44 5076.35 6020.48 6375.99 5200.05 5234.29 5313.66 5419.37 4466.03 4511.54 5409.33 5196.0 4923.9 4973.78 3329.99 3947.47 3296.27 4713.25 4204.84 6243.0 6673.96 3556.85 5441.96 3435.9 5174.89 4288.3 5370.52 4652.29 5774.81 3746.31 5498.32 5027.98 5346.27 6475.1 4969.21 2691.29 2845.98 6256.02 5314.85 4305.43 5450.44 4942.77 5742.65 4263.33 5592.32 5381.16 6193.35 6086.96 5233.78 3701.27 5653.9 5046.21 5683.26 5894.61 5139.5 5304.13 5944.09 5833.06 3527.05 4923.41 4497.31 5384.76 5529.42 5257.12 5243.43 4537.14 5551.9 3757.34 6415.61 4687.64 4419.71 5037.06 3838.47 4541.8 5175.29 5842.56 5412.31 3087.09 6934.37 4890.5 4050.08 3981.07 5452.42 5328.22 6853.85 2395.5 3497.9 5941.61 4512.11 5782.48 6248.6 5683.61 3836.45 5100.25 6894.26 4986.51 5197.52 5178.99 5383.07 4591.87 5013.42 4790.78 4247.15 6552.22 5651.07 6248.81 5273.35 2651.49 4645.58 5512.23 5275.32 5985.29 4898.94 4178.15 4613.31 4733.04 6119.09 5788.66 5091.68 7531.29 5069.25 5048.89 3161.47 3991.03 6390.78 7435.25 6826.57 4788.87 4495.87 6022.72 4643.31 5527.33 5402.21 4989.09 4880.14 5289.52 4982.31 3848.54 4307.48 5941.4 5331.02 6510.17 4871.96 4863.23 4402.67 4470.61 5565.13 4384.88 6887.27 6008.49 4806.34 4287.53 5612.21 4929.14 5945.08 3979.54 3306.14 5490.58 4863.79 4702.06 3830.46 6031.67 4689.15 6138.12 4428.78 5409.66 4345.67 4765.72 4642.66 4752.14 5329.59 4888.12 4950.97 5512.16 3197.63 4863.96 5887.15 5203.08 7480.41 3423.15 4488.85 3731.84 4901.07 5186.3 3436.15 4151.76 4020.4 3493.47 4596.75 5443.58 4558.46 5805.86 4470.4 5311.03 5339.38 5255.12 6169.11 5615.35 4027.09 6422.84 4502.18 5379.09 4602.85 4962.77 5872.05 4853.02 4091.8 6259.23 5181.4 5670.2 4711.62 4247.23 4114.24 4268.65 4694.83 5509.42 4354.08 4256.43 5936.36 4520.62 3903.75 4755.47 5935.03 4485.99 5127.16 5475.8 5314.69 6050.81 5543.46 4249.46 5965.81 3702.37 4750.17 5660.85 2330.66 4177.19 6917.52 3587.05 6229.37 6718.19 5282.91 4425.84 7256.35 4800.69 3555.86 6386.78 4631.83 4996.99 6081.14 5480.83 4220.46 4607.85 5128.57 6000.7 3169.67 5604.21 4968.03 3361.92 6710.88 5395.14 3967.48 6213.04 3685.13 6790.73 4655.16 5251.4 3867.19 5857.79 4039.91 5276.7 5036.58 6119.63 5411.02 4752.9 4287.16 5199.44 5191.08 4062.5 4435.51 5374.07 5163.77 4588.7 3766.55 4579.69 3554.48 6496.52 5005.85 4216.17 6484.17 4721.02 4254.37 3374.08 4933.65 4031.78 6098.1 5708.99 4049.02 5346.68 5296.29 4611.53 4896.11 4285.66 5172.53 4135.62 5801.99 5210.48 7552.94 5323.3 5088.44 4998.21 4662.56 5349.31 2976.22 4649.22 5394.55 5094.52 4946.74 2682.24 5928.32 5229.48 5475.7 4016.18 5526.75 5435.74 4244.99 5327.45 5560.26 6185.89 3997.96 4439.35 3460.94 3990.25 3691.0 3758.07 4752.51 4236.14 4407.87 5733.62 5282.51 4460.92 3797.33 5945.89 4042.28 4105.55 4340.76 6566.1 6065.22 4221.28 4456.39 4896.39 3633.79 5421.53 5937.08 6070.3 5233.29 4312.56 4612.06 5204.04 4750.58 6667.68 5235.11 6622.11 5211.38 4590.55 5920.32 4255.85 5097.69 3988.3 6543.13 5149.72 5776.96 5464.25 5486.48 5301.47 4617.55 5424.88 5415.85 8659.64 5683.95 6027.62 5010.2 6123.03 5966.61 5711.11 4575.94 4938.72 3546.71 5768.57 5564.23 5950.04 5687.85 4231.83 2435.33 6401.43 5020.71 2681.29 5094.48 3872.61 4238.4 4318.48 6132.95 5534.94 4860.33 7644.38 6004.68 4051.34 6101.92 3627.55 6239.84 4635.6 4256.67 3457.48 5166.79 3931.07 3405.98 5417.15 3688.16 4681.72 4945.39 5996.33 3950.63 5415.19 4612.62 3619.07 4275.57 4467.04 6385.23 2983.99 2614.4 6363.92 6205.93 4923.24 5830.72 6184.4 3828.81 4373.45 4082.57 5255.18 5169.9 3004.16 4767.78 5235.17 4421.12 4779.5 5254.49 6649.96 4303.19 5514.84 5784.3 3914.2 4256.57 6088.68 4135.08 5620.74 4778.82 6124.08 5467.84 5053.95 5926.11 5253.37 5767.9 6515.8 5089.62 5869.4 4741.26 3701.16 4186.6 5895.77 4732.09 6136.49 4356.25 4216.95 4209.49 5742.74 4244.21 4947.24 3645.12 3875.05 6200.54 5148.58 4199.45 6599.66 5469.13 4233.8 5765.42 6098.95 4997.83 4893.49 5325.44 5021.88 5956.65 4498.25 4188.87 3735.24 6574.95 4074.48 4558.47 5731.57 5997.88 5839.71 5576.92 6408.83 5266.22 3930.79 4004.35 5226.97 3685.13 3312.06 3361.26 6799.4 5278.36 5865.39 4427.28 6079.11 3082.32 6430.39 7440.72 3949.6 5703.6 6326.18 5661.62 6631.19 6648.68 4713.74 5626.61 5817.25 4084.49 5061.98 6632.99 4537.6 5147.36 4419.61 7177.44 4563.46 5309.98 6553.94 5460.65 5652.0 5463.41 5225.33 4929.75 4435.36 6045.22 5134.39 3532.3 5769.98 5442.32 2221.99 4643.56 3580.58 4863.01 5356.79 5657.36 3619.79 5029.47 6306.21 5266.01 2978.76 2040.66 7016.27 3876.21 3685.65 5689.26 4916.22 6022.7 4940.84 5750.07 4809.67 4757.74 6045.67 3946.28 3821.94 5439.9 5367.73 3540.11 3456.47 4652.01 5421.64 7234.66 4207.54 4055.54 4886.12 6419.12 4976.12 5453.98 3991.42 4388.63 5102.75 4200.09 4597.29 5931.77 5151.21 5398.64 6333.29 4477.04 3886.68 5703.74 5662.55 5737.92 4360.23 5365.24 5293.51 4763.96 5754.18 5180.76 3418.99 4480.95 4993.35 4409.63 5521.25 3661.9 5370.85 5949.46 3658.37 3178.54 4765.02 5376.71 4448.13 5070.29 4807.28 4867.08 4266.03 5280.69 4220.03 6923.84 5407.78 5449.46 6179.96 6113.54 4662.43 6260.79 3963.76 5528.53 6799.88 3062.43 5726.66 5426.78 2967.38 4159.35 6477.91 4237.98 6439.37 4081.97 4614.3 5401.99 5580.92 5973.33 5067.46 3583.21 2511.46 4011.37 2775.69 4785.25 6519.43 5876.64 5424.46 4857.84 4908.49 4962.21 4858.44 5884.9 3468.42 4673.35 4992.42 5297.19 4351.38 4833.46 5933.7 7248.4 5280.12 5984.81 3498.16 4409.27 4640.06 5471.74 3548.39 3673.28 4858.51 3375.28 5625.65 4301.61 6107.89 4817.16 4446.84 5660.55 5148.08 4834.87 5760.22 3672.21 5938.17 4795.43 5097.95 6817.57 4693.52 3614.96 6853.04 4745.43 5831.96 4747.55 3056.7 3755.95 6234.32 4586.19 4446.06 3450.93 5008.63 4270.74 5132.68 6595.03 4558.15 6218.95 5222.16 5107.23 5136.08 3776.94 5558.68 4010.57 5629.39 2684.03 6157.04 4768.61 2261.36 5075.55 4522.21 5506.19 6719.94 4950.67 5227.59 6166.29 5453.6 5703.07 5294.77 4709.05 4630.82 4043.66 4813.08 5860.67 4540.86 5990.52 4835.83 5604.35 6316.56 4332.87 3091.67 6420.81 4715.58 4450.7 5151.52 5369.08 4347.74 4009.62 5291.9 2081.58 6505.78 5461.55 6865.76 6449.64 6464.8 4684.44 4749.59 5799.69 3809.69 5571.72 4771.13 3208.96 7051.9 4184.23 4144.57 5550.75 6834.41 6226.14 5466.33 4444.97 3000.29 5721.05 4247.69 4514.39 4588.99 4321.21 4344.34 4928.27 3583.49 5052.84 4366.74 5297.16 3184.64 5206.33 5530.49 5653.03 3718.69 4514.79 2216.82 4509.89 6752.75 5269.38 5607.3 5108.06 3573.73 2928.82 4222.4 4000.43 3420.08 4568.41 4912.04 4539.07 5464.68 2685.81 5591.76 4585.31 6625.18 5323.91 5097.45 6293.89 2761.07 5737.75 4983.39 5366.52 4690.55 5533.72 5533.42 4802.32 3678.08 4599.38 5246.47 4187.31 6191.29 3240.51 7422.36 5161.01 4298.15 4628.4 5832.37 6051.83 4642.93 5409.63 4263.16 3973.12 3077.84 6024.75 6109.49 5567.93 5987.42 5332.65 3764.1 4442.22 6451.33 5413.31 3012.99 6400.08 4743.59 5208.14 3317.83 3763.05 5092.24 5549.49 3101.75 4518.04 4766.06 4874.18 5435.19 3298.2 4270.15 4953.1 5818.95 4093.99 3940.49 4406.05 4680.94 5828.35 5876.72 5236.43 5285.07 4680.14 4608.41 4187.94 5980.59 3796.15 4801.8 7216.98 5271.02 4209.31 5718.28 6242.79 5950.45 5713.03 5849.65 5134.67 4165.21 4215.0 4936.96 4481.76 5452.78 5065.26 4304.41 6192.0 4940.28 5885.28 6579.31 3004.34 3022.6 4914.45 4811.76 4698.87 4661.03 3624.7 4691.91 5262.35 4475.83 4510.8 5889.35 5010.04 4394.56 4570.98 4275.07 5825.38 4185.61 4047.87 5742.47 3778.02 6552.21 5417.8 5146.37 7132.12 4836.16 5518.57 5151.11 5463.48 5730.33 5545.46 4527.99 4376.7 4543.1 5190.61 8325.01 3764.06 4440.81 5941.9 5434.47 6642.76 5829.22 4497.78 4243.79 5811.18 5433.65 4008.15 4887.76 4669.06 4811.32 4286.49 6184.88 5829.32 4396.25 5551.95 3918.87 5423.42 2275.45 6605.86 5012.5 4383.56 3562.79 7093.13 4516.53 4122.92 3604.14 4452.54 5089.1 2711.19 4028.32 4099.92 4884.59 3858.06 4511.7 4083.79 5263.27 6300.92 5021.77 4173.54 5599.29 6038.68 5046.12 4807.4 7013.17 3805.67 4601.74 6506.86 5088.57 5580.34 3852.6 5775.31 4706.5 4603.5 4647.67 5375.12 4356.36 4892.44 5578.94 7610.49 4286.17 3684.56 5323.55 5375.1 4172.6 5313.12 5351.56 5160.59 3984.88 4732.09 4320.42 4255.34 5064.79 5480.3 7509.24 4146.81 5896.26 5388.78 6101.13 4573.72 5099.21 4917.99 5636.4 4367.78 4350.12 5227.02 5670.0 4232.16 5300.96 4344.51 5680.94 3781.77 5581.55 5193.01 3474.5 6550.44 3860.83 6348.03 5732.27 4523.39 5278.56 5146.37 6917.62 4013.38 5631.14 4343.78 5263.3 4909.65 6523.86 7693.4 4326.48 4437.07 3449.37 5491.9 6405.0 4659.16 5789.55 4633.05 4901.2 5711.62 4990.79 4798.17 5166.79 6479.39 2895.63 4997.91 5079.22 5381.54 5810.77 4714.83 5474.15 7519.2 6355.68 4478.6 3953.55 4304.63 4469.54 4314.56 3928.53 5606.51 5740.65 3834.47 6349.67 6329.53 4590.01 6101.86 4227.41 5993.0 4803.57 5966.42 4110.59 3332.49 5354.66 4214.44 5378.23 4787.97 3746.36 6789.23 3989.7 4777.03 4246.61 6028.09 5452.36 3804.5 6486.37 5498.42 5318.53 3344.57 5220.76 4281.98 7165.9 5344.83 7046.11 3427.63 4863.97 6342.48 5756.75 5599.7 4587.67 4163.74 6969.28 3665.95 5698.96 4095.75 3603.51 4298.45 5222.51 6609.84 5135.96 3834.43 5658.37 4707.06 6074.94 5491.37 4250.88 3783.54 3475.67 4792.39 7038.89 3863.67 4814.12 5067.56 6137.8 2735.53 3352.35 5116.6 3747.03 2783.85 4356.49 4526.81 3994.07 4219.94 5907.46 4264.91 6740.71 5399.29 4909.31 5971.22 6522.59 6602.43 3568.28 5425.98 5996.66 4405.42 2995.67 3598.08 4599.81 5698.23 7300.58 3608.06 6633.61 5217.95 4867.7 5484.36 4277.24 4063.9 5291.05 5161.1 4619.2 5166.41 5067.56 2596.96 5701.75 4350.15 4139.3 6541.45 4750.49 5078.31 5391.48 4923.43 5131.15 4847.14 3950.27 5116.66 3566.79 5374.67 4981.43 4741.28 5069.89 4215.2 4157.29 6813.72 5327.75 4609.02 4896.65 4638.18 4196.37 6448.66 4453.97 6945.98 5138.2 5783.48 4449.98 4701.5 4504.35 4771.65 4840.44 5093.82 5951.81 3924.14 6918.35 4296.69 6238.32 3319.67 6471.42 5283.8 4076.59 4428.14 5164.1 6464.15 4479.11 4972.17 6685.4 5699.53 4222.77 6332.01 5268.38 5527.23 4805.33 4234.18 7085.01 5980.95 6193.08 6069.3 5887.01 5168.35 5388.39 5335.47 3728.18 5633.61 5048.19 6799.23 4888.27 4592.15 6487.56 4854.11 5533.19 4998.22 5417.21 5583.61 6063.64 7382.3 4022.56 5522.21 3772.3 4855.01 6208.9 4923.57 3340.09 6061.63 2279.05 4829.35 4075.28 8137.11 5484.32 6650.77 4067.96 7104.73 6162.3 3272.75 4264.54 3516.27 7043.44 4263.78 4643.9 5228.75 6047.14 5009.83 5210.38 5717.8 3629.44 5003.78 3299.24 6246.56 4061.6 2603.64 5107.0 6212.15 6502.97 4783.07 4946.23 4852.58 6083.28 5211.6 3556.79 5806.31 5456.71 3503.41 7317.04 6412.67 7001.83 5012.97 5589.37 5439.49 6639.64 5212.43 4834.3 6348.54 6804.79 5642.35 6372.13 5369.5 5404.01 6016.19 4124.49 3230.13 5714.25 6176.67 5325.96 4850.06 5016.02 7044.29 4920.21 4049.16 3936.95 6153.94 6836.82 3862.77 3858.17 4631.99 4740.98 3185.39 5128.77 7122.87 5797.36 4243.26 4153.84 5119.86 5089.26 5084.17 4901.44 3776.8 5096.43 6156.21 2460.79 6104.26 4653.83 6171.71 4986.71 3628.89 4668.88 5027.43 5522.75 5867.64 6059.93 5602.53 5073.02 6545.43 6760.92 4989.2 4711.04 7144.05 4506.18 4824.12 6542.5 4383.47 5971.21 4036.91 5454.12 4066.57 4206.98 5156.76 6357.47 6101.57 4891.38 5535.91 2949.12 5955.86 4533.37 4848.46 5412.24 2779.99 5887.38 4581.37 6942.34 5851.61 5478.11 5526.31 5030.15 6589.82 4438.58 3472.91 2970.9 6318.23 4058.87 5174.75 5932.07 4984.46 5948.71 4793.65 3856.53 4532.89 5460.89 5260.85 5742.09 2884.65 5807.46 4648.21 3658.05 4393.16 3311.29 4549.69 6423.81 6192.77 6413.15 6103.11 5048.55 6459.51 4024.31 4955.16 5844.72 3992.97 5989.05 6040.74 4054.22 7228.94 5393.65 4961.99 6551.93 4595.12 3110.13 6484.43 4625.67 3485.54 6735.97 5305.59 5416.45 4330.58 5754.6 3288.01 4904.51 4147.31 2202.77 5751.15 5950.88 4149.55 4441.22 5853.89 3380.69 4140.4 3639.44 4386.8 5446.4 4725.01 5966.75 4729.42 3104.96 5244.78 3636.15 6114.89 5135.63 6384.7 4355.83 6870.97 5351.86 6056.87 5474.01 5307.35 6201.86 7554.58 5166.89 4731.21 5491.63 5725.37 3868.62 5138.33 3477.1 4811.22 5216.26 4844.83 5377.37 5652.87 5483.7 5018.69 3152.86 5952.38 3896.27 5807.52 5963.36 5230.02 4342.18 5169.48 6016.08 6776.22 3124.7 6064.71 6102.98 6060.17 4385.81 6592.93 5096.24 5769.14 3381.82 4831.93 4023.93 5494.28 4834.39 5493.89 5261.19 4918.76 4208.41 5826.78 6214.73 3758.22 4268.19 4532.7 5561.74 6100.73 4788.08 4593.7 4349.13 6379.14 3687.65 5478.95 3851.85 4749.96 4019.34 4658.24 5869.67 4311.48 4899.73 5457.66 6394.19 5973.89 5366.22 6193.73 5518.11 5087.14 3742.11 5712.35 5701.52 4743.9 5321.17 3719.11 4467.13 3877.8 6418.11 5934.82 4501.78 5415.45 6350.71 5039.12 7107.63 5868.89 4099.26 5206.47 3831.52 4263.65 6106.43 6761.81 5467.63 4127.53 5210.75 2856.55 4553.68 5361.87 3205.68 4473.29 4908.75 6556.26 3971.08 4482.9 6818.91 3503.65 3634.5 3623.19 4869.48 4906.11 4387.39 4564.1 4745.16 5825.55 5509.51 4848.14 3199.4 4316.5 5254.24 4192.21 4914.03 3597.43 5144.56 4158.91 5311.55 3360.86 3034.16 4869.25 5545.21 4333.87 4922.49 3572.94 5001.58 6456.58 5244.98 5366.11 4824.81 7307.21 5135.5 3619.72 4565.93 5615.84 5788.97 3274.85 5007.21 5545.59 4580.06 4835.97 4057.17 5262.47 7066.96 4587.7 5196.92 5644.81 5666.95 4642.2 5175.89 3894.64 5232.85 4374.74 5975.23 6816.66 4745.79 4211.82 6204.65 6550.4 5513.8 4887.52 6631.28 5350.88 6571.31 4392.65 5429.3 5510.96 6653.07 4697.91 4584.81 5071.98 5719.79 4371.08 7261.51 4968.14 5086.29 5527.13 5139.18 4278.57 5551.43 5049.99 4201.03 4458.64 5001.87 4312.15 3657.69 4078.93 6015.02 4820.17 3814.65 3886.72 4034.05 5127.82 5798.38 6436.74 3419.87 4384.28 3908.98 5944.3 5113.6 6328.42 5640.72 4504.52 4464.73 6440.38 4954.81 5610.53 6419.64 3926.11 5464.83 5414.58 4991.35 4807.35 5334.36 4568.64 5750.35 4489.99 6555.44 5293.75 5473.72 7124.45 6358.93 2205.51 3703.49 5144.44 4757.2 5034.69 5079.64 5470.04 6003.78 5684.25 4891.67 5188.53 4882.66 4027.63 4944.51 5603.68 5610.95 5532.72 3220.8 5179.17 5579.39 5270.51 5148.1 5490.75 5224.64 5949.73 4312.48 5783.94 6370.33 5081.08 6318.25 4202.77 6864.06 6008.81 3644.78 5510.9 4883.63 4505.28 3492.83 7039.98 6006.89 7778.01 5690.96 5805.1 3862.91 4456.11 4456.26 4027.33 4810.98 5091.22 3563.14 5851.63 5556.0 5748.9 5755.15 4608.34 5695.79 2781.96 3512.94 4467.0 4994.65 5601.55 3903.91 3919.62 4929.6 3683.86 5658.14 4508.18 2617.39 4062.56 4198.94 3217.67 6163.54 5212.37 5438.92 3766.69 5110.11 5036.98 4521.75 4813.33 5569.2 5635.32 4526.34 4316.45 5409.08 5042.75 4598.92 5241.22 6647.08 4979.52 3422.29 4407.79 5214.63 3495.68 3990.96 5352.24 7362.42 5793.12 5836.14 5473.05 4583.52 6280.13 5244.22 5585.14 4960.64 5792.98 4983.3 5053.15 5910.86 5124.17 6239.68 4234.88 5782.43 4708.31 5026.76 6282.38 5657.55 5727.79 5212.92 5188.82 5043.14 3742.31 3663.0 6304.49 4420.6 3622.8 4431.23 4258.98 6545.99 4368.28 4945.0 4548.45 4658.11 5730.61 5114.07 7142.95 5064.67 6618.21 3717.47 4504.86 6200.63 5969.37 4928.35 1937.5 4509.46 3844.54 3538.53 996.652 6500.49 5965.58 5058.51 4244.49 4050.03 4120.07 3840.21 3429.57 6746.66 5410.33 5420.67 5661.6 4827.61 5285.75 5481.64 5673.75 5360.67 5968.54 6263.3 4501.05 4537.03 6548.29 4114.2 4326.06 5034.46 5757.29 5016.46 5469.17 5061.75 4373.2 3769.24 3743.76 6711.21 4971.29 5832.29 2606.51 4438.76 5372.82 5401.4 4775.49 4681.29 5749.6 7320.78 4834.44 3873.92 4092.07 5347.9 4717.73 4928.85 5072.5 4749.18 4546.96 4316.0 5424.55 5134.72 4475.38 5287.25 5917.34 5740.98 5630.9 4728.55 4554.68 4551.26 4559.74 4383.68 6666.67 4583.94 5046.31 4337.32 4680.69 2628.22 3352.34 4901.29 4952.52 3242.31 6099.28 5372.25 5385.03 4169.15 3234.26 4778.37 3494.16 5134.17 4074.16 4904.35 5592.54 3247.97 5124.34 4904.37 4358.81 4651.64 5729.92 4179.87 6224.13 4761.84 3661.67 5153.18 3425.69 5510.45 3864.92 3994.39 6119.99 4159.81 4446.58 4402.17 3845.9 4174.44 6331.74 4198.9 4213.05 4224.3 5235.87 3904.07 6502.99 4921.1 4770.51 6511.37 3787.08 4462.87 4218.16 6139.64 4140.92 4692.32 4474.83 4585.04 3127.83 6570.35 4242.63 7407.91 6063.44 4051.18 5849.53 4420.11 5863.0 6127.39 4124.76 4802.98 4833.55 7224.99 3908.56 5265.63 4898.29 4431.06 5730.2 4830.13 5370.9 4529.77 4325.13 6172.27 5390.33 3783.79 5078.73 4248.14 5278.54 5729.0 5192.92 5275.57 4786.66 5891.25 5370.1 5393.76 3684.15 4730.14 5906.57 7541.76 4990.23 3784.94 5499.59 5667.51 5431.29 4833.67 5325.91 5157.38 4546.44 6203.03 4700.07 5273.37 4732.37 5713.36 5553.94 4704.92 4287.25 4392.75 3814.16 4191.01 4589.06 5577.41 4216.44 3999.5 4012.92 4346.07 4933.49 5236.24 3269.54 5836.26 6015.22 6449.06 4651.99 5640.12 4972.18 5329.76 7200.89 5684.88 5764.52 6523.78 4645.86 4045.67 5620.88 4941.52 4308.49 5900.0 4262.74 4581.1 6241.77 5317.19 5279.19 4016.6 5821.49 7050.08 5580.44 5998.13 5902.67 5454.11 4236.86 6010.59 7123.04 4128.1 4618.73 4932.29 4506.66 4439.71 4141.21 4064.58 5023.41 4646.51 952.938 4184.21 6089.45 4985.3 4966.07 3987.69 4666.12 6219.34 4920.88 4013.86 4177.47 4770.63 5678.58 4385.49 6102.49 5114.23 6061.85 5512.44 4826.52 2904.46 5241.75 4731.53 3763.9 4577.73 4288.45 4147.49 5419.57 5760.98 4954.76 4642.74 5384.86 3770.22 4390.64 5150.84 4608.01 5087.97 6005.95 4519.03 4930.17 4085.96 4745.44 5762.82 7360.12 6223.98 5462.6 5617.29 3035.06 4262.19 4597.88 5095.52 4763.4 4941.02 5806.61 3682.35 2955.36 3965.3 6110.48 3220.29 4125.9 4564.41 5426.4 5951.86 3791.41 5853.12 5702.4 5473.89 5265.21 4657.24 4400.14 5340.05 2918.64 5345.73 4639.8 4212.15 4263.18 5495.0 4454.74 5120.92 4685.4 4636.53 4081.34 3646.95 3402.44 4848.98 5184.98 4491.96 4467.51 5339.82 5460.57 5110.27 5703.34 4612.68 6668.98 6649.52 4232.33 4939.56 4747.68 5770.92 3093.38 4845.91 4878.93 2002.78 4461.67 5784.37 3142.09 5182.13 5515.73 6715.73 5247.01 4841.7 4678.7 5810.17 3450.07 5308.33 4271.07 5674.63 5759.79 4489.29 4301.93 4924.07 3200.6 4918.64 6206.98 6638.25 4775.04 5162.67 5537.61 6084.88 4199.44 4397.06 4053.12 4479.5 6261.67 3435.13 5065.78 4431.46 4521.42 3207.84 3977.98 6043.34 4128.93 4959.72 4712.17 3808.04 4723.71 4405.61 5003.3 3756.96 3954.77 6793.1 6016.87 5077.29 5209.55 6740.35 4550.92 3306.84 3484.81 6023.07 6710.14 4598.54 5218.42 4512.07 4896.43 4462.35 3986.41 6240.42 5146.0 4788.7 5078.59 4607.18 2403.72 3228.27 4721.98 5252.82 3543.98 4142.1 5056.26 5878.55 4014.44 6604.72 6002.77 3794.47 4610.55 4967.02 4614.49 3361.11 5400.69 4462.5 2807.46 5573.31 5004.68 4023.88 5348.11 5428.24 6273.6 3668.93 4009.24 5800.81 6245.52 3125.13 5866.91 6506.63 5995.4 5188.22 4841.23 4196.62 5984.8 3469.18 6347.72 3956.24 6334.53 7558.99 3393.59 5043.14 5333.04 5445.91 4521.99 4812.59 6842.54 7115.67 5675.45 5329.84 6038.56 5599.16 4179.8 3488.34 5658.35 4577.98 5684.05 4708.17 3779.45 5167.53 5166.05 7035.54 5763.05 5797.21 4208.37 6019.35 6075.99 5191.26 4184.47 3825.48 2804.54 3372.95 5819.0 3460.93 5124.86 5117.64 5580.95 3549.92 6598.99 4032.06 5250.56 5246.81 2468.16 5089.1 5888.95 5394.78 3463.34 5169.09 5122.38 2853.68 5262.85 4998.37 6559.82 3879.83 5342.9 6565.95 5733.12 5043.34 5886.81 5136.87 2741.2 7145.73 5233.76 6405.69 5357.39 4252.18 6296.54 3669.32 4762.1 5700.79 4629.02 4927.73 4705.68 5469.35 4313.38 5827.3 3633.58 3825.98 6294.14 4339.97 5203.75 3906.41 4691.15 2459.88 4512.6 4210.24 5470.67 5901.71 5225.11 5252.22 4962.35 6436.29 7350.26 4556.19 4168.52 4659.88 5685.74 3495.3 4140.04 5890.25 5766.05 2832.83 6036.99 4084.87 3010.1 5259.29 3584.05 4589.22 5087.03 4667.84 5584.64 4123.08 4260.38 4636.45 4932.27 3799.55 5638.51 6793.49 3563.33 6060.19 5536.0 6786.37 5790.42 5591.77 5106.46 6562.92 3612.44 4474.96 4758.76 4790.63 4088.72 3945.62 4916.75 4818.53 5097.85 6189.04 6224.64 4221.03 5189.4 4576.71 5082.66 4550.77 4894.15 4337.93 3550.88 4345.51 4048.73 6223.33 5024.32 5813.79 4644.88 4068.31 3671.06 4850.5 4683.28 4658.59 5532.75 6949.65 4608.62 5407.96 4987.28 6562.03 5367.05 4449.73 5647.11 3743.85 6236.46 5342.17 6379.3 5015.67 3795.63 6538.04 6157.59 5201.3 5848.41 4090.28 4932.56 4176.32 3185.09 3587.93 5676.61 5064.23 5721.14 5084.5 4071.75 4246.83 4493.79 4279.44 2945.34 6006.16 3565.32 5638.7 4668.8 5322.11 4697.49 5735.08 4726.2 5034.05 4816.51 4711.15 4474.39 3810.68 6478.35 3990.94 4756.8 5477.8 5463.06 6069.78 5260.52 4241.68 4975.85 4095.83 5323.95 5846.95 5716.42 5268.15 5701.63 4603.04 4870.94 4620.95 5368.93 4488.39 6121.56 5914.5 4602.57 4096.86 3419.07 5710.33 5344.44 3622.48 6432.8 4626.72 5131.77 5549.71 4815.47 4759.99 3899.7 5134.33 5214.4 3629.49 5399.43 5034.34 5695.44 3835.81 3422.21 3916.42 5537.34 3667.93 3487.31 5192.49 4899.19 6643.4 5058.34 4028.22 5575.11 4983.1 5293.13 4507.36 6224.85 6406.8 5403.97 4795.08 5648.78 6875.73 5501.73 6081.3 4697.24 4983.43 5117.52 6311.89 6549.8 2820.07 5129.68 4825.73 5076.84 4165.36 5288.33 4871.77 5811.26 5062.77 4884.93 5069.9 6028.63 3673.6 4494.15 5146.1 6215.87 6485.77 6060.06 5866.42 5544.27 5393.43 6896.55 4685.65 5377.01 6470.23 5939.22 4271.93 4215.05 3626.86 5125.17 4604.1 6371.96 4859.01 5076.11 5524.45 7133.44 4426.02 5600.21 3953.26 4750.81 4282.11 5467.51 5459.92 2347.41 4625.53 5453.77 4096.47 4357.11 5114.67 2809.19 5005.6 4916.7 5486.89 5589.53 7208.19 4549.51 5025.42 5196.08 4517.29 6379.38 5695.25 6257.79 4495.75 4849.5 6171.01 6229.83 5796.26 4468.26 4523.81 5578.18 5106.33 5293.37 5791.25 5198.94 5271.88 4028.35 5933.54 5559.79 7168.2 2980.31 3763.85 3148.79 4571.74 5740.78 4796.12 5001.51 5997.91 4742.82 5385.86 5115.42 3186.07 4082.4 4209.0 4410.82 4369.86 4967.51 4368.12 5173.82 6443.99 2646.13 7212.97 4365.58 3889.98 5193.58 3720.7 5490.64 5698.53 3769.2 4507.46 5036.14 6022.78 5884.99 4087.32 6647.85 5726.42 4674.9 7025.09 3392.26 4433.12 3918.94 2549.95 5461.72 4361.24 5487.63 3768.46 3852.82 5138.93 6945.69 5118.86 7086.69 5368.66 4304.64 6170.9 5833.78 4436.48 5226.42 5758.98 5615.35 3967.76 5288.64 6213.24 6734.39 4217.36 5679.74 5942.45 4150.76 4851.18 4228.53 6123.46 5005.72 5368.52 6142.88 5155.28 5111.26 5205.38 5388.73 4764.83 1969.87 3132.34 4949.55 4600.71 3957.38 4841.28 5262.79 5927.2 6889.5 5035.71 4710.88 4419.79 5300.17 5407.69 3869.39 5152.78 5960.5 5534.23 4117.9 4753.76 6025.77 4638.09 4781.9 6815.96 4441.91 5339.6 5330.26 5828.25 5917.08 4725.11 5483.37 5418.12 5322.07 5934.05 5770.07 4714.66 5990.75 5101.6 4984.17 4656.01 5781.62 6589.13 4037.86 5602.62 2030.03 3543.37 4542.16 5714.51 5628.97 4104.04 5353.66 2638.82 5030.33 5593.79 5104.39 5234.2 4612.13 4965.24 5846.6 5327.05 5438.55 5353.23 4434.65 6688.53 5977.66 5209.5 5065.74 4873.23 6731.89 5464.05 4733.41 5879.24 5410.6 5453.2 6348.93 5136.51 6824.53 4332.64 5232.16 4422.23 6791.86 3989.26 4820.68 4930.72 5482.76 5728.58 3745.02 4887.73 6297.99 4211.36 5378.24 3856.73 3604.31 4538.89 4450.49 5817.74 3468.45 5887.71 5517.65 4009.68 3303.49 2569.12 4161.32 4622.73 5256.75 5161.74 7336.37 5932.28 6599.28 5560.23 5099.9 2960.5 5783.38 4975.32 3043.77 4298.7 3902.48 5237.55 4183.4 3909.94 6030.39 4733.79 4905.53 3799.01 4823.06 7392.65 5254.49 5319.1 3757.23 6828.8 6883.86 5987.88 3579.59 6161.94 4065.28 5057.59 4461.14 5285.6 4574.54 5575.11 5615.06 5490.54 5203.54 4047.95 5507.38 6142.94 4416.87 5001.69 6581.56 4057.4 4052.43 3980.46 4896.67 5383.9 3934.11 5158.44 3886.56 4466.22 4496.51 6153.71 6561.94 5259.21 5092.93 4256.08 2803.01 5881.93 4444.0 6771.18 6182.19 5327.39 5910.66 7415.84 4981.81 4138.59 4970.55 4938.33 4484.78 4621.33 5527.27 5157.73 5847.91 4934.66 4984.01 4109.44 4903.84 4290.49 4557.1 4605.39 5927.1 6270.59 6175.27 5876.51 4103.76 4907.55 4286.61 4094.63 2932.52 5264.83 4603.66 4757.87 4969.68 3901.53 6636.43 6815.51 5431.14 5313.86 4457.05 5178.07 5189.91 6031.22 3618.64 5485.84 4171.02 6424.77 4335.79 5453.69 5797.32 5918.95 5432.04 5689.56 6556.86 5114.51 5129.4 4746.15 4655.37 3720.38 4758.84 5585.25 5023.61 6351.89 6530.78 5059.37 4742.35 5394.79 4139.39 5645.54 5088.64 6264.03 4526.87 6589.8 4151.74 6920.92 4174.22 3729.16 3783.36 3573.84 3038.91 4181.93 3922.28 6570.43 3350.99 3820.19 3445.92 5236.69 4979.5 5524.28 4586.82 3133.28 4745.37 5939.29 6026.04 6200.05 5418.98 5859.17 4034.41 4052.49 5061.74 5522.34 5326.03 6189.67 4420.35 5717.45 4948.96 5256.82 4013.86 4061.87 4645.93 5165.31 5448.64 3798.09 4585.37 4288.5 6417.61 5715.51 3721.69 4511.05 3456.3 6074.39 5317.83 6738.9 4399.52 4460.89 4554.24 4157.1 3939.96 8052.53 4867.12 6044.01 6520.19 4637.3 5141.03 1458.87 5734.07 4840.44 8123.59 3997.68 4819.83 5765.14 4801.16 4767.54 4541.22 4946.08 3539.68 5121.08 4696.03 6217.33 6177.68 4698.7 2848.44 6229.64 6045.26 4220.43 6500.45 5743.8 5084.76 6666.34 6605.11 4645.91 6834.92 3557.46 6379.33 5971.95 6298.8 3689.24 3979.46 6321.97 5151.19 5777.26 6412.84 5703.84 6509.54 7012.36 3530.82 5028.06 4002.99 4886.99 5159.67 3921.27 3161.1 3572.73 3702.45 6275.25 6892.33 4731.37 4505.3 4491.26 4452.36 3976.0 4672.86 4511.34 4068.41 6463.71 5009.21 4574.03 4379.91 5290.37 5850.38 5264.08 3562.8 4227.66 4730.97 4691.01 4594.89 5192.82 5245.95 5821.42 4067.89 4515.02 6294.09 4924.52 4571.57 5131.07 4121.07 2970.24 4197.87 5105.54 5658.05 5731.43 6353.81 3414.67 3518.14 5444.36 4150.44 5044.68 5771.98 2649.69 5899.78 5000.74 5117.83 5772.57 5268.27 4813.81 3882.37 5244.95 4634.25 4095.4 5901.8 6351.48 5395.12 5783.69 3830.7 6210.0 5432.4 3483.61 5350.9 4262.52 7430.48 5992.06 5545.68 6080.69 4970.12 4967.93 6369.66 5973.57 5922.62 6241.48 6033.28 5957.82 6286.27 5071.38 3717.22 6327.54 2927.84 5616.66 5688.77 4802.36 2943.17 5368.28 5466.13 5257.38 6263.87 5075.23 4975.56 7282.36 3826.01 5581.01 3928.99 4125.75 5749.53 5130.57 5652.73 5090.48 5402.45 5582.28 3985.93 5945.25 6071.59 2589.19 6119.0 3792.06 6079.55 5128.59 5485.61 4993.49 4937.36 4293.3 5308.4 5587.3 5310.33 4864.38 6583.37 3688.83 5631.32 6322.0 5793.14 6345.2 4609.65 5704.61 4832.21 3720.92 5410.73 5087.3 4942.63 6139.74 6637.38 4975.57 7066.26 3057.3 6150.31 3677.85 5214.71 4677.84 4811.11 3463.53 5379.52 6126.03 4866.8 5314.67 6044.69 5563.47 5651.46 6593.1 4066.36 4000.51 5462.1 6033.93 6032.45 5011.37 4026.03 2827.92 6908.32 3467.11 5336.61 4817.75 6153.26 4848.15 5637.53 4439.09 5523.81 5648.59 4718.61 5188.57 3873.79 5717.67 5357.33 5252.37 5515.59 3224.81 4499.54 5037.58 6457.89 5640.67 6572.17 3751.73 5555.89 4766.47 4871.1 5678.08 3917.09 6009.93 5872.45 4414.09 5270.1 5125.45 3784.68 4188.16 4947.64 6305.9 6649.21 5507.07 4654.92 5327.71 4880.78 4322.56 5509.09 5625.02 3873.72 5212.05 4592.49 5479.86 4829.77 6474.5 4444.92 4702.32 6959.88 5971.9 3746.62 5247.73 4876.37 5034.02 4769.62 5260.13 4649.5 5181.31 3856.4 4696.06 4137.16 6189.29 5984.55 6581.13 4569.32 6126.5 4034.88 3511.5 6007.1 5488.96 5067.92 3188.21 5357.14 4850.95 5128.03 5919.27 4793.06 6271.22 3421.81 6188.33 3920.64 6111.23 6916.18 5786.06 5873.62 3868.69 4137.41 4996.91 3920.44 4450.51 5447.74 6033.72 3768.62 3851.47 4966.74 2329.93 4959.94 1635.31 5639.4 3162.27 6185.73 4083.24 5516.37 5092.44 4441.44 5432.2 4232.44 3312.3 4612.4 5563.09 6381.58 3282.57 5212.2 4798.13 4611.21 5108.42 6697.45 4630.5 6296.36 4432.32 4451.76 7885.41 3775.38 4046.22 4104.97 4844.2 4575.72 5114.61 6118.13 3374.62 4926.62 4420.3 6332.64 4202.12 6492.44 4613.32 4083.1 3482.73 5191.29 5130.56 4957.99 4063.26 5345.05 4997.89 4542.62 3470.69 4859.95 5286.55 4132.08 5522.18 5223.1 4699.77 4850.49 4981.55 5144.23 3625.98 6188.62 6153.07 4414.06 4763.04 5944.52 4413.56 4532.67 5050.2 5316.05 2513.38 4908.32 3995.08 5019.84 4810.74 5985.75 3900.93 5784.38 5475.83 4149.17 4329.8 5728.27 5672.46 5803.3 5108.84 4582.12 4487.51 4295.25 4520.14 7394.47 4729.45 6261.13 5374.09 4720.34 5244.47 5378.75 5510.89 6186.24 5822.7 3780.07 4159.89 5466.49 5178.55 4038.17 5007.41 4907.48 3692.99 6213.74 4488.41 4369.87 6938.87 5412.07 5512.57 4806.99 6520.96 3771.91 5856.43 5217.62 3465.03 6178.19 4746.19 5349.85 4616.81 5715.25 5172.1 4362.94 4469.82 6545.78 4870.14 3354.94 4404.87 5237.27 5105.72 5767.65 4750.76 5003.49 5782.25 4907.03 5497.27 4081.77 5617.91 4948.21 2181.29 4987.01 4706.31 2694.25 6265.48 4735.99 4203.68 4739.56 5145.39 3818.37 3996.93 3352.46 6351.95 5195.09 5200.1 7679.2 5093.28 4881.51 6131.52 4311.92 2626.41 6009.88 6729.99 5093.41 6842.35 5464.34 3621.63 4777.96 5801.89 5908.57 6833.5 7296.47 5742.39 4821.41 4780.16 4924.53 3834.01 5616.11 4499.52 4433.23 3874.12 4813.24 4028.13 4457.73 6476.35 3113.64 4304.75 6260.58 4067.24 3053.19 5202.33 3074.49 4246.24 6805.02 4919.13 5354.48 5640.63 4900.26 5783.88 4167.55 5002.38 6705.93 4865.11 4731.16 5449.09 5502.14 6470.87 4495.33 5282.67 4131.08 5747.9 3864.19 4287.93 5146.69 6203.24 6818.23 5081.65 6679.12 5652.19 5806.74 3878.8 6578.62 4813.55 4698.94 6284.12 4796.04 3839.0 5229.56 6011.4 5799.86 3330.85 4672.34 6052.22 5376.41 5003.63 2932.2 4695.7 4944.08 4082.01 5269.39 3964.03 4216.33 5832.72 3903.9 4444.95 4721.2 5161.02 3943.77 3124.49 5242.38 6081.35 5003.81 6262.18 5566.5 4701.03 5663.36 6225.05 5434.04 5125.53 3997.52 4444.54 5403.81 5779.9 4909.74 5310.33 6664.54 3922.98 5161.73 5259.48 4008.67 5254.93 4803.4 6608.94 2613.78 5417.07 5656.84 5738.37 6789.66 5759.19 4739.41 5847.27 4490.2 5734.84 5480.86 6139.9 6571.26 5402.81 4600.81 5561.63 4124.33 5168.97 4358.06 5093.51 5647.93 4280.92 6201.49 4696.92 5154.74 4605.61 4465.56 6898.8 5386.95 6540.57 5332.11 4893.72 5315.71 6004.72 6158.93 5373.78 4823.14 5438.5 4489.18 4621.32 5699.4 5237.76 4286.84 3948.21 5669.15 5296.05 6988.4 5056.32 5533.52 5410.33 4060.17 4747.24 4380.86 5302.53 4909.13 5576.16 4305.35 5648.02 3308.75 5210.22 2451.27 5677.42 2701.42 4929.35 5606.22 6673.92 5151.68 4884.94 5459.52 4609.98 4738.72 4752.31 5240.97 4276.59 5579.04 5405.6 5994.21 4884.93 5082.25 4759.38 6964.78 4374.05 5299.03 5036.84 4565.36 5813.68 4025.08 5040.9 3618.53 4770.21 8013.28 3846.55 3796.73 4644.68 5283.65 3082.16 2892.36 5981.54 5416.41 5312.2 6760.64 4706.59 2515.5 5177.88 5551.79 3982.31 4950.07 4720.22 4333.23 4328.76 5145.13 3747.96 5611.29 5940.5 6568.45 5004.22 4601.54 7263.57 3832.09 5705.96 6437.99 5739.69 4790.16 6632.04 7360.62 4985.45 4072.4 4983.56 5699.51 4714.52 5345.65 2489.44 5499.37 5863.36 4632.75 4752.94 4994.98 3950.53 6423.96 6058.13 4501.1 5894.69 5263.86 6550.61 4987.01 6635.51 6094.34 6051.35 6779.82 5543.67 4287.61 4867.13 3999.81 4604.34 4439.17 4502.12 3255.93 5442.79 5051.39 6327.61 4633.59 5733.59 5362.15 4455.61 3695.72 6874.6 5106.9 5569.85 5523.96 3929.35 4223.53 4733.37 6960.97 3037.72 4287.15 4523.9 5282.51 5504.65 5669.41 5732.11 3760.4 3919.47 5596.68 3783.35 4602.7 4868.66 4037.16 4004.39 5159.9 4987.48 5943.61 4248.58 5911.29 5479.17 4694.27 4542.25 4414.23 5233.88 4849.21 4785.55 3793.83 6981.47 4582.24 3916.15 3860.8 5438.6 7370.52 4726.5 4521.88 3724.23 5103.3 4963.88 5888.94 4727.98 4122.2 5175.88 5267.65 4516.26 3509.34 3647.26 5360.88 3166.37 4977.64 5369.42 5207.08 5205.53 4587.19 5543.05 4883.13 6028.89 4836.76 5333.16 5551.09 5755.98 5392.85 5581.47 5077.2 4384.91 4274.05 5275.27 4277.54 4713.56 4531.46 5925.82 4739.5 6210.48 6377.45 4863.27 6853.07 5575.8 5268.93 5306.31 4535.94 5126.08 5604.0 4951.02 6395.63 5020.37 5245.4 6189.81 5467.05 3731.58 4888.17 5529.09 5448.68 4072.95 4491.62 3865.5 4182.05 
SCALARS Velocity float 1
LOOKUP_TABLE default
1.19179 1.19181 1.1918 1.1918 1.19178 1.19182 1.19181 1.19181 1.19178 1.1918 1.19178 1.19178 1.19178 1.19178 1.19179 1.19178 1.19178 1.19178 1.19178 1.19178 1.19178 1.19179 1.19179 1.19178 1.19178 1.19178 1.19178 1.19178 1.19178 1.19178 1.19178 1.19178 1.19179 1.1918 1.1918 1.1918 1.19179 1.19178 1.19179 1.19178 1.19178 1.1918 1.19178 1.19178 1.19181 1.1918 1.19178 1.19178 1.19178 1.19179 1.1918 1.19181 1.19178 1.19178 1.19178 1.19181 1.19178 1.19183 1.1918 1.19177 1.19178 1.19178 1.19179 1.19182 1.19178 1.19182 1.19183 1.19183 1.19181 1.19178 1.19179 1.19182 1.19183 1.19182 1.19181 1.19178 1.1918 1.19181 1.19182 1.19179 1.19179 1.19178 1.19179 1.19182 1.19185 1.1918 1.1918 1.1918 1.19178 1.19179 1.19178 1.19186 1.19183 1.19179 1.1918 1.19182 1.19182 1.19181 1.19181 1.19181 1.19181 1.19178 1.19178 1.19178 1.19178 1.19179 1.19178 1.19178 1.19178 1.19178 1.1918 1.19178 1.19179 1.19178 1.19178 1.19178 1.19178 1.19178 1.19178 1.19178 1.19178 1.19178 1.19179 1.1918 1.1918 1.1918 1.1918 1.19179 1.19179 1.19178 1.19178 1.19179 1.19179 1.1918 1.19179 1.19177 1.1918 1.19181 1.19178 1.19181 1.19179 1.1918 1.19178 1.19177 1.19179 1.19181 1.19185 1.19186 1.19177 1.19178 1.19178 1.19179 1.1918 1.19178 1.19181 1.19181 1.19181 1.19178 1.19184 1.1918 1.19178 1.19178 1.19178 1.1918 1.19178 1.19176 1.19183 1.19177 1.19179 1.19182 1.19185 1.19183 1.19182 1.19183 1.19178 1.19179 1.19183 1.19178 1.19181 1.19181 1.19177 1.19179 1.19182 1.19183 1.19178 1.1918 1.19178 1.1918 1.19183 1.19177 1.1918 1.19179 1.1918 1.1918 1.19179 1.19178 1.19183 1.19184 1.19181 1.19184 1.19182 1.19183 1.19181 1.19178 1.19181 1.19179 1.19178 1.19183 1.19178 1.19179 1.19178 1.19178 1.19178 1.19178 1.1918 1.19178 1.19179 1.19178 1.1918 1.19178 1.19178 1.19179 1.19178 1.19179 1.1918 1.1918 1.1918 1.19179 1.19179 1.19178 1.19179 1.19178 1.1918 1.19179 1.19178 1.1918 1.19181 1.19178 1.19177 1.19177 1.19177 1.19181 1.19179 1.19179 1.19178 1.19179 1.19182 1.19187 1.19181 1.19179 1.19181 1.19183 1.1918 1.19182 1.19181 1.1918 1.19185 1.1918 1.19182 1.1918 1.19186 1.19178 1.19183 1.19178 1.1918 1.19178 1.19186 1.19183 1.19182 1.19182 1.19179 1.19178 1.19183 1.19181 1.19178 1.1918 1.19182 1.19189 1.19179 1.19176 1.19181 1.19177 1.19178 1.19187 1.1918 1.19185 1.1918 1.1918 1.19179 1.19179 1.1918 1.19178 1.19178 1.19183 1.19182 1.19181 1.19184 1.19183 1.19181 1.19178 1.1918 1.19178 1.19178 1.19182 1.19179 1.19179 1.1918 1.19178 1.19178 1.19177 1.1918 1.19179 1.1918 1.19179 1.19177 1.19178 1.19178 1.19177 1.19178 1.19178 1.19179 1.19179 1.19179 1.19182 1.19179 1.1918 1.1918 1.1918 1.19179 1.19179 1.19181 1.19178 1.19179 1.19179 1.19174 1.19181 1.1918 1.19181 1.19178 1.19181 1.19181 1.19179 1.1918 1.19182 1.19184 1.19188 1.1918 1.19179 1.19181 1.19181 1.1918 1.19178 1.19178 1.19186 1.19178 1.1919 1.19181 1.19185 1.19179 1.19183 1.19178 1.1918 1.19179 1.19186 1.19182 1.19182 1.19183 1.19184 1.19184 1.19182 1.19181 1.19185 1.19182 1.19178 1.1918 1.19179 1.19182 1.1919 1.1918 1.1918 1.19188 1.19178 1.19184 1.19188 1.19179 1.19184 1.19176 1.19179 1.19181 1.19185 1.19182 1.1918 1.19181 1.19184 1.19184 1.19183 1.19182 1.1918 1.19184 1.1918 1.19177 1.19183 1.19179 1.19179 1.1918 1.19178 1.19179 1.19177 1.1918 1.19178 1.19179 1.19179 1.1918 1.19179 1.19178 1.19183 1.19178 1.19178 1.19179 1.19178 1.1918 1.1918 1.19178 1.19178 1.1918 1.1918 1.1918 1.19178 1.1918 1.1918 1.19179 1.19179 1.19178 1.19177 1.19179 1.19174 1.19183 1.19178 1.19175 1.19181 1.19179 1.19179 1.19182 1.19182 1.1918 1.19179 1.19181 1.19179 1.19178 1.19178 1.19177 1.19184 1.19187 1.19185 1.19179 1.1918 1.19177 1.19183 1.19177 1.19185 1.19179 1.19181 1.19186 1.19184 1.19175 1.19182 1.19182 1.19182 1.19183 1.19177 1.1919 1.19191 1.19186 1.19182 1.19187 1.1918 1.19182 1.19175 1.1918 1.19182 1.19181 1.19181 1.19186 1.1918 1.19181 1.19181 1.19179 1.19185 1.1918 1.1918 1.19183 1.19183 1.19181 1.19179 1.19184 1.19179 1.19174 1.19172 1.19178 1.19178 1.19184 1.19181 1.19182 1.19178 1.19179 1.1918 1.19181 1.19179 1.19179 1.1918 1.19179 1.19176 1.19183 1.19179 1.19178 1.19179 1.1918 1.19178 1.19178 1.19177 1.19179 1.1918 1.19179 1.19181 1.19178 1.19177 1.19178 1.19178 1.19178 1.19179 1.1918 1.19179 1.1918 1.19179 1.19182 1.19185 1.19188 1.19187 1.19179 1.19181 1.19179 1.1918 1.19177 1.19178 1.19175 1.19184 1.19187 1.1918 1.19188 1.19178 1.19175 1.1918 1.19183 1.19182 1.1918 1.19183 1.19177 1.1918 1.19186 1.19183 1.19187 1.19186 1.19186 1.19175 1.19181 1.19182 1.19185 1.19188 1.1919 1.19185 1.19176 1.19186 1.1918 1.19184 1.19176 1.19182 1.19178 1.19181 1.19179 1.19176 1.19186 1.19181 1.19179 1.19185 1.1918 1.19179 1.19183 1.19183 1.19181 1.19179 1.19184 1.19179 1.19172 1.19179 1.19179 1.19176 1.19181 1.19178 1.19178 1.19179 1.19181 1.1918 1.19179 1.19176 1.19178 1.19178 1.19179 1.19181 1.1918 1.19179 1.19178 1.19178 1.19178 1.19178 1.19177 1.19179 1.1918 1.1918 1.1918 1.19179 1.19179 1.19181 1.19179 1.1918 1.19176 1.19175 1.19179 1.19178 1.19178 1.19179 1.19178 1.19183 1.19178 1.19184 1.19189 1.19186 1.19185 1.19187 1.19178 1.19178 1.19181 1.19179 1.19177 1.19177 1.19175 1.19178 1.1918 1.19205 1.19185 1.19176 1.19177 1.19178 1.19177 1.19183 1.19182 1.19181 1.19177 1.19183 1.19186 1.19178 1.19182 1.19181 1.19184 1.19195 1.19188 1.19189 1.19182 1.19174 1.19185 1.19178 1.19183 1.19176 1.19181 1.19185 1.1918 1.19178 1.19178 1.19182 1.19177 1.19181 1.19173 1.19174 1.19179 1.19178 1.1918 1.19177 1.19179 1.19181 1.19174 1.19181 1.19183 1.19181 1.19184 1.19178 1.19178 1.19177 1.19176 1.19179 1.19175 1.1918 1.19182 1.19181 1.19179 1.19179 1.19178 1.19181 1.19179 1.19178 1.19177 1.19179 1.19178 1.19179 1.19178 1.19178 1.19179 1.19179 1.1918 1.19179 1.19179 1.19181 1.19179 1.19181 1.19176 1.19185 1.19177 1.1918 1.19177 1.19178 1.19176 1.19176 1.19179 1.19185 1.19178 1.19179 1.19185 1.19185 1.19185 1.19178 1.19188 1.19185 1.19197 1.19173 1.19188 1.19178 1.19175 1.1918 1.19185 1.19183 1.19181 1.19186 1.19183 1.19177 1.19177 1.19183 1.19181 1.19179 1.19186 1.19187 1.19182 1.19181 1.19183 1.19179 1.19182 1.1919 1.19184 1.19178 1.19174 1.19185 1.19181 1.19178 1.19183 1.1918 1.19185 1.19178 1.19185 1.19178 1.19179 1.1918 1.19178 1.19178 1.19179 1.19178 1.1918 1.1918 1.19175 1.19177 1.19179 1.19179 1.19178 1.19177 1.19177 1.1918 1.19177 1.19174 1.19184 1.19179 1.1918 1.19179 1.19179 1.19177 1.19177 1.1918 1.19179 1.19179 1.19178 1.19179 1.19175 1.19179 1.19175 1.19178 1.19178 1.19179 1.1918 1.19178 1.19178 1.19181 1.19179 1.19181 1.19178 1.19184 1.19178 1.1918 1.19177 1.19181 1.19177 1.19177 1.1918 1.19185 1.19178 1.19181 1.19184 1.19183 1.19184 1.19177 1.19186 1.19186 1.19188 1.19176 1.19192 1.19186 1.19176 1.19171 1.19183 1.19182 1.1918 1.1917 1.19178 1.19186 1.19186 1.19177 1.19184 1.19179 1.1918 1.19177 1.19182 1.1918 1.19178 1.1918 1.19184 1.19183 1.19181 1.19181 1.19179 1.19182 1.19189 1.19186 1.19182 1.19178 1.19186 1.19181 1.1918 1.19179 1.19184 1.19182 1.19182 1.19171 1.19173 1.19177 1.19184 1.19185 1.19186 1.19181 1.19177 1.19173 1.19176 1.19175 1.19176 1.1918 1.19174 1.19172 1.19182 1.19177 1.19176 1.19178 1.19179 1.19179 1.19176 1.19181 1.19179 1.19174 1.19178 1.1918 1.19178 1.19178 1.19176 1.19177 1.19179 1.19179 1.19178 1.19179 1.19178 1.19177 1.19177 1.19174 1.19178 1.19178 1.19178 1.19178 1.19178 1.19177 1.19177 1.19179 1.19178 1.19178 1.19178 1.19178 1.19179 1.19182 1.19178 1.19177 1.19186 1.1917 1.19185 1.19185 1.19179 1.19178 1.19178 1.19183 1.19191 1.19178 1.19185 1.19186 1.19186 1.19189 1.19186 1.19185 1.19179 1.19187 1.19175 1.19172 1.19174 1.19183 1.19182 1.1918 1.1917 1.19164 1.19184 1.19184 1.1918 1.19181 1.19179 1.19183 1.1918 1.19183 1.1918 1.19179 1.19181 1.19181 1.1918 1.19181 1.19182 1.19173 1.19179 1.19183 1.19183 1.1918 1.19187 1.19181 1.19172 1.19172 1.19178 1.19184 1.19177 1.19177 1.19178 1.19188 1.19181 1.19177 1.19174 1.19176 1.19173 1.19176 1.19181 1.19186 1.19177 1.19181 1.19177 1.19178 1.19178 1.19176 1.19179 1.19176 1.19179 1.19178 1.1918 1.19179 1.19175 1.1918 1.19178 1.19178 1.19176 1.19176 1.19179 1.19178 1.19178 1.19179 1.19178 1.19176 1.1918 1.19177 1.19178 1.19178 1.1918 1.19176 1.19176 1.19177 1.19178 1.19179 1.19178 1.19178 1.19177 1.19179 1.1918 1.19179 1.19176 1.19186 1.19168 1.19183 1.19184 1.19182 1.19178 1.19188 1.19182 1.19182 1.19193 1.19186 1.19184 1.19184 1.19187 1.1918 1.19165 1.19187 1.19172 1.19165 1.19169 1.19181 1.19175 1.19183 1.19177 1.19177 1.19175 1.1918 1.19187 1.19178 1.19179 1.19171 1.19162 1.19179 1.19173 1.19185 1.19179 1.19179 1.1918 1.19178 1.1918 1.19183 1.19174 1.19175 1.19178 1.19189 1.19171 1.19181 1.19172 1.19178 1.19183 1.19153 1.19186 1.1919 1.19183 1.19174 1.19176 1.19176 1.19177 1.19173 1.19177 1.19182 1.19186 1.19178 1.19177 1.19176 1.19175 1.19177 1.19176 1.19179 1.19179 1.19181 1.19177 1.19177 1.19178 1.19181 1.19177 1.19176 1.19179 1.19178 1.19178 1.1918 1.19177 1.19177 1.19178 1.19181 1.19182 1.19178 1.19177 1.19179 1.19176 1.19178 1.19177 1.19178 1.19175 1.19177 1.19178 1.19179 1.1918 1.19178 1.19176 1.19191 1.19176 1.19182 1.19182 1.1918 1.19178 1.1919 1.19184 1.19192 1.19186 1.19187 1.19183 1.19184 1.19177 1.19181 1.19187 1.19165 1.19178 1.19176 1.19179 1.19178 1.1918 1.19179 1.19186 1.19171 1.19178 1.19177 1.1918 1.19179 1.1918 1.19175 1.19176 1.19176 1.1918 1.19177 1.19178 1.1918 1.19179 1.1918 1.19178 1.19165 1.19176 1.19178 1.19177 1.19171 1.19167 1.19173 1.1918 1.1916 1.19162 1.19183 1.19182 1.19192 1.19176 1.19184 1.19175 1.19179 1.1918 1.19178 1.19173 1.19181 1.19179 1.19175 1.19176 1.19177 1.19176 1.1918 1.19176 1.19178 1.19183 1.19174 1.19182 1.19178 1.19175 1.19176 1.19178 1.19177 1.1918 1.19176 1.19176 1.19175 1.19179 1.19178 1.19178 1.19177 1.19175 1.19178 1.19181 1.19181 1.19179 1.19179 1.19178 1.19177 1.19175 1.19177 1.19177 1.19179 1.19169 1.19173 1.19182 1.19185 1.19174 1.19192 1.19184 1.19186 1.19181 1.19178 1.19178 1.19191 1.19192 1.19181 1.19193 1.19177 1.19183 1.1919 1.19186 1.19179 1.19172 1.19182 1.19182 1.19184 1.19178 1.19176 1.19182 1.19191 1.1918 1.19178 1.19175 1.19176 1.19178 1.19177 1.19172 1.19175 1.19179 1.19174 1.19177 1.19177 1.1918 1.19179 1.19168 1.19178 1.19175 1.19164 1.19178 1.19175 1.1917 1.19167 1.19175 1.19182 1.19159 1.19163 1.19183 1.19181 1.19187 1.19175 1.19183 1.19175 1.19178 1.19179 1.19176 1.19176 1.19169 1.19174 1.19176 1.19177 1.19177 1.1918 1.19176 1.19178 1.19175 1.19176 1.1918 1.19174 1.19177 1.19178 1.19179 1.19176 1.19174 1.19175 1.19173 1.19179 1.19178 1.19175 1.19176 1.19179 1.19182 1.1918 1.19178 1.1918 1.19179 1.19178 1.19177 1.19177 1.19176 1.19176 1.19179 1.19176 1.19175 1.1918 1.19186 1.19185 1.1917 1.19184 1.19182 1.19188 1.19184 1.19178 1.19184 1.19187 1.19185 1.19189 1.1918 1.1918 1.19189 1.19176 1.19183 1.19183 1.19187 1.19204 1.19188 1.19166 1.19168 1.19186 1.19177 1.19185 1.19177 1.19183 1.19194 1.19177 1.1917 1.19178 1.19175 1.19177 1.19173 1.19175 1.19179 1.19177 1.19177 1.19175 1.19179 1.19171 1.19171 1.19169 1.19179 1.19177 1.19175 1.19167 1.19181 1.19181 1.1916 1.19161 1.19181 1.19178 1.19184 1.19184 1.1918 1.19175 1.19178 1.19178 1.19177 1.19178 1.19177 1.19168 1.19172 1.19176 1.19174 1.19178 1.19177 1.1918 1.19178 1.19177 1.19176 1.19177 1.19179 1.19174 1.19176 1.19176 1.19177 1.19177 1.19179 1.19178 1.19176 1.19175 1.19173 1.19178 1.19179 1.19175 1.19177 1.19178 1.1918 1.19179 1.19181 1.19176 1.19175 1.19176 1.19181 1.19165 1.19186 1.1919 1.19183 1.19169 1.1918 1.19177 1.19189 1.19183 1.19184 1.19192 1.19185 1.19185 1.19178 1.19177 1.19185 1.19177 1.19175 1.19186 1.19204 1.19187 1.19167 1.19165 1.19186 1.19177 1.19186 1.19183 1.19161 1.19172 1.19175 1.19176 1.19193 1.1918 1.19179 1.19172 1.19169 1.19176 1.19175 1.19178 1.19174 1.19175 1.19176 1.19174 1.19176 1.19173 1.19172 1.19174 1.19177 1.19175 1.1917 1.19175 1.19177 1.19178 1.19172 1.19177 1.19176 1.19177 1.19183 1.19174 1.19178 1.19175 1.19179 1.1918 1.19178 1.19169 1.1917 1.19173 1.19177 1.1918 1.19177 1.19176 1.19178 1.19175 1.19178 1.19178 1.19177 1.19177 1.19178 1.19177 1.19176 1.19178 1.19175 1.19176 1.19178 1.19179 1.19178 1.19175 1.19178 1.19178 1.19176 1.19176 1.19178 1.19179 1.1918 1.19178 1.19179 1.19182 1.19175 1.19171 1.19187 1.19182 1.19182 1.19174 1.19177 1.19189 1.19182 1.19178 1.19173 1.19176 1.19188 1.19187 1.19184 1.19188 1.19186 1.19182 1.19175 1.19176 1.19182 1.19182 1.19176 1.19184 1.19194 1.19167 1.19188 1.19188 1.19187 1.19179 1.19178 1.19161 1.19173 1.19178 1.19175 1.19183 1.19171 1.19169 1.19176 1.19171 1.19173 1.19176 1.19174 1.19174 1.19173 1.19174 1.19172 1.19181 1.19174 1.19175 1.19177 1.19175 1.19171 1.1917 1.19177 1.19177 1.19176 1.1918 1.19173 1.19178 1.19172 1.19174 1.19182 1.19174 1.19177 1.19175 1.19179 1.19178 1.19178 1.19177 1.19179 1.19169 1.19173 1.19172 1.19177 1.19178 1.19177 1.19176 1.19178 1.19175 1.19178 1.19178 1.19177 1.19177 1.19178 1.19176 1.19178 1.19178 1.19174 1.19179 1.19178 1.19175 1.19179 1.19176 1.19177 1.19175 1.19175 1.1918 1.19183 1.1918 1.19179 1.19181 1.19175 1.19178 1.19187 1.19178 1.19178 1.19186 1.19186 1.19181 1.19176 1.1918 1.19192 1.19184 1.19186 1.19187 1.19175 1.19178 1.1917 1.19186 1.19181 1.19176 1.19184 1.19191 1.1918 1.19187 1.19188 1.19178 1.19173 1.19172 1.19174 1.19175 1.19181 1.1918 1.19174 1.19158 1.19175 1.19175 1.19178 1.19176 1.19176 1.19176 1.19171 1.19174 1.19172 1.19181 1.19173 1.19172 1.19178 1.19179 1.19175 1.1917 1.1917 1.19167 1.19172 1.19179 1.19172 1.19178 1.19172 1.19174 1.19182 1.19171 1.19176 1.19175 1.19178 1.19177 1.19177 1.19178 1.19175 1.19171 1.19174 1.19171 1.19171 1.1917 1.19172 1.19176 1.19178 1.19175 1.19178 1.19178 1.19177 1.19177 1.19178 1.19176 1.19175 1.19174 1.19173 1.19178 1.19178 1.19175 1.19176 1.19177 1.19175 1.19175 1.19183 1.19179 1.19178 1.19175 1.1918 1.1918 1.19184 1.19171 1.19182 1.19196 1.19175 1.19178 1.19185 1.19185 1.19177 1.19178 1.19196 1.1917 1.19191 1.19184 1.19183 1.19183 1.19182 1.19184 1.19189 1.19179 1.19176 1.19186 1.19191 1.19179 1.19177 1.19178 1.19186 1.19189 1.19174 1.19178 1.19173 1.19188 1.19175 1.19181 1.19171 1.19168 1.19174 1.19167 1.19175 1.19178 1.19178 1.19177 1.19179 1.19174 1.19173 1.19171 1.19174 1.19173 1.1918 1.19174 1.19175 1.19172 1.19172 1.19175 1.19173 1.19179 1.19172 1.19174 1.19172 1.19173 1.19182 1.19175 1.19175 1.19178 1.19177 1.19178 1.19178 1.19175 1.19171 1.19169 1.19171 1.19171 1.19171 1.19177 1.19174 1.19176 1.19178 1.19175 1.19178 1.19176 1.19178 1.19176 1.19177 1.19174 1.19174 1.19175 1.19175 1.19176 1.19178 1.19178 1.19178 1.19176 1.19177 1.19174 1.19176 1.19186 1.1918 1.19179 1.19174 1.19175 1.1918 1.19181 1.19182 1.19179 1.19174 1.19186 1.19198 1.19184 1.19185 1.1918 1.19176 1.19195 1.19168 1.19181 1.19188 1.19183 1.19178 1.19184 1.1918 1.19184 1.19188 1.19178 1.19178 1.19175 1.19186 1.19191 1.19179 1.19176 1.19175 1.19183 1.19186 1.19174 1.19167 1.19175 1.19189 1.19179 1.19179 1.19168 1.19174 1.19167 1.19178 1.19185 1.19175 1.19179 1.19179 1.19175 1.19171 1.19178 1.19172 1.19178 1.19174 1.19175 1.19175 1.19174 1.19168 1.19168 1.19177 1.19176 1.19175 1.19174 1.19171 1.19177 1.19173 1.19175 1.19174 1.19174 1.19176 1.19178 1.19178 1.19177 1.19178 1.19174 1.19179 1.19178 1.1917 1.19172 1.19178 1.19171 1.19174 1.19178 1.19178 1.19176 1.19177 1.19177 1.19178 1.19176 1.19177 1.19176 1.19174 1.19176 1.19176 1.19176 1.19178 1.19175 1.19178 1.19178 1.19178 1.19174 1.19176 1.19175 1.19177 1.19186 1.19178 1.19172 1.19182 1.19175 1.1918 1.1918 1.19176 1.19178 1.19194 1.19187 1.19177 1.19187 1.19182 1.19178 1.19194 1.19183 1.19177 1.19186 1.19176 1.1918 1.19175 1.19183 1.19186 1.19179 1.19177 1.19183 1.19177 1.19169 1.19188 1.19178 1.19176 1.19177 1.19184 1.19169 1.19172 1.19172 1.19166 1.19178 1.19174 1.19181 1.1918 1.19169 1.19175 1.19168 1.19178 1.19176 1.19177 1.19178 1.19179 1.19175 1.19174 1.19171 1.19172 1.19182 1.19172 1.19171 1.19175 1.19176 1.19173 1.19172 1.19168 1.19171 1.19176 1.19175 1.19174 1.19177 1.19178 1.19173 1.19174 1.19177 1.19177 1.19178 1.19177 1.19177 1.19178 1.19177 1.1917 1.19174 1.19176 1.19171 1.19176 1.19177 1.19176 1.19178 1.19177 1.19177 1.19177 1.19176 1.19178 1.19178 1.19178 1.19178 1.19175 1.19181 1.19182 1.19177 1.19178 1.19175 1.19178 1.19178 1.19177 1.19179 1.19176 1.19176 1.19177 1.19173 1.1918 1.1918 1.1918 1.19178 1.19176 1.19183 1.19182 1.19186 1.19196 1.19188 1.19177 1.19174 1.19188 1.19181 1.19175 1.19181 1.19173 1.19173 1.19181 1.19183 1.19183 1.19175 1.19168 1.19188 1.19178 1.19175 1.19169 1.19171 1.19171 1.19171 1.19166 1.19177 1.19183 1.19178 1.19179 1.19171 1.19173 1.19176 1.19169 1.19176 1.19178 1.19175 1.19174 1.19174 1.19171 1.19172 1.19178 1.19174 1.19173 1.19178 1.19181 1.19175 1.19178 1.19178 1.19171 1.19182 1.19175 1.19174 1.19171 1.19179 1.19174 1.19171 1.19173 1.19173 1.19177 1.19178 1.19178 1.19177 1.19177 1.19178 1.19177 1.19177 1.19177 1.19176 1.1917 1.19176 1.19177 1.19176 1.19178 1.19177 1.19177 1.19177 1.19177 1.19178 1.19176 1.19178 1.19178 1.19181 1.19177 1.19178 1.19176 1.1918 1.19177 1.19179 1.19178 1.19173 1.19179 1.19174 1.19176 1.19172 1.1918 1.19181 1.19181 1.19179 1.19175 1.19176 1.19182 1.19181 1.19184 1.19185 1.19189 1.19178 1.19175 1.19162 1.19176 1.19183 1.19199 1.1917 1.19173 1.19181 1.19181 1.19183 1.19174 1.19167 1.19189 1.19186 1.19169 1.19168 1.19171 1.19171 1.19177 1.19178 1.19183 1.19173 1.19178 1.1917 1.19171 1.19177 1.19177 1.19176 1.19178 1.19166 1.19175 1.19174 1.1917 1.19175 1.19176 1.19175 1.19172 1.19175 1.19182 1.19177 1.19178 1.19179 1.19175 1.19176 1.19175 1.19174 1.19178 1.19178 1.19171 1.19173 1.19173 1.19177 1.19178 1.19178 1.19178 1.19178 1.19178 1.19177 1.19177 1.19177 1.19178 1.19171 1.19176 1.19178 1.19178 1.19178 1.19177 1.19178 1.19176 1.19177 1.19177 1.19176 1.19178 1.19178 1.19178 1.19178 1.19174 1.19178 1.19179 1.19178 1.19177 1.19178 1.19173 1.19179 1.19174 1.19171 1.19173 1.19172 1.1918 1.19177 1.19179 1.19174 1.19175 1.19179 1.19181 1.19178 1.19184 1.19185 1.19177 1.19176 1.19164 1.19172 1.192 1.19161 1.19173 1.19181 1.19178 1.19171 1.19167 1.19169 1.19182 1.1918 1.19183 1.1917 1.19175 1.19178 1.19166 1.19177 1.19168 1.19176 1.19184 1.19178 1.19172 1.19171 1.19179 1.19177 1.19178 1.19174 1.19178 1.19179 1.19178 1.19175 1.19178 1.19175 1.19176 1.19175 1.19172 1.19174 1.19175 1.19177 1.19176 1.19178 1.19175 1.19178 1.19175 1.19174 1.19177 1.19175 1.19173 1.19175 1.19173 1.19177 1.19177 1.19177 1.19178 1.19178 1.19178 1.19177 1.19177 1.19178 1.19178 1.19178 1.19176 1.19178 1.19178 1.19178 1.19178 1.19178 1.19177 1.19177 1.19177 1.19178 1.19178 1.19177 1.19177 1.19177 1.19174 1.19177 1.19179 1.19174 1.19174 1.19176 1.19173 1.19171 1.19176 1.19172 1.19171 1.19175 1.19167 1.19174 1.1918 1.19174 1.19174 1.19173 1.19177 1.19173 1.19186 1.19182 1.19181 1.19179 1.19167 1.1917 1.19179 1.19158 1.19174 1.19167 1.19183 1.19177 1.19177 1.19169 1.19162 1.19168 1.19177 1.19169 1.19175 1.19171 1.19165 1.19176 1.19175 1.19174 1.19176 1.19172 1.19172 1.19172 1.19178 1.19173 1.19178 1.19177 1.19179 1.19175 1.19178 1.19176 1.19178 1.19175 1.19171 1.19174 1.19175 1.19177 1.19178 1.19178 1.19178 1.19175 1.19177 1.19175 1.1917 1.19174 1.19175 1.19173 1.19177 1.19178 1.19177 1.19178 1.19178 1.19178 1.19177 1.19177 1.19178 1.19178 1.19178 1.19176 1.19178 1.19178 1.19178 1.19178 1.19178 1.19176 1.19177 1.19177 1.19177 1.19177 1.19178 1.19178 1.19175 1.19177 1.19176 1.19178 1.19175 1.19174 1.19178 1.1917 1.19176 1.19173 1.19172 1.19162 1.19175 1.19168 1.19172 1.19169 1.19172 1.19176 1.19181 1.19187 1.19181 1.1917 1.1917 1.19165 1.19171 1.19179 1.19156 1.19171 1.19176 1.19169 1.19169 1.19165 1.19165 1.19155 1.19168 1.19157 1.19162 1.19184 1.19161 1.19171 1.19175 1.19178 1.19178 1.19176 1.19172 1.19172 1.19173 1.19174 1.19171 1.19174 1.19178 1.19178 1.19175 1.19178 1.19175 1.19175 1.19174 1.19177 1.19179 1.19174 1.19173 1.19176 1.19177 1.19177 1.19177 1.19175 1.19177 1.19175 1.19177 1.1917 1.19171 1.19174 1.19177 1.19174 1.19171 1.19171 1.19166 1.19172 1.19174 1.19181 1.19187 1.19178 1.19181 1.19167 1.19178 1.19178 1.19176 1.19179 1.19161 1.19173 1.19169 1.19177 1.19165 1.1917 1.19177 1.19175 1.19178 1.19175 1.1917 1.19178 1.19165 1.19174 1.19171 1.1918 1.19173 1.19177 1.19181 1.1918 1.19178 1.19178 1.19173 1.19179 1.19169 1.19167 1.19175 1.19175 1.19162 1.19162 1.19167 1.19172 1.19179 1.19172 1.19178 1.19172 1.1918 1.19168 1.19175 1.19182 1.19182 1.19177 1.19181 1.19171 1.19177 1.19173 1.19172 1.19169 1.19178 1.19162 1.19176 1.19172 1.19178 1.19174 1.19179 1.19171 1.19166 1.19176 1.19174 1.19181 1.19182 1.19174 1.19177 1.19178 1.19165 1.19171 1.19178 1.19174 1.19167 1.19165 1.19159 1.19163 1.19175 1.19178 1.19178 1.19176 1.19168 1.19175 1.19168 1.19177 1.19172 1.19181 1.19181 1.19173 1.19177 1.19174 1.19165 1.1917 1.19176 1.19168 1.19162 1.19159 1.19169 1.19184 1.19178 1.19178 1.19178 1.19178 1.19175 1.1917 1.19177 1.19169 1.19176 1.19171 1.19181 1.19182 1.19169 1.1918 1.19177 1.19171 1.19184 1.19168 1.19158 1.19178 1.19179 1.1918 1.19178 1.19178 1.19178 1.19178 1.19178 1.19178 1.19178 1.19178 1.19178 1.19178 1.19178 1.19178 1.19178 1.19178 1.19178 1.19178 1.19178 1.19178 1.19178 1.19178 1.19178 1.19178 1.19178 1.19178 1.19178 1.19178 1.19178 1.19177 1.19177 1.19174 1.1917 1.19178 1.19172 1.19168 1.19169 1.19181 1.19188 1.19164 1.1918 1.19174 1.19174 1.19178 1.19171 1.19178 1.19184 1.19174 1.1918 1.19179 1.19178 1.19178 1.19178 1.19178 1.19178 1.19178 1.19178 1.19178 1.19178 1.19178 1.19178 1.19178 1.19178 1.19178 1.19178 1.19178 1.19178 1.19178 1.19178 1.19178 1.19178 1.19178 1.19178 1.19178 1.19178 1.19178 1.19178 1.19178 1.19178 1.1917 1.19174 1.19176 1.19182 1.19174 1.19177 1.19167 1.1917 1.19188 1.19177 1.19167 1.19168 1.19184 1.19179 1.19173 1.19167 1.19176 1.19181 1.19182 1.19179 1.19176 1.1918 1.19175 1.19178 1.19178 1.19178 1.19178 1.19178 1.19178 1.19178 1.19178 1.19178 1.19178 1.19178 1.19178 1.19178 1.19178 1.19178 1.19178 1.19178 1.19178 1.19178 1.19178 1.19178 1.19178 1.19178 1.19178 1.19178 1.19178 1.19178 1.19178 1.19178 1.19178 1.19178 1.19178 1.19178 1.19178 1.19178 1.19178 1.19178 1.19178 1.19178 1.1918 1.19174 1.19187 1.19173 1.19171 1.19167 1.19176 1.19165 1.19169 1.19172 1.19175 1.19171 1.19161 1.1917 1.19166 1.19174 1.19176 1.19182 1.19175 1.19178 1.19184 1.1918 1.19177 1.1918 1.19178 1.19178 1.19178 1.19178 1.19178 1.19178 1.19178 1.19178 1.19178 1.19178 1.19178 1.19178 1.19178 1.19178 1.19178 1.19178 1.19178 1.19178 1.19178 1.19178 1.19178 1.19178 1.19178 1.19178 1.19178 1.19178 1.19178 1.19178 1.19178 1.19178 1.19178 1.19178 1.19178 1.19178 1.19178 1.19178 1.19178 1.19178 1.19178 1.19178 1.19178 1.19178 1.19178 1.19178 1.19178 1.19178 1.19178 1.19178 1.19177 1.19182 1.19173 1.19174 1.19168 1.19177 1.19165 1.19169 1.19172 1.19175 1.19171 1.1916 1.19155 1.19169 1.19167 1.19174 1.1918 1.19183 1.1917 1.19175 1.19175 1.19176 1.19182 1.19178 1.19178 1.19178 1.19178 1.19178 1.19178 1.19178 1.19178 1.19178 1.19178 1.19178 1.19178 1.19178 1.19178 1.19178 1.19178 1.19178 1.19178 1.19178 1.19178 1.19178 1.19178 1.19178 1.19178 1.19178 1.19178 1.19178 1.19178 1.19178 1.19178 1.19178 1.19178 1.19178 1.19178 1.19178 1.19178 1.19178 1.19178 1.19178 1.19178 1.19178 1.19178 1.19177 1.19178 1.19177 1.19173 1.19168 1.19172 1.19173 1.19173 1.19178 1.19168 1.19172 1.1917 1.19169 1.19169 1.19155 1.19178 1.19169 1.19178 1.19177 1.19168 1.19181 1.19184 1.19173 1.19177 1.19178 1.19178 1.19178 1.19178 1.19178 1.19178 1.19178 1.19178 1.19178 1.19178 1.19178 1.19178 1.19178 1.19178 1.19178 1.19178 1.19178 1.19178 1.19178 1.19178 1.19178 1.19178 1.19178 1.19178 1.19178 1.19178 1.19178 1.19178 1.19178 1.19178 1.19178 1.19178 1.19178 1.19178 1.19178 1.19178 1.19178 1.19178 1.19178 1.19178 1.19178 1.19178 1.19178 1.19178 1.19178 1.19178 1.19178 1.19178 1.19178 1.19178 1.19178 1.19178 1.19177 1.19178 1.19178 1.19174 1.19186 1.19174 1.19178 1.19173 1.19171 1.19175 1.19178 1.19175 1.19169 1.19173 1.19175 1.19158 1.19176 1.19175 1.19177 1.19173 1.19167 1.19171 1.19178 1.19176 1.19176 1.19179 1.19178 1.19178 1.19178 1.19178 1.19178 1.19178 1.19178 1.19178 1.19178 1.19178 1.19178 1.19178 1.19178 1.19178 1.19178 1.19178 1.19178 1.19178 1.19178 1.19178 1.19178 1.19178 1.19178 1.19178 1.19178 1.19178 1.19178 1.19178 1.19178 1.19178 1.19178 1.19178 1.19178 1.19178 1.19178 1.19178 1.19178 1.19178 1.19178 1.19178 1.19178 1.19178 1.19178 1.19178 1.19174 1.19164 1.19178 1.19175 1.19175 1.19176 1.19173 1.19175 1.19181 1.19174 1.19177 1.19176 1.19182 1.19165 1.19169 1.1917 1.19178 1.1917 1.19176 1.1917 1.19182 1.19177 1.19178 1.19178 1.19178 1.19178 1.19178 1.19178 1.19178 1.19178 1.19178 1.19178 1.19178 1.19178 1.19178 1.19178 1.19178 1.19178 1.19178 1.19178 1.19178 1.19178 1.19178 1.19178 1.19178 1.19178 1.19178 1.19178 1.19178 1.19178 1.19178 1.19178 1.19178 1.19178 1.19178 1.19178 1.19178 1.19178 1.19178 1.19178 1.19178 1.19178 1.19178 1.19178 1.1918 1.19177 1.1917 1.19182 1.19168 1.19175 1.19174 1.19173 1.19177 1.19178 1.19177 1.19177 1.19173 1.19178 1.19171 1.1917 1.19178 1.19183 1.19173 1.19178 1.19178 1.19178 1.19178 1.19178 1.19178 1.19178 1.19178 1.19178 1.19178 1.19178 1.19178 1.19178 1.19178 1.19178 1.19178 1.19178 1.19178 1.19178 1.19178 1.19178 1.19178 1.19178 1.19178 1.19178 1.19178 1.19178 1.19178 1.19178 1.19178 1.19178 1.19178 1.19178 1.19178 1.19178 1.19178 1.19178 1.19178 1.19178 1.19178 1.19178 1.19178 1.19178 1.19175 1.19173 1.19178 1.19187 1.19177 1.19169 1.1918 1.19178 1.19177 1.19174 1.19175 1.19179 1.19178 1.19171 1.19176 1.19171 1.19179 1.19174 1.19178 1.19178 1.19178 1.19178 1.19178 1.19178 1.19178 1.19178 1.19178 1.19178 1.19178 1.19178 1.19178 1.19178 1.19178 1.19178 1.19178 1.19178 1.19178 1.19178 1.19178 1.19178 1.19178 1.19178 1.19178 1.19178 1.19178 1.19178 1.19178 1.19178 1.19178 1.19178 1.19178 1.19178 1.19178 1.19178 1.19178 1.19178 1.19178 1.19178 1.19178 1.19178 1.19178 1.19178 1.19178 1.19178 1.19177 1.19176 1.19178 1.19176 1.19176 1.19179 1.19185 1.19175 1.19176 1.19177 1.19177 1.19172 1.19177 1.19178 1.19169 1.19178 1.19174 1.1918 1.19178 1.19178 1.19178 1.19178 1.19178 1.19178 1.19178 1.19178 1.19178 1.19178 1.19178 1.19178 1.19178 1.19178 1.19178 1.19178 1.19178 1.19178 1.19178 1.19178 1.19178 1.19178 1.19178 1.19178 1.19178 1.19178 1.19178 1.19178 1.19178 1.19178 1.19178 1.19178 1.19178 1.19177 1.19176 1.19177 1.19178 1.19177 1.19177 1.19175 1.19177 1.19179 1.19175 1.19177 1.19171 1.19177 1.19176 1.19171 1.19177 1.19174 1.19176 1.19177 1.19177 1.19177 1.19178 1.19178 1.19178 1.19178 1.19178 1.19178 1.19178 1.19178 1.19178 1.19178 1.19178 1.19178 1.19178 1.19178 1.19178 1.19178 1.19178 1.19178 1.19178 1.19178 1.19178 1.19178 1.19178 1.19177 1.19176 1.19176 1.19176 1.19175 1.19179 1.19175 1.19176 1.19177 1.19177 1.19174 1.19176 1.19173 1.19173 1.19176 1.19173 1.19177 1.19176 1.19174 1.19173 1.19178 1.19178 1.19178 1.19178 1.19178 1.19178 1.19178 1.19178 1.19178 1.19178 1.19178 1.19178 1.19178 1.19178 1.19178 1.19178 1.19178 1.19178 1.19178 1.19178 1.19178 1.19178 1.19178 1.19178 1.19178 1.19178 1.19178 1.19175 1.19176 1.19176 1.19174 1.19178 1.19174 1.19175 1.19177 1.19174 1.19173 1.19172 1.19172 1.19178 1.1917 1.19173 1.19173 1.19177 1.19178 1.19178 1.19177 1.19173 1.19178 1.19178 1.19178 1.19178 1.19178 1.19178 1.19178 1.19178 1.19178 1.19178 1.19178 1.19178 1.19178 1.19178 1.19178 1.19178 1.19179 1.19173 1.19175 1.19174 1.19177 1.19174 1.19175 1.19176 1.19173 1.19174 1.19174 1.19179 1.1917 1.19179 1.19178 1.19177 1.19177 1.19178 1.19175 1.19178 1.19178 1.19178 1.19178 1.19178 1.19178 1.19178 1.19178 1.19178 1.19178 1.19178 1.19178 1.19178 1.19178 1.19178 1.19178 1.19178 1.19178 1.19178 1.19176 1.19176 1.19176 1.19174 1.19178 1.19178 1.19178 1.19177 1.19174 1.19176 1.19172 1.19173 1.19174 1.19172 1.19176 1.19177 1.19168 1.19178 1.19173 1.19174 1.19178 1.19177 1.19177 1.19178 1.19178 1.19178 1.19178 1.19178 1.19178 1.19178 1.19178 1.19178 1.19178 1.19178 1.19178 1.19178 1.19177 1.19178 1.19176 1.19175 1.19177 1.19178 1.19177 1.19174 1.19177 1.19178 1.19175 1.19179 1.19174 1.19177 1.19177 1.19173 1.19178 1.19174 1.19178 1.19177 1.19178 1.19178 1.19178 1.19178 1.19178 1.19178 1.19178 1.19178 1.19178 1.19177 1.19178 1.19177 1.19178 1.19178 1.19178 1.19178 1.19175 1.19178 1.19177 1.19175 1.19177 1.19177 1.19173 1.19178 1.19177 1.19178 1.19178 1.19173 1.19174 1.19178 1.19178 1.19178 1.19178 1.19178 1.19178 1.19178 1.19177 1.19177 1.19178 1.19178 1.19177 1.19176 1.19178 1.19174 1.19176 1.19178 1.19177 1.19178 1.19178 1.19177 1.19178 1.19177 1.19178 1.19177 1.19172 1.19178 1.19178 1.19178 1.19178 1.19178 1.19178 1.19178 1.19178 1.19178 1.19178 1.19178 1.19178 1.19178 1.19178 1.19178 1.19178 1.19177 1.19177 1.19177 1.19176 1.19178 1.19175 1.19178 1.19176 1.19177 1.19178 1.19178 1.19178 1.19178 1.19178 1.19178 1.19178 1.19178 1.19178 1.19178 1.19178 1.19178 1.19178 1.19178 1.19178 1.19178 1.19178 1.19178 1.19178 1.19178 0.00157976 0.00384901 0.0038609 0.00645284 0.00576378 0.00407876 0.00265978 0.0076707 0.00926594 0.0206656 0.0218065 0.0219565 0.0225383 0.0248262 0.0268036 0.0262731 0.0241413 0.0221593 0.0248747 0.0269891 0.0294011 0.0335711 0.0382166 0.0397009 0.0437674 0.0436572 0.0475123 0.0438551 0.0549632 0.0621518 0.0712062 0.0902955 0.0984233 0.0812001 0.0784622 0.11595 0.153554 0.111496 0.195091 0.219682 0.218492 0.241343 0.241646 0.163519 0.027773 0.0859134 0.166955 0.246669 1.19267 0.302909 0.430655 0.459882 0.481505 0.425551 0.13161 1.19178 1.19178 0.202694 0.203072 0.14996 0.102031 0.0839758 0.0612131 0.0463567 0.0414966 0.0333371 0.0448943 0.0643414 0.0713855 0.0755112 0.0701839 0.0609536 0.0528907 0.0535031 0.055107 0.0457053 0.0354368 0.0243437 0.0221836 0.0162475 0.0022317 0.00648985 0.0154577 0.0222253 0.02671 0.0364491 0.0385103 0.039972 0.0388775 0.033682 0.0252954 0.0240068 0.0295522 0.0231928 0.0179838 0.012477 0.0180953 0.0203577 0.0192266 0.0157037 0.00613612 0.00607841 0.00695595 0.00339272 0.00660139 0.00494265 0.000633716 0.000697464 0.0041162 0.00395295 0.00579057 0.00348788 0.00289367 0.00100007 0.00423673 0.00300639 0.00601606 0.0086336 0.00754926 0.010031 0.00608979 0.0142034 0.0100236 0.00911538 0.019557 0.0112543 0.0226041 0.0113199 0.0147977 0.0183026 0.0181575 0.0245125 0.0256185 0.0247003 0.0250958 0.0212028 0.0209609 0.0202488 0.0223655 0.0204692 0.0215042 0.0244588 0.0223445 0.0290235 0.0339508 0.0362356 0.0395933 0.0299617 0.0403553 0.0288744 0.0426676 0.0283069 0.0322756 0.0440826 0.0366846 0.0451511 0.0470065 0.0494511 0.0272144 0.0457777 0.0520619 0.126116 0.0310108 0.0664539 0.13469 0.0921315 0.111117 0.141084 0.20676 0.31474 0.22815 0.232102 0.437713 0.296398 0.18354 0.344028 0.211217 0.369011 0.190619 0.217841 0.431288 0.139777 0.164161 0.0604827 0.383063 0.446617 1.08956 0.642103 0.105249 0.0157556 0.21324 0.0678788 0.0691088 0.136148 0.066491 0.181782 0.00289373 0.0705445 0.0157209 0.0518919 0.0220421 0.056382 0.036436 0.0266543 0.0620082 0.0451318 0.0607729 0.0615315 0.065515 0.0741407 0.0553425 0.063059 0.0632229 0.0624879 0.0506464 0.0447285 0.0390742 0.0333455 0.0182019 0.0165368 0.00308762 0.0113076 0.0118361 0.011776 0.00806983 0.0133957 0.0148289 0.0274321 0.0307191 0.0352806 0.0288481 0.0321219 0.0321133 0.0309285 0.0359972 0.0292841 0.0352187 0.0358798 0.0272287 0.0316791 0.0346749 0.0375426 0.0369588 0.0286327 0.0327555 0.0302801 0.0339488 0.0326574 0.0323209 0.0306046 0.0328186 0.0295101 0.0233566 0.0191456 0.0136981 0.00925883 0.0118123 0.00734422 0.00533386 0.0182671 0.0145496 0.0126605 0.00722442 0.0111361 0.0147462 0.00521854 0.00517707 0.00258401 0.00367491 0.00683893 0.0073071 0.00571846 0.00629206 0.0054417 0.00384855 0.00711729 0.0109746 0.0138388 0.0128642 0.0152021 0.0175456 0.0142763 0.0125285 0.0191032 0.0169416 0.0197167 0.0194532 0.02136 0.0191551 0.0206957 0.0195746 0.019235 0.0230126 0.0244094 0.0209138 0.0221399 0.0238944 0.0225231 0.0247659 0.026149 0.0265066 0.0253715 0.0269256 0.0270227 0.028686 0.0301783 0.0211629 0.00959819 0.0172021 0.0291972 0.0667423 0.0624372 0.0492772 0.0809687 0.102043 0.116262 0.145367 0.139377 0.182424 0.135093 0.163303 0.0927799 0.190653 0.16652 0.172021 0.173138 0.263204 0.171968 0.196564 0.0434609 0.529851 0.275701 0.157277 0.304837 0.0215675 0.0420552 0.0453856 0.115652 0.14292 0.0665325 0.192272 0.157868 0.140602 0.161174 0.0949347 0.0337765 0.0485678 0.0275282 0.0591008 0.0518119 0.0603836 0.054038 0.061952 0.069279 0.0579083 0.0652689 0.0601051 0.0532288 0.0485547 0.0398488 0.0450909 0.034929 0.0213192 0.0321475 0.0197829 0.0183406 0.0107955 0.013192 0.0208163 0.0254856 0.0246743 0.0294457 0.036774 0.0349363 0.0309182 0.0346812 0.0379744 0.0338671 0.0369807 0.0359225 0.0388937 0.033382 0.0263084 0.0306595 0.0228867 0.0260189 0.0281921 0.0223434 0.024474 0.0231052 0.0328628 0.0229711 0.0168955 0.0158311 0.0247549 0.00996677 0.0029067 0.000806227 0.00490849 0.00485292 0.00497716 0.00584759 0.00493728 0.00621817 0.00583211 0.00644851 0.0106854 0.0141672 0.0116764 0.0148704 0.0140123 0.0145417 0.0165846 0.0199128 0.0201454 0.0223599 0.0215561 0.018343 0.0174291 0.020355 0.0223023 0.0253837 0.0211585 0.0212508 0.0252163 0.0221544 0.0282982 0.0297008 0.032458 0.0233797 0.0218146 0.0240614 0.0244268 0.0172954 0.0226009 0.0174826 0.029983 0.0487302 0.0510674 0.0672768 0.0682612 0.103565 0.133098 0.113496 0.124405 0.134501 0.0814852 0.0645748 0.0740387 0.0575409 0.114035 0.0999013 0.118577 0.141615 0.253201 0.291784 0.251307 0.0520975 0.0502325 0.0908722 0.063434 0.0389469 0.0827055 0.112943 0.214532 0.21492 0.325235 0.0815293 0.10772 0.0913435 0.0716579 0.0653455 0.0588062 0.0561005 0.0481392 0.0404903 0.0362785 0.0347764 0.0265101 0.034124 0.0312499 0.0376127 0.0272829 0.0315006 0.0234681 0.0162866 0.0148273 0.0145657 0.0164007 0.0161555 0.0190266 0.0313642 0.0296505 0.0320178 0.0303398 0.0340995 0.0362181 0.0327816 0.0375347 0.040872 0.0390344 0.0384052 0.035088 0.0305543 0.0272737 0.0329401 0.020667 0.0228954 0.0248409 0.0188142 0.0152937 0.0159045 0.00897839 0.0112748 0.0145372 0.0306851 0.0187795 0.0166719 0.0109187 0.0169733 0.00945517 0.0156433 0.0144973 0.00416337 0.00102292 0.00554521 0.00525438 0.00691884 0.00674449 0.00546954 0.0105199 0.00944603 0.00943301 0.0120423 0.014321 0.0113449 0.0139465 0.0162116 0.0186614 0.0183391 0.0193264 0.0207833 0.0218866 0.020758 0.0220685 0.0213888 0.020398 0.0194056 0.0184246 0.0162498 0.0183563 0.0187862 0.0196539 0.0224602 0.0209083 0.0175758 0.0225302 0.016956 0.0224042 0.0180077 0.0256156 0.0203178 0.0154425 0.0174311 0.0150885 0.0294544 0.0409906 0.0712403 0.0742977 0.100173 0.0857832 0.0786336 0.0795985 0.080149 0.0723656 0.0282147 0.082714 0.0418112 0.0210677 0.146641 0.159443 0.210864 0.321635 0.350554 0.200208 0.232966 0.134799 0.0837356 0.0895979 0.0770469 0.118583 0.107216 0.121175 0.322714 0.513094 0.151041 0.528364 0.350277 0.219147 0.140591 0.120333 0.0859836 0.0568857 0.0449848 0.0445556 0.0346528 0.0290199 0.0310869 0.0245779 0.031132 0.0267135 0.0359423 0.0293355 0.0282327 0.0290648 0.0249694 0.0197692 0.0226365 0.0228286 0.0287286 0.0312486 0.0382187 0.0365386 0.0374289 0.0361818 0.0373616 0.041489 0.0356742 0.038815 0.0324263 0.0203361 0.00936084 0.0256449 0.0206578 0.0192019 0.0187729 0.0182277 0.0129031 0.0196105 0.0132787 0.0182171 0.0330374 0.0140368 0.0231765 0.0225721 0.0285932 0.0238292 0.0022616 0.00331502 0.00271691 0.0044282 0.00388659 0.0045291 0.00577416 0.00680854 0.0110286 0.0102122 0.0136159 0.0160867 0.0147004 0.0174429 0.019307 0.0204497 0.0192457 0.0164095 0.0157572 0.0126807 0.0138689 0.0165866 0.0157773 0.0166436 0.0152734 0.0177154 0.0191211 0.0175683 0.0093615 0.0152172 0.0102546 0.0138746 0.0140154 0.0156392 0.00848324 0.0105045 0.0246121 0.0388382 0.0658166 0.0738526 0.0753452 0.0724162 0.0784933 0.0693736 0.0698879 0.0675788 0.108737 0.0886466 0.189018 0.0695392 0.146638 0.205252 0.0874277 0.0799438 0.0932616 0.0762683 0.143397 0.0936093 0.129404 0.111654 0.10741 0.0672944 0.0418783 0.0424824 0.105116 0.145175 0.316437 0.212158 0.124449 0.125561 0.0855371 0.0983435 0.0600687 0.0883887 0.0505682 0.030177 0.0264814 0.0271027 0.0309334 0.0248788 0.0329619 0.0308711 0.0280352 0.0310453 0.0253509 0.0382045 0.0373023 0.0320196 0.0415659 0.0427913 0.0387483 0.0429533 0.0434611 0.036932 0.0446121 0.0387305 0.0447821 0.036507 0.0542251 0.0282771 0.0240584 0.0347343 0.0347767 0.021139 0.0245766 0.0238909 0.0300809 0.0275026 0.0415366 0.034572 0.0313893 0.0327566 0.0218526 0.0164499 0.00536309 0.012183 0.00505128 0.00274672 0.00557812 0.00907883 0.00838115 0.0092993 0.0102356 0.0113926 0.0172106 0.0191044 0.0168181 0.0179713 0.0176996 0.0187418 0.0201793 0.0199067 0.0195674 0.0211624 0.0193754 0.0189523 0.0168621 0.015828 0.0161603 0.0161163 0.011863 0.0102381 0.00978569 0.0106524 0.0124343 0.013737 0.0126892 0.0133189 0.0106059 0.0108579 0.0119036 0.00853495 0.00459077 0.0101206 0.0250597 0.0337204 0.0537234 0.0577139 0.0561853 0.0709845 0.0864326 0.0759319 0.0906272 0.106366 0.133643 0.185177 0.119278 0.0965308 0.12082 0.143282 0.0285638 0.0318403 0.0610483 0.0737956 0.213889 0.154557 0.249576 0.196569 0.229429 0.202933 0.0993004 0.0172533 0.0449152 0.104217 0.0483588 0.0251101 0.0301834 0.0295971 0.0348502 0.0357427 0.021976 0.0294852 0.0278612 0.0392199 0.0349551 0.041854 0.0415491 0.0398657 0.0405097 0.0380186 0.0424907 0.0398858 0.0620092 0.056843 0.0498831 0.0490196 0.0454181 0.0426125 0.0461158 0.0530131 0.0511173 0.0544328 0.10094 0.0765686 0.0413252 0.0350973 0.0351582 0.0407044 0.037988 0.0193946 0.0246165 0.0279013 0.0228129 0.0215845 0.0100024 0.0119088 0.0151048 0.00434633 0.00458181 0.0106072 0.00960228 0.00678996 0.0106347 0.0110572 0.0130117 0.0163713 0.0161577 0.0183978 0.0159133 0.0185783 0.0191833 0.01933 0.0188413 0.0195844 0.0167654 0.0168873 0.0160198 0.0161314 0.0155327 0.0164914 0.0169922 0.0150329 0.0106858 0.00742877 0.0100367 0.0109131 0.01322 0.0114379 0.0126142 0.0145224 0.0128186 0.0150527 0.019673 0.0196731 0.0148964 0.0195876 0.0292311 0.0416701 0.0444617 0.0512237 0.0475292 0.0809991 0.0889559 0.0806393 0.0487124 0.0366739 0.0871728 0.115023 0.151375 0.117828 0.127247 0.116764 0.120215 0.146992 0.0350087 0.0686636 0.0620444 0.0990182 0.130958 0.190596 0.255769 0.131857 0.0675487 0.0768488 0.0703354 0.0473903 0.0517914 0.0381391 0.0434039 0.0307021 0.0377526 0.0310515 0.0562326 0.0532157 0.0458299 0.047802 0.0418012 0.0422762 0.0498285 0.0459472 0.0495934 0.0493874 0.046756 0.0484912 0.0480974 0.0475934 0.0598517 0.0635302 0.0640276 0.0605841 0.0632655 0.0633757 0.0537907 0.0508915 0.0312192 0.0359836 0.0248179 0.0219681 0.0213626 0.0244603 0.0248817 0.0201356 0.00983185 0.017552 0.0163179 0.016622 0.0063629 0.00670746 0.011526 0.0112302 0.0129099 0.0118971 0.00333593 0.00839159 0.0151371 0.0177461 0.0173828 0.0183559 0.0195745 0.0177934 0.0173588 0.0156627 0.0166747 0.0195253 0.0182076 0.0173071 0.0159984 0.0147725 0.0136927 0.0182391 0.00672444 0.00902382 0.00988772 0.010082 0.0106216 0.0124991 0.0137931 0.0127878 0.0175278 0.0111526 0.0128138 0.0152146 0.0215346 0.0282042 0.0472542 0.0486183 0.0557503 0.063251 0.0714523 0.0877003 0.0980311 0.0706612 0.0848736 0.0654724 0.102003 0.0907498 0.106758 0.058954 0.101621 0.122458 0.124145 0.119577 0.141842 0.12466 0.0827858 0.0989896 0.112175 0.131304 0.157142 0.165435 0.138932 0.100744 0.126263 0.0957232 0.0740421 0.0558033 0.0730589 0.0627751 0.0588769 0.0651808 0.0555944 0.0639972 0.060872 0.058445 0.0551843 0.053716 0.0547323 0.0497779 0.053933 0.0524491 0.0514245 0.0554313 0.0553981 0.0482156 0.0578104 0.0573683 0.054676 0.040228 0.049224 0.0556315 0.0686228 0.0352285 0.0457945 0.0415391 0.0389174 0.0247238 0.0246883 0.0106332 0.01814 0.016993 0.0116927 0.0177276 0.0154789 0.00304233 0.0139132 0.0135879 0.0127013 0.011547 0.0156987 0.0160817 0.0178238 0.0181322 0.0167137 0.0190575 0.0165194 0.0167102 0.0167248 0.0172984 0.0169251 0.0161716 0.0151664 0.0143416 0.0166144 0.0124327 0.00977987 0.00841426 0.00731783 0.0137653 0.0132542 0.013036 0.0143908 0.000797643 0.000789202 0.0164415 0.0241877 0.0545551 0.0465256 0.0629596 0.0668701 0.042605 0.04751 0.0277946 0.0462426 0.0598509 0.0584961 0.102211 0.113719 0.126351 0.0935824 0.0901939 0.0680274 0.0774095 0.0731396 0.0537558 0.0899603 0.106491 0.101517 0.0939968 0.0860729 0.0766332 0.070459 0.0695398 0.0784135 0.0660608 0.0660255 0.0593606 0.0595741 0.0560873 0.0623753 0.0574841 0.051867 0.0453567 0.0469884 0.0484048 0.0394266 0.0716626 0.0667962 0.0516397 0.0572985 0.0496605 0.0304278 0.0765668 0.0612898 0.0291692 0.0293138 0.0476275 0.0308642 0.0241596 0.0273984 0.0214223 0.00454604 0.0256358 0.0304668 0.0144943 0.00639363 0.0162867 0.0129744 0.0158698 0.0143517 0.0134387 0.0205677 0.0160587 0.0158815 0.0172137 0.0178345 0.0172537 0.015534 0.0187341 0.0179865 0.0159418 0.0134852 0.0149872 0.0130521 0.00921809 0.0116991 0.00717379 0.0103835 0.0128708 0.0160331 0.0160144 0.0181997 0.0183064 0.0110501 0.0044371 0.00337718 0.018397 0.0269911 0.0546104 0.0336894 0.0604349 0.0495466 0.0695968 0.059459 0.0302348 0.0243053 0.0299716 0.0354159 0.0305179 0.0457268 0.0704426 0.0776025 0.0997979 0.119631 0.103875 0.090886 0.0944299 0.0882183 0.0824668 0.0824679 0.0846315 0.0923824 0.118215 0.119632 0.117149 0.103298 0.0909123 0.0783131 0.0761515 0.0783114 0.0565862 0.0555031 0.0668441 0.0585254 0.0615379 0.0679867 0.0521131 0.0720479 0.0718188 0.0593589 0.06085 0.0643923 0.0636788 0.0606547 0.0531319 0.0669537 0.0642724 0.0911253 0.0468418 0.0449461 0.141879 0.101094 0.102955 0.0513717 0.0154527 0.011676 0.0224579 0.0375139 0.00625461 0.0223598 0.00375254 0.0119383 0.0187122 0.0157233 0.0148958 0.0220197 0.0226956 0.0154868 0.02046 0.0179359 0.0239359 0.0203128 0.0203102 0.0131107 0.0168416 0.0159516 0.0128901 0.0122138 0.00218219 0.00795371 0.00669474 0.0186503 0.0133961 0.0090502 0.0118696 0.00800414 0.00438985 0.0108205 0.00871711 0.00929692 0.00630059 0.0113489 0.0165426 0.0186608 0.0196926 0.108919 0.0809547 0.0744066 0.0398236 0.0240572 0.0280701 0.0707524 0.0821829 0.0780894 0.0551761 0.0624416 0.0580473 0.076084 0.0745153 0.0157002 0.11676 0.12138 0.093624 0.0947723 0.0845294 0.0902319 0.093857 0.100108 0.119341 0.113996 0.0875729 0.0880923 0.0842397 0.105126 0.0692702 0.0595069 0.0658193 0.0484887 0.0480357 0.0433415 0.0416636 0.0770437 0.076952 0.0782761 0.0705776 0.0613893 0.0615547 0.0595746 0.0646234 0.0619124 0.0656953 0.0607607 0.0790302 0.0835183 0.10104 0.124033 0.132613 0.175408 0.123103 0.0727132 0.0029069 0.0084949 0.0281084 0.00129904 0.019078 0.0227143 0.0181808 0.00935974 0.00281121 0.0247501 0.020372 0.00964342 0.0738635 0.0348133 0.0598944 0.0460157 0.0978859 0.0615377 0.0614074 0.0666848 0.0113077 0.00375336 0.0180399 0.0273437 0.00601196 
SCALARS Stress float 1
LOOKUP_TABLE default
-12556300000.0 -12556300000.0 -12554000000.0 -12560800000.0 -12549700000.0 -12570300000.0 -12564800000.0 -12564700000.0 -12551700000.0 -12554300000.0 -12549700000.0 -12552100000.0 -12549700000.0 -12549700000.0 -12553100000.0 -12549700000.0 -12549700000.0 -12550200000.0 -12549700000.0 -12550200000.0 -12551300000.0 -12557200000.0 -12560600000.0 -12556100000.0 -12554000000.0 -12552500000.0 -12551200000.0 -12550000000.0 -12549700000.0 -12549700000.0 -12549700000.0 -12551300000.0 -12553300000.0 -12554000000.0 -12560700000.0 -12557000000.0 -12554200000.0 -12550900000.0 -12553400000.0 -12553400000.0 -12550000000.0 -12555900000.0 -12549900000.0 -12550100000.0 -12554200000.0 -12567200000.0 -12564900000.0 -12561300000.0 -12551800000.0 -12554900000.0 -12567400000.0 -12568500000.0 -12550600000.0 -12550900000.0 -12553700000.0 -12566600000.0 -12553500000.0 -12576200000.0 -12560900000.0 -12554800000.0 -12554100000.0 -12552900000.0 -12563000000.0 -12573800000.0 -12560200000.0 -12585500000.0 -12613000000.0 -12594400000.0 -12603800000.0 -12598400000.0 -12593700000.0 -12593300000.0 -12584100000.0 -12556300000.0 -12553300000.0 -12549700000.0 -12553800000.0 -12563200000.0 -12565000000.0 -12556900000.0 -12553200000.0 -12552400000.0 -12559600000.0 -12563600000.0 -12603100000.0 -12595100000.0 -12594400000.0 -12567100000.0 -12550000000.0 -12562200000.0 -12552400000.0 -12647300000.0 -12613700000.0 -12636300000.0 -12655500000.0 -12703300000.0 -12725700000.0 -12686900000.0 -12574100000.0 -12565200000.0 -12565300000.0 -12549700000.0 -12558500000.0 -12550100000.0 -12549700000.0 -12562500000.0 -12549700000.0 -12549700000.0 -12552600000.0 -12549700000.0 -12556000000.0 -12549700000.0 -12577400000.0 -12549700000.0 -12549700000.0 -12549700000.0 -12550900000.0 -12549900000.0 -12549700000.0 -12550100000.0 -12551900000.0 -12558000000.0 -12560100000.0 -12573700000.0 -12573100000.0 -12593200000.0 -12588800000.0 -12564800000.0 -12560000000.0 -12549800000.0 -12554000000.0 -12562500000.0 -12569900000.0 -12565400000.0 -12564600000.0 -12553500000.0 -12561100000.0 -12590300000.0 -12554400000.0 -12575300000.0 -12565400000.0 -12571400000.0 -12561100000.0 -12552300000.0 -12552100000.0 -12575200000.0 -12568700000.0 -12620900000.0 -12550500000.0 -12549800000.0 -12549700000.0 -12553900000.0 -12559600000.0 -12559200000.0 -12595500000.0 -12555600000.0 -12561200000.0 -12549700000.0 -12602200000.0 -12563200000.0 -12549700000.0 -12549700000.0 -12552400000.0 -12556000000.0 -12567300000.0 -12559600000.0 -12556700000.0 -12550600000.0 -12596800000.0 -12614400000.0 -12629000000.0 -12620700000.0 -12663000000.0 -12555900000.0 -12561000000.0 -12556900000.0 -12698500000.0 -12550700000.0 -12585000000.0 -12581700000.0 -12566200000.0 -12567800000.0 -12603900000.0 -12612200000.0 -12549700000.0 -12562300000.0 -12551300000.0 -12580300000.0 -12702800000.0 -12605400000.0 -12597100000.0 -12595700000.0 -12637500000.0 -12578200000.0 -12631300000.0 -12576800000.0 -12746400000.0 -12692400000.0 -12693600000.0 -12698900000.0 -12636200000.0 -12554300000.0 -12690400000.0 -12597700000.0 -12621500000.0 -12594000000.0 -12596100000.0 -12586600000.0 -12554800000.0 -12576500000.0 -12549700000.0 -12550100000.0 -12556000000.0 -12549700000.0 -12568900000.0 -12549700000.0 -12585800000.0 -12550500000.0 -12554500000.0 -12549700000.0 -12556600000.0 -12560900000.0 -12566500000.0 -12579300000.0 -12611500000.0 -12631100000.0 -12564400000.0 -12616500000.0 -12604300000.0 -12588500000.0 -12608400000.0 -12550000000.0 -12551900000.0 -12590600000.0 -12549700000.0 -12567700000.0 -12608300000.0 -12556300000.0 -12566300000.0 -12552400000.0 -12551100000.0 -12622700000.0 -12563800000.0 -12592900000.0 -12558100000.0 -12558800000.0 -12597000000.0 -12723500000.0 -12607000000.0 -12594800000.0 -12583600000.0 -12624200000.0 -12630900000.0 -12756700000.0 -12701400000.0 -12707900000.0 -12705900000.0 -12598400000.0 -12624900000.0 -12644400000.0 -12648400000.0 -12623100000.0 -12642500000.0 -12612500000.0 -12619100000.0 -12576800000.0 -12654200000.0 -12846900000.0 -12971900000.0 -12593300000.0 -12577700000.0 -12571400000.0 -12895500000.0 -12755200000.0 -12634100000.0 -12636700000.0 -12743200000.0 -12653100000.0 -12631300000.0 -12594500000.0 -12711700000.0 -12553800000.0 -12575100000.0 -12560100000.0 -12608000000.0 -12566700000.0 -12652800000.0 -12658800000.0 -12637000000.0 -12644600000.0 -12643200000.0 -12549700000.0 -12549700000.0 -12792500000.0 -12562200000.0 -12624200000.0 -12777000000.0 -12676600000.0 -12724800000.0 -12569300000.0 -12616900000.0 -12549700000.0 -12563300000.0 -12601100000.0 -12577900000.0 -12580500000.0 -12589800000.0 -12570100000.0 -12577300000.0 -12569400000.0 -12608300000.0 -12614100000.0 -12569100000.0 -12562400000.0 -12558300000.0 -12549700000.0 -12556300000.0 -12557600000.0 -12550600000.0 -12552900000.0 -12555400000.0 -12580300000.0 -12551500000.0 -12566500000.0 -12607600000.0 -12601400000.0 -12580300000.0 -12694600000.0 -12637200000.0 -12701200000.0 -12681800000.0 -12687400000.0 -12734600000.0 -12661600000.0 -12633500000.0 -12614800000.0 -12700600000.0 -12570400000.0 -12554700000.0 -12576300000.0 -12635200000.0 -12553500000.0 -12615900000.0 -12579100000.0 -12670500000.0 -12886300000.0 -12609200000.0 -12585700000.0 -12618600000.0 -12580000000.0 -12741100000.0 -12549700000.0 -12549700000.0 -12641400000.0 -12549700000.0 -12735700000.0 -12733900000.0 -12683800000.0 -12630700000.0 -12831900000.0 -12812200000.0 -12665800000.0 -12791600000.0 -12888600000.0 -12605300000.0 -13055400000.0 -13020500000.0 -12595500000.0 -13071400000.0 -12559200000.0 -12554400000.0 -12717300000.0 -12728300000.0 -12729600000.0 -12628700000.0 -12692400000.0 -12781900000.0 -12650700000.0 -12615100000.0 -12586200000.0 -12753300000.0 -12620700000.0 -12707200000.0 -12783600000.0 -12802400000.0 -12902600000.0 -12646300000.0 -12622900000.0 -12558400000.0 -12557600000.0 -12955500000.0 -12577900000.0 -12705400000.0 -12924100000.0 -12615600000.0 -12614600000.0 -12592200000.0 -12711200000.0 -12638800000.0 -12657800000.0 -12561400000.0 -12649400000.0 -12618800000.0 -12570400000.0 -12600500000.0 -12563300000.0 -12567100000.0 -12551500000.0 -12594500000.0 -12550400000.0 -12581300000.0 -12599100000.0 -12624800000.0 -12583800000.0 -12568200000.0 -12572500000.0 -12563100000.0 -12551500000.0 -12577200000.0 -12562600000.0 -12657200000.0 -12593200000.0 -12624600000.0 -12588500000.0 -12564000000.0 -12716900000.0 -12674400000.0 -12763800000.0 -12568100000.0 -12645400000.0 -12579500000.0 -12574300000.0 -12734900000.0 -12684100000.0 -12570600000.0 -12617300000.0 -12867300000.0 -12612100000.0 -12581700000.0 -12671100000.0 -12569100000.0 -12667700000.0 -12694500000.0 -12585000000.0 -12687300000.0 -12593100000.0 -12693300000.0 -12574500000.0 -12549700000.0 -12553200000.0 -12564500000.0 -12692200000.0 -12978900000.0 -12570400000.0 -12556200000.0 -12670700000.0 -12758000000.0 -12741400000.0 -12882500000.0 -12818400000.0 -12738000000.0 -12778200000.0 -12585400000.0 -12739500000.0 -12979900000.0 -12728500000.0 -13033000000.0 -12869300000.0 -12559000000.0 -12550600000.0 -12788600000.0 -12760000000.0 -12558500000.0 -13027400000.0 -13063000000.0 -13105700000.0 -13009100000.0 -12828500000.0 -12863800000.0 -12798600000.0 -12569600000.0 -12613100000.0 -12883900000.0 -12561700000.0 -12740600000.0 -12685000000.0 -12614300000.0 -12879200000.0 -12829300000.0 -12571300000.0 -12967700000.0 -12648500000.0 -12777200000.0 -12781100000.0 -12756800000.0 -12718800000.0 -12564300000.0 -12641100000.0 -12681300000.0 -12565300000.0 -12561600000.0 -12649000000.0 -12765100000.0 -12766200000.0 -12753300000.0 -12749300000.0 -12737200000.0 -12712900000.0 -12815000000.0 -12765000000.0 -12757400000.0 -12790200000.0 -12821100000.0 -12710200000.0 -12715200000.0 -12664100000.0 -12696400000.0 -12549900000.0 -12564800000.0 -12590800000.0 -12552600000.0 -12830600000.0 -12607300000.0 -12663900000.0 -12551000000.0 -12580100000.0 -12551400000.0 -12710800000.0 -12680700000.0 -12704800000.0 -12810900000.0 -12844900000.0 -12860000000.0 -13047500000.0 -12844700000.0 -12778900000.0 -12978600000.0 -13093000000.0 -12791000000.0 -12964000000.0 -12799600000.0 -12826800000.0 -12711200000.0 -12790700000.0 -12860600000.0 -12922500000.0 -13391000000.0 -12920900000.0 -12953800000.0 -12563200000.0 -12691700000.0 -12597700000.0 -12691700000.0 -12799100000.0 -12648700000.0 -12842400000.0 -12858300000.0 -12866200000.0 -12899700000.0 -12678500000.0 -12976900000.0 -12615500000.0 -12783100000.0 -12737600000.0 -12607600000.0 -12903800000.0 -12875500000.0 -12790800000.0 -13356700000.0 -13119800000.0 -12656800000.0 -12660700000.0 -12918500000.0 -12729600000.0 -12698400000.0 -12721000000.0 -12549700000.0 -12676300000.0 -12621900000.0 -12554800000.0 -13003000000.0 -12789900000.0 -12707000000.0 -13203100000.0 -12558500000.0 -12869500000.0 -13289500000.0 -12979200000.0 -12787200000.0 -12738400000.0 -12785800000.0 -12623500000.0 -12588100000.0 -12653300000.0 -12581000000.0 -12576800000.0 -12796300000.0 -12620700000.0 -12550100000.0 -12553000000.0 -12637300000.0 -12628400000.0 -12678100000.0 -12599900000.0 -12571000000.0 -12617200000.0 -12550900000.0 -12556600000.0 -12676200000.0 -12686100000.0 -12720700000.0 -12710200000.0 -12815500000.0 -12778400000.0 -12653000000.0 -12680400000.0 -12915400000.0 -12581300000.0 -12618900000.0 -12564300000.0 -12591200000.0 -12618100000.0 -12645600000.0 -12665700000.0 -12564000000.0 -12607600000.0 -12612000000.0 -12758900000.0 -12754700000.0 -12574800000.0 -12624800000.0 -12573300000.0 -12837200000.0 -12709400000.0 -12568300000.0 -12814200000.0 -12740200000.0 -13098700000.0 -12726100000.0 -12625600000.0 -12883400000.0 -12712200000.0 -12584300000.0 -12739500000.0 -12684600000.0 -12549700000.0 -12555000000.0 -12619700000.0 -13207400000.0 -12699900000.0 -12685000000.0 -12848600000.0 -13122100000.0 -13172600000.0 -13318900000.0 -13148000000.0 -13073100000.0 -13049000000.0 -13448200000.0 -12757300000.0 -12703500000.0 -13306500000.0 -13616300000.0 -13076900000.0 -13003400000.0 -13437200000.0 -12690700000.0 -12698500000.0 -12778900000.0 -12800500000.0 -12745900000.0 -12733900000.0 -12807900000.0 -12597500000.0 -12753400000.0 -12549700000.0 -12598700000.0 -12984500000.0 -12569300000.0 -12568500000.0 -12758200000.0 -12555200000.0 -12775200000.0 -12549700000.0 -13631300000.0 -13559200000.0 -12777100000.0 -13523700000.0 -13114000000.0 -13087300000.0 -12992400000.0 -12938300000.0 -13026900000.0 -13099300000.0 -12860700000.0 -12889200000.0 -12857800000.0 -12799800000.0 -12783800000.0 -12735200000.0 -12663900000.0 -12587100000.0 -12720400000.0 -12586600000.0 -12635900000.0 -12657900000.0 -12649000000.0 -12670100000.0 -12550600000.0 -12604500000.0 -12563400000.0 -12629600000.0 -12742300000.0 -12696300000.0 -12756800000.0 -12837900000.0 -12609400000.0 -12583700000.0 -12612400000.0 -12665800000.0 -12558500000.0 -12641200000.0 -12580100000.0 -12689200000.0 -12594700000.0 -12662900000.0 -12629600000.0 -12695600000.0 -12611600000.0 -12694700000.0 -12609900000.0 -12669700000.0 -12714700000.0 -12751700000.0 -13182700000.0 -13094200000.0 -13406800000.0 -12754400000.0 -12771500000.0 -12707100000.0 -12589800000.0 -12728300000.0 -12586900000.0 -12549700000.0 -12639600000.0 -12610300000.0 -13427900000.0 -12657300000.0 -12713100000.0 -13175500000.0 -12716000000.0 -12555300000.0 -12724500000.0 -12813300000.0 -13238000000.0 -13032800000.0 -13270700000.0 -13338000000.0 -13465600000.0 -12890000000.0 -13547900000.0 -12793700000.0 -13111200000.0 -12991900000.0 -13818400000.0 -12555600000.0 -12567200000.0 -12772700000.0 -13057600000.0 -12702600000.0 -12953900000.0 -12789700000.0 -13068300000.0 -12550300000.0 -12579100000.0 -12551900000.0 -12708300000.0 -12759500000.0 -12549700000.0 -12549700000.0 -13569900000.0 -13354800000.0 -12781700000.0 -12593000000.0 -12585400000.0 -13078400000.0 -12618500000.0 -13052000000.0 -12549700000.0 -12755300000.0 -12755600000.0 -12562700000.0 -12572000000.0 -12611200000.0 -12586900000.0 -12586000000.0 -12650500000.0 -12659000000.0 -12718300000.0 -12556900000.0 -12684000000.0 -12656500000.0 -12570500000.0 -12610500000.0 -12612100000.0 -12718800000.0 -12580400000.0 -12694300000.0 -12696300000.0 -12758500000.0 -12866600000.0 -12725400000.0 -12788800000.0 -12593300000.0 -12721100000.0 -12743200000.0 -12613900000.0 -12977100000.0 -12950400000.0 -12892500000.0 -12837400000.0 -12612300000.0 -12905500000.0 -12971100000.0 -12569300000.0 -12996900000.0 -12881800000.0 -12986800000.0 -13258900000.0 -13074200000.0 -12868800000.0 -12879600000.0 -13215200000.0 -13179600000.0 -13133900000.0 -13072400000.0 -12566100000.0 -12671300000.0 -12976100000.0 -12895300000.0 -12913400000.0 -13046600000.0 -13013200000.0 -12560200000.0 -12619800000.0 -12784800000.0 -12549700000.0 -12815700000.0 -12724200000.0 -12553000000.0 -12886800000.0 -12804200000.0 -12890000000.0 -12646600000.0 -12965900000.0 -12831800000.0 -12549700000.0 -12875200000.0 -13071200000.0 -12730100000.0 -12957600000.0 -13063300000.0 -12685400000.0 -13029900000.0 -12772400000.0 -12861500000.0 -13943900000.0 -12549700000.0 -12993100000.0 -13055600000.0 -12734800000.0 -12552400000.0 -12573300000.0 -13054300000.0 -12715300000.0 -12740600000.0 -12849200000.0 -12555000000.0 -12988800000.0 -12635300000.0 -12828000000.0 -12592600000.0 -12823500000.0 -13152700000.0 -13331600000.0 -12556400000.0 -13204100000.0 -12933700000.0 -12678700000.0 -12579000000.0 -12639700000.0 -13058300000.0 -12717400000.0 -12770400000.0 -12554000000.0 -12551700000.0 -12727200000.0 -12648700000.0 -12572100000.0 -12557700000.0 -12549700000.0 -12659800000.0 -12688500000.0 -12706400000.0 -12656500000.0 -12555400000.0 -12649900000.0 -12597200000.0 -12678000000.0 -12664900000.0 -12550400000.0 -12710300000.0 -12567000000.0 -12584500000.0 -12549800000.0 -12735400000.0 -12775500000.0 -12856400000.0 -12549800000.0 -12768700000.0 -12566900000.0 -12890900000.0 -12549700000.0 -12549800000.0 -12689300000.0 -12552200000.0 -12774800000.0 -12909200000.0 -12549700000.0 -12550100000.0 -12567600000.0 -12759100000.0 -12765200000.0 -12860000000.0 -13167200000.0 -12549700000.0 -12549700000.0 -12877900000.0 -12569700000.0 -12596800000.0 -13168200000.0 -12891500000.0 -12850200000.0 -13270000000.0 -13103000000.0 -12671700000.0 -12583200000.0 -12701400000.0 -12588800000.0 -12784600000.0 -12570900000.0 -13053300000.0 -12638700000.0 -12841700000.0 -12666500000.0 -12682200000.0 -12856200000.0 -13096900000.0 -13035400000.0 -13629100000.0 -13358500000.0 -13341100000.0 -12643100000.0 -13448700000.0 -13399700000.0 -13452200000.0 -13566500000.0 -12831500000.0 -13629000000.0 -14019000000.0 -12961300000.0 -12830400000.0 -14200900000.0 -14446800000.0 -13334000000.0 -12818400000.0 -12824000000.0 -13042400000.0 -12727800000.0 -12708200000.0 -12671900000.0 -12976900000.0 -12742600000.0 -12550900000.0 -12811600000.0 -12885100000.0 -12611200000.0 -12610600000.0 -12683100000.0 -12701600000.0 -12592700000.0 -13302000000.0 -12992900000.0 -12555300000.0 -12566700000.0 -12672600000.0 -13014000000.0 -12549700000.0 -12676200000.0 -12689700000.0 -12580400000.0 -12598800000.0 -12592000000.0 -12554200000.0 -12678000000.0 -12610600000.0 -12608800000.0 -12673100000.0 -12589800000.0 -12807000000.0 -12633000000.0 -12583300000.0 -12673700000.0 -12631000000.0 -12593000000.0 -12642800000.0 -12551500000.0 -12589800000.0 -12554000000.0 -12563700000.0 -12550200000.0 -12836200000.0 -12552700000.0 -12694200000.0 -12669600000.0 -12761600000.0 -12823500000.0 -12755800000.0 -12552400000.0 -12556300000.0 -12691000000.0 -12685000000.0 -12883000000.0 -12573400000.0 -12580600000.0 -12645200000.0 -12719600000.0 -12780800000.0 -12670700000.0 -13293500000.0 -12677900000.0 -13099200000.0 -12861600000.0 -13093200000.0 -12617000000.0 -13913100000.0 -13489700000.0 -13547300000.0 -13407600000.0 -13038800000.0 -12821300000.0 -12866200000.0 -12847800000.0 -12843000000.0 -12815900000.0 -13377600000.0 -12662300000.0 -12793700000.0 -12864400000.0 -12986600000.0 -12618900000.0 -12875700000.0 -12751900000.0 -12784100000.0 -13295900000.0 -12592400000.0 -13249100000.0 -13041700000.0 -12971900000.0 -12636200000.0 -13131900000.0 -12639100000.0 -13522100000.0 -13442000000.0 -13265000000.0 -13608400000.0 -13171900000.0 -13148300000.0 -12549700000.0 -13346600000.0 -12605000000.0 -12933300000.0 -12567100000.0 -12555800000.0 -12951600000.0 -12607900000.0 -12738100000.0 -12610400000.0 -12970700000.0 -12578900000.0 -12735200000.0 -12611600000.0 -12700200000.0 -12758500000.0 -13168600000.0 -12956700000.0 -12926000000.0 -12647600000.0 -13112700000.0 -12801700000.0 -12790100000.0 -12867200000.0 -12567600000.0 -12789100000.0 -12772800000.0 -12692400000.0 -12620000000.0 -12642100000.0 -12730600000.0 -12560500000.0 -12880900000.0 -12686600000.0 -12779200000.0 -12721000000.0 -12735500000.0 -12731600000.0 -12597700000.0 -12596400000.0 -12549700000.0 -12606400000.0 -12595900000.0 -12561900000.0 -12873900000.0 -12564500000.0 -12620600000.0 -12619000000.0 -12793900000.0 -12818700000.0 -12680300000.0 -12746000000.0 -12627500000.0 -12560200000.0 -12862300000.0 -12549700000.0 -12551900000.0 -12628900000.0 -12647900000.0 -12842800000.0 -12727700000.0 -13186200000.0 -12549700000.0 -13154000000.0 -13209200000.0 -13518900000.0 -13147800000.0 -12639900000.0 -13179100000.0 -13060000000.0 -12941400000.0 -12978400000.0 -12613400000.0 -12716200000.0 -12693700000.0 -12634500000.0 -12953000000.0 -12549700000.0 -13172800000.0 -13215500000.0 -13287600000.0 -13227400000.0 -12549700000.0 -13883000000.0 -13256100000.0 -12899900000.0 -12956100000.0 -12585200000.0 -13534700000.0 -12704300000.0 -12787800000.0 -13065100000.0 -12716700000.0 -12565000000.0 -12712600000.0 -13415400000.0 -13740300000.0 -12757900000.0 -13701000000.0 -12549700000.0 -13177700000.0 -13485900000.0 -13659100000.0 -14203400000.0 -14322000000.0 -14108100000.0 -14000300000.0 -14202800000.0 -14131200000.0 -14237000000.0 -14148600000.0 -13564300000.0 -13073200000.0 -12769100000.0 -13521700000.0 -13457200000.0 -13573600000.0 -13123700000.0 -12553800000.0 -13028900000.0 -12781900000.0 -12752100000.0 -12664700000.0 -12640000000.0 -12629000000.0 -12651900000.0 -12574000000.0 -12573700000.0 -12584900000.0 -12795700000.0 -12784300000.0 -12714800000.0 -12692900000.0 -12702400000.0 -12823700000.0 -13040900000.0 -12586400000.0 -12699500000.0 -12673500000.0 -12549700000.0 -12615600000.0 -12736300000.0 -12572400000.0 -12854900000.0 -12853700000.0 -12850300000.0 -12935700000.0 -12761300000.0 -12762400000.0 -12811000000.0 -12894900000.0 -12716500000.0 -12594900000.0 -12660300000.0 -12654600000.0 -12678200000.0 -12774300000.0 -12912100000.0 -12845600000.0 -12837900000.0 -13184400000.0 -12721000000.0 -12825100000.0 -12549700000.0 -12549700000.0 -13869800000.0 -13918200000.0 -13441400000.0 -13065200000.0 -13238300000.0 -12644300000.0 -12690400000.0 -13055800000.0 -12988700000.0 -12952700000.0 -13170900000.0 -13404400000.0 -13614200000.0 -12682200000.0 -12557200000.0 -12656200000.0 -13120900000.0 -13630700000.0 -12732800000.0 -13123800000.0 -12552800000.0 -12550100000.0 -13042000000.0 -13241300000.0 -14084900000.0 -13214200000.0 -12700200000.0 -12910800000.0 -12643300000.0 -12762200000.0 -12766600000.0 -12602500000.0 -12661300000.0 -13861400000.0 -13070100000.0 -13411000000.0 -12652300000.0 -12603000000.0 -12905100000.0 -12567500000.0 -12699800000.0 -12745700000.0 -12631700000.0 -12837300000.0 -13124100000.0 -12939800000.0 -13022800000.0 -12916900000.0 -12649500000.0 -12553200000.0 -12553800000.0 -12569300000.0 -13941000000.0 -13405200000.0 -13294400000.0 -12695400000.0 -12668100000.0 -12684900000.0 -12685900000.0 -12583000000.0 -12627900000.0 -12565800000.0 -12556700000.0 -12661900000.0 -12586200000.0 -12587400000.0 -12621100000.0 -12651700000.0 -12895200000.0 -12819300000.0 -12642700000.0 -12755900000.0 -12852200000.0 -12801400000.0 -12784100000.0 -12825700000.0 -12640700000.0 -12665200000.0 -12566800000.0 -12633600000.0 -12868500000.0 -12705600000.0 -12784600000.0 -12613300000.0 -12561600000.0 -12888100000.0 -12589700000.0 -12554500000.0 -12558900000.0 -12614800000.0 -12566400000.0 -13006700000.0 -12590700000.0 -12750900000.0 -12754700000.0 -13235600000.0 -12633900000.0 -12646400000.0 -13211200000.0 -12627500000.0 -13303800000.0 -13490100000.0 -14061200000.0 -12564700000.0 -12569300000.0 -13791200000.0 -13425100000.0 -12670600000.0 -12871700000.0 -12854400000.0 -12566900000.0 -12587300000.0 -13217100000.0 -12589000000.0 -12634400000.0 -12712100000.0 -13515700000.0 -12712600000.0 -13390200000.0 -12971600000.0 -12625400000.0 -13557900000.0 -13006300000.0 -13303800000.0 -13053700000.0 -13123100000.0 -13044200000.0 -12939000000.0 -13298100000.0 -12805900000.0 -12558400000.0 -12824500000.0 -12668800000.0 -12588200000.0 -13019700000.0 -13217300000.0 -12868400000.0 -13462900000.0 -13173900000.0 -13107400000.0 -12826000000.0 -12791000000.0 -12575500000.0 -13185300000.0 -13136900000.0 -12806400000.0 -12664100000.0 -13033600000.0 -12642000000.0 -12563700000.0 -12554000000.0 -12567000000.0 -12549700000.0 -12554400000.0 -12697700000.0 -13451300000.0 -12564200000.0 -13126400000.0 -12740600000.0 -12702700000.0 -12637300000.0 -12815100000.0 -12722700000.0 -12612200000.0 -12603000000.0 -12673700000.0 -12559200000.0 -12572100000.0 -12593800000.0 -12551600000.0 -12588700000.0 -12622700000.0 -12549700000.0 -12810000000.0 -12576000000.0 -12563200000.0 -12553200000.0 -12605400000.0 -12608100000.0 -12551200000.0 -12713100000.0 -12710800000.0 -13138100000.0 -12563500000.0 -12553700000.0 -12852200000.0 -12650000000.0 -12646800000.0 -12583800000.0 -12614900000.0 -13061700000.0 -12622200000.0 -12678800000.0 -12555300000.0 -13056500000.0 -13683500000.0 -13488400000.0 -13480900000.0 -13653800000.0 -13601000000.0 -13952400000.0 -12591900000.0 -12554400000.0 -14100800000.0 -13275700000.0 -12585400000.0 -12565000000.0 -12764300000.0 -12619700000.0 -12631000000.0 -12747700000.0 -12682000000.0 -12662500000.0 -12826600000.0 -13706600000.0 -13101100000.0 -12973800000.0 -13756000000.0 -12922000000.0 -12831700000.0 -12802900000.0 -13124000000.0 -13363800000.0 -12623300000.0 -12595500000.0 -12949200000.0 -12552200000.0 -13142000000.0 -12560800000.0 -12897900000.0 -13284000000.0 -12722200000.0 -12744000000.0 -12897000000.0 -13123000000.0 -13487500000.0 -13191700000.0 -13422500000.0 -12874500000.0 -12728000000.0 -13313200000.0 -13380800000.0 -13477400000.0 -12970200000.0 -13029900000.0 -13040200000.0 -12936700000.0 -13028100000.0 -12624100000.0 -12568300000.0 -12581300000.0 -12586900000.0 -12670200000.0 -13194800000.0 -13120100000.0 -12670900000.0 -12628700000.0 -12775000000.0 -12710300000.0 -12648500000.0 -12683600000.0 -12722900000.0 -12688400000.0 -12697000000.0 -12708300000.0 -12708500000.0 -12581700000.0 -12637700000.0 -12625500000.0 -12850500000.0 -12563300000.0 -12550900000.0 -12615300000.0 -12554700000.0 -12596300000.0 -12549700000.0 -12671700000.0 -12637000000.0 -12641800000.0 -12916900000.0 -12812300000.0 -12796900000.0 -12682500000.0 -12689200000.0 -12794900000.0 -12877700000.0 -12619400000.0 -12649000000.0 -12710800000.0 -12641500000.0 -12559500000.0 -12573900000.0 -13199600000.0 -12762600000.0 -12839000000.0 -13062700000.0 -12556800000.0 -13008400000.0 -12639000000.0 -12733800000.0 -14307500000.0 -12721300000.0 -14206500000.0 -12552400000.0 -12550600000.0 -13505600000.0 -13965200000.0 -12569800000.0 -12609000000.0 -13044900000.0 -12762100000.0 -12599000000.0 -12573000000.0 -13910800000.0 -13731100000.0 -12549700000.0 -12586500000.0 -13011800000.0 -12553700000.0 -12739200000.0 -12864600000.0 -13352800000.0 -12605500000.0 -12761100000.0 -12596400000.0 -12769300000.0 -12850700000.0 -13172500000.0 -12758800000.0 -12659100000.0 -13214600000.0 -12929000000.0 -12858900000.0 -13181200000.0 -12976500000.0 -12902400000.0 -13262800000.0 -12997300000.0 -13251800000.0 -13170500000.0 -12990000000.0 -12554400000.0 -12653400000.0 -12917400000.0 -12549700000.0 -12758700000.0 -12711500000.0 -12867600000.0 -12617300000.0 -12904100000.0 -12608400000.0 -12566100000.0 -12582500000.0 -12587800000.0 -12554000000.0 -12559600000.0 -12623700000.0 -12807500000.0 -13053400000.0 -12550700000.0 -12549700000.0 -12760000000.0 -12631800000.0 -12592000000.0 -12628500000.0 -12567500000.0 -12610500000.0 -12573700000.0 -12579100000.0 -12592900000.0 -12558900000.0 -12549700000.0 -12648300000.0 -12724100000.0 -12718600000.0 -12736300000.0 -12774200000.0 -12801500000.0 -12673900000.0 -12597900000.0 -12592200000.0 -12589000000.0 -12613900000.0 -12636400000.0 -12668800000.0 -12901300000.0 -12771200000.0 -12722100000.0 -12620600000.0 -12746700000.0 -12549700000.0 -12621700000.0 -13383700000.0 -12589400000.0 -12941500000.0 -13069100000.0 -13109000000.0 -12869400000.0 -12956000000.0 -12898200000.0 -15587100000.0 -13198000000.0 -13556200000.0 -13233500000.0 -13195600000.0 -13940300000.0 -12870300000.0 -12660600000.0 -13240000000.0 -12802800000.0 -12979500000.0 -14026400000.0 -12928200000.0 -12833000000.0 -12884200000.0 -13044200000.0 -12873100000.0 -12762200000.0 -12758000000.0 -12742300000.0 -12704100000.0 -13114500000.0 -12973100000.0 -12549700000.0 -13006100000.0 -12551900000.0 -12873200000.0 -12753800000.0 -13145200000.0 -12929000000.0 -12804400000.0 -13117300000.0 -12801100000.0 -12567700000.0 -12551100000.0 -13229600000.0 -12915500000.0 -12558500000.0 -12980400000.0 -13268500000.0 -13211300000.0 -13304400000.0 -12549700000.0 -12626500000.0 -12790200000.0 -12922300000.0 -12587400000.0 -12853800000.0 -12592700000.0 -12566300000.0 -12581200000.0 -12573800000.0 -12583000000.0 -12600800000.0 -12863000000.0 -12557700000.0 -12955300000.0 -12804900000.0 -12886100000.0 -12664000000.0 -12602100000.0 -12589400000.0 -12619900000.0 -12583900000.0 -12631200000.0 -12597700000.0 -12661100000.0 -12637300000.0 -12635700000.0 -12738800000.0 -12664300000.0 -12566300000.0 -12550000000.0 -12555200000.0 -12579700000.0 -12576800000.0 -12784000000.0 -12755500000.0 -12711600000.0 -12765800000.0 -12759300000.0 -12549700000.0 -12796300000.0 -12864200000.0 -12708100000.0 -12626000000.0 -12618800000.0 -12957500000.0 -12971100000.0 -12816200000.0 -12549700000.0 -13456800000.0 -12978300000.0 -12561000000.0 -12731900000.0 -12682300000.0 -13020200000.0 -13107300000.0 -13253300000.0 -12967600000.0 -16193100000.0 -13230600000.0 -13523400000.0 -13170300000.0 -14866300000.0 -14099900000.0 -13957000000.0 -13489100000.0 -13491700000.0 -14123600000.0 -12556700000.0 -13208300000.0 -12601600000.0 -12607100000.0 -12549700000.0 -13220100000.0 -12745900000.0 -12901000000.0 -12727000000.0 -13167300000.0 -12801700000.0 -12928200000.0 -12995800000.0 -12696900000.0 -12572800000.0 -12549700000.0 -12551900000.0 -12556700000.0 -12713700000.0 -12909500000.0 -12801200000.0 -12687600000.0 -12992700000.0 -12753700000.0 -12969700000.0 -12659900000.0 -12804200000.0 -12632300000.0 -12561400000.0 -12675500000.0 -12709300000.0 -12560000000.0 -13210500000.0 -13303600000.0 -13262500000.0 -13353300000.0 -12991200000.0 -12571600000.0 -12549700000.0 -12575100000.0 -12555800000.0 -12554300000.0 -12560400000.0 -12714700000.0 -12656800000.0 -12762600000.0 -12563400000.0 -12761800000.0 -12662300000.0 -12673000000.0 -12561500000.0 -12561600000.0 -12584600000.0 -12583100000.0 -12558600000.0 -12629900000.0 -12566800000.0 -12557200000.0 -12660000000.0 -12578200000.0 -12578400000.0 -12597700000.0 -12554600000.0 -12551000000.0 -12551500000.0 -12549700000.0 -12551400000.0 -12659300000.0 -12666500000.0 -12552600000.0 -12561200000.0 -12938900000.0 -12789600000.0 -12723400000.0 -12965600000.0 -13038300000.0 -12744900000.0 -12656200000.0 -12885200000.0 -12691700000.0 -12694000000.0 -13146500000.0 -13332600000.0 -12804300000.0 -12551500000.0 -12684200000.0 -12698400000.0 -12551700000.0 -13149800000.0 -12735100000.0 -13528500000.0 -13798300000.0 -14932100000.0 -12564600000.0 -14248500000.0 -14533900000.0 -13862200000.0 -13107100000.0 -13603400000.0 -13148100000.0 -13192400000.0 -13558800000.0 -14058200000.0 -13114000000.0 -13260100000.0 -12736100000.0 -12665200000.0 -13183700000.0 -12608500000.0 -12591700000.0 -12650900000.0 -12629700000.0 -12690800000.0 -12734300000.0 -12738500000.0 -12549700000.0 -12603800000.0 -12709000000.0 -12611000000.0 -12613200000.0 -12848000000.0 -12940900000.0 -12615000000.0 -12859400000.0 -12549700000.0 -12862000000.0 -12781800000.0 -12672600000.0 -12750600000.0 -12740800000.0 -12666300000.0 -12605100000.0 -12736300000.0 -12741900000.0 -12806500000.0 -13080500000.0 -12816300000.0 -12830900000.0 -13569800000.0 -12966400000.0 -12870600000.0 -12565800000.0 -12549700000.0 -12575400000.0 -12556300000.0 -12554200000.0 -12591100000.0 -12576000000.0 -12554000000.0 -12599400000.0 -12729000000.0 -12549700000.0 -12616300000.0 -12638000000.0 -12576300000.0 -12554400000.0 -12566400000.0 -12550300000.0 -12582200000.0 -12633700000.0 -12557300000.0 -12554900000.0 -12565300000.0 -12564500000.0 -12550400000.0 -12554200000.0 -12564200000.0 -12549800000.0 -12571100000.0 -12551000000.0 -12550200000.0 -12553500000.0 -12553800000.0 -12597100000.0 -12593400000.0 -12742400000.0 -12738000000.0 -12973400000.0 -12644600000.0 -12601300000.0 -12629000000.0 -13348800000.0 -13181600000.0 -13156600000.0 -13094400000.0 -13207400000.0 -13357100000.0 -12550700000.0 -13240600000.0 -12873900000.0 -12946300000.0 -13083400000.0 -12817300000.0 -13908900000.0 -12579300000.0 -13234200000.0 -14359000000.0 -14098100000.0 -14010600000.0 -14149600000.0 -12634300000.0 -13492700000.0 -13348300000.0 -13680100000.0 -12855600000.0 -13036900000.0 -12549700000.0 -14254600000.0 -13325800000.0 -13509900000.0 -12576600000.0 -13365600000.0 -13144700000.0 -12583900000.0 -12601100000.0 -12572300000.0 -12659300000.0 -12685800000.0 -12708200000.0 -12741300000.0 -12721700000.0 -12549900000.0 -12682500000.0 -12552200000.0 -12592600000.0 -12590700000.0 -12731600000.0 -12568100000.0 -12685500000.0 -12678100000.0 -12609100000.0 -12707400000.0 -12652300000.0 -12824400000.0 -12649700000.0 -12602800000.0 -12637300000.0 -12674100000.0 -12666000000.0 -12664600000.0 -12709600000.0 -12652400000.0 -12551000000.0 -12550000000.0 -13148300000.0 -12707900000.0 -12577700000.0 -12621300000.0 -12626200000.0 -12620800000.0 -12620400000.0 -12603900000.0 -12606000000.0 -12605200000.0 -12560200000.0 -12683000000.0 -12699200000.0 -12679500000.0 -12616800000.0 -12622200000.0 -12622500000.0 -12608400000.0 -12590500000.0 -12602200000.0 -12550400000.0 -12549700000.0 -12554700000.0 -12550300000.0 -12563500000.0 -12555500000.0 -12554700000.0 -12565200000.0 -12554200000.0 -12550300000.0 -12572000000.0 -12562100000.0 -12702500000.0 -12551300000.0 -12555700000.0 -12689800000.0 -12996400000.0 -12885300000.0 -12979200000.0 -13240900000.0 -12716800000.0 -12579900000.0 -12767900000.0 -12718900000.0 -14035400000.0 -13190100000.0 -13585200000.0 -13570300000.0 -13677600000.0 -13034300000.0 -13669700000.0 -12593500000.0 -12899100000.0 -12850900000.0 -14653400000.0 -16203500000.0 -12708400000.0 -12678000000.0 -14283200000.0 -12839000000.0 -13917500000.0 -12619100000.0 -12861300000.0 -12549700000.0 -13804200000.0 -12880900000.0 -12668500000.0 -12834600000.0 -13239500000.0 -12772300000.0 -12783400000.0 -12741000000.0 -12735100000.0 -12635400000.0 -12739300000.0 -12613400000.0 -12698200000.0 -12551800000.0 -12578100000.0 -12634600000.0 -12565700000.0 -12573200000.0 -12766600000.0 -12604200000.0 -12614100000.0 -12549700000.0 -12677800000.0 -12779700000.0 -12549700000.0 -12633300000.0 -12556500000.0 -12552300000.0 -12550400000.0 -12598000000.0 -12570100000.0 -12771100000.0 -12787500000.0 -12830500000.0 -12599000000.0 -12727800000.0 -13019500000.0 -12697500000.0 -12657500000.0 -12577400000.0 -12549800000.0 -12549700000.0 -12566800000.0 -12561100000.0 -12556500000.0 -12564500000.0 -12561800000.0 -12557300000.0 -12563000000.0 -12597200000.0 -12588900000.0 -12561800000.0 -12567300000.0 -12569500000.0 -12575000000.0 -12590700000.0 -12602800000.0 -12574300000.0 -12572900000.0 -12579900000.0 -12585600000.0 -12600400000.0 -12589900000.0 -12596800000.0 -12598200000.0 -12581100000.0 -12610000000.0 -12634600000.0 -12667600000.0 -12859800000.0 -12777800000.0 -12781700000.0 -12926600000.0 -12592600000.0 -12713600000.0 -12562400000.0 -13247200000.0 -13033200000.0 -12772200000.0 -12592700000.0 -12665400000.0 -13602600000.0 -12877600000.0 -12633900000.0 -12669200000.0 -14048300000.0 -12549700000.0 -13378000000.0 -13033100000.0 -12551300000.0 -14828200000.0 -12675600000.0 -15179300000.0 -12588800000.0 -12557100000.0 -14169900000.0 -12584700000.0 -14024300000.0 -13173800000.0 -13265000000.0 -13749200000.0 -13328100000.0 -13283600000.0 -13387200000.0 -13304800000.0 -12836300000.0 -12756500000.0 -12767900000.0 -12774800000.0 -12929300000.0 -12931400000.0 -12755800000.0 -12700300000.0 -12738900000.0 -12701900000.0 -12652100000.0 -12634700000.0 -12624500000.0 -12759600000.0 -12610800000.0 -12604500000.0 -12655800000.0 -12676100000.0 -12897900000.0 -12613800000.0 -12600100000.0 -12766300000.0 -12709900000.0 -12669900000.0 -12673600000.0 -12667200000.0 -12584100000.0 -12625100000.0 -12551900000.0 -12598900000.0 -12869400000.0 -12609700000.0 -12642700000.0 -12566400000.0 -12553000000.0 -12561400000.0 -12549700000.0 -12549700000.0 -12550400000.0 -12558400000.0 -12554100000.0 -12550500000.0 -12549700000.0 -12560800000.0 -12567200000.0 -12550200000.0 -12549700000.0 -12549700000.0 -12550100000.0 -12549700000.0 -12564300000.0 -12592100000.0 -12589700000.0 -12586300000.0 -12584600000.0 -12577500000.0 -12583900000.0 -12573500000.0 -12592800000.0 -12618700000.0 -12660400000.0 -12701800000.0 -12832900000.0 -12595100000.0 -12650200000.0 -12625900000.0 -12875200000.0 -12727200000.0 -12693300000.0 -12790100000.0 -13078100000.0 -12553700000.0 -13157800000.0 -12900400000.0 -12961900000.0 -13158600000.0 -13313300000.0 -12567600000.0 -12699200000.0 -14199200000.0 -13566400000.0 -12838600000.0 -13119800000.0 -14871300000.0 -12691000000.0 -12866700000.0 -12554500000.0 -12585800000.0 -15137600000.0 -13865200000.0 -14085600000.0 -12750900000.0 -13298900000.0 -12992300000.0 -13030100000.0 -12759200000.0 -12565500000.0 -12549700000.0 -12768100000.0 -12798900000.0 -12880300000.0 -12894700000.0 -12920900000.0 -12754900000.0 -12989500000.0 -12810300000.0 -12571000000.0 -12615500000.0 -12561400000.0 -12580700000.0 -12549700000.0 -12553700000.0 -12549700000.0 -12673000000.0 -12582500000.0 -12594000000.0 -12593300000.0 -12608600000.0 -12775800000.0 -12601400000.0 -12601400000.0 -12608900000.0 -12577400000.0 -12602800000.0 -12659000000.0 -12550000000.0 -12561200000.0 -12608600000.0 -12552300000.0 -12738800000.0 -12695500000.0 -12642800000.0 -12629900000.0 -12554500000.0 -12552200000.0 -12556400000.0 -12549700000.0 -12549800000.0 -12550700000.0 -12555900000.0 -12552400000.0 -12549700000.0 -12549700000.0 -12549700000.0 -12558400000.0 -12549800000.0 -12549700000.0 -12549700000.0 -12551500000.0 -12550200000.0 -12563200000.0 -12554200000.0 -12554100000.0 -12550200000.0 -12555600000.0 -12563100000.0 -12561600000.0 -12579300000.0 -12590600000.0 -12589400000.0 -12582700000.0 -12642000000.0 -12677100000.0 -12594400000.0 -12689300000.0 -12726000000.0 -12776600000.0 -12804800000.0 -12838900000.0 -12836600000.0 -12927100000.0 -13115000000.0 -13328200000.0 -12552400000.0 -13226800000.0 -13541400000.0 -13826000000.0 -14092000000.0 -14284500000.0 -15219100000.0 -14204800000.0 -13896000000.0 -15169600000.0 -15881400000.0 -12572400000.0 -14119700000.0 -15354300000.0 -13896600000.0 -14407000000.0 -13377900000.0 -12809900000.0 -13109300000.0 -14167100000.0 -13430600000.0 -13123400000.0 -12750100000.0 -12601200000.0 -12620200000.0 -12596900000.0 -12710800000.0 -12563000000.0 -12587300000.0 -12575300000.0 -12600600000.0 -12709200000.0 -12750000000.0 -12610300000.0 -12683000000.0 -12598700000.0 -12593200000.0 -12580700000.0 -12640900000.0 -12550000000.0 -12557300000.0 -12551600000.0 -12555900000.0 -12679600000.0 -12557700000.0 -12553000000.0 -12600400000.0 -12549700000.0 -12560500000.0 -12562800000.0 -12694900000.0 -12667100000.0 -12721300000.0 -12750400000.0 -12576700000.0 -12599200000.0 -12554000000.0 -12550900000.0 -12549700000.0 -12551600000.0 -12549700000.0 -12549700000.0 -12549900000.0 -12551800000.0 -12550500000.0 -12549700000.0 -12549700000.0 -12549700000.0 -12552900000.0 -12549700000.0 -12549700000.0 -12549700000.0 -12549800000.0 -12550600000.0 -12558600000.0 -12555800000.0 -12556100000.0 -12555300000.0 -12551100000.0 -12552000000.0 -12553100000.0 -12562400000.0 -12553900000.0 -12558200000.0 -12560100000.0 -12577000000.0 -12567000000.0 -12559700000.0 -12588700000.0 -12571700000.0 -12593300000.0 -12626300000.0 -12640100000.0 -12643900000.0 -12637900000.0 -13572000000.0 -13086400000.0 -13279000000.0 -13610500000.0 -12575800000.0 -12876200000.0 -13698500000.0 -12841800000.0 -14648200000.0 -12969900000.0 -13297500000.0 -14661900000.0 -13220700000.0 -14008000000.0 -13507200000.0 -12671700000.0 -12982100000.0 -12872600000.0 -14244800000.0 -13284000000.0 -12586700000.0 -12734500000.0 -12653900000.0 -12725500000.0 -12710500000.0 -12708100000.0 -12564700000.0 -12553900000.0 -12552300000.0 -12554900000.0 -12565600000.0 -12567100000.0 -12561300000.0 -12554200000.0 -12625500000.0 -12605700000.0 -12549700000.0 -12624300000.0 -12564200000.0 -12560300000.0 -12572600000.0 -12560400000.0 -12572600000.0 -12570100000.0 -12576700000.0 -12588800000.0 -12598700000.0 -12589000000.0 -12554200000.0 -12565600000.0 -12571200000.0 -12559200000.0 -12555400000.0 -12572200000.0 -12557100000.0 -12661600000.0 -12633400000.0 -12628800000.0 -12589600000.0 -12557600000.0 -12579900000.0 -12813400000.0 -12790900000.0 -12736500000.0 -13593900000.0 -12924200000.0 -13046800000.0 -13705500000.0 -13391300000.0 -13731500000.0 -13079900000.0 -13327700000.0 -14036900000.0 -12551800000.0 -13252300000.0 -14346600000.0 -13190700000.0 -12981400000.0 -12987700000.0 -13860000000.0 -12566500000.0 -12575500000.0 -12549800000.0 -12555400000.0 -12553800000.0 -12770000000.0 -12774700000.0 -12645800000.0 -13364200000.0 -12736000000.0 -12595500000.0 -13687400000.0 -13299800000.0 -13349400000.0 -12549800000.0 -12817100000.0 -14760900000.0 -13248400000.0 -14098700000.0 -13695900000.0 -12864200000.0 -13029200000.0 -12906100000.0 -12926000000.0 -13773400000.0 -12660300000.0 -12815200000.0 -12925700000.0 -13100200000.0 -12939700000.0 -12815700000.0 -13679900000.0 -14534200000.0 -13408900000.0 -13631800000.0 -13129600000.0 -12684900000.0 -15797700000.0 -13784900000.0 -14273600000.0 -13202500000.0 -12861100000.0 -12549700000.0 -14066700000.0 -12593600000.0 -12623300000.0 -12809400000.0 -12729800000.0 -12960200000.0 -12922300000.0 -13450700000.0 -12555800000.0 -13325300000.0 -12670900000.0 -12638900000.0 -14247100000.0 -15425200000.0 -12549700000.0 -13143100000.0 -13674900000.0 -12549700000.0 -13015600000.0 -12935700000.0 -12944700000.0 -13715200000.0 -12593600000.0 -12601600000.0 -12549700000.0 -12549700000.0 -12991300000.0 -12963300000.0 -13742100000.0 -13525300000.0 -12748500000.0 -13299500000.0 -12645900000.0 -12663000000.0 -15235100000.0 -12970600000.0 -12899000000.0 -12689100000.0 -13662200000.0 -12748900000.0 -12824000000.0 -13300700000.0 -12661900000.0 -12596800000.0 -12598000000.0 -12549700000.0 -12549700000.0 -12549700000.0 -12615500000.0 -12859000000.0 -12864700000.0 -12907100000.0 -13111400000.0 -12779700000.0 -13450200000.0 -13069700000.0 -13068900000.0 -15278300000.0 -12692700000.0 -12844600000.0 -13392800000.0 -12765100000.0 -13654600000.0 -13326500000.0 -12952700000.0 -12715900000.0 -12586400000.0 -12549700000.0 -12549700000.0 -12549700000.0 -12549700000.0 -12549700000.0 -12549700000.0 -12549700000.0 -12549700000.0 -12549700000.0 -12549700000.0 -12549700000.0 -12549700000.0 -12549700000.0 -12549700000.0 -12549700000.0 -12549700000.0 -12549700000.0 -12549700000.0 -12549700000.0 -12549700000.0 -12549700000.0 -12549700000.0 -12549700000.0 -12549700000.0 -12549700000.0 -12549700000.0 -12549700000.0 -12597300000.0 -12570700000.0 -12815500000.0 -12709000000.0 -12702500000.0 -12953000000.0 -13110400000.0 -13201100000.0 -12815500000.0 -13230000000.0 -15435000000.0 -12871700000.0 -12777800000.0 -12606200000.0 -12637200000.0 -13628400000.0 -13645800000.0 -12838900000.0 -12789400000.0 -12630600000.0 -12557900000.0 -12549700000.0 -12549700000.0 -12549700000.0 -12549700000.0 -12549700000.0 -12549700000.0 -12549700000.0 -12549700000.0 -12549700000.0 -12549700000.0 -12549700000.0 -12549700000.0 -12549700000.0 -12549700000.0 -12549700000.0 -12549700000.0 -12549700000.0 -12549700000.0 -12549700000.0 -12549700000.0 -12549700000.0 -12549700000.0 -12549700000.0 -12549700000.0 -12549700000.0 -12549700000.0 -12549700000.0 -12549800000.0 -12549700000.0 -12664400000.0 -12756800000.0 -12561200000.0 -12683800000.0 -13068700000.0 -12969300000.0 -13762700000.0 -13568200000.0 -13300800000.0 -12975400000.0 -13218000000.0 -14322500000.0 -12795100000.0 -12936600000.0 -12587100000.0 -13398800000.0 -13009600000.0 -12571900000.0 -12556200000.0 -12552200000.0 -13001800000.0 -12611800000.0 -12570200000.0 -12549700000.0 -12549700000.0 -12549700000.0 -12549700000.0 -12549700000.0 -12549700000.0 -12549700000.0 -12549700000.0 -12549700000.0 -12549700000.0 -12549700000.0 -12549700000.0 -12549700000.0 -12549700000.0 -12549700000.0 -12549700000.0 -12549700000.0 -12549700000.0 -12549700000.0 -12549700000.0 -12549700000.0 -12549700000.0 -12549700000.0 -12549700000.0 -12549700000.0 -12549700000.0 -12549700000.0 -12549700000.0 -12549700000.0 -12549700000.0 -12549700000.0 -12549700000.0 -12549700000.0 -12549700000.0 -12549700000.0 -12549700000.0 -12549700000.0 -12554200000.0 -12572700000.0 -12584100000.0 -12602600000.0 -12624000000.0 -12844500000.0 -12688100000.0 -12732300000.0 -13121300000.0 -13182700000.0 -12923000000.0 -12673800000.0 -12826900000.0 -13014400000.0 -14465600000.0 -13063700000.0 -13411000000.0 -13183900000.0 -12624500000.0 -12628600000.0 -13027100000.0 -12562600000.0 -12604300000.0 -12639800000.0 -12576400000.0 -12558500000.0 -12550700000.0 -12550100000.0 -12549700000.0 -12549700000.0 -12549700000.0 -12549700000.0 -12549700000.0 -12549700000.0 -12549700000.0 -12549700000.0 -12549700000.0 -12549700000.0 -12549700000.0 -12549700000.0 -12549700000.0 -12549700000.0 -12549700000.0 -12549700000.0 -12549700000.0 -12549700000.0 -12549700000.0 -12549700000.0 -12549700000.0 -12549700000.0 -12549700000.0 -12549700000.0 -12549700000.0 -12549700000.0 -12549700000.0 -12549700000.0 -12549700000.0 -12549700000.0 -12549700000.0 -12549700000.0 -12549700000.0 -12549700000.0 -12549700000.0 -12549700000.0 -12549700000.0 -12549700000.0 -12549700000.0 -12549700000.0 -12549700000.0 -12549700000.0 -12549700000.0 -12549700000.0 -12549700000.0 -12549900000.0 -12558100000.0 -12688800000.0 -12684300000.0 -12832400000.0 -12906300000.0 -12877600000.0 -12838000000.0 -13104400000.0 -12948500000.0 -13108600000.0 -13667500000.0 -13478200000.0 -13916700000.0 -13770300000.0 -13140500000.0 -13396500000.0 -12600700000.0 -12891600000.0 -12928300000.0 -12928500000.0 -12695200000.0 -12551700000.0 -12605100000.0 -12554100000.0 -12556100000.0 -12551500000.0 -12549700000.0 -12549700000.0 -12549700000.0 -12549700000.0 -12549700000.0 -12549700000.0 -12549700000.0 -12549700000.0 -12549700000.0 -12549700000.0 -12549700000.0 -12549700000.0 -12549700000.0 -12549700000.0 -12549700000.0 -12549700000.0 -12549700000.0 -12549700000.0 -12549700000.0 -12549700000.0 -12549700000.0 -12549700000.0 -12549700000.0 -12549700000.0 -12549700000.0 -12549700000.0 -12549700000.0 -12549700000.0 -12549700000.0 -12549700000.0 -12549700000.0 -12549700000.0 -12549700000.0 -12549700000.0 -12549700000.0 -12549700000.0 -12549700000.0 -12549700000.0 -12549700000.0 -12550500000.0 -12549700000.0 -12559000000.0 -12630700000.0 -12594800000.0 -12652300000.0 -12596500000.0 -12987600000.0 -12552200000.0 -12879900000.0 -12798100000.0 -12788800000.0 -13264700000.0 -12883200000.0 -13766400000.0 -12549700000.0 -12563400000.0 -13381300000.0 -13988000000.0 -13386100000.0 -12823800000.0 -12682000000.0 -12565000000.0 -12550700000.0 -12550100000.0 -12549700000.0 -12549700000.0 -12549700000.0 -12549700000.0 -12549700000.0 -12549700000.0 -12549700000.0 -12549700000.0 -12549700000.0 -12549700000.0 -12549700000.0 -12549700000.0 -12549700000.0 -12549700000.0 -12549700000.0 -12549700000.0 -12549700000.0 -12549700000.0 -12549700000.0 -12549700000.0 -12549700000.0 -12549700000.0 -12549700000.0 -12549700000.0 -12549700000.0 -12549700000.0 -12549700000.0 -12549700000.0 -12549700000.0 -12549700000.0 -12549700000.0 -12549700000.0 -12549700000.0 -12549700000.0 -12549700000.0 -12549700000.0 -12549700000.0 -12549700000.0 -12549700000.0 -12549700000.0 -12549700000.0 -12549700000.0 -12549700000.0 -12549700000.0 -12549700000.0 -12549700000.0 -12549700000.0 -12549700000.0 -12549700000.0 -12549700000.0 -12549700000.0 -12550800000.0 -12549700000.0 -12564000000.0 -12573900000.0 -12608500000.0 -12689100000.0 -12621700000.0 -12562100000.0 -13243700000.0 -13114400000.0 -12918300000.0 -13217700000.0 -13281200000.0 -12806500000.0 -12766000000.0 -13546700000.0 -13356100000.0 -13177400000.0 -12580600000.0 -13417700000.0 -12852200000.0 -12940800000.0 -12646600000.0 -12556300000.0 -12565600000.0 -12562500000.0 -12549700000.0 -12549700000.0 -12549900000.0 -12549700000.0 -12549700000.0 -12549700000.0 -12549700000.0 -12549700000.0 -12549700000.0 -12549700000.0 -12549700000.0 -12549700000.0 -12549700000.0 -12549700000.0 -12549700000.0 -12549700000.0 -12549700000.0 -12549700000.0 -12549700000.0 -12549700000.0 -12549700000.0 -12549700000.0 -12549700000.0 -12549700000.0 -12549700000.0 -12549700000.0 -12549700000.0 -12549700000.0 -12549700000.0 -12549700000.0 -12549700000.0 -12549700000.0 -12549700000.0 -12549700000.0 -12549700000.0 -12549700000.0 -12549700000.0 -12549700000.0 -12549700000.0 -12549700000.0 -12549700000.0 -12549700000.0 -12549700000.0 -12786800000.0 -13037900000.0 -13042700000.0 -12550600000.0 -12577500000.0 -12679600000.0 -12616200000.0 -12800300000.0 -12734300000.0 -12562500000.0 -13026200000.0 -12639600000.0 -12622100000.0 -12613900000.0 -13021300000.0 -12976300000.0 -13269200000.0 -12549700000.0 -12900200000.0 -12659300000.0 -12598100000.0 -12582400000.0 -12552700000.0 -12549700000.0 -12549700000.0 -12549700000.0 -12549700000.0 -12549700000.0 -12549700000.0 -12549700000.0 -12549700000.0 -12549700000.0 -12549700000.0 -12549700000.0 -12549700000.0 -12549700000.0 -12549700000.0 -12549700000.0 -12549700000.0 -12549700000.0 -12549700000.0 -12549700000.0 -12549700000.0 -12549700000.0 -12549700000.0 -12549700000.0 -12549700000.0 -12549700000.0 -12549700000.0 -12549700000.0 -12549700000.0 -12549700000.0 -12549700000.0 -12549700000.0 -12549700000.0 -12549700000.0 -12549700000.0 -12549700000.0 -12549700000.0 -12549700000.0 -12549700000.0 -12549700000.0 -12549700000.0 -12549700000.0 -12549700000.0 -12572900000.0 -12562500000.0 -12881100000.0 -12591600000.0 -12618600000.0 -12673400000.0 -12561700000.0 -12701700000.0 -12902800000.0 -12681300000.0 -12629600000.0 -12636100000.0 -12621200000.0 -12549700000.0 -13480200000.0 -13437900000.0 -12549700000.0 -12570700000.0 -12826000000.0 -12585300000.0 -12549700000.0 -12549700000.0 -12549700000.0 -12549700000.0 -12549700000.0 -12549700000.0 -12549700000.0 -12549700000.0 -12549700000.0 -12549700000.0 -12549700000.0 -12549700000.0 -12549700000.0 -12549700000.0 -12549700000.0 -12549700000.0 -12549700000.0 -12549700000.0 -12549700000.0 -12549700000.0 -12549700000.0 -12549700000.0 -12549700000.0 -12549700000.0 -12549700000.0 -12549700000.0 -12549700000.0 -12549700000.0 -12549700000.0 -12549700000.0 -12549700000.0 -12549700000.0 -12549700000.0 -12549700000.0 -12549700000.0 -12549700000.0 -12549700000.0 -12549700000.0 -12549700000.0 -12549700000.0 -12549700000.0 -12549700000.0 -12742300000.0 -12585600000.0 -12795600000.0 -12595000000.0 -12603800000.0 -12591500000.0 -12593500000.0 -12626700000.0 -12550800000.0 -12758500000.0 -12730600000.0 -12879600000.0 -12610300000.0 -13239400000.0 -12631200000.0 -13351500000.0 -12814700000.0 -12855700000.0 -12584900000.0 -12549700000.0 -12549700000.0 -12549700000.0 -12549700000.0 -12549700000.0 -12549700000.0 -12549700000.0 -12549700000.0 -12549700000.0 -12549700000.0 -12549700000.0 -12549700000.0 -12549700000.0 -12549700000.0 -12549700000.0 -12549700000.0 -12549700000.0 -12549700000.0 -12549700000.0 -12549700000.0 -12549700000.0 -12549700000.0 -12549700000.0 -12549700000.0 -12549700000.0 -12549700000.0 -12549700000.0 -12549700000.0 -12549700000.0 -12549700000.0 -12549700000.0 -12549700000.0 -12549700000.0 -12549700000.0 -12549700000.0 -12549700000.0 -12549700000.0 -12549700000.0 -12549700000.0 -12549700000.0 -12549700000.0 -12549700000.0 -12549700000.0 -12549700000.0 -12549700000.0 -12554200000.0 -12638800000.0 -12710400000.0 -12613400000.0 -12598600000.0 -12626400000.0 -12646300000.0 -12697400000.0 -13027800000.0 -12790600000.0 -13077600000.0 -13496500000.0 -12676300000.0 -12907900000.0 -12876600000.0 -12684400000.0 -12769800000.0 -12600200000.0 -12571900000.0 -12549700000.0 -12549700000.0 -12549700000.0 -12549700000.0 -12549700000.0 -12549700000.0 -12549700000.0 -12549700000.0 -12549700000.0 -12549700000.0 -12549700000.0 -12549700000.0 -12549700000.0 -12549700000.0 -12549700000.0 -12549700000.0 -12549700000.0 -12549700000.0 -12549700000.0 -12549700000.0 -12549700000.0 -12549700000.0 -12549700000.0 -12549700000.0 -12549700000.0 -12549700000.0 -12549700000.0 -12549700000.0 -12549700000.0 -12549700000.0 -12549700000.0 -12549700000.0 -12550200000.0 -12637600000.0 -12562300000.0 -12689900000.0 -12551800000.0 -12599000000.0 -12820200000.0 -12720700000.0 -12628600000.0 -12917800000.0 -12592900000.0 -12970200000.0 -12551000000.0 -13025200000.0 -12864100000.0 -12613300000.0 -12687400000.0 -12703500000.0 -12551400000.0 -12556900000.0 -12560600000.0 -12549700000.0 -12549700000.0 -12549700000.0 -12549700000.0 -12549700000.0 -12549700000.0 -12549700000.0 -12549700000.0 -12549700000.0 -12549700000.0 -12549700000.0 -12549700000.0 -12549700000.0 -12549700000.0 -12549700000.0 -12549700000.0 -12549700000.0 -12549700000.0 -12549700000.0 -12549700000.0 -12549700000.0 -12549700000.0 -12549700000.0 -12559800000.0 -12636500000.0 -12558500000.0 -12682200000.0 -12561700000.0 -12599800000.0 -12639000000.0 -12692000000.0 -12675200000.0 -12552700000.0 -12798600000.0 -12568500000.0 -12643600000.0 -13059300000.0 -12619600000.0 -12771900000.0 -12680500000.0 -12618800000.0 -12653800000.0 -12626600000.0 -12549700000.0 -12549700000.0 -12549700000.0 -12549700000.0 -12549700000.0 -12549700000.0 -12549700000.0 -12549700000.0 -12549700000.0 -12549700000.0 -12549700000.0 -12549700000.0 -12549700000.0 -12549700000.0 -12549700000.0 -12549700000.0 -12549700000.0 -12549700000.0 -12549700000.0 -12549700000.0 -12549700000.0 -12549700000.0 -12549700000.0 -12549700000.0 -12549700000.0 -12549700000.0 -12549700000.0 -12699700000.0 -12719400000.0 -12588300000.0 -12736400000.0 -12755900000.0 -12792600000.0 -12916300000.0 -12812600000.0 -12877500000.0 -12951400000.0 -12976100000.0 -12963000000.0 -12549700000.0 -13128200000.0 -12574600000.0 -12722200000.0 -12730900000.0 -12553700000.0 -12550900000.0 -12610700000.0 -12571300000.0 -12593100000.0 -12549700000.0 -12549700000.0 -12549700000.0 -12549700000.0 -12549700000.0 -12549700000.0 -12549700000.0 -12549700000.0 -12549700000.0 -12549700000.0 -12549700000.0 -12549700000.0 -12549700000.0 -12549700000.0 -12549700000.0 -12562200000.0 -12635100000.0 -12577800000.0 -12599300000.0 -12579900000.0 -12604800000.0 -12693000000.0 -12696000000.0 -12847000000.0 -12743800000.0 -12562800000.0 -12557300000.0 -12973500000.0 -12681000000.0 -12549700000.0 -12549800000.0 -12591700000.0 -12606300000.0 -12563200000.0 -12549700000.0 -12549700000.0 -12549700000.0 -12549700000.0 -12549700000.0 -12549700000.0 -12549700000.0 -12549700000.0 -12549700000.0 -12549700000.0 -12549700000.0 -12549700000.0 -12549700000.0 -12549700000.0 -12549700000.0 -12549700000.0 -12549700000.0 -12549700000.0 -12555500000.0 -12601600000.0 -12605500000.0 -12602800000.0 -12595700000.0 -12551900000.0 -12590100000.0 -12557000000.0 -12599100000.0 -12665800000.0 -12581600000.0 -12613500000.0 -12586800000.0 -12627200000.0 -12574600000.0 -12631400000.0 -12570600000.0 -12858900000.0 -12549700000.0 -12686700000.0 -12685400000.0 -12549700000.0 -12567400000.0 -12558000000.0 -12549700000.0 -12549700000.0 -12549700000.0 -12549700000.0 -12549700000.0 -12549700000.0 -12549700000.0 -12549700000.0 -12549700000.0 -12549700000.0 -12549700000.0 -12549700000.0 -12549700000.0 -12550600000.0 -12552900000.0 -12566800000.0 -12581800000.0 -12552800000.0 -12549700000.0 -12562300000.0 -12603700000.0 -12558100000.0 -12549700000.0 -12610400000.0 -12551000000.0 -12586100000.0 -12633800000.0 -12612500000.0 -12682300000.0 -12549700000.0 -12709400000.0 -12549700000.0 -12557200000.0 -12549700000.0 -12549700000.0 -12549700000.0 -12549700000.0 -12549700000.0 -12549700000.0 -12549700000.0 -12549700000.0 -12549700000.0 -12551000000.0 -12550200000.0 -12562800000.0 -12549700000.0 -12553800000.0 -12551900000.0 -12551800000.0 -12582800000.0 -12557100000.0 -12552200000.0 -12614900000.0 -12582300000.0 -12568100000.0 -12588800000.0 -12549700000.0 -12569600000.0 -12555400000.0 -12551000000.0 -12652200000.0 -12617200000.0 -12568300000.0 -12549700000.0 -12549700000.0 -12549700000.0 -12549700000.0 -12549700000.0 -12549700000.0 -12552000000.0 -12558500000.0 -12554100000.0 -12555000000.0 -12550800000.0 -12568900000.0 -12549900000.0 -12606300000.0 -12578800000.0 -12549700000.0 -12554700000.0 -12552200000.0 -12549700000.0 -12557700000.0 -12551800000.0 -12553400000.0 -12552200000.0 -12550600000.0 -12560700000.0 -12551900000.0 -12549700000.0 -12549700000.0 -12549700000.0 -12549700000.0 -12549700000.0 -12549700000.0 -12549700000.0 -12549700000.0 -12549700000.0 -12549700000.0 -12549700000.0 -12549700000.0 -12549700000.0 -12549700000.0 -12550700000.0 -12551200000.0 -12554800000.0 -12557000000.0 -12569600000.0 -12568200000.0 -12579800000.0 -12550100000.0 -12552100000.0 -12551800000.0 -12550200000.0 -12550000000.0 -12549800000.0 -12549700000.0 -12549700000.0 -12549700000.0 -12549700000.0 -12549700000.0 -12549700000.0 -12549700000.0 -12549700000.0 -12549700000.0 -12549700000.0 -12549700000.0 -12549700000.0 -12549700000.0 -12549700000.0 -12549700000.0 -12549700000.0 -12549700000.0 -2.67451e+12 -4.1315e+12 -3.69037e+12 -4.87081e+12 -4.05977e+12 -4.12069e+12 -3.94416e+12 -3.79368e+12 -3.54316e+12 -3.20052e+12 -5.81005e+12 -3.00893e+12 -3.51692e+12 -5.10495e+12 -4.79051e+12 -6.33629e+12 -4.41517e+12 -3.21e+12 -3.93947e+12 -3.03202e+12 -4.3091e+12 -5.19939e+12 -5.4222e+12 -4.97249e+12 -4.94627e+12 -3.77184e+12 -4.0165e+12 -3.7097e+12 -4.50182e+12 -4.17014e+12 -5.59071e+12 -5.04542e+12 -4.3499e+12 -3.44246e+12 -2.25968e+12 -4.25688e+12 -4.15976e+12 -3.7513e+12 -6.3947e+12 -3.72405e+12 -4.72253e+12 -4.66434e+12 -3.69148e+12 -3.71483e+12 -3.06099e+12 -3.893e+12 -3.70595e+12 -2.74941e+12 -12568400000.0 -4.10042e+12 -4.34953e+12 -2.42193e+12 -3.3028e+12 -1.95251e+12 -3.40515e+12 -12549700000.0 -12549700000.0 -5.24026e+12 -4.08161e+12 -6.98373e+12 -4.39909e+12 -3.25055e+12 -4.78239e+12 -4.53359e+12 -4.27889e+12 -4.10208e+12 -5.91058e+12 -6.63248e+12 -5.35212e+12 -3.73339e+12 -5.32286e+12 -7.39274e+12 -4.5598e+12 -5.01967e+12 -5.72494e+12 -4.61054e+12 -4.43255e+12 -6.63226e+12 -5.96739e+12 -2.56323e+12 -4.07837e+12 -3.78049e+12 -3.69113e+12 -4.65552e+12 -4.01797e+12 -3.89739e+12 -5.21697e+12 -4.61267e+12 -3.89729e+12 -4.38318e+12 -4.55832e+12 -2.69344e+12 -5.217e+12 -4.11724e+12 -5.7105e+12 -6.48502e+12 -6.10133e+12 -5.85851e+12 -5.25796e+12 -5.03443e+12 -6.70142e+12 -4.27572e+12 -4.93212e+12 -6.36653e+12 -4.27931e+12 -4.9062e+12 -2.85016e+12 -2.60579e+12 -6.63479e+12 -5.45512e+12 -8.63018e+12 -6.16241e+12 -6.12422e+12 -7.74487e+12 -1.11536e+13 -5.49051e+12 -7.2777e+12 -4.08288e+12 -5.728e+12 -4.74737e+12 -7.21686e+12 -7.05758e+12 -1.88044e+12 -5.21007e+12 -6.90298e+12 -4.29025e+12 -4.77225e+12 -6.10754e+12 -2.52178e+12 -5.85203e+12 -5.48808e+12 -6.85012e+12 -7.17704e+12 -1.12062e+13 -5.363e+12 -6.23481e+12 -6.35548e+12 -5.46507e+12 -9.1026e+12 -7.70612e+12 -8.76822e+12 -5.63022e+12 -5.78897e+12 -8.92564e+12 -9.29661e+12 -8.05977e+12 -5.49171e+12 -5.24154e+12 -7.47721e+12 -6.32792e+12 -7.10149e+12 -7.70412e+12 -6.60127e+12 -6.9939e+12 -4.71566e+12 -8.26789e+12 -7.56377e+12 -1.0866e+13 -2.87315e+12 -4.11549e+12 -2.83177e+12 -5.1603e+12 -7.71235e+12 -6.09346e+12 -6.38073e+12 -7.86786e+12 -5.48606e+12 -6.95421e+12 -6.59615e+12 -3.08375e+12 -4.28563e+12 -4.18208e+12 -4.83677e+12 -4.60542e+12 -5.90193e+12 -4.89922e+12 -6.44944e+12 -9.02265e+12 -2.36298e+12 -1.06014e+13 -5.00294e+12 -3.91464e+12 -6.05062e+12 -3.82455e+12 -6.84742e+12 -7.18329e+12 -3.95215e+12 -5.00623e+12 -4.30452e+12 -5.21315e+12 -5.0028e+12 -4.32275e+12 -8.75676e+12 -8.05125e+12 -5.53412e+12 -1.02355e+13 -3.3676e+12 -4.9264e+12 -4.04628e+12 -2.31277e+12 -7.13834e+12 -5.2052e+12 -7.54011e+12 -4.25734e+12 -4.27257e+12 -6.28543e+12 -1.06051e+13 -6.52673e+12 -1.03437e+13 -7.27278e+12 -5.23444e+12 -8.99047e+12 -7.80468e+12 -5.333e+12 -6.55892e+12 -7.64797e+12 -7.35626e+12 -4.62338e+12 -6.73966e+12 -8.83863e+12 -1.03513e+13 -5.09943e+12 -7.61614e+12 -7.77608e+12 -4.59974e+12 -5.62119e+12 -4.91958e+12 -8.3172e+12 -6.46208e+12 -6.84219e+12 -8.38477e+12 -6.81962e+12 -6.27536e+12 -6.23893e+12 -7.10103e+12 -5.50026e+12 -1.50134e+12 -2.94164e+12 -5.6187e+12 -4.99652e+12 -4.29648e+12 -5.57228e+12 -6.44951e+12 -8.50248e+12 -1.01612e+13 -6.89616e+12 -5.62728e+12 -4.90618e+12 -6.35613e+12 -7.20419e+12 -3.81297e+12 -6.3889e+12 -8.25262e+12 -7.00376e+12 -4.82828e+12 -6.03858e+12 -7.73308e+12 -5.98951e+12 -6.11452e+12 -9.60812e+12 -5.67557e+12 -6.94256e+12 -7.52427e+12 -8.56374e+12 -7.83764e+12 -4.12542e+12 -5.49241e+12 -4.71925e+12 -6.54894e+12 -7.30376e+12 -6.98993e+12 -5.10547e+12 -7.83644e+12 -6.09265e+12 -5.43838e+12 -5.13147e+12 -7.4601e+12 -9.11723e+12 -4.73801e+12 -6.40444e+12 -1.75184e+12 -3.56928e+12 -4.64228e+12 -6.73508e+12 -6.89042e+12 -4.23944e+12 -5.95091e+12 -2.26408e+12 -5.61107e+12 -7.28575e+12 -5.67895e+12 -5.97348e+12 -4.97472e+12 -5.74546e+12 -6.9908e+12 -6.62606e+12 -6.7138e+12 -6.90874e+12 -5.01313e+12 -8.66963e+12 -7.64275e+12 -6.17025e+12 -5.75541e+12 -5.40893e+12 -8.41344e+12 -6.54247e+12 -4.90204e+12 -7.47535e+12 -6.4135e+12 -6.43406e+12 -8.49856e+12 -5.88044e+12 -9.89339e+12 -5.05875e+12 -5.94803e+12 -4.63929e+12 -9.48794e+12 -4.07488e+12 -5.42411e+12 -5.38422e+12 -6.17324e+12 -7.14814e+12 -3.89865e+12 -5.36466e+12 -7.84759e+12 -4.59458e+12 -6.41199e+12 -3.95865e+12 -3.64594e+12 -4.71991e+12 -4.91792e+12 -6.8749e+12 -2.45203e+12 -5.00211e+12 -4.7225e+12 -3.99244e+12 -3.0345e+12 -2.31114e+12 -4.39338e+12 -4.67689e+12 -6.07714e+12 -6.42216e+12 -1.09675e+13 -8.09562e+12 -9.42629e+12 -6.75454e+12 -6.12664e+12 -2.95761e+12 -6.67878e+12 -5.72585e+12 -2.64805e+12 -4.44203e+12 -3.8242e+12 -5.86691e+12 -4.25825e+12 -3.82213e+12 -7.49971e+12 -5.62326e+12 -5.44149e+12 -4.04547e+12 -5.75979e+12 -1.03403e+13 -6.61156e+12 -6.09301e+12 -3.85854e+12 -9.32769e+12 -9.62317e+12 -7.58888e+12 -3.74071e+12 -7.93985e+12 -4.59119e+12 -6.09599e+12 -4.86311e+12 -6.3914e+12 -5.11951e+12 -6.13968e+12 -6.50362e+12 -6.51259e+12 -6.09407e+12 -4.4723e+12 -7.2701e+12 -8.06919e+12 -4.9558e+12 -5.8048e+12 -8.31799e+12 -3.75583e+12 -3.89282e+12 -3.66398e+12 -5.66082e+12 -5.93584e+12 -4.02568e+12 -5.87884e+12 -3.93879e+12 -4.8234e+12 -4.82445e+12 -7.24678e+12 -8.90879e+12 -4.49849e+12 -4.14379e+12 -3.07852e+12 -2.15648e+12 -6.62604e+12 -4.43904e+12 -8.98661e+12 -7.38255e+12 -6.23391e+12 -6.93171e+12 -1.01896e+13 -5.1294e+12 -3.79401e+12 -4.63458e+12 -5.93223e+12 -4.83573e+12 -5.00439e+12 -6.32635e+12 -4.86907e+12 -6.17829e+12 -4.96891e+12 -5.01062e+12 -4.17742e+12 -5.22841e+12 -4.15639e+12 -4.68706e+12 -4.19489e+12 -7.34354e+12 -7.39006e+12 -8.23081e+12 -7.2236e+12 -4.0701e+12 -4.85213e+12 -4.30777e+12 -3.56235e+12 -2.30983e+12 -6.08546e+12 -4.43607e+12 -4.40498e+12 -5.17981e+12 -4.02958e+12 -8.05887e+12 -9.17412e+12 -6.77783e+12 -5.8726e+12 -4.19828e+12 -5.32239e+12 -5.37305e+12 -7.37005e+12 -3.27687e+12 -5.60273e+12 -3.86709e+12 -7.7608e+12 -4.60206e+12 -6.01858e+12 -6.02325e+12 -7.39998e+12 -6.07245e+12 -6.6464e+12 -5.60797e+12 -5.01917e+12 -3.99322e+12 -5.10824e+12 -4.43822e+12 -3.17218e+12 -4.51359e+12 -5.75467e+12 -5.17297e+12 -7.79768e+12 -8.0089e+12 -5.28137e+12 -4.38711e+12 -5.83897e+12 -4.31418e+12 -5.90611e+12 -5.70592e+12 -7.28811e+12 -4.20533e+12 -8.23438e+12 -4.30585e+12 -8.56886e+12 -3.41307e+12 -3.50554e+12 -3.00759e+12 -2.90572e+12 -2.28608e+12 -3.7672e+12 -3.78498e+12 -8.54449e+12 -2.90105e+12 -3.62419e+12 -3.00972e+12 -5.1178e+12 -5.42899e+12 -5.52946e+12 -4.67429e+12 -2.55347e+12 -4.99675e+12 -7.53756e+12 -6.78844e+12 -7.67408e+12 -6.32575e+12 -6.80076e+12 -3.57465e+12 -4.03086e+12 -5.72841e+12 -6.26384e+12 -6.00705e+12 -7.57653e+12 -4.38022e+12 -5.88945e+12 -5.50042e+12 -5.75467e+12 -3.28021e+12 -3.5755e+12 -4.27516e+12 -5.47906e+12 -5.34318e+12 -3.52981e+12 -4.39774e+12 -4.44328e+12 -7.32867e+12 -6.38919e+12 -3.34019e+12 -4.38532e+12 -3.08111e+12 -7.27424e+12 -4.29513e+12 -5.74338e+12 -3.79348e+12 -4.24243e+12 -4.9589e+12 -3.0029e+12 -4.44939e+12 -1.01248e+13 -4.40517e+12 -6.70087e+12 -8.0062e+12 -4.18382e+12 -4.5267e+12 -655147000000.0 -5.99362e+12 -4.15526e+12 -9.76085e+12 -4.22474e+12 -5.02649e+12 -5.34657e+12 -4.95508e+12 -4.20912e+12 -3.80948e+12 -4.62378e+12 -2.96838e+12 -4.90978e+12 -4.23237e+12 -7.03708e+12 -6.15326e+12 -4.71045e+12 -2.74961e+12 -6.78896e+12 -6.67084e+12 -4.1182e+12 -8.12568e+12 -6.06729e+12 -5.16982e+12 -7.52634e+12 -7.46809e+12 -4.16478e+12 -7.15486e+12 -2.78651e+12 -6.01215e+12 -6.77051e+12 -7.37597e+12 -3.3719e+12 -3.72413e+12 -6.67448e+12 -5.07726e+12 -5.77612e+12 -7.48103e+12 -6.10306e+12 -7.02578e+12 -8.18303e+12 -3.07252e+12 -4.8004e+12 -3.43921e+12 -4.5525e+12 -5.3183e+12 -3.60445e+12 -2.24142e+12 -2.16699e+12 -2.02577e+12 -4.95797e+12 -7.09929e+12 -4.36352e+12 -4.3863e+12 -3.64141e+12 -3.62508e+12 -3.7304e+12 -4.52884e+12 -3.76722e+12 -2.96466e+12 -7.06522e+12 -4.53184e+12 -3.99778e+12 -3.88116e+12 -5.19206e+12 -6.3771e+12 -5.4007e+12 -3.06544e+12 -3.9727e+12 -3.68808e+12 -4.42436e+12 -3.70385e+12 -5.29677e+12 -4.83373e+12 -5.26624e+12 -3.15143e+12 -3.43794e+12 -6.27349e+12 -5.00916e+12 -4.2342e+12 -5.13231e+12 -3.3568e+12 -1.97531e+12 -3.6471e+12 -5.65218e+12 -4.57739e+12 -5.90214e+12 -7.25863e+12 -2.5902e+12 -2.90783e+12 -4.44668e+12 -3.43973e+12 -4.39354e+12 -5.86112e+12 -2.20514e+12 -6.05444e+12 -4.50719e+12 -4.94828e+12 -6.16222e+12 -5.26341e+12 -4.43978e+12 -3.30193e+12 -5.22132e+12 -3.76963e+12 -2.79201e+12 -6.45273e+12 -7.38475e+12 -4.70981e+12 -6.36006e+12 -3.05835e+12 -6.97637e+12 -4.95974e+12 -1.98642e+12 -5.73e+12 -2.37148e+12 -6.32294e+12 -6.19734e+12 -4.393e+12 -5.78556e+12 -3.94167e+12 -4.68587e+12 -6.14891e+12 -5.47176e+12 -5.85595e+12 -6.03814e+12 -5.84649e+12 -5.72915e+12 -6.19919e+12 -5.21334e+12 -2.52801e+12 -6.36098e+12 -1.69871e+12 -5.33065e+12 -4.77913e+12 -3.60592e+12 -1.46581e+12 -4.84089e+12 -5.29277e+12 -4.27798e+12 -5.68321e+12 -3.70975e+12 -4.81936e+12 -8.56953e+12 -3.34158e+12 -5.46052e+12 -3.18099e+12 -3.20746e+12 -5.4792e+12 -4.15654e+12 -5.76703e+12 -3.87096e+12 -4.79618e+12 -3.95539e+12 -3.4639e+12 -5.87251e+12 -5.27784e+12 -1.85588e+12 -6.07189e+12 -3.20308e+12 -5.43699e+12 -3.72402e+12 -4.56677e+12 -4.10911e+12 -3.84284e+12 -2.84863e+12 -4.25902e+12 -5.42386e+12 -4.09966e+12 -2.86215e+12 -6.06713e+12 -1.78006e+12 -4.65916e+12 -5.4773e+12 -5.87844e+12 -6.78458e+12 -3.57279e+12 -4.59009e+12 -3.86013e+12 -2.60282e+12 -3.84944e+12 -3.86367e+12 -4.2509e+12 -6.76162e+12 -6.87824e+12 -4.00232e+12 -8.39851e+12 -2.76476e+12 -6.05985e+12 -2.82296e+12 -3.65393e+12 -3.42843e+12 -3.68469e+12 -2.50713e+12 -3.63053e+12 -6.03203e+12 -3.91622e+12 -4.87021e+12 -5.82367e+12 -5.79389e+12 -3.66901e+12 -6.49966e+12 -3.10167e+12 -2.30745e+12 -5.95716e+12 -4.60264e+12 -5.26734e+12 -4.3023e+12 -2.77821e+12 -1.98392e+12 -6.69689e+12 -2.7621e+12 -4.06701e+12 -3.99233e+12 -6.68182e+12 -4.02932e+12 -5.67161e+12 -2.97703e+12 -4.40691e+12 -4.44939e+12 -4.11091e+12 -4.92209e+12 -2.84041e+12 -5.62175e+12 -4.58828e+12 -4.16939e+12 -5.26595e+12 -2.84137e+12 -3.19286e+12 -2.68929e+12 -3.79833e+12 -4.03794e+12 -4.62234e+12 -2.4213e+12 -3.85082e+12 -3.04829e+12 -4.61294e+12 -5.34528e+12 -2.677e+12 -5.01277e+12 -4.34793e+12 -3.50645e+12 -2.75231e+12 -4.30531e+12 -3.07253e+12 -3.53647e+12 -3.75243e+12 -3.55003e+12 -5.6303e+12 -3.31466e+12 -2.92798e+12 -4.18854e+12 -3.49148e+12 -3.06845e+12 -2.8454e+12 -3.01655e+12 -2.22683e+12 -3.89515e+12 -2.48157e+12 -4.23408e+12 -3.7735e+12 -4.63735e+12 -2.75256e+12 -3.42654e+12 -6.60052e+12 -4.50646e+12 -2.62467e+12 -4.23495e+12 -2.16213e+12 -3.50274e+12 -3.89904e+12 -3.62635e+12 -2.78145e+12 -2.79977e+12 -2.18428e+12 -2.73648e+12 -3.18398e+12 -5.08642e+12 -5.1387e+12 -4.09924e+12 -2.21916e+12 -4.23092e+12 -3.26848e+12 -1.90946e+12 -4.33824e+12 -4.87812e+12 -3.52346e+12 -1.71677e+12 -4.0303e+12 -3.01408e+12 -4.33848e+12 -5.52822e+12 -2.97801e+12 -4.61855e+12 -2.26485e+12 -5.56738e+12 -2.71001e+12 -6.15263e+12 -6.97349e+12 -5.12883e+12 -5.91809e+12 -2.64753e+12 -2.1877e+12 -3.61138e+12 -2.85404e+12 -2.29399e+12 -2.73486e+12 -4.56183e+12 -2.67643e+12 -2.88928e+12 -3.23359e+12 -1.09481e+12 -3.17219e+12 -793378000000.0 -3.89446e+12 -1.46569e+12 -4.51102e+12 -2.88939e+12 -4.31277e+12 -3.00965e+12 -3.07011e+12 -3.96296e+12 -2.26087e+12 -2.22721e+12 -3.44001e+12 -4.62362e+12 -5.70675e+12 -1.66091e+12 -3.21071e+12 -4.29491e+12 -3.01118e+12 -4.08903e+12 -4.92904e+12 -3.98735e+12 -5.05074e+12 -2.74992e+12 -3.38318e+12 -6.99448e+12 -2.62051e+12 -2.18376e+12 -2.08911e+12 -2.00574e+12 -2.24115e+12 -2.85499e+12 -4.66399e+12 -1.99184e+12 -3.0607e+12 -2.68556e+12 -3.8337e+12 -2.04663e+12 -4.61856e+12 -2.54715e+12 -2.14875e+12 -1.62845e+12 -4.02829e+12 -2.77229e+12 -3.10493e+12 -2.47293e+12 -3.23446e+12 -4.3764e+12 -3.44298e+12 -1.85032e+12 -2.96346e+12 -3.72341e+12 -2.41059e+12 -2.74243e+12 -3.23273e+12 -3.62417e+12 -2.82378e+12 -2.74041e+12 -2.85174e+12 -1.93843e+12 -3.82875e+12 -5.14999e+12 -2.01152e+12 -2.79381e+12 -4.80416e+12 -3.47964e+12 -2.6121e+12 -3.36756e+12 -3.05011e+12 -1.46e+12 -2.86283e+12 -1.37474e+12 -2.87547e+12 -2.69526e+12 -3.81098e+12 -1.1024e+12 -3.19269e+12 -4.31647e+12 -2.90382e+12 -3.2832e+12 -2.90112e+12 -4.1636e+12 -2.7753e+12 -2.72474e+12 -2.85566e+12 -1.67559e+12 -1.7212e+12 -3.26916e+12 -5.83617e+12 -1.78996e+12 -3.63614e+12 -3.63496e+12 -2.10616e+12 -2.85698e+12 -3.28334e+12 -3.59643e+12 -5.28784e+12 -3.11606e+12 -1.61112e+12 -2.15098e+12 -2.97543e+12 -2.54984e+12 -2.51852e+12 -3.08206e+12 -2.53508e+12 -1.998e+12 -4.26199e+12 -3.23419e+12 -2.18592e+12 -5.09619e+12 -2.86181e+12 -3.62801e+12 -4.09903e+12 -4.91556e+12 -1.77568e+12 -2.79314e+12 -3.45762e+12 -1.33282e+12 -2.99274e+12 -2.97539e+12 -2.86852e+12 -3.91141e+12 -5.01837e+12 -3.05436e+12 -3.00515e+12 -1.86835e+12 -4.96068e+12 -3.42477e+12 -1.91127e+12 -2.54499e+12 -2.65391e+12 -3.42e+12 -4.51318e+12 -3.60442e+12 -3.12779e+12 -3.02032e+12 -2.07764e+12 -2.66119e+12 -2.29663e+12 -2.11084e+12 -2.34902e+12 -205133000000.0 -2.43632e+12 -2.48203e+12 -1.69241e+12 -3.56069e+12 -2.60014e+12 -2.23846e+12 -1.93465e+12 -2.13861e+12 -1.42901e+12 -1.62915e+12 -1.04382e+12 -2.9261e+12 -2.82811e+12 -2.16552e+12 -4.33922e+12 -3.16298e+12 -2.8345e+12 -3.52515e+12 -1.80943e+12 -1.42784e+12 -3.03597e+12 -4.78623e+12 -2.3932e+12 -4.13188e+12 -3.15854e+12 -1.57032e+12 -2.50435e+12 -3.93027e+12 -4.14167e+12 -4.39674e+12 -5.5779e+12 -2.01672e+12 -2.94367e+12 -1.73721e+12 -2.61221e+12 -1.62013e+12 -2.60367e+12 -2.76685e+12 -1.77134e+12 -1.70193e+12 -1.34476e+12 -1.94028e+12 -1.71824e+12 -3.71243e+12 -1.1593e+12 -2.20742e+12 -3.65173e+12 -2.14182e+12 -1.20531e+12 -1.9038e+12 -872071000000.0 -1.1743e+12 -4.03763e+12 -2.79184e+12 -2.97232e+12 -1.89911e+12 -2.02485e+12 -3.45825e+12 -2.07905e+12 -1.64936e+12 -3.15181e+12 -1.65085e+12 -1.55583e+12 -2.55152e+12 -3.07348e+12 -3.64301e+12 -2.33237e+12 -1.94589e+12 -2.01349e+12 -2.21957e+12 -1.72827e+12 -1.50412e+12 -3.1467e+12 -4.14667e+12 -5.01822e+12 -2.96728e+12 -4.36473e+12 -3.05716e+12 -3.36668e+12 -1.45747e+12 -3.992e+12 -1.16065e+12 -1.55562e+12 -2.40346e+12 -2.15105e+12 -1.98317e+12 -2.49647e+12 -2.09065e+12 -3.07623e+12 -1.96468e+12 -1.5481e+12 -2.8301e+12 -2.75301e+12 -2.52292e+12 -1.12137e+12 -2.66211e+12 -2.83107e+12 -1.04065e+12 -2.6464e+12 -1.13605e+12 -1.38644e+12 -1.95667e+12 -1.35158e+12 -856068000000.0 -1.82173e+12 -2.1578e+12 -1.48279e+12 -1.37857e+12 -1.27869e+12 -2.28652e+12 -1.66942e+12 -1.8339e+12 -1.36187e+12 -2.07717e+12 -2.13928e+12 -2.42254e+12 -2.02442e+12 -1.72384e+12 -1.79151e+12 -2.68114e+12 -1.09048e+12 -2.44325e+12 -2.5122e+12 -2.38208e+12 -3.37387e+12 -1.41037e+12 -2.19703e+12 -2.19412e+12 -1.53503e+12 -2.73781e+12 -1.44861e+12 -2.44971e+12 -1.00559e+12 -1.63497e+12 -2.04768e+12 -3.24477e+12 -2.844e+12 -2.46964e+12 -2.61766e+12 -1.50451e+12 -1.59911e+12 -2.88109e+12 -1.20791e+12 -2.80777e+12 -2.04017e+12 -1.34105e+12 -1.92282e+12 -2.28078e+12 -688071000000.0 -1.72826e+12 -2.48759e+12 -1.8738e+12 -2.56973e+12 -1.62439e+12 -3.16944e+12 -1.14363e+12 -1.72332e+12 -2.4282e+12 -929904000000.0 -1.80517e+12 -1.43108e+12 -3.71292e+12 -2.62263e+12 -1.96189e+12 -2.53133e+12 -925172000000.0 -2.67061e+12 -874405000000.0 -2.19613e+12 -2.86421e+12 -2.15555e+12 -1.45539e+12 -2.01726e+12 -1.43106e+12 -1.48642e+12 -1.22781e+12 -2.42311e+12 -2.22429e+12 -2.21335e+12 -2.41369e+12 -3.06731e+12 -2.84205e+12 -1.47609e+12 -1.55476e+12 -1.61816e+12 -1.75675e+12 -1.87295e+12 -2.93141e+12 -1.6847e+12 -1.91476e+12 -1.11783e+12 -2.12356e+12 -333064000000.0 -2.22644e+12 -466182000000.0 -1.30101e+12 -2.15443e+12 -2.11886e+12 -882801000000.0 -1.03457e+12 -1.55524e+12 -939702000000.0 -1.3327e+12 -1.45747e+12 -1.13478e+12 -961323000000.0 -2.25544e+12 -1.60306e+12 -1.83725e+12 -973208000000.0 -1.60864e+12 -1.28612e+12 -2.40791e+12 -900112000000.0 -1.50524e+12 -1.17216e+12 -1.31081e+12 -1.90958e+12 -557571000000.0 -1.13143e+12 -1.20546e+12 -1.16215e+12 -2.15587e+12 -1.12622e+12 -428022000000.0 -1.02005e+12 -1.29836e+12 -397551000000.0 -604802000000.0 -1.89492e+12 -1.12561e+12 -1.76091e+12 -1.89873e+12 -1.85446e+12 -453898000000.0 -938419000000.0 -2.34708e+12 -1.16921e+12 -951294000000.0 -933479000000.0 -576949000000.0 -724910000000.0 -1.55568e+12 -1.20648e+12 -2.26713e+12 -2.07848e+12 -2.43343e+12 -1.05262e+12 -497728000000.0 -1.50326e+12 -752952000000.0 -1.46681e+12 -1.69481e+12 -1.52726e+12 -1.04862e+12 -1.67799e+12 -2.10117e+12 -1.13773e+12 -1.10764e+12 -650238000000.0 -1.21619e+12 -1.00766e+12 -1.54969e+12 -564428000000.0 -1.10574e+12 -1.91402e+12 -951634000000.0 -1.45855e+12 -1.28345e+12 -1.36242e+12 -2.42572e+12 -2.30285e+12 -1.14757e+12 -1.81571e+12 -1.32123e+12 -1.66771e+12 -1.7497e+12 -2.9813e+12 -1.25014e+12 -2.21639e+12 -1.36108e+12 -1.80797e+12 -536434000000.0 -554208000000.0 -900138000000.0 -992167000000.0 -869494000000.0 -196318000000.0 -82482200000.0 -1.15725e+12 -350901000000.0 -798058000000.0 -520398000000.0 -700815000000.0 -1.19004e+12 -953624000000.0 -290109000000.0 -669787000000.0 -502965000000.0 -689606000000.0 -244945000000.0 -476900000000.0 -161139000000.0 -360536000000.0 -1.05782e+12 -72030500000.0 -585284000000.0 -225779000000.0 -1.08205e+12 -954513000000.0 -947104000000.0 -785099000000.0 -249080000000.0 -598015000000.0 -1.09387e+12 -165294000000.0 -188143000000.0 -840101000000.0 -151553000000.0 -639350000000.0 -1.23916e+12 -538148000000.0 -965422000000.0 -840757000000.0 -684637000000.0 -427626000000.0 -1.05927e+12 -557327000000.0 -203922000000.0 -308422000000.0 -322478000000.0 -185614000000.0 -474934000000.0 -1.61589e+12 -1.13356e+12 -289555000000.0 -537701000000.0 -247678000000.0 -685900000000.0 -498585000000.0 -643184000000.0 -156291000000.0 -851358000000.0 -946019000000.0 -752070000000.0 -320413000000.0 -603513000000.0 -463124000000.0 -786012000000.0 -167608000000.0 -461771000000.0 -87848600000.0 -809649000000.0 -183916000000.0 -391555000000.0 -389216000000.0 -365179000000.0 -233728000000.0 -161225000000.0 -259864000000.0 -692703000000.0 -450827000000.0 -1.28645e+12 -265328000000.0 -1.34447e+12 -873959000000.0 -217250000000.0 -461332000000.0 -275932000000.0 -1.13688e+12 -191165000000.0 -266988000000.0 -330513000000.0 -663605000000.0 -200854000000.0 -407199000000.0 -623674000000.0 -656070000000.0 -1.05535e+12 -589627000000.0 -647819000000.0 -438541000000.0 -254741000000.0 -260620000000.0 -196668000000.0 -261403000000.0 -363197000000.0 -259868000000.0 -445390000000.0 -425216000000.0 -223280000000.0 -417460000000.0 -309016000000.0 -101479000000.0 -212739000000.0 -240178000000.0 -291424000000.0 -116771000000.0 -199805000000.0 -146172000000.0 -179146000000.0 