# vtk DataFile Version 2.0
Time step 6
ASCII
DATASET UNSTRUCTURED_GRID
POINTS 5000 float
2395.66 231359.0 0
8287.55 230797.0 0
12439.4 230557.0 0
16782.2 230148.0 0
22243.6 231427.0 0
27721.1 228373.0 0
33093.2 231037.0 0
38057.6 231581.0 0
42578.2 231585.0 0
47500.0 231566.0 0
52137.1 231592.0 0
57024.9 230489.0 0
62763.5 231508.0 0
67994.7 231641.0 0
72685.1 230858.0 0
77500.0 231520.0 0
82500.0 231510.0 0
87421.4 230876.0 0
92500.0 231548.0 0
97243.3 231569.0 0
101343.0 231481.0 0
106011.0 231005.0 0
111902.0 231443.0 0
117816.0 231539.0 0
123295.0 231617.0 0
128310.0 231732.0 0
133393.0 230992.0 0
138090.0 231668.0 0
142500.0 231591.0 0
147500.0 231525.0 0
152501.0 231494.0 0
157572.0 231174.0 0
162524.0 231352.0 0
167032.0 230981.0 0
171839.0 229783.0 0
177753.0 229826.0 0
182960.0 229029.0 0
187432.0 230856.0 0
192500.0 231943.0 0
196143.0 231172.0 0
201771.0 230496.0 0
207665.0 231229.0 0
213016.0 230721.0 0
218143.0 231651.0 0
222494.0 231660.0 0
225859.0 231152.0 0
230417.0 230932.0 0
235812.0 231799.0 0
241174.0 230521.0 0
246492.0 232550.0 0
252644.0 230459.0 0
259004.0 231014.0 0
263741.0 232029.0 0
268732.0 231056.0 0
273930.0 231265.0 0
278866.0 229884.0 0
286336.0 231515.0 0
291724.0 232012.0 0
297321.0 229866.0 0
303627.0 230803.0 0
312128.0 231050.0 0
317929.0 231682.0 0
323246.0 231671.0 0
327586.0 231829.0 0
332212.0 231438.0 0
337229.0 231167.0 0
341036.0 232339.0 0
345946.0 230780.0 0
350803.0 232519.0 0
355420.0 231756.0 0
361946.0 230327.0 0
372031.0 228485.0 0
368028.0 231863.0 0
377039.0 230476.0 0
382629.0 231255.0 0
388136.0 230486.0 0
394018.0 229820.0 0
399127.0 231674.0 0
403584.0 228944.0 0
408530.0 230118.0 0
412500.0 231664.0 0
417500.0 231559.0 0
422634.0 230131.0 0
427283.0 231408.0 0
432537.0 229364.0 0
437537.0 231531.0 0
442216.0 230642.0 0
446361.0 230075.0 0
450752.0 230955.0 0
455294.0 231064.0 0
460284.0 231077.0 0
465840.0 231187.0 0
471671.0 230471.0 0
477094.0 229237.0 0
481389.0 232012.0 0
485863.0 228988.0 0
491667.0 230622.0 0
497601.0 229085.0 0
2262.14 236669.0 0
5940.05 234203.0 0
10994.8 235046.0 0
17191.2 236057.0 0
22903.0 237079.0 0
28438.0 234737.0 0
34888.0 236299.0 0
40258.3 236643.0 0
44386.7 236904.0 0
48173.7 235677.0 0
52500.0 236552.0 0
57939.9 235942.0 0
62804.7 236604.0 0
67505.4 236282.0 0
72212.7 235987.0 0
77500.0 236678.0 0
82116.1 236325.0 0
87872.2 235638.0 0
92500.0 236687.0 0
97210.1 236488.0 0
102467.0 236221.0 0
108274.0 235610.0 0
112500.0 236624.0 0
117500.0 236705.0 0
122500.0 236628.0 0
127705.0 236239.0 0
132476.0 236521.0 0
137520.0 236537.0 0
142763.0 236027.0 0
147039.0 236386.0 0
152049.0 236241.0 0
156986.0 235246.0 0
161412.0 236103.0 0
166627.0 235660.0 0
172882.0 235369.0 0
178284.0 235249.0 0
183442.0 234107.0 0
188512.0 235335.0 0
193491.0 236110.0 0
198182.0 235579.0 0
203919.0 236125.0 0
213695.0 235272.0 0
209352.0 236384.0 0
217672.0 236696.0 0
222107.0 236663.0 0
226895.0 235378.0 0
232240.0 236235.0 0
237754.0 237026.0 0
243353.0 236982.0 0
248358.0 236663.0 0
252579.0 237064.0 0
257167.0 235632.0 0
262343.0 236220.0 0
267245.0 235957.0 0
271699.0 235244.0 0
276904.0 235636.0 0
282036.0 233195.0 0
282784.0 236892.0 0
287500.0 236602.0 0
292742.0 236545.0 0
298188.0 235386.0 0
303029.0 236463.0 0
307762.0 233257.0 0
307486.0 236577.0 0
312501.0 236796.0 0
317499.0 236559.0 0
322497.0 236148.0 0
327500.0 236582.0 0
332500.0 236654.0 0
337667.0 236079.0 0
343259.0 235412.0 0
347674.0 235970.0 0
352639.0 236479.0 0
361575.0 235639.0 0
357898.0 236184.0 0
365259.0 235586.0 0
373051.0 235261.0 0
378905.0 234989.0 0
382073.0 236171.0 0
388254.0 235577.0 0
393435.0 235891.0 0
398019.0 236295.0 0
402910.0 235133.0 0
408288.0 234393.0 0
412773.0 235655.0 0
417444.0 236056.0 0
422206.0 234780.0 0
427934.0 236419.0 0
433227.0 234633.0 0
437500.0 236596.0 0
443125.0 234973.0 0
447483.0 234119.0 0
451868.0 235473.0 0
457082.0 235858.0 0
462431.0 236879.0 0
466672.0 235746.0 0
470228.0 236988.0 0
475203.0 235767.0 0
480837.0 237280.0 0
486635.0 235324.0 0
492123.0 237529.0 0
496848.0 234595.0 0
2238.62 242191.0 0
6798.95 239213.0 0
11878.8 241057.0 0
16333.2 241271.0 0
20499.6 241090.0 0
26933.6 241559.0 0
32564.3 241370.0 0
38108.9 241161.0 0
42820.5 241309.0 0
47479.1 240395.0 0
51728.0 242054.0 0
56471.8 241552.0 0
62027.3 241636.0 0
67594.2 241128.0 0
73575.3 241583.0 0
78244.7 241872.0 0
81989.1 241052.0 0
86993.3 241162.0 0
92531.5 241438.0 0
97545.3 241007.0 0
102630.0 241983.0 0
107938.0 240382.0 0
112500.0 241544.0 0
116775.0 241377.0 0
120875.0 241173.0 0
125894.0 240627.0 0
131192.0 242305.0 0
136477.0 242170.0 0
141049.0 240176.0 0
146366.0 241269.0 0
151884.0 242897.0 0
156304.0 239796.0 0
161742.0 241795.0 0
170075.0 240250.0 0
176367.0 241059.0 0
182246.0 239280.0 0
188111.0 241505.0 0
194312.0 241116.0 0
200024.0 240638.0 0
208088.0 241207.0 0
204283.0 241697.0 0
213293.0 240077.0 0
217709.0 241656.0 0
222549.0 240945.0 0
227003.0 240371.0 0
232500.0 241698.0 0
237520.0 241475.0 0
241877.0 242082.0 0
246984.0 240816.0 0
251953.0 241995.0 0
257630.0 240384.0 0
262624.0 241004.0 0
267395.0 240424.0 0
272949.0 240531.0 0
279872.0 239579.0 0
283572.0 241826.0 0
287233.0 241907.0 0
291081.0 240944.0 0
296787.0 240461.0 0
302261.0 241707.0 0
307707.0 241008.0 0
313215.0 242080.0 0
318226.0 241287.0 0
322502.0 240151.0 0
326866.0 241868.0 0
336539.0 240759.0 0
331910.0 241826.0 0
341424.0 239640.0 0
346832.0 240368.0 0
351921.0 241320.0 0
356099.0 240024.0 0
361317.0 240337.0 0
366597.0 239681.0 0
371225.0 241403.0 0
377772.0 240914.0 0
384412.0 239514.0 0
392455.0 240746.0 0
388439.0 242644.0 0
397243.0 240669.0 0
402854.0 241353.0 0
409202.0 240022.0 0
414339.0 242574.0 0
418960.0 240778.0 0
424044.0 239638.0 0
427696.0 242502.0 0
432198.0 240275.0 0
437244.0 241238.0 0
442203.0 240192.0 0
448091.0 239194.0 0
453922.0 240948.0 0
458786.0 241731.0 0
462900.0 241453.0 0
467500.0 241707.0 0
472415.0 240289.0 0
477818.0 241184.0 0
482709.0 241941.0 0
487577.0 243043.0 0
491564.0 241585.0 0
496625.0 241199.0 0
2182.12 246606.0 0
8066.45 245047.0 0
13347.9 245645.0 0
17654.3 245124.0 0
22324.5 245490.0 0
26891.9 247410.0 0
31978.0 245652.0 0
37477.6 246354.0 0
43166.9 246364.0 0
49071.0 245144.0 0
53807.2 246674.0 0
59139.7 246227.0 0
63539.1 245962.0 0
68018.4 246792.0 0
72568.4 246472.0 0
77081.9 245832.0 0
82149.1 246071.0 0
87341.5 246333.0 0
92284.5 246748.0 0
97762.3 246353.0 0
102771.0 247693.0 0
107714.0 245872.0 0
113073.0 245893.0 0
118103.0 245876.0 0
123378.0 245189.0 0
127500.0 246703.0 0
132634.0 247158.0 0
137711.0 246103.0 0
142515.0 246330.0 0
147935.0 245920.0 0
156833.0 245335.0 0
153344.0 247588.0 0
160445.0 246600.0 0
166556.0 243628.0 0
164460.0 247322.0 0
170823.0 246286.0 0
177023.0 247624.0 0
182218.0 244757.0 0
186631.0 247119.0 0
191646.0 246661.0 0
197193.0 245891.0 0
203009.0 245827.0 0
208743.0 247480.0 0
214401.0 245729.0 0
218813.0 246738.0 0
222283.0 245223.0 0
227751.0 245891.0 0
234086.0 246194.0 0
237590.0 244828.0 0
242064.0 246669.0 0
246566.0 246014.0 0
251600.0 247206.0 0
255989.0 245181.0 0
260450.0 244858.0 0
266424.0 245135.0 0
271811.0 246842.0 0
278352.0 245080.0 0
284319.0 246672.0 0
288707.0 245151.0 0
292933.0 246844.0 0
298885.0 246796.0 0
303924.0 246921.0 0
307500.0 246746.0 0
312232.0 246556.0 0
321121.0 245519.0 0
316304.0 246062.0 0
325928.0 246991.0 0
329985.0 245668.0 0
334467.0 247607.0 0
339851.0 245046.0 0
346120.0 246622.0 0
352868.0 246894.0 0
357452.0 243970.0 0
361793.0 246317.0 0
366779.0 244367.0 0
371903.0 247032.0 0
377850.0 248269.0 0
382824.0 245005.0 0
387332.0 246788.0 0
392989.0 247074.0 0
399456.0 246439.0 0
408034.0 245334.0 0
404252.0 246292.0 0
412295.0 247028.0 0
416863.0 246371.0 0
421329.0 247232.0 0
425748.0 246167.0 0
431129.0 246475.0 0
437363.0 245430.0 0
442080.0 245792.0 0
446772.0 244312.0 0
451032.0 245177.0 0
455742.0 246556.0 0
461521.0 246315.0 0
467279.0 246299.0 0
472834.0 245210.0 0
479062.0 246652.0 0
484904.0 247147.0 0
489148.0 247798.0 0
492150.0 245422.0 0
496770.0 247837.0 0
1533.37 251394.0 0
7112.91 251316.0 0
11892.3 249427.0 0
17112.0 250278.0 0
23014.7 250848.0 0
30100.9 250178.0 0
34748.6 250988.0 0
39637.9 250395.0 0
43425.4 252453.0 0
48179.6 250303.0 0
52890.7 252416.0 0
57104.1 250602.0 0
62998.0 250736.0 0
68283.3 251966.0 0
73170.2 250557.0 0
78080.3 251027.0 0
83369.7 251062.0 0
88172.3 251190.0 0
92500.0 251611.0 0
97355.3 251767.0 0
101312.0 251657.0 0
105713.0 251415.0 0
111380.0 250520.0 0
116706.0 251159.0 0
122151.0 250396.0 0
126931.0 251180.0 0
131252.0 251564.0 0
136592.0 250664.0 0
142208.0 252021.0 0
147000.0 250208.0 0
151775.0 252165.0 0
157904.0 251116.0 0
167075.0 250191.0 0
163688.0 251799.0 0
170982.0 252282.0 0
182853.0 251539.0 0
193608.0 250783.0 0
189112.0 251524.0 0
198195.0 251737.0 0
203132.0 250924.0 0
207370.0 252853.0 0
212148.0 251699.0 0
216414.0 250321.0 0
221268.0 250374.0 0
226339.0 252305.0 0
232062.0 250844.0 0
237964.0 249549.0 0
242929.0 251196.0 0
248129.0 251162.0 0
252960.0 251384.0 0
257780.0 250378.0 0
262690.0 248463.0 0
267637.0 251000.0 0
272707.0 252724.0 0
278456.0 251748.0 0
283552.0 251252.0 0
288809.0 250469.0 0
293463.0 251434.0 0
297475.0 252827.0 0
302639.0 251228.0 0
307227.0 251584.0 0
312052.0 251285.0 0
317136.0 250473.0 0
322474.0 251079.0 0
331139.0 251211.0 0
327336.0 251869.0 0
341423.0 250493.0 0
337088.0 251592.0 0
346936.0 252469.0 0
351856.0 252595.0 0
357897.0 250406.0 0
362950.0 251314.0 0
367165.0 249277.0 0
370360.0 252575.0 0
374705.0 252602.0 0
383224.0 250918.0 0
388172.0 250936.0 0
392252.0 253535.0 0
398022.0 252407.0 0
403097.0 250300.0 0
408179.0 250225.0 0
414566.0 250600.0 0
417868.0 251691.0 0
422651.0 252034.0 0
427448.0 250488.0 0
431119.0 251903.0 0
436003.0 250314.0 0
441837.0 251430.0 0
448129.0 249941.0 0
453889.0 251554.0 0
459251.0 251809.0 0
464743.0 251140.0 0
469288.0 252334.0 0
473442.0 250524.0 0
477664.0 252889.0 0
482156.0 251603.0 0
486902.0 251494.0 0
492255.0 252070.0 0
497502.0 253578.0 0
2721.3 255456.0 0
7838.1 257662.0 0
12562.5 253944.0 0
18023.8 256021.0 0
23657.4 256582.0 0
28565.9 254236.0 0
33436.5 256524.0 0
38915.1 255204.0 0
43443.1 256645.0 0
48363.4 256266.0 0
53902.3 257121.0 0
59530.3 255649.0 0
64691.4 256685.0 0
68141.8 256525.0 0
72054.9 254448.0 0
76272.7 255985.0 0
82097.6 256595.0 0
88037.0 256275.0 0
92776.9 256737.0 0
101621.0 256344.0 0
97037.0 256330.0 0
106556.0 256737.0 0
111136.0 255366.0 0
115466.0 255871.0 0
120952.0 256410.0 0
127515.0 256433.0 0
133354.0 256000.0 0
138766.0 256491.0 0
143776.0 256611.0 0
148418.0 256289.0 0
152817.0 256692.0 0
157011.0 256814.0 0
161399.0 255592.0 0
166797.0 255567.0 0
172289.0 258029.0 0
176719.0 253897.0 0
176957.0 258219.0 0
181239.0 258266.0 0
186736.0 256487.0 0
192282.0 256052.0 0
197742.0 257439.0 0
202535.0 255391.0 0
206558.0 257433.0 0
210663.0 256380.0 0
216374.0 256121.0 0
222675.0 256158.0 0
228307.0 257848.0 0
236236.0 254570.0 0
241111.0 256981.0 0
246540.0 257513.0 0
251051.0 255569.0 0
256864.0 256580.0 0
262899.0 254025.0 0
268313.0 256370.0 0
272881.0 257607.0 0
277823.0 257695.0 0
282099.0 255182.0 0
287108.0 256556.0 0
293007.0 255816.0 0
297873.0 258040.0 0
301880.0 255131.0 0
306282.0 256755.0 0
311519.0 256975.0 0
317015.0 255590.0 0
322482.0 256991.0 0
328114.0 256492.0 0
333996.0 255537.0 0
337873.0 258650.0 0
342512.0 256398.0 0
348261.0 257189.0 0
355792.0 254782.0 0
352564.0 256955.0 0
360662.0 256111.0 0
366633.0 256157.0 0
372617.0 257489.0 0
378705.0 255919.0 0
383588.0 255037.0 0
387404.0 255418.0 0
391004.0 258219.0 0
396064.0 258182.0 0
400376.0 256605.0 0
405248.0 255556.0 0
411982.0 254798.0 0
417825.0 256502.0 0
422954.0 257486.0 0
427178.0 254736.0 0
432128.0 256467.0 0
437053.0 255577.0 0
441867.0 256985.0 0
447146.0 256133.0 0
452723.0 256774.0 0
458231.0 257236.0 0
462539.0 256735.0 0
466509.0 255751.0 0
471753.0 256714.0 0
477012.0 257603.0 0
482380.0 256948.0 0
487826.0 256337.0 0
492598.0 257619.0 0
497499.0 258649.0 0
2993.59 261231.0 0
8631.14 263610.0 0
13518.0 259756.0 0
18279.5 263449.0 0
23748.6 262273.0 0
28621.9 259576.0 0
33525.5 262175.0 0
38308.8 260373.0 0
42985.2 260876.0 0
49578.3 261100.0 0
53622.2 261996.0 0
58523.1 261535.0 0
63362.1 260675.0 0
66955.6 261082.0 0
71710.8 259785.0 0
78003.3 261213.0 0
83442.7 262447.0 0
88105.2 261299.0 0
93007.0 261367.0 0
97924.2 260831.0 0
102150.0 262016.0 0
105959.0 261160.0 0
110921.0 260664.0 0
116784.0 260624.0 0
126569.0 261330.0 0
122735.0 261983.0 0
131499.0 260791.0 0
135493.0 262619.0 0
139969.0 261998.0 0
145281.0 261153.0 0
150986.0 261279.0 0
156984.0 262162.0 0
162115.0 260227.0 0
167237.0 260658.0 0
171522.0 263316.0 0
176247.0 261972.0 0
185829.0 261797.0 0
191605.0 261945.0 0
197364.0 262977.0 0
202638.0 260773.0 0
207612.0 261429.0 0
212162.0 260760.0 0
217234.0 262535.0 0
223350.0 262160.0 0
233970.0 258976.0 0
233373.0 263430.0 0
238413.0 262623.0 0
243817.0 262186.0 0
248729.0 261797.0 0
252166.0 259936.0 0
255506.0 262636.0 0
262546.0 261235.0 0
268711.0 261338.0 0
273430.0 262136.0 0
278348.0 263079.0 0
282745.0 260474.0 0
287873.0 262559.0 0
293086.0 261145.0 0
297640.0 263252.0 0
302567.0 260984.0 0
308348.0 261831.0 0
313173.0 261576.0 0
317495.0 261142.0 0
326154.0 261087.0 0
322214.0 262543.0 0
330378.0 261517.0 0
335437.0 262025.0 0
340696.0 262405.0 0
346238.0 263395.0 0
351307.0 261385.0 0
356228.0 259474.0 0
361036.0 261964.0 0
366641.0 261886.0 0
371319.0 262443.0 0
377401.0 263026.0 0
383674.0 259478.0 0
387822.0 262792.0 0
392721.0 262661.0 0
403691.0 261553.0 0
409295.0 260283.0 0
414192.0 261006.0 0
417471.0 260875.0 0
420651.0 261106.0 0
427773.0 261153.0 0
433434.0 260756.0 0
438003.0 260477.0 0
442798.0 261810.0 0
448441.0 262022.0 0
453878.0 261668.0 0
458374.0 262225.0 0
462762.0 261674.0 0
467588.0 260765.0 0
472797.0 262192.0 0
479606.0 261787.0 0
483931.0 261781.0 0
488183.0 261542.0 0
492496.0 261775.0 0
497786.0 263389.0 0
2142.5 267022.0 0
13650.8 267061.0 0
18500.4 268364.0 0
22196.6 266722.0 0
27349.6 266935.0 0
32208.3 266428.0 0
37334.9 266730.0 0
42429.1 268228.0 0
46366.0 264967.0 0
51360.5 267338.0 0
57310.9 267644.0 0
63511.7 265845.0 0
68518.1 264422.0 0
73436.6 267363.0 0
79697.0 266729.0 0
84995.3 267373.0 0
90047.2 265844.0 0
94865.1 267851.0 0
98310.2 265021.0 0
101175.0 268217.0 0
105541.0 265632.0 0
111248.0 267016.0 0
118424.0 266146.0 0
124004.0 266516.0 0
128501.0 264721.0 0
133343.0 266845.0 0
137834.0 265842.0 0
141873.0 266886.0 0
147378.0 266466.0 0
152942.0 266551.0 0
157282.0 267898.0 0
161877.0 265765.0 0
167208.0 265616.0 0
170814.0 267298.0 0
176990.0 266951.0 0
181036.0 263876.0 0
182456.0 268668.0 0
186998.0 266800.0 0
191635.0 267240.0 0
196463.0 268431.0 0
201836.0 266398.0 0
207368.0 266407.0 0
213207.0 266460.0 0
219912.0 267613.0 0
228960.0 263895.0 0
225018.0 267446.0 0
228747.0 267992.0 0
232513.0 267152.0 0
237114.0 267896.0 0
241981.0 266213.0 0
246440.0 266225.0 0
251413.0 265596.0 0
257793.0 267862.0 0
262743.0 267275.0 0
268222.0 266951.0 0
274009.0 267072.0 0
279340.0 268573.0 0
284640.0 266751.0 0
289539.0 267515.0 0
293242.0 265850.0 0
296791.0 268235.0 0
302430.0 266951.0 0
307427.0 267248.0 0
311865.0 265682.0 0
316595.0 265696.0 0
321126.0 267611.0 0
326271.0 266308.0 0
331575.0 266624.0 0
337213.0 267379.0 0
342892.0 267785.0 0
346721.0 268004.0 0
351404.0 266539.0 0
356506.0 264818.0 0
362032.0 268027.0 0
367295.0 266726.0 0
371948.0 266904.0 0
382376.0 266922.0 0
387018.0 267504.0 0
391552.0 267171.0 0
395865.0 268286.0 0
398269.0 263744.0 0
400476.0 268818.0 0
405792.0 267430.0 0
411503.0 265727.0 0
416956.0 264703.0 0
422664.0 265955.0 0
428189.0 267280.0 0
432857.0 265361.0 0
438545.0 266093.0 0
444480.0 266777.0 0
450287.0 268397.0 0
455401.0 266098.0 0
461036.0 267185.0 0
468709.0 265928.0 0
465612.0 268333.0 0
473169.0 267685.0 0
477814.0 266437.0 0
482452.0 266584.0 0
486688.0 265910.0 0
490735.0 265984.0 0
495072.0 267374.0 0
2188.13 271519.0 0
7145.42 269617.0 0
12376.6 273109.0 0
17967.0 272780.0 0
23175.5 271548.0 0
28956.8 272948.0 0
32584.6 269872.0 0
36124.5 272514.0 0
41164.2 272493.0 0
46967.4 271430.0 0
52775.8 272026.0 0
57535.9 273778.0 0
62128.8 271250.0 0
67890.1 271244.0 0
78173.3 271385.0 0
82898.3 272176.0 0
88784.6 271932.0 0
93968.6 272476.0 0
97858.1 271013.0 0
101287.0 272489.0 0
105760.0 271103.0 0
110297.0 272359.0 0
115563.0 271911.0 0
121675.0 271268.0 0
128236.0 270860.0 0
133667.0 271670.0 0
137494.0 269997.0 0
142027.0 272140.0 0
148122.0 273029.0 0
153568.0 271354.0 0
158033.0 272071.0 0
163142.0 271588.0 0
168477.0 270796.0 0
173389.0 270488.0 0
177724.0 271410.0 0
181552.0 273198.0 0
186389.0 272044.0 0
191490.0 271740.0 0
195885.0 274083.0 0
201163.0 271971.0 0
207176.0 272436.0 0
212179.0 271353.0 0
216880.0 272472.0 0
221683.0 272798.0 0
226203.0 271965.0 0
231129.0 271324.0 0
235962.0 272515.0 0
241363.0 271146.0 0
246790.0 271136.0 0
252466.0 271063.0 0
257588.0 273044.0 0
263874.0 272715.0 0
269754.0 272567.0 0
274726.0 272008.0 0
279689.0 273931.0 0
283810.0 271155.0 0
288387.0 272517.0 0
292445.0 270926.0 0
298457.0 273154.0 0
303393.0 271992.0 0
307513.0 271829.0 0
311952.0 270909.0 0
317195.0 270496.0 0
323289.0 272528.0 0
327997.0 270922.0 0
332726.0 271686.0 0
337434.0 272676.0 0
342135.0 271710.0 0
345705.0 271805.0 0
349660.0 270675.0 0
355653.0 271012.0 0
360937.0 273184.0 0
366864.0 271441.0 0
373691.0 272034.0 0
378539.0 269618.0 0
383175.0 272565.0 0
388113.0 271892.0 0
392606.0 271531.0 0
397445.0 272242.0 0
403545.0 272762.0 0
412647.0 270891.0 0
408280.0 272307.0 0
417403.0 269805.0 0
421001.0 272242.0 0
425208.0 271206.0 0
431961.0 271022.0 0
437666.0 272290.0 0
443609.0 272306.0 0
454267.0 271361.0 0
458527.0 272425.0 0
463547.0 272422.0 0
468869.0 271305.0 0
473928.0 272199.0 0
478648.0 271404.0 0
483339.0 272752.0 0
486851.0 270107.0 0
491707.0 272011.0 0
497421.0 272011.0 0
2108.02 275868.0 0
6927.71 275441.0 0
12491.2 278492.0 0
16008.2 276544.0 0
20042.4 276970.0 0
24879.3 276753.0 0
32113.8 277297.0 0
37566.5 278174.0 0
43253.9 277017.0 0
48621.4 277407.0 0
53479.9 276531.0 0
57317.9 278657.0 0
62543.7 276544.0 0
67211.4 276576.0 0
71154.6 278832.0 0
73611.5 274056.0 0
78983.6 276826.0 0
84193.5 276900.0 0
88264.3 276944.0 0
92508.1 276462.0 0
97502.5 275393.0 0
102522.0 276876.0 0
107264.0 275829.0 0
111915.0 276507.0 0
117988.0 277422.0 0
123263.0 276499.0 0
127775.0 276229.0 0
132827.0 276726.0 0
138528.0 276056.0 0
143143.0 276946.0 0
147819.0 278994.0 0
151895.0 276795.0 0
156585.0 276889.0 0
161574.0 276550.0 0
166858.0 275634.0 0
173185.0 276670.0 0
178542.0 276851.0 0
183681.0 277721.0 0
189473.0 276835.0 0
193936.0 277908.0 0
199657.0 276880.0 0
203775.0 277545.0 0
208172.0 277618.0 0
212694.0 276009.0 0
219045.0 277249.0 0
223283.0 276612.0 0
227639.0 276715.0 0
232487.0 276392.0 0
238094.0 276818.0 0
242608.0 277499.0 0
247061.0 275946.0 0
252277.0 277293.0 0
257541.0 277343.0 0
262353.0 278882.0 0
267674.0 276921.0 0
271727.0 276393.0 0
276056.0 276866.0 0
283983.0 275549.0 0
288257.0 277839.0 0
293343.0 275477.0 0
298687.0 277908.0 0
302500.0 276609.0 0
306942.0 275885.0 0
312033.0 276578.0 0
317169.0 275373.0 0
325123.0 276408.0 0
321575.0 277457.0 0
328995.0 275601.0 0
334535.0 277183.0 0
339911.0 276386.0 0
344576.0 276059.0 0
350527.0 276274.0 0
357050.0 278016.0 0
363530.0 277821.0 0
369637.0 276288.0 0
375097.0 277351.0 0
378335.0 274096.0 0
379859.0 278026.0 0
384048.0 277722.0 0
388242.0 276352.0 0
393232.0 276557.0 0
397938.0 276460.0 0
402036.0 277039.0 0
406542.0 276829.0 0
412569.0 276758.0 0
418366.0 275543.0 0
423523.0 276329.0 0
428633.0 274881.0 0
433738.0 277326.0 0
440010.0 278309.0 0
445311.0 276981.0 0
450458.0 274804.0 0
455821.0 276520.0 0
459730.0 276639.0 0
462924.0 276475.0 0
467179.0 276598.0 0
472256.0 276541.0 0
477604.0 276767.0 0
482557.0 277033.0 0
487299.0 275890.0 0
492472.0 277243.0 0
497816.0 276764.0 0
3065.25 280955.0 0
8504.25 279920.0 0
12168.6 283035.0 0
16275.8 280746.0 0
21125.0 281874.0 0
27258.6 282174.0 0
32663.9 281407.0 0
37341.1 283520.0 0
41919.0 282083.0 0
47921.4 282889.0 0
53255.7 281503.0 0
58967.2 282427.0 0
62626.2 280962.0 0
67046.9 281021.0 0
71702.0 282969.0 0
76444.7 282036.0 0
82324.6 280673.0 0
86431.7 280621.0 0
91295.8 281416.0 0
96683.6 280507.0 0
101345.0 281508.0 0
106470.0 280978.0 0
112429.0 282005.0 0
118106.0 282807.0 0
123281.0 281738.0 0
128439.0 280714.0 0
133269.0 282190.0 0
138735.0 281776.0 0
143819.0 280989.0 0
146813.0 283276.0 0
152554.0 281345.0 0
157546.0 281544.0 0
162804.0 280693.0 0
168060.0 281051.0 0
172503.0 282482.0 0
177298.0 281980.0 0
182455.0 282639.0 0
187121.0 281731.0 0
192279.0 281913.0 0
197933.0 281627.0 0
202893.0 281545.0 0
207306.0 282424.0 0
212100.0 280967.0 0
217253.0 282338.0 0
222483.0 280999.0 0
227509.0 282075.0 0
232623.0 281092.0 0
237266.0 281081.0 0
241487.0 282006.0 0
246216.0 280914.0 0
250534.0 282177.0 0
254709.0 281829.0 0
258942.0 282477.0 0
267361.0 282244.0 0
272506.0 280269.0 0
277155.0 282124.0 0
283078.0 280948.0 0
288066.0 282403.0 0
292564.0 281056.0 0
297160.0 281823.0 0
301862.0 281552.0 0
306795.0 280606.0 0
311527.0 281874.0 0
316234.0 280233.0 0
320522.0 281828.0 0
326235.0 281230.0 0
332682.0 283134.0 0
338370.0 282166.0 0
343498.0 280935.0 0
348275.0 281617.0 0
353310.0 282295.0 0
358717.0 283417.0 0
363317.0 283297.0 0
367765.0 281891.0 0
372476.0 281399.0 0
377495.0 282651.0 0
382388.0 280985.0 0
386907.0 280829.0 0
391384.0 281041.0 0
396012.0 280684.0 0
401127.0 281866.0 0
406285.0 281665.0 0
411597.0 283071.0 0
417497.0 280752.0 0
422112.0 283460.0 0
427963.0 281121.0 0
435755.0 282521.0 0
440095.0 283232.0 0
448484.0 279469.0 0
444704.0 282041.0 0
448757.0 282567.0 0
453034.0 281317.0 0
458403.0 280219.0 0
463080.0 280655.0 0
468086.0 281614.0 0
473397.0 281684.0 0
478302.0 281664.0 0
482492.0 281752.0 0
486013.0 280691.0 0
490506.0 281202.0 0
495493.0 281094.0 0
2816.25 286838.0 0
7487.88 284316.0 0
9453.13 288238.0 0
12245.1 286680.0 0
16877.7 286296.0 0
23279.2 287315.0 0
28191.9 287276.0 0
32610.5 285526.0 0
37887.0 289144.0 0
44109.8 287301.0 0
48874.1 289004.0 0
51610.3 286008.0 0
56140.9 285857.0 0
61387.8 286455.0 0
67233.6 286529.0 0
72973.0 287489.0 0
81001.8 284965.0 0
77842.7 288551.0 0
86926.0 286214.0 0
93055.8 287439.0 0
98570.7 285822.0 0
103749.0 285921.0 0
108619.0 286320.0 0
113760.0 287360.0 0
118804.0 288068.0 0
123687.0 286754.0 0
128537.0 285870.0 0
133177.0 286693.0 0
137659.0 287147.0 0
143108.0 285120.0 0
146701.0 287295.0 0
150578.0 285314.0 0
155545.0 285530.0 0
161097.0 285566.0 0
167129.0 287082.0 0
172908.0 286775.0 0
178076.0 287477.0 0
183390.0 287457.0 0
189154.0 286505.0 0
194080.0 286479.0 0
198940.0 287236.0 0
203662.0 285743.0 0
208190.0 287474.0 0
213055.0 286086.0 0
217749.0 287650.0 0
222500.0 286663.0 0
227499.0 286650.0 0
232209.0 285337.0 0
236211.0 285336.0 0
241018.0 286374.0 0
246227.0 286655.0 0
252668.0 287003.0 0
257728.0 286183.0 0
262547.0 285571.0 0
268619.0 286936.0 0
272401.0 284913.0 0
276540.0 287141.0 0
282688.0 286725.0 0
287689.0 286793.0 0
293054.0 286519.0 0
297735.0 285700.0 0
301876.0 287734.0 0
306597.0 285467.0 0
311499.0 287093.0 0
317302.0 286095.0 0
323013.0 286428.0 0
326838.0 286234.0 0
331391.0 287495.0 0
335491.0 288140.0 0
340624.0 286981.0 0
345132.0 285416.0 0
349894.0 286252.0 0
355498.0 288177.0 0
361571.0 287969.0 0
367135.0 287168.0 0
372516.0 286291.0 0
377540.0 288368.0 0
382747.0 285693.0 0
388863.0 285678.0 0
397059.0 285552.0 0
393238.0 287824.0 0
402143.0 287479.0 0
407346.0 286329.0 0
411885.0 288353.0 0
416940.0 286461.0 0
421601.0 288045.0 0
426152.0 287214.0 0
432051.0 286416.0 0
437863.0 287354.0 0
443219.0 287059.0 0
447833.0 286041.0 0
452627.0 287181.0 0
457651.0 285077.0 0
462974.0 285809.0 0
468134.0 286696.0 0
473012.0 286758.0 0
478040.0 286506.0 0
482678.0 286810.0 0
487668.0 285858.0 0
493217.0 286039.0 0
497801.0 285445.0 0
2453.4 292161.0 0
7157.89 291719.0 0
11958.6 291966.0 0
17375.1 292555.0 0
23123.7 293339.0 0
28530.8 291765.0 0
32441.7 290062.0 0
39318.4 294110.0 0
43227.4 292722.0 0
47656.5 292819.0 0
52705.4 291787.0 0
57970.9 290686.0 0
63887.6 292111.0 0
69032.0 292569.0 0
71626.2 291196.0 0
75313.1 293123.0 0
81124.2 292487.0 0
87097.5 292862.0 0
92029.9 291982.0 0
96745.5 291626.0 0
101920.0 290240.0 0
107464.0 292378.0 0
113365.0 292339.0 0
118399.0 293298.0 0
123371.0 291801.0 0
128532.0 291025.0 0
133455.0 291222.0 0
137842.0 292692.0 0
141677.0 289673.0 0
145590.0 292074.0 0
150852.0 291016.0 0
156912.0 290710.0 0
162762.0 291586.0 0
170801.0 291567.0 0
175170.0 293169.0 0
179409.0 292219.0 0
182935.0 291405.0 0
186988.0 291497.0 0
192354.0 291035.0 0
197686.0 292826.0 0
202705.0 290737.0 0
206808.0 292641.0 0
211029.0 291461.0 0
215650.0 292020.0 0
221062.0 292089.0 0
226995.0 292140.0 0
231724.0 289493.0 0
237769.0 291242.0 0
244027.0 291888.0 0
249069.0 291606.0 0
254365.0 293047.0 0
257369.0 289523.0 0
260306.0 291565.0 0
265451.0 290665.0 0
272326.0 291207.0 0
279411.0 291840.0 0
285372.0 291036.0 0
290081.0 290671.0 0
293200.0 293764.0 0
297054.0 290843.0 0
301967.0 292902.0 0
306607.0 290845.0 0
312377.0 293151.0 0
318401.0 291911.0 0
323565.0 291372.0 0
328253.0 289745.0 0
332530.0 292286.0 0
337388.0 292544.0 0
341327.0 291501.0 0
346107.0 290483.0 0
351448.0 292490.0 0
359041.0 292621.0 0
364406.0 292439.0 0
368991.0 291785.0 0
373364.0 291137.0 0
377279.0 293434.0 0
381347.0 291537.0 0
386939.0 291827.0 0
393313.0 292659.0 0
398505.0 291212.0 0
402890.0 292391.0 0
407772.0 291628.0 0
415658.0 292235.0 0
420995.0 293280.0 0
424542.0 291190.0 0
428879.0 291842.0 0
434000.0 291426.0 0
438600.0 292525.0 0
442672.0 291328.0 0
447590.0 291291.0 0
452865.0 292182.0 0
458115.0 290889.0 0
463389.0 290607.0 0
468106.0 291998.0 0
473546.0 291158.0 0
478070.0 291662.0 0
482724.0 291008.0 0
487399.0 291413.0 0
492406.0 290974.0 0
497562.0 290071.0 0
2467.05 297138.0 0
7674.36 296711.0 0
11985.5 296147.0 0
15722.5 297638.0 0
20841.4 298385.0 0
26820.2 297386.0 0
33978.0 295172.0 0
39881.0 298355.0 0
44553.7 297214.0 0
48596.2 296548.0 0
52877.1 296946.0 0
59136.8 295805.0 0
63830.7 297232.0 0
67532.4 296441.0 0
71609.6 296438.0 0
78620.6 296485.0 0
82543.1 297472.0 0
87206.4 298447.0 0
92206.3 296663.0 0
97204.4 296715.0 0
102339.0 296095.0 0
106970.0 298326.0 0
110988.0 296785.0 0
115742.0 297851.0 0
121005.0 297924.0 0
126521.0 296517.0 0
132385.0 296208.0 0
137080.0 297219.0 0
142179.0 296160.0 0
147614.0 295932.0 0
152450.0 296763.0 0
157330.0 295815.0 0
161916.0 297106.0 0
167146.0 295748.0 0
172422.0 296692.0 0
178018.0 297478.0 0
183342.0 295402.0 0
190026.0 296158.0 0
195040.0 297469.0 0
203162.0 296255.0 0
199406.0 298086.0 0
207583.0 296788.0 0
212375.0 296309.0 0
217596.0 296749.0 0
223381.0 296784.0 0
227676.0 297105.0 0
232730.0 296461.0 0
238623.0 297170.0 0
242716.0 296178.0 0
247041.0 296056.0 0
251805.0 297581.0 0
257544.0 297544.0 0
262526.0 295783.0 0
268016.0 295891.0 0
273332.0 297862.0 0
279542.0 297980.0 0
283732.0 295243.0 0
288799.0 295701.0 0
293602.0 298044.0 0
298646.0 296828.0 0
302642.0 296880.0 0
307500.0 296526.0 0
312962.0 298950.0 0
316474.0 296706.0 0
321376.0 296886.0 0
327689.0 295514.0 0
333454.0 297316.0 0
340831.0 295600.0 0
337850.0 298418.0 0
346481.0 297056.0 0
352480.0 297448.0 0
358090.0 298246.0 0
362767.0 296316.0 0
367690.0 296997.0 0
373298.0 296115.0 0
377808.0 298138.0 0
383187.0 297101.0 0
388940.0 297644.0 0
393947.0 297905.0 0
397731.0 295651.0 0
402185.0 297043.0 0
407729.0 297414.0 0
417958.0 296169.0 0
413521.0 297580.0 0
420992.0 297440.0 0
426215.0 297294.0 0
432148.0 296198.0 0
436807.0 296452.0 0
442475.0 296280.0 0
448533.0 298170.0 0
453276.0 296315.0 0
458346.0 297358.0 0
463563.0 295113.0 0
467955.0 297303.0 0
471805.0 294870.0 0
476319.0 296673.0 0
480966.0 294975.0 0
485503.0 296024.0 0
490669.0 296718.0 0
496073.0 295344.0 0
3070.2 302270.0 0
8202.69 301809.0 0
12712.3 301519.0 0
17375.4 302380.0 0
21963.9 302938.0 0
26135.4 302183.0 0
30817.6 300757.0 0
35757.0 300922.0 0
39553.2 304326.0 0
43206.5 301334.0 0
47591.8 300573.0 0
51630.0 301047.0 0
56725.7 301117.0 0
62461.6 301197.0 0
67233.5 301665.0 0
72596.6 301590.0 0
78099.7 300553.0 0
82765.2 301889.0 0
86521.4 302541.0 0
90346.3 301778.0 0
95409.3 301717.0 0
101307.0 301745.0 0
106775.0 303298.0 0
111987.0 301562.0 0
118201.0 302537.0 0
123150.0 302364.0 0
127541.0 301665.0 0
132130.0 301626.0 0
137160.0 301811.0 0
141611.0 303170.0 0
146053.0 300832.0 0
151178.0 303205.0 0
155931.0 300729.0 0
161760.0 303381.0 0
169227.0 302104.0 0
175924.0 303274.0 0
181570.0 302443.0 0
186032.0 299772.0 0
190796.0 301414.0 0
195560.0 302123.0 0
200234.0 303597.0 0
204677.0 300805.0 0
208582.0 302219.0 0
212173.0 300973.0 0
217038.0 302160.0 0
222207.0 301359.0 0
227201.0 301669.0 0
232434.0 300760.0 0
236571.0 301950.0 0
241972.0 300683.0 0
247254.0 301157.0 0
251900.0 301828.0 0
256528.0 302748.0 0
261754.0 301157.0 0
267104.0 300550.0 0
271140.0 303106.0 0
276596.0 302638.0 0
284902.0 300298.0 0
290007.0 300522.0 0
293658.0 302632.0 0
297338.0 301197.0 0
302254.0 300015.0 0
307483.0 300455.0 0
310601.0 302484.0 0
316982.0 301268.0 0
326379.0 300893.0 0
321709.0 302840.0 0
331634.0 302256.0 0
336491.0 302312.0 0
341619.0 301499.0 0
346670.0 302693.0 0
350556.0 301474.0 0
354655.0 302477.0 0
363461.0 301534.0 0
368560.0 302217.0 0
372706.0 300944.0 0
377115.0 303266.0 0
381431.0 301638.0 0
385930.0 302150.0 0
391680.0 302661.0 0
397891.0 301447.0 0
403474.0 302058.0 0
408186.0 302533.0 0
412598.0 302592.0 0
417307.0 301423.0 0
422223.0 301339.0 0
427010.0 303636.0 0
433091.0 302151.0 0
438791.0 300584.0 0
443860.0 301782.0 0
448486.0 304013.0 0
453235.0 301186.0 0
457493.0 303057.0 0
462692.0 301956.0 0
467746.0 302038.0 0
472071.0 300358.0 0
476366.0 301592.0 0
481398.0 300246.0 0
487164.0 300949.0 0
492151.0 303071.0 0
497317.0 300952.0 0
2741.88 307698.0 0
8063.65 306829.0 0
15014.9 306675.0 0
11807.3 309272.0 0
20014.6 307260.0 0
25519.6 307069.0 0
32689.9 307479.0 0
42458.6 309042.0 0
47217.1 305852.0 0
52680.7 305197.0 0
57816.0 307314.0 0
63788.6 306497.0 0
69589.8 306890.0 0
74689.4 307366.0 0
78939.2 305294.0 0
82862.8 306820.0 0
87485.9 307006.0 0
93117.9 307064.0 0
98844.6 307013.0 0
103896.0 307323.0 0
107203.0 307337.0 0
111594.0 307369.0 0
120103.0 307327.0 0
123923.0 306845.0 0
128334.0 306287.0 0
132853.0 305947.0 0
136869.0 306502.0 0
141100.0 307366.0 0
146447.0 306754.0 0
151839.0 308553.0 0
156601.0 306882.0 0
160926.0 308970.0 0
166482.0 308286.0 0
172411.0 306946.0 0
179181.0 306859.0 0
184025.0 307677.0 0
189153.0 305919.0 0
193533.0 306639.0 0
197379.0 306822.0 0
203041.0 307166.0 0
207094.0 305036.0 0
212428.0 306491.0 0
217371.0 306669.0 0
221522.0 306199.0 0
226302.0 306667.0 0
231501.0 305014.0 0
236139.0 306862.0 0
241072.0 305924.0 0
248657.0 305995.0 0
252945.0 305587.0 0
256386.0 307729.0 0
260303.0 305807.0 0
265596.0 305616.0 0
273103.0 306743.0 0
275858.0 306606.0 0
281990.0 305795.0 0
288418.0 305354.0 0
293612.0 307306.0 0
298748.0 305623.0 0
304645.0 304488.0 0
309383.0 306071.0 0
314131.0 304489.0 0
312765.0 309125.0 0
318040.0 306084.0 0
323113.0 308138.0 0
327578.0 305505.0 0
332500.0 306727.0 0
336836.0 306910.0 0
341883.0 307072.0 0
347007.0 307079.0 0
351670.0 305993.0 0
357483.0 306345.0 0
363226.0 307864.0 0
368513.0 306467.0 0
373433.0 307534.0 0
379246.0 307643.0 0
382675.0 305463.0 0
387110.0 307769.0 0
392381.0 308677.0 0
395939.0 306144.0 0
400766.0 306760.0 0
405943.0 306461.0 0
411238.0 307756.0 0
416985.0 307029.0 0
422178.0 306222.0 0
426400.0 309189.0 0
431493.0 307889.0 0
438024.0 305985.0 0
443939.0 307611.0 0
448975.0 308433.0 0
453391.0 306409.0 0
458274.0 307200.0 0
462210.0 306971.0 0
467248.0 307063.0 0
472253.0 305275.0 0
478228.0 306254.0 0
483557.0 305326.0 0
487834.0 305576.0 0
492055.0 308049.0 0
496770.0 306492.0 0
2120.46 312516.0 0
6771.9 311785.0 0
11027.0 312948.0 0
16465.3 311883.0 0
22235.3 312057.0 0
26893.7 311676.0 0
37923.8 313008.0 0
43935.4 313533.0 0
47196.0 310981.0 0
52174.3 310560.0 0
57384.9 313387.0 0
62707.6 311859.0 0
67628.7 312269.0 0
72716.4 311892.0 0
77870.1 311477.0 0
83355.3 311536.0 0
88692.4 311994.0 0
93424.6 311919.0 0
97369.0 311612.0 0
102441.0 312518.0 0
107432.0 310583.0 0
111892.0 313694.0 0
116263.0 310188.0 0
120503.0 313060.0 0
126070.0 311348.0 0
131913.0 310707.0 0
137542.0 311358.0 0
143429.0 312220.0 0
148577.0 311784.0 0
157527.0 311837.0 0
153068.0 313008.0 0
163221.0 311600.0 0
167856.0 313686.0 0
170948.0 310747.0 0
176018.0 310988.0 0
181861.0 313009.0 0
188974.0 311153.0 0
194096.0 311558.0 0
199328.0 311167.0 0
203607.0 312797.0 0
207408.0 309940.0 0
210902.0 313566.0 0
216231.0 312094.0 0
221725.0 310510.0 0
226346.0 311984.0 0
232282.0 311096.0 0
238260.0 311164.0 0
245086.0 310403.0 0
251711.0 310716.0 0
257173.0 312239.0 0
262005.0 310430.0 0
269971.0 309779.0 0
266253.0 313907.0 0
274198.0 312238.0 0
277940.0 309762.0 0
283188.0 312159.0 0
288658.0 310678.0 0
292946.0 312917.0 0
297040.0 310449.0 0
302811.0 310890.0 0
308603.0 311736.0 0
318220.0 311389.0 0
323942.0 313553.0 0
328691.0 310671.0 0
333894.0 312504.0 0
339364.0 311782.0 0
344671.0 311494.0 0
349704.0 311108.0 0
354200.0 309889.0 0
358543.0 312797.0 0
363813.0 313443.0 0
368110.0 311161.0 0
372341.0 312061.0 0
376986.0 312087.0 0
382513.0 311223.0 0
387497.0 312339.0 0
392227.0 312781.0 0
396256.0 311521.0 0
401316.0 312218.0 0
406781.0 311594.0 0
411298.0 312607.0 0
415588.0 312090.0 0
421243.0 311804.0 0
428086.0 312948.0 0
430776.0 312364.0 0
436029.0 312013.0 0
442278.0 313567.0 0
446852.0 311894.0 0
451428.0 313214.0 0
456215.0 310982.0 0
461556.0 312017.0 0
466992.0 312453.0 0
472904.0 310475.0 0
478039.0 311704.0 0
482390.0 309731.0 0
487682.0 310692.0 0
493445.0 311878.0 0
498111.0 311036.0 0
2800.61 317305.0 0
8174.62 316746.0 0
12932.8 316127.0 0
16531.2 316710.0 0
20585.1 316679.0 0
25502.0 317764.0 0
31322.9 315291.0 0
37232.8 318361.0 0
41662.3 317361.0 0
47352.3 317468.0 0
52993.3 316737.0 0
58694.7 318667.0 0
63555.1 317011.0 0
68266.4 316707.0 0
72454.7 316732.0 0
77196.2 316564.0 0
82044.0 316645.0 0
86325.3 315642.0 0
91310.9 316502.0 0
96812.8 316009.0 0
101435.0 318512.0 0
107525.0 318577.0 0
116597.0 316311.0 0
113192.0 318494.0 0
121203.0 317814.0 0
125974.0 317335.0 0
132173.0 316936.0 0
137882.0 317003.0 0
142898.0 317577.0 0
147596.0 316323.0 0
152733.0 317632.0 0
157671.0 316825.0 0
162856.0 316106.0 0
167513.0 318747.0 0
172608.0 316191.0 0
178140.0 316198.0 0
182468.0 318102.0 0
186437.0 315603.0 0
192400.0 316327.0 0
196980.0 316637.0 0
201490.0 316454.0 0
207133.0 316516.0 0
212749.0 316703.0 0
217584.0 318036.0 0
221834.0 315170.0 0
227185.0 316990.0 0
231935.0 316758.0 0
236834.0 316275.0 0
241536.0 315250.0 0
240171.0 318542.0 0
243638.0 319741.0 0
246033.0 315752.0 0
250677.0 316581.0 0
255362.0 316312.0 0
260863.0 316721.0 0
266453.0 319227.0 0
271238.0 315885.0 0
277890.0 315753.0 0
283012.0 318726.0 0
288196.0 315943.0 0
293161.0 317814.0 0
298112.0 315663.0 0
303121.0 316440.0 0
307818.0 316701.0 0
313940.0 316464.0 0
318862.0 316193.0 0
322359.0 319151.0 0
328947.0 316245.0 0
333185.0 316732.0 0
336742.0 316512.0 0
342441.0 316891.0 0
347779.0 316591.0 0
353031.0 315701.0 0
357635.0 318223.0 0
362368.0 318225.0 0
367656.0 316758.0 0
373413.0 316710.0 0
378186.0 316857.0 0
382492.0 316470.0 0
387500.0 316876.0 0
391022.0 316650.0 0
394400.0 316332.0 0
398175.0 316194.0 0
405896.0 317597.0 0
412491.0 317179.0 0
418107.0 316753.0 0
423225.0 317007.0 0
428082.0 316889.0 0
432986.0 317125.0 0
437863.0 317657.0 0
441981.0 318220.0 0
447260.0 316500.0 0
451870.0 318419.0 0
456288.0 315999.0 0
461162.0 317645.0 0
466195.0 317217.0 0
470878.0 315360.0 0
476072.0 316682.0 0
482578.0 315723.0 0
488813.0 316209.0 0
492853.0 318879.0 0
497014.0 315770.0 0
2483.61 321762.0 0
7490.28 321586.0 0
11899.7 320084.0 0
13209.1 324506.0 0
17761.9 320999.0 0
22230.2 321605.0 0
25771.8 322303.0 0
29718.6 324008.0 0
33503.3 320922.0 0
36907.2 323229.0 0
41358.4 322593.0 0
46356.7 322732.0 0
51563.5 322088.0 0
56775.3 322873.0 0
62285.8 322466.0 0
67593.7 321485.0 0
72575.5 321334.0 0
76692.4 322372.0 0
81362.6 321776.0 0
87091.4 320646.0 0
92396.4 321772.0 0
97342.3 321794.0 0
102441.0 323663.0 0
106778.0 323712.0 0
111765.0 322464.0 0
117507.0 321882.0 0
123304.0 321825.0 0
128787.0 322370.0 0
134064.0 322002.0 0
137961.0 321707.0 0
142169.0 321638.0 0
147744.0 322099.0 0
153234.0 322528.0 0
158883.0 321264.0 0
162822.0 321528.0 0
167126.0 323344.0 0
172247.0 320484.0 0
177951.0 321724.0 0
183398.0 322769.0 0
188311.0 320568.0 0
193953.0 321467.0 0
199096.0 321096.0 0
204197.0 321500.0 0
209535.0 321728.0 0
213992.0 320346.0 0
213810.0 324631.0 0
217604.0 322414.0 0
222083.0 320645.0 0
226185.0 321258.0 0
230503.0 322158.0 0
235825.0 320943.0 0
240078.0 322941.0 0
250565.0 321953.0 0
256650.0 322045.0 0
262473.0 322399.0 0
267340.0 324684.0 0
272414.0 321489.0 0
278205.0 321543.0 0
282884.0 324268.0 0
289642.0 321401.0 0
294563.0 322222.0 0
299027.0 321027.0 0
303275.0 320421.0 0
307425.0 321827.0 0
312619.0 322642.0 0
317455.0 320895.0 0
323956.0 323758.0 0
327354.0 321124.0 0
332536.0 320946.0 0
338411.0 321832.0 0
343715.0 322154.0 0
346803.0 320116.0 0
351219.0 321862.0 0
358135.0 322590.0 0
362817.0 323121.0 0
367510.0 322113.0 0
372764.0 322330.0 0
377591.0 321548.0 0
383094.0 321609.0 0
387739.0 321489.0 0
390683.0 322251.0 0
394772.0 320957.0 0
400741.0 320626.0 0
404388.0 323904.0 0
409875.0 322963.0 0
416522.0 322634.0 0
422975.0 322650.0 0
428623.0 321655.0 0
433374.0 321933.0 0
438536.0 322942.0 0
444155.0 322166.0 0
448798.0 321646.0 0
452204.0 322408.0 0
457315.0 322465.0 0
462900.0 322044.0 0
466832.0 323347.0 0
470772.0 320535.0 0
476433.0 323036.0 0
482923.0 322447.0 0
488688.0 321559.0 0
492909.0 322582.0 0
497148.0 321595.0 0
2762.29 325724.0 0
2098.52 329899.0 0
7660.86 326053.0 0
12532.5 329876.0 0
17444.8 325884.0 0
22248.4 325895.0 0
26182.3 326362.0 0
33829.5 327077.0 0
38541.4 326736.0 0
43303.8 327682.0 0
47500.0 326689.0 0
51891.9 327729.0 0
58712.7 327463.0 0
64294.7 327748.0 0
68826.9 326561.0 0
73589.6 325895.0 0
77214.8 326415.0 0
80627.1 326854.0 0
77138.9 330035.0 0
86255.5 326916.0 0
92869.3 326795.0 0
98300.3 327060.0 0
103056.0 327633.0 0
108768.0 327059.0 0
112860.0 326670.0 0
117543.0 327583.0 0
122462.0 326645.0 0
126581.0 327268.0 0
131896.0 326711.0 0
136877.0 326262.0 0
140372.0 328357.0 0
144219.0 326835.0 0
150906.0 326471.0 0
157153.0 326521.0 0
163080.0 325907.0 0
167862.0 327948.0 0
173237.0 326108.0 0
179001.0 327795.0 0
183187.0 327120.0 0
186876.0 325976.0 0
191989.0 326378.0 0
196892.0 325455.0 0
201859.0 326502.0 0
207347.0 326810.0 0
216965.0 327458.0 0
220579.0 325511.0 0
225466.0 325156.0 0
229668.0 327240.0 0
236007.0 326402.0 0
240606.0 328144.0 0
245357.0 325726.0 0
252862.0 326887.0 0
257731.0 327415.0 0
262186.0 327149.0 0
272549.0 327518.0 0
277795.0 326560.0 0
285882.0 327845.0 0
289541.0 326125.0 0
293148.0 325777.0 0
297588.0 326641.0 0
303494.0 325541.0 0
309088.0 327158.0 0
314775.0 328111.0 0
319676.0 325293.0 0
323386.0 328466.0 0
328511.0 326632.0 0
334417.0 326102.0 0
338110.0 328110.0 0
342758.0 327427.0 0
348266.0 326598.0 0
354630.0 326557.0 0
358875.0 326834.0 0
362387.0 327198.0 0
366808.0 327181.0 0
372093.0 327739.0 0
376964.0 325414.0 0
377223.0 329668.0 0
380741.0 325909.0 0
386718.0 326568.0 0
391447.0 325641.0 0
396495.0 326672.0 0
400523.0 324992.0 0
401782.0 330024.0 0
407569.0 328384.0 0
413232.0 328334.0 0
418153.0 327767.0 0
422168.0 327785.0 0
427005.0 326285.0 0
431544.0 326245.0 0
436359.0 328329.0 0
442153.0 327523.0 0
447600.0 326323.0 0
452844.0 326711.0 0
457558.0 328322.0 0
461728.0 326279.0 0
465974.0 327423.0 0
470929.0 326288.0 0
476876.0 328942.0 0
480833.0 326998.0 0
485171.0 327479.0 0
491178.0 327365.0 0
497390.0 327063.0 0
6787.81 331508.0 0
18534.0 330902.0 0
24350.8 330628.0 0
30109.5 331061.0 0
35419.7 332440.0 0
39772.3 330821.0 0
43328.7 333035.0 0
47334.1 330816.0 0
51696.9 332566.0 0
56656.5 332551.0 0
61909.0 332602.0 0
66567.8 332172.0 0
71645.4 330880.0 0
82252.0 331796.0 0
88441.3 333201.0 0
93304.1 330914.0 0
94062.8 335137.0 0
97500.0 331723.0 0
102284.0 331522.0 0
107142.0 331326.0 0
112437.0 330998.0 0
117496.0 332193.0 0
122471.0 330844.0 0
127682.0 332233.0 0
132607.0 331515.0 0
137712.0 331199.0 0
135640.0 335076.0 0
142197.0 331459.0 0
147675.0 331430.0 0
153130.0 330704.0 0
157512.0 332405.0 0
161629.0 330637.0 0
165790.0 332130.0 0
171552.0 331955.0 0
176539.0 332130.0 0
180631.0 332399.0 0
185315.0 331078.0 0
190397.0 330655.0 0
189098.0 334793.0 0
195538.0 331145.0 0
201464.0 331959.0 0
206712.0 332472.0 0
212492.0 330435.0 0
218246.0 332018.0 0
222976.0 329945.0 0
227507.0 332711.0 0
232547.0 331065.0 0
238039.0 331984.0 0
243663.0 331936.0 0
248564.0 330779.0 0
251898.0 333852.0 0
255291.0 330987.0 0
260033.0 331532.0 0
266743.0 331732.0 0
272712.0 332353.0 0
276513.0 330935.0 0
281600.0 330212.0 0
286957.0 332405.0 0
292660.0 330559.0 0
298565.0 332531.0 0
303428.0 330818.0 0
307668.0 331853.0 0
312413.0 333496.0 0
318858.0 332050.0 0
323513.0 332708.0 0
327920.0 332263.0 0
332412.0 330698.0 0
337003.0 331858.0 0
341485.0 332614.0 0
346978.0 332083.0 0
352974.0 331813.0 0
358264.0 330642.0 0
363778.0 331635.0 0
368504.0 331355.0 0
372500.0 331984.0 0
377959.0 334773.0 0
383095.0 330948.0 0
388461.0 332114.0 0
392826.0 330385.0 0
396816.0 331948.0 0
408766.0 332955.0 0
413067.0 333297.0 0
417500.0 331621.0 0
423487.0 331766.0 0
429192.0 330494.0 0
432842.0 331881.0 0
439472.0 332141.0 0
445014.0 331606.0 0
449497.0 331344.0 0
453855.0 331682.0 0
457858.0 332905.0 0
461745.0 331079.0 0
466294.0 332135.0 0
472066.0 332296.0 0
477064.0 333798.0 0
481441.0 331652.0 0
487169.0 332597.0 0
492826.0 333260.0 0
497604.0 332080.0 0
3501.9 336955.0 0
8907.55 336833.0 0
12814.7 335290.0 0
18059.3 337110.0 0
23740.7 335991.0 0
29004.6 336814.0 0
33709.6 336593.0 0
38506.1 336936.0 0
43672.2 337788.0 0
47755.1 335563.0 0
52108.2 337110.0 0
57041.7 337949.0 0
61857.8 337312.0 0
66441.3 336765.0 0
71668.5 336765.0 0
78238.8 337218.0 0
84138.0 336514.0 0
87704.6 338274.0 0
99249.4 336425.0 0
103838.0 337727.0 0
108354.0 336292.0 0
113665.0 335870.0 0
118210.0 336907.0 0
122463.0 335235.0 0
127006.0 337183.0 0
131521.0 336266.0 0
140237.0 335825.0 0
145439.0 336656.0 0
151924.0 336825.0 0
157702.0 337453.0 0
162483.0 335976.0 0
168102.0 336366.0 0
173692.0 337654.0 0
178845.0 336303.0 0
183665.0 336650.0 0
193678.0 337366.0 0
198403.0 335768.0 0
202468.0 337275.0 0
207220.0 337625.0 0
212573.0 336783.0 0
217510.0 336482.0 0
222112.0 335284.0 0
226453.0 337339.0 0
231375.0 336467.0 0
236300.0 336815.0 0
240980.0 336770.0 0
247424.0 335734.0 0
251574.0 337842.0 0
256831.0 336382.0 0
262272.0 336402.0 0
267214.0 339033.0 0
272883.0 337010.0 0
277939.0 336314.0 0
282767.0 335659.0 0
287482.0 337882.0 0
293719.0 337171.0 0
299152.0 337432.0 0
303675.0 335851.0 0
308555.0 336776.0 0
315434.0 338120.0 0
311337.0 339417.0 0
320367.0 336979.0 0
326018.0 337632.0 0
333062.0 336828.0 0
339025.0 337474.0 0
343303.0 336575.0 0
347223.0 336889.0 0
351661.0 337318.0 0
357447.0 335979.0 0
362924.0 336663.0 0
368117.0 336207.0 0
373294.0 335712.0 0
382719.0 337094.0 0
387936.0 337646.0 0
392247.0 335348.0 0
397206.0 336400.0 0
403011.0 336688.0 0
407683.0 336494.0 0
411453.0 337625.0 0
416355.0 336506.0 0
421564.0 336290.0 0
427086.0 335491.0 0
431743.0 337931.0 0
436314.0 335691.0 0
442689.0 336928.0 0
449617.0 336971.0 0
454991.0 336361.0 0
459090.0 337320.0 0
462614.0 335182.0 0
462424.0 339602.0 0
466606.0 336991.0 0
470967.0 337472.0 0
475180.0 337383.0 0
479933.0 337743.0 0
485578.0 338238.0 0
491484.0 337485.0 0
496575.0 337549.0 0
3161.01 343616.0 0
7896.34 340905.0 0
13233.2 341157.0 0
18017.3 343115.0 0
22914.4 341654.0 0
28304.1 341958.0 0
33670.1 341501.0 0
38733.6 341873.0 0
42500.0 341662.0 0
47500.0 341498.0 0
52500.0 341557.0 0
57750.1 343276.0 0
62769.8 341792.0 0
67035.9 341697.0 0
72933.9 342818.0 0
78320.3 343017.0 0
82580.4 341634.0 0
87058.8 342181.0 0
92037.1 340449.0 0
97637.0 341677.0 0
102256.0 341501.0 0
107360.0 342105.0 0
113297.0 341307.0 0
117520.0 342613.0 0
121254.0 340419.0 0
125889.0 342918.0 0
129999.0 340545.0 0
135709.0 340793.0 0
141951.0 340789.0 0
147798.0 342802.0 0
152983.0 342185.0 0
157101.0 341912.0 0
162683.0 342120.0 0
168713.0 341897.0 0
173750.0 342997.0 0
178564.0 341371.0 0
183156.0 342995.0 0
188183.0 340643.0 0
193497.0 342011.0 0
191164.0 345389.0 0
198181.0 340787.0 0
203017.0 341455.0 0
202341.0 345093.0 0
206810.0 342004.0 0
210699.0 341386.0 0
216006.0 340946.0 0
217872.0 345134.0 0
222271.0 341292.0 0
228122.0 341759.0 0
233081.0 340837.0 0
237765.0 341355.0 0
242939.0 341468.0 0
248270.0 341282.0 0
253985.0 341618.0 0
258833.0 341410.0 0
257117.0 345291.0 0
262832.0 341540.0 0
266847.0 344812.0 0
271756.0 341409.0 0
276552.0 340754.0 0
282383.0 341738.0 0
287731.0 342630.0 0
292042.0 342709.0 0
297638.0 341699.0 0
305438.0 341449.0 0
309823.0 342052.0 0
313632.0 342973.0 0
318258.0 341655.0 0
322500.0 341784.0 0
328872.0 342250.0 0
333192.0 343239.0 0
336921.0 341203.0 0
341012.0 341254.0 0
346056.0 341414.0 0
352037.0 343419.0 0
357105.0 341299.0 0
361921.0 341584.0 0
367413.0 343031.0 0
372139.0 340340.0 0
377836.0 340776.0 0
383965.0 343121.0 0
389034.0 342705.0 0
392978.0 340537.0 0
398548.0 341890.0 0
404614.0 341881.0 0
408310.0 341945.0 0
411603.0 341917.0 0
415651.0 341292.0 0
420775.0 341772.0 0
427267.0 342027.0 0
432720.0 341974.0 0
437837.0 342074.0 0
443908.0 343173.0 0
448947.0 343064.0 0
453769.0 341189.0 0
458642.0 341406.0 0
466542.0 341869.0 0
471759.0 342129.0 0
476898.0 341855.0 0
482303.0 342575.0 0
489793.0 341595.0 0
493027.0 343622.0 0
497164.0 343537.0 0
2174.27 348862.0 0
6286.84 347813.0 0
11597.5 347260.0 0
17536.7 347578.0 0
22469.0 347326.0 0
27694.9 347018.0 0
32850.6 346885.0 0
37855.3 346410.0 0
42860.5 346520.0 0
47500.0 346581.0 0
52500.0 346501.0 0
57493.5 347739.0 0
62274.8 346849.0 0
67614.2 346083.0 0
72221.3 348539.0 0
77053.5 346934.0 0
81679.6 346548.0 0
86286.2 346307.0 0
91751.2 346862.0 0
97818.5 347063.0 0
102690.0 346088.0 0
106930.0 348235.0 0
111200.0 346122.0 0
115549.0 346864.0 0
120835.0 346287.0 0
126080.0 347750.0 0
131649.0 346562.0 0
137670.0 346996.0 0
143120.0 347168.0 0
148749.0 348595.0 0
152581.0 346100.0 0
157026.0 346594.0 0
161498.0 347804.0 0
166121.0 346523.0 0
171051.0 347019.0 0
176543.0 347454.0 0
181391.0 346622.0 0
186484.0 348428.0 0
192132.0 350084.0 0
196287.0 346428.0 0
201622.0 350096.0 0
207463.0 346976.0 0
213215.0 345446.0 0
217923.0 349815.0 0
221747.0 346780.0 0
226492.0 346639.0 0
232209.0 345850.0 0
236990.0 348443.0 0
240764.0 345717.0 0
246326.0 347340.0 0
252464.0 346962.0 0
256731.0 350032.0 0
261807.0 347633.0 0
272133.0 345827.0 0
275549.0 349230.0 0
277768.0 345369.0 0
282957.0 348747.0 0
289296.0 347299.0 0
295540.0 346904.0 0
301607.0 346175.0 0
304307.0 350336.0 0
307820.0 346967.0 0
313228.0 348091.0 0
318162.0 346221.0 0
322072.0 348559.0 0
325800.0 345989.0 0
330997.0 347815.0 0
336273.0 346899.0 0
342190.0 346634.0 0
347958.0 347560.0 0
352457.0 349066.0 0
357611.0 346965.0 0
363260.0 346528.0 0
372049.0 346432.0 0
367483.0 349052.0 0
377512.0 346735.0 0
382583.0 349463.0 0
388114.0 347583.0 0
393775.0 346226.0 0
397835.0 349971.0 0
403575.0 347675.0 0
409219.0 348486.0 0
413363.0 346120.0 0
417951.0 346845.0 0
422263.0 346833.0 0
427444.0 348769.0 0
432984.0 346229.0 0
437044.0 346997.0 0
442529.0 348637.0 0
447415.0 346462.0 0
451733.0 347032.0 0
455900.0 345467.0 0
461880.0 346696.0 0
468647.0 347440.0 0
474707.0 347231.0 0
480011.0 346564.0 0
482020.0 350517.0 0
486714.0 346838.0 0
493246.0 347989.0 0
498364.0 347859.0 0
2637.69 353144.0 0
6704.61 351732.0 0
11881.2 354045.0 0
17239.3 352075.0 0
21691.3 352200.0 0
26627.6 352219.0 0
32276.1 352340.0 0
37800.9 351480.0 0
42911.0 351635.0 0
48373.5 351455.0 0
53049.3 351683.0 0
57491.4 352023.0 0
62500.0 351668.0 0
67351.0 351691.0 0
72973.7 352875.0 0
77099.8 351864.0 0
80990.2 351850.0 0
86637.1 351477.0 0
92677.8 353455.0 0
98155.6 352107.0 0
102905.0 351064.0 0
107111.0 353578.0 0
112157.0 351473.0 0
117803.0 351346.0 0
123062.0 352983.0 0
127499.0 351493.0 0
131629.0 353293.0 0
135110.0 350475.0 0
139950.0 352892.0 0
146765.0 353781.0 0
153552.0 351994.0 0
159551.0 352290.0 0
162866.0 355370.0 0
166021.0 351736.0 0
171509.0 352266.0 0
177377.0 353688.0 0
183299.0 353580.0 0
188928.0 354108.0 0
196242.0 353876.0 0
201222.0 355493.0 0
206782.0 353513.0 0
212279.0 351186.0 0
216897.0 355570.0 0
222974.0 351522.0 0
228624.0 351793.0 0
233558.0 350907.0 0
237252.0 352761.0 0
241356.0 350999.0 0
246599.0 353757.0 0
252188.0 352440.0 0
258112.0 354948.0 0
262933.0 353174.0 0
268414.0 350833.0 0
273799.0 353382.0 0
278527.0 352040.0 0
283956.0 355130.0 0
287650.0 351955.0 0
292676.0 352327.0 0
299305.0 352193.0 0
304244.0 354233.0 0
308042.0 352338.0 0
312673.0 353011.0 0
316428.0 351751.0 0
320475.0 352687.0 0
326632.0 352463.0 0
333836.0 352811.0 0
338655.0 351405.0 0
342790.0 352132.0 0
347410.0 352533.0 0
352845.0 353890.0 0
357802.0 352746.0 0
362645.0 351465.0 0
367045.0 353417.0 0
371741.0 351754.0 0
377304.0 352577.0 0
382625.0 353816.0 0
386613.0 353023.0 0
391988.0 352390.0 0
396583.0 354092.0 0
401682.0 354397.0 0
407028.0 352611.0 0
411855.0 352163.0 0
417074.0 351409.0 0
422669.0 352459.0 0
427275.0 354771.0 0
432114.0 352738.0 0
437916.0 352200.0 0
442867.0 354194.0 0
448164.0 351459.0 0
452090.0 354569.0 0
456055.0 351335.0 0
461610.0 353253.0 0
466285.0 351959.0 0
471990.0 353562.0 0
477654.0 352157.0 0
481428.0 354367.0 0
486487.0 354018.0 0
491861.0 353073.0 0
497022.0 352735.0 0
200664.0 360632.0 0
205321.0 358184.0 0
211065.0 356793.0 0
223141.0 357235.0 0
228620.0 357217.0 0
233942.0 355624.0 0
232224.0 360406.0 0
237015.0 358490.0 0
241074.0 356772.0 0
249199.0 358418.0 0
245074.0 360064.0 0
253652.0 357285.0 0
260983.0 357835.0 0
265270.0 358083.0 0
270169.0 356353.0 0
278038.0 357453.0 0
282724.0 359871.0 0
289284.0 357003.0 0
295802.0 357249.0 0
301194.0 357810.0 0
205570.0 362277.0 0
211041.0 361927.0 0
216566.0 361691.0 0
221917.0 362597.0 0
227340.0 362472.0 0
236263.0 361764.0 0
237143.0 365538.0 0
240811.0 362566.0 0
246320.0 365145.0 0
252369.0 362148.0 0
257762.0 360578.0 0
262354.0 361351.0 0
270002.0 361496.0 0
275131.0 362370.0 0
279938.0 362766.0 0
283645.0 363797.0 0
286581.0 361186.0 0
292355.0 362086.0 0
298617.0 362783.0 0
2103.38 375643.0 0
6732.93 376090.0 0
10405.6 375123.0 0
13495.9 375689.0 0
16818.5 376064.0 0
21232.7 376173.0 0
25586.0 376088.0 0
30562.3 376478.0 0
35657.1 375931.0 0
40206.2 375965.0 0
44254.0 375676.0 0
48540.4 375418.0 0
52267.6 375908.0 0
55860.4 375842.0 0
60537.0 375798.0 0
64551.0 375460.0 0
68713.3 375822.0 0
73372.0 376762.0 0
76828.7 375640.0 0
80930.3 376159.0 0
85168.7 376104.0 0
89158.2 375981.0 0
93684.4 375492.0 0
97415.2 376026.0 0
103972.0 376185.0 0
107476.0 375957.0 0
110420.0 375627.0 0
113866.0 375762.0 0
118788.0 376402.0 0
123924.0 375441.0 0
128443.0 375468.0 0
133225.0 375502.0 0
138511.0 376057.0 0
143053.0 375491.0 0
147300.0 376540.0 0
151702.0 375404.0 0
155463.0 375757.0 0
159535.0 376104.0 0
163443.0 375804.0 0
168723.0 376260.0 0
173828.0 375686.0 0
177636.0 375712.0 0
181304.0 375816.0 0
190244.0 375714.0 0
196962.0 375157.0 0
199358.0 376770.0 0
201803.0 366874.0 0
208047.0 366660.0 0
213638.0 366328.0 0
219288.0 367626.0 0
224326.0 366393.0 0
228019.0 368864.0 0
232287.0 365666.0 0
236830.0 370562.0 0
241235.0 368247.0 0
251081.0 366598.0 0
256660.0 366919.0 0
262721.0 365464.0 0
267745.0 366313.0 0
273275.0 367577.0 0
278814.0 367088.0 0
282621.0 368216.0 0
287747.0 366542.0 0
293291.0 367520.0 0
297342.0 367432.0 0
303866.0 375334.0 0
307145.0 375790.0 0
310186.0 375281.0 0
313341.0 375663.0 0
317983.0 375554.0 0
322597.0 375949.0 0
326646.0 375807.0 0
330042.0 375560.0 0
333481.0 376006.0 0
337617.0 375830.0 0
341740.0 375055.0 0
345854.0 376225.0 0
349840.0 375756.0 0
354204.0 375706.0 0
359099.0 376183.0 0
363287.0 375722.0 0
368636.0 375935.0 0
374286.0 375913.0 0
379949.0 375918.0 0
385169.0 375402.0 0
389687.0 375256.0 0
394168.0 375514.0 0
401597.0 375261.0 0
398125.0 376236.0 0
405922.0 375496.0 0
411000.0 376793.0 0
416453.0 376398.0 0
421213.0 375336.0 0
424197.0 375726.0 0
428027.0 375595.0 0
432312.0 375623.0 0
437779.0 375767.0 0
443331.0 375503.0 0
448333.0 375598.0 0
454871.0 375416.0 0
459244.0 375404.0 0
463453.0 375252.0 0
466667.0 376221.0 0
471584.0 375417.0 0
476152.0 375592.0 0
480592.0 375439.0 0
485249.0 375744.0 0
489233.0 376196.0 0
493095.0 375912.0 0
497573.0 375488.0 0
3166.01 379852.0 0
7684.4 379916.0 0
10536.4 377951.0 0
14294.6 379071.0 0
10891.1 381471.0 0
18309.4 379823.0 0
22417.1 380188.0 0
26717.1 380016.0 0
34632.5 379278.0 0
31665.1 381458.0 0
38504.1 379446.0 0
42533.6 379205.0 0
45976.8 378102.0 0
49887.1 378873.0 0
53658.4 379242.0 0
58464.8 379652.0 0
64260.4 378968.0 0
69207.6 379934.0 0
73083.0 381332.0 0
77737.7 379997.0 0
86848.2 378248.0 0
84080.9 380880.0 0
88902.7 380425.0 0
91964.0 378551.0 0
95402.8 378578.0 0
100494.0 376167.0 0
98628.2 379846.0 0
102555.0 379513.0 0
106461.0 379124.0 0
110193.0 378696.0 0
114559.0 379888.0 0
122472.0 378454.0 0
126300.0 378260.0 0
124412.0 380738.0 0
130750.0 378516.0 0
128129.0 381565.0 0
135026.0 378692.0 0
138374.0 380855.0 0
143031.0 379332.0 0
147697.0 381683.0 0
151730.0 378918.0 0
156788.0 379656.0 0
161335.0 379367.0 0
163922.0 382967.0 0
164869.0 379169.0 0
168413.0 381296.0 0
173220.0 380167.0 0
176801.0 378441.0 0
179497.0 378384.0 0
182152.0 379908.0 0
178631.0 381552.0 0
185674.0 376959.0 0
194249.0 377796.0 0
189859.0 380294.0 0
198339.0 380557.0 0
203698.0 373149.0 0
209563.0 372065.0 0
214816.0 371419.0 0
219398.0 373004.0 0
224369.0 372682.0 0
228837.0 372945.0 0
232408.0 371008.0 0
231626.0 375520.0 0
241045.0 372337.0 0
243078.0 375520.0 0
246277.0 371025.0 0
252015.0 371471.0 0
256923.0 372609.0 0
260849.0 370912.0 0
265940.0 371332.0 0
272234.0 372431.0 0
276079.0 372009.0 0
280207.0 371323.0 0
279256.0 375207.0 0
285011.0 371764.0 0
290735.0 371417.0 0
296371.0 372038.0 0
304870.0 378482.0 0
301005.0 376867.0 0
301692.0 381198.0 0
309808.0 378957.0 0
306066.0 381361.0 0
315071.0 379084.0 0
320263.0 379230.0 0
325213.0 379564.0 0
330142.0 379153.0 0
335828.0 380273.0 0
341488.0 378759.0 0
345289.0 380505.0 0
348112.0 378806.0 0
351656.0 379039.0 0
356144.0 379513.0 0
365284.0 378150.0 0
361652.0 381058.0 0
371796.0 380153.0 0
376775.0 380034.0 0
381007.0 381042.0 0
383577.0 377853.0 0
384998.0 380552.0 0
387899.0 378333.0 0
391818.0 377931.0 0
391519.0 380738.0 0
395052.0 378969.0 0
402100.0 378328.0 0
398592.0 379971.0 0
406639.0 379646.0 0
413629.0 380393.0 0
417561.0 381990.0 0
421154.0 378471.0 0
425614.0 378926.0 0
430115.0 379278.0 0
434215.0 378784.0 0
437523.0 380897.0 0
441678.0 379208.0 0
445746.0 378371.0 0
452174.0 377264.0 0
449290.0 380068.0 0
456817.0 379260.0 0
462353.0 378322.0 0
469385.0 378993.0 0
473974.0 378635.0 0
471915.0 381706.0 0
478300.0 378945.0 0
483005.0 379022.0 0
487270.0 379388.0 0
491915.0 380599.0 0
495396.0 378691.0 0
498747.0 378634.0 0
724.352 382724.0 0
2484.48 385250.0 0
6894.38 383138.0 0
15091.8 382896.0 0
10994.5 385334.0 0
19750.9 384035.0 0
23877.0 383031.0 0
23692.3 386370.0 0
28191.5 384811.0 0
33682.7 385852.0 0
36297.3 382383.0 0
38187.0 385666.0 0
40958.6 382529.0 0
44214.4 385028.0 0
46010.6 381704.0 0
50625.6 382435.0 0
47937.0 385793.0 0
54673.8 382727.0 0
51961.6 385901.0 0
55773.7 385690.0 0
58697.6 384125.0 0
62129.5 382384.0 0
62538.9 385864.0 0
66060.0 383227.0 0
70226.8 384010.0 0
75154.5 384424.0 0
80345.6 385115.0 0
85343.4 385730.0 0
88491.7 384055.0 0
93620.4 382465.0 0
97777.2 382948.0 0
101263.0 383558.0 0
104983.0 381748.0 0
105174.0 384843.0 0
109332.0 382799.0 0
111030.0 387101.0 0
114447.0 384287.0 0
119807.0 382059.0 0
124671.0 383926.0 0
129141.0 385094.0 0
132101.0 386261.0 0
133320.0 382505.0 0
135145.0 385099.0 0
137665.0 384641.0 0
142496.0 384144.0 0
146375.0 385088.0 0
149899.0 386363.0 0
152671.0 382790.0 0
156818.0 383936.0 0
154258.0 385879.0 0
160150.0 382550.0 0
164790.0 387349.0 0
171553.0 384909.0 0
167493.0 385006.0 0
175927.0 384014.0 0
181724.0 383119.0 0
185576.0 382169.0 0
189697.0 385384.0 0
194093.0 382832.0 0
198140.0 384473.0 0
203289.0 380079.0 0
207632.0 377803.0 0
211524.0 375977.0 0
216111.0 377002.0 0
221532.0 377261.0 0
227068.0 378121.0 0
232610.0 380588.0 0
237102.0 376026.0 0
248621.0 376393.0 0
254281.0 376611.0 0
258231.0 380034.0 0
262199.0 376018.0 0
268887.0 377278.0 0
275050.0 376440.0 0
278506.0 379781.0 0
283097.0 377634.0 0
288411.0 376074.0 0
293138.0 375707.0 0
291723.0 380846.0 0
296662.0 378433.0 0
304905.0 384242.0 0
301411.0 385292.0 0
309264.0 383280.0 0
312771.0 382211.0 0
313325.0 385538.0 0
317328.0 383211.0 0
321923.0 382205.0 0
325278.0 383556.0 0
321184.0 385802.0 0
328295.0 382155.0 0
328588.0 385035.0 0
331620.0 382883.0 0
331795.0 386159.0 0
336057.0 385354.0 0
341213.0 383070.0 0
345659.0 383784.0 0
348604.0 381919.0 0
349426.0 385296.0 0
352655.0 382802.0 0
356566.0 383153.0 0
359313.0 385844.0 0
366142.0 384444.0 0
367688.0 380983.0 0
370697.0 385218.0 0
374711.0 383686.0 0
378841.0 385502.0 0
384682.0 385226.0 0
388174.0 381931.0 0
390381.0 384412.0 0
395059.0 382933.0 0
399312.0 383181.0 0
402535.0 381995.0 0
402051.0 385500.0 0
406097.0 383856.0 0
410355.0 381909.0 0
413591.0 384474.0 0
422920.0 382311.0 0
420263.0 385229.0 0
427802.0 383306.0 0
424106.0 386160.0 0
433156.0 383032.0 0
430811.0 386334.0 0
437537.0 384665.0 0
441486.0 383443.0 0
445542.0 382035.0 0
449098.0 384074.0 0
445044.0 386261.0 0
452941.0 381792.0 0
452811.0 385937.0 0
457538.0 383919.0 0
460773.0 381592.0 0
462506.0 384605.0 0
465317.0 381209.0 0
468905.0 382729.0 0
466929.0 385989.0 0
471224.0 385104.0 0
475755.0 383037.0 0
480531.0 382989.0 0
482694.0 386498.0 0
484706.0 382871.0 0
488239.0 382823.0 0
486600.0 386038.0 0
494593.0 384999.0 0
490504.0 385309.0 0
497632.0 381917.0 0
498714.0 385443.0 0
1976.64 389355.0 0
6329.97 387269.0 0
10440.6 390352.0 0
15626.2 387434.0 0
20173.8 388266.0 0
17815.9 391046.0 0
23660.7 389666.0 0
26983.6 389134.0 0
30885.1 388616.0 0
34543.9 390837.0 0
36611.0 388327.0 0
40025.1 390438.0 0
41497.0 386567.0 0
44758.1 388788.0 0
49289.8 390207.0 0
54463.2 388871.0 0
58769.1 387651.0 0
62334.2 389792.0 0
66848.4 387429.0 0
72081.3 387933.0 0
76571.3 388068.0 0
79882.2 390693.0 0
83228.5 388751.0 0
91586.8 387100.0 0
97165.5 386914.0 0
102637.0 388360.0 0
107341.0 387708.0 0
114578.0 388993.0 0
118500.0 390393.0 0
118344.0 386618.0 0
122109.0 386629.0 0
120676.0 388655.0 0
122826.0 390967.0 0
126254.0 388036.0 0
130696.0 389225.0 0
134930.0 387417.0 0
134542.0 390942.0 0
139348.0 388741.0 0
144904.0 388770.0 0
149643.0 391264.0 0
153975.0 389203.0 0
157885.0 387324.0 0
161178.0 385772.0 0
161845.0 389582.0 0
169476.0 389665.0 0
174298.0 391256.0 0
174948.0 387688.0 0
178333.0 390091.0 0
179531.0 385954.0 0
183769.0 385639.0 0
182481.0 389059.0 0
186273.0 388192.0 0
194701.0 387418.0 0
198680.0 387643.0 0
202701.0 384822.0 0
207343.0 383103.0 0
212491.0 381523.0 0
217907.0 382486.0 0
223051.0 382069.0 0
227984.0 382804.0 0
237387.0 381341.0 0
242142.0 381006.0 0
247813.0 382269.0 0
253346.0 381883.0 0
258489.0 385098.0 0
262341.0 382389.0 0
266946.0 383234.0 0
272850.0 382782.0 0
278659.0 385436.0 0
281838.0 381721.0 0
286157.0 382969.0 0
296782.0 384021.0 0
304150.0 387415.0 0
301238.0 389197.0 0
305158.0 391160.0 0
308581.0 387619.0 0
313489.0 389718.0 0
317180.0 387853.0 0
320954.0 390089.0 0
325197.0 387379.0 0
329227.0 388937.0 0
333835.0 389879.0 0
339730.0 386307.0 0
339654.0 390439.0 0
343099.0 386979.0 0
344699.0 390442.0 0
346261.0 387115.0 0
349029.0 389713.0 0
354317.0 388110.0 0
360073.0 389811.0 0
363358.0 386851.0 0
367651.0 388409.0 0
372105.0 390206.0 0
374532.0 387163.0 0
381421.0 389366.0 0
377135.0 390077.0 0
385172.0 389439.0 0
389077.0 388009.0 0
393516.0 387265.0 0
396976.0 390699.0 0
398174.0 386307.0 0
401090.0 388853.0 0
405319.0 387768.0 0
409565.0 386214.0 0
408610.0 390312.0 0
412574.0 388691.0 0
416936.0 387453.0 0
421138.0 388377.0 0
427376.0 387466.0 0
424631.0 390442.0 0
430035.0 390520.0 0
435020.0 388018.0 0
440586.0 387670.0 0
449072.0 388653.0 0
444417.0 391153.0 0
453579.0 390815.0 0
456266.0 387642.0 0
460373.0 387570.0 0
463859.0 388148.0 0
466986.0 390527.0 0
470576.0 388991.0 0
474208.0 386973.0 0
478604.0 387160.0 0
474988.0 391087.0 0
480086.0 390829.0 0
484833.0 390328.0 0
489096.0 388486.0 0
492891.0 388816.0 0
497506.0 388836.0 0
2186.3 393404.0 0
5566.43 391295.0 0
7416.47 395205.0 0
12330.6 394341.0 0
14751.5 391803.0 0
21317.4 392843.0 0
25682.6 392970.0 0
29897.8 392158.0 0
32926.3 395243.0 0
37320.1 394375.0 0
45098.9 392846.0 0
41633.4 394382.0 0
53355.6 393006.0 0
57775.3 391397.0 0
57245.2 395365.0 0
60747.3 393202.0 0
65680.7 390904.0 0
64556.4 393767.0 0
69261.0 392526.0 0
75043.6 392027.0 0
79721.4 394187.0 0
83062.0 393813.0 0
87462.6 390548.0 0
94013.8 391692.0 0
90689.5 395062.0 0
99062.4 391208.0 0
98039.1 395319.0 0
106017.0 390943.0 0
103257.0 393411.0 0
110149.0 391913.0 0
115253.0 393109.0 0
119510.0 393962.0 0
124218.0 395827.0 0
127494.0 392276.0 0
131234.0 392843.0 0
129413.0 396371.0 0
134365.0 395710.0 0
137801.0 392943.0 0
141853.0 392880.0 0
145940.0 393407.0 0
153902.0 394130.0 0
158249.0 391480.0 0
162295.0 393219.0 0
164929.0 390789.0 0
166358.0 394043.0 0
171784.0 394637.0 0
176852.0 394225.0 0
181730.0 393542.0 0
185587.0 391401.0 0
186375.0 394896.0 0
190733.0 391281.0 0
197673.0 391721.0 0
202113.0 389126.0 0
206165.0 387970.0 0
211218.0 387123.0 0
216164.0 387007.0 0
218115.0 390832.0 0
220674.0 386973.0 0
225724.0 386469.0 0
231522.0 386625.0 0
237590.0 386188.0 0
242500.0 388796.0 0
248135.0 388238.0 0
253768.0 387227.0 0
259078.0 389445.0 0
263284.0 387304.0 0
268779.0 388236.0 0
273874.0 388274.0 0
283881.0 388153.0 0
288280.0 387345.0 0
287510.0 391536.0 0
292162.0 386324.0 0
296734.0 388970.0 0
301805.0 394272.0 0
309403.0 392876.0 0
313666.0 394067.0 0
317338.0 392117.0 0
325410.0 391637.0 0
321983.0 393946.0 0
329794.0 393768.0 0
333451.0 393599.0 0
336182.0 393600.0 0
346987.0 393121.0 0
343484.0 394373.0 0
351433.0 394078.0 0
356877.0 393268.0 0
361325.0 393450.0 0
364362.0 390802.0 0
368275.0 391972.0 0
371198.0 395246.0 0
374958.0 393396.0 0
378692.0 393847.0 0
388079.0 391226.0 0
383803.0 393553.0 0
391890.0 391236.0 0
389221.0 394761.0 0
394322.0 394915.0 0
403892.0 392056.0 0
399574.0 394792.0 0
407801.0 394696.0 0
411865.0 392827.0 0
415445.0 391087.0 0
415665.0 395101.0 0
419618.0 392089.0 0
423479.0 394483.0 0
427145.0 393782.0 0
431048.0 395770.0 0
434193.0 392504.0 0
436764.0 393471.0 0
438869.0 391522.0 0
441401.0 394743.0 0
449943.0 392239.0 0
445001.0 395602.0 0
447819.0 393921.0 0
452374.0 395588.0 0
458167.0 390776.0 0
457257.0 394387.0 0
462363.0 391855.0 0
466624.0 394832.0 0
470565.0 392990.0 0
473802.0 395208.0 0
477968.0 394758.0 0
482152.0 394166.0 0
486407.0 395721.0 0
489859.0 392422.0 0
494303.0 392785.0 0
498377.0 392628.0 0
2673.12 397858.0 0
11761.2 398137.0 0
17237.4 396132.0 0
23360.7 396997.0 0
20621.6 400449.0 0
28020.0 396213.0 0
26330.1 399994.0 0
30864.0 399082.0 0
35769.7 398950.0 0
40037.4 397575.0 0
44536.3 397347.0 0
42206.4 400092.0 0
49081.2 395610.0 0
47717.8 400058.0 0
51726.4 399813.0 0
53713.5 396835.0 0
61440.1 397124.0 0
66865.4 397600.0 0
72536.6 396880.0 0
77184.0 395033.0 0
77104.1 398281.0 0
80064.4 396816.0 0
83710.0 398396.0 0
86737.6 395638.0 0
88948.9 399876.0 0
93828.6 397986.0 0
102427.0 398257.0 0
107727.0 396790.0 0
112924.0 400048.0 0
112810.0 396595.0 0
116622.0 396517.0 0
116682.0 400372.0 0
119936.0 397706.0 0
126577.0 400563.0 0
132240.0 400647.0 0
139383.0 396376.0 0
143842.0 397074.0 0
149029.0 397013.0 0
158906.0 395813.0 0
154782.0 399542.0 0
163112.0 397069.0 0
159976.0 399926.0 0
168777.0 396421.0 0
166682.0 398675.0 0
170623.0 398991.0 0
174875.0 398240.0 0
179364.0 397860.0 0
183111.0 397359.0 0
186481.0 399578.0 0
190543.0 397091.0 0
194756.0 395141.0 0
198496.0 397103.0 0
204743.0 392501.0 0
208818.0 391351.0 0
208384.0 396023.0 0
213607.0 391916.0 0
219235.0 395199.0 0
222456.0 391860.0 0
227624.0 391713.0 0
233207.0 392276.0 0
238246.0 391531.0 0
241761.0 393368.0 0
245392.0 392631.0 0
251282.0 392951.0 0
255778.0 391599.0 0
257982.0 395526.0 0
261926.0 391718.0 0
262873.0 395905.0 0
267303.0 393408.0 0
271746.0 392063.0 0
271987.0 396549.0 0
277442.0 391796.0 0
280343.0 396371.0 0
282116.0 392111.0 0
284562.0 395815.0 0
288540.0 396259.0 0
292641.0 391276.0 0
293120.0 396297.0 0
296645.0 394026.0 0
302581.0 399456.0 0
306314.0 396176.0 0
307181.0 399928.0 0
311082.0 397970.0 0
319369.0 394616.0 0
316578.0 397218.0 0
321283.0 397529.0 0
325593.0 396562.0 0
328450.0 400095.0 0
333681.0 398095.0 0
339248.0 396015.0 0
338511.0 399801.0 0
342831.0 399290.0 0
347103.0 397031.0 0
350816.0 398767.0 0
355080.0 397936.0 0
360104.0 397334.0 0
365356.0 395726.0 0
368179.0 399205.0 0
372122.0 399953.0 0
376039.0 397143.0 0
381094.0 397587.0 0
386402.0 398335.0 0
391458.0 398699.0 0
397302.0 399470.0 0
401308.0 399278.0 0
403634.0 396970.0 0
407093.0 399768.0 0
411339.0 397369.0 0
415044.0 399525.0 0
420346.0 397543.0 0
426316.0 398342.0 0
431985.0 400590.0 0
436723.0 396996.0 0
442235.0 399156.0 0
448023.0 397455.0 0
451713.0 400377.0 0
457042.0 399516.0 0
461777.0 396803.0 0
466135.0 399976.0 0
470714.0 397395.0 0
475931.0 399619.0 0
480976.0 398071.0 0
484785.0 399955.0 0
491729.0 397788.0 0
497256.0 397128.0 0
1897.15 402068.0 0
7083.49 400464.0 0
4998.51 403887.0 0
11310.9 402297.0 0
15912.3 401445.0 0
23949.7 404816.0 0
29206.4 402927.0 0
33081.6 401959.0 0
39406.1 401257.0 0
36454.8 403614.0 0
44523.6 401831.0 0
49719.6 402855.0 0
53271.8 403738.0 0
56844.4 400080.0 0
62780.7 402221.0 0
68094.2 402161.0 0
71291.6 401366.0 0
74955.6 401921.0 0
79736.5 401444.0 0
84722.1 403118.0 0
93518.0 402962.0 0
98104.8 400614.0 0
105646.0 401263.0 0
109753.0 402018.0 0
113787.0 403644.0 0
121376.0 401371.0 0
117963.0 405586.0 0
129499.0 404516.0 0
133289.0 404968.0 0
136794.0 399416.0 0
141077.0 400358.0 0
142577.0 404415.0 0
145721.0 400939.0 0
149921.0 401416.0 0
158426.0 404023.0 0
163712.0 401462.0 0
168354.0 403418.0 0
172993.0 401881.0 0
177330.0 402153.0 0
181997.0 401556.0 0
190727.0 402400.0 0
194852.0 399468.0 0
194958.0 403060.0 0
198563.0 400924.0 0
203084.0 397315.0 0
208153.0 401207.0 0
214143.0 397638.0 0
218520.0 401782.0 0
222462.0 398556.0 0
226682.0 396782.0 0
231442.0 397198.0 0
236780.0 396589.0 0
241772.0 397116.0 0
247514.0 397921.0 0
253534.0 397494.0 0
257702.0 400949.0 0
262755.0 400589.0 0
267256.0 398724.0 0
276031.0 398661.0 0
284818.0 400504.0 0
297248.0 398654.0 0
301627.0 403739.0 0
310171.0 402292.0 0
314513.0 401503.0 0
319423.0 401134.0 0
323927.0 400753.0 0
326660.0 404537.0 0
322299.0 403964.0 0
331926.0 403664.0 0
336138.0 402413.0 0
339964.0 402844.0 0
347413.0 402555.0 0
353223.0 402591.0 0
357992.0 401330.0 0
363467.0 401457.0 0
368577.0 403402.0 0
375633.0 401167.0 0
378611.0 400456.0 0
383229.0 402547.0 0
388899.0 402743.0 0
393549.0 402561.0 0
397243.0 404246.0 0
402358.0 403313.0 0
407710.0 404261.0 0
411157.0 401708.0 0
418455.0 402003.0 0
414627.0 404381.0 0
423034.0 402332.0 0
427762.0 403175.0 0
433189.0 405228.0 0
437539.0 402515.0 0
442522.0 404166.0 0
446925.0 401701.0 0
454874.0 403561.0 0
459330.0 404817.0 0
461678.0 401315.0 0
464490.0 404537.0 0
470254.0 401647.0 0
473308.0 403865.0 0
477580.0 404827.0 0
480868.0 402391.0 0
484774.0 404102.0 0
488894.0 402000.0 0
497432.0 402215.0 0
1969.15 405889.0 0
8640.81 405344.0 0
5505.52 407876.0 0
13412.9 405909.0 0
18238.1 405735.0 0
28709.2 406756.0 0
32612.4 405567.0 0
36430.1 408318.0 0
41276.4 405518.0 0
47012.9 405489.0 0
51091.0 407134.0 0
54359.2 407248.0 0
57673.6 405120.0 0
62055.5 407859.0 0
66817.1 406367.0 0
69604.4 409990.0 0
71654.1 405470.0 0
76849.6 405734.0 0
81139.4 405516.0 0
84743.6 408129.0 0
89068.2 405554.0 0
98128.1 405625.0 0
102255.0 403318.0 0
106505.0 405436.0 0
111058.0 407046.0 0
124090.0 405878.0 0
128557.0 408077.0 0
131932.0 407655.0 0
137214.0 403958.0 0
139529.0 407379.0 0
143332.0 408904.0 0
147752.0 405644.0 0
152218.0 408732.0 0
153260.0 404400.0 0
155953.0 407186.0 0
159493.0 408361.0 0
163220.0 405771.0 0
167311.0 408437.0 0
174000.0 406780.0 0
180285.0 406307.0 0
185908.0 404362.0 0
189453.0 406655.0 0
193434.0 406291.0 0
197968.0 405165.0 0
203105.0 402773.0 0
207153.0 405808.0 0
212860.0 403588.0 0
222837.0 402449.0 0
221300.0 406226.0 0
226924.0 401641.0 0
226112.0 406514.0 0
232212.0 402403.0 0
237557.0 402007.0 0
242688.0 401747.0 0
247336.0 404224.0 0
252328.0 402411.0 0
255878.0 406198.0 0
262261.0 406617.0 0
266226.0 404212.0 0
271991.0 402271.0 0
279378.0 401726.0 0
282298.0 405259.0 0
287169.0 406271.0 0
291225.0 401453.0 0
296718.0 404350.0 0
305785.0 403405.0 0
303235.0 407806.0 0
309072.0 406364.0 0
312849.0 404986.0 0
317631.0 405845.0 0
322743.0 407775.0 0
330510.0 408345.0 0
336604.0 407047.0 0
342844.0 406211.0 0
350061.0 407150.0 0
354781.0 406999.0 0
359461.0 405395.0 0
364644.0 407735.0 0
370333.0 407771.0 0
373314.0 404255.0 0
375528.0 408679.0 0
377912.0 404288.0 0
381135.0 407586.0 0
386777.0 407463.0 0
392820.0 407262.0 0
399166.0 408255.0 0
405175.0 407425.0 0
410895.0 407139.0 0
419486.0 406165.0 0
424382.0 407147.0 0
429226.0 407349.0 0
433336.0 409792.0 0
437010.0 407306.0 0
440777.0 407545.0 0
446524.0 406292.0 0
450866.0 404888.0 0
454913.0 407507.0 0
458888.0 409737.0 0
462662.0 408033.0 0
469206.0 406097.0 0
474373.0 408468.0 0
481830.0 408061.0 0
488167.0 406800.0 0
493065.0 404596.0 0
497695.0 407001.0 0
2025.08 409793.0 0
1620.97 413093.0 0
6447.48 412661.0 0
10603.7 409398.0 0
15340.3 409990.0 0
20794.5 410268.0 0
26341.7 410586.0 0
29962.0 413904.0 0
31568.5 409871.0 0
40392.8 410835.0 0
44300.6 409068.0 0
44182.9 412877.0 0
48328.0 410459.0 0
53279.0 410948.0 0
57930.0 410023.0 0
65315.3 411184.0 0
74403.4 410303.0 0
80016.9 409862.0 0
88675.3 410880.0 0
93771.0 408756.0 0
98655.9 410279.0 0
102683.0 408102.0 0
103254.0 413011.0 0
107289.0 410184.0 0
114912.0 410644.0 0
120395.0 410489.0 0
125713.0 411591.0 0
130664.0 411055.0 0
134738.0 413316.0 0
135479.0 408452.0 0
138972.0 411060.0 0
143114.0 413755.0 0
147843.0 411085.0 0
156267.0 410423.0 0
163186.0 410860.0 0
170636.0 410512.0 0
173819.0 412643.0 0
177412.0 410408.0 0
181042.0 410658.0 0
185545.0 409050.0 0
190107.0 410026.0 0
188085.0 412880.0 0
193957.0 410151.0 0
198315.0 409010.0 0
197529.0 413261.0 0
202766.0 408335.0 0
207301.0 410860.0 0
210912.0 408096.0 0
216340.0 407849.0 0
222128.0 411350.0 0
227556.0 411813.0 0
230915.0 407583.0 0
236840.0 407903.0 0
242531.0 406772.0 0
247193.0 408576.0 0
249761.0 411510.0 0
251204.0 407297.0 0
258932.0 411170.0 0
265849.0 409022.0 0
270371.0 407892.0 0
276680.0 407229.0 0
282954.0 410179.0 0
292457.0 408014.0 0
298506.0 409190.0 0
297631.0 413145.0 0
307644.0 410927.0 0
313181.0 409416.0 0
318944.0 411836.0 0
324548.0 411722.0 0
326350.0 408466.0 0
327611.0 410728.0 0
333828.0 411253.0 0
340648.0 410736.0 0
346221.0 410784.0 0
352484.0 412092.0 0
358958.0 410641.0 0
365621.0 413451.0 0
370286.0 411898.0 0
379619.0 412120.0 0
383905.0 410824.0 0
389582.0 412641.0 0
395518.0 412228.0 0
400026.0 412840.0 0
403131.0 410603.0 0
408092.0 411259.0 0
412751.0 413705.0 0
415490.0 409531.0 0
417448.0 414181.0 0
420641.0 410660.0 0
425101.0 411661.0 0
429362.0 411693.0 0
435950.0 412466.0 0
436424.0 410214.0 0
439413.0 411218.0 0
442137.0 414250.0 0
444213.0 410168.0 0
450160.0 410088.0 0
455030.0 411965.0 0
462757.0 411876.0 0
466378.0 409991.0 0
470475.0 410526.0 0
473694.0 413724.0 0
477947.0 411485.0 0
486707.0 411743.0 0
492428.0 409816.0 0
497435.0 411622.0 0
2691.03 416889.0 0
11975.0 413843.0 0
17313.0 414611.0 0
23402.0 414761.0 0
28223.2 417492.0 0
35384.7 413943.0 0
39671.2 414035.0 0
41799.1 417124.0 0
45220.5 415629.0 0
47683.1 414379.0 0
51760.7 415840.0 0
57057.6 414703.0 0
62090.0 414523.0 0
68433.5 414529.0 0
73098.1 416052.0 0
77203.3 418785.0 0
78042.0 414517.0 0
81507.9 417588.0 0
84107.9 413349.0 0
88259.7 415397.0 0
92936.2 414273.0 0
97922.2 414032.0 0
101091.0 417119.0 0
106454.0 417259.0 0
110413.0 413738.0 0
111550.0 418581.0 0
114229.0 415472.0 0
118372.0 415107.0 0
122284.0 418290.0 0
122346.0 414188.0 0
127032.0 416452.0 0
130578.0 414519.0 0
138640.0 417897.0 0
147845.0 415795.0 0
144238.0 418171.0 0
152963.0 414062.0 0
159113.0 412954.0 0
157668.0 416965.0 0
162609.0 415711.0 0
167739.0 413766.0 0
172354.0 417874.0 0
178397.0 415042.0 0
183940.0 413910.0 0
187632.0 416989.0 0
192198.0 414717.0 0
203138.0 413954.0 0
208148.0 416897.0 0
211932.0 412732.0 0
217151.0 413185.0 0
222500.0 416561.0 0
228202.0 416968.0 0
232948.0 412457.0 0
238305.0 414029.0 0
244033.0 412154.0 0
248194.0 416287.0 0
253849.0 413313.0 0
264035.0 412587.0 0
261471.0 416275.0 0
268375.0 412306.0 0
266031.0 416274.0 0
273122.0 412270.0 0
270456.0 416269.0 0
278360.0 413493.0 0
282830.0 416449.0 0
288223.0 411990.0 0
293293.0 413130.0 0
298443.0 416761.0 0
302450.0 413107.0 0
306587.0 415452.0 0
311804.0 414944.0 0
316087.0 415486.0 0
318891.0 416925.0 0
323247.0 415894.0 0
329639.0 414729.0 0
337128.0 413761.0 0
334964.0 418293.0 0
342362.0 416043.0 0
348126.0 415794.0 0
353539.0 417389.0 0
356800.0 414944.0 0
361067.0 415286.0 0
369903.0 416064.0 0
374605.0 414066.0 0
379190.0 416952.0 0
384018.0 414852.0 0
383068.0 418933.0 0
388149.0 418657.0 0
394627.0 417705.0 0
399426.0 416221.0 0
403987.0 415279.0 0
408971.0 416044.0 0
418568.0 418827.0 0
422131.0 415161.0 0
427476.0 416028.0 0
432869.0 414872.0 0
438024.0 415805.0 0
442802.0 419058.0 0
446835.0 414916.0 0
452137.0 415396.0 0
459070.0 415278.0 0
464309.0 415278.0 0
462897.0 418755.0 0
468633.0 414343.0 0
471522.0 417617.0 0
477877.0 415123.0 0
481765.0 413606.0 0
485163.0 416391.0 0
491489.0 415337.0 0
497201.0 416508.0 0
2443.28 421516.0 0
8111.02 418342.0 0
13371.5 418375.0 0
10661.8 421770.0 0
14043.9 422742.0 0
18695.5 420209.0 0
24245.8 419329.0 0
28385.4 422364.0 0
32866.0 419337.0 0
37470.6 418489.0 0
43303.5 421591.0 0
47052.0 418645.0 0
51529.0 420980.0 0
55452.4 418983.0 0
60148.3 418977.0 0
57308.9 422727.0 0
62723.6 422932.0 0
65531.0 418659.0 0
70503.3 420363.0 0
74878.4 422342.0 0
80409.1 422675.0 0
85660.9 418401.0 0
85740.0 422553.0 0
90774.7 420087.0 0
96270.0 418230.0 0
102825.0 421869.0 0
108513.0 422639.0 0
116824.0 420866.0 0
122480.0 423006.0 0
127111.0 421404.0 0
132240.0 418664.0 0
135684.0 422969.0 0
142919.0 422968.0 0
148309.0 420402.0 0
152734.0 419057.0 0
152656.0 423102.0 0
156249.0 420981.0 0
161150.0 420776.0 0
166555.0 418868.0 0
165102.0 422934.0 0
177715.0 420537.0 0
173944.0 422908.0 0
182830.0 418847.0 0
186846.0 422213.0 0
191487.0 420134.0 0
197137.0 419081.0 0
194653.0 423503.0 0
201958.0 418227.0 0
207388.0 422285.0 0
214110.0 417559.0 0
212002.0 421917.0 0
218667.0 417216.0 0
217505.0 421920.0 0
222764.0 421703.0 0
226816.0 420842.0 0
234051.0 417575.0 0
231106.0 421901.0 0
238641.0 418991.0 0
242905.0 417612.0 0
246450.0 421859.0 0
252495.0 417031.0 0
252226.0 421333.0 0
256622.0 417224.0 0
262586.0 421224.0 0
268053.0 420859.0 0
275213.0 418139.0 0
282642.0 421034.0 0
288257.0 417828.0 0
294120.0 417894.0 0
297433.0 421684.0 0
303111.0 418558.0 0
308237.0 418722.0 0
307188.0 422792.0 0
311581.0 419614.0 0
315332.0 418971.0 0
316822.0 423536.0 0
321024.0 420544.0 0
326426.0 420221.0 0
339051.0 419495.0 0
342213.0 421687.0 0
346243.0 419836.0 0
350286.0 419319.0 0
349028.0 423339.0 0
358068.0 419433.0 0
353476.0 421353.0 0
364334.0 418477.0 0
368313.0 419619.0 0
373992.0 420175.0 0
379949.0 421829.0 0
384436.0 422479.0 0
382152.0 425166.0 0
392152.0 423499.0 0
397714.0 421585.0 0
401716.0 419924.0 0
406712.0 419597.0 0
413054.0 418680.0 0
415875.0 423744.0 0
423833.0 419851.0 0
428446.0 420473.0 0
426326.0 423757.0 0
432734.0 419687.0 0
437509.0 420648.0 0
440937.0 423824.0 0
449037.0 419414.0 0
451792.0 423126.0 0
454922.0 419223.0 0
459295.0 420232.0 0
462442.0 422884.0 0
467327.0 419111.0 0
471390.0 421681.0 0
475358.0 417994.0 0
480617.0 418537.0 0
484777.0 420156.0 0
488105.0 418948.0 0
492375.0 420894.0 0
497564.0 421393.0 0
2060.65 425744.0 0
7032.44 424052.0 0
11634.6 426074.0 0
17412.7 425675.0 0
23229.1 424380.0 0
27773.4 427996.0 0
33720.0 425652.0 0
38890.9 422475.0 0
42312.8 425937.0 0
47409.9 423541.0 0
46570.5 427964.0 0
52889.0 427075.0 0
59705.7 426936.0 0
64808.7 427635.0 0
67277.1 423727.0 0
69610.2 428280.0 0
71379.0 424466.0 0
76745.9 426602.0 0
86860.5 426769.0 0
92080.7 426196.0 0
97141.8 423143.0 0
104011.0 427633.0 0
109557.0 427705.0 0
112911.0 424706.0 0
116653.0 426271.0 0
120000.0 425704.0 0
123232.0 427415.0 0
127727.0 426226.0 0
131124.0 423464.0 0
133080.0 428186.0 0
138790.0 427027.0 0
148439.0 425311.0 0
157789.0 425095.0 0
153429.0 427542.0 0
162852.0 426684.0 0
169348.0 423531.0 0
177242.0 424925.0 0
181802.0 424307.0 0
187314.0 426998.0 0
192200.0 427054.0 0
198241.0 424110.0 0
202351.0 422444.0 0
218334.0 427024.0 0
226897.0 425387.0 0
236008.0 422351.0 0
241229.0 422264.0 0
242810.0 426237.0 0
252371.0 425907.0 0
257517.0 422206.0 0
261210.0 425770.0 0
265967.0 425943.0 0
273009.0 423049.0 0
270519.0 426860.0 0
278215.0 422671.0 0
286560.0 423190.0 0
291857.0 422672.0 0
299387.0 427488.0 0
302337.0 423533.0 0
305443.0 427200.0 0
309472.0 426498.0 0
311894.0 423232.0 0
313502.0 427431.0 0
318119.0 428169.0 0
322013.0 425311.0 0
326791.0 425338.0 0
331734.0 423120.0 0
337475.0 423345.0 0
336751.0 428451.0 0
345150.0 424120.0 0
341795.0 426842.0 0
346672.0 427275.0 0
352356.0 427434.0 0
356644.0 424343.0 0
359252.0 427381.0 0
362353.0 423649.0 0
368671.0 424569.0 0
373612.0 425423.0 0
375894.0 428031.0 0
377044.0 424759.0 0
379618.0 427591.0 0
387323.0 424917.0 0
389719.0 428286.0 0
396641.0 425002.0 0
400654.0 424613.0 0
405069.0 423747.0 0
403860.0 428609.0 0
408025.0 427537.0 0
410035.0 423509.0 0
421613.0 424655.0 0
427463.0 427512.0 0
430947.0 424330.0 0
436228.0 425775.0 0
438796.0 428889.0 0
442843.0 428343.0 0
446163.0 423724.0 0
453389.0 427944.0 0
456908.0 423904.0 0
463130.0 427573.0 0
467188.0 424193.0 0
472164.0 426836.0 0
476602.0 422895.0 0
482187.0 423733.0 0
482741.0 428098.0 0
487592.0 423507.0 0
494153.0 425958.0 0
498383.0 425380.0 0
3314.51 430691.0 0
8398.24 428889.0 0
12401.8 430114.0 0
17632.5 432792.0 0
20812.4 428257.0 0
23804.9 431414.0 0
38585.4 428784.0 0
38769.1 431824.0 0
42835.8 431418.0 0
48803.9 431323.0 0
57399.6 431623.0 0
62081.9 431341.0 0
73592.5 428701.0 0
71770.4 433117.0 0
77054.0 431615.0 0
81845.2 428390.0 0
86310.7 431251.0 0
94131.6 430097.0 0
98032.3 428607.0 0
107341.0 432420.0 0
113623.0 428955.0 0
117689.0 430746.0 0
122901.0 432792.0 0
128139.0 430910.0 0
131657.0 432952.0 0
138508.0 432497.0 0
144209.0 429051.0 0
147870.0 432575.0 0
149563.0 429401.0 0
157798.0 430173.0 0
162989.0 432569.0 0
167600.0 428074.0 0
173298.0 428336.0 0
179096.0 428713.0 0
183458.0 428819.0 0
184531.0 432707.0 0
189281.0 431590.0 0
193740.0 430995.0 0
196537.0 427946.0 0
197691.0 432031.0 0
201011.0 427884.0 0
202972.0 432218.0 0
206693.0 427487.0 0
208293.0 432240.0 0
212777.0 427292.0 0
217602.0 431581.0 0
222618.0 427570.0 0
222412.0 432121.0 0
227858.0 431102.0 0
232087.0 427177.0 0
232966.0 431723.0 0
237503.0 427316.0 0
241648.0 430490.0 0
247786.0 427887.0 0
256684.0 427299.0 0
261340.0 431565.0 0
268078.0 431307.0 0
275872.0 427699.0 0
282250.0 427238.0 0
283466.0 432124.0 0
288359.0 428379.0 0
294035.0 428155.0 0
302960.0 431805.0 0
309427.0 431730.0 0
315006.0 431593.0 0
319217.0 432290.0 0
322179.0 429639.0 0
325960.0 429224.0 0
331220.0 429219.0 0
327518.0 433028.0 0
338178.0 433016.0 0
343089.0 432033.0 0
348449.0 431685.0 0
353665.0 432660.0 0
358096.0 430969.0 0
362163.0 429606.0 0
366616.0 429837.0 0
370591.0 433023.0 0
372128.0 428825.0 0
375984.0 432421.0 0
380976.0 433037.0 0
384487.0 429015.0 0
394509.0 428573.0 0
397143.0 431522.0 0
398995.0 428638.0 0
400676.0 432231.0 0
408008.0 431611.0 0
412331.0 428611.0 0
418115.0 429321.0 0
422334.0 431592.0 0
423881.0 428598.0 0
426625.0 432094.0 0
431605.0 429310.0 0
436285.0 432757.0 0
448131.0 428504.0 0
451008.0 433045.0 0
458424.0 428532.0 0
461255.0 431705.0 0
467635.0 429036.0 0
465086.0 432293.0 0
471107.0 432275.0 0
477811.0 429022.0 0
482425.0 432538.0 0
487567.0 429030.0 0
492946.0 430957.0 0
497872.0 428954.0 0
497498.0 433368.0 0
3565.25 437419.0 0
9212.06 433958.0 0
13471.1 437759.0 0
23166.9 436201.0 0
28604.2 433831.0 0
34599.9 432463.0 0
39538.2 436123.0 0
46823.0 435739.0 0
52690.1 434074.0 0
61813.9 436600.0 0
66573.6 432947.0 0
78002.5 436612.0 0
82260.3 434023.0 0
91186.0 433173.0 0
86845.9 436876.0 0
96305.9 433272.0 0
101520.0 433387.0 0
113067.0 434207.0 0
118329.0 435885.0 0
128082.0 436650.0 0
134425.0 436923.0 0
143810.0 434703.0 0
152884.0 433033.0 0
148726.0 437098.0 0
158069.0 436457.0 0
167682.0 436998.0 0
169044.0 432960.0 0
173909.0 433679.0 0
178322.0 433508.0 0
182230.0 436637.0 0
187363.0 436572.0 0
193288.0 435983.0 0
198256.0 436799.0 0
201818.0 436721.0 0
205906.0 436183.0 0
212975.0 433093.0 0
217446.0 436471.0 0
222251.0 436890.0 0
227149.0 436718.0 0
232031.0 436048.0 0
237465.0 432720.0 0
241599.0 435776.0 0
245599.0 432906.0 0
249979.0 432546.0 0
254877.0 432512.0 0
251652.0 436553.0 0
268811.0 436461.0 0
273681.0 432859.0 0
279199.0 432761.0 0
283401.0 436592.0 0
286969.0 433088.0 0
287959.0 436724.0 0
291355.0 432681.0 0
293511.0 436863.0 0
297423.0 432399.0 0
297565.0 436871.0 0
302699.0 437518.0 0
314201.0 436568.0 0
319248.0 436347.0 0
323145.0 434173.0 0
327847.0 437829.0 0
333510.0 434369.0 0
337080.0 437366.0 0
341256.0 436477.0 0
346062.0 436415.0 0
351476.0 437473.0 0
357422.0 435145.0 0
361580.0 433922.0 0
366059.0 434467.0 0
363589.0 438175.0 0
369102.0 437146.0 0
373489.0 437189.0 0
378360.0 436998.0 0
384802.0 433747.0 0
382923.0 437833.0 0
387551.0 436696.0 0
391544.0 433109.0 0
396903.0 435873.0 0
402683.0 436539.0 0
408657.0 437217.0 0
413698.0 433935.0 0
419313.0 435076.0 0
424516.0 436786.0 0
428356.0 435984.0 0
430943.0 433675.0 0
432707.0 437368.0 0
436916.0 438154.0 0
441403.0 432648.0 0
442179.0 436855.0 0
445580.0 432789.0 0
447537.0 437518.0 0
453776.0 437499.0 0
456875.0 433405.0 0
462559.0 436211.0 0
467654.0 435776.0 0
475361.0 433415.0 0
478803.0 436602.0 0
487297.0 434366.0 0
491855.0 435640.0 0
498016.0 437695.0 0
8957.69 440577.0 0
18910.5 439601.0 0
27152.2 439048.0 0
32749.7 438537.0 0
37874.8 441652.0 0
43450.4 440495.0 0
50868.4 439591.0 0
56228.8 438634.0 0
61383.6 441727.0 0
65096.6 442776.0 0
67651.7 438514.0 0
73385.6 438387.0 0
77212.8 441703.0 0
82110.7 439273.0 0
86339.8 441970.0 0
91948.1 438704.0 0
96998.1 437728.0 0
101847.0 438746.0 0
107850.0 438703.0 0
112484.0 442407.0 0
115009.0 438966.0 0
122380.0 438904.0 0
118169.0 441069.0 0
131996.0 441431.0 0
137032.0 442339.0 0
139833.0 437874.0 0
144389.0 439902.0 0
153222.0 438061.0 0
153587.0 442694.0 0
159253.0 442437.0 0
163842.0 438707.0 0
171731.0 438264.0 0
168335.0 441873.0 0
177372.0 438588.0 0
181558.0 441477.0 0
186540.0 441714.0 0
192338.0 442389.0 0
197703.0 440881.0 0
202742.0 441220.0 0
208543.0 440970.0 0
212822.0 437883.0 0
213796.0 442201.0 0
218038.0 441550.0 0
222159.0 441624.0 0
226422.0 441563.0 0
232071.0 441443.0 0
236687.0 437839.0 0
238116.0 442040.0 0
242211.0 440925.0 0
246709.0 437981.0 0
252116.0 441086.0 0
256996.0 438347.0 0
263648.0 438167.0 0
268989.0 441580.0 0
273128.0 437994.0 0
273999.0 442423.0 0
277959.0 437779.0 0
279501.0 442373.0 0
284293.0 441750.0 0
288548.0 441611.0 0
292811.0 441585.0 0
297155.0 440077.0 0
308519.0 438298.0 0
318364.0 441357.0 0
322992.0 438687.0 0
328936.0 442858.0 0
332919.0 439499.0 0
337362.0 442192.0 0
342144.0 441018.0 0
347488.0 441805.0 0
352871.0 442569.0 0
358335.0 440431.0 0
367605.0 441715.0 0
373500.0 442540.0 0
378848.0 441774.0 0
387769.0 441715.0 0
392013.0 438473.0 0
396032.0 441388.0 0
401358.0 441874.0 0
411207.0 441673.0 0
413776.0 438611.0 0
414395.0 442969.0 0
418293.0 440740.0 0
423846.0 441946.0 0
428725.0 439938.0 0
433601.0 442161.0 0
438612.0 442097.0 0
442349.0 441107.0 0
446098.0 442282.0 0
451556.0 442386.0 0
458182.0 438282.0 0
456330.0 441656.0 0
460947.0 441896.0 0
465922.0 440594.0 0
472831.0 438043.0 0
484043.0 438413.0 0
480230.0 441446.0 0
488387.0 438255.0 0
494291.0 438769.0 0
497188.0 442404.0 0
3317.06 444205.0 0
8778.12 445590.0 0
14163.1 443711.0 0
19272.6 444416.0 0
23623.7 442888.0 0
21941.1 446999.0 0
28658.1 443592.0 0
33305.9 444083.0 0
37297.2 447635.0 0
43010.4 446192.0 0
47812.5 443177.0 0
52481.1 444469.0 0
57743.9 443084.0 0
56825.8 447170.0 0
62415.2 447000.0 0
68820.6 446252.0 0
73689.9 443408.0 0
77385.7 446942.0 0
81717.0 444416.0 0
90721.1 443216.0 0
87698.1 446904.0 0
95495.5 442697.0 0
93004.7 447419.0 0
100862.0 443716.0 0
97481.9 446888.0 0
106103.0 444582.0 0
110681.0 447178.0 0
116500.0 446254.0 0
121284.0 443770.0 0
126868.0 443305.0 0
132957.0 446299.0 0
142043.0 444387.0 0
137964.0 447128.0 0
146083.0 447335.0 0
148341.0 442845.0 0
150825.0 446981.0 0
160671.0 447460.0 0
164502.0 444254.0 0
173117.0 443343.0 0
169805.0 447435.0 0
177479.0 443373.0 0
175486.0 447787.0 0
181187.0 446929.0 0
187205.0 447232.0 0
197185.0 446054.0 0
201848.0 446834.0 0
205587.0 445488.0 0
212353.0 446792.0 0
216895.0 446666.0 0
221192.0 446505.0 0
226655.0 446728.0 0
231596.0 446556.0 0
236892.0 446898.0 0
243172.0 446374.0 0
247154.0 443007.0 0
248120.0 446988.0 0
252090.0 445643.0 0
257580.0 443246.0 0
256603.0 447210.0 0
261149.0 442851.0 0
261378.0 447138.0 0
266341.0 446626.0 0
271348.0 446604.0 0
276392.0 446619.0 0
282688.0 446332.0 0
287500.0 446574.0 0
292563.0 446606.0 0
296995.0 444507.0 0
302887.0 443224.0 0
307775.0 443379.0 0
308904.0 446916.0 0
312620.0 443085.0 0
317027.0 446634.0 0
323760.0 443621.0 0
326181.0 447209.0 0
330691.0 447835.0 0
333355.0 443927.0 0
335962.0 447227.0 0
341596.0 446687.0 0
347834.0 447794.0 0
360288.0 446922.0 0
363000.0 442659.0 0
366493.0 447466.0 0
374558.0 447151.0 0
379110.0 447257.0 0
383216.0 442423.0 0
383909.0 446533.0 0
392002.0 443360.0 0
389014.0 447205.0 0
393876.0 446736.0 0
398159.0 445958.0 0
402974.0 446908.0 0
406696.0 443189.0 0
407631.0 446710.0 0
411258.0 446444.0 0
417133.0 446615.0 0
422223.0 446764.0 0
427480.0 446631.0 0
432490.0 446706.0 0
436847.0 446568.0 0
442452.0 446174.0 0
447960.0 446495.0 0
457742.0 445652.0 0
466390.0 445919.0 0
470302.0 443093.0 0
472148.0 447321.0 0
475583.0 443938.0 0
484377.0 443314.0 0
480736.0 446438.0 0
490509.0 443182.0 0
497579.0 447587.0 0
1962.84 449221.0 0
6163.43 449340.0 0
12098.5 449138.0 0
17656.2 448983.0 0
20316.8 452136.0 0
23502.6 451436.0 0
26035.8 447578.0 0
29131.1 452263.0 0
32398.0 448352.0 0
41229.0 450715.0 0
48219.3 447937.0 0
47635.0 452230.0 0
52854.7 450094.0 0
57496.1 452001.0 0
61941.0 452256.0 0
66365.0 451612.0 0
71066.9 451332.0 0
73448.9 448128.0 0
75814.2 451660.0 0
83338.0 448732.0 0
87081.8 452493.0 0
92345.2 452315.0 0
96861.0 451097.0 0
102518.0 448424.0 0
106543.0 448928.0 0
121605.0 448307.0 0
118096.0 452408.0 0
126183.0 449035.0 0
123360.0 452611.0 0
130749.0 451602.0 0
135825.0 450630.0 0
141789.0 449212.0 0
143417.0 452330.0 0
147389.0 452236.0 0
152419.0 451442.0 0
155767.0 447617.0 0
156793.0 452118.0 0
164891.0 449418.0 0
167796.0 452623.0 0
178108.0 451805.0 0
182340.0 451993.0 0
192412.0 449686.0 0
197468.0 451497.0 0
202029.0 451876.0 0
207747.0 451234.0 0
216032.0 451113.0 0
220605.0 451520.0 0
225737.0 452253.0 0
231029.0 451250.0 0
235881.0 452367.0 0
240543.0 452372.0 0
246348.0 451983.0 0
253319.0 452271.0 0
259709.0 452001.0 0
269022.0 451658.0 0
273431.0 451314.0 0
278573.0 451744.0 0
283383.0 450870.0 0
287353.0 451294.0 0
292191.0 452091.0 0
297311.0 449412.0 0
302531.0 448717.0 0
307028.0 450450.0 0
311093.0 452406.0 0
312616.0 448328.0 0
316908.0 452670.0 0
321832.0 448642.0 0
327071.0 451647.0 0
332667.0 452951.0 0
338361.0 452167.0 0
343192.0 451455.0 0
351977.0 452424.0 0
353900.0 447849.0 0
357470.0 452720.0 0
363466.0 452380.0 0
371115.0 448995.0 0
368388.0 451808.0 0
375016.0 451730.0 0
379746.0 451953.0 0
384230.0 451458.0 0
392692.0 450334.0 0
389058.0 452614.0 0
397495.0 451408.0 0
402529.0 450504.0 0
407122.0 451140.0 0
413506.0 451432.0 0
418913.0 452055.0 0
423866.0 450912.0 0
428469.0 452197.0 0
433715.0 451355.0 0
438518.0 450710.0 0
442929.0 451875.0 0
448463.0 451612.0 0
452954.0 448124.0 0
457578.0 450433.0 0
462030.0 447988.0 0
461497.0 452478.0 0
467139.0 451660.0 0
472817.0 451474.0 0
476785.0 449137.0 0
478071.0 452566.0 0
482020.0 451907.0 0
485926.0 448162.0 0
489458.0 452186.0 0
492999.0 448904.0 0
497908.0 452054.0 0
3571.94 453682.0 0
8430.56 452893.0 0
8358.2 457668.0 0
12736.3 454036.0 0
17651.7 454487.0 0
24198.2 455652.0 0
27510.2 456451.0 0
31049.5 457447.0 0
37017.4 453847.0 0
42533.0 454747.0 0
47014.1 456458.0 0
50862.0 454118.0 0
55080.4 457053.0 0
60827.7 456743.0 0
66074.4 456774.0 0
72537.5 457223.0 0
81121.9 453223.0 0
78682.5 458050.0 0
82329.7 457415.0 0
85741.2 457351.0 0
91518.1 457937.0 0
101313.0 452966.0 0
97114.9 456038.0 0
106338.0 453243.0 0
111977.0 452785.0 0
109028.0 457763.0 0
113524.0 457402.0 0
121457.0 457333.0 0
127113.0 456144.0 0
133640.0 457383.0 0
139621.0 453436.0 0
144663.0 456482.0 0
154352.0 456255.0 0
161244.0 452627.0 0
159326.0 456940.0 0
163486.0 456901.0 0
167395.0 456551.0 0
172617.0 452599.0 0
171486.0 457588.0 0
176894.0 456969.0 0
183231.0 457158.0 0
187573.0 453030.0 0
188326.0 457838.0 0
193210.0 453983.0 0
191679.0 456636.0 0
196740.0 457275.0 0
202938.0 456557.0 0
212872.0 453164.0 0
213609.0 456556.0 0
217400.0 456574.0 0
222037.0 456735.0 0
227189.0 457253.0 0
232653.0 456741.0 0
238290.0 456949.0 0
242790.0 456660.0 0
248132.0 457681.0 0
252115.0 457620.0 0
264315.0 452546.0 0
261249.0 457108.0 0
266390.0 456693.0 0
272323.0 457005.0 0
277490.0 456349.0 0
282702.0 456200.0 0
288188.0 455275.0 0
292413.0 457563.0 0
297265.0 455067.0 0
302170.0 453428.0 0
307033.0 456105.0 0
312829.0 457393.0 0
322805.0 453591.0 0
328554.0 456967.0 0
333735.0 457530.0 0
338146.0 457579.0 0
342769.0 455814.0 0
347466.0 453434.0 0
351977.0 457110.0 0
362948.0 457458.0 0
367640.0 456214.0 0
372299.0 455683.0 0
376839.0 456678.0 0
381965.0 456599.0 0
387454.0 457881.0 0
393828.0 456726.0 0
402153.0 453812.0 0
399453.0 457457.0 0
411488.0 456545.0 0
417133.0 457329.0 0
423289.0 456561.0 0
429629.0 457597.0 0
437420.0 454156.0 0
435154.0 457578.0 0
440894.0 456732.0 0
446496.0 457103.0 0
453830.0 453399.0 0
458336.0 456672.0 0
464021.0 456698.0 0
469179.0 457062.0 0
473921.0 456117.0 0
478664.0 456876.0 0
483130.0 456358.0 0
487743.0 456984.0 0
493976.0 453118.0 0
492524.0 456967.0 0
497271.0 456678.0 0
2902.34 459273.0 0
7150.36 462267.0 0
14743.9 458343.0 0
11491.8 461527.0 0
20640.0 458260.0 0
17729.3 462199.0 0
21852.7 461977.0 0
26376.0 460765.0 0
35252.7 458847.0 0
32005.9 462220.0 0
40186.0 458705.0 0
42466.8 462326.0 0
50557.4 458745.0 0
46576.1 461285.0 0
58361.8 461905.0 0
63613.1 461427.0 0
68148.2 461022.0 0
76713.1 462925.0 0
81905.6 461701.0 0
86986.0 461884.0 0
97346.4 462127.0 0
102986.0 458527.0 0
107217.0 462747.0 0
112352.0 461908.0 0
116883.0 459836.0 0
128582.0 462282.0 0
139939.0 458797.0 0
139516.0 462949.0 0
144411.0 461476.0 0
149333.0 457852.0 0
148498.0 462692.0 0
153158.0 461751.0 0
158204.0 461228.0 0
162814.0 461431.0 0
168094.0 461399.0 0
173203.0 460958.0 0
176946.0 462443.0 0
181322.0 462072.0 0
186213.0 462186.0 0
191948.0 461378.0 0
197470.0 462857.0 0
201729.0 461354.0 0
208818.0 458228.0 0
214014.0 461074.0 0
218399.0 461783.0 0
222500.0 461893.0 0
232476.0 461864.0 0
237240.0 462142.0 0
242552.0 461463.0 0
247367.0 462519.0 0
252500.0 461897.0 0
256166.0 457765.0 0
256544.0 462485.0 0
261381.0 462340.0 0
267065.0 462267.0 0
277506.0 460954.0 0
286689.0 460871.0 0
297041.0 461219.0 0
302014.0 458136.0 0
302709.0 462874.0 0
307566.0 461754.0 0
312257.0 462414.0 0
318001.0 459062.0 0
323187.0 458364.0 0
326563.0 462601.0 0
331860.0 461669.0 0
342933.0 460857.0 0
347026.0 458385.0 0
353107.0 462604.0 0
357691.0 458889.0 0
362241.0 461840.0 0
366362.0 460702.0 0
372208.0 460717.0 0
376990.0 461167.0 0
381063.0 461328.0 0
391310.0 462699.0 0
396855.0 461826.0 0
401760.0 462370.0 0
405565.0 458088.0 0
412973.0 461445.0 0
422516.0 461726.0 0
426763.0 462270.0 0
432889.0 461522.0 0
437637.0 462169.0 0
443052.0 461513.0 0
448220.0 462521.0 0
451767.0 457813.0 0
452430.0 461720.0 0
456601.0 461937.0 0
461877.0 461684.0 0
467498.0 461991.0 0
472506.0 460618.0 0
477274.0 461418.0 0
482245.0 461152.0 0
488481.0 462366.0 0
492972.0 461487.0 0
497500.0 461540.0 0
1213.87 463021.0 0
2815.42 466727.0 0
7936.5 467858.0 0
12903.1 466286.0 0
17580.3 466687.0 0
22073.3 467091.0 0
27646.8 466791.0 0
33303.6 467370.0 0
37579.1 463478.0 0
42204.6 467093.0 0
47701.9 466277.0 0
52659.9 463025.0 0
56848.1 467178.0 0
62076.9 466344.0 0
67581.4 466514.0 0
71663.0 463312.0 0
78185.8 468114.0 0
84097.7 467215.0 0
91744.0 464015.0 0
99031.0 467477.0 0
102341.0 463839.0 0
108854.0 467024.0 0
112812.0 466486.0 0
117876.0 464709.0 0
121913.0 467647.0 0
122739.0 462760.0 0
135055.0 464114.0 0
138817.0 467682.0 0
143237.0 466425.0 0
150704.0 466875.0 0
156987.0 466680.0 0
162726.0 466205.0 0
167568.0 467524.0 0
172725.0 465411.0 0
177849.0 466968.0 0
183065.0 466811.0 0
188060.0 466694.0 0
193017.0 466776.0 0
197719.0 467492.0 0
202500.0 466770.0 0
206149.0 463838.0 0
212683.0 466558.0 0
217500.0 466726.0 0
222500.0 466594.0 0
226879.0 462933.0 0
232684.0 466577.0 0
237815.0 467043.0 0
242661.0 466001.0 0
247433.0 466919.0 0
251973.0 466270.0 0
256337.0 466714.0 0
260739.0 467352.0 0
265521.0 467458.0 0
272590.0 462880.0 0
276950.0 467008.0 0
282006.0 463737.0 0
286561.0 467080.0 0
291615.0 462929.0 0
298390.0 467732.0 0
303936.0 467549.0 0
308042.0 466183.0 0
312784.0 467568.0 0
316560.0 463761.0 0
321176.0 463381.0 0
323485.0 467525.0 0
328169.0 467766.0 0
333481.0 467631.0 0
337652.0 463182.0 0
343032.0 466669.0 0
347745.0 463362.0 0
351178.0 467537.0 0
358086.0 464348.0 0
362930.0 467418.0 0
368532.0 464908.0 0
378326.0 465543.0 0
385463.0 463246.0 0
382957.0 467670.0 0
398006.0 466917.0 0
407797.0 463703.0 0
403354.0 467187.0 0
412605.0 466663.0 0
417897.0 462970.0 0
422233.0 466274.0 0
430450.0 464825.0 0
435014.0 467607.0 0
441192.0 466835.0 0
452554.0 466848.0 0
459345.0 467204.0 0
464474.0 465705.0 0
469164.0 467563.0 0
474359.0 465284.0 0
479352.0 466338.0 0
483916.0 465793.0 0
488120.0 467602.0 0
492589.0 465425.0 0
497500.0 466513.0 0
1798.24 471813.0 0
5798.51 472570.0 0
11450.1 471388.0 0
17284.2 471937.0 0
23289.3 472136.0 0
28304.2 472290.0 0
33416.9 472748.0 0
37796.2 469578.0 0
42371.4 472234.0 0
47044.4 471423.0 0
52133.3 468377.0 0
51913.1 473095.0 0
57300.3 472727.0 0
62658.6 471576.0 0
67315.7 471463.0 0
72971.8 468275.0 0
76143.6 472569.0 0
89641.6 468358.0 0
87171.3 471912.0 0
94342.6 468432.0 0
91838.0 472927.0 0
97541.0 472591.0 0
104133.0 468332.0 0
108387.0 472212.0 0
115908.0 468660.0 0
113761.0 472403.0 0
119064.0 471976.0 0
127976.0 469626.0 0
134796.0 469300.0 0
138324.0 472184.0 0
146773.0 468775.0 0
143226.0 471452.0 0
146823.0 472555.0 0
151254.0 472652.0 0
157186.0 473003.0 0
162583.0 471284.0 0
167483.0 472524.0 0
173150.0 471698.0 0
181181.0 471925.0 0
186505.0 471282.0 0
192607.0 472697.0 0
198042.0 471724.0 0
202520.0 471538.0 0
207985.0 468441.0 0
207260.0 472802.0 0
212280.0 471957.0 0
217524.0 471494.0 0
222423.0 471615.0 0
228082.0 468238.0 0
226525.0 472728.0 0
231521.0 471446.0 0
236470.0 471737.0 0
241699.0 470648.0 0
247450.0 472070.0 0
253660.0 471682.0 0
258938.0 471819.0 0
262944.0 471631.0 0
267358.0 472115.0 0
270779.0 467993.0 0
273429.0 472341.0 0
277870.0 472496.0 0
281936.0 468396.0 0
282555.0 471897.0 0
287657.0 472166.0 0
292253.0 468136.0 0
292013.0 472921.0 0
301880.0 471898.0 0
306323.0 471604.0 0
310709.0 471699.0 0
318443.0 468427.0 0
325536.0 472939.0 0
331264.0 472428.0 0
336048.0 472651.0 0
338279.0 468820.0 0
347100.0 470276.0 0
351558.0 472943.0 0
356627.0 469626.0 0
367716.0 472156.0 0
373226.0 468558.0 0
378702.0 472824.0 0
384832.0 472220.0 0
388426.0 468058.0 0
393459.0 468178.0 0
394559.0 472570.0 0
399884.0 472236.0 0
407950.0 468912.0 0
403928.0 471607.0 0
412925.0 472023.0 0
417647.0 468098.0 0
418129.0 472786.0 0
422683.0 471292.0 0
427049.0 467964.0 0
431996.0 471814.0 0
436397.0 472888.0 0
441430.0 472635.0 0
446617.0 469326.0 0
462112.0 472150.0 0
473623.0 472168.0 0
484148.0 469930.0 0
479773.0 471833.0 0
492964.0 470901.0 0
497910.0 472745.0 0
2250.34 476191.0 0
10490.9 477243.0 0
22263.5 476918.0 0
27384.6 477715.0 0
33016.9 478186.0 0
38162.4 474078.0 0
47485.6 477208.0 0
53420.3 478030.0 0
63808.2 476918.0 0
68672.8 476822.0 0
71371.2 473160.0 0
73066.5 477659.0 0
77693.8 477715.0 0
81871.2 473782.0 0
87354.2 476539.0 0
92522.6 478078.0 0
98325.2 478080.0 0
102954.0 473936.0 0
107329.0 477445.0 0
112446.0 476682.0 0
117399.0 476792.0 0
123677.0 474408.0 0
127937.0 475621.0 0
133278.0 473515.0 0
137306.0 477211.0 0
142925.0 476736.0 0
148027.0 476707.0 0
153142.0 478056.0 0
158504.0 478297.0 0
162930.0 476489.0 0
167369.0 477076.0 0
172163.0 477613.0 0
177545.0 473170.0 0
177545.0 476851.0 0
182377.0 476849.0 0
186660.0 476617.0 0
196912.0 477667.0 0
202854.0 476484.0 0
207834.0 477370.0 0
212878.0 477141.0 0
217756.0 476581.0 0
221891.0 476575.0 0
225714.0 476981.0 0
230707.0 476913.0 0
236499.0 476956.0 0
242350.0 476595.0 0
247978.0 477645.0 0
252305.0 476818.0 0
256783.0 476458.0 0
261664.0 476616.0 0
267073.0 477916.0 0
272718.0 477009.0 0
278206.0 477732.0 0
283657.0 476131.0 0
289104.0 477053.0 0
297194.0 474126.0 0
302717.0 476470.0 0
309078.0 477202.0 0
315036.0 473347.0 0
320057.0 473399.0 0
324625.0 477993.0 0
332555.0 477218.0 0
341938.0 473281.0 0
347229.0 474920.0 0
356430.0 475458.0 0
361588.0 473566.0 0
367628.0 477523.0 0
372834.0 475252.0 0
382388.0 476683.0 0
386562.0 477572.0 0
389654.0 473412.0 0
392302.0 477761.0 0
397484.0 477284.0 0
402418.0 476784.0 0
407231.0 473850.0 0
411645.0 477164.0 0
422795.0 476452.0 0
427461.0 473212.0 0
432645.0 476619.0 0
438146.0 477514.0 0
446073.0 474434.0 0
451458.0 473512.0 0
457313.0 473415.0 0
462315.0 477263.0 0
467333.0 473533.0 0
477770.0 476968.0 0
482863.0 476907.0 0
487408.0 473856.0 0
492471.0 477189.0 0
497466.0 476744.0 0
5538.89 478245.0 0
16982.5 478407.0 0
38385.0 478923.0 0
42803.0 479641.0 0
58608.1 478404.0 0
82483.4 478740.0 0
102978.0 478646.0 0
121637.0 478219.0 0
125685.0 478948.0 0
131802.0 479085.0 0
190761.0 478516.0 0
293953.0 478137.0 0
297954.0 479306.0 0
314972.0 478509.0 0
320057.0 478389.0 0
328470.0 480139.0 0
337834.0 478401.0 0
343080.0 479161.0 0
347488.0 478885.0 0
352098.0 478352.0 0
359069.0 479570.0 0
363580.0 478431.0 0
372548.0 479744.0 0
377238.0 478198.0 0
406584.0 478850.0 0
417346.0 478149.0 0
427631.0 478424.0 0
443324.0 478281.0 0
448196.0 478205.0 0
452855.0 479251.0 0
457476.0 478047.0 0
467061.0 478926.0 0
472259.0 478371.0 0
487836.0 478980.0 0
POINT_DATA 5000
SCALARS Radius float 1
LOOKUP_TABLE default
4796.58 3979.26 3471.03 5253.55 5820.48 5782.6 4862.21 5113.21 3929.19 4107.03 4478.15 5379.87 5925.6 4501.51 4792.73 4736.58 4931.38 3485.26 4329.05 4151.94 4049.23 5337.48 6124.89 5708.81 5252.48 4780.03 5495.39 3996.0 3856.1 4665.12 3383.4 4133.88 4834.9 3850.77 6044.04 5415.48 5120.0 3863.18 2356.98 4998.37 6182.6 5492.18 5258.36 5061.3 3642.12 3163.97 5812.43 5122.66 5906.14 5484.19 7513.1 5254.28 4436.4 5733.48 4672.91 5580.89 5645.7 5176.86 6810.52 5840.26 6110.27 5561.06 5073.35 3615.22 5670.04 4380.59 3589.27 6716.79 3607.45 5759.91 7613.27 5529.52 4951.03 5255.32 6037.08 5096.78 6756.95 4129.43 6324.23 3843.58 3320.52 4194.5 4270.53 5344.25 5191.63 4593.7 4150.99 4216.92 4742.68 4344.58 5634.83 5495.84 6268.1 4861.06 5374.51 5320.28 6739.08 4797.52 4569.12 4298.67 5960.66 6608.73 5011.84 7034.11 6261.42 4502.5 3771.48 4043.57 4271.69 5681.38 4138.42 3708.04 5513.6 3240.09 4556.36 6082.81 3191.99 4685.34 5601.05 4929.8 3586.91 3103.0 3554.9 4015.92 5542.21 4487.31 3936.02 4044.71 5980.74 4094.62 4927.02 5546.39 5325.36 5484.83 5085.53 5351.6 4730.36 4715.55 5867.73 3951.75 5013.56 4499.64 4375.68 5542.27 5054.98 6030.06 5170.02 3557.27 4927.31 4688.68 4402.52 4517.56 4182.53 5903.42 3588.44 3955.56 3761.32 4118.05 4366.19 5553.16 3672.51 2938.66 4940.78 4231.61 4008.92 3942.53 3379.84 4827.82 3997.1 3260.67 5123.52 3038.33 4392.68 4333.2 7199.21 4523.7 2240.39 5091.39 5293.9 3912.37 6142.94 4727.24 4602.25 4790.08 5082.47 4763.45 5445.87 3815.26 4704.72 4177.94 4571.7 5896.46 5022.8 3784.5 3780.23 6481.79 5224.12 7042.12 4819.73 6326.39 4471.58 5873.69 4962.09 3999.48 4359.62 6946.21 2586.12 5433.8 4011.77 5499.11 3633.87 5922.5 5198.77 5987.17 6013.14 2765.2 4901.41 5110.37 5664.98 4382.74 5927.43 4651.28 4384.42 3693.63 4516.43 5481.78 5637.59 4937.14 5043.05 5816.2 5693.81 5109.54 6483.19 5945.65 6759.9 5538.89 7021.47 5416.38 6059.59 4955.55 2720.68 5701.86 3563.63 4238.81 4468.59 5885.03 2837.58 5325.02 5200.76 5017.13 4862.64 5185.34 4432.58 6684.56 3968.64 4688.67 2635.86 5292.64 6166.5 5065.13 5936.02 5305.17 4861.08 4003.05 5390.22 4805.87 4712.33 5227.21 5697.78 4667.36 4091.31 6372.62 4295.38 5615.42 7565.34 5923.5 4612.68 4281.49 4973.83 6342.25 6691.39 4840.84 5135.69 5344.0 4020.32 6045.46 4245.72 5908.1 6048.7 6133.92 3719.84 4178.4 3095.48 4166.08 4123.6 4850.14 5163.55 3382.7 6817.32 4319.79 6098.14 4472.17 4203.26 5188.81 4730.41 6057.22 5062.71 6125.34 4527.08 5347.48 4850.01 3970.25 5147.67 3979.82 5011.31 5138.31 5264.06 4659.59 6327.9 4048.37 6355.42 4362.19 5690.56 4948.92 3115.91 4493.48 3307.12 5924.89 4002.16 4174.52 4138.16 3486.22 3829.13 4684.5 6230.49 6458.82 5418.62 4601.27 5493.32 5740.68 5926.61 6051.14 5836.15 3261.21 4345.55 6704.06 3653.41 3871.88 3856.01 5246.2 4390.66 5279.39 3673.74 5205.43 6116.18 7447.37 4924.6 4385.06 4733.32 7184.19 2899.43 2924.37 3867.67 5399.73 4290.3 4660.72 3888.21 5891.05 6038.78 6902.81 6644.76 4254.17 5629.19 5090.24 5740.84 6445.94 5530.87 4310.18 7134.64 5978.9 4187.56 3629.62 4997.27 4301.06 4877.67 4290.14 6562.18 4156.38 5316.75 4541.21 4164.68 5669.65 5934.22 5624.49 5762.59 7092.87 4666.81 3703.1 3954.91 6471.55 2965.01 6643.85 3637.61 6222.42 5654.31 3745.84 5690.26 4156.2 4497.59 5965.78 4374.35 4810.12 5643.58 5215.05 4292.06 5577.04 5006.58 4602.86 3688.8 4548.16 3369.23 5449.18 5492.26 5244.78 5762.84 3937.74 4749.8 6084.86 5478.92 4778.34 5551.36 6894.71 3091.3 4414.54 5789.98 7054.71 3641.64 5489.43 5747.75 4277.89 5054.25 4796.33 4195.44 5539.32 5360.19 6496.85 5600.93 4874.39 5541.59 4124.71 5728.85 4827.23 4911.47 5803.39 5863.59 4381.97 6257.19 3255.82 5242.73 2812.98 4065.69 5603.15 4695.45 6052.7 3921.18 3798.62 5308.1 3666.57 4907.89 4937.02 5655.21 4645.41 4786.6 4433.59 4320.28 5542.14 4218.06 5480.13 6308.71 4716.19 5514.76 3456.98 3498.2 5105.16 3066.13 4302.5 6006.16 6009.88 7055.53 5013.67 5826.04 5339.78 4143.78 4970.88 4763.66 4636.5 4940.42 5923.4 5085.71 5499.39 5644.82 5501.93 5463.38 5945.21 4938.74 5696.88 5607.14 3923.03 5975.63 5252.34 6396.74 4138.46 2775.04 3821.72 4986.77 6318.18 5586.81 3948.17 4551.24 4621.75 5358.59 4220.88 4515.71 6519.71 6640.13 5082.6 5810.84 4230.54 5094.44 3748.24 4655.49 4467.94 4850.81 6038.14 6138.47 2540.31 6029.66 5527.54 5573.7 5697.4 4727.62 4270.95 4055.8 7325.81 5280.17 6425.26 4794.96 6186.19 4839.34 5083.08 6834.49 6337.56 5525.39 3998.5 5938.34 4024.3 6394.38 5555.28 5169.36 4737.14 4686.65 5834.74 5556.96 5788.23 5581.75 6392.01 3599.45 6730.19 4907.06 4073.93 3735.44 6043.3 5952.75 6332.36 6122.55 2739.94 4931.53 4223.33 5911.67 3323.28 6695.82 6405.76 5794.24 4678.38 5448.61 5050.65 4827.33 5206.48 5513.57 5729.23 5226.0 3365.82 4538.95 5965.15 4780.2 6090.91 4946.42 5019.93 5081.78 6116.33 6263.44 6343.14 5774.97 5462.21 5750.71 5470.77 4831.47 4643.85 4004.04 4289.17 5564.02 4274.61 2965.79 6898.19 6035.6 5137.34 4481.53 5330.45 4581.13 4219.07 3610.4 6387.01 5367.52 3092.35 4322.15 5210.03 3629.96 5478.47 5351.39 6142.37 6061.47 4933.21 5375.47 4723.12 5120.49 5262.61 6302.8 5409.61 6038.2 4005.44 5206.78 5555.88 6732.43 5143.58 3866.16 6362.12 4484.76 4840.01 2980.99 5611.2 7933.0 4455.12 5173.87 4894.16 5380.13 5711.87 5118.27 4941.22 5932.23 5791.61 3369.13 4479.66 3043.85 5367.2 5461.13 4726.76 5839.13 5495.68 5489.34 5163.9 5708.14 5537.72 3920.42 8332.24 6155.31 4553.56 5329.64 5709.62 5835.78 4127.74 2476.04 3942.07 7443.72 3937.08 5260.34 4709.35 6586.45 4373.3 4750.78 4163.5 5724.64 5078.86 5100.1 3561.29 4963.34 3295.83 4459.28 4260.92 5960.56 4118.84 4020.95 6313.06 3474.39 6470.3 4200.03 6062.05 5082.74 6915.83 6072.45 4410.55 7099.43 5526.14 5198.29 5423.0 5077.33 3856.59 4746.52 5413.79 6338.89 6202.55 5025.39 4714.54 5893.5 3320.11 5030.91 6022.17 5119.37 3982.23 6163.38 4566.18 3459.9 4964.09 5201.36 4809.42 5024.9 4306.53 5659.17 5094.81 5972.06 5713.22 5861.71 5028.96 4359.04 3183.98 3794.63 4524.28 3778.1 5152.36 4511.82 5826.64 4220.65 6820.42 4816.2 6321.41 4896.52 4751.02 3372.79 5184.56 5282.64 4715.72 4669.66 4808.52 5046.33 5607.24 5053.92 6352.26 3847.38 3818.59 4863.72 5002.48 6623.85 4262.82 5102.36 4342.9 5069.84 4051.44 4241.89 6049.55 5054.74 5941.72 5991.09 5133.97 6600.94 4788.58 5371.02 6155.1 5876.71 6262.72 5029.78 6515.84 4888.6 2990.77 4739.14 4918.77 4371.99 4219.78 3885.86 5235.29 4479.94 6250.23 6413.02 4863.27 5862.86 6049.79 3493.7 5374.98 4719.7 6939.12 4735.33 5411.85 5092.37 6444.77 4287.63 5315.4 6449.45 3975.31 3689.45 3824.16 5572.95 3868.18 6723.16 5584.06 7111.16 3817.13 4547.19 5507.24 6851.54 4583.31 4503.89 5806.08 4997.27 4853.39 4093.08 4449.22 5543.27 4717.05 5287.2 6135.57 5998.38 4312.67 5423.8 4270.24 4989.15 5017.78 5015.69 6175.81 4727.24 6677.09 4305.57 6959.81 4829.35 5201.67 4424.7 4089.76 5526.55 3192.41 5215.15 4987.87 3315.57 5804.71 4764.96 5727.3 4242.52 5356.51 4277.88 3057.03 4087.15 4143.08 7500.97 3948.23 5228.18 5787.31 5065.11 5868.82 4050.9 4978.31 4099.77 4981.9 4656.78 4537.32 5126.91 3600.43 5131.24 5196.67 6496.67 5474.8 3664.11 5117.47 4925.63 5882.65 4434.19 5187.7 4623.61 4188.3 6261.75 5177.64 4255.31 5453.3 4407.9 3492.19 4584.5 5122.63 4703.08 6345.13 5274.19 5516.95 4406.4 4413.85 4844.57 4027.46 4470.98 6314.07 5776.37 4516.28 3627.82 4044.45 5125.78 5344.43 4373.47 5045.38 5350.88 5372.61 3686.21 6480.17 5023.15 4377.07 5101.59 3813.22 5570.3 4336.42 5243.29 7589.94 3130.65 5628.24 5856.11 3327.49 4109.88 4234.94 4562.29 5013.13 5080.66 3417.33 4926.42 4164.13 4642.34 4520.1 4947.52 5874.89 4293.03 5813.4 4389.21 3791.79 4925.44 4754.05 4951.47 6084.93 4307.28 3697.96 4739.42 5538.93 5020.12 2631.9 4745.45 5281.28 6255.18 4668.71 4758.21 7228.46 6362.14 6719.88 5978.82 5266.5 3927.99 4523.88 4066.38 4948.98 5227.52 4414.48 4092.24 5163.02 7144.24 4906.82 5687.83 5004.23 6442.69 6320.71 4648.04 6607.87 4721.32 3163.78 3293.56 5274.14 4903.82 5746.28 4082.47 5511.6 4338.08 4378.3 6134.99 4094.73 4718.54 4440.57 5548.29 6766.43 2315.64 4390.41 5226.56 5599.49 5313.22 3905.51 3999.94 4864.22 3901.8 5759.46 3921.08 4190.31 5678.96 5262.19 4244.9 6070.58 6034.41 5452.83 5130.91 5402.24 4519.22 6445.22 3844.9 3695.36 3963.86 3848.93 4306.11 5935.47 3402.32 5903.66 4528.49 5004.67 5365.89 5992.26 3960.8 5070.39 4980.85 5714.58 5110.45 5208.32 5248.77 4083.97 4607.02 5153.74 3895.51 4528.09 4165.81 6291.51 4128.98 5882.89 6246.22 4188.32 5246.61 4100.38 5344.77 4723.48 5097.87 4899.11 4278.07 7267.18 6256.02 5320.92 5269.18 4406.1 5034.59 4942.77 4263.33 5080.18 4454.63 5912.61 3279.1 4403.98 4560.84 4729.43 5776.57 4562.74 5683.26 5598.74 5139.5 7493.3 4814.55 3527.05 3464.83 5698.77 2477.07 6413.11 4305.16 5092.28 4965.89 5659.95 4152.85 2908.7 4453.64 4517.73 5469.47 5660.16 4989.56 3838.47 2588.37 6736.03 6235.57 3623.87 5916.16 6934.37 6113.95 4050.08 4097.57 5017.5 5563.79 6171.13 5511.88 5083.41 4512.11 7055.42 5486.68 6048.86 4285.32 5490.43 5022.28 5197.52 4959.34 4948.5 4527.02 4531.14 4564.34 3838.56 4871.44 5076.35 6020.48 6375.99 5200.05 5234.29 5313.66 5419.37 4466.03 5409.33 4511.54 5196.0 4923.9 4973.78 3329.99 3947.47 3296.27 4713.25 4204.84 6243.0 6673.96 3556.85 5441.96 3435.9 5174.89 4288.3 5370.52 4652.29 5774.81 3746.31 5498.32 5027.98 5346.27 6475.1 4969.21 2691.29 2845.98 5289.52 5314.85 4305.43 5450.44 6510.17 5742.65 5592.32 5381.16 5565.13 6193.35 6086.96 5233.78 3701.27 5653.9 5046.21 4929.14 5894.61 3979.54 5304.13 5944.09 5833.06 4923.41 4497.31 5384.76 5529.42 5257.12 5243.43 4537.14 5551.9 3757.34 6415.61 4687.64 4419.71 5037.06 4541.8 5175.29 5842.56 5887.15 5412.31 3087.09 3423.15 4890.5 3981.07 5452.42 5328.22 6853.85 3497.9 2395.5 5941.61 5782.48 6248.6 3836.45 5683.61 5100.25 6894.26 4986.51 5339.38 5178.99 5383.07 4591.87 4790.78 5013.42 4247.15 6552.22 5651.07 6248.81 5273.35 4091.8 4645.58 2651.49 5512.23 5275.32 5985.29 4898.94 4178.15 4613.31 4733.04 6119.09 5788.66 5091.68 7531.29 5069.25 5048.89 5935.03 3161.47 3991.03 6390.78 7435.25 6826.57 4788.87 4495.87 3702.37 6022.72 4643.31 5527.33 6917.52 5402.21 4989.09 4880.14 4982.31 4307.48 3848.54 5941.4 5331.02 4871.96 4863.23 4402.67 4470.61 4631.83 4384.88 6887.27 6008.49 4806.34 4287.53 5612.21 5945.08 4968.03 3306.14 5490.58 4863.79 4702.06 3830.46 6031.67 4689.15 6138.12 4428.78 5409.66 4345.67 4765.72 4642.66 4752.14 5329.59 4888.12 4950.97 5512.16 3197.63 4863.96 5191.08 5203.08 7480.41 5163.77 4488.85 3731.84 4901.07 5186.3 3436.15 4151.76 4020.4 3493.47 4596.75 4933.65 5443.58 4558.46 5805.86 4049.02 4470.4 5311.03 5255.12 6169.11 5615.35 4027.09 6422.84 4502.18 5379.09 4602.85 4962.77 5872.05 4853.02 6259.23 5181.4 5670.2 4711.62 4247.23 4114.24 4268.65 4694.83 5509.42 4354.08 4256.43 5936.36 4520.62 3903.75 4755.47 4485.99 5127.16 5475.8 5314.69 6050.81 5543.46 4249.46 5965.81 4750.17 5660.85 2330.66 4177.19 4752.51 3587.05 6229.37 6718.19 5282.91 4425.84 3797.33 7256.35 4800.69 6566.1 3555.86 6386.78 4996.99 4896.39 6081.14 5480.83 4607.85 4220.46 5128.57 6000.7 3169.67 5604.21 3361.92 6710.88 5395.14 3967.48 6213.04 6622.11 3685.13 6790.73 4655.16 5251.4 3867.19 5857.79 4039.91 5276.7 5036.58 6119.63 5411.02 4752.9 4287.16 5199.44 4062.5 4435.51 5374.07 4588.7 5683.95 3766.55 4579.69 3554.48 6496.52 5005.85 4216.17 6484.17 4721.02 4254.37 3374.08 4031.78 6098.1 5708.99 5687.85 5346.68 5296.29 4611.53 4285.66 4896.11 5172.53 4135.62 5801.99 5534.94 5210.48 7644.38 7552.94 6101.92 5323.3 5088.44 4998.21 4662.56 5166.79 5349.31 2976.22 4649.22 5394.55 5094.52 4946.74 2682.24 5928.32 5229.48 5475.7 4016.18 5526.75 5435.74 4244.99 5327.45 5560.26 6185.89 3997.96 4439.35 3460.94 3990.25 3691.0 3758.07 4236.14 4407.87 5733.62 5282.51 4460.92 5945.89 4042.28 4105.55 4340.76 6065.22 4221.28 4456.39 5514.84 3633.79 5421.53 5937.08 6070.3 5233.29 4312.56 4612.06 5204.04 4750.58 5926.11 6667.68 5235.11 5211.38 5089.62 4590.55 4741.26 5920.32 4255.85 5097.69 3988.3 6543.13 5149.72 5776.96 5464.25 5486.48 5301.47 4617.55 3645.12 5424.88 5415.85 8659.64 5469.13 6027.62 5010.2 6123.03 5966.61 5711.11 4575.94 4938.72 3546.71 5768.57 5564.23 5950.04 4231.83 2435.33 6401.43 5020.71 2681.29 5094.48 3872.61 4238.4 4318.48 6132.95 5266.22 4860.33 3685.13 6004.68 4051.34 3627.55 6239.84 4635.6 4256.67 3457.48 3931.07 3405.98 5417.15 3688.16 4681.72 4945.39 5996.33 3950.63 5415.19 4612.62 3619.07 4467.04 4275.57 6385.23 2983.99 2614.4 6363.92 6205.93 4923.24 5830.72 6184.4 3828.81 4373.45 5309.98 4082.57 5255.18 5169.9 3004.16 4767.78 5235.17 4779.5 4421.12 5254.49 6649.96 4303.19 5784.3 4256.57 3914.2 6088.68 4643.56 4135.08 5620.74 4778.82 6124.08 5467.84 5053.95 5266.01 5253.37 5767.9 6515.8 3685.65 5869.4 3701.16 4186.6 5895.77 4732.09 6136.49 4356.25 4216.95 4209.49 5742.74 4244.21 4947.24 3875.05 6200.54 5148.58 4199.45 6599.66 4055.54 4233.8 5765.42 6098.95 4997.83 4893.49 5325.44 5021.88 5956.65 4498.25 4188.87 3735.24 6574.95 4074.48 6333.29 4558.47 5731.57 5997.88 5839.71 5576.92 6408.83 3930.79 5226.97 4004.35 3312.06 5180.76 3361.26 6799.4 5278.36 5865.39 4427.28 6079.11 3082.32 6430.39 3658.37 7440.72 3949.6 5703.6 6326.18 5661.62 6631.19 6648.68 4713.74 5626.61 5817.25 5407.78 4084.49 5061.98 6632.99 4537.6 5147.36 4419.61 7177.44 4563.46 6553.94 5726.66 5460.65 5652.0 5463.41 5225.33 4929.75 4435.36 6045.22 4614.3 5134.39 3532.3 5769.98 5442.32 2221.99 3580.58 4863.01 5356.79 5657.36 3619.79 5029.47 6306.21 2978.76 2040.66 7016.27 5884.9 3876.21 5689.26 4916.22 6022.7 4940.84 5750.07 4809.67 4757.74 6045.67 3946.28 3821.94 5439.9 5367.73 3540.11 3456.47 4652.01 5421.64 7234.66 4207.54 4886.12 6419.12 4976.12 4817.16 5453.98 3991.42 4388.63 5102.75 4597.29 4200.09 5931.77 5151.21 5398.64 6817.57 4477.04 3614.96 3886.68 5703.74 5662.55 5737.92 4360.23 5365.24 5293.51 4763.96 5754.18 5008.63 3418.99 4480.95 4993.35 4409.63 5521.25 3661.9 5370.85 5949.46 3178.54 4765.02 5376.71 4448.13 5070.29 4807.28 4867.08 2261.36 5075.55 4266.03 5280.69 4220.03 6923.84 5227.59 5449.46 6179.96 5703.07 6113.54 4662.43 6260.79 3963.76 5528.53 6799.88 3062.43 5990.52 5426.78 2967.38 4159.35 6477.91 4237.98 6439.37 4081.97 5401.99 5580.92 5973.33 3583.21 5067.46 2511.46 4011.37 2775.69 4785.25 6519.43 5876.64 5424.46 4857.84 4908.49 4962.21 4858.44 3468.42 4673.35 4771.13 4992.42 5297.19 4351.38 4833.46 5933.7 7248.4 5280.12 4444.97 5984.81 3498.16 4409.27 4640.06 4588.99 5471.74 3548.39 3673.28 4928.27 4858.51 3375.28 5625.65 4301.61 6107.89 4446.84 5660.55 5148.08 4834.87 3672.21 5760.22 5938.17 4795.43 5097.95 5108.06 3573.73 4693.52 6853.04 4745.43 5831.96 4747.55 3056.7 3755.95 6234.32 4586.19 4446.06 3450.93 4270.74 5132.68 6595.03 4558.15 6218.95 5222.16 5107.23 5136.08 5558.68 3776.94 4802.32 4010.57 5629.39 2684.03 6157.04 4768.61 4522.21 5506.19 6719.94 4950.67 5832.37 6166.29 5453.6 5409.63 5294.77 4709.05 4630.82 4043.66 4813.08 5860.67 4540.86 3764.1 4835.83 5604.35 6316.56 4332.87 3091.67 6420.81 4715.58 4450.7 5151.52 5369.08 4347.74 5291.9 4009.62 2081.58 6505.78 5461.55 4270.15 6865.76 6449.64 6464.8 4684.44 4749.59 5799.69 5571.72 3809.69 3208.96 7051.9 4184.23 4144.57 5550.75 6834.41 6226.14 5466.33 3000.29 5721.05 4247.69 4209.31 4514.39 6242.79 4321.21 4344.34 3583.49 5052.84 4366.74 5297.16 3184.64 5206.33 5530.49 5653.03 3718.69 4514.79 2216.82 4509.89 4940.28 6752.75 5269.38 5607.3 2928.82 4222.4 4000.43 4568.41 3420.08 4912.04 4539.07 5464.68 2685.81 5591.76 4585.31 6625.18 5323.91 5097.45 6293.89 5737.75 2761.07 4983.39 5366.52 4690.55 5533.72 5533.42 3678.08 4599.38 5246.47 4187.31 6191.29 3240.51 7422.36 5161.01 4298.15 4628.4 6051.83 4642.93 3973.12 4263.16 3077.84 6024.75 6109.49 5567.93 5987.42 5332.65 4442.22 6451.33 5413.31 3012.99 6400.08 4743.59 5208.14 3317.83 3763.05 5092.24 5549.49 3101.75 5423.42 4518.04 4766.06 4874.18 5435.19 3298.2 7093.13 4953.1 5818.95 4093.99 3940.49 4406.05 4680.94 5828.35 5876.72 5236.43 5285.07 4680.14 4608.41 4187.94 5980.59 5021.77 3796.15 4801.8 7216.98 5271.02 5718.28 5950.45 5713.03 5849.65 5134.67 4165.21 4215.0 4936.96 4481.76 5452.78 5065.26 4304.41 6192.0 5885.28 6579.31 3004.34 5323.55 3022.6 4811.76 4914.45 4698.87 4661.03 3624.7 5262.35 4691.91 4475.83 4255.34 4510.8 5889.35 5010.04 4394.56 4570.98 4275.07 5825.38 4185.61 4047.87 5742.47 3778.02 4917.99 6552.21 5417.8 5146.37 7132.12 4836.16 5518.57 5151.11 5463.48 5730.33 5545.46 4527.99 4543.1 4376.7 5190.61 8325.01 3764.06 4440.81 5941.9 5434.47 6642.76 5829.22 4497.78 4243.79 5811.18 5433.65 4008.15 4887.76 4669.06 4811.32 4286.49 6184.88 5829.32 4396.25 5551.95 3918.87 2275.45 4901.2 6605.86 4383.56 5012.5 3562.79 4516.53 4122.92 3604.14 4452.54 5089.1 2711.19 4028.32 4099.92 4884.59 3858.06 4511.7 4083.79 5263.27 6300.92 4173.54 5599.29 6038.68 5046.12 4807.4 7013.17 3805.67 4601.74 6506.86 5088.57 5580.34 3852.6 5775.31 4706.5 4603.5 4647.67 5375.12 4356.36 4892.44 5578.94 7610.49 4286.17 3684.56 5375.1 4172.6 5313.12 5351.56 3984.88 5160.59 4732.09 4320.42 5064.79 5480.3 7509.24 4146.81 5896.26 5388.78 6101.13 4573.72 5099.21 5636.4 4367.78 4350.12 5227.02 5670.0 4232.16 5300.96 4344.51 5680.94 3781.77 5581.55 5193.01 3474.5 6550.44 3860.83 6348.03 5732.27 4523.39 5278.56 5146.37 6917.62 4013.38 5631.14 4343.78 5263.3 3352.35 4909.65 6523.86 7693.4 4326.48 4437.07 3449.37 5491.9 6405.0 4659.16 5789.55 4633.05 5711.62 4798.17 4990.79 5166.79 6479.39 2895.63 4997.91 5079.22 5381.54 5810.77 4714.83 5474.15 7519.2 6355.68 4478.6 3953.55 4304.63 4063.9 4469.54 4314.56 3928.53 5606.51 5740.65 3834.47 6349.67 6329.53 4590.01 6101.86 4227.41 5993.0 4803.57 5966.42 4110.59 3332.49 5354.66 4214.44 5378.23 4787.97 3746.36 6789.23 3989.7 4777.03 4246.61 6028.09 5452.36 3804.5 6486.37 5498.42 3344.57 5318.53 5220.76 4281.98 7165.9 5344.83 7046.11 3427.63 4863.97 6342.48 5756.75 4587.67 5599.7 4163.74 6969.28 3665.95 4296.69 5698.96 4095.75 3319.67 3603.51 4298.45 5222.51 4076.59 6609.84 5135.96 3834.43 5658.37 4707.06 6074.94 5491.37 4250.88 4222.77 3783.54 5268.38 3475.67 4792.39 7038.89 3863.67 4814.12 5067.56 6137.8 2735.53 5116.6 3747.03 2783.85 4356.49 4526.81 3994.07 4219.94 5907.46 6740.71 4264.91 5399.29 5971.22 4909.31 6522.59 6602.43 3568.28 5425.98 5996.66 4405.42 2995.67 3598.08 4599.81 5698.23 7300.58 3608.06 6633.61 5217.95 4867.7 5484.36 4277.24 5291.05 5161.1 4619.2 5166.41 5067.56 2596.96 5701.75 4350.15 4139.3 6541.45 4750.49 5078.31 5391.48 4923.43 5131.15 4847.14 3950.27 5116.66 3566.79 5374.67 4981.43 4741.28 4215.2 5069.89 4157.29 6813.72 5327.75 4609.02 4896.65 4638.18 4196.37 6448.66 4453.97 6945.98 5138.2 5783.48 4701.5 4449.98 4504.35 4771.65 4840.44 5093.82 5951.81 3924.14 6918.35 4834.3 6238.32 6804.79 6471.42 5283.8 5369.5 4428.14 5164.1 6464.15 4479.11 4972.17 6685.4 5699.53 4850.06 6332.01 5527.23 4234.18 4805.33 7085.01 5980.95 6193.08 6069.3 3862.77 5887.01 5168.35 5388.39 3728.18 5335.47 5633.61 5048.19 6799.23 4888.27 4592.15 6487.56 4854.11 5533.19 4998.22 5417.21 6104.26 5583.61 6063.64 4986.71 7382.3 4022.56 5522.21 3772.3 4855.01 6208.9 4923.57 3340.09 6061.63 2279.05 4829.35 4075.28 8137.11 5484.32 6650.77 4067.96 4824.12 7104.73 6162.3 3272.75 4264.54 3516.27 7043.44 4263.78 4643.9 5228.75 6047.14 5009.83 5210.38 5717.8 3629.44 5003.78 3299.24 6246.56 4061.6 2603.64 5107.0 6212.15 6502.97 4783.07 4946.23 4852.58 6083.28 5211.6 5806.31 3556.79 5456.71 3503.41 7317.04 6412.67 7001.83 5012.97 4036.91 5589.37 5439.49 6639.64 5212.43 5454.12 6348.54 4066.57 5642.35 6372.13 6357.47 5404.01 6016.19 4124.49 3230.13 5714.25 6176.67 5325.96 5412.24 5016.02 7044.29 4920.21 4049.16 5851.61 3936.95 6153.94 6836.82 3858.17 4631.99 4740.98 3185.39 5128.77 7122.87 5797.36 4243.26 4153.84 5119.86 5089.26 5084.17 4901.44 3776.8 5096.43 6156.21 2460.79 4653.83 6171.71 3628.89 6589.82 4668.88 5027.43 5522.75 5867.64 4438.58 6059.93 5602.53 5073.02 6545.43 3472.91 6760.92 4989.2 4711.04 7144.05 4506.18 2970.9 6542.5 4383.47 5971.21 6318.23 4206.98 5156.76 6101.57 4891.38 5535.91 4793.65 2949.12 5955.86 4533.37 4532.89 4848.46 2779.99 5887.38 4581.37 6942.34 3658.05 5478.11 5526.31 5030.15 4058.87 5174.75 5932.07 4984.46 5948.71 3856.53 3992.97 5460.89 6040.74 5260.85 5742.09 2884.65 5807.46 4648.21 4393.16 3311.29 4549.69 6423.81 6192.77 5262.47 5261.19 3104.96 3831.52 4263.65 6106.43 4807.35 6761.81 5467.63 5666.95 4642.2 4811.22 3683.86 4918.76 5293.75 4208.41 5826.78 5473.72 2856.55 6214.73 4553.68 5175.89 5361.87 3758.22 4757.2 4532.7 3205.68 5561.74 6100.73 4788.08 4745.79 4908.75 6556.26 3971.08 6204.65 4482.9 4593.7 4349.13 5110.11 6379.14 5216.26 3687.65 4887.52 5478.95 3851.85 4392.65 6413.15 6103.11 5048.55 6459.51 4024.31 4955.16 5844.72 4147.31 5989.05 4054.22 7228.94 5393.65 4961.99 6551.93 4595.12 3110.13 6484.43 4625.67 3485.54 4312.15 3644.78 3477.1 4078.93 5934.82 4501.78 4922.49 3572.94 5001.58 4820.17 4729.42 5244.98 3886.72 5792.98 5415.45 4385.81 6592.93 6350.71 6436.74 4456.11 5096.24 5039.12 3908.98 4824.81 5769.14 6328.42 7307.21 3381.82 3619.72 4646.51 4565.93 7107.63 4831.93 5788.97 4023.93 5868.89 3274.85 5007.21 5494.28 4099.26 5206.47 4580.06 4835.97 4834.39 5493.89 7066.96 3512.94 4991.35 4587.7 4467.0 5196.92 4258.98 5644.81 3903.91 5334.36 4568.64 3919.62 4127.53 5210.75 4474.83 6555.44 5658.14 5730.61 4508.18 7124.45 2205.51 6358.93 5064.67 3894.64 3703.49 4268.19 5232.85 4374.74 3717.47 4504.86 5975.23 4473.29 4198.94 3217.67 5470.04 5079.64 4211.82 5212.37 6003.78 5684.25 5438.92 6550.4 3766.69 5036.98 4891.67 5513.8 6818.91 3503.65 3634.5 4027.63 4521.75 6631.28 6571.31 5350.88 5420.67 6735.97 5305.59 5416.45 4330.58 5754.6 3288.01 4904.51 4355.83 2202.77 5351.86 5751.15 5950.88 4149.55 4441.22 5853.89 3380.69 4140.4 4386.8 3639.44 5446.4 4725.01 5966.75 4583.52 4458.64 5510.9 6418.11 3657.69 6015.02 5244.22 5832.29 5585.14 7039.98 6456.58 3814.65 4159.81 4960.64 4983.3 4034.05 7778.01 5690.96 5798.38 5805.1 3862.91 4125.9 5366.11 3419.87 4234.88 4384.28 5113.6 4456.26 5944.3 3563.14 6282.38 5135.5 5347.9 5851.63 4504.52 5212.92 5615.84 4464.73 4928.85 4717.73 6440.38 5556.0 5545.59 4954.81 3742.31 5610.53 5755.15 4608.34 6419.64 3926.11 4057.17 2781.96 5414.58 4431.23 4994.65 5917.34 5601.55 3787.08 4462.87 6545.99 5630.9 4728.55 4554.68 4929.6 4368.28 5750.35 4489.99 4692.32 4548.45 4945.0 3127.83 4658.11 4551.26 4212.15 5114.07 4385.49 4263.18 7142.95 4559.74 4383.68 6618.21 2617.39 5144.44 4062.56 4051.18 6200.63 4583.94 5969.37 6816.66 5034.69 4509.46 3538.53 6163.54 996.652 4680.69 6500.49 2628.22 5965.58 5058.51 4244.49 3352.34 4050.03 4775.04 5188.53 4120.07 4882.66 3429.57 5569.2 6746.66 5410.33 4642.74 4844.83 5244.78 3636.15 6114.89 5135.63 6384.7 5952.38 6870.97 6056.87 5474.01 5307.35 6201.86 7554.58 5166.89 4731.21 5491.63 5725.37 3868.62 6102.98 5138.33 4505.28 3743.76 4883.63 3492.83 4971.29 6280.13 3684.15 4730.14 5510.45 2606.51 3994.39 4438.76 3864.92 6119.99 6006.89 4128.1 3965.3 4446.58 5372.82 4402.17 5401.4 5053.15 5127.82 5910.86 5124.17 6239.68 7320.78 4064.58 4834.44 5782.43 4027.33 4810.98 3873.92 5026.76 5091.22 5023.41 5640.72 4092.07 5657.55 4546.44 5727.79 4184.21 4700.07 5188.82 5043.14 4732.37 5273.37 5072.5 4985.3 5713.36 3904.07 4749.18 5748.9 3663.0 5553.94 4546.96 6304.49 5134.72 4392.75 4921.1 3814.16 4271.07 5695.79 4420.6 5464.83 3622.8 4770.51 5577.41 6511.37 5740.98 4346.07 4012.92 4013.86 4177.47 4218.16 4933.49 2918.64 6139.64 4140.92 4512.07 5984.8 5236.24 4585.04 5260.52 5678.58 6570.35 4242.63 5495.0 3269.54 5836.26 6666.67 6063.44 4826.52 5046.31 4337.32 4928.35 3844.54 1937.5 5241.75 5849.53 4651.99 4420.11 4788.7 5863.0 6127.39 5640.12 4972.18 4901.29 4124.76 4607.18 7200.89 4147.49 4813.33 4802.98 4952.52 3840.21 4833.55 4081.34 4954.76 3908.56 4749.96 5377.37 5652.87 5483.7 5018.69 3152.86 3896.27 5807.52 5963.36 5230.02 5087.14 4342.18 5169.48 6016.08 6776.22 3124.7 6064.71 6060.17 3425.69 5153.18 4763.4 6711.21 5454.11 4236.86 5393.76 4941.02 4983.1 6010.59 2955.36 7123.04 4618.73 3668.93 4009.24 5906.57 7541.76 4932.29 4775.49 4681.29 5499.59 3220.29 3845.9 5749.6 4141.21 4439.71 5667.51 6331.74 4708.31 4198.9 5431.29 4833.67 4252.18 4659.88 5325.91 4213.05 4224.3 5157.38 5702.4 6203.03 5235.87 5810.17 6089.45 5265.21 4966.07 4400.14 3669.32 4762.1 4704.92 4316.0 5424.55 6502.99 4287.25 6219.34 4191.01 4475.38 5287.25 4920.88 4184.47 5890.25 4216.44 3999.5 5759.79 4598.54 5218.42 5345.73 4770.63 4896.43 3990.94 5463.06 4639.8 4462.35 3986.41 3185.09 4241.68 6102.49 5114.23 2945.34 4489.29 7407.91 6015.22 5064.23 4454.74 6061.85 2904.46 5512.44 6449.06 5120.92 4685.4 6240.42 4731.53 3763.9 5146.0 5721.14 4577.73 5084.5 4918.64 6638.25 5329.76 3899.7 2403.72 5134.33 5419.57 5162.67 5760.98 3646.95 4705.68 7224.99 6334.53 4019.34 4658.24 5869.67 4311.48 4387.39 4899.73 5457.66 6394.19 5973.89 5366.22 6193.73 5518.11 3742.11 5712.35 5701.52 4743.9 5321.17 3719.11 4869.25 4467.13 3877.8 6273.6 5902.67 5024.32 4708.17 5806.61 3779.45 5784.37 3142.09 3682.35 3756.96 5182.13 6110.48 6245.52 3954.77 4990.23 3784.94 6016.87 3125.13 4506.66 4174.44 6715.73 4564.41 5209.55 5426.4 5951.86 5763.05 5357.39 5076.84 3791.41 5247.01 5853.12 4208.37 4841.7 5685.74 5069.9 952.938 5473.89 4678.7 3306.84 3673.6 3450.07 6215.87 4657.24 5191.26 5866.42 5544.27 3987.69 3484.81 5308.33 4666.12 6023.07 5674.63 5340.05 4589.06 5995.4 5700.79 6710.14 5034.05 4726.2 4816.51 4426.02 4711.15 5188.22 4841.23 4756.8 2804.54 5477.8 4357.11 5005.6 4176.32 6069.78 5532.75 6949.65 3469.18 4095.83 3372.95 5676.61 4301.93 5846.95 5268.15 5819.0 6347.72 3460.93 4924.07 3200.6 5124.86 4629.02 5914.5 6006.16 4288.45 4987.28 6206.98 5078.59 6562.03 4759.99 4815.47 2646.13 4368.12 4365.58 5214.4 4636.53 3629.49 5766.05 5469.35 5384.86 3835.81 4869.48 3623.19 5510.96 4906.11 4745.16 4564.1 5825.55 5509.51 4848.14 3199.4 4316.5 5254.24 4192.21 4914.03 3597.43 5086.29 5144.56 4158.91 5139.18 5311.55 5551.43 3360.86 3034.16 5049.99 5545.21 4201.03 4333.87 5684.05 5136.87 3667.93 5638.7 2741.2 5813.79 4644.88 5790.42 5293.13 7350.26 5591.77 3768.46 5167.53 5003.3 4168.52 5800.81 5106.46 6793.1 4068.31 5166.05 5077.29 5515.73 4850.5 5866.91 6405.69 2820.07 5129.68 5679.74 4825.73 5288.33 6296.54 5797.21 6019.35 6740.35 6028.63 4550.92 5146.1 6485.77 6060.06 5960.5 5393.43 6896.55 4685.65 5377.01 6470.23 6506.63 4140.04 5322.11 3495.3 4697.49 5735.08 7133.44 4750.81 3825.48 3810.68 4658.59 4196.62 2809.19 4916.7 5486.89 7208.19 4549.51 3587.93 4975.85 5695.25 5323.95 5716.42 5701.63 4620.95 5368.93 4488.39 4927.73 6121.56 4602.57 3565.32 4608.62 5407.96 5344.44 4071.75 4626.72 5549.71 4410.82 6443.99 3889.98 5193.58 5399.43 5695.44 5117.64 3422.21 3916.42 5429.3 4944.51 6653.07 5532.72 4697.91 4584.81 5071.98 5719.79 4371.08 7261.51 4968.14 5949.73 4312.48 5527.13 4278.57 6318.25 5001.87 4493.79 4279.44 4899.19 5058.34 4028.22 5575.11 3918.94 5487.63 3852.82 4507.36 7145.73 5403.97 4795.08 6562.92 5501.73 3671.06 3612.44 7035.54 5233.76 4683.28 4217.36 6549.8 4851.18 4165.36 4871.77 5368.52 5811.26 5062.77 4884.93 6075.99 5262.79 5927.2 4419.79 5407.69 3869.39 5152.78 4117.9 4753.76 4781.9 4638.09 4441.91 5330.26 5939.22 4668.8 5125.17 4271.93 4859.01 5524.45 3953.26 4474.39 5459.92 6478.35 5453.77 4104.04 2638.82 5589.53 5593.79 5025.42 4965.24 5196.08 4517.29 4495.75 4849.5 6171.01 5796.26 4603.04 4870.94 5271.88 7168.2 3763.85 3419.07 5710.33 3622.48 5001.51 6432.8 5115.42 5131.77 3186.07 4369.86 4967.51 5173.82 7212.97 5490.64 5034.34 3769.2 4507.46 5036.14 5603.68 4526.34 5610.95 3220.8 5042.75 5179.17 4598.92 5579.39 5270.51 5148.1 5490.75 5224.64 5214.63 3495.68 5783.94 6370.33 5081.08 4202.77 5836.14 6864.06 6008.81 4932.56 5537.34 5192.49 3487.31 6643.4 4674.9 5461.72 6599.28 6224.85 4556.19 5368.66 5648.78 6875.73 5226.42 4697.24 6081.3 4983.43 5117.52 6311.89 6734.39 5942.45 4150.76 5005.72 5155.28 5388.73 5205.38 4764.83 4600.71 3957.38 4494.15 5035.71 4710.88 5300.17 4057.4 5534.23 6025.77 6815.96 5339.6 5828.25 4725.11 4215.05 3626.86 6371.96 4604.1 5076.11 5990.75 5600.21 4282.11 5467.51 4625.53 4096.47 4542.16 5114.67 5353.66 5030.33 5234.2 6379.38 6257.79 5353.23 6229.83 4468.26 5578.18 5106.33 5293.37 5933.54 5559.79 5879.24 4571.74 5740.78 4096.86 4796.12 5997.91 5385.86 4082.4 5482.76 3745.02 4887.73 3720.7 4211.36 5698.53 3604.31 3856.73 4450.49 3468.45 5887.71 5635.32 4827.61 4316.45 5409.08 5481.64 5673.75 5241.22 6647.08 4979.52 3422.29 4501.05 4407.79 6548.29 3990.96 5352.24 7362.42 5793.12 5473.05 4373.2 3769.24 5884.99 5726.42 7025.09 4433.12 3392.26 2549.95 4361.24 5138.93 6406.8 7086.69 6170.9 5833.78 4436.48 5615.35 3967.76 6213.24 5987.88 3579.59 4228.53 6123.46 5057.59 6142.88 4461.14 5111.26 4574.54 4949.55 3132.34 1969.87 4841.28 4047.95 5507.38 6889.5 4416.87 4052.43 4896.67 3934.11 5158.44 4466.22 6153.71 5917.08 5483.37 5418.12 5322.07 5770.07 5101.6 4656.01 6589.13 2347.41 5602.62 2030.03 3543.37 5628.97 5527.27 5104.39 4612.13 5846.6 4109.44 5327.05 4903.84 5438.55 4434.65 5977.66 4523.81 5065.74 5791.25 5198.94 4873.23 4028.35 5464.05 5410.6 2980.31 5453.2 3148.79 6824.53 4742.82 4332.64 6791.86 4209.0 4820.68 4930.72 5728.58 6424.77 6297.99 5378.24 4538.89 5817.74 5661.6 6099.28 5285.75 5385.03 4169.15 4778.37 5360.67 5968.54 6263.3 5592.54 4537.03 4114.2 4904.37 4326.06 4358.81 5034.46 4651.64 5757.29 5016.46 5469.17 5061.75 3661.67 6022.78 4087.32 6647.85 2569.12 4161.32 5161.74 7336.37 5099.9 5932.28 6945.69 5118.86 4183.4 4304.64 4733.79 4823.06 5758.98 5254.49 5288.64 3757.23 6828.8 6883.86 3350.99 6161.94 4065.28 5418.98 5285.6 5615.06 5490.54 5203.54 6189.67 6142.94 5001.69 6581.56 3980.46 4061.87 5383.9 3798.09 3886.56 4496.51 4511.05 6561.94 5259.21 5092.93 5934.05 4714.66 2803.01 4444.0 6771.18 4984.17 5327.39 5781.62 4037.86 4138.59 5714.51 4938.33 4484.78 5157.73 4621.33 4541.22 5847.91 4934.66 4984.01 6217.33 4290.49 4557.1 6688.53 5209.5 6175.27 5876.51 6731.89 4733.41 5264.83 6348.93 5136.51 6815.51 5232.16 4422.23 4457.05 3989.26 6031.22 5485.84 3618.64 5453.69 4335.79 5918.95 5432.04 5689.56 6556.86 3921.27 3242.31 4898.29 5372.25 4431.06 3234.26 5730.2 4830.13 3494.16 5134.17 5370.9 4074.16 4904.35 6172.27 3247.97 5390.33 5124.34 5278.54 5729.0 5729.92 4179.87 6224.13 4761.84 5370.1 5517.65 4009.68 5114.51 3303.49 4622.73 5585.25 5256.75 6351.89 2960.5 4975.32 4298.7 3902.48 5237.55 6030.39 3909.94 4905.53 3799.01 7392.65 5319.1 4181.93 3038.91 6570.43 3820.19 4979.5 4745.37 5939.29 6200.05 5575.11 4052.49 4034.41 5061.74 5326.03 4420.35 4948.96 5117.83 5256.82 4013.86 4645.93 5165.31 4585.37 4288.5 5715.51 3721.69 3456.3 6074.39 5317.83 4256.08 5881.93 4399.52 4554.24 6182.19 5910.66 7415.84 4981.81 5141.03 4970.55 4840.44 8123.59 5765.14 4767.54 4946.08 5121.08 3539.68 4696.03 4605.39 6270.59 5927.1 6500.45 4907.55 4103.76 4286.61 2932.52 4603.66 4969.68 3901.53 6636.43 5431.14 5313.86 5189.91 5178.07 5777.26 5703.84 3530.82 5797.32 4886.99 5159.67 3702.45 5265.63 4645.86 5620.88 4529.77 4325.13 4262.74 3783.79 5078.73 4248.14 5279.19 5192.92 4016.6 5275.57 4786.66 5891.25 5095.52 5129.4 4746.15 3720.38 4655.37 4758.84 4731.37 5023.61 4672.86 6530.78 5560.23 5059.37 3043.77 5783.38 4139.39 6264.03 5088.64 3562.8 6589.8 6920.92 3729.16 3573.84 3783.36 4067.89 3922.28 4571.57 3445.92 5236.69 4586.82 5524.28 3133.28 6026.04 5859.17 4150.44 5522.34 5771.98 2649.69 5899.78 5717.45 5772.57 5268.27 5244.95 5448.64 5901.8 6417.61 5395.12 3830.7 5783.69 5350.9 3483.61 6738.9 4460.89 4157.1 8052.53 3939.96 4867.12 4637.3 1458.87 5734.07 3997.68 4819.83 4801.16 2927.84 5616.66 5688.77 6177.68 4698.7 2848.44 6045.26 5743.8 4094.63 5084.76 6605.11 4757.87 3557.46 5971.95 6298.8 3979.46 3689.24 5151.19 6509.54 4171.02 7012.36 5028.06 4002.99 4293.3 5587.3 3572.73 3161.1 4864.38 5764.52 3770.22 5684.88 4390.64 6523.78 4608.01 4045.67 5087.97 6005.95 4941.52 4308.49 5900.0 4581.1 6241.77 5317.19 7360.12 6223.98 5821.49 7050.08 3035.06 5580.44 5998.13 6275.25 6892.33 4505.3 4452.36 3976.0 4068.41 6463.71 4832.21 4742.35 5394.79 5645.54 5264.08 4526.87 4151.74 5192.82 5245.95 4174.22 5821.42 4515.02 6294.09 5131.07 2970.24 4121.07 4197.87 5105.54 5731.43 6353.81 3414.67 3518.14 5444.36 5044.68 6908.32 5000.74 6153.26 4813.81 3882.37 4634.25 4095.4 5188.57 6351.48 5357.33 6210.0 5432.4 4262.52 5037.58 7430.48 5992.06 5545.68 4970.12 6044.01 6520.19 5973.57 6241.48 6033.28 6286.27 5071.38 4802.36 5368.28 6229.64 5466.13 4220.43 6263.87 6666.34 4645.91 6834.92 6379.33 5652.73 6321.97 5402.45 6412.84 2589.19 6119.0 3792.06 5128.59 4993.49 5310.33 6583.37 3688.83 3402.44 4848.98 5150.84 5184.98 4467.51 5339.82 4519.03 4930.17 5110.27 4745.44 4085.96 5762.82 4612.68 4232.33 5462.6 5617.29 5770.92 4262.19 3093.38 4597.88 4845.91 4878.93 2002.78 5631.32 5793.14 4491.26 4511.34 5704.61 5009.21 4379.91 4574.03 5290.37 5850.38 4227.66 4691.01 4594.89 4730.97 3677.85 5214.71 4677.84 3463.53 4811.11 4924.52 6126.03 6044.69 5658.05 6593.1 5462.1 6032.45 5011.37 2827.92 4026.03 4441.44 4232.44 3467.11 5336.61 4817.75 5563.09 4848.15 5637.53 5523.81 4718.61 3873.79 5717.67 5252.37 4499.54 4046.22 5640.67 6080.69 4967.93 6369.66 5678.08 5922.62 5125.45 5957.82 4188.16 3717.22 6327.54 5507.07 2943.17 5327.71 4880.78 5257.38 5075.23 4975.56 7282.36 4829.77 3826.01 5581.01 3928.99 4125.75 5749.53 5130.57 5090.48 3985.93 5582.28 5945.25 6071.59 6079.55 3856.4 5485.61 4937.36 5308.4 6581.13 4569.32 5537.61 6084.88 4491.96 4397.06 4199.44 4053.12 4479.5 6261.67 5460.57 3435.13 5065.78 5703.34 4521.42 6668.98 6649.52 6043.34 4939.56 4128.93 4747.68 4959.72 4712.17 3808.04 4723.71 4461.67 6322.0 6345.2 4609.65 5128.03 5410.73 5087.3 4942.63 6139.74 4975.57 7066.26 6150.31 5873.62 4996.91 5379.52 4866.8 5314.67 5563.47 4066.36 4000.51 3162.27 6033.93 5516.37 5092.44 5432.2 4612.4 3312.3 4746.19 6381.58 4439.09 3282.57 4798.13 5648.59 6697.45 5515.59 4432.32 3224.81 3775.38 5782.25 6457.89 4844.2 6572.17 3751.73 5555.89 3374.62 4766.47 4871.1 6009.93 5872.45 4414.09 5191.29 3784.68 4947.64 6305.9 6649.21 4654.92 4859.95 5286.55 4322.56 5522.18 5509.09 5223.1 5625.02 3873.72 5212.05 5479.86 6474.5 4444.92 6959.88 5971.9 5247.73 3746.62 4876.37 5034.02 4769.62 4649.5 5181.31 4696.06 5985.75 4137.16 5475.83 6189.29 5984.55 5803.3 3228.27 4721.98 5252.82 3543.98 5056.26 5878.55 4014.44 6604.72 6002.77 4431.46 3794.47 4610.55 3207.84 4967.02 3977.98 4614.49 5400.69 4462.5 5573.31 5004.68 4023.88 5348.11 4405.61 6126.5 4034.88 3511.5 6007.1 5067.92 5488.96 3188.21 5919.27 3720.92 4793.06 6637.38 6188.33 6916.18 3057.3 5786.06 3868.69 5447.74 3920.44 4450.51 3768.62 6033.72 3851.47 4966.74 4959.94 5651.46 1635.31 5639.4 6185.73 4083.24 6520.96 3771.91 5217.62 6178.19 4616.81 5212.2 5108.42 4630.5 3354.94 6296.36 4451.76 5237.27 7885.41 4907.03 4104.97 4575.72 5114.61 6118.13 2181.29 4420.3 4926.62 6332.64 3917.09 4083.1 5270.1 3482.73 5130.56 4957.99 4063.26 4997.89 4542.62 3470.69 5093.28 4132.08 6009.88 4699.77 4850.49 4592.49 3625.98 4702.32 6153.07 4763.04 4414.06 5944.52 4413.56 4532.67 2513.38 5316.05 4908.32 5260.13 3995.08 4810.74 3900.93 4149.17 4329.8 5672.46 5202.33 3956.24 7558.99 4142.1 5043.14 5333.04 5445.91 4521.99 4812.59 6842.54 7115.67 5675.45 6038.56 2807.46 5599.16 4179.8 3488.34 5658.35 5428.24 5108.84 4582.12 4295.25 4520.14 7394.47 5357.14 4850.95 5374.09 6271.22 3421.81 3920.64 6111.23 6186.24 5822.7 4137.41 3780.07 5466.49 4038.17 5007.41 3692.99 4907.48 6213.74 2329.93 6938.87 5412.07 5512.57 4806.99 4813.55 5856.43 3839.0 5349.85 5799.86 5715.25 4362.94 4611.21 4469.82 6545.78 4870.14 4404.87 2932.2 5105.72 5767.65 5003.49 4750.76 4216.33 5497.27 4081.77 5617.91 4948.21 4987.01 4202.12 2694.25 4735.99 6492.44 4613.32 5145.39 3996.93 6351.95 5195.09 5345.05 7679.2 6131.52 4881.51 2626.41 4311.92 6729.99 4981.55 5093.41 5144.23 6188.62 5464.34 3621.63 5801.89 5908.57 7296.47 5050.2 4821.41 5616.11 5019.84 4499.52 3874.12 4028.13 5784.38 4457.73 6476.35 6260.58 5728.27 4067.24 3074.49 3053.19 6571.26 5580.95 3393.59 3549.92 4032.06 5246.81 5089.1 5888.95 5394.78 3463.34 5122.38 2853.68 3361.11 4998.37 5329.84 6559.82 3879.83 6565.95 4577.98 5043.34 5886.81 4487.51 6805.02 5354.48 4729.45 6261.13 4167.55 4720.34 5244.47 5378.75 5510.89 4495.33 5282.67 4159.89 5178.55 5146.69 6203.24 6818.23 4369.87 4488.41 5652.19 5806.74 6578.62 6284.12 3465.03 4796.04 5229.56 6011.4 5172.1 6052.22 5376.41 5003.63 4695.7 4944.08 4082.01 5269.39 3964.03 4305.35 5210.22 5832.72 3903.9 4721.2 4444.95 4706.31 5161.02 3124.49 6265.48 4203.68 5003.81 4739.56 3818.37 3352.46 4701.03 5434.04 5200.1 3997.52 5779.9 4909.74 5310.33 6664.54 6842.35 5161.73 5259.48 4777.96 6833.5 5742.39 2613.78 4780.16 4924.53 3834.01 5738.37 4433.23 4813.24 5759.19 3113.64 4490.2 4304.75 5480.86 6139.9 4720.22 4313.38 6598.99 5250.56 3633.58 2468.16 4339.97 5203.75 5169.09 4691.15 2459.88 5262.85 4210.24 5470.67 5901.71 5342.9 5733.12 6436.29 4246.24 5402.81 4600.81 4919.13 5640.63 4900.26 5783.88 5002.38 4865.11 4731.16 5502.14 6470.87 4465.56 4131.08 5747.9 3864.19 4287.93 6158.93 5081.65 4823.14 6679.12 4621.32 3878.8 4698.94 3948.21 5669.15 5296.05 5263.86 4672.34 3330.85 5056.32 5533.52 5410.33 4747.24 4380.86 5576.16 5648.02 3308.75 4439.17 2451.27 5677.42 4929.35 5606.22 3943.77 5242.38 6081.35 5459.52 6262.18 5566.5 5663.36 6225.05 5579.04 5125.53 5994.21 4444.54 5082.25 6964.78 5299.03 4565.36 3922.98 4025.08 4008.67 5254.93 4770.21 4803.4 6608.94 3796.73 5417.07 5656.84 6789.66 4739.41 5312.2 5847.27 4706.59 5734.84 3982.31 4950.07 4582.24 2832.83 5827.3 6036.99 3010.1 3825.98 6294.14 5087.03 4667.84 3906.41 4123.08 4512.6 4260.38 4636.45 4932.27 5225.11 6793.49 5252.22 6060.19 4962.35 6786.37 4333.23 4328.76 5561.63 4124.33 5168.97 4358.06 5093.51 5647.93 6705.93 6201.49 5449.09 5154.74 4605.61 6898.8 5386.95 5332.11 5315.71 4893.72 5373.78 5438.5 5345.65 5863.36 5699.4 5237.76 4286.84 6423.96 6058.13 6988.4 6635.51 4060.17 6051.35 5302.53 4909.13 4287.61 4867.13 4604.34 4863.27 2701.42 5442.79 5051.39 6673.92 5151.68 4884.94 5362.15 4609.98 4738.72 4752.31 4276.59 5240.97 5569.85 5405.6 3929.35 5403.81 4759.38 4374.05 4287.15 5036.84 5282.51 5504.65 5813.68 5732.11 3618.53 5040.9 5596.68 8013.28 3846.55 5283.65 3082.16 4644.68 2892.36 5981.54 5911.29 5416.41 4694.27 6760.64 5177.88 5551.79 6981.47 3916.15 4474.96 4084.87 4758.76 4790.63 5259.29 3584.05 4589.22 4916.75 4818.53 5097.85 5584.64 6189.04 6224.64 4221.03 3799.55 5082.66 5638.51 4550.77 4337.93 3563.33 3550.88 4345.51 5536.0 4048.73 3860.8 5145.13 3747.96 5940.5 6568.45 5004.22 4601.54 4280.92 4696.92 5705.96 6437.99 6632.04 6540.57 7360.62 4977.64 6004.72 4072.4 4983.56 5699.51 4489.18 2489.44 4883.13 4632.75 4836.76 4752.94 4994.98 3950.53 4501.1 5581.47 5894.69 4713.56 6779.82 3999.81 5543.67 6377.45 4182.05 4502.12 6853.07 4633.59 5733.59 5575.8 4455.61 6874.6 5106.9 5523.96 4223.53 4884.93 4733.37 4535.94 6960.97 4523.9 5126.08 5604.0 5669.41 4951.02 3919.47 4602.7 4868.66 4004.39 5159.9 4987.48 5943.61 4248.58 5479.17 5020.37 4542.25 4414.23 5233.88 2515.5 4849.21 4785.55 3793.83 6189.81 5367.05 4449.73 5647.11 4088.72 3945.62 3743.85 6236.46 5342.17 6379.3 5015.67 3795.63 5189.4 4576.71 6538.04 4894.15 6157.59 5201.3 5848.41 6223.33 5438.6 7370.52 5611.29 4521.88 3724.23 4963.88 7263.57 3832.09 5267.65 5739.69 3509.34 5360.88 3166.37 5369.42 4985.45 5207.08 5205.53 4714.52 5499.37 5543.05 5333.16 5551.09 5755.98 5392.85 4384.91 6550.61 4987.01 5529.09 6094.34 5448.68 4739.5 6210.48 4491.62 3865.5 3255.93 6327.61 5268.93 3695.72 5306.31 3037.72 3760.4 3783.35 4037.16 6395.63 5245.4 4090.28 4246.83 4726.5 5467.05 5103.3 5888.94 4727.98 4122.2 5175.88 4516.26 4790.16 3647.26 3731.58 4587.19 6028.89 4888.17 5077.2 4274.05 5275.27 4277.54 4531.46 5925.82 4072.95 
SCALARS Velocity float 1
LOOKUP_TABLE default
1.20179 1.20554 1.19884 1.22286 1.19178 1.2057 1.20673 1.20364 1.19181 1.19178 1.19178 1.1963 1.19178 1.19178 1.1992 1.19178 1.19178 1.19755 1.19178 1.19174 1.19145 1.20075 1.19794 1.19175 1.19179 1.19136 1.19212 1.19162 1.19178 1.19178 1.19178 1.19587 1.19856 1.20367 1.19804 1.1978 1.20039 1.1975 1.19178 1.19711 1.19337 1.19171 1.20669 1.19178 1.19143 1.21461 1.20688 1.18984 1.19701 1.19957 1.19254 1.19645 1.19584 1.20335 1.1934 1.19329 1.19225 1.19669 1.19391 1.20762 1.19193 1.19175 1.20024 1.19086 1.19184 1.19431 1.18904 1.20102 1.18293 1.19678 1.19861 1.20284 1.20793 1.20739 1.20242 1.20033 1.20061 1.21462 1.21366 1.21692 1.19178 1.19178 1.23818 1.19538 1.21044 1.19178 1.20666 1.19656 1.20615 1.21501 1.22578 1.21147 1.21324 1.20511 1.20096 1.192 1.2018 1.19829 1.2237 1.21201 1.19669 1.22316 1.20017 1.20648 1.20588 1.19165 1.19164 1.21031 1.19178 1.19711 1.19154 1.19263 1.19993 1.19178 1.19181 1.19789 1.19178 1.20484 1.19178 1.20182 1.19178 1.19178 1.19178 1.20226 1.1917 1.19178 1.19315 1.19446 1.19156 1.19733 1.20112 1.20444 1.19946 1.19854 1.20096 1.19982 1.19432 1.20183 1.1952 1.20688 1.19105 1.18889 1.20672 1.21394 1.19562 1.1899 1.19178 1.20386 1.19472 1.19353 1.19833 1.20764 1.19395 1.19427 1.19081 1.19201 1.19178 1.20063 1.19438 1.20679 1.19156 1.1993 1.19178 1.19166 1.20055 1.19178 1.19178 1.20227 1.194 1.20681 1.19061 1.19927 1.20251 1.21783 1.20774 1.20531 1.21826 1.20048 1.19494 1.19137 1.21337 1.21657 1.21263 1.19684 1.23862 1.19984 1.2131 1.19178 1.21041 1.20167 1.20806 1.21853 1.1795 1.21019 1.22332 1.21544 1.20056 1.20453 1.19775 1.1983 1.19178 1.20865 1.2124 1.22338 1.20373 1.20523 1.2018 1.21032 1.18866 1.20965 1.20144 1.19608 1.19834 1.19272 1.20364 1.19148 1.19189 1.1986 1.19178 1.20483 1.19178 1.20154 1.19178 1.19769 1.19603 1.20379 1.1996 1.1897 1.19522 1.19381 1.1955 1.19647 1.20115 1.20579 1.20207 1.20292 1.20026 1.19289 1.19898 1.19108 1.20149 1.2068 1.19178 1.20784 1.21266 1.19532 1.2009 1.19054 1.21207 1.19832 1.19294 1.19841 1.20739 1.19471 1.19424 1.19121 1.19176 1.2071 1.19531 1.20643 1.19951 1.19148 1.20402 1.20029 1.18156 1.20391 1.19683 1.19579 1.20774 1.19147 1.20451 1.19791 1.22184 1.20778 1.20506 1.2159 1.1979 1.20837 1.19388 1.21171 1.21516 1.20494 1.19642 1.23818 1.22672 1.21488 1.21854 1.21049 1.20114 1.21202 1.19113 1.18054 1.19178 1.21862 1.19996 1.19568 1.19867 1.19777 1.19338 1.19178 1.20799 1.20526 1.2242 1.2062 1.19738 1.20123 1.20944 1.18776 1.2061 1.19178 1.19602 1.20045 1.19229 1.20443 1.19419 1.19185 1.19844 1.19051 1.20445 1.21139 1.20117 1.19309 1.20003 1.20071 1.19178 1.20181 1.19047 1.19946 1.1981 1.2101 1.19647 1.20292 1.1993 1.20131 1.20688 1.20149 1.20302 1.19924 1.20129 1.19461 1.2003 1.18001 1.20531 1.18273 1.20919 1.21149 1.20285 1.20134 1.1902 1.21223 1.18923 1.20036 1.20834 1.20707 1.20448 1.19428 1.20722 1.19889 1.19335 1.19885 1.19167 1.19178 1.19377 1.19542 1.21355 1.19602 1.20343 1.2034 1.19734 1.20776 1.19066 1.20246 1.19671 1.22121 1.20872 1.192 1.21316 1.20394 1.173 1.20339 1.21432 1.19396 1.20323 1.20604 1.16185 1.23181 1.21554 1.21766 1.21067 1.20772 1.22996 1.19967 1.1893 1.22251 1.21552 1.19733 1.20056 1.19159 1.19231 1.19255 1.19496 1.2049 1.2094 1.22266 1.20355 1.20127 1.20707 1.20902 1.21841 1.20036 1.17275 1.19538 1.20379 1.19226 1.20609 1.19728 1.19182 1.20123 1.19178 1.20446 1.19132 1.20391 1.19584 1.20226 1.20174 1.2178 1.20464 1.19189 1.19929 1.19974 1.19641 1.19666 1.21094 1.19638 1.2065 1.19312 1.20374 1.19755 1.18861 1.19977 1.1815 1.177 1.2034 1.18207 1.18494 1.21408 1.19913 1.18115 1.21549 1.21359 1.20392 1.21229 1.20343 1.20449 1.1927 1.20659 1.19865 1.19928 1.19834 1.19178 1.19176 1.19275 1.21399 1.19582 1.18947 1.20931 1.19785 1.20847 1.2061 1.19239 1.19756 1.19955 1.22169 1.20876 1.20297 1.20589 1.20406 1.18007 1.20315 1.19577 1.19944 1.20166 1.19112 1.15822 1.19747 1.21545 1.21127 1.20822 1.2138 1.1866 1.17504 1.20391 1.21813 1.21801 1.15288 1.19243 1.19937 1.19824 1.19197 1.19637 1.19158 1.20991 1.2221 1.20169 1.20339 1.20508 1.2068 1.21702 1.19945 1.17377 1.19851 1.19511 1.22194 1.20692 1.19975 1.2017 1.20129 1.20764 1.19319 1.20359 1.20297 1.19575 1.20214 1.20072 1.21723 1.20276 1.20241 1.19767 1.19971 1.19492 1.19586 1.19767 1.21061 1.20416 1.20015 1.1988 1.19423 1.19567 1.20168 1.18839 1.19362 1.17954 1.19986 1.19374 1.18263 1.18715 1.20023 1.19471 1.19533 1.2137 1.20326 1.21018 1.19833 1.20386 1.18679 1.20698 1.2001 1.19949 1.19041 1.18743 1.16124 1.19225 1.21345 1.19654 1.20814 1.20777 1.18946 1.19197 1.20518 1.20147 1.20157 1.20093 1.1996 1.20032 1.19703 1.20303 1.20415 1.186 1.20608 1.19998 1.19371 1.20461 1.1878 1.21345 1.19675 1.21993 1.20357 1.20446 1.21759 1.18881 1.17777 1.19178 1.19845 1.20864 1.14956 1.19129 1.2008 1.18494 1.19115 1.19415 1.19753 1.20767 1.19633 1.20092 1.20374 1.19728 1.20598 1.215 1.19371 1.18346 1.20002 1.19847 1.19297 1.20679 1.19683 1.18794 1.20072 1.20797 1.20448 1.15681 1.2035 1.19558 1.20034 1.19833 1.19178 1.20675 1.20666 1.19944 1.19468 1.19685 1.19455 1.19418 1.20972 1.20294 1.19995 1.19782 1.20318 1.19012 1.19304 1.17637 1.19838 1.20558 1.19303 1.18799 1.18738 1.1849 1.20411 1.20618 1.21647 1.20008 1.20867 1.19837 1.20277 1.18643 1.18713 1.20141 1.1987 1.18019 1.19936 1.18233 1.19178 1.20226 1.22178 1.19629 1.20295 1.18762 1.18961 1.19825 1.20163 1.20121 1.19824 1.19859 1.20173 1.19585 1.20202 1.19829 1.19177 1.18947 1.19791 1.23466 1.2314 1.2026 1.19388 1.20911 1.19862 1.2026 1.22044 1.19083 1.19905 1.17974 1.20013 1.19046 1.16831 1.19022 1.19296 1.18483 1.1907 1.19178 1.18667 1.19482 1.19934 1.18825 1.19875 1.17797 1.19351 1.19594 1.19392 1.19814 1.19852 1.19687 1.18878 1.19934 1.18972 1.20357 1.20989 1.20514 1.19349 1.20102 1.19538 1.19689 1.19843 1.19755 1.19984 1.1917 1.20552 1.19349 1.20183 1.17617 1.192 1.20907 1.19899 1.19838 1.19558 1.19636 1.19748 1.20227 1.19111 1.20019 1.17635 1.21013 1.19163 1.19256 1.19037 1.19259 1.18381 1.18721 1.1898 1.20997 1.19296 1.19678 1.20581 1.19815 1.20085 1.18496 1.2114 1.19864 1.21038 1.18364 1.20181 1.19178 1.18209 1.19867 1.19224 1.21182 1.20762 1.16908 1.19178 1.19972 1.19838 1.18968 1.19334 1.19618 1.20103 1.19363 1.19611 1.19189 1.21333 1.20524 1.19491 1.19002 1.18319 1.20958 1.1898 1.23127 1.20483 1.19537 1.20479 1.19077 1.19324 1.2048 1.19483 1.1726 1.17627 1.17776 1.18539 1.22167 1.2057 1.195 1.18347 1.1925 1.18584 1.19323 1.19761 1.18456 1.19685 1.17855 1.19603 1.19485 1.19248 1.19597 1.1992 1.1935 1.20272 1.19348 1.19217 1.19177 1.19741 1.19253 1.20003 1.19046 1.18982 1.19536 1.20105 1.19866 1.20645 1.20437 1.18319 1.19977 1.17478 1.18918 1.19636 1.19527 1.19917 1.19508 1.19509 1.20017 1.17158 1.19886 1.16951 1.20914 1.19586 1.14005 1.18906 1.19037 1.18603 1.19103 1.20761 1.18904 1.19247 1.20154 1.19546 1.19812 1.18623 1.20495 1.19636 1.19744 1.19477 1.20621 1.14706 1.18039 1.19025 1.19104 1.22093 1.20402 1.16698 1.19194 1.20366 1.18801 1.1919 1.19199 1.1962 1.19959 1.19392 1.19178 1.19782 1.19421 1.23288 1.19189 1.17945 1.21187 1.20949 1.23817 1.20695 1.20699 1.19094 1.20065 1.19438 1.20408 1.23135 1.19559 1.18289 1.18319 1.17964 1.22271 1.19837 1.19441 1.18199 1.19029 1.18304 1.19178 1.18782 1.19245 1.18038 1.1814 1.20088 1.19289 1.19185 1.19346 1.20408 1.19178 1.18825 1.18772 1.19033 1.19749 1.19049 1.19178 1.19671 1.18875 1.19702 1.18935 1.18996 1.19669 1.19945 1.19661 1.19562 1.20709 1.18161 1.1835 1.1728 1.19178 1.19219 1.19199 1.19169 1.18564 1.18834 1.17208 1.19118 1.20117 1.17363 1.20959 1.19513 1.19178 1.19178 1.21919 1.1857 1.14634 1.2051 1.18627 1.1926 1.19922 1.21497 1.20456 1.20247 1.20226 1.19209 1.19778 1.19338 1.19178 1.23052 1.17899 1.19006 1.19991 1.19925 1.21611 1.1878 1.14621 1.20883 1.18337 1.18945 1.19467 1.19955 1.19781 1.19161 1.18824 1.17314 1.19495 1.19073 1.23962 1.18625 1.20264 1.17401 1.23614 1.20689 1.19926 1.1785 1.18866 1.19722 1.18943 1.19866 1.16565 1.22964 1.19535 1.18378 1.19051 1.1867 1.16434 1.20413 1.19196 1.18008 1.18575 1.1821 1.18947 1.18877 1.19334 1.19178 1.17925 1.19524 1.19092 1.19178 1.18439 1.20374 1.19301 1.18406 1.1994 1.2098 1.1825 1.18475 1.19838 1.18604 1.19485 1.18778 1.18741 1.19614 1.19831 1.1959 1.19426 1.20802 1.18805 1.19178 1.20473 1.19178 1.18904 1.19067 1.17754 1.18329 1.19159 1.16669 1.19542 1.2035 1.18731 1.20991 1.19288 1.19945 1.17093 1.21849 1.18539 1.19932 1.20067 1.17785 1.19035 1.19235 1.21405 1.20309 1.19982 1.20247 1.19243 1.19849 1.19325 1.18623 1.22932 1.17411 1.18873 1.19658 1.20396 1.1767 1.18969 1.20517 1.17578 1.18475 1.19131 1.19366 1.19679 1.18996 1.18321 1.18073 1.18926 1.18412 1.19731 1.186 1.19807 1.176 1.1999 1.1276 1.18241 1.18414 1.18826 1.19641 1.19165 1.19059 1.20005 1.18581 1.22731 1.19147 1.18101 1.19453 1.17986 1.18285 1.21694 1.20055 1.17942 1.18165 1.18278 1.18199 1.18889 1.18773 1.19459 1.19908 1.17565 1.18578 1.19053 1.19392 1.17707 1.186 1.19318 1.1912 1.21023 1.18477 1.18075 1.18573 1.19407 1.20476 1.19064 1.18558 1.18349 1.19494 1.19652 1.19459 1.19563 1.2062 1.18485 1.19983 1.21093 1.19178 1.18522 1.20025 1.17616 1.18466 1.19549 1.17035 1.19859 1.21654 1.18673 1.1948 1.19245 1.19178 1.17067 1.22114 1.1922 1.1974 1.19177 1.18238 1.19178 1.20323 1.20962 1.20274 1.20013 1.1996 1.19128 1.20039 1.19641 1.18291 1.22783 1.17364 1.18872 1.20025 1.1992 1.16703 1.18776 1.19997 1.21286 1.17692 1.16523 1.18903 1.19313 1.18845 1.18054 1.18168 1.18544 1.19429 1.18379 1.18416 1.19076 1.17574 1.20095 1.13784 1.18547 1.19345 1.17805 1.1879 1.17173 1.19974 1.18535 1.22513 1.18849 1.18037 1.19411 1.19495 1.19948 1.22731 1.21182 1.17823 1.18774 1.17439 1.1885 1.18478 1.19351 1.19178 1.17309 1.18596 1.19202 1.20094 1.1802 1.18719 1.13119 1.19854 1.19667 1.16728 1.18079 1.18268 1.19561 1.20248 1.18722 1.18434 1.17921 1.19345 1.19552 1.19392 1.19333 1.20928 1.18419 1.19935 1.21007 1.18649 1.1944 1.1697 1.17712 1.18345 1.19131 1.20117 1.19105 1.19059 1.1602 1.18072 1.19246 1.19258 1.1951 1.21415 1.20009 1.18729 1.18301 1.17938 1.19178 1.19178 1.19426 1.20324 1.19619 1.20743 1.20135 1.14692 1.18963 1.19783 1.21709 1.17253 1.18713 1.19943 1.19831 1.19731 1.17231 1.19376 1.20219 1.18577 1.17861 1.18777 1.18882 1.18714 1.17791 1.17079 1.18624 1.18193 1.19298 1.18135 1.18702 1.19218 1.14835 1.17259 1.19907 1.18794 1.17752 1.18219 1.1703 1.19857 1.18629 1.22238 1.18539 1.17609 1.19334 1.19496 1.20417 1.22879 1.20867 1.17725 1.18697 1.17381 1.18731 1.1891 1.15532 1.1778 1.17378 1.19012 1.19457 1.19999 1.18182 1.18448 1.20329 1.18315 1.23557 1.1742 1.18086 1.19196 1.19284 1.20344 1.19178 1.19519 1.16886 1.17929 1.19484 1.19528 1.18816 1.17296 1.19032 1.20505 1.21158 1.18177 1.20008 1.17309 1.17355 1.19751 1.19479 1.18434 1.21393 1.18366 1.16176 1.20934 1.19306 1.19427 1.1947 1.19259 1.19448 1.19293 1.19087 1.19026 1.18837 1.18601 1.19238 1.20796 1.1916 1.20812 1.20057 1.19306 1.20682 1.22075 1.22009 1.17347 1.20437 1.18612 1.19799 1.19989 1.18883 1.18028 1.20193 1.191 1.17919 1.18832 1.1871 1.17249 1.17518 1.18689 1.18322 1.18041 1.19372 1.18132 1.18441 1.18588 1.19967 1.14816 1.19514 1.18944 1.18239 1.17723 1.15852 1.19399 1.17968 1.21768 1.18312 1.17571 1.19158 1.19486 1.20673 1.19033 1.21017 1.17853 1.18617 1.19363 1.18204 1.18485 1.18964 1.17477 1.1798 1.20993 1.20549 1.19262 1.20041 1.18996 1.17805 1.19178 1.18366 1.23828 1.17414 1.18605 1.19175 1.19181 1.20227 1.18677 1.18656 1.17019 1.18023 1.19745 1.20526 1.18756 1.1909 1.18463 1.18207 1.20312 1.17927 1.20187 1.17216 1.18655 1.19823 1.19038 1.18242 1.1949 1.21385 1.16346 1.21059 1.19693 1.2022 1.19704 1.1954 1.19264 1.19294 1.19013 1.1901 1.19238 1.18786 1.20339 1.23543 1.18859 1.20497 1.19598 1.19377 1.20515 1.21964 1.22021 1.19886 1.21524 1.19931 1.18486 1.19673 1.17572 1.191 1.19772 1.20012 1.19984 1.17971 1.18793 1.20012 1.17417 1.19223 1.18334 1.18247 1.17507 1.18337 1.18343 1.19138 1.21514 1.18226 1.1687 1.18756 1.18373 1.1692 1.15843 1.18749 1.17515 1.19007 1.17848 1.21098 1.19033 1.19573 1.21264 1.16838 1.20709 1.17887 1.18564 1.18534 1.17778 1.18649 1.18931 1.17528 1.18234 1.19231 1.19584 1.18717 1.17414 1.18149 1.17934 1.23497 1.1911 1.18639 1.18718 1.19631 1.1743 1.18857 1.17952 1.1743 1.19291 1.19782 1.20446 1.18729 1.19168 1.18045 1.17744 1.18644 1.18133 1.19349 1.18802 1.16703 1.18635 1.18703 1.18648 1.20577 1.16991 1.18793 1.19178 1.19755 1.20214 1.19779 1.18772 1.19716 1.19739 1.18988 1.18739 1.19154 1.18616 1.18287 1.24272 1.18689 1.20348 1.1965 1.19366 1.2036 1.20992 1.19011 1.22136 1.2116 1.19428 1.19245 1.20534 1.19178 1.17425 1.19214 1.19682 1.19178 1.22526 1.17875 1.18745 1.16498 1.17785 1.17161 1.18502 1.14237 1.17946 1.1904 1.18899 1.1898 1.19056 1.18075 1.17047 1.18754 1.18309 1.16443 1.19178 1.18698 1.1697 1.18988 1.17684 1.19695 1.17736 1.19529 1.20629 1.16652 1.20035 1.17849 1.1881 1.17926 1.18933 1.19033 1.19008 1.17364 1.18169 1.19219 1.19607 1.185 1.17413 1.18622 1.18228 1.19309 1.19189 1.19059 1.18672 1.18893 1.16976 1.18898 1.17597 1.19086 1.16541 1.2084 1.20694 1.18533 1.18551 1.18682 1.18286 1.17244 1.20434 1.18896 1.22888 1.18753 1.20227 1.184 1.185 1.21355 1.18457 1.18982 1.18014 1.19299 1.20208 1.19715 1.18893 1.23604 1.21825 1.1891 1.19075 1.18531 1.20202 1.20782 1.19063 1.19999 1.20471 1.19283 1.19052 1.20038 1.2084 1.21812 1.19516 1.19157 1.2032 1.20174 1.1961 1.19076 1.20035 1.2127 1.19247 1.17903 1.18665 1.16292 1.17243 1.18484 1.19178 1.1421 1.19311 1.18944 1.18721 1.18663 1.19251 1.18242 1.19009 1.19178 1.18501 1.16608 1.15943 1.16224 1.17383 1.18882 1.17456 1.19752 1.17532 1.1893 1.20327 1.16123 1.18844 1.17826 1.19072 1.19375 1.18899 1.19362 1.18797 1.1771 1.17143 1.17972 1.17098 1.17726 1.18381 1.17421 1.19254 1.181 1.19206 1.191 1.19167 1.18881 1.18876 1.18171 1.16895 1.16609 1.17365 1.1669 1.19456 1.19178 1.18561 1.18511 1.1851 1.17137 1.18242 1.20522 1.18885 1.19178 1.18768 1.2032 1.1932 1.19914 1.18995 1.19922 1.19834 1.19178 1.20358 1.20087 1.18831 1.19067 1.23456 1.18967 1.18025 1.20267 1.21633 1.18913 1.1856 1.20559 1.19831 1.1979 1.19781 1.17865 1.18913 1.19032 1.20049 1.20962 1.21485 1.18106 1.19265 1.18428 1.19178 1.20226 1.19178 1.19284 1.22371 1.18901 1.17662 1.17925 1.17568 1.16752 1.18956 1.18345 1.19178 1.19091 1.19693 1.18956 1.18131 1.18299 1.18079 1.18372 1.18926 1.18352 1.18357 1.16643 1.19178 1.16208 1.19209 1.18701 1.19178 1.19173 1.17026 1.18976 1.19798 1.18477 1.184 1.17835 1.19062 1.1955 1.19569 1.19155 1.19259 1.18833 1.17708 1.1789 1.17389 1.18236 1.17153 1.17528 1.17913 1.17958 1.19576 1.17987 1.16714 1.19164 1.19023 1.19181 1.18619 1.18145 1.16835 1.18358 1.16807 1.18853 1.19284 1.19405 1.19178 1.19178 1.18255 1.16856 1.18556 1.19765 1.18505 1.18949 1.1885 1.2063 1.19459 1.2056 1.18613 1.19072 1.21326 1.20072 1.20041 1.20867 1.19722 1.2294 1.16957 1.21938 1.20603 1.18714 1.20299 1.20347 1.19649 1.19424 1.19521 1.17763 1.19057 1.18979 1.20204 1.20967 1.21247 1.18216 1.18046 1.18344 1.1803 1.1954 1.17346 1.19205 1.22247 1.19107 1.17609 1.17833 1.17547 1.16739 1.19178 1.17963 1.20072 1.1953 1.19745 1.19376 1.1909 1.17456 1.19218 1.18322 1.19053 1.18313 1.18501 1.17798 1.23878 1.14863 1.18714 1.18605 1.1979 1.18764 1.16861 1.18978 1.19237 1.18333 1.1801 1.1981 1.19806 1.19178 1.19601 1.19091 1.1936 1.20133 1.19334 1.18268 1.1877 1.19178 1.17484 1.18189 1.18597 1.1932 1.1848 1.19178 1.18918 1.1914 1.18632 1.19195 1.18632 1.18225 1.18245 1.18845 1.16706 1.19199 1.19392 1.19166 1.19223 1.17514 1.18339 1.1713 1.18829 1.1972 1.18106 1.18933 1.18746 1.17159 1.19706 1.21091 1.19541 1.19091 1.22185 1.18785 1.20289 1.23617 1.17724 1.21684 1.18884 1.20011 1.20129 1.20259 1.20135 1.18908 1.19432 1.1897 1.18768 1.18862 1.18649 1.2056 1.18507 1.1824 1.17997 1.16633 1.17605 1.18627 1.17039 1.19659 1.18488 1.18797 1.19924 1.17879 1.1768 1.1683 1.19972 1.20074 1.18001 1.19671 1.19653 1.19985 1.19149 1.18705 1.17181 1.18493 1.1942 1.18034 1.182 1.18666 1.18924 1.17871 1.17894 1.18607 1.18538 1.18755 1.19832 1.18458 1.16936 1.20256 1.1826 1.1825 1.17729 1.18942 1.18964 1.18788 1.19387 1.18963 1.18241 1.18888 1.19436 1.17482 1.18671 1.19023 1.17908 1.19134 1.188 1.18511 1.19178 1.18904 1.19178 1.19165 1.19285 1.1933 1.16664 1.19917 1.19476 1.19194 1.19194 1.19643 1.17844 1.19329 1.18478 1.18342 1.19946 1.18063 1.17974 1.19496 1.18529 1.19563 1.21217 1.20556 1.20468 1.19188 1.20539 1.20474 1.21606 1.20786 1.2048 1.20145 1.22369 1.19367 1.19951 1.19305 1.20198 1.20365 1.19331 1.17747 1.19413 1.19773 1.18855 1.18711 1.17287 1.20476 1.19199 1.19326 1.16536 1.15919 1.17596 1.18452 1.16925 1.19436 1.18972 1.18694 1.19818 1.18538 1.18595 1.19178 1.2007 1.18845 1.18169 1.19688 1.17839 1.17048 1.18477 1.19178 1.18186 1.1833 1.19178 1.19622 1.18585 1.19246 1.19143 1.18603 1.20497 1.19668 1.17964 1.18678 1.20226 1.1809 1.18118 1.17549 1.18768 1.19449 1.19592 1.18926 1.18727 1.19039 1.18867 1.19136 1.17444 1.19288 1.17392 1.18603 1.1903 1.17866 1.19117 1.18739 1.18802 1.18506 1.19153 1.1764 1.19371 1.1952 1.19527 1.19908 1.19527 1.18977 1.18363 1.20026 1.18664 1.18542 1.17827 1.18038 1.18365 1.18098 1.20452 1.17158 1.19718 1.19252 1.20438 1.20207 1.21611 1.21059 1.20513 1.2012 1.1918 1.20767 1.18511 1.18754 1.20278 1.19178 1.18755 1.16202 1.2261 1.19484 1.19176 1.18568 1.20132 1.20594 1.16508 1.1844 1.14067 1.15866 1.17963 1.18213 1.18978 1.19114 1.19003 1.18459 1.19695 1.18631 1.19194 1.19177 1.18826 1.16547 1.19714 1.18602 1.18584 1.17016 1.18322 1.18635 1.18877 1.17849 1.18534 1.20049 1.19061 1.19065 1.19081 1.18571 1.20323 1.19178 1.19495 1.1789 1.18969 1.18065 1.17733 1.18157 1.17539 1.18739 1.19521 1.18971 1.19178 1.19179 1.1906 1.18865 1.19103 1.19178 1.19178 1.19178 1.18705 1.19178 1.19178 1.19161 1.18729 1.18992 1.18449 1.18917 1.18954 1.19907 1.19225 1.19347 1.18518 1.19421 1.17979 1.18675 1.1945 1.19457 1.18337 1.18706 1.18393 1.19943 1.18069 1.18341 1.17937 1.18288 1.20372 1.17068 1.18562 1.19498 1.19525 1.1961 1.2 1.1976 1.20855 1.19129 1.20793 1.2037 1.21122 1.18363 1.22077 1.18669 1.18727 1.19975 1.18468 1.12182 1.17936 1.26896 1.21154 1.18801 1.16021 1.18478 1.19696 1.20578 1.1266 1.16506 1.19545 1.19178 1.17615 1.18226 1.18004 1.18834 1.19031 1.18442 1.19695 1.18679 1.18935 1.19369 1.19208 1.18687 1.19178 1.19401 1.19178 1.18715 1.19046 1.18288 1.18568 1.18825 1.17757 1.18376 1.18662 1.19008 1.18987 1.19099 1.18556 1.1935 1.17752 1.18361 1.17866 1.17887 1.181 1.17472 1.18725 1.18688 1.18829 1.19176 1.19177 1.19046 1.19178 1.19116 1.19178 1.19178 1.19178 1.18709 1.19178 1.19178 1.19162 1.19163 1.19173 1.18504 1.18916 1.18917 1.19304 1.19094 1.18627 1.18208 1.19415 1.17965 1.19152 1.19578 1.17583 1.18301 1.1872 1.18392 1.1862 1.1915 1.19162 1.17442 1.19055 1.16874 1.18923 1.19977 1.19686 1.19631 1.18789 1.18612 1.20656 1.20025 1.21185 1.2273 1.20458 1.18087 1.1885 1.25074 1.17009 1.23115 1.18565 1.20329 1.18833 1.16777 1.19735 1.19384 1.18843 1.20243 1.16557 1.1961 1.18641 1.18124 1.18374 1.18233 1.18733 1.18791 1.18382 1.18466 1.18761 1.18918 1.18571 1.19174 1.19071 1.19126 1.19467 1.18622 1.18612 1.19048 1.18347 1.1917 1.18921 1.17704 1.18346 1.18665 1.18852 1.19178 1.19118 1.19202 1.18592 1.19012 1.17612 1.17312 1.17255 1.18037 1.18022 1.17488 1.18721 1.19178 1.18796 1.19178 1.19177 1.19041 1.19176 1.19111 1.19178 1.19178 1.19178 1.1869 1.19178 1.19178 1.19164 1.19178 1.19166 1.18483 1.18897 1.18905 1.18882 1.19044 1.19213 1.19263 1.19012 1.18163 1.18519 1.1939 1.17826 1.18117 1.19188 1.18222 1.18732 1.19111 1.19224 1.17412 1.16133 1.17827 1.18938 1.19009 1.18504 1.18967 1.18377 1.21242 1.20692 1.2162 1.21547 1.2011 1.17839 1.18587 1.23293 1.16188 1.23122 1.18425 1.1872 1.18655 1.16083 1.18078 1.19524 1.17859 1.17581 1.16346 1.20829 1.17902 1.18805 1.19176 1.19184 1.19177 1.1881 1.18373 1.18433 1.19178 1.18638 1.18446 1.18806 1.19178 1.18673 1.19269 1.18564 1.18525 1.18575 1.18945 1.1931 1.18379 1.19118 1.18006 1.18597 1.18855 1.18953 1.18499 1.18984 1.18568 1.19321 1.17678 1.18996 1.17282 1.17604 1.17751 1.18626 1.20045 1.21934 1.19265 1.20703 1.20266 1.21137 1.21656 1.15052 1.20265 1.1709 1.22859 1.18382 1.25824 1.13609 1.21691 1.18282 1.21372 1.19418 1.18057 1.20367 1.2172 1.19748 1.18256 1.19815 1.19306 1.14666 1.15337 1.1799 1.22696 1.17965 1.22842 1.27024 1.21483 1.1525 1.19201 1.16392 1.1874 1.19655 1.21135 0.0510839 0.0656861 0.0784044 0.0574822 0.0904318 0.178895 0.0743412 0.0982826 0.0372719 0.0413994 0.0522005 0.0710102 0.105218 0.128855 0.150413 0.140844 0.158786 0.17066 0.124609 0.18378 0.249389 0.371075 0.408521 0.218216 0.375172 1.02864 1.15176 0.675873 0.285545 0.181092 0.119685 0.105004 0.183568 0.170216 0.135768 0.106927 0.143068 0.173102 0.226168 0.0964821 0.133149 0.087304 0.0526702 0.0958302 0.271636 0.0559889 1.18704 1.23469 1.19076 1.21444 1.19192 1.22309 1.21669 1.21567 1.17796 1.18713 1.23971 1.27149 1.25866 1.18873 1.21325 1.20152 1.1862 1.20041 1.2066 0.0686692 0.193788 0.0650642 0.0852354 0.0647075 0.105968 0.158836 0.112545 0.148826 0.28609 0.338798 0.160109 0.232999 0.246095 0.137179 0.0728045 0.146311 0.169269 0.162701 0.109225 0.119827 0.128426 0.256135 0.198421 0.284596 0.21036 0.143187 0.179561 0.150744 0.122514 0.141042 0.112408 0.0997329 0.0977112 0.0983258 0.157085 0.184689 0.111623 0.126068 0.1213 0.113254 0.127402 0.0804729 0.0663987 0.03926 0.130296 0.112247 0.0797505 0.121908 0.192816 0.123141 0.268311 0.119385 0.11583 0.187514 0.0983602 0.0680886 0.0654225 0.073383 0.106246 0.152901 0.179884 0.247964 0.293496 0.185864 0.312626 0.338572 0.471817 0.348939 0.526804 0.296192 0.509142 0.481593 0.348607 0.154188 0.164794 0.253418 0.134443 0.131104 0.163093 0.125172 0.159222 0.270498 0.210663 0.219608 0.129861 0.153586 0.321346 0.29875 0.137527 0.227689 0.200029 0.136301 0.0870435 0.0984353 0.181481 0.0462548 0.187137 0.171009 0.0990531 1.1325 1.20513 1.1782 1.24022 1.20129 1.18365 1.21895 1.21282 1.18096 1.22326 1.2197 1.19683 1.21685 1.2796 1.23228 1.17824 1.21553 1.21831 1.21593 1.20562 1.2242 1.20031 0.271683 0.100879 0.269761 0.11425 0.105405 0.104239 0.140002 0.172575 0.198908 0.33671 0.7721 0.632648 0.904268 0.518548 0.187843 0.0863245 0.0592499 0.134819 0.192356 0.15425 0.198626 0.203898 0.155829 0.133061 0.172925 0.126895 0.116072 0.0599226 0.189702 0.301815 0.285553 0.224369 0.158195 0.112639 0.114736 0.145664 0.116373 0.114882 0.0811404 0.0973898 0.146061 0.0731943 0.18469 0.174947 0.20082 0.177123 0.142764 0.0815108 0.151434 0.0517645 0.093697 0.182352 0.248472 0.191411 0.151777 0.243302 0.203922 0.151299 0.211217 0.26159 0.249589 0.160208 0.151788 0.101482 0.0313652 0.0779296 0.133631 0.0739966 0.155445 0.1512 0.167893 0.201141 0.170757 0.212681 0.214597 0.328773 0.374507 0.34812 0.700011 0.531139 0.368923 0.379929 0.366732 0.77387 0.639569 0.301065 0.391815 0.160646 0.0673139 0.0858205 0.116972 0.103599 0.175449 0.212905 0.352467 0.295848 0.32605 0.316726 0.236316 0.342791 0.229026 0.510275 0.386234 0.326866 0.229254 0.319763 0.158747 0.0324965 0.29083 0.196121 0.220925 1.17899 1.23409 1.30209 1.19547 1.18703 1.2056 1.20271 1.21447 1.20495 1.2049 1.19583 1.2693 1.19815 1.22758 1.26753 1.25257 1.21819 1.26858 1.08532 1.05914 0.129456 0.354909 0.12421 0.180304 0.254247 0.194405 0.235888 0.230354 0.306201 0.136431 0.109677 0.148892 0.121963 0.16528 0.299759 0.706131 0.34178 0.402418 0.253899 0.329573 0.596714 0.362071 0.192716 0.270887 0.26336 0.122993 0.151505 0.183648 0.150989 0.109841 0.178523 0.0914479 0.118939 0.152804 0.208518 0.280128 0.240706 0.330495 0.220422 0.328787 0.194867 0.260976 0.17945 0.138221 0.113706 0.126591 0.143834 0.146084 0.184314 0.22225 0.106643 0.243765 0.201802 0.175379 0.243467 0.233323 0.24456 0.136365 0.0960996 0.0545897 0.133195 0.0472907 0.253729 0.167302 0.147362 0.248895 0.345464 0.287133 0.334276 0.253691 0.26612 0.342355 0.242968 0.360351 0.336398 0.31686 0.205926 0.137816 0.0825352 0.0760331 0.0819019 0.176341 0.190745 0.1803 0.272246 0.480255 0.466151 0.726125 0.557535 0.35792 0.284094 0.401379 0.529716 0.17186 0.143089 0.113575 0.100755 0.10656 0.0414098 0.0619497 0.173414 0.29423 0.384971 0.382913 0.373017 0.390501 0.333342 0.193119 0.497558 0.360927 0.385295 0.397223 0.412591 0.275301 0.258223 0.309289 0.260451 0.485054 0.115368 0.337804 1.1446 1.21546 1.17714 1.20052 1.20006 1.19089 1.21181 1.22073 1.19923 1.19478 1.18953 1.16089 1.17065 1.19584 1.25623 1.27297 1.13698 1.09368 0.191018 0.252902 0.105052 0.22864 0.343375 0.31017 0.432105 0.275094 0.131317 0.106419 0.282837 0.226178 0.304548 0.325568 0.570539 0.434196 0.420408 0.386199 0.440711 0.308392 0.309129 0.218518 0.09274 0.309828 0.179544 0.274283 0.16704 0.301435 0.217429 0.235274 0.140645 0.238394 0.249391 0.331252 0.356734 0.376262 0.280699 0.405746 0.329042 0.234483 0.186348 0.12171 0.194824 0.304294 0.367106 0.289866 0.22074 0.252776 0.221251 0.305619 0.117097 0.321464 0.269657 0.227614 0.187392 0.267323 0.343231 0.38982 0.378466 0.43097 0.40557 0.329669 0.249189 0.372746 0.465882 0.472182 0.37865 0.13649 0.115922 0.193857 0.210327 0.272187 0.208117 0.195157 0.162165 0.256737 0.692114 0.792035 0.89865 0.706931 0.163198 0.540566 0.421757 0.525724 0.501617 0.522532 0.425098 0.132656 0.195154 0.104078 0.133532 0.241821 0.228421 0.413714 0.475004 0.483194 0.399836 0.377737 0.26464 0.467988 0.525711 0.547802 0.448205 0.366135 0.318745 0.427174 0.400908 0.418903 0.427506 1.0673 1.18699 1.19833 1.20934 1.19896 1.20005 1.18573 1.20135 1.20374 1.16939 1.19118 1.18859 1.18505 1.15423 1.15278 1.19547 1.14026 1.1656 1.17387 1.22604 1.14009 0.313178 0.367011 0.375963 0.382622 0.376752 0.600578 0.151062 0.129729 0.146697 0.275684 0.232751 0.298238 0.354918 0.436528 0.590264 0.449414 0.442068 0.367237 0.507384 0.342253 0.187469 0.39467 0.429357 0.470522 0.0877113 0.198727 0.416452 0.395778 0.396197 0.466083 0.444537 0.511481 0.449103 0.309236 0.244877 0.247229 0.222866 0.24647 0.286928 0.263131 0.386707 0.431832 0.44953 0.476244 0.226571 0.404163 0.3415 0.346423 0.36613 0.319236 0.520187 0.252985 0.326157 0.444892 0.45124 0.489232 0.380259 0.281719 0.344616 0.520169 0.42917 0.535438 0.653773 0.452939 0.191027 0.576985 0.0603248 0.384548 0.372584 0.277003 0.273436 0.170684 0.426391 0.747315 0.541509 0.453294 0.638776 0.596334 0.593142 0.723173 0.524517 0.51481 0.645953 0.392747 0.311648 0.367441 0.379906 0.463449 0.433046 0.575085 0.531107 0.37217 0.408965 0.46099 0.469225 0.493553 0.606177 0.5992 0.564612 0.504649 0.381895 0.354306 0.449831 0.458135 0.651493 0.702139 1.17001 1.22213 1.13432 1.19642 1.20422 1.22186 1.17576 1.18606 1.19281 1.19758 1.17968 1.1824 1.17621 1.17714 1.16389 1.17064 1.13999 1.17988 1.17828 1.20082 1.18587 1.13882 1.28964 1.18619 1.23911 1.16211 1.19178 0.423081 0.564619 0.553689 0.460744 0.373694 0.416874 0.506597 0.626313 0.663514 0.181306 0.178757 0.35528 0.235037 0.28507 0.302992 0.339172 0.426808 0.578161 0.546756 0.533165 0.472675 0.42575 0.198348 0.470526 0.647852 1.57689 0.419542 0.598901 0.466154 0.47614 0.494086 0.495099 0.382993 0.26789 0.266064 0.527338 0.403358 0.364876 0.253139 0.315281 0.519286 0.374664 0.455557 0.75537 0.454118 0.498981 0.503105 0.4367 0.358466 0.521503 0.523168 0.421356 0.328283 0.591916 0.826555 0.619465 1.05125 0.353152 0.6102 0.432799 0.247435 0.152952 0.669392 0.420218 0.513604 0.60104 0.696588 0.6319 0.526525 0.673933 0.137238 0.687524 0.534774 0.408556 0.300976 0.68607 0.618542 0.670235 0.633033 0.453146 0.495665 0.524274 0.693832 0.578028 0.51277 0.364526 0.560603 0.619684 0.62566 0.687769 1.18378 1.1435 1.2069 1.12382 1.13774 1.1732 1.1823 1.18897 1.19213 1.17481 1.18712 1.17533 1.1603 1.13949 1.26536 1.23662 1.18237 0.498055 0.546246 0.499684 0.55767 0.60724 0.675931 0.690757 0.333132 0.44637 0.616305 0.291005 0.35851 0.39642 0.573554 0.578127 0.48963 0.427029 0.484251 0.544969 0.453423 0.443398 1.14921 0.381149 0.316936 0.545278 0.539941 0.475931 0.556865 0.404717 0.275829 0.424582 0.540663 0.405403 0.424725 0.275375 0.277108 0.714562 0.386006 0.309052 0.303452 0.485378 0.859365 0.534114 0.587373 0.517089 0.817988 0.544741 0.632498 0.311821 0.507599 0.734555 0.93293 0.879159 0.870743 0.438472 0.407449 0.119026 0.271568 0.483823 0.648858 0.757797 0.614733 0.558419 0.633319 0.720147 0.688693 0.63584 0.402722 0.441034 0.412604 0.283609 0.776807 0.800424 0.698662 0.587749 0.635203 0.515513 0.574505 0.446533 0.492375 0.683236 0.666199 0.562345 0.535457 0.59985 0.617659 0.672555 1.16105 1.14486 1.22754 1.13325 1.12743 1.17181 1.1919 1.17794 1.18764 1.1856 1.1744 1.1888 1.17686 1.18039 1.15032 1.16491 1.21629 1.19621 1.27064 1.1833 1.07952 0.540865 0.639236 0.57969 0.565813 0.614233 0.810789 0.659416 0.267076 0.792827 0.868138 0.735546 0.639339 0.611125 0.643832 0.559198 0.56806 0.48141 0.518534 0.535791 0.47833 0.753918 0.912824 0.692927 0.520557 0.505069 0.582489 0.395515 0.465798 0.821493 0.58868 0.460628 0.311156 0.530159 0.777331 0.739126 0.494856 0.584006 0.672964 0.959314 0.613251 0.661006 0.678487 0.82455 0.594345 0.578383 0.612322 0.255156 0.624579 0.525126 0.913911 0.860575 0.800399 0.771251 0.814839 0.601653 0.390736 0.823498 0.679719 0.678449 0.680002 0.757715 0.861396 1.00012 0.588738 0.624685 0.61927 0.437168 0.479656 0.82492 0.76785 0.794074 0.684636 0.657632 0.64296 0.658462 0.4259 0.777676 0.972271 0.72974 0.647126 0.647977 0.676985 0.705553 0.651228 0.617177 1.15007 1.29432 1.24598 1.15761 1.13361 1.13864 1.1678 1.18341 1.18255 1.17331 1.14345 1.15465 1.19736 1.15553 1.16152 1.15374 1.207 1.10748 1.09125 1.10329 0.69126 0.625469 0.720076 1.02358 0.696351 0.866029 0.395184 0.749783 0.989079 0.739663 0.674685 0.628133 0.710653 0.585712 0.563362 0.487527 0.697625 0.645337 0.499359 0.838796 0.772794 0.566302 0.548215 0.544121 0.567337 0.698994 0.43516 0.42457 0.563522 0.738125 0.829511 0.387771 0.311766 0.758836 1.1231 0.728483 0.657748 0.748675 0.686916 0.870701 0.603901 0.749147 0.630024 0.559903 0.706095 0.916812 0.845298 0.973306 0.785136 0.759919 0.722196 0.787909 0.781859 1.03935 0.529324 0.796599 0.812637 0.791889 0.859978 0.779359 0.656232 0.688531 0.84688 0.812897 0.996334 0.816586 0.804002 0.644369 0.776688 0.832299 0.537057 0.75131 0.700099 0.726815 0.696124 0.728088 0.709177 0.928239 0.925877 0.679092 0.60516 0.86734 0.870786 0.718168 0.673749 0.705368 1.15777 1.11714 1.23039 1.15936 1.19178 1.149 1.17666 1.18125 1.18329 1.14852 1.18754 1.15669 1.17506 1.19076 1.14639 1.15512 1.16288 1.13917 1.18795 1.20749 1.09867 1.12419 0.786646 0.794311 0.731133 0.662697 0.697814 0.638161 0.925543 0.749963 0.922775 0.894468 0.874022 0.775349 0.772485 0.706239 0.759721 0.666495 0.65329 0.599392 0.639802 0.528434 0.744574 1.19149 0.678193 0.725817 0.55312 0.589177 0.631139 0.76965 0.47053 0.810775 0.690464 0.530607 0.500455 0.745478 0.479288 0.960915 1.04865 0.801637 0.767602 0.824895 0.886926 0.704555 0.822026 0.975913 0.799005 0.901366 0.785645 0.677921 0.616754 0.86184 1.09809 0.660208 0.825541 0.779724 0.822305 0.754365 0.943576 0.854149 0.9362 0.956278 0.964437 0.947667 0.923272 0.745898 0.782493 0.636593 0.832376 0.924091 0.922486 1.03792 0.800994 0.804014 0.77966 0.751409 0.772246 0.718747 0.81603 0.864831 0.981426 0.674616 0.749032 0.718641 0.888277 0.932281 0.797267 0.923152 0.710038 0.624012 0.6161 1.18618 1.1194 1.19473 1.1622 1.16048 1.18336 1.17556 1.18708 1.17677 1.20357 1.17861 1.18072 1.15186 1.20415 1.20345 1.16222 1.17322 1.15492 1.15946 1.18662 1.20533 1.11844 1.11156 0.862382 0.886006 0.863684 0.849108 0.779423 0.879278 0.78917 0.7672 0.982951 0.920953 0.83832 0.83901 0.820623 0.797529 0.819728 0.61019 0.827219 0.733157 0.701153 0.626752 0.710256 0.710889 0.634029 1.04046 0.745097 0.80672 0.668195 0.676175 0.692644 0.745912 0.873477 0.585163 0.712916 1.16338 0.494865 0.616581 0.601472 0.537908 0.782759 0.986815 0.748434 0.838888 0.895498 0.979856 0.799806 0.633155 0.875588 0.99734 0.924137 0.968549 0.648501 0.96184 1.16994 0.877302 0.786105 0.783907 0.801284 0.89113 0.854821 0.908737 0.964809 0.903392 0.949912 0.962623 0.839415 0.576326 0.940497 1.01263 0.973417 1.21929 1.19768 0.643 0.81566 0.919273 0.822501 0.797927 0.865882 0.775569 0.939968 0.885273 0.957834 0.935929 0.923994 0.83414 0.986082 0.963753 1.14162 1.18213 1.18354 1.18523 1.18524 1.16238 1.18016 1.20394 1.16477 1.1742 1.16271 1.15662 1.16641 1.17117 1.17628 1.15776 0.901447 0.823014 0.88584 0.942957 0.884157 0.882162 0.948305 0.854508 0.77695 0.970232 0.956051 0.929423 0.901636 0.970339 0.871702 0.885825 0.880751 0.836809 0.645349 0.83955 0.805823 0.833451 0.748936 0.679004 0.824548 0.765231 0.579463 0.905953 0.662336 0.729977 0.946757 0.923912 0.788503 0.880819 0.811463 0.421457 0.795257 1.02444 1.12452 0.646313 0.710854 0.668269 0.859637 0.97258 0.895858 0.894481 0.915699 0.940868 0.810241 0.698944 0.929504 0.972635 0.95811 0.971003 1.19026 1.26296 0.934948 0.945339 0.952831 0.879779 0.856032 0.913988 1.00208 0.942302 0.981564 1.01639 0.885615 0.793842 1.06792 0.987795 1.12005 1.20016 0.80616 0.965289 1.01953 0.965392 0.808644 0.827156 0.808184 0.95539 0.977584 1.04522 0.936937 0.935594 0.74454 0.895422 1.14589 1.07666 1.19176 1.01781 1.07949 1.11443 1.12192 1.1273 1.15542 1.17971 1.15802 1.15699 1.18459 1.19228 1.19785 1.17694 1.19056 1.15823 1.16995 1.17148 1.16434 1.16328 1.17712 1.17709 1.152 1.13733 0.966168 1.01125 0.903171 0.945828 0.861282 0.7843 1.00376 0.857848 0.980904 1.09091 0.91698 0.891553 0.889977 1.01948 0.816767 0.872629 0.870954 0.925212 0.885851 0.846873 0.70652 0.899895 0.968462 0.882697 0.989689 1.03145 0.724413 0.835453 0.877002 0.974085 0.826353 0.944006 1.10768 0.851746 0.921197 0.717919 0.92305 1.12913 0.956739 0.984588 0.896561 0.975963 0.815832 0.763246 0.811894 0.975809 0.974136 0.992311 1.16176 1.01049 1.13122 1.07035 0.975175 0.883292 0.97171 1.09043 0.976674 1.05044 1.10026 1.16317 1.10507 1.00796 1.12544 0.841178 0.984735 1.14292 0.855245 0.904126 0.85284 0.976891 1.05278 1.05783 0.92864 0.984673 1.04949 1.17543 1.05363 1.1399 1.18939 1.16003 1.15496 1.17792 1.15693 1.18344 1.19611 1.17432 1.1799 1.17036 1.15304 1.17404 1.168 1.16997 1.16699 1.17865 1.1636 1.14951 1.19178 1.10991 1.17325 1.15807 1.1953 1.00464 0.909852 0.998793 1.02013 0.871182 1.05894 0.956116 1.18521 1.01648 1.01711 0.952399 1.00433 0.791508 0.921296 0.938669 0.908896 1.08004 0.852839 0.977376 1.02018 0.813577 0.95013 1.05426 1.05426 1.07309 0.815425 1.05513 1.20052 0.827438 0.963062 1.04594 1.01252 1.00334 1.00132 0.980691 0.939576 1.03579 1.12027 1.15677 1.01054 0.894974 1.00117 0.846944 0.869292 1.02084 1.0388 1.1097 1.12094 1.05673 1.0725 1.10614 0.998041 0.995617 1.13939 1.08085 0.922535 1.19178 1.06501 1.1523 1.10381 1.09625 1.01702 1.01771 1.13977 1.15916 1.08221 1.09674 1.18348 1.07527 0.930461 0.916771 0.956426 1.03282 0.995976 0.990447 1.09975 1.15176 1.00318 1.05829 1.16083 1.06314 1.14363 1.19121 1.17722 1.15456 1.15775 1.1978 1.19096 1.18183 1.19138 1.17387 1.1728 1.18218 1.17329 1.18259 1.18312 1.18106 1.1702 1.16265 1.16245 1.16724 1.16783 1.17435 1.19258 1.18017 1.19543 1.17692 1.00784 1.01152 0.923333 1.06406 1.03969 1.2328 1.03846 1.0338 0.984787 1.07079 0.939694 1.0854 1.05672 0.830162 0.997475 1.07584 1.06888 1.0739 0.880999 0.873885 1.13089 1.17174 0.949696 0.95269 0.978743 0.989727 1.01925 1.04531 1.10567 1.09018 1.16552 1.11137 1.04139 0.928206 1.00921 0.953879 0.923534 1.00603 1.03857 1.0357 1.04834 1.08611 1.1091 1.15454 1.12549 1.16043 1.06875 1.16523 1.11395 1.00043 1.0246 1.17064 1.18601 0.956751 1.13931 1.0825 1.09473 1.1363 1.1047 1.14058 1.03585 1.08366 1.04053 1.17568 1.0577 1.09296 1.04985 1.16296 1.06146 1.19178 1.14345 1.12004 1.06312 0.970937 0.989921 1.11807 1.14361 1.02817 1.11829 1.07651 1.15161 1.13415 1.18832 1.18486 1.16294 1.19172 1.19189 1.18101 1.18926 1.17184 1.18316 1.17285 1.17179 1.19058 1.18093 1.18215 1.18782 1.18686 1.17831 1.19178 1.1731 1.18379 1.19178 1.18035 1.19569 1.03638 1.18084 1.17505 1.12765 1.04113 1.03288 1.09258 0.961103 1.06575 1.17509 1.20536 1.0539 1.09203 1.19178 1.13653 1.01584 1.14609 1.22332 1.24107 1.10025 1.08666 1.15663 1.05151 1.17756 1.18207 1.15814 1.07923 0.906467 1.17435 1.17573 1.19289 1.00652 1.056 1.02207 1.16174 1.16714 1.08968 1.16178 1.11245 1.06999 1.12494 1.02562 0.962375 1.02788 1.07931 1.04405 1.05999 1.07616 1.17327 1.17186 1.17382 1.13662 1.11235 1.1594 1.15624 1.0803 1.04445 1.15422 1.22028 1.17701 1.15939 1.14647 1.0657 1.12804 1.13545 1.08199 1.08912 1.05718 1.1002 1.17058 1.0834 1.15627 1.08972 1.23949 1.07325 1.12894 1.16206 1.10735 1.09319 1.15626 1.14581 1.1406 1.16472 1.13027 1.17066 1.14311 1.18852 1.18571 1.19572 1.19322 1.18322 1.19026 1.17456 1.19826 1.17803 1.18118 1.18572 1.18894 1.1921 1.18643 1.18783 1.19178 1.17964 1.19516 1.05968 1.13922 1.12039 1.13347 1.07533 1.04868 1.09583 1.01245 1.18622 1.17905 1.09579 1.09324 1.11253 1.12395 1.03047 1.12421 1.09934 1.14924 1.19879 1.11157 1.10338 1.08125 1.18574 1.10821 1.1393 0.998 1.16091 1.19104 1.21073 1.0783 1.07338 1.06407 1.07062 1.17506 1.14702 1.14713 1.17647 1.16915 1.11801 1.11358 1.16022 1.07791 1.10911 1.06243 0.977641 1.12254 1.14832 1.15009 1.05981 1.07557 1.1795 1.17795 1.18364 1.15949 1.12747 1.15053 1.11842 1.09832 1.17102 1.22235 1.17737 1.07368 1.09691 1.06798 1.1329 1.12856 1.11582 1.08727 1.06509 1.1601 1.11614 1.18444 1.16805 1.14215 1.11521 1.1115 1.15573 1.14403 1.17067 1.14964 1.17704 1.14437 1.14945 1.16664 1.17126 1.1316 1.14403 1.14391 1.17252 1.18627 1.15257 1.19217 1.18787 1.19036 1.19179 1.19177 1.1879 1.19222 1.18926 1.19178 1.18198 1.19492 1.19178 1.1894 1.1927 1.18344 1.18816 1.18922 1.20139 1.16321 1.19684 1.07429 1.13531 1.07106 1.03659 1.11703 0.991497 1.17006 1.13567 1.06252 1.09784 1.12727 1.11734 1.17075 1.10788 1.22818 1.13939 1.15024 1.16471 1.19178 1.18383 1.08593 1.17345 1.1707 1.11809 1.1407 1.11295 1.12576 1.0893 1.12757 1.16106 1.18632 1.18078 1.17188 1.18466 1.12906 1.07952 1.08296 1.0039 1.13681 1.1541 1.0781 1.14216 1.10946 1.11054 1.1058 1.1874 1.12449 1.18015 1.15209 1.18311 1.12574 1.14311 1.15362 1.2056 1.16982 1.0846 1.13277 1.14554 1.18809 1.13202 1.12271 1.11118 1.14515 1.14464 1.12288 1.12478 1.18664 1.17936 1.14634 1.14695 1.14865 1.19607 1.17654 1.18372 1.1687 1.13523 1.14484 1.15032 1.15714 1.1926 1.18719 1.19097 1.19147 1.19178 1.19183 1.18983 1.19241 1.18285 1.19178 1.18799 1.18717 1.189 1.19137 1.1857 1.18873 1.19687 1.15713 1.1501 1.13847 1.08461 1.11493 1.04391 1.1478 1.03284 1.13303 1.0708 1.13012 1.12904 1.12788 1.13476 1.19285 1.13171 1.19701 1.14862 1.16395 1.15316 1.13677 1.18145 1.17147 1.16743 1.19617 1.16445 1.12212 1.17661 1.1378 1.15701 1.13971 1.17075 1.19178 1.18122 1.19312 1.1918 1.14526 1.19242 1.19178 1.14293 1.14898 1.13575 1.1483 1.11727 1.17213 1.18871 1.12726 1.12104 1.14684 1.14675 1.15944 1.1608 1.19727 1.1743 1.2009 1.09618 1.14084 1.14272 1.19389 1.13935 1.12028 1.11455 1.15292 1.16081 1.19178 1.1232 1.15324 1.18941 1.14394 1.14695 1.19624 1.18417 1.18916 1.19154 1.1778 1.19178 1.15213 1.15848 1.19178 1.18902 1.19165 1.19178 1.19178 1.18812 1.19178 1.19028 1.19212 1.18251 1.19194 1.18686 1.1883 1.18975 1.18266 1.18729 1.18909 1.1901 1.17669 1.19278 1.16048 1.14533 1.09159 1.16143 1.10515 1.13378 1.15862 1.14282 1.16011 1.1542 1.07753 1.14807 1.13554 1.13515 1.15118 1.16375 1.1535 1.1377 1.16835 1.14677 1.16118 1.17413 1.11808 1.16597 1.19979 1.17777 1.13937 1.16493 1.17647 1.16787 1.18747 1.18237 1.18767 1.1966 1.15026 1.18978 1.19178 1.19412 1.14994 1.14523 1.12277 1.17428 1.19164 1.13098 1.15089 1.14703 1.14961 1.1401 1.13991 1.16309 1.19466 1.17612 1.16889 1.11241 1.13275 1.13694 1.15402 1.16161 1.16351 1.15311 1.17108 1.1499 1.15166 1.15681 1.14088 1.13186 1.1559 1.13434 1.18832 1.16871 1.16277 1.14527 1.19235 1.18445 1.18958 1.17168 1.19154 1.15617 1.1593 1.19178 1.19051 1.19088 1.19171 1.19178 1.19189 1.18893 1.18952 1.19049 1.19051 1.19186 1.18213 1.19178 1.19178 1.1924 1.18644 1.18068 1.18738 1.1893 1.18746 1.18797 1.19091 1.17955 1.1797 1.18359 1.15999 1.09234 1.17182 1.15778 1.13988 1.1585 1.15568 1.14836 1.15026 1.14357 1.14809 1.16842 1.18701 1.1519 1.17631 1.18769 1.19337 1.19549 1.18193 1.21163 1.1718 1.13383 1.1445 1.19885 1.17209 1.17543 1.18189 1.14396 1.18202 1.18179 1.18557 1.19631 1.19056 1.1883 1.19022 1.19664 1.14759 1.17915 1.19212 1.13494 1.14835 1.14977 1.13673 1.19455 1.17116 1.17655 1.17961 1.15179 1.14766 1.19178 1.16227 1.15896 1.15034 1.17697 1.16543 1.1731 1.13943 1.14065 1.13129 1.1629 1.18861 1.19178 1.17315 1.14701 1.19259 1.18433 1.18866 1.18441 1.18441 1.19172 1.19305 1.16977 1.19178 1.19101 1.19178 1.19178 1.19179 1.18933 1.19078 1.19047 1.1917 1.18226 1.19178 1.19178 1.19178 1.18565 1.18851 1.18894 1.18794 1.19099 1.19161 1.1845 1.16203 1.15123 1.17375 1.15662 1.13832 1.15313 1.16605 1.14577 1.14127 1.19407 1.16184 1.19178 1.19178 1.18208 1.17214 1.19209 1.18867 1.18283 1.189 1.19178 1.16958 1.17928 1.18729 1.18088 1.16736 1.19178 1.18158 1.18942 1.19233 1.19006 1.18993 1.19178 1.19039 1.17822 1.12619 1.14712 1.15307 1.18297 1.1496 1.15005 1.16692 1.17382 1.13365 1.15837 1.19114 1.19164 1.1508 1.17385 1.14082 1.14765 1.15457 1.16688 1.14953 1.16304 1.15411 1.16387 1.19178 1.18127 1.15417 1.17042 1.18243 1.18452 1.16878 1.19215 1.18853 1.18739 1.19002 
SCALARS Stress float 1
LOOKUP_TABLE default
-16549600000.0 -15306300000.0 -13953900000.0 -25135600000.0 -12549700000.0 -19702200000.0 -18477400000.0 -18514300000.0 -13289600000.0 -12549700000.0 -12549700000.0 -14305600000.0 -12549700000.0 -12549700000.0 -14706500000.0 -12549700000.0 -12549700000.0 -13432400000.0 -12549700000.0 -12832400000.0 -13460900000.0 -16627100000.0 -18561600000.0 -16031900000.0 -14892300000.0 -14087500000.0 -13378600000.0 -12742000000.0 -12549700000.0 -12549700000.0 -12549700000.0 -13293400000.0 -14496500000.0 -14682600000.0 -15679800000.0 -14883200000.0 -15355700000.0 -13588000000.0 -12549700000.0 -14272300000.0 -13463000000.0 -12814300000.0 -17481900000.0 -12744800000.0 -12969300000.0 -15535100000.0 -24414200000.0 -21064500000.0 -20479600000.0 -23084700000.0 -14888800000.0 -15055300000.0 -14439900000.0 -19046800000.0 -15445200000.0 -13720800000.0 -13436300000.0 -15116800000.0 -14089700000.0 -19937200000.0 -12965400000.0 -13424500000.0 -16373600000.0 -14504400000.0 -15018800000.0 -15290300000.0 -15732800000.0 -22548200000.0 -23235800000.0 -28801000000.0 -35928900000.0 -21009400000.0 -49731700000.0 -26128400000.0 -33680500000.0 -35975200000.0 -35004000000.0 -37235000000.0 -25924800000.0 -17004700000.0 -12549700000.0 -12549700000.0 -22644900000.0 -13812200000.0 -19083000000.0 -12549700000.0 -15911000000.0 -14634000000.0 -18643300000.0 -19557700000.0 -40589000000.0 -41407400000.0 -42204100000.0 -22241400000.0 -28089400000.0 -12875200000.0 -23991900000.0 -14592500000.0 -45674000000.0 -36877300000.0 -34752200000.0 -72853300000.0 -55043400000.0 -68015100000.0 -63083700000.0 -13711200000.0 -12839400000.0 -16266100000.0 -12549700000.0 -18710300000.0 -12886400000.0 -12689900000.0 -20352200000.0 -12549700000.0 -12557100000.0 -17250600000.0 -12549700000.0 -15795700000.0 -12549700000.0 -27734800000.0 -12549700000.0 -12549700000.0 -12549700000.0 -15151400000.0 -13002500000.0 -12549700000.0 -12811400000.0 -13941300000.0 -16034000000.0 -18968000000.0 -26754200000.0 -27036400000.0 -24851000000.0 -26888500000.0 -25991000000.0 -24241200000.0 -17604300000.0 -20159800000.0 -17832900000.0 -25695000000.0 -14315900000.0 -16228400000.0 -21092900000.0 -40359500000.0 -13845100000.0 -13565600000.0 -12685300000.0 -25260100000.0 -19049700000.0 -17286000000.0 -16062800000.0 -24404800000.0 -13071100000.0 -15757500000.0 -13533300000.0 -13242000000.0 -12549700000.0 -17636700000.0 -15618200000.0 -32363900000.0 -12617400000.0 -13351900000.0 -12549700000.0 -12570700000.0 -18181800000.0 -12549700000.0 -12549700000.0 -15507900000.0 -19881900000.0 -14505500000.0 -14443800000.0 -15004000000.0 -21447600000.0 -23119400000.0 -62580700000.0 -47795200000.0 -15730000000.0 -25593600000.0 -18555800000.0 -15459000000.0 -82583300000.0 -40361900000.0 -36707900000.0 -34963100000.0 -54780000000.0 -18955800000.0 -34201500000.0 -12549700000.0 -25074700000.0 -16739600000.0 -35791300000.0 -98190400000.0 -49732000000.0 -50701200000.0 -51983600000.0 -81224500000.0 -83854900000.0 -72660700000.0 -73511300000.0 -34428700000.0 -12549700000.0 -89398300000.0 -71166900000.0 -101427000000.0 -46607100000.0 -44833500000.0 -13390100000.0 -68686600000.0 -34248900000.0 -37374000000.0 -33442300000.0 -37272100000.0 -25471500000.0 -19484700000.0 -32605400000.0 -12634900000.0 -13153100000.0 -22618200000.0 -12549700000.0 -22350000000.0 -12549700000.0 -32356800000.0 -12549700000.0 -13639800000.0 -13784400000.0 -23641400000.0 -20855900000.0 -16255800000.0 -17259600000.0 -19727900000.0 -22249300000.0 -20320200000.0 -37657000000.0 -62630300000.0 -63325300000.0 -41924900000.0 -54697500000.0 -32262000000.0 -40337100000.0 -17176900000.0 -18109100000.0 -35505100000.0 -12549700000.0 -22489400000.0 -49812500000.0 -16364400000.0 -13287300000.0 -14316300000.0 -34763200000.0 -24675900000.0 -15407900000.0 -22274700000.0 -38216300000.0 -26132200000.0 -15795100000.0 -12813900000.0 -12589100000.0 -29997800000.0 -24676900000.0 -68134500000.0 -40175000000.0 -41298800000.0 -37381800000.0 -32274900000.0 -29410100000.0 -39492500000.0 -35414100000.0 -32345000000.0 -37112800000.0 -30046100000.0 -27182500000.0 -55888500000.0 -64120500000.0 -100423000000.0 -182343000000.0 -42149500000.0 -24764900000.0 -27954600000.0 -26018200000.0 -172685000000.0 -124623000000.0 -131266000000.0 -93554400000.0 -128895000000.0 -131527000000.0 -70866100000.0 -43015300000.0 -57871700000.0 -50973600000.0 -95233400000.0 -13199500000.0 -18139300000.0 -12549700000.0 -72835300000.0 -14528900000.0 -71429400000.0 -82422400000.0 -80715500000.0 -66974600000.0 -12549700000.0 -99487200000.0 -15475900000.0 -94416400000.0 -86152700000.0 -49242800000.0 -63250500000.0 -88444200000.0 -14203300000.0 -37951600000.0 -12549700000.0 -26243700000.0 -25522800000.0 -20483200000.0 -28884300000.0 -24678500000.0 -17782800000.0 -30443800000.0 -16715400000.0 -37330000000.0 -22494500000.0 -44300000000.0 -12870000000.0 -18979900000.0 -30277500000.0 -12549700000.0 -23179600000.0 -12660000000.0 -16211100000.0 -15611300000.0 -19625400000.0 -26564100000.0 -43587900000.0 -44680700000.0 -42887800000.0 -46841900000.0 -70837400000.0 -27466500000.0 -59905300000.0 -72194600000.0 -64145600000.0 -87009400000.0 -87331100000.0 -86861300000.0 -68632000000.0 -58148500000.0 -114205000000.0 -21960900000.0 -16316000000.0 -14287600000.0 -45397200000.0 -13781000000.0 -37724800000.0 -29816400000.0 -55312500000.0 -54259900000.0 -49807000000.0 -52357900000.0 -44709200000.0 -35804800000.0 -84286000000.0 -13050000000.0 -12549700000.0 -20344700000.0 -25257000000.0 -17193200000.0 -29641000000.0 -31413300000.0 -36948200000.0 -44735600000.0 -98336200000.0 -93988800000.0 -49944000000.0 -41184100000.0 -53751600000.0 -80985200000.0 -143700000000.0 -252967000000.0 -223895000000.0 -189838000000.0 -245493000000.0 -28834200000.0 -29373000000.0 -141142000000.0 -112564000000.0 -115655000000.0 -111343000000.0 -264801000000.0 -42520300000.0 -74440800000.0 -55685400000.0 -110268000000.0 -75250700000.0 -71839600000.0 -113526000000.0 -171405000000.0 -152410000000.0 -81018800000.0 -12581400000.0 -12745600000.0 -33018300000.0 -12904200000.0 -152107000000.0 -22132900000.0 -135645000000.0 -107660000000.0 -18698600000.0 -19852800000.0 -83865500000.0 -68125300000.0 -61119000000.0 -27467600000.0 -28499200000.0 -29849200000.0 -20985600000.0 -31592400000.0 -29791500000.0 -15990200000.0 -30613700000.0 -12549700000.0 -38148600000.0 -15001100000.0 -54358600000.0 -29747400000.0 -39010300000.0 -50240400000.0 -33143600000.0 -36049500000.0 -23258600000.0 -38396000000.0 -26378900000.0 -45642300000.0 -46184600000.0 -32520700000.0 -36458600000.0 -75750300000.0 -96744600000.0 -36552700000.0 -68309600000.0 -38930700000.0 -41525500000.0 -58701500000.0 -41546300000.0 -45643700000.0 -74993800000.0 -96211900000.0 -187411000000.0 -32626700000.0 -31801900000.0 -74568400000.0 -20780200000.0 -55804500000.0 -71417700000.0 -20764200000.0 -52595600000.0 -19707700000.0 -47766900000.0 -40890000000.0 -19506200000.0 -101555000000.0 -12549700000.0 -12636800000.0 -22633500000.0 -30192000000.0 -39344600000.0 -13258300000.0 -16613900000.0 -87184300000.0 -62435400000.0 -22006900000.0 -17166600000.0 -68061100000.0 -124935000000.0 -118643000000.0 -98965300000.0 -133957000000.0 -22355400000.0 -92555500000.0 -59911600000.0 -90572800000.0 -172692000000.0 -164482000000.0 -14335700000.0 -12729600000.0 -31758300000.0 -13169500000.0 -70367800000.0 -343382000000.0 -324749000000.0 -281406000000.0 -207210000000.0 -156401000000.0 -157450000000.0 -129184000000.0 -100959000000.0 -93120300000.0 -150650000000.0 -166734000000.0 -152323000000.0 -90871900000.0 -106990000000.0 -12737500000.0 -128556000000.0 -189080000000.0 -209717000000.0 -24800400000.0 -75938500000.0 -94342800000.0 -95236100000.0 -57731400000.0 -37340100000.0 -55361200000.0 -20823800000.0 -18976400000.0 -42240800000.0 -32574000000.0 -27496900000.0 -47802000000.0 -28603100000.0 -20091300000.0 -49408700000.0 -74034300000.0 -40687800000.0 -51442000000.0 -85776200000.0 -84797000000.0 -58572700000.0 -57493700000.0 -48104000000.0 -43053000000.0 -36574300000.0 -51340100000.0 -47606500000.0 -18108000000.0 -156544000000.0 -144619000000.0 -37792800000.0 -18878100000.0 -36823300000.0 -31374600000.0 -22814100000.0 -13570300000.0 -37234000000.0 -14187400000.0 -17323800000.0 -19284800000.0 -57200800000.0 -172493000000.0 -193050000000.0 -185504000000.0 -195821000000.0 -268679000000.0 -140188000000.0 -101497000000.0 -124628000000.0 -89510400000.0 -73093200000.0 -122196000000.0 -113781000000.0 -44293700000.0 -61857100000.0 -60256500000.0 -102647000000.0 -103337000000.0 -136180000000.0 -113979000000.0 -105199000000.0 -77909600000.0 -81432300000.0 -71058800000.0 -51759700000.0 -48838600000.0 -174909000000.0 -126519000000.0 -79626700000.0 -89625300000.0 -25152800000.0 -110178000000.0 -62357500000.0 -114125000000.0 -79100200000.0 -195224000000.0 -74712400000.0 -51449300000.0 -90065500000.0 -85449400000.0 -34354200000.0 -146320000000.0 -190555000000.0 -95445000000.0 -81903700000.0 -17107700000.0 -12549700000.0 -18200500000.0 -152573000000.0 -137776000000.0 -147300000000.0 -133639000000.0 -118149000000.0 -106794000000.0 -159115000000.0 -382302000000.0 -307348000000.0 -130201000000.0 -149956000000.0 -261140000000.0 -219194000000.0 -123344000000.0 -143292000000.0 -30800600000.0 -22159500000.0 -53987200000.0 -24482800000.0 -20784100000.0 -101968000000.0 -76833500000.0 -37771900000.0 -51622500000.0 -46691300000.0 -63480500000.0 -35241900000.0 -84601200000.0 -55625200000.0 -106993000000.0 -13307700000.0 -12549700000.0 -107760000000.0 -106280000000.0 -126391000000.0 -126624000000.0 -156625000000.0 -159109000000.0 -69227600000.0 -77823000000.0 -131761000000.0 -54539800000.0 -48181300000.0 -49682700000.0 -43036400000.0 -36205300000.0 -38623900000.0 -35371100000.0 -64305600000.0 -70724400000.0 -64041400000.0 -58607500000.0 -93399600000.0 -17986900000.0 -91641200000.0 -16814700000.0 -73328200000.0 -177341000000.0 -102180000000.0 -140525000000.0 -123457000000.0 -103390000000.0 -66230200000.0 -55799000000.0 -54136700000.0 -71568100000.0 -80368200000.0 -12549700000.0 -15605100000.0 -25446900000.0 -77398100000.0 -60110100000.0 -39519700000.0 -155111000000.0 -147017000000.0 -182340000000.0 -159578000000.0 -116326000000.0 -102328000000.0 -72486200000.0 -223965000000.0 -229725000000.0 -161227000000.0 -210937000000.0 -108265000000.0 -233646000000.0 -86899800000.0 -46271400000.0 -77683200000.0 -64921800000.0 -86135100000.0 -236438000000.0 -141282000000.0 -153945000000.0 -140281000000.0 -101267000000.0 -90665800000.0 -141129000000.0 -14123600000.0 -96366600000.0 -22510300000.0 -16527400000.0 -13119800000.0 -68648700000.0 -12549700000.0 -75469900000.0 -142032000000.0 -107382000000.0 -35234200000.0 -62432200000.0 -112826000000.0 -104940000000.0 -181965000000.0 -160601000000.0 -192987000000.0 -126930000000.0 -130981000000.0 -103026000000.0 -103241000000.0 -113122000000.0 -122140000000.0 -95317100000.0 -45168400000.0 -44629600000.0 -75519000000.0 -31692300000.0 -121282000000.0 -97539800000.0 -93360900000.0 -108328000000.0 -24126500000.0 -53766400000.0 -28959700000.0 -48964900000.0 -32063400000.0 -162872000000.0 -104353000000.0 -175770000000.0 -35172800000.0 -43996300000.0 -41115900000.0 -44084300000.0 -58499800000.0 -52777700000.0 -17767400000.0 -25696900000.0 -49932900000.0 -14695900000.0 -40549000000.0 -24168600000.0 -24945300000.0 -34222200000.0 -41844200000.0 -37361200000.0 -56730800000.0 -91329600000.0 -138738000000.0 -203027000000.0 -110614000000.0 -156577000000.0 -169596000000.0 -45266100000.0 -26773900000.0 -17068300000.0 -33854000000.0 -16121500000.0 -12549700000.0 -55709900000.0 -35426000000.0 -134355000000.0 -61473300000.0 -92343300000.0 -87186100000.0 -12549700000.0 -67032100000.0 -78158700000.0 -13696400000.0 -143141000000.0 -105391000000.0 -130117000000.0 -92213100000.0 -141448000000.0 -98728300000.0 -41959400000.0 -145723000000.0 -85063700000.0 -28197300000.0 -144236000000.0 -96455500000.0 -158591000000.0 -111040000000.0 -110166000000.0 -311938000000.0 -378082000000.0 -171260000000.0 -145958000000.0 -119952000000.0 -93215200000.0 -101484000000.0 -69065000000.0 -94303300000.0 -25257500000.0 -29530000000.0 -26244200000.0 -90852400000.0 -105951000000.0 -293669000000.0 -185179000000.0 -184228000000.0 -82932000000.0 -59371400000.0 -65842100000.0 -88023600000.0 -50881000000.0 -103046000000.0 -42733100000.0 -112160000000.0 -40404100000.0 -34438800000.0 -54733300000.0 -67896100000.0 -12747600000.0 -12552300000.0 -81509600000.0 -95215500000.0 -87770800000.0 -46892600000.0 -140744000000.0 -57311800000.0 -41644500000.0 -71273500000.0 -44936400000.0 -105079000000.0 -79456400000.0 -74528400000.0 -76066300000.0 -134886000000.0 -74693400000.0 -176056000000.0 -118718000000.0 -152421000000.0 -76359700000.0 -76421200000.0 -94370000000.0 -125732000000.0 -118165000000.0 -119922000000.0 -105086000000.0 -90092400000.0 -99184300000.0 -122000000000.0 -138802000000.0 -88709200000.0 -126719000000.0 -212201000000.0 -12705300000.0 -142185000000.0 -57850700000.0 -101433000000.0 -24051200000.0 -148396000000.0 -108794000000.0 -13814600000.0 -107836000000.0 -83813000000.0 -71994200000.0 -92560800000.0 -99783500000.0 -68192300000.0 -37006600000.0 -77126100000.0 -50619100000.0 -12898200000.0 -56339400000.0 -67970800000.0 -117776000000.0 -76065200000.0 -66631800000.0 -109196000000.0 -73859800000.0 -12549700000.0 -105620000000.0 -115796000000.0 -28868000000.0 -69366400000.0 -129772000000.0 -29826600000.0 -59693700000.0 -100070000000.0 -209565000000.0 -21212400000.0 -315493000000.0 -292453000000.0 -15486300000.0 -38164200000.0 -23829900000.0 -107292000000.0 -98794600000.0 -97494800000.0 -72738700000.0 -38951400000.0 -98396500000.0 -43014100000.0 -75301400000.0 -106469000000.0 -97220600000.0 -12549700000.0 -138324000000.0 -97435200000.0 -18109000000.0 -73866500000.0 -72278400000.0 -146668000000.0 -89839800000.0 -118168000000.0 -15709900000.0 -12549700000.0 -69847500000.0 -89449500000.0 -13962500000.0 -57127500000.0 -13742000000.0 -12549700000.0 -47031800000.0 -86060600000.0 -58682900000.0 -76517200000.0 -66339000000.0 -63844600000.0 -58264200000.0 -109288000000.0 -61056200000.0 -35767000000.0 -22016100000.0 -15927300000.0 -20536600000.0 -12549700000.0 -145691000000.0 -162926000000.0 -12887600000.0 -117407000000.0 -16760300000.0 -43355700000.0 -18667900000.0 -16863100000.0 -17469100000.0 -18040900000.0 -35782100000.0 -12549700000.0 -12549700000.0 -18232800000.0 -85649000000.0 -51092800000.0 -103436000000.0 -182745000000.0 -13756500000.0 -142505000000.0 -36234600000.0 -33422500000.0 -100198000000.0 -81344200000.0 -18593400000.0 -152602000000.0 -15355800000.0 -12549700000.0 -24394400000.0 -22794600000.0 -59503700000.0 -14296300000.0 -79564900000.0 -31196300000.0 -122330000000.0 -104862000000.0 -161697000000.0 -233951000000.0 -203038000000.0 -273143000000.0 -217916000000.0 -289319000000.0 -45890200000.0 -265719000000.0 -242280000000.0 -284188000000.0 -368759000000.0 -276772000000.0 -292561000000.0 -390065000000.0 -490009000000.0 -303418000000.0 -281173000000.0 -209549000000.0 -464480000000.0 -111902000000.0 -324693000000.0 -158354000000.0 -135890000000.0 -67083300000.0 -86173300000.0 -117231000000.0 -64982200000.0 -20892800000.0 -13289100000.0 -68345900000.0 -48638000000.0 -34476300000.0 -60867800000.0 -94432200000.0 -30907900000.0 -61585800000.0 -187552000000.0 -126298000000.0 -12549700000.0 -82725000000.0 -55677600000.0 -115174000000.0 -12549700000.0 -129320000000.0 -39088200000.0 -48899200000.0 -39466600000.0 -18375600000.0 -34596700000.0 -42841400000.0 -28718300000.0 -62109900000.0 -61437000000.0 -97728500000.0 -84922900000.0 -81878900000.0 -65752200000.0 -75823800000.0 -60389600000.0 -45047400000.0 -45484500000.0 -17482700000.0 -12549700000.0 -14999500000.0 -12549700000.0 -185238000000.0 -12954500000.0 -108780000000.0 -77861100000.0 -132212000000.0 -90907900000.0 -61385400000.0 -52898100000.0 -57746800000.0 -56507200000.0 -66861000000.0 -66507600000.0 -67759200000.0 -79885000000.0 -104194000000.0 -85483100000.0 -88556100000.0 -75509600000.0 -229205000000.0 -186701000000.0 -128071000000.0 -28857700000.0 -159077000000.0 -141991000000.0 -84482800000.0 -136826000000.0 -49488800000.0 -41169900000.0 -63745800000.0 -47792900000.0 -57445000000.0 -128108000000.0 -147647000000.0 -193036000000.0 -69303400000.0 -101454000000.0 -77410000000.0 -53996000000.0 -13928600000.0 -57653900000.0 -125334000000.0 -139357000000.0 -88224400000.0 -48953900000.0 -53890500000.0 -131075000000.0 -27307000000.0 -90647500000.0 -71563600000.0 -87516400000.0 -98567600000.0 -59483500000.0 -344619000000.0 -162996000000.0 -12961200000.0 -82212700000.0 -269014000000.0 -13078000000.0 -130440000000.0 -18375400000.0 -49326200000.0 -72424500000.0 -46448900000.0 -22070300000.0 -15313000000.0 -43297200000.0 -48265300000.0 -67159700000.0 -66030500000.0 -108731000000.0 -94397200000.0 -47625100000.0 -76358400000.0 -151864000000.0 -84355900000.0 -138406000000.0 -183907000000.0 -163211000000.0 -87931100000.0 -78333000000.0 -83053000000.0 -147592000000.0 -91950100000.0 -103043000000.0 -75673700000.0 -100317000000.0 -79517900000.0 -85634200000.0 -129422000000.0 -17289500000.0 -110869000000.0 -74595500000.0 -113974000000.0 -101864000000.0 -110088000000.0 -115866000000.0 -85827100000.0 -48194800000.0 -14377600000.0 -22786800000.0 -27197100000.0 -12549700000.0 -196868000000.0 -18325900000.0 -55036400000.0 -41135400000.0 -96941300000.0 -65962900000.0 -64861800000.0 -30283400000.0 -41914300000.0 -15399400000.0 -42622000000.0 -12549700000.0 -15478500000.0 -34187500000.0 -53502800000.0 -59647100000.0 -34110900000.0 -157402000000.0 -12549700000.0 -176039000000.0 -63039800000.0 -158398000000.0 -166076000000.0 -89455400000.0 -60500400000.0 -107536000000.0 -37262100000.0 -89064700000.0 -90248600000.0 -94593700000.0 -116737000000.0 -24357600000.0 -13181300000.0 -16680700000.0 -166936000000.0 -120539000000.0 -132506000000.0 -211266000000.0 -186420000000.0 -200471000000.0 -180838000000.0 -147760000000.0 -199146000000.0 -104095000000.0 -227214000000.0 -71468700000.0 -87006100000.0 -91918000000.0 -119347000000.0 -123874000000.0 -71041800000.0 -47425900000.0 -148487000000.0 -107301000000.0 -159179000000.0 -212139000000.0 -65377800000.0 -110208000000.0 -84479500000.0 -116890000000.0 -108112000000.0 -62326000000.0 -40794300000.0 -31167000000.0 -83941900000.0 -22554700000.0 -61890100000.0 -127087000000.0 -182231000000.0 -179850000000.0 -214370000000.0 -272599000000.0 -90222500000.0 -12549700000.0 -56535800000.0 -48864700000.0 -40205600000.0 -64757200000.0 -67133300000.0 -115002000000.0 -34317300000.0 -39357700000.0 -62063800000.0 -119164000000.0 -108236000000.0 -94624000000.0 -117211000000.0 -186933000000.0 -277021000000.0 -131729000000.0 -250751000000.0 -200065000000.0 -181250000000.0 -191055000000.0 -188538000000.0 -133863000000.0 -137406000000.0 -111823000000.0 -130155000000.0 -178674000000.0 -116604000000.0 -90437300000.0 -100091000000.0 -76447900000.0 -132766000000.0 -30052900000.0 -34081700000.0 -54026600000.0 -48264200000.0 -60040900000.0 -68172800000.0 -80833600000.0 -86161100000.0 -80863600000.0 -154969000000.0 -38581000000.0 -70103900000.0 -97779500000.0 -12549700000.0 -12549700000.0 -247492000000.0 -134406000000.0 -268108000000.0 -18440100000.0 -120756000000.0 -74925600000.0 -97564700000.0 -45025700000.0 -38460500000.0 -64182800000.0 -89929200000.0 -35435000000.0 -18734900000.0 -134462000000.0 -18673300000.0 -42506900000.0 -72607600000.0 -20517100000.0 -59625900000.0 -38052800000.0 -89296600000.0 -59432900000.0 -135768000000.0 -113316000000.0 -234157000000.0 -123179000000.0 -75645900000.0 -36569100000.0 -87401900000.0 -102534000000.0 -62922300000.0 -62630500000.0 -160146000000.0 -177466000000.0 -259229000000.0 -211914000000.0 -54409100000.0 -108865000000.0 -29387900000.0 -87701800000.0 -76397500000.0 -32763500000.0 -32576500000.0 -27209100000.0 -103351000000.0 -69483900000.0 -72616900000.0 -59866800000.0 -48063500000.0 -32436600000.0 -43423100000.0 -13443500000.0 -176591000000.0 -137195000000.0 -66391400000.0 -58424800000.0 -62743300000.0 -82969300000.0 -36724900000.0 -78417800000.0 -30032200000.0 -42889000000.0 -21832200000.0 -25734900000.0 -24150300000.0 -15848100000.0 -61606100000.0 -76276900000.0 -12549700000.0 -126143000000.0 -212474000000.0 -68896700000.0 -73364600000.0 -68867300000.0 -66055200000.0 -223749000000.0 -117598000000.0 -102768000000.0 -65099300000.0 -125318000000.0 -127112000000.0 -21233500000.0 -77867700000.0 -30718700000.0 -90614700000.0 -37477400000.0 -18515900000.0 -17965900000.0 -17158800000.0 -17053500000.0 -48787500000.0 -14516700000.0 -43542900000.0 -15010100000.0 -124102000000.0 -17798400000.0 -43222400000.0 -21508700000.0 -102206000000.0 -127340000000.0 -129606000000.0 -88254500000.0 -170583000000.0 -131639000000.0 -227997000000.0 -67526300000.0 -61550600000.0 -14415300000.0 -17625700000.0 -29521400000.0 -18625700000.0 -90944000000.0 -132816000000.0 -69429900000.0 -39111500000.0 -40820900000.0 -110943000000.0 -64091500000.0 -91232400000.0 -16592100000.0 -128486000000.0 -55185300000.0 -106918000000.0 -57717900000.0 -147711000000.0 -147388000000.0 -40044200000.0 -41020100000.0 -88109300000.0 -13139500000.0 -80274400000.0 -16215400000.0 -160463000000.0 -80705800000.0 -70027600000.0 -428129000000.0 -265940000000.0 -205674000000.0 -203023000000.0 -167293000000.0 -184361000000.0 -26346900000.0 -25669500000.0 -23074400000.0 -102045000000.0 -14453800000.0 -147109000000.0 -44553400000.0 -30271600000.0 -15363800000.0 -45437400000.0 -35045100000.0 -36772300000.0 -236527000000.0 -155622000000.0 -115640000000.0 -16810500000.0 -41644800000.0 -15078500000.0 -117303000000.0 -91692700000.0 -12549700000.0 -30038600000.0 -41657300000.0 -17234200000.0 -20481400000.0 -14581400000.0 -61816400000.0 -81854000000.0 -79273700000.0 -222679000000.0 -36269000000.0 -20515800000.0 -18171200000.0 -18998400000.0 -28850300000.0 -13155900000.0 -167206000000.0 -75582400000.0 -92972300000.0 -209013000000.0 -183135000000.0 -122943000000.0 -27528600000.0 -28203300000.0 -90557200000.0 -50685500000.0 -58251000000.0 -39782100000.0 -37096000000.0 -45927100000.0 -88193200000.0 -54285200000.0 -79909300000.0 -13550400000.0 -153529000000.0 -154902000000.0 -160922000000.0 -139240000000.0 -203576000000.0 -109704000000.0 -100723000000.0 -55919200000.0 -149076000000.0 -302927000000.0 -55994600000.0 -30736900000.0 -14837300000.0 -47571500000.0 -30438000000.0 -33825400000.0 -21054200000.0 -91979100000.0 -89089600000.0 -93064200000.0 -53607800000.0 -71766400000.0 -40627800000.0 -17769800000.0 -27740500000.0 -112802000000.0 -42899900000.0 -17351900000.0 -94557600000.0 -13080700000.0 -111290000000.0 -16687400000.0 -133344000000.0 -111565000000.0 -159322000000.0 -188121000000.0 -167615000000.0 -216469000000.0 -135786000000.0 -143100000000.0 -255495000000.0 -170625000000.0 -85364700000.0 -64028200000.0 -72902700000.0 -142354000000.0 -147765000000.0 -200556000000.0 -227960000000.0 -177265000000.0 -157340000000.0 -164225000000.0 -183674000000.0 -37469400000.0 -28745400000.0 -29028800000.0 -21678700000.0 -15223100000.0 -13981300000.0 -142948000000.0 -149019000000.0 -80244000000.0 -66013600000.0 -117206000000.0 -120709000000.0 -81447900000.0 -91367400000.0 -100650000000.0 -95115900000.0 -101575000000.0 -138470000000.0 -130745000000.0 -97451100000.0 -64919800000.0 -210950000000.0 -20514300000.0 -13111200000.0 -16384200000.0 -22735400000.0 -27064700000.0 -12564800000.0 -123709000000.0 -95207900000.0 -64669500000.0 -48503600000.0 -101731000000.0 -33148600000.0 -79397600000.0 -76185800000.0 -87242600000.0 -26976400000.0 -31953300000.0 -30836000000.0 -21904600000.0 -12549700000.0 -72601500000.0 -34014300000.0 -54749000000.0 -166268000000.0 -34355200000.0 -31975200000.0 -32895000000.0 -13415600000.0 -66617000000.0 -148147000000.0 -226433000000.0 -108209000000.0 -145729000000.0 -196357000000.0 -169169000000.0 -66527100000.0 -23811500000.0 -93137000000.0 -46087700000.0 -40768100000.0 -103565000000.0 -45256000000.0 -130127000000.0 -157207000000.0 -12549700000.0 -16323600000.0 -43664200000.0 -42668500000.0 -12549700000.0 -54499000000.0 -108834000000.0 -55882000000.0 -46720300000.0 -95044500000.0 -66013100000.0 -82142400000.0 -63218300000.0 -71245500000.0 -50105200000.0 -80331200000.0 -94191300000.0 -23584200000.0 -84232100000.0 -38313200000.0 -29339400000.0 -153611000000.0 -128011000000.0 -12549700000.0 -80741000000.0 -22208600000.0 -57623800000.0 -77426000000.0 -13963800000.0 -123412000000.0 -15146900000.0 -48230500000.0 -70154400000.0 -147124000000.0 -27164300000.0 -18469100000.0 -15229800000.0 -18190800000.0 -13041500000.0 -12870800000.0 -73412900000.0 -111997000000.0 -24203600000.0 -24970900000.0 -111565000000.0 -59808700000.0 -31764200000.0 -55252300000.0 -21908700000.0 -46275300000.0 -17278200000.0 -48991700000.0 -50008800000.0 -27031500000.0 -12833600000.0 -138883000000.0 -80858700000.0 -135589000000.0 -134196000000.0 -136593000000.0 -145230000000.0 -182227000000.0 -29712900000.0 -39434600000.0 -49491500000.0 -43834500000.0 -75147200000.0 -24546700000.0 -63783000000.0 -28302200000.0 -67707000000.0 -32456300000.0 -49353200000.0 -16052500000.0 -39607800000.0 -73263000000.0 -111021000000.0 -14820900000.0 -64393400000.0 -135005000000.0 -85205700000.0 -61076100000.0 -77002100000.0 -84426400000.0 -95171100000.0 -301504000000.0 -347508000000.0 -310281000000.0 -338367000000.0 -320105000000.0 -127773000000.0 -25688500000.0 -86467800000.0 -142620000000.0 -91083000000.0 -206131000000.0 -178032000000.0 -161849000000.0 -146582000000.0 -128994000000.0 -121697000000.0 -104177000000.0 -75346500000.0 -75867500000.0 -126694000000.0 -39736300000.0 -28894300000.0 -115194000000.0 -65163600000.0 -12549700000.0 -17281300000.0 -15081500000.0 -34015300000.0 -99368800000.0 -78772100000.0 -24857200000.0 -84486500000.0 -18238600000.0 -12549700000.0 -169079000000.0 -85490200000.0 -68909200000.0 -71716100000.0 -108459000000.0 -136008000000.0 -120336000000.0 -17776000000.0 -71870100000.0 -97022700000.0 -127434000000.0 -16528800000.0 -117639000000.0 -21084000000.0 -18697400000.0 -14195300000.0 -16535100000.0 -14954700000.0 -21283800000.0 -61807700000.0 -37912400000.0 -67098900000.0 -83020000000.0 -50339600000.0 -61663800000.0 -21257600000.0 -16241600000.0 -36505300000.0 -15862500000.0 -22662300000.0 -45161500000.0 -94406200000.0 -73569000000.0 -72531000000.0 -92143200000.0 -99445000000.0 -15354000000.0 -16215500000.0 -13987900000.0 -12549700000.0 -15699100000.0 -14991600000.0 -143204000000.0 -117316000000.0 -86031200000.0 -97028000000.0 -143674000000.0 -12549700000.0 -55276300000.0 -70386100000.0 -55470900000.0 -17361000000.0 -17583400000.0 -80255500000.0 -77974600000.0 -12549700000.0 -36683200000.0 -95382400000.0 -18514700000.0 -111923000000.0 -78000900000.0 -141209000000.0 -12983300000.0 -97232900000.0 -169422000000.0 -187201000000.0 -166736000000.0 -347381000000.0 -14984600000.0 -299889000000.0 -118696000000.0 -104518000000.0 -443348000000.0 -281274000000.0 -218723000000.0 -152985000000.0 -182945000000.0 -174721000000.0 -13935300000.0 -211353000000.0 -12549700000.0 -60120300000.0 -12549700000.0 -88328600000.0 -51201000000.0 -94015300000.0 -41243000000.0 -56228700000.0 -86858100000.0 -105576000000.0 -17713000000.0 -32032000000.0 -12549700000.0 -13768700000.0 -16209400000.0 -23752300000.0 -80200200000.0 -102174000000.0 -69405900000.0 -102575000000.0 -77186400000.0 -148800000000.0 -32369100000.0 -52454200000.0 -12549700000.0 -19802600000.0 -12823600000.0 -63838800000.0 -12549700000.0 -111900000000.0 -125821000000.0 -72875200000.0 -126409000000.0 -87351100000.0 -131686000000.0 -13922700000.0 -12776400000.0 -19382200000.0 -21511000000.0 -16779500000.0 -14655100000.0 -15898900000.0 -34347800000.0 -52144800000.0 -23863500000.0 -55246800000.0 -16712300000.0 -55607200000.0 -39663600000.0 -44109700000.0 -30563100000.0 -42847100000.0 -29943700000.0 -44659300000.0 -98252000000.0 -13525300000.0 -16245800000.0 -25612700000.0 -27497100000.0 -20892500000.0 -58165900000.0 -16039700000.0 -13854900000.0 -13655500000.0 -12549700000.0 -12549700000.0 -77309200000.0 -57755400000.0 -18794600000.0 -13915000000.0 -76199500000.0 -92167400000.0 -132069000000.0 -127037000000.0 -47147400000.0 -46925700000.0 -67030800000.0 -24620400000.0 -76738000000.0 -16104000000.0 -71553200000.0 -54255300000.0 -84965300000.0 -35439900000.0 -93797000000.0 -57558200000.0 -50583900000.0 -134404000000.0 -154996000000.0 -124355000000.0 -68193900000.0 -281413000000.0 -117655000000.0 -82189600000.0 -174687000000.0 -234083000000.0 -124251000000.0 -132569000000.0 -279699000000.0 -278602000000.0 -199132000000.0 -16870400000.0 -135766000000.0 -137751000000.0 -115722000000.0 -48472500000.0 -40235800000.0 -53440700000.0 -15693600000.0 -34095300000.0 -34556900000.0 -45394200000.0 -12549700000.0 -27699700000.0 -20651600000.0 -23354800000.0 -29459200000.0 -52610400000.0 -13759100000.0 -114849000000.0 -24062100000.0 -54249600000.0 -12802400000.0 -107639000000.0 -59406100000.0 -84695400000.0 -52052800000.0 -52330000000.0 -81667200000.0 -74587500000.0 -69658600000.0 -61522600000.0 -100481000000.0 -68873100000.0 -103197000000.0 -67136300000.0 -93301000000.0 -13777400000.0 -21497500000.0 -12549700000.0 -43753400000.0 -16624500000.0 -14912300000.0 -29763000000.0 -13251800000.0 -14078500000.0 -52245900000.0 -12549700000.0 -24594300000.0 -29972800000.0 -31423200000.0 -13384700000.0 -19200600000.0 -12549700000.0 -25633200000.0 -35651300000.0 -78609400000.0 -13691000000.0 -16747200000.0 -13086100000.0 -20439200000.0 -15876200000.0 -31209300000.0 -12709700000.0 -14696500000.0 -12858700000.0 -14626000000.0 -14726900000.0 -33579200000.0 -58266900000.0 -73655500000.0 -60844900000.0 -112877000000.0 -64871200000.0 -56577900000.0 -31164600000.0 -172964000000.0 -163049000000.0 -127274000000.0 -115439000000.0 -143488000000.0 -93705200000.0 -136453000000.0 -74128500000.0 -118055000000.0 -115238000000.0 -13315700000.0 -182160000000.0 -15904100000.0 -99363100000.0 -102793000000.0 -295622000000.0 -73711900000.0 -218137000000.0 -237401000000.0 -213798000000.0 -206350000000.0 -232203000000.0 -53241600000.0 -185237000000.0 -42086300000.0 -22440000000.0 -52343200000.0 -114990000000.0 -35850200000.0 -50640100000.0 -17487000000.0 -48616000000.0 -31326400000.0 -44821600000.0 -35798200000.0 -40653300000.0 -13807500000.0 -35086100000.0 -17380500000.0 -17206900000.0 -23497800000.0 -31993900000.0 -35069300000.0 -61931200000.0 -63333000000.0 -36710000000.0 -18749500000.0 -23498300000.0 -33359700000.0 -97438500000.0 -38017300000.0 -29600500000.0 -22191800000.0 -21042100000.0 -24395200000.0 -16269300000.0 -18624000000.0 -113667000000.0 -23602400000.0 -21785100000.0 -17527400000.0 -195516000000.0 -104003000000.0 -39753100000.0 -42542000000.0 -45720400000.0 -30684000000.0 -31887600000.0 -27545300000.0 -13404000000.0 -42672200000.0 -37896300000.0 -38458900000.0 -28412900000.0 -41597400000.0 -39417100000.0 -40372800000.0 -51507700000.0 -12549700000.0 -28088400000.0 -12549700000.0 -13404000000.0 -19336400000.0 -14569800000.0 -17657900000.0 -13666400000.0 -16334900000.0 -12833300000.0 -13093900000.0 -16939100000.0 -21705300000.0 -13312400000.0 -86475000000.0 -16767300000.0 -17128400000.0 -62076000000.0 -61441700000.0 -48559900000.0 -92780600000.0 -122124000000.0 -36517300000.0 -127170000000.0 -71847300000.0 -43860300000.0 -51739600000.0 -264636000000.0 -75244300000.0 -89736200000.0 -90321000000.0 -197806000000.0 -155607000000.0 -188813000000.0 -16175200000.0 -63691300000.0 -61095900000.0 -249005000000.0 -247827000000.0 -310820000000.0 -143013000000.0 -239735000000.0 -169835000000.0 -402252000000.0 -37966300000.0 -95114200000.0 -26795200000.0 -84747000000.0 -109210000000.0 -56207500000.0 -82505100000.0 -103416000000.0 -26148500000.0 -22861600000.0 -39451200000.0 -41849400000.0 -15042800000.0 -28926000000.0 -14442000000.0 -12549700000.0 -42829000000.0 -28736900000.0 -20013200000.0 -33473500000.0 -17339900000.0 -33796000000.0 -32383300000.0 -12549700000.0 -16750800000.0 -89320900000.0 -12549700000.0 -30918400000.0 -20112700000.0 -15055200000.0 -13222900000.0 -24777300000.0 -19736300000.0 -38653400000.0 -110076000000.0 -65965400000.0 -53952100000.0 -134329000000.0 -45266100000.0 -59066700000.0 -25659200000.0 -20292800000.0 -21076100000.0 -39497700000.0 -36241500000.0 -29870000000.0 -29855000000.0 -27627500000.0 -25186200000.0 -31048700000.0 -30907200000.0 -37414400000.0 -31811000000.0 -37337400000.0 -39708300000.0 -43525100000.0 -39697500000.0 -43838600000.0 -24415700000.0 -22136300000.0 -30606100000.0 -27224100000.0 -27600900000.0 -21919600000.0 -25150100000.0 -13841300000.0 -22906600000.0 -37058200000.0 -115482000000.0 -64014100000.0 -65701600000.0 -68124300000.0 -40782800000.0 -62858600000.0 -24349800000.0 -81064500000.0 -104838000000.0 -74745700000.0 -109733000000.0 -227982000000.0 -63561000000.0 -61454000000.0 -73867000000.0 -202862000000.0 -14399100000.0 -214719000000.0 -92551100000.0 -27930400000.0 -193930000000.0 -12549700000.0 -128438000000.0 -275681000000.0 -87683700000.0 -271935000000.0 -12549300000.0 -310358000000.0 -100948000000.0 -129294000000.0 -66209300000.0 -89515700000.0 -39783500000.0 -104007000000.0 -115284000000.0 -102766000000.0 -45683400000.0 -37842500000.0 -48501400000.0 -48353600000.0 -58179300000.0 -59715300000.0 -40975900000.0 -38327400000.0 -44920400000.0 -35237700000.0 -42424000000.0 -39259400000.0 -68773300000.0 -41426200000.0 -40651300000.0 -57595100000.0 -60669600000.0 -108514000000.0 -27216100000.0 -23516200000.0 -60385000000.0 -41164200000.0 -37429700000.0 -31977600000.0 -31705200000.0 -12549700000.0 -24810500000.0 -56773600000.0 -13267200000.0 -46598200000.0 -110792000000.0 -29690100000.0 -47025700000.0 -23807100000.0 -23349200000.0 -30990500000.0 -12564000000.0 -12596900000.0 -14641300000.0 -13724000000.0 -13387400000.0 -12549700000.0 -12549700000.0 -12549700000.0 -18141000000.0 -12549700000.0 -12549700000.0 -12809900000.0 -13377000000.0 -13616600000.0 -21950100000.0 -35196400000.0 -31658400000.0 -27747100000.0 -31916200000.0 -15871600000.0 -14173600000.0 -25224200000.0 -25875700000.0 -37479300000.0 -48878800000.0 -56245400000.0 -109940000000.0 -61973200000.0 -65496400000.0 -68228600000.0 -68122000000.0 -64311200000.0 -55661900000.0 -58275600000.0 -115198000000.0 -15063100000.0 -143192000000.0 -88606900000.0 -61982200000.0 -28662500000.0 -89853400000.0 -60223900000.0 -174535000000.0 -194039000000.0 -26238500000.0 -68220400000.0 -208001000000.0 -120170000000.0 -246216000000.0 -237495000000.0 -304002000000.0 -51293300000.0 -114764000000.0 -48685200000.0 -92647400000.0 -159894000000.0 -82045200000.0 -283990000000.0 -80949000000.0 -279898000000.0 -60030300000.0 -81475800000.0 -33669300000.0 -48848800000.0 -13314000000.0 -12549700000.0 -47229000000.0 -45185600000.0 -55942300000.0 -57796000000.0 -64817600000.0 -75300500000.0 -39501100000.0 -44642000000.0 -27716700000.0 -19340700000.0 -19166600000.0 -17107900000.0 -12549700000.0 -13458900000.0 -12549700000.0 -38294300000.0 -19358200000.0 -26072700000.0 -20846200000.0 -22840800000.0 -63532400000.0 -23181600000.0 -22307100000.0 -29857700000.0 -19111400000.0 -22014800000.0 -27428500000.0 -24727900000.0 -53090800000.0 -14878300000.0 -65270800000.0 -63079800000.0 -47681200000.0 -43000200000.0 -15644900000.0 -15526300000.0 -21897200000.0 -12552200000.0 -12581900000.0 -13918200000.0 -12651100000.0 -13131900000.0 -12549700000.0 -12549700000.0 -12549700000.0 -15443900000.0 -12549700000.0 -12549700000.0 -12642300000.0 -12874800000.0 -13673400000.0 -21116000000.0 -15355100000.0 -15224500000.0 -13384600000.0 -18825400000.0 -27889900000.0 -25844700000.0 -29872300000.0 -32347700000.0 -32433500000.0 -32567200000.0 -59052800000.0 -27991100000.0 -24894700000.0 -26300500000.0 -31637300000.0 -45264200000.0 -46683200000.0 -77680900000.0 -69475700000.0 -90944600000.0 -15990500000.0 -170626000000.0 -212896000000.0 -108664000000.0 -61360700000.0 -271068000000.0 -165249000000.0 -157432000000.0 -301589000000.0 -269015000000.0 -289987000000.0 -215151000000.0 -215828000000.0 -68673900000.0 -121235000000.0 -255477000000.0 -287591000000.0 -191012000000.0 -192615000000.0 -167238000000.0 -225044000000.0 -95650600000.0 -58159500000.0 -30700500000.0 -35144300000.0 -18119800000.0 -22447900000.0 -24431600000.0 -21808700000.0 -17901700000.0 -20127200000.0 -18835000000.0 -19494900000.0 -34573100000.0 -33552900000.0 -23693400000.0 -28374600000.0 -23108400000.0 -24624800000.0 -19705700000.0 -18553700000.0 -18052100000.0 -33882900000.0 -15447500000.0 -19060800000.0 -16351800000.0 -17306200000.0 -45441300000.0 -14418100000.0 -13152800000.0 -27403100000.0 -12549700000.0 -14961700000.0 -15445000000.0 -37401900000.0 -23244700000.0 -67786800000.0 -63531100000.0 -40034600000.0 -24161800000.0 -33161200000.0 -14061600000.0 -13256300000.0 -12549700000.0 -15377800000.0 -12570600000.0 -12621000000.0 -13025500000.0 -12555600000.0 -12723400000.0 -12549700000.0 -12549700000.0 -12549700000.0 -13620700000.0 -12549700000.0 -12549700000.0 -12568900000.0 -12549700000.0 -13175300000.0 -18756100000.0 -17308500000.0 -17770000000.0 -17686600000.0 -13350100000.0 -13728000000.0 -14200400000.0 -14562300000.0 -17855600000.0 -16319300000.0 -16964800000.0 -24908500000.0 -18190700000.0 -13892400000.0 -17431000000.0 -13512600000.0 -15018200000.0 -15901000000.0 -30297700000.0 -30772100000.0 -18334000000.0 -15041200000.0 -74483800000.0 -168471000000.0 -260321000000.0 -61203100000.0 -236315000000.0 -218199000000.0 -360210000000.0 -26483600000.0 -258014000000.0 -95319800000.0 -97205600000.0 -287925000000.0 -265104000000.0 -261035000000.0 -278129000000.0 -208295000000.0 -139426000000.0 -73249700000.0 -166273000000.0 -145176000000.0 -17934000000.0 -31447400000.0 -27504100000.0 -18332200000.0 -17658200000.0 -16232200000.0 -12573200000.0 -12606600000.0 -12629000000.0 -13608600000.0 -14667100000.0 -14911700000.0 -12549700000.0 -13197700000.0 -21116200000.0 -18909500000.0 -12549700000.0 -15357500000.0 -14457000000.0 -14423800000.0 -17628800000.0 -15672500000.0 -16482900000.0 -18056600000.0 -20735200000.0 -12863300000.0 -26635500000.0 -23937600000.0 -13947600000.0 -16560800000.0 -13912600000.0 -16957300000.0 -14861700000.0 -14061900000.0 -25901500000.0 -13613800000.0 -13638600000.0 -32479000000.0 -32597900000.0 -23708600000.0 -95524200000.0 -84961200000.0 -101293000000.0 -148051000000.0 -128059000000.0 -285082000000.0 -390501000000.0 -140350000000.0 -223772000000.0 -251663000000.0 -337576000000.0 -344295000000.0 -113801000000.0 -150409000000.0 -226526000000.0 -426702000000.0 -86609000000.0 -153323000000.0 -126247000000.0 -38604800000.0 -122843000000.0 -141086000000.0 -118556000000.0 -248827000000.0 -237173000000.0 -211396000000.0 -243635000000.0 -172579000000.0 -282522000000.0 -76196600000.0 -162268000000.0 -30682700000.0 -214640000000.0 -263349000000.0 -92693800000.0 -18615900000.0 -133553000000.0 -181636000000.0 -61462300000.0 -2.68977e+12 -3.72831e+12 -1.48374e+12 -2.12246e+12 -2.62252e+12 -4.23376e+12 -3.35348e+12 -5.22868e+12 -4.02437e+12 -4.27628e+12 -2.97353e+12 -2.83438e+12 -2.1298e+12 -3.08753e+12 -3.64084e+12 -2.84855e+12 -4.0354e+12 -3.67819e+12 -1.4974e+12 -4.58844e+12 -3.21554e+12 -3.49566e+12 -3.42679e+12 -2.34352e+12 -3.12582e+12 -2.97783e+12 -2.08823e+12 -3.93564e+12 -4.27603e+12 -2.38509e+12 -2.40183e+12 -2.68794e+12 -4.72538e+12 -2.66664e+12 -4.97811e+12 -2.89551e+12 -2.76129e+12 -2.57346e+12 -2.92345e+12 -4.50511e+12 -3.46309e+12 -2.03866e+12 -3.1409e+12 -4.2086e+12 -2.24191e+12 -2.21108e+12 -94544900000.0 -269582000000.0 -32279900000.0 -282935000000.0 -196361000000.0 -305047000000.0 -306468000000.0 -270296000000.0 -520512000000.0 -252669000000.0 -499407000000.0 -252018000000.0 -423470000000.0 -384301000000.0 -99785400000.0 -13697500000.0 -235521000000.0 -47930900000.0 -60737500000.0 -2.42193e+12 -2.36513e+12 -2.00173e+12 -2.5659e+12 -4.06797e+12 -2.98749e+12 -3.25254e+12 -2.31348e+12 -3.71885e+12 -3.72392e+12 -3.11324e+12 -3.64924e+12 -2.15712e+12 -3.79337e+12 -3.90321e+12 -2.44255e+12 -4.7229e+12 -5.0689e+12 -4.72155e+12 -2.36428e+12 -3.14398e+12 -3.30915e+12 -2.3267e+12 -3.4666e+12 -4.15499e+12 -5.36585e+12 -6.03125e+12 -1.82065e+12 -1.80554e+12 -2.61584e+12 -2.63483e+12 -5.22692e+12 -2.9823e+12 -3.65624e+12 -2.60808e+12 -4.37045e+12 -1.97829e+12 -3.19803e+12 -3.19935e+12 -2.09474e+12 -3.02833e+12 -2.59518e+12 -3.15411e+12 -3.33745e+12 -2.75101e+12 -7.26547e+12 -2.91506e+12 -5.0326e+12 -4.04627e+12 -3.55028e+12 -5.05604e+12 -3.31714e+12 -5.51871e+12 -3.4331e+12 -4.99195e+12 -4.01478e+12 -3.00705e+12 -4.00577e+12 -5.41975e+12 -3.79475e+12 -7.42234e+12 -5.54209e+12 -5.91706e+12 -3.81903e+12 -8.31245e+12 -1.73746e+12 -5.70377e+12 -4.95722e+12 -3.85529e+12 -3.40088e+12 -2.64771e+12 -4.5367e+12 -3.5168e+12 -2.49594e+12 -3.98443e+12 -6.13347e+12 -4.62458e+12 -3.76051e+12 -2.43564e+12 -6.03841e+12 -4.79643e+12 -4.30997e+12 -5.21068e+12 -6.73951e+12 -4.78744e+12 -5.63096e+12 -7.35775e+12 -2.43821e+12 -3.93101e+12 -5.03567e+12 -5.96374e+12 -8.03741e+12 -2.97069e+12 -3.0389e+12 -3.21307e+12 -3.18264e+12 -5.82441e+12 -7.06951e+12 -5.62841e+12 -4.28401e+12 -128028000000.0 -417536000000.0 -299138000000.0 -202446000000.0 -316611000000.0 -121655000000.0 -292337000000.0 -413343000000.0 -14971500000.0 -383100000000.0 -454229000000.0 -526911000000.0 -67133300000.0 -206221000000.0 -322099000000.0 -13929800000.0 -347938000000.0 -257894000000.0 -74398100000.0 -361761000000.0 -56733500000.0 -69478000000.0 -4.16959e+12 -2.13987e+12 -3.14412e+12 -7.18565e+12 -2.92658e+12 -7.12568e+12 -5.4099e+12 -5.85847e+12 -5.39451e+12 -8.38421e+12 -8.0791e+12 -2.72543e+12 -3.73635e+12 -4.80487e+12 -4.88657e+12 -4.40103e+12 -9.19712e+12 -6.48025e+12 -6.82336e+12 -7.15019e+12 -3.73695e+12 -4.43268e+12 -5.62159e+12 -3.02393e+12 -3.62764e+12 -4.10052e+12 -5.443e+12 -3.98186e+12 -7.23833e+12 -2.79333e+12 -6.50783e+12 -5.49142e+12 -5.85153e+12 -6.83552e+12 -4.9133e+12 -5.71039e+12 -6.53743e+12 -4.67466e+12 -4.28454e+12 -4.50306e+12 -7.7269e+12 -6.16765e+12 -6.31641e+12 -5.37133e+12 -3.44574e+12 -6.56301e+12 -6.64272e+12 -4.22779e+12 -6.39662e+12 -3.99446e+12 -2.84859e+12 -1.87328e+12 -4.15428e+12 -3.1594e+12 -4.24418e+12 -6.00882e+12 -4.14347e+12 -2.96596e+12 -3.26175e+12 -6.67951e+12 -4.72689e+12 -3.86654e+12 -3.63245e+12 -3.56886e+12 -3.95398e+12 -5.42059e+12 -3.42231e+12 -3.68409e+12 -3.58409e+12 -4.21025e+12 -2.1068e+12 -4.03027e+12 -4.52202e+12 -2.72948e+12 -4.71487e+12 -3.46734e+12 -3.17057e+12 -7.93833e+12 -3.55684e+12 -2.79787e+12 -6.76588e+12 -1.95829e+12 -4.11816e+12 -3.38389e+12 -3.35195e+12 -5.20706e+12 -4.29426e+12 -6.50644e+12 -6.97005e+12 -4.56918e+12 -3.66667e+12 -2.9342e+12 -5.86804e+12 -723000000000.0 -4.39411e+12 -6.70888e+12 -1.956e+12 -5.1946e+12 -4.55722e+12 -3.43421e+12 -2.31197e+12 -3.18745e+12 -3.811e+12 -5.12147e+12 -3.56712e+12 -4.78017e+12 -2.22483e+12 -5.30653e+12 -6.8928e+12 -5.09781e+12 -3.10761e+12 -472721000000.0 -342910000000.0 -476132000000.0 -773623000000.0 -625783000000.0 -646320000000.0 -350447000000.0 -490891000000.0 -509066000000.0 -522234000000.0 -704970000000.0 -393376000000.0 -628454000000.0 -544542000000.0 -446436000000.0 -225112000000.0 -488315000000.0 -167714000000.0 -685322000000.0 -458665000000.0 -3.437e+12 -1.72513e+12 -4.51836e+12 -2.91776e+12 -4.25587e+12 -6.60843e+12 -3.18036e+12 -4.26623e+12 -5.47735e+12 -1.37603e+12 -2.76172e+12 -3.51081e+12 -3.22048e+12 -6.07048e+12 -5.97709e+12 -2.77885e+12 -2.92163e+12 -3.55981e+12 -5.27583e+12 -4.43052e+12 -6.14842e+12 -5.14081e+12 -5.29212e+12 -5.46774e+12 -5.50815e+12 -6.20406e+12 -8.36925e+12 -4.08448e+12 -4.40401e+12 -5.79971e+12 -3.50596e+12 -4.62361e+12 -2.6029e+12 -4.76146e+12 -4.67219e+12 -4.2313e+12 -6.09837e+12 -3.72233e+12 -5.30089e+12 -3.90509e+12 -5.5529e+12 -3.62382e+12 -4.64206e+12 -5.2781e+12 -4.98046e+12 -3.98923e+12 -4.80679e+12 -4.45155e+12 -4.12506e+12 -5.26695e+12 -3.52776e+12 -3.77355e+12 -5.79933e+12 -3.4043e+12 -4.84205e+12 -4.00002e+12 -7.2848e+12 -5.23387e+12 -3.38263e+12 -4.65404e+12 -3.21729e+12 -3.33595e+12 -5.79671e+12 -3.54651e+12 -4.13157e+12 -2.09118e+12 -2.61507e+12 -5.38751e+12 -5.91633e+12 -4.19234e+12 -2.93939e+12 -3.09422e+12 -3.13413e+12 -2.74225e+12 -3.34687e+12 -2.42453e+12 -1.98568e+12 -3.96755e+12 -3.55015e+12 -2.87129e+12 -4.30219e+12 -4.60264e+12 -3.44399e+12 -3.85093e+12 -4.55571e+12 -6.55392e+12 -3.58495e+12 -3.77919e+12 -2.21475e+12 -5.86987e+12 -6.62757e+12 -5.28906e+12 -3.83644e+12 -4.42442e+12 -3.33507e+12 -4.57767e+12 -2.45422e+12 -1.10152e+12 -3.72259e+12 -5.62897e+12 -2.93872e+12 -3.27105e+12 -3.36556e+12 -4.65444e+12 -5.39604e+12 -4.98338e+12 -4.02488e+12 -3.77513e+12 -3.01987e+12 -3.2423e+12 -6.42697e+12 -3.14531e+12 -3.39992e+12 -3.34842e+12 -3.0864e+12 -2.21525e+12 -3.60475e+12 -2.77681e+12 -3.30967e+12 -2.47507e+12 -385234000000.0 -468413000000.0 -440878000000.0 -329020000000.0 -385427000000.0 -12531100000.0 -403579000000.0 -243555000000.0 -459721000000.0 -158455000000.0 -529446000000.0 -236368000000.0 -397420000000.0 -34244600000.0 -752899000000.0 -304481000000.0 -390392000000.0 -637323000000.0 -2.33701e+12 -2.686e+12 -3.78291e+12 -7.17593e+12 -5.05223e+12 -2.67961e+12 -4.45545e+12 -4.3534e+12 -4.23371e+12 -5.69505e+12 -2.76295e+12 -7.06214e+12 -4.07272e+12 -1.83056e+12 -3.27149e+12 -6.14899e+12 -7.78238e+12 -4.1937e+12 -3.93886e+12 -3.5072e+12 -3.52182e+12 -2.03558e+12 -2.1506e+12 -4.69488e+12 -3.76333e+12 -3.44495e+12 -5.76082e+12 -6.32247e+12 -4.12302e+12 -3.25684e+12 -5.12183e+12 -3.88046e+12 -2.29039e+12 -3.24019e+12 -3.86285e+12 -3.51311e+12 -3.66074e+12 -3.56396e+12 -4.57104e+12 -5.69629e+12 -4.40131e+12 -5.04769e+12 -4.41756e+12 -3.83693e+12 -5.10179e+12 -3.48082e+12 -2.69493e+12 -3.33346e+12 -3.55869e+12 -4.11122e+12 -4.88985e+12 -6.02929e+12 -2.74749e+12 -5.21654e+12 -3.4407e+12 -3.13289e+12 -3.19932e+12 -2.46424e+12 -3.02075e+12 -3.40036e+12 -3.04442e+12 -2.91689e+12 -5.33633e+12 -3.21439e+12 -4.09e+12 -3.73693e+12 -2.75029e+12 -2.60723e+12 -2.53785e+12 -4.51496e+12 -3.34455e+12 -2.70566e+12 -2.94326e+12 -2.507e+12 -2.46115e+12 -4.4619e+12 -3.15299e+12 -1.62916e+12 -2.37251e+12 -6.09243e+12 -3.93638e+12 -3.96831e+12 -3.38493e+12 -4.74209e+12 -1.49778e+12 -3.35043e+12 -4.96074e+12 -4.06074e+12 -3.33337e+12 -4.70393e+12 -3.13053e+12 -2.39166e+12 -3.28346e+12 -3.93645e+12 -3.87332e+12 -3.98161e+12 -4.63218e+12 -6.8807e+12 -4.54322e+12 -1.78247e+12 -618994000000.0 -2.75751e+12 -3.58078e+12 -3.62592e+12 -3.83179e+12 -2.04606e+12 -2.61054e+12 -5.16426e+12 -3.08926e+12 -617101000000.0 -382342000000.0 -494419000000.0 -421625000000.0 -182034000000.0 -268216000000.0 -530337000000.0 -488205000000.0 -458598000000.0 -440752000000.0 -699233000000.0 -433069000000.0 -101312000000.0 -438168000000.0 -670875000000.0 -580396000000.0 -520976000000.0 -213627000000.0 -454282000000.0 -261715000000.0 -58716900000.0 -3.99124e+12 -5.66378e+12 -4.82149e+12 -3.05296e+12 -5.94402e+12 -2.53567e+12 -4.92097e+12 -2.81935e+12 -2.98241e+12 -2.61468e+12 -3.82719e+12 -4.73132e+12 -6.2289e+12 -3.071e+12 -4.06881e+12 -2.51284e+12 -4.05958e+12 -1.14787e+12 -2.9753e+12 -3.56898e+12 -5.63425e+12 -3.24225e+12 -3.95468e+12 -4.19927e+12 -5.10775e+12 -4.97169e+12 -4.15168e+12 -3.80088e+12 -2.59816e+12 -3.76687e+12 -4.27218e+12 -3.01171e+12 -4.35418e+12 -4.61665e+12 -4.81756e+12 -712234000000.0 -4.50491e+12 -3.89723e+12 -2.27213e+12 -2.00712e+12 -1.51319e+12 -4.67297e+12 -4.22355e+12 -3.6436e+12 -4.74634e+12 -4.28892e+12 -1.66394e+12 -1.95117e+12 -4.46608e+12 -3.76983e+12 -5.00268e+12 -5.04316e+12 -4.37124e+12 -2.98011e+12 -3.31553e+12 -4.32742e+12 -4.26835e+12 -2.38233e+12 -1.94572e+12 -2.88961e+12 -2.0704e+12 -2.66221e+12 -2.45463e+12 -3.28801e+12 -1.75599e+12 -1.22549e+12 -2.43065e+12 -2.06498e+12 -3.09507e+12 -2.71987e+12 -5.23163e+12 -2.6733e+12 -5.3801e+12 -1.63806e+12 -2.81219e+12 -1.27085e+12 -4.0839e+12 -3.17458e+12 -2.8246e+12 -3.4338e+12 -4.71217e+12 -4.2913e+12 -2.02464e+12 -2.79585e+12 -1.41382e+12 -2.58509e+12 -3.60442e+12 -3.67263e+12 -3.39635e+12 -2.21297e+12 -3.12088e+12 -3.98378e+12 -3.58617e+12 -4.54673e+12 -2.91907e+12 -3.40584e+12 -1.49514e+12 -2.2993e+12 -2.52667e+12 -3.60059e+12 -2.4179e+12 -1.91467e+12 -4.67719e+12 -3.96726e+12 -4.87191e+12 -654211000000.0 -451489000000.0 -25836600000.0 -391676000000.0 -115975000000.0 -246423000000.0 -78665700000.0 -276403000000.0 -380289000000.0 -303099000000.0 -153708000000.0 -332916000000.0 -210623000000.0 -179868000000.0 -280778000000.0 -130928000000.0 -359151000000.0 -145911000000.0 -420168000000.0 -566035000000.0 -49028500000.0 -111651000000.0 -19397700000.0 -93715600000.0 -468628000000.0 -257182000000.0 -194971000000.0 -369825000000.0 -2.62799e+12 -3.57873e+12 -1.5815e+12 -3.26888e+12 -1.40722e+12 -4.0732e+12 -3.16585e+12 -4.84408e+12 -3.53124e+12 -6.39657e+12 -4.96225e+12 -2.37627e+12 -2.39308e+12 -3.10223e+12 -2.70193e+12 -4.99495e+12 -3.39461e+12 -6.04827e+12 -2.47405e+12 -3.57847e+12 -2.37889e+12 -4.35103e+12 -2.25695e+12 -4.82214e+12 -4.42769e+12 -1.73522e+12 -3.95539e+12 -3.62817e+12 -2.80017e+12 -3.67319e+12 -4.2839e+12 -2.87544e+12 -3.56996e+12 -5.3332e+12 -4.09402e+12 -2.78361e+12 -3.36884e+12 -4.45746e+12 -5.06573e+12 -3.96742e+12 -3.44626e+12 -4.50896e+12 -3.07234e+12 -4.28008e+12 -4.04246e+12 -4.66453e+12 -1.60097e+12 -2.49988e+12 -1.39123e+12 -3.65176e+12 -3.84445e+12 -3.55072e+12 -2.65479e+12 -2.26958e+12 -1.97593e+12 -2.32943e+12 -1.98131e+12 -885102000000.0 -2.39647e+12 -1.95789e+12 -5.19456e+12 -2.20898e+12 -2.1697e+12 -2.82928e+12 -3.4705e+12 -3.17958e+12 -3.5702e+12 -4.28208e+12 -3.59274e+12 -3.11667e+12 -2.73378e+12 -2.48414e+12 -2.75228e+12 -2.27232e+12 -1.58765e+12 -3.33198e+12 -3.79526e+12 -3.07121e+12 -646696000000.0 -3.04239e+12 -2.59689e+12 -1.94502e+12 -3.22622e+12 -2.07648e+12 -2.80914e+12 -3.24687e+12 -2.86444e+12 -3.17852e+12 -1.76795e+12 -792289000000.0 -232553000000.0 -95759800000.0 -452186000000.0 -204541000000.0 -233385000000.0 -230124000000.0 -267859000000.0 -147479000000.0 -152472000000.0 -500683000000.0 -381396000000.0 -219034000000.0 -207005000000.0 -531040000000.0 -382639000000.0 -423952000000.0 -13238600000.0 -2.41424e+12 -1.6684e+12 -2.29212e+12 -3.10386e+12 -1.24786e+12 -2.3011e+12 -1.93582e+12 -3.02375e+12 -2.32048e+12 -2.54354e+12 -4.83522e+12 -2.7547e+12 -2.86724e+12 -4.04387e+12 -3.46355e+12 -2.19005e+12 -2.04844e+12 -5.39695e+12 -2.70208e+12 -3.68475e+12 -2.1456e+12 -2.63453e+12 -2.55951e+12 -1.59688e+12 -4.13921e+12 -3.11417e+12 -4.3104e+12 -2.78061e+12 -2.5864e+12 -3.43542e+12 -3.19412e+12 -4.41151e+12 -2.79794e+12 -1.8002e+12 -1.76497e+12 -2.37406e+12 -2.09215e+12 -3.4319e+12 -2.85354e+12 -1.89981e+12 -2.84811e+12 -3.63218e+12 -3.22092e+12 -1.91377e+12 -2.68651e+12 -1.91027e+12 -2.31851e+12 -3.05965e+12 -1.9487e+12 -2.1155e+12 -2.5533e+12 -3.39456e+12 -2.03586e+12 -1.66099e+12 -488297000000.0 -3.27407e+12 -3.60842e+12 -2.13423e+12 -2.50919e+12 -1.28663e+12 -1.33687e+12 -2.96608e+12 -1.95998e+12 -4.33695e+12 -4.10621e+12 -1.98029e+12 -2.27148e+12 -1.92163e+12 -5.38276e+12 -2.04267e+12 -1.00803e+12 -2.50007e+12 -1.47864e+12 -2.29339e+12 -3.44964e+12 -2.67767e+12 -2.83203e+12 -1.09815e+12 -1.64535e+12 -1.2139e+12 -2.42861e+12 -3.35523e+12 -1.36913e+12 -2.37049e+12 -1.04631e+12 -1.60812e+12 -1.21578e+12 -164256000000.0 -95544000000.0 -161267000000.0 -157043000000.0 -230139000000.0 -116496000000.0 -12870000000.0 -326796000000.0 -251500000000.0 -337297000000.0 -375397000000.0 -179523000000.0 -164838000000.0 -15609400000.0 -264286000000.0 -197021000000.0 -555189000000.0 -178252000000.0 -369831000000.0 -844880000000.0 -949729000000.0 -2.35614e+12 -1.91184e+12 -2.92059e+12 -1.16054e+12 -4.18435e+12 -1.7343e+12 -1.92219e+12 -2.56349e+12 -4.16057e+12 -1.7117e+12 -3.02489e+12 -4.0171e+12 -3.38528e+12 -2.92315e+12 -2.41105e+12 -3.01318e+12 -2.8749e+12 -2.45449e+12 -3.86796e+12 -3.32932e+12 -2.67493e+12 -1.68846e+12 -2.55536e+12 -2.70384e+12 -2.27739e+12 -2.98909e+12 -1.73694e+12 -2.18981e+12 -2.16314e+12 -2.44245e+12 -2.86513e+12 -1.8321e+12 -2.86299e+12 -1.82364e+12 -2.08262e+12 -3.27462e+12 -2.79768e+12 -2.77256e+12 -3.1293e+12 -1.27659e+12 -1.32186e+12 -1.25606e+12 -1.99166e+12 -1.40275e+12 -1.49697e+12 -2.46199e+12 -1.52058e+12 -1.11747e+12 -3.11641e+12 -1.18045e+12 -1.9822e+12 -1.5485e+12 -1.57741e+12 -1.98668e+12 -2.40579e+12 -2.72174e+12 -3.39122e+12 -4.42773e+12 -2.27236e+12 -3.25279e+12 -1.97938e+12 -3.14593e+12 -1.52694e+12 -2.2186e+12 -1.32017e+12 -2.61465e+12 -2.88835e+12 -2.03423e+12 -1.88159e+12 -314623000000.0 -1.72392e+12 -3.15769e+12 -2.23897e+12 -1.88997e+12 -2.32134e+12 -1.98153e+12 -1.67062e+12 -1.31037e+12 -1.64177e+12 -1.91235e+12 -593341000000.0 -1.22752e+12 -1.54909e+12 -821223000000.0 -2.09357e+12 -233110000000.0 -247049000000.0 -194258000000.0 -33619800000.0 -452948000000.0 -420498000000.0 -223472000000.0 -106769000000.0 -122268000000.0 -266910000000.0 -155423000000.0 -35177300000.0 -198929000000.0 -168390000000.0 -127960000000.0 -413883000000.0 -391503000000.0 -409505000000.0 -106209000000.0 -216783000000.0 -2.96712e+12 -2.29504e+12 -2.94216e+12 -1.27725e+12 -1.57175e+12 -1.22262e+12 -2.26685e+12 -2.84794e+12 -2.78973e+12 -3.43709e+12 -2.34078e+12 -2.1644e+12 -1.78615e+12 -3.20485e+12 -2.05145e+12 -1.60188e+12 -3.49689e+12 -738057000000.0 -1.75334e+12 -2.61121e+12 -2.01209e+12 -3.31146e+12 -707632000000.0 -2.08289e+12 -1.86068e+12 -3.06172e+12 -1.2492e+12 -776371000000.0 -2.07452e+12 -1.59482e+12 -2.46308e+12 -4.33671e+12 -1.73977e+12 -1.52559e+12 -1.77202e+12 -1.53018e+12 -934669000000.0 -1.89094e+12 -2.4892e+12 -2.74272e+12 -1.64166e+12 -1.72494e+12 -1.28148e+12 -1.87531e+12 -1.23445e+12 -1.38845e+12 -2.01024e+12 -581372000000.0 -1.30299e+12 -656019000000.0 -1.2159e+12 -1.66391e+12 -1.93068e+12 -1.43462e+12 -1.1466e+12 -1.76088e+12 -977054000000.0 -2.8261e+12 -1.70822e+12 -1.50801e+12 -1.94873e+12 -2.57695e+12 -1.78315e+12 -1.96404e+12 -893599000000.0 -1.53876e+12 -993806000000.0 -1.53998e+12 -2.123e+12 -1.49903e+12 -524937000000.0 -2.34336e+12 -1.05053e+12 -1.5777e+12 -1.84509e+12 -1.84233e+12 -3.29605e+12 -1.03143e+12 -1.1545e+12 -999712000000.0 -1.31683e+12 -551235000000.0 -2.16416e+12 -2.5741e+12 -627700000000.0 -1.62156e+12 -406067000000.0 -281669000000.0 -417468000000.0 -380940000000.0 -12549700000.0 -72816900000.0 -305859000000.0 -351457000000.0 -382115000000.0 -252476000000.0 -149613000000.0 -176787000000.0 -261767000000.0 -43771800000.0 -268518000000.0 -153246000000.0 -272952000000.0 -533674000000.0 -89124000000.0 -197243000000.0 -384171000000.0 -19687700000.0 -1.85503e+12 -1.43765e+12 -2.78135e+12 -700627000000.0 -1.84907e+12 -1.53326e+12 -2.20134e+12 -2.233e+12 -1.95248e+12 -2.64385e+12 -2.14299e+12 -992410000000.0 -2.20367e+12 -1.79285e+12 -1.94948e+12 -2.38378e+12 -1.75709e+12 -1.93932e+12 -1.23771e+12 -2.80008e+12 -3.02086e+12 -273631000000.0 -2.52054e+12 -880996000000.0 -1.19191e+12 -1.94596e+12 -1.6507e+12 -1.7555e+12 -1.38453e+12 -1.73524e+12 -3.4823e+12 -1.44902e+12 -2.23572e+12 -855962000000.0 -986621000000.0 -1.90696e+12 -620949000000.0 -1.35669e+12 -535736000000.0 -1.16481e+12 -2.62738e+12 -1.18663e+12 -1.5024e+12 -771738000000.0 -751470000000.0 -260689000000.0 -1.04105e+12 -2.2166e+12 -1.89303e+12 -844270000000.0 -1.46052e+12 -1.27428e+12 -661658000000.0 -2.24224e+12 -1.44736e+12 -1.63297e+12 -1.09701e+12 -1.30584e+12 -579077000000.0 -848351000000.0 -1.19521e+12 -987621000000.0 -1.34635e+12 -1.20181e+12 -622148000000.0 -1.26718e+12 -2.12187e+12 -2.2994e+12 -1.35472e+12 -477739000000.0 -915921000000.0 -1.02373e+12 -1.65959e+12 -785898000000.0 -2.24876e+12 -1.34053e+12 -1.59593e+12 -957703000000.0 -759073000000.0 -1.33799e+12 -1.29921e+12 -1.37555e+12 -1.54599e+12 -1.42208e+12 -2.63459e+12 -1.81273e+12 -1.92889e+12 -1.32754e+12 -824809000000.0 -58485200000.0 -241904000000.0 -231360000000.0 -190099000000.0 -14861500000.0 -89770900000.0 -54326100000.0 -84279600000.0 -71046200000.0 -130251000000.0 -144084000000.0 -43697300000.0 -150917000000.0 -139066000000.0 -34439600000.0 -254513000000.0 -104567000000.0 -168987000000.0 -496359000000.0 -45724400000.0 -88430600000.0 -196561000000.0 -63222900000.0 -917567000000.0 -1.07974e+12 -1.12866e+12 -992811000000.0 -1.2159e+12 -1.42071e+12 -1.8124e+12 -2.90785e+12 -630446000000.0 -1.55832e+12 -1.12705e+12 -1.16086e+12 -1.6343e+12 -2.12155e+12 -359932000000.0 -1.03778e+12 -1.12431e+12 -2.65514e+12 -1.87066e+12 -977116000000.0 -484539000000.0 -2.5533e+12 -935526000000.0 -960536000000.0 -1.20411e+12 -1.85009e+12 -1.79763e+12 -2.09404e+12 -1.0784e+12 -821049000000.0 -1.56295e+12 -1.78046e+12 -790709000000.0 -1.3591e+12 -1.20092e+12 -1.37285e+12 -1.23652e+12 -828612000000.0 -999643000000.0 -605981000000.0 -979225000000.0 -1.2991e+12 -1.21701e+12 -332204000000.0 -2.80883e+12 -1.44778e+12 -964562000000.0 -855104000000.0 -791523000000.0 -111656000000.0 -2.25792e+12 -1.10976e+12 -1.68919e+12 -801811000000.0 -1.00193e+12 -1.17184e+12 -1.5887e+12 -1.62937e+12 -1.40744e+12 -758536000000.0 -871641000000.0 -374457000000.0 -434274000000.0 -623752000000.0 -802864000000.0 -1.05745e+12 -1.96125e+12 -1.82006e+12 -933217000000.0 -320252000000.0 -725097000000.0 -441344000000.0 -777998000000.0 -876482000000.0 -595397000000.0 -966805000000.0 -1.43707e+12 -1.20293e+12 -994946000000.0 -1.14347e+12 -1.00804e+12 -1.3663e+12 -370308000000.0 -1.22234e+12 -1.09297e+12 -560551000000.0 -283690000000.0 -139650000000.0 -106999000000.0 -129988000000.0 -120896000000.0 -75825900000.0 -58859100000.0 -69301500000.0 -129484000000.0 -49630700000.0 -33071900000.0 -318272000000.0 -136227000000.0 -237292000000.0 -55679800000.0 -187937000000.0 -547813000000.0 -1.02395e+12 -902080000000.0 -551878000000.0 -1.09583e+12 -728261000000.0 -950057000000.0 -660671000000.0 -1.22381e+12 -2.47395e+12 -1.35868e+12 -761342000000.0 -553944000000.0 -1.10261e+12 -442623000000.0 -1.91689e+12 -1.69834e+12 -1.03701e+12 -1.7312e+12 -2.57998e+12 -1.40077e+12 -777369000000.0 -1.05998e+12 -343406000000.0 -803717000000.0 -900185000000.0 -820879000000.0 -2.15289e+12 -1.16636e+12 -716356000000.0 -171968000000.0 -2.03512e+12 -1.62486e+12 -652052000000.0 -1.46134e+12 -762254000000.0 -570345000000.0 -1.24302e+12 -917545000000.0 -1.57402e+12 -966845000000.0 -876403000000.0 -950156000000.0 -845300000000.0 -1.70755e+12 -1.1806e+12 -623248000000.0 -2.00681e+12 -985301000000.0 -735494000000.0 -1.38064e+12 -866234000000.0 -740578000000.0 -1.96725e+12 -1.26578e+12 -702783000000.0 -1.03237e+12 -10172500000.0 -809251000000.0 -1.28223e+12 -499369000000.0 -1.27104e+12 -51322200000.0 -577843000000.0 -871625000000.0 -1.24406e+12 -786512000000.0 -754939000000.0 -1.79026e+12 -1.37568e+12 -711889000000.0 -770572000000.0 -1.36898e+12 -608069000000.0 -475598000000.0 -666518000000.0 -1.38613e+12 -804316000000.0 -751898000000.0 -440655000000.0 -1.36491e+12 -191000000000.0 -1.36158e+12 -1.12636e+12 -592736000000.0 -311090000000.0 -833605000000.0 -468852000000.0 -12549300000.0 -149101000000.0 -128801000000.0 -23590000000.0 -164308000000.0 -65420800000.0 -178296000000.0 -55206100000.0 -89050700000.0 -51694800000.0 -79078100000.0 -16622900000.0 -39509300000.0 -95222700000.0 -108585000000.0 -142473000000.0 -156972000000.0 -213882000000.0 -225922000000.0 -192568000000.0 -393524000000.0 -47911700000.0 -337486000000.0 -500924000000.0 -1.02167e+12 -459415000000.0 -762744000000.0 -1.37685e+12 -672852000000.0 -964827000000.0 -1.42939e+12 -1.52261e+12 -357347000000.0 -879651000000.0 -1.05434e+12 -1.52165e+12 -705699000000.0 -549464000000.0 -1.23976e+12 -1.05731e+12 -610365000000.0 -968604000000.0 -363899000000.0 -932360000000.0 -1.09547e+12 -367432000000.0 -811633000000.0 -453642000000.0 -800366000000.0 -1.06385e+12 -1.69253e+12 -446340000000.0 -374019000000.0 -595680000000.0 -797272000000.0 -776646000000.0 -868345000000.0 -1.45625e+12 -1.01744e+12 -331792000000.0 -1.1877e+12 -615925000000.0 -392157000000.0 -610061000000.0 -502348000000.0 -1.4648e+12 -776236000000.0 -523061000000.0 -558190000000.0 -1.45602e+12 -458137000000.0 -1.17538e+12 -332117000000.0 -568838000000.0 -902901000000.0 -513307000000.0 -1.06726e+12 -980230000000.0 -1.00804e+12 -437468000000.0 -804429000000.0 -615466000000.0 -1.16263e+12 -426566000000.0 -531996000000.0 -1.05875e+12 -1.06845e+12 -413026000000.0 -1.32913e+12 -1.41869e+12 -1.46404e+12 -1.10197e+12 -474675000000.0 -863286000000.0 -339393000000.0 -1.26651e+12 -135602000000.0 -573793000000.0 -306874000000.0 -328483000000.0 -602736000000.0 -149521000000.0 -14834300000.0 -28664600000.0 -122510000000.0 -26346900000.0 -25295900000.0 -47946800000.0 -16836200000.0 -80942900000.0 -18419800000.0 -142068000000.0 -92817900000.0 -160016000000.0 -75811000000.0 -70770100000.0 -181273000000.0 -119333000000.0 -50602300000.0 -86380700000.0 -12549700000.0 -108688000000.0 -45520800000.0 -33822600000.0 -12740400000.0 -739334000000.0 -434719000000.0 -1.15756e+12 -410728000000.0 -1.47376e+12 -268518000000.0 -608996000000.0 -779864000000.0 -716530000000.0 -768206000000.0 -951381000000.0 -420957000000.0 -930878000000.0 -623027000000.0 -367821000000.0 -799004000000.0 -383690000000.0 -426750000000.0 -252396000000.0 -778493000000.0 -982658000000.0 -437823000000.0 -592095000000.0 -739377000000.0 -255276000000.0 -1.08448e+12 -257900000000.0 -12734400000.0 -504642000000.0 -319648000000.0 -392613000000.0 -393069000000.0 -284520000000.0 -352021000000.0 -670250000000.0 -1.00404e+12 -389674000000.0 -460936000000.0 -315145000000.0 -390551000000.0 -488885000000.0 -1.27765e+12 -535426000000.0 -398751000000.0 -1.14884e+12 -740372000000.0 -445233000000.0 -334180000000.0 -403100000000.0 -969400000000.0 -373174000000.0 -927841000000.0 -317445000000.0 -293197000000.0 -629273000000.0 -659623000000.0 -12549700000.0 -766907000000.0 -352362000000.0 -452903000000.0 -414361000000.0 -918738000000.0 -1.03623e+12 -454397000000.0 -289515000000.0 -260202000000.0 -178388000000.0 -402777000000.0 -681538000000.0 -1.15418e+12 -753368000000.0 -543410000000.0 -523113000000.0 -517350000000.0 -555581000000.0 -699223000000.0 -34010500000.0 -571927000000.0 -613933000000.0 -593339000000.0 -517265000000.0 -28532900000.0 -23647500000.0 -43190100000.0 -87041400000.0 -53019600000.0 -23658500000.0 -20793000000.0 -39871700000.0 -23027200000.0 -55249500000.0 -43246600000.0 -32403900000.0 -106286000000.0 -33812200000.0 -44746700000.0 -63220700000.0 -106395000000.0 -117086000000.0 -67720600000.0 -48133100000.0 -30561500000.0 -32923800000.0 -19366800000.0 -39168400000.0 -13653700000.0 -396480000000.0 -1.32904e+12 -737497000000.0 -856714000000.0 -892373000000.0 -232316000000.0 -600321000000.0 -962926000000.0 -790000000000.0 -1.2301e+12 -504065000000.0 -563812000000.0 -145490000000.0 -365351000000.0 -424139000000.0 -609130000000.0 -538942000000.0 -663404000000.0 -139880000000.0 -406409000000.0 -870302000000.0 -391464000000.0 -82063000000.0 -97163200000.0 -385224000000.0 -273437000000.0 -730811000000.0 -751622000000.0 -454816000000.0 -35469100000.0 -274771000000.0 -448389000000.0 -225611000000.0 -594384000000.0 -283221000000.0 -491430000000.0 -391369000000.0 -695215000000.0 -405915000000.0 -628707000000.0 -329273000000.0 -278783000000.0 -347960000000.0 -80927600000.0 -465508000000.0 -536514000000.0 -344393000000.0 -592474000000.0 -218298000000.0 -37147600000.0 -494715000000.0 -469360000000.0 -117529000000.0 -330196000000.0 -91023200000.0 -145059000000.0 -391205000000.0 -516654000000.0 -675918000000.0 -575809000000.0 -174141000000.0 -868704000000.0 -363236000000.0 -490272000000.0 -498648000000.0 -473382000000.0 -367917000000.0 -618403000000.0 -680680000000.0 -408251000000.0 -12549700000.0 -220546000000.0 -348553000000.0 -440981000000.0 -258607000000.0 -83034600000.0 -395567000000.0 -307815000000.0 -177084000000.0 -285376000000.0 -452483000000.0 -398088000000.0 -258156000000.0 -13556400000.0 -22539300000.0 -38918200000.0 -12724300000.0 -13411400000.0 -34376900000.0 -24740100000.0 -33097700000.0 -19875800000.0 -61260900000.0 -65396700000.0 -47518700000.0 -25644400000.0 -60927000000.0 -23677000000.0 -61973600000.0 -95097700000.0 -12549700000.0 -64868400000.0 -17714400000.0 -12549700000.0 -30894000000.0 -15427600000.0 -640353000000.0 -559706000000.0 -157833000000.0 -508078000000.0 -747916000000.0 -346492000000.0 -22959800000.0 -898054000000.0 -341078000000.0 -267525000000.0 -495482000000.0 -691343000000.0 -910972000000.0 -12549700000.0 -580949000000.0 -464301000000.0 -252482000000.0 -126816000000.0 -268956000000.0 -148147000000.0 -473353000000.0 -143433000000.0 -502581000000.0 -193040000000.0 -397676000000.0 -12729100000.0 -342274000000.0 -603903000000.0 -124086000000.0 -478250000000.0 -338145000000.0 -468460000000.0 -354397000000.0 -234071000000.0 -245208000000.0 -203070000000.0 -362675000000.0 -16846700000.0 -365448000000.0 -233765000000.0 -213694000000.0 -752733000000.0 -367100000000.0 -335572000000.0 -433896000000.0 -401980000000.0 -351997000000.0 -94044500000.0 -151475000000.0 -205422000000.0 -103430000000.0 -94970400000.0 -386961000000.0 -356554000000.0 -103804000000.0 -370771000000.0 -277394000000.0 -151238000000.0 -152837000000.0 -283810000000.0 -195947000000.0 -229099000000.0 -396228000000.0 -581531000000.0 -313962000000.0 -375617000000.0 -314354000000.0 -256094000000.0 -311405000000.0 -160615000000.0 -442074000000.0 -99464800000.0 -893876000000.0 -41062000000.0 -158173000000.0 -16089300000.0 -96654100000.0 -284776000000.0 -173465000000.0 -86547700000.0 -336253000000.0 -86351000000.0 -44099200000.0 -170363000000.0 -208315000000.0 -267201000000.0 -21024500000.0 -38180300000.0 -15399200000.0 -18856100000.0 -34008000000.0 -25507100000.0 -28439100000.0 -35374300000.0 -70205500000.0 -30788400000.0 -20769200000.0 -65802600000.0 -12867700000.0 -58638200000.0 -14807900000.0 -12549700000.0 -24577500000.0 -21854700000.0 -286731000000.0 -143899000000.0 -183782000000.0 -223405000000.0 -763299000000.0 -99742700000.0 -344032000000.0 -518775000000.0 -481409000000.0 -14183400000.0 -142500000000.0 -685099000000.0 -586206000000.0 -214008000000.0 -303415000000.0 -175875000000.0 -236126000000.0 -49048700000.0 -24993400000.0 -101310000000.0 -171901000000.0 -343965000000.0 -49177000000.0 -112832000000.0 -161354000000.0 -442300000000.0 -254414000000.0 -134336000000.0 -70942900000.0 -150689000000.0 -187140000000.0 -351848000000.0 -551395000000.0 -15963400000.0 -108980000000.0 -50359900000.0 -160634000000.0 -100475000000.0 -116478000000.0 -32477000000.0 -69117500000.0 -257241000000.0 -164883000000.0 -300756000000.0 -169598000000.0 -128732000000.0 -287926000000.0 -235846000000.0 -328099000000.0 -214091000000.0 -134669000000.0 -129867000000.0 -103766000000.0 -175002000000.0 -312906000000.0 -356578000000.0 -215682000000.0 -239678000000.0 -75853500000.0 -110813000000.0 -298436000000.0 -524876000000.0 -442178000000.0 -124390000000.0 -342412000000.0 -75263300000.0 -411307000000.0 -42787700000.0 -188684000000.0 -302235000000.0 -338683000000.0 -146400000000.0 -264095000000.0 -378986000000.0 -536807000000.0 -111126000000.0 -76026000000.0 -237212000000.0 -159355000000.0 -171144000000.0 -65562800000.0 -77122300000.0 -116712000000.0 -86726700000.0 -135485000000.0 -214702000000.0 -122760000000.0 -129679000000.0 -15506100000.0 -12975700000.0 -201169000000.0 -13000900000.0 -14124300000.0 -12908000000.0 -12711800000.0 -12625300000.0 -24341600000.0 -15400400000.0 -18328700000.0 -12549700000.0 -44463100000.0 -21898200000.0 -12549700000.0 -31511900000.0 -32309400000.0 -73837400000.0 -56116500000.0 -59803500000.0 -35474100000.0 -30938100000.0 -57448200000.0 -249751000000.0 -681071000000.0 -621184000000.0 -300146000000.0 -277684000000.0 -175394000000.0 -321741000000.0 -195794000000.0 -390987000000.0 -66315700000.0 -216406000000.0 -207518000000.0 -94549600000.0 -181311000000.0 -113126000000.0 -255186000000.0 -194752000000.0 -186663000000.0 -12549700000.0 -193293000000.0 -269485000000.0 -52319500000.0 -111140000000.0 -112815000000.0 -76229200000.0 -97444400000.0 -238260000000.0 -260364000000.0 -138424000000.0 -175227000000.0 -63544800000.0 -66037800000.0 -51162700000.0 -62317800000.0 -130077000000.0 -82184100000.0 -42507800000.0 -63454000000.0 -145876000000.0 -18135900000.0 -253656000000.0 -198959000000.0 -148249000000.0 -216842000000.0 -44265400000.0 -70646100000.0 -181585000000.0 -15414000000.0 -183032000000.0 -57859600000.0 -97077000000.0 -208781000000.0 -177211000000.0 -148425000000.0 -139862000000.0 -229101000000.0 -94346900000.0 -421629000000.0 -247703000000.0 -445387000000.0 -89069100000.0 -168837000000.0 -263055000000.0 -246429000000.0 -246199000000.0 -17551700000.0 -136472000000.0 -23808400000.0 -115086000000.0 -198891000000.0 -110545000000.0 -33241500000.0 -29612500000.0 -17248000000.0 -40665200000.0 -33211100000.0 -94952200000.0 -220217000000.0 -46470200000.0 -13747500000.0 -21409900000.0 -14062600000.0 -12802100000.0 -12549700000.0 -12724100000.0 -15528800000.0 -13432000000.0 -31453700000.0 -12549700000.0 -28727100000.0 -16204500000.0 -18900300000.0 -24724000000.0 -34638000000.0 -40548100000.0 -57409600000.0 -206480000000.0 -141048000000.0 -112144000000.0 -234051000000.0 -257878000000.0 -139085000000.0 -187976000000.0 -75721200000.0 -65103500000.0 -240430000000.0 -261212000000.0 -585044000000.0 -230641000000.0 -114202000000.0 -16371700000.0 -74499600000.0 -15180400000.0 -47325400000.0 -81469100000.0 -78898400000.0 -211146000000.0 -55559600000.0 -34536600000.0 -39474700000.0 -62175600000.0 -101051000000.0 -227062000000.0 -46575100000.0 -140568000000.0 -119624000000.0 -61957300000.0 -96444500000.0 -12549700000.0 -28444500000.0 -13079300000.0 -12693900000.0 -64376100000.0 -12642500000.0 -12549700000.0 -71002200000.0 -116493000000.0 -192304000000.0 -290528000000.0 -333640000000.0 -225761000000.0 -266367000000.0 -323719000000.0 -363975000000.0 -202323000000.0 -302939000000.0 -90625000000.0 -208279000000.0 -177900000000.0 -173497000000.0 -140570000000.0 -184897000000.0 -274504000000.0 -302269000000.0 -62081800000.0 -109421000000.0 -73776500000.0 -100433000000.0 -115296000000.0 -59500000000.0 -12549700000.0 -209926000000.0 -60421500000.0 -51855700000.0 -80921000000.0 -129396000000.0 -31857200000.0 -33608600000.0 -39370600000.0 -15794800000.0 -44537400000.0 -12549700000.0 -127413000000.0 -39926200000.0 -12549700000.0 -15532700000.0 -12935000000.0 -12549700000.0 -12549700000.0 -19970600000.0 -12549700000.0 -14287100000.0 -12615000000.0 -27063300000.0 -12880700000.0 -14307600000.0 -14856000000.0 -16709200000.0 -59160500000.0 -28604400000.0 -35216300000.0 -38713300000.0 -42446100000.0 -44096200000.0 -112746000000.0 -33445500000.0 -169371000000.0 -44564000000.0 -155616000000.0 -111772000000.0 -209050000000.0 -287709000000.0 -345859000000.0 -280107000000.0 -266529000000.0 -84961700000.0 -187911000000.0 -223139000000.0 -75078100000.0 -76156300000.0 -105937000000.0 -76625600000.0 -33856100000.0 -43081200000.0 -42402100000.0 -56913800000.0 -175497000000.0 -51182500000.0 -61787300000.0 -82355800000.0 -123379000000.0 -114884000000.0 -66640400000.0 -43129200000.0 -40001700000.0 -28935500000.0 -18680800000.0 -15200500000.0 -23875800000.0 -21726400000.0 -12549700000.0 -13416900000.0 -28141900000.0 -88176700000.0 -119857000000.0 -25815300000.0 -13898500000.0 -76204000000.0 -103398000000.0 -29028700000.0 -58582000000.0 -211362000000.0 -101137000000.0 -39545000000.0 -36280200000.0 -42358700000.0 -91588900000.0 -60321400000.0 -44467000000.0 -47924800000.0 -141549000000.0 -50846400000.0 -69235700000.0 -138187000000.0 -51577600000.0 -115427000000.0 -43445700000.0 -74198800000.0 -192018000000.0 -91180600000.0 -54164100000.0 -19745200000.0 -34091000000.0 -23758000000.0 -54124000000.0 -68848200000.0 -13290800000.0 -19393500000.0 -23248600000.0 -25659500000.0 -21003100000.0 -92173200000.0 -16757900000.0 -12549700000.0 -13705500000.0 -13061000000.0 -12568700000.0 -12549700000.0 -12607700000.0 -17403000000.0 -13894200000.0 -14868700000.0 -14685600000.0 -12942400000.0 -22477100000.0 -12549700000.0 -12549700000.0 -13355700000.0 -22600700000.0 -31436300000.0 -16076900000.0 -16221900000.0 -22485300000.0 -14841500000.0 -13370700000.0 -46950600000.0 -14491000000.0 -70961400000.0 -201800000000.0 -170663000000.0 -91024900000.0 -180215000000.0 -161489000000.0 -49721600000.0 -83130500000.0 -65762100000.0 -80658700000.0 -122391000000.0 -95187300000.0 -80460800000.0 -57571300000.0 -62091600000.0 -33054500000.0 -23648500000.0 -30852400000.0 -23609100000.0 -36282900000.0 -16568800000.0 -17864600000.0 -86006000000.0 -57264000000.0 -18299000000.0 -54385800000.0 -35549700000.0 -20420900000.0 -41130500000.0 -39083900000.0 -30302800000.0 -28720200000.0 -15846800000.0 -18019300000.0 -19481000000.0 -14459900000.0 -14300700000.0 -42755000000.0 -16591500000.0 -17443100000.0 -42525600000.0 -48684500000.0 -61409300000.0 -36184900000.0 -32953900000.0 -35002700000.0 -52833700000.0 -28738300000.0 -34998900000.0 -95293800000.0 -12549700000.0 -21153800000.0 -24805900000.0 -53929700000.0 -16661000000.0 -16278800000.0 -17006300000.0 -64563800000.0 -57351800000.0 -82007000000.0 -20533600000.0 -13798700000.0 -12549700000.0 -20517700000.0 -26000200000.0 -13195000000.0 -14344700000.0 -13876400000.0 -20425000000.0 -13843500000.0 -12769300000.0 -13222000000.0 -28697900000.0 -12549700000.0 -12707900000.0 -12560700000.0 -12549700000.0 -12571500000.0 -12860300000.0 -13021000000.0 -12963300000.0 -12587900000.0 -15391100000.0 -12549800000.0 -12549800000.0 -12549700000.0 -15868400000.0 -13327100000.0 -13780000000.0 -13896500000.0 -13426500000.0 -12892800000.0 -18466700000.0 -60395300000.0 -133239000000.0 -142705000000.0 -48799200000.0 -76780000000.0 -139211000000.0 -40006000000.0 -78085000000.0 -77621900000.0 -13783900000.0 -52741300000.0 -12549700000.0 -12549700000.0 -49470800000.0 -21346700000.0 -15814200000.0 -15841100000.0 -23422200000.0 -16195300000.0 -12549700000.0 -38350700000.0 -18222400000.0 -16923000000.0 -31874000000.0 -53731500000.0 -12549700000.0 -20064200000.0 -17131700000.0 -14196900000.0 -14147400000.0 -16932000000.0 -12549700000.0 -12723300000.0 -16488300000.0 -49214300000.0 -38009200000.0 -29554600000.0 -28490100000.0 -16143400000.0 -17960500000.0 -15972200000.0 -15403800000.0 -46010600000.0 -25385100000.0 -12987800000.0 -12628000000.0 -48416600000.0 -43136800000.0 -37505900000.0 -66917300000.0 -39863000000.0 -35191900000.0 -43623900000.0 -20338600000.0 -25102800000.0 -15780700000.0 -12549700000.0 -15218500000.0 -30287400000.0 -18160100000.0 -16962900000.0 -14011000000.0 -21801000000.0 -15144800000.0 -15891200000.0 -17173700000.0 -12863100000.0 