# vtk DataFile Version 2.0
Time step 4
ASCII
DATASET UNSTRUCTURED_GRID
POINTS 5000 float
2413.63 236801.0 0
8014.23 236384.0 0
12471.9 236039.0 0
16833.8 235816.0 0
22355.6 236656.0 0
27642.9 233651.0 0
33095.5 236477.0 0
38086.0 236962.0 0
42621.0 237179.0 0
47500.0 237133.0 0
52137.1 237087.0 0
57039.6 235835.0 0
62763.5 236702.0 0
67994.7 237132.0 0
72677.5 236292.0 0
77500.0 236965.0 0
82500.0 236918.0 0
87393.3 236226.0 0
92500.0 237073.0 0
97287.4 237129.0 0
101387.0 236841.0 0
106077.0 236513.0 0
111888.0 236659.0 0
117804.0 236783.0 0
123281.0 236957.0 0
128293.0 237165.0 0
133355.0 236283.0 0
138034.0 237244.0 0
142500.0 237195.0 0
147500.0 236986.0 0
152551.0 236743.0 0
157549.0 236785.0 0
162511.0 236805.0 0
167045.0 236440.0 0
171882.0 235094.0 0
177734.0 235097.0 0
182987.0 234509.0 0
187404.0 236239.0 0
192500.0 237432.0 0
196195.0 236607.0 0
201773.0 235718.0 0
207611.0 236515.0 0
212984.0 236348.0 0
218171.0 237014.0 0
222508.0 237356.0 0
225864.0 236808.0 0
230324.0 236311.0 0
235740.0 237049.0 0
241084.0 235697.0 0
252750.0 237577.0 0
278963.0 236885.0 0
297327.0 236928.0 0
362054.0 237439.0 0
372066.0 235597.0 0
377060.0 237623.0 0
388140.0 237598.0 0
394013.0 236943.0 0
403535.0 236145.0 0
408465.0 237385.0 0
432570.0 236547.0 0
446454.0 237161.0 0
477136.0 236410.0 0
485874.0 236028.0 0
491656.0 237737.0 0
497602.0 236176.0 0
5800.98 239880.0 0
10873.4 240488.0 0
28307.4 239953.0 0
57901.1 241272.0 0
87807.4 241032.0 0
108167.0 241214.0 0
157134.0 240875.0 0
166741.0 241121.0 0
172692.0 240722.0 0
178135.0 240505.0 0
183316.0 239593.0 0
188393.0 240660.0 0
198028.0 241121.0 0
213629.0 240907.0 0
226930.0 241069.0 0
246271.0 238041.0 0
259103.0 238189.0 0
256876.0 242676.0 0
263842.0 239188.0 0
268829.0 238201.0 0
274028.0 238271.0 0
271720.0 242303.0 0
276888.0 242717.0 0
282066.0 240259.0 0
286355.0 238550.0 0
291738.0 239093.0 0
298150.0 242451.0 0
303603.0 237965.0 0
307772.0 240295.0 0
312138.0 238090.0 0
317939.0 238720.0 0
323256.0 238726.0 0
327597.0 238862.0 0
332223.0 238477.0 0
337240.0 238222.0 0
341053.0 239375.0 0
345992.0 237911.0 0
343221.0 242486.0 0
350895.0 239505.0 0
355526.0 238857.0 0
361751.0 242749.0 0
368116.0 239034.0 0
373126.0 242440.0 0
382647.0 238380.0 0
378971.0 242150.0 0
388175.0 242689.0 0
399079.0 238886.0 0
402863.0 242329.0 0
408242.0 241657.0 0
412500.0 238703.0 0
417500.0 238597.0 0
422571.0 237558.0 0
422226.0 242207.0 0
427290.0 238481.0 0
433099.0 241832.0 0
437537.0 238570.0 0
442319.0 237788.0 0
443072.0 242147.0 0
447419.0 241244.0 0
450827.0 238119.0 0
451887.0 242646.0 0
455365.0 238260.0 0
460351.0 238342.0 0
465902.0 238387.0 0
471727.0 237683.0 0
481467.0 239116.0 0
486667.0 242481.0 0
496855.0 241685.0 0
2275.2 242556.0 0
6929.99 244893.0 0
16996.7 241744.0 0
22721.4 242405.0 0
34683.5 241810.0 0
40107.7 242083.0 0
44243.4 242503.0 0
48062.3 241279.0 0
47362.2 246019.0 0
52500.0 242088.0 0
62719.3 242157.0 0
67506.6 241530.0 0
72291.9 241376.0 0
77500.0 242339.0 0
82116.9 241767.0 0
82057.9 246505.0 0
92499.1 242259.0 0
97219.8 242009.0 0
97541.8 246591.0 0
102518.0 241561.0 0
107957.0 246002.0 0
112500.0 242261.0 0
117500.0 242366.0 0
122500.0 242271.0 0
125871.0 246169.0 0
127690.0 241772.0 0
132498.0 241796.0 0
137520.0 242033.0 0
142832.0 241519.0 0
141125.0 245717.0 0
147138.0 241691.0 0
152146.0 241483.0 0
156451.0 245442.0 0
161550.0 241632.0 0
170019.0 245808.0 0
182253.0 244795.0 0
193337.0 241480.0 0
194411.0 246439.0 0
203780.0 241398.0 0
200113.0 246090.0 0
209210.0 241769.0 0
213317.0 245723.0 0
217680.0 242108.0 0
222112.0 242213.0 0
227237.0 246082.0 0
232193.0 241588.0 0
237706.0 242269.0 0
243318.0 242440.0 0
248206.0 242121.0 0
252279.0 244086.0 0
257611.0 247395.0 0
262317.0 243334.0 0
267375.0 243110.0 0
267369.0 247573.0 0
272921.0 247601.0 0
279865.0 246649.0 0
282777.0 243963.0 0
287500.0 243641.0 0
292615.0 243654.0 0
296798.0 247535.0 0
302970.0 243618.0 0
307492.0 243678.0 0
312501.0 243835.0 0
317500.0 243597.0 0
322503.0 243307.0 0
322471.0 247308.0 0
327500.0 243621.0 0
332500.0 243693.0 0
337617.0 243226.0 0
341456.0 246738.0 0
346851.0 247541.0 0
347628.0 243132.0 0
352592.0 243524.0 0
356161.0 247185.0 0
357914.0 243328.0 0
361383.0 247432.0 0
365435.0 242820.0 0
366676.0 246941.0 0
382079.0 243475.0 0
384487.0 246765.0 0
392488.0 247849.0 0
393355.0 242976.0 0
397941.0 243339.0 0
397266.0 247730.0 0
412729.0 242895.0 0
409186.0 247271.0 0
417399.0 243166.0 0
418968.0 247864.0 0
427691.0 243516.0 0
424080.0 247040.0 0
432210.0 247493.0 0
437500.0 243634.0 0
442202.0 247371.0 0
448070.0 246311.0 0
457088.0 243076.0 0
462466.0 243839.0 0
466748.0 242937.0 0
470264.0 244240.0 0
472460.0 247522.0 0
475223.0 242993.0 0
480869.0 244380.0 0
492146.0 244634.0 0
2238.43 247667.0 0
7999.42 252020.0 0
12046.4 246646.0 0
13238.0 252683.0 0
16505.0 247036.0 0
17538.4 252201.0 0
20667.0 246670.0 0
22210.0 252545.0 0
26896.3 246623.0 0
32561.5 246962.0 0
31959.2 252682.0 0
37975.0 246635.0 0
42688.0 246883.0 0
49058.8 252290.0 0
51648.7 247786.0 0
56337.2 246836.0 0
61933.7 246964.0 0
67501.5 246421.0 0
73526.3 246930.0 0
78316.4 247514.0 0
77026.6 252860.0 0
82097.6 253113.0 0
87064.4 246581.0 0
92527.1 246719.0 0
102639.0 247251.0 0
107677.0 252874.0 0
112500.0 247058.0 0
116782.0 247052.0 0
113035.0 252934.0 0
120896.0 246690.0 0
118061.0 252965.0 0
123344.0 252279.0 0
131266.0 248009.0 0
136525.0 247554.0 0
137678.0 253115.0 0
146460.0 246599.0 0
147894.0 253005.0 0
152047.0 249448.0 0
156912.0 252595.0 0
161972.0 247129.0 0
166801.0 250652.0 0
176324.0 246314.0 0
182321.0 251552.0 0
188221.0 246650.0 0
197151.0 252864.0 0
202962.0 252867.0 0
204277.0 247404.0 0
208050.0 246616.0 0
217688.0 247297.0 0
214438.0 252684.0 0
222508.0 246718.0 0
222388.0 252430.0 0
232566.0 246995.0 0
237517.0 247257.0 0
237426.0 251976.0 0
242008.0 247411.0 0
247171.0 246365.0 0
252112.0 249054.0 0
256129.0 252266.0 0
262595.0 248115.0 0
260592.0 252057.0 0
266412.0 252280.0 0
278326.0 252143.0 0
283576.0 248875.0 0
287235.0 248953.0 0
288603.0 252231.0 0
291105.0 248105.0 0
302249.0 248864.0 0
307677.0 248110.0 0
313183.0 249137.0 0
318191.0 248391.0 0
321165.0 252565.0 0
326899.0 248821.0 0
330081.0 252885.0 0
331933.0 248805.0 0
336591.0 247926.0 0
339957.0 252158.0 0
351956.0 248375.0 0
357560.0 251107.0 0
366960.0 251616.0 0
371331.0 248568.0 0
377867.0 248078.0 0
382851.0 252228.0 0
388537.0 249854.0 0
402852.0 248532.0 0
408004.0 252564.0 0
414376.0 249649.0 0
427754.0 249798.0 0
437253.0 248426.0 0
437514.0 252609.0 0
442231.0 252963.0 0
446910.0 251458.0 0
453877.0 248126.0 0
451140.0 252453.0 0
458762.0 248768.0 0
462817.0 248420.0 0
467500.0 248746.0 0
472915.0 252422.0 0
477840.0 248272.0 0
482746.0 249027.0 0
487611.0 250097.0 0
491608.0 248692.0 0
492149.0 252469.0 0
496655.0 248253.0 0
2182.12 253644.0 0
11953.5 256514.0 0
17152.9 257390.0 0
23066.4 257894.0 0
26827.3 254320.0 0
29863.6 257259.0 0
34495.7 258090.0 0
37474.1 253338.0 0
39374.5 257523.0 0
43142.3 253363.0 0
47884.1 257398.0 0
53811.5 253709.0 0
59002.9 253298.0 0
56996.6 257688.0 0
63407.3 253091.0 0
62980.8 257875.0 0
67904.0 253837.0 0
72459.3 253569.0 0
72996.5 257666.0 0
77912.4 258077.0 0
83201.6 258098.0 0
87292.6 253360.0 0
92240.1 253775.0 0
97725.4 253468.0 0
102740.0 254797.0 0
111443.0 257595.0 0
122213.0 257509.0 0
127500.0 253741.0 0
126999.0 258248.0 0
132579.0 254280.0 0
136622.0 257690.0 0
142510.0 253418.0 0
147015.0 257305.0 0
153278.0 254606.0 0
157928.0 258148.0 0
160577.0 253690.0 0
164608.0 254296.0 0
167020.0 257327.0 0
171024.0 253380.0 0
177243.0 254616.0 0
186611.0 254122.0 0
191623.0 253728.0 0
193552.0 257866.0 0
203102.0 257963.0 0
208747.0 254327.0 0
218838.0 253750.0 0
216411.0 257293.0 0
221249.0 257414.0 0
227870.0 252963.0 0
233894.0 253269.0 0
232080.0 258002.0 0
237969.0 256679.0 0
242355.0 253646.0 0
242994.0 258102.0 0
246866.0 253042.0 0
251711.0 254225.0 0
257822.0 257498.0 0
262769.0 255692.0 0
267589.0 258161.0 0
271804.0 253953.0 0
284257.0 253842.0 0
288751.0 257548.0 0
292855.0 253851.0 0
298805.0 253894.0 0
303875.0 253959.0 0
302639.0 258266.0 0
307500.0 253785.0 0
312305.0 253630.0 0
316371.0 253259.0 0
317170.0 257674.0 0
325972.0 254035.0 0
322521.0 258127.0 0
331114.0 258199.0 0
334592.0 254744.0 0
341474.0 257602.0 0
346202.0 253796.0 0
352930.0 253939.0 0
357912.0 257481.0 0
361921.0 253394.0 0
367174.0 256522.0 0
371831.0 254196.0 0
377774.0 255272.0 0
387340.0 253958.0 0
392976.0 254009.0 0
399431.0 253564.0 0
403146.0 257366.0 0
404203.0 253339.0 0
412313.0 254078.0 0
408312.0 257395.0 0
416867.0 253460.0 0
414340.0 257779.0 0
421355.0 254042.0 0
425841.0 253484.0 0
427441.0 257579.0 0
431200.0 253698.0 0
436043.0 257459.0 0
448087.0 257118.0 0
455893.0 253658.0 0
461655.0 253337.0 0
467396.0 253581.0 0
473353.0 257741.0 0
479143.0 253756.0 0
484988.0 254232.0 0
489148.0 254845.0 0
496774.0 254872.0 0
1501.06 258372.0 0
2721.64 262422.0 0
7148.55 258319.0 0
12567.1 261025.0 0
28486.8 261364.0 0
38768.2 262357.0 0
43152.1 259593.0 0
52693.2 259278.0 0
59437.0 262728.0 0
68287.0 259004.0 0
71989.8 261586.0 0
76234.1 263076.0 0
88003.3 258238.0 0
88098.5 263323.0 0
92500.0 258649.0 0
97515.5 258902.0 0
101510.0 258694.0 0
101690.0 263394.0 0
105914.0 258501.0 0
111192.0 262439.0 0
116767.0 258272.0 0
115519.0 262977.0 0
131308.0 258720.0 0
133433.0 263142.0 0
142221.0 259109.0 0
151806.0 259217.0 0
148479.0 263365.0 0
161441.0 262608.0 0
163549.0 258718.0 0
166824.0 262758.0 0
170931.0 259379.0 0
176686.0 260876.0 0
182808.0 258518.0 0
189058.0 258576.0 0
192173.0 263138.0 0
198158.0 258685.0 0
202492.0 262427.0 0
207375.0 259792.0 0
212124.0 258564.0 0
216363.0 263111.0 0
222659.0 263104.0 0
226332.0 259268.0 0
236294.0 261652.0 0
248183.0 258258.0 0
253007.0 258515.0 0
251063.0 262680.0 0
262889.0 261242.0 0
272674.0 259835.0 0
278409.0 258799.0 0
283513.0 258416.0 0
282123.0 262354.0 0
293390.0 258562.0 0
293001.0 262949.0 0
297412.0 259909.0 0
301849.0 262114.0 0
307240.0 258622.0 0
306290.0 263582.0 0
312067.0 258350.0 0
317010.0 262786.0 0
327354.0 259058.0 0
333980.0 262606.0 0
337167.0 258753.0 0
347057.0 259634.0 0
351979.0 259650.0 0
355887.0 261885.0 0
360757.0 263183.0 0
362941.0 258396.0 0
366715.0 263231.0 0
370471.0 259688.0 0
374800.0 259709.0 0
378800.0 263000.0 0
383036.0 258112.0 0
387914.0 258117.0 0
383629.0 262190.0 0
387440.0 262602.0 0
392165.0 260418.0 0
397976.0 259492.0 0
400428.0 263624.0 0
405278.0 262614.0 0
411977.0 262095.0 0
417689.0 258703.0 0
422600.0 258868.0 0
427127.0 261824.0 0
431175.0 259125.0 0
437117.0 262679.0 0
441832.0 258578.0 0
453848.0 258567.0 0
459176.0 258738.0 0
464654.0 258289.0 0
469182.0 259461.0 0
466485.0 262860.0 0
477745.0 259727.0 0
482270.0 258660.0 0
486981.0 258582.0 0
492300.0 259139.0 0
497533.0 260585.0 0
2954.12 268189.0 0
7815.91 264688.0 0
13411.6 266843.0 0
17931.7 263151.0 0
23559.5 263654.0 0
28494.5 266695.0 0
33291.5 263642.0 0
38221.5 267535.0 0
43292.7 263777.0 0
42885.7 268001.0 0
48199.3 263356.0 0
49513.5 268163.0 0
53761.5 263971.0 0
64592.9 263773.0 0
63322.8 267780.0 0
68043.8 263787.0 0
66925.7 268079.0 0
71716.3 266925.0 0
78014.3 268285.0 0
82106.2 263660.0 0
88110.9 268345.0 0
92838.7 263813.0 0
93000.6 268515.0 0
97106.4 263464.0 0
97908.5 267986.0 0
106620.0 263845.0 0
106067.0 268276.0 0
111015.0 267735.0 0
116867.0 267714.0 0
121046.0 263527.0 0
126669.0 268431.0 0
127604.0 263635.0 0
131635.0 267952.0 0
138837.0 263620.0 0
143842.0 263678.0 0
145411.0 268194.0 0
152873.0 263740.0 0
151109.0 268356.0 0
157061.0 263849.0 0
162228.0 267220.0 0
167331.0 267836.0 0
172332.0 265098.0 0
176845.0 265189.0 0
181126.0 265268.0 0
186629.0 263512.0 0
197665.0 264390.0 0
202705.0 267802.0 0
206548.0 264373.0 0
207673.0 268351.0 0
210670.0 263441.0 0
212221.0 267803.0 0
228254.0 264823.0 0
233905.0 265984.0 0
241169.0 264009.0 0
246563.0 264575.0 0
252057.0 267161.0 0
256842.0 263690.0 0
268322.0 263463.0 0
268628.0 268432.0 0
272855.0 264714.0 0
277769.0 264677.0 0
282670.0 267479.0 0
287127.0 263677.0 0
292920.0 268268.0 0
297893.0 265091.0 0
302529.0 268099.0 0
311500.0 264028.0 0
322495.0 264043.0 0
328124.0 263678.0 0
337973.0 265588.0 0
342663.0 263459.0 0
348373.0 264350.0 0
351470.0 268484.0 0
352657.0 264034.0 0
356338.0 266517.0 0
372683.0 264584.0 0
383705.0 266615.0 0
391151.0 265199.0 0
396181.0 265302.0 0
403499.0 268526.0 0
409127.0 267462.0 0
417888.0 263532.0 0
414048.0 268139.0 0
422972.0 264695.0 0
420535.0 268240.0 0
427876.0 268224.0 0
432197.0 263679.0 0
433516.0 267957.0 0
438042.0 267547.0 0
441927.0 264098.0 0
447211.0 263331.0 0
452797.0 263792.0 0
458260.0 264183.0 0
462538.0 263774.0 0
467519.0 267868.0 0
471671.0 263816.0 0
476965.0 264408.0 0
482360.0 263990.0 0
487807.0 263444.0 0
492600.0 264620.0 0
497501.0 265635.0 0
8519.68 270631.0 0
18189.8 270483.0 0
23636.5 269347.0 0
27400.3 273868.0 0
33414.1 269221.0 0
32270.1 273507.0 0
46305.9 272030.0 0
53574.4 268967.0 0
58482.3 268618.0 0
63424.6 272948.0 0
68398.1 271459.0 0
83452.8 269467.0 0
89952.7 272930.0 0
98225.8 272184.0 0
102210.0 268812.0 0
105608.0 272743.0 0
118500.0 273220.0 0
122735.0 269022.0 0
124068.0 273565.0 0
128580.0 271833.0 0
135645.0 269741.0 0
140116.0 269106.0 0
137913.0 272911.0 0
147424.0 273511.0 0
157105.0 269191.0 0
162011.0 272744.0 0
167322.0 272791.0 0
171668.0 270390.0 0
176353.0 268963.0 0
181112.0 270903.0 0
185899.0 268847.0 0
191659.0 269043.0 0
197425.0 269952.0 0
201952.0 273508.0 0
207480.0 273329.0 0
217264.0 269617.0 0
223361.0 269196.0 0
228956.0 270939.0 0
233355.0 270439.0 0
238377.0 269591.0 0
243790.0 269288.0 0
241885.0 273227.0 0
248573.0 268930.0 0
246336.0 273376.0 0
251362.0 272638.0 0
255491.0 269738.0 0
262471.0 268388.0 0
273336.0 269236.0 0
278266.0 270060.0 0
287733.0 269694.0 0
293259.0 273013.0 0
297539.0 270174.0 0
308293.0 268839.0 0
313173.0 268615.0 0
311837.0 272624.0 0
317534.0 268303.0 0
316537.0 272833.0 0
322281.0 269600.0 0
326279.0 268333.0 0
330508.0 268635.0 0
335567.0 268977.0 0
340806.0 269423.0 0
346354.0 270334.0 0
351590.0 273614.0 0
356605.0 271858.0 0
361133.0 269008.0 0
366726.0 268959.0 0
371388.0 269544.0 0
377458.0 270099.0 0
387868.0 269831.0 0
392721.0 269685.0 0
398196.0 270906.0 0
411569.0 272722.0 0
417338.0 268192.0 0
417038.0 271981.0 0
422770.0 273001.0 0
432740.0 272519.0 0
438417.0 273144.0 0
442800.0 268906.0 0
448416.0 269247.0 0
453818.0 268696.0 0
458301.0 269234.0 0
455199.0 273158.0 0
462680.0 268661.0 0
468652.0 273003.0 0
472777.0 269226.0 0
479386.0 268678.0 0
477816.0 273369.0 0
483708.0 268801.0 0
482498.0 273583.0 0
487960.0 268585.0 0
486773.0 273209.0 0
492498.0 268776.0 0
490819.0 273138.0 0
497796.0 270357.0 0
2142.43 274060.0 0
2157.89 278480.0 0
7096.87 276619.0 0
13547.7 274042.0 0
18385.4 275391.0 0
22101.2 273790.0 0
23077.5 278601.0 0
32580.1 276939.0 0
37331.1 273678.0 0
42384.6 275292.0 0
46931.1 278485.0 0
51295.3 274361.0 0
57227.1 274712.0 0
62077.1 278354.0 0
67823.0 278312.0 0
73325.9 274375.0 0
79591.6 273835.0 0
78180.4 278523.0 0
84895.0 274419.0 0
94750.7 274977.0 0
101211.0 275268.0 0
97792.5 278090.0 0
105729.0 278214.0 0
111320.0 274081.0 0
121747.0 278324.0 0
128232.0 277966.0 0
133426.0 273931.0 0
137498.0 277182.0 0
141933.0 274020.0 0
152980.0 273660.0 0
157377.0 274769.0 0
153610.0 278460.0 0
158086.0 278946.0 0
163181.0 278562.0 0
170955.0 274351.0 0
168515.0 277778.0 0
173432.0 277571.0 0
177041.0 273943.0 0
177762.0 278395.0 0
182363.0 275730.0 0
187142.0 273834.0 0
191775.0 274332.0 0
196627.0 275419.0 0
213311.0 273608.0 0
212262.0 278490.0 0
219976.0 274640.0 0
225081.0 274466.0 0
228804.0 275035.0 0
232447.0 274143.0 0
231200.0 278351.0 0
237180.0 274886.0 0
241403.0 278169.0 0
246808.0 278268.0 0
252461.0 278084.0 0
257797.0 274945.0 0
262728.0 274409.0 0
268183.0 274044.0 0
273951.0 274152.0 0
279292.0 275542.0 0
284666.0 273978.0 0
283640.0 278313.0 0
289526.0 274608.0 0
292438.0 278016.0 0
296943.0 275182.0 0
302459.0 274006.0 0
307449.0 274277.0 0
307418.0 278714.0 0
311891.0 277837.0 0
321081.0 274646.0 0
317163.0 277578.0 0
326251.0 273483.0 0
328003.0 278204.0 0
331546.0 273767.0 0
337198.0 274281.0 0
343100.0 274826.0 0
342292.0 278751.0 0
346927.0 274940.0 0
349772.0 277701.0 0
355848.0 278060.0 0
362183.0 275034.0 0
366937.0 278556.0 0
367432.0 273794.0 0
372056.0 274002.0 0
378562.0 276666.0 0
382419.0 274009.0 0
387064.0 274514.0 0
391603.0 274211.0 0
388083.0 278895.0 0
392563.0 278596.0 0
395948.0 275515.0 0
400566.0 275848.0 0
405873.0 274451.0 0
412596.0 277839.0 0
417394.0 277089.0 0
428202.0 274652.0 0
425023.0 278374.0 0
431868.0 278135.0 0
444320.0 273888.0 0
450101.0 275468.0 0
454078.0 278399.0 0
460815.0 274265.0 0
465424.0 275215.0 0
468507.0 278361.0 0
473169.0 274578.0 0
478273.0 278354.0 0
486785.0 277401.0 0
491744.0 278960.0 0
495194.0 274396.0 0
2087.49 282818.0 0
6892.62 282436.0 0
12316.5 280082.0 0
17881.4 279802.0 0
16014.1 283588.0 0
20037.5 283935.0 0
24869.9 283765.0 0
28868.5 279887.0 0
36177.9 279472.0 0
41205.2 279568.0 0
52741.7 279031.0 0
53409.0 283535.0 0
57479.8 280832.0 0
62547.6 283669.0 0
67211.5 283613.0 0
73558.7 281067.0 0
78921.8 283849.0 0
82906.7 279255.0 0
88782.2 278972.0 0
93966.4 279514.0 0
92508.1 283501.0 0
101234.0 279540.0 0
97443.2 282469.0 0
102588.0 283891.0 0
110351.0 279375.0 0
107336.0 282894.0 0
111980.0 283535.0 0
115629.0 278958.0 0
123279.0 283573.0 0
127782.0 283333.0 0
133634.0 278755.0 0
142052.0 279267.0 0
138506.0 283110.0 0
148146.0 279999.0 0
151921.0 283759.0 0
156610.0 283752.0 0
161574.0 283578.0 0
166850.0 282601.0 0
173140.0 283722.0 0
181516.0 280267.0 0
186325.0 279050.0 0
191412.0 278813.0 0
189478.0 283794.0 0
195890.0 280955.0 0
201234.0 279073.0 0
199540.0 283905.0 0
207236.0 279311.0 0
212639.0 283208.0 0
216971.0 279454.0 0
221758.0 279468.0 0
223228.0 283654.0 0
226300.0 278978.0 0
227639.0 283751.0 0
232500.0 283600.0 0
236015.0 279498.0 0
238111.0 283802.0 0
247202.0 283059.0 0
257575.0 280085.0 0
263873.0 279827.0 0
269755.0 279641.0 0
274733.0 279066.0 0
271616.0 283513.0 0
279470.0 280899.0 0
283697.0 282675.0 0
288248.0 279580.0 0
293180.0 282593.0 0
298276.0 280192.0 0
303254.0 279118.0 0
302500.0 283648.0 0
306999.0 283209.0 0
312129.0 283488.0 0
317301.0 282456.0 0
323227.0 279552.0 0
325384.0 283506.0 0
329285.0 282856.0 0
332741.0 278808.0 0
337480.0 279559.0 0
340179.0 283081.0 0
345857.0 278953.0 0
344807.0 283242.0 0
350709.0 283271.0 0
361137.0 280183.0 0
369736.0 283394.0 0
373756.0 279132.0 0
378355.0 281125.0 0
383182.0 279563.0 0
388240.0 283336.0 0
397809.0 279491.0 0
393197.0 283610.0 0
401958.0 284017.0 0
403559.0 279781.0 0
408291.0 279411.0 0
406432.0 283884.0 0
412396.0 283637.0 0
418245.0 282832.0 0
420912.0 279602.0 0
428506.0 281960.0 0
437592.0 279320.0 0
443519.0 279398.0 0
450306.0 281867.0 0
458303.0 279497.0 0
455637.0 283606.0 0
463295.0 279710.0 0
459534.0 283654.0 0
462718.0 283760.0 0
466965.0 283678.0 0
473566.0 279138.0 0
472039.0 283532.0 0
477721.0 283767.0 0
482988.0 279575.0 0
482633.0 283904.0 0
487298.0 282796.0 0
497440.0 279073.0 0
3058.79 287892.0 0
8539.55 286877.0 0
12512.4 285439.0 0
16224.5 287783.0 0
21077.8 288838.0 0
32111.9 284161.0 0
32664.6 288444.0 0
37540.8 285138.0 0
43238.5 284102.0 0
41773.4 289121.0 0
48585.7 284455.0 0
53255.2 288539.0 0
57210.8 285693.0 0
62652.9 288087.0 0
71175.4 285873.0 0
67069.5 288055.0 0
84065.0 283998.0 0
82405.7 287857.0 0
86458.0 287606.0 0
88135.8 283969.0 0
91316.2 288405.0 0
96714.6 287592.0 0
101378.0 288510.0 0
106505.0 288029.0 0
118008.0 284462.0 0
123317.0 288814.0 0
128470.0 287812.0 0
132826.0 283807.0 0
138679.0 288818.0 0
143095.0 284115.0 0
147660.0 285948.0 0
143779.0 288163.0 0
152554.0 288384.0 0
157500.0 288631.0 0
162796.0 287723.0 0
167951.0 288016.0 0
178497.0 283889.0 0
177372.0 288888.0 0
183793.0 284688.0 0
187154.0 288735.0 0
192283.0 288765.0 0
193961.0 284778.0 0
197918.0 288683.0 0
203641.0 284658.0 0
202854.0 288676.0 0
208036.0 284527.0 0
212103.0 288168.0 0
219027.0 284281.0 0
222521.0 288194.0 0
227591.0 288941.0 0
232745.0 288318.0 0
237364.0 288067.0 0
242646.0 284243.0 0
241554.0 289048.0 0
246276.0 288004.0 0
252435.0 284294.0 0
250621.0 289102.0 0
254786.0 288841.0 0
257586.0 284384.0 0
262378.0 285985.0 0
267579.0 284103.0 0
272431.0 287375.0 0
275941.0 283948.0 0
283014.0 288068.0 0
288009.0 284884.0 0
292507.0 288184.0 0
298593.0 284932.0 0
297101.0 288854.0 0
301787.0 288546.0 0
306757.0 287923.0 0
311568.0 288769.0 0
316321.0 287305.0 0
320607.0 288874.0 0
321709.0 284528.0 0
326309.0 288367.0 0
334885.0 284171.0 0
343635.0 288102.0 0
348420.0 288567.0 0
357196.0 284947.0 0
363643.0 284844.0 0
367834.0 288927.0 0
375184.0 284432.0 0
372509.0 288417.0 0
379930.0 285022.0 0
382459.0 287983.0 0
384076.0 284696.0 0
386903.0 287812.0 0
391366.0 288088.0 0
397868.0 283735.0 0
395983.0 287885.0 0
401129.0 288860.0 0
406283.0 288685.0 0
417016.0 287904.0 0
423413.0 283514.0 0
427979.0 288162.0 0
433652.0 284301.0 0
439898.0 285303.0 0
445198.0 284048.0 0
448370.0 286532.0 0
452900.0 288418.0 0
458272.0 287253.0 0
462916.0 287922.0 0
467887.0 288668.0 0
473195.0 288671.0 0
478100.0 288680.0 0
482500.0 288789.0 0
486289.0 287666.0 0
492561.0 284191.0 0
490696.0 288485.0 0
497824.0 283814.0 0
495663.0 288209.0 0
2810.97 293774.0 0
7473.1 291248.0 0
12150.7 289969.0 0
12147.7 293611.0 0
16783.6 293331.0 0
23183.2 294280.0 0
27208.0 289188.0 0
32508.9 292590.0 0
37173.7 290462.0 0
47964.4 289932.0 0
51627.7 293063.0 0
58940.6 289398.0 0
56134.8 292836.0 0
61370.0 293394.0 0
67198.4 293562.0 0
71874.0 289983.0 0
76629.2 289142.0 0
81127.5 292151.0 0
87076.0 293177.0 0
98684.6 292870.0 0
103836.0 293067.0 0
108700.0 293344.0 0
112473.0 289025.0 0
118139.0 289819.0 0
123766.0 293825.0 0
128601.0 292957.0 0
133217.0 289267.0 0
133224.0 293761.0 0
142960.0 292277.0 0
146895.0 290278.0 0
150583.0 292448.0 0
155547.0 292708.0 0
161093.0 292597.0 0
167122.0 294035.0 0
172377.0 289500.0 0
172893.0 293821.0 0
182499.0 289582.0 0
189079.0 293539.0 0
193991.0 293362.0 0
203569.0 292975.0 0
207271.0 289406.0 0
213070.0 293172.0 0
217274.0 289381.0 0
222500.0 293701.0 0
227500.0 293620.0 0
232497.0 292574.0 0
236492.0 292359.0 0
241010.0 293404.0 0
246219.0 293701.0 0
252666.0 293964.0 0
258971.0 289559.0 0
257727.0 293220.0 0
262491.0 292700.0 0
267326.0 289419.0 0
272391.0 292012.0 0
277098.0 289181.0 0
282590.0 293810.0 0
288005.0 289450.0 0
287581.0 293824.0 0
292885.0 293655.0 0
297535.0 292739.0 0
306546.0 292779.0 0
311548.0 293980.0 0
317349.0 293087.0 0
323046.0 293527.0 0
326873.0 293324.0 0
332795.0 290024.0 0
338492.0 289205.0 0
345088.0 292646.0 0
349884.0 293224.0 0
353364.0 289303.0 0
358807.0 290349.0 0
363397.0 290312.0 0
367103.0 294180.0 0
372462.0 293297.0 0
377523.0 289605.0 0
382709.0 292699.0 0
388800.0 292678.0 0
397037.0 292733.0 0
407335.0 293310.0 0
411499.0 289951.0 0
416986.0 293573.0 0
421949.0 289913.0 0
421750.0 294574.0 0
431990.0 293495.0 0
435605.0 289521.0 0
440097.0 290220.0 0
444565.0 289063.0 0
448614.0 289574.0 0
447816.0 292967.0 0
457566.0 292109.0 0
462854.0 293057.0 0
468047.0 293721.0 0
472922.0 293749.0 0
477949.0 293511.0 0
482576.0 293905.0 0
487561.0 292941.0 0
493152.0 293278.0 0
497808.0 292625.0 0
2452.37 299094.0 0
9371.06 295186.0 0
7160.71 298711.0 0
11969.4 298839.0 0
28086.1 294304.0 0
28548.8 298783.0 0
32450.7 297089.0 0
37867.7 296060.0 0
44093.9 294276.0 0
48844.4 295995.0 0
52569.4 298918.0 0
57815.3 297714.0 0
63746.3 299077.0 0
68897.0 299137.0 0
72914.0 294556.0 0
71696.5 298300.0 0
77780.7 295533.0 0
81180.4 299352.0 0
93174.4 294446.0 0
92058.9 298966.0 0
96768.0 298700.0 0
101934.0 297352.0 0
113833.0 294379.0 0
118876.0 295044.0 0
123371.0 298864.0 0
128493.0 298105.0 0
133376.0 298284.0 0
137688.0 294191.0 0
141592.0 296850.0 0
146641.0 294300.0 0
145593.0 299046.0 0
150866.0 298145.0 0
156913.0 297886.0 0
162776.0 298520.0 0
170663.0 298615.0 0
178069.0 294374.0 0
183335.0 294404.0 0
179299.0 299123.0 0
182818.0 298342.0 0
186856.0 298490.0 0
192230.0 298144.0 0
198806.0 294309.0 0
202597.0 297775.0 0
208180.0 294447.0 0
206791.0 299455.0 0
211043.0 298412.0 0
217776.0 294681.0 0
215648.0 299036.0 0
221053.0 299129.0 0
231757.0 296689.0 0
237827.0 298315.0 0
244077.0 298931.0 0
249101.0 298573.0 0
257383.0 296562.0 0
260310.0 298615.0 0
268657.0 294085.0 0
265429.0 297734.0 0
272294.0 298298.0 0
276538.0 294199.0 0
279354.0 298912.0 0
285241.0 298137.0 0
289866.0 297752.0 0
296959.0 297913.0 0
301697.0 294700.0 0
306542.0 298065.0 0
318463.0 298891.0 0
323626.0 298457.0 0
331310.0 294323.0 0
328337.0 296815.0 0
335397.0 295121.0 0
332570.0 299344.0 0
340552.0 294103.0 0
341521.0 298567.0 0
346309.0 297617.0 0
355502.0 295012.0 0
361558.0 294938.0 0
368948.0 298792.0 0
377491.0 295313.0 0
373321.0 298140.0 0
381344.0 298432.0 0
386940.0 298830.0 0
393142.0 294836.0 0
393330.0 299648.0 0
402155.0 294462.0 0
398568.0 298261.0 0
402986.0 299329.0 0
407863.0 298574.0 0
411891.0 295226.0 0
415508.0 299253.0 0
426310.0 294231.0 0
424560.0 298154.0 0
428892.0 298855.0 0
437818.0 294306.0 0
433978.0 298468.0 0
443173.0 294058.0 0
442587.0 298271.0 0
447482.0 298211.0 0
452568.0 294278.0 0
457924.0 297915.0 0
463195.0 297833.0 0
467969.0 298994.0 0
473389.0 298153.0 0
478062.0 298654.0 0
482732.0 298099.0 0
487413.0 298495.0 0
492429.0 298224.0 0
497568.0 297230.0 0
2468.8 304071.0 0
7681.4 303693.0 0
11990.9 303104.0 0
17363.1 299582.0 0
23116.4 300283.0 0
26902.0 304221.0 0
34036.2 302129.0 0
39362.3 300996.0 0
43300.4 299704.0 0
44476.8 304234.0 0
47725.3 299828.0 0
48515.7 303581.0 0
52777.9 304074.0 0
59042.4 302814.0 0
63851.6 304181.0 0
67577.4 303552.0 0
75397.2 300172.0 0
71645.9 303421.0 0
78357.3 303828.0 0
82355.7 304397.0 0
87134.7 299818.0 0
92359.3 303701.0 0
97356.0 303759.0 0
102488.0 303210.0 0
107499.0 299372.0 0
110940.0 303820.0 0
113380.0 299355.0 0
118407.0 300234.0 0
126511.0 303586.0 0
132362.0 303282.0 0
137705.0 299787.0 0
137056.0 304222.0 0
142121.0 303085.0 0
147516.0 302938.0 0
157134.0 302999.0 0
161775.0 303996.0 0
167033.0 302806.0 0
172329.0 303617.0 0
175068.0 300088.0 0
177946.0 304374.0 0
183348.0 302516.0 0
189811.0 303170.0 0
197583.0 299869.0 0
194823.0 304436.0 0
203058.0 303482.0 0
207506.0 303611.0 0
212369.0 303485.0 0
217567.0 303775.0 0
223258.0 303863.0 0
226976.0 299218.0 0
227545.0 304188.0 0
232592.0 303525.0 0
238747.0 304234.0 0
242826.0 303227.0 0
247143.0 303045.0 0
254394.0 299993.0 0
262492.0 302814.0 0
267969.0 302942.0 0
283626.0 302349.0 0
288688.0 302780.0 0
292931.0 300559.0 0
298592.0 303962.0 0
301858.0 299999.0 0
302613.0 303992.0 0
307500.0 303599.0 0
312430.0 300030.0 0
316510.0 303833.0 0
321417.0 303871.0 0
327746.0 302581.0 0
333460.0 304375.0 0
337536.0 299409.0 0
340859.0 302634.0 0
351629.0 299479.0 0
358942.0 299527.0 0
364353.0 299440.0 0
362810.0 303353.0 0
367728.0 304016.0 0
377282.0 300353.0 0
373320.0 303061.0 0
383244.0 304132.0 0
397841.0 302709.0 0
402335.0 303961.0 0
407885.0 304325.0 0
417902.0 303127.0 0
420892.0 300032.0 0
420959.0 304272.0 0
426144.0 304213.0 0
432092.0 303216.0 0
438550.0 299473.0 0
436746.0 303386.0 0
442428.0 303184.0 0
452705.0 299272.0 0
453250.0 303366.0 0
463523.0 302302.0 0
467967.0 304268.0 0
471864.0 301949.0 0
476386.0 303683.0 0
481057.0 302100.0 0
485581.0 303125.0 0
490750.0 303745.0 0
496184.0 302501.0 0
2971.29 309213.0 0
8236.9 308780.0 0
12748.9 308573.0 0
15702.3 304661.0 0
17419.0 309378.0 0
20902.4 305356.0 0
26170.8 309209.0 0
30807.1 307670.0 0
39783.7 305250.0 0
35724.8 307899.0 0
42961.6 308441.0 0
47504.8 307597.0 0
51533.4 308142.0 0
56712.1 308148.0 0
62439.4 308114.0 0
67233.5 308704.0 0
72583.7 308580.0 0
78141.7 307913.0 0
82747.9 308801.0 0
87012.0 305390.0 0
90517.2 308815.0 0
95579.2 308747.0 0
101471.0 308850.0 0
106970.0 305364.0 0
115722.0 304715.0 0
112143.0 308536.0 0
120974.0 304864.0 0
118134.0 309420.0 0
123082.0 309319.0 0
127484.0 308723.0 0
132069.0 308762.0 0
137097.0 308809.0 0
145889.0 307818.0 0
152271.0 303931.0 0
155800.0 307797.0 0
169104.0 309152.0 0
181400.0 309357.0 0
185971.0 306924.0 0
190785.0 308374.0 0
199185.0 305043.0 0
195529.0 309058.0 0
204705.0 307982.0 0
208694.0 309094.0 0
212360.0 308150.0 0
217240.0 309206.0 0
222404.0 308494.0 0
227381.0 308763.0 0
232608.0 307831.0 0
236743.0 309022.0 0
242126.0 307730.0 0
247410.0 308138.0 0
251866.0 304638.0 0
252039.0 308884.0 0
257503.0 304525.0 0
261884.0 308183.0 0
267447.0 307623.0 0
273219.0 305078.0 0
279512.0 305015.0 0
284832.0 307379.0 0
289941.0 307571.0 0
293520.0 305069.0 0
293592.0 309663.0 0
297299.0 308322.0 0
302163.0 307196.0 0
307578.0 307696.0 0
312857.0 305838.0 0
317015.0 308498.0 0
326517.0 307962.0 0
331497.0 309255.0 0
336362.0 309251.0 0
337854.0 305410.0 0
341556.0 308551.0 0
346478.0 304176.0 0
350815.0 308598.0 0
352475.0 304469.0 0
358090.0 305153.0 0
363428.0 308480.0 0
368513.0 309242.0 0
372675.0 308030.0 0
377850.0 305028.0 0
381530.0 308689.0 0
386034.0 309140.0 0
389005.0 304617.0 0
391746.0 309634.0 0
394006.0 304877.0 0
397950.0 308402.0 0
403527.0 308980.0 0
408224.0 309423.0 0
412601.0 309605.0 0
413673.0 304665.0 0
417325.0 308644.0 0
422199.0 308243.0 0
433132.0 309114.0 0
438790.0 307476.0 0
448474.0 304982.0 0
443860.0 308652.0 0
453101.0 308120.0 0
458275.0 304360.0 0
462568.0 308978.0 0
467620.0 308957.0 0
471986.0 307384.0 0
476259.0 308586.0 0
481321.0 307425.0 0
487053.0 308080.0 0
497379.0 308068.0 0
8061.94 313792.0 0
15081.0 313682.0 0
20068.8 314258.0 0
22001.6 309930.0 0
25540.8 314092.0 0
32602.0 314402.0 0
39338.4 311470.0 0
47264.5 312874.0 0
52711.4 312257.0 0
57849.6 314324.0 0
63784.9 313394.0 0
69553.8 313866.0 0
74634.0 314251.0 0
79041.6 312630.0 0
83051.2 313795.0 0
86700.3 309517.0 0
87639.7 313975.0 0
93236.0 314049.0 0
98935.5 314069.0 0
103966.0 314225.0 0
106958.0 310294.0 0
107248.0 314345.0 0
111615.0 314294.0 0
119974.0 314232.0 0
123809.0 313890.0 0
128288.0 313376.0 0
132832.0 313074.0 0
136863.0 313499.0 0
141534.0 310194.0 0
141046.0 314388.0 0
146405.0 313732.0 0
151009.0 310150.0 0
156540.0 313751.0 0
161659.0 310249.0 0
172448.0 313957.0 0
175773.0 310122.0 0
179076.0 313625.0 0
188977.0 312790.0 0
193333.0 313659.0 0
197337.0 313844.0 0
200162.0 310586.0 0
203080.0 314051.0 0
207445.0 312019.0 0
212428.0 313530.0 0
217541.0 313714.0 0
221699.0 313314.0 0
226485.0 313738.0 0
231682.0 312067.0 0
236657.0 313945.0 0
241364.0 312992.0 0
248741.0 313000.0 0
252959.0 312618.0 0
256670.0 309752.0 0
260453.0 312821.0 0
265741.0 312592.0 0
271297.0 310431.0 0
276688.0 309707.0 0
275845.0 313615.0 0
282000.0 312890.0 0
288365.0 312394.0 0
293554.0 314334.0 0
298716.0 312734.0 0
304617.0 311639.0 0
310800.0 309553.0 0
309401.0 313071.0 0
314209.0 311753.0 0
318202.0 313112.0 0
321817.0 309817.0 0
327519.0 312604.0 0
332500.0 313766.0 0
336766.0 313843.0 0
341759.0 314115.0 0
346854.0 314127.0 0
346920.0 309765.0 0
351667.0 313029.0 0
354912.0 309570.0 0
357450.0 313622.0 0
368549.0 313482.0 0
377191.0 310138.0 0
373491.0 314374.0 0
379253.0 314535.0 0
382699.0 312376.0 0
396135.0 313140.0 0
400940.0 313736.0 0
406092.0 313377.0 0
417087.0 314077.0 0
422223.0 313100.0 0
427023.0 310470.0 0
438096.0 312855.0 0
448514.0 310813.0 0
444008.0 314452.0 0
453291.0 313435.0 0
457347.0 310029.0 0
458228.0 314141.0 0
462159.0 313978.0 0
467191.0 313953.0 0
472228.0 312269.0 0
478267.0 313156.0 0
483732.0 312356.0 0
488007.0 312633.0 0
492132.0 309846.0 0
491760.0 314804.0 0
496529.0 313519.0 0
2739.91 314648.0 0
2139.89 319470.0 0
6758.23 318743.0 0
11820.6 316208.0 0
11090.9 319892.0 0
16434.7 318915.0 0
22238.4 319078.0 0
26897.4 318703.0 0
42490.4 316000.0 0
47254.2 318008.0 0
52231.4 317620.0 0
62764.2 318762.0 0
67672.1 319282.0 0
72747.7 318804.0 0
77909.2 318523.0 0
83392.6 318519.0 0
88693.9 318984.0 0
93401.7 318892.0 0
97340.4 318613.0 0
102430.0 319392.0 0
107441.0 317592.0 0
116209.0 317191.0 0
120514.0 319922.0 0
126126.0 318486.0 0
131934.0 317838.0 0
137543.0 318351.0 0
143393.0 319205.0 0
151824.0 315458.0 0
148493.0 318559.0 0
157654.0 318657.0 0
161117.0 315870.0 0
163120.0 318725.0 0
166221.0 315258.0 0
171111.0 317926.0 0
176177.0 317928.0 0
183869.0 314574.0 0
188826.0 318007.0 0
193914.0 318549.0 0
199139.0 318342.0 0
203511.0 319688.0 0
207373.0 316927.0 0
216269.0 319107.0 0
221754.0 317610.0 0
226349.0 319057.0 0
232276.0 318136.0 0
238238.0 318464.0 0
245242.0 317584.0 0
251869.0 317684.0 0
256536.0 314713.0 0
257386.0 319197.0 0
262218.0 317430.0 0
269878.0 316933.0 0
273160.0 314109.0 0
274157.0 319223.0 0
277878.0 316764.0 0
283034.0 319271.0 0
288536.0 317693.0 0
296930.0 317521.0 0
302680.0 318003.0 0
308451.0 318890.0 0
312609.0 316305.0 0
318113.0 318413.0 0
323008.0 315164.0 0
328595.0 317760.0 0
333798.0 319545.0 0
339254.0 318829.0 0
344543.0 318523.0 0
349550.0 318136.0 0
354055.0 317039.0 0
358539.0 319699.0 0
363257.0 314804.0 0
368096.0 318164.0 0
372346.0 318888.0 0
376975.0 318970.0 0
382483.0 318137.0 0
387094.0 314762.0 0
387497.0 319378.0 0
392386.0 315324.0 0
392253.0 319423.0 0
396370.0 318500.0 0
401425.0 319190.0 0
406859.0 318495.0 0
411359.0 314756.0 0
411344.0 319591.0 0
415629.0 319120.0 0
421257.0 318671.0 0
426405.0 316070.0 0
431459.0 314786.0 0
430776.0 319403.0 0
436019.0 318819.0 0
448994.0 315549.0 0
446818.0 318777.0 0
456212.0 317931.0 0
461504.0 319004.0 0
466908.0 319309.0 0
472858.0 317440.0 0
477989.0 318594.0 0
482346.0 316693.0 0
487588.0 317699.0 0
493282.0 318701.0 0
498155.0 317895.0 0
2810.94 324261.0 0
8285.99 323666.0 0
12745.8 323208.0 0
16624.3 323737.0 0
20678.1 323725.0 0
31391.9 322237.0 0
37891.4 319873.0 0
43937.7 320480.0 0
41747.4 324341.0 0
47398.1 324362.0 0
53040.6 323670.0 0
57472.1 320380.0 0
63594.5 323913.0 0
68308.6 323768.0 0
72489.7 323637.0 0
77229.2 323609.0 0
82072.3 323662.0 0
86341.4 322635.0 0
91326.1 323472.0 0
96813.9 323003.0 0
111920.0 320597.0 0
116631.0 323176.0 0
121164.0 324681.0 0
125950.0 324384.0 0
132173.0 323975.0 0
137897.0 324014.0 0
142958.0 324571.0 0
147719.0 323112.0 0
152824.0 324489.0 0
153206.0 319868.0 0
157739.0 323635.0 0
162947.0 323239.0 0
167774.0 320566.0 0
172659.0 322799.0 0
178403.0 323093.0 0
182233.0 320082.0 0
186683.0 322626.0 0
192369.0 323274.0 0
197133.0 323668.0 0
201644.0 323473.0 0
207284.0 323595.0 0
210922.0 320489.0 0
212749.0 323742.0 0
221839.0 322257.0 0
227576.0 323979.0 0
232324.0 323772.0 0
237223.0 323638.0 0
241809.0 322276.0 0
246244.0 322915.0 0
250864.0 323554.0 0
255489.0 323207.0 0
260918.0 323879.0 0
266289.0 321103.0 0
271323.0 322956.0 0
277721.0 322837.0 0
288082.0 322932.0 0
292823.0 319929.0 0
297947.0 322739.0 0
302931.0 323542.0 0
307609.0 323829.0 0
313707.0 323380.0 0
318617.0 323182.0 0
323825.0 320581.0 0
329083.0 323175.0 0
333249.0 323792.0 0
336789.0 323434.0 0
342506.0 323951.0 0
347834.0 323687.0 0
353031.0 322585.0 0
363783.0 320374.0 0
367614.0 323680.0 0
373358.0 323547.0 0
378116.0 323889.0 0
382403.0 323360.0 0
387500.0 323915.0 0
391101.0 323733.0 0
394441.0 323159.0 0
398215.0 323097.0 0
406109.0 324478.0 0
412570.0 324135.0 0
418181.0 323795.0 0
423292.0 323832.0 0
427784.0 319945.0 0
428130.0 323865.0 0
433019.0 323923.0 0
437895.0 324413.0 0
442242.0 320369.0 0
441998.0 325005.0 0
447258.0 323539.0 0
451387.0 319980.0 0
456189.0 323016.0 0
461079.0 324604.0 0
466198.0 324255.0 0
470716.0 322235.0 0
475896.0 323501.0 0
482408.0 322682.0 0
488625.0 323165.0 0
497023.0 322551.0 0
2494.34 328718.0 0
7275.77 328448.0 0
12028.9 327231.0 0
17783.8 328045.0 0
22250.4 328649.0 0
25601.4 324778.0 0
25795.1 329320.0 0
33627.6 327848.0 0
37303.8 325230.0 0
41447.8 329562.0 0
46408.7 329707.0 0
51564.7 329008.0 0
58764.3 325645.0 0
56765.8 329800.0 0
62354.9 329430.0 0
67675.9 328563.0 0
72641.1 328232.0 0
76761.5 329220.0 0
81441.9 328800.0 0
87150.3 327626.0 0
92440.8 328706.0 0
101433.0 325477.0 0
97383.6 328808.0 0
107507.0 325417.0 0
111705.0 329339.0 0
113247.0 325389.0 0
117444.0 328750.0 0
123239.0 328848.0 0
128775.0 329411.0 0
134049.0 329013.0 0
137950.0 328746.0 0
142169.0 328676.0 0
147406.0 328847.0 0
152981.0 329400.0 0
159135.0 328009.0 0
163055.0 328448.0 0
167743.0 325590.0 0
172540.0 327071.0 0
178149.0 328606.0 0
182774.0 325177.0 0
188417.0 327622.0 0
194069.0 328363.0 0
199199.0 328079.0 0
204279.0 328561.0 0
209601.0 328847.0 0
214067.0 327520.0 0
217549.0 325059.0 0
217509.0 329442.0 0
221996.0 327727.0 0
226051.0 328489.0 0
230414.0 328981.0 0
235810.0 328187.0 0
240355.0 325530.0 0
243779.0 326846.0 0
250572.0 328911.0 0
256655.0 329169.0 0
266461.0 326377.0 0
272422.0 328570.0 0
278201.0 328611.0 0
282908.0 325672.0 0
289432.0 328382.0 0
292997.0 324824.0 0
294345.0 329217.0 0
298823.0 328145.0 0
303051.0 327505.0 0
307178.0 328930.0 0
312355.0 329543.0 0
317192.0 327907.0 0
322044.0 326106.0 0
327070.0 327880.0 0
332233.0 327926.0 0
338133.0 328522.0 0
343392.0 329282.0 0
346307.0 327007.0 0
350784.0 328586.0 0
357605.0 325121.0 0
358377.0 329433.0 0
362325.0 325132.0 0
367620.0 329023.0 0
372873.0 329178.0 0
377666.0 328325.0 0
383186.0 328452.0 0
387814.0 328631.0 0
390837.0 328772.0 0
394992.0 327766.0 0
400939.0 327430.0 0
409958.0 329905.0 0
416611.0 329705.0 0
423061.0 329455.0 0
428601.0 328634.0 0
433315.0 328713.0 0
438462.0 329680.0 0
444069.0 328981.0 0
448696.0 329141.0 0
451810.0 325172.0 0
452143.0 329139.0 0
457202.0 329393.0 0
462751.0 329001.0 0
470586.0 327345.0 0
476240.0 329835.0 0
482697.0 329389.0 0
488421.0 328454.0 0
492811.0 325531.0 0
492911.0 329193.0 0
497160.0 328322.0 0
2637.0 333145.0 0
8120.4 332829.0 0
13012.3 331733.0 0
17306.2 332916.0 0
22350.4 332862.0 0
29803.0 330871.0 0
26320.2 333295.0 0
33976.1 333604.0 0
36996.9 330209.0 0
38674.5 333708.0 0
43412.9 334635.0 0
47553.5 333721.0 0
51850.6 334650.0 0
58683.2 334386.0 0
64255.6 334745.0 0
68798.1 333603.0 0
73632.2 332795.0 0
77186.5 333489.0 0
80542.2 333847.0 0
86171.3 333857.0 0
92873.9 333709.0 0
98370.4 334067.0 0
102467.0 330619.0 0
106803.0 330556.0 0
103033.0 334595.0 0
108703.0 333952.0 0
112792.0 333543.0 0
117528.0 334445.0 0
122466.0 333684.0 0
126584.0 334314.0 0
131982.0 333747.0 0
136954.0 333208.0 0
144142.0 333750.0 0
150492.0 333238.0 0
157122.0 333149.0 0
163026.0 332835.0 0
166916.0 330080.0 0
167881.0 334605.0 0
173244.0 332732.0 0
183536.0 329880.0 0
178985.0 334694.0 0
183282.0 334097.0 0
187059.0 333035.0 0
192185.0 333292.0 0
197106.0 332489.0 0
202088.0 333468.0 0
207564.0 333995.0 0
213821.0 331817.0 0
217075.0 334529.0 0
220739.0 332653.0 0
225859.0 332441.0 0
230246.0 334095.0 0
236285.0 333621.0 0
240221.0 330029.0 0
240729.0 335252.0 0
245483.0 332842.0 0
252981.0 334025.0 0
257829.0 334528.0 0
262491.0 329547.0 0
262268.0 334270.0 0
267386.0 331785.0 0
272676.0 334596.0 0
277918.0 333624.0 0
282958.0 331214.0 0
289357.0 333075.0 0
292943.0 332748.0 0
297365.0 333625.0 0
303231.0 332564.0 0
308841.0 334071.0 0
319480.0 332278.0 0
323736.0 330679.0 0
328485.0 333296.0 0
334392.0 332961.0 0
338109.0 334903.0 0
342786.0 334605.0 0
348247.0 333539.0 0
354747.0 332806.0 0
358946.0 333391.0 0
362924.0 329994.0 0
362397.0 334041.0 0
366809.0 334059.0 0
372078.0 334566.0 0
376916.0 331973.0 0
380693.0 332642.0 0
386744.0 333271.0 0
391433.0 332192.0 0
396502.0 333577.0 0
400465.0 331763.0 0
404461.0 330786.0 0
407767.0 335367.0 0
418152.0 334834.0 0
422142.0 334544.0 0
426544.0 333614.0 0
430991.0 332753.0 0
441988.0 334300.0 0
447489.0 333499.0 0
452742.0 333651.0 0
461578.0 333231.0 0
466672.0 330167.0 0
465837.0 334252.0 0
470757.0 333047.0 0
481049.0 334114.0 0
485342.0 334189.0 0
491339.0 333982.0 0
497472.0 333732.0 0
2046.67 337329.0 0
6929.04 337817.0 0
12809.5 337134.0 0
18810.8 337824.0 0
24585.0 337591.0 0
30323.1 337631.0 0
35529.2 339288.0 0
39907.0 337789.0 0
43335.7 340184.0 0
47306.3 337916.0 0
51722.2 339490.0 0
56669.7 339480.0 0
61911.8 339631.0 0
66556.3 339149.0 0
71589.4 337738.0 0
77094.6 337067.0 0
82217.5 338763.0 0
93053.2 337834.0 0
97500.0 338762.0 0
102285.0 338562.0 0
107136.0 338238.0 0
112220.0 337851.0 0
117499.0 339052.0 0
122404.0 337492.0 0
127545.0 339305.0 0
132426.0 338346.0 0
140365.0 335433.0 0
137914.0 338082.0 0
142387.0 338477.0 0
147721.0 338235.0 0
153070.0 337223.0 0
157228.0 339494.0 0
161204.0 337431.0 0
165466.0 338593.0 0
171577.0 338524.0 0
176523.0 339000.0 0
180594.0 339294.0 0
185265.0 338035.0 0
190567.0 337536.0 0
195699.0 338099.0 0
201619.0 338906.0 0
206843.0 339404.0 0
212692.0 337656.0 0
218455.0 339127.0 0
223158.0 337064.0 0
227673.0 339816.0 0
232700.0 338168.0 0
238137.0 339261.0 0
243736.0 339040.0 0
248639.0 337909.0 0
255424.0 338110.0 0
260147.0 338659.0 0
266851.0 338781.0 0
272781.0 339437.0 0
276568.0 338096.0 0
281614.0 337372.0 0
285805.0 334930.0 0
286849.0 339559.0 0
292447.0 337510.0 0
298345.0 339469.0 0
303211.0 337803.0 0
307452.0 338775.0 0
314521.0 334983.0 0
318751.0 338722.0 0
323386.0 335210.0 0
323350.0 339640.0 0
327699.0 338864.0 0
332214.0 337430.0 0
336969.0 338635.0 0
341374.0 339756.0 0
347355.0 338918.0 0
353303.0 338095.0 0
358468.0 337199.0 0
363831.0 338440.0 0
368563.0 338294.0 0
372410.0 338849.0 0
377279.0 336220.0 0
383119.0 337639.0 0
388397.0 339166.0 0
392557.0 336984.0 0
397034.0 338875.0 0
401912.0 336734.0 0
413234.0 335297.0 0
408526.0 340027.0 0
417500.0 338660.0 0
423334.0 338533.0 0
429527.0 337363.0 0
433069.0 338991.0 0
435803.0 334831.0 0
438915.0 338609.0 0
445414.0 337889.0 0
449855.0 338335.0 0
454195.0 338588.0 0
457433.0 335298.0 0
458172.0 339820.0 0
461962.0 337824.0 0
466494.0 338922.0 0
472263.0 338876.0 0
476947.0 335711.0 0
481654.0 338765.0 0
487421.0 339155.0 0
492905.0 339864.0 0
497650.0 338696.0 0
3486.93 343160.0 0
8816.48 344003.0 0
12745.7 342551.0 0
18094.6 343998.0 0
23752.9 342915.0 0
29047.6 343199.0 0
33732.1 343396.0 0
38502.6 343852.0 0
43646.4 344742.0 0
47782.6 342650.0 0
52175.6 344029.0 0
57092.9 344866.0 0
61905.9 344341.0 0
66464.7 343737.0 0
71672.3 343619.0 0
78214.3 344193.0 0
84089.6 343467.0 0
88505.3 340079.0 0
94184.7 341833.0 0
99265.1 343475.0 0
103910.0 344542.0 0
108443.0 343171.0 0
113736.0 342638.0 0
118270.0 343687.0 0
122460.0 341881.0 0
126792.0 344239.0 0
131485.0 343360.0 0
135423.0 341661.0 0
139978.0 342643.0 0
145207.0 343326.0 0
152097.0 343304.0 0
157754.0 344655.0 0
162293.0 342546.0 0
167920.0 342737.0 0
173847.0 343968.0 0
179120.0 343305.0 0
183911.0 343899.0 0
189150.0 341611.0 0
193868.0 343906.0 0
198661.0 342756.0 0
202779.0 344018.0 0
207491.0 344524.0 0
212858.0 344022.0 0
217757.0 343577.0 0
222332.0 342391.0 0
226650.0 344446.0 0
231555.0 343540.0 0
236508.0 343923.0 0
241189.0 343966.0 0
247545.0 342768.0 0
252015.0 340920.0 0
251468.0 344873.0 0
256916.0 343493.0 0
262275.0 343439.0 0
272840.0 344079.0 0
277908.0 343676.0 0
282691.0 342821.0 0
287448.0 344937.0 0
293419.0 344095.0 0
298822.0 344356.0 0
303313.0 342809.0 0
308200.0 343458.0 0
312197.0 340367.0 0
315587.0 344687.0 0
320459.0 343562.0 0
326034.0 344261.0 0
333062.0 343499.0 0
339003.0 344207.0 0
343327.0 343652.0 0
347246.0 343716.0 0
351683.0 343471.0 0
357543.0 342496.0 0
362988.0 343428.0 0
368195.0 343132.0 0
373482.0 342132.0 0
378454.0 341217.0 0
383097.0 343781.0 0
388249.0 344734.0 0
392252.0 341942.0 0
397075.0 343514.0 0
402889.0 343439.0 0
407564.0 343601.0 0
412835.0 340228.0 0
411388.0 344540.0 0
416261.0 343278.0 0
421470.0 343065.0 0
426970.0 342122.0 0
431576.0 344648.0 0
436177.0 342490.0 0
442642.0 342965.0 0
449498.0 343940.0 0
454824.0 342977.0 0
458917.0 343952.0 0
462516.0 341975.0 0
466484.0 343775.0 0
470837.0 343888.0 0
477150.0 340560.0 0
475455.0 344287.0 0
480264.0 344271.0 0
485915.0 344687.0 0
491593.0 344049.0 0
496677.0 344126.0 0
3127.71 349817.0 0
8291.26 348158.0 0
13600.7 348365.0 0
22968.3 348397.0 0
28361.1 348342.0 0
33742.9 348296.0 0
38756.9 348784.0 0
42500.0 348701.0 0
47500.0 348537.0 0
52500.0 348596.0 0
57817.0 350177.0 0
62754.8 348833.0 0
67009.6 348511.0 0
73072.0 349639.0 0
78449.6 349987.0 0
82601.1 348565.0 0
87667.9 345127.0 0
87096.6 349038.0 0
92066.2 347090.0 0
97516.9 348775.0 0
102107.0 348539.0 0
107205.0 348924.0 0
113454.0 348056.0 0
117707.0 349264.0 0
121452.0 347070.0 0
125896.0 349895.0 0
129926.0 347449.0 0
135603.0 347359.0 0
141792.0 347516.0 0
147725.0 349055.0 0
152932.0 348639.0 0
157036.0 349097.0 0
162603.0 348640.0 0
168881.0 348183.0 0
173929.0 349245.0 0
178864.0 348354.0 0
183575.0 349290.0 0
188751.0 347487.0 0
193879.0 348872.0 0
198425.0 347779.0 0
203291.0 348201.0 0
207062.0 348869.0 0
211045.0 348813.0 0
216432.0 348074.0 0
222637.0 348549.0 0
228614.0 348726.0 0
233084.0 347931.0 0
237755.0 348471.0 0
242902.0 348751.0 0
248191.0 348329.0 0
253880.0 348641.0 0
258709.0 348567.0 0
262639.0 348095.0 0
267193.0 346020.0 0
271858.0 348524.0 0
276102.0 348144.0 0
281957.0 348843.0 0
287312.0 349438.0 0
291590.0 349537.0 0
297396.0 348625.0 0
305059.0 348391.0 0
309392.0 349288.0 0
311388.0 345534.0 0
313307.0 349276.0 0
318391.0 348273.0 0
322500.0 348823.0 0
328630.0 348948.0 0
332947.0 349562.0 0
336852.0 347926.0 0
340922.0 348017.0 0
345944.0 348189.0 0
352083.0 349522.0 0
357210.0 347783.0 0
361934.0 348296.0 0
367454.0 349379.0 0
372158.0 346710.0 0
377841.0 346865.0 0
383649.0 349910.0 0
388778.0 349542.0 0
392831.0 347088.0 0
398398.0 348936.0 0
406124.0 347811.0 0
408617.0 350542.0 0
411430.0 348828.0 0
415451.0 348040.0 0
420572.0 348511.0 0
427078.0 348623.0 0
432833.0 348610.0 0
437964.0 348273.0 0
444247.0 349038.0 0
453906.0 347868.0 0
458749.0 348014.0 0
462572.0 346354.0 0
466656.0 348628.0 0
471847.0 348418.0 0
477329.0 348495.0 0
482788.0 348983.0 0
489990.0 348141.0 0
493169.0 350157.0 0
497262.0 350060.0 0
2168.84 355059.0 0
6273.58 353995.0 0
11596.5 354338.0 0
18306.8 350469.0 0
17665.2 354907.0 0
22498.5 354026.0 0
28409.2 353435.0 0
33557.0 353726.0 0
38569.9 353398.0 0
43552.6 353602.0 0
47950.3 353629.0 0
52500.0 353539.0 0
57399.3 354614.0 0
62274.4 353892.0 0
67480.6 352847.0 0
76885.0 353982.0 0
81498.3 353477.0 0
86092.3 353105.0 0
91563.8 353473.0 0
97939.4 354142.0 0
102781.0 352724.0 0
107067.0 354824.0 0
111293.0 352639.0 0
115666.0 352882.0 0
120952.0 352930.0 0
126022.0 354872.0 0
131378.0 352986.0 0
137741.0 353470.0 0
143202.0 353603.0 0
149472.0 354585.0 0
153428.0 352476.0 0
157620.0 353743.0 0
162042.0 354757.0 0
166305.0 352782.0 0
171152.0 353084.0 0
176554.0 353905.0 0
181241.0 352556.0 0
186413.0 354016.0 0
191654.0 352241.0 0
196664.0 353467.0 0
201441.0 351407.0 0
208330.0 353683.0 0
214068.0 352741.0 0
218652.0 352090.0 0
222247.0 354209.0 0
226877.0 353556.0 0
232552.0 352951.0 0
240611.0 352926.0 0
246214.0 354362.0 0
252314.0 353996.0 0
256921.0 352372.0 0
261628.0 354548.0 0
266578.0 351718.0 0
271760.0 352968.0 0
277553.0 352677.0 0
288844.0 354108.0 0
295061.0 353705.0 0
301119.0 353021.0 0
307286.0 353952.0 0
312780.0 354308.0 0
317806.0 352796.0 0
321891.0 354742.0 0
325997.0 352933.0 0
331349.0 354370.0 0
336424.0 352731.0 0
342267.0 353355.0 0
348048.0 353622.0 0
352523.0 355119.0 0
357659.0 353133.0 0
363296.0 353193.0 0
367886.0 354825.0 0
372420.0 352217.0 0
377809.0 352782.0 0
387562.0 354573.0 0
393071.0 352791.0 0
403685.0 353171.0 0
409228.0 354396.0 0
413698.0 352777.0 0
418078.0 354276.0 0
422297.0 353472.0 0
432473.0 352855.0 0
436590.0 353050.0 0
442666.0 354355.0 0
447270.0 353494.0 0
449169.0 349868.0 0
451829.0 353876.0 0
455917.0 352189.0 0
461887.0 353297.0 0
468620.0 353920.0 0
474615.0 353510.0 0
479649.0 352162.0 0
486993.0 353368.0 0
493438.0 354491.0 0
498364.0 354409.0 0
2128.33 359355.0 0
6396.34 358710.0 0
16445.8 359242.0 0
20882.4 358862.0 0
25744.3 358022.0 0
31997.7 358971.0 0
37719.1 358394.0 0
42832.9 358676.0 0
48296.9 358492.0 0
52981.2 358718.0 0
57594.7 358879.0 0
62495.9 358563.0 0
67267.0 358453.0 0
71713.5 355234.0 0
73440.5 359270.0 0
77223.0 358111.0 0
81091.9 358547.0 0
86736.3 358238.0 0
92840.7 359984.0 0
98408.8 359189.0 0
102948.0 357495.0 0
111560.0 357973.0 0
117159.0 357338.0 0
122036.0 359887.0 0
126585.0 358829.0 0
131020.0 359556.0 0
134679.0 356999.0 0
139460.0 359453.0 0
146261.0 358974.0 0
152941.0 359269.0 0
158833.0 358380.0 0
166029.0 357987.0 0
171496.0 358234.0 0
177179.0 360145.0 0
182919.0 358934.0 0
188121.0 359912.0 0
192467.0 357142.0 0
202373.0 356374.0 0
207032.0 360396.0 0
212622.0 358375.0 0
218141.0 356765.0 0
222936.0 359053.0 0
228568.0 358864.0 0
233492.0 358115.0 0
237034.0 355870.0 0
237309.0 359995.0 0
241416.0 358186.0 0
252234.0 359475.0 0
256799.0 357306.0 0
262700.0 360040.0 0
268347.0 358209.0 0
275134.0 356372.0 0
273761.0 360616.0 0
278144.0 359144.0 0
282576.0 355846.0 0
287247.0 358753.0 0
292243.0 359118.0 0
298713.0 359046.0 0
303709.0 357235.0 0
307437.0 359202.0 0
312099.0 359123.0 0
316745.0 357634.0 0
320934.0 359030.0 0
327037.0 359042.0 0
333460.0 359683.0 0
338137.0 356987.0 0
342408.0 359045.0 0
346999.0 358470.0 0
352162.0 359872.0 0
357150.0 358885.0 0
362027.0 357879.0 0
366237.0 358870.0 0
370669.0 358971.0 0
376252.0 358341.0 0
382084.0 356527.0 0
386452.0 359564.0 0
391729.0 358745.0 0
397927.0 355340.0 0
396519.0 359391.0 0
401552.0 359827.0 0
406913.0 358254.0 0
411719.0 358157.0 0
416912.0 358763.0 0
422552.0 358811.0 0
427490.0 355305.0 0
432295.0 359085.0 0
437758.0 357346.0 0
442412.0 359891.0 0
447835.0 357870.0 0
455979.0 357875.0 0
461491.0 359764.0 0
466079.0 358319.0 0
471811.0 359693.0 0
477448.0 358274.0 0
481727.0 355995.0 0
480873.0 359677.0 0
485801.0 360048.0 0
491189.0 359218.0 0
497070.0 359231.0 0
3927.1 363755.0 0
7907.63 365031.0 0
11105.2 361096.0 0
17485.7 363375.0 0
22638.6 363939.0 0
27913.2 362530.0 0
32729.5 364673.0 0
38210.0 363709.0 0
43362.4 363624.0 0
48081.2 363883.0 0
52500.0 363650.0 0
57080.2 363797.0 0
62093.6 362839.0 0
66772.2 363647.0 0
71843.4 363945.0 0
77227.8 362148.0 0
82500.0 363802.0 0
87461.1 363564.0 0
97500.0 363641.0 0
102500.0 363558.0 0
106749.0 360569.0 0
106573.0 364594.0 0
110870.0 363733.0 0
116948.0 362977.0 0
122225.0 365174.0 0
126582.0 363243.0 0
131374.0 365000.0 0
136551.0 364808.0 0
143570.0 363312.0 0
149074.0 364599.0 0
154401.0 364807.0 0
158595.0 363159.0 0
162393.0 361135.0 0
162340.0 365558.0 0
166392.0 363288.0 0
171980.0 364030.0 0
181028.0 363580.0 0
185264.0 364210.0 0
192222.0 363413.0 0
197238.0 360396.0 0
197034.0 365491.0 0
202261.0 361762.0 0
206921.0 365260.0 0
211404.0 363943.0 0
217340.0 362641.0 0
223193.0 364744.0 0
228637.0 364282.0 0
233846.0 362841.0 0
237225.0 365347.0 0
241403.0 363929.0 0
246677.0 360770.0 0
249141.0 365458.0 0
253585.0 364344.0 0
258115.0 362254.0 0
260910.0 365211.0 0
265174.0 364830.0 0
270241.0 363681.0 0
278024.0 364584.0 0
283843.0 362178.0 0
289162.0 363980.0 0
295195.0 364124.0 0
300420.0 364688.0 0
303644.0 361107.0 0
304722.0 364699.0 0
307903.0 363207.0 0
311631.0 363430.0 0
316446.0 362184.0 0
322845.0 363440.0 0
327277.0 365023.0 0
331926.0 364112.0 0
338569.0 361518.0 0
342489.0 364449.0 0
347120.0 363347.0 0
351831.0 364955.0 0
356028.0 363202.0 0
360660.0 362836.0 0
367020.0 363969.0 0
373463.0 363902.0 0
379806.0 363551.0 0
383118.0 360661.0 0
388724.0 363828.0 0
397138.0 363085.0 0
406612.0 363785.0 0
413377.0 364090.0 0
418633.0 365008.0 0
421774.0 363486.0 0
427336.0 360562.0 0
425713.0 364702.0 0
430247.0 363964.0 0
437053.0 363636.0 0
443068.0 364744.0 0
448307.0 363990.0 0
451828.0 360828.0 0
453209.0 364273.0 0
458119.0 363974.0 0
462753.0 363604.0 0
466823.0 363118.0 0
476667.0 362494.0 0
481164.0 363626.0 0
486977.0 365457.0 0
491364.0 363786.0 0
497303.0 364888.0 0
2627.57 368844.0 0
7011.49 368663.0 0
14115.9 365611.0 0
11283.3 368982.0 0
17064.1 368602.0 0
21462.6 368974.0 0
27804.8 368289.0 0
34146.0 369132.0 0
38370.0 368862.0 0
42605.7 368621.0 0
46659.8 368580.0 0
51325.2 368464.0 0
56161.4 368385.0 0
61664.3 368745.0 0
67769.0 368465.0 0
73225.8 368923.0 0
78762.5 367764.0 0
83215.1 368039.0 0
91881.9 365803.0 0
87306.3 368419.0 0
91396.6 370367.0 0
97500.0 368591.0 0
102453.0 368462.0 0
107500.0 368572.0 0
112741.0 368374.0 0
117938.0 368916.0 0
123091.0 369714.0 0
127012.0 367891.0 0
136185.0 369341.0 0
141324.0 367975.0 0
147020.0 370142.0 0
152461.0 369339.0 0
158407.0 369221.0 0
163585.0 369417.0 0
167721.0 368142.0 0
173101.0 370446.0 0
177318.0 366037.0 0
178215.0 370286.0 0
181076.0 368182.0 0
185786.0 369933.0 0
192297.0 369356.0 0
197683.0 370045.0 0
201920.0 366889.0 0
206431.0 369307.0 0
211000.0 369037.0 0
216523.0 368727.0 0
221787.0 370042.0 0
227191.0 369734.0 0
232080.0 367614.0 0
236241.0 368573.0 0
240747.0 369564.0 0
245195.0 367450.0 0
252289.0 369163.0 0
257596.0 367821.0 0
262520.0 368797.0 0
269445.0 368733.0 0
274601.0 369140.0 0
279016.0 370099.0 0
282781.0 366848.0 0
282858.0 370330.0 0
286603.0 368261.0 0
292011.0 369150.0 0
298245.0 369830.0 0
303263.0 368378.0 0
311618.0 368593.0 0
317798.0 367972.0 0
323403.0 368286.0 0
331055.0 368628.0 0
337166.0 367302.0 0
343296.0 370025.0 0
347996.0 367660.0 0
351856.0 369984.0 0
357632.0 367741.0 0
362673.0 367284.0 0
366388.0 369218.0 0
371191.0 369418.0 0
376872.0 368881.0 0
381680.0 369092.0 0
384576.0 366133.0 0
388406.0 369188.0 0
392735.0 369875.0 0
393429.0 365555.0 0
396772.0 369101.0 0
401000.0 365963.0 0
408528.0 369596.0 0
413147.0 370621.0 0
417145.0 368994.0 0
422274.0 368220.0 0
427768.0 369484.0 0
432629.0 367775.0 0
437006.0 369758.0 0
442313.0 369850.0 0
447247.0 370358.0 0
451396.0 368327.0 0
456755.0 369962.0 0
462256.0 367903.0 0
467377.0 369719.0 0
471235.0 365902.0 0
476493.0 367332.0 0
481836.0 368920.0 0
486871.0 370137.0 0
493501.0 367560.0 0
497979.0 369585.0 0
3481.75 374939.0 0
8884.74 373042.0 0
13565.3 373457.0 0
18624.3 373666.0 0
22971.4 372681.0 0
27301.4 374433.0 0
32677.1 373502.0 0
37679.8 373531.0 0
42476.9 373727.0 0
47785.9 373516.0 0
52868.7 373155.0 0
57344.1 372720.0 0
61076.6 375362.0 0
65077.1 373115.0 0
70173.1 373607.0 0
76553.4 374043.0 0
83064.9 372317.0 0
88559.9 373781.0 0
94895.7 371773.0 0
98883.1 373726.0 0
103357.0 372570.0 0
106659.0 374566.0 0
111483.0 373546.0 0
117735.0 375286.0 0
122346.0 373467.0 0
126441.0 373551.0 0
131280.0 370808.0 0
137146.0 373946.0 0
142748.0 374037.0 0
147051.0 374287.0 0
153305.0 374498.0 0
157928.0 374553.0 0
162467.0 373671.0 0
167717.0 373403.0 0
177183.0 374381.0 0
181160.0 372563.0 0
189460.0 374568.0 0
195473.0 374381.0 0
201347.0 373990.0 0
207562.0 374169.0 0
213071.0 373651.0 0
218658.0 374747.0 0
223830.0 374040.0 0
232166.0 372851.0 0
237001.0 372398.0 0
241050.0 375222.0 0
246390.0 372522.0 0
251263.0 373611.0 0
256843.0 374236.0 0
263020.0 373039.0 0
268115.0 373816.0 0
273763.0 374606.0 0
279320.0 374523.0 0
283043.0 375505.0 0
287470.0 373676.0 0
293326.0 374494.0 0
297375.0 374559.0 0
302461.0 373084.0 0
306744.0 371097.0 0
307881.0 375037.0 0
312788.0 373337.0 0
317579.0 374090.0 0
322518.0 374116.0 0
326954.0 372530.0 0
329790.0 375626.0 0
332601.0 373506.0 0
337916.0 373741.0 0
342629.0 375095.0 0
346410.0 374196.0 0
350998.0 375025.0 0
355873.0 372783.0 0
362222.0 373326.0 0
368617.0 374135.0 0
373739.0 374153.0 0
379176.0 374131.0 0
383964.0 372356.0 0
388203.0 373890.0 0
392340.0 373677.0 0
398325.0 373354.0 0
402076.0 375561.0 0
403169.0 370919.0 0
406510.0 374566.0 0
411367.0 374549.0 0
416963.0 374677.0 0
422736.0 373644.0 0
428064.0 375183.0 0
433494.0 373838.0 0
438811.0 374845.0 0
443889.0 374877.0 0
448756.0 374663.0 0
453630.0 374701.0 0
458758.0 374720.0 0
463491.0 373808.0 0
468951.0 373981.0 0
472447.0 370983.0 0
472373.0 375339.0 0
477608.0 373174.0 0
483262.0 374037.0 0
487747.0 375908.0 0
491893.0 372387.0 0
497381.0 374281.0 0
1389.08 379395.0 0
6343.31 379892.0 0
11300.4 378418.0 0
17311.4 378893.0 0
22313.4 378354.0 0
27815.8 380439.0 0
33687.7 378883.0 0
38763.2 378713.0 0
43211.2 378617.0 0
47729.6 378729.0 0
52593.8 377939.0 0
57500.0 378739.0 0
63131.8 379268.0 0
67694.9 378414.0 0
72418.3 378129.0 0
76206.4 380164.0 0
81722.9 378908.0 0
88578.8 378458.0 0
93825.6 376817.0 0
98431.3 377593.0 0
102254.0 378246.0 0
106841.0 378421.0 0
112923.0 379429.0 0
122672.0 378566.0 0
127430.0 378211.0 0
132500.0 376549.0 0
131253.0 379428.0 0
135246.0 378506.0 0
140665.0 379829.0 0
149120.0 378038.0 0
154337.0 378574.0 0
158659.0 379021.0 0
163097.0 378588.0 0
167496.0 378534.0 0
172662.0 376366.0 0
171336.0 380762.0 0
177082.0 379080.0 0
181217.0 379481.0 0
184261.0 376172.0 0
192541.0 378863.0 0
197496.0 378953.0 0
202917.0 380368.0 0
208830.0 379640.0 0
214077.0 378750.0 0
218722.0 380079.0 0
223679.0 379312.0 0
227833.0 376001.0 0
228191.0 380169.0 0
232233.0 378145.0 0
236667.0 377620.0 0
241828.0 379225.0 0
245909.0 378339.0 0
251726.0 378494.0 0
256823.0 379890.0 0
260829.0 378476.0 0
265918.0 378600.0 0
272313.0 379350.0 0
276784.0 378938.0 0
280987.0 378632.0 0
285775.0 379331.0 0
291431.0 378745.0 0
296749.0 379216.0 0
302360.0 378062.0 0
307232.0 379145.0 0
311510.0 377260.0 0
315908.0 379432.0 0
321769.0 378637.0 0
326850.0 377820.0 0
331734.0 378270.0 0
336754.0 379650.0 0
342256.0 379277.0 0
346524.0 378332.0 0
350521.0 379871.0 0
357484.0 377076.0 0
361487.0 379831.0 0
366506.0 378731.0 0
371884.0 379315.0 0
377848.0 379979.0 0
384344.0 378056.0 0
390336.0 378236.0 0
395533.0 377527.0 0
400327.0 379343.0 0
404250.0 379477.0 0
408659.0 378985.0 0
413663.0 379241.0 0
418274.0 379675.0 0
422961.0 378726.0 0
427804.0 380025.0 0
431736.0 378441.0 0
436253.0 379259.0 0
441340.0 379414.0 0
446598.0 378850.0 0
451435.0 379157.0 0
457240.0 379269.0 0
462451.0 379350.0 0
467469.0 378298.0 0
472373.0 379475.0 0
477322.0 378986.0 0
484096.0 378871.0 0
488296.0 380073.0 0
493400.0 378201.0 0
498228.0 378679.0 0
2752.48 383258.0 0
8504.53 384374.0 0
14078.5 383542.0 0
19097.9 383770.0 0
23189.5 382960.0 0
27647.6 385725.0 0
32382.3 383620.0 0
37500.0 383786.0 0
41140.4 383400.0 0
45427.7 383951.0 0
50613.9 383204.0 0
56121.5 384133.0 0
60876.0 383018.0 0
65969.2 383509.0 0
72051.7 383593.0 0
78715.1 384034.0 0
82724.7 384631.0 0
86384.7 382310.0 0
91537.7 382591.0 0
97764.1 382151.0 0
103699.0 384332.0 0
108594.0 382334.0 0
114597.0 384656.0 0
118076.0 381120.0 0
118178.0 384624.0 0
122007.0 382942.0 0
126799.0 383324.0 0
131969.0 384021.0 0
136390.0 383182.0 0
140711.0 385937.0 0
146008.0 383183.0 0
152518.0 382316.0 0
157233.0 383506.0 0
161568.0 383705.0 0
167146.0 384510.0 0
173269.0 384748.0 0
178044.0 383899.0 0
182404.0 383816.0 0
187165.0 381569.0 0
192975.0 383929.0 0
198373.0 383132.0 0
206850.0 384830.0 0
210984.0 383455.0 0
215662.0 384278.0 0
221109.0 384094.0 0
226583.0 385084.0 0
231182.0 382546.0 0
236694.0 383094.0 0
242729.0 382876.0 0
248313.0 383601.0 0
253937.0 383652.0 0
262593.0 383534.0 0
269394.0 384237.0 0
275574.0 383373.0 0
279813.0 382427.0 0
283849.0 384448.0 0
289351.0 383509.0 0
294137.0 383370.0 0
298539.0 384457.0 0
302603.0 382671.0 0
306289.0 383823.0 0
311289.0 383006.0 0
318065.0 383452.0 0
322835.0 383975.0 0
327787.0 382549.0 0
332430.0 382114.0 0
336419.0 385673.0 0
341183.0 382900.0 0
345472.0 383192.0 0
349236.0 383870.0 0
355797.0 382684.0 0
364734.0 383670.0 0
369406.0 383958.0 0
373849.0 383432.0 0
381831.0 382954.0 0
387201.0 383661.0 0
392219.0 383092.0 0
397316.0 382391.0 0
401493.0 383905.0 0
406290.0 383637.0 0
411431.0 383629.0 0
416496.0 384026.0 0
421114.0 382684.0 0
425686.0 384131.0 0
431546.0 383599.0 0
437215.0 384122.0 0
442779.0 384904.0 0
448543.0 383668.0 0
453942.0 383430.0 0
459547.0 383898.0 0
463555.0 383448.0 0
468545.0 383272.0 0
473002.0 383853.0 0
478921.0 383511.0 0
483192.0 383276.0 0
487443.0 384017.0 0
491632.0 382927.0 0
496464.0 382698.0 0
2365.68 388329.0 0
6786.44 388908.0 0
12189.7 389365.0 0
17348.0 388325.0 0
22204.0 387736.0 0
27053.5 390001.0 0
31595.3 388257.0 0
36581.3 388961.0 0
42062.8 388538.0 0
47543.0 388404.0 0
52676.9 388746.0 0
57695.6 388802.0 0
62472.5 387662.0 0
66674.3 387932.0 0
70565.8 390441.0 0
75637.8 388153.0 0
80673.6 389570.0 0
86906.6 388186.0 0
94609.9 387582.0 0
99770.1 388435.0 0
104551.0 388727.0 0
108447.0 386986.0 0
113446.0 389562.0 0
117940.0 388051.0 0
122680.0 387396.0 0
127521.0 388535.0 0
131748.0 388318.0 0
136006.0 388336.0 0
143031.0 390802.0 0
148698.0 388386.0 0
154035.0 387228.0 0
158478.0 388821.0 0
162500.0 388960.0 0
166466.0 390612.0 0
171209.0 388693.0 0
176288.0 388616.0 0
181087.0 388244.0 0
185216.0 386583.0 0
184745.0 390386.0 0
190172.0 389271.0 0
196797.0 388000.0 0
202018.0 386118.0 0
201289.0 391154.0 0
206181.0 390058.0 0
211265.0 388066.0 0
217260.0 389847.0 0
222431.0 388976.0 0
227520.0 389752.0 0
232110.0 387579.0 0
236857.0 388409.0 0
241613.0 388324.0 0
247319.0 389403.0 0
252866.0 388859.0 0
258031.0 386874.0 0
262237.0 389126.0 0
266867.0 389976.0 0
273453.0 389665.0 0
278803.0 387034.0 0
282220.0 388872.0 0
286725.0 389425.0 0
292651.0 388293.0 0
298369.0 390038.0 0
303086.0 387078.0 0
307964.0 387765.0 0
313134.0 388985.0 0
318731.0 388212.0 0
322240.0 391144.0 0
326157.0 388468.0 0
331021.0 386268.0 0
337151.0 390457.0 0
342574.0 387735.0 0
347534.0 389754.0 0
351973.0 387966.0 0
358905.0 388077.0 0
363842.0 388420.0 0
368224.0 388261.0 0
372827.0 387665.0 0
377380.0 390601.0 0
378186.0 386043.0 0
383094.0 386628.0 0
386753.0 388505.0 0
391026.0 387992.0 0
397301.0 387801.0 0
403332.0 388751.0 0
408339.0 387975.0 0
412684.0 388719.0 0
416858.0 388564.0 0
421551.0 387672.0 0
428556.0 388717.0 0
434411.0 388416.0 0
439520.0 389663.0 0
444176.0 389574.0 0
447551.0 388694.0 0
451786.0 388029.0 0
456663.0 387383.0 0
461670.0 388854.0 0
466774.0 387610.0 0
471067.0 388251.0 0
476283.0 388135.0 0
483864.0 388387.0 0
489028.0 387922.0 0
493260.0 387056.0 0
497763.0 387354.0 0
2459.89 393169.0 0
7857.4 393795.0 0
13640.8 394528.0 0
17105.3 392322.0 0
23368.2 392970.0 0
28572.2 394418.0 0
33456.4 393195.0 0
38467.1 393442.0 0
42804.5 393738.0 0
47141.4 393518.0 0
52183.7 394196.0 0
57038.8 393280.0 0
62634.7 392246.0 0
66502.0 393590.0 0
73773.1 393992.0 0
77500.0 393780.0 0
82956.5 393980.0 0
87333.4 394080.0 0
91578.9 392144.0 0
96997.0 393041.0 0
102666.0 392482.0 0
108557.0 392565.0 0
113474.0 395321.0 0
117314.0 392512.0 0
122679.0 393091.0 0
128284.0 393380.0 0
133604.0 392968.0 0
138700.0 392813.0 0
142406.0 395821.0 0
147180.0 393409.0 0
152866.0 393038.0 0
158640.0 393533.0 0
163401.0 394471.0 0
167052.0 394456.0 0
170902.0 393437.0 0
176136.0 393596.0 0
181534.0 393802.0 0
186706.0 394047.0 0
191559.0 395477.0 0
196698.0 393834.0 0
201055.0 395495.0 0
205353.0 394967.0 0
210440.0 393722.0 0
215449.0 394524.0 0
220017.0 394246.0 0
225102.0 393460.0 0
230979.0 393586.0 0
237136.0 393245.0 0
242313.0 395525.0 0
248065.0 395294.0 0
253717.0 394139.0 0
258436.0 391922.0 0
259113.0 396241.0 0
263297.0 394048.0 0
268847.0 394960.0 0
273966.0 395007.0 0
279180.0 392748.0 0
284826.0 394786.0 0
289178.0 393613.0 0
293240.0 393508.0 0
297168.0 394836.0 0
303369.0 393514.0 0
308944.0 392586.0 0
313624.0 394371.0 0
318356.0 393267.0 0
321912.0 394333.0 0
326175.0 394268.0 0
331295.0 391589.0 0
335383.0 393368.0 0
339623.0 394376.0 0
344906.0 393423.0 0
350525.0 393598.0 0
356594.0 393145.0 0
361517.0 392201.0 0
366638.0 393572.0 0
372929.0 393369.0 0
377857.0 394808.0 0
382580.0 391946.0 0
388365.0 393159.0 0
393536.0 392212.0 0
398870.0 393595.0 0
404177.0 394228.0 0
409066.0 392685.0 0
414052.0 393737.0 0
418962.0 392548.0 0
423589.0 392222.0 0
427674.0 393886.0 0
432815.0 393498.0 0
436171.0 392178.0 0
443228.0 393635.0 0
447093.0 392385.0 0
451866.0 393649.0 0
457359.0 392267.0 0
462233.0 395045.0 0
467475.0 392679.0 0
471894.0 391881.0 0
475736.0 393956.0 0
480487.0 392591.0 0
485594.0 394138.0 0
491868.0 391927.0 0
497350.0 392196.0 0
2911.07 398600.0 0
8434.12 399335.0 0
13831.4 399731.0 0
19392.7 397159.0 0
25071.2 397353.0 0
29287.0 399113.0 0
34672.5 398320.0 0
39680.6 398076.0 0
43395.0 398921.0 0
46939.4 398527.0 0
51524.8 399389.0 0
56039.8 398678.0 0
60817.6 396897.0 0
66373.1 398446.0 0
72547.4 399052.0 0
77999.6 398555.0 0
81577.7 397634.0 0
85900.5 398855.0 0
91440.1 397480.0 0
97561.7 398566.0 0
103076.0 398121.0 0
109109.0 398874.0 0
114157.0 399405.0 0
117153.0 397966.0 0
121440.0 398319.0 0
126687.0 398626.0 0
132524.0 399653.0 0
136772.0 396783.0 0
139879.0 400430.0 0
147082.0 398881.0 0
153792.0 399521.0 0
159387.0 398517.0 0
164098.0 398959.0 0
168351.0 397698.0 0
173140.0 398230.0 0
178050.0 398540.0 0
182179.0 398443.0 0
187153.0 399198.0 0
192747.0 400619.0 0
197453.0 398924.0 0
203346.0 399238.0 0
207648.0 398648.0 0
213015.0 398421.0 0
217651.0 398275.0 0
222103.0 398672.0 0
227295.0 398675.0 0
233063.0 399086.0 0
238144.0 398464.0 0
241579.0 400349.0 0
245145.0 399517.0 0
251385.0 399886.0 0
255858.0 398458.0 0
261984.0 398471.0 0
267289.0 400098.0 0
271792.0 398878.0 0
277337.0 398667.0 0
282443.0 398799.0 0
288855.0 397864.0 0
294019.0 398430.0 0
298953.0 398499.0 0
303854.0 399428.0 0
307637.0 396758.0 0
311491.0 399311.0 0
317122.0 398372.0 0
322273.0 397952.0 0
326823.0 399769.0 0
332795.0 397916.0 0
338194.0 398831.0 0
342551.0 399325.0 0
347344.0 397939.0 0
352007.0 398399.0 0
356923.0 399118.0 0
362045.0 397310.0 0
366595.0 398974.0 0
371179.0 398655.0 0
376639.0 399403.0 0
381683.0 397930.0 0
386788.0 397909.0 0
392077.0 397557.0 0
398007.0 399567.0 0
402139.0 397604.0 0
406016.0 399297.0 0
410945.0 397578.0 0
415887.0 398524.0 0
421560.0 397675.0 0
427360.0 399125.0 0
433117.0 400155.0 0
438216.0 396350.0 0
443367.0 399922.0 0
447258.0 396380.0 0
451257.0 399185.0 0
456923.0 398298.0 0
461513.0 400582.0 0
466273.0 399487.0 0
471155.0 396667.0 0
476278.0 399969.0 0
481261.0 397177.0 0
485143.0 400326.0 0
490494.0 397809.0 0
496857.0 397992.0 0
2507.74 403935.0 0
7276.78 403547.0 0
11565.1 404399.0 0
18293.3 403244.0 0
23166.3 401430.0 0
28317.0 403733.0 0
32292.4 402136.0 0
37939.5 402003.0 0
42519.8 403184.0 0
47002.1 403787.0 0
50830.8 404290.0 0
55967.4 403505.0 0
62302.0 403326.0 0
68164.3 403127.0 0
72038.1 404270.0 0
76284.3 403911.0 0
81294.1 402152.0 0
86328.3 404325.0 0
93881.2 402577.0 0
99378.3 403644.0 0
104455.0 403134.0 0
109141.0 404658.0 0
113751.0 403298.0 0
118295.0 401965.0 0
123225.0 402731.0 0
127951.0 403987.0 0
132019.0 404408.0 0
136027.0 403608.0 0
143868.0 402871.0 0
147973.0 404139.0 0
152674.0 405203.0 0
157850.0 404007.0 0
162714.0 403103.0 0
168113.0 403079.0 0
173265.0 402749.0 0
177724.0 403567.0 0
182967.0 402878.0 0
188275.0 404759.0 0
192775.0 405127.0 0
196077.0 403643.0 0
200690.0 403606.0 0
206126.0 403547.0 0
212134.0 404095.0 0
217636.0 402828.0 0
222031.0 404401.0 0
226582.0 403827.0 0
231347.0 404012.0 0
236690.0 403500.0 0
241688.0 404062.0 0
247460.0 404738.0 0
253523.0 404481.0 0
257962.0 402452.0 0
262888.0 402657.0 0
267348.0 405402.0 0
272479.0 403441.0 0
280083.0 403292.0 0
284295.0 403356.0 0
288211.0 402737.0 0
292738.0 403111.0 0
297249.0 402814.0 0
301778.0 403989.0 0
307500.0 403589.0 0
313495.0 404155.0 0
318420.0 403555.0 0
322759.0 402239.0 0
326557.0 405147.0 0
331918.0 404205.0 0
336388.0 402911.0 0
340482.0 403668.0 0
346700.0 403871.0 0
352887.0 402992.0 0
357756.0 404292.0 0
363208.0 403023.0 0
369156.0 403611.0 0
373521.0 402369.0 0
376724.0 404076.0 0
382035.0 404090.0 0
388454.0 402636.0 0
393396.0 402561.0 0
397774.0 404838.0 0
403113.0 404655.0 0
408743.0 403951.0 0
412810.0 402068.0 0
417149.0 403394.0 0
422405.0 403881.0 0
427748.0 404475.0 0
432403.0 406057.0 0
437497.0 404237.0 0
442899.0 405524.0 0
448033.0 403499.0 0
453445.0 403472.0 0
458303.0 404182.0 0
463558.0 404562.0 0
468155.0 404152.0 0
472562.0 404313.0 0
477102.0 405755.0 0
481011.0 403142.0 0
484933.0 405285.0 0
489409.0 403506.0 0
497165.0 404097.0 0
2336.3 408748.0 0
7447.84 407810.0 0
12249.5 409116.0 0
17400.0 408721.0 0
23555.8 407266.0 0
28916.2 408625.0 0
32379.8 406271.0 0
34792.1 410608.0 0
36922.6 406071.0 0
41906.5 408483.0 0
47844.8 408520.0 0
52597.8 408432.0 0
57397.5 408855.0 0
62902.9 409646.0 0
67852.4 407883.0 0
72869.0 408541.0 0
77696.4 408672.0 0
81917.3 407186.0 0
85943.5 409483.0 0
91009.7 407586.0 0
96934.1 408875.0 0
102009.0 407900.0 0
106542.0 408919.0 0
111650.0 409321.0 0
117002.0 407402.0 0
124327.0 408615.0 0
129736.0 409229.0 0
132991.0 407757.0 0
137473.0 408535.0 0
142879.0 407441.0 0
148553.0 409553.0 0
153720.0 409143.0 0
157460.0 409350.0 0
161788.0 407679.0 0
166508.0 409470.0 0
172552.0 408219.0 0
178855.0 408794.0 0
184030.0 407969.0 0
188188.0 409461.0 0
192300.0 409044.0 0
197103.0 408467.0 0
202776.0 408688.0 0
208179.0 408301.0 0
213133.0 410107.0 0
218318.0 408132.0 0
222647.0 408605.0 0
226820.0 408764.0 0
232157.0 409204.0 0
237525.0 408899.0 0
242672.0 408648.0 0
247355.0 411047.0 0
252400.0 409404.0 0
257763.0 407878.0 0
262828.0 407323.0 0
266131.0 411086.0 0
271858.0 409149.0 0
276235.0 406244.0 0
280131.0 408772.0 0
285695.0 407802.0 0
292201.0 408585.0 0
298589.0 408139.0 0
304058.0 408010.0 0
308848.0 409393.0 0
313012.0 408292.0 0
317941.0 409327.0 0
322033.0 406138.0 0
324667.0 409906.0 0
329980.0 409395.0 0
335915.0 408613.0 0
342197.0 408729.0 0
347388.0 409631.0 0
351935.0 408193.0 0
357138.0 409381.0 0
363266.0 409858.0 0
369133.0 408957.0 0
373351.0 406494.0 0
377788.0 408235.0 0
382139.0 410648.0 0
387153.0 408232.0 0
393485.0 408153.0 0
399482.0 409816.0 0
404428.0 409839.0 0
408790.0 408870.0 0
413403.0 406781.0 0
418391.0 408249.0 0
423476.0 409405.0 0
428720.0 409469.0 0
433499.0 410741.0 0
437981.0 409547.0 0
442184.0 410040.0 0
446701.0 408481.0 0
451342.0 407715.0 0
455920.0 408942.0 0
460805.0 409003.0 0
465355.0 408758.0 0
470021.0 408682.0 0
475288.0 410846.0 0
481520.0 409720.0 0
487521.0 409393.0 0
492800.0 407786.0 0
497688.0 409631.0 0
2051.64 413243.0 0
6120.57 412262.0 0
10363.7 413429.0 0
15175.7 413472.0 0
20940.2 413196.0 0
26641.6 412803.0 0
31625.6 414982.0 0
38343.4 414169.0 0
42664.6 413690.0 0
47245.2 413895.0 0
52411.0 413151.0 0
56283.5 414048.0 0
60097.3 414090.0 0
65189.2 414520.0 0
69914.6 412691.0 0
75472.8 413637.0 0
81687.6 412930.0 0
87311.7 414652.0 0
92932.6 413312.0 0
98213.0 413954.0 0
103064.0 412772.0 0
108444.0 413504.0 0
114006.0 414381.0 0
119422.0 412596.0 0
124495.0 415106.0 0
129419.0 413373.0 0
133866.0 413272.0 0
137760.0 413158.0 0
142015.0 412511.0 0
147408.0 415279.0 0
153038.0 413153.0 0
157610.0 413613.0 0
162406.0 412862.0 0
168282.0 413556.0 0
173882.0 413450.0 0
177813.0 413532.0 0
182718.0 413134.0 0
187352.0 413019.0 0
192551.0 413506.0 0
197360.0 412710.0 0
202996.0 414284.0 0
207860.0 412965.0 0
211819.0 414842.0 0
216649.0 414454.0 0
221510.0 412568.0 0
226204.0 413645.0 0
231056.0 414431.0 0
237019.0 414808.0 0
242712.0 413664.0 0
247230.0 415400.0 0
251259.0 414084.0 0
255977.0 413149.0 0
262265.0 413650.0 0
265808.0 415927.0 0
270312.0 414763.0 0
276706.0 413925.0 0
282395.0 412818.0 0
287584.0 413547.0 0
293117.0 414646.0 0
297941.0 415586.0 0
301989.0 412745.0 0
307512.0 414828.0 0
312972.0 412884.0 0
318862.0 416030.0 0
324337.0 414445.0 0
328062.0 413356.0 0
331018.0 413229.0 0
334400.0 413805.0 0
339322.0 413577.0 0
345010.0 414422.0 0
352204.0 414415.0 0
358827.0 414906.0 0
364612.0 416268.0 0
368982.0 413771.0 0
373832.0 412001.0 0
378877.0 414761.0 0
384222.0 414673.0 0
389272.0 414106.0 0
395359.0 414116.0 0
399690.0 416037.0 0
402774.0 413665.0 0
407894.0 414325.0 0
413769.0 412528.0 0
419786.0 413172.0 0
424583.0 414254.0 0
429338.0 414464.0 0
433641.0 414666.0 0
437086.0 414237.0 0
440490.0 414165.0 0
445575.0 413253.0 0
452388.0 413537.0 0
458006.0 412968.0 0
462056.0 414151.0 0
466381.0 413076.0 0
470772.0 413327.0 0
474172.0 416295.0 0
479426.0 414953.0 0
485634.0 414807.0 0
491477.0 413337.0 0
497017.0 414674.0 0
1777.29 417137.0 0
6730.38 417515.0 0
12487.6 417889.0 0
17958.8 418089.0 0
23268.9 419213.0 0
27847.6 418203.0 0
33816.4 420468.0 0
37983.6 418864.0 0
42597.0 417984.0 0
47500.0 419177.0 0
50222.1 417017.0 0
52438.8 421007.0 0
57345.0 418528.0 0
62600.1 418974.0 0
67420.0 418874.0 0
72594.0 418984.0 0
78143.2 418784.0 0
83502.6 418450.0 0
88148.4 420019.0 0
93269.7 419220.0 0
98440.4 418425.0 0
104021.0 417898.0 0
110159.0 418324.0 0
114614.0 419356.0 0
119103.0 417993.0 0
123112.0 419312.0 0
127597.0 418286.0 0
131953.0 417849.0 0
137118.0 417281.0 0
142413.0 417966.0 0
147224.0 420283.0 0
152672.0 418990.0 0
158058.0 418533.0 0
162508.0 418054.0 0
167746.0 418259.0 0
172932.0 417574.0 0
178340.0 418800.0 0
184132.0 418456.0 0
188307.0 416588.0 0
192567.0 418771.0 0
198160.0 417316.0 0
202985.0 420437.0 0
207340.0 417581.0 0
211957.0 419575.0 0
217236.0 419818.0 0
222189.0 417766.0 0
227626.0 418631.0 0
233050.0 419304.0 0
238406.0 420943.0 0
244153.0 419055.0 0
249669.0 418443.0 0
253696.0 420383.0 0
258795.0 418257.0 0
263966.0 419488.0 0
268243.0 419296.0 0
273134.0 419090.0 0
278391.0 420203.0 0
283514.0 417675.0 0
288932.0 419018.0 0
294082.0 419784.0 0
298381.0 420450.0 0
302738.0 418376.0 0
307486.0 419883.0 0
312705.0 418976.0 0
317058.0 420440.0 0
320259.0 421421.0 0
324364.0 419239.0 0
330495.0 418116.0 0
336670.0 417889.0 0
342100.0 420331.0 0
348211.0 419156.0 0
352483.0 420869.0 0
356400.0 419457.0 0
360868.0 419915.0 0
367483.0 420742.0 0
371983.0 417965.0 0
377207.0 419836.0 0
382342.0 418886.0 0
388104.0 420507.0 0
394890.0 420455.0 0
399827.0 421465.0 0
403682.0 418762.0 0
408435.0 420496.0 0
412161.0 417892.0 0
416779.0 416888.0 0
421475.0 418069.0 0
426778.0 419059.0 0
432285.0 418742.0 0
437571.0 418290.0 0
442158.0 418299.0 0
447200.0 418703.0 0
452686.0 419432.0 0
458383.0 418433.0 0
463649.0 418671.0 0
468246.0 417824.0 0
472117.0 420254.0 0
477811.0 418911.0 0
481968.0 418647.0 0
486087.0 420428.0 0
491508.0 419396.0 0
497378.0 420018.0 0
2564.48 421574.0 0
7435.03 424284.0 0
12455.9 422857.0 0
17937.3 424202.0 0
23914.9 424199.0 0
28487.5 422626.0 0
37500.2 424220.0 0
42078.8 423001.0 0
47600.0 423769.0 0
56549.9 423888.0 0
61340.0 423922.0 0
66820.1 424042.0 0
72179.1 424334.0 0
76648.1 423899.0 0
81008.6 422930.0 0
85434.1 423909.0 0
90766.4 424909.0 0
96535.6 423635.0 0
101378.0 422175.0 0
106759.0 422498.0 0
112006.0 422927.0 0
116309.0 426646.0 0
121023.0 422963.0 0
126307.0 422327.0 0
131897.0 423870.0 0
138299.0 422945.0 0
143747.0 422915.0 0
147905.0 425223.0 0
152622.0 424564.0 0
156877.0 422882.0 0
162190.0 423519.0 0
167851.0 423852.0 0
173683.0 423127.0 0
178599.0 426301.0 0
183717.0 424042.0 0
188343.0 421702.0 0
192614.0 424498.0 0
198676.0 424719.0 0
203544.0 424985.0 0
207957.0 423544.0 0
214329.0 424307.0 0
218626.0 423896.0 0
222500.0 423600.0 0
227713.0 423829.0 0
233757.0 424486.0 0
238610.0 425906.0 0
242843.0 424459.0 0
248249.0 423265.0 0
252525.0 424178.0 0
256663.0 424146.0 0
261528.0 423249.0 0
266097.0 423131.0 0
270536.0 423151.0 0
275330.0 424970.0 0
282460.0 423698.0 0
287968.0 424762.0 0
294334.0 424653.0 0
298698.0 424116.0 0
303282.0 424067.0 0
308040.0 423861.0 0
311805.0 424771.0 0
315617.0 423700.0 0
322215.0 425669.0 0
327772.0 424311.0 0
335040.0 423083.0 0
339283.0 424398.0 0
342882.0 426177.0 0
346657.0 423565.0 0
350623.0 424391.0 0
357908.0 424358.0 0
363357.0 423981.0 0
367535.0 425047.0 0
373063.0 424449.0 0
379374.0 425003.0 0
383517.0 423212.0 0
386515.0 425745.0 0
391842.0 426403.0 0
398069.0 424754.0 0
402569.0 424530.0 0
407380.0 424804.0 0
412480.0 423363.0 0
417929.0 422026.0 0
422968.0 424123.0 0
427733.0 423764.0 0
432238.0 423990.0 0
437369.0 423636.0 0
443069.0 423335.0 0
448555.0 423945.0 0
455556.0 423617.0 0
460052.0 424469.0 0
463619.0 422679.0 0
468175.0 423059.0 0
474144.0 423726.0 0
479117.0 423502.0 0
483811.0 423853.0 0
487375.0 424194.0 0
491938.0 425536.0 0
497485.0 425293.0 0
2540.59 426802.0 0
2077.46 431418.0 0
6931.38 430093.0 0
10824.1 427583.0 0
14341.2 428460.0 0
21650.2 429285.0 0
27793.2 427569.0 0
33215.2 426516.0 0
38153.6 428648.0 0
43361.0 427717.0 0
47755.0 429029.0 0
52329.1 426527.0 0
57232.4 428365.0 0
62564.4 428572.0 0
67191.1 429401.0 0
71246.5 428446.0 0
75433.6 428265.0 0
80969.9 428408.0 0
86306.5 428243.0 0
92140.9 431127.0 0
97762.7 428962.0 0
103472.0 427320.0 0
109432.0 427617.0 0
113044.0 430908.0 0
119131.0 430503.0 0
121883.0 427902.0 0
126818.0 427645.0 0
131177.0 428863.0 0
135812.0 428369.0 0
142766.0 428267.0 0
148751.0 430427.0 0
154213.0 428657.0 0
158542.0 426911.0 0
164373.0 427819.0 0
168804.0 429340.0 0
173752.0 428511.0 0
177186.0 430485.0 0
182946.0 429852.0 0
188074.0 427603.0 0
192930.0 429327.0 0
197403.0 429671.0 0
202596.0 429122.0 0
207662.0 428998.0 0
212300.0 428726.0 0
217599.0 428761.0 0
222861.0 428643.0 0
226931.0 427867.0 0
231186.0 429051.0 0
236092.0 429338.0 0
241078.0 429273.0 0
246293.0 428770.0 0
252070.0 428462.0 0
257583.0 429125.0 0
262663.0 428173.0 0
268125.0 427741.0 0
273108.0 429919.0 0
278303.0 429529.0 0
282841.0 428266.0 0
286891.0 430142.0 0
292135.0 429481.0 0
297635.0 428472.0 0
302788.0 429312.0 0
307786.0 428385.0 0
312565.0 429230.0 0
317569.0 428304.0 0
322233.0 430806.0 0
327009.0 430045.0 0
332425.0 428665.0 0
338408.0 428839.0 0
344310.0 429865.0 0
348008.0 428119.0 0
352522.0 427736.0 0
356499.0 429663.0 0
362302.0 429597.0 0
368988.0 430190.0 0
374301.0 429988.0 0
377995.0 429333.0 0
382500.0 428758.0 0
387677.0 429564.0 0
391180.0 431922.0 0
396129.0 428978.0 0
400461.0 429147.0 0
405369.0 429008.0 0
410712.0 429045.0 0
416669.0 427724.0 0
422308.0 429789.0 0
426726.0 427653.0 0
431230.0 429159.0 0
436854.0 429457.0 0
441845.0 428496.0 0
446879.0 428968.0 0
452057.0 427375.0 0
456809.0 429313.0 0
461635.0 428462.0 0
466586.0 428972.0 0
471069.0 426898.0 0
476088.0 428876.0 0
481842.0 428303.0 0
487256.0 428877.0 0
494026.0 430792.0 0
498271.0 429618.0 0
8474.15 434958.0 0
11708.5 431966.0 0
12507.7 436148.0 0
16867.3 432337.0 0
21389.5 434252.0 0
26307.8 432965.0 0
32870.0 432957.0 0
38343.9 435441.0 0
41825.8 432083.0 0
46486.4 433685.0 0
52905.3 433028.0 0
59795.9 432854.0 0
64998.1 433670.0 0
69936.0 433662.0 0
73669.5 435153.0 0
76741.6 432905.0 0
81945.3 434435.0 0
87010.9 432736.0 0
92815.3 435525.0 0
97145.2 434814.0 0
103223.0 433492.0 0
108880.0 432969.0 0
112909.0 434938.0 0
116609.0 432996.0 0
122257.0 432521.0 0
127019.0 432826.0 0
133183.0 433621.0 0
139040.0 432948.0 0
144629.0 434503.0 0
149505.0 435279.0 0
153417.0 433381.0 0
158137.0 431415.0 0
163445.0 432419.0 0
168008.0 434194.0 0
173544.0 434212.0 0
179527.0 434032.0 0
183941.0 434744.0 0
187829.0 432698.0 0
192668.0 433889.0 0
196697.0 433010.0 0
200918.0 434351.0 0
206589.0 434145.0 0
212663.0 434160.0 0
218212.0 433896.0 0
222499.0 434377.0 0
226877.0 432408.0 0
232230.0 434210.0 0
237647.0 434277.0 0
242785.0 433192.0 0
247789.0 434755.0 0
252467.0 433018.0 0
256829.0 434232.0 0
261357.0 432721.0 0
266117.0 432889.0 0
270802.0 433856.0 0
276028.0 434584.0 0
282462.0 433993.0 0
288628.0 435174.0 0
294386.0 434969.0 0
299626.0 433273.0 0
304608.0 433863.0 0
308651.0 432699.0 0
312636.0 434057.0 0
317297.0 433337.0 0
321694.0 435269.0 0
325569.0 434171.0 0
330792.0 434849.0 0
336396.0 433731.0 0
341763.0 433383.0 0
346625.0 432584.0 0
351788.0 432757.0 0
358795.0 433223.0 0
362069.0 435178.0 0
366677.0 435674.0 0
373206.0 433785.0 0
377391.0 433665.0 0
381210.0 433692.0 0
386332.0 434436.0 0
394822.0 435080.0 0
399141.0 433608.0 0
403907.0 433846.0 0
408021.0 432700.0 0
411881.0 434805.0 0
417828.0 433897.0 0
424021.0 434140.0 0
427809.0 433582.0 0
432432.0 434278.0 0
437254.0 433648.0 0
441527.0 433772.0 0
446951.0 434300.0 0
452093.0 432716.0 0
457116.0 434326.0 0
462038.0 433379.0 0
466924.0 433968.0 0
472152.0 433566.0 0
478128.0 434906.0 0
482797.0 432884.0 0
487448.0 434763.0 0
493109.0 436068.0 0
497882.0 433633.0 0
3275.07 436732.0 0
9171.8 440120.0 0
17788.9 438975.0 0
23998.1 437739.0 0
28546.3 440494.0 0
34612.6 439524.0 0
38740.1 438764.0 0
43041.9 437626.0 0
48743.0 437384.0 0
52794.0 440241.0 0
57457.1 437594.0 0
62194.0 437477.0 0
66645.2 439395.0 0
71895.8 439039.0 0
77370.3 438043.0 0
82472.7 440324.0 0
86454.4 437319.0 0
91259.7 439656.0 0
96348.1 439784.0 0
101478.0 439511.0 0
107232.0 438031.0 0
112916.0 440250.0 0
117893.0 437417.0 0
123563.0 437907.0 0
129110.0 437393.0 0
133039.0 438692.0 0
137788.0 438434.0 0
143272.0 440275.0 0
147694.0 438599.0 0
152760.0 439084.0 0
157808.0 436522.0 0
163040.0 438937.0 0
169267.0 439135.0 0
174166.0 439727.0 0
178544.0 438991.0 0
183237.0 438802.0 0
188087.0 437904.0 0
192650.0 438244.0 0
197610.0 438458.0 0
202619.0 438807.0 0
208439.0 438801.0 0
213051.0 439958.0 0
217682.0 438483.0 0
222494.0 438932.0 0
227964.0 438099.0 0
233061.0 438764.0 0
237571.0 439678.0 0
241764.0 437479.0 0
245746.0 439826.0 0
250116.0 439350.0 0
255014.0 439438.0 0
261484.0 438501.0 0
268232.0 438239.0 0
273848.0 439783.0 0
279356.0 439436.0 0
283644.0 438890.0 0
287101.0 440037.0 0
291475.0 439376.0 0
296340.0 440038.0 0
301699.0 438503.0 0
308250.0 438383.0 0
313903.0 438504.0 0
318259.0 437713.0 0
317703.0 442095.0 0
322190.0 439665.0 0
326622.0 438512.0 0
331085.0 440541.0 0
335466.0 438524.0 0
340482.0 438739.0 0
347930.0 437276.0 0
353303.0 438289.0 0
358046.0 437121.0 0
361847.0 439702.0 0
356969.0 441299.0 0
366414.0 440463.0 0
371340.0 438107.0 0
376906.0 438436.0 0
382062.0 438599.0 0
385980.0 439256.0 0
391189.0 439308.0 0
397846.0 437996.0 0
402076.0 438329.0 0
407243.0 437981.0 0
413082.0 440247.0 0
418806.0 440000.0 0
422662.0 437314.0 0
426953.0 438350.0 0
431456.0 439753.0 0
436733.0 438398.0 0
441813.0 439223.0 0
445911.0 439076.0 0
451337.0 438543.0 0
457992.0 439462.0 0
462653.0 438536.0 0
466621.0 438290.0 0
471195.0 439015.0 0
475698.0 439392.0 0
482349.0 438943.0 0
487437.0 440400.0 0
492271.0 440940.0 0
497492.0 438906.0 0
3525.93 443720.0 0
8890.83 447073.0 0
13405.7 444015.0 0
18833.4 445948.0 0
23197.2 442576.0 0
27036.5 445697.0 0
32669.4 445572.0 0
39893.4 442483.0 0
43505.7 446962.0 0
46997.2 442117.0 0
50741.0 446383.0 0
56118.9 445147.0 0
61772.2 442928.0 0
67682.0 444967.0 0
73506.4 444774.0 0
78282.1 443134.0 0
82303.9 446035.0 0
86917.1 443416.0 0
91940.6 445260.0 0
96965.2 444283.0 0
101857.0 444990.0 0
107874.0 444853.0 0
114186.0 445325.0 0
117748.0 443037.0 0
122206.0 445392.0 0
127845.0 442971.0 0
134322.0 443460.0 0
139902.0 444337.0 0
144515.0 446371.0 0
148596.0 443173.0 0
153141.0 444204.0 0
158206.0 443172.0 0
164145.0 445128.0 0
168081.0 443324.0 0
172340.0 444311.0 0
178089.0 444264.0 0
183235.0 443419.0 0
188357.0 443324.0 0
194263.0 443049.0 0
199328.0 443789.0 0
202843.0 444111.0 0
206831.0 443111.0 0
212689.0 444735.0 0
217433.0 443471.0 0
222253.0 443697.0 0
227157.0 443702.0 0
232058.0 443068.0 0
236797.0 444793.0 0
241779.0 442749.0 0
246770.0 444903.0 0
251690.0 443402.0 0
256991.0 445316.0 0
263642.0 445142.0 0
268789.0 443414.0 0
273106.0 444922.0 0
277891.0 444349.0 0
283383.0 443460.0 0
287805.0 443756.0 0
292923.0 443845.0 0
296320.0 444169.0 0
300125.0 444159.0 0
306859.0 444839.0 0
312766.0 443513.0 0
321763.0 444145.0 0
326852.0 443744.0 0
332757.0 445438.0 0
337801.0 443608.0 0
342347.0 443263.0 0
347198.0 442660.0 0
352613.0 443775.0 0
358342.0 446729.0 0
363564.0 444089.0 0
368842.0 443729.0 0
373162.0 442998.0 0
377946.0 443948.0 0
382621.0 444147.0 0
387323.0 443179.0 0
391794.0 445056.0 0
396486.0 442292.0 0
402248.0 443232.0 0
408318.0 443907.0 0
413518.0 444946.0 0
418416.0 446000.0 0
423589.0 443435.0 0
427506.0 443306.0 0
432621.0 443816.0 0
437221.0 444124.0 0
442008.0 443613.0 0
448025.0 443800.0 0
453224.0 443632.0 0
457658.0 444871.0 0
462312.0 443218.0 0
467371.0 442604.0 0
472614.0 444779.0 0
478597.0 443193.0 0
484032.0 444540.0 0
488389.0 444458.0 0
494218.0 444567.0 0
497979.0 443415.0 0
3242.7 450843.0 0
8756.26 452170.0 0
14080.1 450145.0 0
19109.4 450864.0 0
23433.5 449425.0 0
28423.6 450322.0 0
33061.2 451089.0 0
37915.3 448544.0 0
42859.0 452649.0 0
47607.6 449960.0 0
52142.8 451349.0 0
57944.6 449589.0 0
61586.1 448121.0 0
65286.6 449335.0 0
72991.9 449807.0 0
77212.9 448742.0 0
81657.4 451209.0 0
86704.2 448566.0 0
91095.5 449862.0 0
95878.3 449381.0 0
101312.0 450117.0 0
106585.0 450903.0 0
112128.0 449123.0 0
117502.0 447543.0 0
121283.0 450276.0 0
126900.0 449712.0 0
132169.0 448161.0 0
137444.0 449096.0 0
142523.0 451102.0 0
148428.0 449533.0 0
153680.0 448930.0 0
159413.0 449212.0 0
164745.0 450764.0 0
168657.0 448508.0 0
172861.0 449613.0 0
177199.0 448986.0 0
181614.0 448090.0 0
186701.0 448342.0 0
192542.0 449371.0 0
197841.0 447641.0 0
202806.0 448577.0 0
208730.0 448226.0 0
214014.0 448955.0 0
218286.0 448581.0 0
222404.0 448666.0 0
226666.0 448577.0 0
232230.0 448455.0 0
238208.0 449000.0 0
242307.0 447900.0 0
247140.0 449919.0 0
252175.0 448161.0 0
257607.0 450204.0 0
261176.0 449834.0 0
268998.0 448534.0 0
274014.0 449363.0 0
278620.0 449102.0 0
283410.0 448700.0 0
287639.0 448688.0 0
291868.0 448489.0 0
296301.0 447400.0 0
296879.0 451779.0 0
301720.0 449761.0 0
306743.0 450201.0 0
311645.0 449302.0 0
317497.0 447463.0 0
323310.0 448937.0 0
328608.0 448809.0 0
332859.0 449982.0 0
336989.0 448519.0 0
341931.0 447910.0 0
347415.0 448348.0 0
352872.0 449139.0 0
362631.0 449382.0 0
367060.0 448235.0 0
373042.0 448542.0 0
378458.0 448752.0 0
382864.0 449331.0 0
387380.0 448280.0 0
391708.0 449749.0 0
395896.0 448002.0 0
401258.0 448721.0 0
406706.0 449805.0 0
411310.0 448308.0 0
414860.0 448896.0 0
423257.0 449115.0 0
428197.0 447204.0 0
433231.0 448712.0 0
438235.0 448424.0 0
442151.0 447930.0 0
446111.0 448572.0 0
451634.0 448958.0 0
456435.0 448514.0 0
460694.0 448463.0 0
465823.0 447541.0 0
470330.0 449956.0 0
475724.0 450464.0 0
480402.0 447915.0 0
484455.0 449651.0 0
490587.0 449482.0 0
497216.0 448265.0 0
1943.84 455987.0 0
6176.0 455977.0 0
12195.9 455673.0 0
17763.6 455572.0 0
22044.7 453635.0 0
26064.2 454518.0 0
32351.5 455416.0 0
37198.6 454375.0 0
41219.9 457208.0 0
47965.4 454758.0 0
52720.9 456746.0 0
56600.7 453647.0 0
62160.7 453943.0 0
68555.7 453282.0 0
73336.1 454818.0 0
77305.6 453715.0 0
83709.5 455374.0 0
88091.6 453554.0 0
93431.2 454142.0 0
98047.8 453495.0 0
102361.0 455012.0 0
106420.0 455314.0 0
110761.0 454083.0 0
116474.0 452698.0 0
121527.0 454960.0 0
126179.0 455451.0 0
133234.0 453033.0 0
138020.0 454156.0 0
142244.0 455963.0 0
146555.0 454109.0 0
151310.0 453513.0 0
156135.0 454791.0 0
161019.0 454234.0 0
165406.0 455866.0 0
170524.0 454343.0 0
176200.0 453682.0 0
182017.0 453623.0 0
188084.0 453793.0 0
193669.0 455371.0 0
198875.0 452723.0 0
202655.0 455192.0 0
205788.0 452750.0 0
212630.0 453555.0 0
217010.0 453768.0 0
221290.0 453529.0 0
226739.0 453749.0 0
231667.0 453555.0 0
236954.0 453851.0 0
243225.0 453357.0 0
248087.0 453890.0 0
252095.0 452718.0 0
256631.0 454161.0 0
261382.0 454115.0 0
266310.0 453554.0 0
271211.0 453666.0 0
276198.0 453728.0 0
282681.0 453504.0 0
287500.0 453613.0 0
292322.0 453476.0 0
297057.0 456674.0 0
302140.0 455332.0 0
307953.0 453762.0 0
311850.0 454693.0 0
316312.0 452975.0 0
321590.0 454073.0 0
325794.0 453240.0 0
330279.0 454023.0 0
335540.0 453271.0 0
341198.0 453566.0 0
347450.0 454490.0 0
353504.0 454582.0 0
359873.0 453511.0 0
366139.0 454066.0 0
370804.0 455588.0 0
374046.0 453292.0 0
378613.0 454059.0 0
383502.0 453474.0 0
388712.0 453785.0 0
392512.0 457253.0 0
393622.0 453654.0 0
397899.0 452717.0 0
402691.0 453975.0 0
407570.0 453369.0 0
411202.0 453152.0 0
417090.0 452991.0 0
422135.0 453777.0 0
427404.0 453461.0 0
432512.0 453738.0 0
436940.0 453156.0 0
442600.0 452729.0 0
447981.0 453058.0 0
452870.0 454827.0 0
457792.0 452524.0 0
462070.0 454889.0 0
466464.0 452871.0 0
472579.0 454121.0 0
476549.0 455741.0 0
480701.0 453318.0 0
486034.0 454512.0 0
492931.0 455330.0 0
497551.0 453938.0 0
3388.62 460566.0 0
8243.7 459674.0 0
12612.6 460642.0 0
17546.0 461078.0 0
20349.4 458848.0 0
23647.4 458753.0 0
28999.1 459277.0 0
37225.9 460598.0 0
43416.4 460746.0 0
47854.5 459122.0 0
51113.3 460953.0 0
57606.8 458435.0 0
62027.3 459122.0 0
66507.6 458869.0 0
71175.4 458174.0 0
75924.1 458484.0 0
81315.3 459806.0 0
87291.6 459148.0 0
92569.4 459025.0 0
97059.6 457670.0 0
101491.0 459623.0 0
106531.0 459684.0 0
112174.0 459664.0 0
118289.0 459300.0 0
123532.0 459156.0 0
130650.0 458251.0 0
135771.0 457558.0 0
139780.0 460048.0 0
143482.0 459260.0 0
147394.0 459110.0 0
152408.0 458220.0 0
157453.0 459367.0 0
162077.0 459450.0 0
167777.0 459505.0 0
172603.0 459811.0 0
177544.0 458309.0 0
182097.0 458874.0 0
187349.0 459586.0 0
192317.0 460133.0 0
198187.0 458333.0 0
202701.0 458891.0 0
208401.0 458330.0 0
213480.0 460363.0 0
216246.0 457814.0 0
220767.0 458587.0 0
225897.0 459289.0 0
231173.0 458254.0 0
236021.0 459335.0 0
240668.0 459423.0 0
246448.0 458912.0 0
253405.0 459243.0 0
259791.0 458993.0 0
264283.0 459656.0 0
268872.0 458645.0 0
273327.0 458357.0 0
278455.0 458799.0 0
283287.0 458057.0 0
287195.0 458082.0 0
287840.0 462237.0 0
291692.0 458909.0 0
296354.0 462267.0 0
301258.0 460040.0 0
306445.0 457504.0 0
310597.0 459014.0 0
316417.0 459150.0 0
322393.0 459657.0 0
326838.0 458079.0 0
331731.0 459462.0 0
337455.0 458710.0 0
342606.0 458394.0 0
346628.0 460178.0 0
351117.0 458985.0 0
357157.0 459429.0 0
363125.0 458988.0 0
368059.0 458426.0 0
374413.0 458696.0 0
379149.0 458770.0 0
383654.0 458507.0 0
388696.0 459219.0 0
397361.0 458240.0 0
402499.0 457612.0 0
401906.0 460904.0 0
407121.0 457935.0 0
413285.0 458235.0 0
418705.0 458688.0 0
423779.0 457895.0 0
428395.0 459140.0 0
433656.0 458408.0 0
438388.0 457435.0 0
437530.0 460982.0 0
442841.0 458481.0 0
448395.0 458398.0 0
453757.0 460155.0 0
457581.0 457312.0 0
461481.0 459378.0 0
467135.0 458640.0 0
472825.0 458477.0 0
477782.0 459194.0 0
482435.0 458763.0 0
489030.0 458967.0 0
493458.0 459646.0 0
497500.0 458596.0 0
2884.09 466270.0 0
8273.81 464456.0 0
14667.9 464965.0 0
20225.0 465085.0 0
24139.1 463026.0 0
27517.2 463534.0 0
31107.1 464355.0 0
35364.6 465548.0 0
41556.9 464986.0 0
47327.5 463400.0 0
51016.2 465304.0 0
55493.4 463632.0 0
61181.4 463663.0 0
66352.3 464024.0 0
72761.6 464040.0 0
78899.5 464655.0 0
82546.1 463997.0 0
85964.5 464025.0 0
91471.4 464612.0 0
97048.4 462634.0 0
102854.0 465253.0 0
108877.0 464440.0 0
113362.0 464368.0 0
116781.0 466660.0 0
121556.0 464573.0 0
127077.0 462870.0 0
133539.0 464098.0 0
139851.0 465428.0 0
144680.0 463361.0 0
149372.0 464635.0 0
154397.0 463074.0 0
159430.0 463382.0 0
163575.0 463922.0 0
167491.0 463452.0 0
171507.0 464806.0 0
176976.0 464067.0 0
183328.0 464019.0 0
188472.0 464343.0 0
192022.0 463186.0 0
197190.0 464119.0 0
203234.0 463623.0 0
209056.0 465371.0 0
213874.0 463808.0 0
217650.0 463577.0 0
222278.0 463764.0 0
227414.0 464272.0 0
232872.0 463747.0 0
238502.0 464038.0 0
242918.0 463696.0 0
247959.0 464678.0 0
251938.0 464666.0 0
255982.0 464860.0 0
261050.0 464169.0 0
266169.0 463648.0 0
272080.0 464041.0 0
277222.0 463360.0 0
282417.0 463383.0 0
291693.0 465101.0 0
300721.0 464763.0 0
305959.0 463159.0 0
311968.0 463650.0 0
317054.0 465676.0 0
322156.0 464438.0 0
327642.0 463563.0 0
332813.0 464102.0 0
337239.0 464135.0 0
342030.0 462811.0 0
347036.0 465185.0 0
351910.0 463629.0 0
357545.0 465649.0 0
362735.0 464111.0 0
367398.0 462886.0 0
372060.0 462882.0 0
376636.0 463511.0 0
381741.0 463784.0 0
387316.0 464564.0 0
393718.0 463599.0 0
399295.0 464481.0 0
405646.0 464936.0 0
411606.0 463477.0 0
417276.0 464161.0 0
423423.0 463576.0 0
429769.0 464501.0 0
435304.0 464457.0 0
441086.0 463465.0 0
446672.0 464027.0 0
451957.0 464702.0 0
458232.0 463512.0 0
463930.0 463638.0 0
469085.0 464095.0 0
473830.0 463146.0 0
478590.0 463827.0 0
483073.0 463399.0 0
487711.0 463921.0 0
492489.0 463662.0 0
497350.0 463546.0 0
1216.66 470050.0 0
7271.0 469107.0 0
11500.0 468244.0 0
17356.4 469065.0 0
21827.3 468841.0 0
26421.6 467875.0 0
31926.1 469135.0 0
37464.7 470265.0 0
42354.5 469166.0 0
46463.7 468170.0 0
52476.4 469797.0 0
58191.6 468857.0 0
63449.0 468388.0 0
68024.3 468381.0 0
71737.4 470335.0 0
76728.6 469478.0 0
81939.5 468412.0 0
86990.6 468624.0 0
91745.2 470724.0 0
97407.9 469102.0 0
102474.0 470583.0 0
107069.0 469483.0 0
112194.0 468649.0 0
117901.0 471487.0 0
122725.0 469805.0 0
128501.0 469027.0 0
134968.0 470852.0 0
139400.0 469579.0 0
144073.0 468487.0 0
148311.0 468982.0 0
153042.0 468571.0 0
158019.0 467607.0 0
162530.0 468571.0 0
167806.0 468376.0 0
173451.0 468051.0 0
172974.0 472504.0 0
177183.0 469534.0 0
181532.0 468981.0 0
186415.0 469009.0 0
192109.0 467904.0 0
197578.0 469749.0 0
201882.0 468381.0 0
206270.0 470920.0 0
214248.0 468219.0 0
218644.0 468852.0 0
222500.0 468932.0 0
226886.0 469937.0 0
232474.0 468887.0 0
237236.0 469180.0 0
242593.0 468489.0 0
247410.0 469537.0 0
252500.0 468936.0 0
256708.0 469533.0 0
261543.0 469373.0 0
267224.0 469261.0 0
272746.0 469876.0 0
277656.0 467942.0 0
282126.0 470764.0 0
286713.0 467749.0 0
291452.0 470176.0 0
296845.0 468400.0 0
302716.0 469139.0 0
307679.0 468587.0 0
312425.0 468750.0 0
316564.0 470531.0 0
321038.0 469321.0 0
326527.0 469463.0 0
331846.0 468578.0 0
337581.0 469770.0 0
343003.0 467771.0 0
347538.0 470222.0 0
352866.0 469245.0 0
358025.0 471113.0 0
362178.0 468541.0 0
366372.0 467604.0 0
368546.0 471841.0 0
372367.0 467819.0 0
377153.0 467986.0 0
381182.0 468467.0 0
378286.0 472432.0 0
385692.0 470057.0 0
391410.0 469659.0 0
396949.0 468755.0 0
401866.0 469250.0 0
407777.0 470602.0 0
412981.0 468410.0 0
417924.0 469871.0 0
422581.0 468736.0 0
426834.0 469291.0 0
432912.0 468504.0 0
430532.0 471839.0 0
437651.0 469129.0 0
443050.0 468342.0 0
448185.0 469491.0 0
452384.0 468652.0 0
456559.0 468804.0 0
461837.0 468645.0 0
464446.0 472655.0 0
467534.0 469065.0 0
472417.0 467650.0 0
474274.0 472316.0 0
477241.0 468493.0 0
482209.0 468177.0 0
488484.0 469317.0 0
492962.0 468546.0 0
492518.0 472477.0 0
497500.0 468578.0 0
2766.14 473796.0 0
7949.62 474463.0 0
12925.3 473002.0 0
17566.0 473574.0 0
22039.2 473179.0 0
27518.6 474129.0 0
33192.3 474197.0 0
37716.5 476263.0 0
42121.5 473836.0 0
47607.4 473161.0 0
52125.7 475011.0 0
56932.4 474402.0 0
62093.7 473347.0 0
67576.5 473434.0 0
72951.2 475162.0 0
78120.2 474710.0 0
84033.0 473939.0 0
89552.1 475011.0 0
94211.1 475221.0 0
98918.3 474497.0 0
104028.0 475155.0 0
108726.0 473757.0 0
112693.0 473246.0 0
115833.0 475380.0 0
121808.0 474574.0 0
127910.0 476379.0 0
134859.0 476059.0 0
138609.0 474546.0 0
143077.0 473466.0 0
146826.0 475460.0 0
150893.0 473869.0 0
157090.0 473323.0 0
162840.0 473334.0 0
167738.0 474387.0 0
178005.0 474095.0 0
183211.0 473708.0 0
188068.0 473768.0 0
192519.0 473418.0 0
197316.0 474391.0 0
202500.0 473809.0 0
207974.0 475573.0 0
212646.0 473630.0 0
217500.0 473764.0 0
222500.0 473633.0 0
228060.0 475248.0 0
232681.0 473601.0 0
237789.0 474083.0 0
242680.0 473026.0 0
241667.0 477661.0 0
247436.0 473932.0 0
252007.0 473310.0 0
256370.0 473752.0 0
260775.0 474365.0 0
265557.0 474471.0 0
270819.0 474940.0 0
277069.0 474034.0 0
282111.0 475171.0 0
286765.0 473984.0 0
292385.0 475330.0 0
298498.0 474787.0 0
303943.0 473835.0 0
308167.0 473015.0 0
312911.0 474297.0 0
318569.0 475136.0 0
323391.0 473437.0 0
327895.0 474723.0 0
333171.0 474016.0 0
337928.0 475378.0 0
342798.0 473495.0 0
347053.0 476888.0 0
351214.0 474275.0 0
356610.0 476410.0 0
362880.0 474164.0 0
373226.0 475527.0 0
383004.0 474386.0 0
388421.0 474986.0 0
393443.0 475104.0 0
397990.0 473879.0 0
403332.0 474109.0 0
407907.0 475871.0 0
412552.0 473622.0 0
417592.0 475035.0 0
422192.0 473276.0 0
427038.0 474862.0 0
435106.0 474612.0 0
441275.0 473726.0 0
446643.0 476317.0 0
452548.0 473785.0 0
459328.0 474175.0 0
469089.0 474612.0 0
479265.0 473375.0 0
483829.0 472833.0 0
484060.0 476969.0 0
488069.0 474555.0 0
497500.0 473552.0 0
1999.74 478862.0 0
6050.16 479272.0 0
11370.2 478085.0 0
17224.1 478822.0 0
23224.6 478528.0 0
28199.2 479563.0 0
33369.4 479586.0 0
38166.8 480736.0 0
42407.4 478968.0 0
47105.8 478324.0 0
51934.7 479710.0 0
57388.4 479954.0 0
62698.6 478572.0 0
67364.9 478548.0 0
71495.1 480081.0 0
76239.7 479246.0 0
81950.4 480550.0 0
87233.1 478651.0 0
91871.8 479812.0 0
97354.6 479409.0 0
102765.0 480746.0 0
108209.0 479079.0 0
113565.0 479044.0 0
118863.0 478829.0 0
123550.0 481110.0 0
127792.0 482375.0 0
133217.0 480240.0 0
138288.0 479065.0 0
143200.0 478484.0 0
146908.0 479056.0 0
151283.0 479692.0 0
157217.0 479663.0 0
162731.0 478409.0 0
167685.0 479385.0 0
173375.0 478790.0 0
177973.0 479365.0 0
181797.0 478994.0 0
187139.0 478533.0 0
193354.0 479312.0 0
198725.0 478400.0 0
202918.0 478548.0 0
207318.0 479945.0 0
212276.0 479031.0 0
217524.0 478533.0 0
222437.0 478656.0 0
226543.0 479752.0 0
231496.0 478459.0 0
236443.0 478775.0 0
247445.0 479079.0 0
253642.0 478692.0 0
258937.0 478857.0 0
262974.0 478671.0 0
267511.0 479152.0 0
273493.0 479271.0 0
277929.0 479532.0 0
282356.0 478715.0 0
287146.0 479173.0 0
291264.0 479978.0 0
296312.0 480903.0 0
301889.0 478887.0 0
306287.0 477937.0 0
310667.0 478632.0 0
315182.0 479810.0 0
320228.0 480082.0 0
325749.0 480129.0 0
331402.0 479016.0 0
336169.0 479448.0 0
342046.0 480146.0 0
347301.0 481871.0 0
351517.0 479681.0 0
356369.0 482243.0 0
361526.0 480325.0 0
367616.0 478974.0 0
372691.0 482154.0 0
378628.0 479891.0 0
384729.0 479040.0 0
389530.0 480358.0 0
394441.0 479517.0 0
399777.0 479309.0 0
403832.0 478746.0 0
407249.0 480812.0 0
412920.0 479033.0 0
418081.0 479738.0 0
422671.0 478352.0 0
427517.0 480100.0 0
432093.0 478830.0 0
436423.0 479912.0 0
441451.0 479539.0 0
446066.0 481415.0 0
451447.0 480453.0 0
457300.0 480419.0 0
462059.0 479136.0 0
467266.0 480569.0 0
473555.0 479204.0 0
479705.0 478912.0 0
487379.0 480844.0 0
492963.0 477947.0 0
497912.0 479776.0 0
2250.35 483239.0 0
5643.1 485118.0 0
10565.0 483972.0 0
17050.6 485297.0 0
22203.9 483316.0 0
27119.0 484957.0 0
32769.3 485013.0 0
38156.9 485577.0 0
42613.9 485183.0 0
47774.3 484088.0 0
53746.4 484529.0 0
58818.7 485641.0 0
63927.8 483892.0 0
68781.8 483726.0 0
73164.2 484590.0 0
77785.0 484486.0 0
82469.8 485752.0 0
87356.7 483578.0 0
92492.1 484976.0 0
98240.1 484879.0 0
102949.0 485452.0 0
107386.0 484346.0 0
112500.0 483623.0 0
117461.0 483729.0 0
121789.0 485059.0 0
125774.0 485850.0 0
131692.0 485798.0 0
137329.0 484105.0 0
142935.0 483766.0 0
148036.0 483681.0 0
153114.0 485120.0 0
158367.0 485002.0 0
162921.0 483544.0 0
167382.0 483927.0 0
172150.0 484660.0 0
177546.0 483554.0 0
182577.0 483914.0 0
186910.0 483638.0 0
191209.0 485034.0 0
197616.0 484323.0 0
203323.0 483452.0 0
208100.0 484556.0 0
213130.0 484190.0 0
217948.0 483540.0 0
221959.0 483526.0 0
225763.0 484032.0 0
230746.0 483935.0 0
236528.0 483994.0 0
242369.0 483601.0 0
247940.0 484770.0 0
252220.0 483750.0 0
256700.0 483511.0 0
261577.0 483525.0 0
266947.0 484933.0 0
272563.0 483899.0 0
277979.0 484971.0 0
283293.0 482985.0 0
288678.0 484186.0 0
293531.0 485241.0 0
297372.0 486855.0 0
301261.0 483974.0 0
307655.0 484036.0 0
313648.0 484744.0 0
318730.0 484837.0 0
323310.0 484652.0 0
327557.0 485822.0 0
332209.0 483924.0 0
337534.0 484909.0 0
342995.0 486058.0 0
347413.0 485839.0 0
351999.0 485093.0 0
358848.0 486455.0 0
363345.0 485263.0 0
367499.0 484574.0 0
372562.0 486654.0 0
377263.0 485266.0 0
382403.0 483724.0 0
386578.0 484608.0 0
392243.0 484665.0 0
397438.0 484347.0 0
402369.0 483824.0 0
406575.0 485807.0 0
411619.0 484184.0 0
417329.0 485115.0 0
422779.0 483498.0 0
427613.0 485313.0 0
432668.0 483648.0 0
438170.0 484539.0 0
443350.0 485283.0 0
448197.0 485180.0 0
452862.0 486190.0 0
457497.0 485047.0 0
462331.0 484244.0 0
467058.0 485957.0 0
472255.0 485420.0 0
477776.0 484062.0 0
482866.0 483939.0 0
487754.0 485971.0 0
492470.0 484254.0 0
497466.0 483775.0 0
POINT_DATA 5000
SCALARS Radius float 1
LOOKUP_TABLE default
4796.58 3979.26 3471.03 5253.55 5820.48 5782.6 4862.21 5113.21 3929.19 4107.03 4478.15 5379.87 5925.6 4501.51 4792.73 4736.58 4931.38 3485.26 4329.05 4151.94 4049.23 5337.48 6124.89 5708.81 5252.48 4780.03 5495.39 3996.0 3856.1 4665.12 3383.4 4133.88 4834.9 3850.77 6044.04 5415.48 5120.0 3863.18 2356.98 4998.37 6182.6 5492.18 5258.36 5061.3 3642.12 3163.97 5812.43 5122.66 5906.14 7513.1 5580.89 6810.52 7613.27 5529.52 5255.32 5096.78 6756.95 6324.23 3843.58 5191.63 4216.92 4861.06 5320.28 6739.08 4797.52 4298.67 5960.66 7034.11 5681.38 6082.81 4929.8 4094.62 5546.39 5325.36 5484.83 5085.53 5351.6 4715.55 3951.75 5542.27 5484.19 5254.28 4688.68 4436.4 5733.48 4672.91 4182.53 5903.42 3588.44 5645.7 5176.86 4366.19 5840.26 3672.51 6110.27 5561.06 5073.35 3615.22 5670.04 4380.59 3589.27 6716.79 3997.1 3607.45 5759.91 3038.33 4951.03 7199.21 6037.08 4523.7 5091.39 4129.43 6142.94 4727.24 3320.52 4194.5 4270.53 5082.47 5344.25 5445.87 4593.7 4150.99 4704.72 4177.94 4742.68 4571.7 4344.58 5634.83 5495.84 6268.1 5374.51 7042.12 6326.39 4569.12 5873.69 6608.73 5011.84 6261.42 4502.5 3771.48 4043.57 5499.11 4271.69 4138.42 3708.04 5513.6 3240.09 4556.36 4901.41 3191.99 4685.34 4382.74 5601.05 4651.28 3586.91 3103.0 3554.9 5481.78 4015.92 5542.21 4487.31 3936.02 5043.05 4044.71 5980.74 5109.54 4927.02 5945.65 5538.89 4730.36 5416.38 5867.73 6059.59 5013.56 5701.86 4499.64 4375.68 4468.59 5054.98 6030.06 5170.02 3557.27 4927.31 4862.64 4402.52 4517.56 4432.58 6684.56 3968.64 3955.56 3761.32 4118.05 6166.5 5553.16 2938.66 4940.78 4231.61 4008.92 4003.05 3942.53 3379.84 4827.82 5227.21 5697.78 3260.67 5123.52 4091.31 4392.68 6372.62 4333.2 4295.38 2240.39 5923.5 4612.68 5293.9 3912.37 4973.83 4602.25 6691.39 4790.08 5135.69 4763.45 5344.0 6045.46 3815.26 5908.1 6048.7 5896.46 5022.8 3784.5 3780.23 4166.08 6481.79 5224.12 4819.73 4471.58 6098.14 4962.09 4472.17 3999.48 4203.26 4359.62 5188.81 6946.21 2586.12 6057.22 5433.8 4011.77 4527.08 3633.87 5922.5 5198.77 5987.17 6013.14 2765.2 5011.31 5138.31 5110.37 5664.98 5927.43 6355.42 4384.42 3693.63 4362.19 4516.43 5690.56 4948.92 5637.59 4937.14 3307.12 5816.2 4002.16 5693.81 4174.52 6483.19 3829.13 6759.9 5418.62 7021.47 5740.68 5926.61 2720.68 4955.55 3563.63 5836.15 4238.81 4345.55 5885.03 2837.58 3871.88 5325.02 5200.76 5017.13 5279.39 5185.34 3673.74 5205.43 7447.37 4688.67 2635.86 4385.06 5292.64 5065.13 5936.02 5305.17 4861.08 5399.73 5390.22 3888.21 4712.33 4805.87 6038.78 4667.36 4254.17 5090.24 5615.42 7565.34 5530.87 4281.49 6342.25 4187.56 4840.84 4020.32 4245.72 4156.38 5316.75 4541.21 6133.92 4164.68 3719.84 4178.4 3095.48 5762.59 4123.6 4850.14 5163.55 3382.7 3954.91 6817.32 4319.79 3637.61 6222.42 5654.31 4730.41 3745.84 5690.26 5062.71 4156.2 6125.34 5965.78 5347.48 4850.01 4810.12 3970.25 5643.58 5147.67 3979.82 4292.06 5577.04 5006.58 5264.06 4659.59 6327.9 4048.37 5492.26 5762.84 3115.91 3937.74 4493.48 6084.86 5924.89 4778.34 4138.16 6894.71 3486.22 4684.5 3091.3 6230.49 6458.82 4601.27 5493.32 3641.64 4277.89 6051.14 3261.21 4195.44 5539.32 6704.06 3653.41 6496.85 5600.93 3856.01 4874.39 5246.2 4390.66 5728.85 4827.23 4911.47 6116.18 4924.6 6257.19 4733.32 7184.19 2899.43 2812.98 2924.37 3867.67 4290.3 4695.45 4660.72 6052.7 3921.18 5891.05 5308.1 6902.81 6644.76 5655.21 5629.19 4786.6 5740.84 6445.94 4310.18 7134.64 5978.9 4716.19 3629.62 4997.27 5514.76 4301.06 3456.98 4877.67 4290.14 3066.13 6562.18 6006.16 7055.53 5669.65 5934.22 5624.49 4970.88 7092.87 4666.81 3703.1 6471.55 2965.01 5499.39 6643.85 5501.93 4938.74 5607.14 4497.59 4374.35 6396.74 5215.05 3821.72 4986.77 4602.86 5586.81 3688.8 4548.16 3369.23 4551.24 5449.18 4220.88 5244.78 4515.71 4749.8 5082.6 5478.92 5551.36 5094.44 4467.94 4414.54 4850.81 5789.98 6138.47 7054.71 5489.43 5573.7 5747.75 4727.62 5054.25 4796.33 7325.81 5280.17 5360.19 4794.96 5541.59 4124.71 5083.08 6337.56 5803.39 5863.59 4381.97 4024.3 3255.82 5555.28 5242.73 4737.14 4065.69 4686.65 5603.15 5556.96 3798.62 6392.01 3666.57 4907.89 4937.02 4073.93 6043.3 4645.41 5952.75 4433.59 4320.28 6122.55 5542.14 4218.06 2739.94 4931.53 5480.13 6308.71 3323.28 6695.82 6405.76 3498.2 5105.16 5448.61 4302.5 4827.33 6009.88 5013.67 5826.04 5339.78 4143.78 4538.95 4763.66 4636.5 4940.42 5923.4 5085.71 6116.33 5644.82 6343.14 5463.38 5945.21 5750.71 5696.88 4831.47 3923.03 4643.85 5975.63 4004.04 5252.34 4138.46 4274.61 2775.04 2965.79 6898.19 6035.6 6318.18 4481.53 3948.17 5330.45 4621.75 4581.13 5358.59 3610.4 6387.01 5367.52 6519.71 3092.35 6640.13 5210.03 5810.84 4230.54 5351.39 3748.24 6142.37 4655.49 4933.21 5375.47 6038.14 2540.31 6029.66 5527.54 5697.4 6038.2 4270.95 4005.44 4055.8 5206.78 6425.26 5143.58 6186.19 4839.34 2980.99 6834.49 5525.39 4455.12 3998.5 5938.34 5380.13 6394.38 5118.27 5169.36 5932.23 5834.74 5788.23 5581.75 3599.45 6730.19 4907.06 5489.34 3735.44 5163.9 6332.36 6155.31 4223.33 5911.67 5709.62 5835.78 5794.24 4127.74 4678.38 3942.07 7443.72 5050.65 3937.08 5260.34 5206.48 5513.57 5729.23 5226.0 3365.82 5724.64 5965.15 4780.2 6090.91 4946.42 5019.93 5081.78 6263.44 5774.97 5462.21 6313.06 5470.77 3474.39 6062.05 4289.17 5564.02 6072.45 4410.55 5137.34 5423.0 3856.59 4219.07 5413.79 6202.55 4322.15 5025.39 4714.54 3629.96 5478.47 3320.11 6022.17 6061.47 6163.38 4566.18 4723.12 5120.49 5201.36 5262.61 6302.8 5409.61 5094.81 5972.06 5555.88 6732.43 5028.96 3866.16 6362.12 4484.76 3778.1 4840.01 5152.36 4511.82 5611.2 7933.0 5173.87 4894.16 5711.87 3372.79 4941.22 5791.61 3369.13 4669.66 4479.66 4808.52 5367.2 3043.85 5461.13 4726.76 5839.13 5495.68 4863.72 5002.48 5708.14 5537.72 3920.42 8332.24 4553.56 5329.64 6049.55 5991.09 2476.04 5133.97 6600.94 5371.02 6155.1 4709.35 6586.45 4373.3 4750.78 5029.78 4163.5 4888.6 5078.86 5100.1 4918.77 3561.29 4371.99 4963.34 4219.78 3295.83 3885.86 4459.28 4260.92 4479.94 6250.23 5960.56 4118.84 4020.95 5862.86 3493.7 6470.3 4200.03 6939.12 5082.74 6915.83 5092.37 6444.77 7099.43 5526.14 4287.63 5198.29 5077.33 4746.52 3689.45 5572.95 6338.89 5584.06 7111.16 5893.5 4547.19 5030.91 5119.37 3982.23 4583.31 4503.89 5806.08 3459.9 4997.27 4853.39 4964.09 4093.08 4809.42 5024.9 4306.53 5659.17 5713.22 4312.67 5861.71 4359.04 3183.98 3794.63 5017.78 4524.28 6175.81 4727.24 6677.09 5826.64 4220.65 6820.42 4816.2 6321.41 4896.52 4089.76 4751.02 3192.41 5184.56 5282.64 4715.72 3315.57 5804.71 5046.33 4764.96 5607.24 4242.52 5053.92 6352.26 3847.38 3057.03 3818.59 4143.08 7500.97 6623.85 5228.18 4262.82 5102.36 5065.11 4342.9 5069.84 4051.44 4050.9 4978.31 4241.89 5054.74 5941.72 4656.78 5126.91 4788.58 5131.24 5196.67 5876.71 6262.72 3664.11 6515.84 2990.77 5882.65 4739.14 5187.7 4188.3 6261.75 5235.29 4255.31 5453.3 6413.02 4863.27 3492.19 4584.5 5122.63 6049.79 5374.98 4719.7 4735.33 4406.4 5411.85 4844.57 4027.46 6314.07 5776.37 5315.4 6449.45 3975.31 4044.45 3824.16 5125.78 5344.43 3868.18 4373.47 5045.38 6723.16 5372.61 3686.21 3817.13 5507.24 5023.15 6851.54 3813.22 5570.3 4336.42 5243.29 7589.94 4449.22 5543.27 4717.05 5856.11 5287.2 6135.57 4109.88 5998.38 5013.13 5423.8 4270.24 3417.33 4989.15 4926.42 4164.13 5015.69 4642.34 4947.52 4305.57 6959.81 4829.35 5201.67 3791.79 4424.7 4754.05 5526.55 6084.93 5215.15 4987.87 3697.96 4739.42 5538.93 5020.12 5727.3 2631.9 5281.28 5356.51 4277.88 4668.71 4087.15 4758.21 7228.46 3948.23 5978.82 5787.31 3927.99 5868.82 4948.98 4099.77 5227.52 4092.24 4981.9 4537.32 5163.02 7144.24 4906.82 3600.43 5004.23 6496.67 5474.8 6607.87 5117.47 4721.32 4925.63 3163.78 3293.56 5274.14 4434.19 4903.82 5746.28 4623.61 4082.47 5511.6 5177.64 6134.99 4094.73 4407.9 4440.57 5548.29 4703.08 2315.64 6345.13 5274.19 5226.56 5516.95 5313.22 4413.85 3999.94 4470.98 4864.22 4516.28 3921.08 4190.31 3627.82 5678.96 5262.19 4244.9 6070.58 5350.88 5130.91 5402.24 6480.17 6445.22 4377.07 5101.59 3844.9 3963.86 3848.93 4306.11 5935.47 3130.65 5903.66 5628.24 5004.67 5365.89 3327.49 5992.26 4234.94 3960.8 4562.29 4980.85 5080.66 5110.45 5208.32 5248.77 4083.97 4520.1 4607.02 5153.74 5874.89 3895.51 4528.09 4293.03 5813.4 4389.21 4128.98 4925.44 6246.22 4951.47 5246.61 4307.28 4100.38 5344.77 4723.48 5097.87 4899.11 4278.07 4745.45 7267.18 6255.18 5269.18 4406.1 6362.14 6719.88 5080.18 5266.5 4454.63 4523.88 3279.1 4066.38 4403.98 4560.84 4414.48 4729.43 5776.57 4562.74 5598.74 5687.83 7493.3 6442.69 6320.71 4648.04 3464.83 6413.11 4305.16 5092.28 4965.89 5659.95 4152.85 2908.7 4453.64 4338.08 4517.73 4378.3 5469.47 5660.16 4989.56 4718.54 2588.37 6736.03 6235.57 6766.43 5916.16 4390.41 5599.49 4097.57 3905.51 5017.5 5563.79 6171.13 3901.8 5759.46 5083.41 7055.42 6048.86 4285.32 5490.43 6034.41 5452.83 4959.34 4948.5 4519.22 4527.02 4564.34 3695.36 4871.44 5076.35 6020.48 6375.99 3402.32 5200.05 4528.49 5419.37 4466.03 4511.54 5070.39 4923.9 5714.58 3329.99 3947.47 3296.27 4713.25 4204.84 6243.0 6673.96 4165.81 3556.85 5441.96 6291.51 5174.89 5882.89 5370.52 4188.32 4652.29 5774.81 3746.31 5027.98 5346.27 6475.1 4969.21 2691.29 6256.02 5320.92 4305.43 5450.44 5034.59 4942.77 4263.33 5592.32 5381.16 5912.61 6193.35 6086.96 5233.78 5046.21 5683.26 5894.61 5139.5 3979.54 5944.09 4814.55 3527.05 5698.77 2477.07 4497.31 5529.42 5257.12 5243.43 4537.14 5551.9 3757.34 6415.61 4687.64 4419.71 5037.06 3838.47 4541.8 5175.29 3623.87 5412.31 3087.09 6934.37 6113.95 4050.08 5452.42 5328.22 6853.85 3497.9 5511.88 2395.5 4512.11 5782.48 5486.68 3836.45 5683.61 5100.25 5022.28 5197.52 5178.99 5383.07 4591.87 4531.14 5013.42 3838.56 4247.15 6552.22 5651.07 6248.81 5273.35 5234.29 5313.66 4645.58 2651.49 5512.23 5275.32 5409.33 4898.94 5196.0 4178.15 4613.31 4973.78 4733.04 6119.09 5091.68 7531.29 5069.25 5048.89 3161.47 3991.03 3435.9 6390.78 7435.25 4288.3 6826.57 4788.87 4495.87 6022.72 5498.32 5527.33 5402.21 4989.09 2845.98 4880.14 5289.52 4982.31 5314.85 3848.54 5941.4 6510.17 5742.65 4402.67 5565.13 4470.61 4384.88 6887.27 3701.27 6008.49 5653.9 4806.34 4287.53 5612.21 4929.14 5945.08 5304.13 3306.14 5490.58 5833.06 4863.79 4923.41 3830.46 6031.67 5384.76 6138.12 4428.78 5409.66 4345.67 4765.72 4642.66 4752.14 5329.59 4888.12 4950.97 5512.16 3197.63 5842.56 5887.15 5203.08 7480.41 3423.15 4890.5 4488.85 3981.07 3731.84 4901.07 5186.3 3436.15 4151.76 5941.61 4020.4 3493.47 4596.75 6248.6 5443.58 4558.46 5805.86 6894.26 4470.4 4986.51 5339.38 6169.11 5615.35 4790.78 4027.09 6422.84 4502.18 4602.85 4962.77 5872.05 4853.02 4091.8 6259.23 5181.4 5670.2 5985.29 4711.62 4247.23 4268.65 4694.83 5509.42 4354.08 5788.66 4256.43 5936.36 4520.62 3903.75 4755.47 5935.03 5475.8 5314.69 4249.46 5965.81 3702.37 5660.85 4643.31 2330.66 4177.19 6917.52 3587.05 6229.37 6718.19 5282.91 4307.48 4425.84 5331.02 4871.96 4863.23 3555.86 6386.78 4631.83 4996.99 6081.14 4220.46 5128.57 6000.7 3169.67 4968.03 3361.92 6710.88 5395.14 4702.06 3967.48 6213.04 4689.15 3685.13 4655.16 5251.4 3867.19 5857.79 4039.91 5276.7 5036.58 6119.63 5411.02 4752.9 4287.16 4863.96 5199.44 5191.08 4435.51 5374.07 5163.77 4588.7 3766.55 4579.69 3554.48 6496.52 5005.85 4216.17 6484.17 4721.02 4254.37 4933.65 4031.78 6098.1 5708.99 4049.02 5311.03 5346.68 5255.12 5296.29 4611.53 4285.66 4896.11 5172.53 5801.99 5379.09 5210.48 7552.94 5323.3 5088.44 4998.21 4114.24 4662.56 5349.31 2976.22 4649.22 5394.55 5094.52 4946.74 2682.24 5928.32 5229.48 5475.7 4485.99 4016.18 5127.16 5435.74 4244.99 6050.81 5543.46 6185.89 3997.96 4750.17 4439.35 3460.94 3990.25 3691.0 4752.51 4236.14 4407.87 5282.51 4460.92 3797.33 5945.89 7256.35 4105.55 4800.69 6566.1 6065.22 4221.28 4456.39 4896.39 3633.79 5421.53 5480.83 5937.08 4607.85 6070.3 5233.29 4312.56 4612.06 5604.21 5204.04 4750.58 6667.68 5235.11 6622.11 5211.38 4590.55 6790.73 5920.32 4255.85 5097.69 3988.3 6543.13 5149.72 5464.25 5301.47 4617.55 5424.88 4062.5 5415.85 8659.64 5683.95 6027.62 5010.2 6123.03 5966.61 5711.11 4575.94 4938.72 3546.71 3374.08 5768.57 5564.23 5950.04 4231.83 5687.85 2435.33 6401.43 5020.71 2681.29 5094.48 3872.61 4238.4 4135.62 4318.48 6132.95 5534.94 4860.33 7644.38 4051.34 6101.92 3627.55 4635.6 4256.67 3457.48 5166.79 3931.07 3405.98 5417.15 3688.16 4681.72 4945.39 5996.33 3950.63 5415.19 4612.62 3619.07 5526.75 4275.57 6385.23 5327.45 5560.26 2614.4 6363.92 6205.93 4923.24 5830.72 6184.4 3758.07 3828.81 4373.45 4082.57 5733.62 5169.9 3004.16 4767.78 5235.17 4779.5 4042.28 4421.12 4340.76 5254.49 4303.19 5514.84 5784.3 4256.57 3914.2 4135.08 5620.74 4778.82 5467.84 5053.95 5926.11 5767.9 5089.62 6515.8 5869.4 4741.26 3701.16 4186.6 5895.77 4732.09 6136.49 4356.25 4216.95 5776.96 4209.49 5742.74 5486.48 4244.21 4947.24 3645.12 3875.05 6200.54 5148.58 4199.45 5469.13 4233.8 5765.42 4997.83 4893.49 5325.44 5021.88 5956.65 4498.25 4188.87 3735.24 6574.95 4074.48 4558.47 5731.57 5997.88 5839.71 5576.92 6408.83 5266.22 3930.79 5226.97 3685.13 3312.06 6004.68 3361.26 6799.4 6239.84 5865.39 4427.28 6079.11 3082.32 6430.39 7440.72 3949.6 5703.6 6326.18 5661.62 6631.19 6648.68 4467.04 4713.74 5626.61 5817.25 2983.99 4084.49 5061.98 6632.99 4537.6 4419.61 7177.44 4563.46 5309.98 6553.94 5255.18 5460.65 5652.0 5463.41 5225.33 4929.75 4435.36 6045.22 6649.96 5134.39 3532.3 5769.98 5442.32 6088.68 2221.99 4643.56 3580.58 4863.01 5356.79 5657.36 6124.08 3619.79 5029.47 6306.21 5266.01 5253.37 2040.66 7016.27 3685.65 3876.21 4916.22 6022.7 4940.84 5750.07 4809.67 4757.74 6045.67 3946.28 3821.94 5439.9 5367.73 3540.11 3456.47 4652.01 7234.66 6599.66 4055.54 4886.12 6419.12 4976.12 6098.95 5453.98 3991.42 4388.63 5102.75 4597.29 4200.09 5931.77 5151.21 6333.29 4477.04 3886.68 5703.74 5662.55 5737.92 4360.23 5365.24 5293.51 4004.35 4763.96 5754.18 5180.76 3418.99 4480.95 5278.36 4409.63 5521.25 3661.9 5370.85 5949.46 3658.37 3178.54 5376.71 4448.13 5070.29 4807.28 4867.08 4266.03 5280.69 4220.03 6923.84 5407.78 5449.46 6179.96 6113.54 5147.36 6260.79 3963.76 5528.53 6799.88 3062.43 5726.66 5426.78 2967.38 4159.35 6477.91 4237.98 6439.37 4614.3 5580.92 5973.33 3583.21 5067.46 2511.46 4011.37 2775.69 4785.25 6519.43 5876.64 5424.46 4857.84 2978.76 4908.49 4962.21 4858.44 5884.9 3468.42 4673.35 5689.26 4992.42 5297.19 4351.38 4833.46 5933.7 7248.4 5280.12 5984.81 3498.16 4409.27 4640.06 5471.74 3548.39 5421.64 3673.28 4858.51 4207.54 5625.65 4301.61 6107.89 4817.16 4446.84 5660.55 5148.08 4834.87 3672.21 5760.22 5938.17 4795.43 5398.64 5097.95 6817.57 4693.52 3614.96 6853.04 4745.43 5831.96 4747.55 3056.7 3755.95 6234.32 4586.19 4446.06 3450.93 5008.63 5132.68 6595.03 4993.35 6218.95 5222.16 5107.23 5136.08 5558.68 3776.94 4765.02 4010.57 5629.39 2684.03 6157.04 4768.61 2261.36 5075.55 5506.19 6719.94 5227.59 6166.29 5453.6 5703.07 5294.77 4662.43 4709.05 4630.82 4043.66 4813.08 5860.67 4540.86 5990.52 4835.83 5604.35 6316.56 4332.87 3091.67 6420.81 4081.97 4715.58 5401.99 5151.52 5369.08 4347.74 5291.9 4009.62 2081.58 6505.78 5461.55 6865.76 6449.64 6464.8 4684.44 4749.59 5799.69 5571.72 3809.69 4771.13 3208.96 7051.9 4184.23 5550.75 6834.41 6226.14 5466.33 4444.97 3000.29 5721.05 4247.69 4514.39 4588.99 4321.21 4344.34 4928.27 3583.49 5052.84 3375.28 4366.74 5297.16 3184.64 5206.33 5530.49 5653.03 3718.69 4514.79 2216.82 4509.89 6752.75 5269.38 5607.3 5108.06 3573.73 2928.82 4222.4 4000.43 4568.41 3420.08 4912.04 4539.07 5464.68 5591.76 4585.31 6625.18 5323.91 4270.74 5097.45 6293.89 4558.15 5737.75 2761.07 4983.39 5366.52 4690.55 5533.72 5533.42 4802.32 3678.08 4599.38 5246.47 4187.31 6191.29 4522.21 3240.51 7422.36 5161.01 4298.15 4950.67 4628.4 5832.37 6051.83 4642.93 5409.63 4263.16 3077.84 6024.75 6109.49 5567.93 5332.65 3764.1 6451.33 5413.31 3012.99 6400.08 4743.59 5208.14 3317.83 4450.7 3763.05 5092.24 5549.49 3101.75 4518.04 4766.06 4874.18 5435.19 3298.2 4270.15 4953.1 4093.99 3940.49 4406.05 4680.94 5876.72 5236.43 5285.07 4608.41 4144.57 4187.94 5980.59 3796.15 4801.8 7216.98 5271.02 4209.31 5718.28 6242.79 5950.45 5713.03 5849.65 5134.67 4165.21 4215.0 4936.96 4481.76 5452.78 5065.26 4304.41 6192.0 4940.28 5885.28 3004.34 3022.6 4811.76 4914.45 4698.87 4661.03 3624.7 5262.35 4691.91 2685.81 4475.83 4510.8 5889.35 5010.04 4394.56 4570.98 4275.07 5825.38 4185.61 4047.87 5742.47 3778.02 6552.21 5417.8 5146.37 7132.12 4836.16 5518.57 5151.11 5463.48 5730.33 5545.46 4527.99 4376.7 5190.61 8325.01 3764.06 4440.81 5941.9 3973.12 5434.47 6642.76 5829.22 4497.78 4243.79 5987.42 5433.65 4442.22 4008.15 4887.76 4669.06 4811.32 4286.49 6184.88 5829.32 4396.25 5551.95 3918.87 2275.45 5423.42 6605.86 4383.56 5012.5 3562.79 7093.13 5818.95 4516.53 3604.14 4452.54 5089.1 2711.19 5828.35 4028.32 4099.92 4884.59 3858.06 4680.14 4511.7 4083.79 5263.27 6300.92 5021.77 5599.29 6038.68 5046.12 4807.4 7013.17 3805.67 4601.74 6506.86 5088.57 5580.34 3852.6 5775.31 4706.5 4603.5 4647.67 5375.12 4356.36 4892.44 5578.94 7610.49 4286.17 6579.31 5323.55 5375.1 4172.6 5313.12 5351.56 3984.88 5160.59 4732.09 4320.42 4255.34 5064.79 5480.3 7509.24 4146.81 5896.26 5388.78 6101.13 4573.72 5099.21 4917.99 5636.4 4367.78 4350.12 5227.02 5670.0 4232.16 5300.96 4344.51 5680.94 3781.77 5581.55 5193.01 4543.1 3474.5 6550.44 3860.83 5732.27 4523.39 5278.56 5146.37 6917.62 4013.38 5631.14 4343.78 5811.18 5263.3 4909.65 6523.86 7693.4 4326.48 4437.07 3449.37 5491.9 6405.0 4659.16 5789.55 4633.05 4901.2 5711.62 4798.17 4990.79 5166.79 6479.39 2895.63 4122.92 4997.91 5079.22 5381.54 5810.77 4714.83 5474.15 7519.2 6355.68 4478.6 3953.55 4304.63 4469.54 4314.56 4173.54 3928.53 5606.51 5740.65 3834.47 6349.67 6329.53 4590.01 6101.86 5993.0 4803.57 5966.42 4110.59 3332.49 5354.66 4214.44 5378.23 4787.97 3746.36 6789.23 3989.7 4777.03 3684.56 4246.61 6028.09 5452.36 3804.5 6486.37 5498.42 3344.57 5318.53 5220.76 4281.98 7165.9 5344.83 7046.11 3427.63 4863.97 6342.48 5756.75 4587.67 5599.7 4163.74 6969.28 3665.95 5698.96 4095.75 3603.51 4298.45 5222.51 6609.84 5135.96 3834.43 5658.37 4707.06 6074.94 5491.37 4250.88 3783.54 6348.03 3475.67 4792.39 7038.89 3863.67 4814.12 5067.56 6137.8 2735.53 3352.35 5116.6 3747.03 2783.85 4356.49 4526.81 3994.07 4219.94 5907.46 6740.71 4264.91 5399.29 5971.22 4909.31 6522.59 6602.43 3568.28 5425.98 5996.66 4405.42 2995.67 3598.08 4599.81 5698.23 7300.58 3608.06 6633.61 5217.95 5484.36 4277.24 4063.9 5291.05 5161.1 4619.2 5166.41 5067.56 2596.96 5701.75 4350.15 4139.3 6541.45 4227.41 4750.49 5078.31 5391.48 4923.43 5131.15 4847.14 3950.27 5116.66 3566.79 5374.67 4981.43 4215.2 5069.89 4157.29 6813.72 5327.75 4609.02 4896.65 4638.18 4196.37 6448.66 4453.97 6945.98 5138.2 5783.48 4701.5 4449.98 4504.35 4771.65 4840.44 5093.82 5951.81 3924.14 6918.35 4296.69 6238.32 3319.67 6471.42 5283.8 4076.59 4428.14 5164.1 6464.15 4972.17 6685.4 5699.53 4222.77 6332.01 5268.38 5527.23 4805.33 5980.95 6193.08 6069.3 5887.01 5168.35 5388.39 3728.18 5335.47 5633.61 5048.19 6799.23 4888.27 4592.15 6487.56 4854.11 4998.22 5533.19 5417.21 5583.61 6063.64 7382.3 4022.56 5522.21 3772.3 4855.01 4923.57 3340.09 6061.63 2279.05 4867.7 4829.35 4075.28 8137.11 5484.32 6650.77 4067.96 7104.73 6162.3 3272.75 4264.54 3516.27 4263.78 4643.9 5228.75 6047.14 5009.83 5210.38 5717.8 3629.44 5003.78 3299.24 6246.56 4741.28 4061.6 2603.64 5107.0 6212.15 6502.97 4783.07 4946.23 6083.28 5211.6 5806.31 3556.79 5456.71 3503.41 7317.04 6412.67 7001.83 5012.97 5589.37 5439.49 6639.64 5212.43 5454.12 4834.3 6804.79 5642.35 6372.13 5369.5 5404.01 6016.19 4124.49 4479.11 3230.13 5714.25 5325.96 4850.06 5016.02 7044.29 4234.18 4920.21 4049.16 7085.01 3936.95 6153.94 6836.82 3862.77 4631.99 4740.98 3185.39 5128.77 7122.87 5797.36 4243.26 4153.84 5119.86 5089.26 5084.17 4901.44 3776.8 5096.43 6156.21 6104.26 4653.83 6171.71 4986.71 3628.89 6589.82 4668.88 5027.43 5522.75 5867.64 6208.9 6059.93 5602.53 5073.02 6545.43 6760.92 4989.2 4711.04 7144.05 4506.18 4824.12 2970.9 6542.5 4383.47 5971.21 5261.19 3104.96 7043.44 4263.65 6106.43 4807.35 5467.63 5666.95 4642.2 4811.22 3683.86 4918.76 5293.75 4208.41 5826.78 5473.72 2856.55 4553.68 3758.22 4757.2 4852.58 3205.68 5561.74 6100.73 4788.08 4745.79 5470.04 4908.75 3971.08 6204.65 4482.9 4593.7 4036.91 4349.13 5110.11 6379.14 3687.65 4887.52 5478.95 6348.54 3851.85 4066.57 4206.98 5156.76 6357.47 6101.57 4891.38 5535.91 2949.12 5955.86 6176.67 4533.37 4848.46 5412.24 2779.99 5887.38 4581.37 6942.34 5851.61 5478.11 5526.31 5030.15 3858.17 3644.78 3477.1 4078.93 5934.82 4501.78 4922.49 3572.94 5001.58 4820.17 4729.42 5244.98 3886.72 5415.45 6592.93 6350.71 6436.74 2460.79 5096.24 3908.98 6328.42 7307.21 3381.82 3619.72 4438.58 4646.51 4565.93 7107.63 4831.93 5788.97 3472.91 4023.93 5868.89 3274.85 5007.21 4099.26 5206.47 4580.06 4834.39 5493.89 5262.47 3512.94 3831.52 4991.35 4587.7 4258.98 6761.81 3903.91 4568.64 3919.62 4127.53 5210.75 4474.83 6555.44 5658.14 4508.18 6214.73 2205.51 5361.87 5175.89 3894.64 4268.19 4374.74 4532.7 4504.86 5975.23 4473.29 4198.94 4211.82 6556.26 5684.25 5438.92 6550.4 3766.69 4891.67 6818.91 5216.26 3503.65 3634.5 6631.28 6571.31 4392.65 6318.23 4058.87 5174.75 5932.07 4984.46 5948.71 4793.65 3856.53 5460.89 4532.89 5260.85 5742.09 2884.65 5807.46 4648.21 4393.16 3658.05 3311.29 4549.69 6423.81 6192.77 4312.15 6418.11 6015.02 5244.22 5585.14 7039.98 6456.58 4159.81 4960.64 5792.98 4385.81 4034.05 5690.96 5798.38 3862.91 4456.11 5366.11 3419.87 5039.12 4824.81 5769.14 5944.3 3563.14 5135.5 5347.9 5851.63 4504.52 5212.92 5615.84 4464.73 4928.85 6440.38 5556.0 5545.59 5494.28 5610.53 5755.15 4835.97 3926.11 4057.17 7066.96 4467.0 4994.65 5196.92 3787.08 5644.81 5334.36 4728.55 4929.6 5750.35 4489.99 4548.45 4658.11 4551.26 5730.61 7124.45 6358.93 5064.67 3703.49 5232.85 4062.56 3717.47 6200.63 6816.66 3217.67 5079.64 6163.54 5212.37 6003.78 2628.22 5058.51 4244.49 5036.98 5513.8 4521.75 4027.63 5350.88 5420.67 6413.15 6103.11 5048.55 6459.51 4024.31 5844.72 3992.97 5989.05 6040.74 4054.22 7228.94 5393.65 4961.99 6551.93 4595.12 3110.13 6484.43 4625.67 3485.54 4458.64 4583.52 3657.69 3492.83 6280.13 3684.15 5832.29 2606.51 4438.76 6006.89 3814.65 3965.3 5372.82 4983.3 7778.01 5127.82 5124.17 5805.1 4125.9 4064.58 4234.88 4384.28 4456.26 5113.6 4810.98 5091.22 6282.38 5640.72 5657.55 5727.79 5188.82 5043.14 4717.73 5072.5 3904.07 5748.9 3663.0 4954.81 3742.31 6304.49 5134.72 4608.34 6419.64 5464.83 2781.96 4431.23 5917.34 5601.55 4462.87 6545.99 5630.9 4554.68 4368.28 4692.32 4945.0 3127.83 4212.15 5114.07 4385.49 4263.18 7142.95 4383.68 6618.21 2617.39 5144.44 4051.18 5969.37 5034.69 4509.46 996.652 3538.53 4680.69 6500.49 5965.58 3352.34 4901.29 4050.03 4775.04 5188.53 4120.07 4882.66 3429.57 5569.2 5410.33 4642.74 6735.97 5305.59 5416.45 4330.58 5754.6 4955.16 3288.01 4904.51 4147.31 2202.77 5751.15 5950.88 4149.55 4441.22 5853.89 3380.69 4140.4 4386.8 5446.4 4725.01 5966.75 5510.9 4505.28 4883.63 4971.29 5510.45 4730.14 3994.39 6119.99 4618.73 4128.1 4446.58 4402.17 5401.4 5053.15 5910.86 6239.68 7320.78 4834.44 5782.43 4027.33 3873.92 5026.76 5023.41 4092.07 4546.44 4224.3 4184.21 4700.07 5273.37 4732.37 4985.3 5713.36 4749.18 5553.94 4546.96 5424.55 4921.1 3814.16 5695.79 3622.8 5414.58 5577.41 5740.98 4346.07 4013.86 4177.47 4218.16 2918.64 4140.92 4512.07 5984.8 5236.24 4585.04 5678.58 6570.35 4242.63 3269.54 4559.74 5836.26 6666.67 6063.44 4583.94 5046.31 4928.35 1937.5 3844.54 5849.53 4651.99 4420.11 5863.0 6127.39 4972.18 4607.18 4124.76 7200.89 4813.33 4952.52 3840.21 6746.66 4954.76 3908.56 5244.78 3636.15 6114.89 5135.63 6384.7 4355.83 6870.97 5351.86 6056.87 5474.01 6201.86 7554.58 5166.89 3639.44 5491.63 5725.37 3868.62 5138.33 3743.76 3425.69 6711.21 4236.86 5393.76 4941.02 3864.92 6010.59 2955.36 3668.93 4009.24 7541.76 4775.49 4681.29 3220.29 3845.9 4439.71 5667.51 4708.31 4198.9 5431.29 4833.67 5325.91 4213.05 5157.38 6203.03 5235.87 6089.45 5810.17 4966.07 4400.14 3669.32 4704.92 4316.0 4287.25 4392.75 4271.07 4420.6 5287.25 4770.51 4184.47 6511.37 4012.92 5759.79 4598.54 5218.42 4933.49 6139.64 4896.43 5463.06 4639.8 5260.52 3185.09 6102.49 5114.23 5495.0 7407.91 6015.22 4454.74 2904.46 4826.52 5120.92 4337.32 5241.75 4731.53 3763.9 4788.7 5084.5 5640.12 5329.76 3899.7 2403.72 5134.33 4147.49 4802.98 4833.55 4081.34 3646.95 7224.99 6334.53 4844.83 4749.96 5377.37 5652.87 5483.7 5018.69 3152.86 5952.38 3896.27 5807.52 5963.36 5230.02 5307.35 4342.18 5169.48 6016.08 4731.21 3124.7 6064.71 6102.98 6060.17 5153.18 4763.4 5902.67 5454.11 3779.45 5806.61 4983.1 3682.35 7123.04 3756.96 5906.57 4932.29 4990.23 3784.94 5499.59 3125.13 5749.6 4141.21 4174.44 4564.41 6331.74 5951.86 4252.18 4659.88 3791.41 5853.12 5702.4 5069.9 5473.89 3673.6 3306.84 5265.21 4657.24 5866.42 4762.1 3987.69 6502.99 6219.34 4191.01 4475.38 4589.06 4920.88 5890.25 4216.44 3999.5 5034.05 4816.51 5345.73 4770.63 3990.94 4756.8 5477.8 4462.35 3986.41 4241.68 3469.18 2945.34 4489.29 4301.93 5064.23 6061.85 5512.44 6449.06 4924.07 4685.4 6240.42 5146.0 5721.14 4577.73 4987.28 4918.64 6638.25 5078.59 4759.99 2646.13 5419.57 5162.67 5760.98 4705.68 5469.35 5384.86 4019.34 4658.24 5869.67 4311.48 4899.73 5457.66 6394.19 5973.89 5366.22 6193.73 5518.11 5087.14 3742.11 5712.35 5701.52 4743.9 6776.22 5321.17 3719.11 4467.13 3877.8 6273.6 5136.87 5024.32 4708.17 2741.2 5790.42 5784.37 3142.09 5591.77 5182.13 6110.48 6245.52 3954.77 6793.1 6016.87 4506.66 6715.73 5209.55 5426.4 5763.05 5129.68 5357.39 5076.84 5247.01 4208.37 4841.7 5685.74 952.938 4678.7 3450.07 6215.87 5191.26 6060.06 5544.27 3484.81 5308.33 4666.12 6023.07 5674.63 5340.05 5995.4 5322.11 5700.79 6710.14 4426.02 4711.15 5188.22 4841.23 2804.54 4357.11 5005.6 4176.32 6069.78 5532.75 6949.65 4095.83 3372.95 5676.61 5846.95 5268.15 5819.0 6347.72 3460.93 3200.6 4629.02 5914.5 6006.16 4288.45 5407.96 6206.98 6562.03 4815.47 4368.12 4365.58 5214.4 4636.53 3629.49 5766.05 5117.64 3835.81 4869.48 3623.19 4906.11 4387.39 4564.1 5825.55 5509.51 4848.14 3199.4 4316.5 5254.24 4192.21 3597.43 5144.56 4158.91 5311.55 3360.86 4869.25 5545.21 4333.87 5684.05 3667.93 5638.7 5813.79 4644.88 5293.13 7350.26 3768.46 5167.53 5003.3 4168.52 5800.81 5106.46 4068.31 5166.05 5077.29 5515.73 4850.5 5866.91 6405.69 2820.07 5679.74 4825.73 5288.33 6296.54 5797.21 6019.35 6740.35 6028.63 4550.92 5146.1 6485.77 3869.39 5960.5 5393.43 6896.55 4685.65 5377.01 6470.23 6506.63 4140.04 3495.3 4697.49 5735.08 4726.2 4750.81 3825.48 3810.68 4196.62 2809.19 4916.7 5486.89 7208.19 4549.51 3587.93 4975.85 5695.25 5323.95 5716.42 5701.63 4620.95 5368.93 4488.39 5124.86 4927.73 4602.57 3565.32 4608.62 4071.75 4626.72 5131.77 5549.71 4410.82 6443.99 3889.98 5193.58 5399.43 5695.44 3422.21 3916.42 5429.3 5510.96 6653.07 4745.16 4697.91 4584.81 5071.98 5719.79 4371.08 7261.51 4968.14 4914.03 5086.29 5527.13 5139.18 5551.43 3034.16 5049.99 4201.03 5001.87 4493.79 4279.44 4899.19 5058.34 4028.22 5575.11 5487.63 3852.82 4507.36 7145.73 5403.97 4795.08 6562.92 5501.73 3671.06 3612.44 7035.54 5233.76 4683.28 4217.36 6549.8 4851.18 4165.36 4871.77 5811.26 5062.77 4884.93 6075.99 5262.79 5927.2 4419.79 5407.69 5152.78 4117.9 4753.76 4781.9 4638.09 4441.91 5330.26 5939.22 4668.8 5125.17 4859.01 5524.45 7133.44 3953.26 4474.39 5459.92 4658.59 6478.35 5453.77 4104.04 5589.53 5593.79 5025.42 5196.08 4517.29 4495.75 4849.5 6171.01 5796.26 4603.04 4870.94 5271.88 6121.56 7168.2 3763.85 3419.07 5710.33 5344.44 6432.8 3186.07 4369.86 4967.51 5173.82 7212.97 5490.64 5034.34 3769.2 4507.46 5036.14 5603.68 4944.51 5610.95 5532.72 3220.8 5179.17 5579.39 5270.51 5148.1 5490.75 5224.64 5949.73 4312.48 5783.94 6370.33 4278.57 5081.08 6318.25 6864.06 6008.81 4932.56 5192.49 3487.31 6643.4 3918.94 4674.9 5461.72 6599.28 6224.85 4556.19 5368.66 5648.78 6875.73 5226.42 4697.24 4983.43 5117.52 6311.89 6734.39 5942.45 4150.76 5005.72 5368.52 5155.28 5388.73 5205.38 4764.83 4600.71 3957.38 4494.15 5035.71 4710.88 5300.17 4057.4 5534.23 6025.77 6815.96 5339.6 5828.25 4725.11 4215.05 4271.93 4604.1 5076.11 5990.75 5600.21 5467.51 4625.53 4096.47 5114.67 5353.66 2638.82 5030.33 5234.2 4965.24 6379.38 6257.79 5353.23 6229.83 4468.26 5578.18 5293.37 5933.54 5559.79 5879.24 4571.74 4096.86 3622.48 5001.51 5385.86 5115.42 4082.4 5482.76 3745.02 3720.7 4211.36 5698.53 3604.31 4450.49 3468.45 5635.32 4526.34 4316.45 5409.08 5042.75 4598.92 5241.22 6647.08 4979.52 3422.29 4407.79 5214.63 3495.68 3990.96 5352.24 7362.42 4202.77 5836.14 5473.05 4373.2 5537.34 5884.99 5726.42 7025.09 4433.12 3392.26 2549.95 4361.24 5138.93 6406.8 7086.69 6170.9 5833.78 4436.48 6081.3 5615.35 3967.76 6213.24 5987.88 3579.59 4228.53 6123.46 6142.88 5111.26 4574.54 4949.55 3132.34 1969.87 4841.28 5507.38 6889.5 4416.87 4052.43 4896.67 3934.11 5158.44 4466.22 6153.71 5917.08 5483.37 3626.86 6371.96 5322.07 5770.07 5101.6 4282.11 6589.13 2347.41 4542.16 2030.03 3543.37 5628.97 5527.27 5104.39 4612.13 5846.6 5327.05 5438.55 4434.65 5977.66 4523.81 5106.33 5198.94 4028.35 5464.05 2980.31 3148.79 5740.78 4796.12 5997.91 4742.82 6791.86 4209.0 4930.72 5728.58 4887.73 6297.99 5378.24 3856.73 5817.74 5887.71 5661.6 4827.61 5285.75 5385.03 5481.64 5673.75 5360.67 5968.54 6263.3 4501.05 4537.03 6548.29 4114.2 4326.06 5034.46 5757.29 5793.12 5469.17 5061.75 3769.24 6022.78 4087.32 6647.85 2569.12 4161.32 5161.74 7336.37 5099.9 6945.69 5118.86 4183.4 4304.64 4733.79 4823.06 5758.98 5254.49 5288.64 6828.8 6883.86 3350.99 6161.94 4065.28 5057.59 4461.14 5285.6 5615.06 5490.54 5203.54 4047.95 6142.94 5001.69 6581.56 3980.46 5383.9 3798.09 3886.56 4496.51 4511.05 6561.94 5259.21 5418.12 5934.05 4714.66 6771.18 4984.17 4656.01 4037.86 5602.62 5714.51 4484.78 5157.73 5847.91 4934.66 4109.44 4903.84 4290.49 6688.53 5209.5 5065.74 5791.25 4873.23 6731.89 5410.6 5453.2 6348.93 6824.53 4332.64 5232.16 4422.23 4820.68 6031.22 5485.84 6424.77 5453.69 5918.95 4538.89 5689.56 6556.86 3242.31 6099.28 5372.25 3234.26 4169.15 4778.37 5134.17 4074.16 4904.35 5592.54 3247.97 5124.34 4904.37 4358.81 4651.64 5729.92 5016.46 6224.13 4761.84 3661.67 5517.65 4009.68 3303.49 4622.73 5256.75 6351.89 5932.28 2960.5 4975.32 4298.7 3902.48 6030.39 4905.53 3799.01 7392.65 5319.1 3757.23 4181.93 6570.43 3820.19 4979.5 4745.37 5939.29 5418.98 5575.11 4052.49 5061.74 5326.03 6189.67 4948.96 5256.82 4013.86 4061.87 5165.31 4288.5 5715.51 3721.69 3456.3 6074.39 5317.83 5092.93 4256.08 5881.93 2803.01 4444.0 6182.19 5327.39 5781.62 4981.81 4138.59 4970.55 4938.33 4621.33 4541.22 4946.08 3539.68 4984.01 6217.33 4557.1 6270.59 5927.1 6175.27 5876.51 4103.76 2932.52 4733.41 5264.83 3901.53 5136.51 6815.51 5313.86 4457.05 3989.26 3618.64 5703.84 4335.79 3530.82 5797.32 5432.04 3921.27 3702.45 5265.63 4898.29 4431.06 5730.2 4830.13 3494.16 5370.9 4529.77 4325.13 6172.27 5390.33 5078.73 5278.54 5729.0 5192.92 5275.57 4179.87 4786.66 5891.25 5370.1 5129.4 5114.51 4655.37 5585.25 5023.61 4672.86 6530.78 5560.23 3043.77 5237.55 3909.94 5088.64 6589.8 6920.92 3729.16 3783.36 3038.91 3922.28 4571.57 3445.92 5236.69 4586.82 6026.04 6200.05 5859.17 4034.41 5522.34 5771.98 4420.35 5717.45 5117.83 5268.27 4645.93 5448.64 4585.37 6417.61 5395.12 5783.69 5350.9 3483.61 4460.89 4399.52 4157.1 4554.24 3939.96 5910.66 7415.84 4637.3 5141.03 4840.44 8123.59 5765.14 4767.54 5121.08 2927.84 4696.03 6177.68 4605.39 2848.44 6045.26 6500.45 4907.55 4094.63 4286.61 4603.66 4969.68 6636.43 5431.14 6298.8 3689.24 5178.07 5189.91 5777.26 4171.02 7012.36 5028.06 4002.99 4886.99 5159.67 3161.1 5764.52 5684.88 6523.78 4645.86 4045.67 5620.88 4941.52 5900.0 4262.74 6241.77 3783.79 5317.19 4248.14 5279.19 4016.6 5821.49 7050.08 5580.44 5998.13 5095.52 4746.15 3720.38 4758.84 4731.37 3976.0 4068.41 6463.71 5059.37 5783.38 4139.39 6264.03 3562.8 4151.74 5192.82 4174.22 3573.84 4067.89 6294.09 5131.07 4121.07 5524.28 3133.28 5731.43 6353.81 3518.14 4150.44 5044.68 2649.69 5899.78 5000.74 5772.57 4813.81 5244.95 4634.25 5901.8 6351.48 3830.7 6210.0 5432.4 4262.52 6738.9 5992.06 8052.53 4867.12 6044.01 6520.19 1458.87 5734.07 3997.68 6033.28 4819.83 4801.16 5071.38 5616.66 5688.77 5368.28 4698.7 6229.64 4220.43 6263.87 5743.8 6666.34 5084.76 6605.11 4757.87 3557.46 5971.95 5652.73 3979.46 6321.97 5151.19 6509.54 6119.0 3792.06 5128.59 4293.3 5587.3 3572.73 4864.38 3770.22 4390.64 5150.84 4608.01 5087.97 6005.95 4308.49 4930.17 4581.1 4745.44 4085.96 5762.82 7360.12 6223.98 5462.6 5617.29 3035.06 4262.19 4597.88 4878.93 6275.25 6892.33 4505.3 4452.36 4491.26 4511.34 4832.21 5009.21 4742.35 5394.79 5645.54 5264.08 4526.87 4691.01 4227.66 4594.89 5245.95 5821.42 4515.02 3463.53 6126.03 2970.24 4197.87 5105.54 5462.1 6032.45 3414.67 5444.36 4026.03 6908.32 3467.11 4817.75 6153.26 5637.53 3882.37 4095.4 5188.57 3873.79 5357.33 5252.37 4499.54 5037.58 7430.48 5640.67 5545.68 6080.69 4970.12 4967.93 6369.66 5973.57 5922.62 6241.48 5125.45 5957.82 6286.27 6327.54 5507.07 4802.36 5327.71 5466.13 5257.38 5075.23 4975.56 7282.36 3826.01 4645.91 5581.01 6834.92 6379.33 5130.57 5090.48 5402.45 3985.93 6412.84 6071.59 2589.19 6079.55 5485.61 4993.49 5310.33 6583.37 3688.83 3402.44 4848.98 4491.96 5184.98 4467.51 5339.82 4519.03 5460.57 5110.27 5703.34 4612.68 6668.98 6649.52 4232.33 4939.56 4747.68 5770.92 3093.38 4845.91 2002.78 5631.32 6322.0 5793.14 4609.65 5704.61 5410.73 4379.91 4574.03 5290.37 5850.38 7066.26 4730.97 3677.85 5214.71 4677.84 4811.11 4924.52 4866.8 6044.69 5658.05 6593.1 4000.51 6033.93 5011.37 2827.92 4441.44 4232.44 5336.61 5563.09 4848.15 4439.09 5523.81 4718.61 6697.45 5717.67 5515.59 3224.81 3775.38 4046.22 6457.89 4844.2 6572.17 3751.73 5555.89 4766.47 4871.1 5678.08 5872.45 4414.09 5191.29 3784.68 4188.16 3717.22 4654.92 2943.17 5286.55 4880.78 4322.56 5509.09 5625.02 5212.05 4829.77 3928.99 4444.92 6959.88 4125.75 5749.53 5247.73 5034.02 5582.28 5945.25 5181.31 3856.4 4696.06 4137.16 4937.36 5308.4 6581.13 4569.32 5537.61 6084.88 4397.06 4199.44 4053.12 4479.5 6261.67 3435.13 5065.78 4431.46 4521.42 3207.84 3977.98 6043.34 4128.93 4959.72 4712.17 3808.04 4723.71 4461.67 4405.61 6126.5 4034.88 6007.1 6345.2 5488.96 5128.03 3720.92 5087.3 4942.63 6139.74 4975.57 3057.3 6150.31 5873.62 4996.91 3920.44 5379.52 3768.62 5314.67 5563.47 5651.46 4066.36 3162.27 5516.37 5092.44 5432.2 4612.4 3312.3 4746.19 6381.58 3282.57 4798.13 5648.59 4630.5 6296.36 4432.32 4451.76 7885.41 5782.25 4104.97 4575.72 5114.61 6118.13 3374.62 4926.62 3917.09 6009.93 4083.1 5270.1 5130.56 4947.64 6305.9 6649.21 3470.69 4859.95 4132.08 5522.18 5223.1 3873.72 4592.49 3625.98 5479.86 6474.5 4702.32 4763.04 5971.9 3746.62 4532.67 4876.37 4769.62 5260.13 4649.5 4810.74 5985.75 5475.83 6189.29 5984.55 5672.46 5803.3 3228.27 4721.98 5252.82 3543.98 5056.26 5878.55 4014.44 6604.72 6002.77 3794.47 4610.55 4967.02 4614.49 5400.69 4462.5 5573.31 5004.68 4023.88 5348.11 5428.24 5108.84 3511.5 4520.14 5067.92 5357.14 3188.21 5919.27 4793.06 6637.38 6188.33 6111.23 6916.18 5786.06 4137.41 3868.69 5447.74 4450.51 6033.72 3692.99 3851.47 4966.74 4959.94 1635.31 5639.4 6185.73 4083.24 6520.96 3771.91 5217.62 6178.19 4616.81 5715.25 5212.2 4611.21 5108.42 3354.94 4404.87 5237.27 5767.65 4750.76 4907.03 5497.27 4081.77 4948.21 4987.01 2181.29 4420.3 6332.64 6492.44 4613.32 3482.73 3996.93 4957.99 4063.26 4997.89 4542.62 5093.28 6131.52 6009.88 4699.77 4850.49 4981.55 5144.23 6188.62 6153.07 4414.06 5944.52 4413.56 5050.2 2513.38 5316.05 4908.32 3995.08 5019.84 3900.93 5784.38 4149.17 4329.8 5728.27 3074.49 5202.33 3956.24 7558.99 3393.59 4142.1 5043.14 5333.04 5445.91 4521.99 4812.59 6842.54 7115.67 5675.45 3361.11 6038.56 2807.46 5599.16 4179.8 3488.34 4577.98 5658.35 5886.81 4487.51 4582.12 4295.25 7394.47 4729.45 4850.95 5374.09 6271.22 3421.81 5378.75 3920.64 6186.24 5822.7 3780.07 5466.49 4038.17 5007.41 4907.48 6213.74 2329.93 4369.87 6938.87 5412.07 5512.57 4806.99 4813.55 5856.43 3839.0 3465.03 5349.85 5799.86 5172.1 4362.94 4469.82 6545.78 4870.14 2932.2 5105.72 5003.49 3964.03 4216.33 5832.72 5617.91 4721.2 4706.31 4202.12 2694.25 4735.99 4203.68 4739.56 5145.39 3352.46 6351.95 5195.09 5345.05 7679.2 4881.51 2626.41 4311.92 6729.99 5093.41 6842.35 5464.34 3621.63 4777.96 5801.89 5908.57 7296.47 5742.39 4821.41 4924.53 5616.11 4499.52 3874.12 4028.13 4457.73 6476.35 6260.58 4067.24 3053.19 6571.26 5580.95 6598.99 3549.92 4032.06 5246.81 5089.1 5888.95 5394.78 3463.34 5122.38 2853.68 5262.85 4998.37 5329.84 6559.82 3879.83 6565.95 5043.34 4246.24 6805.02 5354.48 5640.63 4900.26 6261.13 4167.55 4720.34 5244.47 4731.16 5510.89 6470.87 4495.33 5282.67 4159.89 5178.55 5146.69 6203.24 6818.23 4488.41 6679.12 5652.19 5806.74 6578.62 6284.12 4796.04 5229.56 6011.4 4672.34 6052.22 5376.41 5003.63 4695.7 4944.08 4082.01 5269.39 4305.35 5210.22 2451.27 3903.9 4444.95 5161.02 3124.49 6265.48 5003.81 6262.18 3818.37 4701.03 6225.05 5434.04 5200.1 3997.52 4444.54 5779.9 4909.74 5310.33 5299.03 6664.54 3922.98 5161.73 5259.48 5254.93 4803.4 6833.5 6608.94 2613.78 4780.16 3834.01 5738.37 4433.23 4813.24 5759.19 3113.64 5847.27 4490.2 4304.75 5480.86 6139.9 4720.22 4313.38 5827.3 5250.56 3633.58 2468.16 6294.14 4339.97 5203.75 5169.09 4691.15 2459.88 4210.24 5470.67 5901.71 5225.11 5342.9 5252.22 5733.12 4962.35 6436.29 5402.81 4600.81 4919.13 4124.33 5168.97 5783.88 5002.38 6705.93 4865.11 5449.09 5502.14 4605.61 4465.56 4131.08 5386.95 5747.9 3864.19 4287.93 5332.11 5315.71 6158.93 5081.65 4823.14 5438.5 4621.32 5699.4 3878.8 4698.94 3948.21 4286.84 5669.15 5296.05 5263.86 3330.85 5056.32 5533.52 4060.17 5410.33 4747.24 5302.53 4380.86 5576.16 5648.02 3308.75 4604.34 4439.17 5677.42 4929.35 5606.22 3943.77 5242.38 6081.35 5459.52 4609.98 5566.5 5663.36 4276.59 5579.04 5125.53 5994.21 5403.81 5082.25 6964.78 4374.05 5036.84 4565.36 5813.68 4025.08 4008.67 3618.53 4770.21 8013.28 3846.55 3796.73 5417.07 3082.16 5656.84 6789.66 4739.41 5312.2 4706.59 5734.84 3982.31 4950.07 4582.24 2832.83 4084.87 6036.99 3010.1 3825.98 4589.22 5087.03 4667.84 3906.41 5584.64 4123.08 4512.6 4260.38 4636.45 4932.27 5638.51 6793.49 3563.33 6060.19 5536.0 6786.37 4333.23 4328.76 5561.63 5940.5 4358.06 5093.51 5647.93 4280.92 6201.49 4696.92 5154.74 6437.99 6898.8 6540.57 4893.72 6004.72 4072.4 5373.78 5345.65 4489.18 5863.36 4632.75 5237.76 4994.98 6423.96 6058.13 5894.69 6988.4 6635.51 6051.35 4909.13 4287.61 3999.81 4867.13 4863.27 2701.42 5442.79 5051.39 6673.92 5151.68 4884.94 5362.15 4455.61 4738.72 4752.31 5240.97 5569.85 5405.6 3929.35 4884.93 4759.38 6960.97 4287.15 5282.51 5504.65 5669.41 5732.11 5040.9 5596.68 4868.66 4004.39 5159.9 5283.65 4644.68 2892.36 5981.54 5911.29 5416.41 4694.27 6760.64 2515.5 5177.88 5551.79 6981.47 3916.15 4474.96 4758.76 4790.63 5259.29 3584.05 4916.75 4818.53 5097.85 6189.04 6224.64 4221.03 3799.55 5082.66 4550.77 4337.93 3550.88 4345.51 4048.73 6223.33 3860.8 5145.13 3747.96 5611.29 4521.88 6568.45 5004.22 4601.54 7263.57 3832.09 5705.96 5267.65 5739.69 6632.04 5360.88 7360.62 4977.64 4985.45 4983.56 5699.51 2489.44 5499.37 4883.13 4836.76 4752.94 5551.09 3950.53 4501.1 5581.47 4384.91 6550.61 4987.01 4713.56 6094.34 6779.82 5543.67 6210.48 6377.45 4182.05 4502.12 3255.93 6853.07 6327.61 4633.59 5733.59 5575.8 5268.93 3695.72 6874.6 5106.9 5306.31 5523.96 4223.53 4733.37 4535.94 3037.72 4523.9 5126.08 5604.0 3760.4 4951.02 3919.47 4602.7 3783.35 4037.16 6395.63 4987.48 5943.61 4248.58 5479.17 5020.37 4542.25 4414.23 5233.88 4849.21 4785.55 3793.83 5245.4 6189.81 5367.05 4449.73 5647.11 4088.72 3945.62 3743.85 6236.46 5342.17 6379.3 5015.67 3795.63 5189.4 4576.71 6538.04 4894.15 6157.59 5201.3 5848.41 4090.28 4246.83 5438.6 7370.52 4726.5 5467.05 3724.23 5103.3 4963.88 5888.94 4727.98 4122.2 5175.88 4516.26 4790.16 3509.34 3647.26 3731.58 3166.37 5369.42 5207.08 5205.53 4714.52 4587.19 5543.05 6028.89 5333.16 4888.17 5755.98 5392.85 5077.2 4274.05 5275.27 4277.54 5529.09 4531.46 5925.82 5448.68 4739.5 4072.95 4491.62 3865.5 
SCALARS Velocity float 1
LOOKUP_TABLE default
1.19178 1.20187 1.19181 1.19492 1.19178 1.41106 1.29326 1.19178 1.19178 1.19178 1.19178 1.2963 1.19178 1.19178 1.4501 1.19178 1.19178 1.19178 1.19178 1.19178 1.19178 1.19178 1.19178 1.19178 1.19178 1.19178 1.19178 1.19178 1.19178 1.19178 1.19178 1.20678 1.19178 1.24651 1.19178 1.31881 1.23306 1.69505 1.19178 1.19187 1.19425 1.19177 1.19552 1.19223 1.1886 1.1925 1.1931 1.18881 1.19653 1.19248 1.19557 1.20135 1.2132 1.20486 1.21587 1.20979 1.21135 1.22788 1.25103 1.22014 1.20571 1.22676 1.19208 1.20851 1.20355 1.21225 1.21285 1.37742 1.2158 1.19178 1.19178 1.21848 1.24904 1.19177 1.2006 1.21267 1.62678 1.20478 1.1919 1.20198 1.24327 1.19244 1.19196 1.19914 1.21332 1.19982 1.19535 1.19795 1.189 1.19283 1.201 1.20177 1.21579 1.19139 1.19205 1.19174 1.1919 1.19081 1.19183 1.19499 1.19403 1.21257 1.20189 1.1832 1.21142 1.21238 1.22216 1.22638 1.21174 1.2238 1.2094 1.23776 1.2254 1.25015 1.19178 1.19178 1.28282 1.28201 1.20225 1.22276 1.19178 1.21718 1.22292 1.21392 1.22608 1.22657 1.22137 1.23539 1.22949 1.23117 1.20569 1.22237 1.20301 1.20944 1.17704 1.19096 1.34239 1.20742 1.19222 1.19138 1.19185 1.19361 1.19178 1.18345 1.20624 1.31991 1.19178 1.19185 1.19176 1.25481 1.19178 1.20806 1.33606 1.19178 1.19178 1.19178 1.19178 1.19178 1.19195 1.19178 1.19178 1.19178 1.27816 1.20679 1.18867 1.22756 1.84332 1.13199 1.25117 1.16561 1.18975 1.21415 1.19084 1.19521 1.1895 1.1909 1.18307 1.19178 1.4866 1.19178 1.50928 1.22728 1.1979 1.19177 1.20484 1.21903 1.2179 1.1967 1.1962 1.19041 1.19178 1.20627 1.20377 1.21454 1.20759 1.19178 1.19157 1.22562 1.22487 1.19178 1.19178 1.22138 1.20767 1.22195 1.21999 1.19517 1.22762 1.22262 1.20772 1.23422 1.23899 1.26039 1.24127 1.20931 1.20618 1.19486 1.19742 1.24604 1.24759 1.21551 1.2072 1.208 1.27445 1.22655 1.19178 1.22458 1.2111 1.2258 1.17762 1.22824 1.22714 1.22852 1.23317 1.20357 1.21349 1.43072 1.23548 1.17933 1.25529 1.18496 1.264 1.1916 1.22563 0.987942 1.22427 1.1999 1.1605 1.18321 1.22134 1.32951 1.0858 1.19335 1.19178 0.934369 1.29554 1.20549 1.19185 1.19163 1.19067 1.75328 1.20859 1.19287 1.19327 1.20015 1.19183 1.20948 1.21314 2.99806 1.58021 1.19503 1.18556 1.20513 4.6009 1.21199 1.67988 1.2276 1.06331 1.22463 1.15156 1.20364 1.2223 1.22693 1.18842 1.20093 1.23224 1.19185 1.23284 0.998969 1.22838 1.21257 1.36992 1.16928 1.19932 1.20071 1.20435 1.22135 1.21679 1.19558 1.18594 1.18263 1.19737 1.21695 1.21592 1.20765 1.19876 1.20349 1.18991 1.17028 1.23455 1.17478 1.2263 1.21342 1.19735 1.22016 1.23698 1.22226 1.22379 1.23389 1.23808 1.2201 1.24401 1.18951 1.23977 1.21219 1.20988 1.22268 1.21303 1.21809 1.23301 1.19177 1.17906 1.19178 1.22454 1.19178 1.20647 1.18076 1.21471 1.20106 1.20133 1.19178 1.24321 1.26278 1.22481 1.21768 1.23119 1.21892 1.24025 1.24521 1.19178 1.21458 1.19178 1.20562 1.20121 1.21624 1.21517 1.19395 1.22 1.22153 1.20789 1.19191 1.2101 1.19178 1.19178 1.19178 1.20773 1.21699 1.19178 1.19017 1.20911 1.19683 1.20385 1.20525 1.20119 1.21559 1.2274 1.2364 1.24671 1.22088 1.2167 1.21871 1.21385 1.22062 1.22161 1.1706 1.20193 1.22798 1.19796 1.25142 1.23279 1.2455 1.20846 1.19097 1.17481 1.24656 1.18623 1.20836 1.22937 1.20936 1.20547 1.22364 1.19531 1.17479 1.2057 1.19178 1.19178 1.19178 1.20177 1.2243 1.22518 1.1907 1.18996 1.1791 1.21425 1.21389 1.22257 1.19533 1.19562 1.20234 1.23447 1.22058 1.18135 1.22834 1.17735 1.20088 1.22302 1.23083 1.18027 1.23703 1.19184 1.23529 1.15232 1.23912 1.20376 1.22889 1.20418 1.21559 1.20552 1.18837 1.24814 1.22442 1.21311 1.19644 1.20044 1.19357 1.2185 1.22471 1.22807 1.2402 1.22254 1.24439 1.23883 1.16948 1.20548 1.19448 1.21745 1.20665 1.21112 1.20774 1.19178 1.2145 1.19146 1.19398 1.21659 1.20678 1.21425 1.21121 1.21321 1.21108 1.20438 1.19103 1.18038 1.22216 1.23152 1.23249 1.21999 1.21429 1.19959 1.20457 1.20958 1.17408 1.21489 1.17149 1.16177 1.20452 1.16441 1.1841 1.21635 1.24689 1.22645 1.23213 1.22495 1.20541 1.19364 1.22331 1.22505 1.2151 1.21662 1.19902 1.1726 1.19165 1.15094 1.19949 1.22344 1.22505 1.16566 1.21461 1.2212 1.19744 1.20078 1.19132 1.19872 1.19603 1.20308 1.20609 1.20168 1.23834 1.23025 1.22197 1.22949 1.15896 1.19339 1.16712 1.19274 1.28021 1.1833 1.1598 1.20244 1.23013 1.19857 1.21713 1.18818 1.17246 1.22061 1.19953 1.21036 1.17033 1.20007 1.20398 1.19569 1.18517 1.21881 1.19178 1.23531 1.25915 1.22775 1.22088 1.2137 1.24458 1.23427 1.22857 1.2126 1.20412 1.17069 1.20409 1.20846 1.24777 1.18219 1.21625 1.2014 1.19536 1.20394 1.18854 1.21848 1.21662 1.22084 1.21565 1.2154 1.20643 1.20758 1.21696 1.20477 1.22243 1.21451 1.21013 1.20179 1.1902 1.19634 1.21358 1.21291 1.20993 1.23107 1.21688 1.20996 1.19009 1.20207 1.18814 1.21011 1.17484 1.17244 1.2024 1.20292 1.19081 1.18724 1.2075 1.19351 1.22878 1.20931 1.20814 1.20739 1.20517 1.18033 1.18819 1.21552 1.2144 1.19506 1.21009 1.19582 1.18906 1.22821 1.13042 1.20818 1.22034 1.19993 1.19231 1.17985 1.20353 1.21643 1.16295 1.21014 1.16384 1.23958 1.19373 1.18156 1.22695 1.21358 1.20007 1.22772 1.23132 1.19406 1.20905 1.21712 1.18609 1.17539 1.19178 1.20912 1.19769 1.16203 1.19475 1.20968 1.18602 1.17659 1.20174 1.20295 1.2242 1.17931 1.20899 1.21736 1.20388 1.18086 1.20554 1.20797 1.19126 1.19566 1.20852 1.22147 1.15092 1.21472 1.20237 1.19178 1.18988 1.20567 1.20607 1.20502 1.19853 1.19332 1.2114 1.2034 1.22934 1.21538 1.20909 1.19784 1.20279 1.21033 1.18468 1.20831 1.17116 1.2004 1.19216 1.18798 1.18671 1.18305 1.20385 1.18908 1.21105 1.21212 1.19244 1.20391 1.22174 1.2044 1.17871 1.21773 1.21456 1.1658 1.19119 1.19178 1.16455 1.22692 1.22163 1.1891 1.24249 1.20022 1.16562 1.2062 1.15928 1.19546 1.1967 1.18334 1.19538 1.20385 1.19974 1.18449 1.17801 1.22419 1.18298 1.268 1.27038 1.19763 1.22255 1.19009 1.2066 1.22218 1.18657 1.17891 1.19568 1.18482 1.20874 1.19121 1.17065 1.16875 1.1883 1.19035 1.19323 1.26497 1.1862 1.20964 1.16832 1.19178 1.17853 1.19165 1.17963 1.20086 1.21234 1.20647 1.21151 1.18065 1.2037 1.20077 1.19195 1.20142 1.20739 1.20108 1.18618 1.20893 1.21603 1.2007 1.20483 1.19585 1.20766 1.21375 1.20314 1.19849 1.20734 1.19975 1.22274 1.20732 1.22152 1.16336 1.22212 1.16264 1.20066 1.20701 1.19372 1.20405 1.2069 1.2089 1.201 1.19808 1.20895 1.1878 1.21359 1.21317 1.19029 1.18515 1.18798 1.18509 1.19024 1.18515 1.19004 1.20832 1.18925 1.20145 1.21608 1.20615 1.20158 1.17223 1.24007 1.22148 1.20568 1.21427 1.16866 1.19222 1.18508 1.18822 1.16125 1.18173 1.21691 1.21791 1.24647 1.20776 1.17001 1.19401 1.19298 1.15472 1.18927 1.19661 1.17557 1.21726 1.19378 1.20369 1.19207 1.2071 1.17601 1.18727 1.17092 1.19677 1.23552 1.19118 1.18798 1.17347 1.27029 1.26726 1.22638 1.21659 1.20793 1.20861 1.19967 1.20054 1.1762 1.20345 1.15263 1.17167 1.2617 1.15363 1.19195 1.17554 1.18823 1.17709 1.1963 1.19192 1.17511 1.19294 1.17689 1.18118 1.20244 1.18754 1.18807 1.19813 1.20617 1.1974 1.18582 1.18594 1.20831 1.1924 1.19176 1.19178 1.1977 1.20724 1.18647 1.19099 1.19845 1.19141 1.20126 1.2039 1.2067 1.2021 1.20511 1.19494 1.17759 1.17164 1.15958 1.19219 1.19201 1.19571 1.20048 1.19175 1.20382 1.18485 1.16316 1.20748 1.19233 1.16509 1.22941 1.16728 1.15025 1.19347 1.18573 1.18993 1.19178 1.18267 1.17973 1.20526 1.19214 1.21219 1.20623 1.20066 1.20883 1.17301 1.21399 1.19408 1.22669 1.19659 1.20174 1.19178 1.2464 1.15924 1.2148 1.18273 1.20633 1.24706 1.20639 1.16366 1.11877 1.20018 1.23347 1.18588 1.17547 1.20534 1.2047 1.18695 1.1611 1.16546 1.22851 1.19796 1.17297 1.18824 1.19729 1.19218 1.15741 1.23546 1.24334 1.21203 1.18742 1.20713 1.20737 1.19878 1.20402 1.24694 1.20276 1.24724 1.21132 1.16362 1.18271 1.17621 1.11622 1.12199 1.19028 1.20914 1.17225 1.17586 1.17039 1.19122 1.17346 1.15326 1.19178 1.1781 1.19782 1.18671 1.1997 1.19178 1.1939 1.206 1.19108 1.19694 1.20991 1.22282 1.19023 1.19003 1.17964 1.20715 1.18533 1.19541 1.19821 1.20407 1.20534 1.20472 1.1919 1.22383 1.17525 1.2221 1.19178 1.19178 1.1926 1.1884 1.19171 1.16223 1.1897 1.18529 1.15716 1.16286 1.19401 1.20989 1.21194 1.17142 1.23014 1.18538 1.24323 1.15289 1.23511 1.17976 1.14283 1.17711 1.20218 1.18682 1.1705 1.1887 1.19207 1.21059 1.21683 1.20622 1.20174 1.20935 1.1961 1.22595 1.18659 1.18842 1.17757 1.24532 1.15611 1.2097 1.18561 1.19203 1.21397 1.18219 1.23649 1.182 1.16369 1.18252 1.18284 1.20281 1.19348 1.17652 1.1882 1.19311 1.17339 1.21086 1.22839 1.24359 1.17583 1.18619 1.21441 1.23555 1.20871 1.18737 1.18154 1.20509 1.20776 1.20881 1.19362 1.2455 1.20931 1.18901 1.17889 1.19178 1.19453 1.15687 1.26294 1.20506 1.22772 1.17274 1.16659 1.16712 1.16669 1.19153 1.17629 1.19016 1.18887 1.17195 1.19854 1.20033 1.1817 1.18614 1.17313 1.19511 1.18578 1.20964 1.2263 1.18395 1.19742 1.21916 1.19146 1.1936 1.18963 1.20266 1.20287 1.20465 1.20366 1.21757 1.18387 1.21799 1.22468 1.19136 1.18406 1.18999 1.19912 1.18544 1.19461 1.16525 1.2343 1.17131 1.20939 1.19468 1.19178 1.19178 1.23509 1.18477 1.17435 1.20128 1.17877 1.20992 1.19297 1.21335 1.21586 1.20466 1.19707 1.20063 1.19499 1.19233 1.2224 1.19043 1.24593 1.15439 1.17969 1.2099 1.19937 1.15612 1.1962 1.24308 1.19089 1.19178 1.1637 1.1805 1.17845 1.19166 1.17151 1.18767 1.1858 1.24639 1.18513 1.14974 1.19745 1.07656 1.05039 1.20536 1.19138 1.17846 1.199 1.17639 1.18198 1.18995 1.24135 1.20133 1.18931 1.17542 1.19563 1.2103 1.2425 1.24687 1.1732 1.16861 1.18386 1.13897 1.19229 1.1898 1.18604 1.16599 1.17686 1.18011 1.21325 1.19896 1.17988 1.12663 1.19711 1.20482 1.18153 1.15693 1.19237 1.1877 1.20449 1.21091 1.2011 1.17789 1.20087 1.20113 1.20256 1.19209 1.22083 1.18863 1.16919 1.21652 1.22167 1.1869 1.21016 1.16245 1.18539 1.16378 1.19061 1.19071 1.20102 1.19626 1.1865 1.17038 1.15272 1.17371 1.19207 1.18725 1.19303 1.22723 1.19101 1.2053 1.17908 1.19447 1.2011 1.21177 1.20311 1.20079 1.19783 1.20353 1.20746 1.20224 1.20293 1.16764 1.2334 1.17861 1.20757 1.15653 1.2037 1.17666 1.19298 1.21273 1.20109 1.22574 1.14918 1.17038 1.19326 1.17116 1.19942 1.17739 1.18672 1.18656 1.17821 1.1733 1.2021 1.15846 1.17863 1.14283 1.17463 1.20341 1.19358 1.19525 1.18784 1.2009 1.19811 1.18587 1.182 1.20978 1.18625 1.24096 1.19626 1.19761 1.17387 1.19626 1.20976 1.25151 1.24091 1.17387 1.18183 1.22443 1.187 1.17195 1.16098 1.18186 1.15656 1.18005 1.18926 1.18527 1.1904 1.2132 1.19102 1.17646 1.20485 1.1931 1.17751 1.24765 1.16791 1.18057 1.19214 1.198 1.20879 1.18569 1.18831 1.20671 1.16768 1.19745 1.20654 1.20946 1.1854 1.16676 1.17321 1.22326 1.17892 1.21686 1.16985 1.16606 1.16244 1.20194 1.20762 1.19544 1.17287 1.24116 1.15716 1.22366 1.18893 1.20897 1.20704 1.20956 1.20526 1.19875 1.19782 1.17069 1.17761 1.19936 1.1986 1.21044 1.19782 1.16531 1.2189 1.20748 1.19178 1.19178 1.15523 1.19861 1.18283 1.2056 1.19277 1.15165 1.19655 1.18656 1.16177 1.18974 1.20589 1.20411 1.16487 1.18253 1.19763 1.19734 1.1472 1.1723 1.16448 1.14904 1.18771 1.16835 1.19544 1.19009 1.19551 1.17831 1.21233 1.20479 1.23194 1.19018 1.23699 1.19617 1.22977 1.21131 1.18807 1.24746 1.17569 1.17794 1.19723 1.189 1.18786 1.17479 1.18684 1.16875 1.15832 1.18656 1.20691 1.18822 1.20845 1.19048 1.17315 1.19178 1.17652 1.24924 1.16323 1.17623 1.1918 1.19512 1.20692 1.19174 1.1574 1.17808 1.16508 1.15843 1.16677 1.19737 1.21483 1.18388 1.17402 1.22573 1.19413 1.21434 1.19181 1.21951 1.20189 1.17303 1.16837 1.22995 1.16255 1.22463 1.19217 1.22081 1.20936 1.20417 1.20447 1.19711 1.16669 1.19718 1.1971 1.17569 1.19542 1.19794 1.23244 1.20117 1.19938 1.19164 1.17313 1.20129 1.20699 1.22281 1.25961 1.16786 1.23223 1.20625 1.17584 1.17398 1.18858 1.19721 1.21902 1.20914 1.19045 1.16279 1.18445 1.20455 1.20217 1.16001 1.19367 1.18872 1.18031 1.17435 1.17115 1.18954 1.15014 1.17103 1.16043 1.18457 1.22355 1.1815 1.18088 1.18998 1.13942 1.16268 1.16739 1.17822 1.19438 1.17622 1.23573 1.19527 1.24276 1.22743 1.24524 1.17544 1.18492 1.18167 1.1821 1.18553 1.16832 1.21192 1.1871 1.19906 1.18449 1.16821 1.17595 1.17399 1.24686 1.18156 1.18382 1.18898 1.18415 1.19789 1.16634 1.17853 1.17872 1.16988 1.16542 1.19272 1.19178 1.21301 1.18342 1.18787 1.18858 1.17566 1.1797 1.19456 1.17826 1.18955 1.1519 1.13725 1.19255 1.18714 1.19177 1.16051 1.14222 1.192 1.19178 1.1944 1.21458 1.18743 1.20396 1.20511 1.20756 1.17594 1.19178 1.1803 1.19521 1.18211 1.24225 1.21511 1.20144 1.19671 1.19364 1.1971 1.20275 1.23534 1.21028 1.18955 1.24501 1.20516 1.18356 1.21122 1.19178 1.17029 1.19105 1.20507 1.21225 1.19178 1.19743 1.23487 1.2012 1.15772 1.14941 1.16606 1.16517 1.20936 1.17333 1.19414 1.18144 1.17919 1.15754 1.18817 1.14346 1.15252 1.20963 1.17296 1.16406 1.18882 1.16743 1.23118 1.17651 1.21151 1.22185 1.18317 1.1757 1.23018 1.17662 1.17891 1.17971 1.16983 1.17515 1.18817 1.18838 1.18737 1.17551 1.21823 1.19798 1.16779 1.18191 1.17747 1.19285 1.18273 1.1906 1.1814 1.18226 1.15933 1.17803 1.18564 1.14728 1.22081 1.21581 1.18043 1.18724 1.17744 1.19367 1.1895 1.17737 1.20733 1.20369 1.2865 1.17665 1.19234 1.18971 1.18167 1.2412 1.17616 1.18869 1.19139 1.20937 1.1902 1.19839 1.22939 1.22613 1.1805 1.17279 1.16354 1.19363 1.22047 1.25354 1.1596 1.18343 1.19563 1.19303 1.20107 1.2327 1.23372 1.22639 1.20609 1.19254 1.20895 1.19905 1.17326 1.20545 1.20047 1.21932 1.20143 1.18371 1.1975 1.14581 1.16276 1.18145 1.19292 1.19178 1.08938 1.09117 1.20027 1.16892 1.1884 1.16397 1.15957 1.19184 1.18804 1.14692 1.17985 1.19178 1.18991 1.19174 1.14634 1.18402 1.18783 1.16098 1.22603 1.17725 1.20723 1.22169 1.19178 1.20812 1.18173 1.1869 1.20262 1.18819 1.19412 1.16947 1.15683 1.18345 1.19666 1.15892 1.16599 1.17934 1.16783 1.19161 1.17611 1.19225 1.19788 1.19012 1.18567 1.18177 1.16806 1.14792 1.14937 1.19846 1.19178 1.19178 1.18635 1.18929 1.17527 1.17414 1.18744 1.20613 1.19621 1.21105 1.19285 1.20402 1.20277 1.20631 1.19154 1.2019 1.18935 1.15492 1.19178 1.20786 1.17385 1.19248 1.23074 1.1826 1.22665 1.17501 1.14267 1.20958 1.23691 1.19273 1.17086 1.19079 1.19861 1.20445 1.2333 1.22779 1.17987 1.21157 1.19117 1.2126 1.19358 1.19242 1.19342 1.21274 1.196 1.18357 1.18884 1.16496 1.18067 1.18212 1.19178 1.18748 1.21476 1.15967 1.17154 1.16644 1.19906 1.20636 1.18267 1.17314 1.1827 1.18319 1.15524 1.15217 1.19178 1.13216 1.19879 1.18257 1.19178 1.20488 1.16108 1.21238 1.22148 1.20173 1.18217 1.18882 1.21039 1.19228 1.19244 1.18776 1.18669 1.1662 1.15491 1.19693 1.19 1.16373 1.17578 1.16754 1.16782 1.19647 1.17485 1.14707 1.19967 1.18762 1.18335 1.17133 1.18218 1.1603 1.17963 1.16275 1.15325 1.18548 1.19533 1.20326 1.19178 1.19178 1.19108 1.17445 1.20986 1.20082 1.1937 1.21031 1.191 1.20385 1.20044 1.21801 1.17832 1.18798 1.20814 1.17463 1.19098 1.1861 1.2121 1.28748 1.15808 1.21322 1.17982 1.21464 1.16752 1.18816 1.22095 1.20247 1.16749 1.15728 1.19403 1.20093 1.19386 1.22228 1.22812 1.22765 1.19089 1.19858 1.18234 1.20999 1.20124 1.17139 1.18815 1.24682 1.21987 1.20977 1.21444 1.17592 1.19056 1.16335 1.19366 1.1825 1.19299 1.22427 1.21959 1.19213 1.15733 1.19167 1.20366 1.17121 1.18095 1.17119 1.14052 1.18241 1.13028 1.1262 1.17073 1.18106 1.19259 1.15753 1.21564 1.21635 1.19607 1.19831 1.19576 1.20983 1.18952 1.21508 1.19155 1.19178 1.17556 1.25083 1.23125 1.17287 1.17208 1.21633 1.19376 1.16396 1.17826 1.18373 1.19583 1.18493 1.19178 1.19425 1.18058 1.1842 1.1817 1.17021 1.16103 1.17154 1.18893 1.18471 1.1525 1.19257 1.19885 1.19149 1.19952 1.16588 1.18226 1.23925 1.19911 1.19248 1.1905 1.20506 1.20624 1.18646 1.19178 1.19922 1.21829 1.18318 1.2411 1.21595 1.19029 1.18569 1.21912 1.29406 1.16236 1.21189 1.21962 1.18707 1.20922 1.22428 1.20153 1.2158 1.21481 1.20096 1.20442 1.16974 1.15397 1.19092 1.19623 1.18361 1.22336 1.18383 1.20584 1.18733 1.19774 1.19161 1.19307 1.19132 1.18471 1.25061 1.21526 1.17451 1.17624 1.19992 1.1699 1.19491 1.1905 1.22008 1.22281 1.20845 1.18635 1.18783 1.15573 1.19461 1.20173 1.1298 1.2308 1.14943 1.18869 1.1991 1.17751 1.20719 1.19605 1.18306 1.22248 1.20981 1.20269 1.19018 1.20879 1.17934 1.21257 1.20036 1.19373 1.1943 1.1935 1.18029 1.15195 1.21012 1.16295 1.18949 1.18626 1.16375 1.20067 1.20432 1.18833 1.18261 1.19178 1.19121 1.212 1.19082 1.15248 1.22098 1.1992 1.21138 1.14123 1.20104 1.14336 1.20645 1.22505 1.18331 1.21624 1.21549 1.19399 1.17679 1.19272 1.19466 1.22213 1.19614 1.24372 1.24172 1.19428 1.20599 1.22796 1.19515 1.21254 1.20995 1.19847 1.21623 1.21354 1.21597 1.18233 1.2069 1.22875 1.19296 1.15035 1.23591 1.19419 1.18089 1.21954 1.19874 1.20177 1.19033 1.17812 1.11196 1.19635 1.19819 1.19516 1.19189 1.18623 1.23314 1.21991 1.18265 1.20814 1.20554 1.19485 1.19505 1.18956 1.22123 1.18651 1.17373 1.16992 1.1509 1.19178 1.19751 1.17637 1.18026 1.21112 1.23739 1.22717 1.2014 1.22951 1.2156 1.22872 1.29503 1.19579 1.17318 1.15654 1.22369 1.20791 1.19895 1.18443 1.18677 1.20942 1.21117 1.1994 1.19224 1.19505 1.1976 1.18821 1.12825 1.21056 1.16113 1.18538 1.18658 1.16275 1.19975 1.18144 1.18947 1.18331 1.19868 1.18655 1.16776 1.21615 1.19508 1.17711 1.22084 1.20301 1.20081 1.2085 1.21231 1.20485 1.21677 1.16303 1.21621 1.21767 1.19825 1.18644 1.20948 1.20079 1.1842 1.23178 1.18619 1.24077 1.19984 1.20428 1.22737 1.19705 1.20124 1.22334 1.1981 1.17518 1.18796 1.18099 1.20715 1.19178 1.20604 1.17062 1.19561 1.18971 1.19087 1.18743 1.2145 1.19815 1.2286 1.22075 1.16931 1.19535 1.19875 1.19391 1.19118 1.18557 1.22202 1.22802 1.18306 1.20814 1.21408 1.21596 1.19238 1.14011 1.21668 1.18574 1.17243 1.14457 1.17376 1.16627 1.19389 1.19803 1.20012 1.18182 1.21224 1.25475 1.20478 1.237 1.21006 1.28494 1.19788 1.19794 1.18494 1.19178 1.19858 1.19755 1.19915 1.18572 1.18616 1.20706 1.18067 1.19202 1.19452 1.19746 1.18613 1.19178 1.19178 1.19178 1.19009 1.19047 1.20635 1.20363 1.18164 1.19033 1.18468 1.18156 1.20248 1.16894 1.22265 1.21348 1.19386 1.19729 1.18934 1.17496 1.21299 1.20464 1.20974 1.20348 1.21782 1.15811 1.21871 1.21262 1.19619 1.18629 1.21866 1.19095 1.16548 1.23119 1.18536 1.23876 1.19178 1.20142 1.21418 1.21453 1.21063 1.23566 1.20334 1.18217 1.183 1.21686 1.04481 1.16496 1.25291 1.18983 1.19074 1.18909 1.18307 1.18759 1.21474 1.15243 1.1624 1.18767 1.24557 1.19178 1.17178 1.19902 1.18343 1.18345 1.19068 1.21104 1.23162 1.18392 1.22113 1.21359 1.22043 1.1896 1.19178 1.2161 1.1895 1.20777 1.155 1.16572 1.19815 1.20234 1.1991 1.19577 1.22426 1.24259 1.22998 1.20591 1.20668 1.19177 1.20745 1.2122 1.19443 1.17813 1.18367 1.18609 1.18541 1.1809 1.18084 1.17665 1.18029 1.21261 1.19237 1.1982 1.18595 1.1914 1.19177 1.19178 1.19368 1.1904 1.20481 1.19074 1.20364 1.18889 1.2039 1.16882 1.20919 1.20895 1.19533 1.20541 1.19019 1.15524 1.22191 1.20131 1.19109 1.19433 1.21297 1.15304 1.20189 1.2165 1.19993 1.18763 1.23601 1.19833 1.16707 1.22561 1.22792 1.2444 1.16844 1.232 1.18482 1.22187 1.20775 1.20316 1.19115 1.18116 1.19921 1.20452 1.14351 1.24987 1.18634 1.18775 1.18778 1.19731 1.19519 1.18831 1.25072 1.20945 1.16269 1.18894 1.21649 1.18462 1.20667 1.19973 1.2333 1.1831 1.21944 1.21731 1.2146 1.19643 1.21201 1.2227 1.19038 1.18248 1.20221 1.21657 1.19681 1.22502 1.22026 1.19746 1.23614 1.22628 1.22378 1.1937 1.21571 1.18647 1.21541 1.17391 1.18372 1.18618 1.1834 1.19533 1.18286 1.20276 1.20972 1.1977 1.18863 1.19178 1.19178 1.19178 1.19292 1.20294 1.20451 1.20792 1.19437 1.21792 1.20201 1.19012 1.2067 1.17214 1.20843 1.19081 1.2004 1.19744 1.15513 1.18344 1.2242 1.19139 1.189 1.19644 1.19883 1.21445 1.19344 1.1868 1.16481 1.20256 1.19178 1.24271 1.16664 1.18483 1.23995 1.18477 1.20889 1.19844 1.18021 1.19178 1.2005 1.17739 1.23908 1.19871 1.29504 1.1593 1.16965 1.16018 1.18892 1.18586 1.19085 1.17333 1.17493 1.19243 1.18052 1.19622 1.18897 1.17108 1.19022 1.20204 1.22009 1.20921 1.19009 1.23672 1.18981 1.22758 1.20218 1.21866 1.19079 1.20125 1.20851 1.20579 1.20002 1.21267 1.22963 1.1964 1.20207 1.21613 1.19901 1.18659 1.22239 1.21674 1.19887 1.20806 1.19252 1.22628 1.18093 1.18262 1.20326 1.19758 1.18342 1.21765 1.17756 1.19249 1.15015 1.17989 1.1962 1.22014 1.21762 1.19691 1.1897 1.19214 1.19158 1.19178 1.19253 1.20227 1.20407 1.18252 1.21799 1.19178 1.19041 1.19178 1.19178 1.189 1.18943 1.18652 1.1995 1.1977 1.20143 1.18102 1.18194 1.1917 1.19489 1.19749 1.19497 1.2159 1.18447 1.21139 1.1864 1.18254 1.21162 1.19938 1.19021 1.19425 1.24249 1.15874 1.17022 1.20287 1.18799 1.21065 1.1942 1.12056 1.20174 1.19092 1.181 1.17231 1.2448 1.21014 1.1406 1.251 1.16438 1.18315 1.18519 1.17914 1.17335 1.18577 1.18397 1.1897 1.17542 1.19352 1.15972 1.16726 1.19178 1.19733 1.15347 1.20609 1.17811 1.24076 1.19807 1.22599 1.20639 1.21115 1.19182 1.17754 1.19707 1.21369 1.19847 1.15964 1.21906 1.19822 1.20314 1.18909 1.22085 1.21084 1.1961 1.17138 1.17049 1.16577 1.17245 1.22246 1.18836 1.1904 1.17924 1.21889 1.17373 1.1979 1.19178 1.20635 1.21349 1.15927 1.22889 1.21595 1.20226 1.19264 1.19251 1.19161 1.19181 1.1946 1.20318 1.20024 1.1862 1.21459 1.21858 1.20569 1.19069 1.2049 1.19178 1.2574 1.19178 1.20736 1.21046 1.21283 1.26124 1.1807 1.18294 1.1998 1.19317 1.17731 1.18741 1.19858 1.17674 1.18545 1.18395 1.19018 1.20902 1.18681 1.18586 1.24627 1.16461 1.17166 1.20843 1.19923 1.19278 1.21076 1.13667 1.19604 1.22651 1.17287 1.21673 1.19178 1.22291 1.12904 1.17095 1.1743 1.17748 1.19225 1.17022 1.17156 1.17896 1.16948 1.18168 1.15839 1.18419 1.19596 1.14864 1.20069 1.16427 1.25256 1.21628 1.22476 1.19656 1.20701 1.14946 1.16401 1.2028 1.20014 1.24644 1.25461 1.20905 1.1974 1.15662 1.17217 1.2034 1.18881 1.16591 1.217 1.20578 1.10869 1.17902 1.18127 1.15495 1.03635 1.17012 1.19302 1.19923 1.1749 1.23751 1.1694 1.19783 1.21978 1.19401 1.19052 1.23301 1.2131 1.20867 1.1966 1.18178 1.21488 1.18945 1.20554 1.16073 1.20692 1.21263 1.2071 1.21939 1.22991 1.24491 1.24182 1.26658 1.20801 1.21802 1.21087 1.22985 1.1932 1.18007 1.18378 1.18674 1.20176 1.19237 1.17513 1.19007 1.18233 1.19873 1.19161 1.19046 1.18319 1.18306 1.17183 1.19124 1.16519 1.21902 1.20406 1.15384 1.19212 1.22476 1.17694 1.22051 1.21909 1.22783 1.14245 1.1558 1.20771 1.18991 1.18065 1.1613 1.22866 1.13575 1.10172 1.16596 1.17968 1.16907 1.17336 1.18842 1.19852 1.19867 1.13956 1.17344 1.14099 1.24232 1.21321 1.18404 1.20319 1.2142 1.2082 1.20347 1.19774 1.26669 1.1746 1.18392 1.19122 1.14451 1.1763 1.20294 1.18983 1.1708 1.18912 1.21304 1.12029 1.14368 1.20353 1.19067 1.14797 1.20106 1.21898 1.20414 1.1868 1.1738 1.22097 1.16628 1.20106 1.19716 1.19136 1.18753 1.19253 1.21015 1.2134 1.19304 1.19495 1.21493 1.19178 1.19178 1.16325 1.21314 1.21882 1.17594 1.21254 1.22985 1.24626 1.25012 1.19158 1.20811 1.21119 1.24498 1.20091 1.18653 1.13634 1.19028 1.19204 1.1999 1.19946 1.18665 1.20176 1.18346 1.16034 1.16359 1.19955 1.16285 1.16451 1.18823 1.1756 1.18445 1.16801 1.18677 1.16386 1.16232 1.20308 1.19469 1.19312 1.24174 1.1922 1.21386 1.17642 1.22151 1.22214 1.19925 1.14029 1.18386 1.1748 1.18021 1.22418 1.17326 1.22998 1.16012 1.18566 1.19849 1.17429 1.26081 1.24187 1.19478 1.13955 1.20642 1.14043 1.2237 1.21572 1.17833 1.19799 1.21378 1.20751 1.32061 1.23337 1.13352 1.28179 1.21691 1.13245 1.17933 1.20799 1.18554 1.17533 1.24384 1.18416 1.15705 1.17662 1.22923 1.16611 1.20551 1.17505 1.22698 1.17237 1.16643 1.20095 1.16251 1.20224 1.19569 1.19103 1.24459 1.23177 1.20438 1.22083 1.19178 1.19551 1.18294 1.16998 1.19199 1.19396 1.24252 1.2207 1.19178 1.19178 1.21663 1.24408 1.24495 1.13803 1.21022 1.21463 1.21207 1.19175 1.24339 1.20003 1.13437 1.18535 1.19282 1.19948 1.21104 1.20601 1.20859 1.1841 1.13587 1.19853 1.19381 1.16936 1.17959 1.17672 1.16387 1.14721 1.17559 1.16223 1.09807 1.17755 1.23761 1.20538 1.21141 1.1776 1.18961 1.18982 1.1883 1.1709 1.18231 1.18374 1.12271 1.19413 1.2308 1.1884 1.17771 1.21196 1.17482 1.25709 1.22197 1.20178 1.17654 1.26852 1.18208 1.2114 1.22172 1.19983 1.21651 1.2077 1.19006 1.27763 1.19169 1.16345 1.24819 1.16964 1.1869 1.22281 1.16266 1.17128 1.24609 1.17412 1.16138 1.19518 1.21372 1.19322 1.22813 1.20263 1.22948 1.19094 1.19203 1.19879 1.19309 1.2022 1.19518 1.19007 1.20722 1.23446 1.19683 1.21789 1.15223 1.19789 1.20632 1.18475 1.21466 1.20814 1.26355 1.17384 1.21588 1.15149 1.19923 1.24354 1.21922 1.17262 1.20636 1.21132 1.22385 1.23538 1.19038 1.1989 1.2499 1.20389 1.19802 1.20861 1.19178 1.19178 1.18238 1.21143 1.19267 1.1851 1.17996 1.1818 1.16698 1.18841 1.20246 1.17075 1.16732 1.14685 1.16929 1.15177 1.10437 1.18953 1.23609 1.18997 1.19319 1.16683 1.13914 1.09108 1.1732 1.21191 1.1902 1.22794 1.1759 1.16894 1.1918 1.23042 1.33286 1.18804 1.20954 1.17207 1.17353 1.24562 1.22122 1.19097 1.19775 1.23517 1.22091 1.21442 1.19165 1.22019 1.19178 1.1776 1.21787 1.16016 1.24492 1.18852 1.15695 1.26507 1.14197 1.18773 1.22355 1.15223 1.20696 1.13928 1.18698 1.19572 1.18581 1.20658 1.16573 1.24513 1.24647 1.15323 1.18892 1.21278 1.21598 1.20376 1.20223 1.19244 1.18621 1.2082 1.23224 1.20267 1.22552 1.26489 1.16649 1.21791 1.18176 1.22118 1.20693 1.21512 1.21153 1.19178 1.19534 1.16969 1.24353 1.24122 1.22529 1.20414 1.21328 1.22186 1.22542 1.19433 1.21999 1.19717 1.18631 1.19284 1.20595 1.22244 1.1601 1.18031 1.19272 1.19296 1.18782 1.17872 1.18509 1.18793 1.16571 1.17409 1.14873 1.23574 1.17487 1.15492 1.20091 1.21661 1.18194 1.16045 1.14058 1.12826 1.13866 1.17774 1.17018 1.21431 1.19304 1.16008 1.19532 1.16932 1.18198 1.16861 1.32296 1.17835 1.20648 1.1748 1.18855 1.23626 1.27028 1.16378 1.1891 1.20834 1.23405 1.23883 1.1832 1.21382 1.20141 1.22011 1.20333 1.19951 1.18252 1.15518 1.27399 1.22852 1.20354 1.2426 1.15561 1.21985 1.19159 1.18182 1.21416 1.18099 1.18697 1.18852 1.23525 1.23513 1.1677 1.19324 1.17985 1.20732 1.19695 1.2027 1.18645 1.16703 1.21765 1.24139 1.19004 1.22385 1.26119 1.12994 1.21709 1.18663 1.18222 1.19291 1.20856 1.22587 1.24027 1.22073 1.19384 1.23221 1.23755 1.22551 1.20508 1.23701 1.26785 1.2111 1.1876 1.20506 1.20762 1.18465 1.19222 1.21146 1.19627 1.18564 1.21897 1.22337 1.1898 1.19844 1.18763 1.1786 1.19178 1.16722 1.19178 1.19167 1.27321 1.18922 1.20585 1.18402 1.20154 1.17209 1.15934 1.18589 1.15902 1.17394 1.15948 1.1967 1.22181 1.19178 1.19211 1.17511 1.20133 1.18031 1.30719 1.20923 1.19163 1.17794 1.19397 1.24484 1.14934 1.14918 1.16182 1.19959 1.22448 1.16633 1.17977 1.20445 1.19494 1.21175 1.19173 1.18155 1.17836 1.15414 1.1533 1.22626 1.22509 1.20202 1.1541 1.25095 1.24484 1.18718 1.21066 1.17987 1.22041 1.21677 1.16649 1.19504 1.17017 1.18504 1.18657 1.19768 1.19153 1.19178 1.25171 1.20376 1.21581 1.23499 1.17735 1.21923 1.28379 1.21153 1.19471 1.1903 1.18382 1.19243 1.21175 1.22739 1.16183 1.22225 1.19214 1.23858 1.23425 1.2234 1.20294 1.24188 1.23153 1.1866 1.2206 1.20906 1.17741 1.20905 1.1856 1.21786 1.17415 1.21761 1.21773 1.21863 1.18033 1.19109 1.19547 1.14287 1.24377 1.15361 1.18254 1.19441 1.26945 1.06001 1.21763 1.16587 1.17771 1.16666 1.17892 1.18759 1.16864 1.17842 1.15577 1.16312 1.17341 1.20374 1.19323 1.19405 1.23775 1.2218 1.19178 1.19836 1.17328 1.17757 1.19387 1.23549 1.24681 1.16016 1.15201 1.19858 1.21661 1.17126 1.20983 1.20605 1.20073 1.19999 1.18402 1.16742 1.17392 1.14387 1.19565 1.20864 1.2233 1.19483 1.15692 1.1335 1.23603 1.18239 1.1744 1.19614 1.19299 1.20461 1.15548 1.16821 1.16057 1.16964 1.17734 1.18965 1.1866 1.19178 1.2333 1.21228 1.22828 1.2211 1.18391 1.21006 1.24744 1.27556 1.21415 1.1681 1.20733 1.19493 1.19214 1.20807 1.239 1.17516 1.22468 1.16562 1.23773 1.26226 1.20707 1.21089 1.20223 1.23477 1.18732 1.19829 1.24536 1.20851 1.19387 1.18907 1.23221 1.11944 1.21341 1.17187 1.21726 1.17105 1.189 1.20682 1.14143 1.19914 1.18536 1.18747 1.19447 1.22989 1.26612 1.19611 1.16668 1.17677 1.16623 1.17174 1.18171 1.18117 1.18212 1.17932 1.14216 1.22389 1.21811 1.19661 1.19132 1.22946 1.20663 1.21907 1.19091 1.16193 1.17943 1.19184 1.19641 1.21045 1.16618 1.13792 1.19166 1.20176 1.12902 1.20959 1.20522 1.19879 1.19324 1.18228 1.16094 1.16388 1.14268 1.19399 1.2102 1.22331 1.17669 1.15665 1.12244 1.25593 1.18677 1.17022 1.17146 1.17468 1.17149 1.22673 1.14231 1.13521 1.16606 1.17907 1.1811 1.1832 1.21165 1.22343 1.20918 1.20637 1.22329 1.19648 1.27482 1.13436 1.20774 1.22081 1.21366 1.11611 1.19889 1.19787 1.26627 1.20476 1.17882 1.2254 1.22782 1.23764 1.20994 1.20284 1.21801 1.24809 1.16937 1.20425 1.19178 1.20672 1.20124 1.18345 1.22605 1.18981 1.21142 1.18345 1.21773 1.1702 1.18127 1.22305 1.13994 1.19802 1.1853 1.18425 1.18807 1.18452 1.26276 1.19034 1.16371 1.17645 1.16323 1.16428 1.17886 1.18055 1.18849 1.18346 1.15113 1.1639 1.23859 1.20834 1.19268 1.15163 1.20942 1.1936 1.18923 1.15471 1.19046 1.20423 1.19597 1.20056 1.24756 1.19127 1.19136 1.18466 1.14663 1.21094 1.19537 1.18738 1.20937 1.18498 1.15423 1.13303 1.15159 1.18987 1.20469 1.22135 1.18888 1.16951 1.13157 1.192 1.18594 1.17264 1.17263 1.173 1.13289 1.21463 1.13583 1.1425 1.17066 1.18179 1.16892 1.18266 1.20964 1.21906 1.20643 1.18982 1.24191 1.19897 1.27499 1.21184 1.20361 1.19178 1.22913 1.24443 1.16262 1.21649 1.19236 1.15009 1.24642 1.19601 1.18665 1.2073 1.2369 1.22208 1.20352 1.18215 1.23961 1.16263 1.17622 1.22627 1.20704 1.20299 1.1816 1.21934 1.2307 1.21875 1.18043 1.20303 1.16594 1.19471 1.24356 1.20784 1.20251 1.18792 1.1879 1.18586 1.17972 1.25812 1.17458 1.15573 1.18148 1.16946 1.15073 1.20473 1.19185 1.14746 1.20408 1.19764 1.15983 1.23733 1.19364 1.18173 1.15398 1.19772 1.17184 1.1827 1.1557 1.15307 1.18891 1.20049 1.18831 1.14098 1.23109 1.24184 1.17885 1.1755 1.15932 1.20581 1.17141 1.20896 1.18218 1.14415 1.1536 1.16032 1.17672 1.19426 1.22404 1.21797 1.19047 1.15705 1.20658 1.21721 1.18771 1.17226 1.17147 1.26784 1.24357 1.12844 1.20185 1.17253 1.17402 1.15535 1.18248 1.2093 1.19974 1.1998 1.17237 1.23942 1.19331 1.15916 1.20985 1.25409 1.21147 1.25688 1.19178 1.15231 1.24783 1.21108 1.19259 1.18786 1.20302 1.23917 1.21536 1.18311 1.07976 1.1851 1.19471 1.22609 1.2014 1.19551 1.20946 1.21082 1.23044 1.22518 1.17712 1.19845 1.17222 1.19219 1.21556 1.21021 1.19836 1.19026 1.17621 1.1846 1.17929 1.19178 1.17482 1.16878 1.1786 1.16815 1.15476 1.19797 1.17196 1.16428 1.14913 1.21592 1.17836 1.19336 1.17868 1.17817 1.16633 1.20358 1.19061 1.18421 1.16211 1.16307 1.18153 1.17114 1.10409 1.16631 1.20327 1.19974 1.17376 1.18334 1.15452 1.20334 1.16945 1.1936 1.18953 1.15589 1.15999 1.15799 1.14459 1.19069 1.20023 1.17229 1.19187 1.15752 1.19502 1.21307 1.16838 1.166 1.19458 1.26669 1.2399 1.15599 1.20913 1.16048 1.18132 1.14405 1.1822 1.21083 1.2122 1.19587 1.19178 1.21174 1.18123 1.20462 1.27803 1.14598 1.26254 1.24977 1.21429 1.21793 1.26775 1.18977 1.13946 1.23279 1.20867 1.19331 1.16842 1.18928 1.22667 1.206 1.13049 1.13375 1.19488 1.20035 1.20602 1.19312 1.19015 1.21241 1.18043 1.23412 1.21889 1.17396 1.1944 1.16749 1.17892 1.1914 1.19178 1.20603 1.19117 1.17357 1.17565 1.17572 1.17709 1.18615 1.21586 1.17629 1.17175 1.15568 1.19863 1.17347 1.16405 1.19629 1.17292 1.17955 1.18717 1.18562 1.16979 1.18567 1.1993 1.18916 1.13254 1.17392 1.16314 1.18828 1.17794 1.20731 1.182 1.19799 1.19418 1.16381 1.17854 1.16468 1.18809 1.15175 1.19178 1.17697 1.15862 1.16057 1.17717 1.17229 1.1944 1.1764 1.17238 1.19174 1.1602 1.18415 1.21118 1.15917 1.17021 1.13393 1.16995 1.17 1.20653 1.17867 1.18205 1.15765 1.14932 1.18275 1.1952 1.21136 1.21838 1.19178 1.17433 1.15346 1.24625 1.15925 1.28113 1.25125 1.21578 1.22403 1.16099 1.19885 1.13351 1.2141 1.20001 1.1858 1.17147 1.1762 1.21432 1.19694 1.12209 1.23176 1.20305 1.19152 1.18506 1.17417 1.20169 1.18683 1.16291 1.23789 1.21772 1.17402 1.16667 1.17013 1.17473 1.19074 1.16743 1.19816 1.18688 1.17176 1.17357 1.18023 1.1556 1.18372 1.19217 1.16938 1.19031 1.16066 1.19916 1.17441 1.16445 1.19175 1.17994 1.17736 1.17354 1.20418 1.17305 1.19034 1.18497 1.18412 1.16026 1.16969 1.16226 1.18737 1.17679 1.21429 1.19605 1.19038 1.19768 1.17122 1.06929 1.17151 1.18397 1.19217 1.19632 1.17128 1.19642 1.17134 1.18501 1.19661 1.19253 1.18051 1.19464 1.1986 1.14372 1.182 1.19185 1.15391 1.15808 1.13587 1.16855 1.1687 1.14997 1.18921 1.21378 1.15499 1.15804 1.12946 1.21477 1.19446 1.17156 1.17594 1.16422 1.19386 1.1918 1.24709 1.22547 1.20634 1.2212 1.19609 1.14871 1.15311 1.21052 1.17947 1.18403 1.19091 1.17885 1.21285 1.19737 1.11838 1.22945 1.14892 1.16007 1.18144 1.17688 1.20079 1.19336 1.16143 1.23396 1.18902 1.17083 1.15438 1.17288 1.1767 1.1899 1.16785 1.19916 1.19178 1.17494 1.17277 1.18029 1.15403 1.18228 1.198 1.1672 1.197 1.17112 1.14476 1.17629 1.16102 1.17943 1.18807 1.17763 1.16978 1.17392 1.18872 1.16467 1.18069 1.1784 1.16049 1.16576 1.1641 1.16147 1.18311 1.17536 1.223 1.20008 1.1983 1.18867 1.1791 1.16352 1.17978 1.1673 1.22646 1.19365 1.20482 1.16859 1.19101 1.20201 1.22939 1.18778 1.18991 1.1801 1.2318 1.19962 1.16343 1.18506 1.18405 1.15295 1.15101 1.12998 1.25841 1.16993 1.162 1.20659 1.16811 1.15532 1.16382 1.1871 1.21159 1.16873 1.17321 1.16865 1.1729 1.16656 1.1958 1.19686 1.13971 1.21767 1.19134 1.1754 1.19446 1.14773 1.15541 1.20137 1.18655 1.18342 1.18699 1.16692 1.19526 1.1585 1.13331 1.17154 1.11821 1.15165 1.1784 1.18198 1.13485 1.18725 1.15418 1.19866 1.1852 1.17626 1.15879 1.17417 1.17535 1.19019 1.16821 1.18663 1.18032 1.16969 1.17318 1.19183 1.15419 1.18192 1.19639 1.16783 1.19171 1.17136 1.1546 1.18554 1.16903 1.17852 1.18336 1.16481 1.19512 1.19168 1.19355 1.1928 1.17258 1.1793 1.16186 1.16185 1.17932 1.17933 1.19178 1.20533 1.20181 1.18517 1.17477 1.16364 1.18109 1.24424 1.16926 1.11215 1.18148 1.19427 1.20401 1.2263 1.19277 1.18815 1.17967 1.19175 1.20684 1.17494 1.21598 1.1842 1.18427 1.17344 1.14464 1.24869 1.18155 1.18604 1.23939 1.15043 1.15355 1.16584 1.18476 1.19178 1.16215 1.14206 1.15027 1.15555 1.16775 1.18694 1.19178 1.11911 1.10647 1.22271 1.19276 1.19006 1.12135 1.13881 1.19178 1.16578 1.17948 1.18793 1.1588 1.17894 1.15049 1.17664 1.19178 1.11803 1.1404 1.19291 1.21423 1.16335 1.14166 1.15764 1.21114 1.17465 1.20365 1.15599 1.1745 1.17469 1.19264 1.16892 1.19459 1.17991 1.15721 1.18683 1.19815 1.1905 1.17644 1.19569 1.16693 1.18123 1.16953 1.23203 1.17934 1.1853 1.17477 1.18499 1.158 1.19521 1.18118 1.19817 1.19286 1.18803 1.15972 1.20192 1.1621 1.16152 1.16509 1.17728 1.17788 1.1694 1.19989 1.20047 1.18011 1.20411 1.17797 1.24025 1.17076 1.15566 1.1754 1.17814 1.18235 1.22229 1.1941 1.18876 1.18147 1.19098 1.20682 1.16915 1.21288 1.18378 1.20752 1.18946 1.17081 1.23581 1.199 1.20988 1.15826 1.2015 1.1092 1.1307 1.18411 1.19222 1.13351 1.14777 1.15368 1.15969 1.17699 1.1817 1.18252 1.12021 1.1063 1.16087 1.17066 1.18047 1.19948 1.09031 1.17741 1.13747 1.17805 1.16057 1.16324 1.17048 1.14356 1.17489 1.17789 1.16498 1.13628 1.18894 1.20668 1.16088 1.17048 1.19298 1.20294 1.18368 1.16027 1.16261 1.17866 1.17282 1.18839 1.16215 1.19247 1.17144 1.16728 1.19635 1.1796 1.19736 1.17366 1.19171 1.1651 1.18266 1.16402 1.23183 1.18067 1.18348 1.19065 1.1904 1.16581 1.19176 1.19178 1.1953 1.18654 1.15767 1.20659 1.1546 1.15937 1.16614 1.1924 1.17351 1.18466 1.19037 1.19732 1.17941 1.1809 1.16785 1.17849 1.23859 1.16854 1.21573 1.16854 1.18942 1.1848 1.19053 1.21611 1.19177 1.18643 1.178 1.19628 1.17831 1.1897 1.20318 1.17004 1.16061 1.18812 1.18671 1.14913 1.19811 1.16947 1.16516 1.19577 1.10832 1.14644 1.19749 1.19012 1.16572 1.15466 1.14851 1.22722 1.24925 1.18202 1.18571 1.04247 1.11526 1.17943 1.14295 1.18224 1.23213 1.13841 1.19178 1.15098 1.17226 1.15966 1.15791 1.15982 1.13724 1.17315 1.16673 1.13885 1.16603 1.20365 1.15383 1.16538 1.16959 1.19445 1.1993 1.19192 1.16431 1.16565 1.19178 1.17337 1.18751 1.19178 1.18945 1.18791 1.17417 1.1742 1.22398 1.19314 1.17728 1.19469 1.17139 1.20541 1.16926 1.17096 1.17867 1.19094 1.19233 1.19178 1.18696 1.19275 1.19409 1.15816 1.18989 1.17939 1.15997 1.2082 1.1516 1.15653 1.18135 1.16965 1.17172 1.18854 1.18937 1.19296 1.18732 1.17775 1.17572 1.17292 1.19978 1.1792 1.19594 1.16242 1.18736 1.21631 1.21214 1.17865 1.18546 1.18315 1.20019 1.20624 1.19125 1.20023 1.19717 1.16659 1.18549 1.17983 1.2094 1.15711 1.19631 1.18108 1.16641 1.19178 1.17101 1.15614 1.19178 1.18422 1.1597 1.14939 1.12192 1.24591 1.19444 1.15687 1.15796 1.11019 1.17493 1.09518 1.12344 1.17202 1.22739 1.14942 1.1272 1.16437 1.15184 1.15184 1.15748 1.15308 1.15297 1.18457 1.1407 1.21986 1.16241 1.15211 1.15341 1.15332 1.16723 1.19955 1.16192 1.17903 1.16196 1.16355 1.17171 1.18161 1.18983 1.19178 1.18791 1.18714 1.17312 1.17258 1.19742 1.19308 1.18887 1.19428 1.18276 1.19226 1.16983 1.19839 1.17148 1.17836 1.20451 1.18185 1.19171 1.17414 1.14347 1.18517 1.20776 1.14438 1.16732 1.17727 1.16835 1.17236 1.18144 1.18107 1.188 1.1861 1.16755 1.17448 1.17263 1.22113 1.17235 1.20942 1.14777 1.14768 1.1836 1.16851 1.18655 1.18645 1.20123 1.20427 1.19599 1.16968 1.18711 1.18158 1.16726 1.18305 1.18795 1.1827 1.18034 1.20376 1.18274 1.16853 1.19178 1.18564 1.16466 1.17316 1.12407 1.19105 1.18358 1.15957 1.17758 1.1351 1.16546 1.11197 1.15904 1.19052 1.24589 1.18347 1.13526 1.11866 1.14523 1.13093 1.17304 1.14684 1.12694 1.19666 1.1359 1.19178 1.15639 1.1466 1.15445 1.17601 1.13274 1.19493 1.15754 1.19954 1.19277 1.18164 1.18573 1.17035 1.18581 1.17704 1.18148 1.18666 1.19169 1.18226 1.18717 1.19061 1.19178 1.18919 1.19193 1.18639 1.1935 1.16825 1.19178 1.17117 1.17768 1.19434 1.17771 1.18991 1.18839 1.17718 1.16471 1.17877 1.18598 1.20853 1.14399 1.16653 1.17279 1.16411 1.1701 1.1742 1.1846 1.18097 1.15638 1.1606 1.1731 1.19258 1.1847 1.2142 1.16068 1.2155 1.1674 1.16367 1.17703 1.20198 1.17037 1.17605 1.18649 1.18601 1.2022 1.19563 1.18836 1.18667 1.18642 1.17491 1.17664 1.17783 1.17054 1.18024 1.17955 1.19135 1.18488 1.18913 1.20105 1.19668 1.17792 1.19677 1.19526 1.19178 1.19193 1.13081 1.16131 1.12254 1.29199 1.16282 1.16277 1.1012 1.13496 1.15076 1.11397 1.18002 1.19541 1.18221 1.16304 1.14149 1.12794 1.1128 1.15489 1.18536 1.15732 1.14872 1.20645 1.13742 1.16553 1.15078 1.1449 1.16479 1.17724 1.16179 1.19437 1.17415 1.19704 1.17521 1.19082 1.18362 1.19116 1.17954 1.18643 1.19178 1.18712 1.19142 1.19178 1.19178 1.189 1.19178 1.1872 1.19352 1.19367 1.16768 1.19219 1.17049 1.17689 1.19264 1.17297 1.18024 1.18812 1.19448 1.16702 1.17943 1.18832 1.20872 1.17962 1.167 1.17171 1.16114 1.17182 1.15888 1.15658 1.15221 1.15485 1.15414 1.16883 1.18545 1.14462 1.17445 1.18255 1.20798 1.1775 1.17306 1.18325 1.18239 1.20084 1.16664 1.1876 1.17905 1.17735 1.17324 1.17867 1.18486 1.18747 1.19988 1.19896 1.1766 1.19178 1.19364 1.13302 1.1579 1.12533 1.19178 1.16205 1.15772 1.09849 1.13467 1.14603 1.11237 1.17954 1.19246 1.19573 1.16702 1.15523 1.14248 1.14029 1.17763 1.1502 1.15557 1.14011 1.11525 1.16484 1.15003 1.14971 1.13404 1.16467 1.17664 1.18839 1.19014 1.17359 1.19714 1.17481 1.186 1.17425 1.19239 1.19426 1.17861 1.18811 1.19653 1.18764 1.19153 1.19178 1.19188 1.18883 1.19098 1.18826 1.16732 1.19197 1.19178 1.19178 1.1837 1.18726 1.18389 1.18727 1.19312 1.17044 1.18027 1.1692 1.17833 1.2032 1.1787 1.16089 1.16224 1.17039 1.15926 1.15199 1.14264 1.15317 1.15315 1.1689 1.17423 1.17418 1.18811 1.17145 1.17248 1.18099 1.1922 1.20081 1.17381 1.19178 1.18059 1.19232 1.16436 1.18599 1.18851 1.17936 1.17472 1.17295 1.19223 1.17835 1.18781 1.18125 1.18856 1.18709 1.19337 1.18753 1.19389 1.18546 1.16954 1.12543 1.1945 1.19024 1.15879 1.09653 1.18059 1.14045 1.10074 1.16071 1.18969 1.15826 1.17091 1.12575 1.19178 1.19178 1.17815 1.14634 1.15283 1.14585 1.19178 1.17722 1.17255 1.17888 1.1335 1.16909 1.17727 1.19178 1.18513 1.17039 1.19238 1.17536 1.18744 1.19178 1.19156 1.19219 1.18202 1.17379 1.19591 1.18269 1.19029 1.19722 1.19821 1.18371 1.19098 1.18818 1.19372 1.18019 1.19999 1.19285 1.19934 1.18054 1.19006 1.18259 1.18852 1.16546 1.17221 1.17404 1.1864 1.18057 1.17531 1.15511 1.15568 1.16641 1.17015 1.14763 1.15104 1.14118 1.15224 1.16813 1.17879 1.19178 1.17403 1.18905 1.19247 1.18369 1.17128 1.19183 1.19243 1.17187 1.18902 1.18066 1.19178 1.16365 1.18609 1.18767 1.17342 1.17669 1.17374 1.19204 1.17631 1.18331 1.18343 1.19359 1.1858 1.18676 1.19178 1.18733 
SCALARS Stress float 1
LOOKUP_TABLE default
-12549700000.0 -13565200000.0 -12550300000.0 -13032900000.0 -12549700000.0 -131722000000.0 -61660300000.0 -12549700000.0 -12549700000.0 -12549700000.0 -12549700000.0 -50346000000.0 -12549700000.0 -12549700000.0 -88306900000.0 -12549700000.0 -12549700000.0 -12549700000.0 -12549700000.0 -12549700000.0 -12549700000.0 -12549700000.0 -12549700000.0 -12549700000.0 -12549700000.0 -12549700000.0 -12549700000.0 -12549700000.0 -12549700000.0 -12549700000.0 -12549700000.0 -15822800000.0 -12549700000.0 -23263700000.0 -12549700000.0 -52822200000.0 -24422900000.0 -112658000000.0 -12549700000.0 -12551700000.0 -14513600000.0 -12596300000.0 -13544800000.0 -14196800000.0 -15836200000.0 -15823500000.0 -15747900000.0 -16874900000.0 -18766600000.0 -20358100000.0 -15404700000.0 -18849000000.0 -53938900000.0 -22179600000.0 -41907300000.0 -68812500000.0 -62491100000.0 -34391600000.0 -23024100000.0 -22513400000.0 -18990200000.0 -38139100000.0 -12960500000.0 -31413700000.0 -16213500000.0 -49534600000.0 -99970100000.0 -483140000000.0 -94912800000.0 -12549800000.0 -12549700000.0 -65639700000.0 -88398900000.0 -12549600000.0 -138777000000.0 -99815100000.0 -479261000000.0 -34681000000.0 -15121500000.0 -35422400000.0 -66145300000.0 -17747600000.0 -12701400000.0 -19383200000.0 -27207700000.0 -21326900000.0 -13436900000.0 -22411400000.0 -14768200000.0 -14349400000.0 -17455300000.0 -26641700000.0 -23823700000.0 -12671700000.0 -13290800000.0 -14111200000.0 -14475600000.0 -14774900000.0 -15565700000.0 -16096600000.0 -16968500000.0 -32961800000.0 -34380100000.0 -31752800000.0 -41529000000.0 -32718200000.0 -69102100000.0 -129100000000.0 -68876900000.0 -71009400000.0 -37783900000.0 -62479300000.0 -142407000000.0 -75910900000.0 -12549700000.0 -12549700000.0 -32651500000.0 -98455800000.0 -16169700000.0 -44947600000.0 -12549700000.0 -19128200000.0 -33795200000.0 -21863400000.0 -29079000000.0 -67592400000.0 -27285800000.0 -59088100000.0 -68868100000.0 -72879500000.0 -51385000000.0 -159971000000.0 -48538300000.0 -38468400000.0 -48926000000.0 -134483000000.0 -150732000000.0 -34710800000.0 -12558900000.0 -12541300000.0 -12551200000.0 -15034600000.0 -12549700000.0 -26125100000.0 -12856000000.0 -189210000000.0 -12549700000.0 -12551200000.0 -12549300000.0 -13912400000.0 -12549700000.0 -42543000000.0 -120323000000.0 -12549700000.0 -12549700000.0 -12549700000.0 -12549700000.0 -12549700000.0 -12553200000.0 -12549600000.0 -12549700000.0 -12549700000.0 -90138000000.0 -13888900000.0 -29398200000.0 -47457000000.0 -354194000000.0 -94399900000.0 -107970000000.0 -71005100000.0 -88061000000.0 -28999800000.0 -88154600000.0 -13226700000.0 -13161000000.0 -17499800000.0 -25707700000.0 -12549600000.0 -100530000000.0 -12549700000.0 -195289000000.0 -31519100000.0 -14540300000.0 -12550300000.0 -20127400000.0 -33725300000.0 -57827700000.0 -36173100000.0 -23220500000.0 -13705900000.0 -12549700000.0 -21596900000.0 -52475100000.0 -44050000000.0 -14234600000.0 -12549700000.0 -12586700000.0 -18210100000.0 -57180000000.0 -12549700000.0 -12549700000.0 -20920600000.0 -59862900000.0 -58393800000.0 -16217400000.0 -18665400000.0 -43099900000.0 -40035600000.0 -101045000000.0 -30441400000.0 -88667300000.0 -22564200000.0 -77804200000.0 -52750900000.0 -27687500000.0 -20954900000.0 -51805100000.0 -69243400000.0 -256119000000.0 -64332100000.0 -181047000000.0 -26825400000.0 -253633000000.0 -103995000000.0 -12549700000.0 -100294000000.0 -102565000000.0 -146643000000.0 -86495200000.0 -88645900000.0 -91052000000.0 -115952000000.0 -147106000000.0 -152506000000.0 -161296000000.0 -18086500000.0 -42741200000.0 -30961000000.0 -45788600000.0 -19647100000.0 -51913700000.0 -14083800000.0 -48844600000.0 -369457000000.0 -13243400000.0 -30182900000.0 -26605600000.0 -18555200000.0 -20458500000.0 -15618000000.0 -43020600000.0 -12582700000.0 -12549800000.0 -111804000000.0 -14830000000.0 -16971800000.0 -13015500000.0 -12546600000.0 -21997500000.0 -151888000000.0 -22851300000.0 -12572800000.0 -12581100000.0 -15076100000.0 -12550800000.0 -20343100000.0 -19509000000.0 -90946000000.0 -80379000000.0 -13130800000.0 -41333900000.0 -14925600000.0 -187037000000.0 -21512300000.0 -322782000000.0 -20791200000.0 -154637000000.0 -36349800000.0 -389794000000.0 -77482800000.0 -85065600000.0 -38887600000.0 -13083700000.0 -12743200000.0 -70048600000.0 -12551200000.0 -51566000000.0 -76576500000.0 -13332300000.0 -17083600000.0 -153212000000.0 -24471500000.0 -20689400000.0 -38246400000.0 -31848000000.0 -45762200000.0 -84860200000.0 -76603400000.0 -16796800000.0 -16437800000.0 -65582500000.0 -49348000000.0 -111252000000.0 -68805000000.0 -75409100000.0 -63355200000.0 -26968500000.0 -54209200000.0 -33901600000.0 -56255800000.0 -75193600000.0 -115055000000.0 -49792100000.0 -88823700000.0 -110076000000.0 -206318000000.0 -224907000000.0 -383482000000.0 -65023800000.0 -304858000000.0 -105479000000.0 -232056000000.0 -250437000000.0 -65412700000.0 -47333400000.0 -113296000000.0 -88719300000.0 -127935000000.0 -124304000000.0 -12570500000.0 -25038800000.0 -12549700000.0 -274488000000.0 -12549700000.0 -115992000000.0 -104801000000.0 -101741000000.0 -15130400000.0 -149692000000.0 -12549700000.0 -57123700000.0 -88999300000.0 -56348200000.0 -57112800000.0 -54216500000.0 -58313700000.0 -37435200000.0 -76206500000.0 -12549700000.0 -54532100000.0 -12549700000.0 -17658000000.0 -27006500000.0 -18838700000.0 -40177600000.0 -14932600000.0 -17935600000.0 -28500900000.0 -33051100000.0 -17101400000.0 -19080800000.0 -12549700000.0 -12549700000.0 -12549600000.0 -23772600000.0 -52363600000.0 -12549700000.0 -31509900000.0 -16801600000.0 -28022200000.0 -18372900000.0 -31407600000.0 -20802000000.0 -58136600000.0 -33355400000.0 -42881600000.0 -66490500000.0 -39435300000.0 -53077700000.0 -71065000000.0 -80967200000.0 -53594900000.0 -59340000000.0 -82111600000.0 -66684000000.0 -76879800000.0 -114370000000.0 -93988700000.0 -22511000000.0 -259362000000.0 -54516600000.0 -13507400000.0 -53075700000.0 -33818900000.0 -15358900000.0 -62146000000.0 -117258000000.0 -24881100000.0 -77270600000.0 -83862900000.0 -38826400000.0 -35576600000.0 -141452000000.0 -12549700000.0 -12549700000.0 -12549700000.0 -33908500000.0 -19977100000.0 -42185800000.0 -31656500000.0 -36841900000.0 -19419400000.0 -60077900000.0 -194754000000.0 -190896000000.0 -186204000000.0 -139410000000.0 -120334000000.0 -269210000000.0 -208415000000.0 -272512000000.0 -358766000000.0 -273198000000.0 -403438000000.0 -124450000000.0 -84794100000.0 -225944000000.0 -205379000000.0 -166686000000.0 -37451000000.0 -164889000000.0 -171669000000.0 -13900100000.0 -478367000000.0 -556478000000.0 -417344000000.0 -125728000000.0 -110551000000.0 -184643000000.0 -161522000000.0 -240229000000.0 -81373700000.0 -15967200000.0 -99241600000.0 -15517200000.0 -121663000000.0 -125083000000.0 -137337000000.0 -58041300000.0 -106428000000.0 -79708200000.0 -26052600000.0 -84887000000.0 -24018000000.0 -46170500000.0 -43913400000.0 -30237800000.0 -41483500000.0 -12549700000.0 -18016300000.0 -13573500000.0 -20238700000.0 -41074000000.0 -42786500000.0 -44316600000.0 -56525600000.0 -44738200000.0 -85520800000.0 -51331800000.0 -48543400000.0 -49533400000.0 -74449200000.0 -53329000000.0 -28143400000.0 -123980000000.0 -182969000000.0 -131203000000.0 -93897600000.0 -42653400000.0 -51885700000.0 -20504500000.0 -66270000000.0 -71836700000.0 -35724900000.0 -34444900000.0 -163519000000.0 -241537000000.0 -103524000000.0 -32418800000.0 -299634000000.0 -256247000000.0 -68798700000.0 -25633800000.0 -82033900000.0 -141370000000.0 -32906300000.0 -206607000000.0 -184352000000.0 -98328700000.0 -12962600000.0 -93643900000.0 -44171900000.0 -159527000000.0 -27676000000.0 -112984000000.0 -99437100000.0 -35423500000.0 -17983400000.0 -85434700000.0 -355218000000.0 -313015000000.0 -168632000000.0 -161721000000.0 -189347000000.0 -140469000000.0 -58621700000.0 -175603000000.0 -60521700000.0 -227692000000.0 -45351300000.0 -146706000000.0 -152774000000.0 -405877000000.0 -122122000000.0 -15848500000.0 -21585300000.0 -47697800000.0 -55825800000.0 -241541000000.0 -521491000000.0 -357403000000.0 -256249000000.0 -271454000000.0 -189718000000.0 -57058500000.0 -160172000000.0 -277741000000.0 -254621000000.0 -249785000000.0 -180229000000.0 -235234000000.0 -12549700000.0 -434447000000.0 -231013000000.0 -216922000000.0 -371552000000.0 -126601000000.0 -160558000000.0 -138735000000.0 -203942000000.0 -82543900000.0 -39450400000.0 -58548700000.0 -30374400000.0 -34789300000.0 -26540300000.0 -22843400000.0 -144642000000.0 -108325000000.0 -15352400000.0 -79938900000.0 -18095900000.0 -69089500000.0 -34689500000.0 -78867000000.0 -70321800000.0 -105466000000.0 -104876000000.0 -173126000000.0 -105979000000.0 -14130400000.0 -92516300000.0 -116420000000.0 -86199800000.0 -70911000000.0 -148021000000.0 -45856400000.0 -167021000000.0 -71817500000.0 -95913800000.0 -91934500000.0 -158819000000.0 -65250500000.0 -18842700000.0 -42396200000.0 -18015600000.0 -83849000000.0 -30599400000.0 -82759100000.0 -14735600000.0 -86405400000.0 -82886800000.0 -90522300000.0 -286409000000.0 -280598000000.0 -19206300000.0 -406310000000.0 -188105000000.0 -141893000000.0 -216516000000.0 -169858000000.0 -142899000000.0 -189608000000.0 -124409000000.0 -81713900000.0 -164569000000.0 -185309000000.0 -166495000000.0 -161618000000.0 -51471000000.0 -211996000000.0 -153895000000.0 -291251000000.0 -82832800000.0 -261088000000.0 -145080000000.0 -476415000000.0 -139258000000.0 -249764000000.0 -217233000000.0 -446230000000.0 -66370600000.0 -40240200000.0 -95423300000.0 -47359200000.0 -161634000000.0 -43575500000.0 -186300000000.0 -416811000000.0 -300791000000.0 -98900400000.0 -144623000000.0 -18306000000.0 -12549700000.0 -211661000000.0 -184830000000.0 -176445000000.0 -211162000000.0 -147828000000.0 -128658000000.0 -159656000000.0 -574146000000.0 -236912000000.0 -258737000000.0 -32385600000.0 -296751000000.0 -99282500000.0 -267971000000.0 -27121300000.0 -76638400000.0 -179442000000.0 -169607000000.0 -76855700000.0 -137027000000.0 -43256300000.0 -53600500000.0 -92118400000.0 -196948000000.0 -12549700000.0 -131609000000.0 -118679000000.0 -113007000000.0 -151601000000.0 -27961800000.0 -48193400000.0 -201675000000.0 -290187000000.0 -163111000000.0 -192663000000.0 -114823000000.0 -94986100000.0 -87958100000.0 -103812000000.0 -87195100000.0 -22414800000.0 -32581100000.0 -116924000000.0 -122364000000.0 -71897900000.0 -96509100000.0 -146313000000.0 -18536900000.0 -62782700000.0 -133811000000.0 -83740400000.0 -127538000000.0 -109852000000.0 -241980000000.0 -196824000000.0 -156243000000.0 -145716000000.0 -18283100000.0 -122369000000.0 -190046000000.0 -12549700000.0 -146772000000.0 -23729900000.0 -103877000000.0 -76764100000.0 -38708200000.0 -114469000000.0 -81560400000.0 -235412000000.0 -164930000000.0 -144926000000.0 -24750500000.0 -235332000000.0 -131416000000.0 -100414000000.0 -484062000000.0 -312912000000.0 -342057000000.0 -381805000000.0 -394450000000.0 -37275500000.0 -156229000000.0 -229620000000.0 -199318000000.0 -472570000000.0 -286851000000.0 -194881000000.0 -220977000000.0 -124379000000.0 -188539000000.0 -107188000000.0 -172589000000.0 -12645100000.0 -195512000000.0 -180215000000.0 -25192700000.0 -17952300000.0 -17586900000.0 -37786700000.0 -13014600000.0 -28289200000.0 -109877000000.0 -12549700000.0 -158264000000.0 -436231000000.0 -150956000000.0 -159230000000.0 -125826000000.0 -164885000000.0 -121381000000.0 -129635000000.0 -137267000000.0 -122689000000.0 -222616000000.0 -266683000000.0 -98911300000.0 -81232500000.0 -120062000000.0 -116464000000.0 -82101400000.0 -148388000000.0 -100541000000.0 -49843600000.0 -84038800000.0 -85628300000.0 -79817200000.0 -43926000000.0 -50481900000.0 -119719000000.0 -59615400000.0 -81456400000.0 -70085900000.0 -56686400000.0 -129279000000.0 -134895000000.0 -252539000000.0 -257551000000.0 -77235000000.0 -284002000000.0 -55013300000.0 -186589000000.0 -62193800000.0 -30845900000.0 -69916400000.0 -64586000000.0 -68409000000.0 -190209000000.0 -16914600000.0 -25041100000.0 -35027300000.0 -47444100000.0 -202425000000.0 -49731200000.0 -154227000000.0 -206058000000.0 -329493000000.0 -219825000000.0 -314273000000.0 -185106000000.0 -243965000000.0 -220101000000.0 -119355000000.0 -219615000000.0 -23258800000.0 -15383700000.0 -60083100000.0 -14858700000.0 -18834300000.0 -14725700000.0 -76917300000.0 -175499000000.0 -53508100000.0 -86444400000.0 -69351300000.0 -149034000000.0 -157441000000.0 -17265800000.0 -13715000000.0 -51194200000.0 -120021000000.0 -250685000000.0 -282259000000.0 -46623800000.0 -159178000000.0 -222531000000.0 -191368000000.0 -110569000000.0 -205708000000.0 -88341800000.0 -189103000000.0 -169550000000.0 -95407700000.0 -249517000000.0 -47565800000.0 -352484000000.0 -113258000000.0 -200846000000.0 -350026000000.0 -25242400000.0 -550222000000.0 -277731000000.0 -84580100000.0 -169804000000.0 -128945000000.0 -219880000000.0 -91159900000.0 -196500000000.0 -94328100000.0 -145465000000.0 -134567000000.0 -121409000000.0 -173595000000.0 -343134000000.0 -274278000000.0 -12674000000.0 -174671000000.0 -150257000000.0 -123429000000.0 -143468000000.0 -100703000000.0 -64956800000.0 -165125000000.0 -198958000000.0 -16262600000.0 -13505100000.0 -132568000000.0 -19383300000.0 -112810000000.0 -13008200000.0 -12562400000.0 -12549700000.0 -92255200000.0 -53992400000.0 -90800500000.0 -14572400000.0 -104128000000.0 -120621000000.0 -239284000000.0 -86390200000.0 -89331600000.0 -103610000000.0 -175569000000.0 -137356000000.0 -151049000000.0 -20116600000.0 -26742800000.0 -12637700000.0 -260199000000.0 -317762000000.0 -235708000000.0 -125673000000.0 -126809000000.0 -19809900000.0 -156836000000.0 -203546000000.0 -31241900000.0 -188248000000.0 -24320200000.0 -164836000000.0 -154017000000.0 -13797200000.0 -162288000000.0 -13009800000.0 -12549700000.0 -224613000000.0 -125757000000.0 -151029000000.0 -12993000000.0 -201680000000.0 -64212000000.0 -102013000000.0 -65780600000.0 -47760800000.0 -179204000000.0 -91322800000.0 -124837000000.0 -81354600000.0 -24425400000.0 -12549700000.0 -29238600000.0 -52649700000.0 -65185900000.0 -126750000000.0 -15906300000.0 -56708400000.0 -138058000000.0 -114443000000.0 -223266000000.0 -25462900000.0 -269932000000.0 -513068000000.0 -145447000000.0 -309477000000.0 -189091000000.0 -90202100000.0 -47468900000.0 -373523000000.0 -37095500000.0 -468514000000.0 -375497000000.0 -211150000000.0 -51073900000.0 -617072000000.0 -798309000000.0 -413639000000.0 -207835000000.0 -275494000000.0 -438998000000.0 -394640000000.0 -263380000000.0 -116198000000.0 -221077000000.0 -91529400000.0 -90497900000.0 -133089000000.0 -183826000000.0 -140983000000.0 -67575800000.0 -76128400000.0 -97361300000.0 -25641500000.0 -48190800000.0 -93018600000.0 -90452100000.0 -133506000000.0 -165819000000.0 -101788000000.0 -223264000000.0 -37786100000.0 -12549700000.0 -138627000000.0 -152960000000.0 -86243500000.0 -239963000000.0 -12549700000.0 -181366000000.0 -48812600000.0 -89594400000.0 -64601600000.0 -100665000000.0 -56299000000.0 -76499700000.0 -14004100000.0 -41577000000.0 -85236400000.0 -76555800000.0 -109628000000.0 -154153000000.0 -89650300000.0 -121917000000.0 -188491000000.0 -87558800000.0 -22031700000.0 -29953100000.0 -43834900000.0 -12549700000.0 -12549700000.0 -12932600000.0 -269028000000.0 -12792900000.0 -235471000000.0 -187186000000.0 -245876000000.0 -183518000000.0 -63941400000.0 -137895000000.0 -21699600000.0 -110254000000.0 -19328400000.0 -118277000000.0 -27345400000.0 -102930000000.0 -103995000000.0 -117840000000.0 -161078000000.0 -70268900000.0 -128655000000.0 -140555000000.0 -267447000000.0 -115277000000.0 -344417000000.0 -13417800000.0 -201213000000.0 -70845300000.0 -45131700000.0 -143066000000.0 -290072000000.0 -26161800000.0 -182570000000.0 -37175800000.0 -101377000000.0 -78581400000.0 -108403000000.0 -98218300000.0 -87262500000.0 -208249000000.0 -126090000000.0 -255177000000.0 -219199000000.0 -134480000000.0 -174606000000.0 -344002000000.0 -449160000000.0 -229561000000.0 -397521000000.0 -246826000000.0 -373120000000.0 -44094000000.0 -331317000000.0 -90177000000.0 -207217000000.0 -373855000000.0 -102738000000.0 -103044000000.0 -173037000000.0 -353726000000.0 -309332000000.0 -653664000000.0 -644906000000.0 -180797000000.0 -489940000000.0 -92942000000.0 -179061000000.0 -48498900000.0 -103481000000.0 -143093000000.0 -56315300000.0 -64696200000.0 -12549700000.0 -38154800000.0 -19626900000.0 -66130800000.0 -69831800000.0 -112791000000.0 -79908000000.0 -166610000000.0 -54054800000.0 -59675000000.0 -97840800000.0 -257057000000.0 -186847000000.0 -212229000000.0 -138631000000.0 -168022000000.0 -130135000000.0 -194254000000.0 -140326000000.0 -243129000000.0 -148103000000.0 -52776600000.0 -27083500000.0 -147078000000.0 -170643000000.0 -193843000000.0 -53527400000.0 -211697000000.0 -130508000000.0 -188289000000.0 -148271000000.0 -175514000000.0 -81852900000.0 -185591000000.0 -45091200000.0 -21976400000.0 -33380000000.0 -29960800000.0 -14329700000.0 -309313000000.0 -13173500000.0 -47514300000.0 -161370000000.0 -147334000000.0 -97584700000.0 -47655900000.0 -116399000000.0 -29974900000.0 -138974000000.0 -12549700000.0 -12549700000.0 -40946500000.0 -65607500000.0 -61567800000.0 -39831800000.0 -216774000000.0 -285737000000.0 -12846600000.0 -276893000000.0 -191791000000.0 -257802000000.0 -238512000000.0 -204147000000.0 -143020000000.0 -100741000000.0 -141483000000.0 -75605500000.0 -149337000000.0 -170803000000.0 -192915000000.0 -62217200000.0 -13291500000.0 -310917000000.0 -112350000000.0 -150153000000.0 -295367000000.0 -12549700000.0 -64435800000.0 -109759000000.0 -267222000000.0 -217248000000.0 -171214000000.0 -188021000000.0 -354443000000.0 -141559000000.0 -268430000000.0 -109937000000.0 -354469000000.0 -126076000000.0 -172881000000.0 -167704000000.0 -166593000000.0 -18327100000.0 -393494000000.0 -27208400000.0 -64092300000.0 -122136000000.0 -176654000000.0 -182817000000.0 -77987100000.0 -81056300000.0 -39859500000.0 -100897000000.0 -26621100000.0 -105812000000.0 -132852000000.0 -133516000000.0 -200594000000.0 -184144000000.0 -99580200000.0 -80249600000.0 -15245700000.0 -266211000000.0 -228988000000.0 -122805000000.0 -64864600000.0 -63709600000.0 -207277000000.0 -61275900000.0 -167057000000.0 -69004400000.0 -178095000000.0 -163013000000.0 -160856000000.0 -127023000000.0 -193869000000.0 -256562000000.0 -85127800000.0 -228738000000.0 -310758000000.0 -292081000000.0 -305087000000.0 -153428000000.0 -201999000000.0 -13389200000.0 -203150000000.0 -183419000000.0 -187635000000.0 -277949000000.0 -146847000000.0 -133145000000.0 -92092600000.0 -166525000000.0 -103990000000.0 -230740000000.0 -32815200000.0 -104422000000.0 -70091700000.0 -67496600000.0 -60452700000.0 -79686900000.0 -86286300000.0 -88030300000.0 -140960000000.0 -112776000000.0 -192171000000.0 -92523800000.0 -131340000000.0 -13139800000.0 -15202000000.0 -114838000000.0 -414570000000.0 -208801000000.0 -201614000000.0 -466120000000.0 -31136900000.0 -193176000000.0 -134774000000.0 -149712000000.0 -60158100000.0 -140676000000.0 -86712400000.0 -14881000000.0 -18150300000.0 -224049000000.0 -170034000000.0 -152597000000.0 -67859400000.0 -142404000000.0 -292431000000.0 -288117000000.0 -107028000000.0 -283671000000.0 -54196600000.0 -87938600000.0 -250248000000.0 -159975000000.0 -114891000000.0 -203252000000.0 -28064100000.0 -108655000000.0 -205280000000.0 -238090000000.0 -230937000000.0 -400712000000.0 -50562100000.0 -419788000000.0 -176449000000.0 -320849000000.0 -330565000000.0 -374896000000.0 -110989000000.0 -134392000000.0 -95357000000.0 -171292000000.0 -165120000000.0 -42347300000.0 -44986200000.0 -22013500000.0 -118629000000.0 -95622500000.0 -136379000000.0 -58522900000.0 -66066300000.0 -24970300000.0 -230023000000.0 -337480000000.0 -227008000000.0 -163975000000.0 -80883000000.0 -68424100000.0 -82942700000.0 -64979400000.0 -95488900000.0 -112190000000.0 -75369600000.0 -121429000000.0 -43178100000.0 -118563000000.0 -63332100000.0 -52932100000.0 -40683600000.0 -176118000000.0 -17547900000.0 -123904000000.0 -138026000000.0 -426426000000.0 -176362000000.0 -186031000000.0 -440844000000.0 -108728000000.0 -106677000000.0 -304944000000.0 -112239000000.0 -382815000000.0 -247403000000.0 -116774000000.0 -222878000000.0 -185865000000.0 -24418600000.0 -109382000000.0 -136178000000.0 -39985300000.0 -185201000000.0 -55295300000.0 -78376700000.0 -26416700000.0 -17868500000.0 -20857600000.0 -47539800000.0 -56680400000.0 -124936000000.0 -79231500000.0 -24230900000.0 -136609000000.0 -57844100000.0 -66542900000.0 -126607000000.0 -216976000000.0 -246258000000.0 -191320000000.0 -348686000000.0 -117890000000.0 -78219300000.0 -68300700000.0 -12549700000.0 -12549700000.0 -110952000000.0 -17356100000.0 -108446000000.0 -213274000000.0 -117186000000.0 -24373300000.0 -71269200000.0 -31059500000.0 -108727000000.0 -21601300000.0 -38827300000.0 -160586000000.0 -194657000000.0 -66873100000.0 -103602000000.0 -39399100000.0 -90036100000.0 -163386000000.0 -16258000000.0 -50862800000.0 -13305000000.0 -292301000000.0 -209874000000.0 -401875000000.0 -101609000000.0 -658449000000.0 -192390000000.0 -359358000000.0 -317545000000.0 -401820000000.0 -80193700000.0 -106481000000.0 -60380100000.0 -135560000000.0 -18186000000.0 -281010000000.0 -42944000000.0 -50587300000.0 -21623600000.0 -46946400000.0 -63241100000.0 -18400100000.0 -58608100000.0 -319827000000.0 -97214300000.0 -224839000000.0 -16441500000.0 -66979600000.0 -17097600000.0 -199447000000.0 -141090000000.0 -12549700000.0 -38947700000.0 -70441900000.0 -17037800000.0 -58129500000.0 -15629500000.0 -126026000000.0 -140634000000.0 -12548900000.0 -357821000000.0 -376522000000.0 -102750000000.0 -48367500000.0 -30543600000.0 -27291000000.0 -33056300000.0 -52792500000.0 -230957000000.0 -259226000000.0 -260062000000.0 -407435000000.0 -110154000000.0 -89250700000.0 -184584000000.0 -26187900000.0 -113213000000.0 -71194800000.0 -68523800000.0 -83638700000.0 -132375000000.0 -137125000000.0 -150413000000.0 -22564500000.0 -220677000000.0 -176547000000.0 -171790000000.0 -13749200000.0 -150872000000.0 -142068000000.0 -213199000000.0 -200827000000.0 -68562800000.0 -300634000000.0 -461686000000.0 -103696000000.0 -52483800000.0 -43944200000.0 -49174700000.0 -38115400000.0 -27888100000.0 -40869300000.0 -26850100000.0 -142338000000.0 -83828400000.0 -34478600000.0 -91621900000.0 -91625300000.0 -218143000000.0 -37134700000.0 -97090400000.0 -160520000000.0 -146496000000.0 -67673900000.0 -19322900000.0 -182865000000.0 -14233300000.0 -168074000000.0 -173813000000.0 -20174900000.0 -187373000000.0 -176828000000.0 -185779000000.0 -287932000000.0 -366227000000.0 -177021000000.0 -228793000000.0 -333908000000.0 -300295000000.0 -402894000000.0 -414684000000.0 -265618000000.0 -45797100000.0 -406257000000.0 -189868000000.0 -237862000000.0 -313891000000.0 -334211000000.0 -230860000000.0 -334041000000.0 -383312000000.0 -44562900000.0 -37788500000.0 -18455200000.0 -53430000000.0 -16192400000.0 -174545000000.0 -167040000000.0 -150118000000.0 -135812000000.0 -219439000000.0 -217083000000.0 -155152000000.0 -174396000000.0 -189196000000.0 -175883000000.0 -45031700000.0 -221801000000.0 -279098000000.0 -238766000000.0 -166912000000.0 -129516000000.0 -110312000000.0 -355483000000.0 -22344500000.0 -13159600000.0 -12549700000.0 -30712900000.0 -37778400000.0 -33998900000.0 -26955500000.0 -112860000000.0 -159534000000.0 -166041000000.0 -535023000000.0 -13087600000.0 -323096000000.0 -161861000000.0 -149121000000.0 -17369100000.0 -12551200000.0 -105610000000.0 -50982800000.0 -33413700000.0 -12549700000.0 -80316400000.0 -71916500000.0 -43543400000.0 -278738000000.0 -54687000000.0 -39600300000.0 -16154700000.0 -12549700000.0 -256636000000.0 -143544000000.0 -407690000000.0 -81326000000.0 -243957000000.0 -234301000000.0 -268913000000.0 -269353000000.0 -92036400000.0 -56216200000.0 -107912000000.0 -42902400000.0 -51870400000.0 -60727500000.0 -65908500000.0 -116309000000.0 -191252000000.0 -12549700000.0 -19445300000.0 -82539900000.0 -138692000000.0 -135269000000.0 -12549700000.0 -61528800000.0 -105748000000.0 -110150000000.0 -154657000000.0 -90982800000.0 -115547000000.0 -57657200000.0 -148212000000.0 -135814000000.0 -182029000000.0 -95474900000.0 -209662000000.0 -128456000000.0 -271052000000.0 -127841000000.0 -233370000000.0 -107891000000.0 -90697300000.0 -54974000000.0 -125379000000.0 -178575000000.0 -88513700000.0 -202176000000.0 -20301000000.0 -137982000000.0 -332652000000.0 -146852000000.0 -353741000000.0 -37214200000.0 -24119400000.0 -21666600000.0 -28632900000.0 -18200300000.0 -20876200000.0 -13706500000.0 -13342500000.0 -248536000000.0 -30714300000.0 -38942100000.0 -80147400000.0 -39450800000.0 -81596800000.0 -26432100000.0 -57087800000.0 -54053700000.0 -103405000000.0 -89805600000.0 -36677400000.0 -14153400000.0 -138870000000.0 -230723000000.0 -226762000000.0 -239339000000.0 -248360000000.0 -299743000000.0 -200402000000.0 -138717000000.0 -68420600000.0 -59087200000.0 -48309600000.0 -235093000000.0 -50044200000.0 -85054400000.0 -175131000000.0 -183699000000.0 -83270100000.0 -74353200000.0 -37097900000.0 -72641800000.0 -135248000000.0 -77253600000.0 -71878800000.0 -253708000000.0 -122257000000.0 -84344400000.0 -82030300000.0 -141600000000.0 -108912000000.0 -141591000000.0 -516607000000.0 -170813000000.0 -422491000000.0 -465665000000.0 -456954000000.0 -201125000000.0 -167703000000.0 -223951000000.0 -153800000000.0 -155780000000.0 -258628000000.0 -130165000000.0 -234811000000.0 -194041000000.0 -164035000000.0 -289863000000.0 -213957000000.0 -133756000000.0 -141994000000.0 -183488000000.0 -89237200000.0 -62256400000.0 -189995000000.0 -189593000000.0 -195653000000.0 -12549700000.0 -135554000000.0 -23513700000.0 -26058600000.0 -98710400000.0 -278813000000.0 -257013000000.0 -145681000000.0 -58355500000.0 -155099000000.0 -147008000000.0 -211855000000.0 -12549700000.0 -421060000000.0 -12548900000.0 -173868000000.0 -243007000000.0 -308562000000.0 -281672000000.0 -134993000000.0 -176968000000.0 -223112000000.0 -360379000000.0 -12549700000.0 -279927000000.0 -18161900000.0 -16556500000.0 -17961400000.0 -18877200000.0 -15694000000.0 -69296300000.0 -103840000000.0 -168140000000.0 -101955000000.0 -116368000000.0 -60754000000.0 -186920000000.0 -35475900000.0 -27280400000.0 -63144000000.0 -27805600000.0 -33228400000.0 -76610400000.0 -211795000000.0 -129177000000.0 -216806000000.0 -153674000000.0 -18870600000.0 -16112500000.0 -12549700000.0 -12549700000.0 -13740300000.0 -267137000000.0 -164960000000.0 -49306400000.0 -145798000000.0 -130483000000.0 -203910000000.0 -15065800000.0 -70304400000.0 -56385500000.0 -144201000000.0 -24046600000.0 -13486200000.0 -100410000000.0 -83253300000.0 -92768300000.0 -12549700000.0 -102785000000.0 -23888400000.0 -244589000000.0 -151843000000.0 -226802000000.0 -304928000000.0 -322384000000.0 -315726000000.0 -461693000000.0 -533963000000.0 -318261000000.0 -173392000000.0 -703686000000.0 -81544300000.0 -286690000000.0 -238271000000.0 -269991000000.0 -203426000000.0 -73479600000.0 -227120000000.0 -40712900000.0 -77326600000.0 -17246800000.0 -235939000000.0 -87828000000.0 -211080000000.0 -241194000000.0 -144266000000.0 -148984000000.0 -28334800000.0 -95903700000.0 -12549700000.0 -16113500000.0 -23528900000.0 -43566300000.0 -221490000000.0 -160362000000.0 -91352900000.0 -201344000000.0 -30590700000.0 -136852000000.0 -249397000000.0 -138905000000.0 -195456000000.0 -111935000000.0 -12549700000.0 -186973000000.0 -18564700000.0 -141857000000.0 -12549700000.0 -338337000000.0 -241123000000.0 -179150000000.0 -367998000000.0 -333925000000.0 -13552500000.0 -14108200000.0 -24028700000.0 -21225700000.0 -18657500000.0 -24064200000.0 -20079600000.0 -69706500000.0 -71118600000.0 -90281000000.0 -15437300000.0 -88277600000.0 -120972000000.0 -80440900000.0 -74446300000.0 -49439200000.0 -71160900000.0 -48866800000.0 -78625900000.0 -186195000000.0 -44786100000.0 -127114000000.0 -24064700000.0 -155443000000.0 -38655500000.0 -17070500000.0 -89171800000.0 -19205400000.0 -18470600000.0 -18132300000.0 -12549700000.0 -12549700000.0 -185695000000.0 -84206800000.0 -53266600000.0 -17629800000.0 -302811000000.0 -161954000000.0 -307936000000.0 -133192000000.0 -119779000000.0 -108221000000.0 -123683000000.0 -59950500000.0 -105907000000.0 -30138200000.0 -61329400000.0 -58447600000.0 -159459000000.0 -88688700000.0 -219110000000.0 -88281000000.0 -12949300000.0 -103507000000.0 -141906000000.0 -128441000000.0 -139210000000.0 -335167000000.0 -177590000000.0 -195519000000.0 -261612000000.0 -406431000000.0 -335051000000.0 -153733000000.0 -203854000000.0 -438788000000.0 -425861000000.0 -254030000000.0 -343445000000.0 -277791000000.0 -203167000000.0 -271969000000.0 -54143600000.0 -46730400000.0 -119753000000.0 -99534900000.0 -61274400000.0 -119422000000.0 -82628200000.0 -62411300000.0 -12905900000.0 -106212000000.0 -49600200000.0 -54140700000.0 -90130400000.0 -138684000000.0 -230311000000.0 -18438500000.0 -119537000000.0 -20552900000.0 -195781000000.0 -216616000000.0 -192112000000.0 -137780000000.0 -49079400000.0 -155873000000.0 -207605000000.0 -214267000000.0 -250592000000.0 -290124000000.0 -270793000000.0 -328920000000.0 -202858000000.0 -178133000000.0 -258529000000.0 -16082300000.0 -12968500000.0 -36837400000.0 -19322300000.0 -12549700000.0 -53996300000.0 -44669200000.0 -47239500000.0 -18029200000.0 -42733400000.0 -98624400000.0 -13334200000.0 -25868400000.0 -64661000000.0 -55189100000.0 -14931800000.0 -25204200000.0 -12549700000.0 -40049400000.0 -139642000000.0 -33480100000.0 -17556300000.0 -33018200000.0 -34543500000.0 -13683200000.0 -26356200000.0 -23603400000.0 -41923600000.0 -13126700000.0 -20655300000.0 -13173900000.0 -23156200000.0 -65553800000.0 -144030000000.0 -257555000000.0 -201392000000.0 -199917000000.0 -283925000000.0 -152134000000.0 -146049000000.0 -71112800000.0 -12549700000.0 -213092000000.0 -187233000000.0 -130980000000.0 -125910000000.0 -120100000000.0 -94650100000.0 -68854300000.0 -110947000000.0 -95126600000.0 -198867000000.0 -174915000000.0 -88617200000.0 -13727300000.0 -180577000000.0 -24124100000.0 -97779500000.0 -191537000000.0 -220810000000.0 -229472000000.0 -275625000000.0 -105952000000.0 -55825300000.0 -350921000000.0 -300276000000.0 -355793000000.0 -445433000000.0 -94051200000.0 -38707500000.0 -17477900000.0 -165976000000.0 -271123000000.0 -66397300000.0 -78321100000.0 -63799200000.0 -133782000000.0 -98364500000.0 -81178800000.0 -116571000000.0 -126794000000.0 -104943000000.0 -13548400000.0 -88856800000.0 -37740600000.0 -70633800000.0 -38842500000.0 -67787700000.0 -15085300000.0 -78991600000.0 -49401400000.0 -103096000000.0 -41733800000.0 -170090000000.0 -102581000000.0 -20903100000.0 -36267600000.0 -69082000000.0 -196611000000.0 -68548100000.0 -468837000000.0 -44662000000.0 -127624000000.0 -708584000000.0 -368212000000.0 -86041000000.0 -188718000000.0 -208075000000.0 -197361000000.0 -184311000000.0 -136002000000.0 -100593000000.0 -68096400000.0 -23148200000.0 -88363100000.0 -66989900000.0 -90497600000.0 -50471900000.0 -81271700000.0 -80696100000.0 -71691400000.0 -99806100000.0 -28728100000.0 -12549700000.0 -15037600000.0 -34169300000.0 -21427100000.0 -20556700000.0 -17043900000.0 -27650100000.0 -21122900000.0 -18562000000.0 -25130200000.0 -26378300000.0 -38006100000.0 -339629000000.0 -16083000000.0 -32975900000.0 -87764500000.0 -343782000000.0 -95878300000.0 -182048000000.0 -214596000000.0 -86049000000.0 -46680900000.0 -145032000000.0 -143552000000.0 -278906000000.0 -154362000000.0 -227993000000.0 -154014000000.0 -353520000000.0 -234928000000.0 -215797000000.0 -40790200000.0 -130053000000.0 -268916000000.0 -589761000000.0 -417217000000.0 -234913000000.0 -399759000000.0 -265380000000.0 -244404000000.0 -622458000000.0 -88329100000.0 -218066000000.0 -63859600000.0 -309394000000.0 -191031000000.0 -17550200000.0 -80893300000.0 -240964000000.0 -229291000000.0 -47432300000.0 -23976500000.0 -69605400000.0 -139131000000.0 -62294000000.0 -141324000000.0 -16753500000.0 -13432500000.0 -126278000000.0 -68143700000.0 -13595800000.0 -96614000000.0 -14448000000.0 -72678700000.0 -115055000000.0 -38685800000.0 -12549700000.0 -97142700000.0 -137427000000.0 -14292500000.0 -96413900000.0 -115103000000.0 -115982000000.0 -75325400000.0 -62286400000.0 -56806000000.0 -103357000000.0 -49984600000.0 -70342800000.0 -437901000000.0 -46242200000.0 -123962000000.0 -585740000000.0 -215560000000.0 -236679000000.0 -55384500000.0 -56746100000.0 -53193900000.0 -164703000000.0 -129179000000.0 -96663700000.0 -94455800000.0 -81945000000.0 -61477900000.0 -74920600000.0 -69388700000.0 -108796000000.0 -72946900000.0 -86648800000.0 -104051000000.0 -104535000000.0 -123005000000.0 -75531300000.0 -57299500000.0 -35367900000.0 -29687000000.0 -73513100000.0 -51137700000.0 -48694100000.0 -45657600000.0 -60224500000.0 -17204100000.0 -38723700000.0 -20824500000.0 -40632700000.0 -381590000000.0 -56273700000.0 -105269000000.0 -147932000000.0 -226516000000.0 -133343000000.0 -37766200000.0 -234994000000.0 -240420000000.0 -211236000000.0 -135301000000.0 -237501000000.0 -241940000000.0 -178361000000.0 -134840000000.0 -135475000000.0 -328443000000.0 -18249600000.0 -183170000000.0 -151873000000.0 -144042000000.0 -54868000000.0 -203011000000.0 -12549700000.0 -418830000000.0 -119172000000.0 -383405000000.0 -25496800000.0 -476906000000.0 -232817000000.0 -293811000000.0 -155712000000.0 -187751000000.0 -293098000000.0 -307355000000.0 -412576000000.0 -317563000000.0 -85033500000.0 -63932500000.0 -108660000000.0 -198780000000.0 -126869000000.0 -154681000000.0 -40567500000.0 -19863200000.0 -97710700000.0 -102005000000.0 -48277600000.0 -119845000000.0 -33623800000.0 -59291500000.0 -36558900000.0 -78011000000.0 -51578300000.0 -69151100000.0 -105772000000.0 -226825000000.0 -53997400000.0 -54712300000.0 -293734000000.0 -68916100000.0 -36118600000.0 -131443000000.0 -78135900000.0 -132240000000.0 -291311000000.0 -201645000000.0 -12549700000.0 -134579000000.0 -516156000000.0 -143060000000.0 -209289000000.0 -89148700000.0 -115516000000.0 -161437000000.0 -35550800000.0 -34483200000.0 -44382300000.0 -22653000000.0 -12549700000.0 -12549700000.0 -12549700000.0 -52572400000.0 -13832600000.0 -15009500000.0 -30936100000.0 -15106400000.0 -13101400000.0 -132756000000.0 -39234700000.0 -151885000000.0 -107271000000.0 -92345200000.0 -130166000000.0 -13710300000.0 -14262600000.0 -29504800000.0 -108913000000.0 -145936000000.0 -232498000000.0 -229323000000.0 -345154000000.0 -208247000000.0 -60645000000.0 -113179000000.0 -157830000000.0 -336973000000.0 -244355000000.0 -292928000000.0 -425105000000.0 -28136500000.0 -65495600000.0 -62175900000.0 -159300000000.0 -12549700000.0 -215871000000.0 -30598200000.0 -107440000000.0 -318050000000.0 -138850000000.0 -332685000000.0 -361516000000.0 -336422000000.0 -182140000000.0 -145292000000.0 -465122000000.0 -136307000000.0 -152464000000.0 -442152000000.0 -174151000000.0 -451510000000.0 -112030000000.0 -148226000000.0 -35817800000.0 -109367000000.0 -241331000000.0 -21782800000.0 -12549700000.0 -294517000000.0 -314946000000.0 -100893000000.0 -111224000000.0 -170260000000.0 -441537000000.0 -289663000000.0 -308230000000.0 -214925000000.0 -119893000000.0 -222368000000.0 -33317500000.0 -12549700000.0 -104511000000.0 -13553000000.0 -27563200000.0 -15880300000.0 -32258200000.0 -45664700000.0 -80372000000.0 -207717000000.0 -23483600000.0 -36524600000.0 -344041000000.0 -147521000000.0 -205640000000.0 -18299200000.0 -152035000000.0 -326198000000.0 -18009000000.0 -511969000000.0 -313019000000.0 -173348000000.0 -279269000000.0 -42825300000.0 -30904500000.0 -82681000000.0 -41663900000.0 -23713400000.0 -22611900000.0 -27041900000.0 -52491400000.0 -26041600000.0 -16383800000.0 -13548500000.0 -12549700000.0 -47602600000.0 -12971100000.0 -22689600000.0 -14470300000.0 -23687300000.0 -47809900000.0 -82551400000.0 -19994400000.0 -16909800000.0 -44939100000.0 -146221000000.0 -106910000000.0 -165198000000.0 -81455200000.0 -115333000000.0 -16470900000.0 -12914600000.0 -420190000000.0 -291491000000.0 -235865000000.0 -380450000000.0 -363562000000.0 -517316000000.0 -205160000000.0 -180135000000.0 -354897000000.0 -343926000000.0 -359688000000.0 -30051400000.0 -444042000000.0 -205764000000.0 -265758000000.0 -340276000000.0 -355817000000.0 -552979000000.0 -337870000000.0 -358066000000.0 -297198000000.0 -311405000000.0 -423228000000.0 -352666000000.0 -320136000000.0 -302212000000.0 -232538000000.0 -408270000000.0 -126053000000.0 -109787000000.0 -299680000000.0 -98412300000.0 -140349000000.0 -195409000000.0 -73543800000.0 -257287000000.0 -220076000000.0 -265484000000.0 -246150000000.0 -132464000000.0 -209933000000.0 -242862000000.0 -181061000000.0 -298083000000.0 -119004000000.0 -191328000000.0 -111390000000.0 -87109800000.0 -74444300000.0 -66079100000.0 -122817000000.0 -47347200000.0 -64856900000.0 -379973000000.0 -12946000000.0 -165853000000.0 -192143000000.0 -114492000000.0 -444406000000.0 -205439000000.0 -686415000000.0 -472096000000.0 -525416000000.0 -510030000000.0 -13018200000.0 -35667700000.0 -13786600000.0 -19545400000.0 -20116200000.0 -49015800000.0 -56381600000.0 -16112000000.0 -12549700000.0 -12549700000.0 -12549700000.0 -50089400000.0 -14630100000.0 -38039300000.0 -45439000000.0 -43089000000.0 -14711900000.0 -37138400000.0 -60903300000.0 -141522000000.0 -61442300000.0 -69204000000.0 -94380400000.0 -85454500000.0 -45690100000.0 -47274600000.0 -55276000000.0 -114966000000.0 -184262000000.0 -430465000000.0 -206409000000.0 -197303000000.0 -189751000000.0 -407030000000.0 -291949000000.0 -201057000000.0 -251161000000.0 -12549700000.0 -631069000000.0 -284093000000.0 -496945000000.0 -386607000000.0 -323774000000.0 -303773000000.0 -406295000000.0 -572217000000.0 -12549600000.0 -568840000000.0 -208231000000.0 -111949000000.0 -499713000000.0 -320779000000.0 -411854000000.0 -482027000000.0 -195847000000.0 -211737000000.0 -206630000000.0 -353499000000.0 -239670000000.0 -141107000000.0 -107894000000.0 -264312000000.0 -13001800000.0 -159235000000.0 -194808000000.0 -21706300000.0 -189589000000.0 -36709700000.0 -135353000000.0 -196821000000.0 -76435600000.0 -91957300000.0 -87426100000.0 -173930000000.0 -129352000000.0 -298885000000.0 -289885000000.0 -213771000000.0 -165485000000.0 -207973000000.0 -257537000000.0 -128535000000.0 -150746000000.0 -199985000000.0 -192303000000.0 -283211000000.0 -309094000000.0 -382554000000.0 -191664000000.0 -276253000000.0 -158460000000.0 -406595000000.0 -135215000000.0 -450682000000.0 -125377000000.0 -333887000000.0 -286334000000.0 -153572000000.0 -121911000000.0 -254739000000.0 -39044700000.0 -18903300000.0 -61325900000.0 -20097600000.0 -34511500000.0 -80830400000.0 -45468600000.0 -19349900000.0 -15428700000.0 -13472000000.0 -12549700000.0 -56003600000.0 -24813200000.0 -47153600000.0 -18778200000.0 -70994800000.0 -12549700000.0 -34233100000.0 -12549700000.0 -12549700000.0 -44237600000.0 -13740800000.0 -98093600000.0 -58673500000.0 -33338700000.0 -19453500000.0 -51242900000.0 -73353300000.0 -246500000000.0 -138815000000.0 -126132000000.0 -110725000000.0 -92413400000.0 -240549000000.0 -348499000000.0 -604981000000.0 -26238600000.0 -50445200000.0 -322443000000.0 -192569000000.0 -17985800000.0 -148421000000.0 -155463000000.0 -186807000000.0 -41071300000.0 -236005000000.0 -167641000000.0 -253542000000.0 -118196000000.0 -329722000000.0 -288280000000.0 -383484000000.0 -437138000000.0 -388175000000.0 -141259000000.0 -289505000000.0 -297963000000.0 -670789000000.0 -333461000000.0 -271298000000.0 -127147000000.0 -192042000000.0 -17580900000.0 -113071000000.0 -116671000000.0 -288261000000.0 -191836000000.0 -29012300000.0 -139382000000.0 -12549700000.0 -227777000000.0 -54854600000.0 -145733000000.0 -241022000000.0 -97328700000.0 -61948000000.0 -158474000000.0 -395875000000.0 -218488000000.0 -134666000000.0 -171125000000.0 -82021600000.0 -217415000000.0 -204801000000.0 -36812500000.0 -38337900000.0 -402378000000.0 -297562000000.0 -129417000000.0 -113300000000.0 -183791000000.0 -126619000000.0 -123657000000.0 -119423000000.0 -124137000000.0 -240476000000.0 -141037000000.0 -81722100000.0 -377527000000.0 -94363900000.0 -117626000000.0 -221493000000.0 -40149400000.0 -12574800000.0 -50809000000.0 -37464700000.0 -32091500000.0 -60258700000.0 -117245000000.0 -35808300000.0 -18064000000.0 -14203800000.0 -15228500000.0 -22424800000.0 -60643300000.0 -29941300000.0 -54005900000.0 -13804700000.0 -102863000000.0 -14359300000.0 -110040000000.0 -35940400000.0 -134750000000.0 -12549700000.0 -26597000000.0 -12549700000.0 -107729000000.0 -105867000000.0 -68527000000.0 -41632400000.0 -211585000000.0 -342546000000.0 -288022000000.0 -233961000000.0 -242205000000.0 -20539100000.0 -18093400000.0 -350040000000.0 -325115000000.0 -145394000000.0 -271795000000.0 -397374000000.0 -426974000000.0 -251365000000.0 -277048000000.0 -316548000000.0 -228142000000.0 -92272800000.0 -331467000000.0 -181298000000.0 -393035000000.0 -171563000000.0 -321317000000.0 -415674000000.0 -277825000000.0 -139018000000.0 -12549700000.0 -449206000000.0 -321713000000.0 -174782000000.0 -84533200000.0 -16835200000.0 -128482000000.0 -286491000000.0 -183671000000.0 -119123000000.0 -244511000000.0 -127770000000.0 -63706800000.0 -214139000000.0 -343465000000.0 -184196000000.0 -193911000000.0 -327172000000.0 -144396000000.0 -158026000000.0 -218220000000.0 -304880000000.0 -299577000000.0 -63866700000.0 -113115000000.0 -48682200000.0 -40029800000.0 -175053000000.0 -226129000000.0 -197031000000.0 -96260700000.0 -89466300000.0 -212096000000.0 -247909000000.0 -170558000000.0 -154720000000.0 -395201000000.0 -415200000000.0 -233127000000.0 -301396000000.0 -455835000000.0 -460404000000.0 -405299000000.0 -454631000000.0 -337332000000.0 -731126000000.0 -364881000000.0 -242472000000.0 -79151100000.0 -130049000000.0 -124285000000.0 -94162800000.0 -104645000000.0 -125631000000.0 -273330000000.0 -115480000000.0 -82214900000.0 -81544100000.0 -90043400000.0 -69374300000.0 -93166600000.0 -89503800000.0 -71107900000.0 -149157000000.0 -158074000000.0 -146019000000.0 -150447000000.0 -77520400000.0 -107567000000.0 -88981500000.0 -102509000000.0 -160635000000.0 -264993000000.0 -160037000000.0 -185513000000.0 -205854000000.0 -37245500000.0 -347554000000.0 -43669800000.0 -114478000000.0 -175585000000.0 -60284000000.0 -82921400000.0 -16533500000.0 -111918000000.0 -315908000000.0 -300868000000.0 -155650000000.0 -370132000000.0 -270430000000.0 -309848000000.0 -93694800000.0 -397109000000.0 -214616000000.0 -457443000000.0 -312655000000.0 -342501000000.0 -197236000000.0 -74498500000.0 -481446000000.0 -299400000000.0 -164587000000.0 -29139900000.0 -225724000000.0 -72942900000.0 -87319800000.0 -21684000000.0 -95412300000.0 -46370500000.0 -205268000000.0 -188733000000.0 -137872000000.0 -164420000000.0 -51493400000.0 -14414900000.0 -148914000000.0 -70510400000.0 -30590200000.0 -135802000000.0 -307875000000.0 -296979000000.0 -118573000000.0 -141180000000.0 -307147000000.0 -39113700000.0 -51455300000.0 -33616100000.0 -253948000000.0 -286254000000.0 -106921000000.0 -273148000000.0 -266046000000.0 -369005000000.0 -376233000000.0 -488205000000.0 -365202000000.0 -135596000000.0 -246994000000.0 -97748700000.0 -226610000000.0 -49200800000.0 -28623400000.0 -150262000000.0 -79624900000.0 -41357400000.0 -174226000000.0 -353662000000.0 -212905000000.0 -668742000000.0 -314121000000.0 -16977600000.0 -94960400000.0 -20795500000.0 -39208400000.0 -14063500000.0 -247210000000.0 -75759100000.0 -44800100000.0 -38302300000.0 -55022000000.0 -12549700000.0 -12549700000.0 -84626400000.0 -100194000000.0 -74322800000.0 -142575000000.0 -296318000000.0 -150259000000.0 -71359000000.0 -88704900000.0 -24033400000.0 -77515500000.0 -268585000000.0 -29612200000.0 -99652200000.0 -12439500000.0 -35162700000.0 -49549800000.0 -338704000000.0 -127421000000.0 -15241200000.0 -138933000000.0 -45065200000.0 -48706900000.0 -183919000000.0 -188589000000.0 -20982000000.0 -17639600000.0 -134680000000.0 -521091000000.0 -267588000000.0 -307063000000.0 -379778000000.0 -181604000000.0 -287134000000.0 -123450000000.0 -206343000000.0 -13015300000.0 -347882000000.0 -220574000000.0 -46669200000.0 -473501000000.0 -320523000000.0 -196772000000.0 -158679000000.0 -525320000000.0 -18417900000.0 -214889000000.0 -267120000000.0 -319146000000.0 -81188600000.0 -102479000000.0 -71689000000.0 -66379700000.0 -210332000000.0 -130162000000.0 -40184900000.0 -32049000000.0 -52009500000.0 -145527000000.0 -41192800000.0 -20378600000.0 -116563000000.0 -428933000000.0 -496048000000.0 -267363000000.0 -312701000000.0 -261859000000.0 -410588000000.0 -278483000000.0 -267117000000.0 -203116000000.0 -76619000000.0 -64090400000.0 -65408600000.0 -63174300000.0 -35185200000.0 -257103000000.0 -104019000000.0 -27143600000.0 -32637000000.0 -237206000000.0 -185243000000.0 -94725600000.0 -69405000000.0 -155300000000.0 -55024700000.0 -162152000000.0 -416672000000.0 -30329000000.0 -172788000000.0 -157323000000.0 -24447400000.0 -120534000000.0 -90813200000.0 -65625400000.0 -49496200000.0 -195103000000.0 -44373700000.0 -12549700000.0 -16873000000.0 -28036200000.0 -78512900000.0 -94293500000.0 -103749000000.0 -173284000000.0 -178046000000.0 -12549700000.0 -12549700000.0 -344337000000.0 -232154000000.0 -250931000000.0 -143362000000.0 -236287000000.0 -129603000000.0 -181583000000.0 -12549100000.0 -177870000000.0 -181624000000.0 -95349200000.0 -112212000000.0 -355960000000.0 -148958000000.0 -35956600000.0 -173252000000.0 -78574600000.0 -150754000000.0 -125671000000.0 -95455000000.0 -104447000000.0 -230733000000.0 -307854000000.0 -29719900000.0 -273974000000.0 -379907000000.0 -580903000000.0 -642597000000.0 -622519000000.0 -435705000000.0 -362123000000.0 -283684000000.0 -669585000000.0 -716981000000.0 -341336000000.0 -560538000000.0 -413401000000.0 -176578000000.0 -154042000000.0 -362439000000.0 -34966000000.0 -57452700000.0 -45968800000.0 -15715600000.0 -174222000000.0 -128261000000.0 -80062300000.0 -91417100000.0 -95889200000.0 -281738000000.0 -30024600000.0 -37789400000.0 -93112100000.0 -726181000000.0 -204362000000.0 -169509000000.0 -22106400000.0 -337746000000.0 -16578100000.0 -221589000000.0 -401464000000.0 -35866000000.0 -112190000000.0 -18630200000.0 -29310100000.0 -72878800000.0 -204344000000.0 -225486000000.0 -158269000000.0 -189695000000.0 -384336000000.0 -140315000000.0 -20632100000.0 -14086900000.0 -138572000000.0 -61055800000.0 -242376000000.0 -472311000000.0 -74525400000.0 -76613000000.0 -298836000000.0 -48349000000.0 -115646000000.0 -26483900000.0 -15241600000.0 -91658000000.0 -284053000000.0 -150878000000.0 -116167000000.0 -115559000000.0 -106884000000.0 -97478700000.0 -143460000000.0 -186603000000.0 -42851700000.0 -129886000000.0 -230125000000.0 -246716000000.0 -415857000000.0 -414886000000.0 -28381700000.0 -28278100000.0 -161704000000.0 -183584000000.0 -25993500000.0 -144979000000.0 -125188000000.0 -47691000000.0 -139810000000.0 -316772000000.0 -126316000000.0 -220364000000.0 -12549700000.0 -12549700000.0 -103562000000.0 -82242800000.0 -18277000000.0 -27748200000.0 -133738000000.0 -87253500000.0 -271508000000.0 -325179000000.0 -123256000000.0 -188897000000.0 -260315000000.0 -296659000000.0 -30980500000.0 -86327500000.0 -20147500000.0 -438901000000.0 -451008000000.0 -264668000000.0 -551452000000.0 -126230000000.0 -621833000000.0 -132377000000.0 -346373000000.0 -42768400000.0 -180935000000.0 -153731000000.0 -249743000000.0 -438955000000.0 -387278000000.0 -122957000000.0 -120011000000.0 -232628000000.0 -165507000000.0 -164173000000.0 -164016000000.0 -335129000000.0 -30721700000.0 -275122000000.0 -259008000000.0 -720469000000.0 -74078200000.0 -172663000000.0 -16373500000.0 -190767000000.0 -12549700000.0 -74646100000.0 -282274000000.0 -179280000000.0 -281288000000.0 -399472000000.0 -112169000000.0 -210530000000.0 -115469000000.0 -140207000000.0 -279584000000.0 -112536000000.0 -174739000000.0 -47444400000.0 -28053500000.0 -13901000000.0 -417377000000.0 -140418000000.0 -189416000000.0 -234147000000.0 -100887000000.0 -251252000000.0 -475712000000.0 -98125200000.0 -71467300000.0 -288760000000.0 -30392900000.0 -112380000000.0 -13870900000.0 -21929700000.0 -332486000000.0 -190826000000.0 -129864000000.0 -121383000000.0 -82365000000.0 -84903600000.0 -95068100000.0 -124111000000.0 -118737000000.0 -108519000000.0 -17492300000.0 -12549700000.0 -88867700000.0 -56118700000.0 -546266000000.0 -513326000000.0 -305912000000.0 -464849000000.0 -203044000000.0 -213794000000.0 -365860000000.0 -361315000000.0 -313644000000.0 -176863000000.0 -35386700000.0 -416299000000.0 -388675000000.0 -186017000000.0 -189076000000.0 -123297000000.0 -227672000000.0 -165961000000.0 -194736000000.0 -323123000000.0 -112988000000.0 -136412000000.0 -168875000000.0 -159312000000.0 -181077000000.0 -85575500000.0 -88678200000.0 -148495000000.0 -306515000000.0 -295978000000.0 -71642400000.0 -615177000000.0 -329518000000.0 -467101000000.0 -121249000000.0 -340097000000.0 -465786000000.0 -350642000000.0 -260042000000.0 -134327000000.0 -136133000000.0 -147022000000.0 -99527100000.0 -272647000000.0 -252338000000.0 -323554000000.0 -59963600000.0 -120648000000.0 -32006900000.0 -212026000000.0 -52751300000.0 -52929500000.0 -80740100000.0 -925714000000.0 -351504000000.0 -256782000000.0 -406278000000.0 -460577000000.0 -433950000000.0 -475172000000.0 -202681000000.0 -576921000000.0 -406541000000.0 -343722000000.0 -365428000000.0 -391354000000.0 -345560000000.0 -299657000000.0 -406571000000.0 -381158000000.0 -12545800000.0 -35114300000.0 -17057800000.0 -428114000000.0 -130843000000.0 -188437000000.0 -218249000000.0 -85654800000.0 -321108000000.0 -176617000000.0 -470301000000.0 -127659000000.0 -322010000000.0 -144805000000.0 -363303000000.0 -335031000000.0 -365807000000.0 -192002000000.0 -47312000000.0 -24581100000.0 -79584000000.0 -37360700000.0 -44415500000.0 -76977400000.0 -70608500000.0 -248692000000.0 -215605000000.0 -174501000000.0 -137397000000.0 -120085000000.0 -180741000000.0 -432359000000.0 -374686000000.0 -78510600000.0 -239243000000.0 -133561000000.0 -24756200000.0 -214720000000.0 -216416000000.0 -125272000000.0 -186263000000.0 -172936000000.0 -279534000000.0 -195783000000.0 -19533700000.0 -60588600000.0 -49447000000.0 -92660000000.0 -22533000000.0 -38460000000.0 -191938000000.0 -54344900000.0 -12549700000.0 -254138000000.0 -12549700000.0 -133143000000.0 -46364000000.0 -23392500000.0 -22981300000.0 -289397000000.0 -381503000000.0 -269649000000.0 -366062000000.0 -207922000000.0 -159501000000.0 -153352000000.0 -155993000000.0 -101088000000.0 -149634000000.0 -12549700000.0 -147286000000.0 -88432800000.0 -109981000000.0 -253936000000.0 -136578000000.0 -108427000000.0 -392763000000.0 -253175000000.0 -276759000000.0 -468376000000.0 -218266000000.0 -258259000000.0 -528537000000.0 -305671000000.0 -211269000000.0 -88512100000.0 -123867000000.0 -101761000000.0 -188295000000.0 -517682000000.0 -258897000000.0 -365835000000.0 -242545000000.0 -106614000000.0 -123427000000.0 -100457000000.0 -298539000000.0 -229923000000.0 -383808000000.0 -219177000000.0 -397637000000.0 -409789000000.0 -88591400000.0 -487626000000.0 -264654000000.0 -156578000000.0 -123584000000.0 -237396000000.0 -552893000000.0 -278370000000.0 -120822000000.0 -607612000000.0 -532618000000.0 -12549700000.0 -105514000000.0 -39797200000.0 -280416000000.0 -283950000000.0 -48126400000.0 -48088000000.0 -90338700000.0 -17277400000.0 -13935800000.0 -52319200000.0 -41958400000.0 -223261000000.0 -124690000000.0 -144302000000.0 -68082100000.0 -173310000000.0 -127532000000.0 -662336000000.0 -552326000000.0 -198493000000.0 -545089000000.0 -395658000000.0 -271101000000.0 -241458000000.0 -23514200000.0 -22144700000.0 -94018700000.0 -200723000000.0 -368988000000.0 -286820000000.0 -100181000000.0 -138160000000.0 -143651000000.0 -111717000000.0 -33867500000.0 -68771100000.0 -235285000000.0 -124468000000.0 -148357000000.0 -205861000000.0 -275002000000.0 -309339000000.0 -166936000000.0 -135712000000.0 -152911000000.0 -310655000000.0 -169631000000.0 -185583000000.0 -368720000000.0 -305572000000.0 -218855000000.0 -323228000000.0 -280477000000.0 -97471300000.0 -247526000000.0 -190775000000.0 -278095000000.0 -266424000000.0 -238035000000.0 -319086000000.0 -12549700000.0 -98973800000.0 -305467000000.0 -75219700000.0 -444852000000.0 -401144000000.0 -50488500000.0 -92132300000.0 -389398000000.0 -398203000000.0 -399151000000.0 -262481000000.0 -186418000000.0 -242767000000.0 -50452200000.0 -451251000000.0 -108659000000.0 -388237000000.0 -189094000000.0 -140087000000.0 -91946200000.0 -102611000000.0 -249839000000.0 -177321000000.0 -312351000000.0 -226012000000.0 -370644000000.0 -430706000000.0 -698051000000.0 -18347000000.0 -33476400000.0 -139701000000.0 -74383300000.0 -313670000000.0 -26954100000.0 -208005000000.0 -263748000000.0 -449216000000.0 -421225000000.0 -12549700000.0 -142368000000.0 -108915000000.0 -308157000000.0 -350628000000.0 -81472900000.0 -81865100000.0 -181117000000.0 -182430000000.0 -135896000000.0 -91905200000.0 -92097600000.0 -89529300000.0 -324897000000.0 -176316000000.0 -249314000000.0 -92698100000.0 -120995000000.0 -296341000000.0 -696150000000.0 -110997000000.0 -476983000000.0 -469690000000.0 -108176000000.0 -326845000000.0 -270486000000.0 -71902600000.0 -53044800000.0 -117841000000.0 -103824000000.0 -263128000000.0 -212756000000.0 -75554000000.0 -105295000000.0 -84715800000.0 -286854000000.0 -77432300000.0 -168117000000.0 -82355600000.0 -46156400000.0 -14458400000.0 -70827000000.0 -190188000000.0 -170445000000.0 -70023300000.0 -72446600000.0 -69580900000.0 -293027000000.0 -235320000000.0 -336997000000.0 -376486000000.0 -208186000000.0 -134605000000.0 -158870000000.0 -157225000000.0 -455422000000.0 -253782000000.0 -187919000000.0 -249976000000.0 -230813000000.0 -177232000000.0 -300852000000.0 -219531000000.0 -129515000000.0 -482388000000.0 -326713000000.0 -20999700000.0 -225727000000.0 -517648000000.0 -571504000000.0 -651120000000.0 -602802000000.0 -734700000000.0 -360031000000.0 -398091000000.0 -269503000000.0 -406089000000.0 -480463000000.0 -735972000000.0 -902538000000.0 -353863000000.0 -283607000000.0 -352331000000.0 -358349000000.0 -192108000000.0 -165217000000.0 -277128000000.0 -148711000000.0 -123211000000.0 -178177000000.0 -348185000000.0 -475767000000.0 -356317000000.0 -306217000000.0 -392524000000.0 -432202000000.0 -314161000000.0 -304920000000.0 -327115000000.0 -809477000000.0 -100816000000.0 -89989000000.0 -219784000000.0 -171230000000.0 -197620000000.0 -548157000000.0 -323743000000.0 -407260000000.0 -43066800000.0 -111752000000.0 -72088600000.0 -67423900000.0 -51734600000.0 -208650000000.0 -183735000000.0 -103936000000.0 -405345000000.0 -272337000000.0 -55220500000.0 -645515000000.0 -112190000000.0 -400668000000.0 -351166000000.0 -184310000000.0 -535867000000.0 -235854000000.0 -49205400000.0 -12549700000.0 -99130900000.0 -101353000000.0 -213649000000.0 -288442000000.0 -17007100000.0 -45303900000.0 -21562100000.0 -217083000000.0 -86895000000.0 -167144000000.0 -94351000000.0 -21684500000.0 -17145100000.0 -167127000000.0 -216564000000.0 -215822000000.0 -50378500000.0 -71345000000.0 -24057600000.0 -204979000000.0 -102526000000.0 -138139000000.0 -261243000000.0 -18182000000.0 -159743000000.0 -13208700000.0 -124952000000.0 -126683000000.0 -266369000000.0 -37036100000.0 -128246000000.0 -154365000000.0 -34044900000.0 -321353000000.0 -36647400000.0 -367953000000.0 -262094000000.0 -94113200000.0 -105441000000.0 -111392000000.0 -244930000000.0 -183034000000.0 -439028000000.0 -12810800000.0 -454444000000.0 -320321000000.0 -283175000000.0 -449801000000.0 -518175000000.0 -53607400000.0 -95882300000.0 -398035000000.0 -125088000000.0 -113983000000.0 -158610000000.0 -19874700000.0 -65130100000.0 -37217700000.0 -132519000000.0 -49566400000.0 -13544300000.0 -24230100000.0 -410388000000.0 -160549000000.0 -106194000000.0 -48139500000.0 -145328000000.0 -101951000000.0 -157273000000.0 -17857200000.0 -68293500000.0 -598512000000.0 -55744400000.0 -87904800000.0 -350413000000.0 -349939000000.0 -622441000000.0 -46906400000.0 -16669300000.0 -432373000000.0 -16009000000.0 -75039500000.0 -12549700000.0 -60351500000.0 -336038000000.0 -251871000000.0 -168087000000.0 -200688000000.0 -222421000000.0 -252745000000.0 -204476000000.0 -103595000000.0 -667402000000.0 -97231300000.0 -382159000000.0 -549554000000.0 -154978000000.0 -367469000000.0 -15431800000.0 -227723000000.0 -232126000000.0 -258669000000.0 -251353000000.0 -553578000000.0 -685348000000.0 -256561000000.0 -260484000000.0 -250555000000.0 -329120000000.0 -136992000000.0 -225191000000.0 -156714000000.0 -265065000000.0 -237709000000.0 -178645000000.0 -131597000000.0 -321374000000.0 -220254000000.0 -235306000000.0 -265156000000.0 -252985000000.0 -297233000000.0 -360845000000.0 -152312000000.0 -139482000000.0 -178620000000.0 -122216000000.0 -18827700000.0 -103358000000.0 -370945000000.0 -214441000000.0 -215650000000.0 -256322000000.0 -199962000000.0 -416588000000.0 -229048000000.0 -397529000000.0 -112035000000.0 -112818000000.0 -56241000000.0 -334288000000.0 -413335000000.0 -409374000000.0 -177097000000.0 -212848000000.0 -281572000000.0 -296933000000.0 -39039900000.0 -21289600000.0 -390812000000.0 -335158000000.0 -307155000000.0 -437715000000.0 -220813000000.0 -244060000000.0 -153338000000.0 -135727000000.0 -104010000000.0 -213546000000.0 -204446000000.0 -202367000000.0 -113165000000.0 -105867000000.0 -486126000000.0 -208037000000.0 -85444900000.0 -49692600000.0 -148101000000.0 -77269200000.0 -119146000000.0 -79742300000.0 -63078800000.0 -571850000000.0 -59772700000.0 -324075000000.0 -416358000000.0 -351787000000.0 -725598000000.0 -77109800000.0 -13365200000.0 -278278000000.0 -262849000000.0 -376725000000.0 -123977000000.0 -162231000000.0 -143917000000.0 -135300000000.0 -110475000000.0 -394052000000.0 -175670000000.0 -616996000000.0 -452447000000.0 -367425000000.0 -732180000000.0 -425511000000.0 -462135000000.0 -511234000000.0 -391796000000.0 -488427000000.0 -436513000000.0 -646526000000.0 -199186000000.0 -241682000000.0 -335571000000.0 -285722000000.0 -303266000000.0 -336540000000.0 -370345000000.0 -332688000000.0 -131100000000.0 -232923000000.0 -226504000000.0 -85375100000.0 -201932000000.0 -184828000000.0 -13670300000.0 -12549700000.0 -72340500000.0 -52963600000.0 -171116000000.0 -84551400000.0 -227236000000.0 -127438000000.0 -241117000000.0 -293377000000.0 -180916000000.0 -205739000000.0 -334338000000.0 -74673900000.0 -84787200000.0 -106889000000.0 -86904100000.0 -168330000000.0 -80815500000.0 -15353800000.0 -291323000000.0 -279013000000.0 -373181000000.0 -218391000000.0 -22586300000.0 -292216000000.0 -225111000000.0 -198809000000.0 -225785000000.0 -173515000000.0 -129920000000.0 -493267000000.0 -80379300000.0 -129763000000.0 -170610000000.0 -145175000000.0 -18894100000.0 -159580000000.0 -127466000000.0 -327137000000.0 -213965000000.0 -124715000000.0 -172733000000.0 -200341000000.0 -148068000000.0 -153462000000.0 -470086000000.0 -236734000000.0 -164384000000.0 -122487000000.0 -193598000000.0 -85485500000.0 -137011000000.0 -37480000000.0 -33863400000.0 -808960000000.0 -234194000000.0 -102146000000.0 -169490000000.0 -271473000000.0 -12549700000.0 -101403000000.0 -592465000000.0 -110531000000.0 -523392000000.0 -94862900000.0 -27745700000.0 -259256000000.0 -21561300000.0 -89555500000.0 -182855000000.0 -246608000000.0 -187395000000.0 -214206000000.0 -416587000000.0 -193000000000.0 -506438000000.0 -579107000000.0 -818392000000.0 -360098000000.0 -337003000000.0 -218444000000.0 -267931000000.0 -170206000000.0 -315485000000.0 -52395700000.0 -558357000000.0 -27073200000.0 -130670000000.0 -175459000000.0 -22143600000.0 -72605800000.0 -15775800000.0 -206657000000.0 -68009800000.0 -259147000000.0 -12549700000.0 -49697300000.0 -96719300000.0 -147250000000.0 -124197000000.0 -91135200000.0 -52998800000.0 -91312200000.0 -138173000000.0 -153681000000.0 -71457500000.0 -163111000000.0 -39358900000.0 -120756000000.0 -145085000000.0 -93965700000.0 -177556000000.0 -247997000000.0 -71479100000.0 -203424000000.0 -184282000000.0 -210621000000.0 -274165000000.0 -154843000000.0 -90893700000.0 -451729000000.0 -50219400000.0 -45166000000.0 -495022000000.0 -243040000000.0 -213490000000.0 -170896000000.0 -223838000000.0 -400760000000.0 -224358000000.0 -484605000000.0 -27990400000.0 -23831500000.0 -12549700000.0 -189344000000.0 -91588500000.0 -27294300000.0 -93026100000.0 -22797700000.0 -126916000000.0 -101059000000.0 -173480000000.0 -121687000000.0 -136039000000.0 -52999200000.0 -47618400000.0 -114325000000.0 -458788000000.0 -182640000000.0 -220754000000.0 -236181000000.0 -355151000000.0 -422335000000.0 -436534000000.0 -622869000000.0 -175174000000.0 -30936500000.0 -404380000000.0 -114959000000.0 -315864000000.0 -12549700000.0 -259606000000.0 -485730000000.0 -738576000000.0 -169653000000.0 -209791000000.0 -397392000000.0 -312453000000.0 -310405000000.0 -155648000000.0 -24709400000.0 -21096900000.0 -80043000000.0 -506646000000.0 -239350000000.0 -336661000000.0 -435535000000.0 -656210000000.0 -82498300000.0 -201575000000.0 -241436000000.0 -200553000000.0 -30467800000.0 -604581000000.0 -623612000000.0 -365417000000.0 -225137000000.0 -241669000000.0 -391121000000.0 -224454000000.0 -265949000000.0 -292552000000.0 -190710000000.0 -148538000000.0 -226333000000.0 -112327000000.0 -103682000000.0 -205984000000.0 -208803000000.0 -180218000000.0 -119286000000.0 -99152000000.0 -143464000000.0 -17173800000.0 -115594000000.0 -63146800000.0 -165141000000.0 -80806700000.0 -168130000000.0 -93925100000.0 -12763300000.0 -110992000000.0 -30933200000.0 -347911000000.0 -128238000000.0 -153470000000.0 -252286000000.0 -150611000000.0 -90901800000.0 -87047500000.0 -319550000000.0 -16564300000.0 -13208900000.0 -428839000000.0 -186662000000.0 -335088000000.0 -164244000000.0 -192708000000.0 -263661000000.0 -95637800000.0 -330414000000.0 -22361600000.0 -14424200000.0 -20384800000.0 -141652000000.0 -196319000000.0 -176386000000.0 -162024000000.0 -160521000000.0 -127087000000.0 -113578000000.0 -45235400000.0 -18408900000.0 -75434400000.0 -14286700000.0 -13080300000.0 -81793100000.0 -309850000000.0 -101533000000.0 -70283100000.0 -144351000000.0 -121966000000.0 -85949200000.0 -22183100000.0 -325075000000.0 -122719000000.0 -31455000000.0 -389113000000.0 -84081000000.0 -722550000000.0 -586065000000.0 -527693000000.0 -1.02685e+12 -12550100000.0 -188571000000.0 -326326000000.0 -341347000000.0 -234326000000.0 -475467000000.0 -271511000000.0 -242241000000.0 -408079000000.0 -122953000000.0 -385613000000.0 -771266000000.0 -564367000000.0 -596693000000.0 -367115000000.0 -853001000000.0 -539248000000.0 -616591000000.0 -498510000000.0 -110829000000.0 -274183000000.0 -375361000000.0 -306478000000.0 -274381000000.0 -285549000000.0 -298733000000.0 -422698000000.0 -63020800000.0 -100059000000.0 -99811000000.0 -89652200000.0 -41400500000.0 -126878000000.0 -12549700000.0 -88945200000.0 -128162000000.0 -63691300000.0 -70700000000.0 -100600000000.0 -55130900000.0 -102665000000.0 -135221000000.0 -176994000000.0 -83047600000.0 -160186000000.0 -224064000000.0 -187120000000.0 -86842900000.0 -222266000000.0 -27796000000.0 -25246000000.0 -86066600000.0 -23514600000.0 -319767000000.0 -153373000000.0 -157520000000.0 -355829000000.0 -143920000000.0 -286514000000.0 -317800000000.0 -260495000000.0 -159744000000.0 -298040000000.0 -106865000000.0 -107248000000.0 -183948000000.0 -44348300000.0 -183613000000.0 -271491000000.0 -31065700000.0 -25058700000.0 -40803700000.0 -132573000000.0 -170081000000.0 -13740000000.0 -62132700000.0 -14202400000.0 -114670000000.0 -115045000000.0 -70007400000.0 -51984800000.0 -67365900000.0 -121636000000.0 -115672000000.0 -145629000000.0 -284581000000.0 -42327300000.0 -47102800000.0 -103233000000.0 -65320300000.0 -59354700000.0 -48019900000.0 -281153000000.0 -76201800000.0 -37414700000.0 -530725000000.0 -831419000000.0 -499459000000.0 -202520000000.0 -94565800000.0 -352382000000.0 -330648000000.0 -679372000000.0 -814494000000.0 -355411000000.0 -73784400000.0 -303739000000.0 -330075000000.0 -323614000000.0 -302244000000.0 -422030000000.0 -421831000000.0 -325525000000.0 -356459000000.0 -400363000000.0 -642851000000.0 -567659000000.0 -41826400000.0 -212774000000.0 -262290000000.0 -713570000000.0 -595567000000.0 -511555000000.0 -263221000000.0 -202706000000.0 -149768000000.0 -137587000000.0 -16055500000.0 -14057600000.0 -262530000000.0 -130942000000.0 -137724000000.0 -164513000000.0 -207692000000.0 -48495800000.0 -45026900000.0 -65220900000.0 -86305700000.0 -12872400000.0 -20383400000.0 -41638600000.0 -13788500000.0 -62671100000.0 -12962300000.0 -147363000000.0 -57984700000.0 -69219200000.0 -105029000000.0 -90074500000.0 -97268200000.0 -166349000000.0 -16278500000.0 -12692400000.0 -77886800000.0 -35200000000.0 -266482000000.0 -24530800000.0 -46841700000.0 -265022000000.0 -259741000000.0 -101462000000.0 -12549700000.0 -286363000000.0 -202028000000.0 -221827000000.0 -323608000000.0 -165048000000.0 -235245000000.0 -183238000000.0 -179721000000.0 -168570000000.0 -337100000000.0 -134031000000.0 -54643500000.0 -134107000000.0 -93371300000.0 -46795000000.0 -93418300000.0 -12715000000.0 -14322600000.0 -23020800000.0 -17394200000.0 -26207200000.0 -53617700000.0 -241525000000.0 -127467000000.0 -131592000000.0 -132771000000.0 -131447000000.0 -107644000000.0 -101940000000.0 -196929000000.0 -56012100000.0 -25706500000.0 -12549700000.0 -426826000000.0 -252854000000.0 -272191000000.0 -448058000000.0 -352636000000.0 -492320000000.0 -12549700000.0 -520371000000.0 -247343000000.0 -151732000000.0 -252683000000.0 -181282000000.0 -193089000000.0 -62075300000.0 -12549700000.0 -275138000000.0 -129696000000.0 -493337000000.0 -425603000000.0 -618758000000.0 -355814000000.0 -111114000000.0 -12549700000.0 -245793000000.0 -426584000000.0 -264685000000.0 -315934000000.0 -176097000000.0 -92476600000.0 -129466000000.0 -123173000000.0 -29413400000.0 -16304600000.0 -213688000000.0 -99419100000.0 -145917000000.0 -135034000000.0 -122731000000.0 -16548500000.0 -18307100000.0 -49579100000.0 -72471300000.0 -30079300000.0 -24103300000.0 -37040700000.0 -33609500000.0 -42367000000.0 -31388200000.0 -98878200000.0 -25242300000.0 -43716100000.0 -45795100000.0 -109215000000.0 -15057800000.0 -159821000000.0 -83213900000.0 -79644100000.0 -140676000000.0 -105538000000.0 -99124000000.0 -209205000000.0 -119622000000.0 -129271000000.0 -334602000000.0 -51197500000.0 -180514000000.0 -121952000000.0 -99303100000.0 -342745000000.0 -193480000000.0 -282686000000.0 -95592900000.0 -280801000000.0 -87363900000.0 -56516600000.0 -43616100000.0 -157012000000.0 -19777500000.0 -129802000000.0 -231072000000.0 -176595000000.0 -79045300000.0 -54019900000.0 -71417000000.0 -34756800000.0 -38378200000.0 -56540900000.0 -50407900000.0 -113190000000.0 -229010000000.0 -56892900000.0 -47148800000.0 -113155000000.0 -151068000000.0 -207801000000.0 -142822000000.0 -99874700000.0 -419707000000.0 -200112000000.0 -127516000000.0 -351221000000.0 -225547000000.0 -240106000000.0 -139639000000.0 -142338000000.0 -44964300000.0 -461369000000.0 -584685000000.0 -182882000000.0 -229504000000.0 -423388000000.0 -177081000000.0 -303103000000.0 -121447000000.0 -137725000000.0 -305326000000.0 -498324000000.0 -34569700000.0 -196675000000.0 -292394000000.0 -117541000000.0 -452274000000.0 -364559000000.0 -165732000000.0 -331234000000.0 -433714000000.0 -15092000000.0 -77590000000.0 -147505000000.0 -105758000000.0 -115323000000.0 -150862000000.0 -190537000000.0 -250350000000.0 -64101900000.0 -93581900000.0 -138617000000.0 -128525000000.0 -14177700000.0 -15464700000.0 -24293500000.0 -97676200000.0 -40955300000.0 -45722800000.0 -60569000000.0 -65305200000.0 -63767200000.0 -52256600000.0 -126631000000.0 -85118700000.0 -137574000000.0 -148308000000.0 -175657000000.0 -86660800000.0 -159154000000.0 -12549400000.0 -12549700000.0 -112509000000.0 -79389300000.0 -107119000000.0 -46113000000.0 -36740100000.0 -209481000000.0 -21540500000.0 -12922200000.0 -274622000000.0 -151518000000.0 -501149000000.0 -390694000000.0 -462917000000.0 -354160000000.0 -339401000000.0 -166598000000.0 -95414900000.0 -75524500000.0 -73618300000.0 -190493000000.0 -32100200000.0 -88601800000.0 -197428000000.0 -37806400000.0 -12549600000.0 -157232000000.0 -93967600000.0 -97434900000.0 -99644400000.0 -91384700000.0 -100232000000.0 -89656800000.0 -30926100000.0 -231901000000.0 -113887000000.0 -84636000000.0 -116909000000.0 -14855300000.0 -61979700000.0 -121787000000.0 -156714000000.0 -54244600000.0 -17890400000.0 -13019600000.0 -236045000000.0 -188459000000.0 -143487000000.0 -16398400000.0 -26291200000.0 -137523000000.0 -198260000000.0 -435578000000.0 -28853400000.0 -204476000000.0 -188327000000.0 -119247000000.0 -140374000000.0 -275044000000.0 -182158000000.0 -436912000000.0 -497178000000.0 -245421000000.0 -287183000000.0 -413504000000.0 -89406100000.0 -324710000000.0 -147816000000.0 -136337000000.0 -614412000000.0 -50740600000.0 -73487100000.0 -13990600000.0 -101948000000.0 -90576400000.0 -14396200000.0 -65179100000.0 -40698800000.0 -124137000000.0 -12549700000.0 -29686500000.0 -63195800000.0 -12549700000.0 -117689000000.0 -97142600000.0 -119564000000.0 -29766100000.0 -25997900000.0 -32711900000.0 -48483800000.0 -57503900000.0 -56561100000.0 -80392000000.0 -155376000000.0 -90456900000.0 -49890600000.0 -12998100000.0 -75410300000.0 -12549700000.0 -115905000000.0 -13687800000.0 -14136600000.0 -98342800000.0 -134422000000.0 -152485000000.0 -28567800000.0 -101042000000.0 -68293500000.0 -301161000000.0 -230378000000.0 -239930000000.0 -189295000000.0 -320975000000.0 -13619200000.0 -127961000000.0 -32842500000.0 -377701000000.0 -116340000000.0 -69844900000.0 -116443000000.0 -43582200000.0 -23696800000.0 -118287000000.0 -164511000000.0 -20133100000.0 -83351700000.0 -31609100000.0 -132354000000.0 -81210700000.0 -92456200000.0 -99019700000.0 -81396200000.0 -69721300000.0 -41131200000.0 -80027300000.0 -114666000000.0 -136286000000.0 -19619800000.0 -46020300000.0 -98101300000.0 -61284300000.0 -13859000000.0 -12549700000.0 -51766500000.0 -29269200000.0 -12549700000.0 -78477400000.0 -222239000000.0 -163884000000.0 -111071000000.0 -86910700000.0 -79618300000.0 -169693000000.0 -234602000000.0 -89598700000.0 -461559000000.0 -275288000000.0 -352997000000.0 -258096000000.0 -353698000000.0 -400979000000.0 -478919000000.0 -112370000000.0 -306805000000.0 -49852800000.0 -21743600000.0 -537463000000.0 -230645000000.0 -231731000000.0 -300792000000.0 -226743000000.0 -406712000000.0 -439402000000.0 -247107000000.0 -96158800000.0 -36581400000.0 -89929500000.0 -77126500000.0 -26146700000.0 -29912200000.0 -28947900000.0 -97525500000.0 -81471900000.0 -52889000000.0 -12549700000.0 -87062600000.0 -54786300000.0 -64106900000.0 -35285500000.0 -29603600000.0 -29737500000.0 -35747200000.0 -26363400000.0 -30853200000.0 -13248000000.0 -75475500000.0 -32311600000.0 -65576700000.0 -77834900000.0 -67684700000.0 -148218000000.0 -118450000000.0 -162162000000.0 -36708100000.0 -175786000000.0 -199730000000.0 -213540000000.0 -79634500000.0 -139730000000.0 -152088000000.0 -65254400000.0 -233416000000.0 -45962900000.0 -102942000000.0 -32115500000.0 -471616000000.0 -233121000000.0 -187802000000.0 -162764000000.0 -178648000000.0 -142222000000.0 -227986000000.0 -144400000000.0 -22110200000.0 -123498000000.0 -142063000000.0 -78876900000.0 -70912200000.0 -102004000000.0 -28009000000.0 -45204100000.0 -94459100000.0 -98230200000.0 -67868000000.0 -137819000000.0 -49743800000.0 -50187900000.0 -36554600000.0 -32599500000.0 -47678500000.0 -19146600000.0 -12549700000.0 -34183300000.0 -16472600000.0 -182227000000.0 -134930000000.0 -12681600000.0 -15896800000.0 -54673100000.0 -285131000000.0 -125901000000.0 -215909000000.0 -212591000000.0 -136455000000.0 -159972000000.0 -72038300000.0 -140120000000.0 -185355000000.0 -230651000000.0 -428844000000.0 -360045000000.0 -326355000000.0 -132221000000.0 -91704200000.0 -80828300000.0 -161133000000.0 -12549700000.0 -214227000000.0 -145869000000.0 -14560400000.0 -143022000000.0 -98339000000.0 -134090000000.0 -58167900000.0 -36542000000.0 -20020100000.0 -17922800000.0 -66947100000.0 -65880600000.0 -50400000000.0 -42135800000.0 -97680200000.0 -18383500000.0 -15366300000.0 -21994300000.0 -19091100000.0 -13662300000.0 -12549700000.0 -18906200000.0 -13049500000.0 -19998800000.0 -13842600000.0 -46762500000.0 -12549700000.0 -26531200000.0 -33563300000.0 -28187200000.0 -94837800000.0 -47020900000.0 -48660700000.0 -85715700000.0 -88857200000.0 -116431000000.0 -60967000000.0 -60405400000.0 -64430600000.0 -59809300000.0 -90972200000.0 -56877600000.0 -19604800000.0 -272101000000.0 -34732200000.0 -223591000000.0 -262308000000.0 -164104000000.0 -61055200000.0 -13163100000.0 -78902000000.0 -69351900000.0 -82565000000.0 -56471200000.0 -38521500000.0 -137349000000.0 -38592700000.0 -36912400000.0 -58965900000.0 -21544300000.0 -56740500000.0 -40728100000.0 -15492800000.0 -14844800000.0 -102306000000.0 -67289600000.0 -106798000000.0 -118802000000.0 -58432900000.0 -104452000000.0 -53506600000.0 -102792000000.0 -61721500000.0 -12650700000.0 -21796700000.0 -32246100000.0 -16433000000.0 -15574100000.0 -29346600000.0 -13119500000.0 -18609100000.0 -12549700000.0 -123866000000.0 -249715000000.0 -323964000000.0 -350846000000.0 -269521000000.0 -297284000000.0 -346153000000.0 -201883000000.0 -309369000000.0 -384768000000.0 -316422000000.0 -227902000000.0 -263674000000.0 -232634000000.0 -175947000000.0 -208506000000.0 -345964000000.0 -166978000000.0 -210579000000.0 -124158000000.0 -200009000000.0 -61315900000.0 -57945700000.0 -100159000000.0 -109857000000.0 -213053000000.0 -55367700000.0 -56126100000.0 -69469800000.0 -18389600000.0 -18931800000.0 -84429100000.0 -60681900000.0 -58975000000.0 -13742600000.0 -17599500000.0 -14930400000.0 -55460800000.0 -14892900000.0 -12549700000.0 -15686700000.0 -13590900000.0 -12549700000.0 -12549700000.0 -16952200000.0 -12549700000.0 -16444200000.0 -13431700000.0 -14907100000.0 -36210300000.0 -13345900000.0 -17998200000.0 -19007000000.0 -17766700000.0 -44387900000.0 -43924400000.0 -41330600000.0 -65332200000.0 -105881000000.0 -138015000000.0 -121326000000.0 -93029100000.0 -94985300000.0 -139877000000.0 -145391000000.0 -149622000000.0 -208961000000.0 -65919500000.0 -275449000000.0 -46163800000.0 -94380400000.0 -130311000000.0 -144152000000.0 -42110500000.0 -30453100000.0 -93417000000.0 -51070400000.0 -46490200000.0 -58778000000.0 -62075800000.0 -67529600000.0 -50074100000.0 -63060800000.0 -74781300000.0 -45419500000.0 -81653300000.0 -73677400000.0 -131294000000.0 -94091300000.0 -58040400000.0 -19150300000.0 -19644100000.0 -21477700000.0 -17034700000.0 -12549700000.0 -13664800000.0 -33249400000.0 -54701600000.0 -115119000000.0 -12549700000.0 -20743800000.0 -49709900000.0 -81823500000.0 -33710500000.0 -57290000000.0 -136754000000.0 -17793500000.0 -27700400000.0 -15568100000.0 -51235300000.0 -33039800000.0 -109141000000.0 -45656900000.0 -28801900000.0 -94783900000.0 -61420300000.0 -131870000000.0 -95230600000.0 -92619100000.0 -63454500000.0 -57284100000.0 -104305000000.0 -78911000000.0 -71433000000.0 -45981300000.0 -51147200000.0 -62826600000.0 -35495000000.0 -37648200000.0 -34899900000.0 -21759400000.0 -21857800000.0 -22304500000.0 -52924700000.0 -13849000000.0 -14128100000.0 -13465400000.0 -12612900000.0 -12549700000.0 -12597900000.0 -13307700000.0 -15210100000.0 -15648600000.0 -22896600000.0 -12670900000.0 -12549700000.0 -12549700000.0 -21467600000.0 -21512000000.0 -15401600000.0 -21920200000.0 -13841600000.0 -43470900000.0 -48608200000.0 -19851000000.0 -57846000000.0 -41072100000.0 -53600900000.0 -92485700000.0 -111620000000.0 -110412000000.0 -60661100000.0 -168856000000.0 -63143900000.0 -95936300000.0 -48641000000.0 -34920000000.0 -51887900000.0 -36934100000.0 -46292600000.0 -41926700000.0 -42728500000.0 -20698500000.0 -16118900000.0 -14208000000.0 -30571900000.0 -12549700000.0 -24394000000.0 -13015600000.0 -39183300000.0 -21838500000.0 -17001700000.0 -19954400000.0 -36413900000.0 -38836300000.0 -12677800000.0 -40842500000.0 -20013500000.0 -41406300000.0 -23512000000.0 -25213100000.0 -25923500000.0 -17735100000.0 -13378400000.0 -14450200000.0 -28359600000.0 -49409300000.0 -14712800000.0 -20394500000.0 -38082900000.0 -53124400000.0 -34206600000.0 -70992000000.0 -64788100000.0 -49968600000.0 -59835600000.0 -57037800000.0 -42001000000.0 -51488400000.0 -12549700000.0 -12549700000.0 -16482500000.0 -29553800000.0 -17427900000.0 -24986700000.0 -12549700000.0 -15876700000.0 -15033800000.0 -14469000000.0 -46391600000.0 -18686900000.0 -18383100000.0 -12549700000.0 -15149600000.0 -19080200000.0 -13230200000.0 -16136000000.0 -14336100000.0 -12549700000.0 -12602500000.0 -12755600000.0 -16414900000.0 -30891700000.0 -27092400000.0 -25917900000.0 -27108600000.0 -26605800000.0 -25370700000.0 -26881400000.0 -30887600000.0 -31826600000.0 -31916500000.0 -27290300000.0 -25583500000.0 -26065300000.0 -27490500000.0 -30876400000.0 -30769100000.0 -28237800000.0 -36010600000.0 -37502500000.0 -23965500000.0 -18486600000.0 -41080200000.0 -59810900000.0 -53525700000.0 -55205400000.0 -46008100000.0 -33529600000.0 -51176100000.0 -52440700000.0 -25785200000.0 -23340000000.0 -30227900000.0 -18770200000.0 -17074800000.0 -12549700000.0 -14520900000.0 -12960000000.0 -12839100000.0 -15853000000.0 -21996800000.0 -16484200000.0 -14543200000.0 -17084200000.0 -15592500000.0 -18232900000.0 -12549700000.0 -19773400000.0 -16083000000.0 -18132000000.0 -20499900000.0 -17630800000.0 -22606900000.0 -19393100000.0 -27913700000.0 -21008600000.0 -23605500000.0 -18295400000.0 -17961400000.0 -13384600000.0 -12549700000.0 -13042600000.0 