# vtk DataFile Version 2.0
Time step 3
ASCII
DATASET UNSTRUCTURED_GRID
POINTS 5000 float
2415.99 240429.0 0
7893.26 239998.0 0
12417.8 239768.0 0
16792.1 239345.0 0
22355.6 240175.0 0
27661.2 237275.0 0
33040.3 240050.0 0
38086.0 240481.0 0
42621.0 240698.0 0
47500.0 240652.0 0
52137.1 240607.0 0
57045.7 239381.0 0
62763.5 240222.0 0
67994.7 240651.0 0
72671.0 239878.0 0
77500.0 240485.0 0
82500.0 240437.0 0
87393.4 239745.0 0
92500.0 240592.0 0
97287.4 240648.0 0
101387.0 240360.0 0
106113.0 240075.0 0
111888.0 240178.0 0
117804.0 240302.0 0
123281.0 240476.0 0
128293.0 240685.0 0
133355.0 239802.0 0
138034.0 240763.0 0
142500.0 240714.0 0
147500.0 240506.0 0
152551.0 240262.0 0
157518.0 240522.0 0
162511.0 240324.0 0
167033.0 240083.0 0
171919.0 238773.0 0
177760.0 238813.0 0
183026.0 238506.0 0
187446.0 239909.0 0
192500.0 240951.0 0
196304.0 240275.0 0
201807.0 239291.0 0
207689.0 240035.0 0
213054.0 240310.0 0
218203.0 240536.0 0
222535.0 240856.0 0
225889.0 240332.0 0
230340.0 239840.0 0
235751.0 240554.0 0
241099.0 239251.0 0
252750.0 241102.0 0
278919.0 240429.0 0
297331.0 240491.0 0
362121.0 241042.0 0
372081.0 239159.0 0
377051.0 241240.0 0
388129.0 241190.0 0
393997.0 240531.0 0
403513.0 239800.0 0
408425.0 241108.0 0
432586.0 240158.0 0
446538.0 240745.0 0
477191.0 240052.0 0
485892.0 239550.0 0
491653.0 241321.0 0
497602.0 239744.0 0
5734.45 243530.0 0
10805.7 244206.0 0
28256.2 243652.0 0
57861.6 244855.0 0
87802.1 244572.0 0
108114.0 244829.0 0
157176.0 244644.0 0
166871.0 244817.0 0
172478.0 244433.0 0
177881.0 244274.0 0
183124.0 243608.0 0
188270.0 244482.0 0
197988.0 244877.0 0
213499.0 244892.0 0
226923.0 244640.0 0
246283.0 241583.0 0
259091.0 241716.0 0
256870.0 246196.0 0
263817.0 242729.0 0
268803.0 241799.0 0
273995.0 241833.0 0
271725.0 245833.0 0
276876.0 246259.0 0
282061.0 243763.0 0
286357.0 242075.0 0
291738.0 242642.0 0
298101.0 246018.0 0
303585.0 241562.0 0
307778.0 243813.0 0
312146.0 241610.0 0
317946.0 242239.0 0
323262.0 242246.0 0
327602.0 242378.0 0
332227.0 241996.0 0
337244.0 241751.0 0
341055.0 242910.0 0
346008.0 241494.0 0
343193.0 246040.0 0
350943.0 242989.0 0
355586.0 242425.0 0
361868.0 246348.0 0
368181.0 242653.0 0
373168.0 246092.0 0
382639.0 241960.0 0
379014.0 245777.0 0
388129.0 246277.0 0
399024.0 242560.0 0
402825.0 245975.0 0
408204.0 245377.0 0
412500.0 242222.0 0
417500.0 242117.0 0
422530.0 241393.0 0
422206.0 246036.0 0
427293.0 242046.0 0
433031.0 245450.0 0
437537.0 242089.0 0
442401.0 241397.0 0
443032.0 245773.0 0
447382.0 244852.0 0
450893.0 241782.0 0
451921.0 246309.0 0
455434.0 241863.0 0
460419.0 241995.0 0
465967.0 242038.0 0
471788.0 241336.0 0
481558.0 242691.0 0
486712.0 246111.0 0
496859.0 245250.0 0
2280.06 246295.0 0
6815.68 249611.0 0
16981.7 245282.0 0
22730.5 246011.0 0
34657.8 245407.0 0
40028.0 245665.0 0
44145.4 246012.0 0
47948.1 245121.0 0
47345.4 251213.0 0
52500.0 245607.0 0
62711.7 245675.0 0
67505.6 245457.0 0
72363.0 245035.0 0
77500.0 245858.0 0
82116.0 245328.0 0
82065.4 251613.0 0
92500.0 245866.0 0
97219.8 245528.0 0
97546.1 251635.0 0
102518.0 245086.0 0
107967.0 250968.0 0
112500.0 245781.0 0
117500.0 245885.0 0
122500.0 245790.0 0
125939.0 251379.0 0
127569.0 245573.0 0
132451.0 245315.0 0
137520.0 245552.0 0
142711.0 245206.0 0
141181.0 250827.0 0
147152.0 245545.0 0
152149.0 245000.0 0
156568.0 250431.0 0
161649.0 245229.0 0
170252.0 250867.0 0
182376.0 248976.0 0
193271.0 245116.0 0
194351.0 251602.0 0
203608.0 245039.0 0
200069.0 251262.0 0
209040.0 245286.0 0
213303.0 250707.0 0
217659.0 245602.0 0
222088.0 245710.0 0
227244.0 251143.0 0
232178.0 245265.0 0
237690.0 245781.0 0
243282.0 245977.0 0
248058.0 245973.0 0
252283.0 247633.0 0
257611.0 250914.0 0
262374.0 246899.0 0
267431.0 246729.0 0
267355.0 251188.0 0
272903.0 251136.0 0
279846.0 250192.0 0
282726.0 247474.0 0
287500.0 247160.0 0
292535.0 247220.0 0
296818.0 251114.0 0
302914.0 247209.0 0
307497.0 247255.0 0
312501.0 247355.0 0
317500.0 247115.0 0
322501.0 246951.0 0
322466.0 250950.0 0
327500.0 247140.0 0
332500.0 247213.0 0
337575.0 246847.0 0
341478.0 250308.0 0
346855.0 251168.0 0
347598.0 246747.0 0
352576.0 247036.0 0
356198.0 250883.0 0
357818.0 246980.0 0
361425.0 251016.0 0
365549.0 246470.0 0
366737.0 250603.0 0
382082.0 247203.0 0
384559.0 250444.0 0
392505.0 251430.0 0
393304.0 246547.0 0
397886.0 246868.0 0
397276.0 251266.0 0
412687.0 246600.0 0
409164.0 250984.0 0
417350.0 246787.0 0
418987.0 251456.0 0
427461.0 247092.0 0
424092.0 250840.0 0
432247.0 251123.0 0
437500.0 247154.0 0
442220.0 251003.0 0
448067.0 249909.0 0
457109.0 246697.0 0
462492.0 247318.0 0
466792.0 246587.0 0
470304.0 247853.0 0
472460.0 251152.0 0
475263.0 246654.0 0
480911.0 247948.0 0
492175.0 248241.0 0
2238.43 252704.0 0
8061.64 255715.0 0
12048.9 251889.0 0
13288.8 256426.0 0
16525.8 252020.0 0
17574.9 255970.0 0
20691.0 251678.0 0
22232.2 256188.0 0
26849.4 252066.0 0
32555.7 251953.0 0
31967.4 256234.0 0
37912.2 251787.0 0
42633.2 251839.0 0
49045.3 255921.0 0
51640.5 252782.0 0
56373.7 252147.0 0
61932.6 252173.0 0
67503.6 251709.0 0
73476.9 252229.0 0
78318.4 252422.0 0
77031.3 256431.0 0
82098.6 256633.0 0
87068.5 251773.0 0
92531.5 251997.0 0
102630.0 252541.0 0
107648.0 256457.0 0
112500.0 252102.0 0
116831.0 252001.0 0
113005.0 256487.0 0
120939.0 251773.0 0
118028.0 256537.0 0
123304.0 255870.0 0
131272.0 252935.0 0
136550.0 252674.0 0
137654.0 256644.0 0
146510.0 251848.0 0
147852.0 256568.0 0
152051.0 253385.0 0
157005.0 256184.0 0
161962.0 252535.0 0
166794.0 254304.0 0
176550.0 251652.0 0
182341.0 255185.0 0
188163.0 252125.0 0
197156.0 256421.0 0
202953.0 256502.0 0
204305.0 252400.0 0
208084.0 251759.0 0
217688.0 252212.0 0
214501.0 256337.0 0
222506.0 251783.0 0
222467.0 256069.0 0
232570.0 252293.0 0
237511.0 252232.0 0
237336.0 255579.0 0
242072.0 252583.0 0
247228.0 251534.0 0
252218.0 252602.0 0
256236.0 255804.0 0
262577.0 251680.0 0
260696.0 255674.0 0
266388.0 255886.0 0
278303.0 255679.0 0
283584.0 252366.0 0
287241.0 252433.0 0
288506.0 255759.0 0
291135.0 251716.0 0
302261.0 252459.0 0
307678.0 251687.0 0
313180.0 252682.0 0
318177.0 251946.0 0
321207.0 256079.0 0
326945.0 252262.0 0
330150.0 256560.0 0
331965.0 252263.0 0
336640.0 251564.0 0
340052.0 255748.0 0
351963.0 251925.0 0
357661.0 254761.0 0
367069.0 255266.0 0
371410.0 252215.0 0
377938.0 251706.0 0
382885.0 255886.0 0
388610.0 253530.0 0
402842.0 252159.0 0
407979.0 256271.0 0
414408.0 253174.0 0
427822.0 253448.0 0
437280.0 252021.0 0
437615.0 256190.0 0
442324.0 256586.0 0
446986.0 255053.0 0
453867.0 251727.0 0
451201.0 256105.0 0
458762.0 252287.0 0
462751.0 251902.0 0
467500.0 252265.0 0
472922.0 256041.0 0
477840.0 251791.0 0
482711.0 252613.0 0
487597.0 253511.0 0
491664.0 252356.0 0
492124.0 256059.0 0
496689.0 251809.0 0
2182.12 257164.0 0
11880.1 260192.0 0
17123.8 261138.0 0
23116.8 261530.0 0
26848.1 257897.0 0
29761.6 260925.0 0
34381.3 261711.0 0
37462.5 257003.0 0
39253.1 261223.0 0
43142.2 256882.0 0
47731.4 260983.0 0
53803.9 257228.0 0
58973.6 256862.0 0
56928.5 261230.0 0
63379.0 256715.0 0
62921.3 261494.0 0
67889.2 257366.0 0
72448.6 257194.0 0
72928.4 261296.0 0
77848.4 261650.0 0
83134.6 261617.0 0
87286.9 256950.0 0
92235.5 257294.0 0
97719.7 256987.0 0
102734.0 258316.0 0
111501.0 261176.0 0
122266.0 261110.0 0
127500.0 257261.0 0
127057.0 261765.0 0
132608.0 257818.0 0
136646.0 261229.0 0
142507.0 256972.0 0
147022.0 260874.0 0
153336.0 258125.0 0
157954.0 261740.0 0
160651.0 257330.0 0
164667.0 257975.0 0
167040.0 261023.0 0
171030.0 256995.0 0
177248.0 258212.0 0
186646.0 257719.0 0
191648.0 257323.0 0
193544.0 261476.0 0
203124.0 261579.0 0
208769.0 257757.0 0
218902.0 257306.0 0
216501.0 260930.0 0
221324.0 260950.0 0
227928.0 256676.0 0
233813.0 256891.0 0
232155.0 261675.0 0
238006.0 260262.0 0
242425.0 257160.0 0
243048.0 261558.0 0
246954.0 256737.0 0
251802.0 257725.0 0
257829.0 261065.0 0
262801.0 259342.0 0
267590.0 261743.0 0
271789.0 257511.0 0
284202.0 257481.0 0
288714.0 261069.0 0
292778.0 257340.0 0
298805.0 257469.0 0
303875.0 257479.0 0
302639.0 261786.0 0
307500.0 257304.0 0
312363.0 257183.0 0
316431.0 256883.0 0
317193.0 261304.0 0
326007.0 257561.0 0
322551.0 261643.0 0
331117.0 261678.0 0
334692.0 258327.0 0
341531.0 261201.0 0
346272.0 257427.0 0
352980.0 257479.0 0
357962.0 261003.0 0
362030.0 256961.0 0
367202.0 260165.0 0
371822.0 257845.0 0
377746.0 258778.0 0
387350.0 257606.0 0
392961.0 257493.0 0
399397.0 257126.0 0
403032.0 260990.0 0
404170.0 256987.0 0
412354.0 257582.0 0
408542.0 261069.0 0
416898.0 256985.0 0
414049.0 261448.0 0
421385.0 257454.0 0
425880.0 257117.0 0
427435.0 261138.0 0
431228.0 257333.0 0
436081.0 261011.0 0
448060.0 260715.0 0
455973.0 257219.0 0
461722.0 256846.0 0
467441.0 257290.0 0
473339.0 261359.0 0
479139.0 257346.0 0
485003.0 257673.0 0
489118.0 258424.0 0
496779.0 258398.0 0
1547.85 261973.0 0
2678.69 266049.0 0
7077.63 261972.0 0
12478.8 264691.0 0
28377.6 265008.0 0
38649.3 266052.0 0
43041.6 263233.0 0
52590.5 262711.0 0
59320.1 266290.0 0
68241.0 262534.0 0
71879.6 265201.0 0
76194.9 266647.0 0
87932.5 261828.0 0
88153.4 266901.0 0
92500.0 262169.0 0
97503.9 262494.0 0
101590.0 262211.0 0
101747.0 266924.0 0
105996.0 262108.0 0
111228.0 266015.0 0
116823.0 261863.0 0
115554.0 266559.0 0
131351.0 262311.0 0
133464.0 266736.0 0
142229.0 262663.0 0
151831.0 262723.0 0
148457.0 266820.0 0
161406.0 266234.0 0
163565.0 262383.0 0
166911.0 266415.0 0
170977.0 262989.0 0
176723.0 264460.0 0
182804.0 262056.0 0
189050.0 262149.0 0
192131.0 266724.0 0
198168.0 262147.0 0
202493.0 266022.0 0
207448.0 263249.0 0
212175.0 262000.0 0
216376.0 266689.0 0
222664.0 266521.0 0
226398.0 262754.0 0
236404.0 265237.0 0
248208.0 261954.0 0
253030.0 262122.0 0
251143.0 266314.0 0
262926.0 264875.0 0
272682.0 263389.0 0
278406.0 262325.0 0
283510.0 262059.0 0
282152.0 265997.0 0
293323.0 262162.0 0
293005.0 266554.0 0
297353.0 263448.0 0
301820.0 265556.0 0
307253.0 262141.0 0
306265.0 266971.0 0
312080.0 261896.0 0
316959.0 266410.0 0
327377.0 262615.0 0
333883.0 266045.0 0
337235.0 262351.0 0
347138.0 263255.0 0
352052.0 263191.0 0
355957.0 265413.0 0
360826.0 266680.0 0
362975.0 261941.0 0
366779.0 266772.0 0
370555.0 263248.0 0
374877.0 263279.0 0
378885.0 266548.0 0
382861.0 261815.0 0
387721.0 261766.0 0
383681.0 265826.0 0
387483.0 266251.0 0
392085.0 263813.0 0
397903.0 263016.0 0
400497.0 267049.0 0
405346.0 266145.0 0
411994.0 265917.0 0
417500.0 262194.0 0
422556.0 262299.0 0
427146.0 265383.0 0
431243.0 262760.0 0
437123.0 266210.0 0
441831.0 262181.0 0
453816.0 262071.0 0
459120.0 262203.0 0
464583.0 261912.0 0
469132.0 262966.0 0
466401.0 266471.0 0
477781.0 263205.0 0
482309.0 262197.0 0
486998.0 262182.0 0
492312.0 262661.0 0
497544.0 264084.0 0
2896.49 271794.0 0
7802.49 268203.0 0
13332.2 270485.0 0
17877.2 266884.0 0
23480.8 267296.0 0
28411.5 270336.0 0
33175.8 267253.0 0
38167.1 271236.0 0
43176.7 267403.0 0
42821.7 271613.0 0
48062.2 266937.0 0
49479.1 271710.0 0
53627.1 267411.0 0
64477.2 267339.0 0
63297.9 271372.0 0
67932.1 267347.0 0
66904.3 271544.0 0
71722.5 270535.0 0
78027.9 271831.0 0
82096.7 267185.0 0
88121.4 271912.0 0
92897.9 267320.0 0
93006.8 272037.0 0
97168.7 267061.0 0
97922.4 271588.0 0
106665.0 267446.0 0
106130.0 271873.0 0
111072.0 271306.0 0
116913.0 271289.0 0
121093.0 267119.0 0
126740.0 271998.0 0
127647.0 267219.0 0
131688.0 271550.0 0
138854.0 267202.0 0
143842.0 267223.0 0
145549.0 271676.0 0
152836.0 267266.0 0
151241.0 271946.0 0
157017.0 267423.0 0
162351.0 270799.0 0
167429.0 271488.0 0
172391.0 268696.0 0
176797.0 268755.0 0
181078.0 268782.0 0
186593.0 267065.0 0
197634.0 267883.0 0
202736.0 271386.0 0
206611.0 267819.0 0
207693.0 271798.0 0
210692.0 266991.0 0
212226.0 271359.0 0
228226.0 268335.0 0
233873.0 269482.0 0
241258.0 267568.0 0
246625.0 268079.0 0
252002.0 270801.0 0
256887.0 267261.0 0
268352.0 267034.0 0
268591.0 271999.0 0
272862.0 268269.0 0
277750.0 268179.0 0
282635.0 271004.0 0
287150.0 267277.0 0
292830.0 271866.0 0
297922.0 268609.0 0
302506.0 271671.0 0
311447.0 267563.0 0
322454.0 267554.0 0
328076.0 267273.0 0
337950.0 268913.0 0
342740.0 267047.0 0
348440.0 267969.0 0
351629.0 272015.0 0
352719.0 267544.0 0
356437.0 270003.0 0
372737.0 268143.0 0
383732.0 270225.0 0
391325.0 268602.0 0
396329.0 268870.0 0
403290.0 271947.0 0
408940.0 271146.0 0
417951.0 267064.0 0
413998.0 271649.0 0
423006.0 268278.0 0
420508.0 271800.0 0
427913.0 271777.0 0
432280.0 267310.0 0
433530.0 271605.0 0
438013.0 271059.0 0
441920.0 267673.0 0
447192.0 266921.0 0
452774.0 267286.0 0
458236.0 267654.0 0
462516.0 267294.0 0
467480.0 271451.0 0
471580.0 267343.0 0
476885.0 267857.0 0
482296.0 267514.0 0
487754.0 267063.0 0
492580.0 268125.0 0
497493.0 269106.0 0
8424.9 274167.0 0
18146.8 274025.0 0
23574.2 272969.0 0
27503.7 277322.0 0
33339.3 272807.0 0
32374.1 277101.0 0
46279.7 275578.0 0
53548.4 272447.0 0
58457.8 272182.0 0
63367.3 276538.0 0
68290.2 274962.0 0
83462.2 272991.0 0
89833.8 276535.0 0
98145.8 275789.0 0
102254.0 272225.0 0
105734.0 276337.0 0
118538.0 276782.0 0
122735.0 272541.0 0
124096.0 277089.0 0
128620.0 275415.0 0
135759.0 273225.0 0
140257.0 272657.0 0
137971.0 276566.0 0
147469.0 277021.0 0
157229.0 272755.0 0
162117.0 276308.0 0
167399.0 276436.0 0
171781.0 273991.0 0
176434.0 272523.0 0
181178.0 274429.0 0
185948.0 272398.0 0
191684.0 272627.0 0
197442.0 273433.0 0
201995.0 277079.0 0
207519.0 276765.0 0
217256.0 273147.0 0
223344.0 272714.0 0
228936.0 274456.0 0
233331.0 273935.0 0
238349.0 273078.0 0
243765.0 272851.0 0
241836.0 276735.0 0
248480.0 272492.0 0
246284.0 276953.0 0
251335.0 276146.0 0
255496.0 273295.0 0
262447.0 272004.0 0
273288.0 272791.0 0
278218.0 273546.0 0
287657.0 273296.0 0
293287.0 276628.0 0
297488.0 273640.0 0
308251.0 272365.0 0
313173.0 272134.0 0
311866.0 276052.0 0
317580.0 271940.0 0
316534.0 276457.0 0
322388.0 273108.0 0
326431.0 272008.0 0
330662.0 272152.0 0
335721.0 272412.0 0
340943.0 273013.0 0
346496.0 273742.0 0
351739.0 277126.0 0
356766.0 275394.0 0
361237.0 272471.0 0
366814.0 272500.0 0
371452.0 273102.0 0
377504.0 273641.0 0
387924.0 273320.0 0
392729.0 273133.0 0
398117.0 274521.0 0
411638.0 276210.0 0
417306.0 271998.0 0
417095.0 275791.0 0
422823.0 276535.0 0
432667.0 276143.0 0
438340.0 276630.0 0
442743.0 272475.0 0
448351.0 272840.0 0
453747.0 272191.0 0
458239.0 272696.0 0
455011.0 276678.0 0
462626.0 272164.0 0
468523.0 276585.0 0
472774.0 272738.0 0
479261.0 272142.0 0
477761.0 276831.0 0
483581.0 272307.0 0
482500.0 277103.0 0
487834.0 272106.0 0
486961.0 276980.0 0
492498.0 272282.0 0
490998.0 276721.0 0
497811.0 273800.0 0
2142.43 277579.0 0
2128.4 281958.0 0
7044.75 280126.0 0
13468.5 277512.0 0
18279.1 278921.0 0
22012.5 277387.0 0
23017.1 282178.0 0
32582.7 280507.0 0
37348.6 277171.0 0
42378.3 278838.0 0
46929.7 282029.0 0
51270.3 277842.0 0
57176.0 278256.0 0
62041.4 281939.0 0
67763.1 281868.0 0
73211.3 277871.0 0
79473.6 277411.0 0
78177.6 282126.0 0
84770.4 277977.0 0
94637.7 278532.0 0
101267.0 278730.0 0
97638.3 281671.0 0
105647.0 281803.0 0
111447.0 277633.0 0
121825.0 281872.0 0
128203.0 281537.0 0
133472.0 277478.0 0
137481.0 280796.0 0
141998.0 277597.0 0
153004.0 277290.0 0
157436.0 278177.0 0
153611.0 282094.0 0
158086.0 282357.0 0
163170.0 282128.0 0
171029.0 277927.0 0
168498.0 281290.0 0
173475.0 281122.0 0
177127.0 277493.0 0
177782.0 281946.0 0
182338.0 279263.0 0
187261.0 277366.0 0
191888.0 277905.0 0
196753.0 278905.0 0
213358.0 277201.0 0
212306.0 282084.0 0
220024.0 278128.0 0
225124.0 277963.0 0
228839.0 278550.0 0
232427.0 277638.0 0
231232.0 281861.0 0
237222.0 278379.0 0
241426.0 281683.0 0
246819.0 281832.0 0
252458.0 281586.0 0
257808.0 278495.0 0
262730.0 278004.0 0
268171.0 277607.0 0
273930.0 277696.0 0
279282.0 278996.0 0
284715.0 277651.0 0
283501.0 281923.0 0
289536.0 278175.0 0
292461.0 281624.0 0
297053.0 278647.0 0
302514.0 277527.0 0
307505.0 277770.0 0
307500.0 282223.0 0
312022.0 281252.0 0
321113.0 278127.0 0
317298.0 281180.0 0
326294.0 277096.0 0
328063.0 281896.0 0
331574.0 277328.0 0
337215.0 277740.0 0
343337.0 278343.0 0
342418.0 282272.0 0
347167.0 278329.0 0
349900.0 281194.0 0
355970.0 281587.0 0
362259.0 278478.0 0
366913.0 282134.0 0
367516.0 277335.0 0
372127.0 277555.0 0
378540.0 280188.0 0
382434.0 277593.0 0
387090.0 277969.0 0
391808.0 277711.0 0
388122.0 282324.0 0
392584.0 282140.0 0
396050.0 279195.0 0
400660.0 279322.0 0
405962.0 277951.0 0
412495.0 281310.0 0
417309.0 280901.0 0
428184.0 278336.0 0
424916.0 281969.0 0
431773.0 281794.0 0
444211.0 277451.0 0
449955.0 279051.0 0
453908.0 281969.0 0
460611.0 277817.0 0
465232.0 278698.0 0
468238.0 281917.0 0
473099.0 277959.0 0
477983.0 281807.0 0
486749.0 281163.0 0
491790.0 282346.0 0
495386.0 277917.0 0
2072.82 286286.0 0
6867.77 285933.0 0
12267.3 283541.0 0
17814.4 283319.0 0
16082.5 287136.0 0
20108.2 287354.0 0
24921.9 287285.0 0
28827.7 283351.0 0
36198.8 282960.0 0
41208.2 283103.0 0
52737.7 282506.0 0
53391.8 287043.0 0
57445.9 284352.0 0
62550.0 287237.0 0
67208.1 287185.0 0
73510.1 284562.0 0
78864.2 287345.0 0
82896.2 282850.0 0
88764.9 282494.0 0
93948.6 283032.0 0
92508.1 287020.0 0
101122.0 283005.0 0
97396.0 286050.0 0
102622.0 287320.0 0
110430.0 282891.0 0
107391.0 286426.0 0
112031.0 287062.0 0
115710.0 282521.0 0
123301.0 287134.0 0
127790.0 286902.0 0
133601.0 282317.0 0
142043.0 282838.0 0
138481.0 286641.0 0
148126.0 283472.0 0
151923.0 287209.0 0
156611.0 287161.0 0
161574.0 287099.0 0
166841.0 286120.0 0
173111.0 287243.0 0
181518.0 283795.0 0
186310.0 282559.0 0
191382.0 282364.0 0
189478.0 287295.0 0
195897.0 284384.0 0
201280.0 282645.0 0
199462.0 287425.0 0
207270.0 282737.0 0
212586.0 286848.0 0
217028.0 282906.0 0
221803.0 282872.0 0
223139.0 287179.0 0
226342.0 282474.0 0
227632.0 287260.0 0
232500.0 287119.0 0
236039.0 282979.0 0
238109.0 287284.0 0
247245.0 286612.0 0
257565.0 283604.0 0
263837.0 283410.0 0
269717.0 283208.0 0
274691.0 282610.0 0
271559.0 287082.0 0
279312.0 284347.0 0
283472.0 286261.0 0
288119.0 283104.0 0
292966.0 286232.0 0
298001.0 283722.0 0
302979.0 282662.0 0
302500.0 287168.0 0
307043.0 286891.0 0
312179.0 286897.0 0
317382.0 286051.0 0
323239.0 283030.0 0
325631.0 287048.0 0
329557.0 286581.0 0
332807.0 282380.0 0
337547.0 282982.0 0
340408.0 286325.0 0
345984.0 282440.0 0
344956.0 286939.0 0
350808.0 286759.0 0
361282.0 283625.0 0
369767.0 286945.0 0
373767.0 282689.0 0
378318.0 284629.0 0
383230.0 282940.0 0
388186.0 286748.0 0
397839.0 283159.0 0
393128.0 287155.0 0
401882.0 287477.0 0
403517.0 283287.0 0
408222.0 282905.0 0
406361.0 287381.0 0
412313.0 287067.0 0
418169.0 286476.0 0
420871.0 283300.0 0
428367.0 285557.0 0
437516.0 282786.0 0
443436.0 282955.0 0
450157.0 285438.0 0
458105.0 283053.0 0
455466.0 287168.0 0
463064.0 283302.0 0
459368.0 287216.0 0
462556.0 287377.0 0
466804.0 287251.0 0
473292.0 282531.0 0
472187.0 287044.0 0
477847.0 287225.0 0
482724.0 282822.0 0
482755.0 287156.0 0
487466.0 286301.0 0
497462.0 282656.0 0
3039.4 291349.0 0
8586.73 290333.0 0
12540.7 288873.0 0
16190.0 291294.0 0
21051.9 292266.0 0
32164.6 287546.0 0
32663.3 291965.0 0
37572.8 288600.0 0
43268.6 287610.0 0
41728.3 292608.0 0
48595.2 288003.0 0
53280.2 292048.0 0
57202.3 289187.0 0
62664.0 291654.0 0
71131.0 289363.0 0
67075.2 291625.0 0
83997.7 287593.0 0
82454.1 291495.0 0
86490.8 291116.0 0
88066.6 287484.0 0
91345.4 291874.0 0
96747.0 291174.0 0
101408.0 292046.0 0
106523.0 291549.0 0
118041.0 288007.0 0
123314.0 292373.0 0
128460.0 291380.0 0
132820.0 287381.0 0
138647.0 292338.0 0
143052.0 287721.0 0
147550.0 289410.0 0
143756.0 291766.0 0
152554.0 291903.0 0
157500.0 292150.0 0
162793.0 291244.0 0
167918.0 291521.0 0
178468.0 287408.0 0
177408.0 292315.0 0
183809.0 288181.0 0
187157.0 292223.0 0
192270.0 292185.0 0
193975.0 288210.0 0
197890.0 292209.0 0
203549.0 288220.0 0
202816.0 292248.0 0
207935.0 287970.0 0
212124.0 291814.0 0
218936.0 287788.0 0
222570.0 291872.0 0
227660.0 292351.0 0
232825.0 291977.0 0
237417.0 291549.0 0
242649.0 287622.0 0
241599.0 292515.0 0
246323.0 291550.0 0
252487.0 287792.0 0
250674.0 292563.0 0
254829.0 292341.0 0
257594.0 287903.0 0
262373.0 289559.0 0
267529.0 287689.0 0
272347.0 290945.0 0
275879.0 287493.0 0
282966.0 291648.0 0
287816.0 288404.0 0
292488.0 291827.0 0
298531.0 288424.0 0
297089.0 292353.0 0
301763.0 291992.0 0
306739.0 291601.0 0
311573.0 292167.0 0
316360.0 290884.0 0
320664.0 292355.0 0
321828.0 288029.0 0
326354.0 291943.0 0
335189.0 287681.0 0
343734.0 291766.0 0
348536.0 292065.0 0
357265.0 288396.0 0
363682.0 288322.0 0
367873.0 292384.0 0
375205.0 287978.0 0
372530.0 291940.0 0
379946.0 288491.0 0
382412.0 291503.0 0
384077.0 288238.0 0
386981.0 291258.0 0
391424.0 291673.0 0
397789.0 287406.0 0
396030.0 291599.0 0
401209.0 292326.0 0
406362.0 292165.0 0
416781.0 291491.0 0
423318.0 287225.0 0
427984.0 291742.0 0
433566.0 287764.0 0
439795.0 288760.0 0
445089.0 287604.0 0
448259.0 290105.0 0
452788.0 292020.0 0
458137.0 290754.0 0
462736.0 291594.0 0
467710.0 292231.0 0
473011.0 292237.0 0
477910.0 292132.0 0
482500.0 292308.0 0
486567.0 291188.0 0
492523.0 287587.0 0
490924.0 292234.0 0
497832.0 287381.0 0
495872.0 291848.0 0
2808.94 297235.0 0
7447.42 294671.0 0
12116.7 293386.0 0
12032.1 297025.0 0
16672.2 296845.0 0
23085.2 297735.0 0
27167.4 292709.0 0
32450.5 296076.0 0
37106.0 293902.0 0
48021.1 293483.0 0
51668.9 296628.0 0
58926.2 292872.0 0
56162.1 296333.0 0
61398.6 296824.0 0
67205.3 297120.0 0
71988.2 293444.0 0
76759.2 292713.0 0
81206.2 295790.0 0
87160.6 296672.0 0
98738.2 296434.0 0
103878.0 296682.0 0
108737.0 296863.0 0
112487.0 292547.0 0
118137.0 293330.0 0
123829.0 297376.0 0
128660.0 296519.0 0
133194.0 292841.0 0
133274.0 297331.0 0
142867.0 295863.0 0
146955.0 293766.0 0
150589.0 296031.0 0
155549.0 296339.0 0
161092.0 296119.0 0
167128.0 297522.0 0
172345.0 293014.0 0
172892.0 297368.0 0
182511.0 293064.0 0
188994.0 297053.0 0
193900.0 296810.0 0
203485.0 296596.0 0
207247.0 292806.0 0
213092.0 296760.0 0
217306.0 292921.0 0
222500.0 297221.0 0
227500.0 297140.0 0
232613.0 296230.0 0
236594.0 295847.0 0
240981.0 296856.0 0
246185.0 297242.0 0
252657.0 297446.0 0
258987.0 293132.0 0
257726.0 296771.0 0
262478.0 296293.0 0
267306.0 293002.0 0
272374.0 295577.0 0
277050.0 292713.0 0
282528.0 297364.0 0
287963.0 292968.0 0
287521.0 297338.0 0
292767.0 297287.0 0
297373.0 296241.0 0
306529.0 296458.0 0
311599.0 297369.0 0
317416.0 296567.0 0
323107.0 297121.0 0
326926.0 296870.0 0
332867.0 293444.0 0
338574.0 292747.0 0
345097.0 296316.0 0
349892.0 296755.0 0
353364.0 292822.0 0
358877.0 293780.0 0
363458.0 293785.0 0
367101.0 297631.0 0
372444.0 296809.0 0
377541.0 293065.0 0
382674.0 296218.0 0
388722.0 296169.0 0
397035.0 296442.0 0
407339.0 296791.0 0
411412.0 293338.0 0
417053.0 297128.0 0
421855.0 293143.0 0
421842.0 297738.0 0
431967.0 297070.0 0
435496.0 293019.0 0
439941.0 293657.0 0
444421.0 292589.0 0
448474.0 293071.0 0
447860.0 296502.0 0
457554.0 295607.0 0
462820.0 296743.0 0
468042.0 297261.0 0
472921.0 297302.0 0
477943.0 296948.0 0
482566.0 297385.0 0
487566.0 296517.0 0
493113.0 296961.0 0
497817.0 296330.0 0
2461.89 302559.0 0
9267.6 298617.0 0
7181.51 302202.0 0
12007.0 302142.0 0
28010.3 297826.0 0
28589.1 302296.0 0
32622.9 300557.0 0
37835.9 299483.0 0
44071.3 297749.0 0
48814.8 299479.0 0
52453.5 302513.0 0
57690.0 301254.0 0
63655.8 302551.0 0
68821.5 302550.0 0
72901.8 298049.0 0
71692.2 301921.0 0
77742.6 299025.0 0
81216.7 302753.0 0
93228.6 297995.0 0
92079.4 302509.0 0
96780.0 302261.0 0
101936.0 300947.0 0
113862.0 297953.0 0
118923.0 298508.0 0
123396.0 302410.0 0
128496.0 301664.0 0
133354.0 301848.0 0
137732.0 297718.0 0
141567.0 300453.0 0
146602.0 297776.0 0
145636.0 302480.0 0
150923.0 301732.0 0
156956.0 301503.0 0
162812.0 302012.0 0
170527.0 302196.0 0
178070.0 297787.0 0
183324.0 297877.0 0
179188.0 302549.0 0
182751.0 302113.0 0
186773.0 301996.0 0
192139.0 301705.0 0
198696.0 297837.0 0
202489.0 301291.0 0
208162.0 297851.0 0
206758.0 302728.0 0
211062.0 302014.0 0
217813.0 298208.0 0
215672.0 302550.0 0
221074.0 302651.0 0
231784.0 300320.0 0
237877.0 301813.0 0
244106.0 302518.0 0
249109.0 302063.0 0
257416.0 300104.0 0
260319.0 302180.0 0
268654.0 297659.0 0
265433.0 301304.0 0
272282.0 301853.0 0
276535.0 297733.0 0
279316.0 302463.0 0
285102.0 301717.0 0
289711.0 301318.0 0
296916.0 301468.0 0
301568.0 298094.0 0
306494.0 301728.0 0
318484.0 302372.0 0
323650.0 302057.0 0
331380.0 297743.0 0
328290.0 300378.0 0
335377.0 298580.0 0
332570.0 302810.0 0
340545.0 297679.0 0
341630.0 302112.0 0
346432.0 301238.0 0
355536.0 298405.0 0
361576.0 298382.0 0
368785.0 302311.0 0
377463.0 298770.0 0
373166.0 301679.0 0
381289.0 301928.0 0
386886.0 302329.0 0
393046.0 298276.0 0
393286.0 303063.0 0
402188.0 297918.0 0
398636.0 301842.0 0
403146.0 302724.0 0
408018.0 302031.0 0
411921.0 298572.0 0
415349.0 302716.0 0
426373.0 297790.0 0
424553.0 301909.0 0
428900.0 302379.0 0
437802.0 297793.0 0
433953.0 302023.0 0
443285.0 297623.0 0
442503.0 301772.0 0
447390.0 301742.0 0
452601.0 297879.0 0
457782.0 301411.0 0
463048.0 301532.0 0
467860.0 302518.0 0
473037.0 301705.0 0
477978.0 302082.0 0
482663.0 301658.0 0
487547.0 302062.0 0
492567.0 301931.0 0
497573.0 300910.0 0
2462.47 307540.0 0
7669.63 307175.0 0
11992.8 306746.0 0
17374.1 303078.0 0
23134.8 303730.0 0
26933.9 307650.0 0
34099.5 305613.0 0
39403.7 304385.0 0
43366.2 303184.0 0
44428.4 307739.0 0
47787.6 303329.0 0
48469.2 307094.0 0
52718.9 307666.0 0
58993.4 306326.0 0
63856.3 307645.0 0
67592.3 307108.0 0
75450.4 303706.0 0
71652.6 306892.0 0
78214.9 307520.0 0
82271.1 307816.0 0
87155.0 303306.0 0
92436.3 307221.0 0
97433.7 307293.0 0
102562.0 306783.0 0
107513.0 302876.0 0
110976.0 307290.0 0
113383.0 302929.0 0
118424.0 303658.0 0
126549.0 307120.0 0
132389.0 306854.0 0
137657.0 303347.0 0
137083.0 307725.0 0
142123.0 306538.0 0
147485.0 306396.0 0
156992.0 306616.0 0
161654.0 307457.0 0
166935.0 306406.0 0
172250.0 307055.0 0
174970.0 303515.0 0
177857.0 307795.0 0
183301.0 306059.0 0
189569.0 306745.0 0
197494.0 303396.0 0
194594.0 307860.0 0
202868.0 307057.0 0
207500.0 307111.0 0
212370.0 307089.0 0
217582.0 307284.0 0
223146.0 307438.0 0
226984.0 302782.0 0
227432.0 307759.0 0
232479.0 307102.0 0
238689.0 307746.0 0
242771.0 306787.0 0
247076.0 306495.0 0
254385.0 303481.0 0
262514.0 306363.0 0
267994.0 306506.0 0
283533.0 305924.0 0
288594.0 306334.0 0
292814.0 304030.0 0
298604.0 307579.0 0
301796.0 303575.0 0
302612.0 307511.0 0
307500.0 307118.0 0
312447.0 303423.0 0
316553.0 307372.0 0
321460.0 307330.0 0
327804.0 306138.0 0
333534.0 307825.0 0
337617.0 302819.0 0
340941.0 306169.0 0
351789.0 302968.0 0
358937.0 302944.0 0
364204.0 302973.0 0
362864.0 306949.0 0
367759.0 307583.0 0
377198.0 303779.0 0
373306.0 306550.0 0
383257.0 307671.0 0
397913.0 306287.0 0
402446.0 307312.0 0
407982.0 307767.0 0
417868.0 306576.0 0
420727.0 303409.0 0
420904.0 307780.0 0
426043.0 307648.0 0
432030.0 306747.0 0
438487.0 302978.0 0
436698.0 306915.0 0
442357.0 306662.0 0
452592.0 302866.0 0
453222.0 306935.0 0
463517.0 305985.0 0
468007.0 307779.0 0
471947.0 305620.0 0
476502.0 307168.0 0
481219.0 305748.0 0
485753.0 306696.0 0
490877.0 307249.0 0
496343.0 306189.0 0
2937.85 312688.0 0
8268.82 312246.0 0
12782.4 312110.0 0
15754.9 308162.0 0
17457.9 312876.0 0
20954.6 308815.0 0
26202.4 312706.0 0
30816.5 311119.0 0
39712.9 308640.0 0
35727.0 311394.0 0
42865.8 312001.0 0
47452.6 311101.0 0
51471.6 311712.0 0
56721.9 311668.0 0
62445.6 311570.0 0
67233.5 312224.0 0
72587.8 312049.0 0
78168.8 311614.0 0
82725.1 312211.0 0
86916.9 308865.0 0
90640.5 312333.0 0
95701.7 312275.0 0
101586.0 312427.0 0
107024.0 308864.0 0
115756.0 308106.0 0
112273.0 311981.0 0
120998.0 308279.0 0
118132.0 312818.0 0
123077.0 312746.0 0
127489.0 312262.0 0
132069.0 312335.0 0
137094.0 312306.0 0
145862.0 311282.0 0
152151.0 307604.0 0
155755.0 311361.0 0
169004.0 312731.0 0
181228.0 312873.0 0
185806.0 310538.0 0
190624.0 311929.0 0
198947.0 308486.0 0
195378.0 312461.0 0
204721.0 311685.0 0
208752.0 312600.0 0
212441.0 311784.0 0
217341.0 312708.0 0
222514.0 312096.0 0
227488.0 312331.0 0
232699.0 311398.0 0
236835.0 312583.0 0
242219.0 311308.0 0
247516.0 311574.0 0
251867.0 308167.0 0
252133.0 312409.0 0
257505.0 307990.0 0
261994.0 311712.0 0
267571.0 311178.0 0
273237.0 308723.0 0
279399.0 308567.0 0
284736.0 310916.0 0
289821.0 311125.0 0
293493.0 308437.0 0
293511.0 313131.0 0
297251.0 311909.0 0
302142.0 310841.0 0
307521.0 311394.0 0
312822.0 309233.0 0
317123.0 312080.0 0
326711.0 311535.0 0
331502.0 312688.0 0
336381.0 312731.0 0
337902.0 308899.0 0
341558.0 312070.0 0
346534.0 307780.0 0
351009.0 312155.0 0
352512.0 307971.0 0
358111.0 308564.0 0
363389.0 311976.0 0
368460.0 312816.0 0
372615.0 311583.0 0
377859.0 308430.0 0
381579.0 312227.0 0
386075.0 312664.0 0
389007.0 308103.0 0
391831.0 313065.0 0
394007.0 308282.0 0
397854.0 311928.0 0
403463.0 312334.0 0
408152.0 312861.0 0
412529.0 313005.0 0
413758.0 308149.0 0
417296.0 312218.0 0
422167.0 311741.0 0
433150.0 312587.0 0
438806.0 310993.0 0
448416.0 308320.0 0
443902.0 312083.0 0
452975.0 311560.0 0
458220.0 307842.0 0
462437.0 312493.0 0
467467.0 312414.0 0
471891.0 311067.0 0
476208.0 312079.0 0
481283.0 311056.0 0
486988.0 311702.0 0
497418.0 311749.0 0
8051.17 317247.0 0
15127.2 317177.0 0
20116.7 317745.0 0
22036.5 313412.0 0
25550.5 317586.0 0
32586.3 317855.0 0
39251.1 315040.0 0
47319.4 316373.0 0
52753.9 315795.0 0
57894.5 317826.0 0
63805.8 316841.0 0
69556.7 317334.0 0
74621.5 317719.0 0
79090.5 316327.0 0
83142.2 317274.0 0
86941.7 312994.0 0
87715.0 317476.0 0
93298.5 317526.0 0
98993.8 317611.0 0
104022.0 317602.0 0
107098.0 313732.0 0
107297.0 317786.0 0
111660.0 317723.0 0
119881.0 317658.0 0
123722.0 317411.0 0
128288.0 316895.0 0
132812.0 316653.0 0
136898.0 316994.0 0
141528.0 313686.0 0
141140.0 317888.0 0
146372.0 317204.0 0
150959.0 313633.0 0
156543.0 317288.0 0
161600.0 313713.0 0
172453.0 317473.0 0
175632.0 313515.0 0
178953.0 316972.0 0
188813.0 316335.0 0
193177.0 317161.0 0
197360.0 317351.0 0
200012.0 313953.0 0
202940.0 317421.0 0
207663.0 315582.0 0
212428.0 317049.0 0
217608.0 317210.0 0
221771.0 316903.0 0
226564.0 317229.0 0
231783.0 315631.0 0
236952.0 317495.0 0
241570.0 316587.0 0
248716.0 316470.0 0
252957.0 316138.0 0
256777.0 313221.0 0
260550.0 316333.0 0
265824.0 316113.0 0
271343.0 314081.0 0
276732.0 313345.0 0
275737.0 317208.0 0
281971.0 316412.0 0
288241.0 315944.0 0
293471.0 317808.0 0
298631.0 316321.0 0
304530.0 315312.0 0
310872.0 313011.0 0
309283.0 316790.0 0
314161.0 315395.0 0
318173.0 316722.0 0
321960.0 313268.0 0
327445.0 316212.0 0
332500.0 317285.0 0
336825.0 317321.0 0
341815.0 317617.0 0
346821.0 317681.0 0
347130.0 313343.0 0
351667.0 316549.0 0
355107.0 313085.0 0
357385.0 317275.0 0
368511.0 317048.0 0
377203.0 313526.0 0
373481.0 317724.0 0
379189.0 317959.0 0
382695.0 315880.0 0
396289.0 316752.0 0
401080.0 317166.0 0
406217.0 316902.0 0
417204.0 317551.0 0
422314.0 316589.0 0
427041.0 313873.0 0
438063.0 316362.0 0
448663.0 314149.0 0
443986.0 317854.0 0
453298.0 317047.0 0
457212.0 313495.0 0
458162.0 317595.0 0
462097.0 317480.0 0
467129.0 317381.0 0
472242.0 315938.0 0
478280.0 316650.0 0
483691.0 315932.0 0
487962.0 316231.0 0
492114.0 313257.0 0
491671.0 318197.0 0
496471.0 317154.0 0
2736.3 318126.0 0
2179.56 322955.0 0
6830.27 322215.0 0
11821.8 319639.0 0
11144.9 323332.0 0
16415.5 322423.0 0
22240.1 322585.0 0
26899.1 322227.0 0
42541.9 319461.0 0
47273.0 321606.0 0
52244.8 321155.0 0
62795.1 322208.0 0
67699.0 322773.0 0
72774.8 322284.0 0
77940.7 322044.0 0
83426.5 322004.0 0
88681.1 322493.0 0
93315.9 322359.0 0
97255.3 322092.0 0
102394.0 322880.0 0
107388.0 321035.0 0
116192.0 320701.0 0
120572.0 323280.0 0
126236.0 322079.0 0
132034.0 321440.0 0
137636.0 321833.0 0
143458.0 322717.0 0
151811.0 318930.0 0
148553.0 322085.0 0
157718.0 322173.0 0
161140.0 319336.0 0
162987.0 322289.0 0
166062.0 318802.0 0
171221.0 321725.0 0
176271.0 321402.0 0
183694.0 318077.0 0
188602.0 321538.0 0
193674.0 322036.0 0
198886.0 321990.0 0
203301.0 323123.0 0
207205.0 320460.0 0
216251.0 322574.0 0
221763.0 321190.0 0
226382.0 322547.0 0
232313.0 321691.0 0
238265.0 322088.0 0
245437.0 321184.0 0
252049.0 321191.0 0
256631.0 318157.0 0
257577.0 322607.0 0
262466.0 321053.0 0
269775.0 320570.0 0
273089.0 317812.0 0
274145.0 322600.0 0
277888.0 320270.0 0
283015.0 322782.0 0
288454.0 321229.0 0
296852.0 321087.0 0
302606.0 321674.0 0
308383.0 322539.0 0
312539.0 319949.0 0
318034.0 322030.0 0
322862.0 318670.0 0
328562.0 321347.0 0
333799.0 322938.0 0
339241.0 322289.0 0
344510.0 322069.0 0
349485.0 321700.0 0
353975.0 320655.0 0
358504.0 323205.0 0
363208.0 318297.0 0
368064.0 321722.0 0
372323.0 322230.0 0
376927.0 322408.0 0
382412.0 321566.0 0
387067.0 318292.0 0
387497.0 322898.0 0
392354.0 318508.0 0
392414.0 322606.0 0
396594.0 322041.0 0
401662.0 322592.0 0
407092.0 321995.0 0
411494.0 318165.0 0
411589.0 322972.0 0
415872.0 322626.0 0
421484.0 322173.0 0
426551.0 319454.0 0
431597.0 318262.0 0
430776.0 322922.0 0
436072.0 322341.0 0
448946.0 318975.0 0
446860.0 322126.0 0
456318.0 321476.0 0
461601.0 322506.0 0
466986.0 322711.0 0
472904.0 321094.0 0
478051.0 322083.0 0
482428.0 320293.0 0
487677.0 321306.0 0
493282.0 322220.0 0
498167.0 321489.0 0
2799.29 327754.0 0
8257.67 327166.0 0
12703.8 326782.0 0
16689.2 327238.0 0
20743.0 327251.0 0
31439.5 325697.0 0
37916.0 323283.0 0
43878.2 323969.0 0
41740.6 327853.0 0
47425.2 327769.0 0
53069.3 327123.0 0
57513.9 323863.0 0
63626.7 327358.0 0
68337.4 327284.0 0
72511.7 327113.0 0
77246.3 327130.0 0
82084.0 327199.0 0
86342.5 326150.0 0
91330.6 326966.0 0
96802.0 326480.0 0
111908.0 324038.0 0
116678.0 326550.0 0
121142.0 328044.0 0
125935.0 327925.0 0
132173.0 327494.0 0
137897.0 327533.0 0
142960.0 328077.0 0
147754.0 326623.0 0
152846.0 327986.0 0
153178.0 323353.0 0
157747.0 327143.0 0
162944.0 326801.0 0
167685.0 324082.0 0
172654.0 326405.0 0
178351.0 326618.0 0
182187.0 323618.0 0
186638.0 326202.0 0
192448.0 326857.0 0
197156.0 327187.0 0
201667.0 326999.0 0
207316.0 327080.0 0
210884.0 323887.0 0
212749.0 327261.0 0
221928.0 325826.0 0
227600.0 327474.0 0
232538.0 327305.0 0
237431.0 327255.0 0
241961.0 325759.0 0
246352.0 326538.0 0
250971.0 327016.0 0
255565.0 326540.0 0
260950.0 327438.0 0
266397.0 324851.0 0
271513.0 326444.0 0
277646.0 326269.0 0
288017.0 326455.0 0
292743.0 323460.0 0
297806.0 326318.0 0
302752.0 327208.0 0
307412.0 327456.0 0
313482.0 326870.0 0
318383.0 326808.0 0
323769.0 324076.0 0
328958.0 326773.0 0
333116.0 327339.0 0
336660.0 326911.0 0
342360.0 327438.0 0
347706.0 327179.0 0
352994.0 326103.0 0
363742.0 323857.0 0
367583.0 327162.0 0
373328.0 326999.0 0
378085.0 327379.0 0
382364.0 326790.0 0
387500.0 327434.0 0
391369.0 327227.0 0
394722.0 326763.0 0
398480.0 326504.0 0
406085.0 327926.0 0
412596.0 327542.0 0
418203.0 327336.0 0
423305.0 327397.0 0
427613.0 323422.0 0
428130.0 327318.0 0
433007.0 327413.0 0
437872.0 327913.0 0
442314.0 323782.0 0
441975.0 328394.0 0
447258.0 327058.0 0
451421.0 323314.0 0
456291.0 326560.0 0
461199.0 328087.0 0
466198.0 327775.0 0
470614.0 325798.0 0
475813.0 326909.0 0
482340.0 326297.0 0
488545.0 326786.0 0
497033.0 326126.0 0
2497.9 332211.0 0
7290.73 331955.0 0
12091.6 330823.0 0
17760.7 331566.0 0
22314.5 332174.0 0
25670.4 328280.0 0
25866.0 332822.0 0
33657.9 331306.0 0
37279.9 328628.0 0
41480.0 333075.0 0
46428.0 333202.0 0
51562.9 332447.0 0
58808.7 329112.0 0
56757.6 333231.0 0
62417.4 332870.0 0
67746.0 332095.0 0
72698.5 331703.0 0
76832.3 332587.0 0
81514.7 332342.0 0
87202.2 331134.0 0
92474.2 332197.0 0
101423.0 328918.0 0
97417.3 332301.0 0
107488.0 328851.0 0
111634.0 332816.0 0
113321.0 328799.0 0
117363.0 332167.0 0
123156.0 332347.0 0
128779.0 332942.0 0
134054.0 332571.0 0
137950.0 332266.0 0
142169.0 332196.0 0
147680.0 332345.0 0
153203.0 332883.0 0
158909.0 331578.0 0
162829.0 332009.0 0
167750.0 329100.0 0
172499.0 330674.0 0
178119.0 332121.0 0
182732.0 328717.0 0
188360.0 331179.0 0
193982.0 331993.0 0
199075.0 331525.0 0
204134.0 332062.0 0
209443.0 332419.0 0
213908.0 331074.0 0
217628.0 328508.0 0
217498.0 332888.0 0
222154.0 331292.0 0
226144.0 332363.0 0
230536.0 332452.0 0
235953.0 331778.0 0
240480.0 329041.0 0
243864.0 330452.0 0
250542.0 332329.0 0
256595.0 332624.0 0
266413.0 330058.0 0
272431.0 332074.0 0
278184.0 332044.0 0
282834.0 329087.0 0
289271.0 331918.0 0
292878.0 328359.0 0
294194.0 332731.0 0
298695.0 331749.0 0
302934.0 331153.0 0
307072.0 332562.0 0
312265.0 333068.0 0
317104.0 331447.0 0
321925.0 329572.0 0
326899.0 331458.0 0
332057.0 331523.0 0
337953.0 331982.0 0
343192.0 332770.0 0
346424.0 330996.0 0
351003.0 332180.0 0
357577.0 328613.0 0
358236.0 332949.0 0
362290.0 328593.0 0
367486.0 332515.0 0
372741.0 332617.0 0
377645.0 331899.0 0
383219.0 331878.0 0
387851.0 332156.0 0
390875.0 332403.0 0
395035.0 331391.0 0
400976.0 330961.0 0
410000.0 333297.0 0
416637.0 333222.0 0
423067.0 333001.0 0
428622.0 332084.0 0
433360.0 332205.0 0
438528.0 333124.0 0
444126.0 332305.0 0
448744.0 332609.0 0
451813.0 328505.0 0
452185.0 332464.0 0
457238.0 332799.0 0
462792.0 332498.0 0
470552.0 330867.0 0
476249.0 333229.0 0
482702.0 332997.0 0
488416.0 332060.0 0
492785.0 329035.0 0
492746.0 332692.0 0
497014.0 331881.0 0
2618.97 336727.0 0
8114.67 336339.0 0
12989.5 335340.0 0
17305.6 336436.0 0
22350.4 336382.0 0
29880.3 334361.0 0
26617.1 337045.0 0
33953.6 337294.0 0
37025.0 333653.0 0
38639.8 337165.0 0
43348.2 338195.0 0
47500.0 337247.0 0
51839.6 338089.0 0
58580.9 337847.0 0
64148.4 338238.0 0
68700.1 337134.0 0
73525.2 336296.0 0
77187.8 337009.0 0
80537.6 337371.0 0
86165.7 337342.0 0
92866.3 337208.0 0
98385.9 337564.0 0
102481.0 334052.0 0
106818.0 333997.0 0
103009.0 338032.0 0
108575.0 337471.0 0
112663.0 337029.0 0
117520.0 337873.0 0
122499.0 337206.0 0
126613.0 337855.0 0
132005.0 337265.0 0
136979.0 336752.0 0
144332.0 337182.0 0
150740.0 336735.0 0
157172.0 336809.0 0
163054.0 336387.0 0
166904.0 333583.0 0
167916.0 338101.0 0
173303.0 336311.0 0
183489.0 333436.0 0
179038.0 338188.0 0
183282.0 337616.0 0
187030.0 336581.0 0
192155.0 336923.0 0
197070.0 336026.0 0
202028.0 337136.0 0
207510.0 337613.0 0
213686.0 335356.0 0
217036.0 337935.0 0
220774.0 336187.0 0
226103.0 336312.0 0
230617.0 337537.0 0
236344.0 337211.0 0
240295.0 333626.0 0
240817.0 338674.0 0
245634.0 336417.0 0
253106.0 337646.0 0
257901.0 337950.0 0
262397.0 333155.0 0
262346.0 337885.0 0
267471.0 335352.0 0
272883.0 338106.0 0
278102.0 337050.0 0
282992.0 334625.0 0
289329.0 336600.0 0
292876.0 336275.0 0
297276.0 337087.0 0
303125.0 336189.0 0
308732.0 337558.0 0
319323.0 335852.0 0
323544.0 334170.0 0
328435.0 336835.0 0
334339.0 336525.0 0
338091.0 338407.0 0
342772.0 338098.0 0
348235.0 337020.0 0
354799.0 336512.0 0
358978.0 337051.0 0
362786.0 333443.0 0
362440.0 337488.0 0
366832.0 337589.0 0
372101.0 338022.0 0
377004.0 335561.0 0
380774.0 336120.0 0
386821.0 336922.0 0
391496.0 335820.0 0
396501.0 337177.0 0
400408.0 335266.0 0
404525.0 334288.0 0
407814.0 338734.0 0
418131.0 338359.0 0
422126.0 338090.0 0
426866.0 336832.0 0
431358.0 336421.0 0
442141.0 337654.0 0
447653.0 336995.0 0
452897.0 337219.0 0
461679.0 336732.0 0
466685.0 333726.0 0
465920.0 337806.0 0
470821.0 336535.0 0
481097.0 337737.0 0
485389.0 337762.0 0
491379.0 337540.0 0
497494.0 337254.0 0
2008.21 340907.0 0
6861.26 341299.0 0
12714.1 340733.0 0
18683.4 341378.0 0
24420.9 341101.0 0
30138.9 341146.0 0
35338.8 342807.0 0
39712.9 341280.0 0
43236.2 343521.0 0
47292.9 341425.0 0
51730.3 342930.0 0
56675.0 342980.0 0
61916.2 343134.0 0
66552.1 342580.0 0
71614.2 341290.0 0
77116.6 340616.0 0
82252.0 342272.0 0
93143.0 341330.0 0
97500.0 342281.0 0
102338.0 342080.0 0
107192.0 341819.0 0
112285.0 341354.0 0
117500.0 342486.0 0
122407.0 341089.0 0
127575.0 342846.0 0
132465.0 341941.0 0
140516.0 338767.0 0
137909.0 341632.0 0
142395.0 341835.0 0
147743.0 341792.0 0
153098.0 340835.0 0
157341.0 342985.0 0
161373.0 341036.0 0
165636.0 342180.0 0
171573.0 342049.0 0
176514.0 342481.0 0
180572.0 342806.0 0
185233.0 341565.0 0
190631.0 341181.0 0
195769.0 341646.0 0
201656.0 342580.0 0
206866.0 343062.0 0
212672.0 341224.0 0
218387.0 342745.0 0
223048.0 340681.0 0
227700.0 343179.0 0
232755.0 341744.0 0
238140.0 342874.0 0
243707.0 342526.0 0
248636.0 341571.0 0
255672.0 341653.0 0
260374.0 342342.0 0
267058.0 342253.0 0
272950.0 343015.0 0
276696.0 341661.0 0
281689.0 340887.0 0
285786.0 338379.0 0
286867.0 343184.0 0
292421.0 341032.0 0
298353.0 342912.0 0
303279.0 341412.0 0
307536.0 342313.0 0
314364.0 338545.0 0
318608.0 342238.0 0
323309.0 338669.0 0
323239.0 342942.0 0
327619.0 342391.0 0
332146.0 340994.0 0
336968.0 342149.0 0
341380.0 343252.0 0
347309.0 342433.0 0
353267.0 341750.0 0
358409.0 340859.0 0
363665.0 341927.0 0
368394.0 341874.0 0
372442.0 342415.0 0
377251.0 339806.0 0
383081.0 341178.0 0
388369.0 342635.0 0
392598.0 340609.0 0
397135.0 342372.0 0
401990.0 340183.0 0
413202.0 338745.0 0
408596.0 343378.0 0
417500.0 342180.0 0
423329.0 342080.0 0
429384.0 340845.0 0
432924.0 342477.0 0
436178.0 338393.0 0
439076.0 342279.0 0
445253.0 341503.0 0
449695.0 341890.0 0
454029.0 342215.0 0
457580.0 338860.0 0
458017.0 343416.0 0
461919.0 341640.0 0
466512.0 342467.0 0
472284.0 342345.0 0
476915.0 339106.0 0
481706.0 342387.0 0
487473.0 342719.0 0
492952.0 343401.0 0
497669.0 342194.0 0
3474.9 346668.0 0
8781.63 347595.0 0
12701.7 346147.0 0
18052.8 347549.0 0
23668.8 346428.0 0
28932.4 346722.0 0
33588.5 346939.0 0
38335.9 347348.0 0
43487.7 348016.0 0
47818.0 346426.0 0
52285.5 347456.0 0
57169.8 348359.0 0
61963.2 347844.0 0
66491.4 347165.0 0
71682.2 347167.0 0
78214.9 347670.0 0
84089.5 346988.0 0
88447.5 343575.0 0
94111.0 345375.0 0
99204.7 346978.0 0
103861.0 348006.0 0
108436.0 346770.0 0
113726.0 346162.0 0
118273.0 347189.0 0
122540.0 345478.0 0
126903.0 347791.0 0
131504.0 346877.0 0
135468.0 345246.0 0
140016.0 346235.0 0
145244.0 346885.0 0
152179.0 346897.0 0
157860.0 348090.0 0
162459.0 346149.0 0
168061.0 346338.0 0
173820.0 347492.0 0
179087.0 346801.0 0
183869.0 347470.0 0
189068.0 345176.0 0
193821.0 347406.0 0
198643.0 346382.0 0
202794.0 347552.0 0
207497.0 348180.0 0
212864.0 347608.0 0
217765.0 347174.0 0
222345.0 346031.0 0
226774.0 347817.0 0
231699.0 347106.0 0
236609.0 347590.0 0
241288.0 347496.0 0
247480.0 346286.0 0
252170.0 344370.0 0
251330.0 348272.0 0
257004.0 347061.0 0
262275.0 346958.0 0
272767.0 347692.0 0
277826.0 347146.0 0
282625.0 346338.0 0
287393.0 348449.0 0
293375.0 347605.0 0
298769.0 347919.0 0
303264.0 346399.0 0
308159.0 347003.0 0
312242.0 344020.0 0
315665.0 348313.0 0
320474.0 347004.0 0
326015.0 347798.0 0
333042.0 347060.0 0
338969.0 347743.0 0
343278.0 347176.0 0
347186.0 347231.0 0
351618.0 347094.0 0
357485.0 346161.0 0
362951.0 346933.0 0
368156.0 346719.0 0
373426.0 345725.0 0
378241.0 344842.0 0
382939.0 347309.0 0
388112.0 348047.0 0
392288.0 345548.0 0
397132.0 347006.0 0
402933.0 346880.0 0
407599.0 346936.0 0
412895.0 343695.0 0
411380.0 347996.0 0
416261.0 346814.0 0
421463.0 346610.0 0
426961.0 345676.0 0
431597.0 348141.0 0
436231.0 346076.0 0
442683.0 346674.0 0
449546.0 347504.0 0
454885.0 346648.0 0
459002.0 347499.0 0
462713.0 345749.0 0
466784.0 347295.0 0
471134.0 347399.0 0
477157.0 344060.0 0
475456.0 347806.0 0
480224.0 347808.0 0
485873.0 348220.0 0
491689.0 347579.0 0
496771.0 347617.0 0
3092.0 353317.0 0
8242.93 351741.0 0
13522.5 351829.0 0
22908.3 351916.0 0
28295.4 351864.0 0
33674.1 351842.0 0
38692.8 352271.0 0
42500.0 352220.0 0
47500.0 352056.0 0
52500.0 352115.0 0
57734.3 353686.0 0
62752.3 352345.0 0
67011.0 352082.0 0
73032.6 353194.0 0
78414.3 353464.0 0
82571.2 352069.0 0
87671.6 348626.0 0
87059.8 352522.0 0
92035.4 350648.0 0
97512.9 352225.0 0
102102.0 352144.0 0
107195.0 352521.0 0
113481.0 351577.0 0
117719.0 352827.0 0
121431.0 350595.0 0
125907.0 353365.0 0
130003.0 351037.0 0
135676.0 350940.0 0
141853.0 351097.0 0
147779.0 352598.0 0
152987.0 352231.0 0
157105.0 352519.0 0
162685.0 352255.0 0
168932.0 351766.0 0
173991.0 352763.0 0
178916.0 351846.0 0
183594.0 352902.0 0
188738.0 351020.0 0
193888.0 352321.0 0
198473.0 351402.0 0
203347.0 351729.0 0
207094.0 352526.0 0
211045.0 352332.0 0
216479.0 351642.0 0
222500.0 352130.0 0
228466.0 352217.0 0
232902.0 351588.0 0
237568.0 352202.0 0
242870.0 352300.0 0
248166.0 351833.0 0
253858.0 352133.0 0
258667.0 352169.0 0
262471.0 351234.0 0
267084.0 349395.0 0
271957.0 352236.0 0
276054.0 351691.0 0
281902.0 352339.0 0
287235.0 352951.0 0
291495.0 353014.0 0
297272.0 352169.0 0
304936.0 351985.0 0
309289.0 352654.0 0
311431.0 348948.0 0
313183.0 352778.0 0
318357.0 351946.0 0
322500.0 352342.0 0
328712.0 352404.0 0
332993.0 353122.0 0
336879.0 351465.0 0
340950.0 351513.0 0
345966.0 351727.0 0
352082.0 353115.0 0
357212.0 351441.0 0
361933.0 351804.0 0
367420.0 352969.0 0
372106.0 350302.0 0
377768.0 350494.0 0
383634.0 353427.0 0
388778.0 353062.0 0
392795.0 350690.0 0
398391.0 352441.0 0
405978.0 351379.0 0
408660.0 353923.0 0
411515.0 352284.0 0
415553.0 351594.0 0
420670.0 352071.0 0
427166.0 352177.0 0
432740.0 352138.0 0
437903.0 351892.0 0
444257.0 352704.0 0
453869.0 351517.0 0
458708.0 351559.0 0
462547.0 349947.0 0
466675.0 352133.0 0
471850.0 351958.0 0
477391.0 352066.0 0
482750.0 352518.0 0
490001.0 351613.0 0
493179.0 353630.0 0
497272.0 353540.0 0
2164.27 358550.0 0
6263.27 357474.0 0
11583.1 357810.0 0
18224.8 353918.0 0
17690.6 358365.0 0
22566.8 357602.0 0
28374.8 356949.0 0
33518.0 357274.0 0
38524.1 356885.0 0
43504.0 357120.0 0
47901.2 357148.0 0
52500.0 357059.0 0
57488.1 358133.0 0
62276.0 357403.0 0
67529.6 356412.0 0
76955.0 357498.0 0
81572.2 357036.0 0
86159.7 356607.0 0
91626.7 357032.0 0
97928.6 357593.0 0
102788.0 356327.0 0
107095.0 358410.0 0
111336.0 356165.0 0
115711.0 356431.0 0
120998.0 356457.0 0
126104.0 358277.0 0
131519.0 356604.0 0
137764.0 357010.0 0
143223.0 357108.0 0
149563.0 358091.0 0
153542.0 356055.0 0
157767.0 357147.0 0
162140.0 358288.0 0
166413.0 356378.0 0
171252.0 356622.0 0
176639.0 357424.0 0
181348.0 356226.0 0
186537.0 357557.0 0
191744.0 355696.0 0
196700.0 357082.0 0
201735.0 355058.0 0
208280.0 357359.0 0
213960.0 356189.0 0
218566.0 355728.0 0
222255.0 357677.0 0
226871.0 357098.0 0
232526.0 356605.0 0
240637.0 356478.0 0
246202.0 357859.0 0
252263.0 357457.0 0
256865.0 355930.0 0
261552.0 358154.0 0
266191.0 354967.0 0
271210.0 356665.0 0
277527.0 356182.0 0
288791.0 357612.0 0
294889.0 357226.0 0
300936.0 356527.0 0
307331.0 357479.0 0
312832.0 357817.0 0
317908.0 356484.0 0
322036.0 358325.0 0
326054.0 356357.0 0
331314.0 357902.0 0
336407.0 356335.0 0
342251.0 356858.0 0
348018.0 357180.0 0
352485.0 358679.0 0
357649.0 356784.0 0
363282.0 356705.0 0
367845.0 358407.0 0
372385.0 355808.0 0
377774.0 356382.0 0
387566.0 358075.0 0
393086.0 356378.0 0
403672.0 356792.0 0
409226.0 357911.0 0
413685.0 356287.0 0
418048.0 357814.0 0
422269.0 357070.0 0
432441.0 356389.0 0
436551.0 356674.0 0
442628.0 357959.0 0
447274.0 357029.0 0
449153.0 353540.0 0
451877.0 357486.0 0
455954.0 355795.0 0
461930.0 356797.0 0
468660.0 357519.0 0
474652.0 356998.0 0
479716.0 355792.0 0
487031.0 356833.0 0
493462.0 357965.0 0
498364.0 357890.0 0
2123.9 362833.0 0
6448.61 362242.0 0
16524.4 362714.0 0
20963.1 362424.0 0
25821.3 361592.0 0
31945.8 362514.0 0
37722.0 361912.0 0
42832.9 362195.0 0
48296.9 362012.0 0
52981.2 362237.0 0
57535.5 362400.0 0
62504.2 362122.0 0
67309.2 362017.0 0
71758.5 358804.0 0
73577.3 362795.0 0
77225.3 361721.0 0
81101.5 362098.0 0
86743.0 361741.0 0
92831.1 363548.0 0
98385.5 362659.0 0
102973.0 361093.0 0
111639.0 361484.0 0
117235.0 360877.0 0
122118.0 363410.0 0
126632.0 362234.0 0
131046.0 363042.0 0
134791.0 360626.0 0
139613.0 362961.0 0
146388.0 362479.0 0
153059.0 362741.0 0
158953.0 361920.0 0
166075.0 361570.0 0
171541.0 361757.0 0
177223.0 363660.0 0
182933.0 362386.0 0
188105.0 363447.0 0
192467.0 360661.0 0
202350.0 360069.0 0
207194.0 363816.0 0
212771.0 361861.0 0
218300.0 360418.0 0
223141.0 362551.0 0
228752.0 362434.0 0
233658.0 361708.0 0
237088.0 359378.0 0
237327.0 363511.0 0
241432.0 361739.0 0
252209.0 362917.0 0
256788.0 360905.0 0
262483.0 363634.0 0
268199.0 362170.0 0
274930.0 359705.0 0
273796.0 363982.0 0
278022.0 362557.0 0
282522.0 359335.0 0
287161.0 362256.0 0
292136.0 362652.0 0
298607.0 362520.0 0
303655.0 360675.0 0
307368.0 362730.0 0
312040.0 362607.0 0
316741.0 361179.0 0
320817.0 362535.0 0
326919.0 362492.0 0
333452.0 363201.0 0
338186.0 360548.0 0
342520.0 362574.0 0
347124.0 362057.0 0
352243.0 363398.0 0
357251.0 362536.0 0
362102.0 361414.0 0
366291.0 362483.0 0
370725.0 362486.0 0
376310.0 361937.0 0
382112.0 360043.0 0
386404.0 363193.0 0
391671.0 362313.0 0
397918.0 358929.0 0
396466.0 362952.0 0
401508.0 363430.0 0
406888.0 361883.0 0
411700.0 361675.0 0
416897.0 362302.0 0
422541.0 362407.0 0
427467.0 358856.0 0
432288.0 362596.0 0
437757.0 360956.0 0
442421.0 363478.0 0
447825.0 361407.0 0
456056.0 361437.0 0
461573.0 363264.0 0
466189.0 361954.0 0
471938.0 363207.0 0
477537.0 361722.0 0
481854.0 359578.0 0
480903.0 363204.0 0
486008.0 363544.0 0
491410.0 362782.0 0
497072.0 362715.0 0
3821.46 367260.0 0
7846.8 368376.0 0
11187.7 364566.0 0
17408.5 366924.0 0
22554.8 367553.0 0
27914.9 366131.0 0
32709.6 368211.0 0
38186.8 367230.0 0
43339.1 367144.0 0
48057.9 367402.0 0
52500.0 367169.0 0
57099.5 367324.0 0
62118.2 366399.0 0
66795.9 367204.0 0
71880.0 367433.0 0
77293.8 365756.0 0
82500.0 367322.0 0
87444.2 367066.0 0
97500.0 367160.0 0
102500.0 367077.0 0
106831.0 364081.0 0
106593.0 368102.0 0
110951.0 367230.0 0
117041.0 366513.0 0
122307.0 368698.0 0
126676.0 366799.0 0
131494.0 368475.0 0
136666.0 368287.0 0
143719.0 366830.0 0
149097.0 368139.0 0
154421.0 368296.0 0
158624.0 366690.0 0
162456.0 364738.0 0
162388.0 369052.0 0
166465.0 366855.0 0
172041.0 367535.0 0
181074.0 367086.0 0
185293.0 367756.0 0
192155.0 366941.0 0
197126.0 363918.0 0
197247.0 369016.0 0
202094.0 365457.0 0
206950.0 368652.0 0
211445.0 367393.0 0
217408.0 366208.0 0
223277.0 368261.0 0
228732.0 367865.0 0
233731.0 366393.0 0
237344.0 368518.0 0
241616.0 367486.0 0
246707.0 364234.0 0
249040.0 368954.0 0
253425.0 367799.0 0
257975.0 365883.0 0
260842.0 368774.0 0
265106.0 368311.0 0
270646.0 367408.0 0
277929.0 368039.0 0
283736.0 365661.0 0
289027.0 367490.0 0
295110.0 367614.0 0
300315.0 368156.0 0
303542.0 364535.0 0
304598.0 368132.0 0
307827.0 366784.0 0
311545.0 366899.0 0
316363.0 365722.0 0
322929.0 366850.0 0
327348.0 368462.0 0
331929.0 367630.0 0
338517.0 365068.0 0
342528.0 367852.0 0
347189.0 366931.0 0
351925.0 368438.0 0
356190.0 366862.0 0
360811.0 366389.0 0
367035.0 367582.0 0
373475.0 367452.0 0
379817.0 367154.0 0
383048.0 364193.0 0
388932.0 367306.0 0
397156.0 366620.0 0
406572.0 367371.0 0
413338.0 367611.0 0
418606.0 368422.0 0
421825.0 367089.0 0
427346.0 364106.0 0
425774.0 368253.0 0
430291.0 367484.0 0
437092.0 367239.0 0
443121.0 368305.0 0
448345.0 367513.0 0
451852.0 364308.0 0
453238.0 367743.0 0
458128.0 367410.0 0
462944.0 367062.0 0
467022.0 366737.0 0
476777.0 366069.0 0
481313.0 367099.0 0
487114.0 368960.0 0
491527.0 367356.0 0
497285.0 368368.0 0
2625.07 372366.0 0
7009.04 372182.0 0
14047.2 369174.0 0
11246.8 372570.0 0
17139.3 372012.0 0
21509.0 372613.0 0
27828.2 371883.0 0
34083.9 372682.0 0
38305.9 372384.0 0
42541.5 372141.0 0
46765.6 372097.0 0
51430.2 371982.0 0
56264.6 371924.0 0
61763.6 372309.0 0
67862.6 372001.0 0
73215.4 372423.0 0
78833.0 371364.0 0
83210.8 371646.0 0
91841.4 369354.0 0
87243.7 371916.0 0
91317.0 373910.0 0
97500.0 372111.0 0
102500.0 372103.0 0
107500.0 372091.0 0
112603.0 371933.0 0
117793.0 372483.0 0
122941.0 373279.0 0
126931.0 371615.0 0
136273.0 372818.0 0
141423.0 371468.0 0
147093.0 373708.0 0
152518.0 372839.0 0
158453.0 372698.0 0
163603.0 372921.0 0
167743.0 371681.0 0
173138.0 373928.0 0
177376.0 369550.0 0
178237.0 373794.0 0
181120.0 371728.0 0
185837.0 373466.0 0
192349.0 372836.0 0
197713.0 373545.0 0
202073.0 370595.0 0
206714.0 372704.0 0
211259.0 372490.0 0
216754.0 372304.0 0
221985.0 373600.0 0
227329.0 373243.0 0
232198.0 371191.0 0
236411.0 371758.0 0
240797.0 373102.0 0
245262.0 371142.0 0
252218.0 372618.0 0
257561.0 371436.0 0
262520.0 372316.0 0
269243.0 372285.0 0
274392.0 372506.0 0
278771.0 373575.0 0
282683.0 370316.0 0
282612.0 373799.0 0
286488.0 371786.0 0
291927.0 372613.0 0
298163.0 373300.0 0
303179.0 371827.0 0
311633.0 372047.0 0
317832.0 371481.0 0
323447.0 371696.0 0
331064.0 372126.0 0
337181.0 370858.0 0
343377.0 373411.0 0
348149.0 371221.0 0
352069.0 373418.0 0
357658.0 371441.0 0
362688.0 370886.0 0
366396.0 372830.0 0
371200.0 372942.0 0
376879.0 372457.0 0
381891.0 372519.0 0
384711.0 369472.0 0
388380.0 372720.0 0
392721.0 373382.0 0
393550.0 369225.0 0
396826.0 372820.0 0
400959.0 369554.0 0
408576.0 373146.0 0
413212.0 374027.0 0
417208.0 372438.0 0
422336.0 371751.0 0
427922.0 372989.0 0
432761.0 371229.0 0
437059.0 373351.0 0
442336.0 373389.0 0
447266.0 373638.0 0
451480.0 371809.0 0
456808.0 373454.0 0
462243.0 371327.0 0
467398.0 372877.0 0
471499.0 369395.0 0
476677.0 370920.0 0
482006.0 372360.0 0
486985.0 373628.0 0
493573.0 371192.0 0
497983.0 373046.0 0
3470.59 378457.0 0
8893.85 376655.0 0
13569.9 376992.0 0
18617.4 377180.0 0
22979.0 376328.0 0
27315.2 378019.0 0
32671.6 377070.0 0
37658.0 377068.0 0
42440.5 377214.0 0
47735.4 377066.0 0
52799.9 376671.0 0
57265.7 376299.0 0
61083.6 378783.0 0
65152.6 376688.0 0
70234.8 377153.0 0
76597.9 377625.0 0
83117.7 375926.0 0
88604.5 377421.0 0
94749.7 375490.0 0
98787.4 377366.0 0
103293.0 376355.0 0
106721.0 378128.0 0
111551.0 377133.0 0
117818.0 378854.0 0
122455.0 377077.0 0
126557.0 377094.0 0
131361.0 374279.0 0
137154.0 377439.0 0
142768.0 377541.0 0
147069.0 377859.0 0
153323.0 377998.0 0
157948.0 378019.0 0
162495.0 377176.0 0
167747.0 376882.0 0
177161.0 377921.0 0
181081.0 376165.0 0
189580.0 378042.0 0
195501.0 377872.0 0
201383.0 377476.0 0
207599.0 377597.0 0
213117.0 377183.0 0
218719.0 378196.0 0
223916.0 377659.0 0
232255.0 376401.0 0
237062.0 375900.0 0
241099.0 378752.0 0
246488.0 376171.0 0
251373.0 377075.0 0
256910.0 377852.0 0
263088.0 376624.0 0
268196.0 377375.0 0
273855.0 378009.0 0
279407.0 377952.0 0
283080.0 379078.0 0
287463.0 377184.0 0
293038.0 377980.0 0
297081.0 377976.0 0
302460.0 376723.0 0
306718.0 374475.0 0
308271.0 378270.0 0
312809.0 376776.0 0
317586.0 377591.0 0
322518.0 377563.0 0
326960.0 376017.0 0
329727.0 379172.0 0
332534.0 377050.0 0
337826.0 377297.0 0
342585.0 378450.0 0
346384.0 377657.0 0
350982.0 378389.0 0
355858.0 376462.0 0
362206.0 376913.0 0
368593.0 377613.0 0
373698.0 377707.0 0
379122.0 377727.0 0
383909.0 375962.0 0
388028.0 377414.0 0
392328.0 377188.0 0
398226.0 377116.0 0
402117.0 379047.0 0
403221.0 374439.0 0
406534.0 378104.0 0
411364.0 377916.0 0
416941.0 378124.0 0
422711.0 377174.0 0
428029.0 378690.0 0
433437.0 377300.0 0
438749.0 378347.0 0
443826.0 378425.0 0
448680.0 377969.0 0
453550.0 378097.0 0
458647.0 378272.0 0
463375.0 377337.0 0
468192.0 377306.0 0
472335.0 374546.0 0
471550.0 378816.0 0
477444.0 376817.0 0
483095.0 377516.0 0
487574.0 379363.0 0
491889.0 376016.0 0
497411.0 377729.0 0
1439.28 382942.0 0
6319.61 383416.0 0
11272.6 381936.0 0
17269.5 382397.0 0
22273.4 381875.0 0
27744.2 384015.0 0
33623.0 382464.0 0
38703.1 382236.0 0
43158.6 382143.0 0
47682.9 382316.0 0
52593.8 381459.0 0
57500.0 382258.0 0
63093.6 382697.0 0
67656.6 381915.0 0
72373.7 381717.0 0
76211.8 383623.0 0
81734.3 382496.0 0
88583.1 382098.0 0
93824.7 380555.0 0
98489.2 381299.0 0
102364.0 381764.0 0
106951.0 381985.0 0
113009.0 382990.0 0
122657.0 382260.0 0
127398.0 381783.0 0
132500.0 380032.0 0
131281.0 382779.0 0
135306.0 382022.0 0
140726.0 383337.0 0
149182.0 381591.0 0
154252.0 382096.0 0
158390.0 382517.0 0
162840.0 382120.0 0
167434.0 382010.0 0
172380.0 379780.0 0
171322.0 384213.0 0
177180.0 382621.0 0
181326.0 382850.0 0
184380.0 379559.0 0
192579.0 382365.0 0
197521.0 382432.0 0
202924.0 383854.0 0
208819.0 383067.0 0
214079.0 382276.0 0
218749.0 383516.0 0
223699.0 382737.0 0
227949.0 379570.0 0
228205.0 383694.0 0
232376.0 381662.0 0
236811.0 381278.0 0
241882.0 382765.0 0
245900.0 381945.0 0
251712.0 381945.0 0
256968.0 383521.0 0
260934.0 381999.0 0
265999.0 382102.0 0
272386.0 382750.0 0
276715.0 382436.0 0
280910.0 382113.0 0
285690.0 382809.0 0
291570.0 382373.0 0
296890.0 382664.0 0
302528.0 381699.0 0
307430.0 382577.0 0
311728.0 380748.0 0
316089.0 382972.0 0
321857.0 382098.0 0
326949.0 381568.0 0
331475.0 381945.0 0
336620.0 383183.0 0
342355.0 382627.0 0
346663.0 381920.0 0
350733.0 383227.0 0
357518.0 380698.0 0
361525.0 383421.0 0
366485.0 382187.0 0
371833.0 382869.0 0
377771.0 383572.0 0
384257.0 381665.0 0
390196.0 382164.0 0
395327.0 381198.0 0
400121.0 382656.0 0
404051.0 382966.0 0
408484.0 382603.0 0
413496.0 382580.0 0
418136.0 383158.0 0
422873.0 382259.0 0
427813.0 383528.0 0
431728.0 381906.0 0
436299.0 382902.0 0
441287.0 382913.0 0
446724.0 382248.0 0
451547.0 382637.0 0
457343.0 382882.0 0
462554.0 382799.0 0
467582.0 381782.0 0
472517.0 382828.0 0
477486.0 382643.0 0
483878.0 382319.0 0
488074.0 383527.0 0
493569.0 381759.0 0
498232.0 382118.0 0
2766.1 386818.0 0
8477.76 387900.0 0
14053.2 387057.0 0
19064.8 387458.0 0
23152.3 386609.0 0
27621.0 389284.0 0
32384.0 387221.0 0
37500.0 387306.0 0
41295.1 386927.0 0
45586.2 387440.0 0
50768.7 386683.0 0
56279.9 387607.0 0
61043.9 386547.0 0
66112.6 387269.0 0
72189.1 387191.0 0
78715.1 387553.0 0
82724.7 388150.0 0
86349.5 385888.0 0
91485.3 386298.0 0
97738.7 385874.0 0
103773.0 387705.0 0
108716.0 385898.0 0
114584.0 388250.0 0
118125.0 384709.0 0
118073.0 388142.0 0
122000.0 386632.0 0
126797.0 386896.0 0
131990.0 387388.0 0
136432.0 386666.0 0
140742.0 389438.0 0
146067.0 386736.0 0
152553.0 385893.0 0
157284.0 387086.0 0
161609.0 387281.0 0
167189.0 387989.0 0
173347.0 388135.0 0
178134.0 387442.0 0
182481.0 387374.0 0
187175.0 385004.0 0
193216.0 387393.0 0
198379.0 386607.0 0
206975.0 388193.0 0
211111.0 386791.0 0
215763.0 387752.0 0
221145.0 387523.0 0
226582.0 388340.0 0
231245.0 386009.0 0
236706.0 386739.0 0
242706.0 386442.0 0
248269.0 387195.0 0
253853.0 387113.0 0
262666.0 387011.0 0
269434.0 387727.0 0
275572.0 386877.0 0
279767.0 385894.0 0
283764.0 387927.0 0
289248.0 386993.0 0
294039.0 386801.0 0
298425.0 387969.0 0
302543.0 386314.0 0
306436.0 387329.0 0
311431.0 386486.0 0
318129.0 387036.0 0
322906.0 387439.0 0
327922.0 386284.0 0
332359.0 385745.0 0
336563.0 389201.0 0
341705.0 386334.0 0
345972.0 386952.0 0
349776.0 387300.0 0
355858.0 386275.0 0
364719.0 387290.0 0
369384.0 387520.0 0
373706.0 387033.0 0
381739.0 386549.0 0
387243.0 387178.0 0
392377.0 386869.0 0
397408.0 385930.0 0
401612.0 387292.0 0
406390.0 387370.0 0
411498.0 387077.0 0
416538.0 387575.0 0
421113.0 386263.0 0
425603.0 387580.0 0
431599.0 387048.0 0
437233.0 387809.0 0
442817.0 388379.0 0
448566.0 387096.0 0
453941.0 386958.0 0
459496.0 387468.0 0
463499.0 386970.0 0
468059.0 386811.0 0
472533.0 387253.0 0
479188.0 387136.0 0
483449.0 386780.0 0
487674.0 387531.0 0
491855.0 386476.0 0
496686.0 386212.0 0
2368.82 391886.0 0
6794.33 392452.0 0
12163.2 392879.0 0
17325.0 391861.0 0
22207.9 391394.0 0
26981.6 393537.0 0
31542.2 391850.0 0
36544.1 392369.0 0
42026.8 392074.0 0
47499.6 391968.0 0
52627.7 392260.0 0
57636.3 392349.0 0
62415.8 391248.0 0
66597.4 391676.0 0
70644.4 393911.0 0
75757.5 391757.0 0
80827.9 392964.0 0
87064.0 391692.0 0
94566.9 391284.0 0
99754.0 391984.0 0
103978.0 392159.0 0
108417.0 390539.0 0
113416.0 393168.0 0
117896.0 391664.0 0
122725.0 391063.0 0
127602.0 392085.0 0
131879.0 391858.0 0
136145.0 392039.0 0
143033.0 394319.0 0
148756.0 391940.0 0
154091.0 390799.0 0
158478.0 392340.0 0
162500.0 392479.0 0
166622.0 394089.0 0
171668.0 392238.0 0
176441.0 392134.0 0
181239.0 391767.0 0
185352.0 390065.0 0
184911.0 393867.0 0
190331.0 392690.0 0
196960.0 391511.0 0
202191.0 389649.0 0
201473.0 394573.0 0
206322.0 393446.0 0
211348.0 391405.0 0
217415.0 393317.0 0
222573.0 392376.0 0
227426.0 393027.0 0
231956.0 391068.0 0
236642.0 392041.0 0
241375.0 391835.0 0
247060.0 392921.0 0
252612.0 392325.0 0
258018.0 390162.0 0
262244.0 392356.0 0
266824.0 393410.0 0
273343.0 393241.0 0
278715.0 390592.0 0
282086.0 392504.0 0
286600.0 392909.0 0
292515.0 391765.0 0
298205.0 393536.0 0
303007.0 390722.0 0
307832.0 391702.0 0
313082.0 392510.0 0
318689.0 391795.0 0
322293.0 394616.0 0
326218.0 391941.0 0
331185.0 389962.0 0
336847.0 394023.0 0
342724.0 391246.0 0
347682.0 393285.0 0
352160.0 391595.0 0
358852.0 391703.0 0
363769.0 392017.0 0
368132.0 391768.0 0
372732.0 391279.0 0
377380.0 394121.0 0
378041.0 389574.0 0
382918.0 390231.0 0
386624.0 391955.0 0
390882.0 391654.0 0
397276.0 391311.0 0
403316.0 392186.0 0
408363.0 391746.0 0
412755.0 392131.0 0
416932.0 392097.0 0
421653.0 391325.0 0
428545.0 392116.0 0
434244.0 391979.0 0
439397.0 393022.0 0
444097.0 393081.0 0
447478.0 392224.0 0
451706.0 391529.0 0
456588.0 390933.0 0
461618.0 392273.0 0
466765.0 391281.0 0
471038.0 391997.0 0
476230.0 391565.0 0
483904.0 391904.0 0
489065.0 391490.0 0
493298.0 390647.0 0
497784.0 390899.0 0
2459.68 396722.0 0
7867.14 397342.0 0
13647.3 398042.0 0
17139.5 395878.0 0
23405.3 396619.0 0
28371.2 397988.0 0
33294.7 396827.0 0
38333.3 397105.0 0
42707.5 397227.0 0
47176.0 397076.0 0
52247.5 397715.0 0
57128.5 396855.0 0
62857.2 395803.0 0
66700.7 397191.0 0
73754.5 397551.0 0
77500.0 397299.0 0
82797.7 397518.0 0
87178.4 397541.0 0
91522.8 395825.0 0
96928.0 396748.0 0
102586.0 396104.0 0
108491.0 396118.0 0
113406.0 398921.0 0
117275.0 396139.0 0
122649.0 396737.0 0
128263.0 396933.0 0
133583.0 396574.0 0
138685.0 396346.0 0
142423.0 399307.0 0
147195.0 396943.0 0
152903.0 396599.0 0
158697.0 397119.0 0
163507.0 397911.0 0
167174.0 397924.0 0
171048.0 396935.0 0
176304.0 397114.0 0
181722.0 397309.0 0
186908.0 397496.0 0
191752.0 398951.0 0
196894.0 397342.0 0
201277.0 398894.0 0
205573.0 398400.0 0
210634.0 397041.0 0
215585.0 398163.0 0
220155.0 397727.0 0
225239.0 396863.0 0
231120.0 397106.0 0
237287.0 396812.0 0
242490.0 399030.0 0
248232.0 398704.0 0
253852.0 397548.0 0
258460.0 395180.0 0
259014.0 399538.0 0
263220.0 397439.0 0
268719.0 398417.0 0
273793.0 398576.0 0
278955.0 396300.0 0
284602.0 398223.0 0
288974.0 397134.0 0
293028.0 396966.0 0
296946.0 398312.0 0
303211.0 396975.0 0
308836.0 396514.0 0
313651.0 397877.0 0
318500.0 396839.0 0
322077.0 397819.0 0
326331.0 397753.0 0
331523.0 395250.0 0
335532.0 397150.0 0
339808.0 397814.0 0
345066.0 396908.0 0
350645.0 397158.0 0
356686.0 396807.0 0
361584.0 395873.0 0
366725.0 397066.0 0
372982.0 396961.0 0
377875.0 398368.0 0
382606.0 395552.0 0
388393.0 396709.0 0
393549.0 395737.0 0
398860.0 397082.0 0
404136.0 397663.0 0
409080.0 396452.0 0
414057.0 397365.0 0
418917.0 396124.0 0
423516.0 395961.0 0
427695.0 397281.0 0
432822.0 397104.0 0
436324.0 395694.0 0
443066.0 397119.0 0
446967.0 395988.0 0
451887.0 397153.0 0
457371.0 395777.0 0
462236.0 398522.0 0
467501.0 396316.0 0
471904.0 395605.0 0
475839.0 397412.0 0
480599.0 396136.0 0
485721.0 397630.0 0
491884.0 395487.0 0
497357.0 395721.0 0
2884.97 402152.0 0
8382.41 402886.0 0
13766.8 403156.0 0
19386.6 400755.0 0
24953.6 401052.0 0
29221.4 402642.0 0
34437.9 401957.0 0
39446.6 401814.0 0
43224.5 402382.0 0
47054.6 402075.0 0
51656.0 402915.0 0
56176.9 402175.0 0
60974.0 400419.0 0
66531.3 402035.0 0
72697.2 402655.0 0
78145.5 402242.0 0
81699.8 401260.0 0
86038.6 402392.0 0
91595.6 401116.0 0
97500.1 402252.0 0
102989.0 401734.0 0
109015.0 402423.0 0
113915.0 403051.0 0
116938.0 401661.0 0
121311.0 401909.0 0
126581.0 402133.0 0
132442.0 403113.0 0
136777.0 400353.0 0
139994.0 403897.0 0
147058.0 402417.0 0
153675.0 403093.0 0
159261.0 402048.0 0
163834.0 402451.0 0
168135.0 401272.0 0
173019.0 401826.0 0
177929.0 402051.0 0
182057.0 401985.0 0
187057.0 402658.0 0
192957.0 404091.0 0
197453.0 402443.0 0
203422.0 402692.0 0
207635.0 402168.0 0
212770.0 401936.0 0
217550.0 402033.0 0
222021.0 402185.0 0
227226.0 402214.0 0
233268.0 402570.0 0
238346.0 401998.0 0
241821.0 403775.0 0
245363.0 402928.0 0
251420.0 403372.0 0
255879.0 401916.0 0
262217.0 401948.0 0
267078.0 403514.0 0
271576.0 402400.0 0
277122.0 402248.0 0
282443.0 402319.0 0
288531.0 401367.0 0
293674.0 401886.0 0
298575.0 402037.0 0
303459.0 402896.0 0
307476.0 400653.0 0
311517.0 402853.0 0
317124.0 401880.0 0
322265.0 401453.0 0
326809.0 403270.0 0
332828.0 401602.0 0
338256.0 402223.0 0
342601.0 402717.0 0
347411.0 401416.0 0
352146.0 401934.0 0
357040.0 402745.0 0
362086.0 400741.0 0
366593.0 402457.0 0
371172.0 402217.0 0
376584.0 402945.0 0
381640.0 401508.0 0
386723.0 401423.0 0
391992.0 401027.0 0
398008.0 403035.0 0
402114.0 401041.0 0
405991.0 402719.0 0
410969.0 401213.0 0
415900.0 402140.0 0
421553.0 401228.0 0
427382.0 402518.0 0
433071.0 403828.0 0
438160.0 400015.0 0
443393.0 403425.0 0
447341.0 399967.0 0
451340.0 402700.0 0
456995.0 401836.0 0
461551.0 404201.0 0
466280.0 402951.0 0
471228.0 400227.0 0
476388.0 403406.0 0
481402.0 400696.0 0
485261.0 403830.0 0
490581.0 401349.0 0
496902.0 401501.0 0
2507.74 407454.0 0
7669.04 407183.0 0
11735.3 407931.0 0
18106.2 406814.0 0
23029.9 405129.0 0
28044.3 407208.0 0
32081.4 405768.0 0
37941.6 405841.0 0
42509.3 406755.0 0
47143.0 407314.0 0
50971.2 407816.0 0
56096.5 407003.0 0
62423.6 406846.0 0
68295.8 406742.0 0
72183.5 407880.0 0
76418.6 407356.0 0
81493.3 405777.0 0
86562.3 407845.0 0
93848.4 406248.0 0
99320.4 407321.0 0
104386.0 406739.0 0
109093.0 408195.0 0
113736.0 406984.0 0
118245.0 405609.0 0
123180.0 406258.0 0
127789.0 407605.0 0
132183.0 407891.0 0
136197.0 407145.0 0
143905.0 406457.0 0
148026.0 407656.0 0
152701.0 408796.0 0
157839.0 407480.0 0
162713.0 406681.0 0
168101.0 406653.0 0
173243.0 406327.0 0
177706.0 407043.0 0
182944.0 406402.0 0
188217.0 408217.0 0
192717.0 408489.0 0
196126.0 407290.0 0
200731.0 407073.0 0
206146.0 407019.0 0
212121.0 407630.0 0
217631.0 406578.0 0
222163.0 407531.0 0
226710.0 407419.0 0
231442.0 407446.0 0
236757.0 406972.0 0
241737.0 407481.0 0
247483.0 408210.0 0
253518.0 407973.0 0
257916.0 405931.0 0
262800.0 406213.0 0
267345.0 408813.0 0
272829.0 406831.0 0
280092.0 406714.0 0
284295.0 406922.0 0
288199.0 406243.0 0
292714.0 406620.0 0
297223.0 406471.0 0
301760.0 407587.0 0
307500.0 407108.0 0
313560.0 407676.0 0
318477.0 407014.0 0
322815.0 405731.0 0
326589.0 408652.0 0
331945.0 407844.0 0
336425.0 406557.0 0
340561.0 407081.0 0
346693.0 407298.0 0
352913.0 406531.0 0
357774.0 407890.0 0
363182.0 406470.0 0
369123.0 407164.0 0
373488.0 405934.0 0
376687.0 407622.0 0
381988.0 407626.0 0
388450.0 406124.0 0
393387.0 405989.0 0
397702.0 408288.0 0
403021.0 408017.0 0
408671.0 407497.0 0
412743.0 405622.0 0
417111.0 407004.0 0
422357.0 407411.0 0
427697.0 407879.0 0
432352.0 409408.0 0
437518.0 407831.0 0
442933.0 409018.0 0
448069.0 406968.0 0
453571.0 407000.0 0
458432.0 407703.0 0
463691.0 408132.0 0
468274.0 407564.0 0
472680.0 407766.0 0
477234.0 409151.0 0
481116.0 406559.0 0
485001.0 408749.0 0
489488.0 407022.0 0
497183.0 407591.0 0
2336.3 412267.0 0
7312.69 411421.0 0
12137.2 412682.0 0
17308.3 412319.0 0
23460.6 410956.0 0
28857.9 412041.0 0
32384.1 409855.0 0
34527.7 414308.0 0
36902.0 409899.0 0
41959.4 412070.0 0
47868.3 411954.0 0
52598.5 412018.0 0
57380.8 412395.0 0
62873.5 413146.0 0
67849.8 411491.0 0
72850.8 412192.0 0
77662.5 412177.0 0
81904.2 410821.0 0
86011.3 412921.0 0
91116.5 411255.0 0
97079.8 412634.0 0
102093.0 411455.0 0
106579.0 412494.0 0
111636.0 412847.0 0
117038.0 411063.0 0
124045.0 412132.0 0
129447.0 412744.0 0
132813.0 411562.0 0
137318.0 412169.0 0
142702.0 410972.0 0
148474.0 413078.0 0
153560.0 412770.0 0
157304.0 412683.0 0
161719.0 411255.0 0
166480.0 412932.0 0
172542.0 411790.0 0
178852.0 412258.0 0
184031.0 411482.0 0
188216.0 412946.0 0
192320.0 412418.0 0
197108.0 412022.0 0
202679.0 412225.0 0
208136.0 411792.0 0
213095.0 413634.0 0
218319.0 411764.0 0
222634.0 412348.0 0
226809.0 412301.0 0
232153.0 412645.0 0
237520.0 412367.0 0
242661.0 412075.0 0
247331.0 414496.0 0
252380.0 412878.0 0
257752.0 411363.0 0
262819.0 410869.0 0
266183.0 414555.0 0
271878.0 412531.0 0
276390.0 409850.0 0
280277.0 412345.0 0
285790.0 411331.0 0
292268.0 412082.0 0
298635.0 411771.0 0
304089.0 411559.0 0
308847.0 412972.0 0
312976.0 411798.0 0
317911.0 412744.0 0
322063.0 409632.0 0
324755.0 413418.0 0
329980.0 412942.0 0
335932.0 412201.0 0
342190.0 412180.0 0
347382.0 412989.0 0
351932.0 411711.0 0
357090.0 412922.0 0
363222.0 413214.0 0
369111.0 412507.0 0
373326.0 410054.0 0
377777.0 411770.0 0
382130.0 414172.0 0
387107.0 411708.0 0
393408.0 411558.0 0
399398.0 413252.0 0
404339.0 413188.0 0
408734.0 412416.0 0
413345.0 410339.0 0
418328.0 411860.0 0
423454.0 412901.0 0
428713.0 412878.0 0
433525.0 414064.0 0
438101.0 413261.0 0
442330.0 413556.0 0
446746.0 411930.0 0
451380.0 411189.0 0
455948.0 412430.0 0
460824.0 412491.0 0
465365.0 412385.0 0
470011.0 412063.0 0
475300.0 414144.0 0
481559.0 413157.0 0
487560.0 412867.0 0
492844.0 411276.0 0
497710.0 413119.0 0
2024.76 416831.0 0
6073.18 415885.0 0
10297.9 417022.0 0
15083.6 417037.0 0
21185.4 416992.0 0
26842.8 416323.0 0
31637.1 418841.0 0
38423.3 417472.0 0
42757.9 417258.0 0
47331.0 417375.0 0
52492.0 416739.0 0
56399.2 417363.0 0
60183.0 417645.0 0
65255.0 417946.0 0
70069.1 416436.0 0
75632.3 417213.0 0
81813.7 416402.0 0
87335.2 418270.0 0
92953.1 416932.0 0
98214.8 417652.0 0
103029.0 416350.0 0
108384.0 417070.0 0
113892.0 417961.0 0
119336.0 416317.0 0
124532.0 418559.0 0
129485.0 416901.0 0
133866.0 416792.0 0
137746.0 416785.0 0
141988.0 416059.0 0
147286.0 418787.0 0
152886.0 416769.0 0
157500.0 417127.0 0
162484.0 416447.0 0
168166.0 417055.0 0
173794.0 417037.0 0
177725.0 416973.0 0
182636.0 416609.0 0
187422.0 416898.0 0
192536.0 416884.0 0
197387.0 416261.0 0
202923.0 417825.0 0
207755.0 416435.0 0
211692.0 418334.0 0
216519.0 417953.0 0
221460.0 416299.0 0
226196.0 417160.0 0
231058.0 417867.0 0
237099.0 418269.0 0
242783.0 417089.0 0
247189.0 418826.0 0
251224.0 417550.0 0
255945.0 416622.0 0
262295.0 417158.0 0
265906.0 419398.0 0
270393.0 418173.0 0
276685.0 417349.0 0
282402.0 416468.0 0
287478.0 417119.0 0
293027.0 418146.0 0
297861.0 419058.0 0
302085.0 416316.0 0
307562.0 418357.0 0
313016.0 416396.0 0
318870.0 419413.0 0
324371.0 417940.0 0
328114.0 416915.0 0
331204.0 416728.0 0
334581.0 417392.0 0
339677.0 417257.0 0
345392.0 417873.0 0
352229.0 417931.0 0
358839.0 418362.0 0
364587.0 419600.0 0
369034.0 417316.0 0
373838.0 415512.0 0
378873.0 418275.0 0
384110.0 418250.0 0
389151.0 417589.0 0
395237.0 417504.0 0
399615.0 419319.0 0
402763.0 417043.0 0
407859.0 417866.0 0
413757.0 416074.0 0
419697.0 416785.0 0
424466.0 417766.0 0
429216.0 417906.0 0
433319.0 417984.0 0
437314.0 417750.0 0
440717.0 417657.0 0
445791.0 416706.0 0
452418.0 417018.0 0
458043.0 416453.0 0
462130.0 417553.0 0
466511.0 416667.0 0
470919.0 416688.0 0
474386.0 419598.0 0
479519.0 418409.0 0
485696.0 418291.0 0
491530.0 416784.0 0
497061.0 418158.0 0
1761.74 420717.0 0
6697.89 421135.0 0
12431.8 421473.0 0
17878.8 421614.0 0
23174.7 422789.0 0
27750.7 421781.0 0
33708.3 424311.0 0
37759.4 422430.0 0
42551.5 421534.0 0
47500.0 422696.0 0
50510.6 420719.0 0
52587.4 424793.0 0
57275.5 421958.0 0
62504.2 422669.0 0
67312.9 422347.0 0
72476.7 422395.0 0
78026.9 422497.0 0
83435.2 421971.0 0
88105.0 423497.0 0
93241.1 422765.0 0
98421.1 422114.0 0
103937.0 421514.0 0
110005.0 421886.0 0
114451.0 422903.0 0
118956.0 421693.0 0
123054.0 422708.0 0
127540.0 421785.0 0
131882.0 421455.0 0
137029.0 420894.0 0
142315.0 421513.0 0
147129.0 423783.0 0
152560.0 422597.0 0
157904.0 422169.0 0
162304.0 421638.0 0
167506.0 421742.0 0
172662.0 421110.0 0
178059.0 422250.0 0
183817.0 421974.0 0
188130.0 420539.0 0
192542.0 422338.0 0
198112.0 420877.0 0
202968.0 423925.0 0
207315.0 421056.0 0
211932.0 423052.0 0
217197.0 423305.0 0
222223.0 421484.0 0
227678.0 422101.0 0
233096.0 422717.0 0
238427.0 424415.0 0
244158.0 422498.0 0
249639.0 421844.0 0
253569.0 423951.0 0
258650.0 421780.0 0
263865.0 422851.0 0
268238.0 422839.0 0
273008.0 422625.0 0
278284.0 423631.0 0
283502.0 421332.0 0
288945.0 422541.0 0
294090.0 423248.0 0
298387.0 423817.0 0
302810.0 421924.0 0
307565.0 423356.0 0
312774.0 422485.0 0
317155.0 423833.0 0
320357.0 424780.0 0
324514.0 422724.0 0
330633.0 421617.0 0
336816.0 421464.0 0
342324.0 423641.0 0
348347.0 422742.0 0
352616.0 424431.0 0
356450.0 422872.0 0
360927.0 423361.0 0
367293.0 424137.0 0
371884.0 421537.0 0
377092.0 423305.0 0
382242.0 422469.0 0
388030.0 423984.0 0
394805.0 423813.0 0
399708.0 424916.0 0
403529.0 422170.0 0
408317.0 423886.0 0
412123.0 421421.0 0
416754.0 420546.0 0
421459.0 421654.0 0
426762.0 422580.0 0
432238.0 422139.0 0
437514.0 421854.0 0
442080.0 421890.0 0
447107.0 422217.0 0
452591.0 422914.0 0
458289.0 421908.0 0
463528.0 422420.0 0
468106.0 421502.0 0
472222.0 423487.0 0
477865.0 422427.0 0
482018.0 422124.0 0
486135.0 423884.0 0
491537.0 422795.0 0
497389.0 423499.0 0
2513.78 425151.0 0
7378.34 427784.0 0
12377.9 426428.0 0
17840.3 427671.0 0
23855.0 427779.0 0
28406.1 426196.0 0
37680.5 427713.0 0
42250.1 426557.0 0
47726.0 427448.0 0
56806.3 427479.0 0
61569.3 427690.0 0
67019.7 427518.0 0
72349.1 427752.0 0
76798.2 427628.0 0
81070.1 426504.0 0
85450.9 427445.0 0
90742.8 428386.0 0
96502.8 427158.0 0
101358.0 425842.0 0
106695.0 426124.0 0
111869.0 426462.0 0
116356.0 429820.0 0
121250.0 426471.0 0
126478.0 425865.0 0
131989.0 427481.0 0
138328.0 426529.0 0
143718.0 426445.0 0
147831.0 428759.0 0
152508.0 428153.0 0
156746.0 426522.0 0
162026.0 427137.0 0
167679.0 427328.0 0
173505.0 426656.0 0
178494.0 429737.0 0
183653.0 427558.0 0
188313.0 425271.0 0
192593.0 428055.0 0
198659.0 428213.0 0
203531.0 428485.0 0
207938.0 427008.0 0
214299.0 427791.0 0
218583.0 427384.0 0
222500.0 427119.0 0
227595.0 427298.0 0
233491.0 427920.0 0
238659.0 429374.0 0
242876.0 427898.0 0
248287.0 426681.0 0
252537.0 427717.0 0
256675.0 427587.0 0
261531.0 426670.0 0
266092.0 426612.0 0
270524.0 426750.0 0
275354.0 428459.0 0
282289.0 427193.0 0
287799.0 428235.0 0
294301.0 428109.0 0
298463.0 427497.0 0
303045.0 427612.0 0
307799.0 427360.0 0
312027.0 428256.0 0
315817.0 427113.0 0
322210.0 429074.0 0
327790.0 427758.0 0
335004.0 426589.0 0
339321.0 427559.0 0
342760.0 429509.0 0
346672.0 427101.0 0
350630.0 427871.0 0
357870.0 427767.0 0
363308.0 427504.0 0
367516.0 428405.0 0
373059.0 428004.0 0
379365.0 428455.0 0
383528.0 426753.0 0
386543.0 429245.0 0
391878.0 429797.0 0
397910.0 428164.0 0
402464.0 427948.0 0
407263.0 428152.0 0
412390.0 426883.0 0
417848.0 425545.0 0
422915.0 427602.0 0
427693.0 427300.0 0
432213.0 427397.0 0
437364.0 427161.0 0
443078.0 426919.0 0
448586.0 427394.0 0
455479.0 427075.0 0
459946.0 427988.0 0
463604.0 426425.0 0
468153.0 426727.0 0
474028.0 427086.0 0
479083.0 427049.0 0
483789.0 427280.0 0
487350.0 427668.0 0
491946.0 428894.0 0
497490.0 428770.0 0
2520.83 430376.0 0
2101.2 435009.0 0
6943.79 433581.0 0
10830.7 431103.0 0
14336.6 432018.0 0
21382.9 432773.0 0
27987.5 431161.0 0
33588.7 430325.0 0
38666.7 432058.0 0
43312.5 431321.0 0
47653.9 432698.0 0
52340.9 430116.0 0
57213.0 431981.0 0
62644.2 432367.0 0
67302.0 432869.0 0
71310.7 431826.0 0
75479.5 431942.0 0
81011.8 431989.0 0
86337.5 431772.0 0
92145.6 434551.0 0
97780.4 432461.0 0
103511.0 430965.0 0
109471.0 431241.0 0
113367.0 434244.0 0
118883.0 433841.0 0
121812.0 431427.0 0
126729.0 431197.0 0
131066.0 432421.0 0
135773.0 431912.0 0
142702.0 431788.0 0
148521.0 433977.0 0
154263.0 432147.0 0
158399.0 430580.0 0
164249.0 431409.0 0
168694.0 432801.0 0
173647.0 432021.0 0
177082.0 433931.0 0
182881.0 433352.0 0
188017.0 431106.0 0
192921.0 432844.0 0
197411.0 433187.0 0
202566.0 432620.0 0
207628.0 432447.0 0
212262.0 432197.0 0
217658.0 432191.0 0
222926.0 432124.0 0
227005.0 431366.0 0
231238.0 432639.0 0
236145.0 432801.0 0
241130.0 432741.0 0
246341.0 432188.0 0
252119.0 432003.0 0
257518.0 432577.0 0
262595.0 431597.0 0
268064.0 431305.0 0
273093.0 433377.0 0
278297.0 433027.0 0
282837.0 431747.0 0
286892.0 433630.0 0
292129.0 432934.0 0
297635.0 431912.0 0
302769.0 432846.0 0
307758.0 431886.0 0
312559.0 432578.0 0
317581.0 431765.0 0
322251.0 434218.0 0
327024.0 433545.0 0
332422.0 432156.0 0
338409.0 432386.0 0
344040.0 433241.0 0
347804.0 431691.0 0
352298.0 431317.0 0
356346.0 433044.0 0
362112.0 433096.0 0
368773.0 433572.0 0
374079.0 433479.0 0
377740.0 432693.0 0
382500.0 432277.0 0
387779.0 433025.0 0
391320.0 435323.0 0
396159.0 432371.0 0
400482.0 432610.0 0
405382.0 432407.0 0
410683.0 432590.0 0
416621.0 431217.0 0
422261.0 433272.0 0
426705.0 431195.0 0
431241.0 432588.0 0
436845.0 432975.0 0
441831.0 432071.0 0
446862.0 432384.0 0
452046.0 430844.0 0
456851.0 432665.0 0
461696.0 431902.0 0
466640.0 432475.0 0
471152.0 430461.0 0
476175.0 432363.0 0
481905.0 431844.0 0
487320.0 432283.0 0
494017.0 434133.0 0
498284.0 433089.0 0
8376.43 438453.0 0
11690.1 435529.0 0
12336.4 439740.0 0
16867.3 435857.0 0
21262.6 437715.0 0
25999.9 436400.0 0
32482.8 436592.0 0
38038.3 438842.0 0
41839.1 435904.0 0
46482.0 437371.0 0
52868.4 436617.0 0
59703.2 436506.0 0
64905.2 437013.0 0
69813.8 437227.0 0
73626.5 438426.0 0
76880.7 436518.0 0
82053.4 438010.0 0
87071.3 436247.0 0
92671.2 438947.0 0
97010.6 438290.0 0
103094.0 437089.0 0
108740.0 436569.0 0
112885.0 438237.0 0
116743.0 436667.0 0
121877.0 436018.0 0
126637.0 436324.0 0
133110.0 437134.0 0
138905.0 436392.0 0
144419.0 438063.0 0
149274.0 438780.0 0
153149.0 436796.0 0
157996.0 435115.0 0
163318.0 436004.0 0
167922.0 437653.0 0
173454.0 437682.0 0
179416.0 437484.0 0
183813.0 438204.0 0
187701.0 436197.0 0
192530.0 437362.0 0
196618.0 436932.0 0
200933.0 437864.0 0
206583.0 437586.0 0
212642.0 437623.0 0
218180.0 437448.0 0
222470.0 437775.0 0
226876.0 435903.0 0
232299.0 437731.0 0
237724.0 437728.0 0
242731.0 436704.0 0
247762.0 438181.0 0
252475.0 436560.0 0
256850.0 437695.0 0
261352.0 436150.0 0
266098.0 436437.0 0
270838.0 437338.0 0
275978.0 438060.0 0
282471.0 437463.0 0
288615.0 438716.0 0
294361.0 438418.0 0
299604.0 436783.0 0
304635.0 437360.0 0
308672.0 436186.0 0
312673.0 437481.0 0
317334.0 436787.0 0
321721.0 438679.0 0
325615.0 437681.0 0
330835.0 438339.0 0
336435.0 437306.0 0
341778.0 436918.0 0
346633.0 436206.0 0
351792.0 436346.0 0
358579.0 436681.0 0
362180.0 438468.0 0
366788.0 439165.0 0
372907.0 437252.0 0
377500.0 437184.0 0
381335.0 437224.0 0
386469.0 437886.0 0
394836.0 438617.0 0
399112.0 437047.0 0
403869.0 437372.0 0
407988.0 436244.0 0
411847.0 438349.0 0
417786.0 437385.0 0
423792.0 437687.0 0
427578.0 437115.0 0
432576.0 437692.0 0
437272.0 437154.0 0
441542.0 437292.0 0
446974.0 437697.0 0
452117.0 436143.0 0
457147.0 437684.0 0
462069.0 436816.0 0
466931.0 437464.0 0
472134.0 436943.0 0
478071.0 438434.0 0
482775.0 436510.0 0
487510.0 438153.0 0
493177.0 439407.0 0
497882.0 436962.0 0
3248.06 440350.0 0
9084.48 443653.0 0
17663.2 442401.0 0
23846.1 441205.0 0
28390.6 443910.0 0
34447.9 443017.0 0
38742.6 442284.0 0
43055.0 441344.0 0
48785.1 440989.0 0
52887.2 443743.0 0
57639.1 441354.0 0
62340.0 440986.0 0
66808.4 442768.0 0
72023.0 442362.0 0
77519.7 441645.0 0
82603.7 443810.0 0
86573.5 440821.0 0
91341.4 443136.0 0
96341.3 443259.0 0
101395.0 443093.0 0
107084.0 441620.0 0
112806.0 443529.0 0
117909.0 441121.0 0
123521.0 441253.0 0
129006.0 440784.0 0
132874.0 442190.0 0
137608.0 441884.0 0
143067.0 443817.0 0
147496.0 442144.0 0
152565.0 442510.0 0
157701.0 440216.0 0
162984.0 442435.0 0
169182.0 442589.0 0
174078.0 443114.0 0
178457.0 442447.0 0
183141.0 442258.0 0
187995.0 441415.0 0
192557.0 441708.0 0
197645.0 441986.0 0
202616.0 442324.0 0
208354.0 442264.0 0
212962.0 443420.0 0
217623.0 442040.0 0
222447.0 442329.0 0
227932.0 441592.0 0
233021.0 442298.0 0
237548.0 443122.0 0
241783.0 441008.0 0
245812.0 443276.0 0
250181.0 442728.0 0
255081.0 442910.0 0
261547.0 441922.0 0
268301.0 441734.0 0
273910.0 443299.0 0
279412.0 442907.0 0
283698.0 442349.0 0
287154.0 443500.0 0
291530.0 442871.0 0
296373.0 443461.0 0
301750.0 442003.0 0
308306.0 441844.0 0
313954.0 441924.0 0
318309.0 441148.0 0
317776.0 445523.0 0
322251.0 443063.0 0
326701.0 442015.0 0
331179.0 444021.0 0
335638.0 442161.0 0
340655.0 442284.0 0
347974.0 440885.0 0
353341.0 441831.0 0
358063.0 440617.0 0
361884.0 443146.0 0
357011.0 444810.0 0
366438.0 443929.0 0
371471.0 441731.0 0
377106.0 441956.0 0
382259.0 442150.0 0
386194.0 442693.0 0
391216.0 442843.0 0
397827.0 441545.0 0
402329.0 441961.0 0
407226.0 441490.0 0
413071.0 443778.0 0
418786.0 443485.0 0
422745.0 440971.0 0
427051.0 441897.0 0
431582.0 443160.0 0
436868.0 441906.0 0
441948.0 442692.0 0
446034.0 442475.0 0
451455.0 441943.0 0
458178.0 442789.0 0
462892.0 442235.0 0
466835.0 441773.0 0
471409.0 442425.0 0
475872.0 443025.0 0
482372.0 442387.0 0
487480.0 443777.0 0
492324.0 444276.0 0
497497.0 442330.0 0
3483.23 447331.0 0
8895.11 450515.0 0
13391.1 447490.0 0
18852.4 449338.0 0
23247.6 446044.0 0
27082.3 449157.0 0
32695.1 449070.0 0
39640.9 446027.0 0
43450.9 450280.0 0
47150.9 445696.0 0
50974.9 449862.0 0
56328.6 448558.0 0
62001.6 446460.0 0
67939.7 448310.0 0
73720.7 448177.0 0
78490.3 446696.0 0
82506.7 449510.0 0
87061.6 446874.0 0
92079.0 448746.0 0
97099.5 447716.0 0
101971.0 448510.0 0
107962.0 448277.0 0
113894.0 448634.0 0
117529.0 446475.0 0
122050.0 448680.0 0
127710.0 446332.0 0
134145.0 446939.0 0
139678.0 447839.0 0
144330.0 449703.0 0
148533.0 446701.0 0
153105.0 447598.0 0
158194.0 446718.0 0
164140.0 448612.0 0
168068.0 446795.0 0
172301.0 447717.0 0
178041.0 447725.0 0
183177.0 446867.0 0
188291.0 446846.0 0
194188.0 446496.0 0
199237.0 447293.0 0
202748.0 447592.0 0
206721.0 446557.0 0
212728.0 448199.0 0
217439.0 446991.0 0
222264.0 447096.0 0
227166.0 447192.0 0
232061.0 446606.0 0
236813.0 448239.0 0
241779.0 446268.0 0
246784.0 448355.0 0
251684.0 446807.0 0
256945.0 448821.0 0
263592.0 448595.0 0
268743.0 446900.0 0
273052.0 448413.0 0
277815.0 447760.0 0
283367.0 447000.0 0
287790.0 447275.0 0
292905.0 447362.0 0
296301.0 447706.0 0
300107.0 447636.0 0
306945.0 448302.0 0
312843.0 446943.0 0
321845.0 447548.0 0
326943.0 447230.0 0
332775.0 448936.0 0
337801.0 447127.0 0
342351.0 446849.0 0
347202.0 446242.0 0
352643.0 447284.0 0
358390.0 450224.0 0
363577.0 447535.0 0
368798.0 447220.0 0
373130.0 446675.0 0
377938.0 447400.0 0
382601.0 447447.0 0
387324.0 446665.0 0
391778.0 448570.0 0
396493.0 445850.0 0
402235.0 446862.0 0
408307.0 447432.0 0
413500.0 448470.0 0
418399.0 449481.0 0
423590.0 446955.0 0
427508.0 446838.0 0
432567.0 447269.0 0
437256.0 447718.0 0
442006.0 447085.0 0
447847.0 447302.0 0
453035.0 447092.0 0
457485.0 448177.0 0
462245.0 446931.0 0
467261.0 446109.0 0
472494.0 448265.0 0
478526.0 446972.0 0
484037.0 447891.0 0
488389.0 447830.0 0
494182.0 447964.0 0
497980.0 447041.0 0
3242.7 454362.0 0
8805.89 455587.0 0
14110.5 453508.0 0
19129.7 454234.0 0
23451.8 452834.0 0
28439.1 453786.0 0
33079.2 454553.0 0
37929.9 452032.0 0
42777.5 455889.0 0
47592.2 453222.0 0
52011.7 454897.0 0
57943.7 453083.0 0
61639.5 451732.0 0
65440.2 452608.0 0
72629.0 453105.0 0
77212.9 452261.0 0
81487.9 454589.0 0
86889.7 452009.0 0
91234.4 453366.0 0
95975.4 452787.0 0
101378.0 453583.0 0
106653.0 454292.0 0
112174.0 452581.0 0
117502.0 451062.0 0
121202.0 453574.0 0
126820.0 453039.0 0
132150.0 451707.0 0
137472.0 452705.0 0
142603.0 454527.0 0
148230.0 452866.0 0
153481.0 452325.0 0
159193.0 452794.0 0
164557.0 454223.0 0
168522.0 452064.0 0
172823.0 453007.0 0
177167.0 452451.0 0
181573.0 451541.0 0
186650.0 451881.0 0
192497.0 452820.0 0
197818.0 451169.0 0
202791.0 452056.0 0
208718.0 451630.0 0
213909.0 452455.0 0
218183.0 452118.0 0
222300.0 452179.0 0
226558.0 452045.0 0
232320.0 451988.0 0
238237.0 452439.0 0
242345.0 451383.0 0
247117.0 453367.0 0
252214.0 451806.0 0
257679.0 453686.0 0
261247.0 453339.0 0
268940.0 452004.0 0
273953.0 452854.0 0
278677.0 452479.0 0
283472.0 452234.0 0
287693.0 452180.0 0
291916.0 452020.0 0
296343.0 450936.0 0
296997.0 455298.0 0
301813.0 453205.0 0
306835.0 453743.0 0
311724.0 452733.0 0
317582.0 450885.0 0
323363.0 452349.0 0
328665.0 452290.0 0
332917.0 453469.0 0
337036.0 451975.0 0
341991.0 451474.0 0
347469.0 451902.0 0
352927.0 452620.0 0
362625.0 452967.0 0
367022.0 451713.0 0
372986.0 452211.0 0
378401.0 452208.0 0
382811.0 452727.0 0
387336.0 451740.0 0
391650.0 453256.0 0
395891.0 451497.0 0
401240.0 452343.0 0
406703.0 453334.0 0
411299.0 451824.0 0
414853.0 452386.0 0
423198.0 452644.0 0
428146.0 450746.0 0
433207.0 452179.0 0
438252.0 452023.0 0
442165.0 451405.0 0
446233.0 452164.0 0
451761.0 452464.0 0
456765.0 451951.0 0
460842.0 452149.0 0
465934.0 451092.0 0
470419.0 453517.0 0
475795.0 453855.0 0
480544.0 451557.0 0
484666.0 452863.0 0
490719.0 452779.0 0
497304.0 451901.0 0
1933.22 459490.0 0
6151.99 459324.0 0
12276.5 459036.0 0
17837.0 458941.0 0
22141.3 457067.0 0
26141.5 458009.0 0
32367.6 458857.0 0
37203.7 457841.0 0
41349.0 460464.0 0
47846.0 458048.0 0
52550.4 460148.0 0
56479.6 457107.0 0
62015.7 457427.0 0
68389.3 456806.0 0
73230.5 458065.0 0
77238.6 457207.0 0
83711.8 458656.0 0
88165.2 457007.0 0
93549.9 457562.0 0
98084.0 456924.0 0
102392.0 458438.0 0
106438.0 458678.0 0
110784.0 457524.0 0
116494.0 456179.0 0
121557.0 458376.0 0
126200.0 458763.0 0
133230.0 456568.0 0
137973.0 457714.0 0
142299.0 459385.0 0
146612.0 457535.0 0
151364.0 457019.0 0
156164.0 458349.0 0
161024.0 457730.0 0
165435.0 459231.0 0
170563.0 457765.0 0
176242.0 457163.0 0
182053.0 457067.0 0
188110.0 457318.0 0
193714.0 458794.0 0
198891.0 456244.0 0
202711.0 458650.0 0
205829.0 456187.0 0
212639.0 457082.0 0
217019.0 457252.0 0
221299.0 457064.0 0
226749.0 457206.0 0
231676.0 457075.0 0
236964.0 457283.0 0
243237.0 456843.0 0
248101.0 457324.0 0
252157.0 456363.0 0
256734.0 457644.0 0
261473.0 457611.0 0
266386.0 457067.0 0
271289.0 457176.0 0
276277.0 457111.0 0
282699.0 457024.0 0
287500.0 457132.0 0
292437.0 457000.0 0
297274.0 460181.0 0
302327.0 458760.0 0
308017.0 457315.0 0
311946.0 458104.0 0
316413.0 456398.0 0
321628.0 457562.0 0
325825.0 456772.0 0
330320.0 457492.0 0
335566.0 456779.0 0
341201.0 457090.0 0
347414.0 458018.0 0
353430.0 458047.0 0
359764.0 457017.0 0
365993.0 457510.0 0
370609.0 459067.0 0
373955.0 456960.0 0
378538.0 457504.0 0
383430.0 457068.0 0
388634.0 457228.0 0
392499.0 460774.0 0
393529.0 457155.0 0
397794.0 456244.0 0
402556.0 457582.0 0
407579.0 456888.0 0
411219.0 456655.0 0
417109.0 456465.0 0
422143.0 457325.0 0
427406.0 456916.0 0
432501.0 457217.0 0
436929.0 456745.0 0
442563.0 456147.0 0
447984.0 456558.0 0
452840.0 458321.0 0
457761.0 456062.0 0
462115.0 458254.0 0
466567.0 456408.0 0
472592.0 457629.0 0
476459.0 459141.0 0
480693.0 456889.0 0
486099.0 457748.0 0
492883.0 458693.0 0
497551.0 457475.0 0
3376.43 464066.0 0
8071.61 463094.0 0
12455.4 463998.0 0
17395.2 464426.0 0
20456.0 462580.0 0
23741.6 462393.0 0
29090.9 462746.0 0
37577.4 464055.0 0
43719.5 463843.0 0
47977.8 462418.0 0
51131.3 464426.0 0
57802.9 461812.0 0
62199.2 462600.0 0
66678.3 462508.0 0
71289.4 461544.0 0
76020.1 462001.0 0
81435.1 463158.0 0
87407.5 462593.0 0
92665.5 462443.0 0
97135.6 461098.0 0
101559.0 463012.0 0
106589.0 463021.0 0
112226.0 463088.0 0
118345.0 462731.0 0
123583.0 462481.0 0
130550.0 461698.0 0
135679.0 461140.0 0
139790.0 463441.0 0
143490.0 462697.0 0
147394.0 462537.0 0
152412.0 461734.0 0
157411.0 462912.0 0
162204.0 462922.0 0
167739.0 462901.0 0
172557.0 463257.0 0
177544.0 461829.0 0
182106.0 462322.0 0
187320.0 463108.0 0
192317.0 463653.0 0
198157.0 461843.0 0
202660.0 462398.0 0
208345.0 461790.0 0
213423.0 463810.0 0
216353.0 461459.0 0
220886.0 462110.0 0
226015.0 462755.0 0
231293.0 461780.0 0
236146.0 462785.0 0
240777.0 462992.0 0
246528.0 462362.0 0
253471.0 462692.0 0
259851.0 462467.0 0
264314.0 463170.0 0
268901.0 462157.0 0
273327.0 461876.0 0
278293.0 462287.0 0
283127.0 461588.0 0
287281.0 461609.0 0
287846.0 465665.0 0
291778.0 462431.0 0
296466.0 465748.0 0
301457.0 463469.0 0
306542.0 461073.0 0
310738.0 462402.0 0
316542.0 462570.0 0
322489.0 463129.0 0
326899.0 461531.0 0
331782.0 462921.0 0
337494.0 462220.0 0
342629.0 461912.0 0
346654.0 463687.0 0
351129.0 462475.0 0
357045.0 462908.0 0
363028.0 462469.0 0
367850.0 461888.0 0
374118.0 462248.0 0
378849.0 462235.0 0
383354.0 462028.0 0
388642.0 462639.0 0
397341.0 461759.0 0
402470.0 461222.0 0
401819.0 464501.0 0
407100.0 461402.0 0
413260.0 461742.0 0
418672.0 462170.0 0
423750.0 461458.0 0
428359.0 462710.0 0
433604.0 461899.0 0
438347.0 461024.0 0
437521.0 464565.0 0
442824.0 461888.0 0
448362.0 461858.0 0
453710.0 463617.0 0
457612.0 460882.0 0
461612.0 462746.0 0
467127.0 462164.0 0
472804.0 461944.0 0
477688.0 462592.0 0
482435.0 462283.0 0
488745.0 462409.0 0
493180.0 463032.0 0
497500.0 462115.0 0
2885.44 469724.0 0
8265.35 467867.0 0
14517.5 468300.0 0
20073.1 468444.0 0
24151.3 466681.0 0
27581.9 466996.0 0
31348.6 467722.0 0
35602.2 468947.0 0
42090.8 468187.0 0
47322.1 466842.0 0
51097.9 468499.0 0
55593.3 466964.0 0
61248.7 467116.0 0
66374.1 467650.0 0
72740.2 467453.0 0
78875.5 467953.0 0
82530.2 467385.0 0
85941.0 467418.0 0
91464.2 468006.0 0
97050.1 466063.0 0
102756.0 468634.0 0
108760.0 467831.0 0
113205.0 467823.0 0
116686.0 469939.0 0
121562.0 468152.0 0
127014.0 466303.0 0
133491.0 467491.0 0
139798.0 468819.0 0
144617.0 466738.0 0
149288.0 468087.0 0
154339.0 466605.0 0
159374.0 466880.0 0
163517.0 467386.0 0
167419.0 466841.0 0
171415.0 468241.0 0
176920.0 467515.0 0
183267.0 467515.0 0
188407.0 467873.0 0
192022.0 466705.0 0
197162.0 467624.0 0
203201.0 467127.0 0
209031.0 468831.0 0
213836.0 467249.0 0
217611.0 467115.0 0
222234.0 467288.0 0
227368.0 467778.0 0
232822.0 467277.0 0
238451.0 467521.0 0
242868.0 467216.0 0
248028.0 468128.0 0
252004.0 468197.0 0
256049.0 468302.0 0
261115.0 467633.0 0
266234.0 467209.0 0
272141.0 467510.0 0
277269.0 466887.0 0
282445.0 466908.0 0
291742.0 468471.0 0
300817.0 468263.0 0
306061.0 466727.0 0
312066.0 467037.0 0
317122.0 469102.0 0
322223.0 467899.0 0
327694.0 467007.0 0
332856.0 467560.0 0
337271.0 467618.0 0
342045.0 466273.0 0
347019.0 468676.0 0
351879.0 467114.0 0
357516.0 469090.0 0
362675.0 467582.0 0
367296.0 466352.0 0
371919.0 466513.0 0
376484.0 466970.0 0
381544.0 467352.0 0
387113.0 467918.0 0
393491.0 466955.0 0
399045.0 467951.0 0
405697.0 468371.0 0
411647.0 466991.0 0
417296.0 467658.0 0
423427.0 467140.0 0
429752.0 468063.0 0
435271.0 468008.0 0
441176.0 466901.0 0
446753.0 467523.0 0
452036.0 468188.0 0
458186.0 466946.0 0
463874.0 467107.0 0
469022.0 467610.0 0
473748.0 466620.0 0
478500.0 467305.0 0
482985.0 466955.0 0
487627.0 467404.0 0
492500.0 467108.0 0
497350.0 467065.0 0
1311.21 473552.0 0
7314.09 472526.0 0
11463.6 471678.0 0
17168.6 472410.0 0
21850.0 472359.0 0
26441.7 471383.0 0
31956.0 472516.0 0
37442.2 473763.0 0
42265.4 472447.0 0
46395.0 471578.0 0
52349.0 473045.0 0
58076.8 472299.0 0
63326.3 471891.0 0
67895.5 472058.0 0
71750.1 473707.0 0
76757.5 472828.0 0
81943.5 471684.0 0
86974.4 472007.0 0
91728.5 474057.0 0
97393.9 472561.0 0
102479.0 473940.0 0
107003.0 472840.0 0
112212.0 472200.0 0
117907.0 474729.0 0
122731.0 473324.0 0
128474.0 472430.0 0
134941.0 474229.0 0
139378.0 472972.0 0
143960.0 471956.0 0
148209.0 472352.0 0
152952.0 472090.0 0
157931.0 471115.0 0
162437.0 472112.0 0
167714.0 471896.0 0
173269.0 471536.0 0
172977.0 476003.0 0
177148.0 472979.0 0
181504.0 472493.0 0
186385.0 472488.0 0
192078.0 471393.0 0
197590.0 473249.0 0
201899.0 471898.0 0
206303.0 474408.0 0
214197.0 471724.0 0
218591.0 472367.0 0
222500.0 472451.0 0
226907.0 473441.0 0
232494.0 472407.0 0
237258.0 472677.0 0
242613.0 472017.0 0
247447.0 472982.0 0
252500.0 472455.0 0
256747.0 472976.0 0
261582.0 472835.0 0
267261.0 472788.0 0
272789.0 473332.0 0
277710.0 471457.0 0
282167.0 474273.0 0
286747.0 471261.0 0
291527.0 473577.0 0
296929.0 471875.0 0
302788.0 472650.0 0
307751.0 472162.0 0
312491.0 472137.0 0
316603.0 473956.0 0
321074.0 472769.0 0
326541.0 472887.0 0
331855.0 472026.0 0
337576.0 473228.0 0
342991.0 471244.0 0
347565.0 473693.0 0
352850.0 472638.0 0
358070.0 474526.0 0
362131.0 472000.0 0
366338.0 471127.0 0
368568.0 475331.0 0
372479.0 471420.0 0
377249.0 471391.0 0
381231.0 472056.0 0
378249.0 475857.0 0
385777.0 473465.0 0
391487.0 473137.0 0
397024.0 472321.0 0
401938.0 472678.0 0
407744.0 474067.0 0
412984.0 471926.0 0
417931.0 473368.0 0
422599.0 472302.0 0
426855.0 472824.0 0
432951.0 472012.0 0
430573.0 475341.0 0
437682.0 472630.0 0
443068.0 471799.0 0
448179.0 472973.0 0
452369.0 472124.0 0
456537.0 472242.0 0
461810.0 472113.0 0
464396.0 476131.0 0
467502.0 472575.0 0
472374.0 471149.0 0
474212.0 475848.0 0
477222.0 472063.0 0
482186.0 471721.0 0
488489.0 472779.0 0
492956.0 472090.0 0
492460.0 476014.0 0
497500.0 472098.0 0
2730.54 477358.0 0
7912.5 477727.0 0
12897.1 476434.0 0
17516.8 476902.0 0
21973.2 476933.0 0
27463.2 477566.0 0
33102.5 477594.0 0
37679.7 479480.0 0
42154.4 477232.0 0
47599.0 476535.0 0
52130.6 478278.0 0
56932.3 477875.0 0
62076.3 476864.0 0
67537.1 477036.0 0
72928.2 478568.0 0
78053.6 478087.0 0
83920.1 477261.0 0
89427.4 478267.0 0
94056.1 478631.0 0
98757.7 477990.0 0
103864.0 478535.0 0
108553.0 477149.0 0
112532.0 476889.0 0
115883.0 478651.0 0
121662.0 478001.0 0
127786.0 479755.0 0
134850.0 479429.0 0
138521.0 477972.0 0
142995.0 476939.0 0
146773.0 478872.0 0
150881.0 477397.0 0
157070.0 476780.0 0
162819.0 476869.0 0
167731.0 477856.0 0
178006.0 477611.0 0
183211.0 477220.0 0
188069.0 477286.0 0
192518.0 476899.0 0
197328.0 477891.0 0
202500.0 477328.0 0
207962.0 479076.0 0
212641.0 477148.0 0
217500.0 477284.0 0
222500.0 477153.0 0
228067.0 478751.0 0
232681.0 477120.0 0
237764.0 477583.0 0
242671.0 476553.0 0
241664.0 481189.0 0
247436.0 477377.0 0
252046.0 476831.0 0
256415.0 477194.0 0
260816.0 477825.0 0
265593.0 477993.0 0
270858.0 478378.0 0
277091.0 477511.0 0
282129.0 478674.0 0
286788.0 477501.0 0
292428.0 478733.0 0
298539.0 478263.0 0
303980.0 477351.0 0
308204.0 476591.0 0
312961.0 477777.0 0
318614.0 478556.0 0
323431.0 476875.0 0
327930.0 478134.0 0
333192.0 477464.0 0
337954.0 478787.0 0
342811.0 476890.0 0
347070.0 480274.0 0
351227.0 477664.0 0
356628.0 479802.0 0
362900.0 477599.0 0
373238.0 479018.0 0
382993.0 477728.0 0
388392.0 478432.0 0
393394.0 478582.0 0
397950.0 477466.0 0
403280.0 477561.0 0
407841.0 479309.0 0
412497.0 477125.0 0
417531.0 478519.0 0
422148.0 476835.0 0
427026.0 478293.0 0
435144.0 478112.0 0
441306.0 477207.0 0
446669.0 479770.0 0
452553.0 477236.0 0
459301.0 477638.0 0
469015.0 478102.0 0
479208.0 476881.0 0
483777.0 476385.0 0
484000.0 480517.0 0
488054.0 478014.0 0
497500.0 477071.0 0
2107.49 482385.0 0
6174.15 482592.0 0
11423.5 481554.0 0
17255.3 482153.0 0
23224.6 482047.0 0
28176.9 482997.0 0
33325.3 482973.0 0
38136.6 483942.0 0
42449.8 482369.0 0
47136.7 481687.0 0
51954.8 482986.0 0
57403.7 483423.0 0
62722.7 482080.0 0
67387.5 482083.0 0
71555.9 483503.0 0
76294.8 482673.0 0
82006.4 483937.0 0
87249.3 481976.0 0
91843.1 483281.0 0
97217.5 482806.0 0
102636.0 484119.0 0
108074.0 482403.0 0
113426.0 482454.0 0
118712.0 482254.0 0
123417.0 484464.0 0
127645.0 485746.0 0
133131.0 483573.0 0
138229.0 482488.0 0
143151.0 481955.0 0
146857.0 482563.0 0
151235.0 483206.0 0
157170.0 483126.0 0
162700.0 481944.0 0
167664.0 482854.0 0
173356.0 482289.0 0
177956.0 482826.0 0
181784.0 482514.0 0
187123.0 482061.0 0
193342.0 482788.0 0
198719.0 481905.0 0
202910.0 482087.0 0
207322.0 483451.0 0
212276.0 482550.0 0
217524.0 482053.0 0
222442.0 482176.0 0
226553.0 483254.0 0
231489.0 481973.0 0
236436.0 482279.0 0
247444.0 482524.0 0
253643.0 482213.0 0
258937.0 482377.0 0
262974.0 482191.0 0
267617.0 482635.0 0
273424.0 482769.0 0
277858.0 483032.0 0
282399.0 482212.0 0
287214.0 482684.0 0
291348.0 483394.0 0
296384.0 484382.0 0
301978.0 482319.0 0
306383.0 481412.0 0
310740.0 482189.0 0
315262.0 483300.0 0
320297.0 483487.0 0
325801.0 483536.0 0
331440.0 482456.0 0
336194.0 482854.0 0
342060.0 483522.0 0
347318.0 485192.0 0
351548.0 483062.0 0
356394.0 485631.0 0
361564.0 483756.0 0
367606.0 482423.0 0
372674.0 485600.0 0
378624.0 483394.0 0
384702.0 482472.0 0
389495.0 483799.0 0
394407.0 482989.0 0
399742.0 482830.0 0
403801.0 482310.0 0
407288.0 484253.0 0
412920.0 482553.0 0
418057.0 483213.0 0
422660.0 481876.0 0
427540.0 483524.0 0
432133.0 482326.0 0
436430.0 483418.0 0
441458.0 483046.0 0
446098.0 484860.0 0
451475.0 483893.0 0
457300.0 483939.0 0
462009.0 482601.0 0
467202.0 484072.0 0
473484.0 482677.0 0
479629.0 482416.0 0
487373.0 484340.0 0
492966.0 481476.0 0
497919.0 483274.0 0
2251.21 486763.0 0
5654.17 488625.0 0
10568.8 487444.0 0
17061.8 488626.0 0
22252.7 486843.0 0
27172.2 488471.0 0
32822.1 488404.0 0
38226.5 488775.0 0
42699.4 488658.0 0
47831.6 487435.0 0
53798.0 487792.0 0
58827.4 489040.0 0
63960.6 487395.0 0
68799.1 487104.0 0
73164.2 488033.0 0
77777.8 487803.0 0
82469.8 489271.0 0
87356.7 487097.0 0
92478.3 488440.0 0
98192.2 488260.0 0
102932.0 488816.0 0
107435.0 487690.0 0
112500.0 487143.0 0
117485.0 487202.0 0
121861.0 488495.0 0
125820.0 489326.0 0
131576.0 489124.0 0
137360.0 487540.0 0
142939.0 487240.0 0
148036.0 487200.0 0
153102.0 488622.0 0
158349.0 488462.0 0
162922.0 487065.0 0
167387.0 487397.0 0
172150.0 488162.0 0
177546.0 487073.0 0
182577.0 487432.0 0
186919.0 487159.0 0
191228.0 488521.0 0
197627.0 487774.0 0
203342.0 486988.0 0
208126.0 488037.0 0
213152.0 487703.0 0
217967.0 487083.0 0
221970.0 487072.0 0
225774.0 487518.0 0
230749.0 487449.0 0
236523.0 487497.0 0
242358.0 487128.0 0
247931.0 488235.0 0
252223.0 487306.0 0
256693.0 487036.0 0
261562.0 487078.0 0
266946.0 488402.0 0
272562.0 487406.0 0
277976.0 488454.0 0
283292.0 486487.0 0
288673.0 487683.0 0
293533.0 488670.0 0
297368.0 490286.0 0
301310.0 487485.0 0
307698.0 487521.0 0
313683.0 488220.0 0
318755.0 488223.0 0
323326.0 488033.0 0
327555.0 489243.0 0
332209.0 487365.0 0
337543.0 488269.0 0
343012.0 489430.0 0
347425.0 489154.0 0
352021.0 488472.0 0
358780.0 489895.0 0
363283.0 488725.0 0
367499.0 488093.0 0
372566.0 490099.0 0
377271.0 488771.0 0
382411.0 487244.0 0
386615.0 488098.0 0
392208.0 488102.0 0
397405.0 487867.0 0
402336.0 487345.0 0
406582.0 489240.0 0
411605.0 487690.0 0
417319.0 488588.0 0
422779.0 487017.0 0
427614.0 488735.0 0
432692.0 487143.0 0
438191.0 488038.0 0
443377.0 488717.0 0
448198.0 488640.0 0
452867.0 489630.0 0
457518.0 488568.0 0
462338.0 487701.0 0
467051.0 489439.0 0
472245.0 488902.0 0
477773.0 487589.0 0
482859.0 487429.0 0
487750.0 489466.0 0
492470.0 487773.0 0
497472.0 487271.0 0
POINT_DATA 5000
SCALARS Radius float 1
LOOKUP_TABLE default
4796.58 3979.26 3471.03 5253.55 5820.48 5782.6 4862.21 5113.21 3929.19 4107.03 4478.15 5379.87 5925.6 4501.51 4792.73 4736.58 4931.38 3485.26 4329.05 4151.94 4049.23 5337.48 6124.89 5708.81 5252.48 4780.03 5495.39 3996.0 3856.1 4665.12 3383.4 4133.88 4834.9 3850.77 6044.04 5415.48 5120.0 3863.18 2356.98 4998.37 6182.6 5492.18 5258.36 5061.3 3642.12 3163.97 5812.43 5122.66 5906.14 7513.1 5580.89 6810.52 7613.27 5529.52 5255.32 5096.78 6756.95 6324.23 3843.58 5191.63 4216.92 4861.06 5320.28 6739.08 4797.52 4298.67 5960.66 7034.11 5681.38 6082.81 4929.8 4094.62 5546.39 5325.36 5484.83 5085.53 5351.6 4715.55 3951.75 5542.27 5484.19 5254.28 4688.68 4436.4 5733.48 4672.91 4182.53 5903.42 3588.44 5645.7 5176.86 4366.19 5840.26 3672.51 6110.27 5561.06 5073.35 3615.22 5670.04 4380.59 3589.27 6716.79 3997.1 3607.45 5759.91 3038.33 4951.03 7199.21 6037.08 4523.7 5091.39 4129.43 6142.94 4727.24 3320.52 4194.5 4270.53 5082.47 5344.25 5445.87 4593.7 4150.99 4704.72 4177.94 4742.68 4571.7 4344.58 5634.83 5495.84 6268.1 5374.51 7042.12 6326.39 4569.12 5873.69 6608.73 5011.84 6261.42 4502.5 3771.48 4043.57 5499.11 4271.69 4138.42 3708.04 5513.6 3240.09 4556.36 4901.41 3191.99 4685.34 4382.74 5601.05 4651.28 3586.91 3103.0 3554.9 5481.78 4015.92 5542.21 4487.31 3936.02 5043.05 4044.71 5980.74 5109.54 4927.02 5945.65 5538.89 4730.36 5416.38 5867.73 6059.59 5013.56 5701.86 4499.64 4375.68 4468.59 5054.98 6030.06 5170.02 3557.27 4927.31 4862.64 4402.52 4517.56 4432.58 6684.56 3968.64 3955.56 3761.32 4118.05 6166.5 5553.16 2938.66 4940.78 4231.61 4008.92 4003.05 3942.53 3379.84 4827.82 5227.21 5697.78 3260.67 5123.52 4091.31 4392.68 6372.62 4333.2 4295.38 2240.39 5923.5 4612.68 5293.9 3912.37 4973.83 4602.25 6691.39 4790.08 5135.69 4763.45 5344.0 6045.46 3815.26 5908.1 6048.7 5896.46 5022.8 3784.5 3780.23 4166.08 6481.79 5224.12 4819.73 4471.58 6098.14 4962.09 4472.17 3999.48 4203.26 4359.62 5188.81 6946.21 2586.12 6057.22 5433.8 4011.77 4527.08 3633.87 5922.5 5198.77 5987.17 6013.14 2765.2 5011.31 5138.31 5110.37 5664.98 5927.43 6355.42 4384.42 3693.63 4362.19 4516.43 5690.56 4948.92 5637.59 4937.14 3307.12 5816.2 4002.16 5693.81 4174.52 6483.19 3829.13 6759.9 5418.62 7021.47 5740.68 5926.61 2720.68 4955.55 3563.63 5836.15 4238.81 4345.55 5885.03 2837.58 3871.88 5325.02 5200.76 5017.13 5279.39 5185.34 3673.74 5205.43 7447.37 4688.67 2635.86 4385.06 5292.64 5065.13 5936.02 5305.17 4861.08 5399.73 5390.22 3888.21 4712.33 4805.87 6038.78 4667.36 4254.17 5090.24 5615.42 7565.34 5530.87 4281.49 6342.25 4187.56 4840.84 4020.32 4245.72 4156.38 5316.75 4541.21 6133.92 4164.68 3719.84 4178.4 3095.48 5762.59 4123.6 4850.14 5163.55 3382.7 3954.91 6817.32 4319.79 3637.61 6222.42 5654.31 4730.41 3745.84 5690.26 5062.71 4156.2 6125.34 5965.78 5347.48 4850.01 4810.12 3970.25 5643.58 5147.67 3979.82 4292.06 5577.04 5006.58 5264.06 4659.59 6327.9 4048.37 5492.26 5762.84 3115.91 3937.74 4493.48 6084.86 5924.89 4778.34 4138.16 6894.71 3486.22 4684.5 3091.3 6230.49 6458.82 4601.27 5493.32 3641.64 4277.89 6051.14 3261.21 4195.44 5539.32 6704.06 3653.41 6496.85 5600.93 3856.01 4874.39 5246.2 4390.66 5728.85 4827.23 4911.47 6116.18 4924.6 6257.19 4733.32 7184.19 2899.43 2812.98 2924.37 3867.67 4290.3 4695.45 4660.72 6052.7 3921.18 5891.05 5308.1 6902.81 6644.76 5655.21 5629.19 4786.6 5740.84 6445.94 4310.18 7134.64 5978.9 4716.19 3629.62 4997.27 5514.76 4301.06 3456.98 4877.67 4290.14 3066.13 6562.18 6006.16 7055.53 5669.65 5934.22 5624.49 4970.88 7092.87 4666.81 3703.1 6471.55 2965.01 5499.39 6643.85 5501.93 4938.74 5607.14 4497.59 4374.35 6396.74 5215.05 3821.72 4986.77 4602.86 5586.81 3688.8 4548.16 3369.23 4551.24 5449.18 4220.88 5244.78 4515.71 4749.8 5082.6 5478.92 5551.36 5094.44 4467.94 4414.54 4850.81 5789.98 6138.47 7054.71 5489.43 5573.7 5747.75 4727.62 5054.25 4796.33 7325.81 5280.17 5360.19 4794.96 5541.59 4124.71 5083.08 6337.56 5803.39 5863.59 4381.97 4024.3 3255.82 5555.28 5242.73 4737.14 4065.69 4686.65 5603.15 5556.96 3798.62 6392.01 3666.57 4907.89 4937.02 4073.93 6043.3 4645.41 5952.75 4433.59 4320.28 6122.55 5542.14 4218.06 2739.94 4931.53 5480.13 6308.71 3323.28 6695.82 6405.76 3498.2 5105.16 5448.61 4302.5 4827.33 6009.88 5013.67 5826.04 5339.78 4143.78 4538.95 4763.66 4636.5 4940.42 5923.4 5085.71 6116.33 5644.82 6343.14 5463.38 5945.21 5750.71 5696.88 4831.47 3923.03 4643.85 5975.63 4004.04 5252.34 4138.46 4274.61 2775.04 2965.79 6898.19 6035.6 6318.18 4481.53 3948.17 5330.45 4621.75 4581.13 5358.59 3610.4 6387.01 5367.52 6519.71 3092.35 6640.13 5210.03 5810.84 4230.54 5351.39 3748.24 6142.37 4655.49 4933.21 5375.47 6038.14 2540.31 6029.66 5527.54 5697.4 6038.2 4270.95 4005.44 4055.8 5206.78 6425.26 5143.58 6186.19 4839.34 2980.99 6834.49 5525.39 4455.12 3998.5 5938.34 5380.13 6394.38 5118.27 5169.36 5932.23 5834.74 5788.23 5581.75 3599.45 6730.19 4907.06 5489.34 3735.44 5163.9 6332.36 6155.31 4223.33 5911.67 5709.62 5835.78 5794.24 4127.74 4678.38 3942.07 7443.72 5050.65 3937.08 5260.34 5206.48 5513.57 5729.23 5226.0 3365.82 5724.64 5965.15 4780.2 6090.91 4946.42 5019.93 5081.78 6263.44 5774.97 5462.21 6313.06 5470.77 3474.39 6062.05 4289.17 5564.02 6072.45 4410.55 5137.34 5423.0 3856.59 4219.07 5413.79 6202.55 4322.15 5025.39 4714.54 3629.96 5478.47 3320.11 6022.17 6061.47 6163.38 4566.18 4723.12 5120.49 5201.36 5262.61 6302.8 5409.61 5094.81 5972.06 5555.88 6732.43 5028.96 3866.16 6362.12 4484.76 3778.1 4840.01 5152.36 4511.82 5611.2 7933.0 5173.87 4894.16 5711.87 3372.79 4941.22 5791.61 3369.13 4669.66 4479.66 4808.52 5367.2 3043.85 5461.13 4726.76 5839.13 5495.68 4863.72 5002.48 5708.14 5537.72 3920.42 8332.24 4553.56 5329.64 6049.55 5991.09 2476.04 5133.97 6600.94 5371.02 6155.1 4709.35 6586.45 4373.3 4750.78 5029.78 4163.5 4888.6 5078.86 5100.1 4918.77 3561.29 4371.99 4963.34 4219.78 3295.83 3885.86 4459.28 4260.92 4479.94 6250.23 5960.56 4118.84 4020.95 5862.86 3493.7 6470.3 4200.03 6939.12 5082.74 6915.83 5092.37 6444.77 7099.43 5526.14 4287.63 5198.29 5077.33 4746.52 3689.45 5572.95 6338.89 5584.06 7111.16 5893.5 4547.19 5030.91 5119.37 3982.23 4583.31 4503.89 5806.08 3459.9 4997.27 4853.39 4964.09 4093.08 4809.42 5024.9 4306.53 5659.17 5713.22 4312.67 5861.71 4359.04 3183.98 3794.63 5017.78 4524.28 6175.81 4727.24 6677.09 5826.64 4220.65 6820.42 4816.2 6321.41 4896.52 4089.76 4751.02 3192.41 5184.56 5282.64 4715.72 3315.57 5804.71 5046.33 4764.96 5607.24 4242.52 5053.92 6352.26 3847.38 3057.03 3818.59 4143.08 7500.97 6623.85 5228.18 4262.82 5102.36 5065.11 4342.9 5069.84 4051.44 4050.9 4978.31 4241.89 5054.74 5941.72 4656.78 5126.91 4788.58 5131.24 5196.67 5876.71 6262.72 3664.11 6515.84 2990.77 5882.65 4739.14 5187.7 4188.3 6261.75 5235.29 4255.31 5453.3 6413.02 4863.27 3492.19 4584.5 5122.63 6049.79 5374.98 4719.7 4735.33 4406.4 5411.85 4844.57 4027.46 6314.07 5776.37 5315.4 6449.45 3975.31 4044.45 3824.16 5125.78 5344.43 3868.18 4373.47 5045.38 6723.16 5372.61 3686.21 3817.13 5507.24 5023.15 6851.54 3813.22 5570.3 4336.42 5243.29 7589.94 4449.22 5543.27 4717.05 5856.11 5287.2 6135.57 4109.88 5998.38 5013.13 5423.8 4270.24 3417.33 4989.15 4926.42 4164.13 5015.69 4642.34 4947.52 4305.57 6959.81 4829.35 5201.67 3791.79 4424.7 4754.05 5526.55 6084.93 5215.15 4987.87 3697.96 4739.42 5538.93 5020.12 5727.3 2631.9 5281.28 5356.51 4277.88 4668.71 4087.15 4758.21 7228.46 3948.23 5978.82 5787.31 3927.99 5868.82 4948.98 4099.77 5227.52 4092.24 4981.9 4537.32 5163.02 7144.24 4906.82 3600.43 5004.23 6496.67 5474.8 6607.87 5117.47 4721.32 4925.63 3163.78 3293.56 5274.14 4434.19 4903.82 5746.28 4623.61 4082.47 5511.6 5177.64 6134.99 4094.73 4407.9 4440.57 5548.29 4703.08 2315.64 6345.13 5274.19 5226.56 5516.95 5313.22 4413.85 3999.94 4470.98 4864.22 4516.28 3921.08 4190.31 3627.82 5678.96 5262.19 4244.9 6070.58 5350.88 5130.91 5402.24 6480.17 6445.22 4377.07 5101.59 3844.9 3963.86 3848.93 4306.11 5935.47 3130.65 5903.66 5628.24 5004.67 5365.89 3327.49 5992.26 4234.94 3960.8 4562.29 4980.85 5080.66 5110.45 5208.32 5248.77 4083.97 4520.1 4607.02 5153.74 5874.89 3895.51 4528.09 4293.03 5813.4 4389.21 4128.98 4925.44 6246.22 4951.47 5246.61 4307.28 4100.38 5344.77 4723.48 5097.87 4899.11 4278.07 4745.45 7267.18 6255.18 5269.18 4406.1 6362.14 6719.88 5080.18 5266.5 4454.63 4523.88 3279.1 4066.38 4403.98 4560.84 4414.48 4729.43 5776.57 4562.74 5598.74 5687.83 7493.3 6442.69 6320.71 4648.04 3464.83 6413.11 4305.16 5092.28 4965.89 5659.95 4152.85 2908.7 4453.64 4338.08 4517.73 4378.3 5469.47 5660.16 4989.56 4718.54 2588.37 6736.03 6235.57 6766.43 5916.16 4390.41 5599.49 4097.57 3905.51 5017.5 5563.79 6171.13 3901.8 5759.46 5083.41 7055.42 6048.86 4285.32 5490.43 6034.41 5452.83 4959.34 4948.5 4519.22 4527.02 4564.34 3695.36 4871.44 5076.35 6020.48 6375.99 3402.32 5200.05 4528.49 5419.37 4466.03 4511.54 5070.39 4923.9 5714.58 3329.99 3947.47 3296.27 4713.25 4204.84 6243.0 6673.96 4165.81 3556.85 5441.96 6291.51 5174.89 5882.89 5370.52 4188.32 4652.29 5774.81 3746.31 5027.98 5346.27 6475.1 4969.21 2691.29 6256.02 5320.92 4305.43 5450.44 5034.59 4942.77 4263.33 5592.32 5381.16 5912.61 6193.35 6086.96 5233.78 5046.21 5683.26 5894.61 5139.5 3979.54 5944.09 4814.55 3527.05 5698.77 2477.07 4497.31 5529.42 5257.12 5243.43 4537.14 5551.9 3757.34 6415.61 4687.64 4419.71 5037.06 3838.47 4541.8 5175.29 3623.87 5412.31 3087.09 6934.37 6113.95 4050.08 5452.42 5328.22 6853.85 3497.9 5511.88 2395.5 4512.11 5782.48 5486.68 3836.45 5683.61 5100.25 5022.28 5197.52 5178.99 5383.07 4591.87 4531.14 5013.42 3838.56 4247.15 6552.22 5651.07 6248.81 5273.35 5234.29 5313.66 4645.58 2651.49 5512.23 5275.32 5409.33 4898.94 5196.0 4178.15 4613.31 4973.78 4733.04 6119.09 5091.68 7531.29 5069.25 5048.89 3161.47 3991.03 3435.9 6390.78 7435.25 4288.3 6826.57 4788.87 4495.87 6022.72 5498.32 5527.33 5402.21 4989.09 2845.98 4880.14 5289.52 4982.31 5314.85 3848.54 5941.4 6510.17 5742.65 4402.67 5565.13 4470.61 4384.88 6887.27 3701.27 6008.49 5653.9 4806.34 4287.53 5612.21 4929.14 5945.08 5304.13 3306.14 5490.58 5833.06 4863.79 4923.41 3830.46 6031.67 5384.76 6138.12 4428.78 5409.66 4345.67 4765.72 4642.66 4752.14 5329.59 4888.12 4950.97 5512.16 3197.63 5842.56 5887.15 5203.08 7480.41 3423.15 4890.5 4488.85 3981.07 3731.84 4901.07 5186.3 3436.15 4151.76 5941.61 4020.4 3493.47 4596.75 6248.6 5443.58 4558.46 5805.86 6894.26 4470.4 4986.51 5339.38 6169.11 5615.35 4790.78 4027.09 6422.84 4502.18 4602.85 4962.77 5872.05 4853.02 4091.8 6259.23 5181.4 5670.2 5985.29 4711.62 4247.23 4268.65 4694.83 5509.42 4354.08 5788.66 4256.43 5936.36 4520.62 3903.75 4755.47 5935.03 5475.8 5314.69 4249.46 5965.81 3702.37 5660.85 4643.31 2330.66 4177.19 6917.52 3587.05 6229.37 6718.19 5282.91 4307.48 4425.84 5331.02 4871.96 4863.23 3555.86 6386.78 4631.83 4996.99 6081.14 4220.46 5128.57 6000.7 3169.67 4968.03 3361.92 6710.88 5395.14 4702.06 3967.48 6213.04 4689.15 3685.13 4655.16 5251.4 3867.19 5857.79 4039.91 5276.7 5036.58 6119.63 5411.02 4752.9 4287.16 4863.96 5199.44 5191.08 4435.51 5374.07 5163.77 4588.7 3766.55 4579.69 3554.48 6496.52 5005.85 4216.17 6484.17 4721.02 4254.37 4933.65 4031.78 6098.1 5708.99 4049.02 5311.03 5346.68 5255.12 5296.29 4611.53 4285.66 4896.11 5172.53 5801.99 5379.09 5210.48 7552.94 5323.3 5088.44 4998.21 4114.24 4662.56 5349.31 2976.22 4649.22 5394.55 5094.52 4946.74 2682.24 5928.32 5229.48 5475.7 4485.99 4016.18 5127.16 5435.74 4244.99 6050.81 5543.46 6185.89 3997.96 4750.17 4439.35 3460.94 3990.25 3691.0 4752.51 4236.14 4407.87 5282.51 4460.92 3797.33 5945.89 7256.35 4105.55 4800.69 6566.1 6065.22 4221.28 4456.39 4896.39 3633.79 5421.53 5480.83 5937.08 4607.85 6070.3 5233.29 4312.56 4612.06 5604.21 5204.04 4750.58 6667.68 5235.11 6622.11 5211.38 4590.55 6790.73 5920.32 4255.85 5097.69 3988.3 6543.13 5149.72 5464.25 5301.47 4617.55 5424.88 4062.5 5415.85 8659.64 5683.95 6027.62 5010.2 6123.03 5966.61 5711.11 4575.94 4938.72 3546.71 3374.08 5768.57 5564.23 5950.04 4231.83 5687.85 2435.33 6401.43 5020.71 2681.29 5094.48 3872.61 4238.4 4135.62 4318.48 6132.95 5534.94 4860.33 7644.38 4051.34 6101.92 3627.55 4635.6 4256.67 3457.48 5166.79 3931.07 3405.98 5417.15 3688.16 4681.72 4945.39 5996.33 3950.63 5415.19 4612.62 3619.07 5526.75 4275.57 6385.23 5327.45 5560.26 2614.4 6363.92 6205.93 4923.24 5830.72 6184.4 3758.07 3828.81 4373.45 4082.57 5733.62 5169.9 3004.16 4767.78 5235.17 4779.5 4042.28 4421.12 4340.76 5254.49 4303.19 5514.84 5784.3 4256.57 3914.2 4135.08 5620.74 4778.82 5467.84 5053.95 5926.11 5767.9 5089.62 6515.8 5869.4 4741.26 3701.16 4186.6 5895.77 4732.09 6136.49 4356.25 4216.95 5776.96 4209.49 5742.74 5486.48 4244.21 4947.24 3645.12 3875.05 6200.54 5148.58 4199.45 5469.13 4233.8 5765.42 4997.83 4893.49 5325.44 5021.88 5956.65 4498.25 4188.87 3735.24 6574.95 4074.48 4558.47 5731.57 5997.88 5839.71 5576.92 6408.83 5266.22 3930.79 5226.97 3685.13 3312.06 6004.68 3361.26 6799.4 6239.84 5865.39 4427.28 6079.11 3082.32 6430.39 7440.72 3949.6 5703.6 6326.18 5661.62 6631.19 6648.68 4467.04 4713.74 5626.61 5817.25 2983.99 4084.49 5061.98 6632.99 4537.6 4419.61 7177.44 4563.46 5309.98 6553.94 5255.18 5460.65 5652.0 5463.41 5225.33 4929.75 4435.36 6045.22 6649.96 5134.39 3532.3 5769.98 5442.32 6088.68 2221.99 4643.56 3580.58 4863.01 5356.79 5657.36 6124.08 3619.79 5029.47 6306.21 5266.01 5253.37 2040.66 7016.27 3685.65 3876.21 4916.22 6022.7 4940.84 5750.07 4809.67 4757.74 6045.67 3946.28 3821.94 5439.9 5367.73 3540.11 3456.47 4652.01 7234.66 6599.66 4055.54 4886.12 6419.12 4976.12 6098.95 5453.98 3991.42 4388.63 5102.75 4597.29 4200.09 5931.77 5151.21 6333.29 4477.04 3886.68 5703.74 5662.55 5737.92 4360.23 5365.24 5293.51 4004.35 4763.96 5754.18 5180.76 3418.99 4480.95 5278.36 4409.63 5521.25 3661.9 5370.85 5949.46 3658.37 3178.54 5376.71 4448.13 5070.29 4807.28 4867.08 4266.03 5280.69 4220.03 6923.84 5407.78 5449.46 6179.96 6113.54 5147.36 6260.79 3963.76 5528.53 6799.88 3062.43 5726.66 5426.78 2967.38 4159.35 6477.91 4237.98 6439.37 4614.3 5580.92 5973.33 3583.21 5067.46 2511.46 4011.37 2775.69 4785.25 6519.43 5876.64 5424.46 4857.84 2978.76 4908.49 4962.21 4858.44 5884.9 3468.42 4673.35 5689.26 4992.42 5297.19 4351.38 4833.46 5933.7 7248.4 5280.12 5984.81 3498.16 4409.27 4640.06 5471.74 3548.39 5421.64 3673.28 4858.51 4207.54 5625.65 4301.61 6107.89 4817.16 4446.84 5660.55 5148.08 4834.87 3672.21 5760.22 5938.17 4795.43 5398.64 5097.95 6817.57 4693.52 3614.96 6853.04 4745.43 5831.96 4747.55 3056.7 3755.95 6234.32 4586.19 4446.06 3450.93 5008.63 5132.68 6595.03 4993.35 6218.95 5222.16 5107.23 5136.08 5558.68 3776.94 4765.02 4010.57 5629.39 2684.03 6157.04 4768.61 2261.36 5075.55 5506.19 6719.94 5227.59 6166.29 5453.6 5703.07 5294.77 4662.43 4709.05 4630.82 4043.66 4813.08 5860.67 4540.86 5990.52 4835.83 5604.35 6316.56 4332.87 3091.67 6420.81 4081.97 4715.58 5401.99 5151.52 5369.08 4347.74 5291.9 4009.62 2081.58 6505.78 5461.55 6865.76 6449.64 6464.8 4684.44 4749.59 5799.69 5571.72 3809.69 4771.13 3208.96 7051.9 4184.23 5550.75 6834.41 6226.14 5466.33 4444.97 3000.29 5721.05 4247.69 4514.39 4588.99 4321.21 4344.34 4928.27 3583.49 5052.84 3375.28 4366.74 5297.16 3184.64 5206.33 5530.49 5653.03 3718.69 4514.79 2216.82 4509.89 6752.75 5269.38 5607.3 5108.06 3573.73 2928.82 4222.4 4000.43 4568.41 3420.08 4912.04 4539.07 5464.68 5591.76 4585.31 6625.18 5323.91 4270.74 5097.45 6293.89 4558.15 5737.75 2761.07 4983.39 5366.52 4690.55 5533.72 5533.42 4802.32 3678.08 4599.38 5246.47 4187.31 6191.29 4522.21 3240.51 7422.36 5161.01 4298.15 4950.67 4628.4 5832.37 6051.83 4642.93 5409.63 4263.16 3077.84 6024.75 6109.49 5567.93 5332.65 3764.1 6451.33 5413.31 3012.99 6400.08 4743.59 5208.14 3317.83 4450.7 3763.05 5092.24 5549.49 3101.75 4518.04 4766.06 4874.18 5435.19 3298.2 4270.15 4953.1 4093.99 3940.49 4406.05 4680.94 5876.72 5236.43 5285.07 4608.41 4144.57 4187.94 5980.59 3796.15 4801.8 7216.98 5271.02 4209.31 5718.28 6242.79 5950.45 5713.03 5849.65 5134.67 4165.21 4215.0 4936.96 4481.76 5452.78 5065.26 4304.41 6192.0 4940.28 5885.28 3004.34 3022.6 4811.76 4914.45 4698.87 4661.03 3624.7 5262.35 4691.91 2685.81 4475.83 4510.8 5889.35 5010.04 4394.56 4570.98 4275.07 5825.38 4185.61 4047.87 5742.47 3778.02 6552.21 5417.8 5146.37 7132.12 4836.16 5518.57 5151.11 5463.48 5730.33 5545.46 4527.99 4376.7 5190.61 8325.01 3764.06 4440.81 5941.9 3973.12 5434.47 6642.76 5829.22 4497.78 4243.79 5987.42 5433.65 4442.22 4008.15 4887.76 4669.06 4811.32 4286.49 6184.88 5829.32 4396.25 5551.95 3918.87 2275.45 5423.42 6605.86 4383.56 5012.5 3562.79 7093.13 5818.95 4516.53 3604.14 4452.54 5089.1 2711.19 5828.35 4028.32 4099.92 4884.59 3858.06 4680.14 4511.7 4083.79 5263.27 6300.92 5021.77 5599.29 6038.68 5046.12 4807.4 7013.17 3805.67 4601.74 6506.86 5088.57 5580.34 3852.6 5775.31 4706.5 4603.5 4647.67 5375.12 4356.36 4892.44 5578.94 7610.49 4286.17 6579.31 5323.55 5375.1 4172.6 5313.12 5351.56 3984.88 5160.59 4732.09 4320.42 4255.34 5064.79 5480.3 7509.24 4146.81 5896.26 5388.78 6101.13 4573.72 5099.21 4917.99 5636.4 4367.78 4350.12 5227.02 5670.0 4232.16 5300.96 4344.51 5680.94 3781.77 5581.55 5193.01 4543.1 3474.5 6550.44 3860.83 5732.27 4523.39 5278.56 5146.37 6917.62 4013.38 5631.14 4343.78 5811.18 5263.3 4909.65 6523.86 7693.4 4326.48 4437.07 3449.37 5491.9 6405.0 4659.16 5789.55 4633.05 4901.2 5711.62 4798.17 4990.79 5166.79 6479.39 2895.63 4122.92 4997.91 5079.22 5381.54 5810.77 4714.83 5474.15 7519.2 6355.68 4478.6 3953.55 4304.63 4469.54 4314.56 4173.54 3928.53 5606.51 5740.65 3834.47 6349.67 6329.53 4590.01 6101.86 5993.0 4803.57 5966.42 4110.59 3332.49 5354.66 4214.44 5378.23 4787.97 3746.36 6789.23 3989.7 4777.03 3684.56 4246.61 6028.09 5452.36 3804.5 6486.37 5498.42 3344.57 5318.53 5220.76 4281.98 7165.9 5344.83 7046.11 3427.63 4863.97 6342.48 5756.75 4587.67 5599.7 4163.74 6969.28 3665.95 5698.96 4095.75 3603.51 4298.45 5222.51 6609.84 5135.96 3834.43 5658.37 4707.06 6074.94 5491.37 4250.88 3783.54 6348.03 3475.67 4792.39 7038.89 3863.67 4814.12 5067.56 6137.8 2735.53 3352.35 5116.6 3747.03 2783.85 4356.49 4526.81 3994.07 4219.94 5907.46 6740.71 4264.91 5399.29 5971.22 4909.31 6522.59 6602.43 3568.28 5425.98 5996.66 4405.42 2995.67 3598.08 4599.81 5698.23 7300.58 3608.06 6633.61 5217.95 5484.36 4277.24 4063.9 5291.05 5161.1 4619.2 5166.41 5067.56 2596.96 5701.75 4350.15 4139.3 6541.45 4227.41 4750.49 5078.31 5391.48 4923.43 5131.15 4847.14 3950.27 5116.66 3566.79 5374.67 4981.43 4215.2 5069.89 4157.29 6813.72 5327.75 4609.02 4896.65 4638.18 4196.37 6448.66 4453.97 6945.98 5138.2 5783.48 4701.5 4449.98 4504.35 4771.65 4840.44 5093.82 5951.81 3924.14 6918.35 4296.69 6238.32 3319.67 6471.42 5283.8 4076.59 4428.14 5164.1 6464.15 4972.17 6685.4 5699.53 4222.77 6332.01 5268.38 5527.23 4805.33 5980.95 6193.08 6069.3 5887.01 5168.35 5388.39 3728.18 5335.47 5633.61 5048.19 6799.23 4888.27 4592.15 6487.56 4854.11 4998.22 5533.19 5417.21 5583.61 6063.64 7382.3 4022.56 5522.21 3772.3 4855.01 4923.57 3340.09 6061.63 2279.05 4867.7 4829.35 4075.28 8137.11 5484.32 6650.77 4067.96 7104.73 6162.3 3272.75 4264.54 3516.27 4263.78 4643.9 5228.75 6047.14 5009.83 5210.38 5717.8 3629.44 5003.78 3299.24 6246.56 4741.28 4061.6 2603.64 5107.0 6212.15 6502.97 4783.07 4946.23 6083.28 5211.6 5806.31 3556.79 5456.71 3503.41 7317.04 6412.67 7001.83 5012.97 5589.37 5439.49 6639.64 5212.43 5454.12 4834.3 6804.79 5642.35 6372.13 5369.5 5404.01 6016.19 4124.49 4479.11 3230.13 5714.25 5325.96 4850.06 5016.02 7044.29 4234.18 4920.21 4049.16 7085.01 3936.95 6153.94 6836.82 3862.77 4631.99 4740.98 3185.39 5128.77 7122.87 5797.36 4243.26 4153.84 5119.86 5089.26 5084.17 4901.44 3776.8 5096.43 6156.21 6104.26 4653.83 6171.71 4986.71 3628.89 6589.82 4668.88 5027.43 5522.75 5867.64 6208.9 6059.93 5602.53 5073.02 6545.43 6760.92 4989.2 4711.04 7144.05 4506.18 4824.12 2970.9 6542.5 4383.47 5971.21 5261.19 3104.96 7043.44 4263.65 6106.43 4807.35 5467.63 5666.95 4642.2 4811.22 3683.86 4918.76 5293.75 4208.41 5826.78 5473.72 2856.55 4553.68 3758.22 4757.2 4852.58 3205.68 5561.74 6100.73 4788.08 4745.79 5470.04 4908.75 3971.08 6204.65 4482.9 4593.7 4036.91 4349.13 5110.11 6379.14 3687.65 4887.52 5478.95 6348.54 3851.85 4066.57 4206.98 5156.76 6357.47 6101.57 4891.38 5535.91 2949.12 5955.86 6176.67 4533.37 4848.46 5412.24 2779.99 5887.38 4581.37 6942.34 5851.61 5478.11 5526.31 5030.15 3858.17 3644.78 3477.1 4078.93 5934.82 4501.78 4922.49 3572.94 5001.58 4820.17 4729.42 5244.98 3886.72 5415.45 6592.93 6350.71 6436.74 2460.79 5096.24 3908.98 6328.42 7307.21 3381.82 3619.72 4438.58 4646.51 4565.93 7107.63 4831.93 5788.97 3472.91 4023.93 5868.89 3274.85 5007.21 4099.26 5206.47 4580.06 4834.39 5493.89 5262.47 3512.94 3831.52 4991.35 4587.7 4258.98 6761.81 3903.91 4568.64 3919.62 4127.53 5210.75 4474.83 6555.44 5658.14 4508.18 6214.73 2205.51 5361.87 5175.89 3894.64 4268.19 4374.74 4532.7 4504.86 5975.23 4473.29 4198.94 4211.82 6556.26 5684.25 5438.92 6550.4 3766.69 4891.67 6818.91 5216.26 3503.65 3634.5 6631.28 6571.31 4392.65 6318.23 4058.87 5174.75 5932.07 4984.46 5948.71 4793.65 3856.53 5460.89 4532.89 5260.85 5742.09 2884.65 5807.46 4648.21 4393.16 3658.05 3311.29 4549.69 6423.81 6192.77 4312.15 6418.11 6015.02 5244.22 5585.14 7039.98 6456.58 4159.81 4960.64 5792.98 4385.81 4034.05 5690.96 5798.38 3862.91 4456.11 5366.11 3419.87 5039.12 4824.81 5769.14 5944.3 3563.14 5135.5 5347.9 5851.63 4504.52 5212.92 5615.84 4464.73 4928.85 6440.38 5556.0 5545.59 5494.28 5610.53 5755.15 4835.97 3926.11 4057.17 7066.96 4467.0 4994.65 5196.92 3787.08 5644.81 5334.36 4728.55 4929.6 5750.35 4489.99 4548.45 4658.11 4551.26 5730.61 7124.45 6358.93 5064.67 3703.49 5232.85 4062.56 3717.47 6200.63 6816.66 3217.67 5079.64 6163.54 5212.37 6003.78 2628.22 5058.51 4244.49 5036.98 5513.8 4521.75 4027.63 5350.88 5420.67 6413.15 6103.11 5048.55 6459.51 4024.31 5844.72 3992.97 5989.05 6040.74 4054.22 7228.94 5393.65 4961.99 6551.93 4595.12 3110.13 6484.43 4625.67 3485.54 4458.64 4583.52 3657.69 3492.83 6280.13 3684.15 5832.29 2606.51 4438.76 6006.89 3814.65 3965.3 5372.82 4983.3 7778.01 5127.82 5124.17 5805.1 4125.9 4064.58 4234.88 4384.28 4456.26 5113.6 4810.98 5091.22 6282.38 5640.72 5657.55 5727.79 5188.82 5043.14 4717.73 5072.5 3904.07 5748.9 3663.0 4954.81 3742.31 6304.49 5134.72 4608.34 6419.64 5464.83 2781.96 4431.23 5917.34 5601.55 4462.87 6545.99 5630.9 4554.68 4368.28 4692.32 4945.0 3127.83 4212.15 5114.07 4385.49 4263.18 7142.95 4383.68 6618.21 2617.39 5144.44 4051.18 5969.37 5034.69 4509.46 996.652 3538.53 4680.69 6500.49 5965.58 3352.34 4901.29 4050.03 4775.04 5188.53 4120.07 4882.66 3429.57 5569.2 5410.33 4642.74 6735.97 5305.59 5416.45 4330.58 5754.6 4955.16 3288.01 4904.51 4147.31 2202.77 5751.15 5950.88 4149.55 4441.22 5853.89 3380.69 4140.4 4386.8 5446.4 4725.01 5966.75 5510.9 4505.28 4883.63 4971.29 5510.45 4730.14 3994.39 6119.99 4618.73 4128.1 4446.58 4402.17 5401.4 5053.15 5910.86 6239.68 7320.78 4834.44 5782.43 4027.33 3873.92 5026.76 5023.41 4092.07 4546.44 4224.3 4184.21 4700.07 5273.37 4732.37 4985.3 5713.36 4749.18 5553.94 4546.96 5424.55 4921.1 3814.16 5695.79 3622.8 5414.58 5577.41 5740.98 4346.07 4013.86 4177.47 4218.16 2918.64 4140.92 4512.07 5984.8 5236.24 4585.04 5678.58 6570.35 4242.63 3269.54 4559.74 5836.26 6666.67 6063.44 4583.94 5046.31 4928.35 1937.5 3844.54 5849.53 4651.99 4420.11 5863.0 6127.39 4972.18 4607.18 4124.76 7200.89 4813.33 4952.52 3840.21 6746.66 4954.76 3908.56 5244.78 3636.15 6114.89 5135.63 6384.7 4355.83 6870.97 5351.86 6056.87 5474.01 6201.86 7554.58 5166.89 3639.44 5491.63 5725.37 3868.62 5138.33 3743.76 3425.69 6711.21 4236.86 5393.76 4941.02 3864.92 6010.59 2955.36 3668.93 4009.24 7541.76 4775.49 4681.29 3220.29 3845.9 4439.71 5667.51 4708.31 4198.9 5431.29 4833.67 5325.91 4213.05 5157.38 6203.03 5235.87 6089.45 5810.17 4966.07 4400.14 3669.32 4704.92 4316.0 4287.25 4392.75 4271.07 4420.6 5287.25 4770.51 4184.47 6511.37 4012.92 5759.79 4598.54 5218.42 4933.49 6139.64 4896.43 5463.06 4639.8 5260.52 3185.09 6102.49 5114.23 5495.0 7407.91 6015.22 4454.74 2904.46 4826.52 5120.92 4337.32 5241.75 4731.53 3763.9 4788.7 5084.5 5640.12 5329.76 3899.7 2403.72 5134.33 4147.49 4802.98 4833.55 4081.34 3646.95 7224.99 6334.53 4844.83 4749.96 5377.37 5652.87 5483.7 5018.69 3152.86 5952.38 3896.27 5807.52 5963.36 5230.02 5307.35 4342.18 5169.48 6016.08 4731.21 3124.7 6064.71 6102.98 6060.17 5153.18 4763.4 5902.67 5454.11 3779.45 5806.61 4983.1 3682.35 7123.04 3756.96 5906.57 4932.29 4990.23 3784.94 5499.59 3125.13 5749.6 4141.21 4174.44 4564.41 6331.74 5951.86 4252.18 4659.88 3791.41 5853.12 5702.4 5069.9 5473.89 3673.6 3306.84 5265.21 4657.24 5866.42 4762.1 3987.69 6502.99 6219.34 4191.01 4475.38 4589.06 4920.88 5890.25 4216.44 3999.5 5034.05 4816.51 5345.73 4770.63 3990.94 4756.8 5477.8 4462.35 3986.41 4241.68 3469.18 2945.34 4489.29 4301.93 5064.23 6061.85 5512.44 6449.06 4924.07 4685.4 6240.42 5146.0 5721.14 4577.73 4987.28 4918.64 6638.25 5078.59 4759.99 2646.13 5419.57 5162.67 5760.98 4705.68 5469.35 5384.86 4019.34 4658.24 5869.67 4311.48 4899.73 5457.66 6394.19 5973.89 5366.22 6193.73 5518.11 5087.14 3742.11 5712.35 5701.52 4743.9 6776.22 5321.17 3719.11 4467.13 3877.8 6273.6 5136.87 5024.32 4708.17 2741.2 5790.42 5784.37 3142.09 5591.77 5182.13 6110.48 6245.52 3954.77 6793.1 6016.87 4506.66 6715.73 5209.55 5426.4 5763.05 5129.68 5357.39 5076.84 5247.01 4208.37 4841.7 5685.74 952.938 4678.7 3450.07 6215.87 5191.26 6060.06 5544.27 3484.81 5308.33 4666.12 6023.07 5674.63 5340.05 5995.4 5322.11 5700.79 6710.14 4426.02 4711.15 5188.22 4841.23 2804.54 4357.11 5005.6 4176.32 6069.78 5532.75 6949.65 4095.83 3372.95 5676.61 5846.95 5268.15 5819.0 6347.72 3460.93 3200.6 4629.02 5914.5 6006.16 4288.45 5407.96 6206.98 6562.03 4815.47 4368.12 4365.58 5214.4 4636.53 3629.49 5766.05 5117.64 3835.81 4869.48 3623.19 4906.11 4387.39 4564.1 5825.55 5509.51 4848.14 3199.4 4316.5 5254.24 4192.21 3597.43 5144.56 4158.91 5311.55 3360.86 4869.25 5545.21 4333.87 5684.05 3667.93 5638.7 5813.79 4644.88 5293.13 7350.26 3768.46 5167.53 5003.3 4168.52 5800.81 5106.46 4068.31 5166.05 5077.29 5515.73 4850.5 5866.91 6405.69 2820.07 5679.74 4825.73 5288.33 6296.54 5797.21 6019.35 6740.35 6028.63 4550.92 5146.1 6485.77 3869.39 5960.5 5393.43 6896.55 4685.65 5377.01 6470.23 6506.63 4140.04 3495.3 4697.49 5735.08 4726.2 4750.81 3825.48 3810.68 4196.62 2809.19 4916.7 5486.89 7208.19 4549.51 3587.93 4975.85 5695.25 5323.95 5716.42 5701.63 4620.95 5368.93 4488.39 5124.86 4927.73 4602.57 3565.32 4608.62 4071.75 4626.72 5131.77 5549.71 4410.82 6443.99 3889.98 5193.58 5399.43 5695.44 3422.21 3916.42 5429.3 5510.96 6653.07 4745.16 4697.91 4584.81 5071.98 5719.79 4371.08 7261.51 4968.14 4914.03 5086.29 5527.13 5139.18 5551.43 3034.16 5049.99 4201.03 5001.87 4493.79 4279.44 4899.19 5058.34 4028.22 5575.11 5487.63 3852.82 4507.36 7145.73 5403.97 4795.08 6562.92 5501.73 3671.06 3612.44 7035.54 5233.76 4683.28 4217.36 6549.8 4851.18 4165.36 4871.77 5811.26 5062.77 4884.93 6075.99 5262.79 5927.2 4419.79 5407.69 5152.78 4117.9 4753.76 4781.9 4638.09 4441.91 5330.26 5939.22 4668.8 5125.17 4859.01 5524.45 7133.44 3953.26 4474.39 5459.92 4658.59 6478.35 5453.77 4104.04 5589.53 5593.79 5025.42 5196.08 4517.29 4495.75 4849.5 6171.01 5796.26 4603.04 4870.94 5271.88 6121.56 7168.2 3763.85 3419.07 5710.33 5344.44 6432.8 3186.07 4369.86 4967.51 5173.82 7212.97 5490.64 5034.34 3769.2 4507.46 5036.14 5603.68 4944.51 5610.95 5532.72 3220.8 5179.17 5579.39 5270.51 5148.1 5490.75 5224.64 5949.73 4312.48 5783.94 6370.33 4278.57 5081.08 6318.25 6864.06 6008.81 4932.56 5192.49 3487.31 6643.4 3918.94 4674.9 5461.72 6599.28 6224.85 4556.19 5368.66 5648.78 6875.73 5226.42 4697.24 4983.43 5117.52 6311.89 6734.39 5942.45 4150.76 5005.72 5368.52 5155.28 5388.73 5205.38 4764.83 4600.71 3957.38 4494.15 5035.71 4710.88 5300.17 4057.4 5534.23 6025.77 6815.96 5339.6 5828.25 4725.11 4215.05 4271.93 4604.1 5076.11 5990.75 5600.21 5467.51 4625.53 4096.47 5114.67 5353.66 2638.82 5030.33 5234.2 4965.24 6379.38 6257.79 5353.23 6229.83 4468.26 5578.18 5293.37 5933.54 5559.79 5879.24 4571.74 4096.86 3622.48 5001.51 5385.86 5115.42 4082.4 5482.76 3745.02 3720.7 4211.36 5698.53 3604.31 4450.49 3468.45 5635.32 4526.34 4316.45 5409.08 5042.75 4598.92 5241.22 6647.08 4979.52 3422.29 4407.79 5214.63 3495.68 3990.96 5352.24 7362.42 4202.77 5836.14 5473.05 4373.2 5537.34 5884.99 5726.42 7025.09 4433.12 3392.26 2549.95 4361.24 5138.93 6406.8 7086.69 6170.9 5833.78 4436.48 6081.3 5615.35 3967.76 6213.24 5987.88 3579.59 4228.53 6123.46 6142.88 5111.26 4574.54 4949.55 3132.34 1969.87 4841.28 5507.38 6889.5 4416.87 4052.43 4896.67 3934.11 5158.44 4466.22 6153.71 5917.08 5483.37 3626.86 6371.96 5322.07 5770.07 5101.6 4282.11 6589.13 2347.41 4542.16 2030.03 3543.37 5628.97 5527.27 5104.39 4612.13 5846.6 5327.05 5438.55 4434.65 5977.66 4523.81 5106.33 5198.94 4028.35 5464.05 2980.31 3148.79 5740.78 4796.12 5997.91 4742.82 6791.86 4209.0 4930.72 5728.58 4887.73 6297.99 5378.24 3856.73 5817.74 5887.71 5661.6 4827.61 5285.75 5385.03 5481.64 5673.75 5360.67 5968.54 6263.3 4501.05 4537.03 6548.29 4114.2 4326.06 5034.46 5757.29 5793.12 5469.17 5061.75 3769.24 6022.78 4087.32 6647.85 2569.12 4161.32 5161.74 7336.37 5099.9 6945.69 5118.86 4183.4 4304.64 4733.79 4823.06 5758.98 5254.49 5288.64 6828.8 6883.86 3350.99 6161.94 4065.28 5057.59 4461.14 5285.6 5615.06 5490.54 5203.54 4047.95 6142.94 5001.69 6581.56 3980.46 5383.9 3798.09 3886.56 4496.51 4511.05 6561.94 5259.21 5418.12 5934.05 4714.66 6771.18 4984.17 4656.01 4037.86 5602.62 5714.51 4484.78 5157.73 5847.91 4934.66 4109.44 4903.84 4290.49 6688.53 5209.5 5065.74 5791.25 4873.23 6731.89 5410.6 5453.2 6348.93 6824.53 4332.64 5232.16 4422.23 4820.68 6031.22 5485.84 6424.77 5453.69 5918.95 4538.89 5689.56 6556.86 3242.31 6099.28 5372.25 3234.26 4169.15 4778.37 5134.17 4074.16 4904.35 5592.54 3247.97 5124.34 4904.37 4358.81 4651.64 5729.92 5016.46 6224.13 4761.84 3661.67 5517.65 4009.68 3303.49 4622.73 5256.75 6351.89 5932.28 2960.5 4975.32 4298.7 3902.48 6030.39 4905.53 3799.01 7392.65 5319.1 3757.23 4181.93 6570.43 3820.19 4979.5 4745.37 5939.29 5418.98 5575.11 4052.49 5061.74 5326.03 6189.67 4948.96 5256.82 4013.86 4061.87 5165.31 4288.5 5715.51 3721.69 3456.3 6074.39 5317.83 5092.93 4256.08 5881.93 2803.01 4444.0 6182.19 5327.39 5781.62 4981.81 4138.59 4970.55 4938.33 4621.33 4541.22 4946.08 3539.68 4984.01 6217.33 4557.1 6270.59 5927.1 6175.27 5876.51 4103.76 2932.52 4733.41 5264.83 3901.53 5136.51 6815.51 5313.86 4457.05 3989.26 3618.64 5703.84 4335.79 3530.82 5797.32 5432.04 3921.27 3702.45 5265.63 4898.29 4431.06 5730.2 4830.13 3494.16 5370.9 4529.77 4325.13 6172.27 5390.33 5078.73 5278.54 5729.0 5192.92 5275.57 4179.87 4786.66 5891.25 5370.1 5129.4 5114.51 4655.37 5585.25 5023.61 4672.86 6530.78 5560.23 3043.77 5237.55 3909.94 5088.64 6589.8 6920.92 3729.16 3783.36 3038.91 3922.28 4571.57 3445.92 5236.69 4586.82 6026.04 6200.05 5859.17 4034.41 5522.34 5771.98 4420.35 5717.45 5117.83 5268.27 4645.93 5448.64 4585.37 6417.61 5395.12 5783.69 5350.9 3483.61 4460.89 4399.52 4157.1 4554.24 3939.96 5910.66 7415.84 4637.3 5141.03 4840.44 8123.59 5765.14 4767.54 5121.08 2927.84 4696.03 6177.68 4605.39 2848.44 6045.26 6500.45 4907.55 4094.63 4286.61 4603.66 4969.68 6636.43 5431.14 6298.8 3689.24 5178.07 5189.91 5777.26 4171.02 7012.36 5028.06 4002.99 4886.99 5159.67 3161.1 5764.52 5684.88 6523.78 4645.86 4045.67 5620.88 4941.52 5900.0 4262.74 6241.77 3783.79 5317.19 4248.14 5279.19 4016.6 5821.49 7050.08 5580.44 5998.13 5095.52 4746.15 3720.38 4758.84 4731.37 3976.0 4068.41 6463.71 5059.37 5783.38 4139.39 6264.03 3562.8 4151.74 5192.82 4174.22 3573.84 4067.89 6294.09 5131.07 4121.07 5524.28 3133.28 5731.43 6353.81 3518.14 4150.44 5044.68 2649.69 5899.78 5000.74 5772.57 4813.81 5244.95 4634.25 5901.8 6351.48 3830.7 6210.0 5432.4 4262.52 6738.9 5992.06 8052.53 4867.12 6044.01 6520.19 1458.87 5734.07 3997.68 6033.28 4819.83 4801.16 5071.38 5616.66 5688.77 5368.28 4698.7 6229.64 4220.43 6263.87 5743.8 6666.34 5084.76 6605.11 4757.87 3557.46 5971.95 5652.73 3979.46 6321.97 5151.19 6509.54 6119.0 3792.06 5128.59 4293.3 5587.3 3572.73 4864.38 3770.22 4390.64 5150.84 4608.01 5087.97 6005.95 4308.49 4930.17 4581.1 4745.44 4085.96 5762.82 7360.12 6223.98 5462.6 5617.29 3035.06 4262.19 4597.88 4878.93 6275.25 6892.33 4505.3 4452.36 4491.26 4511.34 4832.21 5009.21 4742.35 5394.79 5645.54 5264.08 4526.87 4691.01 4227.66 4594.89 5245.95 5821.42 4515.02 3463.53 6126.03 2970.24 4197.87 5105.54 5462.1 6032.45 3414.67 5444.36 4026.03 6908.32 3467.11 4817.75 6153.26 5637.53 3882.37 4095.4 5188.57 3873.79 5357.33 5252.37 4499.54 5037.58 7430.48 5640.67 5545.68 6080.69 4970.12 4967.93 6369.66 5973.57 5922.62 6241.48 5125.45 5957.82 6286.27 6327.54 5507.07 4802.36 5327.71 5466.13 5257.38 5075.23 4975.56 7282.36 3826.01 4645.91 5581.01 6834.92 6379.33 5130.57 5090.48 5402.45 3985.93 6412.84 6071.59 2589.19 6079.55 5485.61 4993.49 5310.33 6583.37 3688.83 3402.44 4848.98 4491.96 5184.98 4467.51 5339.82 4519.03 5460.57 5110.27 5703.34 4612.68 6668.98 6649.52 4232.33 4939.56 4747.68 5770.92 3093.38 4845.91 2002.78 5631.32 6322.0 5793.14 4609.65 5704.61 5410.73 4379.91 4574.03 5290.37 5850.38 7066.26 4730.97 3677.85 5214.71 4677.84 4811.11 4924.52 4866.8 6044.69 5658.05 6593.1 4000.51 6033.93 5011.37 2827.92 4441.44 4232.44 5336.61 5563.09 4848.15 4439.09 5523.81 4718.61 6697.45 5717.67 5515.59 3224.81 3775.38 4046.22 6457.89 4844.2 6572.17 3751.73 5555.89 4766.47 4871.1 5678.08 5872.45 4414.09 5191.29 3784.68 4188.16 3717.22 4654.92 2943.17 5286.55 4880.78 4322.56 5509.09 5625.02 5212.05 4829.77 3928.99 4444.92 6959.88 4125.75 5749.53 5247.73 5034.02 5582.28 5945.25 5181.31 3856.4 4696.06 4137.16 4937.36 5308.4 6581.13 4569.32 5537.61 6084.88 4397.06 4199.44 4053.12 4479.5 6261.67 3435.13 5065.78 4431.46 4521.42 3207.84 3977.98 6043.34 4128.93 4959.72 4712.17 3808.04 4723.71 4461.67 4405.61 6126.5 4034.88 6007.1 6345.2 5488.96 5128.03 3720.92 5087.3 4942.63 6139.74 4975.57 3057.3 6150.31 5873.62 4996.91 3920.44 5379.52 3768.62 5314.67 5563.47 5651.46 4066.36 3162.27 5516.37 5092.44 5432.2 4612.4 3312.3 4746.19 6381.58 3282.57 4798.13 5648.59 4630.5 6296.36 4432.32 4451.76 7885.41 5782.25 4104.97 4575.72 5114.61 6118.13 3374.62 4926.62 3917.09 6009.93 4083.1 5270.1 5130.56 4947.64 6305.9 6649.21 3470.69 4859.95 4132.08 5522.18 5223.1 3873.72 4592.49 3625.98 5479.86 6474.5 4702.32 4763.04 5971.9 3746.62 4532.67 4876.37 4769.62 5260.13 4649.5 4810.74 5985.75 5475.83 6189.29 5984.55 5672.46 5803.3 3228.27 4721.98 5252.82 3543.98 5056.26 5878.55 4014.44 6604.72 6002.77 3794.47 4610.55 4967.02 4614.49 5400.69 4462.5 5573.31 5004.68 4023.88 5348.11 5428.24 5108.84 3511.5 4520.14 5067.92 5357.14 3188.21 5919.27 4793.06 6637.38 6188.33 6111.23 6916.18 5786.06 4137.41 3868.69 5447.74 4450.51 6033.72 3692.99 3851.47 4966.74 4959.94 1635.31 5639.4 6185.73 4083.24 6520.96 3771.91 5217.62 6178.19 4616.81 5715.25 5212.2 4611.21 5108.42 3354.94 4404.87 5237.27 5767.65 4750.76 4907.03 5497.27 4081.77 4948.21 4987.01 2181.29 4420.3 6332.64 6492.44 4613.32 3482.73 3996.93 4957.99 4063.26 4997.89 4542.62 5093.28 6131.52 6009.88 4699.77 4850.49 4981.55 5144.23 6188.62 6153.07 4414.06 5944.52 4413.56 5050.2 2513.38 5316.05 4908.32 3995.08 5019.84 3900.93 5784.38 4149.17 4329.8 5728.27 3074.49 5202.33 3956.24 7558.99 3393.59 4142.1 5043.14 5333.04 5445.91 4521.99 4812.59 6842.54 7115.67 5675.45 3361.11 6038.56 2807.46 5599.16 4179.8 3488.34 4577.98 5658.35 5886.81 4487.51 4582.12 4295.25 7394.47 4729.45 4850.95 5374.09 6271.22 3421.81 5378.75 3920.64 6186.24 5822.7 3780.07 5466.49 4038.17 5007.41 4907.48 6213.74 2329.93 4369.87 6938.87 5412.07 5512.57 4806.99 4813.55 5856.43 3839.0 3465.03 5349.85 5799.86 5172.1 4362.94 4469.82 6545.78 4870.14 2932.2 5105.72 5003.49 3964.03 4216.33 5832.72 5617.91 4721.2 4706.31 4202.12 2694.25 4735.99 4203.68 4739.56 5145.39 3352.46 6351.95 5195.09 5345.05 7679.2 4881.51 2626.41 4311.92 6729.99 5093.41 6842.35 5464.34 3621.63 4777.96 5801.89 5908.57 7296.47 5742.39 4821.41 4924.53 5616.11 4499.52 3874.12 4028.13 4457.73 6476.35 6260.58 4067.24 3053.19 6571.26 5580.95 6598.99 3549.92 4032.06 5246.81 5089.1 5888.95 5394.78 3463.34 5122.38 2853.68 5262.85 4998.37 5329.84 6559.82 3879.83 6565.95 5043.34 4246.24 6805.02 5354.48 5640.63 4900.26 6261.13 4167.55 4720.34 5244.47 4731.16 5510.89 6470.87 4495.33 5282.67 4159.89 5178.55 5146.69 6203.24 6818.23 4488.41 6679.12 5652.19 5806.74 6578.62 6284.12 4796.04 5229.56 6011.4 4672.34 6052.22 5376.41 5003.63 4695.7 4944.08 4082.01 5269.39 4305.35 5210.22 2451.27 3903.9 4444.95 5161.02 3124.49 6265.48 5003.81 6262.18 3818.37 4701.03 6225.05 5434.04 5200.1 3997.52 4444.54 5779.9 4909.74 5310.33 5299.03 6664.54 3922.98 5161.73 5259.48 5254.93 4803.4 6833.5 6608.94 2613.78 4780.16 3834.01 5738.37 4433.23 4813.24 5759.19 3113.64 5847.27 4490.2 4304.75 5480.86 6139.9 4720.22 4313.38 5827.3 5250.56 3633.58 2468.16 6294.14 4339.97 5203.75 5169.09 4691.15 2459.88 4210.24 5470.67 5901.71 5225.11 5342.9 5252.22 5733.12 4962.35 6436.29 5402.81 4600.81 4919.13 4124.33 5168.97 5783.88 5002.38 6705.93 4865.11 5449.09 5502.14 4605.61 4465.56 4131.08 5386.95 5747.9 3864.19 4287.93 5332.11 5315.71 6158.93 5081.65 4823.14 5438.5 4621.32 5699.4 3878.8 4698.94 3948.21 4286.84 5669.15 5296.05 5263.86 3330.85 5056.32 5533.52 4060.17 5410.33 4747.24 5302.53 4380.86 5576.16 5648.02 3308.75 4604.34 4439.17 5677.42 4929.35 5606.22 3943.77 5242.38 6081.35 5459.52 4609.98 5566.5 5663.36 4276.59 5579.04 5125.53 5994.21 5403.81 5082.25 6964.78 4374.05 5036.84 4565.36 5813.68 4025.08 4008.67 3618.53 4770.21 8013.28 3846.55 3796.73 5417.07 3082.16 5656.84 6789.66 4739.41 5312.2 4706.59 5734.84 3982.31 4950.07 4582.24 2832.83 4084.87 6036.99 3010.1 3825.98 4589.22 5087.03 4667.84 3906.41 5584.64 4123.08 4512.6 4260.38 4636.45 4932.27 5638.51 6793.49 3563.33 6060.19 5536.0 6786.37 4333.23 4328.76 5561.63 5940.5 4358.06 5093.51 5647.93 4280.92 6201.49 4696.92 5154.74 6437.99 6898.8 6540.57 4893.72 6004.72 4072.4 5373.78 5345.65 4489.18 5863.36 4632.75 5237.76 4994.98 6423.96 6058.13 5894.69 6988.4 6635.51 6051.35 4909.13 4287.61 3999.81 4867.13 4863.27 2701.42 5442.79 5051.39 6673.92 5151.68 4884.94 5362.15 4455.61 4738.72 4752.31 5240.97 5569.85 5405.6 3929.35 4884.93 4759.38 6960.97 4287.15 5282.51 5504.65 5669.41 5732.11 5040.9 5596.68 4868.66 4004.39 5159.9 5283.65 4644.68 2892.36 5981.54 5911.29 5416.41 4694.27 6760.64 2515.5 5177.88 5551.79 6981.47 3916.15 4474.96 4758.76 4790.63 5259.29 3584.05 4916.75 4818.53 5097.85 6189.04 6224.64 4221.03 3799.55 5082.66 4550.77 4337.93 3550.88 4345.51 4048.73 6223.33 3860.8 5145.13 3747.96 5611.29 4521.88 6568.45 5004.22 4601.54 7263.57 3832.09 5705.96 5267.65 5739.69 6632.04 5360.88 7360.62 4977.64 4985.45 4983.56 5699.51 2489.44 5499.37 4883.13 4836.76 4752.94 5551.09 3950.53 4501.1 5581.47 4384.91 6550.61 4987.01 4713.56 6094.34 6779.82 5543.67 6210.48 6377.45 4182.05 4502.12 3255.93 6853.07 6327.61 4633.59 5733.59 5575.8 5268.93 3695.72 6874.6 5106.9 5306.31 5523.96 4223.53 4733.37 4535.94 3037.72 4523.9 5126.08 5604.0 3760.4 4951.02 3919.47 4602.7 3783.35 4037.16 6395.63 4987.48 5943.61 4248.58 5479.17 5020.37 4542.25 4414.23 5233.88 4849.21 4785.55 3793.83 5245.4 6189.81 5367.05 4449.73 5647.11 4088.72 3945.62 3743.85 6236.46 5342.17 6379.3 5015.67 3795.63 5189.4 4576.71 6538.04 4894.15 6157.59 5201.3 5848.41 4090.28 4246.83 5438.6 7370.52 4726.5 5467.05 3724.23 5103.3 4963.88 5888.94 4727.98 4122.2 5175.88 4516.26 4790.16 3509.34 3647.26 3731.58 3166.37 5369.42 5207.08 5205.53 4714.52 4587.19 5543.05 6028.89 5333.16 4888.17 5755.98 5392.85 5077.2 4274.05 5275.27 4277.54 5529.09 4531.46 5925.82 5448.68 4739.5 4072.95 4491.62 3865.5 
SCALARS Velocity float 1
LOOKUP_TABLE default
1.21266 1.19183 1.19182 1.19178 1.19178 1.20501 1.19178 1.19178 1.19178 1.19178 1.19178 1.19178 1.19178 1.19178 1.19178 1.19178 1.19178 1.19178 1.19178 1.19178 1.19178 1.19178 1.19178 1.19178 1.19178 1.19178 1.19178 1.19178 1.19178 1.19178 1.1918 1.19178 1.19178 1.19178 1.19178 1.19178 1.19178 1.19178 1.19178 1.19166 1.19612 1.1926 1.19716 1.19336 1.17364 1.19622 1.1996 1.18149 1.21301 1.19627 1.20586 1.21031 1.22533 1.20883 1.23343 1.22768 1.21796 1.24951 1.26971 1.22538 1.22291 1.24144 1.19374 1.22086 1.21657 1.2177 1.19497 1.2027 1.19178 1.19178 1.19178 1.19178 1.19178 1.19178 1.19178 1.19178 1.19178 1.19178 1.19523 1.20058 1.19002 1.19708 1.19212 1.19594 1.22447 1.21302 1.1979 1.19968 1.18529 1.1941 1.19146 1.21269 1.2232 1.19077 1.19246 1.19168 1.19204 1.1896 1.19201 1.19629 1.199 1.21632 1.20542 1.18056 1.20324 1.22426 1.22621 1.24554 1.21397 1.2243 1.22503 1.2493 1.24524 1.26904 1.19178 1.19178 1.31747 1.31479 1.21118 1.22766 1.19178 1.2286 1.23387 1.22814 1.25884 1.25904 1.21544 1.23707 1.24315 1.24226 1.21591 1.23631 1.21514 1.1558 4.68163 1.18973 1.15413 1.18471 1.19243 1.18398 1.19623 1.21893 1.19178 1.19178 1.19178 1.19178 1.1918 1.19178 1.19196 1.19181 1.19178 1.19194 1.19178 1.21822 1.19178 1.19183 1.19178 1.22201 1.19178 1.19178 1.19178 1.19178 1.2017 1.19178 1.19178 1.21222 1.19178 1.22071 4.176 1.19178 1.20138 1.18761 1.22948 1.18883 1.23689 1.18628 1.18097 1.25484 1.19072 1.1867 1.16985 1.19178 1.20444 1.19177 1.20975 1.23426 1.23155 1.19929 1.20445 1.18855 1.19178 1.1909 1.21832 1.22023 1.21556 1.19178 1.1912 1.2423 1.24149 1.19178 1.19178 1.23199 1.21249 1.23856 1.19178 1.18637 1.29465 1.25587 1.22139 1.24478 1.24398 1.23662 1.25941 1.21611 1.21278 1.1947 1.19741 1.26427 1.26707 1.23861 1.22561 1.21715 1.29922 1.23249 1.19178 1.23709 1.22727 1.2238 1.17866 1.24414 1.22093 1.23105 1.24649 1.21306 1.22682 1.19178 1.28851 1.26283 1.26483 1.28345 1.28624 1.23329 1.23895 1.20816 1.20377 1.20474 1.23662 1.191 1.21817 1.21717 1.19795 1.19083 1.19365 1.21018 1.19163 1.21376 1.19195 1.21643 1.19178 1.19178 1.21656 1.19178 1.20343 1.20774 1.20118 1.20815 1.21262 1.19633 1.1909 1.19549 1.2008 1.20805 1.19345 1.22509 1.23074 1.22938 1.21879 1.24541 1.22357 1.2051 1.23439 1.23861 1.1926 1.19177 1.22915 1.23111 1.23075 1.21098 1.23062 1.22906 1.19107 1.24946 1.20503 1.19558 1.20926 1.22801 1.22601 1.20276 1.17992 1.1789 1.20114 1.24195 1.22111 1.21524 1.19951 1.20453 1.19066 1.16019 1.25458 1.16758 1.23791 1.21881 1.20099 1.27147 1.23705 1.25263 1.22844 1.24707 1.25655 1.23816 1.26522 1.19484 1.23206 1.2257 1.21966 1.2338 1.22541 1.21973 1.24239 1.19173 1.17994 1.19178 1.22714 1.19178 1.2191 1.14879 1.26059 1.2221 1.20926 1.19178 1.24327 1.28048 1.23948 1.20528 1.25469 1.23807 1.23479 1.26119 1.19137 1.22045 1.19296 1.21062 1.20106 1.23894 1.23641 1.1964 1.23369 1.23639 1.21488 1.19256 1.21604 1.19098 1.19207 1.19126 1.21879 1.22106 1.19178 1.19281 1.1904 1.20126 1.2053 1.2123 1.18793 1.21873 1.23686 1.24557 1.25594 1.22663 1.21369 1.21698 1.22308 1.22318 1.22767 1.13777 1.20881 1.21922 1.19673 1.25428 1.22247 1.24112 1.22077 1.18975 1.16633 1.24921 1.18465 1.20689 1.24258 1.21497 1.20435 1.24155 1.19731 1.1847 1.21586 1.19178 1.19178 1.19178 1.20325 1.23166 1.23317 1.19642 1.19274 1.16946 1.21261 1.22442 1.23997 1.20064 1.19496 1.21136 1.23549 1.25619 1.19641 1.24351 1.18317 1.21585 1.23372 1.23982 1.18595 1.25481 1.19632 1.25285 1.15858 1.21873 1.21219 1.23425 1.20356 1.22414 1.20501 1.18918 1.26473 1.22698 1.21373 1.14424 1.21151 1.19545 1.22121 1.2304 1.23475 1.24149 1.25049 1.26155 1.23065 1.15711 1.21115 1.19737 1.23089 1.21267 1.21869 1.21409 1.19178 1.22132 1.19168 1.19812 1.22699 1.21642 1.21699 1.21514 1.22235 1.2303 1.2045 1.18385 1.15945 1.23238 1.24213 1.24491 1.22496 1.21024 1.20098 1.21605 1.2202 1.17186 1.21712 1.17519 1.19076 1.21726 1.14788 1.17684 1.21172 1.25374 1.21536 1.22809 1.23668 1.20127 1.19685 1.24265 1.23991 1.22338 1.22478 1.19989 1.16505 1.19161 1.14377 1.2019 1.23035 1.1792 1.16999 1.22612 1.23686 1.19953 1.19643 1.17438 1.19754 1.20391 1.21101 1.21481 1.20302 1.27192 1.24415 1.24005 1.24088 1.14462 1.19511 1.15206 1.20298 1.3058 1.19178 1.16399 1.21227 1.23397 1.1941 1.22393 1.1831 1.17525 1.23065 1.18112 1.22761 1.18486 1.19768 1.22405 1.18675 1.18425 1.22254 1.18955 1.23249 1.27463 1.24036 1.25042 1.23617 1.26499 1.22569 1.22035 1.22166 1.20521 1.16086 1.21214 1.22389 1.19241 1.1709 1.22891 1.20181 1.19478 1.21131 1.18628 1.18298 1.22315 1.22431 1.22323 1.22053 1.21375 1.2167 1.21484 1.19926 1.19157 1.24295 1.21919 1.20384 1.166 1.18621 1.21755 1.21214 1.21635 1.24308 1.21916 1.20362 1.19015 1.20556 1.17429 1.21433 1.16682 1.16159 1.20626 1.20778 1.18668 1.18076 1.20254 1.1758 1.23308 1.20903 1.20916 1.20846 1.20208 1.18921 1.1994 1.22128 1.22332 1.18998 1.20669 1.19811 1.19283 1.16363 1.12193 1.22125 1.2398 1.18588 1.16581 1.19192 1.20925 1.22797 1.15732 1.20915 1.16473 1.25874 1.19937 1.19178 1.2134 1.20008 1.2103 1.23201 1.23996 1.1846 1.21337 1.21921 1.17905 1.17581 1.19256 1.2144 1.19002 1.1755 1.19538 1.22859 1.18533 1.17321 1.19349 1.19721 1.23026 1.16322 1.22246 1.2163 1.20321 1.17656 1.211 1.22336 1.18503 1.19364 1.23199 1.22403 1.15917 1.22147 1.21124 1.19178 1.19822 1.216 1.11176 1.19639 1.26852 1.18576 1.20839 1.21384 1.23927 1.22433 1.20187 1.18675 1.20168 1.21708 1.17205 1.20676 1.15536 1.1894 1.19075 1.19817 1.1804 1.17849 1.21886 1.18957 1.19833 1.21177 1.18246 1.20587 1.2282 1.20267 1.18057 1.22112 1.23488 1.18165 1.1995 1.19178 1.15945 1.23072 1.23404 1.19356 1.2503 1.20334 1.1701 1.23265 1.14328 1.1777 1.20074 1.1614 1.20422 1.20876 1.20007 1.17595 1.16533 1.22196 1.18171 1.30288 1.30321 1.19575 1.23219 1.16998 1.21231 1.2176 1.18075 1.14646 1.19052 1.18705 1.21597 1.19178 1.18028 1.18075 1.18767 1.19178 1.19326 1.28531 1.18497 1.2202 1.16303 1.19178 1.18019 1.1821 1.17134 1.19259 1.22532 1.21667 1.20154 1.18978 1.19815 1.20648 1.12782 1.20322 1.21992 1.20702 1.18395 1.21324 1.22171 1.20939 1.20184 1.15368 1.21678 1.21743 1.20477 1.20275 1.21193 1.2198 1.22645 1.21716 1.23694 1.14842 1.23782 1.15064 1.2147 1.21471 1.19074 1.20205 1.19805 1.19844 1.18914 1.19274 1.21019 1.17328 1.22413 1.23074 1.1673 1.18627 1.19736 1.18018 1.18459 1.18007 1.19535 1.20793 1.18232 1.20541 1.21875 1.20788 1.19845 1.16563 1.2439 1.22288 1.20976 1.22668 1.17822 1.19246 1.18092 1.19178 1.15547 1.1742 1.22489 1.22838 1.25099 1.20984 1.17803 1.19325 1.19412 1.1564 1.1636 1.1889 1.15609 1.20442 1.20588 1.20389 1.19399 1.21951 1.16084 1.18544 1.14857 1.1947 1.24692 1.1649 1.18298 1.1784 1.3045 1.23852 1.20722 1.25355 1.20886 1.2174 1.21388 1.21312 1.18311 1.20928 1.15381 1.18154 1.27926 1.14329 1.19596 1.17516 1.17942 1.16536 1.18632 1.21708 1.13584 1.18859 1.16789 1.18796 1.18389 1.12727 1.23645 1.19198 1.20988 1.21837 1.18054 1.18311 1.22268 1.19291 1.1912 1.19178 1.14932 1.21493 1.12459 1.19096 1.19424 1.20158 1.21193 1.20591 1.21116 1.21941 1.21429 1.19544 1.17468 1.16676 1.15185 1.19202 1.1945 1.19047 1.1871 1.18149 1.19581 1.19071 1.15678 1.20938 1.189 1.15174 1.23474 1.1703 1.1561 1.19529 1.18161 1.1852 1.19178 1.17098 1.17568 1.20386 1.1914 1.21284 1.20943 1.19888 1.20803 1.16293 1.21831 1.19425 1.23891 1.19987 1.20537 1.19178 1.24588 1.15103 1.22142 1.17335 1.19379 1.2862 1.20504 1.16242 1.079 1.17777 1.25371 1.17707 1.15651 1.19856 1.20395 1.18588 1.13068 1.14403 1.23621 1.19514 1.17061 1.18539 1.17664 1.17987 1.16733 1.23637 1.26496 1.22064 1.1597 1.20287 1.21458 1.21119 1.21557 1.1348 1.20639 1.13416 1.21251 1.16082 1.20041 1.17261 1.10872 1.08199 1.18122 1.21584 1.1699 1.16252 1.1546 1.18362 1.14216 1.14288 1.19548 1.1701 1.15392 1.16032 1.20417 1.18066 1.18255 1.20941 1.17359 1.21811 1.22275 1.2394 1.18786 1.19113 1.1713 1.21721 1.22521 1.19033 1.2035 1.20458 1.21208 1.21801 1.19236 1.21752 1.17026 1.2163 1.19178 1.19178 1.19218 1.18791 1.1916 1.15807 1.18134 1.17695 1.16289 1.15887 1.19349 1.20105 1.20658 1.15893 1.23838 1.19223 1.24585 1.15964 1.24365 1.17801 1.1468 1.17485 1.20163 1.18299 1.17494 1.17789 1.19123 1.20908 1.21082 1.21231 1.19868 1.21507 1.19088 1.23865 1.17811 1.18338 1.15357 1.24441 1.14559 1.2149 1.17339 1.18231 1.2078 1.2229 1.23921 1.19538 1.18296 1.17301 1.15436 1.19844 1.19203 1.17222 1.20069 1.20876 1.1596 1.21018 1.2406 1.27599 1.17279 1.17451 1.22251 1.28456 1.2119 1.15567 1.15857 1.20147 1.2101 1.22259 1.19243 1.28419 1.21073 1.22065 1.16548 1.19178 1.19826 1.14648 1.27771 1.2106 1.24458 1.17282 1.14942 1.14801 1.14625 1.19041 1.16232 1.19349 1.18918 1.15025 1.20709 1.21459 1.17764 1.18673 1.14544 1.21463 1.15669 1.21364 1.23963 1.18368 1.21863 1.22746 1.19281 1.1988 1.18858 1.20096 1.21078 1.21646 1.21255 1.21103 1.17813 1.20415 1.23923 1.19273 1.18035 1.19178 1.20136 1.17321 1.18973 1.17557 1.22537 1.14801 1.21681 1.20603 1.19178 1.19178 1.2418 1.18004 1.16946 1.1958 1.17882 1.21653 1.20883 1.22164 1.20982 1.20991 1.19581 1.20769 1.1873 1.18796 1.23701 1.18482 1.24606 1.14255 1.17908 1.22569 1.19824 1.16221 1.20443 1.23649 1.21132 1.19178 1.16052 1.17216 1.15573 1.18449 1.17274 1.20345 1.17553 1.26826 1.17179 1.14561 1.21229 1.12181 1.10479 1.20925 1.17472 1.15141 1.19233 1.19634 1.21279 1.1863 1.27953 1.19973 1.21443 1.15229 1.16943 1.21278 1.21645 1.26818 1.1748 1.15503 1.17942 1.09529 1.2012 1.18967 1.17109 1.14418 1.17726 1.18178 1.22004 1.20041 1.16877 1.17749 1.1608 1.29214 1.17918 1.14601 1.21251 1.21145 1.21015 1.22232 1.20865 1.16836 1.1993 1.20958 1.20915 1.19713 1.2192 1.16534 1.15334 1.20303 1.23007 1.17935 1.21427 1.15132 1.16127 1.15806 1.26645 1.18736 1.21487 1.19439 1.2071 1.14689 1.0846 1.23788 1.19984 1.19376 1.19695 1.23297 1.18329 1.21669 1.17872 1.20584 1.21438 1.2098 1.21657 1.20817 1.19524 1.20149 1.2221 1.21464 1.21423 1.11579 1.24174 1.18285 1.2323 1.16228 1.20415 1.16497 1.15774 1.20964 1.20569 1.22943 1.14299 1.16004 1.19318 1.17106 1.19786 1.19311 1.1774 1.12602 1.11774 1.1672 1.24236 1.14793 1.1669 1.12726 1.17542 1.19966 1.31689 1.19416 1.17551 1.20643 1.21041 1.18393 1.2054 1.21913 1.19188 1.28 1.19416 1.21903 1.1449 1.21171 1.21189 1.26227 1.2574 1.17639 1.17545 1.24567 1.18074 1.16215 1.16053 1.17789 1.13158 1.17782 1.18312 1.18392 1.18658 1.21995 1.19108 1.16607 1.20192 1.19232 1.17403 1.26133 1.14466 1.18153 1.19206 1.19753 1.21355 1.18671 1.15413 1.20849 1.15152 1.19718 1.20981 1.2011 1.18744 1.18002 1.17011 1.22672 1.16685 1.21858 1.15745 1.153 1.15563 1.20278 1.22147 1.18933 1.1467 1.20973 1.19178 1.19178 1.18939 1.21592 1.20286 1.20629 1.21891 1.18861 1.20778 1.16849 1.18471 1.2087 1.21486 1.21592 1.21077 1.19279 1.22934 1.21376 1.19178 1.19178 1.14458 1.19233 1.16401 1.20331 1.1464 1.16593 1.20831 1.18123 1.1484 1.20332 1.22397 1.21272 1.1548 1.17349 1.19763 1.24703 1.13025 1.16273 1.19178 1.12605 1.19178 1.16159 1.19746 1.18413 1.19418 1.17573 1.21387 1.20668 1.27293 1.18707 1.24942 1.15788 1.2477 1.22492 1.18214 1.2567 1.17815 1.16892 1.19772 1.18318 1.18138 1.17092 1.18214 1.16907 1.12983 1.176 1.20434 1.1847 1.20768 1.19358 1.16836 1.19178 1.17387 1.25821 1.14324 1.17782 1.19199 1.19481 1.21942 1.16498 1.13745 1.14728 1.15019 1.13967 1.15554 1.19955 1.20635 1.18505 1.17481 1.27796 1.23015 1.20926 1.19327 1.23378 1.21318 1.16217 1.13558 1.26731 1.20886 1.26143 1.18137 1.22326 1.20532 1.21391 1.20982 1.21455 1.16525 1.19271 1.19122 1.17533 1.20076 1.21288 1.23595 1.2062 1.20346 1.20963 1.11989 1.13873 1.22443 1.24191 1.2622 1.1443 1.19863 1.21607 1.14523 1.17795 1.17687 1.18149 1.22015 1.21559 1.19036 1.14229 1.18643 1.21614 1.20421 1.14112 1.20264 1.19153 1.16961 1.14086 1.1251 1.2097 1.12374 1.15946 1.15184 1.17622 1.17511 1.19432 1.17681 1.18971 1.13385 1.15774 1.1688 1.18549 1.18909 1.16766 1.25774 1.14661 1.23056 1.2443 1.25677 1.16359 1.18312 1.18195 1.17518 1.18214 1.17171 1.20575 1.18497 1.19636 1.18599 1.16894 1.17285 1.17638 1.25634 1.17472 1.17659 1.18196 1.1665 1.2034 1.12848 1.15988 1.15909 1.13818 1.16382 1.19461 1.19178 1.20978 1.18435 1.18068 1.18561 1.17414 1.1812 1.19923 1.16827 1.19104 1.14773 1.13471 1.21602 1.18742 1.18234 1.11278 1.13482 1.23123 1.19178 1.17349 1.21853 1.18351 1.21251 1.20871 1.22232 1.1759 1.1933 1.17435 1.18856 1.20524 1.22971 1.24914 1.23588 1.1913 1.20545 1.14064 1.23002 1.2534 1.16467 1.29782 1.2265 1.23728 1.15958 1.23367 1.19178 1.1777 1.17619 1.20319 1.21464 1.19178 1.18625 1.24079 1.21466 1.13587 1.09814 1.17313 1.25571 1.25297 1.14449 1.19228 1.1708 1.18757 1.14974 1.18901 1.13118 1.14696 1.23391 1.17911 1.17706 1.18382 1.15639 1.25169 1.18055 1.23043 1.23376 1.09923 1.10211 1.24841 1.17929 1.18131 1.1724 1.14821 1.14985 1.18743 1.18706 1.20097 1.16887 1.21761 1.19462 1.16929 1.18241 1.18058 1.19212 1.1764 1.18546 1.16245 1.17635 1.19128 1.15842 1.22343 1.10809 1.21163 1.22433 1.17919 1.18789 1.17444 1.1914 1.19328 1.17036 1.20661 1.19895 1.29411 1.17954 1.18195 1.21082 1.16426 1.21218 1.14715 1.21688 1.15869 1.21399 1.18255 1.2135 1.22389 1.21281 1.20807 1.16414 1.15133 1.26543 1.24396 1.2523 1.12963 1.20503 1.18538 1.19974 1.23085 1.2588 1.2342 1.23204 1.23694 1.18201 1.21975 1.09897 1.16629 1.19507 1.2201 1.23051 1.17141 1.18485 1.21587 1.10182 1.19389 1.14469 1.19896 1.19178 1.06992 1.07039 1.20132 1.1314 1.18647 1.15076 1.13707 1.18266 1.19142 1.14745 1.18229 1.19178 1.19787 1.11029 1.12465 1.21283 1.1838 1.14599 1.24863 1.17581 1.26288 1.23265 1.19178 1.2403 1.18335 1.18381 1.21866 1.18438 1.19363 1.17609 1.15503 1.1819 1.18165 1.14765 1.17328 1.17724 1.16707 1.18942 1.17835 1.19233 1.19525 1.19014 1.17862 1.17616 1.14475 1.16184 1.11525 1.19911 1.19178 1.19178 1.1829 1.18573 1.19148 1.18796 1.18946 1.20712 1.18537 1.23091 1.19461 1.18771 1.22163 1.23029 1.19134 1.19642 1.17676 1.14398 1.19178 1.20847 1.18706 1.2111 1.23044 1.17876 1.22534 1.17816 1.11853 1.20806 1.30103 1.16562 1.15449 1.19703 1.19449 1.23154 1.25538 1.22565 1.18364 1.24137 1.17163 1.22489 1.18907 1.16293 1.17388 1.19473 1.18769 1.17858 1.17031 1.17373 1.18061 1.14934 1.19178 1.18676 1.23508 1.15587 1.16404 1.13713 1.19887 1.21124 1.17429 1.16578 1.17853 1.19104 1.14972 1.13587 1.19178 1.12983 1.19781 1.17711 1.19178 1.20976 1.14174 1.23867 1.23657 1.22404 1.18368 1.18708 1.22321 1.19245 1.19276 1.18377 1.18419 1.18121 1.14766 1.18267 1.17638 1.16527 1.17076 1.15358 1.16145 1.19602 1.17566 1.13391 1.19911 1.18807 1.18227 1.1582 1.18442 1.16901 1.17329 1.09375 1.18693 1.18578 1.19507 1.20689 1.19178 1.19178 1.18309 1.1864 1.21211 1.21707 1.18104 1.22995 1.18866 1.18596 1.20862 1.24547 1.14201 1.18498 1.21526 1.22008 1.15371 1.15233 1.20217 1.33254 1.19423 1.21959 1.19879 1.24216 1.14957 1.15166 1.2715 1.15195 1.15484 1.16478 1.20641 1.19506 1.19022 1.22025 1.24466 1.22809 1.19242 1.19664 1.16319 1.2145 1.23877 1.17877 1.17484 1.39987 1.21465 1.15756 1.17237 1.17315 1.17211 1.16521 1.23102 1.14537 1.19442 1.24157 1.23447 1.20335 1.13629 1.19027 1.20147 1.16425 1.18279 1.16224 1.10174 1.1681 1.13189 1.13048 1.14278 1.18321 1.19486 1.14113 1.22076 1.2247 1.18509 1.18148 1.21262 1.21589 1.18865 1.22801 1.1926 1.19178 1.1803 1.29001 1.27801 1.16793 1.17112 1.19107 1.19178 1.16544 1.16358 1.18393 1.19624 1.1875 1.1918 1.19188 1.18041 1.18891 1.1871 1.15207 1.16874 1.15395 1.19378 1.17789 1.18539 1.19329 1.19935 1.19102 1.1979 1.16439 1.18856 1.23954 1.2088 1.17452 1.16525 1.21922 1.21153 1.17703 1.19173 1.20221 1.24463 1.25387 1.2437 1.2345 1.21997 1.07609 1.18004 1.32933 1.18772 1.21612 1.1936 1.09092 1.22349 1.23194 1.12471 1.23427 1.23745 1.21738 1.13441 1.14935 1.16617 1.19982 1.19424 1.16468 1.23164 1.17859 1.21754 1.18024 1.20208 1.21912 1.16235 1.17792 1.16358 1.26018 1.26161 1.16637 1.16276 1.17626 1.16403 1.2391 1.16792 1.24547 1.24016 1.23194 1.18858 1.1809 1.11635 1.19237 1.20182 1.06106 1.26461 1.1165 1.18168 1.21661 1.19018 1.20589 1.20361 1.18271 1.22295 1.19573 1.19818 1.19433 1.21453 1.18188 1.22535 1.2078 1.17581 1.18826 1.19967 1.19645 1.11358 1.19311 1.16548 1.17612 1.18661 1.16265 1.20461 1.1962 1.18917 1.1904 1.19178 1.19138 1.21194 1.18221 1.18482 1.21248 1.1991 1.22627 1.10924 1.20377 1.13587 1.20695 1.22026 1.18019 1.2346 1.20371 1.19227 1.18921 1.18363 1.19353 1.25208 1.20805 1.24532 1.23151 1.22747 1.23858 1.23448 1.09396 1.2206 1.22821 1.14691 1.2741 1.18145 1.27552 1.17426 1.29786 1.171 1.19154 1.20621 1.20041 1.19325 1.15271 1.22215 1.19598 1.21289 1.19304 1.16661 1.12523 1.1989 1.21073 1.16729 1.18179 1.20254 1.24474 1.25388 1.19093 1.21844 1.21387 1.2394 1.20323 1.15345 1.23775 1.1829 1.16225 1.16173 1.11615 1.19178 1.20733 1.17272 1.17807 1.21543 1.25123 1.22223 1.20795 1.22182 1.19348 1.20464 1.28439 1.19726 1.17876 1.14346 1.21978 1.19352 1.19097 1.18302 1.19043 1.22562 1.22432 1.20598 1.17424 1.1928 1.20909 1.18199 1.08612 1.31021 1.16247 1.17686 1.18627 1.16206 1.20309 1.17481 1.19678 1.18621 1.20632 1.18589 1.17831 1.21918 1.19357 1.21836 1.21159 1.20571 1.18939 1.22009 1.22186 1.20732 1.21366 1.16687 1.23601 1.22193 1.18696 1.17813 1.20833 1.21568 1.1859 1.22198 1.20717 1.23033 1.22995 1.22755 1.24604 1.09803 1.23959 1.26242 1.18311 1.23826 1.13727 1.10118 1.20983 1.19178 1.27606 1.18453 1.18896 1.191 1.18782 1.21967 1.21382 1.20496 1.24556 1.23627 1.16314 1.20376 1.20865 1.20751 1.20563 1.19934 1.23452 1.24987 1.19193 1.21867 1.22588 1.2439 1.201 1.09902 1.22757 1.17775 1.1546 1.1176 1.16774 1.18714 1.19828 1.20184 1.20761 1.18919 1.2182 1.25747 1.20757 1.25292 1.18919 1.26545 1.18901 1.18941 1.18896 1.19178 1.19579 1.18748 1.18745 1.17629 1.18508 1.22195 1.16026 1.21175 1.19281 1.20602 1.17628 1.19178 1.19178 1.19178 1.18265 1.1872 1.2122 1.20331 1.17523 1.18213 1.18587 1.17998 1.21183 1.16901 1.21771 1.22231 1.19323 1.21369 1.19617 1.17269 1.22393 1.22118 1.21697 1.19932 1.21389 1.16245 1.2369 1.21399 1.18417 1.17482 1.22933 1.20279 1.17119 1.2204 1.20445 1.23277 1.19178 1.21401 1.21079 1.14425 1.27234 1.28563 1.19465 1.18893 1.16804 1.24199 1.09553 1.11672 1.27926 1.21862 1.18494 1.18747 1.17228 1.20839 1.21676 1.13346 1.14806 1.18394 1.24753 1.19178 1.16858 1.20751 1.28783 1.17403 1.20987 1.225 1.24261 1.18846 1.2086 1.22519 1.23709 1.19433 1.19178 1.22401 1.18329 1.21583 1.12195 1.18279 1.21388 1.20991 1.20897 1.20062 1.22817 1.23829 1.24455 1.19391 1.22886 1.18074 1.19499 1.19175 1.19572 1.17315 1.16175 1.16628 1.17834 1.1751 1.16783 1.16369 1.16508 1.20864 1.19056 1.20406 1.17555 1.1911 1.19181 1.19178 1.18893 1.18697 1.2099 1.19055 1.20699 1.18584 1.20956 1.16989 1.23455 1.20564 1.19542 1.20083 1.19632 1.1496 1.22953 1.19189 1.18295 1.18349 1.21174 1.15661 1.1958 1.22158 1.19551 1.1981 1.25232 1.20183 1.17503 1.22197 1.25351 1.24071 1.17056 1.2289 1.16118 1.15661 1.26674 1.2074 1.18371 1.15224 1.24528 1.25431 1.06145 1.26321 1.20299 1.1828 1.19466 1.17813 1.17656 1.18558 1.25265 1.21803 1.15426 1.19738 1.22168 1.18356 1.20449 1.21359 1.23781 1.19216 1.20334 1.21688 1.22124 1.18399 1.21602 1.23566 1.19577 1.20099 1.1968 1.22068 1.20127 1.22875 1.21886 1.19578 1.25722 1.21833 1.218 1.17874 1.22419 1.18151 1.24895 1.17378 1.1613 1.16725 1.16989 1.19834 1.17122 1.20891 1.21015 1.20089 1.19229 1.19178 1.19178 1.19178 1.19361 1.20905 1.20959 1.20979 1.19462 1.2276 1.20332 1.18503 1.20923 1.17922 1.23012 1.1922 1.19804 1.19023 1.14884 1.17871 1.23153 1.18311 1.18694 1.16 1.20063 1.21208 1.19035 1.19554 1.17474 1.19146 1.19178 1.2601 1.15481 1.17977 1.22817 1.19345 1.21549 1.23595 1.19784 1.18835 1.20875 1.1491 1.20831 1.24045 1.36005 1.08948 1.11754 1.20047 1.17418 1.18898 1.19655 1.17893 1.12647 1.1755 1.17665 1.20357 1.18363 1.16639 1.18942 1.2085 1.18983 1.21812 1.19974 1.23518 1.2052 1.21834 1.16861 1.21377 1.18921 1.25174 1.20656 1.22993 1.21854 1.22705 1.22149 1.18725 1.19901 1.21814 1.20557 1.18805 1.22038 1.2101 1.19554 1.20111 1.18511 1.23596 1.19486 1.16912 1.23902 1.21509 1.18831 1.19354 1.17816 1.18185 1.1106 1.17214 1.20219 1.22639 1.2196 1.19767 1.19303 1.19217 1.19157 1.19178 1.20018 1.21011 1.20705 1.18002 1.22726 1.19178 1.1823 1.19178 1.19178 1.18724 1.18479 1.18706 1.19544 1.19043 1.20885 1.17436 1.175 1.21533 1.19928 1.1668 1.19784 1.21983 1.18501 1.20049 1.18551 1.19567 1.18835 1.19003 1.19755 1.19725 1.26458 1.14043 1.17044 1.20796 1.19481 1.21928 1.21014 1.05877 1.21175 1.16134 1.18293 1.16402 1.22482 1.20665 1.20204 1.27099 1.19261 1.18152 1.1944 1.17976 1.1733 1.11386 1.13419 1.4045 1.16976 1.20269 1.15093 1.16417 1.18891 1.20571 1.15898 1.21914 1.18184 1.2381 1.21166 1.21891 1.19284 1.22116 1.19823 1.1932 1.20337 1.20973 1.18742 1.15861 1.22009 1.20079 1.19867 1.19343 1.21643 1.19796 1.18887 1.18198 1.17845 1.17782 1.17701 1.23315 1.21265 1.20119 1.19436 1.18895 1.18103 1.1864 1.19179 1.20813 1.21637 1.15499 1.23637 1.21716 1.20135 1.19282 1.19254 1.19165 1.19207 1.20944 1.21096 1.20006 1.18469 1.2244 1.22548 1.19904 1.17771 1.18912 1.19178 1.19178 1.19178 1.20935 1.20311 1.20379 1.25882 1.17277 1.18947 1.20723 1.17478 1.18195 1.1866 1.18965 1.17837 1.19642 1.19483 1.21615 1.18068 1.17004 1.18795 1.26918 1.14516 1.1788 1.20884 1.21229 1.18596 1.20663 1.04493 1.19499 1.26201 1.16358 1.22531 1.19178 1.1812 1.16101 1.19785 1.17516 1.17685 1.19594 1.17783 1.1772 1.15038 1.16387 1.19642 1.15015 1.18503 1.20656 1.15288 1.21372 1.16563 1.24939 1.22412 1.22056 1.18826 1.2109 1.17499 1.10638 1.19478 1.19294 1.23476 1.24924 1.219 1.20187 1.14869 1.16361 1.19539 1.18385 1.17905 1.21439 1.18675 1.11808 1.1808 1.17268 1.17098 1.10729 1.19889 1.21619 1.17868 1.18959 1.20635 1.18016 1.18194 1.22806 1.20147 1.18712 1.24247 1.21518 1.2076 1.19856 1.18011 1.18541 1.19194 1.22577 1.15619 1.21072 1.20055 1.22069 1.22591 1.22462 1.27508 1.19584 1.32328 1.20152 1.21588 1.19642 1.21559 1.20603 1.17095 1.18275 1.18947 1.20711 1.17464 1.17767 1.18231 1.18106 1.19854 1.23154 1.16434 1.18256 1.18184 1.14885 1.20373 1.17783 1.22581 1.20038 1.19286 1.1942 1.24277 1.16257 1.22457 1.20872 1.18319 1.16246 1.1713 1.21495 1.18496 1.18868 1.1606 1.23591 1.13662 1.15375 1.15493 1.1927 1.16305 1.18504 1.2124 1.20296 1.20594 1.14101 1.17454 1.13713 1.2456 1.21596 1.16339 1.20878 1.22087 1.23752 1.19165 1.19849 1.2744 1.18804 1.20933 1.20517 1.14372 1.16185 1.19248 1.18166 1.17119 1.18524 1.18646 1.12278 1.15188 1.19628 1.19697 1.15256 1.21752 1.20436 1.23165 1.17649 1.17293 1.22628 1.17863 1.19999 1.18649 1.1919 1.18467 1.19243 1.21284 1.21277 1.19319 1.19312 1.19143 1.19178 1.19178 1.15877 1.18206 1.21398 1.16435 1.2188 1.22459 1.28695 1.28469 1.19332 1.19998 1.20511 1.25124 1.21724 1.16811 1.13537 1.19497 1.17717 1.2046 1.1837 1.18851 1.19807 1.17523 1.15786 1.16311 1.19879 1.11881 1.12804 1.18562 1.18063 1.18133 1.15188 1.20443 1.16907 1.16003 1.20847 1.19348 1.19136 1.23426 1.20081 1.22379 1.15254 1.2305 1.16657 1.17531 1.16035 1.18403 1.18504 1.17513 1.235 1.15946 1.23623 1.16472 1.16305 1.19876 1.16866 1.28245 1.24826 1.20059 1.13852 1.22595 1.1384 1.22745 1.21537 1.14964 1.21384 1.22181 1.23535 1.34046 1.25932 1.10714 1.18977 1.21975 1.15081 1.18193 1.18848 1.18382 1.17046 1.19178 1.18357 1.14632 1.17753 1.21337 1.17228 1.16806 1.13309 1.23011 1.17451 1.18747 1.20536 1.17379 1.20813 1.18756 1.1884 1.24766 1.23494 1.20762 1.21874 1.19178 1.19652 1.18081 1.20903 1.17268 1.19718 1.27763 1.21756 1.19178 1.19178 1.20686 1.26804 1.28849 1.15894 1.20244 1.23962 1.19496 1.19443 1.2515 1.21993 1.146 1.18184 1.17063 1.21359 1.20986 1.21075 1.21197 1.17119 1.14609 1.20193 1.2179 1.1567 1.17456 1.17728 1.11403 1.1085 1.18115 1.1638 1.10984 1.17099 1.22836 1.20903 1.21683 1.141 1.16343 1.18068 1.18083 1.17789 1.173 1.17525 1.19272 1.18625 1.23578 1.18768 1.17541 1.22091 1.16993 1.27634 1.23556 1.19971 1.18195 1.28518 1.16896 1.21896 1.23117 1.21835 1.23305 1.2261 1.19178 1.2794 1.2059 1.12743 1.25064 1.17413 1.20918 1.18763 1.16842 1.16757 1.26461 1.17882 1.15851 1.196 1.21298 1.19349 1.19559 1.14641 1.21685 1.19412 1.17967 1.20859 1.19216 1.20539 1.19876 1.18969 1.193 1.23897 1.20088 1.21596 1.15859 1.19644 1.20687 1.19593 1.19324 1.21422 1.27793 1.1725 1.22367 1.15337 1.18026 1.26918 1.19109 1.18726 1.19963 1.24714 1.19891 1.25339 1.22399 1.1956 1.27858 1.17058 1.21753 1.20798 1.19178 1.19178 1.17052 1.20216 1.19216 1.20726 1.18068 1.18278 1.1553 1.19349 1.19004 1.14759 1.12004 1.10624 1.18746 1.15651 1.11697 1.17726 1.22477 1.1889 1.19305 1.22296 1.08781 1.09331 1.1615 1.20862 1.21433 1.22337 1.18395 1.18501 1.18138 1.23739 1.33098 1.19929 1.22431 1.19767 1.18532 1.26067 1.21184 1.18706 1.19045 1.22176 1.23497 1.22284 1.18675 1.23071 1.19178 1.21084 1.22526 1.1815 1.23097 1.18862 1.1749 1.26829 1.16974 1.19832 1.24939 1.1468 1.21624 1.13884 1.18923 1.19588 1.18781 1.20549 1.14748 1.23549 1.2958 1.1669 1.20139 1.18946 1.21814 1.19807 1.20283 1.20408 1.19178 1.19178 1.24004 1.21667 1.23469 1.19033 1.19185 1.19586 1.20071 1.20146 1.20741 1.21615 1.19175 1.19178 1.20507 1.17701 1.25105 1.27047 1.22154 1.2022 1.21961 1.23624 1.2465 1.21579 1.21839 1.17045 1.16072 1.2041 1.20304 1.20592 1.14812 1.16802 1.18039 1.19272 1.18969 1.17183 1.1698 1.19513 1.14103 1.13132 1.08864 1.21511 1.18183 1.15013 1.18337 1.19674 1.18941 1.15028 1.18567 1.07464 1.08339 1.14374 1.16909 1.20064 1.21246 1.17214 1.1925 1.17889 1.17815 1.17959 1.33473 1.20241 1.21864 1.20748 1.17288 1.25086 1.28401 1.16031 1.18439 1.20243 1.24669 1.24817 1.18463 1.22122 1.21117 1.22198 1.20349 1.18885 1.17715 1.1745 1.26875 1.22762 1.21323 1.28385 1.14016 1.22829 1.19243 1.17911 1.23748 1.19375 1.18908 1.1695 1.23351 1.29063 1.17254 1.21863 1.19051 1.2003 1.1907 1.20154 1.21411 1.16705 1.21346 1.26132 1.19871 1.24001 1.31106 1.18778 1.19609 1.19764 1.18715 1.20148 1.21888 1.2133 1.26373 1.23528 1.19983 1.23091 1.25819 1.21465 1.19395 1.23813 1.24215 1.22664 1.19218 1.17171 1.23335 1.16833 1.20306 1.20664 1.19766 1.18458 1.20251 1.2146 1.18952 1.20197 1.16812 1.1762 1.19178 1.19689 1.19304 1.22027 1.26019 1.19155 1.19178 1.17627 1.19277 1.14955 1.16325 1.17406 1.195 1.20937 1.15853 1.18437 1.20654 1.19178 1.19137 1.17987 1.20674 1.1847 1.32982 1.18221 1.18378 1.21097 1.17483 1.25543 1.14739 1.15425 1.18671 1.1972 1.2344 1.15748 1.1797 1.2109 1.20568 1.21307 1.19183 1.17219 1.16924 1.17832 1.16693 1.23444 1.22363 1.20199 1.13923 1.23598 1.23575 1.18107 1.22774 1.20511 1.18323 1.22416 1.17735 1.22982 1.16157 1.208 1.18679 1.20057 1.18763 1.19178 1.23177 1.20295 1.20319 1.25943 1.18085 1.24668 1.32815 1.19178 1.19602 1.19882 1.18844 1.19527 1.24042 1.21852 1.17242 1.23592 1.19368 1.24594 1.25644 1.21187 1.18106 1.25717 1.23939 1.20997 1.23337 1.1797 1.21436 1.21967 1.19492 1.21108 1.18179 1.21104 1.20075 1.208 1.17709 1.19434 1.16063 1.14271 1.22733 1.20576 1.17239 1.20071 1.26154 1.08566 1.20544 1.16186 1.17762 1.14753 1.1769 1.17295 1.18871 1.21764 1.15063 1.12159 1.14892 1.21445 1.18386 1.18475 1.23567 1.21529 1.19178 1.18643 1.17739 1.20407 1.17949 1.23465 1.22005 1.15459 1.16829 1.20049 1.22319 1.16212 1.19633 1.21377 1.2043 1.19689 1.17897 1.15588 1.16218 1.13568 1.1976 1.19991 1.22314 1.19919 1.14382 1.13735 1.21205 1.17782 1.17392 1.19441 1.19706 1.21388 1.155 1.17284 1.13302 1.14077 1.17119 1.1942 1.18191 1.19178 1.22468 1.2133 1.20113 1.26941 1.1839 1.22775 1.2697 1.321 1.21851 1.15904 1.2197 1.20093 1.18535 1.24408 1.23508 1.19413 1.23565 1.16095 1.24744 1.28132 1.19861 1.19654 1.16311 1.24494 1.21002 1.18722 1.28565 1.23925 1.2031 1.19634 1.22457 1.14685 1.23373 1.17709 1.20343 1.17352 1.19017 1.16028 1.14686 1.20916 1.21154 1.1769 1.1876 1.23055 1.26594 1.1993 1.16394 1.17481 1.15601 1.1639 1.16943 1.17755 1.20671 1.16767 1.1573 1.22448 1.20998 1.19744 1.1783 1.22809 1.20086 1.2011 1.18703 1.15733 1.20004 1.187 1.21383 1.22932 1.17005 1.14123 1.1923 1.2004 1.14436 1.19404 1.21272 1.19953 1.19064 1.17102 1.14625 1.16372 1.12868 1.19993 1.20332 1.22233 1.19709 1.14648 1.12869 1.23673 1.19574 1.16407 1.18517 1.18335 1.19914 1.22375 1.15014 1.08582 1.1642 1.17683 1.18677 1.17909 1.22875 1.2371 1.22896 1.20624 1.32587 1.22172 1.33168 1.10499 1.21241 1.17102 1.21953 1.14614 1.21193 1.14822 1.27041 1.21867 1.17154 1.22928 1.22116 1.26901 1.21602 1.2164 1.20402 1.27924 1.1781 1.18511 1.19178 1.23386 1.2044 1.19173 1.22374 1.19178 1.22282 1.18909 1.2115 1.16319 1.17429 1.36635 1.14794 1.20794 1.21012 1.16952 1.17436 1.18758 1.26332 1.19017 1.16293 1.16822 1.15884 1.1555 1.16883 1.1731 1.19178 1.16432 1.16312 1.15752 1.23571 1.21324 1.1751 1.18866 1.21085 1.19588 1.19375 1.13553 1.17117 1.20975 1.17709 1.24571 1.24719 1.16537 1.19145 1.15912 1.11366 1.18511 1.1864 1.18733 1.21394 1.17521 1.14218 1.08713 1.13526 1.20484 1.20145 1.22157 1.19588 1.14825 1.12997 1.19263 1.18352 1.17329 1.18449 1.18758 1.18581 1.21033 1.13967 1.08442 1.17758 1.17913 1.1679 1.17642 1.22486 1.23943 1.22288 1.19215 1.20282 1.22282 1.32562 1.20779 1.20546 1.19178 1.26954 1.29448 1.16487 1.25597 1.1669 1.16793 1.26389 1.18813 1.16494 1.19058 1.26085 1.22461 1.21114 1.20748 1.27172 1.14412 1.1962 1.21384 1.22913 1.20242 1.18952 1.22633 1.20836 1.22129 1.18435 1.19772 1.18885 1.19363 1.39014 1.20043 1.21172 1.1785 1.16771 1.166 1.18307 1.25865 1.17453 1.15616 1.16937 1.16116 1.15454 1.20335 1.1944 1.12834 1.18775 1.20199 1.15746 1.24249 1.19449 1.15835 1.11051 1.20701 1.17657 1.20145 1.14359 1.11601 1.16476 1.16547 1.24539 1.11915 1.19486 1.1919 1.13138 1.16148 1.14947 1.22182 1.17142 1.21747 1.17132 1.13081 1.1901 1.14631 1.10447 1.20123 1.24283 1.20302 1.21288 1.14465 1.2075 1.21371 1.19821 1.18442 1.18402 1.26751 1.24967 1.03085 1.14153 1.18887 1.15756 1.14512 1.17383 1.22024 1.16211 1.22345 1.17603 1.20319 1.21687 1.21821 1.20383 1.22376 1.2203 1.28098 1.1662 1.1732 1.2789 1.20887 1.20625 1.16635 1.1786 1.24173 1.24232 1.21098 1.06331 1.19147 1.20253 1.21726 1.2216 1.19881 1.18623 1.22018 1.22835 1.20697 1.18116 1.19602 1.15543 1.18807 1.20851 1.1931 1.17923 1.18318 1.16908 1.17161 1.18661 1.19178 1.17695 1.1626 1.17112 1.16123 1.16039 1.20082 1.15439 1.15406 1.20438 1.23433 1.18447 1.17498 1.17677 1.15433 1.1102 1.20592 1.18337 1.17908 1.15386 1.14046 1.14619 1.20748 1.04316 1.10602 1.18217 1.16027 1.12405 1.2138 1.12239 1.20543 1.16707 1.20298 1.17817 1.14484 1.1509 1.15451 1.11231 1.2031 1.1861 1.18168 1.21391 1.14582 1.19215 1.21592 1.17219 1.1771 1.19386 1.26489 1.24975 1.11625 1.15149 1.19416 1.16636 1.12826 1.17092 1.2124 1.22248 1.1587 1.19261 1.19226 1.19032 1.21085 1.31161 1.20044 1.19256 1.22847 1.23323 1.22461 1.28882 1.15991 1.16209 1.25846 1.2162 1.19909 1.1569 1.17296 1.23947 1.25249 1.14576 1.13567 1.1987 1.2045 1.20498 1.20697 1.19751 1.19903 1.18391 1.2515 1.2063 1.17305 1.18701 1.16672 1.18779 1.17759 1.18634 1.18122 1.1825 1.16389 1.17405 1.14926 1.18124 1.18603 1.21116 1.16828 1.17938 1.16152 1.2017 1.16279 1.15817 1.21101 1.16561 1.19223 1.16778 1.17711 1.165 1.11642 1.19942 1.18032 1.14038 1.17334 1.14502 1.18054 1.18392 1.18347 1.13522 1.21811 1.24535 1.08779 1.21134 1.12811 1.19024 1.12453 1.19178 1.1653 1.14775 1.13335 1.16632 1.12764 1.21241 1.18742 1.18553 1.21377 1.1516 1.20051 1.21234 1.15745 1.18383 1.13358 1.16456 1.21063 1.22992 1.17684 1.28705 1.16228 1.11459 1.16555 1.15597 1.2014 1.22183 1.19178 1.17768 1.18665 1.22329 1.14252 1.31192 1.24324 1.23127 1.23357 1.11197 1.20854 1.0851 1.23855 1.22503 1.19465 1.15388 1.16958 1.22261 1.248 1.11162 1.27285 1.18473 1.1901 1.19944 1.16276 1.21271 1.19694 1.15438 1.28419 1.20602 1.17164 1.18067 1.1681 1.16512 1.18393 1.17814 1.34831 1.1856 1.16029 1.17042 1.22037 1.13127 1.1854 1.19435 1.16853 1.19105 1.16107 1.20128 1.17146 1.16176 1.21071 1.17591 1.17643 1.17843 1.19291 1.1562 1.22021 1.19024 1.17622 1.14427 1.16962 1.14547 1.19301 1.18784 1.18996 1.19248 1.24708 1.24142 1.1461 1.20889 1.20065 1.17957 1.19178 1.1964 1.16742 1.20063 1.15217 1.19765 1.2092 1.20956 1.18388 1.21112 1.19842 1.16119 1.19824 1.19235 1.14787 1.16866 1.13575 1.16294 1.20606 1.13129 1.19717 1.23799 1.14933 1.10987 1.13087 1.23928 1.21192 1.15546 1.17638 1.15138 1.16655 1.19227 1.27179 1.22154 1.18687 1.28212 1.16836 1.13274 1.09655 1.23518 1.18857 1.19152 1.1668 1.17087 1.21545 1.2383 1.10266 1.29873 1.12018 1.13756 1.1957 1.16395 1.20068 1.21609 1.16318 1.29064 1.17667 1.16944 1.14158 1.16912 1.16365 1.19477 1.17286 1.1924 1.18711 1.17064 1.17107 1.21817 1.14701 1.18554 1.19661 1.16634 1.19522 1.16735 1.14477 1.17583 1.15916 1.18562 1.19231 1.17484 1.17496 1.17255 1.17469 1.14767 1.20835 1.16661 1.14767 1.16099 1.15724 1.13819 1.18845 1.18374 1.27922 1.19389 1.23751 1.21348 1.16897 1.1628 1.20753 1.16322 1.22675 1.1942 1.20344 1.16351 1.20911 1.20337 1.23357 1.18506 1.20293 1.18008 1.24208 1.20397 1.13187 1.20364 1.17228 1.14947 1.15938 1.12833 1.18831 1.19866 1.14443 1.25115 1.16872 1.13725 1.10443 1.14419 1.24137 1.15322 1.16385 1.14147 1.1745 1.16728 1.16595 1.22083 1.10665 1.21267 1.15376 1.13747 1.17085 1.11703 1.15059 1.21972 1.1728 1.15947 1.17473 1.16047 1.19256 1.16031 1.11652 1.16094 1.11365 1.12906 1.18425 1.19743 1.12776 1.20602 1.14548 1.20285 1.16786 1.17115 1.15001 1.17159 1.16193 1.20234 1.16472 1.18589 1.17742 1.16462 1.17133 1.19179 1.167 1.18274 1.1998 1.16701 1.19178 1.16832 1.1518 1.18921 1.17169 1.18023 1.17811 1.14723 1.2065 1.19154 1.18633 1.20458 1.1879 1.16997 1.1695 1.13958 1.18184 1.19111 1.19178 1.22906 1.21268 1.17821 1.20424 1.15911 1.17132 1.24455 1.16913 1.12386 1.1804 1.18735 1.20656 1.23405 1.19493 1.19902 1.17832 1.19177 1.19669 1.14877 1.21626 1.16996 1.18646 1.17892 1.12745 1.28969 1.19514 1.16713 1.32343 1.11879 1.1343 1.12687 1.24358 1.19178 1.14478 1.14126 1.13168 1.15517 1.16631 1.15611 1.16763 1.07829 1.05627 1.18168 1.17573 1.36219 1.09594 1.10498 1.19178 1.12582 1.15306 1.18637 1.15303 1.17174 1.14449 1.16457 1.19178 1.1188 1.11585 1.21302 1.23079 1.15706 1.11911 1.14619 1.222 1.17016 1.20559 1.14533 1.17472 1.16584 1.20903 1.16586 1.1943 1.17566 1.14723 1.18286 1.19832 1.18989 1.17378 1.19787 1.16272 1.17742 1.1675 1.23437 1.18015 1.19193 1.17332 1.17283 1.13159 1.2023 1.18426 1.19208 1.20409 1.19883 1.17635 1.19841 1.17046 1.157 1.14159 1.18505 1.18331 1.17032 1.21661 1.19472 1.16279 1.25179 1.16993 1.2384 1.16961 1.14827 1.17028 1.18948 1.19834 1.23348 1.19663 1.19279 1.18364 1.19664 1.20004 1.18955 1.22419 1.17104 1.21926 1.18872 1.17276 1.26275 1.20976 1.20132 1.12451 1.27155 1.08212 1.0993 1.2497 1.1799 1.13253 1.13081 1.12266 1.17212 1.18624 1.14915 1.16094 1.0839 1.15408 1.15171 1.16955 1.1814 1.18187 1.1076 1.1928 1.08684 1.15761 1.15847 1.16337 1.15131 1.13485 1.15445 1.18021 1.14502 1.10638 1.20962 1.19178 1.1567 1.14869 1.18031 1.20903 1.18858 1.12242 1.15473 1.18121 1.16362 1.20216 1.15616 1.19351 1.17139 1.15998 1.19045 1.18075 1.19638 1.16727 1.19174 1.15871 1.17837 1.163 1.23535 1.18035 1.18747 1.18832 1.18654 1.13607 1.19633 1.19178 1.19236 1.19438 1.16598 1.20019 1.1595 1.16174 1.19062 1.19939 1.17765 1.18632 1.19345 1.18566 1.15284 1.22125 1.15751 1.18568 1.24148 1.16724 1.21668 1.16358 1.19728 1.18958 1.2025 1.22935 1.19172 1.18614 1.17676 1.20359 1.16004 1.16993 1.23268 1.15045 1.1918 1.17673 1.1962 1.12356 1.20106 1.19178 1.12283 1.25317 1.08704 1.12648 1.19741 1.18101 1.14766 1.1201 1.11395 1.30012 1.21768 1.17745 1.16172 1.06745 1.16629 1.17424 1.14237 1.17715 1.23533 1.14229 1.19534 1.12137 1.15816 1.15753 1.16712 1.13507 1.1253 1.14214 1.1578 1.11453 1.16976 1.23288 1.14343 1.16459 1.14984 1.18442 1.19944 1.15972 1.14289 1.16527 1.19178 1.16397 1.19962 1.19178 1.18654 1.18788 1.17066 1.15704 1.25048 1.19467 1.171 1.19433 1.16621 1.21309 1.16801 1.16391 1.17317 1.18604 1.18843 1.19178 1.18124 1.20278 1.19522 1.16549 1.19727 1.1788 1.16304 1.21127 1.15063 1.16389 1.16572 1.16986 1.17354 1.18701 1.18723 1.18068 1.17113 1.18953 1.18635 1.18048 1.21646 1.17877 1.19733 1.15337 1.19641 1.22925 1.22694 1.16628 1.19195 1.17507 1.21429 1.20592 1.17795 1.23732 1.24425 1.14675 1.13908 1.1633 1.20856 1.12418 1.1913 1.16172 1.12816 1.19178 1.17304 1.13985 1.19178 1.16324 1.14571 1.10814 1.16571 1.23077 1.13167 1.13047 1.15433 1.09747 1.15255 1.06849 1.13438 1.16975 1.22994 1.15934 1.10789 1.13066 1.14317 1.14836 1.1666 1.1342 1.1676 1.16524 1.0566 1.19805 1.15963 1.1483 1.14188 1.1377 1.16985 1.18817 1.19574 1.16936 1.14198 1.16128 1.16425 1.18697 1.20189 1.19178 1.18502 1.18577 1.17092 1.15427 1.19854 1.19398 1.18467 1.19635 1.17589 1.19263 1.16834 1.193 1.16075 1.16667 1.20642 1.16713 1.19658 1.20619 1.13931 1.18952 1.21022 1.15269 1.15151 1.16242 1.16505 1.17382 1.17584 1.16444 1.17456 1.17223 1.16316 1.17411 1.18839 1.24091 1.17351 1.2088 1.12554 1.12456 1.17459 1.15868 1.19523 1.18081 1.21427 1.2031 1.20234 1.17212 1.17284 1.18351 1.15499 1.16255 1.19378 1.16929 1.17447 1.20685 1.1784 1.18694 1.19178 1.18727 1.14878 1.14117 1.15511 1.19025 1.18368 1.13309 1.19075 1.09524 1.14682 1.0872 1.1742 1.18809 1.24626 1.09973 1.13146 1.09978 1.14398 1.1282 1.16733 1.12455 1.15887 1.18254 1.05922 1.19441 1.14607 1.14709 1.13971 1.17523 1.14975 1.18287 1.2148 1.1995 1.19265 1.18186 1.18317 1.16367 1.19137 1.17909 1.1812 1.18374 1.18989 1.18058 1.18716 1.19056 1.19178 1.18299 1.19206 1.18171 1.19629 1.16628 1.19178 1.16205 1.16489 1.19479 1.16146 1.19076 1.18758 1.19485 1.13875 1.17505 1.19572 1.21426 1.15304 1.15601 1.15889 1.15306 1.16893 1.16551 1.17008 1.16746 1.14251 1.15021 1.16778 1.19351 1.17917 1.22509 1.14544 1.21234 1.15099 1.14287 1.18511 1.21473 1.15087 1.17011 1.19682 1.18035 1.21451 1.19816 1.18915 1.19109 1.18622 1.18356 1.17925 1.17325 1.15655 1.16582 1.17255 1.18219 1.19027 1.1989 1.214 1.20565 1.16725 1.20581 1.20269 1.19178 1.21037 1.10484 1.14543 1.13046 1.24767 1.16503 1.1424 1.07611 1.15834 1.14029 1.09109 1.17039 1.18937 1.24409 1.14197 1.14906 1.12639 1.09492 1.15923 1.17738 1.12953 1.14284 1.2898 1.07987 1.1511 1.13683 1.14284 1.15111 1.17555 1.13883 1.1929 1.16143 1.19732 1.17488 1.19169 1.19186 1.19126 1.17732 1.18355 1.19178 1.18609 1.19134 1.19178 1.19178 1.1818 1.19178 1.18282 1.19608 1.19601 1.16608 1.19266 1.16276 1.16494 1.19319 1.15336 1.17388 1.18453 1.18572 1.13625 1.17404 1.19582 1.21436 1.17698 1.15433 1.15619 1.14521 1.16302 1.14946 1.1412 1.13929 1.14023 1.14101 1.15628 1.17919 1.11582 1.15823 1.17162 1.22279 1.15934 1.15349 1.19127 1.17765 1.21025 1.15836 1.18563 1.17832 1.15964 1.15824 1.16711 1.17996 1.18656 1.20788 1.20643 1.16566 1.19178 1.1928 1.12129 1.19168 1.12487 1.19178 1.16429 1.14007 1.07171 1.15662 1.14276 1.09247 1.16798 1.18563 1.20043 1.152 1.17148 1.15884 1.10426 1.17 1.15088 1.12831 1.11511 1.18634 1.16106 1.11026 1.13812 1.12922 1.14865 1.17469 1.18819 1.18975 1.18125 1.19691 1.17545 1.18361 1.16781 1.1922 1.19577 1.17511 1.18597 1.20061 1.18691 1.19146 1.19178 1.19214 1.18132 1.18819 1.18398 1.16601 1.19242 1.19178 1.19178 1.1752 1.18103 1.19102 1.18197 1.18289 1.14024 1.17638 1.15069 1.17479 1.20689 1.18048 1.14832 1.14261 1.15971 1.14695 1.13304 1.10187 1.1361 1.13989 1.15214 1.1584 1.15625 1.18309 1.15014 1.15925 1.16895 1.19329 1.21424 1.15382 1.19178 1.17088 1.19631 1.15401 1.18185 1.18665 1.19298 1.15745 1.14955 1.19178 1.1683 1.18494 1.16912 1.18401 1.17938 1.19756 1.17952 1.19178 1.19176 1.19172 1.12166 1.19472 1.18981 1.14239 1.06948 1.17497 1.14441 1.10495 1.13731 1.18634 1.1268 1.16455 1.12392 1.19178 1.19178 1.16499 1.14511 1.12393 1.12053 1.19178 1.18274 1.14235 1.17713 1.12478 1.14893 1.17524 1.19178 1.18698 1.18658 1.19256 1.17603 1.18515 1.19178 1.1914 1.19231 1.17902 1.16209 1.19911 1.17447 1.18854 1.20294 1.20417 1.17653 1.18855 1.1835 1.19542 1.16524 1.20882 1.19491 1.20842 1.16638 1.18436 1.17424 1.1846 1.19026 1.15101 1.14966 1.18872 1.17922 1.17232 1.13918 1.12905 1.14942 1.16066 1.12628 1.13064 1.09906 1.13623 1.1599 1.16427 1.19178 1.15504 1.18303 1.19178 1.18119 1.15573 1.19165 1.19184 1.14955 1.18442 1.16842 1.19178 1.15262 1.17919 1.18423 1.15064 1.16733 1.14788 1.19222 1.16385 1.17347 1.17256 1.19583 1.17535 1.17845 1.19178 1.17873 
SCALARS Stress float 1
LOOKUP_TABLE default
-19258300000.0 -12550900000.0 -12550600000.0 -12549700000.0 -12549700000.0 -18970900000.0 -12549700000.0 -12549700000.0 -12549700000.0 -12549700000.0 -12549700000.0 -12549700000.0 -12549700000.0 -12549700000.0 -12549700000.0 -12549700000.0 -12549700000.0 -12549700000.0 -12549700000.0 -12549700000.0 -12549700000.0 -12549700000.0 -12549700000.0 -12549700000.0 -12549700000.0 -12549700000.0 -12549700000.0 -12549700000.0 -12549700000.0 -12549700000.0 -12550100000.0 -12549700000.0 -12549700000.0 -12549700000.0 -12549700000.0 -12549700000.0 -12549700000.0 -12549700000.0 -12549700000.0 -12742000000.0 -15044400000.0 -16586400000.0 -25441900000.0 -28915000000.0 -28376000000.0 -30723400000.0 -37071200000.0 -41069400000.0 -41135600000.0 -55526800000.0 -24153500000.0 -24401200000.0 -61239400000.0 -24749200000.0 -57361700000.0 -87249500000.0 -76634200000.0 -47611800000.0 -26563400000.0 -24374800000.0 -20511900000.0 -49230500000.0 -15043300000.0 -48166700000.0 -20217700000.0 -47166100000.0 -54537700000.0 -57720700000.0 -12549700000.0 -12549700000.0 -12549700000.0 -12549700000.0 -12549700000.0 -12549700000.0 -12549700000.0 -12549700000.0 -12549700000.0 -12549700000.0 -26720000000.0 -30462600000.0 -57408900000.0 -48118500000.0 -12830900000.0 -50045200000.0 -54427100000.0 -45441100000.0 -13951700000.0 -36178500000.0 -19672100000.0 -15594100000.0 -14526100000.0 -41124300000.0 -27264700000.0 -12826500000.0 -14396400000.0 -16350700000.0 -16854200000.0 -17033900000.0 -17621900000.0 -17492300000.0 -17900700000.0 -34952300000.0 -42007600000.0 -29315700000.0 -36475500000.0 -52343100000.0 -70647000000.0 -158063000000.0 -82891800000.0 -73403500000.0 -64448100000.0 -78281400000.0 -212880000000.0 -106220000000.0 -12549700000.0 -12549700000.0 -40918400000.0 -135025000000.0 -20228800000.0 -50604000000.0 -12549700000.0 -19783100000.0 -39010400000.0 -31082200000.0 -36134900000.0 -119863000000.0 -25378400000.0 -64895000000.0 -83649400000.0 -91302600000.0 -70739600000.0 -234914000000.0 -78376900000.0 -22207900000.0 -193658000000.0 -59406800000.0 -56562300000.0 -36243000000.0 -25212800000.0 -19346300000.0 -14415300000.0 -24454100000.0 -12549700000.0 -12549700000.0 -12549700000.0 -12549700000.0 -12550100000.0 -12549700000.0 -12863200000.0 -12550300000.0 -12549700000.0 -12588300000.0 -12549700000.0 -20195600000.0 -12549700000.0 -12550800000.0 -12549700000.0 -29488300000.0 -12549700000.0 -12549700000.0 -12549700000.0 -12549700000.0 -23493100000.0 -12549700000.0 -12549700000.0 -28190000000.0 -12549700000.0 -36539600000.0 -154086000000.0 -12549700000.0 -43445800000.0 -19161000000.0 -50331400000.0 -23220000000.0 -37508000000.0 -26864100000.0 -28907600000.0 -30336900000.0 -29881900000.0 -29555000000.0 -26650300000.0 -12549800000.0 -16648500000.0 -12550400000.0 -30197000000.0 -40317800000.0 -78536500000.0 -48685300000.0 -40760800000.0 -16716800000.0 -12549700000.0 -12712200000.0 -89961400000.0 -54211200000.0 -15099600000.0 -12549700000.0 -12642800000.0 -21084900000.0 -86947300000.0 -12549700000.0 -12549700000.0 -23906300000.0 -87739700000.0 -83332500000.0 -12549700000.0 -13928300000.0 -84696600000.0 -36318800000.0 -87486200000.0 -37571600000.0 -72254800000.0 -16042600000.0 -110774000000.0 -67864900000.0 -44831800000.0 -37374300000.0 -67659700000.0 -101385000000.0 -361324000000.0 -94600800000.0 -277170000000.0 -37318700000.0 -374835000000.0 -140678000000.0 -12549700000.0 -158361000000.0 -189510000000.0 -184090000000.0 -124425000000.0 -124441000000.0 -128318000000.0 -142638000000.0 -202953000000.0 -219820000000.0 -227005000000.0 -12549700000.0 -92924400000.0 -38768200000.0 -107352000000.0 -31552000000.0 -130050000000.0 -22837400000.0 -118107000000.0 -23304100000.0 -13556400000.0 -44294100000.0 -31292900000.0 -16590600000.0 -54810000000.0 -23417300000.0 -20821800000.0 -18594200000.0 -22781500000.0 -30835800000.0 -12594000000.0 -43890800000.0 -21196000000.0 -20941500000.0 -12549700000.0 -12549700000.0 -45028700000.0 -12549700000.0 -14578900000.0 -22257900000.0 -15292800000.0 -29630700000.0 -47501700000.0 -26440800000.0 -23381500000.0 -15516700000.0 -28017800000.0 -21173800000.0 -30612600000.0 -27330900000.0 -54112400000.0 -70601100000.0 -41597300000.0 -51750200000.0 -49358000000.0 -118170000000.0 -175641000000.0 -29234600000.0 -23347000000.0 -12549600000.0 -145135000000.0 -20321700000.0 -90307600000.0 -20410200000.0 -15698200000.0 -26805000000.0 -14553400000.0 -39280800000.0 -37241000000.0 -56878400000.0 -47783600000.0 -67974400000.0 -112438000000.0 -109168000000.0 -21431000000.0 -20562300000.0 -68011000000.0 -59053700000.0 -147577000000.0 -96439800000.0 -108758000000.0 -92364100000.0 -32748400000.0 -84633200000.0 -46947800000.0 -89110500000.0 -117169000000.0 -161878000000.0 -69806300000.0 -158120000000.0 -212034000000.0 -266624000000.0 -260804000000.0 -473722000000.0 -82651100000.0 -445673000000.0 -128011000000.0 -340097000000.0 -371193000000.0 -115433000000.0 -73329000000.0 -157456000000.0 -150538000000.0 -137166000000.0 -118140000000.0 -12593200000.0 -31270700000.0 -12549700000.0 -343486000000.0 -12549700000.0 -170127000000.0 -120304000000.0 -118843000000.0 -21852800000.0 -271706000000.0 -12549700000.0 -107771000000.0 -138223000000.0 -54787900000.0 -122606000000.0 -122365000000.0 -115256000000.0 -74967500000.0 -135180000000.0 -12718200000.0 -102330000000.0 -17336100000.0 -25825600000.0 -41147400000.0 -25993800000.0 -66254100000.0 -17990400000.0 -20972900000.0 -36102600000.0 -62256300000.0 -22409300000.0 -41629900000.0 -15577500000.0 -14341900000.0 -12902700000.0 -32781100000.0 -90731300000.0 -12549700000.0 -46594200000.0 -20680700000.0 -61727700000.0 -18948000000.0 -50518100000.0 -31678100000.0 -125179000000.0 -84481600000.0 -77623900000.0 -101702000000.0 -65691300000.0 -113498000000.0 -146699000000.0 -118465000000.0 -66697500000.0 -122990000000.0 -126547000000.0 -115305000000.0 -119023000000.0 -180048000000.0 -160301000000.0 -38706800000.0 -404962000000.0 -106290000000.0 -15147800000.0 -96384700000.0 -71077600000.0 -16323100000.0 -81845100000.0 -167597000000.0 -29093900000.0 -89186800000.0 -89553000000.0 -74316900000.0 -17360000000.0 -193150000000.0 -12549700000.0 -12549700000.0 -12549700000.0 -43042400000.0 -22767100000.0 -50723700000.0 -45290800000.0 -49414100000.0 -22377800000.0 -86000300000.0 -233529000000.0 -281880000000.0 -263208000000.0 -173635000000.0 -255699000000.0 -394450000000.0 -337023000000.0 -420226000000.0 -453791000000.0 -345069000000.0 -560165000000.0 -161031000000.0 -92802300000.0 -307384000000.0 -327527000000.0 -197417000000.0 -34788500000.0 -193243000000.0 -203572000000.0 -14736800000.0 -594770000000.0 -706361000000.0 -530114000000.0 -163590000000.0 -141962000000.0 -243398000000.0 -186017000000.0 -306578000000.0 -37179800000.0 -25994000000.0 -201169000000.0 -15708100000.0 -229442000000.0 -247520000000.0 -206612000000.0 -147355000000.0 -163668000000.0 -133076000000.0 -39153800000.0 -132647000000.0 -34881800000.0 -66710100000.0 -79109900000.0 -52864000000.0 -69716100000.0 -12549700000.0 -19565300000.0 -14575000000.0 -31289800000.0 -69177900000.0 -56078400000.0 -57690300000.0 -65986400000.0 -62352200000.0 -134429000000.0 -81620500000.0 -90618100000.0 -88375800000.0 -124431000000.0 -80312100000.0 -35426700000.0 -186730000000.0 -293688000000.0 -212218000000.0 -137892000000.0 -81700600000.0 -68592100000.0 -67182600000.0 -110448000000.0 -100795000000.0 -63149000000.0 -57052000000.0 -255924000000.0 -329741000000.0 -179382000000.0 -46176900000.0 -430082000000.0 -373285000000.0 -86631500000.0 -74477500000.0 -125015000000.0 -201884000000.0 -59354900000.0 -272778000000.0 -279789000000.0 -131381000000.0 -13140400000.0 -125145000000.0 -56956400000.0 -207595000000.0 -19491400000.0 -163980000000.0 -130585000000.0 -81159200000.0 -43152500000.0 -116583000000.0 -533968000000.0 -498085000000.0 -184616000000.0 -202624000000.0 -212376000000.0 -162274000000.0 -155205000000.0 -258892000000.0 -124619000000.0 -307359000000.0 -81904800000.0 -245348000000.0 -209850000000.0 -584162000000.0 -194842000000.0 -12549700000.0 -20372100000.0 -53987200000.0 -59195700000.0 -305754000000.0 -655757000000.0 -456487000000.0 -321531000000.0 -354280000000.0 -206571000000.0 -97693600000.0 -191947000000.0 -364213000000.0 -270317000000.0 -289612000000.0 -262163000000.0 -358162000000.0 -49744900000.0 -662057000000.0 -356347000000.0 -338045000000.0 -458202000000.0 -247305000000.0 -204103000000.0 -213655000000.0 -275462000000.0 -129822000000.0 -55225300000.0 -86084500000.0 -25609100000.0 -50024100000.0 -14129000000.0 -32924300000.0 -201805000000.0 -145683000000.0 -14793200000.0 -124178000000.0 -24600100000.0 -59954400000.0 -47273600000.0 -88308200000.0 -114293000000.0 -127577000000.0 -170356000000.0 -230239000000.0 -141260000000.0 -17837300000.0 -95543900000.0 -89831100000.0 -119608000000.0 -136877000000.0 -160399000000.0 -53114800000.0 -178029000000.0 -99038100000.0 -163932000000.0 -152527000000.0 -211136000000.0 -106812000000.0 -19829300000.0 -84195200000.0 -41068900000.0 -158716000000.0 -53371300000.0 -169722000000.0 -15132200000.0 -159628000000.0 -110272000000.0 -113736000000.0 -386475000000.0 -373191000000.0 -20776600000.0 -569698000000.0 -277358000000.0 -193604000000.0 -282185000000.0 -269574000000.0 -171276000000.0 -256310000000.0 -163202000000.0 -136290000000.0 -236969000000.0 -249947000000.0 -219830000000.0 -166650000000.0 -81713400000.0 -283932000000.0 -179968000000.0 -419055000000.0 -73755200000.0 -353381000000.0 -209938000000.0 -693641000000.0 -207661000000.0 -372025000000.0 -325320000000.0 -623677000000.0 -113150000000.0 -12549700000.0 -127601000000.0 -14836500000.0 -270584000000.0 -47893900000.0 -269127000000.0 -564646000000.0 -406813000000.0 -153529000000.0 -188809000000.0 -23246100000.0 -13434600000.0 -253760000000.0 -178514000000.0 -177342000000.0 -235634000000.0 -127878000000.0 -116249000000.0 -216867000000.0 -837543000000.0 -367588000000.0 -416022000000.0 -82202800000.0 -424336000000.0 -175486000000.0 -362788000000.0 -36063300000.0 -129128000000.0 -256981000000.0 -235345000000.0 -102772000000.0 -163295000000.0 -55200000000.0 -58355200000.0 -127070000000.0 -263916000000.0 -12549700000.0 -170625000000.0 -147111000000.0 -54360000000.0 -118200000000.0 -52263100000.0 -97404900000.0 -259242000000.0 -417273000000.0 -236113000000.0 -253113000000.0 -215639000000.0 -184234000000.0 -172942000000.0 -192835000000.0 -168080000000.0 -18939500000.0 -47810800000.0 -160798000000.0 -148232000000.0 -82402300000.0 -105078000000.0 -184599000000.0 -23968500000.0 -62966800000.0 -154071000000.0 -101159000000.0 -135337000000.0 -125345000000.0 -331871000000.0 -241138000000.0 -238443000000.0 -200562000000.0 -24208800000.0 -185753000000.0 -272123000000.0 -12549700000.0 -213378000000.0 -21872500000.0 -152253000000.0 -99109400000.0 -50150500000.0 -70951500000.0 -105815000000.0 -339824000000.0 -233287000000.0 -191961000000.0 -43520000000.0 -359098000000.0 -180182000000.0 -163717000000.0 -698156000000.0 -463730000000.0 -467768000000.0 -621447000000.0 -626943000000.0 -21531700000.0 -295938000000.0 -360771000000.0 -262681000000.0 -598348000000.0 -351522000000.0 -211439000000.0 -230252000000.0 -101370000000.0 -227267000000.0 -101128000000.0 -233729000000.0 -12549700000.0 -260169000000.0 -248434000000.0 -25837000000.0 -12549700000.0 -17861100000.0 -38430100000.0 -13004100000.0 -34220700000.0 -172067000000.0 -12549700000.0 -210105000000.0 -586271000000.0 -244782000000.0 -215509000000.0 -169417000000.0 -218322000000.0 -216133000000.0 -156565000000.0 -176716000000.0 -121428000000.0 -277754000000.0 -385347000000.0 -189557000000.0 -155908000000.0 -160020000000.0 -156723000000.0 -113899000000.0 -183810000000.0 -134351000000.0 -49973000000.0 -106550000000.0 -109359000000.0 -152182000000.0 -50950900000.0 -73378300000.0 -113340000000.0 -86736400000.0 -124763000000.0 -106789000000.0 -100858000000.0 -180208000000.0 -190961000000.0 -348835000000.0 -338871000000.0 -62721300000.0 -380996000000.0 -79642100000.0 -248550000000.0 -101398000000.0 -34612400000.0 -99504200000.0 -95205000000.0 -49138300000.0 -224125000000.0 -41078300000.0 -37210600000.0 -48759600000.0 -49315400000.0 -241378000000.0 -72964200000.0 -183212000000.0 -254631000000.0 -371335000000.0 -261389000000.0 -402077000000.0 -228476000000.0 -286682000000.0 -308692000000.0 -151462000000.0 -301287000000.0 -35069300000.0 -17079300000.0 -111745000000.0 -16205900000.0 -22481000000.0 -12549700000.0 -103396000000.0 -252906000000.0 -75786000000.0 -131954000000.0 -87009400000.0 -148505000000.0 -282657000000.0 -15100100000.0 -14357900000.0 -59877900000.0 -148728000000.0 -316114000000.0 -361982000000.0 -37406600000.0 -192356000000.0 -284351000000.0 -304956000000.0 -112076000000.0 -253350000000.0 -57774500000.0 -280927000000.0 -232497000000.0 -171701000000.0 -407691000000.0 -84922300000.0 -525457000000.0 -182313000000.0 -281431000000.0 -391411000000.0 -83378700000.0 -655478000000.0 -405497000000.0 -167969000000.0 -171814000000.0 -133164000000.0 -335877000000.0 -106474000000.0 -312166000000.0 -148828000000.0 -239938000000.0 -214825000000.0 -162550000000.0 -228919000000.0 -471240000000.0 -354004000000.0 -24930900000.0 -241262000000.0 -284814000000.0 -220377000000.0 -238820000000.0 -161384000000.0 -69241700000.0 -192968000000.0 -346025000000.0 -17213600000.0 -17470900000.0 -189645000000.0 -40553300000.0 -154110000000.0 -18148000000.0 -13561900000.0 -12549700000.0 -82478900000.0 -74786800000.0 -38862400000.0 -15114200000.0 -124932000000.0 -150626000000.0 -369835000000.0 -125977000000.0 -133037000000.0 -91860500000.0 -254594000000.0 -196830000000.0 -219166000000.0 -22180000000.0 -30336600000.0 -12595400000.0 -356868000000.0 -450628000000.0 -317449000000.0 -167266000000.0 -177895000000.0 -24477400000.0 -199326000000.0 -258952000000.0 -67403300000.0 -243825000000.0 -28296000000.0 -206053000000.0 -180624000000.0 -14948900000.0 -190538000000.0 -14148500000.0 -12549700000.0 -276003000000.0 -152232000000.0 -177989000000.0 -13139100000.0 -266782000000.0 -81684600000.0 -112390000000.0 -87572100000.0 -74404100000.0 -247650000000.0 -127866000000.0 -174377000000.0 -143898000000.0 -28314800000.0 -12549700000.0 -30535800000.0 -78446300000.0 -93820000000.0 -160162000000.0 -17384300000.0 -114954000000.0 -112403000000.0 -232961000000.0 -326993000000.0 -20006200000.0 -401501000000.0 -673714000000.0 -200527000000.0 -379870000000.0 -262388000000.0 -132999000000.0 -87383900000.0 -413629000000.0 -24230300000.0 -503823000000.0 -432779000000.0 -371162000000.0 -110711000000.0 -673294000000.0 -970278000000.0 -492784000000.0 -312535000000.0 -381016000000.0 -516955000000.0 -426159000000.0 -390796000000.0 -198722000000.0 -284191000000.0 -149015000000.0 -81596000000.0 -79170300000.0 -199466000000.0 -211564000000.0 -71242300000.0 -134395000000.0 -157316000000.0 -48071100000.0 -78713300000.0 -157640000000.0 -132964000000.0 -173182000000.0 -233505000000.0 -129322000000.0 -260407000000.0 -53025200000.0 -12627800000.0 -231424000000.0 -202984000000.0 -95849300000.0 -278642000000.0 -31886200000.0 -244130000000.0 -60998300000.0 -102813000000.0 -96852300000.0 -145099000000.0 -71463300000.0 -117632000000.0 -14451500000.0 -71442600000.0 -140404000000.0 -64397300000.0 -114103000000.0 -270047000000.0 -118663000000.0 -150367000000.0 -217921000000.0 -125882000000.0 -21453300000.0 -39127600000.0 -43865000000.0 -12549700000.0 -12549700000.0 -12684800000.0 -339641000000.0 -13347300000.0 -329837000000.0 -252610000000.0 -304483000000.0 -224565000000.0 -65658400000.0 -198012000000.0 -32334600000.0 -134240000000.0 -29482900000.0 -151043000000.0 -43612000000.0 -133611000000.0 -135888000000.0 -156137000000.0 -203443000000.0 -77825700000.0 -164225000000.0 -187266000000.0 -279776000000.0 -147381000000.0 -368089000000.0 -12621500000.0 -253560000000.0 -90588300000.0 -53181400000.0 -175348000000.0 -386164000000.0 -27464600000.0 -253293000000.0 -81712700000.0 -146884000000.0 -120380000000.0 -149456000000.0 -161067000000.0 -136604000000.0 -267578000000.0 -157024000000.0 -352719000000.0 -228004000000.0 -189107000000.0 -166194000000.0 -480299000000.0 -588745000000.0 -297811000000.0 -470409000000.0 -332656000000.0 -434813000000.0 -45093800000.0 -378830000000.0 -136224000000.0 -260579000000.0 -394717000000.0 -162267000000.0 -162838000000.0 -215475000000.0 -397806000000.0 -354360000000.0 -819727000000.0 -652084000000.0 -276664000000.0 -619074000000.0 -69615500000.0 -144201000000.0 -123040000000.0 -92826600000.0 -201397000000.0 -108820000000.0 -114229000000.0 -12549700000.0 -52826200000.0 -21610500000.0 -92511200000.0 -114165000000.0 -178001000000.0 -72272100000.0 -255285000000.0 -82918000000.0 -64582700000.0 -113033000000.0 -261949000000.0 -335895000000.0 -255254000000.0 -148346000000.0 -187186000000.0 -153853000000.0 -247604000000.0 -178573000000.0 -297399000000.0 -259504000000.0 -47647400000.0 -39402400000.0 -208983000000.0 -248771000000.0 -218708000000.0 -79322000000.0 -250250000000.0 -193306000000.0 -324581000000.0 -167860000000.0 -199101000000.0 -102584000000.0 -219868000000.0 -60959200000.0 -15614400000.0 -24649900000.0 -36126100000.0 -17080700000.0 -399609000000.0 -12549700000.0 -72832200000.0 -222042000000.0 -170865000000.0 -104876000000.0 -43057400000.0 -135233000000.0 -40293100000.0 -197697000000.0 -12549700000.0 -12549700000.0 -56014300000.0 -72762900000.0 -72041600000.0 -38041000000.0 -206084000000.0 -337819000000.0 -34616400000.0 -304549000000.0 -220996000000.0 -311777000000.0 -278552000000.0 -281865000000.0 -169273000000.0 -101682000000.0 -227244000000.0 -122334000000.0 -139715000000.0 -169932000000.0 -203740000000.0 -48663500000.0 -60654200000.0 -348480000000.0 -133710000000.0 -232570000000.0 -337924000000.0 -12549700000.0 -123648000000.0 -160560000000.0 -322164000000.0 -296211000000.0 -229888000000.0 -325153000000.0 -496448000000.0 -254699000000.0 -386757000000.0 -232809000000.0 -511966000000.0 -101748000000.0 -268364000000.0 -234570000000.0 -92581400000.0 -78354200000.0 -422357000000.0 -25655700000.0 -25103400000.0 -113048000000.0 -117092000000.0 -195950000000.0 -120355000000.0 -113382000000.0 -39337800000.0 -131870000000.0 -24471000000.0 -162548000000.0 -113063000000.0 -195506000000.0 -199642000000.0 -179825000000.0 -41711600000.0 -62516100000.0 -53650100000.0 -318974000000.0 -259424000000.0 -140434000000.0 -56668800000.0 -71471800000.0 -238613000000.0 -31122400000.0 -217442000000.0 -28769700000.0 -258636000000.0 -202654000000.0 -217594000000.0 -146497000000.0 -277085000000.0 -318173000000.0 -65312600000.0 -327157000000.0 -375231000000.0 -353277000000.0 -373509000000.0 -188240000000.0 -249529000000.0 -20361000000.0 -235024000000.0 -192293000000.0 -249858000000.0 -355600000000.0 -187068000000.0 -203966000000.0 -139200000000.0 -224961000000.0 -124995000000.0 -330436000000.0 -61423800000.0 -136275000000.0 -111285000000.0 -45252400000.0 -84193700000.0 -86870800000.0 -133480000000.0 -115499000000.0 -198356000000.0 -156984000000.0 -236866000000.0 -121976000000.0 -195129000000.0 -41398400000.0 -33791800000.0 -136857000000.0 -504860000000.0 -330028000000.0 -213103000000.0 -577017000000.0 -93038000000.0 -281782000000.0 -100080000000.0 -123658000000.0 -120705000000.0 -188990000000.0 -101986000000.0 -14423800000.0 -70474700000.0 -247195000000.0 -183896000000.0 -186465000000.0 -76437500000.0 -208588000000.0 -370909000000.0 -390670000000.0 -89533600000.0 -407462000000.0 -33559400000.0 -86588300000.0 -245367000000.0 -270827000000.0 -147420000000.0 -365000000000.0 -25500200000.0 -210358000000.0 -279370000000.0 -420270000000.0 -411557000000.0 -564481000000.0 -71687800000.0 -642779000000.0 -131821000000.0 -455134000000.0 -371729000000.0 -463903000000.0 -121751000000.0 -145841000000.0 -132959000000.0 -174961000000.0 -197322000000.0 -96998000000.0 -64432200000.0 -17942700000.0 -146743000000.0 -96662700000.0 -204510000000.0 -58162500000.0 -109885000000.0 -36161500000.0 -243588000000.0 -348649000000.0 -235701000000.0 -189115000000.0 -108932000000.0 -86291500000.0 -90972500000.0 -84579000000.0 -113367000000.0 -119768000000.0 -123338000000.0 -142663000000.0 -51602900000.0 -103614000000.0 -76636700000.0 -35353200000.0 -45251500000.0 -223559000000.0 -16438300000.0 -184107000000.0 -164975000000.0 -510241000000.0 -219685000000.0 -210769000000.0 -582037000000.0 -146081000000.0 -142902000000.0 -373914000000.0 -151444000000.0 -474932000000.0 -340976000000.0 -150561000000.0 -238069000000.0 -268639000000.0 -31044000000.0 -138066000000.0 -157000000000.0 -29637500000.0 -285781000000.0 -110966000000.0 -141065000000.0 -20969700000.0 -12549700000.0 -12549700000.0 -81767800000.0 -76241700000.0 -168915000000.0 -94842600000.0 -29954900000.0 -145846000000.0 -76916000000.0 -82127800000.0 -171170000000.0 -314652000000.0 -269750000000.0 -301852000000.0 -410635000000.0 -75896600000.0 -128372000000.0 -124393000000.0 -12549600000.0 -12549700000.0 -158234000000.0 -12959100000.0 -125112000000.0 -287143000000.0 -148278000000.0 -20503600000.0 -93430400000.0 -59423000000.0 -142109000000.0 -49299700000.0 -122824000000.0 -235920000000.0 -262205000000.0 -151320000000.0 -154571000000.0 -88380100000.0 -207588000000.0 -222939000000.0 -12549700000.0 -86459200000.0 -12549700000.0 -325404000000.0 -281373000000.0 -474889000000.0 -47535700000.0 -814493000000.0 -229366000000.0 -475529000000.0 -383230000000.0 -530049000000.0 -193485000000.0 -185440000000.0 -75968200000.0 -178386000000.0 -30209000000.0 -371018000000.0 -36087500000.0 -77105700000.0 -24249500000.0 -71703000000.0 -88425600000.0 -19879700000.0 -71603800000.0 -345173000000.0 -109672000000.0 -254862000000.0 -15803700000.0 -90206600000.0 -17229400000.0 -262723000000.0 -160611000000.0 -12549700000.0 -41902700000.0 -66655700000.0 -19981000000.0 -78872400000.0 -16904800000.0 -193391000000.0 -177012000000.0 -22566700000.0 -480796000000.0 -434405000000.0 -138208000000.0 -71214200000.0 -40963300000.0 -36105600000.0 -40645200000.0 -74706900000.0 -253009000000.0 -337346000000.0 -418715000000.0 -662355000000.0 -244866000000.0 -187011000000.0 -225768000000.0 -36588200000.0 -146621000000.0 -85450900000.0 -87834000000.0 -91321100000.0 -171245000000.0 -167007000000.0 -172023000000.0 -34090300000.0 -261140000000.0 -160053000000.0 -166754000000.0 -12690400000.0 -143838000000.0 -184601000000.0 -318258000000.0 -254244000000.0 -39026700000.0 -293905000000.0 -590207000000.0 -118826000000.0 -76446400000.0 -51249900000.0 -82612500000.0 -53242900000.0 -28633900000.0 -34928300000.0 -18188300000.0 -171306000000.0 -28169700000.0 -21808500000.0 -131087000000.0 -154807000000.0 -333596000000.0 -60292600000.0 -180091000000.0 -275033000000.0 -164723000000.0 -86059000000.0 -21041600000.0 -251563000000.0 -37940700000.0 -148712000000.0 -173205000000.0 -34460000000.0 -220575000000.0 -144596000000.0 -242997000000.0 -315797000000.0 -456499000000.0 -333080000000.0 -226371000000.0 -333430000000.0 -481884000000.0 -433781000000.0 -525238000000.0 -324204000000.0 -39773500000.0 -552237000000.0 -288912000000.0 -368445000000.0 -342082000000.0 -305475000000.0 -351781000000.0 -440111000000.0 -504360000000.0 -68747900000.0 -52577100000.0 -19423300000.0 -66669100000.0 -15511900000.0 -188633000000.0 -188886000000.0 -210057000000.0 -188337000000.0 -303604000000.0 -272022000000.0 -198267000000.0 -216061000000.0 -221278000000.0 -205005000000.0 -64604000000.0 -276635000000.0 -348546000000.0 -271165000000.0 -154861000000.0 -158113000000.0 -122373000000.0 -367545000000.0 -37488500000.0 -14469700000.0 -12549700000.0 -23936200000.0 -44464900000.0 -47484500000.0 -29456700000.0 -133616000000.0 -256531000000.0 -196475000000.0 -747596000000.0 -12697900000.0 -529825000000.0 -221830000000.0 -179197000000.0 -17391500000.0 -13724300000.0 -121314000000.0 -23265600000.0 -49458000000.0 -12549700000.0 -102178000000.0 -95698100000.0 -44717900000.0 -325341000000.0 -79874600000.0 -42795300000.0 -16236700000.0 -12581800000.0 -293441000000.0 -161530000000.0 -560083000000.0 -99076000000.0 -244616000000.0 -257831000000.0 -406100000000.0 -280801000000.0 -44623700000.0 -131660000000.0 -174890000000.0 -22999400000.0 -88461000000.0 -28511300000.0 -26531100000.0 -92199400000.0 -173276000000.0 -12549700000.0 -18869400000.0 -121672000000.0 -173276000000.0 -174182000000.0 -12549700000.0 -103025000000.0 -158694000000.0 -146301000000.0 -202430000000.0 -107957000000.0 -98751000000.0 -35976900000.0 -224103000000.0 -263287000000.0 -256317000000.0 -171734000000.0 -313795000000.0 -194557000000.0 -350147000000.0 -61948300000.0 -341392000000.0 -122161000000.0 -107969000000.0 -45716400000.0 -165839000000.0 -260054000000.0 -110424000000.0 -113883000000.0 -52891100000.0 -155235000000.0 -342531000000.0 -229856000000.0 -401350000000.0 -37380900000.0 -22184300000.0 -29508600000.0 -35980500000.0 -16745900000.0 -29133800000.0 -16156900000.0 -17339700000.0 -309089000000.0 -31358500000.0 -38604400000.0 -82841100000.0 -36757800000.0 -86219200000.0 -19934800000.0 -45353600000.0 -73979300000.0 -133664000000.0 -104842000000.0 -13270900000.0 -16663200000.0 -200250000000.0 -235497000000.0 -245881000000.0 -275460000000.0 -311056000000.0 -394300000000.0 -206263000000.0 -176845000000.0 -81113900000.0 -70319100000.0 -60439500000.0 -268594000000.0 -63631400000.0 -117404000000.0 -260956000000.0 -299915000000.0 -129827000000.0 -91744500000.0 -94909000000.0 -92571800000.0 -123801000000.0 -104456000000.0 -77705400000.0 -319779000000.0 -163312000000.0 -111889000000.0 -204654000000.0 -268942000000.0 -163801000000.0 -183157000000.0 -702559000000.0 -203095000000.0 -554332000000.0 -615925000000.0 -547557000000.0 -238601000000.0 -158589000000.0 -248120000000.0 -146462000000.0 -190349000000.0 -291524000000.0 -97371900000.0 -318485000000.0 -241552000000.0 -230040000000.0 -401691000000.0 -324404000000.0 -203897000000.0 -162069000000.0 -230160000000.0 -152758000000.0 -116272000000.0 -224205000000.0 -250147000000.0 -284180000000.0 -12549700000.0 -209155000000.0 -27218500000.0 -31845300000.0 -166478000000.0 -371693000000.0 -418632000000.0 -240972000000.0 -96693200000.0 -234185000000.0 -233196000000.0 -342615000000.0 -12549700000.0 -559888000000.0 -54718600000.0 -207265000000.0 -281012000000.0 -412742000000.0 -398373000000.0 -197373000000.0 -268846000000.0 -173898000000.0 -392327000000.0 -12549700000.0 -316188000000.0 -17247000000.0 -21164300000.0 -16272900000.0 -25260900000.0 -17170700000.0 -101581000000.0 -141884000000.0 -184195000000.0 -111655000000.0 -114642000000.0 -83743700000.0 -242187000000.0 -48218300000.0 -38642700000.0 -84257100000.0 -39902700000.0 -46036500000.0 -77531100000.0 -281907000000.0 -178547000000.0 -203120000000.0 -70166700000.0 -24367700000.0 -16953300000.0 -12549700000.0 -12549700000.0 -14276000000.0 -363244000000.0 -200841000000.0 -24039800000.0 -203391000000.0 -176177000000.0 -228995000000.0 -17832500000.0 -101915000000.0 -58823400000.0 -237809000000.0 -28684000000.0 -14765400000.0 -80017600000.0 -54868500000.0 -84252300000.0 -12549700000.0 -103178000000.0 -13563000000.0 -306847000000.0 -183737000000.0 -287662000000.0 -343958000000.0 -460243000000.0 -372376000000.0 -539352000000.0 -745081000000.0 -379853000000.0 -173799000000.0 -923896000000.0 -122737000000.0 -388785000000.0 -316881000000.0 -318893000000.0 -225542000000.0 -108536000000.0 -298929000000.0 -36541900000.0 -13483800000.0 -29927100000.0 -237163000000.0 -20663900000.0 -216880000000.0 -315231000000.0 -121401000000.0 -151849000000.0 -26376400000.0 -83727600000.0 -12549700000.0 -20090100000.0 -36084700000.0 -79094500000.0 -268193000000.0 -238093000000.0 -117773000000.0 -275230000000.0 -40469000000.0 -170930000000.0 -260031000000.0 -290305000000.0 -258371000000.0 -168158000000.0 -12549700000.0 -219863000000.0 -18361800000.0 -195923000000.0 -12549700000.0 -482194000000.0 -306793000000.0 -205580000000.0 -438100000000.0 -394481000000.0 -13388100000.0 -17020700000.0 -27186400000.0 -24324700000.0 -13142400000.0 -28988700000.0 -16181200000.0 -122397000000.0 -94078300000.0 -109446000000.0 -48438100000.0 -115894000000.0 -165274000000.0 -110096000000.0 -99072300000.0 -68277100000.0 -98358400000.0 -71196200000.0 -116127000000.0 -257657000000.0 -35116000000.0 -164860000000.0 -23421400000.0 -179105000000.0 -61788900000.0 -25637500000.0 -41423600000.0 -19061700000.0 -19990100000.0 -19840800000.0 -12549700000.0 -12549700000.0 -246408000000.0 -96537400000.0 -72341700000.0 -21136800000.0 -351336000000.0 -217840000000.0 -439045000000.0 -176175000000.0 -211981000000.0 -198708000000.0 -149871000000.0 -90791500000.0 -94919400000.0 -20796700000.0 -39998000000.0 -17790600000.0 -120110000000.0 -88069100000.0 -283797000000.0 -100005000000.0 -14670100000.0 -121317000000.0 -299098000000.0 -222365000000.0 -381795000000.0 -412021000000.0 -262944000000.0 -320272000000.0 -280358000000.0 -544229000000.0 -383826000000.0 -146210000000.0 -235760000000.0 -434884000000.0 -402725000000.0 -262645000000.0 -388624000000.0 -305579000000.0 -177982000000.0 -315888000000.0 -112330000000.0 -72582200000.0 -187707000000.0 -105471000000.0 -47127500000.0 -187658000000.0 -54344000000.0 -73258000000.0 -19654300000.0 -60116600000.0 -34058200000.0 -40276300000.0 -101977000000.0 -186586000000.0 -325464000000.0 -83303200000.0 -213914000000.0 -18450900000.0 -163075000000.0 -313998000000.0 -212758000000.0 -145199000000.0 -56664100000.0 -163745000000.0 -202217000000.0 -254537000000.0 -383635000000.0 -348968000000.0 -326145000000.0 -396958000000.0 -234052000000.0 -180314000000.0 -309490000000.0 -17301200000.0 -15311100000.0 -47593600000.0 -28460500000.0 -12549700000.0 -88883300000.0 -88242500000.0 -80457400000.0 -39670200000.0 -92888400000.0 -65065200000.0 -12549700000.0 -26192100000.0 -81738500000.0 -72133500000.0 -15257500000.0 -30230600000.0 -12550100000.0 -51441200000.0 -183767000000.0 -26172000000.0 -14283300000.0 -33716100000.0 -28892600000.0 -14634700000.0 -23198900000.0 -32200900000.0 -17496200000.0 -14325200000.0 -23046300000.0 -14074300000.0 -26467200000.0 -85616100000.0 -187015000000.0 -320741000000.0 -246360000000.0 -203310000000.0 -296672000000.0 -263816000000.0 -147998000000.0 -89854500000.0 -12548800000.0 -242271000000.0 -226929000000.0 -94688200000.0 -121487000000.0 -113275000000.0 -72200600000.0 -36701100000.0 -89787500000.0 -145284000000.0 -294636000000.0 -193625000000.0 -68876100000.0 -37657000000.0 -336462000000.0 -27100700000.0 -81996700000.0 -176331000000.0 -229607000000.0 -555168000000.0 -243323000000.0 -146641000000.0 -47858700000.0 -441768000000.0 -399410000000.0 -487732000000.0 -614825000000.0 -199662000000.0 -55952600000.0 -21059300000.0 -194285000000.0 -240737000000.0 -51083200000.0 -97750600000.0 -26903100000.0 -243122000000.0 -117457000000.0 -141157000000.0 -202277000000.0 -103260000000.0 -129283000000.0 -31124100000.0 -26549600000.0 -61826900000.0 -103751000000.0 -78034400000.0 -111851000000.0 -20016100000.0 -145365000000.0 -40768400000.0 -91786100000.0 -113169000000.0 -217977000000.0 -156065000000.0 -39983400000.0 -53660800000.0 -88962600000.0 -237102000000.0 -113172000000.0 -552483000000.0 -48712200000.0 -159945000000.0 -811402000000.0 -456310000000.0 -132860000000.0 -305160000000.0 -332009000000.0 -323621000000.0 -298255000000.0 -203643000000.0 -103856000000.0 -61056200000.0 -36990500000.0 -75797200000.0 -75118400000.0 -98532400000.0 -52753600000.0 -97349800000.0 -96367000000.0 -78586900000.0 -124394000000.0 -23419700000.0 -12549700000.0 -14735400000.0 -32847300000.0 -28713100000.0 -13924200000.0 -15652800000.0 -30831300000.0 -27149000000.0 -22852900000.0 -23853700000.0 -28412000000.0 -51804400000.0 -433337000000.0 -17751000000.0 -43589400000.0 -63075800000.0 -474841000000.0 -115474000000.0 -229196000000.0 -266813000000.0 -140282000000.0 -96227500000.0 -191719000000.0 -191822000000.0 -284421000000.0 -289222000000.0 -302927000000.0 -172665000000.0 -550241000000.0 -344532000000.0 -346486000000.0 -88736200000.0 -109694000000.0 -321207000000.0 -1.07442e+12 -366324000000.0 -349503000000.0 -567736000000.0 -362135000000.0 -261348000000.0 -670810000000.0 -56641500000.0 -251683000000.0 -63811900000.0 -368053000000.0 -242562000000.0 -22943900000.0 -90603700000.0 -266225000000.0 -215287000000.0 -18413900000.0 -22322200000.0 -75668200000.0 -229704000000.0 -45206200000.0 -142632000000.0 -25349100000.0 -13800600000.0 -150298000000.0 -136032000000.0 -34895800000.0 -159573000000.0 -15647800000.0 -134594000000.0 -78022800000.0 -61059800000.0 -12549700000.0 -90867600000.0 -137131000000.0 -14331800000.0 -236173000000.0 -244302000000.0 -148239000000.0 -83521900000.0 -61897200000.0 -89328500000.0 -101226000000.0 -43550700000.0 -103209000000.0 -515694000000.0 -54553600000.0 -131290000000.0 -619073000000.0 -303795000000.0 -312938000000.0 -88625300000.0 -86794400000.0 -81079000000.0 -296778000000.0 -225414000000.0 -188525000000.0 -149914000000.0 -157795000000.0 -118762000000.0 -110719000000.0 -119072000000.0 -163890000000.0 -122265000000.0 -137574000000.0 -164207000000.0 -153349000000.0 -140328000000.0 -101480000000.0 -56350200000.0 -31312000000.0 -23034000000.0 -63463500000.0 -43602800000.0 -29700400000.0 -30268900000.0 -52241800000.0 -13850500000.0 -54275300000.0 -36583000000.0 -63719100000.0 -480827000000.0 -97355300000.0 -127523000000.0 -278541000000.0 -249645000000.0 -157852000000.0 -36544100000.0 -326166000000.0 -261941000000.0 -216277000000.0 -123692000000.0 -226679000000.0 -184016000000.0 -264597000000.0 -144061000000.0 -164859000000.0 -340901000000.0 -26358200000.0 -261939000000.0 -140223000000.0 -109507000000.0 -43227200000.0 -253555000000.0 -12549700000.0 -414955000000.0 -104306000000.0 -430086000000.0 -12533200000.0 -527142000000.0 -229145000000.0 -346727000000.0 -146444000000.0 -171634000000.0 -338257000000.0 -374243000000.0 -485706000000.0 -305243000000.0 -132328000000.0 -88095700000.0 -131300000000.0 -277168000000.0 -150526000000.0 -175650000000.0 -57905100000.0 -23188100000.0 -109449000000.0 -159289000000.0 -83063500000.0 -190667000000.0 -71263200000.0 -119563000000.0 -65528200000.0 -50895900000.0 -62114600000.0 -87981900000.0 -122243000000.0 -225920000000.0 -80210100000.0 -78772700000.0 -473553000000.0 -105716000000.0 -48365900000.0 -131864000000.0 -86649200000.0 -177940000000.0 -360741000000.0 -210010000000.0 -12549600000.0 -139895000000.0 -524008000000.0 -192231000000.0 -269993000000.0 -170088000000.0 -216011000000.0 -290009000000.0 -49064900000.0 -64121700000.0 -44950500000.0 -27593800000.0 -12549700000.0 -12549700000.0 -12549700000.0 -60136000000.0 -16837300000.0 -16171800000.0 -44426900000.0 -16954500000.0 -17113600000.0 -163987000000.0 -53912600000.0 -176781000000.0 -120806000000.0 -105967000000.0 -151012000000.0 -26472300000.0 -23353400000.0 -42367500000.0 -115101000000.0 -151678000000.0 -273658000000.0 -274794000000.0 -464680000000.0 -223883000000.0 -77758500000.0 -96707200000.0 -253792000000.0 -360265000000.0 -269724000000.0 -317871000000.0 -574081000000.0 -26491400000.0 -75271400000.0 -64509500000.0 -163023000000.0 -12549700000.0 -286705000000.0 -27801100000.0 -67356000000.0 -351318000000.0 -141193000000.0 -342080000000.0 -374402000000.0 -351667000000.0 -293678000000.0 -231839000000.0 -875275000000.0 -26982700000.0 -257254000000.0 -555919000000.0 -217557000000.0 -507429000000.0 -108183000000.0 -232001000000.0 -76605300000.0 -104299000000.0 -285244000000.0 -21962000000.0 -12549700000.0 -357401000000.0 -367075000000.0 -91296400000.0 -128325000000.0 -203225000000.0 -575139000000.0 -355759000000.0 -355946000000.0 -271556000000.0 -181229000000.0 -336879000000.0 -26776700000.0 -12549700000.0 -137027000000.0 -16267400000.0 -45070300000.0 -18394600000.0 -34598300000.0 -48777400000.0 -96842400000.0 -237809000000.0 -22632800000.0 -38846600000.0 -510044000000.0 -186868000000.0 -203843000000.0 -27585200000.0 -230693000000.0 -417518000000.0 -12549100000.0 -514354000000.0 -362348000000.0 -171122000000.0 -327707000000.0 -78591000000.0 -40681200000.0 -120320000000.0 -68948700000.0 -28258100000.0 -19513800000.0 -47623900000.0 -59879200000.0 -29619200000.0 -18687000000.0 -14147900000.0 -12549700000.0 -51911200000.0 -14018200000.0 -26760300000.0 -15136700000.0 -27447000000.0 -64945600000.0 -105596000000.0 -19720900000.0 -23297200000.0 -22538500000.0 -162745000000.0 -100181000000.0 -200209000000.0 -112275000000.0 -162921000000.0 -14161300000.0 -19926900000.0 -513776000000.0 -327152000000.0 -279133000000.0 -440533000000.0 -426709000000.0 -608841000000.0 -264410000000.0 -228075000000.0 -531587000000.0 -379834000000.0 -403816000000.0 -39795700000.0 -496631000000.0 -304257000000.0 -271840000000.0 -366616000000.0 -393343000000.0 -623956000000.0 -531578000000.0 -531705000000.0 -450438000000.0 -350975000000.0 -656239000000.0 -616289000000.0 -267187000000.0 -456337000000.0 -233077000000.0 -472065000000.0 -202045000000.0 -78378000000.0 -310732000000.0 -105729000000.0 -170437000000.0 -227921000000.0 -90748100000.0 -310731000000.0 -275604000000.0 -297537000000.0 -360006000000.0 -170576000000.0 -216130000000.0 -262362000000.0 -179599000000.0 -389289000000.0 -154231000000.0 -260593000000.0 -165572000000.0 -119262000000.0 -93167800000.0 -87163100000.0 -151754000000.0 -49521200000.0 -71810000000.0 -530291000000.0 -12872100000.0 -229470000000.0 -254767000000.0 -150896000000.0 -480316000000.0 -189915000000.0 -757995000000.0 -491550000000.0 -600566000000.0 -553700000000.0 -14567300000.0 -64210700000.0 -14409600000.0 -30109800000.0 -34383500000.0 -68827300000.0 -61721300000.0 -12716700000.0 -12549700000.0 -12549700000.0 -12549700000.0 -54537900000.0 -14691100000.0 -47738000000.0 -60017900000.0 -54487000000.0 -15531000000.0 -40774900000.0 -72329000000.0 -164910000000.0 -58035500000.0 -72922100000.0 -143092000000.0 -114820000000.0 -57502400000.0 -65577600000.0 -77165500000.0 -161119000000.0 -249320000000.0 -542652000000.0 -230391000000.0 -228771000000.0 -233597000000.0 -462506000000.0 -374566000000.0 -252801000000.0 -411582000000.0 -12549700000.0 -783064000000.0 -409116000000.0 -649476000000.0 -507010000000.0 -336077000000.0 -318014000000.0 -569863000000.0 -702940000000.0 -13441300000.0 -594050000000.0 -394591000000.0 -263109000000.0 -706695000000.0 -416188000000.0 -426778000000.0 -668082000000.0 -102120000000.0 -316137000000.0 -244258000000.0 -454687000000.0 -253515000000.0 -28241500000.0 -57528100000.0 -258869000000.0 -13961300000.0 -186570000000.0 -192740000000.0 -18323000000.0 -240011000000.0 -16400800000.0 -135342000000.0 -304144000000.0 -105933000000.0 -98886200000.0 -103049000000.0 -170377000000.0 -233440000000.0 -343746000000.0 -289588000000.0 -209540000000.0 -246300000000.0 -213171000000.0 -280828000000.0 -101940000000.0 -141347000000.0 -190444000000.0 -187897000000.0 -341090000000.0 -383895000000.0 -479632000000.0 -244821000000.0 -334906000000.0 -201409000000.0 -452434000000.0 -170778000000.0 -545113000000.0 -174644000000.0 -413547000000.0 -377313000000.0 -128734000000.0 -108375000000.0 -269163000000.0 -66917900000.0 -25510000000.0 -89623000000.0 -16267600000.0 -41284800000.0 -98292700000.0 -48923000000.0 -18860800000.0 -15695200000.0 -13554300000.0 -12549700000.0 -64053900000.0 -31577400000.0 -60819100000.0 -20529900000.0 -90328100000.0 -12549700000.0 -42797100000.0 -12549700000.0 -12549700000.0 -69305700000.0 -13045800000.0 -151197000000.0 -74935400000.0 -30846400000.0 -25148200000.0 -72444600000.0 -98784600000.0 -242394000000.0 -141442000000.0 -156153000000.0 -129060000000.0 -110909000000.0 -274094000000.0 -427300000000.0 -732739000000.0 -50219000000.0 -94715300000.0 -497218000000.0 -303664000000.0 -22624300000.0 -147370000000.0 -219071000000.0 -218755000000.0 -73289800000.0 -195742000000.0 -130773000000.0 -399986000000.0 -152645000000.0 -387486000000.0 -519664000000.0 -546423000000.0 -606267000000.0 -530204000000.0 -123982000000.0 -338927000000.0 -323669000000.0 -695342000000.0 -417058000000.0 -324293000000.0 -227792000000.0 -261965000000.0 -51386900000.0 -146462000000.0 -125640000000.0 -349478000000.0 -208350000000.0 -34817300000.0 -143859000000.0 -14687500000.0 -268901000000.0 -95419700000.0 -176426000000.0 -367362000000.0 -114267000000.0 -82771100000.0 -176826000000.0 -430870000000.0 -299366000000.0 -164154000000.0 -190493000000.0 -119284000000.0 -238162000000.0 -218081000000.0 -52016500000.0 -53004000000.0 -426748000000.0 -353820000000.0 -161516000000.0 -145834000000.0 -241830000000.0 -171014000000.0 -144450000000.0 -169896000000.0 -163583000000.0 -259240000000.0 -163857000000.0 -18634300000.0 -414666000000.0 -117747000000.0 -99890300000.0 -226654000000.0 -58514300000.0 -12550000000.0 -59540500000.0 -41191300000.0 -38973000000.0 -75671400000.0 -138410000000.0 -37317800000.0 -18237000000.0 -14255000000.0 -16188400000.0 -25960900000.0 -77793300000.0 -46005300000.0 -67570700000.0 -14145700000.0 -134839000000.0 -14827200000.0 -133211000000.0 -51805900000.0 -127036000000.0 -12549700000.0 -12549700000.0 -12549700000.0 -164867000000.0 -129307000000.0 -69485700000.0 -43343900000.0 -196519000000.0 -351615000000.0 -280075000000.0 -282582000000.0 -286779000000.0 -32733100000.0 -49761600000.0 -472718000000.0 -343948000000.0 -199331000000.0 -267029000000.0 -391758000000.0 -567474000000.0 -320247000000.0 -345437000000.0 -414695000000.0 -327809000000.0 -202750000000.0 -451471000000.0 -341860000000.0 -556794000000.0 -196558000000.0 -453063000000.0 -591209000000.0 -352411000000.0 -161844000000.0 -12549700000.0 -661696000000.0 -359351000000.0 -205906000000.0 -76583500000.0 -17701000000.0 -110728000000.0 -395743000000.0 -195324000000.0 -112686000000.0 -265722000000.0 -123634000000.0 -46343400000.0 -237390000000.0 -396644000000.0 -240756000000.0 -228600000000.0 -472354000000.0 -161595000000.0 -201086000000.0 -222262000000.0 -377903000000.0 -300844000000.0 -23361200000.0 -111893000000.0 -37782500000.0 -15505100000.0 -209230000000.0 -232847000000.0 -259625000000.0 -139908000000.0 -128583000000.0 -236041000000.0 -292957000000.0 -188788000000.0 -183931000000.0 -495600000000.0 -526321000000.0 -298302000000.0 -387274000000.0 -539789000000.0 -618223000000.0 -593542000000.0 -655605000000.0 -465634000000.0 -901357000000.0 -496224000000.0 -183220000000.0 -117111000000.0 -155645000000.0 -155619000000.0 -124626000000.0 -136110000000.0 -166060000000.0 -349407000000.0 -154421000000.0 -121916000000.0 -122353000000.0 -120491000000.0 -106197000000.0 -137600000000.0 -138127000000.0 -114463000000.0 -200283000000.0 -227421000000.0 -182310000000.0 -151580000000.0 -66786500000.0 -104414000000.0 -79819200000.0 -96568100000.0 -200914000000.0 -235958000000.0 -139693000000.0 -172795000000.0 -196613000000.0 -27819400000.0 -367604000000.0 -30112400000.0 -121123000000.0 -191068000000.0 -55941100000.0 -72846500000.0 -17401400000.0 -148193000000.0 -440102000000.0 -312765000000.0 -163690000000.0 -407878000000.0 -303046000000.0 -340729000000.0 -76567900000.0 -544040000000.0 -245855000000.0 -499902000000.0 -449088000000.0 -466526000000.0 -271638000000.0 -51481000000.0 -620819000000.0 -331098000000.0 -204972000000.0 -67366600000.0 -284294000000.0 -135427000000.0 -112679000000.0 -23544800000.0 -88701400000.0 -51095900000.0 -235725000000.0 -228940000000.0 -155526000000.0 -176461000000.0 -58513300000.0 -15611700000.0 -197393000000.0 -116134000000.0 -46927900000.0 -205431000000.0 -410996000000.0 -392559000000.0 -230883000000.0 -170709000000.0 -356844000000.0 -30877700000.0 -36027300000.0 -15272300000.0 -290639000000.0 -403708000000.0 -200955000000.0 -354390000000.0 -324095000000.0 -395856000000.0 -431415000000.0 -546212000000.0 -426231000000.0 -129753000000.0 -279140000000.0 -109275000000.0 -242756000000.0 -62176700000.0 -21407700000.0 -251097000000.0 -134106000000.0 -58407900000.0 -176362000000.0 -508313000000.0 -173261000000.0 -744502000000.0 -401042000000.0 -15944100000.0 -100662000000.0 -27739000000.0 -41100300000.0 -13958900000.0 -280613000000.0 -53621100000.0 -27773200000.0 -21165800000.0 -15560000000.0 -12549700000.0 -12549700000.0 -130415000000.0 -95493400000.0 -113131000000.0 -201696000000.0 -443821000000.0 -204968000000.0 -223312000000.0 -21508200000.0 -18865800000.0 -65769700000.0 -379288000000.0 -54787100000.0 -113472000000.0 -12056300000.0 -40706700000.0 -51879400000.0 -355837000000.0 -114167000000.0 -18874600000.0 -144141000000.0 -20819400000.0 -26724300000.0 -273133000000.0 -267514000000.0 -24178800000.0 -26395300000.0 -215717000000.0 -591635000000.0 -328692000000.0 -376626000000.0 -422280000000.0 -234913000000.0 -329145000000.0 -152781000000.0 -228147000000.0 -12899600000.0 -438888000000.0 -273955000000.0 -28883400000.0 -611714000000.0 -381028000000.0 -160039000000.0 -271624000000.0 -697052000000.0 -16069000000.0 -249201000000.0 -328028000000.0 -345831000000.0 -158688000000.0 -143507000000.0 -99784900000.0 -95386800000.0 -245467000000.0 -182030000000.0 -40404700000.0 -39278700000.0 -60226400000.0 -190708000000.0 -76699300000.0 -35003900000.0 -196450000000.0 -565185000000.0 -596834000000.0 -350125000000.0 -370600000000.0 -326303000000.0 -520018000000.0 -389581000000.0 -323671000000.0 -263863000000.0 -23826800000.0 -79089100000.0 -64368100000.0 -42974500000.0 -26855000000.0 -274438000000.0 -152569000000.0 -12549700000.0 -32498400000.0 -279949000000.0 -208711000000.0 -99102700000.0 -65063200000.0 -249011000000.0 -60774800000.0 -147361000000.0 -445701000000.0 -51092000000.0 -266527000000.0 -187299000000.0 -29680400000.0 -109425000000.0 -85819300000.0 -58774500000.0 -37866500000.0 -241628000000.0 -40491300000.0 -12549700000.0 -18036800000.0 -32128800000.0 -58707100000.0 -86929700000.0 -136454000000.0 -154250000000.0 -209092000000.0 -12549700000.0 -12549700000.0 -526963000000.0 -213018000000.0 -287598000000.0 -218990000000.0 -301432000000.0 -74694400000.0 -162789000000.0 -13737700000.0 -211253000000.0 -201019000000.0 -96057400000.0 -111534000000.0 -362402000000.0 -136347000000.0 -33256700000.0 -203620000000.0 -105824000000.0 -221853000000.0 -177489000000.0 -124841000000.0 -137915000000.0 -260695000000.0 -354679000000.0 -58578300000.0 -281169000000.0 -375780000000.0 -805233000000.0 -818281000000.0 -816614000000.0 -573584000000.0 -484202000000.0 -388964000000.0 -831450000000.0 -792403000000.0 -494806000000.0 -792192000000.0 -546504000000.0 -266295000000.0 -233946000000.0 -468868000000.0 -15387600000.0 -96115900000.0 -49663000000.0 -16381100000.0 -213469000000.0 -166681000000.0 -90003300000.0 -120042000000.0 -116563000000.0 -312506000000.0 -63343200000.0 -48780300000.0 -133197000000.0 -940085000000.0 -244312000000.0 -203762000000.0 -17800400000.0 -383725000000.0 -12549700000.0 -317575000000.0 -546703000000.0 -92871200000.0 -157686000000.0 -61013500000.0 -81344500000.0 -38684100000.0 -222274000000.0 -293218000000.0 -161177000000.0 -208715000000.0 -413892000000.0 -189597000000.0 -19922100000.0 -13999500000.0 -221338000000.0 -36525000000.0 -236170000000.0 -529577000000.0 -147199000000.0 -154401000000.0 -343452000000.0 -52571700000.0 -103134000000.0 -30308400000.0 -13777300000.0 -92825300000.0 -327068000000.0 -165859000000.0 -134032000000.0 -136146000000.0 -129071000000.0 -124745000000.0 -146370000000.0 -226930000000.0 -58581900000.0 -173541000000.0 -285453000000.0 -308557000000.0 -594065000000.0 -448168000000.0 -13742200000.0 -66014100000.0 -163352000000.0 -156650000000.0 -16793000000.0 -172183000000.0 -126569000000.0 -18806000000.0 -138490000000.0 -277144000000.0 -142008000000.0 -246458000000.0 -12549700000.0 -12549700000.0 -129962000000.0 -119487000000.0 -21187500000.0 -37566600000.0 -159979000000.0 -106369000000.0 -308631000000.0 -436015000000.0 -119206000000.0 -303463000000.0 -285854000000.0 -527014000000.0 -22979900000.0 -88417700000.0 -19150300000.0 -569107000000.0 -568866000000.0 -323503000000.0 -664291000000.0 -39264700000.0 -777340000000.0 -150943000000.0 -406144000000.0 -99401000000.0 -222858000000.0 -172332000000.0 -316609000000.0 -550105000000.0 -468163000000.0 -130714000000.0 -128259000000.0 -262546000000.0 -203018000000.0 -150270000000.0 -144551000000.0 -385641000000.0 -49090200000.0 -322944000000.0 -243696000000.0 -871777000000.0 -176279000000.0 -254820000000.0 -51171000000.0 -276650000000.0 -12549700000.0 -134016000000.0 -370032000000.0 -262665000000.0 -393601000000.0 -483787000000.0 -119804000000.0 -215198000000.0 -114653000000.0 -166525000000.0 -225239000000.0 -144690000000.0 -198311000000.0 -51378600000.0 -33566000000.0 -16288600000.0 -404110000000.0 -210035000000.0 -211809000000.0 -328529000000.0 -130730000000.0 -217410000000.0 -526540000000.0 -154673000000.0 -153711000000.0 -354901000000.0 -39869200000.0 -112927000000.0 -12549700000.0 -12549700000.0 -367653000000.0 -168110000000.0 -78722000000.0 -32879900000.0 -17879900000.0 -19854000000.0 -51916500000.0 -79559300000.0 -147875000000.0 -144518000000.0 -12549200000.0 -12549700000.0 -97953100000.0 -57960800000.0 -691371000000.0 -566833000000.0 -313233000000.0 -423023000000.0 -159633000000.0 -175273000000.0 -414773000000.0 -400122000000.0 -332063000000.0 -123011000000.0 -68854700000.0 -368004000000.0 -350397000000.0 -127099000000.0 -133504000000.0 -114735000000.0 -220003000000.0 -109799000000.0 -147081000000.0 -331232000000.0 -122278000000.0 -168494000000.0 -241707000000.0 -67212600000.0 -248525000000.0 -58093000000.0 -58190800000.0 -124036000000.0 -323054000000.0 -348495000000.0 -85971900000.0 -775384000000.0 -395733000000.0 -565220000000.0 -96579800000.0 -475060000000.0 -602785000000.0 -521441000000.0 -406177000000.0 -254151000000.0 -160140000000.0 -210682000000.0 -121020000000.0 -317935000000.0 -291448000000.0 -357515000000.0 -117279000000.0 -129080000000.0 -63779300000.0 -323890000000.0 -152674000000.0 -130253000000.0 -219717000000.0 -1.15799e+12 -520847000000.0 -327621000000.0 -527462000000.0 -606252000000.0 -552292000000.0 -574631000000.0 -232900000000.0 -725624000000.0 -554064000000.0 -458183000000.0 -461597000000.0 -498417000000.0 -448968000000.0 -358433000000.0 -484942000000.0 -465468000000.0 -12563400000.0 -42211700000.0 -20262000000.0 -441725000000.0 -189835000000.0 -331937000000.0 -379853000000.0 -170879000000.0 -347834000000.0 -249754000000.0 -467392000000.0 -246432000000.0 -383313000000.0 -184576000000.0 -441889000000.0 -389812000000.0 -390699000000.0 -183541000000.0 -119235000000.0 -61920800000.0 -51757400000.0 -14925300000.0 -17178600000.0 -53921900000.0 -45686800000.0 -218619000000.0 -239663000000.0 -185937000000.0 -169741000000.0 -146927000000.0 -208760000000.0 -563981000000.0 -475874000000.0 -144046000000.0 -305390000000.0 -86107600000.0 -19949600000.0 -276558000000.0 -227119000000.0 -50276700000.0 -168587000000.0 -183254000000.0 -290312000000.0 -219268000000.0 -21599000000.0 -41940400000.0 -65328700000.0 -135076000000.0 -29602800000.0 -36230300000.0 -206362000000.0 -47435300000.0 -12549700000.0 -212638000000.0 -13801500000.0 -145900000000.0 -49814200000.0 -14586300000.0 -12549700000.0 -327051000000.0 -467803000000.0 -308291000000.0 -446094000000.0 -251406000000.0 -187861000000.0 -93820400000.0 -236901000000.0 -152664000000.0 -192631000000.0 -12549700000.0 -270860000000.0 -212647000000.0 -196857000000.0 -363855000000.0 -212263000000.0 -163466000000.0 -525640000000.0 -270388000000.0 -293151000000.0 -628319000000.0 -254277000000.0 -288956000000.0 -655380000000.0 -355328000000.0 -320976000000.0 -93996300000.0 -164250000000.0 -137384000000.0 -185246000000.0 -675086000000.0 -317187000000.0 -449236000000.0 -320516000000.0 -131579000000.0 -194409000000.0 -152257000000.0 -357018000000.0 -260663000000.0 -406245000000.0 -245111000000.0 -483362000000.0 -493786000000.0 -126492000000.0 -518829000000.0 -317825000000.0 -139207000000.0 -118398000000.0 -270773000000.0 -707934000000.0 -347051000000.0 -296479000000.0 -826300000000.0 -649771000000.0 -12549700000.0 -132006000000.0 -37394700000.0 -246573000000.0 -288185000000.0 -64439300000.0 -130972000000.0 -92373300000.0 -12549700000.0 -14517000000.0 -67942000000.0 -60927500000.0 -338081000000.0 -79228300000.0 -101705000000.0 -55522200000.0 -205826000000.0 -173521000000.0 -896326000000.0 -628093000000.0 -208270000000.0 -574957000000.0 -390466000000.0 -326496000000.0 -391120000000.0 -28517200000.0 -17379400000.0 -47815100000.0 -211442000000.0 -395568000000.0 -326505000000.0 -123872000000.0 -141303000000.0 -179478000000.0 -167447000000.0 -66304600000.0 -105813000000.0 -221970000000.0 -135123000000.0 -150857000000.0 -182235000000.0 -373187000000.0 -450262000000.0 -268145000000.0 -220862000000.0 -232064000000.0 -418219000000.0 -284406000000.0 -254197000000.0 -508946000000.0 -430899000000.0 -313866000000.0 -400899000000.0 -271596000000.0 -108885000000.0 -268539000000.0 -205084000000.0 -364544000000.0 -345103000000.0 -268425000000.0 -388618000000.0 -12549700000.0 -105853000000.0 -413085000000.0 -97403900000.0 -491623000000.0 -578776000000.0 -35682500000.0 -64591000000.0 -508194000000.0 -390245000000.0 -513988000000.0 -279845000000.0 -176354000000.0 -274773000000.0 -81302700000.0 -624691000000.0 -121181000000.0 -467847000000.0 -261421000000.0 -206600000000.0 -89235800000.0 -86726200000.0 -324192000000.0 -222538000000.0 -326105000000.0 -258621000000.0 -390030000000.0 -456661000000.0 -730770000000.0 -15402800000.0 -22436300000.0 -128235000000.0 -81161000000.0 -304017000000.0 -182781000000.0 -326479000000.0 -296331000000.0 -576169000000.0 -478053000000.0 -12549700000.0 -156797000000.0 -64446600000.0 -269428000000.0 -484283000000.0 -184882000000.0 -219613000000.0 -258489000000.0 -271840000000.0 -234606000000.0 -168865000000.0 -142178000000.0 -138697000000.0 -463943000000.0 -196840000000.0 -252887000000.0 -150444000000.0 -186695000000.0 -405987000000.0 -975967000000.0 -159741000000.0 -579199000000.0 -541647000000.0 -67643700000.0 -303577000000.0 -459241000000.0 -84012800000.0 -58158900000.0 -103298000000.0 -117077000000.0 -278603000000.0 -235056000000.0 -75052800000.0 -86446600000.0 -92639000000.0 -310473000000.0 -91349900000.0 -218928000000.0 -17427200000.0 -37317200000.0 -17175200000.0 -44955700000.0 -227792000000.0 -193117000000.0 -70722900000.0 -75285500000.0 -71032300000.0 -315580000000.0 -281160000000.0 -352829000000.0 -440521000000.0 -238785000000.0 -147887000000.0 -187214000000.0 -202198000000.0 -430626000000.0 -305587000000.0 -316724000000.0 -430549000000.0 -383922000000.0 -289358000000.0 -371275000000.0 -277424000000.0 -155358000000.0 -598287000000.0 -323047000000.0 -52887100000.0 -211486000000.0 -662086000000.0 -546513000000.0 -912257000000.0 -721650000000.0 -942772000000.0 -377995000000.0 -422779000000.0 -269930000000.0 -488722000000.0 -511867000000.0 -889782000000.0 -1.05677e+12 -362918000000.0 -314257000000.0 -380436000000.0 -378203000000.0 -171070000000.0 -134577000000.0 -191627000000.0 -141067000000.0 -98219600000.0 -153246000000.0 -447788000000.0 -480921000000.0 -383484000000.0 -360818000000.0 -417290000000.0 -446828000000.0 -433179000000.0 -311632000000.0 -346057000000.0 -984944000000.0 -137754000000.0 -127731000000.0 -294352000000.0 -231542000000.0 -308357000000.0 -616411000000.0 -403158000000.0 -559084000000.0 -64188500000.0 -161524000000.0 -91995600000.0 -106946000000.0 -89001400000.0 -308273000000.0 -298669000000.0 -168746000000.0 -459923000000.0 -349601000000.0 -63638700000.0 -901867000000.0 -142750000000.0 -366467000000.0 -513831000000.0 -231450000000.0 -604460000000.0 -370000000000.0 -38982800000.0 -12549700000.0 -98776800000.0 -117684000000.0 -240341000000.0 -311092000000.0 -12549700000.0 -38036400000.0 -22746500000.0 -226589000000.0 -87151400000.0 -181541000000.0 -36938400000.0 -20383800000.0 -23915600000.0 -190658000000.0 -263994000000.0 -255164000000.0 -61347500000.0 -81922700000.0 -29482000000.0 -227492000000.0 -147270000000.0 -141332000000.0 -315994000000.0 -17917100000.0 -189166000000.0 -12549700000.0 -123040000000.0 -156651000000.0 -355533000000.0 -31628500000.0 -183326000000.0 -193988000000.0 -16480800000.0 -379136000000.0 -47945800000.0 -385433000000.0 -340137000000.0 -123571000000.0 -124975000000.0 -77734100000.0 -377947000000.0 -112400000000.0 -649888000000.0 -22902900000.0 -699255000000.0 -466558000000.0 -377032000000.0 -535824000000.0 -559275000000.0 -48262600000.0 -144011000000.0 -503855000000.0 -116978000000.0 -109584000000.0 -204961000000.0 -33955200000.0 -79959600000.0 -57994000000.0 -83434700000.0 -53573900000.0 -13831500000.0 -28728500000.0 -473875000000.0 -161308000000.0 -121616000000.0 -19941100000.0 -136657000000.0 -66668700000.0 -193483000000.0 -27351500000.0 -61896800000.0 -741695000000.0 -70294900000.0 -123411000000.0 -432614000000.0 -444906000000.0 -844672000000.0 -43159300000.0 -28268400000.0 -644319000000.0 -15026700000.0 -105167000000.0 -12549700000.0 -32336600000.0 -419353000000.0 -300287000000.0 -142593000000.0 -287452000000.0 -258815000000.0 -244780000000.0 -211582000000.0 -73234600000.0 -906377000000.0 -143521000000.0 -306883000000.0 -616242000000.0 -236501000000.0 -457173000000.0 -63102400000.0 -314349000000.0 -269323000000.0 -310301000000.0 -311047000000.0 -676130000000.0 -828033000000.0 -363428000000.0 -347606000000.0 -354697000000.0 -410814000000.0 -262085000000.0 -349452000000.0 -206070000000.0 -327269000000.0 -306204000000.0 -210588000000.0 -134105000000.0 -363653000000.0 -269192000000.0 -279071000000.0 -311333000000.0 -317164000000.0 -320891000000.0 -395192000000.0 -180700000000.0 -161410000000.0 -201853000000.0 -99452900000.0 -15483000000.0 -118865000000.0 -446858000000.0 -240156000000.0 -289349000000.0 -320720000000.0 -232790000000.0 -532880000000.0 -274277000000.0 -448055000000.0 -174799000000.0 -130993000000.0 -100640000000.0 -428651000000.0 -462073000000.0 -616837000000.0 -223922000000.0 -260419000000.0 -399623000000.0 -199137000000.0 -130879000000.0 -51846800000.0 -426313000000.0 -365922000000.0 -368453000000.0 -555913000000.0 -257303000000.0 -213448000000.0 -87734200000.0 -206285000000.0 -128978000000.0 -253904000000.0 -216510000000.0 -244887000000.0 -164892000000.0 -154351000000.0 -590399000000.0 -230834000000.0 -150009000000.0 -68132500000.0 -179785000000.0 -81834700000.0 -107984000000.0 -92743400000.0 -85579200000.0 -728004000000.0 -85461700000.0 -420130000000.0 -546249000000.0 -474989000000.0 -979073000000.0 -37614700000.0 -32680800000.0 -375911000000.0 -343296000000.0 -470883000000.0 -183639000000.0 -237215000000.0 -272531000000.0 -243931000000.0 -232899000000.0 -524763000000.0 -304640000000.0 -883281000000.0 -556300000000.0 -467758000000.0 -870252000000.0 -694030000000.0 -764950000000.0 -753399000000.0 -579047000000.0 -676566000000.0 -626334000000.0 -800261000000.0 -330739000000.0 -390422000000.0 -385874000000.0 -326597000000.0 -354988000000.0 -377561000000.0 -317123000000.0 -360903000000.0 -113801000000.0 -248780000000.0 -200333000000.0 -71575700000.0 -254609000000.0 -184474000000.0 -14517400000.0 -12549700000.0 -75451000000.0 -80237400000.0 -187279000000.0 -115652000000.0 -227417000000.0 -124657000000.0 -260053000000.0 -355260000000.0 -172294000000.0 -228924000000.0 -392895000000.0 -78393900000.0 -132843000000.0 -130996000000.0 -81628900000.0 -241327000000.0 -94494000000.0 -17052000000.0 -357206000000.0 -241207000000.0 -329070000000.0 -314582000000.0 -68602600000.0 -318401000000.0 -316163000000.0 -225431000000.0 -252934000000.0 -188793000000.0 -213882000000.0 -556847000000.0 -124460000000.0 -181010000000.0 -213427000000.0 -215332000000.0 -20546200000.0 -205719000000.0 -190624000000.0 -273314000000.0 -201571000000.0 -96451300000.0 -138533000000.0 -139812000000.0 -116144000000.0 -128738000000.0 -536313000000.0 -347919000000.0 -204390000000.0 -151435000000.0 -244204000000.0 -31124100000.0 -57794900000.0 -26412900000.0 -43471400000.0 -934740000000.0 -252621000000.0 -124188000000.0 -113089000000.0 -341250000000.0 -12826000000.0 -74935300000.0 -843062000000.0 -46339400000.0 -733462000000.0 -189970000000.0 -12566100000.0 -279904000000.0 -28322200000.0 -117107000000.0 -240408000000.0 -323820000000.0 -245936000000.0 -308546000000.0 -420508000000.0 -241775000000.0 -691745000000.0 -647595000000.0 -961807000000.0 -264710000000.0 -323308000000.0 -264850000000.0 -399973000000.0 -221490000000.0 -394055000000.0 -82054800000.0 -612321000000.0 -48187400000.0 -205552000000.0 -92285200000.0 -39143400000.0 -93753600000.0 -54796000000.0 -188236000000.0 -71594800000.0 -255790000000.0 -25510200000.0 -14032900000.0 -104868000000.0 -194024000000.0 -148548000000.0 -48930000000.0 -41552200000.0 -86674000000.0 -171952000000.0 -170760000000.0 -68120700000.0 -190723000000.0 -45604200000.0 -120860000000.0 -175999000000.0 -108564000000.0 -194972000000.0 -263290000000.0 -51167500000.0 -245496000000.0 -212140000000.0 -132779000000.0 -355435000000.0 -170593000000.0 -94576400000.0 -506596000000.0 -92166300000.0 -86396600000.0 -544951000000.0 -206417000000.0 -249287000000.0 -233642000000.0 -309580000000.0 -448112000000.0 -343859000000.0 -647717000000.0 -48675200000.0 -36255400000.0 -12549700000.0 -245321000000.0 -102770000000.0 -40507500000.0 -128835000000.0 -39123000000.0 -132521000000.0 -107649000000.0 -178732000000.0 -128393000000.0 -116275000000.0 -102310000000.0 -90651700000.0 -190223000000.0 -581453000000.0 -162697000000.0 -230877000000.0 -248466000000.0 -389195000000.0 -539148000000.0 -446646000000.0 -691116000000.0 -238372000000.0 -48609700000.0 -473876000000.0 -84496800000.0 -407527000000.0 -12549700000.0 -365021000000.0 -752623000000.0 -1.14257e+12 -262547000000.0 -360244000000.0 -542793000000.0 -483057000000.0 -524271000000.0 -249045000000.0 -83098500000.0 -99222600000.0 -221113000000.0 -646834000000.0 -338209000000.0 -379254000000.0 -527319000000.0 -828686000000.0 -132001000000.0 -268130000000.0 -232929000000.0 -342669000000.0 -32407400000.0 -825854000000.0 -756610000000.0 -504873000000.0 -272529000000.0 -221784000000.0 -386685000000.0 -244473000000.0 -291525000000.0 -358011000000.0 -247596000000.0 -194546000000.0 -247965000000.0 -160156000000.0 -120665000000.0 -248751000000.0 -282181000000.0 -239784000000.0 -122188000000.0 -128414000000.0 -193286000000.0 -13257100000.0 -117575000000.0 -62509800000.0 -204163000000.0 -100478000000.0 -197320000000.0 -143459000000.0 -56491400000.0 -123081000000.0 -45149000000.0 -433229000000.0 -150351000000.0 -213841000000.0 -224061000000.0 -205350000000.0 -102658000000.0 -95131500000.0 -351795000000.0 -25583500000.0 -22392700000.0 -519380000000.0 -205843000000.0 -451619000000.0 -192171000000.0 -306611000000.0 -202026000000.0 -27614200000.0 -348000000000.0 -38327400000.0 -12549700000.0 -18486800000.0 -187333000000.0 -223119000000.0 -197774000000.0 -166900000000.0 -160609000000.0 -139847000000.0 -111896000000.0 -53097600000.0 -17836500000.0 -21632600000.0 -37814000000.0 -19237900000.0 -142606000000.0 -450299000000.0 -132598000000.0 -114545000000.0 -220199000000.0 -172530000000.0 -119538000000.0 -35539600000.0 -379301000000.0 -155766000000.0 -31708300000.0 -414372000000.0 -31609400000.0 -926058000000.0 -769087000000.0 -608679000000.0 -1.36674e+12 -12560100000.0 -167840000000.0 -531820000000.0 -479966000000.0 -300627000000.0 -532539000000.0 -371519000000.0 -334408000000.0 -511081000000.0 -182901000000.0 -521248000000.0 -1.02424e+12 -819473000000.0 -890897000000.0 -602544000000.0 -1.19953e+12 -761129000000.0 -963959000000.0 -718873000000.0 -189407000000.0 -223662000000.0 -409494000000.0 -280730000000.0 -420855000000.0 -392635000000.0 -399976000000.0 -538984000000.0 -87094200000.0 -119834000000.0 -135486000000.0 -66439700000.0 -68548200000.0 -126599000000.0 -13177400000.0 -111102000000.0 -148537000000.0 -55452200000.0 -72636600000.0 -124485000000.0 -59268100000.0 -116349000000.0 -129859000000.0 -193109000000.0 -71024300000.0 -167754000000.0 -223066000000.0 -236319000000.0 -108071000000.0 -284980000000.0 -27767900000.0 -27252600000.0 -95904100000.0 -30368200000.0 -307037000000.0 -172953000000.0 -163739000000.0 -394241000000.0 -171056000000.0 -298853000000.0 -366784000000.0 -256911000000.0 -131497000000.0 -361592000000.0 -161302000000.0 -240579000000.0 -200465000000.0 -75737500000.0 -201718000000.0 -332797000000.0 -41901900000.0 -26595500000.0 -44220200000.0 -172607000000.0 -215894000000.0 -13763900000.0 -69819500000.0 -14947800000.0 -151314000000.0 -144141000000.0 -97120800000.0 -77558100000.0 -102251000000.0 -132373000000.0 -134338000000.0 -207011000000.0 -401674000000.0 -50059000000.0 -47540000000.0 -169558000000.0 -95077000000.0 -121819000000.0 -46514700000.0 -298212000000.0 -54454100000.0 -36377000000.0 -606752000000.0 -1.00589e+12 -574447000000.0 -267501000000.0 -145402000000.0 -434057000000.0 -498514000000.0 -804119000000.0 -1.10687e+12 -639757000000.0 -120725000000.0 -360197000000.0 -340599000000.0 -464348000000.0 -449483000000.0 -616932000000.0 -624894000000.0 -488687000000.0 -304775000000.0 -446298000000.0 -803348000000.0 -728438000000.0 -78281000000.0 -250310000000.0 -295720000000.0 -952965000000.0 -699925000000.0 -650363000000.0 -350721000000.0 -246873000000.0 -194591000000.0 -152207000000.0 -28576200000.0 -19929300000.0 -317795000000.0 -154654000000.0 -172698000000.0 -150761000000.0 -243356000000.0 -63609400000.0 -58750100000.0 -84440100000.0 -100430000000.0 -12790100000.0 -21485900000.0 -64802300000.0 -16432100000.0 -73572900000.0 -12549700000.0 -176094000000.0 -72633500000.0 -88859900000.0 -129777000000.0 -152519000000.0 -145310000000.0 -216897000000.0 -25442300000.0 -12879900000.0 -78517300000.0 -33857100000.0 -278961000000.0 -31285100000.0 -47233700000.0 -248823000000.0 -288532000000.0 -121218000000.0 -12549700000.0 -343976000000.0 -253956000000.0 -258601000000.0 -391885000000.0 -203778000000.0 -287536000000.0 -232454000000.0 -217430000000.0 -202767000000.0 -430201000000.0 -144453000000.0 -80253100000.0 -173703000000.0 -120740000000.0 -78027900000.0 -123666000000.0 -12588200000.0 -13046100000.0 -19867300000.0 -17605600000.0 -23093000000.0 -113052000000.0 -385409000000.0 -177284000000.0 -173743000000.0 -218387000000.0 -176415000000.0 -245668000000.0 -96569900000.0 -234918000000.0 -21916900000.0 -24830300000.0 -12549700000.0 -492893000000.0 -328642000000.0 -332937000000.0 -463260000000.0 -353630000000.0 -571087000000.0 -36977100000.0 -720341000000.0 -226184000000.0 -241044000000.0 -232614000000.0 -117962000000.0 -192874000000.0 -87703100000.0 -12549700000.0 -364653000000.0 -244254000000.0 -535864000000.0 -520271000000.0 -784033000000.0 -444189000000.0 -155244000000.0 -12549700000.0 -258034000000.0 -534907000000.0 -274340000000.0 -394149000000.0 -233714000000.0 -117481000000.0 -181354000000.0 -153615000000.0 -33477200000.0 -17182800000.0 -245452000000.0 -107371000000.0 -165013000000.0 -133601000000.0 -156093000000.0 -22181900000.0 -23632400000.0 -56242900000.0 -86581000000.0 -33714900000.0 -27798300000.0 -60415900000.0 -42428300000.0 -50659700000.0 -38580700000.0 -114264000000.0 -25998100000.0 -60912500000.0 -67672200000.0 -175212000000.0 -18558200000.0 -187107000000.0 -113253000000.0 -95512000000.0 -157094000000.0 -130230000000.0 -101593000000.0 -203318000000.0 -95491400000.0 -103569000000.0 -319834000000.0 -37551100000.0 -218220000000.0 -140528000000.0 -100413000000.0 -426573000000.0 -291262000000.0 -388409000000.0 -103591000000.0 -342557000000.0 -119581000000.0 -68673000000.0 -53375900000.0 -228113000000.0 -14781200000.0 -134298000000.0 -256551000000.0 -180531000000.0 -120732000000.0 -57049500000.0 -94684400000.0 -22219500000.0 -15464600000.0 -32471500000.0 -15880300000.0 -155672000000.0 -318754000000.0 -48566000000.0 -74755100000.0 -198949000000.0 -256420000000.0 -278064000000.0 -341016000000.0 -335829000000.0 -720785000000.0 -339752000000.0 -140829000000.0 -384756000000.0 -303163000000.0 -282467000000.0 -152760000000.0 -169741000000.0 -122885000000.0 -522734000000.0 -736713000000.0 -185424000000.0 -226262000000.0 -488728000000.0 -253533000000.0 -361460000000.0 -173336000000.0 -220728000000.0 -298343000000.0 -532352000000.0 -28106500000.0 -223095000000.0 -414464000000.0 -206155000000.0 -520094000000.0 -418311000000.0 -213608000000.0 -434226000000.0 -530814000000.0 -12549700000.0 -81575400000.0 -198509000000.0 -149526000000.0 -160856000000.0 -205721000000.0 -216499000000.0 -285002000000.0 -76910100000.0 -108160000000.0 -140618000000.0 -171033000000.0 -13713500000.0 -15504100000.0 -26494600000.0 -114796000000.0 -45911200000.0 -50618300000.0 -85884100000.0 -81370300000.0 -75209100000.0 -62385300000.0 -151453000000.0 -101874000000.0 -180848000000.0 -205508000000.0 -257808000000.0 -81844600000.0 -158076000000.0 -30536400000.0 -12549700000.0 -105629000000.0 -115027000000.0 -147354000000.0 -40978100000.0 -35114600000.0 -215314000000.0 -14295700000.0 -17011300000.0 -378206000000.0 -213479000000.0 -688311000000.0 -583795000000.0 -664165000000.0 -594094000000.0 -470797000000.0 -260477000000.0 -140119000000.0 -110976000000.0 -106926000000.0 -291197000000.0 -53692900000.0 -130085000000.0 -276301000000.0 -58034200000.0 -12548500000.0 -190048000000.0 -89854900000.0 -93514800000.0 -131320000000.0 -116706000000.0 -143123000000.0 -145727000000.0 -12550200000.0 -392326000000.0 -172981000000.0 -128263000000.0 -223891000000.0 -12549700000.0 -113469000000.0 -91272900000.0 -178481000000.0 -57460300000.0 -18588000000.0 -15986400000.0 -246250000000.0 -224376000000.0 -155408000000.0 -31791200000.0 -44872000000.0 -251870000000.0 -251541000000.0 -505750000000.0 -18198900000.0 -197901000000.0 -209215000000.0 -145415000000.0 -167362000000.0 -278521000000.0 -269654000000.0 -443106000000.0 -573830000000.0 -294866000000.0 -348597000000.0 -565491000000.0 -170940000000.0 -324281000000.0 -147541000000.0 -142540000000.0 -797763000000.0 -71232500000.0 -94122400000.0 -28752800000.0 -142278000000.0 -130857000000.0 -14436900000.0 -23900200000.0 -61609700000.0 -150068000000.0 -12549700000.0 -18186300000.0 -53853900000.0 -12549700000.0 -157665000000.0 -129023000000.0 -148514000000.0 -46166700000.0 -39447500000.0 -51734500000.0 -89384800000.0 -87283300000.0 -84237700000.0 -125133000000.0 -214006000000.0 -149797000000.0 -87651600000.0 -15132800000.0 -139796000000.0 -12549700000.0 -93919000000.0 -39846300000.0 -14836100000.0 -98650000000.0 -136420000000.0 -195400000000.0 -31259200000.0 -137221000000.0 -113141000000.0 -371359000000.0 -305359000000.0 -326059000000.0 -252893000000.0 -434094000000.0 -14598300000.0 -221933000000.0 -79769000000.0 -461162000000.0 -127816000000.0 -94810000000.0 -187533000000.0 -54028100000.0 -27242500000.0 -191228000000.0 -239717000000.0 -23810800000.0 -137070000000.0 -48147700000.0 -184816000000.0 -101183000000.0 -108316000000.0 -114491000000.0 -84226400000.0 -119668000000.0 -56724400000.0 -142557000000.0 -160053000000.0 -229944000000.0 -19636400000.0 -50062900000.0 -190999000000.0 -99823000000.0 -15815700000.0 -12549700000.0 -75588200000.0 -29074800000.0 -12549700000.0 -63176400000.0 -224609000000.0 -216353000000.0 -68619600000.0 -37645000000.0 -18281600000.0 -201706000000.0 -255568000000.0 -69866500000.0 -550899000000.0 -347677000000.0 -429824000000.0 -343903000000.0 -492898000000.0 -542841000000.0 -450722000000.0 -126488000000.0 -336709000000.0 -54475300000.0 -19376200000.0 -698221000000.0 -307068000000.0 -334219000000.0 -361793000000.0 -279973000000.0 -501935000000.0 -507360000000.0 -268439000000.0 -109463000000.0 -34107700000.0 -102203000000.0 -45390500000.0 -36289200000.0 -42647700000.0 -36222100000.0 -116967000000.0 -75962000000.0 -62098600000.0 -12549700000.0 -116151000000.0 -74625900000.0 -78613800000.0 -51310200000.0 -41309900000.0 -41485100000.0 -67482200000.0 -39617600000.0 -48560200000.0 -13848400000.0 -81361700000.0 -36228900000.0 -87048900000.0 -113833000000.0 -92473100000.0 -243658000000.0 -198627000000.0 -171548000000.0 -40066400000.0 -212018000000.0 -248517000000.0 -272203000000.0 -118618000000.0 -184836000000.0 -225468000000.0 -95293800000.0 -330557000000.0 -73984300000.0 -177749000000.0 -78987600000.0 -683562000000.0 -362133000000.0 -287117000000.0 -254594000000.0 -310412000000.0 -235807000000.0 -374854000000.0 -202355000000.0 -30072200000.0 -221205000000.0 -244668000000.0 -145555000000.0 -140862000000.0 -171402000000.0 -84736200000.0 -67014900000.0 -89103500000.0 -151610000000.0 -102538000000.0 -202016000000.0 -92122800000.0 -74268600000.0 -51603600000.0 -42454800000.0 -68103000000.0 -15420400000.0 -12549700000.0 -17411000000.0 -18656500000.0 -187988000000.0 -148151000000.0 -13270000000.0 -26259600000.0 -107417000000.0 -368701000000.0 -119580000000.0 -273620000000.0 -265283000000.0 -170216000000.0 -221298000000.0 -89536400000.0 -76361100000.0 -163690000000.0 -251541000000.0 -491934000000.0 -446782000000.0 -425013000000.0 -218406000000.0 -71226600000.0 -18736900000.0 -170471000000.0 -27249300000.0 -313561000000.0 -195832000000.0 -15054900000.0 -148070000000.0 -97133900000.0 -134056000000.0 -37965300000.0 -33328500000.0 -18893500000.0 -22215600000.0 -71672000000.0 -68921200000.0 -45185200000.0 -47513200000.0 -125000000000.0 -21573800000.0 -16583000000.0 -23940700000.0 -19426700000.0 -13708800000.0 -12549700000.0 -34564400000.0 -13492900000.0 -27519900000.0 -14716000000.0 -48987500000.0 -12549700000.0 -32588700000.0 -47207900000.0 -34862800000.0 -155024000000.0 -93341600000.0 -99614200000.0 -122057000000.0 -129143000000.0 -187953000000.0 -86274800000.0 -85195000000.0 -87596700000.0 -79526000000.0 -138285000000.0 -115042000000.0 -46874100000.0 -411936000000.0 -63801700000.0 -320663000000.0 -371565000000.0 -223102000000.0 -105042000000.0 -13840100000.0 -141656000000.0 -125621000000.0 -156822000000.0 -106381000000.0 -69766700000.0 -246375000000.0 -70311300000.0 -77243500000.0 -118731000000.0 -21357200000.0 -79666600000.0 -47364200000.0 -20721400000.0 -17031100000.0 -126617000000.0 -86503300000.0 -172837000000.0 -131974000000.0 -116768000000.0 -168410000000.0 -73765000000.0 -139584000000.0 -138357000000.0 -50715000000.0 -16298600000.0 -42442700000.0 -22397400000.0 -20720100000.0 -44344600000.0 -14157800000.0 -27637300000.0 -12549700000.0 -155901000000.0 -328705000000.0 -390040000000.0 -436566000000.0 -352968000000.0 -392016000000.0 -474427000000.0 -268641000000.0 -387019000000.0 -546433000000.0 -354705000000.0 -296232000000.0 -346214000000.0 -284031000000.0 -295119000000.0 -311314000000.0 -408485000000.0 -260581000000.0 -254530000000.0 -171203000000.0 -314608000000.0 -93472300000.0 -70070800000.0 -92273100000.0 -95047400000.0 -248930000000.0 -73865800000.0 -76685900000.0 -80417100000.0 -22699000000.0 -23949200000.0 -79530500000.0 -61311900000.0 -58217800000.0 -12859600000.0 -13582300000.0 -14104200000.0 -71504400000.0 -16190800000.0 -12549700000.0 -16368200000.0 -13793300000.0 -12549700000.0 -12549700000.0 -27798600000.0 -12549700000.0 -20760000000.0 -15470500000.0 -19489700000.0 -37560100000.0 -14494700000.0 -22632600000.0 -26493700000.0 -25532100000.0 -83772200000.0 -43267500000.0 -47213000000.0 -87800700000.0 -125268000000.0 -194165000000.0 -160790000000.0 -121432000000.0 -127334000000.0 -177844000000.0 -187650000000.0 -212133000000.0 -296021000000.0 -85586400000.0 -397892000000.0 -59564800000.0 -126313000000.0 -199689000000.0 -260818000000.0 -76909200000.0 -51864100000.0 -175600000000.0 -99978000000.0 -89754700000.0 -116201000000.0 -118279000000.0 -114527000000.0 -83360300000.0 -87377500000.0 -96853800000.0 -67981100000.0 -117236000000.0 -139967000000.0 -285499000000.0 -198661000000.0 -106247000000.0 -20886500000.0 -27227400000.0 -35215300000.0 -19986500000.0 -12549700000.0 -12737300000.0 -36616500000.0 -13745800000.0 -118628000000.0 -12549700000.0 -20178900000.0 -68976500000.0 -105827000000.0 -39454900000.0 -110542000000.0 -108891000000.0 -22994500000.0 -41050700000.0 -19930600000.0 -81269100000.0 -52037200000.0 -121374000000.0 -90285200000.0 -44517600000.0 -91643800000.0 -72161700000.0 -158469000000.0 -96385000000.0 -137765000000.0 -110082000000.0 -80975900000.0 -92378600000.0 -78272200000.0 -63026200000.0 -38313500000.0 -43857100000.0 -48983400000.0 -38042400000.0 -40872800000.0 -43519900000.0 -26217000000.0 -26987400000.0 -28792400000.0 -73186900000.0 -14294000000.0 -15179900000.0 -13569500000.0 -12630700000.0 -12549700000.0 -12721700000.0 -15218600000.0 -21225900000.0 -21014700000.0 -23460000000.0 -12934000000.0 -12549700000.0 -12549700000.0 -32129400000.0 -34332400000.0 -15669000000.0 -29703600000.0 -17972400000.0 -29054200000.0 -68649500000.0 -25846600000.0 -80274700000.0 -62238300000.0 -75684000000.0 -149064000000.0 -186365000000.0 -179841000000.0 -102595000000.0 -264363000000.0 -106191000000.0 -153045000000.0 -64492200000.0 -56818600000.0 -88066500000.0 -62042700000.0 -88733000000.0 -82878700000.0 -67758500000.0 -32594300000.0 -22394100000.0 -17005200000.0 -51923900000.0 -12549700000.0 -37032300000.0 -16164500000.0 -51600900000.0 -33153100000.0 -19913100000.0 -13915900000.0 -59504300000.0 -74467100000.0 -12549700000.0 -64641200000.0 -25151800000.0 -74108300000.0 -37140800000.0 -47087900000.0 -50111200000.0 -27650600000.0 -12549700000.0 -12549400000.0 -12584300000.0 -51172500000.0 -14860400000.0 -20914700000.0 -44141400000.0 -60822200000.0 -33348700000.0 -77828800000.0 -97881400000.0 -76967900000.0 -88491000000.0 -82100000000.0 -48966900000.0 -56772100000.0 -12549700000.0 -12549700000.0 -20200800000.0 -30131500000.0 -20944400000.0 -31609100000.0 -12549700000.0 -15290000000.0 -17980000000.0 -14744100000.0 -53758800000.0 -23673800000.0 -19234400000.0 -12549700000.0 -14736500000.0 -15155600000.0 -13461300000.0 -16297500000.0 -15304400000.0 -12549700000.0 -12637900000.0 -12815200000.0 -17560700000.0 -44250300000.0 -40698400000.0 -39802900000.0 -43218800000.0 -42913400000.0 -40666500000.0 -44500000000.0 -54632700000.0 -57351400000.0 -59031400000.0 -48590500000.0 -44540300000.0 -45746000000.0 -48574600000.0 -54810800000.0 -52637100000.0 -43142700000.0 -53476900000.0 -42126100000.0 -41632100000.0 -27023800000.0 -61222700000.0 -87508700000.0 -78740600000.0 -82766000000.0 -69828900000.0 -46991900000.0 -72187900000.0 -72472400000.0 -32107100000.0 -30389600000.0 -37268500000.0 -20557400000.0 -20912800000.0 -12549700000.0 -16490100000.0 -13837300000.0 -12549700000.0 -16732200000.0 -29274300000.0 -19561200000.0 -16679200000.0 -22076000000.0 -20259300000.0 -24732200000.0 -12549700000.0 -22954700000.0 -21786600000.0 -25228600000.0 -30510300000.0 -20510800000.0 -34183400000.0 -25606900000.0 -42858100000.0 -30603600000.0 -37648500000.0 -26904000000.0 -27064400000.0 -14725100000.0 -12549700000.0 -13974000000.0 