# vtk DataFile Version 2.0
Time step 57
ASCII
DATASET UNSTRUCTURED_GRID
POINTS 5000 float
2398.29 51765.0 0
8534.12 51138.4 0
12439.0 50972.6 0
16747.6 50290.4 0
22243.6 51938.4 0
27669.2 48673.4 0
33205.1 51360.9 0
38185.3 51944.7 0
42703.9 52098.1 0
47472.2 52004.2 0
52137.1 52103.9 0
57004.9 50943.5 0
62763.5 52019.3 0
67994.7 52152.8 0
72702.5 51285.2 0
77500.0 52032.2 0
82500.0 52021.4 0
87407.7 51319.7 0
92500.0 52059.6 0
97192.5 52081.1 0
101292.0 51998.2 0
105946.0 51387.6 0
111936.0 51866.9 0
117850.0 52052.0 0
123330.0 52128.7 0
128345.0 52249.6 0
133428.0 51498.3 0
138124.0 52181.8 0
142500.0 52102.9 0
147500.0 52036.5 0
152501.0 52006.2 0
157589.0 51633.8 0
162561.0 51789.0 0
167010.0 51330.7 0
171830.0 50213.6 0
177734.0 50251.9 0
182938.0 49438.2 0
187393.0 51292.9 0
192498.0 52454.7 0
196079.0 51617.1 0
201747.0 50977.4 0
207650.0 51741.7 0
212984.0 51077.1 0
218128.0 52163.1 0
222479.0 52175.6 0
225794.0 51404.6 0
230434.0 51276.7 0
235810.0 52274.7 0
241170.0 50979.0 0
252680.0 50964.4 0
259052.0 51438.9 0
263773.0 52527.5 0
268740.0 51436.3 0
273935.0 51731.6 0
278881.0 50383.1 0
286325.0 52023.3 0
291717.0 52479.2 0
297319.0 50347.8 0
303664.0 51131.8 0
312126.0 51556.8 0
317929.0 52173.5 0
323245.0 52079.0 0
327581.0 52350.2 0
332206.0 51948.7 0
337223.0 51657.8 0
345896.0 51203.7 0
355258.0 52109.9 0
361815.0 50750.5 0
372012.0 48768.0 0
367954.0 52083.5 0
377031.0 50739.6 0
382609.0 51613.9 0
388132.0 50914.7 0
394019.0 50230.6 0
399200.0 51899.2 0
403650.0 49156.4 0
408587.0 50368.6 0
412474.0 52019.3 0
417500.0 52065.3 0
422737.0 50176.1 0
427271.0 51884.6 0
432478.0 49687.9 0
437541.0 52041.5 0
442088.0 50983.2 0
446251.0 50563.9 0
450665.0 51331.6 0
455208.0 51271.3 0
460242.0 51114.9 0
465793.0 51504.4 0
471628.0 50760.9 0
477063.0 49564.4 0
481305.0 52427.6 0
485844.0 49496.7 0
491674.0 51035.4 0
497601.0 49528.8 0
2284.55 56779.2 0
6062.54 54458.4 0
11087.3 55490.5 0
17332.6 56192.6 0
23005.6 57448.4 0
28519.6 55025.1 0
34969.3 56635.4 0
40341.9 56953.9 0
44464.7 57295.6 0
48279.9 55998.7 0
52500.0 57064.1 0
57995.3 56384.7 0
62850.0 57118.8 0
67505.2 56790.6 0
72115.8 56404.8 0
77500.0 57190.2 0
82116.1 56836.4 0
87907.8 56077.5 0
92500.0 57199.3 0
97183.4 56827.9 0
102467.0 56732.8 0
108243.0 55978.8 0
112500.0 57135.6 0
117500.0 57217.1 0
122500.0 57140.0 0
127727.0 56682.7 0
132494.0 57033.5 0
137520.0 57048.3 0
142774.0 56525.5 0
146926.0 56873.5 0
151937.0 56751.1 0
156860.0 55683.0 0
161296.0 56503.2 0
166509.0 56002.4 0
172971.0 55782.6 0
178375.0 55664.2 0
183533.0 54506.2 0
188604.0 55738.5 0
193571.0 56598.9 0
198250.0 55961.8 0
203920.0 56597.2 0
213692.0 55627.4 0
209357.0 56811.5 0
217601.0 57233.9 0
222032.0 56999.9 0
226801.0 55639.6 0
232205.0 56701.6 0
237686.0 57526.0 0
243283.0 57350.1 0
246502.0 52980.4 0
248462.0 57053.9 0
252678.0 57524.5 0
257263.0 56077.5 0
262325.0 56703.0 0
267061.0 56279.2 0
271610.0 55582.3 0
277075.0 55986.1 0
282030.0 53715.6 0
282828.0 57402.3 0
287500.0 57113.6 0
292913.0 56970.3 0
298250.0 55858.2 0
303119.0 56802.3 0
307730.0 53702.2 0
307441.0 56995.1 0
312501.0 57308.1 0
317474.0 57048.7 0
322433.0 56547.0 0
327500.0 57093.8 0
332500.0 57166.2 0
341019.0 52868.8 0
337713.0 56499.2 0
343308.0 55893.9 0
350686.0 53127.0 0
347752.0 56289.9 0
352668.0 57016.8 0
361440.0 56063.1 0
357754.0 56530.1 0
365113.0 55755.1 0
372930.0 55568.8 0
378819.0 55290.5 0
382004.0 56428.8 0
388375.0 56003.0 0
393554.0 56377.7 0
402999.0 55355.9 0
398136.0 56812.5 0
408388.0 54649.4 0
412865.0 55961.3 0
417520.0 56580.9 0
422128.0 54812.7 0
428327.0 56826.9 0
433429.0 54921.0 0
437510.0 57110.0 0
443214.0 55265.4 0
447602.0 54573.9 0
451946.0 55809.1 0
457177.0 55998.2 0
462429.0 57488.5 0
466599.0 56074.1 0
470193.0 57254.4 0
475181.0 56054.0 0
480797.0 57702.6 0
486589.0 55685.8 0
496837.0 55038.0 0
2238.62 62703.3 0
6738.89 59503.6 0
11843.3 61319.8 0
16323.3 61399.8 0
20502.9 61409.7 0
27043.9 61857.7 0
32616.0 61691.1 0
38263.9 61466.6 0
42970.8 61853.7 0
47589.1 60719.7 0
51800.7 62484.7 0
56554.7 62005.0 0
62115.3 61974.6 0
67697.9 61634.5 0
73695.3 61947.6 0
78211.1 62387.7 0
81954.5 61562.5 0
86960.3 61593.3 0
92531.5 61950.2 0
97548.4 61347.3 0
102630.0 62494.8 0
107924.0 60758.7 0
116732.0 61820.2 0
112494.0 62032.3 0
120857.0 61670.3 0
125864.0 61050.7 0
131158.0 62749.5 0
136445.0 62701.8 0
140992.0 60646.3 0
146305.0 61764.8 0
156244.0 60243.6 0
161703.0 62193.8 0
169996.0 60569.0 0
176294.0 61421.9 0
182187.0 59645.2 0
188048.0 61900.1 0
194261.0 61625.0 0
199972.0 61066.8 0
208111.0 61720.1 0
204288.0 62062.0 0
213300.0 60438.3 0
217709.0 62167.6 0
222564.0 61274.2 0
226872.0 60644.5 0
232444.0 62166.3 0
237422.0 61951.9 0
241792.0 62605.2 0
246841.0 61121.9 0
251784.0 62415.6 0
257738.0 60829.5 0
262720.0 61480.7 0
267490.0 60733.7 0
273047.0 60822.3 0
279878.0 60049.5 0
283554.0 62335.1 0
287215.0 62402.7 0
291016.0 61276.6 0
296734.0 60901.6 0
302233.0 62037.2 0
307700.0 61424.9 0
313207.0 62550.1 0
318188.0 61538.7 0
322509.0 60552.3 0
326812.0 62433.8 0
336512.0 61163.8 0
331856.0 62149.2 0
341414.0 60099.3 0
346846.0 60676.5 0
351893.0 61851.8 0
356026.0 60404.2 0
361261.0 60765.1 0
366513.0 59836.0 0
371101.0 61709.4 0
377673.0 61225.4 0
384354.0 59766.4 0
392424.0 61200.4 0
388338.0 62954.6 0
397217.0 61160.2 0
402858.0 61596.9 0
409244.0 60294.3 0
414413.0 62848.6 0
419145.0 61270.2 0
424121.0 59630.0 0
427686.0 62666.1 0
432250.0 60544.3 0
437342.0 61281.2 0
442359.0 60502.3 0
448276.0 59646.9 0
454179.0 61213.2 0
458993.0 62263.0 0
463188.0 62026.0 0
467519.0 62132.5 0
472372.0 60576.5 0
477746.0 61524.4 0
482622.0 62397.4 0
492077.0 57936.2 0
491506.0 61997.6 0
496591.0 61606.7 0
2182.12 67117.3 0
8050.23 65344.1 0
13472.0 65946.7 0
17752.4 65244.2 0
22417.4 65783.3 0
26989.1 67780.6 0
32073.0 65978.5 0
37589.6 66671.4 0
43206.3 66916.8 0
49063.6 65511.1 0
53807.2 67185.5 0
59223.1 66683.8 0
63617.0 66306.2 0
68064.9 67306.3 0
72603.0 66823.2 0
77068.8 66306.9 0
82136.1 66583.5 0
87334.0 66767.0 0
92269.2 67280.8 0
97732.1 66699.4 0
102767.0 67951.1 0
107685.0 66256.9 0
113113.0 66361.5 0
118139.0 66296.3 0
123420.0 65657.9 0
127500.0 67214.4 0
137738.0 66615.8 0
132691.0 67577.5 0
142524.0 66765.2 0
151834.0 63362.6 0
148002.0 66372.9 0
156828.0 65637.6 0
153420.0 68015.9 0
160406.0 67006.7 0
166528.0 64012.1 0
164429.0 67715.5 0
170842.0 66598.1 0
177032.0 67989.9 0
182233.0 65123.8 0
186625.0 67534.5 0
191646.0 67021.4 0
197223.0 66352.3 0
203055.0 66206.1 0
208748.0 68066.2 0
214360.0 66109.1 0
218717.0 67416.6 0
222020.0 65531.9 0
227505.0 66194.8 0
234333.0 66545.7 0
237875.0 65275.9 0
241749.0 67205.8 0
246210.0 66307.1 0
251518.0 67674.1 0
255872.0 65544.8 0
260336.0 65214.3 0
266349.0 65415.8 0
271756.0 67091.1 0
278361.0 65552.4 0
284358.0 67074.0 0
288758.0 65556.1 0
292983.0 67271.8 0
298941.0 67201.5 0
303985.0 67434.0 0
307500.0 67257.8 0
316257.0 66253.0 0
312166.0 67076.6 0
321079.0 65777.1 0
325851.0 67366.5 0
329893.0 65975.7 0
334356.0 67972.9 0
339780.0 65490.2 0
346088.0 66931.1 0
352844.0 67427.3 0
357349.0 64361.7 0
361674.0 66752.9 0
366550.0 64528.7 0
371934.0 67343.4 0
382813.0 65282.5 0
387369.0 67140.0 0
393045.0 67872.6 0
399508.0 66766.6 0
408059.0 65643.1 0
404321.0 66793.5 0
412346.0 67312.2 0
416948.0 66652.3 0
421365.0 67898.0 0
425659.0 66293.5 0
431067.0 66736.2 0
437114.0 65476.1 0
441811.0 66088.0 0
446524.0 64643.7 0
450848.0 65140.6 0
455406.0 66985.9 0
461200.0 66674.8 0
466975.0 66458.4 0
472593.0 65535.9 0
478847.0 67023.6 0
487506.0 63500.5 0
484704.0 67538.5 0
492124.0 65853.0 0
1482.51 71791.6 0
7155.43 71651.9 0
11905.8 69686.9 0
17161.8 70423.4 0
23053.4 71167.4 0
30224.5 70518.1 0
34875.2 71312.3 0
39764.5 70735.4 0
43683.6 72569.3 0
48583.4 70735.5 0
53135.3 73186.9 0
57213.7 71076.0 0
63064.5 71081.2 0
68310.1 72481.9 0
73401.6 70881.3 0
78302.6 71455.3 0
83594.0 71524.2 0
88398.3 71584.3 0
92509.0 72123.0 0
97237.0 72114.9 0
101195.0 72180.6 0
105585.0 71773.0 0
111306.0 70945.4 0
116640.0 71554.4 0
122098.0 70848.1 0
126931.0 71255.9 0
131218.0 71958.0 0
136577.0 71165.8 0
142212.0 72458.6 0
147012.0 70650.1 0
151801.0 72582.4 0
157942.0 71575.5 0
167047.0 70590.1 0
163657.0 72200.9 0
171003.0 72606.1 0
182933.0 72043.8 0
193693.0 71107.0 0
189204.0 71939.9 0
198249.0 72239.6 0
203174.0 71307.0 0
212115.0 72317.9 0
216320.0 70726.1 0
221175.0 71065.8 0
226331.0 72832.8 0
231983.0 71044.1 0
237943.0 70011.8 0
242843.0 71862.4 0
248029.0 71385.2 0
252897.0 71702.2 0
257727.0 70727.0 0
262636.0 68788.8 0
267587.0 71367.8 0
272697.0 72976.2 0
278480.0 72206.8 0
283573.0 71660.8 0
288835.0 70876.7 0
293487.0 71869.7 0
302639.0 71739.3 0
307114.0 72099.3 0
311941.0 71817.9 0
316965.0 70689.8 0
322295.0 71372.6 0
330937.0 71490.6 0
327150.0 72237.0 0
341522.0 70984.0 0
337123.0 71869.4 0
346657.0 72898.6 0
351576.0 73077.8 0
357892.0 70940.0 0
367104.0 69436.0 0
362982.0 71727.1 0
370163.0 72884.8 0
374540.0 72898.9 0
377880.0 68676.8 0
383272.0 71293.7 0
388210.0 71320.4 0
397892.0 72703.8 0
403054.0 70769.2 0
408162.0 70493.2 0
414685.0 70960.2 0
417929.0 72213.2 0
422500.0 72758.7 0
427477.0 70742.7 0
431264.0 72164.9 0
436128.0 70460.7 0
441997.0 71748.3 0
448332.0 70154.7 0
454028.0 72146.8 0
459446.0 72287.5 0
464982.0 71565.5 0
473889.0 70752.2 0
469647.0 72417.2 0
481986.0 71977.2 0
489148.0 68262.7 0
486773.0 71873.4 0
492177.0 72430.2 0
496754.0 68249.1 0
2749.68 75829.7 0
7838.86 78172.7 0
12671.5 74192.0 0
18088.6 76193.7 0
23745.7 76925.7 0
28648.7 74564.4 0
33633.5 76868.8 0
39135.8 75576.4 0
43746.6 76779.1 0
48695.4 76705.1 0
54182.6 77891.3 0
59720.7 76087.3 0
64872.2 77187.2 0
68290.2 76671.0 0
72212.2 74759.9 0
76319.1 76350.6 0
81940.2 76944.8 0
87885.6 76653.3 0
96906.3 76687.9 0
92636.6 77049.2 0
101491.0 76817.5 0
106437.0 77109.4 0
111043.0 75794.9 0
115385.0 76270.7 0
120870.0 76872.7 0
127441.0 76520.2 0
133301.0 76411.1 0
138726.0 76898.0 0
143744.0 77065.5 0
148389.0 76667.8 0
152799.0 77172.6 0
157000.0 77273.1 0
161442.0 76050.7 0
166774.0 75941.9 0
176727.0 74281.1 0
186882.0 76941.2 0
192411.0 76447.4 0
197843.0 77947.7 0
202629.0 75883.0 0
207321.0 73446.7 0
206637.0 78058.9 0
210631.0 76845.7 0
216384.0 76620.8 0
222686.0 76708.7 0
236016.0 74994.6 0
240938.0 77429.1 0
246423.0 77980.9 0
250904.0 75852.2 0
256764.0 76934.4 0
262829.0 74367.9 0
268273.0 76723.9 0
272894.0 77873.2 0
277850.0 78216.4 0
282084.0 75591.1 0
287109.0 76962.5 0
293046.0 76289.2 0
297506.0 73247.1 0
301871.0 75666.2 0
306177.0 77579.9 0
311437.0 77546.0 0
316864.0 75815.0 0
322340.0 77292.9 0
328008.0 76848.0 0
333887.0 75719.5 0
342202.0 76964.6 0
347980.0 77650.5 0
355549.0 75203.1 0
352291.0 77355.3 0
360516.0 76468.6 0
366513.0 76578.8 0
372525.0 77841.1 0
378545.0 76248.9 0
383421.0 75432.1 0
387240.0 75791.2 0
392170.0 74119.0 0
400401.0 77003.1 0
405311.0 76009.8 0
411971.0 75077.4 0
417777.0 76948.1 0
422969.0 77627.9 0
427295.0 74996.2 0
432241.0 76755.8 0
437085.0 75792.4 0
441852.0 77354.6 0
447111.0 76319.5 0
452640.0 77335.8 0
458109.0 77649.1 0
462539.0 77246.5 0
466556.0 76247.6 0
471814.0 76983.8 0
477664.0 73825.6 0
482254.0 77334.2 0
487738.0 76721.8 0
492469.0 78286.6 0
497457.0 73984.8 0
3058.13 81629.3 0
13610.1 80039.7 0
23880.6 82627.8 0
28782.8 79907.4 0
33720.1 82572.8 0
38542.4 80761.9 0
43272.1 81036.2 0
49672.6 81598.3 0
53687.2 82636.3 0
58566.5 81955.3 0
63416.8 81134.0 0
67007.3 81596.7 0
71705.4 80095.8 0
77975.0 81681.0 0
83400.1 83026.8 0
88018.9 81686.1 0
93070.7 81668.1 0
98000.1 81157.4 0
105783.0 81545.8 0
102078.0 82810.7 0
110765.0 81148.6 0
116642.0 81049.9 0
126500.0 81781.7 0
122654.0 82340.8 0
131193.0 81105.8 0
135218.0 82931.5 0
139747.0 82449.5 0
145104.0 81659.4 0
150850.0 81718.5 0
156884.0 82630.3 0
162036.0 80713.6 0
167180.0 81038.9 0
172235.0 78390.5 0
177079.0 78606.3 0
176185.0 82331.0 0
181363.0 78654.6 0
185795.0 82225.6 0
191577.0 82326.8 0
202645.0 81319.8 0
207609.0 82081.8 0
212134.0 81226.1 0
217212.0 83008.2 0
223347.0 82678.5 0
228326.0 78377.5 0
233993.0 79533.4 0
238461.0 83193.7 0
243836.0 82471.2 0
248991.0 82082.9 0
252376.0 80125.2 0
255537.0 83035.1 0
262544.0 81529.3 0
268736.0 81692.6 0
273495.0 82419.8 0
282796.0 80969.5 0
287975.0 82953.4 0
293224.0 81623.0 0
297883.0 78604.2 0
302610.0 81513.4 0
308389.0 82496.1 0
313173.0 82088.1 0
317438.0 81569.4 0
325879.0 80826.7 0
322203.0 82868.9 0
329963.0 82011.6 0
335028.0 82557.2 0
337521.0 79147.7 0
340295.0 82965.7 0
351082.0 81821.7 0
356010.0 79799.0 0
360812.0 82345.5 0
366435.0 82323.5 0
371142.0 82777.6 0
383496.0 79879.1 0
390730.0 78752.3 0
387807.0 83054.7 0
392748.0 83081.7 0
396042.0 78527.3 0
403887.0 82046.8 0
409494.0 80674.7 0
414470.0 80923.9 0
417768.0 81083.2 0
420957.0 81439.6 0
427626.0 81507.3 0
433303.0 81122.2 0
437888.0 80771.8 0
442650.0 82247.9 0
448517.0 82204.1 0
453997.0 82201.5 0
458539.0 82618.9 0
462991.0 82398.7 0
467794.0 81227.6 0
472983.0 82730.0 0
476954.0 78544.8 0
479983.0 82448.1 0
484311.0 82302.3 0
488549.0 81848.4 0
492636.0 82441.2 0
497459.0 79068.5 0
2142.5 87534.0 0
8752.31 84056.4 0
13671.7 87683.4 0
18380.5 83775.4 0
22344.8 87113.7 0
27492.4 87561.0 0
32330.3 86824.0 0
37272.4 87371.6 0
46373.4 85399.2 0
51408.8 87786.0 0
57400.6 88085.3 0
63645.5 86303.7 0
68689.6 84878.8 0
73558.1 87947.7 0
79821.4 87159.0 0
85124.8 87951.1 0
90126.9 86167.4 0
95038.0 88023.4 0
98603.8 85332.9 0
105637.0 86055.6 0
111337.0 87485.8 0
118204.0 86620.0 0
123812.0 86868.8 0
128387.0 85198.7 0
133268.0 87275.4 0
137790.0 86389.8 0
141902.0 87241.7 0
147422.0 86970.1 0
152993.0 86925.7 0
161786.0 86281.5 0
167144.0 86009.6 0
171462.0 83715.2 0
170761.0 87746.3 0
176881.0 87325.0 0
180973.0 84256.5 0
186887.0 87252.2 0
191537.0 87631.3 0
197331.0 83477.6 0
201625.0 86792.1 0
207153.0 87049.7 0
212987.0 86736.0 0
219801.0 88096.4 0
228979.0 84372.2 0
224910.0 87999.5 0
228653.0 88465.7 0
233411.0 84000.5 0
232798.0 87781.5 0
236990.0 88434.4 0
242102.0 86722.1 0
246559.0 86447.0 0
251470.0 86047.9 0
257766.0 88301.8 0
262740.0 87602.9 0
268253.0 87309.6 0
274071.0 87381.5 0
278387.0 83606.0 0
284548.0 87002.0 0
289725.0 87883.7 0
293313.0 85979.5 0
297717.0 83883.5 0
302306.0 87198.5 0
307427.0 87760.1 0
312020.0 86260.9 0
316759.0 86163.6 0
321330.0 88002.0 0
326427.0 86453.8 0
331733.0 86962.2 0
337285.0 88266.5 0
345916.0 83687.6 0
342892.0 88296.7 0
346827.0 88254.8 0
351163.0 86997.6 0
356391.0 85367.6 0
361676.0 88450.6 0
366973.0 87194.3 0
371655.0 87259.8 0
377225.0 83505.9 0
382200.0 87431.9 0
386894.0 87779.0 0
391451.0 87589.1 0
395528.0 88341.2 0
398356.0 84042.1 0
405863.0 87820.1 0
411605.0 86198.5 0
416991.0 84808.1 0
422627.0 86439.4 0
428258.0 87592.9 0
432998.0 85766.3 0
438724.0 86417.9 0
444698.0 87128.5 0
455670.0 86595.2 0
461373.0 87487.4 0
468723.0 86452.4 0
473167.0 88302.9 0
477805.0 86959.4 0
482449.0 87130.3 0
486594.0 86003.0 0
490650.0 86455.1 0
497770.0 83828.9 0
495004.0 87809.6 0
2239.97 92106.6 0
7229.67 90135.0 0
18604.2 88717.3 0
18049.7 93174.0 0
23275.3 91967.2 0
29083.8 93534.0 0
32590.8 90298.3 0
35952.0 93190.7 0
42440.8 88694.9 0
40991.7 92912.8 0
47008.8 91881.3 0
52812.1 92530.3 0
62196.0 91698.2 0
67964.2 91764.7 0
78090.1 91755.3 0
82804.0 92667.9 0
88774.3 92489.7 0
93973.0 92866.0 0
101293.0 88689.9 0
97844.3 91390.8 0
101251.0 92975.0 0
105727.0 91548.2 0
110243.0 92924.3 0
115522.0 92500.0 0
121623.0 91700.7 0
128112.0 91237.7 0
137500.0 90331.0 0
133715.0 92110.0 0
142031.0 92509.2 0
148122.0 93552.1 0
157246.0 88544.9 0
153546.0 91745.4 0
157983.0 92723.4 0
163103.0 92119.5 0
173356.0 90993.9 0
168439.0 91279.9 0
177762.0 91767.2 0
182321.0 89077.1 0
186463.0 92519.2 0
191579.0 92142.9 0
196349.0 88924.2 0
201124.0 92384.9 0
207148.0 93110.3 0
212098.0 91669.4 0
216812.0 92883.0 0
226069.0 92527.7 0
231021.0 91813.5 0
235877.0 93072.7 0
241284.0 91631.4 0
246730.0 91383.8 0
252429.0 91559.4 0
257588.0 93549.5 0
263719.0 93106.8 0
269612.0 92973.8 0
274590.0 92363.4 0
279358.0 89129.1 0
284011.0 91462.9 0
288600.0 92898.0 0
292659.0 91305.4 0
296526.0 88804.3 0
298744.0 93507.4 0
303662.0 92151.4 0
307813.0 92077.5 0
312335.0 91488.7 0
317612.0 91202.0 0
323360.0 92991.8 0
328006.0 91118.7 0
332709.0 92075.0 0
337436.0 93579.4 0
345477.0 91969.7 0
341914.0 92225.6 0
349517.0 91189.5 0
355327.0 91567.4 0
366485.0 91914.6 0
373419.0 92410.8 0
378335.0 90112.1 0
383175.0 93076.4 0
392581.0 91960.2 0
388072.0 92184.6 0
397113.0 92199.1 0
400529.0 89151.6 0
408059.0 92577.4 0
403354.0 93298.9 0
412514.0 91444.3 0
417167.0 89935.5 0
421019.0 91986.7 0
425370.0 91624.9 0
431956.0 91409.8 0
437682.0 92657.4 0
443668.0 92710.0 0
450508.0 88883.9 0
454498.0 91841.5 0
458800.0 92778.3 0
463934.0 92603.3 0
465834.0 89130.9 0
469297.0 91940.3 0
474377.0 92838.6 0
479087.0 91847.2 0
483695.0 93531.8 0
486586.0 90207.1 0
491384.0 92275.0 0
497411.0 92426.4 0
2127.63 96474.0 0
6960.67 96020.4 0
12440.8 93746.5 0
16008.8 97181.3 0
20037.5 97459.2 0
24885.1 97218.7 0
32222.3 97899.3 0
43318.6 97334.9 0
48686.6 97879.1 0
53580.0 97059.0 0
57603.1 94245.8 0
62542.2 96930.1 0
67219.3 97016.0 0
73651.9 94653.8 0
79099.4 97274.7 0
84543.1 97265.9 0
88606.8 97525.5 0
92508.1 96973.9 0
97466.4 95782.2 0
102445.0 97401.0 0
107194.0 96300.3 0
111837.0 97087.6 0
117994.0 98007.3 0
123247.0 96932.6 0
127766.0 96625.3 0
132819.0 97180.1 0
138522.0 96434.9 0
143145.0 97338.5 0
151877.0 97338.1 0
156564.0 97556.2 0
161568.0 97052.9 0
166875.0 96155.6 0
173249.0 97214.7 0
181596.0 93649.4 0
178608.0 97363.6 0
183533.0 98300.9 0
189457.0 97369.2 0
195892.0 94675.6 0
193907.0 98498.2 0
199741.0 97401.0 0
203874.0 97982.6 0
208359.0 98249.8 0
212779.0 96328.5 0
219058.0 97630.7 0
221590.0 93700.0 0
223358.0 97199.9 0
227641.0 97229.4 0
232481.0 96523.4 0
237723.0 97535.0 0
242285.0 97953.6 0
246690.0 96221.0 0
251863.0 97809.8 0
257453.0 97846.6 0
267688.0 97162.3 0
271757.0 96724.4 0
279917.0 94473.0 0
276114.0 97192.2 0
284286.0 95876.2 0
288580.0 98136.9 0
293601.0 95847.3 0
298814.0 98268.1 0
302642.0 97097.4 0
306701.0 95948.5 0
311690.0 97181.9 0
316843.0 96033.8 0
321345.0 97925.6 0
324883.0 96883.8 0
328697.0 95830.2 0
334154.0 97698.2 0
339612.0 97487.9 0
344142.0 96186.3 0
350099.0 96845.3 0
356711.0 98413.8 0
360663.0 93638.7 0
363251.0 98303.0 0
369396.0 96702.6 0
374924.0 97729.0 0
378300.0 94608.5 0
379744.0 98579.8 0
388067.0 96684.5 0
397920.0 96379.2 0
393143.0 97032.0 0
401986.0 97624.9 0
406595.0 97201.3 0
412747.0 97340.2 0
418441.0 95370.2 0
423544.0 96790.4 0
428715.0 95431.5 0
433882.0 97893.0 0
445499.0 97428.5 0
450716.0 95315.8 0
456148.0 96921.5 0
463205.0 96647.8 0
460063.0 97388.0 0
467453.0 97205.0 0
472541.0 97137.1 0
477866.0 97176.0 0
482744.0 97779.8 0
487589.0 96774.7 0
492465.0 97463.4 0
497811.0 97187.6 0
3067.49 101583.0 0
8555.78 100520.0 0
12582.0 99155.1 0
12197.7 103702.0 0
16421.3 101354.0 0
21312.8 102362.0 0
27466.5 102574.0 0
32650.2 101706.0 0
37673.8 98792.0 0
42307.0 102487.0 0
47951.2 103388.0 0
53255.7 102015.0 0
57459.4 99156.5 0
58928.9 103048.0 0
62499.4 101352.0 0
71133.1 99421.9 0
66930.3 101452.0 0
71358.9 103602.0 0
76176.3 102467.0 0
82351.8 100871.0 0
86393.6 101206.0 0
91254.4 102057.0 0
96602.0 100904.0 0
101325.0 102063.0 0
106448.0 101469.0 0
112395.0 102599.0 0
118078.0 103434.0 0
123220.0 102184.0 0
128379.0 101128.0 0
133236.0 102664.0 0
138695.0 102166.0 0
143897.0 101380.0 0
146817.0 103765.0 0
147994.0 99527.3 0
152641.0 101770.0 0
158024.0 102034.0 0
162828.0 101186.0 0
168108.0 101607.0 0
172596.0 102892.0 0
177246.0 102650.0 0
182426.0 103257.0 0
187087.0 102255.0 0
192265.0 102523.0 0
197934.0 102122.0 0
202908.0 101965.0 0
207315.0 102952.0 0
212051.0 101272.0 0
217205.0 102700.0 0
222464.0 101422.0 0
227444.0 102773.0 0
232440.0 101230.0 0
237065.0 101848.0 0
241372.0 102425.0 0
246106.0 101238.0 0
254521.0 102281.0 0
250344.0 102821.0 0
258823.0 102908.0 0
262305.0 99334.8 0
267465.0 102498.0 0
272517.0 100611.0 0
277261.0 102473.0 0
283204.0 101269.0 0
288224.0 102693.0 0
292775.0 101452.0 0
297385.0 102221.0 0
302107.0 102239.0 0
306893.0 100676.0 0
316042.0 100928.0 0
311368.0 102698.0 0
320406.0 102346.0 0
326139.0 101671.0 0
332573.0 103751.0 0
338274.0 102747.0 0
343317.0 101132.0 0
348164.0 102331.0 0
353179.0 102885.0 0
363217.0 103794.0 0
372382.0 101872.0 0
367630.0 102261.0 0
377383.0 103233.0 0
382001.0 101762.0 0
384038.0 98705.8 0
387378.0 101310.0 0
391838.0 101749.0 0
396416.0 100961.0 0
401430.0 102528.0 0
406579.0 102064.0 0
411926.0 103701.0 0
417742.0 101295.0 0
428007.0 101640.0 0
435852.0 103165.0 0
440195.0 98823.4 0
440095.0 103775.0 0
448653.0 99979.1 0
444884.0 102583.0 0
448961.0 103092.0 0
453284.0 101696.0 0
458570.0 100811.0 0
463271.0 100840.0 0
468255.0 102262.0 0
473568.0 102320.0 0
478469.0 102089.0 0
481959.0 102623.0 0
485368.0 101235.0 0
490339.0 101349.0 0
495332.0 101442.0 0
2830.08 107490.0 0
7503.84 104939.0 0
9658.12 108791.0 0
12525.6 107341.0 0
17166.3 106894.0 0
23592.5 107795.0 0
28520.3 107661.0 0
32917.9 105813.0 0
37798.4 104158.0 0
44154.5 107848.0 0
51666.1 106504.0 0
56222.7 106595.0 0
61495.7 107027.0 0
67362.7 106953.0 0
73115.1 107969.0 0
80897.4 105132.0 0
86723.9 106832.0 0
92877.3 108040.0 0
98368.7 106276.0 0
103676.0 106218.0 0
108521.0 106865.0 0
113657.0 107982.0 0
118711.0 108736.0 0
123557.0 107218.0 0
128426.0 106303.0 0
133081.0 107184.0 0
137596.0 107543.0 0
143072.0 105506.0 0
146707.0 107811.0 0
150635.0 105706.0 0
155609.0 105786.0 0
161150.0 106069.0 0
167133.0 107686.0 0
172930.0 107180.0 0
178054.0 108160.0 0
183654.0 108023.0 0
189253.0 106996.0 0
194195.0 107044.0 0
203778.0 106184.0 0
199079.0 107772.0 0
208282.0 107993.0 0
213126.0 106531.0 0
217850.0 108005.0 0
222500.0 107174.0 0
227501.0 107350.0 0
231363.0 105364.0 0
235333.0 105891.0 0
241011.0 106816.0 0
246228.0 107087.0 0
252669.0 107567.0 0
257745.0 106700.0 0
262636.0 105830.0 0
268650.0 107215.0 0
272487.0 105263.0 0
276648.0 107522.0 0
282612.0 107047.0 0
287964.0 107106.0 0
293356.0 106932.0 0
298042.0 106089.0 0
302181.0 108146.0 0
306759.0 105550.0 0
311373.0 107920.0 0
317138.0 106616.0 0
322854.0 106881.0 0
326675.0 106622.0 0
331450.0 108164.0 0
335630.0 108647.0 0
340794.0 107443.0 0
345207.0 105530.0 0
349873.0 106954.0 0
358609.0 103931.0 0
361544.0 108509.0 0
367147.0 107660.0 0
372564.0 106786.0 0
382880.0 106416.0 0
389047.0 106283.0 0
397278.0 106142.0 0
393443.0 108434.0 0
402363.0 108166.0 0
407529.0 106774.0 0
417012.0 106995.0 0
422243.0 104223.0 0
421587.0 108851.0 0
426096.0 107747.0 0
432009.0 107037.0 0
437797.0 108121.0 0
443150.0 107603.0 0
447787.0 106774.0 0
452656.0 107615.0 0
457750.0 105660.0 0
463132.0 106013.0 0
468193.0 107408.0 0
473083.0 107483.0 0
478096.0 106927.0 0
482741.0 107238.0 0
487707.0 106141.0 0
493259.0 106179.0 0
497790.0 105732.0 0
2518.49 112832.0 0
7270.39 112235.0 0
12117.4 112568.0 0
17593.5 113168.0 0
23418.1 113854.0 0
28810.7 112169.0 0
32724.3 110513.0 0
37937.0 109825.0 0
43274.2 113279.0 0
48947.2 109538.0 0
47709.2 113358.0 0
52884.5 112197.0 0
58211.0 111370.0 0
64170.5 112630.0 0
71361.7 111513.0 0
69258.9 113577.0 0
75107.8 113341.0 0
78025.2 108975.0 0
81048.7 113140.0 0
87053.8 113493.0 0
96751.5 112097.0 0
92020.6 112623.0 0
101923.0 110571.0 0
107424.0 112959.0 0
113364.0 112977.0 0
118426.0 113997.0 0
123398.0 112285.0 0
128618.0 111468.0 0
133599.0 111714.0 0
141641.0 110076.0 0
137995.0 113353.0 0
145474.0 112673.0 0
150726.0 111417.0 0
156814.0 111012.0 0
162657.0 112136.0 0
170995.0 112046.0 0
175347.0 113773.0 0
183159.0 111975.0 0
179617.0 112847.0 0
187240.0 112077.0 0
192617.0 111652.0 0
197965.0 113411.0 0
202934.0 111192.0 0
206811.0 113552.0 0
210961.0 112102.0 0
215629.0 112320.0 0
221240.0 112395.0 0
227185.0 112711.0 0
231614.0 109551.0 0
237589.0 111583.0 0
243850.0 112287.0 0
248904.0 112059.0 0
254146.0 113696.0 0
257368.0 110038.0 0
260306.0 112077.0 0
265515.0 110998.0 0
272406.0 111567.0 0
279500.0 112291.0 0
285572.0 111175.0 0
290284.0 111048.0 0
297351.0 111286.0 0
302309.0 113249.0 0
306882.0 111025.0 0
312363.0 113972.0 0
318328.0 112434.0 0
323488.0 111831.0 0
328118.0 110122.0 0
332371.0 112617.0 0
340946.0 112022.0 0
337052.0 113234.0 0
345691.0 110822.0 0
350918.0 112930.0 0
355448.0 109118.0 0
359291.0 113315.0 0
364354.0 113006.0 0
368943.0 112323.0 0
373329.0 111656.0 0
377583.0 108969.0 0
381329.0 112243.0 0
386962.0 112425.0 0
393352.0 113288.0 0
398527.0 111722.0 0
402914.0 113106.0 0
407775.0 112174.0 0
411988.0 109007.0 0
415879.0 112806.0 0
424598.0 111783.0 0
428963.0 112320.0 0
434131.0 112016.0 0
438737.0 113304.0 0
442788.0 111965.0 0
447719.0 112038.0 0
453045.0 112637.0 0
458331.0 111464.0 0
463625.0 110831.0 0
468161.0 112735.0 0
473597.0 111895.0 0
478149.0 112085.0 0
482808.0 111437.0 0
487497.0 111723.0 0
492502.0 111130.0 0
497556.0 110380.0 0
2475.48 117826.0 0
7677.03 117256.0 0
12004.5 116768.0 0
15771.6 118202.0 0
20838.9 118899.0 0
26808.4 118242.0 0
34065.3 115904.0 0
39402.6 114792.0 0
40054.7 119036.0 0
44706.3 117745.0 0
48760.6 117068.0 0
53066.4 117371.0 0
59516.6 116463.0 0
63885.6 117767.0 0
67606.7 117027.0 0
71692.3 116967.0 0
78263.0 116849.0 0
82471.5 118131.0 0
87140.5 119084.0 0
91999.0 117263.0 0
96999.8 117212.0 0
102127.0 116462.0 0
106970.0 118838.0 0
111124.0 117272.0 0
115819.0 118641.0 0
121102.0 118644.0 0
126570.0 116990.0 0
132454.0 116688.0 0
137140.0 117824.0 0
142292.0 116955.0 0
147728.0 116422.0 0
152626.0 117072.0 0
157521.0 116096.0 0
162025.0 117706.0 0
167210.0 116136.0 0
172467.0 117194.0 0
178178.0 118106.0 0
183468.0 115898.0 0
190431.0 116669.0 0
195417.0 118113.0 0
203351.0 116548.0 0
199786.0 118731.0 0
208223.0 117533.0 0
212607.0 116600.0 0
217697.0 117005.0 0
223410.0 117245.0 0
227690.0 117708.0 0
232727.0 116933.0 0
237913.0 117600.0 0
242248.0 116478.0 0
246577.0 116373.0 0
251456.0 118158.0 0
257660.0 117967.0 0
262657.0 116198.0 0
268086.0 116256.0 0
273563.0 118278.0 0
279476.0 118486.0 0
284060.0 115434.0 0
289118.0 116147.0 0
293632.0 114419.0 0
293861.0 118639.0 0
298812.0 117033.0 0
302795.0 116713.0 0
307468.0 116583.0 0
316382.0 117353.0 0
321289.0 117452.0 0
327598.0 115999.0 0
333607.0 117598.0 0
340750.0 116154.0 0
346463.0 117375.0 0
352479.0 117750.0 0
358046.0 118897.0 0
362683.0 116870.0 0
367601.0 117599.0 0
377200.0 114053.0 0
373234.0 116782.0 0
377756.0 118787.0 0
383127.0 117654.0 0
388874.0 118306.0 0
397598.0 116139.0 0
393912.0 118567.0 0
401996.0 117724.0 0
407555.0 117976.0 0
417736.0 116967.0 0
413357.0 118001.0 0
421177.0 114110.0 0
420739.0 118252.0 0
426080.0 117696.0 0
432065.0 116792.0 0
436733.0 117147.0 0
442765.0 116987.0 0
453409.0 116808.0 0
458512.0 117992.0 0
463600.0 115373.0 0
467767.0 118051.0 0
471813.0 115594.0 0
476449.0 117118.0 0
481100.0 115428.0 0
485659.0 116389.0 0
490710.0 117423.0 0
496002.0 115660.0 0
3211.28 122955.0 0
8257.83 122356.0 0
12763.2 121992.0 0
17406.6 122961.0 0
22006.6 123496.0 0
26229.6 123027.0 0
30953.1 121527.0 0
35933.1 121642.0 0
43630.2 121730.0 0
47755.6 121101.0 0
51809.4 121429.0 0
56830.1 121650.0 0
62579.8 121781.0 0
67171.2 122205.0 0
72521.2 122154.0 0
77992.3 120947.0 0
82526.1 122556.0 0
86293.8 123150.0 0
90159.8 122397.0 0
95222.1 122235.0 0
101125.0 122132.0 0
106555.0 123860.0 0
111795.0 122134.0 0
118333.0 123311.0 0
123281.0 123070.0 0
132214.0 122004.0 0
127624.0 122110.0 0
137231.0 122423.0 0
141708.0 123695.0 0
146469.0 121418.0 0
151573.0 123882.0 0
156132.0 121039.0 0
161834.0 124007.0 0
169286.0 122520.0 0
175976.0 123881.0 0
181606.0 122915.0 0
186112.0 120300.0 0
190993.0 121973.0 0
195754.0 122788.0 0
200539.0 123910.0 0
204963.0 121067.0 0
208466.0 123315.0 0
211616.0 121166.0 0
216502.0 122325.0 0
221703.0 121650.0 0
226693.0 122200.0 0
231954.0 121205.0 0
236064.0 122486.0 0
241434.0 120972.0 0
246761.0 121486.0 0
251417.0 122409.0 0
256142.0 123073.0 0
261549.0 121540.0 0
266315.0 120696.0 0
270640.0 123158.0 0
276599.0 123234.0 0
284957.0 120574.0 0
290187.0 121012.0 0
293757.0 123260.0 0
297271.0 121456.0 0
302715.0 119872.0 0
307446.0 120517.0 0
310129.0 123100.0 0
312804.0 119790.0 0
316961.0 121496.0 0
326197.0 121383.0 0
321557.0 123427.0 0
331855.0 122581.0 0
336697.0 123122.0 0
337889.0 119107.0 0
341785.0 122033.0 0
346628.0 123250.0 0
350388.0 121681.0 0
354412.0 122963.0 0
363421.0 122213.0 0
368528.0 122822.0 0
372652.0 121473.0 0
376987.0 123935.0 0
381262.0 122164.0 0
385749.0 122772.0 0
391603.0 123321.0 0
397805.0 122221.0 0
403436.0 122701.0 0
408193.0 123093.0 0
412655.0 123167.0 0
417328.0 121667.0 0
422294.0 121998.0 0
433144.0 122726.0 0
438898.0 121207.0 0
448812.0 119137.0 0
443938.0 122577.0 0
453766.0 121762.0 0
457909.0 123906.0 0
463038.0 122453.0 0
468113.0 122817.0 0
472250.0 120635.0 0
476531.0 122154.0 0
481592.0 120697.0 0
487407.0 121300.0 0
492246.0 123836.0 0
497268.0 121312.0 0
2743.24 128383.0 0
8042.8 127379.0 0
14921.6 127194.0 0
19909.4 127772.0 0
25328.9 127869.0 0
32699.9 128323.0 0
40009.8 124766.0 0
47202.3 126375.0 0
52669.8 125624.0 0
57753.6 127892.0 0
63751.5 127140.0 0
69579.5 127496.0 0
74694.8 128034.0 0
78841.1 125702.0 0
82761.4 127324.0 0
87411.8 127583.0 0
93077.7 127657.0 0
98832.5 127492.0 0
103893.0 128045.0 0
107222.0 127866.0 0
111638.0 128006.0 0
120398.0 128038.0 0
124185.0 127337.0 0
128406.0 126734.0 0
132872.0 126339.0 0
136853.0 127113.0 0
141100.0 127878.0 0
146522.0 127385.0 0
151900.0 129273.0 0
156635.0 127480.0 0
166704.0 128788.0 0
172255.0 127504.0 0
179233.0 127494.0 0
184127.0 128118.0 0
189315.0 126488.0 0
193668.0 127391.0 0
197503.0 126972.0 0
202966.0 127757.0 0
206274.0 125634.0 0
212255.0 127005.0 0
216805.0 126856.0 0
220974.0 126484.0 0
225738.0 127168.0 0
230980.0 125601.0 0
235664.0 127410.0 0
240541.0 126219.0 0
248381.0 126263.0 0
252558.0 126052.0 0
259971.0 126132.0 0
256057.0 128078.0 0
265490.0 125946.0 0
272928.0 126628.0 0
275665.0 127214.0 0
281961.0 126088.0 0
288336.0 125767.0 0
293476.0 127933.0 0
298770.0 125854.0 0
304641.0 124581.0 0
309147.0 126764.0 0
313927.0 124550.0 0
312953.0 129293.0 0
317699.0 126462.0 0
323366.0 128615.0 0
327811.0 125892.0 0
332500.0 127239.0 0
336870.0 127733.0 0
342208.0 127607.0 0
351679.0 126503.0 0
347217.0 127622.0 0
357651.0 126501.0 0
363233.0 128568.0 0
368505.0 127084.0 0
373400.0 128300.0 0
382575.0 126196.0 0
379098.0 128341.0 0
387079.0 128372.0 0
395893.0 126952.0 0
400749.0 127416.0 0
405935.0 127039.0 0
411228.0 128342.0 0
416962.0 127494.0 0
422189.0 126899.0 0
427069.0 124385.0 0
431391.0 128423.0 0
437981.0 126632.0 0
443845.0 128459.0 0
448492.0 124984.0 0
453592.0 126989.0 0
458351.0 128104.0 0
462239.0 127443.0 0
467266.0 127822.0 0
472251.0 125780.0 0
478242.0 126918.0 0
483444.0 125822.0 0
487728.0 125972.0 0
492458.0 128825.0 0
497115.0 126914.0 0
2122.1 133209.0 0
6629.6 132313.0 0
11765.2 129859.0 0
10874.5 133512.0 0
16444.9 132439.0 0
22132.7 132571.0 0
26805.0 132445.0 0
38046.8 133766.0 0
42538.8 129736.0 0
44046.0 134254.0 0
47182.2 131506.0 0
52162.2 131052.0 0
57345.5 133989.0 0
62695.8 132520.0 0
67631.1 132839.0 0
72734.0 132580.0 0
77869.6 131954.0 0
83358.2 132038.0 0
88734.3 132543.0 0
93487.8 132516.0 0
97430.6 132127.0 0
102461.0 133255.0 0
107419.0 131117.0 0
111801.0 134371.0 0
116413.0 130695.0 0
120437.0 133901.0 0
125857.0 131660.0 0
131745.0 131063.0 0
137377.0 131993.0 0
143319.0 132776.0 0
148470.0 132336.0 0
152878.0 133804.0 0
157300.0 132480.0 0
160655.0 129548.0 0
163241.0 131904.0 0
168107.0 134201.0 0
170863.0 130939.0 0
175911.0 131513.0 0
181671.0 133327.0 0
189132.0 131736.0 0
194263.0 132134.0 0
199453.0 131322.0 0
203612.0 133345.0 0
207411.0 130418.0 0
210865.0 134095.0 0
216143.0 132381.0 0
221749.0 130729.0 0
226488.0 132440.0 0
232442.0 131586.0 0
238431.0 131339.0 0
244735.0 130542.0 0
251356.0 131043.0 0
256819.0 132605.0 0
261841.0 130717.0 0
270071.0 129976.0 0
266226.0 134065.0 0
274196.0 132712.0 0
278053.0 130255.0 0
283492.0 132403.0 0
289033.0 131093.0 0
293268.0 133442.0 0
297212.0 130737.0 0
303006.0 131058.0 0
308805.0 131970.0 0
318356.0 131740.0 0
324039.0 134065.0 0
328792.0 131116.0 0
334066.0 132865.0 0
339592.0 132273.0 0
344933.0 132072.0 0
349989.0 131607.0 0
354429.0 130119.0 0
358650.0 133224.0 0
363897.0 134161.0 0
368161.0 131799.0 0
372313.0 133037.0 0
376962.0 132876.0 0
382471.0 131837.0 0
387497.0 132851.0 0
392323.0 129506.0 0
392129.0 133613.0 0
396150.0 132326.0 0
401229.0 132884.0 0
406693.0 132201.0 0
411220.0 133214.0 0
415490.0 132532.0 0
421158.0 132485.0 0
426356.0 129943.0 0
428523.0 133449.0 0
430961.0 132853.0 0
435835.0 132653.0 0
442045.0 134398.0 0
446664.0 132824.0 0
449070.0 129333.0 0
451287.0 134051.0 0
456077.0 131775.0 0
461499.0 132493.0 0
466931.0 133230.0 0
472915.0 130979.0 0
478057.0 132388.0 0
482524.0 130285.0 0
487864.0 131102.0 0
493642.0 132727.0 0
498089.0 131596.0 0
2813.6 138001.0 0
8165.88 137257.0 0
12894.4 136621.0 0
20384.4 137148.0 0
16331.9 137270.0 0
25268.5 138379.0 0
31181.0 136124.0 0
37228.6 139107.0 0
41795.0 138117.0 0
47446.3 138237.0 0
53102.0 137547.0 0
58687.8 139280.0 0
63565.5 137673.0 0
68268.0 137236.0 0
72453.6 137429.0 0
77185.4 137067.0 0
86321.9 136162.0 0
82034.8 137146.0 0
91303.7 137081.0 0
96817.5 136528.0 0
101396.0 139147.0 0
107501.0 139346.0 0
116464.0 137105.0 0
113001.0 139199.0 0
121274.0 138637.0 0
126005.0 137820.0 0
132122.0 137447.0 0
137819.0 137633.0 0
142840.0 138167.0 0
147532.0 136888.0 0
152628.0 138446.0 0
157561.0 137468.0 0
162712.0 136406.0 0
167292.0 139231.0 0
172608.0 136702.0 0
177851.0 136809.0 0
182304.0 138424.0 0
186373.0 136069.0 0
192082.0 136605.0 0
196621.0 137299.0 0
201110.0 136803.0 0
206767.0 136602.0 0
212749.0 137215.0 0
217643.0 138296.0 0
221800.0 135392.0 0
226798.0 137547.0 0
231546.0 137213.0 0
236388.0 136241.0 0
241206.0 135813.0 0
240054.0 139186.0 0
245772.0 135891.0 0
250429.0 136936.0 0
255177.0 136786.0 0
260748.0 136896.0 0
271140.0 136371.0 0
278166.0 135965.0 0
283292.0 139241.0 0
288466.0 136388.0 0
293487.0 138342.0 0
298394.0 135944.0 0
303462.0 136610.0 0
308194.0 136979.0 0
314357.0 137087.0 0
319273.0 136691.0 0
328968.0 136674.0 0
333146.0 137075.0 0
336742.0 137024.0 0
342592.0 137435.0 0
347881.0 136577.0 0
353212.0 136289.0 0
357776.0 138905.0 0
362518.0 138976.0 0
367793.0 137448.0 0
373566.0 137666.0 0
382651.0 137089.0 0
378336.0 137382.0 0
387500.0 137388.0 0
390840.0 137190.0 0
394209.0 136780.0 0
397989.0 136786.0 0
405861.0 138232.0 0
412257.0 137848.0 0
417885.0 137352.0 0
423011.0 137750.0 0
427877.0 137339.0 0
432790.0 137810.0 0
437676.0 138298.0 0
441767.0 139067.0 0
447083.0 137078.0 0
452132.0 139212.0 0
456331.0 136723.0 0
461274.0 138149.0 0
466167.0 137813.0 0
470975.0 135973.0 0
476162.0 137415.0 0
482656.0 136287.0 0
488909.0 136667.0 0
497008.0 136378.0 0
2316.0 142443.0 0
7488.63 142103.0 0
11899.2 140589.0 0
17721.5 141513.0 0
22192.4 142106.0 0
25713.8 142905.0 0
33500.7 141708.0 0
36829.5 144130.0 0
41261.0 143345.0 0
46266.1 143466.0 0
51637.6 142892.0 0
56874.7 143542.0 0
62241.2 143129.0 0
67515.7 141952.0 0
72506.4 142040.0 0
81266.9 142268.0 0
76625.1 143103.0 0
87014.7 141183.0 0
92308.7 142350.0 0
97255.4 142371.0 0
102435.0 144296.0 0
106772.0 144491.0 0
111799.0 143175.0 0
117643.0 142646.0 0
123436.0 142372.0 0
128783.0 142875.0 0
134059.0 142487.0 0
137961.0 142219.0 0
142163.0 142168.0 0
147504.0 142688.0 0
152869.0 143380.0 0
158962.0 141855.0 0
162909.0 141777.0 0
167203.0 143869.0 0
171989.0 141142.0 0
177728.0 142345.0 0
183252.0 143104.0 0
188242.0 141044.0 0
193898.0 141900.0 0
199055.0 141622.0 0
204158.0 142060.0 0
214027.0 140569.0 0
209491.0 141670.0 0
217433.0 142679.0 0
222151.0 140884.0 0
226340.0 141408.0 0
230558.0 142740.0 0
235731.0 140984.0 0
243733.0 140094.0 0
240026.0 143141.0 0
250365.0 142329.0 0
256477.0 142215.0 0
262643.0 142523.0 0
266799.0 139586.0 0
272519.0 142013.0 0
278324.0 141780.0 0
289989.0 141885.0 0
294961.0 142790.0 0
299386.0 141299.0 0
303668.0 140608.0 0
307825.0 142136.0 0
313038.0 143278.0 0
317924.0 141495.0 0
322914.0 139814.0 0
324621.0 144383.0 0
327990.0 141711.0 0
333198.0 141361.0 0
339000.0 142728.0 0
344324.0 142716.0 0
346990.0 140132.0 0
351176.0 142389.0 0
358163.0 143287.0 0
362969.0 143881.0 0
367650.0 142812.0 0
372888.0 143297.0 0
377591.0 142060.0 0
387666.0 141843.0 0
383034.0 142254.0 0
390579.0 142731.0 0
394661.0 141399.0 0
400640.0 141170.0 0
404214.0 144473.0 0
409727.0 143696.0 0
416361.0 143132.0 0
422812.0 143408.0 0
428624.0 142171.0 0
433383.0 142630.0 0
438577.0 143550.0 0
448820.0 141939.0 0
444221.0 142863.0 0
452094.0 143202.0 0
457219.0 142981.0 0
462826.0 142628.0 0
466793.0 143898.0 0
470795.0 141162.0 0
476400.0 143794.0 0
482884.0 143026.0 0
488671.0 142190.0 0
492846.0 139521.0 0
492895.0 143243.0 0
497140.0 142241.0 0
2879.62 146274.0 0
7660.86 146564.0 0
13296.3 144987.0 0
17519.6 146405.0 0
21981.2 146392.0 0
29624.6 144694.0 0
25924.4 146797.0 0
33841.2 147560.0 0
38550.9 147597.0 0
43314.7 148406.0 0
47500.0 147201.0 0
51975.5 148539.0 0
58911.7 148096.0 0
64498.9 148320.0 0
69008.8 147048.0 0
73878.1 146509.0 0
77217.9 146927.0 0
80691.8 147371.0 0
86321.9 147491.0 0
92811.4 147357.0 0
98242.8 147632.0 0
103094.0 148260.0 0
109028.0 147670.0 0
113212.0 147286.0 0
122442.0 147155.0 0
117544.0 148356.0 0
126563.0 147767.0 0
131864.0 147224.0 0
136845.0 146766.0 0
140199.0 149080.0 0
144006.0 147456.0 0
150410.0 147251.0 0
157085.0 147075.0 0
162990.0 146164.0 0
167630.0 148534.0 0
173048.0 146776.0 0
183029.0 147714.0 0
178837.0 148411.0 0
186680.0 146423.0 0
191842.0 146779.0 0
196806.0 145974.0 0
201799.0 147070.0 0
207325.0 146776.0 0
213591.0 144837.0 0
216949.0 147874.0 0
220482.0 145718.0 0
225383.0 145256.0 0
229372.0 147774.0 0
235824.0 146463.0 0
240222.0 148163.0 0
245170.0 146175.0 0
252493.0 147339.0 0
257216.0 147674.0 0
262356.0 147304.0 0
267377.0 145103.0 0
272615.0 148121.0 0
277796.0 146800.0 0
282852.0 144780.0 0
289758.0 146659.0 0
285973.0 148282.0 0
293417.0 146364.0 0
297871.0 147300.0 0
303739.0 145761.0 0
309258.0 147701.0 0
315431.0 148697.0 0
320305.0 145819.0 0
323692.0 149343.0 0
328767.0 147365.0 0
334659.0 146673.0 0
338218.0 148928.0 0
342802.0 147862.0 0
348333.0 147193.0 0
354571.0 147110.0 0
358832.0 147248.0 0
362305.0 147934.0 0
366732.0 147851.0 0
371987.0 148681.0 0
376885.0 145882.0 0
380638.0 146535.0 0
386648.0 147031.0 0
391380.0 146115.0 0
396438.0 147108.0 0
400517.0 145548.0 0
407475.0 149159.0 0
413219.0 148990.0 0
418108.0 148174.0 0
422107.0 148563.0 0
426877.0 147016.0 0
431420.0 146917.0 0
436288.0 148894.0 0
442100.0 148205.0 0
447549.0 147120.0 0
452803.0 147389.0 0
457499.0 149054.0 0
461585.0 146846.0 0
465841.0 147954.0 0
470827.0 146956.0 0
480519.0 147444.0 0
485119.0 148070.0 0
491128.0 148036.0 0
497364.0 147733.0 0
2104.65 150431.0 0
6793.29 152061.0 0
12523.0 150347.0 0
18520.4 151442.0 0
24345.7 151169.0 0
30115.2 151539.0 0
35415.9 152976.0 0
39873.6 151653.0 0
43535.0 153690.0 0
47482.1 151375.0 0
51744.7 153377.0 0
56705.5 153125.0 0
61964.5 153136.0 0
66638.4 152816.0 0
71690.9 151396.0 0
77191.6 150545.0 0
82291.6 152358.0 0
88449.9 153808.0 0
93313.2 151463.0 0
97500.0 152235.0 0
107094.0 151808.0 0
102236.0 152035.0 0
112290.0 151537.0 0
117489.0 152970.0 0
122473.0 151224.0 0
132589.0 151983.0 0
127668.0 152732.0 0
137654.0 151709.0 0
142126.0 152144.0 0
147636.0 151927.0 0
153045.0 151260.0 0
157497.0 152955.0 0
161579.0 151102.0 0
165667.0 152789.0 0
171229.0 152642.0 0
176234.0 152635.0 0
180326.0 153084.0 0
184959.0 151503.0 0
190262.0 151069.0 0
195404.0 151557.0 0
201310.0 152523.0 0
206582.0 152848.0 0
212321.0 150667.0 0
218105.0 152203.0 0
222870.0 150178.0 0
227523.0 152788.0 0
232628.0 151336.0 0
238165.0 152149.0 0
243792.0 152511.0 0
248620.0 151078.0 0
254994.0 151399.0 0
251701.0 154407.0 0
259925.0 151569.0 0
266658.0 152145.0 0
272632.0 153066.0 0
276489.0 151668.0 0
281554.0 150528.0 0
287001.0 152873.0 0
292799.0 151185.0 0
298711.0 153167.0 0
303423.0 151055.0 0
307680.0 152356.0 0
312792.0 153973.0 0
319111.0 153063.0 0
323805.0 153567.0 0
328218.0 153008.0 0
332685.0 151311.0 0
337214.0 152709.0 0
341746.0 153100.0 0
346957.0 152589.0 0
352961.0 152388.0 0
358289.0 151066.0 0
363852.0 152327.0 0
368575.0 151962.0 0
377264.0 150185.0 0
372516.0 152558.0 0
383137.0 151504.0 0
392795.0 150852.0 0
388492.0 152736.0 0
396697.0 152630.0 0
401632.0 150623.0 0
408624.0 153752.0 0
412939.0 153953.0 0
417500.0 152133.0 0
423655.0 152463.0 0
429096.0 151214.0 0
432842.0 152393.0 0
439599.0 152545.0 0
445091.0 152197.0 0
449570.0 151850.0 0
453928.0 152196.0 0
458053.0 153617.0 0
461735.0 151400.0 0
466235.0 152663.0 0
472008.0 152982.0 0
476634.0 149718.0 0
477068.0 154335.0 0
481396.0 152067.0 0
487086.0 153289.0 0
492809.0 153933.0 0
497596.0 152767.0 0
3506.58 157512.0 0
8912.79 157326.0 0
12819.2 155773.0 0
18045.9 157653.0 0
23734.8 156535.0 0
29009.0 157335.0 0
33721.4 157138.0 0
38524.6 157459.0 0
43678.4 158411.0 0
47741.0 156138.0 0
52003.6 157935.0 0
56979.3 158532.0 0
61796.0 157843.0 0
66399.9 157408.0 0
71634.0 157281.0 0
78211.2 157762.0 0
84122.8 157102.0 0
87688.2 158883.0 0
94100.2 155677.0 0
99300.4 156931.0 0
103853.0 158369.0 0
108319.0 156773.0 0
113637.0 156378.0 0
122392.0 155616.0 0
118188.0 157415.0 0
126888.0 157678.0 0
131334.0 156829.0 0
135399.0 155464.0 0
139961.0 156414.0 0
145194.0 157060.0 0
151681.0 157370.0 0
157460.0 158122.0 0
162223.0 156531.0 0
167836.0 157107.0 0
173460.0 158280.0 0
178656.0 157058.0 0
183497.0 157050.0 0
188824.0 155173.0 0
193401.0 157801.0 0
198162.0 156269.0 0
202225.0 157848.0 0
207011.0 158017.0 0
212376.0 157068.0 0
217312.0 156667.0 0
221938.0 155518.0 0
226296.0 157585.0 0
231236.0 156731.0 0
236066.0 157330.0 0
240758.0 157175.0 0
247330.0 156549.0 0
251815.0 158414.0 0
256817.0 156549.0 0
262021.0 156686.0 0
266298.0 159472.0 0
272433.0 157810.0 0
277769.0 156098.0 0
282670.0 156025.0 0
287575.0 158356.0 0
294279.0 157802.0 0
299741.0 157982.0 0
304166.0 156064.0 0
308989.0 157337.0 0
315365.0 158876.0 0
320388.0 158075.0 0
326100.0 158306.0 0
333160.0 157474.0 0
339147.0 157994.0 0
343441.0 157119.0 0
347375.0 157388.0 0
351812.0 157936.0 0
357563.0 156418.0 0
363014.0 157363.0 0
368208.0 156803.0 0
373386.0 156216.0 0
378062.0 155285.0 0
382810.0 157654.0 0
392116.0 155807.0 0
388003.0 158460.0 0
397057.0 156980.0 0
402872.0 157295.0 0
407559.0 157302.0 0
411392.0 158246.0 0
416297.0 157097.0 0
421524.0 156894.0 0
427086.0 156279.0 0
431837.0 158543.0 0
436283.0 156056.0 0
442626.0 157462.0 0
449563.0 157477.0 0
454946.0 156865.0 0
459033.0 157899.0 0
462487.0 155636.0 0
466447.0 157525.0 0
470794.0 158149.0 0
475071.0 157891.0 0
479813.0 158381.0 0
485458.0 158949.0 0
491394.0 158141.0 0
496535.0 158243.0 0
3164.77 164175.0 0
7860.65 161390.0 0
13198.5 161684.0 0
18016.5 163627.0 0
22913.6 162166.0 0
28302.8 162479.0 0
33684.9 162048.0 0
38744.3 162397.0 0
42462.6 162242.0 0
47500.0 162010.0 0
52558.0 162331.0 0
57797.7 163846.0 0
62773.9 162310.0 0
67039.9 162208.0 0
72935.3 163331.0 0
78321.3 163561.0 0
82589.4 162155.0 0
87056.7 162798.0 0
92062.4 160993.0 0
97669.7 162221.0 0
102295.0 162041.0 0
107409.0 162606.0 0
113346.0 161795.0 0
121263.0 160906.0 0
117556.0 163146.0 0
125792.0 163599.0 0
129829.0 161093.0 0
135550.0 161263.0 0
141806.0 161281.0 0
147624.0 163411.0 0
152815.0 162719.0 0
156959.0 162600.0 0
162562.0 162645.0 0
168611.0 162626.0 0
178545.0 162143.0 0
173680.0 163653.0 0
183146.0 163775.0 0
188006.0 161060.0 0
193371.0 162609.0 0
197865.0 161293.0 0
202704.0 162044.0 0
206536.0 162407.0 0
210414.0 161650.0 0
215936.0 161190.0 0
222030.0 161660.0 0
227890.0 162049.0 0
232868.0 161200.0 0
237575.0 161807.0 0
243287.0 161655.0 0
248665.0 162023.0 0
254448.0 162084.0 0
259269.0 161387.0 0
262858.0 163191.0 0
270744.0 162093.0 0
276853.0 160665.0 0
282833.0 162182.0 0
288072.0 163689.0 0
292398.0 163358.0 0
298266.0 162276.0 0
306027.0 161661.0 0
310185.0 163209.0 0
311332.0 160389.0 0
314051.0 163896.0 0
318485.0 162126.0 0
322500.0 162296.0 0
328894.0 162974.0 0
333249.0 163850.0 0
337018.0 161863.0 0
341124.0 161783.0 0
346186.0 161913.0 0
357136.0 161736.0 0
352141.0 164044.0 0
361938.0 162276.0 0
372172.0 160830.0 0
367473.0 163571.0 0
377871.0 161278.0 0
383977.0 163699.0 0
389039.0 163217.0 0
392970.0 161022.0 0
398548.0 162401.0 0
404604.0 162454.0 0
408305.0 162457.0 0
411601.0 162539.0 0
415648.0 161893.0 0
420774.0 162383.0 0
427258.0 162833.0 0
432708.0 162613.0 0
437828.0 162663.0 0
443855.0 163710.0 0
448897.0 163599.0 0
453712.0 161700.0 0
458584.0 161990.0 0
462382.0 160104.0 0
466454.0 162405.0 0
471665.0 162806.0 0
476743.0 162470.0 0
482110.0 163254.0 0
489724.0 162267.0 0
493000.0 164255.0 0
497149.0 164238.0 0
2175.08 169422.0 0
6289.99 168374.0 0
11599.4 167800.0 0
17536.7 168090.0 0
22463.8 167838.0 0
27690.2 167539.0 0
32846.4 167428.0 0
37849.1 166930.0 0
42860.5 167031.0 0
47500.0 167093.0 0
52500.0 167012.0 0
57471.1 168306.0 0
62273.8 167366.0 0
67614.2 166594.0 0
72220.4 169052.0 0
81627.4 167060.0 0
77001.1 167448.0 0
86238.8 166920.0 0
91741.1 167406.0 0
97809.6 167609.0 0
102672.0 166588.0 0
106903.0 168752.0 0
111197.0 166679.0 0
115541.0 167477.0 0
120820.0 166796.0 0
126020.0 168431.0 0
131558.0 167081.0 0
137589.0 167450.0 0
143032.0 167891.0 0
152332.0 166708.0 0
148507.0 169218.0 0
156773.0 167280.0 0
161249.0 168495.0 0
165865.0 167157.0 0
170813.0 167584.0 0
176299.0 168226.0 0
181147.0 167290.0 0
186185.0 169293.0 0
190720.0 165996.0 0
195904.0 166931.0 0
202302.0 165730.0 0
207014.0 167422.0 0
212683.0 165870.0 0
217356.0 165617.0 0
221316.0 167165.0 0
226104.0 166880.0 0
231884.0 166254.0 0
236932.0 168366.0 0
240965.0 165901.0 0
246406.0 167990.0 0
252566.0 167354.0 0
257958.0 165442.0 0
257179.0 169911.0 0
262514.0 168237.0 0
267435.0 165168.0 0
272737.0 166183.0 0
277837.0 165362.0 0
276234.0 169588.0 0
283412.0 169220.0 0
290027.0 168206.0 0
296068.0 167459.0 0
302094.0 166327.0 0
308499.0 167176.0 0
313707.0 169027.0 0
318497.0 166693.0 0
325749.0 166661.0 0
322152.0 169417.0 0
331013.0 168411.0 0
336305.0 167535.0 0
342218.0 167182.0 0
347988.0 168113.0 0
352469.0 169701.0 0
357716.0 167602.0 0
363373.0 167198.0 0
372129.0 166950.0 0
367627.0 169681.0 0
377596.0 167241.0 0
382670.0 169968.0 0
388203.0 168088.0 0
393859.0 166698.0 0
403548.0 168252.0 0
409206.0 168997.0 0
413408.0 166726.0 0
418015.0 167335.0 0
422331.0 167425.0 0
427432.0 169585.0 0
432985.0 166869.0 0
437053.0 167590.0 0
442560.0 169199.0 0
447415.0 166973.0 0
451703.0 167554.0 0
455863.0 165969.0 0
461826.0 167283.0 0
468601.0 167983.0 0
474668.0 167892.0 0
480001.0 167361.0 0
486586.0 167482.0 0
493164.0 168632.0 0
498364.0 168558.0 0
2648.32 173704.0 0
6704.61 172243.0 0
11883.7 174586.0 0
17237.5 172587.0 0
21689.6 172712.0 0
26625.8 172741.0 0
32269.6 172882.0 0
37800.7 172001.0 0
42911.0 172147.0 0
48373.5 171966.0 0
53049.3 172195.0 0
57491.6 172592.0 0
62500.0 172180.0 0
67351.0 172203.0 0
72974.1 173388.0 0
77089.9 172376.0 0
80945.2 172363.0 0
86598.3 172092.0 0
92662.8 174000.0 0
98143.0 172654.0 0
102893.0 171605.0 0
107106.0 174106.0 0
112144.0 171980.0 0
117789.0 171847.0 0
127517.0 172146.0 0
123040.0 173514.0 0
131675.0 173886.0 0
135063.0 170956.0 0
139792.0 173584.0 0
146644.0 174454.0 0
153455.0 172502.0 0
159438.0 173040.0 0
165968.0 172371.0 0
171465.0 172810.0 0
177279.0 174445.0 0
183203.0 174575.0 0
191881.0 170735.0 0
188837.0 174882.0 0
195937.0 174584.0 0
201235.0 170688.0 0
206402.0 174156.0 0
211857.0 171639.0 0
217581.0 170335.0 0
222973.0 171817.0 0
228683.0 171839.0 0
233716.0 171222.0 0
236981.0 172912.0 0
241133.0 171251.0 0
246166.0 174417.0 0
251684.0 172796.0 0
258379.0 174900.0 0
263482.0 173828.0 0
268885.0 171151.0 0
274516.0 173830.0 0
279025.0 172648.0 0
288599.0 172955.0 0
293685.0 173155.0 0
300200.0 172496.0 0
305288.0 170845.0 0
305013.0 174826.0 0
308890.0 173096.0 0
313481.0 174035.0 0
316787.0 171849.0 0
320577.0 173556.0 0
326686.0 173097.0 0
333861.0 173367.0 0
338665.0 171909.0 0
342799.0 172646.0 0
347415.0 173085.0 0
352858.0 174526.0 0
357815.0 173387.0 0
362632.0 172019.0 0
367022.0 174027.0 0
371865.0 172423.0 0
377441.0 173168.0 0
382625.0 174328.0 0
386622.0 173618.0 0
391984.0 172879.0 0
397810.0 170560.0 0
396543.0 174677.0 0
401643.0 174974.0 0
406986.0 173201.0 0
411808.0 172698.0 0
417019.0 171874.0 0
422566.0 173162.0 0
432185.0 173463.0 0
437979.0 172810.0 0
442951.0 174753.0 0
448193.0 172029.0 0
452071.0 175199.0 0
455966.0 171881.0 0
461566.0 173841.0 0
466225.0 172494.0 0
471899.0 174210.0 0
477523.0 172691.0 0
481988.0 171338.0 0
481329.0 175180.0 0
486495.0 174800.0 0
491854.0 173740.0 0
497014.0 173320.0 0
162838.0 176027.0 0
201229.0 176123.0 0
204475.0 178688.0 0
210789.0 177304.0 0
216415.0 176081.0 0
222470.0 177547.0 0
227958.0 177245.0 0
233919.0 176048.0 0
236553.0 179373.0 0
240340.0 177032.0 0
244603.0 180086.0 0
248995.0 178964.0 0
253471.0 177559.0 0
261359.0 177965.0 0
265891.0 178719.0 0
270708.0 176671.0 0
278604.0 178127.0 0
284481.0 175600.0 0
283463.0 180244.0 0
289821.0 177502.0 0
297138.0 177866.0 0
302388.0 178412.0 0
427263.0 175288.0 0
199564.0 181042.0 0
204438.0 182820.0 0
209449.0 182292.0 0
215731.0 182187.0 0
221138.0 182928.0 0
226642.0 182964.0 0
231460.0 180589.0 0
235318.0 182544.0 0
240447.0 183130.0 0
245799.0 185236.0 0
252387.0 182496.0 0
257903.0 180457.0 0
262175.0 181048.0 0
262924.0 185119.0 0
271471.0 181809.0 0
276420.0 183495.0 0
280939.0 183380.0 0
284566.0 184675.0 0
287257.0 181810.0 0
293226.0 182382.0 0
299487.0 183235.0 0
200565.0 187328.0 0
206823.0 187307.0 0
212341.0 186507.0 0
218216.0 187863.0 0
223359.0 186847.0 0
227340.0 188922.0 0
231813.0 185897.0 0
236722.0 186209.0 0
236090.0 190271.0 0
240956.0 188853.0 0
250599.0 186797.0 0
256857.0 186857.0 0
261597.0 190260.0 0
268034.0 185954.0 0
273345.0 188176.0 0
278896.0 187397.0 0
283257.0 188260.0 0
288822.0 187100.0 0
294307.0 187979.0 0
298362.0 187941.0 0
202161.0 193706.0 0
208341.0 192806.0 0
213592.0 191587.0 0
218679.0 193238.0 0
223708.0 192856.0 0
228230.0 193485.0 0
231676.0 191270.0 0
240597.0 192933.0 0
246377.0 191104.0 0
252212.0 191532.0 0
257463.0 192748.0 0
261855.0 195575.0 0
266661.0 191184.0 0
271774.0 192936.0 0
276907.0 192162.0 0
279543.0 195023.0 0
281086.0 191318.0 0
285903.0 192303.0 0
291470.0 192040.0 0
297267.0 192539.0 0
341742.0 194800.0 0
10310.7 197136.0 0
206113.0 198208.0 0
210328.0 196811.0 0
215193.0 197126.0 0
220808.0 197465.0 0
226487.0 198430.0 0
231211.0 195876.0 0
237005.0 195703.0 0
243162.0 195706.0 0
248814.0 196481.0 0
254687.0 196680.0 0
258639.0 200347.0 0
268411.0 197656.0 0
274604.0 196206.0 0
278616.0 199104.0 0
283537.0 197234.0 0
289172.0 196832.0 0
293919.0 196141.0 0
297983.0 198693.0 0
309756.0 198666.0 0
48261.5 204561.0 0
174681.0 203585.0 0
201804.0 200831.0 0
201361.0 205608.0 0
206246.0 203518.0 0
211437.0 201656.0 0
216914.0 202664.0 0
222262.0 202330.0 0
228036.0 202940.0 0
232130.0 200948.0 0
237053.0 201087.0 0
241904.0 201142.0 0
247658.0 202379.0 0
253228.0 201829.0 0
258819.0 205541.0 0
262729.0 202907.0 0
267372.0 203933.0 0
273143.0 202519.0 0
279213.0 204827.0 0
282871.0 201490.0 0
287189.0 203059.0 0
293026.0 201344.0 0
297889.0 205203.0 0
362467.0 204810.0 0
368610.0 204592.0 0
389098.0 203656.0 0
404603.0 201922.0 0
421499.0 203194.0 0
443009.0 202841.0 0
455114.0 203222.0 0
472319.0 203966.0 0
492537.0 204942.0 0
497243.0 202790.0 0
6878.9 206946.0 0
56374.4 208474.0 0
63868.7 208484.0 0
68827.6 209503.0 0
79658.9 210237.0 0
85031.3 210935.0 0
96187.4 208750.0 0
100416.0 208198.0 0
107589.0 209934.0 0
115161.0 210236.0 0
121008.0 210129.0 0
126005.0 207918.0 0
154054.0 210539.0 0
158565.0 209934.0 0
167796.0 206808.0 0
177286.0 207638.0 0
191569.0 208791.0 0
196244.0 209719.0 0
200883.0 209967.0 0
205139.0 208412.0 0
210417.0 207326.0 0
215507.0 207356.0 0
220077.0 206781.0 0
225519.0 206432.0 0
231417.0 207080.0 0
237507.0 206001.0 0
242306.0 209020.0 0
248058.0 208445.0 0
253774.0 207176.0 0
259057.0 209950.0 0
263576.0 208097.0 0
269202.0 209051.0 0
274268.0 207780.0 0
284341.0 208034.0 0
288860.0 207656.0 0
292822.0 206625.0 0
297460.0 210206.0 0
309917.0 210172.0 0
317421.0 206886.0 0
322450.0 208276.0 0
357807.0 206393.0 0
374583.0 207234.0 0
391311.0 210335.0 0
437044.0 206483.0 0
461586.0 207083.0 0
471850.0 210942.0 0
476569.0 207209.0 0
481239.0 208302.0 0
14254.8 211499.0 0
17655.2 214816.0 0
22442.4 212815.0 0
30433.9 212719.0 0
36537.1 213253.0 0
48339.7 215464.0 0
53010.0 215461.0 0
75161.9 211538.0 0
93065.2 214852.0 0
111005.0 211779.0 0
124379.0 215024.0 0
131855.0 212241.0 0
137504.0 211253.0 0
142262.0 213506.0 0
150902.0 214829.0 0
173221.0 212662.0 0
178042.0 214505.0 0
178735.0 211004.0 0
204078.0 213056.0 0
207996.0 211409.0 0
213356.0 212226.0 0
209313.0 215782.0 0
217845.0 211023.0 0
222320.0 210948.0 0
220060.0 215017.0 0
227456.0 211731.0 0
233019.0 212812.0 0
238126.0 211954.0 0
241698.0 213806.0 0
245359.0 212954.0 0
251061.0 213317.0 0
255503.0 211712.0 0
257880.0 215596.0 0
261792.0 212396.0 0
267220.0 214099.0 0
273097.0 212074.0 0
277796.0 211494.0 0
282146.0 211817.0 0
284677.0 214309.0 0
287765.0 211808.0 0
292969.0 211629.0 0
296828.0 214712.0 0
322451.0 212988.0 0
326630.0 213747.0 0
330913.0 214021.0 0
339605.0 213365.0 0
345114.0 215558.0 0
388726.0 214849.0 0
396056.0 211773.0 0
407296.0 215926.0 0
417127.0 212839.0 0
423600.0 211145.0 0
426612.0 214714.0 0
431907.0 215416.0 0
439714.0 213705.0 0
444222.0 215962.0 0
449230.0 212855.0 0
458451.0 215721.0 0
462790.0 213532.0 0
466760.0 212345.0 0
479717.0 213585.0 0
484429.0 213665.0 0
497839.0 212241.0 0
2631.23 220106.0 0
8033.11 217135.0 0
14588.8 218323.0 0
18911.2 220650.0 0
30589.4 218921.0 0
40985.6 217657.0 0
45936.2 219132.0 0
88220.9 216925.0 0
92904.6 219860.0 0
97919.2 216976.0 0
102310.0 219083.0 0
113050.0 219141.0 0
119140.0 217126.0 0
126262.0 219232.0 0
137141.0 220691.0 0
146000.0 216958.0 0
155278.0 218194.0 0
169989.0 217913.0 0
177569.0 218674.0 0
183085.0 220328.0 0
188922.0 218979.0 0
194746.0 220252.0 0
199532.0 217578.0 0
204404.0 218195.0 0
208773.0 220990.0 0
215064.0 217760.0 0
222083.0 219283.0 0
225948.0 216713.0 0
230700.0 217568.0 0
236385.0 217306.0 0
241423.0 217581.0 0
247380.0 218378.0 0
253470.0 217825.0 0
262773.0 216626.0 0
267283.0 219434.0 0
271753.0 216525.0 0
276232.0 217978.0 0
280753.0 216050.0 0
284102.0 220950.0 0
287948.0 216765.0 0
292568.0 216542.0 0
300502.0 217126.0 0
296387.0 219457.0 0
304860.0 217620.0 0
308760.0 216804.0 0
309713.0 220968.0 0
314014.0 219711.0 0
318278.0 217010.0 0
335045.0 216681.0 0
342101.0 218959.0 0
348027.0 219113.0 0
364943.0 218115.0 0
368691.0 220748.0 0
377600.0 218977.0 0
383597.0 217768.0 0
390690.0 218779.0 0
393964.0 216657.0 0
398809.0 218808.0 0
403236.0 219679.0 0
412976.0 218248.0 0
422388.0 216611.0 0
431773.0 220939.0 0
436080.0 217254.0 0
473827.0 220370.0 0
478880.0 218805.0 0
489239.0 216591.0 0
492521.0 220589.0 0
497266.0 220345.0 0
4198.95 225209.0 0
10165.2 223359.0 0
27252.5 222973.0 0
31965.1 225458.0 0
37311.7 221253.0 0
44551.6 224614.0 0
49617.5 225549.0 0
54909.3 222122.0 0
60744.6 223171.0 0
73247.1 225208.0 0
79797.4 225707.0 0
85759.2 222141.0 0
91010.0 222274.0 0
96476.5 221298.0 0
100409.0 223466.0 0
105708.0 222174.0 0
118044.0 224431.0 0
127597.0 223960.0 0
132697.0 222610.0 0
140009.0 224918.0 0
145853.0 224935.0 0
166524.0 221969.0 0
169946.0 225673.0 0
175196.0 224009.0 0
182125.0 225571.0 0
204247.0 223709.0 0
212998.0 224153.0 0
218415.0 222848.0 0
222785.0 223179.0 0
226653.0 221544.0 0
231894.0 222758.0 0
237319.0 222721.0 0
242504.0 222216.0 0
247180.0 224751.0 0
252149.0 222747.0 0
257611.0 221382.0 0
262742.0 221325.0 0
265989.0 225191.0 0
272536.0 222226.0 0
278428.0 222111.0 0
281573.0 225562.0 0
290977.0 221894.0 0
296247.0 225589.0 0
305457.0 221553.0 0
301919.0 224587.0 0
308862.0 225584.0 0
312813.0 224961.0 0
335177.0 224188.0 0
341691.0 223852.0 0
360423.0 221917.0 0
373639.0 223167.0 0
380959.0 223757.0 0
385630.0 222499.0 0
388242.0 225737.0 0
394399.0 221446.0 0
398411.0 222826.0 0
402468.0 224582.0 0
411664.0 225688.0 0
415149.0 222691.0 0
440796.0 226192.0 0
462565.0 223353.0 0
468005.0 225011.0 0
472750.0 226045.0 0
483291.0 222403.0 0
488293.0 223851.0 0
494690.0 225295.0 0
1396.57 228200.0 0
8211.08 227165.0 0
11918.4 228640.0 0
16619.4 228109.0 0
21754.5 226806.0 0
31750.6 230201.0 0
40529.6 229080.0 0
36111.9 229450.0 0
53511.7 227091.0 0
55082.9 231193.0 0
65233.2 226315.0 0
75981.4 230096.0 0
97591.4 226901.0 0
101262.0 228017.0 0
115988.0 231259.0 0
122206.0 226429.0 0
125707.0 227652.0 0
127453.0 231099.0 0
132217.0 228694.0 0
137709.0 230174.0 0
150246.0 228351.0 0
157949.0 227104.0 0
162385.0 227884.0 0
166757.0 230461.0 0
178322.0 227523.0 0
173828.0 228829.0 0
182575.0 230348.0 0
203598.0 229291.0 0
208492.0 226474.0 0
212184.0 229050.0 0
217001.0 229717.0 0
221535.0 227118.0 0
226387.0 226485.0 0
231035.0 228099.0 0
236952.0 228669.0 0
242597.0 227280.0 0
247334.0 229205.0 0
251017.0 227878.0 0
255658.0 226611.0 0
259256.0 231264.0 0
261566.0 226721.0 0
265044.0 229986.0 0
270041.0 229009.0 0
276311.0 227961.0 0
282382.0 230494.0 0
286620.0 226513.0 0
291671.0 229055.0 0
296089.0 231227.0 0
305267.0 228364.0 0
315851.0 228788.0 0
321609.0 228555.0 0
329672.0 227278.0 0
345721.0 229012.0 0
350533.0 226605.0 0
355714.0 228099.0 0
365233.0 230811.0 0
368277.0 226252.0 0
371514.0 230720.0 0
376826.0 228211.0 0
382983.0 231050.0 0
392773.0 230204.0 0
397327.0 228041.0 0
402414.0 229341.0 0
406830.0 227195.0 0
417627.0 227503.0 0
430432.0 230252.0 0
435876.0 228587.0 0
443743.0 230482.0 0
448497.0 228551.0 0
472922.0 230369.0 0
477904.0 230490.0 0
490331.0 228435.0 0
498185.0 228388.0 0
9024.03 232044.0 0
22141.1 232292.0 0
27556.0 233316.0 0
42506.5 232722.0 0
47221.1 233436.0 0
57767.4 234933.0 0
62118.7 236439.0 0
71070.6 231543.0 0
66580.1 234582.0 0
78232.9 235469.0 0
87177.6 233039.0 0
92596.4 235487.0 0
101304.0 233240.0 0
105416.0 233647.0 0
110427.0 235529.0 0
121376.0 232066.0 0
119859.0 235721.0 0
125026.0 234499.0 0
134374.0 233051.0 0
136926.0 233347.0 0
142940.0 232807.0 0
149278.0 234938.0 0
154955.0 233740.0 0
159503.0 232464.0 0
162950.0 234779.0 0
170964.0 232268.0 0
178095.0 231785.0 0
179935.0 235186.0 0
188423.0 232278.0 0
193802.0 235108.0 0
198190.0 231935.0 0
202876.0 234893.0 0
208334.0 231515.0 0
213345.0 233709.0 0
218053.0 236221.0 0
221885.0 232368.0 0
227460.0 232223.0 0
232907.0 233105.0 0
238284.0 234886.0 0
244005.0 232723.0 0
249419.0 232573.0 0
253932.0 232805.0 0
252004.0 236186.0 0
263834.0 233997.0 0
268012.0 233403.0 0
272691.0 233481.0 0
278031.0 234292.0 0
283191.0 235838.0 0
287572.0 232679.0 0
292515.0 234493.0 0
296868.0 235235.0 0
305811.0 235841.0 0
301395.0 236383.0 0
310186.0 231966.0 0
315912.0 234656.0 0
326129.0 231754.0 0
329885.0 233698.0 0
332766.0 231671.0 0
354804.0 235481.0 0
359390.0 231768.0 0
363529.0 235421.0 0
368250.0 235875.0 0
375763.0 234113.0 0
388117.0 234584.0 0
405524.0 232304.0 0
418256.0 232668.0 0
420703.0 236394.0 0
423877.0 232720.0 0
428710.0 236230.0 0
448865.0 233426.0 0
453540.0 234747.0 0
457751.0 231992.0 0
463509.0 232103.0 0
469551.0 233487.0 0
473869.0 234485.0 0
480010.0 235964.0 0
485101.0 234567.0 0
492549.0 232291.0 0
497345.0 233285.0 0
12432.9 237679.0 0
18261.9 237640.0 0
31572.7 239815.0 0
35807.4 236815.0 0
40409.5 237523.0 0
42563.5 241442.0 0
83627.7 237735.0 0
88025.0 238547.0 0
98112.3 239188.0 0
115498.0 237360.0 0
119756.0 239610.0 0
124322.0 238529.0 0
137186.0 240606.0 0
145130.0 236812.0 0
152637.0 238177.0 0
157044.0 238287.0 0
175791.0 236534.0 0
203858.0 239983.0 0
208374.0 236978.0 0
213628.0 239278.0 0
223604.0 237300.0 0
220713.0 239612.0 0
229037.0 237206.0 0
226282.0 240291.0 0
233879.0 238263.0 0
238180.0 239906.0 0
242503.0 238414.0 0
247734.0 237330.0 0
251494.0 241333.0 0
255720.0 238114.0 0
260652.0 237209.0 0
265215.0 238002.0 0
269725.0 237552.0 0
274715.0 238982.0 0
281330.0 240174.0 0
288142.0 238498.0 0
293578.0 239288.0 0
297771.0 238890.0 0
309215.0 236966.0 0
320548.0 238746.0 0
327915.0 241254.0 0
332502.0 236595.0 0
332244.0 240530.0 0
337497.0 236489.0 0
344487.0 237405.0 0
350089.0 236944.0 0
359342.0 237297.0 0
379842.0 236682.0 0
383935.0 236751.0 0
396224.0 238753.0 0
401114.0 240710.0 0
443848.0 238918.0 0
460614.0 239930.0 0
475351.0 239687.0 0
486287.0 240116.0 0
2385.26 242733.0 0
6006.39 246428.0 0
11457.4 243817.0 0
19755.7 242165.0 0
23726.9 243392.0 0
28043.2 244148.0 0
37894.0 243672.0 0
44669.6 246094.0 0
48901.4 244271.0 0
53337.5 246364.0 0
59411.4 242799.0 0
57735.5 246272.0 0
73236.5 241555.0 0
78992.8 243384.0 0
84814.0 243600.0 0
103476.0 242615.0 0
108327.0 244044.0 0
127047.0 242832.0 0
133529.0 243314.0 0
141682.0 243359.0 0
147366.0 245265.0 0
166764.0 246279.0 0
172721.0 246441.0 0
178009.0 243602.0 0
182816.0 243276.0 0
188845.0 243203.0 0
195076.0 245466.0 0
203963.0 245528.0 0
208072.0 242469.0 0
212464.0 244040.0 0
217762.0 242986.0 0
223042.0 242904.0 0
226900.0 246428.0 0
230318.0 242124.0 0
235414.0 243200.0 0
240555.0 243370.0 0
245780.0 242879.0 0
251771.0 245911.0 0
256396.0 243170.0 0
259937.0 246204.0 0
262262.0 242044.0 0
267761.0 242356.0 0
272922.0 244140.0 0
278143.0 243666.0 0
284671.0 243170.0 0
290899.0 243892.0 0
296526.0 243709.0 0
320417.0 244338.0 0
324961.0 244263.0 0
339112.0 246454.0 0
349617.0 243663.0 0
356286.0 244582.0 0
366109.0 244831.0 0
370489.0 245125.0 0
373783.0 241851.0 0
391305.0 242193.0 0
405441.0 242827.0 0
410203.0 244748.0 0
415232.0 243230.0 0
420447.0 243881.0 0
429055.0 246277.0 0
436061.0 244691.0 0
441300.0 243183.0 0
447423.0 242770.0 0
452098.0 244549.0 0
463371.0 244251.0 0
468386.0 241684.0 0
472620.0 244581.0 0
478625.0 244848.0 0
482264.0 242478.0 0
488314.0 243988.0 0
491602.0 241705.0 0
497634.0 245521.0 0
10345.6 249242.0 0
14356.5 250177.0 0
17628.4 247861.0 0
21198.9 250046.0 0
31549.5 247120.0 0
81396.5 247702.0 0
88732.2 248939.0 0
94616.0 249643.0 0
115852.0 250148.0 0
124424.0 251470.0 0
131487.0 247364.0 0
151889.0 249028.0 0
157006.0 247621.0 0
162148.0 247320.0 0
208984.0 247710.0 0
204533.0 251309.0 0
215424.0 248649.0 0
220830.0 247246.0 0
223890.0 250331.0 0
232157.0 246941.0 0
233632.0 251325.0 0
237585.0 247942.0 0
242700.0 247090.0 0
241571.0 251365.0 0
247669.0 248792.0 0
255609.0 248357.0 0
264650.0 246897.0 0
269298.0 246980.0 0
275667.0 248915.0 0
282089.0 248495.0 0
288381.0 249046.0 0
294169.0 248970.0 0
307859.0 247954.0 0
313339.0 249514.0 0
318165.0 248595.0 0
333604.0 250032.0 0
344315.0 248596.0 0
348224.0 250563.0 0
361855.0 247395.0 0
373349.0 248127.0 0
375332.0 251495.0 0
382120.0 248193.0 0
377846.0 248730.0 0
386421.0 248421.0 0
412280.0 251235.0 0
424465.0 246726.0 0
425494.0 250670.0 0
434661.0 249692.0 0
439140.0 251495.0 0
444448.0 249202.0 0
456662.0 249651.0 0
461427.0 251098.0 0
475464.0 247867.0 0
478873.0 250532.0 0
484076.0 248935.0 0
2520.43 254922.0 0
23712.7 253395.0 0
27712.7 254308.0 0
38957.8 255379.0 0
64003.3 255508.0 0
69034.9 255420.0 0
73587.4 252817.0 0
78890.1 254644.0 0
99836.4 252678.0 0
106851.0 255793.0 0
111993.0 255259.0 0
115838.0 255909.0 0
129417.0 251782.0 0
132091.0 255195.0 0
137331.0 253362.0 0
141484.0 254998.0 0
178121.0 253635.0 0
173534.0 255019.0 0
182877.0 252181.0 0
190151.0 252400.0 0
198863.0 253831.0 0
194183.0 255638.0 0
206165.0 255789.0 0
209812.0 252680.0 0
214272.0 254371.0 0
219383.0 252561.0 0
223634.0 254891.0 0
228551.0 252211.0 0
232406.0 255794.0 0
237508.0 253838.0 0
249634.0 253567.0 0
245265.0 254210.0 0
254552.0 253816.0 0
260839.0 251938.0 0
267630.0 251821.0 0
273080.0 253929.0 0
278626.0 253809.0 0
282938.0 253466.0 0
286584.0 253627.0 0
291011.0 253473.0 0
295789.0 254283.0 0
304833.0 252382.0 0
320801.0 255841.0 0
326082.0 254827.0 0
339966.0 255834.0 0
345237.0 253114.0 0
348323.0 254894.0 0
353398.0 256066.0 0
387759.0 255124.0 0
391971.0 256322.0 0
396070.0 253380.0 0
405148.0 253400.0 0
416387.0 252890.0 0
422843.0 255554.0 0
431748.0 253686.0 0
448734.0 256783.0 0
452878.0 253109.0 0
457920.0 254606.0 0
465643.0 253151.0 0
493893.0 255559.0 0
35470.8 257000.0 0
31330.3 257413.0 0
58276.5 260144.0 0
62760.5 260295.0 0
79117.6 259463.0 0
83595.1 257094.0 0
85357.4 261765.0 0
102136.0 257407.0 0
118035.0 259425.0 0
122579.0 257543.0 0
182265.0 261452.0 0
187621.0 257836.0 0
186511.0 261537.0 0
204357.0 258886.0 0
210207.0 257283.0 0
219003.0 257443.0 0
214471.0 259189.0 0
223352.0 259660.0 0
227926.0 257851.0 0
236315.0 258894.0 0
241299.0 257135.0 0
246217.0 259392.0 0
251078.0 257669.0 0
256302.0 259797.0 0
262861.0 258644.0 0
268059.0 257032.0 0
272177.0 259051.0 0
277010.0 258733.0 0
282246.0 258235.0 0
286579.0 257305.0 0
288281.0 260891.0 0
292295.0 258034.0 0
296350.0 257788.0 0
296140.0 261013.0 0
334097.0 260078.0 0
338749.0 259041.0 0
344226.0 257059.0 0
377578.0 257599.0 0
383309.0 259734.0 0
417562.0 257282.0 0
429251.0 258329.0 0
440415.0 259279.0 0
444373.0 258356.0 0
449043.0 261834.0 0
472532.0 261962.0 0
476982.0 261411.0 0
483950.0 259003.0 0
488519.0 256872.0 0
23860.2 264060.0 0
57656.8 266827.0 0
89677.3 262934.0 0
114635.0 263130.0 0
119205.0 263584.0 0
148593.0 262704.0 0
154063.0 263780.0 0
160451.0 264494.0 0
172783.0 265030.0 0
177642.0 263264.0 0
175845.0 266902.0 0
204006.0 263342.0 0
209786.0 262733.0 0
219172.0 262132.0 0
215089.0 263590.0 0
222789.0 264119.0 0
226785.0 262627.0 0
232142.0 263010.0 0
237492.0 263184.0 0
241630.0 262212.0 0
247322.0 264354.0 0
251264.0 262232.0 0
251624.0 266784.0 0
257636.0 264552.0 0
261118.0 263664.0 0
267903.0 262499.0 0
273126.0 263484.0 0
279255.0 263037.0 0
284088.0 263184.0 0
287844.0 265196.0 0
292285.0 263510.0 0
295740.0 266494.0 0
343860.0 264387.0 0
347413.0 266873.0 0
354633.0 264400.0 0
362728.0 263569.0 0
367860.0 261976.0 0
374256.0 262312.0 0
378320.0 266088.0 0
388742.0 262192.0 0
441465.0 265470.0 0
447200.0 265865.0 0
487877.0 264567.0 0
18980.9 267975.0 0
24601.3 269186.0 0
29372.6 270360.0 0
41944.7 270539.0 0
46285.1 268495.0 0
59419.7 270728.0 0
125705.0 271432.0 0
131308.0 270086.0 0
136308.0 269954.0 0
164978.0 268223.0 0
169679.0 269427.0 0
203274.0 269111.0 0
207137.0 267518.0 0
212541.0 267688.0 0
216903.0 267122.0 0
216026.0 270864.0 0
221028.0 268335.0 0
226469.0 267796.0 0
231406.0 268095.0 0
236716.0 268143.0 0
242994.0 267576.0 0
247799.0 268526.0 0
256146.0 268358.0 0
260920.0 267956.0 0
263538.0 271718.0 0
265927.0 267869.0 0
270797.0 267094.0 0
273818.0 270772.0 0
276141.0 267284.0 0
281425.0 267525.0 0
282425.0 272007.0 0
285814.0 268581.0 0
291086.0 268428.0 0
295575.0 271408.0 0
300753.0 268334.0 0
351113.0 267894.0 0
354750.0 271186.0 0
359569.0 267573.0 0
374379.0 272128.0 0
378180.0 270470.0 0
388980.0 271775.0 0
441425.0 271879.0 0
496741.0 267080.0 0
3000.82 273626.0 0
34198.8 272321.0 0
38189.5 275373.0 0
44756.1 273995.0 0
49720.9 272822.0 0
78998.1 273522.0 0
78850.0 276975.0 0
109302.0 274745.0 0
203607.0 272691.0 0
199008.0 275220.0 0
209616.0 273387.0 0
215005.0 274491.0 0
217595.0 277151.0 0
219940.0 273266.0 0
225127.0 273360.0 0
230480.0 272733.0 0
235397.0 273548.0 0
240005.0 272808.0 0
245797.0 273454.0 0
252776.0 273372.0 0
259145.0 272785.0 0
264996.0 275812.0 0
269639.0 272220.0 0
275508.0 276973.0 0
277560.0 272688.0 0
286250.0 272312.0 0
290629.0 273912.0 0
286405.0 276802.0 0
295370.0 277206.0 0
303327.0 273730.0 0
318205.0 274749.0 0
321222.0 277019.0 0
324319.0 275943.0 0
344872.0 274515.0 0
382647.0 273015.0 0
399809.0 276309.0 0
425901.0 276772.0 0
430527.0 274858.0 0
435600.0 274210.0 0
463934.0 272969.0 0
5576.43 278026.0 0
30674.9 281269.0 0
40981.1 278118.0 0
104572.0 278572.0 0
110496.0 279505.0 0
114684.0 280968.0 0
194107.0 282063.0 0
199280.0 280941.0 0
204505.0 277515.0 0
213854.0 277766.0 0
209704.0 280687.0 0
215563.0 281941.0 0
222169.0 277926.0 0
222848.0 281723.0 0
227333.0 278130.0 0
232822.0 278072.0 0
238449.0 277669.0 0
242878.0 277700.0 0
241917.0 281908.0 0
247484.0 279194.0 0
251331.0 278143.0 0
252118.0 282324.0 0
255291.0 279027.0 0
260318.0 277999.0 0
270308.0 278484.0 0
275365.0 281622.0 0
280916.0 277760.0 0
285529.0 281893.0 0
290401.0 279481.0 0
306624.0 280005.0 0
349594.0 281364.0 0
389404.0 281966.0 0
394819.0 279799.0 0
406576.0 278593.0 0
412274.0 278272.0 0
420030.0 278226.0 0
466754.0 279426.0 0
470906.0 280783.0 0
13308.9 284717.0 0
118920.0 283458.0 0
123167.0 285714.0 0
190052.0 285135.0 0
203762.0 282406.0 0
207021.0 286291.0 0
213627.0 287242.0 0
218154.0 287243.0 0
219946.0 282663.0 0
222500.0 287106.0 0
226713.0 283787.0 0
231987.0 283118.0 0
236793.0 282709.0 0
242687.0 286454.0 0
246392.0 283977.0 0
251699.0 286456.0 0
259938.0 283222.0 0
255128.0 283761.0 0
265584.0 282546.0 0
270872.0 284406.0 0
280266.0 283633.0 0
289387.0 285597.0 0
294636.0 283356.0 0
336311.0 285335.0 0
351904.0 286778.0 0
355596.0 284164.0 0
417609.0 284350.0 0
431254.0 285677.0 0
4937.82 288944.0 0
2103.89 291504.0 0
9627.86 289197.0 0
187646.0 291373.0 0
203371.0 288620.0 0
204452.0 292254.0 0
209713.0 290452.0 0
218306.0 291903.0 0
222726.0 292016.0 0
228118.0 289044.0 0
233102.0 287698.0 0
231449.0 292366.0 0
237975.0 287501.0 0
236417.0 292291.0 0
241624.0 291102.0 0
247738.0 288174.0 0
253246.0 292500.0 0
255829.0 287938.0 0
258473.0 292555.0 0
260264.0 288281.0 0
265036.0 287935.0 0
262430.0 291900.0 0
269992.0 289770.0 0
275872.0 287752.0 0
280221.0 290563.0 0
284133.0 287761.0 0
288836.0 291152.0 0
294886.0 289983.0 0
329037.0 291791.0 0
341778.0 288802.0 0
361777.0 290518.0 0
367623.0 290570.0 0
378832.0 289298.0 0
208611.0 294734.0 0
213389.0 292938.0 0
218165.0 296656.0 0
222182.0 296732.0 0
226681.0 293575.0 0
236519.0 297510.0 0
242380.0 297449.0 0
247090.0 293289.0 0
252047.0 297364.0 0
256535.0 297164.0 0
261403.0 296781.0 0
266448.0 293792.0 0
273824.0 293127.0 0
271274.0 297102.0 0
278168.0 294068.0 0
282084.0 293594.0 0
285751.0 295057.0 0
289876.0 295830.0 0
294931.0 296741.0 0
315116.0 297252.0 0
320148.0 295127.0 0
325382.0 295517.0 0
371598.0 294133.0 0
375018.0 296066.0 0
385884.0 293319.0 0
390115.0 295674.0 0
35193.8 299353.0 0
68661.0 298909.0 0
74935.4 300512.0 0
139476.0 299613.0 0
144683.0 300313.0 0
154306.0 301443.0 0
161601.0 302329.0 0
204665.0 297907.0 0
208958.0 300287.0 0
213534.0 298155.0 0
225758.0 298143.0 0
230740.0 297848.0 0
247901.0 298855.0 0
266160.0 299655.0 0
276404.0 299157.0 0
281975.0 298056.0 0
287124.0 300060.0 0
292000.0 301016.0 0
302840.0 301651.0 0
61778.3 304669.0 0
68580.0 303283.0 0
71617.3 304798.0 0
81810.3 307335.0 0
90847.8 302868.0 0
132100.0 307678.0 0
137181.0 304327.0 0
149546.0 303249.0 0
157366.0 305601.0 0
295743.0 302852.0 0
300503.0 305781.0 0
306217.0 304961.0 0
78448.2 310150.0 0
135499.0 311201.0 0
309713.0 310125.0 0
185974.0 317885.0 0
305097.0 315602.0 0
308845.0 314666.0 0
197715.0 321688.0 0
142495.0 323797.0 0
138284.0 326425.0 0
193738.0 329923.0 0
1675.16 375612.0 0
5466.26 375226.0 0
9922.84 375284.0 0
14387.0 375201.0 0
18548.6 375144.0 0
23089.7 375106.0 0
26983.6 375425.0 0
30849.8 375245.0 0
34519.1 375525.0 0
37434.4 375617.0 0
41326.0 375478.0 0
45995.2 375119.0 0
49376.1 375248.0 0
53081.1 375814.0 0
57180.6 375453.0 0
61228.6 375917.0 0
65959.0 375036.0 0
69531.2 375481.0 0
72931.9 375647.0 0
76710.0 375176.0 0
80875.3 375348.0 0
85457.3 375216.0 0
90445.7 375326.0 0
94845.3 375264.0 0
99445.8 375298.0 0
103526.0 375355.0 0
107427.0 375279.0 0
111439.0 375257.0 0
115772.0 375173.0 0
119903.0 375549.0 0
124093.0 375107.0 0
129572.0 375493.0 0
133459.0 375545.0 0
136255.0 375534.0 0
142525.0 375548.0 0
139471.0 375472.0 0
145819.0 375364.0 0
150406.0 375871.0 0
154669.0 375163.0 0
158500.0 375865.0 0
162486.0 375722.0 0
166288.0 375297.0 0
170313.0 375333.0 0
173490.0 375427.0 0
177422.0 375060.0 0
182057.0 375128.0 0
179589.0 376809.0 0
185633.0 375400.0 0
189443.0 375138.0 0
193017.0 375569.0 0
195821.0 375392.0 0
198585.0 375121.0 0
300812.0 376283.0 0
304632.0 375608.0 0
308246.0 376327.0 0
311662.0 375291.0 0
316339.0 375689.0 0
320448.0 375842.0 0
323688.0 375593.0 0
327150.0 375465.0 0
331263.0 375354.0 0
335552.0 375061.0 0
339480.0 375668.0 0
343380.0 375384.0 0
348402.0 375743.0 0
352532.0 375989.0 0
356149.0 375019.0 0
360757.0 375281.0 0
365630.0 375915.0 0
370327.0 375269.0 0
375872.0 375296.0 0
373044.0 377291.0 0
379853.0 375752.0 0
383765.0 375470.0 0
388146.0 376004.0 0
393343.0 375227.0 0
396860.0 375511.0 0
399834.0 375348.0 0
403774.0 375357.0 0
408083.0 375061.0 0
410123.0 377500.0 0
412673.0 375152.0 0
417369.0 375181.0 0
421597.0 375484.0 0
425804.0 375662.0 0
429474.0 375277.0 0
433463.0 375462.0 0
437802.0 375096.0 0
442368.0 375221.0 0
440566.0 377231.0 0
445753.0 375214.0 0
450808.0 375496.0 0
455539.0 375615.0 0
460487.0 375659.0 0
464766.0 375548.0 0
469448.0 375459.0 0
473690.0 375142.0 0
479028.0 375177.0 0
483913.0 375464.0 0
487718.0 375297.0 0
492684.0 375515.0 0
497563.0 375363.0 0
4054.37 378770.0 0
1268.29 378713.0 0
1387.61 381459.0 0
7748.2 378067.0 0
10030.2 380691.0 0
5663.26 382304.0 0
12131.4 378241.0 0
13870.5 382162.0 0
16162.6 379048.0 0
20697.1 378548.0 0
25249.4 378455.0 0
23303.1 382284.0 0
27020.5 381084.0 0
29012.8 378372.0 0
30222.6 381725.0 0
32893.3 378711.0 0
37371.0 378964.0 0
38799.8 382199.0 0
40780.7 379899.0 0
44827.4 377974.0 0
43895.5 381138.0 0
48705.3 377942.0 0
47835.8 381142.0 0
50964.4 382086.0 0
51937.1 379258.0 0
54481.5 382049.0 0
56518.5 379043.0 0
60103.8 380404.0 0
65121.4 379112.0 0
69444.3 378263.0 0
68448.1 382299.0 0
72088.9 380128.0 0
75058.0 378217.0 0
76024.9 382607.0 0
78752.9 378385.0 0
81214.4 381831.0 0
83353.6 378473.0 0
85657.8 381887.0 0
87863.8 378849.0 0
92773.6 379408.0 0
96963.7 378830.0 0
101213.0 378594.0 0
98872.7 381663.0 0
105077.0 378528.0 0
102655.0 382019.0 0
107242.0 382249.0 0
109379.0 378505.0 0
111637.0 382177.0 0
113455.0 378587.0 0
115406.0 381904.0 0
117758.0 378887.0 0
121812.0 379311.0 0
126623.0 379039.0 0
122863.0 382207.0 0
131007.0 379314.0 0
130146.0 381834.0 0
133699.0 378478.0 0
137456.0 378782.0 0
142449.0 379075.0 0
146702.0 378936.0 0
144438.0 382582.0 0
148066.0 381955.0 0
151306.0 380000.0 0
155099.0 378339.0 0
161129.0 378488.0 0
158675.0 379547.0 0
162265.0 380792.0 0
167976.0 377904.0 0
164742.0 378977.0 0
168263.0 381083.0 0
171410.0 378592.0 0
172143.0 382249.0 0
175469.0 378572.0 0
179597.0 379218.0 0
181340.0 381939.0 0
183004.0 378409.0 0
184707.0 381068.0 0
187171.0 378307.0 0
188071.0 382456.0 0
191383.0 378918.0 0
193927.0 381255.0 0
195427.0 378084.0 0
196799.0 381225.0 0
199148.0 377844.0 0
199642.0 381056.0 0
301194.0 380412.0 0
304648.0 379185.0 0
308392.0 380608.0 0
312493.0 378973.0 0
312521.0 382139.0 0
320702.0 379233.0 0
316848.0 380842.0 0
323551.0 378050.0 0
323766.0 381172.0 0
326010.0 378770.0 0
326808.0 381154.0 0
329637.0 379111.0 0
329376.0 382637.0 0
333729.0 378481.0 0
340600.0 378796.0 0
337573.0 377895.0 0
337508.0 380942.0 0
340677.0 382565.0 0
344712.0 379848.0 0
349280.0 380050.0 0
353512.0 380123.0 0
357519.0 377931.0 0
357893.0 381651.0 0
361692.0 379681.0 0
366436.0 380623.0 0
369669.0 379080.0 0
373011.0 380837.0 0
376984.0 379796.0 0
381256.0 379133.0 0
385029.0 378779.0 0
383409.0 382465.0 0
387821.0 381468.0 0
392058.0 379587.0 0
395433.0 381812.0 0
397361.0 378709.0 0
400217.0 381863.0 0
401751.0 378172.0 0
405971.0 377850.0 0
403954.0 380440.0 0
408269.0 381181.0 0
412336.0 380042.0 0
415143.0 377819.0 0
416315.0 382334.0 0
419148.0 378949.0 0
421173.0 382519.0 0
423413.0 379301.0 0
427126.0 379310.0 0
428283.0 382633.0 0
430453.0 378354.0 0
430278.0 380980.0 0
432256.0 381075.0 0
433995.0 378758.0 0
436756.0 378373.0 0
435537.0 382112.0 0
439199.0 380549.0 0
443788.0 379230.0 0
447862.0 378127.0 0
447681.0 382644.0 0
451395.0 379736.0 0
454315.0 379323.0 0
456179.0 382465.0 0
458544.0 379257.0 0
460117.0 382433.0 0
462773.0 379799.0 0
467169.0 378957.0 0
470195.0 381724.0 0
471700.0 378419.0 0
475377.0 378013.0 0
474531.0 381791.0 0
478559.0 379760.0 0
482120.0 378271.0 0
482390.0 382462.0 0
485662.0 378758.0 0
489493.0 378664.0 0
486718.0 382432.0 0
494365.0 379645.0 0
490867.0 382418.0 0
498518.0 378540.0 0
497990.0 382038.0 0
1884.53 384848.0 0
10105.5 384137.0 0
6198.5 387156.0 0
14529.9 386247.0 0
10391.5 387647.0 0
18513.4 383271.0 0
19340.5 387115.0 0
23112.9 386000.0 0
26959.3 384271.0 0
30817.4 385441.0 0
34887.2 382698.0 0
34789.6 387017.0 0
38413.3 385774.0 0
41211.4 386555.0 0
45087.4 383514.0 0
41479.4 383511.0 0
44174.5 386858.0 0
48597.2 384955.0 0
52244.8 384501.0 0
55808.3 385915.0 0
57445.5 382702.0 0
59844.0 384748.0 0
63704.1 383514.0 0
63246.8 387744.0 0
67168.4 385882.0 0
70427.2 387580.0 0
71722.3 384218.0 0
74882.6 387480.0 0
79265.4 385971.0 0
83731.6 385599.0 0
90290.8 382842.0 0
87471.4 385102.0 0
91331.4 387577.0 0
95077.9 383809.0 0
99792.8 385061.0 0
104587.0 385344.0 0
109428.0 385618.0 0
114486.0 385987.0 0
119086.0 383218.0 0
119276.0 387399.0 0
126436.0 383380.0 0
122677.0 385517.0 0
130180.0 385388.0 0
134058.0 382752.0 0
136795.0 386715.0 0
133244.0 387207.0 0
139476.0 382926.0 0
142536.0 386867.0 0
147304.0 385506.0 0
151121.0 384139.0 0
155477.0 382720.0 0
153738.0 386543.0 0
158109.0 387164.0 0
160039.0 382987.0 0
162403.0 385946.0 0
164990.0 383314.0 0
168979.0 385316.0 0
172931.0 385803.0 0
177005.0 383331.0 0
180959.0 386561.0 0
183864.0 383565.0 0
186080.0 386587.0 0
191535.0 382906.0 0
190314.0 386022.0 0
194775.0 385081.0 0
199138.0 384837.0 0
301286.0 384672.0 0
304730.0 382840.0 0
305117.0 386795.0 0
307417.0 384500.0 0
310781.0 384392.0 0
309124.0 387478.0 0
314198.0 384292.0 0
317579.0 386026.0 0
320873.0 383564.0 0
325846.0 385266.0 0
330864.0 386938.0 0
333558.0 382898.0 0
335594.0 387280.0 0
337500.0 384224.0 0
339987.0 386815.0 0
344101.0 384397.0 0
346412.0 386529.0 0
347825.0 383488.0 0
351267.0 383625.0 0
349393.0 386903.0 0
355238.0 384097.0 0
352941.0 386142.0 0
359615.0 384858.0 0
363407.0 383402.0 0
364306.0 386846.0 0
366843.0 384530.0 0
369939.0 383214.0 0
374582.0 385400.0 0
379263.0 383303.0 0
378988.0 387652.0 0
382024.0 385939.0 0
386194.0 386463.0 0
391906.0 385221.0 0
397072.0 385022.0 0
401035.0 385780.0 0
404583.0 384468.0 0
408610.0 385131.0 0
412212.0 383909.0 0
415199.0 386696.0 0
419141.0 385635.0 0
423152.0 387000.0 0
424788.0 383212.0 0
427609.0 386641.0 0
431840.0 384196.0 0
435787.0 386107.0 0
438720.0 384149.0 0
442424.0 383345.0 0
445114.0 386936.0 0
452440.0 383078.0 0
450298.0 386358.0 0
455062.0 386940.0 0
458992.0 385210.0 0
462617.0 383850.0 0
461550.0 386657.0 0
465740.0 382753.0 0
465557.0 386862.0 0
468656.0 384914.0 0
472317.0 385647.0 0
476329.0 385388.0 0
478467.0 383455.0 0
484232.0 386186.0 0
480077.0 387464.0 0
488405.0 386749.0 0
494100.0 385257.0 0
498380.0 385904.0 0
1903.41 388808.0 0
1448.34 392444.0 0
8836.23 390245.0 0
5555.18 391846.0 0
12171.9 390310.0 0
16664.0 390747.0 0
22570.1 390509.0 0
26891.8 388197.0 0
26750.2 392857.0 0
31876.4 390450.0 0
37216.2 389989.0 0
40973.7 389268.0 0
44526.5 391257.0 0
47879.1 388866.0 0
51842.2 387818.0 0
54813.7 389873.0 0
59072.8 388929.0 0
62326.1 391865.0 0
66991.5 390489.0 0
71809.5 390874.0 0
76068.5 391780.0 0
78766.8 389543.0 0
82442.4 389117.0 0
86658.5 388510.0 0
85071.0 391662.0 0
88713.7 391709.0 0
96652.0 388430.0 0
93497.5 392244.0 0
101747.0 388782.0 0
106883.0 388857.0 0
111090.0 388887.0 0
109485.0 392338.0 0
116609.0 389628.0 0
113474.0 390935.0 0
119722.0 390552.0 0
126365.0 387899.0 0
122818.0 389615.0 0
126524.0 391975.0 0
129984.0 389671.0 0
134106.0 391381.0 0
138863.0 390083.0 0
142947.0 392458.0 0
146854.0 389546.0 0
150685.0 387803.0 0
150723.0 391658.0 0
154596.0 389998.0 0
161730.0 389187.0 0
158934.0 392032.0 0
163426.0 391622.0 0
165842.0 388414.0 0
171037.0 389648.0 0
175809.0 387798.0 0
175082.0 391337.0 0
179053.0 390522.0 0
183910.0 390936.0 0
188707.0 390054.0 0
193164.0 389027.0 0
198232.0 389653.0 0
195110.0 392584.0 0
301050.0 388702.0 0
304516.0 390673.0 0
307481.0 390288.0 0
310574.0 391319.0 0
313385.0 388114.0 0
314529.0 392444.0 0
317474.0 390083.0 0
320464.0 392298.0 0
321948.0 388376.0 0
323969.0 392543.0 0
327640.0 390707.0 0
333030.0 390817.0 0
337437.0 390921.0 0
341692.0 390911.0 0
343904.0 387890.0 0
346690.0 390535.0 0
352027.0 390477.0 0
356060.0 387858.0 0
356421.0 391820.0 0
360573.0 389564.0 0
365087.0 390262.0 0
369347.0 388205.0 0
371545.0 392712.0 0
373437.0 389905.0 0
376538.0 390254.0 0
374706.0 392600.0 0
379432.0 391034.0 0
382338.0 389423.0 0
385183.0 391034.0 0
389565.0 390317.0 0
395819.0 388276.0 0
393645.0 389418.0 0
393545.0 392311.0 0
397012.0 391804.0 0
399435.0 388750.0 0
401676.0 392572.0 0
403222.0 388628.0 0
405308.0 391126.0 0
406988.0 388445.0 0
411228.0 388064.0 0
409250.0 392569.0 0
414413.0 391421.0 0
418448.0 389371.0 0
422130.0 391450.0 0
425848.0 390427.0 0
428892.0 390249.0 0
431971.0 388114.0 0
431999.0 392391.0 0
435913.0 390150.0 0
440355.0 387980.0 0
439332.0 392090.0 0
443891.0 391835.0 0
448037.0 389642.0 0
452066.0 390358.0 0
456238.0 391250.0 0
458975.0 388825.0 0
459863.0 392218.0 0
462977.0 389912.0 0
467544.0 391159.0 0
469293.0 387934.0 0
472139.0 389651.0 0
475406.0 387888.0 0
476798.0 391425.0 0
481356.0 391124.0 0
484388.0 389481.0 0
487761.0 390516.0 0
492318.0 389495.0 0
497663.0 389538.0 0
2777.93 396657.0 0
9751.1 393176.0 0
7516.37 395735.0 0
13055.8 393908.0 0
11203.5 397068.0 0
19922.1 393444.0 0
16780.6 397270.0 0
22547.8 395582.0 0
26406.8 397575.0 0
31498.9 395735.0 0
36070.5 393784.0 0
40346.5 392968.0 0
38157.8 395400.0 0
40798.0 397205.0 0
44548.6 394955.0 0
50482.0 393076.0 0
47385.6 396858.0 0
54235.2 396567.0 0
57297.9 393155.0 0
58160.8 397359.0 0
61490.5 395554.0 0
65694.4 394548.0 0
69728.4 394283.0 0
73490.4 393899.0 0
73261.7 397176.0 0
76926.4 395737.0 0
80759.0 393437.0 0
85438.8 395872.0 0
89912.0 395178.0 0
96153.7 394846.0 0
93783.9 397736.0 0
99135.9 392974.0 0
98008.7 397213.0 0
104361.0 393178.0 0
107565.0 396570.0 0
117251.0 392964.0 0
113055.0 395337.0 0
122145.0 393985.0 0
118063.0 396765.0 0
127200.0 396874.0 0
130027.0 393371.0 0
133019.0 396754.0 0
138045.0 394783.0 0
142119.0 397486.0 0
147262.0 393141.0 0
145725.0 395856.0 0
150036.0 396429.0 0
154402.0 394142.0 0
157995.0 397036.0 0
162924.0 395872.0 0
167471.0 393000.0 0
172665.0 395320.0 0
177045.0 393910.0 0
177521.0 397528.0 0
180607.0 394319.0 0
184281.0 395143.0 0
187519.0 394066.0 0
191732.0 393273.0 0
190678.0 397261.0 0
196929.0 394278.0 0
194640.0 396008.0 0
198388.0 397291.0 0
199421.0 393748.0 0
301264.0 393469.0 0
306853.0 395128.0 0
311691.0 394842.0 0
315147.0 396484.0 0
318031.0 394346.0 0
322013.0 395577.0 0
326045.0 395586.0 0
330591.0 394868.0 0
335303.0 394434.0 0
339519.0 394355.0 0
337411.0 397519.0 0
343948.0 394421.0 0
348899.0 394595.0 0
353395.0 394996.0 0
359980.0 393471.0 0
357623.0 394992.0 0
361215.0 396882.0 0
363425.0 393523.0 0
365498.0 396733.0 0
367615.0 393000.0 0
369915.0 396468.0 0
374385.0 396431.0 0
377695.0 393596.0 0
378628.0 397350.0 0
382008.0 393963.0 0
384858.0 397509.0 0
386918.0 394183.0 0
391145.0 394764.0 0
395171.0 395174.0 0
393183.0 397519.0 0
399015.0 395297.0 0
402651.0 397811.0 0
405338.0 394466.0 0
412829.0 396035.0 0
418401.0 394606.0 0
422667.0 395532.0 0
425065.0 393705.0 0
426182.0 397288.0 0
428063.0 393548.0 0
430810.0 396499.0 0
435654.0 394849.0 0
437615.0 397601.0 0
440826.0 395748.0 0
445331.0 396297.0 0
448509.0 393378.0 0
450151.0 397351.0 0
453262.0 394035.0 0
457337.0 394982.0 0
460969.0 395721.0 0
463836.0 397767.0 0
464052.0 393817.0 0
467462.0 395882.0 0
471414.0 393509.0 0
475513.0 396232.0 0
480445.0 394803.0 0
484916.0 393535.0 0
486836.0 397056.0 0
490042.0 393758.0 0
494334.0 396923.0 0
498821.0 392892.0 0
495145.0 392963.0 0
498356.0 396001.0 0
2889.34 402390.0 0
7815.8 399835.0 0
12403.7 401466.0 0
17584.3 402819.0 0
21833.1 399907.0 0
25748.4 401815.0 0
30706.6 400918.0 0
36001.7 398376.0 0
40137.1 402022.0 0
44960.7 400211.0 0
50506.0 399570.0 0
55533.4 400987.0 0
61139.0 400815.0 0
64551.1 398155.0 0
65361.3 402105.0 0
68802.7 398852.0 0
73560.8 401441.0 0
76591.6 398984.0 0
80603.7 398495.0 0
77942.8 402129.0 0
81439.5 402453.0 0
84788.0 400681.0 0
89197.3 399444.0 0
93178.2 402304.0 0
102010.0 398024.0 0
97764.6 401168.0 0
105503.0 400745.0 0
110866.0 400777.0 0
115372.0 399167.0 0
115728.0 402992.0 0
122035.0 398997.0 0
118349.0 400390.0 0
125501.0 402783.0 0
130005.0 400658.0 0
134074.0 401625.0 0
137973.0 399392.0 0
142272.0 401961.0 0
146404.0 399828.0 0
150877.0 401687.0 0
153682.0 398279.0 0
155987.0 401753.0 0
161182.0 401464.0 0
164362.0 399735.0 0
167610.0 398056.0 0
165525.0 402334.0 0
171508.0 399438.0 0
169616.0 402999.0 0
174708.0 401145.0 0
182126.0 398109.0 0
179556.0 401304.0 0
186473.0 398059.0 0
184484.0 401610.0 0
189366.0 401520.0 0
194626.0 400528.0 0
199108.0 400867.0 0
302206.0 398014.0 0
301449.0 402579.0 0
306697.0 401153.0 0
311040.0 398906.0 0
315533.0 400940.0 0
319184.0 398010.0 0
320218.0 402341.0 0
323863.0 399343.0 0
328592.0 398813.0 0
330953.0 401737.0 0
327007.0 402659.0 0
333559.0 399021.0 0
337851.0 401362.0 0
341253.0 398039.0 0
346115.0 398586.0 0
342689.0 402763.0 0
350892.0 399034.0 0
356188.0 399113.0 0
360206.0 400106.0 0
363818.0 400986.0 0
367925.0 399455.0 0
371884.0 400661.0 0
376139.0 400700.0 0
380150.0 401353.0 0
381795.0 398487.0 0
384499.0 401876.0 0
388971.0 398623.0 0
393134.0 400991.0 0
397184.0 398888.0 0
400741.0 401819.0 0
405288.0 402739.0 0
408228.0 398262.0 0
409734.0 402421.0 0
412680.0 400562.0 0
416306.0 398696.0 0
421220.0 399339.0 0
425495.0 401508.0 0
428332.0 402881.0 0
429380.0 400127.0 0
434285.0 400222.0 0
438972.0 399509.0 0
442412.0 399912.0 0
446909.0 400749.0 0
451732.0 401817.0 0
454796.0 398488.0 0
455790.0 402584.0 0
459410.0 399180.0 0
463458.0 401865.0 0
467189.0 399993.0 0
471053.0 398215.0 0
474581.0 400431.0 0
479029.0 399475.0 0
483325.0 398365.0 0
482132.0 402811.0 0
486592.0 401434.0 0
490197.0 398301.0 0
490363.0 401585.0 0
493647.0 400949.0 0
497827.0 399888.0 0
3377.0 407989.0 0
8284.78 404896.0 0
13452.6 406758.0 0
18498.2 406693.0 0
22441.7 404678.0 0
27456.4 405336.0 0
31468.5 405413.0 0
35444.7 403303.0 0
34516.4 407552.0 0
39039.3 407105.0 0
44009.5 405726.0 0
47898.3 403630.0 0
48695.0 408033.0 0
51719.2 404225.0 0
55479.9 405037.0 0
58846.4 404174.0 0
58064.3 407745.0 0
63210.0 406253.0 0
69245.1 404394.0 0
75050.8 405943.0 0
79852.5 405611.0 0
84335.5 405000.0 0
88572.2 403712.0 0
91863.5 405897.0 0
96651.1 405713.0 0
101791.0 403662.0 0
100517.0 407617.0 0
106965.0 404660.0 0
104345.0 407820.0 0
111921.0 405943.0 0
117231.0 407437.0 0
120185.0 403324.0 0
122219.0 406742.0 0
126199.0 408034.0 0
130488.0 405321.0 0
135083.0 405425.0 0
138572.0 403856.0 0
142350.0 406608.0 0
138062.0 408019.0 0
146202.0 404164.0 0
150011.0 405819.0 0
154271.0 405874.0 0
158806.0 405594.0 0
163618.0 405879.0 0
168475.0 407788.0 0
173243.0 405881.0 0
177036.0 404360.0 0
181585.0 405589.0 0
187259.0 405676.0 0
192882.0 405945.0 0
198032.0 404211.0 0
304780.0 405219.0 0
301449.0 407489.0 0
307768.0 405855.0 0
311447.0 404308.0 0
316641.0 405674.0 0
321328.0 406825.0 0
323716.0 403725.0 0
325701.0 407021.0 0
330287.0 405816.0 0
334400.0 403720.0 0
338651.0 406571.0 0
343120.0 406962.0 0
348056.0 403460.0 0
350659.0 407135.0 0
353198.0 403504.0 0
359048.0 404476.0 0
364033.0 406400.0 0
368173.0 403483.0 0
370854.0 406040.0 0
374102.0 404676.0 0
377838.0 404202.0 0
381302.0 405378.0 0
385903.0 406723.0 0
388992.0 403088.0 0
390313.0 406514.0 0
392806.0 404525.0 0
396809.0 403994.0 0
398109.0 406991.0 0
401301.0 405961.0 0
405633.0 405984.0 0
409124.0 406381.0 0
412598.0 403844.0 0
416844.0 403066.0 0
414171.0 407763.0 0
418967.0 406824.0 0
422122.0 404303.0 0
426877.0 405975.0 0
431032.0 403776.0 0
431063.0 407895.0 0
434747.0 405246.0 0
438245.0 407053.0 0
438828.0 403097.0 0
441409.0 407496.0 0
443406.0 404337.0 0
448741.0 405680.0 0
453374.0 405063.0 0
457005.0 406950.0 0
459382.0 403478.0 0
462010.0 406341.0 0
466196.0 405414.0 0
470939.0 403271.0 0
473853.0 406922.0 0
477273.0 403912.0 0
477282.0 408122.0 0
481244.0 407330.0 0
485170.0 405294.0 0
490964.0 406081.0 0
495530.0 403585.0 0
498596.0 403490.0 0
497392.0 407475.0 0
1629.88 411988.0 0
8695.81 409515.0 0
5569.47 412642.0 0
12800.0 412000.0 0
17646.9 410764.0 0
21269.0 408347.0 0
25095.6 408670.0 0
22145.7 411667.0 0
30229.2 409911.0 0
26013.9 412654.0 0
36042.0 411784.0 0
41182.6 411254.0 0
44818.8 410010.0 0
47626.4 411906.0 0
53427.9 408291.0 0
51541.8 412244.0 0
56321.5 411726.0 0
60492.8 410391.0 0
64152.7 411924.0 0
67332.0 408952.0 0
71504.5 408703.0 0
74466.5 410109.0 0
78212.2 409481.0 0
82832.8 409065.0 0
85500.9 412150.0 0
88027.4 408477.0 0
93051.0 409425.0 0
94729.2 413224.0 0
97700.1 410280.0 0
102007.0 411452.0 0
106741.0 411632.0 0
108368.0 408184.0 0
112073.0 410912.0 0
117262.0 412669.0 0
121589.0 410571.0 0
125741.0 412845.0 0
130318.0 410659.0 0
134095.0 408438.0 0
140768.0 411123.0 0
146879.0 408782.0 0
143652.0 409621.0 0
144614.0 412896.0 0
151743.0 409637.0 0
148912.0 413031.0 0
156025.0 409560.0 0
158126.0 412715.0 0
160355.0 409255.0 0
161745.0 413191.0 0
164630.0 410380.0 0
168349.0 412461.0 0
172693.0 410877.0 0
177027.0 408379.0 0
180919.0 410115.0 0
184608.0 409131.0 0
188953.0 410603.0 0
193889.0 411277.0 0
198073.0 408565.0 0
305437.0 408875.0 0
301877.0 411604.0 0
309505.0 408985.0 0
313398.0 408386.0 0
312328.0 412627.0 0
317991.0 411201.0 0
323680.0 410937.0 0
329071.0 410957.0 0
334115.0 408603.0 0
333628.0 412740.0 0
337773.0 411601.0 0
342206.0 410642.0 0
346600.0 408434.0 0
346202.0 413163.0 0
350672.0 411237.0 0
355142.0 408505.0 0
360442.0 410263.0 0
364957.0 410557.0 0
367980.0 408164.0 0
368461.0 411669.0 0
372346.0 409513.0 0
375053.0 413041.0 0
377308.0 408285.0 0
378940.0 412189.0 0
382014.0 409560.0 0
386292.0 411665.0 0
389599.0 409448.0 0
394411.0 408483.0 0
396512.0 412571.0 0
399369.0 409732.0 0
404725.0 409807.0 0
410241.0 411424.0 0
415090.0 413061.0 0
418403.0 410333.0 0
423299.0 409554.0 0
427746.0 410304.0 0
431253.0 413070.0 0
435179.0 409718.0 0
440195.0 411613.0 0
444650.0 408755.0 0
448568.0 410498.0 0
445297.0 413118.0 0
452855.0 409011.0 0
456542.0 412062.0 0
460174.0 409578.0 0
464377.0 409714.0 0
469436.0 409255.0 0
474405.0 410768.0 0
478526.0 411126.0 0
482405.0 412029.0 0
486005.0 409513.0 0
494001.0 410739.0 0
489986.0 411995.0 0
497932.0 412174.0 0
2425.19 416012.0 0
9148.55 413644.0 0
7230.9 417664.0 0
12026.9 416636.0 0
19777.1 414224.0 0
16419.8 415351.0 0
22910.6 415415.0 0
28936.6 413615.0 0
27634.8 417345.0 0
32060.5 414846.0 0
35822.6 416603.0 0
39836.1 415410.0 0
44430.8 414331.0 0
42581.7 418191.0 0
48754.3 415157.0 0
50456.8 418088.0 0
54705.5 416547.0 0
59895.2 414522.0 0
64200.4 416711.0 0
69931.7 414061.0 0
75934.3 413445.0 0
74817.0 417552.0 0
80935.2 413800.0 0
85499.2 415946.0 0
82577.7 417261.0 0
89823.5 413662.0 0
93970.7 418071.0 0
98787.8 414923.0 0
104114.0 416478.0 0
109652.0 415612.0 0
113752.0 415353.0 0
117122.0 417524.0 0
121672.0 415489.0 0
130263.0 416566.0 0
135838.0 413269.0 0
141051.0 416349.0 0
146138.0 416895.0 0
150193.0 416657.0 0
153811.0 413788.0 0
157891.0 416586.0 0
162176.0 417159.0 0
165164.0 414231.0 0
167383.0 417881.0 0
171174.0 415252.0 0
177724.0 413669.0 0
174339.0 416444.0 0
181150.0 417277.0 0
183950.0 413635.0 0
188232.0 415088.0 0
191352.0 414155.0 0
198102.0 413670.0 0
194422.0 415291.0 0
301843.0 415560.0 0
306714.0 413555.0 0
310890.0 416939.0 0
315760.0 416825.0 0
320848.0 415754.0 0
325859.0 415146.0 0
330914.0 416005.0 0
336629.0 416661.0 0
341921.0 415110.0 0
346010.0 417910.0 0
350446.0 415885.0 0
355799.0 413948.0 0
360690.0 414840.0 0
365244.0 414655.0 0
362531.0 418141.0 0
370448.0 415524.0 0
374759.0 417060.0 0
378479.0 416040.0 0
382463.0 414165.0 0
386787.0 416923.0 0
391468.0 413643.0 0
395810.0 416850.0 0
400942.0 414667.0 0
406705.0 415247.0 0
411720.0 416570.0 0
416364.0 417235.0 0
420661.0 414831.0 0
426172.0 414158.0 0
435808.0 413392.0 0
434480.0 416914.0 0
438221.0 415664.0 0
442269.0 416676.0 0
447501.0 417601.0 0
451573.0 414048.0 0
455571.0 416533.0 0
461433.0 413798.0 0
466674.0 413807.0 0
469232.0 418256.0 0
464318.0 418315.0 0
471550.0 414221.0 0
473957.0 418367.0 0
479424.0 414430.0 0
475998.0 414569.0 0
478388.0 417839.0 0
482449.0 416294.0 0
486284.0 414231.0 0
490342.0 416360.0 0
494374.0 414605.0 0
497986.0 416113.0 0
2730.87 420996.0 0
7244.69 422099.0 0
11011.2 420964.0 0
15300.2 419713.0 0
19849.2 418514.0 0
18526.3 422389.0 0
23699.3 418964.0 0
22977.0 422655.0 0
28465.2 422825.0 0
32629.4 419402.0 0
38411.3 420592.0 0
43855.9 422453.0 0
46534.9 418380.0 0
49388.8 422160.0 0
54956.6 422324.0 0
59711.1 419300.0 0
64248.7 421627.0 0
67622.4 419130.0 0
71348.5 419521.0 0
74851.3 422537.0 0
79176.5 419224.0 0
84149.0 420143.0 0
88723.5 419079.0 0
99369.0 420510.0 0
104219.0 421612.0 0
108295.0 420380.0 0
112948.0 419487.0 0
116707.0 421558.0 0
120906.0 420291.0 0
125404.0 418920.0 0
135837.0 419653.0 0
140071.0 420158.0 0
139587.0 423160.0 0
143658.0 421052.0 0
148887.0 420984.0 0
153826.0 418974.0 0
158811.0 421823.0 0
163934.0 421154.0 0
167945.0 423233.0 0
172358.0 420192.0 0
177122.0 418704.0 0
176538.0 422998.0 0
181016.0 421599.0 0
185747.0 418938.0 0
191372.0 418411.0 0
189266.0 422512.0 0
193536.0 423253.0 0
197231.0 418992.0 0
302248.0 419960.0 0
305914.0 422931.0 0
306675.0 418727.0 0
310554.0 421499.0 0
315199.0 421574.0 0
319446.0 420341.0 0
323560.0 418997.0 0
327867.0 419878.0 0
332613.0 420719.0 0
336905.0 422012.0 0
341392.0 420327.0 0
345877.0 422844.0 0
350182.0 420865.0 0
354205.0 418655.0 0
358464.0 418596.0 0
361687.0 423131.0 0
366665.0 419574.0 0
372006.0 421026.0 0
377438.0 420427.0 0
382102.0 418996.0 0
386346.0 422733.0 0
391638.0 419858.0 0
398898.0 419825.0 0
403656.0 419387.0 0
405629.0 423319.0 0
408416.0 419972.0 0
414292.0 421194.0 0
419605.0 420188.0 0
424226.0 418426.0 0
426127.0 422077.0 0
429490.0 418377.0 0
434017.0 420855.0 0
438558.0 420012.0 0
443679.0 421469.0 0
452070.0 418369.0 0
449856.0 421921.0 0
455472.0 422094.0 0
459540.0 418420.0 0
466811.0 422084.0 0
471573.0 423059.0 0
476925.0 422100.0 0
481698.0 420757.0 0
486217.0 418898.0 0
494103.0 418432.0 0
490512.0 421632.0 0
494626.0 422137.0 0
497867.0 420237.0 0
1119.89 424656.0 0
4805.94 425937.0 0
1166.97 427188.0 0
9795.39 425466.0 0
14505.5 424420.0 0
19610.3 427268.0 0
25328.9 427203.0 0
30273.2 427679.0 0
33909.5 424088.0 0
38493.6 425767.0 0
42709.7 427217.0 0
47023.4 426394.0 0
51803.2 426882.0 0
56376.4 427258.0 0
60098.7 424463.0 0
64783.5 426704.0 0
69258.2 423715.0 0
73011.8 427267.0 0
81317.8 423873.0 0
77548.7 426542.0 0
87115.4 424764.0 0
91440.7 428045.0 0
92902.8 423567.0 0
97423.9 425639.0 0
102085.0 425090.0 0
107027.0 425321.0 0
111470.0 423670.0 0
115469.0 425525.0 0
119369.0 424018.0 0
120381.0 428119.0 0
123531.0 424062.0 0
125445.0 428250.0 0
129685.0 423479.0 0
135385.0 424494.0 0
133667.0 428483.0 0
138545.0 427461.0 0
142869.0 425752.0 0
146297.0 424319.0 0
149106.0 425081.0 0
153315.0 424460.0 0
157918.0 427985.0 0
163073.0 425874.0 0
167405.0 428068.0 0
172593.0 426477.0 0
177060.0 426455.0 0
180702.0 426798.0 0
185245.0 424256.0 0
189864.0 427824.0 0
198078.0 424232.0 0
195328.0 427583.0 0
301973.0 424567.0 0
305459.0 427529.0 0
308901.0 425515.0 0
313215.0 425939.0 0
318414.0 425443.0 0
324047.0 423934.0 0
329542.0 424675.0 0
334269.0 425399.0 0
339999.0 426585.0 0
345380.0 426926.0 0
349860.0 425965.0 0
355224.0 423554.0 0
358439.0 428381.0 0
367805.0 425417.0 0
375958.0 426333.0 0
381107.0 423556.0 0
383486.0 427384.0 0
390963.0 424505.0 0
388213.0 427883.0 0
395760.0 423555.0 0
393404.0 428437.0 0
398307.0 427841.0 0
401058.0 423953.0 0
401744.0 427645.0 0
405534.0 427943.0 0
410146.0 424702.0 0
414179.0 427514.0 0
417702.0 424608.0 0
422291.0 424218.0 0
426185.0 425973.0 0
430736.0 424345.0 0
436692.0 425003.0 0
442147.0 426686.0 0
446715.0 425000.0 0
451585.0 427293.0 0
457618.0 427492.0 0
461839.0 423532.0 0
467110.0 426927.0 0
475486.0 427760.0 0
480902.0 425409.0 0
484839.0 427471.0 0
485384.0 423493.0 0
488923.0 426364.0 0
493539.0 425618.0 0
497840.0 424633.0 0
2473.1 430415.0 0
4936.83 433357.0 0
7809.66 430145.0 0
12929.5 429332.0 0
17226.4 433023.0 0
22525.4 431915.0 0
27552.3 432055.0 0
34966.0 429154.0 0
39527.4 430124.0 0
43320.8 431328.0 0
48480.7 431834.0 0
54352.9 431307.0 0
60478.5 429855.0 0
65638.4 431947.0 0
68910.3 428585.0 0
71613.3 431546.0 0
76015.9 430905.0 0
82310.2 429620.0 0
85749.5 433207.0 0
87777.7 430203.0 0
91364.5 432559.0 0
95507.9 430150.0 0
100716.0 429670.0 0
106106.0 430681.0 0
111415.0 428750.0 0
109954.0 433229.0 0
116067.0 429779.0 0
114216.0 433647.0 0
118925.0 432897.0 0
123072.0 431847.0 0
126892.0 432432.0 0
129476.0 429459.0 0
136998.0 433008.0 0
142191.0 430875.0 0
147018.0 428750.0 0
151878.0 429077.0 0
154753.0 432714.0 0
159854.0 433048.0 0
163789.0 430664.0 0
167821.0 432510.0 0
172593.0 432339.0 0
177038.0 430079.0 0
181554.0 431627.0 0
184635.0 428732.0 0
186426.0 432777.0 0
198290.0 430332.0 0
193979.0 432753.0 0
301490.0 428572.0 0
303853.0 432471.0 0
310150.0 431403.0 0
316014.0 430103.0 0
319824.0 433323.0 0
322050.0 428973.0 0
324292.0 432406.0 0
326754.0 428842.0 0
331536.0 429121.0 0
336081.0 431662.0 0
340932.0 433562.0 0
343944.0 430501.0 0
348413.0 431091.0 0
353383.0 429908.0 0
356959.0 433190.0 0
363370.0 428656.0 0
366940.0 430377.0 0
368335.0 433612.0 0
371232.0 430207.0 0
376032.0 431511.0 0
380011.0 430816.0 0
384952.0 432173.0 0
390127.0 432584.0 0
396944.0 432498.0 0
401617.0 431082.0 0
406182.0 433267.0 0
410153.0 429936.0 0
414633.0 432793.0 0
418394.0 429081.0 0
423251.0 429300.0 0
428708.0 429982.0 0
432913.0 433604.0 0
433491.0 428845.0 0
438064.0 430571.0 0
443087.0 432049.0 0
446576.0 429131.0 0
449606.0 432738.0 0
454998.0 431285.0 0
462189.0 428908.0 0
459467.0 433047.0 0
465520.0 431952.0 0
470670.0 431621.0 0
477243.0 433453.0 0
481190.0 430297.0 0
486324.0 432091.0 0
492356.0 430680.0 0
497606.0 428987.0 0
497933.0 433375.0 0
11109.3 435011.0 0
32739.0 433977.0 0
38075.3 434594.0 0
58235.1 434668.0 0
79088.2 434282.0 0
97176.1 434910.0 0
102488.0 434837.0 0
373679.0 433971.0 0
420220.0 433720.0 0
425316.0 433993.0 0
481855.0 434573.0 0
490281.0 435610.0 0
494438.0 435280.0 0
POINT_DATA 5000
SCALARS Radius float 1
LOOKUP_TABLE default
4796.58 3979.26 3471.03 5253.55 5820.48 5782.6 4862.21 5113.21 3929.19 4107.03 4478.15 5379.87 5925.6 4501.51 4792.73 4736.58 4931.38 3485.26 4329.05 4151.94 4049.23 5337.48 6124.89 5708.81 5252.48 4780.03 5495.39 3996.0 3856.1 4665.12 3383.4 4133.88 4834.9 3850.77 6044.04 5415.48 5120.0 3863.18 2356.98 4998.37 6182.6 5492.18 5258.36 5061.3 3642.12 3163.97 5812.43 5122.66 5906.14 7513.1 5254.28 4436.4 5733.48 4672.91 5580.89 5645.7 5176.86 6810.52 5840.26 6110.27 5561.06 5073.35 3615.22 5670.04 4380.59 6716.79 5759.91 7613.27 5529.52 4951.03 5255.32 6037.08 5096.78 6756.95 4129.43 6324.23 3843.58 3320.52 4194.5 4270.53 5344.25 5191.63 4593.7 4150.99 4216.92 4742.68 4344.58 5634.83 5495.84 6268.1 4861.06 5374.51 5320.28 6739.08 4797.52 4569.12 4298.67 5960.66 6608.73 5011.84 7034.11 6261.42 4502.5 3771.48 4043.57 4271.69 5681.38 4138.42 3708.04 5513.6 3240.09 4556.36 6082.81 3191.99 4685.34 5601.05 4929.8 3586.91 3103.0 3554.9 4015.92 5542.21 4487.31 3936.02 4044.71 5980.74 4094.62 4927.02 5546.39 5325.36 5484.83 5085.53 5351.6 4730.36 4715.55 5867.73 3951.75 5013.56 4499.64 4375.68 5542.27 5054.98 6030.06 5170.02 5484.19 3557.27 4927.31 4688.68 4402.52 4517.56 4182.53 5903.42 3588.44 3955.56 3761.32 4118.05 4366.19 5553.16 3672.51 2938.66 4940.78 4231.61 4008.92 3942.53 3379.84 3589.27 4827.82 3997.1 3607.45 3260.67 5123.52 3038.33 4392.68 4333.2 7199.21 4523.7 2240.39 5091.39 5293.9 6142.94 3912.37 4727.24 4602.25 4790.08 5082.47 4763.45 5445.87 3815.26 4704.72 4177.94 4571.7 5896.46 5022.8 3784.5 3780.23 6481.79 5224.12 7042.12 6326.39 4471.58 5873.69 4962.09 3999.48 4359.62 6946.21 2586.12 5433.8 4011.77 5499.11 3633.87 5922.5 5198.77 5987.17 6013.14 2765.2 4901.41 5110.37 5664.98 4382.74 5927.43 4651.28 3693.63 4384.42 4516.43 5481.78 5637.59 4937.14 5043.05 5816.2 5109.54 6483.19 5945.65 6759.9 5538.89 7021.47 5416.38 6059.59 4955.55 2720.68 5701.86 3563.63 4238.81 4468.59 5885.03 2837.58 5325.02 5200.76 5017.13 4862.64 5185.34 4432.58 6684.56 3968.64 4688.67 2635.86 5292.64 6166.5 5065.13 5936.02 5305.17 4861.08 4003.05 5390.22 4805.87 4712.33 5227.21 5697.78 4667.36 4091.31 6372.62 4295.38 5615.42 7565.34 5923.5 4612.68 4281.49 4973.83 6342.25 6691.39 4840.84 5135.69 5344.0 4020.32 6045.46 4245.72 5908.1 6048.7 6133.92 3719.84 4178.4 3095.48 4166.08 4123.6 4850.14 4819.73 3382.7 6817.32 4319.79 6098.14 4472.17 4203.26 5188.81 4730.41 6057.22 5062.71 6125.34 4527.08 5347.48 4850.01 3970.25 5147.67 3979.82 5011.31 5138.31 5264.06 4659.59 6327.9 4048.37 6355.42 4362.19 5690.56 4948.92 3115.91 3307.12 4493.48 5924.89 5693.81 4002.16 4174.52 4138.16 3486.22 3829.13 4684.5 6230.49 6458.82 5418.62 4601.27 5493.32 5740.68 5926.61 6051.14 5836.15 3261.21 4345.55 6704.06 3653.41 3871.88 3856.01 5246.2 4390.66 5279.39 3673.74 5205.43 6116.18 7447.37 4924.6 4385.06 4733.32 7184.19 2899.43 2924.37 4290.3 3867.67 5399.73 4660.72 3888.21 5891.05 6038.78 6902.81 6644.76 4254.17 5629.19 5090.24 5740.84 5530.87 4310.18 7134.64 5978.9 4187.56 3629.62 4997.27 4301.06 4877.67 4290.14 6562.18 4156.38 5316.75 4541.21 4164.68 5669.65 5934.22 5624.49 5762.59 7092.87 5163.55 4666.81 3954.91 2965.01 6643.85 3637.61 6222.42 5654.31 3745.84 5690.26 4156.2 4497.59 5965.78 4374.35 4810.12 5643.58 5215.05 4292.06 5577.04 5006.58 4602.86 3688.8 4548.16 3369.23 5449.18 5492.26 5244.78 5762.84 3937.74 4749.8 6084.86 5478.92 4778.34 5551.36 6894.71 3091.3 4414.54 5789.98 7054.71 3641.64 5489.43 5747.75 4277.89 4796.33 4195.44 5539.32 5360.19 6496.85 5600.93 4874.39 5541.59 4124.71 5728.85 4827.23 4911.47 5803.39 5863.59 4381.97 6257.19 3255.82 2812.98 4065.69 5603.15 4695.45 6052.7 3921.18 3798.62 5308.1 3666.57 4907.89 4937.02 5655.21 4786.6 4645.41 4433.59 4320.28 6445.94 5542.14 4218.06 6308.71 4716.19 5514.76 3456.98 3498.2 5105.16 3066.13 4302.5 6006.16 6009.88 7055.53 5013.67 5826.04 5339.78 4970.88 4143.78 4636.5 3703.1 4940.42 5923.4 6471.55 5499.39 5644.82 5501.93 5463.38 5945.21 4938.74 5696.88 5607.14 3923.03 5975.63 5252.34 6396.74 4138.46 2775.04 3821.72 4986.77 6318.18 5586.81 4621.75 3948.17 4551.24 5358.59 4220.88 4515.71 6519.71 6640.13 5082.6 5810.84 4230.54 5094.44 3748.24 4655.49 4467.94 4850.81 6138.47 5527.54 5573.7 5697.4 4727.62 5054.25 4270.95 4055.8 7325.81 5280.17 4794.96 6186.19 4839.34 5083.08 6834.49 6337.56 5525.39 3998.5 5938.34 4024.3 6394.38 5555.28 5242.73 4737.14 4686.65 5834.74 5556.96 5788.23 5581.75 6392.01 6730.19 4907.06 4073.93 3735.44 6043.3 5952.75 6332.36 6122.55 2739.94 4931.53 5480.13 3323.28 6695.82 6405.76 5794.24 4678.38 5448.61 5050.65 4827.33 5206.48 5513.57 5729.23 5226.0 3365.82 4538.95 5965.15 4763.66 6090.91 4946.42 5019.93 5085.71 6116.33 6343.14 5462.21 5750.71 5470.77 4831.47 4643.85 4004.04 4289.17 5564.02 4274.61 2965.79 6898.19 6035.6 5137.34 4481.53 5330.45 4581.13 3610.4 4219.07 6387.01 5367.52 3092.35 4322.15 5210.03 3629.96 5478.47 5351.39 6142.37 6061.47 4933.21 5375.47 6038.14 2540.31 5120.49 6029.66 5262.61 6302.8 6038.2 4005.44 5206.78 5555.88 6732.43 6425.26 5143.58 6362.12 4484.76 4840.01 2980.99 5611.2 7933.0 4455.12 5173.87 5380.13 5711.87 5118.27 5169.36 5932.23 5791.61 3369.13 4479.66 3043.85 5367.2 5461.13 4726.76 3599.45 5839.13 5489.34 5163.9 5708.14 5537.72 3920.42 6155.31 4223.33 4553.56 5329.64 5911.67 5709.62 5835.78 4127.74 2476.04 3942.07 7443.72 3937.08 5260.34 4709.35 6586.45 4373.3 4750.78 4163.5 5724.64 5078.86 4780.2 5100.1 3561.29 4963.34 3295.83 5081.78 4260.92 6263.44 5960.56 5774.97 4020.95 6313.06 3474.39 6470.3 6062.05 5082.74 6915.83 6072.45 4410.55 7099.43 5526.14 5198.29 5423.0 5077.33 3856.59 5413.79 6338.89 6202.55 5025.39 4714.54 5893.5 3320.11 5030.91 6022.17 5119.37 6163.38 4566.18 4723.12 3459.9 4964.09 5201.36 5024.9 4306.53 5409.61 5094.81 5972.06 5713.22 5861.71 5028.96 4359.04 3183.98 3866.16 3794.63 4524.28 3778.1 5152.36 4511.82 5826.64 4220.65 6820.42 4816.2 4894.16 4896.52 4751.02 3372.79 4941.22 5282.64 4715.72 4669.66 4808.52 5046.33 5607.24 5053.92 6352.26 5495.68 3847.38 3818.59 4863.72 5002.48 6623.85 4262.82 5102.36 8332.24 4342.9 5069.84 4051.44 4241.89 6049.55 5941.72 5991.09 5133.97 6600.94 4788.58 5371.02 6155.1 5876.71 5029.78 6515.84 4888.6 4739.14 4918.77 4371.99 4219.78 3885.86 4459.28 5235.29 4479.94 6250.23 4118.84 4863.27 5862.86 6049.79 3493.7 5374.98 4200.03 4719.7 6939.12 4735.33 5092.37 6444.77 4287.63 5315.4 6449.45 3975.31 4746.52 3689.45 3824.16 5572.95 3868.18 6723.16 5584.06 7111.16 4547.19 3817.13 5507.24 6851.54 3982.23 4583.31 4503.89 5806.08 4853.39 4997.27 4093.08 4809.42 5543.27 4717.05 5659.17 6135.57 5998.38 4312.67 5423.8 4989.15 5017.78 5015.69 6175.81 4727.24 6677.09 4305.57 6959.81 4829.35 5201.67 6321.41 4089.76 5526.55 3192.41 5184.56 5215.15 4987.87 3315.57 5804.71 4764.96 5727.3 4242.52 5356.51 4277.88 4087.15 3057.03 4143.08 7500.97 5228.18 5787.31 5065.11 5868.82 4978.31 4050.9 4099.77 5054.74 4537.32 4981.9 4656.78 5126.91 3600.43 5131.24 5196.67 6496.67 5474.8 6262.72 3664.11 5117.47 4925.63 2990.77 5882.65 4434.19 5187.7 4623.61 4188.3 6261.75 5177.64 4255.31 5453.3 6413.02 3492.19 4584.5 5122.63 4703.08 5274.19 5516.95 4406.4 5411.85 4844.57 4027.46 6314.07 5776.37 4516.28 3627.82 4044.45 5125.78 5344.43 4373.47 5045.38 5350.88 5372.61 3686.21 6480.17 5023.15 4377.07 3813.22 5570.3 4336.42 5243.29 7589.94 4449.22 3130.65 5628.24 5856.11 5287.2 3327.49 4109.88 4234.94 4562.29 5013.13 5080.66 4270.24 3417.33 4926.42 4164.13 4642.34 4520.1 4947.52 5874.89 4293.03 4389.21 3791.79 4424.7 4925.44 4754.05 4951.47 6084.93 4307.28 3697.96 4739.42 5538.93 5020.12 4745.45 2631.9 5281.28 6255.18 4668.71 4758.21 7228.46 6362.14 3948.23 6719.88 5978.82 5266.5 3927.99 4523.88 4948.98 4414.48 5227.52 4092.24 5163.02 7144.24 4906.82 5687.83 5004.23 6442.69 4648.04 6607.87 4721.32 3293.56 3163.78 5274.14 4903.82 5746.28 4082.47 5511.6 4338.08 4378.3 6134.99 4094.73 4407.9 4718.54 4440.57 5548.29 6766.43 2315.64 6345.13 5226.56 5599.49 5313.22 4413.85 3905.51 3999.94 4470.98 4864.22 3901.8 5759.46 3921.08 4190.31 5678.96 5262.19 4244.9 6070.58 6034.41 5452.83 5130.91 5402.24 4519.22 6445.22 3844.9 3695.36 5101.59 3963.86 3848.93 4306.11 5935.47 3402.32 5903.66 4528.49 5004.67 5365.89 5992.26 3960.8 5070.39 4980.85 5714.58 5110.45 5208.32 5248.77 4083.97 4607.02 5153.74 4528.09 3895.51 4165.81 5813.4 6291.51 4128.98 5882.89 6246.22 4188.32 5246.61 4100.38 5344.77 4723.48 4899.11 5097.87 4278.07 7267.18 6256.02 5320.92 5269.18 4406.1 5034.59 4263.33 4454.63 5080.18 5912.61 3279.1 4066.38 4403.98 4560.84 4729.43 5776.57 4562.74 5683.26 5598.74 7493.3 4814.55 6320.71 3527.05 3464.83 5698.77 2477.07 6413.11 4305.16 5092.28 4965.89 5659.95 4152.85 2908.7 4453.64 4517.73 5469.47 5660.16 4989.56 3838.47 2588.37 6736.03 6235.57 3623.87 5916.16 4390.41 6113.95 4097.57 5017.5 5563.79 6171.13 5511.88 5083.41 7055.42 5486.68 6048.86 4285.32 5490.43 5022.28 5197.52 4959.34 4948.5 4527.02 4531.14 4564.34 3838.56 4871.44 5076.35 6020.48 6375.99 5200.05 5234.29 5313.66 5419.37 4466.03 4511.54 5409.33 5196.0 4923.9 4973.78 3329.99 3947.47 3296.27 4713.25 4204.84 6243.0 6673.96 3556.85 5441.96 3435.9 5174.89 4288.3 5370.52 4652.29 5774.81 3746.31 5498.32 5027.98 5346.27 6475.1 4969.21 2691.29 2845.98 5289.52 5314.85 4305.43 5450.44 4942.77 5742.65 5592.32 5381.16 6193.35 6086.96 5233.78 3701.27 5653.9 5046.21 5894.61 5139.5 3979.54 5304.13 5944.09 5833.06 4923.41 4497.31 5384.76 5529.42 5257.12 5243.43 4537.14 5551.9 3757.34 6415.61 4687.64 4419.71 5037.06 4541.8 5175.29 5842.56 5887.15 5412.31 3087.09 6934.37 4890.5 4050.08 3981.07 5452.42 5328.22 6853.85 2395.5 3497.9 5941.61 4512.11 5782.48 6248.6 5683.61 3836.45 5100.25 6894.26 4986.51 5339.38 5178.99 5383.07 4591.87 5013.42 4790.78 4247.15 6552.22 5651.07 6248.81 5273.35 4091.8 2651.49 4645.58 5512.23 5275.32 5985.29 4898.94 4178.15 4613.31 4733.04 6119.09 5788.66 5091.68 7531.29 5069.25 5048.89 5935.03 3161.47 3991.03 6390.78 7435.25 6826.57 4788.87 4495.87 6022.72 4643.31 5527.33 6917.52 5402.21 4989.09 4880.14 4982.31 3848.54 4307.48 5941.4 5331.02 6510.17 4871.96 4863.23 4402.67 4470.61 5565.13 4384.88 6887.27 6008.49 4806.34 4287.53 5612.21 4929.14 5945.08 3306.14 5490.58 4863.79 4702.06 3830.46 6031.67 4689.15 6138.12 4428.78 5409.66 4345.67 4765.72 4642.66 4752.14 5329.59 4888.12 4950.97 5512.16 3197.63 4863.96 5191.08 5203.08 7480.41 3423.15 5163.77 4488.85 3731.84 4901.07 5186.3 3436.15 4151.76 4020.4 3493.47 4596.75 4933.65 5443.58 4558.46 5805.86 4049.02 4470.4 5311.03 5255.12 6169.11 5615.35 4027.09 6422.84 4502.18 5379.09 4602.85 4962.77 5872.05 4853.02 6259.23 5181.4 5670.2 4711.62 4247.23 4114.24 4268.65 4694.83 5509.42 4354.08 4256.43 5936.36 4520.62 3903.75 4755.47 4485.99 5127.16 5475.8 5314.69 6050.81 5543.46 4249.46 5965.81 3702.37 4750.17 5660.85 2330.66 4177.19 3587.05 6229.37 6718.19 5282.91 4425.84 7256.35 4800.69 6566.1 3555.86 6386.78 4631.83 4996.99 4896.39 6081.14 5480.83 4220.46 4607.85 5128.57 6000.7 3169.67 5604.21 4968.03 3361.92 6710.88 5395.14 3967.48 6213.04 3685.13 6790.73 4655.16 5251.4 3867.19 5857.79 4039.91 5276.7 5036.58 6119.63 5411.02 4752.9 4287.16 5199.44 4062.5 4435.51 5374.07 4588.7 3766.55 4579.69 3554.48 6496.52 5005.85 4216.17 6484.17 4721.02 4254.37 3374.08 4031.78 6098.1 5708.99 5687.85 5346.68 5296.29 4611.53 4896.11 4285.66 5172.53 4135.62 5801.99 5534.94 5210.48 7644.38 7552.94 6101.92 5323.3 5088.44 4998.21 4662.56 5166.79 5349.31 2976.22 4649.22 5394.55 5094.52 4946.74 2682.24 5928.32 5229.48 5475.7 4016.18 5526.75 5435.74 4244.99 5327.45 5560.26 6185.89 3997.96 4439.35 3460.94 3990.25 3691.0 3758.07 4752.51 4236.14 4407.87 5733.62 5282.51 4460.92 3797.33 5945.89 4042.28 4105.55 4340.76 6065.22 4221.28 4456.39 5514.84 3633.79 5421.53 5937.08 6070.3 5233.29 4312.56 4612.06 5204.04 4750.58 6667.68 5235.11 6622.11 5211.38 4590.55 4741.26 5920.32 4255.85 5097.69 3988.3 6543.13 5149.72 5776.96 5464.25 5486.48 5301.47 4617.55 5424.88 5415.85 8659.64 5683.95 6027.62 5010.2 6123.03 5966.61 5711.11 4575.94 4938.72 3546.71 5768.57 5564.23 5950.04 4231.83 2435.33 6401.43 5020.71 2681.29 5094.48 3872.61 4238.4 4318.48 6132.95 5266.22 4860.33 6004.68 4051.34 3627.55 6239.84 4635.6 4256.67 3457.48 3931.07 3405.98 5417.15 3688.16 4681.72 4945.39 5996.33 3950.63 5415.19 4612.62 3619.07 4275.57 4467.04 6385.23 2983.99 2614.4 6363.92 6205.93 4923.24 5830.72 6184.4 3828.81 4373.45 5309.98 4082.57 5255.18 5169.9 3004.16 4767.78 5235.17 4421.12 4779.5 5254.49 6649.96 4303.19 5784.3 3914.2 4256.57 6088.68 4135.08 5620.74 4778.82 6124.08 5467.84 5053.95 5926.11 5253.37 5767.9 6515.8 5089.62 5869.4 3701.16 4186.6 5895.77 4732.09 6136.49 4356.25 4216.95 4209.49 5742.74 4244.21 4947.24 3645.12 3875.05 6200.54 5148.58 4199.45 6599.66 5469.13 4055.54 4233.8 5765.42 6098.95 4997.83 4893.49 5325.44 5021.88 5956.65 4498.25 4188.87 3735.24 6574.95 4074.48 6333.29 4558.47 5731.57 5997.88 5839.71 5576.92 6408.83 3930.79 4004.35 5226.97 3685.13 3312.06 5180.76 3361.26 6799.4 5278.36 5865.39 4427.28 6079.11 3082.32 6430.39 3658.37 7440.72 3949.6 5703.6 6326.18 5661.62 6631.19 6648.68 4713.74 5626.61 5817.25 5407.78 4084.49 5061.98 6632.99 4537.6 5147.36 4419.61 7177.44 4563.46 6553.94 5726.66 5460.65 5652.0 5463.41 5225.33 4929.75 4435.36 6045.22 4614.3 5134.39 3532.3 5769.98 5442.32 2221.99 4643.56 3580.58 4863.01 5356.79 5657.36 3619.79 5029.47 6306.21 5266.01 2978.76 2040.66 7016.27 5884.9 3876.21 3685.65 5689.26 4916.22 6022.7 4940.84 5750.07 4809.67 4757.74 6045.67 3946.28 3821.94 5439.9 5367.73 3540.11 4652.01 3456.47 5421.64 7234.66 4207.54 4886.12 6419.12 4976.12 4817.16 5453.98 3991.42 4388.63 5102.75 4200.09 4597.29 5931.77 5151.21 5398.64 6817.57 4477.04 3614.96 3886.68 5703.74 5662.55 5737.92 4360.23 5365.24 5293.51 4763.96 5754.18 5008.63 3418.99 4480.95 4993.35 4409.63 5521.25 3661.9 5370.85 5949.46 3178.54 4765.02 5376.71 4448.13 5070.29 4807.28 4867.08 2261.36 4266.03 5280.69 4220.03 6923.84 5449.46 6179.96 5703.07 6113.54 4662.43 6260.79 3963.76 5528.53 6799.88 3062.43 5426.78 2967.38 4159.35 6477.91 4237.98 6439.37 4081.97 5401.99 5580.92 5973.33 5067.46 3583.21 2511.46 4011.37 2775.69 4785.25 6519.43 5876.64 5424.46 4857.84 4908.49 4962.21 4858.44 3468.42 4673.35 4771.13 4992.42 5297.19 4351.38 4833.46 5933.7 7248.4 5280.12 5984.81 3498.16 4409.27 4640.06 5471.74 3548.39 3673.28 4858.51 3375.28 5625.65 4301.61 6107.89 4446.84 5660.55 5148.08 4834.87 5760.22 3672.21 5938.17 4795.43 5097.95 5108.06 3573.73 4693.52 6853.04 4745.43 5831.96 4747.55 3056.7 3755.95 6234.32 4586.19 4446.06 3450.93 4270.74 5132.68 6595.03 4558.15 6218.95 5222.16 5107.23 5136.08 3776.94 5558.68 4010.57 5629.39 2684.03 6157.04 4768.61 5075.55 4522.21 5506.19 6719.94 4950.67 5227.59 6166.29 5453.6 5294.77 4709.05 4630.82 4043.66 4813.08 5860.67 4540.86 5990.52 3764.1 4835.83 5604.35 6316.56 4332.87 3091.67 6420.81 4715.58 4450.7 5151.52 5369.08 4347.74 4009.62 5291.9 2081.58 6505.78 5461.55 4270.15 6865.76 6449.64 6464.8 4684.44 4749.59 5799.69 3809.69 5571.72 3208.96 7051.9 4184.23 4144.57 5550.75 6834.41 6226.14 5466.33 4444.97 3000.29 5721.05 4247.69 4514.39 4588.99 4321.21 4344.34 4928.27 3583.49 5052.84 4366.74 5297.16 3184.64 5206.33 5530.49 5653.03 3718.69 4514.79 2216.82 4509.89 6752.75 5269.38 5607.3 2928.82 4222.4 4000.43 3420.08 4568.41 4912.04 4539.07 5464.68 2685.81 5591.76 4585.31 6625.18 5323.91 5097.45 6293.89 2761.07 5737.75 4983.39 5366.52 4690.55 5533.72 5533.42 4802.32 3678.08 4599.38 5246.47 4187.31 6191.29 3240.51 7422.36 5161.01 4298.15 4628.4 5832.37 6051.83 4642.93 5409.63 4263.16 3973.12 3077.84 6024.75 6109.49 5567.93 5987.42 5332.65 4442.22 6451.33 5413.31 3012.99 6400.08 4743.59 5208.14 3317.83 3763.05 5092.24 5549.49 3101.75 4518.04 4766.06 4874.18 5435.19 3298.2 4953.1 5818.95 4093.99 3940.49 4406.05 4680.94 5828.35 5876.72 5236.43 5285.07 4680.14 4608.41 4187.94 5980.59 3796.15 4801.8 7216.98 5271.02 4209.31 5718.28 6242.79 5950.45 5713.03 5849.65 5134.67 4165.21 4215.0 4936.96 4481.76 5452.78 5065.26 4304.41 6192.0 4940.28 5885.28 6579.31 3004.34 3022.6 4914.45 4811.76 4698.87 4661.03 3624.7 4691.91 5262.35 4475.83 4510.8 5889.35 5010.04 4394.56 4570.98 4275.07 5825.38 4185.61 4047.87 5742.47 3778.02 6552.21 5417.8 5146.37 7132.12 4836.16 5518.57 5151.11 5463.48 5730.33 5545.46 4527.99 4376.7 4543.1 5190.61 8325.01 3764.06 4440.81 5941.9 5434.47 6642.76 5829.22 4497.78 4243.79 5811.18 5433.65 4008.15 4887.76 4669.06 4811.32 4286.49 6184.88 5829.32 4396.25 5551.95 3918.87 5423.42 2275.45 6605.86 5012.5 4383.56 3562.79 7093.13 4516.53 4122.92 3604.14 4452.54 5089.1 2711.19 4028.32 4099.92 4884.59 3858.06 4511.7 4083.79 5263.27 6300.92 5021.77 4173.54 5599.29 6038.68 5046.12 4807.4 7013.17 3805.67 4601.74 6506.86 5088.57 5580.34 3852.6 5775.31 4706.5 4603.5 4647.67 5375.12 4356.36 4892.44 5578.94 7610.49 4286.17 3684.56 5323.55 5375.1 4172.6 5313.12 5351.56 5160.59 3984.88 4732.09 4320.42 4255.34 5064.79 5480.3 7509.24 4146.81 5896.26 5388.78 6101.13 4573.72 5099.21 4917.99 5636.4 4367.78 4350.12 5227.02 5670.0 4232.16 5300.96 4344.51 5680.94 3781.77 5581.55 5193.01 3474.5 6550.44 3860.83 6348.03 5732.27 4523.39 5278.56 5146.37 6917.62 4013.38 5631.14 4343.78 5263.3 4909.65 6523.86 7693.4 4326.48 4437.07 3449.37 5491.9 6405.0 4659.16 5789.55 4633.05 4901.2 5711.62 4990.79 4798.17 5166.79 6479.39 2895.63 4997.91 5079.22 5381.54 5810.77 4714.83 5474.15 7519.2 6355.68 4478.6 3953.55 4304.63 4469.54 4314.56 3928.53 5606.51 5740.65 3834.47 6349.67 6329.53 4590.01 6101.86 4227.41 5993.0 4803.57 5966.42 4110.59 3332.49 5354.66 4214.44 5378.23 4787.97 3746.36 6789.23 3989.7 4777.03 4246.61 6028.09 5452.36 3804.5 6486.37 5498.42 5318.53 3344.57 5220.76 4281.98 7165.9 5344.83 7046.11 3427.63 4863.97 6342.48 5756.75 5599.7 4587.67 4163.74 6969.28 3665.95 5698.96 4095.75 3603.51 4298.45 5222.51 6609.84 5135.96 3834.43 5658.37 4707.06 6074.94 5491.37 4250.88 3783.54 3475.67 4792.39 7038.89 3863.67 4814.12 5067.56 6137.8 2735.53 3352.35 5116.6 3747.03 2783.85 4356.49 4526.81 3994.07 4219.94 5907.46 4264.91 6740.71 5399.29 4909.31 5971.22 6522.59 6602.43 3568.28 5425.98 5996.66 4405.42 2995.67 3598.08 4599.81 5698.23 7300.58 3608.06 6633.61 5217.95 4867.7 5484.36 4277.24 4063.9 5291.05 5161.1 4619.2 5166.41 5067.56 2596.96 5701.75 4350.15 4139.3 6541.45 4750.49 5078.31 5391.48 4923.43 5131.15 4847.14 3950.27 5116.66 3566.79 5374.67 4981.43 4741.28 5069.89 4215.2 4157.29 6813.72 5327.75 4609.02 4896.65 4638.18 4196.37 6448.66 4453.97 6945.98 5138.2 5783.48 4449.98 4701.5 4504.35 4771.65 4840.44 5093.82 5951.81 3924.14 6918.35 4296.69 6238.32 3319.67 6471.42 5283.8 4076.59 4428.14 5164.1 6464.15 4479.11 4972.17 6685.4 5699.53 4222.77 4850.06 6332.01 5268.38 5527.23 4805.33 4234.18 7085.01 5980.95 6193.08 6069.3 5887.01 5168.35 5388.39 5335.47 3728.18 5633.61 5048.19 6799.23 4888.27 4592.15 6487.56 4854.11 5533.19 4998.22 5417.21 6104.26 5583.61 6063.64 7382.3 4022.56 5522.21 3772.3 4855.01 6208.9 4923.57 3340.09 6061.63 2279.05 4829.35 4075.28 8137.11 5484.32 6650.77 4067.96 7104.73 6162.3 3272.75 4264.54 3516.27 7043.44 4263.78 4643.9 5228.75 6047.14 5009.83 5210.38 5717.8 3629.44 5003.78 3299.24 6246.56 4061.6 2603.64 5107.0 6212.15 6502.97 4783.07 4946.23 4852.58 6083.28 5211.6 3556.79 5806.31 5456.71 3503.41 7317.04 6412.67 7001.83 5012.97 5589.37 5439.49 6639.64 5212.43 4834.3 5454.12 6348.54 6804.79 5642.35 6372.13 5369.5 5404.01 6016.19 4124.49 3230.13 5714.25 6176.67 5325.96 5412.24 5016.02 7044.29 4920.21 4049.16 3936.95 6153.94 6836.82 3862.77 3858.17 4631.99 4740.98 3185.39 5128.77 7122.87 5797.36 4243.26 4153.84 5119.86 5089.26 5084.17 4901.44 3776.8 5096.43 6156.21 2460.79 4653.83 6171.71 4986.71 3628.89 6589.82 4668.88 5027.43 5522.75 5867.64 6059.93 5602.53 5073.02 6545.43 3472.91 6760.92 4989.2 4711.04 7144.05 4506.18 4824.12 2970.9 6542.5 4383.47 5971.21 4036.91 4066.57 4206.98 5156.76 6357.47 6101.57 4891.38 5535.91 2949.12 5955.86 4532.89 4533.37 4848.46 2779.99 5887.38 4581.37 6942.34 5851.61 3658.05 5478.11 5526.31 5030.15 4438.58 6318.23 4058.87 5174.75 5932.07 4984.46 5948.71 4793.65 3856.53 5460.89 6040.74 5260.85 5742.09 2884.65 5393.65 5807.46 4648.21 4393.16 3311.29 4549.69 6423.81 6192.77 6413.15 6103.11 5048.55 6459.51 4024.31 4955.16 5844.72 3992.97 4147.31 5989.05 4054.22 7228.94 4441.22 4961.99 6551.93 4595.12 3110.13 6484.43 4625.67 3485.54 6735.97 5305.59 5416.45 4330.58 5754.6 3288.01 4904.51 2202.77 5751.15 5950.88 4149.55 6201.86 5853.89 3380.69 4140.4 3639.44 4386.8 5446.4 4725.01 5966.75 4729.42 3104.96 5244.78 3636.15 6114.89 5135.63 6384.7 4355.83 6870.97 5351.86 6056.87 5474.01 5307.35 7554.58 5166.89 4731.21 5491.63 5725.37 3868.62 5138.33 3477.1 4811.22 5216.26 4844.83 4749.96 5377.37 5652.87 5483.7 5018.69 3152.86 5952.38 3896.27 5807.52 5963.36 5230.02 5087.14 4342.18 5169.48 6016.08 6776.22 3124.7 6064.71 6102.98 6060.17 4385.81 6592.93 5096.24 5769.14 3381.82 4831.93 4023.93 5494.28 4834.39 5493.89 5261.19 4918.76 4208.41 5826.78 6214.73 4553.68 3758.22 4268.19 4532.7 5561.74 6100.73 4788.08 4593.7 4349.13 6379.14 3687.65 5478.95 3851.85 4019.34 4658.24 5869.67 4311.48 4899.73 5457.66 6394.19 5973.89 5366.22 6193.73 5518.11 3742.11 5712.35 5701.52 4743.9 5321.17 3719.11 4467.13 3877.8 6418.11 5934.82 4501.78 5415.45 6350.71 5039.12 7107.63 5868.89 5545.59 4099.26 5206.47 3831.52 4263.65 6106.43 6761.81 5467.63 4127.53 5210.75 2856.55 5361.87 3205.68 4473.29 4908.75 6556.26 3971.08 4482.9 6818.91 3503.65 3634.5 4869.48 3623.19 4906.11 5510.96 4387.39 4564.1 4745.16 5825.55 5509.51 4848.14 3199.4 4316.5 5254.24 4192.21 4914.03 3597.43 5144.56 4158.91 5311.55 3360.86 3034.16 4869.25 5545.21 4333.87 4922.49 3572.94 5001.58 6456.58 5244.98 5366.11 4824.81 5944.3 7307.21 5135.5 3619.72 4565.93 5615.84 4464.73 5788.97 6440.38 3274.85 5007.21 4580.06 4835.97 4057.17 5262.47 7066.96 4587.7 5196.92 5644.81 5666.95 4642.2 5175.89 3894.64 5232.85 4374.74 5975.23 6816.66 4745.79 4211.82 6204.65 6550.4 5513.8 4887.52 6631.28 5350.88 6571.31 4392.65 5429.3 4944.51 6653.07 4697.91 4584.81 5071.98 5719.79 4371.08 7261.51 4968.14 5086.29 5527.13 5139.18 4278.57 5551.43 6318.25 5049.99 4201.03 4458.64 5001.87 4312.15 3657.69 4883.63 4078.93 6015.02 4820.17 3814.65 3886.72 4034.05 5127.82 5798.38 6436.74 3419.87 4384.28 3908.98 5113.6 6328.42 5640.72 5851.63 4504.52 4954.81 5610.53 6419.64 3926.11 5464.83 5414.58 4991.35 4807.35 5334.36 4568.64 5750.35 4489.99 6555.44 5293.75 5473.72 7124.45 6358.93 2205.51 3703.49 5144.44 4757.2 5034.69 5079.64 5470.04 6003.78 5684.25 4891.67 5188.53 4882.66 4027.63 5603.68 5610.95 5532.72 3220.8 5179.17 5579.39 5270.51 5148.1 5490.75 5224.64 5949.73 4312.48 5783.94 6370.33 5081.08 4202.77 6864.06 6008.81 3644.78 5510.9 4505.28 3492.83 7039.98 6006.89 7778.01 5690.96 5805.1 3862.91 4456.11 4456.26 4027.33 4810.98 5091.22 3563.14 5212.92 5556.0 5748.9 3742.31 5755.15 4608.34 5695.79 2781.96 3512.94 4467.0 4994.65 5601.55 3903.91 3919.62 4929.6 3683.86 4548.45 5658.14 4508.18 2617.39 4062.56 5969.37 4198.94 3217.67 4509.46 6163.54 5212.37 5438.92 3766.69 5110.11 5036.98 4521.75 4813.33 5569.2 5635.32 4526.34 4316.45 5409.08 5042.75 4598.92 5241.22 6647.08 4979.52 3422.29 4407.79 5214.63 6548.29 3495.68 3990.96 5352.24 7362.42 5793.12 5836.14 5473.05 4373.2 4583.52 6280.13 5244.22 5585.14 4960.64 5792.98 4983.3 5053.15 5910.86 5124.17 6239.68 7320.78 4234.88 5782.43 4708.31 5026.76 6282.38 5657.55 5727.79 5188.82 5043.14 3663.0 6304.49 4420.6 3622.8 4431.23 4258.98 6545.99 4368.28 4945.0 4658.11 4551.26 5730.61 5114.07 7142.95 5064.67 6618.21 3717.47 4504.86 6200.63 4928.35 1937.5 3844.54 3538.53 996.652 6500.49 5965.58 5058.51 4244.49 4050.03 4120.07 3840.21 3429.57 6746.66 5410.33 5420.67 5661.6 4827.61 5285.75 5385.03 5481.64 5673.75 5360.67 5968.54 6263.3 4501.05 4537.03 3247.97 4114.2 4326.06 5034.46 5757.29 5016.46 5469.17 5061.75 3769.24 3743.76 5153.18 6711.21 4971.29 5832.29 2606.51 4438.76 5372.82 5401.4 4775.49 4681.29 5749.6 4834.44 3873.92 4092.07 4213.05 5347.9 4224.3 4717.73 4928.85 5072.5 4749.18 4546.96 4316.0 5424.55 5134.72 4475.38 5287.25 5917.34 5740.98 5630.9 4728.55 4554.68 4140.92 4559.74 4383.68 6666.67 4583.94 5046.31 4337.32 4680.69 2628.22 3352.34 4901.29 4952.52 3242.31 6099.28 5372.25 4169.15 3234.26 4778.37 3494.16 5134.17 4074.16 4904.35 5592.54 5390.33 5124.34 4904.37 4358.81 4651.64 5729.92 4179.87 6224.13 4761.84 3661.67 3425.69 5510.45 4730.14 3864.92 3994.39 6119.99 4159.81 4446.58 4402.17 3845.9 4174.44 6331.74 4198.9 5235.87 3904.07 6502.99 4921.1 4770.51 5577.41 6511.37 3787.08 4462.87 4218.16 6139.64 4692.32 4474.83 5236.24 4585.04 3127.83 6570.35 4242.63 7407.91 6063.44 4051.18 5849.53 4420.11 5863.0 6127.39 4124.76 7200.89 4802.98 4833.55 7224.99 3908.56 5265.63 4898.29 4431.06 5730.2 4830.13 5620.88 5370.9 4529.77 4325.13 6172.27 3783.79 5078.73 4248.14 5278.54 5729.0 5192.92 5275.57 4786.66 5891.25 5370.1 5393.76 3684.15 7123.04 5906.57 7541.76 4990.23 3784.94 5499.59 5667.51 5431.29 4833.67 5325.91 5157.38 4546.44 6203.03 4700.07 5273.37 4732.37 5713.36 5553.94 4704.92 4287.25 4392.75 3814.16 4191.01 4589.06 4216.44 3999.5 4012.92 4346.07 4933.49 3269.54 5836.26 6015.22 6449.06 5241.75 4651.99 5640.12 4972.18 5329.76 5684.88 5764.52 6523.78 4645.86 4045.67 4941.52 4308.49 5900.0 4262.74 4581.1 6241.77 5317.19 5279.19 4016.6 5821.49 7050.08 5580.44 5998.13 5902.67 5454.11 4236.86 6010.59 4128.1 4618.73 4932.29 4506.66 3220.29 4439.71 4141.21 4064.58 5023.41 4646.51 952.938 4184.21 5473.89 6089.45 4985.3 4966.07 3987.69 4666.12 6219.34 4920.88 4013.86 4177.47 4770.63 5678.58 4385.49 6102.49 5114.23 6061.85 5512.44 4826.52 2904.46 4731.53 3763.9 4577.73 4288.45 4147.49 5419.57 5760.98 4954.76 4642.74 5384.86 3770.22 4390.64 5150.84 4608.01 5087.97 6005.95 4519.03 4930.17 4085.96 4745.44 5762.82 7360.12 6223.98 5462.6 5617.29 3035.06 4262.19 4597.88 5095.52 4763.4 4941.02 5806.61 3682.35 2955.36 3965.3 6110.48 4125.9 4564.41 5426.4 5951.86 3791.41 5853.12 5702.4 5810.17 5265.21 4657.24 4400.14 5340.05 2918.64 5345.73 4639.8 4212.15 4263.18 5495.0 4489.29 4454.74 5120.92 4685.4 4636.53 4081.34 3646.95 3402.44 4848.98 5184.98 4491.96 4467.51 5339.82 5460.57 5110.27 5703.34 4612.68 6668.98 6649.52 4232.33 4939.56 4747.68 5770.92 3093.38 4845.91 4878.93 2002.78 4461.67 5784.37 3142.09 5182.13 5515.73 6715.73 5247.01 4841.7 4678.7 3450.07 3306.84 3484.81 5308.33 4271.07 5674.63 5759.79 4462.35 4301.93 4924.07 3200.6 4918.64 6206.98 6638.25 4775.04 5162.67 2403.72 5537.61 6084.88 4199.44 4397.06 4053.12 4479.5 6261.67 3435.13 5065.78 4431.46 4521.42 4610.55 3207.84 3977.98 6043.34 4128.93 4959.72 4712.17 3808.04 4723.71 4405.61 5003.3 3668.93 3756.96 3954.77 6793.1 6016.87 5077.29 5209.55 6740.35 4550.92 6023.07 6710.14 4598.54 5218.42 4512.07 4896.43 3986.41 6240.42 5146.0 4788.7 5078.59 4607.18 3228.27 4721.98 5252.82 3543.98 4142.1 5056.26 5878.55 4014.44 6604.72 6002.77 3794.47 4967.02 4614.49 3361.11 5400.69 4462.5 2807.46 5573.31 5004.68 4179.8 4023.88 5348.11 5428.24 6273.6 4009.24 5800.81 6245.52 5166.05 3125.13 5866.91 6075.99 6506.63 5995.4 5188.22 4841.23 4196.62 5984.8 3469.18 3372.95 6347.72 3956.24 6334.53 7558.99 3393.59 4032.06 5043.14 5333.04 5445.91 4521.99 4812.59 6842.54 7115.67 5675.45 5329.84 6038.56 3879.83 5599.16 3488.34 5658.35 4577.98 5886.81 5684.05 4708.17 2741.2 3779.45 5167.53 7035.54 5763.05 5797.21 4208.37 6019.35 5191.26 4184.47 3825.48 2804.54 5819.0 3460.93 5124.86 5469.35 5117.64 5580.95 3549.92 6598.99 5250.56 5246.81 2468.16 5089.1 5888.95 5394.78 3463.34 5169.09 5122.38 2853.68 2459.88 5262.85 4998.37 6559.82 5342.9 6565.95 5733.12 5043.34 5136.87 7145.73 5233.76 6405.69 5357.39 4252.18 6296.54 3669.32 4762.1 5700.79 4629.02 4927.73 4705.68 4313.38 5827.3 6036.99 3010.1 3633.58 3825.98 6294.14 4339.97 5203.75 3906.41 4691.15 4512.6 5470.67 4210.24 5901.71 5225.11 5252.22 4962.35 6436.29 7350.26 4556.19 4168.52 4659.88 5685.74 3495.3 4140.04 5890.25 5766.05 2832.83 4474.96 4084.87 5259.29 3584.05 4589.22 5087.03 4818.53 4667.84 5097.85 5584.64 4123.08 6224.64 4260.38 4221.03 4636.45 4932.27 3799.55 5638.51 6793.49 3563.33 6060.19 5536.0 6786.37 5790.42 5591.77 5106.46 6562.92 3612.44 4758.76 4790.63 4088.72 3945.62 4916.75 5342.17 6379.3 6189.04 3795.63 5189.4 4576.71 5082.66 4550.77 4894.15 4337.93 3550.88 4345.51 4048.73 6223.33 5024.32 5813.79 4644.88 4068.31 3671.06 4850.5 4683.28 4658.59 5532.75 6949.65 4608.62 5407.96 4987.28 6562.03 5367.05 4449.73 5647.11 3743.85 6236.46 5015.67 6538.04 6157.59 5201.3 5848.41 4090.28 4932.56 4176.32 3185.09 3587.93 5676.61 5064.23 6006.16 5721.14 5084.5 4071.75 4246.83 4493.79 4279.44 2945.34 3565.32 5638.7 5399.43 3667.93 3487.31 3835.81 5710.33 4096.86 5695.44 4668.8 5322.11 4697.49 5735.08 4726.2 5034.05 4816.51 4711.15 4474.39 3810.68 6478.35 3990.94 4756.8 5477.8 5463.06 6069.78 5260.52 4241.68 4975.85 4095.83 5323.95 5846.95 5716.42 5268.15 5701.63 4603.04 4620.95 4870.94 5368.93 4488.39 6121.56 5914.5 4602.57 3419.07 3622.48 4796.12 5344.44 6432.8 4626.72 5131.77 5549.71 4815.47 4759.99 3899.7 5134.33 5214.4 2646.13 3629.49 5034.34 3769.2 3422.21 3916.42 5537.34 5884.99 5192.49 4899.19 6643.4 5058.34 4028.22 5575.11 4983.1 5293.13 4507.36 6224.85 6406.8 5403.97 4795.08 5648.78 6875.73 5501.73 6081.3 4697.24 4983.43 5117.52 6311.89 6549.8 2820.07 5129.68 4825.73 5076.84 4165.36 5288.33 4871.77 5811.26 5062.77 4884.93 5069.9 6028.63 3673.6 4494.15 5146.1 6215.87 6485.77 6060.06 5866.42 5544.27 5393.43 6896.55 4685.65 5377.01 6470.23 5939.22 4271.93 4215.05 3626.86 5125.17 4604.1 6371.96 4859.01 5076.11 5524.45 7133.44 4426.02 5600.21 3953.26 4750.81 4282.11 5467.51 5459.92 2347.41 4625.53 5453.77 4096.47 4357.11 5114.67 2809.19 5005.6 4916.7 5486.89 5589.53 7208.19 4549.51 5025.42 5196.08 4517.29 6379.38 5695.25 6257.79 4495.75 4849.5 6171.01 6229.83 5796.26 4468.26 4523.81 5578.18 5106.33 5791.25 5293.37 5198.94 5271.88 4028.35 5933.54 5559.79 7168.2 2980.31 3763.85 3148.79 4571.74 5740.78 5997.91 5001.51 4332.64 4742.82 5385.86 5115.42 3186.07 4082.4 4209.0 4410.82 4369.86 4967.51 4368.12 5173.82 6443.99 4365.58 3889.98 5193.58 3720.7 5490.64 5378.24 5698.53 3604.31 4507.46 4450.49 5036.14 3468.45 6022.78 4087.32 6647.85 5726.42 2569.12 4674.9 7025.09 3392.26 4433.12 3918.94 2549.95 5461.72 4361.24 5487.63 3768.46 3852.82 5138.93 5099.9 6945.69 5118.86 7086.69 5368.66 4304.64 6170.9 5833.78 4436.48 5226.42 5758.98 5615.35 3967.76 5288.64 6213.24 6734.39 4217.36 5679.74 5942.45 4150.76 4851.18 4228.53 6123.46 5005.72 5368.52 6142.88 5155.28 5111.26 5388.73 5205.38 4949.55 4764.83 1969.87 3132.34 4600.71 3957.38 4841.28 5262.79 5927.2 5035.71 6889.5 4710.88 4419.79 5300.17 5407.69 3869.39 5152.78 5960.5 5534.23 4117.9 4753.76 6025.77 4781.9 4638.09 6815.96 4441.91 5330.26 5339.6 5828.25 5917.08 4725.11 5483.37 5418.12 5322.07 5934.05 5770.07 4714.66 5990.75 5101.6 4984.17 4656.01 5781.62 6589.13 4037.86 5602.62 2030.03 3543.37 4542.16 5714.51 5628.97 4104.04 5353.66 2638.82 5030.33 5593.79 5104.39 5234.2 4612.13 4965.24 5846.6 5327.05 5438.55 5353.23 4434.65 6688.53 5977.66 5209.5 5065.74 4873.23 6731.89 5464.05 4733.41 5879.24 5410.6 5453.2 6348.93 5136.51 3901.53 6824.53 6815.51 5232.16 4422.23 6791.86 3989.26 6031.22 4820.68 4930.72 5482.76 5728.58 3745.02 7212.97 6297.99 4211.36 5918.95 3856.73 4538.89 5817.74 5887.71 5517.65 4009.68 5114.51 3303.49 4622.73 4655.37 4161.32 5256.75 5161.74 7336.37 5932.28 6599.28 5560.23 2960.5 5783.38 4975.32 3043.77 4298.7 3902.48 5237.55 4183.4 3909.94 6030.39 4733.79 4905.53 3799.01 4823.06 7392.65 5254.49 5319.1 3757.23 6828.8 6883.86 5987.88 3579.59 6161.94 4065.28 5057.59 4461.14 5285.6 5575.11 4574.54 5615.06 5490.54 5203.54 4047.95 5507.38 6142.94 4416.87 5001.69 6581.56 4052.43 4057.4 3980.46 4896.67 5383.9 3934.11 5158.44 3886.56 4466.22 4496.51 5715.51 6153.71 6561.94 5259.21 5092.93 4256.08 2803.01 5881.93 4444.0 6771.18 6182.19 5327.39 5910.66 7415.84 4981.81 4138.59 4970.55 4938.33 4484.78 4621.33 5527.27 5157.73 5847.91 4934.66 4984.01 4109.44 4903.84 4290.49 4557.1 4605.39 5927.1 6270.59 6175.27 5876.51 4103.76 4907.55 4286.61 4094.63 2932.52 5264.83 4603.66 4757.87 4969.68 6636.43 5431.14 6298.8 5313.86 4457.05 5178.07 5189.91 3618.64 5777.26 4171.02 5485.84 6424.77 4887.73 4335.79 5453.69 5797.32 5432.04 5689.56 6556.86 3921.27 5129.4 4746.15 3720.38 4758.84 5585.25 4731.37 5023.61 3976.0 6351.89 4672.86 6530.78 5059.37 4742.35 5394.79 4139.39 5645.54 6264.03 5088.64 4526.87 6589.8 4151.74 6920.92 4174.22 3729.16 3783.36 3573.84 3038.91 4181.93 3922.28 6570.43 3350.99 3820.19 3445.92 5236.69 4979.5 5524.28 4586.82 3133.28 4745.37 5939.29 6026.04 6200.05 5418.98 5859.17 4034.41 4052.49 5061.74 5522.34 5326.03 6189.67 4420.35 5717.45 4948.96 5256.82 4013.86 4061.87 4645.93 5165.31 5448.64 3798.09 4585.37 4288.5 6417.61 3721.69 4511.05 3456.3 6074.39 5317.83 6738.9 4399.52 4460.89 4554.24 4157.1 3939.96 8052.53 4867.12 6044.01 6520.19 4637.3 5141.03 1458.87 5734.07 4840.44 8123.59 3997.68 4819.83 5765.14 4801.16 4767.54 4541.22 4946.08 3539.68 5121.08 4696.03 6217.33 6177.68 4698.7 2848.44 6229.64 6045.26 4220.43 6500.45 5743.8 5084.76 6666.34 6605.11 4645.91 6834.92 3557.46 6379.33 5971.95 5652.73 3689.24 3979.46 6321.97 5151.19 6412.84 6509.54 5703.84 7012.36 3530.82 5128.59 5028.06 4002.99 4886.99 5159.67 5587.3 3161.1 3572.73 4864.38 3702.45 6275.25 6892.33 4505.3 4491.26 4452.36 4511.34 4068.41 6463.71 5009.21 4574.03 4379.91 5290.37 5850.38 5264.08 3562.8 4227.66 4730.97 4691.01 4594.89 5192.82 5245.95 5821.42 4067.89 4515.02 6294.09 4924.52 4571.57 5131.07 4121.07 2970.24 4197.87 5658.05 5105.54 5731.43 6353.81 3414.67 3518.14 5444.36 4150.44 5044.68 5771.98 2649.69 5899.78 5000.74 5117.83 5772.57 5268.27 4813.81 3882.37 4095.4 5244.95 4634.25 5901.8 6351.48 5395.12 5783.69 3830.7 6210.0 5432.4 3483.61 5350.9 4262.52 7430.48 5992.06 5545.68 6080.69 4970.12 4967.93 6369.66 5973.57 5922.62 6241.48 6033.28 5957.82 6286.27 5071.38 3717.22 6327.54 5616.66 2927.84 5688.77 4802.36 2943.17 5368.28 5466.13 5257.38 6263.87 5075.23 4975.56 7282.36 3826.01 4829.77 5581.01 3928.99 6959.88 4125.75 5749.53 5130.57 5090.48 5402.45 5582.28 3985.93 5945.25 6071.59 2589.19 6119.0 3856.4 3792.06 6079.55 5485.61 4993.49 4937.36 4293.3 5308.4 5310.33 6583.37 3688.83 5631.32 6126.5 6322.0 5793.14 6345.2 4609.65 5488.96 5704.61 4832.21 3720.92 5128.03 5410.73 5087.3 4942.63 6139.74 6637.38 4975.57 7066.26 3057.3 6150.31 3677.85 5214.71 4677.84 4811.11 3463.53 5379.52 6126.03 5314.67 6044.69 5563.47 5651.46 6593.1 4066.36 4000.51 5462.1 6032.45 5011.37 2827.92 4026.03 6908.32 3467.11 4817.75 6153.26 4848.15 5637.53 4439.09 5523.81 5648.59 4718.61 5188.57 3873.79 5717.67 5357.33 4432.32 5515.59 5252.37 3224.81 4499.54 5037.58 6457.89 5640.67 6572.17 3751.73 5555.89 4766.47 4871.1 5678.08 3917.09 6009.93 5872.45 4414.09 5270.1 5125.45 3784.68 4188.16 4947.64 6305.9 6649.21 5507.07 4654.92 5327.71 4880.78 4322.56 5509.09 5625.02 3873.72 5212.05 4592.49 5479.86 6474.5 4444.92 4702.32 4763.04 5971.9 3746.62 5247.73 4876.37 4532.67 5034.02 4769.62 5260.13 4649.5 5181.31 5985.75 4696.06 4137.16 6189.29 5984.55 6581.13 4569.32 4034.88 5108.84 3511.5 6007.1 5067.92 5357.14 3188.21 4850.95 5919.27 4793.06 6271.22 3421.81 6188.33 3920.64 6111.23 6916.18 5786.06 5873.62 3868.69 4996.91 3920.44 4450.51 6033.72 4866.8 3768.62 3851.47 4966.74 2329.93 4959.94 1635.31 5639.4 3162.27 6033.93 6185.73 4083.24 5516.37 5092.44 4441.44 5432.2 4232.44 4612.4 5336.61 3312.3 5563.09 6381.58 3282.57 5212.2 4798.13 4611.21 5108.42 6697.45 4630.5 6296.36 3354.94 5237.27 4451.76 7885.41 3775.38 4046.22 5782.25 4104.97 4844.2 4575.72 5114.61 6118.13 3374.62 4926.62 4420.3 6332.64 4202.12 6492.44 4613.32 4083.1 3482.73 5191.29 5130.56 4957.99 4063.26 5345.05 4997.89 4542.62 3470.69 4859.95 5286.55 4132.08 5522.18 5223.1 4699.77 4850.49 4981.55 5144.23 3625.98 6188.62 6153.07 4414.06 5908.57 5944.52 4413.56 5050.2 5316.05 2513.38 4821.41 4908.32 4924.53 3995.08 4499.52 5019.84 3874.12 4810.74 3900.93 5784.38 5475.83 4149.17 4329.8 5728.27 5672.46 5803.3 4582.12 4487.51 4295.25 4520.14 5354.48 7394.47 4729.45 6261.13 5374.09 4167.55 4720.34 5244.47 5378.75 4731.16 5510.89 6186.24 5822.7 3780.07 4137.41 4159.89 5466.49 5178.55 5447.74 4038.17 5007.41 4907.48 3692.99 6213.74 4488.41 4369.87 6938.87 5412.07 5512.57 4806.99 6520.96 3771.91 5856.43 5217.62 6178.19 4746.19 4616.81 5349.85 5715.25 5172.1 4362.94 4469.82 6545.78 4870.14 4404.87 5105.72 5767.65 4750.76 5003.49 4907.03 5497.27 4081.77 5617.91 4948.21 2181.29 4987.01 4706.31 2694.25 6265.48 4735.99 4203.68 4739.56 5145.39 3818.37 3996.93 3352.46 6351.95 5195.09 5200.1 7679.2 5093.28 4881.51 6131.52 4311.92 2626.41 6009.88 6729.99 5093.41 6842.35 5464.34 3621.63 4777.96 5801.89 6833.5 7296.47 5742.39 4780.16 3834.01 5616.11 4433.23 4813.24 4028.13 5759.19 4457.73 6476.35 3113.64 4304.75 6260.58 4067.24 3053.19 5202.33 3074.49 4246.24 6805.02 4919.13 5640.63 4900.26 5783.88 5002.38 6705.93 4865.11 5449.09 5502.14 6470.87 4495.33 5282.67 4131.08 5747.9 3864.19 4287.93 5146.69 6203.24 6818.23 5081.65 6679.12 5652.19 5806.74 3878.8 6578.62 4813.55 3465.03 4796.04 3839.0 5229.56 6011.4 5799.86 4672.34 6052.22 5376.41 5410.33 5533.52 5003.63 4747.24 2932.2 4695.7 4380.86 4944.08 4082.01 5269.39 3964.03 4216.33 5832.72 3903.9 4444.95 4721.2 5161.02 3943.77 3124.49 5242.38 6081.35 5003.81 6262.18 5566.5 4701.03 5663.36 6225.05 5434.04 5125.53 3997.52 4444.54 5403.81 5779.9 4909.74 5310.33 6664.54 3922.98 5161.73 5259.48 4008.67 5254.93 4803.4 6608.94 2613.78 3796.73 5417.07 5656.84 5738.37 6789.66 4739.41 5312.2 5847.27 4490.2 4706.59 5734.84 5480.86 6139.9 3982.31 4950.07 6571.26 5402.81 4328.76 4600.81 5561.63 4124.33 5168.97 4358.06 5093.51 5647.93 4280.92 6201.49 4696.92 5154.74 4605.61 4465.56 6898.8 5386.95 6540.57 5332.11 5315.71 6004.72 6158.93 4823.14 5438.5 4489.18 4621.32 5699.4 5237.76 4698.94 4286.84 6284.12 3948.21 5669.15 5296.05 3330.85 5263.86 6988.4 5056.32 4060.17 6051.35 5302.53 4909.13 5576.16 4305.35 5648.02 3308.75 5210.22 2451.27 5677.42 2701.42 4929.35 5606.22 6673.92 5151.68 4884.94 5459.52 4609.98 4738.72 4752.31 5240.97 4276.59 5579.04 5405.6 5994.21 4884.93 5082.25 4759.38 6964.78 4374.05 5299.03 5036.84 4565.36 5813.68 4025.08 5040.9 3618.53 5596.68 4770.21 4868.66 8013.28 3846.55 5159.9 5283.65 4644.68 3082.16 2892.36 5981.54 5911.29 5416.41 4694.27 6760.64 2515.5 5177.88 5551.79 6981.47 4720.22 4582.24 4333.23 5145.13 3747.96 5611.29 5940.5 6568.45 5004.22 4601.54 7263.57 3832.09 5705.96 6437.99 5739.69 6632.04 7360.62 4893.72 4985.45 4072.4 4983.56 5373.78 5699.51 4714.52 5345.65 2489.44 5499.37 5863.36 4632.75 4752.94 4994.98 3950.53 6423.96 6058.13 5894.69 4384.91 6550.61 4987.01 6635.51 6094.34 6779.82 5543.67 3999.81 4287.61 4867.13 4604.34 4439.17 4502.12 3255.93 5442.79 5051.39 6327.61 4633.59 5733.59 5362.15 4455.61 3695.72 6874.6 5106.9 5569.85 5523.96 3929.35 4223.53 4733.37 6960.97 3037.72 4287.15 4523.9 5282.51 5504.65 5669.41 5732.11 3760.4 3919.47 4951.02 4602.7 3783.35 4037.16 4004.39 6395.63 4987.48 5943.61 4248.58 5479.17 5020.37 4542.25 4414.23 5233.88 4849.21 4785.55 3793.83 5245.4 3916.15 6189.81 3860.8 5438.6 7370.52 4726.5 5467.05 4521.88 3724.23 5103.3 4963.88 5888.94 4727.98 4122.2 5175.88 5267.65 4516.26 4790.16 3509.34 3647.26 5360.88 3166.37 4977.64 5369.42 5207.08 5205.53 4587.19 5543.05 4883.13 6028.89 4836.76 5551.09 5755.98 5392.85 4501.1 5581.47 5077.2 4274.05 5275.27 4277.54 4713.56 5529.09 4531.46 5925.82 5448.68 4739.5 6210.48 6377.45 4863.27 4182.05 6853.07 5575.8 5268.93 5306.31 4535.94 5126.08 5604.0 3731.58 5333.16 4888.17 4072.95 4491.62 3865.5 
SCALARS Velocity float 1
LOOKUP_TABLE default
1.19178 1.19178 1.19178 1.19178 1.19178 1.19178 1.19178 1.19178 1.19178 1.19178 1.19178 1.19178 1.19178 1.19178 1.19178 1.19178 1.19178 1.19178 1.19178 1.19178 1.19178 1.19178 1.19178 1.19178 1.19178 1.19178 1.19178 1.19178 1.19178 1.19178 1.19178 1.19178 1.19178 1.19178 1.19178 1.19178 1.19178 1.19178 1.19178 1.19178 1.19178 1.19178 1.19178 1.19178 1.19178 1.19178 1.19178 1.19178 1.19178 1.19178 1.19178 1.19178 1.19178 1.19178 1.19178 1.19178 1.19178 1.19178 1.19178 1.19178 1.19178 1.19178 1.19178 1.19178 1.19178 1.19178 1.19178 1.19178 1.19178 1.19178 1.19178 1.19178 1.19178 1.19178 1.19178 1.19178 1.19178 1.19178 1.19178 1.19178 1.19178 1.19178 1.19178 1.19178 1.19178 1.19178 1.19178 1.19179 1.19178 1.19178 1.19178 1.19178 1.19178 1.19178 1.19178 1.19179 1.19178 1.19178 1.19178 1.19178 1.19178 1.19178 1.19178 1.19178 1.19178 1.19178 1.19178 1.19178 1.19178 1.19178 1.19178 1.19178 1.19178 1.19178 1.19178 1.19178 1.19178 1.19178 1.19178 1.19178 1.19178 1.19178 1.19178 1.19178 1.19178 1.19178 1.19178 1.19178 1.19178 1.19178 1.19178 1.19178 1.19178 1.19178 1.19178 1.19178 1.19178 1.19178 1.19178 1.19178 1.19178 1.19178 1.19178 1.19178 1.19178 1.19178 1.19178 1.19178 1.19178 1.19178 1.19178 1.19178 1.19178 1.19178 1.19178 1.19178 1.19178 1.19178 1.19178 1.19178 1.19178 1.19178 1.19178 1.19178 1.19178 1.19178 1.19178 1.19178 1.19177 1.19178 1.19178 1.19178 1.19178 1.19179 1.19178 1.19178 1.19178 1.19178 1.19178 1.19178 1.19178 1.19178 1.19178 1.19178 1.19178 1.19178 1.19178 1.19178 1.19178 1.19178 1.19178 1.19178 1.19178 1.19178 1.19178 1.19178 1.19178 1.19178 1.19178 1.19178 1.19178 1.19178 1.19178 1.19178 1.19178 1.19178 1.19178 1.19178 1.19178 1.19178 1.19178 1.19178 1.19178 1.19178 1.19178 1.19178 1.19178 1.19178 1.19178 1.19178 1.19178 1.19178 1.19178 1.19178 1.19178 1.19178 1.19178 1.19178 1.19178 1.19178 1.19178 1.19178 1.19178 1.19178 1.19178 1.19178 1.19178 1.19178 1.19178 1.19178 1.19178 1.19178 1.19178 1.19178 1.19178 1.19178 1.19178 1.19178 1.19178 1.19178 1.19178 1.19179 1.19178 1.19178 1.19178 1.19178 1.19178 1.19178 1.19178 1.19178 1.19178 1.19178 1.19178 1.19178 1.19179 1.19178 1.19178 1.19178 1.19178 1.19178 1.19179 1.19178 1.19178 1.19178 1.19178 1.19178 1.19178 1.19178 1.19178 1.19178 1.19178 1.19178 1.19178 1.19178 1.19179 1.19178 1.19177 1.19178 1.19178 1.19178 1.19179 1.19178 1.19179 1.19178 1.19178 1.19178 1.19178 1.19178 1.19178 1.19178 1.19178 1.19178 1.19178 1.19178 1.19178 1.19178 1.19178 1.19178 1.19178 1.19178 1.19178 1.19178 1.19178 1.19178 1.19178 1.19178 1.19178 1.19178 1.19178 1.19178 1.19178 1.19178 1.19178 1.19178 1.19178 1.19178 1.19178 1.19178 1.19178 1.19178 1.19178 1.19178 1.19178 1.19178 1.19178 1.19178 1.19178 1.19178 1.19178 1.19178 1.19178 1.19178 1.19177 1.19178 1.19178 1.19178 1.19178 1.19178 1.19178 1.19178 1.19178 1.19178 1.19178 1.19179 1.19178 1.19178 1.19178 1.19178 1.19178 1.19178 1.19178 1.19179 1.19178 1.19179 1.19178 1.19179 1.19178 1.19178 1.19178 1.19178 1.19178 1.19178 1.19179 1.19178 1.19178 1.19178 1.19177 1.19179 1.19178 1.19178 1.19179 1.19178 1.1918 1.19178 1.19178 1.19179 1.19178 1.19178 1.19179 1.19178 1.19179 1.19179 1.19178 1.19179 1.19177 1.19178 1.19178 1.19178 1.19178 1.19178 1.19178 1.19178 1.19178 1.19178 1.19178 1.19178 1.19178 1.19177 1.19178 1.19178 1.19178 1.19178 1.19178 1.19178 1.19178 1.19178 1.19178 1.19178 1.19178 1.19178 1.19178 1.19178 1.19178 1.19178 1.19178 1.19178 1.19178 1.19178 1.19178 1.19178 1.19178 1.19178 1.19178 1.19178 1.19178 1.19178 1.19178 1.19178 1.19178 1.19177 1.19178 1.19178 1.19178 1.19177 1.19178 1.19178 1.19178 1.19178 1.19178 1.19179 1.19178 1.19178 1.19178 1.19178 1.19178 1.19178 1.19178 1.19178 1.19179 1.19179 1.19178 1.19178 1.19178 1.19178 1.19178 1.19178 1.19179 1.19178 1.19178 1.19179 1.19178 1.19179 1.19179 1.19178 1.19178 1.19178 1.19178 1.19178 1.1918 1.19179 1.19178 1.19179 1.19178 1.19178 1.19177 1.19178 1.19178 1.19178 1.19178 1.19179 1.19178 1.19178 1.19178 1.19178 1.19178 1.19178 1.19178 1.19178 1.19178 1.19178 1.19178 1.19178 1.19178 1.19178 1.19177 1.19178 1.19178 1.19178 1.19178 1.19178 1.19178 1.19178 1.19178 1.19178 1.19178 1.19178 1.19178 1.19178 1.19177 1.19178 1.19178 1.19178 1.19178 1.19178 1.19178 1.19178 1.19178 1.19178 1.19178 1.19178 1.19178 1.19178 1.19178 1.19178 1.19178 1.19178 1.19178 1.19178 1.19178 1.19178 1.19178 1.19178 1.19178 1.19178 1.19178 1.19179 1.19178 1.19178 1.19178 1.19178 1.19178 1.19178 1.19178 1.19177 1.19178 1.19179 1.19178 1.19179 1.19177 1.19178 1.19178 1.19178 1.19178 1.19178 1.19178 1.19179 1.19179 1.19179 1.19177 1.19178 1.19178 1.19179 1.19179 1.1918 1.19179 1.19177 1.19179 1.19178 1.19179 1.19177 1.19178 1.19178 1.19178 1.19178 1.19177 1.19179 1.19178 1.19177 1.19178 1.19178 1.19178 1.19178 1.19178 1.19178 1.19178 1.19178 1.19178 1.19177 1.19178 1.19178 1.19177 1.19178 1.19178 1.19178 1.19178 1.19178 1.19178 1.19178 1.19177 1.19178 1.19178 1.19178 1.19178 1.19178 1.19178 1.19178 1.19178 1.19178 1.19178 1.19178 1.19178 1.19178 1.19178 1.19178 1.19178 1.19178 1.19178 1.19178 1.19177 1.19178 1.19178 1.19178 1.19178 1.19178 1.19177 1.19178 1.19178 1.19179 1.19178 1.19178 1.19178 1.19178 1.19178 1.19178 1.19178 1.19178 1.19178 1.19177 1.19178 1.19178 1.19181 1.19178 1.19177 1.19178 1.19178 1.19177 1.19178 1.19178 1.19178 1.19177 1.19178 1.19179 1.19178 1.19179 1.19178 1.19178 1.19178 1.19179 1.1918 1.19179 1.19179 1.19178 1.19177 1.19179 1.19178 1.19178 1.19177 1.19178 1.19179 1.19178 1.19178 1.19178 1.19178 1.19178 1.19178 1.19177 1.19178 1.19178 1.19178 1.19178 1.19178 1.19178 1.19177 1.19178 1.19178 1.19178 1.19178 1.19178 1.19178 1.19178 1.19177 1.19178 1.19177 1.19178 1.19178 1.19178 1.19178 1.19178 1.19178 1.19178 1.19178 1.19178 1.19178 1.19178 1.19178 1.19178 1.19178 1.19178 1.19178 1.19178 1.19178 1.19178 1.19178 1.19178 1.19178 1.19178 1.19177 1.19178 1.19178 1.19178 1.19178 1.19178 1.19178 1.19177 1.19178 1.19178 1.19178 1.19178 1.19178 1.19178 1.19178 1.19178 1.19178 1.19179 1.19178 1.1918 1.19177 1.19179 1.19178 1.19177 1.19178 1.19178 1.19178 1.19178 1.19177 1.19179 1.19178 1.19179 1.19178 1.19177 1.19178 1.19177 1.19178 1.19178 1.19178 1.19179 1.19178 1.19178 1.19178 1.19178 1.19178 1.19179 1.19179 1.19178 1.19177 1.19179 1.19178 1.19178 1.19179 1.19178 1.19177 1.19179 1.19178 1.19179 1.19178 1.19178 1.19178 1.19178 1.19178 1.19178 1.19178 1.19178 1.19177 1.19178 1.19177 1.19177 1.19178 1.19178 1.19178 1.19178 1.19178 1.19178 1.19178 1.19177 1.19178 1.19178 1.19178 1.19178 1.19178 1.19178 1.19178 1.19178 1.19178 1.19178 1.19178 1.19178 1.19178 1.19177 1.19178 1.19177 1.19178 1.19178 1.19178 1.19178 1.19178 1.19178 1.19178 1.19178 1.19178 1.19178 1.19178 1.19178 1.19178 1.19178 1.19177 1.19178 1.19178 1.19178 1.19178 1.19178 1.19178 1.19178 1.19178 1.19178 1.19178 1.19179 1.19177 1.19178 1.19179 1.19178 1.19177 1.19177 1.19178 1.19178 1.19178 1.19177 1.19179 1.19178 1.19178 1.19178 1.19177 1.19178 1.19178 1.19178 1.19178 1.19178 1.19178 1.19178 1.19178 1.19178 1.19178 1.19179 1.19179 1.19178 1.19178 1.19179 1.19178 1.19178 1.19178 1.19179 1.19178 1.19178 1.19177 1.19178 1.19179 1.19178 1.19179 1.19179 1.19178 1.19178 1.19177 1.19177 1.19177 1.19177 1.19178 1.19177 1.19178 1.19178 1.19177 1.19178 1.19178 1.19178 1.19177 1.19178 1.19178 1.19177 1.19178 1.19178 1.19178 1.19178 1.19178 1.19178 1.19178 1.19178 1.19178 1.19178 1.19178 1.19178 1.19177 1.19178 1.19178 1.19178 1.19178 1.19178 1.19178 1.19178 1.19178 1.19178 1.19178 1.19178 1.19178 1.19178 1.19178 1.19178 1.19178 1.19178 1.19178 1.19177 1.19178 1.19178 1.19178 1.19178 1.19178 1.19179 1.19178 1.19178 1.19178 1.19178 1.19179 1.19178 1.19178 1.19179 1.19177 1.19177 1.19177 1.19178 1.19178 1.19178 1.19176 1.19178 1.19178 1.19178 1.19178 1.19178 1.19178 1.19178 1.19178 1.19178 1.19178 1.19178 1.19178 1.19178 1.19178 1.19178 1.19178 1.19177 1.19178 1.19178 1.19178 1.19178 1.19179 1.19178 1.19177 1.19177 1.19178 1.19179 1.19178 1.19178 1.19179 1.19178 1.19178 1.19177 1.19177 1.19177 1.19177 1.19177 1.19178 1.19179 1.19178 1.19178 1.19178 1.19178 1.19178 1.19177 1.19178 1.19177 1.19178 1.19177 1.19178 1.19178 1.19178 1.19177 1.19178 1.19178 1.19178 1.19177 1.19177 1.19178 1.19178 1.19178 1.19178 1.19178 1.19178 1.19177 1.19178 1.19177 1.19178 1.19178 1.19178 1.19177 1.19178 1.19178 1.19178 1.19178 1.19178 1.19178 1.19178 1.19178 1.19178 1.19177 1.19178 1.19177 1.19178 1.19178 1.19178 1.19178 1.19179 1.19178 1.19178 1.19179 1.19178 1.19178 1.19178 1.19178 1.19178 1.19176 1.19179 1.19177 1.19176 1.19177 1.19178 1.19178 1.19177 1.19178 1.19177 1.19177 1.19178 1.19178 1.19179 1.19178 1.19177 1.19175 1.19178 1.19177 1.19179 1.19178 1.19178 1.19178 1.19178 1.19178 1.19178 1.19179 1.19178 1.19177 1.19177 1.19178 1.19179 1.19177 1.19178 1.19177 1.19178 1.19178 1.19174 1.19179 1.1918 1.19178 1.19177 1.19177 1.19178 1.19178 1.19177 1.19178 1.19178 1.19179 1.19178 1.19178 1.19177 1.19177 1.19178 1.19178 1.19178 1.19178 1.19178 1.19178 1.19178 1.19178 1.19178 1.19177 1.19177 1.19178 1.19178 1.19178 1.19178 1.19178 1.19178 1.19178 1.19178 1.19178 1.19178 1.19178 1.19177 1.19178 1.19178 1.19178 1.19177 1.19177 1.19178 1.19178 1.19178 1.19178 1.19177 1.19179 1.19177 1.19178 1.19178 1.19178 1.19178 1.19179 1.19178 1.19179 1.19178 1.19178 1.19178 1.19178 1.19178 1.19178 1.19179 1.19176 1.19178 1.19177 1.19178 1.19178 1.19178 1.19178 1.19179 1.19177 1.19178 1.19178 1.19178 1.19178 1.19177 1.19177 1.19177 1.19178 1.19177 1.19178 1.19178 1.19178 1.19176 1.19178 1.19176 1.19177 1.19177 1.19177 1.19176 1.19177 1.19178 1.19175 1.19175 1.19178 1.19178 1.1918 1.19177 1.19178 1.19177 1.19178 1.19178 1.19177 1.19177 1.19178 1.19178 1.19177 1.19177 1.19177 1.19177 1.19178 1.19177 1.19178 1.19178 1.19177 1.19178 1.19178 1.19177 1.19177 1.19178 1.19178 1.19178 1.19177 1.19177 1.19177 1.19178 1.19178 1.19178 1.19178 1.19177 1.19178 1.19178 1.19178 1.19178 1.19178 1.19178 1.19178 1.19178 1.19177 1.19178 1.19178 1.19178 1.19177 1.19177 1.19178 1.19178 1.19177 1.19179 1.19178 1.19178 1.19178 1.19178 1.19178 1.19178 1.19179 1.19179 1.19178 1.19179 1.19178 1.19178 1.19179 1.19178 1.19176 1.19178 1.19177 1.19178 1.19178 1.19178 1.19177 1.19178 1.19179 1.19178 1.19178 1.19177 1.19177 1.19178 1.19178 1.19177 1.19177 1.19178 1.19177 1.19177 1.19178 1.19178 1.19178 1.19178 1.19177 1.19175 1.19178 1.19177 1.19177 1.19176 1.19177 1.19178 1.19175 1.19175 1.19178 1.19178 1.19179 1.19177 1.19178 1.19177 1.19178 1.19178 1.19177 1.19178 1.19177 1.19177 1.19177 1.19177 1.19178 1.19178 1.19178 1.19177 1.19178 1.19177 1.19177 1.19178 1.19177 1.19177 1.19178 1.19178 1.19178 1.19178 1.19177 1.19177 1.19177 1.19178 1.19178 1.19177 1.19177 1.19178 1.19178 1.19178 1.19178 1.19178 1.19178 1.19178 1.19178 1.19178 1.19177 1.19178 1.19177 1.19177 1.19178 1.19178 1.19178 1.19177 1.19178 1.19178 1.19179 1.19178 1.19178 1.19178 1.19178 1.19179 1.19178 1.19178 1.19179 1.19177 1.19178 1.19178 1.19179 1.1918 1.19179 1.19177 1.19178 1.19177 1.19178 1.19178 1.19178 1.19179 1.19178 1.19178 1.19177 1.19178 1.19177 1.19177 1.19177 1.19177 1.19177 1.19178 1.19177 1.19178 1.19177 1.19178 1.19177 1.19177 1.19176 1.19178 1.19178 1.19177 1.19176 1.19178 1.19178 1.19175 1.19175 1.19178 1.19177 1.19178 1.19178 1.19178 1.19177 1.19178 1.19178 1.19178 1.19178 1.19177 1.19177 1.19177 1.19178 1.19178 1.19178 1.19178 1.19178 1.19177 1.19178 1.19178 1.19177 1.19177 1.19178 1.19178 1.19178 1.19178 1.19177 1.19177 1.19177 1.19178 1.19178 1.19177 1.19178 1.19178 1.19177 1.19178 1.19178 1.19178 1.19178 1.19178 1.19178 1.19178 1.19177 1.19178 1.19178 1.19176 1.19178 1.19179 1.19178 1.19177 1.19178 1.19178 1.19179 1.19178 1.19178 1.19179 1.19178 1.19178 1.19178 1.19178 1.19178 1.19177 1.19177 1.19178 1.1918 1.19178 1.19177 1.19176 1.19178 1.19177 1.19178 1.19178 1.19176 1.19177 1.19177 1.19177 1.19179 1.19178 1.19177 1.19177 1.19177 1.19177 1.19178 1.19177 1.19177 1.19177 1.19177 1.19177 1.19177 1.19177 1.19177 1.19178 1.19177 1.19176 1.19177 1.19178 1.19177 1.19178 1.19177 1.19177 1.19177 1.19177 1.19178 1.19177 1.19178 1.19177 1.19178 1.19178 1.19178 1.19177 1.19177 1.19177 1.19178 1.19178 1.19178 1.19177 1.19178 1.19177 1.19178 1.19178 1.19178 1.19178 1.19178 1.19177 1.19178 1.19177 1.19177 1.19178 1.19178 1.19178 1.19177 1.19178 1.19178 1.19177 1.19177 1.19178 1.19178 1.19178 1.19178 1.19178 1.19177 1.19179 1.19177 1.19177 1.19178 1.19179 1.19178 1.19178 1.19177 1.19177 1.19179 1.19178 1.19178 1.19179 1.19178 1.19178 1.19177 1.19177 1.19178 1.19178 1.19178 1.19178 1.19179 1.19177 1.19179 1.19179 1.19179 1.19178 1.19178 1.19178 1.19176 1.19177 1.19178 1.19177 1.19178 1.19177 1.19177 1.19177 1.19177 1.19177 1.19177 1.19177 1.19177 1.19177 1.19177 1.19178 1.19177 1.19177 1.19178 1.19177 1.19177 1.19176 1.19178 1.19177 1.19178 1.19177 1.19178 1.19177 1.19177 1.19178 1.19177 1.19178 1.19177 1.19178 1.19178 1.19178 1.19178 1.19178 1.19177 1.19177 1.19177 1.19177 1.19178 1.19178 1.19178 1.19177 1.19178 1.19177 1.19178 1.19178 1.19178 1.19178 1.19178 1.19177 1.19178 1.19177 1.19178 1.19177 1.19178 1.19178 1.19177 1.19178 1.19178 1.19177 1.19177 1.19178 1.19178 1.19178 1.19178 1.19178 1.19178 1.19178 1.19178 1.19178 1.19178 1.19178 1.19177 1.19178 1.19178 1.19178 1.19177 1.19178 1.19179 1.19178 1.19178 1.19178 1.19177 1.19178 1.19178 1.19177 1.19178 1.19178 1.19177 1.19178 1.19179 1.19178 1.19179 1.19178 1.19177 1.19177 1.19177 1.19177 1.19177 1.19178 1.19178 1.19177 1.19177 1.19175 1.19177 1.19177 1.19178 1.19177 1.19177 1.19177 1.19177 1.19177 1.19177 1.19178 1.19177 1.19177 1.19178 1.19178 1.19177 1.19177 1.19177 1.19176 1.19176 1.19177 1.19178 1.19177 1.19178 1.19177 1.19177 1.19178 1.19177 1.19177 1.19177 1.19178 1.19178 1.19178 1.19178 1.19177 1.19177 1.19177 1.19177 1.19177 1.19177 1.19178 1.19177 1.19178 1.19177 1.19178 1.19178 1.19178 1.19178 1.19178 1.19177 1.19177 1.19177 1.19177 1.19177 1.19178 1.19178 1.19177 1.19178 1.19178 1.19177 1.19177 1.19178 1.19178 1.19178 1.19177 1.19178 1.19178 1.19178 1.19176 1.19178 1.19179 1.19178 1.19178 1.19178 1.19178 1.19178 1.19179 1.19177 1.19177 1.19179 1.19178 1.19178 1.19178 1.19178 1.19179 1.19178 1.19178 1.19177 1.19178 1.19179 1.19178 1.19177 1.19178 1.19179 1.19177 1.19178 1.19177 1.19179 1.19177 1.19178 1.19176 1.19177 1.19176 1.19177 1.19178 1.19178 1.19178 1.19178 1.19177 1.19177 1.19177 1.19177 1.19177 1.19178 1.19177 1.19177 1.19177 1.19176 1.19176 1.19177 1.19178 1.19177 1.19177 1.19177 1.19177 1.19178 1.19177 1.19177 1.19178 1.19177 1.19178 1.19178 1.19177 1.19177 1.19177 1.19177 1.19177 1.19177 1.19177 1.19177 1.19178 1.19177 1.19178 1.19177 1.19178 1.19177 1.19178 1.19177 1.19177 1.19177 1.19177 1.19177 1.19178 1.19178 1.19178 1.19177 1.19178 1.19177 1.19177 1.19178 1.19178 1.19177 1.19177 1.19178 1.19178 1.19178 1.19178 1.19177 1.19178 1.19179 1.19178 1.19178 1.19178 1.19177 1.19179 1.19178 1.19179 1.19178 1.19178 1.19178 1.19178 1.19178 1.19178 1.19178 1.19177 1.19178 1.19179 1.19178 1.19177 1.19177 1.19178 1.19178 1.19178 1.19177 1.19177 1.19177 1.19179 1.19178 1.19178 1.19176 1.19177 1.19176 1.19178 1.19178 1.19177 1.19178 1.19178 1.19177 1.19177 1.19177 1.19178 1.19177 1.19178 1.19177 1.19177 1.19177 1.19177 1.19176 1.19178 1.19177 1.19177 1.19177 1.19177 1.19178 1.19177 1.19177 1.19177 1.19177 1.19177 1.19178 1.19178 1.19178 1.19178 1.19177 1.19178 1.19178 1.19177 1.19177 1.19178 1.19177 1.19177 1.19178 1.19178 1.19177 1.19178 1.19178 1.19178 1.19177 1.19178 1.19177 1.19177 1.19177 1.19178 1.19177 1.19178 1.19178 1.19178 1.19177 1.19177 1.19177 1.19178 1.19178 1.19178 1.19177 1.19178 1.19177 1.19178 1.19178 1.19178 1.19178 1.19179 1.19178 1.19178 1.19178 1.19178 1.19178 1.19179 1.19178 1.19178 1.19178 1.19177 1.19178 1.19177 1.19178 1.19178 1.19178 1.19177 1.19178 1.19177 1.19177 1.19179 1.19178 1.19177 1.19177 1.19177 1.19177 1.19177 1.19177 1.19178 1.19177 1.19178 1.19178 1.19177 1.19177 1.19176 1.19178 1.19177 1.19178 1.19178 1.19178 1.19177 1.19177 1.19177 1.19178 1.19177 1.19177 1.19177 1.19177 1.19177 1.19177 1.19176 1.19177 1.19177 1.19177 1.19177 1.19178 1.19178 1.19177 1.19177 1.19178 1.19178 1.19178 1.19178 1.19178 1.19178 1.19178 1.19177 1.19177 1.19177 1.19177 1.19177 1.19178 1.19177 1.19178 1.19178 1.19178 1.19178 1.19177 1.19178 1.19178 1.19178 1.19178 1.19177 1.19178 1.19178 1.19178 1.19178 1.19177 1.19178 1.19178 1.19178 1.19178 1.19177 1.19177 1.19177 1.19177 1.19178 1.19178 1.19178 1.19178 1.19177 1.19178 1.19178 1.19178 1.19179 1.19179 1.19178 1.19177 1.19178 1.19178 1.19177 1.19178 1.19177 1.19177 1.19178 1.19178 1.19178 1.19177 1.19177 1.19179 1.19178 1.19177 1.19177 1.19177 1.19177 1.19177 1.19177 1.19178 1.19178 1.19178 1.19178 1.19177 1.19177 1.19177 1.19176 1.19177 1.19178 1.19177 1.19177 1.19177 1.19177 1.19177 1.19178 1.19177 1.19177 1.19178 1.19178 1.19177 1.19178 1.19178 1.19177 1.19178 1.19177 1.19177 1.19177 1.19178 1.19177 1.19177 1.19177 1.19177 1.19178 1.19178 1.19178 1.19178 1.19178 1.19178 1.19178 1.19178 1.19178 1.19177 1.19177 1.19177 1.19178 1.19177 1.19178 1.19178 1.19177 1.19178 1.19178 1.19178 1.19177 1.19178 1.19178 1.19178 1.19178 1.19178 1.19177 1.19178 1.19178 1.19178 1.19178 1.19177 1.19178 1.19177 1.19177 1.19177 1.19178 1.19178 1.19178 1.19178 1.19177 1.19177 1.19178 1.19178 1.19178 1.19178 1.19179 1.19178 1.19177 1.19176 1.19177 1.19178 1.19179 1.19177 1.19177 1.19178 1.19178 1.19178 1.19177 1.19177 1.19179 1.19178 1.19177 1.19177 1.19177 1.19177 1.19178 1.19178 1.19178 1.19177 1.19178 1.19177 1.19177 1.19178 1.19177 1.19177 1.19178 1.19177 1.19177 1.19177 1.19177 1.19177 1.19177 1.19177 1.19177 1.19177 1.19178 1.19178 1.19178 1.19178 1.19177 1.19177 1.19177 1.19177 1.19178 1.19178 1.19177 1.19177 1.19177 1.19178 1.19178 1.19178 1.19178 1.19178 1.19178 1.19178 1.19178 1.19178 1.19178 1.19177 1.19177 1.19178 1.19178 1.19178 1.19178 1.19178 1.19178 1.19178 1.19178 1.19177 1.19178 1.19178 1.19178 1.19178 1.19177 1.19178 1.19178 1.19178 1.19178 1.19178 1.19177 1.19178 1.19177 1.19177 1.19177 1.19177 1.19178 1.19178 1.19178 1.19177 1.19177 1.19178 1.19178 1.19178 1.19178 1.19178 1.19178 1.19177 1.19176 1.19177 1.1918 1.19176 1.19177 1.19178 1.19178 1.19177 1.19177 1.19177 1.19178 1.19178 1.19178 1.19177 1.19177 1.19178 1.19176 1.19177 1.19177 1.19177 1.19178 1.19178 1.19177 1.19177 1.19178 1.19178 1.19178 1.19177 1.19178 1.19178 1.19178 1.19177 1.19178 1.19177 1.19177 1.19177 1.19177 1.19177 1.19177 1.19178 1.19177 1.19178 1.19177 1.19178 1.19177 1.19177 1.19177 1.19177 1.19177 1.19177 1.19177 1.19178 1.19178 1.19178 1.19178 1.19178 1.19178 1.19178 1.19178 1.19178 1.19178 1.19178 1.19177 1.19178 1.19178 1.19178 1.19178 1.19178 1.19178 1.19178 1.19178 1.19178 1.19178 1.19178 1.19178 1.19178 1.19177 1.19178 1.19178 1.19177 1.19177 1.19177 1.19177 1.19177 1.19177 1.19177 1.19177 1.19177 1.19177 1.19177 1.19178 1.19177 1.19177 1.19177 1.19177 1.19177 1.19178 1.19178 1.19178 1.19178 1.19177 1.19177 1.19177 1.19177 1.19176 1.19177 1.19177 1.19178 1.19177 1.19177 1.19177 1.19176 1.19177 1.19177 1.19177 1.19177 1.19177 1.19177 1.19177 1.19177 1.19177 1.19177 1.19177 1.19177 1.19177 1.19178 1.19177 1.19178 1.19178 1.19178 1.19178 1.19177 1.19178 1.19177 1.19178 1.19177 1.19177 1.19177 1.19177 1.19177 1.19178 1.19178 1.19178 1.19177 1.19178 1.19177 1.19177 1.19177 1.19177 1.19177 1.19178 1.19178 1.19178 1.19178 1.19178 1.19178 1.19178 1.19178 1.19178 1.19178 1.19178 1.19177 1.19178 1.19178 1.19178 1.19178 1.19178 1.19178 1.19178 1.19178 1.19178 1.19178 1.19178 1.19178 1.19177 1.19178 1.19177 1.19178 1.19177 1.19177 1.19178 1.19177 1.19177 1.19177 1.19177 1.19176 1.19177 1.19177 1.19177 1.19177 1.19177 1.19177 1.19177 1.19178 1.19178 1.19178 1.19177 1.19177 1.19177 1.19177 1.19177 1.19176 1.19177 1.19177 1.19177 1.19177 1.19177 1.19176 1.19176 1.19177 1.19176 1.19176 1.19178 1.19176 1.19177 1.19177 1.19178 1.19178 1.19177 1.19177 1.19177 1.19177 1.19177 1.19177 1.19177 1.19178 1.19177 1.19178 1.19177 1.19177 1.19177 1.19177 1.19178 1.19178 1.19177 1.19177 1.19177 1.19178 1.19177 1.19177 1.19177 1.19177 1.19178 1.19177 1.19178 1.19177 1.19177 1.19177 1.19177 1.19178 1.19177 1.19177 1.19177 1.19177 1.19177 1.19178 1.19178 1.19178 1.19178 1.19177 1.19178 1.19178 1.19177 1.19178 1.19176 1.19177 1.19177 1.19177 1.19177 1.19177 1.19177 1.19178 1.19178 1.19178 1.19177 1.19177 1.19177 1.19178 1.19177 1.19178 1.19178 1.19178 1.19177 1.19177 1.19177 1.19177 1.19177 1.19177 1.19177 1.19177 1.19176 1.19176 1.19177 1.19177 1.19178 1.19177 1.19177 1.19177 1.19178 1.19177 1.19177 1.19178 1.19178 1.19178 1.19178 1.19177 1.19177 1.19177 1.19177 1.19177 1.19178 1.19176 1.19177 1.19177 1.19178 1.19177 1.19178 1.19177 1.19177 1.19177 1.19177 1.19178 1.19177 1.19177 1.19178 1.19177 1.19177 1.19178 1.19177 1.19177 1.19176 1.19176 1.19176 1.19177 1.19178 1.19178 1.19177 1.19177 1.19177 1.19177 1.19178 1.19177 1.19178 1.19178 1.19177 1.19177 1.19177 1.19177 1.19177 1.19177 1.19176 1.19176 1.19177 1.19178 1.19178 1.19178 1.19178 1.19178 1.19178 1.19177 1.19177 1.19177 1.19177 1.19178 1.19177 1.19178 1.19178 1.19177 1.19178 1.19177 1.19177 1.19177 1.19178 1.19177 1.19176 1.19178 1.19178 1.19178 1.19178 1.19178 1.19178 1.19178 1.19178 1.19178 1.19178 1.19178 1.19178 1.19178 1.19178 1.19178 1.19178 1.19178 1.19178 1.19178 1.19178 1.19178 1.19178 1.19178 1.19178 1.19178 1.19178 1.19178 1.19178 1.19178 1.19178 1.19178 1.19178 1.19177 1.19177 1.19178 1.19177 1.19177 1.19177 1.19178 1.19178 1.19176 1.19178 1.19177 1.19178 1.19177 1.19178 1.19178 1.19177 1.19178 1.19178 1.19178 1.19178 1.19178 1.19178 1.19178 1.19178 1.19178 1.19178 1.19178 1.19178 1.19178 1.19178 1.19178 1.19178 1.19178 1.19178 1.19178 1.19178 1.19178 1.19178 1.19178 1.19178 1.19178 1.19178 1.19178 1.19178 1.19178 1.19178 1.19178 1.19177 1.19177 1.19178 1.19177 1.19178 1.19177 1.19178 1.19177 1.19177 1.19179 1.19177 1.19177 1.19177 1.19178 1.19178 1.19177 1.19177 1.19177 1.19178 1.19178 1.19178 1.19177 1.19178 1.19177 1.19178 1.19178 1.19178 1.19178 1.19178 1.19178 1.19178 1.19178 1.19178 1.19178 1.19178 1.19178 1.19178 1.19178 1.19178 1.19178 1.19178 1.19178 1.19178 1.19178 1.19178 1.19178 1.19178 1.19178 1.19178 1.19178 1.19178 1.19178 1.19178 1.19178 1.19178 1.19178 1.19178 1.19178 1.19178 1.19178 1.19178 1.19178 1.19178 1.19178 1.19178 1.19178 1.19177 1.19178 1.19177 1.19178 1.19177 1.19178 1.19177 1.19177 1.19177 1.19177 1.19177 1.19176 1.19177 1.19177 1.19177 1.19178 1.19178 1.19178 1.19177 1.19178 1.19178 1.19178 1.19178 1.19178 1.19178 1.19178 1.19178 1.19178 1.19178 1.19178 1.19178 1.19178 1.19178 1.19178 1.19178 1.19178 1.19178 1.19178 1.19178 1.19178 1.19178 1.19178 1.19178 1.19178 1.19178 1.19178 1.19178 1.19178 1.19178 1.19178 1.19178 1.19178 1.19178 1.19178 1.19178 1.19178 1.19178 1.19178 1.19178 1.19178 1.19178 1.19178 1.19178 1.19178 1.19178 1.19178 1.19178 1.19178 1.19178 1.19178 1.19178 1.19178 1.19177 1.19177 1.19177 1.19178 1.19177 1.19177 1.19177 1.19177 1.19177 1.19176 1.19176 1.19177 1.19177 1.19177 1.19178 1.19177 1.19177 1.19178 1.19178 1.19178 1.19178 1.19178 1.19178 1.19178 1.19178 1.19178 1.19178 1.19178 1.19178 1.19178 1.19178 1.19178 1.19178 1.19178 1.19178 1.19178 1.19178 1.19178 1.19178 1.19178 1.19178 1.19178 1.19178 1.19178 1.19178 1.19178 1.19178 1.19178 1.19178 1.19178 1.19178 1.19178 1.19178 1.19178 1.19178 1.19178 1.19178 1.19178 1.19178 1.19178 1.19178 1.19178 1.19178 1.19178 1.19178 1.19178 1.19178 1.19178 1.19177 1.19177 1.19177 1.19177 1.19177 1.19178 1.19177 1.19177 1.19177 1.19177 1.19177 1.19176 1.19176 1.19178 1.19177 1.19178 1.19177 1.19177 1.19178 1.19178 1.19178 1.19177 1.19178 1.19178 1.19178 1.19178 1.19178 1.19178 1.19178 1.19178 1.19178 1.19178 1.19178 1.19178 1.19178 1.19178 1.19178 1.19178 1.19178 1.19178 1.19178 1.19178 1.19178 1.19178 1.19178 1.19178 1.19178 1.19178 1.19178 1.19178 1.19178 1.19178 1.19178 1.19178 1.19178 1.19178 1.19178 1.19178 1.19178 1.19178 1.19178 1.19178 1.19178 1.19178 1.19178 1.19178 1.19178 1.19178 1.19178 1.19178 1.19178 1.19178 1.19178 1.19178 1.19178 1.19177 1.19178 1.19177 1.19178 1.19177 1.19177 1.19177 1.19177 1.19178 1.19177 1.19177 1.19177 1.19178 1.19178 1.19177 1.19177 1.19178 1.19177 1.19177 1.19177 1.19177 1.19178 1.19178 1.19178 1.19178 1.19178 1.19178 1.19178 1.19178 1.19178 1.19178 1.19178 1.19178 1.19178 1.19178 1.19178 1.19178 1.19178 1.19178 1.19178 1.19178 1.19178 1.19178 1.19178 1.19178 1.19178 1.19178 1.19178 1.19178 1.19178 1.19178 1.19178 1.19178 1.19178 1.19178 1.19178 1.19178 1.19178 1.19178 1.19178 1.19178 1.19178 1.19178 1.19178 1.19178 1.19178 1.19178 1.19178 1.19178 1.19177 1.19178 1.19178 1.19177 1.19178 1.19177 1.19177 1.19178 1.19177 1.19177 1.19177 1.19178 1.19177 1.19177 1.19177 1.19178 1.19177 1.19177 1.19177 1.19178 1.19178 1.19178 1.19178 1.19178 1.19178 1.19178 1.19178 1.19178 1.19178 1.19178 1.19178 1.19178 1.19178 1.19178 1.19178 1.19178 1.19178 1.19178 1.19178 1.19178 1.19178 1.19178 1.19178 1.19178 1.19178 1.19178 1.19178 1.19178 1.19178 1.19178 1.19178 1.19178 1.19178 1.19178 1.19178 1.19178 1.19178 1.19178 1.19178 1.19178 1.19178 1.19178 1.19178 1.19178 1.19178 1.19177 1.19178 1.19177 1.19177 1.19177 1.19177 1.19177 1.19177 1.19177 1.19177 1.19177 1.19178 1.19177 1.19177 1.19178 1.19178 1.19177 1.19178 1.19178 1.19178 1.19178 1.19178 1.19178 1.19178 1.19178 1.19178 1.19178 1.19178 1.19178 1.19178 1.19178 1.19178 1.19178 1.19178 1.19178 1.19178 1.19178 1.19178 1.19178 1.19178 1.19178 1.19178 1.19178 1.19178 1.19178 1.19178 1.19178 1.19178 1.19178 1.19178 1.19178 1.19178 1.19178 1.19178 1.19178 1.19178 1.19178 1.19178 1.19177 1.19177 1.19178 1.19178 1.19178 1.19178 1.19178 1.19178 1.19177 1.19177 1.19178 1.19178 1.19177 1.19177 1.19177 1.19178 1.19177 1.19178 1.19178 1.19178 1.19178 1.19178 1.19178 1.19178 1.19178 1.19178 1.19178 1.19178 1.19178 1.19178 1.19178 1.19178 1.19178 1.19178 1.19178 1.19178 1.19178 1.19178 1.19178 1.19178 1.19178 1.19178 1.19178 1.19178 1.19178 1.19178 1.19178 1.19178 1.19178 1.19178 1.19178 1.19178 1.19178 1.19178 1.19178 1.19178 1.19178 1.19178 1.19178 1.19178 1.19178 1.19178 1.19178 1.19178 1.19178 1.19178 1.19178 1.19178 1.19178 1.19178 1.19178 1.19177 1.19177 1.19178 1.19177 1.19177 1.19178 1.19177 1.19178 1.19177 1.19178 1.19178 1.19178 1.19178 1.19178 1.19178 1.19178 1.19178 1.19178 1.19178 1.19178 1.19178 1.19178 1.19178 1.19178 1.19178 1.19178 1.19178 1.19178 1.19178 1.19178 1.19178 1.19178 1.19178 1.19178 1.19178 1.19178 1.19178 1.19178 1.19178 1.19178 1.19178 1.19178 1.19178 1.19178 1.19178 1.19178 1.19178 1.19178 1.19178 1.19178 1.19177 1.19178 1.19177 1.19178 1.19177 1.19178 1.19177 1.19177 1.19178 1.19177 1.19178 1.19178 1.19178 1.19178 1.19178 1.19178 1.19178 1.19178 1.19178 1.19178 1.19178 1.19178 1.19178 1.19178 1.19178 1.19178 1.19178 1.19178 1.19178 1.19178 1.19178 1.19178 1.19178 1.19178 1.19178 1.19178 1.19178 1.19178 1.19178 1.19178 1.19178 1.19178 1.19178 1.19177 1.19178 1.19177 1.19178 1.19178 1.19178 1.19177 1.19177 1.19178 1.19177 1.19177 1.19177 1.19177 1.19178 1.19178 1.19178 1.19177 1.19178 1.19178 1.19178 1.19178 1.19178 1.19178 1.19178 1.19178 1.19178 1.19178 1.19178 1.19178 1.19178 1.19178 1.19178 1.19178 1.19178 1.19178 1.19178 1.19178 1.19178 1.19178 1.19178 1.19178 1.19178 1.19178 1.19178 1.19178 1.19178 1.19177 1.19178 1.19178 1.19178 1.19177 1.19177 1.19178 1.19177 1.19177 1.19177 1.19178 1.19178 1.19178 1.19178 1.19178 1.19177 1.19178 1.19178 1.19178 1.19178 1.19178 1.19178 1.19178 1.19178 1.19178 1.19178 1.19178 1.19178 1.19178 1.19178 1.19178 1.19178 1.19178 1.19178 1.19178 1.19177 1.19178 1.19178 1.19178 1.19178 1.19177 1.19177 1.19178 1.19177 1.19178 1.19177 1.19178 1.19177 1.19178 1.19178 1.19178 1.19178 1.19178 1.19178 1.19178 1.19178 1.19178 1.19178 1.19178 1.19178 1.19178 1.19178 1.19178 1.19178 1.19178 1.19178 1.19178 1.19178 1.19178 1.19178 1.19178 1.19178 1.19178 1.19178 1.19178 1.19178 1.19178 1.19178 1.19178 1.19178 1.19177 1.19178 1.19178 1.19178 1.19178 1.19177 1.19178 1.19178 1.19178 1.19177 1.19177 1.19177 1.19178 1.19178 1.19178 1.19178 1.19178 1.19178 1.19178 1.19178 1.19178 1.19178 1.19178 1.19178 1.19178 1.19178 1.19178 1.19178 1.19178 1.19178 1.19178 1.19178 1.19178 1.19178 1.19177 1.19178 1.19178 1.19178 1.19178 1.19178 1.19178 1.19178 1.19178 1.19177 1.19178 1.19178 1.19178 1.19178 1.19178 1.19178 1.19178 1.19178 1.19178 1.19178 1.19178 1.19178 1.19178 1.19178 1.19178 1.19178 1.19178 1.19178 1.19178 1.19178 1.19178 1.19178 1.19178 1.19178 1.19178 1.19178 1.19178 1.19177 1.19178 1.19178 1.19178 1.19178 1.19177 1.19178 1.19178 1.19178 1.19178 1.19178 1.19178 1.19178 1.19178 1.19178 1.19178 1.19178 1.19178 1.19178 1.19178 1.19178 1.19178 1.19178 1.19178 1.19178 1.19178 1.19178 1.19178 1.19178 1.19178 1.19177 1.19178 1.19178 1.19178 1.19178 1.19178 1.19178 1.19178 1.19178 1.19178 1.19178 1.19178 1.19178 1.19178 1.19178 1.19178 1.19178 1.19178 1.19178 1.19178 1.19178 1.19178 1.19178 1.19178 1.19178 1.19178 1.19178 1.19178 1.19178 1.19178 1.19178 1.19178 1.19178 1.19178 1.19178 1.19178 1.19178 1.19178 1.19178 1.19178 1.19178 1.19178 1.19178 1.19178 1.19178 1.19178 1.19178 1.19178 1.19178 1.19178 1.38371e-06 8.02289e-07 9.51754e-07 8.70789e-07 9.60648e-07 9.56705e-07 2.2886e-06 2.92186e-06 4.52996e-06 5.43034e-06 4.01679e-06 5.15996e-06 4.18845e-06 4.76496e-06 5.62308e-06 3.8937e-06 3.17606e-06 3.09571e-06 3.61163e-06 3.1064e-06 4.7763e-06 4.86755e-06 3.53877e-06 3.99666e-06 1.82242e-06 1.6395e-06 2.1606e-06 1.47035e-06 2.84672e-06 4.14071e-06 5.1231e-06 7.3767e-06 9.73963e-06 9.34975e-06 1.08835e-05 7.46199e-06 9.98295e-06 8.23718e-06 8.26826e-06 5.35179e-06 7.00192e-06 5.37351e-06 5.81786e-06 5.95093e-06 7.84552e-06 5.16844e-06 3.56525e-06 6.09014e-06 2.0356e-06 6.55107e-06 5.00616e-06 7.43233e-06 2.78407e-06 5.46359e-06 1.00206e-05 1.98369e-05 2.06907e-05 2.18588e-05 2.43029e-05 2.13317e-05 2.0293e-05 1.92807e-05 1.92042e-05 1.53964e-05 2.15218e-05 1.90978e-05 1.70713e-05 1.98274e-05 1.70798e-05 2.04393e-05 2.22401e-05 2.02631e-05 2.95853e-05 3.59014e-05 4.18629e-05 4.79038e-05 4.25369e-05 4.03061e-05 4.31002e-05 5.05161e-05 4.39354e-05 4.25437e-05 5.06505e-05 4.80711e-05 4.908e-05 5.18538e-05 5.38211e-05 4.9225e-05 5.58014e-05 4.16619e-05 5.30398e-05 2.8288e-05 2.11041e-05 1.43303e-05 7.82609e-06 1.43825e-05 6.51839e-06 7.58951e-06 2.91444e-06 5.4195e-06 2.69227e-06 2.04854e-06 1.36221e-06 1.81346e-06 2.05324e-06 1.19136e-06 2.30881e-06 1.46064e-06 1.92515e-06 1.84763e-06 1.11056e-06 4.64388e-07 1.30886e-06 9.60142e-07 1.60255e-06 7.50859e-07 9.73433e-07 1.46795e-06 1.22488e-07 3.50783e-06 4.60364e-06 6.15861e-06 6.001e-06 5.27599e-06 1.67e-06 1.53689e-06 1.8724e-06 9.21095e-07 8.9414e-07 2.88343e-06 2.65012e-06 3.01969e-06 2.71164e-07 4.10961e-07 2.1327e-06 2.50554e-06 2.01591e-06 2.90739e-06 3.90498e-06 3.01971e-06 3.88208e-06 4.71717e-06 5.88804e-06 4.40899e-06 5.46232e-06 4.80961e-06 4.59031e-06 2.54642e-06 2.5948e-06 2.67062e-06 9.01347e-07 2.03461e-06 1.54717e-06 2.2706e-06 3.51249e-06 3.15221e-06 7.03682e-06 4.71903e-06 3.49609e-06 4.36211e-06 5.43195e-06 5.24613e-06 4.53219e-06 5.09299e-06 3.64394e-06 3.98815e-06 7.40594e-06 6.34575e-06 4.91119e-06 4.32866e-06 5.07098e-06 4.98134e-06 4.72348e-06 4.6622e-06 3.61445e-06 3.14351e-06 8.33437e-07 3.53526e-06 3.56637e-06 4.26974e-06 4.38832e-06 2.92279e-06 7.74536e-06 1.08335e-05 6.82668e-06 7.63355e-06 8.5833e-06 3.34879e-06 5.76144e-06 1.48461e-06 7.15871e-06 3.80931e-06 8.68394e-06 9.65206e-06 1.05088e-05 1.25911e-05 1.18972e-05 1.54421e-05 1.81111e-05 1.53391e-05 2.11314e-05 2.28126e-05 2.19041e-05 2.26208e-05 2.41999e-05 2.34445e-05 2.53949e-05 2.79482e-05 2.33263e-05 2.15245e-05 1.78172e-05 2.01103e-05 1.77046e-05 1.94e-05 2.62309e-05 3.18066e-05 4.04771e-05 2.52902e-05 3.1321e-05 3.34271e-05 3.59668e-05 4.62218e-05 4.1098e-05 5.09047e-05 4.43427e-05 4.66255e-05 4.04792e-05 6.07466e-05 6.06389e-05 4.86251e-05 5.00428e-05 5.09674e-05 4.98156e-05 4.40044e-05 4.44244e-05 3.93786e-05 4.70158e-05 4.71184e-05 3.80337e-05 4.42229e-05 2.61906e-05 3.85277e-05 2.58145e-05 5.22244e-05 3.68361e-05 4.33484e-05 4.24022e-05 2.1713e-05 3.48743e-05 3.35292e-05 3.26759e-05 1.73625e-05 1.73288e-05 1.43967e-05 1.8081e-05 1.55805e-05 7.10108e-06 1.86594e-06 4.77403e-06 2.82539e-06 4.76043e-06 5.69851e-06 5.13834e-06 1.39535e-05 9.28198e-06 1.2618e-05 2.41697e-06 2.22116e-06 2.3119e-06 1.82188e-06 2.87511e-06 6.76378e-07 1.32154e-06 1.11474e-06 1.45457e-06 1.36538e-06 1.19687e-06 2.76679e-06 3.49945e-06 2.49264e-06 5.14087e-06 3.26541e-06 3.95288e-06 2.27025e-06 2.02507e-06 1.41061e-06 1.65893e-06 2.02025e-06 1.57777e-06 1.48738e-06 1.24705e-06 2.44065e-06 1.86851e-06 2.19128e-06 3.08963e-06 2.67789e-06 3.50291e-06 3.25139e-06 1.07121e-06 2.49789e-06 2.49076e-06 2.34323e-06 2.88613e-06 4.11977e-06 3.50609e-06 5.23986e-06 4.73066e-06 5.69951e-06 6.7213e-06 4.96496e-06 7.0594e-06 7.70008e-06 6.17714e-06 7.32458e-06 6.46644e-06 8.2775e-06 7.5468e-06 5.37389e-06 4.67071e-06 6.30423e-06 4.09896e-06 5.34371e-06 6.62032e-06 8.231e-06 1.27893e-06 2.5086e-06 8.55441e-07 1.82997e-06 8.43569e-06 4.27029e-06 4.46581e-06 3.90235e-06 1.77213e-06 2.64479e-06 1.41104e-06 1.52694e-06 5.09618e-06 5.05606e-06 4.13001e-06 1.01117e-05 9.66566e-06 7.99041e-06 1.25751e-05 1.64427e-05 1.74591e-05 1.88804e-05 2.32462e-05 2.43916e-05 2.12292e-05 2.60617e-05 2.21781e-05 2.42726e-05 2.0838e-05 1.94309e-05 1.49964e-05 1.55949e-05 2.55424e-05 2.35291e-05 2.54788e-05 3.13944e-05 3.1831e-05 3.9886e-05 3.38822e-05 3.65485e-05 3.73877e-05 3.16882e-05 3.10579e-05 2.98586e-05 3.61632e-05 4.00805e-05 2.74486e-05 2.17251e-05 3.40568e-05 4.98933e-05 4.69329e-05 3.27143e-05 4.17251e-05 3.18526e-05 3.53904e-05 3.8393e-05 2.18449e-05 3.05285e-05 1.88884e-05 2.20199e-05 2.50879e-05 2.15531e-05 2.49592e-05 2.93496e-05 2.54481e-05 2.20025e-05 4.84948e-06 5.68639e-06 7.4716e-06 4.30299e-06 9.2653e-06 1.24267e-05 9.79153e-06 2.19084e-06 2.27537e-06 1.97762e-06 2.27744e-06 3.23002e-06 2.26315e-06 1.98865e-06 1.54545e-06 2.41105e-06 2.5977e-06 3.41829e-06 2.52578e-06 2.85348e-06 2.52942e-06 2.81261e-06 2.49175e-06 2.20942e-06 1.06916e-06 1.68572e-06 1.7316e-06 1.00638e-06 3.86231e-07 1.70009e-06 1.79664e-06 1.93316e-06 1.88024e-06 2.53582e-06 1.72558e-06 1.05422e-06 2.45114e-06 3.19513e-06 1.73785e-06 3.83218e-06 2.54954e-06 3.46606e-06 6.18254e-06 4.55198e-06 4.68184e-06 7.44827e-06 7.68374e-06 7.63464e-06 5.89889e-06 5.72706e-06 5.21842e-06 5.31486e-06 4.1946e-06 4.88937e-06 6.22098e-06 4.59092e-06 4.76654e-06 5.38149e-06 8.28325e-06 5.31564e-06 6.75277e-06 5.11013e-06 1.30552e-06 5.46424e-06 3.80196e-06 5.1642e-06 6.16393e-07 2.23596e-06 2.82217e-06 3.09254e-06 5.87052e-06 1.58549e-06 8.16963e-06 8.96849e-06 1.06816e-05 1.12548e-05 8.78721e-06 1.28421e-05 1.4198e-05 1.64949e-05 2.36489e-05 1.89514e-05 2.20865e-05 2.02994e-05 2.30842e-05 2.65029e-05 2.53463e-05 2.40136e-05 2.40384e-05 2.4637e-05 3.03981e-05 2.69355e-05 2.60881e-05 3.85129e-05 3.2078e-05 3.04855e-05 3.68142e-05 3.12161e-05 3.54955e-05 4.15398e-05 4.66732e-05 3.91124e-05 4.33136e-05 3.88773e-05 3.76107e-05 3.33147e-05 3.84809e-05 3.77186e-05 4.24072e-05 4.28721e-05 4.01104e-05 3.92398e-05 4.46864e-05 3.94166e-05 3.78395e-05 3.2646e-05 4.15511e-05 3.79145e-05 4.32442e-05 3.86002e-05 3.46871e-05 1.87121e-05 3.00449e-05 2.49722e-05 1.18914e-05 1.62585e-05 1.06406e-05 1.62673e-05 1.22332e-05 1.11166e-05 8.29807e-06 5.02739e-06 9.58803e-06 5.62819e-06 2.47897e-06 2.84721e-06 2.8335e-06 2.89122e-06 3.0528e-06 2.93036e-06 3.12877e-06 2.73801e-06 2.5336e-06 2.94335e-06 3.35116e-06 2.44936e-06 2.87193e-06 2.36572e-06 2.4657e-06 2.90755e-06 2.8589e-06 3.5545e-06 2.77425e-06 3.05442e-06 1.18096e-06 1.56051e-06 1.20001e-06 2.01691e-06 9.1163e-07 1.86767e-06 1.77214e-07 1.55779e-06 1.9191e-06 1.02423e-06 1.05306e-06 1.66448e-06 1.27509e-06 1.1008e-06 8.56088e-07 1.94051e-06 1.67671e-06 2.77433e-06 2.70138e-06 3.09139e-06 5.8332e-06 4.4561e-06 6.27553e-06 5.84023e-06 6.11301e-06 5.66183e-06 5.30576e-06 5.46808e-06 6.27014e-06 6.94226e-06 3.5496e-06 3.78863e-06 3.76367e-06 4.14224e-06 5.55096e-06 5.25746e-06 3.78526e-06 3.47214e-06 4.62336e-06 9.03913e-06 4.70696e-06 3.75344e-06 1.08474e-05 5.44449e-07 3.26675e-06 2.28029e-06 3.64112e-06 3.31467e-06 5.39665e-06 8.74596e-06 9.629e-06 1.19667e-05 1.17615e-05 9.00426e-06 1.32182e-05 1.42757e-05 1.56835e-05 2.16586e-05 2.11214e-05 2.2159e-05 2.53292e-05 2.24646e-05 2.15712e-05 2.23115e-05 2.06469e-05 2.26822e-05 1.74117e-05 1.9325e-05 2.34984e-05 1.89637e-05 2.40014e-05 2.14161e-05 2.23016e-05 2.02134e-05 2.34445e-05 4.2839e-05 2.87931e-05 3.49382e-05 3.87162e-05 4.45014e-05 3.59484e-05 3.82456e-05 3.88624e-05 3.75943e-05 2.81206e-05 3.85168e-05 4.38292e-05 3.57685e-05 4.78844e-05 4.28196e-05 3.62238e-05 2.71353e-05 1.84687e-05 2.90871e-05 2.98011e-05 9.60689e-06 9.21002e-06 1.86225e-05 1.9758e-06 1.22149e-05 9.63152e-06 3.70637e-06 7.35565e-06 4.20182e-06 6.55899e-06 2.79847e-06 2.91217e-06 3.4553e-06 3.52872e-06 3.12535e-06 2.98662e-06 3.1428e-06 3.20297e-06 2.56117e-06 2.21113e-06 2.36097e-06 3.08233e-06 2.2358e-06 1.33027e-06 1.89599e-06 1.25876e-06 2.00579e-06 2.42396e-06 1.55507e-06 1.7821e-06 1.27944e-06 5.7234e-07 5.93824e-07 1.30876e-06 5.40974e-07 5.55582e-07 1.67517e-07 1.27974e-06 2.46886e-06 1.69476e-06 3.11847e-06 3.30458e-06 3.61173e-06 4.08089e-06 4.93119e-06 4.84313e-06 3.3044e-06 5.67473e-06 6.31126e-06 6.1188e-06 6.8388e-06 7.06232e-06 1.15179e-05 4.13103e-06 1.02468e-05 5.43055e-06 7.77588e-06 1.90742e-06 5.18209e-06 1.83731e-06 5.40457e-06 3.72418e-06 2.68183e-06 1.88151e-06 1.33862e-06 9.75175e-07 9.38583e-07 2.86793e-06 2.96829e-06 3.92224e-06 2.46893e-06 2.49956e-06 2.77538e-06 7.12177e-06 6.82716e-06 1.62691e-06 8.77104e-06 9.18479e-06 8.63325e-06 1.1071e-05 1.00564e-05 1.23054e-05 1.70703e-05 1.81115e-05 1.92659e-05 2.24278e-05 1.96391e-05 1.56408e-05 2.0118e-05 1.87625e-05 2.30709e-05 2.32838e-05 1.50418e-05 2.04975e-05 2.65454e-05 2.23315e-05 2.8532e-05 3.06013e-05 3.02e-05 3.05536e-05 3.11389e-05 2.48853e-05 2.46337e-05 2.78697e-05 2.74044e-05 3.2717e-05 4.3646e-05 4.01289e-05 4.01125e-05 4.5687e-05 2.67388e-05 4.38212e-05 4.31409e-05 1.62897e-05 1.20867e-05 1.44806e-05 2.30164e-05 1.40355e-05 1.53167e-05 1.14385e-05 1.23325e-05 1.052e-05 6.92681e-06 1.08701e-05 2.68585e-06 3.25126e-06 4.13927e-06 3.67397e-06 3.45705e-06 3.25852e-06 3.42663e-06 3.22514e-06 3.12519e-06 2.70171e-06 1.70364e-06 1.68018e-06 1.78498e-06 2.63463e-06 2.67987e-06 2.54842e-06 2.65195e-06 2.65613e-06 1.95314e-06 1.5743e-06 8.97324e-07 8.47866e-07 1.70503e-06 2.74188e-06 2.78026e-06 1.76693e-06 2.96502e-06 1.63972e-06 2.63484e-06 6.70133e-07 1.13241e-06 3.59347e-06 4.21572e-06 5.31526e-06 4.15926e-06 2.6265e-06 2.42594e-06 1.685e-06 2.49317e-06 3.01591e-06 3.75409e-06 5.77412e-06 5.74978e-06 7.0328e-06 8.29249e-06 4.37373e-06 1.48691e-06 2.35788e-06 4.92602e-06 2.25212e-06 1.41222e-06 4.11855e-06 1.80531e-06 4.03079e-06 3.94711e-06 4.30318e-06 5.06939e-06 3.70175e-06 6.44335e-06 6.09446e-06 8.39151e-06 9.98328e-06 1.06134e-05 1.19276e-05 9.60136e-06 1.14172e-05 1.11581e-05 1.07389e-05 1.73282e-05 1.04084e-05 6.8898e-06 1.61595e-05 1.72483e-05 1.357e-05 1.63569e-05 1.4455e-05 1.53566e-05 2.01752e-05 1.76966e-05 1.77746e-05 3.65818e-05 3.31809e-05 3.29526e-05 3.24274e-05 3.2446e-05 3.10023e-05 2.76201e-05 2.34561e-05 2.67863e-05 3.07569e-05 2.85473e-05 2.84731e-05 3.46649e-05 3.10911e-05 3.83886e-05 4.08794e-05 3.27451e-05 3.77597e-05 2.35756e-05 1.65302e-05 4.69315e-05 2.46202e-05 1.65758e-05 1.85293e-05 1.92335e-05 1.91116e-05 1.16516e-05 7.94951e-06 1.25031e-05 1.14776e-05 6.14357e-06 2.08138e-06 3.99359e-06 2.65877e-06 4.93823e-06 4.44093e-06 3.976e-06 3.6405e-06 4.06346e-06 3.5548e-06 4.06248e-06 2.83667e-06 2.37808e-06 1.58569e-06 1.75228e-06 2.76603e-06 2.19758e-06 2.71053e-06 2.79856e-06 3.34015e-06 2.4986e-06 1.47917e-06 7.2731e-07 1.07086e-06 1.19203e-06 2.04226e-06 2.58602e-06 3.60295e-06 2.85393e-06 3.46575e-06 2.74735e-06 1.96374e-06 1.80597e-06 9.69676e-07 1.34274e-06 1.21923e-06 2.90014e-06 2.44675e-06 2.85824e-06 1.8121e-06 2.68102e-06 1.84457e-06 2.58275e-06 3.22242e-06 2.48408e-06 6.34729e-06 6.09503e-06 3.15231e-06 1.63221e-06 5.10713e-06 8.70889e-06 4.3127e-06 2.55511e-06 3.58027e-06 4.83698e-06 4.42622e-06 8.65326e-07 1.23949e-06 3.99004e-06 4.77427e-06 2.97643e-06 3.58733e-06 2.81862e-06 4.63968e-06 5.39427e-06 6.86153e-06 8.70331e-06 9.13667e-06 1.15751e-05 9.89387e-06 9.36737e-06 9.04353e-06 7.36718e-06 4.92697e-06 5.38124e-06 3.1346e-06 4.449e-06 4.33134e-06 7.61594e-06 1.25893e-05 1.33428e-05 9.84456e-06 1.15656e-05 1.08439e-05 1.20287e-05 1.42895e-05 1.45838e-05 1.64032e-05 2.23628e-05 2.47162e-05 3.07337e-05 3.28255e-05 3.14113e-05 2.68851e-05 2.76144e-05 2.43677e-05 2.64878e-05 3.1737e-05 3.2281e-05 2.29417e-05 3.86256e-05 3.31734e-05 3.59934e-05 2.98597e-05 3.04915e-05 2.11669e-05 2.24804e-05 1.37598e-05 6.66447e-06 8.71973e-06 1.82229e-05 6.64159e-06 1.93854e-06 4.84362e-06 5.55419e-06 5.29336e-06 5.06473e-06 5.34741e-06 4.60992e-06 3.56884e-06 3.73721e-06 3.32498e-06 3.00104e-06 2.60953e-06 2.12696e-06 2.11124e-06 1.46768e-06 7.4473e-07 2.33329e-06 2.9283e-06 3.0101e-06 1.25401e-06 3.96986e-07 1.17419e-06 7.14915e-07 2.12103e-06 8.09966e-07 2.75369e-06 1.20276e-06 2.28739e-06 2.43581e-06 1.35506e-06 4.61019e-07 1.3823e-06 3.00166e-06 9.50476e-07 1.63407e-06 2.58063e-06 2.75054e-06 3.24079e-06 4.34693e-06 6.12592e-06 3.56631e-06 4.3005e-06 1.27922e-06 7.93582e-06 3.39242e-06 9.4546e-06 4.21444e-06 4.7518e-06 4.35435e-06 6.07564e-06 3.02065e-06 3.20732e-06 5.58577e-06 1.43093e-06 3.70247e-06 8.17316e-06 1.07067e-05 7.79315e-06 6.15739e-06 1.22759e-05 1.26399e-05 1.13043e-05 6.28939e-06 7.13682e-06 9.42998e-06 8.89421e-06 5.20953e-06 1.14551e-05 1.47829e-05 1.17064e-05 1.15723e-05 1.27598e-05 1.46355e-05 1.90156e-05 2.25538e-05 2.20341e-05 2.22796e-05 2.23245e-05 2.0107e-05 2.84184e-05 2.31422e-05 2.31218e-05 2.57053e-05 2.88729e-05 2.56745e-05 3.18736e-05 3.31353e-05 3.61717e-05 2.80606e-05 2.79892e-05 3.7311e-05 2.8021e-05 3.20835e-05 2.35981e-05 2.59673e-05 2.36891e-05 1.49318e-05 5.74892e-06 7.71241e-06 6.3406e-06 1.1516e-05 1.2532e-06 6.39375e-06 6.34306e-06 6.05209e-06 5.84281e-06 6.07292e-06 4.60888e-06 5.11335e-06 3.60063e-06 3.2332e-06 1.97037e-06 1.83669e-06 1.37716e-06 8.68413e-07 2.26811e-06 2.82331e-06 2.97226e-06 1.41325e-06 3.7599e-07 1.21801e-06 2.2116e-06 2.23263e-06 2.42361e-06 2.67097e-06 3.11025e-06 2.06383e-06 9.46244e-07 2.15344e-06 3.18179e-06 3.00018e-06 7.95682e-07 3.10435e-06 1.70214e-06 1.25108e-06 3.49461e-06 5.07893e-06 5.78919e-06 2.4401e-06 3.32511e-06 3.47482e-06 4.62085e-06 1.84616e-06 2.84173e-06 3.92612e-06 4.55796e-06 3.43218e-06 3.19162e-06 2.89098e-06 4.23019e-06 2.20666e-06 1.63653e-06 1.22981e-06 7.58165e-06 8.47564e-06 3.85306e-06 4.01444e-06 5.43356e-06 1.08484e-05 1.45481e-05 1.18648e-05 1.13924e-05 7.61067e-06 7.88499e-06 8.68736e-06 8.25815e-06 1.05991e-05 1.10623e-05 1.39783e-05 1.97756e-05 1.79305e-05 1.40575e-05 1.40544e-05 1.13638e-05 1.69605e-05 1.91677e-05 1.82705e-05 2.14674e-05 1.84556e-05 2.68456e-05 1.47714e-05 2.21012e-05 2.43298e-05 3.08603e-05 2.60671e-05 2.84102e-05 3.08843e-05 3.19541e-05 3.23156e-05 2.49995e-05 1.67464e-05 1.77941e-06 1.22379e-05 1.81386e-05 1.83144e-05 7.52929e-06 5.94578e-06 6.06177e-06 1.13345e-05 6.69907e-06 6.5735e-06 5.61605e-06 5.64392e-06 2.86428e-06 2.35964e-06 1.49431e-06 2.75959e-06 4.66772e-07 1.26524e-06 1.9511e-06 2.5988e-06 3.42678e-06 1.83795e-06 1.9024e-06 2.96411e-06 1.53173e-06 3.03118e-06 1.67848e-06 4.36265e-06 5.08035e-06 4.3816e-06 3.45902e-06 2.56475e-06 1.40482e-06 3.034e-06 3.56619e-06 1.89123e-06 2.10736e-06 2.9133e-06 2.80915e-06 4.18951e-06 1.74076e-06 1.31725e-06 8.59073e-07 3.25515e-06 5.63404e-06 6.18905e-06 4.97771e-06 4.23269e-06 1.79974e-06 1.83172e-06 2.03235e-06 2.86718e-06 1.19064e-06 5.04176e-06 4.13879e-06 2.96643e-06 1.98255e-06 1.96004e-06 4.70232e-06 8.35268e-06 2.48625e-06 2.62721e-06 5.47244e-06 1.45887e-05 2.73498e-06 1.23018e-05 1.07267e-05 1.56955e-05 1.3597e-05 9.89725e-06 1.27637e-05 2.79292e-05 1.65889e-05 2.28183e-05 1.17385e-05 1.86976e-05 1.68116e-05 1.28336e-05 1.52276e-05 1.5172e-05 1.61274e-05 1.63738e-05 2.11233e-05 2.09396e-05 8.29474e-06 6.30773e-06 1.34798e-05 1.82271e-05 2.74195e-05 2.39482e-05 2.83139e-05 3.22174e-05 3.14739e-05 3.39214e-05 2.42896e-05 2.82944e-05 1.71463e-05 2.15347e-05 5.31743e-06 5.34631e-06 3.01373e-05 2.55976e-05 6.15216e-06 7.01311e-06 6.64867e-06 5.66988e-06 6.73374e-06 1.84102e-06 1.66472e-06 4.26788e-06 1.69328e-06 1.89555e-06 1.85533e-06 7.41718e-06 2.35173e-06 2.29077e-06 1.93389e-06 1.27148e-06 5.24749e-07 4.81799e-07 2.63664e-06 3.67258e-06 3.36428e-06 3.30522e-06 2.61431e-06 3.85121e-06 3.22993e-06 3.22425e-06 3.99995e-06 3.85241e-06 3.36184e-06 1.53679e-06 6.24789e-06 4.60862e-06 3.59334e-06 6.17495e-06 6.62767e-06 5.82949e-06 6.4843e-06 4.91383e-06 2.29819e-06 2.21057e-06 3.01443e-06 2.45766e-06 4.13539e-06 4.86458e-06 3.5084e-06 1.46308e-06 1.13345e-06 3.92581e-06 7.06824e-06 3.87437e-06 4.42782e-06 2.19025e-06 7.33305e-07 3.58711e-06 1.25854e-05 1.36891e-05 1.6465e-05 2.69002e-05 1.49539e-05 1.02642e-05 1.03236e-05 8.21464e-06 7.67398e-06 9.38972e-06 2.96866e-05 3.08331e-05 3.37054e-05 2.19483e-05 1.49163e-05 1.64706e-05 2.20991e-05 1.88478e-05 1.1866e-05 1.27292e-05 6.35215e-06 5.04174e-06 2.98016e-06 5.35784e-06 1.74941e-05 2.37285e-05 2.46824e-05 2.09855e-05 2.83228e-05 2.44423e-05 3.64714e-05 2.90595e-05 3.10657e-05 4.17915e-05 3.11471e-05 3.57361e-05 9.65285e-06 6.00597e-06 1.21503e-05 5.40194e-06 6.56582e-06 5.9208e-06 1.63223e-06 2.37639e-06 3.73234e-06 3.83019e-06 2.76089e-05 7.42993e-06 6.67766e-06 3.20312e-05 3.03402e-05 2.0627e-05 
SCALARS Stress float 1
LOOKUP_TABLE default
-12550400000.0 -12550400000.0 -12550200000.0 -12551000000.0 -12549700000.0 -12552100000.0 -12551400000.0 -12551400000.0 -12549900000.0 -12550200000.0 -12549700000.0 -12549900000.0 -12549700000.0 -12549700000.0 -12550100000.0 -12549700000.0 -12549700000.0 -12549700000.0 -12549700000.0 -12549700000.0 -12549800000.0 -12550500000.0 -12550800000.0 -12550300000.0 -12550100000.0 -12550000000.0 -12549800000.0 -12549700000.0 -12549700000.0 -12549700000.0 -12549700000.0 -12549800000.0 -12550100000.0 -12550100000.0 -12550800000.0 -12550400000.0 -12550100000.0 -12549800000.0 -12549700000.0 -12550000000.0 -12550000000.0 -12549700000.0 -12550300000.0 -12549700000.0 -12549700000.0 -12550100000.0 -12551400000.0 -12551200000.0 -12550800000.0 -12549900000.0 -12550200000.0 -12550000000.0 -12551600000.0 -12551800000.0 -12549700000.0 -12549800000.0 -12550100000.0 -12550100000.0 -12551500000.0 -12550100000.0 -12552600000.0 -12551000000.0 -12550300000.0 -12550200000.0 -12550100000.0 -12551300000.0 -12552900000.0 -12551400000.0 -12554500000.0 -12559000000.0 -12555800000.0 -12557300000.0 -12556500000.0 -12555900000.0 -12555900000.0 -12554700000.0 -12550600000.0 -12550200000.0 -12549700000.0 -12550200000.0 -12551600000.0 -12551900000.0 -12550700000.0 -12550200000.0 -12550100000.0 -12551100000.0 -12551700000.0 -12557500000.0 -12556400000.0 -12556400000.0 -12552300000.0 -12554000000.0 -12549700000.0 -12551500000.0 -12550100000.0 -12561200000.0 -12557200000.0 -12559900000.0 -12562100000.0 -12567800000.0 -12570400000.0 -12565800000.0 -12552500000.0 -12551500000.0 -12551500000.0 -12549700000.0 -12550700000.0 -12549700000.0 -12549700000.0 -12551200000.0 -12549700000.0 -12549700000.0 -12550000000.0 -12549700000.0 -12550400000.0 -12549700000.0 -12552600000.0 -12549700000.0 -12549700000.0 -12549700000.0 -12549800000.0 -12549700000.0 -12549700000.0 -12549700000.0 -12549900000.0 -12550500000.0 -12550800000.0 -12552300000.0 -12552100000.0 -12554300000.0 -12553800000.0 -12551300000.0 -12550800000.0 -12550100000.0 -12551000000.0 -12551800000.0 -12551300000.0 -12551200000.0 -12550000000.0 -12550800000.0 -12553600000.0 -12550100000.0 -12551300000.0 -12552200000.0 -12551200000.0 -12551800000.0 -12551000000.0 -12550700000.0 -12549900000.0 -12552200000.0 -12551500000.0 -12557200000.0 -12549700000.0 -12549700000.0 -12549700000.0 -12550700000.0 -12550700000.0 -12554700000.0 -12550400000.0 -12551000000.0 -12549700000.0 -12555500000.0 -12551300000.0 -12549700000.0 -12549700000.0 -12550000000.0 -12550500000.0 -12551700000.0 -12550900000.0 -12550500000.0 -12549800000.0 -12556000000.0 -12558200000.0 -12560400000.0 -12560600000.0 -12565600000.0 -12550500000.0 -12550900000.0 -12550600000.0 -12571200000.0 -12549800000.0 -12554700000.0 -12554300000.0 -12552000000.0 -12552200000.0 -12557600000.0 -12558900000.0 -12549700000.0 -12551500000.0 -12549900000.0 -12554200000.0 -12572200000.0 -12557900000.0 -12556700000.0 -12556500000.0 -12562800000.0 -12565100000.0 -12562100000.0 -12553700000.0 -12549700000.0 -12572900000.0 -12566500000.0 -12566600000.0 -12567300000.0 -12559800000.0 -12550200000.0 -12566200000.0 -12555300000.0 -12558100000.0 -12554800000.0 -12555100000.0 -12554000000.0 -12550300000.0 -12552800000.0 -12549700000.0 -12549700000.0 -12550400000.0 -12549700000.0 -12551800000.0 -12549700000.0 -12553500000.0 -12549700000.0 -12550200000.0 -12549700000.0 -12550400000.0 -12550400000.0 -12550500000.0 -12550900000.0 -12551500000.0 -12552800000.0 -12556300000.0 -12558400000.0 -12551300000.0 -12556700000.0 -12555400000.0 -12553700000.0 -12555800000.0 -12549700000.0 -12549900000.0 -12553800000.0 -12549700000.0 -12551500000.0 -12555400000.0 -12550300000.0 -12549900000.0 -12549800000.0 -12556900000.0 -12553900000.0 -12550300000.0 -12550700000.0 -12554400000.0 -12566600000.0 -12556200000.0 -12554900000.0 -12553600000.0 -12558100000.0 -12559200000.0 -12573400000.0 -12567400000.0 -12568300000.0 -12567400000.0 -12555600000.0 -12558600000.0 -12561400000.0 -12561700000.0 -12558600000.0 -12561200000.0 -12557700000.0 -12558800000.0 -12553800000.0 -12564400000.0 -12590900000.0 -12611200000.0 -12555300000.0 -12553900000.0 -12556500000.0 -12553000000.0 -12600000000.0 -12579700000.0 -12575400000.0 -12561700000.0 -12562100000.0 -12560900000.0 -12578100000.0 -12564800000.0 -12561600000.0 -12556300000.0 -12573400000.0 -12550300000.0 -12553500000.0 -12551200000.0 -12558400000.0 -12552200000.0 -12566000000.0 -12563000000.0 -12563900000.0 -12564000000.0 -12549700000.0 -12578200000.0 -12551100000.0 -12558400000.0 -12576400000.0 -12557400000.0 -12564500000.0 -12570200000.0 -12552000000.0 -12557500000.0 -12549700000.0 -12551200000.0 -12555600000.0 -12552900000.0 -12553200000.0 -12554200000.0 -12551900000.0 -12552700000.0 -12551800000.0 -12556100000.0 -12553100000.0 -12556600000.0 -12551900000.0 -12551100000.0 -12550600000.0 -12549700000.0 -12549800000.0 -12550000000.0 -12550300000.0 -12553000000.0 -12549900000.0 -12551500000.0 -12554500000.0 -12556100000.0 -12555200000.0 -12553100000.0 -12565100000.0 -12563100000.0 -12558900000.0 -12565600000.0 -12563700000.0 -12564200000.0 -12569100000.0 -12569100000.0 -12561100000.0 -12558200000.0 -12556200000.0 -12564500000.0 -12551800000.0 -12550200000.0 -12552400000.0 -12558200000.0 -12550000000.0 -12555900000.0 -12553000000.0 -12561700000.0 -12582600000.0 -12556400000.0 -12553800000.0 -12557100000.0 -12552500000.0 -12571100000.0 -12549700000.0 -12549700000.0 -12560900000.0 -12549700000.0 -12570700000.0 -12571300000.0 -12565800000.0 -12564600000.0 -12560300000.0 -12585800000.0 -12584000000.0 -12565400000.0 -12582200000.0 -12595400000.0 -12556600000.0 -12621900000.0 -12617800000.0 -12612200000.0 -12625600000.0 -12550900000.0 -12550400000.0 -12573400000.0 -12575800000.0 -12584500000.0 -12570300000.0 -12583500000.0 -12564600000.0 -12559300000.0 -12555100000.0 -12579600000.0 -12560200000.0 -12573300000.0 -12584800000.0 -12587600000.0 -12602700000.0 -12564200000.0 -12560600000.0 -12551000000.0 -12550600000.0 -12597400000.0 -12553000000.0 -12568000000.0 -12593800000.0 -12557200000.0 -12554700000.0 -12568600000.0 -12560000000.0 -12562200000.0 -12551400000.0 -12551000000.0 -12561200000.0 -12557600000.0 -12552100000.0 -12555600000.0 -12551300000.0 -12551700000.0 -12549900000.0 -12554600000.0 -12549700000.0 -12554600000.0 -12558100000.0 -12553400000.0 -12551700000.0 -12552200000.0 -12551100000.0 -12549900000.0 -12552700000.0 -12551100000.0 -12561700000.0 -12557900000.0 -12554000000.0 -12551300000.0 -12567700000.0 -12572800000.0 -12551600000.0 -12560600000.0 -12552900000.0 -12552300000.0 -12564000000.0 -12551800000.0 -12556500000.0 -12565600000.0 -12581400000.0 -12556200000.0 -12552900000.0 -12561700000.0 -12551600000.0 -12560400000.0 -12564500000.0 -12553700000.0 -12592300000.0 -12564900000.0 -12554900000.0 -12564800000.0 -12553100000.0 -12549700000.0 -12550100000.0 -12551400000.0 -12566800000.0 -12597900000.0 -12552500000.0 -12550500000.0 -12575600000.0 -12573200000.0 -12551400000.0 -12556000000.0 -12593500000.0 -12585300000.0 -12574000000.0 -12592800000.0 -12597800000.0 -12580700000.0 -12554600000.0 -12577200000.0 -12573900000.0 -12619100000.0 -12594200000.0 -12550800000.0 -12549800000.0 -12580700000.0 -12551000000.0 -12621200000.0 -12625400000.0 -12632400000.0 -12617600000.0 -12591200000.0 -12596900000.0 -12587100000.0 -12552600000.0 -12559100000.0 -12599800000.0 -12551500000.0 -12578300000.0 -12570100000.0 -12559800000.0 -12588400000.0 -12550700000.0 -12582500000.0 -12552200000.0 -12598900000.0 -12561200000.0 -12576500000.0 -12576900000.0 -12573900000.0 -12569500000.0 -12560400000.0 -12564900000.0 -12551500000.0 -12551000000.0 -12561100000.0 -12574400000.0 -12574300000.0 -12572800000.0 -12572200000.0 -12571000000.0 -12568200000.0 -12579000000.0 -12573900000.0 -12572900000.0 -12576700000.0 -12580100000.0 -12567700000.0 -12568300000.0 -12562500000.0 -12566200000.0 -12549700000.0 -12551200000.0 -12554200000.0 -12550000000.0 -12580200000.0 -12555800000.0 -12562700000.0 -12560400000.0 -12549800000.0 -12553000000.0 -12551300000.0 -12549900000.0 -12567000000.0 -12563500000.0 -12575400000.0 -12578300000.0 -12577500000.0 -12580100000.0 -12598700000.0 -12581900000.0 -12574300000.0 -12604900000.0 -12569600000.0 -12577100000.0 -12593600000.0 -12577300000.0 -12581700000.0 -12568900000.0 -12578400000.0 -12587000000.0 -12594700000.0 -12647200000.0 -12595000000.0 -12599800000.0 -12567900000.0 -12568100000.0 -12582600000.0 -12563000000.0 -12587500000.0 -12590900000.0 -12566600000.0 -12608600000.0 -12559000000.0 -12583000000.0 -12576500000.0 -12558600000.0 -12602500000.0 -12594300000.0 -12583500000.0 -12668800000.0 -12635200000.0 -12566100000.0 -12565800000.0 -12604000000.0 -12575100000.0 -12571400000.0 -12575500000.0 -12549700000.0 -12568900000.0 -12560200000.0 -12550400000.0 -12617500000.0 -12585600000.0 -12580800000.0 -12573800000.0 -12626400000.0 -12587200000.0 -12636600000.0 -12600000000.0 -12577400000.0 -12571700000.0 -12577200000.0 -12558200000.0 -12554100000.0 -12561500000.0 -12553200000.0 -12552700000.0 -12578200000.0 -12557700000.0 -12549700000.0 -12550000000.0 -12559700000.0 -12558400000.0 -12563500000.0 -12555300000.0 -12552100000.0 -12557200000.0 -12549800000.0 -12550400000.0 -12563400000.0 -12564500000.0 -12568300000.0 -12567100000.0 -12578900000.0 -12574500000.0 -12561000000.0 -12564100000.0 -12589100000.0 -12553300000.0 -12557600000.0 -12551300000.0 -12554000000.0 -12557700000.0 -12563200000.0 -12556300000.0 -12556700000.0 -12572900000.0 -12572200000.0 -12552300000.0 -12557300000.0 -12563900000.0 -12551800000.0 -12565100000.0 -12551800000.0 -12571200000.0 -12572500000.0 -12566900000.0 -12602000000.0 -12555200000.0 -12585700000.0 -12568100000.0 -12553400000.0 -12571600000.0 -12565400000.0 -12549700000.0 -12550300000.0 -12558000000.0 -12624200000.0 -12568000000.0 -12567000000.0 -12587300000.0 -12622100000.0 -12629400000.0 -12649700000.0 -12628500000.0 -12619700000.0 -12616400000.0 -12675000000.0 -12581100000.0 -12659800000.0 -12681500000.0 -12571000000.0 -12658200000.0 -12704600000.0 -12628200000.0 -12617200000.0 -12683200000.0 -12568000000.0 -12570100000.0 -12579900000.0 -12588600000.0 -12578200000.0 -12576800000.0 -12588500000.0 -12556500000.0 -12580100000.0 -12549700000.0 -12556800000.0 -12614800000.0 -12552600000.0 -12552400000.0 -12550500000.0 -12583900000.0 -12549700000.0 -12676600000.0 -12668100000.0 -12576300000.0 -12664000000.0 -12615700000.0 -12612500000.0 -12601300000.0 -12594900000.0 -12605200000.0 -12613400000.0 -12585800000.0 -12589000000.0 -12585100000.0 -12578200000.0 -12576300000.0 -12570600000.0 -12562400000.0 -12553700000.0 -12568000000.0 -12553500000.0 -12559200000.0 -12561300000.0 -12560400000.0 -12562800000.0 -12549800000.0 -12555700000.0 -12551300000.0 -12558800000.0 -12570700000.0 -12566100000.0 -12571300000.0 -12580600000.0 -12556700000.0 -12553300000.0 -12556200000.0 -12562600000.0 -12550400000.0 -12560700000.0 -12553000000.0 -12565200000.0 -12554800000.0 -12562300000.0 -12558400000.0 -12556700000.0 -12565500000.0 -12556200000.0 -12549900000.0 -12556800000.0 -12561900000.0 -12564800000.0 -12607600000.0 -12616000000.0 -12609400000.0 -12639100000.0 -12568200000.0 -12574700000.0 -12565000000.0 -12553700000.0 -12570100000.0 -12553600000.0 -12549700000.0 -12560200000.0 -12557000000.0 -12648800000.0 -12561800000.0 -12568500000.0 -12578300000.0 -12629400000.0 -12549700000.0 -12583000000.0 -12570200000.0 -12550600000.0 -12593800000.0 -12573900000.0 -12586200000.0 -12644900000.0 -12617000000.0 -12650000000.0 -12599100000.0 -12573900000.0 -12691700000.0 -12584700000.0 -12629600000.0 -12613500000.0 -12738400000.0 -12549900000.0 -12551700000.0 -12578700000.0 -12625500000.0 -12572500000.0 -12611000000.0 -12585900000.0 -12594700000.0 -12627300000.0 -12549700000.0 -12553900000.0 -12550000000.0 -12574000000.0 -12581800000.0 -12549700000.0 -12549700000.0 -12669300000.0 -12644100000.0 -12577100000.0 -12564800000.0 -12554700000.0 -12553800000.0 -12611300000.0 -12557600000.0 -12608200000.0 -12549700000.0 -12573300000.0 -12573300000.0 -12551100000.0 -12552200000.0 -12556600000.0 -12553700000.0 -12553400000.0 -12560900000.0 -12561500000.0 -12567900000.0 -12550600000.0 -12564200000.0 -12560900000.0 -12551700000.0 -12556400000.0 -12556500000.0 -12568100000.0 -12567300000.0 -12553400000.0 -12565700000.0 -12566100000.0 -12572400000.0 -12585300000.0 -12569100000.0 -12577200000.0 -12554300000.0 -12569500000.0 -12572300000.0 -12556000000.0 -12598700000.0 -12594900000.0 -12588200000.0 -12581800000.0 -12588700000.0 -12595900000.0 -12597700000.0 -12587700000.0 -12597300000.0 -12624500000.0 -12549700000.0 -12579600000.0 -12581800000.0 -12612900000.0 -12617300000.0 -12611900000.0 -12603700000.0 -12551200000.0 -12562800000.0 -12608600000.0 -12595300000.0 -12587000000.0 -12589400000.0 -12604400000.0 -12602600000.0 -12551100000.0 -12557700000.0 -12563600000.0 -12571400000.0 -12550100000.0 -12591500000.0 -12582600000.0 -12560600000.0 -12606200000.0 -12588100000.0 -12549700000.0 -12597300000.0 -12621600000.0 -12606200000.0 -12622700000.0 -12568100000.0 -12589100000.0 -12616700000.0 -12581200000.0 -12594700000.0 -12756700000.0 -12549700000.0 -12612200000.0 -12626000000.0 -12577100000.0 -12550000000.0 -12553300000.0 -12626700000.0 -12574800000.0 -12578500000.0 -12550500000.0 -12615000000.0 -12578100000.0 -12562100000.0 -12591800000.0 -12556000000.0 -12581800000.0 -12620400000.0 -12641400000.0 -12550400000.0 -12626300000.0 -12594800000.0 -12553100000.0 -12560100000.0 -12608800000.0 -12569100000.0 -12575100000.0 -12550200000.0 -12549900000.0 -12570100000.0 -12561000000.0 -12552200000.0 -12550600000.0 -12549700000.0 -12561800000.0 -12564500000.0 -12566200000.0 -12561100000.0 -12550300000.0 -12560100000.0 -12554500000.0 -12563600000.0 -12561900000.0 -12549700000.0 -12551600000.0 -12553600000.0 -12549700000.0 -12568500000.0 -12574000000.0 -12584800000.0 -12549700000.0 -12574800000.0 -12551500000.0 -12590100000.0 -12574600000.0 -12549700000.0 -12549700000.0 -12565200000.0 -12549900000.0 -12573900000.0 -12589200000.0 -12549700000.0 -12549700000.0 -12551400000.0 -12570500000.0 -12570800000.0 -12579600000.0 -12610500000.0 -12549700000.0 -12582300000.0 -12551500000.0 -12554100000.0 -12608100000.0 -12584900000.0 -12578300000.0 -12625500000.0 -12562300000.0 -12553200000.0 -12565700000.0 -12554000000.0 -12575700000.0 -12552400000.0 -12607500000.0 -12560800000.0 -12584900000.0 -12566700000.0 -12588400000.0 -12617600000.0 -12606100000.0 -12612800000.0 -12689500000.0 -12654400000.0 -12650900000.0 -12561900000.0 -12646300000.0 -12671000000.0 -12665300000.0 -12673900000.0 -12687000000.0 -12700400000.0 -12754700000.0 -12608800000.0 -12590400000.0 -12795300000.0 -12829000000.0 -12667600000.0 -12589000000.0 -12590700000.0 -12624400000.0 -12576100000.0 -12572800000.0 -12567600000.0 -12613100000.0 -12549800000.0 -12589600000.0 -12597900000.0 -12558700000.0 -12556800000.0 -12565300000.0 -12567500000.0 -12556900000.0 -12554700000.0 -12637700000.0 -12601600000.0 -12550300000.0 -12551700000.0 -12564000000.0 -12603700000.0 -12549700000.0 -12564200000.0 -12565900000.0 -12553300000.0 -12555300000.0 -12554600000.0 -12551700000.0 -12550100000.0 -12564200000.0 -12556600000.0 -12556300000.0 -12563400000.0 -12553900000.0 -12576700000.0 -12558800000.0 -12553500000.0 -12562700000.0 -12558200000.0 -12554400000.0 -12559300000.0 -12549900000.0 -12555000000.0 -12554100000.0 -12550000000.0 -12551100000.0 -12549700000.0 -12579200000.0 -12549900000.0 -12565700000.0 -12563700000.0 -12573500000.0 -12583100000.0 -12549800000.0 -12550100000.0 -12564900000.0 -12563800000.0 -12584500000.0 -12551600000.0 -12552100000.0 -12558500000.0 -12565600000.0 -12571100000.0 -12560200000.0 -12621600000.0 -12560900000.0 -12602300000.0 -12579400000.0 -12603100000.0 -12555800000.0 -12682500000.0 -12644600000.0 -12648600000.0 -12637400000.0 -12599600000.0 -12577500000.0 -12582700000.0 -12582000000.0 -12580800000.0 -12579200000.0 -12643300000.0 -12621500000.0 -12562800000.0 -12579100000.0 -12586700000.0 -12558600000.0 -12639800000.0 -12591300000.0 -12575600000.0 -12580700000.0 -12555400000.0 -12640500000.0 -12615100000.0 -12607500000.0 -12560100000.0 -12626300000.0 -12563400000.0 -12552500000.0 -12683800000.0 -12679800000.0 -12654200000.0 -12709500000.0 -12549700000.0 -12644400000.0 -12641000000.0 -12549700000.0 -12671700000.0 -12557800000.0 -12608900000.0 -12552300000.0 -12550800000.0 -12609700000.0 -12558700000.0 -12579200000.0 -12558900000.0 -12610500000.0 -12553100000.0 -12571400000.0 -12575400000.0 -12567300000.0 -12574100000.0 -12622100000.0 -12597500000.0 -12593500000.0 -12561100000.0 -12615100000.0 -12578900000.0 -12577500000.0 -12585900000.0 -12576900000.0 -12574900000.0 -12565700000.0 -12557400000.0 -12559800000.0 -12569500000.0 -12550800000.0 -12584600000.0 -12563300000.0 -12564500000.0 -12572600000.0 -12566600000.0 -12568300000.0 -12567400000.0 -12554800000.0 -12549700000.0 -12555700000.0 -12554800000.0 -12551700000.0 -12583700000.0 -12551000000.0 -12557500000.0 -12558400000.0 -12579400000.0 -12581100000.0 -12564300000.0 -12571800000.0 -12558000000.0 -12550800000.0 -12582100000.0 -12549700000.0 -12549800000.0 -12557600000.0 -12558900000.0 -12577200000.0 -12566300000.0 -12610600000.0 -12549700000.0 -12607400000.0 -12617100000.0 -12645300000.0 -12603900000.0 -12558900000.0 -12611100000.0 -12601600000.0 -12589900000.0 -12593300000.0 -12556000000.0 -12567400000.0 -12565600000.0 -12559100000.0 -12594800000.0 -12549700000.0 -12648000000.0 -12627100000.0 -12636600000.0 -12631600000.0 -12549700000.0 -12714600000.0 -12591200000.0 -12599200000.0 -12553800000.0 -12684600000.0 -12570800000.0 -12581700000.0 -12617400000.0 -12574300000.0 -12571700000.0 -12669700000.0 -12557100000.0 -12717400000.0 -12581800000.0 -12722400000.0 -12646400000.0 -12695500000.0 -12722900000.0 -12806400000.0 -12825400000.0 -12792800000.0 -12776100000.0 -12804600000.0 -12796800000.0 -12813800000.0 -12800600000.0 -12703800000.0 -12611000000.0 -12663500000.0 -12656000000.0 -12669600000.0 -12712600000.0 -12617100000.0 -12550100000.0 -12605200000.0 -12576800000.0 -12573000000.0 -12563000000.0 -12560000000.0 -12558800000.0 -12561400000.0 -12552400000.0 -12552400000.0 -12553600000.0 -12577400000.0 -12575900000.0 -12567900000.0 -12565400000.0 -12566500000.0 -12579700000.0 -12602500000.0 -12553600000.0 -12559000000.0 -12562200000.0 -12549700000.0 -12556600000.0 -12568000000.0 -12552000000.0 -12579900000.0 -12580200000.0 -12579900000.0 -12588200000.0 -12572200000.0 -12575300000.0 -12573400000.0 -12578600000.0 -12591400000.0 -12569400000.0 -12553500000.0 -12561200000.0 -12560500000.0 -12563000000.0 -12572800000.0 -12586200000.0 -12579100000.0 -12578300000.0 -12610500000.0 -12567000000.0 -12576200000.0 -12612100000.0 -12549700000.0 -12549700000.0 -12679400000.0 -12676500000.0 -12632600000.0 -12599400000.0 -12618400000.0 -12558200000.0 -12563400000.0 -12602000000.0 -12619800000.0 -12596900000.0 -12593400000.0 -12618500000.0 -12669700000.0 -12565500000.0 -12550700000.0 -12563100000.0 -12616700000.0 -12679700000.0 -12573600000.0 -12621600000.0 -12550000000.0 -12549700000.0 -12611700000.0 -12638900000.0 -12754000000.0 -12635800000.0 -12570900000.0 -12594800000.0 -12561600000.0 -12580600000.0 -12582100000.0 -12567500000.0 -12738900000.0 -12633200000.0 -12676700000.0 -12564500000.0 -12558000000.0 -12605200000.0 -12552200000.0 -12572700000.0 -12580300000.0 -12562500000.0 -12589800000.0 -12637100000.0 -12607400000.0 -12621300000.0 -12600000000.0 -12561400000.0 -12550100000.0 -12550100000.0 -12552000000.0 -12549700000.0 -12649700000.0 -12636500000.0 -12566700000.0 -12551400000.0 -12563600000.0 -12565400000.0 -12565400000.0 -12553600000.0 -12558700000.0 -12551500000.0 -12550500000.0 -12562100000.0 -12553800000.0 -12554400000.0 -12553700000.0 -12557300000.0 -12560400000.0 -12549700000.0 -12586900000.0 -12577900000.0 -12571700000.0 -12581200000.0 -12576200000.0 -12574300000.0 -12578400000.0 -12558300000.0 -12561000000.0 -12551500000.0 -12557700000.0 -12581800000.0 -12566700000.0 -12557000000.0 -12550700000.0 -12597000000.0 -12554000000.0 -12550200000.0 -12550700000.0 -12556100000.0 -12551300000.0 -12595700000.0 -12553000000.0 -12568300000.0 -12568400000.0 -12613500000.0 -12557800000.0 -12557500000.0 -12556400000.0 -12621400000.0 -12644200000.0 -12689100000.0 -12550900000.0 -12551700000.0 -12666200000.0 -12634900000.0 -12560400000.0 -12580400000.0 -12579000000.0 -12551300000.0 -12553500000.0 -12553900000.0 -12558800000.0 -12568400000.0 -12656500000.0 -12568700000.0 -12647600000.0 -12600100000.0 -12620100000.0 -12557400000.0 -12677400000.0 -12608300000.0 -12646300000.0 -12601500000.0 -12616000000.0 -12628600000.0 -12614500000.0 -12603900000.0 -12645800000.0 -12585300000.0 -12551200000.0 -12588800000.0 -12568600000.0 -12556200000.0 -12626200000.0 -12635400000.0 -12592300000.0 -12685500000.0 -12647000000.0 -12636400000.0 -12592700000.0 -12587400000.0 -12553700000.0 -12639400000.0 -12637000000.0 -12584100000.0 -12563000000.0 -12618400000.0 -12560500000.0 -12551300000.0 -12550200000.0 -12551700000.0 -12550200000.0 -12567000000.0 -12654600000.0 -12617700000.0 -12572100000.0 -12567500000.0 -12559900000.0 -12580500000.0 -12569600000.0 -12556900000.0 -12555700000.0 -12563400000.0 -12550700000.0 -12552000000.0 -12549900000.0 -12553800000.0 -12557200000.0 -12552700000.0 -12576800000.0 -12552500000.0 -12551100000.0 -12550100000.0 -12555000000.0 -12555800000.0 -12549800000.0 -12565000000.0 -12558900000.0 -12565400000.0 -12587100000.0 -12610500000.0 -12563900000.0 -12550100000.0 -12550000000.0 -12594800000.0 -12564500000.0 -12566800000.0 -12558900000.0 -12552900000.0 -12555900000.0 -12600400000.0 -12554800000.0 -12561100000.0 -12550200000.0 -12598100000.0 -12655600000.0 -12636200000.0 -12636400000.0 -12653900000.0 -12651200000.0 -12678800000.0 -12553300000.0 -12550100000.0 -12698700000.0 -12618500000.0 -12553300000.0 -12551200000.0 -12570300000.0 -12556200000.0 -12557900000.0 -12570000000.0 -12563000000.0 -12561300000.0 -12577300000.0 -12674800000.0 -12609500000.0 -12597500000.0 -12685400000.0 -12589900000.0 -12580600000.0 -12577900000.0 -12654100000.0 -12558300000.0 -12555800000.0 -12577300000.0 -12550000000.0 -12628700000.0 -12551200000.0 -12598100000.0 -12646000000.0 -12576900000.0 -12581100000.0 -12603000000.0 -12641400000.0 -12669100000.0 -12634700000.0 -12682700000.0 -12586300000.0 -12574500000.0 -12607800000.0 -12660200000.0 -12667100000.0 -12683600000.0 -12612300000.0 -12623600000.0 -12619100000.0 -12609400000.0 -12620000000.0 -12558400000.0 -12551800000.0 -12553300000.0 -12554000000.0 -12563800000.0 -12624300000.0 -12616900000.0 -12563600000.0 -12558600000.0 -12575600000.0 -12567800000.0 -12560700000.0 -12564400000.0 -12568700000.0 -12564800000.0 -12565600000.0 -12566800000.0 -12566600000.0 -12558900000.0 -12557700000.0 -12581300000.0 -12551100000.0 -12549800000.0 -12556000000.0 -12550300000.0 -12554600000.0 -12549700000.0 -12559900000.0 -12563800000.0 -12561100000.0 -12573200000.0 -12574700000.0 -12564400000.0 -12570400000.0 -12593000000.0 -12552600000.0 -12554200000.0 -12559900000.0 -12550600000.0 -12551900000.0 -12614100000.0 -12568700000.0 -12578200000.0 -12598100000.0 -12550300000.0 -12591800000.0 -12556000000.0 -12565600000.0 -12717800000.0 -12567100000.0 -12701200000.0 -12549900000.0 -12549700000.0 -12641700000.0 -12682800000.0 -12551900000.0 -12555500000.0 -12597000000.0 -12571700000.0 -12554300000.0 -12593000000.0 -12551700000.0 -12692000000.0 -12675200000.0 -12549700000.0 -12553700000.0 -12603400000.0 -12550000000.0 -12569800000.0 -12584900000.0 -12648500000.0 -12555300000.0 -12555000000.0 -12579400000.0 -12590100000.0 -12629900000.0 -12577700000.0 -12564500000.0 -12633600000.0 -12599300000.0 -12588300000.0 -12643500000.0 -12608500000.0 -12583500000.0 -12658900000.0 -12618300000.0 -12646300000.0 -12631200000.0 -12550400000.0 -12567400000.0 -12600900000.0 -12549700000.0 -12580600000.0 -12575300000.0 -12593300000.0 -12560600000.0 -12599400000.0 -12556500000.0 -12551500000.0 -12553500000.0 -12554100000.0 -12550200000.0 -12550800000.0 -12558300000.0 -12579200000.0 -12608900000.0 -12597600000.0 -12549800000.0 -12549700000.0 -12573700000.0 -12558800000.0 -12554200000.0 -12558100000.0 -12551400000.0 -12556200000.0 -12552200000.0 -12552900000.0 -12554200000.0 -12550600000.0 -12549700000.0 -12569400000.0 -12559900000.0 -12567200000.0 -12566400000.0 -12567600000.0 -12571400000.0 -12572800000.0 -12557200000.0 -12553400000.0 -12553400000.0 -12554900000.0 -12556600000.0 -12570300000.0 -12559500000.0 -12582600000.0 -12564700000.0 -12582800000.0 -12550900000.0 -12561200000.0 -12549700000.0 -12558300000.0 -12584900000.0 -12638300000.0 -12550800000.0 -12586300000.0 -12597000000.0 -12601000000.0 -12578300000.0 -12586500000.0 -12577300000.0 -12833200000.0 -12608200000.0 -12613500000.0 -12643100000.0 -12615700000.0 -12609700000.0 -12680100000.0 -12579700000.0 -12560100000.0 -12613000000.0 -12574000000.0 -12701400000.0 -12611100000.0 -12586300000.0 -12576900000.0 -12583900000.0 -12603200000.0 -12584700000.0 -12573000000.0 -12573400000.0 -12625900000.0 -12572500000.0 -12568300000.0 -12622600000.0 -12602900000.0 -12549700000.0 -12608800000.0 -12550000000.0 -12590800000.0 -12575200000.0 -12624400000.0 -12598900000.0 -12581000000.0 -12629800000.0 -12574100000.0 -12552200000.0 -12549900000.0 -12640400000.0 -12580100000.0 -12601300000.0 -12551000000.0 -12606300000.0 -12645000000.0 -12640900000.0 -12651300000.0 -12549700000.0 -12561600000.0 -12585100000.0 -12599800000.0 -12555800000.0 -12592200000.0 -12554700000.0 -12551600000.0 -12553300000.0 -12553500000.0 -12552400000.0 -12555600000.0 -12586100000.0 -12550600000.0 -12579100000.0 -12589000000.0 -12562400000.0 -12563000000.0 -12555900000.0 -12554400000.0 -12557700000.0 -12553700000.0 -12558500000.0 -12555400000.0 -12561600000.0 -12559000000.0 -12558700000.0 -12561200000.0 -12561200000.0 -12552600000.0 -12551400000.0 -12549700000.0 -12550100000.0 -12552400000.0 -12552000000.0 -12570800000.0 -12566400000.0 -12562700000.0 -12566500000.0 -12583700000.0 -12549700000.0 -12574600000.0 -12575300000.0 -12566600000.0 -12581000000.0 -12570000000.0 -12594300000.0 -12600600000.0 -12549700000.0 -12620600000.0 -12592300000.0 -12550800000.0 -12565700000.0 -12562000000.0 -12593000000.0 -12549900000.0 -12599600000.0 -12614200000.0 -12588000000.0 -12879900000.0 -12642000000.0 -12603200000.0 -12671300000.0 -12765700000.0 -12693700000.0 -12685300000.0 -12641700000.0 -12643700000.0 -12709200000.0 -12550300000.0 -12553400000.0 -12554700000.0 -12549700000.0 -12625500000.0 -12571900000.0 -12589200000.0 -12569900000.0 -12581000000.0 -12596600000.0 -12607200000.0 -12567500000.0 -12552100000.0 -12549700000.0 -12549900000.0 -12550500000.0 -12570800000.0 -12595100000.0 -12584200000.0 -12568800000.0 -12617100000.0 -12579700000.0 -12612600000.0 -12560900000.0 -12559400000.0 -12552500000.0 -12576000000.0 -12567400000.0 -12574000000.0 -12551300000.0 -12638100000.0 -12651600000.0 -12646200000.0 -12657100000.0 -12612000000.0 -12552200000.0 -12549700000.0 -12552600000.0 -12550400000.0 -12550200000.0 -12550900000.0 -12568800000.0 -12562100000.0 -12574300000.0 -12551300000.0 -12574600000.0 -12564300000.0 -12551000000.0 -12551000000.0 -12553500000.0 -12553400000.0 -12550600000.0 -12557800000.0 -12551600000.0 -12550400000.0 -12551300000.0 -12551200000.0 -12552600000.0 -12554500000.0 -12550200000.0 -12549800000.0 -12549800000.0 -12549700000.0 -12549800000.0 -12560900000.0 -12559700000.0 -12550000000.0 -12550700000.0 -12572700000.0 -12562300000.0 -12584000000.0 -12585800000.0 -12576700000.0 -12552000000.0 -12568500000.0 -12555400000.0 -12552100000.0 -12597900000.0 -12621900000.0 -12575200000.0 -12549700000.0 -12560900000.0 -12563000000.0 -12602100000.0 -12565000000.0 -12639100000.0 -12664000000.0 -12763200000.0 -12550600000.0 -12706800000.0 -12728900000.0 -12601100000.0 -12645400000.0 -12604200000.0 -12608400000.0 -12643600000.0 -12692600000.0 -12602900000.0 -12616300000.0 -12635300000.0 -12563500000.0 -12557600000.0 -12618400000.0 -12554400000.0 -12553000000.0 -12559700000.0 -12558300000.0 -12567600000.0 -12572600000.0 -12574300000.0 -12549700000.0 -12556000000.0 -12568400000.0 -12556900000.0 -12557300000.0 -12587500000.0 -12552400000.0 -12602000000.0 -12558500000.0 -12596900000.0 -12549700000.0 -12596800000.0 -12580700000.0 -12567600000.0 -12577700000.0 -12566100000.0 -12558100000.0 -12577700000.0 -12577300000.0 -12584400000.0 -12625100000.0 -12589100000.0 -12591500000.0 -12689600000.0 -12605900000.0 -12592500000.0 -12551500000.0 -12549700000.0 -12552600000.0 -12550400000.0 -12550200000.0 -12554500000.0 -12552700000.0 -12550100000.0 -12555400000.0 -12570300000.0 -12549700000.0 -12557500000.0 -12560200000.0 -12552900000.0 -12550200000.0 -12551500000.0 -12549700000.0 -12553300000.0 -12558200000.0 -12550500000.0 -12550200000.0 -12549700000.0 -12550100000.0 -12551100000.0 -12549700000.0 -12551800000.0 -12549800000.0 -12549700000.0 -12550000000.0 -12550100000.0 -12554400000.0 -12554200000.0 -12567100000.0 -12566700000.0 -12588600000.0 -12556700000.0 -12554400000.0 -12557900000.0 -12621800000.0 -12597600000.0 -12596900000.0 -12593500000.0 -12602800000.0 -12621200000.0 -12549800000.0 -12615100000.0 -12575600000.0 -12581700000.0 -12596500000.0 -12575000000.0 -12671500000.0 -12552000000.0 -12611400000.0 -12709700000.0 -12690900000.0 -12677200000.0 -12689200000.0 -12557800000.0 -12636000000.0 -12622900000.0 -12652700000.0 -12578600000.0 -12595200000.0 -12549700000.0 -12705600000.0 -12618300000.0 -12553100000.0 -12626500000.0 -12616000000.0 -12552700000.0 -12553700000.0 -12551900000.0 -12560400000.0 -12563800000.0 -12567900000.0 -12571800000.0 -12569800000.0 -12549700000.0 -12564900000.0 -12550100000.0 -12554800000.0 -12554700000.0 -12572600000.0 -12567700000.0 -12567500000.0 -12558500000.0 -12574200000.0 -12564800000.0 -12590700000.0 -12563600000.0 -12557900000.0 -12562400000.0 -12567500000.0 -12566500000.0 -12566500000.0 -12571700000.0 -12568000000.0 -12549900000.0 -12549700000.0 -12632000000.0 -12571100000.0 -12552900000.0 -12557900000.0 -12558400000.0 -12557800000.0 -12557800000.0 -12555800000.0 -12556100000.0 -12556100000.0 -12550900000.0 -12564900000.0 -12566900000.0 -12564700000.0 -12557100000.0 -12557800000.0 -12557700000.0 -12556100000.0 -12553900000.0 -12554900000.0 -12549700000.0 -12549700000.0 -12550100000.0 -12549700000.0 -12551000000.0 -12550300000.0 -12550100000.0 -12551100000.0 -12550100000.0 -12549700000.0 -12551900000.0 -12550600000.0 -12564100000.0 -12549800000.0 -12550200000.0 -12562000000.0 -12592500000.0 -12581900000.0 -12590500000.0 -12615300000.0 -12562700000.0 -12551600000.0 -12569800000.0 -12565900000.0 -12675700000.0 -12605200000.0 -12645800000.0 -12643900000.0 -12646300000.0 -12592300000.0 -12646900000.0 -12553200000.0 -12580100000.0 -12575700000.0 -12735600000.0 -12872500000.0 -12566500000.0 -12563400000.0 -12703800000.0 -12575100000.0 -12671900000.0 -12556000000.0 -12577600000.0 -12549700000.0 -12659100000.0 -12584300000.0 -12563400000.0 -12582500000.0 -12616600000.0 -12569400000.0 -12570100000.0 -12567600000.0 -12567400000.0 -12558400000.0 -12573800000.0 -12557500000.0 -12565400000.0 -12549900000.0 -12553400000.0 -12559300000.0 -12551800000.0 -12553100000.0 -12577500000.0 -12556800000.0 -12558500000.0 -12549700000.0 -12569800000.0 -12583700000.0 -12549700000.0 -12560400000.0 -12550500000.0 -12550000000.0 -12549700000.0 -12556400000.0 -12552400000.0 -12578900000.0 -12583300000.0 -12586900000.0 -12556900000.0 -12573700000.0 -12613500000.0 -12570100000.0 -12564000000.0 -12552800000.0 -12549700000.0 -12549700000.0 -12551600000.0 -12550900000.0 -12550400000.0 -12551300000.0 -12550900000.0 -12550400000.0 -12551000000.0 -12555000000.0 -12554100000.0 -12550800000.0 -12551400000.0 -12551500000.0 -12552100000.0 -12553700000.0 -12554900000.0 -12552000000.0 -12551800000.0 -12552500000.0 -12552900000.0 -12554300000.0 -12553300000.0 -12553900000.0 -12554000000.0 -12552500000.0 -12555200000.0 -12557500000.0 -12560300000.0 -12578900000.0 -12570900000.0 -12571300000.0 -12585200000.0 -12553700000.0 -12565000000.0 -12550700000.0 -12611600000.0 -12593800000.0 -12567200000.0 -12552600000.0 -12558100000.0 -12636900000.0 -12577600000.0 -12554000000.0 -12556100000.0 -12679100000.0 -12549700000.0 -12623500000.0 -12590600000.0 -12549900000.0 -12746500000.0 -12558800000.0 -12776800000.0 -12553500000.0 -12550100000.0 -12690500000.0 -12552400000.0 -12680200000.0 -12604200000.0 -12612600000.0 -12653300000.0 -12617700000.0 -12615000000.0 -12625600000.0 -12615600000.0 -12571900000.0 -12565600000.0 -12567500000.0 -12566700000.0 -12583900000.0 -12588400000.0 -12568300000.0 -12563100000.0 -12567400000.0 -12564300000.0 -12560000000.0 -12557900000.0 -12557800000.0 -12574900000.0 -12556800000.0 -12556100000.0 -12563300000.0 -12566800000.0 -12601000000.0 -12558300000.0 -12556500000.0 -12578100000.0 -12570800000.0 -12565700000.0 -12566100000.0 -12565300000.0 -12554500000.0 -12560900000.0 -12550000000.0 -12556700000.0 -12593300000.0 -12558000000.0 -12562200000.0 -12551600000.0 -12550000000.0 -12551000000.0 -12549700000.0 -12549700000.0 -12549700000.0 -12550700000.0 -12550100000.0 -12549700000.0 -12549700000.0 -12551000000.0 -12551800000.0 -12549700000.0 -12549700000.0 -12549700000.0 -12549700000.0 -12549700000.0 -12551100000.0 -12553800000.0 -12553500000.0 -12553200000.0 -12553000000.0 -12552300000.0 -12552700000.0 -12551900000.0 -12553400000.0 -12555600000.0 -12559200000.0 -12562800000.0 -12575100000.0 -12552800000.0 -12557900000.0 -12555200000.0 -12579300000.0 -12565400000.0 -12562300000.0 -12570200000.0 -12594200000.0 -12549900000.0 -12601800000.0 -12580100000.0 -12584500000.0 -12602100000.0 -12612100000.0 -12551100000.0 -12559100000.0 -12692900000.0 -12638100000.0 -12576000000.0 -12597900000.0 -12750000000.0 -12562400000.0 -12578800000.0 -12550200000.0 -12552100000.0 -12770900000.0 -12660800000.0 -12682900000.0 -12567000000.0 -12612200000.0 -12587100000.0 -12591100000.0 -12567700000.0 -12551000000.0 -12549700000.0 -12571900000.0 -12574400000.0 -12582400000.0 -12582700000.0 -12586600000.0 -12572200000.0 -12592900000.0 -12579100000.0 -12552000000.0 -12556500000.0 -12550900000.0 -12552600000.0 -12549700000.0 -12550100000.0 -12549700000.0 -12564800000.0 -12553700000.0 -12555100000.0 -12555200000.0 -12557500000.0 -12583100000.0 -12556300000.0 -12556200000.0 -12557600000.0 -12553400000.0 -12556600000.0 -12564100000.0 -12549700000.0 -12551300000.0 -12558400000.0 -12550000000.0 -12575400000.0 -12569700000.0 -12562500000.0 -12560500000.0 -12550200000.0 -12549900000.0 -12550400000.0 -12549700000.0 -12549700000.0 -12549800000.0 -12550400000.0 -12550000000.0 -12549700000.0 -12549700000.0 -12549700000.0 -12550700000.0 -12549700000.0 -12549700000.0 -12549700000.0 -12549800000.0 -12549700000.0 -12551000000.0 -12550100000.0 -12550100000.0 -12549700000.0 -12550200000.0 -12550900000.0 -12550800000.0 -12552400000.0 -12553400000.0 -12553300000.0 -12552700000.0 -12558000000.0 -12561100000.0 -12553800000.0 -12562200000.0 -12565300000.0 -12569700000.0 -12571500000.0 -12574200000.0 -12574000000.0 -12581600000.0 -12597300000.0 -12615100000.0 -12549900000.0 -12608800000.0 -12637400000.0 -12657800000.0 -12684900000.0 -12700300000.0 -12780700000.0 -12695300000.0 -12666300000.0 -12768000000.0 -12831800000.0 -12550800000.0 -12724200000.0 -12683800000.0 -12787800000.0 -12663600000.0 -12705200000.0 -12617900000.0 -12573300000.0 -12598000000.0 -12686000000.0 -12621400000.0 -12597500000.0 -12566500000.0 -12554200000.0 -12556900000.0 -12554500000.0 -12564500000.0 -12551300000.0 -12553100000.0 -12552600000.0 -12554500000.0 -12564600000.0 -12571300000.0 -12556000000.0 -12563600000.0 -12554800000.0 -12557600000.0 -12554200000.0 -12553000000.0 -12560800000.0 -12549700000.0 -12550500000.0 -12549900000.0 -12550600000.0 -12569400000.0 -12550800000.0 -12550100000.0 -12556700000.0 -12549700000.0 -12551100000.0 -12551400000.0 -12568800000.0 -12565100000.0 -12573300000.0 -12576900000.0 -12553400000.0 -12556400000.0 -12550200000.0 -12549800000.0 -12549700000.0 -12549900000.0 -12549700000.0 -12549700000.0 -12549700000.0 -12549900000.0 -12549800000.0 -12549700000.0 -12549700000.0 -12549700000.0 -12550000000.0 -12549700000.0 -12549700000.0 -12549700000.0 -12549700000.0 -12549800000.0 -12550500000.0 -12550200000.0 -12550300000.0 -12550200000.0 -12549800000.0 -12549900000.0 -12550000000.0 -12550800000.0 -12550000000.0 -12550400000.0 -12550600000.0 -12552100000.0 -12551200000.0 -12550500000.0 -12553100000.0 -12551800000.0 -12553600000.0 -12556200000.0 -12557300000.0 -12557700000.0 -12552200000.0 -12557600000.0 -12637200000.0 -12593200000.0 -12608300000.0 -12637200000.0 -12552000000.0 -12573400000.0 -12642200000.0 -12569300000.0 -12725500000.0 -12587600000.0 -12614400000.0 -12668700000.0 -12605300000.0 -12669900000.0 -12627500000.0 -12560000000.0 -12587000000.0 -12576500000.0 -12685600000.0 -12609800000.0 -12552800000.0 -12564800000.0 -12558200000.0 -12564300000.0 -12563300000.0 -12563400000.0 -12551100000.0 -12550100000.0 -12549900000.0 -12550200000.0 -12551200000.0 -12551300000.0 -12551200000.0 -12550100000.0 -12557600000.0 -12555500000.0 -12549700000.0 -12551300000.0 -12551000000.0 -12552300000.0 -12551100000.0 -12553100000.0 -12553000000.0 -12552700000.0 -12553800000.0 -12555600000.0 -12557000000.0 -12555400000.0 -12550300000.0 -12551900000.0 -12550400000.0 -12552500000.0 -12550900000.0 -12550400000.0 -12552900000.0 -12550600000.0 -12564800000.0 -12550200000.0 -12561000000.0 -12560400000.0 -12555100000.0 -12550400000.0 -12572600000.0 -12569700000.0 -12564400000.0 -12624000000.0 -12575300000.0 -12584500000.0 -12640500000.0 -12619100000.0 -12647500000.0 -12613900000.0 -12594000000.0 -12614000000.0 -12549800000.0 -12606800000.0 -12696000000.0 -12601300000.0 -12586400000.0 -12575000000.0 -12586300000.0 -12651100000.0 -12550700000.0 -12549700000.0 -12568300000.0 -12567600000.0 -12556800000.0 -12608800000.0 -12563800000.0 -12553600000.0 -12634500000.0 -12611100000.0 -12549700000.0 -12593900000.0 -12572500000.0 -12724700000.0 -12605400000.0 -12642500000.0 -12674500000.0 -12640800000.0 -12587900000.0 -12577800000.0 -12579500000.0 -12643000000.0 -12558600000.0 -12571100000.0 -12578100000.0 -12588500000.0 -12577300000.0 -12569900000.0 -12639500000.0 -12702800000.0 -12616900000.0 -12557500000.0 -12632500000.0 -12559400000.0 -12799000000.0 -12597300000.0 -12682600000.0 -12596100000.0 -12575000000.0 -12549700000.0 -12663400000.0 -12552900000.0 -12555600000.0 -12570600000.0 -12563600000.0 -12577400000.0 -12575500000.0 -12622100000.0 -12550100000.0 -12605300000.0 -12556800000.0 -12677500000.0 -12765100000.0 -12549700000.0 -12560800000.0 -12639200000.0 -12549700000.0 -12582100000.0 -12577300000.0 -12580800000.0 -12634700000.0 -12553300000.0 -12553900000.0 -12549700000.0 -12549700000.0 -12584100000.0 -12581400000.0 -12635900000.0 -12625700000.0 -12564100000.0 -12603500000.0 -12556000000.0 -12558500000.0 -12744000000.0 -12580700000.0 -12574900000.0 -12634800000.0 -12563000000.0 -12569000000.0 -12600900000.0 -12558700000.0 -12553500000.0 -12552900000.0 -12549700000.0 -12549700000.0 -12549700000.0 -12554500000.0 -12553000000.0 -12574400000.0 -12575000000.0 -12568200000.0 -12592300000.0 -12566300000.0 -12613800000.0 -12585600000.0 -12586800000.0 -12743800000.0 -12558700000.0 -12561700000.0 -12569700000.0 -12607700000.0 -12570200000.0 -12621900000.0 -12601200000.0 -12575800000.0 -12560700000.0 -12551800000.0 -12549700000.0 -12549700000.0 -12549700000.0 -12549700000.0 -12549700000.0 -12549700000.0 -12549700000.0 -12549700000.0 -12549700000.0 -12549700000.0 -12549700000.0 -12549700000.0 -12549700000.0 -12549700000.0 -12549700000.0 -12549700000.0 -12549700000.0 -12549700000.0 -12549700000.0 -12549700000.0 -12549700000.0 -12549700000.0 -12549700000.0 -12549700000.0 -12549700000.0 -12549700000.0 -12549700000.0 -12549700000.0 -12551400000.0 -12570200000.0 -12561200000.0 -12558500000.0 -12575500000.0 -12590900000.0 -12593500000.0 -12564900000.0 -12591600000.0 -12746100000.0 -12565100000.0 -12554100000.0 -12552100000.0 -12616400000.0 -12625200000.0 -12567400000.0 -12563800000.0 -12554500000.0 -12550200000.0 -12549700000.0 -12549700000.0 -12549700000.0 -12549700000.0 -12549700000.0 -12549700000.0 -12549700000.0 -12549700000.0 -12549700000.0 -12549700000.0 -12549700000.0 -12549700000.0 -12549700000.0 -12549700000.0 -12549700000.0 -12549700000.0 -12549700000.0 -12549700000.0 -12549700000.0 -12549700000.0 -12549700000.0 -12549700000.0 -12549700000.0 -12549700000.0 -12549700000.0 -12549700000.0 -12549700000.0 -12549700000.0 -12549700000.0 -12566500000.0 -12557000000.0 -12550300000.0 -12556800000.0 -12556100000.0 -12580600000.0 -12573500000.0 -12629300000.0 -12618800000.0 -12598700000.0 -12578400000.0 -12595400000.0 -12672200000.0 -12563700000.0 -12568400000.0 -12551900000.0 -12599200000.0 -12586700000.0 -12551400000.0 -12550000000.0 -12549800000.0 -12576000000.0 -12553700000.0 -12551200000.0 -12549700000.0 -12549700000.0 -12549700000.0 -12549700000.0 -12549700000.0 -12549700000.0 -12549700000.0 -12549700000.0 -12549700000.0 -12549700000.0 -12549700000.0 -12549700000.0 -12549700000.0 -12549700000.0 -12549700000.0 -12549700000.0 -12549700000.0 -12549700000.0 -12549700000.0 -12549700000.0 -12549700000.0 -12549700000.0 -12549700000.0 -12549700000.0 -12549700000.0 -12549700000.0 -12549700000.0 -12549700000.0 -12549700000.0 -12549700000.0 -12549700000.0 -12549700000.0 -12549700000.0 -12549700000.0 -12549700000.0 -12549700000.0 -12549700000.0 -12549700000.0 -12549700000.0 -12549900000.0 -12551100000.0 -12551800000.0 -12553000000.0 -12554400000.0 -12571200000.0 -12560300000.0 -12559200000.0 -12585600000.0 -12591900000.0 -12574900000.0 -12559300000.0 -12567900000.0 -12580700000.0 -12677500000.0 -12574300000.0 -12617400000.0 -12595900000.0 -12553600000.0 -12554100000.0 -12567000000.0 -12575900000.0 -12550300000.0 -12552400000.0 -12553600000.0 -12551000000.0 -12550100000.0 -12549900000.0 -12549700000.0 -12549700000.0 -12549700000.0 -12549700000.0 -12549700000.0 -12549700000.0 -12549700000.0 -12549700000.0 -12549700000.0 -12549700000.0 -12549700000.0 -12549700000.0 -12549700000.0 -12549700000.0 -12549700000.0 -12549700000.0 -12549700000.0 -12549700000.0 -12549700000.0 -12549700000.0 -12549700000.0 -12549700000.0 -12549700000.0 -12549700000.0 -12549700000.0 -12549700000.0 -12549700000.0 -12549700000.0 -12549700000.0 -12549700000.0 -12549700000.0 -12549700000.0 -12549700000.0 -12549700000.0 -12549700000.0 -12549700000.0 -12549700000.0 -12549700000.0 -12549700000.0 -12549700000.0 -12549700000.0 -12549700000.0 -12549700000.0 -12549700000.0 -12549700000.0 -12549700000.0 -12550200000.0 -12559700000.0 -12570100000.0 -12573200000.0 -12567100000.0 -12566300000.0 -12583500000.0 -12574700000.0 -12584200000.0 -12617700000.0 -12603600000.0 -12648200000.0 -12633400000.0 -12584800000.0 -12609900000.0 -12552000000.0 -12567700000.0 -12568600000.0 -12557800000.0 -12549800000.0 -12552800000.0 -12550000000.0 -12549800000.0 -12549700000.0 -12549700000.0 -12549700000.0 -12549700000.0 -12549700000.0 -12549700000.0 -12549700000.0 -12549700000.0 -12549700000.0 -12549700000.0 -12549700000.0 -12549700000.0 -12549700000.0 -12549700000.0 -12549700000.0 -12549700000.0 -12549700000.0 -12549700000.0 -12549700000.0 -12549700000.0 -12549700000.0 -12549700000.0 -12549700000.0 -12549700000.0 -12549700000.0 -12549700000.0 -12549700000.0 -12549700000.0 -12549700000.0 -12549700000.0 -12549700000.0 -12549700000.0 -12549700000.0 -12549700000.0 -12549700000.0 -12549700000.0 -12549700000.0 -12549700000.0 -12549700000.0 -12549700000.0 -12549700000.0 -12549700000.0 -12549700000.0 -12549700000.0 -12549700000.0 -12550200000.0 -12555700000.0 -12552800000.0 -12556600000.0 -12552100000.0 -12573100000.0 -12549700000.0 -12569100000.0 -12564100000.0 -12562400000.0 -12594200000.0 -12573100000.0 -12627300000.0 -12609000000.0 -12549700000.0 -12550500000.0 -12597600000.0 -12641600000.0 -12594200000.0 -12561400000.0 -12557100000.0 -12550000000.0 -12550500000.0 -12549700000.0 -12549700000.0 -12549700000.0 -12549700000.0 -12549700000.0 -12549700000.0 -12549700000.0 -12549700000.0 -12549700000.0 -12549700000.0 -12549700000.0 -12549700000.0 -12549700000.0 -12549700000.0 -12549700000.0 -12549700000.0 -12549700000.0 -12549700000.0 -12549700000.0 -12549700000.0 -12549700000.0 -12549700000.0 -12549700000.0 -12549700000.0 -12549700000.0 -12549700000.0 -12549700000.0 -12549700000.0 -12549700000.0 -12549700000.0 -12549700000.0 -12549700000.0 -12549700000.0 -12549700000.0 -12549700000.0 -12549700000.0 -12549700000.0 -12549700000.0 -12549700000.0 -12549700000.0 -12549700000.0 -12549700000.0 -12549700000.0 -12549700000.0 -12549700000.0 -12549700000.0 -12549700000.0 -12549700000.0 -12549700000.0 -12549700000.0 -12549700000.0 -12549700000.0 -12550400000.0 -12550900000.0 -12552600000.0 -12557200000.0 -12554100000.0 -12550700000.0 -12575400000.0 -12586300000.0 -12580000000.0 -12568800000.0 -12588900000.0 -12593100000.0 -12563700000.0 -12561800000.0 -12555700000.0 -12596700000.0 -12585400000.0 -12551700000.0 -12592200000.0 -12571300000.0 -12572200000.0 -12554400000.0 -12550600000.0 -12550500000.0 -12551700000.0 -12549700000.0 -12549700000.0 -12549700000.0 -12549700000.0 -12549700000.0 -12549700000.0 -12549700000.0 -12549700000.0 -12549700000.0 -12549700000.0 -12549700000.0 -12549700000.0 -12549700000.0 -12549700000.0 -12549700000.0 -12549700000.0 -12549700000.0 -12549700000.0 -12549700000.0 -12549700000.0 -12549700000.0 -12549700000.0 -12549700000.0 -12549700000.0 -12549700000.0 -12549700000.0 -12549700000.0 -12549700000.0 -12549700000.0 -12549700000.0 -12549700000.0 -12549700000.0 -12549700000.0 -12549700000.0 -12549700000.0 -12549700000.0 -12549700000.0 -12549700000.0 -12549700000.0 -12549700000.0 -12549700000.0 -12549700000.0 -12549700000.0 -12549700000.0 -12562100000.0 -12574700000.0 -12549700000.0 -12551200000.0 -12556300000.0 -12553200000.0 -12565500000.0 -12555200000.0 -12549900000.0 -12575100000.0 -12553300000.0 -12554000000.0 -12553500000.0 -12576800000.0 -12572200000.0 -12581500000.0 -12549700000.0 -12572800000.0 -12555200000.0 -12552700000.0 -12549800000.0 -12549700000.0 -12549700000.0 -12549700000.0 -12549700000.0 -12549700000.0 -12549700000.0 -12549700000.0 -12549700000.0 -12549700000.0 -12549700000.0 -12549700000.0 -12549700000.0 -12549700000.0 -12549700000.0 -12549700000.0 -12549700000.0 -12549700000.0 -12549700000.0 -12549700000.0 -12549700000.0 -12549700000.0 -12549700000.0 -12549700000.0 -12549700000.0 -12549700000.0 -12549700000.0 -12549700000.0 -12549700000.0 -12549700000.0 -12549700000.0 -12549700000.0 -12549700000.0 -12549700000.0 -12549700000.0 -12549700000.0 -12549700000.0 -12549700000.0 -12549700000.0 -12549700000.0 -12549700000.0 -12549700000.0 -12549700000.0 -12549700000.0 -12550700000.0 -12550400000.0 -12566200000.0 -12551400000.0 -12553300000.0 -12552600000.0 -12558600000.0 -12550300000.0 -12553700000.0 -12568700000.0 -12550500000.0 -12552200000.0 -12551000000.0 -12549700000.0 -12599000000.0 -12588600000.0 -12549700000.0 -12550500000.0 -12562400000.0 -12551700000.0 -12549700000.0 -12549700000.0 -12549700000.0 -12549700000.0 -12549700000.0 -12549700000.0 -12549700000.0 -12549700000.0 -12549700000.0 -12549700000.0 -12549700000.0 -12549700000.0 -12549700000.0 -12549700000.0 -12549700000.0 -12549700000.0 -12549700000.0 -12549700000.0 -12549700000.0 -12549700000.0 -12549700000.0 -12549700000.0 -12549700000.0 -12549700000.0 -12549700000.0 -12549700000.0 -12549700000.0 -12549700000.0 -12549700000.0 -12549700000.0 -12549700000.0 -12549700000.0 -12549700000.0 -12549700000.0 -12549700000.0 -12549700000.0 -12549700000.0 -12549700000.0 -12549700000.0 -12549700000.0 -12559000000.0 -12551500000.0 -12560500000.0 -12551600000.0 -12552000000.0 -12552400000.0 -12554300000.0 -12549700000.0 -12558900000.0 -12559800000.0 -12558600000.0 -12550200000.0 -12580300000.0 -12553600000.0 -12584300000.0 -12560900000.0 -12561800000.0 -12551100000.0 -12549700000.0 -12549700000.0 -12549700000.0 -12549700000.0 -12549700000.0 -12549700000.0 -12549700000.0 -12549700000.0 -12549700000.0 -12549700000.0 -12549700000.0 -12549700000.0 -12549700000.0 -12549700000.0 -12549700000.0 -12549700000.0 -12549700000.0 -12549700000.0 -12549700000.0 -12549700000.0 -12549700000.0 -12549700000.0 -12549700000.0 -12549700000.0 -12549700000.0 -12549700000.0 -12549700000.0 -12549700000.0 -12549700000.0 -12549700000.0 -12549700000.0 -12549700000.0 -12549700000.0 -12549700000.0 -12549700000.0 -12549700000.0 -12549700000.0 -12549700000.0 -12549700000.0 -12549700000.0 -12549700000.0 -12549700000.0 -12549700000.0 -12549700000.0 -12549700000.0 -12549800000.0 -12553400000.0 -12555500000.0 -12553200000.0 -12552200000.0 -12553100000.0 -12553400000.0 -12558300000.0 -12567300000.0 -12561400000.0 -12574400000.0 -12589600000.0 -12555200000.0 -12563500000.0 -12563400000.0 -12555200000.0 -12558100000.0 -12551900000.0 -12550600000.0 -12549700000.0 -12549700000.0 -12549700000.0 -12549700000.0 -12549700000.0 -12549700000.0 -12549700000.0 -12549700000.0 -12549700000.0 -12549700000.0 -12549700000.0 -12549700000.0 -12549700000.0 -12549700000.0 -12549700000.0 -12549700000.0 -12549700000.0 -12549700000.0 -12549700000.0 -12549700000.0 -12549700000.0 -12549700000.0 -12549700000.0 -12549700000.0 -12549700000.0 -12549700000.0 -12549700000.0 -12549700000.0 -12549700000.0 -12549700000.0 -12549700000.0 -12549700000.0 -12549700000.0 -12553000000.0 -12550300000.0 -12554400000.0 -12549800000.0 -12552000000.0 -12562900000.0 -12557100000.0 -12553600000.0 -12561400000.0 -12550200000.0 -12564600000.0 -12549700000.0 -12566300000.0 -12560500000.0 -12551500000.0 -12554400000.0 -12554900000.0 -12549700000.0 -12549900000.0 -12550100000.0 -12549700000.0 -12549700000.0 -12549700000.0 -12549700000.0 -12549700000.0 -12549700000.0 -12549700000.0 -12549700000.0 -12549700000.0 -12549700000.0 -12549700000.0 -12549700000.0 -12549700000.0 -12549700000.0 -12549700000.0 -12549700000.0 -12549700000.0 -12549700000.0 -12549700000.0 -12549700000.0 -12549700000.0 -12549700000.0 -12549700000.0 -12549700000.0 -12549700000.0 -12550000000.0 -12552500000.0 -12550100000.0 -12554000000.0 -12550300000.0 -12551900000.0 -12554600000.0 -12556300000.0 -12554900000.0 -12549800000.0 -12556600000.0 -12560400000.0 -12550500000.0 -12553600000.0 -12566000000.0 -12552600000.0 -12557200000.0 -12554100000.0 -12552000000.0 -12553200000.0 -12552200000.0 -12549700000.0 -12549700000.0 -12549700000.0 -12549700000.0 -12549700000.0 -12549700000.0 -12549700000.0 -12549700000.0 -12549700000.0 -12549700000.0 -12549700000.0 -12549700000.0 -12549700000.0 -12549700000.0 -12549700000.0 -12549700000.0 -12549700000.0 -12549700000.0 -12549700000.0 -12549700000.0 -12549700000.0 -12549700000.0 -12549700000.0 -12549700000.0 -12554000000.0 -12554600000.0 -12550900000.0 -12554800000.0 -12555300000.0 -12557100000.0 -12561700000.0 -12556700000.0 -12558200000.0 -12561500000.0 -12561800000.0 -12549700000.0 -12566200000.0 -12550500000.0 -12554500000.0 -12555900000.0 -12549800000.0 -12549700000.0 -12549700000.0 -12551700000.0 -12550400000.0 -12551100000.0 -12549700000.0 -12549700000.0 -12549700000.0 -12549700000.0 -12549700000.0 -12549700000.0 -12549700000.0 -12549700000.0 -12549700000.0 -12549700000.0 -12549700000.0 -12549700000.0 -12549700000.0 -12549700000.0 -12549700000.0 -12549700000.0 -12549700000.0 -12550000000.0 -12552100000.0 -12550600000.0 -12551000000.0 -12551000000.0 -12550500000.0 -12551400000.0 -12554800000.0 -12554300000.0 -12557900000.0 -12555500000.0 -12550300000.0 -12549900000.0 -12561400000.0 -12549700000.0 -12554000000.0 -12549700000.0 -12551000000.0 -12551400000.0 -12549900000.0 -12550100000.0 -12549700000.0 -12549700000.0 -12549700000.0 -12549700000.0 -12549700000.0 -12549700000.0 -12549700000.0 -12549700000.0 -12549700000.0 -12549700000.0 -12549700000.0 -12549700000.0 -12549700000.0 -12549700000.0 -12549700000.0 -12549700000.0 -12549700000.0 -12549800000.0 -12551200000.0 -12551400000.0 -12551300000.0 -12549700000.0 -12551000000.0 -12549900000.0 -12551300000.0 -12553800000.0 -12550500000.0 -12551200000.0 -12550600000.0 -12551700000.0 -12550300000.0 -12549700000.0 -12552000000.0 -12550200000.0 -12558000000.0 -12553300000.0 -12553800000.0 -12549700000.0 -12550200000.0 -12549700000.0 -12549700000.0 -12549700000.0 -12549700000.0 -12549700000.0 -12549700000.0 -12549700000.0 -12549700000.0 -12549700000.0 -12549700000.0 -12549700000.0 -12549700000.0 -12549700000.0 -12550100000.0 -12550600000.0 -12549700000.0 -12549700000.0 -12549800000.0 -12549700000.0 -12550100000.0 -12551700000.0 -12549900000.0 -12549700000.0 -12551200000.0 -12550600000.0 -12551300000.0 -12551900000.0 -12553200000.0 -12549700000.0 -12554000000.0 -12549700000.0 -12549900000.0 -12549700000.0 -12549700000.0 -12549700000.0 -12549700000.0 -12549700000.0 -12549700000.0 -12549700000.0 -12549700000.0 -12549700000.0 -12549700000.0 -12549700000.0 -12550000000.0 -12549800000.0 -12549700000.0 -12549700000.0 -12550900000.0 -12550400000.0 -12549900000.0 -12549700000.0 -12549800000.0 -12551300000.0 -12550400000.0 -12550600000.0 -12549700000.0 -12550200000.0 -12550700000.0 -12549700000.0 -12550200000.0 -12549800000.0 -12549700000.0 -12552400000.0 -12551400000.0 -12550100000.0 -12549700000.0 -12549700000.0 -12549700000.0 -12549700000.0 -12549700000.0 -12549700000.0 -12549900000.0 -12549800000.0 -12549800000.0 -12549700000.0 -12550100000.0 -12550400000.0 -12551100000.0 -12549700000.0 -12549800000.0 -12549700000.0 -12549700000.0 -12549900000.0 -12549700000.0 -12549800000.0 -12549700000.0 -12549700000.0 -12549900000.0 -12549700000.0 -12549700000.0 -12549700000.0 -12549700000.0 -12549700000.0 -12549700000.0 -12549700000.0 -12549700000.0 -12549700000.0 -12549700000.0 -12549700000.0 -12549700000.0 -12549700000.0 -12549700000.0 -12549700000.0 -12549700000.0 -12549700000.0 -12549800000.0 -12549800000.0 -12550200000.0 -12549700000.0 -12549700000.0 -12549700000.0 -12549700000.0 -12549700000.0 -12549700000.0 -12549700000.0 -12549700000.0 -12549700000.0 -12549700000.0 -12549700000.0 -12549700000.0 -12549700000.0 -12549700000.0 -12549700000.0 -12549700000.0 -12549700000.0 -12549700000.0 -12549700000.0 -12549700000.0 -12549700000.0 -12549700000.0 -12549700000.0 -12549700000.0 -12549700000.0 -12549700000.0 -12549700000.0 -12549700000.0 -12549700000.0 -2.66722e+12 -4.12053e+12 -3.67637e+12 -4.85578e+12 -4.04123e+12 -4.10354e+12 -3.92391e+12 -3.77822e+12 -3.53892e+12 -3.18893e+12 -5.79449e+12 -3.00196e+12 -3.50294e+12 -5.10606e+12 -4.78284e+12 -6.33742e+12 -4.40339e+12 -3.20081e+12 -3.93442e+12 -3.02611e+12 -4.30225e+12 -5.18913e+12 -5.40586e+12 -4.94633e+12 -4.91308e+12 -3.71533e+12 -3.64016e+12 -3.92397e+12 -4.41002e+12 -4.04218e+12 -5.43846e+12 -5.24272e+12 -3.42737e+12 -2.62668e+12 -2.98972e+12 -3.79292e+12 -4.64518e+12 -6.27168e+12 -3.59859e+12 -4.5342e+12 -4.62746e+12 -3.83536e+12 -3.61487e+12 -3.15616e+12 -3.80263e+12 -3.62816e+12 -2.34774e+12 -2.69971e+12 -3.72702e+12 -2.78318e+12 -2.11694e+12 -1.79804e+12 -3.47279e+12 -4.82872e+12 -5.39818e+12 -4.03296e+12 -6.67552e+12 -4.48176e+12 -3.01491e+12 -4.7268e+12 -4.50248e+12 -4.23926e+12 -3.93539e+12 -5.93439e+12 -6.56589e+12 -5.34017e+12 -3.74885e+12 -5.32888e+12 -7.39236e+12 -4.57359e+12 -5.02725e+12 -5.73953e+12 -4.64586e+12 -4.4568e+12 -6.68478e+12 -6.00774e+12 -2.58201e+12 -4.09648e+12 -3.8493e+12 -3.78911e+12 -4.67135e+12 -4.06122e+12 -3.9415e+12 -5.22606e+12 -4.63989e+12 -3.8965e+12 -4.43883e+12 -4.57195e+12 -2.70768e+12 -5.22868e+12 -4.18511e+12 -5.78375e+12 -6.51006e+12 -6.15699e+12 -5.77158e+12 -5.17025e+12 -4.70323e+12 -6.5073e+12 -4.14893e+12 -4.71008e+12 -6.27148e+12 -4.00661e+12 -4.89511e+12 -2.84834e+12 -2.59765e+12 -6.62089e+12 -5.44358e+12 -8.60551e+12 -6.14852e+12 -6.10459e+12 -7.73165e+12 -1.11409e+13 -5.47964e+12 -7.25868e+12 -4.07474e+12 -5.71665e+12 -4.73094e+12 -7.20259e+12 -7.03513e+12 -1.86864e+12 -5.1998e+12 -6.89298e+12 -4.28021e+12 -4.76656e+12 -6.09228e+12 -2.51547e+12 -5.82602e+12 -5.47127e+12 -6.83244e+12 -7.16524e+12 -1.11858e+13 -5.34717e+12 -6.22211e+12 -6.34001e+12 -5.45101e+12 -9.0736e+12 -7.69315e+12 -8.75472e+12 -5.61408e+12 -5.77328e+12 -8.90901e+12 -9.28681e+12 -8.0374e+12 -5.47167e+12 -5.22538e+12 -7.45323e+12 -6.32112e+12 -7.70165e+12 -7.09158e+12 -6.62897e+12 -6.98887e+12 -4.73445e+12 -8.2708e+12 -7.48459e+12 -1.08707e+13 -2.77263e+12 -3.95909e+12 -3.16669e+12 -5.00837e+12 -7.74364e+12 -8.23359e+12 -6.03853e+12 -4.82705e+12 -5.29811e+12 -6.86132e+12 -6.56245e+12 -2.89309e+12 -4.34272e+12 -4.1266e+12 -4.9442e+12 -4.69646e+12 -5.84791e+12 -5.0663e+12 -6.46315e+12 -9.19034e+12 -5.0019e+12 -4.0858e+12 -6.07538e+12 -3.85311e+12 -7.12035e+12 -6.39715e+12 -7.21198e+12 -3.71838e+12 -4.7752e+12 -4.94533e+12 -3.70919e+12 -2.42903e+12 -5.42134e+12 -4.31051e+12 -8.69393e+12 -8.11853e+12 -2.28654e+12 -5.25268e+12 -1.01825e+13 -3.26853e+12 -4.99005e+12 -3.96834e+12 -2.36832e+12 -7.16631e+12 -5.20116e+12 -7.55637e+12 -4.30368e+12 -4.24365e+12 -6.28703e+12 -6.16523e+12 -1.06672e+13 -6.56638e+12 -1.03287e+13 -7.26195e+12 -5.23916e+12 -9.01095e+12 -7.82059e+12 -5.3433e+12 -6.57111e+12 -7.66373e+12 -7.36389e+12 -4.62613e+12 -6.74517e+12 -8.82763e+12 -1.03475e+13 -5.12764e+12 -7.66655e+12 -7.8146e+12 -4.6226e+12 -5.67046e+12 -4.94328e+12 -8.36068e+12 -6.42984e+12 -6.8336e+12 -8.40338e+12 -6.82334e+12 -6.27824e+12 -7.10096e+12 -6.22364e+12 -5.61966e+12 -5.49187e+12 -1.4862e+12 -2.9279e+12 -4.98014e+12 -4.30665e+12 -5.56985e+12 -6.44049e+12 -8.51879e+12 -6.92097e+12 -1.02183e+13 -5.62684e+12 -4.92543e+12 -6.38012e+12 -7.26723e+12 -3.83251e+12 -6.44194e+12 -8.29551e+12 -7.11623e+12 -4.96184e+12 -6.02417e+12 -8.03036e+12 -6.4394e+12 -5.9181e+12 -9.85855e+12 -5.40761e+12 -7.21902e+12 -6.97068e+12 -8.22141e+12 -8.12714e+12 -4.10899e+12 -5.48289e+12 -4.70641e+12 -6.52453e+12 -7.27585e+12 -6.95846e+12 -5.09087e+12 -7.7999e+12 -6.07471e+12 -5.41477e+12 -5.11463e+12 -7.43906e+12 -9.08916e+12 -4.72401e+12 -6.39021e+12 -1.74903e+12 -3.55701e+12 -4.62908e+12 -6.71595e+12 -6.87191e+12 -4.23115e+12 -5.92605e+12 -2.25268e+12 -5.59414e+12 -7.26932e+12 -5.6532e+12 -5.96145e+12 -4.96841e+12 -5.73103e+12 -6.96315e+12 -6.60707e+12 -6.69937e+12 -6.89041e+12 -5.00346e+12 -8.63661e+12 -7.61897e+12 -6.15754e+12 -5.74931e+12 -5.40801e+12 -8.39951e+12 -6.5238e+12 -4.95755e+12 -7.61632e+12 -6.5293e+12 -6.47745e+12 -8.38081e+12 -5.83063e+12 -3.93429e+12 -9.9779e+12 -9.07394e+12 -6.04089e+12 -4.79479e+12 -9.58924e+12 -4.1624e+12 -7.48506e+12 -5.40778e+12 -5.39546e+12 -6.24993e+12 -7.16498e+12 -3.91622e+12 -1.06628e+13 -8.06306e+12 -4.50975e+12 -7.39432e+12 -3.98989e+12 -4.93346e+12 -7.10418e+12 -4.99426e+12 -4.77222e+12 -4.07209e+12 -5.12893e+12 -3.11141e+12 -4.79891e+12 -4.54887e+12 -4.42494e+12 -6.18168e+12 -6.56224e+12 -1.09611e+13 -8.10455e+12 -9.41169e+12 -6.79604e+12 -2.96935e+12 -6.74223e+12 -5.7944e+12 -2.65797e+12 -4.45897e+12 -3.84463e+12 -5.89987e+12 -4.26858e+12 -3.83504e+12 -7.53789e+12 -5.64322e+12 -5.48909e+12 -4.05949e+12 -5.78192e+12 -1.03781e+13 -6.62658e+12 -6.1084e+12 -3.86356e+12 -9.3498e+12 -9.6255e+12 -7.63385e+12 -3.75008e+12 -7.96655e+12 -4.60614e+12 -6.12256e+12 -4.86347e+12 -6.40827e+12 -6.14397e+12 -5.10925e+12 -6.51896e+12 -6.52483e+12 -6.09952e+12 -4.4559e+12 -7.29311e+12 -8.10536e+12 -4.9653e+12 -5.83631e+12 -8.34101e+12 -3.92196e+12 -3.78574e+12 -3.68246e+12 -5.73854e+12 -5.94966e+12 -4.04267e+12 -5.90788e+12 -3.87813e+12 -5.27467e+12 -5.01843e+12 -6.0408e+12 -7.57535e+12 -9.01962e+12 -4.62194e+12 -4.13161e+12 -3.0705e+12 -2.143e+12 -6.59963e+12 -4.42169e+12 -8.96194e+12 -7.35436e+12 -6.20638e+12 -6.90233e+12 -1.01521e+13 -5.10708e+12 -3.77683e+12 -4.60159e+12 -5.91638e+12 -4.81826e+12 -4.98477e+12 -6.30411e+12 -4.83861e+12 -6.1454e+12 -4.95198e+12 -4.98696e+12 -4.16211e+12 -5.21162e+12 -4.13831e+12 -4.67431e+12 -4.1703e+12 -7.32662e+12 -7.36273e+12 -8.21767e+12 -7.21432e+12 -4.05546e+12 -4.85317e+12 -4.32636e+12 -3.55579e+12 -2.31673e+12 -6.15919e+12 -4.47529e+12 -4.45726e+12 -5.19334e+12 -8.07334e+12 -6.64872e+12 -7.40881e+12 -6.04879e+12 -4.24322e+12 -5.427e+12 -5.44417e+12 -3.28142e+12 -5.95231e+12 -3.87114e+12 -5.66595e+12 -7.63244e+12 -5.33491e+12 -4.59306e+12 -6.09602e+12 -6.24143e+12 -6.16056e+12 -6.84182e+12 -5.58303e+12 -3.63455e+12 -4.06437e+12 -5.16621e+12 -3.21713e+12 -4.56643e+12 -5.91533e+12 -4.43143e+12 -5.27954e+12 -3.83636e+12 -7.94314e+12 -4.7889e+12 -7.82441e+12 -5.31933e+12 -4.45053e+12 -5.886e+12 -4.33183e+12 -5.98202e+12 -7.34488e+12 -5.74072e+12 -4.24144e+12 -8.27814e+12 -4.34438e+12 -8.62642e+12 -3.44545e+12 -3.52922e+12 -3.01046e+12 -2.93402e+12 -2.3053e+12 -3.76416e+12 -3.78462e+12 -8.54029e+12 -2.91835e+12 -3.62412e+12 -3.02621e+12 -5.13088e+12 -5.44826e+12 -5.53991e+12 -4.68025e+12 -2.56797e+12 -5.01175e+12 -7.54463e+12 -6.80044e+12 -7.68119e+12 -6.34185e+12 -6.79668e+12 -3.56761e+12 -4.02949e+12 -5.74249e+12 -6.27012e+12 -6.02795e+12 -7.57137e+12 -4.39872e+12 -5.87834e+12 -5.52258e+12 -5.77278e+12 -3.2961e+12 -3.58662e+12 -4.26576e+12 -5.51274e+12 -5.30581e+12 -3.5336e+12 -4.41597e+12 -4.32706e+12 -7.35317e+12 -3.17909e+12 -4.05054e+12 -2.80282e+12 -7.11927e+12 -4.35889e+12 -5.71852e+12 -3.77917e+12 -4.22482e+12 -4.94527e+12 -2.97459e+12 -4.44153e+12 -1.00822e+13 -4.38087e+12 -6.67428e+12 -7.97691e+12 -4.1612e+12 -4.49797e+12 -648741000000.0 -5.97137e+12 -4.12588e+12 -9.69432e+12 -4.2162e+12 -5.00769e+12 -5.29618e+12 -4.94202e+12 -4.18675e+12 -3.77938e+12 -4.59908e+12 -2.95317e+12 -4.88368e+12 -4.2062e+12 -7.00571e+12 -6.11462e+12 -4.69268e+12 -2.74215e+12 -6.76285e+12 -6.66157e+12 -4.10706e+12 -8.11561e+12 -6.0527e+12 -5.17737e+12 -7.52939e+12 -7.50737e+12 -4.17679e+12 -7.21453e+12 -2.81101e+12 -6.05029e+12 -6.76699e+12 -5.8318e+12 -3.42548e+12 -3.76813e+12 -6.77287e+12 -5.17623e+12 -7.61178e+12 -7.27458e+12 -6.03643e+12 -7.58846e+12 -3.12348e+12 -4.41391e+12 -4.94911e+12 -3.52008e+12 -4.67843e+12 -5.41931e+12 -5.60884e+12 -2.19724e+12 -2.30758e+12 -2.8756e+12 -2.03265e+12 -5.04119e+12 -7.25651e+12 -4.44264e+12 -3.72671e+12 -3.67865e+12 -3.76321e+12 -2.80679e+12 -7.37002e+12 -4.66032e+12 -4.07629e+12 -3.91916e+12 -5.2667e+12 -6.4258e+12 -5.43205e+12 -3.05258e+12 -3.97387e+12 -3.6857e+12 -4.44954e+12 -3.74452e+12 -5.34131e+12 -4.9439e+12 -5.3917e+12 -3.19761e+12 -3.42127e+12 -6.28043e+12 -4.99946e+12 -4.25862e+12 -5.14216e+12 -3.36544e+12 -1.98485e+12 -3.65748e+12 -4.60117e+12 -5.65931e+12 -5.91727e+12 -7.27497e+12 -2.59672e+12 -2.90454e+12 -4.46323e+12 -3.43654e+12 -4.40902e+12 -5.87992e+12 -2.22166e+12 -6.08457e+12 -4.49519e+12 -4.97797e+12 -6.16613e+12 -5.27855e+12 -4.46301e+12 -3.2617e+12 -2.75355e+12 -5.24661e+12 -3.61513e+12 -6.36723e+12 -7.63735e+12 -5.66678e+12 -5.6801e+12 -3.25021e+12 -6.83181e+12 -5.47771e+12 -2.00986e+12 -5.80314e+12 -2.45784e+12 -6.28085e+12 -6.16092e+12 -4.36647e+12 -5.75828e+12 -3.91705e+12 -4.66962e+12 -6.11961e+12 -5.43959e+12 -5.82823e+12 -6.00597e+12 -5.81293e+12 -5.68943e+12 -6.17043e+12 -5.20025e+12 -2.50943e+12 -6.32812e+12 -5.29432e+12 -1.67937e+12 -4.73949e+12 -3.58115e+12 -1.44138e+12 -4.80281e+12 -5.26064e+12 -4.24857e+12 -5.65614e+12 -3.67577e+12 -4.80373e+12 -8.5686e+12 -3.34701e+12 -3.77409e+12 -5.48428e+12 -3.18658e+12 -6.64159e+12 -3.21464e+12 -5.51577e+12 -4.1937e+12 -3.89165e+12 -4.98717e+12 -3.93741e+12 -3.51243e+12 -5.96701e+12 -5.43678e+12 -1.98845e+12 -6.50961e+12 -2.48201e+12 -3.87894e+12 -5.51663e+12 -3.79606e+12 -4.38586e+12 -3.89601e+12 -3.03294e+12 -4.38164e+12 -4.31557e+12 -6.29258e+12 -1.83547e+12 -4.73428e+12 -4.26779e+12 -5.59075e+12 -5.98429e+12 -6.84052e+12 -3.63971e+12 -4.90203e+12 -4.57821e+12 -3.83691e+12 -2.60643e+12 -4.40362e+12 -3.99185e+12 -3.95972e+12 -4.2958e+12 -6.81094e+12 -6.88792e+12 -4.04831e+12 -8.42602e+12 -2.74022e+12 -5.93572e+12 -2.87592e+12 -4.11119e+12 -3.40953e+12 -3.67402e+12 -2.48944e+12 -3.61172e+12 -6.01948e+12 -4.87721e+12 -5.83276e+12 -5.797e+12 -3.69822e+12 -6.51709e+12 -3.10967e+12 -2.32182e+12 -5.96828e+12 -5.28325e+12 -4.31101e+12 -1.98381e+12 -2.78883e+12 -6.71647e+12 -2.77905e+12 -4.02274e+12 -6.61232e+12 -3.99253e+12 -5.69635e+12 -2.9407e+12 -4.51626e+12 -5.14212e+12 -3.66204e+12 -4.97695e+12 -3.05464e+12 -5.88407e+12 -4.94672e+12 -2.53341e+12 -4.4368e+12 -5.35473e+12 -2.93228e+12 -3.70651e+12 -2.80278e+12 -3.86427e+12 -4.02064e+12 -4.58507e+12 -2.40492e+12 -3.82644e+12 -3.03149e+12 -4.60445e+12 -5.32578e+12 -2.66433e+12 -4.99629e+12 -4.30693e+12 -3.49012e+12 -2.71855e+12 -4.28771e+12 -3.0596e+12 -3.51495e+12 -3.72497e+12 -3.50016e+12 -5.57006e+12 -3.25318e+12 -2.88447e+12 -4.1391e+12 -3.44408e+12 -3.03787e+12 -2.78182e+12 -2.97652e+12 -2.20483e+12 -3.87521e+12 -2.46778e+12 -4.23604e+12 -4.6497e+12 -2.75049e+12 -3.40358e+12 -2.87359e+12 -4.55947e+12 -2.65411e+12 -4.24836e+12 -2.14897e+12 -2.61243e+12 -3.41953e+12 -4.05439e+12 -3.76608e+12 -2.77971e+12 -2.73985e+12 -4.16235e+12 -2.53632e+12 -3.06594e+12 -5.14169e+12 -5.26067e+12 -4.38562e+12 -2.33967e+12 -3.29585e+12 -2.75683e+12 -1.9392e+12 -4.41839e+12 -3.56198e+12 -4.10402e+12 -1.73296e+12 -3.12642e+12 -5.57566e+12 -3.08283e+12 -4.76275e+12 -2.35882e+12 -5.67746e+12 -2.73989e+12 -6.20018e+12 -6.98323e+12 -5.00801e+12 -5.44465e+12 -3.10372e+12 -3.04841e+12 -2.75331e+12 -2.21713e+12 -4.51632e+12 -3.9101e+12 -2.66712e+12 -2.88951e+12 -3.2268e+12 -1.09003e+12 -3.16017e+12 -769696000000.0 -3.88262e+12 -1.46511e+12 -4.61958e+12 -4.50375e+12 -2.89623e+12 -4.3257e+12 -3.0314e+12 -3.0841e+12 -3.97774e+12 -2.27606e+12 -3.47209e+12 -4.08117e+12 -2.23346e+12 -4.58936e+12 -5.43473e+12 -1.59279e+12 -3.05818e+12 -4.33021e+12 -3.05443e+12 -3.67454e+12 -5.76639e+12 -4.0993e+12 -5.28107e+12 -1.94265e+12 -2.60501e+12 -3.20959e+12 -6.88144e+12 -2.74978e+12 -2.21845e+12 -3.09076e+12 -2.06478e+12 -2.01025e+12 -2.20655e+12 -2.8557e+12 -4.61402e+12 -1.9841e+12 -3.05071e+12 -2.69563e+12 -3.80359e+12 -2.03882e+12 -4.57939e+12 -2.52063e+12 -2.14736e+12 -1.62538e+12 -4.00021e+12 -2.72929e+12 -3.07786e+12 -2.45806e+12 -3.20481e+12 -4.35771e+12 -3.4343e+12 -1.82303e+12 -2.91461e+12 -3.67212e+12 -2.35778e+12 -2.63736e+12 -3.15393e+12 -3.52643e+12 -2.78245e+12 -2.70721e+12 -2.85111e+12 -1.93177e+12 -3.83364e+12 -5.16152e+12 -2.06877e+12 -4.1677e+12 -4.85097e+12 -3.50765e+12 -3.36442e+12 -3.08814e+12 -1.46913e+12 -2.96663e+12 -2.97162e+12 -2.66321e+12 -1.39178e+12 -2.83538e+12 -3.00357e+12 -1.7791e+12 -2.80295e+12 -1.16718e+12 -3.27599e+12 -4.29528e+12 -2.95731e+12 -3.33088e+12 -3.06186e+12 -4.33299e+12 -2.90094e+12 -2.88442e+12 -1.70635e+12 -1.74748e+12 -3.28346e+12 -2.97354e+12 -5.78638e+12 -2.06105e+12 -3.76128e+12 -3.72946e+12 -2.15636e+12 -2.21832e+12 -2.9385e+12 -3.25066e+12 -1.59613e+12 -3.62747e+12 -5.34378e+12 -3.20387e+12 -1.67583e+12 -2.35443e+12 -2.25457e+12 -3.03844e+12 -2.66727e+12 -2.54681e+12 -2.48581e+12 -3.02613e+12 -2.50593e+12 -1.98426e+12 -4.24752e+12 -3.23508e+12 -2.18272e+12 -5.12325e+12 -2.86005e+12 -3.62546e+12 -4.10259e+12 -4.91261e+12 -1.77395e+12 -2.81766e+12 -3.5579e+12 -3.27841e+12 -3.04759e+12 -3.43016e+12 -3.70257e+12 -4.70293e+12 -2.39192e+12 -2.91303e+12 -1.89272e+12 -5.01211e+12 -3.41839e+12 -2.48331e+12 -3.45801e+12 -4.61099e+12 -3.55089e+12 -3.25767e+12 -2.15038e+12 -2.65268e+12 -2.30213e+12 -2.0632e+12 -2.34073e+12 -202678000000.0 -2.45743e+12 -2.46611e+12 -1.68799e+12 -3.53496e+12 -2.58063e+12 -2.20742e+12 -1.91207e+12 -2.13124e+12 -1.4227e+12 -1.64756e+12 -1.02396e+12 -2.90736e+12 -2.80196e+12 -2.12793e+12 -4.25415e+12 -3.10218e+12 -2.83357e+12 -3.47121e+12 -1.74934e+12 -1.40723e+12 -2.85373e+12 -4.32856e+12 -2.32313e+12 -4.18475e+12 -3.17857e+12 -1.58328e+12 -2.50787e+12 -3.9064e+12 -4.38368e+12 -5.64672e+12 -2.0178e+12 -1.77713e+12 -1.65456e+12 -2.6887e+12 -1.81867e+12 -1.48437e+12 -2.05779e+12 -2.50436e+12 -1.77958e+12 -3.75068e+12 -1.24852e+12 -2.19722e+12 -3.8269e+12 -2.20489e+12 -1.22588e+12 -2.00859e+12 -916218000000.0 -1.19494e+12 -4.08021e+12 -2.79499e+12 -1.91467e+12 -2.21311e+12 -3.34631e+12 -1.73508e+12 -3.33257e+12 -1.76102e+12 -2.59422e+12 -3.11e+12 -3.66837e+12 -2.30086e+12 -2.08689e+12 -2.02836e+12 -2.19392e+12 -1.73918e+12 -1.52508e+12 -3.11377e+12 -4.1426e+12 -5.00428e+12 -2.9802e+12 -4.36658e+12 -3.06014e+12 -3.35872e+12 -1.46266e+12 -3.99724e+12 -1.16101e+12 -1.40769e+12 -2.08462e+12 -2.01851e+12 -2.7315e+12 -3.16247e+12 -3.09138e+12 -1.95825e+12 -3.6175e+12 -2.90432e+12 -2.83194e+12 -3.10957e+12 -2.55889e+12 -1.55279e+12 -1.14689e+12 -2.67865e+12 -1.67103e+12 -2.90018e+12 -1.08655e+12 -2.64956e+12 -1.2948e+12 -1.39092e+12 -1.94563e+12 -1.33579e+12 -824870000000.0 -1.7995e+12 -2.12666e+12 -1.45904e+12 -1.37675e+12 -1.24922e+12 -2.27007e+12 -1.67277e+12 -1.80968e+12 -1.36028e+12 -2.07126e+12 -2.09591e+12 -2.40433e+12 -1.99974e+12 -1.70894e+12 -1.78318e+12 -2.68486e+12 -1.13565e+12 -2.36627e+12 -2.4501e+12 -2.26566e+12 -3.61762e+12 -1.43694e+12 -2.22381e+12 -2.21387e+12 -1.53419e+12 -2.73752e+12 -1.48851e+12 -2.49198e+12 -1.0305e+12 -405548000000.0 -1.67626e+12 -2.09977e+12 -3.30693e+12 -2.94902e+12 -2.71944e+12 -1.76585e+12 -1.62891e+12 -1.67379e+12 -1.93585e+12 -3.06443e+12 -1.31177e+12 -2.99272e+12 -1.26639e+12 -1.09637e+12 -2.1766e+12 -1.38092e+12 -777744000000.0 -1.9397e+12 -2.34381e+12 -686678000000.0 -1.90104e+12 -2.53861e+12 -1.91832e+12 -2.86215e+12 -1.76452e+12 -3.2904e+12 -1.12132e+12 -1.74936e+12 -2.43e+12 -940122000000.0 -1.795e+12 -1.44552e+12 -3.62542e+12 -2.58607e+12 -2.49122e+12 -880338000000.0 -2.65959e+12 -2.18347e+12 -2.86006e+12 -2.14972e+12 -1.4575e+12 -2.01059e+12 -1.46569e+12 -1.52113e+12 -1.51377e+12 -2.40227e+12 -1.17884e+12 -2.2867e+12 -1.26708e+12 -589011000000.0 -2.55248e+12 -3.14785e+12 -2.90995e+12 -1.27676e+12 -1.96371e+12 -1.80931e+12 -1.93611e+12 -3.07232e+12 -1.68474e+12 -1.93468e+12 -1.16164e+12 -2.15755e+12 -328708000000.0 -2.21563e+12 -461225000000.0 -1.28034e+12 -2.09087e+12 -2.10185e+12 -890064000000.0 -987365000000.0 -1.50733e+12 -943195000000.0 -1.31155e+12 -1.43965e+12 -1.11346e+12 -932256000000.0 -2.23319e+12 -1.5771e+12 -1.83738e+12 -972727000000.0 -1.6236e+12 -1.326e+12 -2.26301e+12 -844171000000.0 -1.30028e+12 -1.27313e+12 -1.28466e+12 -1.9527e+12 -600435000000.0 -1.14177e+12 -1.17323e+12 -1.07134e+12 -1.14471e+12 -839535000000.0 -2.17185e+12 -1.07085e+12 -1.29845e+12 -1.33068e+12 -1.08446e+12 -427708000000.0 -632874000000.0 -1.93887e+12 -607997000000.0 -1.20055e+12 -1.10771e+12 -2.08453e+12 -516758000000.0 -1.02844e+12 -2.47273e+12 -1.8833e+12 -1.00952e+12 -1.13097e+12 -612719000000.0 -1.57785e+12 -1.25776e+12 -2.25884e+12 -2.12263e+12 -2.47307e+12 -943490000000.0 -693354000000.0 -1.63842e+12 -700821000000.0 -1.49757e+12 -1.77494e+12 -1.46101e+12 -1.74492e+12 -2.03069e+12 -1.9457e+12 -1.14012e+12 -1.09412e+12 -666631000000.0 -882019000000.0 -1.25261e+12 -1.01087e+12 -1.55846e+12 -557919000000.0 -1.11566e+12 -1.92147e+12 -930142000000.0 -1.46008e+12 -1.25847e+12 -1.34574e+12 -2.34086e+12 -2.02114e+12 -1.15814e+12 -1.32951e+12 -1.42538e+12 -396925000000.0 -2.03616e+12 -1.03123e+12 -1.64103e+12 -2.01592e+12 -1.01282e+12 -517875000000.0 -787231000000.0 -1.00592e+12 -909192000000.0 -196698000000.0 -82321000000.0 -1.15495e+12 -353779000000.0 -802239000000.0 -515092000000.0 -707196000000.0 -1.16928e+12 -942727000000.0 -288219000000.0 -667754000000.0 -504012000000.0 -684042000000.0 -244369000000.0 -461586000000.0 -158192000000.0 -359683000000.0 -1.09557e+12 -72059000000.0 -615795000000.0 -254701000000.0 -1.14911e+12 -871074000000.0 -916479000000.0 -738612000000.0 -235208000000.0 -619968000000.0 -247083000000.0 -175465000000.0 -168592000000.0 -153986000000.0 -658276000000.0 -450375000000.0 -538191000000.0 -983654000000.0 -875744000000.0 -447397000000.0 -447003000000.0 -605756000000.0 -210483000000.0 -324262000000.0 -409758000000.0 -226795000000.0 -566405000000.0 -244914000000.0 -345295000000.0 -456290000000.0 -575572000000.0 -255106000000.0 -709029000000.0 -509583000000.0 -306007000000.0 -657605000000.0 -152390000000.0 -880176000000.0 -903548000000.0 -675028000000.0 -268478000000.0 -605829000000.0 -455468000000.0 -745860000000.0 -167370000000.0 -988262000000.0 -429671000000.0 -86775100000.0 -791144000000.0 -181177000000.0 -405078000000.0 -399915000000.0 -371156000000.0 -234769000000.0 -158214000000.0 -255248000000.0 -681542000000.0 -452372000000.0 -1.29499e+12 -1.32453e+12 -883117000000.0 -217295000000.0 -1.22518e+12 -575080000000.0 -323770000000.0 -557596000000.0 -247420000000.0 -358051000000.0 -926949000000.0 -326661000000.0 -267794000000.0 -540946000000.0 -301802000000.0 -485724000000.0 -620010000000.0 -1.03213e+12 -596166000000.0 -178059000000.0 -649237000000.0 -446966000000.0 -258653000000.0 -261281000000.0 -195354000000.0 -271974000000.0 -369422000000.0 -102375000000.0 -270291000000.0 -218780000000.0 -141006000000.0 -197052000000.0 -143978000000.0 