# vtk DataFile Version 2.0
Time step 47
ASCII
DATASET UNSTRUCTURED_GRID
POINTS 5000 float
27669.3 83867.5 0
2398.29 86958.9 0
8533.74 86332.4 0
12438.9 86166.5 0
16747.6 85484.4 0
22243.6 87132.2 0
33204.8 86554.9 0
38185.1 87138.7 0
42703.7 87291.8 0
47472.3 87198.2 0
52137.1 87297.7 0
57005.0 86137.3 0
62763.5 87213.1 0
67994.7 87346.5 0
72702.5 86479.0 0
77500.0 87226.0 0
82500.0 87215.2 0
87407.7 86513.5 0
92500.0 87253.4 0
97192.6 87274.9 0
101292.0 87191.9 0
105946.0 86581.5 0
111936.0 87060.7 0
117850.0 87245.8 0
123330.0 87322.5 0
128345.0 87443.4 0
133428.0 86692.0 0
138124.0 87375.6 0
142500.0 87296.7 0
147500.0 87230.3 0
152501.0 87200.0 0
157589.0 86827.6 0
162561.0 86982.9 0
167010.0 86524.6 0
171830.0 85407.5 0
177734.0 85445.8 0
182938.0 84632.1 0
187393.0 86486.8 0
192498.0 87648.5 0
196079.0 86811.0 0
201747.0 86171.3 0
207650.0 86935.5 0
212985.0 86271.0 0
218128.0 87356.9 0
222479.0 87369.3 0
225794.0 86598.6 0
230434.0 86470.6 0
235810.0 87468.5 0
241170.0 86172.8 0
246502.0 88174.2 0
252680.0 86158.1 0
259052.0 86632.8 0
263773.0 87721.3 0
268740.0 86630.3 0
273935.0 86925.7 0
278881.0 85576.9 0
282030.0 88909.4 0
286325.0 87217.0 0
291717.0 87673.1 0
297319.0 85541.6 0
303664.0 86325.9 0
307730.0 88896.2 0
312126.0 86750.6 0
317928.0 87367.7 0
323245.0 87273.0 0
327581.0 87543.9 0
332206.0 87142.5 0
337223.0 86851.6 0
341019.0 88062.5 0
345896.0 86397.6 0
350687.0 88320.7 0
355259.0 87304.0 0
361815.0 85944.3 0
372012.0 83962.2 0
367954.0 87277.8 0
377031.0 85933.9 0
382609.0 86808.0 0
388132.0 86108.6 0
394019.0 85424.5 0
399200.0 87093.3 0
403650.0 84350.6 0
408587.0 85562.7 0
412474.0 87213.3 0
417500.0 87259.0 0
422737.0 85370.0 0
427271.0 87078.7 0
432478.0 84882.1 0
437540.0 87235.4 0
442088.0 86177.0 0
446251.0 85757.7 0
450665.0 86525.6 0
455208.0 86465.4 0
460242.0 86309.3 0
465794.0 86698.4 0
471628.0 85954.9 0
477063.0 84758.4 0
481305.0 87621.6 0
485844.0 84690.5 0
491674.0 86229.2 0
497601.0 84722.7 0
2284.53 91973.7 0
6062.34 89652.6 0
11087.1 90684.4 0
17332.5 91386.6 0
23005.4 92642.5 0
28519.4 90219.2 0
34969.1 91829.4 0
40341.7 92147.9 0
44464.5 92489.7 0
48279.7 91192.7 0
52500.0 92257.9 0
57995.2 91578.6 0
62849.9 92312.5 0
67505.2 91984.3 0
72115.9 91598.7 0
77500.0 92384.0 0
82116.1 92030.2 0
87907.8 91271.3 0
92500.0 92393.0 0
97183.5 92021.9 0
102467.0 91926.5 0
108243.0 91172.7 0
112500.0 92329.4 0
117500.0 92410.8 0
122500.0 92333.7 0
127727.0 91876.5 0
132494.0 92227.3 0
137520.0 92242.1 0
142774.0 91719.3 0
146926.0 92067.3 0
151937.0 91944.9 0
156861.0 90876.8 0
161296.0 91697.1 0
166509.0 91196.3 0
172971.0 90976.5 0
178375.0 90858.1 0
183532.0 89700.1 0
188603.0 90932.4 0
193570.0 91792.7 0
198250.0 91155.7 0
203920.0 91791.0 0
213692.0 90821.3 0
209357.0 92005.4 0
217601.0 92427.6 0
222032.0 92193.9 0
226801.0 90833.6 0
232205.0 91895.4 0
237686.0 92719.7 0
243283.0 92544.2 0
248462.0 92247.8 0
252678.0 92718.4 0
257263.0 91271.3 0
262325.0 91896.9 0
267062.0 91473.2 0
271610.0 90776.7 0
277075.0 91180.5 0
282828.0 92596.0 0
287500.0 92307.4 0
292913.0 92164.3 0
298250.0 91052.0 0
303118.0 91996.3 0
307441.0 92189.1 0
312501.0 92501.9 0
317475.0 92243.0 0
322433.0 91741.0 0
327500.0 92287.6 0
332500.0 92360.0 0
337713.0 91693.2 0
343308.0 91087.7 0
347752.0 91484.1 0
352668.0 92210.5 0
361441.0 91257.0 0
357755.0 91724.2 0
365114.0 90949.5 0
372930.0 90763.0 0
378819.0 90484.7 0
382004.0 91623.0 0
388375.0 91196.9 0
393554.0 91571.6 0
402999.0 90550.2 0
398136.0 92006.3 0
408388.0 89843.5 0
412864.0 91155.4 0
417520.0 91774.7 0
422128.0 90006.7 0
428326.0 92021.1 0
433429.0 90115.2 0
437510.0 92303.8 0
443214.0 90459.3 0
447602.0 89767.7 0
451946.0 91003.1 0
457176.0 91192.5 0
462429.0 92682.2 0
466599.0 91268.1 0
470193.0 92448.3 0
475181.0 91248.0 0
480797.0 92896.6 0
486589.0 90879.7 0
492077.0 93130.1 0
496837.0 90231.8 0
2238.62 97897.0 0
6738.99 94697.7 0
11843.3 96514.0 0
16323.4 96593.8 0
20502.9 96604.0 0
27043.7 97051.9 0
32615.9 96885.3 0
38263.7 96660.6 0
42970.6 97047.5 0
47588.9 95913.7 0
51800.5 97678.6 0
56554.6 97198.8 0
62115.1 97168.8 0
67697.7 96828.2 0
73695.4 97141.4 0
78211.1 97581.5 0
81954.5 96756.3 0
86960.3 96787.1 0
92531.5 97144.0 0
97548.4 96541.2 0
102630.0 97688.5 0
107924.0 95952.6 0
116732.0 97014.0 0
112494.0 97226.2 0
120857.0 96864.1 0
125864.0 96244.5 0
131158.0 97943.3 0
136445.0 97895.5 0
140992.0 95840.1 0
146305.0 96958.5 0
151834.0 98556.4 0
156244.0 95437.5 0
161703.0 97387.7 0
166528.0 99206.0 0
169996.0 95762.9 0
176294.0 96615.8 0
182187.0 94839.1 0
188048.0 97094.0 0
194261.0 96818.8 0
199972.0 96260.7 0
208111.0 96913.9 0
204288.0 97255.9 0
213300.0 95632.2 0
217709.0 97361.4 0
222564.0 96468.2 0
226872.0 95838.5 0
232444.0 97360.1 0
237422.0 97145.7 0
241792.0 97799.0 0
246841.0 96315.9 0
251784.0 97609.5 0
257738.0 96023.3 0
262719.0 96674.5 0
267489.0 95927.8 0
273047.0 96016.8 0
279878.0 95243.5 0
283554.0 97528.9 0
287216.0 97596.7 0
291017.0 96470.7 0
296734.0 96095.5 0
302234.0 97231.2 0
307700.0 96618.9 0
313207.0 97744.1 0
318188.0 96733.0 0
322509.0 95746.2 0
326812.0 97627.8 0
336512.0 96357.7 0
331856.0 97343.7 0
341414.0 95293.1 0
346846.0 95870.7 0
351893.0 97045.6 0
356026.0 95598.2 0
361261.0 95959.0 0
366513.0 95030.5 0
371101.0 96903.7 0
377673.0 96419.6 0
384354.0 94960.5 0
392424.0 96394.2 0
388338.0 98148.9 0
397217.0 96354.0 0
402858.0 96791.1 0
409243.0 95488.4 0
414413.0 98042.7 0
419145.0 96463.9 0
424121.0 94824.0 0
427685.0 97860.1 0
432249.0 95738.5 0
437342.0 96476.0 0
442358.0 95696.2 0
448275.0 94840.5 0
454178.0 96407.3 0
458992.0 97456.7 0
463188.0 97219.8 0
467519.0 97327.1 0
472372.0 95770.4 0
477746.0 96718.8 0
482622.0 97591.4 0
487506.0 98694.2 0
491506.0 97191.5 0
496591.0 96800.6 0
2182.12 102311.0 0
8050.24 100538.0 0
13471.9 101141.0 0
17752.3 100438.0 0
22417.3 100978.0 0
26988.9 102975.0 0
32072.7 101173.0 0
37589.3 101865.0 0
43206.0 102111.0 0
49063.6 100705.0 0
53807.2 102379.0 0
59223.0 101878.0 0
63617.0 101500.0 0
68064.9 102500.0 0
72603.0 102017.0 0
77068.8 101501.0 0
82136.1 101777.0 0
87334.0 101961.0 0
92269.2 102475.0 0
97732.1 101893.0 0
102767.0 103145.0 0
107685.0 101451.0 0
113113.0 101555.0 0
118139.0 101490.0 0
123420.0 100852.0 0
127500.0 102408.0 0
137738.0 101810.0 0
132691.0 102771.0 0
142524.0 101959.0 0
148002.0 101567.0 0
156828.0 100832.0 0
153419.0 103210.0 0
160406.0 102201.0 0
164429.0 102909.0 0
170842.0 101792.0 0
177032.0 103184.0 0
182233.0 100318.0 0
186625.0 102728.0 0
191646.0 102215.0 0
197223.0 101546.0 0
203055.0 101400.0 0
208748.0 103260.0 0
214360.0 101303.0 0
218717.0 102610.0 0
222021.0 100726.0 0
227505.0 101389.0 0
234332.0 101740.0 0
237874.0 100470.0 0
241749.0 102400.0 0
246211.0 101501.0 0
251518.0 102868.0 0
255872.0 100739.0 0
260336.0 100408.0 0
262636.0 103983.0 0
266349.0 100610.0 0
271756.0 102286.0 0
278361.0 100746.0 0
284358.0 102268.0 0
288758.0 100750.0 0
292983.0 102466.0 0
298941.0 102395.0 0
303985.0 102628.0 0
307500.0 102452.0 0
316257.0 101447.0 0
312166.0 102270.0 0
321079.0 100972.0 0
325851.0 102561.0 0
329893.0 101170.0 0
334357.0 103167.0 0
339780.0 100684.0 0
346088.0 102125.0 0
352844.0 102621.0 0
357349.0 99555.6 0
361674.0 101947.0 0
366551.0 99723.1 0
371934.0 102538.0 0
377880.0 103871.0 0
382813.0 100477.0 0
387369.0 102334.0 0
393045.0 103066.0 0
399508.0 101961.0 0
408059.0 100837.0 0
404321.0 101988.0 0
412346.0 102507.0 0
416948.0 101846.0 0
421365.0 103093.0 0
425658.0 101487.0 0
431066.0 101930.0 0
437115.0 100671.0 0
441812.0 101282.0 0
446524.0 99837.6 0
450849.0 100335.0 0
455407.0 102180.0 0
461200.0 101869.0 0
466976.0 101653.0 0
472594.0 100730.0 0
478847.0 102218.0 0
484704.0 102732.0 0
489148.0 103457.0 0
492124.0 101047.0 0
496754.0 103443.0 0
1482.5 106986.0 0
7155.11 106846.0 0
11905.4 104881.0 0
12671.3 109386.0 0
17161.6 105617.0 0
23053.2 106362.0 0
30224.3 105712.0 0
34875.1 106506.0 0
39764.4 105929.0 0
43683.3 107764.0 0
48582.9 105929.0 0
53135.0 108380.0 0
57213.5 106270.0 0
63064.7 106275.0 0
68310.3 107676.0 0
73401.4 106075.0 0
78302.4 106649.0 0
83593.8 106718.0 0
88398.1 106778.0 0
92508.8 107317.0 0
97237.0 107309.0 0
101195.0 107374.0 0
105586.0 106967.0 0
111306.0 106139.0 0
116640.0 106748.0 0
122098.0 106042.0 0
126931.0 106450.0 0
131218.0 107152.0 0
136577.0 106360.0 0
142212.0 107652.0 0
147012.0 105844.0 0
151801.0 107776.0 0
157942.0 106769.0 0
167047.0 105784.0 0
163657.0 107395.0 0
171003.0 107800.0 0
182933.0 107238.0 0
193693.0 106301.0 0
189204.0 107134.0 0
198249.0 107433.0 0
203174.0 106501.0 0
207321.0 108640.0 0
212115.0 107512.0 0
216320.0 105920.0 0
221175.0 106259.0 0
226331.0 108027.0 0
231983.0 106238.0 0
237943.0 105206.0 0
242843.0 107056.0 0
248029.0 106579.0 0
252898.0 106896.0 0
257727.0 105921.0 0
267587.0 106562.0 0
272697.0 108171.0 0
278480.0 107401.0 0
283573.0 106855.0 0
288835.0 106071.0 0
293487.0 107064.0 0
297507.0 108441.0 0
302639.0 106933.0 0
307115.0 107293.0 0
311941.0 107012.0 0
316965.0 105884.0 0
322296.0 106567.0 0
330937.0 106685.0 0
327150.0 107431.0 0
341522.0 106178.0 0
337123.0 107064.0 0
346658.0 108092.0 0
351577.0 108272.0 0
357892.0 106134.0 0
367104.0 104630.0 0
362982.0 106921.0 0
370164.0 108079.0 0
374541.0 108093.0 0
383272.0 106488.0 0
388209.0 106515.0 0
392170.0 109313.0 0
397892.0 107898.0 0
403054.0 105963.0 0
408162.0 105687.0 0
414685.0 106154.0 0
417929.0 107407.0 0
422499.0 107954.0 0
427477.0 105937.0 0
431263.0 107359.0 0
436128.0 105655.0 0
441996.0 106942.0 0
448331.0 105349.0 0
454028.0 107340.0 0
459446.0 107481.0 0
464982.0 106760.0 0
473889.0 105946.0 0
469646.0 107611.0 0
477663.0 109019.0 0
481986.0 107172.0 0
486773.0 107067.0 0
492177.0 107624.0 0
497457.0 109179.0 0
2749.65 111024.0 0
7838.9 113367.0 0
18088.5 111388.0 0
23745.6 112120.0 0
28648.6 109759.0 0
33633.2 112063.0 0
39135.4 110770.0 0
43746.1 111973.0 0
48694.8 111899.0 0
54182.2 113085.0 0
59720.4 111281.0 0
64871.9 112381.0 0
68290.0 111865.0 0
72212.3 109954.0 0
76319.2 111545.0 0
81940.4 112139.0 0
87885.7 111847.0 0
96906.3 111882.0 0
92636.7 112243.0 0
101491.0 112011.0 0
106437.0 112303.0 0
111043.0 110989.0 0
115385.0 111465.0 0
120870.0 112066.0 0
127441.0 111714.0 0
133301.0 111605.0 0
138726.0 112092.0 0
143744.0 112259.0 0
148389.0 111862.0 0
152799.0 112366.0 0
157000.0 112467.0 0
161442.0 111244.0 0
166774.0 111136.0 0
172235.0 113584.0 0
176728.0 109475.0 0
177078.0 113800.0 0
181363.0 113848.0 0
186882.0 112135.0 0
192411.0 111641.0 0
197843.0 113142.0 0
202629.0 111077.0 0
206637.0 113253.0 0
210631.0 112040.0 0
216384.0 111815.0 0
222686.0 111902.0 0
228326.0 113571.0 0
236017.0 110189.0 0
240938.0 112623.0 0
246423.0 113175.0 0
250904.0 111046.0 0
256764.0 112128.0 0
262830.0 109562.0 0
268273.0 111918.0 0
272894.0 113068.0 0
277851.0 113410.0 0
282084.0 110785.0 0
287109.0 112157.0 0
293046.0 111483.0 0
297883.0 113798.0 0
301871.0 110860.0 0
306177.0 112774.0 0
311437.0 112740.0 0
316864.0 111009.0 0
322340.0 112487.0 0
328008.0 112042.0 0
333888.0 110914.0 0
337522.0 114341.0 0
342203.0 112158.0 0
347981.0 112845.0 0
355550.0 110397.0 0
352292.0 112549.0 0
360517.0 111663.0 0
366514.0 111773.0 0
372525.0 113035.0 0
378546.0 111444.0 0
383421.0 110627.0 0
387240.0 110986.0 0
390732.0 113946.0 0
396042.0 113721.0 0
400401.0 112197.0 0
405311.0 111204.0 0
411971.0 110272.0 0
417777.0 112143.0 0
422969.0 112823.0 0
427294.0 110191.0 0
432240.0 111949.0 0
437085.0 110987.0 0
441852.0 112549.0 0
447111.0 111514.0 0
452640.0 112529.0 0
458109.0 112843.0 0
462539.0 112440.0 0
466555.0 111442.0 0
471813.0 112178.0 0
476954.0 113739.0 0
482254.0 112529.0 0
487738.0 111916.0 0
492469.0 113480.0 0
497459.0 114262.0 0
3058.02 116824.0 0
8752.23 119250.0 0
13609.9 115234.0 0
18380.3 118969.0 0
23880.4 117822.0 0
28782.6 115102.0 0
33719.9 117767.0 0
38542.1 115956.0 0
43271.8 116230.0 0
49672.4 116792.0 0
53687.1 117830.0 0
58566.4 117149.0 0
63416.7 116328.0 0
67007.2 116790.0 0
71705.4 115290.0 0
77975.1 116875.0 0
83400.2 118221.0 0
88019.0 116880.0 0
93070.7 116862.0 0
98000.1 116351.0 0
105783.0 116740.0 0
102078.0 118004.0 0
110766.0 116342.0 0
116642.0 116244.0 0
126500.0 116976.0 0
122654.0 117535.0 0
131193.0 116300.0 0
135218.0 118125.0 0
139747.0 117643.0 0
145104.0 116853.0 0
150850.0 116912.0 0
156884.0 117824.0 0
162036.0 115907.0 0
167180.0 116233.0 0
171462.0 118909.0 0
176185.0 117525.0 0
180973.0 119450.0 0
185795.0 117419.0 0
191577.0 117521.0 0
197331.0 118671.0 0
202645.0 116514.0 0
207608.0 117275.0 0
212134.0 116420.0 0
217212.0 118202.0 0
223347.0 117872.0 0
228979.0 119566.0 0
233994.0 114727.0 0
233411.0 119194.0 0
238461.0 118387.0 0
243836.0 117665.0 0
248991.0 117277.0 0
252376.0 115320.0 0
255537.0 118229.0 0
262544.0 116724.0 0
268735.0 116887.0 0
273495.0 117614.0 0
278387.0 118800.0 0
282796.0 116163.0 0
287975.0 118147.0 0
293224.0 116817.0 0
297717.0 119077.0 0
302610.0 116707.0 0
308389.0 117690.0 0
313173.0 117282.0 0
317437.0 116763.0 0
325880.0 116023.0 0
322202.0 118063.0 0
329964.0 117205.0 0
335029.0 117751.0 0
340296.0 118159.0 0
345917.0 118882.0 0
351083.0 117016.0 0
356010.0 114993.0 0
360813.0 117539.0 0
366436.0 117517.0 0
371143.0 117972.0 0
377226.0 118700.0 0
383496.0 115074.0 0
387807.0 118249.0 0
392749.0 118276.0 0
398356.0 119236.0 0
403887.0 117241.0 0
409494.0 115869.0 0
414469.0 116119.0 0
417767.0 116278.0 0
420956.0 116634.0 0
427626.0 116701.0 0
433303.0 116316.0 0
437889.0 115966.0 0
442650.0 117442.0 0
448517.0 117398.0 0
453997.0 117395.0 0
458539.0 117813.0 0
462991.0 117593.0 0
467794.0 116422.0 0
472983.0 117924.0 0
479982.0 117642.0 0
484310.0 117496.0 0
488548.0 117042.0 0
492635.0 117635.0 0
497770.0 119023.0 0
2142.5 122728.0 0
13671.7 122877.0 0
18604.0 123911.0 0
22344.6 122308.0 0
27492.1 122754.0 0
32330.0 122018.0 0
37272.0 122566.0 0
42440.5 123889.0 0
46373.4 120593.0 0
51408.6 122980.0 0
57400.3 123279.0 0
63645.3 121497.0 0
68689.3 120073.0 0
73557.8 123141.0 0
79821.1 122353.0 0
85124.5 123145.0 0
90126.8 121361.0 0
95037.8 123218.0 0
98603.5 120527.0 0
101293.0 123884.0 0
105637.0 121249.0 0
111337.0 122680.0 0
118204.0 121814.0 0
123812.0 122063.0 0
128387.0 120393.0 0
133268.0 122469.0 0
137790.0 121583.0 0
141902.0 122436.0 0
147422.0 122164.0 0
152993.0 122120.0 0
157246.0 123738.0 0
161786.0 121475.0 0
167144.0 121203.0 0
170762.0 122940.0 0
176881.0 122519.0 0
182321.0 124271.0 0
186887.0 122446.0 0
191537.0 122825.0 0
196349.0 124118.0 0
201626.0 121986.0 0
207153.0 122243.0 0
212988.0 121930.0 0
219801.0 123290.0 0
224910.0 123193.0 0
228653.0 123660.0 0
232797.0 122975.0 0
236990.0 123628.0 0
242102.0 121916.0 0
246558.0 121641.0 0
251470.0 121242.0 0
257766.0 123496.0 0
262740.0 122797.0 0
268253.0 122504.0 0
274071.0 122576.0 0
279358.0 124323.0 0
284549.0 122196.0 0
289724.0 123078.0 0
293312.0 121175.0 0
296527.0 123998.0 0
302306.0 122393.0 0
307427.0 122954.0 0
312021.0 121455.0 0
316759.0 121358.0 0
321330.0 123196.0 0
326427.0 121648.0 0
331733.0 122156.0 0
337285.0 123460.0 0
342892.0 123490.0 0
346828.0 123449.0 0
351163.0 122192.0 0
356392.0 120561.0 0
361677.0 123645.0 0
366973.0 122388.0 0
371655.0 122454.0 0
382201.0 122626.0 0
386894.0 122973.0 0
391451.0 122783.0 0
395529.0 123535.0 0
400529.0 124346.0 0
405863.0 123014.0 0
411605.0 121393.0 0
416991.0 120003.0 0
422628.0 121634.0 0
428258.0 122787.0 0
432998.0 120960.0 0
438724.0 121612.0 0
444698.0 122323.0 0
450508.0 124078.0 0
455670.0 121789.0 0
461373.0 122682.0 0
468722.0 121646.0 0
465833.0 124325.0 0
473166.0 123496.0 0
477805.0 122154.0 0
482449.0 122324.0 0
486594.0 121197.0 0
490650.0 121649.0 0
495005.0 123004.0 0
2239.97 127300.0 0
7229.67 125329.0 0
12440.6 128940.0 0
18049.5 128368.0 0
23275.1 127161.0 0
29083.3 128728.0 0
32590.7 125492.0 0
35952.3 128384.0 0
40992.0 128107.0 0
47008.3 127075.0 0
52812.1 127724.0 0
57603.0 129440.0 0
62195.8 126892.0 0
67963.9 126958.0 0
73651.7 129847.0 0
78090.1 126949.0 0
82804.1 127862.0 0
88774.1 127683.0 0
93972.8 128060.0 0
97844.2 126585.0 0
101251.0 128169.0 0
105727.0 126742.0 0
110243.0 128118.0 0
115522.0 127694.0 0
121623.0 126895.0 0
128112.0 126432.0 0
137500.0 125525.0 0
133715.0 127304.0 0
142031.0 127703.0 0
148122.0 128746.0 0
153546.0 126939.0 0
157983.0 127917.0 0
163103.0 127313.0 0
173356.0 126188.0 0
168439.0 126474.0 0
177762.0 126961.0 0
181596.0 128843.0 0
186463.0 127713.0 0
191579.0 127337.0 0
201124.0 127579.0 0
207148.0 128304.0 0
212098.0 126864.0 0
216813.0 128077.0 0
221590.0 128894.0 0
226069.0 127721.0 0
231021.0 127008.0 0
235877.0 128266.0 0
241284.0 126825.0 0
246730.0 126578.0 0
252429.0 126753.0 0
257588.0 128743.0 0
263719.0 128301.0 0
269612.0 128168.0 0
274591.0 127558.0 0
279916.0 129667.0 0
284011.0 126657.0 0
288600.0 128092.0 0
292658.0 126500.0 0
298743.0 128702.0 0
303661.0 127346.0 0
307812.0 127272.0 0
312334.0 126682.0 0
317611.0 126395.0 0
323360.0 128186.0 0
328006.0 126313.0 0
332710.0 127269.0 0
337436.0 128773.0 0
345477.0 127164.0 0
341914.0 127419.0 0
349518.0 126384.0 0
355328.0 126761.0 0
360664.0 128833.0 0
366485.0 127108.0 0
373420.0 127605.0 0
378335.0 125306.0 0
378300.0 129802.0 0
383175.0 128270.0 0
392581.0 127154.0 0
388072.0 127379.0 0
397114.0 127393.0 0
408059.0 127771.0 0
403354.0 128493.0 0
412514.0 126638.0 0
417168.0 125130.0 0
421019.0 127181.0 0
425370.0 126819.0 0
431956.0 126604.0 0
437683.0 127852.0 0
443668.0 127904.0 0
454498.0 127035.0 0
458799.0 127973.0 0
463933.0 127797.0 0
469297.0 127133.0 0
474376.0 128032.0 0
479087.0 127042.0 0
483695.0 128726.0 0
486587.0 125402.0 0
491385.0 127469.0 0
497411.0 127620.0 0
2127.55 131668.0 0
6960.48 131214.0 0
12581.5 134349.0 0
16008.7 132375.0 0
20037.4 132653.0 0
24885.0 132413.0 0
32222.1 133093.0 0
37673.5 133986.0 0
43318.3 132529.0 0
48686.4 133073.0 0
53579.8 132253.0 0
57459.1 134350.0 0
62542.2 132124.0 0
67219.3 132210.0 0
71133.0 134616.0 0
79099.0 132469.0 0
84542.7 132460.0 0
88606.5 132719.0 0
92508.1 132168.0 0
97466.4 130976.0 0
102445.0 132595.0 0
107194.0 131494.0 0
111837.0 132281.0 0
117994.0 133201.0 0
123247.0 132127.0 0
127766.0 131819.0 0
132819.0 132374.0 0
138522.0 131629.0 0
143145.0 132532.0 0
151877.0 132532.0 0
147994.0 134721.0 0
156564.0 132750.0 0
161568.0 132247.0 0
166875.0 131349.0 0
173249.0 132408.0 0
178608.0 132557.0 0
183533.0 133495.0 0
189457.0 132563.0 0
195893.0 129869.0 0
193908.0 133692.0 0
199741.0 132595.0 0
203874.0 133176.0 0
208359.0 133444.0 0
212779.0 131522.0 0
219058.0 132825.0 0
223358.0 132394.0 0
227641.0 132423.0 0
232481.0 131718.0 0
237724.0 132728.0 0
242286.0 133148.0 0
246691.0 131415.0 0
251864.0 133004.0 0
257453.0 133040.0 0
262305.0 134529.0 0
267688.0 132356.0 0
271757.0 131919.0 0
276114.0 132386.0 0
284286.0 131071.0 0
288580.0 133331.0 0
293601.0 131042.0 0
298814.0 133462.0 0
302642.0 132291.0 0
306701.0 131143.0 0
311690.0 132376.0 0
316843.0 131227.0 0
321345.0 133119.0 0
324883.0 132078.0 0
328697.0 131024.0 0
334154.0 132892.0 0
339612.0 132681.0 0
344143.0 131381.0 0
350100.0 132040.0 0
356712.0 133607.0 0
363252.0 133497.0 0
369396.0 131896.0 0
374924.0 132923.0 0
379745.0 133774.0 0
384038.0 133898.0 0
388068.0 131879.0 0
397920.0 131573.0 0
393144.0 132226.0 0
401987.0 132819.0 0
406595.0 132395.0 0
412747.0 132534.0 0
418441.0 130564.0 0
423545.0 131984.0 0
428715.0 130625.0 0
433882.0 133087.0 0
440195.0 134018.0 0
445499.0 132623.0 0
450715.0 130510.0 0
456147.0 132116.0 0
463205.0 131842.0 0
460062.0 132581.0 0
467453.0 132398.0 0
472541.0 132331.0 0
477866.0 132370.0 0
482744.0 132973.0 0
487589.0 131968.0 0
492465.0 132658.0 0
497811.0 132382.0 0
3067.48 136777.0 0
8555.24 135714.0 0
12197.8 138896.0 0
16420.9 136547.0 0
21312.4 137556.0 0
27466.1 137768.0 0
32650.3 136900.0 0
37797.4 139352.0 0
42306.1 137681.0 0
47951.0 138582.0 0
53255.7 137208.0 0
58928.8 138242.0 0
62499.3 136546.0 0
66930.3 136646.0 0
71359.2 138796.0 0
76176.4 137660.0 0
82351.5 136065.0 0
86393.3 136400.0 0
91254.1 137250.0 0
96601.8 136098.0 0
101325.0 137257.0 0
106448.0 136663.0 0
112395.0 137793.0 0
118078.0 138628.0 0
123220.0 137378.0 0
128379.0 136322.0 0
133236.0 137858.0 0
138695.0 137360.0 0
143897.0 136574.0 0
146817.0 138959.0 0
152641.0 136964.0 0
158024.0 137227.0 0
162828.0 136380.0 0
168108.0 136801.0 0
172596.0 138086.0 0
177246.0 137844.0 0
182427.0 138451.0 0
187087.0 137449.0 0
192265.0 137716.0 0
197934.0 137316.0 0
202908.0 137159.0 0
207315.0 138145.0 0
212051.0 136466.0 0
217205.0 137894.0 0
222464.0 136616.0 0
227444.0 137966.0 0
232440.0 136424.0 0
237065.0 137041.0 0
241372.0 137619.0 0
246106.0 136432.0 0
254522.0 137475.0 0
250345.0 138015.0 0
258823.0 138103.0 0
267465.0 137692.0 0
272517.0 135806.0 0
277260.0 137668.0 0
283203.0 136463.0 0
288222.0 137887.0 0
292774.0 136647.0 0
297384.0 137415.0 0
302106.0 137432.0 0
306892.0 135871.0 0
316042.0 136122.0 0
311368.0 137891.0 0
320406.0 137540.0 0
326139.0 136865.0 0
332573.0 138945.0 0
338274.0 137940.0 0
343317.0 136326.0 0
348163.0 137525.0 0
353179.0 138079.0 0
358609.0 139125.0 0
363217.0 138988.0 0
372382.0 137066.0 0
367630.0 137455.0 0
377383.0 138427.0 0
382002.0 136955.0 0
387377.0 136504.0 0
391837.0 136942.0 0
396415.0 136155.0 0
401429.0 137722.0 0
406578.0 137258.0 0
411926.0 138895.0 0
417742.0 136489.0 0
422243.0 139416.0 0
428007.0 136834.0 0
435853.0 138359.0 0
440095.0 138969.0 0
448654.0 135173.0 0
444884.0 137777.0 0
448961.0 138286.0 0
453284.0 136891.0 0
458570.0 136004.0 0
463270.0 136034.0 0
468255.0 137455.0 0
473568.0 137513.0 0
478469.0 137283.0 0
481959.0 137815.0 0
485370.0 136430.0 0
490340.0 136544.0 0
495332.0 136636.0 0
2830.07 142684.0 0
7503.89 140132.0 0
9657.68 143985.0 0
12525.0 142535.0 0
17165.7 142087.0 0
23591.6 142989.0 0
28519.5 142855.0 0
32917.2 141007.0 0
37937.0 145018.0 0
44154.4 143041.0 0
48947.1 144732.0 0
51665.9 141698.0 0
56222.5 141789.0 0
61495.4 142220.0 0
67362.4 142147.0 0
73114.8 143163.0 0
80897.4 140326.0 0
78024.9 144168.0 0
86724.0 142025.0 0
92877.4 143234.0 0
98368.7 141470.0 0
103676.0 141412.0 0
108521.0 142059.0 0
113658.0 143175.0 0
118711.0 143930.0 0
123558.0 142412.0 0
128426.0 141497.0 0
133081.0 142378.0 0
137596.0 142737.0 0
143072.0 140700.0 0
146707.0 143005.0 0
150635.0 140900.0 0
155609.0 140980.0 0
161150.0 141263.0 0
167133.0 142879.0 0
172930.0 142374.0 0
178054.0 143354.0 0
183653.0 143217.0 0
189253.0 142189.0 0
194195.0 142238.0 0
203778.0 141377.0 0
199079.0 142966.0 0
208282.0 143187.0 0
213126.0 141725.0 0
217850.0 143199.0 0
222500.0 142368.0 0
227501.0 142544.0 0
231364.0 140559.0 0
231614.0 144745.0 0
235334.0 141085.0 0
241012.0 142010.0 0
246229.0 142281.0 0
252669.0 142761.0 0
257745.0 141893.0 0
262636.0 141024.0 0
268649.0 142409.0 0
272487.0 140458.0 0
276647.0 142716.0 0
282613.0 142241.0 0
287963.0 142300.0 0
293356.0 142127.0 0
298041.0 141283.0 0
302181.0 143340.0 0
306759.0 140744.0 0
311374.0 143113.0 0
317139.0 141809.0 0
322855.0 142075.0 0
326676.0 141815.0 0
331450.0 143358.0 0
335630.0 143841.0 0
340794.0 142637.0 0
345207.0 140724.0 0
349873.0 142147.0 0
355447.0 144312.0 0
361543.0 143703.0 0
367147.0 142854.0 0
372564.0 141980.0 0
377583.0 144162.0 0
382879.0 141610.0 0
389047.0 141476.0 0
397277.0 141336.0 0
393442.0 143628.0 0
402363.0 143360.0 0
407528.0 141968.0 0
411988.0 144201.0 0
417012.0 142189.0 0
421587.0 144044.0 0
426096.0 142940.0 0
432011.0 142229.0 0
437798.0 143315.0 0
443151.0 142797.0 0
447788.0 141967.0 0
452657.0 142808.0 0
457751.0 140853.0 0
463133.0 141207.0 0
468194.0 142601.0 0
473084.0 142676.0 0
478097.0 142121.0 0
482741.0 142432.0 0
487708.0 141336.0 0
493259.0 141373.0 0
497791.0 140926.0 0
2518.34 148026.0 0
7270.15 147428.0 0
12117.1 147762.0 0
17593.1 148362.0 0
23417.5 149048.0 0
28810.2 147363.0 0
32723.7 145707.0 0
39402.4 149986.0 0
43274.0 148473.0 0
47709.0 148552.0 0
52884.2 147391.0 0
58210.7 146564.0 0
64170.1 147823.0 0
71362.0 146707.0 0
69258.6 148771.0 0
75108.1 148536.0 0
81048.6 148334.0 0
87053.8 148687.0 0
96751.4 147290.0 0
92020.5 147816.0 0
101923.0 145765.0 0
107424.0 148153.0 0
113364.0 148171.0 0
118426.0 149191.0 0
123398.0 147479.0 0
128618.0 146662.0 0
133599.0 146908.0 0
141641.0 145270.0 0
137995.0 148547.0 0
145474.0 147867.0 0
150726.0 146611.0 0
156814.0 146207.0 0
162657.0 147330.0 0
170995.0 147240.0 0
175347.0 148967.0 0
183159.0 147168.0 0
179617.0 148040.0 0
187240.0 147271.0 0
192617.0 146845.0 0
197965.0 148605.0 0
202934.0 146386.0 0
206811.0 148746.0 0
210961.0 147295.0 0
215629.0 147514.0 0
221239.0 147590.0 0
227185.0 147904.0 0
237589.0 146777.0 0
243850.0 147482.0 0
248904.0 147253.0 0
254146.0 148890.0 0
257368.0 145232.0 0
260306.0 147271.0 0
265515.0 146193.0 0
272406.0 146762.0 0
279500.0 147485.0 0
285572.0 146370.0 0
290284.0 146241.0 0
293632.0 149613.0 0
297351.0 146480.0 0
302309.0 148444.0 0
306882.0 146220.0 0
312363.0 149165.0 0
318328.0 147628.0 0
323489.0 147024.0 0
328118.0 145316.0 0
332371.0 147811.0 0
340947.0 147216.0 0
337053.0 148427.0 0
345692.0 146016.0 0
350919.0 148125.0 0
359291.0 148509.0 0
364354.0 148200.0 0
368943.0 147517.0 0
373329.0 146850.0 0
377200.0 149247.0 0
381329.0 147436.0 0
386962.0 147619.0 0
393352.0 148482.0 0
398527.0 146916.0 0
402914.0 148300.0 0
407775.0 147368.0 0
415878.0 148000.0 0
421177.0 149303.0 0
424598.0 146976.0 0
428963.0 147513.0 0
434131.0 147208.0 0
438737.0 148498.0 0
442788.0 147159.0 0
447718.0 147231.0 0
453045.0 147830.0 0
458330.0 146658.0 0
463624.0 146025.0 0
468161.0 147927.0 0
473597.0 147087.0 0
478149.0 147280.0 0
482808.0 146631.0 0
487497.0 146918.0 0
492502.0 146324.0 0
497556.0 145574.0 0
2475.48 153020.0 0
7677.12 152450.0 0
12004.6 151962.0 0
15771.8 153396.0 0
20838.9 154093.0 0
26808.4 153435.0 0
34065.1 151097.0 0
40054.3 154230.0 0
44705.8 152938.0 0
48760.1 152262.0 0
53065.9 152565.0 0
59516.1 151657.0 0
63885.5 152961.0 0
67606.5 152220.0 0
71692.2 152161.0 0
78263.5 152043.0 0
82471.7 153325.0 0
87140.6 154277.0 0
91999.1 152456.0 0
96999.9 152405.0 0
102128.0 151656.0 0
106970.0 154031.0 0
111124.0 152466.0 0
115819.0 153834.0 0
121102.0 153837.0 0
126570.0 152184.0 0
132454.0 151882.0 0
137140.0 153017.0 0
142292.0 152149.0 0
147728.0 151616.0 0
152626.0 152266.0 0
157521.0 151290.0 0
162025.0 152900.0 0
167210.0 151330.0 0
172467.0 152388.0 0
178178.0 153300.0 0
183468.0 151092.0 0
190430.0 151862.0 0
195416.0 153307.0 0
203351.0 151742.0 0
199786.0 153925.0 0
208223.0 152726.0 0
212606.0 151794.0 0
217696.0 152200.0 0
223411.0 152439.0 0
227691.0 152901.0 0
232729.0 152127.0 0
237914.0 152794.0 0
242249.0 151673.0 0
246577.0 151568.0 0
251457.0 153352.0 0
257659.0 153162.0 0
262657.0 151392.0 0
268086.0 151451.0 0
273563.0 153472.0 0
279476.0 153680.0 0
284060.0 150628.0 0
289117.0 151340.0 0
293860.0 153833.0 0
298812.0 152228.0 0
302795.0 151908.0 0
302713.0 155068.0 0
307469.0 151777.0 0
312804.0 154983.0 0
316382.0 152546.0 0
321289.0 152646.0 0
327598.0 151193.0 0
333607.0 152792.0 0
340751.0 151348.0 0
337889.0 154301.0 0
346463.0 152570.0 0
352479.0 152945.0 0
358046.0 154090.0 0
362684.0 152064.0 0
367601.0 152793.0 0
373234.0 151976.0 0
377756.0 153980.0 0
383127.0 152847.0 0
388874.0 153500.0 0
397598.0 151332.0 0
393912.0 153761.0 0
401995.0 152918.0 0
407554.0 153170.0 0
417737.0 152161.0 0
413357.0 153195.0 0
420740.0 153445.0 0
426079.0 152889.0 0
432064.0 151986.0 0
436732.0 152341.0 0
442765.0 152181.0 0
448812.0 154330.0 0
453409.0 152001.0 0
458511.0 153186.0 0
463599.0 150567.0 0
467767.0 153243.0 0
471813.0 150786.0 0
476449.0 152312.0 0
481100.0 150622.0 0
485658.0 151583.0 0
490710.0 152618.0 0
496002.0 150854.0 0
3211.09 158148.0 0
8257.68 157550.0 0
12763.1 157186.0 0
17406.5 158155.0 0
22006.4 158690.0 0
26229.4 158220.0 0
30952.7 156720.0 0
35932.7 156835.0 0
40009.3 159960.0 0
43629.9 156923.0 0
47755.3 156294.0 0
51809.1 156623.0 0
56829.7 156844.0 0
62579.4 156974.0 0
67170.9 157398.0 0
72520.8 157347.0 0
77992.0 156141.0 0
82526.4 157750.0 0
86294.0 158344.0 0
90159.8 157591.0 0
95222.1 157428.0 0
101125.0 157326.0 0
106555.0 159054.0 0
111795.0 157328.0 0
118333.0 158505.0 0
123281.0 158263.0 0
132214.0 157198.0 0
127624.0 157303.0 0
137231.0 157616.0 0
141708.0 158889.0 0
146469.0 156612.0 0
151573.0 159076.0 0
156132.0 156233.0 0
161834.0 159201.0 0
169286.0 157713.0 0
175976.0 159075.0 0
181606.0 158109.0 0
186112.0 155494.0 0
190993.0 157167.0 0
195754.0 157982.0 0
200539.0 159104.0 0
204962.0 156261.0 0
208467.0 158508.0 0
211617.0 156360.0 0
216503.0 157519.0 0
221704.0 156844.0 0
226695.0 157394.0 0
231955.0 156399.0 0
236065.0 157680.0 0
241435.0 156166.0 0
246762.0 156680.0 0
251418.0 157603.0 0
256142.0 158268.0 0
261549.0 156734.0 0
266315.0 155890.0 0
270640.0 158352.0 0
276599.0 158428.0 0
284957.0 155768.0 0
290186.0 156206.0 0
293756.0 158453.0 0
297271.0 156651.0 0
304641.0 159775.0 0
307445.0 155711.0 0
310130.0 158293.0 0
313928.0 159744.0 0
316961.0 156690.0 0
326197.0 156577.0 0
321557.0 158622.0 0
331854.0 157776.0 0
336696.0 158314.0 0
341784.0 157226.0 0
346628.0 158444.0 0
350388.0 156876.0 0
354412.0 158157.0 0
363421.0 157407.0 0
368528.0 158015.0 0
372652.0 156666.0 0
376987.0 159129.0 0
381263.0 157357.0 0
385749.0 157966.0 0
391603.0 158515.0 0
397805.0 157414.0 0
403437.0 157894.0 0
408193.0 158287.0 0
412655.0 158361.0 0
417328.0 156860.0 0
422294.0 157191.0 0
427069.0 159578.0 0
433144.0 157920.0 0
438898.0 156401.0 0
443938.0 157771.0 0
448492.0 160177.0 0
453765.0 156955.0 0
457909.0 159100.0 0
463038.0 157647.0 0
468113.0 158011.0 0
472249.0 155829.0 0
476531.0 157347.0 0
481591.0 155891.0 0
487406.0 156494.0 0
492246.0 159029.0 0
497268.0 156506.0 0
2743.24 163577.0 0
8042.84 162572.0 0
14921.8 162388.0 0
11765.3 165053.0 0
19909.6 162966.0 0
25329.1 163062.0 0
32699.7 163516.0 0
42538.4 164930.0 0
47202.1 161569.0 0
52669.6 160818.0 0
57753.5 163086.0 0
63751.4 162334.0 0
69579.3 162690.0 0
74694.7 163228.0 0
78841.1 160895.0 0
82761.4 162518.0 0
87411.8 162777.0 0
93077.7 162851.0 0
98832.4 162686.0 0
103893.0 163239.0 0
107222.0 163060.0 0
111638.0 163200.0 0
120398.0 163232.0 0
124184.0 162531.0 0
128406.0 161928.0 0
132872.0 161533.0 0
136853.0 162307.0 0
141100.0 163072.0 0
146522.0 162579.0 0
151900.0 164467.0 0
156635.0 162674.0 0
160656.0 164741.0 0
166704.0 163981.0 0
172255.0 162698.0 0
179233.0 162688.0 0
184127.0 163312.0 0
189315.0 161682.0 0
193668.0 162584.0 0
197503.0 162166.0 0
202966.0 162951.0 0
206275.0 160827.0 0
212256.0 162198.0 0
216807.0 162050.0 0
220975.0 161678.0 0
225739.0 162362.0 0
230981.0 160794.0 0
235664.0 162603.0 0
240542.0 161413.0 0
248381.0 161457.0 0
252558.0 161246.0 0
259972.0 161327.0 0
256057.0 163272.0 0
265489.0 161140.0 0
270071.0 165170.0 0
272928.0 161821.0 0
275665.0 162407.0 0
278053.0 165448.0 0
281962.0 161282.0 0
288337.0 160961.0 0
293477.0 163126.0 0
298770.0 161048.0 0
309148.0 161957.0 0
312953.0 164487.0 0
317699.0 161657.0 0
323366.0 163810.0 0
327810.0 161086.0 0
332500.0 162432.0 0
336870.0 162925.0 0
342208.0 162801.0 0
351679.0 161697.0 0
347217.0 162815.0 0
354428.0 165313.0 0
357651.0 161695.0 0
363233.0 163761.0 0
368505.0 162277.0 0
373400.0 163493.0 0
382576.0 161389.0 0
379099.0 163534.0 0
387079.0 163565.0 0
392324.0 164699.0 0
395893.0 162145.0 0
400749.0 162609.0 0
405935.0 162232.0 0
411228.0 163536.0 0
416962.0 162688.0 0
422189.0 162093.0 0
426356.0 165136.0 0
431391.0 163617.0 0
437982.0 161825.0 0
443845.0 163653.0 0
453591.0 162182.0 0
449070.0 164526.0 0
458351.0 163298.0 0
462239.0 162637.0 0
467266.0 163015.0 0
472251.0 160974.0 0
478242.0 162112.0 0
483445.0 161016.0 0
482524.0 165479.0 0
487729.0 161166.0 0
492458.0 164018.0 0
497114.0 162107.0 0
2122.1 168402.0 0
6629.66 167507.0 0
10874.6 168706.0 0
16445.0 167633.0 0
22133.0 167765.0 0
26805.3 167638.0 0
38046.4 168959.0 0
44045.6 169447.0 0
47182.2 166700.0 0
52162.2 166246.0 0
57345.5 169183.0 0
62695.8 167714.0 0
67631.1 168033.0 0
72734.0 167774.0 0
77869.6 167147.0 0
83358.2 167232.0 0
88734.2 167737.0 0
93487.7 167710.0 0
97430.6 167321.0 0
102461.0 168449.0 0
107419.0 166311.0 0
111801.0 169565.0 0
116413.0 165889.0 0
120437.0 169095.0 0
125857.0 166854.0 0
131745.0 166257.0 0
137378.0 167186.0 0
143319.0 167970.0 0
148470.0 167530.0 0
152878.0 168997.0 0
157300.0 167673.0 0
163242.0 167098.0 0
168107.0 169395.0 0
170863.0 166133.0 0
175911.0 166706.0 0
181671.0 168521.0 0
189133.0 166929.0 0
194264.0 167328.0 0
199454.0 166517.0 0
203612.0 168539.0 0
207411.0 165612.0 0
210865.0 169289.0 0
216143.0 167575.0 0
221749.0 165923.0 0
221800.0 170586.0 0
226488.0 167634.0 0
232442.0 166780.0 0
238431.0 166533.0 0
244736.0 165737.0 0
251357.0 166237.0 0
256819.0 167799.0 0
261841.0 165911.0 0
266226.0 169259.0 0
274196.0 167906.0 0
283491.0 167598.0 0
289033.0 166287.0 0
293268.0 168636.0 0
297213.0 165931.0 0
303005.0 166253.0 0
308805.0 167164.0 0
318356.0 166934.0 0
324039.0 169259.0 0
328792.0 166309.0 0
334066.0 168058.0 0
339592.0 167466.0 0
344932.0 167265.0 0
349988.0 166801.0 0
358650.0 168418.0 0
363897.0 169354.0 0
368161.0 166992.0 0
372314.0 168229.0 0
376962.0 168069.0 0
382471.0 167031.0 0
387497.0 168045.0 0
392129.0 168807.0 0
396150.0 167520.0 0
401229.0 168078.0 0
406693.0 167395.0 0
411220.0 168408.0 0
415491.0 167726.0 0
421158.0 167678.0 0
428522.0 168643.0 0
430960.0 168047.0 0
435835.0 167846.0 0
442045.0 169592.0 0
446665.0 168017.0 0
451287.0 169244.0 0
456077.0 166968.0 0
461499.0 167687.0 0
466931.0 168423.0 0
472915.0 166173.0 0
478057.0 167582.0 0
487864.0 166296.0 0
493643.0 167920.0 0
498089.0 166789.0 0
2813.63 173195.0 0
8165.94 172451.0 0
12894.6 171815.0 0
16332.1 172464.0 0
20384.6 172342.0 0
25268.8 173573.0 0
31181.1 171317.0 0
37228.7 174300.0 0
41794.7 173310.0 0
47446.0 173430.0 0
53101.7 172740.0 0
58687.7 174473.0 0
63565.5 172867.0 0
68267.9 172430.0 0
72453.5 172622.0 0
77185.4 172261.0 0
86321.9 171356.0 0
82034.7 172340.0 0
91303.7 172275.0 0
96817.4 171722.0 0
101396.0 174340.0 0
107501.0 174540.0 0
116464.0 172299.0 0
113002.0 174392.0 0
121274.0 173830.0 0
126005.0 173014.0 0
132122.0 172641.0 0
137819.0 172826.0 0
142840.0 173360.0 0
147532.0 172082.0 0
152628.0 173640.0 0
157561.0 172662.0 0
162712.0 171600.0 0
167292.0 174424.0 0
172608.0 171896.0 0
177851.0 172002.0 0
182304.0 173618.0 0
186374.0 171263.0 0
192083.0 171799.0 0
196622.0 172492.0 0
201111.0 171997.0 0
206767.0 171797.0 0
212749.0 172409.0 0
214027.0 175763.0 0
217643.0 173490.0 0
226799.0 172741.0 0
231546.0 172407.0 0
236389.0 171436.0 0
241207.0 171006.0 0
240055.0 174379.0 0
243733.0 175288.0 0
245772.0 171086.0 0
250430.0 172130.0 0
255178.0 171980.0 0
260749.0 172090.0 0
266799.0 174780.0 0
271141.0 171565.0 0
278166.0 171159.0 0
283291.0 174435.0 0
288465.0 171582.0 0
293486.0 173536.0 0
298393.0 171139.0 0
303462.0 171805.0 0
308193.0 172172.0 0
314357.0 172280.0 0
319272.0 171885.0 0
322913.0 175008.0 0
328968.0 171868.0 0
333146.0 172269.0 0
336742.0 172218.0 0
342592.0 172629.0 0
347881.0 171772.0 0
346990.0 175326.0 0
353212.0 171483.0 0
357776.0 174099.0 0
362517.0 174169.0 0
367793.0 172641.0 0
373566.0 172859.0 0
382651.0 172282.0 0
378336.0 172576.0 0
387500.0 172581.0 0
390840.0 172384.0 0
394209.0 171974.0 0
397990.0 171979.0 0
405861.0 173426.0 0
412257.0 173041.0 0
417885.0 172546.0 0
423011.0 172944.0 0
427877.0 172533.0 0
432790.0 173004.0 0
437676.0 173491.0 0
441768.0 174260.0 0
447083.0 172272.0 0
452131.0 174405.0 0
456331.0 171916.0 0
461274.0 173343.0 0
466168.0 173006.0 0
470975.0 171166.0 0
476162.0 172608.0 0
482656.0 171480.0 0
488908.0 171861.0 0
492846.0 174714.0 0
497008.0 171572.0 0
2316.38 177636.0 0
7488.63 177297.0 0
11899.4 175782.0 0
13296.2 180180.0 0
17721.6 176706.0 0
22192.4 177300.0 0
25713.9 178098.0 0
29624.7 179888.0 0
33500.7 176901.0 0
36829.6 179323.0 0
41261.1 178539.0 0
46266.3 178659.0 0
51637.1 178085.0 0
56874.2 178736.0 0
62241.2 178323.0 0
67515.8 177146.0 0
72506.5 177234.0 0
81266.9 177462.0 0
76625.2 178296.0 0
87014.7 176377.0 0
92308.8 177543.0 0
97255.4 177565.0 0
102435.0 179490.0 0
106772.0 179684.0 0
111799.0 178368.0 0
117643.0 177840.0 0
123436.0 177566.0 0
128783.0 178069.0 0
134059.0 177681.0 0
137961.0 177412.0 0
142163.0 177362.0 0
147504.0 177882.0 0
152870.0 178574.0 0
158962.0 177049.0 0
162909.0 176971.0 0
167203.0 179063.0 0
171989.0 176335.0 0
177728.0 177539.0 0
183253.0 178298.0 0
188242.0 176238.0 0
193898.0 177094.0 0
199055.0 176816.0 0
204158.0 177253.0 0
209492.0 176865.0 0
213592.0 180031.0 0
217434.0 177873.0 0
222151.0 176078.0 0
226340.0 176602.0 0
225384.0 180450.0 0
230558.0 177933.0 0
235731.0 176178.0 0
240026.0 178335.0 0
250365.0 177523.0 0
256477.0 177408.0 0
262642.0 177717.0 0
267377.0 180296.0 0
272519.0 177207.0 0
278324.0 176974.0 0
282852.0 179974.0 0
289988.0 177079.0 0
294960.0 177984.0 0
299386.0 176493.0 0
303667.0 175803.0 0
307824.0 177330.0 0
313037.0 178471.0 0
317923.0 176689.0 0
324620.0 179577.0 0
327989.0 176905.0 0
333197.0 176554.0 0
338999.0 177921.0 0
344324.0 177910.0 0
351177.0 177583.0 0
358163.0 178481.0 0
362968.0 179074.0 0
367649.0 178005.0 0
372887.0 178489.0 0
377591.0 177253.0 0
387666.0 177037.0 0
383033.0 177448.0 0
390579.0 177925.0 0
394661.0 176593.0 0
400640.0 176363.0 0
400517.0 180742.0 0
404214.0 179666.0 0
409727.0 178889.0 0
416361.0 178326.0 0
422812.0 178601.0 0
428624.0 177365.0 0
433383.0 177823.0 0
438577.0 178743.0 0
448820.0 177133.0 0
444221.0 178057.0 0
452094.0 178395.0 0
457220.0 178175.0 0
462827.0 177822.0 0
466793.0 179091.0 0
470795.0 176355.0 0
476400.0 178988.0 0
482885.0 178220.0 0
488671.0 177383.0 0
492896.0 178436.0 0
497140.0 177435.0 0
2879.37 181468.0 0
2104.65 185625.0 0
7660.86 181758.0 0
12523.0 185541.0 0
17519.5 181599.0 0
21981.7 181586.0 0
25924.8 181991.0 0
33841.2 182754.0 0
38550.9 182790.0 0
43314.6 183599.0 0
47500.0 182394.0 0
51975.4 183732.0 0
58911.2 183289.0 0
64498.4 183514.0 0
69008.4 182242.0 0
73877.8 181703.0 0
77217.6 182121.0 0
80691.7 182564.0 0
77191.5 185738.0 0
86321.7 182685.0 0
92811.4 182551.0 0
98242.8 182825.0 0
103094.0 183454.0 0
109028.0 182863.0 0
113212.0 182479.0 0
122442.0 182349.0 0
117544.0 183550.0 0
126563.0 182960.0 0
131864.0 182418.0 0
136845.0 181960.0 0
140199.0 184274.0 0
144006.0 182649.0 0
150411.0 182444.0 0
157085.0 182268.0 0
162990.0 181358.0 0
167631.0 183728.0 0
173048.0 181969.0 0
183029.0 182908.0 0
178837.0 183605.0 0
186680.0 181617.0 0
191842.0 181973.0 0
196806.0 181168.0 0
201799.0 182263.0 0
207325.0 181970.0 0
212322.0 185861.0 0
216949.0 183068.0 0
220483.0 180913.0 0
222870.0 185373.0 0
229373.0 182968.0 0
235824.0 181658.0 0
240223.0 183357.0 0
245170.0 181369.0 0
252493.0 182533.0 0
257217.0 182868.0 0
262355.0 182497.0 0
272615.0 183315.0 0
277797.0 181994.0 0
281554.0 185722.0 0
289758.0 181852.0 0
285974.0 183476.0 0
293416.0 181558.0 0
297870.0 182493.0 0
303739.0 180955.0 0
309258.0 182895.0 0
315430.0 183890.0 0
320304.0 181013.0 0
323692.0 184536.0 0
328767.0 182559.0 0
334659.0 181866.0 0
338217.0 184121.0 0
342802.0 183056.0 0
348333.0 182386.0 0
354571.0 182304.0 0
358832.0 182441.0 0
362305.0 183127.0 0
366732.0 183044.0 0
371988.0 183874.0 0
376885.0 181075.0 0
377264.0 185378.0 0
380638.0 181728.0 0
386648.0 182225.0 0
391380.0 181309.0 0
396438.0 182301.0 0
401632.0 185816.0 0
407475.0 184352.0 0
413219.0 184183.0 0
418109.0 183368.0 0
422107.0 183756.0 0
426878.0 182210.0 0
431420.0 182110.0 0
436288.0 184088.0 0
442100.0 183399.0 0
447549.0 182314.0 0
452803.0 182582.0 0
457499.0 184248.0 0
461585.0 182039.0 0
465841.0 183147.0 0
470827.0 182150.0 0
476634.0 184911.0 0
480519.0 182638.0 0
485119.0 183263.0 0
491128.0 183229.0 0
497365.0 182926.0 0
6793.27 187255.0 0
12819.2 190967.0 0
18520.4 186636.0 0
24345.7 186363.0 0
30115.2 186733.0 0
35415.9 188170.0 0
39873.4 186846.0 0
43534.6 188884.0 0
47481.8 186569.0 0
51744.6 188571.0 0
56705.4 188319.0 0
61964.4 188329.0 0
66638.3 188009.0 0
71690.8 186589.0 0
82291.5 187552.0 0
88450.0 189002.0 0
93313.1 186657.0 0
94100.3 190871.0 0
97500.0 187428.0 0
107094.0 187002.0 0
102236.0 187229.0 0
112290.0 186730.0 0
117489.0 188164.0 0
122392.0 190810.0 0
122473.0 186418.0 0
132589.0 187177.0 0
127669.0 187926.0 0
137654.0 186902.0 0
135399.0 190658.0 0
142126.0 187338.0 0
147636.0 187121.0 0
153045.0 186454.0 0
157497.0 188148.0 0
161579.0 186296.0 0
165667.0 187983.0 0
171229.0 187836.0 0
176235.0 187829.0 0
180327.0 188277.0 0
184960.0 186697.0 0
190262.0 186263.0 0
188825.0 190367.0 0
195404.0 186751.0 0
201311.0 187717.0 0
206583.0 188042.0 0
218105.0 187397.0 0
221939.0 190713.0 0
227523.0 187983.0 0
232628.0 186530.0 0
238165.0 187342.0 0
243791.0 187705.0 0
248620.0 186272.0 0
254995.0 186593.0 0
251702.0 189600.0 0
259925.0 186763.0 0
266658.0 187338.0 0
272632.0 188259.0 0
276489.0 186862.0 0
287001.0 188067.0 0
292799.0 186379.0 0
298711.0 188360.0 0
303424.0 186249.0 0
307680.0 187550.0 0
312791.0 189166.0 0
319111.0 188257.0 0
323805.0 188760.0 0
328218.0 188202.0 0
332684.0 186504.0 0
337214.0 187902.0 0
341746.0 188294.0 0
346957.0 187783.0 0
352960.0 187582.0 0
358289.0 186260.0 0
363852.0 187520.0 0
368575.0 187156.0 0
372516.0 187751.0 0
378061.0 190479.0 0
383137.0 186697.0 0
392796.0 186045.0 0
388492.0 187929.0 0
392116.0 191001.0 0
396697.0 187824.0 0
408624.0 188945.0 0
412939.0 189146.0 0
417500.0 187327.0 0
423655.0 187657.0 0
429096.0 186407.0 0
432842.0 187587.0 0
439598.0 187739.0 0
445091.0 187391.0 0
449570.0 187044.0 0
453928.0 187390.0 0
458052.0 188810.0 0
461735.0 186595.0 0
462487.0 190829.0 0
466235.0 187856.0 0
472008.0 188176.0 0
477068.0 189528.0 0
481396.0 187260.0 0
487085.0 188482.0 0
492809.0 189126.0 0
497596.0 187960.0 0
3506.58 192706.0 0
8912.79 192520.0 0
18045.9 192847.0 0
23734.8 191729.0 0
29009.0 192529.0 0
33721.4 192332.0 0
38524.6 192653.0 0
43678.4 193605.0 0
47741.0 191332.0 0
52003.7 193128.0 0
56979.3 193726.0 0
61796.1 193037.0 0
66399.9 192601.0 0
71634.1 192474.0 0
78211.2 192956.0 0
84122.9 192296.0 0
87688.2 194077.0 0
99300.4 192125.0 0
103853.0 193563.0 0
108319.0 191967.0 0
113637.0 191572.0 0
118188.0 192609.0 0
121263.0 196099.0 0
126888.0 192872.0 0
131334.0 192022.0 0
139961.0 191608.0 0
145194.0 192254.0 0
151682.0 192563.0 0
157461.0 193316.0 0
162224.0 191725.0 0
167837.0 192301.0 0
173461.0 193473.0 0
178656.0 192251.0 0
183497.0 192244.0 0
193401.0 192995.0 0
198163.0 191463.0 0
202226.0 193042.0 0
207011.0 193211.0 0
212376.0 192262.0 0
217313.0 191861.0 0
226296.0 192779.0 0
231236.0 191926.0 0
236066.0 192524.0 0
240758.0 192369.0 0
247330.0 191742.0 0
251815.0 193607.0 0
256818.0 191743.0 0
262021.0 191881.0 0
266300.0 194665.0 0
272433.0 193003.0 0
277769.0 191292.0 0
276853.0 195859.0 0
282670.0 191219.0 0
287574.0 193550.0 0
294278.0 192995.0 0
299741.0 193175.0 0
304166.0 191259.0 0
308989.0 192531.0 0
315365.0 194069.0 0
311332.0 195583.0 0
320388.0 193268.0 0
326100.0 193500.0 0
333160.0 192667.0 0
339147.0 193188.0 0
343440.0 192313.0 0
347374.0 192582.0 0
351811.0 193130.0 0
357563.0 191612.0 0
363013.0 192556.0 0
368208.0 191996.0 0
372172.0 196024.0 0
373386.0 191410.0 0
382809.0 192847.0 0
388002.0 193653.0 0
397057.0 192174.0 0
402872.0 192488.0 0
407559.0 192495.0 0
411392.0 193440.0 0
416297.0 192291.0 0
421524.0 192088.0 0
427086.0 191473.0 0
431837.0 193737.0 0
436283.0 191250.0 0
442626.0 192655.0 0
449564.0 192671.0 0
454946.0 192059.0 0
459033.0 193092.0 0
462382.0 195298.0 0
466447.0 192718.0 0
470794.0 193343.0 0
475071.0 193085.0 0
479813.0 193575.0 0
485459.0 194142.0 0
491394.0 193335.0 0
496535.0 193437.0 0
3164.77 199369.0 0
7860.7 196584.0 0
13198.5 196877.0 0
18016.5 198820.0 0
22913.6 197360.0 0
28302.8 197672.0 0
33684.8 197241.0 0
38744.3 197591.0 0
42462.6 197436.0 0
47500.0 197204.0 0
52557.9 197524.0 0
57797.6 199040.0 0
62773.9 197503.0 0
67039.9 197402.0 0
72935.3 198525.0 0
78321.3 198755.0 0
82589.4 197348.0 0
87056.7 197992.0 0
92062.4 196187.0 0
97669.7 197415.0 0
102295.0 197234.0 0
107409.0 197800.0 0
113346.0 196989.0 0
117556.0 198340.0 0
125792.0 198793.0 0
129829.0 196287.0 0
135551.0 196457.0 0
141806.0 196475.0 0
147624.0 198605.0 0
152815.0 197913.0 0
156959.0 197793.0 0
162562.0 197839.0 0
168612.0 197819.0 0
178545.0 197336.0 0
173681.0 198847.0 0
183146.0 198968.0 0
188006.0 196254.0 0
193371.0 197803.0 0
190721.0 201189.0 0
197865.0 196487.0 0
202704.0 197237.0 0
202302.0 200923.0 0
206537.0 197601.0 0
210414.0 196844.0 0
212684.0 201063.0 0
215936.0 196383.0 0
217357.0 200810.0 0
222030.0 196854.0 0
227890.0 197243.0 0
232869.0 196394.0 0
237576.0 197000.0 0
243286.0 196849.0 0
240965.0 201095.0 0
248665.0 197216.0 0
254448.0 197278.0 0
259269.0 196582.0 0
257957.0 200636.0 0
262859.0 198384.0 0
267435.0 200361.0 0
270744.0 197286.0 0
277837.0 200556.0 0
282832.0 197376.0 0
288071.0 198882.0 0
292397.0 198551.0 0
298265.0 197469.0 0
306027.0 196855.0 0
310185.0 198402.0 0
314051.0 199089.0 0
318484.0 197319.0 0
322500.0 197489.0 0
328894.0 198167.0 0
333249.0 199043.0 0
337018.0 197056.0 0
341124.0 196976.0 0
346186.0 197107.0 0
357136.0 196929.0 0
352140.0 199237.0 0
361938.0 197469.0 0
367473.0 198765.0 0
377871.0 196471.0 0
383977.0 198893.0 0
389039.0 198411.0 0
392970.0 196216.0 0
398548.0 197595.0 0
404604.0 197647.0 0
408305.0 197651.0 0
411601.0 197733.0 0
415648.0 197087.0 0
420774.0 197577.0 0
427258.0 198026.0 0
432708.0 197806.0 0
437828.0 197857.0 0
443856.0 198904.0 0
448897.0 198793.0 0
453712.0 196894.0 0
458584.0 197183.0 0
455863.0 201162.0 0
466455.0 197599.0 0
471665.0 198000.0 0
476743.0 197664.0 0
482111.0 198447.0 0
489724.0 197460.0 0
493000.0 199449.0 0
497149.0 199431.0 0
2175.08 204616.0 0
6289.98 203568.0 0
11599.4 202994.0 0
17536.7 203284.0 0
22463.8 203031.0 0
27690.2 202733.0 0
32846.4 202621.0 0
37849.1 202124.0 0
42860.5 202225.0 0
47500.0 202287.0 0
52500.0 202206.0 0
57471.1 203500.0 0
62273.8 202560.0 0
67614.2 201788.0 0
72220.4 204246.0 0
81627.4 202253.0 0
77001.1 202642.0 0
86238.9 202113.0 0
91741.1 202599.0 0
97809.6 202803.0 0
102672.0 201781.0 0
106903.0 203946.0 0
111197.0 201873.0 0
115541.0 202671.0 0
120820.0 201990.0 0
126021.0 203625.0 0
131558.0 202275.0 0
137589.0 202644.0 0
135063.0 206150.0 0
143032.0 203084.0 0
152333.0 201902.0 0
148507.0 204412.0 0
156773.0 202474.0 0
161249.0 203688.0 0
165865.0 202350.0 0
170814.0 202777.0 0
176299.0 203420.0 0
181148.0 202484.0 0
186185.0 204486.0 0
191882.0 205928.0 0
195905.0 202125.0 0
201236.0 205881.0 0
207015.0 202615.0 0
217582.0 205528.0 0
221317.0 202359.0 0
226105.0 202074.0 0
231885.0 201448.0 0
236933.0 203559.0 0
246407.0 203183.0 0
252566.0 202547.0 0
257179.0 205105.0 0
262513.0 203430.0 0
268885.0 206344.0 0
272736.0 201376.0 0
276233.0 204781.0 0
283411.0 204414.0 0
290026.0 203400.0 0
296067.0 202652.0 0
302092.0 201520.0 0
305287.0 206037.0 0
308498.0 202370.0 0
313707.0 204220.0 0
318496.0 201887.0 0
325750.0 201854.0 0
322152.0 204610.0 0
331013.0 203605.0 0
336305.0 202728.0 0
342218.0 202376.0 0
347988.0 203307.0 0
352469.0 204894.0 0
357716.0 202795.0 0
363372.0 202391.0 0
372128.0 202144.0 0
367626.0 204875.0 0
377596.0 202435.0 0
382670.0 205162.0 0
388203.0 203282.0 0
393858.0 201892.0 0
397810.0 205753.0 0
403548.0 203446.0 0
409206.0 204191.0 0
413408.0 201919.0 0
418015.0 202529.0 0
422331.0 202618.0 0
427432.0 204778.0 0
432985.0 202063.0 0
437053.0 202783.0 0
442560.0 204393.0 0
447415.0 202167.0 0
451703.0 202747.0 0
461826.0 202476.0 0
468601.0 203177.0 0
474668.0 203086.0 0
480001.0 202554.0 0
486587.0 202675.0 0
493164.0 203825.0 0
498364.0 203751.0 0
2648.31 208897.0 0
6704.61 207437.0 0
11883.7 209780.0 0
17237.5 207781.0 0
21689.6 207906.0 0
26625.8 207935.0 0
32269.6 208076.0 0
37800.7 207194.0 0
42911.0 207341.0 0
48373.5 207160.0 0
53049.3 207389.0 0
57491.6 207785.0 0
62500.0 207373.0 0
67351.0 207397.0 0
72974.1 208582.0 0
77089.9 207570.0 0
80945.2 207557.0 0
86598.3 207286.0 0
92662.9 209194.0 0
98143.0 207847.0 0
102893.0 206799.0 0
107106.0 209300.0 0
112144.0 207174.0 0
117789.0 207041.0 0
127517.0 207340.0 0
123040.0 208708.0 0
131675.0 209080.0 0
139792.0 208777.0 0
146644.0 209647.0 0
153455.0 207696.0 0
159439.0 208233.0 0
162838.0 211220.0 0
165968.0 207564.0 0
171465.0 208004.0 0
177279.0 209639.0 0
183204.0 209768.0 0
188838.0 210075.0 0
195938.0 209777.0 0
201229.0 211317.0 0
206404.0 209349.0 0
211858.0 206832.0 0
216416.0 211274.0 0
222973.0 207011.0 0
228683.0 207034.0 0
233716.0 206416.0 0
233920.0 211241.0 0
236982.0 208106.0 0
241134.0 206444.0 0
246166.0 209610.0 0
251684.0 207989.0 0
258379.0 210093.0 0
263481.0 209020.0 0
274515.0 209024.0 0
279024.0 207841.0 0
284480.0 210793.0 0
288598.0 208149.0 0
293685.0 208348.0 0
300198.0 207689.0 0
305012.0 210019.0 0
308888.0 208288.0 0
313479.0 209228.0 0
316786.0 207043.0 0
320577.0 208749.0 0
326685.0 208290.0 0
333861.0 208560.0 0
338665.0 207102.0 0
342799.0 207840.0 0
347415.0 208278.0 0
352858.0 209719.0 0
357815.0 208580.0 0
362633.0 207212.0 0
367022.0 209220.0 0
371864.0 207616.0 0
377441.0 208362.0 0
382625.0 209522.0 0
386622.0 208811.0 0
391984.0 208073.0 0
396543.0 209871.0 0
401644.0 210167.0 0
406986.0 208394.0 0
411808.0 207892.0 0
417019.0 207068.0 0
422567.0 208355.0 0
427263.0 210482.0 0
432185.0 208657.0 0
437979.0 208003.0 0
442951.0 209947.0 0
448193.0 207222.0 0
452071.0 210393.0 0
455966.0 207075.0 0
461566.0 209034.0 0
466226.0 207687.0 0
471899.0 209403.0 0
477523.0 207885.0 0
481988.0 206531.0 0
481329.0 210373.0 0
486495.0 209993.0 0
491854.0 208933.0 0
497014.0 208514.0 0
199566.0 216236.0 0
204476.0 213880.0 0
210791.0 212497.0 0
222471.0 212741.0 0
227959.0 212439.0 0
231461.0 215783.0 0
236554.0 214567.0 0
240340.0 212225.0 0
244603.0 215280.0 0
248994.0 214157.0 0
253470.0 212752.0 0
257902.0 215650.0 0
261359.0 213159.0 0
262174.0 216242.0 0
265890.0 213911.0 0
270707.0 211864.0 0
278604.0 213321.0 0
283462.0 215438.0 0
289821.0 212695.0 0
297138.0 213060.0 0
302387.0 213606.0 0
204440.0 218013.0 0
209450.0 217486.0 0
215731.0 217381.0 0
221139.0 218122.0 0
226643.0 218157.0 0
231814.0 221090.0 0
235319.0 217738.0 0
236723.0 221403.0 0
240447.0 218324.0 0
245799.0 220430.0 0
252386.0 217689.0 0
262924.0 220313.0 0
268034.0 221147.0 0
271470.0 217002.0 0
276419.0 218688.0 0
280938.0 218573.0 0
284566.0 219868.0 0
287256.0 217003.0 0
293225.0 217576.0 0
299486.0 218428.0 0
200566.0 222522.0 0
206824.0 222500.0 0
212342.0 221700.0 0
213593.0 226781.0 0
218217.0 223056.0 0
223359.0 222041.0 0
227341.0 224116.0 0
231676.0 226463.0 0
236090.0 225465.0 0
240956.0 224046.0 0
246377.0 226297.0 0
250599.0 221990.0 0
252213.0 226726.0 0
256856.0 222050.0 0
261597.0 225453.0 0
266660.0 226377.0 0
273344.0 223369.0 0
278895.0 222590.0 0
283257.0 223454.0 0
281085.0 226511.0 0
288821.0 222293.0 0
294306.0 223172.0 0
298362.0 223135.0 0
202162.0 228900.0 0
208341.0 227999.0 0
218680.0 228431.0 0
223708.0 228050.0 0
228231.0 228679.0 0
231212.0 231070.0 0
237005.0 230897.0 0
240598.0 228127.0 0
243163.0 230900.0 0
248814.0 231675.0 0
254688.0 231874.0 0
257463.0 227942.0 0
261854.0 230768.0 0
271774.0 228130.0 0
274604.0 231400.0 0
276906.0 227356.0 0
279543.0 230216.0 0
285902.0 227496.0 0
291469.0 227233.0 0
293918.0 231334.0 0
297266.0 227732.0 0
341742.0 229994.0 0
10310.7 232330.0 0
201805.0 236025.0 0
206114.0 233402.0 0
210329.0 232004.0 0
211438.0 236849.0 0
215194.0 232320.0 0
220809.0 232658.0 0
226488.0 233624.0 0
232131.0 236141.0 0
237053.0 236281.0 0
241905.0 236336.0 0
258639.0 235541.0 0
268410.0 232849.0 0
278616.0 234297.0 0
283537.0 232427.0 0
282870.0 236683.0 0
289171.0 232025.0 0
293025.0 236538.0 0
297981.0 233887.0 0
309756.0 233860.0 0
48261.5 239754.0 0
167796.0 242002.0 0
174681.0 238779.0 0
201362.0 240802.0 0
206247.0 238711.0 0
216915.0 237858.0 0
222263.0 237523.0 0
220078.0 241975.0 0
228037.0 238133.0 0
225520.0 241626.0 0
237507.0 241195.0 0
247659.0 237572.0 0
253229.0 237023.0 0
258819.0 240735.0 0
262729.0 238100.0 0
267373.0 239126.0 0
273141.0 237713.0 0
279213.0 240020.0 0
287188.0 238253.0 0
292821.0 241819.0 0
297889.0 240396.0 0
317421.0 242079.0 0
357807.0 241586.0 0
362467.0 240003.0 0
368610.0 239786.0 0
389098.0 238850.0 0
404603.0 237116.0 0
421499.0 238387.0 0
437044.0 241677.0 0
443009.0 238035.0 0
455114.0 238416.0 0
472319.0 239159.0 0
492537.0 240136.0 0
497243.0 237984.0 0
6878.9 242140.0 0
14254.8 246693.0 0
56374.4 243668.0 0
63868.7 243677.0 0
68827.6 244697.0 0
75161.9 246732.0 0
79658.9 245431.0 0
85031.3 246129.0 0
96187.4 243944.0 0
100416.0 243391.0 0
107589.0 245128.0 0
111005.0 246973.0 0
115161.0 245430.0 0
121008.0 245323.0 0
126005.0 243112.0 0
137504.0 246447.0 0
154054.0 245733.0 0
158565.0 245127.0 0
177286.0 242832.0 0
178735.0 246198.0 0
191569.0 243984.0 0
196244.0 244913.0 0
200884.0 245161.0 0
205139.0 243605.0 0
207997.0 246602.0 0
210418.0 242519.0 0
215508.0 242549.0 0
217846.0 246217.0 0
222321.0 246141.0 0
227456.0 246924.0 0
231418.0 242273.0 0
238127.0 247148.0 0
242307.0 244214.0 0
248058.0 243637.0 0
253775.0 242369.0 0
259057.0 245143.0 0
255503.0 246907.0 0
263576.0 243291.0 0
269202.0 244244.0 0
274268.0 242974.0 0
277796.0 246687.0 0
284340.0 243229.0 0
282146.0 247011.0 0
288860.0 242850.0 0
287764.0 247002.0 0
292968.0 246823.0 0
297460.0 245399.0 0
309917.0 245365.0 0
322450.0 243470.0 0
374583.0 242427.0 0
391311.0 245528.0 0
396056.0 246967.0 0
423600.0 246339.0 0
461586.0 242277.0 0
471850.0 246136.0 0
476569.0 242403.0 0
481239.0 243496.0 0
17655.2 250009.0 0
22442.4 248008.0 0
30433.9 247913.0 0
36537.1 248446.0 0
48339.7 250658.0 0
53010.0 250655.0 0
88220.9 252119.0 0
93065.2 250045.0 0
97919.2 252170.0 0
124379.0 250218.0 0
131855.0 247434.0 0
142262.0 248700.0 0
146000.0 252151.0 0
150902.0 250023.0 0
173221.0 247855.0 0
178042.0 249699.0 0
204079.0 248250.0 0
213357.0 247419.0 0
209313.0 250975.0 0
220061.0 250210.0 0
225948.0 251906.0 0
233019.0 248006.0 0
241699.0 248999.0 0
245359.0 248147.0 0
251060.0 248510.0 0
257880.0 250790.0 0
261792.0 247590.0 0
262773.0 251820.0 0
267220.0 249292.0 0
273097.0 247268.0 0
271753.0 251719.0 0
284677.0 249503.0 0
280753.0 251244.0 0
287947.0 251958.0 0
292568.0 251735.0 0
296828.0 249906.0 0
308760.0 251998.0 0
318278.0 252203.0 0
322451.0 248182.0 0
326630.0 248941.0 0
330913.0 249215.0 0
335045.0 251875.0 0
339605.0 248559.0 0
345114.0 250751.0 0
388726.0 250043.0 0
393964.0 251850.0 0
407296.0 251120.0 0
417127.0 248033.0 0
422388.0 251805.0 0
426612.0 249907.0 0
431907.0 250610.0 0
439714.0 248899.0 0
444222.0 251156.0 0
449230.0 248049.0 0
458451.0 250915.0 0
462790.0 248726.0 0
466760.0 247539.0 0
479717.0 248779.0 0
484429.0 248859.0 0
489239.0 251784.0 0
497839.0 247435.0 0
2631.23 255300.0 0
8033.11 252329.0 0
14588.8 253517.0 0
18911.2 255844.0 0
30589.4 254115.0 0
37311.7 256446.0 0
40985.6 252851.0 0
45936.2 254326.0 0
54909.3 257316.0 0
85759.2 257335.0 0
92904.6 255054.0 0
96476.5 256492.0 0
102310.0 254277.0 0
105708.0 257367.0 0
113050.0 254335.0 0
119140.0 252320.0 0
126262.0 254425.0 0
137141.0 255885.0 0
155278.0 253388.0 0
166524.0 257163.0 0
169989.0 253107.0 0
177569.0 253868.0 0
183086.0 255522.0 0
188923.0 254173.0 0
194746.0 255445.0 0
199532.0 252772.0 0
204404.0 253389.0 0
208773.0 256184.0 0
215065.0 252953.0 0
222084.0 254477.0 0
226654.0 256737.0 0
230700.0 252761.0 0
236386.0 252499.0 0
241424.0 252775.0 0
247380.0 253572.0 0
253469.0 253018.0 0
257611.0 256574.0 0
262741.0 256519.0 0
267283.0 254627.0 0
276232.0 253172.0 0
278428.0 257305.0 0
284102.0 256143.0 0
290977.0 257088.0 0
300502.0 252320.0 0
296386.0 254651.0 0
304859.0 252814.0 0
305457.0 256747.0 0
309713.0 256161.0 0
314014.0 254904.0 0
342101.0 254152.0 0
348027.0 254306.0 0
360423.0 257111.0 0
364943.0 253309.0 0
368691.0 255942.0 0
377600.0 254171.0 0
383597.0 252962.0 0
390690.0 253973.0 0
394399.0 256640.0 0
398809.0 254002.0 0
403236.0 254873.0 0
412976.0 253442.0 0
431773.0 256133.0 0
436080.0 252448.0 0
473827.0 255564.0 0
478880.0 253999.0 0
492521.0 255782.0 0
497266.0 255539.0 0
4198.95 260403.0 0
10165.2 258552.0 0
8211.08 262359.0 0
21754.5 261999.0 0
27252.5 258167.0 0
31965.1 260652.0 0
44551.6 259808.0 0
49617.5 260743.0 0
53511.7 262285.0 0
60744.6 258364.0 0
65233.2 261508.0 0
73247.1 260402.0 0
79797.4 260900.0 0
91010.0 257467.0 0
100409.0 258660.0 0
97591.4 262095.0 0
118044.0 259624.0 0
122206.0 261623.0 0
127597.0 259153.0 0
132697.0 257804.0 0
140009.0 260112.0 0
145853.0 260129.0 0
157949.0 262298.0 0
169946.0 260867.0 0
175196.0 259203.0 0
182125.0 260764.0 0
204248.0 258903.0 0
208492.0 261667.0 0
212998.0 259347.0 0
218415.0 258042.0 0
222786.0 258373.0 0
221535.0 262311.0 0
226387.0 261678.0 0
231894.0 257951.0 0
237319.0 257915.0 0
242504.0 257410.0 0
242597.0 262474.0 0
247180.0 259945.0 0
252149.0 257940.0 0
255658.0 261804.0 0
261566.0 261914.0 0
265988.0 260384.0 0
272535.0 257420.0 0
281572.0 260756.0 0
286619.0 261707.0 0
296246.0 260783.0 0
301918.0 259781.0 0
308862.0 260778.0 0
312813.0 260155.0 0
329672.0 262472.0 0
335177.0 259381.0 0
341691.0 259046.0 0
350533.0 261799.0 0
368277.0 261446.0 0
373639.0 258361.0 0
380959.0 258951.0 0
385630.0 257693.0 0
388242.0 260931.0 0
398411.0 258020.0 0
402468.0 259775.0 0
406830.0 262388.0 0
411664.0 260882.0 0
415149.0 257885.0 0
440796.0 261386.0 0
462565.0 258547.0 0
468005.0 260205.0 0
472750.0 261239.0 0
483291.0 257597.0 0
488293.0 259045.0 0
494690.0 260489.0 0
1396.57 263393.0 0
9024.03 267238.0 0
11918.4 263834.0 0
16619.4 263303.0 0
22141.1 267486.0 0
31750.6 265395.0 0
40529.6 264273.0 0
36111.9 264644.0 0
55082.9 266387.0 0
71070.6 266736.0 0
75981.4 265290.0 0
101262.0 263211.0 0
115988.0 266453.0 0
121376.0 267260.0 0
125707.0 262846.0 0
127453.0 266293.0 0
132217.0 263887.0 0
137709.0 265368.0 0
150246.0 263545.0 0
162385.0 263078.0 0
166757.0 265654.0 0
170964.0 267462.0 0
178322.0 262716.0 0
173828.0 264023.0 0
178095.0 266979.0 0
182575.0 265542.0 0
188423.0 267471.0 0
198191.0 267129.0 0
203599.0 264485.0 0
208334.0 266709.0 0
212185.0 264243.0 0
217001.0 264910.0 0
221885.0 267562.0 0
227461.0 267417.0 0
231035.0 263292.0 0
236952.0 263862.0 0
247334.0 264398.0 0
251017.0 263071.0 0
259256.0 266457.0 0
265044.0 265180.0 0
270040.0 264203.0 0
276310.0 263155.0 0
282381.0 265688.0 0
291670.0 264249.0 0
296089.0 266421.0 0
305267.0 263557.0 0
310186.0 267160.0 0
315851.0 263982.0 0
321609.0 263749.0 0
326129.0 266948.0 0
332766.0 266865.0 0
345721.0 264206.0 0
355714.0 263293.0 0
359390.0 266962.0 0
365233.0 266005.0 0
371514.0 265914.0 0
376826.0 263404.0 0
382983.0 266244.0 0
392773.0 265398.0 0
397327.0 263235.0 0
402414.0 264535.0 0
405524.0 267498.0 0
417627.0 262697.0 0
430432.0 265446.0 0
435876.0 263780.0 0
443743.0 265676.0 0
448497.0 263745.0 0
457751.0 267186.0 0
463509.0 267297.0 0
472922.0 265563.0 0
477904.0 265684.0 0
490331.0 263629.0 0
492549.0 267485.0 0
498185.0 263582.0 0
27556.0 268510.0 0
35807.4 272009.0 0
42506.5 267916.0 0
47221.1 268630.0 0
57767.4 270127.0 0
62118.7 271633.0 0
66580.1 269776.0 0
78232.9 270663.0 0
87177.6 268232.0 0
92596.4 270681.0 0
101304.0 268434.0 0
105416.0 268841.0 0
110427.0 270723.0 0
115498.0 272554.0 0
119859.0 270915.0 0
125026.0 269693.0 0
134374.0 268245.0 0
136926.0 268541.0 0
142940.0 268001.0 0
145130.0 272005.0 0
149278.0 270132.0 0
154955.0 268934.0 0
159503.0 267658.0 0
162950.0 269973.0 0
175791.0 271728.0 0
179935.0 270380.0 0
193802.0 270301.0 0
202876.0 270087.0 0
208375.0 272172.0 0
213345.0 268902.0 0
218054.0 271414.0 0
223604.0 272494.0 0
229037.0 272400.0 0
232907.0 268299.0 0
238285.0 270079.0 0
244005.0 267916.0 0
249419.0 267767.0 0
247734.0 272524.0 0
253932.0 267999.0 0
252004.0 271380.0 0
263833.0 269191.0 0
260652.0 272403.0 0
268011.0 268596.0 0
272690.0 268675.0 0
278030.0 269485.0 0
283190.0 271031.0 0
287571.0 267873.0 0
292514.0 269687.0 0
296867.0 270429.0 0
305810.0 271035.0 0
301395.0 271577.0 0
309214.0 272159.0 0
315912.0 269850.0 0
329885.0 268892.0 0
332502.0 271789.0 0
337497.0 271683.0 0
344487.0 272599.0 0
350089.0 272138.0 0
354804.0 270675.0 0
359342.0 272491.0 0
363529.0 270614.0 0
368250.0 271069.0 0
375763.0 269307.0 0
379842.0 271876.0 0
383935.0 271945.0 0
388117.0 269778.0 0
418256.0 267862.0 0
420703.0 271588.0 0
423877.0 267914.0 0
428710.0 271423.0 0
448865.0 268620.0 0
453540.0 269941.0 0
469551.0 268680.0 0
473869.0 269679.0 0
480010.0 271158.0 0
485101.0 269761.0 0
497345.0 268479.0 0
12432.9 272873.0 0
18261.9 272834.0 0
19755.7 277358.0 0
31572.7 275009.0 0
40409.5 272717.0 0
42563.5 276636.0 0
73236.5 276749.0 0
83627.7 272929.0 0
88025.0 273741.0 0
98112.3 274382.0 0
103476.0 277809.0 0
119756.0 274803.0 0
124322.0 273722.0 0
137186.0 275800.0 0
152637.0 273371.0 0
157044.0 273481.0 0
203858.0 275177.0 0
208072.0 277662.0 0
213629.0 274472.0 0
220713.0 274805.0 0
226283.0 275485.0 0
233879.0 273457.0 0
230318.0 277318.0 0
238181.0 275099.0 0
242503.0 273608.0 0
251494.0 276526.0 0
255720.0 273307.0 0
265215.0 273195.0 0
262262.0 277238.0 0
269724.0 272745.0 0
267761.0 277550.0 0
274714.0 274175.0 0
281330.0 275368.0 0
288141.0 273691.0 0
293577.0 274482.0 0
297770.0 274083.0 0
320548.0 273940.0 0
327915.0 276447.0 0
332244.0 275724.0 0
373783.0 277045.0 0
391305.0 277387.0 0
396224.0 273947.0 0
401114.0 275904.0 0
443848.0 274112.0 0
460614.0 275124.0 0
468386.0 276878.0 0
475351.0 274881.0 0
482264.0 277672.0 0
486287.0 275310.0 0
491602.0 276898.0 0
2385.26 277927.0 0
6006.39 281622.0 0
11457.4 279010.0 0
23726.9 278586.0 0
28043.2 279341.0 0
31549.5 282314.0 0
37894.0 278866.0 0
44669.6 281288.0 0
48901.4 279464.0 0
53337.5 281558.0 0
59411.4 277993.0 0
57735.5 281466.0 0
78992.8 278577.0 0
81396.5 282895.0 0
84814.0 278794.0 0
108327.0 279238.0 0
127047.0 278026.0 0
131487.0 282558.0 0
133529.0 278508.0 0
141682.0 278553.0 0
147366.0 280459.0 0
157006.0 282815.0 0
162148.0 282513.0 0
166764.0 281472.0 0
172721.0 281635.0 0
178009.0 278796.0 0
182816.0 278470.0 0
188845.0 278396.0 0
195076.0 280659.0 0
203963.0 280722.0 0
208985.0 282904.0 0
212465.0 279233.0 0
217762.0 278179.0 0
223042.0 278097.0 0
220830.0 282440.0 0
226900.0 281621.0 0
232157.0 282135.0 0
235414.0 278394.0 0
240555.0 278563.0 0
242700.0 282283.0 0
245781.0 278072.0 0
251771.0 281105.0 0
256395.0 278364.0 0
259937.0 281398.0 0
264650.0 282090.0 0
269297.0 282174.0 0
272922.0 279334.0 0
278143.0 278860.0 0
284671.0 278364.0 0
290898.0 279086.0 0
296526.0 278903.0 0
320417.0 279532.0 0
324961.0 279457.0 0
339112.0 281648.0 0
349617.0 278857.0 0
356286.0 279776.0 0
361855.0 282588.0 0
366109.0 280025.0 0
370489.0 280319.0 0
405441.0 278021.0 0
410203.0 279942.0 0
415232.0 278424.0 0
420447.0 279074.0 0
424465.0 281920.0 0
429055.0 281470.0 0
436061.0 279884.0 0
441300.0 278376.0 0
447423.0 277963.0 0
452098.0 279743.0 0
463371.0 279444.0 0
472620.0 279775.0 0
478625.0 280041.0 0
488314.0 279182.0 0
497634.0 280715.0 0
10345.6 284436.0 0
14356.5 285370.0 0
17628.4 283055.0 0
21198.9 285240.0 0
73587.4 288010.0 0
88732.2 284132.0 0
94616.0 284836.0 0
99836.4 287872.0 0
115852.0 285342.0 0
124424.0 286664.0 0
129417.0 286976.0 0
151889.0 284222.0 0
182877.0 287375.0 0
190151.0 287594.0 0
204533.0 286503.0 0
209812.0 287873.0 0
215424.0 283843.0 0
219383.0 287755.0 0
223890.0 285525.0 0
228552.0 287404.0 0
233632.0 286519.0 0
237585.0 283135.0 0
241571.0 286559.0 0
247669.0 283985.0 0
255609.0 283550.0 0
260839.0 287131.0 0
267630.0 287015.0 0
275667.0 284108.0 0
282089.0 283689.0 0
288380.0 284239.0 0
294169.0 284163.0 0
304833.0 287576.0 0
307859.0 283147.0 0
313339.0 284707.0 0
318165.0 283789.0 0
333604.0 285226.0 0
344315.0 283790.0 0
348224.0 285757.0 0
373349.0 283321.0 0
375332.0 286689.0 0
382120.0 283387.0 0
377846.0 283924.0 0
386421.0 283615.0 0
412280.0 286429.0 0
425494.0 285863.0 0
434661.0 284885.0 0
439140.0 286689.0 0
444448.0 284396.0 0
456662.0 284845.0 0
461427.0 286292.0 0
475464.0 283061.0 0
478873.0 285725.0 0
484076.0 284129.0 0
2520.43 290116.0 0
23712.7 288588.0 0
27712.7 289502.0 0
35470.8 292194.0 0
31330.3 292607.0 0
38957.8 290572.0 0
64003.3 290702.0 0
69034.9 290614.0 0
78890.1 289838.0 0
83595.1 292288.0 0
106851.0 290987.0 0
102136.0 292600.0 0
111993.0 290453.0 0
115838.0 291103.0 0
122579.0 292737.0 0
132091.0 290389.0 0
137331.0 288555.0 0
141484.0 290192.0 0
178121.0 288828.0 0
173534.0 290213.0 0
187621.0 293029.0 0
198863.0 289024.0 0
194183.0 290831.0 0
206165.0 290982.0 0
214272.0 289565.0 0
210207.0 292476.0 0
219003.0 292636.0 0
223634.0 290085.0 0
227926.0 293045.0 0
232406.0 290988.0 0
237509.0 289031.0 0
241300.0 292329.0 0
249634.0 288760.0 0
245266.0 289404.0 0
254552.0 289010.0 0
251079.0 292863.0 0
268059.0 292226.0 0
273080.0 289122.0 0
278625.0 289003.0 0
282938.0 288660.0 0
286583.0 288821.0 0
286579.0 292498.0 0
291010.0 288667.0 0
295789.0 289477.0 0
296350.0 292982.0 0
320801.0 291035.0 0
326082.0 290021.0 0
339966.0 291027.0 0
345237.0 288307.0 0
344226.0 292253.0 0
348323.0 290087.0 0
353398.0 291259.0 0
377578.0 292793.0 0
387759.0 290318.0 0
391971.0 291516.0 0
396070.0 288573.0 0
405148.0 288593.0 0
416387.0 288084.0 0
417562.0 292476.0 0
422843.0 290748.0 0
431748.0 288880.0 0
448734.0 291977.0 0
452878.0 288303.0 0
457920.0 289800.0 0
465643.0 288344.0 0
488519.0 292066.0 0
493893.0 290752.0 0
58276.5 295338.0 0
62760.5 295489.0 0
79117.6 294656.0 0
85357.4 296959.0 0
89677.3 298128.0 0
118035.0 294618.0 0
148593.0 297898.0 0
182265.0 296646.0 0
186511.0 296731.0 0
204357.0 294080.0 0
209786.0 297927.0 0
214471.0 294382.0 0
219173.0 297326.0 0
223352.0 294854.0 0
226786.0 297820.0 0
232143.0 298203.0 0
236316.0 294088.0 0
241630.0 297406.0 0
246217.0 294586.0 0
251264.0 297426.0 0
256302.0 294991.0 0
262861.0 293838.0 0
267903.0 297692.0 0
272177.0 294244.0 0
277010.0 293927.0 0
282246.0 293429.0 0
288281.0 296085.0 0
292295.0 293228.0 0
296140.0 296207.0 0
334097.0 295272.0 0
338749.0 294234.0 0
367860.0 297170.0 0
374256.0 297506.0 0
383309.0 294928.0 0
388742.0 297385.0 0
429251.0 293523.0 0
440415.0 294472.0 0
444373.0 293550.0 0
449043.0 297027.0 0
472532.0 297155.0 0
476982.0 296605.0 0
483950.0 294197.0 0
18980.9 303169.0 0
23860.2 299254.0 0
57656.8 302021.0 0
114635.0 298324.0 0
119205.0 298778.0 0
154063.0 298974.0 0
160451.0 299688.0 0
172783.0 300224.0 0
177642.0 298457.0 0
175845.0 302096.0 0
204006.0 298536.0 0
207137.0 302712.0 0
212541.0 302881.0 0
215089.0 298784.0 0
216903.0 302316.0 0
222789.0 299313.0 0
226469.0 302990.0 0
231406.0 303288.0 0
237492.0 298377.0 0
242994.0 302769.0 0
247322.0 299548.0 0
251624.0 301978.0 0
257637.0 299746.0 0
261118.0 298858.0 0
260920.0 303149.0 0
265927.0 303062.0 0
273126.0 298678.0 0
270797.0 302288.0 0
279255.0 298230.0 0
276141.0 302478.0 0
284088.0 298378.0 0
281425.0 302719.0 0
287844.0 300389.0 0
292285.0 298704.0 0
295740.0 301688.0 0
343860.0 299581.0 0
347413.0 302067.0 0
351113.0 303088.0 0
354633.0 299594.0 0
359569.0 302766.0 0
362728.0 298762.0 0
378320.0 301282.0 0
441465.0 300664.0 0
447200.0 301059.0 0
487877.0 299760.0 0
496741.0 302274.0 0
24601.3 304380.0 0
29372.6 305554.0 0
34198.8 307514.0 0
41944.7 305733.0 0
46285.1 303688.0 0
49720.9 308016.0 0
59419.7 305922.0 0
125705.0 306625.0 0
131308.0 305280.0 0
136308.0 305148.0 0
164978.0 303417.0 0
169679.0 304621.0 0
203274.0 304305.0 0
203607.0 307885.0 0
216026.0 306057.0 0
221028.0 303529.0 0
230480.0 307927.0 0
236716.0 303337.0 0
240005.0 308002.0 0
247799.0 303720.0 0
256146.0 303552.0 0
259145.0 307978.0 0
263538.0 306912.0 0
269639.0 307414.0 0
273818.0 305966.0 0
277560.0 307881.0 0
282425.0 307201.0 0
285814.0 303775.0 0
286250.0 307506.0 0
291086.0 303621.0 0
295575.0 306602.0 0
300752.0 303528.0 0
354750.0 306380.0 0
374379.0 307321.0 0
378180.0 305664.0 0
382647.0 308209.0 0
388980.0 306969.0 0
441425.0 307072.0 0
463934.0 308163.0 0
3000.82 308820.0 0
5576.43 313220.0 0
38189.5 310567.0 0
44756.1 309189.0 0
40981.1 313312.0 0
78998.1 308715.0 0
78850.0 312169.0 0
109302.0 309939.0 0
199008.0 310413.0 0
204506.0 312709.0 0
209616.0 308581.0 0
213854.0 312960.0 0
215005.0 309684.0 0
217595.0 312345.0 0
219940.0 308460.0 0
222169.0 313120.0 0
225127.0 308554.0 0
227333.0 313323.0 0
232822.0 313265.0 0
235397.0 308742.0 0
238449.0 312863.0 0
242878.0 312894.0 0
245797.0 308647.0 0
252776.0 308566.0 0
251330.0 313336.0 0
264996.0 311006.0 0
260318.0 313193.0 0
275508.0 312167.0 0
280916.0 312954.0 0
290629.0 309105.0 0
286405.0 311996.0 0
295370.0 312399.0 0
303327.0 308924.0 0
318205.0 309943.0 0
321222.0 312213.0 0
324319.0 311137.0 0
344872.0 309709.0 0
399809.0 311502.0 0
412274.0 313466.0 0
420030.0 313419.0 0
425901.0 311965.0 0
430527.0 310052.0 0
435600.0 309403.0 0
30674.9 316463.0 0
104572.0 313766.0 0
110496.0 314698.0 0
114684.0 316162.0 0
194107.0 317256.0 0
199280.0 316134.0 0
203762.0 317600.0 0
209705.0 315881.0 0
215563.0 317135.0 0
222849.0 316917.0 0
219946.0 317857.0 0
231988.0 318311.0 0
236793.0 317903.0 0
241917.0 317102.0 0
247483.0 314387.0 0
252118.0 317518.0 0
255291.0 314221.0 0
259938.0 318416.0 0
270308.0 313677.0 0
265584.0 317740.0 0
275365.0 316815.0 0
285529.0 317086.0 0
290401.0 314675.0 0
294636.0 318550.0 0
306624.0 315199.0 0
349594.0 316557.0 0
389404.0 317160.0 0
394819.0 314993.0 0
406576.0 313787.0 0
466754.0 314620.0 0
470906.0 315976.0 0
13308.9 319911.0 0
118920.0 318652.0 0
123167.0 320907.0 0
190052.0 320328.0 0
207021.0 321484.0 0
213627.0 322436.0 0
218154.0 322437.0 0
222500.0 322300.0 0
226713.0 318981.0 0
233102.0 322891.0 0
237975.0 322695.0 0
242687.0 321648.0 0
246392.0 319171.0 0
247738.0 323368.0 0
251699.0 321650.0 0
255128.0 318954.0 0
255829.0 323131.0 0
260264.0 323475.0 0
265036.0 323129.0 0
270872.0 319600.0 0
280266.0 318827.0 0
275872.0 322946.0 0
284133.0 322955.0 0
289387.0 320791.0 0
336311.0 320529.0 0
351904.0 321971.0 0
355596.0 319357.0 0
417609.0 319544.0 0
431254.0 320871.0 0
4937.82 324138.0 0
2103.89 326698.0 0
9627.86 324390.0 0
187646.0 326566.0 0
203371.0 323814.0 0
204452.0 327448.0 0
209713.0 325646.0 0
213389.0 328132.0 0
218306.0 327097.0 0
222726.0 327210.0 0
228118.0 324238.0 0
226681.0 328769.0 0
231449.0 327560.0 0
236417.0 327485.0 0
241624.0 326295.0 0
247090.0 328483.0 0
253246.0 327694.0 0
258473.0 327749.0 0
262430.0 327094.0 0
269992.0 324964.0 0
273824.0 328321.0 0
280221.0 325757.0 0
282084.0 328787.0 0
288836.0 326345.0 0
294886.0 325177.0 0
329037.0 326985.0 0
341778.0 323996.0 0
361777.0 325711.0 0
367623.0 325763.0 0
378832.0 324491.0 0
385884.0 328513.0 0
208611.0 329928.0 0
204665.0 333101.0 0
213534.0 333349.0 0
218165.0 331850.0 0
222182.0 331926.0 0
225758.0 333336.0 0
230740.0 333042.0 0
236519.0 332704.0 0
242380.0 332643.0 0
252047.0 332558.0 0
256535.0 332358.0 0
261403.0 331975.0 0
266448.0 328986.0 0
271274.0 332296.0 0
278168.0 329262.0 0
281975.0 333250.0 0
285751.0 330251.0 0
289876.0 331024.0 0
294931.0 331934.0 0
315116.0 332446.0 0
320148.0 330321.0 0
325382.0 330711.0 0
371598.0 329327.0 0
375018.0 331260.0 0
390115.0 330868.0 0
35193.8 334546.0 0
68661.0 334103.0 0
68580.0 338477.0 0
74935.4 335706.0 0
90847.8 338062.0 0
139476.0 334806.0 0
144683.0 335507.0 0
149546.0 338442.0 0
154306.0 336637.0 0
161601.0 337523.0 0
208958.0 335481.0 0
247901.0 334049.0 0
266160.0 334849.0 0
276404.0 334351.0 0
287124.0 335254.0 0
292000.0 336210.0 0
295743.0 338046.0 0
302840.0 336845.0 0
61778.3 339863.0 0
71617.3 339991.0 0
81810.3 342529.0 0
132100.0 342871.0 0
137181.0 339521.0 0
157366.0 340794.0 0
300503.0 340975.0 0
306217.0 340154.0 0
78448.2 345344.0 0
135499.0 346394.0 0
309713.0 345319.0 0
185974.0 353079.0 0
305097.0 350796.0 0
308845.0 349860.0 0
142495.0 358991.0 0
197715.0 356881.0 0
138284.0 361619.0 0
193738.0 365117.0 0
1675.58 375614.0 0
5467.64 375227.0 0
9923.98 375285.0 0
14387.1 375203.0 0
18547.7 375144.0 0
23089.3 375107.0 0
26982.4 375427.0 0
30846.7 375247.0 0
34513.9 375527.0 0
37427.8 375618.0 0
41318.5 375480.0 0
45983.9 375122.0 0
49364.7 375248.0 0
53068.4 375815.0 0
57166.2 375453.0 0
61213.9 375918.0 0
65943.6 375036.0 0
69516.5 375481.0 0
72918.0 375644.0 0
76699.9 375170.0 0
80871.7 375345.0 0
85459.3 375212.0 0
90453.3 375322.0 0
94857.7 375257.0 0
99465.1 375292.0 0
103549.0 375352.0 0
107452.0 375277.0 0
111466.0 375255.0 0
115802.0 375171.0 0
119935.0 375546.0 0
124124.0 375105.0 0
129602.0 375489.0 0
133482.0 375552.0 0
136281.0 375529.0 0
142555.0 375552.0 0
139501.0 375467.0 0
145848.0 375361.0 0
150433.0 375872.0 0
154698.0 375163.0 0
158524.0 375870.0 0
162511.0 375719.0 0
166310.0 375302.0 0
170327.0 375336.0 0
173502.0 375429.0 0
177431.0 375060.0 0
182066.0 375128.0 0
179595.0 376807.0 0
185641.0 375402.0 0
189446.0 375141.0 0
193016.0 375574.0 0
195819.0 375392.0 0
198583.0 375124.0 0
300818.0 376279.0 0
304642.0 375610.0 0
308260.0 376325.0 0
311683.0 375291.0 0
316362.0 375693.0 0
320477.0 375837.0 0
323720.0 375593.0 0
327181.0 375469.0 0
331294.0 375354.0 0
335588.0 375061.0 0
339519.0 375666.0 0
343422.0 375384.0 0
348448.0 375742.0 0
352585.0 375984.0 0
356207.0 375018.0 0
360819.0 375281.0 0
365698.0 375913.0 0
370399.0 375270.0 0
375948.0 375297.0 0
373118.0 377287.0 0
379938.0 375744.0 0
383860.0 375467.0 0
388253.0 375992.0 0
393467.0 375226.0 0
396994.0 375499.0 0
399975.0 375347.0 0
403928.0 375349.0 0
408256.0 375055.0 0
410298.0 377476.0 0
412863.0 375146.0 0
417568.0 375177.0 0
421798.0 375486.0 0
426008.0 375655.0 0
429686.0 375277.0 0
433677.0 375462.0 0
438018.0 375095.0 0
442583.0 375224.0 0
440779.0 377231.0 0
445962.0 375223.0 0
450999.0 375502.0 0
455731.0 375605.0 0
460678.0 375655.0 0
464964.0 375532.0 0
469658.0 375451.0 0
473909.0 375130.0 0
479242.0 375192.0 0
484092.0 375496.0 0
487862.0 375325.0 0
492781.0 375556.0 0
497599.0 375409.0 0
4054.61 378771.0 0
1268.31 378717.0 0
1388.04 381463.0 0
7748.61 378069.0 0
10028.9 380696.0 0
5662.58 382307.0 0
12130.5 378244.0 0
13869.0 382167.0 0
16161.5 379052.0 0
20695.6 378549.0 0
25247.3 378458.0 0
23299.7 382288.0 0
27016.4 381089.0 0
29010.0 378377.0 0
30218.5 381730.0 0
32889.1 378714.0 0
37366.0 378966.0 0
38793.5 382204.0 0
40774.2 379906.0 0
44817.1 377982.0 0
43889.3 381148.0 0
48693.3 377943.0 0
47829.4 381147.0 0
50958.1 382092.0 0
51925.7 379260.0 0
54472.5 382052.0 0
56506.1 379045.0 0
60090.9 380407.0 0
65107.2 379113.0 0
69429.6 378262.0 0
68437.2 382298.0 0
72076.4 380122.0 0
75045.6 378210.0 0
76016.9 382596.0 0
78742.5 378373.0 0
81206.5 381812.0 0
83351.3 378460.0 0
85653.5 381868.0 0
87868.7 378839.0 0
92784.6 379398.0 0
96977.7 378816.0 0
101231.0 378585.0 0
98884.4 381647.0 0
105099.0 378522.0 0
102668.0 382007.0 0
107260.0 382240.0 0
109404.0 378499.0 0
111658.0 382166.0 0
113484.0 378579.0 0
115431.0 381894.0 0
117790.0 378880.0 0
121845.0 379308.0 0
126655.0 379034.0 0
122888.0 382202.0 0
131042.0 379302.0 0
130172.0 381825.0 0
133738.0 378481.0 0
137490.0 378776.0 0
142476.0 379076.0 0
146724.0 378933.0 0
144453.0 382583.0 0
148078.0 381956.0 0
151322.0 380004.0 0
155118.0 378342.0 0
161145.0 378484.0 0
158689.0 379556.0 0
162270.0 380795.0 0
167988.0 377916.0 0
164753.0 378983.0 0
168272.0 381092.0 0
171421.0 378595.0 0
172150.0 382253.0 0
175479.0 378575.0 0
179607.0 379218.0 0
181345.0 381945.0 0
183009.0 378409.0 0
184703.0 381072.0 0
187175.0 378314.0 0
188069.0 382463.0 0
191385.0 378926.0 0
193926.0 381260.0 0
195428.0 378084.0 0
196798.0 381226.0 0
199150.0 377847.0 0
199641.0 381062.0 0
301198.0 380407.0 0
304658.0 379185.0 0
308404.0 380608.0 0
312508.0 378972.0 0
312533.0 382139.0 0
320719.0 379233.0 0
316861.0 380847.0 0
323573.0 378050.0 0
323787.0 381171.0 0
326035.0 378774.0 0
326832.0 381155.0 0
329666.0 379114.0 0
329401.0 382640.0 0
333761.0 378478.0 0
340637.0 378794.0 0
337611.0 377892.0 0
337538.0 380939.0 0
340711.0 382558.0 0
344754.0 379845.0 0
349328.0 380044.0 0
353562.0 380116.0 0
357575.0 377926.0 0
357946.0 381640.0 0
361755.0 379676.0 0
366504.0 380620.0 0
369740.0 379078.0 0
373091.0 380827.0 0
377068.0 379789.0 0
381343.0 379120.0 0
385127.0 378765.0 0
383507.0 382443.0 0
387928.0 381447.0 0
392170.0 379569.0 0
395557.0 381777.0 0
397492.0 378694.0 0
400360.0 381828.0 0
401899.0 378152.0 0
406131.0 377822.0 0
404111.0 380404.0 0
408434.0 381144.0 0
412513.0 380018.0 0
415344.0 377806.0 0
416490.0 382318.0 0
419348.0 378946.0 0
421358.0 382510.0 0
427337.0 379299.0 0
423620.0 379297.0 0
428476.0 382623.0 0
430673.0 378356.0 0
430483.0 380980.0 0
432465.0 381076.0 0
434214.0 378760.0 0
436971.0 378371.0 0
435740.0 382116.0 0
439403.0 380552.0 0
443990.0 379240.0 0
447860.0 382675.0 0
448062.0 378153.0 0
451577.0 379762.0 0
454487.0 379314.0 0
456337.0 382453.0 0
458714.0 379251.0 0
460287.0 382414.0 0
462947.0 379778.0 0
467352.0 378930.0 0
470364.0 381696.0 0
471893.0 378400.0 0
475565.0 378011.0 0
474692.0 381791.0 0
478721.0 379783.0 0
482293.0 378331.0 0
482483.0 382540.0 0
485794.0 378827.0 0
489578.0 378739.0 0
494396.0 379741.0 0
490909.0 382528.0 0
498507.0 378625.0 0
498000.0 382159.0 0
1884.84 384853.0 0
10104.7 384142.0 0
6198.68 387161.0 0
14529.8 386253.0 0
10392.3 387653.0 0
18512.0 383275.0 0
19339.5 387120.0 0
23111.3 386006.0 0
26956.3 384277.0 0
30813.8 385449.0 0
34882.5 382703.0 0
34784.7 387024.0 0
38407.1 385781.0 0
41204.7 386563.0 0
45082.6 383522.0 0
41472.5 383518.0 0
44168.0 386865.0 0
48591.5 384960.0 0
52238.9 384507.0 0
55800.9 385919.0 0
57435.3 382706.0 0
59835.3 384750.0 0
63693.8 383514.0 0
63240.1 387744.0 0
67160.5 385880.0 0
70421.6 387572.0 0
71714.6 384210.0 0
74878.6 387467.0 0
79262.3 385953.0 0
83728.9 385577.0 0
90293.0 382824.0 0
87470.4 385078.0 0
91333.3 387554.0 0
95085.5 383792.0 0
99800.8 385042.0 0
104600.0 385327.0 0
109446.0 385603.0 0
114506.0 385973.0 0
119109.0 383209.0 0
119294.0 387388.0 0
126458.0 383373.0 0
122698.0 385511.0 0
130199.0 385380.0 0
134080.0 382750.0 0
136810.0 386714.0 0
133259.0 387204.0 0
139493.0 382924.0 0
142548.0 386869.0 0
147315.0 385508.0 0
151130.0 384142.0 0
155488.0 382725.0 0
153746.0 386546.0 0
158117.0 387172.0 0
160050.0 383001.0 0
162415.0 385960.0 0
164996.0 383319.0 0
168985.0 385323.0 0
172938.0 385807.0 0
177012.0 383334.0 0
180965.0 386568.0 0
183870.0 383577.0 0
186087.0 386599.0 0
191535.0 382915.0 0
190317.0 386030.0 0
194778.0 385085.0 0
199137.0 384843.0 0
301290.0 384667.0 0
304737.0 382837.0 0
305123.0 386792.0 0
307426.0 384498.0 0
310793.0 384392.0 0
309133.0 387476.0 0
314210.0 384293.0 0
317597.0 386027.0 0
320893.0 383564.0 0
325867.0 385266.0 0
330891.0 386937.0 0
333587.0 382896.0 0
335625.0 387275.0 0
337531.0 384219.0 0
340020.0 386808.0 0
344137.0 384391.0 0
346452.0 386519.0 0
347866.0 383480.0 0
351314.0 383615.0 0
349436.0 386890.0 0
355292.0 384085.0 0
352991.0 386126.0 0
359678.0 384841.0 0
363476.0 383397.0 0
364379.0 386835.0 0
366919.0 384523.0 0
370017.0 383206.0 0
374666.0 385388.0 0
379356.0 383289.0 0
379080.0 387631.0 0
382126.0 385915.0 0
386303.0 386432.0 0
392028.0 385189.0 0
397206.0 384973.0 0
401177.0 385738.0 0
404732.0 384425.0 0
408761.0 385090.0 0
412373.0 383879.0 0
415353.0 386670.0 0
419307.0 385618.0 0
423320.0 386984.0 0
424979.0 383201.0 0
427785.0 386630.0 0
432030.0 384196.0 0
435969.0 386113.0 0
438911.0 384159.0 0
442612.0 383363.0 0
445289.0 386967.0 0
452609.0 383094.0 0
450465.0 386396.0 0
455216.0 386944.0 0
462776.0 383833.0 0
459141.0 385182.0 0
461693.0 386634.0 0
465896.0 382718.0 0
465706.0 386834.0 0
468801.0 384869.0 0
472457.0 385641.0 0
476435.0 385438.0 0
478576.0 383515.0 0
484298.0 386291.0 0
480168.0 387551.0 0
486787.0 382529.0 0
488453.0 386874.0 0
494122.0 385384.0 0
498382.0 386051.0 0
1903.69 388814.0 0
1448.57 392451.0 0
8836.46 390251.0 0
5555.62 391852.0 0
12172.5 390317.0 0
16664.4 390755.0 0
22568.4 390516.0 0
26889.3 388205.0 0
31873.2 390459.0 0
37211.8 389997.0 0
40968.4 389276.0 0
44521.6 391265.0 0
47872.8 388873.0 0
51835.5 387825.0 0
54807.8 389878.0 0
59066.8 388932.0 0
62322.9 391865.0 0
66988.0 390484.0 0
71807.5 390863.0 0
76068.6 391763.0 0
78765.5 389524.0 0
82442.4 389095.0 0
86659.1 388485.0 0
85072.2 391637.0 0
88714.9 391683.0 0
96656.8 388409.0 0
93500.2 392218.0 0
101755.0 388758.0 0
106895.0 388836.0 0
111105.0 388871.0 0
109495.0 392316.0 0
116626.0 389615.0 0
113489.0 390918.0 0
119738.0 390540.0 0
126384.0 387890.0 0
122835.0 389606.0 0
126538.0 391967.0 0
129999.0 389665.0 0
134118.0 391378.0 0
138875.0 390084.0 0
142956.0 392460.0 0
146862.0 389549.0 0
150692.0 387806.0 0
150730.0 391662.0 0
154602.0 390002.0 0
161737.0 389198.0 0
158939.0 392038.0 0
163433.0 391630.0 0
165851.0 388423.0 0
171047.0 389654.0 0
175817.0 387801.0 0
175091.0 391342.0 0
179060.0 390529.0 0
183916.0 390946.0 0
188714.0 390065.0 0
193169.0 389031.0 0
198236.0 389661.0 0
195113.0 392588.0 0
301054.0 388697.0 0
304521.0 390669.0 0
307488.0 390283.0 0
310584.0 391316.0 0
313399.0 388114.0 0
314543.0 392442.0 0
317492.0 390083.0 0
320485.0 392297.0 0
321969.0 388375.0 0
323993.0 392540.0 0
327666.0 390704.0 0
333061.0 390813.0 0
337472.0 390915.0 0
341730.0 390903.0 0
343941.0 387881.0 0
346732.0 390521.0 0
356118.0 387838.0 0
352075.0 390456.0 0
356475.0 391792.0 0
360638.0 389539.0 0
365162.0 390246.0 0
369426.0 388194.0 0
371624.0 392701.0 0
373518.0 389893.0 0
376623.0 390234.0 0
374790.0 392586.0 0
379521.0 391007.0 0
382438.0 389391.0 0
385291.0 390995.0 0
389682.0 390275.0 0
395945.0 388227.0 0
393770.0 389380.0 0
393666.0 392268.0 0
397138.0 391755.0 0
399564.0 388701.0 0
401803.0 392522.0 0
403357.0 388583.0 0
405441.0 391079.0 0
407127.0 388402.0 0
411371.0 388027.0 0
409382.0 392526.0 0
414552.0 391387.0 0
418598.0 389345.0 0
422277.0 391427.0 0
426003.0 390412.0 0
429050.0 390240.0 0
432142.0 388114.0 0
432149.0 392390.0 0
436075.0 390157.0 0
440528.0 387997.0 0
439490.0 392102.0 0
444055.0 391860.0 0
448207.0 389684.0 0
452237.0 390402.0 0
456390.0 391253.0 0
459123.0 388799.0 0
460013.0 392175.0 0
463131.0 389883.0 0
467702.0 391128.0 0
469434.0 387892.0 0
472260.0 389660.0 0
475522.0 387955.0 0
476903.0 391517.0 0
481434.0 391245.0 0
484457.0 389611.0 0
487820.0 390663.0 0
492356.0 389652.0 0
497672.0 389703.0 0
2778.33 396665.0 0
9751.54 393183.0 0
7516.76 395742.0 0
13056.3 393916.0 0
11203.3 397077.0 0
19921.7 393454.0 0
16779.9 397280.0 0
22546.8 395591.0 0
26747.9 392867.0 0
26405.3 397587.0 0
31496.5 395746.0 0
36067.5 393794.0 0
40342.5 392977.0 0
38154.9 395410.0 0
40795.6 397215.0 0
44545.1 394963.0 0
50477.5 393083.0 0
47382.7 396866.0 0
54232.9 396571.0 0
57294.2 393158.0 0
58159.4 397361.0 0
61488.9 395554.0 0
65693.4 394544.0 0
69728.6 394273.0 0
73491.2 393884.0 0
73263.4 397161.0 0
76927.9 395719.0 0
80760.3 393415.0 0
85441.1 395847.0 0
89914.2 395150.0 0
96159.1 394816.0 0
93788.2 397706.0 0
99142.3 392947.0 0
98013.5 397184.0 0
104369.0 393152.0 0
107573.0 396543.0 0
117265.0 392949.0 0
113066.0 395316.0 0
122158.0 393974.0 0
118074.0 396749.0 0
127210.0 396865.0 0
130040.0 393365.0 0
133029.0 396750.0 0
138054.0 394782.0 0
142126.0 397488.0 0
147270.0 393146.0 0
145731.0 395860.0 0
150042.0 396433.0 0
154408.0 394147.0 0
158000.0 397042.0 0
162928.0 395876.0 0
167480.0 393006.0 0
172674.0 395327.0 0
177052.0 393917.0 0
177528.0 397538.0 0
180612.0 394328.0 0
184285.0 395154.0 0
187523.0 394078.0 0
191736.0 393281.0 0
190679.0 397271.0 0
196926.0 394287.0 0
194639.0 396017.0 0
198387.0 397302.0 0
199418.0 393758.0 0
301267.0 393463.0 0
306861.0 395122.0 0
311703.0 394837.0 0
315163.0 396479.0 0
318050.0 394344.0 0
322037.0 395574.0 0
326072.0 395582.0 0
330622.0 394864.0 0
335338.0 394428.0 0
339557.0 394347.0 0
337449.0 397512.0 0
343989.0 394409.0 0
348944.0 394576.0 0
353443.0 394968.0 0
360034.0 393439.0 0
357673.0 394963.0 0
361265.0 396843.0 0
363488.0 393496.0 0
365562.0 396701.0 0
367691.0 392987.0 0
369997.0 396458.0 0
374463.0 396418.0 0
377782.0 393570.0 0
378725.0 397307.0 0
382108.0 393920.0 0
384969.0 397458.0 0
387028.0 394135.0 0
391261.0 394717.0 0
395291.0 395124.0 0
393301.0 397468.0 0
399137.0 395247.0 0
402770.0 397761.0 0
405464.0 394417.0 0
412954.0 395996.0 0
418533.0 394575.0 0
422797.0 395508.0 0
425205.0 393686.0 0
426306.0 397270.0 0
428204.0 393536.0 0
430941.0 396490.0 0
435797.0 394852.0 0
437750.0 397606.0 0
440970.0 395760.0 0
445489.0 396310.0 0
448683.0 393419.0 0
450338.0 397386.0 0
453439.0 394097.0 0
457496.0 394974.0 0
461156.0 395627.0 0
464008.0 397741.0 0
464229.0 393775.0 0
467618.0 395855.0 0
471556.0 393543.0 0
475611.0 396349.0 0
480522.0 394945.0 0
484974.0 393685.0 0
486871.0 397232.0 0
490080.0 393938.0 0
494353.0 397129.0 0
498823.0 393081.0 0
495162.0 393153.0 0
498361.0 396208.0 0
2889.48 402400.0 0
7815.74 399844.0 0
12402.9 401476.0 0
17583.2 402831.0 0
21832.1 399918.0 0
25747.4 401827.0 0
30705.2 400930.0 0
35999.6 398387.0 0
40136.0 402033.0 0
44959.3 400220.0 0
50504.9 399576.0 0
55533.9 400990.0 0
61140.4 400814.0 0
64551.7 398152.0 0
65364.8 402100.0 0
68804.8 398843.0 0
73564.2 401425.0 0
76594.2 398966.0 0
80606.4 398472.0 0
77946.5 402108.0 0
81443.3 402429.0 0
84791.6 400655.0 0
89201.5 399415.0 0
93183.5 402273.0 0
102017.0 397995.0 0
97770.0 401137.0 0
105510.0 400716.0 0
110874.0 400751.0 0
115380.0 399146.0 0
115735.0 402970.0 0
122045.0 398984.0 0
118357.0 400372.0 0
125509.0 402772.0 0
130012.0 400651.0 0
134080.0 401622.0 0
137980.0 399391.0 0
142277.0 401962.0 0
146410.0 399832.0 0
150883.0 401690.0 0
153687.0 398284.0 0
155993.0 401758.0 0
161187.0 401471.0 0
164366.0 399736.0 0
167616.0 398059.0 0
165528.0 402335.0 0
171511.0 399444.0 0
169617.0 403005.0 0
174711.0 401153.0 0
182130.0 398120.0 0
179560.0 401316.0 0
186476.0 398071.0 0
184487.0 401623.0 0
189368.0 401532.0 0
194626.0 400538.0 0
199107.0 400878.0 0
302211.0 398006.0 0
301453.0 402569.0 0
306706.0 401145.0 0
311054.0 398900.0 0
315552.0 400932.0 0
319206.0 398005.0 0
320241.0 402335.0 0
323890.0 399339.0 0
328622.0 398808.0 0
330986.0 401730.0 0
327036.0 402653.0 0
333594.0 399015.0 0
337893.0 401354.0 0
341294.0 398031.0 0
346158.0 398570.0 0
342736.0 402755.0 0
350939.0 399010.0 0
356232.0 399082.0 0
360243.0 400066.0 0
363852.0 400935.0 0
367987.0 399416.0 0
371953.0 400670.0 0
376236.0 400656.0 0
380260.0 401296.0 0
381902.0 398434.0 0
384611.0 401821.0 0
389086.0 398571.0 0
389105.0 403034.0 0
393249.0 400939.0 0
397302.0 398838.0 0
400854.0 401771.0 0
405399.0 402690.0 0
408348.0 398217.0 0
409844.0 402380.0 0
412793.0 400523.0 0
416424.0 398660.0 0
416948.0 403032.0 0
421335.0 399311.0 0
425602.0 401487.0 0
428432.0 402867.0 0
429493.0 400114.0 0
434402.0 400217.0 0
439091.0 399518.0 0
442529.0 399915.0 0
447021.0 400743.0 0
451822.0 401840.0 0
455021.0 398573.0 0
455804.0 402697.0 0
459659.0 399084.0 0
463611.0 401917.0 0
467296.0 399955.0 0
471160.0 398273.0 0
474620.0 400560.0 0
479078.0 399631.0 0
483370.0 398533.0 0
482155.0 402984.0 0
486619.0 401626.0 0
490222.0 398500.0 0
490387.0 401796.0 0
493664.0 401167.0 0
497833.0 400115.0 0
3375.15 408000.0 0
8283.76 404907.0 0
13451.4 406770.0 0
18497.1 406705.0 0
22440.7 404690.0 0
27455.7 405349.0 0
31467.9 405425.0 0
35443.7 403315.0 0
34516.3 407565.0 0
39039.5 407115.0 0
44010.3 405735.0 0
47899.0 403637.0 0
48698.5 408039.0 0
51720.9 404230.0 0
55482.4 405040.0 0
58849.0 404174.0 0
58069.0 407745.0 0
63214.8 406249.0 0
69250.1 404384.0 0
75056.1 405924.0 0
79857.6 405588.0 0
84340.7 404972.0 0
88577.2 403682.0 0
91869.1 405865.0 0
96657.0 405680.0 0
101797.0 403630.0 0
100524.0 407584.0 0
106971.0 404631.0 0
104352.0 407788.0 0
111928.0 405917.0 0
108375.0 408154.0 0
117238.0 407415.0 0
120192.0 403305.0 0
122225.0 406724.0 0
126202.0 408026.0 0
130492.0 405315.0 0
135088.0 405422.0 0
138578.0 403854.0 0
142355.0 406608.0 0
138067.0 408017.0 0
146207.0 404167.0 0
150016.0 405821.0 0
154275.0 405876.0 0
158811.0 405601.0 0
163627.0 405883.0 0
168481.0 407796.0 0
173246.0 405888.0 0
177038.0 404369.0 0
181587.0 405602.0 0
187262.0 405690.0 0
192884.0 405958.0 0
198033.0 404223.0 0
304786.0 405209.0 0
301453.0 407477.0 0
307778.0 405845.0 0
311462.0 404298.0 0
316661.0 405664.0 0
321355.0 406817.0 0
323743.0 403719.0 0
325731.0 407015.0 0
330321.0 405808.0 0
334437.0 403712.0 0
338692.0 406560.0 0
343160.0 406954.0 0
348108.0 403438.0 0
350714.0 407112.0 0
353250.0 403479.0 0
359100.0 404444.0 0
364084.0 406363.0 0
368172.0 403424.0 0
370957.0 405869.0 0
368081.0 408077.0 0
374253.0 404632.0 0
377971.0 404148.0 0
381421.0 405325.0 0
386015.0 406670.0 0
390424.0 406461.0 0
392918.0 404472.0 0
396921.0 403945.0 0
398217.0 406942.0 0
401411.0 405914.0 0
405727.0 405941.0 0
409221.0 406340.0 0
412702.0 403806.0 0
414264.0 407728.0 0
419060.0 406796.0 0
422220.0 404278.0 0
426966.0 405957.0 0
431129.0 403762.0 0
431145.0 407880.0 0
434835.0 405238.0 0
438313.0 407057.0 0
438934.0 403107.0 0
441476.0 407472.0 0
443507.0 404331.0 0
448812.0 405693.0 0
453425.0 405130.0 0
457117.0 406968.0 0
459424.0 403337.0 0
461954.0 406347.0 0
466185.0 405553.0 0
470922.0 403360.0 0
473845.0 407030.0 0
477280.0 404056.0 0
481247.0 407497.0 0
485186.0 405484.0 0
490976.0 406303.0 0
495540.0 403822.0 0
498596.0 403736.0 0
497394.0 407737.0 0
1629.89 412002.0 0
8694.68 409528.0 0
5568.51 412654.0 0
12798.7 412014.0 0
17645.8 410777.0 0
21268.1 408359.0 0
25095.0 408683.0 0
22145.3 411680.0 0
30229.5 409924.0 0
26014.4 412667.0 0
36044.1 411797.0 0
41185.7 411263.0 0
44822.6 410018.0 0
47631.8 411912.0 0
53432.2 408295.0 0
51548.5 412250.0 0
56328.6 411728.0 0
60499.4 410389.0 0
64160.4 411919.0 0
67339.0 408943.0 0
71512.4 408693.0 0
74477.7 410089.0 0
78220.5 409458.0 0
82840.3 409038.0 0
85508.6 412121.0 0
88034.0 408447.0 0
93057.8 409391.0 0
94737.7 413188.0 0
97707.8 410246.0 0
102014.0 411419.0 0
106748.0 411601.0 0
112079.0 410885.0 0
117268.0 412644.0 0
121600.0 410551.0 0
125747.0 412837.0 0
130322.0 410652.0 0
134100.0 408434.0 0
135843.0 413264.0 0
140773.0 411121.0 0
146885.0 408784.0 0
143658.0 409620.0 0
144619.0 412895.0 0
151750.0 409638.0 0
148918.0 413031.0 0
156033.0 409559.0 0
158132.0 412714.0 0
160365.0 409259.0 0
161750.0 413197.0 0
164638.0 410387.0 0
168356.0 412470.0 0
172698.0 410885.0 0
177029.0 408389.0 0
180921.0 410128.0 0
184610.0 409145.0 0
188955.0 410617.0 0
193890.0 411291.0 0
198073.0 408579.0 0
305445.0 408863.0 0
301883.0 411590.0 0
309517.0 408974.0 0
313415.0 408374.0 0
312343.0 412613.0 0
318012.0 411187.0 0
323708.0 410931.0 0
329107.0 410949.0 0
334153.0 408594.0 0
333670.0 412731.0 0
337815.0 411589.0 0
342253.0 410631.0 0
346649.0 408411.0 0
346258.0 413139.0 0
350729.0 411209.0 0
355203.0 408478.0 0
360515.0 410231.0 0
365052.0 410490.0 0
368553.0 411593.0 0
372428.0 409406.0 0
375124.0 412962.0 0
377421.0 408234.0 0
379029.0 412133.0 0
382119.0 409506.0 0
386393.0 411610.0 0
389705.0 409395.0 0
394517.0 408433.0 0
396611.0 412524.0 0
399471.0 409686.0 0
404824.0 409768.0 0
410333.0 411387.0 0
415176.0 413030.0 0
418490.0 410305.0 0
423384.0 409533.0 0
427826.0 410288.0 0
431324.0 413059.0 0
435250.0 409713.0 0
440268.0 411608.0 0
444712.0 408759.0 0
448630.0 410495.0 0
445368.0 413127.0 0
452931.0 409041.0 0
456571.0 412096.0 0
460215.0 409658.0 0
464364.0 409788.0 0
469440.0 409361.0 0
474400.0 410891.0 0
477277.0 408264.0 0
478520.0 411277.0 0
482396.0 412208.0 0
486000.0 409709.0 0
493999.0 410994.0 0
489972.0 412210.0 0
497933.0 412461.0 0
2425.93 416026.0 0
9147.08 413659.0 0
7231.61 417681.0 0
12027.1 416651.0 0
19777.1 414237.0 0
16419.8 415365.0 0
22911.1 415428.0 0
28938.0 413629.0 0
27636.4 417358.0 0
32062.8 414858.0 0
35826.7 416616.0 0
39841.0 415420.0 0
44436.2 414338.0 0
42590.0 418198.0 0
48760.6 415161.0 0
50466.8 418090.0 0
54716.3 416550.0 0
59904.5 414521.0 0
64211.0 416706.0 0
69939.7 414051.0 0
75942.4 413426.0 0
74827.3 417535.0 0
80944.5 413774.0 0
85509.5 415917.0 0
82588.7 417233.0 0
89831.5 413629.0 0
93979.4 418032.0 0
98795.7 414888.0 0
104119.0 416445.0 0
109657.0 415583.0 0
113757.0 415326.0 0
117125.0 417500.0 0
121675.0 415469.0 0
130269.0 416558.0 0
141056.0 416346.0 0
146144.0 416893.0 0
150200.0 416655.0 0
153818.0 413787.0 0
157899.0 416585.0 0
162183.0 417164.0 0
165170.0 414238.0 0
167390.0 417887.0 0
171182.0 415260.0 0
177727.0 413681.0 0
174344.0 416458.0 0
181153.0 417292.0 0
183953.0 413649.0 0
188234.0 415103.0 0
191354.0 414170.0 0
198103.0 413685.0 0
194423.0 415306.0 0
301846.0 415544.0 0
306723.0 413543.0 0
310906.0 416924.0 0
315782.0 416806.0 0
320878.0 415735.0 0
325896.0 415136.0 0
330956.0 415996.0 0
336679.0 416651.0 0
341974.0 415100.0 0
346071.0 417881.0 0
350511.0 415857.0 0
355864.0 413914.0 0
360760.0 414799.0 0
365318.0 414586.0 0
362610.0 418087.0 0
370522.0 415456.0 0
374836.0 416983.0 0
378557.0 415969.0 0
382553.0 414105.0 0
386877.0 416866.0 0
391566.0 413592.0 0
395903.0 416804.0 0
401037.0 414625.0 0
406797.0 415212.0 0
411806.0 416535.0 0
416445.0 417209.0 0
420740.0 414808.0 0
426247.0 414141.0 0
435878.0 413383.0 0
434543.0 416902.0 0
438283.0 415657.0 0
442321.0 416680.0 0
447532.0 417625.0 0
451596.0 414070.0 0
455588.0 416564.0 0
461430.0 413885.0 0
466661.0 413896.0 0
471535.0 414336.0 0
479404.0 414590.0 0
475978.0 414705.0 0
478355.0 417994.0 0
482424.0 416473.0 0
486273.0 414432.0 0
490338.0 416579.0 0
494383.0 414863.0 0
497979.0 416436.0 0
2731.33 421012.0 0
7245.47 422116.0 0
11012.7 420980.0 0
15301.5 419728.0 0
19850.4 418528.0 0
18529.2 422403.0 0
23700.7 418977.0 0
22981.2 422668.0 0
28470.8 422838.0 0
32632.2 419413.0 0
38420.8 420602.0 0
43868.5 422459.0 0
46544.7 418385.0 0
49402.3 422163.0 0
54971.3 422327.0 0
59723.9 419300.0 0
64263.2 421623.0 0
67635.0 419123.0 0
71361.8 419510.0 0
74869.8 422519.0 0
79188.8 419198.0 0
84160.8 420114.0 0
88735.0 419047.0 0
99373.5 420476.0 0
104223.0 421579.0 0
108299.0 420350.0 0
112951.0 419459.0 0
116708.0 421533.0 0
120907.0 420268.0 0
125407.0 418903.0 0
129685.0 423467.0 0
135841.0 419648.0 0
140077.0 420154.0 0
139591.0 423155.0 0
143664.0 421048.0 0
148892.0 420983.0 0
153833.0 418972.0 0
158816.0 421823.0 0
163939.0 421159.0 0
167947.0 423241.0 0
172362.0 420203.0 0
177126.0 418718.0 0
176539.0 423011.0 0
181019.0 421614.0 0
185750.0 418953.0 0
191373.0 418427.0 0
189268.0 422529.0 0
193537.0 423270.0 0
197232.0 419008.0 0
302254.0 419942.0 0
305923.0 422914.0 0
306687.0 418712.0 0
310567.0 421483.0 0
315218.0 421553.0 0
319471.0 420320.0 0
323591.0 418979.0 0
327905.0 419868.0 0
332658.0 420705.0 0
336954.0 422004.0 0
341447.0 420320.0 0
345949.0 422799.0 0
350256.0 420833.0 0
354279.0 418627.0 0
358539.0 418555.0 0
361767.0 423079.0 0
366742.0 419510.0 0
372087.0 420952.0 0
377517.0 420352.0 0
381186.0 423484.0 0
382184.0 418928.0 0
386426.0 422671.0 0
391725.0 419805.0 0
395845.0 423504.0 0
398990.0 419780.0 0
403747.0 419350.0 0
405714.0 423285.0 0
408506.0 419942.0 0
414366.0 421165.0 0
419680.0 420168.0 0
424297.0 418407.0 0
426188.0 422063.0 0
429558.0 418366.0 0
434063.0 420843.0 0
438604.0 420009.0 0
443713.0 421486.0 0
452086.0 418394.0 0
449863.0 421951.0 0
455462.0 422128.0 0
459534.0 418494.0 0
464302.0 418407.0 0
469206.0 418361.0 0
466775.0 422187.0 0
473927.0 418497.0 0
471524.0 423178.0 0
476878.0 422250.0 0
481656.0 420931.0 0
486187.0 419092.0 0
494111.0 418679.0 0
490467.0 421846.0 0
494562.0 422375.0 0
497858.0 420596.0 0
1120.3 424671.0 0
4806.81 425955.0 0
1166.95 427203.0 0
9797.42 425482.0 0
14508.5 424436.0 0
19615.5 427282.0 0
25335.1 427215.0 0
30281.5 427692.0 0
33917.1 424099.0 0
38502.2 425777.0 0
42720.9 427220.0 0
47036.8 426399.0 0
51818.2 426885.0 0
56393.4 427260.0 0
60115.2 424462.0 0
64802.8 426701.0 0
69274.4 423705.0 0
73033.5 427251.0 0
81331.5 423846.0 0
77568.5 426521.0 0
87128.8 424732.0 0
91458.7 428004.0 0
92912.4 423525.0 0
97428.0 425606.0 0
102089.0 425055.0 0
107028.0 425290.0 0
111475.0 423643.0 0
115474.0 425501.0 0
119371.0 423992.0 0
120376.0 428093.0 0
123532.0 424040.0 0
125439.0 428232.0 0
135384.0 424488.0 0
133664.0 428475.0 0
142871.0 425747.0 0
138544.0 427454.0 0
146301.0 424316.0 0
149111.0 425080.0 0
153321.0 424456.0 0
157921.0 427983.0 0
163076.0 425877.0 0
167405.0 428076.0 0
172593.0 426488.0 0
177060.0 426467.0 0
180702.0 426814.0 0
185247.0 424273.0 0
189864.0 427843.0 0
198079.0 424249.0 0
195328.0 427600.0 0
301977.0 424548.0 0
305464.0 427508.0 0
301493.0 428554.0 0
308913.0 425500.0 0
313232.0 425917.0 0
318434.0 425422.0 0
324072.0 423912.0 0
329573.0 424651.0 0
334307.0 425386.0 0
340041.0 426585.0 0
345428.0 426864.0 0
349917.0 425932.0 0
355295.0 423532.0 0
358539.0 428342.0 0
367894.0 425351.0 0
376039.0 426258.0 0
383558.0 427317.0 0
391038.0 424450.0 0
388285.0 427824.0 0
393479.0 428381.0 0
398384.0 427795.0 0
401142.0 423912.0 0
401822.0 427606.0 0
405611.0 427910.0 0
410227.0 424678.0 0
414254.0 427497.0 0
417769.0 424586.0 0
422356.0 424207.0 0
426248.0 425962.0 0
430790.0 424336.0 0
436739.0 424995.0 0
442180.0 426704.0 0
446739.0 425031.0 0
451602.0 427333.0 0
457552.0 427548.0 0
461803.0 423615.0 0
467053.0 427036.0 0
475405.0 427905.0 0
480836.0 425580.0 0
484767.0 427661.0 0
485328.0 423685.0 0
488860.0 426572.0 0
493486.0 425845.0 0
497833.0 425017.0 0
2469.86 430431.0 0
4936.83 433370.0 0
7813.42 430161.0 0
12933.0 429347.0 0
17231.0 433037.0 0
22530.4 431929.0 0
27557.6 432067.0 0
34976.8 429165.0 0
39541.1 430132.0 0
43337.0 431331.0 0
48496.9 431838.0 0
54369.0 431309.0 0
60498.7 429854.0 0
65667.6 431943.0 0
68933.6 428575.0 0
71640.9 431533.0 0
76042.3 430886.0 0
82332.3 429594.0 0
85776.2 433176.0 0
87800.4 430169.0 0
91379.2 432537.0 0
95517.9 430120.0 0
100723.0 429634.0 0
106110.0 430651.0 0
111415.0 428718.0 0
109957.0 433198.0 0
116064.0 429757.0 0
114218.0 433627.0 0
118925.0 432872.0 0
123061.0 431825.0 0
126880.0 432416.0 0
129470.0 429447.0 0
136994.0 433000.0 0
142188.0 430870.0 0
147016.0 428748.0 0
151875.0 429068.0 0
154748.0 432706.0 0
159848.0 433049.0 0
163786.0 430669.0 0
167818.0 432517.0 0
172591.0 432351.0 0
177037.0 430091.0 0
181552.0 431643.0 0
184634.0 428749.0 0
186425.0 432795.0 0
198290.0 430347.0 0
193981.0 432771.0 0
303864.0 432450.0 0
310161.0 431376.0 0
316029.0 430081.0 0
319844.0 433296.0 0
322074.0 428949.0 0
324313.0 432382.0 0
326778.0 428818.0 0
331557.0 429097.0 0
336094.0 431644.0 0
340978.0 433448.0 0
344049.0 430452.0 0
348517.0 431073.0 0
353476.0 429836.0 0
357029.0 433143.0 0
363468.0 428598.0 0
367037.0 430314.0 0
368432.0 433549.0 0
371325.0 430142.0 0
376101.0 431436.0 0
380082.0 430749.0 0
385024.0 432105.0 0
390198.0 432526.0 0
397012.0 432449.0 0
401688.0 431042.0 0
406249.0 433236.0 0
410227.0 429913.0 0
414706.0 432774.0 0
418469.0 429061.0 0
423321.0 429290.0 0
428772.0 429977.0 0
432987.0 433594.0 0
433541.0 428833.0 0
438095.0 430576.0 0
443107.0 432071.0 0
446595.0 429160.0 0
449610.0 432777.0 0
454967.0 431367.0 0
462116.0 428987.0 0
459430.0 433149.0 0
465429.0 432051.0 0
470580.0 431756.0 0
477155.0 433602.0 0
481119.0 430468.0 0
486245.0 432287.0 0
492286.0 430896.0 0
497602.0 429387.0 0
11114.1 435028.0 0
32745.2 433985.0 0
38081.6 434599.0 0
58254.4 434667.0 0
79118.0 434260.0 0
97176.0 434884.0 0
102487.0 434803.0 0
373764.0 433911.0 0
420289.0 433705.0 0
425383.0 433987.0 0
481762.0 434747.0 0
490189.0 435819.0 0
494346.0 435505.0 0
497933.0 433780.0 0
POINT_DATA 5000
SCALARS Radius float 1
LOOKUP_TABLE default
5782.6 4796.58 3979.26 3471.03 5253.55 5820.48 4862.21 5113.21 3929.19 4107.03 4478.15 5379.87 5925.6 4501.51 4792.73 4736.58 4931.38 3485.26 4329.05 4151.94 4049.23 5337.48 6124.89 5708.81 5252.48 4780.03 5495.39 3996.0 3856.1 4665.12 3383.4 4133.88 4834.9 3850.77 6044.04 5415.48 5120.0 3863.18 2356.98 4998.37 6182.6 5492.18 5258.36 5061.3 3642.12 3163.97 5812.43 5122.66 5906.14 5484.19 7513.1 5254.28 4436.4 5733.48 4672.91 5580.89 3588.44 5645.7 5176.86 6810.52 5840.26 3672.51 6110.27 5561.06 5073.35 3615.22 5670.04 4380.59 3589.27 6716.79 3607.45 5759.91 7613.27 5529.52 4951.03 5255.32 6037.08 5096.78 6756.95 4129.43 6324.23 3843.58 3320.52 4194.5 4270.53 5344.25 5191.63 4593.7 4150.99 4216.92 4742.68 4344.58 5634.83 5495.84 6268.1 4861.06 5374.51 5320.28 6739.08 4797.52 4569.12 4298.67 5960.66 6608.73 5011.84 7034.11 6261.42 4502.5 3771.48 4043.57 4271.69 5681.38 4138.42 3708.04 5513.6 3240.09 4556.36 6082.81 3191.99 4685.34 5601.05 4929.8 3586.91 3103.0 3554.9 4015.92 5542.21 4487.31 3936.02 4044.71 5980.74 4094.62 4927.02 5546.39 5325.36 5484.83 5085.53 5351.6 4730.36 4715.55 5867.73 3951.75 5013.56 4499.64 4375.68 5542.27 5054.98 6030.06 5170.02 3557.27 4927.31 4688.68 4402.52 4517.56 4182.53 5903.42 3955.56 3761.32 4118.05 4366.19 5553.16 2938.66 4940.78 4231.61 4008.92 3942.53 3379.84 4827.82 3997.1 3260.67 5123.52 3038.33 4392.68 4333.2 7199.21 4523.7 2240.39 5091.39 5293.9 6142.94 3912.37 4727.24 4602.25 4790.08 5082.47 4763.45 5445.87 3815.26 4704.72 4177.94 4571.7 5896.46 5022.8 3784.5 3780.23 6481.79 5224.12 7042.12 4819.73 6326.39 4471.58 5873.69 4962.09 3999.48 4359.62 6946.21 2586.12 5433.8 4011.77 5499.11 3633.87 5922.5 5198.77 5987.17 6013.14 2765.2 4901.41 5110.37 5664.98 4382.74 5927.43 4651.28 3693.63 4384.42 4516.43 5481.78 5637.59 4937.14 5043.05 5816.2 5693.81 5109.54 6483.19 3829.13 5945.65 6759.9 5538.89 7021.47 5416.38 6059.59 4955.55 2720.68 5701.86 3563.63 4238.81 4468.59 5885.03 2837.58 5325.02 5200.76 5017.13 4862.64 5185.34 4432.58 6684.56 3968.64 4688.67 2635.86 5292.64 6166.5 5065.13 5936.02 5305.17 4861.08 4003.05 5390.22 4805.87 4712.33 5227.21 5697.78 4667.36 4091.31 6372.62 4295.38 5615.42 7565.34 5923.5 4612.68 4281.49 4973.83 6342.25 6691.39 4840.84 5135.69 5344.0 4020.32 6045.46 4245.72 5908.1 6048.7 6133.92 3719.84 4178.4 3095.48 4166.08 4123.6 4850.14 5163.55 3382.7 6817.32 4319.79 6098.14 4472.17 4203.26 5188.81 4730.41 6057.22 5062.71 6125.34 4527.08 5347.48 4850.01 3970.25 5147.67 3979.82 5011.31 5138.31 5264.06 4659.59 6327.9 4048.37 6355.42 4362.19 5690.56 4948.92 3115.91 3307.12 4493.48 5924.89 4002.16 4174.52 4138.16 3486.22 4684.5 6230.49 6458.82 5418.62 4601.27 5493.32 5740.68 5926.61 6051.14 5836.15 3261.21 4345.55 6704.06 3653.41 3871.88 3856.01 5246.2 4390.66 5279.39 3673.74 4827.23 5205.43 6116.18 7447.37 4924.6 4385.06 4733.32 7184.19 2899.43 2924.37 4290.3 3867.67 5399.73 4660.72 3888.21 5891.05 6038.78 6902.81 6644.76 4254.17 5629.19 5090.24 5740.84 6445.94 5530.87 4310.18 7134.64 5978.9 4187.56 3629.62 4997.27 4301.06 4877.67 4290.14 6562.18 4156.38 5316.75 4541.21 4164.68 5669.65 5934.22 5624.49 5762.59 7092.87 4666.81 3703.1 3954.91 6471.55 2965.01 6643.85 3637.61 5501.93 6222.42 5654.31 3745.84 5690.26 4156.2 4497.59 5965.78 4374.35 4810.12 5643.58 5215.05 4292.06 5577.04 5006.58 4602.86 3688.8 4548.16 3369.23 5449.18 5492.26 5244.78 5762.84 3937.74 4749.8 6084.86 5478.92 4778.34 5551.36 6894.71 3091.3 4414.54 5789.98 7054.71 3641.64 5489.43 5747.75 4277.89 5054.25 4796.33 4195.44 5539.32 5360.19 6496.85 5600.93 4874.39 5541.59 4124.71 5728.85 4911.47 5803.39 5863.59 4381.97 6257.19 3255.82 5242.73 2812.98 4065.69 5603.15 4695.45 6052.7 3921.18 3798.62 5308.1 3666.57 4907.89 4937.02 5655.21 4786.6 4645.41 4433.59 4320.28 5542.14 4218.06 5480.13 6308.71 4716.19 5514.76 3456.98 3498.2 5105.16 3066.13 4302.5 6006.16 6009.88 7055.53 5013.67 5826.04 5339.78 4970.88 4143.78 4763.66 4636.5 4940.42 5923.4 5085.71 5499.39 5644.82 5463.38 5945.21 4938.74 5696.88 5607.14 3923.03 5975.63 5252.34 6396.74 4138.46 2775.04 3821.72 4986.77 6318.18 5586.81 4621.75 3948.17 4551.24 5358.59 4220.88 4515.71 6519.71 6640.13 5082.6 5810.84 4230.54 5094.44 3748.24 4655.49 4467.94 4850.81 6038.14 6138.47 2540.31 6029.66 5527.54 5573.7 5697.4 4727.62 4270.95 4055.8 7325.81 5280.17 6425.26 4794.96 6186.19 4839.34 5083.08 6834.49 6337.56 5525.39 3998.5 5938.34 4024.3 6394.38 5555.28 5169.36 4737.14 4686.65 5834.74 5556.96 5788.23 5581.75 6392.01 3599.45 6730.19 4907.06 4073.93 3735.44 6043.3 5952.75 6332.36 6122.55 2739.94 4931.53 4223.33 5911.67 3323.28 6695.82 6405.76 5794.24 4678.38 5448.61 5050.65 4827.33 5206.48 5513.57 5729.23 5226.0 3365.82 4538.95 5965.15 4780.2 6090.91 4946.42 5019.93 5081.78 6116.33 6263.44 6343.14 5774.97 5462.21 5750.71 5470.77 4831.47 4643.85 4004.04 4289.17 5564.02 4274.61 2965.79 6898.19 6035.6 5137.34 4481.53 5330.45 4581.13 3610.4 4219.07 6387.01 5367.52 3092.35 4322.15 5210.03 3629.96 5478.47 5351.39 6142.37 6061.47 4933.21 5375.47 4723.12 5120.49 5201.36 5262.61 6302.8 5409.61 6038.2 4005.44 5206.78 5555.88 6732.43 5028.96 5143.58 3866.16 6362.12 4484.76 4840.01 2980.99 5611.2 7933.0 4455.12 5173.87 4894.16 5380.13 5711.87 5118.27 4941.22 5932.23 5791.61 3369.13 4479.66 3043.85 5367.2 5461.13 4726.76 5839.13 5495.68 5489.34 5163.9 5708.14 5537.72 3920.42 8332.24 6155.31 4553.56 5329.64 6049.55 5709.62 5835.78 4127.74 2476.04 3942.07 7443.72 3937.08 5260.34 4709.35 6586.45 4373.3 4750.78 4163.5 5724.64 5078.86 5100.1 3561.29 4963.34 3295.83 4459.28 4260.92 5960.56 4118.84 4020.95 6313.06 3474.39 6470.3 4200.03 6062.05 5082.74 6915.83 6072.45 4410.55 7099.43 5526.14 5198.29 5423.0 5077.33 3856.59 4746.52 5413.79 6338.89 6202.55 5025.39 4714.54 5893.5 3320.11 5030.91 6022.17 5119.37 3982.23 6163.38 4566.18 3459.9 4964.09 4809.42 5024.9 4306.53 5659.17 5094.81 5972.06 5713.22 5861.71 4359.04 3183.98 3794.63 4524.28 3778.1 5152.36 4511.82 5826.64 4220.65 6820.42 4816.2 6321.41 4896.52 4751.02 3372.79 5184.56 5282.64 4715.72 4669.66 4808.52 5046.33 5607.24 5053.92 6352.26 3847.38 3818.59 4863.72 5002.48 6623.85 4262.82 5102.36 4342.9 5069.84 4051.44 4241.89 5054.74 5941.72 5991.09 5133.97 6600.94 4788.58 5371.02 6155.1 5876.71 6262.72 5029.78 6515.84 4888.6 2990.77 4739.14 4918.77 4371.99 4219.78 3885.86 5235.29 4479.94 6250.23 6413.02 4863.27 5862.86 6049.79 3493.7 5374.98 4719.7 6939.12 4735.33 5411.85 5092.37 6444.77 6314.07 4287.63 5315.4 6449.45 3975.31 3689.45 3824.16 5572.95 3868.18 6723.16 5584.06 7111.16 4547.19 3817.13 5507.24 6851.54 4583.31 4503.89 5806.08 4853.39 4997.27 4093.08 4449.22 5543.27 4717.05 6135.57 5998.38 4312.67 5423.8 4270.24 4989.15 5017.78 5015.69 6175.81 4727.24 6677.09 4305.57 6959.81 4829.35 5201.67 4424.7 4089.76 5526.55 3192.41 5215.15 4987.87 3315.57 5804.71 4764.96 5727.3 4242.52 5356.51 4277.88 4087.15 3057.03 4143.08 7500.97 3948.23 5228.18 5787.31 5065.11 3927.99 5868.82 4978.31 4050.9 4099.77 4537.32 4981.9 4656.78 5126.91 3600.43 5131.24 5196.67 6496.67 5474.8 3664.11 5117.47 4925.63 5882.65 4434.19 5187.7 4623.61 4188.3 6261.75 5177.64 4255.31 5453.3 4407.9 3492.19 4584.5 5122.63 4703.08 6345.13 5274.19 5516.95 4406.4 4413.85 4844.57 4027.46 4470.98 5776.37 4516.28 3627.82 4044.45 5125.78 5344.43 4373.47 5045.38 5350.88 5372.61 3686.21 6480.17 5023.15 4377.07 3813.22 5101.59 5570.3 4336.42 5243.29 7589.94 3130.65 5628.24 5856.11 5287.2 3327.49 4109.88 4234.94 4562.29 5013.13 5080.66 3417.33 4926.42 4164.13 4642.34 4520.1 4947.52 5874.89 4293.03 5813.4 4389.21 3791.79 4925.44 4754.05 4951.47 6084.93 4307.28 3697.96 4739.42 5538.93 5020.12 4745.45 2631.9 5281.28 6255.18 4668.71 4758.21 7228.46 6362.14 6719.88 5978.82 5266.5 4523.88 4066.38 4948.98 4414.48 5227.52 4092.24 5163.02 7144.24 4906.82 5687.83 5004.23 6442.69 6320.71 4648.04 6607.87 4721.32 3293.56 3163.78 5274.14 4903.82 5746.28 4082.47 5511.6 4338.08 4378.3 6134.99 4094.73 4718.54 4440.57 5548.29 6766.43 2315.64 4390.41 5226.56 5599.49 5313.22 3905.51 3999.94 4864.22 3901.8 5759.46 3921.08 4190.31 5678.96 5262.19 4244.9 6070.58 6034.41 5452.83 5130.91 5402.24 4519.22 6445.22 3844.9 3695.36 3963.86 3848.93 4306.11 5935.47 3402.32 5903.66 4528.49 5004.67 5365.89 5992.26 3960.8 5070.39 4980.85 5714.58 5110.45 5208.32 5248.77 4083.97 4607.02 5153.74 4528.09 3895.51 4165.81 6291.51 4128.98 5882.89 6246.22 4188.32 5246.61 4100.38 5344.77 4723.48 4899.11 5097.87 4278.07 7267.18 6256.02 5320.92 5269.18 4406.1 5034.59 4942.77 4263.33 4454.63 5080.18 5912.61 3279.1 4403.98 4560.84 4729.43 5776.57 4562.74 5683.26 5598.74 5139.5 7493.3 4814.55 3527.05 3464.83 5698.77 2477.07 6413.11 4305.16 5092.28 4965.89 5659.95 4152.85 2908.7 4453.64 4517.73 5469.47 5660.16 4989.56 3838.47 2588.37 6736.03 6235.57 3623.87 5916.16 6934.37 6113.95 4050.08 4097.57 5017.5 5563.79 6171.13 5511.88 5083.41 4512.11 7055.42 5486.68 6048.86 4285.32 5490.43 5022.28 5197.52 4959.34 4948.5 4527.02 4531.14 4564.34 3838.56 4871.44 5076.35 6020.48 6375.99 5200.05 5234.29 5313.66 5419.37 4466.03 4511.54 5409.33 5196.0 4923.9 4973.78 3329.99 3947.47 3296.27 5091.68 4713.25 4204.84 6243.0 6673.96 3556.85 5441.96 3435.9 5174.89 4288.3 5370.52 4652.29 5774.81 3746.31 5498.32 5027.98 5346.27 6475.1 4969.21 2691.29 2845.98 5289.52 5314.85 4305.43 5450.44 6510.17 5742.65 5592.32 5381.16 5565.13 6193.35 6086.96 5233.78 3701.27 5653.9 5046.21 4929.14 5894.61 3979.54 5304.13 5944.09 5833.06 4923.41 4497.31 5384.76 5529.42 5257.12 5243.43 4537.14 5551.9 3757.34 6415.61 4687.64 4419.71 5037.06 4541.8 5175.29 5842.56 5887.15 5412.31 3087.09 3423.15 4890.5 3981.07 5452.42 5328.22 6853.85 2395.5 3497.9 5941.61 5782.48 6248.6 5683.61 3836.45 5100.25 6894.26 4986.51 5339.38 5178.99 5383.07 4591.87 5013.42 4790.78 4247.15 6552.22 5651.07 6248.81 5273.35 4091.8 2651.49 4645.58 5512.23 5275.32 5985.29 4898.94 4178.15 4613.31 4733.04 6119.09 5788.66 7531.29 5069.25 5048.89 5935.03 3161.47 3991.03 6390.78 7435.25 6826.57 4788.87 4495.87 3702.37 6022.72 4643.31 5527.33 6917.52 5402.21 4989.09 4880.14 4982.31 3848.54 4307.48 5941.4 5331.02 4871.96 4863.23 4402.67 4470.61 4631.83 4384.88 6887.27 6008.49 4806.34 4287.53 5612.21 5945.08 4968.03 3306.14 5490.58 4863.79 4702.06 3830.46 6031.67 4689.15 6138.12 4428.78 5409.66 4345.67 4765.72 4642.66 4752.14 5329.59 4888.12 4950.97 5512.16 3197.63 4863.96 5191.08 5203.08 7480.41 5163.77 4488.85 3731.84 4901.07 5186.3 3436.15 4151.76 4020.4 3493.47 4596.75 4933.65 5443.58 4558.46 5805.86 4049.02 4470.4 5311.03 5255.12 6169.11 5615.35 4027.09 6422.84 4502.18 5379.09 4602.85 4962.77 5872.05 4853.02 6259.23 5181.4 5670.2 4711.62 4247.23 4114.24 4268.65 4694.83 5509.42 4354.08 4256.43 5936.36 4520.62 3903.75 4755.47 4485.99 5127.16 5475.8 5314.69 6050.81 5543.46 4249.46 5965.81 4750.17 5660.85 2330.66 3990.25 4177.19 4752.51 3587.05 6229.37 6718.19 5282.91 4425.84 3797.33 7256.35 4800.69 6566.1 3555.86 6386.78 4996.99 4896.39 6081.14 5480.83 4220.46 4607.85 5128.57 6000.7 3169.67 5604.21 3361.92 6710.88 5395.14 3967.48 6213.04 6622.11 3685.13 6790.73 4655.16 5251.4 3867.19 5857.79 4039.91 5276.7 5036.58 6119.63 5411.02 4752.9 4287.16 5199.44 4062.5 4435.51 5374.07 4588.7 5683.95 3766.55 4579.69 3554.48 6496.52 5005.85 4216.17 6484.17 4721.02 4254.37 3374.08 4031.78 6098.1 5708.99 5687.85 5346.68 5296.29 4611.53 4896.11 4285.66 5172.53 4135.62 5801.99 5534.94 5210.48 7644.38 7552.94 6101.92 5323.3 5088.44 4998.21 4662.56 5166.79 5349.31 2976.22 4649.22 5394.55 5094.52 4946.74 2682.24 5928.32 5229.48 5475.7 4016.18 5526.75 5435.74 4244.99 5327.45 5560.26 6185.89 3997.96 4439.35 3460.94 6184.4 3691.0 3758.07 4373.45 4236.14 4407.87 5733.62 5282.51 4460.92 5945.89 4042.28 4105.55 4340.76 6065.22 4221.28 4456.39 5514.84 3633.79 5421.53 5937.08 6070.3 5233.29 4312.56 4612.06 5204.04 4750.58 5926.11 6667.68 5235.11 5211.38 5089.62 4590.55 4741.26 5920.32 4255.85 5097.69 3988.3 6543.13 5149.72 5776.96 5464.25 5486.48 5301.47 4617.55 3645.12 5424.88 5415.85 8659.64 5469.13 6027.62 5010.2 6123.03 5966.61 5711.11 4575.94 4938.72 3546.71 5768.57 5564.23 5950.04 4231.83 2435.33 6401.43 5020.71 2681.29 5094.48 3872.61 4238.4 4318.48 6132.95 5266.22 4860.33 3685.13 6004.68 4051.34 3627.55 6239.84 4635.6 4256.67 3457.48 3931.07 3405.98 5417.15 3688.16 4681.72 4945.39 5996.33 3950.63 5415.19 4612.62 3619.07 4275.57 4467.04 6385.23 5817.25 2983.99 2614.4 5061.98 6363.92 6205.93 4923.24 5830.72 3828.81 5309.98 4082.57 5255.18 5169.9 3004.16 4767.78 5235.17 4421.12 4779.5 4435.36 5254.49 6649.96 4303.19 5784.3 3914.2 4256.57 6088.68 4643.56 4135.08 5620.74 4778.82 6124.08 5467.84 5053.95 5266.01 5253.37 5767.9 6515.8 5869.4 3685.65 3701.16 4186.6 5895.77 4732.09 6136.49 4356.25 4757.74 4216.95 4209.49 5742.74 4244.21 4947.24 3875.05 6200.54 5148.58 4199.45 6599.66 4055.54 4233.8 5765.42 6098.95 4997.83 4893.49 5325.44 5021.88 5956.65 4498.25 4188.87 3735.24 6574.95 4074.48 6333.29 4558.47 5731.57 5997.88 5839.71 5576.92 6408.83 3930.79 4004.35 5226.97 3312.06 5180.76 3361.26 6799.4 5278.36 5865.39 4427.28 6079.11 3082.32 6430.39 3658.37 7440.72 3949.6 5376.71 5703.6 6326.18 5661.62 6631.19 6648.68 4713.74 5626.61 5407.78 4084.49 6632.99 4537.6 5147.36 4419.61 7177.44 4563.46 6553.94 5726.66 5460.65 5652.0 5463.41 5225.33 4929.75 6045.22 4614.3 5134.39 3532.3 5769.98 5442.32 2221.99 3580.58 4863.01 5356.79 5657.36 3619.79 5029.47 6306.21 2978.76 2040.66 7016.27 5884.9 3876.21 5689.26 4916.22 6022.7 4940.84 5750.07 4809.67 6045.67 3946.28 3821.94 5439.9 5367.73 3540.11 3456.47 4652.01 5421.64 7234.66 4207.54 4886.12 6419.12 4976.12 4817.16 5453.98 3991.42 4388.63 5102.75 4200.09 4597.29 5931.77 5151.21 5398.64 6817.57 4477.04 3614.96 3886.68 5703.74 5662.55 5737.92 4360.23 5365.24 5293.51 4763.96 5754.18 5008.63 3418.99 4480.95 4993.35 4409.63 5521.25 3661.9 5370.85 5949.46 3178.54 3776.94 4765.02 4448.13 5070.29 4807.28 4867.08 2261.36 5075.55 4266.03 5280.69 4220.03 6923.84 5227.59 5449.46 6179.96 5703.07 6113.54 4662.43 6260.79 3963.76 5528.53 6799.88 3062.43 5990.52 5426.78 2967.38 4159.35 6477.91 4237.98 3091.67 6439.37 4081.97 5401.99 5580.92 5973.33 5067.46 3583.21 2511.46 4011.37 2775.69 4785.25 6519.43 5876.64 5424.46 4857.84 4908.49 4962.21 4858.44 3468.42 4673.35 4771.13 4992.42 5297.19 4351.38 4833.46 5933.7 7248.4 5280.12 4444.97 5984.81 3498.16 4409.27 4640.06 4588.99 5471.74 3548.39 3673.28 4928.27 4858.51 3375.28 5625.65 4301.61 6107.89 4446.84 5660.55 5148.08 4834.87 5760.22 3672.21 5938.17 4795.43 5097.95 5108.06 3573.73 4693.52 6853.04 4745.43 5831.96 4747.55 3056.7 3755.95 6234.32 4586.19 4446.06 3450.93 4270.74 5132.68 6595.03 4558.15 6218.95 5222.16 5107.23 5136.08 5558.68 4802.32 4010.57 5629.39 2684.03 5246.47 6157.04 4768.61 4522.21 5506.19 6719.94 4950.67 5832.37 6166.29 5453.6 5409.63 5294.77 4709.05 4630.82 4043.66 4813.08 5860.67 4540.86 3764.1 4835.83 5604.35 6316.56 4332.87 6420.81 4715.58 4450.7 5151.52 5369.08 4347.74 4009.62 5291.9 2081.58 6505.78 5461.55 3298.2 4270.15 6865.76 6449.64 6464.8 4684.44 4749.59 5799.69 3809.69 5571.72 3208.96 7051.9 4184.23 4144.57 5550.75 6834.41 6226.14 5466.33 3000.29 5721.05 4247.69 4209.31 4514.39 6242.79 4321.21 4344.34 3583.49 5052.84 4366.74 5297.16 3184.64 5206.33 5530.49 5653.03 3718.69 4514.79 2216.82 4509.89 4940.28 6752.75 5269.38 5607.3 2928.82 4222.4 4000.43 3420.08 4568.41 4912.04 4539.07 5464.68 2685.81 5591.76 4585.31 6625.18 5323.91 5097.45 6293.89 2761.07 5737.75 4983.39 5366.52 4690.55 5533.72 5533.42 7132.12 3678.08 4599.38 5518.57 4187.31 6191.29 3240.51 7422.36 5161.01 4298.15 4628.4 6051.83 4642.93 5941.9 4263.16 3973.12 3077.84 6024.75 6109.49 5567.93 5987.42 5332.65 4442.22 6451.33 5413.31 3012.99 6400.08 4743.59 5208.14 3317.83 3763.05 5092.24 5549.49 3101.75 5423.42 4518.04 4766.06 4874.18 5435.19 7093.13 4953.1 5818.95 4093.99 3940.49 4406.05 4680.94 5828.35 5876.72 5236.43 5285.07 4680.14 4608.41 4187.94 5980.59 5021.77 3796.15 4801.8 7216.98 5271.02 5718.28 4601.74 5950.45 5713.03 5849.65 5134.67 4165.21 4215.0 4936.96 4481.76 5452.78 5065.26 4304.41 6192.0 5885.28 6579.31 3004.34 5323.55 3022.6 4914.45 4811.76 4698.87 4661.03 5160.59 3624.7 4691.91 5262.35 4475.83 4255.34 4510.8 5889.35 5010.04 4394.56 4570.98 4275.07 5825.38 4185.61 4047.87 5742.47 3778.02 4917.99 6552.21 5417.8 5146.37 4836.16 5300.96 5151.11 5463.48 5730.33 5545.46 4527.99 4376.7 4543.1 5190.61 8325.01 3764.06 4440.81 5434.47 6642.76 5829.22 4497.78 4243.79 5811.18 5433.65 4008.15 4887.76 4669.06 4811.32 4286.49 6184.88 5829.32 4396.25 5551.95 3918.87 2275.45 4901.2 6605.86 5012.5 4383.56 4990.79 3562.79 4516.53 4122.92 3604.14 4452.54 5089.1 2711.19 4028.32 4099.92 4884.59 3858.06 4511.7 4083.79 4304.63 5263.27 6300.92 4173.54 5599.29 6038.68 5046.12 4807.4 7013.17 3805.67 6506.86 5088.57 5580.34 3852.6 5775.31 4706.5 4603.5 4647.67 5375.12 4356.36 4892.44 5578.94 7610.49 4286.17 3684.56 5375.1 4172.6 5313.12 5351.56 3984.88 5318.53 4732.09 4320.42 5064.79 5480.3 7509.24 4146.81 5896.26 5388.78 6101.13 4573.72 5099.21 5636.4 4367.78 4350.12 5227.02 5670.0 4232.16 4344.51 5680.94 3781.77 5581.55 5193.01 3474.5 6550.44 3860.83 6348.03 5732.27 4523.39 4792.39 5278.56 5146.37 6917.62 4013.38 5631.14 4343.78 5263.3 3352.35 4909.65 6523.86 7693.4 4326.48 4437.07 3449.37 5491.9 6405.0 4659.16 5789.55 4909.31 4633.05 5711.62 4798.17 5166.79 6479.39 2895.63 4997.91 5079.22 5381.54 5810.77 4714.83 5474.15 7519.2 6355.68 4478.6 3953.55 4063.9 4469.54 4314.56 3928.53 5606.51 5740.65 3834.47 6349.67 6329.53 4590.01 6101.86 4227.41 5993.0 4803.57 5966.42 4110.59 3332.49 5354.66 4214.44 5378.23 4787.97 3746.36 6789.23 3989.7 4777.03 4246.61 6028.09 5452.36 3804.5 6486.37 5498.42 3344.57 5220.76 4281.98 7165.9 5344.83 7046.11 3427.63 4863.97 6342.48 5756.75 5599.7 4587.67 4163.74 6969.28 3665.95 4296.69 5698.96 4095.75 3319.67 3603.51 4298.45 5283.8 5222.51 4076.59 6609.84 5135.96 3834.43 5658.37 4707.06 4972.17 6074.94 5491.37 4250.88 4222.77 3783.54 5268.38 3475.67 4805.33 7038.89 3863.67 4814.12 5067.56 6137.8 2735.53 5116.6 3747.03 2783.85 4356.49 4526.81 3994.07 4219.94 5907.46 4264.91 6740.71 5399.29 5971.22 6522.59 6602.43 3568.28 5425.98 5996.66 4405.42 2995.67 3598.08 4599.81 5698.23 7300.58 3608.06 6633.61 5217.95 4867.7 5484.36 4277.24 4075.28 5291.05 5161.1 4619.2 5166.41 5067.56 2596.96 5701.75 4350.15 4139.3 6541.45 4750.49 5078.31 5391.48 4923.43 5131.15 4847.14 3950.27 5116.66 3566.79 5374.67 4981.43 4741.28 5069.89 4215.2 4157.29 6813.72 5327.75 4609.02 4896.65 4638.18 4196.37 6448.66 4453.97 6945.98 5138.2 3503.41 5783.48 4449.98 4701.5 4504.35 4771.65 4840.44 5093.82 5951.81 3924.14 6918.35 4834.3 6238.32 6804.79 6471.42 5369.5 4428.14 5164.1 6464.15 4479.11 6685.4 5699.53 4850.06 6332.01 7044.29 5527.23 4234.18 7085.01 5980.95 6193.08 6069.3 3862.77 5887.01 5168.35 5388.39 5335.47 3728.18 5633.61 5048.19 6799.23 4888.27 4592.15 6487.56 4854.11 5533.19 4998.22 5417.21 6104.26 5583.61 6063.64 4986.71 7382.3 4022.56 5522.21 3772.3 4855.01 6208.9 4923.57 3340.09 6061.63 2279.05 4829.35 8137.11 5484.32 6650.77 4067.96 7104.73 6162.3 3272.75 4264.54 3516.27 7043.44 4263.78 4643.9 5228.75 6047.14 5009.83 5210.38 5717.8 3629.44 5003.78 3299.24 6246.56 4061.6 2603.64 5107.0 6212.15 6502.97 4783.07 4946.23 4852.58 6083.28 5211.6 3556.79 5806.31 5456.71 7317.04 6412.67 7001.83 5012.97 4036.91 5589.37 5439.49 6639.64 5212.43 5454.12 6348.54 4066.57 5642.35 6372.13 6357.47 5404.01 6016.19 4124.49 5535.91 3230.13 5714.25 6176.67 5325.96 5412.24 5016.02 4920.21 4049.16 5851.61 3936.95 6153.94 6836.82 3858.17 4631.99 4740.98 3185.39 5128.77 7122.87 5797.36 4243.26 4153.84 5119.86 5089.26 5084.17 4901.44 3776.8 5096.43 6156.21 2460.79 4653.83 6171.71 3628.89 6589.82 4668.88 5027.43 5522.75 5867.64 4438.58 6059.93 5602.53 5073.02 6545.43 3472.91 6760.92 4989.2 4711.04 7144.05 4506.18 4824.12 2970.9 6542.5 4383.47 5971.21 6318.23 4206.98 5156.76 6101.57 4891.38 4793.65 2949.12 5955.86 4532.89 4533.37 4848.46 5742.09 2779.99 2884.65 5887.38 4581.37 6942.34 3658.05 5478.11 5526.31 5030.15 4058.87 5174.75 5932.07 4984.46 5948.71 5844.72 3856.53 3992.97 5460.89 6040.74 5260.85 5393.65 4961.99 5807.46 4648.21 4393.16 3311.29 4549.69 6423.81 6192.77 6413.15 6103.11 5048.55 5416.45 6459.51 4024.31 4955.16 4904.51 4147.31 5989.05 5751.15 4054.22 5950.88 7228.94 4441.22 5853.89 6551.93 4595.12 3110.13 4386.8 6484.43 4625.67 3485.54 6735.97 5305.59 4330.58 5754.6 3288.01 4355.83 6870.97 2202.77 5351.86 6056.87 5474.01 4149.55 6201.86 3380.69 5166.89 4140.4 3639.44 5446.4 4725.01 3868.62 5966.75 4729.42 3104.96 4844.83 5244.78 3636.15 5652.87 6114.89 5135.63 6384.7 5952.38 3896.27 5807.52 5307.35 7554.58 4731.21 5491.63 3124.7 5725.37 6102.98 5138.33 3477.1 4811.22 6379.14 5216.26 4749.96 5377.37 5483.7 5018.69 4899.73 3152.86 5457.66 5973.89 5963.36 5230.02 5087.14 4342.18 5169.48 6016.08 6776.22 6064.71 4467.13 6060.17 5934.82 5415.45 4385.81 6592.93 5096.24 5769.14 3381.82 7107.63 4831.93 4023.93 5494.28 4834.39 5493.89 5261.19 3831.52 4918.76 4208.41 5826.78 2856.55 6214.73 4553.68 3758.22 4268.19 4532.7 3205.68 5561.74 6100.73 4788.08 6556.26 4593.7 4349.13 3687.65 3634.5 5478.95 3851.85 4019.34 4658.24 3623.19 5869.67 4311.48 4387.39 4564.1 5825.55 6394.19 4848.14 5366.22 6193.73 5518.11 3742.11 4192.21 5712.35 5701.52 4743.9 5311.55 5321.17 3360.86 3719.11 4869.25 5545.21 3877.8 6418.11 4501.78 6350.71 5039.12 4824.81 5135.5 5868.89 5545.59 4099.26 5206.47 4263.65 6106.43 6761.81 5467.63 4127.53 5210.75 5175.89 5361.87 5232.85 4473.29 4908.75 3971.08 6204.65 4482.9 6818.91 3503.65 4869.48 4906.11 5510.96 4745.16 4584.81 5509.51 3199.4 4316.5 5254.24 4914.03 3597.43 5086.29 5144.56 4158.91 5139.18 3034.16 5551.43 5049.99 4201.03 4333.87 3657.69 6015.02 4922.49 3572.94 5001.58 4820.17 6456.58 5244.98 5366.11 4384.28 5944.3 7307.21 5640.72 3619.72 4565.93 5615.84 4464.73 5788.97 6440.38 3274.85 5007.21 4580.06 4835.97 6419.64 4057.17 5262.47 7066.96 4587.7 5196.92 5644.81 4568.64 5666.95 4642.2 6555.44 6358.93 3894.64 3703.49 4374.74 4757.2 5975.23 6816.66 4745.79 4211.82 6550.4 4891.67 5513.8 4887.52 6631.28 5350.88 6571.31 4392.65 5429.3 4944.51 6653.07 4697.91 5179.17 5071.98 5719.79 4371.08 7261.51 4968.14 5949.73 4312.48 5527.13 4278.57 5081.08 6318.25 6864.06 4458.64 5001.87 4312.15 3644.78 4883.63 4078.93 3814.65 3886.72 7778.01 4034.05 5127.82 5798.38 6436.74 3419.87 4456.26 3908.98 5113.6 6328.42 5851.63 4504.52 4954.81 5610.53 3926.11 5464.83 5414.58 4991.35 3512.94 5601.55 4807.35 5334.36 5750.35 4489.99 3683.86 5293.75 5658.14 5473.72 7124.45 2205.51 5144.44 2617.39 5034.69 4198.94 5079.64 5470.04 6003.78 5684.25 3766.69 5188.53 4882.66 4027.63 5603.68 4526.34 5610.95 5532.72 3220.8 5042.75 4598.92 5579.39 5270.51 5148.1 4979.52 5490.75 5224.64 5214.63 3495.68 5783.94 6370.33 4202.77 5836.14 6008.81 5510.9 4505.28 3492.83 5585.14 7039.98 6006.89 5792.98 5910.86 5690.96 5805.1 3862.91 4456.11 4027.33 4810.98 5026.76 5091.22 3563.14 5212.92 5556.0 5748.9 3742.31 5755.15 4608.34 5695.79 2781.96 4431.23 4467.0 4994.65 4258.98 3903.91 3919.62 4929.6 4548.45 5730.61 4508.18 4062.56 5969.37 4928.35 3217.67 4509.46 6163.54 5212.37 5438.92 5110.11 5036.98 4120.07 4521.75 4813.33 3840.21 5569.2 6746.66 5420.67 5635.32 4827.61 4316.45 5409.08 5481.64 5673.75 5241.22 6647.08 3422.29 4407.79 6548.29 3990.96 5352.24 7362.42 5793.12 5473.05 4373.2 4583.52 6711.21 6280.13 5244.22 5832.29 4438.76 4960.64 4983.3 5401.4 5053.15 5124.17 6239.68 7320.78 4234.88 5782.43 4708.31 3873.92 6282.38 5657.55 5727.79 5188.82 5043.14 5072.5 4749.18 3663.0 6304.49 4420.6 4475.38 3622.8 6545.99 4728.55 4368.28 4945.0 4658.11 4551.26 5114.07 7142.95 5064.67 6618.21 3717.47 4504.86 6200.63 4583.94 1937.5 3844.54 3538.53 996.652 6500.49 2628.22 5965.58 5058.51 4244.49 4050.03 4952.52 3429.57 5410.33 5661.6 6099.28 5285.75 5385.03 4169.15 4778.37 5360.67 5968.54 6263.3 4501.05 5592.54 4537.03 3247.97 4114.2 4904.37 4326.06 5034.46 5757.29 5016.46 5469.17 5061.75 3769.24 3743.76 5153.18 3425.69 4971.29 2606.51 3864.92 6119.99 4159.81 4446.58 5372.82 4402.17 4775.49 4681.29 5749.6 3845.9 4174.44 4834.44 4092.07 4213.05 5347.9 4224.3 4717.73 4928.85 4546.96 4316.0 5424.55 5134.72 5287.25 5917.34 5740.98 3787.08 5630.9 4554.68 4140.92 6570.35 4559.74 4383.68 6666.67 6063.44 5046.31 4337.32 4680.69 3352.34 4901.29 3242.31 4898.29 5372.25 3234.26 3494.16 5134.17 5370.9 4074.16 4904.35 5390.33 5124.34 4358.81 5278.54 4651.64 5729.0 5729.92 4179.87 6224.13 4761.84 3661.67 5510.45 4730.14 3994.39 5499.59 5667.51 6331.74 4198.9 5235.87 3904.07 5553.94 6502.99 4392.75 4921.1 4191.01 4770.51 5577.41 6511.37 4462.87 4218.16 4933.49 6139.64 4692.32 4474.83 5236.24 4585.04 3127.83 4242.63 3269.54 7407.91 4051.18 5849.53 4651.99 4420.11 5863.0 6127.39 4972.18 5329.76 4124.76 7200.89 4802.98 4833.55 7224.99 3908.56 5265.63 5684.88 4431.06 5730.2 4830.13 4645.86 5620.88 4941.52 4529.77 4325.13 4262.74 6172.27 3783.79 5078.73 4248.14 5279.19 4016.6 5192.92 5275.57 4786.66 5891.25 5370.1 5393.76 3684.15 7123.04 5906.57 7541.76 4932.29 4990.23 3784.94 5431.29 4833.67 5325.91 5157.38 4646.51 4546.44 6203.03 4700.07 5273.37 4732.37 5713.36 4704.92 4287.25 3814.16 4589.06 4216.44 3999.5 4012.92 4346.07 6102.49 5836.26 6015.22 6061.85 6449.06 5241.75 4731.53 5640.12 5760.98 4954.76 5764.52 4390.64 6523.78 4608.01 4045.67 6005.95 4308.49 5900.0 4581.1 6241.77 5317.19 7360.12 6223.98 5821.49 7050.08 5580.44 5998.13 4763.4 5902.67 5454.11 4236.86 6010.59 4128.1 4618.73 4506.66 3220.29 4439.71 4141.21 4064.58 5023.41 952.938 4184.21 5473.89 6089.45 4985.3 4966.07 3987.69 4666.12 6219.34 4920.88 4013.86 4177.47 2918.64 5345.73 4770.63 5678.58 4385.49 5114.23 5495.0 5512.44 4454.74 4826.52 2904.46 4685.4 3763.9 4577.73 4288.45 4147.49 5419.57 4081.34 4642.74 5384.86 3770.22 5150.84 4848.98 5184.98 5087.97 5339.82 4519.03 4930.17 5110.27 4085.96 4745.44 5762.82 4612.68 4232.33 5462.6 5617.29 3035.06 4262.19 3093.38 4597.88 5095.52 2002.78 4941.02 5806.61 3682.35 2955.36 5182.13 3965.3 6110.48 5515.73 4125.9 4564.41 5426.4 5951.86 3791.41 5247.01 5853.12 5702.4 5810.17 5265.21 4657.24 4400.14 5674.63 5340.05 4639.8 4212.15 4263.18 4489.29 4301.93 5120.92 4918.64 4636.53 3646.95 3402.44 6084.88 4491.96 4199.44 4467.51 4479.5 6261.67 5460.57 5065.78 5703.34 4521.42 6668.98 6649.52 6043.34 4939.56 4747.68 5770.92 4845.91 4878.93 4461.67 5784.37 3142.09 6793.1 6016.87 6715.73 5209.55 4841.7 4678.7 3450.07 3306.84 3484.81 5308.33 4271.07 6710.14 5759.79 4462.35 4924.07 3200.6 6206.98 6638.25 4775.04 5162.67 2403.72 5537.61 4721.98 5252.82 4397.06 3543.98 4053.12 5878.55 4014.44 3435.13 6002.77 4431.46 4610.55 3207.84 3977.98 4614.49 5400.69 4128.93 4462.5 4959.72 5573.31 4712.17 5004.68 3808.04 4723.71 4405.61 5003.3 3668.93 4009.24 3756.96 6245.52 3954.77 5077.29 6740.35 4550.92 6023.07 6506.63 4598.54 5218.42 5188.22 4512.07 4896.43 5984.8 3986.41 6240.42 5146.0 4788.7 5078.59 4607.18 3228.27 3956.24 4142.1 5056.26 5445.91 6604.72 4812.59 3794.47 4967.02 5675.45 3361.11 6038.56 2807.46 5599.16 4179.8 4023.88 3488.34 5348.11 5428.24 6273.6 5800.81 5166.05 3125.13 7035.54 5866.91 6075.99 5191.26 5995.4 4184.47 4841.23 4196.62 2804.54 3469.18 3372.95 6347.72 6334.53 5580.95 7558.99 3549.92 3393.59 4032.06 5043.14 5246.81 5333.04 5089.1 5888.95 4521.99 5394.78 3463.34 6842.54 7115.67 2853.68 5329.84 4998.37 3879.83 6565.95 5658.35 4577.98 5886.81 5684.05 4708.17 2741.2 3779.45 5167.53 5763.05 4252.18 6296.54 5797.21 4208.37 6019.35 3825.48 5819.0 3460.93 5124.86 5469.35 5117.64 4313.38 6598.99 5250.56 2468.16 3633.58 4339.97 5203.75 5169.09 5122.38 2459.88 5262.85 5470.67 6559.82 5901.71 5342.9 5733.12 5043.34 6436.29 5136.87 7145.73 5233.76 6405.69 5357.39 3669.32 4762.1 5700.79 4629.02 4927.73 4705.68 5827.3 6036.99 3010.1 3825.98 6294.14 5087.03 4667.84 3906.41 4691.15 4123.08 4512.6 4210.24 4260.38 4636.45 4932.27 5225.11 5252.22 6793.49 6060.19 4962.35 7350.26 4556.19 4168.52 4659.88 5685.74 3495.3 4140.04 5890.25 5766.05 2832.83 4474.96 4084.87 4790.63 5259.29 3584.05 4589.22 4916.75 4818.53 5097.85 5584.64 6189.04 6224.64 4221.03 3799.55 5638.51 4550.77 3563.33 3550.88 5536.0 6786.37 5790.42 5591.77 5106.46 6562.92 3612.44 4850.5 4758.76 5367.05 5647.11 4088.72 3945.62 3743.85 6236.46 5342.17 6379.3 3795.63 5189.4 4576.71 5082.66 4894.15 4337.93 5201.3 4345.51 4048.73 6223.33 5024.32 5813.79 4644.88 4068.31 3671.06 4683.28 4658.59 5532.75 3185.09 6949.65 5064.23 4608.62 5407.96 5084.5 4987.28 6562.03 4449.73 5015.67 6538.04 6157.59 5848.41 4090.28 4246.83 4932.56 4176.32 3587.93 5676.61 6006.16 5721.14 4071.75 4493.79 4279.44 2945.34 3565.32 5638.7 5399.43 3667.93 3487.31 5710.33 3835.81 4096.86 5695.44 4668.8 5322.11 4697.49 5735.08 4726.2 5034.05 4816.51 4711.15 4474.39 3810.68 6478.35 3990.94 4756.8 5477.8 5463.06 6069.78 5260.52 4241.68 4975.85 4095.83 5323.95 5846.95 5716.42 5268.15 5701.63 4603.04 4620.95 4870.94 5368.93 4488.39 6121.56 5914.5 4602.57 3419.07 3622.48 4796.12 5344.44 6432.8 4626.72 5131.77 5549.71 4815.47 4759.99 3899.7 5134.33 5214.4 2646.13 3629.49 5034.34 3769.2 3422.21 3916.42 5537.34 5884.99 5192.49 4899.19 6643.4 5058.34 4028.22 5575.11 4983.1 5293.13 4507.36 6224.85 6406.8 5403.97 4795.08 5648.78 6875.73 5501.73 6081.3 4697.24 4983.43 5117.52 6311.89 6549.8 2820.07 5129.68 4825.73 5076.84 4165.36 5288.33 4871.77 5811.26 5062.77 4884.93 5069.9 6028.63 3673.6 4494.15 5146.1 6215.87 6485.77 6060.06 5866.42 5544.27 5393.43 6896.55 4685.65 5377.01 6470.23 5939.22 4271.93 4215.05 3626.86 5125.17 4604.1 6371.96 4859.01 5076.11 5524.45 7133.44 4426.02 5600.21 3953.26 4750.81 4282.11 5467.51 5459.92 2347.41 4625.53 5453.77 4096.47 4357.11 5114.67 2809.19 5005.6 4916.7 5486.89 5589.53 7208.19 4549.51 5025.42 5196.08 4517.29 6379.38 5695.25 6257.79 4495.75 4849.5 6171.01 6229.83 5796.26 4468.26 4523.81 5578.18 5106.33 5791.25 5293.37 5198.94 5271.88 4028.35 5933.54 5559.79 7168.2 2980.31 3763.85 3148.79 4571.74 5740.78 5997.91 5001.51 4332.64 4742.82 5385.86 5115.42 3186.07 4082.4 4209.0 4410.82 4369.86 4967.51 4368.12 5173.82 6443.99 4365.58 3889.98 5193.58 3720.7 5490.64 5378.24 5698.53 3604.31 4507.46 4450.49 5036.14 3468.45 6022.78 4087.32 6647.85 5726.42 2569.12 4674.9 7025.09 3392.26 4433.12 3918.94 2549.95 5461.72 4361.24 5487.63 3768.46 3852.82 5138.93 5099.9 6945.69 5118.86 7086.69 5368.66 4304.64 6170.9 5833.78 4436.48 5226.42 5758.98 5615.35 3967.76 5288.64 6213.24 6734.39 4217.36 5679.74 5942.45 4150.76 4851.18 4228.53 6123.46 5005.72 5368.52 6142.88 5155.28 5111.26 5205.38 5388.73 4949.55 4764.83 1969.87 3132.34 4600.71 3957.38 4841.28 5262.79 5927.2 6889.5 5035.71 4710.88 4419.79 5300.17 5407.69 3869.39 5152.78 5960.5 5534.23 4117.9 4753.76 6025.77 4781.9 4638.09 6815.96 4441.91 5330.26 5828.25 5917.08 4725.11 5483.37 5418.12 5322.07 5934.05 5770.07 4714.66 5990.75 5101.6 4984.17 4656.01 5781.62 6589.13 4037.86 5602.62 2030.03 3543.37 4542.16 5714.51 5628.97 4104.04 5353.66 2638.82 5030.33 5593.79 5104.39 5234.2 4612.13 4965.24 5846.6 5327.05 5438.55 5353.23 4434.65 6688.53 5977.66 5209.5 5065.74 4873.23 6731.89 5464.05 4733.41 5879.24 5410.6 5453.2 6348.93 5136.51 3901.53 6824.53 6815.51 5232.16 4422.23 6791.86 3989.26 6031.22 4820.68 4930.72 5482.76 5728.58 3745.02 7212.97 6297.99 4211.36 5918.95 3856.73 4538.89 5817.74 5887.71 5517.65 4009.68 5114.51 3303.49 4622.73 4655.37 4161.32 5256.75 5161.74 7336.37 5932.28 6599.28 5560.23 2960.5 5783.38 4975.32 3043.77 4298.7 3902.48 5237.55 4183.4 3909.94 6030.39 4733.79 4905.53 3799.01 4823.06 7392.65 5254.49 5319.1 3757.23 6828.8 6883.86 5987.88 3579.59 6161.94 4065.28 5057.59 4461.14 5285.6 5575.11 4574.54 5615.06 5490.54 5203.54 4047.95 5507.38 6142.94 4416.87 5001.69 6581.56 4057.4 4052.43 3980.46 4896.67 5383.9 3934.11 5158.44 3886.56 4466.22 4496.51 5715.51 5339.6 6153.71 6561.94 5259.21 5092.93 4256.08 2803.01 5881.93 4444.0 6771.18 6182.19 5327.39 7415.84 4981.81 4138.59 4970.55 4938.33 4484.78 4621.33 5527.27 5157.73 5847.91 4934.66 4984.01 4109.44 4903.84 4290.49 4557.1 4605.39 5927.1 6270.59 6175.27 5876.51 4103.76 4907.55 4286.61 4094.63 2932.52 5264.83 4603.66 4757.87 4969.68 6636.43 5431.14 6298.8 5313.86 4457.05 5178.07 5189.91 3618.64 5777.26 4171.02 5485.84 6424.77 4887.73 4335.79 5453.69 5797.32 5432.04 5689.56 6556.86 3921.27 5129.4 4746.15 3720.38 4758.84 5585.25 4731.37 5023.61 3976.0 6351.89 4672.86 6530.78 5059.37 4742.35 5394.79 4139.39 5645.54 5088.64 6264.03 4526.87 6589.8 4151.74 6920.92 4174.22 3729.16 3783.36 3573.84 3038.91 4181.93 3922.28 6570.43 3350.99 3820.19 3445.92 5236.69 4979.5 5524.28 4586.82 3133.28 4745.37 5939.29 6026.04 6200.05 5418.98 5859.17 4034.41 4052.49 5061.74 5522.34 5326.03 6189.67 4420.35 5717.45 4948.96 5256.82 4013.86 4061.87 4645.93 5165.31 5448.64 3798.09 4585.37 4288.5 6417.61 3721.69 4511.05 3456.3 6074.39 5317.83 6738.9 4399.52 4460.89 4554.24 4157.1 3939.96 8052.53 4867.12 5910.66 6044.01 6520.19 4637.3 5141.03 1458.87 5734.07 4840.44 8123.59 3997.68 4819.83 5765.14 4801.16 4767.54 4541.22 4946.08 3539.68 5121.08 4696.03 6217.33 6177.68 4698.7 2848.44 6229.64 6045.26 4220.43 6500.45 5743.8 5084.76 6666.34 6605.11 4645.91 6834.92 3557.46 6379.33 5971.95 5652.73 3689.24 3979.46 6321.97 5151.19 6412.84 6509.54 5703.84 7012.36 3530.82 5128.59 5028.06 4002.99 4886.99 5159.67 5587.3 3161.1 3572.73 4864.38 3702.45 6275.25 6892.33 4505.3 4491.26 4452.36 4511.34 4068.41 6463.71 5009.21 4574.03 4379.91 5290.37 5850.38 5264.08 3562.8 4227.66 4730.97 4691.01 4594.89 5192.82 5245.95 5821.42 4067.89 4515.02 6294.09 4924.52 4571.57 5131.07 4121.07 2970.24 4197.87 5658.05 5105.54 5731.43 6353.81 3414.67 3518.14 5444.36 4150.44 5044.68 5771.98 2649.69 5899.78 5000.74 5117.83 5772.57 5268.27 4813.81 3882.37 4095.4 5244.95 4634.25 5901.8 6351.48 5395.12 5783.69 3830.7 6210.0 5432.4 3483.61 5350.9 4262.52 7430.48 5992.06 5545.68 6080.69 4970.12 4967.93 6369.66 5973.57 5922.62 6241.48 6033.28 5957.82 6286.27 5071.38 3717.22 6327.54 5616.66 2927.84 5688.77 4802.36 2943.17 5368.28 5466.13 5257.38 6263.87 5075.23 4975.56 7282.36 3826.01 4829.77 5581.01 3928.99 6959.88 4125.75 5749.53 5130.57 5090.48 5402.45 5582.28 3985.93 5945.25 6071.59 2589.19 6119.0 3856.4 3792.06 6079.55 5485.61 4993.49 4937.36 4293.3 5308.4 5310.33 6583.37 3688.83 5631.32 6126.5 6322.0 5793.14 6345.2 4609.65 5488.96 5704.61 4832.21 3720.92 5128.03 5410.73 5087.3 4942.63 6139.74 6637.38 4975.57 7066.26 3057.3 6150.31 3677.85 5214.71 4677.84 4811.11 3463.53 5379.52 6126.03 4866.8 5314.67 6044.69 5563.47 5651.46 6593.1 4066.36 4000.51 5462.1 6033.93 6032.45 5011.37 2827.92 4026.03 6908.32 3467.11 4817.75 6153.26 4848.15 5637.53 4439.09 5523.81 5648.59 4718.61 5188.57 3873.79 5717.67 5357.33 4432.32 5515.59 5252.37 3224.81 4499.54 5037.58 6457.89 5640.67 6572.17 3751.73 5555.89 4766.47 4871.1 5678.08 3917.09 6009.93 5872.45 4414.09 5270.1 5125.45 3784.68 4188.16 4947.64 6305.9 6649.21 5507.07 4654.92 5327.71 4880.78 4322.56 5509.09 5625.02 3873.72 5212.05 4592.49 5479.86 3625.98 6474.5 4444.92 4702.32 4763.04 5971.9 3746.62 5247.73 4876.37 4532.67 5034.02 4769.62 5260.13 4649.5 5181.31 5985.75 4696.06 4137.16 6189.29 5984.55 6581.13 4569.32 4034.88 5108.84 3511.5 6007.1 5067.92 5357.14 3188.21 4850.95 5919.27 4793.06 6271.22 3421.81 6188.33 3920.64 6111.23 6916.18 5786.06 5873.62 3868.69 4137.41 4996.91 3920.44 4450.51 6033.72 3768.62 3851.47 4966.74 2329.93 4959.94 1635.31 5639.4 3162.27 6185.73 4083.24 5516.37 5092.44 4441.44 5432.2 4232.44 4612.4 5336.61 3312.3 5563.09 6381.58 3282.57 5212.2 4798.13 4611.21 5108.42 6697.45 4630.5 6296.36 5237.27 4451.76 7885.41 3775.38 4046.22 5782.25 4104.97 4844.2 4575.72 5114.61 6118.13 3374.62 4926.62 4420.3 6332.64 4202.12 6492.44 4613.32 4083.1 3482.73 5191.29 5130.56 4957.99 4063.26 5345.05 4997.89 4542.62 3470.69 4859.95 5286.55 4132.08 5522.18 5223.1 4699.77 4850.49 4981.55 5144.23 6188.62 6153.07 4414.06 5908.57 5944.52 4413.56 7296.47 5050.2 5316.05 2513.38 4821.41 4908.32 4924.53 3995.08 4499.52 5019.84 3874.12 4810.74 3900.93 5784.38 5475.83 4149.17 4329.8 5728.27 5672.46 5803.3 4582.12 4487.51 4295.25 4520.14 5354.48 7394.47 4729.45 6261.13 5374.09 4167.55 4720.34 5244.47 5378.75 4731.16 5510.89 6186.24 5822.7 3780.07 4159.89 5466.49 5178.55 5447.74 4038.17 5007.41 4907.48 3692.99 6213.74 4488.41 4369.87 6938.87 5412.07 5512.57 4806.99 6520.96 3771.91 5856.43 5217.62 6178.19 4746.19 4616.81 5349.85 5715.25 5172.1 4362.94 4469.82 6545.78 4870.14 3354.94 4404.87 5105.72 5767.65 4750.76 5003.49 4907.03 5497.27 4081.77 5617.91 4948.21 2181.29 4987.01 4706.31 2694.25 6265.48 4735.99 4203.68 4739.56 5145.39 3818.37 3996.93 3352.46 6351.95 5195.09 5200.1 7679.2 5093.28 4881.51 6131.52 4311.92 2626.41 6009.88 6729.99 5093.41 6842.35 5464.34 3621.63 4777.96 5801.89 6833.5 5742.39 4780.16 3834.01 5616.11 4433.23 4813.24 4028.13 5759.19 4457.73 6476.35 3113.64 4304.75 6260.58 4067.24 3053.19 5202.33 3074.49 4246.24 6805.02 4919.13 5640.63 4900.26 5783.88 5002.38 6705.93 4865.11 5449.09 5502.14 6470.87 4495.33 5282.67 4131.08 5747.9 3864.19 4287.93 5146.69 6203.24 6818.23 5081.65 6679.12 5652.19 5806.74 3878.8 6578.62 4813.55 3465.03 4796.04 3839.0 5229.56 6011.4 5799.86 4672.34 6052.22 5376.41 5003.63 2932.2 4695.7 4380.86 4944.08 4082.01 5269.39 3964.03 4216.33 5832.72 3903.9 4444.95 4721.2 5161.02 3943.77 3124.49 5242.38 6081.35 5003.81 6262.18 5566.5 4701.03 5663.36 6225.05 5434.04 5125.53 3997.52 4444.54 5403.81 5779.9 4909.74 5310.33 6664.54 3922.98 5161.73 5259.48 4008.67 5254.93 4803.4 8013.28 6608.94 2613.78 3796.73 5417.07 5656.84 5738.37 6789.66 4739.41 5312.2 5847.27 4490.2 4706.59 5734.84 5480.86 6139.9 3982.31 4950.07 6571.26 5402.81 4328.76 4600.81 5561.63 4124.33 5168.97 4358.06 5093.51 5647.93 4280.92 6201.49 4696.92 5154.74 4605.61 4465.56 6898.8 5386.95 6540.57 5332.11 4893.72 5315.71 6004.72 6158.93 5373.78 4823.14 5438.5 4489.18 4621.32 5699.4 5237.76 4698.94 4286.84 6284.12 3948.21 5669.15 5296.05 3330.85 5263.86 6988.4 5056.32 5533.52 5410.33 4060.17 4747.24 6051.35 5302.53 4909.13 5576.16 4305.35 5648.02 3308.75 5210.22 2451.27 5677.42 2701.42 4929.35 5606.22 6673.92 5151.68 4884.94 5459.52 4609.98 4738.72 4752.31 5240.97 4276.59 5579.04 5405.6 5994.21 4884.93 5082.25 4759.38 6964.78 4374.05 5299.03 5036.84 4565.36 5813.68 4025.08 5040.9 3618.53 5596.68 4770.21 4868.66 3846.55 5159.9 4644.68 5283.65 3082.16 2892.36 5981.54 5911.29 5416.41 4694.27 6760.64 2515.5 5177.88 5551.79 6981.47 4720.22 4582.24 4333.23 5145.13 3860.8 3747.96 5611.29 5940.5 6568.45 5004.22 4601.54 7263.57 3832.09 5705.96 6437.99 5739.69 6632.04 7360.62 4985.45 4072.4 4983.56 5699.51 4714.52 5345.65 2489.44 5499.37 5863.36 4632.75 4752.94 4994.98 3950.53 6423.96 6058.13 5894.69 4384.91 6550.61 4987.01 6635.51 6094.34 6779.82 5543.67 3999.81 4287.61 4867.13 4604.34 4439.17 4502.12 3255.93 5442.79 5051.39 6327.61 4633.59 5733.59 5362.15 4455.61 3695.72 6874.6 5106.9 5569.85 5523.96 3929.35 4223.53 4733.37 6960.97 3037.72 4287.15 4523.9 5282.51 5504.65 5669.41 5732.11 3760.4 3919.47 4951.02 4602.7 3783.35 4037.16 4004.39 6395.63 4987.48 5943.61 4248.58 5479.17 5020.37 4542.25 4414.23 5233.88 4849.21 4785.55 3793.83 5245.4 3916.15 6189.81 5438.6 7370.52 4726.5 5467.05 4521.88 3724.23 5103.3 4963.88 5888.94 4727.98 4122.2 5175.88 5267.65 4516.26 4790.16 3509.34 3647.26 5360.88 3166.37 4977.64 5369.42 5207.08 5205.53 4587.19 5543.05 4883.13 6028.89 4836.76 5551.09 5755.98 5392.85 4501.1 5581.47 5077.2 4274.05 5275.27 4277.54 4713.56 5529.09 4531.46 5925.82 5448.68 4739.5 6210.48 6377.45 4863.27 6853.07 5575.8 5268.93 5306.31 4535.94 5126.08 5604.0 3731.58 5333.16 4888.17 4072.95 4491.62 3865.5 4182.05 
SCALARS Velocity float 1
LOOKUP_TABLE default
1.1918 1.19178 1.19179 1.19179 1.19179 1.19178 1.19179 1.19179 1.19178 1.19179 1.19178 1.19178 1.19178 1.19178 1.19178 1.19178 1.19178 1.19178 1.19178 1.19178 1.19178 1.19178 1.19178 1.19178 1.19178 1.19178 1.19178 1.19178 1.19178 1.19178 1.19178 1.19178 1.19178 1.19179 1.19179 1.19179 1.19178 1.19178 1.19178 1.19178 1.19178 1.19178 1.19179 1.19178 1.19178 1.19179 1.19179 1.19178 1.19178 1.19178 1.19178 1.19178 1.19177 1.19179 1.19179 1.19178 1.19178 1.19178 1.19178 1.19178 1.19179 1.19179 1.19178 1.1918 1.19179 1.19177 1.19178 1.19178 1.19178 1.19178 1.19177 1.1918 1.19178 1.1918 1.19181 1.19181 1.19179 1.19178 1.19178 1.1918 1.19181 1.1918 1.19179 1.19178 1.19179 1.1918 1.1918 1.19179 1.19178 1.19178 1.19179 1.1918 1.19181 1.19179 1.19179 1.19179 1.19179 1.19178 1.19178 1.19178 1.19182 1.1918 1.19178 1.19179 1.1918 1.1918 1.19179 1.19179 1.19179 1.19179 1.19178 1.19178 1.19178 1.19178 1.19178 1.19178 1.19178 1.19178 1.19178 1.19179 1.19178 1.19179 1.19178 1.19178 1.19178 1.19178 1.19178 1.19178 1.19178 1.19178 1.19178 1.19178 1.19179 1.19179 1.19179 1.19179 1.19178 1.19178 1.19178 1.19178 1.19178 1.19179 1.19178 1.19177 1.19179 1.19179 1.19178 1.19177 1.19179 1.19179 1.19178 1.19178 1.19178 1.19179 1.19181 1.19181 1.19178 1.19178 1.19179 1.19178 1.19179 1.19179 1.19178 1.19181 1.19179 1.19178 1.19178 1.19179 1.19178 1.1918 1.19177 1.19178 1.1918 1.19181 1.1918 1.1918 1.1918 1.19178 1.19178 1.19181 1.19178 1.1918 1.19179 1.19177 1.19179 1.1918 1.1918 1.19178 1.19179 1.19178 1.19179 1.19181 1.19177 1.19179 1.19179 1.19179 1.19179 1.19179 1.19178 1.19178 1.19178 1.1918 1.19181 1.19179 1.19181 1.1918 1.1918 1.19179 1.19178 1.19179 1.19178 1.19178 1.1918 1.19178 1.19178 1.19178 1.19178 1.19178 1.19178 1.19179 1.19178 1.19178 1.19178 1.19179 1.19178 1.19178 1.19178 1.19177 1.19178 1.19178 1.19178 1.19178 1.19179 1.19179 1.19179 1.19179 1.19178 1.19178 1.19178 1.19178 1.19178 1.19179 1.19178 1.19178 1.19179 1.19179 1.19178 1.19177 1.19178 1.19179 1.19178 1.19178 1.19178 1.1918 1.19182 1.19179 1.19178 1.19179 1.1918 1.19179 1.1918 1.19179 1.19179 1.19181 1.19179 1.1918 1.19179 1.19182 1.19178 1.1918 1.19178 1.19179 1.19178 1.19182 1.1918 1.1918 1.1918 1.19178 1.19181 1.19178 1.1918 1.1918 1.1918 1.19178 1.19179 1.19179 1.1918 1.19184 1.19178 1.19177 1.19179 1.19177 1.19178 1.19182 1.19179 1.19181 1.19179 1.19177 1.19178 1.19179 1.19178 1.1918 1.1918 1.19179 1.19181 1.19181 1.1918 1.19179 1.19178 1.19179 1.19178 1.19178 1.1918 1.19178 1.19178 1.19179 1.19178 1.19178 1.19177 1.19179 1.19178 1.19178 1.19179 1.19178 1.19178 1.19178 1.19178 1.19178 1.19178 1.19178 1.1918 1.19179 1.19178 1.19179 1.19179 1.19179 1.19178 1.19178 1.19179 1.19178 1.19178 1.19178 1.19178 1.19176 1.19179 1.19179 1.19179 1.19178 1.19179 1.19179 1.19178 1.19178 1.1918 1.1918 1.1918 1.19183 1.19179 1.19178 1.19179 1.19179 1.19179 1.19178 1.19178 1.19182 1.19178 1.19184 1.19179 1.19181 1.19179 1.19178 1.1918 1.19178 1.19179 1.19178 1.19182 1.1918 1.19179 1.1918 1.19181 1.19176 1.19181 1.1918 1.19179 1.19182 1.19177 1.19184 1.19178 1.1918 1.19184 1.19179 1.19179 1.19183 1.19178 1.19181 1.19183 1.19179 1.19181 1.19178 1.19179 1.19179 1.19179 1.19181 1.1918 1.19179 1.19179 1.19179 1.19181 1.1918 1.1918 1.19179 1.19181 1.19179 1.19176 1.19177 1.1918 1.19178 1.19179 1.19179 1.19178 1.19178 1.19178 1.19179 1.19178 1.19178 1.19179 1.19178 1.19178 1.1918 1.19178 1.19178 1.19178 1.19178 1.19179 1.19178 1.19178 1.19179 1.19179 1.19178 1.19179 1.19179 1.19178 1.19178 1.19177 1.19177 1.19178 1.19176 1.19178 1.1918 1.19178 1.19176 1.19179 1.19178 1.19178 1.1918 1.19182 1.19179 1.19178 1.19179 1.19178 1.19179 1.19178 1.19178 1.19177 1.19181 1.19182 1.19181 1.19178 1.19177 1.1918 1.19178 1.19179 1.19177 1.19182 1.19178 1.19179 1.19182 1.19182 1.19181 1.19176 1.1918 1.1918 1.1918 1.1918 1.19177 1.19185 1.19182 1.1918 1.19183 1.19179 1.1918 1.19176 1.19179 1.1918 1.19179 1.1918 1.19177 1.19182 1.19179 1.19179 1.19179 1.19181 1.19179 1.19179 1.1918 1.1918 1.19179 1.19178 1.19181 1.19179 1.19175 1.19178 1.19178 1.19181 1.19179 1.1918 1.19178 1.19178 1.19179 1.19179 1.19178 1.19178 1.19179 1.19178 1.19177 1.1918 1.19178 1.19178 1.19178 1.19179 1.19178 1.19178 1.19178 1.19178 1.19179 1.19179 1.19179 1.19178 1.19178 1.19179 1.19178 1.19178 1.19177 1.19178 1.19178 1.19178 1.19178 1.19179 1.19178 1.19178 1.19179 1.19178 1.1918 1.19181 1.19182 1.19178 1.19178 1.19179 1.19178 1.19177 1.19177 1.19178 1.19176 1.19181 1.19182 1.19179 1.19183 1.19178 1.19176 1.1918 1.1918 1.19179 1.1918 1.19177 1.1918 1.19183 1.19182 1.19182 1.19178 1.1918 1.19179 1.1918 1.19181 1.19183 1.19184 1.19182 1.19177 1.19182 1.19179 1.19181 1.19177 1.1918 1.19178 1.19179 1.19178 1.19178 1.19182 1.19179 1.19175 1.19178 1.19181 1.19179 1.19178 1.19178 1.1918 1.1918 1.1918 1.19178 1.19181 1.19178 1.19175 1.19178 1.19178 1.19177 1.19179 1.19178 1.19178 1.19178 1.19179 1.19179 1.19178 1.19177 1.19178 1.19178 1.19178 1.19179 1.19179 1.19178 1.19178 1.19178 1.19178 1.19178 1.19177 1.19178 1.19178 1.19179 1.19178 1.19178 1.19179 1.19178 1.19179 1.19177 1.19178 1.19178 1.19178 1.19179 1.19178 1.19178 1.19177 1.1918 1.19181 1.19183 1.19178 1.19182 1.19181 1.19182 1.19178 1.19178 1.19179 1.19178 1.19175 1.19177 1.19176 1.19178 1.19179 1.19191 1.19181 1.19177 1.19178 1.19177 1.19182 1.1918 1.1918 1.19179 1.19177 1.1918 1.19179 1.19182 1.19182 1.1918 1.1918 1.1918 1.19181 1.19187 1.19183 1.19184 1.1918 1.19176 1.19181 1.19178 1.19181 1.19177 1.1918 1.19181 1.19179 1.19178 1.1918 1.19177 1.19179 1.19175 1.19178 1.19178 1.19177 1.19178 1.19179 1.19176 1.19179 1.1918 1.19177 1.19179 1.19181 1.19178 1.19178 1.19177 1.19177 1.19178 1.19176 1.19179 1.1918 1.19179 1.19178 1.19178 1.19178 1.19178 1.19179 1.19178 1.19178 1.19177 1.19178 1.19178 1.19178 1.19176 1.19178 1.19178 1.19178 1.19179 1.19178 1.19178 1.19179 1.19178 1.19179 1.19177 1.19181 1.19177 1.19177 1.19179 1.19177 1.19177 1.19178 1.19181 1.19177 1.19179 1.19181 1.19181 1.19181 1.19177 1.19182 1.19181 1.19187 1.19177 1.19183 1.19178 1.19176 1.19179 1.19181 1.1918 1.19179 1.19174 1.19178 1.19182 1.1918 1.19177 1.19179 1.19177 1.1918 1.19178 1.19182 1.19179 1.1918 1.19179 1.19179 1.1918 1.19184 1.19181 1.19178 1.19175 1.19182 1.19179 1.19179 1.19178 1.19181 1.19179 1.1918 1.19175 1.19181 1.19178 1.19182 1.19178 1.19179 1.19178 1.19178 1.19177 1.19178 1.19179 1.19176 1.19179 1.19176 1.19178 1.19178 1.19178 1.19178 1.19178 1.19177 1.19177 1.19179 1.19177 1.19176 1.19181 1.19179 1.19178 1.19178 1.19177 1.19177 1.19179 1.19178 1.19178 1.19178 1.19178 1.19177 1.19178 1.19176 1.19178 1.19178 1.19178 1.19179 1.19178 1.19178 1.19179 1.19179 1.19178 1.19181 1.19178 1.19179 1.19177 1.19179 1.19177 1.19179 1.19181 1.19178 1.19178 1.19181 1.1918 1.1918 1.19178 1.19182 1.19181 1.19183 1.19181 1.19184 1.19181 1.19177 1.19174 1.1918 1.1918 1.19179 1.19174 1.19182 1.19177 1.19181 1.19178 1.19179 1.19177 1.1918 1.19179 1.19179 1.19178 1.19179 1.19181 1.19179 1.19178 1.19179 1.1918 1.19184 1.19182 1.1918 1.19178 1.19182 1.1918 1.19178 1.19181 1.1918 1.19174 1.19177 1.19181 1.19177 1.19182 1.19182 1.19179 1.19177 1.19175 1.19177 1.19176 1.19177 1.19179 1.19175 1.19177 1.1918 1.19177 1.19177 1.19178 1.19178 1.19178 1.19177 1.19179 1.19178 1.19176 1.19178 1.19179 1.19178 1.19178 1.19177 1.19177 1.19178 1.19178 1.19178 1.19178 1.19178 1.19177 1.19177 1.19176 1.19178 1.19178 1.19178 1.19178 1.19177 1.19177 1.19178 1.19178 1.19178 1.19178 1.19178 1.19178 1.19178 1.19178 1.19178 1.19182 1.19174 1.19181 1.19181 1.19178 1.19178 1.1918 1.1918 1.19184 1.19181 1.19182 1.19181 1.19183 1.19181 1.19178 1.19182 1.19176 1.19175 1.19176 1.1918 1.1918 1.19179 1.19171 1.19181 1.19181 1.19177 1.19179 1.19178 1.1918 1.19179 1.1917 1.1918 1.19179 1.19178 1.19179 1.19179 1.19179 1.1918 1.19175 1.19178 1.1918 1.19181 1.1918 1.19179 1.19183 1.1918 1.19174 1.19175 1.19178 1.19181 1.19177 1.19178 1.19183 1.19179 1.19177 1.19176 1.19177 1.19175 1.19177 1.19179 1.19182 1.19178 1.19179 1.19177 1.19178 1.19177 1.19178 1.19178 1.19177 1.19178 1.19179 1.19178 1.19176 1.19179 1.19178 1.19178 1.19177 1.19177 1.19178 1.19178 1.19178 1.19178 1.19178 1.19177 1.19179 1.19177 1.19178 1.19178 1.19178 1.19177 1.19177 1.19177 1.19178 1.19178 1.19178 1.19177 1.19178 1.19178 1.19178 1.19177 1.19182 1.19173 1.1918 1.1918 1.1918 1.19178 1.19183 1.1918 1.19184 1.19182 1.19181 1.19181 1.19182 1.19179 1.19172 1.19182 1.19175 1.19172 1.19174 1.19179 1.19179 1.19176 1.1918 1.19177 1.19176 1.19178 1.19179 1.19179 1.19182 1.19178 1.19174 1.19178 1.19175 1.19181 1.19178 1.19178 1.19179 1.19179 1.19179 1.19178 1.19179 1.19178 1.19176 1.19176 1.19178 1.19184 1.19174 1.19179 1.19175 1.19178 1.19181 1.19164 1.19182 1.19185 1.19181 1.19176 1.19177 1.19178 1.19177 1.19176 1.19177 1.1918 1.19182 1.19177 1.19177 1.19177 1.19177 1.19176 1.19177 1.19178 1.19178 1.19179 1.19178 1.19177 1.19177 1.19178 1.19179 1.19177 1.19177 1.19177 1.19178 1.19178 1.19178 1.19178 1.19177 1.19178 1.19179 1.19179 1.19178 1.19178 1.19178 1.19177 1.19178 1.19177 1.19178 1.19177 1.19177 1.19178 1.19178 1.19178 1.19178 1.19177 1.19184 1.19184 1.19177 1.1918 1.1918 1.19179 1.19178 1.19183 1.19181 1.19184 1.19181 1.19182 1.1918 1.19181 1.19177 1.19179 1.19182 1.19171 1.19178 1.19177 1.19178 1.19178 1.1918 1.19178 1.19182 1.19175 1.19179 1.19177 1.19178 1.19179 1.19178 1.19176 1.19177 1.19177 1.19179 1.19177 1.19178 1.19179 1.19178 1.19172 1.19178 1.19171 1.19177 1.19177 1.19174 1.19172 1.19175 1.19179 1.19168 1.19169 1.19181 1.1918 1.19185 1.19177 1.19181 1.19176 1.19179 1.19178 1.19175 1.19177 1.19179 1.19178 1.19177 1.19177 1.19177 1.19179 1.19177 1.19178 1.1918 1.19176 1.1918 1.19176 1.19177 1.19178 1.19177 1.19179 1.19177 1.19177 1.19176 1.19178 1.19178 1.19178 1.19177 1.19176 1.19178 1.19179 1.19179 1.19178 1.19178 1.19178 1.19178 1.19177 1.19177 1.19177 1.19177 1.19178 1.19174 1.19176 1.19179 1.19181 1.19176 1.1918 1.19182 1.19179 1.19178 1.19178 1.19178 1.19184 1.19184 1.19179 1.19184 1.19177 1.1918 1.1918 1.19183 1.19182 1.19172 1.19178 1.19175 1.19179 1.19181 1.19178 1.19177 1.1918 1.19184 1.19178 1.19176 1.19177 1.19178 1.19178 1.19175 1.19176 1.19179 1.19176 1.19177 1.19177 1.19179 1.19174 1.19178 1.19176 1.1917 1.19178 1.19176 1.19174 1.19172 1.19176 1.1918 1.19168 1.1917 1.19181 1.19179 1.19183 1.19176 1.1918 1.19176 1.19178 1.19178 1.19177 1.19178 1.19173 1.19176 1.19177 1.19177 1.19177 1.19179 1.19177 1.19178 1.19176 1.19177 1.19179 1.19176 1.19177 1.19177 1.19178 1.19178 1.19178 1.19177 1.19176 1.19175 1.19178 1.19178 1.19176 1.19177 1.19178 1.19179 1.19178 1.19178 1.19179 1.19178 1.19177 1.19177 1.19177 1.19177 1.19178 1.19177 1.19176 1.19179 1.19181 1.19181 1.19174 1.19181 1.19179 1.19182 1.1918 1.1918 1.19182 1.19181 1.19183 1.19179 1.19179 1.19183 1.19177 1.1918 1.19182 1.1919 1.1919 1.19182 1.19172 1.19173 1.19182 1.19177 1.19181 1.19177 1.19175 1.1918 1.19185 1.19178 1.19177 1.19174 1.19176 1.19176 1.19177 1.19175 1.19176 1.19178 1.19177 1.19177 1.19176 1.19178 1.19174 1.19173 1.19178 1.19177 1.19176 1.19173 1.19172 1.1918 1.1918 1.19168 1.19169 1.19179 1.19177 1.19181 1.19181 1.19179 1.19176 1.19178 1.19178 1.19178 1.19177 1.19173 1.19175 1.19176 1.19176 1.19178 1.19177 1.19179 1.19178 1.19177 1.19177 1.19177 1.19178 1.19176 1.19177 1.19177 1.19177 1.19178 1.19177 1.19177 1.19176 1.19176 1.19178 1.19178 1.19176 1.19178 1.19178 1.19177 1.19179 1.19178 1.19178 1.19178 1.19179 1.19177 1.19176 1.19177 1.1918 1.19179 1.19172 1.19182 1.19183 1.1918 1.19174 1.19179 1.19178 1.19183 1.1918 1.1918 1.19184 1.19181 1.19181 1.19178 1.19177 1.19181 1.19177 1.19176 1.19181 1.19185 1.19182 1.19172 1.19183 1.19181 1.19177 1.19182 1.1918 1.1917 1.19176 1.19177 1.19185 1.19179 1.19175 1.19173 1.19177 1.19177 1.19178 1.19176 1.19176 1.19177 1.19176 1.19177 1.19175 1.19175 1.19176 1.19176 1.19177 1.19176 1.19176 1.19173 1.19177 1.19177 1.19178 1.19174 1.19177 1.19177 1.19177 1.19181 1.19176 1.19178 1.19176 1.19178 1.19179 1.19178 1.19178 1.19173 1.19174 1.19175 1.19177 1.19179 1.19177 1.19177 1.19178 1.19176 1.19178 1.19178 1.19177 1.19177 1.19178 1.19177 1.19178 1.19177 1.19177 1.19178 1.19178 1.19178 1.19176 1.19178 1.19178 1.19177 1.19177 1.19178 1.19178 1.19179 1.19178 1.19179 1.19176 1.19175 1.19182 1.1918 1.19176 1.19178 1.19183 1.1918 1.19178 1.19175 1.19177 1.19182 1.19182 1.19181 1.19182 1.19181 1.1918 1.19176 1.19177 1.19177 1.19174 1.1918 1.1918 1.19177 1.1918 1.19173 1.19182 1.19182 1.19182 1.19178 1.19178 1.19169 1.19176 1.19178 1.19176 1.19179 1.1918 1.19174 1.19173 1.19174 1.19175 1.19177 1.19176 1.19176 1.19176 1.19175 1.19176 1.19175 1.19179 1.19175 1.19175 1.19177 1.19176 1.19174 1.19177 1.19173 1.19176 1.19179 1.19175 1.19178 1.19175 1.19175 1.19175 1.1918 1.19176 1.19177 1.19176 1.19178 1.19178 1.19177 1.19178 1.19173 1.19175 1.19174 1.19177 1.19178 1.19177 1.19177 1.19178 1.19176 1.19178 1.19178 1.19178 1.19177 1.19178 1.19177 1.19178 1.19176 1.19178 1.19176 1.19178 1.19178 1.19176 1.19178 1.19177 1.19176 1.19177 1.1918 1.19178 1.19179 1.19178 1.19179 1.19176 1.19178 1.19182 1.19178 1.19178 1.19176 1.19181 1.19181 1.19181 1.19179 1.19177 1.19179 1.19184 1.1918 1.19181 1.19182 1.19179 1.19177 1.19181 1.19179 1.19177 1.1918 1.19184 1.19179 1.19182 1.19181 1.19177 1.19175 1.19175 1.19176 1.19176 1.19179 1.19174 1.19176 1.19168 1.19176 1.19176 1.19178 1.19176 1.19177 1.19174 1.19176 1.19175 1.19179 1.19175 1.19178 1.19178 1.19176 1.19175 1.19173 1.19172 1.19175 1.19178 1.19175 1.19178 1.19175 1.1918 1.19174 1.19177 1.19176 1.19178 1.19177 1.19177 1.19178 1.19176 1.19174 1.19176 1.19175 1.19174 1.19175 1.19177 1.19177 1.19178 1.19176 1.19178 1.19178 1.19178 1.19177 1.19178 1.19177 1.19176 1.19176 1.19176 1.19176 1.19178 1.19178 1.19176 1.19177 1.19177 1.19176 1.19177 1.1918 1.19178 1.19178 1.19176 1.19178 1.19179 1.1918 1.19175 1.1918 1.19186 1.19178 1.19181 1.19181 1.19177 1.19178 1.19186 1.19174 1.19173 1.19179 1.19184 1.1918 1.1918 1.1918 1.19179 1.1918 1.19183 1.19178 1.19178 1.19177 1.19182 1.19184 1.19178 1.19177 1.19178 1.1918 1.19182 1.19176 1.19178 1.19175 1.19182 1.19183 1.19176 1.19179 1.19173 1.19176 1.19172 1.19176 1.19178 1.19178 1.19178 1.19178 1.19176 1.19175 1.19174 1.19176 1.19175 1.19179 1.19176 1.19176 1.19175 1.19176 1.19173 1.19175 1.19178 1.19175 1.19176 1.19175 1.19175 1.1918 1.19176 1.19176 1.19176 1.19178 1.19177 1.19178 1.19178 1.19178 1.19177 1.19176 1.19174 1.19173 1.19175 1.19174 1.19174 1.19176 1.19177 1.19178 1.19176 1.19178 1.19177 1.19178 1.19177 1.19177 1.19177 1.19176 1.19176 1.19176 1.19177 1.19178 1.19178 1.19178 1.19177 1.19177 1.19176 1.19177 1.19181 1.19178 1.19176 1.19176 1.19178 1.19179 1.19179 1.19178 1.19176 1.19187 1.19181 1.1918 1.19181 1.19179 1.19179 1.19177 1.19185 1.19182 1.1918 1.19177 1.1918 1.19176 1.1918 1.19182 1.19178 1.19177 1.19176 1.19182 1.19184 1.19178 1.19177 1.19176 1.19181 1.19181 1.19176 1.19173 1.19176 1.19178 1.19178 1.19173 1.19176 1.19172 1.19178 1.19181 1.19176 1.19178 1.19178 1.19177 1.19176 1.19176 1.19174 1.19178 1.19175 1.19178 1.19176 1.19176 1.19176 1.19176 1.19173 1.19178 1.19176 1.19176 1.19176 1.19174 1.19177 1.19175 1.19176 1.19176 1.19177 1.19177 1.19178 1.19178 1.19178 1.19178 1.19178 1.19178 1.19174 1.19175 1.19178 1.19174 1.19176 1.19178 1.19178 1.19177 1.19178 1.19177 1.19177 1.19178 1.19177 1.19177 1.19177 1.19177 1.19177 1.19178 1.19176 1.19178 1.19178 1.19178 1.19176 1.19177 1.19177 1.19177 1.19181 1.19178 1.19175 1.19179 1.19176 1.19178 1.19179 1.19177 1.19178 1.19185 1.1918 1.19177 1.19182 1.19181 1.19178 1.19185 1.1918 1.19177 1.19181 1.19177 1.19178 1.1918 1.19181 1.1918 1.19177 1.1918 1.19177 1.19173 1.19182 1.19178 1.19177 1.19177 1.19173 1.19175 1.19175 1.19172 1.19178 1.19176 1.19179 1.19178 1.19173 1.19177 1.19173 1.19178 1.19177 1.19177 1.19178 1.19178 1.19178 1.19176 1.19174 1.19174 1.1918 1.19175 1.19174 1.19176 1.19177 1.19175 1.19175 1.19173 1.19174 1.19177 1.19176 1.19176 1.19174 1.19177 1.19178 1.19175 1.19176 1.19177 1.19178 1.19177 1.19177 1.19178 1.19177 1.19174 1.19176 1.19177 1.19174 1.19177 1.19177 1.19177 1.19178 1.19178 1.19177 1.19177 1.19178 1.19178 1.19178 1.19178 1.19178 1.19176 1.19179 1.19179 1.19179 1.19177 1.19178 1.19178 1.19176 1.19178 1.19178 1.19177 1.19178 1.19177 1.19177 1.19177 1.19175 1.19179 1.19179 1.19179 1.19178 1.19178 1.19177 1.19179 1.1918 1.19186 1.19182 1.19177 1.19176 1.19182 1.19179 1.19176 1.19179 1.19175 1.19175 1.19179 1.1918 1.19176 1.19173 1.19182 1.19178 1.19176 1.19173 1.19175 1.19175 1.19175 1.19172 1.19177 1.1918 1.19178 1.19178 1.19174 1.19175 1.19173 1.19177 1.19177 1.19178 1.19176 1.19178 1.19176 1.19174 1.19175 1.19178 1.19176 1.19175 1.19178 1.1918 1.19176 1.19178 1.19178 1.19174 1.1918 1.19177 1.19176 1.19176 1.19178 1.19176 1.19174 1.19175 1.19175 1.19177 1.19178 1.19177 1.19177 1.19178 1.19177 1.19177 1.19177 1.19177 1.19174 1.19177 1.19177 1.19177 1.19178 1.19178 1.19177 1.19177 1.19178 1.19177 1.19178 1.19178 1.19177 1.19178 1.19178 1.19177 1.19177 1.19178 1.19178 1.19176 1.19178 1.19176 1.19177 1.19175 1.19179 1.19179 1.19178 1.19176 1.19176 1.19179 1.19179 1.1918 1.19183 1.19178 1.19176 1.19171 1.19177 1.1918 1.19186 1.19174 1.19175 1.19179 1.19179 1.19179 1.1918 1.19176 1.19173 1.19183 1.19181 1.19174 1.19179 1.19173 1.19175 1.19174 1.19177 1.19178 1.1918 1.19175 1.19178 1.19174 1.19174 1.19178 1.19177 1.19177 1.19172 1.19176 1.19176 1.19174 1.19177 1.19177 1.19176 1.19175 1.19176 1.1918 1.19177 1.19178 1.19178 1.19176 1.19178 1.19176 1.19176 1.19178 1.19178 1.19174 1.19175 1.19175 1.19177 1.19178 1.19178 1.19178 1.19178 1.19178 1.19177 1.19177 1.19177 1.19178 1.19174 1.19177 1.19178 1.19178 1.19178 1.19178 1.19178 1.19177 1.19177 1.19177 1.19177 1.19178 1.19178 1.19178 1.19176 1.19178 1.19178 1.19178 1.19177 1.19178 1.19176 1.19178 1.19176 1.19175 1.19176 1.19175 1.19179 1.19177 1.19176 1.19178 1.19176 1.19176 1.19176 1.19178 1.19175 1.19179 1.19177 1.19178 1.1918 1.19181 1.19177 1.19177 1.19178 1.19172 1.19175 1.19188 1.19178 1.1917 1.19176 1.19176 1.19179 1.19178 1.19175 1.19173 1.19174 1.19179 1.19178 1.19174 1.19177 1.19178 1.19172 1.19177 1.19173 1.19177 1.19181 1.19178 1.19175 1.19174 1.19177 1.19178 1.19176 1.19178 1.19178 1.19178 1.19176 1.19178 1.19177 1.19177 1.19176 1.19174 1.19176 1.19176 1.19177 1.19177 1.19178 1.19176 1.19178 1.19176 1.19176 1.19177 1.19176 1.19175 1.19176 1.19175 1.19177 1.19177 1.19177 1.19178 1.19178 1.19178 1.19177 1.19177 1.19178 1.19178 1.19178 1.19177 1.19178 1.19178 1.19178 1.19178 1.19178 1.19177 1.19177 1.19177 1.19178 1.19178 1.19177 1.19177 1.19177 1.19176 1.19177 1.19178 1.19178 1.19176 1.19176 1.19177 1.19176 1.19175 1.19177 1.19175 1.19175 1.19177 1.19173 1.19177 1.19179 1.19175 1.19176 1.19177 1.19175 1.19181 1.19179 1.19179 1.19173 1.19174 1.19178 1.19169 1.19174 1.19172 1.19177 1.19177 1.19174 1.1917 1.19173 1.19168 1.19177 1.19174 1.19177 1.19174 1.19172 1.19177 1.19176 1.19176 1.19177 1.19175 1.19175 1.19175 1.19178 1.19175 1.19178 1.19178 1.19178 1.19178 1.19176 1.19176 1.19178 1.19177 1.19178 1.19176 1.19174 1.19176 1.19176 1.19177 1.19178 1.19178 1.19176 1.19177 1.19176 1.19174 1.19176 1.19176 1.19175 1.19177 1.19178 1.19177 1.19178 1.19178 1.19178 1.19177 1.19177 1.19178 1.19178 1.19178 1.19177 1.19178 1.19178 1.19178 1.19178 1.19178 1.19177 1.19177 1.19177 1.19178 1.19178 1.19178 1.19178 1.19176 1.19177 1.19177 1.19176 1.19176 1.19178 1.19174 1.19176 1.19177 1.19175 1.19175 1.19171 1.19175 1.19173 1.19175 1.19174 1.19175 1.19176 1.19179 1.19181 1.19179 1.19178 1.19174 1.19174 1.19172 1.19174 1.19176 1.19168 1.19177 1.19173 1.19177 1.19173 1.19172 1.19171 1.19173 1.19169 1.19171 1.1918 1.1917 1.19174 1.19176 1.19178 1.19178 1.19177 1.19175 1.19175 1.19175 1.19176 1.19174 1.19176 1.19178 1.19176 1.19178 1.19176 1.19176 1.19176 1.19177 1.19178 1.19176 1.19178 1.19175 1.19177 1.19177 1.19177 1.19176 1.19177 1.19176 1.19177 1.19176 1.19177 1.19174 1.19174 1.19174 1.19176 1.19177 1.19178 1.19172 1.19175 1.19179 1.19182 1.19177 1.19179 1.19173 1.19178 1.19177 1.19177 1.19175 1.19178 1.19177 1.1917 1.19175 1.19173 1.19176 1.19172 1.19174 1.19177 1.19172 1.19176 1.19175 1.19178 1.19175 1.19177 1.19179 1.19179 1.19178 1.19176 1.19177 1.19176 1.19175 1.19174 1.19173 1.19176 1.19171 1.19171 1.19173 1.19175 1.19178 1.19175 1.19177 1.19178 1.19175 1.19178 1.19174 1.19176 1.19179 1.19179 1.19175 1.19178 1.19176 1.19174 1.19172 1.19175 1.19175 1.19174 1.19178 1.19172 1.1917 1.19177 1.19175 1.19178 1.19176 1.19175 1.19173 1.19177 1.19175 1.19179 1.19179 1.19179 1.19175 1.19177 1.19178 1.19172 1.19178 1.19177 1.19176 1.19173 1.1917 1.19171 1.19174 1.19176 1.19178 1.19178 1.19178 1.19177 1.19174 1.19174 1.19176 1.19173 1.19177 1.19175 1.19179 1.19179 1.19176 1.19174 1.19173 1.19171 1.19169 1.1917 1.19178 1.1918 1.19178 1.19178 1.19178 1.19178 1.19177 1.19177 1.19177 1.19174 1.19175 1.19177 1.19174 1.19179 1.19173 1.19178 1.19176 1.19177 1.19174 1.19181 1.19173 1.19177 1.19178 1.19178 1.19178 1.19178 1.19178 1.19178 1.19178 1.19178 1.19178 1.19178 1.19178 1.19178 1.19178 1.19178 1.19178 1.19178 1.19178 1.19178 1.19178 1.19178 1.19178 1.19178 1.19178 1.19178 1.19178 1.19178 1.19178 1.19178 1.19178 1.19178 1.19178 1.19178 1.19178 1.19178 1.19178 1.19178 1.19178 1.19177 1.19176 1.19174 1.19174 1.19178 1.19179 1.19176 1.19173 1.19174 1.19182 1.19182 1.19171 1.19178 1.19176 1.1918 1.19178 1.19174 1.19178 1.19179 1.1918 1.19179 1.19176 1.19176 1.19178 1.19178 1.19178 1.19178 1.19178 1.19178 1.19178 1.19178 1.19178 1.19178 1.19178 1.19178 1.19178 1.19178 1.19178 1.19178 1.19178 1.19178 1.19178 1.19178 1.19178 1.19178 1.19178 1.19178 1.19178 1.19178 1.19178 1.19178 1.19176 1.19177 1.19175 1.19178 1.19172 1.19174 1.19177 1.19173 1.19173 1.19178 1.19176 1.19174 1.19173 1.19177 1.19176 1.19178 1.19179 1.19176 1.19178 1.19177 1.19178 1.19178 1.19178 1.19178 1.19178 1.19178 1.19178 1.19178 1.19178 1.19178 1.19178 1.19178 1.19178 1.19178 1.19178 1.19178 1.19178 1.19178 1.19178 1.19178 1.19178 1.19178 1.19178 1.19178 1.19178 1.19178 1.19178 1.19178 1.19178 1.19178 1.19178 1.19178 1.19178 1.19178 1.19178 1.19178 1.19178 1.19178 1.19178 1.19178 1.19178 1.19178 1.19178 1.19178 1.19178 1.19178 1.19178 1.19178 1.19178 1.19176 1.19181 1.19176 1.19179 1.19173 1.19177 1.19172 1.19174 1.19175 1.19176 1.19175 1.1917 1.19168 1.19174 1.19173 1.19177 1.19178 1.19179 1.19176 1.19179 1.19178 1.19177 1.19177 1.19178 1.19178 1.19178 1.19178 1.19178 1.19178 1.19178 1.19178 1.19178 1.19178 1.19178 1.19178 1.19178 1.19178 1.19178 1.19178 1.19178 1.19178 1.19178 1.19178 1.19178 1.19178 1.19178 1.19178 1.19178 1.19178 1.19178 1.19178 1.19178 1.19178 1.19178 1.19178 1.19178 1.19178 1.19178 1.19178 1.19178 1.19178 1.19178 1.19178 1.19178 1.19178 1.19178 1.19178 1.19178 1.19177 1.19176 1.19174 1.19176 1.19174 1.19177 1.19176 1.19178 1.19174 1.19175 1.19176 1.19174 1.19175 1.1917 1.19168 1.19178 1.19174 1.19177 1.19174 1.19178 1.19177 1.19179 1.19178 1.19178 1.19178 1.19178 1.19178 1.19178 1.19178 1.19178 1.19178 1.19178 1.19178 1.19178 1.19178 1.19178 1.19178 1.19178 1.19178 1.19178 1.19178 1.19178 1.19178 1.19178 1.19178 1.19178 1.19178 1.19178 1.19178 1.19178 1.19178 1.19178 1.19178 1.19178 1.19178 1.19178 1.19178 1.19178 1.19178 1.19178 1.19178 1.19178 1.19178 1.19178 1.19178 1.19178 1.19178 1.19178 1.19178 1.19178 1.19177 1.19178 1.1918 1.19176 1.19178 1.19175 1.19176 1.19175 1.19176 1.19174 1.19175 1.19174 1.19174 1.1917 1.19174 1.19177 1.19177 1.19174 1.1918 1.19177 1.19176 1.19178 1.19178 1.19178 1.19178 1.19178 1.19178 1.19178 1.19178 1.19178 1.19178 1.19178 1.19178 1.19178 1.19178 1.19178 1.19178 1.19178 1.19178 1.19178 1.19178 1.19178 1.19178 1.19178 1.19178 1.19178 1.19178 1.19178 1.19178 1.19178 1.19178 1.19178 1.19178 1.19178 1.19178 1.19178 1.19178 1.19178 1.19178 1.19178 1.19178 1.19178 1.19178 1.19178 1.19178 1.19178 1.19178 1.19178 1.19178 1.19178 1.19178 1.19178 1.19178 1.19178 1.19178 1.19176 1.19176 1.19178 1.19176 1.19173 1.19178 1.19176 1.19178 1.19176 1.19174 1.19176 1.19176 1.19177 1.19178 1.19177 1.19179 1.19176 1.19178 1.19176 1.19173 1.19175 1.19177 1.19177 1.19178 1.19179 1.19177 1.19178 1.19178 1.19178 1.19178 1.19178 1.19178 1.19178 1.19178 1.19178 1.19178 1.19178 1.19178 1.19178 1.19178 1.19178 1.19178 1.19178 1.19178 1.19178 1.19178 1.19178 1.19178 1.19178 1.19178 1.19178 1.19178 1.19178 1.19178 1.19178 1.19178 1.19178 1.19178 1.19178 1.19178 1.19178 1.19178 1.19178 1.19178 1.19178 1.19178 1.19178 1.19178 1.19177 1.19176 1.19177 1.19178 1.19175 1.19176 1.19176 1.19178 1.19177 1.19176 1.19173 1.19178 1.19174 1.19175 1.19174 1.19178 1.19175 1.19176 1.19175 1.19178 1.19178 1.19178 1.19178 1.19178 1.19178 1.19178 1.19178 1.19178 1.19178 1.19178 1.19178 1.19178 1.19178 1.19178 1.19178 1.19178 1.19178 1.19178 1.19178 1.19178 1.19178 1.19178 1.19178 1.19178 1.19178 1.19178 1.19178 1.19178 1.19178 1.19178 1.19178 1.19178 1.19178 1.19178 1.19178 1.19178 1.19178 1.19178 1.19178 1.19178 1.19178 1.19178 1.19178 1.19177 1.19175 1.19179 1.19175 1.1918 1.19174 1.19178 1.19176 1.19176 1.19176 1.19177 1.19176 1.19177 1.19176 1.19175 1.19178 1.19175 1.19178 1.19179 1.19175 1.19178 1.19178 1.19178 1.19178 1.19178 1.19178 1.19178 1.19178 1.19178 1.19178 1.19178 1.19178 1.19178 1.19178 1.19178 1.19178 1.19178 1.19178 1.19178 1.19178 1.19178 1.19178 1.19178 1.19178 1.19178 1.19178 1.19178 1.19178 1.19178 1.19178 1.19178 1.19178 1.19178 1.19178 1.19178 1.19178 1.19178 1.19178 1.19176 1.19177 1.19177 1.19177 1.19177 1.19178 1.19178 1.19178 1.19176 1.19177 1.19178 1.19176 1.19178 1.19175 1.19178 1.19176 1.19178 1.19178 1.19178 1.19178 1.19178 1.19178 1.19178 1.19178 1.19178 1.19178 1.19178 1.19178 1.19178 1.19178 1.19178 1.19178 1.19178 1.19178 1.19178 1.19178 1.19178 1.19178 1.19178 1.19178 1.19178 1.19178 1.19178 1.19178 1.19178 1.19178 1.19178 1.19178 1.19178 1.19178 1.19178 1.19178 1.19178 1.19178 1.19178 1.19178 1.19178 1.19178 1.19178 1.19178 1.19178 1.19178 1.19178 1.19178 1.19177 1.19177 1.19177 1.19177 1.1918 1.19177 1.19177 1.19177 1.19176 1.19177 1.19177 1.19178 1.19177 1.19174 1.19178 1.19176 1.19176 1.19178 1.19178 1.19177 1.19178 1.19178 1.19178 1.19178 1.19178 1.19178 1.19178 1.19178 1.19178 1.19178 1.19178 1.19178 1.19178 1.19178 1.19178 1.19178 1.19178 1.19178 1.19178 1.19178 1.19178 1.19178 1.19178 1.19178 1.19178 1.19178 1.19178 1.19178 1.19178 1.19178 1.19178 1.19178 1.19177 1.19177 1.19177 1.19177 1.19178 1.19176 1.19177 1.19177 1.19178 1.19177 1.19178 1.19176 1.19176 1.19177 1.19175 1.19177 1.19177 1.19177 1.19177 1.19178 1.19178 1.19178 1.19178 1.19178 1.19178 1.19178 1.19178 1.19178 1.19178 1.19178 1.19178 1.19178 1.19178 1.19178 1.19178 1.19178 1.19178 1.19178 1.19178 1.19178 1.19178 1.19178 1.19178 1.19178 1.19177 1.19177 1.19177 1.19176 1.19178 1.19176 1.19177 1.19177 1.19177 1.19176 1.19177 1.19176 1.19176 1.19175 1.19177 1.19176 1.19176 1.19177 1.19177 1.19178 1.19177 1.19177 1.19176 1.19178 1.19178 1.19178 1.19178 1.19178 1.19178 1.19178 1.19178 1.19178 1.19178 1.19178 1.19178 1.19178 1.19178 1.19178 1.19178 1.19178 1.19178 1.19178 1.19178 1.19178 1.19178 1.19178 1.19178 1.19178 1.19177 1.19177 1.19176 1.19177 1.19177 1.19177 1.19176 1.19176 1.19178 1.19176 1.19176 1.19178 1.19178 1.19178 1.19178 1.19177 1.19176 1.19178 1.19178 1.19178 1.19178 1.19178 1.19178 1.19178 1.19178 1.19178 1.19178 1.19178 1.19178 1.19178 1.19178 1.19178 1.19178 1.19178 1.19177 1.19177 1.19177 1.19177 1.19177 1.19177 1.19178 1.19177 1.19178 1.19177 1.19177 1.19177 1.19177 1.19177 1.19177 1.19176 1.19178 1.19178 1.19178 1.19177 1.19178 1.19178 1.19177 1.19177 1.19178 1.19178 1.19178 1.19178 1.19178 1.19178 1.19178 1.19178 1.19178 1.19178 1.19178 1.19178 1.19178 1.19178 1.19178 1.19178 1.19177 1.19177 1.19178 1.19178 1.19177 1.19177 1.19178 1.19177 1.19177 1.19178 1.19177 1.19178 1.19175 1.19177 1.19177 1.19178 1.19178 1.19177 1.19178 1.19178 1.19178 1.19178 1.19178 1.19178 1.19178 1.19178 1.19178 1.19178 1.19178 1.19177 1.19178 1.19178 1.19178 1.19177 1.19177 1.19178 1.19178 1.19177 1.19177 1.19177 1.19177 1.19177 1.19177 1.19177 1.19178 1.19177 1.19178 1.19177 1.19178 1.19178 1.19178 1.19178 1.19178 1.19178 1.19178 1.19178 1.19178 1.19178 1.19177 1.19178 1.19177 1.19178 1.19178 1.19178 1.19178 1.19178 1.19177 1.19178 1.19177 1.19177 1.19177 1.19178 1.19178 1.19178 1.19177 1.19178 1.19178 1.19177 1.19178 1.19178 1.19178 1.19178 1.19178 1.19178 1.19178 1.19177 1.19178 1.19177 1.19178 1.19178 1.19177 1.19177 1.19178 1.19177 1.19177 1.19177 1.19178 1.19178 1.19178 1.19178 1.19178 1.19178 1.19176 1.19178 1.19178 1.19178 1.19178 1.19178 1.19178 1.19178 1.19178 1.19178 1.19178 1.19178 1.19178 1.19178 1.19178 1.19178 1.19178 1.19178 1.19178 1.19178 1.19178 1.19178 1.19178 1.19178 1.19178 1.19178 1.19178 1.19178 1.19178 1.19178 1.19178 1.19178 1.19178 1.19178 1.19178 1.19178 1.19178 1.19178 1.19178 1.19178 1.19178 1.19178 1.19178 1.19178 0.0012857 0.00431549 0.0040637 0.00243647 0.0035584 0.00334573 0.00331355 0.00400196 0.00661705 0.00522268 0.00614336 0.00853515 0.00071592 0.00884992 0.00749749 0.00817898 0.0126519 0.013445 0.0115247 0.00684867 0.00402014 0.00568956 0.00750975 0.00491987 0.00503083 0.0108618 0.0205282 0.019923 0.0216274 0.0287938 0.037466 0.0364367 0.0409163 0.0364862 0.0369603 0.031503 0.0388552 0.0306825 0.0267859 0.0192474 0.0367064 0.0420537 0.0349006 0.0214395 0.0238226 0.0141701 0.0116157 0.0234654 0.0217134 0.0278554 0.0157686 0.0171044 0.00103357 0.00102649 0.00254852 0.00393538 0.00542073 0.00822079 0.00757389 0.00677828 0.00681599 0.00646016 0.00608994 0.0053807 0.00662501 0.00696677 0.00799074 0.0104993 0.0114778 0.0118084 0.0121379 0.013209 0.0134747 0.0152614 0.0165512 0.017941 0.0210445 0.0205364 0.02122 0.0229918 0.0228406 0.0260245 0.0268879 0.0245338 0.024255 0.024617 0.0282775 0.033144 0.0488292 0.0353051 0.0597937 0.0650963 0.0647878 0.0527172 0.0572904 0.0594718 0.0626025 0.0780996 0.0683114 0.0544275 0.0578493 0.00629683 0.00214062 0.00210825 0.00192903 0.00785329 0.00925102 0.00370918 0.00669214 0.00993427 0.00694459 0.0102007 0.0100042 0.0125314 0.0133548 0.00957115 0.0146399 0.0126969 0.0101947 0.0140837 0.0149704 0.0179852 0.0165871 0.0144259 0.00716749 0.0105703 0.0132239 0.00969453 0.00825676 0.00881129 0.0108695 0.0142082 0.00930519 0.0113807 0.0124602 0.00753235 0.0109886 0.00836219 0.0100825 0.0120774 0.00632919 0.00475784 0.00908934 0.0110409 0.0124502 0.0168719 0.0153234 0.00828981 0.0146747 0.0124542 0.0201728 0.00851819 0.0224635 0.0237143 0.0277917 0.0171892 0.0265117 0.0194733 0.0223382 0.0233912 0.0179359 0.0135582 0.00660825 0.0141401 0.00688417 0.00759279 0.0215777 0.0163717 0.0135533 0.0192342 0.0108658 0.0150741 0.0175022 0.00976224 0.019438 0.0281592 0.0177784 0.0229512 0.0100575 0.00754247 0.0106209 0.0185449 0.029103 0.0268423 0.0366884 0.0162714 0.0315403 0.00195251 0.00292476 0.00239857 0.00341649 0.00205468 0.000407529 0.00154994 0.00510301 0.00306539 0.00623609 0.00386332 0.00589312 0.0036663 0.00639475 0.0054283 0.00584371 0.00431518 0.00575528 0.00622405 0.0072575 0.00756713 0.00817319 0.00774479 0.00918171 0.0106496 0.0129679 0.0140683 0.0144544 0.0136766 0.0139344 0.0158166 0.0166352 0.0173859 0.020099 0.0188164 0.0199505 0.0206362 0.0216409 0.0226322 0.0275187 0.027656 0.0267497 0.0322815 0.0308833 0.0341632 0.0345579 0.0324715 0.0393481 0.0324923 0.0323285 0.0304069 0.0315494 0.0289826 0.0383276 0.0409879 0.0446977 0.0571416 0.046363 0.0545042 0.0674061 0.0780445 0.0684191 0.0862927 0.0802815 0.0787833 0.0827522 0.0725778 0.0737689 0.0605555 0.0632013 0.0978367 0.0224512 0.0840426 0.0637174 0.0611142 0.0300037 0.0117354 0.059071 0.000439378 0.00850906 0.00448677 0.00838057 0.0055504 0.0105643 0.00796093 0.0100041 0.0127552 0.0108999 0.0114485 0.0125294 0.0135528 0.0134957 0.00607539 0.0117494 0.0120031 0.00755897 0.0111828 0.00751517 0.0103793 0.00783027 0.00865227 0.00775707 0.0077748 0.00625568 0.00890791 0.00823825 0.00674606 0.0073455 0.0140868 0.0077838 0.0128965 0.0126651 0.0164229 0.0135746 0.0107057 0.00800036 0.00976332 0.00675687 0.00513541 0.00201958 0.00917179 0.0163939 0.0110555 0.0072623 0.0128465 0.0115714 0.0166483 0.0121264 0.0169437 0.0131093 0.00577236 0.0184563 0.0181494 0.0102197 0.00894098 0.000281405 0.0152493 0.00795611 0.01755 0.0156917 0.0045228 0.00417815 0.00942776 0.00623385 0.00136182 0.0014108 0.00382286 0.000838233 0.00133869 0.00429097 0.00224003 0.0020866 0.00333941 0.00406222 0.00453337 0.00564237 0.00467147 0.00661892 0.00652586 0.00453951 0.00582607 0.00594711 0.00717972 0.00605 0.00848755 0.00861461 0.00915318 0.0106875 0.00993231 0.0106578 0.0112219 0.0120536 0.0150302 0.0137939 0.0163799 0.0168353 0.018565 0.0177043 0.0221134 0.0263276 0.0301721 0.0319078 0.0336982 0.0348879 0.0361997 0.0343944 0.0396052 0.0415353 0.0484473 0.0474969 0.0531791 0.0592393 0.0688105 0.058704 0.0540523 0.0803034 0.0714046 0.0710305 0.0767421 0.0683656 0.0744016 0.0687111 0.0432267 0.0358358 0.0271811 0.0397987 0.0345078 0.0451654 0.0359053 0.0841373 0.00269688 0.00162264 0.00586124 0.00387858 0.00887496 0.0093208 0.0107706 0.0109905 0.0128656 0.0147132 0.0146809 0.0137342 0.0125882 0.012642 0.0101882 0.00728772 0.00932604 0.00788526 0.00949333 0.0087497 0.010006 0.0100566 0.00835745 0.0123177 0.0117761 0.0167622 0.01429 0.0188722 0.0150598 0.0130466 0.0189676 0.00369017 0.0125769 0.00724313 0.00303932 0.00110745 0.00092251 0.00305504 0.00222165 0.00655684 0.00328361 0.0137188 0.0159019 0.00512016 0.00596997 0.00729928 0.00579267 0.0145642 0.0173475 0.0110244 0.00326287 0.0117296 0.004852 0.0139754 0.0138933 0.00312991 0.00883229 0.0142336 0.00174877 0.00182476 0.00132198 0.00265019 0.0031386 0.00431751 0.00674955 0.00335439 0.00378814 0.00514474 0.00544147 0.00417386 0.00623033 0.00578794 0.00613158 0.00661568 0.00950682 0.00730238 0.00755495 0.0100616 0.0107316 0.0112384 0.0101572 0.0114088 0.0122592 0.0107829 0.0119107 0.0141494 0.0156929 0.0171015 0.0194093 0.0183273 0.0201719 0.022937 0.0237773 0.0263063 0.026145 0.0289485 0.028768 0.0299526 0.0275348 0.0273092 0.0329994 0.0406478 0.0429331 0.0478618 0.0492087 0.0417295 0.0527691 0.0522078 0.0501573 0.0434299 0.0539647 0.051868 0.0471883 0.0660832 0.0533955 0.0656852 0.0729008 0.0595258 0.0497484 0.056212 0.0670693 0.0531491 0.0462941 0.0542281 0.053932 0.0737833 0.00271575 0.00738629 0.00464735 0.00658061 0.00548098 0.0124602 0.00953698 0.0120628 0.0127189 0.0138478 0.0145156 0.0138192 0.0133316 0.0145342 0.0134301 0.0126789 0.0127131 0.0117692 0.0113886 0.0113486 0.0103055 0.0116217 0.0103964 0.00921988 0.0102343 0.00697243 0.00911871 0.0117123 0.0148703 0.014086 0.0127574 0.0179746 0.01507 0.0147321 0.0175209 0.0173346 0.00907784 0.014549 0.00789232 0.00985422 0.00761479 0.000937277 0.00798142 0.00633804 0.00907353 0.0084819 0.0119798 0.00422359 0.00730782 0.0064465 0.00904814 0.00699845 0.0114022 0.0110213 0.00722228 0.00434433 0.0134522 0.0154661 0.0107106 0.00893033 0.00631314 0.00937813 0.00426497 0.00696326 0.0023796 0.00185149 0.00429048 0.0047158 0.00307009 0.00569186 0.00545775 0.00467332 0.00575251 0.00447622 0.00478014 0.0053367 0.00662084 0.00657754 0.00740182 0.00651934 0.00629845 0.00869413 0.00693123 0.00999773 0.00792047 0.00753044 0.0107594 0.0124233 0.0144191 0.0155683 0.0166288 0.0187833 0.0202598 0.0196496 0.0232702 0.0240263 0.027242 0.0295236 0.0332941 0.0389339 0.045675 0.0344682 0.0460128 0.0342561 0.0323381 0.0190776 0.026705 0.0420484 0.0460694 0.0604763 0.0587122 0.049706 0.0904135 0.0833916 0.0812632 0.0831117 0.0845887 0.06901 0.0530997 0.0481943 0.0610192 0.0604948 0.0858663 0.0719923 0.0829711 0.0723217 0.00283427 0.00600925 0.010809 0.011453 0.0116336 0.0127173 0.0141339 0.0145827 0.0140119 0.0142244 0.0126483 0.0113914 0.0104387 0.00895099 0.0100901 0.00754194 0.00729539 0.00877576 0.0109789 0.0105635 0.0110854 0.0137819 0.0152866 0.0169961 0.0175309 0.0186021 0.022993 0.0180289 0.0140856 0.0149886 0.0121796 0.0128969 0.0115523 0.00841967 0.00908817 0.00851425 0.00271368 0.0052632 0.00138824 0.00221835 0.00215464 0.0121217 0.00474753 0.00240955 0.00132579 0.0153042 0.0143615 0.00516227 0.0108458 0.00733968 0.0181359 0.0183246 0.0152573 0.00998227 0.002822 0.00261065 0.00255518 0.00175143 0.004016 0.00498388 0.00625693 0.00468691 0.00479488 0.00498144 0.00544736 0.00552501 0.00568334 0.00341928 0.00374242 0.00463685 0.00389179 0.00523883 0.00493553 0.00453695 0.0056307 0.00739579 0.00540402 0.011273 0.0139483 0.0143397 0.0161131 0.0180296 0.0199187 0.0215476 0.0225018 0.0217012 0.0230049 0.0270309 0.0232522 0.0265493 0.0272819 0.0286979 0.0300987 0.0202285 0.0148927 0.0206264 0.021895 0.0240779 0.024537 0.0208468 0.0144251 0.0875392 0.0481456 0.118299 0.0429131 0.0575877 0.0527089 0.0394841 0.0544165 0.0611131 0.0497107 0.0735535 0.083893 0.0929641 0.101835 0.0691088 0.0143882 0.0119357 0.0131731 0.0130551 0.0130447 0.0147972 0.0142434 0.0142658 0.0158376 0.0144197 0.0144613 0.0138681 0.0145521 0.0138398 0.0125384 0.0110932 0.0111442 0.0104025 0.0107521 0.0114691 0.0142734 0.014776 0.0147277 0.0151753 0.0182362 0.0195129 0.0206174 0.0200145 0.0185984 0.0133659 0.0196872 0.00872441 0.0107082 0.00758367 0.0100234 0.00880979 0.00521397 0.00570645 0.00454573 0.00637452 0.00186724 0.00318286 0.00152728 0.0136925 0.00839899 0.0149057 0.00845741 0.00704148 0.00461865 0.0155369 0.0178617 0.00809268 0.00153044 0.00250379 0.00302585 0.00387428 0.00327202 0.0031756 0.00446886 0.00354176 0.00413052 0.00486878 0.00504794 0.00551843 0.00556834 0.00680413 0.00584869 0.00545685 0.00615255 0.00706807 0.022809 0.0141151 0.0158651 0.015355 0.0157643 0.01902 0.0214378 0.0209282 0.0210464 0.018972 0.0198907 0.0226226 0.0210817 0.0255972 0.0202556 0.0194433 0.025083 0.0227922 0.0214366 0.0233294 0.0229276 0.0143862 0.0217665 0.00781017 0.0128272 0.00858022 0.0161898 0.0358967 0.0814123 0.0408473 0.00679609 0.00664899 0.00653682 0.0234839 0.0350929 0.0609058 0.0885434 0.092251 0.0746134 0.0933519 0.00948354 0.011351 0.00646289 0.0106635 0.01516 0.015125 0.0167477 0.0178969 0.0151177 0.0151054 0.014124 0.0154406 0.0150443 0.0158028 0.0123862 0.0147375 0.0137519 0.0125469 0.0116271 0.00989736 0.0104639 0.00727385 0.0114977 0.0156703 0.01601 0.0154669 0.0142776 0.015356 0.0181213 0.0188341 0.0176053 0.0136871 0.0100317 0.00644756 0.00814343 0.0111523 0.0120427 0.0123838 0.00917586 0.00477629 0.0107599 0.0122022 0.00335338 0.00676814 0.00220084 0.00454513 0.00951602 0.00491725 0.0106885 0.0164414 0.0133246 0.0136543 0.0109316 0.00365709 0.0161829 0.0264357 0.01815 0.00317508 0.00366032 0.00399706 0.00414144 0.00339175 0.00322278 0.00354634 0.00381244 0.00460831 0.00329421 0.00411148 0.00578314 0.00614466 0.00553178 0.00554549 0.00690829 0.00796441 0.0132741 0.0124431 0.0162424 0.011551 0.0134706 0.0130927 0.0159356 0.0192538 0.0214328 0.0195676 0.0191506 0.0195194 0.0189507 0.0196691 0.0231713 0.0233417 0.0266719 0.0313526 0.0224838 0.0299988 0.0181861 0.00198305 0.0234369 0.0217266 0.0140415 0.0336628 0.0107109 0.0219978 0.00759903 0.00870467 0.0220608 0.0373506 0.0531442 0.0515596 0.106545 0.067191 0.0969305 0.00876137 0.00886023 0.00698957 0.00573677 0.0098608 0.00416345 0.0130365 0.0135214 0.0113452 0.0136797 0.0136512 0.0146371 0.0147217 0.0151117 0.0139917 0.0151243 0.0147227 0.0137402 0.0146431 0.0130157 0.00980891 0.011787 0.0128128 0.0134833 0.0146277 0.0166813 0.0186947 0.0184244 0.017484 0.0141925 0.0107777 0.0100522 0.0114313 0.00986401 0.00854249 0.0120809 0.00694235 0.00340396 0.00199741 0.0091745 0.0150806 0.00490029 0.0111821 0.0124857 0.00912153 0.0144107 0.00790475 0.0178763 0.0177697 0.0272463 0.0297092 0.00481254 0.00252566 0.00295342 0.00196111 0.00316643 0.00326185 0.00309264 0.00318417 0.00383455 0.00553566 0.00637566 0.00587185 0.0072106 0.00974356 0.0092546 0.00768664 0.0112409 0.0138919 0.0169146 0.0192124 0.0205651 0.0220585 0.0203659 0.0188805 0.0231619 0.0262399 0.0267048 0.0220151 0.027915 0.0419102 0.0406961 0.0360887 0.0182527 0.0221332 0.0419192 0.0158359 0.0117189 0.0135589 0.0512485 0.030334 0.043643 0.0552125 0.0572554 0.0573211 0.10227 0.1064 0.00856661 0.00709824 0.00666641 0.00683292 0.0118337 0.0124187 0.0118363 0.0144635 0.0127629 0.0115484 0.0166367 0.0181196 0.0156607 0.0176013 0.0172903 0.0162156 0.0166731 0.0156801 0.0133785 0.0047731 0.0143207 0.0163586 0.0146162 0.0213219 0.0191455 0.017343 0.0123288 0.01158 0.00888191 0.0121034 0.00986753 0.0129792 0.00900141 0.0133346 0.0116352 0.00971363 0.00812612 0.00860083 0.00669602 0.00659339 0.0074862 0.00763461 0.0128417 0.0154736 0.0142161 0.0185763 0.023233 0.0242072 0.0308784 0.00415552 0.00267039 0.00187816 0.0025403 0.0025287 0.00369008 0.00332383 0.00247977 0.00244062 0.00347415 0.00475559 0.00742749 0.00719049 0.00785549 0.00883603 0.00846531 0.00934538 0.0094014 0.0133917 0.0194174 0.0180923 0.0193529 0.0212413 0.0230692 0.0222999 0.018266 0.0138426 0.0137137 0.0306009 0.0171825 0.0297133 0.0601075 0.0189066 0.0856842 0.060141 0.0532894 0.00505381 0.0113279 0.0442605 0.0169308 0.00794501 0.0174393 0.00407286 0.0330228 0.018946 0.0349021 0.049918 0.0545629 0.0921839 0.065056 0.0916593 0.115423 0.0103237 0.00711749 0.0122307 0.00754103 0.00863277 0.0151683 0.014232 0.0148679 0.0151152 0.0157263 0.0167933 0.0168112 0.0175736 0.0178592 0.0167132 0.0171871 0.0176825 0.0118035 0.0167952 0.0124284 0.016763 0.0172989 0.0220895 0.020973 0.0217937 0.0174001 0.0210993 0.0256504 0.0129157 0.00523755 0.00935096 0.00551388 0.0121069 0.0141459 0.0178309 0.00776586 0.0113815 0.0102717 0.0123289 0.0152541 0.0126522 0.0168457 0.0174295 0.0195314 0.0187327 0.014537 0.0230872 0.0340073 0.0262281 0.00338313 0.00287397 0.00406587 0.00213287 0.00245553 0.0032483 0.00283108 0.00194116 0.00228784 0.00272398 0.00536578 0.00506929 0.00580625 0.00959766 0.0097955 0.0151099 0.0192464 0.0222961 0.020629 0.0240323 0.0235676 0.0212728 0.0249496 0.0197268 0.0217657 0.0275449 0.0437034 0.0474076 0.0600642 0.0697908 0.077503 0.0680187 0.0437606 0.0636754 0.0595101 0.0161886 0.0205531 0.0450106 0.0509347 0.0538393 0.0560334 0.0636342 0.0728601 0.121547 0.0136944 0.01477 0.00725812 0.00663622 0.0146795 0.0134831 0.0141441 0.0160359 0.0173241 0.0194788 0.0191778 0.0187738 0.0188725 0.0147073 0.0139105 0.0123846 0.015347 0.00875672 0.00995485 0.0120112 0.0102645 0.0146109 0.0210091 0.0174086 0.0142033 0.0199119 0.0194535 0.0323405 0.0166366 0.00448658 0.00671076 0.00490936 0.0141651 0.0110971 0.0194724 0.0201578 0.0214998 0.0226897 0.0186107 0.0204437 0.0224769 0.0210041 0.0172084 0.0148264 0.0143557 0.00798403 0.0226244 0.00351672 0.00321866 0.00391908 0.00380203 0.00296384 0.00234749 0.00225417 0.00189192 0.000255098 0.0090963 0.00897832 0.00867051 0.00906461 0.00659967 0.0102896 0.0126757 0.0147379 0.0147803 0.0140558 0.0154373 0.0276325 0.0243819 0.021853 0.0222871 0.0188089 0.0189666 0.032728 0.0326685 0.0380576 0.055197 0.0655122 0.0615205 0.0979794 0.0952617 0.0798966 0.0643269 0.049696 0.0347128 0.0504011 0.042447 0.0444842 0.0133762 0.0330586 0.0398933 0.0516985 0.11227 0.0163009 0.0117536 0.0117101 0.0185781 0.00926682 0.0220196 0.025521 0.014432 0.042631 0.0477331 0.0376029 0.0460482 0.048891 0.100788 
SCALARS Stress float 1
LOOKUP_TABLE default
-12559800000.0 -12552900000.0 -12552900000.0 -12551800000.0 -12555100000.0 -12549700000.0 -12557100000.0 -12557100000.0 -12550600000.0 -12552000000.0 -12549700000.0 -12550900000.0 -12549700000.0 -12549700000.0 -12551300000.0 -12549700000.0 -12549700000.0 -12549900000.0 -12549700000.0 -12549900000.0 -12550400000.0 -12553200000.0 -12554800000.0 -12552700000.0 -12551700000.0 -12551000000.0 -12550400000.0 -12549800000.0 -12549700000.0 -12549700000.0 -12549700000.0 -12550400000.0 -12551400000.0 -12551700000.0 -12554900000.0 -12553100000.0 -12551800000.0 -12550300000.0 -12549700000.0 -12551400000.0 -12551400000.0 -12549800000.0 -12552600000.0 -12549800000.0 -12549900000.0 -12551700000.0 -12557800000.0 -12556700000.0 -12555100000.0 -12556900000.0 -12550700000.0 -12552000000.0 -12551000000.0 -12558200000.0 -12559000000.0 -12550100000.0 -12550000000.0 -12550300000.0 -12551700000.0 -12551700000.0 -12557900000.0 -12552600000.0 -12551600000.0 -12562700000.0 -12555300000.0 -12552200000.0 -12551900000.0 -12551300000.0 -12551100000.0 -12556400000.0 -12554700000.0 -12562000000.0 -12555700000.0 -12568200000.0 -12583500000.0 -12573000000.0 -12578000000.0 -12575100000.0 -12572800000.0 -12572700000.0 -12568000000.0 -12553200000.0 -12551600000.0 -12549700000.0 -12551800000.0 -12556800000.0 -12557800000.0 -12553500000.0 -12551500000.0 -12551100000.0 -12554900000.0 -12557000000.0 -12577900000.0 -12573800000.0 -12573500000.0 -12559000000.0 -12564900000.0 -12549900000.0 -12556300000.0 -12551100000.0 -12597700000.0 -12581300000.0 -12592300000.0 -12601700000.0 -12625400000.0 -12636300000.0 -12617200000.0 -12561700000.0 -12557300000.0 -12557300000.0 -12549700000.0 -12554000000.0 -12549900000.0 -12549700000.0 -12556000000.0 -12549700000.0 -12549700000.0 -12551100000.0 -12549700000.0 -12552700000.0 -12549700000.0 -12562800000.0 -12549700000.0 -12549700000.0 -12549700000.0 -12550300000.0 -12549800000.0 -12549700000.0 -12549900000.0 -12550700000.0 -12553600000.0 -12554500000.0 -12560900000.0 -12560500000.0 -12570200000.0 -12568100000.0 -12556800000.0 -12554700000.0 -12551700000.0 -12555700000.0 -12559200000.0 -12557000000.0 -12556700000.0 -12551400000.0 -12555000000.0 -12568500000.0 -12551900000.0 -12557300000.0 -12561500000.0 -12559700000.0 -12556100000.0 -12554700000.0 -12550900000.0 -12561700000.0 -12558600000.0 -12584000000.0 -12549700000.0 -12549700000.0 -12554500000.0 -12554300000.0 -12571800000.0 -12555400000.0 -12549700000.0 -12575300000.0 -12556500000.0 -12549700000.0 -12549700000.0 -12552900000.0 -12558300000.0 -12553200000.0 -12550100000.0 -12574100000.0 -12582800000.0 -12590500000.0 -12588400000.0 -12609300000.0 -12552900000.0 -12554800000.0 -12553300000.0 -12628500000.0 -12550100000.0 -12568300000.0 -12566700000.0 -12558400000.0 -12559100000.0 -12578400000.0 -12583000000.0 -12549700000.0 -12556300000.0 -12550500000.0 -12566000000.0 -12630700000.0 -12579300000.0 -12574900000.0 -12574200000.0 -12596500000.0 -12604700000.0 -12593400000.0 -12596600000.0 -12564100000.0 -12549700000.0 -12646400000.0 -12619900000.0 -12620500000.0 -12623200000.0 -12592000000.0 -12551900000.0 -12618800000.0 -12573300000.0 -12584900000.0 -12571400000.0 -12572400000.0 -12567700000.0 -12552200000.0 -12562800000.0 -12549700000.0 -12549800000.0 -12552700000.0 -12549700000.0 -12558900000.0 -12549700000.0 -12566800000.0 -12550100000.0 -12552000000.0 -12549700000.0 -12553000000.0 -12552800000.0 -12553500000.0 -12555000000.0 -12557700000.0 -12564300000.0 -12563800000.0 -12579000000.0 -12574300000.0 -12587700000.0 -12556600000.0 -12581200000.0 -12575700000.0 -12568000000.0 -12577400000.0 -12549800000.0 -12550700000.0 -12568800000.0 -12549700000.0 -12558100000.0 -12576900000.0 -12552800000.0 -12550900000.0 -12550300000.0 -12583500000.0 -12569600000.0 -12553000000.0 -12554300000.0 -12571900000.0 -12630700000.0 -12578100000.0 -12572100000.0 -12566400000.0 -12586300000.0 -12589900000.0 -12651400000.0 -12624800000.0 -12628200000.0 -12626400000.0 -12574100000.0 -12587000000.0 -12597400000.0 -12599100000.0 -12586200000.0 -12596300000.0 -12581300000.0 -12585000000.0 -12565100000.0 -12604800000.0 -12705100000.0 -12775400000.0 -12571600000.0 -12565200000.0 -12575000000.0 -12561700000.0 -12733800000.0 -12659100000.0 -12643900000.0 -12594000000.0 -12595300000.0 -12591000000.0 -12652500000.0 -12604500000.0 -12592800000.0 -12573500000.0 -12635200000.0 -12551800000.0 -12563200000.0 -12555300000.0 -12580800000.0 -12558800000.0 -12607800000.0 -12601200000.0 -12600300000.0 -12600000000.0 -12549700000.0 -12668900000.0 -12555800000.0 -12586200000.0 -12661400000.0 -12582000000.0 -12611900000.0 -12635600000.0 -12559300000.0 -12582600000.0 -12549700000.0 -12556300000.0 -12574700000.0 -12563300000.0 -12564700000.0 -12569100000.0 -12559500000.0 -12563000000.0 -12559100000.0 -12577800000.0 -12564800000.0 -12580300000.0 -12559100000.0 -12555800000.0 -12553800000.0 -12549700000.0 -12550100000.0 -12551100000.0 -12552400000.0 -12550500000.0 -12557700000.0 -12570600000.0 -12577200000.0 -12564300000.0 -12617500000.0 -12608600000.0 -12591000000.0 -12621700000.0 -12612500000.0 -12615000000.0 -12637300000.0 -12637400000.0 -12602200000.0 -12589000000.0 -12580100000.0 -12619800000.0 -12559400000.0 -12552000000.0 -12562100000.0 -12589300000.0 -12551500000.0 -12579600000.0 -12564400000.0 -12618600000.0 -12606400000.0 -12706900000.0 -12579100000.0 -12567700000.0 -12582900000.0 -12563700000.0 -12642800000.0 -12549700000.0 -12549700000.0 -12595700000.0 -12549700000.0 -12640900000.0 -12641000000.0 -12616600000.0 -12610700000.0 -12591400000.0 -12693400000.0 -12684300000.0 -12610300000.0 -12674200000.0 -12724000000.0 -12577900000.0 -12667600000.0 -12816900000.0 -12800400000.0 -12778700000.0 -12827100000.0 -12554500000.0 -12552200000.0 -12636800000.0 -12644600000.0 -12676100000.0 -12624800000.0 -12672400000.0 -12603400000.0 -12584200000.0 -12569100000.0 -12657400000.0 -12587200000.0 -12633600000.0 -12674700000.0 -12684600000.0 -12738000000.0 -12588700000.0 -12556100000.0 -12554300000.0 -12584800000.0 -12553500000.0 -12749000000.0 -12563500000.0 -12686900000.0 -12626100000.0 -12733700000.0 -12581400000.0 -12570500000.0 -12628900000.0 -12593300000.0 -12602600000.0 -12556800000.0 -12555300000.0 -12598400000.0 -12583300000.0 -12559900000.0 -12574500000.0 -12556300000.0 -12558100000.0 -12550600000.0 -12571200000.0 -12550000000.0 -12572600000.0 -12585900000.0 -12565900000.0 -12558500000.0 -12560500000.0 -12555900000.0 -12550500000.0 -12562900000.0 -12556000000.0 -12601400000.0 -12585300000.0 -12568100000.0 -12556500000.0 -12628000000.0 -12651900000.0 -12558400000.0 -12595400000.0 -12563800000.0 -12561200000.0 -12564000000.0 -12613400000.0 -12559300000.0 -12581100000.0 -12622400000.0 -12697800000.0 -12579000000.0 -12564600000.0 -12605900000.0 -12558900000.0 -12602400000.0 -12567400000.0 -12751400000.0 -12617300000.0 -12571900000.0 -12618500000.0 -12562900000.0 -12685900000.0 -12549700000.0 -12551400000.0 -12557000000.0 -12620700000.0 -12759700000.0 -12560400000.0 -12553000000.0 -12654700000.0 -12646000000.0 -12556600000.0 -12574300000.0 -12719700000.0 -12687000000.0 -12645400000.0 -12712500000.0 -12730200000.0 -12568200000.0 -12651500000.0 -12648000000.0 -12640800000.0 -12804100000.0 -12714800000.0 -12554300000.0 -12550100000.0 -12661700000.0 -12554400000.0 -12806100000.0 -12822800000.0 -12846700000.0 -12793900000.0 -12698600000.0 -12717700000.0 -12683100000.0 -12560300000.0 -12583500000.0 -12552400000.0 -12728000000.0 -12651500000.0 -12622000000.0 -12634400000.0 -12711500000.0 -12554000000.0 -12560300000.0 -12755100000.0 -12598000000.0 -12661500000.0 -12663300000.0 -12651300000.0 -12632600000.0 -12594600000.0 -12614000000.0 -12557300000.0 -12555500000.0 -12598100000.0 -12654600000.0 -12654900000.0 -12648600000.0 -12646400000.0 -12640800000.0 -12629000000.0 -12677200000.0 -12653800000.0 -12650000000.0 -12665900000.0 -12680500000.0 -12627100000.0 -12629500000.0 -12604600000.0 -12620200000.0 -12549800000.0 -12556300000.0 -12569500000.0 -12551000000.0 -12722200000.0 -12683400000.0 -12564500000.0 -12556200000.0 -12577000000.0 -12604200000.0 -12595400000.0 -12550300000.0 -12556400000.0 -12550500000.0 -12626400000.0 -12611900000.0 -12561300000.0 -12671000000.0 -12686200000.0 -12682700000.0 -12693400000.0 -12780500000.0 -12694700000.0 -12661300000.0 -12807800000.0 -12637800000.0 -12670000000.0 -12748200000.0 -12670300000.0 -12565800000.0 -12629900000.0 -12669700000.0 -12704600000.0 -12735900000.0 -12964700000.0 -12735500000.0 -12752900000.0 -12700400000.0 -12621700000.0 -12621800000.0 -12677000000.0 -12600500000.0 -12698600000.0 -12707600000.0 -12616000000.0 -12770900000.0 -12584200000.0 -12672600000.0 -12664300000.0 -12631200000.0 -12582300000.0 -12741100000.0 -12716900000.0 -12674700000.0 -12979200000.0 -12855800000.0 -12607600000.0 -12608100000.0 -12745200000.0 -12642400000.0 -12628000000.0 -12640900000.0 -12549700000.0 -12617700000.0 -12587800000.0 -12575600000.0 -12791200000.0 -12677600000.0 -12660700000.0 -12670600000.0 -12870400000.0 -13080500000.0 -12706500000.0 -12661100000.0 -12912900000.0 -12760300000.0 -12665900000.0 -12642100000.0 -12665300000.0 -12585700000.0 -12568400000.0 -12600000000.0 -12564800000.0 -12562700000.0 -12670100000.0 -12584100000.0 -12549900000.0 -12551200000.0 -12592200000.0 -12587500000.0 -12610800000.0 -12573900000.0 -12560000000.0 -12582000000.0 -12550200000.0 -12552900000.0 -12609500000.0 -12614400000.0 -12630900000.0 -12625700000.0 -12676000000.0 -12657800000.0 -12599300000.0 -12612000000.0 -12646500000.0 -12581900000.0 -12564700000.0 -12569300000.0 -12582300000.0 -12553700000.0 -12605200000.0 -12577500000.0 -12579700000.0 -12650200000.0 -12647900000.0 -12604600000.0 -12584700000.0 -12619400000.0 -12616800000.0 -12560400000.0 -12623900000.0 -12558800000.0 -12647500000.0 -12664200000.0 -12633500000.0 -12801400000.0 -12639500000.0 -12578600000.0 -12712600000.0 -12629800000.0 -12637800000.0 -12643000000.0 -12616200000.0 -12549700000.0 -12552300000.0 -12584400000.0 -12871900000.0 -12624700000.0 -12618100000.0 -12838800000.0 -12866200000.0 -12864800000.0 -12940600000.0 -12854300000.0 -12817000000.0 -12805700000.0 -12907200000.0 -13016500000.0 -12959500000.0 -13037500000.0 -13072700000.0 -12947700000.0 -13115500000.0 -12832200000.0 -12792400000.0 -13027100000.0 -12620000000.0 -12625600000.0 -12664800000.0 -12686500000.0 -12652200000.0 -12646800000.0 -12686900000.0 -12574600000.0 -12658100000.0 -12549700000.0 -12781400000.0 -12560200000.0 -12559600000.0 -12552600000.0 -12635100000.0 -12549700000.0 -13045100000.0 -13050100000.0 -13027700000.0 -12826400000.0 -12813200000.0 -12766400000.0 -12808500000.0 -12739700000.0 -12783000000.0 -12818100000.0 -12701800000.0 -12715600000.0 -12699700000.0 -12671200000.0 -12663200000.0 -12639400000.0 -12604600000.0 -12567400000.0 -12566700000.0 -12630800000.0 -12567000000.0 -12590800000.0 -12600700000.0 -12596500000.0 -12606600000.0 -12550100000.0 -12575700000.0 -12556200000.0 -12587700000.0 -12564400000.0 -12640100000.0 -12618800000.0 -12684800000.0 -12577800000.0 -12568800000.0 -12579100000.0 -12604700000.0 -12579800000.0 -12593400000.0 -12564200000.0 -12616400000.0 -12571400000.0 -12588000000.0 -12580400000.0 -12578800000.0 -12555800000.0 -12579500000.0 -12606400000.0 -12625400000.0 -12805500000.0 -12851600000.0 -12814800000.0 -12960200000.0 -12853200000.0 -12660400000.0 -12623400000.0 -12568600000.0 -12608400000.0 -12567500000.0 -12549700000.0 -12594100000.0 -12580000000.0 -12979300000.0 -12601900000.0 -12629800000.0 -12667300000.0 -12549700000.0 -12683600000.0 -12632800000.0 -12552800000.0 -12722500000.0 -12641300000.0 -12689500000.0 -12803500000.0 -12926200000.0 -12735200000.0 -12641200000.0 -12819300000.0 -12678400000.0 -12845200000.0 -12782700000.0 -13228100000.0 -12550800000.0 -12557300000.0 -12660500000.0 -12820000000.0 -12648000000.0 -12631100000.0 -12765900000.0 -12678000000.0 -12638400000.0 -12709500000.0 -12826000000.0 -12550000000.0 -12565100000.0 -12550800000.0 -12662600000.0 -12549700000.0 -12549700000.0 -12933200000.0 -12944400000.0 -12663700000.0 -12612900000.0 -12570800000.0 -12567100000.0 -12583300000.0 -12795400000.0 -12549700000.0 -12657300000.0 -12649800000.0 -12649800000.0 -12636100000.0 -12556000000.0 -12560400000.0 -12579500000.0 -12567500000.0 -12598100000.0 -12601800000.0 -12629900000.0 -12553300000.0 -12613400000.0 -12599700000.0 -12559200000.0 -12578200000.0 -12579400000.0 -12629300000.0 -12625200000.0 -12617700000.0 -12618700000.0 -12647600000.0 -12698800000.0 -12632100000.0 -12662400000.0 -12693200000.0 -12631500000.0 -12642000000.0 -12753200000.0 -12740400000.0 -12713300000.0 -12686900000.0 -12721200000.0 -12719700000.0 -12752000000.0 -12763300000.0 -12712500000.0 -12760900000.0 -12889500000.0 -12549700000.0 -12695700000.0 -12702900000.0 -12857100000.0 -12571400000.0 -12830600000.0 -12798000000.0 -12557200000.0 -12815000000.0 -12754300000.0 -12716300000.0 -12725600000.0 -12790500000.0 -12777600000.0 -12554900000.0 -12583800000.0 -12608000000.0 -12637600000.0 -12551400000.0 -12718800000.0 -12679700000.0 -12798400000.0 -12592700000.0 -12767800000.0 -12695500000.0 -12596400000.0 -12549700000.0 -12727600000.0 -12819600000.0 -12761200000.0 -12619000000.0 -12696300000.0 -12799600000.0 -12665300000.0 -12712900000.0 -13292900000.0 -12549700000.0 -12780100000.0 -12820800000.0 -12551100000.0 -12562500000.0 -12820300000.0 -12651700000.0 -12552500000.0 -12783200000.0 -12651900000.0 -12594700000.0 -12698700000.0 -12572400000.0 -12684000000.0 -12845500000.0 -12624200000.0 -12553000000.0 -12870400000.0 -12738100000.0 -12564100000.0 -12558000000.0 -12593600000.0 -12798200000.0 -12631500000.0 -12611300000.0 -12551800000.0 -12550600000.0 -12573600000.0 -12597700000.0 -12560500000.0 -12553600000.0 -12549700000.0 -12602400000.0 -12615500000.0 -12623800000.0 -12600200000.0 -12552400000.0 -12596500000.0 -12571600000.0 -12610400000.0 -12603800000.0 -12550000000.0 -12557800000.0 -12568500000.0 -12566100000.0 -12549700000.0 -12635900000.0 -12655200000.0 -12549700000.0 -12651000000.0 -12557800000.0 -12712200000.0 -12647700000.0 -12549700000.0 -12549700000.0 -12615500000.0 -12550700000.0 -12655500000.0 -12549700000.0 -12549800000.0 -12557800000.0 -12647300000.0 -12650100000.0 -12693900000.0 -12838800000.0 -12549700000.0 -12694100000.0 -12702900000.0 -12558800000.0 -12835000000.0 -12712900000.0 -12689500000.0 -12893600000.0 -12607700000.0 -12565700000.0 -12621900000.0 -12568400000.0 -12663400000.0 -12560100000.0 -12797200000.0 -12593800000.0 -12693800000.0 -12615700000.0 -12703400000.0 -12821700000.0 -12768000000.0 -13096100000.0 -12955200000.0 -12945200000.0 -12923200000.0 -12900200000.0 -13009300000.0 -12986400000.0 -13020100000.0 -13070400000.0 -13110700000.0 -13313100000.0 -12764800000.0 -12696900000.0 -13430600000.0 -13556100000.0 -13117700000.0 -12969800000.0 -12692100000.0 -12696200000.0 -12813600000.0 -12644400000.0 -12633600000.0 -12614400000.0 -12776800000.0 -12550300000.0 -12690400000.0 -12725300000.0 -12582200000.0 -12579500000.0 -12615100000.0 -12580000000.0 -12570700000.0 -12918200000.0 -12766900000.0 -12552400000.0 -12597600000.0 -12609800000.0 -12776600000.0 -12549700000.0 -12618000000.0 -12564800000.0 -12570300000.0 -12558400000.0 -12551800000.0 -12611800000.0 -12579100000.0 -12578200000.0 -12608900000.0 -12568700000.0 -12671100000.0 -12589500000.0 -12565900000.0 -12607900000.0 -12587800000.0 -12570200000.0 -12593000000.0 -12550500000.0 -12572000000.0 -12551600000.0 -12556200000.0 -12549900000.0 -12682700000.0 -12551000000.0 -12617200000.0 -12605400000.0 -12647500000.0 -12679200000.0 -12550900000.0 -12552600000.0 -12615200000.0 -12612000000.0 -12704100000.0 -12560000000.0 -12563300000.0 -12592800000.0 -12627700000.0 -12655500000.0 -12604300000.0 -12895900000.0 -12607700000.0 -12804800000.0 -12803800000.0 -12580500000.0 -13184100000.0 -12993200000.0 -13017000000.0 -12955000000.0 -12780700000.0 -12678100000.0 -12700100000.0 -12693200000.0 -12689800000.0 -12678800000.0 -12954900000.0 -12855900000.0 -12605600000.0 -12672100000.0 -12704800000.0 -12583700000.0 -12549700000.0 -12908000000.0 -12715100000.0 -12652300000.0 -12668700000.0 -12571200000.0 -12800600000.0 -12772900000.0 -12592700000.0 -12845200000.0 -12598500000.0 -12558600000.0 -13053300000.0 -12998700000.0 -13021400000.0 -12927600000.0 -12549700000.0 -12884600000.0 -12872200000.0 -12549700000.0 -12979500000.0 -12579000000.0 -12756300000.0 -12559000000.0 -12553300000.0 -12763900000.0 -12581200000.0 -12652100000.0 -12582300000.0 -12770600000.0 -12564000000.0 -12640700000.0 -12657200000.0 -12623400000.0 -12651900000.0 -12852800000.0 -12749200000.0 -12733800000.0 -12783600000.0 -12824700000.0 -12648200000.0 -12672600000.0 -12667000000.0 -12703800000.0 -12665700000.0 -12657500000.0 -12618500000.0 -12668500000.0 -12583300000.0 -12593800000.0 -12636100000.0 -12554700000.0 -12706100000.0 -12613200000.0 -12619000000.0 -12655900000.0 -12628800000.0 -12635700000.0 -12633400000.0 -12571500000.0 -12549700000.0 -12575800000.0 -12571200000.0 -12555500000.0 -12700100000.0 -12556400000.0 -12582800000.0 -12581700000.0 -12663100000.0 -12673900000.0 -12609800000.0 -12639700000.0 -12585500000.0 -12554300000.0 -12693700000.0 -12549700000.0 -12550600000.0 -12585900000.0 -12681500000.0 -12595200000.0 -12684200000.0 -12631500000.0 -12844700000.0 -12549700000.0 -12830100000.0 -12858900000.0 -13003200000.0 -12822400000.0 -12593500000.0 -12843300000.0 -12790700000.0 -12735300000.0 -12752200000.0 -12579500000.0 -12629200000.0 -12619700000.0 -12591100000.0 -12746700000.0 -12549700000.0 -12969500000.0 -12877900000.0 -12915300000.0 -12887200000.0 -13089400000.0 -13220700000.0 -12724200000.0 -12753900000.0 -12798600000.0 -12567100000.0 -13065300000.0 -12628600000.0 -12670600000.0 -12813100000.0 -12640100000.0 -12662500000.0 -12633700000.0 -12577200000.0 -13170900000.0 -12662100000.0 -13164500000.0 -12889200000.0 -13057500000.0 -13151700000.0 -13445800000.0 -13510000000.0 -13396100000.0 -13337700000.0 -13443100000.0 -13409200000.0 -13467300000.0 -13420200000.0 -13094000000.0 -12806000000.0 -13025500000.0 -12994000000.0 -13051000000.0 -13230800000.0 -12831000000.0 -12551700000.0 -12620900000.0 -12663300000.0 -12605800000.0 -12593500000.0 -12588300000.0 -12599400000.0 -12561400000.0 -12561300000.0 -12566600000.0 -12662600000.0 -12628800000.0 -12618200000.0 -12622800000.0 -12680500000.0 -12782900000.0 -12567000000.0 -12592700000.0 -12607100000.0 -12549700000.0 -12580500000.0 -12635500000.0 -12560100000.0 -12690800000.0 -12690500000.0 -12689500000.0 -12728500000.0 -12647500000.0 -12658700000.0 -12648600000.0 -12671300000.0 -12709900000.0 -12627200000.0 -12570500000.0 -12600200000.0 -12597500000.0 -12608400000.0 -12652100000.0 -12714700000.0 -12684800000.0 -12841000000.0 -12628800000.0 -12676900000.0 -12854000000.0 -12549700000.0 -12549700000.0 -13163900000.0 -13179800000.0 -12961000000.0 -12789400000.0 -12873000000.0 -12604300000.0 -12592600000.0 -12615400000.0 -12790100000.0 -12868300000.0 -12761100000.0 -12744300000.0 -12852100000.0 -13069800000.0 -12615500000.0 -12553500000.0 -12602900000.0 -12833300000.0 -12642800000.0 -12839900000.0 -12551100000.0 -12549800000.0 -12782100000.0 -12902500000.0 -13344400000.0 -12887200000.0 -12630400000.0 -12729100000.0 -12596600000.0 -12666200000.0 -12615000000.0 -12611000000.0 -13240600000.0 -12836900000.0 -13006900000.0 -12604400000.0 -12578900000.0 -12742200000.0 -12559100000.0 -12629700000.0 -12656200000.0 -12594300000.0 -12698900000.0 -12858600000.0 -12757100000.0 -12803500000.0 -12738300000.0 -12598600000.0 -12551400000.0 -12551700000.0 -12559300000.0 -12549700000.0 -12968300000.0 -12913800000.0 -12556800000.0 -12607700000.0 -12615700000.0 -12616100000.0 -12566000000.0 -12587700000.0 -12557500000.0 -12553100000.0 -12603400000.0 -12567400000.0 -12570700000.0 -12567500000.0 -12583600000.0 -12597700000.0 -12549700000.0 -12713800000.0 -12676400000.0 -12647000000.0 -12691200000.0 -12667800000.0 -12659600000.0 -12678500000.0 -12590300000.0 -12601500000.0 -12557300000.0 -12587000000.0 -12697000000.0 -12622100000.0 -12579400000.0 -12555200000.0 -12706200000.0 -12568200000.0 -12551900000.0 -12553900000.0 -12579100000.0 -12557200000.0 -12755900000.0 -12568200000.0 -12641600000.0 -12643300000.0 -12863400000.0 -12588000000.0 -12593400000.0 -12584600000.0 -12897100000.0 -12988700000.0 -13244000000.0 -12556300000.0 -12558900000.0 -13122900000.0 -12957400000.0 -12698800000.0 -12691100000.0 -12557600000.0 -12649000000.0 -12567300000.0 -12643600000.0 -12568400000.0 -12590300000.0 -12628800000.0 -13019300000.0 -12630200000.0 -12757300000.0 -12963000000.0 -12760200000.0 -12838000000.0 -12586200000.0 -13061700000.0 -12934100000.0 -12755000000.0 -12810300000.0 -12850700000.0 -12802500000.0 -12754000000.0 -12927600000.0 -12684000000.0 -12554600000.0 -12694600000.0 -12571200000.0 -12811200000.0 -12884400000.0 -12712000000.0 -13035900000.0 -13016800000.0 -12886400000.0 -12850100000.0 -12698100000.0 -12679900000.0 -12563700000.0 -12881300000.0 -12862500000.0 -12681000000.0 -12604900000.0 -12801800000.0 -12594900000.0 -12556500000.0 -12551800000.0 -12558100000.0 -12552000000.0 -12622200000.0 -12990100000.0 -12832800000.0 -12829700000.0 -12643300000.0 -12624500000.0 -12592600000.0 -12679200000.0 -12633900000.0 -12580100000.0 -12575500000.0 -12609100000.0 -12554200000.0 -12560300000.0 -12550600000.0 -12568100000.0 -12583800000.0 -12564100000.0 -12671900000.0 -12562200000.0 -12556100000.0 -12551400000.0 -12575100000.0 -12577100000.0 -12550400000.0 -12623800000.0 -12590300000.0 -12622400000.0 -12717600000.0 -12822000000.0 -12611000000.0 -12555200000.0 -12551500000.0 -12689000000.0 -12596000000.0 -12622600000.0 -12593300000.0 -12565000000.0 -12579100000.0 -12780100000.0 -12582400000.0 -12608900000.0 -12552300000.0 -12781800000.0 -13067400000.0 -12978200000.0 -12975100000.0 -13056300000.0 -13036700000.0 -13193200000.0 -12568200000.0 -12551900000.0 -13268600000.0 -12885500000.0 -12566600000.0 -12556800000.0 -12778300000.0 -12581600000.0 -12588000000.0 -12572400000.0 -12612000000.0 -12602800000.0 -12679900000.0 -13107600000.0 -12815800000.0 -13138200000.0 -12730300000.0 -12687200000.0 -12673500000.0 -12964200000.0 -12586200000.0 -12573200000.0 -12658500000.0 -12551000000.0 -12856800000.0 -12555700000.0 -12731900000.0 -12923200000.0 -12644800000.0 -12657500000.0 -12738200000.0 -12865700000.0 -12767700000.0 -13018900000.0 -12878400000.0 -12709600000.0 -12911200000.0 -12643000000.0 -12774600000.0 -12951200000.0 -12983300000.0 -13036900000.0 -12772600000.0 -12808400000.0 -12805000000.0 -12758200000.0 -12802400000.0 -12586100000.0 -12558800000.0 -12565100000.0 -12565700000.0 -12567900000.0 -12608700000.0 -12864100000.0 -12796700000.0 -12608700000.0 -12587900000.0 -12659300000.0 -12627300000.0 -12597200000.0 -12613700000.0 -12632500000.0 -12615800000.0 -12619700000.0 -12625100000.0 -12624800000.0 -12591000000.0 -12585400000.0 -12691400000.0 -12556100000.0 -12550200000.0 -12579700000.0 -12552300000.0 -12571500000.0 -12549700000.0 -12603500000.0 -12608700000.0 -12594700000.0 -12577600000.0 -12664600000.0 -12664700000.0 -12613700000.0 -12658200000.0 -12698600000.0 -12580100000.0 -12592900000.0 -12591900000.0 -12554100000.0 -12560800000.0 -12841800000.0 -12645500000.0 -12681400000.0 -12783900000.0 -12552900000.0 -12757300000.0 -12588600000.0 -12631800000.0 -13360400000.0 -12630600000.0 -13306700000.0 -12844300000.0 -12550900000.0 -12550100000.0 -12866200000.0 -12992100000.0 -13202500000.0 -12559700000.0 -12577000000.0 -12650400000.0 -12751600000.0 -12560100000.0 -13199200000.0 -13115800000.0 -12549700000.0 -12567500000.0 -12776800000.0 -12551400000.0 -12641200000.0 -12652600000.0 -12703600000.0 -12953500000.0 -12576200000.0 -12572700000.0 -12664200000.0 -12706100000.0 -12868400000.0 -12783500000.0 -12657800000.0 -12606200000.0 -12883500000.0 -12741900000.0 -12703600000.0 -12885100000.0 -12669400000.0 -12717200000.0 -12923000000.0 -12782500000.0 -12865400000.0 -12554500000.0 -12552300000.0 -12607500000.0 -12740600000.0 -12549700000.0 -12660100000.0 -12638700000.0 -12677600000.0 -12714300000.0 -12586700000.0 -12733300000.0 -12578400000.0 -12557600000.0 -12568200000.0 -12551800000.0 -12554500000.0 -12585900000.0 -12674800000.0 -12749000000.0 -12550200000.0 -12549700000.0 -12651700000.0 -12589000000.0 -12569700000.0 -12587000000.0 -12557900000.0 -12578500000.0 -12561000000.0 -12563700000.0 -12570100000.0 -12553900000.0 -12549700000.0 -12638500000.0 -12595900000.0 -12630600000.0 -12627600000.0 -12634900000.0 -12652400000.0 -12663200000.0 -12575300000.0 -12568300000.0 -12567400000.0 -12587300000.0 -12643400000.0 -12601100000.0 -12708700000.0 -12644800000.0 -12629200000.0 -12582200000.0 -12637500000.0 -12549700000.0 -12582700000.0 -12671000000.0 -12924900000.0 -12566500000.0 -12743400000.0 -12725700000.0 -12783600000.0 -12802000000.0 -12693900000.0 -12734200000.0 -12700400000.0 -13941400000.0 -12860600000.0 -13010000000.0 -12844900000.0 -13190200000.0 -12697200000.0 -12600100000.0 -12864200000.0 -12666700000.0 -13248500000.0 -12852100000.0 -12725500000.0 -12680700000.0 -12707500000.0 -12788200000.0 -12706000000.0 -12651900000.0 -12860300000.0 -12645500000.0 -12626900000.0 -12838900000.0 -12764400000.0 -12549700000.0 -12550900000.0 -12714500000.0 -12653300000.0 -12849500000.0 -12743300000.0 -12677900000.0 -12848000000.0 -12559200000.0 -12550400000.0 -12896900000.0 -12678400000.0 -12736500000.0 -12770000000.0 -12917300000.0 -12892300000.0 -12937600000.0 -12549700000.0 -12590700000.0 -12740700000.0 -12570400000.0 -12707000000.0 -12570700000.0 -12557800000.0 -12565000000.0 -12561400000.0 -12565900000.0 -12574600000.0 -12702600000.0 -12553600000.0 -12673800000.0 -12714300000.0 -12604600000.0 -12605000000.0 -12575500000.0 -12569300000.0 -12583800000.0 -12566600000.0 -12588500000.0 -12573300000.0 -12602500000.0 -12591100000.0 -12590300000.0 -12601600000.0 -12602900000.0 -12563000000.0 -12557500000.0 -12549800000.0 -12552100000.0 -12563200000.0 -12561600000.0 -12654800000.0 -12639300000.0 -12620300000.0 -12643300000.0 -12720700000.0 -12549700000.0 -12663000000.0 -12688000000.0 -12622100000.0 -12584600000.0 -12581200000.0 -12731400000.0 -12738200000.0 -12549700000.0 -12606300000.0 -12946200000.0 -12554900000.0 -12631500000.0 -12610300000.0 -12762600000.0 -12550600000.0 -12817600000.0 -12801900000.0 -12870600000.0 -12739800000.0 -14202000000.0 -12555600000.0 -12996700000.0 -12826600000.0 -13149900000.0 -13611900000.0 -13258600000.0 -13202900000.0 -12988300000.0 -12992600000.0 -13291700000.0 -12552800000.0 -12877200000.0 -12571000000.0 -12575000000.0 -12549700000.0 -12876400000.0 -12644800000.0 -12568000000.0 -12721000000.0 -12636100000.0 -12676400000.0 -12740600000.0 -12777900000.0 -12623300000.0 -12560700000.0 -12549700000.0 -12550800000.0 -12553200000.0 -12633400000.0 -12730300000.0 -12680200000.0 -12621600000.0 -12787400000.0 -12657800000.0 -12772400000.0 -12601200000.0 -12591300000.0 -12555700000.0 -12648100000.0 -12614900000.0 -12634900000.0 -12555300000.0 -12888500000.0 -12937400000.0 -12916700000.0 -12961200000.0 -13075600000.0 -12778900000.0 -12560400000.0 -12549700000.0 -12562000000.0 -12562100000.0 -12552700000.0 -12551900000.0 -12554900000.0 -12569900000.0 -12630200000.0 -12601900000.0 -12653500000.0 -12556400000.0 -12653700000.0 -12610500000.0 -12555400000.0 -12555400000.0 -12566300000.0 -12565700000.0 -12553900000.0 -12586800000.0 -12557900000.0 -12553200000.0 -12557100000.0 -12556600000.0 -12563000000.0 -12572000000.0 -12552000000.0 -12550300000.0 -12550500000.0 -12549700000.0 -12550400000.0 -12600400000.0 -12600700000.0 -12551000000.0 -12554700000.0 -12656200000.0 -12624400000.0 -12733900000.0 -12761800000.0 -12637300000.0 -12596300000.0 -12696400000.0 -12611000000.0 -12810000000.0 -12907400000.0 -12900600000.0 -12663000000.0 -12550500000.0 -12688900000.0 -12608800000.0 -12617000000.0 -12632000000.0 -12995500000.0 -13118300000.0 -13624700000.0 -13252600000.0 -13324400000.0 -13447800000.0 -12589100000.0 -12804600000.0 -13027100000.0 -12821000000.0 -12841500000.0 -13011100000.0 -13242100000.0 -12810600000.0 -12982200000.0 -12627700000.0 -12596700000.0 -12853900000.0 -12575200000.0 -12597600000.0 -12587600000.0 -12621200000.0 -12642800000.0 -12646700000.0 -12549700000.0 -12576300000.0 -12628400000.0 -12579900000.0 -12581000000.0 -12700400000.0 -12641500000.0 -12559700000.0 -12750300000.0 -12583100000.0 -12715900000.0 -12549700000.0 -12715100000.0 -12666800000.0 -12614000000.0 -12654000000.0 -12610200000.0 -12579000000.0 -12648700000.0 -12650100000.0 -12681500000.0 -12826400000.0 -12690300000.0 -12698200000.0 -12762900000.0 -12714200000.0 -12557500000.0 -12563300000.0 -12549700000.0 -12586700000.0 -12552900000.0 -12551900000.0 -12562500000.0 -12551700000.0 -12573800000.0 -12636800000.0 -12549700000.0 -12582400000.0 -12593300000.0 -12562900000.0 -12552000000.0 -12557700000.0 -12550000000.0 -12565300000.0 -12577600000.0 -12588700000.0 -12553300000.0 -12552100000.0 -12550000000.0 -12551800000.0 -12556400000.0 -12549700000.0 -12559600000.0 -12550300000.0 -12549900000.0 -12551400000.0 -12551600000.0 -12571700000.0 -12569900000.0 -12634100000.0 -12632000000.0 -12736000000.0 -12590700000.0 -12571300000.0 -12584300000.0 -12898200000.0 -12823900000.0 -12812900000.0 -12785600000.0 -12833100000.0 -13199600000.0 -12550200000.0 -12861700000.0 -13016900000.0 -12720900000.0 -12790100000.0 -12673300000.0 -13162800000.0 -12562300000.0 -12859000000.0 -13361500000.0 -13200900000.0 -13263900000.0 -13329900000.0 -12979200000.0 -12913700000.0 -13062700000.0 -12691000000.0 -12772800000.0 -12549700000.0 -13320700000.0 -12897500000.0 -12563800000.0 -12925100000.0 -12838200000.0 -12564900000.0 -12571600000.0 -12560300000.0 -12601800000.0 -12613900000.0 -12627700000.0 -12644200000.0 -12634800000.0 -12549900000.0 -12620700000.0 -12614800000.0 -12551100000.0 -12571000000.0 -12570100000.0 -12659700000.0 -12619200000.0 -12616400000.0 -12581400000.0 -12635200000.0 -12603800000.0 -12694800000.0 -12601100000.0 -12578300000.0 -12596200000.0 -12615000000.0 -12611000000.0 -12610400000.0 -12632400000.0 -12607400000.0 -12693000000.0 -12550400000.0 -12549800000.0 -12857700000.0 -12631100000.0 -12584400000.0 -12549700000.0 -12584100000.0 -12584000000.0 -12575900000.0 -12577000000.0 -12576700000.0 -12554800000.0 -12614300000.0 -12622400000.0 -12612900000.0 -12581900000.0 -12584500000.0 -12584500000.0 -12568700000.0 -12573900000.0 -12550000000.0 -12560900000.0 -12549700000.0 -12551900000.0 -12549900000.0 -12556000000.0 -12552400000.0 -12567500000.0 -12551900000.0 -12556500000.0 -12551700000.0 -12549900000.0 -12576300000.0 -12560300000.0 -12554600000.0 -12617500000.0 -12550400000.0 -12552400000.0 -12611500000.0 -12746000000.0 -12697100000.0 -12738000000.0 -12852400000.0 -12623700000.0 -12855700000.0 -12562500000.0 -12648600000.0 -12627100000.0 -12832700000.0 -12582200000.0 -13010400000.0 -13048600000.0 -12763900000.0 -13046300000.0 -12568500000.0 -12704900000.0 -12682700000.0 -13492400000.0 -14185900000.0 -12626900000.0 -12612400000.0 -12679100000.0 -13165200000.0 -12581300000.0 -12689600000.0 -12549700000.0 -13106700000.0 -12707200000.0 -12608700000.0 -12689900000.0 -12870300000.0 -12651400000.0 -12655700000.0 -12639300000.0 -12638100000.0 -12589100000.0 -12646100000.0 -12581700000.0 -12550800000.0 -12636500000.0 -12564300000.0 -12591000000.0 -12557900000.0 -12597700000.0 -12562100000.0 -12577400000.0 -12582900000.0 -12549700000.0 -12619400000.0 -12670800000.0 -12549700000.0 -12591400000.0 -12553000000.0 -12551000000.0 -12550000000.0 -12574700000.0 -12560100000.0 -12609500000.0 -12662400000.0 -12673100000.0 -12575400000.0 -12640900000.0 -12790400000.0 -12626100000.0 -12605000000.0 -12563100000.0 -12549700000.0 -12557900000.0 -12555200000.0 -12552900000.0 -12556800000.0 -12555400000.0 -12553200000.0 -12555800000.0 -12572600000.0 -12568600000.0 -12555200000.0 -12557800000.0 -12558600000.0 -12561100000.0 -12568400000.0 -12574100000.0 -12560100000.0 -12563200000.0 -12565700000.0 -12572300000.0 -12570600000.0 -12564900000.0 -12571100000.0 -12563600000.0 -12587600000.0 -12600400000.0 -12686500000.0 -12649700000.0 -12651500000.0 -12715200000.0 -12568400000.0 -12621500000.0 -12555300000.0 -12759500000.0 -12645600000.0 -12565700000.0 -12595200000.0 -13002200000.0 -12692500000.0 -12596400000.0 -13216900000.0 -12549700000.0 -12924000000.0 -12760500000.0 -12550600000.0 -13559800000.0 -12601000000.0 -13714100000.0 -12567700000.0 -12552200000.0 -12562700000.0 -13272000000.0 -12564700000.0 -13209800000.0 -12826800000.0 -12868100000.0 -13079500000.0 -12894500000.0 -12761100000.0 -12876900000.0 -12925400000.0 -12884300000.0 -12671100000.0 -12637100000.0 -12643700000.0 -12643900000.0 -12721000000.0 -12728800000.0 -12643000000.0 -12560100000.0 -12617600000.0 -12620000000.0 -12589000000.0 -12585500000.0 -12653700000.0 -12579500000.0 -12576400000.0 -12603100000.0 -12614400000.0 -12733300000.0 -12582700000.0 -12575700000.0 -12659300000.0 -12631100000.0 -12611000000.0 -12612700000.0 -12549900000.0 -12567600000.0 -12589500000.0 -12550800000.0 -12575100000.0 -12713500000.0 -12580700000.0 -12597500000.0 -12557800000.0 -12551300000.0 -12555300000.0 -12549700000.0 -12549700000.0 -12550000000.0 -12554000000.0 -12551800000.0 -12550000000.0 -12549700000.0 -12555100000.0 -12558300000.0 -12549900000.0 -12549700000.0 -12549700000.0 -12549800000.0 -12549700000.0 -12556400000.0 -12569000000.0 -12567800000.0 -12566300000.0 -12565500000.0 -12562200000.0 -12560400000.0 -12568700000.0 -12580100000.0 -12598400000.0 -12617100000.0 -12675600000.0 -12569600000.0 -12593900000.0 -12583200000.0 -12692600000.0 -12627500000.0 -12612500000.0 -12655300000.0 -12782400000.0 -12551400000.0 -12800000000.0 -12815700000.0 -12702200000.0 -12550900000.0 -12726000000.0 -12815300000.0 -12993800000.0 -12875400000.0 -13107200000.0 -12557400000.0 -12609100000.0 -13285500000.0 -13004100000.0 -12682200000.0 -13152400000.0 -12799600000.0 -13578500000.0 -12613700000.0 -12557800000.0 -12694400000.0 -13785400000.0 -12552000000.0 -13365800000.0 -13696800000.0 -13130700000.0 -13232100000.0 -12638200000.0 -12875200000.0 -12742600000.0 -12641800000.0 -12556800000.0 -12549700000.0 -12652200000.0 -12665700000.0 -12703700000.0 -12708100000.0 -12722900000.0 -12649400000.0 -12753600000.0 -12677000000.0 -12581200000.0 -12555300000.0 -12564000000.0 -12549700000.0 -12551600000.0 -12549700000.0 -12611400000.0 -12566100000.0 -12571700000.0 -12571700000.0 -12579900000.0 -12669100000.0 -12575800000.0 -12575700000.0 -12579700000.0 -12563700000.0 -12576600000.0 -12605200000.0 -12556200000.0 -12555700000.0 -12580700000.0 -12551000000.0 -12646500000.0 -12624700000.0 -12597400000.0 -12590900000.0 -12552000000.0 -12550900000.0 -12552900000.0 -12549700000.0 -12549700000.0 -12550100000.0 -12552700000.0 -12551000000.0 -12549700000.0 -12549700000.0 -12549700000.0 -12554000000.0 -12549800000.0 -12549700000.0 -12549700000.0 -12550500000.0 -12549900000.0 -12555900000.0 -12551700000.0 -12551700000.0 -12549900000.0 -12552300000.0 -12555700000.0 -12555000000.0 -12562900000.0 -12567900000.0 -12567300000.0 -12564300000.0 -12554300000.0 -12590600000.0 -12606100000.0 -12569600000.0 -12611400000.0 -12627600000.0 -12649900000.0 -12662600000.0 -12677500000.0 -12676500000.0 -12716900000.0 -12591500000.0 -12894000000.0 -13005600000.0 -12850200000.0 -13004900000.0 -13238600000.0 -13321500000.0 -13737400000.0 -13290800000.0 -13700900000.0 -14018900000.0 -13476800000.0 -13248800000.0 -13177300000.0 -13147900000.0 -12909200000.0 -12666400000.0 -12796300000.0 -13260700000.0 -12927500000.0 -12865400000.0 -12798300000.0 -12636800000.0 -12572400000.0 -12582800000.0 -12571900000.0 -12622500000.0 -12556400000.0 -12566600000.0 -12562200000.0 -12572900000.0 -12622200000.0 -12645500000.0 -12578600000.0 -12612600000.0 -12573200000.0 -12585300000.0 -12570300000.0 -12564600000.0 -12560900000.0 -12595200000.0 -12549900000.0 -12553400000.0 -12550600000.0 -12553000000.0 -12618800000.0 -12553800000.0 -12551300000.0 -12575700000.0 -12549700000.0 -12555100000.0 -12623300000.0 -12609100000.0 -12637900000.0 -12652400000.0 -12563600000.0 -12575100000.0 -12551900000.0 -12550300000.0 -12549700000.0 -12550600000.0 -12549700000.0 -12549700000.0 -12549800000.0 -12550700000.0 -12550100000.0 -12549700000.0 -12549700000.0 -12549700000.0 -12551300000.0 -12549700000.0 -12549700000.0 -12549700000.0 -12549700000.0 -12550100000.0 -12553800000.0 -12552500000.0 -12552500000.0 -12552200000.0 -12550300000.0 -12550700000.0 -12551200000.0 -12555300000.0 -12551600000.0 -12553400000.0 -12561800000.0 -12557400000.0 -12554100000.0 -12566900000.0 -12553200000.0 -12559300000.0 -12568900000.0 -12583500000.0 -12589800000.0 -12562900000.0 -12589900000.0 -12667200000.0 -12784100000.0 -12853600000.0 -12963400000.0 -12561400000.0 -12684500000.0 -13049200000.0 -13045400000.0 -12664000000.0 -13466600000.0 -12730600000.0 -12874900000.0 -13192400000.0 -12843700000.0 -12961500000.0 -12604100000.0 -12737400000.0 -12739400000.0 -12689800000.0 -13270500000.0 -12566300000.0 -12629300000.0 -12594600000.0 -12625800000.0 -12620000000.0 -12619500000.0 -12556500000.0 -12551600000.0 -12550900000.0 -12552200000.0 -12557000000.0 -12557600000.0 -12555700000.0 -12551800000.0 -12585400000.0 -12576100000.0 -12549700000.0 -12556700000.0 -12555000000.0 -12555100000.0 -12562900000.0 -12561700000.0 -12560500000.0 -12564000000.0 -12570500000.0 -12549700000.0 -12575600000.0 -12570300000.0 -12552000000.0 -12557900000.0 -12552600000.0 -12560600000.0 -12554500000.0 -12552600000.0 -12561400000.0 -12553400000.0 -12606900000.0 -12551800000.0 -12592400000.0 -12590100000.0 -12570100000.0 -12646700000.0 -12654300000.0 -12631300000.0 -12699900000.0 -12751800000.0 -13025300000.0 -12920400000.0 -13070200000.0 -12895700000.0 -12776800000.0 -12884100000.0 -13496700000.0 -12550500000.0 -12847700000.0 -12852900000.0 -13318700000.0 -12824300000.0 -12683300000.0 -12739400000.0 -13094800000.0 -12555800000.0 -12645100000.0 -12588900000.0 -12870300000.0 -12627800000.0 -12570200000.0 -13393800000.0 -12878800000.0 -12915400000.0 -12549700000.0 -12793000000.0 -12655800000.0 -13057400000.0 -13265600000.0 -13206800000.0 -13033500000.0 -12751500000.0 -12699200000.0 -12708800000.0 -13054300000.0 -12596900000.0 -12664200000.0 -12703700000.0 -12765400000.0 -12707800000.0 -12698300000.0 -12659400000.0 -13034300000.0 -12866200000.0 -12594100000.0 -13002500000.0 -13254800000.0 -12600300000.0 -13736100000.0 -13905900000.0 -12800700000.0 -13023300000.0 -12810800000.0 -12682600000.0 -12549700000.0 -12715400000.0 -13169700000.0 -12567500000.0 -12580900000.0 -12662600000.0 -12625700000.0 -12690200000.0 -12940500000.0 -12552100000.0 -12857900000.0 -12586700000.0 -12588800000.0 -12598000000.0 -13645100000.0 -12716300000.0 -12549700000.0 -12608400000.0 -12549700000.0 -12625500000.0 -12733600000.0 -12703200000.0 -13018900000.0 -12568800000.0 -12569700000.0 -12571900000.0 -12549700000.0 -12549700000.0 -12576800000.0 -12737900000.0 -12723900000.0 -12685600000.0 -13031100000.0 -12962200000.0 -12631300000.0 -12917900000.0 -12756100000.0 -12760500000.0 -12686900000.0 -13008300000.0 -12656600000.0 -12841200000.0 -12846300000.0 -12597400000.0 -12613400000.0 -12568200000.0 -12549700000.0 -12549700000.0 -12549700000.0 -12549700000.0 -12568600000.0 -12683600000.0 -12667400000.0 -12781000000.0 -12699800000.0 -12642500000.0 -12776800000.0 -12643700000.0 -13652400000.0 -12601600000.0 -12623600000.0 -12662500000.0 -12875600000.0 -12653500000.0 -12965900000.0 -12701300000.0 -12578400000.0 -12562700000.0 -12549700000.0 -12549700000.0 -12549700000.0 -12549700000.0 -12549700000.0 -12549700000.0 -12549700000.0 -12549700000.0 -12549700000.0 -12549700000.0 -12549700000.0 -12549700000.0 -12549700000.0 -12549700000.0 -12549700000.0 -12549700000.0 -12549700000.0 -12549700000.0 -12549700000.0 -12549700000.0 -12549700000.0 -12549700000.0 -12549700000.0 -12549700000.0 -12549700000.0 -12549700000.0 -12549700000.0 -12549700000.0 -12549700000.0 -12549700000.0 -12549700000.0 -12549700000.0 -12549700000.0 -12549700000.0 -12549700000.0 -12558900000.0 -12662300000.0 -12591800000.0 -12613500000.0 -12603300000.0 -12592900000.0 -12736100000.0 -13012500000.0 -12809300000.0 -12835500000.0 -12799700000.0 -13682500000.0 -12649400000.0 -12574200000.0 -12635500000.0 -12570400000.0 -12941700000.0 -12977500000.0 -12558700000.0 -12653800000.0 -12551900000.0 -12634800000.0 -12708200000.0 -12572600000.0 -12552600000.0 -12549700000.0 -12549700000.0 -12549700000.0 -12549700000.0 -12549700000.0 -12549700000.0 -12549700000.0 -12549700000.0 -12549700000.0 -12549700000.0 -12549700000.0 -12549700000.0 -12549700000.0 -12549700000.0 -12549700000.0 -12549700000.0 -12549700000.0 -12549700000.0 -12549700000.0 -12549700000.0 -12549700000.0 -12549700000.0 -12549700000.0 -12549700000.0 -12549700000.0 -12549700000.0 -12641100000.0 -12553800000.0 -12593100000.0 -12695900000.0 -12795800000.0 -12948900000.0 -12715800000.0 -12812900000.0 -13254200000.0 -12673300000.0 -12563600000.0 -12713500000.0 -12849400000.0 -12748400000.0 -12807800000.0 -12550600000.0 -12577100000.0 -12711300000.0 -12553700000.0 -12557900000.0 -12552500000.0 -12549800000.0 -12549700000.0 -12549700000.0 -12549700000.0 -12549700000.0 -12549700000.0 -12549700000.0 -12549700000.0 -12549700000.0 -12549700000.0 -12549700000.0 -12549700000.0 -12549700000.0 -12549700000.0 -12549700000.0 -12549700000.0 -12549700000.0 -12549700000.0 -12549700000.0 -12549700000.0 -12549700000.0 -12549700000.0 -12549700000.0 -12549700000.0 -12549700000.0 -12549700000.0 -12549700000.0 -12549700000.0 -12549700000.0 -12549700000.0 -12549700000.0 -12549700000.0 -12549700000.0 -12549700000.0 -12549700000.0 -12549700000.0 -12549700000.0 -12549700000.0 -12549700000.0 -12549700000.0 -12549700000.0 -12549700000.0 -12549700000.0 -12549700000.0 -12549700000.0 -12551400000.0 -12558100000.0 -12562400000.0 -12569400000.0 -12577400000.0 -12670200000.0 -12609900000.0 -12607400000.0 -12763900000.0 -12651800000.0 -12697900000.0 -12602600000.0 -12656800000.0 -12730800000.0 -13293800000.0 -13105300000.0 -13030900000.0 -12918500000.0 -12575700000.0 -12566000000.0 -12660400000.0 -12670900000.0 -12566900000.0 -12576500000.0 -12558200000.0 -12550300000.0 -12551100000.0 -12550000000.0 -12549700000.0 -12549700000.0 -12549700000.0 -12549700000.0 -12549700000.0 -12549700000.0 -12549700000.0 -12549700000.0 -12549700000.0 -12549700000.0 -12549700000.0 -12549700000.0 -12549700000.0 -12549700000.0 -12549700000.0 -12549700000.0 -12549700000.0 -12549700000.0 -12549700000.0 -12549700000.0 -12549700000.0 -12549700000.0 -12549700000.0 -12549700000.0 -12549700000.0 -12549700000.0 -12549700000.0 -12549700000.0 -12549700000.0 -12549700000.0 -12549700000.0 -12549700000.0 -12549700000.0 -12549700000.0 -12549700000.0 -12549700000.0 -12549700000.0 -12549700000.0 -12549700000.0 -12549700000.0 -12549700000.0 -12549700000.0 -12549700000.0 -12552700000.0 -12605100000.0 -12567600000.0 -12666700000.0 -12685800000.0 -12659900000.0 -12696100000.0 -12550100000.0 -12755200000.0 -12700100000.0 -12758500000.0 -12629100000.0 -12964000000.0 -12883200000.0 -13007600000.0 -12549700000.0 -12764000000.0 -12887900000.0 -12667600000.0 -12630000000.0 -12600000000.0 -12568800000.0 -12551800000.0 -12550300000.0 -12549700000.0 -12549700000.0 -12549700000.0 -12549700000.0 -12549700000.0 -12549700000.0 -12549700000.0 -12549700000.0 -12549700000.0 -12549700000.0 -12549700000.0 -12549700000.0 -12549700000.0 -12549700000.0 -12549700000.0 -12549700000.0 -12549700000.0 -12549700000.0 -12549700000.0 -12549700000.0 -12549700000.0 -12549700000.0 -12549700000.0 -12549700000.0 -12549700000.0 -12549700000.0 -12549700000.0 -12549700000.0 -12549700000.0 -12549700000.0 -12549700000.0 -12549700000.0 -12549700000.0 -12549700000.0 -12549700000.0 -12549700000.0 -12549700000.0 -12549700000.0 -12549700000.0 -12549700000.0 -12549700000.0 -12549700000.0 -12549700000.0 -12550000000.0 -12549700000.0 -12550000000.0 -12552800000.0 -12554200000.0 -12568300000.0 -12583000000.0 -12576500000.0 -12590600000.0 -12565600000.0 -12778900000.0 -12738000000.0 -12668800000.0 -12637800000.0 -12819200000.0 -12681600000.0 -12913500000.0 -12554800000.0 -12846100000.0 -13090100000.0 -12830000000.0 -12595800000.0 -12551800000.0 -12554900000.0 -12549700000.0 -12550000000.0 -12549800000.0 -12549700000.0 -12549700000.0 -12549700000.0 -12549700000.0 -12549700000.0 -12549700000.0 -12549700000.0 -12549700000.0 -12549700000.0 -12549700000.0 -12549700000.0 -12549700000.0 -12549700000.0 -12549700000.0 -12549700000.0 -12549700000.0 -12549700000.0 -12549700000.0 -12549700000.0 -12549700000.0 -12549700000.0 -12549700000.0 -12549700000.0 -12549700000.0 -12549700000.0 -12549700000.0 -12549700000.0 -12549700000.0 -12549700000.0 -12549700000.0 -12549700000.0 -12549700000.0 -12549700000.0 -12549700000.0 -12549700000.0 -12549700000.0 -12549700000.0 -12549700000.0 -12549700000.0 -12549700000.0 -12549700000.0 -12549700000.0 -12549700000.0 -12549700000.0 -12549700000.0 -12549700000.0 -12549700000.0 -12549700000.0 -12549700000.0 -12549700000.0 -12549700000.0 -12557400000.0 -12596500000.0 -12628100000.0 -12555300000.0 -12711400000.0 -12549900000.0 -12590600000.0 -12668500000.0 -12786400000.0 -12811400000.0 -12644200000.0 -12716800000.0 -12630400000.0 -12589400000.0 -12839800000.0 -12573900000.0 -12771900000.0 -12561900000.0 -12821300000.0 -12671500000.0 -12688100000.0 -12580800000.0 -12555500000.0 -12554400000.0 -12561700000.0 -12550800000.0 -12549700000.0 -12549700000.0 -12549700000.0 -12549700000.0 -12549700000.0 -12549700000.0 -12549700000.0 -12549700000.0 -12549700000.0 -12549700000.0 -12549700000.0 -12549700000.0 -12549700000.0 -12549700000.0 -12549700000.0 -12549700000.0 -12549700000.0 -12549700000.0 -12549700000.0 -12549700000.0 -12549700000.0 -12549700000.0 -12549700000.0 -12549700000.0 -12549700000.0 -12549700000.0 -12549700000.0 -12549700000.0 -12549700000.0 -12549700000.0 -12549700000.0 -12549700000.0 -12549700000.0 -12549700000.0 -12549700000.0 -12549700000.0 -12549700000.0 -12549700000.0 -12549700000.0 -12549700000.0 -12549700000.0 -12549700000.0 -12554100000.0 -12708400000.0 -12559200000.0 -12571900000.0 -12644400000.0 -12603300000.0 -12587200000.0 -12551800000.0 -12571100000.0 -12578400000.0 -12717000000.0 -12549700000.0 -12692200000.0 -12866100000.0 -12761700000.0 -12549700000.0 -12683700000.0 -12585000000.0 -12567500000.0 -12549700000.0 -12549700000.0 -12549700000.0 -12549700000.0 -12549700000.0 -12549700000.0 -12549700000.0 -12549700000.0 -12549700000.0 -12549700000.0 -12549700000.0 -12549700000.0 -12549700000.0 -12549700000.0 -12549700000.0 -12549700000.0 -12549700000.0 -12549700000.0 -12549700000.0 -12549700000.0 -12549700000.0 -12549700000.0 -12549700000.0 -12549700000.0 -12549700000.0 -12549700000.0 -12549700000.0 -12549700000.0 -12549700000.0 -12549700000.0 -12549700000.0 -12549700000.0 -12549700000.0 -12549700000.0 -12549700000.0 -12549700000.0 -12549700000.0 -12549700000.0 -12549700000.0 -12549700000.0 -12549700000.0 -12549700000.0 -12549700000.0 -12556800000.0 -12610000000.0 -12655900000.0 -12561300000.0 -12572600000.0 -12563200000.0 -12567000000.0 -12568100000.0 -12553700000.0 -12577800000.0 -12613000000.0 -12682800000.0 -12553000000.0 -12566900000.0 -12559500000.0 -12768200000.0 -12556300000.0 -12816500000.0 -12549700000.0 -12555900000.0 -12634100000.0 -12562000000.0 -12549700000.0 -12549700000.0 -12549700000.0 -12549700000.0 -12549700000.0 -12549700000.0 -12549700000.0 -12549700000.0 -12549700000.0 -12549700000.0 -12549700000.0 -12549700000.0 -12549700000.0 -12549700000.0 -12549700000.0 -12549700000.0 -12549700000.0 -12549700000.0 -12549700000.0 -12549700000.0 -12549700000.0 -12549700000.0 -12549700000.0 -12549700000.0 -12549700000.0 -12549700000.0 -12549700000.0 -12549700000.0 -12549700000.0 -12549700000.0 -12549700000.0 -12549700000.0 -12549700000.0 -12549700000.0 -12549700000.0 -12549700000.0 -12549700000.0 -12561200000.0 -12575200000.0 -12622600000.0 -12572000000.0 -12566300000.0 -12573900000.0 -12581600000.0 -12550000000.0 -12619500000.0 -12615700000.0 -12551000000.0 -12827400000.0 -12575800000.0 -12791800000.0 -12628300000.0 -12636100000.0 -12560000000.0 -12549700000.0 -12549700000.0 -12549700000.0 -12549700000.0 -12549700000.0 -12549700000.0 -12549700000.0 -12549700000.0 -12549700000.0 -12549700000.0 -12549700000.0 -12549700000.0 -12549700000.0 -12549700000.0 -12549700000.0 -12549700000.0 -12549700000.0 -12549700000.0 -12549700000.0 -12549700000.0 -12549700000.0 -12549700000.0 -12549700000.0 -12549700000.0 -12549700000.0 -12549700000.0 -12549700000.0 -12549700000.0 -12549700000.0 -12549700000.0 -12549700000.0 -12549700000.0 -12549700000.0 -12549700000.0 -12549700000.0 -12549700000.0 -12549700000.0 -12549700000.0 -12549700000.0 -12549700000.0 -12549700000.0 -12549700000.0 -12549700000.0 -12549700000.0 -12549700000.0 -12550600000.0 -12591500000.0 -12573200000.0 -12554000000.0 -12566200000.0 -12565300000.0 -12576800000.0 -12609200000.0 -12602900000.0 -12677400000.0 -12631500000.0 -12723500000.0 -12638100000.0 -12549700000.0 -12648200000.0 -12646700000.0 -12589200000.0 -12610600000.0 -12584600000.0 -12565200000.0 -12556400000.0 -12551700000.0 -12549700000.0 -12549700000.0 -12549700000.0 -12549700000.0 -12549700000.0 -12549700000.0 -12549700000.0 -12549700000.0 -12549700000.0 -12549700000.0 -12549700000.0 -12549700000.0 -12549700000.0 -12549700000.0 -12549700000.0 -12549700000.0 -12549700000.0 -12549700000.0 -12549700000.0 -12549700000.0 -12549700000.0 -12549700000.0 -12549700000.0 -12549700000.0 -12549700000.0 -12549700000.0 -12549700000.0 -12549700000.0 -12549700000.0 -12549700000.0 -12549700000.0 -12549800000.0 -12571000000.0 -12584700000.0 -12552800000.0 -12550300000.0 -12565800000.0 -12584000000.0 -12642700000.0 -12587700000.0 -12576800000.0 -12604700000.0 -12554000000.0 -12657900000.0 -12673200000.0 -12672300000.0 -12630200000.0 -12564000000.0 -12588700000.0 -12550200000.0 -12552600000.0 -12549700000.0 -12549700000.0 -12549700000.0 -12549700000.0 -12549700000.0 -12549700000.0 -12549700000.0 -12549700000.0 -12549700000.0 -12549700000.0 -12549700000.0 -12549700000.0 -12549700000.0 -12549700000.0 -12549700000.0 -12549700000.0 -12549700000.0 -12549700000.0 -12549700000.0 -12549700000.0 -12549700000.0 -12549700000.0 -12549700000.0 -12552100000.0 -12549700000.0 -12584000000.0 -12582100000.0 -12588500000.0 -12554200000.0 -12595400000.0 -12608500000.0 -12597200000.0 -12607400000.0 -12550400000.0 -12637100000.0 -12555200000.0 -12576900000.0 -12645300000.0 -12681400000.0 -12570600000.0 -12555800000.0 -12606200000.0 -12596200000.0 -12582800000.0 -12550500000.0 -12567100000.0 -12576000000.0 -12569000000.0 -12549700000.0 -12549700000.0 -12549700000.0 -12549700000.0 -12549700000.0 -12549700000.0 -12549700000.0 -12549700000.0 -12549700000.0 -12549700000.0 -12549700000.0 -12549700000.0 -12549700000.0 -12549700000.0 -12549700000.0 -12549700000.0 -12549700000.0 -12549700000.0 -12549700000.0 -12549700000.0 -12549700000.0 -12549700000.0 -12549700000.0 -12549700000.0 -12549700000.0 -12559100000.0 -12591200000.0 -12563100000.0 -12642800000.0 -12585800000.0 -12620400000.0 -12644900000.0 -12554100000.0 -12549700000.0 -12644500000.0 -12588600000.0 -12582400000.0 -12549700000.0 -12549900000.0 -12549700000.0 -12564900000.0 -12555100000.0 -12560600000.0 -12549700000.0 -12549700000.0 -12549700000.0 -12549700000.0 -12549700000.0 -12549700000.0 -12549700000.0 -12549700000.0 -12549700000.0 -12549700000.0 -12549700000.0 -12549700000.0 -12549700000.0 -12549700000.0 -12549700000.0 -12552600000.0 -12561600000.0 -12569100000.0 -12563000000.0 -12556600000.0 -12560600000.0 -12560500000.0 -12559900000.0 -12556300000.0 -12562200000.0 -12581400000.0 -12588900000.0 -12556600000.0 -12562500000.0 -12616500000.0 -12595000000.0 -12555000000.0 -12551400000.0 -12554300000.0 -12549700000.0 -12582200000.0 -12559900000.0 -12563300000.0 -12551700000.0 -12553000000.0 -12549700000.0 -12549700000.0 -12549700000.0 -12549700000.0 -12549700000.0 -12549700000.0 -12549700000.0 -12549700000.0 -12549700000.0 -12549700000.0 -12549700000.0 -12549700000.0 -12549700000.0 -12549700000.0 -12550400000.0 -12550900000.0 -12553400000.0 -12562300000.0 -12550300000.0 -12551800000.0 -12550500000.0 -12565400000.0 -12551400000.0 -12557300000.0 -12566600000.0 -12550000000.0 -12568200000.0 -12563300000.0 -12617900000.0 -12578600000.0 -12579700000.0 -12549700000.0 -12553900000.0 -12551500000.0 -12549700000.0 -12549700000.0 -12549700000.0 -12549700000.0 -12549700000.0 -12549700000.0 -12549700000.0 -12549700000.0 -12549700000.0 -12549700000.0 -12549900000.0 -12557100000.0 -12549800000.0 -12549700000.0 -12549700000.0 -12553300000.0 -12559300000.0 -12551800000.0 -12549700000.0 -12562700000.0 -12563600000.0 -12557500000.0 -12568200000.0 -12557000000.0 -12553700000.0 -12558200000.0 -12549700000.0 -12585300000.0 -12550900000.0 -12572200000.0 -12549700000.0 -12549700000.0 -12549700000.0 -12549700000.0 -12549700000.0 -12549700000.0 -12549700000.0 -12549700000.0 -12549700000.0 -12549700000.0 -12550000000.0 -12549700000.0 -12552600000.0 -12551600000.0 -12550600000.0 -12550200000.0 -12550200000.0 -12549900000.0 -12555300000.0 -12549700000.0 -12550400000.0 -12561700000.0 -12556000000.0 -12549700000.0 -12549700000.0 -12554000000.0 -12551400000.0 -12550000000.0 -12550200000.0 -12564500000.0 -12553700000.0 -12549700000.0 -12549700000.0 -12549700000.0 -12549700000.0 -12549700000.0 -12549700000.0 -12550200000.0 -12549900000.0 -12550800000.0 -12550600000.0 -12550800000.0 -12551200000.0 -12554400000.0 -12553400000.0 -12556000000.0 -12550200000.0 -12550700000.0 -12550200000.0 -12549700000.0 -12550100000.0 -12550500000.0 -12549700000.0 -12549800000.0 -12552100000.0 -12550200000.0 -12549700000.0 -12549700000.0 -12549700000.0 -12549700000.0 -12549700000.0 -12549700000.0 -12549700000.0 -12549700000.0 -12549700000.0 -12549700000.0 -12549700000.0 -12549700000.0 -12549700000.0 -12549700000.0 -12549700000.0 -12549700000.0 -12550000000.0 -12549800000.0 -12550100000.0 -12549800000.0 -12549700000.0 -12549700000.0 -12549700000.0 -12549700000.0 -12549700000.0 -12549700000.0 -12549700000.0 -12549700000.0 -12549700000.0 -12549700000.0 -12549700000.0 -12549700000.0 -12549700000.0 -12549700000.0 -12549700000.0 -12549700000.0 -12549700000.0 -12549700000.0 -12549700000.0 -12549700000.0 -12549700000.0 -12549700000.0 -2.6662e+12 -4.1192e+12 -3.67629e+12 -4.85625e+12 -4.03948e+12 -4.10247e+12 -3.92447e+12 -3.77899e+12 -3.5396e+12 -3.18929e+12 -5.79686e+12 -3.0059e+12 -3.50227e+12 -5.1079e+12 -4.78357e+12 -6.33921e+12 -4.40369e+12 -3.20055e+12 -3.93256e+12 -3.02179e+12 -4.29742e+12 -5.18346e+12 -5.4022e+12 -4.94206e+12 -4.90916e+12 -3.71452e+12 -3.63946e+12 -3.92219e+12 -4.40935e+12 -4.04345e+12 -5.4429e+12 -5.24073e+12 -3.43272e+12 -2.62406e+12 -2.99123e+12 -3.78924e+12 -4.643e+12 -6.27674e+12 -3.59989e+12 -4.53944e+12 -4.62747e+12 -3.84013e+12 -3.6188e+12 -3.15818e+12 -3.80229e+12 -3.62805e+12 -2.34955e+12 -2.70289e+12 -3.72937e+12 -2.78589e+12 -2.11325e+12 -1.79819e+12 -3.46874e+12 -4.83041e+12 -5.38796e+12 -4.02882e+12 -6.67587e+12 -4.47735e+12 -3.01603e+12 -4.72393e+12 -4.49725e+12 -4.23505e+12 -3.9313e+12 -5.93007e+12 -6.56107e+12 -5.32758e+12 -3.74547e+12 -5.32226e+12 -7.38296e+12 -4.56612e+12 -5.02204e+12 -5.73385e+12 -4.63462e+12 -4.45005e+12 -6.66628e+12 -5.9994e+12 -2.57498e+12 -4.09346e+12 -3.83118e+12 -3.76584e+12 -4.6684e+12 -4.05315e+12 -3.93123e+12 -5.22557e+12 -4.63447e+12 -3.89924e+12 -4.43642e+12 -4.5694e+12 -2.70912e+12 -5.22949e+12 -4.20043e+12 -5.81509e+12 -6.51614e+12 -6.17024e+12 -5.76136e+12 -5.16394e+12 -4.69922e+12 -6.52528e+12 -4.18221e+12 -4.73684e+12 -6.32736e+12 -4.00044e+12 -4.8925e+12 -2.84728e+12 -2.59616e+12 -6.61941e+12 -5.44341e+12 -8.60219e+12 -6.14724e+12 -6.10249e+12 -7.72857e+12 -1.11379e+13 -5.47765e+12 -7.25693e+12 -4.07394e+12 -5.71513e+12 -4.7297e+12 -7.20123e+12 -7.03345e+12 -1.86721e+12 -5.1993e+12 -6.89498e+12 -4.28013e+12 -4.76837e+12 -6.09297e+12 -2.51642e+12 -5.826e+12 -5.47122e+12 -6.83303e+12 -7.16537e+12 -1.11865e+13 -5.34748e+12 -6.22314e+12 -6.34275e+12 -5.45363e+12 -9.0773e+12 -7.69239e+12 -8.75499e+12 -5.6141e+12 -5.77414e+12 -8.90954e+12 -9.29282e+12 -8.04022e+12 -5.47368e+12 -5.22502e+12 -7.45475e+12 -6.3225e+12 -7.7026e+12 -7.09408e+12 -6.63263e+12 -6.99154e+12 -4.73651e+12 -8.27391e+12 -7.48687e+12 -1.08741e+13 -2.77197e+12 -3.96098e+12 -3.16822e+12 -5.0061e+12 -7.74535e+12 -8.23771e+12 -6.03933e+12 -4.82888e+12 -5.29942e+12 -6.86577e+12 -6.56565e+12 -2.90032e+12 -4.34568e+12 -4.13094e+12 -4.9432e+12 -4.69525e+12 -5.84862e+12 -5.06332e+12 -6.46094e+12 -9.18995e+12 -4.99748e+12 -4.08555e+12 -6.0758e+12 -3.85408e+12 -7.11868e+12 -6.39529e+12 -7.20851e+12 -3.71618e+12 -4.77234e+12 -4.94214e+12 -3.70323e+12 -2.42818e+12 -5.41997e+12 -4.30294e+12 -8.6895e+12 -8.11264e+12 -2.2844e+12 -5.25351e+12 -1.01805e+13 -3.26315e+12 -4.98499e+12 -3.96674e+12 -2.3648e+12 -7.16213e+12 -5.19992e+12 -7.55254e+12 -4.2994e+12 -4.2404e+12 -6.28305e+12 -6.16054e+12 -1.06624e+13 -6.56335e+12 -1.03292e+13 -7.25282e+12 -5.23791e+12 -9.01012e+12 -7.81559e+12 -5.34087e+12 -6.56861e+12 -7.66199e+12 -7.36259e+12 -4.62541e+12 -6.7444e+12 -8.83331e+12 -1.03484e+13 -5.11335e+12 -7.65009e+12 -7.80333e+12 -4.61383e+12 -5.65898e+12 -4.93813e+12 -8.35177e+12 -6.43989e+12 -6.83782e+12 -8.3998e+12 -6.82245e+12 -6.28102e+12 -6.22306e+12 -7.09912e+12 -5.61593e+12 -5.49259e+12 -1.48916e+12 -2.93039e+12 -4.98117e+12 -4.30405e+12 -5.56544e+12 -6.43768e+12 -8.51806e+12 -1.02332e+13 -6.92372e+12 -5.62824e+12 -4.9365e+12 -6.37864e+12 -7.27731e+12 -3.83055e+12 -6.46065e+12 -8.29538e+12 -7.11513e+12 -4.96815e+12 -6.02526e+12 -8.04354e+12 -6.43918e+12 -5.9213e+12 -9.84479e+12 -5.3828e+12 -7.23168e+12 -8.19713e+12 -8.12561e+12 -4.11537e+12 -5.45864e+12 -4.7046e+12 -6.52303e+12 -7.27194e+12 -6.95524e+12 -5.09009e+12 -7.79703e+12 -6.07307e+12 -5.41252e+12 -5.11363e+12 -7.43782e+12 -9.0871e+12 -4.72284e+12 -6.38813e+12 -1.74862e+12 -3.55674e+12 -4.62736e+12 -6.71483e+12 -6.87181e+12 -4.23221e+12 -5.92674e+12 -2.25226e+12 -5.59504e+12 -7.27016e+12 -5.65437e+12 -5.96207e+12 -4.968e+12 -5.73185e+12 -6.96539e+12 -6.60768e+12 -6.70008e+12 -6.89104e+12 -5.00335e+12 -8.63915e+12 -7.62387e+12 -6.15776e+12 -5.74807e+12 -5.408e+12 -8.40449e+12 -6.5279e+12 -4.961e+12 -7.61777e+12 -6.53432e+12 -6.47774e+12 -8.38572e+12 -5.83741e+12 -3.93659e+12 -9.98233e+12 -9.07972e+12 -6.04568e+12 -4.79655e+12 -9.58969e+12 -4.16259e+12 -7.4869e+12 -5.41314e+12 -5.39721e+12 -6.24897e+12 -7.16373e+12 -3.91431e+12 -1.06612e+13 -8.0624e+12 -4.51374e+12 -7.39635e+12 -3.98886e+12 -4.93319e+12 -7.10092e+12 -4.99277e+12 -4.7693e+12 -4.06702e+12 -5.12238e+12 -3.10827e+12 -4.7958e+12 -4.54348e+12 -4.42358e+12 -6.17653e+12 -6.55594e+12 -1.09533e+13 -8.09838e+12 -9.40804e+12 -6.79056e+12 -2.96544e+12 -6.7365e+12 -5.79032e+12 -2.65802e+12 -4.4577e+12 -3.83959e+12 -5.89905e+12 -4.26291e+12 -3.83367e+12 -7.53366e+12 -5.64052e+12 -5.47633e+12 -4.05751e+12 -5.77862e+12 -1.03715e+13 -6.62317e+12 -6.10619e+12 -3.86319e+12 -9.34394e+12 -9.62549e+12 -7.62111e+12 -3.74854e+12 -7.96067e+12 -4.60326e+12 -6.11948e+12 -4.86395e+12 -6.40503e+12 -6.14105e+12 -5.10919e+12 -6.51378e+12 -6.51886e+12 -6.09775e+12 -4.45683e+12 -7.2945e+12 -8.11246e+12 -4.96662e+12 -5.83881e+12 -8.35619e+12 -3.79272e+12 -3.92438e+12 -3.68415e+12 -5.74973e+12 -5.96081e+12 -4.04936e+12 -5.91488e+12 -3.8875e+12 -5.2643e+12 -5.02594e+12 -6.04901e+12 -6.94444e+12 -7.58696e+12 -8.99023e+12 -4.60999e+12 -4.12983e+12 -3.06921e+12 -2.1412e+12 -6.59548e+12 -4.41971e+12 -8.95825e+12 -7.35162e+12 -6.20464e+12 -1.01502e+13 -5.10565e+12 -3.77588e+12 -4.60085e+12 -5.91584e+12 -4.81934e+12 -4.9848e+12 -6.30458e+12 -4.83808e+12 -6.1468e+12 -4.95201e+12 -4.98908e+12 -4.16305e+12 -5.2117e+12 -4.1376e+12 -4.67455e+12 -4.17208e+12 -7.33051e+12 -7.3656e+12 -8.21892e+12 -7.21559e+12 -4.05708e+12 -4.85526e+12 -4.32815e+12 -3.5593e+12 -2.31905e+12 -6.16304e+12 -4.47992e+12 -4.46208e+12 -5.19612e+12 -8.07896e+12 -6.65237e+12 -7.41316e+12 -6.0519e+12 -4.24631e+12 -5.42956e+12 -5.44632e+12 -3.28159e+12 -5.95601e+12 -3.87068e+12 -5.66678e+12 -7.63298e+12 -5.33619e+12 -4.59341e+12 -6.09669e+12 -6.24146e+12 -6.1618e+12 -6.84088e+12 -5.57392e+12 -3.63394e+12 -4.06161e+12 -5.1636e+12 -3.21593e+12 -4.56199e+12 -5.90836e+12 -4.42719e+12 -5.27431e+12 -3.83378e+12 -7.93216e+12 -4.78553e+12 -7.81198e+12 -5.31027e+12 -4.44414e+12 -5.87957e+12 -4.32954e+12 -5.97277e+12 -5.73552e+12 -7.3368e+12 -4.23582e+12 -8.27016e+12 -4.33687e+12 -8.61554e+12 -3.44094e+12 -3.52483e+12 -3.01217e+12 -2.92813e+12 -2.30154e+12 -3.76367e+12 -3.7836e+12 -8.53892e+12 -2.92094e+12 -3.62844e+12 -3.02572e+12 -5.13053e+12 -5.44402e+12 -5.53754e+12 -4.67812e+12 -2.56595e+12 -5.01142e+12 -7.54181e+12 -6.79807e+12 -7.67971e+12 -6.33438e+12 -6.79418e+12 -3.56947e+12 -4.02837e+12 -5.73987e+12 -6.26641e+12 -6.02406e+12 -7.56728e+12 -4.39234e+12 -5.87555e+12 -5.52061e+12 -5.76827e+12 -3.30915e+12 -3.59829e+12 -4.27834e+12 -5.51601e+12 -5.35002e+12 -3.55207e+12 -4.44376e+12 -4.34598e+12 -7.39604e+12 -3.17948e+12 -4.05206e+12 -2.80376e+12 -7.12791e+12 -4.33306e+12 -5.71452e+12 -3.77658e+12 -4.2228e+12 -4.94341e+12 -2.97135e+12 -4.44045e+12 -1.00766e+13 -4.37861e+12 -6.90036e+12 -6.67274e+12 -7.97469e+12 -4.15957e+12 -4.49673e+12 -648237000000.0 -5.97e+12 -4.12501e+12 -9.69329e+12 -4.21591e+12 -5.00727e+12 -5.29468e+12 -4.94211e+12 -4.18636e+12 -3.78024e+12 -4.60063e+12 -2.95409e+12 -4.88497e+12 -4.20796e+12 -7.00723e+12 -6.11713e+12 -4.69425e+12 -2.74221e+12 -6.76576e+12 -6.66535e+12 -4.10841e+12 -8.11808e+12 -6.05507e+12 -5.17963e+12 -7.53291e+12 -7.51395e+12 -4.179e+12 -7.22268e+12 -2.81425e+12 -6.05744e+12 -6.77246e+12 -5.83507e+12 -3.42744e+12 -3.76992e+12 -6.77645e+12 -5.17861e+12 -7.61401e+12 -7.27621e+12 -6.0377e+12 -7.58909e+12 -3.12413e+12 -4.41458e+12 -4.94891e+12 -3.51975e+12 -4.67914e+12 -5.41987e+12 -5.61017e+12 -2.19405e+12 -2.3076e+12 -2.8746e+12 -2.03297e+12 -5.03668e+12 -7.24526e+12 -4.43762e+12 -3.72028e+12 -3.67364e+12 -3.75626e+12 -2.80001e+12 -7.36148e+12 -4.65433e+12 -4.06954e+12 -3.91457e+12 -5.25905e+12 -6.41985e+12 -5.43001e+12 -3.05599e+12 -3.97536e+12 -3.68968e+12 -4.44541e+12 -3.73766e+12 -5.33298e+12 -4.92284e+12 -5.36669e+12 -3.18817e+12 -3.42436e+12 -6.27822e+12 -5.00095e+12 -4.25295e+12 -5.14108e+12 -3.3643e+12 -1.98319e+12 -3.65735e+12 -4.60173e+12 -5.65742e+12 -5.91342e+12 -7.27562e+12 -2.59652e+12 -2.90495e+12 -4.46112e+12 -3.43753e+12 -4.40521e+12 -5.86889e+12 -2.21463e+12 -6.07437e+12 -4.47707e+12 -4.96582e+12 -6.12937e+12 -5.25146e+12 -4.48055e+12 -3.30296e+12 -2.82341e+12 -5.26193e+12 -3.67345e+12 -6.41498e+12 -7.65281e+12 -5.66286e+12 -5.66769e+12 -3.23509e+12 -6.83208e+12 -5.47161e+12 -1.99752e+12 -5.80384e+12 -2.44002e+12 -6.27763e+12 -6.15735e+12 -4.36147e+12 -5.75473e+12 -3.91413e+12 -4.66847e+12 -6.11722e+12 -5.43727e+12 -5.82597e+12 -6.00375e+12 -5.81179e+12 -5.68819e+12 -6.17089e+12 -5.20051e+12 -2.50841e+12 -6.32968e+12 -5.2962e+12 -1.68025e+12 -4.74163e+12 -3.58233e+12 -1.44288e+12 -4.80514e+12 -5.26291e+12 -4.25099e+12 -5.66178e+12 -3.67889e+12 -4.80626e+12 -8.57354e+12 -3.34935e+12 -3.77716e+12 -5.49009e+12 -3.18942e+12 -6.64785e+12 -3.21853e+12 -5.51872e+12 -4.19778e+12 -3.89512e+12 -4.99004e+12 -3.9426e+12 -3.51423e+12 -5.96911e+12 -5.4373e+12 -1.99042e+12 -6.51181e+12 -2.48676e+12 -3.87815e+12 -5.51164e+12 -3.79469e+12 -4.38696e+12 -3.89551e+12 -3.03393e+12 -4.38195e+12 -4.31598e+12 -6.29124e+12 -1.83541e+12 -4.73181e+12 -4.26519e+12 -5.58109e+12 -5.97626e+12 -6.83306e+12 -3.63056e+12 -4.89451e+12 -4.56772e+12 -3.82641e+12 -2.60103e+12 -4.39677e+12 -3.98024e+12 -3.94909e+12 -4.28738e+12 -6.80492e+12 -6.86941e+12 -4.04719e+12 -8.42452e+12 -2.7455e+12 -5.96335e+12 -2.86777e+12 -4.02042e+12 -3.41527e+12 -3.67705e+12 -2.49418e+12 -3.61272e+12 -6.0192e+12 -3.90879e+12 -4.87503e+12 -5.83078e+12 -5.7968e+12 -3.70576e+12 -6.5166e+12 -3.11061e+12 -2.32498e+12 -5.96783e+12 -4.62043e+12 -5.28372e+12 -4.31343e+12 -1.98409e+12 -2.78898e+12 -6.71396e+12 -2.77412e+12 -4.02315e+12 -6.63584e+12 -4.03708e+12 -5.54571e+12 -3.11779e+12 -4.69089e+12 -5.02967e+12 -3.76335e+12 -4.99125e+12 -3.03534e+12 -5.87283e+12 -4.9214e+12 -2.51559e+12 -4.40761e+12 -5.34151e+12 -2.92422e+12 -3.69485e+12 -2.77685e+12 -3.85744e+12 -4.01534e+12 -4.57945e+12 -2.40324e+12 -3.82326e+12 -3.02912e+12 -4.60317e+12 -5.32393e+12 -2.66276e+12 -4.99438e+12 -4.30351e+12 -3.48915e+12 -2.71628e+12 -4.28711e+12 -3.0592e+12 -3.51454e+12 -3.72292e+12 -3.49759e+12 -5.56832e+12 -3.25659e+12 -2.88646e+12 -4.14183e+12 -3.44684e+12 -3.03943e+12 -2.78661e+12 -2.98107e+12 -2.20726e+12 -3.87742e+12 -2.47034e+12 -4.23944e+12 -1.9334e+12 -4.65469e+12 -2.7579e+12 -3.41271e+12 -2.86741e+12 -4.56091e+12 -2.65459e+12 -4.25046e+12 -2.15331e+12 -2.6158e+12 -3.42365e+12 -4.05717e+12 -3.77269e+12 -2.77453e+12 -2.73571e+12 -4.16782e+12 -2.53786e+12 -3.06572e+12 -5.14166e+12 -5.25977e+12 -4.38455e+12 -2.33833e+12 -3.29303e+12 -2.75567e+12 -1.93634e+12 -4.40707e+12 -3.55288e+12 -4.09355e+12 -1.72861e+12 -3.11489e+12 -5.56729e+12 -3.07504e+12 -4.75331e+12 -2.36121e+12 -5.67837e+12 -2.73193e+12 -6.19763e+12 -6.98247e+12 -5.03266e+12 -5.54789e+12 -3.02662e+12 -2.32588e+12 -3.17109e+12 -2.77429e+12 -2.22891e+12 -4.52373e+12 -2.66922e+12 -2.88917e+12 -3.22423e+12 -1.08889e+12 -3.15532e+12 -761681000000.0 -3.87921e+12 -1.46432e+12 -4.50438e+12 -2.90088e+12 -4.33193e+12 -3.03857e+12 -3.08587e+12 -3.98378e+12 -2.28587e+12 -3.49899e+12 -4.06796e+12 -2.21386e+12 -4.63093e+12 -5.48468e+12 -1.65046e+12 -3.00008e+12 -4.22814e+12 -2.92736e+12 -3.74697e+12 -5.61877e+12 -4.08162e+12 -5.22776e+12 -2.5811e+12 -3.20005e+12 -6.83967e+12 -2.73488e+12 -2.19999e+12 -3.03936e+12 -2.06371e+12 -2.00544e+12 -2.2062e+12 -2.8507e+12 -4.61051e+12 -1.98267e+12 -3.04811e+12 -2.69384e+12 -3.79894e+12 -2.03666e+12 -4.57403e+12 -2.51778e+12 -2.14733e+12 -1.62524e+12 -3.99853e+12 -2.72572e+12 -3.0758e+12 -2.45675e+12 -3.20478e+12 -4.35698e+12 -3.43021e+12 -1.82847e+12 -2.91888e+12 -3.67593e+12 -2.36014e+12 -2.64283e+12 -3.15784e+12 -3.53115e+12 -2.78675e+12 -2.7113e+12 -2.85429e+12 -3.83951e+12 -5.16313e+12 -2.0617e+12 -4.171e+12 -4.85241e+12 -3.50861e+12 -5.65112e+12 -3.36803e+12 -3.09194e+12 -1.47016e+12 -2.96976e+12 -2.97314e+12 -2.66591e+12 -1.38881e+12 -2.83851e+12 -3.00735e+12 -1.77793e+12 -2.80355e+12 -1.16721e+12 -3.28137e+12 -4.29509e+12 -2.95713e+12 -3.33006e+12 -3.05974e+12 -4.33193e+12 -2.89944e+12 -2.87729e+12 -1.7045e+12 -1.74065e+12 -3.27796e+12 -2.96138e+12 -5.77959e+12 -2.03718e+12 -3.74219e+12 -3.71961e+12 -2.14483e+12 -2.21197e+12 -2.92366e+12 -3.23146e+12 -1.58338e+12 -3.61334e+12 -5.32906e+12 -3.17722e+12 -1.66514e+12 -2.22826e+12 -3.03198e+12 -2.63447e+12 -2.58101e+12 -2.49008e+12 -3.03581e+12 -2.51109e+12 -1.98639e+12 -4.24606e+12 -3.23404e+12 -2.18355e+12 -5.13247e+12 -2.86576e+12 -3.63385e+12 -4.10776e+12 -4.92109e+12 -1.78078e+12 -2.83408e+12 -3.57488e+12 -3.28017e+12 -3.05702e+12 -3.45226e+12 -3.68855e+12 -4.71117e+12 -2.42675e+12 -2.98632e+12 -1.89992e+12 -5.01865e+12 -3.41481e+12 -1.93632e+12 -2.48133e+12 -3.44497e+12 -4.60232e+12 -3.51234e+12 -3.26395e+12 -2.10397e+12 -2.64853e+12 -2.29759e+12 -2.06163e+12 -2.33718e+12 -201616000000.0 -2.4539e+12 -2.46447e+12 -1.68704e+12 -3.53052e+12 -2.57768e+12 -2.20242e+12 -1.90896e+12 -2.13022e+12 -1.42211e+12 -1.64954e+12 -1.02268e+12 -2.90508e+12 -2.80014e+12 -2.12694e+12 -4.25864e+12 -3.09694e+12 -2.83739e+12 -3.47644e+12 -1.75161e+12 -1.40857e+12 -2.86153e+12 -4.3482e+12 -2.33054e+12 -4.18947e+12 -3.18247e+12 -1.58527e+12 -2.51189e+12 -3.91359e+12 -4.39412e+12 -2.02046e+12 -1.77914e+12 -1.65547e+12 -2.68982e+12 -1.8169e+12 -1.4918e+12 -2.05983e+12 -2.50409e+12 -1.7776e+12 -3.74698e+12 -1.2528e+12 -2.19623e+12 -3.82474e+12 -2.20325e+12 -1.22427e+12 -2.00628e+12 -914983000000.0 -1.19317e+12 -4.06027e+12 -2.78174e+12 -1.90562e+12 -2.19263e+12 -3.33833e+12 -1.71873e+12 -3.30046e+12 -1.74833e+12 -2.59195e+12 -3.09524e+12 -3.65564e+12 -2.30966e+12 -2.05078e+12 -2.02274e+12 -2.19542e+12 -1.73354e+12 -1.51733e+12 -3.11692e+12 -4.14439e+12 -5.0035e+12 -2.97764e+12 -4.36802e+12 -3.06231e+12 -3.37189e+12 -1.46761e+12 -4.00925e+12 -1.17511e+12 -1.41419e+12 -2.10611e+12 -2.02647e+12 -2.74288e+12 -3.22617e+12 -3.09323e+12 -1.95534e+12 -3.65744e+12 -2.8935e+12 -2.55671e+12 -1.14366e+12 -2.67412e+12 -1.66608e+12 -2.89466e+12 -1.07065e+12 -2.60799e+12 -1.31779e+12 -1.31848e+12 -1.94228e+12 -1.33363e+12 -822029000000.0 -1.79654e+12 -2.12446e+12 -1.45667e+12 -1.37725e+12 -1.24427e+12 -2.26769e+12 -1.67358e+12 -1.80599e+12 -1.3614e+12 -2.07114e+12 -2.09027e+12 -2.40196e+12 -1.99786e+12 -1.70706e+12 -1.78281e+12 -2.68412e+12 -1.13655e+12 -2.36996e+12 -2.45328e+12 -2.26853e+12 -3.62061e+12 -1.4399e+12 -2.22511e+12 -2.21836e+12 -1.53448e+12 -2.74259e+12 -1.48332e+12 -2.17611e+12 -2.49279e+12 -1.03115e+12 -408633000000.0 -1.6777e+12 -2.09992e+12 -3.30896e+12 -2.95565e+12 -2.7231e+12 -1.76597e+12 -1.63051e+12 -1.67572e+12 -1.9366e+12 -3.06417e+12 -1.30912e+12 -2.99123e+12 -1.26504e+12 -1.09509e+12 -2.17338e+12 -1.37549e+12 -768876000000.0 -1.93541e+12 -2.3372e+12 -676907000000.0 -1.88935e+12 -2.53135e+12 -1.89846e+12 -2.85374e+12 -1.74423e+12 -3.24357e+12 -1.16807e+12 -1.74543e+12 -2.41363e+12 -948736000000.0 -1.76915e+12 -1.43367e+12 -3.63132e+12 -2.58865e+12 -1.9542e+12 -2.49054e+12 -882129000000.0 -2.65887e+12 -882372000000.0 -2.18735e+12 -2.85956e+12 -2.14866e+12 -1.44876e+12 -2.01543e+12 -1.46247e+12 -1.53472e+12 -1.5158e+12 -2.40932e+12 -1.17571e+12 -2.30956e+12 -1.26891e+12 -608568000000.0 -2.56581e+12 -3.24629e+12 -2.96726e+12 -3.13067e+12 -2.8341e+12 -1.28664e+12 -1.55374e+12 -1.97971e+12 -1.80641e+12 -1.92773e+12 -3.0611e+12 -1.63757e+12 -1.93296e+12 -1.21427e+12 -2.0793e+12 -328437000000.0 -2.20895e+12 -461821000000.0 -1.27742e+12 -2.08671e+12 -2.09809e+12 -887964000000.0 -979712000000.0 -1.49984e+12 -944699000000.0 -1.31052e+12 -1.43487e+12 -1.10988e+12 -927670000000.0 -2.2298e+12 -1.57121e+12 -1.83909e+12 -971854000000.0 -1.62338e+12 -1.33271e+12 -2.27656e+12 -850565000000.0 -1.31055e+12 -1.27335e+12 -1.29139e+12 -1.95481e+12 -595789000000.0 -1.1432e+12 -1.18004e+12 -1.07429e+12 -1.14599e+12 -839972000000.0 -1.07342e+12 -1.29497e+12 -1.08505e+12 -1.32706e+12 -426362000000.0 -628595000000.0 -1.94749e+12 -614940000000.0 -1.20247e+12 -1.11063e+12 -2.08329e+12 -516530000000.0 -1.02748e+12 -2.46989e+12 -1.87897e+12 -1.00897e+12 -1.13233e+12 -608474000000.0 -1.57884e+12 -570787000000.0 -1.24554e+12 -2.25928e+12 -2.10883e+12 -2.47063e+12 -923867000000.0 -670923000000.0 -1.58798e+12 -717033000000.0 -1.49226e+12 -1.73316e+12 -1.46462e+12 -1.73521e+12 -2.04485e+12 -1.13926e+12 -1.09835e+12 -661746000000.0 -1.24839e+12 -1.00958e+12 -1.55916e+12 -557611000000.0 -1.11597e+12 -1.92459e+12 -942491000000.0 -1.46306e+12 -1.26077e+12 -1.35347e+12 -2.37635e+12 -2.03192e+12 -1.1939e+12 -1.3548e+12 -1.43002e+12 -389957000000.0 -2.07664e+12 -1.02475e+12 -1.62925e+12 -2.00513e+12 -1.00219e+12 -508136000000.0 -766888000000.0 -995327000000.0 -853742000000.0 -196317000000.0 -82391000000.0 -1.15326e+12 -353742000000.0 -800211000000.0 -514183000000.0 -707252000000.0 -1.16433e+12 -939686000000.0 -287942000000.0 -667203000000.0 -504102000000.0 -683181000000.0 -244249000000.0 -461620000000.0 -158626000000.0 -360059000000.0 -1.09934e+12 -72195000000.0 -617219000000.0 -255043000000.0 -1.15405e+12 -879927000000.0 -922324000000.0 -747516000000.0 -236404000000.0 -620740000000.0 -247835000000.0 -176829000000.0 -168924000000.0 -153797000000.0 -655326000000.0 -450910000000.0 -538085000000.0 -986936000000.0 -881061000000.0 -449967000000.0 -447092000000.0 -603044000000.0 -209210000000.0 -321613000000.0 -409861000000.0 -224388000000.0 -564579000000.0 -242803000000.0 -346062000000.0 -454965000000.0 -253470000000.0 -704673000000.0 -503895000000.0 -305060000000.0 -661859000000.0 -150212000000.0 -879765000000.0 -914868000000.0 -680696000000.0 -276883000000.0 -600502000000.0 -447800000000.0 -754109000000.0 -167571000000.0 -999064000000.0 -433950000000.0 -86818300000.0 -794898000000.0 -180943000000.0 -403559000000.0 -400834000000.0 -371395000000.0 -234557000000.0 -157093000000.0 -255655000000.0 -680275000000.0 -457062000000.0 -1.29351e+12 -1.34065e+12 -896432000000.0 -211954000000.0 -1.26574e+12 -593830000000.0 -331839000000.0 -581906000000.0 -244547000000.0 -352811000000.0 -931895000000.0 -326772000000.0 -268426000000.0 -538532000000.0 -297790000000.0 -488276000000.0 -610717000000.0 -1.01509e+12 -559665000000.0 -647545000000.0 -447398000000.0 -259123000000.0 -261370000000.0 -195620000000.0 -272439000000.0 -370073000000.0 -101888000000.0 -278004000000.0 -221387000000.0 -138327000000.0 -196511000000.0 -146148000000.0 -172276000000.0 