# vtk DataFile Version 2.0
Time step 29
ASCII
DATASET UNSTRUCTURED_GRID
POINTS 5000 float
8527.99 149685.0 0
12438.8 149518.0 0
16747.5 148836.0 0
27670.6 147221.0 0
57005.2 149487.0 0
171831.0 148759.0 0
177734.0 148797.0 0
182939.0 147983.0 0
201748.0 149521.0 0
212985.0 149622.0 0
241170.0 149523.0 0
252679.0 149507.0 0
278881.0 148926.0 0
297319.0 148891.0 0
303664.0 149679.0 0
345896.0 149748.0 0
361816.0 149294.0 0
372011.0 147316.0 0
377030.0 149289.0 0
388131.0 149458.0 0
394018.0 148775.0 0
403648.0 147706.0 0
408586.0 148916.0 0
422737.0 148721.0 0
432480.0 148235.0 0
442090.0 149527.0 0
446253.0 149107.0 0
460242.0 149666.0 0
471629.0 149307.0 0
477063.0 148110.0 0
485844.0 148039.0 0
491674.0 149579.0 0
497601.0 148072.0 0
2398.27 150309.0 0
6059.3 153007.0 0
11084.8 154035.0 0
17329.8 154739.0 0
22243.6 150481.0 0
28515.9 153573.0 0
33200.1 149908.0 0
38182.1 150491.0 0
42700.8 150641.0 0
47473.6 150550.0 0
48276.3 154545.0 0
52137.1 150646.0 0
62763.5 150562.0 0
67994.7 150695.0 0
72702.2 149829.0 0
77500.0 150575.0 0
82500.0 150564.0 0
87407.8 149863.0 0
87907.6 154621.0 0
92500.0 150602.0 0
97193.4 150624.0 0
101293.0 150541.0 0
105947.0 149932.0 0
111936.0 150411.0 0
108243.0 154524.0 0
117850.0 150595.0 0
123330.0 150671.0 0
128345.0 150792.0 0
133427.0 150041.0 0
138123.0 150724.0 0
142500.0 150645.0 0
147500.0 150579.0 0
152501.0 150549.0 0
157589.0 150177.0 0
156863.0 154227.0 0
162560.0 150333.0 0
167011.0 149876.0 0
166511.0 154548.0 0
172971.0 154328.0 0
178375.0 154209.0 0
183532.0 153051.0 0
187394.0 149836.0 0
188603.0 154282.0 0
192499.0 150997.0 0
196080.0 150161.0 0
198250.0 154506.0 0
207651.0 150284.0 0
213693.0 154172.0 0
218128.0 150706.0 0
222480.0 150718.0 0
225795.0 149952.0 0
226803.0 154187.0 0
230434.0 149822.0 0
235810.0 150818.0 0
246501.0 151525.0 0
259051.0 149983.0 0
257261.0 154621.0 0
263773.0 151070.0 0
268741.0 149982.0 0
267067.0 154826.0 0
273935.0 150278.0 0
271615.0 154135.0 0
277068.0 154538.0 0
282030.0 152258.0 0
286326.0 150566.0 0
291718.0 151023.0 0
298248.0 154402.0 0
307732.0 152248.0 0
312126.0 150100.0 0
317928.0 150723.0 0
323244.0 150624.0 0
327580.0 150892.0 0
332205.0 150491.0 0
337222.0 150201.0 0
341019.0 151412.0 0
343306.0 154437.0 0
350688.0 151668.0 0
347749.0 154839.0 0
355261.0 150658.0 0
361443.0 154607.0 0
365117.0 154306.0 0
367954.0 150632.0 0
372930.0 154117.0 0
382609.0 150160.0 0
378820.0 153839.0 0
388373.0 154547.0 0
399198.0 150447.0 0
402996.0 153905.0 0
412475.0 150565.0 0
408385.0 153196.0 0
412861.0 154508.0 0
417500.0 150608.0 0
422127.0 153358.0 0
427272.0 150431.0 0
433425.0 153469.0 0
437537.0 150585.0 0
443214.0 153810.0 0
447601.0 153116.0 0
450666.0 149876.0 0
451944.0 154355.0 0
455209.0 149819.0 0
457174.0 154548.0 0
465794.0 150050.0 0
466600.0 154619.0 0
475182.0 154600.0 0
481305.0 150972.0 0
486590.0 154230.0 0
496837.0 153582.0 0
2284.16 155332.0 0
6740.57 158053.0 0
11844.3 159870.0 0
16324.1 159947.0 0
23002.2 155997.0 0
20503.4 159960.0 0
34966.0 155182.0 0
40338.5 155501.0 0
44461.3 155843.0 0
47586.0 159267.0 0
52500.0 155607.0 0
57994.4 154928.0 0
62849.3 155661.0 0
67505.2 155333.0 0
72117.8 154949.0 0
77500.0 155733.0 0
82116.1 155379.0 0
92500.0 155742.0 0
97184.0 155374.0 0
97548.3 159893.0 0
102467.0 155275.0 0
107924.0 159304.0 0
112500.0 155678.0 0
117500.0 155760.0 0
122500.0 155683.0 0
125865.0 159594.0 0
127727.0 155226.0 0
132493.0 155576.0 0
137520.0 155591.0 0
142774.0 155068.0 0
140994.0 159190.0 0
146928.0 155416.0 0
151940.0 155294.0 0
156246.0 158788.0 0
161298.0 155048.0 0
169998.0 159115.0 0
182187.0 158190.0 0
193570.0 155142.0 0
203920.0 155141.0 0
199972.0 159611.0 0
209356.0 155356.0 0
213299.0 158983.0 0
217602.0 155776.0 0
222034.0 155546.0 0
222564.0 159820.0 0
226872.0 159192.0 0
232207.0 155245.0 0
237688.0 156068.0 0
243285.0 155898.0 0
248460.0 155599.0 0
246844.0 159669.0 0
252676.0 156068.0 0
257735.0 159373.0 0
262325.0 155247.0 0
267485.0 159282.0 0
273043.0 159377.0 0
279880.0 158595.0 0
282828.0 155945.0 0
287500.0 155656.0 0
292909.0 155515.0 0
291020.0 159824.0 0
296737.0 159447.0 0
303116.0 155349.0 0
307443.0 155541.0 0
312501.0 155851.0 0
317483.0 155599.0 0
322435.0 155092.0 0
322511.0 159098.0 0
327500.0 155636.0 0
332500.0 155709.0 0
336510.0 159709.0 0
337712.0 155044.0 0
341412.0 158643.0 0
346843.0 159226.0 0
352668.0 155559.0 0
356026.0 158950.0 0
357758.0 155078.0 0
361259.0 159308.0 0
366513.0 158388.0 0
382005.0 154977.0 0
377674.0 159773.0 0
384356.0 158314.0 0
392423.0 159744.0 0
393552.0 154921.0 0
397216.0 159703.0 0
398135.0 155355.0 0
409241.0 158841.0 0
417517.0 155123.0 0
419140.0 159813.0 0
428323.0 155375.0 0
424117.0 158176.0 0
432246.0 159093.0 0
437509.0 155652.0 0
437337.0 159837.0 0
442352.0 159046.0 0
448269.0 158188.0 0
454171.0 159760.0 0
462428.0 156031.0 0
470193.0 155799.0 0
472372.0 159121.0 0
480798.0 156247.0 0
492077.0 156481.0 0
2238.62 161246.0 0
8050.28 163893.0 0
13471.3 164495.0 0
17751.6 163791.0 0
22416.1 164334.0 0
27040.2 160406.0 0
32614.2 160241.0 0
32068.3 164528.0 0
38259.9 160013.0 0
42966.9 160397.0 0
49063.2 164057.0 0
51798.5 161029.0 0
56552.4 160548.0 0
62112.9 160524.0 0
63616.1 164855.0 0
67695.1 160177.0 0
73696.4 160492.0 0
78211.3 160930.0 0
77068.9 164852.0 0
81954.8 160105.0 0
86960.6 160136.0 0
92531.5 160493.0 0
102630.0 161037.0 0
107686.0 164802.0 0
116732.0 160363.0 0
112494.0 160578.0 0
113111.0 164907.0 0
120857.0 160213.0 0
118137.0 164840.0 0
123418.0 164200.0 0
131159.0 161292.0 0
136446.0 161244.0 0
146307.0 160308.0 0
151836.0 161907.0 0
148001.0 164917.0 0
156827.0 164186.0 0
161704.0 160739.0 0
166529.0 162558.0 0
176294.0 159967.0 0
182233.0 163668.0 0
188049.0 160444.0 0
194262.0 160168.0 0
197223.0 164896.0 0
203054.0 164751.0 0
208111.0 160263.0 0
204288.0 160607.0 0
217709.0 160710.0 0
214360.0 164654.0 0
222026.0 164078.0 0
227511.0 164741.0 0
232445.0 160710.0 0
237423.0 160494.0 0
237868.0 163819.0 0
241793.0 161148.0 0
246216.0 164855.0 0
251787.0 160961.0 0
255874.0 164091.0 0
262717.0 160024.0 0
260339.0 163762.0 0
266354.0 163966.0 0
278362.0 164097.0 0
283557.0 160878.0 0
287219.0 160948.0 0
288759.0 164102.0 0
302236.0 160585.0 0
307702.0 159971.0 0
313209.0 161096.0 0
316250.0 164806.0 0
318191.0 160090.0 0
321072.0 164335.0 0
326813.0 160981.0 0
329892.0 164527.0 0
331856.0 160702.0 0
339780.0 164034.0 0
351892.0 160395.0 0
357350.0 162907.0 0
366554.0 163081.0 0
371102.0 160259.0 0
382814.0 163830.0 0
388339.0 161503.0 0
402856.0 160146.0 0
408060.0 164191.0 0
414410.0 161397.0 0
427681.0 161212.0 0
425653.0 164838.0 0
437117.0 164032.0 0
441816.0 164633.0 0
446528.0 163189.0 0
450852.0 163696.0 0
458986.0 160805.0 0
463179.0 160570.0 0
467517.0 160685.0 0
466983.0 165013.0 0
472600.0 164080.0 0
477749.0 160075.0 0
482621.0 160943.0 0
487505.0 162041.0 0
491507.0 160542.0 0
492123.0 164399.0 0
496592.0 160151.0 0
2182.12 165660.0 0
11899.5 168232.0 0
17158.5 168970.0 0
23049.4 169718.0 0
26985.2 166332.0 0
30221.7 169068.0 0
34872.6 169861.0 0
37585.1 165218.0 0
39761.5 169280.0 0
43201.1 165460.0 0
48575.2 169280.0 0
53807.2 165728.0 0
59221.7 165226.0 0
57211.4 169618.0 0
63068.1 169630.0 0
68064.9 165851.0 0
72603.0 165367.0 0
73397.8 169426.0 0
78298.6 170002.0 0
82136.2 165126.0 0
83590.0 170067.0 0
87334.1 165310.0 0
88394.3 170128.0 0
92269.4 165822.0 0
97732.7 165245.0 0
102768.0 166496.0 0
111305.0 169491.0 0
116639.0 170099.0 0
122097.0 169391.0 0
127500.0 165757.0 0
126930.0 169806.0 0
137738.0 165158.0 0
132690.0 166121.0 0
136576.0 169708.0 0
142523.0 165309.0 0
147010.0 169194.0 0
153416.0 166561.0 0
157940.0 170119.0 0
160406.0 165551.0 0
164429.0 166261.0 0
167049.0 169133.0 0
170842.0 165144.0 0
177032.0 166535.0 0
186625.0 166078.0 0
191646.0 165568.0 0
193693.0 169653.0 0
203175.0 169852.0 0
208747.0 166609.0 0
218718.0 165955.0 0
216322.0 169270.0 0
221178.0 169603.0 0
234327.0 165092.0 0
231984.0 169594.0 0
237943.0 168555.0 0
241754.0 165750.0 0
248031.0 169934.0 0
251520.0 166219.0 0
257729.0 169273.0 0
262639.0 167336.0 0
267592.0 169915.0 0
271760.0 165647.0 0
284358.0 165618.0 0
288836.0 169423.0 0
292983.0 165818.0 0
298942.0 165747.0 0
303985.0 165977.0 0
307500.0 165800.0 0
312166.0 165619.0 0
316972.0 169240.0 0
325848.0 165913.0 0
322301.0 169927.0 0
330944.0 170042.0 0
334357.0 166518.0 0
341515.0 169525.0 0
346087.0 165480.0 0
352843.0 165970.0 0
361675.0 165297.0 0
357891.0 169483.0 0
367106.0 167988.0 0
371934.0 165891.0 0
377880.0 167223.0 0
387369.0 165688.0 0
383270.0 169846.0 0
388204.0 169869.0 0
393045.0 166411.0 0
399509.0 165317.0 0
403057.0 169317.0 0
404319.0 165340.0 0
412350.0 165864.0 0
408164.0 169041.0 0
416951.0 165196.0 0
414680.0 169509.0 0
421364.0 166455.0 0
427476.0 169294.0 0
431060.0 165284.0 0
436117.0 169014.0 0
448322.0 168703.0 0
455414.0 165529.0 0
461208.0 165226.0 0
464975.0 170113.0 0
473882.0 169298.0 0
478851.0 165574.0 0
484709.0 166083.0 0
489147.0 166808.0 0
496754.0 166794.0 0
1482.49 170343.0 0
2749.16 174382.0 0
7150.19 170200.0 0
12667.2 172737.0 0
18086.8 174740.0 0
28646.4 173114.0 0
39129.2 174121.0 0
43677.7 171120.0 0
48686.5 175250.0 0
53130.9 171725.0 0
59716.0 174631.0 0
68314.8 171026.0 0
68286.8 175222.0 0
72215.0 173307.0 0
76321.2 174899.0 0
87887.4 175198.0 0
92505.2 170665.0 0
96907.0 175234.0 0
97237.4 170661.0 0
101196.0 170723.0 0
105586.0 170318.0 0
111043.0 174341.0 0
115385.0 174815.0 0
127440.0 175070.0 0
131217.0 170502.0 0
133300.0 174955.0 0
142211.0 171003.0 0
151799.0 171128.0 0
148387.0 175214.0 0
161441.0 174593.0 0
163660.0 170746.0 0
166774.0 174486.0 0
171004.0 171152.0 0
176728.0 172826.0 0
182933.0 170587.0 0
189204.0 170486.0 0
192409.0 174994.0 0
198249.0 170784.0 0
202628.0 174426.0 0
207322.0 171989.0 0
212116.0 170860.0 0
216383.0 175164.0 0
222685.0 175252.0 0
226330.0 171377.0 0
236022.0 173540.0 0
242844.0 170402.0 0
252900.0 170247.0 0
250909.0 174398.0 0
262834.0 172915.0 0
272700.0 171532.0 0
278480.0 170752.0 0
283574.0 170204.0 0
282085.0 174135.0 0
293487.0 170415.0 0
293046.0 174833.0 0
297507.0 171793.0 0
302639.0 170282.0 0
301873.0 174208.0 0
307119.0 170642.0 0
311945.0 170360.0 0
316867.0 174365.0 0
327156.0 170782.0 0
333890.0 174275.0 0
337118.0 170419.0 0
346670.0 171441.0 0
351589.0 171624.0 0
355560.0 173752.0 0
360523.0 175017.0 0
362981.0 170271.0 0
366520.0 175121.0 0
370172.0 171430.0 0
374549.0 171451.0 0
378552.0 174803.0 0
383427.0 173984.0 0
387246.0 174342.0 0
392171.0 172658.0 0
397895.0 171252.0 0
405314.0 174557.0 0
411969.0 173628.0 0
417926.0 170755.0 0
422494.0 171316.0 0
427286.0 173547.0 0
431252.0 170712.0 0
437081.0 174344.0 0
441987.0 170293.0 0
447111.0 174869.0 0
454021.0 170686.0 0
459439.0 170833.0 0
466552.0 174794.0 0
469640.0 170964.0 0
477660.0 172367.0 0
481987.0 170529.0 0
486774.0 170420.0 0
487737.0 175268.0 0
492177.0 170976.0 0
497457.0 172529.0 0
3056.34 180181.0 0
7839.1 176716.0 0
13607.2 178584.0 0
23743.5 175475.0 0
28779.3 178457.0 0
33628.2 175417.0 0
38537.9 179306.0 0
43738.1 175330.0 0
43266.9 179587.0 0
49668.3 180142.0 0
54175.5 176427.0 0
64867.6 175730.0 0
63415.3 179678.0 0
67006.2 180137.0 0
71706.3 178642.0 0
77976.7 180224.0 0
81942.5 175488.0 0
88019.8 180230.0 0
92637.8 175596.0 0
93069.7 180215.0 0
101491.0 175362.0 0
97998.9 179703.0 0
106437.0 175654.0 0
105785.0 180091.0 0
110767.0 179692.0 0
116644.0 179593.0 0
120869.0 175414.0 0
126501.0 180326.0 0
131197.0 179652.0 0
138724.0 175442.0 0
143742.0 175610.0 0
145107.0 180202.0 0
152800.0 175715.0 0
150853.0 180262.0 0
157000.0 175817.0 0
162038.0 179255.0 0
167181.0 179583.0 0
172237.0 176936.0 0
177077.0 177152.0 0
181362.0 177199.0 0
186881.0 175485.0 0
197842.0 176492.0 0
202643.0 179866.0 0
206631.0 176600.0 0
210632.0 175389.0 0
212134.0 179770.0 0
228326.0 176922.0 0
233994.0 178077.0 0
240943.0 175974.0 0
246427.0 176524.0 0
252371.0 178682.0 0
256769.0 175480.0 0
262542.0 180082.0 0
268275.0 175277.0 0
268734.0 180245.0 0
272895.0 176428.0 0
277852.0 176760.0 0
282796.0 179514.0 0
287110.0 175509.0 0
293221.0 180167.0 0
297884.0 177145.0 0
302612.0 180055.0 0
306178.0 176122.0 0
311438.0 176085.0 0
317437.0 180115.0 0
322343.0 175846.0 0
325884.0 179403.0 0
328009.0 175394.0 0
337534.0 177690.0 0
342213.0 175504.0 0
347990.0 176200.0 0
351091.0 180371.0 0
352301.0 175901.0 0
356017.0 178347.0 0
372530.0 176390.0 0
383503.0 178431.0 0
390744.0 177295.0 0
396046.0 177075.0 0
400404.0 175548.0 0
409493.0 179226.0 0
417773.0 175503.0 0
414467.0 179487.0 0
417764.0 179638.0 0
422965.0 176185.0 0
420952.0 179995.0 0
427630.0 180054.0 0
432235.0 175297.0 0
433306.0 179661.0 0
437892.0 179322.0 0
441851.0 175899.0 0
452641.0 175877.0 0
458109.0 176197.0 0
462539.0 175789.0 0
467794.0 179773.0 0
471812.0 175528.0 0
476953.0 177088.0 0
482254.0 175886.0 0
492471.0 176824.0 0
497459.0 177613.0 0
8750.84 182602.0 0
18376.9 182320.0 0
23877.6 181177.0 0
33717.3 181120.0 0
32326.0 185371.0 0
46372.6 183946.0 0
53684.8 181172.0 0
58565.1 180499.0 0
63641.2 184847.0 0
68684.4 183421.0 0
83400.6 181569.0 0
90124.4 184713.0 0
98598.1 183879.0 0
102079.0 181352.0 0
105635.0 184600.0 0
118207.0 185163.0 0
122656.0 180888.0 0
123815.0 185416.0 0
128388.0 183743.0 0
135222.0 181476.0 0
139751.0 180992.0 0
137791.0 184931.0 0
152992.0 185470.0 0
156886.0 181174.0 0
161789.0 184824.0 0
167146.0 184553.0 0
171463.0 182260.0 0
176186.0 180877.0 0
180975.0 182801.0 0
185797.0 180770.0 0
191578.0 180874.0 0
197330.0 182022.0 0
201632.0 185339.0 0
207607.0 180622.0 0
212995.0 185288.0 0
217212.0 181552.0 0
223347.0 181221.0 0
228977.0 182917.0 0
233409.0 182543.0 0
238459.0 181735.0 0
243835.0 181021.0 0
242096.0 185267.0 0
248983.0 180634.0 0
246553.0 184999.0 0
251473.0 184591.0 0
255542.0 181581.0 0
273493.0 180974.0 0
278387.0 182150.0 0
287973.0 181502.0 0
293305.0 184546.0 0
297717.0 182421.0 0
308391.0 181035.0 0
313173.0 180631.0 0
312021.0 184801.0 0
316759.0 184709.0 0
322194.0 181421.0 0
326424.0 185004.0 0
329978.0 180552.0 0
335042.0 181099.0 0
340309.0 181507.0 0
345928.0 182240.0 0
356395.0 183909.0 0
360820.0 180892.0 0
366442.0 180866.0 0
371147.0 181326.0 0
377230.0 182052.0 0
387811.0 181609.0 0
392751.0 181628.0 0
398357.0 182591.0 0
403886.0 180593.0 0
411609.0 184747.0 0
416997.0 183365.0 0
422635.0 184989.0 0
432997.0 184305.0 0
438722.0 184969.0 0
442656.0 180791.0 0
448518.0 180753.0 0
453997.0 180742.0 0
458539.0 181166.0 0
455666.0 185138.0 0
462991.0 180944.0 0
468717.0 184998.0 0
472983.0 181273.0 0
479975.0 180996.0 0
484303.0 180844.0 0
488541.0 180395.0 0
486597.0 184555.0 0
492629.0 180979.0 0
490653.0 184998.0 0
497771.0 182373.0 0
2142.5 186077.0 0
7229.67 188678.0 0
13670.9 186225.0 0
18601.1 187262.0 0
22340.7 185661.0 0
23272.6 190513.0 0
27487.9 186098.0 0
32589.6 188845.0 0
37266.7 185921.0 0
42436.2 187236.0 0
47001.2 190426.0 0
51405.7 186336.0 0
57396.9 186629.0 0
62192.8 190241.0 0
67960.6 190306.0 0
73553.4 186488.0 0
79816.8 185704.0 0
78090.2 190301.0 0
85120.5 186491.0 0
95034.1 186572.0 0
101291.0 187234.0 0
97843.1 189937.0 0
105727.0 190092.0 0
111334.0 186030.0 0
121624.0 190246.0 0
128114.0 189782.0 0
133269.0 185818.0 0
137501.0 188875.0 0
141902.0 185786.0 0
147421.0 185513.0 0
157247.0 187084.0 0
153547.0 190290.0 0
170763.0 186291.0 0
173358.0 189537.0 0
168441.0 189824.0 0
176884.0 185870.0 0
177763.0 190313.0 0
182324.0 187621.0 0
186890.0 185796.0 0
191540.0 186178.0 0
196352.0 187469.0 0
207160.0 185590.0 0
212100.0 190220.0 0
219803.0 186638.0 0
224912.0 186541.0 0
228654.0 187011.0 0
232783.0 186322.0 0
231020.0 190360.0 0
236991.0 186976.0 0
241284.0 190177.0 0
246730.0 189936.0 0
252429.0 190103.0 0
257766.0 186849.0 0
262740.0 186155.0 0
268252.0 185862.0 0
274070.0 185934.0 0
279360.0 187672.0 0
284555.0 185558.0 0
284006.0 190017.0 0
289710.0 186437.0 0
292653.0 189862.0 0
296541.0 187345.0 0
302313.0 185755.0 0
307427.0 186303.0 0
312320.0 190029.0 0
321328.0 186554.0 0
317596.0 189736.0 0
328008.0 189667.0 0
331731.0 185509.0 0
337285.0 186800.0 0
342892.0 186839.0 0
346837.0 186807.0 0
345488.0 190522.0 0
351169.0 185547.0 0
349528.0 189740.0 0
355338.0 190112.0 0
361684.0 186997.0 0
366979.0 185736.0 0
366495.0 190457.0 0
371661.0 185808.0 0
382206.0 185976.0 0
378341.0 188657.0 0
386898.0 186332.0 0
391454.0 186136.0 0
392587.0 190506.0 0
395531.0 186890.0 0
400533.0 187698.0 0
405867.0 186365.0 0
412518.0 189992.0 0
417174.0 188492.0 0
421026.0 190539.0 0
428260.0 186138.0 0
425376.0 190173.0 0
431956.0 189952.0 0
444696.0 185675.0 0
450506.0 187430.0 0
454495.0 190385.0 0
461368.0 186037.0 0
465830.0 187677.0 0
469293.0 190475.0 0
473165.0 186840.0 0
477806.0 185510.0 0
479087.0 190398.0 0
482450.0 185673.0 0
486599.0 188759.0 0
495007.0 186355.0 0
2239.97 190649.0 0
2126.35 195016.0 0
6957.59 194557.0 0
12438.1 192287.0 0
18046.4 191717.0 0
29075.1 192072.0 0
35956.4 191730.0 0
40996.3 191457.0 0
52812.1 191073.0 0
53575.7 195599.0 0
57600.6 192789.0 0
62542.2 195475.0 0
67219.1 195560.0 0
73648.6 193194.0 0
82804.9 191210.0 0
88772.4 191027.0 0
93970.1 191417.0 0
92508.1 195516.0 0
101250.0 191519.0 0
97467.2 194328.0 0
110243.0 191466.0 0
107193.0 194844.0 0
111836.0 195629.0 0
115522.0 191041.0 0
123249.0 195478.0 0
127768.0 195169.0 0
133715.0 190653.0 0
142031.0 191054.0 0
138524.0 194980.0 0
148122.0 192093.0 0
157985.0 191262.0 0
163105.0 190662.0 0
161568.0 195596.0 0
166876.0 194699.0 0
181597.0 192193.0 0
186463.0 191063.0 0
191580.0 190689.0 0
195894.0 193220.0 0
201126.0 190932.0 0
207149.0 191654.0 0
212779.0 194872.0 0
216816.0 191426.0 0
221592.0 192249.0 0
226068.0 191070.0 0
232480.0 195079.0 0
235877.0 191614.0 0
246708.0 194773.0 0
257588.0 192092.0 0
263726.0 191657.0 0
269619.0 191524.0 0
274597.0 190914.0 0
271763.0 195284.0 0
279909.0 193017.0 0
284275.0 194430.0 0
288594.0 191452.0 0
293592.0 194405.0 0
298731.0 192061.0 0
303650.0 190712.0 0
302635.0 195641.0 0
307801.0 190630.0 0
306697.0 194503.0 0
316842.0 194569.0 0
323362.0 191541.0 0
324884.0 195432.0 0
328698.0 194379.0 0
332712.0 190620.0 0
337422.0 192113.0 0
341924.0 190768.0 0
344150.0 194737.0 0
350106.0 195396.0 0
360673.0 192185.0 0
369401.0 195247.0 0
373427.0 190958.0 0
378300.0 193153.0 0
383175.0 191619.0 0
388078.0 190736.0 0
388079.0 195234.0 0
397119.0 190746.0 0
393155.0 195577.0 0
397930.0 194925.0 0
408062.0 191122.0 0
403358.0 191846.0 0
418444.0 193919.0 0
423550.0 195328.0 0
428722.0 193976.0 0
437687.0 191209.0 0
443672.0 191257.0 0
450714.0 193861.0 0
458791.0 191328.0 0
456144.0 195474.0 0
463932.0 191151.0 0
463205.0 195194.0 0
474371.0 191381.0 0
483697.0 192074.0 0
487590.0 195318.0 0
491397.0 190828.0 0
497411.0 190973.0 0
3067.38 200125.0 0
8546.9 199058.0 0
12573.8 197695.0 0
16006.9 195721.0 0
20035.6 196000.0 0
16414.9 199890.0 0
24883.2 195764.0 0
32217.2 196435.0 0
32651.6 200259.0 0
37670.0 197334.0 0
43314.5 195884.0 0
48683.1 196421.0 0
53255.7 200557.0 0
57453.5 197699.0 0
62499.2 199897.0 0
71131.2 197963.0 0
66930.1 199996.0 0
79092.4 195822.0 0
84536.2 195811.0 0
82346.5 199417.0 0
86388.2 199750.0 0
88600.5 196063.0 0
91249.8 200595.0 0
96598.7 199449.0 0
101326.0 200606.0 0
102447.0 195944.0 0
106449.0 200012.0 0
117995.0 196549.0 0
123222.0 200729.0 0
128381.0 199672.0 0
132820.0 195723.0 0
138696.0 200712.0 0
143145.0 195882.0 0
143899.0 199923.0 0
151877.0 195880.0 0
147994.0 198068.0 0
152638.0 200316.0 0
156564.0 196094.0 0
158014.0 200575.0 0
162828.0 199729.0 0
168108.0 200150.0 0
173249.0 195758.0 0
178607.0 195906.0 0
183538.0 196842.0 0
189460.0 195912.0 0
193910.0 197042.0 0
197936.0 200664.0 0
199741.0 195944.0 0
203874.0 196525.0 0
202910.0 200508.0 0
208363.0 196793.0 0
212054.0 199816.0 0
219056.0 196177.0 0
223358.0 195742.0 0
222466.0 199967.0 0
227641.0 195772.0 0
232446.0 199785.0 0
237744.0 196067.0 0
237075.0 200378.0 0
242304.0 196506.0 0
246112.0 199788.0 0
251882.0 196354.0 0
257453.0 196389.0 0
262302.0 197882.0 0
267695.0 195712.0 0
272511.0 199173.0 0
276112.0 195745.0 0
283184.0 199821.0 0
288569.0 196691.0 0
292752.0 200007.0 0
298810.0 196821.0 0
297362.0 200767.0 0
302084.0 200766.0 0
306878.0 199231.0 0
311690.0 195721.0 0
316042.0 199464.0 0
321343.0 196463.0 0
326141.0 200218.0 0
334156.0 196244.0 0
339613.0 196013.0 0
343320.0 199681.0 0
356720.0 196955.0 0
363259.0 196849.0 0
372381.0 200417.0 0
374927.0 196277.0 0
379747.0 197124.0 0
382018.0 200296.0 0
384039.0 197229.0 0
387361.0 199855.0 0
391823.0 200286.0 0
396403.0 199514.0 0
401994.0 196172.0 0
406600.0 195747.0 0
406568.0 200609.0 0
412750.0 195887.0 0
417744.0 199841.0 0
428006.0 200183.0 0
433884.0 196442.0 0
440196.0 197372.0 0
445499.0 195976.0 0
448659.0 198518.0 0
453283.0 200250.0 0
458565.0 199346.0 0
460060.0 195924.0 0
463264.0 199386.0 0
467453.0 195741.0 0
472542.0 195680.0 0
477866.0 195726.0 0
478469.0 200638.0 0
482745.0 196321.0 0
485388.0 199787.0 0
492464.0 196019.0 0
490345.0 199906.0 0
497811.0 195734.0 0
495338.0 199991.0 0
7504.74 203479.0 0
12198.8 202243.0 0
12516.2 205882.0 0
17156.1 205431.0 0
21305.6 200903.0 0
27458.8 201121.0 0
32906.0 204367.0 0
37782.3 202701.0 0
42292.2 201033.0 0
47948.1 201930.0 0
51663.0 205045.0 0
58927.0 201589.0 0
56219.1 205134.0 0
61491.5 205569.0 0
71363.3 202143.0 0
67358.0 205497.0 0
76178.9 201010.0 0
80897.7 203679.0 0
86725.5 205374.0 0
98370.5 204820.0 0
103679.0 204765.0 0
108524.0 205407.0 0
112396.0 201140.0 0
118079.0 201975.0 0
123562.0 205763.0 0
128430.0 204847.0 0
133236.0 201207.0 0
133084.0 205727.0 0
146819.0 202307.0 0
143074.0 204048.0 0
150635.0 204253.0 0
155608.0 204334.0 0
161150.0 204612.0 0
172596.0 201437.0 0
172930.0 205725.0 0
177249.0 201191.0 0
182429.0 201798.0 0
187089.0 200797.0 0
192267.0 201066.0 0
189254.0 205538.0 0
194196.0 205588.0 0
203778.0 204723.0 0
207317.0 201494.0 0
213126.0 205075.0 0
217207.0 201247.0 0
222500.0 205717.0 0
227446.0 201313.0 0
231395.0 203926.0 0
235368.0 204432.0 0
241379.0 200975.0 0
241016.0 205365.0 0
246233.0 205636.0 0
254530.0 200830.0 0
250353.0 201365.0 0
258829.0 201464.0 0
257745.0 205242.0 0
262640.0 204388.0 0
267461.0 201046.0 0
268634.0 205766.0 0
272475.0 203825.0 0
277243.0 201028.0 0
282623.0 205604.0 0
288201.0 201245.0 0
287940.0 205656.0 0
293354.0 205484.0 0
298037.0 204632.0 0
306755.0 204105.0 0
311365.0 201225.0 0
320407.0 200879.0 0
317152.0 205158.0 0
322868.0 205422.0 0
326690.0 205166.0 0
332575.0 202296.0 0
338274.0 201287.0 0
345203.0 204082.0 0
348146.0 200872.0 0
349873.0 205488.0 0
353184.0 201424.0 0
358609.0 202473.0 0
363215.0 202340.0 0
367630.0 200815.0 0
377383.0 201775.0 0
372556.0 205331.0 0
382870.0 204955.0 0
389039.0 204824.0 0
397264.0 204683.0 0
401419.0 201072.0 0
407524.0 205318.0 0
411924.0 202248.0 0
417005.0 205539.0 0
422243.0 202768.0 0
432027.0 205565.0 0
435860.0 201711.0 0
440095.0 202317.0 0
444890.0 201122.0 0
448961.0 201634.0 0
447799.0 205309.0 0
457762.0 204197.0 0
463141.0 204559.0 0
468255.0 200798.0 0
473568.0 200862.0 0
478106.0 205476.0 0
481964.0 201138.0 0
482748.0 205786.0 0
487714.0 204698.0 0
493263.0 204719.0 0
497793.0 204282.0 0
2829.96 206028.0 0
9650.6 207336.0 0
7266.25 210781.0 0
23578.8 206337.0 0
28506.5 206209.0 0
28801.5 210717.0 0
32714.1 209058.0 0
37935.5 208364.0 0
44152.8 206390.0 0
48945.3 208079.0 0
52879.2 210743.0 0
58204.8 209911.0 0
71367.2 210062.0 0
73109.9 206513.0 0
78019.8 207517.0 0
92878.9 206582.0 0
96749.9 210640.0 0
101922.0 209116.0 0
113660.0 206522.0 0
118714.0 207276.0 0
123400.0 210829.0 0
128618.0 210011.0 0
137599.0 206089.0 0
133599.0 210258.0 0
141645.0 208618.0 0
146707.0 206354.0 0
150729.0 209964.0 0
156817.0 209560.0 0
162659.0 210680.0 0
167133.0 206228.0 0
170992.0 210590.0 0
178055.0 206701.0 0
183646.0 206566.0 0
183156.0 210518.0 0
187236.0 210617.0 0
192613.0 210193.0 0
199080.0 206313.0 0
202932.0 209737.0 0
208281.0 206536.0 0
210968.0 210638.0 0
217849.0 206551.0 0
215635.0 210870.0 0
221229.0 210949.0 0
227501.0 205891.0 0
231619.0 208113.0 0
237598.0 210134.0 0
243857.0 210843.0 0
248911.0 210607.0 0
252674.0 206113.0 0
257368.0 208581.0 0
260306.0 210620.0 0
265513.0 209558.0 0
272403.0 210129.0 0
276637.0 206076.0 0
279497.0 210840.0 0
285573.0 209739.0 0
290272.0 209590.0 0
297344.0 209835.0 0
302173.0 206694.0 0
306870.0 209578.0 0
311384.0 206446.0 0
318331.0 210979.0 0
323489.0 210367.0 0
331450.0 206707.0 0
328122.0 208670.0 0
335626.0 207195.0 0
340787.0 205987.0 0
340957.0 210565.0 0
345704.0 209370.0 0
355442.0 207663.0 0
361536.0 207051.0 0
367139.0 206203.0 0
368942.0 210864.0 0
373329.0 210199.0 0
377576.0 207510.0 0
381326.0 210778.0 0
386958.0 210966.0 0
393433.0 206979.0 0
402358.0 206708.0 0
398519.0 210260.0 0
407766.0 210715.0 0
411982.0 207553.0 0
421586.0 207382.0 0
426097.0 206290.0 0
424601.0 210326.0 0
428967.0 210859.0 0
437812.0 206662.0 0
434133.0 210544.0 0
443164.0 206145.0 0
442784.0 210505.0 0
447715.0 210572.0 0
452667.0 206147.0 0
458329.0 210004.0 0
463618.0 209378.0 0
468206.0 205931.0 0
473093.0 206009.0 0
473602.0 210421.0 0
478153.0 210634.0 0
482811.0 209984.0 0
487499.0 210278.0 0
492502.0 209670.0 0
497557.0 208930.0 0
2515.99 211371.0 0
7678.56 215800.0 0
12111.3 211111.0 0
12006.1 215312.0 0
17585.8 211705.0 0
23407.8 212395.0 0
34061.6 214441.0 0
39399.0 213332.0 0
43270.6 211820.0 0
47705.5 211898.0 0
48753.0 215610.0 0
53058.3 215917.0 0
59507.7 215004.0 0
64163.6 211173.0 0
69253.0 212115.0 0
67604.1 215566.0 0
75113.5 211890.0 0
71689.7 215508.0 0
81048.1 211679.0 0
78272.1 215394.0 0
87052.8 212034.0 0
92019.2 211164.0 0
92001.6 215804.0 0
97002.3 215754.0 0
102130.0 215007.0 0
107424.0 211500.0 0
111123.0 215813.0 0
113364.0 211517.0 0
118426.0 212536.0 0
126570.0 215534.0 0
132454.0 215231.0 0
137996.0 211892.0 0
142292.0 215495.0 0
145477.0 211216.0 0
147729.0 214966.0 0
152626.0 215620.0 0
157520.0 214642.0 0
167210.0 214682.0 0
172467.0 215739.0 0
175345.0 212316.0 0
179613.0 211388.0 0
183464.0 214440.0 0
190425.0 215209.0 0
197961.0 211952.0 0
203348.0 215093.0 0
206817.0 212083.0 0
208204.0 216072.0 0
212589.0 215146.0 0
217689.0 215560.0 0
223418.0 215790.0 0
227174.0 211249.0 0
232764.0 215483.0 0
242262.0 215036.0 0
246591.0 214925.0 0
254153.0 212240.0 0
262648.0 214752.0 0
268085.0 214815.0 0
284049.0 213992.0 0
289109.0 214688.0 0
293626.0 212968.0 0
298801.0 215589.0 0
302299.0 211807.0 0
302786.0 215290.0 0
307484.0 215139.0 0
312363.0 212500.0 0
316380.0 215882.0 0
321287.0 216004.0 0
327593.0 214541.0 0
332372.0 211167.0 0
337063.0 211774.0 0
340751.0 214697.0 0
346461.0 215925.0 0
350926.0 211490.0 0
359287.0 211858.0 0
364348.0 211546.0 0
362683.0 215412.0 0
377201.0 212595.0 0
373234.0 215321.0 0
393346.0 211833.0 0
397595.0 214678.0 0
402905.0 211648.0 0
415874.0 211350.0 0
417743.0 215507.0 0
421174.0 212644.0 0
432060.0 215335.0 0
438735.0 211847.0 0
436727.0 215689.0 0
442763.0 215527.0 0
453042.0 211169.0 0
453406.0 215340.0 0
463592.0 213919.0 0
468164.0 211257.0 0
471815.0 214118.0 0
476445.0 215664.0 0
481095.0 213971.0 0
485651.0 214939.0 0
490703.0 215973.0 0
495993.0 214206.0 0
2475.45 216365.0 0
8255.24 220900.0 0
12760.5 220535.0 0
15774.5 216743.0 0
20838.9 217442.0 0
26807.2 216773.0 0
30946.1 220063.0 0
40048.2 217576.0 0
35925.4 220180.0 0
44699.0 216287.0 0
43626.0 220272.0 0
47751.1 219642.0 0
51804.3 219975.0 0
56824.9 220193.0 0
63883.9 216310.0 0
62574.3 220322.0 0
67165.7 220745.0 0
72515.5 220695.0 0
77987.1 219491.0 0
82474.7 216669.0 0
82530.5 221094.0 0
87143.0 217624.0 0
90160.8 220939.0 0
95223.1 220777.0 0
101126.0 220676.0 0
106970.0 217380.0 0
111796.0 220674.0 0
115818.0 217179.0 0
121101.0 217179.0 0
127623.0 220654.0 0
132213.0 220548.0 0
137140.0 216363.0 0
137230.0 220961.0 0
146465.0 219961.0 0
156134.0 219585.0 0
162024.0 216250.0 0
169288.0 221065.0 0
178177.0 216648.0 0
186110.0 218841.0 0
190987.0 220513.0 0
195410.0 216653.0 0
199780.0 217272.0 0
204952.0 219615.0 0
211641.0 219721.0 0
216525.0 220885.0 0
221725.0 220200.0 0
227725.0 216241.0 0
226717.0 220731.0 0
231973.0 219750.0 0
237949.0 216148.0 0
236085.0 221028.0 0
241458.0 219531.0 0
246784.0 220036.0 0
251476.0 216710.0 0
251437.0 220961.0 0
257652.0 216522.0 0
261543.0 220092.0 0
266309.0 219249.0 0
273558.0 216824.0 0
279483.0 217032.0 0
284961.0 219127.0 0
290170.0 219555.0 0
293848.0 217188.0 0
297267.0 220016.0 0
302687.0 218449.0 0
307434.0 219073.0 0
312815.0 218317.0 0
316962.0 220049.0 0
326193.0 219925.0 0
333597.0 216150.0 0
331841.0 221130.0 0
337884.0 217643.0 0
341775.0 220572.0 0
350385.0 220243.0 0
352477.0 216312.0 0
358047.0 217440.0 0
363425.0 220749.0 0
367602.0 216133.0 0
372659.0 220013.0 0
377755.0 217327.0 0
381266.0 220706.0 0
383126.0 216196.0 0
388876.0 216845.0 0
393913.0 217111.0 0
397808.0 220761.0 0
401991.0 216266.0 0
407550.0 216517.0 0
413352.0 216545.0 0
417329.0 220203.0 0
420747.0 216787.0 0
422295.0 220537.0 0
426073.0 216229.0 0
438896.0 219746.0 0
448811.0 217671.0 0
443935.0 221118.0 0
453761.0 220303.0 0
458504.0 216538.0 0
463032.0 220997.0 0
467774.0 216573.0 0
472245.0 219177.0 0
476526.0 220695.0 0
481586.0 219239.0 0
487400.0 219850.0 0
497268.0 219855.0 0
3208.16 221494.0 0
8043.62 225922.0 0
14925.0 225740.0 0
17404.1 221503.0 0
22004.0 222038.0 0
26225.7 221557.0 0
40001.7 223303.0 0
47199.4 224917.0 0
52667.3 224170.0 0
63750.1 225681.0 0
69577.7 226040.0 0
78841.5 224245.0 0
86297.6 221691.0 0
82761.3 225867.0 0
87411.5 226125.0 0
93077.1 226198.0 0
98831.6 226035.0 0
106556.0 222402.0 0
118330.0 221851.0 0
123277.0 221607.0 0
124180.0 225880.0 0
128408.0 225278.0 0
132874.0 224882.0 0
136856.0 225652.0 0
141706.0 222237.0 0
146521.0 225928.0 0
151571.0 222422.0 0
156635.0 226020.0 0
161836.0 222550.0 0
172254.0 226050.0 0
175978.0 222424.0 0
181609.0 221462.0 0
179233.0 226039.0 0
189310.0 225028.0 0
193665.0 225924.0 0
195748.0 221328.0 0
197501.0 225528.0 0
200530.0 222460.0 0
208470.0 221839.0 0
206293.0 224171.0 0
212277.0 225547.0 0
216828.0 225415.0 0
220995.0 225034.0 0
225760.0 225711.0 0
230999.0 224137.0 0
235669.0 225950.0 0
240560.0 224776.0 0
248386.0 224819.0 0
252574.0 224604.0 0
256158.0 221634.0 0
259987.0 224689.0 0
265484.0 224497.0 0
270630.0 221702.0 0
272925.0 225166.0 0
276600.0 221776.0 0
275662.0 225754.0 0
281965.0 224638.0 0
288343.0 224316.0 0
293743.0 221799.0 0
298770.0 224412.0 0
304642.0 223145.0 0
310143.0 221629.0 0
309164.0 225293.0 0
313931.0 223106.0 0
317702.0 225017.0 0
321557.0 221979.0 0
327797.0 224437.0 0
336684.0 221644.0 0
332500.0 225781.0 0
336868.0 226254.0 0
346617.0 221791.0 0
342203.0 226145.0 0
351674.0 225047.0 0
347211.0 226161.0 0
354414.0 221507.0 0
357648.0 225051.0 0
368533.0 221355.0 0
368505.0 225617.0 0
376993.0 222476.0 0
382579.0 224733.0 0
385753.0 221312.0 0
391601.0 221861.0 0
395893.0 225490.0 0
400749.0 225952.0 0
403439.0 221239.0 0
405935.0 225577.0 0
408196.0 221633.0 0
412657.0 221704.0 0
416962.0 226041.0 0
422188.0 225437.0 0
427069.0 222925.0 0
433143.0 221268.0 0
437982.0 225171.0 0
448491.0 223518.0 0
453587.0 225530.0 0
457904.0 222448.0 0
462245.0 225988.0 0
468107.0 221353.0 0
472251.0 224323.0 0
478247.0 225455.0 0
483448.0 224362.0 0
487732.0 224521.0 0
492244.0 222374.0 0
497110.0 225456.0 0
2743.21 226922.0 0
6630.62 230857.0 0
11766.4 228402.0 0
19913.1 226315.0 0
16446.3 230981.0 0
25332.7 226401.0 0
22137.5 231115.0 0
26809.4 230976.0 0
32697.2 226856.0 0
42531.7 228272.0 0
47182.2 230048.0 0
52162.2 229595.0 0
57752.6 226434.0 0
62695.9 231061.0 0
67631.0 231382.0 0
74693.3 226573.0 0
72733.6 231119.0 0
77869.6 230497.0 0
83358.2 230581.0 0
88731.9 231085.0 0
93486.9 231058.0 0
97429.9 230670.0 0
103892.0 226585.0 0
107221.0 226409.0 0
111637.0 226546.0 0
107419.0 229660.0 0
116409.0 229239.0 0
120393.0 226579.0 0
125861.0 230204.0 0
131749.0 229606.0 0
137381.0 230531.0 0
141100.0 226421.0 0
143321.0 231321.0 0
151900.0 227813.0 0
148472.0 230878.0 0
157306.0 231019.0 0
160667.0 228093.0 0
163249.0 230455.0 0
166705.0 227332.0 0
170863.0 229486.0 0
175911.0 230057.0 0
184126.0 226667.0 0
189130.0 230275.0 0
194261.0 230677.0 0
202958.0 226306.0 0
199453.0 229879.0 0
207406.0 228962.0 0
216146.0 230936.0 0
221748.0 229283.0 0
226486.0 230986.0 0
232438.0 230128.0 0
238426.0 229886.0 0
244747.0 229105.0 0
251369.0 229594.0 0
256072.0 226632.0 0
256830.0 231159.0 0
261848.0 229273.0 0
270072.0 228517.0 0
274194.0 231256.0 0
278042.0 228788.0 0
283471.0 230959.0 0
289016.0 229643.0 0
293483.0 226473.0 0
297207.0 229293.0 0
302996.0 229619.0 0
308798.0 230514.0 0
312952.0 227847.0 0
318354.0 230295.0 0
323360.0 227169.0 0
328785.0 229659.0 0
339585.0 230809.0 0
344925.0 230611.0 0
349981.0 230147.0 0
354423.0 228666.0 0
363234.0 227103.0 0
368159.0 230337.0 0
373399.0 226835.0 0
379104.0 226882.0 0
382474.0 230377.0 0
387081.0 226911.0 0
392325.0 228046.0 0
396150.0 230866.0 0
406694.0 230738.0 0
411228.0 226878.0 0
415492.0 231079.0 0
421159.0 231023.0 0
426356.0 228479.0 0
431392.0 226965.0 0
435838.0 231192.0 0
443846.0 226994.0 0
446667.0 231358.0 0
449068.0 227867.0 0
458356.0 226645.0 0
456081.0 230310.0 0
461501.0 231038.0 0
467273.0 226359.0 0
472915.0 229522.0 0
478058.0 230925.0 0
482526.0 228825.0 0
487864.0 229650.0 0
492454.0 227363.0 0
493650.0 231261.0 0
498089.0 230136.0 0
2122.02 231748.0 0
8166.92 235800.0 0
10875.9 232055.0 0
12898.0 235163.0 0
16335.5 235812.0 0
20387.8 235692.0 0
31183.1 234657.0 0
38040.4 232302.0 0
44039.8 232788.0 0
53096.9 236081.0 0
57346.0 232531.0 0
63564.2 236214.0 0
68266.8 235779.0 0
72452.4 235968.0 0
77184.5 235610.0 0
86321.0 234705.0 0
82033.8 235689.0 0
91303.1 235622.0 0
96816.8 235071.0 0
102461.0 231796.0 0
111802.0 232911.0 0
116466.0 235643.0 0
120438.0 232438.0 0
126005.0 236363.0 0
132126.0 235990.0 0
137823.0 236171.0 0
147536.0 235430.0 0
152885.0 232342.0 0
157566.0 236007.0 0
162718.0 234956.0 0
168105.0 232746.0 0
172608.0 235245.0 0
177864.0 235348.0 0
181669.0 231876.0 0
186384.0 234616.0 0
192096.0 235156.0 0
196637.0 235832.0 0
203612.0 231888.0 0
201128.0 235352.0 0
206784.0 235171.0 0
210863.0 232635.0 0
212749.0 235757.0 0
221804.0 233946.0 0
226812.0 236089.0 0
231560.0 235757.0 0
236406.0 234809.0 0
241221.0 234346.0 0
245786.0 234453.0 0
250445.0 235486.0 0
255192.0 235336.0 0
260761.0 235448.0 0
266237.0 232614.0 0
271149.0 234922.0 0
278150.0 234524.0 0
288450.0 234935.0 0
293254.0 231985.0 0
298382.0 234502.0 0
303448.0 235171.0 0
308180.0 235521.0 0
314342.0 235630.0 0
319257.0 235234.0 0
324038.0 232617.0 0
328964.0 235232.0 0
334060.0 231403.0 0
333143.0 235614.0 0
336742.0 235566.0 0
342583.0 235972.0 0
347875.0 235133.0 0
353204.0 234829.0 0
358645.0 231769.0 0
363894.0 232695.0 0
372317.0 231555.0 0
367786.0 235986.0 0
376966.0 231415.0 0
373558.0 236196.0 0
382644.0 235629.0 0
378329.0 235925.0 0
387497.0 231394.0 0
387500.0 235930.0 0
392130.0 232154.0 0
390845.0 235732.0 0
394214.0 235325.0 0
401230.0 231419.0 0
397994.0 235324.0 0
411221.0 231750.0 0
412259.0 236383.0 0
417888.0 235891.0 0
423014.0 236287.0 0
428512.0 231993.0 0
427880.0 235885.0 0
430950.0 231397.0 0
432793.0 236348.0 0
442048.0 232934.0 0
447092.0 235617.0 0
451290.0 232580.0 0
456326.0 235258.0 0
466933.0 231766.0 0
466170.0 236348.0 0
470974.0 234511.0 0
476161.0 235950.0 0
482654.0 234826.0 0
488905.0 235215.0 0
497009.0 234918.0 0
2814.11 236540.0 0
2322.44 240982.0 0
7488.63 240646.0 0
11901.7 239130.0 0
17722.8 240055.0 0
25272.9 236919.0 0
22193.6 240649.0 0
25715.7 241444.0 0
33500.8 240242.0 0
37230.2 237644.0 0
41789.9 236651.0 0
47441.2 236769.0 0
51630.1 241426.0 0
58686.8 237821.0 0
67516.8 240495.0 0
72507.6 240579.0 0
81268.0 240811.0 0
87015.7 239726.0 0
92310.0 240891.0 0
101397.0 237687.0 0
97256.7 240912.0 0
107502.0 237884.0 0
113004.0 237737.0 0
121275.0 237174.0 0
117640.0 241185.0 0
123433.0 240912.0 0
128783.0 241418.0 0
134059.0 241030.0 0
142844.0 236707.0 0
137961.0 240761.0 0
142164.0 240708.0 0
147511.0 241230.0 0
152633.0 236984.0 0
158961.0 240396.0 0
162909.0 240332.0 0
167301.0 237776.0 0
172000.0 239678.0 0
177738.0 240884.0 0
182315.0 236970.0 0
188251.0 239591.0 0
193907.0 240448.0 0
199064.0 240167.0 0
204167.0 240597.0 0
214034.0 239125.0 0
209502.0 240242.0 0
217647.0 236849.0 0
217450.0 241231.0 0
222153.0 239437.0 0
226339.0 239954.0 0
230557.0 241280.0 0
235739.0 239549.0 0
240062.0 237717.0 0
243722.0 238642.0 0
250373.0 240878.0 0
256484.0 240759.0 0
262636.0 241075.0 0
266788.0 238132.0 0
272518.0 240564.0 0
278321.0 240337.0 0
283278.0 237785.0 0
289976.0 240430.0 0
293470.0 236884.0 0
294940.0 241331.0 0
299370.0 239857.0 0
303650.0 239169.0 0
307812.0 240679.0 0
317908.0 240037.0 0
322900.0 238363.0 0
327970.0 240266.0 0
333177.0 239899.0 0
338980.0 241257.0 0
344305.0 241257.0 0
346985.0 238688.0 0
351178.0 240932.0 0
357763.0 237454.0 0
362504.0 237506.0 0
367642.0 241350.0 0
377591.0 240602.0 0
387666.0 240394.0 0
383032.0 240793.0 0
390581.0 241275.0 0
394663.0 239943.0 0
400642.0 239710.0 0
405860.0 236769.0 0
428624.0 240714.0 0
433383.0 241168.0 0
437679.0 236836.0 0
441771.0 237602.0 0
448819.0 240479.0 0
444220.0 241401.0 0
452124.0 237743.0 0
457222.0 241523.0 0
461266.0 236693.0 0
462829.0 241169.0 0
470795.0 239700.0 0
482886.0 241568.0 0
488671.0 240726.0 0
492847.0 238060.0 0
497141.0 240779.0 0
2875.34 244815.0 0
7660.86 245107.0 0
13293.5 243529.0 0
17516.9 244947.0 0
21988.2 244935.0 0
29627.5 243232.0 0
25931.3 245341.0 0
33841.1 246103.0 0
36831.1 242661.0 0
38550.8 246129.0 0
41263.0 241880.0 0
46269.9 242000.0 0
47500.0 245743.0 0
56866.5 242081.0 0
58904.1 246634.0 0
62241.7 241670.0 0
69001.3 245592.0 0
73872.6 245050.0 0
76625.9 241643.0 0
77214.8 245469.0 0
80689.8 245913.0 0
86319.8 246033.0 0
92812.2 245898.0 0
98243.6 246173.0 0
102435.0 242837.0 0
106772.0 243028.0 0
111799.0 241713.0 0
109023.0 246211.0 0
113205.0 245826.0 0
122442.0 245698.0 0
126563.0 246309.0 0
131864.0 245767.0 0
136845.0 245309.0 0
144011.0 245996.0 0
152877.0 241918.0 0
150421.0 245790.0 0
157089.0 245616.0 0
162995.0 244719.0 0
167203.0 242414.0 0
173056.0 245311.0 0
183261.0 241650.0 0
183037.0 246263.0 0
186686.0 244969.0 0
191847.0 245325.0 0
196808.0 244515.0 0
201799.0 245613.0 0
207325.0 245342.0 0
213612.0 243394.0 0
216951.0 246416.0 0
220492.0 244274.0 0
225392.0 243805.0 0
229383.0 246317.0 0
235827.0 245028.0 0
240023.0 241698.0 0
245175.0 244718.0 0
252508.0 245893.0 0
257227.0 246215.0 0
262347.0 245852.0 0
267373.0 243645.0 0
272616.0 246671.0 0
277796.0 245355.0 0
282857.0 243325.0 0
289752.0 245203.0 0
293410.0 244908.0 0
297866.0 245829.0 0
303742.0 244319.0 0
309258.0 246244.0 0
313023.0 241819.0 0
320283.0 244365.0 0
324599.0 242934.0 0
328756.0 245899.0 0
334647.0 245208.0 0
342797.0 246407.0 0
348328.0 245731.0 0
354572.0 245653.0 0
358168.0 241834.0 0
358833.0 245795.0 0
362960.0 242411.0 0
362309.0 246466.0 0
366736.0 246391.0 0
372881.0 241826.0 0
376886.0 244424.0 0
380640.0 245075.0 0
386650.0 245573.0 0
391383.0 244659.0 0
396441.0 245651.0 0
400518.0 244087.0 0
404216.0 243012.0 0
409729.0 242229.0 0
416363.0 241676.0 0
422815.0 241945.0 0
426881.0 245551.0 0
431423.0 245456.0 0
438576.0 242089.0 0
447551.0 245656.0 0
452096.0 241733.0 0
452805.0 245920.0 0
461589.0 245386.0 0
466795.0 242437.0 0
465845.0 246493.0 0
470830.0 245494.0 0
476401.0 242329.0 0
480520.0 245985.0 0
485119.0 246612.0 0
492897.0 241781.0 0
491128.0 246573.0 0
497365.0 246271.0 0
2104.54 248973.0 0
6793.04 250602.0 0
12523.0 248890.0 0
18520.6 249984.0 0
24345.7 249711.0 0
30115.0 250082.0 0
35415.9 251518.0 0
39870.7 250186.0 0
43314.0 246941.0 0
47477.3 249916.0 0
51972.6 247072.0 0
56703.8 251665.0 0
64491.1 246863.0 0
61962.6 251678.0 0
66636.2 251356.0 0
71689.1 249938.0 0
77189.7 249087.0 0
82289.6 250900.0 0
93312.8 250004.0 0
97500.0 250777.0 0
103093.0 246801.0 0
102237.0 250577.0 0
107094.0 250352.0 0
112294.0 250080.0 0
117544.0 246895.0 0
117490.0 251509.0 0
122473.0 249771.0 0
132593.0 250532.0 0
127672.0 251274.0 0
137655.0 250251.0 0
140204.0 247618.0 0
142127.0 250683.0 0
147641.0 250470.0 0
153050.0 249803.0 0
157499.0 251497.0 0
161582.0 249646.0 0
167641.0 247077.0 0
165672.0 251329.0 0
171241.0 251182.0 0
176246.0 251177.0 0
178844.0 246950.0 0
180337.0 251619.0 0
184973.0 250049.0 0
190265.0 249614.0 0
195409.0 250103.0 0
201316.0 251067.0 0
206588.0 251391.0 0
212330.0 249219.0 0
218112.0 250756.0 0
222876.0 248734.0 0
227520.0 251356.0 0
232621.0 249892.0 0
238159.0 250690.0 0
240232.0 246713.0 0
243785.0 251049.0 0
248619.0 249636.0 0
255018.0 249947.0 0
259923.0 250118.0 0
266656.0 250684.0 0
272630.0 251605.0 0
276489.0 250214.0 0
281554.0 249076.0 0
285973.0 246832.0 0
287000.0 251422.0 0
292795.0 249726.0 0
298712.0 251695.0 0
303437.0 249613.0 0
307680.0 250899.0 0
315409.0 247239.0 0
319099.0 251596.0 0
323680.0 247878.0 0
328205.0 251542.0 0
332672.0 249846.0 0
338210.0 247457.0 0
337203.0 251237.0 0
341734.0 251643.0 0
346946.0 251139.0 0
352949.0 250927.0 0
358288.0 249613.0 0
363848.0 250861.0 0
371992.0 247213.0 0
368585.0 250499.0 0
377266.0 248725.0 0
372513.0 251090.0 0
383137.0 250044.0 0
392798.0 249395.0 0
388492.0 251275.0 0
396701.0 251169.0 0
401636.0 249161.0 0
407478.0 247693.0 0
413219.0 247525.0 0
418110.0 246722.0 0
417500.0 250676.0 0
422109.0 247099.0 0
423651.0 251001.0 0
429096.0 249750.0 0
432842.0 250936.0 0
436291.0 247435.0 0
442102.0 246742.0 0
439593.0 251093.0 0
445090.0 250737.0 0
449569.0 250393.0 0
453927.0 250739.0 0
457500.0 247588.0 0
461736.0 249949.0 0
466238.0 251202.0 0
472011.0 251520.0 0
476633.0 248252.0 0
481394.0 250605.0 0
497596.0 251304.0 0
3506.55 256054.0 0
8912.79 255869.0 0
12819.1 254316.0 0
18046.0 256195.0 0
23734.9 255077.0 0
29008.9 255877.0 0
33721.3 255680.0 0
38524.5 256001.0 0
43528.9 252229.0 0
47740.1 254679.0 0
51742.9 251911.0 0
52005.7 256468.0 0
61797.5 256386.0 0
66401.1 255948.0 0
71635.3 255823.0 0
78212.4 256304.0 0
84123.8 255644.0 0
88451.0 252349.0 0
94100.9 254219.0 0
99300.8 255474.0 0
108321.0 255316.0 0
113639.0 254922.0 0
122397.0 254163.0 0
118191.0 255957.0 0
126895.0 256220.0 0
131340.0 255369.0 0
135407.0 254009.0 0
139970.0 254956.0 0
145202.0 255605.0 0
151689.0 255913.0 0
157469.0 256659.0 0
162233.0 255075.0 0
167847.0 255644.0 0
173470.0 256819.0 0
178664.0 255591.0 0
183505.0 255596.0 0
188835.0 253720.0 0
193410.0 256348.0 0
198170.0 254813.0 0
202235.0 256386.0 0
207020.0 256560.0 0
212386.0 255618.0 0
217321.0 255220.0 0
221947.0 254070.0 0
226302.0 256140.0 0
231241.0 255289.0 0
236066.0 255873.0 0
240757.0 255714.0 0
247339.0 255071.0 0
251719.0 252947.0 0
256830.0 255101.0 0
262032.0 255263.0 0
272439.0 256349.0 0
277766.0 254647.0 0
282668.0 254571.0 0
294266.0 256342.0 0
299728.0 256510.0 0
304164.0 254624.0 0
308986.0 255893.0 0
312771.0 252513.0 0
320380.0 256607.0 0
323793.0 252102.0 0
326090.0 256841.0 0
333148.0 256008.0 0
339134.0 256535.0 0
343427.0 255663.0 0
347360.0 255938.0 0
351798.0 256472.0 0
357551.0 254963.0 0
363004.0 255896.0 0
368198.0 255338.0 0
373376.0 254758.0 0
378051.0 253827.0 0
382800.0 256194.0 0
392116.0 254350.0 0
397059.0 255519.0 0
402873.0 255833.0 0
407561.0 255835.0 0
408628.0 252286.0 0
412943.0 252488.0 0
411391.0 256786.0 0
416297.0 255638.0 0
421523.0 255434.0 0
427085.0 254815.0 0
436285.0 254604.0 0
442629.0 256004.0 0
449566.0 256020.0 0
458045.0 252152.0 0
454948.0 255409.0 0
459037.0 256438.0 0
462491.0 254176.0 0
466451.0 256064.0 0
470799.0 256688.0 0
477069.0 252879.0 0
475074.0 256434.0 0
487084.0 251822.0 0
492809.0 252469.0 0
491395.0 256678.0 0
496534.0 256781.0 0
7861.46 259933.0 0
13199.3 260226.0 0
22913.6 260709.0 0
28302.8 261021.0 0
33684.6 260590.0 0
38744.1 260939.0 0
43678.3 256952.0 0
42462.4 260784.0 0
47500.0 260552.0 0
52555.7 260864.0 0
56980.5 257072.0 0
62773.8 260852.0 0
67039.8 260751.0 0
72935.3 261874.0 0
82589.4 260697.0 0
87689.1 257424.0 0
87056.8 261339.0 0
92062.7 259535.0 0
97669.9 260763.0 0
103854.0 256909.0 0
102295.0 260580.0 0
107408.0 261149.0 0
113346.0 260339.0 0
121263.0 259449.0 0
117556.0 261689.0 0
129836.0 259636.0 0
135557.0 259807.0 0
141812.0 259824.0 0
147630.0 261953.0 0
152821.0 261263.0 0
156965.0 261136.0 0
162567.0 261189.0 0
168617.0 261163.0 0
178549.0 260676.0 0
188014.0 259605.0 0
193380.0 261150.0 0
197875.0 259837.0 0
202714.0 260581.0 0
206545.0 260949.0 0
210422.0 260197.0 0
215942.0 259741.0 0
222038.0 260203.0 0
227897.0 260603.0 0
232876.0 259752.0 0
237582.0 260349.0 0
243280.0 260196.0 0
248659.0 260547.0 0
251815.0 256955.0 0
254441.0 260622.0 0
259266.0 259961.0 0
262881.0 261713.0 0
266335.0 258008.0 0
270747.0 260631.0 0
276853.0 259214.0 0
282804.0 260725.0 0
287553.0 256908.0 0
292370.0 261890.0 0
298262.0 260807.0 0
306021.0 260212.0 0
310180.0 261755.0 0
315358.0 257407.0 0
311334.0 258940.0 0
318471.0 260664.0 0
322500.0 260838.0 0
328895.0 261501.0 0
337008.0 260394.0 0
341114.0 260322.0 0
346175.0 260463.0 0
357133.0 260281.0 0
361936.0 260810.0 0
372170.0 259374.0 0
377868.0 259821.0 0
387995.0 256989.0 0
389039.0 261760.0 0
392971.0 259566.0 0
398548.0 260944.0 0
404604.0 260993.0 0
408304.0 261001.0 0
411600.0 261079.0 0
415648.0 260434.0 0
420773.0 260923.0 0
427257.0 261368.0 0
431834.0 257082.0 0
432707.0 261151.0 0
437828.0 261203.0 0
453715.0 260243.0 0
458587.0 260529.0 0
462382.0 258647.0 0
466457.0 260944.0 0
471667.0 261345.0 0
476745.0 261011.0 0
479817.0 256924.0 0
482120.0 261793.0 0
485462.0 257484.0 0
489726.0 260804.0 0
3164.76 262717.0 0
6289.88 266916.0 0
11599.3 266342.0 0
18016.5 262169.0 0
17536.7 266632.0 0
22464.0 266380.0 0
27690.3 266082.0 0
32846.6 265970.0 0
37849.2 265472.0 0
42860.5 265574.0 0
47500.0 265636.0 0
52500.0 265555.0 0
57796.0 262387.0 0
57471.9 266847.0 0
62273.8 265909.0 0
67614.2 265137.0 0
78321.3 262103.0 0
77001.9 265991.0 0
81628.2 265602.0 0
86239.6 265461.0 0
91741.3 265948.0 0
97809.8 266151.0 0
102672.0 265130.0 0
111197.0 265221.0 0
115542.0 266018.0 0
120820.0 265338.0 0
125796.0 262137.0 0
126022.0 266969.0 0
131561.0 265623.0 0
137592.0 265995.0 0
143035.0 266429.0 0
152341.0 265245.0 0
156782.0 265816.0 0
161258.0 267027.0 0
165876.0 265697.0 0
170824.0 266118.0 0
173686.0 262189.0 0
176309.0 266759.0 0
183149.0 262309.0 0
181158.0 265829.0 0
190742.0 264533.0 0
195922.0 265477.0 0
202304.0 264266.0 0
207039.0 265961.0 0
212706.0 264407.0 0
217377.0 264161.0 0
221337.0 265703.0 0
226121.0 265437.0 0
231896.0 264804.0 0
236939.0 266916.0 0
240966.0 264446.0 0
246411.0 266517.0 0
252565.0 265888.0 0
257938.0 263992.0 0
262485.0 266754.0 0
267417.0 263709.0 0
272718.0 264714.0 0
277819.0 263915.0 0
288045.0 262213.0 0
289990.0 266733.0 0
296046.0 265982.0 0
302074.0 264865.0 0
308487.0 265719.0 0
314048.0 262428.0 0
318489.0 265233.0 0
325758.0 265195.0 0
331008.0 266952.0 0
333246.0 262392.0 0
336305.0 266074.0 0
342218.0 265719.0 0
347986.0 266654.0 0
352134.0 262579.0 0
357709.0 266137.0 0
363365.0 265734.0 0
367470.0 262113.0 0
372124.0 265493.0 0
377592.0 265785.0 0
383976.0 262238.0 0
388198.0 266630.0 0
393854.0 265242.0 0
403548.0 266791.0 0
413407.0 265266.0 0
418013.0 265878.0 0
422330.0 265964.0 0
432985.0 265408.0 0
437053.0 266129.0 0
443858.0 262253.0 0
448899.0 262140.0 0
447415.0 265516.0 0
451703.0 266096.0 0
455864.0 264512.0 0
461828.0 265822.0 0
468602.0 266525.0 0
474669.0 266431.0 0
480001.0 265894.0 0
486591.0 266020.0 0
493000.0 262795.0 0
497149.0 262775.0 0
498364.0 267094.0 0
2175.07 267964.0 0
6704.61 270786.0 0
17237.5 271130.0 0
21689.6 271254.0 0
26625.8 271284.0 0
32269.7 271424.0 0
37800.7 270543.0 0
42911.0 270690.0 0
48373.5 270509.0 0
53049.3 270737.0 0
57491.6 271132.0 0
62500.0 270722.0 0
67351.0 270746.0 0
72220.4 267594.0 0
72974.1 271931.0 0
77090.5 270919.0 0
80945.8 270906.0 0
86598.8 270633.0 0
98143.1 271196.0 0
106904.0 267295.0 0
102893.0 270147.0 0
112144.0 270523.0 0
117790.0 270390.0 0
127517.0 270685.0 0
123041.0 272056.0 0
135064.0 269499.0 0
139796.0 272122.0 0
148518.0 267759.0 0
153459.0 271045.0 0
159444.0 271571.0 0
165971.0 270911.0 0
171468.0 271345.0 0
186199.0 267820.0 0
191893.0 269273.0 0
201259.0 269223.0 0
211884.0 270175.0 0
217608.0 268877.0 0
222978.0 270363.0 0
228692.0 270400.0 0
233722.0 269770.0 0
236995.0 271445.0 0
241147.0 269787.0 0
251703.0 271331.0 0
257164.0 268462.0 0
268875.0 269687.0 0
276201.0 268132.0 0
279006.0 271179.0 0
283400.0 267761.0 0
288574.0 271485.0 0
293670.0 271679.0 0
300165.0 271027.0 0
305245.0 269357.0 0
308845.0 271608.0 0
313699.0 267559.0 0
316760.0 270400.0 0
320564.0 272075.0 0
322154.0 267942.0 0
326673.0 271630.0 0
333859.0 271906.0 0
338664.0 270452.0 0
342798.0 271188.0 0
347414.0 271625.0 0
352469.0 268235.0 0
357815.0 271922.0 0
362634.0 270556.0 0
367618.0 268218.0 0
371858.0 270957.0 0
377434.0 271706.0 0
382666.0 268512.0 0
386621.0 272157.0 0
391984.0 271422.0 0
397811.0 269099.0 0
406987.0 271739.0 0
409206.0 267540.0 0
411810.0 271240.0 0
417020.0 270418.0 0
422569.0 271699.0 0
427432.0 268120.0 0
432183.0 272001.0 0
437978.0 271350.0 0
442559.0 267741.0 0
448192.0 270570.0 0
455969.0 270422.0 0
466227.0 271035.0 0
477526.0 271233.0 0
481988.0 269871.0 0
493167.0 267171.0 0
497015.0 271862.0 0
2648.09 272245.0 0
11883.6 273128.0 0
92663.0 272542.0 0
107106.0 272649.0 0
131673.0 272427.0 0
146648.0 272992.0 0
162837.0 274564.0 0
177282.0 272979.0 0
183207.0 273095.0 0
188841.0 273414.0 0
195957.0 273114.0 0
201240.0 274658.0 0
206428.0 272687.0 0
204492.0 277214.0 0
210812.0 275839.0 0
216438.0 274620.0 0
222489.0 276095.0 0
227977.0 275805.0 0
233946.0 274592.0 0
240347.0 275564.0 0
246184.0 272944.0 0
253459.0 276104.0 0
258367.0 273446.0 0
263462.0 272342.0 0
261350.0 276511.0 0
265854.0 277240.0 0
274485.0 272373.0 0
270677.0 275210.0 0
278584.0 276658.0 0
284464.0 274140.0 0
289808.0 276027.0 0
297116.0 276400.0 0
304978.0 273358.0 0
302365.0 276953.0 0
313435.0 272556.0 0
352857.0 273060.0 0
367023.0 272565.0 0
382625.0 272870.0 0
396544.0 273216.0 0
401645.0 273513.0 0
427263.0 273831.0 0
442949.0 273294.0 0
452072.0 273738.0 0
461567.0 272380.0 0
471902.0 272749.0 0
481332.0 273713.0 0
486494.0 273334.0 0
491854.0 272278.0 0
199607.0 279586.0 0
204488.0 281346.0 0
209493.0 280833.0 0
215749.0 280724.0 0
221155.0 281474.0 0
226670.0 281499.0 0
231492.0 279133.0 0
236573.0 277922.0 0
235347.0 281093.0 0
244595.0 278636.0 0
240454.0 281674.0 0
248984.0 277508.0 0
252374.0 281041.0 0
257891.0 278999.0 0
262160.0 279601.0 0
271449.0 280342.0 0
276396.0 282023.0 0
283439.0 278783.0 0
280913.0 281916.0 0
287239.0 280331.0 0
293205.0 280913.0 0
299462.0 281769.0 0
200599.0 285873.0 0
206857.0 285840.0 0
212376.0 285054.0 0
218227.0 286401.0 0
223371.0 285395.0 0
227361.0 287452.0 0
231837.0 284438.0 0
236743.0 284759.0 0
240972.0 287403.0 0
245805.0 283781.0 0
250602.0 285348.0 0
256849.0 285395.0 0
262916.0 283669.0 0
268024.0 284492.0 0
273334.0 286711.0 0
278867.0 285928.0 0
284546.0 283193.0 0
283257.0 286803.0 0
288798.0 285622.0 0
294280.0 286517.0 0
298335.0 286475.0 0
202196.0 292250.0 0
208356.0 291343.0 0
213612.0 290136.0 0
218701.0 291773.0 0
223728.0 291382.0 0
228247.0 292031.0 0
231691.0 289808.0 0
236107.0 288819.0 0
240609.0 291482.0 0
246393.0 289646.0 0
252225.0 290079.0 0
257461.0 291292.0 0
261596.0 288785.0 0
266656.0 289721.0 0
271774.0 291479.0 0
276888.0 290703.0 0
281063.0 289844.0 0
285881.0 290821.0 0
291447.0 290561.0 0
297259.0 291077.0 0
10310.7 295679.0 0
206153.0 296747.0 0
210362.0 295338.0 0
215225.0 295670.0 0
220839.0 295995.0 0
226515.0 296973.0 0
231235.0 294413.0 0
237016.0 294253.0 0
243174.0 294255.0 0
248826.0 295021.0 0
254694.0 295229.0 0
261844.0 294100.0 0
268396.0 296193.0 0
274590.0 294750.0 0
279533.0 293553.0 0
278611.0 297635.0 0
283531.0 295756.0 0
289154.0 295347.0 0
293903.0 294671.0 0
297934.0 297249.0 0
309756.0 297209.0 0
341742.0 293343.0 0
174681.0 302128.0 0
201847.0 299375.0 0
206271.0 302056.0 0
211460.0 300190.0 0
216934.0 301210.0 0
222286.0 300860.0 0
228069.0 301481.0 0
232157.0 299481.0 0
237078.0 299636.0 0
241927.0 299693.0 0
247683.0 300914.0 0
253254.0 300382.0 0
258651.0 298887.0 0
262734.0 301455.0 0
267379.0 302470.0 0
273114.0 301069.0 0
282836.0 300004.0 0
287138.0 301610.0 0
292973.0 299890.0 0
389098.0 302199.0 0
404603.0 300465.0 0
421499.0 301736.0 0
443009.0 301384.0 0
455114.0 301765.0 0
472319.0 302508.0 0
497243.0 301333.0 0
6878.9 305489.0 0
48261.5 303103.0 0
56374.4 307017.0 0
63868.7 307026.0 0
96187.4 307293.0 0
100416.0 306740.0 0
126005.0 306460.0 0
167796.0 305351.0 0
177286.0 306181.0 0
191569.0 307333.0 0
201387.0 304150.0 0
205167.0 306950.0 0
210452.0 305862.0 0
215542.0 305904.0 0
220110.0 305315.0 0
225538.0 304963.0 0
231436.0 305610.0 0
237528.0 304550.0 0
242316.0 307585.0 0
248061.0 306972.0 0
253781.0 305729.0 0
258820.0 304081.0 0
263577.0 306633.0 0
269203.0 307587.0 0
274267.0 306324.0 0
279199.0 303357.0 0
284306.0 306595.0 0
288822.0 306202.0 0
292783.0 305172.0 0
297851.0 303750.0 0
317421.0 305428.0 0
322450.0 306819.0 0
357807.0 304935.0 0
362467.0 303352.0 0
368610.0 303134.0 0
374583.0 305776.0 0
437044.0 305026.0 0
461586.0 305626.0 0
476569.0 305752.0 0
481239.0 306844.0 0
492537.0 303485.0 0
14254.8 310042.0 0
22442.4 311357.0 0
30433.9 311262.0 0
36537.1 311795.0 0
68827.6 308045.0 0
75161.9 310081.0 0
79658.9 308780.0 0
85031.3 309477.0 0
107589.0 308477.0 0
111005.0 310321.0 0
115161.0 308779.0 0
121008.0 308672.0 0
131855.0 310783.0 0
137504.0 309796.0 0
142262.0 312048.0 0
154054.0 309082.0 0
158565.0 308476.0 0
173221.0 311204.0 0
178735.0 309547.0 0
196244.0 308261.0 0
200900.0 308508.0 0
208028.0 309943.0 0
204100.0 311592.0 0
213372.0 310766.0 0
217865.0 309580.0 0
222340.0 309486.0 0
227474.0 310260.0 0
233034.0 311343.0 0
238145.0 310529.0 0
241726.0 312359.0 0
245379.0 311488.0 0
251042.0 311852.0 0
259036.0 308490.0 0
255492.0 310272.0 0
261780.0 310927.0 0
267220.0 312630.0 0
273093.0 310615.0 0
277794.0 310047.0 0
282139.0 310369.0 0
284670.0 312853.0 0
287741.0 310356.0 0
292945.0 310176.0 0
297436.0 308752.0 0
309917.0 308714.0 0
322451.0 311531.0 0
326630.0 312290.0 0
330913.0 312564.0 0
339605.0 311908.0 0
391311.0 308877.0 0
396056.0 310316.0 0
417127.0 311382.0 0
423600.0 309687.0 0
439714.0 312247.0 0
449230.0 311398.0 0
462790.0 312075.0 0
466760.0 310888.0 0
471850.0 309485.0 0
479717.0 312128.0 0
484429.0 312208.0 0
497839.0 310784.0 0
8033.11 315678.0 0
14588.8 316866.0 0
17655.2 313358.0 0
30589.4 317463.0 0
40985.6 316200.0 0
48339.7 314006.0 0
45936.2 317675.0 0
53010.0 314004.0 0
88220.9 315468.0 0
93065.2 313394.0 0
97919.2 315519.0 0
102310.0 317626.0 0
113050.0 317684.0 0
119140.0 315669.0 0
124379.0 313567.0 0
126262.0 317774.0 0
146000.0 315500.0 0
150902.0 313371.0 0
155278.0 316737.0 0
169989.0 316456.0 0
178042.0 313048.0 0
177575.0 317218.0 0
188930.0 317526.0 0
199558.0 316141.0 0
204433.0 316730.0 0
209341.0 314316.0 0
215093.0 316289.0 0
220097.0 313563.0 0
222118.0 317828.0 0
225968.0 315240.0 0
230719.0 316098.0 0
236404.0 315833.0 0
241440.0 316131.0 0
247372.0 316920.0 0
253458.0 316349.0 0
257879.0 314147.0 0
262774.0 315153.0 0
267274.0 317964.0 0
271749.0 315063.0 0
276226.0 316522.0 0
280751.0 314603.0 0
287901.0 315310.0 0
292521.0 315085.0 0
296812.0 313248.0 0
300465.0 315695.0 0
296338.0 318007.0 0
304825.0 316161.0 0
308727.0 315355.0 0
318277.0 315552.0 0
335045.0 315223.0 0
345114.0 314100.0 0
342101.0 317501.0 0
348027.0 317655.0 0
364943.0 316657.0 0
377600.0 317519.0 0
383597.0 316310.0 0
388726.0 313392.0 0
390690.0 317322.0 0
393964.0 315199.0 0
398809.0 317350.0 0
407296.0 314469.0 0
412976.0 316791.0 0
422388.0 315153.0 0
426612.0 313256.0 0
431907.0 313959.0 0
436080.0 315796.0 0
444222.0 314505.0 0
458451.0 314264.0 0
478880.0 317348.0 0
489239.0 315133.0 0
2631.23 318648.0 0
10165.2 321901.0 0
18911.2 319193.0 0
27252.5 321516.0 0
37311.7 319795.0 0
44551.6 323156.0 0
54909.3 320664.0 0
60744.6 321713.0 0
85759.2 320683.0 0
91010.0 320816.0 0
92904.6 318403.0 0
96476.5 319840.0 0
100409.0 322009.0 0
105708.0 320716.0 0
118044.0 322973.0 0
127597.0 322502.0 0
137141.0 319234.0 0
132697.0 321153.0 0
166524.0 320511.0 0
175197.0 322552.0 0
183092.0 318872.0 0
194756.0 318785.0 0
208791.0 319542.0 0
204261.0 322243.0 0
213025.0 322691.0 0
218439.0 321380.0 0
222804.0 321725.0 0
226663.0 320071.0 0
231901.0 321290.0 0
237323.0 321257.0 0
242507.0 320768.0 0
252148.0 321271.0 0
257606.0 319891.0 0
262733.0 319851.0 0
272521.0 320764.0 0
278393.0 320669.0 0
284080.0 319516.0 0
290928.0 320439.0 0
305455.0 320089.0 0
301875.0 323143.0 0
309712.0 319510.0 0
314014.0 318253.0 0
335177.0 322730.0 0
341691.0 322395.0 0
360423.0 320459.0 0
368691.0 319291.0 0
373639.0 321710.0 0
380959.0 322300.0 0
385630.0 321042.0 0
394399.0 319989.0 0
398411.0 321368.0 0
402468.0 323124.0 0
403236.0 318222.0 0
415149.0 321234.0 0
431773.0 319481.0 0
462565.0 321896.0 0
473827.0 318913.0 0
483291.0 320946.0 0
488293.0 322394.0 0
492521.0 319131.0 0
497266.0 318888.0 0
4198.95 323751.0 0
1396.57 326742.0 0
8211.08 325708.0 0
11918.4 327183.0 0
16619.4 326652.0 0
21754.5 325348.0 0
31965.1 324001.0 0
36111.9 327993.0 0
40529.6 327622.0 0
49617.5 324092.0 0
53511.7 325634.0 0
65233.2 324857.0 0
73247.1 323750.0 0
79797.4 324249.0 0
97591.4 325444.0 0
101262.0 326559.0 0
122206.0 324972.0 0
125707.0 326195.0 0
132217.0 327236.0 0
140009.0 323461.0 0
145853.0 323478.0 0
150246.0 326894.0 0
157949.0 325647.0 0
162385.0 326426.0 0
169946.0 324216.0 0
178323.0 326064.0 0
173828.0 327371.0 0
182126.0 324113.0 0
203622.0 327826.0 0
208512.0 324997.0 0
212191.0 327584.0 0
217008.0 328248.0 0
221546.0 325657.0 0
226397.0 325029.0 0
231049.0 326631.0 0
236964.0 327205.0 0
242610.0 325828.0 0
247188.0 323292.0 0
247354.0 327744.0 0
251033.0 326409.0 0
255667.0 325123.0 0
261566.0 325263.0 0
265978.0 323714.0 0
269997.0 327564.0 0
276265.0 326515.0 0
281520.0 324108.0 0
286588.0 325072.0 0
291639.0 327613.0 0
296201.0 324129.0 0
305253.0 326892.0 0
308859.0 324126.0 0
312810.0 323506.0 0
315851.0 327331.0 0
321608.0 327098.0 0
329672.0 325821.0 0
345721.0 327555.0 0
350533.0 325148.0 0
355714.0 326642.0 0
368277.0 324794.0 0
376826.0 326753.0 0
388242.0 324280.0 0
397327.0 326584.0 0
402414.0 327884.0 0
406830.0 325737.0 0
411664.0 324231.0 0
417627.0 326046.0 0
435876.0 327129.0 0
440796.0 324735.0 0
448497.0 327094.0 0
468005.0 323554.0 0
472750.0 324588.0 0
494690.0 323838.0 0
490331.0 326978.0 0
498185.0 326930.0 0
9024.03 330587.0 0
22141.1 330835.0 0
27556.0 331859.0 0
31750.6 328743.0 0
42506.5 331265.0 0
47221.1 331979.0 0
55082.9 329736.0 0
71070.6 330085.0 0
66580.1 333124.0 0
75981.4 328639.0 0
87177.6 331581.0 0
101304.0 331783.0 0
105416.0 332190.0 0
115988.0 329801.0 0
121376.0 330609.0 0
127453.0 329642.0 0
125026.0 333041.0 0
137709.0 328717.0 0
134374.0 331593.0 0
136925.0 331890.0 0
142940.0 331349.0 0
154955.0 332283.0 0
159503.0 331006.0 0
162950.0 333322.0 0
166757.0 329003.0 0
170964.0 330810.0 0
178101.0 330327.0 0
182581.0 328890.0 0
188428.0 330822.0 0
198243.0 330515.0 0
208350.0 330064.0 0
213343.0 332244.0 0
221930.0 330902.0 0
227502.0 330776.0 0
232944.0 331664.0 0
244031.0 331264.0 0
249422.0 331121.0 0
253935.0 331353.0 0
259249.0 329784.0 0
265050.0 328512.0 0
263802.0 332549.0 0
267979.0 331959.0 0
272658.0 332023.0 0
277996.0 332837.0 0
282339.0 329037.0 0
287527.0 331221.0 0
292468.0 333040.0 0
296067.0 329764.0 0
310186.0 330509.0 0
315912.0 333199.0 0
326129.0 330297.0 0
329885.0 332241.0 0
332766.0 330214.0 0
359390.0 330310.0 0
365233.0 329353.0 0
371514.0 329262.0 0
375763.0 332656.0 0
382983.0 329593.0 0
392773.0 328747.0 0
388117.0 333127.0 0
405524.0 330847.0 0
418256.0 331211.0 0
423877.0 331262.0 0
430432.0 328794.0 0
443743.0 329024.0 0
448865.0 331968.0 0
453540.0 333289.0 0
457751.0 330535.0 0
463509.0 330646.0 0
472922.0 328911.0 0
469551.0 332029.0 0
473869.0 333028.0 0
477904.0 329033.0 0
485101.0 333109.0 0
492549.0 330834.0 0
497345.0 331828.0 0
12432.9 336222.0 0
18261.9 336183.0 0
31572.7 338358.0 0
35807.4 335358.0 0
40409.5 336066.0 0
57767.4 333476.0 0
62118.7 334982.0 0
78232.9 334011.0 0
83627.7 336278.0 0
88025.0 337090.0 0
92596.4 334030.0 0
98112.3 337731.0 0
110427.0 334072.0 0
115498.0 335903.0 0
119859.0 334264.0 0
119756.0 338152.0 0
124322.0 337071.0 0
145130.0 335354.0 0
149278.0 333481.0 0
152637.0 336720.0 0
157044.0 336830.0 0
175791.0 335077.0 0
179935.0 333728.0 0
193816.0 333634.0 0
202952.0 333435.0 0
203858.0 338526.0 0
208446.0 335526.0 0
213693.0 337838.0 0
218070.0 334719.0 0
223563.0 335859.0 0
220650.0 338170.0 0
229076.0 335759.0 0
233916.0 336820.0 0
238320.0 333441.0 0
238216.0 338459.0 0
242551.0 336989.0 0
247744.0 335880.0 0
252013.0 334737.0 0
255725.0 336671.0 0
260659.0 335783.0 0
265229.0 336536.0 0
269736.0 336087.0 0
274717.0 337542.0 0
283156.0 334379.0 0
288105.0 337038.0 0
293539.0 337833.0 0
296822.0 333774.0 0
297729.0 337412.0 0
305790.0 334388.0 0
301376.0 334937.0 0
309196.0 335505.0 0
320548.0 337289.0 0
332502.0 335138.0 0
337497.0 335031.0 0
344487.0 335948.0 0
350089.0 335487.0 0
354804.0 334024.0 0
359342.0 335840.0 0
363529.0 333963.0 0
368250.0 334418.0 0
379842.0 335224.0 0
383935.0 335293.0 0
396224.0 337295.0 0
420703.0 334937.0 0
428710.0 334772.0 0
443848.0 337460.0 0
460614.0 338473.0 0
475351.0 338230.0 0
480010.0 334507.0 0
2385.26 341275.0 0
11457.4 342359.0 0
19755.7 340707.0 0
23726.9 341934.0 0
28043.2 342690.0 0
37894.0 342215.0 0
42563.5 339985.0 0
48901.4 342813.0 0
59411.4 341342.0 0
73236.5 340097.0 0
78992.8 341926.0 0
84814.0 342143.0 0
103476.0 341158.0 0
108327.0 342586.0 0
127047.0 341374.0 0
137186.0 339149.0 0
133529.0 341857.0 0
141682.0 341902.0 0
178009.0 342145.0 0
182816.0 341818.0 0
188845.0 341745.0 0
208126.0 341016.0 0
212516.0 342593.0 0
217770.0 341604.0 0
223046.0 341413.0 0
226312.0 338834.0 0
230345.0 340672.0 0
235428.0 341736.0 0
240613.0 341904.0 0
245841.0 341443.0 0
251490.0 339890.0 0
256389.0 341728.0 0
262275.0 340611.0 0
267770.0 340889.0 0
272924.0 342692.0 0
278143.0 342208.0 0
281330.0 338717.0 0
284637.0 341747.0 0
290769.0 342476.0 0
296395.0 342253.0 0
320417.0 342881.0 0
324961.0 342806.0 0
327915.0 339796.0 0
332244.0 339072.0 0
349617.0 342206.0 0
356286.0 343124.0 0
366109.0 343374.0 0
373783.0 340394.0 0
391305.0 340736.0 0
401114.0 339253.0 0
405441.0 341370.0 0
410203.0 343291.0 0
415232.0 341773.0 0
420447.0 342423.0 0
436061.0 343233.0 0
441300.0 341725.0 0
447423.0 341312.0 0
452098.0 343092.0 0
463371.0 342793.0 0
468386.0 340227.0 0
472620.0 343123.0 0
478625.0 343390.0 0
482264.0 341021.0 0
486287.0 338659.0 0
488314.0 342531.0 0
491602.0 340247.0 0
6006.39 344971.0 0
10345.6 347785.0 0
14356.5 348719.0 0
17628.4 346404.0 0
21198.9 348589.0 0
31549.5 345663.0 0
44669.6 344637.0 0
53337.5 344907.0 0
57735.5 344815.0 0
81396.5 346244.0 0
88732.2 347481.0 0
94616.0 348185.0 0
115852.0 348691.0 0
131487.0 345907.0 0
147366.0 343808.0 0
151889.0 347571.0 0
157006.0 346164.0 0
162148.0 345862.0 0
166764.0 344821.0 0
172721.0 344983.0 0
195076.0 344008.0 0
204037.0 344086.0 0
209054.0 346277.0 0
215394.0 347250.0 0
220804.0 345866.0 0
226894.0 344948.0 0
232146.0 345503.0 0
237585.0 346484.0 0
242733.0 345634.0 0
247689.0 347366.0 0
251776.0 344466.0 0
259931.0 344757.0 0
255615.0 346905.0 0
264647.0 345425.0 0
269292.0 345515.0 0
275600.0 347499.0 0
282020.0 347055.0 0
288305.0 347653.0 0
294092.0 347513.0 0
307859.0 346496.0 0
313339.0 348056.0 0
318165.0 347138.0 0
333604.0 348575.0 0
339112.0 344997.0 0
344315.0 347139.0 0
361855.0 345937.0 0
370489.0 343668.0 0
373349.0 346670.0 0
382120.0 346736.0 0
377846.0 347273.0 0
386421.0 346964.0 0
424465.0 345269.0 0
429055.0 344819.0 0
434661.0 348234.0 0
444448.0 347745.0 0
456662.0 348193.0 0
475464.0 346410.0 0
484076.0 347478.0 0
497634.0 344064.0 0
2520.43 353465.0 0
23712.7 351937.0 0
27712.7 352851.0 0
73587.4 351359.0 0
78890.1 353187.0 0
99836.4 351220.0 0
111993.0 353802.0 0
124424.0 350012.0 0
129417.0 350325.0 0
132091.0 353738.0 0
137331.0 351904.0 0
141484.0 353541.0 0
173534.0 353562.0 0
178121.0 352177.0 0
182877.0 350724.0 0
190151.0 350942.0 0
198863.0 352373.0 0
204583.0 349852.0 0
209911.0 351240.0 0
214349.0 352989.0 0
223943.0 348870.0 0
219386.0 351128.0 0
223654.0 353428.0 0
228591.0 350778.0 0
233667.0 349870.0 0
237529.0 352402.0 0
241570.0 349898.0 0
249643.0 352139.0 0
245271.0 352733.0 0
254560.0 352361.0 0
260843.0 350486.0 0
267628.0 350350.0 0
273048.0 352527.0 0
278584.0 352373.0 0
282893.0 352021.0 0
286532.0 352240.0 0
290956.0 352027.0 0
295736.0 352827.0 0
304833.0 350924.0 0
326082.0 353369.0 0
345237.0 351656.0 0
348224.0 349106.0 0
348323.0 353436.0 0
375332.0 350037.0 0
387759.0 353667.0 0
396070.0 351922.0 0
405148.0 351942.0 0
412280.0 349777.0 0
416387.0 351432.0 0
425605.0 349209.0 0
431748.0 352229.0 0
439140.0 350038.0 0
452878.0 351652.0 0
457920.0 353149.0 0
461427.0 349641.0 0
465643.0 351693.0 0
478873.0 349074.0 0
35470.8 355542.0 0
31330.3 355956.0 0
38957.8 353921.0 0
58276.5 358687.0 0
64003.3 354051.0 0
62760.5 358838.0 0
69034.9 353963.0 0
79117.6 358005.0 0
83595.1 355637.0 0
102136.0 355949.0 0
106851.0 354335.0 0
115838.0 354452.0 0
118035.0 357967.0 0
122579.0 356086.0 0
187621.0 356378.0 0
194183.0 354180.0 0
206211.0 354332.0 0
204383.0 357417.0 0
210246.0 355847.0 0
219010.0 356010.0 0
214486.0 357803.0 0
223353.0 358196.0 0
227929.0 356412.0 0
232421.0 354385.0 0
236349.0 357459.0 0
241327.0 355685.0 0
246242.0 357937.0 0
251106.0 356230.0 0
256339.0 358327.0 0
262896.0 357180.0 0
268083.0 355554.0 0
272157.0 357646.0 0
276983.0 357298.0 0
282213.0 356758.0 0
286562.0 355914.0 0
292291.0 356574.0 0
296326.0 356326.0 0
320801.0 354384.0 0
334097.0 358621.0 0
339966.0 354376.0 0
338749.0 357583.0 0
344226.0 355602.0 0
353398.0 354608.0 0
377575.0 356149.0 0
383306.0 358276.0 0
391971.0 354865.0 0
417562.0 355825.0 0
422843.0 354097.0 0
429251.0 356872.0 0
440415.0 357821.0 0
448734.0 355326.0 0
444373.0 356898.0 0
483950.0 357545.0 0
488519.0 355415.0 0
493893.0 354101.0 0
23881.6 362655.0 0
85357.4 360308.0 0
89677.3 361476.0 0
114635.0 361673.0 0
119205.0 362127.0 0
148593.0 361247.0 0
154063.0 362323.0 0
160451.0 363037.0 0
172783.0 363573.0 0
177642.0 361806.0 0
182265.0 359994.0 0
186511.0 360080.0 0
204074.0 361876.0 0
209856.0 361298.0 0
219124.0 360701.0 0
215082.0 362201.0 0
222767.0 362637.0 0
226778.0 361185.0 0
232137.0 361533.0 0
237526.0 361745.0 0
241660.0 360762.0 0
247361.0 362886.0 0
251315.0 360788.0 0
257628.0 363093.0 0
261102.0 362180.0 0
267889.0 361095.0 0
273137.0 362067.0 0
279210.0 361604.0 0
284043.0 361667.0 0
288368.0 359445.0 0
287767.0 363727.0 0
292328.0 362129.0 0
296129.0 359552.0 0
343866.0 362930.0 0
354633.0 362943.0 0
362743.0 362131.0 0
367862.0 360521.0 0
374249.0 360852.0 0
388738.0 360734.0 0
449043.0 360376.0 0
472532.0 360504.0 0
476982.0 359954.0 0
487877.0 363109.0 0
18980.9 366518.0 0
25131.1 367680.0 0
41944.7 369082.0 0
46285.1 367037.0 0
57656.8 365369.0 0
136308.0 368497.0 0
164978.0 366766.0 0
169679.0 367969.0 0
175845.0 365445.0 0
203274.0 367654.0 0
207137.0 366061.0 0
212532.0 366294.0 0
216892.0 365730.0 0
221038.0 366851.0 0
226478.0 366355.0 0
231411.0 366619.0 0
236714.0 366695.0 0
242989.0 366133.0 0
247797.0 367050.0 0
251629.0 365339.0 0
256149.0 366901.0 0
260912.0 366470.0 0
265911.0 366459.0 0
270775.0 365652.0 0
276134.0 365874.0 0
281418.0 366067.0 0
285808.0 367116.0 0
290979.0 366979.0 0
295968.0 364884.0 0
300697.0 367339.0 0
347420.0 365413.0 0
351119.0 366440.0 0
359572.0 366111.0 0
378308.0 364626.0 0
441464.0 364015.0 0
447200.0 364408.0 0
496741.0 365623.0 0
2554.07 375019.0 0
6235.59 375426.0 0
10420.7 375205.0 0
14966.5 375270.0 0
19205.3 375529.0 0
23025.9 375460.0 0
29863.9 369021.0 0
26776.0 375320.0 0
34574.4 371232.0 0
30756.0 375151.0 0
39009.8 375148.0 0
41959.8 375196.0 0
43416.7 376793.0 0
45106.2 374005.0 0
49678.9 371390.0 0
54234.8 375353.0 0
59419.6 369271.0 0
57920.6 375165.0 0
61930.4 375471.0 0
65050.2 375161.0 0
69094.5 375320.0 0
66285.7 377072.0 0
74219.4 375107.0 0
79165.0 373959.0 0
80554.3 376367.0 0
77524.2 376915.0 0
83596.6 375330.0 0
88031.0 375808.0 0
91915.7 375213.0 0
96674.5 375079.0 0
100940.0 375553.0 0
105568.0 375218.0 0
110586.0 375082.0 0
114849.0 375271.0 0
121787.0 375259.0 0
118114.0 375355.0 0
125705.0 369974.0 0
131308.0 368628.0 0
132644.0 376087.0 0
136688.0 375646.0 0
140251.0 375549.0 0
144200.0 375355.0 0
148266.0 375300.0 0
151656.0 375791.0 0
154673.0 375532.0 0
158823.0 375343.0 0
163448.0 375383.0 0
166935.0 375373.0 0
170128.0 375603.0 0
173144.0 375571.0 0
175621.0 376178.0 0
178179.0 375368.0 0
181253.0 375613.0 0
188701.0 375460.0 0
184868.0 375204.0 0
192787.0 375154.0 0
195440.0 377340.0 0
198372.0 375159.0 0
203607.0 371234.0 0
209433.0 371896.0 0
216014.0 369468.0 0
214790.0 373029.0 0
219979.0 371787.0 0
225164.0 371888.0 0
230516.0 371263.0 0
235426.0 372106.0 0
240027.0 371340.0 0
245814.0 371981.0 0
252787.0 371914.0 0
259153.0 371303.0 0
263593.0 370469.0 0
269646.0 370778.0 0
273833.0 369371.0 0
277582.0 371265.0 0
282415.0 370549.0 0
286234.0 370847.0 0
290508.0 372461.0 0
295473.0 369937.0 0
300641.0 376352.0 0
302769.0 372373.0 0
306492.0 375739.0 0
310399.0 375373.0 0
314720.0 375322.0 0
318384.0 375262.0 0
321232.0 375163.0 0
322596.0 377268.0 0
324144.0 375080.0 0
327875.0 375376.0 0
331769.0 375949.0 0
336470.0 375098.0 0
341036.0 376418.0 0
344956.0 375012.0 0
350006.0 375783.0 0
354562.0 375153.0 0
354761.0 369723.0 0
358838.0 375182.0 0
362925.0 375600.0 0
367526.0 375290.0 0
372197.0 375083.0 0
378945.0 369596.0 0
374652.0 370599.0 0
375925.0 375265.0 0
378655.0 375639.0 0
382778.0 372844.0 0
386385.0 376227.0 0
388970.0 370319.0 0
394179.0 375272.0 0
399246.0 375176.0 0
401644.0 377263.0 0
403736.0 375174.0 0
407955.0 375123.0 0
412209.0 375127.0 0
415708.0 375610.0 0
419993.0 375060.0 0
425117.0 375159.0 0
429146.0 375369.0 0
433491.0 375038.0 0
438180.0 375138.0 0
441424.0 370418.0 0
445116.0 375143.0 0
448587.0 375360.0 0
452862.0 375337.0 0
458094.0 375044.0 0
463923.0 371515.0 0
467781.0 375025.0 0
470949.0 375091.0 0
474785.0 375659.0 0
479643.0 375144.0 0
484404.0 375493.0 0
488223.0 375211.0 0
493069.0 375107.0 0
497904.0 375701.0 0
1190.49 377727.0 0
4402.62 378380.0 0
1731.13 380436.0 0
5058.29 381401.0 0
7634.31 378219.0 0
8901.43 381334.0 0
11999.3 378654.0 0
13420.2 381722.0 0
16394.8 378725.0 0
17545.6 382783.0 0
25448.3 378697.0 0
21383.7 379747.0 0
29235.4 377400.0 0
28124.9 380583.0 0
33634.6 376008.0 0
32008.1 379001.0 0
35537.0 380134.0 0
36285.7 376390.0 0
39940.1 379059.0 0
44895.3 379472.0 0
47537.4 376401.0 0
48664.9 380159.0 0
50914.3 376941.0 0
54915.5 379454.0 0
51639.5 381512.0 0
58714.2 378452.0 0
63567.0 380089.0 0
68447.4 379649.0 0
71188.1 378136.0 0
74340.4 379610.0 0
71335.8 381850.0 0
79457.6 378474.0 0
77583.2 380494.0 0
82338.1 379700.0 0
86108.5 379406.0 0
90380.3 380099.0 0
94164.3 377827.0 0
94923.9 382233.0 0
98529.3 379172.0 0
101365.0 381372.0 0
106990.0 378425.0 0
103143.0 378544.0 0
105520.0 381792.0 0
110036.0 379204.0 0
109476.0 382564.0 0
113820.0 378132.0 0
117083.0 378413.0 0
113650.0 381785.0 0
117702.0 382179.0 0
121274.0 379143.0 0
124930.0 376267.0 0
125970.0 380915.0 0
128472.0 375734.0 0
130235.0 379652.0 0
135463.0 379134.0 0
133249.0 379972.0 0
142103.0 378724.0 0
138428.0 379029.0 0
144538.0 380783.0 0
147063.0 378577.0 0
147938.0 382448.0 0
151515.0 379701.0 0
155440.0 378419.0 0
155268.0 382350.0 0
162152.0 378747.0 0
158575.0 380166.0 0
165911.0 378621.0 0
164297.0 381830.0 0
167981.0 381717.0 0
169259.0 378262.0 0
172526.0 380080.0 0
176029.0 378849.0 0
177505.0 381705.0 0
182797.0 378709.0 0
179606.0 379227.0 0
183848.0 382375.0 0
186694.0 379133.0 0
190489.0 378671.0 0
191936.0 382138.0 0
193575.0 379566.0 0
197002.0 379854.0 0
195084.0 382100.0 0
199639.0 378616.0 0
199221.0 382165.0 0
204286.0 375976.0 0
213844.0 376367.0 0
209547.0 379057.0 0
217557.0 375622.0 0
222109.0 376505.0 0
227271.0 376663.0 0
232757.0 376572.0 0
238382.0 376169.0 0
242811.0 376166.0 0
247519.0 377713.0 0
251373.0 376694.0 0
255339.0 377548.0 0
265126.0 374533.0 0
260358.0 376502.0 0
270526.0 377004.0 0
275530.0 375530.0 0
280800.0 376427.0 0
286263.0 375325.0 0
290292.0 377997.0 0
295263.0 375753.0 0
303759.0 377531.0 0
300876.0 380470.0 0
307265.0 378881.0 0
310314.0 378549.0 0
309229.0 381949.0 0
314107.0 378254.0 0
312424.0 380934.0 0
316627.0 381797.0 0
318857.0 378479.0 0
322699.0 380615.0 0
325792.0 378160.0 0
326228.0 380996.0 0
329691.0 379539.0 0
334119.0 379260.0 0
336076.0 382289.0 0
341423.0 380199.0 0
338143.0 379447.0 0
345120.0 378853.0 0
349135.0 381051.0 0
353258.0 378931.0 0
356413.0 377696.0 0
360966.0 378888.0 0
357649.0 381210.0 0
365543.0 380155.0 0
370305.0 378557.0 0
374027.0 377502.0 0
377266.0 379500.0 0
373091.0 381580.0 0
381052.0 377806.0 0
384114.0 378877.0 0
388541.0 380362.0 0
389958.0 376028.0 0
392798.0 379236.0 0
397359.0 379066.0 0
401909.0 380104.0 0
405308.0 378199.0 0
407808.0 380668.0 0
409856.0 377750.0 0
411244.0 381158.0 0
413700.0 378586.0 0
418046.0 378688.0 0
415843.0 381647.0 0
422388.0 378721.0 0
420140.0 382281.0 0
426834.0 378528.0 0
428504.0 382152.0 0
424644.0 382174.0 0
430902.0 378534.0 0
432694.0 381825.0 0
435264.0 378335.0 0
437861.0 380956.0 0
442277.0 376881.0 0
438845.0 378202.0 0
441446.0 381389.0 0
446864.0 378684.0 0
444789.0 381169.0 0
451040.0 379067.0 0
454017.0 381354.0 0
455131.0 378324.0 0
458436.0 379633.0 0
462090.0 376842.0 0
463975.0 380897.0 0
460932.0 381679.0 0
465927.0 377124.0 0
468239.0 381381.0 0
470634.0 378231.0 0
474283.0 379100.0 0
477758.0 378671.0 0
482428.0 378248.0 0
480584.0 380874.0 0
486332.0 378476.0 0
485103.0 382152.0 0
490095.0 378639.0 0
489588.0 382033.0 0
494449.0 379216.0 0
498483.0 379419.0 0
1726.03 383235.0 0
1253.63 385668.0 0
10490.3 383997.0 0
5770.6 385336.0 0
14074.6 385543.0 0
18443.2 386819.0 0
25265.2 382473.0 0
22270.7 384549.0 0
27979.6 384205.0 0
25926.8 386562.0 0
31367.4 382684.0 0
34890.6 384989.0 0
38911.6 382948.0 0
38540.4 385694.0 0
42548.3 382651.0 0
44330.1 385445.0 0
41263.7 385944.0 0
49564.0 383511.0 0
46442.8 383053.0 0
48164.7 386802.0 0
54869.3 383578.0 0
51767.1 385565.0 0
58932.6 382722.0 0
57113.1 385615.0 0
59685.9 387003.0 0
63202.2 384889.0 0
67423.5 383319.0 0
70869.2 385763.0 0
66773.4 387295.0 0
75229.8 384403.0 0
80189.8 383536.0 0
79016.6 387683.0 0
84425.0 383263.0 0
83737.8 386940.0 0
87514.7 383436.0 0
91122.3 384889.0 0
87522.0 386955.0 0
95199.5 386896.0 0
98689.5 383765.0 0
102589.0 384718.0 0
107139.0 386158.0 0
111963.0 385599.0 0
115519.0 385294.0 0
121718.0 383913.0 0
118922.0 387000.0 0
127461.0 386398.0 0
124530.0 385123.0 0
129641.0 383141.0 0
131093.0 385612.0 0
132694.0 382866.0 0
136618.0 382620.0 0
140573.0 382170.0 0
144107.0 384161.0 0
151539.0 384469.0 0
148106.0 386365.0 0
155626.0 386928.0 0
158849.0 383804.0 0
161287.0 382259.0 0
162249.0 384910.0 0
165695.0 385389.0 0
170236.0 384659.0 0
175002.0 384474.0 0
180245.0 382898.0 0
182891.0 385640.0 0
179418.0 386793.0 0
186582.0 386346.0 0
188527.0 382925.0 0
192678.0 384665.0 0
190504.0 386359.0 0
196091.0 385032.0 0
199242.0 385106.0 0
203798.0 380897.0 0
215426.0 380530.0 0
219831.0 381092.0 0
222778.0 380305.0 0
226667.0 382322.0 0
231936.0 381618.0 0
236879.0 381250.0 0
241996.0 380404.0 0
246456.0 382502.0 0
252316.0 380911.0 0
255356.0 382280.0 0
260164.0 381732.0 0
265807.0 381061.0 0
271065.0 382899.0 0
275567.0 380137.0 0
280373.0 382323.0 0
285510.0 380443.0 0
289393.0 384123.0 0
294638.0 381898.0 0
300919.0 385073.0 0
305054.0 382094.0 0
304506.0 386150.0 0
308797.0 386448.0 0
312981.0 384642.0 0
320712.0 383189.0 0
317670.0 386943.0 0
324418.0 383327.0 0
325341.0 385370.0 0
322636.0 385968.0 0
328240.0 383948.0 0
331042.0 386764.0 0
332364.0 382983.0 0
335529.0 386594.0 0
339352.0 382990.0 0
340321.0 386645.0 0
344347.0 383843.0 0
349051.0 385788.0 0
353540.0 383420.0 0
361987.0 383727.0 0
357826.0 384910.0 0
366865.0 385462.0 0
369396.0 382487.0 0
371718.0 385411.0 0
376347.0 384153.0 0
380919.0 382435.0 0
379749.0 386891.0 0
384834.0 382443.0 0
383725.0 386034.0 0
392958.0 383506.0 0
388209.0 385266.0 0
396817.0 382913.0 0
397294.0 387162.0 0
400518.0 383813.0 0
401478.0 387359.0 0
404167.0 385021.0 0
404934.0 382173.0 0
408562.0 384848.0 0
412836.0 383800.0 0
417388.0 385727.0 0
422643.0 385470.0 0
426600.0 385876.0 0
430522.0 385086.0 0
434092.0 386231.0 0
435226.0 381062.0 0
438167.0 384308.0 0
435366.0 383120.0 0
441192.0 385497.0 0
444577.0 384847.0 0
449427.0 383407.0 0
453842.0 384853.0 0
457411.0 383414.0 0
463047.0 384235.0 0
460474.0 385252.0 0
463851.0 387178.0 0
466451.0 384614.0 0
472514.0 382422.0 0
470251.0 385307.0 0
473928.0 386467.0 0
476770.0 382670.0 0
477862.0 386171.0 0
480899.0 384446.0 0
484232.0 386162.0 0
488867.0 386347.0 0
493465.0 382969.0 0
493955.0 387129.0 0
497952.0 382983.0 0
498299.0 386832.0 0
2065.39 388660.0 0
10027.8 387424.0 0
6218.94 390507.0 0
14371.6 389695.0 0
10325.5 391054.0 0
19204.2 390676.0 0
22892.4 388830.0 0
26875.2 390666.0 0
30392.4 387567.0 0
34386.4 389303.0 0
38137.7 388894.0 0
41100.2 388925.0 0
44114.8 389182.0 0
40999.9 391823.0 0
47810.8 391055.0 0
54936.5 387847.0 0
51354.5 389498.0 0
54309.3 391904.0 0
58381.0 390723.0 0
63036.3 389434.0 0
70244.9 389280.0 0
66830.6 391921.0 0
74465.1 389162.0 0
78341.2 391233.0 0
82130.9 390609.0 0
86263.6 390338.0 0
90951.4 389915.0 0
96417.2 391380.0 0
99480.7 387547.0 0
101371.0 391709.0 0
103837.0 388333.0 0
106740.0 391598.0 0
110026.0 388959.0 0
111046.0 392360.0 0
114777.0 389647.0 0
119882.0 390926.0 0
123212.0 388508.0 0
126604.0 391182.0 0
130595.0 389334.0 0
134676.0 387081.0 0
137282.0 391179.0 0
133596.0 391449.0 0
139820.0 386948.0 0
144658.0 387919.0 0
142668.0 391731.0 0
151331.0 388628.0 0
147757.0 390248.0 0
154254.0 390874.0 0
160136.0 387278.0 0
163348.0 389127.0 0
158750.0 391328.0 0
168169.0 388549.0 0
166082.0 392325.0 0
172062.0 388005.0 0
171338.0 392249.0 0
175358.0 389398.0 0
179476.0 391259.0 0
184073.0 389814.0 0
189071.0 389347.0 0
193949.0 388400.0 0
192226.0 392091.0 0
198797.0 388477.0 0
203113.0 386481.0 0
207083.0 384754.0 0
213479.0 385821.0 0
209576.0 389023.0 0
218000.0 385785.0 0
222500.0 385649.0 0
228118.0 387566.0 0
233075.0 386191.0 0
237950.0 386067.0 0
242687.0 384997.0 0
247757.0 386710.0 0
251755.0 385086.0 0
255914.0 386473.0 0
260344.0 386781.0 0
265107.0 386428.0 0
270057.0 388254.0 0
275980.0 386418.0 0
280408.0 389097.0 0
284348.0 386339.0 0
289271.0 389396.0 0
295364.0 388492.0 0
305268.0 389128.0 0
301546.0 389627.0 0
308114.0 390460.0 0
313178.0 387810.0 0
314886.0 390120.0 0
311506.0 390119.0 0
318471.0 391993.0 0
321823.0 389522.0 0
326823.0 389169.0 0
332018.0 390777.0 0
336089.0 391817.0 0
338563.0 389103.0 0
346560.0 388093.0 0
343247.0 388897.0 0
346462.0 390968.0 0
352023.0 387652.0 0
349718.0 390589.0 0
355419.0 387758.0 0
353498.0 390372.0 0
356784.0 391787.0 0
359445.0 388322.0 0
363443.0 387995.0 0
366310.0 390096.0 0
369731.0 388203.0 0
374890.0 389225.0 0
379644.0 391241.0 0
382712.0 389626.0 0
386937.0 390202.0 0
392646.0 388863.0 0
397082.0 390954.0 0
400473.0 390566.0 0
405124.0 388767.0 0
407899.0 392070.0 0
409402.0 388625.0 0
413090.0 387331.0 0
412309.0 391357.0 0
416464.0 389904.0 0
420581.0 388528.0 0
420137.0 392194.0 0
424891.0 389627.0 0
429593.0 388937.0 0
431016.0 392450.0 0
438104.0 388056.0 0
434061.0 390098.0 0
438072.0 392003.0 0
442577.0 389607.0 0
447278.0 388299.0 0
451972.0 387840.0 0
449933.0 391417.0 0
453910.0 391733.0 0
457034.0 388211.0 0
457839.0 392395.0 0
461252.0 388450.0 0
461139.0 391779.0 0
467834.0 388071.0 0
464853.0 390737.0 0
471282.0 388633.0 0
473519.0 391002.0 0
469237.0 392198.0 0
476488.0 389035.0 0
480815.0 388588.0 0
482659.0 391730.0 0
485241.0 389261.0 0
488722.0 389961.0 0
492269.0 391129.0 0
497740.0 390833.0 0
1906.4 392554.0 0
1456.27 396188.0 0
8782.52 393692.0 0
5574.11 395376.0 0
9748.38 396685.0 0
12090.6 393797.0 0
13060.7 397421.0 0
16604.9 394199.0 0
20138.4 396474.0 0
22744.8 393458.0 0
26915.6 395596.0 0
31835.5 392910.0 0
37022.5 392749.0 0
40392.4 395584.0 0
36113.4 396530.0 0
44534.5 393696.0 0
50444.5 395336.0 0
57076.1 395239.0 0
61712.7 393302.0 0
65043.8 395266.0 0
61374.0 397329.0 0
71340.3 392842.0 0
69032.8 396419.0 0
75551.0 393509.0 0
72917.4 395819.0 0
76395.3 397475.0 0
80285.9 395068.0 0
84566.8 393460.0 0
88217.1 393838.0 0
93031.2 394750.0 0
98856.9 395894.0 0
104223.0 395969.0 0
109335.0 395447.0 0
117045.0 393094.0 0
113611.0 394318.0 0
117311.0 396469.0 0
120032.0 394153.0 0
123176.0 393016.0 0
126635.0 395589.0 0
130119.0 393578.0 0
134270.0 395672.0 0
139064.0 394979.0 0
147242.0 394237.0 0
151223.0 392396.0 0
151240.0 396254.0 0
155225.0 394343.0 0
162297.0 392784.0 0
159700.0 396210.0 0
168257.0 396287.0 0
163893.0 395665.0 0
175769.0 392991.0 0
178308.0 394828.0 0
173918.0 397300.0 0
182717.0 394492.0 0
187430.0 392993.0 0
186759.0 397148.0 0
190861.0 396122.0 0
197643.0 392806.0 0
194359.0 395558.0 0
196567.0 397151.0 0
199324.0 396629.0 0
203438.0 390642.0 0
207761.0 393031.0 0
213284.0 391453.0 0
218208.0 390470.0 0
222626.0 390588.0 0
226607.0 392071.0 0
231462.0 390873.0 0
236420.0 390838.0 0
241625.0 389640.0 0
247091.0 391820.0 0
253233.0 390971.0 0
258452.0 391083.0 0
262410.0 390457.0 0
266476.0 392232.0 0
273830.0 391678.0 0
278217.0 392383.0 0
282426.0 392026.0 0
286173.0 393270.0 0
290300.0 394075.0 0
305458.0 392621.0 0
301221.0 393825.0 0
304716.0 396302.0 0
309791.0 393246.0 0
307903.0 395917.0 0
314221.0 393898.0 0
311188.0 396969.0 0
318708.0 395842.0 0
323360.0 393868.0 0
322036.0 397780.0 0
325858.0 398107.0 0
328804.0 394621.0 0
333707.0 395490.0 0
340337.0 391935.0 0
337997.0 395854.0 0
344357.0 392426.0 0
342511.0 395756.0 0
347512.0 394807.0 0
352739.0 394506.0 0
361782.0 392822.0 0
357536.0 395577.0 0
361082.0 397000.0 0
365941.0 393917.0 0
370372.0 392546.0 0
368484.0 397053.0 0
374539.0 393935.0 0
372659.0 396858.0 0
375887.0 396540.0 0
377546.0 394010.0 0
380464.0 394724.0 0
383219.0 393136.0 0
386408.0 394703.0 0
390968.0 393908.0 0
395235.0 392714.0 0
395310.0 395491.0 0
398989.0 394448.0 0
403574.0 392712.0 0
406514.0 394619.0 0
403129.0 396375.0 0
410768.0 395841.0 0
415996.0 394427.0 0
420310.0 397304.0 0
424061.0 394036.0 0
427872.0 392764.0 0
427187.0 396046.0 0
430244.0 395772.0 0
434204.0 394434.0 0
438061.0 396625.0 0
441617.0 393771.0 0
443396.0 397413.0 0
446159.0 393473.0 0
450967.0 395139.0 0
455777.0 395537.0 0
460106.0 395457.0 0
464650.0 394699.0 0
468587.0 395958.0 0
473260.0 395237.0 0
478110.0 392894.0 0
482701.0 395301.0 0
486725.0 392898.0 0
486562.0 396888.0 0
490607.0 395557.0 0
498891.0 394327.0 0
495416.0 394516.0 0
2837.0 400325.0 0
7575.86 399295.0 0
11338.2 400572.0 0
17058.5 400550.0 0
22783.3 398576.0 0
26682.2 400458.0 0
31680.8 398427.0 0
38298.8 398108.0 0
36256.2 401166.0 0
44686.6 397513.0 0
41026.5 399881.0 0
47692.4 399389.0 0
54453.8 398884.0 0
50974.5 401964.0 0
58507.6 399559.0 0
65071.9 398830.0 0
62190.5 402615.0 0
68361.9 401528.0 0
72627.1 399087.0 0
76166.5 400698.0 0
80168.6 400185.0 0
84937.6 397807.0 0
84357.2 402671.0 0
89407.8 397475.0 0
88671.5 401706.0 0
95707.8 397380.0 0
93295.9 400227.0 0
97538.6 399940.0 0
101725.0 400823.0 0
107344.0 399599.0 0
112941.0 398611.0 0
115231.0 402518.0 0
122256.0 397588.0 0
118034.0 400265.0 0
127188.0 400735.0 0
130061.0 397314.0 0
132988.0 400916.0 0
138222.0 399560.0 0
142637.0 402234.0 0
143340.0 397295.0 0
147737.0 397865.0 0
146312.0 400706.0 0
150669.0 401087.0 0
155070.0 398493.0 0
158890.0 401171.0 0
164112.0 400042.0 0
169156.0 400926.0 0
173096.0 401961.0 0
177135.0 401304.0 0
179441.0 397824.0 0
183476.0 398428.0 0
181759.0 401416.0 0
186108.0 401122.0 0
190306.0 400147.0 0
194198.0 398788.0 0
198190.0 400011.0 0
203781.0 396123.0 0
208369.0 397772.0 0
213264.0 396669.0 0
217963.0 395500.0 0
221957.0 395521.0 0
225689.0 396356.0 0
230661.0 396340.0 0
236430.0 396058.0 0
242277.0 395848.0 0
247936.0 397359.0 0
252073.0 395844.0 0
256565.0 395603.0 0
261445.0 395445.0 0
266364.0 398037.0 0
271656.0 395870.0 0
276944.0 397473.0 0
282531.0 396400.0 0
287705.0 398295.0 0
295348.0 395021.0 0
292516.0 399383.0 0
301396.0 398712.0 0
307245.0 400605.0 0
315382.0 398012.0 0
312339.0 400353.0 0
319077.0 399825.0 0
315921.0 401940.0 0
322985.0 401026.0 0
330929.0 399648.0 0
326756.0 401543.0 0
335822.0 399353.0 0
340283.0 399151.0 0
344942.0 399019.0 0
349959.0 398893.0 0
354628.0 398947.0 0
358888.0 398863.0 0
364387.0 397302.0 0
362453.0 400796.0 0
366612.0 400829.0 0
370996.0 400473.0 0
375701.0 400355.0 0
378930.0 397373.0 0
379999.0 401147.0 0
383294.0 397651.0 0
383239.0 402200.0 0
386333.0 401060.0 0
388371.0 397740.0 0
390590.0 402054.0 0
392819.0 398131.0 0
396885.0 398171.0 0
394921.0 400768.0 0
400409.0 398566.0 0
398849.0 402196.0 0
406987.0 397930.0 0
404293.0 401348.0 0
410081.0 401515.0 0
414687.0 399059.0 0
418376.0 401469.0 0
423403.0 401815.0 0
424766.0 398002.0 0
428413.0 399558.0 0
433139.0 398584.0 0
431759.0 402234.0 0
437010.0 401862.0 0
440297.0 399254.0 0
441709.0 401222.0 0
448017.0 397950.0 0
445238.0 401538.0 0
453155.0 398962.0 0
449956.0 402254.0 0
458211.0 399629.0 0
462442.0 397885.0 0
462568.0 401556.0 0
465921.0 398633.0 0
467158.0 402636.0 0
470041.0 399235.0 0
474166.0 399422.0 0
478594.0 397947.0 0
476711.0 402306.0 0
484085.0 399482.0 0
480774.0 402414.0 0
489142.0 399953.0 0
494088.0 398756.0 0
493062.0 402455.0 0
498310.0 397576.0 0
497686.0 401394.0 0
2956.05 406056.0 0
7949.81 403394.0 0
12716.4 404857.0 0
17953.8 406096.0 0
22171.7 402987.0 0
26117.3 404783.0 0
31057.8 403763.0 0
35872.0 406147.0 0
40539.2 404736.0 0
45360.1 402777.0 0
48457.6 406105.0 0
52355.9 406550.0 0
56253.0 403227.0 0
59636.2 406164.0 0
56167.3 407251.0 0
65678.7 404932.0 0
69638.8 407038.0 0
73360.3 403277.0 0
75176.5 407665.0 0
77746.9 403840.0 0
81142.1 404189.0 0
84047.6 407045.0 0
88168.7 405945.0 0
92760.8 404728.0 0
97377.4 403798.0 0
101440.0 406442.0 0
105223.0 403689.0 0
106618.0 407673.0 0
110630.0 403950.0 0
115478.0 406369.0 0
121981.0 402683.0 0
118208.0 403904.0 0
120000.0 406924.0 0
125412.0 406687.0 0
130006.0 404740.0 0
134228.0 405788.0 0
138426.0 404051.0 0
142697.0 406672.0 0
147082.0 404741.0 0
151819.0 406280.0 0
154509.0 402611.0 0
156841.0 406014.0 0
162337.0 405277.0 0
166276.0 403919.0 0
166226.0 407026.0 0
170111.0 405767.0 0
174907.0 405234.0 0
179613.0 404856.0 0
184438.0 404814.0 0
189250.0 404449.0 0
194498.0 403246.0 0
198030.0 406854.0 0
199065.0 403512.0 0
296501.0 400466.0 0
302384.0 403253.0 0
306980.0 406479.0 0
311570.0 404309.0 0
319978.0 403532.0 0
316131.0 406370.0 0
324571.0 405071.0 0
329526.0 404200.0 0
334356.0 403927.0 0
331913.0 406984.0 0
338274.0 402326.0 0
338880.0 406170.0 0
342262.0 402748.0 0
347255.0 403072.0 0
352199.0 403185.0 0
357547.0 403145.0 0
361702.0 404119.0 0
365345.0 405221.0 0
369252.0 403709.0 0
373263.0 404424.0 0
377629.0 404633.0 0
381601.0 405150.0 0
386117.0 405409.0 0
390630.0 406660.0 0
394715.0 404318.0 0
402424.0 405427.0 0
398399.0 407241.0 0
407267.0 406015.0 0
411783.0 405581.0 0
414693.0 403540.0 0
414719.0 406850.0 0
418933.0 405790.0 0
427906.0 403776.0 0
424207.0 406610.0 0
430944.0 405347.0 0
433869.0 405239.0 0
437411.0 406786.0 0
441724.0 404817.0 0
446490.0 405829.0 0
451835.0 407136.0 0
455033.0 403173.0 0
459113.0 404103.0 0
456425.0 406505.0 0
463663.0 405727.0 0
468018.0 407292.0 0
472256.0 403937.0 0
477392.0 406771.0 0
482295.0 405979.0 0
486054.0 403617.0 0
489843.0 403296.0 0
495372.0 404894.0 0
498569.0 404892.0 0
3899.69 411512.0 0
8646.95 408335.0 0
13880.3 410159.0 0
18907.7 409994.0 0
22846.0 407776.0 0
21706.1 411481.0 0
27904.6 408283.0 0
25597.5 411675.0 0
31926.0 408297.0 0
35023.0 410420.0 0
39579.4 409890.0 0
44546.8 408307.0 0
45377.7 412616.0 0
49260.2 410490.0 0
54005.7 410592.0 0
58577.5 409955.0 0
63594.2 408728.0 0
67721.7 411549.0 0
71940.9 411469.0 0
79808.0 407432.0 0
75068.9 411190.0 0
78486.6 411390.0 0
82669.9 411291.0 0
91435.9 408284.0 0
87621.9 410777.0 0
96251.8 408275.0 0
92616.7 411818.0 0
100135.0 410340.0 0
103937.0 410733.0 0
111566.0 409184.0 0
107934.0 411288.0 0
116873.0 410885.0 0
121947.0 410460.0 0
125962.0 412047.0 0
130424.0 409425.0 0
135079.0 409691.0 0
133980.0 412694.0 0
138711.0 408390.0 0
142438.0 411242.0 0
138030.0 412475.0 0
146491.0 409104.0 0
150587.0 410404.0 0
155087.0 410671.0 0
159468.0 409419.0 0
163622.0 410079.0 0
173272.0 409583.0 0
168649.0 411031.0 0
177267.0 408154.0 0
177124.0 412005.0 0
181754.0 409031.0 0
187363.0 408792.0 0
184764.0 412430.0 0
192936.0 408697.0 0
198113.0 411236.0 0
301583.0 407802.0 0
304929.0 410479.0 0
308012.0 411115.0 0
311840.0 409642.0 0
317136.0 411117.0 0
320844.0 407936.0 0
324489.0 409379.0 0
321970.0 412374.0 0
327877.0 408141.0 0
331301.0 411058.0 0
335439.0 408685.0 0
339826.0 411403.0 0
343912.0 407466.0 0
344273.0 411700.0 0
349444.0 407765.0 0
352028.0 411432.0 0
354609.0 407679.0 0
360511.0 408565.0 0
365644.0 410626.0 0
370112.0 407929.0 0
369569.0 412569.0 0
375425.0 408384.0 0
372947.0 411016.0 0
379343.0 408318.0 0
378271.0 412430.0 0
382991.0 408963.0 0
387510.0 410307.0 0
392116.0 410182.0 0
394424.0 407962.0 0
396512.0 411777.0 0
400237.0 410067.0 0
403582.0 409402.0 0
407820.0 409250.0 0
411317.0 409565.0 0
416412.0 410724.0 0
421121.0 409455.0 0
425479.0 411829.0 0
428867.0 408087.0 0
433328.0 409218.0 0
430077.0 412031.0 0
437543.0 411096.0 0
440773.0 408657.0 0
444074.0 408709.0 0
447417.0 410235.0 0
451399.0 411847.0 0
455981.0 410569.0 0
460104.0 408090.0 0
460788.0 412200.0 0
464429.0 409801.0 0
469317.0 412393.0 0
472384.0 408626.0 0
475087.0 410349.0 0
478163.0 411700.0 0
481803.0 409852.0 0
485654.0 407832.0 0
486242.0 412198.0 0
491014.0 407842.0 0
494257.0 412289.0 0
497408.0 408790.0 0
1684.5 415264.0 0
9105.1 412975.0 0
5787.9 416145.0 0
9456.05 417029.0 0
13187.5 415391.0 0
18164.3 414175.0 0
20046.7 417800.0 0
22723.0 414703.0 0
26535.9 415679.0 0
29472.2 416587.0 0
30742.5 412847.0 0
36592.1 414640.0 0
41748.9 414029.0 0
45063.2 416993.0 0
48207.5 414465.0 0
49449.7 417743.0 0
52102.7 414624.0 0
56829.6 414085.0 0
60342.7 417025.0 0
60877.6 412820.0 0
64476.9 414445.0 0
70064.6 416800.0 0
75382.1 414670.0 0
80289.7 416244.0 0
84917.1 414564.0 0
89244.8 415928.0 0
94257.8 415520.0 0
97311.4 412864.0 0
101540.0 414280.0 0
98253.3 417602.0 0
106213.0 414720.0 0
111563.0 414196.0 0
116727.0 416096.0 0
121328.0 414286.0 0
125412.0 416964.0 0
130107.0 414802.0 0
135746.0 417579.0 0
140892.0 415617.0 0
147347.0 413571.0 0
143967.0 414185.0 0
144814.0 417515.0 0
152105.0 414419.0 0
156169.0 414793.0 0
160100.0 413485.0 0
162228.0 416877.0 0
164828.0 414111.0 0
172787.0 414548.0 0
168518.0 415785.0 0
177895.0 417186.0 0
181058.0 413534.0 0
184112.0 416948.0 0
189047.0 413696.0 0
191579.0 417084.0 0
193949.0 413996.0 0
198132.0 416355.0 0
194474.0 418029.0 0
301535.0 412725.0 0
305595.0 414103.0 0
301943.0 416853.0 0
309728.0 414240.0 0
313747.0 413707.0 0
318345.0 416621.0 0
324209.0 416426.0 0
326568.0 412596.0 0
330323.0 416164.0 0
335344.0 413622.0 0
339096.0 416576.0 0
343565.0 415384.0 0
347914.0 412811.0 0
352095.0 415583.0 0
347675.0 417621.0 0
356537.0 412712.0 0
361827.0 414385.0 0
366305.0 414926.0 0
369701.0 416205.0 0
373606.0 414713.0 0
376902.0 417538.0 0
380573.0 416116.0 0
383363.0 413177.0 0
387875.0 415221.0 0
391089.0 413000.0 0
393451.0 416865.0 0
401496.0 412969.0 0
398640.0 415865.0 0
407033.0 413124.0 0
412646.0 414650.0 0
417544.0 416060.0 0
420709.0 413105.0 0
423329.0 417428.0 0
428638.0 415925.0 0
433630.0 414393.0 0
438258.0 414598.0 0
442786.0 412923.0 0
440494.0 416849.0 0
447842.0 414702.0 0
452900.0 416126.0 0
457458.0 414837.0 0
461638.0 417230.0 0
464529.0 413627.0 0
467017.0 417326.0 0
474440.0 413758.0 0
471829.0 417368.0 0
478132.0 414920.0 0
476360.0 417661.0 0
481779.0 414358.0 0
485619.0 416598.0 0
490496.0 413891.0 0
494144.0 416276.0 0
498013.0 413487.0 0
497966.0 417310.0 0
2439.37 419314.0 0
7320.99 420954.0 0
12231.6 420054.0 0
16639.8 418722.0 0
20244.2 421660.0 0
23339.1 418472.0 0
24160.7 421995.0 0
28134.7 420331.0 0
32600.8 417773.0 0
33173.4 422318.0 0
36391.1 419475.0 0
40428.1 418206.0 0
43195.6 420902.0 0
47160.2 421004.0 0
55193.0 418971.0 0
51059.9 420778.0 0
60188.6 421817.0 0
64635.2 419366.0 0
68374.8 421847.0 0
75556.9 418974.0 0
72480.5 422061.0 0
78996.9 422007.0 0
82126.8 419722.0 0
84945.8 418351.0 0
88257.4 421363.0 0
93362.5 420141.0 0
103358.0 419507.0 0
108965.0 418854.0 0
112119.0 422880.0 0
113100.0 418724.0 0
116401.0 421005.0 0
120958.0 419090.0 0
124806.0 422324.0 0
130033.0 420704.0 0
141063.0 420766.0 0
146188.0 421648.0 0
149194.0 417915.0 0
150269.0 421664.0 0
154059.0 418892.0 0
157987.0 421795.0 0
158686.0 417804.0 0
162264.0 420784.0 0
165609.0 418015.0 0
167365.0 421873.0 0
170987.0 418907.0 0
174349.0 419867.0 0
177272.0 422135.0 0
181363.0 420680.0 0
188416.0 418162.0 0
186014.0 422169.0 0
191568.0 421309.0 0
197352.0 421690.0 0
301899.0 420835.0 0
306819.0 418793.0 0
311020.0 422136.0 0
312518.0 417857.0 0
315902.0 422039.0 0
322006.0 420600.0 0
327049.0 420259.0 0
334908.0 417809.0 0
332132.0 421186.0 0
337827.0 421738.0 0
343073.0 419877.0 0
351950.0 420327.0 0
347379.0 422360.0 0
357280.0 418239.0 0
360076.0 422734.0 0
362320.0 419010.0 0
366884.0 419146.0 0
364184.0 422478.0 0
372236.0 420042.0 0
376603.0 421589.0 0
380375.0 420178.0 0
384183.0 417879.0 0
384192.0 422780.0 0
388773.0 420350.0 0
393818.0 423009.0 0
398018.0 420089.0 0
403230.0 417874.0 0
406044.0 422672.0 0
409116.0 418479.0 0
414285.0 419887.0 0
419011.0 420091.0 0
422397.0 422736.0 0
426913.0 421226.0 0
431885.0 419796.0 0
436715.0 418019.0 0
436107.0 421978.0 0
440370.0 421203.0 0
444347.0 418092.0 0
449083.0 419808.0 0
453275.0 420542.0 0
456730.0 419245.0 0
460052.0 422017.0 0
464659.0 421778.0 0
469562.0 421646.0 0
474121.0 421554.0 0
478314.0 421045.0 0
481672.0 418620.0 0
489890.0 418204.0 0
485916.0 421033.0 0
493777.0 420075.0 0
497785.0 421344.0 0
2793.19 424305.0 0
1154.1 427949.0 0
7410.3 425385.0 0
11302.6 424360.0 0
14885.5 427772.0 0
15633.9 423056.0 0
18938.2 425594.0 0
23453.7 425703.0 0
29015.8 425801.0 0
34482.5 427001.0 0
39017.7 423426.0 0
44482.7 425138.0 0
49925.2 424842.0 0
55445.3 424785.0 0
60613.9 426927.0 0
64824.6 424171.0 0
69864.6 426307.0 0
75390.6 425764.0 0
81223.5 426720.0 0
83826.7 422689.0 0
87110.6 427122.0 0
92733.4 425434.0 0
98319.7 423413.0 0
100916.0 428033.0 0
103187.0 424629.0 0
107360.0 423580.0 0
110338.0 426995.0 0
115923.0 424967.0 0
120236.0 423913.0 0
118341.0 427610.0 0
122397.0 427955.0 0
128479.0 427444.0 0
135540.0 423947.0 0
139841.0 424460.0 0
139235.0 427405.0 0
143431.0 425626.0 0
148735.0 426010.0 0
153785.0 424169.0 0
158739.0 427035.0 0
163714.0 425009.0 0
168153.0 427038.0 0
172524.0 423748.0 0
176844.0 426403.0 0
181309.0 424975.0 0
185654.0 427497.0 0
189490.0 425425.0 0
193775.0 426019.0 0
198153.0 426979.0 0
302393.0 425269.0 0
306882.0 424002.0 0
310930.0 426723.0 0
315734.0 426668.0 0
320035.0 425033.0 0
324433.0 424031.0 0
328888.0 424966.0 0
333770.0 425941.0 0
338201.0 427054.0 0
342758.0 425163.0 0
351708.0 425285.0 0
347411.0 427227.0 0
355814.0 423129.0 0
363057.0 427368.0 0
368480.0 423949.0 0
373976.0 425769.0 0
379570.0 424670.0 0
383666.0 427427.0 0
388856.0 426189.0 0
393626.0 427747.0 0
401339.0 422946.0 0
398142.0 426428.0 0
403397.0 427212.0 0
410708.0 423111.0 0
408087.0 426730.0 0
412920.0 427438.0 0
417424.0 424354.0 0
421537.0 427322.0 0
425994.0 425963.0 0
429920.0 424208.0 0
429790.0 428112.0 0
434471.0 426301.0 0
440530.0 426613.0 0
444988.0 423179.0 0
449822.0 424853.0 0
455527.0 424866.0 0
462088.0 427082.0 0
467123.0 425498.0 0
471946.0 426449.0 0
477204.0 425260.0 0
481832.0 423376.0 0
485741.0 425720.0 0
490471.0 423492.0 0
494670.0 423678.0 0
493830.0 427304.0 0
497895.0 425698.0 0
4920.35 429228.0 0
1199.78 430457.0 0
10001.4 428755.0 0
13123.4 432587.0 0
20186.5 430418.0 0
25906.3 430160.0 0
30873.0 430680.0 0
35630.3 432070.0 0
39064.5 428607.0 0
40253.6 432931.0 0
43305.2 429877.0 0
47624.8 429136.0 0
52408.7 429484.0 0
56916.8 429679.0 0
60914.1 432339.0 0
65237.7 429214.0 0
69195.8 431161.0 0
73287.8 430301.0 0
77866.4 430009.0 0
82970.7 432416.0 0
91819.0 429881.0 0
88494.7 432437.0 0
96327.5 428778.0 0
99698.8 432664.0 0
105799.0 428488.0 0
110171.0 431861.0 0
114349.0 428832.0 0
114705.0 433145.0 0
119109.0 431848.0 0
124188.0 432171.0 0
132466.0 432507.0 0
134119.0 428564.0 0
137449.0 431401.0 0
142159.0 430284.0 0
145785.0 429088.0 0
148811.0 430149.0 0
153146.0 429751.0 0
163803.0 429838.0 0
168055.0 432022.0 0
173070.0 429994.0 0
177577.0 429844.0 0
181256.0 430200.0 0
185322.0 431990.0 0
190538.0 430706.0 0
196126.0 430866.0 0
302017.0 429866.0 0
305642.0 432652.0 0
306236.0 428156.0 0
309352.0 430843.0 0
313828.0 430997.0 0
319153.0 430278.0 0
324884.0 428924.0 0
330396.0 429693.0 0
335631.0 430579.0 0
341435.0 431510.0 0
346760.0 431255.0 0
351233.0 430429.0 0
356657.0 428202.0 0
360401.0 432822.0 0
369059.0 429700.0 0
378783.0 430657.0 0
386544.0 431009.0 0
391313.0 431399.0 0
396565.0 431453.0 0
401622.0 431629.0 0
405073.0 430690.0 0
408958.0 431364.0 0
417508.0 429429.0 0
413959.0 432496.0 0
421382.0 431831.0 0
426376.0 431130.0 0
432571.0 431922.0 0
437373.0 430608.0 0
441962.0 432197.0 0
445958.0 428384.0 0
447178.0 433143.0 0
451732.0 430221.0 0
457409.0 430270.0 0
462627.0 432576.0 0
467456.0 430276.0 0
476259.0 430929.0 0
481479.0 428117.0 0
481604.0 433052.0 0
485527.0 429752.0 0
489404.0 428347.0 0
492855.0 432577.0 0
497653.0 430002.0 0
2532.45 433674.0 0
5052.62 436568.0 0
8009.46 433435.0 0
17552.3 436083.0 0
22915.5 435207.0 0
27979.2 435015.0 0
33202.9 436800.0 0
38542.2 437310.0 0
44118.2 433944.0 0
49275.1 434544.0 0
55133.1 433828.0 0
58952.7 437275.0 0
65973.7 434519.0 0
71453.5 434442.0 0
75886.9 434229.0 0
79565.4 436934.0 0
86769.8 435624.0 0
90510.7 436251.0 0
94527.8 433533.0 0
101125.0 437915.0 0
104992.0 433942.0 0
112293.0 436717.0 0
108050.0 437418.0 0
117239.0 436505.0 0
121701.0 435671.0 0
125530.0 436361.0 0
128220.0 433437.0 0
135837.0 436969.0 0
141038.0 434914.0 0
146155.0 433520.0 0
151004.0 434223.0 0
155086.0 436596.0 0
159364.0 433084.0 0
164349.0 434663.0 0
168446.0 436456.0 0
177627.0 433490.0 0
173211.0 435850.0 0
182285.0 434965.0 0
187452.0 435874.0 0
193633.0 436289.0 0
198209.0 434405.0 0
301615.0 433896.0 0
304272.0 437640.0 0
310531.0 436301.0 0
316791.0 435001.0 0
322810.0 433891.0 0
325030.0 437344.0 0
327588.0 433852.0 0
332452.0 434045.0 0
337163.0 436305.0 0
345881.0 434995.0 0
342280.0 437395.0 0
350393.0 435693.0 0
355209.0 433857.0 0
358434.0 437471.0 0
365340.0 433852.0 0
369267.0 434735.0 0
371499.0 437490.0 0
373403.0 433465.0 0
376320.0 436845.0 0
379550.0 435813.0 0
383385.0 434664.0 0
388438.0 435671.0 0
393657.0 435890.0 0
399454.0 435984.0 0
405147.0 434526.0 0
410694.0 436475.0 0
418045.0 435920.0 0
423969.0 436006.0 0
428972.0 435624.0 0
437514.0 435396.0 0
444361.0 436850.0 0
454091.0 435472.0 0
449524.0 436662.0 0
458652.0 434520.0 0
462089.0 437804.0 0
466313.0 435311.0 0
471398.0 434670.0 0
478007.0 436626.0 0
482700.0 437253.0 0
486900.0 434373.0 0
491034.0 437634.0 0
497944.0 434359.0 0
495137.0 437125.0 0
11459.9 438254.0 0
95821.5 438426.0 0
161168.0 438148.0 0
320569.0 438250.0 0
POINT_DATA 5000
SCALARS Radius float 1
LOOKUP_TABLE default
3979.26 3471.03 5253.55 5782.6 5379.87 6044.04 5415.48 5120.0 6182.6 5258.36 5906.14 7513.1 5580.89 6810.52 5840.26 6716.79 7613.27 5529.52 5255.32 5096.78 6756.95 6324.23 3843.58 4270.53 5191.63 4150.99 4216.92 5634.83 6268.1 4861.06 5320.28 6739.08 4797.52 4796.58 4298.67 5960.66 6608.73 5820.48 7034.11 4862.21 5113.21 3929.19 4107.03 4043.57 4478.15 5925.6 4501.51 4792.73 4736.58 4931.38 3485.26 6082.81 4329.05 4151.94 4049.23 5337.48 6124.89 4929.8 5708.81 5252.48 4780.03 5495.39 3996.0 3856.1 4665.12 3383.4 4133.88 4094.62 4834.9 3850.77 5546.39 5325.36 5484.83 5085.53 3863.18 5351.6 2356.98 4998.37 4715.55 5492.18 3951.75 5061.3 3642.12 3163.97 5542.27 5812.43 5122.66 5484.19 5254.28 4688.68 4436.4 5733.48 4517.56 4672.91 4182.53 5903.42 3588.44 5645.7 5176.86 4366.19 3672.51 6110.27 5561.06 5073.35 3615.22 5670.04 4380.59 3589.27 3997.1 3607.45 3260.67 5759.91 3038.33 4333.2 4951.03 7199.21 6037.08 4523.7 5091.39 4129.43 6142.94 3320.52 4727.24 4602.25 4194.5 5082.47 5344.25 5445.87 4593.7 4704.72 4177.94 4742.68 4571.7 4344.58 5896.46 5495.84 3784.5 6481.79 5374.51 7042.12 6326.39 4569.12 5873.69 4962.09 3999.48 5011.84 4359.62 6261.42 4502.5 3771.48 5499.11 4271.69 5681.38 4138.42 3708.04 5513.6 3240.09 4556.36 3191.99 4685.34 4382.74 5601.05 4651.28 3586.91 3103.0 3554.9 5481.78 4015.92 5542.21 4487.31 3936.02 5043.05 4044.71 5980.74 5109.54 4927.02 5945.65 5538.89 4730.36 5867.73 6059.59 5013.56 5701.86 4499.64 4375.68 4238.81 4468.59 5054.98 6030.06 5170.02 3557.27 5200.76 4927.31 4862.64 4402.52 4432.58 6684.56 3968.64 3955.56 3761.32 4118.05 5292.64 6166.5 5553.16 2938.66 4940.78 4231.61 4008.92 4003.05 3942.53 3379.84 4805.87 4827.82 5227.21 5697.78 5123.52 4091.31 4392.68 6372.62 4295.38 2240.39 7565.34 5923.5 4612.68 5293.9 4973.83 3912.37 6691.39 4790.08 5135.69 4763.45 5344.0 6045.46 3815.26 4245.72 5908.1 6048.7 6133.92 5022.8 3780.23 4166.08 5224.12 4819.73 4471.58 6098.14 4472.17 4203.26 5188.81 6946.21 2586.12 6057.22 5433.8 4011.77 4527.08 3633.87 5922.5 5198.77 3970.25 5987.17 6013.14 2765.2 5011.31 4901.41 5110.37 5664.98 5927.43 6355.42 3693.63 4384.42 4362.19 4516.43 5690.56 4948.92 5637.59 4937.14 5816.2 5693.81 4002.16 4174.52 6483.19 3829.13 6759.9 5418.62 7021.47 5416.38 5740.68 5926.61 4955.55 2720.68 3563.63 5836.15 4345.55 6704.06 5885.03 2837.58 3871.88 5325.02 5246.2 5017.13 5279.39 5185.34 3673.74 5205.43 7447.37 4688.67 2635.86 4385.06 5065.13 5936.02 5305.17 4290.3 4861.08 5399.73 5390.22 3888.21 4712.33 6038.78 4667.36 4254.17 5090.24 5615.42 5530.87 4281.49 6342.25 4187.56 4840.84 4020.32 4290.14 4156.38 5316.75 4541.21 4164.68 3719.84 4178.4 3095.48 5624.49 5762.59 4123.6 4850.14 5163.55 3382.7 3954.91 6817.32 4319.79 3637.61 6222.42 5654.31 4730.41 3745.84 5690.26 5062.71 4156.2 6125.34 5965.78 5347.48 4850.01 4810.12 5643.58 5147.67 3979.82 4292.06 5577.04 5138.31 5006.58 5264.06 4602.86 4659.59 6327.9 4048.37 5492.26 5244.78 5762.84 3115.91 3937.74 3307.12 4493.48 6084.86 5924.89 4778.34 4138.16 6894.71 3486.22 4684.5 3091.3 6230.49 6458.82 4601.27 5493.32 3641.64 4277.89 6051.14 3261.21 4195.44 5539.32 3653.41 6496.85 5600.93 3856.01 5541.59 4390.66 5728.85 4827.23 4911.47 6116.18 4924.6 6257.19 4733.32 7184.19 2899.43 2924.37 3867.67 4695.45 4660.72 6052.7 3921.18 5891.05 5308.1 6902.81 6644.76 5629.19 5655.21 4786.6 5740.84 6445.94 4310.18 5542.14 4218.06 7134.64 5978.9 4716.19 3629.62 4997.27 5514.76 4301.06 3456.98 4877.67 3066.13 6562.18 6006.16 7055.53 5669.65 5934.22 5339.78 4970.88 7092.87 4666.81 3703.1 6471.55 2965.01 5499.39 6643.85 5501.93 5463.38 4938.74 5607.14 4497.59 5975.63 4374.35 6396.74 5215.05 2775.04 3821.72 4986.77 5586.81 3688.8 4621.75 4548.16 3369.23 5449.18 4220.88 4515.71 6640.13 4749.8 5082.6 5478.92 5551.36 5094.44 4467.94 4414.54 4850.81 5789.98 6138.47 7054.71 5489.43 5573.7 5747.75 4727.62 5054.25 4796.33 7325.81 5280.17 5360.19 4794.96 4874.39 4124.71 5083.08 6337.56 5803.39 5863.59 4381.97 4024.3 3255.82 5555.28 5242.73 2812.98 4737.14 4065.69 5603.15 5556.96 3798.62 6392.01 3666.57 4907.89 4937.02 4073.93 6043.3 4645.41 5952.75 4433.59 4320.28 6122.55 2739.94 4931.53 5480.13 6308.71 6695.82 6405.76 3498.2 5105.16 5448.61 4302.5 4827.33 6009.88 5513.57 5013.67 5826.04 4538.95 4143.78 4763.66 4636.5 4940.42 4946.42 5923.4 5085.71 6116.33 5644.82 6343.14 5945.21 5750.71 5696.88 4831.47 3923.03 4643.85 4004.04 5252.34 4138.46 4274.61 2965.79 6898.19 6035.6 6318.18 4481.53 3948.17 5330.45 4551.24 4581.13 5358.59 3610.4 6387.01 5367.52 6519.71 3092.35 5210.03 5810.84 4230.54 5351.39 3748.24 6142.37 4655.49 4933.21 5375.47 6038.14 2540.31 6029.66 5527.54 5697.4 6038.2 4270.95 4055.8 5206.78 6425.26 5143.58 6186.19 4839.34 2980.99 6834.49 7933.0 5525.39 4455.12 3998.5 5938.34 5380.13 6394.38 5118.27 5169.36 5932.23 4686.65 5834.74 4479.66 5788.23 3043.85 5581.75 3599.45 6730.19 4907.06 5489.34 3735.44 5163.9 6332.36 6155.31 4223.33 5911.67 3323.28 5835.78 5794.24 4127.74 2476.04 4678.38 3942.07 7443.72 5050.65 3937.08 5260.34 5206.48 5729.23 5226.0 3365.82 5724.64 5965.15 4780.2 6090.91 5019.93 5081.78 6263.44 5774.97 5462.21 5470.77 3474.39 6062.05 4289.17 5564.02 6072.45 4410.55 5137.34 5423.0 3856.59 4219.07 5413.79 6202.55 4322.15 5025.39 4714.54 3629.96 5478.47 3320.11 5119.37 6061.47 6163.38 4566.18 4723.12 5120.49 5201.36 5262.61 6302.8 5409.61 5094.81 4005.44 5713.22 5555.88 6732.43 5028.96 3866.16 6362.12 4484.76 3778.1 4840.01 5152.36 4511.82 5611.2 5173.87 4894.16 5711.87 3372.79 4941.22 5791.61 3369.13 4669.66 4808.52 5367.2 5607.24 5461.13 4726.76 5839.13 5495.68 5002.48 5708.14 5537.72 3920.42 8332.24 4553.56 5329.64 6049.55 5709.62 5991.09 5133.97 6600.94 5371.02 6155.1 4709.35 6586.45 4373.3 4750.78 5029.78 4163.5 4888.6 5078.86 5100.1 3561.29 4963.34 4219.78 3295.83 3885.86 4459.28 4260.92 6250.23 5960.56 4118.84 4020.95 5862.86 6313.06 3493.7 6470.3 4200.03 6939.12 5082.74 6915.83 5092.37 6444.77 7099.43 5526.14 4287.63 5198.29 5077.33 4746.52 3689.45 5572.95 6338.89 5584.06 7111.16 5893.5 4547.19 5030.91 6022.17 3982.23 4583.31 3459.9 4853.39 4997.27 4964.09 4093.08 4809.42 5024.9 4306.53 5659.17 5972.06 4312.67 5861.71 4359.04 3183.98 3794.63 5017.78 4524.28 6175.81 4727.24 6677.09 5826.64 4220.65 6820.42 4816.2 6321.41 4896.52 4089.76 4751.02 3192.41 5184.56 5282.64 4715.72 5804.71 5046.33 4764.96 4242.52 5053.92 6352.26 3847.38 3818.59 4087.15 4863.72 4143.08 7500.97 6623.85 4262.82 5228.18 5102.36 4342.9 5065.11 5069.84 4051.44 4978.31 4241.89 5054.74 5941.72 4656.78 5126.91 3600.43 4788.58 5131.24 5196.67 5876.71 6262.72 3664.11 6515.84 2990.77 5882.65 4739.14 4918.77 5187.7 4371.99 4188.3 5235.29 4479.94 4255.31 5453.3 6413.02 4863.27 6049.79 5374.98 4719.7 4735.33 4406.4 5411.85 4844.57 4027.46 6314.07 5315.4 6449.45 3975.31 4044.45 3824.16 5125.78 3868.18 4373.47 5045.38 6723.16 5372.61 3686.21 3817.13 5507.24 5023.15 6851.54 4503.89 5806.08 4336.42 5243.29 4449.22 5543.27 4717.05 5287.2 6135.57 5998.38 5013.13 5423.8 4270.24 4989.15 4164.13 5015.69 4947.52 4305.57 6959.81 4829.35 5201.67 3791.79 4424.7 4754.05 5526.55 6084.93 5215.15 4987.87 3697.96 3315.57 4739.42 5020.12 5727.3 2631.9 5281.28 5356.51 4277.88 3057.03 4758.21 7228.46 3948.23 5978.82 5787.31 3927.99 5868.82 4050.9 4948.98 4099.77 5227.52 4414.48 4537.32 4981.9 4906.82 5687.83 5004.23 6496.67 5474.8 6607.87 5117.47 4721.32 4925.63 3293.56 4434.19 4623.61 5511.6 6261.75 5177.64 6134.99 4094.73 4407.9 3492.19 4584.5 4440.57 5122.63 4703.08 2315.64 6345.13 5274.19 5516.95 5313.22 4413.85 3999.94 4470.98 4864.22 5776.37 4516.28 3921.08 4190.31 3627.82 5678.96 5262.19 4244.9 5344.43 6070.58 5350.88 5130.91 5402.24 6480.17 6445.22 4377.07 3844.9 3813.22 5101.59 3963.86 5570.3 3848.93 4306.11 5935.47 7589.94 3130.65 5628.24 5856.11 3327.49 5992.26 4109.88 4234.94 3960.8 4562.29 4980.85 5080.66 3417.33 5110.45 4926.42 5248.77 4642.34 4083.97 4520.1 5153.74 5874.89 4293.03 5813.4 4389.21 4128.98 4925.44 6246.22 4951.47 5246.61 4307.28 4100.38 5344.77 4723.48 5538.93 4899.11 4745.45 7267.18 6255.18 4668.71 5269.18 6362.14 6719.88 4454.63 5266.5 4523.88 3279.1 4066.38 4403.98 4560.84 4729.43 4092.24 5163.02 4562.74 7144.24 5598.74 7493.3 6442.69 6320.71 4648.04 3464.83 6413.11 4305.16 3163.78 5092.28 5274.14 4903.82 5746.28 4152.85 4082.47 4453.64 4338.08 4517.73 4378.3 5469.47 4989.56 4718.54 2588.37 6736.03 5548.29 6766.43 5916.16 4390.41 5226.56 5599.49 4097.57 3905.51 5017.5 5563.79 3901.8 6171.13 5759.46 5083.41 7055.42 6048.86 4285.32 5490.43 6034.41 5452.83 4959.34 4948.5 4519.22 4527.02 3695.36 4564.34 4871.44 5076.35 6020.48 3402.32 5200.05 5903.66 4528.49 5004.67 5365.89 5419.37 4466.03 4511.54 5070.39 4923.9 5714.58 3329.99 5208.32 3296.27 4713.25 4607.02 4204.84 6243.0 4528.09 3895.51 4165.81 3556.85 5441.96 6291.51 3435.9 5174.89 5882.89 5370.52 4188.32 4652.29 5774.81 3746.31 5027.98 5097.87 4278.07 6475.1 4969.21 2691.29 6256.02 5320.92 4305.43 4406.1 5450.44 5034.59 4942.77 4263.33 5080.18 5912.61 5381.16 6193.35 6086.96 5233.78 5776.57 5046.21 5683.26 5894.61 5139.5 5944.09 4814.55 3527.05 5698.77 2477.07 4497.31 5529.42 5257.12 4965.89 5659.95 5551.9 2908.7 3757.34 6415.61 4687.64 4419.71 5660.16 3838.47 4541.8 6235.57 3623.87 5412.31 3087.09 6934.37 6113.95 4050.08 5452.42 5328.22 2395.5 5511.88 4512.11 5486.68 5683.61 5100.25 5022.28 5197.52 5178.99 5383.07 4531.14 4591.87 5013.42 3838.56 6552.22 5651.07 6248.81 6375.99 5273.35 5234.29 5313.66 2651.49 5512.23 5275.32 5409.33 4898.94 5196.0 4613.31 4973.78 4733.04 6119.09 3947.47 5091.68 7531.29 5069.25 5048.89 6673.96 3161.47 3991.03 6390.78 7435.25 4288.3 6826.57 4788.87 4495.87 6022.72 5498.32 5527.33 5346.27 5402.21 4989.09 2845.98 4880.14 5289.52 5314.85 3848.54 5941.4 6510.17 5742.65 5592.32 4402.67 4470.61 5565.13 4384.88 6887.27 3701.27 5653.9 4806.34 5612.21 4929.14 3979.54 5304.13 3306.14 5490.58 5833.06 4863.79 4923.41 3830.46 6031.67 5384.76 6138.12 4428.78 5243.43 4537.14 4345.67 4765.72 4642.66 4752.14 5329.59 4888.12 5037.06 5512.16 5175.29 3197.63 5842.56 5887.15 7480.41 3423.15 4890.5 3981.07 3731.84 4901.07 5186.3 6853.85 3497.9 4151.76 5941.61 4020.4 5782.48 3493.47 6248.6 3836.45 5443.58 4558.46 5805.86 6894.26 4470.4 4986.51 5339.38 6169.11 5615.35 4790.78 6422.84 4247.15 4502.18 5379.09 4602.85 5872.05 4853.02 4091.8 4645.58 5181.4 5670.2 5985.29 4247.23 4178.15 4268.65 4694.83 5509.42 4354.08 5788.66 5936.36 3903.75 4755.47 5935.03 5475.8 5314.69 4249.46 5965.81 3702.37 5660.85 4643.31 2330.66 4177.19 6917.52 3587.05 6229.37 6718.19 4982.31 4307.48 4425.84 7256.35 5331.02 4871.96 4863.23 3555.86 4631.83 4996.99 6008.49 4220.46 4287.53 5945.08 3169.67 4968.03 5395.14 4702.06 3967.48 6213.04 4689.15 3685.13 4655.16 5409.66 3867.19 5857.79 4039.91 5276.7 5036.58 6119.63 4950.97 4752.9 4287.16 4863.96 5191.08 5203.08 5374.07 5163.77 4588.7 4488.85 3766.55 4579.69 3554.48 6496.52 3436.15 5005.85 4216.17 6484.17 4721.02 4596.75 4254.37 4933.65 4031.78 6098.1 5708.99 4049.02 5346.68 5311.03 5255.12 4285.66 4896.11 4027.09 5172.53 5801.99 5210.48 4962.77 7552.94 6259.23 5088.44 4998.21 4711.62 4114.24 5349.31 4649.22 5394.55 5094.52 4256.43 4946.74 2682.24 4520.62 5928.32 5229.48 5475.7 4485.99 4016.18 5127.16 5435.74 4244.99 6050.81 5543.46 6185.89 3997.96 4750.17 3460.94 3990.25 3691.0 4752.51 4236.14 4407.87 5282.91 5282.51 3797.33 5945.89 4105.55 4800.69 6566.1 6065.22 6386.78 4456.39 4896.39 3633.79 6081.14 5480.83 4607.85 6070.3 5128.57 6000.7 5604.21 5204.04 3361.92 4750.58 6710.88 5235.11 6622.11 5211.38 4590.55 6790.73 5920.32 5251.4 5097.69 3988.3 6543.13 5149.72 5464.25 5411.02 5301.47 4617.55 5199.44 4062.5 4435.51 5683.95 6027.62 5010.2 5966.61 5711.11 4938.72 3374.08 3546.71 5768.57 5564.23 5950.04 5687.85 5296.29 4611.53 2681.29 5094.48 3872.61 4238.4 4135.62 6132.95 5534.94 4860.33 7644.38 4051.34 6101.92 5323.3 3627.55 4635.6 4256.67 4662.56 3457.48 5166.79 2976.22 3405.98 5417.15 3688.16 4681.72 4945.39 5996.33 3950.63 5415.19 4612.62 3619.07 5526.75 4275.57 6385.23 5327.45 2983.99 5560.26 2614.4 6363.92 6205.93 4439.35 5830.72 6184.4 3758.07 3828.81 4373.45 4082.57 5733.62 5169.9 4460.92 3004.16 4767.78 4042.28 5235.17 4421.12 4779.5 4340.76 5254.49 4221.28 4303.19 5514.84 3914.2 5421.53 5937.08 4135.08 5620.74 5233.29 4778.82 4312.56 4612.06 5467.84 5053.95 5926.11 6667.68 5767.9 5089.62 5869.4 4741.26 4186.6 4255.85 4732.09 6136.49 4356.25 4216.95 5776.96 5742.74 5486.48 4947.24 3645.12 5424.88 6200.54 5415.85 5148.58 4199.45 8659.64 5469.13 4233.8 5765.42 6123.03 4997.83 4893.49 4575.94 5325.44 5021.88 5956.65 4498.25 4188.87 3735.24 4231.83 2435.33 6401.43 4074.48 4558.47 5020.71 5997.88 5839.71 5576.92 4318.48 6408.83 5266.22 3930.79 5226.97 3685.13 3312.06 6004.68 3361.26 6799.4 6239.84 5865.39 4427.28 3931.07 6079.11 6430.39 7440.72 3949.6 5703.6 6326.18 5661.62 6631.19 6648.68 4467.04 4713.74 5626.61 5817.25 4084.49 5061.98 6632.99 4537.6 4923.24 4419.61 7177.44 4563.46 5309.98 6553.94 5255.18 5460.65 5463.41 5225.33 4929.75 4435.36 6649.96 5134.39 5784.3 4256.57 5442.32 6088.68 4643.56 4863.01 5657.36 6124.08 5029.47 6306.21 5266.01 5253.37 7016.27 6515.8 3876.21 3685.65 3701.16 4916.22 6022.7 5895.77 5750.07 4809.67 4757.74 6045.67 4209.49 3946.28 3821.94 4244.21 5367.73 3875.05 3540.11 3456.47 4652.01 7234.66 6599.66 4055.54 4976.12 6098.95 5453.98 3991.42 4388.63 5102.75 4200.09 4597.29 5931.77 5151.21 6574.95 6333.29 4477.04 5731.57 5703.74 5662.55 5737.92 5365.24 4004.35 4763.96 5754.18 5180.76 3418.99 4480.95 5278.36 4409.63 5521.25 3661.9 3082.32 5370.85 5949.46 3658.37 3178.54 5376.71 4448.13 5070.29 4807.28 4867.08 4266.03 5280.69 4220.03 6923.84 5407.78 5449.46 6179.96 6113.54 5147.36 6260.79 3963.76 5528.53 6799.88 3062.43 5726.66 5426.78 5652.0 2967.38 4159.35 6477.91 4237.98 6439.37 6045.22 4614.3 3532.3 5580.92 5769.98 5973.33 5067.46 3583.21 2221.99 2511.46 3580.58 4011.37 2775.69 5356.79 4785.25 3619.79 5876.64 5424.46 4857.84 2978.76 4908.49 2040.66 4962.21 5884.9 4673.35 5689.26 4992.42 4940.84 4351.38 4833.46 5933.7 7248.4 5280.12 5984.81 5439.9 3498.16 4409.27 4640.06 5471.74 5421.64 3548.39 3673.28 4858.51 4207.54 4886.12 6419.12 6107.89 4817.16 5148.08 4834.87 5760.22 5938.17 4795.43 5398.64 5097.95 6817.57 3614.96 3886.68 6853.04 4745.43 5831.96 4747.55 4360.23 3056.7 3755.95 6234.32 5293.51 4446.06 3450.93 5008.63 5132.68 6595.03 4993.35 6218.95 5222.16 5107.23 5136.08 3776.94 5558.68 4765.02 4010.57 5629.39 2684.03 6157.04 4768.61 2261.36 5075.55 5506.19 6719.94 4950.67 5227.59 6166.29 5453.6 5703.07 5294.77 4662.43 4709.05 4630.82 4043.66 4813.08 4540.86 5990.52 4835.83 5604.35 6316.56 4332.87 3091.67 6420.81 4081.97 5401.99 5151.52 4347.74 4009.62 5291.9 2081.58 6505.78 5461.55 6519.43 4684.44 4749.59 4858.44 3468.42 3809.69 5571.72 4771.13 7051.9 5297.19 4184.23 5550.75 6226.14 5466.33 4444.97 5721.05 4247.69 4514.39 4588.99 4321.21 4344.34 4928.27 3583.49 5052.84 3375.28 4366.74 5625.65 4301.61 3184.64 4446.84 5530.49 5660.55 3718.69 4514.79 3672.21 2216.82 4509.89 6752.75 5269.38 5607.3 5108.06 3573.73 4693.52 4222.4 4000.43 3420.08 4912.04 4539.07 5464.68 5591.76 4586.19 4585.31 6625.18 5323.91 4270.74 6293.89 4558.15 2761.07 4983.39 5366.52 4690.55 5533.72 5533.42 4802.32 3678.08 4599.38 5246.47 4187.31 6191.29 4522.21 7422.36 5161.01 4298.15 4628.4 5832.37 6051.83 4642.93 5409.63 4263.16 3077.84 6024.75 6109.49 5567.93 5860.67 5332.65 3764.1 6451.33 5413.31 6400.08 4743.59 5208.14 4715.58 3317.83 4450.7 3763.05 5092.24 5369.08 3101.75 4518.04 4766.06 4874.18 5435.19 3298.2 4270.15 6865.76 6449.64 6464.8 4406.05 4680.94 5799.69 5236.43 3208.96 5285.07 4608.41 4144.57 4187.94 5980.59 6834.41 3796.15 4801.8 3000.29 7216.98 5271.02 4209.31 5718.28 6242.79 5950.45 5713.03 5849.65 5134.67 4165.21 5297.16 4936.96 5206.33 5452.78 5653.03 5065.26 4304.41 6192.0 4940.28 5885.28 3004.34 3022.6 2928.82 4811.76 4914.45 4698.87 4568.41 4661.03 3624.7 4691.91 5262.35 4475.83 2685.81 4510.8 5889.35 5010.04 4394.56 4570.98 5097.45 4275.07 5825.38 4185.61 5737.75 4047.87 5742.47 3778.02 6552.21 5417.8 5146.37 7132.12 4836.16 5518.57 5151.11 5463.48 5730.33 3240.51 5545.46 4527.99 4376.7 5190.61 8325.01 3764.06 4440.81 5941.9 3973.12 5434.47 6642.76 5829.22 4497.78 4243.79 5987.42 5433.65 4442.22 4887.76 4669.06 3012.99 4811.32 4286.49 6184.88 5829.32 4396.25 5551.95 5549.49 3918.87 5423.42 2275.45 6605.86 5012.5 4383.56 3562.79 7093.13 4953.1 5818.95 4093.99 3604.14 3940.49 4452.54 5089.1 2711.19 5828.35 5876.72 4028.32 4099.92 4884.59 3858.06 4680.14 4083.79 5263.27 6300.92 5021.77 5599.29 4807.4 7013.17 3805.67 4601.74 6506.86 5088.57 5580.34 3852.6 5775.31 4215.0 4603.5 4481.76 4647.67 4356.36 4892.44 5578.94 7610.49 4286.17 6579.31 5323.55 5375.1 5313.12 5351.56 5160.59 3984.88 4732.09 4320.42 4255.34 5064.79 5480.3 7509.24 4146.81 5896.26 5388.78 6101.13 4573.72 5099.21 4917.99 5636.4 4367.78 4350.12 5227.02 5670.0 4232.16 5300.96 4344.51 5680.94 3781.77 5581.55 5193.01 4543.1 6550.44 3860.83 5732.27 4523.39 5278.56 6917.62 4013.38 5631.14 4343.78 5811.18 4909.65 4008.15 6523.86 7693.4 4326.48 4437.07 3449.37 5491.9 6405.0 4659.16 5789.55 4633.05 4901.2 5711.62 4990.79 5166.79 6479.39 2895.63 4516.53 4122.92 4997.91 5079.22 5381.54 5810.77 5474.15 7519.2 6355.68 4511.7 4478.6 3953.55 4304.63 4469.54 4314.56 4173.54 3928.53 6038.68 5046.12 3834.47 6349.67 4590.01 6101.86 5993.0 4803.57 5966.42 4110.59 4706.5 3332.49 5354.66 4214.44 5375.12 4787.97 3746.36 6789.23 4777.03 3684.56 4246.61 6028.09 5452.36 4172.6 3804.5 6486.37 5498.42 5318.53 3344.57 4281.98 7165.9 5344.83 7046.11 3427.63 4863.97 6342.48 5756.75 5599.7 6969.28 3665.95 5698.96 4095.75 3603.51 4298.45 5222.51 6609.84 5135.96 3834.43 5658.37 4707.06 6074.94 3474.5 5491.37 4250.88 3783.54 6348.03 3475.67 4792.39 7038.89 5146.37 4814.12 5067.56 6137.8 2735.53 5263.3 3352.35 3747.03 2783.85 4356.49 3994.07 4219.94 5907.46 4264.91 5399.29 4909.31 6522.59 4798.17 3568.28 5425.98 5996.66 4405.42 2995.67 3598.08 4599.81 5698.23 7300.58 4714.83 3608.06 6633.61 5484.36 4277.24 4063.9 5291.05 5161.1 4619.2 5606.51 5166.41 5740.65 5067.56 6329.53 4139.3 6541.45 4227.41 4750.49 5078.31 5391.48 4923.43 5131.15 4847.14 3950.27 5116.66 5378.23 3566.79 5374.67 4981.43 3989.7 4215.2 5069.89 4157.29 6813.72 5327.75 4609.02 4638.18 4196.37 6448.66 5220.76 4453.97 6945.98 5138.2 5783.48 4449.98 4504.35 4771.65 4840.44 5093.82 4587.67 5951.81 4163.74 3924.14 4296.69 6238.32 3319.67 6471.42 5283.8 4076.59 4428.14 5164.1 6464.15 4479.11 4972.17 6685.4 5699.53 4222.77 6332.01 5268.38 5527.23 4805.33 3863.67 5980.95 6193.08 6069.3 5887.01 5116.6 5388.39 5335.47 5633.61 4526.81 5048.19 6799.23 4888.27 6740.71 6487.56 4854.11 5971.22 5533.19 5417.21 6602.43 5583.61 6063.64 7382.3 5522.21 3772.3 4855.01 4923.57 3340.09 5217.95 4867.7 2279.05 4829.35 4075.28 8137.11 5484.32 6650.77 4067.96 7104.73 2596.96 5701.75 3272.75 4350.15 3516.27 4263.78 4643.9 5228.75 6047.14 5009.83 5210.38 5717.8 3629.44 5003.78 3299.24 6246.56 4741.28 4061.6 2603.64 5107.0 6212.15 4783.07 4896.65 4946.23 6083.28 5211.6 3556.79 5806.31 3503.41 7317.04 4701.5 7001.83 5012.97 5589.37 5439.49 6918.35 4834.3 6804.79 6372.13 5369.5 5404.01 6016.19 4124.49 3230.13 5714.25 5325.96 4850.06 7044.29 4234.18 4049.16 7085.01 3936.95 6153.94 6836.82 3862.77 4631.99 5168.35 3185.39 5128.77 3728.18 7122.87 5797.36 4243.26 4153.84 5119.86 4592.15 5084.17 4901.44 4998.22 5096.43 6156.21 6104.26 4653.83 6171.71 4986.71 4668.88 4022.56 5027.43 5522.75 5867.64 6208.9 6059.93 5602.53 6061.63 6545.43 6760.92 4711.04 4506.18 4824.12 6162.3 5971.21 4264.54 7043.44 6502.97 4852.58 5456.71 6412.67 4036.91 6639.64 5212.43 5454.12 6348.54 4066.57 5642.35 4206.98 5156.76 6357.47 6101.57 4891.38 5535.91 5955.86 6176.67 4848.46 5412.24 5016.02 2779.99 5887.38 4920.21 4581.37 6942.34 5851.61 5478.11 5526.31 3858.17 5030.15 4740.98 5089.26 3776.8 2460.79 3628.89 6589.82 4438.58 5073.02 3472.91 4989.2 7144.05 2970.9 6542.5 4383.47 6318.23 4058.87 5174.75 5932.07 4984.46 5948.71 4793.65 2949.12 3856.53 4532.89 5460.89 4533.37 5260.85 5742.09 2884.65 5807.46 4648.21 3658.05 4393.16 4549.69 6423.81 6192.77 6413.15 6103.11 5048.55 6459.51 4024.31 4955.16 5844.72 3992.97 5989.05 6040.74 4054.22 7228.94 5393.65 4961.99 6551.93 4595.12 3311.29 3110.13 6484.43 4625.67 3485.54 6735.97 5305.59 5416.45 4330.58 5754.6 3288.01 4904.51 4147.31 2202.77 5751.15 5950.88 4149.55 4441.22 5853.89 3380.69 4140.4 4386.8 5446.4 4725.01 5966.75 3104.96 5244.78 3636.15 6114.89 5135.63 6384.7 4355.83 6870.97 5351.86 6056.87 5474.01 6201.86 7554.58 5166.89 3639.44 4731.21 5491.63 5725.37 3868.62 5138.33 3477.1 4729.42 5216.26 4844.83 5377.37 5652.87 5483.7 5018.69 3152.86 5952.38 3896.27 5807.52 5963.36 5230.02 5307.35 4342.18 5169.48 6016.08 3124.7 6064.71 6102.98 5096.24 5769.14 3381.82 4831.93 4023.93 5494.28 5493.89 5261.19 4811.22 4918.76 4208.41 3758.22 4268.19 4788.08 6379.14 3687.65 5478.95 4749.96 4658.24 5869.67 4311.48 4899.73 5457.66 6394.19 5973.89 5366.22 6193.73 5518.11 5087.14 5712.35 5701.52 4743.9 6776.22 5321.17 3719.11 4467.13 6060.17 5934.82 4501.78 5415.45 4385.81 6592.93 6350.71 7107.63 5868.89 4099.26 5206.47 4834.39 3831.52 6106.43 6761.81 5467.63 5826.78 2856.55 6214.73 4553.68 4532.7 3205.68 5561.74 6100.73 4908.75 6556.26 3971.08 4593.7 4349.13 6818.91 3634.5 3851.85 4019.34 3623.19 4869.48 4906.11 4387.39 4564.1 5825.55 5509.51 4848.14 3199.4 4316.5 5254.24 3742.11 4192.21 3597.43 5144.56 4158.91 5311.55 3360.86 3034.16 4869.25 5545.21 3877.8 6418.11 4922.49 3572.94 5001.58 6456.58 5039.12 4824.81 7307.21 5135.5 5615.84 5788.97 3274.85 5007.21 5545.59 4580.06 4835.97 4057.17 7066.96 4587.7 4263.65 5644.81 5666.95 4127.53 4642.2 5210.75 5175.89 5361.87 5232.85 4374.74 5975.23 6816.66 4473.29 4745.79 6204.65 4482.9 6550.4 5513.8 3503.65 4887.52 5350.88 4392.65 5429.3 5510.96 6653.07 4745.16 4697.91 4584.81 5071.98 5719.79 4371.08 7261.51 4968.14 4914.03 5086.29 5527.13 5139.18 4278.57 5551.43 5049.99 4201.03 4333.87 4458.64 5001.87 4312.15 3657.69 6015.02 4820.17 5244.98 3814.65 3886.72 4034.05 5798.38 6436.74 5366.11 3419.87 4384.28 3908.98 5944.3 6328.42 5640.72 3619.72 4565.93 4504.52 4464.73 6440.38 5610.53 6419.64 5262.47 4991.35 5196.92 4807.35 4568.64 5750.35 6555.44 5293.75 6358.93 2205.51 3894.64 3703.49 5144.44 4757.2 5034.69 5079.64 4211.82 5470.04 4891.67 4882.66 6631.28 6571.31 4944.51 5603.68 5610.95 5532.72 3220.8 5179.17 5579.39 5270.51 5148.1 5224.64 5949.73 4312.48 6370.33 5081.08 6318.25 6864.06 3644.78 5510.9 4883.63 4078.93 7039.98 6006.89 7778.01 5127.82 5690.96 5805.1 3862.91 4456.26 4027.33 4810.98 5113.6 3563.14 5851.63 5556.0 4954.81 5755.15 4608.34 3926.11 5464.83 5414.58 2781.96 3512.94 4467.0 4994.65 5601.55 5334.36 4929.6 3919.62 4489.99 3683.86 5658.14 5473.72 7124.45 2617.39 4062.56 4198.94 3217.67 6163.54 6003.78 5684.25 5438.92 3766.69 5110.11 5188.53 4521.75 4813.33 4027.63 5635.32 4526.34 4316.45 5409.08 5042.75 4598.92 5241.22 6647.08 4979.52 5490.75 3422.29 4407.79 5214.63 3495.68 5783.94 5352.24 7362.42 4202.77 5836.14 5473.05 6008.81 4583.52 4505.28 3492.83 6280.13 5244.22 5585.14 4960.64 5792.98 4983.3 5910.86 6239.68 4456.11 5782.43 4708.31 5026.76 5091.22 6282.38 5727.79 5212.92 5043.14 5748.9 3742.31 5695.79 4420.6 3622.8 4431.23 4258.98 6545.99 3903.91 4368.28 4945.0 4548.45 5730.61 5114.07 4508.18 5064.67 3717.47 4504.86 5969.37 4928.35 4509.46 3844.54 5212.37 3538.53 996.652 6500.49 5058.51 4244.49 4050.03 5036.98 4120.07 3840.21 5569.2 6746.66 5420.67 4827.61 5285.75 5481.64 5673.75 5360.67 6263.3 4501.05 4537.03 6548.29 3990.96 4114.2 4326.06 5034.46 5757.29 5793.12 5469.17 5061.75 4373.2 6711.21 4971.29 5832.29 2606.51 4438.76 5401.4 5053.15 5124.17 5749.6 7320.78 4234.88 4834.44 3873.92 4092.07 5347.9 5657.55 5188.82 4717.73 4928.85 5072.5 4749.18 3663.0 4546.96 4316.0 6304.49 5134.72 4475.38 5287.25 5917.34 5740.98 5630.9 4728.55 4554.68 4658.11 4551.26 7142.95 4559.74 4383.68 6618.21 6666.67 6200.63 4583.94 1937.5 5046.31 4337.32 2628.22 5965.58 3352.34 4901.29 4952.52 3429.57 5410.33 5661.6 3242.31 6099.28 5372.25 5385.03 4169.15 3234.26 4778.37 5134.17 5968.54 4074.16 4904.35 5592.54 3247.97 5124.34 4904.37 4358.81 4651.64 5729.92 5016.46 6224.13 4761.84 3769.24 3661.67 3743.76 5153.18 3425.69 5510.45 3864.92 6119.99 4159.81 4446.58 5372.82 4402.17 4775.49 4681.29 3845.9 4174.44 6331.74 4213.05 4224.3 5235.87 3904.07 6502.99 5424.55 4770.51 6511.37 3787.08 4462.87 4218.16 6139.64 4140.92 4474.83 4585.04 6570.35 4242.63 7407.91 6063.44 4051.18 5849.53 4680.69 4420.11 5863.0 4802.98 4833.55 7224.99 4898.29 4431.06 5730.2 4830.13 3494.16 5370.9 4529.77 4325.13 6172.27 5390.33 5078.73 5278.54 5729.0 5192.92 5275.57 4179.87 4786.66 5891.25 5370.1 5393.76 3684.15 4730.14 3994.39 5906.57 7541.76 4990.23 5499.59 5667.51 4198.9 5431.29 4833.67 5325.91 5157.38 6203.03 4700.07 5273.37 4732.37 5713.36 5553.94 4704.92 4287.25 4392.75 4921.1 3814.16 4191.01 5577.41 4216.44 3999.5 4012.92 4346.07 4933.49 4692.32 5236.24 3127.83 3269.54 5836.26 6015.22 6449.06 4651.99 6127.39 5640.12 4972.18 5329.76 4124.76 7200.89 3908.56 5265.63 5684.88 6523.78 4645.86 5620.88 4941.52 5900.0 4262.74 6241.77 3783.79 4248.14 5317.19 5279.19 4016.6 5821.49 7050.08 5580.44 5998.13 5902.67 5454.11 4236.86 6010.59 7123.04 4128.1 4932.29 3784.94 4506.66 4439.71 4141.21 4064.58 4646.51 4546.44 4184.21 6089.45 4985.3 3987.69 6219.34 4589.06 4920.88 4013.86 4177.47 6102.49 5114.23 6061.85 4826.52 5241.75 4731.53 3763.9 4577.73 4288.45 5419.57 4147.49 5760.98 4954.76 4642.74 5764.52 4390.64 5150.84 4045.67 4608.01 5087.97 6005.95 4308.49 4930.17 4581.1 4085.96 4745.44 5762.82 7360.12 6223.98 5462.6 5617.29 3035.06 4262.19 4597.88 5095.52 4763.4 5806.61 2955.36 4618.73 3965.3 3220.29 4125.9 5426.4 5951.86 5023.41 3791.41 952.938 5702.4 5473.89 5265.21 4657.24 4966.07 4400.14 4666.12 2918.64 5345.73 4770.63 4639.8 5678.58 4212.15 4385.49 4263.18 5495.0 4454.74 5512.44 2904.46 5120.92 4685.4 4081.34 5384.86 3770.22 3402.44 4848.98 5184.98 4491.96 4467.51 5339.82 4519.03 5460.57 5110.27 5703.34 4612.68 6668.98 6649.52 4232.33 4939.56 4747.68 5770.92 3093.38 4878.93 2002.78 4941.02 5784.37 3682.35 3142.09 5182.13 6110.48 5515.73 6715.73 4564.41 5247.01 5853.12 4841.7 4678.7 5810.17 3450.07 4271.07 5674.63 5340.05 5759.79 4489.29 4301.93 4924.07 3200.6 4918.64 6206.98 6638.25 4775.04 5162.67 4636.53 3646.95 5537.61 6084.88 4199.44 4397.06 4053.12 4479.5 6261.67 3435.13 5065.78 4431.46 4521.42 3207.84 3977.98 6043.34 4128.93 4959.72 4712.17 4845.91 3808.04 4723.71 4461.67 5003.3 3756.96 3954.77 6793.1 6016.87 5209.55 3306.84 3484.81 5308.33 6023.07 6710.14 4598.54 4512.07 4896.43 4462.35 4788.7 5078.59 4607.18 2403.72 3228.27 4721.98 5252.82 3543.98 5056.26 5878.55 4014.44 6604.72 6002.77 3794.47 4610.55 4967.02 4614.49 5400.69 4462.5 5573.31 5004.68 4023.88 5348.11 4405.61 6273.6 3668.93 4009.24 6245.52 5077.29 6740.35 4550.92 6506.63 5995.4 4184.47 5890.25 5700.79 4726.2 5034.05 5218.42 4816.51 5188.22 3825.48 4841.23 2804.54 3990.94 4196.62 5984.8 5463.06 3986.41 4176.32 5260.52 3185.09 5532.75 4241.68 6949.65 3469.18 3372.95 4095.83 5676.61 5846.95 5064.23 5268.15 5701.63 5819.0 6347.72 3460.93 4629.02 5124.86 6240.42 5146.0 6006.16 5721.14 4608.62 5407.96 5084.5 4987.28 4071.75 6562.03 4815.47 4759.99 3899.7 5134.33 2646.13 5214.4 3629.49 4705.68 5766.05 5469.35 5117.64 6334.53 3956.24 7558.99 4142.1 3393.59 5043.14 5333.04 5445.91 4521.99 4812.59 6842.54 7115.67 5675.45 3361.11 6038.56 2807.46 5599.16 4179.8 3488.34 5658.35 5428.24 4493.79 5684.05 5136.87 5638.7 5024.32 4708.17 2741.2 4644.88 3779.45 5790.42 4983.1 7350.26 5591.77 5167.53 7145.73 4168.52 5800.81 4795.08 5106.46 6562.92 4068.31 3125.13 5166.05 3671.06 3612.44 7035.54 4850.5 5866.91 6405.69 5763.05 2820.07 5129.68 5357.39 4252.18 4659.88 6296.54 5797.21 4208.37 6019.35 5069.9 6075.99 3673.6 5146.1 6215.87 6485.77 5191.26 3669.32 4762.1 5393.43 6896.55 4685.65 5377.01 6470.23 5939.22 4140.04 3495.3 4668.8 4271.93 5322.11 5125.17 4697.49 4859.01 5735.08 5524.45 4426.02 7133.44 4711.15 4750.81 4658.59 4474.39 5459.92 3810.68 6478.35 5453.77 4756.8 4357.11 5477.8 5486.89 5005.6 6069.78 7208.19 4549.51 3587.93 4975.85 5196.08 2945.34 4517.29 5695.25 5323.95 6171.01 5716.42 6229.83 5796.26 4468.26 4620.95 4603.04 5578.18 4870.94 5293.37 5368.93 4488.39 5271.88 5933.54 6121.56 4927.73 7168.2 5914.5 4602.57 3565.32 3419.07 5710.33 4096.86 3622.48 5344.44 5001.51 6432.8 4626.72 5115.42 5549.71 5131.77 4410.82 4369.86 4967.51 4368.12 6443.99 4365.58 3889.98 5399.43 5193.58 5490.64 5034.34 5695.44 3769.2 3422.21 3835.81 4507.46 3916.42 5036.14 5580.95 3549.92 6598.99 4032.06 5246.81 5089.1 5888.95 5394.78 3463.34 5122.38 2853.68 5262.85 5329.84 4998.37 6559.82 3879.83 6565.95 4577.98 5043.34 5886.81 4932.56 5537.34 3667.93 4279.44 5192.49 4899.19 3487.31 6643.4 5813.79 5058.34 4028.22 3918.94 5575.11 5293.13 3852.82 3768.46 4507.36 6224.85 6406.8 4556.19 5403.97 5648.78 5368.66 6875.73 5501.73 4697.24 6081.3 5226.42 4983.43 5117.52 6311.89 5233.76 4683.28 6549.8 5679.74 4825.73 4851.18 5076.84 4165.36 5288.33 4871.77 5368.52 5811.26 5155.28 5062.77 5205.38 5388.73 5685.74 4764.83 4884.93 4600.71 6028.63 3957.38 5262.79 5927.2 4494.15 5035.71 4710.88 4419.79 5407.69 6060.06 5152.78 3869.39 5866.42 5960.5 5544.27 4117.9 4753.76 4638.09 4781.9 4441.91 6815.96 5330.26 5339.6 5828.25 4725.11 4215.05 3626.86 4604.1 6371.96 5076.11 5990.75 3953.26 5600.21 4282.11 4656.01 5467.51 6589.13 4625.53 2347.41 4096.47 3543.37 4542.16 2809.19 5114.67 5628.97 4916.7 4104.04 5589.53 2638.82 5030.33 5593.79 5025.42 4965.24 5234.2 6379.38 6257.79 5327.05 4495.75 5438.55 4849.5 5353.23 4434.65 5977.66 4523.81 5106.33 5791.25 5198.94 4028.35 5559.79 5464.05 5879.24 2980.31 3763.85 3148.79 4571.74 5740.78 4796.12 5997.91 5385.86 4742.82 6791.86 4082.4 3186.07 4209.0 5482.76 5173.82 7212.97 3720.7 4211.36 6297.99 5378.24 5698.53 3604.31 3856.73 4450.49 3468.45 4313.38 5250.56 3633.58 2468.16 6294.14 4339.97 5203.75 5169.09 4691.15 2459.88 4210.24 5470.67 5901.71 5225.11 5342.9 5252.22 5733.12 4962.35 6436.29 6022.78 5884.99 4087.32 6647.85 5726.42 4674.9 7025.09 3392.26 2549.95 4433.12 5461.72 4361.24 5487.63 6599.28 5138.93 5099.9 6945.69 5118.86 7086.69 6170.9 4304.64 5833.78 4436.48 4823.06 5758.98 5615.35 5254.49 3967.76 5288.64 6734.39 6213.24 4217.36 5987.88 5942.45 3579.59 4228.53 4150.76 6123.46 5005.72 6142.88 5111.26 4574.54 4949.55 5490.54 1969.87 4841.28 3132.34 4047.95 5507.38 6889.5 4416.87 5300.17 4057.4 4052.43 3980.46 4896.67 5534.23 3934.11 5158.44 6025.77 3886.56 4466.22 4496.51 6153.71 5917.08 6561.94 5483.37 5259.21 5418.12 5322.07 5934.05 5770.07 4714.66 5101.6 4984.17 5327.39 5781.62 4037.86 5602.62 2030.03 5714.51 4138.59 4938.33 5353.66 4484.78 4621.33 5527.27 5104.39 4612.13 5847.91 5846.6 4109.44 4903.84 4290.49 6688.53 5927.1 5209.5 6175.27 5065.74 5876.51 4873.23 4103.76 6731.89 4733.41 5410.6 5264.83 5453.2 6348.93 5136.51 3901.53 6824.53 4332.64 6815.51 4422.23 5232.16 3989.26 4820.68 4930.72 6031.22 5728.58 5485.84 3745.02 6424.77 4887.73 5453.69 5918.95 4538.89 5817.74 5689.56 5887.71 2832.83 5827.3 6036.99 4084.87 3010.1 3825.98 4589.22 5087.03 4667.84 3906.41 4123.08 4512.6 4260.38 4636.45 4932.27 5638.51 6793.49 3563.33 6060.19 5536.0 6786.37 4009.68 5517.65 3303.49 2569.12 4161.32 4622.73 5256.75 5161.74 7336.37 5932.28 5560.23 2960.5 4298.7 4975.32 3043.77 3902.48 5237.55 4183.4 3909.94 5088.64 6030.39 4733.79 4905.53 3799.01 7392.65 5319.1 3757.23 6828.8 6883.86 3350.99 4979.5 6161.94 4745.37 4065.28 5057.59 5939.29 4461.14 5285.6 5418.98 5575.11 5615.06 4052.49 5203.54 5061.74 5326.03 6189.67 6142.94 5001.69 4948.96 5256.82 6581.56 4013.86 4061.87 4645.93 5383.9 5165.31 3798.09 4585.37 5448.64 4288.5 5715.51 3721.69 4511.05 3456.3 6074.39 5317.83 5092.93 4256.08 2803.01 5881.93 4399.52 4444.0 4554.24 6771.18 3939.96 6182.19 5910.66 7415.84 4981.81 5141.03 4637.3 4970.55 8123.59 5765.14 5157.73 4541.22 4767.54 4934.66 4946.08 4984.01 3539.68 4696.03 6217.33 4557.1 4605.39 6270.59 6045.26 6500.45 4907.55 4286.61 4094.63 5084.76 2932.52 4603.66 4757.87 4969.68 6636.43 5431.14 5313.86 4457.05 5178.07 5189.91 3618.64 5777.26 5703.84 4171.02 4335.79 3530.82 7012.36 5797.32 5432.04 4886.99 5159.67 6556.86 3921.27 3161.1 3702.45 4474.96 4758.76 4790.63 5259.29 3584.05 4916.75 4818.53 5097.85 5584.64 6189.04 6224.64 4221.03 3799.55 5082.66 4550.77 4337.93 3550.88 4345.51 4048.73 5114.51 5129.4 4746.15 4655.37 3720.38 5585.25 4758.84 5023.61 6351.89 3976.0 4672.86 6530.78 5059.37 5783.38 4742.35 4139.39 5394.79 5645.54 6264.03 6589.8 4526.87 3562.8 4151.74 6920.92 5192.82 3729.16 4174.22 3573.84 3783.36 3038.91 4181.93 3922.28 6570.43 3820.19 3445.92 5236.69 4586.82 3133.28 5524.28 6026.04 6200.05 6353.81 5859.17 4034.41 3518.14 4150.44 5522.34 5771.98 4420.35 5899.78 5717.45 5117.83 5268.27 4813.81 5244.95 4634.25 5901.8 6417.61 5395.12 5783.69 3830.7 6210.0 3483.61 5350.9 6738.9 4460.89 4157.1 8052.53 4867.12 6044.01 6520.19 1458.87 5973.57 4840.44 5734.07 3997.68 4819.83 6033.28 4801.16 5071.38 6286.27 6327.54 5121.08 2927.84 5688.77 6177.68 5368.28 4698.7 5466.13 2848.44 6229.64 4220.43 6263.87 5743.8 6666.34 3826.01 6605.11 4645.91 6834.92 3557.46 6379.33 5971.95 5652.73 6298.8 3689.24 3979.46 6321.97 5151.19 6412.84 6509.54 6119.0 3792.06 5128.59 5028.06 4002.99 4993.49 4293.3 5587.3 3572.73 4864.38 5367.05 4449.73 5647.11 4088.72 3945.62 3743.85 6236.46 5342.17 6379.3 5015.67 3795.63 5189.4 4576.71 6538.04 4894.15 6157.59 5201.3 5848.41 6223.33 4090.28 6275.25 6892.33 4731.37 4505.3 4452.36 4491.26 4511.34 6463.71 4068.41 5009.21 4574.03 5290.37 5850.38 5264.08 4227.66 4691.01 4730.97 4594.89 5245.95 5821.42 4067.89 4515.02 6294.09 3463.53 4924.52 4571.57 6126.03 5131.07 4121.07 2970.24 4197.87 6044.69 5105.54 5658.05 6593.1 5731.43 5462.1 6032.45 3414.67 5444.36 5044.68 4026.03 6908.32 2649.69 3467.11 5000.74 4817.75 5772.57 6153.26 5637.53 3882.37 5523.81 4095.4 5648.59 4718.61 5188.57 6351.48 3873.79 5357.33 5717.67 5252.37 5432.4 4499.54 4262.52 5037.58 7430.48 5992.06 5545.68 6080.69 4970.12 4967.93 6369.66 5678.08 5922.62 6241.48 4414.09 5125.45 5957.82 4188.16 3784.68 3717.22 6649.21 5616.66 5507.07 4802.36 2943.17 5327.71 4880.78 5257.38 5075.23 5625.02 4975.56 5212.05 7282.36 4829.77 5581.01 3928.99 4444.92 6959.88 4125.75 5749.53 5130.57 5090.48 5402.45 5582.28 3985.93 5945.25 6071.59 2589.19 3856.4 6079.55 5485.61 4937.36 5308.4 5310.33 6583.37 4569.32 3688.83 4246.83 5631.32 6322.0 5793.14 4609.65 6345.2 5704.61 4832.21 5410.73 3720.92 4379.91 5087.3 4942.63 6139.74 4975.57 7066.26 3057.3 6150.31 3677.85 5214.71 4677.84 4811.11 5379.52 4866.8 5314.67 5563.47 4966.74 5651.46 4066.36 4000.51 3162.27 6033.93 5011.37 5516.37 2827.92 4441.44 4232.44 5336.61 5563.09 6381.58 4848.15 4439.09 3282.57 4798.13 5108.42 6697.45 6296.36 4432.32 5515.59 3224.81 3775.38 4046.22 6457.89 5640.67 6572.17 3751.73 5555.89 3374.62 4766.47 4926.62 4871.1 3917.09 6009.93 5872.45 4083.1 5270.1 5191.29 4947.64 6305.9 4997.89 4542.62 4654.92 3470.69 4859.95 5286.55 4322.56 5522.18 5509.09 5223.1 3873.72 4592.49 5479.86 3625.98 6474.5 4702.32 4763.04 5971.9 3746.62 4413.56 5247.73 4876.37 4532.67 5034.02 4769.62 5260.13 4649.5 5181.31 4696.06 5985.75 4137.16 5475.83 6189.29 5984.55 4329.8 6581.13 5803.3 6126.5 4034.88 3511.5 6007.1 5067.92 5488.96 3188.21 5357.14 5128.03 5919.27 4793.06 6271.22 6637.38 3421.81 6188.33 3920.64 6111.23 6916.18 5786.06 5873.62 4137.41 4996.91 3868.69 3920.44 5447.74 4450.51 6033.72 3768.62 3851.47 6213.74 2329.93 4959.94 1635.31 5639.4 6185.73 4083.24 6520.96 5092.44 5432.2 3771.91 5217.62 4612.4 3312.3 4746.19 4616.81 5715.25 5212.2 4362.94 4611.21 6545.78 4630.5 3354.94 4404.87 5237.27 4451.76 5767.65 7885.41 4750.76 5782.25 4104.97 4844.2 4575.72 4081.77 5114.61 6118.13 2181.29 4420.3 4202.12 2694.25 6332.64 6492.44 4613.32 5145.39 3482.73 3996.93 5130.56 4957.99 5195.09 4063.26 5345.05 7679.2 5093.28 6131.52 4132.08 6009.88 4699.77 4850.49 4981.55 5093.41 5144.23 6188.62 6153.07 4414.06 5908.57 5944.52 7296.47 5050.2 5316.05 2513.38 4821.41 4908.32 3995.08 5019.84 3874.12 4810.74 5784.38 3900.93 6476.35 4149.17 6260.58 5728.27 3053.19 5672.46 5202.33 3074.49 5108.84 4582.12 4487.51 4295.25 4520.14 7394.47 4729.45 4850.95 6261.13 5374.09 4720.34 5244.47 5378.75 5510.89 4731.16 6186.24 5822.7 3780.07 4159.89 5466.49 5178.55 4038.17 5007.41 4907.48 3692.99 6818.23 4369.87 4488.41 6938.87 5412.07 5512.57 4806.99 6578.62 4813.55 5856.43 3465.03 6178.19 3839.0 5349.85 5799.86 5172.1 6052.22 4469.82 5376.41 4870.14 5003.63 2932.2 4695.7 5105.72 4082.01 5003.49 3964.03 4907.03 4216.33 5497.27 5617.91 4948.21 4987.01 5161.02 4706.31 3124.49 6265.48 4735.99 5003.81 4203.68 4739.56 3818.37 4701.03 6351.95 3352.46 5434.04 5200.1 3997.52 4881.51 4444.54 5779.9 2626.41 4311.92 5310.33 6729.99 6842.35 5464.34 5259.48 3621.63 4777.96 5801.89 4803.4 6833.5 5742.39 4780.16 4924.53 3834.01 5616.11 4433.23 4499.52 4813.24 4028.13 5759.19 4457.73 3113.64 4490.2 4304.75 4067.24 5480.86 6139.9 6571.26 4246.24 6805.02 4919.13 5354.48 5640.63 4900.26 5783.88 4167.55 5002.38 6705.93 4865.11 5502.14 5449.09 6470.87 4465.56 4495.33 5282.67 4131.08 5747.9 3864.19 4287.93 5146.69 5315.71 6203.24 6158.93 5081.65 6679.12 5438.5 5652.19 5806.74 3878.8 5237.76 4698.94 6284.12 4796.04 3948.21 5669.15 5229.56 6011.4 3330.85 4672.34 5056.32 5533.52 5410.33 4747.24 4380.86 4944.08 5269.39 5576.16 4305.35 5210.22 5832.72 2451.27 3903.9 4444.95 5606.22 4721.2 3943.77 5242.38 6081.35 5459.52 6262.18 5566.5 5663.36 6225.05 5579.04 5125.53 5994.21 5403.81 5082.25 4909.74 6964.78 5299.03 6664.54 4565.36 3922.98 5161.73 4025.08 4008.67 5254.93 3618.53 4770.21 8013.28 6608.94 2613.78 3796.73 5417.07 5656.84 5738.37 6789.66 4739.41 5312.2 5847.27 4706.59 5734.84 5551.79 3982.31 4950.07 4720.22 5402.81 4600.81 5561.63 4124.33 5168.97 4358.06 5093.51 5647.93 4280.92 6201.49 5154.74 4696.92 4605.61 6898.8 5386.95 6540.57 5332.11 4893.72 6004.72 4072.4 4823.14 5373.78 5345.65 4621.32 4489.18 5863.36 5699.4 4752.94 4994.98 4286.84 3950.53 6423.96 6058.13 5296.05 5263.86 6988.4 6635.51 4060.17 6051.35 5302.53 4909.13 4287.61 5648.02 3308.75 4604.34 4439.17 5677.42 2701.42 4929.35 5051.39 6673.92 5151.68 4884.94 5362.15 4609.98 4455.61 4738.72 4752.31 5240.97 4276.59 5569.85 5405.6 3929.35 4884.93 4759.38 6960.97 4374.05 4287.15 5036.84 5504.65 5813.68 5732.11 5040.9 3919.47 5596.68 4868.66 5159.9 3846.55 5283.65 4644.68 3082.16 2892.36 5981.54 5416.41 4694.27 6760.64 2515.5 5177.88 3793.83 6981.47 4582.24 4333.23 5145.13 4328.76 3747.96 5611.29 5940.5 6568.45 5004.22 4601.54 7263.57 3832.09 5705.96 6437.99 5739.69 6632.04 7360.62 4985.45 4983.56 5699.51 4714.52 2489.44 5499.37 4632.75 4883.13 4836.76 5551.09 5755.98 4501.1 5581.47 5894.69 4384.91 6550.61 4987.01 4713.56 6094.34 6779.82 5543.67 4739.5 3999.81 4867.13 6377.45 4863.27 4502.12 3255.93 5442.79 6327.61 4633.59 5733.59 5575.8 5268.93 3695.72 6874.6 5106.9 5306.31 5523.96 4223.53 4733.37 4535.94 3037.72 4523.9 5282.51 5604.0 5669.41 4951.02 3760.4 4602.7 3783.35 4037.16 4004.39 6395.63 4987.48 5943.61 4248.58 5479.17 5911.29 4542.25 4414.23 4849.21 5233.88 4785.55 5245.4 6189.81 3916.15 3860.8 5438.6 7370.52 4726.5 4521.88 3724.23 5103.3 4963.88 5888.94 4122.2 4727.98 5175.88 5267.65 4516.26 4790.16 3509.34 3647.26 5360.88 3731.58 3166.37 4977.64 5369.42 5207.08 5205.53 4587.19 5543.05 6028.89 5333.16 4888.17 5392.85 5077.2 5275.27 4274.05 4277.54 5529.09 4531.46 5925.82 5448.68 4072.95 6210.48 4491.62 4182.05 3865.5 6853.07 5126.08 5020.37 5467.05 
SCALARS Velocity float 1
LOOKUP_TABLE default
1.19197 1.19191 1.19195 1.19203 1.19182 1.19191 1.1919 1.19186 1.19182 1.19189 1.19182 1.19178 1.19178 1.1918 1.19199 1.19186 1.19181 1.19204 1.19206 1.19184 1.19186 1.19206 1.19197 1.19192 1.192 1.19184 1.19179 1.19218 1.19192 1.19192 1.19178 1.19183 1.19182 1.19186 1.19207 1.19188 1.19196 1.19178 1.19206 1.19197 1.19195 1.19177 1.19193 1.19198 1.19178 1.19178 1.19178 1.19185 1.19178 1.19178 1.1918 1.1918 1.19178 1.19178 1.19177 1.19189 1.19185 1.19191 1.19178 1.19178 1.19177 1.19178 1.19177 1.19178 1.19178 1.19178 1.19183 1.19186 1.19186 1.19192 1.19192 1.19192 1.1919 1.19187 1.19182 1.19184 1.19177 1.19184 1.19187 1.19178 1.19189 1.19178 1.19177 1.19201 1.192 1.19192 1.19182 1.19185 1.19187 1.19185 1.19177 1.19193 1.192 1.1919 1.19222 1.1922 1.19177 1.19178 1.1918 1.19181 1.19194 1.19179 1.1921 1.19188 1.19176 1.19178 1.19179 1.19178 1.19182 1.19171 1.19208 1.19203 1.19182 1.19217 1.19203 1.19205 1.19195 1.19202 1.19184 1.19201 1.19205 1.19191 1.19196 1.19193 1.19178 1.19192 1.19179 1.19206 1.19178 1.19186 1.19176 1.19184 1.19188 1.19204 1.19211 1.19189 1.19189 1.19191 1.19187 1.19187 1.19182 1.19229 1.19209 1.19216 1.19199 1.19205 1.19216 1.19194 1.19197 1.19201 1.19198 1.19178 1.19183 1.19177 1.19178 1.19186 1.19178 1.19178 1.19178 1.19194 1.19195 1.19178 1.1919 1.19178 1.19178 1.19178 1.19183 1.19181 1.19178 1.19178 1.19179 1.19183 1.19179 1.1918 1.19185 1.1919 1.19196 1.19188 1.1918 1.19183 1.19186 1.19188 1.19189 1.19175 1.19193 1.19194 1.192 1.19182 1.19178 1.19201 1.19188 1.19197 1.19185 1.19185 1.19181 1.19204 1.19234 1.19185 1.19177 1.19178 1.19183 1.19195 1.19189 1.19198 1.19194 1.19178 1.19213 1.1919 1.1919 1.19178 1.19178 1.1919 1.19189 1.19181 1.19209 1.19176 1.19193 1.19201 1.19181 1.19222 1.19199 1.192 1.192 1.19181 1.1918 1.19179 1.19177 1.19195 1.19173 1.19179 1.19186 1.19199 1.19208 1.19176 1.19235 1.19183 1.19174 1.19195 1.19176 1.19186 1.19188 1.19187 1.19186 1.19178 1.1921 1.19204 1.19201 1.19218 1.19205 1.19213 1.19211 1.19195 1.19181 1.19194 1.19187 1.19181 1.1921 1.19207 1.19178 1.19187 1.19178 1.19191 1.19178 1.1918 1.19178 1.19178 1.1919 1.19182 1.19191 1.19192 1.19178 1.19185 1.19176 1.19178 1.19175 1.19179 1.19184 1.19183 1.19208 1.1919 1.19193 1.19192 1.19187 1.19184 1.19179 1.19182 1.19189 1.19178 1.1919 1.19178 1.19188 1.19197 1.19196 1.19182 1.19178 1.19184 1.19176 1.192 1.19189 1.19195 1.19183 1.19199 1.19214 1.19182 1.19178 1.19183 1.19188 1.19202 1.19194 1.19192 1.19225 1.19217 1.19246 1.19201 1.19218 1.19225 1.19185 1.19181 1.19191 1.19221 1.19207 1.19198 1.19202 1.19204 1.19207 1.19208 1.19192 1.19184 1.19236 1.19187 1.19189 1.19233 1.19174 1.19183 1.19221 1.19226 1.19186 1.19214 1.19192 1.19169 1.19186 1.19193 1.19188 1.19178 1.19193 1.19198 1.19217 1.19219 1.19213 1.19208 1.19194 1.19189 1.19181 1.19189 1.19178 1.19178 1.19176 1.19209 1.19186 1.19186 1.19189 1.19195 1.19177 1.19178 1.1918 1.19185 1.19172 1.19194 1.1919 1.19194 1.19186 1.19178 1.19178 1.19217 1.19178 1.19182 1.19178 1.19185 1.19182 1.19192 1.1918 1.19189 1.19191 1.19182 1.19196 1.19192 1.19183 1.19197 1.19194 1.19189 1.1918 1.19155 1.19184 1.19153 1.19198 1.19217 1.19184 1.19174 1.1921 1.19189 1.19195 1.19199 1.19196 1.19239 1.1918 1.19187 1.19189 1.19193 1.19178 1.19178 1.19178 1.19214 1.19198 1.19232 1.1922 1.1919 1.19173 1.19209 1.19181 1.19188 1.19179 1.1922 1.19198 1.19196 1.19199 1.1922 1.19202 1.19159 1.19208 1.192 1.19194 1.19222 1.19207 1.19189 1.19208 1.19237 1.19216 1.19203 1.19223 1.19204 1.1918 1.19216 1.192 1.19192 1.19213 1.19186 1.19191 1.19187 1.19222 1.19222 1.19204 1.19191 1.19194 1.19214 1.19186 1.19217 1.19189 1.19154 1.19182 1.19185 1.19218 1.19199 1.19206 1.19187 1.19176 1.19193 1.19194 1.19177 1.19189 1.19193 1.19185 1.19216 1.19183 1.19184 1.19184 1.19194 1.19194 1.19177 1.19191 1.19186 1.19195 1.19191 1.1918 1.19195 1.19197 1.19186 1.19179 1.19176 1.19173 1.19183 1.19181 1.19187 1.19192 1.19161 1.19189 1.19198 1.19198 1.19238 1.19182 1.1918 1.1918 1.19192 1.19186 1.19191 1.19178 1.19174 1.19177 1.19174 1.19213 1.19189 1.19237 1.1921 1.19179 1.19195 1.19208 1.19204 1.19185 1.1918 1.19191 1.19223 1.19226 1.19218 1.19212 1.1916 1.192 1.19195 1.19218 1.19175 1.19241 1.19214 1.19203 1.19217 1.19188 1.19209 1.19163 1.19195 1.19193 1.19195 1.19172 1.1922 1.19194 1.19194 1.19192 1.19186 1.1922 1.19178 1.19188 1.19212 1.19213 1.19205 1.19186 1.19216 1.19216 1.19184 1.19144 1.19178 1.19183 1.19166 1.19197 1.19179 1.19182 1.19186 1.19199 1.19199 1.19185 1.19195 1.19189 1.19189 1.19182 1.19182 1.1917 1.19185 1.19196 1.19183 1.19185 1.19177 1.19178 1.19181 1.19183 1.19174 1.19185 1.19192 1.19191 1.19187 1.19184 1.19185 1.19194 1.19171 1.19183 1.19186 1.19186 1.19181 1.19188 1.19181 1.19242 1.19196 1.19222 1.1923 1.1923 1.19234 1.19187 1.1919 1.19186 1.19186 1.19171 1.19172 1.19174 1.19161 1.19189 1.19229 1.19334 1.19194 1.19177 1.19162 1.19208 1.1921 1.19197 1.19207 1.19206 1.19217 1.19175 1.19202 1.19182 1.19216 1.19235 1.19269 1.19233 1.19238 1.19232 1.19192 1.19177 1.19167 1.19211 1.19187 1.1917 1.192 1.19178 1.1919 1.19185 1.19178 1.19218 1.19156 1.19185 1.19193 1.1919 1.19208 1.19202 1.19199 1.19198 1.19146 1.19184 1.19181 1.19176 1.19177 1.19194 1.19197 1.1917 1.19187 1.19179 1.19201 1.192 1.19185 1.19188 1.19178 1.19172 1.19189 1.19183 1.19177 1.19185 1.19188 1.19194 1.19188 1.19187 1.19199 1.19185 1.19201 1.19165 1.19226 1.19182 1.1918 1.19186 1.19178 1.19171 1.19212 1.19188 1.19218 1.19225 1.19184 1.19193 1.19231 1.19187 1.19221 1.1929 1.19153 1.19162 1.19178 1.19165 1.1919 1.19222 1.19215 1.19169 1.19176 1.19171 1.19222 1.19172 1.192 1.19179 1.19205 1.1919 1.1923 1.19195 1.19208 1.19188 1.19204 1.19241 1.19208 1.19166 1.19212 1.19181 1.19206 1.19169 1.19199 1.19176 1.1917 1.19192 1.19178 1.19199 1.19176 1.19195 1.19217 1.19158 1.1918 1.19183 1.19178 1.19178 1.19174 1.19188 1.192 1.19196 1.19149 1.19197 1.19211 1.19174 1.19188 1.19213 1.19181 1.19177 1.19173 1.19168 1.19189 1.19193 1.19163 1.19209 1.19185 1.19196 1.19185 1.19184 1.19194 1.19186 1.19181 1.19186 1.19189 1.19178 1.1916 1.19187 1.19186 1.19182 1.19185 1.19192 1.19192 1.19185 1.19185 1.19198 1.19189 1.19168 1.19219 1.19176 1.19176 1.19187 1.19166 1.19195 1.19175 1.19192 1.19223 1.19185 1.192 1.19219 1.19228 1.19227 1.19186 1.1925 1.19242 1.19238 1.1925 1.1917 1.19243 1.19178 1.19169 1.19221 1.19138 1.19207 1.19197 1.19132 1.19178 1.19221 1.1922 1.19208 1.19216 1.19185 1.19197 1.19177 1.19178 1.19203 1.19181 1.19187 1.19227 1.19196 1.19193 1.19211 1.19199 1.19191 1.19202 1.1924 1.19224 1.19193 1.19204 1.19178 1.19194 1.19192 1.19184 1.19209 1.19191 1.19145 1.19154 1.19215 1.19214 1.19177 1.19217 1.19189 1.19178 1.19175 1.19148 1.19168 1.19181 1.19154 1.19166 1.19188 1.19178 1.19165 1.1918 1.19188 1.19186 1.19167 1.19175 1.19153 1.19219 1.19178 1.19185 1.19196 1.19172 1.19183 1.19169 1.19172 1.19192 1.19185 1.19181 1.19188 1.19192 1.19171 1.19159 1.19177 1.19178 1.19182 1.19183 1.19183 1.19197 1.19188 1.19198 1.19185 1.19185 1.19182 1.19216 1.19178 1.19246 1.19172 1.19222 1.19178 1.19211 1.19218 1.19219 1.19264 1.1919 1.19241 1.19241 1.19253 1.19232 1.19267 1.19185 1.19226 1.19237 1.19147 1.19207 1.19203 1.19206 1.19191 1.19133 1.19176 1.19214 1.19215 1.19196 1.19187 1.19199 1.19185 1.19178 1.19219 1.19214 1.19202 1.1919 1.19194 1.19192 1.19199 1.19205 1.19154 1.19187 1.19213 1.19194 1.19191 1.19206 1.19218 1.19197 1.19194 1.19176 1.19175 1.19178 1.19221 1.19195 1.19173 1.19156 1.19168 1.19164 1.1917 1.19149 1.19192 1.19151 1.19229 1.19174 1.19209 1.19178 1.19178 1.19179 1.19188 1.1917 1.19186 1.19202 1.19189 1.19194 1.19186 1.19152 1.19158 1.19192 1.1918 1.19181 1.19182 1.19171 1.19191 1.19184 1.19181 1.19191 1.1918 1.19179 1.19173 1.1917 1.19195 1.19155 1.19173 1.19179 1.1918 1.1918 1.19178 1.19171 1.19177 1.19187 1.19177 1.19178 1.19178 1.19181 1.1918 1.19187 1.19197 1.19178 1.19187 1.19177 1.19245 1.19126 1.19116 1.19227 1.19216 1.1919 1.19178 1.19199 1.19213 1.19275 1.19225 1.19228 1.19239 1.19238 1.1923 1.19194 1.19103 1.19238 1.19159 1.19146 1.19149 1.19199 1.1919 1.19095 1.19209 1.19173 1.19195 1.1919 1.19204 1.19179 1.19134 1.19089 1.19191 1.19152 1.1923 1.19202 1.19194 1.19193 1.19199 1.19179 1.1918 1.19209 1.19198 1.19194 1.19159 1.19222 1.19148 1.19154 1.19191 1.1915 1.1918 1.19211 1.19207 1.19173 1.19215 1.19231 1.19242 1.19194 1.19208 1.19165 1.1917 1.19174 1.19151 1.19169 1.192 1.19233 1.19175 1.19197 1.19174 1.19171 1.19169 1.19162 1.19175 1.19168 1.19187 1.19181 1.19202 1.19175 1.19182 1.192 1.19175 1.19168 1.19166 1.19188 1.19183 1.1918 1.1918 1.19174 1.19174 1.19203 1.19206 1.19179 1.19192 1.19192 1.19165 1.19168 1.19177 1.19184 1.19179 1.19185 1.19165 1.19177 1.19188 1.19202 1.19178 1.1917 1.19277 1.19171 1.19214 1.19211 1.19218 1.19213 1.19196 1.19242 1.19178 1.19258 1.19207 1.19217 1.19273 1.19237 1.19251 1.19231 1.19223 1.19224 1.19177 1.19239 1.191 1.19131 1.19178 1.19167 1.19189 1.19187 1.19166 1.19223 1.19168 1.19136 1.19159 1.19178 1.1919 1.19229 1.19171 1.1919 1.19154 1.19173 1.19169 1.19186 1.19186 1.19196 1.19172 1.19196 1.19118 1.19191 1.19178 1.19164 1.19178 1.19146 1.19158 1.19189 1.1915 1.19177 1.19207 1.19055 1.19194 1.19242 1.19167 1.19213 1.19155 1.19187 1.19197 1.19176 1.19204 1.192 1.19189 1.19166 1.19175 1.19173 1.19193 1.19167 1.19212 1.19186 1.19179 1.19174 1.19179 1.19192 1.19165 1.19161 1.19186 1.19178 1.19193 1.19181 1.19176 1.19178 1.19202 1.19201 1.19188 1.19177 1.19186 1.19166 1.1918 1.19182 1.19164 1.19174 1.19171 1.19189 1.19179 1.19149 1.192 1.19219 1.19235 1.1917 1.19282 1.19222 1.19248 1.19211 1.19203 1.19178 1.19178 1.19264 1.19271 1.19238 1.19213 1.19284 1.19186 1.19213 1.19199 1.19222 1.19099 1.19188 1.19159 1.19178 1.19204 1.19201 1.19184 1.1918 1.19201 1.19187 1.19174 1.19183 1.19171 1.19178 1.1917 1.19147 1.19174 1.19189 1.19175 1.19156 1.19167 1.19195 1.19117 1.1918 1.19183 1.19163 1.19174 1.19124 1.19175 1.19168 1.19144 1.19139 1.19162 1.19194 1.19099 1.19113 1.19113 1.19205 1.19191 1.1924 1.19163 1.19211 1.1916 1.1918 1.19182 1.19183 1.19149 1.1917 1.19155 1.19165 1.19171 1.19168 1.19171 1.19193 1.1917 1.19181 1.19153 1.1916 1.1921 1.19169 1.19158 1.19193 1.19168 1.1917 1.1917 1.19178 1.19188 1.1917 1.1917 1.19164 1.1916 1.19188 1.1918 1.1916 1.19167 1.1918 1.19188 1.19207 1.19194 1.19198 1.19189 1.19178 1.19173 1.19174 1.19167 1.1917 1.1919 1.19116 1.19162 1.19196 1.19246 1.19179 1.19157 1.19212 1.19259 1.19227 1.19194 1.19239 1.19261 1.19256 1.19182 1.19211 1.19243 1.19249 1.19346 1.1925 1.19107 1.19121 1.19192 1.1918 1.19215 1.19169 1.19176 1.19208 1.19257 1.19179 1.19162 1.1917 1.19171 1.19161 1.19188 1.19161 1.19173 1.19196 1.19172 1.19144 1.19178 1.19181 1.19172 1.19168 1.1914 1.19137 1.19193 1.19097 1.19103 1.19189 1.19168 1.19217 1.19208 1.19195 1.19159 1.19182 1.1918 1.19168 1.19178 1.19121 1.19144 1.19167 1.19158 1.19174 1.19177 1.19173 1.19196 1.19179 1.19181 1.19175 1.19167 1.19172 1.19187 1.19152 1.19152 1.19168 1.19174 1.19175 1.19186 1.19178 1.19166 1.19156 1.19142 1.19189 1.19181 1.19157 1.19157 1.19182 1.19195 1.19185 1.19192 1.19175 1.19169 1.19164 1.19164 1.19167 1.19204 1.19243 1.19274 1.19223 1.1913 1.19116 1.19193 1.19208 1.19174 1.19267 1.19222 1.19226 1.19225 1.19238 1.1923 1.19242 1.192 1.19191 1.19233 1.19183 1.19212 1.1929 1.19343 1.19248 1.19101 1.19225 1.19177 1.19221 1.19209 1.19145 1.19162 1.19268 1.19272 1.19181 1.19148 1.1914 1.19164 1.19167 1.19179 1.19183 1.19162 1.19184 1.19169 1.19171 1.19168 1.19196 1.19155 1.19149 1.19162 1.19139 1.19162 1.19144 1.19168 1.1917 1.19196 1.19187 1.19098 1.19175 1.19175 1.19168 1.19211 1.19181 1.1916 1.19183 1.19194 1.19177 1.19176 1.19117 1.19149 1.19173 1.19193 1.19169 1.19181 1.1918 1.19169 1.1918 1.19174 1.19171 1.19181 1.19175 1.19162 1.19147 1.1918 1.19185 1.19178 1.19158 1.19176 1.19181 1.19163 1.19164 1.19185 1.19197 1.19181 1.19208 1.19192 1.19161 1.19122 1.19164 1.19254 1.19218 1.19078 1.19152 1.19176 1.19266 1.19221 1.19181 1.19151 1.19167 1.19257 1.19251 1.19228 1.19267 1.19254 1.19229 1.19183 1.19158 1.19174 1.19168 1.19226 1.19215 1.19161 1.1929 1.19287 1.19118 1.19121 1.19248 1.19237 1.19203 1.19192 1.19086 1.19178 1.19083 1.1917 1.19158 1.19181 1.19165 1.19184 1.19207 1.19137 1.19136 1.1917 1.1916 1.19168 1.1917 1.19161 1.19145 1.19154 1.19155 1.19163 1.19149 1.19197 1.19159 1.19175 1.19171 1.19161 1.19141 1.1917 1.19173 1.19195 1.19144 1.19178 1.19157 1.1919 1.19205 1.19155 1.19178 1.1916 1.19188 1.19181 1.19182 1.19173 1.19122 1.19184 1.1912 1.1913 1.19142 1.19173 1.19178 1.19174 1.1917 1.19177 1.19159 1.1916 1.19182 1.1918 1.19176 1.19171 1.1918 1.19166 1.19177 1.19163 1.19178 1.19181 1.19167 1.19189 1.19179 1.19156 1.19178 1.1919 1.19162 1.19173 1.19159 1.19195 1.19223 1.19188 1.19198 1.19191 1.19219 1.1916 1.19179 1.19214 1.19251 1.19181 1.19245 1.1924 1.19196 1.19176 1.19205 1.19283 1.19221 1.19244 1.19246 1.19255 1.19178 1.19189 1.19141 1.19251 1.19222 1.19166 1.19269 1.19268 1.19181 1.19243 1.1924 1.19222 1.19183 1.19153 1.19161 1.19167 1.19198 1.19143 1.19153 1.19147 1.19168 1.19166 1.19168 1.1917 1.19167 1.19149 1.19145 1.19199 1.19159 1.19151 1.19171 1.19161 1.19145 1.19137 1.19142 1.19168 1.19144 1.19191 1.1915 1.19178 1.19156 1.19186 1.19202 1.19155 1.19131 1.1917 1.19159 1.19179 1.19181 1.19173 1.19173 1.19182 1.19132 1.19145 1.19136 1.19136 1.19173 1.1917 1.19177 1.19159 1.19181 1.19181 1.19179 1.19171 1.1918 1.19167 1.19161 1.19152 1.19148 1.19178 1.19178 1.19156 1.19175 1.19154 1.19159 1.19221 1.19189 1.19178 1.1916 1.19214 1.19201 1.19221 1.19131 1.19178 1.19218 1.19319 1.19164 1.19178 1.19239 1.19175 1.19188 1.19308 1.19139 1.19278 1.19218 1.19213 1.19234 1.19216 1.19219 1.19268 1.19215 1.19182 1.19266 1.19267 1.19177 1.19186 1.1918 1.19221 1.19266 1.19167 1.19167 1.19178 1.19156 1.19252 1.19163 1.19186 1.19141 1.19067 1.19159 1.19162 1.19122 1.19167 1.19178 1.19178 1.19178 1.1917 1.19176 1.19185 1.19143 1.19158 1.19144 1.1914 1.19163 1.19153 1.19183 1.19194 1.19184 1.1916 1.19143 1.19162 1.19118 1.19145 1.19145 1.19145 1.19157 1.19145 1.19185 1.192 1.19167 1.19158 1.19161 1.19178 1.19171 1.19177 1.19162 1.19179 1.19163 1.19134 1.19151 1.19137 1.19128 1.19133 1.19174 1.1918 1.19158 1.1918 1.19179 1.19169 1.19167 1.19172 1.19154 1.19158 1.19147 1.19157 1.19162 1.19178 1.19181 1.19167 1.19178 1.19164 1.19174 1.19153 1.19168 1.19248 1.19195 1.19144 1.19157 1.19202 1.19201 1.19203 1.19194 1.19151 1.19257 1.19332 1.19234 1.19228 1.19238 1.19198 1.19172 1.193 1.19127 1.19211 1.19212 1.19192 1.19239 1.19199 1.19221 1.19258 1.19182 1.19202 1.19178 1.19174 1.19273 1.19267 1.19174 1.19188 1.19207 1.1925 1.19167 1.19112 1.19183 1.19249 1.19173 1.19211 1.19124 1.19158 1.19178 1.19219 1.19163 1.19183 1.19187 1.19165 1.19145 1.19178 1.19158 1.19159 1.19142 1.19165 1.19155 1.19125 1.19178 1.19188 1.19168 1.19156 1.19175 1.1915 1.1916 1.19156 1.19169 1.19178 1.19179 1.19176 1.19179 1.19151 1.19185 1.19183 1.19121 1.19123 1.19138 1.19138 1.19178 1.19158 1.19156 1.19167 1.19183 1.19169 1.19167 1.19178 1.19178 1.19176 1.19169 1.19173 1.19168 1.19154 1.19154 1.1917 1.19167 1.19178 1.19178 1.19177 1.19179 1.19164 1.19151 1.19161 1.19173 1.19247 1.1919 1.19141 1.19199 1.19214 1.19196 1.19195 1.19174 1.1918 1.19304 1.19262 1.19176 1.1925 1.19211 1.19182 1.19297 1.1926 1.19183 1.19241 1.1918 1.19217 1.19191 1.19215 1.19244 1.1919 1.19196 1.19194 1.1911 1.19256 1.19178 1.19176 1.1921 1.19223 1.19132 1.19151 1.19207 1.19158 1.19166 1.19202 1.19204 1.1912 1.19129 1.19166 1.19121 1.19178 1.19167 1.19177 1.19182 1.19184 1.19163 1.19165 1.19136 1.19182 1.1915 1.19141 1.19162 1.19161 1.19144 1.19124 1.19123 1.1917 1.19164 1.19164 1.19155 1.19142 1.19172 1.19178 1.19156 1.1915 1.19154 1.19172 1.19172 1.19181 1.19173 1.19172 1.19181 1.19175 1.19128 1.19141 1.19167 1.19131 1.19168 1.19177 1.19175 1.19166 1.19178 1.19178 1.19176 1.1917 1.19178 1.19168 1.19178 1.19182 1.1918 1.19157 1.19157 1.19204 1.1921 1.19174 1.19178 1.1915 1.19155 1.19183 1.1918 1.19175 1.19187 1.1918 1.19162 1.19165 1.19175 1.1916 1.19139 1.192 1.19185 1.19194 1.1918 1.19192 1.19238 1.19257 1.19255 1.19313 1.1925 1.19172 1.19217 1.19155 1.1926 1.19214 1.19218 1.19179 1.19175 1.19187 1.19205 1.19219 1.19218 1.19184 1.19102 1.19256 1.19178 1.19185 1.1914 1.1915 1.19129 1.19143 1.19115 1.19107 1.19195 1.19197 1.19161 1.19202 1.19141 1.19129 1.19153 1.1917 1.19133 1.19169 1.19182 1.19164 1.19158 1.19157 1.19138 1.19142 1.19202 1.19178 1.19149 1.19157 1.1915 1.19178 1.19167 1.19151 1.192 1.19164 1.19178 1.19177 1.19138 1.19205 1.19164 1.19155 1.1914 1.1916 1.19154 1.19172 1.19178 1.19178 1.19173 1.19172 1.19177 1.19174 1.19175 1.19156 1.19166 1.19131 1.19129 1.19175 1.19166 1.19178 1.19176 1.1917 1.1917 1.19176 1.1918 1.1918 1.19183 1.19205 1.19172 1.19177 1.19163 1.19194 1.19174 1.19189 1.19181 1.19142 1.19184 1.19148 1.1916 1.19128 1.19197 1.19201 1.19206 1.19185 1.19146 1.19189 1.19224 1.19259 1.19232 1.19259 1.19254 1.19178 1.19159 1.19073 1.19171 1.19234 1.19369 1.19177 1.19222 1.19192 1.19179 1.19113 1.19264 1.19264 1.19172 1.19131 1.1915 1.19139 1.19138 1.19168 1.1919 1.19202 1.19144 1.19193 1.19134 1.19144 1.19173 1.19179 1.19166 1.19181 1.19159 1.19158 1.1913 1.19136 1.19143 1.19164 1.19169 1.19164 1.19145 1.19203 1.19176 1.1918 1.19142 1.19186 1.19162 1.19169 1.19163 1.19157 1.19187 1.19179 1.19136 1.19149 1.1915 1.19152 1.19179 1.19177 1.19178 1.19177 1.19174 1.19175 1.19172 1.19172 1.19178 1.19132 1.19167 1.19177 1.19178 1.19178 1.19178 1.19169 1.19168 1.19175 1.19174 1.19165 1.19162 1.19178 1.19182 1.19181 1.19178 1.19178 1.19187 1.19179 1.19172 1.19182 1.1914 1.19184 1.19147 1.19125 1.19193 1.19169 1.19184 1.19146 1.19186 1.1921 1.19242 1.19179 1.1925 1.1923 1.1918 1.1917 1.19087 1.19177 1.19161 1.19339 1.19078 1.19159 1.19166 1.19226 1.19177 1.1923 1.19137 1.19125 1.19235 1.19212 1.19126 1.19237 1.19146 1.19178 1.19104 1.19125 1.19158 1.19206 1.19196 1.19141 1.19183 1.19182 1.19114 1.19178 1.19184 1.19178 1.1916 1.19181 1.19164 1.19168 1.19164 1.19143 1.19161 1.19158 1.19161 1.19177 1.1916 1.19178 1.19163 1.19158 1.19171 1.19177 1.19161 1.19141 1.19151 1.19172 1.19173 1.19176 1.19178 1.19178 1.19178 1.19177 1.19174 1.19175 1.19178 1.19178 1.19178 1.19169 1.19169 1.19177 1.19178 1.19176 1.19177 1.19178 1.19169 1.19174 1.19174 1.19178 1.19175 1.1917 1.19175 1.19149 1.19149 1.19172 1.19187 1.19151 1.19147 1.1914 1.19121 1.19163 1.19132 1.19141 1.19124 1.19132 1.19153 1.1915 1.19193 1.1914 1.19172 1.19157 1.19198 1.19163 1.19268 1.19218 1.19241 1.19189 1.19102 1.19147 1.19243 1.19053 1.19185 1.19128 1.19247 1.19048 1.19087 1.19079 1.19186 1.1919 1.19127 1.19166 1.19137 1.1917 1.19179 1.19167 1.19148 1.1917 1.19142 1.19142 1.19149 1.19174 1.19181 1.19182 1.19157 1.19177 1.19187 1.1916 1.19166 1.1918 1.19165 1.19158 1.19161 1.19175 1.19171 1.19178 1.19177 1.19182 1.19163 1.19173 1.19161 1.19134 1.19158 1.19163 1.19151 1.19151 1.19172 1.19178 1.19178 1.19178 1.19177 1.19174 1.19175 1.19178 1.19178 1.19178 1.19169 1.19178 1.19178 1.19178 1.19178 1.19178 1.19178 1.19169 1.19173 1.19177 1.19176 1.19178 1.19179 1.19154 1.19175 1.19181 1.19153 1.19168 1.19179 1.19112 1.19163 1.19137 1.19091 1.19151 1.19141 1.19153 1.1919 1.19193 1.19292 1.19217 1.19133 1.19163 1.19158 1.19248 1.19156 1.19203 1.1912 1.19162 1.19112 1.19078 1.19139 1.19027 1.1902 1.19124 1.19224 1.19059 1.1909 1.19129 1.19159 1.19181 1.19177 1.1917 1.19139 1.19141 1.19156 1.19148 1.19135 1.19157 1.19182 1.19163 1.19181 1.19162 1.19159 1.19179 1.19176 1.19184 1.19155 1.19142 1.19153 1.19166 1.19171 1.19172 1.19172 1.19174 1.19175 1.19132 1.19162 1.19172 1.19172 1.19176 1.19174 1.19176 1.19166 1.19151 1.19148 1.19129 1.19055 1.19118 1.19107 1.19136 1.19117 1.19096 1.19146 1.1917 1.19202 1.19293 1.19195 1.19144 1.19104 1.19213 1.19222 1.1904 1.192 1.19081 1.19188 1.19173 1.19117 1.19165 1.1909 1.19137 1.19131 1.19159 1.19059 1.19139 1.19155 1.19178 1.19162 1.19161 1.19177 1.19172 1.1916 1.19162 1.19164 1.19134 1.19137 1.19158 1.19192 1.19092 1.19185 1.19153 1.19201 1.19141 1.19197 1.19213 1.19219 1.19234 1.19188 1.19197 1.19207 1.19201 1.19268 1.19142 1.19108 1.19152 1.19141 1.19061 1.19125 1.19132 1.19194 1.19125 1.19217 1.19164 1.19216 1.19114 1.19178 1.19223 1.19221 1.19204 1.19246 1.19174 1.19254 1.19168 1.19146 1.19113 1.19044 1.19178 1.19069 1.19155 1.19125 1.1919 1.19151 1.1923 1.19149 1.19092 1.19216 1.19162 1.19217 1.19216 1.19189 1.19227 1.19196 1.1909 1.19161 1.19178 1.19173 1.19097 1.19049 1.19057 1.19152 1.19178 1.19154 1.19088 1.19196 1.19115 1.19187 1.1915 1.19222 1.19217 1.19178 1.19233 1.19089 1.1916 1.19183 1.1912 1.1912 1.19064 1.19022 1.19107 1.19262 1.19178 1.19178 1.19178 1.19186 1.19152 1.1914 1.19204 1.19102 1.19177 1.19132 1.19219 1.19235 1.19143 1.19261 1.19175 1.19236 1.19163 1.19219 1.19014 1.19245 1.19203 1.19178 1.19178 1.19178 1.19178 1.19178 1.19178 1.19178 1.19178 1.19178 1.19178 1.19178 1.19178 1.19178 1.19178 1.19178 1.19178 1.19178 1.19176 1.19157 1.19155 1.1923 1.19119 1.1912 1.19113 1.19217 1.19336 1.19099 1.19265 1.19172 1.19121 1.19155 1.19185 1.19119 1.193 1.1921 1.19205 1.19215 1.19178 1.19178 1.19178 1.19178 1.19178 1.19178 1.19178 1.19178 1.19178 1.19178 1.19178 1.19178 1.19178 1.19178 1.19178 1.19178 1.19178 1.19178 1.19178 1.19178 1.19178 1.19178 1.19178 1.19178 1.19178 1.19178 1.19178 1.19178 1.19178 1.19178 1.19178 1.19168 1.19133 1.19141 1.19165 1.19285 1.19151 1.19106 1.19112 1.19405 1.19258 1.19143 1.19139 1.19176 1.19294 1.19087 1.19126 1.19171 1.19252 1.19247 1.19188 1.19226 1.19202 1.19203 1.19178 1.19178 1.19178 1.19178 1.19178 1.19178 1.19178 1.19178 1.19178 1.19178 1.19178 1.19178 1.19178 1.19178 1.19178 1.19178 1.19178 1.19178 1.19178 1.19178 1.19178 1.19178 1.19178 1.19178 1.19178 1.19178 1.19178 1.19178 1.19178 1.19178 1.19178 1.19178 1.19178 1.19178 1.19178 1.19178 1.19178 1.19178 1.19183 1.19209 1.19323 1.19134 1.19131 1.19095 1.19207 1.19196 1.19095 1.19117 1.19074 1.19242 1.19189 1.19076 1.19239 1.19069 1.19119 1.19151 1.19184 1.19255 1.19215 1.19186 1.19134 1.19379 1.19227 1.19169 1.19233 1.19179 1.19178 1.19178 1.19178 1.19178 1.19178 1.19178 1.19178 1.19178 1.19178 1.19178 1.19178 1.19178 1.19178 1.19178 1.19178 1.19178 1.19178 1.19178 1.19178 1.19178 1.19178 1.19178 1.19178 1.19178 1.19178 1.19178 1.19178 1.19178 1.19178 1.19178 1.19178 1.19178 1.19178 1.19178 1.19178 1.19178 1.19178 1.19178 1.19178 1.19178 1.19179 1.19182 1.19117 1.1924 1.1913 1.19155 1.19113 1.19193 1.19095 1.1912 1.19141 1.19251 1.19082 1.18981 1.19054 1.19141 1.19286 1.19347 1.19217 1.19131 1.19261 1.19177 1.19177 1.19178 1.19178 1.19178 1.19178 1.19178 1.19178 1.19178 1.19178 1.19178 1.19178 1.19178 1.19178 1.19178 1.19178 1.19178 1.19178 1.19178 1.19178 1.19178 1.19178 1.19178 1.19178 1.19178 1.19178 1.19178 1.19178 1.19178 1.19178 1.19178 1.19178 1.19178 1.19178 1.19178 1.19178 1.19178 1.19178 1.19178 1.19178 1.19178 1.19178 1.19178 1.19178 1.19178 1.19178 1.19173 1.19178 1.19175 1.19137 1.1906 1.19128 1.19092 1.19152 1.19191 1.1911 1.19144 1.19223 1.19182 1.19166 1.19115 1.19005 1.19178 1.19044 1.1923 1.19257 1.19224 1.19308 1.19252 1.19136 1.19086 1.19174 1.19189 1.19175 1.19178 1.19178 1.19178 1.19178 1.19178 1.19178 1.19178 1.19178 1.19178 1.19178 1.19178 1.19178 1.19178 1.19178 1.19178 1.19178 1.19178 1.19178 1.19178 1.19178 1.19178 1.19178 1.19178 1.19178 1.19178 1.19178 1.19178 1.19178 1.19178 1.19178 1.19178 1.19178 1.19178 1.19178 1.19178 1.19178 1.19178 1.19178 1.19178 1.19178 1.19178 1.19178 1.19178 1.19178 1.19178 1.19178 1.19178 1.19171 1.19171 1.1919 1.19419 1.19218 1.19133 1.19106 1.19224 1.19279 1.19172 1.19213 1.19251 1.19048 1.19069 1.19238 1.19256 1.19167 1.19205 1.19205 1.19143 1.19111 1.19142 1.19178 1.19178 1.19177 1.19178 1.19178 1.19178 1.19178 1.19178 1.19178 1.19178 1.19178 1.19178 1.19178 1.19178 1.19178 1.19178 1.19178 1.19178 1.19178 1.19178 1.19178 1.19178 1.19178 1.19178 1.19178 1.19178 1.19178 1.19178 1.19178 1.19178 1.19178 1.19178 1.19178 1.19178 1.19178 1.19178 1.19178 1.19178 1.19178 1.19178 1.19178 1.19178 1.19178 1.19178 1.19178 1.19178 1.19178 1.19178 1.19178 1.19178 1.19178 1.19073 1.19175 1.19178 1.19208 1.19211 1.18886 1.19178 1.19221 1.19205 1.19276 1.19258 1.19241 1.19355 1.1921 1.1925 1.19303 1.19439 1.19126 1.19047 1.19397 1.19199 1.19132 1.19104 1.19154 1.19049 1.19208 1.19253 1.19159 1.19178 1.19178 1.19178 1.19178 1.19178 1.19178 1.19178 1.19178 1.19178 1.19178 1.19178 1.19178 1.19178 1.19178 1.19178 1.19178 1.19178 1.19178 1.19178 1.19178 1.19178 1.19178 1.19178 1.19178 1.19178 1.19178 1.19178 1.19178 1.19178 1.19178 1.19178 1.19178 1.19178 1.19178 1.19178 1.19178 1.19178 1.19178 1.19178 1.19199 1.19156 1.19559 1.1894 1.19149 1.19218 1.19124 1.1914 1.19288 1.19253 1.19309 1.19373 1.1902 1.19317 1.19178 1.19178 1.19479 1.19323 1.19192 1.19178 1.19178 1.19178 1.19178 1.19178 1.19178 1.19178 1.19178 1.19178 1.19178 1.19178 1.19178 1.19178 1.19178 1.19178 1.19178 1.19178 1.19178 1.19178 1.19178 1.19178 1.19178 1.19178 1.19178 1.19178 1.19178 1.19178 1.19178 1.19178 1.19178 1.19178 1.19178 1.19178 1.19178 1.19178 1.19178 1.19178 1.19178 1.19178 1.19178 1.19178 1.19178 1.19178 1.19178 1.19178 1.19178 1.19178 1.19268 1.1923 1.19434 1.19664 1.19041 1.19295 1.19174 1.19182 1.1933 1.19233 1.19228 1.19223 1.19116 1.19067 1.19523 1.19439 1.19445 1.19183 1.19178 1.19178 1.19178 1.19178 1.19178 1.19178 1.19178 1.19178 1.19178 1.19178 1.19178 1.19178 1.19178 1.19178 1.19178 1.19178 1.19178 1.19178 1.19178 1.19178 1.19178 1.19178 1.19178 1.19178 1.19178 1.19178 1.19178 1.19178 1.19178 1.19178 1.19178 1.19178 1.19178 1.19178 1.19178 1.19178 1.19178 1.19127 1.19216 1.19474 1.19159 1.19191 1.19139 1.19292 1.19168 1.19272 1.19112 1.19307 1.19027 1.19124 1.19202 1.19001 1.19533 1.19487 1.1943 1.19477 1.19287 1.19427 1.19178 1.19178 1.19178 1.19178 1.19178 1.19178 1.19178 1.19178 1.19178 1.19178 1.19178 1.19077 1.19178 1.19178 1.19178 1.19178 1.19178 1.19178 1.19178 1.19178 1.19178 1.19178 1.19178 1.19178 1.19178 1.19178 1.19178 1.19178 1.19178 1.19178 1.19178 1.19178 1.19178 1.19178 1.19178 1.19178 1.19132 1.19228 1.19183 1.19395 1.19134 1.19226 1.19475 1.1927 1.19185 1.19188 1.19237 1.19087 1.19158 1.18956 1.19553 1.19598 1.19157 1.19423 1.19349 1.19396 1.19178 1.19178 1.19178 1.19178 1.19178 1.19178 1.2152 1.19066 1.19178 1.19178 1.19178 1.19178 1.19178 1.19178 1.19178 1.19178 1.19178 1.19178 1.2018 1.19178 1.19178 1.19178 1.19178 1.19178 1.19178 1.19178 1.19178 1.19178 1.19178 1.19178 1.19141 1.19227 1.19173 1.1925 1.1913 1.19254 1.19125 1.19253 1.19184 1.19112 1.19223 1.1917 1.19024 1.19705 1.19346 1.19467 1.19085 1.19396 1.19221 1.19409 1.19202 1.19543 1.19178 1.2522 1.20014 1.18399 1.18977 1.19178 1.19178 1.19178 1.19178 1.19178 1.17301 1.19178 1.19178 1.19178 1.19177 1.19178 1.19178 1.19178 1.19178 1.19178 1.19176 1.19168 1.19109 1.19248 1.191 1.19198 1.19221 1.19086 1.19228 1.19249 1.19032 1.19957 1.19038 1.1949 1.19008 1.18583 1.19114 1.19356 2.25137 1.1828 1.20597 1.17614 1.17614 1.20808 1.19178 1.19178 0.0453769 0.142632 0.112987 0.0095775 0.0480653 0.177092 1.19228 0.264936 1.4223 0.287453 0.224782 0.638876 2.08266 5.06908 1.38073 0.146695 1.19178 0.186727 0.367745 0.303452 0.25077 0.468327 0.486057 5.07484 2.28641 1.88577 0.707718 0.248072 0.0677351 0.106286 0.0786949 0.106729 0.110134 0.0818143 0.324798 0.136642 1.19178 1.19178 0.207718 0.132581 0.164064 0.139248 0.20817 0.25738 0.217199 0.0927367 0.0932487 0.0544834 0.0761951 0.270775 0.764649 0.454032 0.174651 0.202684 0.317761 0.0959291 0.0248003 0.0507118 1.19178 1.18795 1.19106 1.18905 1.19061 1.19094 1.19099 1.19212 1.1913 1.19083 1.19212 1.19006 1.20802 1.19188 1.20708 1.18894 1.18954 1.19437 1.17995 1.15136 1.14179 2.16439 0.528645 0.0822828 0.109508 0.451414 0.174003 0.0427876 0.272377 0.272523 0.264637 0.290309 0.317326 0.514296 0.576342 0.299147 1.17055 0.34166 0.406647 0.205231 0.540063 1.22454 1.19356 0.730023 0.999107 3.16825 1.55484 1.19178 0.447667 0.357928 0.21996 0.311699 0.222559 0.0648982 0.106533 0.155419 0.152439 0.122023 0.289514 0.294982 1.16843 0.309607 0.339068 0.401954 0.332942 1.24472 0.760759 0.751285 0.309591 0.070568 0.171192 0.254977 0.146177 0.0659254 0.0225765 0.188862 0.11014 0.172508 0.22106 0.11952 0.0968194 0.124258 0.0897617 0.183785 0.182341 0.072375 0.327256 0.424255 1.31124 1.21285 0.320624 0.864864 0.762458 0.732617 1.49662 0.774337 1.02279 0.65906 0.667683 0.313435 0.279072 0.360037 0.271116 0.250328 0.222177 0.807027 0.275256 0.268138 0.0335701 0.0989817 0.0469748 0.0708788 0.0630514 0.197779 0.17759 0.0961551 0.071912 0.256955 0.230999 0.151483 0.126323 0.0953038 0.19366 0.147941 0.285413 0.395614 0.214533 0.28008 0.0953602 0.265959 0.137659 0.0426558 0.349365 0.3128 0.182311 0.194876 0.259482 0.181984 0.115181 0.120029 0.0903341 0.126894 0.199784 0.151642 0.284577 0.365657 0.717951 0.422155 0.356537 0.178092 0.193046 0.153908 0.0255667 0.127278 0.0751435 0.0826422 0.0346802 0.0384603 1.19611 1.19038 1.19836 1.18975 1.18984 1.1921 1.18976 1.18953 1.18692 1.19055 1.19327 1.19032 1.20448 1.18918 1.18946 1.18122 1.19101 1.19175 1.20675 1.20791 1.70851 0.934386 0.999078 0.715512 0.666494 0.681617 0.508948 0.433002 0.432965 0.245314 0.178502 0.0993526 0.164274 0.272032 0.333081 0.222659 0.40338 0.402537 0.31251 0.0958541 0.434911 0.422266 0.565666 0.328792 0.214998 0.49437 1.10529 0.535979 2.40084 1.228 0.598743 1.09942 0.793173 0.277095 0.155187 0.0972612 0.297697 0.334235 0.163818 0.132065 0.126261 0.0216152 0.193992 0.0427067 0.221284 0.339494 0.197231 0.292977 0.275386 0.520737 1.00482 0.213174 0.365846 0.449646 0.115432 0.217864 0.0585283 0.13036 0.726262 0.716008 0.930998 0.739555 0.342123 0.345498 0.488593 0.201291 0.13678 0.110556 0.293062 0.295981 0.273308 0.256281 0.25864 0.328191 0.091362 0.0706542 0.052015 0.069486 0.206789 0.120436 0.247451 0.274163 0.279119 0.249473 0.415743 0.248239 0.746263 0.492499 0.118671 0.316565 0.598178 0.295526 0.330235 0.475987 0.585367 0.321294 0.715369 0.435394 0.360727 0.678105 0.50019 0.285837 0.212576 0.132698 0.187887 0.198854 0.211901 0.143134 0.226776 0.217013 0.154135 0.19686 0.157103 0.180683 0.16616 0.201971 0.13163 0.264696 0.312903 0.112131 0.125896 0.286521 0.691932 0.249811 0.279375 0.279239 0.0959568 0.205236 0.257932 0.0922001 0.18564 0.138353 0.115141 0.0880661 0.104326 0.129214 0.158604 0.11148 0.400071 0.104481 0.295221 0.13351 0.0952989 0.0542122 0.0903596 0.00734275 0.0244245 1.19523 1.21362 1.18942 1.19935 1.19227 1.1904 1.19154 1.18852 1.19163 1.19526 1.19087 1.18987 1.19005 1.1865 1.17545 1.19364 1.19295 1.19302 1.19285 0.632875 0.985399 0.595121 0.479098 0.324948 0.299005 0.300042 0.163459 0.243545 0.2475 0.165058 0.155724 0.145208 0.351085 0.493801 0.53335 0.166687 0.648145 0.484635 0.312876 0.29404 0.286048 0.325576 0.287606 0.385044 0.994312 0.635751 0.949096 0.751716 0.469068 0.488317 0.650944 0.137178 0.416532 0.264517 0.261575 0.220399 0.1619 0.191054 0.0160489 0.153229 0.203086 0.19622 0.258491 1.25008 0.645945 0.525652 0.434559 0.376043 0.136357 0.0922103 0.419858 0.528054 0.504461 0.302225 0.306751 0.347647 0.181682 0.220725 0.384962 0.268533 0.263891 0.199158 0.190393 0.326719 0.140284 0.126474 0.095867 0.128294 0.177731 0.171348 0.183127 0.215272 0.147271 0.206452 0.18634 0.358823 0.468717 0.472575 0.400319 0.36323 0.462015 0.374597 0.449153 0.328755 0.37395 0.256568 0.316848 0.0912294 0.137707 0.114391 0.202609 0.209589 0.0911843 0.194142 0.25576 0.210317 0.235877 0.214864 0.104019 0.200355 0.121999 0.175245 0.350923 0.456551 0.247806 0.192182 0.167914 0.189568 0.139249 0.167412 0.195022 0.20797 0.142432 0.189856 0.150396 0.112293 0.117503 0.146195 0.125598 0.119504 0.143568 0.148403 0.177813 0.195321 0.0608307 0.0709597 0.0366774 0.0611374 0.237085 1.1839 1.20279 1.2012 1.21787 1.19233 1.19178 1.19239 1.19067 1.19204 1.19178 1.19212 1.19958 1.19188 1.19014 1.1895 1.18367 1.17722 1.18931 1.18697 1.18896 1.1923 0.410019 0.481317 0.417808 0.281455 0.293484 0.363811 0.216202 0.230023 0.139866 0.159176 0.29924 1.25504 0.873009 1.02638 0.276795 0.327391 0.361153 0.133618 0.332364 0.153979 0.267362 0.256669 0.149149 0.243616 0.379622 0.402679 0.546312 0.384533 0.414175 0.0258523 0.10844 0.132325 0.134017 0.158146 0.171511 0.179114 0.0484071 0.135072 0.154544 0.178291 0.151186 0.243665 0.220683 0.164501 0.119968 0.178992 0.122293 0.161418 0.180639 0.329423 0.445141 0.336341 0.381367 0.350946 0.295959 0.235125 0.273002 0.171569 0.224799 0.257198 0.230597 0.205169 0.20501 0.224426 0.21004 0.102846 0.138797 0.144454 0.18339 0.155371 0.168477 0.143169 0.128817 0.0985351 0.169985 0.209095 0.2358 0.370313 0.448749 0.460134 0.417923 0.429458 0.355825 0.249091 0.158753 0.068822 0.19275 0.0544942 0.120397 0.240229 0.193266 0.38283 0.315103 0.0812946 0.2012 0.33309 0.305569 0.108021 0.00420695 0.332283 0.0503327 0.262284 0.328394 0.367632 0.255459 0.158159 0.153698 0.274941 0.204835 0.187537 0.198912 0.167643 0.12958 0.172956 0.14006 0.142363 0.160916 0.153818 0.14325 0.0786817 0.0427329 0.0570354 0.0125182 0.0831551 0.0656143 0.0652994 0.119787 1.11949 1.16554 1.18767 1.19515 1.19701 1.18691 1.19117 1.19204 1.19112 1.19297 1.18484 1.18873 1.19642 1.17977 1.19291 1.1902 1.19189 1.19142 1.18463 0.310959 0.397595 0.231102 0.289984 0.251477 0.299385 0.200743 0.193351 0.157344 0.168486 0.137936 0.095789 0.0528144 0.608841 0.387886 0.101318 0.328475 0.236083 0.200868 0.112484 0.159851 0.123135 0.202221 0.293704 0.243153 0.317979 0.280297 0.233922 0.261789 0.235144 0.255709 0.271671 0.317828 0.226655 0.167986 0.0746994 0.0943982 0.136268 0.173031 0.16248 0.140548 0.170369 0.149776 0.175553 0.17273 0.227943 0.181349 0.0651906 0.181728 0.120742 0.151682 0.216314 0.225576 0.331022 0.239318 0.234756 0.201766 0.236282 0.216655 0.193102 0.20001 0.18669 0.0864871 0.164156 0.126457 0.141872 0.114339 0.126555 0.209365 0.239122 0.32434 0.449967 0.351889 0.408499 0.392615 0.400301 0.280137 0.338387 0.21825 0.133891 0.239604 0.212488 0.194501 0.200041 0.437217 0.245657 0.934215 0.483975 0.912078 0.373382 0.512749 0.400417 0.157677 0.0634167 0.0933292 0.11571 0.31193 0.187932 0.237561 0.205044 0.19249 0.302847 0.278696 0.259654 0.216941 0.240505 0.219561 0.191588 0.216429 0.160662 0.130287 0.138624 0.103026 0.104546 0.0650784 0.0927825 0.056268 0.0113068 0.0367092 0.068818 1.19932 1.07889 1.18408 1.23423 1.22203 1.15702 1.18657 1.19234 1.18013 1.19135 1.18403 1.18818 1.19182 1.17989 1.19109 1.18781 1.20176 1.20904 1.19153 1.21732 0.203311 0.203779 0.227694 0.158409 0.175508 0.174968 0.176138 0.100605 0.181081 0.16338 0.234327 0.30376 0.3121 0.231796 0.208838 0.205365 0.229894 0.284443 0.276024 0.239444 0.216472 0.21353 0.201405 0.188641 0.174974 0.226447 0.237009 0.244925 0.13287 0.220387 0.0963224 0.183285 0.210582 0.204077 0.216629 0.197211 0.208938 0.188509 0.147176 0.19887 0.221274 0.215247 0.125463 0.0467032 0.081006 0.131083 0.135009 0.151766 0.141469 0.214491 0.228947 0.194914 0.219612 0.19612 0.223888 0.205773 0.221708 0.184929 0.204903 0.199802 0.185319 0.157109 0.163716 0.129667 0.139853 0.106252 0.120663 0.107345 0.135234 0.198929 0.219118 0.265997 0.281594 0.309578 0.36048 0.312492 0.295226 0.27194 0.298211 0.285309 0.296454 0.287538 0.280621 0.380981 0.338911 0.236979 0.528002 0.597175 0.179616 0.196972 0.0837885 0.0373054 0.105861 0.0930107 0.149939 0.245085 0.172025 0.188029 0.212577 0.233743 0.215229 0.352492 0.334738 0.247864 0.243527 0.23525 0.268411 0.178123 0.145695 0.152697 0.137415 0.127221 0.0853978 0.0773841 0.0115723 0.0413057 0.059629 0.0778046 1.01365 0.155449 0.161486 0.165071 0.148771 0.138909 0.140902 0.152713 0.127523 0.21345 0.130072 0.166104 0.267177 0.287988 0.294397 0.233733 0.266287 0.304464 0.299866 0.272403 0.244793 0.221121 0.214268 0.269235 0.256441 0.277076 0.229408 0.206076 0.23333 0.219396 0.23508 0.214926 0.228913 0.186953 0.297986 0.136108 0.137653 0.118534 0.152793 0.151136 0.168995 0.159999 0.146123 0.17669 0.187741 0.217044 0.176458 0.189573 0.193738 0.190715 0.148655 0.152205 0.11611 0.102856 0.121203 0.129766 0.176036 0.160208 0.218357 0.184069 0.236081 0.243795 0.253427 0.297458 0.252721 0.253321 0.244583 0.274064 0.305855 0.330453 0.278862 0.506617 0.194283 0.360231 0.447253 0.511223 0.540989 0.237141 0.390973 0.169696 0.154429 0.132352 0.131279 0.165575 0.195581 0.204049 0.210965 0.235998 0.227815 0.310155 0.299392 0.267592 0.316545 0.342485 0.393652 0.214767 0.197082 0.126865 0.153953 0.0958643 0.0970902 0.0767507 0.0658425 0.0540267 0.0528702 0.0339735 0.144577 0.141736 0.132427 0.139565 0.105946 0.116877 0.117943 0.0973512 0.135246 0.153083 0.184609 0.246673 0.317475 0.325901 0.257887 0.259397 0.271614 0.26566 0.318177 0.300555 0.27553 0.263051 0.300113 0.268724 0.293008 0.229659 0.236198 0.311571 0.264985 0.255507 0.231987 0.293123 0.240223 0.224989 0.225896 0.202499 0.202829 0.204699 0.0860303 0.171287 0.11924 0.139015 0.166215 0.1529 0.165882 0.115322 0.127351 0.0951748 0.146708 0.147262 0.216471 0.176474 0.177706 0.171312 0.191235 0.193244 0.183798 0.180307 0.165153 0.0861382 0.121578 0.114846 0.125424 0.147255 0.128149 0.123987 0.162709 0.179382 0.188372 0.201734 0.216617 0.22052 0.208724 0.223088 0.198514 0.199114 0.209688 0.21835 0.242416 0.244161 0.230274 0.282165 0.291584 0.384572 0.40692 0.341173 0.221265 0.177983 0.229683 0.1872 0.174812 0.173279 0.187883 0.211734 0.210351 0.225423 0.259095 0.306675 0.300142 0.285781 0.342086 0.369961 0.232987 0.228348 0.20352 0.128758 0.16028 0.0973006 0.0750957 0.0650543 0.0607337 0.0272378 0.0313411 0.0235589 0.0290133 0.156557 0.132347 0.157815 0.138606 0.123297 0.104561 0.137791 0.0848959 0.182016 0.239291 0.25978 0.292963 0.261363 0.253833 0.250675 0.264571 0.269736 0.348508 0.289371 0.320007 0.283537 0.271985 0.238677 0.236728 0.277478 0.188078 0.250651 0.255804 0.281601 0.242413 0.217852 0.19758 0.188214 0.175644 0.132245 0.126814 0.142014 0.151443 0.135017 0.154898 0.10506 0.0725458 0.102157 0.0992803 0.122526 0.121358 0.160256 0.135891 0.159227 0.181091 0.18744 0.183793 0.171756 0.164469 0.103342 0.121945 0.145273 0.160176 0.176118 0.16556 0.167583 0.180209 0.195259 0.191295 0.208676 0.204455 0.195166 0.186462 0.17669 0.202961 0.17486 0.225999 0.245799 0.186401 0.280869 0.172529 0.255796 0.341072 0.359189 0.291403 0.210198 0.207008 0.211986 0.198343 0.191575 0.187375 0.133475 0.196463 0.231345 0.291863 0.325651 0.336312 0.354878 0.334481 0.306582 0.243727 0.210488 0.216198 0.152698 0.129628 0.116744 0.0968713 0.0553204 0.0760633 0.0338729 0.0270193 0.172371 0.12252 0.108099 0.11487 0.113829 0.159284 0.211035 0.251883 0.222072 0.264492 0.278126 0.253859 0.25073 0.263441 0.279247 0.271701 0.313701 0.27633 0.296479 0.280368 0.267107 0.249955 0.227422 0.195081 0.157317 0.224486 0.238171 0.225382 0.252137 0.227676 0.202803 0.177082 0.160123 0.152049 0.142208 0.152852 0.162589 0.144157 0.142138 0.152393 0.106613 0.0470175 0.0748836 0.108923 0.133738 0.157337 0.145411 0.172365 0.174899 0.169884 0.151088 0.123499 0.136258 0.131812 0.155705 0.168897 0.157552 0.173803 0.174744 0.188619 0.195959 0.209325 0.183976 0.172408 0.127922 0.13414 0.17649 0.17006 0.322813 0.306256 0.296389 0.300957 0.244235 0.226136 0.197938 0.212288 0.215742 0.207442 0.185348 0.178585 0.19373 0.216228 0.215598 0.208141 0.209848 0.2034 0.238207 0.328723 0.333435 0.339274 0.243236 0.209097 0.157988 0.137921 0.119698 0.118415 0.0627828 0.0457971 0.00834557 0.171015 0.142521 0.107651 0.140503 0.168009 0.202147 0.226357 0.255943 0.263853 0.272022 0.246201 0.242701 0.257189 0.25128 0.305895 0.287292 0.253405 0.22071 0.192595 0.157518 0.198403 0.0992425 0.184101 0.224269 0.213403 0.198206 0.203446 0.173552 0.160364 0.160372 0.162237 0.165938 0.173899 0.163825 0.146406 0.147715 0.0561862 0.0876257 0.146404 0.157109 0.151265 0.170864 0.166935 0.154667 0.152288 0.145549 0.129963 0.146822 0.150171 0.164066 0.179884 0.178277 0.198854 0.20875 0.202456 0.204868 0.166339 0.18407 0.156405 0.107556 0.128683 0.138521 0.15427 0.266316 0.380333 0.314288 0.234631 0.277741 0.203759 0.171449 0.218023 0.191274 0.195304 0.213964 0.210346 0.212547 0.210154 0.221981 0.215605 0.243202 0.266819 0.355829 0.310735 0.261876 0.238379 0.185584 0.159026 0.158992 0.157108 0.139008 0.18125 0.177394 0.168228 0.156234 0.0828604 0.148359 0.178763 0.219668 0.252806 0.262838 0.261896 0.251538 0.241945 0.239331 0.231509 0.28639 0.245928 0.188634 0.150755 0.130493 0.217928 0.142456 0.20212 0.190271 0.202745 0.163034 0.16895 0.162466 0.175034 0.176842 0.1691 0.18187 0.142608 0.160207 0.136704 0.122498 0.165017 0.142893 0.141792 0.168526 0.169447 0.150878 0.140517 0.150551 0.173675 0.1534 0.168563 0.198474 0.179754 0.17579 0.163473 0.179131 0.194932 0.159154 0.179473 0.170564 0.266179 0.360167 0.251895 0.289427 0.278832 0.217138 0.194165 0.224708 0.218 0.296309 0.210204 0.209537 0.198217 0.201073 0.243651 0.264001 0.296025 0.277258 0.0881627 0.371924 0.293896 0.26904 0.180056 0.226088 0.182604 0.174716 0.145093 0.204369 0.185012 0.179083 0.170277 0.174892 0.218073 0.240309 0.240295 0.261944 0.25541 0.259683 0.258181 0.237204 0.233641 0.219648 0.302291 0.266346 0.233036 0.22194 0.178501 0.271583 0.195837 0.20186 0.174077 0.140335 0.214233 0.206224 0.186791 0.161605 0.194524 0.178581 0.180004 0.214973 0.273144 0.207668 0.190277 0.143463 0.135343 0.165883 0.12117 0.138895 0.148819 0.143949 0.151968 0.166316 0.248677 0.38963 0.219561 
SCALARS Stress float 1
LOOKUP_TABLE default
-12590200000.0 -12576900000.0 -12621200000.0 -12678800000.0 -12565600000.0 -12622700000.0 -12597200000.0 -12578200000.0 -12572800000.0 -12587800000.0 -12617500000.0 -12562600000.0 -12555400000.0 -12566000000.0 -12649100000.0 -12621100000.0 -12581900000.0 -12747300000.0 -12789600000.0 -12821400000.0 -12789400000.0 -12720200000.0 -12583700000.0 -12581600000.0 -12629200000.0 -12566000000.0 -12561800000.0 -12843400000.0 -12794200000.0 -12651600000.0 -12551800000.0 -12613400000.0 -12563800000.0 -12586900000.0 -12928800000.0 -13068200000.0 -13194800000.0 -12549700000.0 -13621900000.0 -12639800000.0 -12636000000.0 -12561200000.0 -12577800000.0 -12643900000.0 -12549700000.0 -12549700000.0 -12549700000.0 -12571400000.0 -12549700000.0 -12549700000.0 -12553000000.0 -12567600000.0 -12549700000.0 -12553200000.0 -12561100000.0 -12601700000.0 -12625600000.0 -12742000000.0 -12594200000.0 -12579800000.0 -12569500000.0 -12560400000.0 -12552100000.0 -12549700000.0 -12549700000.0 -12549700000.0 -12560200000.0 -12623300000.0 -12572700000.0 -12581000000.0 -12719400000.0 -12835700000.0 -12803200000.0 -12645600000.0 -12558100000.0 -12616400000.0 -12550500000.0 -12571600000.0 -12625600000.0 -12551600000.0 -12646600000.0 -12551100000.0 -12552700000.0 -12579200000.0 -12815100000.0 -12664300000.0 -12654200000.0 -12636400000.0 -12585300000.0 -12640600000.0 -12557600000.0 -12642000000.0 -12709700000.0 -12627300000.0 -12658300000.0 -12897800000.0 -12553500000.0 -12553700000.0 -12561600000.0 -12588600000.0 -12581900000.0 -12571600000.0 -12699000000.0 -12611900000.0 -12578800000.0 -12575600000.0 -12569000000.0 -12566300000.0 -12639000000.0 -12604700000.0 -12589700000.0 -12684000000.0 -12800600000.0 -12986200000.0 -12845500000.0 -12854400000.0 -12843800000.0 -13139900000.0 -12644800000.0 -12787200000.0 -13303800000.0 -12566200000.0 -12737600000.0 -12715700000.0 -12549700000.0 -12686100000.0 -12554900000.0 -12825500000.0 -12549700000.0 -12609900000.0 -12562000000.0 -12595100000.0 -12651900000.0 -12634000000.0 -13376900000.0 -12796400000.0 -12792600000.0 -13007200000.0 -12711200000.0 -13004600000.0 -12691300000.0 -13142800000.0 -13755700000.0 -13421800000.0 -13440600000.0 -13464000000.0 -13446200000.0 -13350300000.0 -12696200000.0 -12648500000.0 -12984000000.0 -12549700000.0 -12606500000.0 -12552700000.0 -12549700000.0 -12630900000.0 -12549700000.0 -12549700000.0 -12549700000.0 -12591200000.0 -12675300000.0 -12549700000.0 -12800400000.0 -12549700000.0 -12549700000.0 -12549700000.0 -12595000000.0 -12557800000.0 -12551100000.0 -12549700000.0 -12552500000.0 -12620200000.0 -12564300000.0 -12604300000.0 -12731200000.0 -12713400000.0 -13108600000.0 -12973300000.0 -12576600000.0 -12674800000.0 -12906700000.0 -12641400000.0 -12800100000.0 -12574000000.0 -12622500000.0 -12664500000.0 -12933400000.0 -12579100000.0 -12677400000.0 -12707600000.0 -12662600000.0 -12977800000.0 -12634600000.0 -12653200000.0 -12558400000.0 -12848000000.0 -13547600000.0 -12770300000.0 -12550300000.0 -12549700000.0 -12576600000.0 -12849000000.0 -12936200000.0 -12816100000.0 -12612600000.0 -12549700000.0 -12843000000.0 -12622100000.0 -12809100000.0 -12549700000.0 -12549700000.0 -13068300000.0 -12582800000.0 -12948300000.0 -13076400000.0 -12555000000.0 -12940500000.0 -12911000000.0 -12641000000.0 -13074400000.0 -12576100000.0 -14575300000.0 -12797000000.0 -12636800000.0 -12590200000.0 -12617400000.0 -12557300000.0 -13533800000.0 -12644500000.0 -12962100000.0 -12603500000.0 -13000900000.0 -13303800000.0 -12555800000.0 -12964100000.0 -12877000000.0 -12715200000.0 -13468400000.0 -12836600000.0 -12786400000.0 -12847900000.0 -13084800000.0 -13039300000.0 -12549700000.0 -14054600000.0 -12633600000.0 -13033900000.0 -13963400000.0 -13136900000.0 -12580000000.0 -13416900000.0 -13338900000.0 -12829200000.0 -12971200000.0 -12818600000.0 -12836300000.0 -12772200000.0 -12873600000.0 -12579900000.0 -12718900000.0 -12550000000.0 -12806400000.0 -12552100000.0 -12588500000.0 -12549700000.0 -12549700000.0 -12993200000.0 -12556600000.0 -12577200000.0 -12660100000.0 -12549700000.0 -12635600000.0 -12606500000.0 -12593800000.0 -12600500000.0 -12655500000.0 -12742000000.0 -12559700000.0 -12655700000.0 -12943000000.0 -12872700000.0 -12656100000.0 -13105200000.0 -12895600000.0 -12789700000.0 -13408800000.0 -13688800000.0 -12551800000.0 -12563900000.0 -12549700000.0 -13243100000.0 -12966100000.0 -13534400000.0 -12593900000.0 -12597200000.0 -12623300000.0 -12564600000.0 -12984200000.0 -12843300000.0 -13043900000.0 -12589900000.0 -12670600000.0 -13300700000.0 -12735100000.0 -12733800000.0 -12699100000.0 -12788500000.0 -13684700000.0 -13368900000.0 -13415200000.0 -13069200000.0 -13408100000.0 -13589600000.0 -12961500000.0 -13296300000.0 -13093000000.0 -12962300000.0 -12908000000.0 -13151300000.0 -14458000000.0 -14129100000.0 -15070200000.0 -12698000000.0 -14225800000.0 -12612900000.0 -13455900000.0 -13069500000.0 -13343300000.0 -13021000000.0 -12866400000.0 -12728800000.0 -13668300000.0 -12572100000.0 -12692800000.0 -12600000000.0 -13719800000.0 -13829000000.0 -12636800000.0 -13104500000.0 -13038800000.0 -13029600000.0 -12595500000.0 -13069600000.0 -12549700000.0 -12733900000.0 -13535500000.0 -14878800000.0 -12971300000.0 -12970900000.0 -12724200000.0 -13578700000.0 -13602200000.0 -12674900000.0 -13237200000.0 -12549700000.0 -12647300000.0 -12636700000.0 -13161100000.0 -12732900000.0 -12753400000.0 -12684700000.0 -12863300000.0 -12687700000.0 -12634800000.0 -12731900000.0 -12655900000.0 -12685600000.0 -12939200000.0 -12766900000.0 -13030000000.0 -12807300000.0 -12695900000.0 -12549700000.0 -12724700000.0 -12556700000.0 -12574400000.0 -12586800000.0 -12582500000.0 -12623100000.0 -12823700000.0 -13036100000.0 -12924100000.0 -12744100000.0 -12799100000.0 -13535600000.0 -13373200000.0 -13508200000.0 -13379700000.0 -12663500000.0 -12694400000.0 -13689300000.0 -13075700000.0 -12663000000.0 -12948700000.0 -12686500000.0 -14495000000.0 -12808300000.0 -12576900000.0 -13312400000.0 -12575100000.0 -13475900000.0 -13405800000.0 -12694300000.0 -14522400000.0 -12712200000.0 -13143200000.0 -12719400000.0 -13630100000.0 -12549700000.0 -12549700000.0 -12549700000.0 -13361300000.0 -13579700000.0 -14960700000.0 -12661000000.0 -13216500000.0 -13740200000.0 -14110800000.0 -13986400000.0 -13918900000.0 -14451000000.0 -14038400000.0 -12830100000.0 -13774800000.0 -14792000000.0 -12723200000.0 -13372600000.0 -14646200000.0 -15104700000.0 -15183600000.0 -12574100000.0 -13555900000.0 -14540100000.0 -13539600000.0 -12607400000.0 -13842200000.0 -12592500000.0 -13724700000.0 -15081700000.0 -14923200000.0 -12906700000.0 -13385900000.0 -13742000000.0 -12637900000.0 -14340600000.0 -12917700000.0 -12611800000.0 -12925200000.0 -12597800000.0 -14594900000.0 -15078000000.0 -14322200000.0 -12697000000.0 -13198400000.0 -13986100000.0 -13142500000.0 -13580200000.0 -12651700000.0 -13369600000.0 -12973000000.0 -12624100000.0 -13165100000.0 -13864500000.0 -13790500000.0 -12561200000.0 -13783300000.0 -12840800000.0 -12556600000.0 -12910000000.0 -13875800000.0 -13851200000.0 -14224800000.0 -12670500000.0 -13521700000.0 -12718600000.0 -13222600000.0 -13478200000.0 -12816100000.0 -12642900000.0 -12573900000.0 -13690100000.0 -14372500000.0 -13913700000.0 -13155200000.0 -13276600000.0 -12732600000.0 -12560100000.0 -12729400000.0 -13353100000.0 -13506000000.0 -13284300000.0 -13434200000.0 -14319900000.0 -12765800000.0 -12677200000.0 -14643900000.0 -14030500000.0 -14965400000.0 -13071300000.0 -12951500000.0 -13143300000.0 -12797200000.0 -13936700000.0 -14191300000.0 -12549700000.0 -13539800000.0 -12568800000.0 -12629000000.0 -14730500000.0 -12588700000.0 -14871300000.0 -13649400000.0 -12630100000.0 -12830700000.0 -14011300000.0 -14131400000.0 -13582900000.0 -14276200000.0 -14331100000.0 -14503000000.0 -14858000000.0 -12869400000.0 -13897300000.0 -13739300000.0 -13809200000.0 -14021700000.0 -14557700000.0 -12555400000.0 -13630500000.0 -15140500000.0 -14683800000.0 -13167200000.0 -15176900000.0 -13808600000.0 -13856000000.0 -14141400000.0 -13182600000.0 -12833500000.0 -12572300000.0 -14251700000.0 -13518800000.0 -13765900000.0 -13238200000.0 -13394500000.0 -16593000000.0 -12549700000.0 -14615600000.0 -15150800000.0 -15246600000.0 -13900700000.0 -13754000000.0 -13846400000.0 -14052000000.0 -12994400000.0 -13111200000.0 -12646600000.0 -12737800000.0 -12712600000.0 -14080100000.0 -12996100000.0 -13871900000.0 -12575700000.0 -13694900000.0 -13102200000.0 -13536800000.0 -13064500000.0 -14232000000.0 -13400300000.0 -12684700000.0 -13007300000.0 -14011200000.0 -12558200000.0 -13447600000.0 -13522100000.0 -13288700000.0 -13678600000.0 -12551700000.0 -14357300000.0 -12667000000.0 -13240400000.0 -13429000000.0 -15014800000.0 -12765900000.0 -12661100000.0 -12924300000.0 -13153300000.0 -13270900000.0 -12641000000.0 -12561300000.0 -12916200000.0 -12739900000.0 -13067200000.0 -14560500000.0 -14499400000.0 -12654200000.0 -15933700000.0 -14910600000.0 -13802000000.0 -14284500000.0 -15574900000.0 -13318200000.0 -14143700000.0 -13979800000.0 -13470100000.0 -12739600000.0 -13628600000.0 -13996600000.0 -14376400000.0 -12576900000.0 -17367300000.0 -12950500000.0 -14713800000.0 -14259600000.0 -13377700000.0 -13384400000.0 -16110200000.0 -13131500000.0 -16978100000.0 -13180600000.0 -17571800000.0 -13182200000.0 -13243000000.0 -12665500000.0 -17743300000.0 -13992900000.0 -15011100000.0 -14715300000.0 -16592100000.0 -16592700000.0 -13639500000.0 -13042900000.0 -13540900000.0 -14197700000.0 -14435200000.0 -13349100000.0 -13540800000.0 -12549700000.0 -13555800000.0 -12886600000.0 -12780300000.0 -14852300000.0 -13606200000.0 -13735600000.0 -19181000000.0 -14026400000.0 -17160700000.0 -14086300000.0 -15861200000.0 -14986400000.0 -12781500000.0 -13195900000.0 -14490400000.0 -14668100000.0 -12553000000.0 -13749300000.0 -12803700000.0 -12872700000.0 -13695800000.0 -13154200000.0 -12601200000.0 -13336000000.0 -13271900000.0 -13495600000.0 -13680200000.0 -12555700000.0 -13058100000.0 -14142800000.0 -13883300000.0 -13540700000.0 -13989900000.0 -13056700000.0 -12845100000.0 -12835100000.0 -12998300000.0 -12613500000.0 -13133800000.0 -12895200000.0 -13437900000.0 -13852600000.0 -13793500000.0 -13213500000.0 -13471900000.0 -13521100000.0 -12698700000.0 -12899700000.0 -13592700000.0 -13283700000.0 -13648300000.0 -13674000000.0 -16251200000.0 -14304600000.0 -13735700000.0 -12789900000.0 -13583000000.0 -13288500000.0 -12549700000.0 -13031500000.0 -12856700000.0 -16293400000.0 -13205000000.0 -13433000000.0 -13318200000.0 -15788100000.0 -16091500000.0 -12578100000.0 -16104500000.0 -15676400000.0 -15416700000.0 -16413300000.0 -16803400000.0 -16659900000.0 -17857500000.0 -16500300000.0 -15313300000.0 -14848400000.0 -18502200000.0 -12861000000.0 -14325000000.0 -13473500000.0 -13851800000.0 -13594300000.0 -14078000000.0 -13202300000.0 -12701500000.0 -13757900000.0 -12549700000.0 -14760700000.0 -12643500000.0 -12645500000.0 -12706600000.0 -12577300000.0 -12562400000.0 -13398400000.0 -12549700000.0 -12549700000.0 -18715400000.0 -18864400000.0 -18554600000.0 -14036500000.0 -15957100000.0 -12860400000.0 -15277700000.0 -15818000000.0 -15669400000.0 -15543300000.0 -16001900000.0 -13875700000.0 -13883800000.0 -14497400000.0 -14139200000.0 -12636700000.0 -14047300000.0 -13304100000.0 -12800000000.0 -13220500000.0 -13684800000.0 -12803900000.0 -13330600000.0 -12700600000.0 -13406800000.0 -12993700000.0 -12867100000.0 -12622600000.0 -12726100000.0 -13547100000.0 -14531100000.0 -14713700000.0 -13760500000.0 -12953400000.0 -14175800000.0 -12921200000.0 -12979900000.0 -13323600000.0 -12987700000.0 -12739000000.0 -14758600000.0 -12830300000.0 -13023400000.0 -12894400000.0 -12974300000.0 -15172400000.0 -12775400000.0 -14470200000.0 -15106200000.0 -16791200000.0 -15495800000.0 -16381600000.0 -15607700000.0 -17228200000.0 -15942300000.0 -13042700000.0 -15876700000.0 -13425100000.0 -12662800000.0 -13289900000.0 -12783100000.0 -12549700000.0 -14711800000.0 -17566100000.0 -15490100000.0 -12645600000.0 -13527600000.0 -13856100000.0 -12549700000.0 -14047300000.0 -13510100000.0 -13524500000.0 -14473900000.0 -13908800000.0 -14524200000.0 -13406400000.0 -13645000000.0 -13642800000.0 -14944300000.0 -14117800000.0 -16291500000.0 -13761800000.0 -13635800000.0 -13757700000.0 -15212800000.0 -13762500000.0 -15222000000.0 -13981000000.0 -14445000000.0 -12904300000.0 -19565200000.0 -12549700000.0 -15158000000.0 -13408600000.0 -12565200000.0 -14494200000.0 -13383000000.0 -13502700000.0 -14063400000.0 -15194100000.0 -14809000000.0 -12553600000.0 -12999900000.0 -13665800000.0 -12549700000.0 -14259000000.0 -16311700000.0 -17404500000.0 -17606700000.0 -13281500000.0 -12822000000.0 -12996000000.0 -12549700000.0 -13617900000.0 -13946500000.0 -12576900000.0 -12565200000.0 -13696100000.0 -12701400000.0 -12941500000.0 -12793200000.0 -12549700000.0 -13286200000.0 -13285600000.0 -12599800000.0 -13616700000.0 -13289000000.0 -13489200000.0 -13286000000.0 -12893000000.0 -12988400000.0 -13689600000.0 -13310300000.0 -13659800000.0 -13546600000.0 -14008100000.0 -12550600000.0 -13876400000.0 -14690900000.0 -13659800000.0 -13806500000.0 -14772900000.0 -15332900000.0 -15158400000.0 -12572300000.0 -14414800000.0 -14865900000.0 -14810100000.0 -12689500000.0 -15334400000.0 -14525500000.0 -12549700000.0 -14623600000.0 -14558800000.0 -16398500000.0 -12683700000.0 -12789200000.0 -14304000000.0 -15845300000.0 -17028000000.0 -15944700000.0 -15158500000.0 -12776000000.0 -14622900000.0 -13541400000.0 -13988400000.0 -15138700000.0 -15425800000.0 -13174100000.0 -13005400000.0 -13160100000.0 -12566900000.0 -14452300000.0 -16042500000.0 -15123500000.0 -17898700000.0 -14457400000.0 -13190800000.0 -12549700000.0 -15401200000.0 -17914200000.0 -14822800000.0 -17314600000.0 -17564700000.0 -13516000000.0 -14162100000.0 -15050700000.0 -14231200000.0 -20798500000.0 -15190900000.0 -15010600000.0 -13913000000.0 -12653900000.0 -13899200000.0 -15025800000.0 -14993100000.0 -12573500000.0 -13549700000.0 -13899500000.0 -14011700000.0 -12776900000.0 -12933600000.0 -13385400000.0 -13491600000.0 -12585700000.0 -16674000000.0 -12825600000.0 -14990800000.0 -12633700000.0 -12586100000.0 -12633800000.0 -13139100000.0 -15754800000.0 -12549700000.0 -13344300000.0 -12744300000.0 -12865900000.0 -12828700000.0 -13199200000.0 -12702600000.0 -13400900000.0 -12954200000.0 -12601900000.0 -12944300000.0 -13383700000.0 -12830200000.0 -13488500000.0 -14301800000.0 -12585000000.0 -13442000000.0 -13094300000.0 -13428700000.0 -13191500000.0 -12555300000.0 -12564200000.0 -12665900000.0 -12832000000.0 -12583200000.0 -12781200000.0 -12646300000.0 -12553900000.0 -14592800000.0 -14118900000.0 -12551200000.0 -14135200000.0 -12666500000.0 -13903600000.0 -12568600000.0 -12549700000.0 -12550900000.0 -12595500000.0 -13478300000.0 -13491900000.0 -14117000000.0 -12549700000.0 -12675600000.0 -12552100000.0 -13212800000.0 -13918600000.0 -13618400000.0 -13953600000.0 -13273200000.0 -16467500000.0 -12549700000.0 -14476700000.0 -14781700000.0 -12988100000.0 -16181000000.0 -18234000000.0 -14334100000.0 -18053500000.0 -13346500000.0 -15651200000.0 -14225500000.0 -14505500000.0 -12840500000.0 -14296100000.0 -12732200000.0 -17221600000.0 -14441900000.0 -13500400000.0 -13796900000.0 -15516600000.0 -19021400000.0 -14337800000.0 -17698800000.0 -17523300000.0 -12830600000.0 -17197900000.0 -15396000000.0 -14484200000.0 -13149100000.0 -18700200000.0 -18543400000.0 -12935400000.0 -20701400000.0 -17647700000.0 -17137900000.0 -22439500000.0 -17621900000.0 -16338500000.0 -15456900000.0 -16231900000.0 -12852200000.0 -13462600000.0 -14406300000.0 -13380700000.0 -13187500000.0 -14754000000.0 -14622700000.0 -12556100000.0 -13488900000.0 -14305800000.0 -12856000000.0 -12873800000.0 -14756300000.0 -13711600000.0 -12933400000.0 -13500900000.0 -13851000000.0 -17319300000.0 -15358400000.0 -14972500000.0 -13180200000.0 -13348500000.0 -15491800000.0 -14170800000.0 -13429400000.0 -14092100000.0 -14608700000.0 -12669900000.0 -14154300000.0 -12581800000.0 -13512000000.0 -13034100000.0 -13799000000.0 -12625900000.0 -14810300000.0 -13118900000.0 -12768400000.0 -14211300000.0 -13755600000.0 -12877100000.0 -13880300000.0 -12894000000.0 -12882200000.0 -12970200000.0 -12877200000.0 -12639400000.0 -12574100000.0 -12662000000.0 -13552300000.0 -13399500000.0 -14084900000.0 -14378500000.0 -14306300000.0 -14490200000.0 -13502000000.0 -13531200000.0 -12648600000.0 -14905400000.0 -12549700000.0 -12701700000.0 -13186200000.0 -13172400000.0 -14017100000.0 -14474200000.0 -13751100000.0 -17273200000.0 -13342500000.0 -15980500000.0 -12549700000.0 -16311500000.0 -15996500000.0 -17318800000.0 -18767500000.0 -21017300000.0 -12879200000.0 -18916600000.0 -16602200000.0 -15893000000.0 -15081000000.0 -13028700000.0 -14286300000.0 -14104500000.0 -13406100000.0 -13027300000.0 -14811000000.0 -16104800000.0 -13128000000.0 -16649300000.0 -14376600000.0 -16289900000.0 -13033800000.0 -12549700000.0 -16489400000.0 -13685300000.0 -14014900000.0 -14653500000.0 -12744000000.0 -17295600000.0 -13449700000.0 -16236000000.0 -13324500000.0 -12732000000.0 -13274000000.0 -17141700000.0 -13502800000.0 -16455000000.0 -12549700000.0 -15340800000.0 -12549700000.0 -16872900000.0 -20111000000.0 -20708600000.0 -12640600000.0 -12582000000.0 -20212000000.0 -12847600000.0 -19560200000.0 -20162700000.0 -19604400000.0 -17374200000.0 -12729700000.0 -13939500000.0 -18855800000.0 -16551400000.0 -15126200000.0 -16172700000.0 -12577600000.0 -15713400000.0 -16204900000.0 -13914400000.0 -13200100000.0 -13110000000.0 -12717800000.0 -14046700000.0 -14203900000.0 -13189100000.0 -13546900000.0 -14457600000.0 -13508500000.0 -13593000000.0 -13502500000.0 -12550200000.0 -13832100000.0 -13040400000.0 -13879300000.0 -12549700000.0 -14720400000.0 -14651200000.0 -15293200000.0 -14874300000.0 -14085200000.0 -13044000000.0 -13053500000.0 -14079800000.0 -15039400000.0 -13731400000.0 -13994900000.0 -13378700000.0 -13122600000.0 -13505300000.0 -14869900000.0 -14234300000.0 -15340500000.0 -12560600000.0 -14813400000.0 -17077800000.0 -13976500000.0 -14747000000.0 -16788700000.0 -12549700000.0 -12549700000.0 -21479800000.0 -20731800000.0 -15972100000.0 -17767400000.0 -15847400000.0 -17097700000.0 -13253900000.0 -15363800000.0 -15692600000.0 -13560500000.0 -15183200000.0 -14955300000.0 -12549700000.0 -16072900000.0 -17423300000.0 -16315300000.0 -13304100000.0 -13166000000.0 -18263400000.0 -19732700000.0 -14373000000.0 -12566700000.0 -12551800000.0 -15238700000.0 -16252100000.0 -20231900000.0 -13956300000.0 -15721800000.0 -13214300000.0 -13269400000.0 -13849300000.0 -12877600000.0 -18920200000.0 -13079700000.0 -19371400000.0 -18443600000.0 -14888800000.0 -15480600000.0 -13032200000.0 -12788900000.0 -17678300000.0 -12638900000.0 -13377800000.0 -19549300000.0 -19048800000.0 -12923000000.0 -14265400000.0 -15196200000.0 -14708100000.0 -14867900000.0 -14710600000.0 -15946100000.0 -12569500000.0 -18445100000.0 -12571400000.0 -19169100000.0 -21575300000.0 -17385200000.0 -13494600000.0 -14020900000.0 -13298400000.0 -13429700000.0 -13464600000.0 -12759800000.0 -13220800000.0 -12713700000.0 -12657200000.0 -12792900000.0 -12596400000.0 -14147500000.0 -13330400000.0 -13691700000.0 -13607300000.0 -12805700000.0 -13042400000.0 -13257400000.0 -15952300000.0 -14933300000.0 -12836700000.0 -13242300000.0 -14775400000.0 -14378000000.0 -12732200000.0 -14574100000.0 -14709900000.0 -13288400000.0 -13505600000.0 -12701500000.0 -14830300000.0 -13684300000.0 -14249300000.0 -14420300000.0 -12635100000.0 -15002400000.0 -12886000000.0 -12586200000.0 -13341300000.0 -13056800000.0 -12682100000.0 -16073800000.0 -12552600000.0 -14887600000.0 -13623600000.0 -13167200000.0 -13403300000.0 -17257900000.0 -19306800000.0 -21717800000.0 -20129600000.0 -18368400000.0 -13446800000.0 -14427600000.0 -13395000000.0 -12658000000.0 -12798500000.0 -16591500000.0 -12762900000.0 -12796800000.0 -13588000000.0 -18605100000.0 -12595300000.0 -13458900000.0 -16876100000.0 -15540900000.0 -13800000000.0 -15537400000.0 -12883300000.0 -15032400000.0 -16502300000.0 -16218800000.0 -15230500000.0 -15081000000.0 -13373500000.0 -12582900000.0 -13123900000.0 -16586700000.0 -17208500000.0 -14526200000.0 -17354600000.0 -14261200000.0 -15666600000.0 -14007700000.0 -13428500000.0 -12667900000.0 -16223200000.0 -15396200000.0 -14408100000.0 -13412700000.0 -15173300000.0 -13196300000.0 -12643000000.0 -12583900000.0 -12656100000.0 -12549700000.0 -18145100000.0 -18593100000.0 -12652700000.0 -16093900000.0 -13289600000.0 -13724000000.0 -13515700000.0 -13087100000.0 -14274300000.0 -13058400000.0 -13675700000.0 -12956400000.0 -12904100000.0 -13410800000.0 -12786700000.0 -12612100000.0 -12853400000.0 -12566300000.0 -12830800000.0 -13076600000.0 -12549700000.0 -14409000000.0 -14460700000.0 -14014600000.0 -12993200000.0 -12570500000.0 -14253300000.0 -12973000000.0 -13778000000.0 -13842400000.0 -13253800000.0 -16815200000.0 -12995300000.0 -12578300000.0 -14765900000.0 -12844400000.0 -12616700000.0 -13320100000.0 -13050200000.0 -16488500000.0 -12930400000.0 -13685100000.0 -13555600000.0 -12587700000.0 -17040300000.0 -16323900000.0 -20222500000.0 -19112100000.0 -13021800000.0 -18777000000.0 -17966100000.0 -20236700000.0 -21153000000.0 -12675300000.0 -12665600000.0 -23062600000.0 -17033900000.0 -14540600000.0 -12739400000.0 -13918200000.0 -13045700000.0 -13728700000.0 -13299600000.0 -13393700000.0 -18021000000.0 -19157800000.0 -14929700000.0 -19136500000.0 -14324400000.0 -14938400000.0 -15902000000.0 -17102100000.0 -17789800000.0 -12894600000.0 -14483900000.0 -12563300000.0 -14957400000.0 -15378400000.0 -14536700000.0 -14357000000.0 -17035500000.0 -13718200000.0 -13695000000.0 -14124900000.0 -12737000000.0 -15181800000.0 -14686200000.0 -16312700000.0 -17092200000.0 -14641500000.0 -13585700000.0 -15385800000.0 -16812600000.0 -13782200000.0 -17808100000.0 -14904400000.0 -14569900000.0 -15789200000.0 -14977700000.0 -13152100000.0 -12662700000.0 -12744200000.0 -12652000000.0 -12579600000.0 -13508400000.0 -16030700000.0 -13341600000.0 -13069700000.0 -13632600000.0 -13226000000.0 -13760600000.0 -12706000000.0 -13526400000.0 -13587900000.0 -13675600000.0 -13679800000.0 -12803500000.0 -12720200000.0 -12641300000.0 -12558000000.0 -13071100000.0 -12576400000.0 -12887500000.0 -12560400000.0 -13509200000.0 -13204200000.0 -13169700000.0 -15408900000.0 -14302200000.0 -13530800000.0 -12698400000.0 -13587100000.0 -15063500000.0 -13150600000.0 -13279900000.0 -13406100000.0 -13802100000.0 -12816400000.0 -12628700000.0 -12714900000.0 -17520200000.0 -14017000000.0 -14700800000.0 -16449900000.0 -12631400000.0 -15683600000.0 -13488400000.0 -13769600000.0 -20029200000.0 -24548100000.0 -23741800000.0 -12902100000.0 -12575100000.0 -12578500000.0 -12557100000.0 -19629600000.0 -21318700000.0 -12739700000.0 -13672200000.0 -16024100000.0 -13081700000.0 -14173500000.0 -12886800000.0 -12681700000.0 -13716000000.0 -19461300000.0 -15689800000.0 -12549700000.0 -12755200000.0 -14903600000.0 -14872700000.0 -12580600000.0 -13775900000.0 -14124900000.0 -14451300000.0 -12996000000.0 -12860200000.0 -13640000000.0 -13694000000.0 -15545700000.0 -12585300000.0 -13633700000.0 -13128700000.0 -17013300000.0 -16659300000.0 -13347100000.0 -13423300000.0 -14426000000.0 -15947200000.0 -14977000000.0 -18076400000.0 -16532000000.0 -16597500000.0 -16263600000.0 -15235600000.0 -13021900000.0 -17319800000.0 -12549700000.0 -13787300000.0 -12594700000.0 -14068500000.0 -14545400000.0 -14551300000.0 -13031800000.0 -12658800000.0 -12752800000.0 -12790000000.0 -12578300000.0 -13330800000.0 -12614600000.0 -13031400000.0 -16997900000.0 -15640100000.0 -12557900000.0 -12549700000.0 -14042300000.0 -13173400000.0 -12902500000.0 -13481500000.0 -13156100000.0 -12725500000.0 -13016200000.0 -12718300000.0 -12761800000.0 -12856100000.0 -13192000000.0 -13095300000.0 -14689700000.0 -12549700000.0 -13270700000.0 -12641700000.0 -13821900000.0 -13986100000.0 -14273900000.0 -12549700000.0 -14528000000.0 -13437500000.0 -12830900000.0 -12858700000.0 -13083500000.0 -13282900000.0 -14746400000.0 -13598000000.0 -15282300000.0 -14585500000.0 -13790000000.0 -13075000000.0 -13227900000.0 -14126800000.0 -13093100000.0 -18954200000.0 -12749200000.0 -15337500000.0 -16458900000.0 -16541200000.0 -14844900000.0 -15595600000.0 -13744000000.0 -15173200000.0 -32977700000.0 -17411100000.0 -20050100000.0 -17588000000.0 -17788100000.0 -21214800000.0 -12627800000.0 -14564100000.0 -17127300000.0 -14327300000.0 -15680200000.0 -21818900000.0 -19836000000.0 -15038500000.0 -14664700000.0 -15502400000.0 -14560000000.0 -13830700000.0 -17101100000.0 -13656100000.0 -12777200000.0 -14130800000.0 -14825400000.0 -15833800000.0 -14971900000.0 -14306600000.0 -16222600000.0 -14757600000.0 -14061800000.0 -15664800000.0 -14112200000.0 -14760600000.0 -16503600000.0 -15035100000.0 -14659300000.0 -12590700000.0 -12573400000.0 -16730400000.0 -16278300000.0 -14660500000.0 -12549700000.0 -13110800000.0 -13451300000.0 -14780900000.0 -13060900000.0 -12840800000.0 -14274500000.0 -12934300000.0 -12654700000.0 -12792600000.0 -12756600000.0 -12709300000.0 -12772400000.0 -14664000000.0 -14401500000.0 -14985600000.0 -13417600000.0 -14013500000.0 -12851700000.0 -12778500000.0 -12989200000.0 -12740600000.0 -13146300000.0 -12814000000.0 -13336800000.0 -13167600000.0 -12620000000.0 -13893600000.0 -13392400000.0 -13846900000.0 -12552100000.0 -12598000000.0 -12791000000.0 -14435600000.0 -12899100000.0 -13914700000.0 -14395400000.0 -14194500000.0 -12549700000.0 -14358200000.0 -14543300000.0 -13707500000.0 -13112000000.0 -13051900000.0 -12549700000.0 -15783700000.0 -15802700000.0 -14583500000.0 -12549700000.0 -15485000000.0 -12618600000.0 -14084500000.0 -13446000000.0 -15895700000.0 -16537900000.0 -17569500000.0 -15404700000.0 -37767900000.0 -17747100000.0 -19705500000.0 -17386900000.0 -28739900000.0 -14631100000.0 -20607900000.0 -17813200000.0 -17765500000.0 -21679200000.0 -12585500000.0 -16238700000.0 -13052600000.0 -14521700000.0 -13110600000.0 -12549700000.0 -16248400000.0 -13666300000.0 -14584500000.0 -13686000000.0 -15989300000.0 -13422400000.0 -14613000000.0 -15568000000.0 -14920800000.0 -13351500000.0 -12687000000.0 -12549700000.0 -12549700000.0 -12560000000.0 -12563900000.0 -12593500000.0 -13682500000.0 -13456200000.0 -14722400000.0 -13929500000.0 -13305900000.0 -14964400000.0 -12645000000.0 -13692500000.0 -12557000000.0 -14927900000.0 -14045800000.0 -12614900000.0 -15023800000.0 -13294900000.0 -16888500000.0 -12608000000.0 -16338700000.0 -16886700000.0 -16404600000.0 -17193000000.0 -15162800000.0 -12830700000.0 -12695100000.0 -12549700000.0 -12717500000.0 -12589600000.0 -12897600000.0 -12580800000.0 -12622000000.0 -13662500000.0 -12603000000.0 -14333200000.0 -14711300000.0 -13866200000.0 -13224300000.0 -12631800000.0 -12782700000.0 -12768700000.0 -13198700000.0 -12662500000.0 -13158800000.0 -12603300000.0 -13334200000.0 -12760300000.0 -12671700000.0 -12900300000.0 -12585800000.0 -12560600000.0 -12564100000.0 -12782200000.0 -12549700000.0 -12564300000.0 -13392300000.0 -14287400000.0 -12570500000.0 -12650300000.0 -15760900000.0 -14078900000.0 -15972100000.0 -15191800000.0 -14010100000.0 -13335300000.0 -15271700000.0 -13662900000.0 -14238400000.0 -17392200000.0 -19877800000.0 -17957100000.0 -14819200000.0 -12567500000.0 -13826600000.0 -13629600000.0 -12561000000.0 -17161900000.0 -19647200000.0 -21472200000.0 -29033100000.0 -12670600000.0 -24572500000.0 -26660300000.0 -21432300000.0 -16681700000.0 -24719300000.0 -21080100000.0 -16371400000.0 -16686700000.0 -18761300000.0 -15478600000.0 -16123000000.0 -14170500000.0 -13778600000.0 -16261300000.0 -13073100000.0 -12882200000.0 -13056200000.0 -13674900000.0 -14014000000.0 -13563200000.0 -12549700000.0 -12864700000.0 -13430600000.0 -12913500000.0 -12948500000.0 -14328600000.0 -14880100000.0 -12549700000.0 -14344800000.0 -13216700000.0 -13032200000.0 -13285800000.0 -13737900000.0 -13659100000.0 -12900500000.0 -13426800000.0 -13617300000.0 -14037400000.0 -14158700000.0 -14254300000.0 -18509200000.0 -14396400000.0 -12657400000.0 -12549700000.0 -12720900000.0 -12592400000.0 -12580200000.0 -12830300000.0 -12729000000.0 -12586200000.0 -13272800000.0 -12895300000.0 -13979600000.0 -12632700000.0 -12549700000.0 -13273400000.0 -13063100000.0 -12632000000.0 -12577300000.0 -12648500000.0 -12613500000.0 -12549700000.0 -12776900000.0 -13227500000.0 -12600000000.0 -12586400000.0 -12659600000.0 -12654600000.0 -12758900000.0 -12582800000.0 -12658300000.0 -12550500000.0 -12560800000.0 -12554100000.0 -12580100000.0 -12914300000.0 -13544700000.0 -12883900000.0 -14201900000.0 -14176000000.0 -14463700000.0 -13484000000.0 -16814900000.0 -13090600000.0 -19401100000.0 -18040400000.0 -17836100000.0 -17347700000.0 -18441100000.0 -18436400000.0 -12805900000.0 -17314600000.0 -15961500000.0 -16591900000.0 -16510000000.0 -14016000000.0 -22707900000.0 -12777100000.0 -17556600000.0 -25284000000.0 -23302900000.0 -23754800000.0 -24455600000.0 -13074500000.0 -19050700000.0 -19993200000.0 -15057800000.0 -15434300000.0 -12549700000.0 -22059200000.0 -17510800000.0 -18243800000.0 -16907300000.0 -16256800000.0 -13306100000.0 -12697000000.0 -12865800000.0 -13127800000.0 -13390700000.0 -13363500000.0 -13381400000.0 -13552700000.0 -13544000000.0 -12551900000.0 -13278500000.0 -12566500000.0 -12803500000.0 -12793900000.0 -13637900000.0 -12616700000.0 -14877500000.0 -12966500000.0 -14264400000.0 -13147100000.0 -14145200000.0 -13929900000.0 -13049900000.0 -13239000000.0 -13265300000.0 -13223400000.0 -13666000000.0 -13500000000.0 -13200100000.0 -15709200000.0 -12558100000.0 -12552700000.0 -14976700000.0 -16132200000.0 -13499900000.0 -12741100000.0 -13041000000.0 -13073600000.0 -13038100000.0 -13037700000.0 -12925600000.0 -12935400000.0 -12926400000.0 -13778600000.0 -13475100000.0 -12964100000.0 -13413800000.0 -12697600000.0 -13050300000.0 -13071000000.0 -13077500000.0 -12991800000.0 -12879800000.0 -12554600000.0 -12549700000.0 -12555200000.0 -12554400000.0 -12589200000.0 -12657400000.0 -12706100000.0 -12592400000.0 -12590200000.0 -12676400000.0 -12586500000.0 -12555700000.0 -12583200000.0 -12712400000.0 -12674000000.0 -13830500000.0 -12563400000.0 -12601200000.0 -16114600000.0 -13736300000.0 -16214000000.0 -15310000000.0 -13268000000.0 -16104400000.0 -18308600000.0 -13786800000.0 -12889800000.0 -14350800000.0 -14000000000.0 -24841500000.0 -17573600000.0 -19255100000.0 -19148600000.0 -22035900000.0 -16690800000.0 -14372900000.0 -21565500000.0 -12905900000.0 -15207200000.0 -27687700000.0 -39320900000.0 -12893400000.0 -12785300000.0 -24378500000.0 -17578700000.0 -14544800000.0 -23559900000.0 -13638600000.0 -14571200000.0 -12549700000.0 -23760700000.0 -14487300000.0 -12634200000.0 -13996000000.0 -15906200000.0 -13012400000.0 -13113800000.0 -13099400000.0 -12923300000.0 -12673700000.0 -13290100000.0 -13622200000.0 -13443500000.0 -12889700000.0 -13351400000.0 -12560600000.0 -12709700000.0 -13043100000.0 -12643200000.0 -12689700000.0 -13844800000.0 -13354200000.0 -13301700000.0 -12879500000.0 -12549700000.0 -13395500000.0 -13234100000.0 -13891100000.0 -12549700000.0 -13151500000.0 -12842300000.0 -13060600000.0 -12587900000.0 -12564600000.0 -12553600000.0 -13221400000.0 -12674600000.0 -13865700000.0 -13988000000.0 -14198000000.0 -13618500000.0 -13158200000.0 -12740300000.0 -12551100000.0 -12549900000.0 -12670800000.0 -12632500000.0 -12602000000.0 -12654600000.0 -12642300000.0 -12621900000.0 -12657900000.0 -13559000000.0 -12878500000.0 -12656400000.0 -12693200000.0 -12716100000.0 -12762500000.0 -12886800000.0 -12972200000.0 -12748700000.0 -12737800000.0 -12841200000.0 -12957900000.0 -12876800000.0 -12931000000.0 -12944900000.0 -12806500000.0 -13042000000.0 -13230100000.0 -13558900000.0 -15131300000.0 -14449700000.0 -14482800000.0 -15664300000.0 -12907700000.0 -13904500000.0 -12658800000.0 -18243600000.0 -16797200000.0 -14571200000.0 -13075700000.0 -13957800000.0 -21538700000.0 -15144600000.0 -14219400000.0 -14660000000.0 -24204100000.0 -12549700000.0 -18548100000.0 -16824200000.0 -14964300000.0 -29471100000.0 -13741500000.0 -12714600000.0 -12656300000.0 -24077300000.0 -24754200000.0 -17280000000.0 -17459700000.0 -20997000000.0 -21186000000.0 -17664700000.0 -13108300000.0 -18313100000.0 -17895400000.0 -14835100000.0 -14206700000.0 -14368800000.0 -14502100000.0 -14788100000.0 -14725300000.0 -13718900000.0 -13403900000.0 -13613500000.0 -13407600000.0 -13139100000.0 -12985600000.0 -13796000000.0 -12910800000.0 -12873400000.0 -12933400000.0 -12874900000.0 -13184700000.0 -13292300000.0 -14552300000.0 -12841800000.0 -13853600000.0 -13513600000.0 -12836500000.0 -13271800000.0 -13294700000.0 -13256100000.0 -12748900000.0 -13003700000.0 -12873700000.0 -12564100000.0 -15396000000.0 -13374600000.0 -12884300000.0 -13067300000.0 -12574200000.0 -12633300000.0 -12549800000.0 -12555600000.0 -12608300000.0 -12580300000.0 -12613200000.0 -12556600000.0 -12549700000.0 -12622700000.0 -12802700000.0 -12553800000.0 -12549900000.0 -12549700000.0 -12549700000.0 -12983600000.0 -12667400000.0 -12898800000.0 -12878700000.0 -12794800000.0 -12851100000.0 -12837500000.0 -12776900000.0 -12827300000.0 -12745400000.0 -13110500000.0 -13452500000.0 -13775200000.0 -14848900000.0 -12902800000.0 -13358200000.0 -13150100000.0 -15233400000.0 -14018800000.0 -16814200000.0 -12590300000.0 -17714500000.0 -15603500000.0 -16467800000.0 -17713200000.0 -18747500000.0 -12691100000.0 -14599900000.0 -24968800000.0 -20111600000.0 -14546900000.0 -17510500000.0 -12553100000.0 -29941400000.0 -13596100000.0 -14814600000.0 -32886200000.0 -12562700000.0 -13014700000.0 -30460600000.0 -12868000000.0 -24004400000.0 -15889500000.0 -18150800000.0 -15835900000.0 -17986600000.0 -15988900000.0 -12606400000.0 -12549700000.0 -13875400000.0 -14600700000.0 -14786100000.0 -14889000000.0 -13602900000.0 -13977400000.0 -12654700000.0 -12610000000.0 -13035300000.0 -12550100000.0 -12574000000.0 -12549700000.0 -13285300000.0 -12745900000.0 -12814100000.0 -12811700000.0 -12894800000.0 -13856200000.0 -12916900000.0 -12857600000.0 -12864800000.0 -12871600000.0 -13208000000.0 -12552400000.0 -12616900000.0 -12905200000.0 -12568200000.0 -12867000000.0 -13701700000.0 -14517800000.0 -13432400000.0 -12665700000.0 -12567500000.0 -12597200000.0 -12549700000.0 -12549700000.0 -12550400000.0 -12555700000.0 -12589400000.0 -12567400000.0 -12549700000.0 -12549700000.0 -12549700000.0 -12650300000.0 -12600000000.0 -12551100000.0 -12549700000.0 -12553100000.0 -12553900000.0 -12564500000.0 -12658900000.0 -12587000000.0 -12586600000.0 -12554300000.0 -12662400000.0 -12649800000.0 -12795800000.0 -12898700000.0 -12887300000.0 -12879700000.0 -12824000000.0 -13312700000.0 -13583900000.0 -13686300000.0 -13982700000.0 -14391200000.0 -14598200000.0 -13739400000.0 -14884900000.0 -14525200000.0 -14864800000.0 -17006800000.0 -18835700000.0 -12576700000.0 -18261700000.0 -20154200000.0 -22584900000.0 -24147400000.0 -25973200000.0 -33001100000.0 -24932100000.0 -22480500000.0 -33052600000.0 -37602100000.0 -12886400000.0 -23818300000.0 -34178900000.0 -21467600000.0 -25128500000.0 -20541800000.0 -16176300000.0 -22308600000.0 -20163000000.0 -16883600000.0 -14072600000.0 -12904000000.0 -12973700000.0 -13655700000.0 -14109200000.0 -12609100000.0 -12803400000.0 -12677100000.0 -15326300000.0 -13635900000.0 -13772100000.0 -12871900000.0 -12882600000.0 -12815600000.0 -12721000000.0 -12807900000.0 -12735000000.0 -13094400000.0 -12594800000.0 -12560800000.0 -12584100000.0 -12595700000.0 -12569700000.0 -12905500000.0 -12717000000.0 -12549700000.0 -12617300000.0 -12633500000.0 -13434200000.0 -13268700000.0 -13597000000.0 -13774300000.0 -12703200000.0 -13138100000.0 -13013100000.0 -12574100000.0 -12583300000.0 -12549700000.0 -12549700000.0 -12549900000.0 -12551100000.0 -12563600000.0 -12555500000.0 -12549700000.0 -12549700000.0 -12549700000.0 -12568100000.0 -12549700000.0 -12549700000.0 -12549700000.0 -12549700000.0 -12550600000.0 -12557700000.0 -12622500000.0 -12602500000.0 -12599700000.0 -12596400000.0 -12568700000.0 -12577600000.0 -12653500000.0 -12584600000.0 -12635400000.0 -12775200000.0 -12913200000.0 -12631200000.0 -12867000000.0 -12732500000.0 -12899100000.0 -15558600000.0 -13369700000.0 -20618300000.0 -20172700000.0 -21264500000.0 -12612200000.0 -15955500000.0 -22120600000.0 -15439600000.0 -29274200000.0 -18352700000.0 -28752100000.0 -25131600000.0 -18859000000.0 -13688200000.0 -15376900000.0 -15855200000.0 -15433000000.0 -27600200000.0 -18209300000.0 -13972200000.0 -14059100000.0 -13896500000.0 -13757900000.0 -12834400000.0 -13714600000.0 -12650700000.0 -12577600000.0 -12566500000.0 -12576100000.0 -12885400000.0 -12669100000.0 -12604200000.0 -13385400000.0 -13027300000.0 -12905600000.0 -12992100000.0 -12630000000.0 -12608600000.0 -12687300000.0 -12681100000.0 -12551800000.0 -12666900000.0 -12705000000.0 -12774600000.0 -13296400000.0 -12834500000.0 -12780200000.0 -12852800000.0 -12645800000.0 -12681300000.0 -12585800000.0 -12596400000.0 -13233000000.0 -12849000000.0 -12800800000.0 -12558200000.0 -12563800000.0 -12600300000.0 -12561500000.0 -12619200000.0 -12690500000.0 -12614700000.0 -13163600000.0 -13264700000.0 -12801900000.0 -13205900000.0 -14722800000.0 -16990000000.0 -14652700000.0 -14036200000.0 -24095800000.0 -17070000000.0 -18405100000.0 -22439600000.0 -21895200000.0 -16488100000.0 -18851400000.0 -24703200000.0 -17640800000.0 -12582300000.0 -18005800000.0 -19911800000.0 -27999100000.0 -17698200000.0 -16360300000.0 -16259600000.0 -25611900000.0 -12828100000.0 -12829000000.0 -13357800000.0 -12655000000.0 -12577700000.0 -12549700000.0 -12610000000.0 -12700200000.0 -12551000000.0 -12576500000.0 -12584500000.0 -12606900000.0 -12687800000.0 -12574700000.0 -13061900000.0 -13032900000.0 -14449700000.0 -14639000000.0 -13536000000.0 -21477100000.0 -14408000000.0 -12903100000.0 -23794500000.0 -19274100000.0 -18940900000.0 -19192700000.0 -12656500000.0 -17490200000.0 -16046400000.0 -31026300000.0 -18279500000.0 -26853200000.0 -23130500000.0 -15524500000.0 -17284400000.0 -16037100000.0 -25075300000.0 -13536500000.0 -14988200000.0 -16337000000.0 -18676800000.0 -17377900000.0 -15354200000.0 -22830700000.0 -30175900000.0 -21185000000.0 -23701500000.0 -17951200000.0 -14414700000.0 -43228000000.0 -24628600000.0 -29301500000.0 -19392400000.0 -15245100000.0 -16053200000.0 -12549700000.0 -28535300000.0 -13020700000.0 -13212400000.0 -14908700000.0 -14295600000.0 -17384800000.0 -17257200000.0 -20377500000.0 -12614500000.0 -20252900000.0 -14155900000.0 -13217900000.0 -29636600000.0 -41037900000.0 -12596400000.0 -18303900000.0 -23476200000.0 -12549700000.0 -17636300000.0 -16134000000.0 -25347700000.0 -12911300000.0 -12989600000.0 -12549700000.0 -16747200000.0 -16595400000.0 -25209500000.0 -22310100000.0 -14457000000.0 -19971900000.0 -13498000000.0 -13432800000.0 -38402700000.0 -18474600000.0 -14265700000.0 -24371700000.0 -14965200000.0 -16860600000.0 -15854900000.0 -21936200000.0 -13478400000.0 -12942700000.0 -13168300000.0 -12549700000.0 -12549700000.0 -12549700000.0 -13233900000.0 -15356300000.0 -15285800000.0 -18530900000.0 -18948100000.0 -15118600000.0 -21897900000.0 -18070700000.0 -17989200000.0 -40012600000.0 -15465900000.0 -17361700000.0 -16386300000.0 -22934800000.0 -14182600000.0 -22813600000.0 -18091400000.0 -14679500000.0 -12549700000.0 -12549700000.0 -12549700000.0 -12549700000.0 -12549700000.0 -12549700000.0 -12549700000.0 -12549700000.0 -12549700000.0 -12549700000.0 -12549700000.0 -12549700000.0 -12549700000.0 -12549700000.0 -12549700000.0 -12549700000.0 -12549700000.0 -13113200000.0 -15177700000.0 -14370800000.0 -15038100000.0 -18048700000.0 -19288100000.0 -19579400000.0 -15535700000.0 -20580500000.0 -44214700000.0 -20249500000.0 -17610800000.0 -15187800000.0 -28291400000.0 -27002600000.0 -27758600000.0 -17044600000.0 -16488900000.0 -13867000000.0 -13154600000.0 -12549700000.0 -12549700000.0 -12549700000.0 -12549700000.0 -12549700000.0 -12549700000.0 -12549700000.0 -12549700000.0 -12549700000.0 -12549700000.0 -12549700000.0 -12549700000.0 -12549700000.0 -12549700000.0 -12549700000.0 -12549700000.0 -12549700000.0 -12549700000.0 -12549700000.0 -12549700000.0 -12549700000.0 -12549700000.0 -12549700000.0 -12549700000.0 -12549700000.0 -12549700000.0 -12549700000.0 -12549700000.0 -12549800000.0 -12550700000.0 -12549700000.0 -12729100000.0 -14250400000.0 -14281800000.0 -12672000000.0 -15052800000.0 -19825000000.0 -28240500000.0 -25794400000.0 -22760900000.0 -18990400000.0 -22560200000.0 -29699200000.0 -13153500000.0 -17306200000.0 -12962600000.0 -25710900000.0 -17892200000.0 -12999500000.0 -12647000000.0 -12575100000.0 -20184500000.0 -13434900000.0 -12689200000.0 -12549700000.0 -12549700000.0 -12549700000.0 -12549700000.0 -12549700000.0 -12549700000.0 -12549700000.0 -12549700000.0 -12549700000.0 -12549700000.0 -12549700000.0 -12549700000.0 -12549700000.0 -12549700000.0 -12549700000.0 -12549700000.0 -12549700000.0 -12549700000.0 -12549700000.0 -12549700000.0 -12549700000.0 -12549700000.0 -12549700000.0 -12549700000.0 -12549700000.0 -12549700000.0 -12549700000.0 -12549700000.0 -12549700000.0 -12549700000.0 -12549700000.0 -12549700000.0 -12549700000.0 -12549700000.0 -12549700000.0 -12549700000.0 -12549700000.0 -12552700000.0 -12625200000.0 -13115500000.0 -13748300000.0 -15985800000.0 -15323700000.0 -16335700000.0 -19710000000.0 -21342700000.0 -20971300000.0 -17818100000.0 -13695400000.0 -17118900000.0 -25707800000.0 -34923100000.0 -20852100000.0 -22587300000.0 -21754900000.0 -21117200000.0 -13582900000.0 -13920700000.0 -21474700000.0 -12853800000.0 -12735900000.0 -13833700000.0 -14983800000.0 -13168500000.0 -12754900000.0 -12559400000.0 -12549700000.0 -12549700000.0 -12549700000.0 -12549700000.0 -12549700000.0 -12549700000.0 -12549700000.0 -12549700000.0 -12549700000.0 -12549700000.0 -12549700000.0 -12549700000.0 -12549700000.0 -12549700000.0 -12549700000.0 -12549700000.0 -12549700000.0 -12549700000.0 -12549700000.0 -12549700000.0 -12549700000.0 -12549700000.0 -12549700000.0 -12549700000.0 -12549700000.0 -12549700000.0 -12549700000.0 -12549700000.0 -12549700000.0 -12549700000.0 -12549700000.0 -12549700000.0 -12549700000.0 -12549700000.0 -12549700000.0 -12549700000.0 -12549700000.0 -12549700000.0 -12549700000.0 -12549700000.0 -12554400000.0 -12942700000.0 -13412800000.0 -14061600000.0 -13924900000.0 -15998600000.0 -18313500000.0 -19222900000.0 -17621000000.0 -22146500000.0 -18817500000.0 -26133600000.0 -21505600000.0 -27108100000.0 -26460200000.0 -25921300000.0 -13645500000.0 -19857200000.0 -21058300000.0 -12596600000.0 -13547700000.0 -12645300000.0 -12570800000.0 -12550600000.0 -12549900000.0 -12549700000.0 -12549700000.0 -12549700000.0 -12549700000.0 -12549700000.0 -12549700000.0 -12549700000.0 -12549700000.0 -12549700000.0 -12549700000.0 -12549700000.0 -12549700000.0 -12549700000.0 -12549700000.0 -12549700000.0 -12549700000.0 -12549700000.0 -12549700000.0 -12549700000.0 -12549700000.0 -12549700000.0 -12549700000.0 -12549700000.0 -12549700000.0 -12549700000.0 -12549700000.0 -12549700000.0 -12549700000.0 -12549700000.0 -12549700000.0 -12549700000.0 -12549700000.0 -12549700000.0 -12549700000.0 -12549700000.0 -12549700000.0 -12549700000.0 -12549700000.0 -12549700000.0 -12549700000.0 -12549700000.0 -12549700000.0 -12565900000.0 -12549700000.0 -12718100000.0 -13409800000.0 -13102000000.0 -14068400000.0 -13349200000.0 -22161800000.0 -12650300000.0 -19301600000.0 -18278000000.0 -24692700000.0 -23966300000.0 -20146900000.0 -16190900000.0 -25831400000.0 -12549700000.0 -20214600000.0 -23419900000.0 -35640200000.0 -21485700000.0 -20361700000.0 -15023000000.0 -15162800000.0 -12830600000.0 -12673800000.0 -12584200000.0 -12569400000.0 -12558800000.0 -12551300000.0 -12549700000.0 -12549700000.0 -12549700000.0 -12549700000.0 -12549700000.0 -12549700000.0 -12549700000.0 -12549700000.0 -12549700000.0 -12549700000.0 -12549700000.0 -12549700000.0 -12549700000.0 -12549700000.0 -12549700000.0 -12549700000.0 -12549700000.0 -12549700000.0 -12549700000.0 -12549700000.0 -12549700000.0 -12549700000.0 -12549700000.0 -12549700000.0 -12549700000.0 -12549700000.0 -12549700000.0 -12549700000.0 -12549700000.0 -12549700000.0 -12549700000.0 -12549700000.0 -12549700000.0 -12549700000.0 -12549700000.0 -12549700000.0 -12549700000.0 -12549700000.0 -12549700000.0 -12549700000.0 -12549700000.0 -12549700000.0 -12549700000.0 -12549700000.0 -12549700000.0 -12581200000.0 -12792100000.0 -12964700000.0 -14236300000.0 -13835900000.0 -12811600000.0 -29243700000.0 -26261700000.0 -22220300000.0 -31706900000.0 -15553900000.0 -15791100000.0 -24747300000.0 -12722000000.0 -23014500000.0 -21008400000.0 -12821600000.0 -40841500000.0 -29054600000.0 -18395400000.0 -13457700000.0 -12718000000.0 -12549700000.0 -12549700000.0 -12553700000.0 -12549700000.0 -12549700000.0 -12549700000.0 -12549700000.0 -12549700000.0 -12549700000.0 -12549700000.0 -12549700000.0 -12549700000.0 -12549700000.0 -12549700000.0 -12549700000.0 -12549700000.0 -12549700000.0 -12549700000.0 -12549700000.0 -12549700000.0 -12549700000.0 -12549700000.0 -12549700000.0 -12549700000.0 -12549700000.0 -12549700000.0 -12549700000.0 -12549700000.0 -12549700000.0 -12549700000.0 -12549700000.0 -12549700000.0 -12549700000.0 -12549700000.0 -12549700000.0 -12549700000.0 -12549700000.0 -12549700000.0 -12549700000.0 -12549700000.0 -12549700000.0 -12549700000.0 -12549700000.0 -12549700000.0 -12549700000.0 -12549700000.0 -12549700000.0 -12549700000.0 -12549700000.0 -12549700000.0 -12549700000.0 -13258500000.0 -16051400000.0 -12549700000.0 -18774100000.0 -25870500000.0 -24894300000.0 -12549700000.0 -13294000000.0 -16633400000.0 -18093500000.0 -25247000000.0 -21359200000.0 -13254000000.0 -29139000000.0 -14991200000.0 -15056400000.0 -14461500000.0 -19362200000.0 -19363900000.0 -37775900000.0 -19051500000.0 -20921300000.0 -13992700000.0 -12750100000.0 -13391300000.0 -12774900000.0 -13119400000.0 -12603200000.0 -12549700000.0 -12549700000.0 -12549700000.0 -12549700000.0 -12549700000.0 -12549700000.0 -12549700000.0 -12549700000.0 -12549700000.0 -12549700000.0 -12549700000.0 -12549700000.0 -12549700000.0 -12549700000.0 -12549700000.0 -12549700000.0 -12549700000.0 -12549700000.0 -12549700000.0 -12549700000.0 -12549700000.0 -12549700000.0 -12549700000.0 -12549700000.0 -12549700000.0 -12549700000.0 -12549700000.0 -12549700000.0 -12549700000.0 -12549700000.0 -12549700000.0 -12549700000.0 -12549700000.0 -12549700000.0 -12549700000.0 -12549700000.0 -12549700000.0 -12549700000.0 -12549700000.0 -13070700000.0 -22565300000.0 -16687400000.0 -15408100000.0 -14887000000.0 -14644000000.0 -12712000000.0 -20622700000.0 -21930800000.0 -22403800000.0 -19914600000.0 -15505800000.0 -24578400000.0 -39806200000.0 -12549700000.0 -12549700000.0 -13654300000.0 -20289900000.0 -13783100000.0 -12549700000.0 -12549700000.0 -12549700000.0 -12549700000.0 -12549700000.0 -12549700000.0 -12549700000.0 -12549700000.0 -12549700000.0 -12549700000.0 -12549700000.0 -12549700000.0 -12549700000.0 -12549700000.0 -12549700000.0 -12549700000.0 -12549700000.0 -12549700000.0 -12549700000.0 -12549700000.0 -12549700000.0 -12549700000.0 -12549700000.0 -12549700000.0 -12549700000.0 -12549700000.0 -12549700000.0 -12549700000.0 -12549700000.0 -12549700000.0 -12549700000.0 -12549700000.0 -12549700000.0 -12549700000.0 -12549700000.0 -12549700000.0 -12549700000.0 -12549700000.0 -12549700000.0 -12549700000.0 -12549700000.0 -12549700000.0 -12549700000.0 -12549700000.0 -12549700000.0 -12549700000.0 -12549700000.0 -13345200000.0 -18508900000.0 -26131500000.0 -15055400000.0 -13471200000.0 -14502000000.0 -12564900000.0 -21831700000.0 -29541400000.0 -18872300000.0 -22453500000.0 -17659900000.0 -15502500000.0 -32568300000.0 -33126100000.0 -20476100000.0 -22928200000.0 -13503300000.0 -12549700000.0 -12549700000.0 -12549700000.0 -12549700000.0 -12549700000.0 -12549700000.0 -12549700000.0 -12549700000.0 -12549700000.0 -12549700000.0 -12549700000.0 -12549700000.0 -12549700000.0 -12549700000.0 -12549700000.0 -12549700000.0 -12549700000.0 -12549700000.0 -12549700000.0 -12549700000.0 -12549700000.0 -12549700000.0 -12549700000.0 -12549700000.0 -12549700000.0 -12549700000.0 -12549700000.0 -12549700000.0 -12549700000.0 -12549700000.0 -12549700000.0 -12549700000.0 -12549700000.0 -12549700000.0 -12549700000.0 -12549700000.0 -12549700000.0 -13631300000.0 -16618300000.0 -26189000000.0 -15419600000.0 -13259000000.0 -13781400000.0 -16470500000.0 -15752700000.0 -19073800000.0 -19093100000.0 -31737900000.0 -19051700000.0 -25466100000.0 -40792200000.0 -40399000000.0 -30181900000.0 -36555900000.0 -17780400000.0 -23456500000.0 -14365100000.0 -13859600000.0 -12549700000.0 -12549700000.0 -12549700000.0 -12549700000.0 -12549700000.0 -12549700000.0 -12549700000.0 -12549700000.0 -12549700000.0 -12549700000.0 -12549700000.0 -12528400000.0 -12549700000.0 -12549700000.0 -12549700000.0 -12549700000.0 -12549700000.0 -12549700000.0 -12549700000.0 -12549700000.0 -12549700000.0 -12549700000.0 -12549700000.0 -12549700000.0 -12549700000.0 -12549700000.0 -12549700000.0 -12549700000.0 -12549700000.0 -12549700000.0 -12549700000.0 -12549700000.0 -12549700000.0 -12549700000.0 -12549700000.0 -13217700000.0 -12731500000.0 -16808300000.0 -12702900000.0 -26380400000.0 -12636000000.0 -14452900000.0 -17514900000.0 -24909500000.0 -17387000000.0 -18942500000.0 -32720700000.0 -25311400000.0 -35848800000.0 -31111600000.0 -44238700000.0 -33403500000.0 -22790800000.0 -22118500000.0 -13574500000.0 -13632800000.0 -12549700000.0 -12549700000.0 -12549700000.0 -12549700000.0 -12549700000.0 -12549700000.0 -25361800000.0 -17994300000.0 -12549700000.0 -12549700000.0 -12549700000.0 -12549700000.0 -12549700000.0 -12549700000.0 -12549700000.0 -12549700000.0 -12549700000.0 -12549700000.0 -14844400000.0 -12549700000.0 -12549700000.0 -12549700000.0 -12549700000.0 -12549700000.0 -12549700000.0 -12549700000.0 -12549700000.0 -12549700000.0 -12549700000.0 -12549700000.0 -13148600000.0 -16956300000.0 -12765800000.0 -26480100000.0 -13072700000.0 -14824700000.0 -15359600000.0 -22660000000.0 -18703400000.0 -12815900000.0 -23095100000.0 -16610400000.0 -18965000000.0 -27696100000.0 -29244300000.0 -30742600000.0 -23369800000.0 -22741600000.0 -29726300000.0 -16709200000.0 -14000200000.0 -13168500000.0 -12549700000.0 -39452400000.0 -38867500000.0 -41609700000.0 -14122800000.0 -12549700000.0 -12549700000.0 -12549700000.0 -12549700000.0 -12549700000.0 -14240200000.0 -12549700000.0 -12549700000.0 -12549700000.0 -12549500000.0 -12549700000.0 -12549700000.0 -12549700000.0 -12549700000.0 -12549700000.0 -25402500000.0 -27393100000.0 -27681600000.0 -27803200000.0 -28887800000.0 -37629200000.0 -24841500000.0 -28106300000.0 -30973500000.0 -39619000000.0 -37153300000.0 -46434600000.0 -19230700000.0 -36461500000.0 -20134500000.0 -15497000000.0 -35459300000.0 -27958100000.0 -811478000000.0 -13340800000.0 -15486500000.0 -36843800000.0 -18085400000.0 -20270800000.0 -12549700000.0 -12549700000.0 -3.69862e+12 -3.759e+12 -5.27127e+12 -5.08239e+12 -4.4788e+12 -4.51983e+12 -12560200000.0 -3.58007e+12 -85806200000.0 -2.423e+12 -3.28866e+12 -1.73772e+12 -4.02583e+12 -1.92821e+12 -80158500000.0 -4.49448e+12 -12549700000.0 -3.21514e+12 -4.72094e+12 -2.0502e+12 -4.69495e+12 -4.81002e+12 -5.94486e+12 -1.18113e+12 -3.22733e+12 -4.20323e+12 -4.65581e+12 -5.8521e+12 -4.29022e+12 -4.57682e+12 -5.43684e+12 -5.26232e+12 -5.7987e+12 -2.67754e+12 -3.75305e+12 -4.23835e+12 -12549700000.0 -12549700000.0 -6.18539e+12 -5.17785e+12 -4.24945e+12 -4.9678e+12 -4.47732e+12 -4.50539e+12 -3.39113e+12 -6.37523e+12 -4.33991e+12 -3.83518e+12 -3.08893e+12 -4.01381e+12 -2.23884e+12 -3.87576e+12 -3.34449e+12 -4.4712e+12 -4.99831e+12 -4.50207e+12 -6.14713e+12 -3.90035e+12 -12549700000.0 -22015400000.0 -17962000000.0 -16707900000.0 -19099300000.0 -16406600000.0 -17771500000.0 -23396600000.0 -31394200000.0 -39536500000.0 -38663100000.0 -16336700000.0 -15152300000.0 -53568800000.0 -27191100000.0 -35547700000.0 -22737300000.0 -21523000000.0 -19075600000.0 -47151900000.0 -2.73028e+12 -1.98487e+12 -4.31676e+12 -4.61665e+12 -3.94517e+12 -3.37251e+12 -1.82127e+12 -5.16179e+12 -2.61426e+12 -4.94413e+12 -5.35371e+12 -7.02126e+12 -6.41574e+12 -4.38617e+12 -7.29462e+12 -3.09324e+12 -24570100000.0 -3.50312e+12 -4.7278e+12 -5.95395e+12 -2.72108e+12 -83458600000.0 -12587300000.0 -2.14262e+12 -2.67131e+12 -2.81251e+12 -4.9382e+12 -12549700000.0 -6.23506e+12 -5.39537e+12 -2.71453e+12 -4.43689e+12 -4.31538e+12 -3.35177e+12 -4.17956e+12 -5.77837e+12 -5.19409e+12 -3.70688e+12 -5.05856e+12 -4.00809e+12 -19438300000.0 -2.91888e+12 -4.70935e+12 -5.95902e+12 -6.21606e+12 -13689300000.0 -2.55051e+12 -3.57372e+12 -5.41947e+12 -6.28862e+12 -4.34058e+12 -4.94099e+12 -6.3769e+12 -4.2762e+12 -3.11953e+12 -3.79099e+12 -3.75445e+12 -4.76559e+12 -6.72981e+12 -5.95367e+12 -5.81004e+12 -5.83139e+12 -8.11998e+12 -7.52818e+12 -5.28335e+12 -1.10011e+13 -5.20451e+12 -5.46629e+12 -3.71052e+12 -4.97644e+12 -6.95922e+12 -3.52638e+12 -9.12937e+12 -6.77056e+12 -4.31061e+12 -4.87248e+12 -5.74854e+12 -6.99358e+12 -5.52683e+12 -8.7323e+12 -1.12302e+13 -5.58598e+12 -4.03558e+12 -6.11637e+12 -6.42221e+12 -2.71824e+12 -5.22522e+12 -7.65038e+12 -7.16991e+12 -9.0386e+12 -8.04645e+12 -9.02309e+12 -8.22943e+12 -5.17225e+12 -5.6648e+12 -5.89924e+12 -7.14807e+12 -6.08718e+12 -6.74129e+12 -6.88744e+12 -5.27355e+12 -6.74238e+12 -8.04274e+12 -9.27927e+12 -5.41273e+12 -1.09639e+13 -5.67036e+12 -5.56895e+12 -3.7403e+12 -3.26407e+12 -7.42504e+12 -4.74381e+12 -3.8295e+12 -6.98498e+12 -6.45294e+12 -9.19408e+12 -5.94201e+12 -6.73042e+12 -7.35447e+12 -6.47472e+12 -5.18043e+12 -4.91414e+12 -6.00428e+12 -5.08378e+12 -8.84559e+12 -5.14535e+12 -4.09596e+12 -6.94612e+12 -6.09995e+12 -6.54822e+12 -6.85547e+12 -7.86689e+12 -3.88521e+12 -3.40044e+12 -4.11036e+12 -4.67256e+12 -2.97809e+12 -3.94258e+12 -18963600000.0 -24608000000.0 -27994200000.0 -21807000000.0 -19763500000.0 -20737200000.0 -24180900000.0 -19304700000.0 -17106000000.0 -19072800000.0 -16112800000.0 -31736800000.0 -31369200000.0 -25983200000.0 -80569000000.0 -28322300000.0 -13042800000.0 -12549000000.0 -51020300000.0 -27880100000.0 -5.14352e+12 -4.80818e+12 -3.73034e+12 -4.4597e+12 -6.56472e+12 -5.97294e+12 -3.83449e+12 -9.9411e+12 -7.71164e+12 -5.94959e+12 -4.51635e+12 -4.07335e+12 -7.48628e+12 -7.10407e+12 -4.22298e+12 -4.18124e+12 -5.50445e+12 -9.44578e+12 -9.85575e+12 -5.6999e+12 -6.55535e+12 -7.9287e+12 -6.86207e+12 -1.05324e+13 -7.57479e+12 -5.45287e+12 -8.10959e+12 -6.59816e+12 -5.57982e+12 -5.52301e+12 -8.97389e+12 -5.06652e+12 -6.07986e+12 -9.64642e+12 -7.34547e+12 -5.84134e+12 -5.64731e+12 -6.38306e+12 -4.79257e+12 -6.73966e+12 -6.47033e+12 -6.865e+12 -8.35836e+12 -6.55064e+12 -6.8654e+12 -6.63867e+12 -6.98249e+12 -7.74978e+12 -5.44719e+12 -6.03893e+12 -5.19553e+12 -6.5708e+12 -4.5424e+12 -6.32361e+12 -8.14891e+12 -5.1516e+12 -6.7834e+12 -5.43302e+12 -5.49491e+12 -6.98653e+12 -6.68766e+12 -6.65698e+12 -3.72103e+12 -7.10027e+12 -8.10544e+12 -7.55762e+12 -4.72585e+12 -5.91093e+12 -5.74753e+12 -5.78963e+12 -5.42094e+12 -9.76488e+12 -7.07411e+12 -6.63751e+12 -8.28806e+12 -4.07809e+12 -3.30031e+12 -2.52866e+12 -5.24449e+12 -7.95624e+12 -6.18241e+12 -7.73404e+12 -4.05179e+12 -7.03552e+12 -4.58502e+12 -4.74744e+12 -6.85877e+12 -8.87341e+12 -5.37217e+12 -2.28467e+12 -4.19619e+12 -3.41075e+12 -4.57869e+12 -2.38478e+12 -5.84868e+12 -6.5428e+12 -5.58908e+12 -3.75148e+12 -7.29773e+12 -2.51596e+12 -5.67727e+12 -7.12442e+12 -6.10145e+12 -5.64592e+12 -6.00761e+12 -8.79741e+12 -8.68018e+12 -6.23143e+12 -5.30593e+12 -5.93795e+12 -5.48384e+12 -6.9172e+12 -4.69695e+12 -7.95153e+12 -5.22631e+12 -6.15468e+12 -7.41707e+12 -6.51363e+12 -4.6815e+12 -7.38577e+12 -6.73118e+12 -7.2133e+12 -3.1225e+12 -3.98179e+12 -3.06837e+12 -4.84496e+12 -7.24905e+12 -5.83763e+12 -7.88474e+12 -6.95326e+12 -5.38069e+12 -9.42827e+12 -4.38954e+12 -3.02546e+12 -4.15789e+12 -6.52692e+12 -6.45158e+12 -1.03411e+13 -3.34222e+12 -4.6028e+12 -7.96348e+12 -6.47018e+12 -7.076e+12 -3.27336e+12 -3.72719e+12 -4.74762e+12 -2.6868e+12 -20491400000.0 -22117400000.0 -14044100000.0 -13889500000.0 -15328100000.0 -16912100000.0 -14874400000.0 -14380800000.0 -18127700000.0 -13078100000.0 -25508900000.0 -20712400000.0 -35659200000.0 -15292300000.0 -66179400000.0 -99410000000.0 -66313600000.0 -16411600000.0 -14020200000.0 -5.02636e+12 -7.21129e+12 -4.31e+12 -8.50443e+12 -7.71351e+12 -5.51693e+12 -1.01461e+13 -3.16014e+12 -2.4178e+12 -4.77523e+12 -6.76188e+12 -5.21912e+12 -7.15535e+12 -8.65462e+12 -6.13085e+12 -6.11066e+12 -1.01304e+13 -6.11647e+12 -1.03079e+13 -8.23928e+12 -5.14261e+12 -6.81252e+12 -5.25518e+12 -5.15852e+12 -7.32043e+12 -6.647e+12 -6.17913e+12 -4.21017e+12 -6.21245e+12 -9.87141e+12 -8.57611e+12 -5.08799e+12 -7.64414e+12 -7.93746e+12 -3.6373e+12 -4.5511e+12 -4.68156e+12 -7.77203e+12 -5.91559e+12 -7.96186e+12 -5.90082e+12 -5.04637e+12 -5.71773e+12 -6.29905e+12 -1.6482e+12 -5.49668e+12 -2.96325e+12 -4.13934e+12 -7.10721e+12 -9.84369e+12 -5.11787e+12 -6.39951e+12 -4.05619e+12 -3.84236e+12 -3.82038e+12 -5.69693e+12 -7.30173e+12 -4.00885e+12 -5.64223e+12 -7.99496e+12 -4.01242e+12 -5.06093e+12 -5.0487e+12 -7.74761e+12 -7.73647e+12 -8.77732e+12 -5.20718e+12 -4.41106e+12 -4.85169e+12 -6.36744e+12 -7.04134e+12 -6.92727e+12 -5.12793e+12 -6.14427e+12 -5.65515e+12 -5.75122e+12 -6.85258e+12 -4.27845e+12 -6.42636e+12 -1.63204e+12 -6.49475e+12 -3.6212e+12 -5.79996e+12 -5.79525e+12 -4.32356e+12 -4.9866e+12 -6.15934e+12 -5.51925e+12 -5.03497e+12 -6.10065e+12 -6.51455e+12 -4.05834e+12 -4.9842e+12 -3.95351e+12 -8.3504e+12 -7.27112e+12 -6.21984e+12 -8.06785e+12 -6.15985e+12 -6.81263e+12 -5.69703e+12 -4.00022e+12 -8.688e+12 -4.74561e+12 -6.0292e+12 -5.62245e+12 -6.41484e+12 -8.29603e+12 -5.67326e+12 -3.81414e+12 -9.72861e+12 -5.05424e+12 -8.81697e+12 -4.54051e+12 -5.82389e+12 -3.89446e+12 -5.51612e+12 -4.75299e+12 -6.87397e+12 -6.97874e+12 -6.11926e+12 -3.92471e+12 -7.85425e+12 -5.49458e+12 -6.06704e+12 -6.7543e+12 -4.24994e+12 -6.54714e+12 -6.40886e+12 -5.19486e+12 -13466000000.0 -43227600000.0 -39158900000.0 -74976900000.0 -14402400000.0 -12549700000.0 -14872500000.0 -16390300000.0 -16068100000.0 -12549700000.0 -20561100000.0 -17368100000.0 -37269900000.0 -33031800000.0 -40287600000.0 -59553600000.0 -64894100000.0 -20802700000.0 -31223600000.0 -21102800000.0 -14810300000.0 -4.02674e+12 -4.22024e+12 -3.06306e+12 -1.93622e+12 -4.32092e+12 -4.56366e+12 -5.94418e+12 -6.4815e+12 -1.05224e+13 -7.53845e+12 -6.54523e+12 -3.00619e+12 -4.4822e+12 -5.52089e+12 -2.47842e+12 -3.96007e+12 -5.18695e+12 -4.21766e+12 -3.77849e+12 -5.35932e+12 -7.733e+12 -5.36459e+12 -5.03625e+12 -3.54138e+12 -9.69815e+12 -5.67197e+12 -3.61844e+12 -8.95669e+12 -9.38688e+12 -2.70252e+12 -5.04637e+12 -7.4873e+12 -4.65499e+12 -4.33274e+12 -5.65124e+12 -7.29706e+12 -4.65244e+12 -6.15197e+12 -6.02274e+12 -5.8285e+12 -6.05883e+12 -3.9286e+12 -5.96859e+12 -5.43156e+12 -5.92358e+12 -7.28065e+12 -8.05336e+12 -5.75941e+12 -5.72183e+12 -5.89285e+12 -8.08338e+12 -3.97611e+12 -3.82903e+12 -4.21966e+12 -6.22395e+12 -5.48721e+12 -3.48613e+12 -4.26459e+12 -5.23501e+12 -4.42927e+12 -6.52864e+12 -3.33815e+12 -4.58514e+12 -3.37038e+12 -6.8549e+12 -4.14127e+12 -4.1282e+12 -3.08114e+12 -2.09311e+12 -6.39667e+12 -3.73077e+12 -4.39256e+12 -4.90871e+12 -8.85769e+12 -4.28228e+12 -6.9798e+12 -6.58109e+12 -9.56427e+12 -4.88557e+12 -4.18326e+12 -3.96757e+12 -4.50208e+12 -9.31808e+12 -5.42408e+12 -4.95217e+12 -4.46783e+12 -4.19225e+12 -4.76334e+12 -3.81277e+12 -4.86911e+12 -2.8193e+12 -3.99566e+12 -6.66936e+12 -4.55561e+12 -4.07332e+12 -7.05319e+12 -6.55815e+12 -7.79575e+12 -4.56131e+12 -4.21194e+12 -3.46362e+12 -4.99769e+12 -2.27247e+12 -4.17908e+12 -4.06704e+12 -4.96711e+12 -7.69414e+12 -6.55858e+12 -5.59375e+12 -4.00628e+12 -5.06954e+12 -5.10189e+12 -3.02575e+12 -5.31309e+12 -6.04222e+12 -3.75006e+12 -4.49877e+12 -2.74204e+12 -7.3205e+12 -5.86688e+12 -5.61847e+12 -4.51815e+12 -5.15668e+12 -5.9269e+12 -3.62536e+12 -2.37082e+12 -2.12851e+12 -88007400000.0 -64711100000.0 -26227000000.0 -19543000000.0 -16684100000.0 -14668800000.0 -16943300000.0 -13894100000.0 -16981000000.0 -40535500000.0 -37401000000.0 -19063100000.0 -21993300000.0 -33966400000.0 -13117700000.0 -16244000000.0 -14718200000.0 -12678600000.0 -14198000000.0 -4.8529e+12 -3.65588e+12 -5.10311e+12 -4.29894e+12 -3.25151e+12 -5.50261e+12 -4.35364e+12 -4.80839e+12 -7.43263e+12 -3.44538e+12 -3.97348e+12 -8.08964e+12 -4.93305e+12 -6.83978e+12 -4.25462e+12 -4.21892e+12 -5.63056e+12 -5.42463e+12 -6.68626e+12 -7.09115e+12 -3.5714e+12 -2.6173e+12 -4.14399e+12 -8.93471e+12 -5.20866e+12 -3.51844e+12 -3.4136e+12 -2.89601e+12 -2.71973e+12 -2.16724e+12 -3.59951e+12 -3.56383e+12 -8.07703e+12 -3.33288e+12 -2.65772e+12 -3.96874e+12 -4.0602e+12 -2.37402e+12 -5.69432e+12 -6.57164e+12 -7.46091e+12 -6.95776e+12 -6.652e+12 -3.41348e+12 -2.82972e+12 -3.30252e+12 -6.08012e+12 -5.759e+12 -4.32682e+12 -5.93897e+12 -5.6803e+12 -4.91099e+12 -5.25332e+12 -4.26387e+12 -4.36087e+12 -4.17487e+12 -5.33489e+12 -7.21161e+12 -5.60952e+12 -6.24767e+12 -3.5206e+12 -7.62259e+12 -1.95276e+12 -5.87903e+12 -5.61264e+12 -4.11243e+12 -2.77937e+12 -9.79387e+12 -4.11069e+12 -6.44009e+12 -7.7001e+12 -570752000000.0 -5.2366e+12 -3.97187e+12 -5.77571e+12 -4.115e+12 -4.83138e+12 -5.33211e+12 -4.66269e+12 -5.09738e+12 -4.36993e+12 -6.03783e+12 -4.62798e+12 -1.62225e+12 -4.73127e+12 -6.00701e+12 -4.69493e+12 -4.62087e+12 -5.0477e+12 -2.65627e+12 -6.56311e+12 -4.06405e+12 -5.51583e+12 -5.84395e+12 -7.17932e+12 -3.21444e+12 -7.13455e+12 -3.87638e+12 -6.73797e+12 -2.64892e+12 -5.87649e+12 -6.08856e+12 -5.40547e+12 -6.90771e+12 -3.17583e+12 -3.49852e+12 -6.28252e+12 -4.78854e+12 -7.20945e+12 -6.40315e+12 -6.34229e+12 -3.02687e+12 -4.67559e+12 -4.55594e+12 -3.41576e+12 -4.32157e+12 -2.93266e+12 -5.43544e+12 -2.06585e+12 -2.88362e+12 -136189000000.0 -88252800000.0 -85738500000.0 -67586200000.0 -55757500000.0 -54536400000.0 -56155100000.0 -45868100000.0 -38375400000.0 -12782000000.0 -13975700000.0 -14431500000.0 -12891900000.0 -19022000000.0 -12725700000.0 -14211400000.0 -32703500000.0 -77179600000.0 -13025600000.0 -99244000000.0 -4.7059e+12 -6.76003e+12 -4.17985e+12 -4.15169e+12 -3.50687e+12 -3.3808e+12 -3.56141e+12 -6.20788e+12 -3.32142e+12 -4.1569e+12 -3.61144e+12 -4.78941e+12 -5.98318e+12 -4.81189e+12 -3.71101e+12 -3.9815e+12 -3.0263e+12 -3.44726e+12 -4.80116e+12 -5.27984e+12 -3.01406e+12 -3.23252e+12 -5.92155e+12 -2.37329e+12 -4.88949e+12 -3.9768e+12 -5.60279e+12 -4.85814e+12 -2.97987e+12 -1.70491e+12 -3.46815e+12 -5.59156e+12 -5.63455e+12 -4.30177e+12 -6.30666e+12 -5.60631e+12 -5.76521e+12 -4.83567e+12 -2.45454e+12 -4.15494e+12 -4.05325e+12 -2.43497e+12 -6.66735e+12 -2.25656e+12 -2.70811e+12 -4.17973e+12 -3.88381e+12 -5.79684e+12 -6.32686e+12 -4.62992e+12 -3.02945e+12 -5.00156e+12 -2.86244e+12 -5.16107e+12 -3.78166e+12 -5.42384e+12 -6.343e+12 -3.1194e+12 -4.69298e+12 -5.41152e+12 -4.09201e+12 -5.12176e+12 -3.09073e+12 -2.36367e+12 -2.71099e+12 -5.99647e+12 -5.97127e+12 -4.17146e+12 -5.55439e+12 -3.72941e+12 -4.561e+12 -5.85633e+12 -5.15636e+12 -5.60701e+12 -5.69981e+12 -3.34001e+12 -3.97635e+12 -5.01759e+12 -3.17721e+12 -2.91343e+12 -3.11848e+12 -5.97503e+12 -5.46985e+12 -3.94965e+12 -3.75021e+12 -1.44636e+12 -4.06991e+12 -3.36423e+12 -4.09027e+12 -3.52666e+12 -2.83636e+12 -4.72353e+12 -3.72988e+12 -8.32066e+12 -3.55273e+12 -5.21166e+12 -3.0944e+12 -2.52314e+12 -6.07845e+12 -2.93996e+12 -4.90796e+12 -4.16834e+12 -3.69715e+12 -4.17251e+12 -3.60832e+12 -3.29727e+12 -5.49285e+12 -5.01387e+12 -673443000000.0 -2.52791e+12 -5.00965e+12 -4.97396e+12 -4.13905e+12 -4.40322e+12 -4.25992e+12 -6.17572e+12 -2.30983e+12 -1.79601e+12 -129166000000.0 -4.48551e+12 -5.24526e+12 -5.6079e+12 -3.36656e+12 -6.52425e+12 -4.49322e+12 -3.59737e+12 -3.31701e+12 -2.49106e+12 -3.65926e+12 -3.38415e+12 -3.83249e+12 -6.39295e+12 -3.5196e+12 -7.8759e+12 -2.46396e+12 -5.07975e+12 -2.5896e+12 -4.34404e+12 -3.19335e+12 -3.45278e+12 -3.37283e+12 -3.59465e+12 -4.72824e+12 -5.43738e+12 -3.45022e+12 -3.5249e+12 -2.98381e+12 -2.20288e+12 -1.35638e+12 -4.34277e+12 -4.00443e+12 -4.40632e+12 -1.56283e+12 -3.6404e+12 -2.37891e+12 -3.589e+12 -4.62185e+12 -4.92627e+12 -3.37539e+12 -2.72866e+12 -1.53249e+12 -3.306e+12 -3.42527e+12 -6.51768e+12 -4.47984e+12 -3.73866e+12 -4.1911e+12 -2.69829e+12 -2.61482e+12 -2.27457e+12 -4.409e+12 -3.91317e+12 -4.29857e+12 -2.26719e+12 -3.64899e+12 -1.89887e+12 -2.89813e+12 -3.02109e+12 -4.49685e+12 -2.55527e+12 -4.73162e+12 -4.18474e+12 -1.9542e+12 -2.50631e+12 -3.90737e+12 -3.7048e+12 -3.52309e+12 -4.26775e+12 -2.84079e+12 -2.97233e+12 -2.85179e+12 -3.35649e+12 -3.62958e+12 -3.0446e+12 -2.73296e+12 -2.73807e+12 -3.28368e+12 -2.17142e+12 -2.35502e+12 -4.00817e+12 -1.82061e+12 -4.36125e+12 -3.19019e+12 -2.28288e+12 -3.95456e+12 -2.38647e+12 -3.27199e+12 -4.04571e+12 -2.15973e+12 -2.45545e+12 -3.31453e+12 -3.32618e+12 -2.54807e+12 -3.4167e+12 -3.7408e+12 -2.76022e+12 -3.69856e+12 -3.26667e+12 -4.32936e+12 -5.26547e+12 -5.2424e+12 -3.4053e+12 -4.54692e+12 -2.91351e+12 -4.08915e+12 -3.19733e+12 -1.86154e+12 -4.04506e+12 -3.24785e+12 -4.72e+12 -1.58856e+12 -3.75118e+12 -4.06541e+12 -5.26764e+12 -2.68695e+12 -4.28731e+12 -6.19714e+12 -2.37369e+12 -5.38445e+12 -2.51591e+12 -5.80165e+12 -6.36922e+12 -4.39074e+12 -4.24599e+12 -2.02052e+12 -2.94575e+12 -2.5738e+12 -2.13935e+12 -1.71394e+12 -2.39041e+12 -4.22528e+12 -2.21561e+12 -2.8002e+12 -4.04952e+12 -758758000000.0 -3.39644e+12 -738282000000.0 -3.61383e+12 -4.21306e+12 -2.91937e+12 -5.23853e+12 -3.69201e+12 -3.52193e+12 -1.99977e+12 -3.56921e+12 -3.78406e+12 -1.88154e+12 -2.47208e+12 -3.0536e+12 -3.63406e+12 -3.49767e+12 -1.88494e+12 -2.29245e+12 -3.91216e+12 -3.17042e+12 -2.23143e+12 -2.71081e+12 -4.07398e+12 -3.77275e+12 -4.02103e+12 -6.63817e+12 -3.82481e+12 -3.25799e+12 -1.85916e+12 -2.05309e+12 -2.00972e+12 -2.30398e+12 -2.81708e+12 -4.14084e+12 -184870000000.0 -2.81822e+12 -1.97932e+12 -1.65421e+12 -3.62063e+12 -4.40145e+12 -2.46066e+12 -1.93979e+12 -1.49774e+12 -1.38868e+12 -2.77592e+12 -3.02101e+12 -2.83438e+12 -2.5436e+12 -3.29175e+12 -5.40325e+12 -3.61338e+12 -2.26568e+12 -2.21048e+12 -3.08109e+12 -3.69731e+12 -2.78672e+12 -2.68904e+12 -2.39628e+12 -2.67116e+12 -3.55985e+12 -4.9316e+12 -1.7692e+12 -3.5685e+12 -4.31119e+12 -5.07805e+12 -3.14417e+12 -2.96173e+12 -1.25553e+12 -2.67721e+12 -2.53895e+12 -1.68994e+12 -2.22564e+12 -2.21134e+12 -2.86677e+12 -3.15587e+12 -1.44594e+12 -3.90575e+12 -2.97841e+12 -3.86108e+12 -3.19869e+12 -1.21639e+12 -4.41443e+12 -2.03725e+12 -881733000000.0 -2.63745e+12 -2.70831e+12 -1.58139e+12 -1.58095e+12 -3.14922e+12 -5.40856e+12 -1.78546e+12 -2.48204e+12 -3.74272e+12 -3.4171e+12 -1.70665e+12 -2.65543e+12 -2.72752e+12 -3.31522e+12 -1.43646e+12 -5.03225e+12 -3.02807e+12 -1.39786e+12 -2.50372e+12 -3.33343e+12 -2.85259e+12 -2.24405e+12 -2.0786e+12 -2.12926e+12 -2.18633e+12 -4.24424e+12 -1.85878e+12 -2.97988e+12 -5.01286e+12 -2.41814e+12 -3.282e+12 -4.02632e+12 -3.47056e+12 -1.80874e+12 -3.131e+12 -1.45313e+12 -2.99732e+12 -2.18939e+12 -3.14362e+12 -3.38534e+12 -3.95246e+12 -3.45833e+12 -3.0509e+12 -3.12906e+12 -2.54168e+12 -2.18793e+12 -1.14343e+12 -2.14659e+12 -2.92184e+12 -1.34212e+12 -3.2842e+12 -936915000000.0 -2.30039e+12 -1.51705e+12 -2.54554e+12 -1.87192e+12 -2.18219e+12 -2.62016e+12 -1.86884e+12 -2.25782e+12 -1.28006e+12 -3.37262e+12 -2.46166e+12 -1.5702e+12 -2.10943e+12 -1.78337e+12 -1.34293e+12 -2.0129e+12 -2.83394e+12 -1.0127e+12 -2.05223e+12 -2.31374e+12 -1.60712e+12 -2.52808e+12 -1.38194e+12 -2.59949e+12 -1.31645e+12 -1.61683e+12 -2.5263e+12 -5.49375e+12 -3.88313e+12 -2.93336e+12 -1.87976e+12 -1.39486e+12 -2.33544e+12 -4.08266e+12 -1.21952e+12 -4.12957e+12 -1.79798e+12 -1.39088e+12 -2.33251e+12 -1.39634e+12 -2.15928e+12 -1.5769e+12 -1.82512e+12 -1.19952e+12 -1.83076e+12 -2.64624e+12 -1.52229e+12 -941873000000.0 -1.5159e+12 -2.17565e+12 -2.23577e+12 -1.24864e+12 -3.40594e+12 -2.27192e+12 -1.05358e+12 -3.75705e+12 -2.828e+12 -2.85752e+12 -2.17167e+12 -2.14728e+12 -3.29646e+12 -1.99008e+12 -1.56199e+12 -3.07214e+12 -1.45838e+12 -2.72887e+12 -2.14977e+12 -3.21444e+12 -1.07337e+12 -1.96457e+12 -2.23438e+12 -1.87854e+12 -1.53477e+12 -1.38837e+12 -1.34253e+12 -2.78958e+12 -2.27057e+12 -3.85454e+12 -2.91221e+12 -2.63227e+12 -4.06301e+12 -2.6973e+12 -2.82327e+12 -2.47591e+12 -1.32154e+12 -2.26544e+12 -1.49922e+12 -3.08321e+12 -2.72634e+12 -1.96621e+12 -3.10961e+12 -2.82771e+12 -3.68447e+12 -1.22438e+12 -1.93683e+12 -3.44269e+12 -3.11472e+12 -2.8992e+12 -1.63632e+12 -2.49099e+12 -2.09931e+12 -2.33914e+12 -3.02843e+12 -1.74885e+12 -2.1321e+12 -1.77869e+12 -274975000000.0 -1.08259e+12 -753657000000.0 -1.69421e+12 -1.64171e+12 -1.28682e+12 -1.11828e+12 -2.11349e+12 -1.33549e+12 -1.62431e+12 -1.46572e+12 -2.30486e+12 -2.39671e+12 -2.32447e+12 -1.64892e+12 -1.59013e+12 -1.34272e+12 -1.05871e+12 -2.39284e+12 -2.41604e+12 -2.01049e+12 -2.83536e+12 -1.39686e+12 -1.33388e+12 -2.06268e+12 -562761000000.0 -1.50937e+12 -2.26794e+12 -1.11259e+12 -1.44396e+12 -2.07754e+12 -2.4161e+12 -959052000000.0 -684942000000.0 -1.43427e+12 -1.39996e+12 -2.8848e+12 -2.85128e+12 -1.87517e+12 -1.42997e+12 -1.38567e+12 -1.98194e+12 -2.8787e+12 -2.52609e+12 -1.24625e+12 -1.58134e+12 -1.0854e+12 -1.16373e+12 -1.8073e+12 -1.90225e+12 -625988000000.0 -1.2569e+12 -2.15903e+12 -1.64715e+12 -2.31507e+12 -1.50371e+12 -2.79936e+12 -1.49965e+12 -1.4106e+12 -1.93076e+12 -2.11455e+12 -1.37885e+12 -1.7743e+12 -2.05305e+12 -1.6629e+12 -1.03858e+12 -897084000000.0 -2.4265e+12 -1.22738e+12 -1.26817e+12 -1.73928e+12 -1.49883e+12 -1.98452e+12 -1.73909e+12 -1.31473e+12 -1.22412e+12 -1.82933e+12 -922028000000.0 -2.14322e+12 -1.6447e+12 -1.89262e+12 -2.24859e+12 -2.6855e+12 -1.50956e+12 -1.18313e+12 -1.67007e+12 -2.0792e+12 -2.02199e+12 -546066000000.0 -1.71659e+12 -1.01887e+12 -891527000000.0 -1.10801e+12 -1.8739e+12 -412594000000.0 -1.09261e+12 -533957000000.0 -1.90168e+12 -1.006e+12 -731595000000.0 -1.06346e+12 -1.0086e+12 -868626000000.0 -1.37479e+12 -1.36678e+12 -1.17487e+12 -1.16886e+12 -778485000000.0 -1.64494e+12 -772568000000.0 -1.06629e+12 -1.14065e+12 -1.10821e+12 -1.16476e+12 -599958000000.0 -1.01028e+12 -1.00063e+12 -1.85656e+12 -1.007e+12 -1.11973e+12 -679455000000.0 -994484000000.0 -863375000000.0 -1.13797e+12 -1.18991e+12 -891453000000.0 -816937000000.0 -297039000000.0 -367362000000.0 -936753000000.0 -1.70881e+12 -973182000000.0 -2.0335e+12 -398265000000.0 -1.02214e+12 -398571000000.0 -1.88631e+12 -707598000000.0 -533278000000.0 -1.44782e+12 -619125000000.0 -822558000000.0 -2.09275e+12 -1.65354e+12 -2.32305e+12 -1.01938e+12 -419539000000.0 -1.52427e+12 -856232000000.0 -1.62418e+12 -1.44828e+12 -1.2508e+12 -1.90268e+12 -1.63882e+12 -1.1992e+12 -649816000000.0 -1.14545e+12 -746493000000.0 -129117000000.0 -885567000000.0 -869918000000.0 -683772000000.0 -1.12883e+12 -575285000000.0 -785772000000.0 -1.18886e+12 -736589000000.0 -2.0529e+12 -548207000000.0 -1.31664e+12 -947845000000.0 -403112000000.0 -1.21184e+12 -1.65276e+12 -1.99595e+12 -389942000000.0 -1.21234e+12 -1.19054e+12 -869997000000.0 -840340000000.0 -198240000000.0 -84404000000.0 -1.02631e+12 -722769000000.0 -405932000000.0 -675901000000.0 -467145000000.0 -268715000000.0 -274776000000.0 -635736000000.0 -468464000000.0 -247293000000.0 -281889000000.0 -166431000000.0 -339112000000.0 -206166000000.0 -68881400000.0 -163268000000.0 -858478000000.0 -330835000000.0 -902829000000.0 -251149000000.0 -158520000000.0 -156608000000.0 -136059000000.0 -125236000000.0 -541533000000.0 -461389000000.0 -558737000000.0 -860220000000.0 -603936000000.0 -389099000000.0 -979987000000.0 -308468000000.0 -146967000000.0 -305391000000.0 -273679000000.0 -171746000000.0 -241120000000.0 -450978000000.0 -274749000000.0 -419192000000.0 -228436000000.0 -629852000000.0 -446081000000.0 -507883000000.0 -160408000000.0 -680626000000.0 -765710000000.0 -612691000000.0 -393436000000.0 -282623000000.0 -329830000000.0 -756269000000.0 -160022000000.0 -593996000000.0 -311788000000.0 -87631300000.0 -1.06535e+12 -140399000000.0 -185585000000.0 -382333000000.0 -331418000000.0 -319935000000.0 -222175000000.0 -214503000000.0 -252732000000.0 -372335000000.0 -334884000000.0 -359880000000.0 -200009000000.0 -210773000000.0 -427272000000.0 -171510000000.0 -618683000000.0 -331804000000.0 -518158000000.0 -625841000000.0 -293743000000.0 -165520000000.0 -655380000000.0 -238175000000.0 -252914000000.0 -170972000000.0 -592844000000.0 -230359000000.0 -196646000000.0 -306583000000.0 