# vtk DataFile Version 2.0
Time step 58
ASCII
DATASET UNSTRUCTURED_GRID
POINTS 5000 float
2398.29 48245.7 0
8534.13 47619.0 0
12439.0 47453.2 0
16747.6 46771.0 0
22243.6 48419.0 0
27669.2 45154.1 0
33205.1 47841.5 0
38185.3 48425.3 0
42703.9 48578.7 0
47472.2 48484.8 0
52137.1 48584.5 0
57004.9 47424.1 0
62763.5 48499.9 0
67994.7 48633.4 0
72702.5 47765.8 0
77500.0 48512.8 0
82500.0 48502.1 0
87407.7 47800.3 0
92500.0 48540.2 0
97192.5 48561.7 0
101292.0 48478.8 0
105946.0 47868.3 0
111936.0 48347.5 0
117850.0 48532.6 0
123330.0 48609.3 0
128345.0 48730.2 0
133428.0 47978.9 0
138124.0 48662.4 0
142500.0 48583.5 0
147500.0 48517.1 0
152501.0 48486.9 0
157589.0 48114.4 0
162561.0 48269.6 0
167010.0 47811.3 0
171830.0 46694.2 0
177734.0 46732.5 0
182938.0 45918.8 0
187393.0 47773.6 0
192498.0 48935.4 0
196079.0 48097.7 0
201747.0 47458.1 0
207650.0 48222.3 0
212984.0 47557.7 0
218128.0 48643.8 0
222479.0 48656.2 0
225794.0 47885.2 0
230434.0 47757.3 0
235810.0 48755.3 0
241170.0 47459.6 0
252680.0 47445.0 0
259052.0 47919.6 0
263773.0 49008.2 0
268740.0 47917.0 0
273935.0 48212.2 0
278881.0 46863.8 0
286325.0 48503.9 0
291717.0 48959.9 0
297319.0 46828.4 0
303664.0 47612.4 0
312126.0 48037.4 0
317929.0 48654.1 0
323245.0 48559.7 0
327581.0 48830.8 0
332206.0 48429.4 0
337223.0 48138.5 0
345896.0 47684.3 0
355258.0 48590.5 0
361815.0 47231.1 0
372012.0 45248.6 0
367954.0 48564.1 0
377031.0 47220.2 0
382609.0 48094.5 0
388132.0 47395.4 0
394019.0 46711.2 0
399200.0 48379.8 0
403650.0 45637.0 0
408587.0 46849.2 0
412474.0 48499.9 0
417500.0 48545.9 0
422737.0 46656.7 0
427271.0 48365.2 0
432478.0 46168.5 0
437541.0 48522.1 0
442088.0 47463.8 0
446251.0 47044.5 0
450665.0 47812.2 0
455208.0 47751.9 0
460242.0 47595.5 0
465793.0 47985.0 0
471628.0 47241.5 0
477063.0 46045.0 0
481305.0 48908.3 0
485844.0 45977.4 0
491674.0 47516.0 0
497601.0 46009.4 0
2284.56 53259.8 0
6062.54 50939.0 0
11087.3 51971.2 0
17332.6 52673.2 0
23005.6 53929.0 0
28519.6 51505.7 0
34969.4 53116.1 0
40341.9 53434.5 0
44464.7 53776.2 0
48279.9 52479.3 0
52500.0 53544.7 0
57995.3 52865.4 0
62850.0 53599.4 0
67505.2 53271.2 0
72115.8 52885.5 0
77500.0 53670.9 0
82116.1 53317.0 0
87907.8 52558.1 0
92500.0 53679.9 0
97183.4 53308.6 0
102467.0 53213.4 0
108243.0 52459.4 0
112500.0 53616.2 0
117500.0 53697.7 0
122500.0 53620.6 0
127727.0 53163.3 0
132494.0 53514.1 0
137520.0 53528.9 0
142774.0 53006.1 0
146926.0 53354.2 0
151937.0 53231.7 0
156860.0 52163.6 0
161296.0 52983.8 0
166509.0 52483.0 0
172971.0 52263.2 0
178375.0 52144.8 0
183533.0 50986.9 0
188604.0 52219.1 0
193571.0 53079.5 0
198250.0 52442.4 0
203920.0 53077.8 0
213692.0 52108.1 0
209357.0 53292.1 0
217601.0 53714.5 0
222032.0 53480.5 0
226801.0 52120.2 0
232205.0 53182.2 0
237686.0 54006.6 0
243283.0 53830.7 0
246502.0 49461.0 0
248462.0 53534.5 0
252678.0 54005.1 0
257263.0 52558.1 0
262325.0 53183.7 0
267061.0 52759.8 0
271610.0 52062.9 0
277075.0 52466.7 0
282030.0 50196.3 0
282828.0 53882.9 0
287500.0 53594.2 0
292913.0 53451.0 0
298250.0 52338.8 0
303119.0 53282.9 0
307730.0 50182.8 0
307441.0 53475.7 0
312501.0 53788.8 0
317474.0 53529.3 0
322433.0 53027.6 0
327500.0 53574.5 0
332500.0 53646.8 0
341019.0 49349.4 0
337713.0 52979.8 0
343308.0 52374.5 0
350686.0 49607.6 0
347752.0 52770.5 0
352668.0 53497.4 0
361440.0 52543.7 0
357754.0 53010.7 0
365113.0 52235.7 0
372930.0 52049.4 0
378819.0 51771.1 0
382004.0 52909.4 0
388375.0 52483.6 0
393554.0 52858.3 0
402999.0 51836.5 0
398136.0 53293.2 0
408388.0 51130.0 0
412865.0 52441.9 0
417520.0 53061.6 0
422128.0 51293.3 0
428327.0 53307.5 0
433429.0 51401.6 0
437510.0 53590.6 0
443214.0 51746.0 0
447602.0 51054.6 0
451946.0 52289.7 0
457177.0 52478.8 0
462429.0 53969.1 0
466599.0 52554.7 0
470193.0 53735.0 0
475181.0 52534.6 0
480797.0 54183.2 0
486589.0 52166.4 0
496837.0 51518.6 0
2238.62 59183.9 0
6738.89 55984.2 0
11843.3 57800.4 0
16323.3 57880.4 0
20502.9 57890.3 0
27043.9 58338.4 0
32616.0 58171.7 0
38263.9 57947.2 0
42970.8 58334.3 0
47589.1 57200.3 0
51800.7 58965.4 0
56554.7 58485.6 0
62115.3 58455.2 0
67697.9 58115.1 0
73695.3 58428.2 0
78211.1 58868.3 0
81954.5 58043.2 0
86960.3 58073.9 0
92531.5 58430.8 0
97548.4 57827.9 0
102630.0 58975.4 0
107924.0 57239.3 0
116732.0 58300.8 0
112494.0 58512.9 0
120857.0 58151.0 0
125864.0 57531.3 0
131158.0 59230.1 0
136445.0 59182.4 0
140992.0 57126.9 0
146305.0 58245.4 0
156244.0 56724.2 0
161703.0 58674.4 0
169996.0 57049.6 0
176293.0 57902.5 0
182187.0 56125.8 0
188048.0 58380.7 0
194261.0 58105.7 0
199972.0 57547.4 0
208111.0 58200.7 0
204288.0 58542.6 0
213300.0 56918.9 0
217709.0 58648.2 0
222564.0 57754.9 0
226872.0 57125.1 0
232444.0 58646.9 0
237422.0 58432.5 0
241792.0 59085.8 0
246841.0 57602.5 0
251784.0 58896.2 0
257738.0 57310.1 0
262720.0 57961.3 0
267490.0 57214.3 0
273047.0 57302.9 0
279878.0 56530.2 0
283554.0 58815.7 0
287215.0 58883.3 0
291016.0 57757.2 0
296734.0 57382.2 0
302233.0 58517.8 0
307700.0 57905.5 0
313207.0 59030.8 0
318188.0 58019.3 0
322509.0 57032.9 0
326812.0 58914.4 0
336512.0 57644.4 0
331856.0 58629.8 0
341414.0 56579.9 0
346846.0 57157.1 0
351893.0 58332.4 0
356026.0 56884.8 0
361261.0 57245.8 0
366513.0 56316.6 0
371101.0 58190.0 0
377673.0 57706.1 0
384354.0 56247.0 0
392424.0 57681.0 0
388338.0 59435.2 0
397217.0 57640.8 0
402858.0 58077.5 0
409244.0 56774.9 0
414413.0 59329.2 0
419145.0 57750.8 0
424121.0 56110.6 0
427686.0 59146.7 0
432250.0 57024.9 0
437342.0 57761.8 0
442359.0 56983.0 0
448276.0 56127.5 0
454179.0 57693.8 0
458993.0 58743.6 0
463188.0 58506.6 0
467519.0 58613.1 0
472372.0 57057.1 0
477746.0 58005.0 0
482622.0 58878.0 0
492077.0 54416.8 0
491506.0 58478.2 0
496591.0 58087.3 0
2182.12 63598.0 0
8050.23 61824.7 0
13472.0 62427.3 0
17752.4 61724.8 0
22417.4 62263.9 0
26989.1 64261.2 0
32073.0 62459.1 0
37589.6 63152.0 0
43206.3 63397.4 0
49063.6 61991.7 0
53807.2 63666.1 0
59223.1 63164.4 0
63617.0 62786.8 0
68064.9 63786.9 0
72603.0 63303.8 0
77068.8 62787.5 0
82136.1 63064.1 0
87334.0 63247.7 0
92269.2 63761.4 0
97732.1 63180.1 0
102767.0 64431.8 0
107685.0 62737.5 0
113113.0 62842.1 0
118139.0 62776.9 0
123420.0 62138.6 0
127500.0 63695.0 0
137738.0 63096.4 0
132691.0 64058.1 0
142524.0 63245.8 0
151834.0 59843.2 0
148002.0 62853.5 0
156828.0 62118.2 0
153420.0 64496.5 0
160406.0 63487.3 0
166528.0 60492.7 0
164429.0 64196.1 0
170842.0 63078.7 0
177032.0 64470.5 0
182233.0 61604.4 0
186625.0 64015.1 0
191646.0 63502.0 0
197223.0 62832.9 0
203055.0 62686.7 0
208748.0 64546.8 0
214360.0 62589.7 0
218717.0 63897.2 0
222020.0 62012.5 0
227505.0 62675.4 0
234333.0 63026.3 0
237875.0 61756.5 0
241749.0 63686.4 0
246210.0 62787.8 0
251518.0 64154.7 0
255872.0 62025.4 0
260336.0 61694.9 0
266349.0 61896.4 0
271756.0 63571.7 0
278361.0 62033.0 0
284358.0 63554.6 0
288758.0 62036.7 0
292983.0 63752.5 0
298941.0 63682.1 0
303985.0 63914.6 0
307500.0 63738.5 0
316257.0 62733.6 0
312166.0 63557.2 0
321079.0 62257.7 0
325851.0 63847.1 0
329893.0 62456.3 0
334356.0 64453.5 0
339780.0 61970.8 0
346088.0 63411.7 0
352844.0 63908.0 0
357349.0 60842.3 0
361674.0 63233.5 0
366550.0 61009.3 0
371934.0 63824.0 0
382813.0 61763.1 0
387369.0 63620.6 0
393045.0 64353.3 0
399508.0 63247.2 0
408059.0 62123.7 0
404321.0 63274.1 0
412346.0 63792.8 0
416948.0 63132.9 0
421365.0 64378.6 0
425659.0 62774.1 0
431067.0 63216.8 0
437114.0 61956.6 0
441811.0 62568.6 0
446524.0 61124.3 0
450848.0 61621.2 0
455406.0 63466.6 0
461200.0 63155.4 0
466975.0 62938.9 0
472593.0 62016.5 0
478847.0 63504.2 0
487506.0 59981.2 0
484704.0 64019.1 0
492124.0 62333.6 0
1482.51 68272.2 0
7155.45 68132.5 0
11905.8 66167.5 0
17161.8 66904.1 0
23053.4 67648.0 0
30224.5 66998.7 0
34875.2 67792.9 0
39764.5 67216.1 0
43683.6 69049.9 0
48583.4 67216.1 0
53135.3 69667.5 0
57213.7 67556.7 0
63064.5 67561.8 0
68310.1 68962.5 0
73401.6 67361.9 0
78302.6 67935.9 0
83594.0 68004.9 0
88398.3 68064.9 0
92509.0 68603.6 0
97237.0 68595.5 0
101195.0 68661.2 0
105585.0 68253.7 0
111306.0 67426.0 0
116640.0 68035.0 0
122098.0 67328.7 0
126931.0 67736.5 0
131218.0 68438.6 0
136577.0 67646.5 0
142212.0 68939.2 0
147012.0 67130.7 0
151801.0 69063.0 0
157942.0 68056.1 0
167047.0 67070.7 0
163657.0 68681.6 0
171003.0 69086.7 0
182933.0 68524.4 0
193693.0 67587.6 0
189204.0 68420.5 0
198249.0 68720.2 0
203174.0 67787.6 0
212115.0 68798.6 0
216320.0 67206.8 0
221175.0 67546.5 0
226331.0 69313.4 0
231983.0 67524.7 0
237943.0 66492.4 0
242843.0 68343.1 0
248029.0 67865.8 0
252897.0 68182.8 0
257727.0 67207.6 0
262636.0 65269.5 0
267587.0 67848.4 0
272697.0 69456.8 0
278480.0 68687.4 0
283573.0 68141.4 0
288835.0 67357.3 0
293487.0 68350.3 0
302639.0 68219.9 0
307114.0 68579.9 0
311941.0 68298.5 0
316965.0 67170.4 0
322295.0 67853.2 0
330937.0 67971.2 0
327150.0 68717.6 0
341522.0 67464.6 0
337123.0 68350.0 0
346657.0 69379.2 0
351576.0 69558.4 0
357892.0 67420.6 0
367104.0 65916.6 0
362982.0 68207.7 0
370163.0 69365.4 0
374540.0 69379.5 0
377880.0 65157.4 0
383272.0 67774.3 0
388210.0 67801.0 0
397892.0 69184.4 0
403054.0 67249.8 0
408162.0 66973.8 0
414685.0 67440.8 0
417929.0 68693.8 0
422500.0 69239.3 0
427477.0 67223.3 0
431264.0 68645.5 0
436128.0 66941.3 0
441997.0 68228.9 0
448332.0 66635.3 0
454028.0 68627.5 0
459446.0 68768.1 0
464982.0 68046.1 0
473889.0 67232.8 0
469647.0 68897.8 0
481986.0 68457.7 0
489148.0 64743.3 0
486773.0 68354.0 0
492177.0 68910.8 0
496754.0 64729.7 0
2749.68 72310.3 0
7838.85 74653.3 0
12671.6 70672.7 0
18088.6 72674.3 0
23745.7 73406.3 0
28648.7 71045.0 0
33633.5 73349.5 0
39135.8 72057.1 0
43746.6 73259.7 0
48695.4 73185.7 0
54182.6 74371.9 0
59720.7 72568.0 0
64872.2 73667.9 0
68290.2 73151.6 0
72212.1 71240.5 0
76319.1 72831.2 0
81940.2 73425.5 0
87885.6 73133.9 0
96906.3 73168.5 0
92636.6 73529.8 0
101491.0 73298.2 0
106437.0 73590.0 0
111043.0 72275.5 0
115385.0 72751.3 0
120870.0 73353.3 0
127441.0 73000.8 0
133301.0 72891.7 0
138726.0 73378.6 0
143744.0 73546.1 0
148389.0 73148.4 0
152799.0 73653.3 0
157000.0 73753.7 0
161442.0 72531.3 0
166774.0 72422.5 0
176727.0 70761.8 0
186882.0 73421.8 0
192411.0 72928.0 0
197843.0 74428.4 0
202629.0 72363.6 0
207321.0 69927.4 0
206637.0 74539.5 0
210631.0 73326.3 0
216384.0 73101.4 0
222686.0 73189.3 0
236016.0 71475.2 0
240938.0 73909.7 0
246423.0 74461.5 0
250904.0 72332.8 0
256764.0 73415.0 0
262829.0 70848.5 0
268273.0 73204.5 0
272894.0 74353.7 0
277850.0 74697.1 0
282084.0 72071.7 0
287109.0 73443.1 0
293046.0 72769.8 0
297506.0 69727.7 0
301871.0 72146.8 0
306177.0 74060.5 0
311437.0 74026.6 0
316864.0 72295.6 0
322340.0 73773.5 0
328008.0 73328.6 0
333887.0 72200.1 0
342202.0 73445.3 0
347980.0 74131.1 0
355549.0 71683.7 0
352291.0 73835.9 0
360516.0 72949.2 0
366513.0 73059.5 0
372525.0 74321.7 0
378545.0 72729.5 0
383421.0 71912.7 0
387240.0 72271.8 0
392170.0 70599.7 0
400401.0 73483.7 0
405311.0 72490.4 0
411971.0 71558.0 0
417777.0 73428.7 0
422969.0 74108.5 0
427295.0 71476.8 0
432241.0 73236.4 0
437085.0 72273.0 0
441852.0 73835.2 0
447111.0 72800.1 0
452640.0 73816.4 0
458109.0 74129.7 0
462539.0 73727.2 0
466556.0 72728.2 0
471814.0 73464.5 0
477664.0 70306.2 0
482254.0 73814.8 0
487738.0 73202.4 0
492469.0 74767.3 0
497457.0 70465.4 0
3058.14 78109.9 0
13610.1 76520.4 0
23880.6 79108.4 0
28782.9 76388.0 0
33720.1 79053.4 0
38542.4 77242.5 0
43272.1 77516.8 0
49672.7 78078.9 0
53687.2 79116.9 0
58566.5 78435.9 0
63416.8 77614.6 0
67007.3 78077.3 0
71705.4 76576.5 0
77975.0 78161.6 0
83400.1 79507.4 0
88018.9 78166.8 0
93070.7 78148.7 0
98000.2 77638.0 0
105783.0 78026.4 0
102078.0 79291.3 0
110765.0 77629.2 0
116642.0 77530.5 0
126500.0 78262.3 0
122654.0 78821.4 0
131193.0 77586.4 0
135218.0 79412.1 0
139747.0 78930.2 0
145104.0 78140.0 0
150850.0 78199.1 0
156884.0 79111.0 0
162036.0 77194.2 0
167180.0 77519.5 0
172235.0 74871.1 0
177079.0 75086.9 0
176185.0 78811.6 0
181363.0 75135.2 0
185795.0 78706.3 0
191577.0 78807.4 0
202645.0 77800.4 0
207609.0 78562.4 0
212134.0 77706.7 0
217212.0 79488.8 0
223347.0 79159.1 0
228326.0 74858.2 0
233993.0 76014.1 0
238461.0 79674.3 0
243836.0 78951.8 0
248991.0 78563.5 0
252376.0 76605.8 0
255537.0 79515.7 0
262544.0 78009.9 0
268736.0 78173.2 0
273495.0 78900.4 0
282796.0 77450.2 0
287975.0 79434.0 0
293224.0 78103.6 0
297883.0 75084.8 0
302610.0 77994.0 0
308389.0 78976.7 0
313173.0 78568.7 0
317438.0 78050.0 0
325879.0 77307.2 0
322203.0 79349.5 0
329963.0 78492.2 0
335028.0 79037.8 0
337521.0 75628.3 0
340295.0 79446.3 0
351082.0 78302.3 0
356010.0 76279.6 0
360812.0 78826.1 0
366435.0 78804.2 0
371142.0 79258.2 0
383496.0 76359.7 0
390730.0 75232.9 0
387807.0 79535.3 0
392748.0 79562.3 0
396042.0 75007.9 0
403887.0 78527.4 0
409494.0 77155.3 0
414470.0 77404.4 0
417768.0 77563.8 0
420957.0 77920.1 0
427626.0 77987.9 0
433303.0 77602.9 0
437888.0 77252.3 0
442650.0 78728.5 0
448517.0 78684.7 0
453997.0 78682.2 0
458539.0 79099.5 0
462991.0 78879.3 0
467794.0 77708.3 0
472983.0 79210.6 0
476954.0 75025.4 0
479983.0 78928.7 0
484311.0 78782.9 0
488549.0 78329.0 0
492636.0 78921.8 0
497459.0 75549.1 0
2142.5 84014.7 0
8752.32 80537.0 0
13671.7 84164.0 0
18380.5 80256.1 0
22344.8 83594.3 0
27492.4 84041.6 0
32330.3 83304.6 0
37272.4 83852.2 0
46373.4 81879.8 0
51408.8 84266.6 0
57400.6 84565.9 0
63645.5 82784.3 0
68689.6 81359.5 0
73558.1 84428.3 0
79821.4 83639.6 0
85124.8 84431.7 0
90126.9 82648.0 0
95038.1 84504.0 0
98603.8 81813.5 0
105637.0 82536.2 0
111337.0 83966.4 0
118204.0 83100.7 0
123812.0 83349.4 0
128387.0 81679.3 0
133268.0 83756.0 0
137790.0 82870.4 0
141903.0 83722.3 0
147422.0 83450.8 0
152993.0 83406.4 0
161786.0 82762.1 0
167144.0 82490.2 0
171462.0 80195.8 0
170761.0 84226.9 0
176881.0 83805.6 0
180973.0 80737.2 0
186887.0 83732.8 0
191537.0 84111.9 0
197331.0 79958.2 0
201625.0 83272.7 0
207153.0 83530.3 0
212987.0 83216.6 0
219801.0 84577.1 0
228979.0 80852.8 0
224910.0 84480.1 0
228653.0 84946.3 0
233411.0 80481.1 0
232798.0 84262.1 0
236990.0 84915.0 0
242102.0 83202.8 0
246559.0 82927.6 0
251470.0 82528.5 0
257766.0 84782.5 0
262740.0 84083.5 0
268253.0 83790.3 0
274071.0 83862.1 0
278387.0 80086.7 0
284548.0 83482.6 0
289725.0 84364.3 0
293313.0 82460.0 0
297717.0 80364.1 0
302306.0 83679.1 0
307427.0 84240.7 0
312020.0 82741.6 0
316759.0 82644.2 0
321330.0 84482.6 0
326427.0 82934.5 0
331733.0 83442.8 0
337285.0 84747.2 0
345916.0 80168.2 0
342892.0 84777.3 0
346827.0 84735.4 0
351163.0 83478.2 0
356391.0 81848.2 0
361676.0 84931.2 0
366973.0 83674.9 0
371655.0 83740.4 0
377225.0 79986.5 0
382200.0 83912.5 0
386894.0 84259.6 0
391451.0 84069.7 0
395528.0 84821.8 0
398356.0 80522.7 0
405863.0 84300.7 0
411605.0 82679.1 0
416991.0 81288.7 0
422627.0 82920.0 0
428258.0 84073.5 0
432998.0 82246.9 0
438724.0 82898.5 0
444698.0 83609.2 0
455670.0 83075.8 0
461373.0 83968.0 0
468723.0 82933.1 0
473167.0 84783.6 0
477805.0 83440.0 0
482449.0 83611.0 0
486594.0 82483.6 0
490650.0 82935.7 0
497770.0 80309.5 0
495004.0 84290.2 0
2239.97 88587.2 0
7229.67 86615.6 0
18604.2 85197.9 0
18049.8 89654.6 0
23275.3 88447.8 0
29083.8 90014.6 0
32590.8 86778.9 0
35952.0 89671.3 0
42440.8 85175.6 0
40991.7 89393.4 0
47008.8 88361.9 0
52812.1 89010.9 0
62196.0 88178.8 0
67964.2 88245.3 0
78090.1 88235.9 0
82804.0 89148.5 0
88774.3 88970.3 0
93973.0 89346.6 0
101293.0 85170.5 0
97844.3 87871.4 0
101251.0 89455.6 0
105727.0 88028.8 0
110243.0 89404.9 0
115522.0 88980.6 0
121623.0 88181.3 0
128112.0 87718.3 0
137500.0 86811.6 0
133715.0 88590.6 0
142031.0 88989.8 0
148122.0 90032.8 0
157246.0 85025.5 0
153546.0 88226.0 0
157983.0 89204.0 0
163103.0 88600.1 0
173356.0 87474.6 0
168439.0 87760.5 0
177762.0 88247.8 0
182321.0 85557.8 0
186463.0 88999.9 0
191579.0 88623.5 0
196349.0 85404.8 0
201124.0 88865.5 0
207148.0 89590.9 0
212098.0 88150.0 0
216812.0 89363.6 0
226069.0 89008.3 0
231021.0 88294.1 0
235877.0 89553.3 0
241284.0 88112.1 0
246730.0 87864.4 0
252429.0 88040.0 0
257588.0 90030.1 0
263719.0 89587.4 0
269612.0 89454.4 0
274590.0 88844.0 0
279358.0 85609.7 0
284011.0 87943.5 0
288600.0 89378.6 0
292659.0 87786.0 0
296526.0 85284.9 0
298744.0 89988.0 0
303662.0 88632.0 0
307813.0 88558.1 0
312335.0 87969.3 0
317612.0 87682.6 0
323360.0 89472.4 0
328006.0 87599.3 0
332709.0 88555.7 0
337436.0 90060.1 0
345477.0 88450.3 0
341914.0 88706.2 0
349517.0 87670.1 0
355327.0 88048.0 0
366484.0 88395.2 0
373419.0 88891.4 0
378335.0 86592.7 0
383175.0 89557.0 0
392581.0 88440.8 0
388072.0 88665.2 0
397113.0 88679.7 0
400529.0 85632.2 0
408059.0 89058.0 0
403354.0 89779.5 0
412514.0 87924.9 0
417167.0 86416.1 0
421019.0 88467.3 0
425369.0 88105.5 0
431956.0 87890.4 0
437682.0 89138.0 0
443668.0 89190.6 0
450508.0 85364.5 0
454498.0 88322.1 0
458800.0 89258.9 0
463934.0 89083.9 0
465834.0 85611.5 0
469297.0 88420.9 0
474377.0 89319.2 0
479087.0 88327.8 0
483695.0 90012.4 0
486586.0 86687.7 0
491384.0 88755.5 0
497411.0 88907.0 0
2127.63 92954.6 0
6960.68 92501.0 0
12440.8 90227.1 0
16008.8 93661.9 0
20037.6 93939.8 0
24885.1 93699.3 0
32222.3 94379.9 0
43318.6 93815.5 0
48686.6 94359.7 0
53580.1 93539.6 0
57603.1 90726.4 0
62542.2 93410.7 0
67219.3 93496.6 0
73651.9 91134.4 0
79099.4 93755.3 0
84543.1 93746.5 0
88606.9 94006.2 0
92508.1 93454.5 0
97466.4 92262.8 0
102445.0 93881.7 0
107194.0 92781.0 0
111837.0 93568.3 0
117994.0 94487.9 0
123247.0 93413.3 0
127766.0 93105.9 0
132819.0 93660.7 0
138522.0 92915.5 0
143145.0 93819.1 0
151877.0 93818.7 0
156564.0 94036.9 0
161568.0 93533.5 0
166875.0 92636.2 0
173249.0 93695.3 0
181596.0 90130.0 0
178608.0 93844.2 0
183533.0 94781.5 0
189457.0 93849.8 0
195892.0 91156.2 0
193907.0 94978.9 0
199741.0 93881.7 0
203874.0 94463.3 0
208359.0 94730.4 0
212779.0 92809.1 0
219058.0 94111.4 0
221590.0 90180.6 0
223358.0 93680.5 0
227641.0 93710.1 0
232481.0 93004.0 0
237723.0 94015.6 0
242285.0 94434.2 0
246690.0 92701.6 0
251863.0 94290.4 0
257453.0 94327.3 0
267688.0 93642.9 0
271757.0 93205.0 0
279917.0 90953.7 0
276114.0 93672.8 0
284286.0 92356.8 0
288580.0 94617.5 0
293601.0 92327.9 0
298814.0 94748.7 0
302642.0 93578.0 0
306701.0 92429.1 0
311690.0 93662.6 0
316843.0 92514.4 0
321345.0 94406.2 0
324883.0 93364.4 0
328697.0 92310.8 0
334154.0 94178.8 0
339612.0 93968.6 0
344142.0 92666.9 0
350099.0 93325.9 0
356711.0 94894.4 0
360663.0 90119.3 0
363251.0 94783.6 0
369396.0 93183.2 0
374924.0 94209.6 0
378300.0 91089.1 0
379744.0 95060.4 0
388067.0 93165.1 0
397920.0 92859.8 0
393143.0 93512.7 0
401986.0 94105.5 0
406594.0 93681.9 0
412747.0 93820.8 0
418441.0 91850.8 0
423544.0 93271.1 0
428715.0 91912.2 0
433882.0 94373.6 0
445499.0 93909.1 0
450716.0 91796.5 0
456148.0 93402.1 0
463205.0 93128.4 0
460063.0 93868.6 0
467453.0 93685.7 0
472541.0 93617.7 0
477866.0 93656.6 0
482744.0 94260.4 0
487589.0 93255.3 0
492465.0 93944.0 0
497811.0 93668.2 0
3067.49 98064.1 0
8555.81 97000.7 0
12582.1 95635.7 0
12197.7 100183.0 0
16421.3 97834.3 0
21312.8 98843.1 0
27466.6 99054.1 0
32650.2 98186.4 0
37673.8 95272.7 0
42307.0 98967.5 0
47951.2 99869.0 0
53255.7 98495.2 0
57459.4 95637.2 0
58928.9 99528.6 0
62499.4 97832.8 0
71133.1 95902.6 0
66930.3 97933.0 0
71358.9 100083.0 0
76176.3 98947.2 0
82351.8 97351.4 0
86393.6 97686.9 0
91254.4 98537.5 0
96602.0 97384.3 0
101325.0 98543.7 0
106448.0 97949.5 0
112395.0 99079.9 0
118078.0 99915.0 0
123220.0 98664.9 0
128379.0 97608.6 0
133236.0 99144.6 0
138695.0 98647.1 0
143897.0 97860.7 0
146817.0 100246.0 0
147994.0 96008.0 0
152641.0 98250.4 0
158024.0 98514.3 0
162828.0 97666.9 0
168108.0 98088.1 0
172596.0 99372.6 0
177246.0 99131.1 0
182426.0 99737.9 0
187087.0 98735.7 0
192265.0 99003.2 0
197934.0 98602.5 0
202908.0 98445.8 0
207315.0 99432.2 0
212051.0 97752.8 0
217205.0 99180.7 0
222464.0 97902.7 0
227444.0 99253.3 0
232439.0 97710.2 0
237065.0 98328.8 0
241372.0 98905.5 0
246106.0 97718.2 0
254521.0 98761.4 0
250344.0 99301.5 0
258823.0 99389.0 0
262305.0 95815.5 0
267465.0 98978.6 0
272517.0 97091.7 0
277261.0 98953.9 0
283204.0 97749.5 0
288224.0 99173.5 0
292775.0 97933.1 0
297385.0 98702.0 0
302107.0 98719.8 0
306893.0 97156.6 0
316042.0 97408.9 0
311368.0 99178.8 0
320406.0 98827.0 0
326139.0 98151.9 0
332573.0 100231.0 0
338274.0 99227.4 0
343317.0 97612.2 0
348164.0 98811.8 0
353179.0 99366.1 0
363217.0 100275.0 0
372382.0 98352.4 0
367630.0 98741.3 0
377383.0 99713.9 0
382001.0 98243.0 0
384038.0 95186.5 0
387378.0 97790.5 0
391838.0 98229.8 0
396416.0 97441.6 0
401430.0 99008.5 0
406579.0 98544.8 0
411926.0 100182.0 0
417742.0 97775.8 0
428007.0 98120.7 0
435852.0 99646.0 0
440195.0 95304.0 0
440095.0 100255.0 0
448653.0 96459.7 0
444884.0 99063.8 0
448961.0 99572.5 0
453284.0 98176.5 0
458570.0 97291.8 0
463271.0 97320.8 0
468255.0 98742.4 0
473568.0 98800.3 0
478469.0 98569.4 0
481959.0 99103.9 0
485368.0 97715.7 0
490339.0 97829.8 0
495332.0 97922.6 0
2830.08 103971.0 0
7503.84 101419.0 0
9658.14 105272.0 0
12525.6 103821.0 0
17166.3 103374.0 0
23592.5 104276.0 0
28520.4 104141.0 0
32918.0 102294.0 0
37798.4 100639.0 0
44154.5 104328.0 0
51666.1 102985.0 0
56222.7 103076.0 0
61495.7 103507.0 0
67362.7 103434.0 0
73115.2 104450.0 0
80897.4 101612.0 0
86723.9 103312.0 0
92877.3 104521.0 0
98368.7 102757.0 0
103676.0 102698.0 0
108521.0 103346.0 0
113657.0 104462.0 0
118711.0 105217.0 0
123557.0 103699.0 0
128426.0 102784.0 0
133081.0 103665.0 0
137596.0 104024.0 0
143072.0 101986.0 0
146707.0 104292.0 0
150635.0 102186.0 0
155609.0 102267.0 0
161150.0 102550.0 0
167133.0 104166.0 0
172930.0 103661.0 0
178054.0 104641.0 0
183654.0 104503.0 0
189253.0 103476.0 0
194195.0 103524.0 0
203778.0 102664.0 0
199079.0 104253.0 0
208282.0 104473.0 0
213126.0 103011.0 0
217850.0 104486.0 0
222500.0 103655.0 0
227501.0 103831.0 0
231363.0 101845.0 0
235333.0 102372.0 0
241011.0 103297.0 0
246228.0 103567.0 0
252669.0 104047.0 0
257745.0 103180.0 0
262636.0 102310.0 0
268650.0 103696.0 0
272487.0 101744.0 0
276648.0 104002.0 0
282612.0 103528.0 0
287964.0 103586.0 0
293356.0 103413.0 0
298042.0 102570.0 0
302181.0 104627.0 0
306759.0 102031.0 0
311373.0 104401.0 0
317138.0 103096.0 0
322854.0 103362.0 0
326675.0 103102.0 0
331450.0 104645.0 0
335630.0 105128.0 0
340794.0 103923.0 0
345207.0 102010.0 0
349873.0 103434.0 0
358609.0 100411.0 0
361544.0 104990.0 0
367147.0 104140.0 0
372564.0 103267.0 0
382880.0 102897.0 0
389047.0 102763.0 0
397278.0 102623.0 0
393443.0 104915.0 0
402363.0 104647.0 0
407529.0 103254.0 0
417013.0 103476.0 0
422243.0 100703.0 0
421587.0 105332.0 0
426096.0 104227.0 0
432009.0 103517.0 0
437797.0 104602.0 0
443150.0 104084.0 0
447787.0 103254.0 0
452656.0 104096.0 0
457750.0 102140.0 0
463132.0 102494.0 0
468193.0 103889.0 0
473083.0 103964.0 0
478096.0 103407.0 0
482741.0 103718.0 0
487707.0 102621.0 0
493259.0 102660.0 0
497790.0 102213.0 0
2518.49 109313.0 0
7270.4 108715.0 0
12117.5 109049.0 0
17593.5 109649.0 0
23418.1 110335.0 0
28810.7 108650.0 0
32724.3 106994.0 0
37937.1 106305.0 0
43274.2 109760.0 0
48947.2 106019.0 0
47709.2 109839.0 0
52884.5 108678.0 0
58211.1 107851.0 0
64170.5 109110.0 0
71361.7 107993.0 0
69258.9 110058.0 0
75107.8 109822.0 0
78025.2 105455.0 0
81048.7 109621.0 0
87053.8 109974.0 0
96751.5 108577.0 0
92020.6 109103.0 0
101923.0 107051.0 0
107424.0 109440.0 0
113364.0 109458.0 0
118426.0 110478.0 0
123398.0 108765.0 0
128618.0 107949.0 0
133599.0 108195.0 0
141641.0 106557.0 0
137995.0 109834.0 0
145474.0 109154.0 0
150726.0 107898.0 0
156814.0 107493.0 0
162657.0 108617.0 0
170995.0 108527.0 0
175347.0 110254.0 0
183159.0 108455.0 0
179617.0 109327.0 0
187240.0 108558.0 0
192617.0 108132.0 0
197965.0 109892.0 0
202934.0 107673.0 0
206811.0 110033.0 0
210960.0 108582.0 0
215629.0 108801.0 0
221240.0 108876.0 0
227185.0 109191.0 0
231614.0 106031.0 0
237589.0 108063.0 0
243850.0 108768.0 0
248904.0 108539.0 0
254146.0 110176.0 0
257368.0 106519.0 0
260306.0 108558.0 0
265515.0 107479.0 0
272406.0 108048.0 0
279500.0 108772.0 0
285572.0 107656.0 0
290284.0 107528.0 0
297351.0 107766.0 0
302309.0 109730.0 0
306882.0 107506.0 0
312363.0 110452.0 0
318328.0 108915.0 0
323488.0 108311.0 0
328118.0 106602.0 0
332371.0 109097.0 0
340946.0 108503.0 0
337052.0 109714.0 0
345691.0 107302.0 0
350918.0 109411.0 0
355448.0 105598.0 0
359291.0 109795.0 0
364354.0 109487.0 0
368943.0 108804.0 0
373329.0 108137.0 0
377583.0 105449.0 0
381329.0 108723.0 0
386962.0 108906.0 0
393352.0 109769.0 0
398527.0 108203.0 0
402914.0 109587.0 0
407775.0 108655.0 0
411988.0 105488.0 0
415879.0 109286.0 0
424597.0 108263.0 0
428963.0 108800.0 0
434131.0 108497.0 0
438737.0 109785.0 0
442788.0 108446.0 0
447719.0 108518.0 0
453045.0 109118.0 0
458331.0 107945.0 0
463625.0 107311.0 0
468161.0 109216.0 0
473597.0 108376.0 0
478149.0 108566.0 0
482808.0 107918.0 0
487497.0 108204.0 0
492502.0 107611.0 0
497556.0 106861.0 0
2475.48 114307.0 0
7677.02 113737.0 0
12004.5 113249.0 0
15771.6 114683.0 0
20838.9 115380.0 0
26808.4 114723.0 0
34065.3 112384.0 0
39402.6 111273.0 0
40054.7 115517.0 0
44706.3 114225.0 0
48760.6 113549.0 0
53066.4 113851.0 0
59516.6 112944.0 0
63885.6 114247.0 0
67606.7 113507.0 0
71692.4 113448.0 0
78262.9 113329.0 0
82471.5 114612.0 0
87140.5 115564.0 0
91999.0 113743.0 0
96999.8 113692.0 0
102127.0 112943.0 0
106970.0 115318.0 0
111124.0 113752.0 0
115819.0 115122.0 0
121102.0 115124.0 0
126570.0 113470.0 0
132454.0 113168.0 0
137140.0 114305.0 0
142292.0 113436.0 0
147728.0 112903.0 0
152626.0 113552.0 0
157521.0 112577.0 0
162025.0 114187.0 0
167210.0 112617.0 0
172467.0 113675.0 0
178178.0 114587.0 0
183468.0 112379.0 0
190431.0 113149.0 0
195417.0 114594.0 0
203351.0 113028.0 0
199786.0 115212.0 0
208223.0 114013.0 0
212607.0 113081.0 0
217697.0 113486.0 0
223409.0 113725.0 0
227690.0 114189.0 0
232727.0 113414.0 0
237913.0 114081.0 0
242248.0 112959.0 0
246577.0 112854.0 0
251456.0 114639.0 0
257660.0 114448.0 0
262657.0 112679.0 0
268086.0 112737.0 0
273563.0 114758.0 0
279476.0 114967.0 0
284060.0 111914.0 0
289118.0 112627.0 0
293632.0 110899.0 0
293861.0 115119.0 0
298813.0 113514.0 0
302795.0 113193.0 0
307468.0 113063.0 0
316382.0 113834.0 0
321289.0 113932.0 0
327598.0 112480.0 0
333608.0 114079.0 0
340750.0 112635.0 0
346463.0 113856.0 0
352479.0 114230.0 0
358046.0 115377.0 0
362683.0 113351.0 0
367601.0 114080.0 0
377200.0 110533.0 0
373234.0 113263.0 0
377756.0 115267.0 0
383127.0 114134.0 0
388874.0 114787.0 0
397598.0 112619.0 0
393912.0 115047.0 0
401996.0 114205.0 0
407555.0 114457.0 0
417736.0 113448.0 0
413357.0 114481.0 0
421177.0 110590.0 0
420739.0 114732.0 0
426080.0 114176.0 0
432065.0 113273.0 0
436733.0 113628.0 0
442765.0 113468.0 0
453409.0 113289.0 0
458512.0 114472.0 0
463600.0 111853.0 0
467767.0 114531.0 0
471813.0 112074.0 0
476449.0 113598.0 0
481100.0 111909.0 0
485659.0 112869.0 0
490710.0 113904.0 0
496002.0 112141.0 0
3211.29 119435.0 0
8257.84 118837.0 0
12763.2 118473.0 0
17406.6 119441.0 0
22006.6 119976.0 0
26229.6 119507.0 0
30953.1 118008.0 0
35933.1 118122.0 0
43630.2 118210.0 0
47755.6 117581.0 0
51809.4 117910.0 0
56830.1 118131.0 0
62579.8 118261.0 0
67171.3 118685.0 0
72521.2 118634.0 0
77992.3 117428.0 0
82526.1 119037.0 0
86293.8 119631.0 0
90159.8 118878.0 0
95222.1 118715.0 0
101125.0 118612.0 0
106555.0 120340.0 0
111795.0 118615.0 0
118333.0 119792.0 0
123281.0 119551.0 0
132214.0 118485.0 0
127624.0 118590.0 0
137231.0 118903.0 0
141708.0 120176.0 0
146469.0 117899.0 0
151573.0 120363.0 0
156132.0 117520.0 0
161834.0 120487.0 0
169286.0 119000.0 0
175976.0 120361.0 0
181606.0 119396.0 0
186112.0 116781.0 0
190993.0 118454.0 0
195754.0 119269.0 0
200539.0 120391.0 0
204963.0 117548.0 0
208466.0 119796.0 0
211616.0 117647.0 0
216502.0 118805.0 0
221703.0 118131.0 0
226693.0 118681.0 0
231954.0 117685.0 0
236064.0 118967.0 0
241434.0 117452.0 0
246761.0 117966.0 0
251417.0 118890.0 0
256142.0 119554.0 0
261549.0 118021.0 0
266315.0 117176.0 0
270640.0 119639.0 0
276599.0 119715.0 0
284957.0 117054.0 0
290187.0 117493.0 0
293757.0 119740.0 0
297271.0 117937.0 0
302715.0 116353.0 0
307446.0 116997.0 0
310129.0 119580.0 0
312803.0 116271.0 0
316961.0 117977.0 0
326197.0 117863.0 0
321557.0 119908.0 0
331855.0 119062.0 0
336697.0 119602.0 0
337889.0 115588.0 0
341785.0 118513.0 0
346628.0 119731.0 0
350388.0 118162.0 0
354412.0 119443.0 0
363421.0 118694.0 0
368528.0 119303.0 0
372652.0 117953.0 0
376987.0 120416.0 0
381262.0 118644.0 0
385749.0 119253.0 0
391603.0 119802.0 0
397805.0 118701.0 0
403436.0 119181.0 0
408193.0 119574.0 0
412655.0 119648.0 0
417328.0 118147.0 0
422294.0 118479.0 0
433144.0 119207.0 0
438898.0 117688.0 0
448812.0 115618.0 0
443938.0 119058.0 0
453766.0 118242.0 0
457909.0 120387.0 0
463038.0 118933.0 0
468113.0 119298.0 0
472250.0 117116.0 0
476531.0 118635.0 0
481592.0 117178.0 0
487407.0 117781.0 0
492246.0 120317.0 0
497268.0 117793.0 0
2743.24 124864.0 0
8042.79 123859.0 0
14921.6 123674.0 0
19909.4 124252.0 0
25328.9 124350.0 0
32699.9 124804.0 0
40009.8 121247.0 0
47202.3 122856.0 0
52669.8 122105.0 0
57753.6 124372.0 0
63751.5 123621.0 0
69579.5 123977.0 0
74694.8 124515.0 0
78841.1 122182.0 0
82761.4 123805.0 0
87411.8 124064.0 0
93077.7 124138.0 0
98832.5 123972.0 0
103893.0 124526.0 0
107222.0 124347.0 0
111638.0 124487.0 0
120398.0 124519.0 0
124185.0 123818.0 0
128406.0 123215.0 0
132872.0 122820.0 0
136853.0 123594.0 0
141100.0 124359.0 0
146522.0 123866.0 0
151900.0 125754.0 0
156635.0 123961.0 0
166704.0 125268.0 0
172255.0 123985.0 0
179233.0 123975.0 0
184127.0 124599.0 0
189315.0 122969.0 0
193668.0 123872.0 0
197503.0 123452.0 0
202966.0 124238.0 0
206274.0 122114.0 0
212255.0 123485.0 0
216805.0 123336.0 0
220974.0 122964.0 0
225738.0 123649.0 0
230980.0 122082.0 0
235664.0 123890.0 0
240541.0 122699.0 0
248381.0 122743.0 0
252558.0 122533.0 0
259971.0 122613.0 0
256057.0 124558.0 0
265490.0 122427.0 0
272928.0 123108.0 0
275665.0 123694.0 0
281961.0 122568.0 0
288336.0 122247.0 0
293476.0 124413.0 0
298770.0 122334.0 0
304641.0 121061.0 0
309147.0 123244.0 0
313927.0 121031.0 0
312953.0 125773.0 0
317699.0 122943.0 0
323366.0 125096.0 0
327811.0 122372.0 0
332500.0 123719.0 0
336870.0 124213.0 0
342208.0 124088.0 0
351679.0 122984.0 0
347217.0 124102.0 0
357651.0 122982.0 0
363233.0 125049.0 0
368505.0 123565.0 0
373400.0 124781.0 0
382575.0 122676.0 0
379098.0 124821.0 0
387078.0 124852.0 0
395893.0 123432.0 0
400749.0 123896.0 0
405935.0 123519.0 0
411228.0 124823.0 0
416962.0 123975.0 0
422189.0 123380.0 0
427069.0 120865.0 0
431391.0 124904.0 0
437981.0 123113.0 0
443845.0 124940.0 0
448492.0 121465.0 0
453592.0 123469.0 0
458351.0 124585.0 0
462239.0 123923.0 0
467266.0 124303.0 0
472251.0 122261.0 0
478242.0 123399.0 0
483444.0 122303.0 0
487728.0 122453.0 0
492458.0 125305.0 0
497115.0 123394.0 0
2122.1 129690.0 0
6629.6 128793.0 0
11765.2 126340.0 0
10874.5 129993.0 0
16444.9 128920.0 0
22132.7 129051.0 0
26805.0 128925.0 0
38046.8 130246.0 0
42538.8 126217.0 0
44046.0 130735.0 0
47182.2 127987.0 0
52162.2 127533.0 0
57345.5 130470.0 0
62695.8 129001.0 0
67631.1 129320.0 0
72734.0 129061.0 0
77869.6 128434.0 0
83358.2 128519.0 0
88734.3 129024.0 0
93487.8 128997.0 0
97430.6 128608.0 0
102461.0 129736.0 0
107419.0 127598.0 0
111801.0 130852.0 0
116413.0 127176.0 0
120437.0 130382.0 0
125857.0 128140.0 0
131745.0 127543.0 0
137377.0 128473.0 0
143319.0 129257.0 0
148470.0 128817.0 0
152878.0 130284.0 0
157300.0 128960.0 0
160655.0 126028.0 0
163241.0 128384.0 0
168107.0 130682.0 0
170863.0 127420.0 0
175911.0 127993.0 0
181671.0 129808.0 0
189132.0 128216.0 0
194263.0 128615.0 0
199453.0 127803.0 0
203612.0 129826.0 0
207411.0 126899.0 0
210865.0 130576.0 0
216143.0 128861.0 0
221749.0 127210.0 0
226488.0 128920.0 0
232442.0 128067.0 0
238431.0 127820.0 0
244735.0 127023.0 0
251356.0 127524.0 0
256819.0 129085.0 0
261841.0 127197.0 0
270071.0 126457.0 0
266226.0 130545.0 0
274196.0 129193.0 0
278053.0 126735.0 0
283492.0 128884.0 0
289033.0 127574.0 0
293268.0 129923.0 0
297212.0 127217.0 0
303006.0 127539.0 0
308805.0 128450.0 0
318356.0 128220.0 0
324039.0 130545.0 0
328792.0 127596.0 0
334066.0 129346.0 0
339592.0 128754.0 0
344933.0 128553.0 0
349989.0 128088.0 0
354429.0 126600.0 0
358650.0 129705.0 0
363897.0 130642.0 0
368161.0 128280.0 0
372313.0 129518.0 0
376962.0 129356.0 0
382471.0 128318.0 0
387497.0 129332.0 0
392323.0 125986.0 0
392129.0 130094.0 0
396150.0 128807.0 0
401229.0 129365.0 0
406693.0 128682.0 0
411220.0 129695.0 0
415490.0 129013.0 0
421158.0 128966.0 0
426356.0 126423.0 0
428523.0 129930.0 0
430961.0 129333.0 0
435835.0 129133.0 0
442045.0 130879.0 0
446664.0 129305.0 0
449070.0 125814.0 0
451287.0 130531.0 0
456077.0 128255.0 0
461499.0 128974.0 0
466931.0 129710.0 0
472915.0 127460.0 0
478057.0 128869.0 0
482524.0 126766.0 0
487864.0 127582.0 0
493642.0 129208.0 0
498089.0 128076.0 0
2813.6 134482.0 0
8165.88 133737.0 0
12894.4 133102.0 0
20384.3 133629.0 0
16331.9 133751.0 0
25268.5 134860.0 0
31181.0 132604.0 0
37228.6 135588.0 0
41795.0 134597.0 0
47446.4 134718.0 0
53102.0 134027.0 0
58687.8 135760.0 0
63565.5 134154.0 0
68268.0 133717.0 0
72453.6 133909.0 0
77185.4 133547.0 0
86321.9 132642.0 0
82034.8 133627.0 0
91303.7 133562.0 0
96817.5 133008.0 0
101396.0 135627.0 0
107501.0 135827.0 0
116464.0 133586.0 0
113001.0 135679.0 0
121274.0 135117.0 0
126005.0 134301.0 0
132122.0 133928.0 0
137819.0 134113.0 0
142840.0 134647.0 0
147532.0 133369.0 0
152628.0 134927.0 0
157561.0 133949.0 0
162712.0 132887.0 0
167292.0 135711.0 0
172608.0 133183.0 0
177851.0 133289.0 0
182304.0 134904.0 0
186373.0 132550.0 0
192082.0 133086.0 0
196621.0 133780.0 0
201110.0 133283.0 0
206767.0 133083.0 0
212749.0 133695.0 0
217643.0 134777.0 0
221800.0 131872.0 0
226798.0 134028.0 0
231546.0 133694.0 0
236388.0 132721.0 0
241206.0 132293.0 0
240054.0 135666.0 0
245772.0 132372.0 0
250429.0 133416.0 0
255177.0 133267.0 0
260748.0 133376.0 0
271140.0 132851.0 0
278166.0 132446.0 0
283292.0 135722.0 0
288466.0 132869.0 0
293487.0 134823.0 0
298394.0 132425.0 0
303462.0 133091.0 0
308194.0 133459.0 0
314357.0 133567.0 0
319273.0 133172.0 0
328968.0 133154.0 0
333146.0 133556.0 0
336742.0 133504.0 0
342592.0 133916.0 0
347881.0 133058.0 0
353212.0 132770.0 0
357776.0 135386.0 0
362518.0 135456.0 0
367793.0 133928.0 0
373566.0 134147.0 0
382651.0 133569.0 0
378336.0 133863.0 0
387500.0 133868.0 0
390840.0 133670.0 0
394209.0 133261.0 0
397989.0 133266.0 0
405861.0 134713.0 0
412257.0 134329.0 0
417885.0 133833.0 0
423011.0 134231.0 0
427877.0 133820.0 0
432790.0 134291.0 0
437676.0 134778.0 0
441767.0 135547.0 0
447082.0 133559.0 0
452132.0 135693.0 0
456331.0 133203.0 0
461274.0 134629.0 0
466167.0 134293.0 0
470975.0 132453.0 0
476162.0 133895.0 0
482656.0 132767.0 0
488909.0 133148.0 0
497008.0 132859.0 0
2315.99 138923.0 0
7488.63 138584.0 0
11899.2 137069.0 0
17721.5 137993.0 0
22192.4 138587.0 0
25713.8 139385.0 0
33500.7 138188.0 0
36829.5 140611.0 0
41261.0 139826.0 0
46266.1 139947.0 0
51637.6 139372.0 0
56874.7 140023.0 0
62241.2 139610.0 0
67515.7 138432.0 0
72506.4 138521.0 0
81266.9 138748.0 0
76625.1 139583.0 0
87014.7 137664.0 0
92308.7 138830.0 0
97255.4 138852.0 0
102435.0 140777.0 0
106772.0 140971.0 0
111799.0 139656.0 0
117643.0 139127.0 0
123436.0 138853.0 0
128783.0 139356.0 0
134059.0 138968.0 0
137961.0 138699.0 0
142163.0 138648.0 0
147504.0 139169.0 0
152869.0 139861.0 0
158962.0 138336.0 0
162909.0 138258.0 0
167203.0 140350.0 0
171989.0 137622.0 0
177728.0 138826.0 0
183252.0 139585.0 0
188242.0 137525.0 0
193898.0 138381.0 0
199055.0 138102.0 0
204158.0 138540.0 0
214027.0 137050.0 0
209491.0 138151.0 0
217433.0 139160.0 0
222151.0 137364.0 0
226340.0 137889.0 0
230558.0 139220.0 0
235731.0 137464.0 0
243733.0 136574.0 0
240026.0 139621.0 0
250365.0 138809.0 0
256477.0 138695.0 0
262643.0 139003.0 0
266799.0 136067.0 0
272519.0 138493.0 0
278324.0 138260.0 0
289989.0 138366.0 0
294961.0 139271.0 0
299386.0 137780.0 0
303668.0 137089.0 0
307825.0 138617.0 0
313038.0 139759.0 0
317924.0 137976.0 0
322914.0 136295.0 0
324621.0 140864.0 0
327990.0 138192.0 0
333198.0 137842.0 0
339000.0 139209.0 0
344325.0 139197.0 0
346990.0 136613.0 0
351176.0 138869.0 0
358163.0 139767.0 0
362969.0 140362.0 0
367650.0 139293.0 0
372888.0 139777.0 0
377591.0 138540.0 0
387666.0 138323.0 0
383034.0 138735.0 0
390579.0 139212.0 0
394661.0 137880.0 0
400640.0 137651.0 0
404214.0 140953.0 0
409727.0 140176.0 0
416361.0 139613.0 0
422812.0 139889.0 0
428624.0 138652.0 0
433383.0 139110.0 0
438577.0 140031.0 0
448820.0 138420.0 0
444221.0 139344.0 0
452094.0 139683.0 0
457219.0 139462.0 0
462826.0 139109.0 0
466793.0 140378.0 0
470795.0 137642.0 0
476400.0 140275.0 0
482884.0 139507.0 0
488671.0 138671.0 0
492846.0 136001.0 0
492895.0 139724.0 0
497139.0 138722.0 0
2879.63 142755.0 0
7660.86 143045.0 0
13296.4 141467.0 0
17519.7 142886.0 0
21981.2 142873.0 0
29624.6 141175.0 0
25924.4 143278.0 0
33841.2 144041.0 0
38550.9 144078.0 0
43314.7 144887.0 0
47500.0 143681.0 0
51975.5 145019.0 0
58911.7 144577.0 0
64498.9 144801.0 0
69008.8 143529.0 0
73878.1 142990.0 0
77217.9 143408.0 0
80691.8 143851.0 0
86321.9 143972.0 0
92811.4 143838.0 0
98242.8 144112.0 0
103094.0 144741.0 0
109028.0 144150.0 0
113212.0 143766.0 0
122442.0 143636.0 0
117544.0 144837.0 0
126563.0 144247.0 0
131864.0 143705.0 0
136845.0 143247.0 0
140199.0 145561.0 0
144006.0 143936.0 0
150410.0 143731.0 0
157085.0 143555.0 0
162990.0 142644.0 0
167630.0 145015.0 0
173048.0 143256.0 0
183029.0 144195.0 0
178837.0 144892.0 0
186680.0 142904.0 0
191842.0 143260.0 0
196806.0 142454.0 0
201799.0 143550.0 0
207325.0 143256.0 0
213591.0 141317.0 0
216949.0 144354.0 0
220482.0 142199.0 0
225383.0 141737.0 0
229372.0 144255.0 0
235824.0 142943.0 0
240222.0 144643.0 0
245170.0 142656.0 0
252493.0 143819.0 0
257216.0 144155.0 0
262356.0 143784.0 0
267377.0 141583.0 0
272615.0 144601.0 0
277796.0 143281.0 0
282852.0 141261.0 0
289758.0 143139.0 0
285973.0 144763.0 0
293417.0 142845.0 0
297871.0 143780.0 0
303739.0 142241.0 0
309258.0 144182.0 0
315431.0 145178.0 0
320305.0 142300.0 0
323692.0 145824.0 0
328768.0 143846.0 0
334659.0 143153.0 0
338218.0 145409.0 0
342802.0 144343.0 0
348333.0 143673.0 0
354571.0 143590.0 0
358832.0 143728.0 0
362305.0 144415.0 0
366732.0 144331.0 0
371987.0 145162.0 0
376885.0 142362.0 0
380638.0 143015.0 0
386648.0 143512.0 0
391380.0 142596.0 0
396438.0 143588.0 0
400517.0 142029.0 0
407474.0 145640.0 0
413219.0 145470.0 0
418108.0 144655.0 0
422107.0 145043.0 0
426877.0 143497.0 0
431420.0 143397.0 0
436288.0 145375.0 0
442100.0 144686.0 0
447549.0 143601.0 0
452803.0 143870.0 0
457499.0 145535.0 0
461585.0 143326.0 0
465841.0 144434.0 0
470827.0 143437.0 0
480519.0 143924.0 0
485119.0 144550.0 0
491128.0 144517.0 0
497364.0 144214.0 0
2104.66 146912.0 0
6793.29 148541.0 0
12523.0 146828.0 0
18520.4 147923.0 0
24345.7 147650.0 0
30115.2 148020.0 0
35415.9 149457.0 0
39873.6 148134.0 0
43535.0 150171.0 0
47482.1 147856.0 0
51744.7 149858.0 0
56705.5 149606.0 0
61964.5 149616.0 0
66638.4 149296.0 0
71690.9 147876.0 0
77191.6 147025.0 0
82291.6 148838.0 0
88449.9 150289.0 0
93313.2 147944.0 0
97500.0 148715.0 0
107094.0 148289.0 0
102236.0 148515.0 0
112290.0 148017.0 0
117489.0 149451.0 0
122473.0 147705.0 0
132589.0 148464.0 0
127668.0 149213.0 0
137654.0 148189.0 0
142126.0 148625.0 0
147636.0 148407.0 0
153045.0 147741.0 0
157497.0 149435.0 0
161579.0 147583.0 0
165667.0 149270.0 0
171229.0 149123.0 0
176234.0 149116.0 0
180326.0 149564.0 0
184959.0 147983.0 0
190262.0 147550.0 0
195404.0 148038.0 0
201310.0 149004.0 0
206582.0 149329.0 0
212321.0 147148.0 0
218105.0 148683.0 0
222870.0 146659.0 0
227523.0 149268.0 0
232628.0 147816.0 0
238165.0 148629.0 0
243792.0 148992.0 0
248620.0 147558.0 0
254994.0 147879.0 0
251701.0 150887.0 0
259925.0 148050.0 0
266658.0 148625.0 0
272632.0 149546.0 0
276489.0 148148.0 0
281554.0 147008.0 0
287001.0 149353.0 0
292799.0 147666.0 0
298711.0 149647.0 0
303423.0 147535.0 0
307680.0 148837.0 0
312792.0 150453.0 0
319111.0 149544.0 0
323805.0 150047.0 0
328218.0 149489.0 0
332685.0 147792.0 0
337214.0 149190.0 0
341746.0 149581.0 0
346957.0 149070.0 0
352961.0 148869.0 0
358289.0 147547.0 0
363852.0 148807.0 0
368575.0 148443.0 0
377264.0 146665.0 0
372516.0 149038.0 0
383137.0 147984.0 0
392795.0 147332.0 0
388492.0 149216.0 0
396697.0 149111.0 0
401632.0 147103.0 0
408624.0 150233.0 0
412939.0 150433.0 0
417500.0 148614.0 0
423655.0 148944.0 0
429096.0 147694.0 0
432842.0 148874.0 0
439599.0 149026.0 0
445091.0 148678.0 0
449570.0 148331.0 0
453928.0 148677.0 0
458053.0 150097.0 0
461735.0 147881.0 0
466235.0 149144.0 0
472008.0 149463.0 0
476634.0 146199.0 0
477068.0 150815.0 0
481396.0 148548.0 0
487086.0 149769.0 0
492809.0 150413.0 0
497596.0 149247.0 0
3506.58 153993.0 0
8912.79 153807.0 0
12819.2 152254.0 0
18045.9 154133.0 0
23734.8 153016.0 0
29009.0 153815.0 0
33721.4 153619.0 0
38524.6 153939.0 0
43678.4 154891.0 0
47741.0 152619.0 0
52003.6 154415.0 0
56979.3 155013.0 0
61796.0 154324.0 0
66399.9 153888.0 0
71634.0 153761.0 0
78211.2 154242.0 0
84122.8 153583.0 0
87688.2 155364.0 0
94100.2 152158.0 0
99300.4 153412.0 0
103853.0 154850.0 0
108319.0 153254.0 0
113637.0 152859.0 0
122392.0 152096.0 0
118188.0 153896.0 0
126888.0 154158.0 0
131334.0 153309.0 0
135399.0 151945.0 0
139961.0 152895.0 0
145194.0 153541.0 0
151681.0 153850.0 0
157460.0 154603.0 0
162223.0 153012.0 0
167836.0 153588.0 0
173460.0 154760.0 0
178656.0 153538.0 0
183497.0 153530.0 0
188824.0 151654.0 0
193401.0 154282.0 0
198162.0 152750.0 0
202225.0 154329.0 0
207011.0 154498.0 0
212376.0 153548.0 0
217312.0 153148.0 0
221938.0 151999.0 0
226296.0 154065.0 0
231236.0 153212.0 0
236066.0 153811.0 0
240758.0 153656.0 0
247330.0 153030.0 0
251815.0 154894.0 0
256817.0 153030.0 0
262021.0 153167.0 0
266298.0 155953.0 0
272433.0 154290.0 0
277769.0 152578.0 0
282670.0 152506.0 0
287575.0 154837.0 0
294279.0 154282.0 0
299741.0 154462.0 0
304166.0 152545.0 0
308989.0 153817.0 0
315365.0 155356.0 0
320388.0 154556.0 0
326100.0 154787.0 0
333160.0 153955.0 0
339147.0 154475.0 0
343441.0 153600.0 0
347375.0 153869.0 0
351812.0 154417.0 0
357563.0 152898.0 0
363014.0 153844.0 0
368208.0 153283.0 0
373386.0 152697.0 0
378062.0 151766.0 0
382810.0 154134.0 0
392116.0 152288.0 0
388003.0 154940.0 0
397057.0 153461.0 0
402872.0 153775.0 0
407559.0 153783.0 0
411392.0 154727.0 0
416297.0 153578.0 0
421524.0 153375.0 0
427086.0 152760.0 0
431837.0 155024.0 0
436283.0 152537.0 0
442626.0 153942.0 0
449563.0 153958.0 0
454946.0 153346.0 0
459033.0 154379.0 0
462487.0 152116.0 0
466447.0 154005.0 0
470794.0 154630.0 0
475071.0 154371.0 0
479813.0 154862.0 0
485458.0 155430.0 0
491394.0 154622.0 0
496535.0 154724.0 0
3164.77 160656.0 0
7860.65 157870.0 0
13198.5 158164.0 0
18016.5 160107.0 0
22913.6 158647.0 0
28302.8 158959.0 0
33684.9 158528.0 0
38744.3 158878.0 0
42462.6 158723.0 0
47500.0 158491.0 0
52558.0 158812.0 0
57797.7 160327.0 0
62773.9 158790.0 0
67039.9 158689.0 0
72935.3 159812.0 0
78321.3 160042.0 0
82589.4 158635.0 0
87056.7 159279.0 0
92062.4 157473.0 0
97669.7 158702.0 0
102295.0 158521.0 0
107409.0 159087.0 0
113346.0 158276.0 0
121263.0 157386.0 0
117556.0 159627.0 0
125792.0 160080.0 0
129829.0 157574.0 0
135550.0 157744.0 0
141806.0 157762.0 0
147624.0 159892.0 0
152815.0 159200.0 0
156959.0 159080.0 0
162562.0 159126.0 0
168611.0 159106.0 0
178545.0 158624.0 0
173680.0 160134.0 0
183146.0 160255.0 0
188006.0 157541.0 0
193371.0 159090.0 0
197865.0 157774.0 0
202704.0 158524.0 0
206536.0 158888.0 0
210414.0 158130.0 0
215936.0 157670.0 0
222030.0 158141.0 0
227890.0 158530.0 0
232868.0 157680.0 0
237575.0 158287.0 0
243287.0 158136.0 0
248665.0 158504.0 0
254448.0 158565.0 0
259269.0 157868.0 0
262858.0 159672.0 0
270744.0 158573.0 0
276853.0 157145.0 0
282833.0 158663.0 0
288072.0 160170.0 0
292398.0 159838.0 0
298266.0 158756.0 0
306027.0 158141.0 0
310185.0 159689.0 0
311332.0 156869.0 0
314051.0 160377.0 0
318485.0 158606.0 0
322500.0 158776.0 0
328894.0 159455.0 0
333249.0 160330.0 0
337018.0 158344.0 0
341124.0 158263.0 0
346186.0 158394.0 0
357136.0 158216.0 0
352141.0 160524.0 0
361938.0 158756.0 0
372172.0 157311.0 0
367473.0 160052.0 0
377871.0 157758.0 0
383977.0 160180.0 0
389039.0 159698.0 0
392970.0 157503.0 0
398548.0 158882.0 0
404604.0 158935.0 0
408305.0 158938.0 0
411601.0 159020.0 0
415648.0 158374.0 0
420774.0 158864.0 0
427258.0 159313.0 0
432708.0 159093.0 0
437828.0 159144.0 0
443855.0 160191.0 0
448897.0 160080.0 0
453712.0 158181.0 0
458584.0 158470.0 0
462382.0 156585.0 0
466454.0 158886.0 0
471665.0 159287.0 0
476743.0 158951.0 0
482110.0 159734.0 0
489724.0 158748.0 0
493000.0 160736.0 0
497149.0 160718.0 0
2175.08 165903.0 0
6289.99 164855.0 0
11599.4 164280.0 0
17536.7 164570.0 0
22463.8 164318.0 0
27690.2 164020.0 0
32846.4 163908.0 0
37849.1 163411.0 0
42860.5 163512.0 0
47500.0 163574.0 0
52500.0 163493.0 0
57471.0 164787.0 0
62273.8 163847.0 0
67614.2 163075.0 0
72220.4 165532.0 0
81627.4 163540.0 0
77001.1 163929.0 0
86238.8 163400.0 0
91741.1 163886.0 0
97809.6 164090.0 0
102672.0 163068.0 0
106903.0 165233.0 0
111197.0 163160.0 0
115541.0 163958.0 0
120820.0 163277.0 0
126020.0 164912.0 0
131558.0 163562.0 0
137589.0 163931.0 0
143032.0 164371.0 0
152332.0 163189.0 0
148507.0 165699.0 0
156773.0 163761.0 0
161249.0 164976.0 0
165865.0 163637.0 0
170813.0 164065.0 0
176299.0 164707.0 0
181147.0 163771.0 0
186185.0 165774.0 0
190720.0 162476.0 0
195904.0 163412.0 0
202302.0 162210.0 0
207014.0 163902.0 0
212683.0 162350.0 0
217356.0 162097.0 0
221316.0 163646.0 0
226104.0 163360.0 0
231884.0 162735.0 0
236932.0 164846.0 0
240965.0 162382.0 0
246406.0 164471.0 0
252566.0 163835.0 0
257958.0 161922.0 0
257179.0 166392.0 0
262514.0 164718.0 0
267435.0 161649.0 0
272737.0 162664.0 0
277837.0 161842.0 0
276234.0 166068.0 0
283412.0 165701.0 0
290027.0 164687.0 0
296068.0 163940.0 0
302094.0 162808.0 0
308499.0 163657.0 0
313707.0 165508.0 0
318497.0 163174.0 0
325749.0 163142.0 0
322152.0 165897.0 0
331013.0 164892.0 0
336305.0 164015.0 0
342218.0 163663.0 0
347988.0 164594.0 0
352469.0 166181.0 0
357716.0 164083.0 0
363373.0 163678.0 0
372129.0 163431.0 0
367627.0 166162.0 0
377596.0 163722.0 0
382670.0 166449.0 0
388203.0 164568.0 0
393859.0 163178.0 0
403548.0 164733.0 0
409206.0 165477.0 0
413408.0 163206.0 0
418015.0 163815.0 0
422331.0 163905.0 0
427432.0 166066.0 0
432985.0 163350.0 0
437053.0 164070.0 0
442560.0 165680.0 0
447415.0 163454.0 0
451703.0 164034.0 0
455863.0 162449.0 0
461826.0 163763.0 0
468601.0 164464.0 0
474668.0 164373.0 0
480001.0 163841.0 0
486586.0 163963.0 0
493164.0 165113.0 0
498364.0 165038.0 0
2648.32 170184.0 0
6704.61 168724.0 0
11883.7 171067.0 0
17237.5 169068.0 0
21689.6 169193.0 0
26625.8 169222.0 0
32269.6 169363.0 0
37800.7 168481.0 0
42911.0 168628.0 0
48373.5 168447.0 0
53049.3 168675.0 0
57491.6 169072.0 0
62500.0 168660.0 0
67351.0 168684.0 0
72974.1 169869.0 0
77089.9 168857.0 0
80945.2 168844.0 0
86598.3 168573.0 0
92662.8 170481.0 0
98143.0 169134.0 0
102893.0 168086.0 0
107106.0 170587.0 0
112144.0 168461.0 0
117789.0 168328.0 0
127517.0 168627.0 0
123040.0 169995.0 0
131675.0 170367.0 0
135063.0 167436.0 0
139792.0 170064.0 0
146644.0 170935.0 0
153455.0 168983.0 0
159438.0 169521.0 0
165968.0 168851.0 0
171465.0 169291.0 0
177279.0 170926.0 0
183203.0 171056.0 0
191881.0 167215.0 0
188837.0 171362.0 0
195937.0 171065.0 0
201235.0 167168.0 0
206402.0 170636.0 0
211857.0 168119.0 0
217581.0 166815.0 0
222973.0 168297.0 0
228683.0 168320.0 0
233716.0 167702.0 0
236981.0 169393.0 0
241133.0 167732.0 0
246166.0 170898.0 0
251684.0 169276.0 0
258379.0 171380.0 0
263482.0 170309.0 0
268885.0 167632.0 0
274516.0 170311.0 0
279025.0 169128.0 0
288599.0 169436.0 0
293685.0 169635.0 0
300200.0 168977.0 0
305288.0 167325.0 0
305014.0 171306.0 0
308890.0 169576.0 0
313482.0 170516.0 0
316787.0 168329.0 0
320577.0 170037.0 0
326686.0 169578.0 0
333861.0 169847.0 0
338665.0 168389.0 0
342799.0 169127.0 0
347415.0 169565.0 0
352858.0 171006.0 0
357815.0 169868.0 0
362632.0 168499.0 0
367022.0 170508.0 0
371865.0 168903.0 0
377441.0 169649.0 0
382625.0 170808.0 0
386622.0 170098.0 0
391984.0 169359.0 0
397810.0 167040.0 0
396543.0 171158.0 0
401643.0 171454.0 0
406986.0 169681.0 0
411808.0 169179.0 0
417019.0 168355.0 0
422566.0 169642.0 0
432185.0 169944.0 0
437979.0 169290.0 0
442951.0 171234.0 0
448193.0 168509.0 0
452071.0 171680.0 0
455966.0 168362.0 0
461566.0 170321.0 0
466225.0 168974.0 0
471899.0 170690.0 0
477523.0 169172.0 0
481988.0 167819.0 0
481329.0 171660.0 0
486495.0 171280.0 0
491854.0 170220.0 0
497014.0 169801.0 0
162838.0 172507.0 0
201229.0 172604.0 0
204475.0 175168.0 0
210789.0 173784.0 0
216415.0 172562.0 0
222470.0 174028.0 0
227958.0 173725.0 0
233919.0 172528.0 0
236553.0 175854.0 0
240340.0 173512.0 0
244603.0 176567.0 0
248995.0 175444.0 0
253471.0 174039.0 0
261359.0 174446.0 0
265891.0 175199.0 0
270708.0 173151.0 0
278604.0 174608.0 0
284481.0 172080.0 0
283464.0 176725.0 0
289821.0 173982.0 0
297138.0 174347.0 0
302388.0 174893.0 0
427263.0 171769.0 0
199564.0 177522.0 0
204438.0 179301.0 0
209449.0 178773.0 0
215730.0 178668.0 0
221138.0 179409.0 0
226642.0 179444.0 0
231459.0 177070.0 0
235318.0 179025.0 0
240447.0 179611.0 0
245799.0 181717.0 0
252387.0 178976.0 0
257903.0 176937.0 0
262175.0 177529.0 0
262924.0 181600.0 0
271471.0 178289.0 0
276420.0 179976.0 0
280939.0 179860.0 0
284567.0 181156.0 0
287257.0 178291.0 0
293226.0 178863.0 0
299487.0 179715.0 0
200565.0 183809.0 0
206823.0 183788.0 0
212341.0 182987.0 0
218216.0 184343.0 0
223359.0 183328.0 0
227340.0 185403.0 0
231813.0 182377.0 0
236722.0 182690.0 0
236090.0 186751.0 0
240955.0 185333.0 0
250599.0 183277.0 0
256857.0 183338.0 0
261597.0 186741.0 0
268034.0 182434.0 0
273345.0 184656.0 0
278896.0 183878.0 0
283257.0 184741.0 0
288822.0 183581.0 0
294307.0 184459.0 0
298362.0 184422.0 0
202161.0 190187.0 0
208341.0 189286.0 0
213592.0 188068.0 0
218679.0 189718.0 0
223708.0 189337.0 0
228230.0 189966.0 0
231675.0 187750.0 0
240597.0 189413.0 0
246377.0 187584.0 0
252212.0 188013.0 0
257463.0 189229.0 0
261855.0 192056.0 0
266661.0 187665.0 0
271774.0 189417.0 0
276907.0 188643.0 0
279543.0 191503.0 0
281086.0 187799.0 0
285903.0 188784.0 0
291470.0 188521.0 0
297267.0 189019.0 0
341742.0 191281.0 0
10310.7 193617.0 0
206113.0 194689.0 0
210328.0 193291.0 0
215193.0 193607.0 0
220808.0 193946.0 0
226487.0 194910.0 0
231211.0 192357.0 0
237005.0 192184.0 0
243162.0 192186.0 0
248814.0 192962.0 0
254687.0 193161.0 0
258639.0 196828.0 0
268411.0 194137.0 0
274604.0 192687.0 0
278616.0 195585.0 0
283537.0 193715.0 0
289172.0 193313.0 0
293919.0 192621.0 0
297983.0 195174.0 0
309756.0 195147.0 0
48261.5 201041.0 0
174681.0 200066.0 0
201804.0 197312.0 0
201361.0 202089.0 0
206246.0 199998.0 0
211437.0 198137.0 0
216914.0 199145.0 0
222262.0 198810.0 0
228036.0 199420.0 0
232130.0 197429.0 0
237053.0 197567.0 0
241904.0 197622.0 0
247658.0 198860.0 0
253228.0 198310.0 0
258819.0 202022.0 0
262729.0 199387.0 0
267372.0 200413.0 0
273143.0 198999.0 0
279213.0 201307.0 0
282871.0 197971.0 0
287189.0 199539.0 0
293026.0 197825.0 0
297889.0 201683.0 0
362467.0 201290.0 0
368610.0 201072.0 0
389098.0 200137.0 0
404603.0 198403.0 0
421499.0 199674.0 0
443009.0 199322.0 0
455114.0 199703.0 0
472319.0 200446.0 0
492537.0 201423.0 0
497243.0 199271.0 0
6878.9 203427.0 0
56374.4 204955.0 0
63868.7 204964.0 0
68827.6 205983.0 0
79658.9 206718.0 0
85031.3 207416.0 0
96187.4 205231.0 0
100416.0 204678.0 0
107589.0 206415.0 0
115161.0 206717.0 0
121008.0 206610.0 0
126005.0 204398.0 0
154054.0 207020.0 0
158565.0 206414.0 0
167796.0 203289.0 0
177286.0 204119.0 0
191569.0 205271.0 0
196244.0 206199.0 0
200883.0 206448.0 0
205139.0 204892.0 0
210417.0 203807.0 0
215507.0 203836.0 0
220077.0 203262.0 0
225519.0 202913.0 0
231417.0 203561.0 0
237507.0 202482.0 0
242306.0 205500.0 0
248058.0 204925.0 0
253774.0 203656.0 0
259057.0 206430.0 0
263576.0 204577.0 0
269202.0 205532.0 0
274268.0 204260.0 0
284341.0 204515.0 0
288861.0 204137.0 0
292822.0 203106.0 0
297460.0 206686.0 0
309917.0 206652.0 0
317421.0 203366.0 0
322450.0 204757.0 0
357807.0 202873.0 0
374583.0 203714.0 0
391311.0 206815.0 0
437044.0 202964.0 0
461586.0 203564.0 0
471850.0 207423.0 0
476569.0 203690.0 0
481239.0 204783.0 0
14254.8 207980.0 0
17655.2 211296.0 0
22442.4 209295.0 0
30433.9 209200.0 0
36537.1 209733.0 0
48339.7 211944.0 0
53010.0 211942.0 0
75161.9 208019.0 0
93065.2 211332.0 0
111005.0 208260.0 0
124379.0 211505.0 0
131855.0 208721.0 0
137504.0 207734.0 0
142262.0 209987.0 0
150902.0 211309.0 0
173221.0 209142.0 0
178042.0 210986.0 0
178735.0 207485.0 0
204078.0 209537.0 0
207996.0 207889.0 0
213356.0 208706.0 0
209313.0 212262.0 0
217845.0 207504.0 0
222320.0 207428.0 0
220060.0 211497.0 0
227456.0 208212.0 0
233019.0 209293.0 0
238126.0 208435.0 0
241698.0 210286.0 0
245358.0 209434.0 0
251061.0 209798.0 0
255503.0 208193.0 0
257880.0 212077.0 0
261792.0 208877.0 0
267220.0 210579.0 0
273097.0 208555.0 0
277796.0 207974.0 0
282146.0 208297.0 0
284677.0 210790.0 0
287765.0 208289.0 0
292969.0 208110.0 0
296828.0 211193.0 0
322451.0 209469.0 0
326630.0 210228.0 0
330913.0 210502.0 0
339605.0 209846.0 0
345114.0 212038.0 0
388726.0 211330.0 0
396056.0 208254.0 0
407296.0 212407.0 0
417127.0 209320.0 0
423600.0 207625.0 0
426612.0 211194.0 0
431907.0 211897.0 0
439714.0 210185.0 0
444222.0 212443.0 0
449230.0 209336.0 0
458451.0 212202.0 0
462790.0 210013.0 0
466760.0 208826.0 0
479717.0 210066.0 0
484429.0 210146.0 0
497839.0 208722.0 0
2631.23 216586.0 0
8033.11 213616.0 0
14588.8 214804.0 0
18911.2 217131.0 0
30589.4 215401.0 0
40985.6 214138.0 0
45936.2 215613.0 0
88220.9 213406.0 0
92904.6 216341.0 0
97919.2 213457.0 0
102310.0 215564.0 0
113050.0 215622.0 0
119140.0 213607.0 0
126262.0 215712.0 0
137141.0 217172.0 0
146000.0 213438.0 0
155278.0 214675.0 0
169989.0 214394.0 0
177569.0 215155.0 0
183085.0 216809.0 0
188922.0 215459.0 0
194746.0 216732.0 0
199532.0 214058.0 0
204404.0 214676.0 0
208773.0 217471.0 0
215064.0 214240.0 0
222083.0 215764.0 0
225948.0 213194.0 0
230700.0 214048.0 0
236385.0 213786.0 0
241423.0 214062.0 0
247380.0 214859.0 0
253470.0 214306.0 0
262773.0 213107.0 0
267283.0 215915.0 0
271753.0 213006.0 0
276232.0 214459.0 0
280753.0 212530.0 0
284102.0 217430.0 0
287948.0 213245.0 0
292568.0 213022.0 0
300502.0 213606.0 0
296387.0 215938.0 0
304860.0 214101.0 0
308760.0 213285.0 0
309713.0 217448.0 0
314014.0 216191.0 0
318278.0 213490.0 0
335045.0 213162.0 0
342101.0 215439.0 0
348027.0 215593.0 0
364943.0 214595.0 0
368691.0 217229.0 0
377600.0 215458.0 0
383597.0 214249.0 0
390690.0 215260.0 0
393964.0 213137.0 0
398809.0 215289.0 0
403236.0 216160.0 0
412976.0 214729.0 0
422388.0 213091.0 0
431773.0 217419.0 0
436080.0 213734.0 0
473827.0 216851.0 0
478880.0 215286.0 0
489239.0 213071.0 0
492521.0 217069.0 0
497266.0 216826.0 0
4198.95 221690.0 0
10165.2 219839.0 0
27252.5 219454.0 0
31965.1 221939.0 0
37311.7 217733.0 0
44551.6 221094.0 0
49617.5 222030.0 0
54909.3 218603.0 0
60744.6 219651.0 0
73247.1 221688.0 0
79797.4 222187.0 0
85759.2 218621.0 0
91010.0 218754.0 0
96476.5 217779.0 0
100409.0 219947.0 0
105708.0 218654.0 0
118044.0 220911.0 0
127597.0 220440.0 0
132697.0 219091.0 0
140009.0 221399.0 0
145853.0 221416.0 0
166524.0 218449.0 0
169946.0 222154.0 0
175196.0 220490.0 0
182125.0 222051.0 0
204247.0 220190.0 0
212998.0 220634.0 0
218415.0 219329.0 0
222785.0 219660.0 0
226653.0 218025.0 0
231894.0 219238.0 0
237319.0 219202.0 0
242504.0 218697.0 0
247180.0 221232.0 0
252149.0 219228.0 0
257611.0 217863.0 0
262742.0 217806.0 0
265989.0 221672.0 0
272536.0 218707.0 0
278428.0 218591.0 0
281573.0 222043.0 0
290977.0 218375.0 0
296247.0 222070.0 0
305457.0 218034.0 0
301919.0 221068.0 0
308862.0 222065.0 0
312813.0 221442.0 0
335177.0 220668.0 0
341691.0 220333.0 0
360423.0 218398.0 0
373639.0 219648.0 0
380959.0 220238.0 0
385630.0 218980.0 0
388242.0 222218.0 0
394399.0 217927.0 0
398411.0 219306.0 0
402468.0 221062.0 0
411664.0 222169.0 0
415149.0 219172.0 0
440796.0 222673.0 0
462565.0 219834.0 0
468005.0 221492.0 0
472750.0 222526.0 0
483291.0 218884.0 0
488293.0 220332.0 0
494690.0 221776.0 0
1396.57 224680.0 0
8211.08 223646.0 0
11918.4 225121.0 0
16619.4 224590.0 0
21754.5 223286.0 0
31750.6 226682.0 0
40529.6 225560.0 0
36111.9 225931.0 0
53511.7 223572.0 0
55082.9 227674.0 0
65233.2 222795.0 0
75981.4 226577.0 0
97591.4 223382.0 0
101262.0 224497.0 0
115988.0 227740.0 0
122206.0 222910.0 0
125707.0 224133.0 0
127453.0 227580.0 0
132217.0 225174.0 0
137709.0 226655.0 0
150246.0 224832.0 0
157949.0 223585.0 0
162385.0 224364.0 0
166757.0 226941.0 0
178322.0 224003.0 0
173828.0 225309.0 0
182575.0 226829.0 0
203598.0 225772.0 0
208491.0 222954.0 0
212184.0 225531.0 0
217001.0 226198.0 0
221535.0 223598.0 0
226387.0 222965.0 0
231035.0 224580.0 0
236952.0 225149.0 0
242597.0 223761.0 0
247334.0 225686.0 0
251017.0 224359.0 0
255658.0 223092.0 0
259256.0 227745.0 0
261566.0 223201.0 0
265044.0 226467.0 0
270041.0 225490.0 0
276311.0 224442.0 0
282382.0 226975.0 0
286620.0 222994.0 0
291671.0 225536.0 0
296089.0 227708.0 0
305267.0 224845.0 0
315851.0 225269.0 0
321609.0 225036.0 0
329672.0 223759.0 0
345721.0 225493.0 0
350533.0 223086.0 0
355714.0 224580.0 0
365233.0 227292.0 0
368277.0 222733.0 0
371514.0 227201.0 0
376826.0 224691.0 0
382983.0 227531.0 0
392773.0 226685.0 0
397327.0 224522.0 0
402414.0 225822.0 0
406830.0 223675.0 0
417627.0 223984.0 0
430432.0 226733.0 0
435876.0 225067.0 0
443743.0 226962.0 0
448497.0 225032.0 0
472922.0 226850.0 0
477904.0 226971.0 0
490331.0 224916.0 0
498185.0 224869.0 0
9024.03 228525.0 0
22141.1 228773.0 0
27556.0 229797.0 0
42506.5 229203.0 0
47221.1 229917.0 0
57767.4 231414.0 0
62118.7 232920.0 0
71070.6 228023.0 0
66580.1 231062.0 0
78232.9 231950.0 0
87177.6 229519.0 0
92596.4 231968.0 0
101304.0 229721.0 0
105416.0 230128.0 0
110427.0 232010.0 0
121376.0 228547.0 0
119859.0 232202.0 0
125026.0 230980.0 0
134374.0 229532.0 0
136926.0 229828.0 0
142940.0 229288.0 0
149278.0 231419.0 0
154955.0 230221.0 0
159503.0 228944.0 0
162950.0 231260.0 0
170964.0 228748.0 0
178095.0 228266.0 0
179935.0 231666.0 0
188423.0 228758.0 0
193802.0 231588.0 0
198190.0 228415.0 0
202876.0 231374.0 0
208334.0 227995.0 0
213345.0 230189.0 0
218053.0 232701.0 0
221885.0 228849.0 0
227460.0 228704.0 0
232907.0 229586.0 0
238284.0 231366.0 0
244005.0 229203.0 0
249419.0 229054.0 0
253932.0 229286.0 0
252004.0 232667.0 0
263834.0 230478.0 0
268012.0 229883.0 0
272691.0 229962.0 0
278031.0 230773.0 0
283191.0 232319.0 0
287572.0 229160.0 0
292515.0 230974.0 0
296868.0 231716.0 0
305811.0 232322.0 0
301395.0 232863.0 0
310186.0 228447.0 0
315912.0 231137.0 0
326129.0 228235.0 0
329885.0 230179.0 0
332766.0 228152.0 0
354804.0 231962.0 0
359390.0 228248.0 0
363529.0 231901.0 0
368250.0 232356.0 0
375763.0 230594.0 0
388117.0 231065.0 0
405524.0 228785.0 0
418256.0 229149.0 0
420703.0 232875.0 0
423877.0 229201.0 0
428710.0 232710.0 0
448865.0 229907.0 0
453540.0 231227.0 0
457751.0 228473.0 0
463509.0 228584.0 0
469551.0 229967.0 0
473869.0 230966.0 0
480010.0 232445.0 0
485101.0 231047.0 0
492549.0 228772.0 0
497345.0 229766.0 0
12432.9 234160.0 0
18261.9 234121.0 0
31572.7 236296.0 0
35807.4 233296.0 0
40409.5 234004.0 0
42563.5 237923.0 0
83627.7 234216.0 0
88025.0 235028.0 0
98112.3 235669.0 0
115498.0 233841.0 0
119756.0 236090.0 0
124322.0 235009.0 0
137186.0 237087.0 0
145130.0 233292.0 0
152637.0 234658.0 0
157044.0 234768.0 0
175791.0 233015.0 0
203858.0 236464.0 0
208374.0 233459.0 0
213628.0 235759.0 0
223604.0 233780.0 0
220713.0 236092.0 0
229037.0 233687.0 0
226282.0 236772.0 0
233879.0 234744.0 0
238180.0 236386.0 0
242503.0 234895.0 0
247734.0 233811.0 0
251494.0 237813.0 0
255720.0 234594.0 0
260652.0 233689.0 0
265215.0 234483.0 0
269725.0 234032.0 0
274715.0 235462.0 0
281330.0 236655.0 0
288142.0 234979.0 0
293578.0 235769.0 0
297771.0 235371.0 0
309215.0 233446.0 0
320548.0 235227.0 0
327915.0 237734.0 0
332502.0 233076.0 0
332244.0 237010.0 0
337497.0 232969.0 0
344487.0 233886.0 0
350089.0 233425.0 0
359342.0 233778.0 0
379842.0 233162.0 0
383935.0 233231.0 0
396224.0 235234.0 0
401114.0 237191.0 0
443848.0 235399.0 0
460614.0 236411.0 0
475351.0 236168.0 0
486287.0 236597.0 0
2385.26 239213.0 0
6006.39 242909.0 0
11457.4 240297.0 0
19755.7 238645.0 0
23726.9 239873.0 0
28043.2 240628.0 0
37894.0 240153.0 0
44669.6 242575.0 0
48901.4 240751.0 0
53337.5 242845.0 0
59411.4 239280.0 0
57735.5 242753.0 0
73236.5 238035.0 0
78992.8 239864.0 0
84814.0 240081.0 0
103476.0 239096.0 0
108327.0 240525.0 0
127047.0 239312.0 0
133529.0 239795.0 0
141682.0 239840.0 0
147366.0 241746.0 0
166764.0 242759.0 0
172721.0 242921.0 0
178009.0 240083.0 0
182816.0 239756.0 0
188845.0 239683.0 0
195076.0 241946.0 0
203963.0 242009.0 0
208072.0 238949.0 0
212464.0 240520.0 0
217762.0 239466.0 0
223042.0 239384.0 0
226900.0 242909.0 0
230318.0 238605.0 0
235414.0 239681.0 0
240555.0 239850.0 0
245780.0 239359.0 0
251771.0 242392.0 0
256396.0 239651.0 0
259937.0 242685.0 0
262262.0 238525.0 0
267761.0 238837.0 0
272922.0 240621.0 0
278143.0 240147.0 0
284671.0 239650.0 0
290899.0 240373.0 0
296526.0 240190.0 0
320417.0 240819.0 0
324961.0 240744.0 0
339112.0 242935.0 0
349617.0 240144.0 0
356286.0 241062.0 0
366109.0 241312.0 0
370489.0 241606.0 0
373783.0 238332.0 0
391305.0 238674.0 0
405441.0 239308.0 0
410203.0 241229.0 0
415232.0 239711.0 0
420447.0 240361.0 0
429055.0 242757.0 0
436061.0 241171.0 0
441300.0 239663.0 0
447423.0 239250.0 0
452098.0 241030.0 0
463371.0 240731.0 0
468386.0 238165.0 0
472620.0 241061.0 0
478625.0 241328.0 0
482264.0 238959.0 0
488314.0 240469.0 0
491602.0 238185.0 0
497634.0 242002.0 0
10345.6 245723.0 0
14356.5 246657.0 0
17628.4 244342.0 0
21198.9 246527.0 0
31549.5 243601.0 0
81396.5 244182.0 0
88732.2 245419.0 0
94616.0 246123.0 0
115852.0 246629.0 0
124424.0 247950.0 0
131487.0 243845.0 0
151889.0 245509.0 0
157006.0 244102.0 0
162148.0 243800.0 0
208984.0 244191.0 0
204533.0 247790.0 0
215424.0 245129.0 0
220830.0 243727.0 0
223890.0 246812.0 0
232157.0 243422.0 0
233632.0 247806.0 0
237585.0 244422.0 0
242700.0 243570.0 0
241571.0 247846.0 0
247669.0 245272.0 0
255609.0 244837.0 0
264650.0 243378.0 0
269298.0 243461.0 0
275667.0 245395.0 0
282089.0 244976.0 0
288381.0 245526.0 0
294169.0 245450.0 0
307859.0 244434.0 0
313339.0 245994.0 0
318165.0 245076.0 0
333604.0 246513.0 0
344315.0 245077.0 0
348224.0 247044.0 0
361855.0 243875.0 0
373349.0 244608.0 0
375332.0 247976.0 0
382120.0 244674.0 0
377846.0 245211.0 0
386421.0 244902.0 0
412280.0 247716.0 0
424465.0 243207.0 0
425494.0 247150.0 0
434661.0 246172.0 0
439140.0 247976.0 0
444448.0 245683.0 0
456662.0 246131.0 0
461427.0 247579.0 0
475464.0 244348.0 0
478873.0 247012.0 0
484076.0 245416.0 0
2520.43 251403.0 0
23712.7 249875.0 0
27712.7 250789.0 0
38957.8 251859.0 0
64003.3 251989.0 0
69034.9 251901.0 0
73587.4 249297.0 0
78890.1 251125.0 0
99836.4 249158.0 0
106851.0 252273.0 0
111993.0 251740.0 0
115838.0 252390.0 0
129417.0 248263.0 0
132091.0 251676.0 0
137331.0 249842.0 0
141484.0 251479.0 0
178121.0 250115.0 0
173534.0 251500.0 0
182877.0 248662.0 0
190151.0 248881.0 0
198863.0 250311.0 0
194183.0 252118.0 0
206165.0 252269.0 0
209812.0 249160.0 0
214272.0 250852.0 0
219383.0 249042.0 0
223634.0 251372.0 0
228551.0 248691.0 0
232406.0 252274.0 0
237508.0 250318.0 0
249634.0 250047.0 0
245265.0 250691.0 0
254552.0 250297.0 0
260839.0 248418.0 0
267630.0 248302.0 0
273080.0 250409.0 0
278626.0 250290.0 0
282938.0 249946.0 0
286584.0 250108.0 0
291011.0 249954.0 0
295789.0 250764.0 0
304833.0 248863.0 0
320801.0 252322.0 0
326082.0 251308.0 0
339966.0 252314.0 0
345237.0 249594.0 0
348323.0 251374.0 0
353398.0 252546.0 0
387759.0 251605.0 0
391971.0 252803.0 0
396070.0 249860.0 0
405148.0 249880.0 0
416387.0 249371.0 0
422843.0 252035.0 0
431748.0 250167.0 0
448734.0 253264.0 0
452878.0 249590.0 0
457920.0 251087.0 0
465643.0 249631.0 0
493893.0 252039.0 0
35470.8 253480.0 0
31330.3 253894.0 0
58276.5 256625.0 0
62760.5 256776.0 0
79117.6 255943.0 0
83595.1 253575.0 0
85357.4 258246.0 0
102136.0 253887.0 0
118035.0 255905.0 0
122579.0 254024.0 0
182265.0 257933.0 0
187621.0 254316.0 0
186511.0 258018.0 0
204357.0 255367.0 0
210207.0 253763.0 0
219003.0 253923.0 0
214471.0 255669.0 0
223352.0 256141.0 0
227926.0 254332.0 0
236315.0 255375.0 0
241299.0 253615.0 0
246217.0 255872.0 0
251078.0 254150.0 0
256302.0 256278.0 0
262861.0 255125.0 0
268059.0 253513.0 0
272177.0 255531.0 0
277010.0 255214.0 0
282246.0 254716.0 0
286579.0 253786.0 0
288281.0 257372.0 0
292295.0 254515.0 0
296350.0 254268.0 0
296140.0 257494.0 0
334097.0 256559.0 0
338749.0 255521.0 0
344226.0 253540.0 0
377578.0 254079.0 0
383309.0 256214.0 0
417562.0 253763.0 0
429251.0 254810.0 0
440415.0 255759.0 0
444373.0 254836.0 0
449043.0 258314.0 0
472532.0 258442.0 0
476982.0 257892.0 0
483950.0 255483.0 0
488519.0 253353.0 0
23860.2 260541.0 0
57656.8 263308.0 0
89677.3 259414.0 0
114635.0 259611.0 0
119205.0 260065.0 0
148593.0 259185.0 0
154063.0 260261.0 0
160451.0 260975.0 0
172783.0 261511.0 0
177642.0 259744.0 0
175845.0 263383.0 0
204006.0 259823.0 0
209786.0 259214.0 0
219172.0 258612.0 0
215089.0 260071.0 0
222789.0 260600.0 0
226785.0 259107.0 0
232142.0 259490.0 0
237492.0 259664.0 0
241630.0 258693.0 0
247322.0 260835.0 0
251264.0 258713.0 0
251624.0 263265.0 0
257636.0 261033.0 0
261118.0 260145.0 0
267903.0 258980.0 0
273126.0 259965.0 0
279255.0 259517.0 0
284088.0 259665.0 0
287844.0 261676.0 0
292285.0 259991.0 0
295740.0 262975.0 0
343860.0 260868.0 0
347413.0 263354.0 0
354633.0 260881.0 0
362728.0 260049.0 0
367860.0 258457.0 0
374256.0 258793.0 0
378320.0 262569.0 0
388742.0 258672.0 0
441465.0 261951.0 0
447200.0 262346.0 0
487877.0 261047.0 0
18980.9 264456.0 0
24601.3 265667.0 0
29372.6 266841.0 0
41944.7 267020.0 0
46285.1 264975.0 0
59419.7 267209.0 0
125705.0 267912.0 0
131308.0 266566.0 0
136308.0 266435.0 0
164978.0 264704.0 0
169679.0 265907.0 0
203274.0 265592.0 0
207137.0 263999.0 0
212541.0 264168.0 0
216903.0 263603.0 0
216026.0 267344.0 0
221028.0 264816.0 0
226469.0 264277.0 0
231406.0 264575.0 0
236716.0 264624.0 0
242994.0 264056.0 0
247799.0 265007.0 0
256146.0 264839.0 0
260920.0 264436.0 0
263538.0 268199.0 0
265927.0 264350.0 0
270797.0 263575.0 0
273818.0 267253.0 0
276141.0 263765.0 0
281425.0 264005.0 0
282425.0 268488.0 0
285814.0 265062.0 0
291086.0 264908.0 0
295575.0 267889.0 0
300753.0 264814.0 0
351113.0 264375.0 0
354750.0 267667.0 0
359569.0 264053.0 0
374379.0 268608.0 0
378180.0 266951.0 0
388980.0 268256.0 0
441425.0 268359.0 0
496741.0 263561.0 0
3000.82 270106.0 0
34198.8 268801.0 0
38189.5 271854.0 0
44756.1 270475.0 0
49720.9 269303.0 0
78998.1 270002.0 0
78850.0 273456.0 0
109302.0 271226.0 0
203607.0 269172.0 0
199008.0 271700.0 0
209616.0 269868.0 0
215005.0 270971.0 0
217595.0 273631.0 0
219940.0 269747.0 0
225127.0 269841.0 0
230480.0 269214.0 0
235397.0 270029.0 0
240005.0 269289.0 0
245797.0 269934.0 0
252776.0 269853.0 0
259145.0 269265.0 0
264996.0 272293.0 0
269639.0 268701.0 0
275508.0 273454.0 0
277560.0 269168.0 0
286250.0 268793.0 0
290629.0 270392.0 0
286405.0 273283.0 0
295370.0 273686.0 0
303327.0 270211.0 0
318205.0 271230.0 0
321222.0 273500.0 0
324319.0 272424.0 0
344872.0 270996.0 0
382647.0 269496.0 0
399809.0 272789.0 0
425901.0 273252.0 0
430527.0 271339.0 0
435600.0 270690.0 0
463934.0 269450.0 0
5576.43 274507.0 0
30674.9 277749.0 0
40981.1 274598.0 0
104572.0 275052.0 0
110496.0 275985.0 0
114684.0 277448.0 0
194107.0 278543.0 0
199280.0 277421.0 0
204505.0 273996.0 0
213854.0 274247.0 0
209704.0 277168.0 0
215563.0 278421.0 0
222169.0 274407.0 0
222848.0 278204.0 0
227333.0 274610.0 0
232822.0 274552.0 0
238449.0 274150.0 0
242878.0 274181.0 0
241917.0 278389.0 0
247484.0 275674.0 0
251331.0 274623.0 0
252118.0 278805.0 0
255291.0 275508.0 0
260318.0 274480.0 0
270308.0 274964.0 0
275365.0 278102.0 0
280916.0 274241.0 0
285529.0 278373.0 0
290401.0 275962.0 0
306624.0 276486.0 0
349594.0 277844.0 0
389404.0 278447.0 0
394819.0 276280.0 0
406576.0 275074.0 0
412274.0 274753.0 0
420030.0 274706.0 0
466754.0 275907.0 0
470906.0 277263.0 0
13308.9 281198.0 0
118920.0 279939.0 0
123167.0 282194.0 0
190052.0 281615.0 0
203762.0 278887.0 0
207021.0 282771.0 0
213627.0 283723.0 0
218154.0 283724.0 0
219946.0 279144.0 0
222500.0 283587.0 0
226713.0 280268.0 0
231987.0 279598.0 0
236793.0 279189.0 0
242687.0 282935.0 0
246392.0 280458.0 0
251699.0 282937.0 0
259938.0 279703.0 0
255128.0 280241.0 0
265584.0 279027.0 0
270872.0 280887.0 0
280266.0 280114.0 0
289387.0 282078.0 0
294636.0 279837.0 0
336311.0 281816.0 0
351904.0 283258.0 0
355596.0 280644.0 0
417609.0 280831.0 0
431254.0 282158.0 0
4937.82 285425.0 0
2103.89 287984.0 0
9627.86 285677.0 0
187646.0 287853.0 0
203371.0 285101.0 0
204452.0 288735.0 0
209713.0 286933.0 0
218306.0 288383.0 0
222726.0 288497.0 0
228118.0 285525.0 0
233102.0 284178.0 0
231449.0 288847.0 0
237975.0 283982.0 0
236417.0 288772.0 0
241624.0 287582.0 0
247738.0 284655.0 0
253246.0 288981.0 0
255829.0 284418.0 0
258473.0 289036.0 0
260264.0 284762.0 0
265036.0 284416.0 0
262430.0 288381.0 0
269992.0 286251.0 0
275872.0 284233.0 0
280221.0 287044.0 0
284133.0 284242.0 0
288836.0 287632.0 0
294886.0 286464.0 0
329037.0 288271.0 0
341778.0 285283.0 0
361777.0 286998.0 0
367623.0 287050.0 0
378832.0 285778.0 0
208611.0 291215.0 0
213389.0 289419.0 0
218165.0 293137.0 0
222182.0 293213.0 0
226681.0 290055.0 0
236519.0 293991.0 0
242380.0 293930.0 0
247090.0 289770.0 0
252047.0 293845.0 0
256535.0 293645.0 0
261403.0 293262.0 0
266448.0 290273.0 0
273824.0 289608.0 0
271274.0 293583.0 0
278168.0 290549.0 0
282084.0 290074.0 0
285751.0 291538.0 0
289876.0 292311.0 0
294931.0 293221.0 0
315116.0 293732.0 0
320148.0 291608.0 0
325382.0 291998.0 0
371598.0 290613.0 0
375018.0 292547.0 0
385884.0 289800.0 0
390115.0 292155.0 0
35193.8 295833.0 0
68661.0 295390.0 0
74935.4 296993.0 0
139476.0 296093.0 0
144683.0 296793.0 0
154306.0 297924.0 0
161601.0 298810.0 0
204665.0 294388.0 0
208958.0 296768.0 0
213534.0 294636.0 0
225758.0 294623.0 0
230740.0 294329.0 0
247901.0 295336.0 0
266160.0 296136.0 0
276404.0 295638.0 0
281975.0 294536.0 0
287124.0 296541.0 0
292000.0 297497.0 0
302840.0 298131.0 0
61778.3 301149.0 0
68580.0 299764.0 0
71617.3 301278.0 0
81810.3 303816.0 0
90847.8 299349.0 0
132100.0 304158.0 0
137181.0 300808.0 0
149546.0 299729.0 0
157366.0 302081.0 0
295743.0 299333.0 0
300503.0 302261.0 0
306217.0 301441.0 0
78448.2 306631.0 0
135499.0 307681.0 0
309713.0 306606.0 0
185974.0 314366.0 0
305097.0 312082.0 0
308845.0 311147.0 0
197715.0 318168.0 0
142495.0 320278.0 0
138284.0 322906.0 0
193738.0 326404.0 0
1675.16 375612.0 0
5466.26 375226.0 0
9922.84 375284.0 0
14387.0 375201.0 0
18548.6 375144.0 0
23089.7 375106.0 0
26983.6 375425.0 0
30849.9 375245.0 0
34519.1 375525.0 0
37434.4 375617.0 0
41326.0 375478.0 0
45995.2 375119.0 0
49376.1 375248.0 0
53081.1 375814.0 0
57180.6 375453.0 0
61228.6 375917.0 0
65959.0 375036.0 0
69531.2 375481.0 0
72931.9 375647.0 0
76710.0 375176.0 0
80875.3 375348.0 0
85457.3 375216.0 0
90445.8 375326.0 0
94845.3 375264.0 0
99445.8 375298.0 0
103526.0 375355.0 0
107427.0 375279.0 0
111439.0 375257.0 0
115772.0 375173.0 0
119903.0 375549.0 0
124093.0 375107.0 0
129572.0 375493.0 0
133459.0 375545.0 0
136255.0 375534.0 0
142525.0 375548.0 0
139471.0 375472.0 0
145819.0 375364.0 0
150406.0 375871.0 0
154669.0 375163.0 0
158500.0 375865.0 0
162486.0 375722.0 0
166288.0 375297.0 0
170313.0 375333.0 0
173490.0 375427.0 0
177422.0 375060.0 0
182057.0 375128.0 0
179589.0 376809.0 0
185633.0 375400.0 0
189443.0 375138.0 0
193017.0 375569.0 0
195821.0 375392.0 0
198585.0 375121.0 0
300812.0 376283.0 0
304632.0 375608.0 0
308246.0 376327.0 0
311662.0 375291.0 0
316339.0 375689.0 0
320448.0 375842.0 0
323688.0 375593.0 0
327150.0 375465.0 0
331263.0 375354.0 0
335552.0 375061.0 0
339480.0 375668.0 0
343380.0 375384.0 0
348402.0 375743.0 0
352532.0 375989.0 0
356149.0 375019.0 0
360757.0 375281.0 0
365630.0 375915.0 0
370328.0 375269.0 0
375872.0 375296.0 0
373044.0 377291.0 0
379853.0 375752.0 0
383765.0 375470.0 0
388146.0 376004.0 0
393343.0 375227.0 0
396860.0 375511.0 0
399834.0 375348.0 0
403775.0 375357.0 0
408083.0 375061.0 0
410123.0 377500.0 0
412673.0 375152.0 0
417369.0 375181.0 0
421597.0 375484.0 0
425804.0 375662.0 0
429474.0 375277.0 0
433464.0 375462.0 0
437802.0 375096.0 0
442368.0 375221.0 0
440566.0 377231.0 0
445753.0 375214.0 0
450808.0 375496.0 0
455539.0 375615.0 0
460487.0 375659.0 0
464767.0 375548.0 0
469448.0 375459.0 0
473690.0 375142.0 0
479028.0 375177.0 0
483913.0 375464.0 0
487718.0 375297.0 0
492684.0 375515.0 0
497563.0 375363.0 0
4054.37 378770.0 0
1268.29 378713.0 0
1387.61 381459.0 0
7748.2 378067.0 0
10030.2 380691.0 0
5663.26 382304.0 0
12131.4 378241.0 0
13870.5 382162.0 0
16162.7 379048.0 0
20697.1 378548.0 0
25249.4 378455.0 0
23303.1 382284.0 0
27020.5 381084.0 0
29012.9 378372.0 0
30222.6 381725.0 0
32893.3 378711.0 0
37371.0 378964.0 0
38799.8 382199.0 0
40780.7 379899.0 0
44827.4 377974.0 0
43895.5 381138.0 0
48705.3 377942.0 0
47835.8 381142.0 0
50964.4 382086.0 0
51937.1 379258.0 0
54481.5 382049.0 0
56518.5 379043.0 0
60103.9 380404.0 0
65121.4 379112.0 0
69444.3 378263.0 0
68448.1 382299.0 0
72088.9 380128.0 0
75058.0 378217.0 0
76024.9 382607.0 0
78752.9 378385.0 0
81214.4 381831.0 0
83353.6 378473.0 0
85657.8 381887.0 0
87863.8 378849.0 0
92773.7 379408.0 0
96963.7 378830.0 0
101213.0 378594.0 0
98872.7 381663.0 0
105077.0 378528.0 0
102655.0 382019.0 0
107242.0 382249.0 0
109379.0 378505.0 0
111637.0 382177.0 0
113455.0 378587.0 0
115406.0 381904.0 0
117758.0 378887.0 0
121812.0 379311.0 0
126623.0 379039.0 0
122863.0 382207.0 0
131007.0 379314.0 0
130146.0 381834.0 0
133699.0 378478.0 0
137456.0 378782.0 0
142449.0 379075.0 0
146702.0 378936.0 0
144438.0 382582.0 0
148066.0 381955.0 0
151306.0 380000.0 0
155099.0 378339.0 0
161129.0 378488.0 0
158675.0 379547.0 0
162265.0 380792.0 0
167976.0 377904.0 0
164742.0 378977.0 0
168263.0 381083.0 0
171410.0 378592.0 0
172143.0 382249.0 0
175469.0 378572.0 0
179597.0 379218.0 0
181340.0 381939.0 0
183004.0 378409.0 0
184707.0 381068.0 0
187171.0 378307.0 0
188071.0 382456.0 0
191383.0 378918.0 0
193927.0 381255.0 0
195427.0 378084.0 0
196799.0 381225.0 0
199148.0 377844.0 0
199642.0 381056.0 0
301194.0 380412.0 0
304648.0 379185.0 0
308392.0 380608.0 0
312493.0 378973.0 0
312521.0 382139.0 0
320702.0 379233.0 0
316848.0 380842.0 0
323551.0 378050.0 0
323766.0 381172.0 0
326010.0 378770.0 0
326808.0 381154.0 0
329637.0 379111.0 0
329376.0 382637.0 0
333729.0 378481.0 0
340600.0 378796.0 0
337573.0 377895.0 0
337508.0 380942.0 0
340677.0 382565.0 0
344712.0 379848.0 0
349280.0 380050.0 0
353512.0 380123.0 0
357519.0 377931.0 0
357893.0 381651.0 0
361692.0 379681.0 0
366436.0 380623.0 0
369669.0 379080.0 0
373011.0 380837.0 0
376984.0 379796.0 0
381256.0 379133.0 0
385029.0 378779.0 0
383409.0 382465.0 0
387821.0 381468.0 0
392058.0 379587.0 0
395433.0 381812.0 0
397361.0 378709.0 0
400217.0 381863.0 0
401751.0 378172.0 0
405971.0 377850.0 0
403954.0 380440.0 0
408269.0 381181.0 0
412336.0 380042.0 0
415143.0 377819.0 0
416315.0 382334.0 0
419148.0 378949.0 0
421173.0 382519.0 0
423413.0 379301.0 0
427126.0 379310.0 0
428283.0 382633.0 0
430453.0 378354.0 0
430279.0 380980.0 0
432256.0 381075.0 0
433996.0 378758.0 0
436757.0 378373.0 0
435537.0 382112.0 0
439199.0 380549.0 0
443788.0 379230.0 0
447862.0 378127.0 0
447681.0 382645.0 0
451395.0 379736.0 0
454315.0 379323.0 0
456179.0 382465.0 0
458544.0 379257.0 0
460117.0 382433.0 0
462773.0 379799.0 0
467169.0 378957.0 0
470195.0 381724.0 0
471700.0 378419.0 0
475377.0 378013.0 0
474531.0 381791.0 0
478559.0 379760.0 0
482120.0 378271.0 0
482390.0 382462.0 0
485662.0 378758.0 0
489493.0 378664.0 0
486719.0 382432.0 0
494365.0 379645.0 0
490867.0 382418.0 0
498518.0 378540.0 0
497990.0 382038.0 0
1884.53 384848.0 0
10105.5 384137.0 0
6198.5 387156.0 0
14529.9 386247.0 0
10391.5 387647.0 0
18513.4 383271.0 0
19340.5 387115.0 0
23112.9 386000.0 0
26959.3 384271.0 0
30817.4 385441.0 0
34887.2 382698.0 0
34789.6 387017.0 0
38413.3 385774.0 0
41211.4 386555.0 0
45087.4 383514.0 0
41479.5 383511.0 0
44174.5 386858.0 0
48597.2 384955.0 0
52244.8 384501.0 0
55808.3 385915.0 0
57445.5 382702.0 0
59844.0 384748.0 0
63704.1 383514.0 0
63246.8 387744.0 0
67168.4 385882.0 0
70427.2 387580.0 0
71722.3 384218.0 0
74882.6 387480.0 0
79265.4 385971.0 0
83731.6 385599.0 0
90290.8 382842.0 0
87471.4 385102.0 0
91331.4 387577.0 0
95077.9 383809.0 0
99792.8 385061.0 0
104587.0 385344.0 0
109428.0 385618.0 0
114486.0 385987.0 0
119086.0 383218.0 0
119276.0 387399.0 0
126436.0 383380.0 0
122677.0 385517.0 0
130180.0 385388.0 0
134058.0 382752.0 0
136795.0 386715.0 0
133244.0 387207.0 0
139476.0 382926.0 0
142536.0 386867.0 0
147304.0 385506.0 0
151121.0 384139.0 0
155477.0 382720.0 0
153738.0 386543.0 0
158109.0 387164.0 0
160039.0 382987.0 0
162403.0 385946.0 0
164990.0 383314.0 0
168979.0 385316.0 0
172931.0 385803.0 0
177005.0 383331.0 0
180959.0 386561.0 0
183864.0 383565.0 0
186080.0 386587.0 0
191535.0 382906.0 0
190314.0 386022.0 0
194775.0 385081.0 0
199138.0 384837.0 0
301286.0 384672.0 0
304730.0 382840.0 0
305117.0 386795.0 0
307417.0 384500.0 0
310781.0 384392.0 0
309124.0 387478.0 0
314198.0 384292.0 0
317579.0 386026.0 0
320873.0 383564.0 0
325846.0 385266.0 0
330864.0 386938.0 0
333558.0 382898.0 0
335594.0 387280.0 0
337500.0 384224.0 0
339987.0 386815.0 0
344101.0 384397.0 0
346412.0 386529.0 0
347825.0 383488.0 0
351267.0 383625.0 0
349393.0 386903.0 0
355238.0 384097.0 0
352941.0 386142.0 0
359615.0 384858.0 0
363407.0 383402.0 0
364306.0 386846.0 0
366843.0 384530.0 0
369939.0 383214.0 0
374582.0 385400.0 0
379263.0 383303.0 0
378988.0 387652.0 0
382024.0 385939.0 0
386194.0 386463.0 0
391907.0 385221.0 0
397072.0 385022.0 0
401035.0 385780.0 0
404583.0 384468.0 0
408610.0 385131.0 0
412212.0 383909.0 0
415199.0 386696.0 0
419141.0 385635.0 0
423153.0 387000.0 0
424788.0 383212.0 0
427609.0 386641.0 0
431840.0 384196.0 0
435787.0 386107.0 0
438720.0 384149.0 0
442424.0 383345.0 0
445114.0 386936.0 0
452440.0 383078.0 0
450298.0 386358.0 0
455062.0 386940.0 0
458992.0 385210.0 0
462617.0 383850.0 0
461550.0 386657.0 0
465740.0 382753.0 0
465557.0 386862.0 0
468656.0 384914.0 0
472317.0 385647.0 0
476329.0 385388.0 0
478467.0 383455.0 0
484232.0 386186.0 0
480077.0 387464.0 0
488405.0 386749.0 0
494100.0 385257.0 0
498380.0 385904.0 0
1903.41 388808.0 0
1448.34 392444.0 0
8836.23 390245.0 0
5555.18 391846.0 0
12171.9 390310.0 0
16664.0 390747.0 0
22570.1 390509.0 0
26891.8 388197.0 0
26750.2 392857.0 0
31876.4 390450.0 0
37216.2 389989.0 0
40973.7 389268.0 0
44526.5 391257.0 0
47879.1 388866.0 0
51842.2 387818.0 0
54813.7 389873.0 0
59072.8 388929.0 0
62326.1 391865.0 0
66991.5 390489.0 0
71809.5 390874.0 0
76068.5 391780.0 0
78766.8 389543.0 0
82442.5 389117.0 0
86658.5 388510.0 0
85071.0 391662.0 0
88713.7 391709.0 0
96652.0 388430.0 0
93497.5 392244.0 0
101747.0 388782.0 0
106883.0 388857.0 0
111090.0 388887.0 0
109485.0 392338.0 0
116609.0 389628.0 0
113474.0 390935.0 0
119722.0 390552.0 0
126365.0 387899.0 0
122818.0 389615.0 0
126524.0 391975.0 0
129984.0 389671.0 0
134106.0 391381.0 0
138863.0 390083.0 0
142947.0 392458.0 0
146854.0 389546.0 0
150685.0 387803.0 0
150723.0 391658.0 0
154597.0 389998.0 0
161730.0 389187.0 0
158934.0 392032.0 0
163426.0 391622.0 0
165842.0 388414.0 0
171037.0 389648.0 0
175809.0 387798.0 0
175082.0 391337.0 0
179053.0 390522.0 0
183910.0 390936.0 0
188707.0 390054.0 0
193164.0 389027.0 0
198232.0 389653.0 0
195110.0 392584.0 0
301050.0 388702.0 0
304516.0 390673.0 0
307481.0 390288.0 0
310574.0 391319.0 0
313385.0 388114.0 0
314529.0 392444.0 0
317474.0 390083.0 0
320464.0 392298.0 0
321948.0 388376.0 0
323969.0 392543.0 0
327640.0 390707.0 0
333030.0 390817.0 0
337437.0 390921.0 0
341692.0 390911.0 0
343904.0 387890.0 0
346691.0 390535.0 0
352027.0 390477.0 0
356060.0 387858.0 0
356421.0 391820.0 0
360573.0 389564.0 0
365087.0 390262.0 0
369347.0 388205.0 0
371545.0 392712.0 0
373437.0 389905.0 0
376538.0 390254.0 0
374706.0 392600.0 0
379432.0 391034.0 0
382338.0 389423.0 0
385183.0 391034.0 0
389565.0 390317.0 0
395819.0 388276.0 0
393645.0 389418.0 0
393545.0 392311.0 0
397012.0 391804.0 0
399435.0 388750.0 0
401676.0 392572.0 0
403222.0 388628.0 0
405308.0 391126.0 0
406988.0 388445.0 0
411228.0 388064.0 0
409250.0 392569.0 0
414413.0 391421.0 0
418448.0 389371.0 0
422130.0 391450.0 0
425848.0 390427.0 0
428892.0 390249.0 0
431971.0 388114.0 0
431999.0 392391.0 0
435913.0 390150.0 0
440355.0 387980.0 0
439332.0 392090.0 0
443891.0 391835.0 0
448037.0 389642.0 0
452066.0 390358.0 0
456238.0 391250.0 0
458975.0 388825.0 0
459863.0 392218.0 0
462977.0 389912.0 0
467544.0 391159.0 0
469293.0 387934.0 0
472139.0 389651.0 0
475406.0 387888.0 0
476798.0 391425.0 0
481356.0 391124.0 0
484388.0 389481.0 0
487761.0 390516.0 0
492318.0 389495.0 0
497663.0 389538.0 0
2777.93 396657.0 0
9751.1 393176.0 0
7516.37 395735.0 0
13055.8 393908.0 0
11203.5 397068.0 0
19922.1 393444.0 0
16780.6 397270.0 0
22547.8 395582.0 0
26406.8 397575.0 0
31498.9 395735.0 0
36070.5 393784.0 0
40346.5 392968.0 0
38157.8 395400.0 0
40798.0 397205.0 0
44548.6 394955.0 0
50482.0 393076.0 0
47385.6 396858.0 0
54235.2 396567.0 0
57297.9 393155.0 0
58160.8 397359.0 0
61490.5 395554.0 0
65694.4 394548.0 0
69728.4 394283.0 0
73490.4 393899.0 0
73261.7 397176.0 0
76926.4 395737.0 0
80759.0 393437.0 0
85438.8 395872.0 0
89912.0 395178.0 0
96153.7 394846.0 0
93783.9 397736.0 0
99135.9 392974.0 0
98008.7 397213.0 0
104361.0 393178.0 0
107565.0 396570.0 0
117251.0 392964.0 0
113055.0 395337.0 0
122145.0 393985.0 0
118063.0 396765.0 0
127200.0 396874.0 0
130027.0 393371.0 0
133019.0 396754.0 0
138045.0 394783.0 0
142119.0 397486.0 0
147262.0 393141.0 0
145725.0 395856.0 0
150036.0 396429.0 0
154402.0 394142.0 0
157995.0 397036.0 0
162924.0 395872.0 0
167471.0 393000.0 0
172665.0 395320.0 0
177045.0 393910.0 0
177521.0 397528.0 0
180607.0 394319.0 0
184281.0 395143.0 0
187519.0 394066.0 0
191732.0 393273.0 0
190678.0 397261.0 0
196929.0 394278.0 0
194640.0 396008.0 0
198388.0 397291.0 0
199421.0 393748.0 0
301264.0 393469.0 0
306853.0 395128.0 0
311691.0 394842.0 0
315147.0 396484.0 0
318031.0 394346.0 0
322013.0 395577.0 0
326045.0 395586.0 0
330591.0 394868.0 0
335303.0 394434.0 0
339519.0 394355.0 0
337411.0 397519.0 0
343948.0 394421.0 0
348899.0 394595.0 0
353395.0 394996.0 0
359980.0 393471.0 0
357623.0 394992.0 0
361215.0 396882.0 0
363425.0 393523.0 0
365498.0 396733.0 0
367615.0 393000.0 0
369915.0 396468.0 0
374385.0 396431.0 0
377695.0 393596.0 0
378628.0 397350.0 0
382008.0 393963.0 0
384858.0 397509.0 0
386918.0 394183.0 0
391145.0 394764.0 0
395171.0 395174.0 0
393183.0 397519.0 0
399015.0 395297.0 0
402651.0 397811.0 0
405338.0 394466.0 0
412829.0 396035.0 0
418401.0 394606.0 0
422667.0 395532.0 0
425065.0 393705.0 0
426182.0 397288.0 0
428063.0 393548.0 0
430811.0 396499.0 0
435654.0 394849.0 0
437615.0 397601.0 0
440826.0 395748.0 0
445331.0 396298.0 0
448509.0 393378.0 0
450151.0 397351.0 0
453262.0 394035.0 0
457337.0 394982.0 0
460969.0 395721.0 0
463836.0 397767.0 0
464052.0 393817.0 0
467462.0 395882.0 0
471414.0 393509.0 0
475513.0 396232.0 0
480445.0 394803.0 0
484916.0 393535.0 0
486836.0 397056.0 0
490042.0 393758.0 0
494334.0 396923.0 0
498821.0 392892.0 0
495145.0 392963.0 0
498356.0 396001.0 0
2889.34 402390.0 0
7815.8 399835.0 0
12403.7 401466.0 0
17584.3 402819.0 0
21833.1 399907.0 0
25748.4 401815.0 0
30706.6 400918.0 0
36001.7 398376.0 0
40137.1 402022.0 0
44960.7 400211.0 0
50506.0 399570.0 0
55533.4 400987.0 0
61139.0 400815.0 0
64551.1 398155.0 0
65361.3 402105.0 0
68802.7 398852.0 0
73560.8 401441.0 0
76591.6 398984.0 0
80603.7 398495.0 0
77942.8 402129.0 0
81439.5 402453.0 0
84788.0 400681.0 0
89197.3 399444.0 0
93178.2 402304.0 0
102010.0 398024.0 0
97764.6 401168.0 0
105503.0 400745.0 0
110867.0 400777.0 0
115372.0 399167.0 0
115728.0 402992.0 0
122035.0 398997.0 0
118349.0 400390.0 0
125501.0 402783.0 0
130005.0 400658.0 0
134074.0 401625.0 0
137973.0 399392.0 0
142272.0 401961.0 0
146404.0 399828.0 0
150877.0 401687.0 0
153682.0 398279.0 0
155987.0 401753.0 0
161182.0 401464.0 0
164362.0 399735.0 0
167610.0 398056.0 0
165525.0 402334.0 0
171508.0 399438.0 0
169616.0 402999.0 0
174708.0 401146.0 0
182126.0 398109.0 0
179556.0 401304.0 0
186473.0 398059.0 0
184484.0 401610.0 0
189366.0 401520.0 0
194626.0 400528.0 0
199108.0 400867.0 0
302206.0 398014.0 0
301449.0 402579.0 0
306697.0 401153.0 0
311040.0 398906.0 0
315533.0 400940.0 0
319184.0 398010.0 0
320218.0 402341.0 0
323863.0 399343.0 0
328592.0 398813.0 0
330953.0 401737.0 0
327007.0 402659.0 0
333559.0 399021.0 0
337851.0 401362.0 0
341253.0 398039.0 0
346115.0 398586.0 0
342689.0 402763.0 0
350893.0 399034.0 0
356188.0 399112.0 0
360206.0 400106.0 0
363818.0 400986.0 0
367925.0 399455.0 0
371884.0 400660.0 0
376139.0 400700.0 0
380150.0 401353.0 0
381795.0 398487.0 0
384499.0 401876.0 0
388971.0 398623.0 0
393134.0 400991.0 0
397184.0 398888.0 0
400741.0 401819.0 0
405288.0 402739.0 0
408229.0 398262.0 0
409734.0 402421.0 0
412680.0 400562.0 0
416306.0 398696.0 0
421220.0 399339.0 0
425495.0 401508.0 0
428332.0 402881.0 0
429380.0 400127.0 0
434285.0 400222.0 0
438972.0 399509.0 0
442413.0 399912.0 0
446909.0 400749.0 0
451732.0 401817.0 0
454796.0 398488.0 0
455790.0 402584.0 0
459410.0 399180.0 0
463458.0 401865.0 0
467189.0 399993.0 0
471053.0 398215.0 0
474581.0 400431.0 0
479029.0 399475.0 0
483325.0 398365.0 0
482133.0 402811.0 0
486592.0 401434.0 0
490197.0 398301.0 0
490363.0 401586.0 0
493647.0 400949.0 0
497827.0 399888.0 0
3377.0 407989.0 0
8284.78 404896.0 0
13452.5 406758.0 0
18498.2 406693.0 0
22441.7 404678.0 0
27456.4 405336.0 0
31468.5 405413.0 0
35444.7 403303.0 0
34516.4 407552.0 0
39039.3 407105.0 0
44009.5 405726.0 0
47898.3 403630.0 0
48695.0 408033.0 0
51719.2 404225.0 0
55479.9 405037.0 0
58846.4 404174.0 0
58064.3 407745.0 0
63210.0 406253.0 0
69245.1 404394.0 0
75050.8 405943.0 0
79852.5 405611.0 0
84335.5 405000.0 0
88572.2 403712.0 0
91863.5 405897.0 0
96651.1 405713.0 0
101791.0 403662.0 0
100517.0 407617.0 0
106965.0 404660.0 0
104345.0 407820.0 0
111921.0 405943.0 0
117231.0 407437.0 0
120185.0 403324.0 0
122219.0 406742.0 0
126199.0 408034.0 0
130488.0 405321.0 0
135083.0 405425.0 0
138572.0 403856.0 0
142350.0 406608.0 0
138062.0 408019.0 0
146202.0 404164.0 0
150011.0 405819.0 0
154271.0 405874.0 0
158806.0 405594.0 0
163618.0 405879.0 0
168475.0 407788.0 0
173243.0 405881.0 0
177036.0 404360.0 0
181585.0 405589.0 0
187259.0 405676.0 0
192882.0 405945.0 0
198032.0 404211.0 0
304780.0 405219.0 0
301449.0 407489.0 0
307768.0 405855.0 0
311447.0 404308.0 0
316641.0 405674.0 0
321328.0 406825.0 0
323716.0 403725.0 0
325701.0 407021.0 0
330287.0 405816.0 0
334400.0 403720.0 0
338651.0 406571.0 0
343120.0 406962.0 0
348056.0 403460.0 0
350659.0 407135.0 0
353198.0 403504.0 0
359048.0 404476.0 0
364033.0 406400.0 0
368173.0 403483.0 0
370854.0 406040.0 0
374102.0 404676.0 0
377838.0 404202.0 0
381302.0 405378.0 0
385903.0 406723.0 0
388993.0 403088.0 0
390313.0 406514.0 0
392807.0 404525.0 0
396809.0 403994.0 0
398109.0 406991.0 0
401301.0 405961.0 0
405633.0 405984.0 0
409124.0 406381.0 0
412598.0 403844.0 0
416844.0 403066.0 0
414171.0 407763.0 0
418967.0 406824.0 0
422122.0 404303.0 0
426877.0 405975.0 0
431032.0 403776.0 0
431063.0 407895.0 0
434747.0 405246.0 0
438245.0 407053.0 0
438828.0 403097.0 0
441409.0 407496.0 0
443406.0 404337.0 0
448741.0 405680.0 0
453374.0 405063.0 0
457005.0 406950.0 0
459382.0 403478.0 0
462010.0 406341.0 0
466196.0 405414.0 0
470939.0 403271.0 0
473853.0 406922.0 0
477273.0 403912.0 0
477282.0 408122.0 0
481244.0 407330.0 0
485170.0 405294.0 0
490964.0 406081.0 0
495530.0 403585.0 0
498596.0 403490.0 0
497392.0 407475.0 0
1629.88 411988.0 0
8695.81 409515.0 0
5569.47 412642.0 0
12800.0 412000.0 0
17646.9 410764.0 0
21269.0 408347.0 0
25095.6 408670.0 0
22145.7 411667.0 0
30229.2 409911.0 0
26013.9 412654.0 0
36042.0 411784.0 0
41182.6 411254.0 0
44818.8 410010.0 0
47626.4 411906.0 0
53427.9 408291.0 0
51541.8 412244.0 0
56321.5 411726.0 0
60492.8 410391.0 0
64152.7 411924.0 0
67332.0 408952.0 0
71504.5 408703.0 0
74466.5 410109.0 0
78212.2 409481.0 0
82832.8 409065.0 0
85500.9 412150.0 0
88027.4 408477.0 0
93051.0 409425.0 0
94729.2 413224.0 0
97700.1 410280.0 0
102007.0 411452.0 0
106741.0 411632.0 0
108368.0 408184.0 0
112073.0 410912.0 0
117262.0 412669.0 0
121589.0 410571.0 0
125741.0 412845.0 0
130318.0 410659.0 0
134095.0 408438.0 0
140768.0 411123.0 0
146879.0 408782.0 0
143652.0 409621.0 0
144614.0 412896.0 0
151743.0 409637.0 0
148912.0 413031.0 0
156025.0 409560.0 0
158126.0 412715.0 0
160355.0 409255.0 0
161745.0 413191.0 0
164630.0 410380.0 0
168349.0 412461.0 0
172693.0 410877.0 0
177027.0 408379.0 0
180919.0 410115.0 0
184608.0 409131.0 0
188953.0 410603.0 0
193889.0 411277.0 0
198073.0 408565.0 0
305437.0 408875.0 0
301877.0 411604.0 0
309505.0 408985.0 0
313398.0 408386.0 0
312328.0 412627.0 0
317991.0 411201.0 0
323680.0 410937.0 0
329071.0 410957.0 0
334115.0 408603.0 0
333628.0 412740.0 0
337773.0 411601.0 0
342206.0 410642.0 0
346600.0 408434.0 0
346202.0 413163.0 0
350672.0 411237.0 0
355142.0 408505.0 0
360442.0 410263.0 0
364957.0 410557.0 0
367980.0 408164.0 0
368461.0 411669.0 0
372346.0 409513.0 0
375053.0 413041.0 0
377308.0 408285.0 0
378940.0 412189.0 0
382014.0 409560.0 0
386292.0 411664.0 0
389599.0 409448.0 0
394411.0 408483.0 0
396512.0 412571.0 0
399369.0 409732.0 0
404725.0 409807.0 0
410241.0 411424.0 0
415090.0 413061.0 0
418403.0 410333.0 0
423299.0 409554.0 0
427746.0 410304.0 0
431253.0 413070.0 0
435179.0 409718.0 0
440195.0 411613.0 0
444650.0 408755.0 0
448568.0 410498.0 0
445297.0 413118.0 0
452855.0 409011.0 0
456542.0 412063.0 0
460174.0 409578.0 0
464377.0 409714.0 0
469436.0 409255.0 0
474405.0 410768.0 0
478526.0 411126.0 0
482405.0 412029.0 0
486005.0 409513.0 0
494001.0 410739.0 0
489986.0 411995.0 0
497932.0 412174.0 0
2425.19 416012.0 0
9148.54 413644.0 0
7230.9 417664.0 0
12026.9 416636.0 0
19777.1 414224.0 0
16419.8 415351.0 0
22910.6 415415.0 0
28936.6 413615.0 0
27634.8 417345.0 0
32060.5 414846.0 0
35822.6 416603.0 0
39836.1 415410.0 0
44430.8 414331.0 0
42581.7 418191.0 0
48754.3 415157.0 0
50456.8 418088.0 0
54705.5 416547.0 0
59895.2 414522.0 0
64200.4 416711.0 0
69931.7 414061.0 0
75934.3 413445.0 0
74817.0 417552.0 0
80935.2 413800.0 0
85499.2 415946.0 0
82577.7 417261.0 0
89823.5 413662.0 0
93970.7 418071.0 0
98787.8 414923.0 0
104114.0 416478.0 0
109652.0 415612.0 0
113752.0 415353.0 0
117122.0 417524.0 0
121672.0 415489.0 0
130263.0 416566.0 0
135838.0 413269.0 0
141051.0 416349.0 0
146138.0 416895.0 0
150193.0 416657.0 0
153811.0 413788.0 0
157891.0 416586.0 0
162176.0 417159.0 0
165164.0 414231.0 0
167383.0 417881.0 0
171174.0 415252.0 0
177724.0 413669.0 0
174339.0 416444.0 0
181150.0 417277.0 0
183950.0 413635.0 0
188232.0 415088.0 0
191352.0 414155.0 0
198102.0 413670.0 0
194422.0 415291.0 0
301843.0 415560.0 0
306714.0 413555.0 0
310890.0 416939.0 0
315760.0 416825.0 0
320848.0 415754.0 0
325859.0 415146.0 0
330914.0 416005.0 0
336629.0 416661.0 0
341921.0 415110.0 0
346010.0 417910.0 0
350446.0 415885.0 0
355799.0 413947.0 0
360690.0 414840.0 0
365244.0 414655.0 0
362531.0 418141.0 0
370448.0 415524.0 0
374759.0 417060.0 0
378479.0 416040.0 0
382463.0 414165.0 0
386787.0 416923.0 0
391468.0 413643.0 0
395810.0 416850.0 0
400942.0 414667.0 0
406705.0 415247.0 0
411720.0 416570.0 0
416364.0 417235.0 0
420661.0 414831.0 0
426172.0 414158.0 0
435808.0 413392.0 0
434480.0 416914.0 0
438221.0 415664.0 0
442270.0 416676.0 0
447501.0 417601.0 0
451573.0 414048.0 0
455571.0 416533.0 0
461433.0 413798.0 0
466674.0 413807.0 0
469232.0 418256.0 0
464318.0 418315.0 0
471550.0 414221.0 0
473957.0 418367.0 0
479424.0 414430.0 0
475998.0 414569.0 0
478388.0 417839.0 0
482449.0 416294.0 0
486284.0 414231.0 0
490342.0 416360.0 0
494374.0 414605.0 0
497986.0 416113.0 0
2730.87 420996.0 0
7244.69 422099.0 0
11011.2 420964.0 0
15300.2 419713.0 0
19849.1 418514.0 0
18526.3 422389.0 0
23699.3 418964.0 0
22977.0 422655.0 0
28465.2 422825.0 0
32629.4 419402.0 0
38411.3 420592.0 0
43855.9 422453.0 0
46534.9 418380.0 0
49388.8 422160.0 0
54956.6 422324.0 0
59711.1 419300.0 0
64248.7 421627.0 0
67622.4 419130.0 0
71348.5 419521.0 0
74851.3 422537.0 0
79176.5 419224.0 0
84149.0 420143.0 0
88723.5 419079.0 0
99369.0 420510.0 0
104219.0 421612.0 0
108295.0 420380.0 0
112948.0 419487.0 0
116707.0 421558.0 0
120906.0 420291.0 0
125404.0 418920.0 0
135837.0 419653.0 0
140071.0 420158.0 0
139587.0 423160.0 0
143658.0 421052.0 0
148887.0 420984.0 0
153826.0 418974.0 0
158811.0 421823.0 0
163934.0 421154.0 0
167945.0 423233.0 0
172358.0 420192.0 0
177122.0 418704.0 0
176538.0 422998.0 0
181016.0 421599.0 0
185747.0 418938.0 0
191372.0 418411.0 0
189266.0 422512.0 0
193536.0 423253.0 0
197231.0 418992.0 0
302248.0 419960.0 0
305914.0 422931.0 0
306675.0 418727.0 0
310554.0 421499.0 0
315199.0 421574.0 0
319446.0 420341.0 0
323560.0 418997.0 0
327867.0 419878.0 0
332613.0 420719.0 0
336905.0 422012.0 0
341392.0 420327.0 0
345877.0 422844.0 0
350182.0 420865.0 0
354205.0 418655.0 0
358464.0 418596.0 0
361687.0 423131.0 0
366665.0 419574.0 0
372006.0 421026.0 0
377438.0 420427.0 0
382102.0 418995.0 0
386346.0 422733.0 0
391638.0 419858.0 0
398898.0 419825.0 0
403656.0 419387.0 0
405629.0 423319.0 0
408416.0 419972.0 0
414292.0 421194.0 0
419605.0 420188.0 0
424226.0 418426.0 0
426127.0 422077.0 0
429490.0 418377.0 0
434017.0 420855.0 0
438558.0 420012.0 0
443679.0 421469.0 0
452070.0 418369.0 0
449857.0 421921.0 0
455473.0 422094.0 0
459540.0 418420.0 0
466811.0 422084.0 0
471573.0 423059.0 0
476925.0 422100.0 0
481698.0 420757.0 0
486217.0 418898.0 0
494103.0 418432.0 0
490512.0 421632.0 0
494626.0 422137.0 0
497867.0 420237.0 0
1119.89 424656.0 0
4805.94 425937.0 0
1166.97 427188.0 0
9795.39 425466.0 0
14505.5 424420.0 0
19610.3 427268.0 0
25328.9 427203.0 0
30273.2 427679.0 0
33909.5 424088.0 0
38493.6 425767.0 0
42709.7 427217.0 0
47023.4 426394.0 0
51803.2 426882.0 0
56376.4 427258.0 0
60098.7 424463.0 0
64783.5 426704.0 0
69258.2 423715.0 0
73011.8 427267.0 0
81317.8 423873.0 0
77548.7 426542.0 0
87115.4 424764.0 0
91440.7 428045.0 0
92902.8 423567.0 0
97423.9 425639.0 0
102085.0 425090.0 0
107027.0 425321.0 0
111470.0 423670.0 0
115469.0 425525.0 0
119369.0 424018.0 0
120381.0 428119.0 0
123531.0 424062.0 0
125445.0 428250.0 0
129685.0 423479.0 0
135385.0 424494.0 0
133667.0 428483.0 0
138545.0 427461.0 0
142869.0 425752.0 0
146297.0 424319.0 0
149106.0 425081.0 0
153315.0 424460.0 0
157918.0 427985.0 0
163073.0 425874.0 0
167405.0 428068.0 0
172593.0 426477.0 0
177060.0 426455.0 0
180702.0 426798.0 0
185245.0 424256.0 0
189864.0 427824.0 0
198078.0 424232.0 0
195328.0 427583.0 0
301973.0 424567.0 0
305459.0 427529.0 0
308901.0 425515.0 0
313215.0 425939.0 0
318414.0 425443.0 0
324047.0 423934.0 0
329542.0 424675.0 0
334269.0 425399.0 0
339999.0 426585.0 0
345380.0 426926.0 0
349860.0 425965.0 0
355224.0 423554.0 0
358439.0 428381.0 0
367805.0 425417.0 0
375958.0 426333.0 0
381107.0 423556.0 0
383486.0 427384.0 0
390963.0 424505.0 0
388213.0 427882.0 0
395760.0 423555.0 0
393404.0 428437.0 0
398307.0 427841.0 0
401058.0 423953.0 0
401744.0 427645.0 0
405534.0 427943.0 0
410146.0 424702.0 0
414179.0 427514.0 0
417702.0 424608.0 0
422291.0 424218.0 0
426185.0 425973.0 0
430736.0 424345.0 0
436692.0 425003.0 0
442147.0 426686.0 0
446715.0 425000.0 0
451585.0 427293.0 0
457618.0 427492.0 0
461839.0 423532.0 0
467110.0 426927.0 0
475486.0 427760.0 0
480902.0 425409.0 0
484839.0 427471.0 0
485384.0 423493.0 0
488923.0 426364.0 0
493539.0 425618.0 0
497840.0 424633.0 0
2473.11 430415.0 0
4936.85 433357.0 0
7809.66 430145.0 0
12929.6 429332.0 0
17226.4 433023.0 0
22525.4 431915.0 0
27552.3 432055.0 0
34966.0 429154.0 0
39527.4 430124.0 0
43320.8 431328.0 0
48480.7 431834.0 0
54352.9 431307.0 0
60478.5 429855.0 0
65638.4 431947.0 0
68910.3 428585.0 0
71613.3 431546.0 0
76015.9 430905.0 0
82310.2 429620.0 0
85749.5 433207.0 0
87777.7 430203.0 0
91364.5 432559.0 0
95507.9 430150.0 0
100716.0 429670.0 0
106106.0 430681.0 0
111415.0 428750.0 0
109954.0 433229.0 0
116067.0 429779.0 0
114216.0 433647.0 0
118925.0 432897.0 0
123072.0 431847.0 0
126892.0 432432.0 0
129476.0 429459.0 0
136998.0 433008.0 0
142191.0 430875.0 0
147018.0 428750.0 0
151878.0 429077.0 0
154753.0 432714.0 0
159854.0 433048.0 0
163789.0 430664.0 0
167821.0 432510.0 0
172593.0 432339.0 0
177038.0 430079.0 0
181554.0 431627.0 0
184635.0 428732.0 0
186426.0 432777.0 0
198290.0 430332.0 0
193979.0 432753.0 0
301490.0 428572.0 0
303853.0 432471.0 0
310150.0 431403.0 0
316014.0 430103.0 0
319824.0 433323.0 0
322050.0 428973.0 0
324292.0 432406.0 0
326754.0 428842.0 0
331536.0 429121.0 0
336081.0 431662.0 0
340932.0 433562.0 0
343944.0 430501.0 0
348413.0 431091.0 0
353383.0 429908.0 0
356959.0 433190.0 0
363370.0 428656.0 0
366940.0 430377.0 0
368335.0 433612.0 0
371232.0 430207.0 0
376032.0 431511.0 0
380011.0 430816.0 0
384952.0 432173.0 0
390127.0 432584.0 0
396944.0 432498.0 0
401617.0 431082.0 0
406182.0 433267.0 0
410153.0 429936.0 0
414633.0 432793.0 0
418394.0 429081.0 0
423251.0 429300.0 0
428708.0 429982.0 0
432913.0 433604.0 0
433491.0 428845.0 0
438064.0 430571.0 0
443087.0 432049.0 0
446576.0 429131.0 0
449606.0 432738.0 0
454998.0 431285.0 0
462189.0 428908.0 0
459467.0 433047.0 0
465520.0 431952.0 0
470670.0 431621.0 0
477243.0 433453.0 0
481190.0 430297.0 0
486324.0 432091.0 0
492356.0 430680.0 0
497606.0 428987.0 0
497933.0 433375.0 0
11109.3 435011.0 0
32739.0 433977.0 0
38075.3 434594.0 0
58235.1 434668.0 0
79088.2 434282.0 0
97176.0 434910.0 0
102488.0 434837.0 0
373679.0 433971.0 0
420220.0 433720.0 0
425316.0 433993.0 0
481855.0 434573.0 0
490281.0 435610.0 0
494438.0 435280.0 0
POINT_DATA 5000
SCALARS Radius float 1
LOOKUP_TABLE default
4796.58 3979.26 3471.03 5253.55 5820.48 5782.6 4862.21 5113.21 3929.19 4107.03 4478.15 5379.87 5925.6 4501.51 4792.73 4736.58 4931.38 3485.26 4329.05 4151.94 4049.23 5337.48 6124.89 5708.81 5252.48 4780.03 5495.39 3996.0 3856.1 4665.12 3383.4 4133.88 4834.9 3850.77 6044.04 5415.48 5120.0 3863.18 2356.98 4998.37 6182.6 5492.18 5258.36 5061.3 3642.12 3163.97 5812.43 5122.66 5906.14 7513.1 5254.28 4436.4 5733.48 4672.91 5580.89 5645.7 5176.86 6810.52 5840.26 6110.27 5561.06 5073.35 3615.22 5670.04 4380.59 6716.79 5759.91 7613.27 5529.52 4951.03 5255.32 6037.08 5096.78 6756.95 4129.43 6324.23 3843.58 3320.52 4194.5 4270.53 5344.25 5191.63 4593.7 4150.99 4216.92 4742.68 4344.58 5634.83 5495.84 6268.1 4861.06 5374.51 5320.28 6739.08 4797.52 4569.12 4298.67 5960.66 6608.73 5011.84 7034.11 6261.42 4502.5 3771.48 4043.57 4271.69 5681.38 4138.42 3708.04 5513.6 3240.09 4556.36 6082.81 3191.99 4685.34 5601.05 4929.8 3586.91 3103.0 3554.9 4015.92 5542.21 4487.31 3936.02 4044.71 5980.74 4094.62 4927.02 5546.39 5325.36 5484.83 5085.53 5351.6 4730.36 4715.55 5867.73 3951.75 5013.56 4499.64 4375.68 5542.27 5054.98 6030.06 5170.02 5484.19 3557.27 4927.31 4688.68 4402.52 4517.56 4182.53 5903.42 3588.44 3955.56 3761.32 4118.05 4366.19 5553.16 3672.51 2938.66 4940.78 4231.61 4008.92 3942.53 3379.84 3589.27 4827.82 3997.1 3607.45 3260.67 5123.52 3038.33 4392.68 4333.2 7199.21 4523.7 2240.39 5091.39 5293.9 6142.94 3912.37 4727.24 4602.25 4790.08 5082.47 4763.45 5445.87 3815.26 4704.72 4177.94 4571.7 5896.46 5022.8 3784.5 3780.23 6481.79 5224.12 7042.12 6326.39 4471.58 5873.69 4962.09 3999.48 4359.62 6946.21 2586.12 5433.8 4011.77 5499.11 3633.87 5922.5 5198.77 5987.17 6013.14 2765.2 4901.41 5110.37 5664.98 4382.74 5927.43 4651.28 3693.63 4384.42 4516.43 5481.78 5637.59 4937.14 5043.05 5816.2 5109.54 6483.19 5945.65 6759.9 5538.89 7021.47 5416.38 6059.59 4955.55 2720.68 5701.86 3563.63 4238.81 4468.59 5885.03 2837.58 5325.02 5200.76 5017.13 4862.64 5185.34 4432.58 6684.56 3968.64 4688.67 2635.86 5292.64 6166.5 5065.13 5936.02 5305.17 4861.08 4003.05 5390.22 4805.87 4712.33 5227.21 5697.78 4667.36 4091.31 6372.62 4295.38 5615.42 7565.34 5923.5 4612.68 4281.49 4973.83 6342.25 6691.39 4840.84 5135.69 5344.0 4020.32 6045.46 4245.72 5908.1 6048.7 6133.92 3719.84 4178.4 3095.48 4166.08 4123.6 4850.14 4819.73 3382.7 6817.32 4319.79 6098.14 4472.17 4203.26 5188.81 4730.41 6057.22 5062.71 6125.34 4527.08 5347.48 4850.01 3970.25 5147.67 3979.82 5011.31 5138.31 5264.06 4659.59 6327.9 4048.37 6355.42 4362.19 5690.56 4948.92 3115.91 3307.12 4493.48 5924.89 5693.81 4002.16 4174.52 4138.16 3486.22 3829.13 4684.5 6230.49 6458.82 5418.62 4601.27 5493.32 5740.68 5926.61 6051.14 5836.15 3261.21 4345.55 6704.06 3653.41 3871.88 3856.01 5246.2 4390.66 5279.39 3673.74 5205.43 6116.18 7447.37 4924.6 4385.06 4733.32 7184.19 2899.43 2924.37 4290.3 3867.67 5399.73 4660.72 3888.21 5891.05 6038.78 6902.81 6644.76 4254.17 5629.19 5090.24 5740.84 5530.87 4310.18 7134.64 5978.9 4187.56 3629.62 4997.27 4301.06 4877.67 4290.14 6562.18 4156.38 5316.75 4541.21 4164.68 5669.65 5934.22 5624.49 5762.59 7092.87 5163.55 4666.81 3954.91 2965.01 6643.85 3637.61 6222.42 5654.31 3745.84 5690.26 4156.2 4497.59 5965.78 4374.35 4810.12 5643.58 5215.05 4292.06 5577.04 5006.58 4602.86 3688.8 4548.16 3369.23 5449.18 5492.26 5244.78 5762.84 3937.74 4749.8 6084.86 5478.92 4778.34 5551.36 6894.71 3091.3 4414.54 5789.98 7054.71 3641.64 5489.43 5747.75 4277.89 4796.33 4195.44 5539.32 5360.19 6496.85 5600.93 4874.39 5541.59 4124.71 5728.85 4827.23 4911.47 5803.39 5863.59 4381.97 6257.19 3255.82 2812.98 4065.69 5603.15 4695.45 6052.7 3921.18 3798.62 5308.1 3666.57 4907.89 4937.02 5655.21 4786.6 4645.41 4433.59 4320.28 6445.94 5542.14 4218.06 6308.71 4716.19 5514.76 3456.98 3498.2 5105.16 3066.13 4302.5 6006.16 6009.88 7055.53 5013.67 5826.04 5339.78 4970.88 4143.78 4636.5 3703.1 4940.42 5923.4 6471.55 5499.39 5644.82 5501.93 5463.38 5945.21 4938.74 5696.88 5607.14 3923.03 5975.63 5252.34 6396.74 4138.46 2775.04 3821.72 4986.77 6318.18 5586.81 4621.75 3948.17 4551.24 5358.59 4220.88 4515.71 6519.71 6640.13 5082.6 5810.84 4230.54 5094.44 3748.24 4655.49 4467.94 4850.81 6138.47 5527.54 5573.7 5697.4 4727.62 5054.25 4270.95 4055.8 7325.81 5280.17 4794.96 6186.19 4839.34 5083.08 6834.49 6337.56 5525.39 3998.5 5938.34 4024.3 6394.38 5555.28 5242.73 4737.14 4686.65 5834.74 5556.96 5788.23 5581.75 6392.01 6730.19 4907.06 4073.93 3735.44 6043.3 5952.75 6332.36 6122.55 2739.94 4931.53 5480.13 3323.28 6695.82 6405.76 5794.24 4678.38 5448.61 5050.65 4827.33 5206.48 5513.57 5729.23 5226.0 3365.82 4538.95 5965.15 4763.66 6090.91 4946.42 5019.93 5085.71 6116.33 6343.14 5462.21 5750.71 5470.77 4831.47 4643.85 4004.04 4289.17 5564.02 4274.61 2965.79 6898.19 6035.6 5137.34 4481.53 5330.45 4581.13 3610.4 4219.07 6387.01 5367.52 3092.35 4322.15 5210.03 3629.96 5478.47 5351.39 6142.37 6061.47 4933.21 5375.47 6038.14 2540.31 5120.49 6029.66 5262.61 6302.8 6038.2 4005.44 5206.78 5555.88 6732.43 6425.26 5143.58 6362.12 4484.76 4840.01 2980.99 5611.2 7933.0 4455.12 5173.87 5380.13 5711.87 5118.27 5169.36 5932.23 5791.61 3369.13 4479.66 3043.85 5367.2 5461.13 4726.76 3599.45 5839.13 5489.34 5163.9 5708.14 5537.72 3920.42 6155.31 4223.33 4553.56 5329.64 5911.67 5709.62 5835.78 4127.74 2476.04 3942.07 7443.72 3937.08 5260.34 4709.35 6586.45 4373.3 4750.78 4163.5 5724.64 5078.86 4780.2 5100.1 3561.29 4963.34 3295.83 5081.78 4260.92 6263.44 5960.56 5774.97 4020.95 6313.06 3474.39 6470.3 6062.05 5082.74 6915.83 6072.45 4410.55 7099.43 5526.14 5198.29 5423.0 5077.33 3856.59 5413.79 6338.89 6202.55 5025.39 4714.54 5893.5 3320.11 5030.91 6022.17 5119.37 6163.38 4566.18 4723.12 3459.9 4964.09 5201.36 5024.9 4306.53 5409.61 5094.81 5972.06 5713.22 5861.71 5028.96 4359.04 3183.98 3866.16 3794.63 4524.28 3778.1 5152.36 4511.82 5826.64 4220.65 6820.42 4816.2 4894.16 4896.52 4751.02 3372.79 4941.22 5282.64 4715.72 4669.66 4808.52 5046.33 5607.24 5053.92 6352.26 5495.68 3847.38 3818.59 4863.72 5002.48 6623.85 4262.82 5102.36 8332.24 4342.9 5069.84 4051.44 4241.89 6049.55 5941.72 5991.09 5133.97 6600.94 4788.58 5371.02 6155.1 5876.71 5029.78 6515.84 4888.6 4739.14 4918.77 4371.99 4219.78 3885.86 4459.28 5235.29 4479.94 6250.23 4118.84 4863.27 5862.86 6049.79 3493.7 5374.98 4200.03 4719.7 6939.12 4735.33 5092.37 6444.77 4287.63 5315.4 6449.45 3975.31 4746.52 3689.45 3824.16 5572.95 3868.18 6723.16 5584.06 7111.16 4547.19 3817.13 5507.24 6851.54 3982.23 4583.31 4503.89 5806.08 4853.39 4997.27 4093.08 4809.42 5543.27 4717.05 5659.17 6135.57 5998.38 4312.67 5423.8 4989.15 5017.78 5015.69 6175.81 4727.24 6677.09 4305.57 6959.81 4829.35 5201.67 6321.41 4089.76 5526.55 3192.41 5184.56 5215.15 4987.87 3315.57 5804.71 4764.96 5727.3 4242.52 5356.51 4277.88 4087.15 3057.03 4143.08 7500.97 5228.18 5787.31 5065.11 5868.82 4978.31 4050.9 4099.77 5054.74 4537.32 4981.9 4656.78 5126.91 3600.43 5131.24 5196.67 6496.67 5474.8 6262.72 3664.11 5117.47 4925.63 2990.77 5882.65 4434.19 5187.7 4623.61 4188.3 6261.75 5177.64 4255.31 5453.3 6413.02 3492.19 4584.5 5122.63 4703.08 5274.19 5516.95 4406.4 5411.85 4844.57 4027.46 6314.07 5776.37 4516.28 3627.82 4044.45 5125.78 5344.43 4373.47 5045.38 5350.88 5372.61 3686.21 6480.17 5023.15 4377.07 3813.22 5570.3 4336.42 5243.29 7589.94 4449.22 3130.65 5628.24 5856.11 5287.2 3327.49 4109.88 4234.94 4562.29 5013.13 5080.66 4270.24 3417.33 4926.42 4164.13 4642.34 4520.1 4947.52 5874.89 4293.03 4389.21 3791.79 4424.7 4925.44 4754.05 4951.47 6084.93 4307.28 3697.96 4739.42 5538.93 5020.12 4745.45 2631.9 5281.28 6255.18 4668.71 4758.21 7228.46 6362.14 3948.23 6719.88 5978.82 5266.5 3927.99 4523.88 4948.98 4414.48 5227.52 4092.24 5163.02 7144.24 4906.82 5687.83 5004.23 6442.69 4648.04 6607.87 4721.32 3293.56 3163.78 5274.14 4903.82 5746.28 4082.47 5511.6 4338.08 4378.3 6134.99 4094.73 4407.9 4718.54 4440.57 5548.29 6766.43 2315.64 6345.13 5226.56 5599.49 5313.22 4413.85 3905.51 3999.94 4470.98 4864.22 3901.8 5759.46 3921.08 4190.31 5678.96 5262.19 4244.9 6070.58 6034.41 5452.83 5130.91 5402.24 4519.22 6445.22 3844.9 3695.36 5101.59 3963.86 3848.93 4306.11 5935.47 3402.32 5903.66 4528.49 5004.67 5365.89 5992.26 3960.8 5070.39 4980.85 5714.58 5110.45 5208.32 5248.77 4083.97 4607.02 5153.74 4528.09 3895.51 4165.81 5813.4 6291.51 4128.98 5882.89 6246.22 4188.32 5246.61 4100.38 5344.77 4723.48 4899.11 5097.87 4278.07 7267.18 6256.02 5320.92 5269.18 4406.1 5034.59 4263.33 4454.63 5080.18 5912.61 3279.1 4066.38 4403.98 4560.84 4729.43 5776.57 4562.74 5683.26 5598.74 7493.3 4814.55 6320.71 3527.05 3464.83 5698.77 2477.07 6413.11 4305.16 5092.28 4965.89 5659.95 4152.85 2908.7 4453.64 4517.73 5469.47 5660.16 4989.56 3838.47 2588.37 6736.03 6235.57 3623.87 5916.16 4390.41 6113.95 4097.57 5017.5 5563.79 6171.13 5511.88 5083.41 7055.42 5486.68 6048.86 4285.32 5490.43 5022.28 5197.52 4959.34 4948.5 4527.02 4531.14 4564.34 3838.56 4871.44 5076.35 6020.48 6375.99 5200.05 5234.29 5313.66 5419.37 4466.03 4511.54 5409.33 5196.0 4923.9 4973.78 3329.99 3947.47 3296.27 4713.25 4204.84 6243.0 6673.96 3556.85 5441.96 3435.9 5174.89 4288.3 5370.52 4652.29 5774.81 3746.31 5498.32 5027.98 5346.27 6475.1 4969.21 2691.29 2845.98 5289.52 5314.85 4305.43 5450.44 4942.77 5742.65 5592.32 5381.16 6193.35 6086.96 5233.78 3701.27 5653.9 5046.21 5894.61 5139.5 3979.54 5304.13 5944.09 5833.06 4923.41 4497.31 5384.76 5529.42 5257.12 5243.43 4537.14 5551.9 3757.34 6415.61 4687.64 4419.71 5037.06 4541.8 5175.29 5842.56 5887.15 5412.31 3087.09 6934.37 4890.5 4050.08 3981.07 5452.42 5328.22 6853.85 2395.5 3497.9 5941.61 4512.11 5782.48 6248.6 5683.61 3836.45 5100.25 6894.26 4986.51 5339.38 5178.99 5383.07 4591.87 5013.42 4790.78 4247.15 6552.22 5651.07 6248.81 5273.35 4091.8 2651.49 4645.58 5512.23 5275.32 5985.29 4898.94 4178.15 4613.31 4733.04 6119.09 5788.66 5091.68 7531.29 5069.25 5048.89 5935.03 3161.47 3991.03 6390.78 7435.25 6826.57 4788.87 4495.87 6022.72 4643.31 5527.33 6917.52 5402.21 4989.09 4880.14 4982.31 3848.54 4307.48 5941.4 5331.02 6510.17 4871.96 4863.23 4402.67 4470.61 5565.13 4384.88 6887.27 6008.49 4806.34 4287.53 5612.21 4929.14 5945.08 3306.14 5490.58 4863.79 4702.06 3830.46 6031.67 4689.15 6138.12 4428.78 5409.66 4345.67 4765.72 4642.66 4752.14 5329.59 4888.12 4950.97 5512.16 3197.63 4863.96 5191.08 5203.08 7480.41 3423.15 5163.77 4488.85 3731.84 4901.07 5186.3 3436.15 4151.76 4020.4 3493.47 4596.75 4933.65 5443.58 4558.46 5805.86 4049.02 4470.4 5311.03 5255.12 6169.11 5615.35 4027.09 6422.84 4502.18 5379.09 4602.85 4962.77 5872.05 4853.02 6259.23 5181.4 5670.2 4711.62 4247.23 4114.24 4268.65 4694.83 5509.42 4354.08 4256.43 5936.36 4520.62 3903.75 4755.47 4485.99 5127.16 5475.8 5314.69 6050.81 5543.46 4249.46 5965.81 3702.37 4750.17 5660.85 2330.66 4177.19 3587.05 6229.37 6718.19 5282.91 4425.84 7256.35 4800.69 6566.1 3555.86 6386.78 4631.83 4996.99 4896.39 6081.14 5480.83 4220.46 4607.85 5128.57 6000.7 3169.67 5604.21 4968.03 3361.92 6710.88 5395.14 3967.48 6213.04 3685.13 6790.73 4655.16 5251.4 3867.19 5857.79 4039.91 5276.7 5036.58 6119.63 5411.02 4752.9 4287.16 5199.44 4062.5 4435.51 5374.07 4588.7 3766.55 4579.69 3554.48 6496.52 5005.85 4216.17 6484.17 4721.02 4254.37 3374.08 4031.78 6098.1 5708.99 5687.85 5346.68 5296.29 4611.53 4896.11 4285.66 5172.53 4135.62 5801.99 5534.94 5210.48 7644.38 7552.94 6101.92 5323.3 5088.44 4998.21 4662.56 5166.79 5349.31 2976.22 4649.22 5394.55 5094.52 4946.74 2682.24 5928.32 5229.48 5475.7 4016.18 5526.75 5435.74 4244.99 5327.45 5560.26 6185.89 3997.96 4439.35 3460.94 3990.25 3691.0 3758.07 4752.51 4236.14 4407.87 5733.62 5282.51 4460.92 3797.33 5945.89 4042.28 4105.55 4340.76 6065.22 4221.28 4456.39 5514.84 3633.79 5421.53 5937.08 6070.3 5233.29 4312.56 4612.06 5204.04 4750.58 6667.68 5235.11 6622.11 5211.38 4590.55 4741.26 5920.32 4255.85 5097.69 3988.3 6543.13 5149.72 5776.96 5464.25 5486.48 5301.47 4617.55 5424.88 5415.85 8659.64 5683.95 6027.62 5010.2 6123.03 5966.61 5711.11 4575.94 4938.72 3546.71 5768.57 5564.23 5950.04 4231.83 2435.33 6401.43 5020.71 2681.29 5094.48 3872.61 4238.4 4318.48 6132.95 5266.22 4860.33 6004.68 4051.34 3627.55 6239.84 4635.6 4256.67 3457.48 3931.07 3405.98 5417.15 3688.16 4681.72 4945.39 5996.33 3950.63 5415.19 4612.62 3619.07 4275.57 4467.04 6385.23 2983.99 2614.4 6363.92 6205.93 4923.24 5830.72 6184.4 3828.81 4373.45 5309.98 4082.57 5255.18 5169.9 3004.16 4767.78 5235.17 4421.12 4779.5 5254.49 6649.96 4303.19 5784.3 3914.2 4256.57 6088.68 4135.08 5620.74 4778.82 6124.08 5467.84 5053.95 5926.11 5253.37 5767.9 6515.8 5089.62 5869.4 3701.16 4186.6 5895.77 4732.09 6136.49 4356.25 4216.95 4209.49 5742.74 4244.21 4947.24 3645.12 3875.05 6200.54 5148.58 4199.45 6599.66 5469.13 4055.54 4233.8 5765.42 6098.95 4997.83 4893.49 5325.44 5021.88 5956.65 4498.25 4188.87 3735.24 6574.95 4074.48 6333.29 4558.47 5731.57 5997.88 5839.71 5576.92 6408.83 3930.79 4004.35 5226.97 3685.13 3312.06 5180.76 3361.26 6799.4 5278.36 5865.39 4427.28 6079.11 3082.32 6430.39 3658.37 7440.72 3949.6 5703.6 6326.18 5661.62 6631.19 6648.68 4713.74 5626.61 5817.25 5407.78 4084.49 5061.98 6632.99 4537.6 5147.36 4419.61 7177.44 4563.46 6553.94 5726.66 5460.65 5652.0 5463.41 5225.33 4929.75 4435.36 6045.22 4614.3 5134.39 3532.3 5769.98 5442.32 2221.99 4643.56 3580.58 4863.01 5356.79 5657.36 3619.79 5029.47 6306.21 5266.01 2978.76 2040.66 7016.27 5884.9 3876.21 3685.65 5689.26 4916.22 6022.7 4940.84 5750.07 4809.67 4757.74 6045.67 3946.28 3821.94 5439.9 5367.73 3540.11 4652.01 3456.47 5421.64 7234.66 4207.54 4886.12 6419.12 4976.12 4817.16 5453.98 3991.42 4388.63 5102.75 4200.09 4597.29 5931.77 5151.21 5398.64 6817.57 4477.04 3614.96 3886.68 5703.74 5662.55 5737.92 4360.23 5365.24 5293.51 4763.96 5754.18 5008.63 3418.99 4480.95 4993.35 4409.63 5521.25 3661.9 5370.85 5949.46 3178.54 4765.02 5376.71 4448.13 5070.29 4807.28 4867.08 2261.36 4266.03 5280.69 4220.03 6923.84 5449.46 6179.96 5703.07 6113.54 4662.43 6260.79 3963.76 5528.53 6799.88 3062.43 5426.78 2967.38 4159.35 6477.91 4237.98 6439.37 4081.97 5401.99 5580.92 5973.33 5067.46 3583.21 2511.46 4011.37 2775.69 4785.25 6519.43 5876.64 5424.46 4857.84 4908.49 4962.21 4858.44 3468.42 4673.35 4771.13 4992.42 5297.19 4351.38 4833.46 5933.7 7248.4 5280.12 5984.81 3498.16 4409.27 4640.06 5471.74 3548.39 3673.28 4858.51 3375.28 5625.65 4301.61 6107.89 4446.84 5660.55 5148.08 4834.87 5760.22 3672.21 5938.17 4795.43 5097.95 5108.06 3573.73 4693.52 6853.04 4745.43 5831.96 4747.55 3056.7 3755.95 6234.32 4586.19 4446.06 3450.93 4270.74 5132.68 6595.03 4558.15 6218.95 5222.16 5107.23 5136.08 3776.94 5558.68 4010.57 5629.39 2684.03 6157.04 4768.61 5075.55 4522.21 5506.19 6719.94 4950.67 5227.59 6166.29 5453.6 5294.77 4709.05 4630.82 4043.66 4813.08 5860.67 4540.86 5990.52 3764.1 4835.83 5604.35 6316.56 4332.87 3091.67 6420.81 4715.58 4450.7 5151.52 5369.08 4347.74 4009.62 5291.9 2081.58 6505.78 5461.55 4270.15 6865.76 6449.64 6464.8 4684.44 4749.59 5799.69 3809.69 5571.72 3208.96 7051.9 4184.23 4144.57 5550.75 6834.41 6226.14 5466.33 4444.97 3000.29 5721.05 4247.69 4514.39 4588.99 4321.21 4344.34 4928.27 3583.49 5052.84 4366.74 5297.16 3184.64 5206.33 5530.49 5653.03 3718.69 4514.79 2216.82 4509.89 6752.75 5269.38 5607.3 2928.82 4222.4 4000.43 3420.08 4568.41 4912.04 4539.07 5464.68 2685.81 5591.76 4585.31 6625.18 5323.91 5097.45 6293.89 2761.07 5737.75 4983.39 5366.52 4690.55 5533.72 5533.42 4802.32 3678.08 4599.38 5246.47 4187.31 6191.29 3240.51 7422.36 5161.01 4298.15 4628.4 5832.37 6051.83 4642.93 5409.63 4263.16 3973.12 3077.84 6024.75 6109.49 5567.93 5987.42 5332.65 4442.22 6451.33 5413.31 3012.99 6400.08 4743.59 5208.14 3317.83 3763.05 5092.24 5549.49 3101.75 4518.04 4766.06 4874.18 5435.19 3298.2 4953.1 5818.95 4093.99 3940.49 4406.05 4680.94 5828.35 5876.72 5236.43 5285.07 4680.14 4608.41 4187.94 5980.59 3796.15 4801.8 7216.98 5271.02 4209.31 5718.28 6242.79 5950.45 5713.03 5849.65 5134.67 4165.21 4215.0 4936.96 4481.76 5452.78 5065.26 4304.41 6192.0 4940.28 5885.28 6579.31 3004.34 3022.6 4914.45 4811.76 4698.87 4661.03 3624.7 4691.91 5262.35 4475.83 4510.8 5889.35 5010.04 4394.56 4570.98 4275.07 5825.38 4185.61 4047.87 5742.47 3778.02 6552.21 5417.8 5146.37 7132.12 4836.16 5518.57 5151.11 5463.48 5730.33 5545.46 4527.99 4376.7 4543.1 5190.61 8325.01 3764.06 4440.81 5941.9 5434.47 6642.76 5829.22 4497.78 4243.79 5811.18 5433.65 4008.15 4887.76 4669.06 4811.32 4286.49 6184.88 5829.32 4396.25 5551.95 3918.87 5423.42 2275.45 6605.86 5012.5 4383.56 3562.79 7093.13 4516.53 4122.92 3604.14 4452.54 5089.1 2711.19 4028.32 4099.92 4884.59 3858.06 4511.7 4083.79 5263.27 6300.92 5021.77 4173.54 5599.29 6038.68 5046.12 4807.4 7013.17 3805.67 4601.74 6506.86 5088.57 5580.34 3852.6 5775.31 4706.5 4603.5 4647.67 5375.12 4356.36 4892.44 5578.94 7610.49 4286.17 3684.56 5323.55 5375.1 4172.6 5313.12 5351.56 5160.59 3984.88 4732.09 4320.42 4255.34 5064.79 5480.3 7509.24 4146.81 5896.26 5388.78 6101.13 4573.72 5099.21 4917.99 5636.4 4367.78 4350.12 5227.02 5670.0 4232.16 5300.96 4344.51 5680.94 3781.77 5581.55 5193.01 3474.5 6550.44 3860.83 6348.03 5732.27 4523.39 5278.56 5146.37 6917.62 4013.38 5631.14 4343.78 5263.3 4909.65 6523.86 7693.4 4326.48 4437.07 3449.37 5491.9 6405.0 4659.16 5789.55 4633.05 4901.2 5711.62 4990.79 4798.17 5166.79 6479.39 2895.63 4997.91 5079.22 5381.54 5810.77 4714.83 5474.15 7519.2 6355.68 4478.6 3953.55 4304.63 4469.54 4314.56 3928.53 5606.51 5740.65 3834.47 6349.67 6329.53 4590.01 6101.86 4227.41 5993.0 4803.57 5966.42 4110.59 3332.49 5354.66 4214.44 5378.23 4787.97 3746.36 6789.23 3989.7 4777.03 4246.61 6028.09 5452.36 3804.5 6486.37 5498.42 5318.53 3344.57 5220.76 4281.98 7165.9 5344.83 7046.11 3427.63 4863.97 6342.48 5756.75 5599.7 4587.67 4163.74 6969.28 3665.95 5698.96 4095.75 3603.51 4298.45 5222.51 6609.84 5135.96 3834.43 5658.37 4707.06 6074.94 5491.37 4250.88 3783.54 3475.67 4792.39 7038.89 3863.67 4814.12 5067.56 6137.8 2735.53 3352.35 5116.6 3747.03 2783.85 4356.49 4526.81 3994.07 4219.94 5907.46 4264.91 6740.71 5399.29 4909.31 5971.22 6522.59 6602.43 3568.28 5425.98 5996.66 4405.42 2995.67 3598.08 4599.81 5698.23 7300.58 3608.06 6633.61 5217.95 4867.7 5484.36 4277.24 4063.9 5291.05 5161.1 4619.2 5166.41 5067.56 2596.96 5701.75 4350.15 4139.3 6541.45 4750.49 5078.31 5391.48 4923.43 5131.15 4847.14 3950.27 5116.66 3566.79 5374.67 4981.43 4741.28 5069.89 4215.2 4157.29 6813.72 5327.75 4609.02 4896.65 4638.18 4196.37 6448.66 4453.97 6945.98 5138.2 5783.48 4449.98 4701.5 4504.35 4771.65 4840.44 5093.82 5951.81 3924.14 6918.35 4296.69 6238.32 3319.67 6471.42 5283.8 4076.59 4428.14 5164.1 6464.15 4479.11 4972.17 6685.4 5699.53 4222.77 4850.06 6332.01 5268.38 5527.23 4805.33 4234.18 7085.01 5980.95 6193.08 6069.3 5887.01 5168.35 5388.39 5335.47 3728.18 5633.61 5048.19 6799.23 4888.27 4592.15 6487.56 4854.11 5533.19 4998.22 5417.21 6104.26 5583.61 6063.64 7382.3 4022.56 5522.21 3772.3 4855.01 6208.9 4923.57 3340.09 6061.63 2279.05 4829.35 4075.28 8137.11 5484.32 6650.77 4067.96 7104.73 6162.3 3272.75 4264.54 3516.27 7043.44 4263.78 4643.9 5228.75 6047.14 5009.83 5210.38 5717.8 3629.44 5003.78 3299.24 6246.56 4061.6 2603.64 5107.0 6212.15 6502.97 4783.07 4946.23 4852.58 6083.28 5211.6 3556.79 5806.31 5456.71 3503.41 7317.04 6412.67 7001.83 5012.97 5589.37 5439.49 6639.64 5212.43 4834.3 5454.12 6348.54 6804.79 5642.35 6372.13 5369.5 5404.01 6016.19 4124.49 3230.13 5714.25 6176.67 5325.96 5412.24 5016.02 7044.29 4920.21 4049.16 3936.95 6153.94 6836.82 3862.77 3858.17 4631.99 4740.98 3185.39 5128.77 7122.87 5797.36 4243.26 4153.84 5119.86 5089.26 5084.17 4901.44 3776.8 5096.43 6156.21 2460.79 4653.83 6171.71 4986.71 3628.89 6589.82 4668.88 5027.43 5522.75 5867.64 6059.93 5602.53 5073.02 6545.43 3472.91 6760.92 4989.2 4711.04 7144.05 4506.18 4824.12 2970.9 6542.5 4383.47 5971.21 4036.91 4066.57 4206.98 5156.76 6357.47 6101.57 4891.38 5535.91 2949.12 5955.86 4532.89 4533.37 4848.46 2779.99 5887.38 4581.37 6942.34 5851.61 3658.05 5478.11 5526.31 5030.15 4438.58 6318.23 4058.87 5174.75 5932.07 4984.46 5948.71 4793.65 3856.53 5460.89 6040.74 5260.85 5742.09 2884.65 5393.65 5807.46 4648.21 4393.16 3311.29 4549.69 6423.81 6192.77 6413.15 6103.11 5048.55 6459.51 4024.31 4955.16 5844.72 3992.97 4147.31 5989.05 4054.22 7228.94 4441.22 4961.99 6551.93 4595.12 3110.13 6484.43 4625.67 3485.54 6735.97 5305.59 5416.45 4330.58 5754.6 3288.01 4904.51 2202.77 5751.15 5950.88 4149.55 6201.86 5853.89 3380.69 4140.4 3639.44 4386.8 5446.4 4725.01 5966.75 4729.42 3104.96 5244.78 3636.15 6114.89 5135.63 6384.7 4355.83 6870.97 5351.86 6056.87 5474.01 5307.35 7554.58 5166.89 4731.21 5491.63 5725.37 3868.62 5138.33 3477.1 4811.22 5216.26 4844.83 4749.96 5377.37 5652.87 5483.7 5018.69 3152.86 5952.38 3896.27 5807.52 5963.36 5230.02 5087.14 4342.18 5169.48 6016.08 6776.22 3124.7 6064.71 6102.98 6060.17 4385.81 6592.93 5096.24 5769.14 3381.82 4831.93 4023.93 5494.28 4834.39 5493.89 5261.19 4918.76 4208.41 5826.78 6214.73 4553.68 3758.22 4268.19 4532.7 5561.74 6100.73 4788.08 4593.7 4349.13 6379.14 3687.65 5478.95 3851.85 4019.34 4658.24 5869.67 4311.48 4899.73 5457.66 6394.19 5973.89 5366.22 6193.73 5518.11 3742.11 5712.35 5701.52 4743.9 5321.17 3719.11 4467.13 3877.8 6418.11 5934.82 4501.78 5415.45 6350.71 5039.12 7107.63 5868.89 5545.59 4099.26 5206.47 3831.52 4263.65 6106.43 6761.81 5467.63 4127.53 5210.75 2856.55 5361.87 3205.68 4473.29 4908.75 6556.26 3971.08 4482.9 6818.91 3503.65 3634.5 4869.48 3623.19 4906.11 5510.96 4387.39 4564.1 4745.16 5825.55 5509.51 4848.14 3199.4 4316.5 5254.24 4192.21 4914.03 3597.43 5144.56 4158.91 5311.55 3360.86 3034.16 4869.25 5545.21 4333.87 4922.49 3572.94 5001.58 6456.58 5244.98 5366.11 4824.81 5944.3 7307.21 5135.5 3619.72 4565.93 5615.84 4464.73 5788.97 6440.38 3274.85 5007.21 4580.06 4835.97 4057.17 5262.47 7066.96 4587.7 5196.92 5644.81 5666.95 4642.2 5175.89 3894.64 5232.85 4374.74 5975.23 6816.66 4745.79 4211.82 6204.65 6550.4 5513.8 4887.52 6631.28 5350.88 6571.31 4392.65 5429.3 4944.51 6653.07 4697.91 4584.81 5071.98 5719.79 4371.08 7261.51 4968.14 5086.29 5527.13 5139.18 4278.57 5551.43 6318.25 5049.99 4201.03 4458.64 5001.87 4312.15 3657.69 4883.63 4078.93 6015.02 4820.17 3814.65 3886.72 4034.05 5127.82 5798.38 6436.74 3419.87 4384.28 3908.98 5113.6 6328.42 5640.72 5851.63 4504.52 4954.81 5610.53 6419.64 3926.11 5464.83 5414.58 4991.35 4807.35 5334.36 4568.64 5750.35 4489.99 6555.44 5293.75 5473.72 7124.45 6358.93 2205.51 3703.49 5144.44 4757.2 5034.69 5079.64 5470.04 6003.78 5684.25 4891.67 5188.53 4882.66 4027.63 5603.68 5610.95 5532.72 3220.8 5179.17 5579.39 5270.51 5148.1 5490.75 5224.64 5949.73 4312.48 5783.94 6370.33 5081.08 4202.77 6864.06 6008.81 3644.78 5510.9 4505.28 3492.83 7039.98 6006.89 7778.01 5690.96 5805.1 3862.91 4456.11 4456.26 4027.33 4810.98 5091.22 3563.14 5212.92 5556.0 5748.9 3742.31 5755.15 4608.34 5695.79 2781.96 3512.94 4467.0 4994.65 5601.55 3903.91 3919.62 4929.6 3683.86 4548.45 5658.14 4508.18 2617.39 4062.56 5969.37 4198.94 3217.67 4509.46 6163.54 5212.37 5438.92 3766.69 5110.11 5036.98 4521.75 4813.33 5569.2 5635.32 4526.34 4316.45 5409.08 5042.75 4598.92 5241.22 6647.08 4979.52 3422.29 4407.79 5214.63 6548.29 3495.68 3990.96 5352.24 7362.42 5793.12 5836.14 5473.05 4373.2 4583.52 6280.13 5244.22 5585.14 4960.64 5792.98 4983.3 5053.15 5910.86 5124.17 6239.68 7320.78 4234.88 5782.43 4708.31 5026.76 6282.38 5657.55 5727.79 5188.82 5043.14 3663.0 6304.49 4420.6 3622.8 4431.23 4258.98 6545.99 4368.28 4945.0 4658.11 4551.26 5730.61 5114.07 7142.95 5064.67 6618.21 3717.47 4504.86 6200.63 4928.35 1937.5 3844.54 3538.53 996.652 6500.49 5965.58 5058.51 4244.49 4050.03 4120.07 3840.21 3429.57 6746.66 5410.33 5420.67 5661.6 4827.61 5285.75 5385.03 5481.64 5673.75 5360.67 5968.54 6263.3 4501.05 4537.03 3247.97 4114.2 4326.06 5034.46 5757.29 5016.46 5469.17 5061.75 3769.24 3743.76 5153.18 6711.21 4971.29 5832.29 2606.51 4438.76 5372.82 5401.4 4775.49 4681.29 5749.6 4834.44 3873.92 4092.07 4213.05 5347.9 4224.3 4717.73 4928.85 5072.5 4749.18 4546.96 4316.0 5424.55 5134.72 4475.38 5287.25 5917.34 5740.98 5630.9 4728.55 4554.68 4140.92 4559.74 4383.68 6666.67 4583.94 5046.31 4337.32 4680.69 2628.22 3352.34 4901.29 4952.52 3242.31 6099.28 5372.25 4169.15 3234.26 4778.37 3494.16 5134.17 4074.16 4904.35 5592.54 5390.33 5124.34 4904.37 4358.81 4651.64 5729.92 4179.87 6224.13 4761.84 3661.67 3425.69 5510.45 4730.14 3864.92 3994.39 6119.99 4159.81 4446.58 4402.17 3845.9 4174.44 6331.74 4198.9 5235.87 3904.07 6502.99 4921.1 4770.51 5577.41 6511.37 3787.08 4462.87 4218.16 6139.64 4692.32 4474.83 5236.24 4585.04 3127.83 6570.35 4242.63 7407.91 6063.44 4051.18 5849.53 4420.11 5863.0 6127.39 4124.76 7200.89 4802.98 4833.55 7224.99 3908.56 5265.63 4898.29 4431.06 5730.2 4830.13 5620.88 5370.9 4529.77 4325.13 6172.27 3783.79 5078.73 4248.14 5278.54 5729.0 5192.92 5275.57 4786.66 5891.25 5370.1 5393.76 3684.15 7123.04 5906.57 7541.76 4990.23 3784.94 5499.59 5667.51 5431.29 4833.67 5325.91 5157.38 4546.44 6203.03 4700.07 5273.37 4732.37 5713.36 5553.94 4704.92 4287.25 4392.75 3814.16 4191.01 4589.06 4216.44 3999.5 4012.92 4346.07 4933.49 3269.54 5836.26 6015.22 6449.06 5241.75 4651.99 5640.12 4972.18 5329.76 5684.88 5764.52 6523.78 4645.86 4045.67 4941.52 4308.49 5900.0 4262.74 4581.1 6241.77 5317.19 5279.19 4016.6 5821.49 7050.08 5580.44 5998.13 5902.67 5454.11 4236.86 6010.59 4128.1 4618.73 4932.29 4506.66 3220.29 4439.71 4141.21 4064.58 5023.41 4646.51 952.938 4184.21 5473.89 6089.45 4985.3 4966.07 3987.69 4666.12 6219.34 4920.88 4013.86 4177.47 4770.63 5678.58 4385.49 6102.49 5114.23 6061.85 5512.44 4826.52 2904.46 4731.53 3763.9 4577.73 4288.45 4147.49 5419.57 5760.98 4954.76 4642.74 5384.86 3770.22 4390.64 5150.84 4608.01 5087.97 6005.95 4519.03 4930.17 4085.96 4745.44 5762.82 7360.12 6223.98 5462.6 5617.29 3035.06 4262.19 4597.88 5095.52 4763.4 4941.02 5806.61 3682.35 2955.36 3965.3 6110.48 4125.9 4564.41 5426.4 5951.86 3791.41 5853.12 5702.4 5810.17 5265.21 4657.24 4400.14 5340.05 2918.64 5345.73 4639.8 4212.15 4263.18 5495.0 4489.29 4454.74 5120.92 4685.4 4636.53 4081.34 3646.95 3402.44 4848.98 5184.98 4491.96 4467.51 5339.82 5460.57 5110.27 5703.34 4612.68 6668.98 6649.52 4232.33 4939.56 4747.68 5770.92 3093.38 4845.91 4878.93 2002.78 4461.67 5784.37 3142.09 5182.13 5515.73 6715.73 5247.01 4841.7 4678.7 3450.07 3306.84 3484.81 5308.33 4271.07 5674.63 5759.79 4462.35 4301.93 4924.07 3200.6 4918.64 6206.98 6638.25 4775.04 5162.67 2403.72 5537.61 6084.88 4199.44 4397.06 4053.12 4479.5 6261.67 3435.13 5065.78 4431.46 4521.42 4610.55 3207.84 3977.98 6043.34 4128.93 4959.72 4712.17 3808.04 4723.71 4405.61 5003.3 3668.93 3756.96 3954.77 6793.1 6016.87 5077.29 5209.55 6740.35 4550.92 6023.07 6710.14 4598.54 5218.42 4512.07 4896.43 3986.41 6240.42 5146.0 4788.7 5078.59 4607.18 3228.27 4721.98 5252.82 3543.98 4142.1 5056.26 5878.55 4014.44 6604.72 6002.77 3794.47 4967.02 4614.49 3361.11 5400.69 4462.5 2807.46 5573.31 5004.68 4179.8 4023.88 5348.11 5428.24 6273.6 4009.24 5800.81 6245.52 5166.05 3125.13 5866.91 6075.99 6506.63 5995.4 5188.22 4841.23 4196.62 5984.8 3469.18 3372.95 6347.72 3956.24 6334.53 7558.99 3393.59 4032.06 5043.14 5333.04 5445.91 4521.99 4812.59 6842.54 7115.67 5675.45 5329.84 6038.56 3879.83 5599.16 3488.34 5658.35 4577.98 5886.81 5684.05 4708.17 2741.2 3779.45 5167.53 7035.54 5763.05 5797.21 4208.37 6019.35 5191.26 4184.47 3825.48 2804.54 5819.0 3460.93 5124.86 5469.35 5117.64 5580.95 3549.92 6598.99 5250.56 5246.81 2468.16 5089.1 5888.95 5394.78 3463.34 5169.09 5122.38 2853.68 2459.88 5262.85 4998.37 6559.82 5342.9 6565.95 5733.12 5043.34 5136.87 7145.73 5233.76 6405.69 5357.39 4252.18 6296.54 3669.32 4762.1 5700.79 4629.02 4927.73 4705.68 4313.38 5827.3 6036.99 3010.1 3633.58 3825.98 6294.14 4339.97 5203.75 3906.41 4691.15 4512.6 5470.67 4210.24 5901.71 5225.11 5252.22 4962.35 6436.29 7350.26 4556.19 4168.52 4659.88 5685.74 3495.3 4140.04 5890.25 5766.05 2832.83 4474.96 4084.87 5259.29 3584.05 4589.22 5087.03 4818.53 4667.84 5097.85 5584.64 4123.08 6224.64 4260.38 4221.03 4636.45 4932.27 3799.55 5638.51 6793.49 3563.33 6060.19 5536.0 6786.37 5790.42 5591.77 5106.46 6562.92 3612.44 4758.76 4790.63 4088.72 3945.62 4916.75 5342.17 6379.3 6189.04 3795.63 5189.4 4576.71 5082.66 4550.77 4894.15 4337.93 3550.88 4345.51 4048.73 6223.33 5024.32 5813.79 4644.88 4068.31 3671.06 4850.5 4683.28 4658.59 5532.75 6949.65 4608.62 5407.96 4987.28 6562.03 5367.05 4449.73 5647.11 3743.85 6236.46 5015.67 6538.04 6157.59 5201.3 5848.41 4090.28 4932.56 4176.32 3185.09 3587.93 5676.61 5064.23 6006.16 5721.14 5084.5 4071.75 4246.83 4493.79 4279.44 2945.34 3565.32 5638.7 5399.43 3667.93 3487.31 3835.81 5710.33 4096.86 5695.44 4668.8 5322.11 4697.49 5735.08 4726.2 5034.05 4816.51 4711.15 4474.39 3810.68 6478.35 3990.94 4756.8 5477.8 5463.06 6069.78 5260.52 4241.68 4975.85 4095.83 5323.95 5846.95 5716.42 5268.15 5701.63 4603.04 4620.95 4870.94 5368.93 4488.39 6121.56 5914.5 4602.57 3419.07 3622.48 4796.12 5344.44 6432.8 4626.72 5131.77 5549.71 4815.47 4759.99 3899.7 5134.33 5214.4 2646.13 3629.49 5034.34 3769.2 3422.21 3916.42 5537.34 5884.99 5192.49 4899.19 6643.4 5058.34 4028.22 5575.11 4983.1 5293.13 4507.36 6224.85 6406.8 5403.97 4795.08 5648.78 6875.73 5501.73 6081.3 4697.24 4983.43 5117.52 6311.89 6549.8 2820.07 5129.68 4825.73 5076.84 4165.36 5288.33 4871.77 5811.26 5062.77 4884.93 5069.9 6028.63 3673.6 4494.15 5146.1 6215.87 6485.77 6060.06 5866.42 5544.27 5393.43 6896.55 4685.65 5377.01 6470.23 5939.22 4271.93 4215.05 3626.86 5125.17 4604.1 6371.96 4859.01 5076.11 5524.45 7133.44 4426.02 5600.21 3953.26 4750.81 4282.11 5467.51 5459.92 2347.41 4625.53 5453.77 4096.47 4357.11 5114.67 2809.19 5005.6 4916.7 5486.89 5589.53 7208.19 4549.51 5025.42 5196.08 4517.29 6379.38 5695.25 6257.79 4495.75 4849.5 6171.01 6229.83 5796.26 4468.26 4523.81 5578.18 5106.33 5791.25 5293.37 5198.94 5271.88 4028.35 5933.54 5559.79 7168.2 2980.31 3763.85 3148.79 4571.74 5740.78 5997.91 5001.51 4332.64 4742.82 5385.86 5115.42 3186.07 4082.4 4209.0 4410.82 4369.86 4967.51 4368.12 5173.82 6443.99 4365.58 3889.98 5193.58 3720.7 5490.64 5378.24 5698.53 3604.31 4507.46 4450.49 5036.14 3468.45 6022.78 4087.32 6647.85 5726.42 2569.12 4674.9 7025.09 3392.26 4433.12 3918.94 2549.95 5461.72 4361.24 5487.63 3768.46 3852.82 5138.93 5099.9 6945.69 5118.86 7086.69 5368.66 4304.64 6170.9 5833.78 4436.48 5226.42 5758.98 5615.35 3967.76 5288.64 6213.24 6734.39 4217.36 5679.74 5942.45 4150.76 4851.18 4228.53 6123.46 5005.72 5368.52 6142.88 5155.28 5111.26 5388.73 5205.38 4949.55 4764.83 1969.87 3132.34 4600.71 3957.38 4841.28 5262.79 5927.2 5035.71 6889.5 4710.88 4419.79 5300.17 5407.69 3869.39 5152.78 5960.5 5534.23 4117.9 4753.76 6025.77 4781.9 4638.09 6815.96 4441.91 5330.26 5339.6 5828.25 5917.08 4725.11 5483.37 5418.12 5322.07 5934.05 5770.07 4714.66 5990.75 5101.6 4984.17 4656.01 5781.62 6589.13 4037.86 5602.62 2030.03 3543.37 4542.16 5714.51 5628.97 4104.04 5353.66 2638.82 5030.33 5593.79 5104.39 5234.2 4612.13 4965.24 5846.6 5327.05 5438.55 5353.23 4434.65 6688.53 5977.66 5209.5 5065.74 4873.23 6731.89 5464.05 4733.41 5879.24 5410.6 5453.2 6348.93 5136.51 3901.53 6824.53 6815.51 5232.16 4422.23 6791.86 3989.26 6031.22 4820.68 4930.72 5482.76 5728.58 3745.02 7212.97 6297.99 4211.36 5918.95 3856.73 4538.89 5817.74 5887.71 5517.65 4009.68 5114.51 3303.49 4622.73 4655.37 4161.32 5256.75 5161.74 7336.37 5932.28 6599.28 5560.23 2960.5 5783.38 4975.32 3043.77 4298.7 3902.48 5237.55 4183.4 3909.94 6030.39 4733.79 4905.53 3799.01 4823.06 7392.65 5254.49 5319.1 3757.23 6828.8 6883.86 5987.88 3579.59 6161.94 4065.28 5057.59 4461.14 5285.6 5575.11 4574.54 5615.06 5490.54 5203.54 4047.95 5507.38 6142.94 4416.87 5001.69 6581.56 4052.43 4057.4 3980.46 4896.67 5383.9 3934.11 5158.44 3886.56 4466.22 4496.51 5715.51 6153.71 6561.94 5259.21 5092.93 4256.08 2803.01 5881.93 4444.0 6771.18 6182.19 5327.39 5910.66 7415.84 4981.81 4138.59 4970.55 4938.33 4484.78 4621.33 5527.27 5157.73 5847.91 4934.66 4984.01 4109.44 4903.84 4290.49 4557.1 4605.39 5927.1 6270.59 6175.27 5876.51 4103.76 4907.55 4286.61 4094.63 2932.52 5264.83 4603.66 4757.87 4969.68 6636.43 5431.14 6298.8 5313.86 4457.05 5178.07 5189.91 3618.64 5777.26 4171.02 5485.84 6424.77 4887.73 4335.79 5453.69 5797.32 5432.04 5689.56 6556.86 3921.27 5129.4 4746.15 3720.38 4758.84 5585.25 4731.37 5023.61 3976.0 6351.89 4672.86 6530.78 5059.37 4742.35 5394.79 4139.39 5645.54 6264.03 5088.64 4526.87 6589.8 4151.74 6920.92 4174.22 3729.16 3783.36 3573.84 3038.91 4181.93 3922.28 6570.43 3350.99 3820.19 3445.92 5236.69 4979.5 5524.28 4586.82 3133.28 4745.37 5939.29 6026.04 6200.05 5418.98 5859.17 4034.41 4052.49 5061.74 5522.34 5326.03 6189.67 4420.35 5717.45 4948.96 5256.82 4013.86 4061.87 4645.93 5165.31 5448.64 3798.09 4585.37 4288.5 6417.61 3721.69 4511.05 3456.3 6074.39 5317.83 6738.9 4399.52 4460.89 4554.24 4157.1 3939.96 8052.53 4867.12 6044.01 6520.19 4637.3 5141.03 1458.87 5734.07 4840.44 8123.59 3997.68 4819.83 5765.14 4801.16 4767.54 4541.22 4946.08 3539.68 5121.08 4696.03 6217.33 6177.68 4698.7 2848.44 6229.64 6045.26 4220.43 6500.45 5743.8 5084.76 6666.34 6605.11 4645.91 6834.92 3557.46 6379.33 5971.95 5652.73 3689.24 3979.46 6321.97 5151.19 6412.84 6509.54 5703.84 7012.36 3530.82 5128.59 5028.06 4002.99 4886.99 5159.67 5587.3 3161.1 3572.73 4864.38 3702.45 6275.25 6892.33 4505.3 4491.26 4452.36 4511.34 4068.41 6463.71 5009.21 4574.03 4379.91 5290.37 5850.38 5264.08 3562.8 4227.66 4730.97 4691.01 4594.89 5192.82 5245.95 5821.42 4067.89 4515.02 6294.09 4924.52 4571.57 5131.07 4121.07 2970.24 4197.87 5658.05 5105.54 5731.43 6353.81 3414.67 3518.14 5444.36 4150.44 5044.68 5771.98 2649.69 5899.78 5000.74 5117.83 5772.57 5268.27 4813.81 3882.37 4095.4 5244.95 4634.25 5901.8 6351.48 5395.12 5783.69 3830.7 6210.0 5432.4 3483.61 5350.9 4262.52 7430.48 5992.06 5545.68 6080.69 4970.12 4967.93 6369.66 5973.57 5922.62 6241.48 6033.28 5957.82 6286.27 5071.38 3717.22 6327.54 5616.66 2927.84 5688.77 4802.36 2943.17 5368.28 5466.13 5257.38 6263.87 5075.23 4975.56 7282.36 3826.01 4829.77 5581.01 3928.99 6959.88 4125.75 5749.53 5130.57 5090.48 5402.45 5582.28 3985.93 5945.25 6071.59 2589.19 6119.0 3856.4 3792.06 6079.55 5485.61 4993.49 4937.36 4293.3 5308.4 5310.33 6583.37 3688.83 5631.32 6126.5 6322.0 5793.14 6345.2 4609.65 5488.96 5704.61 4832.21 3720.92 5128.03 5410.73 5087.3 4942.63 6139.74 6637.38 4975.57 7066.26 3057.3 6150.31 3677.85 5214.71 4677.84 4811.11 3463.53 5379.52 6126.03 5314.67 6044.69 5563.47 5651.46 6593.1 4066.36 4000.51 5462.1 6032.45 5011.37 2827.92 4026.03 6908.32 3467.11 4817.75 6153.26 4848.15 5637.53 4439.09 5523.81 5648.59 4718.61 5188.57 3873.79 5717.67 5357.33 4432.32 5515.59 5252.37 3224.81 4499.54 5037.58 6457.89 5640.67 6572.17 3751.73 5555.89 4766.47 4871.1 5678.08 3917.09 6009.93 5872.45 4414.09 5270.1 5125.45 3784.68 4188.16 4947.64 6305.9 6649.21 5507.07 4654.92 5327.71 4880.78 4322.56 5509.09 5625.02 3873.72 5212.05 4592.49 5479.86 6474.5 4444.92 4702.32 4763.04 5971.9 3746.62 5247.73 4876.37 4532.67 5034.02 4769.62 5260.13 4649.5 5181.31 5985.75 4696.06 4137.16 6189.29 5984.55 6581.13 4569.32 4034.88 5108.84 3511.5 6007.1 5067.92 5357.14 3188.21 4850.95 5919.27 4793.06 6271.22 3421.81 6188.33 3920.64 6111.23 6916.18 5786.06 5873.62 3868.69 4996.91 3920.44 4450.51 6033.72 4866.8 3768.62 3851.47 4966.74 2329.93 4959.94 1635.31 5639.4 3162.27 6033.93 6185.73 4083.24 5516.37 5092.44 4441.44 5432.2 4232.44 4612.4 5336.61 3312.3 5563.09 6381.58 3282.57 5212.2 4798.13 4611.21 5108.42 6697.45 4630.5 6296.36 3354.94 5237.27 4451.76 7885.41 3775.38 4046.22 5782.25 4104.97 4844.2 4575.72 5114.61 6118.13 3374.62 4926.62 4420.3 6332.64 4202.12 6492.44 4613.32 4083.1 3482.73 5191.29 5130.56 4957.99 4063.26 5345.05 4997.89 4542.62 3470.69 4859.95 5286.55 4132.08 5522.18 5223.1 4699.77 4850.49 4981.55 5144.23 3625.98 6188.62 6153.07 4414.06 5908.57 5944.52 4413.56 5050.2 5316.05 2513.38 4821.41 4908.32 4924.53 3995.08 4499.52 5019.84 3874.12 4810.74 3900.93 5784.38 5475.83 4149.17 4329.8 5728.27 5672.46 5803.3 4582.12 4487.51 4295.25 4520.14 5354.48 7394.47 4729.45 6261.13 5374.09 4167.55 4720.34 5244.47 5378.75 4731.16 5510.89 6186.24 5822.7 3780.07 4137.41 4159.89 5466.49 5178.55 5447.74 4038.17 5007.41 4907.48 3692.99 6213.74 4488.41 4369.87 6938.87 5412.07 5512.57 4806.99 6520.96 3771.91 5856.43 5217.62 6178.19 4746.19 4616.81 5349.85 5715.25 5172.1 4362.94 4469.82 6545.78 4870.14 4404.87 5105.72 5767.65 4750.76 5003.49 4907.03 5497.27 4081.77 5617.91 4948.21 2181.29 4987.01 4706.31 2694.25 6265.48 4735.99 4203.68 4739.56 5145.39 3818.37 3996.93 3352.46 6351.95 5195.09 5200.1 7679.2 5093.28 4881.51 6131.52 4311.92 2626.41 6009.88 6729.99 5093.41 6842.35 5464.34 3621.63 4777.96 5801.89 6833.5 7296.47 5742.39 4780.16 3834.01 5616.11 4433.23 4813.24 4028.13 5759.19 4457.73 6476.35 3113.64 4304.75 6260.58 4067.24 3053.19 5202.33 3074.49 4246.24 6805.02 4919.13 5640.63 4900.26 5783.88 5002.38 6705.93 4865.11 5449.09 5502.14 6470.87 4495.33 5282.67 4131.08 5747.9 3864.19 4287.93 5146.69 6203.24 6818.23 5081.65 6679.12 5652.19 5806.74 3878.8 6578.62 4813.55 3465.03 4796.04 3839.0 5229.56 6011.4 5799.86 4672.34 6052.22 5376.41 5410.33 5533.52 5003.63 4747.24 2932.2 4695.7 4380.86 4944.08 4082.01 5269.39 3964.03 4216.33 5832.72 3903.9 4444.95 4721.2 5161.02 3943.77 3124.49 5242.38 6081.35 5003.81 6262.18 5566.5 4701.03 5663.36 6225.05 5434.04 5125.53 3997.52 4444.54 5403.81 5779.9 4909.74 5310.33 6664.54 3922.98 5161.73 5259.48 4008.67 5254.93 4803.4 6608.94 2613.78 3796.73 5417.07 5656.84 5738.37 6789.66 4739.41 5312.2 5847.27 4490.2 4706.59 5734.84 5480.86 6139.9 3982.31 4950.07 6571.26 5402.81 4328.76 4600.81 5561.63 4124.33 5168.97 4358.06 5093.51 5647.93 4280.92 6201.49 4696.92 5154.74 4605.61 4465.56 6898.8 5386.95 6540.57 5332.11 5315.71 6004.72 6158.93 4823.14 5438.5 4489.18 4621.32 5699.4 5237.76 4698.94 4286.84 6284.12 3948.21 5669.15 5296.05 3330.85 5263.86 6988.4 5056.32 4060.17 6051.35 5302.53 4909.13 5576.16 4305.35 5648.02 3308.75 5210.22 2451.27 5677.42 2701.42 4929.35 5606.22 6673.92 5151.68 4884.94 5459.52 4609.98 4738.72 4752.31 5240.97 4276.59 5579.04 5405.6 5994.21 4884.93 5082.25 4759.38 6964.78 4374.05 5299.03 5036.84 4565.36 5813.68 4025.08 5040.9 3618.53 5596.68 4770.21 4868.66 8013.28 3846.55 5159.9 5283.65 4644.68 3082.16 2892.36 5981.54 5911.29 5416.41 4694.27 6760.64 2515.5 5177.88 5551.79 6981.47 4720.22 4582.24 4333.23 5145.13 3747.96 5611.29 5940.5 6568.45 5004.22 4601.54 7263.57 3832.09 5705.96 6437.99 5739.69 6632.04 7360.62 4893.72 4985.45 4072.4 4983.56 5373.78 5699.51 4714.52 5345.65 2489.44 5499.37 5863.36 4632.75 4752.94 4994.98 3950.53 6423.96 6058.13 5894.69 4384.91 6550.61 4987.01 6635.51 6094.34 6779.82 5543.67 3999.81 4287.61 4867.13 4604.34 4439.17 4502.12 3255.93 5442.79 5051.39 6327.61 4633.59 5733.59 5362.15 4455.61 3695.72 6874.6 5106.9 5569.85 5523.96 3929.35 4223.53 4733.37 6960.97 3037.72 4287.15 4523.9 5282.51 5504.65 5669.41 5732.11 3760.4 3919.47 4951.02 4602.7 3783.35 4037.16 4004.39 6395.63 4987.48 5943.61 4248.58 5479.17 5020.37 4542.25 4414.23 5233.88 4849.21 4785.55 3793.83 5245.4 3916.15 6189.81 3860.8 5438.6 7370.52 4726.5 5467.05 4521.88 3724.23 5103.3 4963.88 5888.94 4727.98 4122.2 5175.88 5267.65 4516.26 4790.16 3509.34 3647.26 5360.88 3166.37 4977.64 5369.42 5207.08 5205.53 4587.19 5543.05 4883.13 6028.89 4836.76 5551.09 5755.98 5392.85 4501.1 5581.47 5077.2 4274.05 5275.27 4277.54 4713.56 5529.09 4531.46 5925.82 5448.68 4739.5 6210.48 6377.45 4863.27 4182.05 6853.07 5575.8 5268.93 5306.31 4535.94 5126.08 5604.0 3731.58 5333.16 4888.17 4072.95 4491.62 3865.5 
SCALARS Velocity float 1
LOOKUP_TABLE default
1.19178 1.19178 1.19178 1.19178 1.19178 1.19178 1.19178 1.19178 1.19178 1.19178 1.19178 1.19178 1.19178 1.19178 1.19178 1.19178 1.19178 1.19178 1.19178 1.19178 1.19178 1.19178 1.19178 1.19178 1.19178 1.19178 1.19178 1.19178 1.19178 1.19178 1.19178 1.19178 1.19178 1.19178 1.19178 1.19178 1.19178 1.19178 1.19178 1.19178 1.19178 1.19178 1.19178 1.19178 1.19178 1.19178 1.19178 1.19178 1.19178 1.19178 1.19178 1.19178 1.19178 1.19178 1.19178 1.19178 1.19178 1.19178 1.19178 1.19178 1.19178 1.19178 1.19178 1.19178 1.19178 1.19178 1.19178 1.19178 1.19178 1.19178 1.19178 1.19178 1.19178 1.19178 1.19178 1.19178 1.19178 1.19178 1.19178 1.19178 1.19178 1.19178 1.19178 1.19178 1.19178 1.19178 1.19178 1.19179 1.19178 1.19178 1.19178 1.19178 1.19178 1.19178 1.19178 1.19178 1.19178 1.19178 1.19178 1.19178 1.19178 1.19178 1.19178 1.19178 1.19178 1.19178 1.19178 1.19178 1.19178 1.19178 1.19178 1.19178 1.19178 1.19178 1.19178 1.19178 1.19178 1.19178 1.19178 1.19178 1.19178 1.19178 1.19178 1.19178 1.19178 1.19178 1.19178 1.19178 1.19178 1.19178 1.19178 1.19178 1.19178 1.19178 1.19178 1.19178 1.19178 1.19178 1.19178 1.19178 1.19178 1.19178 1.19178 1.19178 1.19178 1.19178 1.19178 1.19178 1.19178 1.19178 1.19178 1.19178 1.19178 1.19178 1.19178 1.19178 1.19178 1.19178 1.19178 1.19178 1.19178 1.19178 1.19178 1.19178 1.19178 1.19178 1.19178 1.19178 1.19177 1.19178 1.19178 1.19178 1.19178 1.19179 1.19178 1.19178 1.19178 1.19178 1.19178 1.19178 1.19178 1.19178 1.19178 1.19178 1.19178 1.19178 1.19178 1.19178 1.19178 1.19178 1.19178 1.19178 1.19178 1.19178 1.19178 1.19178 1.19178 1.19178 1.19178 1.19178 1.19178 1.19178 1.19178 1.19178 1.19178 1.19178 1.19178 1.19178 1.19178 1.19178 1.19178 1.19178 1.19178 1.19178 1.19178 1.19178 1.19178 1.19178 1.19178 1.19178 1.19178 1.19178 1.19178 1.19178 1.19178 1.19178 1.19178 1.19178 1.19178 1.19178 1.19178 1.19178 1.19178 1.19178 1.19178 1.19178 1.19178 1.19178 1.19178 1.19178 1.19178 1.19178 1.19178 1.19178 1.19178 1.19178 1.19178 1.19178 1.19178 1.19178 1.19178 1.19178 1.19178 1.19178 1.19178 1.19178 1.19178 1.19178 1.19178 1.19178 1.19178 1.19178 1.19178 1.19178 1.19179 1.19178 1.19178 1.19178 1.19178 1.19178 1.19179 1.19178 1.19178 1.19178 1.19178 1.19178 1.19178 1.19178 1.19178 1.19178 1.19178 1.19178 1.19178 1.19178 1.19179 1.19178 1.19177 1.19178 1.19178 1.19178 1.19179 1.19178 1.19179 1.19178 1.19178 1.19178 1.19178 1.19178 1.19178 1.19178 1.19178 1.19178 1.19178 1.19178 1.19178 1.19178 1.19178 1.19178 1.19178 1.19178 1.19178 1.19178 1.19178 1.19178 1.19178 1.19178 1.19178 1.19178 1.19178 1.19178 1.19178 1.19178 1.19178 1.19178 1.19178 1.19178 1.19178 1.19178 1.19178 1.19178 1.19178 1.19178 1.19178 1.19178 1.19178 1.19178 1.19178 1.19178 1.19178 1.19178 1.19178 1.19178 1.19177 1.19178 1.19178 1.19178 1.19178 1.19178 1.19178 1.19178 1.19178 1.19178 1.19178 1.19179 1.19178 1.19178 1.19178 1.19178 1.19178 1.19178 1.19178 1.19178 1.19178 1.19179 1.19178 1.19178 1.19178 1.19178 1.19178 1.19178 1.19178 1.19178 1.19179 1.19178 1.19178 1.19178 1.19177 1.19179 1.19178 1.19178 1.19179 1.19178 1.19179 1.19178 1.19178 1.19179 1.19178 1.19178 1.19179 1.19178 1.19179 1.19179 1.19178 1.19179 1.19177 1.19178 1.19178 1.19178 1.19178 1.19178 1.19178 1.19178 1.19178 1.19178 1.19178 1.19178 1.19178 1.19177 1.19178 1.19178 1.19178 1.19178 1.19178 1.19178 1.19178 1.19178 1.19178 1.19178 1.19178 1.19178 1.19178 1.19178 1.19178 1.19178 1.19178 1.19178 1.19178 1.19178 1.19178 1.19178 1.19178 1.19178 1.19178 1.19178 1.19178 1.19178 1.19178 1.19178 1.19178 1.19177 1.19178 1.19178 1.19178 1.19177 1.19178 1.19178 1.19178 1.19178 1.19178 1.19178 1.19178 1.19178 1.19178 1.19178 1.19178 1.19178 1.19178 1.19178 1.19179 1.19178 1.19178 1.19178 1.19178 1.19178 1.19178 1.19178 1.19179 1.19178 1.19178 1.19179 1.19178 1.19179 1.19178 1.19178 1.19178 1.19178 1.19178 1.19178 1.19179 1.19179 1.19178 1.19179 1.19178 1.19178 1.19177 1.19178 1.19178 1.19178 1.19178 1.19179 1.19178 1.19178 1.19178 1.19178 1.19178 1.19178 1.19178 1.19178 1.19178 1.19178 1.19178 1.19178 1.19178 1.19178 1.19177 1.19178 1.19178 1.19178 1.19178 1.19178 1.19178 1.19178 1.19178 1.19178 1.19178 1.19178 1.19178 1.19178 1.19177 1.19178 1.19178 1.19178 1.19178 1.19178 1.19178 1.19178 1.19178 1.19178 1.19178 1.19178 1.19178 1.19178 1.19178 1.19178 1.19178 1.19178 1.19178 1.19178 1.19178 1.19178 1.19178 1.19178 1.19178 1.19178 1.19178 1.19178 1.19178 1.19178 1.19178 1.19178 1.19178 1.19178 1.19178 1.19177 1.19178 1.19178 1.19178 1.19179 1.19177 1.19178 1.19178 1.19178 1.19178 1.19178 1.19178 1.19179 1.19179 1.19179 1.19177 1.19178 1.19178 1.19178 1.19179 1.19179 1.19179 1.19177 1.19179 1.19178 1.19178 1.19177 1.19178 1.19178 1.19178 1.19178 1.19177 1.19179 1.19178 1.19177 1.19178 1.19178 1.19178 1.19178 1.19178 1.19178 1.19178 1.19178 1.19178 1.19177 1.19178 1.19178 1.19177 1.19178 1.19178 1.19178 1.19178 1.19178 1.19178 1.19178 1.19177 1.19178 1.19178 1.19178 1.19178 1.19178 1.19178 1.19178 1.19178 1.19178 1.19178 1.19178 1.19178 1.19178 1.19178 1.19178 1.19178 1.19178 1.19178 1.19178 1.19177 1.19178 1.19178 1.19178 1.19178 1.19178 1.19177 1.19178 1.19178 1.19179 1.19178 1.19178 1.19178 1.19178 1.19178 1.19178 1.19178 1.19178 1.19178 1.19177 1.19178 1.19178 1.1918 1.19178 1.19177 1.19178 1.19178 1.19178 1.19178 1.19178 1.19178 1.19177 1.19178 1.19179 1.19178 1.19179 1.19178 1.19178 1.19178 1.19178 1.1918 1.19179 1.19179 1.19178 1.19177 1.19179 1.19178 1.19178 1.19177 1.19178 1.19179 1.19178 1.19178 1.19178 1.19178 1.19178 1.19178 1.19177 1.19178 1.19178 1.19178 1.19178 1.19178 1.19178 1.19177 1.19178 1.19178 1.19178 1.19178 1.19178 1.19178 1.19178 1.19177 1.19178 1.19177 1.19178 1.19178 1.19178 1.19178 1.19178 1.19178 1.19178 1.19178 1.19178 1.19178 1.19178 1.19178 1.19178 1.19178 1.19178 1.19178 1.19178 1.19178 1.19178 1.19178 1.19178 1.19178 1.19178 1.19177 1.19178 1.19178 1.19178 1.19178 1.19178 1.19178 1.19177 1.19178 1.19178 1.19178 1.19178 1.19178 1.19178 1.19178 1.19178 1.19178 1.19178 1.19178 1.19179 1.19177 1.19179 1.19178 1.19177 1.19178 1.19178 1.19178 1.19178 1.19177 1.19178 1.19178 1.19178 1.19178 1.19177 1.19178 1.19177 1.19178 1.19178 1.19178 1.19179 1.19178 1.19178 1.19178 1.19178 1.19178 1.19179 1.19178 1.19178 1.19177 1.19179 1.19178 1.19178 1.19178 1.19178 1.19177 1.19179 1.19178 1.19179 1.19178 1.19178 1.19178 1.19178 1.19178 1.19178 1.19178 1.19178 1.19177 1.19178 1.19177 1.19178 1.19178 1.19178 1.19178 1.19178 1.19178 1.19178 1.19178 1.19177 1.19178 1.19178 1.19178 1.19178 1.19178 1.19178 1.19178 1.19178 1.19178 1.19178 1.19178 1.19178 1.19178 1.19177 1.19178 1.19177 1.19178 1.19178 1.19178 1.19178 1.19178 1.19178 1.19178 1.19178 1.19178 1.19178 1.19178 1.19178 1.19178 1.19178 1.19178 1.19178 1.19178 1.19178 1.19178 1.19178 1.19178 1.19178 1.19178 1.19178 1.19178 1.19178 1.19177 1.19178 1.19179 1.19178 1.19177 1.19177 1.19178 1.19178 1.19178 1.19177 1.19178 1.19178 1.19178 1.19178 1.19177 1.19178 1.19178 1.19178 1.19178 1.19178 1.19178 1.19178 1.19178 1.19178 1.19178 1.19179 1.19179 1.19178 1.19178 1.19179 1.19178 1.19178 1.19178 1.19178 1.19178 1.19178 1.19177 1.19178 1.19178 1.19178 1.19179 1.19179 1.19178 1.19178 1.19177 1.19177 1.19177 1.19177 1.19178 1.19177 1.19178 1.19178 1.19177 1.19178 1.19178 1.19178 1.19177 1.19178 1.19178 1.19177 1.19178 1.19178 1.19178 1.19178 1.19178 1.19178 1.19178 1.19178 1.19178 1.19178 1.19178 1.19178 1.19177 1.19178 1.19178 1.19178 1.19178 1.19178 1.19178 1.19178 1.19178 1.19178 1.19178 1.19178 1.19178 1.19178 1.19178 1.19178 1.19178 1.19178 1.19178 1.19177 1.19178 1.19178 1.19178 1.19178 1.19178 1.19179 1.19178 1.19178 1.19178 1.19178 1.19179 1.19178 1.19178 1.19178 1.19177 1.19177 1.19177 1.19178 1.19178 1.19178 1.19176 1.19178 1.19178 1.19178 1.19178 1.19178 1.19178 1.19178 1.19178 1.19178 1.19178 1.19178 1.19178 1.19178 1.19178 1.19178 1.19178 1.19177 1.19178 1.19178 1.19178 1.19178 1.19179 1.19178 1.19177 1.19177 1.19178 1.19178 1.19178 1.19178 1.19179 1.19178 1.19178 1.19177 1.19177 1.19177 1.19177 1.19177 1.19178 1.19178 1.19178 1.19178 1.19178 1.19178 1.19178 1.19177 1.19178 1.19177 1.19178 1.19177 1.19178 1.19178 1.19178 1.19177 1.19178 1.19178 1.19178 1.19178 1.19177 1.19178 1.19178 1.19178 1.19178 1.19178 1.19178 1.19178 1.19178 1.19178 1.19178 1.19178 1.19178 1.19177 1.19178 1.19178 1.19178 1.19178 1.19178 1.19178 1.19178 1.19178 1.19178 1.19178 1.19178 1.19177 1.19178 1.19178 1.19178 1.19178 1.19178 1.19178 1.19178 1.19179 1.19178 1.19178 1.19178 1.19178 1.19178 1.19177 1.19178 1.19177 1.19176 1.19177 1.19178 1.19178 1.19177 1.19178 1.19178 1.19177 1.19178 1.19178 1.19179 1.19178 1.19177 1.19176 1.19178 1.19177 1.19178 1.19178 1.19178 1.19178 1.19178 1.19178 1.19178 1.19178 1.19178 1.19177 1.19177 1.19178 1.19179 1.19177 1.19178 1.19177 1.19178 1.19178 1.19174 1.19179 1.19179 1.19178 1.19177 1.19177 1.19178 1.19178 1.19177 1.19178 1.19178 1.19178 1.19178 1.19178 1.19177 1.19177 1.19178 1.19178 1.19178 1.19178 1.19178 1.19178 1.19178 1.19178 1.19178 1.19177 1.19177 1.19178 1.19178 1.19178 1.19178 1.19178 1.19178 1.19178 1.19178 1.19178 1.19178 1.19178 1.19177 1.19178 1.19178 1.19178 1.19177 1.19178 1.19178 1.19178 1.19178 1.19178 1.19178 1.19179 1.19177 1.19178 1.19178 1.19178 1.19178 1.19179 1.19178 1.19179 1.19178 1.19178 1.19178 1.19178 1.19178 1.19178 1.19178 1.19176 1.19178 1.19177 1.19178 1.19178 1.19178 1.19178 1.19178 1.19177 1.19178 1.19178 1.19178 1.19178 1.19177 1.19177 1.19177 1.19178 1.19177 1.19178 1.19178 1.19178 1.19176 1.19178 1.19176 1.19177 1.19177 1.19177 1.19176 1.19177 1.19178 1.19175 1.19176 1.19178 1.19178 1.1918 1.19177 1.19178 1.19177 1.19178 1.19178 1.19177 1.19177 1.19178 1.19178 1.19177 1.19178 1.19178 1.19177 1.19178 1.19177 1.19178 1.19178 1.19177 1.19178 1.19178 1.19177 1.19177 1.19178 1.19178 1.19178 1.19178 1.19177 1.19177 1.19178 1.19178 1.19178 1.19178 1.19177 1.19178 1.19178 1.19178 1.19178 1.19178 1.19178 1.19178 1.19178 1.19178 1.19178 1.19178 1.19178 1.19177 1.19177 1.19178 1.19178 1.19177 1.19179 1.19178 1.19178 1.19178 1.19178 1.19178 1.19178 1.19179 1.19179 1.19178 1.19179 1.19178 1.19178 1.19179 1.19178 1.19177 1.19178 1.19177 1.19178 1.19178 1.19178 1.19177 1.19178 1.19179 1.19178 1.19178 1.19177 1.19178 1.19178 1.19178 1.19177 1.19177 1.19178 1.19177 1.19177 1.19178 1.19178 1.19178 1.19178 1.19177 1.19176 1.19178 1.19177 1.19177 1.19176 1.19177 1.19178 1.19175 1.19176 1.19178 1.19178 1.19179 1.19177 1.19178 1.19177 1.19178 1.19178 1.19177 1.19178 1.19177 1.19177 1.19177 1.19177 1.19178 1.19178 1.19178 1.19178 1.19178 1.19177 1.19178 1.19178 1.19177 1.19177 1.19178 1.19178 1.19178 1.19178 1.19177 1.19177 1.19177 1.19178 1.19178 1.19177 1.19177 1.19178 1.19178 1.19178 1.19178 1.19178 1.19178 1.19178 1.19178 1.19178 1.19177 1.19178 1.19177 1.19177 1.19178 1.19178 1.19178 1.19177 1.19178 1.19178 1.19178 1.19178 1.19178 1.19178 1.19178 1.19179 1.19178 1.19178 1.19178 1.19177 1.19178 1.19178 1.19178 1.1918 1.19178 1.19177 1.19178 1.19177 1.19178 1.19178 1.19178 1.19179 1.19178 1.19178 1.19177 1.19178 1.19177 1.19177 1.19177 1.19177 1.19177 1.19178 1.19178 1.19178 1.19177 1.19178 1.19177 1.19177 1.19176 1.19178 1.19178 1.19177 1.19176 1.19178 1.19178 1.19175 1.19175 1.19178 1.19177 1.19178 1.19178 1.19178 1.19177 1.19178 1.19178 1.19178 1.19178 1.19177 1.19177 1.19177 1.19178 1.19178 1.19178 1.19178 1.19178 1.19177 1.19178 1.19178 1.19177 1.19177 1.19178 1.19178 1.19178 1.19178 1.19177 1.19177 1.19177 1.19178 1.19178 1.19177 1.19178 1.19178 1.19178 1.19178 1.19178 1.19178 1.19178 1.19178 1.19178 1.19178 1.19177 1.19178 1.19178 1.19177 1.19178 1.19179 1.19178 1.19177 1.19178 1.19178 1.19178 1.19178 1.19178 1.19179 1.19178 1.19178 1.19178 1.19178 1.19178 1.19177 1.19177 1.19178 1.1918 1.19178 1.19177 1.19176 1.19178 1.19177 1.19178 1.19178 1.19176 1.19177 1.19177 1.19177 1.19179 1.19178 1.19177 1.19177 1.19177 1.19177 1.19178 1.19177 1.19177 1.19177 1.19177 1.19177 1.19177 1.19177 1.19177 1.19178 1.19177 1.19177 1.19177 1.19178 1.19177 1.19178 1.19177 1.19177 1.19177 1.19177 1.19178 1.19177 1.19178 1.19177 1.19178 1.19178 1.19178 1.19177 1.19177 1.19177 1.19178 1.19178 1.19178 1.19177 1.19178 1.19177 1.19178 1.19178 1.19178 1.19178 1.19178 1.19177 1.19178 1.19177 1.19177 1.19178 1.19178 1.19178 1.19177 1.19178 1.19178 1.19177 1.19177 1.19178 1.19178 1.19178 1.19178 1.19178 1.19177 1.19178 1.19177 1.19177 1.19178 1.19179 1.19178 1.19178 1.19177 1.19178 1.19178 1.19178 1.19178 1.19178 1.19178 1.19178 1.19177 1.19178 1.19178 1.19178 1.19178 1.19178 1.19179 1.19177 1.19178 1.19178 1.19178 1.19178 1.19178 1.19178 1.19176 1.19177 1.19178 1.19177 1.19178 1.19177 1.19177 1.19177 1.19177 1.19177 1.19177 1.19177 1.19177 1.19177 1.19177 1.19178 1.19177 1.19177 1.19178 1.19177 1.19177 1.19177 1.19178 1.19177 1.19178 1.19177 1.19178 1.19177 1.19177 1.19178 1.19177 1.19178 1.19177 1.19178 1.19178 1.19178 1.19178 1.19178 1.19177 1.19177 1.19177 1.19177 1.19178 1.19178 1.19178 1.19177 1.19178 1.19177 1.19178 1.19178 1.19178 1.19178 1.19178 1.19178 1.19178 1.19177 1.19178 1.19177 1.19178 1.19178 1.19177 1.19178 1.19178 1.19177 1.19177 1.19178 1.19178 1.19178 1.19178 1.19178 1.19178 1.19178 1.19178 1.19178 1.19178 1.19178 1.19178 1.19178 1.19178 1.19178 1.19177 1.19178 1.19179 1.19178 1.19178 1.19178 1.19177 1.19178 1.19178 1.19177 1.19178 1.19178 1.19177 1.19178 1.19179 1.19178 1.19178 1.19178 1.19177 1.19177 1.19177 1.19177 1.19177 1.19178 1.19178 1.19177 1.19177 1.19176 1.19177 1.19177 1.19178 1.19177 1.19177 1.19177 1.19177 1.19177 1.19177 1.19178 1.19177 1.19177 1.19178 1.19178 1.19177 1.19177 1.19177 1.19177 1.19176 1.19177 1.19178 1.19177 1.19178 1.19177 1.19177 1.19178 1.19177 1.19177 1.19177 1.19178 1.19178 1.19178 1.19178 1.19177 1.19177 1.19177 1.19177 1.19177 1.19177 1.19178 1.19178 1.19178 1.19177 1.19178 1.19178 1.19178 1.19178 1.19178 1.19177 1.19177 1.19177 1.19177 1.19177 1.19178 1.19178 1.19177 1.19178 1.19178 1.19177 1.19177 1.19178 1.19178 1.19178 1.19177 1.19178 1.19178 1.19178 1.19176 1.19178 1.19179 1.19178 1.19178 1.19178 1.19178 1.19178 1.19179 1.19177 1.19177 1.19179 1.19178 1.19178 1.19178 1.19178 1.19178 1.19178 1.19178 1.19177 1.19178 1.19179 1.19178 1.19177 1.19178 1.19178 1.19177 1.19178 1.19177 1.19178 1.19177 1.19178 1.19177 1.19177 1.19176 1.19177 1.19178 1.19178 1.19178 1.19178 1.19177 1.19177 1.19177 1.19177 1.19177 1.19178 1.19177 1.19177 1.19177 1.19177 1.19177 1.19177 1.19178 1.19177 1.19177 1.19177 1.19177 1.19178 1.19177 1.19177 1.19178 1.19178 1.19178 1.19178 1.19177 1.19177 1.19177 1.19177 1.19177 1.19177 1.19177 1.19177 1.19178 1.19177 1.19178 1.19177 1.19178 1.19177 1.19178 1.19177 1.19177 1.19177 1.19177 1.19177 1.19178 1.19178 1.19178 1.19178 1.19178 1.19177 1.19177 1.19178 1.19178 1.19177 1.19177 1.19178 1.19178 1.19178 1.19178 1.19178 1.19178 1.19179 1.19178 1.19178 1.19178 1.19177 1.19179 1.19178 1.19178 1.19178 1.19178 1.19178 1.19178 1.19178 1.19178 1.19178 1.19177 1.19178 1.19179 1.19178 1.19177 1.19177 1.19178 1.19178 1.19178 1.19177 1.19177 1.19177 1.19179 1.19178 1.19178 1.19177 1.19177 1.19176 1.19178 1.19178 1.19177 1.19178 1.19178 1.19177 1.19177 1.19177 1.19178 1.19177 1.19178 1.19177 1.19177 1.19177 1.19177 1.19177 1.19178 1.19177 1.19177 1.19177 1.19177 1.19178 1.19177 1.19177 1.19177 1.19177 1.19177 1.19178 1.19178 1.19178 1.19178 1.19177 1.19178 1.19178 1.19177 1.19177 1.19178 1.19177 1.19177 1.19178 1.19178 1.19178 1.19178 1.19178 1.19178 1.19177 1.19178 1.19177 1.19178 1.19177 1.19178 1.19177 1.19178 1.19178 1.19178 1.19177 1.19177 1.19177 1.19178 1.19178 1.19178 1.19177 1.19178 1.19177 1.19178 1.19178 1.19178 1.19178 1.19179 1.19178 1.19178 1.19178 1.19178 1.19178 1.19179 1.19178 1.19178 1.19178 1.19177 1.19178 1.19177 1.19178 1.19178 1.19178 1.19177 1.19178 1.19177 1.19177 1.19178 1.19178 1.19177 1.19177 1.19177 1.19177 1.19177 1.19177 1.19178 1.19177 1.19178 1.19178 1.19177 1.19177 1.19177 1.19178 1.19177 1.19178 1.19178 1.19178 1.19177 1.19177 1.19177 1.19178 1.19177 1.19177 1.19177 1.19177 1.19177 1.19177 1.19177 1.19177 1.19177 1.19177 1.19177 1.19178 1.19178 1.19177 1.19177 1.19178 1.19178 1.19178 1.19178 1.19178 1.19178 1.19178 1.19177 1.19177 1.19177 1.19177 1.19177 1.19178 1.19177 1.19178 1.19178 1.19178 1.19178 1.19178 1.19178 1.19178 1.19178 1.19178 1.19177 1.19178 1.19178 1.19178 1.19178 1.19177 1.19178 1.19178 1.19178 1.19178 1.19177 1.19177 1.19177 1.19177 1.19178 1.19178 1.19178 1.19178 1.19177 1.19178 1.19178 1.19178 1.19179 1.19178 1.19178 1.19177 1.19178 1.19178 1.19177 1.19178 1.19177 1.19177 1.19178 1.19178 1.19178 1.19177 1.19177 1.19178 1.19178 1.19177 1.19177 1.19177 1.19177 1.19177 1.19177 1.19178 1.19178 1.19178 1.19178 1.19177 1.19177 1.19177 1.19177 1.19177 1.19178 1.19177 1.19177 1.19177 1.19177 1.19177 1.19178 1.19177 1.19177 1.19178 1.19178 1.19177 1.19178 1.19178 1.19177 1.19178 1.19177 1.19177 1.19177 1.19178 1.19177 1.19177 1.19177 1.19177 1.19178 1.19178 1.19178 1.19178 1.19178 1.19178 1.19178 1.19178 1.19178 1.19177 1.19177 1.19177 1.19178 1.19177 1.19178 1.19178 1.19178 1.19178 1.19178 1.19178 1.19178 1.19178 1.19178 1.19178 1.19178 1.19178 1.19177 1.19178 1.19178 1.19178 1.19178 1.19177 1.19178 1.19177 1.19177 1.19177 1.19178 1.19178 1.19178 1.19178 1.19177 1.19177 1.19178 1.19178 1.19178 1.19178 1.19178 1.19178 1.19177 1.19176 1.19177 1.19178 1.19179 1.19177 1.19177 1.19178 1.19178 1.19178 1.19177 1.19177 1.19178 1.19178 1.19177 1.19177 1.19177 1.19177 1.19178 1.19178 1.19178 1.19177 1.19178 1.19177 1.19177 1.19178 1.19177 1.19177 1.19178 1.19177 1.19177 1.19177 1.19177 1.19177 1.19177 1.19177 1.19177 1.19177 1.19178 1.19178 1.19178 1.19178 1.19177 1.19177 1.19177 1.19177 1.19178 1.19178 1.19177 1.19177 1.19177 1.19178 1.19178 1.19178 1.19178 1.19178 1.19178 1.19178 1.19178 1.19178 1.19178 1.19177 1.19177 1.19178 1.19178 1.19178 1.19178 1.19178 1.19178 1.19178 1.19178 1.19177 1.19178 1.19178 1.19178 1.19178 1.19177 1.19178 1.19178 1.19178 1.19178 1.19178 1.19177 1.19178 1.19177 1.19177 1.19177 1.19177 1.19178 1.19178 1.19178 1.19177 1.19177 1.19178 1.19178 1.19178 1.19178 1.19178 1.19178 1.19177 1.19177 1.19177 1.19179 1.19176 1.19177 1.19178 1.19178 1.19177 1.19177 1.19177 1.19178 1.19178 1.19178 1.19177 1.19177 1.19178 1.19177 1.19177 1.19177 1.19178 1.19178 1.19178 1.19177 1.19177 1.19178 1.19178 1.19178 1.19177 1.19178 1.19178 1.19178 1.19177 1.19178 1.19177 1.19177 1.19177 1.19177 1.19177 1.19177 1.19178 1.19177 1.19178 1.19177 1.19178 1.19177 1.19177 1.19178 1.19177 1.19177 1.19177 1.19177 1.19178 1.19178 1.19178 1.19178 1.19178 1.19178 1.19178 1.19178 1.19178 1.19178 1.19178 1.19177 1.19178 1.19178 1.19178 1.19178 1.19178 1.19178 1.19178 1.19178 1.19178 1.19178 1.19178 1.19178 1.19178 1.19177 1.19178 1.19178 1.19177 1.19177 1.19178 1.19177 1.19177 1.19177 1.19177 1.19177 1.19177 1.19177 1.19177 1.19178 1.19177 1.19177 1.19177 1.19177 1.19177 1.19178 1.19178 1.19178 1.19178 1.19177 1.19177 1.19177 1.19177 1.19176 1.19177 1.19177 1.19178 1.19177 1.19177 1.19177 1.19176 1.19177 1.19177 1.19177 1.19177 1.19177 1.19177 1.19177 1.19177 1.19177 1.19177 1.19177 1.19177 1.19177 1.19178 1.19177 1.19178 1.19178 1.19178 1.19178 1.19177 1.19178 1.19177 1.19178 1.19177 1.19177 1.19177 1.19177 1.19178 1.19178 1.19178 1.19178 1.19177 1.19178 1.19177 1.19177 1.19177 1.19177 1.19177 1.19178 1.19178 1.19178 1.19178 1.19178 1.19178 1.19178 1.19178 1.19178 1.19178 1.19178 1.19177 1.19178 1.19178 1.19178 1.19178 1.19178 1.19178 1.19178 1.19178 1.19178 1.19178 1.19178 1.19178 1.19177 1.19178 1.19178 1.19178 1.19177 1.19177 1.19178 1.19177 1.19177 1.19177 1.19177 1.19177 1.19177 1.19177 1.19177 1.19177 1.19177 1.19177 1.19177 1.19178 1.19178 1.19178 1.19177 1.19177 1.19177 1.19177 1.19177 1.19176 1.19177 1.19177 1.19177 1.19177 1.19177 1.19177 1.19176 1.19177 1.19176 1.19177 1.19178 1.19176 1.19177 1.19177 1.19178 1.19178 1.19177 1.19177 1.19177 1.19177 1.19177 1.19177 1.19177 1.19178 1.19177 1.19178 1.19177 1.19177 1.19177 1.19177 1.19178 1.19178 1.19177 1.19177 1.19177 1.19178 1.19178 1.19177 1.19178 1.19177 1.19178 1.19177 1.19178 1.19177 1.19177 1.19177 1.19177 1.19178 1.19177 1.19177 1.19177 1.19177 1.19177 1.19178 1.19178 1.19178 1.19178 1.19177 1.19178 1.19178 1.19177 1.19178 1.19176 1.19177 1.19177 1.19177 1.19177 1.19177 1.19177 1.19178 1.19178 1.19178 1.19177 1.19177 1.19177 1.19178 1.19177 1.19178 1.19178 1.19178 1.19177 1.19177 1.19177 1.19178 1.19177 1.19177 1.19177 1.19177 1.19176 1.19176 1.19177 1.19177 1.19178 1.19177 1.19177 1.19177 1.19178 1.19177 1.19177 1.19178 1.19178 1.19178 1.19178 1.19177 1.19177 1.19177 1.19177 1.19177 1.19178 1.19176 1.19177 1.19177 1.19178 1.19177 1.19178 1.19177 1.19177 1.19177 1.19177 1.19178 1.19177 1.19177 1.19178 1.19177 1.19177 1.19178 1.19177 1.19177 1.19177 1.19176 1.19177 1.19177 1.19178 1.19178 1.19177 1.19177 1.19177 1.19177 1.19178 1.19177 1.19178 1.19178 1.19177 1.19177 1.19177 1.19177 1.19177 1.19177 1.19177 1.19176 1.19177 1.19178 1.19178 1.19178 1.19178 1.19178 1.19178 1.19177 1.19177 1.19177 1.19177 1.19178 1.19177 1.19178 1.19178 1.19177 1.19178 1.19177 1.19177 1.19177 1.19178 1.19177 1.19176 1.19178 1.19178 1.19178 1.19178 1.19178 1.19178 1.19178 1.19178 1.19178 1.19178 1.19178 1.19178 1.19178 1.19178 1.19178 1.19178 1.19178 1.19178 1.19178 1.19178 1.19178 1.19178 1.19178 1.19178 1.19178 1.19178 1.19178 1.19178 1.19178 1.19178 1.19178 1.19178 1.19177 1.19177 1.19178 1.19177 1.19177 1.19177 1.19178 1.19178 1.19177 1.19178 1.19177 1.19178 1.19177 1.19178 1.19178 1.19177 1.19178 1.19178 1.19178 1.19178 1.19178 1.19178 1.19178 1.19178 1.19178 1.19178 1.19178 1.19178 1.19178 1.19178 1.19178 1.19178 1.19178 1.19178 1.19178 1.19178 1.19178 1.19178 1.19178 1.19178 1.19178 1.19178 1.19178 1.19178 1.19178 1.19178 1.19178 1.19177 1.19177 1.19178 1.19177 1.19178 1.19177 1.19178 1.19177 1.19177 1.19178 1.19177 1.19177 1.19177 1.19178 1.19178 1.19177 1.19177 1.19178 1.19178 1.19178 1.19178 1.19177 1.19178 1.19177 1.19178 1.19178 1.19178 1.19178 1.19178 1.19178 1.19178 1.19178 1.19178 1.19178 1.19178 1.19178 1.19178 1.19178 1.19178 1.19178 1.19178 1.19178 1.19178 1.19178 1.19178 1.19178 1.19178 1.19178 1.19178 1.19178 1.19178 1.19178 1.19178 1.19178 1.19178 1.19178 1.19178 1.19178 1.19178 1.19178 1.19178 1.19178 1.19178 1.19178 1.19178 1.19178 1.19177 1.19178 1.19177 1.19178 1.19177 1.19178 1.19177 1.19177 1.19177 1.19177 1.19177 1.19177 1.19177 1.19177 1.19177 1.19178 1.19178 1.19178 1.19177 1.19178 1.19178 1.19178 1.19178 1.19178 1.19178 1.19178 1.19178 1.19178 1.19178 1.19178 1.19178 1.19178 1.19178 1.19178 1.19178 1.19178 1.19178 1.19178 1.19178 1.19178 1.19178 1.19178 1.19178 1.19178 1.19178 1.19178 1.19178 1.19178 1.19178 1.19178 1.19178 1.19178 1.19178 1.19178 1.19178 1.19178 1.19178 1.19178 1.19178 1.19178 1.19178 1.19178 1.19178 1.19178 1.19178 1.19178 1.19178 1.19178 1.19178 1.19178 1.19178 1.19178 1.19177 1.19177 1.19177 1.19178 1.19177 1.19177 1.19177 1.19177 1.19177 1.19176 1.19176 1.19177 1.19177 1.19177 1.19178 1.19177 1.19177 1.19178 1.19178 1.19178 1.19178 1.19178 1.19178 1.19178 1.19178 1.19178 1.19178 1.19178 1.19178 1.19178 1.19178 1.19178 1.19178 1.19178 1.19178 1.19178 1.19178 1.19178 1.19178 1.19178 1.19178 1.19178 1.19178 1.19178 1.19178 1.19178 1.19178 1.19178 1.19178 1.19178 1.19178 1.19178 1.19178 1.19178 1.19178 1.19178 1.19178 1.19178 1.19178 1.19178 1.19178 1.19178 1.19178 1.19178 1.19178 1.19178 1.19178 1.19178 1.19177 1.19177 1.19177 1.19177 1.19177 1.19178 1.19177 1.19177 1.19177 1.19177 1.19177 1.19176 1.19176 1.19178 1.19177 1.19178 1.19177 1.19177 1.19178 1.19178 1.19178 1.19177 1.19178 1.19178 1.19178 1.19178 1.19178 1.19178 1.19178 1.19178 1.19178 1.19178 1.19178 1.19178 1.19178 1.19178 1.19178 1.19178 1.19178 1.19178 1.19178 1.19178 1.19178 1.19178 1.19178 1.19178 1.19178 1.19178 1.19178 1.19178 1.19178 1.19178 1.19178 1.19178 1.19178 1.19178 1.19178 1.19178 1.19178 1.19178 1.19178 1.19178 1.19178 1.19178 1.19178 1.19178 1.19178 1.19178 1.19178 1.19178 1.19178 1.19178 1.19178 1.19178 1.19178 1.19177 1.19178 1.19177 1.19178 1.19177 1.19177 1.19177 1.19177 1.19178 1.19177 1.19177 1.19177 1.19178 1.19178 1.19177 1.19177 1.19178 1.19177 1.19177 1.19177 1.19177 1.19178 1.19178 1.19178 1.19178 1.19178 1.19178 1.19178 1.19178 1.19178 1.19178 1.19178 1.19178 1.19178 1.19178 1.19178 1.19178 1.19178 1.19178 1.19178 1.19178 1.19178 1.19178 1.19178 1.19178 1.19178 1.19178 1.19178 1.19178 1.19178 1.19178 1.19178 1.19178 1.19178 1.19178 1.19178 1.19178 1.19178 1.19178 1.19178 1.19178 1.19178 1.19178 1.19178 1.19178 1.19178 1.19178 1.19178 1.19178 1.19177 1.19178 1.19178 1.19177 1.19178 1.19177 1.19177 1.19178 1.19177 1.19177 1.19177 1.19178 1.19177 1.19177 1.19177 1.19178 1.19177 1.19177 1.19177 1.19178 1.19178 1.19178 1.19178 1.19178 1.19178 1.19178 1.19178 1.19178 1.19178 1.19178 1.19178 1.19178 1.19178 1.19178 1.19178 1.19178 1.19178 1.19178 1.19178 1.19178 1.19178 1.19178 1.19178 1.19178 1.19178 1.19178 1.19178 1.19178 1.19178 1.19178 1.19178 1.19178 1.19178 1.19178 1.19178 1.19178 1.19178 1.19178 1.19178 1.19178 1.19178 1.19178 1.19178 1.19178 1.19178 1.19177 1.19178 1.19177 1.19177 1.19177 1.19177 1.19177 1.19178 1.19177 1.19177 1.19177 1.19178 1.19177 1.19177 1.19178 1.19178 1.19177 1.19178 1.19178 1.19178 1.19178 1.19178 1.19178 1.19178 1.19178 1.19178 1.19178 1.19178 1.19178 1.19178 1.19178 1.19178 1.19178 1.19178 1.19178 1.19178 1.19178 1.19178 1.19178 1.19178 1.19178 1.19178 1.19178 1.19178 1.19178 1.19178 1.19178 1.19178 1.19178 1.19178 1.19178 1.19178 1.19178 1.19178 1.19178 1.19178 1.19178 1.19178 1.19177 1.19177 1.19178 1.19178 1.19178 1.19178 1.19178 1.19178 1.19177 1.19177 1.19178 1.19178 1.19177 1.19177 1.19177 1.19178 1.19177 1.19178 1.19178 1.19178 1.19178 1.19178 1.19178 1.19178 1.19178 1.19178 1.19178 1.19178 1.19178 1.19178 1.19178 1.19178 1.19178 1.19178 1.19178 1.19178 1.19178 1.19178 1.19178 1.19178 1.19178 1.19178 1.19178 1.19178 1.19178 1.19178 1.19178 1.19178 1.19178 1.19178 1.19178 1.19178 1.19178 1.19178 1.19178 1.19178 1.19178 1.19178 1.19178 1.19178 1.19178 1.19178 1.19178 1.19178 1.19178 1.19178 1.19178 1.19178 1.19178 1.19178 1.19178 1.19177 1.19177 1.19178 1.19177 1.19177 1.19178 1.19177 1.19178 1.19177 1.19178 1.19178 1.19178 1.19178 1.19178 1.19178 1.19178 1.19178 1.19178 1.19178 1.19178 1.19178 1.19178 1.19178 1.19178 1.19178 1.19178 1.19178 1.19178 1.19178 1.19178 1.19178 1.19178 1.19178 1.19178 1.19178 1.19178 1.19178 1.19178 1.19178 1.19178 1.19178 1.19178 1.19178 1.19178 1.19178 1.19178 1.19178 1.19178 1.19178 1.19178 1.19178 1.19178 1.19177 1.19178 1.19177 1.19178 1.19178 1.19177 1.19178 1.19177 1.19178 1.19178 1.19178 1.19178 1.19178 1.19178 1.19178 1.19178 1.19178 1.19178 1.19178 1.19178 1.19178 1.19178 1.19178 1.19178 1.19178 1.19178 1.19178 1.19178 1.19178 1.19178 1.19178 1.19178 1.19178 1.19178 1.19178 1.19178 1.19178 1.19178 1.19178 1.19178 1.19178 1.19177 1.19178 1.19177 1.19178 1.19178 1.19178 1.19177 1.19177 1.19178 1.19177 1.19177 1.19178 1.19177 1.19178 1.19178 1.19178 1.19177 1.19178 1.19178 1.19178 1.19178 1.19178 1.19178 1.19178 1.19178 1.19178 1.19178 1.19178 1.19178 1.19178 1.19178 1.19178 1.19178 1.19178 1.19178 1.19178 1.19178 1.19178 1.19178 1.19178 1.19178 1.19178 1.19178 1.19178 1.19178 1.19178 1.19177 1.19178 1.19178 1.19178 1.19178 1.19177 1.19178 1.19177 1.19177 1.19177 1.19178 1.19178 1.19178 1.19178 1.19178 1.19177 1.19178 1.19178 1.19178 1.19178 1.19178 1.19178 1.19178 1.19178 1.19178 1.19178 1.19178 1.19178 1.19178 1.19178 1.19178 1.19178 1.19178 1.19178 1.19178 1.19178 1.19178 1.19178 1.19178 1.19178 1.19177 1.19178 1.19178 1.19178 1.19178 1.19177 1.19178 1.19177 1.19178 1.19178 1.19178 1.19178 1.19178 1.19178 1.19178 1.19178 1.19178 1.19178 1.19178 1.19178 1.19178 1.19178 1.19178 1.19178 1.19178 1.19178 1.19178 1.19178 1.19178 1.19178 1.19178 1.19178 1.19178 1.19178 1.19178 1.19178 1.19178 1.19178 1.19178 1.19178 1.19178 1.19178 1.19178 1.19178 1.19178 1.19177 1.19178 1.19178 1.19178 1.19177 1.19178 1.19178 1.19178 1.19178 1.19178 1.19178 1.19178 1.19178 1.19178 1.19178 1.19178 1.19178 1.19178 1.19178 1.19178 1.19178 1.19178 1.19178 1.19178 1.19178 1.19178 1.19178 1.19178 1.19178 1.19178 1.19178 1.19178 1.19178 1.19178 1.19178 1.19178 1.19178 1.19178 1.19178 1.19178 1.19178 1.19178 1.19178 1.19178 1.19178 1.19178 1.19178 1.19178 1.19178 1.19178 1.19178 1.19178 1.19178 1.19178 1.19178 1.19178 1.19178 1.19178 1.19178 1.19178 1.19178 1.19178 1.19178 1.19178 1.19178 1.19178 1.19178 1.19178 1.19178 1.19178 1.19178 1.19178 1.19178 1.19178 1.19178 1.19178 1.19178 1.19178 1.19178 1.19178 1.19178 1.19178 1.19178 1.19178 1.19178 1.19178 1.19178 1.19178 1.19178 1.19178 1.19178 1.19178 1.19178 1.19178 1.19178 1.19178 1.19178 1.19178 1.19178 1.19178 1.19178 1.19178 1.19178 1.19178 1.19178 1.19178 1.19178 1.19178 1.19178 1.19178 1.19178 1.19178 1.19178 1.19178 1.19178 1.19178 1.19178 1.19178 1.19178 1.19178 1.19178 1.19178 1.19178 1.19178 1.19178 1.19178 1.19178 1.19178 1.19178 1.19178 1.19178 1.19178 1.19178 1.19178 1.19178 1.19178 1.19178 1.19178 1.19178 1.19178 1.19178 1.19178 1.19178 1.19178 1.19178 1.19178 1.37128e-07 1.2992e-07 2.02461e-07 3.6416e-07 4.22389e-07 7.33929e-07 1.04577e-06 1.40426e-06 1.61374e-06 1.68378e-06 1.39817e-06 6.42319e-07 1.64619e-07 3.84615e-07 1.65226e-07 5.92099e-07 1.2825e-07 3.32418e-07 3.77432e-07 5.77321e-07 9.81397e-07 7.82538e-07 1.11331e-06 1.75097e-06 1.64127e-06 2.3039e-06 2.26102e-06 1.61272e-06 1.80359e-06 1.40626e-06 5.32189e-07 8.0621e-07 2.59076e-06 1.15438e-06 5.56629e-07 5.54607e-07 4.80181e-07 2.79728e-07 6.12207e-07 1.82358e-06 1.89108e-06 2.14577e-06 7.415e-07 2.07589e-06 1.73009e-06 2.39066e-06 1.59401e-06 2.37894e-06 2.59886e-06 2.40829e-06 8.25794e-07 2.24049e-06 1.64225e-06 9.29817e-07 5.55591e-08 1.58114e-06 2.32639e-06 4.33807e-06 4.50752e-06 6.85887e-06 7.95432e-06 9.72701e-06 1.0207e-05 1.03552e-05 7.74892e-06 6.53522e-06 6.31415e-06 6.32108e-06 5.37682e-06 6.44663e-06 6.02065e-06 3.91007e-06 5.65232e-06 4.5056e-06 2.51445e-06 3.12638e-06 7.5577e-06 7.08565e-06 2.835e-06 2.27287e-06 7.15555e-06 2.85542e-06 3.0445e-06 5.05989e-06 7.98421e-06 8.60195e-06 7.17195e-06 8.54144e-06 6.61814e-06 7.00718e-07 1.12964e-05 9.27785e-06 1.1643e-05 7.57961e-06 7.85312e-06 5.5015e-06 4.9519e-06 1.4938e-06 2.90963e-06 3.73214e-06 2.81826e-06 1.17809e-06 4.79719e-08 1.23959e-07 1.15042e-07 2.20071e-07 2.78108e-08 1.30737e-07 1.54583e-07 3.74192e-07 3.00111e-07 5.15143e-08 4.72465e-07 2.08856e-07 9.80648e-08 4.17182e-07 3.57162e-07 3.22478e-07 5.52584e-07 6.96469e-07 8.59711e-07 1.39312e-06 4.14017e-07 9.6693e-07 9.48608e-07 6.42457e-07 7.07792e-07 5.13308e-07 7.2546e-07 1.08354e-06 3.19781e-07 7.7387e-08 4.62639e-07 4.70832e-07 6.83018e-07 1.2757e-06 1.18928e-06 1.50944e-06 1.16595e-06 1.54735e-06 1.42462e-06 2.0339e-06 2.13616e-06 2.1611e-06 2.40526e-06 2.03794e-06 1.7529e-06 1.72727e-06 2.23712e-06 2.0401e-06 1.70608e-06 1.57597e-06 1.10671e-06 9.82563e-07 6.69958e-07 1.39332e-06 1.7959e-06 1.61065e-06 2.47464e-06 8.5297e-07 1.05457e-07 1.23878e-06 1.7309e-06 2.7907e-06 2.7689e-06 2.289e-06 1.4924e-06 1.81768e-06 2.4418e-06 2.61206e-06 2.38421e-06 2.23501e-06 1.74056e-06 2.38585e-06 1.70928e-06 1.4246e-06 1.95686e-06 1.61948e-06 1.22139e-06 6.40797e-07 8.65055e-07 2.39595e-06 2.49326e-06 2.57499e-06 2.26982e-06 1.57427e-06 4.53406e-07 2.20423e-06 1.59193e-06 1.24536e-06 3.21913e-06 2.24704e-06 1.15344e-06 4.65786e-06 3.35101e-06 2.03487e-06 1.94619e-06 9.45957e-07 3.66878e-06 3.54571e-06 5.00553e-06 5.56038e-06 6.96702e-06 8.63243e-07 1.39942e-06 5.59355e-06 5.36168e-06 7.27924e-06 5.82115e-06 3.29533e-06 1.12172e-06 3.14054e-06 6.9907e-07 2.53666e-06 2.31627e-06 3.40483e-06 3.22715e-06 3.91583e-06 3.9648e-06 6.83417e-06 1.78747e-06 3.60038e-06 4.94553e-06 6.96028e-06 5.5654e-06 7.21376e-06 6.31133e-06 7.1011e-06 6.06755e-06 2.47139e-06 8.24695e-06 5.38206e-06 1.46487e-05 1.45736e-05 3.41147e-06 1.32395e-05 1.62572e-05 1.82896e-05 8.91263e-06 6.28908e-06 5.61517e-06 5.21929e-06 1.6487e-06 6.10156e-06 3.88442e-06 4.15896e-06 5.12465e-06 7.84251e-06 8.80201e-06 8.80277e-06 8.29556e-06 7.91223e-06 6.64683e-06 5.61834e-06 3.0188e-06 4.33051e-06 6.69311e-06 4.25342e-06 3.19564e-06 1.86944e-06 2.26258e-06 1.96057e-06 4.00126e-07 4.45261e-06 1.73031e-06 3.2448e-06 2.22316e-07 2.34765e-07 5.41408e-07 5.69909e-07 8.08404e-07 3.39236e-07 1.30328e-06 9.64604e-07 4.42812e-07 6.10888e-07 4.2327e-07 4.87282e-07 6.64857e-07 6.04383e-07 5.86551e-07 5.36892e-07 9.30042e-07 4.12581e-07 8.94092e-07 6.61781e-07 3.2101e-07 5.65488e-07 5.76109e-07 6.1628e-07 6.95564e-07 1.06335e-06 1.0599e-06 1.34858e-06 1.63065e-06 1.49387e-06 2.08288e-06 1.48533e-06 1.53682e-06 1.76953e-06 1.56106e-06 9.08326e-07 9.89293e-07 9.87027e-07 1.23709e-06 1.09101e-06 1.4655e-06 1.26029e-06 3.66198e-07 9.1583e-07 9.71406e-07 9.0562e-07 9.16818e-07 1.2788e-06 1.64083e-06 1.63964e-06 2.29554e-06 8.44921e-07 1.21835e-06 2.64868e-06 1.51268e-06 1.86673e-06 3.11608e-06 2.25712e-06 1.63048e-06 8.88208e-07 2.49567e-06 1.66765e-06 3.37324e-06 1.10257e-06 2.30235e-06 2.54845e-06 2.38829e-06 2.63301e-06 3.93177e-06 1.42932e-06 2.54553e-06 4.0763e-06 3.73122e-06 3.09871e-06 1.12914e-06 2.99113e-06 2.23025e-06 1.23705e-06 3.06733e-06 2.09302e-06 1.39172e-06 9.04777e-07 1.9875e-06 1.55974e-06 1.12446e-06 3.68861e-06 6.62037e-06 7.55951e-06 6.70244e-06 7.449e-06 4.39152e-06 6.38324e-06 4.34871e-06 3.44074e-06 2.47965e-06 4.54687e-06 3.62862e-06 4.50069e-06 4.7396e-06 7.24797e-06 7.92471e-06 4.86038e-06 5.3313e-06 1.09632e-06 4.27358e-06 1.32747e-06 4.23835e-06 2.1971e-06 2.81058e-06 6.24987e-06 1.25354e-05 1.35342e-05 9.73121e-06 7.07428e-06 3.93149e-06 2.4879e-06 1.79636e-06 4.36004e-06 7.834e-06 6.21836e-06 1.89932e-06 7.32259e-06 4.62518e-06 1.27546e-06 9.01582e-06 3.4719e-06 6.45827e-06 2.08438e-06 4.84282e-06 3.13761e-06 4.49756e-06 2.44142e-07 5.24488e-07 6.19715e-07 5.14503e-07 5.29411e-07 1.10713e-06 9.51321e-07 8.7632e-07 6.14443e-07 9.88252e-07 6.54756e-07 3.02295e-07 4.7821e-07 5.46098e-07 4.97412e-07 7.83782e-07 1.1468e-06 7.70713e-07 6.68278e-07 1.10762e-06 1.53324e-06 1.42566e-06 1.59705e-06 1.37422e-06 1.27722e-06 8.5183e-07 1.32706e-06 1.04408e-06 1.56191e-06 8.46474e-07 7.89103e-07 7.2519e-07 1.17082e-06 7.65584e-07 9.74937e-07 6.65279e-07 1.01444e-06 9.18979e-07 5.9418e-07 9.54392e-07 1.05887e-06 1.69052e-06 1.7251e-06 1.05422e-06 1.62877e-06 1.31607e-06 2.21046e-06 2.44398e-06 2.97832e-06 2.57412e-06 1.70199e-06 8.73608e-07 1.47435e-06 1.09232e-06 1.98952e-07 4.24766e-07 1.34297e-06 1.20646e-07 2.43414e-06 1.10977e-06 2.73646e-06 4.8563e-06 4.43696e-06 3.46743e-06 2.88377e-06 3.54248e-06 4.30285e-06 4.80196e-06 4.00374e-06 2.44315e-06 3.21655e-06 1.80612e-06 2.22245e-06 1.97075e-06 3.53767e-06 7.22231e-06 8.09136e-06 6.12098e-06 4.11421e-06 3.22373e-06 4.24406e-06 2.07836e-06 4.97663e-06 3.99994e-06 3.75886e-06 2.03684e-06 4.77114e-06 6.55181e-06 6.84906e-06 6.90766e-06 6.42747e-06 9.20335e-06 1.1356e-05 8.73665e-06 6.64335e-06 8.16173e-06 1.11858e-05 9.06432e-06 6.53078e-06 9.63167e-06 7.83863e-06 6.62962e-06 1.1371e-05 7.41379e-06 7.7407e-06 8.20121e-06 3.22435e-06 7.9452e-06 4.54623e-06 3.96411e-07 3.26544e-06 5.08771e-06 4.67523e-06 2.66842e-06 2.62042e-06 3.492e-06 8.82015e-06 9.51432e-06 8.39175e-06 5.104e-06 2.64979e-06 5.55267e-06 5.78196e-06 7.01428e-06 4.6163e-06 2.3901e-06 4.81389e-06 3.67989e-07 6.93643e-07 2.41386e-07 8.79315e-07 5.17013e-07 6.24928e-07 6.20404e-07 4.83124e-07 4.95805e-07 1.0088e-06 7.60065e-07 5.48764e-07 5.69566e-07 7.14127e-07 6.75474e-07 5.91367e-07 1.02122e-06 6.21056e-07 1.9389e-07 4.19509e-07 2.50142e-07 7.27303e-07 1.1519e-06 1.5196e-06 1.45405e-06 1.88973e-06 1.48958e-06 1.27363e-06 1.42084e-06 9.25275e-07 1.15678e-06 9.22306e-07 1.31719e-06 1.2039e-06 9.26024e-07 9.32623e-07 3.86131e-07 1.17934e-06 7.91254e-07 8.36933e-07 9.93361e-07 1.30083e-06 1.26598e-06 1.42619e-06 1.78191e-06 1.77996e-06 1.506e-06 2.36267e-06 2.48538e-06 2.26294e-06 2.33888e-06 1.54585e-06 1.69912e-06 1.67163e-06 1.71511e-06 1.4774e-06 4.35704e-07 1.04871e-06 2.57188e-06 5.32254e-06 3.29844e-06 3.1162e-07 4.07618e-06 1.05794e-06 1.70711e-06 1.63882e-06 2.22312e-06 3.12302e-06 3.72089e-06 3.78868e-06 4.73895e-06 2.87714e-06 3.85665e-06 3.34339e-06 5.23531e-06 6.01886e-06 7.30704e-06 4.70326e-06 7.17806e-06 4.37696e-06 4.1821e-06 3.24268e-06 2.91951e-06 4.68013e-06 3.36122e-06 3.4112e-06 9.58961e-06 6.89194e-06 9.36533e-06 8.51793e-06 8.35687e-06 8.06665e-06 9.96565e-06 5.76708e-06 9.05175e-06 1.07892e-05 9.8292e-06 1.19063e-05 9.66829e-06 9.81221e-06 5.67569e-06 5.50205e-06 4.43409e-06 1.92709e-06 2.62259e-06 2.01152e-06 2.43094e-06 1.95301e-06 2.64225e-06 6.92964e-07 2.6623e-06 1.36793e-06 2.95893e-06 7.23011e-06 6.2606e-06 1.00914e-05 8.68536e-06 9.4696e-06 4.87733e-06 4.95366e-06 5.84987e-06 7.75197e-06 1.58054e-06 8.40275e-06 6.58924e-06 9.92971e-08 5.95932e-08 2.18812e-07 7.53608e-07 6.42855e-07 3.64298e-07 7.67862e-07 1.02039e-06 9.70739e-07 8.73195e-07 5.98587e-07 6.39309e-07 9.54572e-07 8.947e-07 8.15821e-07 7.95222e-07 1.01277e-06 1.44327e-06 1.21927e-06 1.17451e-06 1.16514e-06 9.7649e-07 1.12614e-06 8.57994e-07 9.20025e-07 9.20633e-07 1.11375e-06 1.01452e-06 6.57705e-07 1.14004e-06 1.08825e-06 9.2605e-07 8.85908e-07 9.39842e-07 1.53175e-06 1.61059e-06 1.07065e-06 1.21152e-06 6.55857e-07 1.97655e-06 1.37776e-06 2.07783e-06 2.31235e-06 1.21226e-06 2.02562e-06 6.95855e-07 1.34105e-06 1.18561e-06 1.95195e-06 1.39641e-06 1.85143e-06 1.02632e-06 6.61459e-07 3.9801e-07 6.96657e-07 8.9245e-07 8.27402e-07 1.39219e-06 1.20606e-06 2.08003e-06 2.87827e-06 3.12654e-06 3.59425e-06 5.28463e-06 5.04262e-06 5.43564e-06 4.07779e-06 4.29895e-06 5.20982e-06 4.56376e-06 5.236e-06 5.77215e-06 6.65718e-06 4.85447e-06 5.68694e-06 4.67504e-06 6.50077e-06 1.14192e-05 1.42043e-05 1.07348e-05 1.05885e-05 9.61337e-06 8.12495e-06 7.44767e-06 1.16022e-05 6.39296e-06 7.05968e-06 4.2568e-06 5.20013e-06 7.54702e-06 7.90766e-06 8.04649e-06 1.11086e-05 6.2083e-06 2.71233e-06 3.21722e-06 1.29454e-06 2.9419e-06 6.08255e-06 4.95054e-06 4.15388e-06 4.21524e-06 5.99061e-06 1.94028e-06 8.10716e-06 8.43924e-06 1.01785e-05 8.45222e-06 9.29713e-06 7.83442e-06 4.89575e-06 9.44929e-06 4.98623e-06 7.54099e-06 1.0872e-06 5.68028e-07 8.3456e-07 1.07684e-06 8.00827e-07 5.19921e-07 9.02651e-07 1.01508e-06 1.17173e-06 7.92068e-07 9.53506e-07 6.64282e-07 9.14484e-07 5.84938e-07 7.987e-07 1.23132e-06 1.32478e-06 1.10322e-06 6.20748e-07 7.2374e-07 1.15138e-06 9.67759e-07 9.36922e-07 1.05271e-06 8.82534e-07 8.53869e-07 8.23579e-07 1.07405e-06 8.11451e-07 1.15586e-06 1.34392e-06 1.11255e-06 1.27636e-06 1.04609e-06 1.27871e-06 1.75063e-06 1.58183e-06 4.88939e-07 1.36877e-06 5.83402e-07 6.11204e-07 3.04996e-07 6.89933e-07 6.21335e-07 8.28517e-07 5.61366e-07 1.07805e-06 1.56677e-06 1.86342e-06 1.22507e-06 1.12711e-06 1.59957e-06 1.26815e-06 2.596e-06 1.73177e-06 2.44927e-06 4.23094e-06 3.94986e-06 5.85579e-06 5.27063e-06 4.81736e-06 4.98805e-06 5.80874e-06 5.65389e-06 5.06581e-06 5.33974e-06 4.66084e-06 6.12749e-06 1.03655e-05 2.61874e-05 1.71337e-05 1.66367e-05 1.24108e-05 9.30887e-06 8.17818e-06 8.81299e-06 8.59109e-06 9.44093e-06 5.97173e-06 4.99852e-06 2.04004e-06 2.61698e-06 4.70503e-06 5.28906e-06 2.66831e-06 1.90812e-06 3.35469e-06 5.83875e-06 3.91887e-06 4.28539e-06 1.3079e-06 2.1248e-06 1.9006e-06 1.46299e-06 2.25365e-06 4.53605e-06 6.86483e-06 3.35947e-06 4.33152e-06 6.50633e-06 1.09171e-05 8.77265e-06 6.36824e-06 1.02526e-05 8.75893e-06 9.22309e-06 7.90308e-06 6.3553e-06 9.23075e-06 5.35499e-06 7.37513e-06 1.28608e-06 8.14862e-07 8.38466e-07 1.46106e-06 1.46228e-06 1.20685e-06 6.81219e-07 1.07159e-06 8.24339e-07 6.17386e-07 1.18591e-06 8.70586e-07 7.25025e-07 5.92795e-07 1.05667e-06 1.15445e-06 1.58212e-06 1.15926e-06 1.17026e-06 8.50408e-07 3.44545e-07 8.22576e-07 8.42873e-07 1.02612e-06 1.15564e-06 9.68295e-07 6.58014e-07 7.04035e-07 4.87671e-07 5.23173e-07 5.8557e-07 9.51062e-07 1.10598e-06 1.77554e-06 1.57286e-06 1.31102e-06 1.36625e-06 1.58035e-06 5.54051e-07 3.87978e-07 3.06003e-07 2.59358e-07 5.86627e-07 6.72961e-07 8.26742e-07 2.52639e-06 1.06679e-06 3.07673e-06 1.808e-06 1.47663e-06 9.5514e-07 4.8769e-07 5.41353e-07 9.83166e-07 4.71294e-07 8.43805e-07 2.30459e-07 2.36927e-06 2.19799e-06 2.58591e-06 2.50999e-06 2.62305e-06 3.91481e-06 6.13054e-06 5.55345e-06 5.80147e-06 5.27528e-06 5.12553e-06 4.10984e-06 5.2215e-06 5.23865e-06 5.10653e-06 5.98162e-06 7.87846e-06 1.55628e-05 1.54e-05 1.50147e-05 1.90953e-05 1.21447e-05 1.21518e-05 9.59666e-06 8.75709e-06 7.21798e-06 8.84321e-06 7.99582e-06 5.25639e-06 4.53857e-06 2.71647e-06 2.76063e-06 5.50091e-06 4.61465e-06 5.63968e-06 3.85997e-06 4.14603e-06 1.80063e-06 4.19206e-06 5.01293e-06 2.12893e-06 8.46026e-06 5.2636e-06 5.37698e-06 7.53619e-06 8.26806e-06 1.11877e-05 6.9516e-06 7.17298e-06 6.81442e-06 7.806e-06 6.26421e-06 8.05589e-06 6.17012e-06 1.67099e-06 7.79228e-07 8.21498e-07 1.69443e-06 1.34204e-06 1.80034e-06 9.68045e-07 9.84289e-07 3.04338e-07 9.09556e-07 1.23187e-06 1.16457e-06 8.06564e-07 1.01997e-06 7.40031e-07 1.00316e-06 1.61586e-06 1.37626e-06 1.47887e-06 7.07954e-07 4.25665e-07 8.59195e-07 1.16738e-06 1.11785e-06 1.16457e-06 7.33997e-07 5.43951e-07 5.57408e-07 7.63948e-07 6.78169e-07 1.16789e-06 1.83753e-06 1.76408e-06 1.34635e-06 1.43035e-06 8.62582e-07 9.16717e-07 1.35235e-06 1.53869e-06 1.09933e-06 1.62524e-06 2.31145e-06 9.6841e-07 9.62156e-07 7.35843e-07 5.95906e-07 1.0183e-06 9.53908e-07 1.89942e-06 2.43229e-06 5.08749e-07 3.91068e-07 2.63373e-06 2.96908e-06 2.19812e-06 4.00079e-06 4.4137e-06 5.36858e-06 5.50538e-06 4.76438e-06 3.72798e-06 7.03343e-06 6.62101e-06 6.66523e-06 6.21318e-06 1.29766e-05 9.92974e-06 1.05903e-05 1.13487e-05 9.95062e-06 8.05753e-06 6.17327e-06 5.73829e-06 6.89301e-06 3.12252e-06 1.77934e-06 2.41057e-06 5.05259e-06 4.57424e-06 4.19817e-06 3.57702e-06 4.8454e-06 6.67839e-06 6.01513e-06 1.05507e-05 6.0584e-06 4.86044e-06 9.97685e-06 1.02888e-05 8.21719e-06 9.26768e-06 7.43696e-06 5.34702e-06 8.89979e-06 6.22162e-06 7.21458e-06 8.3751e-06 1.02016e-05 7.52698e-06 8.33934e-06 1.79087e-06 2.49777e-06 1.1151e-06 1.88967e-06 1.97661e-06 1.43619e-06 1.39134e-06 1.05007e-06 1.00459e-06 4.12838e-07 8.42913e-07 1.2997e-06 1.1398e-06 1.14591e-06 1.54236e-06 1.89794e-06 1.36565e-06 1.51559e-06 1.59661e-06 1.32569e-06 1.02162e-06 1.30839e-06 1.08765e-06 8.37912e-07 1.04184e-06 1.09236e-06 7.65101e-07 5.78451e-07 1.36781e-06 1.95881e-06 1.19339e-06 2.12013e-06 1.08619e-06 1.40108e-06 8.11075e-07 2.91443e-07 7.7166e-07 3.77482e-07 8.38181e-07 3.29957e-07 1.01519e-06 7.69671e-07 1.52296e-06 1.04458e-06 1.1595e-06 7.69614e-07 3.12395e-07 7.37195e-07 7.2962e-07 2.44597e-06 3.0541e-06 2.61755e-06 3.31463e-06 5.72778e-06 5.77056e-06 5.85422e-06 5.61143e-06 4.45369e-06 3.24358e-06 3.55811e-06 9.64082e-06 7.22951e-06 6.48039e-06 7.1834e-06 1.06425e-05 1.11839e-05 1.35061e-05 1.07802e-05 8.64768e-06 7.96906e-06 6.13686e-06 4.38653e-06 2.80749e-06 1.72786e-06 2.42885e-06 1.25274e-06 3.41592e-06 6.1196e-06 6.31932e-06 6.72099e-06 1.04126e-06 1.70651e-06 7.6693e-06 4.49836e-06 1.1016e-05 4.64445e-06 8.86192e-06 9.04996e-06 8.29962e-06 8.21806e-06 9.23998e-06 9.58536e-06 1.06483e-05 6.25718e-06 3.89984e-06 1.15339e-06 7.05878e-06 1.09136e-06 1.09631e-05 1.90742e-06 2.36669e-06 1.41948e-06 1.42016e-06 1.23387e-06 1.05143e-06 1.01991e-06 4.50561e-07 1.43504e-06 1.64526e-06 1.88418e-06 1.63001e-06 1.77404e-06 1.49571e-06 1.45442e-06 1.39466e-06 1.55604e-06 1.44111e-06 1.86422e-06 7.70102e-07 1.12819e-06 1.02511e-06 1.18263e-06 6.11978e-07 7.43715e-07 1.81076e-06 1.92828e-06 1.80703e-06 1.91397e-06 1.70925e-06 2.9715e-06 3.07697e-06 1.73279e-06 1.05686e-06 8.84311e-07 1.07292e-06 9.02382e-07 1.14706e-06 2.42342e-07 7.27962e-07 1.35848e-06 2.0578e-06 1.5956e-06 7.64985e-07 7.12415e-07 1.32635e-06 1.48545e-06 2.8802e-06 4.65707e-06 4.20413e-06 6.36109e-06 6.33039e-06 4.40526e-06 4.32128e-06 2.45356e-06 6.48289e-07 1.03724e-05 5.21959e-06 5.18554e-06 1.28936e-05 1.33914e-05 1.0887e-05 8.19077e-06 7.95913e-06 5.86623e-06 7.71227e-06 3.55255e-06 2.1455e-06 4.55007e-06 4.01988e-06 5.87495e-06 2.68575e-06 3.19122e-06 6.5366e-06 4.06631e-06 2.86244e-06 4.49447e-06 4.85079e-06 3.35997e-06 7.37926e-06 8.13754e-06 8.29334e-06 3.6596e-06 8.48467e-06 7.40391e-06 7.88931e-06 1.11237e-05 8.09276e-06 8.0442e-06 3.22058e-06 4.64395e-06 2.19167e-06 2.1449e-05 1.99556e-05 1.89174e-06 2.6593e-06 2.33947e-06 2.87015e-06 3.45957e-06 1.19613e-06 9.15292e-07 1.12259e-06 1.73778e-06 1.35576e-06 1.69376e-06 1.53141e-06 1.82805e-06 1.78965e-06 1.48495e-06 1.94532e-06 1.54295e-06 2.64131e-06 2.77096e-06 1.62754e-06 1.20297e-06 6.93885e-07 9.48009e-07 2.66194e-07 1.18242e-06 5.84309e-07 1.66025e-06 1.98457e-06 1.94619e-06 1.58953e-06 3.46669e-06 2.34652e-06 1.44359e-06 1.61026e-06 1.23024e-06 1.92979e-06 1.94016e-07 9.75957e-07 1.28278e-06 9.08111e-07 1.73028e-06 1.03845e-06 2.28335e-06 2.96817e-06 9.30385e-07 4.09054e-06 5.86112e-06 6.83373e-06 6.98646e-06 1.35354e-06 2.5439e-06 3.39176e-06 3.93457e-06 3.17932e-06 1.08779e-06 1.28763e-05 1.13003e-05 9.9301e-06 1.32318e-05 1.24561e-05 1.5852e-05 9.64443e-06 6.92573e-06 7.00587e-06 1.01477e-05 1.16476e-05 9.11786e-06 9.81774e-06 3.60064e-06 4.36425e-06 3.59287e-06 3.59974e-06 7.03654e-06 5.51005e-06 3.15862e-06 2.49659e-06 5.74653e-06 4.83391e-06 5.50064e-06 6.11611e-06 6.8584e-06 7.42145e-06 8.51832e-06 9.49651e-06 1.34282e-05 8.99567e-06 6.53399e-06 7.5765e-06 1.05242e-05 8.88604e-06 3.9463e-06 1.53681e-06 1.99565e-06 2.45976e-06 4.38787e-06 4.89691e-06 1.01852e-06 2.00851e-06 1.43944e-06 1.42009e-06 7.60264e-06 4.70776e-06 3.58349e-06 6.3223e-06 7.24308e-06 3.13449e-06 
SCALARS Stress float 1
LOOKUP_TABLE default
-12550300000.0 -12550300000.0 -12550100000.0 -12550800000.0 -12549700000.0 -12551800000.0 -12551200000.0 -12551200000.0 -12549900000.0 -12550100000.0 -12549700000.0 -12549900000.0 -12549700000.0 -12549700000.0 -12550000000.0 -12549700000.0 -12549700000.0 -12549700000.0 -12549700000.0 -12549700000.0 -12549800000.0 -12550300000.0 -12550700000.0 -12550200000.0 -12550100000.0 -12549900000.0 -12549800000.0 -12549700000.0 -12549700000.0 -12549700000.0 -12549700000.0 -12549800000.0 -12550000000.0 -12550100000.0 -12550700000.0 -12550300000.0 -12550100000.0 -12549800000.0 -12549700000.0 -12550000000.0 -12550000000.0 -12549700000.0 -12550200000.0 -12549700000.0 -12549700000.0 -12550000000.0 -12551100000.0 -12550900000.0 -12550600000.0 -12549800000.0 -12550100000.0 -12549900000.0 -12551300000.0 -12551500000.0 -12549700000.0 -12549800000.0 -12550000000.0 -12550100000.0 -12551300000.0 -12550000000.0 -12552200000.0 -12550800000.0 -12550200000.0 -12550100000.0 -12550000000.0 -12551100000.0 -12552500000.0 -12551200000.0 -12553900000.0 -12557800000.0 -12555100000.0 -12556300000.0 -12555600000.0 -12555100000.0 -12555100000.0 -12554100000.0 -12550500000.0 -12550100000.0 -12549700000.0 -12550200000.0 -12551400000.0 -12551600000.0 -12550600000.0 -12550100000.0 -12550000000.0 -12550900000.0 -12551500000.0 -12556600000.0 -12555600000.0 -12555500000.0 -12552000000.0 -12553500000.0 -12549700000.0 -12551300000.0 -12550000000.0 -12559600000.0 -12556200000.0 -12558500000.0 -12560500000.0 -12565400000.0 -12567600000.0 -12563700000.0 -12552100000.0 -12551200000.0 -12551200000.0 -12549700000.0 -12550500000.0 -12549700000.0 -12549700000.0 -12551000000.0 -12549700000.0 -12549700000.0 -12549900000.0 -12549700000.0 -12550300000.0 -12549700000.0 -12552200000.0 -12549700000.0 -12549700000.0 -12549700000.0 -12549800000.0 -12549700000.0 -12549700000.0 -12549700000.0 -12549900000.0 -12550400000.0 -12550600000.0 -12551900000.0 -12551800000.0 -12553700000.0 -12553200000.0 -12551000000.0 -12550600000.0 -12550000000.0 -12550800000.0 -12551500000.0 -12551000000.0 -12551000000.0 -12550000000.0 -12550600000.0 -12553100000.0 -12550100000.0 -12551100000.0 -12551800000.0 -12551000000.0 -12551500000.0 -12550800000.0 -12550500000.0 -12549900000.0 -12551800000.0 -12551200000.0 -12556200000.0 -12549700000.0 -12549700000.0 -12549700000.0 -12550600000.0 -12550600000.0 -12554000000.0 -12550300000.0 -12550800000.0 -12549700000.0 -12554700000.0 -12551100000.0 -12549700000.0 -12549700000.0 -12550000000.0 -12550400000.0 -12551400000.0 -12550800000.0 -12550400000.0 -12549800000.0 -12555200000.0 -12557200000.0 -12559000000.0 -12559200000.0 -12563600000.0 -12550400000.0 -12550700000.0 -12550500000.0 -12568500000.0 -12549800000.0 -12554100000.0 -12553700000.0 -12551700000.0 -12551900000.0 -12556600000.0 -12557800000.0 -12549700000.0 -12551300000.0 -12549900000.0 -12553700000.0 -12569500000.0 -12556900000.0 -12555900000.0 -12555700000.0 -12561300000.0 -12563300000.0 -12560600000.0 -12553200000.0 -12549700000.0 -12569800000.0 -12564300000.0 -12564400000.0 -12564900000.0 -12558400000.0 -12550100000.0 -12564000000.0 -12554600000.0 -12556900000.0 -12554100000.0 -12554300000.0 -12553400000.0 -12550200000.0 -12552400000.0 -12549700000.0 -12549700000.0 -12550300000.0 -12549700000.0 -12551500000.0 -12549700000.0 -12553000000.0 -12549700000.0 -12550100000.0 -12549700000.0 -12550300000.0 -12550300000.0 -12550400000.0 -12550700000.0 -12551300000.0 -12552400000.0 -12555400000.0 -12557200000.0 -12551100000.0 -12555700000.0 -12554600000.0 -12553100000.0 -12554900000.0 -12549700000.0 -12549900000.0 -12553200000.0 -12549700000.0 -12551200000.0 -12554600000.0 -12550200000.0 -12549900000.0 -12549800000.0 -12555800000.0 -12553300000.0 -12550200000.0 -12550600000.0 -12553700000.0 -12564100000.0 -12555300000.0 -12554200000.0 -12553000000.0 -12557000000.0 -12557900000.0 -12570200000.0 -12565000000.0 -12565800000.0 -12565000000.0 -12554800000.0 -12557400000.0 -12559900000.0 -12560100000.0 -12557400000.0 -12559700000.0 -12556700000.0 -12557600000.0 -12553200000.0 -12562600000.0 -12585700000.0 -12603600000.0 -12554600000.0 -12553400000.0 -12555700000.0 -12552500000.0 -12593800000.0 -12576000000.0 -12572300000.0 -12560200000.0 -12560500000.0 -12559500000.0 -12574700000.0 -12563000000.0 -12560100000.0 -12555500000.0 -12570500000.0 -12550200000.0 -12553000000.0 -12551000000.0 -12557400000.0 -12551900000.0 -12564100000.0 -12561400000.0 -12562200000.0 -12562300000.0 -12549700000.0 -12574400000.0 -12550900000.0 -12557200000.0 -12572900000.0 -12556400000.0 -12562500000.0 -12567500000.0 -12551700000.0 -12556400000.0 -12549700000.0 -12551000000.0 -12554800000.0 -12552400000.0 -12552700000.0 -12553600000.0 -12551600000.0 -12552300000.0 -12551500000.0 -12555200000.0 -12552600000.0 -12555600000.0 -12551600000.0 -12550900000.0 -12550500000.0 -12549700000.0 -12549700000.0 -12550000000.0 -12550200000.0 -12552600000.0 -12549800000.0 -12551300000.0 -12553900000.0 -12555200000.0 -12554500000.0 -12552600000.0 -12563000000.0 -12561200000.0 -12557600000.0 -12563400000.0 -12561800000.0 -12562200000.0 -12566400000.0 -12566400000.0 -12559500000.0 -12557000000.0 -12555300000.0 -12562400000.0 -12551500000.0 -12550100000.0 -12552000000.0 -12557000000.0 -12550000000.0 -12555000000.0 -12552500000.0 -12559900000.0 -12577800000.0 -12555400000.0 -12553200000.0 -12556000000.0 -12552100000.0 -12568200000.0 -12549700000.0 -12549700000.0 -12559400000.0 -12549700000.0 -12567800000.0 -12568400000.0 -12563600000.0 -12562700000.0 -12558900000.0 -12581100000.0 -12579600000.0 -12563400000.0 -12578100000.0 -12589700000.0 -12555700000.0 -12613000000.0 -12609400000.0 -12604500000.0 -12616200000.0 -12550800000.0 -12550300000.0 -12570400000.0 -12572600000.0 -12580300000.0 -12567800000.0 -12579400000.0 -12562700000.0 -12558100000.0 -12554500000.0 -12576000000.0 -12558900000.0 -12570500000.0 -12580600000.0 -12583100000.0 -12596300000.0 -12562400000.0 -12559300000.0 -12550800000.0 -12550500000.0 -12591000000.0 -12552500000.0 -12565500000.0 -12587900000.0 -12556200000.0 -12554000000.0 -12566000000.0 -12558600000.0 -12560500000.0 -12551100000.0 -12550800000.0 -12559600000.0 -12556500000.0 -12551800000.0 -12554800000.0 -12551000000.0 -12551400000.0 -12549800000.0 -12553900000.0 -12549700000.0 -12553900000.0 -12556900000.0 -12552900000.0 -12551400000.0 -12551800000.0 -12550900000.0 -12549800000.0 -12552300000.0 -12550900000.0 -12560100000.0 -12556800000.0 -12553400000.0 -12551000000.0 -12565300000.0 -12569600000.0 -12551400000.0 -12559100000.0 -12552400000.0 -12551900000.0 -12562000000.0 -12551500000.0 -12555500000.0 -12563300000.0 -12576900000.0 -12555200000.0 -12552500000.0 -12560000000.0 -12551300000.0 -12558800000.0 -12562400000.0 -12553100000.0 -12586100000.0 -12562800000.0 -12554100000.0 -12562700000.0 -12552700000.0 -12549700000.0 -12550000000.0 -12551100000.0 -12564500000.0 -12591300000.0 -12552100000.0 -12550400000.0 -12572200000.0 -12570100000.0 -12551200000.0 -12555200000.0 -12588000000.0 -12580800000.0 -12570900000.0 -12587500000.0 -12591800000.0 -12576800000.0 -12553900000.0 -12573800000.0 -12570900000.0 -12610600000.0 -12588700000.0 -12550700000.0 -12549800000.0 -12577000000.0 -12550800000.0 -12612500000.0 -12616200000.0 -12622400000.0 -12609400000.0 -12586200000.0 -12591200000.0 -12582600000.0 -12552300000.0 -12557900000.0 -12593800000.0 -12551200000.0 -12574900000.0 -12567600000.0 -12558600000.0 -12583200000.0 -12550500000.0 -12578100000.0 -12551900000.0 -12592300000.0 -12559600000.0 -12572900000.0 -12573200000.0 -12570700000.0 -12566800000.0 -12559000000.0 -12562900000.0 -12551200000.0 -12550900000.0 -12559600000.0 -12571000000.0 -12571000000.0 -12569700000.0 -12569100000.0 -12568100000.0 -12565700000.0 -12575000000.0 -12570600000.0 -12569800000.0 -12573100000.0 -12575900000.0 -12565300000.0 -12565800000.0 -12560800000.0 -12563900000.0 -12549700000.0 -12551000000.0 -12553600000.0 -12549900000.0 -12576000000.0 -12554900000.0 -12560900000.0 -12558900000.0 -12549800000.0 -12552500000.0 -12551100000.0 -12549800000.0 -12564600000.0 -12561600000.0 -12571700000.0 -12574200000.0 -12573500000.0 -12575800000.0 -12591700000.0 -12577400000.0 -12570800000.0 -12596900000.0 -12566800000.0 -12573300000.0 -12587400000.0 -12573500000.0 -12577300000.0 -12566300000.0 -12574600000.0 -12582000000.0 -12588700000.0 -12634000000.0 -12589000000.0 -12593200000.0 -12565500000.0 -12565800000.0 -12578400000.0 -12561300000.0 -12582700000.0 -12585700000.0 -12564400000.0 -12601300000.0 -12557800000.0 -12578800000.0 -12573200000.0 -12557500000.0 -12596000000.0 -12588700000.0 -12579400000.0 -12654300000.0 -12624900000.0 -12564100000.0 -12563800000.0 -12597500000.0 -12572000000.0 -12568800000.0 -12572400000.0 -12549700000.0 -12566600000.0 -12558900000.0 -12550300000.0 -12609400000.0 -12581300000.0 -12577100000.0 -12570900000.0 -12616100000.0 -12582200000.0 -12625000000.0 -12593300000.0 -12573700000.0 -12568700000.0 -12573500000.0 -12557000000.0 -12553500000.0 -12559900000.0 -12552700000.0 -12552300000.0 -12574300000.0 -12556600000.0 -12549700000.0 -12549900000.0 -12558300000.0 -12557200000.0 -12561600000.0 -12554600000.0 -12551800000.0 -12556200000.0 -12549800000.0 -12550300000.0 -12561500000.0 -12562500000.0 -12565800000.0 -12564700000.0 -12575000000.0 -12571100000.0 -12559500000.0 -12562200000.0 -12583800000.0 -12552800000.0 -12556500000.0 -12551100000.0 -12553400000.0 -12556600000.0 -12561400000.0 -12555400000.0 -12555800000.0 -12569700000.0 -12569000000.0 -12551900000.0 -12556200000.0 -12561900000.0 -12551500000.0 -12562900000.0 -12551500000.0 -12568200000.0 -12569200000.0 -12564400000.0 -12594300000.0 -12554400000.0 -12580600000.0 -12565600000.0 -12552900000.0 -12568600000.0 -12563300000.0 -12549700000.0 -12550200000.0 -12556900000.0 -12613900000.0 -12565600000.0 -12564700000.0 -12582400000.0 -12612700000.0 -12619100000.0 -12636900000.0 -12618400000.0 -12610900000.0 -12608000000.0 -12659500000.0 -12577200000.0 -12646200000.0 -12665100000.0 -12568300000.0 -12644900000.0 -12685600000.0 -12618700000.0 -12609000000.0 -12667000000.0 -12565700000.0 -12567600000.0 -12576100000.0 -12583900000.0 -12574800000.0 -12573500000.0 -12583900000.0 -12555700000.0 -12576500000.0 -12549700000.0 -12556000000.0 -12607000000.0 -12552300000.0 -12552100000.0 -12550400000.0 -12579900000.0 -12549700000.0 -12659600000.0 -12652300000.0 -12572700000.0 -12648800000.0 -12606900000.0 -12604100000.0 -12594400000.0 -12588800000.0 -12597700000.0 -12604800000.0 -12581000000.0 -12583800000.0 -12580300000.0 -12574400000.0 -12572700000.0 -12567800000.0 -12560700000.0 -12553100000.0 -12565500000.0 -12553000000.0 -12557900000.0 -12559700000.0 -12559000000.0 -12561000000.0 -12549700000.0 -12554800000.0 -12551000000.0 -12557600000.0 -12567800000.0 -12563900000.0 -12568300000.0 -12576300000.0 -12555700000.0 -12552800000.0 -12555300000.0 -12560800000.0 -12550300000.0 -12559200000.0 -12552500000.0 -12563000000.0 -12554100000.0 -12560500000.0 -12557200000.0 -12555700000.0 -12563300000.0 -12555300000.0 -12549900000.0 -12555800000.0 -12560100000.0 -12562600000.0 -12599500000.0 -12606600000.0 -12601000000.0 -12626300000.0 -12565500000.0 -12571200000.0 -12562800000.0 -12553100000.0 -12567300000.0 -12553100000.0 -12549700000.0 -12558700000.0 -12556000000.0 -12635200000.0 -12560100000.0 -12566000000.0 -12574500000.0 -12619100000.0 -12549700000.0 -12578600000.0 -12567600000.0 -12550500000.0 -12588100000.0 -12570800000.0 -12581500000.0 -12632900000.0 -12608500000.0 -12637400000.0 -12592900000.0 -12570900000.0 -12674300000.0 -12580400000.0 -12619700000.0 -12605700000.0 -12715500000.0 -12549900000.0 -12551500000.0 -12575100000.0 -12616400000.0 -12569700000.0 -12603700000.0 -12581600000.0 -12589300000.0 -12617900000.0 -12549700000.0 -12553400000.0 -12549900000.0 -12571100000.0 -12578000000.0 -12549700000.0 -12549700000.0 -12653300000.0 -12631400000.0 -12573400000.0 -12562800000.0 -12554000000.0 -12553300000.0 -12603000000.0 -12556600000.0 -12600400000.0 -12549700000.0 -12570200000.0 -12570100000.0 -12550900000.0 -12551800000.0 -12555700000.0 -12553200000.0 -12552900000.0 -12559400000.0 -12559900000.0 -12565400000.0 -12550500000.0 -12562200000.0 -12559400000.0 -12551400000.0 -12555500000.0 -12555600000.0 -12565600000.0 -12564900000.0 -12552900000.0 -12563500000.0 -12563900000.0 -12569300000.0 -12580500000.0 -12566400000.0 -12573500000.0 -12553600000.0 -12566800000.0 -12569300000.0 -12555100000.0 -12592000000.0 -12588700000.0 -12582900000.0 -12577400000.0 -12583300000.0 -12589500000.0 -12591000000.0 -12582400000.0 -12590600000.0 -12613900000.0 -12549700000.0 -12575200000.0 -12577200000.0 -12603600000.0 -12607800000.0 -12603100000.0 -12596000000.0 -12551000000.0 -12561000000.0 -12600300000.0 -12588900000.0 -12581800000.0 -12583900000.0 -12596800000.0 -12595400000.0 -12550900000.0 -12556600000.0 -12561700000.0 -12568500000.0 -12550000000.0 -12586000000.0 -12578300000.0 -12559300000.0 -12599000000.0 -12583300000.0 -12549700000.0 -12591300000.0 -12612600000.0 -12599200000.0 -12613700000.0 -12565800000.0 -12584300000.0 -12608300000.0 -12577400000.0 -12589200000.0 -12731700000.0 -12549700000.0 -12604600000.0 -12616900000.0 -12573800000.0 -12550000000.0 -12552900000.0 -12617500000.0 -12571800000.0 -12575000000.0 -12550400000.0 -12607100000.0 -12574700000.0 -12560600000.0 -12586800000.0 -12555200000.0 -12577500000.0 -12611000000.0 -12629100000.0 -12550300000.0 -12616100000.0 -12588800000.0 -12552600000.0 -12558700000.0 -12600900000.0 -12566500000.0 -12571700000.0 -12550100000.0 -12549900000.0 -12567400000.0 -12559400000.0 -12551900000.0 -12550500000.0 -12549700000.0 -12560100000.0 -12562400000.0 -12563900000.0 -12559500000.0 -12550200000.0 -12558700000.0 -12553800000.0 -12561700000.0 -12560300000.0 -12549700000.0 -12551300000.0 -12553000000.0 -12549700000.0 -12565900000.0 -12570700000.0 -12580100000.0 -12549700000.0 -12571400000.0 -12551300000.0 -12584600000.0 -12571200000.0 -12549700000.0 -12549700000.0 -12563000000.0 -12549800000.0 -12570600000.0 -12583700000.0 -12549700000.0 -12549700000.0 -12551100000.0 -12567500000.0 -12567800000.0 -12575300000.0 -12601700000.0 -12549700000.0 -12577600000.0 -12551200000.0 -12553500000.0 -12599400000.0 -12579900000.0 -12574100000.0 -12614800000.0 -12560500000.0 -12552700000.0 -12563400000.0 -12553500000.0 -12572100000.0 -12552000000.0 -12599600000.0 -12559400000.0 -12580300000.0 -12564600000.0 -12583400000.0 -12608900000.0 -12599100000.0 -12604600000.0 -12671700000.0 -12641300000.0 -12638100000.0 -12560400000.0 -12634200000.0 -12655900000.0 -12650800000.0 -12658300000.0 -12669800000.0 -12681800000.0 -12729300000.0 -12601600000.0 -12585500000.0 -12765600000.0 -12795200000.0 -12653400000.0 -12584200000.0 -12585700000.0 -12615500000.0 -12572900000.0 -12570000000.0 -12565400000.0 -12605400000.0 -12549800000.0 -12584800000.0 -12592100000.0 -12557600000.0 -12555800000.0 -12563200000.0 -12565100000.0 -12556000000.0 -12554000000.0 -12625900000.0 -12594700000.0 -12550200000.0 -12551400000.0 -12562100000.0 -12596400000.0 -12549700000.0 -12562300000.0 -12563700000.0 -12552800000.0 -12554600000.0 -12553900000.0 -12551400000.0 -12550100000.0 -12562300000.0 -12555600000.0 -12555400000.0 -12561500000.0 -12553300000.0 -12573000000.0 -12557600000.0 -12553000000.0 -12560900000.0 -12557000000.0 -12553800000.0 -12558000000.0 -12549800000.0 -12554200000.0 -12553500000.0 -12550000000.0 -12550900000.0 -12549700000.0 -12575100000.0 -12549900000.0 -12563500000.0 -12561700000.0 -12570200000.0 -12578500000.0 -12549800000.0 -12550000000.0 -12562800000.0 -12561800000.0 -12579600000.0 -12551300000.0 -12551700000.0 -12557100000.0 -12563200000.0 -12567900000.0 -12558600000.0 -12611100000.0 -12559200000.0 -12594600000.0 -12575000000.0 -12595300000.0 -12554900000.0 -12663100000.0 -12631000000.0 -12634300000.0 -12624900000.0 -12592500000.0 -12573600000.0 -12578000000.0 -12577500000.0 -12576400000.0 -12575100000.0 -12630500000.0 -12611700000.0 -12561000000.0 -12575100000.0 -12581800000.0 -12557500000.0 -12628100000.0 -12585900000.0 -12572200000.0 -12576800000.0 -12554700000.0 -12629100000.0 -12606900000.0 -12600000000.0 -12558700000.0 -12616600000.0 -12561800000.0 -12552100000.0 -12667100000.0 -12663900000.0 -12641500000.0 -12690300000.0 -12549700000.0 -12633100000.0 -12630100000.0 -12549700000.0 -12657100000.0 -12556800000.0 -12601900000.0 -12552000000.0 -12550700000.0 -12602400000.0 -12557600000.0 -12575700000.0 -12557800000.0 -12603100000.0 -12552600000.0 -12568500000.0 -12572000000.0 -12564900000.0 -12570800000.0 -12612400000.0 -12591100000.0 -12587700000.0 -12559600000.0 -12606300000.0 -12574900000.0 -12573800000.0 -12581100000.0 -12573200000.0 -12571500000.0 -12563500000.0 -12556400000.0 -12558400000.0 -12566800000.0 -12550600000.0 -12579800000.0 -12561400000.0 -12562400000.0 -12569400000.0 -12564200000.0 -12565700000.0 -12564900000.0 -12554100000.0 -12549700000.0 -12554900000.0 -12554200000.0 -12551500000.0 -12579000000.0 -12550800000.0 -12556400000.0 -12557200000.0 -12575300000.0 -12576800000.0 -12562300000.0 -12568700000.0 -12556800000.0 -12550600000.0 -12577500000.0 -12549700000.0 -12549800000.0 -12556400000.0 -12557600000.0 -12573200000.0 -12563800000.0 -12601700000.0 -12549700000.0 -12598900000.0 -12607500000.0 -12631400000.0 -12595700000.0 -12557600000.0 -12602100000.0 -12594200000.0 -12584200000.0 -12587100000.0 -12555100000.0 -12564900000.0 -12563400000.0 -12557800000.0 -12588500000.0 -12549700000.0 -12634600000.0 -12616600000.0 -12624900000.0 -12620800000.0 -12549700000.0 -12692800000.0 -12585600000.0 -12592600000.0 -12553200000.0 -12667400000.0 -12568200000.0 -12577700000.0 -12608800000.0 -12571200000.0 -12569000000.0 -12654800000.0 -12556200000.0 -12696700000.0 -12577900000.0 -12701600000.0 -12634900000.0 -12678200000.0 -12702400000.0 -12775900000.0 -12792700000.0 -12764000000.0 -12749300000.0 -12774300000.0 -12767500000.0 -12782600000.0 -12770900000.0 -12685400000.0 -12602800000.0 -12648300000.0 -12641800000.0 -12653600000.0 -12690800000.0 -12608100000.0 -12550100000.0 -12597800000.0 -12573200000.0 -12569900000.0 -12561200000.0 -12558600000.0 -12557600000.0 -12559900000.0 -12552000000.0 -12552000000.0 -12553000000.0 -12573700000.0 -12572400000.0 -12565500000.0 -12563300000.0 -12564200000.0 -12575600000.0 -12595300000.0 -12553100000.0 -12557700000.0 -12560500000.0 -12549700000.0 -12555700000.0 -12565400000.0 -12551700000.0 -12575700000.0 -12575900000.0 -12575700000.0 -12582800000.0 -12569100000.0 -12571800000.0 -12570200000.0 -12574600000.0 -12585700000.0 -12566700000.0 -12553000000.0 -12559500000.0 -12559000000.0 -12561100000.0 -12569500000.0 -12581000000.0 -12574800000.0 -12574100000.0 -12601600000.0 -12564500000.0 -12572300000.0 -12602900000.0 -12549700000.0 -12549700000.0 -12660600000.0 -12657600000.0 -12620300000.0 -12592100000.0 -12608500000.0 -12556900000.0 -12561400000.0 -12594500000.0 -12609900000.0 -12590300000.0 -12587300000.0 -12608900000.0 -12653200000.0 -12563300000.0 -12550500000.0 -12561400000.0 -12607600000.0 -12662300000.0 -12570500000.0 -12612200000.0 -12549900000.0 -12549700000.0 -12603600000.0 -12627400000.0 -12727800000.0 -12624800000.0 -12568100000.0 -12589000000.0 -12560100000.0 -12576800000.0 -12578100000.0 -12565400000.0 -12715700000.0 -12623400000.0 -12661300000.0 -12562700000.0 -12557000000.0 -12598700000.0 -12551800000.0 -12570000000.0 -12576700000.0 -12561000000.0 -12584800000.0 -12626600000.0 -12600400000.0 -12612700000.0 -12593800000.0 -12559800000.0 -12550000000.0 -12550100000.0 -12551600000.0 -12549700000.0 -12636400000.0 -12624900000.0 -12564400000.0 -12551100000.0 -12561700000.0 -12563300000.0 -12563300000.0 -12553000000.0 -12557500000.0 -12551200000.0 -12550300000.0 -12560400000.0 -12553200000.0 -12553800000.0 -12553100000.0 -12556300000.0 -12558900000.0 -12549700000.0 -12581800000.0 -12574100000.0 -12568700000.0 -12576900000.0 -12572600000.0 -12571000000.0 -12574500000.0 -12557100000.0 -12559400000.0 -12551300000.0 -12556600000.0 -12577400000.0 -12564400000.0 -12556000000.0 -12550600000.0 -12590500000.0 -12553400000.0 -12550100000.0 -12550500000.0 -12555200000.0 -12551000000.0 -12589100000.0 -12552500000.0 -12565500000.0 -12565600000.0 -12604100000.0 -12556600000.0 -12556400000.0 -12555400000.0 -12610900000.0 -12630700000.0 -12668300000.0 -12550700000.0 -12551400000.0 -12648900000.0 -12622500000.0 -12558800000.0 -12575900000.0 -12574700000.0 -12551100000.0 -12552900000.0 -12553300000.0 -12557600000.0 -12565900000.0 -12641700000.0 -12566100000.0 -12634400000.0 -12593400000.0 -12610800000.0 -12556200000.0 -12660700000.0 -12600700000.0 -12633700000.0 -12594800000.0 -12607400000.0 -12618500000.0 -12606200000.0 -12597100000.0 -12633500000.0 -12580800000.0 -12551000000.0 -12583900000.0 -12566300000.0 -12555500000.0 -12617300000.0 -12624400000.0 -12586900000.0 -12669200000.0 -12635500000.0 -12626200000.0 -12587600000.0 -12583000000.0 -12553200000.0 -12628400000.0 -12626500000.0 -12579800000.0 -12561300000.0 -12610000000.0 -12559000000.0 -12551100000.0 -12550100000.0 -12551400000.0 -12550100000.0 -12564700000.0 -12640600000.0 -12608600000.0 -12569100000.0 -12565100000.0 -12558600000.0 -12576400000.0 -12566900000.0 -12555900000.0 -12554900000.0 -12561500000.0 -12550600000.0 -12551700000.0 -12549800000.0 -12553300000.0 -12556200000.0 -12552300000.0 -12573100000.0 -12552100000.0 -12550900000.0 -12550000000.0 -12554300000.0 -12555000000.0 -12549800000.0 -12562800000.0 -12557600000.0 -12563200000.0 -12581900000.0 -12602200000.0 -12562000000.0 -12550000000.0 -12550000000.0 -12588600000.0 -12562500000.0 -12564400000.0 -12557600000.0 -12552400000.0 -12555000000.0 -12593000000.0 -12554000000.0 -12559400000.0 -12550100000.0 -12591000000.0 -12640000000.0 -12623400000.0 -12623600000.0 -12638600000.0 -12636400000.0 -12659500000.0 -12552700000.0 -12550100000.0 -12676900000.0 -12608400000.0 -12552700000.0 -12550900000.0 -12567300000.0 -12555200000.0 -12556700000.0 -12567200000.0 -12561100000.0 -12559700000.0 -12573300000.0 -12657300000.0 -12601200000.0 -12591000000.0 -12666800000.0 -12584200000.0 -12576200000.0 -12574000000.0 -12640500000.0 -12557100000.0 -12555000000.0 -12573700000.0 -12550000000.0 -12618500000.0 -12551000000.0 -12592100000.0 -12633800000.0 -12573600000.0 -12577400000.0 -12596500000.0 -12630500000.0 -12653700000.0 -12624000000.0 -12666800000.0 -12581400000.0 -12571400000.0 -12600500000.0 -12646700000.0 -12652700000.0 -12667300000.0 -12604800000.0 -12614800000.0 -12610600000.0 -12602300000.0 -12611500000.0 -12557200000.0 -12551500000.0 -12552800000.0 -12553400000.0 -12561900000.0 -12614300000.0 -12608000000.0 -12561700000.0 -12557400000.0 -12572100000.0 -12565400000.0 -12559200000.0 -12562400000.0 -12566100000.0 -12562800000.0 -12563400000.0 -12564500000.0 -12564300000.0 -12557600000.0 -12556600000.0 -12576900000.0 -12550900000.0 -12549800000.0 -12555100000.0 -12550200000.0 -12553900000.0 -12549700000.0 -12558400000.0 -12562000000.0 -12559600000.0 -12569800000.0 -12571300000.0 -12562400000.0 -12567400000.0 -12587000000.0 -12552100000.0 -12553500000.0 -12558500000.0 -12550500000.0 -12551600000.0 -12604700000.0 -12565900000.0 -12574000000.0 -12591000000.0 -12550200000.0 -12585600000.0 -12555000000.0 -12563200000.0 -12693200000.0 -12564600000.0 -12678600000.0 -12549900000.0 -12549700000.0 -12628300000.0 -12663100000.0 -12551600000.0 -12554700000.0 -12590100000.0 -12568600000.0 -12553700000.0 -12586800000.0 -12551400000.0 -12671900000.0 -12657600000.0 -12549700000.0 -12553100000.0 -12596100000.0 -12549900000.0 -12566900000.0 -12580000000.0 -12635400000.0 -12554500000.0 -12554200000.0 -12575600000.0 -12584900000.0 -12619500000.0 -12574100000.0 -12562600000.0 -12622700000.0 -12593000000.0 -12583300000.0 -12632100000.0 -12601100000.0 -12578600000.0 -12645800000.0 -12609900000.0 -12634200000.0 -12620800000.0 -12550400000.0 -12565400000.0 -12594500000.0 -12549700000.0 -12576900000.0 -12572300000.0 -12587900000.0 -12559300000.0 -12593400000.0 -12555600000.0 -12551300000.0 -12553000000.0 -12553500000.0 -12550100000.0 -12550700000.0 -12557200000.0 -12575200000.0 -12601000000.0 -12591200000.0 -12549800000.0 -12549700000.0 -12570500000.0 -12557500000.0 -12553600000.0 -12557000000.0 -12551200000.0 -12555300000.0 -12551800000.0 -12552400000.0 -12553600000.0 -12550500000.0 -12549700000.0 -12566700000.0 -12558500000.0 -12564700000.0 -12564000000.0 -12565000000.0 -12568300000.0 -12569400000.0 -12556300000.0 -12552800000.0 -12552800000.0 -12554100000.0 -12555500000.0 -12567400000.0 -12558000000.0 -12577900000.0 -12562400000.0 -12578300000.0 -12550800000.0 -12559500000.0 -12549700000.0 -12557100000.0 -12579900000.0 -12625400000.0 -12550600000.0 -12580900000.0 -12589900000.0 -12593400000.0 -12574000000.0 -12581000000.0 -12573000000.0 -12791300000.0 -12599500000.0 -12604100000.0 -12629300000.0 -12606100000.0 -12600800000.0 -12660900000.0 -12575300000.0 -12558500000.0 -12603600000.0 -12570400000.0 -12679900000.0 -12602100000.0 -12581000000.0 -12573000000.0 -12579100000.0 -12595700000.0 -12579800000.0 -12569700000.0 -12570200000.0 -12615800000.0 -12569400000.0 -12565800000.0 -12613100000.0 -12595900000.0 -12549700000.0 -12601100000.0 -12550000000.0 -12585500000.0 -12571900000.0 -12614700000.0 -12592600000.0 -12576900000.0 -12619900000.0 -12570600000.0 -12551900000.0 -12549800000.0 -12629000000.0 -12576200000.0 -12594900000.0 -12550800000.0 -12599200000.0 -12633000000.0 -12629600000.0 -12638600000.0 -12549700000.0 -12560200000.0 -12580800000.0 -12593500000.0 -12555100000.0 -12587000000.0 -12554000000.0 -12551300000.0 -12552800000.0 -12553000000.0 -12552100000.0 -12554800000.0 -12581200000.0 -12550500000.0 -12575100000.0 -12583700000.0 -12560700000.0 -12561200000.0 -12555100000.0 -12553800000.0 -12556600000.0 -12553200000.0 -12557300000.0 -12554600000.0 -12560000000.0 -12557700000.0 -12557500000.0 -12559600000.0 -12559600000.0 -12552200000.0 -12551100000.0 -12549700000.0 -12550100000.0 -12552100000.0 -12551600000.0 -12567700000.0 -12563800000.0 -12560700000.0 -12563900000.0 -12578700000.0 -12549700000.0 -12571200000.0 -12571500000.0 -12564300000.0 -12576600000.0 -12567100000.0 -12587800000.0 -12593200000.0 -12549700000.0 -12610000000.0 -12586000000.0 -12550600000.0 -12563300000.0 -12560200000.0 -12586600000.0 -12549800000.0 -12592200000.0 -12604600000.0 -12582300000.0 -12830700000.0 -12628500000.0 -12595100000.0 -12653400000.0 -12733800000.0 -12672500000.0 -12665500000.0 -12628300000.0 -12630100000.0 -12686400000.0 -12550200000.0 -12552800000.0 -12554000000.0 -12549700000.0 -12615200000.0 -12568900000.0 -12583800000.0 -12567200000.0 -12576800000.0 -12590400000.0 -12599700000.0 -12565100000.0 -12551700000.0 -12549700000.0 -12549900000.0 -12550400000.0 -12568000000.0 -12589300000.0 -12579900000.0 -12566500000.0 -12609000000.0 -12576100000.0 -12605100000.0 -12559200000.0 -12558100000.0 -12552100000.0 -12572700000.0 -12565200000.0 -12571200000.0 -12551100000.0 -12627000000.0 -12638900000.0 -12634100000.0 -12643600000.0 -12604400000.0 -12551900000.0 -12549700000.0 -12552200000.0 -12550300000.0 -12550100000.0 -12550700000.0 -12566300000.0 -12560400000.0 -12571000000.0 -12551000000.0 -12571300000.0 -12562400000.0 -12550800000.0 -12550800000.0 -12553000000.0 -12552900000.0 -12550500000.0 -12556600000.0 -12551300000.0 -12550300000.0 -12551100000.0 -12551000000.0 -12552200000.0 -12553900000.0 -12550100000.0 -12549800000.0 -12549800000.0 -12549700000.0 -12549800000.0 -12559300000.0 -12558200000.0 -12549900000.0 -12550500000.0 -12569400000.0 -12560300000.0 -12579000000.0 -12580300000.0 -12573000000.0 -12551600000.0 -12565600000.0 -12554500000.0 -12551600000.0 -12590600000.0 -12611200000.0 -12571400000.0 -12549700000.0 -12559200000.0 -12561000000.0 -12594200000.0 -12562700000.0 -12625900000.0 -12647000000.0 -12731300000.0 -12550400000.0 -12683600000.0 -12702200000.0 -12593400000.0 -12631200000.0 -12596100000.0 -12599800000.0 -12629800000.0 -12671800000.0 -12595100000.0 -12606500000.0 -12622500000.0 -12561400000.0 -12556400000.0 -12608900000.0 -12553700000.0 -12552500000.0 -12558200000.0 -12557100000.0 -12565200000.0 -12569500000.0 -12571100000.0 -12549700000.0 -12555200000.0 -12565900000.0 -12555900000.0 -12556300000.0 -12582600000.0 -12552100000.0 -12595400000.0 -12557400000.0 -12591200000.0 -12549700000.0 -12591200000.0 -12576800000.0 -12565500000.0 -12574300000.0 -12564100000.0 -12557100000.0 -12574400000.0 -12573900000.0 -12580000000.0 -12616000000.0 -12584400000.0 -12586500000.0 -12672300000.0 -12598800000.0 -12587100000.0 -12551300000.0 -12549700000.0 -12552200000.0 -12550300000.0 -12550100000.0 -12553800000.0 -12552300000.0 -12550000000.0 -12554600000.0 -12567500000.0 -12549700000.0 -12556500000.0 -12558800000.0 -12552400000.0 -12550100000.0 -12551300000.0 -12549700000.0 -12552800000.0 -12557000000.0 -12550400000.0 -12550100000.0 -12549700000.0 -12550100000.0 -12550900000.0 -12549700000.0 -12551500000.0 -12549800000.0 -12549700000.0 -12550000000.0 -12550000000.0 -12553700000.0 -12553600000.0 -12564500000.0 -12564200000.0 -12583000000.0 -12555700000.0 -12553700000.0 -12556700000.0 -12611100000.0 -12590300000.0 -12589700000.0 -12586800000.0 -12594700000.0 -12610600000.0 -12549800000.0 -12605500000.0 -12571700000.0 -12576900000.0 -12589500000.0 -12571300000.0 -12653300000.0 -12551600000.0 -12602200000.0 -12685700000.0 -12669900000.0 -12658100000.0 -12668200000.0 -12556600000.0 -12623100000.0 -12612000000.0 -12637400000.0 -12574400000.0 -12588500000.0 -12549700000.0 -12682700000.0 -12608100000.0 -12552600000.0 -12615200000.0 -12606900000.0 -12552300000.0 -12553100000.0 -12551600000.0 -12558800000.0 -12561800000.0 -12565400000.0 -12568800000.0 -12567100000.0 -12549700000.0 -12562800000.0 -12550000000.0 -12554100000.0 -12554000000.0 -12569600000.0 -12565500000.0 -12565300000.0 -12557500000.0 -12571300000.0 -12563000000.0 -12585800000.0 -12561800000.0 -12556900000.0 -12560900000.0 -12565300000.0 -12564500000.0 -12564500000.0 -12569000000.0 -12566000000.0 -12549800000.0 -12549700000.0 -12621800000.0 -12568400000.0 -12552400000.0 -12556800000.0 -12557200000.0 -12556700000.0 -12556700000.0 -12555000000.0 -12555300000.0 -12555200000.0 -12550700000.0 -12562900000.0 -12564600000.0 -12562700000.0 -12556100000.0 -12556700000.0 -12556600000.0 -12555200000.0 -12553300000.0 -12554200000.0 -12549700000.0 -12549700000.0 -12550100000.0 -12549700000.0 -12550800000.0 -12550200000.0 -12550000000.0 -12550900000.0 -12550000000.0 -12549700000.0 -12551600000.0 -12550400000.0 -12562100000.0 -12549800000.0 -12550100000.0 -12560300000.0 -12586300000.0 -12577200000.0 -12584500000.0 -12605700000.0 -12560700000.0 -12551300000.0 -12566800000.0 -12563500000.0 -12656800000.0 -12596900000.0 -12631500000.0 -12629800000.0 -12631800000.0 -12585900000.0 -12632300000.0 -12552700000.0 -12575500000.0 -12571800000.0 -12707700000.0 -12824200000.0 -12564100000.0 -12561500000.0 -12680800000.0 -12571300000.0 -12653600000.0 -12555100000.0 -12573500000.0 -12549700000.0 -12642800000.0 -12579400000.0 -12561500000.0 -12578000000.0 -12606900000.0 -12566400000.0 -12567000000.0 -12564900000.0 -12564800000.0 -12557200000.0 -12570700000.0 -12556500000.0 -12563200000.0 -12549900000.0 -12552900000.0 -12558000000.0 -12551600000.0 -12552700000.0 -12573900000.0 -12555900000.0 -12557400000.0 -12549700000.0 -12567400000.0 -12579700000.0 -12549700000.0 -12559000000.0 -12550400000.0 -12549900000.0 -12549700000.0 -12555500000.0 -12552000000.0 -12575200000.0 -12579200000.0 -12582200000.0 -12556100000.0 -12570700000.0 -12605600000.0 -12567600000.0 -12562200000.0 -12552400000.0 -12549700000.0 -12549700000.0 -12551300000.0 -12550800000.0 -12550300000.0 -12551100000.0 -12550800000.0 -12550300000.0 -12550800000.0 -12554300000.0 -12553500000.0 -12550600000.0 -12551200000.0 -12551300000.0 -12551700000.0 -12553100000.0 -12554200000.0 -12551700000.0 -12551500000.0 -12552000000.0 -12552500000.0 -12553600000.0 -12552700000.0 -12553300000.0 -12553400000.0 -12552100000.0 -12554400000.0 -12556300000.0 -12558700000.0 -12574700000.0 -12567800000.0 -12568100000.0 -12580100000.0 -12553100000.0 -12562700000.0 -12550500000.0 -12602400000.0 -12587300000.0 -12564500000.0 -12552100000.0 -12556800000.0 -12623800000.0 -12573400000.0 -12553400000.0 -12555100000.0 -12659600000.0 -12549700000.0 -12612400000.0 -12584400000.0 -12549800000.0 -12716900000.0 -12557400000.0 -12742700000.0 -12553000000.0 -12550100000.0 -12669300000.0 -12552000000.0 -12660700000.0 -12596100000.0 -12603200000.0 -12637800000.0 -12607500000.0 -12605400000.0 -12614500000.0 -12605800000.0 -12568500000.0 -12563100000.0 -12564800000.0 -12564100000.0 -12578800000.0 -12582900000.0 -12565500000.0 -12561100000.0 -12564800000.0 -12562200000.0 -12558500000.0 -12556700000.0 -12556700000.0 -12571600000.0 -12555900000.0 -12555300000.0 -12561600000.0 -12564600000.0 -12594800000.0 -12557300000.0 -12555700000.0 -12574500000.0 -12568100000.0 -12563700000.0 -12564000000.0 -12563300000.0 -12553900000.0 -12559500000.0 -12549900000.0 -12555800000.0 -12587900000.0 -12556900000.0 -12560600000.0 -12551300000.0 -12550000000.0 -12550800000.0 -12549700000.0 -12549700000.0 -12549700000.0 -12550600000.0 -12550100000.0 -12549700000.0 -12549700000.0 -12550800000.0 -12551500000.0 -12549700000.0 -12549700000.0 -12549700000.0 -12549700000.0 -12549700000.0 -12550900000.0 -12553200000.0 -12553000000.0 -12552600000.0 -12552500000.0 -12551900000.0 -12552300000.0 -12551500000.0 -12552900000.0 -12554700000.0 -12557800000.0 -12560800000.0 -12571400000.0 -12552200000.0 -12556600000.0 -12554200000.0 -12574900000.0 -12563100000.0 -12560400000.0 -12567100000.0 -12587500000.0 -12549900000.0 -12594000000.0 -12575600000.0 -12579300000.0 -12594300000.0 -12602700000.0 -12550900000.0 -12557600000.0 -12671300000.0 -12624700000.0 -12572100000.0 -12590700000.0 -12719900000.0 -12560500000.0 -12574500000.0 -12550100000.0 -12551700000.0 -12737400000.0 -12644000000.0 -12662900000.0 -12564400000.0 -12602800000.0 -12581500000.0 -12584900000.0 -12565100000.0 -12550800000.0 -12549700000.0 -12568800000.0 -12570900000.0 -12577700000.0 -12577900000.0 -12581300000.0 -12569000000.0 -12586700000.0 -12575100000.0 -12551600000.0 -12555500000.0 -12550700000.0 -12552200000.0 -12549700000.0 -12550100000.0 -12549700000.0 -12562800000.0 -12553200000.0 -12554400000.0 -12554500000.0 -12556500000.0 -12579100000.0 -12555400000.0 -12555400000.0 -12556600000.0 -12552900000.0 -12555700000.0 -12562300000.0 -12549700000.0 -12551100000.0 -12557400000.0 -12550000000.0 -12572200000.0 -12567300000.0 -12560900000.0 -12559200000.0 -12550100000.0 -12549900000.0 -12550300000.0 -12549700000.0 -12549700000.0 -12549800000.0 -12550300000.0 -12549900000.0 -12549700000.0 -12549700000.0 -12549700000.0 -12550600000.0 -12549700000.0 -12549700000.0 -12549700000.0 -12549800000.0 -12549700000.0 -12550800000.0 -12550000000.0 -12550000000.0 -12549700000.0 -12550100000.0 -12550700000.0 -12550600000.0 -12552000000.0 -12552800000.0 -12552700000.0 -12552300000.0 -12556800000.0 -12559400000.0 -12553200000.0 -12560400000.0 -12563000000.0 -12566700000.0 -12568200000.0 -12570500000.0 -12570300000.0 -12576800000.0 -12590000000.0 -12605100000.0 -12549900000.0 -12599900000.0 -12624300000.0 -12641500000.0 -12664600000.0 -12677700000.0 -12746000000.0 -12673500000.0 -12648700000.0 -12734700000.0 -12789100000.0 -12550600000.0 -12697500000.0 -12663400000.0 -12751800000.0 -12646200000.0 -12681500000.0 -12607500000.0 -12569800000.0 -12590800000.0 -12665400000.0 -12610600000.0 -12590300000.0 -12563900000.0 -12553600000.0 -12555900000.0 -12553900000.0 -12562300000.0 -12551100000.0 -12552600000.0 -12552200000.0 -12553800000.0 -12562400000.0 -12568300000.0 -12555100000.0 -12561600000.0 -12554100000.0 -12556500000.0 -12553600000.0 -12552600000.0 -12559300000.0 -12549700000.0 -12550400000.0 -12549900000.0 -12550500000.0 -12567000000.0 -12550600000.0 -12550000000.0 -12555800000.0 -12549700000.0 -12550900000.0 -12551100000.0 -12566400000.0 -12563200000.0 -12570400000.0 -12573500000.0 -12552900000.0 -12555600000.0 -12550200000.0 -12549800000.0 -12549700000.0 -12549900000.0 -12549700000.0 -12549700000.0 -12549700000.0 -12549900000.0 -12549700000.0 -12549700000.0 -12549700000.0 -12549700000.0 -12550000000.0 -12549700000.0 -12549700000.0 -12549700000.0 -12549700000.0 -12549700000.0 -12550400000.0 -12550200000.0 -12550200000.0 -12550100000.0 -12549800000.0 -12549800000.0 -12549900000.0 -12550600000.0 -12550000000.0 -12550300000.0 -12550400000.0 -12551800000.0 -12551000000.0 -12550400000.0 -12552600000.0 -12551500000.0 -12553000000.0 -12555300000.0 -12556200000.0 -12556500000.0 -12551800000.0 -12556400000.0 -12624000000.0 -12586500000.0 -12599500000.0 -12624000000.0 -12551600000.0 -12569700000.0 -12628000000.0 -12566200000.0 -12698900000.0 -12582100000.0 -12604800000.0 -12650400000.0 -12596800000.0 -12651700000.0 -12615700000.0 -12558400000.0 -12581400000.0 -12572500000.0 -12665000000.0 -12600700000.0 -12552300000.0 -12562500000.0 -12556900000.0 -12562100000.0 -12561300000.0 -12561300000.0 -12550900000.0 -12550000000.0 -12549900000.0 -12550200000.0 -12550900000.0 -12551000000.0 -12551000000.0 -12550100000.0 -12556500000.0 -12554700000.0 -12549700000.0 -12551100000.0 -12550800000.0 -12551900000.0 -12550900000.0 -12552600000.0 -12552600000.0 -12552400000.0 -12553300000.0 -12554900000.0 -12556100000.0 -12554700000.0 -12550200000.0 -12551600000.0 -12550300000.0 -12552200000.0 -12550800000.0 -12550300000.0 -12552500000.0 -12550500000.0 -12562900000.0 -12550200000.0 -12559600000.0 -12559000000.0 -12554400000.0 -12550300000.0 -12569100000.0 -12566600000.0 -12562100000.0 -12612500000.0 -12571200000.0 -12579000000.0 -12626400000.0 -12608500000.0 -12632600000.0 -12604000000.0 -12587400000.0 -12604300000.0 -12549800000.0 -12598100000.0 -12673900000.0 -12593400000.0 -12581000000.0 -12571100000.0 -12580800000.0 -12635700000.0 -12550500000.0 -12549700000.0 -12565400000.0 -12564800000.0 -12555700000.0 -12599800000.0 -12561700000.0 -12553000000.0 -12621300000.0 -12601700000.0 -12549700000.0 -12587100000.0 -12569300000.0 -12697800000.0 -12597000000.0 -12628300000.0 -12655700000.0 -12627000000.0 -12582100000.0 -12573600000.0 -12575000000.0 -12628800000.0 -12557300000.0 -12567900000.0 -12573700000.0 -12582500000.0 -12573100000.0 -12566800000.0 -12625700000.0 -12679100000.0 -12606500000.0 -12556300000.0 -12619800000.0 -12558000000.0 -12760900000.0 -12590100000.0 -12662300000.0 -12588900000.0 -12571200000.0 -12549700000.0 -12646000000.0 -12552400000.0 -12554700000.0 -12567400000.0 -12561500000.0 -12573100000.0 -12571600000.0 -12611000000.0 -12550000000.0 -12596500000.0 -12555700000.0 -12657800000.0 -12732000000.0 -12549700000.0 -12559100000.0 -12625600000.0 -12549700000.0 -12577100000.0 -12573100000.0 -12576100000.0 -12621700000.0 -12552800000.0 -12553200000.0 -12549700000.0 -12549700000.0 -12578800000.0 -12576500000.0 -12622600000.0 -12614000000.0 -12561800000.0 -12595000000.0 -12555000000.0 -12557100000.0 -12713900000.0 -12576000000.0 -12571100000.0 -12621800000.0 -12560900000.0 -12566000000.0 -12593000000.0 -12557300000.0 -12552900000.0 -12552400000.0 -12549700000.0 -12549700000.0 -12549700000.0 -12553800000.0 -12552500000.0 -12570600000.0 -12571100000.0 -12565300000.0 -12585700000.0 -12563700000.0 -12603700000.0 -12580000000.0 -12581100000.0 -12713700000.0 -12557400000.0 -12559800000.0 -12566700000.0 -12598800000.0 -12567100000.0 -12610800000.0 -12593200000.0 -12571700000.0 -12559000000.0 -12551500000.0 -12549700000.0 -12549700000.0 -12549700000.0 -12549700000.0 -12549700000.0 -12549700000.0 -12549700000.0 -12549700000.0 -12549700000.0 -12549700000.0 -12549700000.0 -12549700000.0 -12549700000.0 -12549700000.0 -12549700000.0 -12549700000.0 -12549700000.0 -12549700000.0 -12549700000.0 -12549700000.0 -12549700000.0 -12549700000.0 -12549700000.0 -12549700000.0 -12549700000.0 -12549700000.0 -12549700000.0 -12549700000.0 -12551100000.0 -12567100000.0 -12559400000.0 -12557100000.0 -12571500000.0 -12584600000.0 -12586500000.0 -12562500000.0 -12585100000.0 -12715600000.0 -12562700000.0 -12553500000.0 -12551700000.0 -12606100000.0 -12613500000.0 -12564700000.0 -12561600000.0 -12553700000.0 -12550100000.0 -12549700000.0 -12549700000.0 -12549700000.0 -12549700000.0 -12549700000.0 -12549700000.0 -12549700000.0 -12549700000.0 -12549700000.0 -12549700000.0 -12549700000.0 -12549700000.0 -12549700000.0 -12549700000.0 -12549700000.0 -12549700000.0 -12549700000.0 -12549700000.0 -12549700000.0 -12549700000.0 -12549700000.0 -12549700000.0 -12549700000.0 -12549700000.0 -12549700000.0 -12549700000.0 -12549700000.0 -12549700000.0 -12549700000.0 -12563900000.0 -12555900000.0 -12550200000.0 -12555700000.0 -12555100000.0 -12575800000.0 -12569800000.0 -12616900000.0 -12608000000.0 -12591000000.0 -12573900000.0 -12588300000.0 -12653200000.0 -12561600000.0 -12565600000.0 -12551500000.0 -12591600000.0 -12581000000.0 -12551100000.0 -12549900000.0 -12549800000.0 -12572000000.0 -12553000000.0 -12550900000.0 -12549700000.0 -12549700000.0 -12549700000.0 -12549700000.0 -12549700000.0 -12549700000.0 -12549700000.0 -12549700000.0 -12549700000.0 -12549700000.0 -12549700000.0 -12549700000.0 -12549700000.0 -12549700000.0 -12549700000.0 -12549700000.0 -12549700000.0 -12549700000.0 -12549700000.0 -12549700000.0 -12549700000.0 -12549700000.0 -12549700000.0 -12549700000.0 -12549700000.0 -12549700000.0 -12549700000.0 -12549700000.0 -12549700000.0 -12549700000.0 -12549700000.0 -12549700000.0 -12549700000.0 -12549700000.0 -12549700000.0 -12549700000.0 -12549700000.0 -12549700000.0 -12549700000.0 -12549900000.0 -12550900000.0 -12551500000.0 -12552500000.0 -12553600000.0 -12567900000.0 -12558700000.0 -12557700000.0 -12580000000.0 -12585300000.0 -12570900000.0 -12557800000.0 -12565100000.0 -12575900000.0 -12657700000.0 -12570600000.0 -12606900000.0 -12588800000.0 -12553000000.0 -12553400000.0 -12564400000.0 -12571900000.0 -12550200000.0 -12552000000.0 -12553000000.0 -12550800000.0 -12550000000.0 -12549900000.0 -12549700000.0 -12549700000.0 -12549700000.0 -12549700000.0 -12549700000.0 -12549700000.0 -12549700000.0 -12549700000.0 -12549700000.0 -12549700000.0 -12549700000.0 -12549700000.0 -12549700000.0 -12549700000.0 -12549700000.0 -12549700000.0 -12549700000.0 -12549700000.0 -12549700000.0 -12549700000.0 -12549700000.0 -12549700000.0 -12549700000.0 -12549700000.0 -12549700000.0 -12549700000.0 -12549700000.0 -12549700000.0 -12549700000.0 -12549700000.0 -12549700000.0 -12549700000.0 -12549700000.0 -12549700000.0 -12549700000.0 -12549700000.0 -12549700000.0 -12549700000.0 -12549700000.0 -12549700000.0 -12549700000.0 -12549700000.0 -12549700000.0 -12549700000.0 -12549700000.0 -12549700000.0 -12550100000.0 -12558200000.0 -12566900000.0 -12569500000.0 -12564400000.0 -12563800000.0 -12578200000.0 -12570800000.0 -12578800000.0 -12607100000.0 -12595300000.0 -12632900000.0 -12620400000.0 -12579400000.0 -12600700000.0 -12551700000.0 -12565000000.0 -12565800000.0 -12556600000.0 -12549700000.0 -12552300000.0 -12550000000.0 -12549700000.0 -12549700000.0 -12549700000.0 -12549700000.0 -12549700000.0 -12549700000.0 -12549700000.0 -12549700000.0 -12549700000.0 -12549700000.0 -12549700000.0 -12549700000.0 -12549700000.0 -12549700000.0 -12549700000.0 -12549700000.0 -12549700000.0 -12549700000.0 -12549700000.0 -12549700000.0 -12549700000.0 -12549700000.0 -12549700000.0 -12549700000.0 -12549700000.0 -12549700000.0 -12549700000.0 -12549700000.0 -12549700000.0 -12549700000.0 -12549700000.0 -12549700000.0 -12549700000.0 -12549700000.0 -12549700000.0 -12549700000.0 -12549700000.0 -12549700000.0 -12549700000.0 -12549700000.0 -12549700000.0 -12549700000.0 -12549700000.0 -12549700000.0 -12549700000.0 -12549700000.0 -12550100000.0 -12554800000.0 -12552300000.0 -12555500000.0 -12551700000.0 -12569400000.0 -12549700000.0 -12566100000.0 -12561900000.0 -12560400000.0 -12587400000.0 -12569500000.0 -12615300000.0 -12599800000.0 -12549700000.0 -12550400000.0 -12590200000.0 -12627500000.0 -12587500000.0 -12559700000.0 -12555900000.0 -12549900000.0 -12550400000.0 -12549700000.0 -12549700000.0 -12549700000.0 -12549700000.0 -12549700000.0 -12549700000.0 -12549700000.0 -12549700000.0 -12549700000.0 -12549700000.0 -12549700000.0 -12549700000.0 -12549700000.0 -12549700000.0 -12549700000.0 -12549700000.0 -12549700000.0 -12549700000.0 -12549700000.0 -12549700000.0 -12549700000.0 -12549700000.0 -12549700000.0 -12549700000.0 -12549700000.0 -12549700000.0 -12549700000.0 -12549700000.0 -12549700000.0 -12549700000.0 -12549700000.0 -12549700000.0 -12549700000.0 -12549700000.0 -12549700000.0 -12549700000.0 -12549700000.0 -12549700000.0 -12549700000.0 -12549700000.0 -12549700000.0 -12549700000.0 -12549700000.0 -12549700000.0 -12549700000.0 -12549700000.0 -12549700000.0 -12549700000.0 -12549700000.0 -12549700000.0 -12549700000.0 -12549700000.0 -12550300000.0 -12550700000.0 -12552100000.0 -12556000000.0 -12553400000.0 -12550500000.0 -12571300000.0 -12580600000.0 -12575200000.0 -12565900000.0 -12582800000.0 -12586400000.0 -12561600000.0 -12559900000.0 -12554700000.0 -12589400000.0 -12579900000.0 -12551400000.0 -12586000000.0 -12568000000.0 -12568700000.0 -12553700000.0 -12550500000.0 -12550300000.0 -12551400000.0 -12549700000.0 -12549700000.0 -12549700000.0 -12549700000.0 -12549700000.0 -12549700000.0 -12549700000.0 -12549700000.0 -12549700000.0 -12549700000.0 -12549700000.0 -12549700000.0 -12549700000.0 -12549700000.0 -12549700000.0 -12549700000.0 -12549700000.0 -12549700000.0 -12549700000.0 -12549700000.0 -12549700000.0 -12549700000.0 -12549700000.0 -12549700000.0 -12549700000.0 -12549700000.0 -12549700000.0 -12549700000.0 -12549700000.0 -12549700000.0 -12549700000.0 -12549700000.0 -12549700000.0 -12549700000.0 -12549700000.0 -12549700000.0 -12549700000.0 -12549700000.0 -12549700000.0 -12549700000.0 -12549700000.0 -12549700000.0 -12549700000.0 -12549700000.0 -12560200000.0 -12570800000.0 -12549700000.0 -12550900000.0 -12555200000.0 -12552700000.0 -12563100000.0 -12554300000.0 -12549800000.0 -12571200000.0 -12552800000.0 -12553300000.0 -12552900000.0 -12572500000.0 -12568600000.0 -12576900000.0 -12549700000.0 -12569200000.0 -12554300000.0 -12552200000.0 -12549800000.0 -12549700000.0 -12549700000.0 -12549700000.0 -12549700000.0 -12549700000.0 -12549700000.0 -12549700000.0 -12549700000.0 -12549700000.0 -12549700000.0 -12549700000.0 -12549700000.0 -12549700000.0 -12549700000.0 -12549700000.0 -12549700000.0 -12549700000.0 -12549700000.0 -12549700000.0 -12549700000.0 -12549700000.0 -12549700000.0 -12549700000.0 -12549700000.0 -12549700000.0 -12549700000.0 -12549700000.0 -12549700000.0 -12549700000.0 -12549700000.0 -12549700000.0 -12549700000.0 -12549700000.0 -12549700000.0 -12549700000.0 -12549700000.0 -12549700000.0 -12549700000.0 -12549700000.0 -12549700000.0 -12549700000.0 -12549700000.0 -12549700000.0 -12550600000.0 -12550200000.0 -12563600000.0 -12551100000.0 -12552800000.0 -12552100000.0 -12557300000.0 -12550200000.0 -12553100000.0 -12565800000.0 -12550400000.0 -12551900000.0 -12550900000.0 -12549700000.0 -12590800000.0 -12582400000.0 -12549700000.0 -12550400000.0 -12560300000.0 -12551400000.0 -12549700000.0 -12549700000.0 -12549700000.0 -12549700000.0 -12549700000.0 -12549700000.0 -12549700000.0 -12549700000.0 -12549700000.0 -12549700000.0 -12549700000.0 -12549700000.0 -12549700000.0 -12549700000.0 -12549700000.0 -12549700000.0 -12549700000.0 -12549700000.0 -12549700000.0 -12549700000.0 -12549700000.0 -12549700000.0 -12549700000.0 -12549700000.0 -12549700000.0 -12549700000.0 -12549700000.0 -12549700000.0 -12549700000.0 -12549700000.0 -12549700000.0 -12549700000.0 -12549700000.0 -12549700000.0 -12549700000.0 -12549700000.0 -12549700000.0 -12549700000.0 -12549700000.0 -12549700000.0 -12557500000.0 -12551200000.0 -12558800000.0 -12551300000.0 -12551600000.0 -12552000000.0 -12553600000.0 -12549700000.0 -12557500000.0 -12558200000.0 -12557200000.0 -12550100000.0 -12574700000.0 -12553700000.0 -12578500000.0 -12559100000.0 -12559800000.0 -12550900000.0 -12549700000.0 -12549700000.0 -12549700000.0 -12549700000.0 -12549700000.0 -12549700000.0 -12549700000.0 -12549700000.0 -12549700000.0 -12549700000.0 -12549700000.0 -12549700000.0 -12549700000.0 -12549700000.0 -12549700000.0 -12549700000.0 -12549700000.0 -12549700000.0 -12549700000.0 -12549700000.0 -12549700000.0 -12549700000.0 -12549700000.0 -12549700000.0 -12549700000.0 -12549700000.0 -12549700000.0 -12549700000.0 -12549700000.0 -12549700000.0 -12549700000.0 -12549700000.0 -12549700000.0 -12549700000.0 -12549700000.0 -12549700000.0 -12549700000.0 -12549700000.0 -12549700000.0 -12549700000.0 -12549700000.0 -12549700000.0 -12549700000.0 -12549700000.0 -12549700000.0 -12549700000.0 -12552800000.0 -12554500000.0 -12552700000.0 -12551800000.0 -12552500000.0 -12552800000.0 -12557000000.0 -12564400000.0 -12559500000.0 -12570300000.0 -12582800000.0 -12555000000.0 -12561400000.0 -12560900000.0 -12554200000.0 -12556600000.0 -12551500000.0 -12550400000.0 -12549700000.0 -12549700000.0 -12549700000.0 -12549700000.0 -12549700000.0 -12549700000.0 -12549700000.0 -12549700000.0 -12549700000.0 -12549700000.0 -12549700000.0 -12549700000.0 -12549700000.0 -12549700000.0 -12549700000.0 -12549700000.0 -12549700000.0 -12549700000.0 -12549700000.0 -12549700000.0 -12549700000.0 -12549700000.0 -12549700000.0 -12549700000.0 -12549700000.0 -12549700000.0 -12549700000.0 -12549700000.0 -12549700000.0 -12549700000.0 -12549700000.0 -12549700000.0 -12549700000.0 -12552400000.0 -12550200000.0 -12553600000.0 -12549700000.0 -12551600000.0 -12560700000.0 -12555900000.0 -12552900000.0 -12559500000.0 -12550100000.0 -12561800000.0 -12549700000.0 -12563500000.0 -12558500000.0 -12551200000.0 -12553500000.0 -12554000000.0 -12549700000.0 -12549900000.0 -12550000000.0 -12549700000.0 -12549700000.0 -12549700000.0 -12549700000.0 -12549700000.0 -12549700000.0 -12549700000.0 -12549700000.0 -12549700000.0 -12549700000.0 -12549700000.0 -12549700000.0 -12549700000.0 -12549700000.0 -12549700000.0 -12549700000.0 -12549700000.0 -12549700000.0 -12549700000.0 -12549700000.0 -12549700000.0 -12549700000.0 -12549700000.0 -12549700000.0 -12549700000.0 -12549900000.0 -12552000000.0 -12550100000.0 -12553300000.0 -12550200000.0 -12551600000.0 -12553800000.0 -12555200000.0 -12554000000.0 -12549700000.0 -12555400000.0 -12558600000.0 -12550300000.0 -12552800000.0 -12563100000.0 -12552200000.0 -12555800000.0 -12553300000.0 -12551600000.0 -12552600000.0 -12551800000.0 -12549700000.0 -12549700000.0 -12549700000.0 -12549700000.0 -12549700000.0 -12549700000.0 -12549700000.0 -12549700000.0 -12549700000.0 -12549700000.0 -12549700000.0 -12549700000.0 -12549700000.0 -12549700000.0 -12549700000.0 -12549700000.0 -12549700000.0 -12549700000.0 -12549700000.0 -12549700000.0 -12549700000.0 -12549700000.0 -12549700000.0 -12549700000.0 -12553300000.0 -12553800000.0 -12550700000.0 -12553900000.0 -12554400000.0 -12555900000.0 -12559700000.0 -12555500000.0 -12556800000.0 -12559500000.0 -12559700000.0 -12549700000.0 -12563400000.0 -12550300000.0 -12553700000.0 -12554900000.0 -12549800000.0 -12549700000.0 -12549700000.0 -12551300000.0 -12550300000.0 -12550800000.0 -12549700000.0 -12549700000.0 -12549700000.0 -12549700000.0 -12549700000.0 -12549700000.0 -12549700000.0 -12549700000.0 -12549700000.0 -12549700000.0 -12549700000.0 -12549700000.0 -12549700000.0 -12549700000.0 -12549700000.0 -12549700000.0 -12549700000.0 -12550000000.0 -12551700000.0 -12550400000.0 -12550800000.0 -12550800000.0 -12550300000.0 -12551100000.0 -12554000000.0 -12553500000.0 -12556500000.0 -12554400000.0 -12550200000.0 -12549800000.0 -12559400000.0 -12549700000.0 -12553200000.0 -12549700000.0 -12550700000.0 -12551100000.0 -12549900000.0 -12550000000.0 -12549700000.0 -12549700000.0 -12549700000.0 -12549700000.0 -12549700000.0 -12549700000.0 -12549700000.0 -12549700000.0 -12549700000.0 -12549700000.0 -12549700000.0 -12549700000.0 -12549700000.0 -12549700000.0 -12549700000.0 -12549700000.0 -12549700000.0 -12549800000.0 -12550900000.0 -12551100000.0 -12551000000.0 -12549700000.0 -12550800000.0 -12549900000.0 -12551000000.0 -12553100000.0 -12550400000.0 -12550900000.0 -12550400000.0 -12551300000.0 -12550200000.0 -12549700000.0 -12551600000.0 -12550100000.0 -12556500000.0 -12552700000.0 -12553100000.0 -12549700000.0 -12550100000.0 -12549700000.0 -12549700000.0 -12549700000.0 -12549700000.0 -12549700000.0 -12549700000.0 -12549700000.0 -12549700000.0 -12549700000.0 -12549700000.0 -12549700000.0 -12549700000.0 -12549700000.0 -12550000000.0 -12550400000.0 -12549700000.0 -12549700000.0 -12549800000.0 -12549700000.0 -12550100000.0 -12551400000.0 -12549800000.0 -12549700000.0 -12550900000.0 -12550400000.0 -12551000000.0 -12551500000.0 -12552600000.0 -12549700000.0 -12553300000.0 -12549700000.0 -12549800000.0 -12549700000.0 -12549700000.0 -12549700000.0 -12549700000.0 -12549700000.0 -12549700000.0 -12549700000.0 -12549700000.0 -12549700000.0 -12549700000.0 -12549700000.0 -12550000000.0 -12549800000.0 -12549700000.0 -12549700000.0 -12550700000.0 -12550300000.0 -12549900000.0 -12549700000.0 -12549700000.0 -12551000000.0 -12550300000.0 -12550400000.0 -12549700000.0 -12550100000.0 -12550500000.0 -12549700000.0 -12550100000.0 -12549800000.0 -12549700000.0 -12551900000.0 -12551100000.0 -12550100000.0 -12549700000.0 -12549700000.0 -12549700000.0 -12549700000.0 -12549700000.0 -12549700000.0 -12549900000.0 -12549700000.0 -12549800000.0 -12549700000.0 -12550000000.0 -12550300000.0 -12550800000.0 -12549700000.0 -12549800000.0 -12549700000.0 -12549700000.0 -12549800000.0 -12549700000.0 -12549700000.0 -12549700000.0 -12549700000.0 -12549900000.0 -12549700000.0 -12549700000.0 -12549700000.0 -12549700000.0 -12549700000.0 -12549700000.0 -12549700000.0 -12549700000.0 -12549700000.0 -12549700000.0 -12549700000.0 -12549700000.0 -12549700000.0 -12549700000.0 -12549700000.0 -12549700000.0 -12549700000.0 -12549800000.0 -12549800000.0 -12550100000.0 -12549700000.0 -12549700000.0 -12549700000.0 -12549700000.0 -12549700000.0 -12549700000.0 -12549700000.0 -12549700000.0 -12549700000.0 -12549700000.0 -12549700000.0 -12549700000.0 -12549700000.0 -12549700000.0 -12549700000.0 -12549700000.0 -12549700000.0 -12549700000.0 -12549700000.0 -12549700000.0 -12549700000.0 -12549700000.0 -12549700000.0 -12549700000.0 -12549700000.0 -12549700000.0 -12549700000.0 -12549700000.0 -12549700000.0 -2.66722e+12 -4.12053e+12 -3.67637e+12 -4.85578e+12 -4.04123e+12 -4.10354e+12 -3.92391e+12 -3.77822e+12 -3.53892e+12 -3.18893e+12 -5.79449e+12 -3.00196e+12 -3.50294e+12 -5.10606e+12 -4.78284e+12 -6.33741e+12 -4.40339e+12 -3.20081e+12 -3.93442e+12 -3.02611e+12 -4.30225e+12 -5.18913e+12 -5.40586e+12 -4.94633e+12 -4.91308e+12 -3.71533e+12 -3.64016e+12 -3.92397e+12 -4.41002e+12 -4.04218e+12 -5.43846e+12 -5.24272e+12 -3.42737e+12 -2.62668e+12 -2.98972e+12 -3.79292e+12 -4.64518e+12 -6.27168e+12 -3.59859e+12 -4.5342e+12 -4.62746e+12 -3.83536e+12 -3.61487e+12 -3.15616e+12 -3.80263e+12 -3.62816e+12 -2.34774e+12 -2.69971e+12 -3.72702e+12 -2.78318e+12 -2.11694e+12 -1.79804e+12 -3.47279e+12 -4.82872e+12 -5.39818e+12 -4.03296e+12 -6.67551e+12 -4.48176e+12 -3.01491e+12 -4.72679e+12 -4.50248e+12 -4.23926e+12 -3.93539e+12 -5.93439e+12 -6.56589e+12 -5.34016e+12 -3.74884e+12 -5.32887e+12 -7.39235e+12 -4.57358e+12 -5.02725e+12 -5.73952e+12 -4.64585e+12 -4.4568e+12 -6.68477e+12 -6.00774e+12 -2.582e+12 -4.09648e+12 -3.8493e+12 -3.78911e+12 -4.67135e+12 -4.06122e+12 -3.9415e+12 -5.22606e+12 -4.63989e+12 -3.8965e+12 -4.43883e+12 -4.57195e+12 -2.70767e+12 -5.22868e+12 -4.18512e+12 -5.78377e+12 -6.51006e+12 -6.15701e+12 -5.77158e+12 -5.17026e+12 -4.70325e+12 -6.50731e+12 -4.14894e+12 -4.71009e+12 -6.27149e+12 -4.00661e+12 -4.89512e+12 -2.84834e+12 -2.59765e+12 -6.62089e+12 -5.44358e+12 -8.60551e+12 -6.14852e+12 -6.10459e+12 -7.73165e+12 -1.11409e+13 -5.47964e+12 -7.25868e+12 -4.07474e+12 -5.71665e+12 -4.73094e+12 -7.20259e+12 -7.03513e+12 -1.86864e+12 -5.1998e+12 -6.89298e+12 -4.28021e+12 -4.76656e+12 -6.09228e+12 -2.51547e+12 -5.82603e+12 -5.47127e+12 -6.83244e+12 -7.16523e+12 -1.11858e+13 -5.34717e+12 -6.22211e+12 -6.34001e+12 -5.45101e+12 -9.0736e+12 -7.69315e+12 -8.75472e+12 -5.61408e+12 -5.77328e+12 -8.90901e+12 -9.28681e+12 -8.0374e+12 -5.47167e+12 -5.22538e+12 -7.45323e+12 -6.32112e+12 -7.70165e+12 -7.09158e+12 -6.62897e+12 -6.98887e+12 -4.73445e+12 -8.2708e+12 -7.48459e+12 -1.08707e+13 -2.77263e+12 -3.95909e+12 -3.16669e+12 -5.00837e+12 -7.74364e+12 -8.23359e+12 -6.03853e+12 -4.82705e+12 -5.29811e+12 -6.86132e+12 -6.56245e+12 -2.89309e+12 -4.34272e+12 -4.1266e+12 -4.9442e+12 -4.69646e+12 -5.84791e+12 -5.0663e+12 -6.46315e+12 -9.19034e+12 -5.00189e+12 -4.0858e+12 -6.07538e+12 -3.85311e+12 -7.12035e+12 -6.39715e+12 -7.21198e+12 -3.71838e+12 -4.7752e+12 -4.94533e+12 -3.70919e+12 -2.42903e+12 -5.42134e+12 -4.31052e+12 -8.69393e+12 -8.11852e+12 -2.28654e+12 -5.25267e+12 -1.01825e+13 -3.26853e+12 -4.99005e+12 -3.96834e+12 -2.36832e+12 -7.16631e+12 -5.20116e+12 -7.55637e+12 -4.30367e+12 -4.24365e+12 -6.28703e+12 -6.16522e+12 -1.06672e+13 -6.56638e+12 -1.03287e+13 -7.26195e+12 -5.23916e+12 -9.01094e+12 -7.82059e+12 -5.34329e+12 -6.57111e+12 -7.66373e+12 -7.36389e+12 -4.62612e+12 -6.74517e+12 -8.82763e+12 -1.03475e+13 -5.12763e+12 -7.66654e+12 -7.81459e+12 -4.62259e+12 -5.67046e+12 -4.94328e+12 -8.36068e+12 -6.42983e+12 -6.83359e+12 -8.40338e+12 -6.82334e+12 -6.27824e+12 -7.10095e+12 -6.22363e+12 -5.61966e+12 -5.49187e+12 -1.4862e+12 -2.9279e+12 -4.98014e+12 -4.30664e+12 -5.56984e+12 -6.44049e+12 -8.51879e+12 -6.92097e+12 -1.02183e+13 -5.62683e+12 -4.92543e+12 -6.38011e+12 -7.26724e+12 -3.83251e+12 -6.44194e+12 -8.29551e+12 -7.11623e+12 -4.96184e+12 -6.02417e+12 -8.03036e+12 -6.4394e+12 -5.9181e+12 -9.85855e+12 -5.40761e+12 -7.21902e+12 -6.97068e+12 -8.22142e+12 -8.12714e+12 -4.109e+12 -5.48289e+12 -4.70641e+12 -6.52453e+12 -7.27585e+12 -6.95846e+12 -5.09087e+12 -7.7999e+12 -6.07471e+12 -5.41477e+12 -5.11463e+12 -7.43906e+12 -9.08916e+12 -4.72401e+12 -6.39021e+12 -1.74903e+12 -3.55701e+12 -4.62908e+12 -6.71595e+12 -6.87191e+12 -4.23115e+12 -5.92605e+12 -2.25268e+12 -5.59414e+12 -7.26932e+12 -5.6532e+12 -5.96145e+12 -4.96841e+12 -5.73103e+12 -6.96315e+12 -6.60707e+12 -6.69937e+12 -6.89042e+12 -5.00346e+12 -8.63662e+12 -7.61897e+12 -6.15754e+12 -5.74931e+12 -5.40801e+12 -8.39951e+12 -6.5238e+12 -4.95755e+12 -7.61632e+12 -6.5293e+12 -6.47745e+12 -8.38081e+12 -5.83063e+12 -3.93429e+12 -9.9779e+12 -9.07394e+12 -6.04089e+12 -4.79479e+12 -9.58924e+12 -4.1624e+12 -7.48506e+12 -5.40778e+12 -5.39546e+12 -6.24993e+12 -7.16498e+12 -3.91622e+12 -1.06628e+13 -8.06306e+12 -4.50975e+12 -7.39431e+12 -3.98989e+12 -4.93346e+12 -7.10418e+12 -4.99426e+12 -4.77223e+12 -4.07209e+12 -5.12893e+12 -3.11141e+12 -4.79891e+12 -4.54887e+12 -4.42494e+12 -6.18168e+12 -6.56224e+12 -1.09611e+13 -8.10455e+12 -9.41168e+12 -6.79603e+12 -2.96935e+12 -6.74223e+12 -5.7944e+12 -2.65797e+12 -4.45897e+12 -3.84463e+12 -5.89987e+12 -4.26858e+12 -3.83504e+12 -7.53788e+12 -5.64322e+12 -5.48908e+12 -4.05949e+12 -5.78191e+12 -1.03781e+13 -6.62657e+12 -6.1084e+12 -3.86356e+12 -9.34979e+12 -9.62549e+12 -7.63384e+12 -3.75008e+12 -7.96655e+12 -4.60614e+12 -6.12256e+12 -4.86347e+12 -6.40827e+12 -6.14396e+12 -5.10924e+12 -6.51896e+12 -6.52483e+12 -6.09952e+12 -4.4559e+12 -7.29311e+12 -8.10536e+12 -4.9653e+12 -5.83631e+12 -8.34101e+12 -3.92196e+12 -3.78574e+12 -3.68246e+12 -5.73855e+12 -5.94966e+12 -4.04267e+12 -5.90789e+12 -3.87814e+12 -5.27467e+12 -5.01844e+12 -6.04081e+12 -7.57536e+12 -9.01963e+12 -4.62194e+12 -4.13161e+12 -3.0705e+12 -2.143e+12 -6.59963e+12 -4.42169e+12 -8.96194e+12 -7.35436e+12 -6.20638e+12 -6.90233e+12 -1.01521e+13 -5.10708e+12 -3.77683e+12 -4.60159e+12 -5.91638e+12 -4.81826e+12 -4.98477e+12 -6.30411e+12 -4.83861e+12 -6.1454e+12 -4.95198e+12 -4.98696e+12 -4.16211e+12 -5.21162e+12 -4.13831e+12 -4.67431e+12 -4.1703e+12 -7.32662e+12 -7.36273e+12 -8.21767e+12 -7.21432e+12 -4.05546e+12 -4.85317e+12 -4.32636e+12 -3.55579e+12 -2.31673e+12 -6.15919e+12 -4.47529e+12 -4.45726e+12 -5.19334e+12 -8.07334e+12 -6.64872e+12 -7.40881e+12 -6.04879e+12 -4.24322e+12 -5.427e+12 -5.44417e+12 -3.28142e+12 -5.95231e+12 -3.87114e+12 -5.66595e+12 -7.63244e+12 -5.33491e+12 -4.59306e+12 -6.09602e+12 -6.24143e+12 -6.16056e+12 -6.84182e+12 -5.58303e+12 -3.63455e+12 -4.06438e+12 -5.16621e+12 -3.21713e+12 -4.56643e+12 -5.91533e+12 -4.43143e+12 -5.27953e+12 -3.83635e+12 -7.94314e+12 -4.7889e+12 -7.82441e+12 -5.31933e+12 -4.45053e+12 -5.88599e+12 -4.33182e+12 -5.98202e+12 -7.34487e+12 -5.74072e+12 -4.24144e+12 -8.27813e+12 -4.34438e+12 -8.62642e+12 -3.44545e+12 -3.52922e+12 -3.01046e+12 -2.93402e+12 -2.3053e+12 -3.76416e+12 -3.78462e+12 -8.54028e+12 -2.91835e+12 -3.62412e+12 -3.0262e+12 -5.13088e+12 -5.44825e+12 -5.5399e+12 -4.68025e+12 -2.56797e+12 -5.01175e+12 -7.54462e+12 -6.80043e+12 -7.68119e+12 -6.34184e+12 -6.79668e+12 -3.56761e+12 -4.02949e+12 -5.74249e+12 -6.27012e+12 -6.02795e+12 -7.57136e+12 -4.39871e+12 -5.87834e+12 -5.52258e+12 -5.77279e+12 -3.2961e+12 -3.58662e+12 -4.26576e+12 -5.51274e+12 -5.30582e+12 -3.5336e+12 -4.41597e+12 -4.32707e+12 -7.35318e+12 -3.17909e+12 -4.05055e+12 -2.80283e+12 -7.11928e+12 -4.35889e+12 -5.71852e+12 -3.77917e+12 -4.22482e+12 -4.94527e+12 -2.97459e+12 -4.44153e+12 -1.00822e+13 -4.38087e+12 -6.67428e+12 -7.97691e+12 -4.1612e+12 -4.49797e+12 -648741000000.0 -5.97137e+12 -4.12588e+12 -9.69432e+12 -4.2162e+12 -5.00769e+12 -5.29618e+12 -4.94203e+12 -4.18675e+12 -3.77938e+12 -4.59908e+12 -2.95317e+12 -4.88369e+12 -4.2062e+12 -7.00571e+12 -6.11462e+12 -4.69268e+12 -2.74215e+12 -6.76285e+12 -6.66157e+12 -4.10706e+12 -8.11561e+12 -6.0527e+12 -5.17737e+12 -7.52939e+12 -7.50737e+12 -4.17679e+12 -7.21453e+12 -2.81101e+12 -6.05029e+12 -6.76699e+12 -5.8318e+12 -3.42548e+12 -3.76813e+12 -6.77287e+12 -5.17623e+12 -7.61178e+12 -7.27458e+12 -6.03643e+12 -7.58846e+12 -3.12348e+12 -4.41391e+12 -4.94911e+12 -3.52008e+12 -4.67843e+12 -5.41931e+12 -5.60884e+12 -2.19724e+12 -2.30758e+12 -2.8756e+12 -2.03265e+12 -5.04119e+12 -7.25651e+12 -4.44264e+12 -3.72672e+12 -3.67865e+12 -3.76321e+12 -2.80679e+12 -7.37002e+12 -4.66032e+12 -4.07629e+12 -3.91916e+12 -5.26669e+12 -6.4258e+12 -5.43205e+12 -3.05258e+12 -3.97387e+12 -3.6857e+12 -4.44953e+12 -3.74452e+12 -5.3413e+12 -4.9439e+12 -5.3917e+12 -3.19761e+12 -3.42126e+12 -6.28042e+12 -4.99946e+12 -4.25861e+12 -5.14216e+12 -3.36544e+12 -1.98485e+12 -3.65747e+12 -4.60116e+12 -5.65931e+12 -5.91727e+12 -7.27497e+12 -2.59672e+12 -2.90454e+12 -4.46323e+12 -3.43654e+12 -4.40901e+12 -5.87992e+12 -2.22166e+12 -6.08457e+12 -4.49519e+12 -4.97797e+12 -6.16614e+12 -5.27855e+12 -4.46301e+12 -3.26171e+12 -2.75356e+12 -5.24661e+12 -3.61514e+12 -6.36723e+12 -7.63736e+12 -5.66678e+12 -5.6801e+12 -3.25021e+12 -6.83182e+12 -5.47772e+12 -2.00986e+12 -5.80314e+12 -2.45784e+12 -6.28085e+12 -6.16092e+12 -4.36647e+12 -5.75828e+12 -3.91705e+12 -4.66962e+12 -6.11961e+12 -5.43959e+12 -5.82823e+12 -6.00597e+12 -5.81293e+12 -5.68943e+12 -6.17043e+12 -5.20025e+12 -2.50944e+12 -6.32812e+12 -5.29432e+12 -1.67937e+12 -4.73949e+12 -3.58115e+12 -1.44138e+12 -4.80281e+12 -5.26064e+12 -4.24857e+12 -5.65614e+12 -3.67577e+12 -4.80373e+12 -8.5686e+12 -3.34701e+12 -3.77409e+12 -5.48428e+12 -3.18658e+12 -6.64159e+12 -3.21464e+12 -5.51577e+12 -4.1937e+12 -3.89165e+12 -4.98717e+12 -3.93741e+12 -3.51243e+12 -5.96701e+12 -5.43678e+12 -1.98845e+12 -6.50961e+12 -2.48201e+12 -3.87894e+12 -5.51663e+12 -3.79606e+12 -4.38586e+12 -3.89601e+12 -3.03294e+12 -4.38164e+12 -4.31557e+12 -6.29258e+12 -1.83547e+12 -4.73429e+12 -4.26779e+12 -5.59075e+12 -5.9843e+12 -6.84052e+12 -3.63971e+12 -4.90203e+12 -4.57821e+12 -3.83691e+12 -2.60643e+12 -4.40361e+12 -3.99184e+12 -3.95971e+12 -4.29579e+12 -6.81093e+12 -6.8879e+12 -4.0483e+12 -8.42601e+12 -2.74022e+12 -5.93572e+12 -2.87591e+12 -4.11119e+12 -3.40952e+12 -3.67402e+12 -2.48944e+12 -3.61171e+12 -6.01947e+12 -4.87721e+12 -5.83275e+12 -5.79699e+12 -3.6982e+12 -6.51708e+12 -3.10966e+12 -2.32181e+12 -5.96827e+12 -5.28324e+12 -4.31101e+12 -1.98381e+12 -2.78883e+12 -6.71647e+12 -2.77905e+12 -4.02274e+12 -6.61232e+12 -3.99253e+12 -5.69635e+12 -2.9407e+12 -4.51626e+12 -5.1421e+12 -3.66205e+12 -4.97696e+12 -3.05464e+12 -5.88407e+12 -4.94672e+12 -2.53341e+12 -4.43681e+12 -5.35473e+12 -2.93228e+12 -3.70651e+12 -2.80279e+12 -3.86427e+12 -4.02064e+12 -4.58507e+12 -2.40492e+12 -3.82644e+12 -3.03149e+12 -4.60445e+12 -5.32578e+12 -2.66433e+12 -4.99629e+12 -4.30693e+12 -3.49012e+12 -2.71855e+12 -4.28771e+12 -3.0596e+12 -3.51495e+12 -3.72497e+12 -3.50016e+12 -5.57006e+12 -3.25319e+12 -2.88447e+12 -4.1391e+12 -3.44408e+12 -3.03787e+12 -2.78182e+12 -2.97652e+12 -2.20483e+12 -3.87521e+12 -2.46778e+12 -4.23604e+12 -4.6497e+12 -2.75049e+12 -3.40358e+12 -2.87359e+12 -4.55947e+12 -2.65411e+12 -4.24836e+12 -2.14897e+12 -2.61242e+12 -3.41953e+12 -4.05439e+12 -3.76608e+12 -2.77971e+12 -2.73985e+12 -4.16235e+12 -2.53632e+12 -3.06594e+12 -5.14169e+12 -5.26067e+12 -4.38561e+12 -2.33966e+12 -3.29585e+12 -2.75684e+12 -1.93921e+12 -4.41839e+12 -3.56198e+12 -4.10402e+12 -1.73296e+12 -3.12642e+12 -5.57566e+12 -3.08283e+12 -4.76275e+12 -2.35883e+12 -5.67746e+12 -2.73988e+12 -6.20018e+12 -6.98323e+12 -5.00801e+12 -5.44464e+12 -3.10372e+12 -3.0484e+12 -2.75331e+12 -2.21713e+12 -4.51631e+12 -3.91009e+12 -2.66711e+12 -2.88951e+12 -3.22679e+12 -1.09003e+12 -3.16017e+12 -769706000000.0 -3.88263e+12 -1.46511e+12 -4.61958e+12 -4.50375e+12 -2.89622e+12 -4.32569e+12 -3.0314e+12 -3.0841e+12 -3.97774e+12 -2.27606e+12 -3.47209e+12 -4.08118e+12 -2.23347e+12 -4.58936e+12 -5.43473e+12 -1.59279e+12 -3.05817e+12 -4.33021e+12 -3.05442e+12 -3.67456e+12 -5.76638e+12 -4.0993e+12 -5.28107e+12 -1.94265e+12 -2.60501e+12 -3.2096e+12 -6.88145e+12 -2.74978e+12 -2.21845e+12 -3.09077e+12 -2.06478e+12 -2.01024e+12 -2.20655e+12 -2.8557e+12 -4.61402e+12 -1.9841e+12 -3.05071e+12 -2.69563e+12 -3.80359e+12 -2.03882e+12 -4.57939e+12 -2.52063e+12 -2.14736e+12 -1.62538e+12 -4.00021e+12 -2.72929e+12 -3.07786e+12 -2.45806e+12 -3.20481e+12 -4.35771e+12 -3.4343e+12 -1.82303e+12 -2.91461e+12 -3.67212e+12 -2.35778e+12 -2.63736e+12 -3.15393e+12 -3.52644e+12 -2.78245e+12 -2.70721e+12 -2.85111e+12 -1.93177e+12 -3.83363e+12 -5.16152e+12 -2.06878e+12 -4.16769e+12 -4.85097e+12 -3.50765e+12 -3.36442e+12 -3.08814e+12 -1.46913e+12 -2.96663e+12 -2.97162e+12 -2.66321e+12 -1.39179e+12 -2.83538e+12 -3.00357e+12 -1.7791e+12 -2.80295e+12 -1.16718e+12 -3.27599e+12 -4.29528e+12 -2.95731e+12 -3.33088e+12 -3.06186e+12 -4.33299e+12 -2.90094e+12 -2.88442e+12 -1.70635e+12 -1.74749e+12 -3.28346e+12 -2.97354e+12 -5.78639e+12 -2.06104e+12 -3.76128e+12 -3.72946e+12 -2.15636e+12 -2.21831e+12 -2.93849e+12 -3.25065e+12 -1.59612e+12 -3.62746e+12 -5.34378e+12 -3.20386e+12 -1.67583e+12 -2.35443e+12 -2.25456e+12 -3.03843e+12 -2.66727e+12 -2.5468e+12 -2.48581e+12 -3.02613e+12 -2.50593e+12 -1.98426e+12 -4.24752e+12 -3.23508e+12 -2.18271e+12 -5.12323e+12 -2.86005e+12 -3.62546e+12 -4.10259e+12 -4.91261e+12 -1.77395e+12 -2.81765e+12 -3.55789e+12 -3.27841e+12 -3.04759e+12 -3.43017e+12 -3.70257e+12 -4.70293e+12 -2.39193e+12 -2.91304e+12 -1.89273e+12 -5.01212e+12 -3.41839e+12 -2.48332e+12 -3.45801e+12 -4.611e+12 -3.5509e+12 -3.25766e+12 -2.15039e+12 -2.65268e+12 -2.30213e+12 -2.0632e+12 -2.34073e+12 -202678000000.0 -2.45743e+12 -2.46611e+12 -1.68799e+12 -3.53496e+12 -2.58063e+12 -2.20742e+12 -1.91207e+12 -2.13124e+12 -1.4227e+12 -1.64756e+12 -1.02396e+12 -2.90736e+12 -2.80196e+12 -2.12793e+12 -4.25415e+12 -3.10218e+12 -2.83357e+12 -3.47121e+12 -1.74934e+12 -1.40723e+12 -2.85373e+12 -4.32857e+12 -2.32313e+12 -4.18475e+12 -3.17857e+12 -1.58328e+12 -2.50787e+12 -3.9064e+12 -4.38367e+12 -5.64672e+12 -2.0178e+12 -1.77712e+12 -1.65456e+12 -2.6887e+12 -1.81867e+12 -1.48437e+12 -2.05779e+12 -2.50436e+12 -1.77958e+12 -3.75068e+12 -1.24853e+12 -2.19722e+12 -3.8269e+12 -2.20489e+12 -1.22588e+12 -2.00859e+12 -916218000000.0 -1.19494e+12 -4.08021e+12 -2.795e+12 -1.91467e+12 -2.21311e+12 -3.34631e+12 -1.73508e+12 -3.33256e+12 -1.76101e+12 -2.59422e+12 -3.10999e+12 -3.66836e+12 -2.30086e+12 -2.08688e+12 -2.02835e+12 -2.1939e+12 -1.73917e+12 -1.52507e+12 -3.11377e+12 -4.1426e+12 -5.00428e+12 -2.9802e+12 -4.36657e+12 -3.06013e+12 -3.35872e+12 -1.46265e+12 -3.99723e+12 -1.161e+12 -1.40769e+12 -2.08462e+12 -2.0185e+12 -2.7315e+12 -3.16247e+12 -3.09138e+12 -1.95824e+12 -3.6175e+12 -2.90433e+12 -2.83195e+12 -3.10958e+12 -2.5589e+12 -1.5528e+12 -1.14689e+12 -2.67865e+12 -1.67104e+12 -2.90018e+12 -1.08656e+12 -2.64957e+12 -1.29479e+12 -1.39092e+12 -1.94563e+12 -1.33579e+12 -824872000000.0 -1.79951e+12 -2.12666e+12 -1.45904e+12 -1.37675e+12 -1.24922e+12 -2.27007e+12 -1.67277e+12 -1.80968e+12 -1.36028e+12 -2.07126e+12 -2.09591e+12 -2.40433e+12 -1.99974e+12 -1.70894e+12 -1.78318e+12 -2.68486e+12 -1.13565e+12 -2.36627e+12 -2.4501e+12 -2.26565e+12 -3.61763e+12 -1.43695e+12 -2.22381e+12 -2.21387e+12 -1.53419e+12 -2.73752e+12 -1.48851e+12 -2.49197e+12 -1.0305e+12 -405548000000.0 -1.67626e+12 -2.09977e+12 -3.30692e+12 -2.94901e+12 -2.71944e+12 -1.76585e+12 -1.62891e+12 -1.67379e+12 -1.93585e+12 -3.06443e+12 -1.31177e+12 -2.99272e+12 -1.26639e+12 -1.09637e+12 -2.1766e+12 -1.38093e+12 -777748000000.0 -1.9397e+12 -2.34382e+12 -686683000000.0 -1.90104e+12 -2.53861e+12 -1.91832e+12 -2.86215e+12 -1.76451e+12 -3.29037e+12 -1.12135e+12 -1.74936e+12 -2.42999e+12 -940123000000.0 -1.79498e+12 -1.44551e+12 -3.62541e+12 -2.58607e+12 -2.49122e+12 -880339000000.0 -2.6596e+12 -2.18347e+12 -2.86006e+12 -2.14972e+12 -1.4575e+12 -2.01059e+12 -1.46569e+12 -1.52113e+12 -1.51377e+12 -2.40227e+12 -1.17884e+12 -2.2867e+12 -1.26708e+12 -589008000000.0 -2.55249e+12 -3.14784e+12 -2.90996e+12 -1.27677e+12 -1.96373e+12 -1.80932e+12 -1.93611e+12 -3.07233e+12 -1.68475e+12 -1.93467e+12 -1.16164e+12 -2.15756e+12 -328704000000.0 -2.21563e+12 -461220000000.0 -1.28034e+12 -2.09087e+12 -2.10185e+12 -890063000000.0 -987367000000.0 -1.50734e+12 -943195000000.0 -1.31155e+12 -1.43965e+12 -1.11346e+12 -932256000000.0 -2.23319e+12 -1.5771e+12 -1.83738e+12 -972728000000.0 -1.62359e+12 -1.32601e+12 -2.26302e+12 -844173000000.0 -1.30028e+12 -1.27313e+12 -1.28466e+12 -1.95269e+12 -600438000000.0 -1.14177e+12 -1.17322e+12 -1.07134e+12 -1.14471e+12 -839535000000.0 -2.17185e+12 -1.07085e+12 -1.29845e+12 -1.33068e+12 -1.08446e+12 -427707000000.0 -632874000000.0 -1.93886e+12 -607995000000.0 -1.20055e+12 -1.10771e+12 -2.08453e+12 -516758000000.0 -1.02844e+12 -2.47273e+12 -1.8833e+12 -1.00952e+12 -1.13097e+12 -612722000000.0 -1.57785e+12 -1.25776e+12 -2.25884e+12 -2.12264e+12 -2.47307e+12 -943485000000.0 -693346000000.0 -1.6384e+12 -700831000000.0 -1.49757e+12 -1.77492e+12 -1.46102e+12 -1.74493e+12 -2.03069e+12 -1.94571e+12 -1.14013e+12 -1.09412e+12 -666624000000.0 -882022000000.0 -1.25262e+12 -1.01088e+12 -1.55846e+12 -557920000000.0 -1.11566e+12 -1.92146e+12 -930140000000.0 -1.46008e+12 -1.25847e+12 -1.34574e+12 -2.34086e+12 -2.02113e+12 -1.15814e+12 -1.32951e+12 -1.42538e+12 -396928000000.0 -2.03617e+12 -1.03123e+12 -1.64103e+12 -2.01593e+12 -1.01282e+12 -517872000000.0 -787245000000.0 -1.00592e+12 -909200000000.0 -196698000000.0 -82320400000.0 -1.15495e+12 -353781000000.0 -802240000000.0 -515093000000.0 -707197000000.0 -1.16928e+12 -942727000000.0 -288218000000.0 -667753000000.0 -504013000000.0 -684042000000.0 -244369000000.0 -461585000000.0 -158192000000.0 -359683000000.0 -1.09557e+12 -72059000000.0 -615795000000.0 -254701000000.0 -1.14911e+12 -871081000000.0 -916476000000.0 -738606000000.0 -235209000000.0 -619968000000.0 -247085000000.0 -175465000000.0 -168592000000.0 -153986000000.0 -658277000000.0 -450375000000.0 -538190000000.0 -983653000000.0 -875743000000.0 -447396000000.0 -447003000000.0 -605756000000.0 -210482000000.0 -324262000000.0 -409758000000.0 -226795000000.0 -566405000000.0 -244914000000.0 -345295000000.0 -456290000000.0 -575576000000.0 -255107000000.0 -709030000000.0 -509582000000.0 -306007000000.0 -657604000000.0 -152390000000.0 -880179000000.0 -903556000000.0 -675032000000.0 -268485000000.0 -605831000000.0 -455466000000.0 -745866000000.0 -167369000000.0 -988263000000.0 -429671000000.0 -86774800000.0 -791144000000.0 -181178000000.0 -405079000000.0 -399920000000.0 -371157000000.0 -234769000000.0 -158219000000.0 -255248000000.0 -681540000000.0 -452371000000.0 -1.29499e+12 -1.32452e+12 -883109000000.0 -217294000000.0 -1.22517e+12 -575077000000.0 -323769000000.0 -557593000000.0 -247420000000.0 -358050000000.0 -926956000000.0 -326662000000.0 -267797000000.0 -540948000000.0 -301802000000.0 -485717000000.0 -620006000000.0 -1.03213e+12 -596169000000.0 -178056000000.0 -649236000000.0 -446966000000.0 -258652000000.0 -261281000000.0 -195354000000.0 -271973000000.0 -369420000000.0 -102375000000.0 -270288000000.0 -218780000000.0 -141007000000.0 -197049000000.0 -143975000000.0 