# vtk DataFile Version 2.0
Time step 39
ASCII
DATASET UNSTRUCTURED_GRID
POINTS 5000 float
16747.6 113640.0 0
27669.5 112023.0 0
171830.0 113563.0 0
177734.0 113601.0 0
182938.0 112787.0 0
278881.0 113732.0 0
297319.0 113697.0 0
372012.0 112118.0 0
394019.0 113580.0 0
403649.0 112507.0 0
408587.0 113719.0 0
422737.0 113525.0 0
432479.0 113038.0 0
446252.0 113913.0 0
477063.0 112914.0 0
485844.0 112846.0 0
497601.0 112878.0 0
2398.28 115114.0 0
8532.7 114488.0 0
6061.8 117809.0 0
12438.9 114322.0 0
11086.7 118840.0 0
22243.6 115287.0 0
28518.7 118375.0 0
33204.0 114711.0 0
38184.5 115294.0 0
42703.2 115447.0 0
47472.5 115354.0 0
52137.1 115453.0 0
57005.0 114292.0 0
62763.5 115368.0 0
67994.7 115502.0 0
72702.4 114634.0 0
77500.0 115381.0 0
82500.0 115370.0 0
87407.7 114669.0 0
92500.0 115408.0 0
97192.7 115430.0 0
101292.0 115347.0 0
105946.0 114737.0 0
111936.0 115216.0 0
117850.0 115401.0 0
123330.0 115477.0 0
128345.0 115598.0 0
133428.0 114847.0 0
138124.0 115531.0 0
142500.0 115452.0 0
147500.0 115385.0 0
152501.0 115355.0 0
157589.0 114983.0 0
156861.0 119032.0 0
162561.0 115138.0 0
167011.0 114680.0 0
178375.0 119014.0 0
183532.0 117855.0 0
187393.0 114642.0 0
188603.0 119088.0 0
192498.0 115804.0 0
196079.0 114966.0 0
201748.0 114326.0 0
207651.0 115090.0 0
212985.0 114426.0 0
213692.0 118977.0 0
218128.0 115512.0 0
222480.0 115524.0 0
225794.0 114754.0 0
226802.0 118989.0 0
230434.0 114626.0 0
235810.0 115624.0 0
241170.0 114328.0 0
246502.0 116330.0 0
252679.0 114313.0 0
259052.0 114788.0 0
263773.0 115876.0 0
268740.0 114786.0 0
273935.0 115081.0 0
271611.0 118933.0 0
282030.0 117064.0 0
286325.0 115372.0 0
291717.0 115828.0 0
303664.0 114482.0 0
307730.0 117052.0 0
312126.0 114906.0 0
317928.0 115524.0 0
323245.0 115428.0 0
327581.0 115699.0 0
332206.0 115298.0 0
337223.0 115007.0 0
341019.0 116218.0 0
345896.0 114553.0 0
350687.0 116475.0 0
355259.0 115460.0 0
361815.0 114100.0 0
365114.0 119106.0 0
367954.0 115434.0 0
377031.0 114090.0 0
372930.0 118919.0 0
382609.0 114964.0 0
378819.0 118641.0 0
388132.0 114264.0 0
399200.0 115249.0 0
402998.0 118706.0 0
412474.0 115369.0 0
408387.0 117999.0 0
417500.0 115414.0 0
422128.0 118162.0 0
427271.0 115235.0 0
433428.0 118271.0 0
437539.0 115391.0 0
442089.0 114332.0 0
443214.0 118615.0 0
447601.0 117923.0 0
450665.0 114681.0 0
455208.0 114621.0 0
460242.0 114466.0 0
465794.0 114854.0 0
471628.0 114111.0 0
481305.0 115777.0 0
486589.0 119035.0 0
491674.0 114384.0 0
496837.0 118387.0 0
2284.46 120130.0 0
6739.28 122854.0 0
17332.0 119542.0 0
23004.8 120798.0 0
34968.6 119985.0 0
40341.1 120304.0 0
44463.9 120645.0 0
48279.1 119348.0 0
47588.3 124069.0 0
52500.0 120413.0 0
57995.1 119734.0 0
62849.8 120468.0 0
67505.2 120139.0 0
72116.3 119754.0 0
77500.0 120539.0 0
82116.1 120185.0 0
87907.8 119426.0 0
92500.0 120548.0 0
97183.6 120177.0 0
102467.0 120082.0 0
108243.0 119328.0 0
107924.0 124108.0 0
112500.0 120484.0 0
117500.0 120566.0 0
122500.0 120489.0 0
127727.0 120032.0 0
132494.0 120382.0 0
137520.0 120397.0 0
142774.0 119874.0 0
140993.0 123995.0 0
146927.0 120222.0 0
151938.0 120100.0 0
156245.0 123593.0 0
161297.0 119853.0 0
166509.0 119352.0 0
172971.0 119132.0 0
169997.0 123919.0 0
182187.0 122994.0 0
193570.0 119948.0 0
198250.0 119311.0 0
203920.0 119946.0 0
209356.0 120161.0 0
213300.0 123788.0 0
217601.0 120583.0 0
222033.0 120349.0 0
226872.0 123994.0 0
232205.0 120051.0 0
237686.0 120875.0 0
243284.0 120700.0 0
248461.0 120403.0 0
252678.0 120874.0 0
257263.0 119426.0 0
257737.0 124178.0 0
262325.0 120052.0 0
267062.0 119629.0 0
267489.0 124084.0 0
273046.0 124174.0 0
277074.0 119337.0 0
279878.0 123399.0 0
282828.0 120751.0 0
287500.0 120462.0 0
292912.0 120320.0 0
298249.0 119207.0 0
303118.0 120152.0 0
307442.0 120345.0 0
312501.0 120657.0 0
317476.0 120399.0 0
322433.0 119897.0 0
322509.0 123902.0 0
327500.0 120443.0 0
332500.0 120515.0 0
337713.0 119849.0 0
341413.0 123448.0 0
343307.0 119243.0 0
346845.0 124027.0 0
347751.0 119640.0 0
352668.0 120365.0 0
356026.0 123754.0 0
361441.0 119412.0 0
357755.0 119880.0 0
361260.0 124114.0 0
366513.0 123187.0 0
382004.0 119779.0 0
384354.0 123116.0 0
388374.0 119352.0 0
393554.0 119727.0 0
398136.0 120161.0 0
412864.0 119311.0 0
409243.0 123644.0 0
417519.0 119930.0 0
428326.0 120177.0 0
424120.0 122980.0 0
432249.0 123895.0 0
437510.0 120459.0 0
442357.0 123851.0 0
448274.0 122995.0 0
451945.0 119159.0 0
457176.0 119349.0 0
462429.0 120837.0 0
466599.0 119424.0 0
470193.0 120604.0 0
472372.0 123926.0 0
475181.0 119404.0 0
480797.0 121052.0 0
492077.0 121285.0 0
2238.62 126052.0 0
8050.26 128694.0 0
11843.5 124670.0 0
13471.8 129297.0 0
16323.5 124750.0 0
17752.2 128594.0 0
20503.0 124760.0 0
22417.1 129134.0 0
27043.0 125208.0 0
32615.6 125041.0 0
32071.9 129329.0 0
38262.9 124816.0 0
42969.9 125203.0 0
49063.5 128861.0 0
51800.2 125834.0 0
56554.1 125354.0 0
62114.7 125325.0 0
67697.2 124983.0 0
73695.6 125297.0 0
78211.1 125736.0 0
81954.6 124911.0 0
86960.4 124942.0 0
92531.5 125299.0 0
97548.4 124697.0 0
102630.0 125844.0 0
116732.0 125169.0 0
112494.0 125382.0 0
120857.0 125019.0 0
125864.0 124400.0 0
123420.0 129007.0 0
131158.0 126098.0 0
136445.0 126050.0 0
146306.0 125114.0 0
151834.0 126712.0 0
156828.0 128988.0 0
161703.0 125543.0 0
166528.0 127362.0 0
176294.0 124771.0 0
182233.0 128473.0 0
188049.0 125249.0 0
194261.0 124974.0 0
199972.0 124416.0 0
208111.0 125069.0 0
204288.0 125411.0 0
217709.0 125516.0 0
222564.0 124624.0 0
222022.0 128882.0 0
232444.0 125515.0 0
237422.0 125301.0 0
237873.0 128625.0 0
241792.0 125954.0 0
246842.0 124472.0 0
251784.0 125765.0 0
255872.0 128894.0 0
262719.0 124830.0 0
260337.0 128564.0 0
266350.0 128766.0 0
278361.0 128902.0 0
283555.0 125684.0 0
287216.0 125752.0 0
288758.0 128906.0 0
291017.0 124627.0 0
296734.0 124251.0 0
302234.0 125387.0 0
307700.0 124775.0 0
313207.0 125900.0 0
318189.0 124890.0 0
321077.0 129129.0 0
326813.0 125784.0 0
329893.0 129327.0 0
336511.0 124513.0 0
331856.0 125501.0 0
339780.0 128839.0 0
351893.0 125201.0 0
357350.0 127711.0 0
366551.0 127880.0 0
371101.0 125060.0 0
377674.0 124576.0 0
382813.0 128632.0 0
392424.0 124549.0 0
388338.0 126305.0 0
397217.0 124509.0 0
402858.0 124947.0 0
408059.0 128993.0 0
414412.0 126199.0 0
419144.0 124619.0 0
427685.0 126016.0 0
437341.0 124634.0 0
437115.0 128829.0 0
446525.0 127993.0 0
450849.0 128493.0 0
454177.0 124563.0 0
458991.0 125612.0 0
463186.0 125375.0 0
467519.0 125484.0 0
472595.0 128885.0 0
477747.0 124875.0 0
482622.0 125747.0 0
487506.0 126849.0 0
491506.0 125347.0 0
492124.0 129203.0 0
496591.0 124956.0 0
2182.12 130466.0 0
11904.3 133036.0 0
17161.1 133773.0 0
26988.2 131131.0 0
30223.9 133869.0 0
37588.5 130021.0 0
39763.9 134085.0 0
43205.1 130266.0 0
48581.6 134085.0 0
53807.2 130534.0 0
59222.8 130033.0 0
57213.1 134425.0 0
63616.8 129656.0 0
63065.3 134431.0 0
68064.9 130655.0 0
72603.0 130172.0 0
73400.7 134231.0 0
77068.8 129656.0 0
82136.1 129932.0 0
87334.1 130116.0 0
92269.2 130629.0 0
97732.2 130049.0 0
102767.0 131300.0 0
107685.0 129606.0 0
111306.0 134295.0 0
113113.0 129711.0 0
118139.0 129645.0 0
122098.0 134197.0 0
127500.0 130563.0 0
137738.0 129965.0 0
132691.0 130926.0 0
142523.0 130114.0 0
147011.0 133999.0 0
148001.0 129722.0 0
153419.0 131365.0 0
160406.0 130356.0 0
164429.0 131065.0 0
167047.0 133939.0 0
170842.0 129948.0 0
177032.0 131339.0 0
186625.0 130884.0 0
191646.0 130371.0 0
197223.0 129701.0 0
203055.0 129555.0 0
208748.0 131415.0 0
214360.0 129458.0 0
218717.0 130764.0 0
216320.0 134075.0 0
221176.0 134414.0 0
227506.0 129544.0 0
234331.0 129895.0 0
231983.0 134394.0 0
237943.0 133361.0 0
241750.0 130556.0 0
246211.0 129657.0 0
251519.0 131023.0 0
257727.0 134076.0 0
262637.0 132139.0 0
271757.0 130443.0 0
284358.0 130423.0 0
288835.0 134227.0 0
292983.0 130622.0 0
298941.0 130551.0 0
303985.0 130783.0 0
307500.0 130607.0 0
316256.0 129604.0 0
312166.0 130425.0 0
316967.0 134040.0 0
325851.0 130716.0 0
334357.0 131322.0 0
341520.0 134332.0 0
346088.0 130282.0 0
352844.0 130776.0 0
361674.0 130102.0 0
357892.0 134289.0 0
367105.0 132787.0 0
371934.0 130693.0 0
377880.0 132026.0 0
387369.0 130490.0 0
393045.0 131220.0 0
399508.0 130117.0 0
403055.0 134119.0 0
404321.0 130143.0 0
408162.0 133843.0 0
412347.0 130663.0 0
416949.0 130001.0 0
414684.0 134310.0 0
421365.0 131251.0 0
425657.0 129643.0 0
427477.0 134094.0 0
431065.0 130086.0 0
436125.0 133812.0 0
441813.0 129437.0 0
448329.0 133505.0 0
455408.0 130335.0 0
461202.0 130026.0 0
466977.0 129810.0 0
473887.0 134102.0 0
478848.0 130374.0 0
484705.0 130888.0 0
489148.0 131612.0 0
496754.0 131598.0 0
1482.5 135143.0 0
2749.56 139181.0 0
7154.19 135002.0 0
12670.5 137541.0 0
23052.5 134518.0 0
28648.2 137915.0 0
34874.7 134662.0 0
39134.3 138926.0 0
43682.3 135920.0 0
53134.3 136535.0 0
59719.7 139436.0 0
68311.2 135831.0 0
72212.8 138110.0 0
78301.7 134805.0 0
83593.1 134873.0 0
88397.4 134933.0 0
92508.2 135472.0 0
97237.1 135464.0 0
101195.0 135529.0 0
105586.0 135122.0 0
111043.0 139144.0 0
116640.0 134904.0 0
126931.0 134606.0 0
131218.0 135307.0 0
136577.0 134515.0 0
142212.0 135808.0 0
151801.0 135932.0 0
157942.0 134924.0 0
161442.0 139399.0 0
163658.0 135550.0 0
166774.0 139291.0 0
171003.0 135956.0 0
176728.0 137630.0 0
182933.0 135393.0 0
193693.0 134457.0 0
189204.0 135289.0 0
198249.0 135589.0 0
203175.0 134656.0 0
202629.0 139232.0 0
207321.0 136795.0 0
212115.0 135667.0 0
226331.0 136182.0 0
236018.0 138344.0 0
242843.0 135210.0 0
248029.0 134735.0 0
252898.0 135051.0 0
250905.0 139202.0 0
262830.0 137718.0 0
267588.0 134718.0 0
272698.0 136328.0 0
278480.0 135556.0 0
283574.0 135010.0 0
282084.0 138940.0 0
293487.0 135219.0 0
297507.0 136597.0 0
302639.0 135088.0 0
301871.0 139015.0 0
307116.0 135448.0 0
311942.0 135166.0 0
316865.0 139166.0 0
322297.0 134724.0 0
330939.0 134842.0 0
327151.0 135586.0 0
333888.0 139071.0 0
337122.0 135220.0 0
346660.0 136247.0 0
351579.0 136427.0 0
355552.0 138553.0 0
362982.0 135076.0 0
370166.0 136234.0 0
374542.0 136250.0 0
383272.0 134645.0 0
383423.0 138783.0 0
387241.0 139142.0 0
388208.0 134671.0 0
392170.0 137467.0 0
397893.0 136054.0 0
405312.0 139360.0 0
411971.0 138428.0 0
417928.0 135562.0 0
422498.0 136112.0 0
427292.0 138347.0 0
431261.0 135515.0 0
437084.0 139144.0 0
441994.0 135098.0 0
454026.0 135495.0 0
459444.0 135637.0 0
464980.0 134916.0 0
469645.0 135767.0 0
477663.0 137174.0 0
481986.0 135328.0 0
486773.0 135223.0 0
492177.0 135780.0 0
497457.0 137334.0 0
7839.03 141522.0 0
13609.5 143389.0 0
18088.2 139543.0 0
23745.2 140276.0 0
28782.1 143258.0 0
33632.2 140219.0 0
38541.4 144111.0 0
43744.6 140130.0 0
43270.9 144387.0 0
48693.3 140054.0 0
54181.0 141238.0 0
64871.2 140536.0 0
63416.4 144483.0 0
68289.4 140022.0 0
76319.6 139701.0 0
71705.6 143446.0 0
81940.8 140294.0 0
87886.0 140003.0 0
96906.4 140037.0 0
92636.9 140399.0 0
101491.0 140167.0 0
97999.8 144507.0 0
106437.0 140459.0 0
110766.0 144498.0 0
115385.0 139620.0 0
116642.0 144399.0 0
120870.0 140221.0 0
127440.0 139871.0 0
131194.0 144455.0 0
133301.0 139760.0 0
138725.0 140247.0 0
143743.0 140415.0 0
148389.0 140017.0 0
152799.0 140521.0 0
157000.0 140622.0 0
162036.0 144062.0 0
167180.0 144388.0 0
172236.0 141740.0 0
177078.0 141956.0 0
181363.0 142004.0 0
186882.0 140290.0 0
192410.0 139797.0 0
197843.0 141297.0 0
206636.0 141407.0 0
210631.0 140195.0 0
212134.0 144575.0 0
216384.0 139970.0 0
222686.0 140058.0 0
228326.0 141727.0 0
233994.0 142882.0 0
240939.0 140778.0 0
246424.0 141330.0 0
252375.0 143477.0 0
256765.0 140284.0 0
268273.0 140075.0 0
272894.0 141225.0 0
277851.0 141565.0 0
282796.0 144319.0 0
287110.0 140312.0 0
293046.0 139638.0 0
297883.0 141953.0 0
306177.0 140929.0 0
311437.0 140894.0 0
322341.0 140644.0 0
325880.0 144184.0 0
328008.0 140198.0 0
337524.0 142497.0 0
342205.0 140313.0 0
347982.0 141001.0 0
352293.0 140705.0 0
356012.0 143149.0 0
360518.0 139819.0 0
366515.0 139927.0 0
372526.0 141192.0 0
378547.0 139601.0 0
383498.0 143230.0 0
390734.0 142101.0 0
396043.0 141877.0 0
400402.0 140353.0 0
409494.0 144025.0 0
417776.0 140300.0 0
414469.0 144278.0 0
417767.0 144435.0 0
422968.0 140981.0 0
432239.0 140104.0 0
433304.0 144470.0 0
437890.0 144123.0 0
441852.0 140704.0 0
447111.0 139670.0 0
452641.0 140684.0 0
458109.0 140999.0 0
462539.0 140595.0 0
466555.0 139597.0 0
467794.0 144577.0 0
471813.0 140333.0 0
476954.0 141894.0 0
482254.0 140685.0 0
487738.0 140072.0 0
492470.0 141634.0 0
497459.0 142418.0 0
3057.72 144980.0 0
8751.99 147406.0 0
18379.7 147125.0 0
23880.0 145978.0 0
33719.4 145923.0 0
49671.6 144947.0 0
46373.2 148749.0 0
53686.7 145984.0 0
58566.2 145304.0 0
63644.5 149653.0 0
67007.0 144945.0 0
68688.4 148228.0 0
77975.4 145030.0 0
83400.2 146376.0 0
88019.1 145035.0 0
90126.3 149517.0 0
93070.5 145018.0 0
98602.5 148683.0 0
105783.0 144895.0 0
102078.0 146159.0 0
105637.0 149405.0 0
126500.0 145131.0 0
122655.0 145690.0 0
128387.0 148548.0 0
135219.0 146281.0 0
139748.0 145798.0 0
137790.0 149738.0 0
145104.0 145008.0 0
150851.0 145067.0 0
156884.0 145979.0 0
161786.0 149630.0 0
167144.0 149359.0 0
171462.0 147064.0 0
176185.0 145680.0 0
180974.0 147606.0 0
185795.0 145575.0 0
191577.0 145677.0 0
197331.0 146827.0 0
202644.0 144669.0 0
207608.0 145430.0 0
217212.0 146357.0 0
223347.0 146027.0 0
228979.0 147722.0 0
233410.0 147349.0 0
238460.0 146542.0 0
243836.0 145822.0 0
248989.0 145434.0 0
251471.0 149397.0 0
255538.0 146384.0 0
262543.0 144880.0 0
268735.0 145044.0 0
273494.0 145771.0 0
278387.0 146955.0 0
287974.0 146303.0 0
293223.0 144972.0 0
293311.0 149334.0 0
297717.0 147231.0 0
302611.0 144862.0 0
308390.0 145844.0 0
313173.0 145437.0 0
312021.0 149609.0 0
317437.0 144919.0 0
316759.0 149513.0 0
322201.0 146220.0 0
329967.0 145360.0 0
335031.0 145906.0 0
340298.0 146314.0 0
345919.0 147039.0 0
351084.0 145172.0 0
356392.0 148716.0 0
360814.0 145695.0 0
366437.0 145672.0 0
371144.0 146128.0 0
377226.0 146856.0 0
387808.0 146406.0 0
392749.0 146432.0 0
398357.0 147392.0 0
403887.0 145397.0 0
411606.0 149549.0 0
416993.0 148161.0 0
420956.0 144792.0 0
427627.0 144857.0 0
432998.0 149114.0 0
442651.0 145597.0 0
448517.0 145555.0 0
453997.0 145550.0 0
458540.0 145969.0 0
462991.0 145750.0 0
472983.0 146079.0 0
479980.0 145798.0 0
484309.0 145651.0 0
488547.0 145198.0 0
486595.0 149354.0 0
492634.0 145789.0 0
497770.0 147178.0 0
2142.5 150883.0 0
7229.67 153484.0 0
13671.5 151032.0 0
18603.5 152066.0 0
22343.9 150463.0 0
27491.3 150909.0 0
32329.3 150174.0 0
32590.5 153648.0 0
37271.0 150722.0 0
42439.7 152043.0 0
51408.1 151137.0 0
57399.7 151434.0 0
73557.0 151296.0 0
79820.3 150508.0 0
85123.8 151299.0 0
95037.1 151374.0 0
101293.0 152039.0 0
97844.0 154740.0 0
111336.0 150835.0 0
118204.0 149969.0 0
123813.0 150218.0 0
128112.0 154587.0 0
133268.0 150624.0 0
137500.0 153680.0 0
141902.0 150591.0 0
147422.0 150319.0 0
152993.0 150275.0 0
157246.0 151893.0 0
170762.0 151095.0 0
173356.0 154343.0 0
168439.0 154629.0 0
176882.0 150674.0 0
182321.0 152426.0 0
186887.0 150601.0 0
191538.0 150981.0 0
196350.0 152274.0 0
201627.0 150142.0 0
207154.0 150398.0 0
212989.0 150087.0 0
219801.0 151445.0 0
224911.0 151348.0 0
228653.0 151815.0 0
232795.0 151130.0 0
236990.0 151783.0 0
242100.0 150071.0 0
246557.0 149798.0 0
246730.0 154735.0 0
257766.0 151652.0 0
262741.0 150954.0 0
268253.0 150661.0 0
274071.0 150732.0 0
279359.0 152478.0 0
284550.0 150354.0 0
284010.0 154814.0 0
289721.0 151234.0 0
292658.0 154657.0 0
296530.0 152152.0 0
302307.0 150550.0 0
307427.0 151109.0 0
312332.0 154837.0 0
321330.0 151353.0 0
317608.0 154549.0 0
326427.0 149804.0 0
328007.0 154469.0 0
331733.0 150312.0 0
337285.0 151613.0 0
342892.0 151645.0 0
346830.0 151606.0 0
351165.0 150348.0 0
349520.0 154540.0 0
361678.0 151800.0 0
366974.0 150543.0 0
371656.0 150610.0 0
382202.0 150781.0 0
378336.0 153462.0 0
386895.0 151130.0 0
391451.0 150939.0 0
395529.0 151691.0 0
400530.0 152501.0 0
405864.0 151169.0 0
412515.0 154794.0 0
417169.0 153288.0 0
422629.0 149790.0 0
428258.0 150942.0 0
431956.0 154759.0 0
438724.0 149769.0 0
444698.0 150478.0 0
450508.0 152233.0 0
455669.0 149944.0 0
461372.0 150838.0 0
468721.0 149802.0 0
465833.0 152481.0 0
473166.0 151650.0 0
477805.0 150310.0 0
482449.0 150479.0 0
486589.0 153558.0 0
490650.0 149804.0 0
495005.0 151159.0 0
2239.97 155455.0 0
2127.33 159823.0 0
6959.96 159368.0 0
12440.1 157095.0 0
18049.0 156523.0 0
23274.7 155317.0 0
29081.8 156882.0 0
35953.0 156539.0 0
40992.7 156262.0 0
47007.0 155230.0 0
52812.1 155879.0 0
57602.5 157595.0 0
62195.2 155047.0 0
67963.3 155113.0 0
73651.1 158002.0 0
78090.1 155105.0 0
82804.2 156017.0 0
88773.8 155837.0 0
93972.3 156217.0 0
101251.0 156324.0 0
97466.5 159132.0 0
105727.0 154897.0 0
110243.0 156273.0 0
107193.0 159649.0 0
115522.0 155849.0 0
121623.0 155050.0 0
133715.0 155459.0 0
142031.0 155858.0 0
138523.0 159784.0 0
148122.0 156901.0 0
153546.0 155095.0 0
157984.0 156071.0 0
163103.0 155468.0 0
166875.0 159505.0 0
177762.0 155117.0 0
181596.0 156998.0 0
186463.0 155868.0 0
191579.0 155493.0 0
195893.0 158025.0 0
201125.0 155735.0 0
207148.0 156459.0 0
212098.0 155020.0 0
212779.0 159677.0 0
216813.0 156232.0 0
221591.0 157050.0 0
226069.0 155876.0 0
231021.0 155163.0 0
232481.0 159875.0 0
235877.0 156421.0 0
241284.0 154981.0 0
246694.0 159572.0 0
252429.0 154908.0 0
257588.0 156898.0 0
263721.0 156457.0 0
269614.0 156324.0 0
274592.0 155714.0 0
279915.0 157822.0 0
284284.0 159227.0 0
288599.0 156249.0 0
293599.0 159199.0 0
298741.0 156859.0 0
303659.0 155504.0 0
307810.0 155429.0 0
306700.0 159300.0 0
316843.0 159381.0 0
323360.0 156342.0 0
328697.0 159180.0 0
332710.0 155424.0 0
337433.0 156926.0 0
345479.0 155321.0 0
341916.0 155574.0 0
344144.0 159537.0 0
355330.0 154917.0 0
360666.0 156988.0 0
366487.0 155263.0 0
373421.0 155761.0 0
378300.0 157958.0 0
383175.0 156425.0 0
392582.0 155310.0 0
388073.0 155535.0 0
397115.0 155549.0 0
397922.0 159729.0 0
408060.0 155927.0 0
403355.0 156649.0 0
421021.0 155338.0 0
418442.0 158720.0 0
425372.0 154975.0 0
428717.0 158781.0 0
437684.0 156009.0 0
443670.0 156060.0 0
450715.0 158665.0 0
454497.0 155191.0 0
458797.0 156129.0 0
463933.0 155953.0 0
469296.0 155287.0 0
474375.0 156187.0 0
479087.0 155198.0 0
483695.0 156880.0 0
491387.0 155626.0 0
497411.0 155776.0 0
3067.47 164932.0 0
8553.74 163868.0 0
12580.1 162503.0 0
16008.3 160529.0 0
20037.1 160807.0 0
16419.8 164701.0 0
24884.7 160568.0 0
32221.5 161246.0 0
37672.7 162141.0 0
43317.6 160685.0 0
48685.8 161228.0 0
53579.1 160407.0 0
57458.1 162505.0 0
62542.2 160279.0 0
62499.3 164701.0 0
67219.3 160365.0 0
71132.7 162770.0 0
66930.2 164802.0 0
79097.8 160625.0 0
84541.6 160615.0 0
82350.6 164220.0 0
86392.4 164555.0 0
88605.4 160873.0 0
92508.1 160323.0 0
96601.2 164253.0 0
102445.0 160750.0 0
106449.0 164818.0 0
111837.0 160436.0 0
117995.0 161356.0 0
123248.0 160282.0 0
127767.0 159974.0 0
128380.0 164477.0 0
132819.0 160529.0 0
143145.0 160687.0 0
143897.0 164729.0 0
151877.0 160687.0 0
147994.0 162876.0 0
156564.0 160904.0 0
161568.0 160402.0 0
162828.0 164535.0 0
168108.0 164956.0 0
173249.0 160564.0 0
178608.0 160712.0 0
183534.0 161649.0 0
189457.0 160718.0 0
193908.0 161847.0 0
199741.0 160750.0 0
203874.0 161331.0 0
208360.0 161599.0 0
212052.0 164621.0 0
219058.0 160980.0 0
223358.0 160549.0 0
222465.0 164771.0 0
227641.0 160578.0 0
232441.0 164581.0 0
237728.0 160882.0 0
242289.0 161304.0 0
246107.0 164588.0 0
251867.0 161159.0 0
257453.0 161195.0 0
262304.0 162685.0 0
267690.0 160513.0 0
271758.0 160077.0 0
272516.0 163964.0 0
276114.0 160543.0 0
283200.0 164620.0 0
288578.0 161488.0 0
292770.0 164804.0 0
298813.0 161619.0 0
302640.0 160447.0 0
306890.0 164028.0 0
311690.0 160530.0 0
316043.0 164275.0 0
321344.0 161273.0 0
324883.0 160234.0 0
326140.0 165021.0 0
334155.0 161048.0 0
339612.0 160833.0 0
343317.0 164482.0 0
350101.0 160196.0 0
356713.0 161762.0 0
363253.0 161653.0 0
369397.0 160052.0 0
374925.0 161079.0 0
379745.0 161929.0 0
384038.0 162050.0 0
387374.0 164659.0 0
388070.0 160035.0 0
393146.0 160381.0 0
396413.0 164312.0 0
401988.0 160975.0 0
406596.0 160551.0 0
412748.0 160690.0 0
417743.0 164645.0 0
423546.0 160138.0 0
428007.0 164989.0 0
433883.0 161243.0 0
440196.0 162174.0 0
445499.0 160779.0 0
448655.0 163327.0 0
456147.0 160273.0 0
458569.0 164158.0 0
463205.0 159998.0 0
460062.0 160735.0 0
463269.0 164190.0 0
467453.0 160552.0 0
472541.0 160486.0 0
477866.0 160527.0 0
482744.0 161128.0 0
487589.0 160124.0 0
485374.0 164587.0 0
492465.0 160815.0 0
490341.0 164702.0 0
497811.0 160537.0 0
495333.0 164793.0 0
7504.05 168287.0 0
12198.0 167050.0 0
21311.1 165711.0 0
27464.7 165923.0 0
32650.5 165057.0 0
32915.2 169164.0 0
37794.7 167507.0 0
42303.6 165837.0 0
47950.5 166737.0 0
53255.7 165363.0 0
51665.4 169853.0 0
58928.5 166396.0 0
56221.9 169943.0 0
71359.9 166951.0 0
76176.8 165815.0 0
80897.5 168481.0 0
91253.3 165405.0 0
101325.0 165412.0 0
98369.0 169625.0 0
103677.0 169567.0 0
112395.0 165948.0 0
118078.0 166783.0 0
123220.0 165534.0 0
128427.0 169652.0 0
133236.0 166013.0 0
138695.0 165516.0 0
146817.0 167114.0 0
143072.0 168854.0 0
152640.0 165119.0 0
150635.0 169056.0 0
158022.0 165382.0 0
155608.0 169136.0 0
161150.0 169418.0 0
172596.0 166241.0 0
177246.0 165999.0 0
182427.0 166606.0 0
187087.0 165604.0 0
192265.0 165872.0 0
197934.0 165471.0 0
202909.0 165314.0 0
203778.0 169532.0 0
207315.0 166300.0 0
213126.0 169880.0 0
217205.0 166050.0 0
227444.0 166121.0 0
231370.0 168717.0 0
237067.0 165194.0 0
235340.0 169240.0 0
241373.0 165775.0 0
254523.0 165631.0 0
250346.0 166170.0 0
258824.0 166260.0 0
257745.0 170048.0 0
262637.0 169182.0 0
267464.0 165848.0 0
272485.0 168616.0 0
277257.0 165825.0 0
288219.0 166044.0 0
297380.0 165571.0 0
298041.0 169438.0 0
302102.0 165584.0 0
306759.0 168902.0 0
311367.0 166043.0 0
320407.0 165693.0 0
317142.0 169964.0 0
326679.0 169971.0 0
332574.0 167100.0 0
338274.0 166095.0 0
345206.0 168881.0 0
348160.0 165680.0 0
353180.0 166233.0 0
358609.0 167280.0 0
363217.0 167144.0 0
372381.0 165221.0 0
367630.0 165612.0 0
377383.0 166582.0 0
372562.0 170136.0 0
382006.0 165109.0 0
382877.0 169764.0 0
391835.0 165096.0 0
389045.0 169631.0 0
397275.0 169491.0 0
401428.0 165877.0 0
406576.0 165413.0 0
407528.0 170123.0 0
411926.0 167051.0 0
422243.0 167572.0 0
435854.0 166515.0 0
440095.0 167124.0 0
444886.0 165931.0 0
448961.0 166441.0 0
447790.0 170120.0 0
453284.0 165048.0 0
457754.0 169007.0 0
463135.0 169363.0 0
468255.0 165609.0 0
473568.0 165668.0 0
478469.0 165439.0 0
481960.0 165964.0 0
487709.0 169494.0 0
493260.0 169527.0 0
497791.0 169083.0 0
2830.05 170838.0 0
9656.44 172140.0 0
12523.5 170689.0 0
17164.0 170241.0 0
23589.3 171144.0 0
28517.2 171011.0 0
32722.0 173862.0 0
37936.7 173173.0 0
44154.1 171196.0 0
48946.8 172886.0 0
58209.6 174719.0 0
61494.7 170375.0 0
67361.6 170302.0 0
71362.9 174863.0 0
73114.0 171318.0 0
78024.0 172323.0 0
86724.2 170180.0 0
92877.7 171389.0 0
101923.0 173920.0 0
108522.0 170214.0 0
113658.0 171330.0 0
118712.0 172084.0 0
123558.0 170567.0 0
128618.0 174817.0 0
133082.0 170533.0 0
137596.0 170893.0 0
133599.0 175063.0 0
141642.0 173425.0 0
146707.0 171160.0 0
150726.0 174767.0 0
156814.0 174362.0 0
167133.0 171034.0 0
172930.0 170530.0 0
178055.0 171509.0 0
183652.0 171372.0 0
189253.0 170344.0 0
192616.0 175000.0 0
194195.0 170393.0 0
199079.0 171120.0 0
202934.0 174542.0 0
208282.0 171342.0 0
217850.0 171354.0 0
222500.0 170523.0 0
227501.0 170699.0 0
231615.0 172904.0 0
237591.0 174933.0 0
241013.0 170166.0 0
246229.0 170437.0 0
252670.0 170916.0 0
257368.0 173387.0 0
268647.0 170566.0 0
265515.0 174351.0 0
272406.0 174920.0 0
276646.0 170873.0 0
282615.0 170398.0 0
285572.0 174528.0 0
287959.0 170456.0 0
290282.0 174396.0 0
293356.0 170283.0 0
297350.0 174636.0 0
302179.0 171496.0 0
306880.0 174376.0 0
311376.0 171265.0 0
322858.0 170230.0 0
323489.0 175178.0 0
331450.0 171513.0 0
328119.0 173472.0 0
335630.0 171997.0 0
340793.0 170792.0 0
345694.0 174172.0 0
349873.0 170301.0 0
355447.0 172467.0 0
361542.0 171858.0 0
367145.0 171009.0 0
373329.0 175005.0 0
377581.0 172317.0 0
393441.0 171784.0 0
402362.0 171515.0 0
398526.0 175070.0 0
411987.0 172357.0 0
417011.0 170345.0 0
421587.0 172197.0 0
426096.0 171095.0 0
424598.0 175132.0 0
432014.0 170382.0 0
437801.0 171470.0 0
443154.0 170952.0 0
452659.0 170961.0 0
458330.0 174812.0 0
463623.0 174181.0 0
468197.0 170752.0 0
473086.0 170827.0 0
473598.0 175239.0 0
478099.0 170277.0 0
482743.0 170588.0 0
482809.0 174787.0 0
487497.0 175075.0 0
492502.0 174478.0 0
497556.0 173731.0 0
2517.93 176180.0 0
7269.47 175584.0 0
12116.1 175917.0 0
12004.8 180117.0 0
17591.8 176516.0 0
23415.8 177203.0 0
28808.7 175519.0 0
34064.5 179251.0 0
39401.8 178141.0 0
43273.4 176628.0 0
47708.4 176706.0 0
52883.3 175547.0 0
59514.6 179811.0 0
64169.0 175979.0 0
69257.6 176925.0 0
75109.0 176692.0 0
71691.8 180316.0 0
81048.5 176488.0 0
78264.9 180198.0 0
87053.6 176842.0 0
96751.1 175446.0 0
92020.3 175971.0 0
102128.0 179812.0 0
107424.0 176308.0 0
113364.0 176326.0 0
118426.0 177345.0 0
123399.0 175634.0 0
126570.0 180339.0 0
132454.0 180037.0 0
137995.0 176701.0 0
142292.0 180303.0 0
145475.0 176022.0 0
147729.0 179771.0 0
157521.0 179446.0 0
162657.0 175485.0 0
167210.0 179486.0 0
170994.0 175395.0 0
175347.0 177122.0 0
183159.0 175324.0 0
179616.0 176195.0 0
183467.0 179247.0 0
187239.0 175426.0 0
190429.0 180017.0 0
197964.0 176760.0 0
203351.0 179897.0 0
206812.0 176899.0 0
210962.0 175449.0 0
212604.0 179950.0 0
215630.0 175670.0 0
221238.0 175746.0 0
227183.0 176059.0 0
232734.0 180284.0 0
243851.0 175639.0 0
242251.0 179830.0 0
248905.0 175409.0 0
246580.0 179724.0 0
254148.0 177045.0 0
260306.0 175426.0 0
262655.0 179549.0 0
268086.0 179608.0 0
279500.0 175641.0 0
284058.0 178786.0 0
289116.0 179495.0 0
293631.0 177769.0 0
302307.0 176602.0 0
302793.0 180069.0 0
307472.0 179934.0 0
312363.0 177317.0 0
318329.0 175783.0 0
327597.0 179348.0 0
332372.0 175967.0 0
340949.0 175371.0 0
337055.0 176582.0 0
340751.0 179503.0 0
350920.0 176283.0 0
359290.0 176664.0 0
364353.0 176354.0 0
362684.0 180219.0 0
368943.0 175672.0 0
377200.0 177402.0 0
373234.0 180130.0 0
381328.0 175590.0 0
386961.0 175774.0 0
393351.0 176638.0 0
397598.0 179487.0 0
402912.0 176455.0 0
407773.0 175523.0 0
415877.0 176155.0 0
417738.0 180315.0 0
421176.0 177456.0 0
428964.0 175667.0 0
432063.0 180141.0 0
434132.0 175360.0 0
438736.0 176653.0 0
442787.0 175313.0 0
442764.0 180335.0 0
447717.0 175384.0 0
453044.0 175983.0 0
453408.0 180154.0 0
463598.0 178723.0 0
468162.0 176078.0 0
471814.0 178937.0 0
478150.0 175436.0 0
481099.0 178777.0 0
485657.0 179739.0 0
496000.0 179010.0 0
2475.47 181174.0 0
7677.38 180605.0 0
12762.6 185341.0 0
15772.3 181550.0 0
20838.9 182248.0 0
26808.1 181588.0 0
30951.5 184874.0 0
40053.3 182384.0 0
35931.4 184990.0 0
44704.6 181093.0 0
43629.2 185078.0 0
48758.8 180417.0 0
47754.6 184449.0 0
53064.5 180720.0 0
51808.2 184779.0 0
56828.9 184999.0 0
63885.2 181116.0 0
62578.5 185129.0 0
67606.1 180375.0 0
77991.1 184296.0 0
82472.2 181479.0 0
87141.0 182432.0 0
91999.5 180611.0 0
97000.3 180560.0 0
106970.0 182186.0 0
111124.0 180620.0 0
115819.0 181989.0 0
121102.0 181991.0 0
132214.0 185353.0 0
137140.0 181172.0 0
146468.0 184767.0 0
152626.0 180422.0 0
156133.0 184389.0 0
162025.0 181055.0 0
172467.0 180544.0 0
178178.0 181455.0 0
186111.0 183648.0 0
190992.0 185321.0 0
195415.0 181462.0 0
199785.0 182080.0 0
208220.0 180881.0 0
204961.0 184417.0 0
211621.0 184517.0 0
217695.0 180356.0 0
223416.0 180596.0 0
221707.0 185000.0 0
227697.0 181055.0 0
231958.0 184554.0 0
237920.0 180950.0 0
241439.0 184324.0 0
246766.0 184836.0 0
251460.0 181509.0 0
257658.0 181319.0 0
261548.0 184891.0 0
266314.0 184046.0 0
273562.0 181627.0 0
279478.0 181836.0 0
284958.0 183925.0 0
290183.0 184361.0 0
293858.0 181989.0 0
298810.0 180385.0 0
297270.0 184808.0 0
302708.0 183228.0 0
307444.0 183868.0 0
312806.0 183135.0 0
316382.0 180699.0 0
321289.0 180803.0 0
316962.0 184847.0 0
326196.0 184731.0 0
333605.0 180949.0 0
337888.0 182454.0 0
341783.0 185381.0 0
346463.0 180726.0 0
350387.0 185034.0 0
352479.0 181103.0 0
358046.0 182246.0 0
367601.0 180946.0 0
372654.0 184821.0 0
377756.0 182135.0 0
383127.0 181002.0 0
388875.0 181654.0 0
393912.0 181916.0 0
401995.0 181073.0 0
407553.0 181325.0 0
413356.0 181350.0 0
417328.0 185014.0 0
420741.0 181599.0 0
422294.0 185346.0 0
426078.0 181042.0 0
436731.0 180496.0 0
438897.0 184555.0 0
448811.0 182483.0 0
453764.0 185110.0 0
458509.0 181342.0 0
467769.0 181394.0 0
472248.0 183984.0 0
476448.0 180468.0 0
481590.0 184046.0 0
487405.0 184650.0 0
490709.0 180774.0 0
497268.0 184661.0 0
3210.57 186303.0 0
8257.24 185705.0 0
14922.4 190543.0 0
17406.0 186310.0 0
22006.0 186845.0 0
26228.7 186373.0 0
40008.0 188114.0 0
47201.6 189724.0 0
52669.2 188974.0 0
63751.1 190489.0 0
67170.0 185553.0 0
72519.9 185502.0 0
78841.1 189050.0 0
82527.1 185904.0 0
86294.6 186499.0 0
90159.9 185746.0 0
95222.3 185583.0 0
101125.0 185481.0 0
106555.0 187208.0 0
111796.0 185483.0 0
118332.0 186659.0 0
123280.0 186418.0 0
127624.0 185459.0 0
128406.0 190083.0 0
137231.0 185771.0 0
132872.0 189688.0 0
136853.0 190461.0 0
141707.0 187044.0 0
151573.0 187231.0 0
161834.0 187356.0 0
169286.0 185869.0 0
175976.0 187230.0 0
181607.0 186264.0 0
189314.0 189836.0 0
195753.0 186137.0 0
197502.0 190323.0 0
200537.0 187260.0 0
208467.0 186660.0 0
206277.0 188981.0 0
212260.0 190353.0 0
216507.0 185677.0 0
216810.0 190208.0 0
220978.0 189834.0 0
226698.0 185547.0 0
225743.0 190517.0 0
230984.0 188948.0 0
236068.0 185835.0 0
240545.0 189570.0 0
248382.0 189614.0 0
251421.0 185759.0 0
252561.0 189403.0 0
256145.0 186426.0 0
259974.0 189484.0 0
265488.0 189296.0 0
270638.0 186507.0 0
272928.0 189976.0 0
276599.0 186583.0 0
281962.0 189438.0 0
288338.0 189117.0 0
293753.0 186608.0 0
298770.0 189204.0 0
304642.0 187934.0 0
310132.0 186445.0 0
309151.0 190110.0 0
313928.0 187902.0 0
317700.0 189814.0 0
321557.0 186779.0 0
327808.0 189241.0 0
331852.0 185932.0 0
336694.0 186466.0 0
346626.0 186598.0 0
351678.0 189852.0 0
354412.0 186312.0 0
357651.0 189852.0 0
363422.0 185560.0 0
368529.0 186168.0 0
368505.0 190430.0 0
376989.0 187283.0 0
381263.0 185513.0 0
382576.0 189543.0 0
385750.0 186120.0 0
391602.0 186669.0 0
397806.0 185569.0 0
395893.0 190299.0 0
403437.0 186048.0 0
405935.0 190386.0 0
408194.0 186442.0 0
412655.0 186515.0 0
422189.0 190247.0 0
427069.0 187733.0 0
433143.0 186075.0 0
437982.0 189980.0 0
443938.0 185925.0 0
448492.0 188330.0 0
453590.0 190337.0 0
457908.0 187255.0 0
463037.0 185802.0 0
468112.0 186164.0 0
472251.0 189129.0 0
476530.0 185502.0 0
478243.0 190266.0 0
483446.0 189170.0 0
487729.0 189322.0 0
492245.0 187184.0 0
497113.0 190262.0 0
2743.23 191731.0 0
8042.98 190728.0 0
11765.5 193208.0 0
19910.3 191121.0 0
25329.8 191215.0 0
32699.2 191670.0 0
42537.2 193084.0 0
47182.2 194855.0 0
52162.2 194401.0 0
57753.3 191240.0 0
69579.0 190845.0 0
74694.4 191382.0 0
77869.6 195302.0 0
82761.3 190673.0 0
83358.2 195387.0 0
87411.7 190932.0 0
93077.5 191006.0 0
98832.2 190841.0 0
97430.5 195476.0 0
103893.0 191393.0 0
107222.0 191215.0 0
111638.0 191354.0 0
107419.0 194466.0 0
116412.0 194044.0 0
120397.0 191387.0 0
124183.0 190686.0 0
125857.0 195009.0 0
131746.0 194412.0 0
137378.0 195341.0 0
141100.0 191227.0 0
146522.0 190734.0 0
151900.0 192621.0 0
156635.0 190828.0 0
160658.0 192897.0 0
163243.0 195254.0 0
166704.0 192137.0 0
172255.0 190854.0 0
170863.0 194289.0 0
175911.0 194862.0 0
179233.0 190843.0 0
184127.0 191468.0 0
193668.0 190738.0 0
189132.0 195084.0 0
194263.0 195483.0 0
202965.0 191107.0 0
199453.0 194674.0 0
207410.0 193767.0 0
221749.0 194080.0 0
232441.0 194935.0 0
235664.0 190758.0 0
238430.0 194689.0 0
244738.0 193895.0 0
251359.0 194394.0 0
256060.0 191429.0 0
261842.0 194068.0 0
270071.0 193324.0 0
275665.0 190562.0 0
278051.0 193601.0 0
289032.0 194443.0 0
293478.0 191281.0 0
297213.0 194087.0 0
303004.0 194411.0 0
308804.0 195319.0 0
312953.0 192644.0 0
318356.0 195092.0 0
323365.0 191967.0 0
328791.0 194464.0 0
332500.0 190588.0 0
336869.0 191077.0 0
339591.0 195620.0 0
342207.0 190955.0 0
344931.0 195420.0 0
347216.0 190970.0 0
349987.0 194955.0 0
354428.0 193469.0 0
363234.0 191915.0 0
368160.0 195147.0 0
373400.0 191647.0 0
379100.0 191689.0 0
382472.0 195185.0 0
387079.0 191720.0 0
392324.0 192854.0 0
400749.0 190763.0 0
406694.0 195549.0 0
411228.0 191690.0 0
416962.0 190844.0 0
426356.0 193290.0 0
431391.0 191772.0 0
443846.0 191806.0 0
449070.0 192680.0 0
458352.0 191452.0 0
456078.0 195122.0 0
462240.0 190792.0 0
467268.0 191169.0 0
472915.0 194328.0 0
482525.0 193633.0 0
487864.0 194452.0 0
492457.0 192172.0 0
498089.0 194944.0 0
2122.09 196557.0 0
6629.83 195662.0 0
8166.11 200606.0 0
10874.8 196861.0 0
12895.2 199970.0 0
16445.2 195788.0 0
16332.7 200619.0 0
20385.1 200497.0 0
22133.8 195920.0 0
26806.0 195791.0 0
31181.5 199470.0 0
38045.3 197113.0 0
44044.6 197601.0 0
57345.6 197338.0 0
62695.9 195868.0 0
67631.1 196188.0 0
68267.7 200585.0 0
72733.9 195928.0 0
77185.2 200416.0 0
86321.7 199511.0 0
82034.6 200495.0 0
88733.8 195892.0 0
91303.6 200430.0 0
93487.6 195865.0 0
96817.3 199877.0 0
102461.0 196603.0 0
111801.0 197720.0 0
116464.0 200453.0 0
120437.0 197249.0 0
143319.0 196125.0 0
147532.0 200237.0 0
148470.0 195685.0 0
152879.0 197152.0 0
157301.0 195828.0 0
162713.0 199756.0 0
168106.0 197551.0 0
172608.0 200051.0 0
177853.0 200157.0 0
181671.0 196677.0 0
186376.0 199419.0 0
192085.0 199955.0 0
196624.0 200646.0 0
203612.0 196694.0 0
201113.0 200153.0 0
206770.0 199956.0 0
210864.0 197443.0 0
212749.0 200564.0 0
216143.0 195732.0 0
221801.0 198743.0 0
226488.0 195789.0 0
231549.0 200562.0 0
236392.0 199595.0 0
241209.0 199159.0 0
245775.0 199244.0 0
250433.0 200286.0 0
256821.0 195955.0 0
255180.0 200136.0 0
260751.0 200246.0 0
266228.0 197415.0 0
274196.0 196061.0 0
271142.0 199721.0 0
278163.0 199317.0 0
283487.0 195755.0 0
288463.0 199737.0 0
293267.0 196791.0 0
298391.0 199296.0 0
303459.0 199963.0 0
308191.0 200328.0 0
314354.0 200435.0 0
319269.0 200040.0 0
324039.0 197416.0 0
328968.0 200026.0 0
334065.0 196212.0 0
333146.0 200423.0 0
336742.0 200373.0 0
347880.0 199929.0 0
353210.0 199638.0 0
358649.0 196574.0 0
363896.0 197508.0 0
372314.0 196380.0 0
376963.0 196224.0 0
382650.0 200437.0 0
378334.0 200731.0 0
387497.0 196200.0 0
387500.0 200736.0 0
392129.0 196961.0 0
390841.0 200538.0 0
396150.0 195674.0 0
394210.0 200130.0 0
401229.0 196231.0 0
397990.0 200133.0 0
411220.0 196561.0 0
415491.0 195882.0 0
417886.0 200700.0 0
421158.0 195832.0 0
428520.0 196798.0 0
427877.0 200689.0 0
430958.0 196202.0 0
435836.0 196001.0 0
442046.0 197745.0 0
446665.0 196170.0 0
447085.0 200426.0 0
451288.0 197396.0 0
456330.0 200070.0 0
461499.0 195843.0 0
466931.0 196577.0 0
470975.0 199321.0 0
478057.0 195736.0 0
482656.0 199634.0 0
488908.0 200017.0 0
493644.0 196074.0 0
497008.0 199726.0 0
2813.72 201349.0 0
2317.44 205791.0 0
7488.63 205452.0 0
11899.8 203937.0 0
17721.8 204861.0 0
25269.5 201727.0 0
22192.6 205455.0 0
33500.7 205054.0 0
37228.9 202455.0 0
41793.9 201464.0 0
47445.2 201584.0 0
53100.9 200894.0 0
58687.6 202628.0 0
63565.2 201021.0 0
67515.9 205301.0 0
72453.3 200777.0 0
72506.6 205388.0 0
81267.1 205617.0 0
87014.9 204532.0 0
92309.0 205698.0 0
101396.0 202495.0 0
97255.6 205720.0 0
107501.0 202694.0 0
113002.0 202547.0 0
121274.0 201984.0 0
126005.0 201169.0 0
123435.0 205720.0 0
132123.0 200796.0 0
134059.0 205836.0 0
137820.0 200981.0 0
142841.0 201515.0 0
137961.0 205567.0 0
142163.0 205516.0 0
152629.0 201794.0 0
157562.0 200816.0 0
158961.0 205203.0 0
162909.0 205128.0 0
167294.0 202580.0 0
171991.0 204490.0 0
177730.0 205693.0 0
182306.0 201773.0 0
188244.0 204394.0 0
193900.0 205250.0 0
199057.0 204971.0 0
204160.0 205408.0 0
214028.0 203920.0 0
209493.0 205025.0 0
217644.0 201647.0 0
222151.0 204235.0 0
226801.0 200896.0 0
226340.0 204758.0 0
235733.0 204337.0 0
240056.0 202532.0 0
243731.0 203443.0 0
250367.0 205679.0 0
256478.0 205563.0 0
266797.0 202935.0 0
272520.0 205363.0 0
278324.0 205131.0 0
283289.0 202590.0 0
289986.0 205234.0 0
293483.0 201691.0 0
299383.0 204650.0 0
303665.0 203961.0 0
307822.0 205485.0 0
317920.0 204843.0 0
322911.0 203165.0 0
327986.0 205062.0 0
333194.0 204709.0 0
342590.0 200783.0 0
346989.0 203484.0 0
351178.0 205738.0 0
357774.0 202255.0 0
362515.0 202321.0 0
367791.0 200795.0 0
373564.0 201012.0 0
377591.0 205409.0 0
387666.0 205193.0 0
383033.0 205602.0 0
394661.0 204748.0 0
400640.0 204518.0 0
405861.0 201580.0 0
412257.0 201195.0 0
423012.0 201098.0 0
432790.0 201158.0 0
428624.0 205520.0 0
437676.0 201645.0 0
441768.0 202414.0 0
448819.0 205287.0 0
452130.0 202558.0 0
461272.0 201498.0 0
466168.0 201160.0 0
470795.0 204509.0 0
476162.0 200762.0 0
488671.0 205537.0 0
492846.0 202869.0 0
497140.0 205589.0 0
2878.67 209623.0 0
7660.86 209913.0 0
13295.7 208335.0 0
17519.0 209754.0 0
21982.8 209741.0 0
25714.2 206253.0 0
29625.2 208042.0 0
25925.9 210146.0 0
33841.2 210909.0 0
36829.8 207476.0 0
38550.8 210944.0 0
41261.4 206692.0 0
46266.9 206813.0 0
47500.0 210549.0 0
51635.8 206239.0 0
56872.8 206890.0 0
62241.3 206477.0 0
69007.1 210397.0 0
73877.0 209858.0 0
76625.3 206451.0 0
77216.7 210276.0 0
80691.4 210719.0 0
86321.4 210840.0 0
92811.6 210705.0 0
102435.0 207645.0 0
106772.0 207838.0 0
111799.0 206523.0 0
113210.0 210634.0 0
117642.0 205994.0 0
122442.0 210504.0 0
128783.0 206224.0 0
131864.0 210573.0 0
136845.0 210115.0 0
147505.0 206037.0 0
144007.0 210804.0 0
152871.0 206728.0 0
150412.0 210599.0 0
157086.0 210423.0 0
162991.0 209515.0 0
167203.0 207219.0 0
173049.0 210123.0 0
183254.0 206454.0 0
186681.0 209773.0 0
191843.0 210128.0 0
196806.0 209322.0 0
201799.0 210418.0 0
207325.0 210129.0 0
213596.0 208188.0 0
217437.0 206029.0 0
220484.0 209070.0 0
225385.0 208606.0 0
230558.0 206088.0 0
235825.0 209816.0 0
240025.0 206492.0 0
245171.0 209524.0 0
252496.0 210690.0 0
262641.0 205873.0 0
262354.0 210653.0 0
267376.0 208450.0 0
277797.0 210151.0 0
282853.0 208129.0 0
289757.0 210007.0 0
294957.0 206138.0 0
293415.0 209713.0 0
297869.0 210646.0 0
303739.0 209112.0 0
313035.0 206626.0 0
320301.0 209168.0 0
324617.0 207734.0 0
328765.0 210712.0 0
334657.0 210020.0 0
338996.0 206074.0 0
344320.0 206064.0 0
348333.0 210541.0 0
354571.0 210459.0 0
358164.0 206636.0 0
358832.0 210597.0 0
362967.0 207227.0 0
367648.0 206160.0 0
372886.0 206642.0 0
376885.0 209230.0 0
380638.0 209883.0 0
386648.0 210380.0 0
390579.0 206080.0 0
391381.0 209464.0 0
396439.0 210457.0 0
400517.0 208896.0 0
404214.0 207820.0 0
409728.0 207042.0 0
416361.0 206481.0 0
422813.0 206755.0 0
426878.0 210363.0 0
433383.0 205977.0 0
431421.0 210264.0 0
438577.0 206898.0 0
444221.0 206211.0 0
447550.0 210468.0 0
452094.0 206548.0 0
452804.0 210735.0 0
457220.0 206330.0 0
462827.0 205976.0 0
461586.0 210194.0 0
466793.0 207246.0 0
470827.0 210304.0 0
476400.0 207141.0 0
482885.0 206375.0 0
480519.0 210792.0 0
492896.0 206591.0 0
2104.63 213780.0 0
6793.23 215409.0 0
12523.0 213696.0 0
18520.4 214791.0 0
24345.7 214518.0 0
30115.2 214888.0 0
39872.9 215000.0 0
43314.5 211753.0 0
47481.0 214724.0 0
51974.9 211886.0 0
58909.9 211444.0 0
64497.1 211669.0 0
71690.5 214744.0 0
77191.2 213893.0 0
82291.2 215707.0 0
93313.1 214812.0 0
98243.0 210980.0 0
97500.0 215583.0 0
103094.0 211609.0 0
107094.0 215157.0 0
102236.0 215384.0 0
109027.0 211018.0 0
112291.0 214885.0 0
117544.0 211704.0 0
126563.0 211116.0 0
122473.0 214574.0 0
132590.0 215333.0 0
137654.0 215057.0 0
140200.0 212428.0 0
142126.0 215492.0 0
147637.0 215276.0 0
153046.0 214609.0 0
161579.0 214451.0 0
167632.0 211883.0 0
171231.0 215991.0 0
176236.0 215984.0 0
183030.0 211064.0 0
178838.0 211759.0 0
184962.0 214852.0 0
190263.0 214419.0 0
195405.0 214906.0 0
201312.0 215872.0 0
212323.0 214017.0 0
216949.0 211222.0 0
218106.0 215553.0 0
222872.0 213529.0 0
229375.0 211123.0 0
232627.0 214687.0 0
238164.0 215497.0 0
240225.0 211513.0 0
243791.0 215859.0 0
248620.0 214430.0 0
254999.0 214748.0 0
257219.0 211022.0 0
259925.0 214919.0 0
266658.0 215492.0 0
272616.0 211471.0 0
276490.0 215018.0 0
281554.0 213878.0 0
285974.0 211633.0 0
292798.0 214533.0 0
303426.0 214406.0 0
309258.0 211050.0 0
307680.0 215705.0 0
315427.0 212045.0 0
323690.0 212689.0 0
332683.0 214658.0 0
338216.0 212274.0 0
337212.0 216055.0 0
342801.0 211211.0 0
346955.0 215940.0 0
352958.0 215737.0 0
358289.0 214415.0 0
362306.0 211280.0 0
366733.0 211199.0 0
363851.0 215674.0 0
371989.0 212027.0 0
368577.0 215310.0 0
377264.0 213533.0 0
372516.0 215904.0 0
383137.0 214852.0 0
392796.0 214201.0 0
396698.0 215978.0 0
401633.0 213970.0 0
407475.0 212506.0 0
413219.0 212337.0 0
418109.0 211524.0 0
417500.0 215482.0 0
422108.0 211910.0 0
423654.0 215811.0 0
429096.0 214561.0 0
432842.0 215742.0 0
436289.0 212243.0 0
442100.0 211553.0 0
439597.0 215895.0 0
445091.0 215545.0 0
449570.0 215199.0 0
453928.0 215545.0 0
457500.0 212401.0 0
461735.0 214751.0 0
465842.0 211302.0 0
466236.0 216011.0 0
476633.0 213065.0 0
481396.0 215415.0 0
485119.0 211418.0 0
491128.0 211383.0 0
497365.0 211081.0 0
3506.58 220861.0 0
8912.79 220675.0 0
12819.2 219122.0 0
18045.9 221001.0 0
23734.8 219884.0 0
29009.0 220684.0 0
35415.9 216325.0 0
33721.3 220487.0 0
38524.6 220808.0 0
43533.6 217038.0 0
47740.8 219487.0 0
51744.3 216724.0 0
56705.1 216473.0 0
61964.1 216484.0 0
66637.9 216164.0 0
66400.1 220756.0 0
71634.3 220629.0 0
78211.4 221111.0 0
84123.0 220451.0 0
88450.1 217157.0 0
94100.3 219026.0 0
99300.5 220280.0 0
108319.0 220122.0 0
113637.0 219727.0 0
117489.0 216318.0 0
122393.0 218966.0 0
118189.0 220764.0 0
126889.0 221027.0 0
127669.0 216081.0 0
131335.0 220177.0 0
135400.0 218813.0 0
139963.0 219763.0 0
145195.0 220410.0 0
151683.0 220719.0 0
157497.0 216303.0 0
162225.0 219880.0 0
165668.0 216138.0 0
167838.0 220455.0 0
180328.0 216431.0 0
178658.0 220405.0 0
183498.0 220399.0 0
188826.0 218523.0 0
193402.0 221151.0 0
198164.0 219618.0 0
206584.0 216197.0 0
212378.0 220418.0 0
217313.0 220017.0 0
221940.0 218869.0 0
227523.0 216142.0 0
226297.0 220935.0 0
231237.0 220083.0 0
236066.0 220679.0 0
240758.0 220523.0 0
247332.0 219894.0 0
251705.0 217755.0 0
256820.0 219900.0 0
262024.0 220041.0 0
272632.0 216413.0 0
272434.0 221157.0 0
277768.0 219447.0 0
282670.0 219375.0 0
287001.0 216223.0 0
294277.0 221149.0 0
298711.0 216513.0 0
304166.0 219416.0 0
308988.0 220688.0 0
312788.0 217321.0 0
319109.0 216410.0 0
323803.0 216914.0 0
328216.0 216355.0 0
333158.0 220821.0 0
341744.0 216449.0 0
343438.0 220468.0 0
347372.0 220739.0 0
357561.0 219767.0 0
363012.0 220710.0 0
368206.0 220150.0 0
373384.0 219565.0 0
378059.0 218634.0 0
382808.0 221002.0 0
388492.0 216084.0 0
392116.0 219156.0 0
397058.0 220328.0 0
402872.0 220642.0 0
407560.0 220649.0 0
408625.0 217099.0 0
412940.0 217300.0 0
416297.0 220446.0 0
421524.0 220242.0 0
427086.0 219626.0 0
436284.0 219406.0 0
442627.0 220810.0 0
449564.0 220826.0 0
458051.0 216964.0 0
454946.0 220214.0 0
462488.0 218984.0 0
466448.0 220873.0 0
472009.0 216330.0 0
477068.0 217684.0 0
487085.0 216635.0 0
492809.0 217280.0 0
497596.0 216114.0 0
7860.82 224739.0 0
13198.7 225032.0 0
22913.6 225515.0 0
28302.8 225827.0 0
33684.8 225396.0 0
38744.2 225746.0 0
43678.3 221759.0 0
42462.6 225591.0 0
47500.0 225359.0 0
52004.0 221281.0 0
52557.5 225678.0 0
56979.5 221880.0 0
61796.3 221192.0 0
62773.9 225659.0 0
67039.9 225557.0 0
82589.4 225503.0 0
87688.4 222232.0 0
87056.7 226147.0 0
92062.5 224341.0 0
97669.7 225570.0 0
103853.0 221717.0 0
102295.0 225389.0 0
107409.0 225955.0 0
113346.0 225144.0 0
121263.0 224254.0 0
129830.0 224442.0 0
135552.0 224612.0 0
141807.0 224630.0 0
152816.0 226068.0 0
157462.0 221470.0 0
156960.0 225947.0 0
162563.0 225994.0 0
173462.0 221628.0 0
168612.0 225973.0 0
178546.0 225490.0 0
188007.0 224409.0 0
193372.0 225958.0 0
197866.0 224643.0 0
202227.0 221196.0 0
202706.0 225392.0 0
207013.0 221366.0 0
206538.0 225755.0 0
210416.0 224999.0 0
215938.0 224539.0 0
222031.0 225009.0 0
227891.0 225399.0 0
232870.0 224551.0 0
237577.0 225155.0 0
243286.0 225004.0 0
248664.0 225368.0 0
251815.0 221762.0 0
254447.0 225432.0 0
259269.0 224742.0 0
266306.0 222819.0 0
270745.0 225440.0 0
276853.0 224014.0 0
282828.0 225531.0 0
287571.0 221707.0 0
299739.0 221328.0 0
298265.0 225622.0 0
306027.0 225011.0 0
315364.0 222222.0 0
311332.0 223739.0 0
320387.0 221421.0 0
318482.0 225474.0 0
326098.0 221653.0 0
322500.0 225644.0 0
339145.0 221343.0 0
337016.0 225209.0 0
341122.0 225131.0 0
346184.0 225264.0 0
351809.0 221284.0 0
357135.0 225085.0 0
361937.0 225623.0 0
372172.0 224179.0 0
377870.0 224627.0 0
388001.0 221805.0 0
392970.0 224371.0 0
398548.0 225750.0 0
404604.0 225802.0 0
411391.0 221594.0 0
408305.0 225806.0 0
411600.0 225887.0 0
415648.0 225241.0 0
420774.0 225731.0 0
427258.0 226180.0 0
431836.0 221891.0 0
432708.0 225960.0 0
437828.0 226011.0 0
453713.0 225049.0 0
459034.0 221247.0 0
458585.0 225338.0 0
462382.0 223453.0 0
466455.0 225753.0 0
470795.0 221497.0 0
471666.0 226154.0 0
475072.0 221240.0 0
476744.0 225818.0 0
479814.0 221730.0 0
485459.0 222296.0 0
489724.0 225614.0 0
491394.0 221489.0 0
496535.0 221591.0 0
3164.76 227524.0 0
11599.4 231149.0 0
18016.5 226975.0 0
22463.8 231186.0 0
27690.2 230888.0 0
32846.5 230776.0 0
37849.1 230279.0 0
42860.5 230380.0 0
47500.0 230442.0 0
52500.0 230361.0 0
57797.3 227194.0 0
62273.8 230715.0 0
67614.2 229943.0 0
72935.3 226680.0 0
78321.3 226910.0 0
81627.5 230408.0 0
77001.3 230797.0 0
86239.0 230268.0 0
91741.1 230754.0 0
97809.6 230958.0 0
102672.0 229937.0 0
111197.0 230028.0 0
115541.0 230826.0 0
117556.0 226495.0 0
120820.0 230145.0 0
125793.0 226947.0 0
131559.0 230430.0 0
137590.0 230799.0 0
147625.0 226760.0 0
143033.0 231239.0 0
152334.0 230056.0 0
156774.0 230628.0 0
165867.0 230505.0 0
170815.0 230931.0 0
173681.0 227001.0 0
183147.0 227122.0 0
181149.0 230638.0 0
190724.0 229343.0 0
195907.0 230280.0 0
202303.0 229077.0 0
207019.0 230770.0 0
212687.0 229217.0 0
217360.0 228965.0 0
221320.0 230513.0 0
226107.0 230230.0 0
231886.0 229604.0 0
240965.0 229250.0 0
246407.0 231336.0 0
252566.0 230700.0 0
257955.0 228791.0 0
262863.0 226535.0 0
267432.0 228516.0 0
272734.0 229529.0 0
277834.0 228712.0 0
288067.0 227036.0 0
292392.0 226704.0 0
296063.0 230804.0 0
302089.0 229673.0 0
310185.0 226558.0 0
308497.0 230525.0 0
314050.0 227243.0 0
318495.0 230041.0 0
325751.0 230008.0 0
328895.0 226320.0 0
333248.0 227198.0 0
336305.0 230883.0 0
342218.0 230530.0 0
352139.0 227391.0 0
357715.0 230949.0 0
363371.0 230545.0 0
367472.0 226920.0 0
372128.0 230299.0 0
377595.0 230590.0 0
383977.0 227047.0 0
389039.0 226566.0 0
393858.0 230047.0 0
413408.0 230074.0 0
418015.0 230684.0 0
422331.0 230773.0 0
432985.0 230217.0 0
437053.0 230938.0 0
443856.0 227059.0 0
448898.0 226948.0 0
447415.0 230322.0 0
451703.0 230902.0 0
455863.0 229318.0 0
461827.0 230631.0 0
468601.0 231332.0 0
474668.0 231240.0 0
482112.0 226602.0 0
480001.0 230707.0 0
486587.0 230830.0 0
493000.0 227603.0 0
497149.0 227585.0 0
2175.08 232771.0 0
6289.96 231723.0 0
6704.61 235592.0 0
17536.7 231439.0 0
17237.5 235936.0 0
21689.6 236061.0 0
26625.8 236090.0 0
32269.6 236231.0 0
37800.7 235349.0 0
42911.0 235496.0 0
48373.5 235315.0 0
53049.3 235544.0 0
57471.2 231655.0 0
57491.6 235940.0 0
62500.0 235528.0 0
67351.0 235552.0 0
72220.4 232401.0 0
77090.0 235725.0 0
80945.3 235712.0 0
86598.4 235441.0 0
98143.0 236002.0 0
106903.0 232101.0 0
102893.0 234954.0 0
112144.0 235329.0 0
117789.0 235196.0 0
126021.0 231779.0 0
127517.0 235494.0 0
135063.0 234305.0 0
148509.0 232567.0 0
153456.0 235851.0 0
161251.0 231842.0 0
159439.0 236387.0 0
165969.0 235719.0 0
171465.0 236157.0 0
176301.0 231573.0 0
186187.0 232639.0 0
191884.0 234083.0 0
201239.0 234035.0 0
211862.0 234986.0 0
217586.0 233683.0 0
222975.0 235166.0 0
228685.0 235191.0 0
233717.0 234571.0 0
236934.0 231715.0 0
236984.0 236259.0 0
241136.0 234598.0 0
251687.0 236142.0 0
257177.0 233260.0 0
262509.0 231581.0 0
268884.0 234498.0 0
276228.0 232936.0 0
279021.0 235994.0 0
283410.0 232569.0 0
290022.0 231553.0 0
288595.0 236302.0 0
300193.0 235841.0 0
305280.0 234187.0 0
308881.0 236439.0 0
313706.0 232374.0 0
316782.0 235199.0 0
322152.0 232762.0 0
331013.0 231760.0 0
326684.0 236444.0 0
338665.0 235258.0 0
342799.0 235995.0 0
347987.0 231462.0 0
347415.0 236433.0 0
352469.0 233048.0 0
362633.0 235366.0 0
367625.0 233029.0 0
371863.0 235770.0 0
382669.0 233317.0 0
388202.0 231437.0 0
391984.0 236228.0 0
397810.0 233908.0 0
403548.0 231600.0 0
409206.0 232346.0 0
411809.0 236047.0 0
417019.0 235223.0 0
427432.0 232932.0 0
437979.0 236158.0 0
442560.0 232548.0 0
448192.0 235377.0 0
455967.0 235230.0 0
466226.0 235842.0 0
477524.0 236040.0 0
481988.0 234685.0 0
493165.0 231980.0 0
498364.0 231905.0 0
2648.27 237052.0 0
11883.6 237935.0 0
72974.1 236737.0 0
92662.9 237349.0 0
107106.0 237455.0 0
123040.0 236863.0 0
131674.0 237235.0 0
139793.0 236932.0 0
146645.0 237802.0 0
162838.0 239374.0 0
177279.0 237793.0 0
183204.0 237920.0 0
188838.0 238229.0 0
195941.0 237930.0 0
201230.0 239470.0 0
206407.0 237502.0 0
210794.0 240651.0 0
216420.0 239429.0 0
222474.0 240897.0 0
227962.0 240596.0 0
233924.0 239397.0 0
240341.0 240378.0 0
246169.0 237762.0 0
253468.0 240907.0 0
258377.0 238248.0 0
263479.0 237171.0 0
261358.0 241315.0 0
274511.0 237178.0 0
270703.0 240018.0 0
278601.0 241474.0 0
284478.0 238948.0 0
289819.0 240847.0 0
293683.0 236500.0 0
297135.0 241213.0 0
305006.0 238172.0 0
313472.0 237380.0 0
320575.0 236900.0 0
333861.0 236715.0 0
352858.0 237873.0 0
357815.0 236734.0 0
367022.0 237375.0 0
377440.0 236516.0 0
382625.0 237677.0 0
386622.0 236966.0 0
396543.0 238025.0 0
401644.0 238322.0 0
406986.0 236548.0 0
422567.0 236509.0 0
427263.0 238637.0 0
432184.0 236811.0 0
442950.0 238101.0 0
452071.0 238547.0 0
461567.0 237189.0 0
471900.0 237558.0 0
481330.0 238526.0 0
486495.0 238147.0 0
491854.0 237087.0 0
497014.0 236669.0 0
199572.0 244391.0 0
204478.0 242033.0 0
204447.0 246166.0 0
209455.0 245640.0 0
215733.0 245534.0 0
221141.0 246277.0 0
226647.0 246311.0 0
231466.0 243938.0 0
236557.0 242723.0 0
235323.0 245894.0 0
244601.0 243435.0 0
240448.0 246479.0 0
248993.0 242312.0 0
252384.0 245844.0 0
257900.0 243804.0 0
262172.0 244397.0 0
265885.0 242063.0 0
271468.0 245155.0 0
283459.0 243592.0 0
287254.0 245154.0 0
293223.0 245728.0 0
299482.0 246582.0 0
302385.0 241761.0 0
200570.0 250677.0 0
206828.0 250654.0 0
212346.0 249855.0 0
218218.0 251210.0 0
223361.0 250197.0 0
231817.0 249245.0 0
236726.0 249559.0 0
245799.0 248584.0 0
250599.0 250146.0 0
256856.0 250204.0 0
262923.0 248468.0 0
268032.0 249301.0 0
273343.0 251523.0 0
276415.0 246841.0 0
278891.0 250744.0 0
280934.0 246728.0 0
284563.0 248020.0 0
283257.0 251609.0 0
288818.0 250445.0 0
294303.0 251327.0 0
298358.0 251289.0 0
208343.0 256153.0 0
213595.0 254936.0 0
218683.0 256585.0 0
223711.0 256202.0 0
227344.0 252269.0 0
228233.0 256833.0 0
231678.0 254617.0 0
236093.0 253620.0 0
240958.0 252202.0 0
240600.0 256283.0 0
246380.0 254451.0 0
252215.0 254880.0 0
257463.0 256097.0 0
261596.0 253605.0 0
266660.0 254531.0 0
271774.0 256285.0 0
276904.0 255510.0 0
281083.0 254663.0 0
285900.0 255647.0 0
291466.0 255385.0 0
297265.0 255887.0 0
10310.7 260485.0 0
202167.0 257055.0 0
206119.0 261556.0 0
210333.0 260157.0 0
215198.0 260474.0 0
220813.0 260811.0 0
226491.0 261778.0 0
231215.0 259224.0 0
237007.0 259053.0 0
243165.0 259056.0 0
248816.0 259829.0 0
254689.0 260029.0 0
261853.0 258921.0 0
268409.0 261003.0 0
274602.0 259554.0 0
279542.0 258369.0 0
283537.0 260578.0 0
289169.0 260176.0 0
293916.0 259487.0 0
341742.0 258149.0 0
174681.0 266934.0 0
201811.0 264180.0 0
206251.0 266866.0 0
211441.0 265003.0 0
216917.0 266013.0 0
222265.0 265676.0 0
228042.0 266288.0 0
232135.0 264295.0 0
237057.0 264436.0 0
241908.0 264492.0 0
247662.0 265725.0 0
253232.0 265179.0 0
258641.0 263695.0 0
262730.0 266255.0 0
273137.0 265869.0 0
278616.0 262450.0 0
282866.0 264833.0 0
287182.0 266408.0 0
293019.0 264693.0 0
297976.0 262044.0 0
309756.0 262015.0 0
389098.0 267005.0 0
404603.0 265271.0 0
421499.0 266542.0 0
443009.0 266190.0 0
455114.0 266571.0 0
497243.0 266139.0 0
6878.9 270295.0 0
48261.5 267909.0 0
56374.4 271823.0 0
63868.7 271832.0 0
96187.4 272099.0 0
100416.0 271546.0 0
126005.0 271267.0 0
167796.0 270157.0 0
177286.0 270987.0 0
191569.0 272139.0 0
201364.0 268957.0 0
205142.0 271759.0 0
210422.0 270673.0 0
215512.0 270704.0 0
220081.0 270129.0 0
225522.0 269779.0 0
231421.0 270426.0 0
237510.0 269350.0 0
248058.0 271790.0 0
253776.0 270525.0 0
258820.0 268889.0 0
263576.0 271445.0 0
267374.0 267280.0 0
274269.0 271129.0 0
279212.0 268173.0 0
284336.0 271385.0 0
288856.0 271004.0 0
292817.0 269974.0 0
297885.0 268552.0 0
317421.0 270234.0 0
322450.0 271625.0 0
357807.0 269741.0 0
362467.0 268158.0 0
368610.0 267941.0 0
374583.0 270582.0 0
437044.0 269832.0 0
461586.0 270432.0 0
472319.0 267314.0 0
476569.0 270558.0 0
481239.0 271651.0 0
492537.0 268291.0 0
14254.8 274848.0 0
22442.4 276163.0 0
30433.9 276068.0 0
36537.1 276601.0 0
68827.6 272852.0 0
75161.9 274887.0 0
79658.9 273586.0 0
85031.3 274284.0 0
107589.0 273283.0 0
111005.0 275128.0 0
115161.0 273585.0 0
121008.0 273478.0 0
131855.0 275589.0 0
137504.0 274602.0 0
142262.0 276855.0 0
154054.0 273888.0 0
158565.0 273282.0 0
173221.0 276010.0 0
178735.0 274353.0 0
196244.0 273068.0 0
200886.0 273315.0 0
208000.0 274755.0 0
204082.0 276404.0 0
213359.0 275574.0 0
217848.0 274373.0 0
222323.0 274296.0 0
227458.0 275077.0 0
233021.0 276159.0 0
238129.0 275306.0 0
242308.0 272371.0 0
241702.0 277154.0 0
245362.0 276299.0 0
251058.0 276663.0 0
259055.0 273297.0 0
255502.0 275063.0 0
261790.0 275744.0 0
269203.0 272398.0 0
273096.0 275423.0 0
277796.0 274843.0 0
282145.0 275167.0 0
287762.0 275157.0 0
292966.0 274978.0 0
297457.0 273555.0 0
309917.0 273520.0 0
322451.0 276337.0 0
326630.0 277096.0 0
339605.0 276714.0 0
391311.0 273683.0 0
396056.0 275122.0 0
417127.0 276188.0 0
423600.0 274494.0 0
439714.0 277054.0 0
449230.0 276204.0 0
462790.0 276881.0 0
466760.0 275694.0 0
471850.0 274291.0 0
479717.0 276934.0 0
484429.0 277014.0 0
497839.0 275590.0 0
8033.11 280484.0 0
14588.8 281672.0 0
17655.2 278164.0 0
30589.4 282270.0 0
40985.6 281006.0 0
48339.7 278813.0 0
53010.0 278810.0 0
88220.9 280274.0 0
93065.2 278200.0 0
97919.2 280325.0 0
119140.0 280475.0 0
124379.0 278373.0 0
146000.0 280306.0 0
150902.0 278178.0 0
155278.0 281543.0 0
169989.0 281262.0 0
178042.0 277854.0 0
177569.0 282023.0 0
188923.0 282328.0 0
199535.0 280929.0 0
204407.0 281543.0 0
209316.0 279129.0 0
215067.0 281106.0 0
220064.0 278365.0 0
225950.0 280058.0 0
230702.0 280914.0 0
236387.0 280653.0 0
241424.0 280929.0 0
247379.0 281725.0 0
253468.0 281169.0 0
257880.0 278945.0 0
262773.0 279973.0 0
267220.0 277444.0 0
271752.0 279873.0 0
276231.0 281327.0 0
284676.0 277658.0 0
280752.0 279400.0 0
287944.0 280112.0 0
292564.0 279890.0 0
296826.0 278060.0 0
300499.0 280476.0 0
304857.0 280969.0 0
308758.0 280154.0 0
318278.0 280358.0 0
330913.0 277370.0 0
335045.0 280030.0 0
345114.0 278906.0 0
342101.0 282307.0 0
364943.0 281464.0 0
377600.0 282326.0 0
383597.0 281117.0 0
388726.0 278198.0 0
390690.0 282128.0 0
393964.0 280005.0 0
398809.0 282157.0 0
407296.0 279275.0 0
412976.0 281597.0 0
422388.0 279960.0 0
426612.0 278062.0 0
431907.0 278765.0 0
436080.0 280603.0 0
444222.0 279311.0 0
458451.0 279070.0 0
478880.0 282154.0 0
489239.0 279939.0 0
2631.23 283455.0 0
10165.2 286707.0 0
18911.2 283999.0 0
27252.5 286322.0 0
37311.7 284601.0 0
45936.2 282481.0 0
54909.3 285471.0 0
60744.6 286519.0 0
85759.2 285490.0 0
91010.0 285622.0 0
92904.6 283209.0 0
96476.5 284647.0 0
100409.0 286815.0 0
102310.0 282432.0 0
105708.0 285523.0 0
113050.0 282490.0 0
126262.0 282580.0 0
127597.0 287308.0 0
137141.0 284040.0 0
132697.0 285959.0 0
166524.0 285318.0 0
175196.0 287358.0 0
183086.0 283677.0 0
194747.0 283599.0 0
208775.0 284340.0 0
204249.0 287057.0 0
218418.0 286195.0 0
222087.0 282631.0 0
222788.0 286528.0 0
226655.0 284889.0 0
231895.0 286104.0 0
237320.0 286068.0 0
242504.0 285564.0 0
252148.0 286091.0 0
257610.0 284725.0 0
262740.0 284672.0 0
267281.0 282780.0 0
272532.0 285574.0 0
278425.0 285460.0 0
284101.0 284300.0 0
290973.0 285242.0 0
296383.0 282807.0 0
305457.0 284902.0 0
309713.0 284316.0 0
314014.0 283059.0 0
341691.0 287201.0 0
348027.0 282461.0 0
360423.0 285266.0 0
368691.0 284097.0 0
373639.0 286516.0 0
380959.0 287106.0 0
385630.0 285848.0 0
394399.0 284795.0 0
398411.0 286175.0 0
403236.0 283028.0 0
415149.0 286040.0 0
431773.0 284288.0 0
462565.0 286702.0 0
473827.0 283719.0 0
483291.0 285752.0 0
488293.0 287200.0 0
492521.0 283937.0 0
497266.0 283694.0 0
4198.95 288558.0 0
1396.57 291548.0 0
8211.08 290514.0 0
11918.4 291989.0 0
16619.4 291458.0 0
21754.5 290154.0 0
31965.1 288807.0 0
40529.6 292428.0 0
44551.6 287963.0 0
49617.5 288898.0 0
53511.7 290440.0 0
65233.2 289663.0 0
73247.1 288557.0 0
79797.4 289055.0 0
97591.4 290250.0 0
101262.0 291366.0 0
118044.0 287779.0 0
122206.0 289778.0 0
125707.0 291001.0 0
132217.0 292042.0 0
140009.0 288267.0 0
145853.0 288284.0 0
150246.0 291700.0 0
157949.0 290453.0 0
162385.0 291233.0 0
169946.0 289022.0 0
178322.0 290871.0 0
173828.0 292178.0 0
182125.0 288919.0 0
208494.0 289820.0 0
213001.0 287501.0 0
212185.0 292397.0 0
221536.0 290465.0 0
226388.0 289833.0 0
231036.0 291446.0 0
236953.0 292016.0 0
242598.0 290627.0 0
247181.0 288098.0 0
247335.0 292552.0 0
251018.0 291224.0 0
255658.0 289954.0 0
261566.0 290069.0 0
265987.0 288537.0 0
270036.0 292358.0 0
276306.0 291310.0 0
281566.0 288909.0 0
286618.0 289863.0 0
291668.0 292406.0 0
296243.0 288937.0 0
301915.0 287937.0 0
305266.0 291711.0 0
308862.0 288933.0 0
312812.0 288310.0 0
315851.0 292137.0 0
321608.0 291904.0 0
329672.0 290627.0 0
335177.0 287536.0 0
345721.0 292361.0 0
350533.0 289954.0 0
355714.0 291448.0 0
368277.0 289601.0 0
376826.0 291559.0 0
388242.0 289086.0 0
397327.0 291390.0 0
402468.0 287930.0 0
406830.0 290543.0 0
411664.0 289037.0 0
417627.0 290852.0 0
435876.0 291935.0 0
440796.0 289541.0 0
448497.0 291900.0 0
468005.0 288360.0 0
472750.0 289394.0 0
494690.0 288644.0 0
490331.0 291784.0 0
498185.0 291737.0 0
9024.03 295393.0 0
22141.1 295641.0 0
27556.0 296665.0 0
31750.6 293550.0 0
36111.9 292799.0 0
42506.5 296071.0 0
47221.1 296785.0 0
55082.9 294542.0 0
71070.6 294891.0 0
75981.4 293445.0 0
87177.6 296387.0 0
101304.0 296589.0 0
105416.0 296996.0 0
115988.0 294608.0 0
121376.0 295415.0 0
127453.0 294448.0 0
137709.0 293523.0 0
134374.0 296400.0 0
136926.0 296696.0 0
142940.0 296156.0 0
154955.0 297089.0 0
159503.0 295813.0 0
166757.0 293809.0 0
170964.0 295617.0 0
178095.0 295134.0 0
182575.0 293697.0 0
188423.0 295626.0 0
198194.0 295286.0 0
203601.0 292639.0 0
208336.0 294864.0 0
213344.0 297056.0 0
217002.0 293064.0 0
221888.0 295715.0 0
227464.0 295571.0 0
232910.0 296454.0 0
244007.0 296069.0 0
249419.0 295921.0 0
253932.0 296153.0 0
259254.0 294607.0 0
265044.0 293333.0 0
263828.0 297345.0 0
268006.0 296751.0 0
272685.0 296830.0 0
278027.0 297639.0 0
282377.0 293841.0 0
287566.0 296026.0 0
296087.0 294575.0 0
310186.0 295315.0 0
326129.0 295103.0 0
329885.0 297047.0 0
332766.0 295020.0 0
359390.0 295117.0 0
365233.0 294160.0 0
371514.0 294069.0 0
375763.0 297462.0 0
382983.0 294399.0 0
392773.0 293553.0 0
402414.0 292690.0 0
405524.0 295653.0 0
418256.0 296017.0 0
423877.0 296069.0 0
430432.0 293601.0 0
443743.0 293831.0 0
448865.0 296775.0 0
457751.0 295341.0 0
463509.0 295452.0 0
472922.0 293718.0 0
469551.0 296835.0 0
477904.0 293839.0 0
492549.0 295640.0 0
497345.0 296634.0 0
12432.9 301028.0 0
18261.9 300989.0 0
35807.4 300164.0 0
40409.5 300872.0 0
57767.4 298282.0 0
62118.7 299788.0 0
66580.1 297931.0 0
78232.9 298818.0 0
83627.7 301084.0 0
88025.0 301896.0 0
92596.4 298836.0 0
98112.3 302537.0 0
110427.0 298878.0 0
115498.0 300709.0 0
119859.0 299070.0 0
125026.0 297848.0 0
124322.0 301877.0 0
145130.0 300160.0 0
149278.0 298287.0 0
152637.0 301526.0 0
157044.0 301636.0 0
162950.0 298128.0 0
175791.0 299883.0 0
179935.0 298535.0 0
193803.0 298456.0 0
202881.0 298241.0 0
208379.0 300327.0 0
213633.0 302626.0 0
218056.0 299566.0 0
223604.0 300649.0 0
229039.0 300554.0 0
233882.0 301611.0 0
238287.0 298234.0 0
242504.0 301764.0 0
247734.0 300678.0 0
252004.0 299535.0 0
255721.0 301462.0 0
260653.0 300559.0 0
265217.0 301347.0 0
269721.0 300898.0 0
274711.0 302328.0 0
283188.0 299184.0 0
288138.0 301845.0 0
292509.0 297842.0 0
293574.0 302637.0 0
296862.0 298583.0 0
297767.0 302237.0 0
305809.0 299190.0 0
301394.0 299733.0 0
309213.0 300314.0 0
315912.0 298005.0 0
320548.0 302095.0 0
332502.0 299944.0 0
337497.0 299838.0 0
344487.0 300754.0 0
350089.0 300293.0 0
354804.0 298830.0 0
359342.0 300646.0 0
363529.0 298769.0 0
368250.0 299224.0 0
379842.0 300031.0 0
383935.0 300100.0 0
388117.0 297933.0 0
396224.0 302102.0 0
420703.0 299743.0 0
428710.0 299578.0 0
443848.0 302267.0 0
453540.0 298096.0 0
473869.0 297834.0 0
480010.0 299313.0 0
485101.0 297916.0 0
2385.26 306082.0 0
11457.4 307165.0 0
19755.7 305513.0 0
23726.9 306741.0 0
28043.2 307496.0 0
31572.7 303164.0 0
37894.0 307021.0 0
42563.5 304791.0 0
48901.4 307619.0 0
59411.4 306148.0 0
73236.5 304904.0 0
78992.8 306732.0 0
84814.0 306949.0 0
103476.0 305964.0 0
108327.0 307393.0 0
119756.0 302958.0 0
127047.0 306181.0 0
137186.0 303955.0 0
133529.0 306663.0 0
141682.0 306708.0 0
178009.0 306951.0 0
182816.0 306625.0 0
188845.0 306552.0 0
203858.0 303332.0 0
208074.0 305817.0 0
212467.0 307387.0 0
217764.0 306335.0 0
220712.0 302960.0 0
223043.0 306250.0 0
226285.0 303640.0 0
230321.0 305473.0 0
238183.0 303254.0 0
235416.0 306548.0 0
240557.0 306717.0 0
245783.0 306227.0 0
251493.0 304681.0 0
256395.0 306519.0 0
262262.0 305393.0 0
267759.0 305703.0 0
272920.0 307487.0 0
278143.0 307015.0 0
281330.0 303523.0 0
284670.0 306520.0 0
290894.0 307240.0 0
296521.0 307058.0 0
320417.0 307687.0 0
324961.0 307612.0 0
327915.0 304602.0 0
332244.0 303879.0 0
349617.0 307012.0 0
373783.0 305200.0 0
391305.0 305542.0 0
401114.0 304059.0 0
405441.0 306176.0 0
415232.0 306579.0 0
420447.0 307229.0 0
441300.0 306531.0 0
447423.0 306118.0 0
452098.0 307898.0 0
460614.0 303279.0 0
463371.0 307599.0 0
468386.0 305033.0 0
475351.0 303036.0 0
482264.0 305827.0 0
486287.0 303465.0 0
488314.0 307337.0 0
491602.0 305053.0 0
6006.39 309777.0 0
10345.6 312591.0 0
17628.4 311210.0 0
31549.5 310469.0 0
44669.6 309443.0 0
53337.5 309713.0 0
57735.5 309621.0 0
81396.5 311050.0 0
88732.2 312287.0 0
94616.0 312992.0 0
131487.0 310713.0 0
147366.0 308614.0 0
151889.0 312377.0 0
157006.0 310970.0 0
162148.0 310668.0 0
166764.0 309627.0 0
172721.0 309790.0 0
195076.0 308815.0 0
203966.0 308877.0 0
208988.0 311058.0 0
215423.0 311998.0 0
220829.0 310597.0 0
226901.0 309775.0 0
232157.0 310291.0 0
237585.0 311290.0 0
242701.0 310438.0 0
247669.0 312140.0 0
251771.0 309260.0 0
259937.0 309552.0 0
255609.0 311705.0 0
264650.0 310244.0 0
269297.0 310329.0 0
275663.0 312262.0 0
282085.0 311844.0 0
288377.0 312393.0 0
294165.0 312318.0 0
307859.0 311302.0 0
313339.0 312862.0 0
318165.0 311944.0 0
339112.0 309803.0 0
344315.0 311945.0 0
356286.0 307931.0 0
361855.0 310743.0 0
366109.0 308180.0 0
370489.0 308474.0 0
373349.0 311476.0 0
382120.0 311542.0 0
377846.0 312079.0 0
386421.0 311770.0 0
410203.0 308097.0 0
424465.0 310075.0 0
429055.0 309625.0 0
436061.0 308039.0 0
444448.0 312551.0 0
456662.0 313000.0 0
472620.0 307930.0 0
478625.0 308196.0 0
475464.0 311216.0 0
484076.0 312284.0 0
497634.0 308870.0 0
14356.5 313526.0 0
21198.9 313395.0 0
23712.7 316743.0 0
27712.7 317657.0 0
73587.4 316166.0 0
78890.1 317993.0 0
99836.4 316027.0 0
115852.0 313497.0 0
124424.0 314819.0 0
129417.0 315131.0 0
137331.0 316710.0 0
178121.0 316983.0 0
182877.0 315530.0 0
190151.0 315749.0 0
198863.0 317179.0 0
204536.0 314657.0 0
209813.0 316028.0 0
214273.0 317720.0 0
219382.0 315909.0 0
223892.0 313680.0 0
228553.0 315560.0 0
233634.0 314674.0 0
237510.0 317186.0 0
241573.0 314714.0 0
249636.0 316915.0 0
245267.0 317559.0 0
254553.0 317165.0 0
260839.0 315285.0 0
267630.0 315170.0 0
273080.0 317277.0 0
278623.0 317156.0 0
282935.0 316815.0 0
286580.0 316975.0 0
291008.0 316823.0 0
295786.0 317632.0 0
304833.0 315731.0 0
333604.0 313381.0 0
345237.0 316462.0 0
348224.0 313912.0 0
375332.0 314844.0 0
396070.0 316728.0 0
405148.0 316748.0 0
412280.0 314584.0 0
416387.0 316239.0 0
425494.0 314018.0 0
431748.0 317035.0 0
434661.0 313041.0 0
439140.0 314844.0 0
452878.0 316458.0 0
457920.0 317955.0 0
461427.0 314447.0 0
465643.0 316499.0 0
478873.0 313880.0 0
2520.43 318271.0 0
35470.8 320349.0 0
31330.3 320762.0 0
38957.8 318727.0 0
64003.3 318857.0 0
69034.9 318769.0 0
79117.6 322811.0 0
83595.1 320443.0 0
106851.0 319142.0 0
102136.0 320755.0 0
111993.0 318608.0 0
115838.0 319258.0 0
118035.0 322773.0 0
122579.0 320892.0 0
132091.0 318544.0 0
141484.0 318347.0 0
173534.0 318368.0 0
187621.0 321184.0 0
194183.0 318986.0 0
206165.0 319137.0 0
204357.0 322235.0 0
210208.0 320631.0 0
219003.0 320791.0 0
214471.0 322538.0 0
223634.0 318239.0 0
223352.0 323009.0 0
227926.0 321200.0 0
232406.0 319144.0 0
236317.0 322242.0 0
241301.0 320483.0 0
246218.0 322741.0 0
251079.0 321017.0 0
256303.0 323146.0 0
262861.0 321992.0 0
268059.0 320381.0 0
272177.0 322399.0 0
277010.0 322081.0 0
282245.0 321584.0 0
286578.0 320653.0 0
292295.0 321383.0 0
296349.0 321136.0 0
320801.0 319190.0 0
326082.0 318176.0 0
339966.0 319182.0 0
338749.0 322389.0 0
344226.0 320408.0 0
348323.0 318242.0 0
353398.0 319414.0 0
377578.0 320948.0 0
383309.0 323083.0 0
387759.0 318473.0 0
391971.0 319671.0 0
417562.0 320631.0 0
422843.0 318903.0 0
429251.0 321678.0 0
440415.0 322627.0 0
448734.0 320132.0 0
444373.0 321705.0 0
483950.0 322352.0 0
488519.0 320221.0 0
493893.0 318907.0 0
23860.2 327409.0 0
58276.5 323493.0 0
62760.5 323644.0 0
85357.4 325114.0 0
89677.3 326283.0 0
114635.0 326479.0 0
119205.0 326933.0 0
148593.0 326053.0 0
154063.0 327129.0 0
160451.0 327843.0 0
177642.0 326612.0 0
182265.0 324801.0 0
186511.0 324886.0 0
204008.0 326691.0 0
209787.0 326082.0 0
219173.0 325481.0 0
215090.0 326939.0 0
222790.0 327467.0 0
226787.0 325976.0 0
232144.0 326358.0 0
237493.0 326532.0 0
241631.0 325561.0 0
247323.0 327703.0 0
251264.0 325580.0 0
257638.0 327901.0 0
261120.0 327012.0 0
267903.0 325847.0 0
273126.0 326833.0 0
279253.0 326384.0 0
284086.0 326533.0 0
288279.0 324239.0 0
292283.0 326858.0 0
296138.0 324362.0 0
334097.0 323427.0 0
343860.0 327736.0 0
354633.0 327749.0 0
362728.0 326917.0 0
367860.0 325325.0 0
374256.0 325661.0 0
388742.0 325540.0 0
449043.0 325182.0 0
472532.0 325310.0 0
476982.0 324760.0 0
487877.0 327915.0 0
18980.9 331324.0 0
24601.3 332535.0 0
46285.1 331843.0 0
57656.8 330176.0 0
136308.0 333303.0 0
164978.0 331572.0 0
172783.0 328379.0 0
169679.0 332776.0 0
175845.0 330251.0 0
203274.0 332460.0 0
207137.0 330867.0 0
212542.0 331036.0 0
216904.0 330470.0 0
221029.0 331683.0 0
226470.0 331145.0 0
231407.0 331443.0 0
236716.0 331491.0 0
242994.0 330924.0 0
247800.0 331874.0 0
251624.0 330132.0 0
256146.0 331706.0 0
260919.0 331303.0 0
265926.0 331216.0 0
270796.0 330442.0 0
276141.0 330633.0 0
281425.0 330874.0 0
287842.0 328544.0 0
285813.0 331930.0 0
295738.0 329842.0 0
291084.0 331776.0 0
300750.0 331683.0 0
347413.0 330222.0 0
351113.0 331243.0 0
359569.0 330921.0 0
378320.0 329437.0 0
441465.0 328819.0 0
447200.0 329214.0 0
496741.0 330429.0 0
3000.82 336975.0 0
29372.6 333709.0 0
34198.8 335669.0 0
41944.7 333888.0 0
44756.1 337344.0 0
49720.9 336171.0 0
59419.7 334077.0 0
78998.1 336870.0 0
109302.0 338094.0 0
125705.0 334780.0 0
131308.0 333435.0 0
203607.0 336040.0 0
209617.0 336734.0 0
216027.0 334212.0 0
215005.0 337839.0 0
219941.0 336614.0 0
225128.0 336709.0 0
230481.0 336081.0 0
235398.0 336896.0 0
240006.0 336157.0 0
245798.0 336801.0 0
252776.0 336720.0 0
259145.0 336133.0 0
263538.0 335067.0 0
269637.0 335567.0 0
273817.0 334120.0 0
277557.0 336037.0 0
282425.0 335356.0 0
286250.0 335661.0 0
290628.0 337260.0 0
295573.0 334756.0 0
303326.0 337078.0 0
318205.0 338098.0 0
344872.0 337864.0 0
354750.0 334535.0 0
374379.0 335476.0 0
378180.0 333819.0 0
382647.0 336364.0 0
388980.0 335124.0 0
430527.0 338207.0 0
435600.0 337558.0 0
441425.0 335227.0 0
463934.0 336318.0 0
5576.43 341375.0 0
38189.5 338722.0 0
40981.1 341467.0 0
78850.0 340324.0 0
104572.0 341921.0 0
110496.0 342853.0 0
199009.0 338569.0 0
204507.0 340864.0 0
213855.0 341114.0 0
217596.0 340499.0 0
222170.0 341275.0 0
227334.0 341478.0 0
232822.0 341419.0 0
238450.0 341017.0 0
242879.0 341047.0 0
247483.0 342541.0 0
251330.0 341490.0 0
255290.0 342375.0 0
264995.0 339162.0 0
260317.0 341348.0 0
270308.0 341830.0 0
275508.0 340322.0 0
280915.0 341108.0 0
286405.0 340151.0 0
290400.0 342830.0 0
295369.0 340554.0 0
306624.0 343354.0 0
321222.0 340368.0 0
324319.0 339292.0 0
394819.0 343148.0 0
399809.0 339657.0 0
406576.0 341942.0 0
412274.0 341621.0 0
420030.0 341574.0 0
425901.0 340120.0 0
466754.0 342775.0 0
13308.9 348066.0 0
30674.9 344618.0 0
114684.0 344317.0 0
118920.0 346807.0 0
190052.0 348483.0 0
194107.0 345411.0 0
199281.0 344290.0 0
203763.0 345755.0 0
209706.0 344035.0 0
215563.0 345290.0 0
219946.0 346012.0 0
222849.0 345072.0 0
226713.0 347136.0 0
231988.0 346465.0 0
236794.0 346057.0 0
241918.0 345255.0 0
246393.0 347326.0 0
252119.0 345673.0 0
255129.0 347109.0 0
259940.0 346571.0 0
265585.0 345894.0 0
275364.0 344969.0 0
270872.0 347755.0 0
280265.0 346981.0 0
285529.0 345241.0 0
294635.0 346705.0 0
336311.0 348684.0 0
349594.0 344712.0 0
355596.0 347512.0 0
389404.0 345315.0 0
417609.0 347699.0 0
470906.0 344131.0 0
4937.82 352293.0 0
9627.86 352545.0 0
123167.0 349063.0 0
203372.0 351969.0 0
207022.0 349639.0 0
213627.0 350591.0 0
209713.0 353801.0 0
218154.0 350592.0 0
222500.0 350455.0 0
228118.0 352393.0 0
233101.0 351046.0 0
237975.0 350850.0 0
242687.0 349803.0 0
247739.0 351522.0 0
251700.0 349804.0 0
255829.0 351286.0 0
260264.0 351630.0 0
265036.0 351283.0 0
269992.0 353119.0 0
275872.0 351101.0 0
284132.0 351109.0 0
289387.0 348946.0 0
294884.0 353332.0 0
341778.0 352151.0 0
351904.0 350126.0 0
378832.0 352646.0 0
431254.0 349026.0 0
2103.89 354853.0 0
187646.0 354721.0 0
204452.0 355603.0 0
208611.0 358083.0 0
213389.0 356287.0 0
218306.0 355252.0 0
222726.0 355365.0 0
226681.0 356923.0 0
231449.0 355715.0 0
236417.0 355640.0 0
241624.0 354450.0 0
247090.0 356637.0 0
253246.0 355848.0 0
258473.0 355904.0 0
262430.0 355249.0 0
266448.0 357141.0 0
273824.0 356476.0 0
280221.0 353912.0 0
278168.0 357417.0 0
282084.0 356942.0 0
288835.0 354500.0 0
285750.0 358406.0 0
320148.0 358476.0 0
325382.0 358866.0 0
329037.0 355140.0 0
361777.0 353866.0 0
367623.0 353918.0 0
371598.0 357482.0 0
385884.0 356668.0 0
35193.8 362702.0 0
68661.0 362258.0 0
74935.4 363861.0 0
139476.0 362961.0 0
144683.0 363662.0 0
204665.0 361256.0 0
208958.0 363636.0 0
213534.0 361504.0 0
218165.0 360005.0 0
222182.0 360081.0 0
225759.0 361491.0 0
230740.0 361196.0 0
236519.0 360859.0 0
242380.0 360797.0 0
247901.0 362204.0 0
252047.0 360713.0 0
256535.0 360513.0 0
261403.0 360130.0 0
266160.0 363004.0 0
271274.0 360451.0 0
276404.0 362506.0 0
281975.0 361405.0 0
289876.0 359177.0 0
287124.0 363409.0 0
294930.0 360089.0 0
315116.0 360601.0 0
375018.0 359415.0 0
390115.0 359023.0 0
61778.3 368018.0 0
68580.0 366632.0 0
71617.3 368146.0 0
90847.8 366217.0 0
137156.0 367681.0 0
149546.0 366597.0 0
154306.0 364792.0 0
157366.0 368949.0 0
161601.0 365678.0 0
292000.0 364365.0 0
295743.0 366201.0 0
302840.0 365000.0 0
306217.0 368309.0 0
1674.05 375587.0 0
5473.43 375192.0 0
9961.08 375270.0 0
14430.3 375183.0 0
18585.1 375144.0 0
23109.3 375098.0 0
26955.8 375457.0 0
30767.0 375259.0 0
34381.1 375518.0 0
37189.6 375692.0 0
41069.8 375480.0 0
45677.0 375124.0 0
48989.2 375358.0 0
52694.1 375841.0 0
56722.3 375425.0 0
60827.4 375966.0 0
65569.3 375094.0 0
69184.3 375484.0 0
72560.8 375894.0 0
76121.9 375234.0 0
79215.3 375007.0 0
81104.5 371221.0 0
85755.9 375301.0 0
90657.3 375365.0 0
94916.0 375470.0 0
99296.4 375475.0 0
103310.0 375441.0 0
111038.0 375403.0 0
107148.0 375377.0 0
115172.0 375326.0 0
119020.0 375844.0 0
122847.0 375402.0 0
128058.0 375155.0 0
132843.0 371621.0 0
135231.0 375534.0 0
137784.0 375906.0 0
141368.0 375199.0 0
146318.0 375266.0 0
150971.0 376040.0 0
155104.0 375236.0 0
158294.0 376467.0 0
161955.0 375863.0 0
165479.0 375347.0 0
169121.0 375507.0 0
172112.0 375365.0 0
175917.0 375177.0 0
179717.0 375731.0 0
183031.0 375282.0 0
186477.0 375363.0 0
190242.0 376128.0 0
194240.0 375112.0 0
198213.0 375068.0 0
196614.0 377444.0 0
199826.0 376725.0 0
300503.0 369130.0 0
300707.0 376489.0 0
303710.0 375186.0 0
309779.0 375031.0 0
306280.0 375614.0 0
313338.0 376098.0 0
317323.0 376141.0 0
321444.0 375679.0 0
324720.0 375717.0 0
328086.0 375512.0 0
332079.0 375401.0 0
336312.0 375086.0 0
340076.0 375871.0 0
343840.0 375441.0 0
348768.0 375830.0 0
352910.0 375986.0 0
356541.0 375067.0 0
361116.0 375323.0 0
365974.0 375966.0 0
370671.0 375281.0 0
376228.0 375310.0 0
373396.0 377300.0 0
380239.0 375745.0 0
384190.0 375474.0 0
388616.0 375984.0 0
393851.0 375215.0 0
397383.0 375494.0 0
400389.0 375329.0 0
404388.0 375315.0 0
408792.0 375032.0 0
410881.0 377330.0 0
413490.0 375094.0 0
418257.0 375144.0 0
422513.0 375466.0 0
426766.0 375578.0 0
430507.0 375244.0 0
434548.0 375401.0 0
438954.0 375045.0 0
443519.0 375203.0 0
441709.0 377228.0 0
446936.0 375178.0 0
452046.0 375466.0 0
456777.0 375627.0 0
461708.0 375655.0 0
465952.0 375658.0 0
470496.0 375566.0 0
474527.0 375336.0 0
479561.0 375322.0 0
484296.0 375494.0 0
488053.0 375292.0 0
492849.0 375206.0 0
497803.0 375474.0 0
4056.78 378718.0 0
1267.99 378674.0 0
1385.75 381399.0 0
7756.57 377989.0 0
10029.6 380582.0 0
5669.97 382223.0 0
12180.7 378200.0 0
13879.8 382099.0 0
16220.7 379025.0 0
20771.1 378544.0 0
25301.3 378488.0 0
23325.6 382300.0 0
27057.7 381115.0 0
29063.2 378412.0 0
30257.0 381758.0 0
32940.3 378735.0 0
37358.0 379041.0 0
38768.4 382299.0 0
40762.9 380022.0 0
44633.0 378024.0 0
43933.5 381270.0 0
48415.0 378072.0 0
47769.0 381299.0 0
51751.9 379307.0 0
50903.4 382228.0 0
54360.8 382145.0 0
56301.1 379088.0 0
59853.7 380634.0 0
64685.1 379208.0 0
68970.2 378354.0 0
68300.1 382312.0 0
71932.1 380022.0 0
75293.9 378473.0 0
78897.6 378116.0 0
80633.5 381859.0 0
82358.0 376580.0 0
83865.7 380075.0 0
87740.3 378851.0 0
92527.2 379604.0 0
96787.3 379227.0 0
101088.0 378771.0 0
99066.6 381906.0 0
104934.0 378704.0 0
102791.0 382288.0 0
109178.0 378755.0 0
113129.0 378947.0 0
117271.0 379298.0 0
115368.0 382436.0 0
121229.0 379848.0 0
125961.0 379313.0 0
131055.0 376784.0 0
129733.0 380153.0 0
133455.0 376465.0 0
132649.0 380051.0 0
136291.0 379479.0 0
140199.0 378869.0 0
143883.0 377325.0 0
147558.0 378950.0 0
143825.0 380706.0 0
151244.0 380898.0 0
154871.0 378920.0 0
160642.0 378979.0 0
158302.0 380387.0 0
161578.0 381665.0 0
166357.0 378170.0 0
163751.0 379529.0 0
167336.0 381485.0 0
169782.0 378697.0 0
173652.0 378629.0 0
171151.0 382518.0 0
177284.0 378073.0 0
176293.0 382577.0 0
179422.0 379425.0 0
181404.0 381749.0 0
183030.0 378408.0 0
184519.0 381503.0 0
187132.0 379278.0 0
190731.0 380697.0 0
193180.0 378210.0 0
195262.0 380102.0 0
198958.0 379856.0 0
300669.0 381136.0 0
304774.0 378896.0 0
308905.0 378312.0 0
312842.0 379766.0 0
320844.0 379639.0 0
317017.0 381585.0 0
323633.0 378243.0 0
323996.0 381259.0 0
326323.0 378823.0 0
327106.0 381174.0 0
330034.0 379234.0 0
334186.0 378549.0 0
340995.0 379011.0 0
337990.0 378092.0 0
337923.0 381157.0 0
345006.0 379998.0 0
349570.0 380167.0 0
353817.0 380160.0 0
357862.0 378019.0 0
358175.0 381742.0 0
362024.0 379756.0 0
366784.0 380694.0 0
370022.0 379111.0 0
373399.0 380842.0 0
381687.0 379118.0 0
377386.0 379794.0 0
385495.0 378759.0 0
383922.0 382421.0 0
388363.0 381413.0 0
392605.0 379536.0 0
396032.0 381728.0 0
397936.0 378668.0 0
400879.0 381735.0 0
402366.0 378078.0 0
406638.0 377699.0 0
404637.0 380263.0 0
409008.0 380951.0 0
413120.0 379889.0 0
416023.0 377702.0 0
417123.0 382176.0 0
420061.0 378879.0 0
422053.0 382363.0 0
428158.0 379175.0 0
424408.0 379205.0 0
431552.0 378292.0 0
431290.0 380888.0 0
433329.0 380956.0 0
429217.0 382484.0 0
435112.0 378651.0 0
437867.0 378284.0 0
436578.0 381998.0 0
440283.0 380480.0 0
444967.0 379158.0 0
448843.0 382525.0 0
449080.0 378025.0 0
452614.0 379689.0 0
455546.0 379311.0 0
457357.0 382450.0 0
459796.0 379275.0 0
461300.0 382476.0 0
464001.0 379854.0 0
468459.0 379168.0 0
471535.0 381984.0 0
472913.0 378713.0 0
476475.0 378430.0 0
475896.0 382256.0 0
482529.0 378362.0 0
479678.0 380460.0 0
484188.0 382324.0 0
486288.0 378617.0 0
488476.0 382413.0 0
490055.0 378757.0 0
494668.0 379183.0 0
498636.0 379096.0 0
1884.82 384759.0 0
10113.8 384022.0 0
6204.28 387049.0 0
14527.9 386170.0 0
10388.7 387527.0 0
18526.1 383238.0 0
19329.8 387076.0 0
23104.4 385998.0 0
26968.2 384288.0 0
30797.4 385490.0 0
34879.3 382777.0 0
34746.5 387096.0 0
38374.3 385886.0 0
41160.9 386661.0 0
45001.8 383715.0 0
41439.1 383616.0 0
44099.9 387046.0 0
48526.4 385108.0 0
52182.5 384671.0 0
55721.7 386078.0 0
57272.0 382867.0 0
59772.7 384932.0 0
63657.4 383697.0 0
67144.1 386016.0 0
71573.5 384199.0 0
75797.9 382697.0 0
79197.5 386133.0 0
83651.6 385133.0 0
86527.2 382619.0 0
90594.2 383231.0 0
87615.3 385955.0 0
95226.0 384121.0 0
99890.4 385383.0 0
104641.0 385734.0 0
107304.0 382545.0 0
111648.0 382604.0 0
109429.0 386067.0 0
114499.0 386553.0 0
119099.0 383803.0 0
122943.0 382740.0 0
126845.0 383820.0 0
122923.0 385995.0 0
130511.0 382744.0 0
130282.0 386463.0 0
134316.0 384144.0 0
139537.0 383671.0 0
144407.0 384462.0 0
147858.0 382879.0 0
147520.0 386793.0 0
151045.0 385143.0 0
155318.0 383612.0 0
159724.0 384143.0 0
162400.0 387012.0 0
164523.0 384016.0 0
168582.0 385842.0 0
172716.0 385718.0 0
175776.0 387411.0 0
180221.0 385507.0 0
183926.0 384217.0 0
187581.0 383966.0 0
191142.0 384714.0 0
193480.0 382863.0 0
189421.0 387572.0 0
196553.0 383232.0 0
194317.0 386761.0 0
199551.0 382935.0 0
199022.0 386635.0 0
304318.0 382636.0 0
301435.0 385711.0 0
305303.0 385329.0 0
308810.0 382611.0 0
308141.0 386505.0 0
312933.0 383212.0 0
314875.0 385330.0 0
311603.0 385930.0 0
318247.0 386943.0 0
321169.0 384084.0 0
326033.0 385255.0 0
329653.0 382747.0 0
331246.0 386933.0 0
333933.0 382963.0 0
335828.0 387562.0 0
340998.0 382863.0 0
337769.0 384481.0 0
340209.0 387115.0 0
344387.0 384616.0 0
346670.0 386743.0 0
348094.0 383646.0 0
351560.0 383721.0 0
349664.0 387035.0 0
355518.0 384178.0 0
353223.0 386259.0 0
359951.0 384912.0 0
363768.0 383488.0 0
364711.0 386902.0 0
367248.0 384589.0 0
370350.0 383241.0 0
375049.0 385399.0 0
379752.0 383281.0 0
379514.0 387611.0 0
382571.0 385882.0 0
386785.0 386383.0 0
392535.0 385130.0 0
397749.0 384881.0 0
401760.0 385606.0 0
405317.0 384252.0 0
409357.0 384894.0 0
412972.0 383707.0 0
415981.0 386488.0 0
419965.0 385429.0 0
425710.0 383052.0 0
424003.0 386794.0 0
432796.0 384045.0 0
428508.0 386450.0 0
436754.0 385932.0 0
439754.0 384031.0 0
443503.0 383186.0 0
446163.0 386722.0 0
453603.0 383035.0 0
451389.0 386263.0 0
456156.0 386919.0 0
463778.0 383896.0 0
460114.0 385223.0 0
462644.0 386694.0 0
466940.0 382850.0 0
466625.0 386963.0 0
469760.0 385044.0 0
473394.0 385993.0 0
477430.0 385626.0 0
480272.0 384112.0 0
484058.0 386185.0 0
488579.0 386683.0 0
492627.0 382641.0 0
494033.0 386432.0 0
497811.0 382655.0 0
498372.0 386488.0 0
1903.01 388694.0 0
1442.92 392315.0 0
8828.23 390131.0 0
5547.14 391722.0 0
12144.5 390208.0 0
16625.4 390677.0 0
22525.8 390494.0 0
26855.7 388212.0 0
31806.8 390509.0 0
37135.5 390095.0 0
40887.9 389400.0 0
44431.0 391433.0 0
47799.5 389036.0 0
51754.6 387996.0 0
54721.0 390051.0 0
58990.4 389116.0 0
63189.2 387917.0 0
62237.2 392053.0 0
70412.6 387660.0 0
66918.1 390635.0 0
71679.3 391010.0 0
74795.1 387564.0 0
75894.6 391894.0 0
78669.6 389691.0 0
82378.7 389020.0 0
86324.2 388777.0 0
84802.8 391933.0 0
91387.4 388016.0 0
88495.0 391938.0 0
96660.8 388803.0 0
101721.0 389202.0 0
106844.0 389350.0 0
111046.0 389413.0 0
116674.0 390172.0 0
113453.0 391488.0 0
119415.0 387950.0 0
119727.0 391187.0 0
126401.0 388587.0 0
122841.0 390256.0 0
129991.0 390754.0 0
137086.0 388019.0 0
133382.0 388494.0 0
142504.0 388353.0 0
138962.0 391662.0 0
147030.0 390852.0 0
150922.0 389012.0 0
153844.0 387558.0 0
154849.0 391175.0 0
158165.0 388335.0 0
161973.0 390301.0 0
165937.0 389207.0 0
171368.0 389756.0 0
175867.0 390840.0 0
179860.0 389646.0 0
182986.0 392650.0 0
184821.0 388085.0 0
187812.0 391404.0 0
192476.0 390435.0 0
197845.0 391175.0 0
305395.0 388636.0 0
301179.0 389804.0 0
304628.0 392258.0 0
309765.0 389078.0 0
307853.0 391779.0 0
314183.0 389371.0 0
318301.0 391167.0 0
322623.0 389173.0 0
328125.0 390551.0 0
333237.0 391163.0 0
337606.0 391267.0 0
344122.0 388118.0 0
341908.0 391198.0 0
346945.0 390727.0 0
356386.0 387922.0 0
352321.0 390589.0 0
356765.0 391857.0 0
360961.0 389585.0 0
365541.0 390293.0 0
369811.0 388232.0 0
372074.0 392736.0 0
373936.0 389917.0 0
377060.0 390225.0 0
375252.0 392605.0 0
379992.0 390977.0 0
382915.0 389336.0 0
385827.0 390924.0 0
390243.0 390193.0 0
396509.0 388126.0 0
394344.0 389289.0 0
394280.0 392157.0 0
397757.0 391626.0 0
400159.0 388566.0 0
402443.0 392363.0 0
403967.0 388420.0 0
406075.0 390900.0 0
407741.0 388212.0 0
411983.0 387835.0 0
410024.0 392333.0 0
415192.0 391180.0 0
419250.0 389132.0 0
422938.0 391201.0 0
426692.0 390188.0 0
429767.0 390027.0 0
432884.0 387912.0 0
432886.0 392143.0 0
436846.0 389911.0 0
441359.0 387784.0 0
440263.0 391830.0 0
444869.0 391581.0 0
449047.0 389458.0 0
453094.0 390273.0 0
457275.0 391240.0 0
460042.0 388831.0 0
460840.0 392244.0 0
464006.0 390000.0 0
468507.0 391303.0 0
470322.0 388097.0 0
473044.0 390071.0 0
476255.0 388381.0 0
477575.0 392255.0 0
480605.0 388170.0 0
481862.0 391778.0 0
484896.0 389435.0 0
488286.0 390640.0 0
492386.0 390434.0 0
497743.0 390367.0 0
2764.98 396517.0 0
9724.57 393066.0 0
7490.15 395616.0 0
13014.1 393811.0 0
11155.6 396964.0 0
19856.4 393397.0 0
16703.5 397204.0 0
22461.0 395563.0 0
26673.6 392870.0 0
26296.3 397585.0 0
31388.5 395793.0 0
35964.1 393882.0 0
40238.6 393100.0 0
38031.1 395517.0 0
40653.6 397344.0 0
44420.6 395126.0 0
50371.8 393266.0 0
47240.6 397039.0 0
54096.6 396773.0 0
57185.3 393351.0 0
61343.1 395762.0 0
65562.2 394750.0 0
69583.8 394475.0 0
73329.5 394072.0 0
73056.8 397389.0 0
76730.9 395898.0 0
80566.9 393542.0 0
85203.7 396143.0 0
89676.2 395454.0 0
93368.9 392668.0 0
96001.1 395307.0 0
98999.9 393411.0 0
97791.8 397675.0 0
104238.0 393661.0 0
109406.0 392872.0 0
107392.0 397094.0 0
117174.0 393576.0 0
112931.0 395919.0 0
122069.0 394705.0 0
117941.0 397426.0 0
126467.0 392811.0 0
129974.0 394445.0 0
134167.0 392649.0 0
138156.0 396232.0 0
143198.0 393958.0 0
147490.0 394538.0 0
150961.0 392932.0 0
154830.0 395280.0 0
159436.0 393228.0 0
163870.0 392770.0 0
168125.0 393428.0 0
163937.0 397125.0 0
173826.0 394924.0 0
178340.0 392877.0 0
179509.0 395744.0 0
183566.0 396567.0 0
186926.0 395455.0 0
191115.0 394545.0 0
194573.0 393940.0 0
196676.0 395583.0 0
194315.0 397243.0 0
199377.0 395110.0 0
301278.0 394645.0 0
307161.0 396416.0 0
311138.0 392658.0 0
315152.0 393606.0 0
312162.0 396070.0 0
315682.0 397564.0 0
318734.0 395290.0 0
321557.0 393203.0 0
325196.0 393614.0 0
322531.0 396548.0 0
326290.0 397002.0 0
330429.0 395257.0 0
335316.0 394834.0 0
339658.0 394642.0 0
344192.0 394651.0 0
349204.0 394750.0 0
353739.0 395078.0 0
360361.0 393463.0 0
357996.0 395006.0 0
361641.0 396823.0 0
363866.0 393509.0 0
366007.0 396686.0 0
368125.0 393028.0 0
370507.0 396510.0 0
374969.0 396446.0 0
378275.0 393542.0 0
379308.0 397231.0 0
382658.0 393838.0 0
385614.0 397339.0 0
387624.0 394037.0 0
391896.0 394600.0 0
395942.0 395003.0 0
393977.0 397343.0 0
399797.0 395096.0 0
406120.0 394237.0 0
403457.0 397596.0 0
413617.0 395788.0 0
419190.0 394343.0 0
425886.0 393432.0 0
423471.0 395258.0 0
426992.0 396987.0 0
428906.0 393284.0 0
431652.0 396195.0 0
436548.0 394558.0 0
441743.0 395442.0 0
438527.0 397282.0 0
446276.0 395977.0 0
449512.0 393180.0 0
451175.0 397112.0 0
454314.0 393944.0 0
458359.0 395044.0 0
461864.0 395816.0 0
464932.0 393971.0 0
468304.0 395925.0 0
464634.0 397995.0 0
472309.0 393994.0 0
476395.0 397005.0 0
481527.0 395816.0 0
485395.0 393225.0 0
485997.0 396838.0 0
490068.0 394619.0 0
498836.0 393790.0 0
495210.0 393922.0 0
498257.0 396929.0 0
2866.76 402236.0 0
7777.51 399716.0 0
12314.9 401377.0 0
17467.9 402756.0 0
21723.3 399885.0 0
25612.7 401823.0 0
30557.6 400972.0 0
35857.7 398476.0 0
39954.3 402157.0 0
44786.4 400383.0 0
50332.4 399766.0 0
55333.0 401212.0 0
58004.4 397580.0 0
60929.6 401063.0 0
64344.8 398385.0 0
65130.4 402360.0 0
68588.2 399096.0 0
76348.7 399192.0 0
73304.0 401688.0 0
80347.6 398694.0 0
77661.9 402370.0 0
81131.1 402706.0 0
84492.7 400975.0 0
88914.1 399757.0 0
93520.4 398133.0 0
92859.3 402696.0 0
101797.0 398497.0 0
97475.9 401608.0 0
105255.0 401261.0 0
110623.0 401343.0 0
115175.0 399784.0 0
121878.0 399786.0 0
118131.0 401065.0 0
127066.0 397837.0 0
129778.0 401763.0 0
132946.0 397953.0 0
137920.0 400701.0 0
142358.0 398947.0 0
146048.0 397436.0 0
146781.0 401473.0 0
150382.0 397727.0 0
154303.0 399282.0 0
158734.0 398056.0 0
162105.0 402336.0 0
166060.0 401095.0 0
168953.0 398182.0 0
172908.0 399499.0 0
177019.0 398999.0 0
181698.0 399401.0 0
179436.0 402669.0 0
186119.0 399343.0 0
190374.0 398528.0 0
189201.0 402760.0 0
198224.0 398521.0 0
194488.0 401734.0 0
199056.0 402049.0 0
302352.0 399114.0 0
306884.0 402299.0 0
311409.0 400056.0 0
315897.0 402026.0 0
319639.0 399084.0 0
324178.0 400579.0 0
329033.0 399739.0 0
331441.0 402514.0 0
333805.0 399448.0 0
337635.0 397834.0 0
338195.0 401695.0 0
341528.0 398268.0 0
346468.0 398774.0 0
351276.0 399166.0 0
356602.0 399138.0 0
360628.0 400041.0 0
364259.0 400859.0 0
368480.0 399381.0 0
372492.0 400787.0 0
376872.0 400581.0 0
380961.0 401165.0 0
382550.0 398322.0 0
385337.0 401697.0 0
389767.0 398450.0 0
389865.0 402912.0 0
393976.0 400809.0 0
398006.0 398700.0 0
401593.0 401623.0 0
406137.0 402518.0 0
409031.0 398028.0 0
410559.0 402199.0 0
413478.0 400320.0 0
417095.0 398434.0 0
417638.0 402800.0 0
422008.0 399045.0 0
426289.0 401170.0 0
430197.0 399779.0 0
429133.0 402522.0 0
435144.0 399862.0 0
439843.0 399196.0 0
439694.0 402767.0 0
443288.0 399564.0 0
447804.0 400325.0 0
452664.0 401551.0 0
455856.0 398437.0 0
456754.0 402552.0 0
460500.0 399383.0 0
464714.0 402434.0 0
467911.0 399761.0 0
471807.0 398674.0 0
474859.0 401188.0 0
479494.0 400416.0 0
484005.0 399736.0 0
489210.0 399126.0 0
486634.0 402985.0 0
493929.0 397899.0 0
490322.0 402352.0 0
493324.0 401674.0 0
497711.0 400686.0 0
3224.26 407856.0 0
8177.04 404796.0 0
13316.8 406662.0 0
18358.4 406626.0 0
22297.8 404663.0 0
27277.4 405370.0 0
31273.5 405475.0 0
35262.2 403400.0 0
34301.3 407637.0 0
38820.0 407232.0 0
43784.4 405896.0 0
47683.9 403820.0 0
51486.3 404436.0 0
55230.7 405271.0 0
58604.9 404428.0 0
62937.6 406532.0 0
68976.3 404691.0 0
74738.6 406225.0 0
79519.0 405894.0 0
83989.9 405308.0 0
88239.9 404048.0 0
91507.9 406281.0 0
96305.4 406140.0 0
101484.0 404138.0 0
106649.0 405198.0 0
111574.0 406539.0 0
115442.0 403622.0 0
119892.0 404052.0 0
121789.0 407566.0 0
125227.0 403796.0 0
130115.0 406491.0 0
133850.0 402848.0 0
134761.0 406657.0 0
142198.0 403273.0 0
138333.0 405125.0 0
145835.0 405701.0 0
151571.0 402755.0 0
149933.0 406709.0 0
156649.0 402727.0 0
154476.0 407051.0 0
159022.0 406386.0 0
165974.0 404206.0 0
163330.0 407139.0 0
169858.0 403114.0 0
172970.0 407050.0 0
174703.0 402808.0 0
177012.0 405821.0 0
181516.0 406928.0 0
184312.0 402876.0 0
187165.0 406932.0 0
192806.0 407161.0 0
197978.0 405382.0 0
301528.0 403645.0 0
304866.0 406310.0 0
307912.0 406944.0 0
311683.0 405399.0 0
320551.0 403516.0 0
316916.0 406773.0 0
324139.0 404914.0 0
327458.0 403674.0 0
330847.0 406602.0 0
334916.0 404246.0 0
339300.0 406951.0 0
343081.0 402941.0 0
343839.0 407140.0 0
348501.0 403658.0 0
351299.0 407259.0 0
353700.0 403581.0 0
359606.0 404446.0 0
364640.0 406329.0 0
368517.0 403319.0 0
371681.0 405327.0 0
368837.0 407847.0 0
375133.0 404564.0 0
378794.0 404022.0 0
382227.0 405200.0 0
386831.0 406547.0 0
391235.0 406335.0 0
393704.0 404346.0 0
397694.0 403811.0 0
399030.0 406807.0 0
402210.0 405775.0 0
406447.0 405787.0 0
409957.0 406175.0 0
413414.0 403616.0 0
415001.0 407533.0 0
419769.0 406541.0 0
422910.0 403983.0 0
427664.0 405597.0 0
431842.0 403371.0 0
431856.0 407443.0 0
435561.0 404828.0 0
442163.0 406973.0 0
439010.0 406695.0 0
444274.0 403937.0 0
449486.0 405203.0 0
454163.0 404806.0 0
457662.0 406932.0 0
460413.0 403563.0 0
462325.0 406882.0 0
466298.0 406601.0 0
470747.0 403843.0 0
473634.0 407632.0 0
477166.0 404755.0 0
482114.0 403976.0 0
485067.0 406584.0 0
491036.0 407053.0 0
495445.0 404288.0 0
498574.0 404276.0 0
1609.32 411912.0 0
8568.1 409400.0 0
5491.28 412501.0 0
12666.1 411909.0 0
17467.6 410667.0 0
21109.6 408330.0 0
24902.4 408697.0 0
21931.5 411688.0 0
30011.7 409967.0 0
25793.8 412686.0 0
35795.5 411878.0 0
40926.0 411407.0 0
44555.9 410196.0 0
48430.1 408236.0 0
47335.1 412124.0 0
53150.3 408517.0 0
55997.1 411982.0 0
51225.9 412458.0 0
57782.7 408003.0 0
60172.6 410670.0 0
63797.8 412229.0 0
67020.6 409266.0 0
71187.2 409061.0 0
74159.6 410395.0 0
77865.9 409797.0 0
82465.7 409389.0 0
85089.3 412511.0 0
87646.6 408830.0 0
92658.5 409821.0 0
100161.0 408083.0 0
97308.9 410713.0 0
101604.0 411936.0 0
103990.0 408334.0 0
106337.0 412185.0 0
108007.0 408756.0 0
111686.0 411532.0 0
116841.0 408098.0 0
121498.0 411435.0 0
125709.0 409217.0 0
129928.0 411824.0 0
133716.0 409652.0 0
137714.0 409284.0 0
141997.0 407935.0 0
140554.0 412369.0 0
146843.0 410053.0 0
143537.0 410834.0 0
151591.0 410709.0 0
155753.0 410976.0 0
159934.0 410366.0 0
164468.0 411344.0 0
168301.0 408350.0 0
172404.0 411944.0 0
176818.0 409650.0 0
180762.0 411395.0 0
184513.0 410435.0 0
188861.0 411840.0 0
193835.0 412492.0 0
198033.0 409748.0 0
301493.0 408556.0 0
305516.0 409946.0 0
301919.0 412675.0 0
309621.0 410043.0 0
313579.0 409445.0 0
318175.0 412255.0 0
321697.0 407968.0 0
323981.0 412043.0 0
326198.0 408138.0 0
329889.0 411730.0 0
334853.0 409166.0 0
338587.0 412089.0 0
342971.0 410910.0 0
347312.0 408696.0 0
351454.0 411379.0 0
355835.0 408543.0 0
361211.0 410212.0 0
365822.0 410359.0 0
369340.0 411389.0 0
373154.0 409100.0 0
375914.0 412727.0 0
378256.0 408112.0 0
379868.0 411987.0 0
382961.0 409376.0 0
387251.0 411489.0 0
390542.0 409273.0 0
395341.0 408307.0 0
397468.0 412396.0 0
400298.0 409559.0 0
405633.0 409650.0 0
411137.0 411244.0 0
415976.0 412845.0 0
419239.0 410069.0 0
424099.0 409214.0 0
428522.0 409882.0 0
432007.0 412555.0 0
435977.0 409266.0 0
436616.0 412819.0 0
441096.0 411175.0 0
445355.0 408431.0 0
446313.0 413018.0 0
449120.0 409883.0 0
453395.0 408655.0 0
456637.0 411979.0 0
460390.0 410187.0 0
464276.0 410733.0 0
469391.0 410175.0 0
474285.0 411587.0 0
477089.0 408961.0 0
478401.0 412016.0 0
481100.0 408354.0 0
482343.0 412968.0 0
486030.0 410583.0 0
494056.0 411652.0 0
490046.0 412983.0 0
497399.0 408261.0 0
497936.0 413014.0 0
2409.25 415929.0 0
9036.74 413548.0 0
7168.91 417580.0 0
11934.8 416531.0 0
19663.7 414078.0 0
16330.0 415266.0 0
22716.1 415448.0 0
28703.5 413661.0 0
27409.8 417391.0 0
31811.9 414917.0 0
35541.4 416686.0 0
39546.6 415551.0 0
44138.8 414526.0 0
48457.6 415403.0 0
54313.9 416794.0 0
59521.6 414811.0 0
63784.1 417039.0 0
69521.6 414424.0 0
75519.7 413783.0 0
74359.6 417918.0 0
80523.9 414134.0 0
85058.7 416326.0 0
82126.4 417612.0 0
89382.8 414041.0 0
94301.3 413618.0 0
98339.2 415365.0 0
103632.0 416993.0 0
109198.0 416198.0 0
116925.0 413290.0 0
113331.0 415965.0 0
121116.0 416293.0 0
125445.0 414171.0 0
130033.0 417747.0 0
135555.0 414468.0 0
140822.0 417544.0 0
144443.0 414115.0 0
148764.0 414288.0 0
153571.0 415089.0 0
158022.0 414102.0 0
161683.0 414120.0 0
165098.0 415239.0 0
168135.0 413171.0 0
170737.0 416279.0 0
177463.0 414837.0 0
173968.0 417491.0 0
183791.0 414904.0 0
188120.0 416302.0 0
191259.0 415354.0 0
198082.0 414859.0 0
194400.0 416498.0 0
301872.0 416643.0 0
306777.0 414625.0 0
311010.0 417951.0 0
312426.0 413635.0 0
315890.0 417736.0 0
321743.0 416267.0 0
326763.0 415882.0 0
334478.0 413355.0 0
331818.0 416738.0 0
337508.0 417244.0 0
342751.0 415443.0 0
347008.0 413411.0 0
351342.0 416022.0 0
346939.0 418142.0 0
356664.0 413971.0 0
361595.0 414764.0 0
366160.0 414456.0 0
363524.0 418004.0 0
371365.0 415248.0 0
375707.0 416756.0 0
379399.0 415768.0 0
383420.0 413953.0 0
387760.0 416754.0 0
392429.0 413474.0 0
396783.0 416676.0 0
401898.0 414518.0 0
407654.0 415100.0 0
412669.0 416409.0 0
417312.0 417017.0 0
421548.0 414549.0 0
426990.0 413779.0 0
425146.0 418139.0 0
430323.0 417924.0 0
435170.0 416226.0 0
438990.0 415042.0 0
443031.0 416245.0 0
448135.0 418006.0 0
451717.0 413635.0 0
452427.0 417468.0 0
455996.0 416437.0 0
461016.0 414804.0 0
466406.0 414760.0 0
471365.0 415098.0 0
479325.0 415297.0 0
475855.0 415391.0 0
482388.0 417188.0 0
486266.0 415214.0 0
490308.0 417339.0 0
494355.0 415525.0 0
497990.0 416953.0 0
2704.05 420921.0 0
7175.77 422026.0 0
10899.7 420868.0 0
15161.0 419626.0 0
19678.9 418524.0 0
18330.9 422381.0 0
23501.7 419031.0 0
22718.2 422724.0 0
28159.3 422884.0 0
32369.5 419496.0 0
38036.0 420719.0 0
42234.7 418375.0 0
43431.5 422668.0 0
46170.0 418604.0 0
50089.4 418383.0 0
48945.4 422428.0 0
54497.0 422586.0 0
59274.9 419597.0 0
63782.3 421960.0 0
67181.5 419486.0 0
70904.7 419916.0 0
74420.7 422918.0 0
78708.1 419542.0 0
83645.5 420517.0 0
88244.1 419487.0 0
93485.6 418438.0 0
98815.7 420966.0 0
103640.0 422128.0 0
107738.0 420948.0 0
112410.0 420112.0 0
116608.0 418226.0 0
116132.0 422258.0 0
120397.0 421089.0 0
124937.0 419627.0 0
135532.0 420868.0 0
139786.0 421310.0 0
145903.0 418153.0 0
143364.0 422303.0 0
149929.0 417972.0 0
148579.0 422337.0 0
157565.0 417950.0 0
153498.0 420339.0 0
161909.0 418085.0 0
167053.0 419038.0 0
163546.0 422183.0 0
172038.0 421257.0 0
176809.0 419812.0 0
180843.0 418413.0 0
180818.0 422702.0 0
185663.0 420160.0 0
191309.0 419594.0 0
197197.0 420196.0 0
302362.0 421058.0 0
306843.0 419807.0 0
310839.0 422528.0 0
315621.0 422378.0 0
319933.0 420792.0 0
324234.0 419646.0 0
328656.0 420552.0 0
333518.0 421466.0 0
337905.0 422592.0 0
342384.0 420722.0 0
351227.0 420995.0 0
346982.0 423052.0 0
355189.0 418697.0 0
359456.0 418564.0 0
362815.0 423012.0 0
367683.0 419373.0 0
373020.0 420726.0 0
378422.0 420149.0 0
382128.0 423296.0 0
383049.0 418735.0 0
387379.0 422563.0 0
392641.0 419693.0 0
399862.0 419678.0 0
404633.0 419256.0 0
406636.0 423221.0 0
409385.0 419835.0 0
415321.0 421013.0 0
420604.0 419930.0 0
427242.0 421757.0 0
434740.0 420198.0 0
439014.0 419262.0 0
443664.0 421121.0 0
448069.0 423310.0 0
453736.0 421778.0 0
459046.0 419738.0 0
463988.0 419293.0 0
468984.0 419132.0 0
473825.0 419143.0 0
478283.0 418649.0 0
476874.0 422873.0 0
481612.0 421592.0 0
486164.0 419860.0 0
494057.0 419374.0 0
490483.0 422607.0 0
494635.0 423067.0 0
497857.0 421075.0 0
1107.43 424583.0 0
4760.93 425878.0 0
1152.43 427123.0 0
9699.74 425397.0 0
14333.5 424317.0 0
19299.0 427315.0 0
25008.0 427294.0 0
29912.4 427749.0 0
33561.1 424205.0 0
38113.3 425913.0 0
42282.9 427446.0 0
46571.1 426642.0 0
51334.0 427152.0 0
55884.7 427533.0 0
59615.3 424769.0 0
64268.6 427050.0 0
68760.0 424086.0 0
72489.7 427643.0 0
80745.4 424242.0 0
77021.8 426976.0 0
86527.0 425152.0 0
92279.8 423877.0 0
96740.2 426069.0 0
101430.0 425574.0 0
106369.0 425875.0 0
110844.0 424278.0 0
114785.0 426236.0 0
118693.0 424780.0 0
122807.0 424994.0 0
128916.0 424530.0 0
134549.0 425605.0 0
139281.0 424292.0 0
142391.0 427029.0 0
145902.0 425641.0 0
148740.0 426442.0 0
153007.0 425882.0 0
158484.0 423131.0 0
162915.0 426963.0 0
167596.0 424369.0 0
172343.0 427518.0 0
176286.0 424061.0 0
176833.0 427517.0 0
180492.0 427904.0 0
185073.0 425422.0 0
189142.0 423687.0 0
193443.0 424429.0 0
198031.0 425435.0 0
302016.0 425654.0 0
306161.0 423966.0 0
309298.0 426654.0 0
313757.0 426750.0 0
319022.0 426002.0 0
324688.0 424527.0 0
330202.0 425241.0 0
335387.0 426111.0 0
341201.0 427042.0 0
346583.0 427108.0 0
351042.0 426108.0 0
356352.0 423561.0 0
359695.0 428306.0 0
368982.0 425231.0 0
376974.0 426038.0 0
384477.0 427167.0 0
392005.0 424358.0 0
389222.0 427712.0 0
396750.0 423429.0 0
394427.0 428322.0 0
399355.0 427699.0 0
402051.0 423799.0 0
402836.0 427479.0 0
406659.0 427869.0 0
411204.0 424539.0 0
415348.0 427264.0 0
418835.0 424346.0 0
423436.0 423917.0 0
427414.0 425619.0 0
431970.0 423912.0 0
438106.0 424498.0 0
434828.0 428309.0 0
443620.0 426406.0 0
451189.0 427892.0 0
456620.0 426634.0 0
461770.0 424576.0 0
466706.0 423088.0 0
467688.0 427981.0 0
471558.0 423745.0 0
475406.0 428483.0 0
480857.0 426226.0 0
485395.0 424454.0 0
488902.0 427362.0 0
484763.0 428413.0 0
493535.0 426553.0 0
497831.0 425472.0 0
2427.52 430358.0 0
4888.05 433303.0 0
7758.52 430090.0 0
12862.3 429244.0 0
16981.7 433116.0 0
22258.3 431925.0 0
27272.9 432153.0 0
34552.4 429280.0 0
39070.5 430302.0 0
42835.4 431570.0 0
47990.0 432092.0 0
53864.0 431586.0 0
59946.3 430177.0 0
65085.4 432299.0 0
68378.6 428952.0 0
71055.0 431922.0 0
75453.7 431322.0 0
81777.3 430021.0 0
90873.0 428359.0 0
87254.3 430584.0 0
90723.5 433120.0 0
94820.3 430616.0 0
99992.2 430115.0 0
105330.0 431228.0 0
110660.0 429391.0 0
115253.0 430531.0 0
119563.0 428935.0 0
122153.0 432749.0 0
124623.0 429229.0 0
128657.0 430510.0 0
132902.0 429591.0 0
137830.0 428418.0 0
141536.0 431755.0 0
146533.0 430069.0 0
151390.0 430475.0 0
157801.0 429250.0 0
167198.0 429244.0 0
163510.0 431769.0 0
176782.0 431144.0 0
181306.0 432727.0 0
184439.0 429872.0 0
189718.0 429002.0 0
195207.0 428730.0 0
198256.0 431402.0 0
305615.0 428465.0 0
301600.0 429686.0 0
310520.0 432082.0 0
316722.0 430751.0 0
322691.0 429553.0 0
324979.0 432968.0 0
327425.0 429412.0 0
332231.0 429575.0 0
336887.0 431788.0 0
345395.0 430741.0 0
341875.0 433140.0 0
349841.0 431319.0 0
354715.0 429916.0 0
358340.0 433149.0 0
364595.0 428504.0 0
368144.0 430207.0 0
369500.0 433459.0 0
372409.0 430064.0 0
376986.0 431213.0 0
380976.0 430571.0 0
385912.0 431966.0 0
391087.0 432427.0 0
398009.0 432355.0 0
402679.0 430921.0 0
407474.0 433176.0 0
411360.0 429757.0 0
415915.0 432525.0 0
419641.0 428780.0 0
421518.0 433400.0 0
424535.0 428977.0 0
426689.0 433624.0 0
430041.0 429573.0 0
434358.0 433076.0 0
439384.0 430070.0 0
446498.0 430428.0 0
449819.0 433076.0 0
454515.0 432610.0 0
458641.0 430537.0 0
462860.0 429842.0 0
466016.0 433011.0 0
471120.0 432864.0 0
481311.0 431089.0 0
486391.0 433000.0 0
492416.0 431625.0 0
497613.0 429824.0 0
10848.2 435094.0 0
32438.3 434155.0 0
37774.0 434823.0 0
57703.2 434995.0 0
78547.1 434678.0 0
85230.9 433592.0 0
96297.9 435442.0 0
101616.0 435318.0 0
109115.0 433847.0 0
113356.0 434381.0 0
118067.0 433696.0 0
125975.0 433424.0 0
136393.0 433996.0 0
154559.0 433890.0 0
159670.0 434339.0 0
167521.0 433692.0 0
172300.0 433372.0 0
186208.0 433915.0 0
193942.0 433879.0 0
304240.0 433443.0 0
320539.0 433950.0 0
374833.0 433847.0 0
443185.0 433664.0 0
461257.0 434590.0 0
477284.0 434135.0 0
481863.0 435377.0 0
490329.0 436548.0 0
494492.0 436229.0 0
497930.0 434216.0 0
POINT_DATA 5000
SCALARS Radius float 1
LOOKUP_TABLE default
5253.55 5782.6 6044.04 5415.48 5120.0 5580.89 6810.52 5529.52 6756.95 6324.23 3843.58 4270.53 5191.63 4216.92 4861.06 5320.28 4797.52 4796.58 3979.26 4298.67 3471.03 5960.66 5820.48 7034.11 4862.21 5113.21 3929.19 4107.03 4478.15 5379.87 5925.6 4501.51 4792.73 4736.58 4931.38 3485.26 4329.05 4151.94 4049.23 5337.48 6124.89 5708.81 5252.48 4780.03 5495.39 3996.0 3856.1 4665.12 3383.4 4133.88 4094.62 4834.9 3850.77 5484.83 5085.53 3863.18 5351.6 2356.98 4998.37 6182.6 5492.18 5258.36 3951.75 5061.3 3642.12 3163.97 5542.27 5812.43 5122.66 5906.14 5484.19 7513.1 5254.28 4436.4 5733.48 4672.91 4182.53 3588.44 5645.7 5176.86 5840.26 3672.51 6110.27 5561.06 5073.35 3615.22 5670.04 4380.59 3589.27 6716.79 3607.45 5759.91 7613.27 4333.2 4951.03 5255.32 7199.21 6037.08 4523.7 5096.78 4129.43 6142.94 3320.52 4727.24 4194.5 5082.47 5344.25 5445.87 4593.7 4150.99 4704.72 4177.94 4742.68 4344.58 5634.83 5495.84 6268.1 5374.51 7042.12 6739.08 6326.39 4569.12 5873.69 6608.73 5011.84 6261.42 4502.5 3771.48 4043.57 5499.11 4271.69 5681.38 4138.42 3708.04 5513.6 3240.09 4556.36 6082.81 3191.99 4685.34 5601.05 4929.8 4651.28 3586.91 3103.0 3554.9 4015.92 5542.21 4487.31 3936.02 5043.05 4044.71 5980.74 5109.54 4927.02 5546.39 5325.36 5945.65 5538.89 4730.36 4715.55 5867.73 5013.56 5701.86 4499.64 4375.68 4468.59 5054.98 6030.06 5170.02 3557.27 4927.31 4688.68 4862.64 4402.52 4517.56 4432.58 6684.56 5903.42 3968.64 3955.56 3761.32 4118.05 4366.19 5553.16 2938.66 4940.78 4231.61 4008.92 4003.05 3942.53 3379.84 4827.82 5227.21 3997.1 5697.78 3260.67 5123.52 4091.31 3038.33 4392.68 6372.62 4295.38 2240.39 5923.5 5091.39 5293.9 3912.37 4602.25 6691.39 4790.08 4763.45 5344.0 6045.46 3815.26 5908.1 6048.7 4571.7 5896.46 5022.8 3784.5 3780.23 4166.08 6481.79 5224.12 4819.73 4471.58 6098.14 4962.09 4472.17 3999.48 4203.26 4359.62 5188.81 6946.21 2586.12 6057.22 5433.8 4011.77 4527.08 3633.87 5922.5 5198.77 5987.17 6013.14 2765.2 4901.41 5110.37 5664.98 4382.74 5927.43 3693.63 4384.42 4516.43 5481.78 4948.92 5637.59 4937.14 5816.2 5693.81 4174.52 6483.19 3829.13 6759.9 5418.62 7021.47 5416.38 6059.59 4955.55 2720.68 3563.63 4238.81 4345.55 5885.03 2837.58 3871.88 5325.02 5200.76 5017.13 5279.39 5185.34 3673.74 5205.43 7447.37 4688.67 2635.86 4385.06 5292.64 6166.5 5065.13 5936.02 5305.17 4861.08 5399.73 5390.22 3888.21 4805.87 4712.33 6038.78 4667.36 4254.17 5090.24 5615.42 7565.34 5530.87 4612.68 4281.49 4973.83 6342.25 4187.56 4840.84 5135.69 4020.32 4245.72 4156.38 4541.21 4164.68 6133.92 3719.84 4178.4 3095.48 5762.59 4123.6 4850.14 5163.55 3382.7 3954.91 6817.32 4319.79 3637.61 6222.42 4730.41 3745.84 5062.71 4156.2 6125.34 5965.78 5347.48 4850.01 4810.12 3970.25 5643.58 5147.67 3979.82 4292.06 5011.31 5138.31 5264.06 4659.59 6327.9 4048.37 6355.42 5492.26 4362.19 5690.56 5762.84 3115.91 3307.12 4493.48 5924.89 4778.34 4002.16 4138.16 3486.22 4684.5 3091.3 6230.49 6458.82 4601.27 5493.32 5740.68 5926.61 6051.14 5836.15 3261.21 4195.44 5539.32 6704.06 3653.41 6496.85 5600.93 3856.01 5246.2 4390.66 5728.85 4827.23 6116.18 4924.6 6257.19 4733.32 7184.19 2899.43 2924.37 4290.3 3867.67 4695.45 4660.72 5891.05 5308.1 6902.81 6644.76 5629.19 5655.21 4786.6 5740.84 6445.94 4310.18 7134.64 5978.9 4716.19 3629.62 5514.76 4997.27 4301.06 3456.98 4877.67 4290.14 3066.13 6562.18 6006.16 5316.75 7055.53 5669.65 5934.22 5624.49 4970.88 7092.87 4666.81 3703.1 6471.55 2965.01 5499.39 6643.85 5501.93 5654.31 4938.74 5690.26 5607.14 4497.59 4374.35 6396.74 5215.05 3821.72 5577.04 5006.58 4602.86 3688.8 4548.16 3369.23 5449.18 4220.88 5244.78 3937.74 4749.8 6084.86 5478.92 5551.36 6894.71 4467.94 4414.54 4850.81 5789.98 6138.47 7054.71 3641.64 5489.43 5747.75 4277.89 4727.62 5054.25 4796.33 5360.19 4794.96 4874.39 5541.59 4124.71 5083.08 6337.56 4911.47 5803.39 5863.59 4381.97 4024.3 3255.82 5242.73 2812.98 4737.14 4065.69 5603.15 5556.96 6052.7 3921.18 3798.62 6392.01 3666.57 4907.89 4937.02 4073.93 4645.41 4433.59 4320.28 5542.14 2739.94 4931.53 4218.06 5480.13 6308.71 6695.82 6405.76 3498.2 5105.16 5448.61 4302.5 4827.33 6009.88 5013.67 5826.04 5339.78 4143.78 4763.66 4636.5 4940.42 5923.4 5085.71 5644.82 6343.14 5463.38 5945.21 5750.71 5696.88 4831.47 3923.03 4643.85 5975.63 5252.34 4138.46 4274.61 2775.04 4986.77 6898.19 6318.18 5586.81 4621.75 3948.17 4551.24 4581.13 5358.59 6387.01 4515.71 5367.52 6519.71 6640.13 5210.03 5082.6 5810.84 4230.54 5094.44 3748.24 4655.49 4933.21 5375.47 6038.14 2540.31 6029.66 5527.54 5573.7 5697.4 4270.95 4055.8 5206.78 7325.81 5280.17 6425.26 5143.58 6186.19 4839.34 2980.99 6834.49 5525.39 3998.5 5938.34 5380.13 6394.38 5555.28 5169.36 4686.65 5834.74 5788.23 3043.85 5581.75 3599.45 6730.19 4907.06 3735.44 5163.9 6043.3 5952.75 6332.36 6122.55 6155.31 4223.33 5911.67 3323.28 5835.78 5794.24 4127.74 2476.04 4678.38 5050.65 3937.08 5260.34 5206.48 5513.57 5729.23 5226.0 3365.82 4538.95 5724.64 5965.15 4780.2 6090.91 4946.42 5019.93 5081.78 6116.33 6263.44 5774.97 5462.21 5470.77 4004.04 6062.05 4289.17 5564.02 6072.45 2965.79 4410.55 6035.6 5137.34 4481.53 5423.0 5330.45 3856.59 3610.4 4219.07 5413.79 3092.35 4322.15 4714.54 3629.96 5478.47 3320.11 5351.39 6142.37 6061.47 6163.38 4566.18 4723.12 5120.49 5201.36 5262.61 6302.8 5409.61 6038.2 4005.44 5555.88 6732.43 5028.96 3866.16 6362.12 4484.76 4840.01 4511.82 5611.2 7933.0 4455.12 5173.87 4894.16 5711.87 5118.27 3372.79 4941.22 5932.23 5791.61 3369.13 4669.66 4479.66 4808.52 5367.2 5461.13 4726.76 5839.13 5495.68 5489.34 5002.48 5708.14 5537.72 3920.42 8332.24 4553.56 5329.64 6049.55 5709.62 5991.09 5133.97 3942.07 7443.72 5371.02 4709.35 6586.45 4373.3 4750.78 4163.5 5078.86 5100.1 3561.29 4963.34 4219.78 3295.83 4459.28 4260.92 6250.23 5960.56 4118.84 4020.95 6313.06 3474.39 3493.7 6470.3 4200.03 5082.74 6915.83 7099.43 5526.14 5198.29 5077.33 4746.52 3689.45 6338.89 6202.55 5025.39 7111.16 5893.5 4547.19 5030.91 6022.17 5119.37 3982.23 3459.9 4853.39 4997.27 4964.09 4809.42 5024.9 4306.53 5659.17 5094.81 5972.06 5713.22 5861.71 4359.04 3183.98 3794.63 4524.28 3778.1 5152.36 4727.24 5826.64 4220.65 6820.42 4816.2 6321.41 4896.52 4089.76 4751.02 3192.41 5184.56 5282.64 4715.72 5804.71 5046.33 4764.96 5607.24 4242.52 5053.92 6352.26 3847.38 3818.59 4863.72 4143.08 6623.85 4262.82 5102.36 4342.9 5065.11 5069.84 4051.44 4241.89 5054.74 5941.72 4656.78 5126.91 6600.94 4788.58 5196.67 6155.1 5876.71 6262.72 5029.78 6515.84 4888.6 2990.77 4739.14 4918.77 4371.99 4188.3 3885.86 5235.29 4479.94 4255.31 5453.3 6413.02 4863.27 5862.86 6049.79 5374.98 4719.7 6939.12 4735.33 5411.85 5092.37 6444.77 6314.07 4287.63 5315.4 6449.45 3975.31 3824.16 5125.78 5572.95 3868.18 4373.47 6723.16 5584.06 3817.13 5507.24 5023.15 6851.54 4583.31 4503.89 5806.08 5243.29 4093.08 4449.22 5543.27 4717.05 5287.2 6135.57 5998.38 4312.67 5013.13 5423.8 4270.24 4989.15 5017.78 4164.13 5015.69 6175.81 4947.52 6677.09 4305.57 6959.81 4829.35 5201.67 4424.7 4754.05 5526.55 6084.93 5215.15 4987.87 3315.57 4739.42 5020.12 5727.3 5281.28 5356.51 4277.88 4087.15 3057.03 4758.21 7500.97 3948.23 5228.18 5787.31 3927.99 5868.82 4978.31 4050.9 4099.77 4414.48 4537.32 4981.9 3600.43 4906.82 5131.24 5004.23 6496.67 5474.8 6607.87 3664.11 5117.47 4925.63 5882.65 4434.19 5187.7 4623.61 6261.75 5177.64 6134.99 4094.73 4407.9 3492.19 4584.5 4440.57 5122.63 4703.08 6345.13 5274.19 5516.95 4406.4 4413.85 4844.57 3999.94 4027.46 4470.98 4864.22 5776.37 4516.28 3921.08 4190.31 3627.82 4044.45 5262.19 5344.43 6070.58 5045.38 5350.88 5372.61 3686.21 5402.24 6480.17 4377.07 3844.9 3813.22 5101.59 5570.3 4336.42 4306.11 5935.47 7589.94 3130.65 5628.24 5856.11 3327.49 4109.88 4234.94 4562.29 4980.85 5080.66 3417.33 5110.45 4926.42 5248.77 4642.34 4520.1 5153.74 5874.89 4293.03 5813.4 4389.21 3791.79 4128.98 4925.44 6246.22 4951.47 5246.61 4307.28 3697.96 4723.48 5538.93 4899.11 4745.45 2631.9 7267.18 6255.18 4668.71 5269.18 7228.46 6362.14 6719.88 5978.82 5266.5 4523.88 4066.38 4403.98 4948.98 5227.52 4729.43 4092.24 5163.02 7144.24 5598.74 5687.83 7493.3 6442.69 6320.71 4648.04 3464.83 4721.32 4305.16 3293.56 3163.78 5092.28 5274.14 4903.82 5746.28 4082.47 5511.6 4453.64 4338.08 4517.73 4378.3 5469.47 4989.56 4718.54 5548.29 6766.43 2315.64 5916.16 4390.41 5226.56 5599.49 5313.22 4097.57 3905.51 5017.5 3901.8 5759.46 5083.41 5678.96 4244.9 6048.86 4285.32 6034.41 5452.83 5130.91 4948.5 4519.22 6445.22 3695.36 4564.34 3963.86 4871.44 3848.93 5076.35 6020.48 3402.32 5903.66 4528.49 5004.67 5365.89 5992.26 3960.8 4511.54 5070.39 4923.9 5714.58 5208.32 3296.27 4083.97 4713.25 4607.02 4528.09 3895.51 4165.81 3556.85 5441.96 6291.51 5174.89 5882.89 4188.32 4100.38 3746.31 5344.77 5027.98 5097.87 4278.07 6475.1 2691.29 6256.02 5320.92 4305.43 4406.1 5034.59 4942.77 4263.33 4454.63 5080.18 5912.61 5381.16 3279.1 6193.35 4560.84 6086.96 5233.78 5776.57 4562.74 5046.21 5683.26 5139.5 4814.55 3527.05 5698.77 2477.07 4497.31 6413.11 5529.42 5257.12 4965.89 5659.95 4152.85 2908.7 6415.61 4687.64 4419.71 5660.16 3838.47 2588.37 6736.03 6235.57 3623.87 3087.09 6934.37 6113.95 4050.08 5328.22 5563.79 6171.13 2395.5 5511.88 4512.11 7055.42 5486.68 5100.25 5490.43 5022.28 5197.52 4959.34 5383.07 4527.02 4531.14 4591.87 5013.42 3838.56 6552.22 5651.07 6375.99 5200.05 5234.29 5313.66 5419.37 5275.32 4466.03 5409.33 4898.94 5196.0 4973.78 3329.99 3947.47 5091.68 7531.29 4204.84 6243.0 6673.96 3161.47 3435.9 6390.78 7435.25 4288.3 5370.52 4788.87 4652.29 4495.87 5774.81 6022.72 5498.32 5527.33 5346.27 4969.21 4989.09 2845.98 4880.14 5289.52 5314.85 5941.4 5450.44 6510.17 5742.65 5592.32 4470.61 5565.13 3701.27 5653.9 4806.34 4929.14 5894.61 3979.54 5304.13 3306.14 5944.09 5833.06 4923.41 5384.76 6138.12 4428.78 5243.43 4537.14 4345.67 5551.9 3757.34 4642.66 4752.14 5329.59 4888.12 5037.06 4541.8 5175.29 3197.63 5842.56 5887.15 5412.31 7480.41 3423.15 4890.5 3981.07 5452.42 5186.3 6853.85 3497.9 5941.61 4020.4 5782.48 3493.47 6248.6 5683.61 3836.45 5805.86 6894.26 4986.51 5339.38 5178.99 6169.11 5615.35 4790.78 6422.84 4247.15 4502.18 4602.85 6248.81 5872.05 5273.35 4091.8 2651.49 4645.58 5181.4 5512.23 5670.2 5985.29 4247.23 4178.15 4613.31 4694.83 4733.04 6119.09 5788.66 5936.36 5069.25 3903.75 5048.89 4755.47 5935.03 3991.03 5475.8 5314.69 6826.57 4249.46 5965.81 3702.37 4643.31 2330.66 4177.19 6917.52 5402.21 6718.19 4982.31 3848.54 4307.48 4425.84 5331.02 4871.96 4863.23 3555.86 4402.67 4631.83 4996.99 4384.88 6887.27 6008.49 4220.46 4287.53 5612.21 5945.08 3169.67 4968.03 5490.58 5395.14 4863.79 4702.06 3830.46 6213.04 6031.67 4689.15 3685.13 4655.16 5409.66 3867.19 4765.72 4039.91 5276.7 6119.63 4950.97 5512.16 4287.16 4863.96 5191.08 5203.08 5374.07 5163.77 4588.7 4488.85 3766.55 3731.84 4579.69 4901.07 3554.48 6496.52 3436.15 5005.85 4151.76 4721.02 4596.75 4933.65 5443.58 4558.46 4049.02 4470.4 5311.03 5255.12 4896.11 4027.09 5801.99 5379.09 5210.48 4962.77 4853.02 6259.23 5088.44 4998.21 4711.62 4114.24 4268.65 5349.31 4649.22 5509.42 4354.08 5094.52 4256.43 2682.24 4520.62 5229.48 5475.7 4485.99 5127.16 5435.74 4244.99 6050.81 5543.46 6185.89 3997.96 4750.17 5660.85 3460.94 3990.25 3691.0 4752.51 3587.05 6229.37 4236.14 4407.87 5282.91 3797.33 5945.89 7256.35 4105.55 4800.69 6566.1 6386.78 4456.39 4896.39 6081.14 5480.83 4607.85 5128.57 6000.7 5604.21 5204.04 3361.92 4750.58 6710.88 3967.48 5235.11 6622.11 4590.55 6790.73 5251.4 5097.69 5857.79 6543.13 5149.72 5036.58 5464.25 5411.02 4752.9 4617.55 5199.44 4062.5 4435.51 5683.95 6027.62 5010.2 5966.61 4216.17 6484.17 4938.72 4254.37 3374.08 4031.78 6098.1 5708.99 5687.85 5346.68 5296.29 4611.53 4285.66 5094.48 5172.53 3872.61 4238.4 4135.62 5534.94 7644.38 7552.94 6101.92 5323.3 4635.6 4662.56 3457.48 5166.79 2976.22 3405.98 5417.15 5394.55 3688.16 4681.72 4946.74 4945.39 5996.33 5928.32 5415.19 4612.62 4016.18 3619.07 5526.75 4275.57 6385.23 5327.45 2983.99 5560.26 6363.92 6205.93 4439.35 5830.72 6184.4 3758.07 3828.81 4373.45 4082.57 5733.62 5169.9 5282.51 4460.92 4042.28 4421.12 4340.76 5254.49 6065.22 4221.28 4303.19 5514.84 3633.79 3914.2 5421.53 5937.08 6070.3 4135.08 5233.29 4778.82 4312.56 4612.06 5053.95 5926.11 6667.68 5767.9 5211.38 5089.62 5869.4 4741.26 5920.32 4255.85 4732.09 3988.3 6136.49 4356.25 4216.95 5776.96 5742.74 5486.48 5301.47 3645.12 5424.88 5415.85 8659.64 5469.13 4233.8 5765.42 6123.03 5711.11 4575.94 5021.88 3546.71 5956.65 5768.57 5564.23 5950.04 3735.24 4231.83 2435.33 6401.43 4074.48 4558.47 5020.71 2681.29 5997.88 5839.71 5576.92 4318.48 6132.95 5266.22 4860.33 3685.13 3312.06 6004.68 4051.34 3361.26 6799.4 3627.55 6239.84 4256.67 5865.39 4427.28 3931.07 6079.11 6430.39 3949.6 6326.18 3950.63 5661.62 6631.19 6648.68 4467.04 5626.61 5817.25 2614.4 5061.98 4537.6 4923.24 4419.61 7177.44 4563.46 5309.98 6553.94 5255.18 5460.65 3004.16 4767.78 5463.41 5235.17 5225.33 4779.5 4929.75 4435.36 6649.96 5134.39 5784.3 4256.57 5442.32 6088.68 4643.56 5620.74 5657.36 6124.08 5467.84 5266.01 5253.37 6515.8 3685.65 3701.16 4916.22 4186.6 5895.77 5750.07 4757.74 6045.67 4209.49 3821.94 4244.21 4947.24 5367.73 3875.05 3540.11 6200.54 3456.47 4652.01 5148.58 4199.45 7234.66 6599.66 4055.54 6098.95 4997.83 4893.49 3991.42 5325.44 5102.75 4200.09 4597.29 4498.25 5931.77 4188.87 5151.21 6574.95 6333.29 4477.04 5731.57 6408.83 5365.24 3930.79 4004.35 5226.97 5754.18 5180.76 3418.99 4480.95 5278.36 4409.63 5521.25 3661.9 3082.32 5370.85 5949.46 3658.37 3178.54 7440.72 5376.71 5703.6 5070.29 4807.28 4867.08 4266.03 5280.69 4713.74 4220.03 6923.84 5407.78 4084.49 5449.46 6179.96 6632.99 6113.54 5147.36 6260.79 3963.76 5528.53 6799.88 3062.43 5726.66 5426.78 5652.0 2967.38 4159.35 4237.98 6439.37 6045.22 4614.3 3532.3 5769.98 5067.46 3583.21 2221.99 2511.46 3580.58 4011.37 4863.01 2775.69 5356.79 4785.25 3619.79 5029.47 5424.46 6306.21 2978.76 4908.49 2040.66 7016.27 5884.9 3876.21 4673.35 5689.26 4992.42 6022.7 4940.84 4833.46 4809.67 7248.4 5280.12 3946.28 5984.81 5439.9 3498.16 4409.27 4640.06 5471.74 5421.64 3548.39 4858.51 4207.54 4886.12 6419.12 4976.12 4817.16 5453.98 5148.08 4388.63 4834.87 5760.22 5938.17 4795.43 5398.64 5097.95 6817.57 3614.96 3886.68 5703.74 4745.43 5662.55 4747.55 5737.92 4360.23 3056.7 3755.95 5293.51 4763.96 4446.06 3450.93 5008.63 5132.68 6595.03 4993.35 6218.95 5222.16 5107.23 5136.08 3776.94 5558.68 4765.02 5629.39 4448.13 2684.03 4768.61 2261.36 5075.55 5506.19 6719.94 5227.59 6166.29 5453.6 5703.07 5294.77 4662.43 4630.82 4043.66 4813.08 4540.86 5990.52 4835.83 5604.35 6477.91 3091.67 6420.81 4081.97 5401.99 5580.92 5973.33 4347.74 4009.62 5291.9 6505.78 5461.55 6519.43 5876.64 4857.84 4962.21 4684.44 4858.44 3468.42 3809.69 4771.13 5297.19 4351.38 5550.75 5933.7 5466.33 4444.97 5721.05 4247.69 4514.39 4588.99 4321.21 4344.34 3673.28 4928.27 3583.49 5052.84 3375.28 4366.74 5625.65 4301.61 3184.64 6107.89 4446.84 5660.55 3718.69 4514.79 3672.21 2216.82 4509.89 6752.75 5269.38 5108.06 3573.73 4693.52 4000.43 6853.04 3420.08 5831.96 4539.07 5464.68 6234.32 5591.76 4586.19 4585.31 6625.18 5323.91 4270.74 6293.89 4558.15 4983.39 5366.52 4690.55 5533.72 5533.42 4802.32 4010.57 4599.38 5246.47 6157.04 6191.29 4522.21 7422.36 5161.01 4950.67 4628.4 5832.37 4642.93 5409.63 4263.16 4709.05 3077.84 6024.75 6109.49 5860.67 5332.65 3764.1 6451.33 5413.31 6316.56 4332.87 4743.59 5208.14 4715.58 3317.83 4450.7 5151.52 5369.08 3101.75 4518.04 4766.06 2081.58 4874.18 5435.19 3298.2 4270.15 6865.76 6449.64 6464.8 4406.05 4749.59 4680.94 5799.69 5571.72 5236.43 3208.96 5285.07 7051.9 4184.23 4608.41 4144.57 5980.59 6834.41 6226.14 3796.15 3000.29 4209.31 5718.28 6242.79 5950.45 5713.03 5849.65 4165.21 5297.16 4936.96 5206.33 5530.49 5653.03 6192.0 4940.28 5885.28 3004.34 5607.3 3022.6 2928.82 4914.45 4811.76 4222.4 4698.87 4568.41 4912.04 3624.7 4691.91 4475.83 2685.81 4510.8 5889.35 5010.04 4570.98 5097.45 5825.38 4185.61 2761.07 5737.75 5742.47 3778.02 6552.21 5417.8 7132.12 3678.08 4836.16 5518.57 4187.31 5463.48 5730.33 3240.51 5545.46 4527.99 4376.7 4298.15 5190.61 8325.01 6051.83 4440.81 5941.9 3973.12 6642.76 4497.78 5567.93 4243.79 5987.42 4442.22 4669.06 3012.99 4811.32 6400.08 6184.88 5829.32 4396.25 3763.05 5092.24 5551.95 5549.49 3918.87 5423.42 2275.45 6605.86 5012.5 3562.79 7093.13 4953.1 5818.95 4093.99 3604.14 3940.49 4452.54 5089.1 2711.19 5828.35 5876.72 4028.32 4099.92 4884.59 3858.06 4680.14 4083.79 4187.94 5263.27 5021.77 5599.29 4801.8 7216.98 5271.02 7013.17 3805.67 4601.74 6506.86 5088.57 5580.34 5134.67 3852.6 5775.31 4215.0 4603.5 4481.76 5452.78 5065.26 4304.41 4892.44 5578.94 7610.49 4286.17 6579.31 5323.55 5375.1 5313.12 5351.56 4661.03 5160.59 3984.88 4732.09 5262.35 4320.42 4255.34 5064.79 5480.3 7509.24 4394.56 5896.26 4275.07 5388.78 4047.87 4573.72 5099.21 4917.99 5636.4 4367.78 5146.37 5670.0 4232.16 5300.96 5151.11 4344.51 5680.94 3781.77 5581.55 5193.01 4543.1 6550.44 3860.83 3764.06 5732.27 4523.39 5278.56 5434.47 6917.62 5829.22 5631.14 4343.78 5811.18 5433.65 4008.15 4887.76 7693.4 4286.49 4437.07 3449.37 6405.0 4659.16 5789.55 4633.05 4901.2 5711.62 4383.56 4990.79 5166.79 6479.39 2895.63 4516.53 4122.92 5079.22 5381.54 5810.77 5474.15 7519.2 6355.68 4511.7 4478.6 4304.63 4469.54 6300.92 4173.54 6038.68 5046.12 4807.4 4590.01 6101.86 5993.0 4803.57 5966.42 4110.59 4706.5 3332.49 5354.66 4647.67 4214.44 5375.12 4356.36 4787.97 3746.36 4777.03 3684.56 4246.61 6028.09 5452.36 4172.6 3804.5 6486.37 5498.42 5318.53 4281.98 7165.9 5344.83 3427.63 4146.81 4863.97 6342.48 6101.13 5756.75 5599.7 6969.28 3665.95 5698.96 4350.12 4095.75 5227.02 3603.51 4298.45 5222.51 6609.84 5135.96 3834.43 5658.37 4707.06 6074.94 3474.5 5491.37 4250.88 6348.03 3475.67 4792.39 7038.89 5146.37 4013.38 5067.56 6137.8 5263.3 3352.35 4909.65 3747.03 6523.86 2783.85 4326.48 3994.07 4219.94 5907.46 5491.9 4264.91 5399.29 4909.31 6522.59 4798.17 5425.98 5996.66 4405.42 4997.91 2995.67 3598.08 4599.81 5698.23 7300.58 4714.83 3608.06 6633.61 5484.36 3953.55 4277.24 4063.9 5291.05 4314.56 5161.1 3928.53 4619.2 5606.51 5740.65 5067.56 3834.47 6349.67 6329.53 6541.45 4227.41 5078.31 5391.48 4923.43 5131.15 4847.14 3950.27 5116.66 5378.23 5374.67 4981.43 6789.23 3989.7 5069.89 4215.2 4157.29 6813.72 5327.75 4609.02 4638.18 4196.37 3344.57 6448.66 5220.76 6945.98 5138.2 7046.11 5783.48 4449.98 4504.35 4840.44 5093.82 4587.67 4163.74 3924.14 4296.69 6238.32 3319.67 6471.42 5283.8 4076.59 4428.14 5164.1 6464.15 4972.17 6685.4 5699.53 4222.77 3783.54 5268.38 5527.23 4805.33 3863.67 4814.12 6193.08 6069.3 2735.53 5887.01 5116.6 5388.39 5335.47 4356.49 4526.81 5048.19 6799.23 6740.71 6487.56 4854.11 5971.22 5533.19 5417.21 6602.43 3568.28 6063.64 5522.21 3772.3 4855.01 4923.57 3340.09 5217.95 4867.7 2279.05 4829.35 4075.28 8137.11 5484.32 6650.77 5166.41 4067.96 7104.73 2596.96 5701.75 4350.15 4139.3 3516.27 4750.49 4263.78 4643.9 5228.75 6047.14 5009.83 5210.38 5717.8 3629.44 3566.79 5003.78 3299.24 6246.56 4741.28 2603.64 5107.0 6212.15 4783.07 4896.65 4946.23 6083.28 5211.6 4453.97 3556.79 3503.41 4701.5 7001.83 4771.65 5012.97 5589.37 5439.49 5951.81 6918.35 4834.3 6804.79 6372.13 5369.5 5404.01 6016.19 4124.49 4479.11 3230.13 5714.25 5325.96 4850.06 6332.01 7044.29 4234.18 4049.16 7085.01 5980.95 3936.95 6836.82 3862.77 4631.99 5168.35 3185.39 3728.18 5633.61 7122.87 4243.26 4153.84 4888.27 5119.86 4592.15 4901.44 4998.22 5096.43 6104.26 5583.61 6171.71 4986.71 7382.3 4022.56 5027.43 5522.75 6208.9 5602.53 6061.63 6545.43 6760.92 4711.04 4506.18 4824.12 6162.3 3272.75 4264.54 7043.44 4061.6 6502.97 4852.58 5806.31 5456.71 7317.04 6412.67 4036.91 6639.64 5212.43 5454.12 6348.54 4066.57 5642.35 5156.76 6357.47 6101.57 4891.38 5535.91 5955.86 6176.67 4848.46 5412.24 5016.02 2779.99 4920.21 4581.37 6942.34 5851.61 5478.11 6153.94 5526.31 3858.17 4740.98 5128.77 5797.36 5089.26 5084.17 3776.8 6156.21 2460.79 4653.83 3628.89 6589.82 4668.88 5867.64 4438.58 6059.93 5073.02 3472.91 4989.2 7144.05 2970.9 6542.5 4383.47 5971.21 6318.23 4206.98 4058.87 5174.75 5932.07 4984.46 5948.71 4793.65 2949.12 3856.53 4532.89 5460.89 4533.37 5260.85 5742.09 2884.65 5887.38 5807.46 3658.05 4549.69 6423.81 6192.77 5030.15 6413.15 6103.11 5048.55 6459.51 4024.31 5844.72 3992.97 6040.74 4054.22 7228.94 5393.65 4961.99 6551.93 4648.21 4595.12 4393.16 3311.29 3110.13 6484.43 4625.67 3485.54 5305.59 5416.45 4330.58 5754.6 4955.16 3288.01 4904.51 4147.31 5989.05 2202.77 5751.15 5950.88 4149.55 4441.22 5853.89 3380.69 4140.4 4386.8 5446.4 4725.01 5966.75 3104.96 6735.97 5244.78 3636.15 6114.89 5135.63 6384.7 4355.83 6870.97 5351.86 6056.87 5474.01 6201.86 7554.58 5166.89 3639.44 5491.63 5725.37 3868.62 4729.42 5216.26 4844.83 5377.37 5652.87 5483.7 5018.69 3152.86 5952.38 3896.27 5807.52 5963.36 5230.02 5307.35 4342.18 6016.08 4731.21 3124.7 6064.71 6102.98 5138.33 3477.1 5096.24 5769.14 3381.82 4831.93 4023.93 5493.89 5261.19 4811.22 4918.76 4208.41 3758.22 4268.19 4788.08 6379.14 3687.65 5478.95 4749.96 4658.24 5869.67 4311.48 4899.73 5457.66 6394.19 5973.89 6193.73 5518.11 5087.14 5712.35 5169.48 4743.9 6776.22 5321.17 3719.11 4467.13 6060.17 5934.82 4501.78 5415.45 4385.81 6592.93 6350.71 7107.63 5868.89 5494.28 4099.26 5206.47 4834.39 3831.52 6106.43 6761.81 5467.63 5826.78 2856.55 6214.73 4553.68 4532.7 3205.68 5561.74 6100.73 4908.75 6556.26 3971.08 4593.7 4349.13 6818.91 3634.5 3851.85 4019.34 3623.19 4869.48 4906.11 4387.39 4564.1 5825.55 5509.51 4848.14 5366.22 3199.4 4316.5 5254.24 3742.11 4192.21 3597.43 5701.52 4158.91 5311.55 3360.86 4869.25 5545.21 3877.8 6418.11 4922.49 3572.94 6456.58 5039.12 4824.81 7307.21 5135.5 5615.84 5788.97 3274.85 5007.21 5545.59 4580.06 4835.97 4057.17 7066.96 4587.7 4263.65 5644.81 5666.95 4127.53 5210.75 5175.89 5361.87 5232.85 6816.66 4473.29 6204.65 4482.9 6550.4 5513.8 3503.65 4887.52 5350.88 4392.65 5429.3 5510.96 6653.07 4745.16 4584.81 5071.98 5719.79 4371.08 7261.51 4968.14 4914.03 5086.29 5144.56 5139.18 4278.57 3034.16 5551.43 5049.99 4201.03 4333.87 4458.64 4312.15 3657.69 6015.02 5001.58 4820.17 5244.98 3814.65 4034.05 5798.38 6436.74 5366.11 3419.87 4384.28 3908.98 5944.3 6328.42 5640.72 3619.72 4565.93 4504.52 4464.73 6440.38 5610.53 6419.64 5262.47 4991.35 5196.92 4807.35 4568.64 4642.2 6555.44 5293.75 6358.93 2205.51 3894.64 3703.49 5144.44 4374.74 4757.2 5975.23 4745.79 5079.64 4211.82 5470.04 4891.67 4882.66 6631.28 6571.31 4944.51 5603.68 5532.72 4697.91 3220.8 5179.17 5579.39 5270.51 5148.1 5224.64 5949.73 4312.48 5527.13 6370.33 5081.08 6318.25 6864.06 5001.87 3644.78 4883.63 4078.93 6006.89 3886.72 7778.01 5127.82 5690.96 5805.1 3862.91 4456.26 4027.33 5113.6 3563.14 5851.63 5556.0 4954.81 5755.15 4608.34 3926.11 5464.83 5414.58 2781.96 3512.94 4467.0 4994.65 5601.55 5334.36 3919.62 5750.35 4489.99 3683.86 5658.14 5473.72 7124.45 2617.39 4062.56 5034.69 4198.94 3217.67 6163.54 6003.78 5684.25 5438.92 3766.69 5110.11 5188.53 4521.75 4813.33 4027.63 4526.34 5610.95 4316.45 5042.75 4598.92 5241.22 6647.08 4979.52 5490.75 3422.29 4407.79 5214.63 3495.68 5783.94 5352.24 7362.42 4202.77 5836.14 5473.05 6008.81 5510.9 4583.52 4505.28 3492.83 6280.13 5244.22 5585.14 7039.98 4960.64 5792.98 4983.3 5910.86 6239.68 4456.11 5782.43 4810.98 5026.76 5091.22 6282.38 5727.79 5212.92 5043.14 5748.9 3742.31 5695.79 4420.6 3622.8 4431.23 4258.98 6545.99 3903.91 4929.6 4368.28 4945.0 4548.45 5730.61 4508.18 5064.67 3717.47 4504.86 5969.37 4928.35 4509.46 5212.37 3538.53 996.652 6500.49 5058.51 4244.49 5036.98 4120.07 3840.21 5569.2 6746.66 5420.67 5635.32 4827.61 5285.75 5409.08 5481.64 5673.75 5360.67 6263.3 4501.05 4537.03 6548.29 3990.96 4114.2 4326.06 5034.46 5757.29 5793.12 5469.17 4373.2 6711.21 5832.29 2606.51 4438.76 5401.4 5053.15 5124.17 5749.6 7320.78 4234.88 4708.31 3873.92 4092.07 5347.9 5657.55 5188.82 4717.73 5072.5 4749.18 3663.0 4546.96 6304.49 4475.38 5287.25 5917.34 5740.98 4728.55 4554.68 4658.11 4551.26 5114.07 7142.95 4559.74 4383.68 6618.21 6666.67 6200.63 4583.94 1937.5 3844.54 4337.32 2628.22 5965.58 3352.34 4901.29 4050.03 4952.52 3429.57 5410.33 5661.6 6099.28 5372.25 5385.03 4169.15 4778.37 5134.17 5968.54 4904.35 5592.54 3247.97 5124.34 4904.37 4358.81 4651.64 5729.92 5016.46 6224.13 5061.75 4761.84 3769.24 3661.67 3743.76 5153.18 3425.69 4971.29 5510.45 3864.92 6119.99 4159.81 4446.58 5372.82 4402.17 4775.49 4681.29 3845.9 4174.44 4834.44 6331.74 4213.05 4224.3 5235.87 4928.85 4316.0 5424.55 5134.72 4770.51 6511.37 3787.08 4462.87 4218.16 5630.9 6139.64 4140.92 4474.83 4585.04 6570.35 4242.63 7407.91 6063.44 4051.18 5046.31 5849.53 4680.69 4420.11 5863.0 4802.98 4833.55 7224.99 3242.31 4898.29 4431.06 5730.2 3234.26 4830.13 3494.16 5370.9 4074.16 4529.77 4325.13 6172.27 5390.33 5078.73 5278.54 5729.0 5192.92 5275.57 4179.87 4786.66 5891.25 5370.1 5393.76 3684.15 4730.14 3994.39 5906.57 5499.59 5667.51 4198.9 5431.29 5325.91 5157.38 4700.07 5273.37 4732.37 3904.07 5713.36 5553.94 6502.99 4392.75 4921.1 3814.16 4191.01 5577.41 4216.44 4012.92 4933.49 4692.32 5236.24 3127.83 3269.54 5836.26 6015.22 4651.99 6127.39 5640.12 4972.18 5329.76 4124.76 7200.89 3908.56 5265.63 5684.88 6523.78 4645.86 5620.88 4941.52 5900.0 4262.74 6241.77 3783.79 4248.14 5317.19 5279.19 4016.6 5821.49 7050.08 5580.44 5998.13 5902.67 5454.11 4236.86 7123.04 4128.1 7541.76 4932.29 4990.23 3784.94 4506.66 4439.71 4141.21 4064.58 4833.67 4646.51 4546.44 6203.03 6089.45 4985.3 4704.92 4287.25 3987.69 6219.34 4589.06 3999.5 4346.07 4013.86 4177.47 6102.49 5114.23 6061.85 6449.06 5241.75 4731.53 4577.73 4147.49 5760.98 4954.76 4642.74 5764.52 4390.64 5150.84 4608.01 4045.67 6005.95 4308.49 4930.17 4581.1 4085.96 4745.44 5762.82 7360.12 6223.98 5462.6 5617.29 3035.06 4262.19 4597.88 5095.52 4763.4 6010.59 2955.36 4618.73 3220.29 5426.4 5951.86 5023.41 3791.41 952.938 5702.4 4184.21 5473.89 5265.21 4657.24 4966.07 4400.14 4666.12 4920.88 2918.64 5345.73 4770.63 5678.58 4385.49 4263.18 5495.0 5512.44 4454.74 4826.52 2904.46 5120.92 4685.4 3763.9 4288.45 5419.57 4081.34 5384.86 3770.22 3402.44 4848.98 5184.98 4491.96 5087.97 4467.51 5339.82 4519.03 5460.57 5110.27 5703.34 4612.68 6668.98 6649.52 4232.33 4939.56 4747.68 5770.92 3093.38 4878.93 2002.78 4941.02 5806.61 3682.35 3142.09 5182.13 3965.3 6110.48 5515.73 6715.73 4125.9 4564.41 5247.01 5853.12 4841.7 4678.7 5810.17 3450.07 4271.07 5674.63 5340.05 5759.79 4639.8 4212.15 4489.29 4301.93 4924.07 3200.6 4918.64 6206.98 6638.25 5162.67 4636.53 3646.95 5537.61 6084.88 4199.44 4397.06 4053.12 4479.5 6261.67 3435.13 5065.78 4431.46 4521.42 3207.84 3977.98 6043.34 4128.93 4959.72 4712.17 4845.91 4723.71 4461.67 5784.37 5003.3 3756.96 3954.77 6793.1 6016.87 5209.55 3306.84 3484.81 5308.33 6023.07 6710.14 4598.54 4896.43 4462.35 4788.7 5078.59 4775.04 4607.18 2403.72 3228.27 4721.98 5252.82 3543.98 5056.26 5878.55 4014.44 6604.72 6002.77 3794.47 4610.55 4967.02 4614.49 5400.69 4462.5 5573.31 5004.68 3808.04 4023.88 4405.61 5348.11 6273.6 3668.93 4009.24 6245.52 5077.29 6740.35 4550.92 6506.63 5995.4 5218.42 5188.22 4512.07 4196.62 5984.8 3986.41 3469.18 6347.72 6240.42 5146.0 3956.24 7558.99 4142.1 3393.59 5043.14 5333.04 5445.91 4521.99 4812.59 6842.54 7115.67 5675.45 3361.11 6038.56 2807.46 5599.16 4179.8 3488.34 5658.35 5428.24 5684.05 4708.17 5167.53 5800.81 5166.05 3125.13 7035.54 5866.91 4208.37 6019.35 6075.99 5191.26 4184.47 4841.23 2804.54 3372.95 5819.0 3460.93 6334.53 5580.95 3549.92 4032.06 5246.81 5089.1 5888.95 5394.78 3463.34 5122.38 2853.68 5262.85 5329.84 4998.37 6559.82 3879.83 6565.95 4577.98 5043.34 5886.81 5136.87 2741.2 3779.45 6405.69 5763.05 5357.39 4252.18 6296.54 5797.21 3669.32 5700.79 3825.48 5124.86 4629.02 4705.68 5469.35 5117.64 4313.38 6598.99 5250.56 3633.58 2468.16 6294.14 4339.97 5203.75 5169.09 4691.15 2459.88 4210.24 5470.67 5901.71 5342.9 5225.11 5252.22 5733.12 6436.29 7350.26 7145.73 4168.52 5233.76 4659.88 4762.1 3495.3 5890.25 4927.73 2832.83 5827.3 6036.99 4084.87 3010.1 3825.98 4589.22 5087.03 4667.84 3906.41 4123.08 4512.6 4260.38 4636.45 4932.27 5638.51 6793.49 6060.19 4962.35 6786.37 5591.77 4556.19 3612.44 5685.74 4140.04 5766.05 4474.96 4758.76 4790.63 5259.29 3584.05 4916.75 4818.53 5097.85 5584.64 6189.04 6224.64 4221.03 3799.55 5082.66 4550.77 3563.33 4337.93 3550.88 5536.0 4345.51 5813.79 4644.88 5790.42 5106.46 6562.92 4068.31 4850.5 4658.59 5532.75 6949.65 4608.62 5407.96 5367.05 4449.73 5647.11 4088.72 3945.62 3743.85 6236.46 5342.17 6379.3 5015.67 3795.63 5189.4 4576.71 6538.04 4894.15 6157.59 5201.3 4048.73 5848.41 6223.33 5024.32 3671.06 4683.28 4176.32 3185.09 3587.93 5064.23 5721.14 5084.5 4987.28 4071.75 6562.03 4090.28 4246.83 4932.56 4279.44 4668.8 5322.11 4697.49 5735.08 4726.2 5034.05 4816.51 4711.15 4474.39 3810.68 6478.35 3990.94 4756.8 5477.8 5463.06 6069.78 5260.52 4241.68 4975.85 4095.83 2945.34 5676.61 5846.95 5716.42 5268.15 5701.63 4603.04 4870.94 4620.95 5368.93 4488.39 6121.56 5914.5 6006.16 3565.32 4096.86 5710.33 5344.44 6432.8 4626.72 5131.77 5549.71 4815.47 4759.99 3899.7 5134.33 5214.4 3629.49 5399.43 5034.34 5695.44 3835.81 3422.21 3916.42 4493.79 5537.34 3667.93 5638.7 3487.31 4899.19 6643.4 5058.34 4028.22 5575.11 4983.1 5293.13 4507.36 6224.85 6406.8 5403.97 4795.08 5648.78 6875.73 5501.73 6081.3 4697.24 4983.43 5117.52 6311.89 6549.8 2820.07 5129.68 4825.73 5076.84 4165.36 5288.33 4871.77 5811.26 5062.77 4884.93 5069.9 6028.63 3673.6 4494.15 5146.1 6215.87 6485.77 6060.06 5866.42 5544.27 5393.43 6896.55 4685.65 5377.01 6470.23 5939.22 4271.93 4215.05 3626.86 5125.17 4604.1 6371.96 4859.01 5076.11 5524.45 7133.44 4426.02 5600.21 3953.26 4750.81 4282.11 5467.51 5459.92 2347.41 4625.53 5453.77 4096.47 4357.11 5114.67 5005.6 2809.19 4916.7 5486.89 5589.53 7208.19 4549.51 5025.42 5196.08 4517.29 5695.25 6257.79 5323.95 4495.75 6171.01 6229.83 5796.26 4468.26 4523.81 5578.18 5106.33 5293.37 5271.88 5933.54 4028.35 5559.79 7168.2 4602.57 3763.85 3419.07 4571.74 5740.78 4796.12 3622.48 5001.51 5997.91 5385.86 5115.42 3186.07 4082.4 4209.0 4410.82 4369.86 4967.51 4368.12 6443.99 5173.82 2646.13 7212.97 4365.58 3889.98 5193.58 3720.7 5490.64 5698.53 3769.2 4507.46 5036.14 6022.78 5884.99 5192.49 5726.42 4674.9 7025.09 3392.26 4433.12 3918.94 2549.95 5461.72 5487.63 3768.46 3852.82 5138.93 6945.69 5118.86 7086.69 5368.66 4304.64 6170.9 5833.78 4436.48 5226.42 5615.35 5758.98 3967.76 5288.64 6213.24 6734.39 4217.36 5679.74 5942.45 4150.76 4851.18 4228.53 6123.46 5005.72 5368.52 6142.88 5155.28 5111.26 5205.38 5388.73 4764.83 1969.87 3132.34 4949.55 4600.71 3957.38 4841.28 5262.79 5927.2 6889.5 5035.71 4710.88 4419.79 5300.17 5407.69 3869.39 5152.78 5960.5 5534.23 4117.9 4753.76 6025.77 4638.09 4781.9 6815.96 4441.91 5339.6 5330.26 5828.25 4725.11 5418.12 5322.07 5934.05 5770.07 4714.66 5990.75 5101.6 4984.17 4656.01 5781.62 6589.13 4037.86 5602.62 2030.03 3543.37 4542.16 5714.51 5628.97 4104.04 5353.66 2638.82 5030.33 5593.79 5234.2 4965.24 6379.38 5327.05 5438.55 4849.5 5353.23 4434.65 5977.66 5209.5 5065.74 5791.25 5198.94 4873.23 6731.89 5464.05 2980.31 5879.24 5410.6 3148.79 5453.2 6348.93 6824.53 4332.64 4742.82 5232.16 4422.23 6791.86 4820.68 4930.72 5482.76 5728.58 3745.02 4887.73 6297.99 4211.36 5378.24 3856.73 3604.31 4538.89 4450.49 5817.74 3468.45 5887.71 4087.32 5517.65 4009.68 6647.85 3303.49 2569.12 4161.32 4622.73 5256.75 5161.74 7336.37 4361.24 5932.28 6599.28 5560.23 5099.9 2960.5 5783.38 4975.32 3043.77 4298.7 3902.48 5237.55 4183.4 3909.94 6030.39 4733.79 4905.53 3799.01 4823.06 7392.65 5254.49 5319.1 3757.23 6828.8 6883.86 5987.88 3579.59 6161.94 4065.28 5057.59 4461.14 5285.6 4574.54 5575.11 5490.54 5615.06 5203.54 4047.95 5507.38 6142.94 4416.87 5001.69 6581.56 4057.4 4052.43 3980.46 4896.67 5383.9 3934.11 5158.44 3886.56 4466.22 4496.51 6153.71 5917.08 6561.94 5483.37 5259.21 5092.93 4256.08 2803.01 5881.93 4444.0 6771.18 6182.19 5327.39 7415.84 4981.81 4138.59 4970.55 4938.33 4484.78 4621.33 5527.27 5104.39 5157.73 4612.13 5847.91 4934.66 5846.6 4984.01 4109.44 4903.84 4290.49 4557.1 6688.53 4605.39 5927.1 6175.27 5876.51 4103.76 4286.61 4094.63 4733.41 2932.52 5264.83 4603.66 4969.68 5136.51 3901.53 6815.51 5431.14 5313.86 4457.05 3989.26 5189.91 6031.22 3618.64 5485.84 6424.77 4335.79 5453.69 5797.32 5918.95 5432.04 5689.56 6556.86 5114.51 5129.4 4746.15 4655.37 3720.38 5585.25 5023.61 6351.89 6530.78 5059.37 4742.35 4139.39 5394.79 5645.54 5088.64 6264.03 4526.87 6589.8 4151.74 6920.92 4174.22 3729.16 3783.36 3573.84 3038.91 4181.93 3922.28 6570.43 3350.99 3820.19 3445.92 5236.69 4979.5 5524.28 4586.82 3133.28 4745.37 5939.29 6026.04 6200.05 5418.98 5859.17 4034.41 4052.49 5061.74 5522.34 5326.03 6189.67 4420.35 5717.45 4948.96 5256.82 4013.86 4061.87 4645.93 5165.31 5448.64 3798.09 4585.37 4288.5 6417.61 5715.51 3721.69 4511.05 3456.3 6074.39 5317.83 6738.9 4399.52 4460.89 4554.24 4157.1 3939.96 8052.53 4867.12 5910.66 6044.01 6520.19 4637.3 5141.03 1458.87 5734.07 4840.44 8123.59 3997.68 4819.83 5765.14 4767.54 4541.22 4946.08 3539.68 5121.08 4696.03 6217.33 6177.68 4698.7 6270.59 2848.44 6045.26 4220.43 6500.45 4907.55 5743.8 5084.76 6666.34 6605.11 4645.91 4757.87 3557.46 6636.43 5971.95 6298.8 3689.24 5178.07 5151.19 5777.26 4171.02 5703.84 6509.54 7012.36 3530.82 5028.06 4002.99 4886.99 5159.67 3921.27 3161.1 3572.73 3702.45 6275.25 6892.33 4758.84 4731.37 4505.3 4491.26 4452.36 3976.0 4672.86 4511.34 4068.41 6463.71 5009.21 4574.03 5290.37 5850.38 5264.08 3562.8 4227.66 4730.97 4691.01 4594.89 5192.82 5245.95 5821.42 4067.89 4515.02 6294.09 4924.52 4571.57 5131.07 4121.07 2970.24 4197.87 5105.54 5658.05 5731.43 6353.81 3518.14 3414.67 5444.36 4150.44 5044.68 5771.98 5899.78 2649.69 5000.74 5117.83 5772.57 5268.27 4813.81 3882.37 5244.95 4634.25 4095.4 5901.8 6351.48 5395.12 5783.69 3830.7 6210.0 3483.61 5350.9 4262.52 7430.48 5992.06 5545.68 6080.69 4970.12 4967.93 6369.66 5973.57 5922.62 6241.48 6033.28 5957.82 4801.16 6286.27 5071.38 3717.22 6327.54 2927.84 5616.66 5688.77 4802.36 2943.17 5368.28 5466.13 6229.64 5257.38 6263.87 5075.23 4975.56 7282.36 3826.01 5581.01 3928.99 6834.92 4125.75 6379.33 5130.57 5652.73 3979.46 5402.45 6321.97 3985.93 6412.84 6071.59 2589.19 6119.0 3792.06 5128.59 4993.49 4937.36 4293.3 5587.3 5310.33 4864.38 6583.37 3688.83 5631.32 6322.0 5793.14 6345.2 4609.65 5704.61 4832.21 3720.92 5410.73 4379.91 5087.3 4942.63 6139.74 4975.57 7066.26 3057.3 6150.31 3677.85 5214.71 4677.84 4811.11 3463.53 5379.52 6126.03 4866.8 5314.67 6044.69 5563.47 5651.46 6593.1 4066.36 4000.51 5462.1 6033.93 6032.45 5011.37 4026.03 2827.92 6908.32 3467.11 5336.61 4817.75 6153.26 4848.15 5637.53 4439.09 5523.81 5648.59 4718.61 5188.57 3873.79 5717.67 5357.33 5252.37 5515.59 5432.4 3224.81 4499.54 5037.58 6457.89 5640.67 6572.17 3751.73 5555.89 4766.47 4871.1 5678.08 3917.09 6009.93 5872.45 4414.09 5125.45 3784.68 4188.16 6305.9 6649.21 5507.07 4654.92 5327.71 4880.78 4322.56 5509.09 5625.02 5212.05 5479.86 4829.77 4444.92 4702.32 6959.88 5971.9 5749.53 3746.62 5090.48 5247.73 5034.02 5582.28 4769.62 5945.25 5260.13 4649.5 3856.4 5181.31 6079.55 4696.06 5485.61 4137.16 6189.29 5308.4 5984.55 6581.13 4569.32 6126.5 4034.88 3511.5 6007.1 5488.96 5067.92 3188.21 5128.03 5919.27 4793.06 6271.22 6637.38 3421.81 6188.33 3920.64 6111.23 6916.18 5786.06 5873.62 3868.69 4137.41 4996.91 3920.44 4450.51 6033.72 3768.62 3851.47 4966.74 2329.93 4959.94 1635.31 5639.4 3162.27 6185.73 4083.24 5516.37 5092.44 4441.44 5432.2 4232.44 3312.3 4612.4 5563.09 6381.58 3282.57 5212.2 4798.13 4611.21 5108.42 6697.45 4630.5 6296.36 4432.32 4451.76 7885.41 3775.38 4046.22 4104.97 4844.2 4575.72 5114.61 6118.13 3374.62 4926.62 4420.3 6332.64 4202.12 6492.44 4613.32 4083.1 5270.1 3482.73 5191.29 4957.99 5130.56 4947.64 4063.26 5345.05 4997.89 4542.62 3470.69 4859.95 5286.55 4132.08 5522.18 5223.1 3873.72 4850.49 4981.55 4592.49 5144.23 3625.98 6188.62 6474.5 4414.06 4763.04 5944.52 4413.56 4532.67 4876.37 5050.2 5316.05 2513.38 4908.32 3995.08 5019.84 4810.74 5985.75 5784.38 5475.83 4149.17 4329.8 5728.27 5672.46 5803.3 5108.84 4582.12 4487.51 4295.25 4520.14 7394.47 5357.14 4729.45 4850.95 6261.13 5374.09 4720.34 5244.47 5378.75 5510.89 6186.24 5822.7 3780.07 4159.89 5466.49 5178.55 5447.74 4038.17 5007.41 4907.48 3692.99 6213.74 4488.41 4369.87 6938.87 5412.07 5512.57 4806.99 6520.96 3771.91 5856.43 5217.62 3465.03 6178.19 4746.19 5349.85 4616.81 5715.25 5172.1 4362.94 4469.82 6545.78 4870.14 3354.94 4404.87 5237.27 5105.72 5767.65 4750.76 5003.49 5782.25 4907.03 5497.27 4081.77 5617.91 4948.21 2181.29 4987.01 4706.31 2694.25 6265.48 4735.99 4203.68 4739.56 5145.39 3996.93 6351.95 5195.09 5200.1 7679.2 5093.28 4881.51 6131.52 4311.92 2626.41 6009.88 4699.77 5093.41 6842.35 5464.34 6153.07 3621.63 5801.89 5908.57 6833.5 7296.47 5742.39 4821.41 4924.53 5616.11 4499.52 3874.12 4028.13 3900.93 4457.73 6476.35 3113.64 6260.58 4067.24 3053.19 5202.33 3074.49 4246.24 6805.02 4919.13 5354.48 5640.63 4900.26 5783.88 4167.55 5002.38 6705.93 4865.11 4731.16 5502.14 5449.09 6470.87 4495.33 5282.67 4131.08 5747.9 3864.19 4287.93 5146.69 6203.24 6818.23 5081.65 6679.12 5652.19 5806.74 3878.8 6578.62 4813.55 4698.94 6284.12 4796.04 3839.0 5229.56 6011.4 5799.86 3330.85 4672.34 6052.22 5376.41 5003.63 2932.2 4695.7 4944.08 4082.01 5269.39 3964.03 4216.33 5832.72 3903.9 4444.95 4721.2 5161.02 3943.77 3124.49 5242.38 6081.35 5003.81 6262.18 3818.37 5566.5 4701.03 3352.46 5663.36 6225.05 5434.04 5125.53 3997.52 4444.54 5403.81 5779.9 4909.74 5310.33 6729.99 6664.54 3922.98 5161.73 5259.48 4777.96 4008.67 5254.93 4803.4 6608.94 2613.78 4780.16 5417.07 3834.01 5656.84 4433.23 5738.37 4813.24 5759.19 4739.41 5847.27 4490.2 4304.75 5734.84 5480.86 6139.9 6571.26 5402.81 4600.81 5561.63 4124.33 5168.97 4358.06 5093.51 5647.93 4280.92 6201.49 5154.74 4696.92 4605.61 4465.56 6898.8 5386.95 6540.57 5332.11 4893.72 5315.71 6004.72 6158.93 4823.14 5438.5 4489.18 4621.32 5699.4 5237.76 4286.84 3948.21 5669.15 5296.05 5263.86 6988.4 5056.32 5533.52 5410.33 4747.24 4380.86 5302.53 4909.13 5576.16 4305.35 5648.02 3308.75 5210.22 2451.27 5677.42 2701.42 4929.35 5606.22 6673.92 5151.68 4884.94 5459.52 4609.98 4738.72 4752.31 5240.97 4276.59 5579.04 5405.6 5994.21 4884.93 5082.25 4759.38 6964.78 5299.03 5036.84 4565.36 5813.68 4025.08 5040.9 3618.53 4770.21 8013.28 3846.55 3796.73 4644.68 3082.16 2892.36 5981.54 6789.66 5416.41 5312.2 6760.64 4706.59 2515.5 5177.88 5551.79 3982.31 4950.07 4720.22 4333.23 4328.76 3747.96 5611.29 5940.5 6568.45 5004.22 4601.54 7263.57 3832.09 5705.96 6437.99 5739.69 6632.04 7360.62 4985.45 4072.4 4983.56 5373.78 5699.51 4714.52 5345.65 2489.44 5499.37 5863.36 4632.75 4752.94 4994.98 3950.53 6423.96 6058.13 4501.1 5894.69 6550.61 4987.01 6635.51 4060.17 6094.34 6051.35 6779.82 5543.67 4287.61 4867.13 3999.81 4604.34 4439.17 4502.12 3255.93 5442.79 5051.39 6327.61 4633.59 5733.59 5362.15 4455.61 3695.72 6874.6 5106.9 5569.85 5523.96 3929.35 4223.53 4733.37 6960.97 4374.05 4287.15 4523.9 5282.51 5504.65 5669.41 5732.11 3919.47 5596.68 3783.35 4868.66 4004.39 5159.9 5283.65 4987.48 5943.61 4248.58 5911.29 4694.27 4542.25 4849.21 4785.55 3793.83 6981.47 4582.24 3916.15 5145.13 3860.8 7370.52 4726.5 4521.88 3724.23 5103.3 4963.88 5888.94 4122.2 4727.98 5175.88 5267.65 4516.26 4790.16 3509.34 3647.26 5360.88 3166.37 4977.64 5369.42 5207.08 5205.53 4587.19 5543.05 4883.13 6028.89 4836.76 5333.16 5551.09 4888.17 5755.98 5392.85 5581.47 4384.91 4274.05 5275.27 4277.54 4713.56 4531.46 5925.82 4739.5 6210.48 6377.45 4863.27 6853.07 5575.8 5268.93 5306.31 4535.94 3037.72 5126.08 5604.0 3760.4 4951.02 4602.7 4037.16 6395.63 5479.17 5020.37 4414.23 5233.88 5245.4 6189.81 5438.6 5467.05 3731.58 5077.2 5529.09 5448.68 4072.95 4491.62 3865.5 4182.05 
SCALARS Velocity float 1
LOOKUP_TABLE default
1.19182 1.19184 1.19181 1.19181 1.1918 1.19178 1.19179 1.19185 1.1918 1.19186 1.19183 1.1918 1.19184 1.19178 1.19181 1.19178 1.19179 1.1918 1.19183 1.19185 1.19181 1.1918 1.19178 1.19185 1.19183 1.19182 1.19178 1.19182 1.19178 1.19179 1.19178 1.19178 1.19179 1.19178 1.19178 1.19178 1.19178 1.19178 1.19178 1.1918 1.19179 1.19178 1.19178 1.19177 1.19178 1.19178 1.19178 1.19178 1.19178 1.19179 1.1918 1.1918 1.19181 1.19181 1.1918 1.19179 1.19179 1.19178 1.19179 1.19179 1.19178 1.19181 1.19181 1.19178 1.19178 1.19183 1.19183 1.19181 1.19178 1.19179 1.1918 1.19178 1.1918 1.19177 1.19182 1.19183 1.1919 1.19177 1.19178 1.19179 1.19183 1.19182 1.19178 1.19186 1.19181 1.19177 1.19178 1.19178 1.19178 1.1918 1.19176 1.19184 1.19179 1.19189 1.19185 1.19186 1.19185 1.19183 1.19185 1.19179 1.19184 1.19186 1.19182 1.19183 1.19178 1.1918 1.19183 1.19185 1.1918 1.1918 1.1918 1.19177 1.1918 1.19184 1.19188 1.19181 1.19182 1.19181 1.1918 1.19179 1.19179 1.1919 1.19185 1.19182 1.19184 1.19182 1.19183 1.19183 1.19183 1.19183 1.19178 1.19179 1.19178 1.19178 1.1918 1.19178 1.19178 1.19178 1.19178 1.19182 1.19178 1.19181 1.1918 1.19178 1.19178 1.19178 1.19178 1.19178 1.19178 1.19178 1.19179 1.19178 1.19178 1.19179 1.19181 1.19181 1.19181 1.19182 1.1918 1.19178 1.1918 1.19179 1.1918 1.19181 1.19177 1.19181 1.19183 1.19179 1.19177 1.19184 1.19181 1.19179 1.19179 1.19179 1.19179 1.19183 1.19184 1.19193 1.1919 1.19182 1.19177 1.19178 1.19181 1.19179 1.19183 1.19182 1.19178 1.19187 1.19181 1.19181 1.19178 1.19178 1.19181 1.19179 1.19179 1.19186 1.19186 1.19177 1.19182 1.19179 1.19184 1.19179 1.1919 1.19185 1.19184 1.19179 1.19179 1.19178 1.19182 1.19183 1.19177 1.19184 1.19182 1.19185 1.19178 1.19179 1.19176 1.19182 1.19186 1.19177 1.19181 1.1918 1.19181 1.19181 1.19181 1.1918 1.19178 1.19186 1.19187 1.19184 1.19183 1.19183 1.19187 1.19188 1.19184 1.19186 1.19185 1.19183 1.19178 1.19182 1.1918 1.19178 1.19186 1.19178 1.1918 1.19178 1.19178 1.19178 1.19178 1.19182 1.19178 1.19178 1.19181 1.19178 1.19179 1.19177 1.19178 1.19177 1.19178 1.19179 1.19185 1.19181 1.19181 1.19181 1.1918 1.19179 1.19178 1.1918 1.19178 1.19181 1.19178 1.19182 1.19182 1.19179 1.19177 1.19178 1.19177 1.19184 1.1918 1.19181 1.1918 1.19184 1.19187 1.19182 1.19179 1.19183 1.19183 1.19185 1.19181 1.19184 1.19182 1.19181 1.19188 1.19196 1.19184 1.19189 1.19181 1.1919 1.19179 1.19178 1.19181 1.19189 1.19186 1.19184 1.19183 1.19179 1.19186 1.19178 1.19185 1.19184 1.19184 1.19178 1.19181 1.19195 1.19195 1.19181 1.19193 1.19182 1.19177 1.19179 1.19191 1.1918 1.19188 1.19182 1.19175 1.1918 1.19182 1.1918 1.19178 1.19181 1.19183 1.19188 1.19186 1.19182 1.19181 1.19178 1.19181 1.19178 1.19178 1.19177 1.19185 1.19185 1.1918 1.1918 1.1918 1.19181 1.19178 1.19178 1.19176 1.19182 1.1918 1.1918 1.19182 1.19181 1.19179 1.19178 1.19178 1.19178 1.19179 1.19179 1.19179 1.19179 1.19181 1.1918 1.19181 1.19179 1.19182 1.19181 1.19179 1.19182 1.19179 1.1918 1.19178 1.1918 1.19173 1.19179 1.19172 1.19182 1.19182 1.19187 1.19178 1.19183 1.19183 1.1918 1.19181 1.19184 1.19194 1.19179 1.19183 1.19183 1.19182 1.19178 1.19178 1.1919 1.19178 1.19187 1.19183 1.1918 1.19176 1.19186 1.19178 1.1918 1.19177 1.19189 1.19184 1.19182 1.19185 1.19173 1.19187 1.19184 1.19182 1.19184 1.19189 1.19178 1.19185 1.19196 1.1918 1.19189 1.19184 1.19191 1.1918 1.19184 1.19178 1.19188 1.19192 1.19182 1.19188 1.1918 1.19181 1.1918 1.19189 1.19189 1.19184 1.19181 1.19187 1.19186 1.19184 1.1918 1.19187 1.19172 1.19179 1.19179 1.19183 1.19182 1.19178 1.19179 1.19177 1.19181 1.19178 1.1918 1.19182 1.19179 1.19187 1.19179 1.19178 1.19179 1.19181 1.19178 1.19177 1.19181 1.19179 1.19181 1.19181 1.19178 1.19182 1.19182 1.1918 1.1918 1.19178 1.19177 1.19176 1.1918 1.19181 1.19174 1.19184 1.1918 1.19181 1.19183 1.19184 1.19194 1.19182 1.19179 1.1918 1.1918 1.19181 1.19178 1.19177 1.19177 1.19177 1.19186 1.19192 1.19189 1.1918 1.19193 1.19186 1.19178 1.19182 1.19185 1.1918 1.19181 1.1919 1.1919 1.1919 1.19189 1.19186 1.19173 1.19184 1.19184 1.19188 1.19177 1.19197 1.19189 1.19184 1.19189 1.19181 1.19173 1.19181 1.19184 1.19183 1.19176 1.1919 1.19182 1.19182 1.1918 1.19181 1.1918 1.19181 1.19186 1.19186 1.19183 1.1918 1.19187 1.19187 1.1918 1.19169 1.19178 1.19179 1.19188 1.19185 1.19182 1.19179 1.1918 1.19181 1.19183 1.19179 1.19182 1.1918 1.19179 1.19179 1.19178 1.19176 1.19187 1.19182 1.19179 1.19179 1.1918 1.19181 1.19178 1.19179 1.19177 1.19179 1.19181 1.19181 1.19179 1.19179 1.19182 1.1918 1.19176 1.19179 1.19179 1.19179 1.19178 1.1918 1.19178 1.1918 1.19179 1.19195 1.19181 1.19189 1.19193 1.19179 1.19179 1.19183 1.19179 1.19176 1.19177 1.19174 1.19191 1.1922 1.19181 1.19178 1.19173 1.19185 1.19181 1.19184 1.19185 1.19177 1.19186 1.19192 1.19189 1.19178 1.19184 1.19182 1.19188 1.19193 1.19203 1.19193 1.19196 1.19175 1.19173 1.19188 1.19181 1.19186 1.19176 1.19183 1.19178 1.19182 1.19181 1.1918 1.19178 1.19189 1.19182 1.19171 1.1918 1.19188 1.19181 1.1918 1.19185 1.19184 1.19179 1.19183 1.1917 1.19179 1.19178 1.19175 1.19177 1.19178 1.19178 1.19179 1.19181 1.19183 1.19182 1.1918 1.19175 1.1918 1.19179 1.19183 1.19179 1.1918 1.19178 1.19176 1.19178 1.19178 1.19179 1.19178 1.19179 1.1918 1.19181 1.1918 1.1918 1.19183 1.19179 1.19181 1.19174 1.19179 1.19178 1.1918 1.19178 1.19176 1.19186 1.19188 1.19178 1.19181 1.1919 1.1919 1.19192 1.19179 1.19183 1.19179 1.19207 1.19171 1.19176 1.19174 1.19178 1.19174 1.19181 1.19181 1.19189 1.19175 1.19177 1.19176 1.1919 1.19186 1.19176 1.19182 1.19176 1.19185 1.19182 1.19191 1.19183 1.19185 1.19183 1.19184 1.19195 1.19194 1.19183 1.19172 1.19179 1.19186 1.19176 1.19183 1.19188 1.19178 1.19184 1.19177 1.19182 1.19189 1.19172 1.19179 1.19178 1.19178 1.19176 1.19179 1.19183 1.19172 1.19182 1.19182 1.19186 1.19176 1.19187 1.19178 1.19175 1.1918 1.19174 1.19185 1.19179 1.19182 1.19179 1.19178 1.19182 1.19179 1.19178 1.1918 1.1918 1.19178 1.1918 1.19173 1.19179 1.19179 1.19179 1.19181 1.19179 1.19179 1.19182 1.1918 1.19183 1.19175 1.19189 1.19177 1.19177 1.19181 1.19175 1.19177 1.1918 1.1919 1.19189 1.19183 1.19189 1.19189 1.1919 1.19177 1.19193 1.19191 1.19188 1.19195 1.19175 1.19194 1.19178 1.19175 1.19189 1.19167 1.19186 1.19184 1.19182 1.19166 1.19178 1.1919 1.19185 1.19187 1.19182 1.19176 1.19185 1.1918 1.19181 1.1919 1.19183 1.19185 1.19183 1.1918 1.19184 1.19195 1.19187 1.19179 1.19178 1.19188 1.19182 1.19181 1.19177 1.19186 1.19181 1.19183 1.19171 1.19188 1.19177 1.19189 1.19178 1.19181 1.19178 1.19177 1.1917 1.19175 1.19178 1.19182 1.19173 1.19174 1.1918 1.1918 1.19178 1.19178 1.19177 1.19176 1.19175 1.19181 1.19177 1.19172 1.19187 1.19179 1.19182 1.19179 1.19176 1.19179 1.19176 1.19181 1.19178 1.1918 1.19181 1.19176 1.19179 1.19173 1.19178 1.19178 1.19181 1.19178 1.19179 1.19182 1.1918 1.19182 1.19179 1.19188 1.19179 1.19178 1.19185 1.19177 1.19182 1.19192 1.19176 1.19181 1.19189 1.19179 1.19178 1.19187 1.19186 1.19188 1.19179 1.19191 1.19191 1.19196 1.1919 1.192 1.1919 1.19193 1.19169 1.19185 1.19185 1.19181 1.19167 1.1919 1.19177 1.19187 1.1918 1.19182 1.19177 1.19184 1.19181 1.19178 1.19181 1.19188 1.19183 1.19181 1.1918 1.19182 1.1919 1.19184 1.19184 1.1918 1.19189 1.19183 1.19181 1.19179 1.19187 1.19184 1.19168 1.19177 1.19188 1.19177 1.1919 1.19182 1.19176 1.19172 1.19175 1.19174 1.19175 1.19171 1.19181 1.19168 1.19177 1.19185 1.19177 1.19175 1.19178 1.1918 1.1918 1.19179 1.19176 1.19179 1.19183 1.1918 1.19181 1.1918 1.19171 1.19178 1.19181 1.19178 1.19179 1.19176 1.19176 1.1918 1.19179 1.19179 1.19178 1.19178 1.19178 1.19176 1.19176 1.19172 1.19178 1.19178 1.19178 1.19178 1.19178 1.19176 1.19177 1.19179 1.19178 1.19178 1.19178 1.1918 1.19181 1.19178 1.19181 1.19177 1.19192 1.19165 1.19189 1.19187 1.1918 1.19178 1.19183 1.19186 1.19198 1.19201 1.19189 1.19188 1.1919 1.19192 1.1919 1.19179 1.19193 1.19174 1.19169 1.19172 1.19185 1.19183 1.19181 1.19157 1.19186 1.19187 1.19176 1.19183 1.1918 1.19185 1.1918 1.19155 1.1918 1.19186 1.1918 1.19189 1.19183 1.19181 1.19183 1.19182 1.19171 1.19178 1.19186 1.19185 1.19185 1.19173 1.19191 1.19168 1.19183 1.19169 1.19182 1.1917 1.19178 1.19187 1.19176 1.19178 1.1919 1.19193 1.19196 1.19182 1.19186 1.19175 1.19175 1.19175 1.19183 1.1919 1.19191 1.19177 1.19182 1.19176 1.19178 1.19175 1.19176 1.19174 1.19175 1.19178 1.19183 1.19173 1.19178 1.19178 1.19183 1.19175 1.19175 1.1918 1.19179 1.19178 1.1918 1.19177 1.19177 1.19181 1.19183 1.19176 1.19184 1.19178 1.19181 1.19175 1.19175 1.19177 1.19179 1.19178 1.19178 1.19174 1.19177 1.19179 1.19181 1.19175 1.19199 1.19163 1.19175 1.19186 1.19185 1.19178 1.19194 1.19178 1.19197 1.19184 1.19201 1.19192 1.19188 1.19182 1.19177 1.19158 1.19193 1.19158 1.19165 1.19178 1.1918 1.19181 1.19174 1.1919 1.19176 1.19173 1.19178 1.19181 1.19181 1.19192 1.19177 1.19181 1.19167 1.19173 1.1917 1.19175 1.19175 1.19179 1.1918 1.19179 1.19182 1.19181 1.19182 1.19178 1.19173 1.19178 1.19168 1.19193 1.19172 1.19182 1.1917 1.19178 1.19186 1.19142 1.19198 1.19175 1.19187 1.19172 1.1918 1.19176 1.19171 1.19176 1.19184 1.1918 1.19174 1.19177 1.19176 1.19175 1.19177 1.1918 1.19186 1.1918 1.19178 1.19177 1.19177 1.19181 1.19177 1.19175 1.19174 1.1918 1.19178 1.19178 1.19181 1.19178 1.19177 1.19178 1.19183 1.19183 1.19177 1.19181 1.19175 1.19178 1.19177 1.19176 1.19179 1.19176 1.1918 1.19178 1.19181 1.19178 1.19175 1.192 1.19187 1.19185 1.19185 1.19181 1.19178 1.19187 1.19198 1.192 1.19191 1.19192 1.19202 1.19186 1.19177 1.19188 1.19185 1.19183 1.19191 1.19158 1.19175 1.1917 1.19178 1.19184 1.19184 1.19179 1.19184 1.19168 1.19181 1.19177 1.19179 1.19178 1.19177 1.19181 1.19177 1.19172 1.19182 1.1918 1.19163 1.19178 1.19178 1.19159 1.19176 1.19177 1.19163 1.19173 1.19183 1.19152 1.19156 1.19156 1.19186 1.19184 1.19183 1.19192 1.19174 1.19186 1.19173 1.19182 1.19178 1.19179 1.19171 1.19175 1.19183 1.19172 1.19175 1.19176 1.19175 1.19182 1.19176 1.19178 1.19172 1.19185 1.19176 1.19173 1.19181 1.19176 1.19178 1.19176 1.1918 1.19176 1.19175 1.19174 1.19179 1.1918 1.19178 1.19173 1.19175 1.19178 1.19179 1.19181 1.1918 1.19182 1.19179 1.19178 1.19179 1.19176 1.19177 1.19174 1.19175 1.19176 1.1918 1.19164 1.19171 1.19181 1.19185 1.19189 1.19172 1.19188 1.19191 1.19194 1.19183 1.19187 1.19179 1.19178 1.1919 1.19197 1.19184 1.19196 1.19176 1.19186 1.19196 1.19219 1.19194 1.1916 1.1918 1.19177 1.19188 1.19178 1.19176 1.19177 1.19198 1.19179 1.19174 1.19177 1.19176 1.19178 1.19174 1.19169 1.19175 1.19181 1.19173 1.19177 1.19176 1.1918 1.19174 1.19167 1.19173 1.19179 1.19158 1.19179 1.19174 1.19174 1.19167 1.19163 1.19162 1.19183 1.19152 1.19154 1.19186 1.19178 1.19187 1.19182 1.19173 1.19178 1.19178 1.19175 1.19178 1.19164 1.19169 1.19175 1.19173 1.19177 1.19178 1.19176 1.19177 1.19182 1.19182 1.19178 1.19178 1.19177 1.19174 1.1918 1.19172 1.19175 1.19176 1.19178 1.19178 1.19176 1.19173 1.1917 1.19178 1.19173 1.19178 1.19184 1.19182 1.19179 1.1918 1.19177 1.19176 1.19174 1.19175 1.19175 1.19174 1.19183 1.19192 1.19192 1.19189 1.19185 1.19166 1.19181 1.19184 1.19196 1.19187 1.19188 1.19193 1.19189 1.19189 1.19182 1.19181 1.19189 1.19177 1.19186 1.19193 1.19191 1.19219 1.19193 1.19158 1.19162 1.19191 1.1919 1.19176 1.19189 1.19169 1.19173 1.19186 1.19201 1.19202 1.1918 1.19166 1.19175 1.19174 1.19177 1.19172 1.19179 1.19177 1.19176 1.19179 1.19169 1.19169 1.19172 1.19165 1.19176 1.19173 1.19167 1.19177 1.19183 1.19152 1.19177 1.19182 1.19177 1.19186 1.19186 1.19178 1.19173 1.19179 1.19181 1.19177 1.19177 1.19163 1.19171 1.19177 1.19181 1.19175 1.19175 1.19176 1.19178 1.19171 1.19176 1.19177 1.19177 1.19179 1.19177 1.19175 1.19174 1.19171 1.1918 1.19179 1.19173 1.19178 1.19173 1.19177 1.19175 1.19179 1.1918 1.19178 1.19183 1.19174 1.19175 1.19193 1.19185 1.19157 1.19172 1.19177 1.19198 1.19196 1.19185 1.19163 1.19179 1.1917 1.19177 1.19194 1.19193 1.19188 1.19189 1.192 1.19195 1.19186 1.19179 1.19174 1.19177 1.19185 1.19185 1.19174 1.19187 1.19203 1.19161 1.19161 1.19194 1.19194 1.1919 1.19181 1.19186 1.19152 1.19175 1.19178 1.19181 1.19186 1.19169 1.19165 1.19165 1.19175 1.19178 1.19171 1.19173 1.19175 1.19175 1.19173 1.19172 1.19173 1.19175 1.1917 1.19172 1.19175 1.19176 1.19173 1.19174 1.19166 1.19177 1.19176 1.19179 1.19169 1.19178 1.19175 1.1917 1.19173 1.19185 1.19172 1.19177 1.19173 1.19179 1.19178 1.19179 1.19164 1.19167 1.19169 1.19177 1.19178 1.19177 1.19178 1.19173 1.19178 1.19178 1.19178 1.19177 1.19176 1.19178 1.19178 1.19175 1.19178 1.19174 1.19178 1.19178 1.19175 1.19178 1.1918 1.19178 1.19173 1.19178 1.19178 1.19174 1.19175 1.19181 1.19186 1.19179 1.19182 1.19182 1.1918 1.1918 1.19185 1.19167 1.19173 1.19178 1.19185 1.19193 1.19178 1.1919 1.19176 1.19176 1.19182 1.192 1.19187 1.19191 1.19193 1.19174 1.19175 1.19166 1.19184 1.19175 1.19188 1.19199 1.19181 1.19193 1.19195 1.19192 1.19178 1.19178 1.19152 1.19169 1.19171 1.19172 1.19173 1.19174 1.19183 1.19168 1.19172 1.19168 1.19175 1.19174 1.19173 1.19175 1.1917 1.19172 1.19169 1.19183 1.1917 1.19177 1.19168 1.19167 1.19175 1.19169 1.19181 1.19171 1.19178 1.19172 1.19184 1.19172 1.19175 1.19173 1.1918 1.19178 1.19178 1.19176 1.19177 1.19177 1.19179 1.19179 1.19164 1.19167 1.1917 1.19168 1.19177 1.19176 1.19178 1.19178 1.19174 1.19178 1.19178 1.19177 1.19177 1.19176 1.19176 1.19178 1.19175 1.19174 1.19172 1.19171 1.1918 1.19177 1.19176 1.19173 1.19174 1.19186 1.1918 1.19178 1.19173 1.19184 1.19182 1.19187 1.19167 1.19178 1.19185 1.19208 1.19174 1.19178 1.19192 1.1919 1.19182 1.19179 1.19207 1.19166 1.19199 1.19187 1.19191 1.19186 1.19187 1.19185 1.19179 1.19188 1.19197 1.19191 1.1918 1.19176 1.19191 1.19199 1.19179 1.19177 1.19178 1.19191 1.19196 1.19171 1.19172 1.19178 1.19194 1.19174 1.19182 1.19167 1.19148 1.19174 1.19174 1.19178 1.19178 1.19178 1.19175 1.19177 1.19174 1.1918 1.19168 1.19172 1.19169 1.19183 1.19172 1.19172 1.19179 1.19182 1.19179 1.19173 1.19169 1.19166 1.19173 1.19162 1.1917 1.1918 1.19169 1.19172 1.1917 1.19172 1.19184 1.19168 1.19174 1.19173 1.19174 1.19178 1.19176 1.19178 1.19174 1.19178 1.19168 1.19171 1.19168 1.19165 1.19168 1.19177 1.19176 1.19178 1.19174 1.19173 1.19178 1.19178 1.19176 1.19175 1.19176 1.19172 1.19173 1.19171 1.19178 1.19174 1.19178 1.19178 1.19173 1.19176 1.19178 1.19175 1.19173 1.19174 1.19176 1.19191 1.19181 1.19171 1.19173 1.19181 1.19182 1.19184 1.1918 1.19172 1.19192 1.19211 1.19189 1.1919 1.19177 1.19181 1.19204 1.19163 1.19183 1.19186 1.19178 1.19182 1.19188 1.19195 1.19178 1.19178 1.19176 1.19192 1.19199 1.19179 1.19173 1.19186 1.19192 1.19172 1.1917 1.19195 1.19179 1.19183 1.19163 1.19173 1.19162 1.19178 1.19188 1.19173 1.1918 1.19174 1.1917 1.19168 1.1917 1.19172 1.19178 1.19173 1.19169 1.19174 1.19164 1.19179 1.19169 1.19172 1.19169 1.1917 1.19173 1.19172 1.19175 1.19178 1.19178 1.19177 1.19178 1.19174 1.19172 1.19179 1.19179 1.19164 1.19165 1.19168 1.19168 1.19178 1.19167 1.19173 1.19175 1.19179 1.19176 1.19175 1.19177 1.19177 1.19177 1.19176 1.19175 1.19172 1.19172 1.19175 1.19173 1.19178 1.19178 1.19178 1.19178 1.19177 1.19175 1.19172 1.19174 1.19177 1.19191 1.1918 1.19169 1.19181 1.19181 1.19182 1.19175 1.19178 1.19204 1.19193 1.19188 1.19193 1.19184 1.19175 1.19204 1.19195 1.19177 1.19191 1.19188 1.19183 1.19174 1.19192 1.1918 1.19177 1.19174 1.19177 1.19164 1.19195 1.19176 1.19177 1.19188 1.19168 1.19169 1.1916 1.19174 1.19173 1.19182 1.19181 1.19182 1.19162 1.19172 1.19162 1.19178 1.19175 1.19177 1.19179 1.19179 1.19179 1.19174 1.19172 1.19167 1.19179 1.1917 1.19168 1.19172 1.19173 1.19174 1.19172 1.19169 1.19164 1.19163 1.19177 1.19175 1.19175 1.19174 1.19172 1.19168 1.19177 1.19176 1.19172 1.19176 1.19176 1.19178 1.19177 1.19176 1.19179 1.19166 1.19169 1.19175 1.19167 1.19172 1.19178 1.19178 1.19177 1.19177 1.19176 1.19177 1.19178 1.19175 1.19179 1.19178 1.19176 1.19178 1.19173 1.19178 1.19183 1.19184 1.19178 1.19172 1.19173 1.19178 1.19178 1.19179 1.19178 1.19175 1.19177 1.19185 1.19173 1.19182 1.19181 1.19181 1.19178 1.19188 1.19177 1.19187 1.19192 1.19178 1.19194 1.19176 1.19186 1.19172 1.19195 1.19183 1.19176 1.19184 1.19172 1.19187 1.19183 1.19186 1.19186 1.19174 1.19195 1.19178 1.19178 1.19176 1.19168 1.19168 1.1916 1.19159 1.19179 1.19186 1.19177 1.19181 1.19165 1.19174 1.19168 1.19164 1.1917 1.19175 1.19165 1.19175 1.19179 1.19173 1.19172 1.19168 1.19169 1.19184 1.19178 1.19169 1.19172 1.1917 1.19178 1.19175 1.19171 1.19183 1.19174 1.19178 1.19178 1.19167 1.19185 1.19174 1.19174 1.19168 1.19173 1.19178 1.1917 1.19172 1.19176 1.19178 1.19178 1.19177 1.19176 1.19178 1.19177 1.19177 1.19177 1.19173 1.19175 1.19167 1.19175 1.19177 1.19175 1.19175 1.19178 1.19177 1.19176 1.19176 1.19177 1.19178 1.19178 1.19179 1.19173 1.19183 1.19176 1.19178 1.19177 1.19175 1.19181 1.19177 1.1918 1.19178 1.19177 1.19179 1.19175 1.19172 1.1917 1.19168 1.19181 1.19182 1.19183 1.1918 1.19176 1.19185 1.19186 1.19187 1.19207 1.19191 1.19195 1.19178 1.19173 1.19153 1.19174 1.19187 1.19214 1.19172 1.19172 1.19184 1.19183 1.19186 1.19173 1.19163 1.19196 1.19192 1.19173 1.19165 1.19168 1.19167 1.19167 1.19177 1.19178 1.19187 1.19178 1.19166 1.19168 1.19176 1.19178 1.19175 1.19174 1.19179 1.19173 1.19173 1.19166 1.19167 1.19169 1.19175 1.19174 1.19169 1.19184 1.19177 1.19178 1.19168 1.1918 1.19175 1.19174 1.19172 1.1918 1.19167 1.1917 1.19171 1.19178 1.19178 1.19178 1.19178 1.19177 1.19177 1.19177 1.19177 1.19178 1.19166 1.19167 1.19175 1.19177 1.19178 1.19178 1.19178 1.19176 1.19176 1.19177 1.19177 1.19175 1.19174 1.19178 1.19178 1.19178 1.19178 1.19179 1.19178 1.19179 1.19171 1.1917 1.19179 1.19174 1.19172 1.19167 1.19181 1.19176 1.19179 1.19172 1.19172 1.19176 1.19175 1.19181 1.19185 1.19178 1.19189 1.19189 1.19178 1.19175 1.19156 1.19175 1.19171 1.19214 1.19167 1.19171 1.19184 1.19179 1.19187 1.19162 1.19165 1.19187 1.19164 1.19187 1.19164 1.19174 1.19167 1.19178 1.19176 1.19163 1.19174 1.19188 1.1917 1.19179 1.19168 1.19179 1.19179 1.19161 1.19179 1.19178 1.19173 1.19174 1.19178 1.19174 1.19175 1.19174 1.19169 1.19173 1.19173 1.19173 1.19178 1.19174 1.19173 1.19178 1.19174 1.19172 1.19173 1.19178 1.19176 1.19178 1.19168 1.19171 1.1917 1.19171 1.19176 1.19177 1.19178 1.19178 1.19178 1.19177 1.19177 1.19178 1.19178 1.19178 1.19175 1.19178 1.19178 1.19178 1.19177 1.19178 1.19178 1.19176 1.19177 1.19177 1.19178 1.19177 1.19176 1.19178 1.19177 1.19172 1.19177 1.1918 1.19177 1.19172 1.19172 1.1917 1.19175 1.19169 1.1917 1.19169 1.19173 1.19171 1.19182 1.19171 1.19173 1.1917 1.19177 1.19171 1.19192 1.19185 1.1918 1.1916 1.19167 1.19183 1.19152 1.19173 1.19161 1.19187 1.19168 1.19162 1.19153 1.19165 1.19182 1.19177 1.19165 1.19173 1.19167 1.19159 1.19177 1.19174 1.19171 1.19169 1.19169 1.19169 1.19177 1.19178 1.19179 1.19172 1.19178 1.1918 1.19175 1.19178 1.19174 1.19172 1.19173 1.19177 1.19176 1.19178 1.19178 1.19179 1.19174 1.19176 1.19174 1.19174 1.19167 1.19173 1.19174 1.19171 1.19176 1.19176 1.19178 1.19178 1.19178 1.19178 1.19178 1.19177 1.19177 1.19178 1.19178 1.19178 1.19175 1.19175 1.19178 1.19178 1.19178 1.19178 1.19178 1.19176 1.19177 1.19178 1.19177 1.19178 1.19178 1.19172 1.19173 1.19178 1.19176 1.19178 1.19166 1.19164 1.19175 1.19169 1.19167 1.1916 1.19173 1.19169 1.1917 1.19176 1.19182 1.19195 1.19183 1.19184 1.19166 1.19167 1.19168 1.19183 1.19147 1.19167 1.19177 1.19164 1.19177 1.19165 1.19163 1.19159 1.19142 1.19143 1.19164 1.19188 1.19158 1.19175 1.19167 1.19178 1.19177 1.19175 1.19175 1.19168 1.19171 1.1917 1.19167 1.19178 1.19177 1.19178 1.19174 1.19173 1.19178 1.19177 1.19179 1.19168 1.19175 1.19176 1.19176 1.19176 1.19177 1.19177 1.19166 1.19174 1.19171 1.19176 1.19177 1.19178 1.19177 1.19177 1.19177 1.19175 1.19173 1.19172 1.19172 1.19168 1.19152 1.19166 1.19163 1.19168 1.19164 1.19169 1.19172 1.19183 1.19195 1.19179 1.19163 1.19158 1.19179 1.19178 1.19144 1.1918 1.19175 1.19171 1.19164 1.19177 1.19158 1.19158 1.19167 1.19163 1.19152 1.1915 1.19173 1.19168 1.19169 1.19172 1.19173 1.19178 1.19174 1.19174 1.19173 1.19173 1.19172 1.19178 1.19171 1.19176 1.19173 1.19174 1.19174 1.19167 1.19168 1.19173 1.19176 1.19179 1.19159 1.19158 1.19173 1.19169 1.19181 1.1917 1.19178 1.19184 1.19184 1.19183 1.19178 1.19178 1.19178 1.19173 1.19183 1.19152 1.19165 1.19174 1.19153 1.19162 1.19169 1.19177 1.1918 1.19168 1.1918 1.1917 1.19183 1.19175 1.19186 1.19178 1.19184 1.19169 1.1918 1.19171 1.19169 1.19161 1.19164 1.19174 1.19151 1.19178 1.19153 1.19174 1.19169 1.19172 1.19182 1.19168 1.19159 1.19163 1.19176 1.19172 1.19184 1.19186 1.19185 1.19175 1.19179 1.19178 1.19157 1.19169 1.19178 1.19173 1.19157 1.19148 1.19154 1.19173 1.19178 1.19179 1.19174 1.19161 1.19176 1.19163 1.19177 1.19169 1.19185 1.19184 1.19172 1.1918 1.19157 1.19168 1.19176 1.19162 1.19153 1.19146 1.19164 1.19178 1.19178 1.19179 1.19173 1.19167 1.19177 1.19164 1.19175 1.19166 1.19184 1.19186 1.19165 1.19184 1.19173 1.19178 1.19184 1.19162 1.19145 1.19182 1.19181 1.1919 1.19178 1.19178 1.19178 1.19178 1.19178 1.19178 1.19178 1.19178 1.19178 1.19178 1.19178 1.19178 1.19178 1.19178 1.19178 1.19178 1.19178 1.19176 1.19172 1.19168 1.19179 1.19168 1.19162 1.19163 1.19184 1.19158 1.19185 1.19172 1.19175 1.19168 1.19177 1.19162 1.19192 1.19175 1.19181 1.19182 1.19178 1.19178 1.19178 1.19178 1.19178 1.19178 1.19178 1.19178 1.19178 1.19178 1.19178 1.19178 1.19178 1.19178 1.19178 1.19178 1.19178 1.19178 1.19178 1.19178 1.19178 1.19178 1.19178 1.19178 1.19178 1.19178 1.19178 1.19178 1.19178 1.19178 1.19178 1.19178 1.19176 1.19166 1.19171 1.19175 1.19185 1.19172 1.1916 1.19164 1.19198 1.19198 1.19177 1.19161 1.19163 1.19173 1.19189 1.1917 1.19167 1.19174 1.19185 1.19187 1.19177 1.19182 1.19181 1.19178 1.19178 1.19178 1.19178 1.19178 1.19178 1.19178 1.19178 1.19178 1.19178 1.19178 1.19178 1.19178 1.19178 1.19178 1.19178 1.19178 1.19178 1.19178 1.19178 1.19178 1.19178 1.19178 1.19178 1.19178 1.19178 1.19178 1.19178 1.19178 1.19178 1.19178 1.19178 1.19178 1.19178 1.19181 1.19195 1.1917 1.19168 1.19159 1.19177 1.19156 1.19162 1.19167 1.19174 1.19167 1.19152 1.19181 1.19166 1.1916 1.1917 1.19176 1.1918 1.19188 1.19175 1.19178 1.19172 1.19194 1.19177 1.19183 1.19178 1.19178 1.19178 1.19178 1.19178 1.19178 1.19178 1.19178 1.19178 1.19178 1.19178 1.19178 1.19178 1.19178 1.19178 1.19178 1.19178 1.19178 1.19178 1.19178 1.19178 1.19178 1.19178 1.19178 1.19178 1.19178 1.19178 1.19178 1.19178 1.19178 1.19178 1.19178 1.19178 1.19178 1.19178 1.19178 1.19178 1.19178 1.19178 1.19178 1.19178 1.19178 1.19178 1.19178 1.19178 1.1917 1.19186 1.19169 1.19162 1.19175 1.19176 1.19156 1.19163 1.19168 1.19173 1.19149 1.19144 1.19164 1.19159 1.1917 1.19184 1.19191 1.19174 1.19182 1.19173 1.19178 1.19178 1.19178 1.19178 1.19178 1.19178 1.19178 1.19178 1.19178 1.19178 1.19178 1.19178 1.19178 1.19178 1.19178 1.19178 1.19178 1.19178 1.19178 1.19178 1.19178 1.19178 1.19178 1.19178 1.19178 1.19178 1.19178 1.19178 1.19178 1.19178 1.19178 1.19178 1.19178 1.19178 1.19178 1.19178 1.19178 1.19178 1.19178 1.19178 1.19178 1.19178 1.19178 1.19178 1.19178 1.19178 1.19177 1.19178 1.19177 1.1916 1.19172 1.19169 1.19169 1.19178 1.19163 1.19168 1.19172 1.19166 1.19164 1.19164 1.19143 1.19178 1.19158 1.19183 1.19179 1.19168 1.19186 1.19189 1.19172 1.19187 1.19167 1.19177 1.19179 1.19177 1.19178 1.19178 1.19178 1.19178 1.19178 1.19178 1.19178 1.19178 1.19178 1.19178 1.19178 1.19178 1.19178 1.19178 1.19178 1.19178 1.19178 1.19178 1.19178 1.19178 1.19178 1.19178 1.19178 1.19178 1.19178 1.19178 1.19178 1.19178 1.19178 1.19178 1.19178 1.19178 1.19178 1.19178 1.19178 1.19178 1.19178 1.19178 1.19178 1.19178 1.19178 1.19178 1.19178 1.19178 1.19178 1.19178 1.19177 1.19177 1.19179 1.19197 1.1917 1.19179 1.19171 1.19168 1.19165 1.19176 1.19181 1.19168 1.19167 1.19171 1.19144 1.19161 1.19178 1.19178 1.19177 1.19171 1.19164 1.19167 1.19174 1.19178 1.19178 1.19178 1.19178 1.19178 1.19178 1.19178 1.19178 1.19178 1.19178 1.19178 1.19178 1.19178 1.19178 1.19178 1.19178 1.19178 1.19178 1.19178 1.19178 1.19178 1.19178 1.19178 1.19178 1.19178 1.19178 1.19178 1.19178 1.19178 1.19178 1.19178 1.19178 1.19178 1.19178 1.19178 1.19178 1.19178 1.19178 1.19178 1.19178 1.19178 1.19178 1.19178 1.19178 1.19178 1.19178 1.19178 1.19178 1.1917 1.19172 1.19178 1.1917 1.19149 1.19179 1.19176 1.19178 1.19176 1.19188 1.19169 1.19177 1.19178 1.19187 1.19157 1.19167 1.19166 1.19162 1.19165 1.19184 1.19179 1.19174 1.19162 1.19181 1.19186 1.19175 1.19178 1.19178 1.19178 1.19178 1.19178 1.19178 1.19178 1.19178 1.19178 1.19178 1.19178 1.19178 1.19178 1.19178 1.19178 1.19178 1.19178 1.19178 1.19178 1.19178 1.19178 1.19178 1.19178 1.19178 1.19178 1.19178 1.19178 1.19178 1.19178 1.19178 1.19178 1.19178 1.19178 1.19178 1.19178 1.19178 1.19178 1.19178 1.19178 1.19178 1.19178 1.19178 1.19178 1.19178 1.19178 1.19177 1.19163 1.19191 1.19172 1.19157 1.19173 1.19175 1.19174 1.19169 1.19166 1.19176 1.19181 1.19179 1.19178 1.19168 1.19163 1.19178 1.19178 1.19192 1.19171 1.19178 1.19178 1.19178 1.19178 1.19178 1.19178 1.19178 1.19178 1.19178 1.19178 1.19178 1.19178 1.19178 1.19178 1.19178 1.19178 1.19178 1.19178 1.19178 1.19178 1.19178 1.19178 1.19178 1.19178 1.19178 1.19178 1.19178 1.19178 1.19178 1.19178 1.19178 1.19178 1.19178 1.19178 1.19178 1.19178 1.19178 1.19178 1.19178 1.19178 1.19178 1.19184 1.19174 1.19181 1.19204 1.19163 1.19183 1.19177 1.19179 1.19183 1.19179 1.19169 1.19178 1.19168 1.19169 1.19168 1.19181 1.1917 1.19178 1.19178 1.19178 1.19178 1.19178 1.19178 1.19178 1.19178 1.19178 1.19178 1.19178 1.19178 1.19178 1.19178 1.19178 1.19178 1.19178 1.19178 1.19178 1.19178 1.19178 1.19178 1.19178 1.19178 1.19178 1.19178 1.19178 1.19178 1.19178 1.19178 1.19178 1.19178 1.19178 1.19178 1.19178 1.19178 1.19178 1.19178 1.19178 1.19178 1.19169 1.19176 1.19182 1.19171 1.19176 1.19183 1.19178 1.19175 1.1918 1.19174 1.19178 1.19177 1.19167 1.1917 1.19181 1.19161 1.19179 1.19171 1.19184 1.1918 1.19178 1.19178 1.19178 1.19178 1.19178 1.19178 1.19178 1.19178 1.19178 1.19178 1.19178 1.19178 1.19178 1.19178 1.19178 1.19178 1.19178 1.19178 1.19178 1.19178 1.19178 1.19178 1.19178 1.19178 1.19178 1.19178 1.19178 1.19178 1.19178 1.19178 1.19178 1.19178 1.19178 1.19178 1.19178 1.19178 1.19178 1.19177 1.19176 1.19176 1.19179 1.1918 1.19174 1.19175 1.19177 1.19193 1.19175 1.19177 1.19181 1.19172 1.19175 1.19163 1.1917 1.19177 1.19165 1.19175 1.19169 1.19176 1.19177 1.19178 1.19178 1.19178 1.19178 1.19178 1.19178 1.19178 1.19178 1.19178 1.19178 1.19178 1.19178 1.19178 1.19178 1.19178 1.19178 1.19178 1.19178 1.19178 1.19178 1.19178 1.19178 1.19178 1.19178 1.19178 1.19178 1.19178 1.19178 1.19178 1.19178 1.19178 1.19178 1.19178 1.19177 1.19176 1.19178 1.19174 1.19171 1.19181 1.19171 1.19175 1.19177 1.19175 1.19168 1.19172 1.19167 1.19169 1.19175 1.19168 1.19176 1.19174 1.19169 1.19177 1.19178 1.19178 1.19178 1.19178 1.19178 1.19178 1.19178 1.19178 1.19178 1.19178 1.19178 1.19178 1.19178 1.19178 1.19178 1.19178 1.19178 1.19178 1.19178 1.19178 1.19178 1.19178 1.19172 1.19174 1.19168 1.19181 1.1917 1.19173 1.19177 1.19166 1.19164 1.19162 1.19164 1.19159 1.19165 1.19177 1.19178 1.19174 1.19178 1.19165 1.19176 1.19178 1.19178 1.19178 1.19178 1.19178 1.19178 1.19178 1.19178 1.19178 1.19178 1.19178 1.19178 1.19178 1.19178 1.19178 1.19178 1.19178 1.19178 1.19178 1.19178 1.19163 1.19171 1.19169 1.19166 1.19175 1.19169 1.19172 1.19173 1.19164 1.19167 1.1917 1.19178 1.19155 1.19165 1.19183 1.19178 1.19177 1.19177 1.19165 1.1917 1.19178 1.19178 1.19178 1.19178 1.19178 1.19178 1.19178 1.19178 1.19178 1.19178 1.19178 1.19178 1.19178 1.19178 1.19178 1.19178 1.19178 1.1918 1.19174 1.19171 1.19165 1.19178 1.19176 1.19168 1.19172 1.19162 1.19167 1.19161 1.19174 1.19181 1.19177 1.19149 1.19178 1.19168 1.19179 1.19176 1.19175 1.19178 1.19178 1.19178 1.19178 1.19178 1.19178 1.19178 1.19178 1.19178 1.19178 1.19178 1.19178 1.19178 1.19178 1.19177 1.19178 1.19179 1.19172 1.19173 1.19178 1.19175 1.19178 1.19176 1.19167 1.19176 1.19163 1.19171 1.19181 1.19174 1.19176 1.19165 1.19164 1.19178 1.19166 1.19178 1.19175 1.19178 1.19178 1.19178 1.19178 1.19178 1.19178 1.19178 1.19178 1.19178 1.19174 1.19169 1.19177 1.19175 1.19178 1.19178 1.19178 1.19169 1.1918 1.19178 1.19169 1.19166 1.19176 1.19176 1.19163 1.19176 1.19179 1.19163 1.19178 1.19179 1.19178 1.19178 1.19178 1.19178 1.19178 1.19178 1.19178 1.19176 1.19176 1.19178 1.19178 1.19177 1.19173 1.19178 1.19176 1.19166 1.19174 1.19178 1.19177 1.19178 1.19175 1.19178 1.19176 1.19178 1.19166 1.19177 1.19178 1.19178 1.19178 1.19178 1.19178 1.19178 1.19178 1.19178 1.19178 1.19178 1.19178 1.19178 1.19177 1.19177 1.19176 1.19179 1.1918 1.19174 1.19173 1.19178 1.1917 1.19177 1.19174 1.19174 1.19179 1.19177 1.19177 1.19178 1.19178 1.19162 1.19178 1.19177 1.19178 1.19178 1.19178 1.19178 1.19178 1.19178 1.19178 1.27961 1.19178 1.19178 1.19178 1.19178 1.19178 1.19178 1.19178 1.19178 0.00989196 0.00649552 0.0286454 0.0228436 0.0350387 0.0546037 0.0634363 0.0658772 0.0492505 0.027765 0.0346892 0.156899 0.178341 0.184678 0.235071 0.233934 0.31798 0.504268 0.770142 1.41867 1.18731 1.55192 0.437153 0.179608 0.0887044 0.187434 0.161381 0.0226704 0.0429905 0.034541 0.0764858 0.102567 0.196815 1.73051 1.32355 0.492911 0.1628 0.313814 0.250841 0.171647 0.168051 0.0490943 0.0569097 0.0541988 0.10016 0.112942 0.110721 0.0998415 0.0559507 0.0372969 0.0419208 0.0150141 0.0303637 0.00623436 1.19178 0.063349 0.0815579 0.223385 0.100997 0.19687 0.0792161 0.0532946 0.0800798 0.0885145 0.0660841 0.0544597 0.0612282 0.0111133 0.0567613 0.119096 0.111608 0.0658764 0.0534389 0.0614082 0.0688857 0.066498 0.0737215 0.0764976 0.0818444 0.0899812 0.0892573 0.0834509 0.0780207 0.0751214 0.0651907 0.060839 0.0582303 0.0416886 0.0499777 0.0531879 0.0592562 0.055127 0.0501164 0.0668247 0.0394194 0.045075 0.0581206 0.0391115 0.026161 0.0112108 0.0128604 0.0098347 0.0266829 0.0265724 0.0243636 0.0145167 0.00338353 0.0353793 0.0332184 0.0262636 0.028039 0.0168167 0.0171011 0.0272945 0.0288339 0.0338262 0.0701603 0.0424615 0.067981 0.0871772 0.0589939 0.0787744 0.090151 0.10193 0.106587 0.104973 0.0891093 0.165615 0.0982658 0.0831511 0.0552627 0.167136 0.165247 0.163255 0.178406 0.367855 0.254011 0.419422 1.03977 1.14591 0.634 0.858217 1.49845 0.288589 0.212752 0.203339 0.109706 0.262299 0.0503528 0.199436 0.159935 0.252872 0.335045 0.28954 0.32121 0.412528 0.548845 0.83503 1.22625 1.04906 0.742564 0.303971 0.228332 0.207571 0.208054 0.134365 0.207575 0.142481 0.22306 0.199078 0.0372618 0.00642481 0.115827 0.0788256 0.0822645 0.0946147 0.0837081 0.0668855 0.0297545 0.0578163 0.0321478 0.0571196 0.0259318 0.0134589 0.0121391 0.0223842 0.00100507 0.0974443 0.045415 0.126436 0.0729764 0.0653667 0.0809887 0.0714556 0.0255746 0.06106 0.0140263 0.0296869 0.0264509 0.0420984 0.0493514 0.0515854 0.0376401 0.120908 0.0507857 0.060631 0.0420254 0.0317945 0.0392758 0.0596206 0.0705752 0.0796392 0.0743239 0.0809929 0.0699438 0.0686187 0.0658752 0.0625585 0.0752134 0.0659431 0.072846 0.0700738 0.0699707 0.062918 0.0608222 0.0522278 0.0485024 0.054517 0.0712229 0.0703231 0.0638419 0.0907052 0.0746584 0.0843575 0.0607731 0.0957607 0.0826618 0.0781211 0.0755691 0.0648016 0.109871 0.0820029 0.161807 0.114387 0.0834416 0.0950558 0.0502088 0.0457204 0.0503548 0.0369331 0.0402576 0.0341556 0.0364819 0.0307283 0.0295576 0.0151649 0.0161036 0.0254683 0.0043629 0.00171917 0.00831255 0.0402156 0.0301525 0.023554 0.0109583 0.0337839 0.0158206 0.0112198 0.0018786 0.0211233 0.0438099 0.0637021 0.0360183 0.0622719 0.0835233 0.0466514 0.10446 0.0739959 0.0857303 0.156137 0.144485 0.104623 0.0424754 0.173237 0.0855239 0.175949 0.280283 0.169349 0.276787 1.01996 0.449748 0.601302 0.27175 0.19213 0.183272 0.0985616 0.140324 0.165543 0.213978 0.266447 0.360597 0.556307 0.420115 0.957368 0.648203 0.753731 0.387917 0.29608 0.0803324 0.303304 0.100181 0.138185 0.154412 0.150056 0.140833 0.0592251 0.0348362 0.0485928 0.0871375 0.0903787 0.0678384 0.0555417 0.0393866 0.0405506 0.00646494 0.0575984 0.00521353 0.0152985 0.098568 0.0612269 0.0513169 0.0993293 0.0945343 0.0171179 0.0522308 0.0865509 0.0827793 0.0596817 0.0282347 0.0223961 0.0130168 0.014955 0.00379788 0.0475747 0.0286155 0.00632255 0.0374369 0.0421992 0.0718722 0.0345081 0.0321273 0.0103414 0.0307687 0.0294428 0.0536485 0.0393321 0.05412 0.054822 0.060075 0.0674885 0.0668329 0.0688824 0.0678953 0.0649742 0.0601626 0.0533521 0.0509096 0.0417798 0.0506297 0.0465341 0.0619676 0.069112 0.0586168 0.060813 0.0680673 0.0728082 0.0905893 0.100029 0.0957203 0.0478919 0.0597167 0.0292097 0.0573927 0.0421632 0.075227 0.0156676 0.0353416 0.0183812 0.0374774 0.0334799 0.0216185 0.0194403 0.0145676 0.0052313 0.00618874 0.000935345 0.00862862 0.0384973 0.0346351 0.0349027 0.0224447 0.0292361 0.0245086 0.0159388 0.0170175 0.0157593 0.0133749 0.0510983 0.0749593 0.113093 0.122221 0.160586 0.0907971 0.115915 0.175245 0.135622 0.167888 0.0686099 0.147442 0.223509 0.324868 0.421188 0.357388 0.332689 0.290484 0.229942 0.164583 0.205971 0.193683 0.197421 0.316763 0.23163 0.336359 0.296477 0.451899 0.343721 0.455726 0.496802 0.495393 0.320631 0.344529 0.277894 0.245033 0.108172 0.194379 0.143768 0.142669 0.0925262 0.0447368 0.0249135 0.0376986 0.0351989 0.043749 0.0237697 0.0164163 0.0389969 0.0596045 0.0626978 0.0467864 0.0721981 0.0658026 0.0831322 0.0642404 0.0358318 0.0129406 0.0173615 0.0096121 0.0334149 0.0131327 0.0340128 0.0311824 0.0354073 0.0303045 0.0351461 0.0447801 0.0528102 0.0576227 0.0629996 0.0687973 0.0646964 0.0704934 0.0684324 0.0648568 0.0621617 0.0555644 0.0592475 0.0555165 0.0522175 0.0434082 0.047759 0.0451799 0.0482094 0.0407811 0.0345762 0.0517859 0.0472327 0.0520292 0.0528223 0.0573096 0.0517559 0.06869 0.0586248 0.0654206 0.0841971 0.0454739 0.048806 0.0396562 0.0427271 0.0568948 0.0619482 0.0556735 0.0650793 0.0499952 0.0248746 0.0369373 0.0367345 0.0415361 0.0309473 0.0437883 0.0141222 0.0225068 0.00137744 0.00785932 0.0241484 0.024049 0.0145071 0.010869 0.0136148 0.0245288 0.011211 0.0212332 0.0147775 0.0246849 0.0195914 0.0247963 0.0537298 0.0347618 0.0488919 0.0824748 0.120888 0.0893618 0.136874 0.128588 0.20106 0.227907 0.198522 0.260255 0.250374 0.205012 0.312174 0.261721 0.221417 0.245337 0.24641 0.157101 0.188489 0.211722 0.212457 0.158007 0.208505 0.132967 0.204186 0.14455 0.304466 0.296561 0.326992 0.271688 0.256379 0.273121 0.233565 0.17829 0.162497 0.113456 0.0795155 0.10751 0.0465142 0.0661318 0.0610064 0.0440207 0.0264852 0.0186474 0.0164261 0.00286391 0.0212342 0.0314686 0.0725623 0.0734998 0.0790777 0.0850916 0.0884038 0.0883535 0.0673556 0.0312005 0.0399803 0.0407586 0.0507872 0.0272331 0.0234525 0.0191353 0.018555 0.0324501 0.0353828 0.0364287 0.0269332 0.0408049 0.0415059 0.0482222 0.0481837 0.0550531 0.0647935 0.0686882 0.0681457 0.0693084 0.069911 0.0656412 0.0610578 0.0560506 0.0616198 0.0569723 0.0562921 0.0597949 0.0582699 0.0502878 0.0531088 0.0483324 0.0347386 0.0531243 0.0239432 0.0355739 0.0218616 0.0318382 0.0181829 0.0360732 0.0305393 0.0550067 0.0477373 0.0591066 0.0565461 0.0586653 0.0405994 0.06139 0.0474002 0.0393031 0.0329793 0.0248377 0.022264 0.0183994 0.0152128 0.0239583 0.0205413 0.0174267 0.0149942 0.0105207 0.0190772 0.0246505 0.0268197 0.0339813 0.0364928 0.0768198 0.113744 0.151514 0.165157 0.177695 0.232305 0.218073 0.192541 0.200104 0.224604 0.219858 0.214196 0.206362 0.224901 0.227112 0.195546 0.179365 0.153708 0.161675 0.122783 0.101096 0.109934 0.195087 0.126224 0.254928 0.245441 0.260872 0.25003 0.229498 0.275557 0.249882 0.226622 0.173688 0.14558 0.109831 0.0818525 0.0724936 0.0534583 0.0503197 0.0546953 0.0540156 0.0358995 0.0243756 0.0313267 0.0134451 0.0256079 0.0060059 0.0878682 0.0854548 0.0878236 0.0811512 0.066588 0.0477977 0.0454228 0.0433605 0.0288008 0.0285416 0.0286991 0.0238316 0.0237609 0.032645 0.0433857 0.0498887 0.0584388 0.0562038 0.0634749 0.0656601 0.065895 0.0702817 0.0679075 0.0650939 0.0701028 0.0682955 0.0640418 0.0730675 0.06662 0.0629715 0.062124 0.0608251 0.0521502 0.0557258 0.0340648 0.00841314 0.00771907 0.0132021 0.0298371 0.00503465 0.0197802 0.0368116 0.0417551 0.0412107 0.0350037 0.0381109 0.0286769 0.0455493 0.0448936 0.0410716 0.0264706 0.0240884 0.03444 0.0390997 0.041124 0.0082563 0.0376625 0.015088 0.00814987 0.0191357 0.021927 0.0216848 0.0236603 0.0223857 0.0243445 0.0256957 0.0258753 0.0372594 0.0463424 0.0655511 0.0839544 0.115563 0.127251 0.154997 0.176822 0.188514 0.200099 0.201984 0.202392 0.190224 0.153572 0.132998 0.122103 0.0904994 0.0866486 0.0918192 0.154856 0.183953 0.23261 0.218189 0.231679 0.179999 0.194292 0.198234 0.215409 0.181177 0.148745 0.148432 0.155423 0.121906 0.0863749 0.101463 0.0696962 0.0706177 0.0636068 0.0596313 0.0504212 0.0482461 0.0395902 0.0266061 0.0229988 0.0985709 0.101479 0.0958062 0.0854365 0.0640767 0.073586 0.0478436 0.0398866 0.0373432 0.0315416 0.0322931 0.0257196 0.0344849 0.0320105 0.0359589 0.0376897 0.0500197 0.0631594 0.0742053 0.0757497 0.06451 0.0588707 0.0640483 0.0680533 0.0722369 0.0754579 0.0755019 0.0720251 0.0793953 0.0773031 0.0514073 0.0541702 0.0613469 0.0623693 0.0642095 0.0326772 0.0339581 0.0174321 0.0480029 0.042362 0.0762664 0.042879 0.0678001 0.0466177 0.0608638 0.0582401 0.0502002 0.0373532 0.0331164 0.0502357 0.0596121 0.0244475 0.0269096 0.03202 0.0178548 0.00723117 0.0113141 0.0122924 0.018566 0.020503 0.0268483 0.0296833 0.0228404 0.0256914 0.0253521 0.0360939 0.0374567 0.0483341 0.0510808 0.0581157 0.0827245 0.0742794 0.0972283 0.117534 0.087199 0.136114 0.149061 0.156163 0.171671 0.17743 0.190053 0.182425 0.179001 0.151851 0.1591 0.117352 0.103775 0.0970912 0.0809001 0.0891524 0.0754767 0.0823108 0.0737289 0.114885 0.149095 0.243096 0.157277 0.151113 0.159063 0.164085 0.12555 0.159013 0.109424 0.145099 0.148541 0.120154 0.0958839 0.0817363 0.0826689 0.0674281 0.0536795 0.0409732 0.0417134 0.0201275 0.0272219 0.102348 0.101569 0.102073 0.0934851 0.0764847 0.0745455 0.0556257 0.0532838 0.0430923 0.0429495 0.0289437 0.0275173 0.0443265 0.0421582 0.0549778 0.0430972 0.0508899 0.0626262 0.0703252 0.0757738 0.0841322 0.0698388 0.0787731 0.0735797 0.073701 0.0772575 0.0792806 0.0835016 0.0777249 0.0749452 0.0757048 0.0887387 0.0649211 0.0557094 0.0428527 0.0429954 0.0565878 0.0548118 0.0574661 0.0535083 0.0730375 0.0296208 0.053924 0.0477507 0.0432739 0.0341055 0.0422994 0.0397539 0.0379952 0.0461003 0.0381029 0.0326006 0.0349255 0.0139669 0.044611 0.00884163 0.0338124 0.00989528 0.0240436 0.0164691 0.029222 0.0346532 0.0298237 0.0452553 0.0454778 0.0541355 0.050427 0.0587778 0.059463 0.0658102 0.0816668 0.110742 0.135273 0.138247 0.15206 0.16547 0.13333 0.144635 0.109635 0.10144 0.11595 0.0918593 0.0813421 0.0629418 0.0544255 0.0350474 0.0294939 0.0950599 0.224778 0.146406 0.115268 0.113461 0.117628 0.142188 0.145382 0.144474 0.104629 0.106228 0.0908809 0.0995216 0.0797155 0.0907511 0.0568757 0.0518686 0.0504242 0.0404779 0.036565 0.0975762 0.0989883 0.0835223 0.0830707 0.0693165 0.0711526 0.0667911 0.0426712 0.0634902 0.0689591 0.0800595 0.0613912 0.0754964 0.0852616 0.0710435 0.0787163 0.086002 0.0867656 0.0840153 0.0838937 0.0836447 0.0787912 0.075699 0.0750467 0.0735342 0.0762674 0.078019 0.0921382 0.115791 0.083124 0.0646007 0.0992495 0.0770232 0.0549492 0.0689393 0.0601853 0.114793 0.0250132 0.051102 0.0409156 0.0539619 0.0390921 0.0382804 0.0445661 0.0296935 0.0427653 0.028211 0.0339894 0.0187427 0.0473747 0.00935949 0.0251507 0.0293092 0.0376049 0.0440369 0.0404843 0.0536391 0.0563955 0.066997 0.0598971 0.072748 0.0741367 0.0901056 0.0849505 0.0948799 0.0902302 0.110418 0.125258 0.128971 0.132966 0.137194 0.107288 0.106671 0.0864963 0.0888354 0.0734312 0.0681414 0.0579875 0.0534267 0.042767 0.0558303 0.0661127 0.0803475 0.0607848 0.10638 0.115006 0.120774 0.115273 0.142922 0.137672 0.147196 0.148566 0.107633 0.113681 0.112333 0.0976153 0.0865723 0.0821711 0.0852428 0.0609661 0.0600354 0.0435081 0.107954 0.0969348 0.0870049 0.0719197 0.0366315 0.0710623 0.0725626 0.0784643 0.085752 0.0857218 0.0927809 0.0946114 0.0840865 0.0872451 0.101587 0.093881 0.08784 0.0830705 0.0814766 0.080502 0.0793541 0.0769966 0.0781217 0.0707302 0.0741075 0.0706642 0.11699 0.110196 0.14847 0.0726263 0.0503609 0.0458414 0.188716 0.0950683 0.0519674 0.0939101 0.0609016 0.0234594 0.0369405 0.023348 0.0224262 0.0316062 0.0407778 0.0364831 0.0421514 0.0619345 0.00773055 0.0165701 0.0142594 0.0172365 0.0284052 0.0618943 0.0767045 0.0733251 0.0707741 0.0772466 0.100526 0.0894903 0.1078 0.11925 0.123339 0.128347 0.12588 0.105913 0.0854198 0.100684 0.0724243 0.0532971 0.0705941 0.0654866 0.0571176 0.0473726 0.0833637 0.0878788 0.110341 0.133679 0.112284 0.109199 0.116283 0.13348 0.140275 0.157763 0.150133 0.118248 0.107194 0.108538 0.102368 0.105415 0.0904247 0.0759034 0.0666981 0.0643607 0.0498926 0.103035 0.0902568 0.0969523 0.0868893 0.068088 0.0823125 0.0765277 0.0900122 0.095144 0.0930515 0.102658 0.0978241 0.105937 0.109755 0.0860732 0.0752306 0.0815775 0.0786613 0.0809704 0.0815339 0.084976 0.0791142 0.09403 0.0947553 0.0893469 0.115845 0.130968 0.13846 0.1437 0.155482 0.20878 0.189555 0.226467 0.237418 0.258268 0.159552 0.151387 0.29995 0.0288202 0.0185373 0.0169638 0.0275927 0.027127 0.0450378 0.0413456 0.0647191 0.0204914 0.011655 0.00360429 0.00414979 0.0489781 0.0360808 0.0587682 0.086062 0.102752 0.128752 0.110231 0.121653 0.126501 0.113929 0.109531 0.108365 0.106677 0.0746254 0.0362658 0.0566886 0.0935405 0.0775968 0.0724972 0.0790702 0.0982498 0.091597 0.103508 0.129212 0.124048 0.132259 0.111408 0.102605 0.113018 0.139013 0.165329 0.141799 0.113264 0.120917 0.107504 0.08859 0.0770298 0.0693412 0.0717671 0.0931106 0.0674606 0.104664 0.0633648 0.0974474 0.0682375 0.0689319 0.080571 0.082472 0.0867896 0.115373 0.0929004 0.119266 0.113733 0.121632 0.110112 0.113913 0.116779 0.114303 0.0589777 0.0759093 0.0761266 0.0741763 0.0860091 0.0865641 0.111487 0.11255 0.131645 0.13029 0.140681 0.137454 0.13313 0.155345 0.155364 0.205441 0.274931 0.171827 0.364102 0.28426 0.264268 0.215872 0.276969 0.0319641 0.0600762 0.0447185 0.0615276 0.0488734 0.0759277 0.0870808 0.128373 0.0825302 0.0589895 0.0979846 0.0822562 0.121047 0.104166 0.115207 0.135842 0.1046 0.133599 0.145406 0.112773 0.109969 0.0726626 0.074741 0.0991814 0.0863746 0.107063 0.283326 0.204389 0.0314592 0.0581148 0.0324528 0.0453688 0.0568909 
SCALARS Stress float 1
LOOKUP_TABLE default
-12566700000.0 -12581300000.0 -12567000000.0 -12561100000.0 -12556700000.0 -12551100000.0 -12555800000.0 -12602800000.0 -12614100000.0 -12599700000.0 -12559400000.0 -12555800000.0 -12571900000.0 -12553600000.0 -12575100000.0 -12550200000.0 -12553600000.0 -12559600000.0 -12559800000.0 -12646700000.0 -12556300000.0 -12681300000.0 -12549700000.0 -12817900000.0 -12572800000.0 -12572600000.0 -12552700000.0 -12556800000.0 -12549700000.0 -12553500000.0 -12549700000.0 -12549700000.0 -12555000000.0 -12549700000.0 -12549700000.0 -12550500000.0 -12549700000.0 -12550500000.0 -12552200000.0 -12561400000.0 -12566800000.0 -12559700000.0 -12556400000.0 -12554100000.0 -12552100000.0 -12550200000.0 -12549700000.0 -12549700000.0 -12549700000.0 -12552100000.0 -12566200000.0 -12555300000.0 -12556600000.0 -12610800000.0 -12573200000.0 -12551600000.0 -12565700000.0 -12549900000.0 -12555500000.0 -12555500000.0 -12550100000.0 -12559400000.0 -12574400000.0 -12550000000.0 -12550400000.0 -12556700000.0 -12613500000.0 -12577300000.0 -12573700000.0 -12568100000.0 -12574600000.0 -12553100000.0 -12558200000.0 -12553600000.0 -12576700000.0 -12577800000.0 -12579400000.0 -12551000000.0 -12551600000.0 -12556100000.0 -12575500000.0 -12558600000.0 -12555500000.0 -12590100000.0 -12566700000.0 -12557400000.0 -12556400000.0 -12554600000.0 -12553700000.0 -12569700000.0 -12564500000.0 -12585700000.0 -12563800000.0 -12667600000.0 -12640900000.0 -12615500000.0 -12650400000.0 -12629100000.0 -12715200000.0 -12621600000.0 -12613500000.0 -12766300000.0 -12554800000.0 -12601400000.0 -12549700000.0 -12576300000.0 -12569400000.0 -12640600000.0 -12560200000.0 -12554800000.0 -12568000000.0 -12552100000.0 -12564200000.0 -12570200000.0 -12628100000.0 -12616200000.0 -12615000000.0 -12591200000.0 -12668400000.0 -12567900000.0 -12589100000.0 -12698300000.0 -12849900000.0 -12710800000.0 -12783000000.0 -12758600000.0 -12586800000.0 -12573300000.0 -12573600000.0 -12659300000.0 -12549700000.0 -12563200000.0 -12550400000.0 -12549700000.0 -12569400000.0 -12549700000.0 -12549700000.0 -12554200000.0 -12549700000.0 -12559500000.0 -12549700000.0 -12593000000.0 -12606100000.0 -12549700000.0 -12549700000.0 -12549700000.0 -12551600000.0 -12550000000.0 -12549700000.0 -12550400000.0 -12567000000.0 -12553100000.0 -12562700000.0 -12595300000.0 -12587400000.0 -12586900000.0 -12617800000.0 -12677800000.0 -12653700000.0 -12556500000.0 -12569700000.0 -12581200000.0 -12573000000.0 -12613700000.0 -12555700000.0 -12567600000.0 -12641800000.0 -12557200000.0 -12576000000.0 -12590300000.0 -12584200000.0 -12572200000.0 -12568900000.0 -12565000000.0 -12553200000.0 -12589300000.0 -12623000000.0 -12820200000.0 -12658100000.0 -12635000000.0 -12549900000.0 -12549700000.0 -12564700000.0 -12564100000.0 -12619300000.0 -12567100000.0 -12549700000.0 -12629500000.0 -12570000000.0 -12622900000.0 -12549700000.0 -12549700000.0 -12559000000.0 -12660200000.0 -12576100000.0 -12689300000.0 -12560200000.0 -12551100000.0 -12653600000.0 -12619000000.0 -12646400000.0 -12586000000.0 -12701800000.0 -12558600000.0 -12615500000.0 -12568600000.0 -12560600000.0 -12551300000.0 -12595900000.0 -12847200000.0 -12573700000.0 -12629000000.0 -12677900000.0 -12831800000.0 -12549700000.0 -12668800000.0 -12615000000.0 -12594300000.0 -12774500000.0 -12631200000.0 -12618900000.0 -12616900000.0 -12634500000.0 -12677600000.0 -12699800000.0 -12676500000.0 -12549700000.0 -12921100000.0 -12767200000.0 -12569000000.0 -12769400000.0 -12664200000.0 -12776600000.0 -12896700000.0 -12682800000.0 -12556700000.0 -12744300000.0 -12764600000.0 -12623000000.0 -12652600000.0 -12617400000.0 -12620700000.0 -12606100000.0 -12557600000.0 -12590800000.0 -12549700000.0 -12550300000.0 -12559400000.0 -12549700000.0 -12579500000.0 -12549700000.0 -12551000000.0 -12557100000.0 -12549700000.0 -12560400000.0 -12563000000.0 -12560000000.0 -12562000000.0 -12575600000.0 -12597000000.0 -12575700000.0 -12645700000.0 -12629800000.0 -12572700000.0 -12685800000.0 -12634300000.0 -12610100000.0 -12641300000.0 -12550200000.0 -12553100000.0 -12549700000.0 -12577900000.0 -12651600000.0 -12560000000.0 -12554000000.0 -12557600000.0 -12552000000.0 -12665700000.0 -12618400000.0 -12657100000.0 -12562900000.0 -12592300000.0 -12737400000.0 -12637600000.0 -12616700000.0 -12600600000.0 -12653500000.0 -12661600000.0 -12671700000.0 -12862500000.0 -12778200000.0 -12788000000.0 -12786500000.0 -12831900000.0 -12663200000.0 -12751400000.0 -12691600000.0 -12698200000.0 -12668000000.0 -12644300000.0 -12719200000.0 -13054200000.0 -12985700000.0 -13158000000.0 -13285600000.0 -12587800000.0 -12612300000.0 -12579300000.0 -13050500000.0 -12564100000.0 -12811500000.0 -12674000000.0 -12666300000.0 -12700700000.0 -12696700000.0 -12602700000.0 -12848400000.0 -12788100000.0 -12555700000.0 -12587000000.0 -12564700000.0 -12916900000.0 -12574500000.0 -12708400000.0 -12690100000.0 -12687700000.0 -12562300000.0 -12685100000.0 -12549700000.0 -12593200000.0 -12788200000.0 -12650400000.0 -12649500000.0 -12817600000.0 -12797300000.0 -12579800000.0 -12715300000.0 -12549700000.0 -12570700000.0 -12567900000.0 -12628600000.0 -12702700000.0 -12593100000.0 -12597200000.0 -12581500000.0 -12611400000.0 -12581400000.0 -12592400000.0 -12580300000.0 -12640600000.0 -12598900000.0 -12650100000.0 -12665600000.0 -12579400000.0 -12569500000.0 -12578700000.0 -12549700000.0 -12551000000.0 -12554800000.0 -12558600000.0 -12569500000.0 -12552400000.0 -12616800000.0 -12639800000.0 -12597200000.0 -12609900000.0 -12777400000.0 -12744100000.0 -12784500000.0 -12754600000.0 -12763400000.0 -12837200000.0 -12837600000.0 -12724600000.0 -12680700000.0 -12583000000.0 -12656000000.0 -12786800000.0 -12582100000.0 -13047900000.0 -12647900000.0 -12591700000.0 -12685500000.0 -12555400000.0 -12742600000.0 -12771600000.0 -13073900000.0 -12602400000.0 -12766700000.0 -12596200000.0 -12840400000.0 -12549700000.0 -12549700000.0 -12687000000.0 -12549700000.0 -12764000000.0 -12827900000.0 -12729700000.0 -12862100000.0 -12969200000.0 -12938700000.0 -12909300000.0 -13046600000.0 -12950900000.0 -12632100000.0 -12888300000.0 -13229100000.0 -13173400000.0 -13306700000.0 -13262100000.0 -12556700000.0 -13030100000.0 -12800500000.0 -12813900000.0 -12563800000.0 -12899600000.0 -12759600000.0 -12562400000.0 -12889200000.0 -13296000000.0 -12644800000.0 -13219400000.0 -12653300000.0 -12779700000.0 -12888900000.0 -12578400000.0 -13062700000.0 -12655800000.0 -12567200000.0 -12642600000.0 -12561700000.0 -13054000000.0 -13170900000.0 -12978400000.0 -13121400000.0 -12701500000.0 -12614600000.0 -12903800000.0 -12686600000.0 -12572200000.0 -12751700000.0 -12655800000.0 -12702200000.0 -12627500000.0 -12570500000.0 -12576400000.0 -12552500000.0 -12619200000.0 -12551000000.0 -12627900000.0 -12881100000.0 -12602900000.0 -12585400000.0 -12571000000.0 -12552400000.0 -12592200000.0 -12715400000.0 -12666200000.0 -12613100000.0 -12571900000.0 -12554500000.0 -12812200000.0 -12985300000.0 -12881000000.0 -12578400000.0 -12697700000.0 -12596200000.0 -12588300000.0 -12551800000.0 -12597300000.0 -12758500000.0 -12792400000.0 -12960000000.0 -12600300000.0 -12742600000.0 -12578700000.0 -13039900000.0 -12987400000.0 -12600700000.0 -13213200000.0 -12753300000.0 -12612500000.0 -12902600000.0 -12585600000.0 -12968900000.0 -12549700000.0 -12793300000.0 -12555100000.0 -12572000000.0 -13109800000.0 -13202300000.0 -12579600000.0 -12559300000.0 -13156400000.0 -12837700000.0 -12570000000.0 -12621400000.0 -12923000000.0 -12831100000.0 -13021800000.0 -13070800000.0 -12601900000.0 -12645700000.0 -12896800000.0 -12819700000.0 -12833300000.0 -12824700000.0 -13055300000.0 -13038700000.0 -12551100000.0 -12855400000.0 -13372100000.0 -13238800000.0 -12713100000.0 -13354000000.0 -12952900000.0 -13005800000.0 -12909200000.0 -12641300000.0 -12557000000.0 -13035800000.0 -12827000000.0 -12746300000.0 -12777100000.0 -12563000000.0 -13040200000.0 -12582700000.0 -13188000000.0 -13207800000.0 -12897500000.0 -12839100000.0 -12866900000.0 -12912000000.0 -12808300000.0 -12689600000.0 -12573600000.0 -12597600000.0 -12568000000.0 -12880000000.0 -12928000000.0 -12882100000.0 -12862300000.0 -12856900000.0 -12837700000.0 -12800200000.0 -12671800000.0 -12959900000.0 -12582700000.0 -12869800000.0 -12654400000.0 -12919700000.0 -12968100000.0 -12747400000.0 -12797100000.0 -12804600000.0 -12726300000.0 -12776300000.0 -12550100000.0 -12574400000.0 -12709200000.0 -12752500000.0 -13120900000.0 -12599200000.0 -12573300000.0 -12639200000.0 -12726300000.0 -12698200000.0 -12572000000.0 -12552300000.0 -12645400000.0 -12799300000.0 -12752900000.0 -12589400000.0 -12667800000.0 -13014600000.0 -13002200000.0 -12577800000.0 -13336500000.0 -12894200000.0 -13383800000.0 -12807900000.0 -12696400000.0 -13179600000.0 -12933400000.0 -12607200000.0 -12911300000.0 -13016900000.0 -13823300000.0 -12655700000.0 -13108000000.0 -12998300000.0 -12762700000.0 -12762800000.0 -12697600000.0 -13702700000.0 -12986700000.0 -13010600000.0 -12739400000.0 -13183100000.0 -13885800000.0 -12833700000.0 -12771800000.0 -12628800000.0 -14100700000.0 -12909100000.0 -13311000000.0 -13206100000.0 -13723500000.0 -12703500000.0 -12774400000.0 -12900600000.0 -13087900000.0 -12821800000.0 -12768300000.0 -12801100000.0 -12549700000.0 -12732700000.0 -12846200000.0 -12655300000.0 -12621300000.0 -13209300000.0 -12899000000.0 -12852900000.0 -12876200000.0 -13549100000.0 -14203900000.0 -12899300000.0 -13681300000.0 -12914300000.0 -12662600000.0 -13145600000.0 -12608500000.0 -12709000000.0 -13026800000.0 -12591300000.0 -13070700000.0 -12659100000.0 -12550300000.0 -12555100000.0 -12836200000.0 -12684600000.0 -12608200000.0 -12749600000.0 -12627300000.0 -12816100000.0 -12551600000.0 -12560700000.0 -12705500000.0 -12762400000.0 -12815900000.0 -12551100000.0 -12800000000.0 -12963300000.0 -12907000000.0 -12851700000.0 -12778800000.0 -12875500000.0 -12659200000.0 -12605700000.0 -12614400000.0 -12655800000.0 -12563800000.0 -12728700000.0 -12638800000.0 -12872000000.0 -12865900000.0 -12722600000.0 -12775400000.0 -12777600000.0 -12586600000.0 -12799400000.0 -12809400000.0 -12855000000.0 -12996700000.0 -12869500000.0 -13426100000.0 -12895600000.0 -13039100000.0 -12787500000.0 -12612200000.0 -12813800000.0 -12834800000.0 -12752900000.0 -12549700000.0 -12684500000.0 -12557600000.0 -12639500000.0 -13549100000.0 -12776400000.0 -12752900000.0 -13408800000.0 -13488300000.0 -13484700000.0 -12557700000.0 -13447800000.0 -13335200000.0 -13294900000.0 -13572100000.0 -13716300000.0 -13868300000.0 -14015200000.0 -13658500000.0 -13371000000.0 -13197900000.0 -13827500000.0 -12766700000.0 -12579800000.0 -12904700000.0 -12842900000.0 -12821200000.0 -12929500000.0 -12620500000.0 -12549700000.0 -13182700000.0 -12578300000.0 -12577300000.0 -12593000000.0 -12557800000.0 -12778700000.0 -12549700000.0 -12549700000.0 -14093300000.0 -14111300000.0 -14039200000.0 -13413200000.0 -13372800000.0 -12616300000.0 -13227900000.0 -13359900000.0 -13281900000.0 -13393500000.0 -13023500000.0 -12934900000.0 -12910600000.0 -12726700000.0 -12606800000.0 -12706100000.0 -12607600000.0 -12683900000.0 -12719600000.0 -12582700000.0 -12738100000.0 -12645100000.0 -12635000000.0 -12570900000.0 -12673800000.0 -12597000000.0 -13002100000.0 -13046200000.0 -12825400000.0 -12643100000.0 -12621700000.0 -12648100000.0 -12730800000.0 -12650600000.0 -12691200000.0 -12596600000.0 -12765500000.0 -12618900000.0 -12672500000.0 -12644100000.0 -12646900000.0 -12585800000.0 -12641000000.0 -12735200000.0 -13215700000.0 -13341700000.0 -13524700000.0 -13372300000.0 -13859700000.0 -13509500000.0 -12859600000.0 -13434500000.0 -12795900000.0 -12575500000.0 -12735000000.0 -12607400000.0 -12549700000.0 -13107800000.0 -13885800000.0 -13312200000.0 -12715300000.0 -12565900000.0 -12799100000.0 -12904000000.0 -12549700000.0 -12949200000.0 -12801000000.0 -13057200000.0 -13060300000.0 -12805900000.0 -12929300000.0 -13253700000.0 -12968200000.0 -13608700000.0 -13025300000.0 -12823300000.0 -13301900000.0 -12906400000.0 -13258700000.0 -12880800000.0 -14386700000.0 -12563600000.0 -12549700000.0 -12894400000.0 -13289400000.0 -12818200000.0 -12771100000.0 -13137800000.0 -12898000000.0 -12789700000.0 -12985500000.0 -13305100000.0 -12550600000.0 -12675800000.0 -12553000000.0 -12852900000.0 -12549700000.0 -12968900000.0 -13472800000.0 -13746300000.0 -13783100000.0 -12904300000.0 -12747300000.0 -12604600000.0 -12655400000.0 -13319800000.0 -12549700000.0 -12889100000.0 -12866300000.0 -12867100000.0 -12823000000.0 -12569700000.0 -12584300000.0 -12644700000.0 -12607500000.0 -12720100000.0 -12721000000.0 -12812400000.0 -12560500000.0 -12795000000.0 -12759700000.0 -12717900000.0 -12647100000.0 -12814700000.0 -12730600000.0 -12801600000.0 -12776200000.0 -12779200000.0 -12877600000.0 -12843100000.0 -12923800000.0 -13032400000.0 -12815100000.0 -12849700000.0 -13078900000.0 -13213000000.0 -13171900000.0 -13080700000.0 -12554000000.0 -12995800000.0 -13106500000.0 -13099900000.0 -13198200000.0 -12578400000.0 -13238500000.0 -13053000000.0 -13033500000.0 -13635800000.0 -12549700000.0 -13056600000.0 -13069000000.0 -13600600000.0 -12624400000.0 -13056700000.0 -13363700000.0 -13665200000.0 -13402600000.0 -13207300000.0 -13081100000.0 -12786200000.0 -12911700000.0 -13251200000.0 -12686000000.0 -12657200000.0 -12725200000.0 -12811300000.0 -12554600000.0 -13013500000.0 -12928100000.0 -13270900000.0 -12713600000.0 -13154200000.0 -12693300000.0 -12549700000.0 -13003900000.0 -13323000000.0 -13153900000.0 -13818700000.0 -12754100000.0 -12965500000.0 -13010200000.0 -13158800000.0 -14575300000.0 -14947700000.0 -13208900000.0 -13282300000.0 -12941100000.0 -12553700000.0 -12583600000.0 -13282200000.0 -12827700000.0 -12557400000.0 -13190400000.0 -12832200000.0 -12953600000.0 -12612600000.0 -12643100000.0 -12753800000.0 -12782100000.0 -12559800000.0 -13552600000.0 -12615600000.0 -13137700000.0 -12594500000.0 -12575800000.0 -12688100000.0 -13330400000.0 -12807500000.0 -12744300000.0 -12556200000.0 -12596500000.0 -12552800000.0 -12625100000.0 -12614600000.0 -12702600000.0 -12584500000.0 -12748000000.0 -12644000000.0 -12562100000.0 -12549700000.0 -12741400000.0 -12766700000.0 -12952800000.0 -12716900000.0 -12558500000.0 -12708000000.0 -12625000000.0 -12677300000.0 -12750500000.0 -12550800000.0 -12552500000.0 -12576800000.0 -12612900000.0 -12604200000.0 -12549900000.0 -12550600000.0 -13002500000.0 -12905100000.0 -12549900000.0 -12897200000.0 -12576500000.0 -12869800000.0 -12549700000.0 -12550000000.0 -12767800000.0 -12764100000.0 -12903700000.0 -12549700000.0 -12587000000.0 -12550500000.0 -12701400000.0 -12876200000.0 -12885800000.0 -12739000000.0 -13509700000.0 -12549700000.0 -13037000000.0 -13065800000.0 -12580900000.0 -12654400000.0 -13529700000.0 -13995900000.0 -13011800000.0 -13892100000.0 -12739200000.0 -12601600000.0 -13043600000.0 -12610600000.0 -13010400000.0 -12582800000.0 -13312900000.0 -13808600000.0 -12995600000.0 -12752600000.0 -12915100000.0 -13382600000.0 -13216700000.0 -14173500000.0 -13780900000.0 -13755300000.0 -13688300000.0 -13616000000.0 -13286800000.0 -13897700000.0 -13875700000.0 -12681300000.0 -14071700000.0 -14145400000.0 -14723200000.0 -13988700000.0 -12964500000.0 -13853000000.0 -15318900000.0 -14079600000.0 -13684700000.0 -13446800000.0 -12947500000.0 -12630700000.0 -13264900000.0 -12809200000.0 -13104600000.0 -12781200000.0 -12728100000.0 -13172800000.0 -12551500000.0 -12928700000.0 -12819600000.0 -13045400000.0 -12637500000.0 -12640000000.0 -13170900000.0 -12833800000.0 -12644500000.0 -13703000000.0 -13228600000.0 -12558300000.0 -13126900000.0 -12699900000.0 -12738400000.0 -13262700000.0 -12549700000.0 -12937200000.0 -12764700000.0 -12919300000.0 -12577500000.0 -12556700000.0 -12770900000.0 -12641300000.0 -12612400000.0 -12831800000.0 -12566700000.0 -12679400000.0 -12601800000.0 -12744900000.0 -12821200000.0 -12617700000.0 -12696600000.0 -12625500000.0 -12623400000.0 -12556600000.0 -12639900000.0 -12571800000.0 -12622500000.0 -12568700000.0 -12554700000.0 -12777300000.0 -12739300000.0 -12886700000.0 -12976700000.0 -12554100000.0 -12560400000.0 -12757900000.0 -12773300000.0 -12566800000.0 -13077600000.0 -12597800000.0 -12676800000.0 -12814600000.0 -12701300000.0 -12911100000.0 -13709400000.0 -12750300000.0 -13406900000.0 -12549700000.0 -13492400000.0 -13395500000.0 -14055000000.0 -14697100000.0 -14109400000.0 -13314800000.0 -13159900000.0 -12975000000.0 -12649100000.0 -13005800000.0 -12959200000.0 -12769300000.0 -13161500000.0 -13497200000.0 -12719400000.0 -13664600000.0 -13027600000.0 -12656900000.0 -12549700000.0 -13606400000.0 -13036800000.0 -12852400000.0 -12903300000.0 -13156800000.0 -12614800000.0 -12603500000.0 -13158400000.0 -13986700000.0 -12781900000.0 -13426500000.0 -12675800000.0 -12786400000.0 -12571300000.0 -13829700000.0 -13599000000.0 -12549700000.0 -13412000000.0 -12549700000.0 -13893700000.0 -13697200000.0 -14924400000.0 -15096700000.0 -12574800000.0 -12557800000.0 -13134900000.0 -12633500000.0 -14965600000.0 -14836900000.0 -14019900000.0 -12594300000.0 -12886100000.0 -12780400000.0 -12869800000.0 -13499300000.0 -13173600000.0 -12556000000.0 -13286400000.0 -13414800000.0 -12861400000.0 -12671800000.0 -13039700000.0 -12919800000.0 -12587500000.0 -12894900000.0 -12930600000.0 -12659200000.0 -12693800000.0 -12977300000.0 -13068600000.0 -12766200000.0 -12786900000.0 -12913400000.0 -12549700000.0 -12844000000.0 -12838500000.0 -12653700000.0 -12846200000.0 -12549700000.0 -13031100000.0 -13024100000.0 -13062500000.0 -12573500000.0 -12661400000.0 -12659700000.0 -12935900000.0 -12813400000.0 -12977400000.0 -12863300000.0 -12727100000.0 -12673800000.0 -13048300000.0 -12549700000.0 -12553100000.0 -13010700000.0 -13548800000.0 -13008400000.0 -12827000000.0 -13544300000.0 -12549700000.0 -13591100000.0 -14625100000.0 -14683000000.0 -13509200000.0 -12666500000.0 -13352300000.0 -13532300000.0 -13626400000.0 -13346200000.0 -12699200000.0 -13217400000.0 -13334400000.0 -12807800000.0 -12678200000.0 -13166700000.0 -12549700000.0 -13494800000.0 -13848100000.0 -13558900000.0 -12711000000.0 -13571900000.0 -14173200000.0 -14546900000.0 -13075000000.0 -12550300000.0 -13285900000.0 -12908900000.0 -13319400000.0 -12763300000.0 -12858900000.0 -12791100000.0 -12627600000.0 -14304000000.0 -12708200000.0 -12849500000.0 -14223900000.0 -13453000000.0 -14142200000.0 -12575500000.0 -12769700000.0 -14783500000.0 -14628800000.0 -12667000000.0 -14929200000.0 -14815600000.0 -13379900000.0 -13118600000.0 -13234600000.0 -13100800000.0 -13353400000.0 -14041900000.0 -13943000000.0 -12556000000.0 -14121600000.0 -14685400000.0 -13429800000.0 -13693700000.0 -12773700000.0 -12906100000.0 -12726800000.0 -12689200000.0 -12600700000.0 -12707000000.0 -12586900000.0 -12604500000.0 -12560500000.0 -12913900000.0 -12724400000.0 -12806700000.0 -12773000000.0 -12787600000.0 -12709700000.0 -13317800000.0 -12607600000.0 -12697400000.0 -12746400000.0 -13027300000.0 -12946300000.0 -12586100000.0 -12985800000.0 -13033100000.0 -12697600000.0 -12577700000.0 -13160600000.0 -13054800000.0 -12885100000.0 -12921300000.0 -12885900000.0 -12962500000.0 -12568500000.0 -13095700000.0 -13086100000.0 -12621800000.0 -12557400000.0 -12718300000.0 -12755800000.0 -12576700000.0 -12910600000.0 -13132100000.0 -13023600000.0 -12868100000.0 -12824300000.0 -12689500000.0 -12984800000.0 -12691300000.0 -13589300000.0 -12549700000.0 -14034500000.0 -14915400000.0 -13933700000.0 -14490800000.0 -13922400000.0 -12741300000.0 -12768900000.0 -12576700000.0 -12608500000.0 -13581200000.0 -13223100000.0 -12799600000.0 -14169000000.0 -12749600000.0 -12561000000.0 -12795800000.0 -13408400000.0 -12825900000.0 -13407300000.0 -12663400000.0 -12554500000.0 -13230200000.0 -13670900000.0 -13578100000.0 -14806900000.0 -13544000000.0 -13286600000.0 -13102600000.0 -12692600000.0 -12862100000.0 -12561900000.0 -12719000000.0 -14470500000.0 -13560200000.0 -13287300000.0 -13808600000.0 -12697900000.0 -13880500000.0 -12625100000.0 -13060900000.0 -13451300000.0 -12951500000.0 -12830500000.0 -12586700000.0 -12977500000.0 -13404800000.0 -12935600000.0 -13268400000.0 -12702900000.0 -12555000000.0 -12556300000.0 -12579800000.0 -12549700000.0 -13863400000.0 -13936600000.0 -12571900000.0 -13432600000.0 -12731200000.0 -12842100000.0 -12757700000.0 -12784700000.0 -12759500000.0 -12684100000.0 -12957700000.0 -12670300000.0 -12816200000.0 -12574600000.0 -12742900000.0 -12606000000.0 -12618700000.0 -12608700000.0 -12661400000.0 -12549700000.0 -13089900000.0 -12973800000.0 -12873500000.0 -12555000000.0 -12919200000.0 -12811900000.0 -12737200000.0 -12809900000.0 -12686400000.0 -12796300000.0 -12650100000.0 -12556000000.0 -13030400000.0 -12613100000.0 -12564200000.0 -12654900000.0 -12706900000.0 -12654900000.0 -13289200000.0 -12611300000.0 -12659000000.0 -12865200000.0 -12558500000.0 -13623100000.0 -14340600000.0 -14021200000.0 -12672000000.0 -13736400000.0 -14204900000.0 -14748500000.0 -12574100000.0 -12580600000.0 -14983400000.0 -13687600000.0 -13054300000.0 -13026800000.0 -12573800000.0 -12886600000.0 -12660900000.0 -12855700000.0 -12611500000.0 -12679700000.0 -12754500000.0 -12725400000.0 -14021400000.0 -13193700000.0 -14384600000.0 -13822700000.0 -12979000000.0 -13184300000.0 -13412800000.0 -14052200000.0 -12617700000.0 -13139200000.0 -13290600000.0 -13384000000.0 -13117700000.0 -13678400000.0 -12924300000.0 -12950200000.0 -13046900000.0 -12604100000.0 -13363500000.0 -13212900000.0 -13029000000.0 -13510200000.0 -13817700000.0 -12813000000.0 -13356600000.0 -12899100000.0 -13918000000.0 -13490900000.0 -13243900000.0 -13278500000.0 -12729500000.0 -13252100000.0 -12691400000.0 -12571300000.0 -12598300000.0 -12576300000.0 -12556900000.0 -12776800000.0 -13422800000.0 -12736600000.0 -12671800000.0 -12798400000.0 -12646100000.0 -12632100000.0 -12819800000.0 -12564400000.0 -12584900000.0 -12552800000.0 -12610900000.0 -12664900000.0 -12601200000.0 -12959500000.0 -12590600000.0 -12570900000.0 -12639000000.0 -12654900000.0 -12641700000.0 -12557200000.0 -12623000000.0 -12552100000.0 -12688100000.0 -13137700000.0 -13481700000.0 -12761000000.0 -12573600000.0 -13076100000.0 -12708900000.0 -12713700000.0 -12809300000.0 -12604800000.0 -12565700000.0 -12588200000.0 -13378600000.0 -13602300000.0 -12885300000.0 -12754200000.0 -13016300000.0 -13372900000.0 -13358800000.0 -13276700000.0 -12685000000.0 -14018000000.0 -12842900000.0 -14289200000.0 -15319800000.0 -15157500000.0 -12618200000.0 -12554100000.0 -12557200000.0 -14055600000.0 -14769600000.0 -12604800000.0 -12644200000.0 -13329400000.0 -12676400000.0 -12879400000.0 -12627100000.0 -12587000000.0 -12975800000.0 -14363100000.0 -14319500000.0 -13392700000.0 -13118000000.0 -12556200000.0 -12934800000.0 -13028200000.0 -13765400000.0 -12660300000.0 -12635400000.0 -12861300000.0 -12553300000.0 -12871000000.0 -13419200000.0 -12565200000.0 -13059500000.0 -12857600000.0 -13651900000.0 -13554800000.0 -12793200000.0 -12823300000.0 -13473300000.0 -13189600000.0 -13970200000.0 -13601000000.0 -13048700000.0 -13597500000.0 -13484100000.0 -13211000000.0 -13673600000.0 -13780300000.0 -12549700000.0 -13166700000.0 -12857400000.0 -12777800000.0 -13021100000.0 -13109700000.0 -13078200000.0 -12664000000.0 -12578400000.0 -12600300000.0 -12606800000.0 -12734600000.0 -13544000000.0 -13321400000.0 -12551300000.0 -12549700000.0 -12897000000.0 -12703200000.0 -12758400000.0 -12578400000.0 -12766300000.0 -12645400000.0 -12780100000.0 -12798000000.0 -12798900000.0 -12617500000.0 -12688500000.0 -12668900000.0 -13022600000.0 -12549700000.0 -12705300000.0 -12570900000.0 -12551600000.0 -12818600000.0 -12848400000.0 -12908900000.0 -12549700000.0 -12748500000.0 -12743800000.0 -12691100000.0 -12655100000.0 -12692500000.0 -12980700000.0 -12939300000.0 -12747000000.0 -13114900000.0 -12772400000.0 -12950000000.0 -12664700000.0 -12822700000.0 -12663200000.0 -12696100000.0 -12870000000.0 -12664800000.0 -12603700000.0 -13379700000.0 -12560900000.0 -13437600000.0 -13059000000.0 -13193700000.0 -12821000000.0 -17340300000.0 -13576600000.0 -12551200000.0 -13626600000.0 -14733500000.0 -12579700000.0 -12726900000.0 -13643000000.0 -12944900000.0 -13217600000.0 -14835600000.0 -14639700000.0 -13139500000.0 -12549700000.0 -12605900000.0 -13068900000.0 -13251000000.0 -13306600000.0 -12839800000.0 -13043000000.0 -12873300000.0 -13756200000.0 -12839600000.0 -12620000000.0 -12991000000.0 -13179100000.0 -13472200000.0 -13225600000.0 -12711300000.0 -13447700000.0 -13119900000.0 -13020000000.0 -12938800000.0 -13097100000.0 -13212500000.0 -12562300000.0 -12556200000.0 -13626300000.0 -12695800000.0 -13095600000.0 -12549700000.0 -12899600000.0 -13107200000.0 -12646900000.0 -13003700000.0 -12640000000.0 -12575100000.0 -12575300000.0 -12608400000.0 -12598300000.0 -12556300000.0 -12586900000.0 -12601000000.0 -12565000000.0 -12663300000.0 -13032000000.0 -12948400000.0 -13170000000.0 -12875000000.0 -12678000000.0 -12616500000.0 -12610300000.0 -12673700000.0 -12601700000.0 -12677300000.0 -12622800000.0 -12587500000.0 -12724100000.0 -12595700000.0 -12687100000.0 -12564300000.0 -12847300000.0 -12731400000.0 -12826400000.0 -12955700000.0 -12929000000.0 -12619900000.0 -12619400000.0 -12613000000.0 -12905900000.0 -12889100000.0 -12549700000.0 -12941400000.0 -12917500000.0 -12801600000.0 -12673300000.0 -12660700000.0 -12549700000.0 -13213300000.0 -13232500000.0 -12978400000.0 -12549700000.0 -13898800000.0 -13213300000.0 -13171400000.0 -12847100000.0 -12760300000.0 -13297800000.0 -13435400000.0 -13663600000.0 -13112600000.0 -13213400000.0 -18328700000.0 -13633000000.0 -14143100000.0 -14091800000.0 -13545400000.0 -13573800000.0 -16205200000.0 -13053000000.0 -14751300000.0 -14012600000.0 -14005900000.0 -14986400000.0 -12561100000.0 -13577900000.0 -12637400000.0 -12993700000.0 -12644300000.0 -12549700000.0 -12853400000.0 -13085100000.0 -12863100000.0 -13477900000.0 -12781400000.0 -13385200000.0 -12768900000.0 -12585300000.0 -12549700000.0 -12549700000.0 -12552800000.0 -12553100000.0 -13031100000.0 -12560300000.0 -12854800000.0 -12794000000.0 -13116200000.0 -12933400000.0 -12753200000.0 -13384200000.0 -12576000000.0 -12848600000.0 -12551700000.0 -13565800000.0 -12932800000.0 -13097500000.0 -12567100000.0 -13194200000.0 -12737000000.0 -13532500000.0 -13676600000.0 -13537600000.0 -12663100000.0 -13611900000.0 -13752200000.0 -12603800000.0 -13207300000.0 -12615800000.0 -12583500000.0 -12549700000.0 -12588900000.0 -12559200000.0 -12628600000.0 -12556900000.0 -12803700000.0 -12562000000.0 -12943700000.0 -13066300000.0 -12727700000.0 -12721700000.0 -12629600000.0 -12568300000.0 -12658000000.0 -12604100000.0 -12601500000.0 -12677500000.0 -12576100000.0 -12684800000.0 -12561500000.0 -12723200000.0 -12595200000.0 -12576000000.0 -12550200000.0 -12557400000.0 -12558800000.0 -12552600000.0 -12598100000.0 -12594100000.0 -12549700000.0 -12552400000.0 -12888100000.0 -12815600000.0 -12554300000.0 -12568600000.0 -13186400000.0 -12837400000.0 -13226500000.0 -13063600000.0 -12864500000.0 -12720400000.0 -13097500000.0 -12780200000.0 -12802800000.0 -13526200000.0 -14035200000.0 -12955100000.0 -12567600000.0 -12552900000.0 -12785700000.0 -12552800000.0 -13507300000.0 -14100800000.0 -14529200000.0 -12574900000.0 -15244100000.0 -15708100000.0 -14624000000.0 -13431200000.0 -15001900000.0 -13500700000.0 -13569800000.0 -14135600000.0 -13421500000.0 -13653900000.0 -12860600000.0 -12747800000.0 -13577900000.0 -12615800000.0 -12697400000.0 -12825400000.0 -12932600000.0 -13114400000.0 -13209500000.0 -12549700000.0 -12630400000.0 -12786600000.0 -12645000000.0 -12996800000.0 -13093700000.0 -12921600000.0 -13194100000.0 -13164800000.0 -12549700000.0 -12721800000.0 -12674500000.0 -12731400000.0 -12834700000.0 -12782600000.0 -12564600000.0 -12933400000.0 -13675300000.0 -12965800000.0 -14072600000.0 -13029400000.0 -12574500000.0 -12549700000.0 -12589400000.0 -12559900000.0 -12556600000.0 -12566200000.0 -12613500000.0 -12590300000.0 -12556600000.0 -12714600000.0 -12626400000.0 -12877700000.0 -12570700000.0 -12549700000.0 -12874500000.0 -12737800000.0 -12568100000.0 -12556800000.0 -12575800000.0 -12563700000.0 -12550700000.0 -12600300000.0 -12683400000.0 -12561500000.0 -12574100000.0 -12572900000.0 -12594900000.0 -12572700000.0 -12625700000.0 -12549800000.0 -12551800000.0 -12550600000.0 -12555800000.0 -12724100000.0 -12625000000.0 -12741600000.0 -12619400000.0 -12865800000.0 -12859000000.0 -12939800000.0 -12707100000.0 -13354500000.0 -13863500000.0 -13591400000.0 -13554100000.0 -13451700000.0 -13642900000.0 -13852700000.0 -13800900000.0 -13638500000.0 -13098600000.0 -12772900000.0 -13397900000.0 -12846200000.0 -14713500000.0 -12599100000.0 -16339500000.0 -15439700000.0 -15009000000.0 -15123200000.0 -12680800000.0 -14040700000.0 -14226000000.0 -14340700000.0 -13021300000.0 -13311000000.0 -14923800000.0 -13777100000.0 -14069800000.0 -13810200000.0 -13465800000.0 -13528300000.0 -12644400000.0 -12584400000.0 -12703700000.0 -12677800000.0 -12760500000.0 -12763700000.0 -12825600000.0 -12828200000.0 -12550000000.0 -12747100000.0 -12553500000.0 -12641400000.0 -12613900000.0 -12611500000.0 -12823300000.0 -12575600000.0 -13132500000.0 -12646600000.0 -12999900000.0 -12699600000.0 -13006900000.0 -12952000000.0 -12899200000.0 -12848300000.0 -12677400000.0 -12723000000.0 -12732800000.0 -12631500000.0 -12823500000.0 -12718600000.0 -12834300000.0 -12696900000.0 -13338400000.0 -12944200000.0 -12551600000.0 -13174000000.0 -12593100000.0 -12660700000.0 -12668200000.0 -12659900000.0 -12659300000.0 -12633800000.0 -12635300000.0 -12826700000.0 -12755900000.0 -12651700000.0 -12684300000.0 -12590200000.0 -12663500000.0 -12641800000.0 -12614600000.0 -12550800000.0 -12557900000.0 -12549700000.0 -12550900000.0 -12557700000.0 -12550600000.0 -12556800000.0 -12571900000.0 -12583600000.0 -12551900000.0 -12557800000.0 -12575000000.0 -12550800000.0 -12556400000.0 -12584600000.0 -12571000000.0 -12798700000.0 -12559600000.0 -13243100000.0 -13280700000.0 -13098900000.0 -12636900000.0 -12680200000.0 -13683700000.0 -12823500000.0 -12595900000.0 -12896500000.0 -14979900000.0 -12551000000.0 -13586300000.0 -14178000000.0 -13216500000.0 -14381900000.0 -13342200000.0 -12971300000.0 -14355200000.0 -12622400000.0 -13114700000.0 -13641900000.0 -15918800000.0 -18415100000.0 -14906300000.0 -12736100000.0 -15313000000.0 -13808400000.0 -14743300000.0 -13048100000.0 -12549700000.0 -12549700000.0 -15256100000.0 -12575700000.0 -13611500000.0 -12604600000.0 -12881600000.0 -12636300000.0 -12822200000.0 -12801800000.0 -12693000000.0 -12786600000.0 -12833700000.0 -12834300000.0 -12803700000.0 -12644800000.0 -12771600000.0 -12552800000.0 -12591400000.0 -12677300000.0 -12584200000.0 -12875200000.0 -12751900000.0 -12740200000.0 -12636700000.0 -12549700000.0 -12778700000.0 -12735600000.0 -12887100000.0 -12549700000.0 -12698100000.0 -12625100000.0 -12676900000.0 -12560000000.0 -12553700000.0 -12550700000.0 -12720700000.0 -12580400000.0 -12787900000.0 -12881900000.0 -12970700000.0 -12816700000.0 -12550200000.0 -13445400000.0 -12786300000.0 -12592700000.0 -12549900000.0 -12549700000.0 -12576300000.0 -12567400000.0 -12560400000.0 -12636900000.0 -12572500000.0 -12568900000.0 -12565900000.0 -12571000000.0 -12780300000.0 -12749800000.0 -12654500000.0 -12662600000.0 -12578000000.0 -12581900000.0 -12590600000.0 -12615500000.0 -12633500000.0 -12589300000.0 -12587200000.0 -12608000000.0 -12631800000.0 -12558900000.0 -12615200000.0 -12626300000.0 -12628800000.0 -12557000000.0 -12600900000.0 -12648000000.0 -12687200000.0 -12744800000.0 -13056200000.0 -12552300000.0 -12929600000.0 -12778400000.0 -13166700000.0 -13253700000.0 -12818300000.0 -12570500000.0 -13695500000.0 -13345600000.0 -12913700000.0 -12816800000.0 -14293200000.0 -13082100000.0 -12711400000.0 -14153400000.0 -12774600000.0 -14955200000.0 -12549700000.0 -13865800000.0 -13340300000.0 -13038200000.0 -16231100000.0 -12767200000.0 -12781800000.0 -12610300000.0 -12564400000.0 -15152700000.0 -13013400000.0 -14925100000.0 -12658600000.0 -13704800000.0 -14487200000.0 -14563200000.0 -13061700000.0 -12726200000.0 -12988100000.0 -13776500000.0 -12901300000.0 -12901600000.0 -12916000000.0 -13146500000.0 -13138700000.0 -12870500000.0 -12783100000.0 -12840000000.0 -12782400000.0 -12573400000.0 -12705200000.0 -12662500000.0 -12865700000.0 -12640900000.0 -12630800000.0 -12645400000.0 -12707500000.0 -12736500000.0 -13060300000.0 -12624200000.0 -12875700000.0 -12790400000.0 -12621600000.0 -12730000000.0 -12726100000.0 -12600800000.0 -12904000000.0 -12623200000.0 -13254500000.0 -12769600000.0 -12710600000.0 -12554900000.0 -12567900000.0 -12549700000.0 -12550800000.0 -12563100000.0 -12556600000.0 -12561900000.0 -12551000000.0 -12549700000.0 -12623500000.0 -12566800000.0 -12610300000.0 -12569400000.0 -12550500000.0 -12549700000.0 -12549700000.0 -12634900000.0 -12573000000.0 -12618000000.0 -12614100000.0 -12598600000.0 -12608800000.0 -12606100000.0 -12594600000.0 -12605400000.0 -12662300000.0 -12730500000.0 -12797100000.0 -12623400000.0 -12923300000.0 -12713600000.0 -12673700000.0 -12620200000.0 -13082100000.0 -12840300000.0 -13414000000.0 -12556600000.0 -13551200000.0 -12623700000.0 -13130100000.0 -12751700000.0 -13243300000.0 -13554100000.0 -13815700000.0 -12577400000.0 -12818400000.0 -15186600000.0 -14172900000.0 -13007800000.0 -13479000000.0 -12552000000.0 -16303500000.0 -12774600000.0 -16815000000.0 -12556800000.0 -12618800000.0 -16716100000.0 -12606900000.0 -13560600000.0 -12879000000.0 -13767800000.0 -13811400000.0 -13336700000.0 -13739200000.0 -12574400000.0 -13903000000.0 -12549700000.0 -13035400000.0 -13060300000.0 -13090400000.0 -13122600000.0 -12938600000.0 -12853100000.0 -12940300000.0 -12580200000.0 -12566700000.0 -12679400000.0 -12555900000.0 -12549700000.0 -12736000000.0 -12631300000.0 -12599300000.0 -12616400000.0 -12615600000.0 -12638000000.0 -12882400000.0 -12644200000.0 -12627400000.0 -12628100000.0 -12629700000.0 -12735700000.0 -12713900000.0 -12550200000.0 -12566800000.0 -12661300000.0 -12636800000.0 -12553100000.0 -12553700000.0 -12623400000.0 -13029800000.0 -12768100000.0 -12639000000.0 -12688300000.0 -12575700000.0 -12560100000.0 -12549700000.0 -12549900000.0 -12551300000.0 -12559300000.0 -12554000000.0 -12549700000.0 -12549700000.0 -12549700000.0 -12576400000.0 -12549900000.0 -12549700000.0 -12549700000.0 -12550300000.0 -12552600000.0 -12550500000.0 -12571300000.0 -12556900000.0 -12556900000.0 -12550600000.0 -12571500000.0 -12569100000.0 -12588300000.0 -12597800000.0 -12620000000.0 -12614400000.0 -12603400000.0 -13009800000.0 -12700100000.0 -12757100000.0 -12777300000.0 -12919600000.0 -12965300000.0 -12784700000.0 -12942600000.0 -13017200000.0 -13474100000.0 -13823200000.0 -12554300000.0 -13652700000.0 -14145100000.0 -14634800000.0 -15029700000.0 -15356200000.0 -16834000000.0 -14702900000.0 -16788400000.0 -17943900000.0 -12592400000.0 -13051000000.0 -17106700000.0 -14703900000.0 -15552200000.0 -14665900000.0 -15030500000.0 -15167200000.0 -13998800000.0 -13278200000.0 -13498100000.0 -12888600000.0 -12632900000.0 -12658800000.0 -12889100000.0 -12936500000.0 -12570200000.0 -12611300000.0 -13235100000.0 -12803500000.0 -12859300000.0 -12644600000.0 -12639900000.0 -12622100000.0 -12597000000.0 -12549700000.0 -12597200000.0 -12561000000.0 -12552500000.0 -12558800000.0 -12561500000.0 -12554700000.0 -12638600000.0 -12591300000.0 -12549700000.0 -12566000000.0 -12569600000.0 -12768400000.0 -12726700000.0 -12806900000.0 -12833500000.0 -12851000000.0 -12589900000.0 -12689800000.0 -12669600000.0 -12557200000.0 -12553600000.0 -12549700000.0 -12549700000.0 -12549700000.0 -12549700000.0 -12550000000.0 -12552900000.0 -12551000000.0 -12549700000.0 -12549700000.0 -12549700000.0 -12563000000.0 -12554600000.0 -12549700000.0 -12549700000.0 -12549700000.0 -12549800000.0 -12551200000.0 -12564000000.0 -12560000000.0 -12559400000.0 -12558800000.0 -12553400000.0 -12555200000.0 -12616300000.0 -12570400000.0 -12566700000.0 -12622300000.0 -12566000000.0 -12837000000.0 -12613300000.0 -12585800000.0 -12620900000.0 -13021100000.0 -13165200000.0 -12702100000.0 -14209700000.0 -13812300000.0 -14307600000.0 -12590500000.0 -13131000000.0 -14420400000.0 -15206300000.0 -13071400000.0 -15976000000.0 -13793400000.0 -15969600000.0 -15062800000.0 -14980600000.0 -13907000000.0 -12747900000.0 -12975500000.0 -13464300000.0 -13262400000.0 -15382900000.0 -13770000000.0 -12855100000.0 -12878200000.0 -12838600000.0 -12622800000.0 -12803900000.0 -12805600000.0 -12556200000.0 -12553700000.0 -12588900000.0 -12557600000.0 -12629900000.0 -12566500000.0 -12757200000.0 -12668000000.0 -12663400000.0 -12616400000.0 -12565200000.0 -12584700000.0 -12687700000.0 -12550200000.0 -12579400000.0 -12589100000.0 -12739800000.0 -12607800000.0 -12625500000.0 -12573400000.0 -12582100000.0 -12558400000.0 -12561000000.0 -12717800000.0 -12623900000.0 -12556100000.0 -12551600000.0 -12552800000.0 -12549700000.0 -12559600000.0 -12552000000.0 -12556600000.0 -12563500000.0 -12594300000.0 -12577800000.0 -12562600000.0 -12674800000.0 -12697400000.0 -12599400000.0 -12689700000.0 -12976100000.0 -13442700000.0 -12860700000.0 -14427500000.0 -13237100000.0 -13454000000.0 -14446300000.0 -14438800000.0 -13271200000.0 -13844100000.0 -14990400000.0 -13639500000.0 -12553700000.0 -14130700000.0 -15551600000.0 -13618300000.0 -13267100000.0 -13276100000.0 -13081000000.0 -14784000000.0 -12607500000.0 -12721900000.0 -12812200000.0 -12573200000.0 -12574800000.0 -12577500000.0 -12556600000.0 -12637500000.0 -12549700000.0 -12571100000.0 -12565300000.0 -12588100000.0 -12583100000.0 -12606800000.0 -12549900000.0 -12621800000.0 -12556400000.0 -12558300000.0 -12563900000.0 -12583400000.0 -12555900000.0 -12675500000.0 -12668600000.0 -12609800000.0 -12909500000.0 -12950100000.0 -12929900000.0 -12717900000.0 -14008900000.0 -12871200000.0 -12624500000.0 -14505000000.0 -13891600000.0 -13767100000.0 -13846300000.0 -12557000000.0 -13437900000.0 -13057800000.0 -16206900000.0 -13709400000.0 -13703900000.0 -15168500000.0 -13080500000.0 -13186600000.0 -14655700000.0 -12733900000.0 -12581500000.0 -12990900000.0 -13201300000.0 -13538200000.0 -13277700000.0 -13016400000.0 -15823600000.0 -14022800000.0 -13525300000.0 -12818800000.0 -18075200000.0 -14674500000.0 -15504700000.0 -13691600000.0 -14492000000.0 -13079000000.0 -13361800000.0 -13153000000.0 -12549700000.0 -15184700000.0 -12626900000.0 -12673100000.0 -12854300000.0 -13298300000.0 -13247800000.0 -14012700000.0 -14420400000.0 -12560400000.0 -13885300000.0 -12788200000.0 -14431100000.0 -12690400000.0 -15478000000.0 -17514400000.0 -12549700000.0 -13562300000.0 -14473700000.0 -12549700000.0 -13374800000.0 -13226400000.0 -14605100000.0 -12621300000.0 -12636100000.0 -12549700000.0 -12978100000.0 -13289500000.0 -13248800000.0 -14630100000.0 -14202700000.0 -12890200000.0 -13827800000.0 -12718700000.0 -12732500000.0 -17145300000.0 -13357200000.0 -12793500000.0 -14491600000.0 -12921200000.0 -13245800000.0 -13917800000.0 -12737700000.0 -12628400000.0 -12549700000.0 -12549700000.0 -12663100000.0 -13061100000.0 -13064500000.0 -13298500000.0 -13538400000.0 -12957900000.0 -14099900000.0 -13466300000.0 -13455300000.0 -17277700000.0 -12856000000.0 -13213200000.0 -13107600000.0 -12858600000.0 -13064900000.0 -13990100000.0 -13310700000.0 -12856200000.0 -12638800000.0 -12549700000.0 -12549700000.0 -12549700000.0 -12549700000.0 -12549700000.0 -12549700000.0 -12549700000.0 -12549700000.0 -12549700000.0 -12549700000.0 -12549700000.0 -12549700000.0 -12549700000.0 -12549700000.0 -12549700000.0 -12549700000.0 -12549700000.0 -12635100000.0 -12999700000.0 -12829300000.0 -12850200000.0 -13329900000.0 -13551000000.0 -13680500000.0 -13044700000.0 -17692900000.0 -13293900000.0 -13059100000.0 -12784600000.0 -14116000000.0 -14561100000.0 -14651800000.0 -13132900000.0 -13034100000.0 -12711300000.0 -12624100000.0 -12549700000.0 -12549700000.0 -12549700000.0 -12549700000.0 -12549700000.0 -12549700000.0 -12549700000.0 -12549700000.0 -12549700000.0 -12549700000.0 -12549700000.0 -12549700000.0 -12549700000.0 -12549700000.0 -12549700000.0 -12549700000.0 -12549700000.0 -12549700000.0 -12549700000.0 -12549700000.0 -12549700000.0 -12549700000.0 -12549700000.0 -12549700000.0 -12549700000.0 -12549700000.0 -12549700000.0 -12549700000.0 -12549700000.0 -12549700000.0 -12549800000.0 -12549700000.0 -12583600000.0 -12772300000.0 -12883000000.0 -12571600000.0 -12828300000.0 -13573800000.0 -14809300000.0 -14425100000.0 -13957800000.0 -13815300000.0 -13350700000.0 -13804300000.0 -15618200000.0 -12637600000.0 -13049200000.0 -12617300000.0 -14669400000.0 -13312600000.0 -12593900000.0 -12563300000.0 -13483600000.0 -12670400000.0 -12567000000.0 -12549700000.0 -12549700000.0 -12549700000.0 -12549700000.0 -12549700000.0 -12549700000.0 -12549700000.0 -12549700000.0 -12549700000.0 -12549700000.0 -12549700000.0 -12549700000.0 -12549700000.0 -12549700000.0 -12549700000.0 -12549700000.0 -12549700000.0 -12549700000.0 -12549700000.0 -12549700000.0 -12549700000.0 -12549700000.0 -12549700000.0 -12549700000.0 -12549700000.0 -12549700000.0 -12549700000.0 -12549700000.0 -12549700000.0 -12549700000.0 -12549700000.0 -12549700000.0 -12550000000.0 -12558500000.0 -12615900000.0 -12692200000.0 -13068800000.0 -12858500000.0 -12956400000.0 -13399300000.0 -13698500000.0 -13210800000.0 -12775900000.0 -13075000000.0 -13476700000.0 -15992000000.0 -13387600000.0 -13659900000.0 -14250600000.0 -13669900000.0 -12701000000.0 -12554400000.0 -12715900000.0 -13571200000.0 -12579700000.0 -12585200000.0 -12675800000.0 -12610900000.0 -12569900000.0 -12550700000.0 -12549700000.0 -12549700000.0 -12549700000.0 -12549700000.0 -12549700000.0 -12549700000.0 -12549700000.0 -12549700000.0 -12549700000.0 -12549700000.0 -12549700000.0 -12549700000.0 -12549700000.0 -12549700000.0 -12549700000.0 -12549700000.0 -12549700000.0 -12549700000.0 -12549700000.0 -12549700000.0 -12549700000.0 -12549700000.0 -12549700000.0 -12549700000.0 -12549700000.0 -12549700000.0 -12549700000.0 -12549700000.0 -12549700000.0 -12549700000.0 -12549700000.0 -12549700000.0 -12549700000.0 -12549700000.0 -12549700000.0 -12549700000.0 -12549700000.0 -12549700000.0 -12549700000.0 -12549700000.0 -12549700000.0 -12549700000.0 -12550200000.0 -12594400000.0 -12651400000.0 -12773300000.0 -12786800000.0 -13218600000.0 -13628500000.0 -13233500000.0 -13122100000.0 -13599500000.0 -13307000000.0 -13624800000.0 -14290000000.0 -14924000000.0 -14740500000.0 -13962300000.0 -14070300000.0 -12662900000.0 -13315600000.0 -13414300000.0 -12770500000.0 -12554300000.0 -12559500000.0 -12551800000.0 -12549700000.0 -12549700000.0 -12549700000.0 -12549700000.0 -12549700000.0 -12549700000.0 -12549700000.0 -12549700000.0 -12549700000.0 -12549700000.0 -12549700000.0 -12549700000.0 -12549700000.0 -12549700000.0 -12549700000.0 -12549700000.0 -12549700000.0 -12549700000.0 -12549700000.0 -12549700000.0 -12549700000.0 -12549700000.0 -12549700000.0 -12549700000.0 -12549700000.0 -12549700000.0 -12549700000.0 -12549700000.0 -12549700000.0 -12549700000.0 -12549700000.0 -12549700000.0 -12549700000.0 -12549700000.0 -12549700000.0 -12549700000.0 -12549700000.0 -12549700000.0 -12549700000.0 -12549700000.0 -12549700000.0 -12549700000.0 -12549700000.0 -12549700000.0 -12551400000.0 -12549700000.0 -12566600000.0 -12630600000.0 -13029800000.0 -12731200000.0 -13475500000.0 -12555700000.0 -13182500000.0 -13039900000.0 -13070000000.0 -14676000000.0 -13926800000.0 -13160000000.0 -14810500000.0 -12549700000.0 -13698600000.0 -14202800000.0 -15301100000.0 -13428300000.0 -13231000000.0 -12823300000.0 -12853500000.0 -12665300000.0 -12581700000.0 -12563300000.0 -12553500000.0 -12551900000.0 -12550700000.0 -12549800000.0 -12549800000.0 -12549700000.0 -12549700000.0 -12549700000.0 -12549700000.0 -12549700000.0 -12549700000.0 -12549700000.0 -12549700000.0 -12549700000.0 -12549700000.0 -12549700000.0 -12549700000.0 -12549700000.0 -12549700000.0 -12549700000.0 -12549700000.0 -12549700000.0 -12549700000.0 -12549700000.0 -12549700000.0 -12549700000.0 -12549700000.0 -12549700000.0 -12549700000.0 -12549700000.0 -12549700000.0 -12549700000.0 -12549700000.0 -12549700000.0 -12549700000.0 -12549700000.0 -12549700000.0 -12549700000.0 -12549700000.0 -12549700000.0 -12549700000.0 -12549700000.0 -12549700000.0 -12549700000.0 -12549700000.0 -12549700000.0 -12549700000.0 -12549700000.0 -12552100000.0 -12569700000.0 -12581400000.0 -12680000000.0 -12692300000.0 -12686500000.0 -12568400000.0 -12643800000.0 -14044300000.0 -13755600000.0 -13380700000.0 -14100500000.0 -13060100000.0 -12988700000.0 -14485200000.0 -12575500000.0 -14145300000.0 -13816800000.0 -12603000000.0 -14621000000.0 -14366600000.0 -13340800000.0 -12565100000.0 -12549700000.0 -12550100000.0 -12549700000.0 -12549700000.0 -12549700000.0 -12549700000.0 -12549700000.0 -12549700000.0 -12549700000.0 -12549700000.0 -12549700000.0 -12549700000.0 -12549700000.0 -12549700000.0 -12549700000.0 -12549700000.0 -12549700000.0 -12549700000.0 -12549700000.0 -12549700000.0 -12549700000.0 -12549700000.0 -12549700000.0 -12549700000.0 -12549700000.0 -12549700000.0 -12549700000.0 -12549700000.0 -12549700000.0 -12549700000.0 -12549700000.0 -12549700000.0 -12549700000.0 -12549700000.0 -12549700000.0 -12549700000.0 -12549700000.0 -12549700000.0 -12549700000.0 -12549700000.0 -12549700000.0 -12549700000.0 -12549700000.0 -12549700000.0 -12549700000.0 -12549700000.0 -12549700000.0 -12549700000.0 -12603500000.0 -12846800000.0 -13058800000.0 -13614800000.0 -13617100000.0 -12553400000.0 -12839000000.0 -13046200000.0 -13950400000.0 -12592000000.0 -13611100000.0 -12723600000.0 -12709400000.0 -12685800000.0 -13513000000.0 -13479800000.0 -14353100000.0 -13088200000.0 -13214100000.0 -12765600000.0 -12799100000.0 -12581000000.0 -12646900000.0 -12575500000.0 -12615400000.0 -12555800000.0 -12549700000.0 -12549700000.0 -12549700000.0 -12549700000.0 -12549700000.0 -12549700000.0 -12549700000.0 -12549700000.0 -12549700000.0 -12549700000.0 -12549700000.0 -12549700000.0 -12549700000.0 -12549700000.0 -12549700000.0 -12549700000.0 -12549700000.0 -12549700000.0 -12549700000.0 -12549700000.0 -12549700000.0 -12549700000.0 -12549700000.0 -12549700000.0 -12549700000.0 -12549700000.0 -12549700000.0 -12549700000.0 -12549700000.0 -12549700000.0 -12549700000.0 -12549700000.0 -12549700000.0 -12549700000.0 -12549700000.0 -12549700000.0 -12549700000.0 -12549700000.0 -12549700000.0 -12549700000.0 -12549700000.0 -12549700000.0 -12549700000.0 -12549700000.0 -12549700000.0 -12576600000.0 -13283200000.0 -12672800000.0 -12611300000.0 -12702100000.0 -12697800000.0 -12770800000.0 -13098300000.0 -12576700000.0 -13026100000.0 -13263100000.0 -12979400000.0 -12841100000.0 -12549700000.0 -14546600000.0 -14736600000.0 -12549700000.0 -12549700000.0 -12601900000.0 -13204900000.0 -12625300000.0 -12549700000.0 -12549700000.0 -12549700000.0 -12549700000.0 -12549700000.0 -12549700000.0 -12549700000.0 -12549700000.0 -12549700000.0 -12549700000.0 -12549700000.0 -12549700000.0 -12549700000.0 -12549700000.0 -12549700000.0 -12549700000.0 -12549700000.0 -12549700000.0 -12549700000.0 -12549700000.0 -12549700000.0 -12549700000.0 -12549700000.0 -12549700000.0 -12549700000.0 -12549700000.0 -12549700000.0 -12549700000.0 -12549700000.0 -12549700000.0 -12549700000.0 -12549700000.0 -12549700000.0 -12549700000.0 -12549700000.0 -12549700000.0 -12549700000.0 -12549700000.0 -12549700000.0 -12549700000.0 -12603400000.0 -12985100000.0 -13171300000.0 -12677500000.0 -12623900000.0 -12645300000.0 -12552200000.0 -13044600000.0 -13560100000.0 -12839800000.0 -12827900000.0 -12766100000.0 -14169900000.0 -12905500000.0 -14500000000.0 -13205600000.0 -13326700000.0 -12637900000.0 -12549700000.0 -12549700000.0 -12549700000.0 -12549700000.0 -12549700000.0 -12549700000.0 -12549700000.0 -12549700000.0 -12549700000.0 -12549700000.0 -12549700000.0 -12549700000.0 -12549700000.0 -12549700000.0 -12549700000.0 -12549700000.0 -12549700000.0 -12549700000.0 -12549700000.0 -12549700000.0 -12549700000.0 -12549700000.0 -12549700000.0 -12549700000.0 -12549700000.0 -12549700000.0 -12549700000.0 -12549700000.0 -12549700000.0 -12549700000.0 -12549700000.0 -12549700000.0 -12549700000.0 -12549700000.0 -12549700000.0 -12549700000.0 -12549700000.0 -12549700000.0 -12549700000.0 -12630400000.0 -12769700000.0 -13032000000.0 -12637900000.0 -12698100000.0 -12752600000.0 -12719400000.0 -12877400000.0 -12930800000.0 -13847100000.0 -13117900000.0 -13823200000.0 -14941400000.0 -12982200000.0 -13494100000.0 -13349000000.0 -12881700000.0 -13114100000.0 -12670000000.0 -12603200000.0 -12549700000.0 -12549700000.0 -12549700000.0 -12549700000.0 -12549700000.0 -12549700000.0 -12549700000.0 -12549700000.0 -12549700000.0 -12549700000.0 -12549700000.0 -12549700000.0 -12549700000.0 -12549700000.0 -12549700000.0 -12549700000.0 -12549700000.0 -12549700000.0 -12549700000.0 -12549700000.0 -12549700000.0 -12549700000.0 -12549700000.0 -12549700000.0 -12549700000.0 -12549700000.0 -12549700000.0 -12549700000.0 -12549700000.0 -12549700000.0 -12549700000.0 -12549700000.0 -12549700000.0 -12549700000.0 -12549700000.0 -12549700000.0 -12549700000.0 -12568000000.0 -12553000000.0 -12782100000.0 -12552900000.0 -12979800000.0 -12646800000.0 -12555700000.0 -12655300000.0 -12805100000.0 -13216700000.0 -12971300000.0 -12749400000.0 -13607300000.0 -12710400000.0 -13676000000.0 -12565200000.0 -13841700000.0 -13400100000.0 -12733400000.0 -12922300000.0 -12553900000.0 -12567900000.0 -12549700000.0 -12549700000.0 -12549700000.0 -12549700000.0 -12549700000.0 -12549700000.0 -12549700000.0 -12549700000.0 -12549700000.0 -12549700000.0 -12549700000.0 -12549700000.0 -12549700000.0 -12549700000.0 -12549700000.0 -12549700000.0 -12549700000.0 -12549700000.0 -12549700000.0 -12549700000.0 -12549700000.0 -12549700000.0 -12549700000.0 -12549700000.0 -12549700000.0 -12549700000.0 -12549700000.0 -12549700000.0 -12549700000.0 -12549700000.0 -12549700000.0 -12549700000.0 -12549700000.0 -12578700000.0 -12786600000.0 -12560900000.0 -12961900000.0 -12574500000.0 -12667400000.0 -12753400000.0 -12930300000.0 -12883400000.0 -12558400000.0 -13278400000.0 -12601000000.0 -12784400000.0 -13975000000.0 -12728300000.0 -13156100000.0 -12907600000.0 -12967200000.0 -12833100000.0 -12578700000.0 -12549700000.0 -12549700000.0 -12549700000.0 -12549700000.0 -12549700000.0 -12549700000.0 -12549700000.0 -12549700000.0 -12549700000.0 -12549700000.0 -12549700000.0 -12549700000.0 -12549700000.0 -12549700000.0 -12549700000.0 -12549700000.0 -12549700000.0 -12549700000.0 -12549700000.0 -12549700000.0 -12549700000.0 -12549700000.0 -12993200000.0 -13069100000.0 -13117300000.0 -13171400000.0 -13264500000.0 -13624900000.0 -13331000000.0 -13525900000.0 -13739400000.0 -13812100000.0 -13742700000.0 -14233300000.0 -12621500000.0 -13047800000.0 -12563000000.0 -12739000000.0 -12553600000.0 -12759900000.0 -12718100000.0 -12668600000.0 -12549700000.0 -12549700000.0 -12549700000.0 -12549700000.0 -12549700000.0 -12549700000.0 -12549700000.0 -12549700000.0 -12549700000.0 -12549700000.0 -12549700000.0 -12549700000.0 -12549700000.0 -12549700000.0 -12549700000.0 -12549700000.0 -12549700000.0 -12549700000.0 -12549700000.0 -12804900000.0 -12674800000.0 -12641400000.0 -12703200000.0 -12643200000.0 -12712500000.0 -12970300000.0 -12993500000.0 -13447000000.0 -13137200000.0 -12578000000.0 -12549700000.0 -13794500000.0 -13053900000.0 -12917200000.0 -12549700000.0 -12550100000.0 -12668400000.0 -12608800000.0 -12586800000.0 -12549700000.0 -12549700000.0 -12549700000.0 -12549700000.0 -12549700000.0 -12549700000.0 -12549700000.0 -12549700000.0 -12549700000.0 -12549700000.0 -12549700000.0 -12549700000.0 -12549700000.0 -12549700000.0 -12549700000.0 -12549700000.0 -12549700000.0 -12588800000.0 -12709100000.0 -12729200000.0 -12694400000.0 -12675400000.0 -12701100000.0 -12893700000.0 -12648100000.0 -12742300000.0 -12781900000.0 -12622400000.0 -12805100000.0 -12573300000.0 -12614100000.0 -13467000000.0 -12549700000.0 -12938000000.0 -12711500000.0 -12600600000.0 -12573400000.0 -12549700000.0 -12549700000.0 -12549700000.0 -12549700000.0 -12549700000.0 -12549700000.0 -12549700000.0 -12549700000.0 -12549700000.0 -12549700000.0 -12549700000.0 -12549700000.0 -12549700000.0 -12549700000.0 -12552500000.0 -12559600000.0 -12567300000.0 -12601300000.0 -12722200000.0 -12556300000.0 -12559100000.0 -12571700000.0 -12587200000.0 -12708100000.0 -12575300000.0 -12661900000.0 -12733800000.0 -12553700000.0 -12810400000.0 -12737400000.0 -12946200000.0 -12958000000.0 -12549700000.0 -13022800000.0 -12549700000.0 -12571500000.0 -12549700000.0 -12549700000.0 -12549700000.0 -12549700000.0 -12549700000.0 -12549700000.0 -12549700000.0 -12549700000.0 -12549700000.0 -12553900000.0 -12651300000.0 -12551300000.0 -12590700000.0 -12549700000.0 -12549700000.0 -12556200000.0 -12647400000.0 -12571600000.0 -12549700000.0 -12748500000.0 -12660400000.0 -12657700000.0 -12610000000.0 -12672500000.0 -12614600000.0 -12568500000.0 -12855100000.0 -12549700000.0 -12605400000.0 -12549700000.0 -12549700000.0 -12549700000.0 -12549700000.0 -12549700000.0 -12549700000.0 -12549700000.0 -12556900000.0 -12577300000.0 -12562600000.0 -12556600000.0 -12553200000.0 -12606800000.0 -12550300000.0 -12557200000.0 -12727000000.0 -12645800000.0 -12549700000.0 -12550200000.0 -12549800000.0 -12576700000.0 -12554600000.0 -12562600000.0 -12559300000.0 -12751300000.0 -12553900000.0 -12549700000.0 -12549700000.0 -12549700000.0 -12549700000.0 -12549700000.0 -12549700000.0 -12549700000.0 -12549700000.0 -12549700000.0 -12549700000.0 -12549700000.0 -12549700000.0 -12552900000.0 -12554700000.0 -12566200000.0 -12564100000.0 -12566700000.0 -12572900000.0 -12611700000.0 -12608900000.0 -12645000000.0 -12551300000.0 -12557800000.0 -12566300000.0 -12558300000.0 -12557100000.0 -12557100000.0 -12551400000.0 -12550800000.0 -12584000000.0 -12550300000.0 -12557100000.0 -12549700000.0 -12549700000.0 -12549700000.0 -12549700000.0 -12549700000.0 -12549700000.0 -12549700000.0 -47930900000.0 -12549700000.0 -12549700000.0 -12549700000.0 -12549700000.0 -12549900000.0 -12549700000.0 -12549700000.0 -12549700000.0 -2.6833e+12 -4.11126e+12 -3.66698e+12 -4.86801e+12 -4.08787e+12 -4.12567e+12 -3.98517e+12 -3.82438e+12 -3.4964e+12 -3.23204e+12 -5.86927e+12 -2.99931e+12 -3.47611e+12 -5.0837e+12 -4.76973e+12 -6.36489e+12 -4.39158e+12 -3.13438e+12 -4.1844e+12 -2.86986e+12 -1.90085e+12 -105888000000.0 -4.87611e+12 -5.53115e+12 -5.08558e+12 -4.99741e+12 -3.73548e+12 -4.03156e+12 -3.67873e+12 -4.54357e+12 -4.22707e+12 -5.81297e+12 -4.83153e+12 -307439000000.0 -2.37935e+12 -3.55963e+12 -4.33668e+12 -4.37887e+12 -6.54455e+12 -3.72473e+12 -5.01432e+12 -4.69725e+12 -3.78617e+12 -3.95863e+12 -3.15299e+12 -4.21854e+12 -4.65864e+12 -2.82528e+12 -4.50657e+12 -5.13075e+12 -4.29368e+12 -2.23945e+12 -3.4116e+12 -2.21121e+12 -12549700000.0 -3.56935e+12 -2.60572e+12 -4.11914e+12 -3.04564e+12 -4.82653e+12 -6.89878e+12 -4.38612e+12 -3.32167e+12 -4.80542e+12 -4.55454e+12 -4.28342e+12 -4.08012e+12 -5.89528e+12 -6.65975e+12 -5.24389e+12 -3.73289e+12 -5.32436e+12 -7.36187e+12 -4.53824e+12 -4.9977e+12 -5.69524e+12 -4.60321e+12 -4.41674e+12 -6.6176e+12 -5.95644e+12 -2.56545e+12 -4.07224e+12 -3.76291e+12 -3.65611e+12 -4.647e+12 -3.99498e+12 -3.87887e+12 -5.22407e+12 -4.606e+12 -3.91175e+12 -4.37173e+12 -4.58266e+12 -2.71943e+12 -5.23031e+12 -4.14488e+12 -5.74116e+12 -6.52656e+12 -6.13951e+12 -5.88856e+12 -5.28924e+12 -5.08611e+12 -6.74e+12 -4.32625e+12 -4.97527e+12 -6.39633e+12 -4.29135e+12 -4.93079e+12 -2.86177e+12 -2.62045e+12 -6.62344e+12 -5.44424e+12 -8.64831e+12 -6.16128e+12 -6.13607e+12 -7.77565e+12 -1.11665e+13 -5.48509e+12 -7.27956e+12 -4.08032e+12 -5.72323e+12 -4.74625e+12 -7.19379e+12 -7.06087e+12 -1.87862e+12 -5.21887e+12 -6.86665e+12 -4.29298e+12 -4.74901e+12 -6.06573e+12 -5.74233e+12 -2.50847e+12 -5.42338e+12 -6.78296e+12 -7.14007e+12 -1.11888e+13 -5.44454e+12 -6.18899e+12 -6.35829e+12 -5.42702e+12 -7.42443e+12 -8.52825e+12 -5.33681e+12 -4.87422e+12 -8.7295e+12 -9.04852e+12 -7.93322e+12 -5.36249e+12 -5.22347e+12 -7.35507e+12 -6.24944e+12 -6.93295e+12 -6.80349e+12 -8.07055e+12 -4.5562e+12 -7.3936e+12 -1.07857e+13 -4.19821e+12 -3.66379e+12 -2.47099e+12 -4.94658e+12 -7.24666e+12 -5.9799e+12 -3.88072e+12 -6.32934e+12 -7.74081e+12 -6.76961e+12 -6.59802e+12 -3.16653e+12 -4.23605e+12 -4.22015e+12 -4.88572e+12 -4.49694e+12 -5.9443e+12 -5.03125e+12 -9.38508e+12 -6.66048e+12 -2.80111e+12 -1.07384e+13 -4.90436e+12 -4.20008e+12 -6.62813e+12 -3.85126e+12 -7.12345e+12 -7.1366e+12 -3.99963e+12 -4.82989e+12 -4.20828e+12 -5.21804e+12 -8.15792e+12 -6.86042e+12 -7.70667e+12 -5.51892e+12 -9.84474e+12 -3.37946e+12 -4.90474e+12 -4.01546e+12 -2.30724e+12 -7.0707e+12 -7.50865e+12 -4.21497e+12 -4.26057e+12 -6.25949e+12 -1.05147e+13 -6.45867e+12 -1.03268e+13 -7.23182e+12 -5.2078e+12 -8.92933e+12 -7.76094e+12 -5.30511e+12 -6.5362e+12 -7.34376e+12 -7.61576e+12 -4.61613e+12 -6.72316e+12 -8.81554e+12 -1.03363e+13 -5.10334e+12 -7.6161e+12 -7.77604e+12 -4.60084e+12 -5.60756e+12 -4.91628e+12 -8.30842e+12 -6.49169e+12 -6.84637e+12 -8.39688e+12 -6.83266e+12 -6.30216e+12 -6.26929e+12 -7.11874e+12 -5.5234e+12 -1.52636e+12 -2.96473e+12 -5.63507e+12 -5.02637e+12 -4.31511e+12 -5.60668e+12 -6.47828e+12 -8.53571e+12 -1.02104e+13 -6.91424e+12 -5.62789e+12 -4.92081e+12 -6.37833e+12 -7.24343e+12 -3.8254e+12 -6.417e+12 -8.28705e+12 -7.03065e+12 -4.84576e+12 -6.04471e+12 -7.77209e+12 -6.00242e+12 -6.10854e+12 -9.6639e+12 -5.66921e+12 -6.92752e+12 -7.5328e+12 -8.5866e+12 -4.12453e+12 -4.74195e+12 -6.54431e+12 -7.32609e+12 -7.00619e+12 -5.10745e+12 -7.84337e+12 -6.09943e+12 -5.4461e+12 -5.12806e+12 -7.46901e+12 -9.13282e+12 -4.73743e+12 -6.39563e+12 -1.74366e+12 -3.56777e+12 -4.61726e+12 -6.71706e+12 -6.82971e+12 -4.2183e+12 -5.87542e+12 -2.2027e+12 -5.54878e+12 -7.20934e+12 -5.94365e+12 -5.69596e+12 -8.96437e+12 -6.60921e+12 -6.14696e+12 -5.73206e+12 -6.84785e+12 -5.09569e+12 -7.48977e+12 -6.05165e+12 -5.66229e+12 -7.58608e+12 -6.40172e+12 -5.27667e+12 -8.12449e+12 -6.26562e+12 -2.72776e+12 -7.12866e+12 -6.14006e+12 -2.78051e+12 -6.34654e+12 -8.23161e+12 -9.5918e+12 -5.01028e+12 -5.34221e+12 -5.83777e+12 -4.49612e+12 -9.27475e+12 -5.47579e+12 -5.3835e+12 -6.05846e+12 -7.09223e+12 -3.87252e+12 -5.51677e+12 -8.51846e+12 -4.71436e+12 -6.29936e+12 -3.91447e+12 -3.64159e+12 -4.43497e+12 -4.99376e+12 -6.7846e+12 -2.46766e+12 -5.0387e+12 -4.69141e+12 -4.52053e+12 -4.17362e+12 -9.20846e+12 -3.20802e+12 -2.28981e+12 -4.31925e+12 -4.89072e+12 -5.81437e+12 -6.14433e+12 -1.09736e+13 -5.1821e+12 -8.08889e+12 -9.37521e+12 -6.67003e+12 -6.07131e+12 -2.91748e+12 -6.59179e+12 -5.68667e+12 -2.62388e+12 -4.39491e+12 -3.78037e+12 -5.82095e+12 -4.20639e+12 -3.8043e+12 -7.43773e+12 -5.60436e+12 -5.38159e+12 -4.0221e+12 -5.71669e+12 -1.0276e+13 -6.5858e+12 -6.0626e+12 -3.83999e+12 -9.30437e+12 -9.60177e+12 -7.58872e+12 -3.74195e+12 -7.93596e+12 -4.5932e+12 -6.10577e+12 -4.88027e+12 -6.39608e+12 -5.15321e+12 -6.17869e+12 -6.53747e+12 -6.54149e+12 -6.11717e+12 -4.50047e+12 -7.30466e+12 -8.11794e+12 -4.97601e+12 -5.83768e+12 -8.34373e+12 -3.77863e+12 -3.91709e+12 -3.6853e+12 -5.69265e+12 -5.98134e+12 -4.04774e+12 -5.90257e+12 -3.96907e+12 -4.86313e+12 -4.87471e+12 -7.30041e+12 -7.85706e+12 -8.9311e+12 -5.49145e+12 -4.48905e+12 -4.16672e+12 -3.09361e+12 -2.17038e+12 -6.66059e+12 -4.45584e+12 -9.00829e+12 -7.40672e+12 -6.24738e+12 -1.01987e+13 -5.12956e+12 -3.78095e+12 -4.61041e+12 -5.90856e+12 -4.79363e+12 -4.94274e+12 -6.23979e+12 -5.60166e+12 -4.76773e+12 -4.92507e+12 -6.05021e+12 -4.93161e+12 -6.86757e+12 -4.97211e+12 -4.14357e+12 -5.04876e+12 -3.87237e+12 -4.69245e+12 -8.4747e+12 -3.92353e+12 -7.20237e+12 -8.1013e+12 -7.11956e+12 -3.97269e+12 -4.23075e+12 -3.42444e+12 -4.72784e+12 -2.2307e+12 -5.84336e+12 -4.2577e+12 -5.04003e+12 -5.65981e+12 -3.85404e+12 -8.8596e+12 -6.64751e+12 -5.68919e+12 -4.01441e+12 -3.95797e+12 -5.17218e+12 -7.14968e+12 -3.23084e+12 -5.50883e+12 -7.6386e+12 -4.49082e+12 -5.99631e+12 -5.77665e+12 -6.87124e+12 -5.83666e+12 -6.48378e+12 -5.8274e+12 -5.07832e+12 -3.85738e+12 -5.26914e+12 -4.48872e+12 -3.38378e+12 -5.80598e+12 -5.12044e+12 -7.57263e+12 -8.51628e+12 -5.19103e+12 -4.29196e+12 -4.28388e+12 -5.75985e+12 -5.8163e+12 -5.64647e+12 -7.20969e+12 -4.15071e+12 -8.16801e+12 -4.27779e+12 -8.50093e+12 -3.37146e+12 -3.48546e+12 -2.97237e+12 -2.89245e+12 -2.26895e+12 -3.75046e+12 -3.77474e+12 -8.52859e+12 -2.89263e+12 -3.61812e+12 -3.00292e+12 -5.11367e+12 -5.42861e+12 -5.52245e+12 -4.67321e+12 -2.56131e+12 -5.00087e+12 -7.54613e+12 -6.80094e+12 -7.69946e+12 -6.33541e+12 -6.82099e+12 -3.61566e+12 -4.05107e+12 -5.75675e+12 -6.29303e+12 -6.04804e+12 -7.62155e+12 -4.4147e+12 -5.95505e+12 -5.53131e+12 -5.78965e+12 -3.30457e+12 -3.60833e+12 -4.3122e+12 -5.52786e+12 -5.42638e+12 -3.556e+12 -4.44043e+12 -4.47357e+12 -7.39876e+12 -6.42458e+12 -3.3496e+12 -4.40735e+12 -3.0905e+12 -7.31155e+12 -4.29042e+12 -5.78996e+12 -3.81105e+12 -4.26386e+12 -4.97333e+12 -3.03742e+12 -4.45865e+12 -1.01773e+13 -4.43056e+12 -6.94786e+12 -6.71888e+12 -8.01857e+12 -4.18637e+12 -4.50728e+12 -655053000000.0 -5.98556e+12 -4.12386e+12 -9.6365e+12 -4.20829e+12 -4.98041e+12 -5.23894e+12 -4.1327e+12 -3.71799e+12 -4.55388e+12 -2.94496e+12 -4.8597e+12 -4.14606e+12 -6.81662e+12 -6.00874e+12 -4.59096e+12 -7.24209e+12 -2.72473e+12 -6.54397e+12 -4.06587e+12 -7.9879e+12 -4.71129e+12 -5.92792e+12 -5.06374e+12 -7.36832e+12 -7.23944e+12 -4.05248e+12 -4.1807e+12 -2.65786e+12 -7.77678e+12 -6.49163e+12 -7.0582e+12 -3.26946e+12 -5.16353e+12 -4.91083e+12 -5.31939e+12 -3.66706e+12 -5.82776e+12 -6.26962e+12 -7.20932e+12 -2.728e+12 -4.38866e+12 -3.41353e+12 -4.58111e+12 -5.24797e+12 -3.60443e+12 -2.31643e+12 -2.11002e+12 -2.04518e+12 -4.7137e+12 -7.03421e+12 -4.40267e+12 -4.38005e+12 -4.28637e+12 -3.5303e+12 -3.58898e+12 -3.55569e+12 -3.99748e+12 -3.75022e+12 -3.38491e+12 -6.50759e+12 -4.32485e+12 -3.88087e+12 -5.08876e+12 -6.2974e+12 -5.33894e+12 -3.03229e+12 -3.93553e+12 -3.63619e+12 -4.38881e+12 -3.66987e+12 -5.27156e+12 -4.79788e+12 -5.23295e+12 -3.13083e+12 -3.41492e+12 -6.24183e+12 -4.99002e+12 -4.21033e+12 -5.1201e+12 -3.34672e+12 -1.96832e+12 -3.64771e+12 -5.65599e+12 -4.59174e+12 -5.9261e+12 -7.31402e+12 -2.92968e+12 -2.6142e+12 -4.49804e+12 -3.47467e+12 -4.43462e+12 -5.92625e+12 -6.10785e+12 -2.22316e+12 -4.55116e+12 -4.98117e+12 -6.16551e+12 -5.28953e+12 -4.41208e+12 -3.32375e+12 -5.23353e+12 -3.86974e+12 -2.81592e+12 -6.51832e+12 -7.41277e+12 -4.72755e+12 -6.37829e+12 -3.06082e+12 -6.98602e+12 -1.98486e+12 -5.74477e+12 -2.37377e+12 -6.38835e+12 -6.24596e+12 -4.44234e+12 -5.83368e+12 -3.97197e+12 -4.70451e+12 -6.17456e+12 -5.48439e+12 -5.85577e+12 -6.01578e+12 -5.7933e+12 -5.67684e+12 -4.91603e+12 -6.11862e+12 -5.16444e+12 -2.45299e+12 -6.2321e+12 -1.64243e+12 -5.24511e+12 -4.59623e+12 -3.49889e+12 -1.3883e+12 -4.7478e+12 -5.18486e+12 -6.70402e+12 -4.2002e+12 -5.52868e+12 -3.60229e+12 -4.7502e+12 -8.47546e+12 -3.29942e+12 -5.3208e+12 -3.14607e+12 -6.82335e+12 -3.03925e+12 -5.71156e+12 -3.98833e+12 -5.41913e+12 -3.51179e+12 -4.04017e+12 -6.44754e+12 -3.45014e+12 -7.35736e+12 -4.95966e+12 -622146000000.0 -6.29949e+12 -3.07577e+12 -4.56751e+12 -4.26556e+12 -4.07878e+12 -2.93063e+12 -5.45717e+12 -4.19144e+12 -2.87016e+12 -6.11002e+12 -1.77771e+12 -4.66207e+12 -5.50914e+12 -5.83414e+12 -6.69068e+12 -3.53217e+12 -4.6813e+12 -3.84253e+12 -2.58703e+12 -3.63387e+12 -3.82284e+12 -3.74723e+12 -4.18294e+12 -6.68001e+12 -3.91291e+12 -8.33176e+12 -2.75102e+12 -6.00818e+12 -2.79656e+12 -3.63435e+12 -3.40093e+12 -3.65426e+12 -2.47864e+12 -3.60168e+12 -6.01589e+12 -3.90499e+12 -4.85118e+12 -5.81837e+12 -5.79799e+12 -3.74271e+12 -6.53515e+12 -3.12138e+12 -2.34206e+12 -5.98145e+12 -4.65366e+12 -5.32747e+12 -4.35988e+12 -2.8223e+12 -1.99886e+12 -6.79079e+12 -2.77922e+12 -4.06475e+12 -4.06783e+12 -6.73406e+12 -4.04557e+12 -5.66104e+12 -2.95889e+12 -4.3441e+12 -4.02878e+12 -4.32261e+12 -4.9497e+12 -2.78325e+12 -5.58855e+12 -4.60602e+12 -4.16537e+12 -5.26373e+12 -4.97215e+12 -2.84807e+12 -3.20283e+12 -2.6918e+12 -3.75191e+12 -4.0867e+12 -4.70883e+12 -2.45624e+12 -3.89179e+12 -3.07234e+12 -4.62423e+12 -5.35935e+12 -2.69572e+12 -5.03621e+12 -4.34141e+12 -3.48992e+12 -4.27822e+12 -3.05553e+12 -3.51519e+12 -3.42982e+12 -5.48725e+12 -3.21388e+12 -2.84102e+12 -4.10097e+12 -3.38857e+12 -3.01449e+12 -2.72338e+12 -2.89585e+12 -3.83638e+12 -4.22115e+12 -3.74001e+12 -2.72891e+12 -3.43759e+12 -6.3096e+12 -4.23427e+12 -5.32312e+12 -2.55662e+12 -3.74332e+12 -4.19305e+12 -3.79352e+12 -4.21406e+12 -3.30897e+12 -5.74223e+12 -3.17562e+12 -3.14055e+12 -2.50717e+12 -3.76817e+12 -4.95015e+12 -2.74693e+12 -5.00559e+12 -3.26442e+12 -5.23451e+12 -4.37567e+12 -5.23728e+12 -4.21471e+12 -2.25469e+12 -4.16775e+12 -3.24556e+12 -1.92094e+12 -4.27734e+12 -4.8419e+12 -3.44898e+12 -1.67506e+12 -4.21615e+12 -5.44761e+12 -2.85732e+12 -4.49392e+12 -6.87181e+12 -2.17351e+12 -5.4311e+12 -2.69505e+12 -6.08101e+12 -6.92034e+12 -5.08414e+12 -5.86267e+12 -2.66466e+12 -2.16778e+12 -3.53585e+12 -2.83299e+12 -2.28204e+12 -4.52723e+12 -2.66444e+12 -2.87899e+12 -3.2036e+12 -1.08435e+12 -3.13401e+12 -723541000000.0 -3.85651e+12 -1.4727e+12 -4.51639e+12 -2.94485e+12 -4.39592e+12 -3.12156e+12 -3.13797e+12 -4.08514e+12 -2.39163e+12 -2.21557e+12 -3.59977e+12 -4.7825e+12 -5.79591e+12 -1.68069e+12 -3.17246e+12 -4.21799e+12 -2.97193e+12 -4.29151e+12 -4.48039e+12 -3.91279e+12 -4.95249e+12 -2.73979e+12 -3.37287e+12 -7.02873e+12 -2.62479e+12 -2.18448e+12 -2.12798e+12 -2.03609e+12 -2.30515e+12 -2.88583e+12 -4.77472e+12 -2.01086e+12 -3.07686e+12 -2.67303e+12 -3.87239e+12 -2.0638e+12 -4.66026e+12 -2.54562e+12 -2.15361e+12 -2.75029e+12 -1.62377e+12 -4.01941e+12 -3.0918e+12 -2.79701e+12 -3.71789e+12 -2.43977e+12 -3.19384e+12 -4.3235e+12 -3.33008e+12 -1.86477e+12 -2.9055e+12 -3.66008e+12 -2.35003e+12 -2.59609e+12 -3.13004e+12 -2.18513e+12 -2.7784e+12 -2.70096e+12 -2.44122e+12 -2.82686e+12 -1.91233e+12 -3.79209e+12 -4.72e+12 -1.8049e+12 -2.27534e+12 -4.61747e+12 -3.44982e+12 -2.65325e+12 -2.38338e+12 -3.34923e+12 -3.13012e+12 -1.36088e+12 -2.67407e+12 -1.65271e+12 -2.78116e+12 -2.804e+12 -3.5558e+12 -3.22814e+12 -4.32588e+12 -2.92863e+12 -3.33458e+12 -2.969e+12 -4.23321e+12 -2.82743e+12 -2.70043e+12 -2.78199e+12 -1.63555e+12 -1.67382e+12 -3.25843e+12 -5.72446e+12 -3.91169e+12 -1.78911e+12 -2.72485e+12 -3.83247e+12 -3.59883e+12 -2.00712e+12 -2.83969e+12 -3.33963e+12 -3.59682e+12 -5.27561e+12 -3.16701e+12 -1.57388e+12 -2.17865e+12 -2.93555e+12 -2.59753e+12 -2.71506e+12 -2.51941e+12 -3.06177e+12 -2.50315e+12 -1.98471e+12 -4.25892e+12 -3.23516e+12 -2.1775e+12 -5.16778e+12 -2.84836e+12 -3.64128e+12 -4.13004e+12 -5.02261e+12 -1.88176e+12 -3.11003e+12 -3.62672e+12 -1.4924e+12 -3.24718e+12 -3.06941e+12 -3.02573e+12 -3.9468e+12 -5.02897e+12 -2.99266e+12 -2.95791e+12 -1.88612e+12 -4.8741e+12 -3.41213e+12 -1.88429e+12 -2.55966e+12 -2.65281e+12 -3.4566e+12 -4.53045e+12 -3.60792e+12 -3.1761e+12 -3.02768e+12 -2.08802e+12 -2.69948e+12 -2.32052e+12 -2.2279e+12 -2.39626e+12 -221973000000.0 -2.41072e+12 -2.50807e+12 -1.70201e+12 -3.62076e+12 -2.63003e+12 -2.28634e+12 -1.94586e+12 -2.13227e+12 -1.58852e+12 -2.92065e+12 -2.80252e+12 -2.13498e+12 -4.28922e+12 -3.00783e+12 -2.85864e+12 -3.47834e+12 -1.7357e+12 -1.41383e+12 -2.84148e+12 -3.54591e+12 -2.34955e+12 -4.17386e+12 -3.14398e+12 -4.93306e+12 -1.50396e+12 -4.17958e+12 -4.04326e+12 -4.62473e+12 -5.52334e+12 -1.98514e+12 -2.86033e+12 -2.57896e+12 -2.56537e+12 -2.58393e+12 -1.89238e+12 -1.87578e+12 -1.24873e+12 -1.56216e+12 -3.74197e+12 -1.1201e+12 -3.60484e+12 -2.17757e+12 -1.2455e+12 -1.95219e+12 -908961000000.0 -1.11397e+12 -3.88487e+12 -2.7839e+12 -2.97453e+12 -2.21456e+12 -2.12175e+12 -3.52106e+12 -2.09861e+12 -1.69575e+12 -3.15556e+12 -1.5538e+12 -1.5495e+12 -3.06715e+12 -2.52791e+12 -3.63013e+12 -2.28666e+12 -2.01437e+12 -2.02148e+12 -2.21825e+12 -1.73991e+12 -1.51744e+12 -3.14375e+12 -4.08694e+12 -4.99814e+12 -3.01805e+12 -4.3607e+12 -3.03989e+12 -3.30322e+12 -1.4733e+12 -4.07137e+12 -1.29633e+12 -1.56562e+12 -2.70861e+12 -2.60261e+12 -2.2086e+12 -2.75886e+12 -2.24236e+12 -3.12806e+12 -2.02766e+12 -1.46212e+12 -2.63864e+12 -2.60916e+12 -2.49253e+12 -1.14888e+12 -2.6865e+12 -2.90394e+12 -1.09622e+12 -2.66839e+12 -1.17285e+12 -1.40087e+12 -2.00699e+12 -1.41246e+12 -960698000000.0 -1.90511e+12 -2.24307e+12 -1.55127e+12 -1.37284e+12 -1.36048e+12 -2.31775e+12 -1.65856e+12 -1.85224e+12 -1.42588e+12 -1.34858e+12 -2.06423e+12 -1.03676e+12 -2.19254e+12 -2.39151e+12 -2.00999e+12 -1.72102e+12 -1.77639e+12 -2.64773e+12 -1.07579e+12 -2.40138e+12 -2.44959e+12 -2.18987e+12 -4.48042e+12 -3.63652e+12 -1.44961e+12 -2.22845e+12 -2.18932e+12 -2.46645e+12 -1.47064e+12 -2.54509e+12 -1.27616e+12 -2.50298e+12 -1.04102e+12 -1.65769e+12 -1.616e+12 -1.61098e+12 -1.95177e+12 -1.90685e+12 -3.24524e+12 -1.30052e+12 -2.6616e+12 -2.62349e+12 -1.48049e+12 -1.62185e+12 -2.2988e+12 -2.82676e+12 -1.30728e+12 -2.90842e+12 -2.10402e+12 -1.228e+12 -1.86875e+12 -2.04623e+12 -613490000000.0 -1.38187e+12 -2.33615e+12 -1.82115e+12 -2.45553e+12 -1.58694e+12 -3.1244e+12 -1.71777e+12 -1.16908e+12 -2.43701e+12 -888647000000.0 -1.84153e+12 -1.45372e+12 -3.76131e+12 -2.63931e+12 -1.91345e+12 -2.57945e+12 -939637000000.0 -2.64477e+12 -2.15373e+12 -2.82317e+12 -2.03555e+12 -1.42841e+12 -2.00171e+12 -1.5535e+12 -1.51892e+12 -1.67481e+12 -3.30692e+12 -2.15054e+12 -1.98155e+12 -2.35479e+12 -2.03172e+12 -2.62191e+12 -2.68067e+12 -1.6233e+12 -1.68838e+12 -1.94828e+12 -2.05069e+12 -3.04289e+12 -1.69516e+12 -1.86491e+12 -1.10019e+12 -2.14198e+12 -351997000000.0 -2.31154e+12 -486195000000.0 -1.39623e+12 -2.37871e+12 -2.10832e+12 -889336000000.0 -1.14118e+12 -1.64208e+12 -931560000000.0 -1.34816e+12 -1.48894e+12 -1.1489e+12 -971803000000.0 -2.24428e+12 -1.58966e+12 -1.8787e+12 -941751000000.0 -1.53906e+12 -1.38656e+12 -2.4156e+12 -1.38091e+12 -1.1966e+12 -1.29598e+12 -1.95378e+12 -604363000000.0 -1.07537e+12 -1.20267e+12 -1.3138e+12 -2.16809e+12 -1.21948e+12 -633067000000.0 -863271000000.0 -339636000000.0 -525070000000.0 -1.58145e+12 -3.08551e+12 -1.18202e+12 -1.57488e+12 -2.07004e+12 -1.89745e+12 -467602000000.0 -975472000000.0 -2.41289e+12 -1.17149e+12 -998958000000.0 -952383000000.0 -540556000000.0 -657207000000.0 -872435000000.0 -2.20478e+12 -1.85652e+12 -2.40466e+12 -1.12191e+12 -450041000000.0 -1.50041e+12 -789407000000.0 -1.4355e+12 -1.7202e+12 -1.59959e+12 -1.63514e+12 -2.10899e+12 -1.11795e+12 -1.03844e+12 -631385000000.0 -845903000000.0 -1.16503e+12 -956294000000.0 -1.59605e+12 -470881000000.0 -1.01257e+12 -1.86383e+12 -848033000000.0 -1.53051e+12 -1.13823e+12 -1.28257e+12 -2.03192e+12 -1.51983e+12 -1.20317e+12 -1.26482e+12 -1.46861e+12 -1.37764e+12 -1.93304e+12 -897958000000.0 -965476000000.0 -2.48044e+12 -1.79239e+12 -1.99014e+12 -532432000000.0 -681322000000.0 -931109000000.0 -971733000000.0 -891567000000.0 -196310000000.0 -84219000000.0 -1.17284e+12 -398935000000.0 -779202000000.0 -541847000000.0 -698174000000.0 -1.23263e+12 -976827000000.0 -295844000000.0 -668164000000.0 -505768000000.0 -673510000000.0 -239500000000.0 -470631000000.0 -167305000000.0 -370398000000.0 -1.11287e+12 -933296000000.0 -599099000000.0 -238354000000.0 -1.17197e+12 -1.00886e+12 -949576000000.0 -797621000000.0 -650828000000.0 -1.10712e+12 -147876000000.0 -866380000000.0 -570446000000.0 -1.11603e+12 -1.1767e+12 -568935000000.0 -951755000000.0 -809667000000.0 -621800000000.0 -1.06286e+12 -550403000000.0 -337489000000.0 -193578000000.0 -505612000000.0 -1.644e+12 -1.17602e+12 -294662000000.0 -1.5147e+12 -432429000000.0 -643300000000.0 -455229000000.0 -569492000000.0 -173757000000.0 -850615000000.0 -971348000000.0 -793258000000.0 -649848000000.0 -358556000000.0 -501684000000.0 -845020000000.0 -165888000000.0 -1.08198e+12 -469317000000.0 -86649400000.0 -799552000000.0 -185555000000.0 -392000000000.0 -387949000000.0 -364398000000.0 -230820000000.0 -153560000000.0 -253117000000.0 -638721000000.0 -432940000000.0 -1.21586e+12 -255054000000.0 -1.24962e+12 -209009000000.0 -774647000000.0 -208892000000.0 -658181000000.0 -624818000000.0 -219492000000.0 -451927000000.0 -776333000000.0 -1.23629e+12 -359864000000.0 -560702000000.0 -527000000000.0 -633050000000.0 -1.06875e+12 -615829000000.0 -626639000000.0 -426208000000.0 -247751000000.0 -257114000000.0 -195475000000.0 -72578200000.0 -258425000000.0 -357131000000.0 -250871000000.0 -260893000000.0 -183999000000.0 -138453000000.0 -450387000000.0 -441798000000.0 -397932000000.0 -180208000000.0 -295841000000.0 -231066000000.0 -422825000000.0 -230646000000.0 -319308000000.0 -98249500000.0 -243508000000.0 -254469000000.0 -311763000000.0 -144841000000.0 -187430000000.0 -133301000000.0 -170313000000.0 