# vtk DataFile Version 2.0
Time step 26
ASCII
DATASET UNSTRUCTURED_GRID
POINTS 5000 float
2398.25 160869.0 0
8524.79 160245.0 0
12438.7 160078.0 0
16747.5 159396.0 0
22243.6 161039.0 0
27671.3 157782.0 0
33197.5 160468.0 0
38180.4 161051.0 0
42699.2 161199.0 0
47474.2 161110.0 0
52137.1 161205.0 0
57005.4 160045.0 0
62763.5 161120.0 0
67994.7 161253.0 0
72702.0 160388.0 0
77500.0 161133.0 0
82500.0 161122.0 0
87407.9 160421.0 0
92500.0 161160.0 0
97193.9 161182.0 0
101294.0 161099.0 0
105948.0 160492.0 0
111935.0 160970.0 0
117849.0 161153.0 0
123330.0 161229.0 0
128344.0 161350.0 0
133427.0 160599.0 0
138123.0 161282.0 0
142500.0 161204.0 0
147500.0 161137.0 0
152501.0 161107.0 0
157589.0 160736.0 0
162560.0 160892.0 0
167011.0 160436.0 0
171831.0 159319.0 0
177734.0 159356.0 0
182939.0 158542.0 0
187394.0 160395.0 0
196081.0 160720.0 0
201748.0 160079.0 0
207651.0 160842.0 0
212985.0 160182.0 0
218128.0 161264.0 0
222480.0 161276.0 0
225796.0 160513.0 0
230433.0 160382.0 0
241170.0 160081.0 0
252679.0 160065.0 0
259051.0 160542.0 0
268741.0 160542.0 0
273936.0 160837.0 0
278881.0 159484.0 0
286326.0 161124.0 0
297319.0 159449.0 0
303663.0 160239.0 0
312126.0 160658.0 0
317928.0 161285.0 0
323244.0 161183.0 0
332205.0 161049.0 0
337222.0 160759.0 0
345896.0 160307.0 0
355263.0 161219.0 0
361816.0 159852.0 0
372011.0 157878.0 0
367953.0 161193.0 0
377030.0 159850.0 0
382609.0 160720.0 0
388131.0 160017.0 0
394018.0 159334.0 0
399197.0 161008.0 0
403648.0 158267.0 0
408586.0 159476.0 0
412475.0 161125.0 0
417500.0 161166.0 0
422736.0 159281.0 0
427272.0 160990.0 0
432481.0 158796.0 0
437537.0 161143.0 0
442091.0 160086.0 0
446254.0 159665.0 0
450667.0 160435.0 0
455210.0 160380.0 0
460242.0 160229.0 0
465794.0 160609.0 0
471629.0 159867.0 0
477063.0 158670.0 0
485844.0 158597.0 0
491674.0 160138.0 0
497601.0 158631.0 0
2283.96 165896.0 0
6057.6 163569.0 0
11083.4 164594.0 0
17328.3 165299.0 0
28514.0 164135.0 0
34964.3 165742.0 0
40336.7 166061.0 0
44459.5 166403.0 0
48274.4 165106.0 0
52500.0 166165.0 0
57994.0 165487.0 0
62849.0 166219.0 0
67505.2 165891.0 0
72118.8 165508.0 0
77500.0 166291.0 0
82116.1 165937.0 0
87907.5 165179.0 0
92500.0 166300.0 0
97184.3 165934.0 0
102467.0 165833.0 0
108244.0 165083.0 0
112500.0 166236.0 0
117500.0 166318.0 0
122500.0 166241.0 0
127727.0 165784.0 0
132493.0 166134.0 0
137520.0 166149.0 0
142774.0 165627.0 0
146930.0 165975.0 0
151941.0 165853.0 0
156864.0 164786.0 0
161300.0 165608.0 0
166513.0 165108.0 0
172971.0 164888.0 0
178375.0 164769.0 0
183531.0 163610.0 0
188603.0 164841.0 0
192499.0 161555.0 0
193570.0 165700.0 0
198250.0 165066.0 0
203920.0 165700.0 0
213693.0 164732.0 0
209356.0 165916.0 0
217603.0 166334.0 0
222035.0 166105.0 0
226804.0 164747.0 0
232208.0 165804.0 0
235810.0 161376.0 0
243287.0 166458.0 0
246501.0 162083.0 0
248459.0 166158.0 0
257260.0 165180.0 0
263773.0 161628.0 0
262325.0 165805.0 0
267069.0 165387.0 0
271618.0 164697.0 0
277064.0 165101.0 0
282030.0 162816.0 0
287500.0 166214.0 0
291718.0 161581.0 0
292908.0 166073.0 0
298247.0 164960.0 0
303115.0 165910.0 0
307732.0 162808.0 0
307445.0 166101.0 0
312501.0 166409.0 0
317487.0 166161.0 0
322435.0 165652.0 0
327580.0 161450.0 0
327500.0 166195.0 0
332500.0 166267.0 0
341019.0 161970.0 0
337711.0 165604.0 0
343305.0 164996.0 0
350689.0 162226.0 0
347748.0 165401.0 0
352667.0 166117.0 0
361445.0 165165.0 0
357760.0 165638.0 0
365118.0 164869.0 0
372929.0 164679.0 0
378821.0 164399.0 0
382006.0 165537.0 0
388372.0 165106.0 0
393551.0 165480.0 0
402995.0 164466.0 0
398134.0 165913.0 0
408383.0 163757.0 0
412860.0 165067.0 0
417516.0 165680.0 0
422127.0 163917.0 0
428320.0 165934.0 0
433423.0 164030.0 0
437508.0 166210.0 0
443214.0 164369.0 0
447600.0 163674.0 0
451943.0 164914.0 0
457173.0 165110.0 0
466600.0 165179.0 0
470194.0 166358.0 0
475182.0 165159.0 0
481306.0 161532.0 0
486590.0 164790.0 0
496837.0 164140.0 0
6741.46 168614.0 0
11844.9 170432.0 0
16324.6 170507.0 0
23000.4 166558.0 0
20503.7 170522.0 0
27038.3 170967.0 0
32613.2 170803.0 0
38257.8 170573.0 0
42965.0 170955.0 0
47584.5 169827.0 0
56551.2 171107.0 0
62111.7 171086.0 0
67693.6 170735.0 0
73697.0 171051.0 0
78211.4 171488.0 0
81954.9 170663.0 0
86960.7 170695.0 0
92531.5 171051.0 0
97548.2 170453.0 0
107924.0 169863.0 0
116732.0 170922.0 0
112495.0 171137.0 0
120857.0 170771.0 0
125865.0 170153.0 0
140995.0 169749.0 0
146308.0 170866.0 0
156247.0 169347.0 0
161705.0 171298.0 0
169998.0 169675.0 0
176295.0 170527.0 0
182187.0 168749.0 0
188049.0 171003.0 0
194262.0 170726.0 0
199973.0 170170.0 0
208110.0 170821.0 0
204288.0 171167.0 0
213299.0 169543.0 0
217709.0 171268.0 0
222565.0 170380.0 0
226873.0 169752.0 0
232446.0 171268.0 0
237689.0 166626.0 0
237425.0 171052.0 0
246846.0 170229.0 0
252675.0 166627.0 0
251789.0 171520.0 0
257733.0 169932.0 0
262715.0 170583.0 0
267483.0 169843.0 0
273041.0 169941.0 0
279881.0 169154.0 0
282828.0 166503.0 0
283559.0 171436.0 0
287220.0 171507.0 0
291022.0 170384.0 0
296739.0 170006.0 0
302238.0 171146.0 0
307704.0 170531.0 0
318193.0 170652.0 0
322512.0 169657.0 0
326813.0 171542.0 0
336510.0 170268.0 0
331857.0 171265.0 0
341412.0 169201.0 0
346842.0 169787.0 0
351892.0 170954.0 0
356026.0 169510.0 0
361258.0 169867.0 0
366513.0 168951.0 0
371102.0 170820.0 0
377674.0 170334.0 0
384356.0 168875.0 0
392422.0 170303.0 0
397215.0 170261.0 0
402856.0 170707.0 0
409240.0 169401.0 0
419137.0 170371.0 0
424115.0 168737.0 0
432245.0 169654.0 0
437336.0 170401.0 0
442350.0 169605.0 0
448266.0 168746.0 0
454168.0 170320.0 0
458983.0 171363.0 0
462428.0 166589.0 0
463174.0 171128.0 0
467516.0 171248.0 0
472372.0 169681.0 0
477751.0 170637.0 0
480799.0 166807.0 0
482620.0 171503.0 0
492078.0 167040.0 0
491507.0 171101.0 0
496592.0 170711.0 0
2238.62 171804.0 0
2182.12 176218.0 0
8050.32 174455.0 0
13471.1 175056.0 0
17751.3 174352.0 0
22415.5 174897.0 0
32065.9 175090.0 0
37582.8 175777.0 0
43198.3 176018.0 0
49063.0 174617.0 0
51797.5 171588.0 0
53807.2 176286.0 0
59221.0 175785.0 0
63615.7 175416.0 0
68065.0 176410.0 0
72603.0 175926.0 0
77068.9 175412.0 0
82136.3 175684.0 0
87334.2 175869.0 0
92269.5 176380.0 0
97733.0 175805.0 0
102630.0 171595.0 0
107686.0 175361.0 0
113111.0 175467.0 0
118137.0 175399.0 0
123418.0 174758.0 0
127500.0 176315.0 0
131159.0 171850.0 0
136447.0 171802.0 0
137737.0 175716.0 0
142523.0 175868.0 0
151836.0 172465.0 0
148001.0 175475.0 0
156826.0 174748.0 0
160406.0 176111.0 0
166529.0 173118.0 0
170842.0 175704.0 0
182233.0 174228.0 0
186625.0 176637.0 0
191646.0 176128.0 0
197222.0 175454.0 0
203054.0 175310.0 0
214360.0 175213.0 0
218719.0 176510.0 0
222030.0 174639.0 0
227515.0 175301.0 0
234323.0 175653.0 0
237864.0 174378.0 0
241794.0 171706.0 0
241758.0 176308.0 0
246220.0 175415.0 0
255876.0 174651.0 0
260340.0 174322.0 0
266357.0 174528.0 0
271761.0 176212.0 0
278362.0 174656.0 0
284358.0 176176.0 0
288760.0 174662.0 0
292984.0 176378.0 0
298942.0 176307.0 0
303985.0 176535.0 0
307500.0 176359.0 0
313210.0 171655.0 0
316247.0 175369.0 0
312166.0 176177.0 0
321069.0 174900.0 0
325847.0 176474.0 0
329891.0 175090.0 0
339781.0 174593.0 0
346087.0 176042.0 0
352843.0 176529.0 0
357350.0 173467.0 0
361675.0 175857.0 0
366556.0 173644.0 0
371934.0 176451.0 0
382814.0 174390.0 0
387368.0 176249.0 0
388339.0 172064.0 0
399509.0 175878.0 0
408060.0 174753.0 0
404318.0 175900.0 0
412352.0 176427.0 0
414408.0 171958.0 0
416952.0 175756.0 0
427680.0 171772.0 0
425650.0 175397.0 0
431057.0 175845.0 0
437119.0 174597.0 0
441818.0 175192.0 0
446530.0 173748.0 0
450853.0 174260.0 0
455418.0 176087.0 0
461212.0 175788.0 0
466987.0 175576.0 0
472602.0 174639.0 0
478853.0 176136.0 0
487505.0 172598.0 0
484711.0 176642.0 0
492123.0 174959.0 0
1482.49 180906.0 0
7147.56 180761.0 0
11896.3 178792.0 0
17156.7 179531.0 0
23047.3 180281.0 0
26983.2 176894.0 0
30220.1 179630.0 0
34871.1 180422.0 0
39759.8 179840.0 0
43674.5 181682.0 0
48570.8 179840.0 0
57210.2 180176.0 0
63069.8 180192.0 0
68317.2 181585.0 0
73395.7 179986.0 0
78296.5 180562.0 0
83587.9 180625.0 0
88392.2 180687.0 0
92503.2 181223.0 0
97237.7 181221.0 0
101196.0 181281.0 0
102768.0 177055.0 0
105587.0 180877.0 0
111305.0 180051.0 0
116639.0 180658.0 0
122097.0 179949.0 0
126929.0 180369.0 0
131217.0 181060.0 0
132689.0 176679.0 0
136576.0 180267.0 0
142211.0 181561.0 0
147010.0 179752.0 0
151798.0 181688.0 0
153414.0 177121.0 0
157938.0 180677.0 0
164429.0 176820.0 0
167050.0 179692.0 0
163662.0 181306.0 0
171004.0 181712.0 0
177033.0 177095.0 0
182933.0 181145.0 0
193692.0 180213.0 0
189204.0 181046.0 0
198249.0 181343.0 0
203174.0 180411.0 0
208747.0 177168.0 0
212117.0 181417.0 0
216323.0 179829.0 0
221179.0 180159.0 0
231985.0 180157.0 0
237943.0 179114.0 0
242845.0 180958.0 0
248033.0 180495.0 0
251521.0 176778.0 0
252901.0 180806.0 0
257730.0 179833.0 0
262640.0 177897.0 0
267594.0 180475.0 0
278481.0 181310.0 0
283574.0 180763.0 0
288836.0 179982.0 0
293487.0 180975.0 0
302639.0 180840.0 0
307122.0 181200.0 0
311948.0 180917.0 0
316975.0 179802.0 0
322304.0 180491.0 0
330948.0 180605.0 0
327159.0 181341.0 0
334358.0 177078.0 0
341511.0 180083.0 0
337115.0 180980.0 0
357891.0 180041.0 0
367108.0 178551.0 0
362980.0 180830.0 0
377880.0 177783.0 0
383269.0 180409.0 0
388202.0 180430.0 0
393044.0 176967.0 0
403058.0 179878.0 0
408165.0 179603.0 0
414677.0 180071.0 0
417925.0 181313.0 0
421363.0 177019.0 0
427476.0 179856.0 0
431246.0 181273.0 0
436112.0 179577.0 0
441983.0 180853.0 0
448318.0 179264.0 0
454019.0 181243.0 0
459436.0 181393.0 0
464972.0 180674.0 0
473878.0 179858.0 0
469637.0 181524.0 0
481987.0 181092.0 0
489147.0 177368.0 0
486774.0 180980.0 0
492177.0 181536.0 0
496754.0 177353.0 0
2748.9 184945.0 0
12665.0 183297.0 0
18086.0 185300.0 0
23742.3 186037.0 0
28645.3 183676.0 0
33625.4 185978.0 0
39125.8 184680.0 0
43733.6 185892.0 0
48681.8 185809.0 0
53128.5 182280.0 0
59713.5 185189.0 0
64865.2 186288.0 0
68285.0 185784.0 0
72216.4 183867.0 0
76322.2 185460.0 0
81943.6 186047.0 0
87888.4 185757.0 0
92638.4 186156.0 0
96907.3 185793.0 0
101491.0 185920.0 0
106437.0 186214.0 0
111042.0 184900.0 0
115384.0 185374.0 0
120869.0 185971.0 0
127440.0 185633.0 0
133299.0 185514.0 0
138724.0 186001.0 0
143741.0 186168.0 0
148386.0 185773.0 0
152800.0 186273.0 0
157000.0 186375.0 0
161440.0 185151.0 0
166774.0 185045.0 0
176729.0 183386.0 0
186880.0 186044.0 0
192409.0 185554.0 0
202627.0 184984.0 0
207323.0 182547.0 0
210632.0 185948.0 0
216382.0 185723.0 0
222684.0 185810.0 0
226330.0 181937.0 0
236024.0 184100.0 0
240946.0 186533.0 0
250913.0 184959.0 0
256771.0 186040.0 0
262837.0 183475.0 0
268276.0 185841.0 0
272701.0 182096.0 0
282086.0 184693.0 0
287110.0 186068.0 0
293046.0 185392.0 0
297507.0 182352.0 0
301874.0 184766.0 0
306179.0 186680.0 0
311439.0 186641.0 0
316869.0 184927.0 0
322344.0 186410.0 0
328009.0 185954.0 0
333890.0 184839.0 0
346677.0 182000.0 0
342219.0 186060.0 0
351595.0 182184.0 0
347995.0 186761.0 0
355566.0 184313.0 0
352306.0 186462.0 0
360527.0 185578.0 0
366524.0 185680.0 0
370177.0 181990.0 0
374553.0 182014.0 0
378555.0 185366.0 0
383429.0 184546.0 0
387248.0 184904.0 0
392172.0 183214.0 0
397896.0 181812.0 0
400405.0 186107.0 0
405316.0 185117.0 0
411968.0 184191.0 0
417771.0 186068.0 0
422491.0 181881.0 0
422963.0 186749.0 0
427282.0 184109.0 0
432232.0 185855.0 0
437079.0 184906.0 0
441850.0 186459.0 0
447110.0 185431.0 0
452641.0 186434.0 0
458109.0 186757.0 0
462539.0 186347.0 0
466551.0 185354.0 0
471811.0 186087.0 0
477658.0 182924.0 0
482254.0 186448.0 0
487737.0 185828.0 0
497458.0 183088.0 0
3055.45 190743.0 0
7839.1 187274.0 0
13605.8 189143.0 0
23875.8 191738.0 0
28777.3 189019.0 0
33715.7 191681.0 0
38535.5 189865.0 0
43264.1 190149.0 0
49666.0 190701.0 0
54171.8 186981.0 0
53683.5 191727.0 0
58564.3 191058.0 0
63414.5 190237.0 0
67005.6 190694.0 0
71706.7 189203.0 0
77977.6 190782.0 0
88020.4 190789.0 0
93069.1 190776.0 0
97998.2 190263.0 0
105786.0 190650.0 0
102079.0 191909.0 0
110768.0 190251.0 0
116645.0 190152.0 0
126502.0 190885.0 0
122658.0 191448.0 0
131199.0 190212.0 0
139753.0 191551.0 0
145109.0 190760.0 0
150855.0 190820.0 0
156887.0 191733.0 0
162038.0 189813.0 0
167182.0 190142.0 0
172238.0 187495.0 0
177077.0 187711.0 0
176187.0 191437.0 0
181361.0 187758.0 0
185797.0 191329.0 0
191579.0 191434.0 0
197842.0 187051.0 0
202641.0 190426.0 0
206627.0 187157.0 0
207606.0 191178.0 0
212133.0 190329.0 0
223346.0 191780.0 0
228326.0 187481.0 0
233994.0 188635.0 0
243834.0 191583.0 0
246430.0 187083.0 0
248978.0 191197.0 0
252368.0 189247.0 0
262543.0 190644.0 0
268734.0 190809.0 0
272896.0 186992.0 0
273492.0 191538.0 0
277853.0 187319.0 0
282796.0 190074.0 0
293219.0 190726.0 0
297885.0 187703.0 0
302612.0 190612.0 0
308391.0 191592.0 0
313173.0 191189.0 0
317436.0 190674.0 0
325886.0 189978.0 0
329985.0 191109.0 0
335049.0 191657.0 0
337541.0 188248.0 0
351096.0 190933.0 0
356022.0 188909.0 0
360824.0 191453.0 0
366445.0 191424.0 0
371150.0 191887.0 0
372533.0 186951.0 0
383506.0 188993.0 0
390749.0 187852.0 0
396049.0 187636.0 0
403884.0 191152.0 0
409492.0 189788.0 0
414465.0 190055.0 0
417762.0 190202.0 0
420950.0 190559.0 0
427631.0 190614.0 0
433308.0 190219.0 0
437894.0 189884.0 0
442658.0 191350.0 0
448518.0 191314.0 0
453997.0 191300.0 0
458538.0 191726.0 0
462990.0 191501.0 0
467794.0 190332.0 0
472983.0 191831.0 0
476952.0 187646.0 0
479971.0 191556.0 0
484299.0 191402.0 0
488538.0 190955.0 0
492472.0 187380.0 0
492626.0 191535.0 0
497460.0 188172.0 0
2142.5 196635.0 0
8750.14 193162.0 0
13670.6 196783.0 0
18374.9 192880.0 0
22338.6 196221.0 0
27485.6 196653.0 0
32324.0 195931.0 0
37264.0 196483.0 0
46372.2 194506.0 0
51404.1 196898.0 0
63639.0 195405.0 0
68681.6 193979.0 0
73551.1 197045.0 0
79814.5 196263.0 0
83400.8 192127.0 0
85118.3 197047.0 0
90123.2 195273.0 0
98595.0 194440.0 0
105633.0 195159.0 0
111333.0 196589.0 0
118209.0 195721.0 0
123816.0 195976.0 0
128389.0 194302.0 0
135225.0 192035.0 0
133270.0 196377.0 0
137792.0 195489.0 0
141901.0 196346.0 0
147421.0 196071.0 0
152991.0 196030.0 0
161790.0 195382.0 0
167148.0 195112.0 0
171463.0 192819.0 0
170765.0 196850.0 0
176885.0 196430.0 0
180976.0 193360.0 0
186891.0 196355.0 0
191541.0 196738.0 0
197330.0 192581.0 0
201636.0 195900.0 0
207164.0 196147.0 0
212999.0 195852.0 0
217211.0 192110.0 0
228977.0 193476.0 0
233408.0 193101.0 0
232774.0 196879.0 0
238457.0 192292.0 0
242093.0 195826.0 0
246550.0 195563.0 0
251474.0 195150.0 0
255543.0 192140.0 0
262740.0 196717.0 0
268252.0 196426.0 0
274069.0 196498.0 0
278388.0 192709.0 0
284558.0 196124.0 0
287972.0 192065.0 0
289704.0 197001.0 0
293302.0 195116.0 0
297717.0 192976.0 0
302317.0 196320.0 0
307427.0 196861.0 0
312021.0 195357.0 0
316759.0 195268.0 0
322190.0 191984.0 0
326423.0 195566.0 0
331729.0 196069.0 0
340316.0 192065.0 0
345934.0 192803.0 0
351172.0 196108.0 0
356397.0 194466.0 0
366983.0 196294.0 0
371664.0 196369.0 0
377232.0 192611.0 0
382208.0 196534.0 0
386900.0 196895.0 0
387813.0 192172.0 0
392752.0 192188.0 0
391455.0 196696.0 0
398358.0 193153.0 0
405869.0 196925.0 0
411611.0 195308.0 0
417000.0 193930.0 0
422638.0 195551.0 0
428260.0 196697.0 0
432997.0 194862.0 0
438721.0 195531.0 0
444695.0 196235.0 0
455664.0 195695.0 0
461365.0 196598.0 0
468715.0 195558.0 0
477807.0 196072.0 0
482450.0 196231.0 0
486599.0 195117.0 0
490654.0 195557.0 0
497771.0 192932.0 0
495008.0 196914.0 0
2239.97 201207.0 0
7229.67 199236.0 0
18599.6 197821.0 0
23271.2 201074.0 0
32589.0 199405.0 0
42433.9 197794.0 0
40998.6 202017.0 0
46997.5 200985.0 0
52812.1 201631.0 0
57395.1 197187.0 0
62191.1 200799.0 0
67958.7 200864.0 0
78090.4 200861.0 0
82805.4 201768.0 0
88771.4 201583.0 0
95032.1 197134.0 0
93968.5 201980.0 0
101289.0 197793.0 0
97842.5 200497.0 0
101250.0 202078.0 0
105727.0 200651.0 0
110243.0 202023.0 0
115522.0 201599.0 0
121624.0 200806.0 0
128116.0 200341.0 0
137501.0 199434.0 0
133716.0 201212.0 0
142031.0 201613.0 0
157248.0 197640.0 0
153548.0 200849.0 0
157987.0 201818.0 0
163106.0 201220.0 0
173359.0 200096.0 0
168442.0 200383.0 0
177763.0 200872.0 0
182326.0 198180.0 0
186464.0 201622.0 0
191580.0 201250.0 0
196354.0 198028.0 0
201127.0 201492.0 0
212102.0 200783.0 0
216818.0 201985.0 0
219804.0 197197.0 0
224913.0 197099.0 0
228655.0 197569.0 0
226068.0 201628.0 0
231019.0 200920.0 0
236992.0 197534.0 0
235876.0 202172.0 0
241284.0 200737.0 0
246729.0 200499.0 0
252428.0 200662.0 0
257766.0 197409.0 0
269622.0 202087.0 0
274600.0 201477.0 0
279360.0 198231.0 0
284002.0 200582.0 0
288590.0 202017.0 0
292650.0 200428.0 0
296549.0 197902.0 0
303644.0 201280.0 0
307794.0 201194.0 0
312312.0 200586.0 0
321327.0 197117.0 0
317588.0 200290.0 0
323364.0 202102.0 0
328009.0 200228.0 0
332713.0 201180.0 0
337285.0 197353.0 0
342892.0 197397.0 0
346842.0 197370.0 0
341929.0 201326.0 0
345493.0 201085.0 0
349533.0 200302.0 0
355343.0 200671.0 0
361688.0 197557.0 0
366500.0 201015.0 0
373432.0 201519.0 0
378345.0 199216.0 0
383175.0 202177.0 0
388082.0 201298.0 0
392590.0 201066.0 0
395532.0 197452.0 0
397122.0 201307.0 0
400535.0 198259.0 0
408064.0 201682.0 0
412519.0 200553.0 0
417176.0 199057.0 0
421030.0 201102.0 0
425379.0 200734.0 0
431956.0 200510.0 0
437687.0 201771.0 0
443672.0 201817.0 0
450505.0 197989.0 0
454494.0 200944.0 0
458787.0 201889.0 0
463931.0 201711.0 0
465827.0 198237.0 0
469292.0 201030.0 0
473164.0 197396.0 0
474369.0 201939.0 0
479086.0 200960.0 0
486605.0 199321.0 0
491402.0 201390.0 0
497411.0 201533.0 0
2125.69 205574.0 0
6956.0 205111.0 0
12436.8 202844.0 0
18044.7 202275.0 0
16006.0 206278.0 0
20034.6 206557.0 0
24882.1 206324.0 0
29070.4 202628.0 0
32213.0 206990.0 0
35958.7 202287.0 0
43312.4 206445.0 0
48681.3 206980.0 0
53573.5 206156.0 0
57599.3 203347.0 0
62542.2 206034.0 0
67219.0 206119.0 0
73647.0 203751.0 0
79088.7 206383.0 0
84532.3 206370.0 0
88596.8 206618.0 0
92508.1 206075.0 0
97467.7 204889.0 0
102448.0 206503.0 0
107193.0 205403.0 0
111837.0 206186.0 0
117995.0 207106.0 0
123249.0 206038.0 0
127768.0 205728.0 0
132821.0 206282.0 0
138524.0 205540.0 0
143146.0 206440.0 0
148123.0 202651.0 0
151877.0 206437.0 0
156564.0 206650.0 0
161568.0 206154.0 0
166877.0 205257.0 0
173249.0 206316.0 0
181598.0 202751.0 0
178607.0 206464.0 0
189461.0 206470.0 0
195895.0 203779.0 0
199741.0 206502.0 0
203874.0 207084.0 0
207150.0 202213.0 0
212779.0 205431.0 0
219054.0 206737.0 0
221593.0 202812.0 0
223358.0 206301.0 0
227641.0 206330.0 0
232480.0 205644.0 0
237754.0 206620.0 0
242313.0 207069.0 0
246717.0 205336.0 0
251892.0 206914.0 0
257588.0 202650.0 0
257453.0 206947.0 0
263729.0 202218.0 0
267697.0 206274.0 0
271766.0 205852.0 0
279905.0 203577.0 0
276111.0 206308.0 0
284270.0 204995.0 0
288564.0 207256.0 0
293587.0 204971.0 0
298725.0 202625.0 0
302631.0 206200.0 0
306695.0 205068.0 0
311690.0 206277.0 0
316842.0 205124.0 0
321342.0 207018.0 0
324885.0 205993.0 0
328699.0 204940.0 0
334158.0 206803.0 0
337416.0 202666.0 0
339614.0 206562.0 0
344154.0 205299.0 0
350110.0 205958.0 0
360678.0 202745.0 0
369404.0 205806.0 0
374929.0 206838.0 0
378300.0 203712.0 0
388086.0 205797.0 0
393160.0 206136.0 0
397934.0 205485.0 0
401997.0 206733.0 0
403360.0 202406.0 0
406602.0 206307.0 0
412751.0 206448.0 0
418445.0 204480.0 0
423552.0 205883.0 0
428725.0 204535.0 0
433885.0 207004.0 0
445498.0 206536.0 0
450713.0 204421.0 0
456142.0 206037.0 0
463204.0 205754.0 0
460059.0 206480.0 0
467453.0 206296.0 0
472542.0 206239.0 0
477866.0 206288.0 0
483698.0 202631.0 0
482745.0 206879.0 0
487590.0 205875.0 0
492464.0 206582.0 0
497811.0 206294.0 0
3067.32 210683.0 0
8542.35 209614.0 0
12569.6 208252.0 0
16411.8 210446.0 0
21301.9 211460.0 0
27455.0 211682.0 0
32652.3 210822.0 0
37669.3 207892.0 0
42284.5 211594.0 0
53255.7 211115.0 0
57450.3 208257.0 0
58926.0 212146.0 0
62499.2 210456.0 0
71130.2 208520.0 0
66930.0 210556.0 0
76180.4 211568.0 0
82343.5 209977.0 0
86385.2 210309.0 0
91247.3 211151.0 0
96596.9 210009.0 0
101327.0 211164.0 0
106450.0 210571.0 0
112397.0 211697.0 0
123223.0 211289.0 0
128382.0 210231.0 0
133236.0 211765.0 0
138696.0 211271.0 0
143900.0 210481.0 0
147994.0 208626.0 0
152636.0 210876.0 0
158008.0 211133.0 0
162828.0 210287.0 0
168107.0 210709.0 0
172595.0 211997.0 0
177250.0 211747.0 0
183540.0 207400.0 0
182431.0 212355.0 0
187091.0 211355.0 0
192269.0 211625.0 0
193911.0 207602.0 0
197937.0 211223.0 0
202911.0 211067.0 0
208365.0 207351.0 0
207318.0 212052.0 0
212055.0 210376.0 0
217207.0 211808.0 0
222466.0 210526.0 0
227447.0 211871.0 0
232449.0 210351.0 0
237079.0 210930.0 0
241382.0 211536.0 0
246116.0 210350.0 0
254534.0 211392.0 0
250357.0 211926.0 0
258832.0 212029.0 0
262300.0 208442.0 0
267458.0 211608.0 0
272508.0 209742.0 0
277232.0 211592.0 0
283172.0 210384.0 0
288189.0 211809.0 0
292739.0 210572.0 0
298808.0 207385.0 0
297350.0 211327.0 0
302071.0 211316.0 0
306869.0 209796.0 0
316042.0 210019.0 0
311363.0 211774.0 0
320407.0 211432.0 0
326142.0 210779.0 0
338275.0 211844.0 0
343322.0 210242.0 0
348137.0 211429.0 0
356724.0 207513.0 0
353187.0 211980.0 0
363263.0 207410.0 0
372381.0 210976.0 0
367631.0 211378.0 0
377383.0 212332.0 0
379748.0 207682.0 0
382026.0 210849.0 0
384039.0 207778.0 0
387352.0 210415.0 0
391814.0 210841.0 0
396395.0 210078.0 0
401413.0 211631.0 0
406562.0 211169.0 0
417746.0 210399.0 0
428005.0 210741.0 0
435864.0 212271.0 0
440196.0 207932.0 0
448661.0 209074.0 0
444893.0 211679.0 0
448961.0 212193.0 0
453282.0 210813.0 0
458563.0 209901.0 0
463262.0 209946.0 0
468256.0 211353.0 0
473568.0 211420.0 0
478469.0 211199.0 0
481967.0 211682.0 0
485398.0 210349.0 0
490347.0 210472.0 0
495340.0 210553.0 0
2829.9 216584.0 0
7505.22 214035.0 0
12199.5 212800.0 0
12510.6 216440.0 0
17150.0 215986.0 0
23571.7 216895.0 0
28499.2 216770.0 0
32899.8 214931.0 0
37773.8 213259.0 0
44151.8 216947.0 0
47946.5 212488.0 0
51661.4 215602.0 0
56217.2 215691.0 0
61489.2 216126.0 0
71365.8 212700.0 0
67355.4 216057.0 0
73107.1 217073.0 0
80897.9 214240.0 0
86726.5 215932.0 0
92879.8 217140.0 0
98371.6 215378.0 0
103680.0 215325.0 0
108526.0 215965.0 0
113662.0 217078.0 0
118080.0 212531.0 0
123564.0 216322.0 0
128432.0 215406.0 0
133086.0 216286.0 0
137600.0 216649.0 0
146821.0 212865.0 0
143076.0 214605.0 0
146707.0 216912.0 0
150635.0 214814.0 0
155608.0 214895.0 0
161150.0 215170.0 0
167133.0 216786.0 0
172930.0 216285.0 0
178056.0 217257.0 0
183642.0 217124.0 0
189255.0 216097.0 0
194197.0 216147.0 0
203778.0 215280.0 0
199080.0 216871.0 0
208280.0 217094.0 0
213125.0 215634.0 0
217848.0 217112.0 0
222500.0 216275.0 0
227501.0 216448.0 0
231413.0 214495.0 0
235388.0 214990.0 0
241019.0 215927.0 0
246235.0 216199.0 0
252676.0 216674.0 0
257745.0 215800.0 0
262641.0 214955.0 0
268625.0 216328.0 0
272468.0 214393.0 0
276632.0 216641.0 0
282628.0 216170.0 0
287928.0 216219.0 0
293352.0 216047.0 0
298033.0 215190.0 0
302168.0 217254.0 0
306752.0 214670.0 0
311389.0 216996.0 0
317159.0 215716.0 0
322875.0 215979.0 0
326696.0 215726.0 0
331450.0 217265.0 0
332575.0 212855.0 0
340784.0 216545.0 0
345200.0 214645.0 0
349873.0 216041.0 0
358609.0 213031.0 0
363214.0 212899.0 0
367136.0 216762.0 0
372552.0 215891.0 0
382867.0 215510.0 0
389035.0 215381.0 0
397257.0 215240.0 0
402356.0 217266.0 0
407522.0 215877.0 0
411923.0 212808.0 0
417002.0 216097.0 0
422243.0 213329.0 0
426097.0 216848.0 0
432034.0 216117.0 0
437818.0 217220.0 0
440095.0 212875.0 0
443170.0 216703.0 0
447803.0 215863.0 0
452671.0 216701.0 0
457766.0 214754.0 0
463143.0 215118.0 0
468210.0 216481.0 0
473096.0 216561.0 0
478110.0 216037.0 0
482751.0 216346.0 0
487717.0 215264.0 0
493265.0 215277.0 0
497794.0 214844.0 0
2514.56 221928.0 0
9646.02 217895.0 0
7263.91 221341.0 0
12107.8 221670.0 0
17581.5 222260.0 0
28796.3 221277.0 0
32708.2 219617.0 0
37934.7 218921.0 0
43268.4 222378.0 0
48944.1 218637.0 0
47703.2 222455.0 0
52876.4 221303.0 0
58201.3 220468.0 0
64159.8 221731.0 0
71370.4 220624.0 0
75116.8 222452.0 0
78016.9 218076.0 0
81047.8 222235.0 0
96749.1 221198.0 0
92018.5 221721.0 0
101921.0 219676.0 0
107424.0 222058.0 0
113364.0 222074.0 0
118716.0 217832.0 0
123401.0 221388.0 0
128618.0 220569.0 0
133599.0 220816.0 0
141647.0 219176.0 0
137997.0 222448.0 0
145479.0 221774.0 0
150731.0 220525.0 0
156818.0 220120.0 0
162661.0 221240.0 0
170991.0 221149.0 0
183154.0 221077.0 0
179611.0 221946.0 0
187233.0 221174.0 0
192610.0 220751.0 0
197959.0 222510.0 0
202930.0 220297.0 0
210972.0 221193.0 0
215639.0 221433.0 0
221222.0 221513.0 0
227168.0 221805.0 0
231622.0 218683.0 0
237603.0 220697.0 0
243862.0 221409.0 0
248915.0 221169.0 0
257368.0 219139.0 0
260306.0 221178.0 0
265512.0 220126.0 0
272402.0 220697.0 0
279496.0 221402.0 0
285573.0 220308.0 0
290266.0 220150.0 0
297341.0 220397.0 0
302294.0 222373.0 0
306863.0 220141.0 0
318332.0 221538.0 0
323490.0 220924.0 0
328124.0 219230.0 0
335623.0 217756.0 0
332373.0 221729.0 0
340964.0 221123.0 0
337069.0 222332.0 0
345711.0 219930.0 0
350930.0 222057.0 0
355440.0 218222.0 0
361533.0 217609.0 0
359286.0 222416.0 0
364347.0 222102.0 0
368942.0 221422.0 0
373329.0 220757.0 0
377573.0 218067.0 0
381325.0 221333.0 0
386956.0 221524.0 0
393427.0 217539.0 0
393343.0 222392.0 0
398516.0 220816.0 0
402901.0 222206.0 0
407761.0 221272.0 0
411980.0 218113.0 0
415871.0 221911.0 0
421584.0 217933.0 0
424602.0 220885.0 0
428968.0 221415.0 0
434134.0 221097.0 0
438734.0 222406.0 0
442783.0 221063.0 0
447713.0 221127.0 0
453040.0 221723.0 0
458328.0 220560.0 0
463615.0 219937.0 0
468165.0 221807.0 0
473605.0 220973.0 0
478155.0 221195.0 0
482813.0 220544.0 0
487500.0 220843.0 0
492502.0 220227.0 0
497557.0 219491.0 0
2475.43 226921.0 0
7678.68 226358.0 0
12006.2 225870.0 0
15774.7 227301.0 0
23401.9 222952.0 0
26806.6 227325.0 0
34059.3 224997.0 0
39396.8 223889.0 0
44695.3 226845.0 0
48749.2 226167.0 0
53054.1 226476.0 0
59502.9 225561.0 0
63882.9 226869.0 0
69249.8 222670.0 0
67602.6 226122.0 0
71688.3 226065.0 0
78277.3 225954.0 0
82476.6 227224.0 0
87052.2 222591.0 0
92003.1 226361.0 0
97003.8 226313.0 0
102132.0 225566.0 0
111122.0 226370.0 0
118426.0 223092.0 0
126571.0 226093.0 0
132454.0 225789.0 0
137141.0 226918.0 0
142292.0 226052.0 0
147729.0 225526.0 0
152626.0 226181.0 0
157519.0 225202.0 0
162024.0 226809.0 0
167210.0 225243.0 0
172468.0 226298.0 0
175344.0 222874.0 0
178176.0 227206.0 0
183462.0 224998.0 0
190421.0 225766.0 0
195407.0 227210.0 0
203346.0 225652.0 0
206820.0 222634.0 0
208192.0 226629.0 0
212577.0 225706.0 0
217685.0 226126.0 0
223417.0 226348.0 0
227744.0 226794.0 0
232785.0 226045.0 0
237970.0 226710.0 0
242270.0 225603.0 0
246598.0 225489.0 0
254158.0 222801.0 0
251484.0 227273.0 0
257650.0 227087.0 0
262646.0 225317.0 0
268083.0 225382.0 0
273555.0 227385.0 0
279487.0 227591.0 0
284044.0 224559.0 0
289104.0 225247.0 0
293622.0 223530.0 0
298795.0 226154.0 0
302781.0 225866.0 0
307491.0 225706.0 0
312362.0 223050.0 0
316378.0 226434.0 0
321285.0 226562.0 0
327591.0 225100.0 0
333591.0 226713.0 0
340751.0 225255.0 0
346461.0 226486.0 0
352476.0 226881.0 0
362683.0 225968.0 0
367602.0 226687.0 0
377201.0 223152.0 0
373234.0 225878.0 0
383125.0 226755.0 0
388877.0 227401.0 0
397594.0 225234.0 0
393913.0 227670.0 0
401989.0 226823.0 0
407547.0 227074.0 0
417746.0 226064.0 0
413349.0 227105.0 0
421173.0 223199.0 0
420751.0 227343.0 0
426071.0 226783.0 0
432058.0 225893.0 0
436725.0 226246.0 0
442763.0 226084.0 0
453405.0 225894.0 0
458501.0 227099.0 0
463588.0 224479.0 0
467776.0 227123.0 0
471815.0 224669.0 0
476444.0 226223.0 0
481092.0 224529.0 0
485647.0 225501.0 0
490699.0 226533.0 0
495989.0 224766.0 0
3206.81 232050.0 0
8254.15 231458.0 0
12759.4 231094.0 0
17402.9 232062.0 0
20838.9 228000.0 0
22002.9 232596.0 0
26223.9 232108.0 0
30942.2 230617.0 0
40044.4 228134.0 0
35920.9 230736.0 0
43623.8 230830.0 0
47748.7 230200.0 0
51801.6 230535.0 0
56822.1 230751.0 0
62571.4 230880.0 0
67162.8 231302.0 0
72512.5 231252.0 0
77984.5 230050.0 0
82533.0 231649.0 0
86299.8 232248.0 0
87144.5 228181.0 0
90161.5 231497.0 0
95223.8 231335.0 0
101126.0 231235.0 0
106970.0 227938.0 0
111797.0 231231.0 0
115818.0 227735.0 0
121100.0 227734.0 0
118328.0 232407.0 0
123276.0 232161.0 0
127622.0 231214.0 0
132212.0 231106.0 0
137229.0 231517.0 0
146463.0 230520.0 0
156135.0 230146.0 0
169289.0 231624.0 0
181611.0 232024.0 0
186109.0 229398.0 0
190984.0 231069.0 0
195744.0 231885.0 0
199776.0 227828.0 0
204945.0 230176.0 0
208473.0 232386.0 0
211655.0 230286.0 0
216539.0 231454.0 0
221738.0 230764.0 0
226731.0 231282.0 0
231984.0 230310.0 0
236096.0 231586.0 0
241471.0 230099.0 0
246797.0 230600.0 0
251449.0 231523.0 0
256168.0 232202.0 0
261541.0 230657.0 0
266306.0 229815.0 0
270624.0 232261.0 0
276601.0 232334.0 0
284963.0 229691.0 0
290163.0 230114.0 0
293842.0 227750.0 0
293736.0 232355.0 0
297268.0 230586.0 0
302674.0 229025.0 0
307429.0 229639.0 0
310150.0 232182.0 0
312818.0 228867.0 0
316959.0 230611.0 0
326190.0 230483.0 0
321556.0 232540.0 0
331834.0 231692.0 0
336678.0 232192.0 0
337880.0 228197.0 0
341770.0 231128.0 0
346611.0 232348.0 0
350383.0 230811.0 0
354414.0 232066.0 0
358047.0 227999.0 0
363427.0 231304.0 0
368535.0 231909.0 0
372661.0 230569.0 0
377755.0 227884.0 0
381269.0 231265.0 0
385756.0 231869.0 0
391600.0 232419.0 0
397810.0 231318.0 0
403441.0 231794.0 0
408197.0 232190.0 0
412658.0 232259.0 0
417331.0 230758.0 0
422296.0 231093.0 0
433142.0 231825.0 0
438895.0 230303.0 0
448811.0 228226.0 0
443934.0 231675.0 0
453759.0 230860.0 0
463030.0 231556.0 0
468104.0 231907.0 0
472243.0 229735.0 0
476523.0 231253.0 0
481583.0 229797.0 0
487396.0 230411.0 0
497269.0 230414.0 0
2743.2 237479.0 0
8044.07 236481.0 0
14927.0 236300.0 0
19915.2 236874.0 0
25334.9 236952.0 0
32696.1 237409.0 0
39997.3 233858.0 0
47198.0 235475.0 0
52666.1 234730.0 0
57752.2 236992.0 0
63749.5 236238.0 0
69576.9 236598.0 0
74692.6 237129.0 0
78841.8 234803.0 0
82761.4 236425.0 0
87411.4 236682.0 0
93076.8 236756.0 0
98831.1 236593.0 0
106558.0 232960.0 0
103892.0 237142.0 0
107220.0 236967.0 0
111636.0 237102.0 0
120389.0 237136.0 0
124177.0 236438.0 0
128410.0 235837.0 0
132875.0 235440.0 0
136858.0 236208.0 0
141704.0 232795.0 0
141100.0 236979.0 0
146520.0 236487.0 0
151570.0 232979.0 0
156635.0 236576.0 0
161837.0 233109.0 0
166706.0 237891.0 0
172254.0 236611.0 0
175980.0 232983.0 0
179233.0 236599.0 0
184125.0 237230.0 0
189307.0 235584.0 0
193662.0 236476.0 0
197500.0 236095.0 0
200525.0 233022.0 0
202953.0 236869.0 0
206304.0 234727.0 0
212289.0 236105.0 0
216840.0 235983.0 0
221006.0 235597.0 0
225771.0 236270.0 0
231009.0 234693.0 0
235672.0 236507.0 0
240570.0 235343.0 0
248388.0 235385.0 0
252585.0 235168.0 0
259996.0 235256.0 0
256081.0 237198.0 0
265481.0 235061.0 0
272923.0 235723.0 0
275660.0 236311.0 0
281968.0 235202.0 0
288346.0 234879.0 0
293485.0 237030.0 0
298770.0 234982.0 0
304642.0 233715.0 0
309171.0 235846.0 0
313933.0 233672.0 0
317704.0 235582.0 0
323355.0 237731.0 0
327789.0 234997.0 0
332500.0 236339.0 0
336867.0 236803.0 0
342200.0 236701.0 0
351671.0 235605.0 0
347207.0 236718.0 0
357645.0 235611.0 0
363234.0 237657.0 0
368505.0 236171.0 0
376995.0 233033.0 0
373399.0 237390.0 0
382581.0 235290.0 0
379107.0 237439.0 0
387082.0 237468.0 0
395893.0 236047.0 0
400749.0 236506.0 0
405935.0 236132.0 0
411228.0 237433.0 0
416963.0 236601.0 0
422188.0 235993.0 0
427069.0 233483.0 0
431393.0 237522.0 0
437982.0 235727.0 0
443846.0 237549.0 0
448491.0 234072.0 0
453585.0 236087.0 0
457901.0 233005.0 0
458359.0 237202.0 0
462248.0 236549.0 0
467276.0 236914.0 0
472251.0 234881.0 0
478249.0 236011.0 0
483450.0 234922.0 0
487733.0 235082.0 0
492243.0 232930.0 0
497107.0 236014.0 0
2122.05 242304.0 0
6631.7 241416.0 0
11766.9 238961.0 0
10877.1 242614.0 0
16447.1 241538.0 0
22140.3 241673.0 0
26812.0 241527.0 0
38036.9 242856.0 0
42527.9 238826.0 0
47182.2 240606.0 0
52162.2 240153.0 0
62695.9 241618.0 0
67630.8 241940.0 0
72733.2 241675.0 0
77869.4 241055.0 0
83357.9 241139.0 0
88730.6 241643.0 0
93486.3 241615.0 0
97429.4 241229.0 0
102460.0 242352.0 0
107419.0 240218.0 0
116407.0 239797.0 0
120439.0 242993.0 0
125863.0 240764.0 0
131751.0 240164.0 0
137383.0 241087.0 0
143322.0 241880.0 0
151900.0 238369.0 0
148473.0 241435.0 0
152888.0 242898.0 0
157310.0 241575.0 0
160675.0 238653.0 0
163253.0 241018.0 0
170863.0 240046.0 0
175911.0 240617.0 0
181668.0 242438.0 0
189129.0 240831.0 0
194259.0 241235.0 0
199452.0 240445.0 0
203612.0 242446.0 0
207404.0 239520.0 0
216147.0 241502.0 0
221747.0 239848.0 0
226484.0 241546.0 0
232436.0 240686.0 0
238424.0 240447.0 0
244754.0 239674.0 0
251376.0 240157.0 0
256836.0 241725.0 0
261850.0 239840.0 0
270073.0 239075.0 0
274193.0 241816.0 0
278036.0 239343.0 0
283461.0 241525.0 0
289002.0 240206.0 0
293241.0 242544.0 0
297201.0 239861.0 0
302990.0 240187.0 0
308792.0 241072.0 0
312951.0 238413.0 0
318352.0 240861.0 0
328782.0 240218.0 0
334057.0 241961.0 0
339581.0 241365.0 0
344922.0 241167.0 0
349977.0 240704.0 0
354420.0 239226.0 0
358643.0 242328.0 0
368158.0 240892.0 0
372319.0 242102.0 0
376967.0 241971.0 0
382476.0 240934.0 0
387497.0 241952.0 0
392326.0 238604.0 0
392130.0 242711.0 0
396151.0 241423.0 0
401231.0 241973.0 0
406695.0 241293.0 0
411221.0 242304.0 0
415493.0 241640.0 0
421160.0 241579.0 0
426356.0 239034.0 0
428506.0 242552.0 0
430944.0 241955.0 0
435839.0 241748.0 0
446668.0 241911.0 0
449067.0 238422.0 0
456083.0 240865.0 0
461502.0 241598.0 0
466934.0 242320.0 0
472915.0 240080.0 0
478060.0 241481.0 0
482526.0 239384.0 0
487864.0 240210.0 0
492450.0 237918.0 0
493655.0 241814.0 0
498089.0 240694.0 0
2814.38 247096.0 0
8167.46 246358.0 0
12900.3 245721.0 0
16337.8 246370.0 0
20390.2 246250.0 0
25275.7 247475.0 0
31184.5 245210.0 0
44036.5 243342.0 0
41787.1 247205.0 0
47438.3 247322.0 0
53093.8 246635.0 0
57346.2 243088.0 0
63563.6 246771.0 0
68266.1 246337.0 0
72451.8 246524.0 0
77184.0 246168.0 0
86320.5 245264.0 0
82033.3 246247.0 0
91302.7 246180.0 0
96816.4 245629.0 0
111803.0 243467.0 0
116467.0 246198.0 0
121276.0 247728.0 0
126005.0 246921.0 0
132129.0 246548.0 0
137826.0 246727.0 0
142846.0 247264.0 0
147538.0 245988.0 0
152636.0 247539.0 0
157569.0 246563.0 0
162722.0 245519.0 0
168104.0 243306.0 0
172608.0 245803.0 0
177873.0 245904.0 0
182321.0 247531.0 0
186390.0 245177.0 0
192104.0 245719.0 0
196647.0 246385.0 0
201138.0 245915.0 0
206795.0 245745.0 0
210862.0 243192.0 0
212749.0 246315.0 0
217649.0 247414.0 0
221805.0 244511.0 0
226819.0 246647.0 0
231567.0 246317.0 0
236416.0 245381.0 0
241229.0 244900.0 0
245793.0 245022.0 0
250453.0 246049.0 0
255199.0 245898.0 0
260768.0 246013.0 0
266242.0 243176.0 0
271153.0 245484.0 0
278141.0 245093.0 0
288442.0 245498.0 0
293461.0 247443.0 0
298376.0 245069.0 0
303442.0 245739.0 0
308173.0 246080.0 0
314334.0 246189.0 0
319249.0 245793.0 0
324037.0 243179.0 0
328960.0 245800.0 0
333140.0 246172.0 0
336742.0 246125.0 0
342579.0 246528.0 0
347872.0 245699.0 0
353201.0 245385.0 0
357756.0 248015.0 0
363892.0 243249.0 0
362498.0 248059.0 0
367782.0 246542.0 0
373555.0 246748.0 0
382641.0 246186.0 0
378326.0 246483.0 0
387500.0 246488.0 0
390848.0 246290.0 0
394217.0 245884.0 0
397997.0 245880.0 0
405860.0 247323.0 0
412260.0 246937.0 0
417889.0 246448.0 0
423015.0 246843.0 0
427881.0 246445.0 0
432795.0 246905.0 0
437680.0 247392.0 0
442050.0 243488.0 0
447097.0 246174.0 0
451291.0 243132.0 0
456322.0 245813.0 0
461261.0 247253.0 0
466171.0 246903.0 0
470973.0 245067.0 0
476160.0 246505.0 0
482653.0 245385.0 0
488904.0 245776.0 0
497009.0 245475.0 0
2326.01 251538.0 0
7488.63 251204.0 0
11902.7 249687.0 0
17723.6 250613.0 0
22194.3 251207.0 0
25716.9 252001.0 0
33500.9 250795.0 0
37231.1 248199.0 0
41264.1 252434.0 0
46271.8 252554.0 0
51626.5 251979.0 0
58686.3 248379.0 0
56862.4 252637.0 0
62242.0 252226.0 0
67517.4 251053.0 0
72508.2 251135.0 0
81268.6 251369.0 0
76626.2 252200.0 0
87016.3 250285.0 0
92310.8 251448.0 0
101397.0 248244.0 0
97257.4 251470.0 0
107502.0 248440.0 0
111799.0 252268.0 0
113006.0 248293.0 0
117638.0 251741.0 0
123431.0 251468.0 0
128783.0 251976.0 0
134059.0 251589.0 0
137961.0 251319.0 0
142164.0 251265.0 0
147516.0 251788.0 0
152882.0 252473.0 0
158961.0 250953.0 0
162909.0 250898.0 0
167306.0 248336.0 0
167202.0 252974.0 0
172008.0 250233.0 0
177745.0 251440.0 0
183267.0 252211.0 0
188257.0 250152.0 0
193913.0 251009.0 0
199069.0 250727.0 0
204173.0 251153.0 0
214038.0 249692.0 0
209509.0 250817.0 0
217459.0 251795.0 0
222155.0 250002.0 0
226338.0 250515.0 0
230556.0 251838.0 0
235742.0 250121.0 0
240066.0 248270.0 0
243715.0 249204.0 0
240021.0 252266.0 0
250377.0 251440.0 0
256486.0 251319.0 0
262633.0 251641.0 0
266781.0 248693.0 0
272517.0 251126.0 0
278319.0 250904.0 0
283269.0 248343.0 0
289970.0 250992.0 0
294928.0 251889.0 0
299360.0 250425.0 0
303640.0 249737.0 0
307804.0 251237.0 0
313015.0 252378.0 0
317900.0 250597.0 0
322893.0 248924.0 0
327958.0 250833.0 0
333164.0 250457.0 0
338969.0 251808.0 0
344293.0 251815.0 0
346980.0 249254.0 0
351178.0 251489.0 0
358171.0 252394.0 0
362955.0 252963.0 0
367638.0 251906.0 0
372877.0 252378.0 0
377591.0 251160.0 0
387666.0 250956.0 0
383032.0 251350.0 0
390582.0 251833.0 0
394664.0 250503.0 0
400643.0 250266.0 0
409729.0 252783.0 0
416364.0 252234.0 0
422816.0 252500.0 0
428624.0 251272.0 0
433383.0 251724.0 0
438576.0 252645.0 0
441773.0 248156.0 0
448818.0 251035.0 0
444219.0 251957.0 0
452120.0 248296.0 0
452097.0 252285.0 0
457223.0 252081.0 0
462830.0 251726.0 0
466796.0 252994.0 0
470796.0 250255.0 0
476402.0 252884.0 0
482888.0 252126.0 0
488672.0 251282.0 0
492848.0 248616.0 0
492898.0 252337.0 0
497141.0 251335.0 0
2872.95 255372.0 0
7660.86 255665.0 0
13292.0 254088.0 0
17515.5 255505.0 0
21992.3 255493.0 0
29629.3 253787.0 0
25935.2 255900.0 0
33841.2 256662.0 0
36832.0 253213.0 0
38550.9 256681.0 0
43313.7 257495.0 0
47500.0 256301.0 0
51971.0 257625.0 0
58900.2 257190.0 0
64487.1 257420.0 0
68997.4 256150.0 0
73869.2 255607.0 0
77214.8 256027.0 0
80688.6 256471.0 0
86318.6 256591.0 0
92812.7 256455.0 0
98244.0 256731.0 0
102435.0 253394.0 0
106772.0 253584.0 0
103093.0 257358.0 0
109021.0 256768.0 0
113200.0 256383.0 0
122442.0 256256.0 0
117544.0 257451.0 0
126563.0 256868.0 0
131865.0 256325.0 0
136846.0 255867.0 0
140206.0 258173.0 0
144015.0 256552.0 0
150428.0 256346.0 0
157091.0 256174.0 0
162998.0 255285.0 0
167648.0 257635.0 0
173061.0 255865.0 0
183043.0 256826.0 0
178849.0 257506.0 0
186691.0 255529.0 0
191851.0 255885.0 0
196810.0 255073.0 0
201801.0 256171.0 0
207326.0 255914.0 0
213624.0 253961.0 0
216951.0 256974.0 0
220497.0 254841.0 0
225396.0 254367.0 0
229388.0 256876.0 0
235829.0 255600.0 0
240237.0 257276.0 0
245178.0 255277.0 0
252515.0 256454.0 0
257233.0 256774.0 0
262341.0 256415.0 0
267372.0 254205.0 0
272613.0 257233.0 0
277792.0 255920.0 0
282860.0 253884.0 0
289748.0 255763.0 0
285971.0 257395.0 0
293405.0 255468.0 0
297863.0 256381.0 0
303742.0 254885.0 0
309258.0 256802.0 0
315395.0 257798.0 0
320270.0 254927.0 0
324585.0 253497.0 0
328749.0 256453.0 0
334640.0 255764.0 0
338206.0 258009.0 0
342795.0 256968.0 0
348325.0 256287.0 0
354573.0 256210.0 0
358833.0 256356.0 0
362311.0 257019.0 0
366738.0 256948.0 0
371995.0 257765.0 0
376886.0 254982.0 0
380640.0 255632.0 0
386652.0 256131.0 0
391384.0 255217.0 0
396442.0 256210.0 0
400518.0 254644.0 0
404217.0 253568.0 0
407480.0 258247.0 0
413218.0 258079.0 0
418110.0 257283.0 0
422110.0 257654.0 0
426883.0 256105.0 0
431425.0 256012.0 0
436292.0 257992.0 0
442103.0 257298.0 0
447552.0 256210.0 0
452806.0 256472.0 0
457500.0 258142.0 0
461591.0 255944.0 0
465847.0 257050.0 0
470832.0 256050.0 0
480521.0 256543.0 0
485119.0 257170.0 0
491128.0 257128.0 0
497365.0 256826.0 0
2104.47 259530.0 0
6792.9 261160.0 0
12523.1 259449.0 0
18520.7 260542.0 0
24345.8 260268.0 0
30114.9 260641.0 0
35416.0 262076.0 0
39869.1 260738.0 0
43525.5 262784.0 0
47474.6 260473.0 0
51741.9 262464.0 0
56702.9 262222.0 0
61961.5 262235.0 0
66634.9 261913.0 0
71688.1 260496.0 0
77188.5 259645.0 0
82288.5 261458.0 0
88451.6 262907.0 0
93312.6 260562.0 0
97500.0 261335.0 0
102237.0 261135.0 0
107095.0 260910.0 0
112297.0 260638.0 0
117490.0 262065.0 0
122473.0 260332.0 0
132596.0 261093.0 0
127674.0 261832.0 0
137656.0 260809.0 0
142128.0 261238.0 0
147645.0 261029.0 0
153054.0 260362.0 0
157501.0 262054.0 0
161584.0 260205.0 0
165676.0 261886.0 0
171249.0 261739.0 0
176253.0 261735.0 0
180345.0 262173.0 0
184981.0 260610.0 0
190266.0 260173.0 0
195413.0 260662.0 0
201320.0 261625.0 0
206591.0 261952.0 0
212335.0 259785.0 0
218115.0 261324.0 0
222879.0 259301.0 0
227518.0 261929.0 0
232616.0 260458.0 0
238155.0 261248.0 0
243781.0 261605.0 0
248618.0 260204.0 0
255032.0 260510.0 0
259922.0 260681.0 0
266653.0 261243.0 0
272627.0 262163.0 0
276487.0 260773.0 0
281553.0 259637.0 0
286999.0 261985.0 0
292792.0 260286.0 0
298712.0 262246.0 0
303444.0 260179.0 0
307680.0 261457.0 0
312757.0 263070.0 0
319091.0 262150.0 0
323674.0 258434.0 0
323784.0 262657.0 0
328196.0 262095.0 0
332664.0 260400.0 0
337196.0 261788.0 0
341725.0 262203.0 0
346945.0 261699.0 0
352948.0 261484.0 0
358288.0 260174.0 0
363846.0 261415.0 0
368590.0 261055.0 0
377267.0 259283.0 0
372512.0 261644.0 0
383138.0 260602.0 0
392799.0 259954.0 0
388493.0 261832.0 0
396704.0 261725.0 0
401639.0 259717.0 0
408631.0 262839.0 0
412946.0 263042.0 0
417500.0 261234.0 0
423649.0 261557.0 0
429096.0 260305.0 0
432842.0 261494.0 0
439591.0 261653.0 0
445089.0 261293.0 0
449568.0 260951.0 0
453926.0 261297.0 0
458041.0 262706.0 0
461736.0 260510.0 0
466239.0 261759.0 0
472012.0 262076.0 0
476633.0 258807.0 0
481392.0 261162.0 0
487083.0 262376.0 0
492809.0 263024.0 0
497596.0 261860.0 0
3506.52 266612.0 0
8912.79 266427.0 0
12819.1 264874.0 0
18046.1 266752.0 0
23735.0 265634.0 0
29008.9 266435.0 0
33721.2 266238.0 0
38524.4 266559.0 0
43678.3 267510.0 0
47739.7 265235.0 0
52007.0 267020.0 0
56981.2 267629.0 0
61798.4 266943.0 0
66401.9 266505.0 0
71636.0 266381.0 0
78213.1 266862.0 0
84124.4 266201.0 0
87689.7 267981.0 0
94101.2 264777.0 0
99301.0 266033.0 0
103855.0 267466.0 0
108322.0 265875.0 0
113640.0 265480.0 0
122400.0 264724.0 0
118192.0 266514.0 0
126899.0 266778.0 0
131344.0 265925.0 0
135412.0 264569.0 0
139975.0 265514.0 0
145207.0 266164.0 0
151694.0 266471.0 0
157474.0 267213.0 0
162239.0 265634.0 0
167853.0 266199.0 0
173476.0 267375.0 0
178669.0 266144.0 0
183510.0 266156.0 0
188843.0 264280.0 0
193416.0 266910.0 0
198175.0 265372.0 0
202242.0 266940.0 0
207026.0 267120.0 0
212393.0 266181.0 0
217328.0 265788.0 0
221952.0 264634.0 0
226305.0 266708.0 0
231244.0 265855.0 0
236066.0 266431.0 0
240754.0 266270.0 0
247344.0 265618.0 0
251729.0 263505.0 0
251815.0 267513.0 0
256836.0 265667.0 0
262038.0 265841.0 0
272443.0 266908.0 0
277764.0 265211.0 0
282664.0 265131.0 0
287538.0 267472.0 0
294259.0 266900.0 0
299721.0 267062.0 0
304163.0 265191.0 0
308983.0 266462.0 0
315353.0 267960.0 0
320374.0 267159.0 0
326083.0 267395.0 0
333141.0 266562.0 0
339127.0 267092.0 0
343420.0 266222.0 0
347353.0 266498.0 0
351791.0 267027.0 0
357545.0 265522.0 0
362998.0 266450.0 0
368192.0 265892.0 0
373371.0 265315.0 0
378046.0 264386.0 0
382796.0 266751.0 0
392117.0 264909.0 0
387990.0 267540.0 0
397060.0 266075.0 0
402874.0 266389.0 0
407561.0 266388.0 0
411391.0 267342.0 0
416297.0 266195.0 0
421523.0 265990.0 0
427084.0 265369.0 0
431832.0 267639.0 0
436286.0 265165.0 0
442630.0 266562.0 0
449567.0 266578.0 0
454949.0 265968.0 0
459038.0 266994.0 0
462493.0 264734.0 0
466454.0 266621.0 0
470801.0 267243.0 0
477069.0 263438.0 0
475076.0 266992.0 0
479819.0 267482.0 0
485465.0 268038.0 0
491396.0 267233.0 0
496534.0 267336.0 0
3164.75 273274.0 0
7861.92 270491.0 0
13199.8 270784.0 0
18016.5 272727.0 0
22913.6 271267.0 0
28302.8 271579.0 0
33684.4 271147.0 0
38744.1 271497.0 0
42462.3 271341.0 0
47500.0 271111.0 0
52554.4 271417.0 0
57795.2 272944.0 0
62773.8 271410.0 0
67039.8 271309.0 0
72935.3 272432.0 0
78321.3 272661.0 0
82589.4 271255.0 0
87056.9 271896.0 0
92062.9 270093.0 0
97670.0 271321.0 0
102295.0 271137.0 0
107408.0 271707.0 0
113346.0 270897.0 0
121263.0 270007.0 0
117556.0 272247.0 0
125798.0 272691.0 0
129840.0 270194.0 0
135561.0 270367.0 0
141816.0 270383.0 0
147634.0 272510.0 0
152825.0 271822.0 0
156968.0 271689.0 0
162571.0 271748.0 0
168620.0 271717.0 0
178552.0 271228.0 0
173689.0 272743.0 0
183151.0 272862.0 0
188019.0 270165.0 0
193387.0 271708.0 0
197882.0 270396.0 0
202721.0 271136.0 0
206550.0 271508.0 0
210427.0 270759.0 0
215945.0 270307.0 0
222044.0 270761.0 0
227903.0 271170.0 0
232878.0 270316.0 0
237584.0 270908.0 0
243274.0 270754.0 0
248654.0 271096.0 0
254435.0 271179.0 0
259263.0 270537.0 0
262891.0 272260.0 0
266354.0 268565.0 0
270748.0 271188.0 0
276853.0 269779.0 0
282784.0 271283.0 0
288028.0 272758.0 0
292352.0 272443.0 0
298261.0 271360.0 0
306015.0 270777.0 0
310175.0 272318.0 0
311335.0 269506.0 0
314044.0 272981.0 0
318464.0 271218.0 0
322500.0 271396.0 0
328894.0 272052.0 0
333244.0 272950.0 0
337003.0 270947.0 0
341108.0 270878.0 0
346169.0 271024.0 0
357132.0 270841.0 0
352130.0 273133.0 0
361935.0 271365.0 0
372169.0 269932.0 0
367468.0 272671.0 0
377867.0 270380.0 0
383976.0 272794.0 0
389039.0 272318.0 0
392971.0 270125.0 0
398548.0 271502.0 0
404603.0 271549.0 0
408304.0 271559.0 0
411600.0 271635.0 0
415647.0 270991.0 0
420773.0 271479.0 0
427257.0 271922.0 0
432707.0 271707.0 0
437828.0 271759.0 0
443859.0 272810.0 0
448901.0 272698.0 0
453717.0 270801.0 0
458589.0 271085.0 0
462383.0 269205.0 0
466458.0 271501.0 0
471669.0 271901.0 0
476746.0 271569.0 0
482126.0 272349.0 0
489727.0 271359.0 0
493001.0 273351.0 0
497149.0 273330.0 0
2175.07 278521.0 0
6289.81 277473.0 0
11599.3 276900.0 0
17536.7 277191.0 0
22464.0 276938.0 0
27690.4 276640.0 0
32846.6 276527.0 0
37849.4 276030.0 0
42860.5 276132.0 0
47500.0 276194.0 0
52500.0 276113.0 0
57472.3 277404.0 0
62273.8 276467.0 0
67614.2 275695.0 0
72220.4 278153.0 0
77002.5 276549.0 0
81628.7 276160.0 0
86240.1 276018.0 0
91741.3 276505.0 0
97809.8 276709.0 0
102672.0 275689.0 0
106904.0 277853.0 0
111197.0 275779.0 0
115542.0 276575.0 0
120821.0 275896.0 0
126023.0 277524.0 0
131563.0 276180.0 0
137593.0 276554.0 0
143037.0 276984.0 0
152347.0 275800.0 0
148525.0 278316.0 0
156787.0 276370.0 0
161264.0 277579.0 0
165882.0 276253.0 0
170831.0 276671.0 0
176316.0 277311.0 0
181164.0 276384.0 0
186208.0 278368.0 0
190755.0 275088.0 0
195934.0 276036.0 0
202305.0 274820.0 0
207054.0 276519.0 0
212720.0 274963.0 0
217391.0 274722.0 0
221350.0 276260.0 0
226132.0 276005.0 0
231904.0 275367.0 0
236944.0 277483.0 0
240965.0 275005.0 0
246412.0 277067.0 0
252564.0 276444.0 0
257923.0 274559.0 0
262465.0 277299.0 0
267405.0 274268.0 0
272705.0 275267.0 0
277808.0 274481.0 0
276180.0 278694.0 0
283393.0 278317.0 0
289963.0 277282.0 0
296034.0 276529.0 0
302064.0 275425.0 0
308478.0 276279.0 0
313693.0 278111.0 0
318483.0 275789.0 0
325762.0 275749.0 0
322154.0 278491.0 0
331005.0 277510.0 0
336304.0 276631.0 0
342217.0 276274.0 0
347985.0 277211.0 0
357705.0 276692.0 0
363361.0 276289.0 0
372122.0 276052.0 0
377589.0 276343.0 0
388196.0 277188.0 0
393852.0 275801.0 0
403549.0 277347.0 0
409206.0 278098.0 0
413406.0 275822.0 0
418012.0 276436.0 0
422329.0 276521.0 0
427432.0 278674.0 0
432985.0 275964.0 0
437053.0 276685.0 0
442559.0 278298.0 0
447415.0 276074.0 0
451703.0 276654.0 0
455865.0 275071.0 0
461829.0 276379.0 0
468603.0 277082.0 0
474669.0 276988.0 0
480001.0 276448.0 0
486594.0 276576.0 0
493168.0 277728.0 0
498364.0 277650.0 0
2647.95 282803.0 0
6704.61 281344.0 0
11883.6 283686.0 0
17237.5 281688.0 0
21689.6 281813.0 0
26625.9 281842.0 0
32269.8 281982.0 0
37800.7 281101.0 0
42911.0 281248.0 0
48373.5 281067.0 0
53049.3 281296.0 0
57491.6 281690.0 0
62500.0 281280.0 0
67351.0 281304.0 0
72974.1 282489.0 0
77090.9 281477.0 0
80946.2 281464.0 0
86599.2 281190.0 0
92663.1 283100.0 0
98143.2 281753.0 0
102894.0 280705.0 0
107106.0 283207.0 0
112144.0 281081.0 0
117790.0 280948.0 0
127516.0 281240.0 0
123041.0 282614.0 0
131672.0 282984.0 0
135065.0 280058.0 0
139798.0 282677.0 0
146650.0 283547.0 0
153462.0 281603.0 0
159447.0 282122.0 0
165972.0 281467.0 0
171470.0 281899.0 0
177284.0 283532.0 0
183209.0 283640.0 0
191900.0 279828.0 0
195968.0 283664.0 0
201273.0 279777.0 0
206443.0 283238.0 0
211900.0 280731.0 0
217625.0 279437.0 0
222978.0 280922.0 0
228696.0 280972.0 0
233725.0 280333.0 0
237003.0 281998.0 0
241156.0 280345.0 0
246196.0 283495.0 0
251717.0 281888.0 0
257153.0 279029.0 0
263448.0 282886.0 0
268867.0 280243.0 0
274462.0 282932.0 0
278996.0 281730.0 0
288557.0 282036.0 0
293659.0 282226.0 0
300142.0 281582.0 0
305217.0 279899.0 0
308818.0 282149.0 0
313406.0 283100.0 0
316743.0 280963.0 0
320555.0 282621.0 0
326665.0 282183.0 0
333858.0 282462.0 0
338664.0 281010.0 0
342797.0 281746.0 0
347414.0 282183.0 0
352468.0 278790.0 0
352857.0 283615.0 0
357814.0 282477.0 0
362635.0 281112.0 0
367024.0 283120.0 0
367614.0 278773.0 0
371854.0 281510.0 0
377430.0 282262.0 0
382625.0 283428.0 0
382664.0 279070.0 0
386621.0 282714.0 0
391984.0 281980.0 0
397811.0 279655.0 0
396544.0 283773.0 0
406988.0 282295.0 0
411810.0 281798.0 0
417021.0 280977.0 0
422571.0 282255.0 0
432182.0 282556.0 0
437977.0 281907.0 0
448191.0 281128.0 0
455971.0 280980.0 0
461568.0 282937.0 0
466228.0 281593.0 0
471903.0 283306.0 0
477528.0 281791.0 0
481988.0 280424.0 0
491854.0 282834.0 0
497015.0 282419.0 0
162837.0 285119.0 0
188843.0 283965.0 0
201248.0 285211.0 0
204503.0 287763.0 0
210825.0 286394.0 0
216451.0 285178.0 0
222501.0 286655.0 0
227988.0 286377.0 0
233962.0 285153.0 0
236584.0 288484.0 0
240352.0 286120.0 0
248978.0 288069.0 0
253453.0 286668.0 0
258359.0 284010.0 0
261342.0 287072.0 0
265830.0 287788.0 0
270655.0 285768.0 0
278568.0 287209.0 0
284450.0 284697.0 0
289800.0 286575.0 0
297098.0 286954.0 0
304956.0 283910.0 0
302347.0 287508.0 0
401645.0 284069.0 0
427263.0 284389.0 0
442948.0 283852.0 0
452073.0 284294.0 0
481334.0 284266.0 0
486494.0 283887.0 0
199636.0 290146.0 0
204521.0 291895.0 0
209524.0 291393.0 0
215764.0 291279.0 0
221169.0 292035.0 0
226687.0 292054.0 0
231512.0 289694.0 0
235365.0 291656.0 0
244591.0 289202.0 0
240460.0 292234.0 0
252365.0 291603.0 0
257884.0 289561.0 0
262151.0 290171.0 0
271434.0 290897.0 0
276380.0 292574.0 0
283422.0 289338.0 0
280896.0 292470.0 0
284531.0 293736.0 0
287225.0 290876.0 0
293191.0 291466.0 0
299446.0 292322.0 0
200624.0 296434.0 0
206882.0 296393.0 0
212402.0 295617.0 0
218235.0 296958.0 0
223380.0 295958.0 0
227374.0 298004.0 0
231852.0 294997.0 0
236756.0 295323.0 0
240984.0 297965.0 0
245810.0 294343.0 0
250606.0 295915.0 0
256843.0 295954.0 0
262909.0 294237.0 0
268016.0 295050.0 0
273326.0 297266.0 0
278850.0 296478.0 0
283257.0 297361.0 0
288780.0 296168.0 0
294260.0 297073.0 0
298316.0 297027.0 0
202222.0 302810.0 0
208368.0 301899.0 0
213626.0 300701.0 0
218717.0 302329.0 0
223743.0 301932.0 0
228259.0 302594.0 0
231702.0 300365.0 0
236119.0 299382.0 0
240615.0 302044.0 0
246402.0 300206.0 0
252232.0 300644.0 0
257456.0 301854.0 0
261595.0 299334.0 0
266653.0 300278.0 0
271774.0 302037.0 0
276875.0 301259.0 0
279524.0 304104.0 0
281048.0 300393.0 0
285866.0 301365.0 0
291432.0 301105.0 0
297255.0 301632.0 0
341742.0 303901.0 0
10310.7 306237.0 0
206182.0 307303.0 0
210388.0 305886.0 0
215248.0 306231.0 0
220861.0 306547.0 0
226536.0 307533.0 0
231253.0 304969.0 0
237024.0 304816.0 0
243179.0 304817.0 0
248832.0 305580.0 0
254695.0 305795.0 0
261836.0 304649.0 0
268386.0 306749.0 0
274579.0 305306.0 0
278604.0 308186.0 0
283524.0 306301.0 0
289143.0 305888.0 0
293893.0 305221.0 0
297896.0 307817.0 0
309756.0 307767.0 0
48261.5 313661.0 0
174681.0 312686.0 0
201878.0 309934.0 0
206287.0 312611.0 0
211476.0 310744.0 0
216948.0 311772.0 0
222308.0 311409.0 0
228091.0 312040.0 0
232177.0 310035.0 0
237095.0 310199.0 0
241944.0 310258.0 0
247700.0 311469.0 0
253272.0 310952.0 0
258658.0 309445.0 0
262736.0 312021.0 0
267382.0 313027.0 0
273095.0 311632.0 0
279187.0 313909.0 0
282809.0 310543.0 0
287100.0 312176.0 0
292932.0 310451.0 0
297820.0 314313.0 0
362467.0 313910.0 0
368610.0 313693.0 0
389098.0 312757.0 0
404603.0 311023.0 0
421499.0 312294.0 0
443009.0 311942.0 0
455114.0 312323.0 0
472319.0 313066.0 0
492537.0 314043.0 0
497243.0 311891.0 0
6878.9 316047.0 0
56374.4 317575.0 0
63868.7 317584.0 0
68827.6 318603.0 0
79658.9 319338.0 0
96187.4 317851.0 0
100416.0 317298.0 0
107589.0 319035.0 0
115161.0 319337.0 0
121008.0 319230.0 0
126005.0 317018.0 0
158565.0 319034.0 0
167796.0 315909.0 0
177286.0 316739.0 0
191569.0 317891.0 0
196244.0 318819.0 0
201408.0 314708.0 0
200912.0 319065.0 0
205190.0 317506.0 0
210482.0 316418.0 0
215571.0 316470.0 0
220137.0 315866.0 0
225554.0 315516.0 0
231450.0 316162.0 0
237543.0 315112.0 0
242320.0 318163.0 0
248060.0 317522.0 0
253783.0 316300.0 0
258817.0 314639.0 0
259018.0 319049.0 0
263576.0 317185.0 0
269201.0 318143.0 0
274263.0 316883.0 0
284281.0 317166.0 0
288792.0 316763.0 0
292752.0 315733.0 0
297418.0 319313.0 0
309917.0 319272.0 0
317421.0 315986.0 0
322450.0 317377.0 0
357807.0 315493.0 0
374583.0 316334.0 0
391311.0 319435.0 0
437044.0 315584.0 0
461586.0 316184.0 0
476569.0 316310.0 0
481239.0 317403.0 0
14254.8 320600.0 0
17655.2 323916.0 0
22442.4 321915.0 0
30433.9 321820.0 0
36537.1 322353.0 0
48339.7 324565.0 0
53010.0 324562.0 0
75161.9 320639.0 0
85031.3 320036.0 0
93065.2 323952.0 0
111005.0 320880.0 0
124379.0 324125.0 0
131855.0 321341.0 0
137504.0 320354.0 0
142262.0 322607.0 0
150902.0 323929.0 0
154054.0 319640.0 0
173221.0 321762.0 0
178042.0 323606.0 0
178735.0 320105.0 0
208053.0 320495.0 0
204115.0 322145.0 0
213382.0 321323.0 0
217880.0 320154.0 0
222354.0 320042.0 0
220128.0 324126.0 0
227488.0 320811.0 0
233045.0 321895.0 0
238157.0 321115.0 0
241745.0 322927.0 0
245392.0 322043.0 0
251025.0 322406.0 0
255481.0 320845.0 0
261770.0 321475.0 0
267216.0 323183.0 0
273090.0 321173.0 0
277792.0 320613.0 0
282132.0 320938.0 0
284657.0 323411.0 0
287723.0 320919.0 0
292927.0 320736.0 0
296800.0 323801.0 0
322451.0 322089.0 0
326630.0 322848.0 0
330913.0 323122.0 0
339605.0 322466.0 0
388726.0 323950.0 0
396056.0 320874.0 0
417127.0 321940.0 0
423600.0 320245.0 0
426612.0 323814.0 0
431907.0 324517.0 0
439714.0 322805.0 0
449230.0 321956.0 0
462790.0 322633.0 0
466760.0 321446.0 0
471850.0 320043.0 0
479717.0 322686.0 0
484429.0 322766.0 0
497839.0 321342.0 0
2631.23 329206.0 0
8033.11 326236.0 0
14588.8 327424.0 0
30589.4 328022.0 0
40985.6 326758.0 0
45936.2 328233.0 0
88220.9 326026.0 0
92904.6 328961.0 0
97919.2 326077.0 0
102310.0 328184.0 0
113050.0 328242.0 0
119140.0 326227.0 0
126262.0 328332.0 0
146000.0 326058.0 0
155278.0 327295.0 0
169989.0 327014.0 0
177581.0 327776.0 0
183098.0 329430.0 0
188936.0 328088.0 0
194765.0 329336.0 0
199580.0 326718.0 0
204458.0 327282.0 0
209366.0 324869.0 0
215118.0 326838.0 0
222149.0 328389.0 0
225989.0 325790.0 0
230738.0 326653.0 0
236422.0 326379.0 0
241457.0 326698.0 0
247365.0 327481.0 0
253447.0 326896.0 0
257874.0 324714.0 0
262770.0 325700.0 0
267266.0 328517.0 0
271741.0 325618.0 0
276215.0 327081.0 0
280743.0 325172.0 0
287863.0 325873.0 0
292482.0 325644.0 0
300433.0 326277.0 0
296297.0 328571.0 0
304795.0 326718.0 0
308699.0 325919.0 0
314013.0 328811.0 0
318277.0 326111.0 0
335045.0 325782.0 0
345114.0 324658.0 0
342101.0 328059.0 0
348027.0 328213.0 0
364943.0 327216.0 0
377600.0 328078.0 0
383597.0 326869.0 0
390690.0 327880.0 0
393964.0 325757.0 0
398809.0 327909.0 0
407296.0 325027.0 0
403236.0 328780.0 0
412976.0 327349.0 0
422388.0 325712.0 0
436080.0 326354.0 0
444222.0 325063.0 0
458451.0 324822.0 0
473827.0 329471.0 0
478880.0 327906.0 0
489239.0 325691.0 0
492521.0 329689.0 0
497266.0 329446.0 0
4198.95 334310.0 0
10165.2 332459.0 0
18911.2 329751.0 0
27252.5 332074.0 0
31965.1 334559.0 0
37311.7 330353.0 0
44551.6 333715.0 0
49617.5 334650.0 0
54909.3 331223.0 0
60744.6 332271.0 0
73247.1 334309.0 0
79797.4 334807.0 0
85759.2 331242.0 0
91010.0 331374.0 0
96476.5 330399.0 0
100409.0 332567.0 0
105708.0 331274.0 0
118044.0 333531.0 0
127597.0 333060.0 0
137141.0 329792.0 0
132697.0 331711.0 0
140009.0 334019.0 0
145853.0 334036.0 0
166524.0 331070.0 0
169946.0 334774.0 0
175197.0 333110.0 0
182127.0 334671.0 0
208804.0 330111.0 0
204264.0 332794.0 0
213049.0 333245.0 0
218461.0 331931.0 0
222823.0 332286.0 0
226675.0 330621.0 0
231909.0 331845.0 0
237328.0 331808.0 0
242511.0 331336.0 0
247195.0 333853.0 0
252148.0 331820.0 0
257600.0 330427.0 0
262724.0 330396.0 0
265968.0 334256.0 0
272511.0 331318.0 0
278356.0 331240.0 0
284059.0 330093.0 0
281480.0 334673.0 0
290888.0 331002.0 0
296164.0 334686.0 0
305453.0 330642.0 0
301840.0 333711.0 0
309712.0 330068.0 0
308857.0 334684.0 0
312807.0 334065.0 0
335177.0 333288.0 0
341691.0 332953.0 0
360423.0 331018.0 0
368691.0 329849.0 0
373639.0 332268.0 0
380959.0 332858.0 0
385630.0 331600.0 0
394399.0 330547.0 0
398411.0 331926.0 0
402468.0 333682.0 0
411664.0 334789.0 0
415149.0 331792.0 0
431773.0 330040.0 0
462565.0 332454.0 0
468005.0 334112.0 0
483291.0 331504.0 0
488293.0 332952.0 0
494690.0 334396.0 0
1396.57 337300.0 0
8211.08 336266.0 0
11918.4 337741.0 0
16619.4 337210.0 0
21754.5 335906.0 0
31750.6 339302.0 0
36111.9 338551.0 0
40529.6 338180.0 0
53511.7 336192.0 0
65233.2 335415.0 0
75981.4 339197.0 0
97591.4 336002.0 0
101262.0 337118.0 0
122206.0 335530.0 0
125707.0 336753.0 0
132217.0 337794.0 0
137709.0 339275.0 0
150246.0 337452.0 0
157949.0 336205.0 0
162385.0 336984.0 0
166757.0 339561.0 0
178324.0 336622.0 0
173828.0 337929.0 0
182587.0 339447.0 0
203645.0 338379.0 0
208535.0 335549.0 0
212198.0 338134.0 0
217015.0 338794.0 0
221559.0 336213.0 0
226406.0 335588.0 0
231060.0 337184.0 0
236973.0 337756.0 0
242620.0 336392.0 0
247372.0 338303.0 0
251047.0 336960.0 0
255676.0 335662.0 0
261566.0 335821.0 0
265055.0 339057.0 0
269961.0 338128.0 0
276227.0 337085.0 0
282304.0 339600.0 0
286560.0 335645.0 0
291613.0 338183.0 0
305242.0 337439.0 0
315851.0 337888.0 0
321608.0 337656.0 0
329672.0 336379.0 0
345721.0 338113.0 0
350533.0 335706.0 0
355714.0 337200.0 0
365233.0 339912.0 0
368277.0 335353.0 0
371514.0 339821.0 0
376826.0 337311.0 0
388242.0 334838.0 0
392773.0 339305.0 0
397327.0 337142.0 0
402414.0 338442.0 0
406830.0 336295.0 0
417627.0 336604.0 0
430432.0 339353.0 0
435876.0 337687.0 0
440796.0 335293.0 0
443743.0 339582.0 0
448497.0 337652.0 0
472750.0 335146.0 0
472922.0 339470.0 0
477904.0 339591.0 0
490331.0 337536.0 0
498185.0 337489.0 0
9024.03 341145.0 0
22141.1 341393.0 0
27556.0 342417.0 0
42506.5 341823.0 0
47221.1 342537.0 0
55082.9 340294.0 0
57767.4 344034.0 0
71070.6 340643.0 0
66580.1 343682.0 0
78232.9 344570.0 0
87177.6 342139.0 0
92596.4 344588.0 0
101304.0 342341.0 0
105416.0 342748.0 0
110427.0 344630.0 0
115988.0 340360.0 0
121376.0 341167.0 0
119859.0 344822.0 0
127453.0 340200.0 0
125026.0 343600.0 0
134374.0 342152.0 0
136923.0 342448.0 0
142940.0 341908.0 0
149278.0 344039.0 0
154955.0 342841.0 0
159503.0 341564.0 0
162950.0 343880.0 0
170964.0 341368.0 0
178107.0 340884.0 0
179935.0 344287.0 0
188433.0 341382.0 0
193830.0 344177.0 0
198291.0 341108.0 0
203019.0 343993.0 0
208368.0 340628.0 0
213342.0 342797.0 0
221965.0 341452.0 0
227533.0 341343.0 0
232973.0 342232.0 0
238346.0 344009.0 0
244050.0 341822.0 0
249431.0 341686.0 0
253943.0 341927.0 0
259247.0 340327.0 0
263782.0 343117.0 0
267956.0 342527.0 0
272635.0 342580.0 0
277967.0 343403.0 0
283126.0 344941.0 0
287492.0 341779.0 0
292435.0 343590.0 0
296049.0 340318.0 0
296788.0 344329.0 0
305776.0 344950.0 0
310186.0 341067.0 0
315912.0 343757.0 0
326129.0 340855.0 0
329885.0 342799.0 0
332766.0 340772.0 0
354804.0 344582.0 0
359390.0 340869.0 0
363529.0 344521.0 0
368250.0 344976.0 0
375763.0 343214.0 0
382983.0 340151.0 0
388117.0 343685.0 0
405524.0 341405.0 0
418256.0 341769.0 0
423877.0 341821.0 0
448865.0 342527.0 0
453540.0 343847.0 0
457751.0 341093.0 0
463509.0 341204.0 0
469551.0 342587.0 0
473869.0 343586.0 0
485101.0 343667.0 0
492549.0 341392.0 0
497345.0 342386.0 0
12432.9 346780.0 0
18261.9 346741.0 0
31572.7 348916.0 0
35807.4 345916.0 0
40409.5 346624.0 0
62118.7 345540.0 0
83627.7 346836.0 0
88025.0 347648.0 0
98112.3 348289.0 0
115498.0 346461.0 0
119756.0 348710.0 0
124322.0 347629.0 0
137186.0 349707.0 0
145130.0 345912.0 0
152637.0 347278.0 0
157044.0 347388.0 0
175791.0 345635.0 0
203858.0 349084.0 0
208509.0 346089.0 0
213749.0 348408.0 0
218085.0 345241.0 0
223563.0 346417.0 0
220603.0 348738.0 0
229106.0 346323.0 0
226339.0 349394.0 0
233944.0 347389.0 0
238243.0 349026.0 0
242591.0 347574.0 0
247749.0 346443.0 0
252019.0 345309.0 0
255729.0 347243.0 0
260666.0 346375.0 0
265241.0 347090.0 0
269755.0 346635.0 0
274724.0 348127.0 0
281330.0 349275.0 0
288076.0 347594.0 0
293511.0 348383.0 0
297701.0 347956.0 0
301362.0 345504.0 0
309184.0 346061.0 0
320548.0 347847.0 0
332502.0 345696.0 0
332244.0 349631.0 0
337497.0 345590.0 0
344487.0 346506.0 0
350089.0 346045.0 0
359342.0 346398.0 0
379842.0 345782.0 0
383935.0 345851.0 0
396224.0 347854.0 0
401114.0 349811.0 0
420703.0 345495.0 0
428710.0 345330.0 0
443848.0 348019.0 0
460614.0 349031.0 0
475351.0 348788.0 0
480010.0 345065.0 0
486287.0 349217.0 0
2385.26 351833.0 0
11457.4 352917.0 0
19755.7 351265.0 0
23726.9 352493.0 0
28043.2 353248.0 0
37894.0 352773.0 0
42563.5 350543.0 0
44669.6 355195.0 0
48901.4 353371.0 0
59411.4 351900.0 0
73236.5 350655.0 0
78992.8 352484.0 0
84814.0 352701.0 0
103476.0 351716.0 0
108327.0 353145.0 0
127047.0 351932.0 0
133529.0 352415.0 0
141682.0 352460.0 0
147366.0 354366.0 0
178009.0 352703.0 0
182816.0 352376.0 0
188845.0 352303.0 0
195076.0 354566.0 0
208167.0 351576.0 0
204108.0 354660.0 0
212556.0 353154.0 0
217782.0 352221.0 0
223052.0 351941.0 0
230370.0 351236.0 0
235440.0 352288.0 0
240617.0 352484.0 0
245893.0 352019.0 0
251487.0 350457.0 0
251784.0 355031.0 0
256381.0 352301.0 0
262295.0 351197.0 0
267791.0 351437.0 0
272933.0 353272.0 0
278143.0 352767.0 0
284606.0 352336.0 0
290666.0 353065.0 0
296289.0 352813.0 0
320417.0 353439.0 0
324961.0 353364.0 0
327915.0 350354.0 0
349617.0 352764.0 0
356286.0 353682.0 0
366109.0 353932.0 0
370489.0 354226.0 0
373783.0 350952.0 0
391305.0 351294.0 0
405441.0 351928.0 0
410203.0 353849.0 0
415232.0 352331.0 0
420447.0 352981.0 0
436061.0 353791.0 0
441300.0 352283.0 0
447423.0 351870.0 0
452098.0 353650.0 0
463371.0 353351.0 0
468386.0 350785.0 0
472620.0 353681.0 0
478625.0 353948.0 0
482264.0 351579.0 0
488314.0 353089.0 0
491602.0 350805.0 0
497634.0 354622.0 0
6006.39 355529.0 0
10345.6 358343.0 0
14356.5 359277.0 0
17628.4 356962.0 0
21198.9 359147.0 0
31549.5 356221.0 0
53337.5 355465.0 0
57735.5 355373.0 0
81396.5 356802.0 0
88732.2 358039.0 0
94616.0 358743.0 0
115852.0 359249.0 0
131487.0 356465.0 0
151889.0 358129.0 0
157006.0 356722.0 0
162148.0 356420.0 0
166764.0 355379.0 0
172721.0 355541.0 0
209121.0 356859.0 0
215369.0 357847.0 0
220784.0 356492.0 0
223987.0 359425.0 0
226888.0 355488.0 0
232135.0 356079.0 0
237585.0 357042.0 0
242766.0 356193.0 0
247712.0 357949.0 0
259924.0 355326.0 0
255622.0 357469.0 0
264641.0 355979.0 0
269286.0 356068.0 0
275546.0 358108.0 0
281959.0 357629.0 0
288240.0 358254.0 0
294025.0 358072.0 0
307859.0 357054.0 0
313339.0 358614.0 0
318165.0 357696.0 0
333604.0 359133.0 0
339112.0 355555.0 0
344315.0 357697.0 0
348224.0 359664.0 0
361855.0 356495.0 0
373349.0 357228.0 0
377846.0 357831.0 0
382120.0 357294.0 0
386421.0 357522.0 0
424465.0 355827.0 0
429055.0 355377.0 0
426375.0 359653.0 0
434661.0 358792.0 0
444448.0 358303.0 0
456662.0 358752.0 0
461427.0 360199.0 0
475464.0 356968.0 0
478873.0 359632.0 0
484076.0 358036.0 0
2520.43 364023.0 0
23712.7 362495.0 0
27712.7 363409.0 0
38957.8 364479.0 0
69098.3 364472.0 0
73712.4 361974.0 0
79008.2 363800.0 0
99836.4 361778.0 0
111993.0 364360.0 0
115838.0 365010.0 0
124424.0 360570.0 0
129417.0 360883.0 0
132091.0 364296.0 0
137331.0 362462.0 0
141484.0 364099.0 0
173534.0 364120.0 0
178121.0 362735.0 0
182877.0 361282.0 0
190151.0 361501.0 0
198863.0 362931.0 0
194183.0 364738.0 0
204628.0 360405.0 0
206243.0 364890.0 0
209960.0 361819.0 0
219390.0 361699.0 0
214389.0 363588.0 0
223669.0 363980.0 0
228627.0 361351.0 0
233699.0 360428.0 0
232438.0 364979.0 0
237551.0 362970.0 0
241574.0 360445.0 0
249655.0 362723.0 0
245280.0 363268.0 0
254568.0 362914.0 0
260848.0 361050.0 0
267626.0 360899.0 0
273013.0 363139.0 0
278545.0 362973.0 0
282848.0 362591.0 0
286482.0 362838.0 0
290904.0 362600.0 0
295682.0 363407.0 0
304833.0 361483.0 0
326082.0 363928.0 0
345237.0 362214.0 0
348323.0 363994.0 0
375332.0 360596.0 0
387759.0 364225.0 0
396070.0 362480.0 0
405148.0 362500.0 0
412280.0 360336.0 0
416387.0 361991.0 0
422843.0 364655.0 0
431748.0 362787.0 0
439140.0 360596.0 0
452878.0 362210.0 0
457920.0 363707.0 0
465643.0 362251.0 0
2267.18 375417.0 0
6213.64 375164.0 0
9962.37 375375.0 0
14248.9 375539.0 0
18925.3 375299.0 0
24185.1 375055.0 0
27822.9 376066.0 0
31058.5 375177.0 0
35470.8 366101.0 0
31330.3 366514.0 0
34903.7 375517.0 0
42034.4 375354.0 0
38481.6 375425.0 0
45575.7 375241.0 0
49607.3 375507.0 0
53931.7 375312.0 0
62764.9 369388.0 0
58276.5 369245.0 0
64067.3 364611.0 0
67184.5 375120.0 0
70612.7 375575.0 0
75330.5 375539.0 0
79199.4 368547.0 0
79522.5 375316.0 0
83546.0 366373.0 0
85956.2 370384.0 0
89450.6 372338.0 0
92599.9 375357.0 0
96655.7 375472.0 0
102136.0 366507.0 0
106851.0 364894.0 0
109975.0 375529.0 0
114663.0 373617.0 0
122516.0 366652.0 0
118051.0 368668.0 0
121506.0 375434.0 0
125891.0 375102.0 0
130427.0 375479.0 0
134140.0 375381.0 0
137898.0 375256.0 0
141659.0 375479.0 0
145773.0 375255.0 0
150069.0 372673.0 0
154687.0 375204.0 0
160408.0 375144.0 0
165228.0 375284.0 0
168887.0 375437.0 0
172448.0 375159.0 0
174778.0 375751.0 0
175484.0 377261.0 0
177554.0 375040.0 0
184729.0 370122.0 0
180719.0 371279.0 0
187241.0 367185.0 0
188421.0 375790.0 0
192470.0 375090.0 0
195125.0 377398.0 0
198230.0 375338.0 0
204401.0 367966.0 0
210271.0 366422.0 0
214503.0 368393.0 0
219012.0 366580.0 0
223354.0 368747.0 0
227934.0 366980.0 0
236386.0 368027.0 0
241357.0 366243.0 0
246272.0 368494.0 0
251140.0 366801.0 0
256381.0 368875.0 0
262934.0 367731.0 0
268112.0 366095.0 0
272145.0 368251.0 0
276966.0 367903.0 0
282190.0 367343.0 0
286533.0 366499.0 0
288306.0 370031.0 0
292241.0 367146.0 0
295951.0 370130.0 0
301244.0 375438.0 0
296229.0 366912.0 0
306370.0 375272.0 0
310155.0 375669.0 0
314074.0 375419.0 0
317729.0 375286.0 0
320620.0 375118.0 0
320801.0 364942.0 0
321881.0 377243.0 0
323613.0 375090.0 0
327297.0 375679.0 0
331284.0 375187.0 0
334097.0 369179.0 0
338741.0 368141.0 0
339966.0 364934.0 0
344226.0 366160.0 0
344985.0 375183.0 0
348625.0 375256.0 0
351265.0 375568.0 0
354093.0 375069.0 0
353398.0 365166.0 0
358743.0 375181.0 0
363214.0 375335.0 0
367179.0 372991.0 0
372872.0 371128.0 0
375607.0 375389.0 0
377086.0 367642.0 0
382910.0 368805.0 0
391971.0 365423.0 0
388212.0 371213.0 0
396328.0 375366.0 0
401241.0 375301.0 0
409227.0 375230.0 0
405442.0 375759.0 0
412783.0 375449.0 0
416070.0 375693.0 0
417562.0 366383.0 0
424290.0 375641.0 0
427813.0 375380.0 0
429251.0 367430.0 0
431995.0 375511.0 0
436045.0 375128.0 0
440415.0 368379.0 0
444440.0 375664.0 0
448734.0 365884.0 0
444373.0 367457.0 0
449040.0 370934.0 0
453647.0 375303.0 0
458431.0 375774.0 0
463069.0 375253.0 0
466766.0 375263.0 0
469942.0 375071.0 0
472537.0 371064.0 0
476981.0 370512.0 0
483950.0 368103.0 0
480802.0 375082.0 0
488519.0 365973.0 0
493893.0 364659.0 0
497469.0 375204.0 0
1440.27 378486.0 0
4019.68 380293.0 0
5947.63 378221.0 0
7878.84 381404.0 0
10285.2 378805.0 0
14081.9 379160.0 0
17732.8 379169.0 0
21850.7 378465.0 0
25290.7 378974.0 0
24884.9 381996.0 0
28634.1 379394.0 0
31385.9 378044.0 0
34369.3 378785.0 0
31816.3 381263.0 0
37401.4 378648.0 0
39920.4 377691.0 0
42509.6 378162.0 0
45351.9 378069.0 0
48321.7 379077.0 0
48974.0 382153.0 0
52301.8 379274.0 0
56107.5 377887.0 0
56016.9 381393.0 0
57978.7 375238.0 0
59962.9 378990.0 0
61139.2 375497.0 0
64245.6 375935.0 0
67828.7 377752.0 0
71587.2 378616.0 0
69129.0 380387.0 0
74627.7 379829.0 0
78604.5 378111.0 0
81309.4 376913.0 0
77820.6 380908.0 0
82267.9 379659.0 0
82275.1 375222.0 0
85427.3 375852.0 0
86170.7 380418.0 0
89167.6 377165.0 0
93802.6 378955.0 0
100896.0 375628.0 0
98231.5 379378.0 0
105260.0 375674.0 0
106348.0 379142.0 0
102525.0 379188.0 0
109577.0 379807.0 0
118423.0 372648.0 0
113170.0 378355.0 0
116326.0 380106.0 0
115861.0 376701.0 0
118655.0 376653.0 0
120456.0 380531.0 0
123493.0 378409.0 0
128033.0 379010.0 0
136911.0 378560.0 0
132613.0 379319.0 0
136015.0 381850.0 0
140922.0 379155.0 0
148853.0 376842.0 0
144967.0 378925.0 0
151830.0 376921.0 0
153663.0 380085.0 0
149487.0 380889.0 0
157396.0 378721.0 0
162659.0 378499.0 0
160753.0 381619.0 0
169537.0 378223.0 0
166184.0 378555.0 0
168517.0 381020.0 0
164802.0 381754.0 0
172486.0 378479.0 0
175809.0 379738.0 0
176743.0 382190.0 0
178953.0 378384.0 0
181010.0 375569.0 0
182835.0 379046.0 0
184597.0 375441.0 0
186759.0 379532.0 0
190684.0 379050.0 0
196950.0 380031.0 0
193921.0 380339.0 0
199526.0 378855.0 0
204141.0 372429.0 0
209924.0 371870.0 0
219119.0 371270.0 0
215097.0 372780.0 0
222781.0 373166.0 0
226803.0 371754.0 0
232160.0 372079.0 0
237562.0 372311.0 0
241692.0 371319.0 0
247403.0 373433.0 0
251366.0 371354.0 0
257634.0 373650.0 0
261101.0 372713.0 0
267882.0 371701.0 0
273129.0 372655.0 0
279238.0 372182.0 0
284067.0 372232.0 0
287774.0 374314.0 0
292206.0 372777.0 0
300681.0 379526.0 0
295909.0 375428.0 0
304340.0 378034.0 0
305032.0 381203.0 0
307947.0 378952.0 0
310937.0 379023.0 0
309019.0 382489.0 0
314255.0 378523.0 0
312334.0 381542.0 0
318342.0 378593.0 0
321664.0 380916.0 0
324692.0 378383.0 0
328273.0 379775.0 0
331817.0 378568.0 0
336147.0 376420.0 0
340545.0 375313.0 0
339365.0 379724.0 0
342265.0 378185.0 0
347327.0 378997.0 0
355290.0 377944.0 0
351782.0 378264.0 0
355096.0 381791.0 0
362264.0 378038.0 0
358895.0 379713.0 0
366657.0 378440.0 0
370276.0 376406.0 0
370759.0 380589.0 0
373280.0 376647.0 0
376965.0 378173.0 0
374602.0 380157.0 0
378487.0 375453.0 0
381614.0 375457.0 0
380689.0 378759.0 0
385287.0 376597.0 0
388930.0 377362.0 0
391595.0 375458.0 0
391695.0 380286.0 0
394575.0 379022.0 0
403218.0 377847.0 0
399176.0 379412.0 0
406648.0 379084.0 0
403563.0 380834.0 0
410137.0 378635.0 0
411639.0 381727.0 0
413994.0 378772.0 0
417748.0 379477.0 0
419937.0 375645.0 0
421684.0 380035.0 0
429144.0 378539.0 0
425477.0 379270.0 0
432528.0 380121.0 0
440487.0 375828.0 0
436223.0 378818.0 0
443334.0 379269.0 0
439335.0 380618.0 0
446999.0 375652.0 0
447602.0 379798.0 0
450193.0 376452.0 0
451642.0 380240.0 0
454832.0 378843.0 0
457586.0 380879.0 0
461364.0 379338.0 0
465931.0 378375.0 0
470024.0 378377.0 0
468932.0 382370.0 0
473858.0 375763.0 0
472991.0 379666.0 0
477674.0 377205.0 0
475853.0 380689.0 0
483981.0 376327.0 0
481895.0 379177.0 0
487810.0 375180.0 0
486008.0 379328.0 0
492714.0 375707.0 0
489518.0 379021.0 0
493856.0 380015.0 0
497965.0 378862.0 0
1454.56 381535.0 0
1681.7 384433.0 0
5006.14 383108.0 0
8973.8 384759.0 0
11791.1 382533.0 0
13030.2 386266.0 0
15881.7 383092.0 0
20714.9 382685.0 0
25174.4 385177.0 0
28102.8 382670.0 0
28314.8 386121.0 0
31676.4 384751.0 0
35776.9 382370.0 0
39261.2 385144.0 0
40273.2 381364.0 0
44772.7 381582.0 0
42912.4 384949.0 0
49982.5 385346.0 0
46824.3 384848.0 0
52078.1 383300.0 0
55219.1 385176.0 0
52179.3 387295.0 0
59637.0 383630.0 0
64294.4 380670.0 0
63544.1 385610.0 0
71875.3 382459.0 0
67837.2 384015.0 0
75525.5 384845.0 0
80397.8 383993.0 0
84203.9 383664.0 0
90341.4 381844.0 0
87215.2 384852.0 0
91087.6 386271.0 0
95230.1 383246.0 0
100367.0 382273.0 0
98544.9 385151.0 0
104617.0 382557.0 0
102248.0 385743.0 0
108708.0 383206.0 0
113007.0 382682.0 0
117240.0 384005.0 0
121568.0 385216.0 0
125523.0 383040.0 0
130351.0 382702.0 0
129095.0 385752.0 0
133710.0 382927.0 0
132513.0 385686.0 0
136807.0 385469.0 0
142561.0 382226.0 0
139034.0 382274.0 0
141197.0 384873.0 0
145590.0 382734.0 0
149407.0 385386.0 0
153234.0 383743.0 0
156885.0 383377.0 0
160195.0 385008.0 0
163189.0 384720.0 0
167364.0 384283.0 0
172116.0 382596.0 0
170269.0 386842.0 0
175681.0 386182.0 0
179959.0 382166.0 0
180532.0 385075.0 0
184291.0 383110.0 0
188836.0 383456.0 0
192230.0 382640.0 0
192777.0 385377.0 0
199203.0 382545.0 0
195435.0 382953.0 0
196136.0 385914.0 0
199258.0 385617.0 0
203279.0 378239.0 0
207137.0 376619.0 0
212564.0 376877.0 0
216916.0 376295.0 0
216042.0 380031.0 0
221061.0 377382.0 0
226494.0 376922.0 0
231419.0 377160.0 0
236712.0 377252.0 0
242980.0 376699.0 0
247788.0 377581.0 0
251624.0 375902.0 0
256139.0 377452.0 0
260888.0 376999.0 0
265875.0 377048.0 0
270730.0 376207.0 0
273892.0 380190.0 0
276142.0 376433.0 0
281435.0 376646.0 0
285820.0 377698.0 0
290916.0 377624.0 0
295603.0 380330.0 0
301325.0 382905.0 0
305606.0 385038.0 0
312294.0 385332.0 0
316233.0 382507.0 0
320151.0 383879.0 0
325009.0 381424.0 0
323547.0 383856.0 0
324462.0 385917.0 0
327306.0 384304.0 0
331270.0 382998.0 0
334166.0 381082.0 0
336818.0 381394.0 0
334948.0 385842.0 0
339350.0 383788.0 0
343113.0 382088.0 0
351529.0 381412.0 0
348141.0 384058.0 0
353131.0 386148.0 0
358458.0 383836.0 0
362368.0 381916.0 0
362140.0 386741.0 0
366533.0 383675.0 0
370401.0 384952.0 0
373806.0 383926.0 0
378284.0 382142.0 0
383270.0 381491.0 0
385109.0 385001.0 0
387617.0 381931.0 0
392518.0 384648.0 0
396015.0 382165.0 0
400290.0 384122.0 0
404868.0 383974.0 0
408211.0 382469.0 0
403110.0 386690.0 0
411822.0 385020.0 0
415419.0 382664.0 0
419604.0 383471.0 0
424481.0 383500.0 0
428400.0 382382.0 0
432095.0 383564.0 0
428726.0 385972.0 0
435851.0 382595.0 0
434532.0 384869.0 0
441765.0 383226.0 0
438422.0 384525.0 0
445647.0 383113.0 0
449703.0 384937.0 0
454101.0 382854.0 0
457738.0 384942.0 0
460899.0 383334.0 0
464549.0 382237.0 0
463347.0 385394.0 0
466906.0 385774.0 0
472565.0 383646.0 0
479811.0 381852.0 0
476737.0 384565.0 0
484594.0 382949.0 0
480880.0 385611.0 0
489399.0 382611.0 0
493541.0 384042.0 0
498127.0 382281.0 0
497908.0 385540.0 0
1174.25 387019.0 0
1968.0 390224.0 0
5438.37 387023.0 0
9896.69 388544.0 0
14397.9 390644.0 0
17501.0 387231.0 0
19369.4 391138.0 0
22127.3 387238.0 0
23424.7 390946.0 0
26372.8 388672.0 0
30788.5 389533.0 0
35276.0 387094.0 0
34821.9 391320.0 0
39000.0 387815.0 0
38580.9 390938.0 0
41737.6 388117.0 0
44872.2 387467.0 0
41588.8 391051.0 0
44651.8 391167.0 0
48631.7 388602.0 0
55459.7 389224.0 0
57628.4 386503.0 0
59979.8 388009.0 0
63168.1 390248.0 0
66904.8 387945.0 0
71107.7 386367.0 0
70238.1 389848.0 0
74528.3 389651.0 0
79082.8 388260.0 0
83655.0 387802.0 0
87486.5 388387.0 0
94923.4 388108.0 0
99188.9 388911.0 0
106682.0 387042.0 0
103485.0 389477.0 0
111311.0 386484.0 0
109486.0 390024.0 0
114802.0 386637.0 0
118562.0 388550.0 0
126200.0 388323.0 0
122450.0 388038.0 0
130394.0 388025.0 0
134454.0 389549.0 0
140158.0 389370.0 0
144933.0 386526.0 0
145198.0 390213.0 0
149023.0 389005.0 0
151965.0 391640.0 0
154054.0 388126.0 0
158079.0 386750.0 0
161290.0 387863.0 0
158441.0 390329.0 0
162959.0 391070.0 0
165372.0 387626.0 0
168018.0 390608.0 0
172317.0 389583.0 0
175626.0 391043.0 0
183377.0 386713.0 0
180007.0 388912.0 0
186902.0 387210.0 0
190621.0 387180.0 0
189259.0 390439.0 0
193943.0 389349.0 0
198790.0 389232.0 0
203639.0 381843.0 0
209360.0 382406.0 0
214716.0 383551.0 0
220021.0 382318.0 0
225202.0 382432.0 0
230548.0 381806.0 0
235450.0 382668.0 0
240041.0 381882.0 0
245820.0 382514.0 0
252788.0 382466.0 0
259151.0 381839.0 0
263615.0 381148.0 0
265191.0 385194.0 0
269632.0 381335.0 0
277782.0 381745.0 0
282595.0 381080.0 0
286374.0 381400.0 0
290574.0 383071.0 0
300976.0 387214.0 0
304384.0 388747.0 0
305558.0 391280.0 0
308984.0 388156.0 0
317014.0 387712.0 0
313013.0 388954.0 0
314835.0 391378.0 0
321883.0 386710.0 0
321344.0 390223.0 0
326378.0 389524.0 0
330465.0 386833.0 0
331835.0 390576.0 0
335989.0 390818.0 0
339283.0 387871.0 0
339465.0 391048.0 0
343766.0 386967.0 0
346055.0 391022.0 0
348661.0 388634.0 0
351507.0 390509.0 0
354951.0 390359.0 0
357390.0 387277.0 0
358969.0 390727.0 0
367298.0 388474.0 0
363361.0 390793.0 0
372054.0 388052.0 0
376601.0 386866.0 0
381231.0 385365.0 0
380098.0 389662.0 0
384256.0 388638.0 0
388746.0 387353.0 0
396902.0 386421.0 0
393492.0 390591.0 0
400330.0 388604.0 0
397674.0 390028.0 0
407706.0 386769.0 0
403981.0 390506.0 0
408463.0 390458.0 0
412225.0 388765.0 0
416384.0 386846.0 0
415760.0 391201.0 0
421707.0 386592.0 0
419722.0 389684.0 0
425474.0 387342.0 0
432689.0 387563.0 0
428833.0 390208.0 0
435878.0 386220.0 0
437446.0 389028.0 0
440602.0 387216.0 0
444332.0 386602.0 0
447237.0 389747.0 0
452073.0 389373.0 0
454166.0 386414.0 0
457254.0 389775.0 0
460820.0 386905.0 0
464183.0 388406.0 0
461589.0 390046.0 0
467933.0 389498.0 0
470481.0 386741.0 0
473942.0 388083.0 0
471301.0 390239.0 0
478087.0 387877.0 0
476641.0 390577.0 0
484239.0 387238.0 0
481119.0 389965.0 0
488703.0 386872.0 0
485616.0 390364.0 0
489172.0 390679.0 0
493517.0 388668.0 0
498161.0 389251.0 0
1951.83 394040.0 0
6305.71 391992.0 0
9011.2 394971.0 0
5714.09 396748.0 0
10442.2 392182.0 0
12324.1 394881.0 0
16909.3 395062.0 0
22685.9 395033.0 0
27321.1 392672.0 0
32236.9 394814.0 0
37474.3 394709.0 0
41505.3 393816.0 0
45098.1 395574.0 0
48395.2 392832.0 0
51895.8 391163.0 0
54755.6 393399.0 0
58713.0 391939.0 0
61936.2 394356.0 0
66798.4 392551.0 0
65154.2 396243.0 0
71415.9 393255.0 0
75315.4 394192.0 0
78153.2 391826.0 0
79755.2 395797.0 0
81937.4 391494.0 0
85945.0 391591.0 0
84113.7 394639.0 0
90674.7 391389.0 0
87753.7 395269.0 0
95975.8 392720.0 0
100954.0 393049.0 0
106269.0 392744.0 0
110470.0 393582.0 0
114154.0 390892.0 0
116148.0 394721.0 0
112889.0 395761.0 0
118984.0 392748.0 0
119301.0 395918.0 0
122482.0 391106.0 0
126153.0 393276.0 0
122520.0 395176.0 0
129921.0 391267.0 0
129743.0 395612.0 0
137194.0 393341.0 0
133153.0 393529.0 0
142873.0 393934.0 0
147558.0 396464.0 0
148156.0 392717.0 0
151976.0 394854.0 0
155441.0 392763.0 0
155768.0 396588.0 0
159853.0 394187.0 0
165548.0 394284.0 0
171423.0 393647.0 0
175856.0 394632.0 0
179717.0 393114.0 0
182982.0 396001.0 0
184523.0 391143.0 0
187697.0 394389.0 0
192371.0 393288.0 0
197723.0 393787.0 0
204353.0 386670.0 0
213860.0 386911.0 0
209633.0 389700.0 0
217560.0 386123.0 0
222101.0 387042.0 0
227260.0 387222.0 0
232742.0 387106.0 0
238366.0 386702.0 0
242793.0 386680.0 0
242048.0 390930.0 0
247534.0 388240.0 0
251394.0 387250.0 0
255362.0 388087.0 0
260375.0 387032.0 0
270644.0 387529.0 0
275771.0 386020.0 0
275686.0 390620.0 0
280922.0 386928.0 0
286378.0 385933.0 0
290459.0 388743.0 0
295260.0 386246.0 0
301531.0 391872.0 0
305552.0 394673.0 0
301305.0 396007.0 0
308297.0 392281.0 0
309915.0 395018.0 0
311632.0 391756.0 0
314369.0 395379.0 0
318361.0 392931.0 0
323332.0 394441.0 0
328874.0 394640.0 0
333907.0 395026.0 0
338552.0 394606.0 0
342365.0 391550.0 0
345438.0 393797.0 0
342947.0 395008.0 0
349032.0 393446.0 0
352991.0 393064.0 0
356333.0 394350.0 0
361411.0 395275.0 0
366308.0 392852.0 0
370101.0 391059.0 0
370285.0 395333.0 0
375155.0 391997.0 0
380095.0 393876.0 0
383271.0 392160.0 0
387681.0 392424.0 0
383788.0 395516.0 0
391670.0 395858.0 0
396121.0 394263.0 0
399482.0 392462.0 0
403046.0 394597.0 0
407197.0 393798.0 0
411665.0 392850.0 0
415531.0 395810.0 0
419551.0 393514.0 0
423591.0 395422.0 0
424075.0 390980.0 0
427356.0 394025.0 0
433679.0 391286.0 0
430597.0 393570.0 0
437781.0 393149.0 0
433875.0 395586.0 0
442249.0 391108.0 0
441316.0 395243.0 0
445947.0 394917.0 0
449837.0 392898.0 0
453869.0 393242.0 0
457748.0 394036.0 0
461138.0 393415.0 0
464961.0 392239.0 0
469268.0 393778.0 0
473637.0 392594.0 0
478321.0 394350.0 0
482994.0 393029.0 0
487047.0 394032.0 0
492407.0 392939.0 0
497609.0 392831.0 0
498878.0 396226.0 0
1487.81 397581.0 0
2885.05 401643.0 0
9987.88 397899.0 0
7703.57 400538.0 0
13379.8 398426.0 0
11464.5 401721.0 0
20071.5 397994.0 0
17068.1 401802.0 0
22863.1 400072.0 0
27041.5 397291.0 0
31910.3 400151.0 0
36501.8 398382.0 0
40880.2 397449.0 0
38733.8 399894.0 0
45215.1 399331.0 0
51001.6 397051.0 0
54961.9 400553.0 0
57560.8 396617.0 0
58856.9 400742.0 0
62056.2 398572.0 0
66322.6 399861.0 0
69060.7 396641.0 0
71371.8 400205.0 0
72528.1 396612.0 0
75338.2 398277.0 0
78904.3 400430.0 0
84274.4 398998.0 0
88653.9 399159.0 0
92462.7 396296.0 0
95041.2 398965.0 0
98262.5 397274.0 0
103688.0 397305.0 0
106740.0 401044.0 0
108722.0 396788.0 0
116657.0 398115.0 0
112296.0 400153.0 0
121615.0 399518.0 0
126150.0 397598.0 0
129669.0 399292.0 0
134006.0 397666.0 0
138972.0 397014.0 0
143243.0 399325.0 0
151464.0 398520.0 0
147695.0 399971.0 0
155065.0 400862.0 0
159944.0 399204.0 0
162878.0 396632.0 0
168691.0 397426.0 0
164891.0 398881.0 0
178462.0 396510.0 0
174062.0 398916.0 0
179588.0 399456.0 0
183575.0 400020.0 0
186907.0 398640.0 0
191052.0 397497.0 0
194526.0 396750.0 0
196664.0 398301.0 0
194302.0 400089.0 0
198225.0 401256.0 0
199338.0 397743.0 0
203277.0 391506.0 0
206694.0 395170.0 0
215415.0 391126.0 0
219830.0 391644.0 0
222786.0 390892.0 0
226688.0 392884.0 0
231954.0 392156.0 0
236936.0 391804.0 0
242687.0 395555.0 0
246505.0 393033.0 0
252440.0 391495.0 0
251829.0 395702.0 0
255503.0 392814.0 0
260309.0 392264.0 0
265951.0 391610.0 0
271211.0 393409.0 0
280461.0 392797.0 0
285624.0 391018.0 0
290010.0 394408.0 0
295339.0 392382.0 0
304909.0 398405.0 0
301516.0 400796.0 0
308141.0 397802.0 0
311507.0 398669.0 0
315752.0 399510.0 0
318856.0 396890.0 0
319525.0 400952.0 0
322255.0 398433.0 0
326132.0 398410.0 0
331289.0 399358.0 0
336447.0 398531.0 0
341254.0 398200.0 0
346508.0 397371.0 0
352125.0 397127.0 0
357074.0 398101.0 0
360670.0 399381.0 0
358634.0 401390.0 0
365613.0 396575.0 0
363968.0 399913.0 0
372587.0 399504.0 0
368181.0 399696.0 0
374552.0 396615.0 0
377750.0 396595.0 0
375967.0 399082.0 0
380813.0 397208.0 0
379128.0 399843.0 0
386980.0 396931.0 0
383638.0 399973.0 0
388792.0 399906.0 0
395591.0 397462.0 0
393052.0 400358.0 0
396968.0 400441.0 0
399122.0 396775.0 0
400506.0 400878.0 0
406200.0 396503.0 0
403199.0 398523.0 0
406988.0 399942.0 0
410443.0 397461.0 0
414481.0 400615.0 0
419937.0 398703.0 0
426818.0 397328.0 0
424434.0 399360.0 0
428145.0 400806.0 0
429893.0 396927.0 0
432835.0 399763.0 0
437722.0 397910.0 0
443140.0 398870.0 0
439897.0 400576.0 0
447776.0 399498.0 0
450771.0 396638.0 0
452857.0 400590.0 0
455561.0 397152.0 0
459964.0 397084.0 0
462314.0 399495.0 0
464585.0 396278.0 0
468544.0 397534.0 0
465818.0 400234.0 0
473316.0 396808.0 0
469989.0 400792.0 0
474163.0 401017.0 0
478632.0 399484.0 0
482852.0 396631.0 0
483996.0 401012.0 0
486496.0 398224.0 0
490541.0 397385.0 0
493979.0 400768.0 0
495347.0 396572.0 0
498291.0 399462.0 0
8025.64 404619.0 0
12765.0 406100.0 0
22232.7 404411.0 0
26826.4 402048.0 0
26239.5 406287.0 0
31270.1 405361.0 0
36588.8 402876.0 0
40937.1 406414.0 0
41470.9 401661.0 0
45887.1 404504.0 0
48294.5 401133.0 0
51585.7 403705.0 0
56993.1 404890.0 0
62498.4 403491.0 0
67937.2 403888.0 0
75122.9 401567.0 0
72985.9 404480.0 0
77452.2 404566.0 0
80096.1 406250.0 0
82250.9 403188.0 0
87358.0 403574.0 0
96824.1 401327.0 0
92367.2 401758.0 0
91958.1 406112.0 0
96695.7 405071.0 0
101108.0 402215.0 0
104625.0 405153.0 0
109984.0 405542.0 0
114558.0 404176.0 0
117364.0 401993.0 0
121370.0 404553.0 0
117555.0 405642.0 0
126663.0 402664.0 0
132550.0 402878.0 0
137889.0 401528.0 0
142209.0 404188.0 0
138067.0 406072.0 0
146039.0 402700.0 0
150432.0 403214.0 0
154072.0 405086.0 0
158426.0 404054.0 0
163870.0 403037.0 0
168875.0 402088.0 0
172804.0 403526.0 0
177033.0 402966.0 0
181730.0 403067.0 0
179475.0 406497.0 0
186125.0 402689.0 0
184388.0 406439.0 0
190363.0 401601.0 0
189240.0 405969.0 0
194532.0 404618.0 0
199058.0 404840.0 0
202547.0 396465.0 0
203166.0 401152.0 0
209280.0 399375.0 0
213382.0 396409.0 0
217905.0 396343.0 0
217932.0 401084.0 0
222500.0 396207.0 0
228111.0 398136.0 0
233089.0 396728.0 0
237964.0 396630.0 0
241647.0 400193.0 0
247798.0 397242.0 0
256012.0 397011.0 0
260440.0 397315.0 0
265201.0 396969.0 0
262440.0 401028.0 0
270168.0 398735.0 0
276095.0 396914.0 0
284422.0 396771.0 0
280532.0 399569.0 0
289217.0 399938.0 0
295259.0 398967.0 0
302642.0 405136.0 0
307664.0 402493.0 0
312822.0 402013.0 0
312326.0 406004.0 0
316547.0 403488.0 0
320731.0 404648.0 0
323487.0 401486.0 0
325368.0 405054.0 0
327547.0 401725.0 0
330341.0 404595.0 0
334715.0 402351.0 0
339271.0 401553.0 0
337925.0 404793.0 0
341767.0 405189.0 0
344061.0 401392.0 0
346733.0 405398.0 0
349315.0 401297.0 0
351784.0 405539.0 0
354230.0 401449.0 0
362196.0 403446.0 0
357236.0 405634.0 0
366370.0 403443.0 0
370847.0 402993.0 0
369084.0 406253.0 0
375754.0 402828.0 0
380176.0 403504.0 0
383465.0 404523.0 0
386635.0 403283.0 0
390797.0 404448.0 0
395035.0 403157.0 0
398910.0 404519.0 0
404365.0 403524.0 0
410121.0 403369.0 0
418208.0 403036.0 0
414689.0 405251.0 0
423178.0 403217.0 0
427663.0 405055.0 0
431545.0 403458.0 0
436634.0 403270.0 0
441360.0 402536.0 0
444958.0 403089.0 0
449606.0 403967.0 0
457997.0 401229.0 0
454747.0 404787.0 0
458860.0 405684.0 0
462401.0 403188.0 0
467050.0 404241.0 0
472145.0 405502.0 0
476647.0 403943.0 0
480651.0 404097.0 0
488891.0 401656.0 0
485806.0 405378.0 0
489492.0 405103.0 0
492674.0 404323.0 0
497700.0 403203.0 0
2983.83 407345.0 0
8702.87 409577.0 0
13938.1 411432.0 0
18012.6 407395.0 0
18981.3 411309.0 0
22940.1 409183.0 0
28056.6 409769.0 0
32148.1 409841.0 0
36158.5 407757.0 0
39888.3 411483.0 0
44990.1 409952.0 0
49055.4 407800.0 0
53084.0 408237.0 0
60801.1 407813.0 0
57083.5 408866.0 0
64884.7 407168.0 0
64213.1 411310.0 0
69646.9 408921.0 0
75163.8 408685.0 0
79616.6 409417.0 0
83675.4 406967.0 0
83933.4 411231.0 0
87719.8 408298.0 0
91196.4 409728.0 0
95965.7 409409.0 0
100895.0 407899.0 0
105969.0 409258.0 0
110886.0 410837.0 0
114822.0 408062.0 0
119375.0 408728.0 0
124862.0 408571.0 0
129530.0 406667.0 0
129963.0 411328.0 0
133820.0 407743.0 0
142394.0 408733.0 0
138354.0 410378.0 0
146513.0 406651.0 0
146484.0 411157.0 0
150955.0 408429.0 0
156025.0 408861.0 0
161763.0 408013.0 0
165777.0 406534.0 0
165930.0 409369.0 0
169735.0 407291.0 0
173068.0 411206.0 0
174647.0 406830.0 0
177087.0 409762.0 0
181645.0 410656.0 0
187343.0 410403.0 0
192965.0 410115.0 0
198056.0 408262.0 0
207535.0 403435.0 0
212965.0 401840.0 0
217875.0 406119.0 0
222351.0 401212.0 0
221891.0 406118.0 0
226381.0 402562.0 0
231486.0 401413.0 0
236444.0 401394.0 0
247121.0 402350.0 0
253257.0 401461.0 0
258476.0 401630.0 0
256588.0 406091.0 0
261466.0 406065.0 0
266556.0 402688.0 0
273847.0 402251.0 0
278252.0 402777.0 0
282461.0 402557.0 0
286199.0 403827.0 0
290695.0 404487.0 0
295738.0 405447.0 0
301807.0 409573.0 0
307382.0 408214.0 0
312327.0 411073.0 0
317291.0 408026.0 0
322483.0 409010.0 0
327586.0 408621.0 0
331331.0 408629.0 0
334348.0 406657.0 0
334725.0 411083.0 0
338606.0 408745.0 0
343620.0 409980.0 0
349108.0 410055.0 0
354260.0 410076.0 0
361462.0 406728.0 0
360233.0 411087.0 0
365175.0 407894.0 0
370095.0 410437.0 0
373187.0 406790.0 0
375399.0 410582.0 0
377719.0 407025.0 0
381674.0 407483.0 0
379393.0 410830.0 0
386294.0 407680.0 0
383103.0 411140.0 0
390767.0 409240.0 0
394811.0 406822.0 0
394453.0 410553.0 0
402524.0 407692.0 0
398500.0 409575.0 0
407417.0 408041.0 0
411875.0 407458.0 0
414796.0 408640.0 0
418952.0 407419.0 0
421209.0 411056.0 0
424249.0 408091.0 0
430677.0 406362.0 0
433548.0 406827.0 0
429068.0 409388.0 0
433519.0 410850.0 0
437347.0 408289.0 0
441354.0 406105.0 0
441046.0 410093.0 0
446045.0 407596.0 0
444220.0 410878.0 0
451593.0 408821.0 0
456217.0 408109.0 0
463594.0 407355.0 0
459986.0 409661.0 0
467915.0 408979.0 0
472249.0 410169.0 0
477215.0 408532.0 0
482083.0 407773.0 0
485495.0 409652.0 0
490865.0 409661.0 0
495248.0 406568.0 0
498539.0 406668.0 0
497340.0 410476.0 0
3983.03 412783.0 0
1694.07 416500.0 0
9166.47 414243.0 0
13235.4 416678.0 0
18211.5 415483.0 0
21785.8 412860.0 0
25698.8 413093.0 0
22784.9 416089.0 0
35256.9 411974.0 0
30890.5 414323.0 0
36787.1 416166.0 0
45756.7 414230.0 0
42026.3 415603.0 0
49762.2 412124.0 0
48553.8 416093.0 0
54611.4 412223.0 0
52480.6 416263.0 0
59206.3 411707.0 0
57234.0 415869.0 0
61268.3 414977.0 0
68716.8 413753.0 0
72995.4 412923.0 0
76018.6 415986.0 0
76756.7 412160.0 0
80129.9 413632.0 0
84097.4 415336.0 0
88272.0 413261.0 0
93039.5 412768.0 0
96548.6 414789.0 0
99368.6 411981.0 0
100794.0 415904.0 0
103204.0 412314.0 0
105465.0 416343.0 0
107218.0 412916.0 0
110840.0 415874.0 0
116191.0 412610.0 0
121337.0 412301.0 0
120695.0 416116.0 0
125440.0 413895.0 0
134681.0 411639.0 0
133552.0 414614.0 0
142199.0 413193.0 0
137680.0 414423.0 0
147287.0 415679.0 0
143801.0 416121.0 0
150799.0 412736.0 0
155219.0 413678.0 0
159242.0 412035.0 0
160051.0 416140.0 0
163453.0 412568.0 0
164820.0 416387.0 0
168585.0 412886.0 0
172759.0 416349.0 0
176990.0 413645.0 0
180934.0 415188.0 0
184653.0 414045.0 0
188923.0 415344.0 0
193855.0 415474.0 0
198083.0 412711.0 0
203470.0 406452.0 0
208139.0 407999.0 0
213099.0 407056.0 0
225661.0 406869.0 0
230649.0 406875.0 0
236431.0 406613.0 0
242284.0 406355.0 0
247961.0 407888.0 0
252108.0 406404.0 0
266456.0 408497.0 0
271799.0 406501.0 0
277129.0 407897.0 0
282722.0 407077.0 0
287994.0 408636.0 0
292782.0 409806.0 0
296804.0 410696.0 0
305241.0 412185.0 0
301673.0 414419.0 0
305764.0 415779.0 0
308433.0 412836.0 0
309806.0 416076.0 0
313690.0 415336.0 0
317291.0 412715.0 0
325514.0 411679.0 0
321925.0 413742.0 0
326124.0 415179.0 0
330162.0 412733.0 0
334515.0 415697.0 0
339222.0 413771.0 0
343618.0 414198.0 0
351529.0 413796.0 0
347354.0 415098.0 0
356041.0 415109.0 0
365512.0 413313.0 0
369639.0 414874.0 0
373258.0 413532.0 0
377718.0 414851.0 0
387450.0 412645.0 0
382854.0 415321.0 0
392200.0 413018.0 0
390589.0 415728.0 0
396849.0 414108.0 0
400538.0 412292.0 0
401773.0 415226.0 0
403878.0 411600.0 0
407918.0 411336.0 0
407289.0 415280.0 0
411456.0 411504.0 0
416577.0 412497.0 0
420936.0 414784.0 0
425614.0 413261.0 0
430196.0 413414.0 0
433745.0 415946.0 0
437774.0 412651.0 0
442742.0 414815.0 0
447467.0 412084.0 0
451416.0 413669.0 0
455901.0 412159.0 0
460706.0 413850.0 0
464303.0 411446.0 0
464548.0 415270.0 0
469422.0 414144.0 0
474752.0 412242.0 0
477968.0 413458.0 0
474462.0 415773.0 0
481670.0 411668.0 0
481610.0 416145.0 0
486159.0 414096.0 0
494224.0 414017.0 0
490513.0 415757.0 0
498014.0 415134.0 0
2444.68 420561.0 0
5816.64 417416.0 0
9488.03 418302.0 0
12251.4 421338.0 0
20096.8 419110.0 0
16679.0 420034.0 0
23383.6 419858.0 0
26616.6 417082.0 0
29562.1 418027.0 0
28171.7 421734.0 0
32705.4 419232.0 0
36489.0 420984.0 0
40590.0 419749.0 0
45303.9 418580.0 0
49718.2 419383.0 0
55449.6 420702.0 0
60730.0 419031.0 0
65092.3 416664.0 0
65067.4 421463.0 0
70739.4 418897.0 0
76027.3 420635.0 0
80575.8 418418.0 0
84005.3 421431.0 0
87441.2 418427.0 0
92131.7 416569.0 0
92432.3 421462.0 0
97295.7 419192.0 0
102497.0 421095.0 0
108172.0 420513.0 0
116030.0 417827.0 0
112347.0 420416.0 0
120274.0 420872.0 0
124819.0 418787.0 0
129617.0 416690.0 0
135328.0 419483.0 0
140609.0 417516.0 0
144555.0 419491.0 0
151954.0 416953.0 0
148936.0 420206.0 0
156096.0 417629.0 0
153853.0 421480.0 0
158672.0 420445.0 0
162424.0 419467.0 0
166034.0 420114.0 0
168597.0 417554.0 0
170745.0 420842.0 0
177815.0 418919.0 0
174209.0 421655.0 0
184012.0 418608.0 0
188349.0 419796.0 0
191531.0 418648.0 0
198084.0 417833.0 0
194433.0 419538.0 0
301966.0 418555.0 0
306849.0 420583.0 0
312545.0 419685.0 0
318201.0 418190.0 0
323628.0 418540.0 0
329925.0 418292.0 0
334425.0 420001.0 0
338419.0 418717.0 0
342984.0 417804.0 0
351587.0 417948.0 0
347172.0 419951.0 0
356862.0 420639.0 0
361320.0 416795.0 0
361998.0 421410.0 0
365630.0 417679.0 0
369160.0 418559.0 0
373181.0 417378.0 0
376588.0 420025.0 0
380196.0 418436.0 0
387198.0 417430.0 0
383777.0 420171.0 0
393676.0 419056.0 0
398899.0 418233.0 0
403479.0 420123.0 0
412905.0 416568.0 0
409414.0 420550.0 0
417825.0 417840.0 0
423605.0 419114.0 0
428750.0 417266.0 0
431722.0 421247.0 0
438259.0 416335.0 0
436647.0 419782.0 0
440408.0 418774.0 0
447766.0 416590.0 0
444224.0 420056.0 0
452782.0 417999.0 0
457311.0 416496.0 0
456668.0 420968.0 0
461578.0 418860.0 0
467006.0 419031.0 0
471858.0 419275.0 0
478053.0 416775.0 0
476491.0 419724.0 0
481243.0 420489.0 0
485249.0 418491.0 0
489502.0 420038.0 0
494217.0 418014.0 0
498009.0 418946.0 0
2790.02 425561.0 0
7331.48 422225.0 0
7396.38 426661.0 0
11283.4 425645.0 0
15624.5 424366.0 0
20251.1 423014.0 0
18895.1 426942.0 0
24178.8 423392.0 0
33183.2 423769.0 0
39064.9 424949.0 0
43318.7 422454.0 0
44497.4 426698.0 0
47308.6 422603.0 0
49917.1 426513.0 0
51246.1 422480.0 0
55433.4 426499.0 0
60380.9 423732.0 0
64944.5 426218.0 0
68755.6 423986.0 0
72919.4 424417.0 0
80898.6 422427.0 0
77922.8 424876.0 0
82823.1 425447.0 0
87569.8 423960.0 0
97365.7 424926.0 0
102320.0 426169.0 0
106513.0 425202.0 0
111337.0 424563.0 0
115670.0 422719.0 0
119523.0 425685.0 0
124143.0 424082.0 0
129463.0 422554.0 0
134941.0 425828.0 0
140701.0 422630.0 0
139276.0 426270.0 0
145812.0 423735.0 0
149955.0 424016.0 0
157751.0 424422.0 0
162078.0 423358.0 0
167184.0 424141.0 0
172457.0 425638.0 0
177192.0 423888.0 0
181296.0 422400.0 0
181306.0 426699.0 0
185979.0 423817.0 0
191548.0 422874.0 0
197346.0 423189.0 0
301890.0 422518.0 0
311119.0 424029.0 0
306850.0 425772.0 0
316082.0 423800.0 0
321380.0 422748.0 0
324042.0 426126.0 0
326539.0 422341.0 0
331680.0 423333.0 0
337452.0 423919.0 0
342766.0 422262.0 0
351567.0 422703.0 0
347032.0 424720.0 0
355449.0 425544.0 0
359717.0 425110.0 0
366597.0 421742.0 0
363831.0 424949.0 0
371889.0 422550.0 0
368175.0 426469.0 0
376307.0 424073.0 0
380084.0 422575.0 0
384042.0 425037.0 0
388651.0 422321.0 0
393695.0 425115.0 0
398200.0 422496.0 0
401704.0 425221.0 0
406416.0 424813.0 0
411124.0 425134.0 0
414600.0 421751.0 0
417667.0 426246.0 0
419288.0 421894.0 0
422590.0 424543.0 0
427010.0 423097.0 0
430219.0 425898.0 0
435759.0 423688.0 0
440159.0 423213.0 0
444921.0 425145.0 0
448993.0 421730.0 0
453224.0 422380.0 0
459982.0 423660.0 0
464585.0 423446.0 0
469474.0 423451.0 0
474065.0 423539.0 0
478268.0 423339.0 0
481712.0 425794.0 0
485516.0 422895.0 0
493531.0 421774.0 0
490282.0 425277.0 0
494557.0 425328.0 0
497694.0 422946.0 0
1148.57 429211.0 0
4897.89 430495.0 0
1193.4 431727.0 0
9963.71 430051.0 0
14831.5 429086.0 0
20090.6 431790.0 0
23398.0 427093.0 0
28958.5 427207.0 0
25811.0 431560.0 0
34420.5 428452.0 0
38946.1 430132.0 0
43165.9 431414.0 0
47503.7 430776.0 0
52266.4 431183.0 0
60523.4 428809.0 0
56720.0 431411.0 0
64957.0 431284.0 0
69808.7 428593.0 0
75187.5 428994.0 0
80359.8 429619.0 0
86338.0 429574.0 0
91789.9 427006.0 0
91234.0 431609.0 0
95552.9 430310.0 0
100065.0 429467.0 0
104908.0 430127.0 0
109454.0 428623.0 0
115192.0 426647.0 0
113487.0 430418.0 0
117544.0 429379.0 0
121612.0 429766.0 0
127702.0 429263.0 0
133337.0 430377.0 0
138629.0 429230.0 0
142866.0 427550.0 0
145070.0 431053.0 0
148211.0 428224.0 0
153457.0 426737.0 0
158555.0 429675.0 0
163591.0 427471.0 0
168193.0 429206.0 0
176848.0 428172.0 0
177729.0 431600.0 0
185741.0 429153.0 0
189535.0 427035.0 0
193811.0 427546.0 0
198160.0 428499.0 0
302337.0 426940.0 0
302011.0 431564.0 0
306009.0 429954.0 0
310683.0 428645.0 0
315411.0 428470.0 0
319784.0 427350.0 0
324579.0 431080.0 0
328486.0 427093.0 0
333372.0 428059.0 0
337790.0 429257.0 0
342361.0 427496.0 0
351343.0 427677.0 0
347028.0 429552.0 0
356254.0 430643.0 0
362641.0 429805.0 0
373725.0 428289.0 0
379382.0 427072.0 0
383546.0 429747.0 0
388689.0 428180.0 0
393701.0 429843.0 0
398167.0 428368.0 0
403837.0 429439.0 0
408498.0 428787.0 0
413267.0 429496.0 0
417848.0 431380.0 0
421806.0 429173.0 0
426237.0 427788.0 0
430013.0 429816.0 0
434704.0 428217.0 0
440644.0 428671.0 0
446039.0 430422.0 0
449791.0 426781.0 0
455517.0 426662.0 0
461964.0 428718.0 0
466957.0 427264.0 0
471688.0 428338.0 0
476966.0 427484.0 0
481007.0 430628.0 0
485887.0 427490.0 0
485362.0 431394.0 0
489395.0 430235.0 0
493790.0 428973.0 0
497863.0 427292.0 0
497672.0 431599.0 0
2518.1 434949.0 0
7938.29 434726.0 0
13056.8 433910.0 0
22806.7 436588.0 0
30762.1 432092.0 0
27869.8 436426.0 0
35475.1 433555.0 0
40084.7 434464.0 0
43932.8 435493.0 0
49066.1 436213.0 0
54931.2 435564.0 0
60510.0 434262.0 0
65417.1 436675.0 0
68679.7 433397.0 0
72716.6 433153.0 0
77362.6 433415.0 0
82744.7 435128.0 0
88315.5 434698.0 0
94018.5 435184.0 0
99094.8 434094.0 0
104276.0 435652.0 0
109349.0 433463.0 0
113883.0 434729.0 0
118340.0 433648.0 0
123417.0 433986.0 0
127455.0 435255.0 0
131704.0 434317.0 0
136697.0 433193.0 0
141431.0 432168.0 0
140249.0 436765.0 0
145374.0 435436.0 0
148452.0 432386.0 0
152821.0 432274.0 0
150104.0 436478.0 0
159725.0 435681.0 0
163910.0 432194.0 0
168296.0 434175.0 0
173230.0 431923.0 0
177891.0 435265.0 0
181418.0 431920.0 0
182500.0 436676.0 0
185503.0 433661.0 0
190702.0 432304.0 0
196316.0 432493.0 0
198189.0 436159.0 0
305540.0 434481.0 0
301549.0 435600.0 0
309226.0 432788.0 0
313638.0 432886.0 0
318902.0 432561.0 0
322567.0 436079.0 0
330080.0 431863.0 0
327292.0 436047.0 0
335172.0 432711.0 0
332136.0 436255.0 0
340937.0 433827.0 0
346276.0 433528.0 0
350797.0 432830.0 0
354794.0 436273.0 0
360033.0 435277.0 0
365016.0 436372.0 0
368654.0 432141.0 0
373139.0 435675.0 0
378672.0 433083.0 0
386728.0 433114.0 0
383568.0 436742.0 0
391487.0 433536.0 0
396740.0 433477.0 0
401798.0 433748.0 0
405322.0 433014.0 0
409273.0 433432.0 0
414308.0 434521.0 0
421767.0 433711.0 0
426751.0 432977.0 0
432557.0 433767.0 0
437418.0 432653.0 0
442013.0 434240.0 0
447392.0 435192.0 0
451847.0 432111.0 0
457493.0 432089.0 0
458075.0 436486.0 0
461909.0 434224.0 0
467155.0 432116.0 0
475603.0 433142.0 0
481630.0 435510.0 0
487042.0 435940.0 0
492996.0 434296.0 0
497955.0 435984.0 0
4997.99 437878.0 0
11337.6 439573.0 0
17445.9 437457.0 0
33064.9 438300.0 0
38401.2 438859.0 0
58555.5 439214.0 0
70335.9 437019.0 0
74770.6 437351.0 0
78905.1 439265.0 0
86761.7 437993.0 0
90468.5 438457.0 0
94947.8 440176.0 0
100211.0 439420.0 0
107268.0 439184.0 0
111479.0 438312.0 0
116249.0 438212.0 0
120928.0 437483.0 0
124760.0 438175.0 0
135055.0 438778.0 0
154619.0 437677.0 0
161756.0 440652.0 0
164742.0 436993.0 0
168885.0 438603.0 0
173595.0 437785.0 0
187686.0 437519.0 0
193587.0 438006.0 0
304060.0 439441.0 0
310350.0 438227.0 0
316290.0 437150.0 0
320171.0 440323.0 0
324695.0 439560.0 0
336756.0 438722.0 0
345455.0 437259.0 0
341892.0 439701.0 0
349958.0 438092.0 0
358003.0 439900.0 0
369018.0 437145.0 0
371400.0 439773.0 0
376499.0 438591.0 0
379849.0 438179.0 0
388620.0 437798.0 0
393869.0 437981.0 0
399539.0 438066.0 0
405411.0 436543.0 0
411068.0 438526.0 0
418457.0 437847.0 0
424112.0 438042.0 0
429107.0 437612.0 0
437568.0 437449.0 0
444446.0 438845.0 0
449081.0 439092.0 0
453551.0 437619.0 0
461494.0 439810.0 0
465535.0 437016.0 0
470677.0 436864.0 0
477756.0 438728.0 0
483371.0 439486.0 0
491107.0 439319.0 0
495233.0 438858.0 0
POINT_DATA 5000
SCALARS Radius float 1
LOOKUP_TABLE default
4796.58 3979.26 3471.03 5253.55 5820.48 5782.6 4862.21 5113.21 3929.19 4107.03 4478.15 5379.87 5925.6 4501.51 4792.73 4736.58 4931.38 3485.26 4329.05 4151.94 4049.23 5337.48 6124.89 5708.81 5252.48 4780.03 5495.39 3996.0 3856.1 4665.12 3383.4 4133.88 4834.9 3850.77 6044.04 5415.48 5120.0 3863.18 4998.37 6182.6 5492.18 5258.36 5061.3 3642.12 3163.97 5812.43 5906.14 7513.1 5254.28 5733.48 4672.91 5580.89 5645.7 6810.52 5840.26 6110.27 5561.06 5073.35 5670.04 4380.59 6716.79 5759.91 7613.27 5529.52 4951.03 5255.32 6037.08 5096.78 6756.95 4129.43 6324.23 3843.58 3320.52 4194.5 4270.53 5344.25 5191.63 4593.7 4150.99 4216.92 4742.68 4344.58 5634.83 5495.84 6268.1 4861.06 5320.28 6739.08 4797.52 4569.12 4298.67 5960.66 6608.73 7034.11 6261.42 4502.5 3771.48 4043.57 4271.69 5681.38 4138.42 3708.04 5513.6 3240.09 4556.36 6082.81 3191.99 4685.34 5601.05 4929.8 3586.91 3103.0 3554.9 4015.92 5542.21 4487.31 3936.02 4044.71 5980.74 4094.62 4927.02 5546.39 5325.36 5484.83 5085.53 5351.6 2356.98 4730.36 4715.55 5867.73 3951.75 5013.56 4499.64 4375.68 5542.27 5054.98 5122.66 5170.02 5484.19 3557.27 4688.68 4436.4 4402.52 4517.56 4182.53 5903.42 3588.44 3761.32 5176.86 4118.05 4366.19 5553.16 3672.51 2938.66 4940.78 4231.61 4008.92 3615.22 3942.53 3379.84 3589.27 4827.82 3997.1 3607.45 3260.67 5123.52 3038.33 4392.68 4333.2 7199.21 4523.7 2240.39 5091.39 5293.9 6142.94 3912.37 4727.24 4602.25 4790.08 5082.47 4763.45 5445.87 3815.26 4704.72 4177.94 4571.7 5896.46 3784.5 3780.23 6481.79 5374.51 7042.12 6326.39 5873.69 4962.09 3999.48 5011.84 4359.62 6946.21 2586.12 5433.8 4011.77 5499.11 5922.5 5198.77 5987.17 6013.14 2765.2 4901.41 5110.37 5664.98 4382.74 4651.28 3693.63 4384.42 4516.43 5481.78 5043.05 5816.2 5109.54 6483.19 5945.65 6759.9 5538.89 7021.47 5416.38 6059.59 4955.55 2720.68 5701.86 3563.63 4238.81 4468.59 5885.03 6030.06 2837.58 5200.76 4927.31 5017.13 4862.64 5185.34 4432.58 6684.56 3968.64 3955.56 4688.67 2635.86 5292.64 6166.5 5065.13 5936.02 4861.08 4003.05 5390.22 4805.87 4712.33 5227.21 5697.78 4667.36 4091.31 6372.62 4295.38 5615.42 7565.34 5923.5 4612.68 4973.83 6342.25 6691.39 5135.69 5344.0 6045.46 4245.72 5908.1 6048.7 6133.92 3719.84 5022.8 4178.4 3095.48 4166.08 4123.6 5224.12 4850.14 4819.73 3382.7 6817.32 4471.58 4319.79 6098.14 4472.17 4203.26 5188.81 6057.22 5062.71 6125.34 4527.08 3633.87 5347.48 4850.01 3970.25 5147.67 3979.82 5011.31 5138.31 5264.06 4659.59 6327.9 5927.43 6355.42 4362.19 5690.56 4948.92 3115.91 5637.59 4937.14 3307.12 5924.89 5693.81 4002.16 4174.52 3486.22 3829.13 6230.49 5418.62 4601.27 5493.32 5740.68 5926.61 5836.15 3261.21 4345.55 6704.06 3653.41 3871.88 5325.02 3856.01 5246.2 5279.39 3673.74 5205.43 6116.18 7447.37 4924.6 4385.06 4733.32 7184.19 2899.43 2924.37 5305.17 4290.3 3867.67 5399.73 4660.72 3888.21 6038.78 6902.81 6644.76 4254.17 5629.19 5090.24 5740.84 5530.87 4310.18 4281.49 5978.9 4187.56 3629.62 4997.27 4840.84 4301.06 4020.32 4290.14 6562.18 4156.38 5316.75 4541.21 4164.68 5669.65 5934.22 5624.49 5762.59 7092.87 5163.55 4666.81 3954.91 2965.01 6643.85 3637.61 6222.42 5654.31 4730.41 3745.84 5690.26 4156.2 4497.59 5965.78 4810.12 5643.58 5215.05 4292.06 5577.04 5006.58 4602.86 3688.8 4548.16 3369.23 4048.37 5449.18 5492.26 5244.78 5762.84 3937.74 4749.8 4493.48 6084.86 5478.92 4778.34 5551.36 4138.16 6894.71 4684.5 3091.3 4414.54 5789.98 6458.82 7054.71 3641.64 5489.43 5747.75 4277.89 6051.14 4796.33 4195.44 5539.32 6496.85 5600.93 4874.39 5541.59 4390.66 4124.71 5728.85 4827.23 4911.47 5863.59 4381.97 6257.19 3255.82 2812.98 4065.69 5603.15 4695.45 6052.7 3921.18 3798.62 5891.05 5308.1 3666.57 5655.21 4786.6 4645.41 6445.94 5542.14 4218.06 7134.64 4716.19 5514.76 3456.98 3498.2 4877.67 3066.13 4302.5 6006.16 6009.88 7055.53 5013.67 5826.04 5339.78 4970.88 4143.78 4636.5 3703.1 4940.42 5923.4 6471.55 5499.39 5501.93 5463.38 5945.21 4938.74 5696.88 5607.14 3923.03 5975.63 4374.35 6396.74 4138.46 2775.04 3821.72 4986.77 6318.18 5586.81 3948.17 4621.75 4551.24 5358.59 4220.88 4515.71 6519.71 6640.13 5082.6 5810.84 4230.54 5094.44 3748.24 4655.49 4467.94 4850.81 6138.47 5527.54 5573.7 4727.62 5054.25 4055.8 7325.81 5280.17 5360.19 4794.96 6186.19 5083.08 6834.49 6337.56 5525.39 5803.39 4024.3 6394.38 5555.28 5242.73 4737.14 4686.65 5834.74 5556.96 5788.23 5581.75 6392.01 4907.89 6730.19 4937.02 4907.06 4073.93 3735.44 6043.3 5952.75 4433.59 4320.28 6122.55 2739.94 4931.53 5480.13 6308.71 3323.28 6695.82 6405.76 5794.24 5105.16 4678.38 5448.61 5050.65 4827.33 5206.48 5513.57 5729.23 5226.0 3365.82 4538.95 5965.15 4763.66 6090.91 4946.42 5085.71 6116.33 5644.82 6343.14 5462.21 5750.71 5470.77 4831.47 4643.85 4004.04 5252.34 4289.17 5564.02 4274.61 2965.79 6898.19 6035.6 4481.53 5330.45 4581.13 3610.4 4219.07 6387.01 5367.52 3092.35 4322.15 5210.03 5478.47 5351.39 6142.37 6061.47 4933.21 5375.47 6038.14 2540.31 5120.49 6029.66 5262.61 6302.8 5697.4 6038.2 4270.95 4005.44 5206.78 6732.43 6425.26 5143.58 4484.76 4839.34 4840.01 2980.99 7933.0 4455.12 3998.5 5173.87 5938.34 5380.13 5118.27 5169.36 5932.23 5791.61 3369.13 4479.66 3043.85 5461.13 4726.76 3599.45 5489.34 5163.9 5708.14 5537.72 3920.42 6332.36 6155.31 4223.33 5911.67 5709.62 5835.78 4127.74 2476.04 3942.07 7443.72 3937.08 5260.34 4709.35 6586.45 4373.3 4750.78 4163.5 5724.64 5078.86 4780.2 5100.1 3561.29 4963.34 5019.93 3295.83 5081.78 4260.92 6263.44 5960.56 5774.97 4020.95 6313.06 3474.39 6470.3 6062.05 5082.74 6072.45 4410.55 7099.43 5526.14 5137.34 5198.29 5423.0 3856.59 5413.79 6338.89 6202.55 5025.39 4714.54 3629.96 5893.5 3320.11 5030.91 6022.17 5119.37 6163.38 4566.18 4723.12 3459.9 4964.09 5201.36 5024.9 4306.53 5409.61 5094.81 5972.06 5713.22 5555.88 5028.96 3866.16 3794.63 6362.12 3778.1 5152.36 4511.82 5611.2 4220.65 6820.42 4816.2 4894.16 4896.52 5711.87 4751.02 3372.79 4941.22 5282.64 4715.72 4669.66 4808.52 5367.2 5607.24 5053.92 5839.13 5495.68 4863.72 5002.48 4262.82 5102.36 8332.24 4342.9 5069.84 4553.56 5329.64 4051.44 6049.55 5941.72 5991.09 5133.97 6600.94 4788.58 5371.02 6155.1 5876.71 5029.78 6515.84 4888.6 4918.77 4371.99 4219.78 3885.86 4459.28 5235.29 4479.94 6250.23 4118.84 5862.86 3493.7 4200.03 4719.7 6939.12 4735.33 6915.83 5092.37 6444.77 4287.63 5315.4 6449.45 5077.33 3975.31 4746.52 3689.45 3824.16 5572.95 3868.18 6723.16 5584.06 7111.16 4547.19 3817.13 5507.24 3982.23 4583.31 4503.89 5806.08 4853.39 4997.27 4093.08 4809.42 5543.27 4717.05 5659.17 6135.57 4312.67 5423.8 5861.71 4359.04 3183.98 4989.15 5017.78 4524.28 5015.69 6175.81 4727.24 6677.09 5826.64 4829.35 5201.67 6321.41 4089.76 5526.55 3192.41 5184.56 4987.87 3315.57 5804.71 5046.33 4764.96 5727.3 4242.52 5356.51 6352.26 3847.38 3818.59 3057.03 4087.15 4143.08 7500.97 6623.85 5228.18 5787.31 5065.11 5868.82 4050.9 4978.31 4241.89 4099.77 5054.74 4537.32 4656.78 5126.91 3600.43 5131.24 5196.67 6496.67 5474.8 6262.72 3664.11 5117.47 4925.63 2990.77 5882.65 4739.14 4434.19 5187.7 4188.3 6261.75 5177.64 4255.31 5453.3 6413.02 4863.27 3492.19 4584.5 5122.63 6049.79 4703.08 5374.98 5274.19 5516.95 4406.4 5411.85 4844.57 4027.46 6314.07 5776.37 4516.28 3627.82 4044.45 5125.78 5344.43 4373.47 5045.38 5350.88 5372.61 3686.21 6480.17 5023.15 4377.07 6851.54 3813.22 5570.3 4336.42 5243.29 7589.94 4449.22 3130.65 5856.11 5287.2 4109.88 4234.94 5998.38 5013.13 5080.66 4270.24 3417.33 4926.42 4164.13 4642.34 4520.1 4947.52 5874.89 4305.57 4293.03 6959.81 4389.21 3791.79 4424.7 4925.44 4754.05 4951.47 6084.93 5215.15 3697.96 4739.42 5538.93 5020.12 4745.45 2631.9 5281.28 6255.18 4277.88 4668.71 4758.21 7228.46 3948.23 5978.82 5266.5 3927.99 4948.98 5227.52 4414.48 4092.24 4981.9 5163.02 7144.24 4906.82 5687.83 5004.23 6442.69 4648.04 6607.87 4721.32 3293.56 3163.78 5274.14 4903.82 5746.28 4623.61 4082.47 5511.6 4338.08 4378.3 6134.99 4094.73 4407.9 4440.57 5548.29 6766.43 2315.64 6345.13 5226.56 5313.22 4413.85 3905.51 3999.94 4470.98 4864.22 5759.46 3921.08 4190.31 5678.96 5262.19 4244.9 6070.58 6034.41 5130.91 5402.24 4519.22 6445.22 3844.9 5101.59 3963.86 3848.93 4306.11 5935.47 3402.32 5903.66 5628.24 4528.49 5004.67 5365.89 3327.49 5992.26 3960.8 4562.29 5070.39 4980.85 5714.58 5110.45 5208.32 5248.77 4083.97 4607.02 5153.74 4528.09 3895.51 4165.81 5813.4 6291.51 4128.98 5882.89 6246.22 4188.32 5246.61 4307.28 4100.38 5344.77 4723.48 4899.11 5097.87 4278.07 7267.18 5320.92 5269.18 4406.1 6362.14 5034.59 6719.88 4454.63 5080.18 5912.61 4523.88 3279.1 4066.38 4403.98 4560.84 4729.43 5776.57 4562.74 5598.74 7493.3 4814.55 6320.71 3464.83 5698.77 2477.07 6413.11 4305.16 5092.28 4965.89 5659.95 4152.85 2908.7 4453.64 4517.73 5469.47 5660.16 4989.56 4718.54 2588.37 6736.03 6235.57 3623.87 5916.16 4390.41 6113.95 5599.49 4097.57 5017.5 5563.79 3901.8 6171.13 5511.88 5083.41 7055.42 5486.68 6048.86 4285.32 5490.43 5022.28 5452.83 4959.34 4948.5 4527.02 4531.14 3695.36 4564.34 3838.56 4871.44 5076.35 6020.48 6375.99 5200.05 5234.29 5313.66 5419.37 4466.03 4511.54 5409.33 5196.0 4923.9 4973.78 3329.99 3947.47 3296.27 4713.25 4204.84 6243.0 6673.96 3556.85 5441.96 3435.9 5174.89 4288.3 5370.52 4652.29 5774.81 3746.31 5498.32 5027.98 5346.27 6475.1 4969.21 2691.29 2845.98 6256.02 5314.85 4305.43 5450.44 4942.77 4263.33 5592.32 5381.16 6193.35 6086.96 5233.78 5653.9 5046.21 5683.26 5894.61 5139.5 5304.13 5944.09 5833.06 3527.05 4923.41 4497.31 5384.76 5529.42 5257.12 5243.43 4537.14 5551.9 3757.34 6415.61 4687.64 4419.71 5037.06 3838.47 4541.8 5175.29 5842.56 5412.31 3087.09 6934.37 4890.5 4050.08 3981.07 5452.42 5328.22 6853.85 2395.5 5941.61 4512.11 5782.48 5683.61 3836.45 5100.25 6894.26 4986.51 5197.52 5178.99 5383.07 4591.87 5013.42 4790.78 4247.15 6552.22 5651.07 6248.81 5273.35 2651.49 4645.58 5512.23 5275.32 5985.29 4898.94 4613.31 4733.04 6119.09 5788.66 5091.68 7531.29 5069.25 5048.89 3161.47 3991.03 6390.78 7435.25 6826.57 4788.87 4495.87 6022.72 4643.31 5527.33 5402.21 4989.09 4880.14 5289.52 4982.31 3848.54 4307.48 5941.4 5331.02 6510.17 5742.65 4871.96 4863.23 4402.67 4470.61 5565.13 4384.88 6887.27 3701.27 6008.49 4806.34 4287.53 5612.21 4929.14 5945.08 3979.54 3306.14 5490.58 4863.79 4702.06 3830.46 6031.67 4689.15 6138.12 4428.78 5409.66 4345.67 4765.72 4642.66 4752.14 5329.59 4888.12 4950.97 5512.16 3197.63 4863.96 5887.15 5203.08 7480.41 3423.15 4488.85 3731.84 4901.07 5186.3 3436.15 3497.9 4151.76 4020.4 3493.47 4596.75 6248.6 5443.58 4558.46 5805.86 4470.4 5339.38 6169.11 5615.35 4027.09 6422.84 4502.18 5379.09 4602.85 4962.77 5872.05 4853.02 4091.8 6259.23 5181.4 5670.2 4711.62 4247.23 4178.15 4268.65 4694.83 5509.42 4354.08 4256.43 5936.36 4520.62 3903.75 4755.47 5935.03 4485.99 5127.16 5475.8 5314.69 6050.81 5543.46 4249.46 5965.81 3702.37 5660.85 2330.66 4177.19 6917.52 3587.05 6229.37 6718.19 5282.91 4425.84 7256.35 4800.69 3555.86 6386.78 4631.83 4996.99 6081.14 5480.83 4220.46 4607.85 5128.57 6000.7 3169.67 5604.21 4968.03 3361.92 6710.88 5395.14 3967.48 6213.04 3685.13 6790.73 4655.16 5251.4 3867.19 5857.79 4039.91 5276.7 5036.58 6119.63 5411.02 4752.9 4287.16 5199.44 5191.08 4062.5 4435.51 5374.07 5163.77 4588.7 3766.55 4579.69 3554.48 6496.52 5005.85 4216.17 6484.17 4721.02 4254.37 3374.08 4933.65 4031.78 6098.1 5708.99 4049.02 5346.68 5311.03 5255.12 5296.29 4611.53 4285.66 4896.11 5172.53 5801.99 5210.48 7552.94 5323.3 5088.44 4998.21 4662.56 4114.24 5349.31 2976.22 4649.22 5394.55 5094.52 4946.74 2682.24 5928.32 5229.48 5475.7 4016.18 5526.75 5435.74 4244.99 5327.45 5560.26 6185.89 3997.96 4750.17 4439.35 3460.94 3990.25 3691.0 3758.07 4752.51 4236.14 4407.87 5733.62 5282.51 4460.92 3797.33 5945.89 4042.28 4105.55 4340.76 6566.1 6065.22 4221.28 4456.39 4896.39 3633.79 5421.53 5937.08 6070.3 5233.29 4312.56 4612.06 5204.04 4750.58 6667.68 5235.11 6622.11 5211.38 4590.55 5920.32 4255.85 5097.69 3988.3 6543.13 5149.72 5464.25 5486.48 5301.47 4617.55 5424.88 5415.85 8659.64 5683.95 6027.62 5010.2 6123.03 5966.61 5711.11 4575.94 4938.72 3546.71 5768.57 5564.23 5950.04 5687.85 4231.83 2435.33 6401.43 5020.71 2681.29 5094.48 3872.61 4238.4 4135.62 4318.48 6132.95 5534.94 4860.33 7644.38 6004.68 4051.34 6101.92 3627.55 6239.84 4635.6 4256.67 3457.48 5166.79 3931.07 3405.98 5417.15 3688.16 4681.72 4945.39 5996.33 3950.63 5415.19 4612.62 3619.07 4275.57 4467.04 6385.23 2983.99 2614.4 6363.92 6205.93 4923.24 5830.72 6184.4 3828.81 4373.45 4082.57 5255.18 5169.9 3004.16 4767.78 5235.17 4421.12 4779.5 5254.49 6649.96 4303.19 5514.84 5784.3 3914.2 4256.57 6088.68 4135.08 5620.74 4778.82 6124.08 5467.84 5053.95 5926.11 5253.37 5767.9 6515.8 5089.62 5869.4 4741.26 3701.16 4186.6 5895.77 4732.09 6136.49 4356.25 4216.95 5776.96 5742.74 4244.21 4947.24 3645.12 3875.05 6200.54 5148.58 4199.45 6599.66 5469.13 4233.8 5765.42 4997.83 4893.49 5325.44 5021.88 5956.65 4498.25 4188.87 3735.24 6574.95 4074.48 4558.47 5731.57 5997.88 5839.71 5576.92 6408.83 5266.22 3930.79 4004.35 5226.97 3685.13 3312.06 3361.26 6799.4 5278.36 5865.39 4427.28 6079.11 3082.32 6430.39 7440.72 3949.6 5703.6 6326.18 5661.62 6631.19 6648.68 4713.74 5626.61 5817.25 4084.49 5061.98 6632.99 4537.6 5147.36 4419.61 7177.44 4563.46 5309.98 6553.94 5460.65 5652.0 5463.41 5225.33 4929.75 4435.36 6045.22 5134.39 3532.3 5769.98 5442.32 2221.99 4643.56 3580.58 4863.01 5356.79 5657.36 3619.79 5029.47 6306.21 5266.01 2978.76 2040.66 7016.27 3876.21 3685.65 4916.22 6022.7 4940.84 5750.07 4809.67 4757.74 6045.67 4209.49 3946.28 3821.94 5439.9 5367.73 3540.11 3456.47 4652.01 5421.64 7234.66 4055.54 4886.12 6419.12 4976.12 6098.95 5453.98 3991.42 4388.63 5102.75 4200.09 4597.29 5931.77 5151.21 6333.29 4477.04 3886.68 5703.74 5662.55 5737.92 4360.23 5365.24 5293.51 4763.96 5754.18 5180.76 3418.99 4480.95 4993.35 4409.63 5521.25 3661.9 5370.85 5949.46 3658.37 3178.54 4765.02 5376.71 4448.13 5070.29 4807.28 4867.08 4266.03 5280.69 4220.03 6923.84 5407.78 5449.46 6179.96 6113.54 4662.43 6260.79 3963.76 5528.53 6799.88 3062.43 5726.66 5426.78 2967.38 4159.35 6477.91 4237.98 6439.37 4081.97 4614.3 5401.99 5580.92 5973.33 5067.46 3583.21 2511.46 4011.37 2775.69 4785.25 6519.43 5876.64 5424.46 4857.84 4908.49 4962.21 4858.44 5884.9 4673.35 5689.26 4992.42 5297.19 4351.38 4833.46 5933.7 7248.4 5280.12 5984.81 3498.16 4409.27 4640.06 5471.74 3548.39 3673.28 4858.51 4207.54 5625.65 4301.61 6107.89 4817.16 4446.84 5660.55 5148.08 4834.87 5760.22 3672.21 5938.17 4795.43 5398.64 5097.95 6817.57 4693.52 3614.96 6853.04 4745.43 5831.96 4747.55 3056.7 3755.95 6234.32 4586.19 4446.06 3450.93 5008.63 4270.74 5132.68 6595.03 4558.15 6218.95 5222.16 5107.23 5136.08 3776.94 5558.68 4010.57 5629.39 2684.03 6157.04 4768.61 2261.36 5075.55 4522.21 5506.19 6719.94 4950.67 5227.59 6166.29 5453.6 5703.07 5294.77 4709.05 4630.82 4043.66 4813.08 5860.67 4540.86 5990.52 4835.83 5604.35 6316.56 4332.87 3091.67 6420.81 4715.58 4450.7 5151.52 5369.08 4347.74 4009.62 5291.9 2081.58 6505.78 5461.55 6865.76 6449.64 6464.8 4684.44 4749.59 5799.69 3468.42 3809.69 5571.72 4771.13 3208.96 7051.9 4184.23 4144.57 5550.75 6834.41 6226.14 5466.33 4444.97 3000.29 5721.05 4247.69 4514.39 4588.99 4321.21 4344.34 4928.27 3583.49 5052.84 3375.28 4366.74 5297.16 3184.64 5206.33 5530.49 5653.03 3718.69 4514.79 2216.82 4509.89 6752.75 5269.38 5607.3 5108.06 3573.73 2928.82 4222.4 4000.43 3420.08 4568.41 4912.04 4539.07 5464.68 2685.81 5591.76 4585.31 6625.18 5323.91 5097.45 6293.89 2761.07 5737.75 4983.39 5366.52 4690.55 5533.72 5533.42 4802.32 3678.08 4599.38 5246.47 4187.31 6191.29 3240.51 7422.36 5161.01 4298.15 4628.4 5832.37 6051.83 4642.93 5409.63 4263.16 3973.12 3077.84 6024.75 6109.49 5567.93 5987.42 5332.65 3764.1 6451.33 5413.31 3012.99 6400.08 4743.59 5208.14 3317.83 3763.05 5092.24 5549.49 3101.75 4518.04 4766.06 4874.18 5435.19 3298.2 4270.15 4953.1 5818.95 4093.99 3940.49 4406.05 4680.94 5828.35 5876.72 5236.43 5285.07 4680.14 4608.41 4187.94 5980.59 3796.15 4801.8 7216.98 5271.02 4209.31 5718.28 6242.79 5950.45 5713.03 5849.65 5134.67 4165.21 4215.0 4936.96 4481.76 5452.78 5065.26 4304.41 6192.0 4940.28 5885.28 6579.31 3004.34 3022.6 4811.76 4914.45 4698.87 4661.03 3624.7 4691.91 5262.35 4475.83 4510.8 5889.35 5010.04 4394.56 4570.98 4275.07 5825.38 4185.61 4047.87 5742.47 3778.02 6552.21 5417.8 5146.37 7132.12 4836.16 5518.57 5151.11 5463.48 5730.33 5545.46 4527.99 4376.7 5190.61 8325.01 3764.06 4440.81 5941.9 5434.47 6642.76 5829.22 4497.78 4243.79 5811.18 5433.65 4442.22 4008.15 4887.76 4669.06 4811.32 4286.49 6184.88 5829.32 4396.25 5551.95 3918.87 5423.42 2275.45 6605.86 5012.5 4383.56 3562.79 7093.13 4516.53 4122.92 3604.14 4452.54 5089.1 2711.19 4028.32 4099.92 4884.59 3858.06 4511.7 4083.79 5263.27 6300.92 5021.77 5599.29 6038.68 5046.12 4807.4 7013.17 3805.67 4601.74 6506.86 5088.57 5580.34 3852.6 5775.31 4706.5 4603.5 4647.67 5375.12 4356.36 4892.44 5578.94 7610.49 4286.17 3684.56 5323.55 5375.1 4172.6 5313.12 5351.56 5160.59 3984.88 4732.09 4320.42 4255.34 5064.79 5480.3 7509.24 4146.81 5896.26 5388.78 6101.13 4573.72 5099.21 4917.99 5636.4 4367.78 4350.12 5227.02 5670.0 4232.16 5300.96 4344.51 5680.94 3781.77 5581.55 5193.01 4543.1 3474.5 6550.44 3860.83 5732.27 4523.39 5278.56 5146.37 6917.62 4013.38 5631.14 4343.78 5263.3 4909.65 6523.86 7693.4 4326.48 4437.07 3449.37 5491.9 6405.0 4659.16 5789.55 4633.05 4901.2 5711.62 4990.79 4798.17 5166.79 6479.39 2895.63 4997.91 5079.22 5381.54 5810.77 4714.83 5474.15 7519.2 6355.68 4478.6 3953.55 4304.63 4469.54 4314.56 4173.54 3928.53 5606.51 5740.65 3834.47 6349.67 6329.53 4590.01 6101.86 4227.41 5993.0 4803.57 5966.42 4110.59 3332.49 5354.66 4214.44 5378.23 4787.97 3746.36 6789.23 3989.7 4777.03 4246.61 6028.09 5452.36 3804.5 6486.37 5498.42 5318.53 3344.57 5220.76 4281.98 7165.9 5344.83 7046.11 3427.63 4863.97 6342.48 5756.75 5599.7 4587.67 4163.74 6969.28 3665.95 5698.96 4095.75 3603.51 4298.45 5222.51 6609.84 5135.96 3834.43 5658.37 4707.06 6074.94 5491.37 4250.88 3783.54 6348.03 3475.67 4792.39 7038.89 3863.67 4814.12 5067.56 6137.8 2735.53 3352.35 5116.6 3747.03 2783.85 4356.49 4526.81 3994.07 4219.94 5907.46 4264.91 6740.71 5399.29 4909.31 5971.22 6522.59 6602.43 3568.28 5425.98 5996.66 4405.42 2995.67 3598.08 4599.81 5698.23 7300.58 3608.06 6633.61 5217.95 4867.7 5484.36 4277.24 4063.9 5291.05 5161.1 4619.2 5166.41 5067.56 2596.96 5701.75 4350.15 4139.3 6541.45 4750.49 5078.31 5391.48 4923.43 5131.15 4847.14 3950.27 5116.66 3566.79 5374.67 4981.43 4741.28 4215.2 5069.89 4157.29 6813.72 5327.75 4609.02 4896.65 4638.18 4196.37 6448.66 4453.97 6945.98 5138.2 5783.48 4449.98 4701.5 4504.35 4771.65 4840.44 5093.82 5951.81 3924.14 6918.35 4296.69 6238.32 3319.67 6471.42 5283.8 4076.59 4428.14 5164.1 6464.15 4479.11 4972.17 6685.4 5699.53 4222.77 6332.01 5268.38 5527.23 4805.33 4234.18 7085.01 5980.95 6193.08 6069.3 5887.01 5168.35 5388.39 5335.47 3728.18 5633.61 5048.19 6799.23 4888.27 6487.56 4854.11 5533.19 5417.21 5583.61 6063.64 7382.3 4022.56 5522.21 3772.3 4855.01 6208.9 4923.57 3340.09 6061.63 2279.05 4829.35 4075.28 8137.11 5484.32 6650.77 4067.96 7104.73 6162.3 3272.75 4264.54 3516.27 7043.44 4263.78 4643.9 5228.75 6047.14 5009.83 5210.38 5717.8 3629.44 5003.78 3299.24 6246.56 4061.6 2603.64 5107.0 6212.15 6502.97 4783.07 4946.23 4852.58 6083.28 5211.6 3556.79 5806.31 5456.71 3503.41 7317.04 6412.67 7001.83 5012.97 5589.37 5439.49 6639.64 5212.43 4834.3 6348.54 6804.79 5642.35 6372.13 5369.5 5404.01 6016.19 4124.49 3230.13 5714.25 6176.67 5325.96 4850.06 5016.02 7044.29 4920.21 4049.16 3936.95 6153.94 6836.82 3862.77 4631.99 4740.98 3185.39 5128.77 7122.87 5797.36 4243.26 4153.84 5119.86 4592.15 5089.26 5084.17 4901.44 3776.8 4998.22 5096.43 6156.21 2460.79 6104.26 4653.83 6171.71 4986.71 3628.89 4668.88 5027.43 5522.75 5867.64 6059.93 5602.53 6545.43 6760.92 4989.2 4711.04 7144.05 4506.18 4824.12 4383.47 5971.21 4036.91 5454.12 4066.57 4206.98 5156.76 6357.47 6101.57 4891.38 5535.91 2949.12 5955.86 4533.37 4848.46 5412.24 2779.99 5887.38 4581.37 6942.34 5851.61 5478.11 5526.31 3858.17 5030.15 6589.82 4438.58 5073.02 3472.91 2970.9 6542.5 6318.23 4058.87 5174.75 5932.07 4984.46 5948.71 4793.65 3856.53 4532.89 5460.89 5260.85 5742.09 2884.65 5807.46 4648.21 3658.05 4393.16 3311.29 4549.69 6423.81 6192.77 6413.15 6103.11 5048.55 6459.51 4024.31 4955.16 5844.72 3992.97 5989.05 6040.74 4054.22 7228.94 5393.65 4961.99 6551.93 4595.12 3110.13 6484.43 4625.67 3485.54 6735.97 5305.59 5416.45 4330.58 5754.6 3288.01 4904.51 4147.31 2202.77 5751.15 5950.88 4149.55 4441.22 5853.89 3380.69 4140.4 3639.44 4386.8 5446.4 4725.01 5966.75 4729.42 3104.96 5244.78 3636.15 6114.89 5135.63 6384.7 4355.83 6870.97 5351.86 6056.87 5474.01 6201.86 7554.58 5166.89 4731.21 5491.63 5725.37 3868.62 5138.33 3477.1 4811.22 5216.26 4844.83 5377.37 5652.87 5483.7 5018.69 3152.86 5952.38 3896.27 5807.52 5963.36 5230.02 5307.35 4342.18 5169.48 6016.08 6776.22 3124.7 6064.71 6102.98 6060.17 4385.81 6592.93 5096.24 5769.14 3381.82 4831.93 4023.93 5494.28 4834.39 5493.89 5261.19 4918.76 4208.41 5826.78 6214.73 3758.22 4268.19 4532.7 5561.74 6100.73 4788.08 4349.13 6379.14 3687.65 5478.95 3851.85 4749.96 4019.34 4658.24 5869.67 4311.48 4899.73 5457.66 6394.19 5973.89 5366.22 6193.73 5518.11 5087.14 3742.11 5712.35 5701.52 4743.9 5321.17 3719.11 4467.13 3877.8 6418.11 5934.82 4501.78 5415.45 6350.71 5039.12 7107.63 5868.89 4099.26 5206.47 3831.52 4263.65 6106.43 6761.81 5467.63 4127.53 5210.75 2856.55 4553.68 5361.87 3205.68 4473.29 4908.75 6556.26 3971.08 4482.9 4593.7 6818.91 3503.65 3634.5 3623.19 4869.48 4906.11 4387.39 4564.1 4745.16 5825.55 5509.51 4848.14 3199.4 4316.5 5254.24 4192.21 3597.43 5144.56 4158.91 5311.55 3360.86 3034.16 4869.25 5545.21 4333.87 4922.49 3572.94 5001.58 6456.58 5366.11 4824.81 7307.21 5135.5 3619.72 4565.93 5615.84 5788.97 3274.85 5007.21 5545.59 4580.06 4835.97 4057.17 5262.47 7066.96 4587.7 5644.81 5666.95 4642.2 5175.89 3894.64 5232.85 4374.74 5975.23 6816.66 4745.79 6204.65 6550.4 5513.8 4887.52 6631.28 5350.88 6571.31 4392.65 5429.3 5510.96 6653.07 4697.91 4584.81 5071.98 5719.79 4371.08 7261.51 4968.14 4914.03 5086.29 5527.13 5139.18 4278.57 5551.43 5049.99 4201.03 4458.64 5001.87 4312.15 3657.69 4078.93 6015.02 4820.17 5244.98 3814.65 3886.72 4034.05 5798.38 6436.74 3419.87 4384.28 3908.98 5944.3 5113.6 6328.42 5640.72 4504.52 4464.73 6440.38 4954.81 5610.53 6419.64 3926.11 5464.83 5414.58 4991.35 5196.92 4807.35 5334.36 4568.64 5750.35 4489.99 6555.44 5293.75 5473.72 7124.45 6358.93 2205.51 3703.49 5144.44 4757.2 5034.69 5079.64 4211.82 5470.04 6003.78 5684.25 4891.67 5188.53 4882.66 4027.63 4944.51 5603.68 5610.95 5532.72 3220.8 5179.17 5579.39 5270.51 5148.1 5490.75 5224.64 5949.73 4312.48 5783.94 6370.33 5081.08 6318.25 4202.77 6864.06 6008.81 3644.78 5510.9 4883.63 4505.28 3492.83 7039.98 6006.89 7778.01 5127.82 5690.96 5805.1 3862.91 4456.26 4027.33 4810.98 5091.22 3563.14 5851.63 5556.0 5748.9 5755.15 4608.34 5695.79 2781.96 3512.94 4467.0 4994.65 5601.55 3903.91 4929.6 3919.62 3683.86 5658.14 4508.18 2617.39 4062.56 4198.94 3217.67 6163.54 5212.37 5438.92 3766.69 5110.11 5036.98 4521.75 4813.33 5569.2 5635.32 4526.34 4316.45 5409.08 5042.75 4598.92 5241.22 6647.08 4979.52 3422.29 4407.79 5214.63 3495.68 3990.96 5352.24 7362.42 5793.12 5836.14 5473.05 4583.52 6280.13 5244.22 5585.14 4960.64 5792.98 4983.3 5053.15 5910.86 5124.17 6239.68 4456.11 4234.88 5782.43 4708.31 5026.76 6282.38 5657.55 5727.79 5212.92 5188.82 5043.14 3742.31 3663.0 6304.49 4420.6 3622.8 4431.23 4258.98 6545.99 4368.28 4945.0 4548.45 4658.11 5730.61 5114.07 7142.95 5064.67 6618.21 3717.47 4504.86 6200.63 5969.37 4928.35 1937.5 4509.46 3844.54 3538.53 996.652 6500.49 5965.58 5058.51 4244.49 4050.03 4120.07 3840.21 3429.57 6746.66 5410.33 5420.67 5661.6 4827.61 5285.75 5481.64 5673.75 5360.67 5968.54 6263.3 4501.05 4537.03 6548.29 4114.2 4326.06 5034.46 5757.29 5016.46 5469.17 5061.75 4373.2 3769.24 3743.76 6711.21 4971.29 5832.29 2606.51 4438.76 5372.82 5401.4 4775.49 4681.29 5749.6 7320.78 4834.44 3873.92 4092.07 5347.9 4717.73 4928.85 5072.5 4749.18 4546.96 4316.0 5134.72 4475.38 5287.25 5917.34 5740.98 5630.9 4728.55 4554.68 4551.26 4559.74 4383.68 6666.67 4583.94 5046.31 4337.32 4680.69 2628.22 3352.34 4901.29 4952.52 3242.31 6099.28 5372.25 5385.03 4169.15 3234.26 4778.37 3494.16 5134.17 4074.16 4904.35 5592.54 3247.97 5124.34 4904.37 4358.81 4651.64 5729.92 4179.87 6224.13 4761.84 3661.67 5153.18 3425.69 5510.45 3864.92 3994.39 6119.99 4159.81 4446.58 4402.17 3845.9 4174.44 6331.74 4198.9 4213.05 4224.3 5235.87 3904.07 6502.99 5424.55 4921.1 4770.51 6511.37 3787.08 4462.87 4218.16 6139.64 4140.92 4692.32 4474.83 4585.04 6570.35 4242.63 7407.91 6063.44 4051.18 5849.53 4420.11 5863.0 6127.39 4802.98 4833.55 7224.99 3908.56 4898.29 5265.63 4431.06 5730.2 4830.13 5370.9 4529.77 4325.13 6172.27 5390.33 3783.79 5078.73 5278.54 5729.0 5192.92 5275.57 4786.66 5891.25 5370.1 5393.76 3684.15 4730.14 5906.57 7541.76 4990.23 3784.94 5499.59 5667.51 5431.29 4833.67 5325.91 5157.38 6203.03 4700.07 5273.37 4732.37 5713.36 5553.94 4704.92 4287.25 4392.75 3814.16 4191.01 4589.06 5577.41 4216.44 3999.5 4012.92 4346.07 4933.49 5236.24 3127.83 3269.54 5836.26 6015.22 6449.06 4651.99 5640.12 4972.18 5329.76 4124.76 7200.89 5684.88 6523.78 4645.86 4045.67 5620.88 4941.52 5900.0 4262.74 6241.77 4248.14 5317.19 5279.19 4016.6 5821.49 7050.08 5580.44 5998.13 5902.67 5454.11 4236.86 6010.59 7123.04 4128.1 4618.73 4932.29 4506.66 4141.21 4439.71 4064.58 4646.51 4546.44 952.938 4184.21 6089.45 4985.3 4966.07 3987.69 4666.12 6219.34 4920.88 4013.86 4177.47 4770.63 4385.49 6102.49 5114.23 6061.85 4826.52 2904.46 5241.75 4731.53 3763.9 4577.73 4288.45 5419.57 4147.49 5760.98 4954.76 4642.74 5384.86 5764.52 3770.22 4390.64 4608.01 5150.84 5087.97 6005.95 4308.49 4519.03 4930.17 4581.1 4085.96 4745.44 5762.82 7360.12 6223.98 5462.6 5617.29 3035.06 4262.19 4597.88 5095.52 4763.4 5806.61 2955.36 3965.3 3220.29 4125.9 5426.4 5951.86 5023.41 3791.41 5853.12 5702.4 5473.89 5265.21 4657.24 4400.14 5995.4 4184.47 5890.25 5700.79 6710.14 5759.79 4598.54 5218.42 2918.64 5345.73 5188.22 4512.07 4841.23 4896.43 5984.8 5463.06 4212.15 4639.8 5678.58 3185.09 5532.75 6949.65 4263.18 3469.18 5495.0 4489.29 4301.93 5064.23 5268.15 4454.74 5512.44 6347.72 4924.07 4685.4 5120.92 4629.02 6240.42 5146.0 4788.7 4608.62 5407.96 5084.5 4918.64 6206.98 6638.25 5078.59 4607.18 4775.04 2403.72 2646.13 5162.67 3646.95 4636.53 4081.34 4705.68 5469.35 5117.64 6334.53 3402.44 4848.98 4491.96 5184.98 4467.51 5339.82 5460.57 5110.27 5703.34 4612.68 6668.98 6649.52 4232.33 4939.56 4747.68 5770.92 3093.38 4845.91 4878.93 4461.67 6273.6 2002.78 5136.87 5638.7 5024.32 4708.17 2741.2 4941.02 4644.88 3779.45 5790.42 4983.1 5784.37 3142.09 3682.35 5182.13 5003.3 3668.93 4009.24 3756.96 6110.48 6245.52 3954.77 6793.1 6016.87 3125.13 5515.73 6715.73 4564.41 5209.55 6405.69 5763.05 5357.39 5129.68 4252.18 4659.88 5247.01 5797.21 4208.37 4841.7 6019.35 5069.9 4678.7 3673.6 5810.17 3450.07 3306.84 6215.87 6485.77 5191.26 3669.32 4762.1 3484.81 5308.33 4271.07 4685.65 5674.63 5340.05 6506.63 4140.04 3495.3 5322.11 5125.17 4697.49 5735.08 4726.2 5034.05 4816.51 4426.02 4711.15 3825.48 4658.59 4474.39 3810.68 2804.54 3990.94 4196.62 4756.8 4357.11 5477.8 4176.32 5486.89 4462.35 6069.78 3986.41 5260.52 4241.68 3587.93 4549.51 4975.85 4095.83 2945.34 4517.29 5695.25 3372.95 5676.61 5323.95 5846.95 5716.42 5701.63 5796.26 5819.0 4620.95 4603.04 4870.94 3200.6 5368.93 4488.39 3460.93 5124.86 6121.56 4927.73 5914.5 5721.14 6006.16 3565.32 5710.33 4987.28 5344.44 4071.75 4626.72 6432.8 6562.03 4815.47 5549.71 3899.7 4759.99 4368.12 4410.82 5134.33 4365.58 3889.98 5214.4 3629.49 5399.43 5766.05 5034.34 5695.44 3835.81 3422.21 3916.42 5537.61 6084.88 4199.44 4397.06 4053.12 4479.5 6261.67 3435.13 5065.78 4431.46 4521.42 3207.84 3977.98 6043.34 4128.93 4959.72 4712.17 3808.04 4723.71 4493.79 4405.61 5684.05 4932.56 3667.93 4279.44 5192.49 4899.19 3487.31 5813.79 5058.34 4028.22 5575.11 5293.13 7350.26 5591.77 3768.46 5167.53 7145.73 5800.81 4168.52 5403.97 5106.46 4795.08 6562.92 4068.31 5501.73 5166.05 3671.06 4697.24 5077.29 3612.44 4983.43 7035.54 4850.5 5866.91 5233.76 4683.28 2820.07 6549.8 4825.73 5679.74 5076.84 4165.36 5288.33 4871.77 6296.54 5811.26 5685.74 5062.77 4884.93 6740.35 6075.99 6028.63 3957.38 4550.92 5927.2 5146.1 5035.71 4419.79 5407.69 6060.06 5866.42 5544.27 5960.5 5393.43 4117.9 6896.55 4753.76 5377.01 4638.09 6023.07 4441.91 6470.23 5330.26 5828.25 5939.22 4668.8 4215.05 4271.93 4604.1 4859.01 5076.11 5524.45 7133.44 3953.26 4750.81 4282.11 5467.51 5459.92 4625.53 6478.35 5453.77 4096.47 2809.19 5114.67 5005.6 4916.7 4104.04 5589.53 7208.19 5593.79 5196.08 5025.42 6379.38 6257.79 4495.75 6171.01 4849.5 5353.23 6229.83 4468.26 4523.81 5578.18 5106.33 5293.37 5271.88 5933.54 5559.79 7168.2 4602.57 3763.85 3419.07 4571.74 5740.78 3622.48 4096.86 4796.12 5001.51 5385.86 5115.42 5131.77 3186.07 4369.86 4967.51 6443.99 5173.82 7212.97 5193.58 3720.7 5490.64 5698.53 3769.2 3604.31 5036.14 4507.46 4450.49 3468.45 3228.27 4721.98 5252.82 3543.98 4142.1 5056.26 5878.55 4014.44 6604.72 6002.77 3794.47 4610.55 4967.02 4614.49 5400.69 4462.5 2807.46 5573.31 5004.68 4023.88 5348.11 5428.24 5537.34 5884.99 5726.42 6643.4 4674.9 3918.94 3392.26 2549.95 5461.72 5487.63 3852.82 4507.36 6599.28 5138.93 6224.85 4556.19 6406.8 7086.69 5368.66 5648.78 6170.9 6875.73 4436.48 5226.42 6081.3 5117.52 3967.76 6311.89 6734.39 4217.36 5942.45 4150.76 4851.18 4228.53 5005.72 5368.52 5155.28 5388.73 5205.38 4764.83 4949.55 4600.71 1969.87 5262.79 4841.28 4494.15 6889.5 4710.88 5300.17 3869.39 5152.78 4057.4 4896.67 5534.23 4781.9 6025.77 6815.96 4466.22 5339.6 5917.08 4725.11 5483.37 3626.86 5418.12 6371.96 5322.07 5770.07 5990.75 5101.6 5600.21 4984.17 4656.01 5781.62 6589.13 4037.86 2347.41 5602.62 4542.16 3543.37 2030.03 5714.51 5628.97 5353.66 2638.82 5030.33 5104.39 5234.2 4965.24 4612.13 5846.6 5327.05 5438.55 4434.65 5977.66 5209.5 5791.25 5065.74 5198.94 4873.23 4028.35 5464.05 5879.24 2980.31 3148.79 6348.93 6824.53 5997.91 4332.64 4742.82 4422.23 6791.86 4082.4 4209.0 4820.68 4930.72 5482.76 5728.58 3745.02 4887.73 4211.36 6297.99 5378.24 3856.73 4538.89 5817.74 5887.71 3956.24 7558.99 3393.59 5043.14 5333.04 5445.91 4521.99 4812.59 6842.54 7115.67 5675.45 3361.11 5329.84 6038.56 5599.16 4179.8 3488.34 5658.35 6022.78 4087.32 4009.68 6647.85 7025.09 2569.12 4161.32 4433.12 5161.74 7336.37 4361.24 5932.28 5560.23 5099.9 2960.5 6945.69 4298.7 5118.86 3902.48 4183.4 4304.64 6030.39 5833.78 4733.79 4823.06 5758.98 5615.35 5254.49 5288.64 6213.24 5987.88 6883.86 3579.59 3350.99 6123.46 6161.94 4065.28 5057.59 6142.88 4461.14 5111.26 5285.6 4574.54 5490.54 5615.06 3132.34 5203.54 4047.95 5507.38 6142.94 5001.69 4416.87 6581.56 4052.43 3980.46 4061.87 5383.9 3934.11 5158.44 3798.09 3886.56 4288.5 4496.51 5715.51 6153.71 4511.05 3456.3 6561.94 5259.21 5092.93 5934.05 2803.01 5881.93 4714.66 4444.0 6771.18 6182.19 5327.39 7415.84 4981.81 4138.59 4970.55 4938.33 4484.78 4621.33 5527.27 5157.73 5847.91 4541.22 4934.66 4984.01 4109.44 6217.33 4903.84 4290.49 4557.1 6688.53 4605.39 5927.1 6175.27 5876.51 4103.76 6731.89 4286.61 4094.63 4733.41 2932.52 5410.6 5264.83 4603.66 5453.2 4969.68 5136.51 3901.53 6815.51 5313.86 5232.16 4457.05 3989.26 5189.91 6031.22 5485.84 6424.77 4335.79 5453.69 5797.32 5918.95 5432.04 5689.56 6556.86 5580.95 3549.92 6598.99 4032.06 5246.81 5089.1 5888.95 5394.78 3463.34 5169.09 5122.38 2853.68 5262.85 4998.37 6559.82 3879.83 5342.9 6565.95 4577.98 5043.34 5886.81 5517.65 5114.51 5129.4 3303.49 4655.37 4622.73 5585.25 5256.75 6351.89 6530.78 5059.37 5783.38 4975.32 3043.77 4139.39 5237.55 3909.94 5088.64 6589.8 4905.53 3799.01 6920.92 7392.65 5319.1 3757.23 6828.8 4181.93 6570.43 3820.19 4979.5 4586.82 4745.37 5939.29 6200.05 5418.98 5859.17 5575.11 4034.41 5061.74 4052.49 5326.03 5522.34 6189.67 4420.35 5717.45 4948.96 5256.82 4013.86 4645.93 5165.31 5448.64 4585.37 6417.61 3721.69 5783.69 6074.39 5317.83 3483.61 4256.08 6738.9 4399.52 4460.89 4554.24 4157.1 3939.96 8052.53 4867.12 5910.66 6520.19 4637.3 5141.03 1458.87 4840.44 8123.59 4819.83 5765.14 4801.16 4767.54 5071.38 4946.08 5121.08 3539.68 4696.03 5688.77 6177.68 4698.7 6270.59 2848.44 6045.26 6500.45 5743.8 4907.55 5084.76 6666.34 6605.11 4757.87 3557.46 6636.43 5431.14 6298.8 5178.07 3689.24 5151.19 5777.26 3618.64 5703.84 4171.02 3530.82 7012.36 5028.06 4002.99 4886.99 5159.67 3921.27 3161.1 3572.73 4864.38 3702.45 4313.38 5827.3 5250.56 3633.58 2468.16 6294.14 4339.97 5203.75 3906.41 4691.15 2459.88 4512.6 4210.24 5470.67 5901.71 5225.11 5252.22 5733.12 4962.35 6436.29 4746.15 6275.25 3720.38 4758.84 4731.37 5023.61 4452.36 3976.0 4672.86 6463.71 4742.35 5394.79 5645.54 6264.03 4526.87 3562.8 4227.66 4151.74 4691.01 4174.22 5192.82 3729.16 3783.36 3573.84 3038.91 4067.89 3922.28 6294.09 4571.57 3445.92 5131.07 4121.07 5236.69 4197.87 3133.28 5524.28 5105.54 6026.04 5731.43 6353.81 3518.14 3414.67 5444.36 4150.44 5044.68 5771.98 5899.78 2649.69 5000.74 5117.83 5772.57 5268.27 4813.81 3882.37 5244.95 4634.25 4095.4 5901.8 4718.61 5188.57 6351.48 5395.12 5357.33 3830.7 6210.0 5432.4 5350.9 4262.52 5992.06 5545.68 4970.12 6044.01 4967.93 6369.66 5973.57 5922.62 5734.07 6241.48 3997.68 6033.28 5957.82 6286.27 6327.54 2927.84 5616.66 4802.36 2943.17 5368.28 5466.13 4220.43 6229.64 5257.38 5075.23 6263.87 4975.56 7282.36 3826.01 4645.91 5581.01 3928.99 6834.92 6379.33 5971.95 5652.73 5130.57 3979.46 6321.97 3985.93 6412.84 6509.54 6119.0 3792.06 5128.59 4993.49 4937.36 4293.3 5308.4 5587.3 5310.33 6583.37 3688.83 2832.83 4474.96 4084.87 6036.99 3010.1 5259.29 3825.98 4589.22 5087.03 4667.84 5584.64 4123.08 4260.38 4636.45 4932.27 3799.55 5638.51 6793.49 6060.19 3563.33 5536.0 6786.37 5631.32 6892.33 4505.3 5793.14 4491.26 4609.65 4511.34 5704.61 4068.41 4832.21 5009.21 4574.03 4379.91 4942.63 5290.37 6139.74 5850.38 4975.57 5264.08 4730.97 7066.26 4594.89 5245.95 3677.85 5821.42 4515.02 3463.53 4924.52 6126.03 2970.24 6044.69 5658.05 6593.1 5462.1 4000.51 6032.45 5011.37 4026.03 6908.32 3467.11 4817.75 6153.26 5637.53 4848.15 4439.09 5523.81 5648.59 6697.45 3873.79 5717.67 5252.37 5515.59 3224.81 4499.54 5037.58 7430.48 5640.67 6572.17 6080.69 3751.73 5555.89 4766.47 4871.1 5678.08 6009.93 5872.45 4414.09 5125.45 4188.16 3784.68 3717.22 6305.9 6649.21 5507.07 4654.92 5327.71 5286.55 4880.78 4322.56 5509.09 5625.02 5212.05 5479.86 4829.77 4444.92 6959.88 4125.75 5971.9 5749.53 5090.48 5247.73 5402.45 5034.02 5582.28 5945.25 6071.59 2589.19 3856.4 6079.55 4696.06 5485.61 4137.16 6189.29 5984.55 6581.13 4569.32 4758.76 4790.63 4088.72 3584.05 3945.62 4916.75 4818.53 5097.85 6189.04 6224.64 4221.03 5189.4 4576.71 5082.66 4550.77 4337.93 3550.88 4345.51 4048.73 6223.33 6126.5 6322.0 6007.1 6345.2 5488.96 5128.03 3720.92 5410.73 4793.06 5087.3 6637.38 6188.33 6111.23 3057.3 6916.18 6150.31 5873.62 5214.71 4996.91 4677.84 4811.11 3920.44 5379.52 4450.51 4866.8 5314.67 3851.47 5563.47 4966.74 5651.46 4066.36 3162.27 6033.93 4083.24 5516.37 2827.92 4441.44 5092.44 5432.2 4232.44 5336.61 4612.4 5563.09 3312.3 6381.58 3282.57 4798.13 5212.2 5108.42 4630.5 6296.36 4432.32 4451.76 7885.41 3775.38 4046.22 5782.25 6457.89 4104.97 4844.2 5114.61 6118.13 3374.62 4926.62 4420.3 3917.09 6332.64 6492.44 4083.1 4613.32 5270.1 3482.73 5191.29 5130.56 4947.64 4957.99 4063.26 4997.89 4542.62 5093.28 3470.69 4859.95 4132.08 5522.18 5223.1 4850.49 3873.72 4981.55 4592.49 5144.23 3625.98 6188.62 6474.5 4702.32 4414.06 4763.04 3746.62 4413.56 4876.37 4532.67 5316.05 2513.38 4769.62 5260.13 4649.5 5019.84 5181.31 4810.74 5985.75 5784.38 5475.83 4149.17 4329.8 5728.27 5672.46 5803.3 5367.05 4449.73 5647.11 3743.85 6236.46 5342.17 6379.3 5015.67 3795.63 6538.04 4894.15 6157.59 5201.3 5848.41 4090.28 4246.83 4034.88 5108.84 4582.12 3511.5 4295.25 4520.14 5067.92 3188.21 5357.14 4850.95 5919.27 5374.09 6271.22 3421.81 3920.64 5378.75 6186.24 5786.06 4137.41 3868.69 5447.74 6033.72 5007.41 3768.62 3692.99 6213.74 2329.93 4369.87 4959.94 1635.31 6938.87 5639.4 6185.73 4806.99 6520.96 3771.91 5856.43 5217.62 6178.19 4746.19 4616.81 5715.25 4362.94 4611.21 4469.82 6545.78 3354.94 4404.87 4870.14 5237.27 5105.72 5767.65 4750.76 5003.49 4907.03 5497.27 4575.72 4081.77 4948.21 2181.29 4987.01 4706.31 4202.12 2694.25 6265.48 4735.99 4203.68 4739.56 5145.39 3996.93 6351.95 5195.09 5345.05 5200.1 7679.2 4881.51 6131.52 4311.92 6009.88 4699.77 6729.99 5093.41 6842.35 5464.34 6153.07 3621.63 5801.89 5908.57 5944.52 7296.47 5050.2 4821.41 4908.32 4924.53 3995.08 5616.11 4499.52 3874.12 4028.13 3900.93 4457.73 6476.35 3113.64 6260.58 4067.24 3053.19 5202.33 3074.49 4487.51 6805.02 5354.48 7394.47 4729.45 6261.13 4167.55 4720.34 5244.47 5510.89 4731.16 6470.87 5822.7 4495.33 3780.07 4159.89 5466.49 5178.55 4038.17 4907.48 5146.69 6818.23 4488.41 6679.12 5412.07 5652.19 5512.57 6578.62 4813.55 6284.12 3465.03 4796.04 3839.0 5349.85 5229.56 5799.86 5172.1 4672.34 6052.22 5376.41 5003.63 2932.2 4695.7 4944.08 4082.01 5269.39 3964.03 4216.33 5832.72 5617.91 3903.9 4444.95 4721.2 5161.02 3943.77 3124.49 5003.81 6262.18 3818.37 5566.5 4701.03 5663.36 3352.46 6225.05 5434.04 5125.53 3997.52 4444.54 2626.41 5779.9 4909.74 5310.33 6664.54 3922.98 5161.73 5259.48 4777.96 5254.93 4803.4 6833.5 6608.94 5742.39 2613.78 4780.16 3834.01 4433.23 4813.24 5759.19 5847.27 4490.2 4304.75 5734.84 5480.86 6139.9 6571.26 4246.24 4919.13 4600.81 5640.63 4900.26 4358.06 5783.88 5002.38 6705.93 4865.11 5502.14 5449.09 4605.61 4465.56 5282.67 4131.08 5747.9 5386.95 3864.19 4287.93 5315.71 6203.24 6158.93 5081.65 4823.14 5438.5 4621.32 5806.74 5699.4 3878.8 5237.76 4698.94 4286.84 3948.21 5669.15 5296.05 6011.4 3330.85 5056.32 5533.52 5410.33 4747.24 4380.86 4909.13 5576.16 4305.35 5648.02 3308.75 5210.22 2451.27 5677.42 2701.42 4929.35 5606.22 6673.92 5242.38 6081.35 5151.68 5459.52 4609.98 4738.72 4752.31 5240.97 5579.04 4276.59 5405.6 5994.21 5403.81 5082.25 6964.78 5299.03 4374.05 5036.84 4565.36 5813.68 4025.08 4008.67 5040.9 3618.53 4770.21 8013.28 3846.55 3796.73 5417.07 3082.16 5656.84 5738.37 6789.66 4739.41 5312.2 4706.59 2515.5 5551.79 3982.31 4950.07 4720.22 5402.81 4333.23 4328.76 5561.63 4124.33 5168.97 6568.45 5093.51 5647.93 4280.92 6201.49 5154.74 4696.92 6437.99 6898.8 6540.57 5332.11 4893.72 6004.72 4072.4 5373.78 5345.65 4489.18 5863.36 4632.75 4752.94 4994.98 3950.53 6423.96 6058.13 5894.69 5263.86 6988.4 6635.51 4060.17 6051.35 5302.53 5543.67 4287.61 3999.81 4867.13 4604.34 4439.17 4863.27 4502.12 5442.79 5051.39 4633.59 4884.94 5733.59 5362.15 4455.61 3695.72 6874.6 5106.9 5569.85 5523.96 3929.35 4884.93 4759.38 6960.97 4287.15 5282.51 5504.65 5669.41 5732.11 3919.47 5596.68 4868.66 4004.39 5159.9 5283.65 4644.68 4987.48 5943.61 2892.36 5981.54 4248.58 5911.29 5416.41 4694.27 6760.64 4849.21 5177.88 4785.55 3793.83 6981.47 4582.24 3916.15 5145.13 3860.8 3747.96 5611.29 5940.5 4521.88 5004.22 5103.3 4601.54 4963.88 7263.57 3832.09 5705.96 5267.65 5739.69 4790.16 6632.04 5360.88 7360.62 4985.45 4977.64 4983.56 5699.51 4714.52 2489.44 5499.37 4883.13 4836.76 5551.09 5755.98 4501.1 5581.47 4384.91 6550.61 4987.01 4277.54 4713.56 6094.34 6779.82 4739.5 6210.48 6377.45 4182.05 3255.93 6853.07 6327.61 5575.8 5268.93 5306.31 4223.53 4733.37 4535.94 3037.72 4523.9 5126.08 5604.0 3760.4 4951.02 4602.7 3783.35 4037.16 6395.63 5479.17 5020.37 4542.25 4414.23 5233.88 5245.4 6189.81 5438.6 7370.52 4726.5 5467.05 3724.23 5888.94 4122.2 4727.98 5175.88 4516.26 3509.34 3647.26 3731.58 3166.37 5369.42 5207.08 5205.53 4587.19 5543.05 6028.89 5333.16 4888.17 5392.85 5077.2 4274.05 5275.27 5529.09 4531.46 5925.82 5448.68 4072.95 4491.62 3865.5 
SCALARS Velocity float 1
LOOKUP_TABLE default
1.19191 1.19207 1.19198 1.19203 1.19178 1.19216 1.19207 1.19204 1.19177 1.19201 1.19178 1.19184 1.19178 1.19178 1.19189 1.19178 1.19178 1.19181 1.19178 1.19178 1.19177 1.19196 1.1919 1.19177 1.19178 1.19177 1.19178 1.19177 1.19178 1.19178 1.19178 1.19187 1.19189 1.19199 1.19199 1.19197 1.19191 1.19185 1.19187 1.19184 1.19178 1.19195 1.19178 1.19177 1.19213 1.19199 1.19184 1.19178 1.19192 1.192 1.19197 1.19179 1.19178 1.19182 1.1921 1.19179 1.19223 1.19194 1.19178 1.1918 1.1919 1.19215 1.19183 1.19218 1.19215 1.19221 1.19204 1.19187 1.1919 1.19213 1.1922 1.19208 1.19198 1.19178 1.19201 1.1918 1.19211 1.19178 1.19187 1.19179 1.19188 1.19218 1.19239 1.19195 1.192 1.19201 1.19178 1.19186 1.19185 1.19253 1.19222 1.19193 1.19205 1.1922 1.19203 1.19206 1.19212 1.19208 1.19178 1.19185 1.19177 1.19178 1.19191 1.19178 1.19178 1.19181 1.19178 1.19203 1.19178 1.19198 1.19178 1.19178 1.19178 1.19183 1.19178 1.19178 1.1918 1.1918 1.19181 1.19191 1.19196 1.19201 1.192 1.19197 1.19192 1.19187 1.19177 1.19181 1.19192 1.19186 1.19196 1.19193 1.19174 1.19201 1.19212 1.19185 1.19184 1.19212 1.19188 1.19194 1.19189 1.19176 1.19178 1.19211 1.1924 1.19238 1.19177 1.19178 1.19181 1.19186 1.19183 1.19208 1.19202 1.19202 1.19178 1.19228 1.19196 1.19175 1.19178 1.19178 1.19178 1.19195 1.19184 1.19168 1.19223 1.19175 1.19184 1.19213 1.19235 1.19219 1.19215 1.19208 1.19187 1.19181 1.19218 1.19177 1.19207 1.192 1.19171 1.19201 1.19191 1.19219 1.19175 1.1919 1.19175 1.19194 1.19228 1.19195 1.1919 1.19198 1.19192 1.19194 1.19185 1.19225 1.19234 1.19209 1.19219 1.19236 1.1922 1.19231 1.19204 1.19182 1.19208 1.19183 1.19226 1.19178 1.19192 1.19177 1.19178 1.19182 1.19178 1.19204 1.19197 1.19185 1.19196 1.19178 1.19186 1.19186 1.1918 1.19189 1.19196 1.19207 1.192 1.19193 1.19188 1.1918 1.1919 1.19178 1.19197 1.19195 1.19178 1.19202 1.19211 1.19185 1.19178 1.19178 1.19207 1.19188 1.19194 1.19189 1.19187 1.19217 1.19257 1.19189 1.19177 1.19178 1.19185 1.19204 1.19194 1.19213 1.19202 1.19233 1.19196 1.1921 1.19195 1.19246 1.19183 1.19224 1.19184 1.192 1.19183 1.19242 1.19221 1.19212 1.1921 1.19183 1.19179 1.19216 1.19205 1.1918 1.19213 1.19222 1.19258 1.19185 1.19172 1.19206 1.19173 1.19175 1.19185 1.19239 1.19193 1.1923 1.19191 1.19198 1.19192 1.19192 1.19195 1.19178 1.19178 1.19225 1.19218 1.19212 1.19239 1.19228 1.19202 1.19183 1.19202 1.19191 1.19178 1.19178 1.19222 1.1919 1.19191 1.19197 1.19177 1.19182 1.19169 1.19203 1.19178 1.19196 1.19198 1.19189 1.19176 1.19178 1.19179 1.19174 1.19178 1.19182 1.19189 1.19182 1.19225 1.19194 1.19202 1.19206 1.19192 1.19186 1.19207 1.19184 1.19195 1.19193 1.19144 1.19207 1.19205 1.19209 1.19188 1.19176 1.19172 1.19211 1.19203 1.1921 1.1923 1.19265 1.19185 1.19181 1.19193 1.19195 1.19201 1.19178 1.19178 1.192 1.19247 1.19178 1.19273 1.19205 1.19237 1.19189 1.19224 1.19184 1.19199 1.19194 1.19241 1.19206 1.19207 1.19207 1.19211 1.19221 1.19226 1.192 1.19247 1.19227 1.19201 1.192 1.19189 1.19216 1.1926 1.19191 1.19194 1.19261 1.19183 1.19234 1.19247 1.1919 1.19229 1.19166 1.1919 1.19201 1.19243 1.19217 1.19201 1.19209 1.19238 1.1924 1.19232 1.19224 1.19195 1.19236 1.19195 1.19175 1.19225 1.19188 1.19196 1.19204 1.19177 1.19188 1.19176 1.19202 1.19177 1.19197 1.19196 1.19201 1.19192 1.19178 1.1924 1.19185 1.19183 1.19179 1.19182 1.19181 1.19205 1.19201 1.19183 1.19199 1.19184 1.19198 1.19204 1.192 1.19182 1.19203 1.19205 1.1919 1.19195 1.19177 1.19167 1.19188 1.19141 1.19236 1.19187 1.19152 1.19225 1.19195 1.19195 1.19203 1.1921 1.19205 1.19184 1.19181 1.19192 1.19198 1.19178 1.19177 1.19173 1.19231 1.19253 1.1924 1.19196 1.19197 1.19171 1.19226 1.19181 1.19239 1.19187 1.19206 1.19236 1.19211 1.19149 1.19208 1.19226 1.19226 1.19174 1.19262 1.19231 1.19216 1.19241 1.19193 1.1922 1.19159 1.19204 1.19208 1.19198 1.19206 1.19239 1.19197 1.19202 1.192 1.19194 1.19244 1.19198 1.19202 1.19231 1.19232 1.19219 1.1919 1.19235 1.19194 1.19142 1.19184 1.19178 1.19238 1.19209 1.1922 1.19184 1.19192 1.1921 1.19201 1.19188 1.19196 1.192 1.1919 1.19166 1.19239 1.19188 1.19191 1.19185 1.19203 1.19178 1.19186 1.19178 1.1919 1.19199 1.19188 1.19208 1.1918 1.19176 1.1918 1.19181 1.19182 1.19193 1.19203 1.19193 1.19208 1.19205 1.19208 1.19258 1.19262 1.19182 1.19191 1.1919 1.19198 1.19172 1.19173 1.19152 1.19229 1.19249 1.19203 1.19265 1.19179 1.19154 1.19205 1.19222 1.19225 1.19209 1.19215 1.19185 1.19199 1.19243 1.19245 1.19234 1.19224 1.19149 1.19211 1.19179 1.19201 1.19241 1.19264 1.19267 1.19263 1.19229 1.19184 1.19234 1.19191 1.19225 1.19166 1.19209 1.19178 1.192 1.19192 1.19169 1.19236 1.19202 1.19193 1.1924 1.19178 1.19194 1.19225 1.19231 1.19214 1.19191 1.19235 1.19187 1.19128 1.19131 1.19187 1.19186 1.19162 1.19207 1.19181 1.19192 1.19211 1.19203 1.19196 1.19167 1.19185 1.19184 1.1919 1.19215 1.19206 1.19183 1.19173 1.19184 1.19186 1.19174 1.1919 1.192 1.19199 1.19203 1.19193 1.19192 1.1921 1.19189 1.19202 1.19168 1.19158 1.19183 1.19181 1.19192 1.19186 1.19226 1.19182 1.19236 1.1927 1.19241 1.19258 1.19257 1.19253 1.19191 1.19195 1.19189 1.19167 1.1917 1.19153 1.19178 1.19194 1.19402 1.19166 1.19176 1.19173 1.19225 1.19224 1.19213 1.19183 1.19215 1.19216 1.19233 1.19171 1.19213 1.19189 1.19236 1.19313 1.19262 1.19255 1.19198 1.1917 1.19224 1.19183 1.1922 1.19164 1.19206 1.19164 1.19195 1.19177 1.19177 1.19207 1.19176 1.19203 1.19146 1.19148 1.19191 1.19178 1.192 1.19172 1.192 1.19213 1.19136 1.19209 1.19224 1.19208 1.19229 1.19183 1.19176 1.19163 1.19195 1.19177 1.19156 1.19203 1.19207 1.19192 1.19188 1.1918 1.19214 1.1919 1.19195 1.19184 1.19171 1.19198 1.19178 1.19195 1.19176 1.19188 1.19194 1.19191 1.192 1.19194 1.19189 1.19209 1.19189 1.19214 1.19164 1.19249 1.1918 1.19182 1.19183 1.19163 1.19169 1.19193 1.19246 1.19186 1.192 1.19238 1.19255 1.19248 1.19191 1.19283 1.19242 1.19266 1.19343 1.19141 1.19273 1.19178 1.1916 1.19195 1.19241 1.19235 1.19207 1.19166 1.1924 1.19223 1.19169 1.19181 1.19213 1.19195 1.19182 1.19255 1.19259 1.19201 1.19204 1.19224 1.192 1.19218 1.19273 1.19222 1.19198 1.19167 1.19225 1.19202 1.19174 1.1922 1.19197 1.19228 1.19177 1.19234 1.1918 1.19188 1.19192 1.19178 1.19178 1.19197 1.19206 1.19207 1.19174 1.19195 1.19193 1.19178 1.19184 1.19177 1.19171 1.19201 1.19174 1.1914 1.19226 1.1924 1.19189 1.19207 1.19189 1.19189 1.19168 1.19168 1.19205 1.19191 1.19192 1.19183 1.19197 1.19151 1.19191 1.19149 1.19175 1.19185 1.19189 1.19201 1.1919 1.19187 1.19207 1.19194 1.19208 1.1924 1.19194 1.19195 1.19171 1.19184 1.19179 1.19208 1.19174 1.19169 1.19198 1.19243 1.19188 1.1921 1.1924 1.19237 1.1919 1.19271 1.19271 1.19284 1.19166 1.19307 1.19248 1.19165 1.19238 1.19122 1.19218 1.19224 1.19199 1.19109 1.19178 1.19238 1.19175 1.19235 1.19235 1.19188 1.19209 1.19182 1.19207 1.19191 1.19178 1.19243 1.192 1.19228 1.19215 1.1921 1.19199 1.19214 1.19271 1.19247 1.19217 1.19178 1.19222 1.192 1.19199 1.19186 1.19215 1.192 1.19191 1.19131 1.19145 1.19175 1.19231 1.19234 1.19235 1.19199 1.19173 1.19132 1.19165 1.19187 1.19158 1.19171 1.192 1.19144 1.19138 1.1916 1.19225 1.1918 1.19158 1.19182 1.19194 1.19193 1.19162 1.19216 1.19196 1.19139 1.19178 1.19207 1.19183 1.19186 1.19164 1.19168 1.19202 1.19189 1.19183 1.19202 1.19183 1.19167 1.19172 1.19144 1.19178 1.19183 1.19181 1.19186 1.19178 1.19177 1.19193 1.19178 1.19179 1.1919 1.19189 1.19213 1.19238 1.19178 1.19175 1.19285 1.19102 1.19239 1.19241 1.19195 1.19178 1.19178 1.19226 1.19231 1.19304 1.19194 1.19244 1.19269 1.19268 1.19288 1.19255 1.19189 1.19263 1.19148 1.19135 1.19127 1.1921 1.19222 1.19194 1.19109 1.19053 1.1923 1.19233 1.19208 1.19192 1.19214 1.19188 1.19236 1.19196 1.19202 1.19212 1.19208 1.19202 1.1921 1.19219 1.19139 1.19191 1.19225 1.19194 1.19198 1.19232 1.19195 1.19147 1.19137 1.19181 1.1923 1.19168 1.19168 1.1917 1.19251 1.19198 1.19171 1.19145 1.19164 1.19136 1.1917 1.19213 1.19254 1.19172 1.19208 1.19178 1.19179 1.19165 1.19194 1.19166 1.19192 1.19184 1.19204 1.1919 1.19147 1.192 1.19181 1.19185 1.19162 1.19199 1.19188 1.19182 1.192 1.19179 1.19166 1.19205 1.1917 1.19179 1.19181 1.192 1.19159 1.19168 1.19162 1.19178 1.19189 1.19192 1.19177 1.19182 1.19182 1.19177 1.19192 1.19219 1.19189 1.19169 1.19284 1.19087 1.1922 1.19232 1.19232 1.1921 1.19272 1.19207 1.19222 1.19319 1.19264 1.19249 1.19256 1.19267 1.19252 1.19199 1.19075 1.19264 1.19133 1.19058 1.19117 1.19206 1.19162 1.19221 1.19162 1.19171 1.19148 1.19203 1.19193 1.19254 1.19167 1.1918 1.19111 1.19041 1.19199 1.19136 1.19259 1.19187 1.19201 1.19179 1.19181 1.19197 1.19203 1.1915 1.19159 1.19178 1.19234 1.19138 1.19191 1.19135 1.19177 1.19223 1.18989 1.19233 1.19274 1.19214 1.19144 1.19159 1.19168 1.19174 1.19132 1.19179 1.19219 1.19259 1.19174 1.19175 1.19174 1.19169 1.19153 1.19175 1.19163 1.19195 1.19192 1.19217 1.19174 1.19171 1.19185 1.19213 1.19174 1.19158 1.1916 1.19196 1.19187 1.19181 1.19202 1.19172 1.19172 1.19178 1.19218 1.1922 1.1918 1.19177 1.19199 1.1916 1.19182 1.1918 1.19191 1.19161 1.19167 1.19181 1.19195 1.19216 1.19178 1.19169 1.19336 1.19173 1.19217 1.19259 1.19219 1.19178 1.19298 1.19236 1.19318 1.19266 1.19281 1.19246 1.19247 1.19175 1.1921 1.19265 1.19057 1.19177 1.19162 1.19193 1.19178 1.19187 1.19187 1.19242 1.19114 1.19178 1.19195 1.19184 1.19193 1.19134 1.1917 1.19165 1.19171 1.1919 1.19204 1.19168 1.19208 1.19183 1.19094 1.19175 1.19178 1.19172 1.19135 1.19129 1.19151 1.19188 1.19069 1.19091 1.19221 1.1921 1.19276 1.19195 1.19217 1.19153 1.19196 1.19214 1.19185 1.1913 1.19213 1.19195 1.19161 1.19169 1.19171 1.19164 1.19203 1.19161 1.19184 1.19233 1.19229 1.1918 1.19148 1.19181 1.19166 1.19202 1.19166 1.19156 1.19152 1.19192 1.19178 1.19182 1.19174 1.1915 1.19183 1.19216 1.19214 1.19194 1.1919 1.19184 1.1917 1.19158 1.19173 1.19165 1.19196 1.19134 1.19244 1.19266 1.19141 1.19343 1.19246 1.19288 1.19237 1.19178 1.19178 1.19305 1.19316 1.19226 1.19333 1.19196 1.19234 1.19279 1.19237 1.19191 1.19147 1.19212 1.19208 1.19228 1.19181 1.19165 1.19207 1.19291 1.19189 1.19174 1.19179 1.19144 1.19168 1.19178 1.19164 1.19133 1.19174 1.19197 1.19194 1.19153 1.19166 1.19161 1.19203 1.19206 1.19091 1.19186 1.19158 1.1911 1.19181 1.19163 1.19133 1.1913 1.19157 1.19193 1.19066 1.1909 1.19217 1.19206 1.19274 1.19191 1.19213 1.19151 1.19182 1.19178 1.19178 1.19169 1.19088 1.19142 1.19165 1.19174 1.19168 1.19202 1.19165 1.19185 1.19138 1.19149 1.19165 1.19203 1.19139 1.19163 1.19166 1.19179 1.19195 1.19166 1.1915 1.19193 1.1918 1.19146 1.19163 1.19193 1.19225 1.19206 1.1919 1.19209 1.19196 1.19179 1.19173 1.19173 1.19163 1.19155 1.19198 1.19082 1.19153 1.19207 1.19284 1.19185 1.19099 1.19229 1.19227 1.19304 1.19258 1.19209 1.1921 1.1926 1.19278 1.19302 1.19217 1.19196 1.19296 1.19191 1.19229 1.19274 1.19419 1.193 1.19069 1.19083 1.19172 1.19179 1.1924 1.19175 1.19218 1.19314 1.1914 1.19128 1.19165 1.19154 1.19187 1.19157 1.19159 1.19189 1.19164 1.19161 1.19172 1.19207 1.19134 1.19141 1.19129 1.19175 1.1917 1.19163 1.19125 1.19212 1.1919 1.19066 1.19075 1.19194 1.19174 1.1924 1.1914 1.19203 1.19151 1.19184 1.19183 1.19183 1.19178 1.19175 1.19082 1.19124 1.19168 1.19148 1.19178 1.19172 1.19205 1.19179 1.19174 1.1916 1.19168 1.19192 1.19138 1.19164 1.19162 1.19172 1.19174 1.19191 1.19178 1.1916 1.19145 1.19123 1.19154 1.1913 1.19195 1.19181 1.19144 1.19185 1.19205 1.192 1.19226 1.19164 1.19157 1.19155 1.1916 1.1922 1.19023 1.19278 1.19324 1.19254 1.19082 1.19199 1.19175 1.19314 1.19249 1.19219 1.19296 1.19261 1.19286 1.19187 1.19173 1.19263 1.19193 1.1923 1.19155 1.19337 1.19415 1.19295 1.1913 1.19067 1.19225 1.19175 1.19195 1.19226 1.19048 1.19125 1.19149 1.19165 1.19306 1.19182 1.19181 1.19133 1.19125 1.19156 1.19165 1.1918 1.19166 1.19169 1.19164 1.19139 1.19154 1.19135 1.1915 1.19157 1.19165 1.19156 1.19132 1.19163 1.19166 1.19196 1.19127 1.19157 1.19186 1.19176 1.1924 1.19194 1.19151 1.19185 1.19208 1.19184 1.1909 1.19101 1.19135 1.19173 1.19201 1.19172 1.19165 1.19183 1.1915 1.19181 1.19183 1.19171 1.19168 1.19183 1.19173 1.19159 1.19177 1.19155 1.19162 1.19181 1.19188 1.19176 1.19146 1.19175 1.19178 1.19183 1.19156 1.19156 1.19189 1.19194 1.19208 1.19184 1.192 1.19243 1.19153 1.19091 1.19297 1.19242 1.19235 1.19139 1.19176 1.19314 1.19249 1.19185 1.19148 1.19166 1.193 1.19286 1.19237 1.19295 1.1929 1.19271 1.19149 1.19161 1.19256 1.19238 1.1916 1.1934 1.19335 1.1913 1.19298 1.19274 1.19217 1.19197 1.19178 1.19044 1.19143 1.19181 1.19156 1.19209 1.19126 1.19124 1.19168 1.19141 1.19155 1.19161 1.19166 1.19151 1.19124 1.19142 1.1913 1.19207 1.19153 1.19172 1.19166 1.19153 1.19131 1.19128 1.19164 1.19168 1.19161 1.19207 1.19136 1.19178 1.19149 1.19197 1.19229 1.19138 1.19187 1.1915 1.19181 1.19182 1.19186 1.1917 1.19186 1.19086 1.19127 1.19123 1.19173 1.19178 1.19165 1.19175 1.19149 1.19185 1.19182 1.19175 1.19167 1.19182 1.1916 1.19178 1.19184 1.19131 1.19193 1.19179 1.19144 1.19197 1.19154 1.1917 1.19141 1.19148 1.19205 1.19249 1.19208 1.19199 1.19237 1.1915 1.19179 1.19291 1.19178 1.19184 1.19284 1.19277 1.19207 1.19184 1.19223 1.19335 1.19234 1.19297 1.19305 1.19188 1.19204 1.1913 1.19293 1.19248 1.19195 1.19308 1.19306 1.19194 1.19288 1.19278 1.19181 1.19198 1.19136 1.19149 1.19161 1.19201 1.19185 1.19132 1.19024 1.19151 1.19163 1.19178 1.19167 1.19167 1.19163 1.19122 1.19133 1.19128 1.19208 1.1915 1.19144 1.19189 1.19186 1.19154 1.19116 1.19129 1.19125 1.19201 1.19128 1.19178 1.19147 1.19193 1.19225 1.19137 1.19097 1.19169 1.19148 1.19175 1.19179 1.1917 1.19184 1.19154 1.19103 1.19115 1.19115 1.19106 1.19111 1.19169 1.19166 1.19176 1.19148 1.19182 1.19182 1.19182 1.19168 1.19181 1.19151 1.19137 1.1913 1.19178 1.19178 1.19143 1.19162 1.19174 1.19139 1.19148 1.19246 1.19196 1.19178 1.1915 1.19218 1.19213 1.19244 1.19108 1.1924 1.19393 1.19157 1.19178 1.19267 1.19275 1.19174 1.192 1.19383 1.19127 1.19329 1.19231 1.19232 1.19281 1.19236 1.19241 1.1932 1.19238 1.19189 1.19304 1.19305 1.19188 1.19198 1.19182 1.19216 1.19329 1.19189 1.19178 1.19143 1.19291 1.19154 1.19224 1.19121 1.19097 1.19152 1.19096 1.19163 1.19178 1.19178 1.19175 1.19189 1.19147 1.19127 1.19122 1.1916 1.1914 1.19205 1.19152 1.19151 1.19124 1.19154 1.19088 1.19126 1.19196 1.19128 1.19149 1.19131 1.19192 1.19224 1.19164 1.19152 1.19178 1.19173 1.19177 1.1918 1.19156 1.19107 1.19136 1.19116 1.1912 1.19108 1.1917 1.19148 1.19159 1.19182 1.19147 1.19184 1.19161 1.19179 1.19164 1.19161 1.19169 1.19141 1.1914 1.19147 1.19146 1.19153 1.19178 1.19183 1.19178 1.19157 1.19172 1.19135 1.19163 1.1929 1.19205 1.19197 1.19125 1.19146 1.19212 1.19213 1.19214 1.19205 1.19138 1.19305 1.19413 1.19259 1.19272 1.19211 1.19176 1.1937 1.19109 1.19231 1.19301 1.19224 1.19213 1.19288 1.1921 1.19242 1.19306 1.19186 1.19223 1.19185 1.19313 1.19304 1.19183 1.19181 1.19203 1.19203 1.19308 1.19186 1.19077 1.19177 1.19283 1.19167 1.19211 1.19093 1.1915 1.19093 1.19178 1.1924 1.19158 1.19185 1.19191 1.19158 1.19114 1.19184 1.19135 1.19178 1.19149 1.19155 1.19123 1.1916 1.19144 1.19097 1.19096 1.19178 1.19164 1.19156 1.19147 1.19126 1.19173 1.19135 1.19151 1.19145 1.19145 1.19164 1.19178 1.19182 1.19176 1.19181 1.19136 1.1919 1.19186 1.19088 1.19091 1.1912 1.19178 1.19105 1.19146 1.19173 1.19185 1.19164 1.19178 1.1918 1.19175 1.19164 1.1917 1.19161 1.1914 1.19162 1.19165 1.19162 1.19178 1.19145 1.19179 1.19177 1.19179 1.19134 1.19156 1.19152 1.19171 1.19288 1.19181 1.19121 1.19236 1.1915 1.19207 1.19204 1.19177 1.19182 1.19374 1.19312 1.19177 1.19291 1.1923 1.1919 1.19366 1.19255 1.1919 1.19181 1.19192 1.19257 1.19222 1.19234 1.19282 1.19197 1.19216 1.1925 1.19209 1.19101 1.19281 1.19178 1.19198 1.19243 1.19245 1.19125 1.19157 1.19097 1.19216 1.19148 1.19158 1.19215 1.19105 1.19162 1.19105 1.19178 1.19162 1.19176 1.19184 1.19186 1.19155 1.19161 1.19118 1.19123 1.19215 1.19132 1.1912 1.19153 1.19163 1.19142 1.19129 1.19096 1.19115 1.19167 1.19157 1.19142 1.19169 1.19178 1.19135 1.19143 1.19169 1.19169 1.19185 1.19172 1.19169 1.19183 1.19173 1.19098 1.19142 1.19161 1.19105 1.19163 1.19173 1.19162 1.19178 1.19179 1.19175 1.19165 1.19165 1.19178 1.19177 1.19185 1.19182 1.19145 1.19219 1.19229 1.19172 1.19178 1.19141 1.19186 1.19181 1.19173 1.19192 1.19153 1.19158 1.19172 1.19118 1.19213 1.19188 1.19199 1.19182 1.19215 1.19279 1.19319 1.193 1.19391 1.19291 1.19182 1.19151 1.19326 1.19255 1.19259 1.19203 1.19185 1.19187 1.19216 1.19247 1.19198 1.19087 1.19282 1.19178 1.19179 1.19096 1.19141 1.19142 1.19126 1.19143 1.19086 1.19198 1.19204 1.19151 1.19212 1.19123 1.19141 1.19165 1.19111 1.19165 1.19184 1.19156 1.19149 1.19146 1.19113 1.19125 1.19178 1.19146 1.19133 1.19178 1.19211 1.19161 1.19178 1.19177 1.19122 1.1922 1.19156 1.19142 1.19123 1.19155 1.19116 1.19133 1.19142 1.19169 1.19179 1.19178 1.19172 1.19169 1.19177 1.19173 1.19174 1.19168 1.19159 1.19102 1.19161 1.19174 1.19163 1.19179 1.19174 1.19164 1.19164 1.19174 1.19181 1.19158 1.19182 1.19186 1.1922 1.19168 1.19176 1.19156 1.19203 1.19172 1.19194 1.19182 1.19122 1.19186 1.1913 1.1915 1.191 1.1921 1.19214 1.19223 1.19188 1.19125 1.1921 1.19258 1.19322 1.19277 1.19312 1.19297 1.19178 1.19159 1.19018 1.19177 1.19178 1.19293 1.19456 1.19189 1.19267 1.19195 1.19261 1.19192 1.19097 1.19292 1.19338 1.19104 1.19089 1.19135 1.19142 1.19167 1.19197 1.19212 1.19131 1.19199 1.19113 1.19129 1.1917 1.19177 1.19161 1.19182 1.19086 1.1915 1.19148 1.19105 1.19157 1.19163 1.19156 1.19126 1.19153 1.19217 1.19175 1.19181 1.1919 1.19153 1.19165 1.19155 1.19145 1.19192 1.19179 1.19175 1.19123 1.19135 1.19139 1.19169 1.1918 1.19177 1.19178 1.19178 1.19177 1.19172 1.19174 1.19168 1.19178 1.19105 1.19164 1.19177 1.19178 1.19178 1.19175 1.19178 1.19162 1.19173 1.19171 1.19153 1.19178 1.19185 1.19184 1.19178 1.19133 1.19178 1.19192 1.1918 1.19168 1.19196 1.19118 1.19185 1.1913 1.19096 1.19119 1.19104 1.19203 1.19164 1.19188 1.19124 1.19205 1.19238 1.19295 1.19181 1.19296 1.19263 1.19188 1.19182 1.19046 1.19171 1.19433 1.19038 1.19171 1.19165 1.19276 1.19173 1.19013 1.19122 1.19111 1.19286 1.19254 1.19298 1.19105 1.19127 1.19178 1.19078 1.19186 1.19113 1.19148 1.19219 1.19204 1.19127 1.19124 1.19184 1.19173 1.19184 1.19149 1.19178 1.19186 1.19178 1.19151 1.19182 1.19157 1.19162 1.19156 1.19122 1.19148 1.19152 1.19175 1.19167 1.19177 1.19151 1.19179 1.19154 1.19147 1.19166 1.19152 1.19138 1.19158 1.19137 1.19169 1.19169 1.19175 1.19178 1.19178 1.19177 1.19173 1.19174 1.19178 1.19178 1.19178 1.19165 1.19177 1.19178 1.19178 1.19177 1.19178 1.19163 1.19172 1.19171 1.19179 1.19177 1.19173 1.19165 1.19173 1.19133 1.1917 1.19193 1.19136 1.1913 1.19161 1.19118 1.1909 1.19154 1.19107 1.19093 1.19135 1.19043 1.19137 1.192 1.19113 1.19184 1.19158 1.19224 1.19172 1.19322 1.19247 1.19319 1.19209 1.19074 1.19157 1.19317 1.18999 1.19206 1.1912 1.19307 1.19236 1.19146 1.19061 1.1903 1.19217 1.19224 1.19101 1.19155 1.19124 1.19044 1.19171 1.19166 1.19133 1.19166 1.19129 1.19135 1.19182 1.19183 1.19177 1.19191 1.19151 1.19179 1.1916 1.19182 1.19158 1.19119 1.19147 1.19153 1.19168 1.19178 1.19177 1.19185 1.19155 1.1917 1.19152 1.1911 1.19148 1.19157 1.19137 1.19169 1.19178 1.19175 1.19178 1.19178 1.19177 1.19173 1.19174 1.19178 1.19178 1.19178 1.19165 1.19178 1.19178 1.19178 1.19178 1.19177 1.19163 1.19172 1.19171 1.19175 1.19175 1.19178 1.1918 1.19141 1.19173 1.19159 1.19183 1.19139 1.19136 1.19179 1.19075 1.19154 1.19115 1.19102 1.18987 1.19132 1.19071 1.19128 1.19091 1.19153 1.19211 1.19197 1.19375 1.19257 1.19106 1.19197 1.19078 1.19174 1.19328 1.18979 1.19158 1.19195 1.19086 1.19094 1.19023 1.19136 1.18972 1.18948 1.1899 1.1925 1.18999 1.19105 1.1915 1.19183 1.19177 1.19167 1.19124 1.19123 1.19128 1.19144 1.19145 1.19137 1.19118 1.19149 1.19178 1.19183 1.19156 1.19183 1.19154 1.19155 1.19149 1.19174 1.19187 1.19141 1.19138 1.1916 1.19168 1.19168 1.19155 1.19172 1.19156 1.19174 1.19107 1.19154 1.19165 1.19131 1.19084 1.1912 1.19059 1.1914 1.1918 1.19211 1.19379 1.19219 1.19248 1.19165 1.19227 1.19261 1.19289 1.19223 1.19052 1.19187 1.19077 1.19157 1.19055 1.1912 1.19107 1.19133 1.19152 1.19177 1.19169 1.1915 1.1911 1.19115 1.19213 1.19052 1.19208 1.19157 1.19217 1.19121 1.19224 1.19257 1.193 1.19198 1.19248 1.19256 1.19359 1.19133 1.19069 1.19134 1.19119 1.18961 1.18988 1.19119 1.19101 1.19214 1.19103 1.19254 1.19184 1.19257 1.19095 1.19195 1.19262 1.19236 1.19247 1.19316 1.19209 1.1934 1.19165 1.19122 1.19063 1.19178 1.19 1.19136 1.19083 1.192 1.19142 1.1928 1.19153 1.19082 1.19251 1.19172 1.19249 1.19226 1.19222 1.19293 1.19258 1.19043 1.19156 1.19178 1.19124 1.19065 1.19035 1.18991 1.18971 1.19136 1.19178 1.19178 1.19148 1.19037 1.19218 1.191 1.19223 1.19159 1.19257 1.19243 1.192 1.19323 1.19041 1.19152 1.19121 1.19064 1.18992 1.18948 1.19071 1.19325 1.19178 1.19178 1.19178 1.19196 1.19139 1.19116 1.19239 1.19048 1.19203 1.19131 1.1925 1.1928 1.19138 1.19384 1.19177 1.19297 1.19153 1.19254 1.19069 1.18903 1.1929 1.1923 1.19242 1.19178 1.19178 1.19178 1.19178 1.19178 1.19178 1.19178 1.19178 1.19178 1.19178 1.19178 1.19178 1.19178 1.19178 1.19178 1.19178 1.19178 1.19178 1.19178 1.19178 1.19178 1.19178 1.19178 1.19178 1.19178 1.19178 1.19179 1.19164 1.19146 1.1915 1.19303 1.19061 1.19107 1.19104 1.19248 1.19473 1.19056 1.19385 1.19176 1.19185 1.19087 1.19145 1.19198 1.19318 1.19227 1.19233 1.19223 1.19178 1.19178 1.19178 1.19178 1.19178 1.19178 1.19178 1.19178 1.19178 1.19178 1.19178 1.19178 1.19178 1.19178 1.19178 1.19178 1.19178 1.19178 1.19178 1.19178 1.19178 1.19178 1.19178 1.19178 1.19178 1.19178 1.19178 1.19178 1.19179 1.19179 1.191 1.19111 1.1916 1.19441 1.19144 1.19275 1.19081 1.19114 1.19577 1.19311 1.19134 1.19117 1.19423 1.1903 1.19073 1.1917 1.19257 1.19388 1.19096 1.19251 1.19224 1.19096 1.19178 1.19178 1.19178 1.19178 1.19178 1.19178 1.19178 1.19178 1.19178 1.19178 1.19178 1.19178 1.19178 1.19178 1.19178 1.19178 1.19178 1.19178 1.19178 1.19178 1.19178 1.19178 1.19178 1.19178 1.19178 1.19178 1.19178 1.19178 1.19178 1.19178 1.19178 1.19178 1.19178 1.19178 1.1919 1.19188 1.19243 1.19052 1.19473 1.19089 1.19088 1.19074 1.19245 1.19082 1.1918 1.19009 1.19288 1.19212 1.19008 1.19331 1.19014 1.19086 1.19107 1.19168 1.19362 1.19253 1.19191 1.1947 1.19261 1.19166 1.19275 1.19176 1.1918 1.19178 1.19178 1.19178 1.19178 1.19178 1.19178 1.19178 1.19178 1.19178 1.19178 1.19178 1.19178 1.19178 1.19178 1.19178 1.19178 1.19178 1.19178 1.19178 1.19178 1.19178 1.19178 1.19178 1.19178 1.19178 1.19178 1.19178 1.19178 1.19178 1.19178 1.19178 1.19178 1.19178 1.19178 1.19178 1.19178 1.19178 1.19178 1.19178 1.19178 1.19178 1.19178 1.19178 1.19178 1.19178 1.19178 1.19178 1.19181 1.19174 1.19353 1.1907 1.19094 1.19085 1.19244 1.19074 1.19199 1.19043 1.19309 1.19222 1.19025 1.18825 1.18985 1.18928 1.19101 1.19326 1.19421 1.19258 1.19274 1.19204 1.19097 1.19324 1.19177 1.19171 1.19197 1.19178 1.19178 1.19178 1.19178 1.19178 1.19178 1.19178 1.19178 1.19178 1.19178 1.19178 1.19178 1.19178 1.19178 1.19178 1.19178 1.19178 1.19178 1.19178 1.19178 1.19178 1.19178 1.19178 1.19178 1.19178 1.19178 1.19178 1.19178 1.19178 1.19178 1.19178 1.19178 1.19178 1.19178 1.19178 1.19178 1.19178 1.19178 1.19178 1.19168 1.19178 1.19165 1.19103 1.19082 1.19038 1.18971 1.19164 1.19198 1.19164 1.19046 1.19246 1.19219 1.19088 1.18877 1.19178 1.18974 1.1924 1.19344 1.1923 1.1939 1.19352 1.19016 1.19173 1.19179 1.19178 1.19178 1.19178 1.19178 1.19178 1.19178 1.19178 1.19178 1.19178 1.19178 1.19178 1.19178 1.19178 1.19178 1.19178 1.19178 1.19178 1.19178 1.19178 1.19178 1.19178 1.19178 1.19178 1.19178 1.19178 1.19178 1.19178 1.19178 1.19178 1.19178 1.19178 1.19178 1.19178 1.19178 1.19178 1.19178 1.19178 1.19178 1.19178 1.19178 1.19178 1.19178 1.19178 1.19178 1.19178 1.19177 1.19178 1.19178 1.19178 1.19178 1.19178 1.19178 1.19162 1.19178 1.19209 1.18919 1.19764 1.1919 1.19277 1.19079 1.19101 1.19315 1.19269 1.19312 1.19155 1.19302 1.19535 1.18941 1.19284 1.19303 1.19123 1.19319 1.19204 1.19186 1.19079 1.19113 1.19135 1.19223 1.19178 1.19178 1.19177 1.19178 1.19178 1.19178 1.19178 1.19178 1.19178 1.19178 1.19178 1.19178 1.19178 1.19178 1.19178 1.19178 1.19178 1.19178 1.19178 1.19178 1.19178 1.19178 1.19178 1.19178 1.19178 1.19178 1.19178 1.19178 1.19178 1.19178 1.19178 1.19178 1.19178 1.19178 1.19178 1.19178 1.19178 1.19178 1.19178 1.19178 1.19178 1.19178 1.19252 1.19588 1.1867 1.19178 1.19476 1.19284 1.19255 1.19281 1.19306 1.19517 1.19256 1.19448 1.19332 1.19597 1.19128 1.19082 1.19587 1.19178 1.19203 1.19048 1.18988 1.1929 1.19149 1.19178 1.19178 1.19178 1.19178 1.19178 1.19178 1.19178 1.19178 1.19178 1.19178 1.19178 1.19178 1.19178 1.19178 1.19178 1.19178 1.19178 1.19178 1.19178 1.19178 1.19178 1.19178 1.19178 1.19178 1.19178 1.19178 1.19178 1.19178 1.19178 1.19178 1.19178 1.19178 1.19178 1.19178 1.19178 1.19178 1.19178 1.19178 1.19178 1.19178 1.19178 1.19223 1.19527 1.19416 1.20362 1.18717 1.19274 1.19122 1.19598 1.19443 1.19248 1.19228 1.19346 1.19555 1.19117 1.19685 1.19178 1.1961 1.20026 1.19223 1.19178 1.19178 1.19178 1.19178 1.19178 1.19178 1.19178 1.19178 1.19178 1.19178 1.19178 1.19178 1.19178 1.19178 1.19178 1.19178 1.19178 1.19178 1.19178 1.19178 1.19178 1.19178 1.19178 1.19178 1.19178 1.19178 1.19178 1.19178 1.19178 1.19178 1.19178 1.19178 1.19178 1.19178 1.19178 1.19178 1.19178 1.19178 1.19178 1.19178 1.19178 1.19178 1.19178 1.1997 1.19986 1.20248 1.19121 1.18855 1.1946 1.19174 1.19277 1.19533 1.19355 1.19258 1.19089 1.19253 1.20356 1.19335 1.20668 1.19201 1.19178 1.19178 1.19178 1.19178 1.19178 1.19178 1.19178 1.19178 1.19178 1.19178 1.19178 1.19178 1.19178 1.19178 1.16366 1.19178 1.19178 1.19178 1.19178 1.19178 1.19178 1.19178 1.19178 1.19178 1.19178 1.19178 1.19178 1.19372 1.29681 1.19178 1.19178 1.19178 1.19178 1.19178 1.19178 1.19178 1.19178 1.19178 1.19178 1.19178 1.19178 1.19178 1.19178 1.19148 1.19174 1.19847 1.19555 1.19926 1.19094 1.19507 1.19243 1.19753 1.19413 1.19077 1.19667 1.18855 1.19147 1.19322 1.19331 1.20492 1.20293 1.19227 1.2142 1.19301 1.1982 1.19178 1.19178 1.19178 1.19178 1.19178 1.19178 1.19178 1.19178 1.19178 1.19178 1.19178 1.19178 1.19178 1.19178 1.19178 1.19178 0.0301209 0.0245978 0.0410435 0.0586143 0.031897 0.0517382 0.0209505 0.128252 1.19178 1.19178 0.0666065 0.03747 0.0459338 0.0667182 0.0394973 0.170989 1.19178 1.19178 1.19178 0.185929 0.272503 0.404073 1.13979 0.677462 1.94645 1.70583 2.48913 0.460192 0.453453 1.19178 1.19178 0.363754 3.89377 1.20655 1.78501 0.4778 0.125519 0.0469923 0.117069 0.318845 0.553392 0.722621 3.19749 0.520858 0.346112 0.354907 0.128672 0.290678 0.372193 0.75046 0.553025 0.982069 1.28621 1.36219 0.121022 0.377914 0.390178 0.32458 1.18994 1.19561 1.19714 1.19522 1.19074 1.19374 1.19396 1.19209 1.19112 1.19527 1.19061 1.1913 1.19332 1.20598 1.20867 1.192 1.21732 1.2119 1.19177 1.20161 0.146303 1.19967 0.341888 0.116261 0.0730938 0.185426 0.115227 1.19178 0.121902 0.165298 0.237383 0.472292 1.19178 1.19105 1.19178 1.19178 0.452415 0.296476 0.297182 0.363021 1.19178 0.537167 0.799531 3.70648 1.39468 1.07012 1.83598 1.26287 1.19178 1.42069 0.0654901 0.181216 0.204127 0.205247 0.173128 0.176693 1.19178 0.119799 0.0993148 1.19178 0.0953695 0.362212 1.19178 0.483736 1.19178 1.19178 1.192 0.3771 0.129925 0.0944738 0.327814 0.127558 1.20483 1.19175 1.19178 0.668929 1.19178 1.19178 0.0412166 0.0849906 0.12635 0.00654742 0.0444565 0.00666637 0.0674188 0.0657883 0.0152605 0.0114418 0.00402805 0.0711746 0.170531 0.0635404 0.137523 0.111425 0.103007 0.0747117 0.0475594 0.13297 0.104294 0.173145 0.236745 0.125804 0.19979 0.0521641 0.257361 0.155945 0.214112 0.345971 0.196335 0.323325 0.425192 0.312084 0.527819 0.544194 0.704525 0.351683 0.800254 1.15591 0.219024 0.440713 0.214407 0.102822 0.488869 0.192221 0.719077 2.22458 1.88668 0.535666 2.85406 1.84409 0.734102 0.144637 0.0461456 0.487323 0.258648 0.157222 0.578819 1.57922 0.758016 2.05836 1.39038 0.772856 0.188307 0.370014 0.234805 0.298409 0.360581 0.217351 0.37249 0.384686 0.293065 0.584698 0.0896015 0.187965 0.512908 0.306396 0.345482 0.218157 0.241746 0.150194 0.317967 1.19075 1.19215 1.19397 1.19372 1.18824 1.19333 1.18867 1.19391 1.19222 1.19019 1.19512 1.19151 1.1902 1.2027 1.20094 1.21212 1.18817 1.20884 1.2569 0.285143 1.18231 0.309589 0.231258 0.362745 0.557658 0.402717 0.271005 0.190027 0.0267071 0.191707 0.102814 0.544016 0.368008 0.377568 0.333963 0.533669 0.411507 0.37775 0.457434 0.599135 0.33439 0.564074 0.534899 1.59631 1.49637 0.194734 1.48406 0.256994 1.0771 0.22758 0.28468 0.262281 1.20541 0.187606 0.500008 0.400232 0.359042 0.229105 0.201995 0.216897 0.195382 0.310222 0.342959 0.28272 0.287028 0.080366 0.23318 0.315117 0.356162 0.456452 0.329578 0.518439 0.268622 0.15149 0.315217 0.548266 0.323672 0.270273 0.125951 0.231745 0.151067 0.0610494 0.325624 0.346548 0.112915 0.597376 0.593101 0.667891 0.459461 0.190786 0.224636 0.298898 0.111104 0.15763 0.0888896 0.0260526 0.0614552 0.0683413 0.127663 0.0711837 0.0455337 0.0581206 0.0809152 0.0509091 0.0286383 0.0496639 0.0742897 0.109682 0.0702824 0.13717 0.100048 0.0806583 0.0476763 0.0647499 0.134907 0.19194 0.160392 0.123061 0.0385904 0.186659 0.227767 0.2955 0.231703 0.351755 0.496335 0.806287 0.801547 0.404214 0.631587 0.223156 0.136688 0.188244 0.235922 0.161638 0.109766 0.783172 0.267545 0.594181 0.288017 0.151627 0.29988 0.187051 0.215211 0.260778 0.393734 0.286525 0.335261 0.119684 0.531473 0.667783 0.625833 0.502463 0.353344 0.201115 0.168017 0.1434 0.220568 0.416127 0.242052 0.372162 0.225332 0.219165 0.163541 0.312392 0.22563 0.329394 0.230617 1.19178 1.19178 1.18904 1.19344 1.19189 1.18486 1.19282 1.18711 1.19221 1.19438 1.18741 1.19569 1.19057 1.19018 1.20577 1.18457 1.30291 1.21146 1.20509 1.22862 1.2526 1.171 0.380261 0.901333 0.873732 0.321953 0.0271897 0.467115 0.287181 0.312988 0.268463 0.280209 0.198182 0.534902 0.315871 0.353093 0.297472 0.461213 0.291845 0.591117 0.519741 0.366886 0.140181 0.940228 0.239815 0.622959 0.440661 0.87142 0.713762 0.740438 0.595912 0.303202 0.257935 0.559135 0.362531 0.421728 0.258873 0.264099 0.192174 0.150143 0.16896 0.478702 0.139907 0.100796 0.372209 0.322943 0.192834 0.359987 0.290438 0.164365 0.248103 0.204497 0.229118 0.519001 0.417937 0.908209 0.306737 0.463552 0.114629 0.17313 0.14589 0.140474 0.0764989 0.118923 0.0778958 0.099401 0.104428 0.0670915 0.0714139 0.0991116 0.0936851 0.0904518 0.11491 0.0727488 0.0675188 0.130064 0.137654 0.263509 0.191029 0.0388326 0.0794997 0.0499503 0.0919825 0.127457 0.181058 0.162996 0.1794 0.223643 0.228924 0.255619 0.202501 0.234473 0.343296 0.520941 0.30783 0.0337087 0.0559522 0.105182 0.140599 0.414101 0.284865 0.359642 0.232088 0.266751 0.59543 0.296358 0.319925 0.284956 0.116303 0.203096 0.302454 0.292964 0.343418 0.434997 0.28245 0.245751 0.11899 0.225367 0.174997 0.213307 0.226778 0.368389 0.120998 0.299056 0.184047 0.212694 0.21401 0.196866 1.21037 1.16353 1.17995 1.18256 1.18824 1.18711 1.19225 1.19035 1.18845 1.19043 1.18895 1.22005 1.21446 1.19012 1.18268 1.18949 1.221 1.26161 0.331343 0.0593515 0.537789 0.606594 0.343708 0.050855 0.0544904 0.320559 0.245836 0.29132 0.342789 0.154458 0.363655 0.415219 0.599634 0.288242 0.996495 0.434012 1.23442 0.713355 0.168223 0.986076 0.663422 0.628987 0.540803 0.49879 0.732789 0.653841 0.596707 0.817437 0.355065 0.974082 0.586198 0.949313 0.192394 0.288017 0.364724 0.229111 0.152924 0.162613 0.215688 0.222951 0.162179 0.216071 0.168776 0.243822 0.24326 0.0241409 0.137913 0.246973 0.299695 0.27273 0.15923 0.180007 0.14253 0.0576929 0.378769 0.423398 0.603556 0.477965 0.063718 0.407452 0.136208 0.163565 0.11697 0.131893 0.149962 0.152817 0.151844 0.107973 0.0926977 0.0685798 0.100724 0.0723025 0.0534201 0.0830799 0.100081 0.101163 0.124805 0.194384 0.0898349 0.180843 0.201397 0.247914 0.189862 0.19552 0.245479 0.211162 0.247744 0.174029 0.178894 0.265675 0.271593 0.400917 0.304248 0.252901 0.331082 0.306532 0.0425129 0.16429 0.227301 0.275266 0.226844 0.33696 0.253263 0.286338 0.318877 0.429061 0.200598 0.38174 0.322307 0.300166 0.298467 0.323261 0.245478 0.241917 0.246893 0.265233 0.276395 0.236725 0.182342 0.209611 0.174913 0.177091 0.0845191 0.285564 0.358367 0.253311 0.191773 0.153607 1.1966 1.18543 1.18187 1.17891 1.18782 1.19133 1.18643 1.18856 1.18473 1.1876 1.18534 1.19301 1.18663 1.18595 1.18969 1.17732 1.17781 1.18957 1.17767 1.1686 1.23005 0.277885 0.339445 0.201993 0.544963 0.268118 0.362882 0.157774 0.0527862 0.18619 0.147588 0.191779 0.257758 0.588907 0.0965916 0.303464 0.590165 0.56191 0.388447 0.467972 0.504818 0.551905 0.538708 0.520525 0.552621 0.574702 0.519484 0.434224 0.389951 0.927849 0.602818 0.361456 0.35184 0.232571 0.130901 0.172827 0.185621 0.185628 0.196546 0.214693 0.197859 0.262179 0.243941 0.163799 0.205359 0.267088 0.297059 0.25476 0.265567 0.193268 0.298556 0.375855 0.422811 0.373607 0.188702 0.181313 0.203088 0.176867 0.203234 0.114228 0.114929 0.0930071 0.109755 0.0751476 0.0992403 0.105405 0.115251 0.110978 0.132202 0.143597 0.208051 0.146806 0.162173 0.20267 0.205195 0.258348 0.252 0.259382 0.266294 0.224408 0.17073 0.20615 0.172844 0.19957 0.224678 0.237794 0.214096 0.238538 0.195735 0.14376 0.253285 0.273431 0.283807 0.33129 0.292029 0.342459 0.261384 0.31847 0.277371 0.244656 0.219932 0.245143 0.24006 0.251766 0.231178 0.270336 0.173675 0.210371 0.189822 0.164557 0.270898 0.283729 0.196638 0.219188 0.231974 0.194047 0.208859 0.201486 0.182452 1.2208 1.10078 1.19178 1.19133 1.19564 1.19172 1.18705 1.1931 1.19178 1.1852 1.19715 1.20128 1.1869 1.18597 1.19135 1.18074 1.16756 1.18053 1.19178 1.19526 0.310184 0.175428 0.218968 0.191817 0.18794 0.0694375 0.200664 0.24463 0.209861 0.181183 0.184823 0.303839 0.431039 0.519875 0.290189 0.784031 0.566238 0.630627 0.724904 0.425557 0.544957 0.481101 0.505425 0.440798 0.482706 0.438508 0.410053 0.421601 0.397556 0.705972 0.471815 0.520357 0.439116 0.430127 0.274807 0.319943 0.303989 0.154272 0.169435 0.188642 0.221823 0.216767 0.247911 0.232429 0.251904 0.256072 0.263997 0.281168 0.252767 0.267307 0.261405 0.274364 0.198075 0.299902 0.285555 0.352872 0.296619 0.326119 0.304485 0.292434 0.304981 0.252141 0.257444 0.231365 0.237788 0.269203 0.234582 0.235879 0.118632 0.124273 0.131123 0.141051 0.153834 0.163419 0.195529 0.210161 0.183974 0.225994 0.205642 0.250289 0.273366 0.24465 0.258397 0.206074 0.20576 0.216924 0.16737 0.198711 0.202815 0.171527 0.200525 0.200124 0.183555 0.239492 0.241721 0.266477 0.278679 0.297127 0.289916 0.272896 0.274377 0.272838 0.223585 0.217564 0.197801 0.224126 0.25254 0.258786 0.250374 0.231029 0.185494 0.185113 0.235766 0.279605 0.237416 0.227182 0.236492 0.204045 0.206732 0.186224 0.187073 1.18924 1.19178 1.14962 1.19178 1.19178 1.19257 1.19178 1.19246 1.18739 1.19489 1.19119 1.18594 1.18891 1.18546 1.18958 1.19159 1.17781 1.17673 1.15569 1.17442 1.14765 1.17669 0.189729 0.252493 0.254393 0.276806 0.247171 0.191853 0.211262 0.168006 0.183316 0.203183 0.222754 0.297866 0.295881 0.355839 0.398516 0.312656 0.369298 0.279619 0.434212 0.671844 0.259761 0.341779 0.309889 0.306932 0.362895 0.386295 0.380177 0.393568 0.409554 0.441504 0.415155 0.33566 0.237881 0.215049 0.232611 0.235809 0.255996 0.247899 0.294172 0.267081 0.266154 0.255415 0.242081 0.25449 0.259671 0.301576 0.282581 0.294972 0.290607 0.287673 0.260518 0.278192 0.287884 0.270288 0.258863 0.131727 0.133999 0.138367 0.13109 0.141056 0.151967 0.177461 0.182644 0.204602 0.22225 0.257068 0.261391 0.266757 0.261426 0.269529 0.272905 0.286352 0.242044 0.194269 0.168374 0.184676 0.173928 0.197707 0.213366 0.176134 0.240623 0.247322 0.261663 0.257641 0.270783 0.247257 0.252377 0.236199 0.248216 0.20723 0.213017 0.232045 0.229505 0.250105 0.252616 0.263969 0.233437 0.226366 0.205751 0.23157 0.236333 0.233638 0.215094 0.22686 0.169505 0.178894 1.18727 1.18675 1.1926 1.19367 1.19333 1.18946 1.18833 1.19135 1.18593 1.18275 1.19049 1.17987 1.2065 1.17123 1.19236 1.14412 1.18942 1.15374 1.13147 1.16991 0.211774 0.251358 0.272733 0.244799 0.167362 0.1941 0.242057 0.261626 0.289741 0.317674 0.314441 0.270276 0.263487 0.549276 0.373483 0.454983 0.332267 0.307316 0.292829 0.324968 0.353284 0.318483 0.373176 0.351157 0.353336 0.376749 0.333271 0.31957 0.351055 0.282227 0.259477 0.260725 0.249654 0.249302 0.252219 0.229707 0.312402 0.258357 0.319536 0.30415 0.288653 0.302477 0.283652 0.297253 0.277674 0.268935 0.288688 0.267914 0.300907 0.299595 0.294672 0.295205 0.286637 0.277027 0.251613 0.265396 0.259692 0.149374 0.162517 0.148808 0.157204 0.143383 0.162335 0.178773 0.176388 0.209549 0.195213 0.218969 0.256578 0.22593 0.262709 0.265309 0.262482 0.262017 0.263756 0.264403 0.286518 0.280767 0.189909 0.211094 0.188664 0.188244 0.161754 0.201144 0.222352 0.301648 0.252238 0.262986 0.249441 0.270159 0.260795 0.268346 0.270469 0.258181 0.259438 0.23563 0.239519 0.237645 0.222237 0.230084 0.239073 0.228181 0.246729 0.227171 0.30514 0.310179 0.250117 0.25102 0.198723 0.224597 0.224864 0.208465 0.213342 0.229568 0.185599 0.19383 1.19106 1.18981 1.18879 1.19008 1.18782 1.19132 1.18479 1.18554 1.1937 1.17265 1.21176 1.15241 1.19497 1.20057 1.19838 1.04413 0.251211 0.232782 0.258296 0.261303 0.271454 0.291038 0.255716 0.226121 0.155654 0.293447 0.275014 0.277049 0.289947 0.311188 0.261788 0.268917 0.289653 0.400467 0.29894 0.317402 0.299568 0.319373 0.317575 0.306741 0.269959 0.308053 0.31884 0.298234 0.301385 0.301563 0.310808 0.282025 0.257718 0.260596 0.262807 0.289818 0.317646 0.319926 0.319792 0.301463 0.296639 0.286651 0.29056 0.286332 0.294777 0.307319 0.311151 0.309482 0.315349 0.292045 0.287749 0.287562 0.270545 0.279094 0.259344 0.171919 0.161215 0.160702 0.166355 0.130165 0.165918 0.192274 0.191577 0.190204 0.193909 0.205772 0.220987 0.22945 0.248634 0.263851 0.263081 0.277945 0.283177 0.283697 0.309169 0.214984 0.194221 0.26985 0.236839 0.236925 0.249603 0.289827 0.28295 0.282313 0.286463 0.288617 0.264858 0.233139 0.241758 0.243225 0.231802 0.231606 0.239679 0.23527 0.218735 0.228734 0.252979 0.341327 0.259817 0.161563 0.21227 0.22048 0.181871 0.218673 0.221764 0.214176 0.200461 0.197893 0.23456 0.268248 0.280806 0.254292 0.36269 0.29153 0.270017 0.266103 0.2902 0.267987 0.260539 0.280326 0.313082 0.285046 0.39416 0.281153 0.309909 0.289792 0.295362 0.304258 0.294256 0.2913 0.289392 0.30242 0.27902 0.2993 0.26757 0.283317 0.289696 0.309324 0.332916 0.332865 0.335951 0.316065 0.330731 0.299459 0.293963 0.301839 0.302155 0.307674 0.312247 0.321286 0.315768 0.282769 0.285915 0.272132 0.271182 0.261771 0.180216 0.172145 0.181593 0.179208 0.179778 0.203958 0.204614 0.205023 0.213324 0.229189 0.240178 0.243125 0.250639 0.25386 0.258355 0.26222 0.275137 0.290691 0.300655 0.324634 0.236606 0.270778 0.256535 0.251596 0.281134 0.287156 0.290121 0.292429 0.280044 0.276457 0.255328 0.240994 0.253996 0.235999 0.239046 0.23555 0.236049 0.255465 0.314953 0.255244 0.190897 0.213302 0.228708 0.237984 0.225094 0.206566 0.19752 0.229387 0.274869 0.259031 0.263285 0.326392 0.344024 0.355313 0.283631 0.263076 0.276636 0.263941 0.2539 0.26963 0.273161 0.32685 0.283966 0.289668 0.308906 0.285629 0.287116 0.293356 0.304138 0.300158 0.283921 0.303544 0.3016 0.296182 0.277439 0.291155 0.28346 0.295699 0.307064 0.31275 0.326255 0.34003 0.323933 0.313049 0.306902 0.303576 0.305099 0.309769 0.312998 0.311271 0.322652 0.279515 0.262338 0.261342 0.257939 0.257974 0.186164 0.184249 0.190824 0.191829 0.192318 0.218257 0.217544 0.209648 0.222834 0.220459 0.232843 0.243849 0.250723 0.259268 0.276383 0.26437 0.296978 0.310192 0.284111 0.266814 0.258108 0.262037 0.264564 0.276133 0.287459 0.290198 0.294608 0.285897 0.288117 0.288275 0.278434 0.255002 0.264907 0.25 0.243253 0.242354 0.239953 0.255358 0.260181 0.285382 0.251002 0.216672 0.221167 0.225744 0.209711 0.191255 0.198196 0.228597 0.235629 0.24711 0.273185 0.251468 0.326788 0.338818 0.322451 0.275115 0.270227 0.273444 0.259692 0.244698 0.266035 0.270485 0.292788 0.289152 0.295211 0.304631 0.307664 0.324075 0.304467 0.296846 0.30649 0.295815 0.299664 0.303292 0.312953 0.324369 0.330101 0.318785 0.31259 0.304744 0.300043 0.304824 0.305208 0.310606 0.32652 0.266577 0.254151 0.262455 0.257137 0.25605 0.256819 0.191449 0.194147 0.203203 0.214291 0.216841 0.22606 0.228693 0.2406 0.247012 0.2559 0.264173 0.280196 0.302267 0.315008 0.296443 0.276793 0.264538 0.263997 0.271901 0.287833 0.287375 0.295051 0.288548 0.290161 0.271004 0.251666 0.269331 0.267966 0.254077 0.262735 0.240006 0.242626 0.267671 0.271443 0.27131 0.270788 0.253931 0.283547 0.239974 0.239381 0.23451 0.220172 0.208872 0.23265 0.256643 0.242884 0.236802 0.268684 0.262661 0.337585 0.32593 0.315661 0.335073 0.272822 0.315347 0.278934 0.231816 0.266604 0.263086 0.266341 0.320766 0.307512 0.295106 0.296823 0.311741 0.316935 0.313065 0.321427 0.30548 0.310058 0.303011 0.30495 0.309338 0.302611 0.316691 0.326258 0.319324 0.309793 0.304795 0.301877 0.29791 0.293631 0.301294 0.304959 0.329783 0.25597 0.258756 0.257225 0.204887 0.206549 0.22512 0.237846 0.247915 0.280377 0.3062 0.286882 0.284156 0.265042 0.272506 0.268319 0.286321 0.266285 0.291498 0.290162 0.281459 0.267859 0.272028 0.26709 0.273737 0.279067 0.252027 0.287534 0.219325 0.233101 0.244312 0.259419 0.29659 0.286495 0.334748 0.329211 0.233528 0.274722 0.275147 0.266129 0.308887 0.300268 0.311963 0.306109 0.317461 0.322085 0.312506 0.307663 0.303486 0.319208 0.311699 0.301991 0.324409 0.305961 0.305472 0.298191 0.303878 0.298386 0.305968 0.31057 0.30784 0.256126 0.257133 
SCALARS Stress float 1
LOOKUP_TABLE default
-12607600000.0 -12610000000.0 -12589900000.0 -12656600000.0 -12549700000.0 -12744600000.0 -12685500000.0 -12679500000.0 -12567000000.0 -12591600000.0 -12549700000.0 -12574100000.0 -12549700000.0 -12549700000.0 -12582600000.0 -12549700000.0 -12549700000.0 -12554900000.0 -12549700000.0 -12555200000.0 -12567600000.0 -12631200000.0 -12668700000.0 -12619500000.0 -12596900000.0 -12580700000.0 -12566400000.0 -12553500000.0 -12549700000.0 -12549700000.0 -12549700000.0 -12566100000.0 -12583000000.0 -12598700000.0 -12661600000.0 -12622600000.0 -12592900000.0 -12563100000.0 -12580300000.0 -12584700000.0 -12552500000.0 -12607700000.0 -12551800000.0 -12554200000.0 -12594200000.0 -12722700000.0 -12652100000.0 -12569200000.0 -12605200000.0 -12686800000.0 -12666000000.0 -12558400000.0 -12555900000.0 -12575400000.0 -12697900000.0 -12581500000.0 -12760100000.0 -12640600000.0 -12586900000.0 -12577500000.0 -12655200000.0 -12749500000.0 -12599900000.0 -12844500000.0 -12982900000.0 -12908900000.0 -12994900000.0 -12959700000.0 -12912100000.0 -12908600000.0 -12802900000.0 -12602500000.0 -12574000000.0 -12549700000.0 -12600000000.0 -12558000000.0 -12666600000.0 -12549700000.0 -12573800000.0 -12569100000.0 -12619900000.0 -12677900000.0 -13002300000.0 -12932500000.0 -12930600000.0 -12716400000.0 -12553300000.0 -12645500000.0 -12571300000.0 -13435600000.0 -13121900000.0 -13329300000.0 -13520500000.0 -14162700000.0 -13750800000.0 -12768200000.0 -12696400000.0 -12690000000.0 -12549700000.0 -12636800000.0 -12554300000.0 -12549700000.0 -12672700000.0 -12549700000.0 -12549700000.0 -12578000000.0 -12549700000.0 -12613600000.0 -12549700000.0 -12851100000.0 -12549700000.0 -12549700000.0 -12549700000.0 -12562100000.0 -12551800000.0 -12549700000.0 -12554100000.0 -12572200000.0 -12633300000.0 -12664200000.0 -12796600000.0 -12816000000.0 -12986800000.0 -12937300000.0 -12694800000.0 -12653800000.0 -12550800000.0 -12589000000.0 -12656800000.0 -12738900000.0 -12697100000.0 -12688900000.0 -12586600000.0 -12659700000.0 -12950200000.0 -12593700000.0 -12707300000.0 -12781500000.0 -12680800000.0 -12720100000.0 -12690900000.0 -12562500000.0 -12549700000.0 -12785100000.0 -12702700000.0 -13051700000.0 -12555600000.0 -12549700000.0 -12568300000.0 -12591600000.0 -12611100000.0 -12947200000.0 -12597200000.0 -12642600000.0 -12549700000.0 -12962500000.0 -12658900000.0 -12591300000.0 -12549700000.0 -12549700000.0 -12573700000.0 -12598400000.0 -12681700000.0 -12631400000.0 -12609100000.0 -12557500000.0 -12931700000.0 -13087700000.0 -13196900000.0 -12991100000.0 -13441300000.0 -12586500000.0 -12687600000.0 -12607600000.0 -13671800000.0 -12560700000.0 -12838200000.0 -12796700000.0 -12692600000.0 -12764400000.0 -12634700000.0 -12954900000.0 -12558700000.0 -12636500000.0 -12566900000.0 -12711500000.0 -13819200000.0 -12923600000.0 -12913400000.0 -13250500000.0 -12809500000.0 -13287200000.0 -12765800000.0 -14346900000.0 -13854300000.0 -13882700000.0 -13926500000.0 -13896600000.0 -13451400000.0 -12595600000.0 -13736500000.0 -12970500000.0 -13198000000.0 -12983000000.0 -12882700000.0 -12594700000.0 -12806300000.0 -12550200000.0 -12553500000.0 -12610800000.0 -12549700000.0 -12743300000.0 -12942900000.0 -12561600000.0 -12588400000.0 -12549700000.0 -12620600000.0 -12660000000.0 -12715500000.0 -12829500000.0 -13140600000.0 -13416800000.0 -12723100000.0 -13189100000.0 -13078100000.0 -12905100000.0 -13071900000.0 -12553000000.0 -12571900000.0 -12930600000.0 -12549700000.0 -12722700000.0 -13128400000.0 -12617500000.0 -12739500000.0 -12621800000.0 -13180900000.0 -12676300000.0 -12975900000.0 -12716300000.0 -12594700000.0 -12988200000.0 -13960100000.0 -12875500000.0 -12550700000.0 -12820100000.0 -12770200000.0 -12998100000.0 -13126900000.0 -14231700000.0 -13759900000.0 -13779900000.0 -12940100000.0 -13154500000.0 -13316800000.0 -13350700000.0 -13141400000.0 -13333900000.0 -13088600000.0 -13133000000.0 -12711600000.0 -13337400000.0 -14932700000.0 -15577000000.0 -12905900000.0 -12676000000.0 -12653600000.0 -15052200000.0 -14041800000.0 -13203900000.0 -13269400000.0 -13671700000.0 -13173400000.0 -13042000000.0 -12806800000.0 -13957300000.0 -12582600000.0 -12990500000.0 -12766600000.0 -12620600000.0 -12996100000.0 -12677200000.0 -13365100000.0 -13371700000.0 -13347000000.0 -13261500000.0 -13399400000.0 -12549700000.0 -12549700000.0 -14786300000.0 -12678800000.0 -13275300000.0 -14687700000.0 -13862300000.0 -14097300000.0 -12739000000.0 -13174000000.0 -12953500000.0 -12549700000.0 -12703200000.0 -13040000000.0 -12829800000.0 -12865700000.0 -12935700000.0 -12761500000.0 -12831500000.0 -12759200000.0 -13150600000.0 -12549700000.0 -13244100000.0 -12704800000.0 -12682900000.0 -12637600000.0 -12549700000.0 -12622000000.0 -12629400000.0 -12561800000.0 -12571500000.0 -12852300000.0 -12557100000.0 -12717000000.0 -13110800000.0 -13039400000.0 -14076800000.0 -13388900000.0 -14006500000.0 -13796400000.0 -13828900000.0 -14226600000.0 -13598900000.0 -13342100000.0 -13177300000.0 -14033700000.0 -12758100000.0 -12661500000.0 -12570800000.0 -12590200000.0 -13196700000.0 -13278000000.0 -12709600000.0 -13643900000.0 -15355200000.0 -12833500000.0 -12794100000.0 -12913100000.0 -12798800000.0 -14162600000.0 -12549700000.0 -12549700000.0 -13829500000.0 -13332300000.0 -12549700000.0 -14028000000.0 -14040600000.0 -13639200000.0 -13156600000.0 -14868200000.0 -14722300000.0 -13477700000.0 -14607900000.0 -15391600000.0 -12942600000.0 -16277300000.0 -15856700000.0 -12758800000.0 -16328800000.0 -12653500000.0 -12583300000.0 -14173800000.0 -13964600000.0 -14092800000.0 -13376500000.0 -13799800000.0 -14343100000.0 -13227400000.0 -13008500000.0 -12815600000.0 -14242300000.0 -13106000000.0 -13801200000.0 -14263500000.0 -14442800000.0 -15194200000.0 -13277300000.0 -13103900000.0 -12621600000.0 -12621200000.0 -16309500000.0 -12830400000.0 -14016300000.0 -16052400000.0 -13171800000.0 -13208700000.0 -12818700000.0 -14138200000.0 -13448700000.0 -13573000000.0 -12686500000.0 -13465100000.0 -13181900000.0 -12760800000.0 -13017000000.0 -12676900000.0 -12712500000.0 -12567000000.0 -12998000000.0 -12561400000.0 -12886800000.0 -13120800000.0 -13279800000.0 -12979900000.0 -12803400000.0 -12849800000.0 -12768400000.0 -12594200000.0 -12674200000.0 -12710500000.0 -12605600000.0 -13570300000.0 -12985500000.0 -13273800000.0 -12846600000.0 -12931800000.0 -12694000000.0 -14319300000.0 -13822000000.0 -14643000000.0 -12724900000.0 -13471900000.0 -12827700000.0 -12767600000.0 -14213500000.0 -13684600000.0 -12737800000.0 -13167000000.0 -15491000000.0 -12941600000.0 -12875200000.0 -13686600000.0 -12588500000.0 -12743900000.0 -13926100000.0 -13796900000.0 -12760300000.0 -13299900000.0 -13127000000.0 -13430600000.0 -12908700000.0 -12549700000.0 -12576700000.0 -12661400000.0 -13747300000.0 -15958900000.0 -12713700000.0 -12609600000.0 -13529600000.0 -14321300000.0 -14180400000.0 -15375500000.0 -14721000000.0 -14043900000.0 -14338000000.0 -12787200000.0 -13737000000.0 -15641100000.0 -16605700000.0 -15781500000.0 -12640400000.0 -12558700000.0 -14547300000.0 -12609600000.0 -15467800000.0 -16241200000.0 -16281500000.0 -16060100000.0 -14435800000.0 -14855000000.0 -14249100000.0 -12675800000.0 -12965400000.0 -15051000000.0 -12643600000.0 -13991100000.0 -13569400000.0 -13202400000.0 -15590400000.0 -15198600000.0 -12768000000.0 -16483000000.0 -13550900000.0 -14578300000.0 -14705100000.0 -14499800000.0 -14076700000.0 -12706900000.0 -13785100000.0 -12695100000.0 -12661800000.0 -13477300000.0 -14501400000.0 -14512800000.0 -14394600000.0 -14248100000.0 -14392000000.0 -14003200000.0 -15076500000.0 -14514700000.0 -14496900000.0 -14681200000.0 -15014800000.0 -13915000000.0 -13814500000.0 -13748100000.0 -14006600000.0 -12552800000.0 -12725900000.0 -12963100000.0 -12587100000.0 -15364400000.0 -13129000000.0 -13655800000.0 -12566500000.0 -12819500000.0 -12554100000.0 -13874000000.0 -13657100000.0 -13902700000.0 -15229600000.0 -15575900000.0 -15683800000.0 -17578800000.0 -14716200000.0 -14393000000.0 -15972300000.0 -13417600000.0 -14692900000.0 -14616400000.0 -14994900000.0 -14020600000.0 -14702600000.0 -15260400000.0 -15788600000.0 -19505900000.0 -15766600000.0 -15990300000.0 -12676200000.0 -13806700000.0 -13026400000.0 -13825700000.0 -14748500000.0 -13483400000.0 -14820200000.0 -15082600000.0 -15182600000.0 -15432600000.0 -15899100000.0 -12993200000.0 -14665600000.0 -14471600000.0 -14651600000.0 -12617500000.0 -14531200000.0 -15789600000.0 -14868300000.0 -14169200000.0 -18489900000.0 -16108900000.0 -13228600000.0 -13502100000.0 -15342600000.0 -14636900000.0 -13792300000.0 -14024000000.0 -12549700000.0 -13445900000.0 -13088800000.0 -12582000000.0 -15953800000.0 -14377300000.0 -13904200000.0 -18565500000.0 -12549700000.0 -15649600000.0 -19533300000.0 -16643600000.0 -14885500000.0 -14364400000.0 -14817700000.0 -13191600000.0 -13395700000.0 -12884600000.0 -13507700000.0 -12816900000.0 -12779800000.0 -14846000000.0 -13220600000.0 -12598200000.0 -13381800000.0 -13340700000.0 -13850000000.0 -13039100000.0 -12749600000.0 -13257100000.0 -12564000000.0 -12634100000.0 -13986100000.0 -14220500000.0 -14376000000.0 -15426600000.0 -15083900000.0 -13653400000.0 -13942100000.0 -16391700000.0 -12885000000.0 -13362200000.0 -12725800000.0 -13001500000.0 -13237200000.0 -13464500000.0 -13637700000.0 -12689600000.0 -13061100000.0 -13084000000.0 -14459000000.0 -12867300000.0 -13364900000.0 -12761500000.0 -15474400000.0 -14095900000.0 -12699700000.0 -16077100000.0 -15165300000.0 -16864600000.0 -17879400000.0 -13676300000.0 -14945100000.0 -13921900000.0 -12822700000.0 -14141100000.0 -13628100000.0 -12549700000.0 -12588800000.0 -13131000000.0 -13863200000.0 -13684900000.0 -15084000000.0 -17823900000.0 -19214600000.0 -18031400000.0 -17370900000.0 -16916800000.0 -13405300000.0 -20051300000.0 -13295600000.0 -13537500000.0 -18368800000.0 -20037500000.0 -15977600000.0 -15620200000.0 -18111700000.0 -14523500000.0 -14207200000.0 -15360300000.0 -13661800000.0 -14646900000.0 -14184400000.0 -14860500000.0 -12829500000.0 -14055500000.0 -12554000000.0 -12923000000.0 -15776600000.0 -12685500000.0 -12687100000.0 -14139500000.0 -12590300000.0 -14426700000.0 -12549700000.0 -22422900000.0 -21731300000.0 -14797300000.0 -21577700000.0 -17589300000.0 -17461900000.0 -16623800000.0 -16206500000.0 -17063000000.0 -15478400000.0 -15745800000.0 -15499200000.0 -14959700000.0 -12555700000.0 -14828800000.0 -14390000000.0 -12949200000.0 -14315500000.0 -12948300000.0 -13503700000.0 -13818600000.0 -13716300000.0 -14054500000.0 -13932100000.0 -12556400000.0 -12936300000.0 -12629500000.0 -13320500000.0 -14632600000.0 -14086000000.0 -14796900000.0 -15628700000.0 -13176700000.0 -13041900000.0 -13219900000.0 -13737800000.0 -12649000000.0 -13439700000.0 -12838000000.0 -13901800000.0 -14253300000.0 -13500100000.0 -13957700000.0 -13238400000.0 -14002600000.0 -13067800000.0 -13608800000.0 -14181000000.0 -14186800000.0 -18132700000.0 -17017000000.0 -19165000000.0 -15169200000.0 -13275300000.0 -14313500000.0 -13845100000.0 -12904000000.0 -14084900000.0 -12891200000.0 -12549700000.0 -13246800000.0 -12989400000.0 -17883500000.0 -13502400000.0 -13980100000.0 -17312200000.0 -17771400000.0 -13999400000.0 -12595100000.0 -13748300000.0 -13938400000.0 -18461300000.0 -16096200000.0 -18088800000.0 -18768300000.0 -18236200000.0 -14161600000.0 -20372300000.0 -14318200000.0 -16608600000.0 -15966800000.0 -20881200000.0 -13401400000.0 -13204300000.0 -15668600000.0 -16429500000.0 -13521700000.0 -15390300000.0 -14294500000.0 -16392900000.0 -12555300000.0 -12773100000.0 -12565100000.0 -13936300000.0 -14356900000.0 -12549700000.0 -12549700000.0 -22017900000.0 -14884600000.0 -13020700000.0 -17430200000.0 -13223000000.0 -17229700000.0 -12549700000.0 -17761200000.0 -14570000000.0 -14587800000.0 -12685700000.0 -12790000000.0 -13139300000.0 -13721000000.0 -12917700000.0 -12943300000.0 -13593600000.0 -13697700000.0 -14302600000.0 -12638200000.0 -14035400000.0 -13817400000.0 -12790100000.0 -13279700000.0 -13256900000.0 -14283300000.0 -12795900000.0 -14120500000.0 -14102500000.0 -14839700000.0 -15915800000.0 -14442900000.0 -15081900000.0 -13159200000.0 -14253200000.0 -14470800000.0 -13221300000.0 -16789600000.0 -15897000000.0 -15339900000.0 -12737800000.0 -13201600000.0 -12968200000.0 -16022600000.0 -16485700000.0 -12905100000.0 -16686400000.0 -15368900000.0 -16261400000.0 -18738700000.0 -16814700000.0 -15535200000.0 -18056200000.0 -17453700000.0 -17333000000.0 -17313300000.0 -12715900000.0 -13642900000.0 -16318100000.0 -15516900000.0 -15646000000.0 -19698000000.0 -16742900000.0 -16232800000.0 -12725600000.0 -13247800000.0 -14420100000.0 -12549700000.0 -14742400000.0 -12574800000.0 -13935500000.0 -15385600000.0 -14539000000.0 -15537600000.0 -14463600000.0 -15176500000.0 -14981800000.0 -12549700000.0 -16786800000.0 -13863000000.0 -14550800000.0 -16014500000.0 -16384600000.0 -14128900000.0 -16675400000.0 -14867800000.0 -15572400000.0 -22801700000.0 -12549700000.0 -16685700000.0 -16045600000.0 -13837600000.0 -12571300000.0 -12688900000.0 -16108400000.0 -13747900000.0 -13939600000.0 -14749300000.0 -12583700000.0 -15815800000.0 -13187600000.0 -14858600000.0 -12862500000.0 -15123100000.0 -18208400000.0 -19838000000.0 -20196500000.0 -12602800000.0 -18807400000.0 -16346100000.0 -13635500000.0 -12672700000.0 -12962100000.0 -13448200000.0 -17384800000.0 -14169800000.0 -14666500000.0 -12590900000.0 -12577100000.0 -14312200000.0 -13555600000.0 -12792800000.0 -12629800000.0 -12549700000.0 -13684200000.0 -13999600000.0 -14191000000.0 -13700200000.0 -12602000000.0 -13745300000.0 -13095000000.0 -13921200000.0 -13678700000.0 -12559700000.0 -14291100000.0 -12726900000.0 -12902800000.0 -12551500000.0 -14620100000.0 -14982800000.0 -15905400000.0 -12552000000.0 -12733200000.0 -15944800000.0 -12549700000.0 -12551400000.0 -16514400000.0 -12585700000.0 -14970200000.0 -16111000000.0 -12549700000.0 -12556700000.0 -12770400000.0 -14591300000.0 -14582500000.0 -15401900000.0 -18263200000.0 -12549700000.0 -12549700000.0 -15568000000.0 -15977100000.0 -12749400000.0 -12905400000.0 -17713200000.0 -15107800000.0 -15223600000.0 -18986700000.0 -17455100000.0 -12889600000.0 -14025500000.0 -13018600000.0 -14637500000.0 -12869200000.0 -16699500000.0 -13569900000.0 -15491600000.0 -13386100000.0 -14125000000.0 -15486800000.0 -17980300000.0 -16316600000.0 -21084400000.0 -20547500000.0 -13614100000.0 -20818500000.0 -19693800000.0 -20330400000.0 -22127800000.0 -14905800000.0 -21545200000.0 -24965000000.0 -16497500000.0 -15175600000.0 -24537700000.0 -27164700000.0 -17923500000.0 -14566400000.0 -14499900000.0 -16070400000.0 -13902400000.0 -13798900000.0 -13502300000.0 -15796200000.0 -13930700000.0 -12563200000.0 -14529800000.0 -14849300000.0 -12984700000.0 -13137900000.0 -13801400000.0 -13951800000.0 -12962800000.0 -19738400000.0 -16916700000.0 -12603300000.0 -12677800000.0 -13765900000.0 -12549700000.0 -13751900000.0 -13881200000.0 -12845800000.0 -13038000000.0 -12991400000.0 -12601100000.0 -13879800000.0 -13179500000.0 -13164800000.0 -13851900000.0 -12997300000.0 -15242200000.0 -13431700000.0 -13978100000.0 -13368600000.0 -13105800000.0 -13535600000.0 -12575700000.0 -13001900000.0 -12602800000.0 -12696800000.0 -12557600000.0 -15728600000.0 -12587900000.0 -14104200000.0 -15057400000.0 -13877100000.0 -14964400000.0 -15356900000.0 -14621500000.0 -12576600000.0 -12614700000.0 -13964100000.0 -14055300000.0 -13988700000.0 -16185200000.0 -12697400000.0 -12715100000.0 -13526300000.0 -14091500000.0 -14563400000.0 -13528000000.0 -19396700000.0 -13642700000.0 -17475100000.0 -15282100000.0 -17598500000.0 -13191900000.0 -24754600000.0 -20787100000.0 -21821000000.0 -20462800000.0 -13719800000.0 -16992100000.0 -14909100000.0 -15332400000.0 -14969400000.0 -14912100000.0 -14730400000.0 -19144000000.0 -13316300000.0 -14229900000.0 -15208500000.0 -17355900000.0 -13354100000.0 -22559400000.0 -15144400000.0 -14254800000.0 -14968800000.0 -20467000000.0 -12968100000.0 -19923000000.0 -16843300000.0 -15264000000.0 -13480700000.0 -18272900000.0 -12965900000.0 -20098600000.0 -19139400000.0 -18515300000.0 -19703900000.0 -16587700000.0 -16421300000.0 -12549700000.0 -17642700000.0 -13013300000.0 -15153000000.0 -12693800000.0 -12619200000.0 -15638400000.0 -13017300000.0 -14024100000.0 -13153600000.0 -15351700000.0 -12813400000.0 -14300400000.0 -13121700000.0 -13974700000.0 -14380500000.0 -18982000000.0 -16302100000.0 -16283900000.0 -13494200000.0 -18193500000.0 -16994700000.0 -15007500000.0 -14884300000.0 -15710400000.0 -12739200000.0 -15089900000.0 -14910300000.0 -14067000000.0 -13318100000.0 -13563400000.0 -14521000000.0 -12669800000.0 -16020700000.0 -14034000000.0 -12877700000.0 -15185000000.0 -14408600000.0 -14640500000.0 -14515600000.0 -13110700000.0 -13086600000.0 -12549700000.0 -13237600000.0 -13080500000.0 -12727800000.0 -16189200000.0 -12723400000.0 -13320200000.0 -13344900000.0 -15326900000.0 -15583000000.0 -14044200000.0 -14821100000.0 -13447800000.0 -12719400000.0 -16196100000.0 -12549700000.0 -12561500000.0 -13587200000.0 -13512300000.0 -15148000000.0 -14237600000.0 -18653300000.0 -12549700000.0 -17949100000.0 -20146000000.0 -21588000000.0 -17437300000.0 -13010800000.0 -18501800000.0 -17395800000.0 -16197300000.0 -16694500000.0 -13345800000.0 -13915300000.0 -13804900000.0 -13233600000.0 -15754900000.0 -12549700000.0 -17603700000.0 -17908900000.0 -18346100000.0 -17896900000.0 -12549700000.0 -18452700000.0 -14945900000.0 -15317100000.0 -12724800000.0 -19300800000.0 -13929400000.0 -17324800000.0 -13469000000.0 -12957200000.0 -13592300000.0 -19349400000.0 -21898200000.0 -13870800000.0 -21289700000.0 -12549700000.0 -16674400000.0 -18595300000.0 -19729300000.0 -23036900000.0 -23839400000.0 -22191100000.0 -21497500000.0 -23303300000.0 -22179200000.0 -23404800000.0 -22292200000.0 -18926700000.0 -17848200000.0 -14658600000.0 -22379300000.0 -21771700000.0 -22684500000.0 -17856700000.0 -12593900000.0 -17518600000.0 -14722100000.0 -14725100000.0 -13663700000.0 -13691500000.0 -13508800000.0 -13612100000.0 -12819800000.0 -12937400000.0 -15158700000.0 -15081300000.0 -14137700000.0 -14230800000.0 -15571900000.0 -17872900000.0 -13049800000.0 -14149500000.0 -14136500000.0 -12555200000.0 -13361400000.0 -14611100000.0 -12868600000.0 -15875200000.0 -15918000000.0 -15760500000.0 -16752900000.0 -14975700000.0 -14972100000.0 -15504100000.0 -16486900000.0 -14390000000.0 -13085200000.0 -13856200000.0 -14045000000.0 -15188100000.0 -16965000000.0 -16272400000.0 -16213500000.0 -19540500000.0 -15159100000.0 -16666300000.0 -12549700000.0 -12549700000.0 -26220400000.0 -23756300000.0 -20065400000.0 -17402400000.0 -19193400000.0 -13701100000.0 -13752900000.0 -17010900000.0 -16235100000.0 -15909200000.0 -17526900000.0 -19489300000.0 -21128600000.0 -13639100000.0 -12619200000.0 -13478700000.0 -16577900000.0 -20428400000.0 -22800500000.0 -14736300000.0 -16753700000.0 -12572000000.0 -12552500000.0 -16366100000.0 -17901600000.0 -23459200000.0 -14705400000.0 -17873900000.0 -13346100000.0 -16585600000.0 -13728800000.0 -14412400000.0 -13649700000.0 -13017900000.0 -13235900000.0 -22574100000.0 -15882600000.0 -19663900000.0 -13223900000.0 -12894300000.0 -14990500000.0 -12678400000.0 -13692200000.0 -13746200000.0 -13068000000.0 -15247400000.0 -16342000000.0 -16302700000.0 -16287500000.0 -15271600000.0 -13566400000.0 -12566700000.0 -12549700000.0 -12550100000.0 -26710400000.0 -21481700000.0 -19842000000.0 -13962300000.0 -13757000000.0 -13949200000.0 -14108700000.0 -12871000000.0 -13343900000.0 -12812300000.0 -12720000000.0 -12622700000.0 -13798800000.0 -12915800000.0 -14368000000.0 -12944600000.0 -13324300000.0 -13653700000.0 -16248400000.0 -13678800000.0 -16118200000.0 -15452500000.0 -15246400000.0 -15774000000.0 -13764800000.0 -14147700000.0 -12810800000.0 -13678300000.0 -16082300000.0 -14352900000.0 -15244900000.0 -13251500000.0 -12683000000.0 -16407500000.0 -13023700000.0 -12608300000.0 -13796700000.0 -13351000000.0 -12760300000.0 -18081400000.0 -12568100000.0 -14290100000.0 -14140600000.0 -19116700000.0 -13384800000.0 -14467700000.0 -19565500000.0 -12857300000.0 -20950000000.0 -23372700000.0 -25036900000.0 -12777000000.0 -12708500000.0 -23587000000.0 -21140900000.0 -14005000000.0 -15250100000.0 -12705000000.0 -12961500000.0 -18049700000.0 -12905100000.0 -12802200000.0 -14001400000.0 -20290000000.0 -13840500000.0 -18395300000.0 -15966200000.0 -12657600000.0 -19839900000.0 -16165700000.0 -18106100000.0 -15794900000.0 -16682100000.0 -16560300000.0 -15454100000.0 -19451000000.0 -14260600000.0 -12588400000.0 -14203100000.0 -13298500000.0 -12788100000.0 -15834000000.0 -18694100000.0 -15717000000.0 -19684100000.0 -17018800000.0 -16618600000.0 -14492600000.0 -14126100000.0 -12714000000.0 -18351900000.0 -16821800000.0 -15976200000.0 -12997500000.0 -15998500000.0 -13518200000.0 -12712300000.0 -12633900000.0 -12635200000.0 -12549700000.0 -12584300000.0 -14067500000.0 -22295600000.0 -12858600000.0 -17888400000.0 -14269000000.0 -13955400000.0 -13336900000.0 -15318900000.0 -14320800000.0 -13192000000.0 -13112600000.0 -13927300000.0 -12646500000.0 -12794400000.0 -13025800000.0 -12578600000.0 -13008700000.0 -13388900000.0 -12549700000.0 -15475400000.0 -15547300000.0 -14843200000.0 -12810000000.0 -12691200000.0 -13295100000.0 -12579100000.0 -13219100000.0 -14483900000.0 -14676700000.0 -19248400000.0 -12788000000.0 -12594300000.0 -16036800000.0 -13701200000.0 -12657600000.0 -13769800000.0 -12968600000.0 -13327200000.0 -18693300000.0 -13167500000.0 -14073300000.0 -12604600000.0 -18045100000.0 -23756400000.0 -22759800000.0 -21150500000.0 -23644400000.0 -24731600000.0 -24353900000.0 -13187900000.0 -12590600000.0 -28212100000.0 -19109800000.0 -15431100000.0 -12803300000.0 -12818000000.0 -14526900000.0 -13378500000.0 -13300800000.0 -13798300000.0 -13243400000.0 -13678300000.0 -13583200000.0 -21988900000.0 -17030100000.0 -15875800000.0 -21625900000.0 -16028900000.0 -15167400000.0 -14856400000.0 -17550200000.0 -19536600000.0 -13222400000.0 -13192400000.0 -15166300000.0 -12570700000.0 -16840100000.0 -12594800000.0 -15190500000.0 -19455900000.0 -13820000000.0 -13944800000.0 -14973100000.0 -16573700000.0 -20710100000.0 -18297200000.0 -19256200000.0 -15830900000.0 -14179600000.0 -19034100000.0 -19844800000.0 -20331700000.0 -15658200000.0 -15014400000.0 -17058600000.0 -16219000000.0 -13318200000.0 -12701000000.0 -12804500000.0 -12929200000.0 -13794700000.0 -19789800000.0 -17670700000.0 -13726600000.0 -13335900000.0 -14951800000.0 -14263000000.0 -13622300000.0 -14039300000.0 -14486300000.0 -14113900000.0 -14204900000.0 -14355200000.0 -14344000000.0 -12969400000.0 -13579300000.0 -13413500000.0 -15908600000.0 -12692200000.0 -12562700000.0 -13418900000.0 -12581400000.0 -13082500000.0 -12566800000.0 -12549700000.0 -14047100000.0 -13612300000.0 -13541700000.0 -17168500000.0 -16048800000.0 -15275300000.0 -14112500000.0 -14197500000.0 -15786000000.0 -16521500000.0 -13506600000.0 -13910500000.0 -14530200000.0 -13616500000.0 -12674800000.0 -12781900000.0 -20244100000.0 -14819100000.0 -15709000000.0 -18328500000.0 -12669500000.0 -17167300000.0 -14765200000.0 -13705000000.0 -30657200000.0 -14484100000.0 -29029000000.0 -12606800000.0 -12563700000.0 -23320900000.0 -25385700000.0 -12641000000.0 -14155800000.0 -17636900000.0 -14817300000.0 -13226500000.0 -13202700000.0 -22217300000.0 -22377800000.0 -12549700000.0 -12839200000.0 -15537900000.0 -12580500000.0 -14383900000.0 -15244800000.0 -19254800000.0 -12914100000.0 -14137500000.0 -12813900000.0 -14273800000.0 -14935200000.0 -17230400000.0 -14108900000.0 -13448100000.0 -18706100000.0 -15763900000.0 -15262100000.0 -17628600000.0 -16180500000.0 -15682600000.0 -18639500000.0 -16284200000.0 -18696100000.0 -18273300000.0 -16729400000.0 -12587800000.0 -13236000000.0 -15771000000.0 -12549700000.0 -14233500000.0 -12620300000.0 -14571700000.0 -15965900000.0 -15575400000.0 -13082700000.0 -12583300000.0 -12819400000.0 -12832500000.0 -12596400000.0 -12647700000.0 -13325600000.0 -15636600000.0 -17109000000.0 -12558800000.0 -12549700000.0 -13598800000.0 -13161600000.0 -13568200000.0 -12869500000.0 -13324400000.0 -12813800000.0 -12899900000.0 -13037900000.0 -12669100000.0 -12549700000.0 -13690900000.0 -14601000000.0 -14565500000.0 -14825800000.0 -15283000000.0 -15678300000.0 -13978600000.0 -13017600000.0 -13111600000.0 -13038900000.0 -13388800000.0 -13701400000.0 -14238600000.0 -16874300000.0 -15733600000.0 -14497300000.0 -13372800000.0 -15029400000.0 -12549700000.0 -13409600000.0 -22530500000.0 -12959800000.0 -16698700000.0 -18484800000.0 -18500300000.0 -16055700000.0 -17439800000.0 -16137600000.0 -42788800000.0 -20021500000.0 -24052400000.0 -20235500000.0 -20636300000.0 -25270900000.0 -15584000000.0 -15397800000.0 -19367200000.0 -15301700000.0 -17122200000.0 -26875500000.0 -15866000000.0 -15381300000.0 -15469200000.0 -16255900000.0 -15476000000.0 -14272200000.0 -14005100000.0 -14098900000.0 -13774900000.0 -16946600000.0 -15782900000.0 -12549700000.0 -16027300000.0 -12564800000.0 -15079300000.0 -14256300000.0 -18157600000.0 -15809200000.0 -14826200000.0 -17278800000.0 -14755200000.0 -12687900000.0 -12560200000.0 -18512400000.0 -15740700000.0 -12605700000.0 -18941500000.0 -18220000000.0 -19153800000.0 -12549700000.0 -13258000000.0 -13877400000.0 -15708000000.0 -13457300000.0 -13077000000.0 -15173800000.0 -12993700000.0 -12732000000.0 -12781900000.0 -12741300000.0 -12850300000.0 -13059800000.0 -15915100000.0 -16105100000.0 -15480200000.0 -15896600000.0 -14027400000.0 -14963100000.0 -12992400000.0 -12885100000.0 -13226900000.0 -12823700000.0 -13520200000.0 -12924900000.0 -13806200000.0 -13524000000.0 -14653200000.0 -13876400000.0 -12742800000.0 -12553600000.0 -12625900000.0 -12930000000.0 -12916800000.0 -15535600000.0 -15298400000.0 -14700300000.0 -15458300000.0 -15140500000.0 -12549700000.0 -15391000000.0 -16752800000.0 -14367500000.0 -13414100000.0 -13319600000.0 -17592300000.0 -17594200000.0 -15727000000.0 -12549700000.0 -24022000000.0 -17077400000.0 -12648600000.0 -15002200000.0 -13917600000.0 -17563000000.0 -18717700000.0 -20377500000.0 -16873300000.0 -49965400000.0 -20665800000.0 -23556500000.0 -20042900000.0 -36901700000.0 -31049300000.0 -24716500000.0 -20180800000.0 -20443300000.0 -26649800000.0 -12604700000.0 -16667400000.0 -13474000000.0 -13595800000.0 -12549700000.0 -16833200000.0 -13870400000.0 -15367400000.0 -14143500000.0 -17494800000.0 -14707200000.0 -15512800000.0 -16020600000.0 -13698100000.0 -12734000000.0 -12549700000.0 -12574500000.0 -12624200000.0 -13897500000.0 -16170800000.0 -14620400000.0 -13692500000.0 -16348600000.0 -14352600000.0 -16339500000.0 -13417100000.0 -14808500000.0 -12648700000.0 -16292800000.0 -13727500000.0 -13922100000.0 -12639100000.0 -18310900000.0 -19048900000.0 -18319800000.0 -19375800000.0 -16646100000.0 -12779000000.0 -12549700000.0 -12768600000.0 -12593300000.0 -12595400000.0 -12657700000.0 -14328200000.0 -12631500000.0 -14825600000.0 -12669300000.0 -14550500000.0 -13578600000.0 -13621200000.0 -12689700000.0 -12685300000.0 -12926400000.0 -12888500000.0 -12652500000.0 -13635100000.0 -12727900000.0 -13511300000.0 -12634100000.0 -13781600000.0 -12879900000.0 -12880600000.0 -13101300000.0 -12606900000.0 -12567100000.0 -12572800000.0 -12549700000.0 -12572700000.0 -13899300000.0 -14141800000.0 -12582500000.0 -12710000000.0 -17614600000.0 -15560700000.0 -14978200000.0 -17978000000.0 -19362900000.0 -14814400000.0 -13754400000.0 -16800400000.0 -14274200000.0 -15360000000.0 -20108700000.0 -20673900000.0 -16444100000.0 -12579000000.0 -14681200000.0 -14258000000.0 -12565100000.0 -19689300000.0 -14899600000.0 -23573000000.0 -26232800000.0 -36891400000.0 -12735100000.0 -30744200000.0 -33965500000.0 -25916700000.0 -18556900000.0 -25359800000.0 -17794400000.0 -18196600000.0 -21549400000.0 -26718500000.0 -15966700000.0 -16006600000.0 -15521700000.0 -15073200000.0 -17089600000.0 -13366000000.0 -13093800000.0 -13371200000.0 -13363100000.0 -13757500000.0 -14012600000.0 -14021600000.0 -12549700000.0 -13020400000.0 -13835700000.0 -13096900000.0 -13163300000.0 -15241900000.0 -16130000000.0 -13218500000.0 -15260100000.0 -12549700000.0 -15442200000.0 -14621400000.0 -13264200000.0 -13750500000.0 -14433900000.0 -14259200000.0 -13643200000.0 -13155700000.0 -14266000000.0 -14332400000.0 -14861700000.0 -17475600000.0 -15188600000.0 -15357400000.0 -21605000000.0 -16207500000.0 -15250000000.0 -12720400000.0 -12549700000.0 -12788000000.0 -12595000000.0 -12599000000.0 -12997500000.0 -12839400000.0 -12611800000.0 -13705200000.0 -13108200000.0 -14519800000.0 -12549700000.0 -13180600000.0 -13304000000.0 -12747000000.0 -12590900000.0 -12709700000.0 -12549700000.0 -12911200000.0 -13679600000.0 -12629300000.0 -12607700000.0 -12724000000.0 -12714400000.0 -12558500000.0 -12601800000.0 -12721700000.0 -12551000000.0 -12795800000.0 -12567300000.0 -12556900000.0 -12598600000.0 -12603400000.0 -13138000000.0 -13077200000.0 -15192000000.0 -15153400000.0 -18223200000.0 -14106800000.0 -13457900000.0 -13724100000.0 -23467400000.0 -21300300000.0 -20926100000.0 -20189700000.0 -21980600000.0 -21505200000.0 -13194200000.0 -19894500000.0 -18408000000.0 -19452600000.0 -18838200000.0 -15478900000.0 -28279800000.0 -12675000000.0 -20465700000.0 -31518600000.0 -28579900000.0 -30155100000.0 -31022300000.0 -13239500000.0 -22114400000.0 -19959000000.0 -23327500000.0 -17293600000.0 -17059800000.0 -12549700000.0 -29548700000.0 -19639200000.0 -19742500000.0 -17224600000.0 -16969900000.0 -13138800000.0 -13588500000.0 -12758300000.0 -13055200000.0 -13760800000.0 -13786800000.0 -14004500000.0 -13865100000.0 -12553200000.0 -13614300000.0 -12577500000.0 -12931600000.0 -12916100000.0 -14192100000.0 -12638600000.0 -13784700000.0 -13712900000.0 -13063700000.0 -13875700000.0 -13504300000.0 -15121300000.0 -13488500000.0 -13006800000.0 -13338700000.0 -13667300000.0 -13603700000.0 -13617500000.0 -14037000000.0 -13714100000.0 -12564300000.0 -12554500000.0 -18096800000.0 -13976000000.0 -12854700000.0 -13333400000.0 -13376700000.0 -13316900000.0 -13333300000.0 -13153700000.0 -13167500000.0 -13151400000.0 -12665900000.0 -14041400000.0 -14155000000.0 -13919400000.0 -13381400000.0 -13381100000.0 -13411000000.0 -13271700000.0 -13098900000.0 -13247300000.0 -12557500000.0 -12549700000.0 -12557100000.0 -12612000000.0 -12720200000.0 -12616900000.0 -12613100000.0 -12747700000.0 -12607400000.0 -12559200000.0 -12814900000.0 -12749400000.0 -14585200000.0 -12571800000.0 -12632700000.0 -14447700000.0 -18322200000.0 -16903200000.0 -18157600000.0 -21661500000.0 -14384000000.0 -13256200000.0 -15519200000.0 -15061300000.0 -32110900000.0 -20417400000.0 -22479700000.0 -22333800000.0 -28024200000.0 -19367500000.0 -26643600000.0 -13194700000.0 -15838400000.0 -36089600000.0 -53906000000.0 -12835200000.0 -12687500000.0 -30513600000.0 -15581900000.0 -28639000000.0 -15278100000.0 -15489200000.0 -12549700000.0 -25503000000.0 -15774500000.0 -12678200000.0 -13672100000.0 -14415000000.0 -17025800000.0 -13331800000.0 -13345500000.0 -13036400000.0 -12733500000.0 -13587600000.0 -14117200000.0 -13048300000.0 -13712600000.0 -12565900000.0 -12790500000.0 -13278900000.0 -12692500000.0 -12769500000.0 -14512300000.0 -13047900000.0 -13146800000.0 -12549700000.0 -13623400000.0 -14717100000.0 -12549700000.0 -13316400000.0 -12598600000.0 -12568700000.0 -12554700000.0 -12993300000.0 -12740000000.0 -14561000000.0 -14809200000.0 -14987500000.0 -14183500000.0 -16951300000.0 -13793400000.0 -13416800000.0 -12854900000.0 -12552700000.0 -12551100000.0 -12735500000.0 -12684300000.0 -12635400000.0 -12718600000.0 -12704500000.0 -12658400000.0 -12733300000.0 -13075100000.0 -12943800000.0 -12731900000.0 -12782800000.0 -12829200000.0 -12903600000.0 -13106500000.0 -13266900000.0 -12872200000.0 -12851500000.0 -12940300000.0 -13010900000.0 -13193900000.0 -13062300000.0 -13148100000.0 -13167500000.0 -12952500000.0 -13320400000.0 -13618000000.0 -14123800000.0 -16629400000.0 -15555800000.0 -15609800000.0 -17464100000.0 -13113800000.0 -14681700000.0 -12730400000.0 -21450900000.0 -19450300000.0 -15913300000.0 -13540900000.0 -15166700000.0 -26966400000.0 -16711600000.0 -15740800000.0 -16513400000.0 -31173200000.0 -12549700000.0 -22180000000.0 -19249200000.0 -16450800000.0 -12549700000.0 -38196300000.0 -14296500000.0 -12799200000.0 -12765200000.0 -30212700000.0 -13056800000.0 -30045000000.0 -19947300000.0 -19501700000.0 -25222200000.0 -20430600000.0 -19916600000.0 -20711800000.0 -20103600000.0 -15900600000.0 -14956800000.0 -15131900000.0 -15348800000.0 -15724700000.0 -15668700000.0 -14211400000.0 -13758100000.0 -14063500000.0 -13774400000.0 -13402400000.0 -13246200000.0 -13193100000.0 -14418900000.0 -13097400000.0 -13046100000.0 -13535700000.0 -13712400000.0 -15751000000.0 -13110400000.0 -12998000000.0 -14528500000.0 -14017800000.0 -13653300000.0 -13687000000.0 -13629200000.0 -12863500000.0 -13271100000.0 -13109100000.0 -12573200000.0 -13081500000.0 -15642600000.0 -13061800000.0 -13251300000.0 -12734400000.0 -12587100000.0 -12678900000.0 -12549700000.0 -12549900000.0 -12559500000.0 -12642000000.0 -12599900000.0 -12561500000.0 -12549700000.0 -12664100000.0 -12700100000.0 -12557200000.0 -12550100000.0 -12549700000.0 -12555300000.0 -12549700000.0 -12745100000.0 -13123600000.0 -13087800000.0 -13040500000.0 -13018300000.0 -12916600000.0 -12985100000.0 -12864200000.0 -13092500000.0 -13421700000.0 -13953900000.0 -14457800000.0 -16179000000.0 -13052900000.0 -13783200000.0 -13446900000.0 -16769800000.0 -14866000000.0 -14421500000.0 -15660200000.0 -19218400000.0 -12618000000.0 -20756200000.0 -17459100000.0 -19078800000.0 -20740600000.0 -22279700000.0 -12808800000.0 -16256000000.0 -32191600000.0 -24470500000.0 -16094000000.0 -20626400000.0 -39346600000.0 -14253100000.0 -16160800000.0 -44134600000.0 -12564100000.0 -13475600000.0 -39598800000.0 -24021000000.0 -28486200000.0 -19526900000.0 -21612600000.0 -17441600000.0 -17443900000.0 -14908500000.0 -12638400000.0 -12549700000.0 -14357000000.0 -14723300000.0 -15373200000.0 -15682900000.0 -15777300000.0 -14022000000.0 -16419500000.0 -14581200000.0 -12694400000.0 -12993200000.0 -12633600000.0 -12795100000.0 -12550200000.0 -12584800000.0 -12549700000.0 -13650100000.0 -12843400000.0 -12947200000.0 -12944500000.0 -13073100000.0 -14637900000.0 -13013500000.0 -13023800000.0 -13093900000.0 -12806100000.0 -13039800000.0 -13554000000.0 -12554300000.0 -12656000000.0 -13116400000.0 -12582700000.0 -14334600000.0 -13954400000.0 -13508800000.0 -13182000000.0 -12603400000.0 -12577900000.0 -12623900000.0 -12549700000.0 -12550800000.0 -12559400000.0 -12612300000.0 -12578800000.0 -12549700000.0 -12549700000.0 -12549700000.0 -12625000000.0 -12552200000.0 -12549700000.0 -12549700000.0 -12556800000.0 -12574300000.0 -12730900000.0 -12611600000.0 -12610200000.0 -12557000000.0 -12630300000.0 -12732800000.0 -12711700000.0 -12946300000.0 -13087200000.0 -13076100000.0 -12988800000.0 -13761900000.0 -14178300000.0 -13126800000.0 -14337900000.0 -14801800000.0 -15437200000.0 -15732200000.0 -16187800000.0 -16160100000.0 -17223500000.0 -19453500000.0 -22376700000.0 -12595700000.0 -21857700000.0 -24297600000.0 -28171300000.0 -30356300000.0 -33290300000.0 -44775900000.0 -31620800000.0 -28367600000.0 -43992400000.0 -50805500000.0 -13199300000.0 -29368500000.0 -45787800000.0 -25328800000.0 -31359500000.0 -22323400000.0 -17470900000.0 -17605700000.0 -27138100000.0 -25507500000.0 -19086300000.0 -14883100000.0 -13116600000.0 -13134900000.0 -12956400000.0 -14178200000.0 -12617600000.0 -12918200000.0 -12736600000.0 -14051600000.0 -14277700000.0 -13015400000.0 -12923600000.0 -12914600000.0 -12814200000.0 -13362100000.0 -12553100000.0 -12617700000.0 -12567300000.0 -12603800000.0 -13759400000.0 -12620000000.0 -12579900000.0 -13020000000.0 -12549700000.0 -12655100000.0 -12679500000.0 -13903600000.0 -13652100000.0 -14180100000.0 -14445900000.0 -12787900000.0 -12977300000.0 -12586500000.0 -12563400000.0 -12549700000.0 -12571700000.0 -12549800000.0 -12550000000.0 -12552000000.0 -12571700000.0 -12559300000.0 -12549700000.0 -12549700000.0 -12549700000.0 -12577300000.0 -12549700000.0 -12549700000.0 -12549700000.0 -12551200000.0 -12562700000.0 -12669800000.0 -12632500000.0 -12635500000.0 -12625100000.0 -12568600000.0 -12579700000.0 -12593700000.0 -12713000000.0 -12604700000.0 -12659000000.0 -12684600000.0 -12906600000.0 -12772900000.0 -12677900000.0 -13048100000.0 -12840900000.0 -13093700000.0 -13504700000.0 -13658200000.0 -13856700000.0 -13535100000.0 -25167300000.0 -19380600000.0 -25506100000.0 -26295300000.0 -12627700000.0 -18149400000.0 -28393100000.0 -17021100000.0 -39238200000.0 -19253200000.0 -21840000000.0 -37356100000.0 -20495100000.0 -33100400000.0 -24240000000.0 -14034400000.0 -17246300000.0 -17274100000.0 -37519600000.0 -21238100000.0 -14802100000.0 -13830700000.0 -14654900000.0 -14421900000.0 -14329400000.0 -12696800000.0 -12590400000.0 -12574200000.0 -12588800000.0 -13019000000.0 -12696700000.0 -12714600000.0 -12632500000.0 -12589300000.0 -13722400000.0 -13218500000.0 -13048300000.0 -12549700000.0 -13172400000.0 -12666200000.0 -12639000000.0 -12749700000.0 -12643700000.0 -12762100000.0 -12741500000.0 -12803300000.0 -12915200000.0 -13008400000.0 -12917900000.0 -12700900000.0 -12751800000.0 -12637000000.0 -12605400000.0 -12767000000.0 -12618900000.0 -13603500000.0 -13283300000.0 -12958800000.0 -12652600000.0 -12948400000.0 -16186100000.0 -15975000000.0 -14724700000.0 -32200700000.0 -20230300000.0 -22464200000.0 -28921900000.0 -24011000000.0 -28286800000.0 -21193100000.0 -22954500000.0 -31796400000.0 -12616500000.0 -21358400000.0 -37891200000.0 -20029300000.0 -18723600000.0 -18308000000.0 -34794300000.0 -13097100000.0 -13101200000.0 -12781700000.0 -12551300000.0 -12591000000.0 -12603700000.0 -12588600000.0 -13337900000.0 -15831500000.0 -16008200000.0 -14165900000.0 -27869200000.0 -15503700000.0 -13091200000.0 -31252000000.0 -23531000000.0 -23961300000.0 -12771600000.0 -18986700000.0 -42580600000.0 -22029900000.0 -36331100000.0 -29814700000.0 -17519500000.0 -21103400000.0 -18929300000.0 -18154400000.0 -33930800000.0 -14162200000.0 -16882500000.0 -18921000000.0 -22865500000.0 -21292400000.0 -17207600000.0 -30432700000.0 -42486500000.0 -27627600000.0 -31689300000.0 -22147200000.0 -15989800000.0 -64586500000.0 -33534300000.0 -41122000000.0 -24671800000.0 -16227000000.0 -12549700000.0 -40077300000.0 -13403400000.0 -13631700000.0 -16866000000.0 -15608500000.0 -20741500000.0 -21201700000.0 -26532800000.0 -12674700000.0 -25008000000.0 -15086600000.0 -13771200000.0 -42145100000.0 -61448200000.0 -12749500000.0 -22100100000.0 -30659600000.0 -12549700000.0 -21621600000.0 -19110000000.0 -17780300000.0 -34339500000.0 -13171100000.0 -13229500000.0 -12549700000.0 -12549700000.0 -20187900000.0 -19787400000.0 -34689000000.0 -31126300000.0 -15734000000.0 -24741700000.0 -14240100000.0 -14071600000.0 -57836800000.0 -23277200000.0 -15516700000.0 -32248600000.0 -16509500000.0 -16847400000.0 -29131900000.0 -13930300000.0 -13142300000.0 -13631000000.0 -12549700000.0 -12549700000.0 -12549700000.0 -13755600000.0 -17786000000.0 -17416800000.0 -22906400000.0 -25383700000.0 -17458900000.0 -28569900000.0 -22420800000.0 -22268600000.0 -61188900000.0 -18752600000.0 -20722700000.0 -18988200000.0 -29791900000.0 -15404100000.0 -36918000000.0 -30692900000.0 -22239000000.0 -16297000000.0 -13605800000.0 -12549700000.0 -12549700000.0 -12549700000.0 -12549700000.0 -12549700000.0 -12549700000.0 -12549700000.0 -12549700000.0 -12549700000.0 -12549700000.0 -12549700000.0 -12549700000.0 -12549700000.0 -12549700000.0 -12549700000.0 -12549700000.0 -12549700000.0 -12549700000.0 -12549700000.0 -12549700000.0 -12549700000.0 -12549700000.0 -12549700000.0 -12549700000.0 -12549700000.0 -12549700000.0 -13575000000.0 -12884700000.0 -17512800000.0 -15935700000.0 -17278400000.0 -22544500000.0 -26134600000.0 -24566600000.0 -17876600000.0 -26981400000.0 -68898700000.0 -27584100000.0 -21414900000.0 -13776900000.0 -16975800000.0 -38605000000.0 -36655200000.0 -18660100000.0 -19431100000.0 -14931000000.0 -12797500000.0 -12549700000.0 -12549700000.0 -12549700000.0 -12549700000.0 -12549700000.0 -12549700000.0 -12549700000.0 -12549700000.0 -12549700000.0 -12549700000.0 -12549700000.0 -12549700000.0 -12549700000.0 -12549700000.0 -12549700000.0 -12549700000.0 -12549700000.0 -12549700000.0 -12549700000.0 -12549700000.0 -12549700000.0 -12549700000.0 -12549700000.0 -12549700000.0 -12549700000.0 -12549700000.0 -12549700000.0 -12550000000.0 -12556400000.0 -12551800000.0 -15736300000.0 -15863800000.0 -12725700000.0 -17179100000.0 -25313000000.0 -26192400000.0 -42214700000.0 -36845000000.0 -31340200000.0 -24402500000.0 -30969300000.0 -42985400000.0 -22681300000.0 -13403100000.0 -35701300000.0 -21563600000.0 -13077700000.0 -12845200000.0 -13876000000.0 -24601700000.0 -14331000000.0 -13044700000.0 -12549700000.0 -12549700000.0 -12549700000.0 -12549700000.0 -12549700000.0 -12549700000.0 -12549700000.0 -12549700000.0 -12549700000.0 -12549700000.0 -12549700000.0 -12549700000.0 -12549700000.0 -12549700000.0 -12549700000.0 -12549700000.0 -12549700000.0 -12549700000.0 -12549700000.0 -12549700000.0 -12549700000.0 -12549700000.0 -12549700000.0 -12549700000.0 -12549700000.0 -12549700000.0 -12549700000.0 -12549700000.0 -12549700000.0 -12549700000.0 -12549700000.0 -12549700000.0 -12549700000.0 -12549700000.0 -12709500000.0 -13391700000.0 -13739900000.0 -14345600000.0 -15030900000.0 -19221700000.0 -17741500000.0 -19911200000.0 -29622400000.0 -29314700000.0 -22860200000.0 -14522100000.0 -20886000000.0 -41011900000.0 -55068000000.0 -30625100000.0 -34060000000.0 -27655700000.0 -30502300000.0 -18595800000.0 -16767200000.0 -25448200000.0 -13015000000.0 -14704000000.0 -16425300000.0 -13600800000.0 -12903100000.0 -12588400000.0 -12567500000.0 -12549700000.0 -12549700000.0 -12549700000.0 -12549700000.0 -12549700000.0 -12549700000.0 -12549700000.0 -12549700000.0 -12549700000.0 -12549700000.0 -12549700000.0 -12549700000.0 -12549700000.0 -12549700000.0 -12549700000.0 -12549700000.0 -12549700000.0 -12549700000.0 -12549700000.0 -12549700000.0 -12549700000.0 -12549700000.0 -12549700000.0 -12549700000.0 -12549700000.0 -12549700000.0 -12549700000.0 -12549700000.0 -12549700000.0 -12549700000.0 -12549700000.0 -12549700000.0 -12549700000.0 -12550100000.0 -12549700000.0 -12549700000.0 -12549700000.0 -12549700000.0 -12549700000.0 -12549700000.0 -12549700000.0 -12549700000.0 -12549700000.0 -12549700000.0 -12549700000.0 -12549700000.0 -12549700000.0 -12560100000.0 -12931600000.0 -16236100000.0 -14818200000.0 -19787900000.0 -24497700000.0 -27372300000.0 -24443400000.0 -34698700000.0 -26969200000.0 -43035100000.0 -30328700000.0 -27704700000.0 -39148400000.0 -38393100000.0 -27547400000.0 -31482900000.0 -16818500000.0 -23574400000.0 -26892300000.0 -25438500000.0 -17101800000.0 -12629600000.0 -14315000000.0 -12722200000.0 -12773800000.0 -12612100000.0 -12551300000.0 -12550100000.0 -12549700000.0 -12549700000.0 -12549700000.0 -12549700000.0 -12549700000.0 -12549700000.0 -12549700000.0 -12549700000.0 -12549700000.0 -12549700000.0 -12549700000.0 -12549700000.0 -12549700000.0 -12549700000.0 -12549700000.0 -12549700000.0 -12549700000.0 -12549700000.0 -12549700000.0 -12549700000.0 -12549700000.0 -12549700000.0 -12549700000.0 -12549700000.0 -12549700000.0 -12549700000.0 -12550800000.0 -12549700000.0 -12549700000.0 -12549700000.0 -12549700000.0 -12549700000.0 -12549700000.0 -12549700000.0 -12549700000.0 -12549700000.0 -12549700000.0 -12585600000.0 -12549700000.0 -13141600000.0 -14432300000.0 -13022800000.0 -16036300000.0 -14503500000.0 -32882600000.0 -12699800000.0 -29232100000.0 -24089000000.0 -38936500000.0 -24390700000.0 -19254600000.0 -36171700000.0 -12549700000.0 -12871600000.0 -33448900000.0 -49585500000.0 -41926700000.0 -25055500000.0 -17779100000.0 -13050900000.0 -12585300000.0 -12566100000.0 -12552600000.0 -12549700000.0 -12549700000.0 -12549700000.0 -12549700000.0 -12549700000.0 -12549700000.0 -12549700000.0 -12549700000.0 -12549700000.0 -12549700000.0 -12549700000.0 -12549700000.0 -12549700000.0 -12549700000.0 -12549700000.0 -12549700000.0 -12549700000.0 -12549700000.0 -12549700000.0 -12549700000.0 -12549700000.0 -12549700000.0 -12549700000.0 -12549700000.0 -12549700000.0 -12549700000.0 -12549700000.0 -12549700000.0 -12549700000.0 -12549900000.0 -12550500000.0 -12550300000.0 -12550200000.0 -12549700000.0 -12549900000.0 -12549700000.0 -12549700000.0 -12549700000.0 -12549700000.0 -12549700000.0 -12549700000.0 -12549700000.0 -12549700000.0 -12549700000.0 -12549600000.0 -12549700000.0 -12549700000.0 -12549700000.0 -12549700000.0 -12549700000.0 -12549700000.0 -12628100000.0 -12549700000.0 -13589100000.0 -14321600000.0 -16697600000.0 -21034600000.0 -15666400000.0 -12836700000.0 -48201600000.0 -42565000000.0 -28310100000.0 -36146400000.0 -50824900000.0 -16364100000.0 -18194400000.0 -33841600000.0 -32066600000.0 -29186100000.0 -14811300000.0 -58603800000.0 -23854600000.0 -24976200000.0 -14232900000.0 -12855100000.0 -12903600000.0 -12888300000.0 -12549700000.0 -12549700000.0 -12556900000.0 -12549700000.0 -12549700000.0 -12549700000.0 -12549700000.0 -12549700000.0 -12549700000.0 -12549700000.0 -12549700000.0 -12549700000.0 -12549700000.0 -12549700000.0 -12549700000.0 -12549700000.0 -12549700000.0 -12549700000.0 -12549700000.0 -12549700000.0 -12549700000.0 -12549700000.0 -12549700000.0 -12549700000.0 -12549700000.0 -12549700000.0 -12549700000.0 -12549700000.0 -12549700000.0 -12550000000.0 -12550100000.0 -12549900000.0 -12549900000.0 -12549700000.0 -12549700000.0 -12549700000.0 -12549700000.0 -12549700000.0 -12549700000.0 -12549700000.0 -12549700000.0 -12549700000.0 -27674900000.0 -45274700000.0 -39625000000.0 -12549700000.0 -14056900000.0 -24424600000.0 -18845600000.0 -23573000000.0 -27154400000.0 -13908100000.0 -45864400000.0 -18983900000.0 -18718200000.0 -18137300000.0 -23185800000.0 -25034800000.0 -53654300000.0 -12549700000.0 -29642700000.0 -14677600000.0 -13793800000.0 -13400900000.0 -12630400000.0 -12549700000.0 -12549700000.0 -12549700000.0 -12549700000.0 -12549700000.0 -12549700000.0 -12549700000.0 -12549700000.0 -12549700000.0 -12549700000.0 -12549700000.0 -12549700000.0 -12549700000.0 -12549700000.0 -12549700000.0 -12549700000.0 -12549700000.0 -12549700000.0 -12549700000.0 -12549700000.0 -12549700000.0 -12549700000.0 -12549700000.0 -12549700000.0 -12549700000.0 -12549700000.0 -12549700000.0 -12549700000.0 -12549700000.0 -12549700000.0 -12549900000.0 -12549700000.0 -12549700000.0 -12549700000.0 -12549700000.0 -12549700000.0 -12549700000.0 -12549700000.0 -12549700000.0 -12549700000.0 -12549700000.0 -13709800000.0 -15534300000.0 -38117200000.0 -26986400000.0 -20879200000.0 -19138700000.0 -12718400000.0 -25668700000.0 -30812800000.0 -30528000000.0 -23492600000.0 -26403600000.0 -19705400000.0 -34364200000.0 -58053900000.0 -12549700000.0 -14141200000.0 -34018500000.0 -15852300000.0 -12549700000.0 -12549700000.0 -12549700000.0 -12549700000.0 -12549700000.0 -12549700000.0 -12549700000.0 -12549700000.0 -12549700000.0 -12549700000.0 -12549700000.0 -12549700000.0 -12549700000.0 -12549900000.0 -12549700000.0 -12549700000.0 -12549700000.0 -12549700000.0 -12549700000.0 -12549700000.0 -12549700000.0 -12549700000.0 -12549700000.0 -12549700000.0 -12549700000.0 -12549700000.0 -12549700000.0 -12549700000.0 -12549700000.0 -12549700000.0 -12549700000.0 -12549700000.0 -12549700000.0 -12549700000.0 -12549800000.0 -12549800000.0 -12549700000.0 -12549700000.0 -12549700000.0 -12549700000.0 -12549700000.0 -12549700000.0 -12549700000.0 -31982100000.0 -51416700000.0 -18353600000.0 -18661000000.0 -14984200000.0 -19475600000.0 -12565200000.0 -34561200000.0 -41368700000.0 -32083400000.0 -21384100000.0 -16667300000.0 -49029400000.0 -55947500000.0 -27792000000.0 -46062500000.0 -15463400000.0 -12549700000.0 -12549700000.0 -12549700000.0 -12549700000.0 -12549700000.0 -12549700000.0 -12549700000.0 -12549700000.0 -12549700000.0 -12549700000.0 -12549700000.0 -12549700000.0 -12549700000.0 -12549700000.0 -11964600000.0 -12550200000.0 -12549700000.0 -12549700000.0 -12549700000.0 -12549700000.0 -12549700000.0 -12549700000.0 -12549700000.0 -12549700000.0 -12549700000.0 -12549700000.0 -12549700000.0 -21846200000.0 -139417000000.0 -12549700000.0 -12549700000.0 -12549700000.0 -12549700000.0 -12549700000.0 -12549700000.0 -12549700000.0 -12549700000.0 -12549700000.0 -12549700000.0 -12549700000.0 -12549700000.0 -12549700000.0 -12549700000.0 -14754500000.0 -14406900000.0 -30459000000.0 -13482400000.0 -53311800000.0 -13854700000.0 -22433300000.0 -24150500000.0 -17614000000.0 -33062300000.0 -31432900000.0 -51680000000.0 -30649400000.0 -45472300000.0 -75170800000.0 -73945400000.0 -67107100000.0 -46173000000.0 -26493600000.0 -50054100000.0 -15223000000.0 -15360700000.0 -12549700000.0 -12549700000.0 -12549800000.0 -12549700000.0 -12549700000.0 -12549700000.0 -12549700000.0 -12549700000.0 -12549700000.0 -12549700000.0 -12549700000.0 -12550000000.0 -12549800000.0 -12549700000.0 -12549700000.0 -12549700000.0 -3.81676e+12 -3.61908e+12 -5.55942e+12 -5.60463e+12 -6.47564e+12 -5.14458e+12 -4.64041e+12 -3.95286e+12 -12549700000.0 -12549700000.0 -4.59985e+12 -3.4971e+12 -3.83362e+12 -4.00583e+12 -5.84742e+12 -4.9272e+12 -12549700000.0 -12549700000.0 -12549700000.0 -2.35358e+12 -4.86961e+12 -6.54226e+12 -34576500000.0 -2.62876e+12 -537582000000.0 -783857000000.0 -1.08461e+12 -4.51868e+12 -4.94761e+12 -12549700000.0 -12549700000.0 -5.91365e+12 -1.99995e+12 -18823400000.0 -196858000000.0 -3.81542e+12 -5.77602e+12 -5.08993e+12 -4.38011e+12 -3.8095e+12 -4.74375e+12 -3.8945e+12 -1.14306e+12 -5.59506e+12 -6.20587e+12 -4.47533e+12 -3.838e+12 -3.20298e+12 -1.91221e+12 -2.45581e+12 -3.5226e+12 -8521710000.0 -14617300000.0 -16395300000.0 -4.36174e+12 -4.1098e+12 -6.10445e+12 -3.62141e+12 -12916700000.0 -34916600000.0 -52143900000.0 -15218400000.0 -12751900000.0 -20248600000.0 -43775000000.0 -26620200000.0 -23867400000.0 -50893600000.0 -34355200000.0 -59247600000.0 -53131300000.0 -95655000000.0 -50214800000.0 -39261700000.0 -53995000000.0 -63520800000.0 -12558000000.0 -22036900000.0 -4.00129e+12 -15888500000.0 -4.34358e+12 -5.21891e+12 -4.05768e+12 -3.46558e+12 -1.68181e+12 -12549700000.0 -5.28642e+12 -2.56429e+12 -5.22988e+12 -4.28752e+12 -12549700000.0 -12534500000.0 -12549800000.0 -12549700000.0 -4.42145e+12 -2.85117e+12 -3.16877e+12 -2.44899e+12 -12549700000.0 -5.29118e+12 -3.50605e+12 -4.22035e+12 -1.12337e+12 -2.11379e+12 -698957000000.0 -481016000000.0 -12549700000.0 -370446000000.0 -6.50002e+12 -5.37845e+12 -4.48298e+12 -4.62719e+12 -3.69429e+12 -4.3323e+12 -12549700000.0 -5.69442e+12 -3.68488e+12 -12549800000.0 -6.08916e+12 -4.8213e+12 -12549700000.0 -3.25126e+12 -12549700000.0 -12549700000.0 -12554400000.0 -5.58831e+12 -6.98891e+12 -4.74121e+12 -2.85896e+12 -3.59656e+12 -12826100000.0 -12549100000.0 -12549700000.0 -3.73344e+12 -12549700000.0 -12549700000.0 -4.60193e+12 -3.3043e+12 -3.48824e+12 -6.77861e+12 -6.15433e+12 -5.67771e+12 -7.68035e+12 -6.46873e+12 -6.94049e+12 -5.97654e+12 -4.79651e+12 -5.28207e+12 -4.06218e+12 -5.25355e+12 -5.26998e+12 -4.36606e+12 -2.9578e+12 -4.54778e+12 -4.50411e+12 -5.74061e+12 -4.82654e+12 -7.53532e+12 -5.15717e+12 -7.39563e+12 -3.71774e+12 -8.99179e+12 -3.23854e+12 -5.10327e+12 -5.04723e+12 -3.7914e+12 -5.25216e+12 -5.92075e+12 -4.60226e+12 -2.58094e+12 -5.13221e+12 -7.25268e+12 -2.21307e+12 -4.82215e+12 -6.96605e+12 -7.33553e+12 -8.35147e+12 -5.37397e+12 -7.88231e+12 -5.41915e+12 -5.37825e+12 -5.61877e+12 -5.86227e+12 -532314000000.0 -6.41309e+12 -5.44146e+12 -3.30483e+12 -4.72609e+12 -8.71668e+12 -6.50695e+12 -8.799e+12 -7.62201e+12 -8.44944e+12 -3.70835e+12 -7.33325e+12 -5.68644e+12 -7.27594e+12 -4.073e+12 -5.56191e+12 -9.29605e+12 -9.73145e+12 -6.32027e+12 -7.0972e+12 -4.0559e+12 -5.73705e+12 -4.96464e+12 -5.00476e+12 -6.22886e+12 -4.70811e+12 -4.29645e+12 -6.43731e+12 -3.17276e+12 -7.08432e+12 -4.80398e+12 -6.35599e+12 -7.59178e+12 -4.09214e+12 -3.48958e+12 -2.74597e+12 -15670700000.0 -38038500000.0 -18903600000.0 -55702600000.0 -20896600000.0 -26623500000.0 -30240700000.0 -28981300000.0 -24164000000.0 -13216000000.0 -37545000000.0 -18520100000.0 -26792500000.0 -42302400000.0 -69977400000.0 -51077500000.0 -38087000000.0 -57389600000.0 -76114700000.0 -3.83441e+12 -35854200000.0 -7.34348e+12 -5.8796e+12 -3.9586e+12 -4.56627e+12 -6.06784e+12 -6.20142e+12 -3.86835e+12 -7.90051e+12 -6.19393e+12 -4.66219e+12 -7.32403e+12 -7.09483e+12 -8.34976e+12 -4.97644e+12 -4.05e+12 -6.74149e+12 -1.15348e+13 -7.67732e+12 -4.47203e+12 -6.94712e+12 -6.63081e+12 -6.4683e+12 -9.54058e+12 -3.98552e+12 -7.03731e+12 -4.60022e+12 -3.73968e+12 -5.4866e+12 -3.86232e+12 -3.11865e+12 -6.14901e+12 -7.02423e+12 -5.77986e+12 -5.18428e+12 -6.5669e+12 -5.67924e+12 -3.04199e+12 -9.89821e+12 -5.76995e+12 -7.24335e+12 -6.31006e+12 -4.70297e+12 -6.86387e+12 -6.33063e+12 -6.26241e+12 -8.08308e+12 -7.66349e+12 -6.57597e+12 -6.11579e+12 -7.04469e+12 -8.48481e+12 -8.30605e+12 -4.20594e+12 -3.55433e+12 -8.22528e+12 -5.56972e+12 -6.24181e+12 -5.19005e+12 -6.85561e+12 -8.78381e+12 -8.51869e+12 -7.21066e+12 -7.93564e+12 -4.91952e+12 -4.42082e+12 -8.37553e+12 -5.79271e+12 -5.5529e+12 -5.86066e+12 -5.67423e+12 -5.50108e+12 -7.1594e+12 -7.06249e+12 -8.02601e+12 -5.8144e+12 -3.59572e+12 -3.39096e+12 -4.48353e+12 -5.30142e+12 -6.08035e+12 -6.0141e+12 -7.71713e+12 -1.07968e+13 -4.08954e+12 -5.4413e+12 -4.60617e+12 -7.07073e+12 -7.21851e+12 -5.43185e+12 -9.10075e+12 -7.20942e+12 -4.44064e+12 -2.51764e+12 -5.89849e+12 -5.77224e+12 -5.69868e+12 -3.99299e+12 -7.48645e+12 -1.1137e+13 -7.16912e+12 -6.46495e+12 -6.1762e+12 -8.79268e+12 -8.5717e+12 -5.25862e+12 -8.64571e+12 -5.6195e+12 -6.67669e+12 -8.41888e+12 -4.83462e+12 -5.08754e+12 -6.76947e+12 -6.10987e+12 -6.46941e+12 -6.23075e+12 -7.83388e+12 -7.04973e+12 -1.08302e+13 -5.60497e+12 -3.93832e+12 -3.35093e+12 -4.92028e+12 -7.33842e+12 -3.60224e+12 -4.60869e+12 -5.48035e+12 -5.97249e+12 -6.82823e+12 -6.4824e+12 -6.12542e+12 -2.9161e+12 -4.67322e+12 -5.81248e+12 -9.18732e+12 -6.04759e+12 -1.01968e+13 -6.05277e+12 -3.76381e+12 -6.53862e+12 -6.74371e+12 -3.78203e+12 -3.10064e+12 -3.66593e+12 -4.6116e+12 -4.5411e+12 -2.49379e+12 -12549700000.0 -12549700000.0 -69195000000.0 -54304600000.0 -30471900000.0 -58386000000.0 -55102100000.0 -60612700000.0 -70541600000.0 -46774300000.0 -52575900000.0 -58205300000.0 -72111700000.0 -69695400000.0 -86228600000.0 -35523400000.0 -43239100000.0 -83524000000.0 -37117900000.0 -38670800000.0 -117184000000.0 -18049600000.0 -5.21988e+12 -8.00849e+12 -7.47597e+12 -1.00316e+13 -5.52137e+12 -4.14069e+12 -3.27532e+12 -2.41855e+12 -6.8509e+12 -7.28195e+12 -4.18599e+12 -5.02725e+12 -8.62209e+12 -6.26888e+12 -9.1184e+12 -5.79598e+12 -9.63281e+12 -1.00632e+13 -6.64263e+12 -7.92863e+12 -8.01484e+12 -1.01573e+13 -4.8922e+12 -6.22927e+12 -7.89732e+12 -6.10248e+12 -4.27339e+12 -8.66781e+12 -9.519e+12 -4.66352e+12 -7.47974e+12 -4.51046e+12 -5.63037e+12 -4.3518e+12 -5.80127e+12 -6.82365e+12 -6.12693e+12 -6.41862e+12 -6.46443e+12 -5.28306e+12 -5.59338e+12 -4.99991e+12 -1.53641e+12 -6.42202e+12 -4.95158e+12 -5.71639e+12 -9.40995e+12 -5.58495e+12 -6.29232e+12 -4.02332e+12 -6.65296e+12 -3.96896e+12 -5.58994e+12 -6.81615e+12 -5.83872e+12 -7.86209e+12 -9.39001e+12 -4.98125e+12 -6.7433e+12 -7.43731e+12 -4.16949e+12 -5.1379e+12 -2.63884e+12 -4.92825e+12 -8.45513e+12 -6.42065e+12 -6.71821e+12 -8.07056e+12 -5.7327e+12 -7.0178e+12 -5.79584e+12 -5.03653e+12 -7.08539e+12 -9.1194e+12 -4.38567e+12 -2.30367e+12 -6.55394e+12 -4.73717e+12 -3.54477e+12 -1.7005e+12 -6.64805e+12 -6.70015e+12 -5.96784e+12 -2.41652e+12 -5.75234e+12 -5.63083e+12 -6.11144e+12 -5.78475e+12 -5.11047e+12 -6.72239e+12 -6.32227e+12 -6.01408e+12 -4.76175e+12 -7.77446e+12 -6.13491e+12 -7.0061e+12 -6.04583e+12 -6.16888e+12 -5.52897e+12 -4.27601e+12 -6.33638e+12 -6.68788e+12 -2.76298e+12 -2.71588e+12 -8.00774e+12 -9.15804e+12 -7.41373e+12 -4.66325e+12 -5.11589e+12 -4.52757e+12 -8.62323e+12 -4.19576e+12 -4.03207e+12 -4.79011e+12 -4.87791e+12 -6.36946e+12 -6.47858e+12 -3.66381e+12 -5.42052e+12 -4.51221e+12 -8.41593e+12 -6.19032e+12 -3.6022e+12 -4.2472e+12 -6.3201e+12 -5.03024e+12 -32324700000.0 -49892700000.0 -22306500000.0 -36716300000.0 -28870500000.0 -33496600000.0 -43333200000.0 -54822100000.0 -74365900000.0 -64353000000.0 -22564700000.0 -17553200000.0 -48914000000.0 -97361100000.0 -154605000000.0 -99955300000.0 -125065000000.0 -344232000000.0 -5.37247e+12 -4.61344e+12 -3.9187e+12 -8.5743e+12 -9.98819e+12 -2.19377e+12 -4.2862e+12 -4.88189e+12 -6.41377e+12 -1.0549e+13 -5.20762e+12 -7.3853e+12 -6.57647e+12 -5.95529e+12 -2.7498e+12 -1.00291e+13 -4.49898e+12 -6.11409e+12 -3.84761e+12 -4.13469e+12 -4.68931e+12 -7.45349e+12 -6.52444e+12 -5.24473e+12 -4.96416e+12 -7.09787e+12 -6.78584e+12 -6.08988e+12 -6.27477e+12 -8.1075e+12 -7.71459e+12 -8.42071e+12 -2.9347e+12 -3.05813e+12 -7.48573e+12 -6.91123e+12 -4.15883e+12 -5.53078e+12 -7.54798e+12 -4.41046e+12 -5.63023e+12 -5.9942e+12 -4.95276e+12 -6.08387e+12 -6.01409e+12 -2.73923e+12 -5.18864e+12 -4.15145e+12 -6.90103e+12 -7.60958e+12 -5.54106e+12 -5.02392e+12 -7.83419e+12 -3.9183e+12 -3.75829e+12 -3.86437e+12 -6.11721e+12 -3.82464e+12 -5.48283e+12 -3.422e+12 -3.95573e+12 -4.29689e+12 -5.02822e+12 -6.1806e+12 -7.51324e+12 -4.30099e+12 -3.01697e+12 -8.23931e+12 -4.48419e+12 -4.1898e+12 -7.12136e+12 -2.04825e+12 -6.37539e+12 -5.0662e+12 -4.26208e+12 -8.41399e+12 -6.99209e+12 -6.1032e+12 -9.76879e+12 -4.97829e+12 -3.72266e+12 -4.56818e+12 -5.8397e+12 -4.38524e+12 -5.01138e+12 -6.34168e+12 -5.12704e+12 -6.53829e+12 -4.72048e+12 -5.05492e+12 -5.00398e+12 -4.14869e+12 -6.73129e+12 -5.00155e+12 -3.81611e+12 -4.54334e+12 -8.37403e+12 -3.91196e+12 -7.14304e+12 -7.95825e+12 -6.3732e+12 -3.93602e+12 -8.20201e+12 -4.1333e+12 -3.26489e+12 -4.65063e+12 -2.1143e+12 -6.18002e+12 -5.56733e+12 -4.24251e+12 -6.03269e+12 -4.85306e+12 -5.29155e+12 -3.72738e+12 -8.47833e+12 -5.20611e+12 -5.59028e+12 -3.60433e+12 -3.02668e+12 -4.5797e+12 -6.12075e+12 -4.95644e+12 -7.43702e+12 -4.41402e+12 -6.00566e+12 -5.5342e+12 -6.54524e+12 -5.49986e+12 -6.32417e+12 -5.46528e+12 -16610800000.0 -37619100000.0 -34501700000.0 -33315900000.0 -27063000000.0 -29048500000.0 -37418900000.0 -21387300000.0 -20331000000.0 -17021100000.0 -29378000000.0 -21109600000.0 -45632400000.0 -38447700000.0 -142951000000.0 -41950200000.0 -158626000000.0 -115197000000.0 -117000000000.0 -143359000000.0 -509701000000.0 -4.30841e+12 -4.76542e+12 -3.7188e+12 -3.02003e+12 -4.25078e+12 -4.62611e+12 -5.51466e+12 -5.82915e+12 -7.44711e+12 -8.1449e+12 -4.77323e+12 -6.11714e+12 -5.0065e+12 -2.40104e+12 -3.79879e+12 -5.1279e+12 -3.67936e+12 -5.0843e+12 -6.65385e+12 -4.78222e+12 -3.51663e+12 -8.66533e+12 -9.50893e+12 -5.62146e+12 -3.55815e+12 -8.56535e+12 -3.3872e+12 -7.48754e+12 -2.98125e+12 -4.05922e+12 -4.09706e+12 -4.43616e+12 -7.08198e+12 -7.28744e+12 -5.97637e+12 -6.6014e+12 -5.70118e+12 -3.27079e+12 -5.18023e+12 -3.78664e+12 -5.65038e+12 -5.92673e+12 -6.95802e+12 -4.22261e+12 -5.26402e+12 -5.5736e+12 -5.70626e+12 -3.9141e+12 -4.23071e+12 -5.39674e+12 -4.99101e+12 -4.11794e+12 -6.7385e+12 -3.08664e+12 -5.88327e+12 -6.98517e+12 -4.05743e+12 -1.95473e+12 -3.09567e+12 -5.63204e+12 -3.667e+12 -4.10509e+12 -4.7432e+12 -2.73949e+12 -4.4152e+12 -9.59005e+12 -4.22075e+12 -6.56522e+12 -7.63626e+12 -4.02736e+12 -4.21366e+12 -590705000000.0 -3.94957e+12 -9.33218e+12 -4.78439e+12 -5.4169e+12 -4.87759e+12 -4.11569e+12 -4.35181e+12 -4.82143e+12 -3.76642e+12 -3.03853e+12 -4.00564e+12 -5.64663e+12 -5.78151e+12 -4.28177e+12 -6.87328e+12 -2.59868e+12 -6.3446e+12 -7.54597e+12 -5.67247e+12 -4.42008e+12 -4.81027e+12 -6.93226e+12 -6.98756e+12 -3.94453e+12 -2.51275e+12 -7.50032e+12 -6.39872e+12 -6.73184e+12 -4.96776e+12 -3.14774e+12 -4.52367e+12 -5.18377e+12 -3.23461e+12 -6.34201e+12 -2.95594e+12 -2.70824e+12 -7.27494e+12 -4.37058e+12 -3.3554e+12 -4.42334e+12 -5.07797e+12 -3.50778e+12 -2.19082e+12 -1.97821e+12 -2.70135e+12 -1.94531e+12 -176319000000.0 -114964000000.0 -12549700000.0 -12732500000.0 -13142300000.0 -15032200000.0 -21640600000.0 -15467400000.0 -12549700000.0 -24056000000.0 -13254200000.0 -18701900000.0 -32870800000.0 -28515800000.0 -54347200000.0 -37967000000.0 -249906000000.0 -164973000000.0 -12549700000.0 -92506200000.0 -5.02704e+12 -4.49643e+12 -3.23185e+12 -4.2023e+12 -4.01161e+12 -4.75234e+12 -3.31881e+12 -3.46104e+12 -3.98576e+12 -6.104e+12 -3.57071e+12 -5.06054e+12 -4.88073e+12 -6.25763e+12 -3.31866e+12 -2.56231e+12 -3.48389e+12 -3.91076e+12 -3.67963e+12 -3.29168e+12 -4.97291e+12 -3.4434e+12 -2.76559e+12 -2.79646e+12 -2.08227e+12 -2.85774e+12 -3.27267e+12 -5.56963e+12 -3.60072e+12 -2.64027e+12 -4.72092e+12 -2.90768e+12 -4.51375e+12 -3.52755e+12 -2.33717e+12 -5.81466e+12 -5.64591e+12 -6.26151e+12 -5.47026e+12 -6.77778e+12 -2.77785e+12 -2.38303e+12 -4.03012e+12 -3.14069e+12 -3.99337e+12 -5.47783e+12 -5.7003e+12 -2.17626e+12 -3.92139e+12 -4.68747e+12 -5.58026e+12 -5.10497e+12 -4.10871e+12 -2.8644e+12 -4.11089e+12 -4.01077e+12 -2.67021e+12 -4.9623e+12 -3.5873e+12 -5.31198e+12 -6.00943e+12 -5.31042e+12 -4.5586e+12 -3.3312e+12 -7.53367e+12 -4.89016e+12 -5.92496e+12 -2.38648e+12 -5.85714e+12 -4.11003e+12 -3.66865e+12 -6.41807e+12 -4.50296e+12 -5.78755e+12 -5.16749e+12 -5.51537e+12 -5.75354e+12 -5.58501e+12 -4.07092e+12 -5.11748e+12 -4.65318e+12 -5.53862e+12 -6.80248e+12 -1.47325e+12 -5.24767e+12 -3.05473e+12 -1.88391e+12 -4.79651e+12 -3.18889e+12 -3.95046e+12 -6.08305e+12 -3.64384e+12 -3.39139e+12 -5.21119e+12 -4.6678e+12 -8.15439e+12 -3.13749e+12 -3.74664e+12 -5.06819e+12 -3.01743e+12 -6.49298e+12 -5.67927e+12 -5.86234e+12 -5.51023e+12 -4.08009e+12 -3.58073e+12 -6.31463e+12 -3.15022e+12 -7.1651e+12 -6.62986e+12 -5.68054e+12 -2.66428e+12 -4.4119e+12 -4.17233e+12 -3.90511e+12 -2.78224e+12 -4.16939e+12 -5.30703e+12 -4.07857e+12 -5.96447e+12 -1.73727e+12 -12496300000.0 -12549700000.0 -44173500000.0 -12549700000.0 -12549700000.0 -14702300000.0 -12549700000.0 -14015300000.0 -19628100000.0 -18325700000.0 -21271600000.0 -23891100000.0 -45821300000.0 -38782300000.0 -51145800000.0 -17651900000.0 -76235000000.0 -77251100000.0 -201726000000.0 -60005500000.0 -182548000000.0 -151199000000.0 -4.47978e+12 -6.17212e+12 -3.96822e+12 -5.02552e+12 -3.05308e+12 -3.02059e+12 -3.50442e+12 -5.04773e+12 -3.19398e+12 -2.17242e+12 -3.89133e+12 -3.19407e+12 -3.88265e+12 -3.76367e+12 -4.4763e+12 -6.22207e+12 -5.62031e+12 -3.37438e+12 -4.59251e+12 -2.85102e+12 -7.65924e+12 -3.2493e+12 -4.62786e+12 -2.46673e+12 -5.04508e+12 -3.03982e+12 -2.29458e+12 -4.81138e+12 -5.39472e+12 -1.68335e+12 -5.51021e+12 -4.35256e+12 -6.20335e+12 -5.73601e+12 -2.14954e+12 -4.72789e+12 -4.05229e+12 -2.48728e+12 -6.3944e+12 -2.67859e+12 -3.70744e+12 -5.99822e+12 -4.36805e+12 -3.19061e+12 -2.68958e+12 -4.75546e+12 -4.98237e+12 -6.39677e+12 -2.89288e+12 -5.24667e+12 -3.97348e+12 -4.00388e+12 -2.69627e+12 -3.28271e+12 -2.81702e+12 -5.93773e+12 -3.85981e+12 -4.21685e+12 -5.48424e+12 -2.23933e+12 -3.5715e+12 -2.87018e+12 -4.49122e+12 -5.09203e+12 -4.61896e+12 -3.99535e+12 -3.21383e+12 -3.66711e+12 -1.95608e+12 -2.47871e+12 -2.27922e+12 -4.64569e+12 -5.67356e+12 -3.85983e+12 -2.39451e+12 -4.55631e+12 -3.79602e+12 -3.17939e+12 -3.43354e+12 -3.39558e+12 -2.83541e+12 -3.69067e+12 -3.89363e+12 -3.42667e+12 -2.37964e+12 -5.84285e+12 -2.81003e+12 -3.73658e+12 -4.74311e+12 -3.53007e+12 -3.91501e+12 -4.63699e+12 -2.53169e+12 -3.90722e+12 -4.76045e+12 -5.23354e+12 -1.20012e+12 -2.64148e+12 -3.99717e+12 -2.29911e+12 -4.63788e+12 -3.10295e+12 -4.98316e+12 -4.90886e+12 -4.48396e+12 -2.18015e+12 -16053600000.0 -20243300000.0 -14256100000.0 -13773800000.0 -14559800000.0 -13391500000.0 -17464400000.0 -14263000000.0 -40322400000.0 -39981700000.0 -14776000000.0 -25287700000.0 -27731300000.0 -23715500000.0 -33658600000.0 -42264500000.0 -13608000000.0 -50773100000.0 -25689700000.0 -27592800000.0 -4.07287e+12 -4.89321e+12 -4.01649e+12 -5.22378e+12 -3.43513e+12 -3.52509e+12 -2.29281e+12 -4.72244e+12 -2.80223e+12 -3.77723e+12 -5.98135e+12 -5.47381e+12 -5.66375e+12 -2.42031e+12 -6.14085e+12 -4.74771e+12 -3.91522e+12 -4.28001e+12 -3.2022e+12 -3.03655e+12 -3.34045e+12 -1.71275e+12 -3.32713e+12 -2.6725e+12 -3.29262e+12 -4.66278e+12 -2.66773e+12 -5.33641e+12 -3.47714e+12 -3.57517e+12 -2.9608e+12 -1.26967e+12 -4.24805e+12 -2.8875e+12 -4.23041e+12 -1.80604e+12 -3.16352e+12 -3.15434e+12 -3.78794e+12 -2.11084e+12 -3.91172e+12 -3.12426e+12 -3.85558e+12 -2.26546e+12 -4.56765e+12 -1.43691e+12 -3.29796e+12 -3.32441e+12 -3.20629e+12 -3.36121e+12 -4.11507e+12 -3.6909e+12 -3.6085e+12 -6.26954e+12 -2.38685e+12 -2.30094e+12 -3.20536e+12 -4.47082e+12 -1.81685e+12 -2.03369e+12 -2.78421e+12 -4.11051e+12 -1.88655e+12 -2.94777e+12 -2.772e+12 -2.50199e+12 -3.50256e+12 -4.2446e+12 -1.84682e+12 -2.33869e+12 -2.22029e+12 -1.40559e+12 -3.59204e+12 -2.63162e+12 -3.39884e+12 -2.85012e+12 -2.67644e+12 -3.96553e+12 -1.9708e+12 -2.72259e+12 -1.71919e+12 -2.93959e+12 -2.1201e+12 -3.00062e+12 -4.82072e+12 -2.53975e+12 -1.8958e+12 -2.67547e+12 -2.17091e+12 -2.56439e+12 -1.72736e+12 -3.38568e+12 -4.24503e+12 -2.99441e+12 -1.76106e+12 -2.17005e+12 -2.26953e+12 -3.14659e+12 -1.91894e+12 -2.26803e+12 -2.68817e+12 -1.09568e+12 -2.88326e+12 -3.21913e+12 -3.66172e+12 -1.99046e+12 -3.85075e+12 -2.76784e+12 -3.53376e+12 -2.95132e+12 -4.07885e+12 -2.85972e+12 -3.30037e+12 -3.23921e+12 -4.17455e+12 -2.82712e+12 -13014000000.0 -13259500000.0 -14677600000.0 -15304300000.0 -18709700000.0 -19011000000.0 -22660600000.0 -15082800000.0 -15572200000.0 -39500600000.0 -58011200000.0 -78943900000.0 -103120000000.0 -99290100000.0 -113541000000.0 -136555000000.0 -2.99476e+12 -2.56634e+12 -2.60175e+12 -1.55939e+12 -1.72698e+12 -3.03047e+12 -3.47437e+12 -1.28468e+12 -3.04689e+12 -3.35782e+12 -4.03163e+12 -3.33334e+12 -4.45945e+12 -2.48105e+12 -2.4344e+12 -2.32788e+12 -4.99593e+12 -3.73355e+12 -2.25813e+12 -2.1486e+12 -1.68481e+12 -4.09763e+12 -1.6911e+12 -1.54997e+12 -2.25987e+12 -4.24732e+12 -710817000000.0 -1.84326e+12 -3.38815e+12 -637513000000.0 -5.05174e+12 -3.504e+12 -4.04904e+12 -3.92536e+12 -5.01923e+12 -2.01124e+12 -3.16862e+12 -3.3718e+12 -2.93715e+12 -2.47626e+12 -2.87211e+12 -3.589e+12 -1.72666e+12 -2.23901e+12 -2.82425e+12 -3.47526e+12 -1.90331e+12 -2.57492e+12 -2.67248e+12 -3.91252e+12 -2.97347e+12 -3.67855e+12 -3.79732e+12 -3.12922e+12 -2.33301e+12 -2.5119e+12 -1.98009e+12 -2.28191e+12 -2.15483e+12 -163325000000.0 -2.56838e+12 -2.22854e+12 -1.94432e+12 -1.65303e+12 -3.37611e+12 -2.41983e+12 -2.0449e+12 -1.66411e+12 -1.80981e+12 -1.24598e+12 -2.70241e+12 -2.6731e+12 -3.31478e+12 -1.95334e+12 -4.35636e+12 -2.74783e+12 -3.60681e+12 -2.52601e+12 -3.30409e+12 -2.46623e+12 -4.87019e+12 -2.38259e+12 -3.71176e+12 -2.77907e+12 -4.79216e+12 -1.30391e+12 -4.00642e+12 -3.38575e+12 -4.0996e+12 -4.65204e+12 -2.93229e+12 -2.4896e+12 -2.6064e+12 -2.21389e+12 -1.95296e+12 -2.01847e+12 -1.72854e+12 -1.78527e+12 -1.7988e+12 -1.82972e+12 -1.079e+12 -3.77606e+12 -717190000000.0 -3.77569e+12 -2.22121e+12 -1.17606e+12 -1.9681e+12 -801565000000.0 -1.54948e+12 -3.53819e+12 -2.78831e+12 -5.82083e+12 -2.09549e+12 -4.09705e+12 -2.13556e+12 -1.94577e+12 -2.54115e+12 -3.0957e+12 -1.28209e+12 -3.09511e+12 -3.3387e+12 -1.74732e+12 -1.56987e+12 -2.14887e+12 -3.74444e+12 -2.8499e+12 -2.14891e+12 -2.73137e+12 -2.7301e+12 -4.04099e+12 -2.90368e+12 -3.87303e+12 -2.38041e+12 -2.77783e+12 -3.20549e+12 -3.00967e+12 -2.17487e+12 -3.29984e+12 -1.46826e+12 -2.62152e+12 -2.06792e+12 -2.95413e+12 -2.54479e+12 -3.46884e+12 -3.7102e+12 -1.83085e+12 -3.21357e+12 -2.91384e+12 -1.9571e+12 -1.21723e+12 -1.75311e+12 -1.77021e+12 -1.44583e+12 -2.2706e+12 -998445000000.0 -1.59887e+12 -1.76611e+12 -1.83888e+12 -1.09455e+12 -737910000000.0 -1.62211e+12 -1.84874e+12 -1.28917e+12 -1.24041e+12 -1.56112e+12 -1.52669e+12 -1.27767e+12 -1.50807e+12 -1.93698e+12 -2.36688e+12 -883868000000.0 -2.29728e+12 -1.88231e+12 -1.49457e+12 -1.17537e+12 -351345000000.0 -1.03214e+12 -2.68335e+12 -2.17206e+12 -2.27366e+12 -2.73977e+12 -1.29648e+12 -1.95999e+12 -1.71613e+12 -2.23828e+12 -2.12343e+12 -1.12618e+12 -3.86807e+12 -2.48546e+12 -1.78219e+12 -867444000000.0 -1.28177e+12 -1.28351e+12 -1.40005e+12 -1.39698e+12 -2.55361e+12 -1.10098e+12 -1.33721e+12 -2.10636e+12 -2.7496e+12 -1.17082e+12 -3.33839e+12 -2.2018e+12 -1.09116e+12 -2.41873e+12 -1.7961e+12 -1.81404e+12 -1.64237e+12 -2.13093e+12 -2.96467e+12 -1.48896e+12 -2.83964e+12 -1.62526e+12 -2.68791e+12 -2.22463e+12 -1.8666e+12 -1.02368e+12 -2.49426e+12 -1.8386e+12 -1.46125e+12 -1.47544e+12 -1.28413e+12 -1.27738e+12 -1.95974e+12 -3.32399e+12 -2.87872e+12 -2.11944e+12 -2.37478e+12 -2.66594e+12 -1.63523e+12 -2.54441e+12 -1.59248e+12 -1.229e+12 -2.22202e+12 -1.79416e+12 -1.5705e+12 -1.88389e+12 -2.51924e+12 -1.69638e+12 -3.56003e+12 -1.22308e+12 -3.47895e+12 -3.08461e+12 -2.85023e+12 -1.46568e+12 -2.42907e+12 -1.5969e+12 -2.83264e+12 -1.54391e+12 -1.42235e+12 -876544000000.0 -2.00436e+12 -278219000000.0 -1.93081e+12 -419667000000.0 -1.1036e+12 -1.71872e+12 -1.88446e+12 -1.14071e+12 -2.08336e+12 -1.00936e+12 -1.29397e+12 -1.06441e+12 -1.3491e+12 -1.3729e+12 -1.19976e+12 -2.33235e+12 -1.32815e+12 -1.66054e+12 -1.23259e+12 -1.81865e+12 -554868000000.0 -2.73177e+12 -1.37376e+12 -1.36183e+12 -1.08195e+12 -1.66174e+12 -1.64467e+12 -613837000000.0 -1.51229e+12 -1.16323e+12 -992410000000.0 -1.4292e+12 -2.07703e+12 -1.2075e+12 -730171000000.0 -1.41403e+12 -451669000000.0 -1.17623e+12 -2.46884e+12 -2.09107e+12 -1.76842e+12 -1.31434e+12 -1.94639e+12 -353299000000.0 -2.47079e+12 -1.25396e+12 -1.66915e+12 -1.06976e+12 -1.2262e+12 -510956000000.0 -694503000000.0 -2.12067e+12 -607524000000.0 -1.42919e+12 -2.29673e+12 -1.59217e+12 -2.38333e+12 -1.48234e+12 -2.74034e+12 -1.49152e+12 -1.47651e+12 -1.41534e+12 -2.11506e+12 -1.34865e+12 -1.78711e+12 -1.41964e+12 -1.08595e+12 -898434000000.0 -1.08996e+12 -1.15705e+12 -1.61185e+12 -2.09696e+12 -814459000000.0 -1.29423e+12 -1.19812e+12 -1.09679e+12 -2.2671e+12 -1.88658e+12 -1.91346e+12 -2.16087e+12 -2.54325e+12 -1.89684e+12 -1.23836e+12 -1.83075e+12 -1.93415e+12 -1.76274e+12 -871318000000.0 -1.15045e+12 -1.11397e+12 -769967000000.0 -1.03979e+12 -862888000000.0 -192696000000.0 -1.03388e+12 -496276000000.0 -411523000000.0 -783892000000.0 -671135000000.0 -1.07157e+12 -867491000000.0 -292996000000.0 -629518000000.0 -465116000000.0 -822647000000.0 -300377000000.0 -1.02595e+12 -1.15158e+12 -828379000000.0 -1.18102e+12 -417461000000.0 -913241000000.0 -1.13229e+12 -962710000000.0 -1.1136e+12 -684244000000.0 -976097000000.0 -858857000000.0 -530027000000.0 -1.14014e+12 -773774000000.0 -904496000000.0 -601318000000.0 -976818000000.0 -274678000000.0 -802675000000.0 -668951000000.0 -1.12335e+12 -1.58559e+12 -936696000000.0 -1.96497e+12 -374923000000.0 -1.09964e+12 -163822000000.0 -381155000000.0 -1.7855e+12 -645067000000.0 -253585000000.0 -1.55629e+12 -475480000000.0 -985796000000.0 -2.1537e+12 -1.84895e+12 -698474000000.0 -912859000000.0 -662080000000.0 -512040000000.0 -771108000000.0 -1.37974e+12 -861479000000.0 -1.51487e+12 -692194000000.0 -1.08976e+12 -466619000000.0 -1.96607e+12 -1.02413e+12 -1.39242e+12 -1.21404e+12 -394694000000.0 -721115000000.0 -1.03376e+12 -696067000000.0 -75867700000.0 -778727000000.0 -655621000000.0 -1.06393e+12 -538155000000.0 -766806000000.0 -1.11279e+12 -770901000000.0 -424211000000.0 -1.3239e+12 -995697000000.0 -561128000000.0 -333589000000.0 -1.11415e+12 -1.42652e+12 -478629000000.0 -692571000000.0 -1.088e+12 -260054000000.0 -80863800000.0 -589964000000.0 -722736000000.0 -454083000000.0 -259860000000.0 -233382000000.0 -144136000000.0 -323219000000.0 -237710000000.0 -140958000000.0 -244597000000.0 -258026000000.0 -347968000000.0 -159705000000.0 -257796000000.0 -159313000000.0 -125744000000.0 -121898000000.0 -473554000000.0 -568954000000.0 -200392000000.0 -386977000000.0 -188313000000.0 -310009000000.0 -229854000000.0 -428527000000.0 -218378000000.0 -613770000000.0 -378364000000.0 -260804000000.0 -103163000000.0 -577258000000.0 -370975000000.0 -286515000000.0 -301286000000.0 -160607000000.0 -236222000000.0 -85560900000.0 -171184000000.0 -190414000000.0 -275452000000.0 -264502000000.0 -209709000000.0 -206018000000.0 -244284000000.0 -394388000000.0 -351429000000.0 -352120000000.0 -185953000000.0 -242173000000.0 -204579000000.0 -425510000000.0 -305897000000.0 -502235000000.0 -532557000000.0 -264347000000.0 -121949000000.0 -206875000000.0 -144062000000.0 