# vtk DataFile Version 2.0
Time step 8
ASCII
DATASET UNSTRUCTURED_GRID
POINTS 5000 float
27704.8 221264.0 0
171835.0 222718.0 0
177746.0 222757.0 0
182952.0 221954.0 0
278873.0 222839.0 0
297322.0 222818.0 0
372017.0 221375.0 0
394011.0 222744.0 0
403606.0 221798.0 0
432514.0 222245.0 0
477085.0 222140.0 0
485856.0 221948.0 0
497601.0 222018.0 0
2397.19 224281.0 0
8376.72 223695.0 0
5985.61 227072.0 0
12439.0 223487.0 0
11029.1 227987.0 0
16769.6 222964.0 0
22243.6 224388.0 0
28464.0 227624.0 0
33124.5 223930.0 0
38104.7 224487.0 0
42625.1 224547.0 0
47500.0 224528.0 0
52137.1 224553.0 0
57018.4 223431.0 0
62763.5 224469.0 0
67994.7 224602.0 0
72691.8 223784.0 0
77500.0 224482.0 0
82500.0 224471.0 0
87415.9 223809.0 0
92500.0 224509.0 0
97225.4 224530.0 0
101325.0 224444.0 0
105989.0 223921.0 0
111914.0 224373.0 0
117828.0 224501.0 0
123308.0 224578.0 0
128322.0 224695.0 0
133405.0 223951.0 0
138102.0 224630.0 0
142500.0 224552.0 0
147500.0 224486.0 0
152501.0 224456.0 0
157578.0 224116.0 0
162539.0 224282.0 0
167028.0 223886.0 0
183473.0 227029.0 0
187418.0 223790.0 0
192500.0 224904.0 0
196122.0 224110.0 0
201765.0 223450.0 0
207659.0 224191.0 0
213003.0 223615.0 0
218136.0 224613.0 0
222488.0 224622.0 0
225835.0 224011.0 0
230427.0 223827.0 0
235813.0 224759.0 0
241171.0 223460.0 0
246495.0 225477.0 0
252658.0 223417.0 0
259020.0 223950.0 0
263755.0 224977.0 0
268739.0 223967.0 0
273936.0 224219.0 0
282033.0 226160.0 0
286331.0 224475.0 0
291721.0 224953.0 0
303642.0 223693.0 0
307757.0 226213.0 0
312124.0 224010.0 0
317925.0 224643.0 0
323242.0 224593.0 0
327581.0 224794.0 0
332206.0 224399.0 0
337223.0 224117.0 0
341023.0 225314.0 0
345919.0 223707.0 0
350749.0 225524.0 0
355354.0 224681.0 0
361884.0 223254.0 0
367989.0 224721.0 0
377029.0 223357.0 0
382615.0 224168.0 0
378869.0 227883.0 0
388126.0 223409.0 0
399148.0 224527.0 0
408553.0 222971.0 0
412494.0 224583.0 0
408315.0 227248.0 0
417500.0 224515.0 0
422675.0 222885.0 0
422171.0 227530.0 0
427278.0 224354.0 0
433310.0 227501.0 0
437537.0 224492.0 0
442165.0 223530.0 0
443163.0 227843.0 0
446318.0 223023.0 0
447531.0 227043.0 0
450719.0 223854.0 0
455262.0 223914.0 0
460263.0 223869.0 0
465820.0 224062.0 0
471653.0 223336.0 0
481372.0 224932.0 0
491672.0 223538.0 0
496843.0 227527.0 0
2269.17 229481.0 0
6773.71 232096.0 0
17247.2 228871.0 0
22940.6 230005.0 0
34916.3 229194.0 0
40285.3 229558.0 0
44411.3 229841.0 0
48197.4 228557.0 0
52500.0 229514.0 0
57958.3 228880.0 0
62819.9 229566.0 0
67505.3 229240.0 0
72175.0 228910.0 0
77500.0 229640.0 0
82116.1 229286.0 0
87886.5 228569.0 0
92500.0 229649.0 0
97200.7 229387.0 0
102467.0 229182.0 0
108263.0 228521.0 0
112500.0 229585.0 0
117500.0 229667.0 0
122500.0 229589.0 0
127718.0 229160.0 0
132486.0 229483.0 0
137520.0 229498.0 0
142768.0 228982.0 0
147001.0 229336.0 0
152012.0 229204.0 0
156943.0 228181.0 0
156287.0 232736.0 0
161374.0 229021.0 0
166589.0 228563.0 0
172913.0 228299.0 0
178316.0 228177.0 0
182227.0 232191.0 0
188544.0 228257.0 0
193519.0 229062.0 0
198207.0 228496.0 0
203928.0 229073.0 0
213695.0 228166.0 0
209361.0 229332.0 0
213289.0 232973.0 0
217645.0 229668.0 0
222080.0 229556.0 0
226860.0 228240.0 0
232239.0 229180.0 0
237753.0 229986.0 0
243351.0 229932.0 0
248405.0 229572.0 0
252623.0 230012.0 0
257212.0 228580.0 0
262328.0 229160.0 0
267183.0 228849.0 0
271686.0 228179.0 0
276935.0 228574.0 0
279887.0 232530.0 0
282807.0 229852.0 0
287500.0 229563.0 0
292816.0 229469.0 0
298207.0 228335.0 0
303060.0 229358.0 0
307481.0 229507.0 0
312501.0 229758.0 0
317499.0 229521.0 0
322474.0 229067.0 0
322516.0 233071.0 0
327500.0 229543.0 0
332500.0 229616.0 0
337685.0 229005.0 0
341411.0 232583.0 0
343276.0 228366.0 0
347700.0 228867.0 0
352653.0 229451.0 0
356059.0 232945.0 0
361518.0 228566.0 0
357845.0 229102.0 0
365198.0 228425.0 0
366553.0 232515.0 0
372998.0 228149.0 0
382052.0 229025.0 0
384391.0 232369.0 0
388305.0 228499.0 0
393485.0 228843.0 0
398068.0 229259.0 0
402934.0 227990.0 0
412797.0 228532.0 0
409205.0 232884.0 0
417465.0 229007.0 0
428082.0 229343.0 0
424047.0 232383.0 0
437500.0 229557.0 0
448144.0 232119.0 0
451889.0 228360.0 0
457110.0 228686.0 0
462424.0 229903.0 0
466631.0 228627.0 0
470216.0 229808.0 0
475204.0 228624.0 0
480829.0 230203.0 0
486628.0 228230.0 0
492113.0 230463.0 0
2238.62 235153.0 0
8056.99 237934.0 0
11862.0 233930.0 0
16326.7 234082.0 0
17695.5 237931.0 0
20499.5 233998.0 0
26969.0 234449.0 0
32578.5 234280.0 0
38162.7 234047.0 0
42875.1 234285.0 0
47518.8 233279.0 0
49065.3 238044.0 0
51753.8 234978.0 0
56502.9 234495.0 0
62060.8 234545.0 0
67633.8 234086.0 0
73620.3 234487.0 0
78231.1 234835.0 0
81975.1 234013.0 0
86980.1 234090.0 0
92531.5 234400.0 0
97545.5 233906.0 0
102630.0 234944.0 0
107932.0 233295.0 0
112500.0 234505.0 0
116755.0 234308.0 0
120860.0 234122.0 0
125887.0 233540.0 0
123394.0 238119.0 0
131182.0 235234.0 0
136468.0 235139.0 0
141031.0 233122.0 0
146347.0 234222.0 0
151868.0 235841.0 0
161734.0 234712.0 0
166546.0 236556.0 0
170046.0 233148.0 0
176342.0 233969.0 0
182226.0 237668.0 0
188094.0 234425.0 0
194301.0 234075.0 0
200014.0 233570.0 0
208095.0 234170.0 0
204282.0 234607.0 0
217709.0 234617.0 0
222592.0 233831.0 0
222192.0 238102.0 0
226907.0 233239.0 0
232481.0 234644.0 0
237506.0 234411.0 0
237675.0 237759.0 0
241836.0 235048.0 0
246920.0 233690.0 0
251874.0 234927.0 0
257658.0 233334.0 0
255924.0 238097.0 0
262645.0 233942.0 0
260386.0 237751.0 0
267413.0 233315.0 0
266413.0 238024.0 0
272968.0 233458.0 0
278357.0 238028.0 0
283578.0 234790.0 0
287240.0 234869.0 0
288750.0 238078.0 0
291072.0 233838.0 0
296784.0 233405.0 0
302269.0 234603.0 0
307724.0 233937.0 0
313227.0 235051.0 0
318230.0 234184.0 0
326846.0 234880.0 0
336521.0 233678.0 0
331891.0 234747.0 0
339814.0 237984.0 0
346827.0 233259.0 0
351899.0 234295.0 0
361279.0 233265.0 0
357403.0 236892.0 0
366686.0 237201.0 0
371168.0 234293.0 0
377722.0 233809.0 0
382820.0 237870.0 0
392429.0 233683.0 0
388389.0 235538.0 0
397220.0 233621.0 0
402844.0 234217.0 0
414343.0 235465.0 0
418999.0 233725.0 0
427676.0 235306.0 0
432211.0 233135.0 0
437269.0 234053.0 0
442244.0 233065.0 0
446671.0 237200.0 0
453996.0 233814.0 0
450955.0 237946.0 0
458843.0 234697.0 0
462943.0 234472.0 0
467500.0 234668.0 0
472381.0 233131.0 0
472753.0 238068.0 0
477800.0 234106.0 0
482653.0 234889.0 0
487534.0 235967.0 0
491538.0 234520.0 0
496610.0 234145.0 0
2182.12 239567.0 0
13398.5 238543.0 0
11885.4 242303.0 0
17104.2 243091.0 0
22362.1 238386.0 0
26913.9 240350.0 0
30142.0 243095.0 0
31997.6 238562.0 0
37506.0 239242.0 0
43169.4 239344.0 0
48322.4 243231.0 0
53807.2 239635.0 0
59178.5 239167.0 0
63576.8 238870.0 0
68047.2 239752.0 0
72593.3 239373.0 0
77071.1 238784.0 0
82139.3 239032.0 0
87334.5 239263.0 0
92275.2 239715.0 0
97749.0 239254.0 0
102768.0 240563.0 0
107708.0 238788.0 0
113078.0 238848.0 0
118118.0 238797.0 0
127500.0 239664.0 0
132663.0 240077.0 0
137720.0 239066.0 0
142519.0 239256.0 0
147972.0 238854.0 0
147006.0 243136.0 0
156812.0 238219.0 0
153356.0 240525.0 0
160415.0 239514.0 0
164431.0 240248.0 0
167072.0 243097.0 0
170835.0 239178.0 0
177030.0 240536.0 0
186632.0 240045.0 0
191648.0 239573.0 0
197206.0 238836.0 0
203029.0 238744.0 0
208744.0 240489.0 0
214377.0 238631.0 0
218774.0 239748.0 0
216370.0 243233.0 0
227668.0 238764.0 0
234163.0 239106.0 0
237940.0 242487.0 0
241955.0 239639.0 0
246443.0 238885.0 0
251559.0 240177.0 0
262660.0 241339.0 0
271800.0 239746.0 0
284344.0 239567.0 0
292973.0 239792.0 0
298928.0 239725.0 0
303967.0 239883.0 0
307500.0 239707.0 0
312196.0 239518.0 0
316251.0 238920.0 0
321073.0 238451.0 0
325883.0 239919.0 0
329934.0 238574.0 0
334417.0 240516.0 0
346096.0 239514.0 0
352847.0 239869.0 0
361741.0 239248.0 0
367153.0 242107.0 0
371930.0 239917.0 0
377877.0 241209.0 0
387339.0 239701.0 0
393008.0 240139.0 0
399479.0 239345.0 0
408047.0 238208.0 0
404281.0 239247.0 0
403095.0 243248.0 0
412302.0 239929.0 0
408179.0 243148.0 0
416886.0 239255.0 0
421329.0 240325.0 0
425681.0 238947.0 0
431077.0 239331.0 0
437255.0 238248.0 0
436006.0 243165.0 0
441970.0 238664.0 0
448179.0 242795.0 0
455620.0 239486.0 0
461410.0 239290.0 0
467175.0 239118.0 0
478979.0 239588.0 0
484831.0 240060.0 0
489145.0 240758.0 0
492143.0 238375.0 0
496766.0 240784.0 0
1520.93 244334.0 0
2733.25 248389.0 0
7115.9 244218.0 0
12590.8 246815.0 0
23001.4 243757.0 0
28591.3 247146.0 0
34793.2 243884.0 0
39692.0 243281.0 0
38987.0 248100.0 0
43517.9 245280.0 0
52978.3 245469.0 0
57145.0 243545.0 0
63027.7 243643.0 0
68301.0 244926.0 0
73254.8 243450.0 0
72119.5 247338.0 0
78160.7 243964.0 0
83451.2 244011.0 0
88254.9 244106.0 0
92500.0 244572.0 0
97310.9 244669.0 0
101269.0 244621.0 0
105667.0 244320.0 0
111345.0 243460.0 0
111101.0 248307.0 0
116676.0 244069.0 0
122125.0 243320.0 0
126923.0 244000.0 0
131237.0 244471.0 0
136586.0 243623.0 0
142211.0 244949.0 0
151780.0 245103.0 0
157910.0 244054.0 0
163698.0 244737.0 0
170991.0 245177.0 0
176725.0 246815.0 0
182881.0 244494.0 0
193639.0 243683.0 0
189145.0 244457.0 0
198215.0 244705.0 0
203147.0 243843.0 0
202568.0 248346.0 0
207348.0 245860.0 0
212134.0 244720.0 0
221228.0 243391.0 0
226320.0 245297.0 0
232018.0 243703.0 0
236163.0 247495.0 0
242882.0 244208.0 0
248082.0 244015.0 0
252928.0 244250.0 0
257757.0 243280.0 0
262886.0 246909.0 0
267643.0 243910.0 0
272717.0 245624.0 0
278475.0 244705.0 0
283566.0 244151.0 0
282092.0 248081.0 0
288828.0 243396.0 0
293481.0 244370.0 0
297494.0 245759.0 0
302639.0 244189.0 0
301884.0 248108.0 0
307212.0 244546.0 0
312037.0 244250.0 0
317102.0 243329.0 0
322431.0 244010.0 0
331103.0 244131.0 0
327297.0 244762.0 0
341426.0 243430.0 0
337073.0 244482.0 0
346880.0 245369.0 0
351799.0 245563.0 0
355749.0 247728.0 0
357893.0 243369.0 0
362962.0 244234.0 0
370304.0 245455.0 0
374661.0 245501.0 0
383268.0 243828.0 0
383561.0 247957.0 0
387377.0 248343.0 0
388207.0 243858.0 0
392248.0 246523.0 0
398002.0 245308.0 0
411981.0 247713.0 0
414591.0 243529.0 0
417881.0 244654.0 0
422553.0 245156.0 0
427455.0 243386.0 0
427206.0 247635.0 0
431120.0 244759.0 0
441864.0 244314.0 0
453925.0 244546.0 0
459312.0 244788.0 0
464819.0 244058.0 0
469415.0 245130.0 0
473600.0 243359.0 0
477633.0 246061.0 0
482072.0 244553.0 0
486838.0 244411.0 0
492216.0 244988.0 0
497481.0 246513.0 0
7839.1 250623.0 0
13566.4 252637.0 0
18046.4 248840.0 0
23686.5 249498.0 0
28680.2 252484.0 0
33502.6 249426.0 0
38389.2 253275.0 0
43540.4 249478.0 0
48473.4 249198.0 0
53996.4 250172.0 0
59595.2 248582.0 0
64755.1 249633.0 0
68199.6 249359.0 0
76315.7 248911.0 0
71719.2 252674.0 0
82052.7 249497.0 0
87992.0 249189.0 0
92734.0 249621.0 0
101577.0 249295.0 0
96995.3 249237.0 0
106513.0 249648.0 0
115433.0 248783.0 0
120914.0 249339.0 0
127481.0 249256.0 0
133329.0 248916.0 0
138747.0 249404.0 0
143759.0 249546.0 0
148403.0 249210.0 0
152805.0 249637.0 0
157004.0 249754.0 0
161399.0 248534.0 0
162081.0 253179.0 0
166783.0 248451.0 0
172273.0 250935.0 0
176995.0 251142.0 0
181278.0 251196.0 0
186780.0 249429.0 0
192333.0 248974.0 0
197782.0 250409.0 0
206576.0 250451.0 0
210640.0 249309.0 0
216355.0 249065.0 0
222656.0 249150.0 0
228324.0 250832.0 0
233992.0 251956.0 0
241053.0 249931.0 0
246509.0 250460.0 0
251008.0 248432.0 0
252242.0 252781.0 0
256841.0 249485.0 0
268299.0 249301.0 0
272893.0 250507.0 0
277848.0 250671.0 0
282777.0 253447.0 0
287104.0 249478.0 0
293019.0 248756.0 0
297876.0 251016.0 0
306240.0 249872.0 0
311489.0 249941.0 0
316969.0 248448.0 0
322429.0 249922.0 0
328070.0 249386.0 0
333961.0 248420.0 0
337780.0 251612.0 0
342423.0 249361.0 0
348186.0 250098.0 0
352494.0 249867.0 0
356169.0 252373.0 0
360632.0 249026.0 0
366611.0 249084.0 0
372601.0 250404.0 0
378633.0 248866.0 0
383628.0 252403.0 0
390952.0 251193.0 0
396023.0 251080.0 0
400359.0 249509.0 0
405262.0 248509.0 0
409360.0 253229.0 0
417797.0 249489.0 0
422946.0 250331.0 0
432172.0 249315.0 0
437030.0 248457.0 0
437956.0 253387.0 0
441832.0 249891.0 0
447102.0 248974.0 0
452664.0 249755.0 0
458163.0 250188.0 0
462539.0 249696.0 0
466509.0 248699.0 0
471777.0 249580.0 0
476991.0 250784.0 0
482337.0 249901.0 0
487793.0 249252.0 0
492556.0 250622.0 0
497486.0 251584.0 0
3017.21 254173.0 0
8684.91 256548.0 0
18317.9 256363.0 0
23797.4 255191.0 0
33599.7 255103.0 0
43085.0 253720.0 0
49602.7 254056.0 0
46369.3 257911.0 0
53641.9 254988.0 0
58539.3 254463.0 0
63382.8 253609.0 0
66977.7 254030.0 0
68575.6 257354.0 0
78005.5 254155.0 0
83441.8 255432.0 0
88092.3 254216.0 0
93012.0 254249.0 0
97937.3 253733.0 0
98404.5 257918.0 0
102111.0 255115.0 0
105880.0 254073.0 0
105553.0 258558.0 0
110853.0 253611.0 0
116725.0 253546.0 0
126540.0 254267.0 0
122727.0 254930.0 0
131398.0 253681.0 0
128460.0 257665.0 0
135402.0 255508.0 0
139895.0 254928.0 0
145221.0 254104.0 0
150940.0 254216.0 0
156947.0 255109.0 0
167210.0 253544.0 0
167191.0 258507.0 0
171481.0 256230.0 0
176211.0 254886.0 0
180997.0 256803.0 0
185797.0 254729.0 0
191577.0 254860.0 0
197331.0 255942.0 0
202613.0 253743.0 0
207583.0 254461.0 0
212124.0 253695.0 0
217211.0 255445.0 0
223338.0 255116.0 0
228955.0 256844.0 0
233378.0 256414.0 0
238426.0 255617.0 0
243821.0 255080.0 0
248829.0 254689.0 0
251444.0 258548.0 0
255520.0 255556.0 0
262555.0 254122.0 0
268728.0 254270.0 0
273462.0 255039.0 0
278373.0 256057.0 0
287928.0 255485.0 0
293155.0 254088.0 0
297691.0 256252.0 0
302599.0 253923.0 0
308380.0 254847.0 0
313173.0 254538.0 0
317470.0 254069.0 0
326073.0 253879.0 0
322188.0 255477.0 0
330284.0 254439.0 0
335340.0 254994.0 0
340601.0 255374.0 0
346161.0 256319.0 0
351238.0 254300.0 0
356472.0 257790.0 0
360972.0 254889.0 0
366582.0 254819.0 0
371268.0 255348.0 0
377351.0 255979.0 0
387812.0 255702.0 0
392729.0 255617.0 0
398303.0 256639.0 0
403758.0 254522.0 0
414291.0 253775.0 0
417574.0 253616.0 0
416942.0 257561.0 0
420743.0 254019.0 0
427713.0 254059.0 0
433377.0 253638.0 0
432904.0 258260.0 0
442750.0 254734.0 0
448457.0 254855.0 0
453912.0 254638.0 0
458424.0 255162.0 0
462838.0 254711.0 0
467658.0 253700.0 0
472857.0 255162.0 0
479769.0 254859.0 0
484096.0 254748.0 0
488347.0 254457.0 0
492494.0 254779.0 0
497785.0 256327.0 0
2142.5 259984.0 0
7173.72 262578.0 0
13672.4 260055.0 0
18546.1 261285.0 0
22254.2 259653.0 0
27407.3 259916.0 0
32263.7 259358.0 0
32582.0 262816.0 0
37303.9 259759.0 0
42429.7 261181.0 0
51377.7 260291.0 0
57343.0 260580.0 0
63556.7 258779.0 0
73473.6 260345.0 0
79735.0 259663.0 0
85035.4 260348.0 0
90075.6 258746.0 0
94922.7 260707.0 0
101204.0 261175.0 0
111258.0 259961.0 0
118352.0 259086.0 0
123944.0 259442.0 0
133317.0 259773.0 0
137493.0 262895.0 0
137821.0 258808.0 0
141879.0 259788.0 0
147392.0 259422.0 0
152961.0 259467.0 0
157274.0 260913.0 0
161848.0 258725.0 0
170793.0 260231.0 0
173378.0 263442.0 0
176945.0 259870.0 0
182404.0 261599.0 0
186950.0 259737.0 0
191590.0 260160.0 0
196410.0 261396.0 0
201778.0 259329.0 0
207310.0 259439.0 0
213149.0 259340.0 0
219864.0 260575.0 0
224971.0 260413.0 0
228703.0 260941.0 0
232573.0 260153.0 0
237060.0 260877.0 0
242022.0 259185.0 0
246484.0 259094.0 0
257777.0 260802.0 0
262739.0 260176.0 0
268234.0 259885.0 0
274033.0 259981.0 0
279353.0 261562.0 0
284618.0 259628.0 0
289583.0 260444.0 0
293258.0 258718.0 0
296728.0 261220.0 0
302405.0 259850.0 0
307427.0 260210.0 0
311942.0 258670.0 0
316678.0 258645.0 0
321213.0 260570.0 0
317298.0 263485.0 0
326334.0 259150.0 0
331642.0 259512.0 0
337258.0 260455.0 0
342892.0 260746.0 0
346795.0 260916.0 0
351314.0 259465.0 0
349677.0 263651.0 0
361896.0 260975.0 0
367175.0 259673.0 0
371846.0 259815.0 0
382329.0 259883.0 0
378484.0 262577.0 0
386986.0 260423.0 0
391529.0 260134.0 0
395761.0 261098.0 0
400446.0 261754.0 0
405774.0 260395.0 0
411504.0 258721.0 0
417337.0 262667.0 0
422645.0 258918.0 0
428207.0 260141.0 0
438599.0 259022.0 0
444554.0 259677.0 0
450356.0 261369.0 0
455482.0 259061.0 0
461142.0 260087.0 0
468728.0 258887.0 0
465693.0 261383.0 0
473163.0 260734.0 0
477810.0 259452.0 0
482453.0 259564.0 0
486666.0 258727.0 0
486835.0 262922.0 0
490715.0 258915.0 0
495058.0 260306.0 0
2208.42 264519.0 0
6938.79 268413.0 0
12400.2 266106.0 0
18000.4 265712.0 0
23217.0 264488.0 0
28989.7 265943.0 0
36066.1 265543.0 0
41108.3 265434.0 0
46977.8 264377.0 0
52795.1 264984.0 0
57560.2 266724.0 0
62148.1 264179.0 0
67911.8 264204.0 0
73621.7 267043.0 0
78147.6 264301.0 0
82870.8 265128.0 0
88784.7 264892.0 0
93968.1 265436.0 0
97852.8 263939.0 0
101273.0 265452.0 0
97486.5 268321.0 0
105742.0 264036.0 0
110271.0 265334.0 0
107228.0 268773.0 0
115540.0 264890.0 0
121650.0 264214.0 0
128194.0 263773.0 0
133679.0 264602.0 0
142025.0 265049.0 0
148119.0 266000.0 0
153557.0 264277.0 0
158015.0 265090.0 0
163128.0 264558.0 0
166878.0 268593.0 0
168462.0 263739.0 0
177740.0 264323.0 0
181574.0 266145.0 0
186424.0 264993.0 0
191534.0 264667.0 0
195885.0 267115.0 0
201139.0 264907.0 0
207158.0 265501.0 0
212138.0 264242.0 0
216848.0 265402.0 0
221639.0 266023.0 0
226123.0 264940.0 0
231066.0 264289.0 0
235914.0 265500.0 0
241323.0 264110.0 0
246761.0 264016.0 0
252450.0 264034.0 0
257588.0 266002.0 0
263832.0 265639.0 0
269716.0 265517.0 0
274688.0 264930.0 0
279812.0 266913.0 0
283887.0 264057.0 0
284132.0 268461.0 0
288461.0 265454.0 0
292520.0 263867.0 0
293423.0 268417.0 0
298542.0 266089.0 0
303470.0 264871.0 0
307597.0 264755.0 0
312052.0 263903.0 0
317053.0 268359.0 0
323357.0 265499.0 0
328030.0 263772.0 0
328870.0 268458.0 0
332756.0 264590.0 0
337427.0 265761.0 0
342119.0 264671.0 0
345698.0 264699.0 0
355515.0 263992.0 0
360814.0 266142.0 0
366731.0 264390.0 0
373611.0 264950.0 0
378326.0 267064.0 0
383175.0 265526.0 0
388156.0 264806.0 0
392654.0 264489.0 0
397220.0 264996.0 0
403487.0 265737.0 0
412620.0 263910.0 0
408205.0 265157.0 0
421045.0 264932.0 0
418442.0 268263.0 0
425303.0 264125.0 0
431989.0 263905.0 0
428720.0 267817.0 0
437679.0 265242.0 0
443638.0 265228.0 0
450568.0 267784.0 0
454352.0 264312.0 0
458631.0 265329.0 0
463673.0 265212.0 0
469045.0 264263.0 0
474101.0 265219.0 0
478826.0 264391.0 0
483510.0 265799.0 0
491658.0 264913.0 0
497412.0 264948.0 0
2115.9 268874.0 0
3065.41 273970.0 0
8502.35 272909.0 0
12504.2 271499.0 0
16008.2 269505.0 0
20035.7 269936.0 0
16315.5 273726.0 0
24876.3 269713.0 0
32147.0 270294.0 0
37598.8 271186.0 0
43268.9 269932.0 0
48640.4 270361.0 0
53510.9 269492.0 0
57361.9 271615.0 0
62542.0 269450.0 0
62584.0 273871.0 0
67212.4 269525.0 0
71148.1 271822.0 0
79005.1 269793.0 0
84284.1 269825.0 0
82279.6 273530.0 0
86393.2 273624.0 0
88354.4 269912.0 0
92508.1 269423.0 0
96638.4 273435.0 0
102491.0 269853.0 0
111879.0 269487.0 0
117992.0 270401.0 0
123264.0 269439.0 0
127779.0 269150.0 0
128428.0 273642.0 0
132833.0 269666.0 0
138538.0 268983.0 0
143157.0 269856.0 0
147918.0 271969.0 0
151867.0 269792.0 0
156557.0 269908.0 0
161573.0 269510.0 0
162809.0 273650.0 0
173208.0 269640.0 0
178565.0 269812.0 0
183637.0 270714.0 0
189459.0 269815.0 0
193912.0 270934.0 0
199708.0 269844.0 0
203835.0 270455.0 0
208229.0 270670.0 0
212713.0 268896.0 0
212077.0 273850.0 0
219006.0 270186.0 0
223283.0 269573.0 0
227639.0 269676.0 0
232482.0 269227.0 0
238043.0 269816.0 0
242556.0 270540.0 0
246957.0 268838.0 0
246179.0 273824.0 0
252156.0 270277.0 0
257496.0 270300.0 0
262314.0 271821.0 0
267717.0 269774.0 0
271779.0 269299.0 0
272519.0 273187.0 0
276111.0 269767.0 0
283099.0 273850.0 0
288381.0 270801.0 0
298704.0 270856.0 0
302500.0 269571.0 0
306853.0 268707.0 0
306793.0 273429.0 0
311918.0 269576.0 0
316153.0 273229.0 0
325018.0 269326.0 0
321490.0 270385.0 0
334373.0 270157.0 0
339784.0 269558.0 0
344432.0 268920.0 0
343422.0 273817.0 0
350392.0 269280.0 0
356946.0 270962.0 0
363445.0 270769.0 0
369561.0 269210.0 0
375038.0 270272.0 0
379818.0 271012.0 0
384046.0 270792.0 0
387017.0 273795.0 0
388229.0 269281.0 0
393253.0 269533.0 0
397988.0 269168.0 0
396110.0 273622.0 0
402072.0 270043.0 0
406611.0 269732.0 0
412688.0 269795.0 0
417703.0 273708.0 0
423594.0 269247.0 0
433795.0 270353.0 0
440090.0 271292.0 0
445389.0 269921.0 0
448573.0 272414.0 0
455958.0 269451.0 0
458448.0 273212.0 0
459869.0 269763.0 0
463038.0 269263.0 0
463140.0 273448.0 0
467294.0 269550.0 0
472372.0 269548.0 0
477689.0 269735.0 0
482591.0 270052.0 0
487430.0 268996.0 0
485785.0 273693.0 0
492491.0 270128.0 0
497813.0 269706.0 0
7497.06 277322.0 0
12178.7 276043.0 0
21176.1 274839.0 0
27316.3 275116.0 0
32664.1 274338.0 0
32688.9 278453.0 0
37465.1 276542.0 0
42021.6 275025.0 0
47919.3 275852.0 0
53255.7 274464.0 0
51625.9 278960.0 0
58957.1 275429.0 0
56167.7 278899.0 0
67009.6 273965.0 0
71587.5 275978.0 0
76340.9 274964.0 0
80945.6 277821.0 0
91260.6 274413.0 0
101343.0 274499.0 0
98487.1 278768.0 0
106466.0 273932.0 0
103723.0 278814.0 0
112420.0 274991.0 0
118101.0 275797.0 0
123269.0 274682.0 0
128503.0 278806.0 0
133286.0 275136.0 0
138750.0 274707.0 0
143882.0 273897.0 0
146843.0 276229.0 0
143134.0 278029.0 0
152565.0 274295.0 0
150610.0 278256.0 0
157695.0 274476.0 0
155577.0 278401.0 0
161123.0 278530.0 0
168078.0 274026.0 0
172537.0 275409.0 0
177268.0 275008.0 0
182437.0 275641.0 0
187107.0 274715.0 0
192274.0 274952.0 0
197933.0 274572.0 0
202901.0 274444.0 0
203737.0 278596.0 0
207307.0 275405.0 0
217223.0 275278.0 0
222458.0 273929.0 0
227466.0 275131.0 0
232546.0 273931.0 0
231990.0 278163.0 0
237199.0 274085.0 0
235990.0 278306.0 0
241444.0 274958.0 0
250474.0 275211.0 0
254656.0 274798.0 0
258916.0 275448.0 0
262603.0 278480.0 0
267387.0 275100.0 0
272405.0 277835.0 0
277168.0 275042.0 0
288079.0 275359.0 0
292580.0 273995.0 0
297181.0 274774.0 0
297889.0 278630.0 0
301891.0 274544.0 0
306644.0 278292.0 0
311461.0 274929.0 0
320467.0 274768.0 0
326186.0 274128.0 0
332614.0 276147.0 0
338306.0 275142.0 0
345139.0 278269.0 0
348184.0 274655.0 0
353253.0 275285.0 0
358670.0 276379.0 0
363270.0 276249.0 0
367713.0 274822.0 0
372441.0 274355.0 0
377455.0 275651.0 0
382300.0 274015.0 0
382778.0 278716.0 0
391490.0 274063.0 0
388904.0 278677.0 0
397098.0 278520.0 0
401209.0 274876.0 0
406368.0 274587.0 0
411676.0 276103.0 0
422184.0 276654.0 0
427969.0 274128.0 0
435865.0 275536.0 0
440095.0 276216.0 0
444803.0 275010.0 0
448857.0 275535.0 0
447859.0 279076.0 0
453147.0 274243.0 0
457723.0 278070.0 0
463075.0 278610.0 0
468188.0 274581.0 0
473499.0 274702.0 0
478405.0 274629.0 0
482260.0 274750.0 0
487724.0 278765.0 0
490460.0 274050.0 0
493274.0 278842.0 0
495451.0 274021.0 0
497800.0 278353.0 0
2823.21 279857.0 0
9507.92 281235.0 0
12311.0 279689.0 0
16944.0 279276.0 0
23349.6 280285.0 0
28268.5 280216.0 0
32473.6 283016.0 0
37901.0 282180.0 0
44119.5 280286.0 0
48897.5 281972.0 0
58050.4 283713.0 0
61421.9 279447.0 0
67270.7 279472.0 0
73008.1 280459.0 0
77887.6 281500.0 0
86840.8 279224.0 0
92981.0 280438.0 0
101910.0 283141.0 0
108586.0 279292.0 0
113725.0 280356.0 0
118772.0 281075.0 0
123647.0 279704.0 0
128565.0 283966.0 0
133150.0 279645.0 0
137644.0 280076.0 0
141687.0 282581.0 0
146707.0 280261.0 0
150825.0 283960.0 0
156893.0 283595.0 0
167139.0 280077.0 0
172923.0 279692.0 0
178075.0 280510.0 0
183420.0 280454.0 0
189229.0 279461.0 0
192425.0 284031.0 0
194162.0 279484.0 0
199039.0 280164.0 0
202777.0 283701.0 0
208216.0 280455.0 0
213070.0 279031.0 0
217767.0 280587.0 0
222500.0 279624.0 0
227500.0 279708.0 0
231703.0 282341.0 0
241031.0 279331.0 0
246239.0 279616.0 0
252679.0 280010.0 0
257728.0 279144.0 0
257369.0 282484.0 0
268585.0 279814.0 0
265479.0 283615.0 0
276561.0 280065.0 0
282696.0 279636.0 0
285456.0 283899.0 0
287701.0 279752.0 0
290184.0 283581.0 0
293205.0 279450.0 0
297158.0 283817.0 0
302001.0 280733.0 0
306678.0 283670.0 0
311470.0 280148.0 0
317266.0 279063.0 0
322981.0 279338.0 0
326816.0 279169.0 0
331445.0 280544.0 0
328228.0 282681.0 0
335515.0 281112.0 0
340650.0 279914.0 0
345959.0 283402.0 0
349876.0 279279.0 0
355475.0 281281.0 0
361558.0 280937.0 0
367137.0 280117.0 0
372533.0 279256.0 0
377552.0 281378.0 0
373348.0 284110.0 0
393287.0 280829.0 0
402170.0 280494.0 0
407366.0 279283.0 0
411877.0 281388.0 0
416905.0 279397.0 0
421489.0 281218.0 0
426012.0 280198.0 0
432113.0 279390.0 0
437908.0 280405.0 0
443257.0 280041.0 0
452675.0 280110.0 0
458214.0 283881.0 0
463484.0 283419.0 0
468204.0 279676.0 0
473084.0 279780.0 0
473532.0 284197.0 0
478110.0 279469.0 0
482747.0 279784.0 0
482727.0 283983.0 0
492415.0 283772.0 0
497560.0 282984.0 0
2464.03 285186.0 0
7173.95 284696.0 0
11978.7 284995.0 0
11997.7 289179.0 0
17412.1 285541.0 0
23175.5 286317.0 0
28577.7 284712.0 0
33978.0 288205.0 0
39322.5 287154.0 0
43213.3 285707.0 0
47644.9 285781.0 0
52762.5 284715.0 0
59261.3 288823.0 0
63982.0 285090.0 0
69107.3 285780.0 0
71540.2 284126.0 0
75253.6 286014.0 0
81092.4 285501.0 0
87074.3 285870.0 0
92016.6 284994.0 0
96735.7 284571.0 0
102248.0 289001.0 0
107440.0 285364.0 0
113355.0 285340.0 0
118399.0 286321.0 0
123380.0 284757.0 0
132413.0 289157.0 0
133514.0 284176.0 0
137915.0 285690.0 0
142229.0 289223.0 0
145563.0 285070.0 0
147671.0 288891.0 0
157415.0 288693.0 0
162738.0 284570.0 0
167188.0 288667.0 0
170886.0 284514.0 0
175229.0 286214.0 0
179467.0 285242.0 0
182996.0 284408.0 0
183396.0 288357.0 0
187056.0 284461.0 0
190142.0 289104.0 0
197763.0 285806.0 0
203201.0 289120.0 0
206821.0 285741.0 0
211021.0 284473.0 0
215659.0 284954.0 0
221080.0 285029.0 0
227021.0 285087.0 0
237734.0 284166.0 0
243993.0 284869.0 0
242586.0 289136.0 0
249042.0 284594.0 0
246912.0 289000.0 0
254330.0 286077.0 0
260306.0 284526.0 0
262599.0 288775.0 0
268073.0 288852.0 0
272353.0 284133.0 0
279441.0 284780.0 0
283832.0 288109.0 0
288900.0 288625.0 0
293366.0 286827.0 0
302088.0 285840.0 0
312353.0 286208.0 0
318362.0 284886.0 0
323520.0 284285.0 0
327626.0 288448.0 0
332472.0 285212.0 0
337264.0 285580.0 0
341183.0 284461.0 0
340826.0 288578.0 0
351311.0 285485.0 0
359121.0 285645.0 0
364386.0 285412.0 0
368969.0 284754.0 0
377239.0 286455.0 0
373280.0 289171.0 0
381325.0 284595.0 0
386926.0 284818.0 0
393298.0 285673.0 0
397679.0 288605.0 0
398473.0 284168.0 0
402839.0 285417.0 0
407713.0 284600.0 0
415716.0 285211.0 0
417927.0 289193.0 0
421027.0 286393.0 0
424534.0 284229.0 0
428890.0 284752.0 0
432132.0 289180.0 0
434036.0 284423.0 0
438646.0 285581.0 0
442718.0 284337.0 0
447646.0 284333.0 0
452945.0 285119.0 0
463535.0 287941.0 0
468145.0 284992.0 0
471758.0 287900.0 0
478067.0 284625.0 0
480957.0 287945.0 0
487412.0 284321.0 0
485505.0 288934.0 0
495981.0 288237.0 0
2470.6 290169.0 0
7676.9 289693.0 0
15755.6 290626.0 0
20838.9 291349.0 0
26802.5 290445.0 0
30835.3 293798.0 0
39933.8 291398.0 0
35791.4 293950.0 0
44595.8 290185.0 0
43408.0 294217.0 0
48640.6 289500.0 0
47650.9 293532.0 0
52930.3 289881.0 0
51693.4 293974.0 0
56749.8 294091.0 0
63845.5 290222.0 0
62492.8 294208.0 0
67535.3 289354.0 0
71618.0 289414.0 0
78559.9 289369.0 0
78040.6 293426.0 0
82575.0 290473.0 0
87238.0 291452.0 0
92115.6 289631.0 0
97114.8 289672.0 0
106970.0 291287.0 0
111038.0 289729.0 0
115768.0 290920.0 0
121037.0 290945.0 0
126542.0 289466.0 0
137108.0 290199.0 0
146211.0 293826.0 0
152531.0 289674.0 0
156034.0 293631.0 0
161974.0 290112.0 0
172447.0 289705.0 0
178101.0 290514.0 0
186076.0 292736.0 0
195146.0 290468.0 0
199513.0 291086.0 0
207685.0 289871.0 0
204734.0 293665.0 0
212385.0 289184.0 0
212037.0 293841.0 0
217606.0 289682.0 0
223393.0 289733.0 0
222072.0 294268.0 0
227734.0 290052.0 0
232789.0 289419.0 0
232266.0 293699.0 0
238491.0 290117.0 0
241825.0 293652.0 0
247127.0 294102.0 0
251678.0 290558.0 0
257604.0 290518.0 0
261679.0 294135.0 0
266726.0 293428.0 0
273416.0 290780.0 0
279531.0 290941.0 0
284936.0 293183.0 0
290044.0 293468.0 0
293674.0 291037.0 0
298695.0 289709.0 0
297332.0 294117.0 0
302691.0 289680.0 0
302370.0 292823.0 0
307504.0 289336.0 0
307426.0 293266.0 0
313000.0 292000.0 0
316421.0 289613.0 0
321321.0 289877.0 0
316956.0 294123.0 0
326275.0 293826.0 0
333505.0 290227.0 0
337874.0 291433.0 0
346495.0 289971.0 0
352491.0 290410.0 0
358092.0 291264.0 0
362744.0 289285.0 0
367663.0 289976.0 0
372698.0 293859.0 0
377797.0 291172.0 0
383167.0 290088.0 0
388920.0 290648.0 0
393934.0 290927.0 0
402113.0 290064.0 0
407661.0 290400.0 0
413456.0 290517.0 0
420896.0 290547.0 0
422271.0 294354.0 0
426181.0 290202.0 0
436791.0 289481.0 0
442566.0 289314.0 0
438825.0 293591.0 0
448617.0 291291.0 0
453316.0 289267.0 0
453414.0 294160.0 0
458393.0 290396.0 0
467857.0 290305.0 0
472133.0 293165.0 0
476312.0 289636.0 0
481456.0 293216.0 0
487249.0 293835.0 0
490601.0 289694.0 0
497291.0 293851.0 0
3148.42 295296.0 0
8204.27 294795.0 0
12711.1 294471.0 0
17363.4 295389.0 0
21959.1 295920.0 0
26143.6 295212.0 0
39744.0 297198.0 0
47199.0 298812.0 0
52670.1 298143.0 0
67213.1 294627.0 0
72562.3 294578.0 0
78888.8 298163.0 0
82706.2 294896.0 0
86466.5 295530.0 0
90256.9 294763.0 0
95319.0 294682.0 0
101218.0 294658.0 0
106672.0 296284.0 0
111895.0 294544.0 0
118244.0 295602.0 0
123192.0 295381.0 0
127570.0 294600.0 0
132159.0 294526.0 0
128373.0 299221.0 0
137186.0 294794.0 0
132868.0 298851.0 0
141642.0 296135.0 0
151336.0 296219.0 0
161818.0 296400.0 0
169277.0 295027.0 0
175971.0 296306.0 0
181612.0 295414.0 0
190847.0 294379.0 0
189209.0 298896.0 0
195614.0 295129.0 0
200325.0 296513.0 0
208540.0 295342.0 0
206810.0 298020.0 0
216897.0 295073.0 0
221354.0 299103.0 0
227072.0 294598.0 0
231341.0 297999.0 0
236403.0 294888.0 0
240829.0 298876.0 0
248558.0 298929.0 0
251788.0 294805.0 0
252857.0 298542.0 0
256440.0 295701.0 0
260219.0 298781.0 0
265531.0 298597.0 0
270847.0 295851.0 0
276593.0 295626.0 0
282008.0 298684.0 0
288402.0 298289.0 0
293680.0 295623.0 0
298773.0 298533.0 0
304663.0 297352.0 0
310465.0 295413.0 0
309369.0 299040.0 0
314060.0 297305.0 0
317913.0 299034.0 0
321630.0 295838.0 0
327627.0 298404.0 0
331710.0 295180.0 0
336566.0 295348.0 0
341682.0 294465.0 0
346564.0 295638.0 0
350444.0 294399.0 0
351670.0 298954.0 0
354543.0 295403.0 0
357536.0 299149.0 0
363468.0 294553.0 0
368571.0 295194.0 0
368500.0 299449.0 0
377040.0 296305.0 0
381391.0 294609.0 0
385886.0 295149.0 0
382654.0 298494.0 0
391635.0 295669.0 0
397862.0 294506.0 0
395866.0 299191.0 0
403463.0 295061.0 0
405892.0 299434.0 0
408190.0 295523.0 0
412624.0 295555.0 0
417330.0 294274.0 0
422152.0 299237.0 0
427030.0 296726.0 0
433099.0 295133.0 0
438023.0 298997.0 0
443889.0 294847.0 0
448494.0 297132.0 0
453472.0 299387.0 0
457639.0 296111.0 0
462823.0 294928.0 0
467885.0 295056.0 0
472251.0 298230.0 0
476405.0 294574.0 0
478207.0 299278.0 0
483484.0 298273.0 0
487765.0 298486.0 0
492174.0 296139.0 0
2742.57 300722.0 0
8059.36 299817.0 0
14963.6 299667.0 0
11780.6 302297.0 0
19992.7 300236.0 0
25465.7 300086.0 0
32711.4 300524.0 0
42456.9 302045.0 0
47183.8 303941.0 0
52162.9 303506.0 0
57795.3 300301.0 0
63781.5 299529.0 0
69594.9 299902.0 0
74703.0 300384.0 0
77854.8 304431.0 0
82784.6 299787.0 0
83341.1 304498.0 0
87417.7 299998.0 0
93063.7 300051.0 0
98802.8 299954.0 0
103861.0 300363.0 0
107180.0 300313.0 0
111584.0 300381.0 0
107420.0 303558.0 0
116298.0 303147.0 0
120200.0 300372.0 0
124009.0 299801.0 0
125991.0 304228.0 0
131854.0 303597.0 0
136873.0 299486.0 0
137489.0 304351.0 0
141100.0 300327.0 0
146479.0 299767.0 0
151871.0 301586.0 0
156625.0 299867.0 0
160878.0 301977.0 0
166613.0 301246.0 0
172316.0 299956.0 0
170896.0 303541.0 0
175956.0 303965.0 0
179220.0 299910.0 0
184082.0 300666.0 0
193582.0 299646.0 0
189037.0 304138.0 0
197430.0 299699.0 0
194165.0 304543.0 0
202994.0 300194.0 0
199391.0 304037.0 0
207410.0 302899.0 0
212428.0 299452.0 0
217204.0 299583.0 0
221722.0 303419.0 0
226130.0 299623.0 0
232346.0 304066.0 0
235970.0 299799.0 0
238331.0 303969.0 0
244964.0 303248.0 0
251587.0 303663.0 0
256283.0 300688.0 0
261883.0 303423.0 0
270027.0 302673.0 0
272952.0 299415.0 0
275721.0 299593.0 0
277960.0 302669.0 0
288741.0 303624.0 0
293580.0 300296.0 0
297081.0 303367.0 0
302857.0 303767.0 0
312849.0 301988.0 0
318280.0 304334.0 0
323189.0 301094.0 0
328743.0 303581.0 0
332500.0 299688.0 0
336847.0 299951.0 0
342014.0 300033.0 0
344771.0 304472.0 0
347054.0 300021.0 0
349812.0 304025.0 0
354301.0 302745.0 0
363221.0 300889.0 0
368136.0 304149.0 0
373402.0 300617.0 0
379214.0 300668.0 0
382513.0 304222.0 0
387108.0 300761.0 0
392354.0 301804.0 0
396213.0 304564.0 0
400707.0 299740.0 0
411189.0 300717.0 0
416945.0 299990.0 0
426386.0 302277.0 0
431451.0 300860.0 0
443919.0 300693.0 0
448996.0 301488.0 0
458287.0 300278.0 0
456181.0 304034.0 0
462215.0 299936.0 0
467253.0 300078.0 0
472915.0 303429.0 0
482426.0 302707.0 0
487743.0 303612.0 0
492223.0 301126.0 0
496895.0 299418.0 0
498103.0 304014.0 0
2120.97 305543.0 0
6723.65 304763.0 0
10968.0 305968.0 0
12978.9 309082.0 0
16471.5 304860.0 0
22224.9 305028.0 0
20524.3 309632.0 0
26885.2 304677.0 0
31281.6 308328.0 0
37948.0 306050.0 0
43960.4 306543.0 0
57349.4 306382.0 0
62686.9 304894.0 0
67613.7 305256.0 0
72705.1 304903.0 0
77183.8 309523.0 0
82031.7 309608.0 0
86313.6 308607.0 0
88693.6 304968.0 0
91298.8 309483.0 0
93445.9 304907.0 0
96807.3 308978.0 0
97391.7 304580.0 0
102449.0 305574.0 0
111860.0 306721.0 0
116550.0 309386.0 0
120470.0 306137.0 0
143396.0 305209.0 0
147587.0 309309.0 0
148546.0 304762.0 0
157470.0 304838.0 0
153025.0 306066.0 0
163291.0 304503.0 0
162830.0 309003.0 0
167979.0 306657.0 0
172608.0 309152.0 0
178055.0 309184.0 0
181722.0 305913.0 0
186444.0 308566.0 0
192336.0 309244.0 0
196909.0 309614.0 0
203627.0 305780.0 0
201415.0 309381.0 0
207061.0 309421.0 0
210891.0 306543.0 0
216217.0 305036.0 0
221849.0 308079.0 0
226401.0 304936.0 0
236619.0 309046.0 0
241378.0 308236.0 0
245913.0 308601.0 0
250568.0 309533.0 0
257040.0 305206.0 0
255287.0 309311.0 0
266241.0 306771.0 0
274233.0 305217.0 0
271210.0 308839.0 0
277990.0 308685.0 0
283252.0 305043.0 0
288245.0 308901.0 0
293018.0 305889.0 0
298186.0 308579.0 0
303216.0 309314.0 0
308661.0 304577.0 0
314068.0 309479.0 0
318988.0 309151.0 0
324007.0 306513.0 0
328934.0 309206.0 0
333959.0 305422.0 0
339447.0 304715.0 0
336742.0 309473.0 0
347806.0 309379.0 0
353085.0 308667.0 0
358589.0 305742.0 0
363855.0 306468.0 0
372346.0 305154.0 0
376993.0 305140.0 0
382543.0 309473.0 0
387497.0 305301.0 0
392213.0 305912.0 0
390956.0 309615.0 0
394332.0 309268.0 0
401275.0 305199.0 0
398110.0 309159.0 0
406737.0 304572.0 0
411253.0 305580.0 0
415535.0 305045.0 0
421190.0 304816.0 0
428288.0 305932.0 0
430776.0 305325.0 0
435965.0 305013.0 0
442202.0 306641.0 0
446797.0 305010.0 0
447260.0 309462.0 0
451395.0 306291.0 0
456261.0 308985.0 0
461550.0 304989.0 0
466994.0 305479.0 0
470935.0 308338.0 0
478087.0 304736.0 0
482622.0 308702.0 0
488858.0 309154.0 0
493547.0 304980.0 0
497022.0 308766.0 0
2805.49 310333.0 0
2473.97 314788.0 0
8173.12 309712.0 0
7488.86 314552.0 0
11916.4 313031.0 0
16470.7 309688.0 0
17754.3 313962.0 0
25435.6 310745.0 0
22223.7 314563.0 0
33501.6 313944.0 0
37257.9 311407.0 0
41693.9 310386.0 0
47340.7 310525.0 0
52979.9 309767.0 0
58679.4 311666.0 0
63551.4 310045.0 0
68257.0 309662.0 0
67559.2 314429.0 0
72444.6 309747.0 0
72546.7 314352.0 0
81316.9 314736.0 0
87053.6 313617.0 0
92360.8 314740.0 0
101418.0 311520.0 0
107515.0 311640.0 0
113122.0 311529.0 0
121230.0 310884.0 0
125988.0 310283.0 0
132173.0 309897.0 0
137875.0 309994.0 0
137961.0 314668.0 0
142169.0 314599.0 0
142891.0 310569.0 0
152715.0 310696.0 0
157652.0 309827.0 0
158923.0 314251.0 0
162867.0 314445.0 0
167459.0 311712.0 0
172198.0 313467.0 0
177911.0 314709.0 0
182425.0 310994.0 0
188331.0 313531.0 0
193986.0 314380.0 0
199141.0 314086.0 0
204248.0 314464.0 0
212749.0 309664.0 0
209596.0 314572.0 0
214079.0 313273.0 0
217669.0 310945.0 0
222157.0 313561.0 0
226982.0 309978.0 0
226289.0 314012.0 0
231732.0 309721.0 0
235818.0 313761.0 0
240107.0 311565.0 0
243620.0 312656.0 0
260826.0 309605.0 0
266504.0 312148.0 0
272442.0 314457.0 0
278236.0 314482.0 0
283080.0 311738.0 0
289760.0 314359.0 0
293235.0 310787.0 0
299133.0 313938.0 0
303384.0 313298.0 0
307929.0 309558.0 0
317595.0 313909.0 0
322516.0 312150.0 0
327519.0 314140.0 0
333108.0 309633.0 0
332712.0 313887.0 0
342479.0 309850.0 0
346862.0 312915.0 0
357661.0 311251.0 0
362398.0 311250.0 0
367693.0 309795.0 0
373456.0 309799.0 0
378233.0 309826.0 0
377591.0 314509.0 0
387500.0 309837.0 0
383048.0 314624.0 0
387693.0 314416.0 0
394724.0 313892.0 0
400697.0 313580.0 0
405886.0 310594.0 0
412397.0 310175.0 0
418022.0 309749.0 0
423145.0 310029.0 0
428009.0 309864.0 0
432919.0 310137.0 0
428624.0 314621.0 0
437800.0 310655.0 0
441910.0 311301.0 0
448829.0 314448.0 0
451933.0 311490.0 0
461136.0 310624.0 0
466195.0 310178.0 0
470816.0 313522.0 0
476121.0 309725.0 0
488694.0 314522.0 0
492867.0 311875.0 0
497149.0 314606.0 0
2770.03 318661.0 0
7660.86 319014.0 0
13231.4 317453.0 0
17461.6 318849.0 0
22164.5 318851.0 0
25762.3 315280.0 0
29696.6 317016.0 0
26103.1 319292.0 0
36874.2 316294.0 0
38558.7 319776.0 0
41318.7 315613.0 0
46320.7 315786.0 0
47500.0 319650.0 0
51578.6 315125.0 0
56795.7 315892.0 0
62261.5 315482.0 0
68880.1 319515.0 0
73668.5 318888.0 0
76656.5 315435.0 0
77214.8 319376.0 0
80639.7 319824.0 0
92841.8 319755.0 0
97306.7 314780.0 0
102433.0 316672.0 0
106772.0 316779.0 0
111810.0 315466.0 0
112965.0 319654.0 0
117567.0 314948.0 0
123364.0 314801.0 0
122450.0 319605.0 0
128787.0 315327.0 0
131885.0 319673.0 0
134063.0 314953.0 0
136866.0 319221.0 0
147682.0 315097.0 0
144149.0 319833.0 0
150759.0 319537.0 0
153115.0 315608.0 0
157147.0 319493.0 0
163072.0 318826.0 0
167161.0 316325.0 0
173196.0 319091.0 0
183383.0 315657.0 0
186818.0 318922.0 0
191946.0 319266.0 0
196868.0 318411.0 0
201838.0 319477.0 0
207341.0 319626.0 0
213819.0 317554.0 0
217594.0 315312.0 0
220559.0 318408.0 0
225440.0 317885.0 0
230547.0 315196.0 0
235902.0 319232.0 0
240030.0 315831.0 0
245291.0 318656.0 0
250527.0 314911.0 0
252826.0 319818.0 0
256617.0 314936.0 0
262495.0 315279.0 0
267348.0 317612.0 0
277767.0 319491.0 0
282877.0 317286.0 0
289604.0 319098.0 0
294679.0 315205.0 0
293230.0 318765.0 0
297678.0 319653.0 0
303598.0 318432.0 0
307544.0 314699.0 0
312738.0 315655.0 0
319797.0 318320.0 0
324073.0 316770.0 0
328585.0 319671.0 0
334486.0 319090.0 0
338572.0 314897.0 0
343885.0 315121.0 0
351216.0 314816.0 0
348293.0 319571.0 0
354608.0 319531.0 0
358151.0 315621.0 0
358859.0 319762.0 0
362840.0 316150.0 0
367535.0 315149.0 0
372788.0 315420.0 0
376921.0 318343.0 0
380687.0 318922.0 0
386696.0 319505.0 0
390635.0 315196.0 0
391426.0 318581.0 0
396478.0 319598.0 0
400523.0 317954.0 0
404334.0 316870.0 0
409832.0 315993.0 0
416476.0 315594.0 0
422930.0 315673.0 0
426979.0 319290.0 0
433405.0 314945.0 0
431518.0 319243.0 0
438577.0 315924.0 0
444206.0 315186.0 0
447589.0 319393.0 0
452163.0 315521.0 0
452834.0 319713.0 0
457286.0 315447.0 0
462883.0 315023.0 0
461700.0 319254.0 0
466839.0 316290.0 0
470910.0 319285.0 0
476449.0 316088.0 0
482932.0 315429.0 0
492905.0 315582.0 0
2102.15 322836.0 0
6784.04 324478.0 0
12526.9 322822.0 0
18528.7 323872.0 0
24350.0 323595.0 0
30112.8 324011.0 0
33839.8 320033.0 0
39798.3 323857.0 0
43305.0 320688.0 0
47371.9 323777.0 0
51912.2 320768.0 0
58772.3 320467.0 0
64356.1 320734.0 0
71646.9 323843.0 0
77142.9 322997.0 0
86268.9 319902.0 0
82251.8 324775.0 0
93304.1 323875.0 0
98272.1 320045.0 0
97500.0 324684.0 0
103070.0 320639.0 0
102258.0 324484.0 0
107117.0 324278.0 0
108872.0 320061.0 0
112409.0 323965.0 0
117546.0 320654.0 0
126571.0 320220.0 0
122471.0 323773.0 0
132617.0 324475.0 0
137690.0 324159.0 0
140315.0 321390.0 0
142171.0 324479.0 0
147680.0 324385.0 0
153137.0 323695.0 0
161618.0 323574.0 0
167822.0 320947.0 0
171494.0 324974.0 0
178964.0 320782.0 0
183167.0 320192.0 0
185252.0 324028.0 0
190334.0 323540.0 0
195472.0 324061.0 0
201393.0 324930.0 0
212434.0 323341.0 0
216954.0 320408.0 0
222945.0 322843.0 0
229497.0 320250.0 0
232531.0 323969.0 0
238049.0 324783.0 0
240538.0 321060.0 0
243681.0 324898.0 0
248572.0 323702.0 0
257602.0 320326.0 0
255222.0 323941.0 0
259978.0 324403.0 0
262169.0 320033.0 0
266693.0 324652.0 0
272536.0 320514.0 0
276486.0 323953.0 0
281581.0 323130.0 0
285926.0 320837.0 0
292703.0 323556.0 0
303446.0 323714.0 0
309181.0 320139.0 0
307675.0 324808.0 0
314890.0 321135.0 0
323470.0 321540.0 0
332479.0 323695.0 0
338145.0 321169.0 0
337054.0 324923.0 0
342778.0 320367.0 0
352968.0 324796.0 0
358273.0 323575.0 0
362364.0 320224.0 0
366788.0 320209.0 0
363842.0 324636.0 0
372068.0 320825.0 0
368582.0 324341.0 0
377258.0 322592.0 0
372500.0 324945.0 0
383119.0 323924.0 0
392819.0 323323.0 0
396779.0 324964.0 0
401732.0 323004.0 0
407542.0 321431.0 0
413269.0 321319.0 0
418187.0 320717.0 0
417500.0 324583.0 0
422201.0 320820.0 0
423569.0 324784.0 0
429164.0 323502.0 0
432842.0 324843.0 0
436352.0 321293.0 0
442154.0 320533.0 0
445049.0 324594.0 0
449531.0 324303.0 0
453889.0 324644.0 0
457545.0 321317.0 0
461732.0 323981.0 0
465949.0 320369.0 0
476774.0 322004.0 0
480731.0 319929.0 0
481420.0 324574.0 0
485143.0 320479.0 0
491150.0 320362.0 0
497376.0 320086.0 0
3504.84 329932.0 0
8911.46 329784.0 0
12818.5 328236.0 0
23741.4 328961.0 0
29009.9 329780.0 0
35420.1 325409.0 0
33718.9 329566.0 0
38519.6 329898.0 0
43384.6 326021.0 0
47738.4 328531.0 0
51703.2 325605.0 0
56662.9 325535.0 0
61916.2 325569.0 0
66579.9 325186.0 0
66427.8 329781.0 0
71660.0 329728.0 0
84138.9 329495.0 0
88452.9 326193.0 0
94084.5 328109.0 0
99276.4 329387.0 0
108342.0 329242.0 0
113656.0 328832.0 0
117493.0 325266.0 0
118208.0 329853.0 0
122456.0 328165.0 0
127690.0 325182.0 0
131456.0 329236.0 0
135566.0 328016.0 0
140155.0 328820.0 0
145370.0 329579.0 0
151856.0 329808.0 0
157521.0 325393.0 0
162425.0 328967.0 0
165755.0 325137.0 0
168047.0 329387.0 0
176485.0 325079.0 0
180575.0 325398.0 0
178813.0 329320.0 0
183642.0 329567.0 0
189086.0 327700.0 0
198307.0 328719.0 0
206650.0 325383.0 0
212511.0 329700.0 0
218203.0 324888.0 0
217446.0 329350.0 0
222058.0 328177.0 0
227484.0 325595.0 0
231323.0 329377.0 0
236183.0 329778.0 0
240862.0 329661.0 0
247386.0 328765.0 0
251846.0 326839.0 0
256819.0 329288.0 0
262272.0 329363.0 0
272669.0 325389.0 0
272793.0 330094.0 0
277818.0 329088.0 0
282689.0 328596.0 0
286976.0 325414.0 0
298615.0 325520.0 0
303831.0 328745.0 0
308668.0 329879.0 0
312416.0 326472.0 0
318927.0 325143.0 0
320349.0 330106.0 0
323586.0 325827.0 0
327992.0 325303.0 0
333078.0 329838.0 0
341555.0 325567.0 0
343337.0 329547.0 0
346970.0 325054.0 0
347263.0 329859.0 0
357484.0 328917.0 0
362961.0 329658.0 0
368157.0 329176.0 0
373340.0 328674.0 0
378002.0 327698.0 0
388480.0 325120.0 0
392195.0 328283.0 0
397149.0 329386.0 0
402959.0 329675.0 0
407639.0 329548.0 0
408731.0 326009.0 0
413040.0 326282.0 0
416332.0 329491.0 0
421549.0 329266.0 0
427085.0 328519.0 0
436307.0 328615.0 0
439498.0 325080.0 0
442674.0 329895.0 0
449606.0 329932.0 0
457887.0 325897.0 0
454983.0 329325.0 0
462572.0 328104.0 0
466273.0 325080.0 0
466551.0 329949.0 0
472045.0 325309.0 0
477063.0 326774.0 0
487138.0 325608.0 0
492811.0 326261.0 0
497600.0 325112.0 0
7884.72 333854.0 0
13222.6 334126.0 0
18056.0 330082.0 0
22914.0 334616.0 0
28303.5 334923.0 0
33674.1 334474.0 0
38735.8 334836.0 0
43679.4 330806.0 0
42487.9 334644.0 0
47500.0 334459.0 0
52068.3 330152.0 0
52507.7 334559.0 0
57015.2 330935.0 0
61833.5 330279.0 0
62770.3 334754.0 0
67036.4 334658.0 0
78234.8 330196.0 0
82587.3 334602.0 0
87704.5 331267.0 0
87062.4 335176.0 0
92052.3 333421.0 0
97656.5 334648.0 0
103848.0 330754.0 0
102277.0 334432.0 0
107381.0 335062.0 0
113319.0 334262.0 0
121249.0 333370.0 0
126994.0 330129.0 0
129948.0 333530.0 0
135664.0 333743.0 0
141913.0 333741.0 0
152939.0 335166.0 0
157639.0 330448.0 0
157068.0 334914.0 0
162660.0 335078.0 0
168701.0 334914.0 0
173648.0 330651.0 0
178576.0 334394.0 0
188163.0 333561.0 0
193603.0 330390.0 0
193492.0 335041.0 0
198147.0 333747.0 0
202372.0 330261.0 0
202975.0 334439.0 0
207141.0 330543.0 0
206771.0 334936.0 0
210650.0 334298.0 0
216007.0 333840.0 0
222202.0 334183.0 0
226396.0 330261.0 0
228049.0 334697.0 0
233108.0 333730.0 0
237785.0 334335.0 0
243039.0 334286.0 0
248402.0 334295.0 0
251699.0 330843.0 0
254148.0 334619.0 0
258996.0 334286.0 0
262938.0 335005.0 0
266963.0 331947.0 0
271204.0 334384.0 0
276696.0 333602.0 0
282506.0 334707.0 0
287482.0 330843.0 0
293881.0 330175.0 0
299322.0 330386.0 0
297846.0 334665.0 0
305601.0 334347.0 0
309929.0 335318.0 0
315381.0 331139.0 0
311345.0 332626.0 0
318281.0 334585.0 0
326025.0 330652.0 0
322500.0 334745.0 0
339052.0 330445.0 0
336942.0 334213.0 0
341039.0 334226.0 0
346089.0 334384.0 0
351706.0 330312.0 0
357115.0 334238.0 0
361931.0 334574.0 0
372148.0 333293.0 0
377846.0 333735.0 0
382743.0 330070.0 0
387954.0 330718.0 0
392976.0 333489.0 0
398548.0 334851.0 0
404607.0 334859.0 0
411430.0 330626.0 0
408306.0 334910.0 0
411601.0 334918.0 0
415649.0 334281.0 0
420776.0 334750.0 0
427267.0 335059.0 0
431766.0 330919.0 0
432720.0 334968.0 0
437838.0 335059.0 0
453756.0 334152.0 0
459081.0 330300.0 0
458629.0 334387.0 0
462416.0 332561.0 0
466507.0 334829.0 0
470908.0 330487.0 0
471723.0 335149.0 0
475146.0 330344.0 0
476843.0 334853.0 0
479895.0 330752.0 0
485542.0 331259.0 0
489773.0 334606.0 0
491437.0 330480.0 0
496527.0 330580.0 0
3163.43 336593.0 0
11598.7 340234.0 0
18016.9 336076.0 0
27693.5 339984.0 0
32849.3 339855.0 0
37854.5 339372.0 0
42860.5 339481.0 0
47500.0 339543.0 0
52500.0 339462.0 0
57766.4 336258.0 0
62274.7 339811.0 0
67614.2 339044.0 0
72934.4 335780.0 0
78320.8 335995.0 0
77036.6 339896.0 0
81662.7 339509.0 0
86271.2 339301.0 0
91746.9 339834.0 0
97814.2 340035.0 0
102682.0 339043.0 0
111198.0 339105.0 0
115546.0 339870.0 0
117534.0 335597.0 0
120828.0 339238.0 0
125851.0 335932.0 0
131618.0 339523.0 0
137642.0 339939.0 0
147749.0 335804.0 0
143092.0 340203.0 0
152517.0 339080.0 0
156961.0 339595.0 0
166065.0 339508.0 0
171002.0 339980.0 0
173749.0 335995.0 0
183176.0 336006.0 0
181341.0 339602.0 0
191063.0 338375.0 0
196215.0 339382.0 0
202315.0 338086.0 0
207377.0 339923.0 0
213136.0 338366.0 0
217790.0 338093.0 0
221700.0 339674.0 0
226465.0 339598.0 0
232187.0 338748.0 0
240915.0 338593.0 0
252562.0 339930.0 0
257281.0 338325.0 0
267029.0 337734.0 0
272327.0 338703.0 0
277805.0 338251.0 0
287828.0 335772.0 0
292146.0 335723.0 0
295728.0 339863.0 0
301807.0 339118.0 0
307972.0 339866.0 0
313791.0 336075.0 0
318196.0 339151.0 0
325780.0 338999.0 0
328876.0 335276.0 0
333205.0 336241.0 0
336284.0 339905.0 0
342200.0 339611.0 0
352068.0 336415.0 0
357645.0 339961.0 0
363295.0 339512.0 0
367431.0 336002.0 0
372070.0 339401.0 0
377536.0 339696.0 0
383968.0 336103.0 0
389034.0 335667.0 0
393796.0 339175.0 0
413376.0 339117.0 0
417971.0 339806.0 0
422284.0 339806.0 0
432984.0 339225.0 0
437046.0 339982.0 0
443895.0 336143.0 0
448935.0 336031.0 0
447415.0 339423.0 0
451725.0 339996.0 0
455891.0 338428.0 0
461866.0 339680.0 0
474691.0 340249.0 0
482253.0 335593.0 0
480003.0 339612.0 0
486677.0 339843.0 0
493016.0 336628.0 0
497157.0 336569.0 0
2174.78 341840.0 0
6287.98 340793.0 0
6704.61 344693.0 0
17536.7 340539.0 0
17238.4 345037.0 0
22467.4 340287.0 0
21690.5 345161.0 0
26626.7 345186.0 0
32274.3 345310.0 0
37800.8 344442.0 0
42911.0 344596.0 0
48373.5 344416.0 0
53049.3 344644.0 0
57486.1 340721.0 0
57491.4 345005.0 0
62500.0 344629.0 0
67351.0 344652.0 0
72221.0 341500.0 0
77099.8 344826.0 0
80972.3 344812.0 0
86621.4 344472.0 0
98148.0 345079.0 0
106917.0 341200.0 0
102899.0 344039.0 0
112152.0 344433.0 0
117798.0 344303.0 0
126058.0 340764.0 0
127504.0 344498.0 0
135093.0 343427.0 0
148699.0 341598.0 0
153533.0 344955.0 0
161439.0 340791.0 0
159530.0 345294.0 0
166006.0 344720.0 0
171496.0 345224.0 0
176494.0 340489.0 0
186414.0 341488.0 0
192077.0 343057.0 0
201553.0 343090.0 0
212235.0 344100.0 0
217927.0 342794.0 0
223042.0 344383.0 0
228709.0 344714.0 0
233659.0 343790.0 0
237045.0 341220.0 0
241358.0 343895.0 0
246429.0 340352.0 0
256915.0 342841.0 0
262031.0 340639.0 0
268528.0 343693.0 0
275688.0 342187.0 0
278678.0 345005.0 0
283133.0 341722.0 0
289508.0 340398.0 0
287939.0 345093.0 0
292977.0 345364.0 0
299512.0 345141.0 0
304511.0 343284.0 0
308202.0 345372.0 0
313332.0 341192.0 0
316489.0 344617.0 0
322054.0 341574.0 0
330995.0 340812.0 0
338654.0 344366.0 0
342789.0 345094.0 0
347969.0 340538.0 0
352462.0 342066.0 0
362645.0 344426.0 0
367516.0 342042.0 0
371771.0 344752.0 0
382606.0 342427.0 0
388138.0 340546.0 0
391993.0 345347.0 0
397825.0 342955.0 0
403566.0 340657.0 0
409213.0 341450.0 0
411840.0 345134.0 0
417057.0 344362.0 0
427443.0 341804.0 0
437932.0 345188.0 0
442537.0 341613.0 0
448172.0 344436.0 0
456029.0 344306.0 0
468632.0 340410.0 0
466264.0 344924.0 0
477612.0 345126.0 0
482009.0 343570.0 0
493213.0 340999.0 0
498364.0 340890.0 0
2641.47 346122.0 0
11882.3 347020.0 0
72973.8 345837.0 0
92669.6 346428.0 0
107109.0 346545.0 0
123055.0 345951.0 0
131642.0 346282.0 0
139896.0 345916.0 0
146728.0 346791.0 0
162858.0 348360.0 0
177346.0 346723.0 0
183270.0 346670.0 0
188941.0 347133.0 0
196171.0 346865.0 0
201250.0 348515.0 0
206742.0 346497.0 0
211075.0 349706.0 0
216842.0 348549.0 0
222869.0 350103.0 0
228347.0 350141.0 0
233989.0 348543.0 0
237233.0 345606.0 0
240754.0 349665.0 0
246538.0 346767.0 0
252116.0 345397.0 0
253608.0 350232.0 0
258111.0 347789.0 0
263075.0 346238.0 0
270206.0 349240.0 0
273900.0 346340.0 0
278156.0 350433.0 0
284098.0 348113.0 0
289446.0 349954.0 0
296128.0 350275.0 0
304410.0 347278.0 0
312824.0 346118.0 0
320496.0 345717.0 0
326614.0 345445.0 0
333835.0 345773.0 0
347408.0 345510.0 0
352850.0 346890.0 0
357806.0 345744.0 0
367040.0 346403.0 0
377337.0 345557.0 0
382625.0 346777.0 0
386621.0 346006.0 0
396577.0 347078.0 0
401677.0 347382.0 0
407015.0 345597.0 0
422643.0 345463.0 0
427269.0 347734.0 0
432131.0 345755.0 0
442888.0 347169.0 0
452084.0 347564.0 0
461595.0 346237.0 0
471956.0 346578.0 0
481399.0 347419.0 0
486488.0 347060.0 0
491860.0 346093.0 0
497020.0 345720.0 0
200252.0 353609.0 0
204835.0 351026.0 0
205208.0 355132.0 0
210724.0 354815.0 0
216302.0 354662.0 0
221689.0 355479.0 0
227138.0 355472.0 0
232016.0 353258.0 0
236813.0 351672.0 0
235984.0 354939.0 0
240629.0 355588.0 0
249097.0 351434.0 0
244835.0 352896.0 0
252287.0 355104.0 0
257867.0 353324.0 0
261108.0 350570.0 0
265387.0 351172.0 0
262093.0 354011.0 0
270437.0 354394.0 0
275529.0 355535.0 0
282894.0 352763.0 0
286735.0 354145.0 0
292557.0 355020.0 0
301497.0 350728.0 0
201452.0 359857.0 0
207694.0 359547.0 0
213254.0 359216.0 0
218866.0 360413.0 0
223989.0 359338.0 0
232177.0 358516.0 0
237050.0 358678.0 0
246205.0 357965.0 0
250948.0 359558.0 0
256554.0 359612.0 0
262588.0 358090.0 0
267604.0 358928.0 0
273054.0 360501.0 0
280170.0 355721.0 0
278587.0 359913.0 0
283858.0 356826.0 0
287964.0 359494.0 0
293484.0 360458.0 0
298828.0 355659.0 0
297533.0 360317.0 0
209065.0 365056.0 0
214368.0 364282.0 0
224298.0 365629.0 0
227819.0 361644.0 0
232212.0 363845.0 0
236676.0 363403.0 0
241232.0 361284.0 0
240889.0 365365.0 0
246432.0 363851.0 0
252180.0 364386.0 0
257103.0 365510.0 0
260993.0 363311.0 0
266054.0 364072.0 0
272227.0 365406.0 0
276146.0 364753.0 0
280268.0 364058.0 0
282608.0 361131.0 0
285061.0 364633.0 0
290842.0 364297.0 0
296860.0 364990.0 0
1845.04 375713.0 0
6332.19 375510.0 0
10310.7 369586.0 0
13708.5 375333.0 0
16934.5 375621.0 0
21200.5 375533.0 0
25425.1 375819.0 0
30443.0 375945.0 0
35460.9 375676.0 0
39893.1 375730.0 0
43828.1 375482.0 0
48006.1 375207.0 0
51620.7 375637.0 0
55141.8 375455.0 0
59954.9 375491.0 0
64058.8 375170.0 0
68174.7 375417.0 0
72649.9 376604.0 0
75855.5 375423.0 0
79872.6 375490.0 0
84517.3 375572.0 0
88519.2 375804.0 0
92958.8 375372.0 0
96930.0 375542.0 0
100349.0 375503.0 0
104290.0 375915.0 0
107998.0 375478.0 0
111206.0 375359.0 0
114755.0 375394.0 0
119448.0 376021.0 0
124348.0 375379.0 0
128849.0 375235.0 0
133191.0 375425.0 0
138398.0 375601.0 0
142889.0 375093.0 0
147283.0 375875.0 0
151751.0 375143.0 0
155430.0 375302.0 0
159553.0 375651.0 0
163413.0 375245.0 0
168773.0 375435.0 0
174352.0 375218.0 0
177916.0 375683.0 0
181587.0 375456.0 0
186217.0 376085.0 0
191483.0 375497.0 0
195447.0 375710.0 0
198695.0 375434.0 0
203153.0 366197.0 0
207202.0 370572.0 0
211285.0 368907.0 0
219304.0 365745.0 0
216045.0 369738.0 0
221532.0 370296.0 0
228770.0 366029.0 0
231743.0 368401.0 0
237232.0 368865.0 0
243220.0 368337.0 0
248767.0 369263.0 0
254467.0 369534.0 0
261962.0 368491.0 0
268542.0 370250.0 0
274679.0 369072.0 0
278942.0 367940.0 0
283004.0 370018.0 0
288479.0 368930.0 0
293227.0 368298.0 0
300835.0 376450.0 0
303520.0 375252.0 0
306427.0 375833.0 0
309756.0 371116.0 0
313572.0 375198.0 0
318078.0 375335.0 0
322659.0 375627.0 0
326587.0 375392.0 0
329759.0 375481.0 0
333100.0 375705.0 0
337110.0 375389.0 0
341742.0 367250.0 0
345508.0 375512.0 0
349438.0 375380.0 0
353738.0 375295.0 0
358646.0 375597.0 0
362978.0 375205.0 0
368454.0 375294.0 0
374351.0 375381.0 0
380141.0 375579.0 0
385214.0 375336.0 0
389406.0 375198.0 0
393772.0 375241.0 0
401141.0 375452.0 0
397817.0 375753.0 0
405320.0 375152.0 0
410771.0 376080.0 0
416367.0 375753.0 0
421222.0 375050.0 0
424161.0 375434.0 0
428015.0 375260.0 0
432276.0 375265.0 0
437796.0 375281.0 0
443413.0 375132.0 0
448434.0 375264.0 0
452040.0 376931.0 0
454680.0 375153.0 0
459147.0 375150.0 0
463372.0 375101.0 0
466541.0 375775.0 0
471537.0 375099.0 0
476105.0 375294.0 0
480425.0 375174.0 0
484914.0 375476.0 0
488856.0 375671.0 0
493002.0 375589.0 0
497379.0 375246.0 0
3524.47 379561.0 0
8130.06 378445.0 0
10461.6 375953.0 0
14370.2 378219.0 0
11290.2 379606.0 0
18464.0 378977.0 0
22586.9 379147.0 0
26804.6 379280.0 0
34456.6 378788.0 0
31547.4 380677.0 0
38268.0 379078.0 0
36060.4 381741.0 0
42132.1 378889.0 0
40605.2 382088.0 0
45477.6 377813.0 0
49271.2 378530.0 0
45451.2 381304.0 0
49903.9 381896.0 0
52898.0 378729.0 0
57630.4 378867.0 0
63579.8 378315.0 0
61206.0 381306.0 0
68502.4 379246.0 0
72387.3 381084.0 0
76960.8 379551.0 0
82830.2 379528.0 0
86105.3 377859.0 0
88092.9 380002.0 0
91239.2 378430.0 0
94848.0 377974.0 0
93534.8 381742.0 0
98185.8 378863.0 0
101973.0 378461.0 0
107192.0 378363.0 0
104888.0 379891.0 0
110797.0 378017.0 0
114713.0 379247.0 0
119350.0 381234.0 0
122908.0 378454.0 0
126869.0 377752.0 0
125429.0 379909.0 0
130835.0 378675.0 0
128221.0 381691.0 0
135124.0 378239.0 0
133825.0 381953.0 0
138630.0 380064.0 0
143150.0 378460.0 0
147851.0 380569.0 0
151677.0 378288.0 0
156804.0 378731.0 0
161452.0 378460.0 0
160368.0 381183.0 0
165007.0 378154.0 0
168256.0 380314.0 0
172681.0 378830.0 0
176831.0 378362.0 0
179764.0 377887.0 0
182845.0 378952.0 0
179313.0 380673.0 0
185848.0 381560.0 0
189491.0 379236.0 0
194216.0 379600.0 0
198614.0 378767.0 0
203024.0 373393.0 0
212696.0 374388.0 0
218113.0 375215.0 0
223274.0 375053.0 0
227156.0 370977.0 0
228042.0 375716.0 0
232744.0 373455.0 0
237560.0 374192.0 0
242348.0 373838.0 0
248035.0 375162.0 0
253595.0 374877.0 0
258475.0 372962.0 0
262502.0 375500.0 0
272618.0 375667.0 0
278386.0 372175.0 0
281717.0 374096.0 0
285823.0 375918.0 0
291487.0 373879.0 0
296514.0 371374.0 0
304486.0 378482.0 0
301133.0 380397.0 0
306992.0 379778.0 0
309804.0 376752.0 0
315055.0 378526.0 0
312189.0 380361.0 0
320455.0 378573.0 0
325488.0 378881.0 0
322304.0 381165.0 0
330148.0 378832.0 0
328433.0 381611.0 0
335772.0 379601.0 0
341191.0 376556.0 0
344605.0 379369.0 0
347581.0 378102.0 0
351157.0 378344.0 0
347968.0 380908.0 0
355665.0 378670.0 0
361111.0 379965.0 0
365004.0 377310.0 0
371589.0 378964.0 0
367311.0 379894.0 0
376780.0 379095.0 0
380986.0 380645.0 0
383620.0 377640.0 0
384837.0 380376.0 0
387827.0 378415.0 0
391535.0 377768.0 0
391438.0 380564.0 0
387883.0 381892.0 0
394697.0 378371.0 0
401980.0 378428.0 0
398311.0 378959.0 0
403344.0 381975.0 0
406669.0 378760.0 0
410669.0 380853.0 0
413659.0 379391.0 0
417491.0 380975.0 0
421031.0 377858.0 0
422933.0 381279.0 0
425642.0 378291.0 0
430146.0 378701.0 0
434265.0 378051.0 0
437502.0 380144.0 0
441623.0 378427.0 0
445786.0 377715.0 0
445424.0 381153.0 0
449202.0 379602.0 0
452864.0 381026.0 0
456665.0 378662.0 0
462197.0 377887.0 0
460550.0 380838.0 0
465141.0 380450.0 0
469195.0 378233.0 0
473906.0 377995.0 0
471819.0 380734.0 0
478160.0 378524.0 0
482666.0 378694.0 0
486722.0 378869.0 0
491183.0 379567.0 0
495138.0 378530.0 0
498782.0 377749.0 0
497924.0 380817.0 0
594.319 381417.0 0
2075.36 384335.0 0
7756.47 381384.0 0
6155.49 384991.0 0
15245.0 381683.0 0
11174.2 383600.0 0
19741.2 382776.0 0
15464.5 385864.0 0
23744.2 381848.0 0
23471.7 384948.0 0
27933.8 383714.0 0
33291.5 384834.0 0
37752.8 384905.0 0
43732.4 384601.0 0
41055.9 386023.0 0
47351.9 385203.0 0
53967.2 381884.0 0
51504.3 384936.0 0
55274.6 384576.0 0
58005.0 383135.0 0
58357.8 386443.0 0
61879.3 384667.0 0
65086.2 382233.0 0
69015.0 382953.0 0
66203.5 386209.0 0
75307.1 383682.0 0
80416.0 384491.0 0
85349.2 382900.0 0
89302.6 383336.0 0
92017.6 386697.0 0
97758.6 381731.0 0
101321.0 382128.0 0
97554.3 385425.0 0
105337.0 382833.0 0
109476.0 381758.0 0
111109.0 386223.0 0
107583.0 385958.0 0
114231.0 383610.0 0
118117.0 385664.0 0
121839.0 385521.0 0
123862.0 382586.0 0
130372.0 384373.0 0
133337.0 385927.0 0
135300.0 384811.0 0
137924.0 383701.0 0
136448.0 386867.0 0
142801.0 382823.0 0
146637.0 383728.0 0
150237.0 384720.0 0
153006.0 381641.0 0
157308.0 382673.0 0
154657.0 384244.0 0
158069.0 385806.0 0
161147.0 384253.0 0
163966.0 381799.0 0
164867.0 385821.0 0
167568.0 383676.0 0
171686.0 383446.0 0
175922.0 382027.0 0
174947.0 385795.0 0
182002.0 381852.0 0
179239.0 384495.0 0
183186.0 384295.0 0
190400.0 384016.0 0
195316.0 384008.0 0
198768.0 382514.0 0
194613.0 387720.0 0
198674.0 386066.0 0
203451.0 378397.0 0
207561.0 375826.0 0
206795.0 381594.0 0
211566.0 379969.0 0
216474.0 379806.0 0
220920.0 379861.0 0
225951.0 379477.0 0
231737.0 379523.0 0
237788.0 379060.0 0
253859.0 380237.0 0
258571.0 378056.0 0
263315.0 380456.0 0
267102.0 376378.0 0
278586.0 377863.0 0
287524.0 380409.0 0
291266.0 379350.0 0
296036.0 377694.0 0
304933.0 382445.0 0
301430.0 383890.0 0
304191.0 385573.0 0
309425.0 381589.0 0
308578.0 385574.0 0
313463.0 383548.0 0
317607.0 382013.0 0
321306.0 384436.0 0
325515.0 382658.0 0
325197.0 386212.0 0
328680.0 384322.0 0
331698.0 382245.0 0
331783.0 385348.0 0
335988.0 384460.0 0
340834.0 381334.0 0
339589.0 384719.0 0
345116.0 382449.0 0
342643.0 385418.0 0
345760.0 385628.0 0
348876.0 383983.0 0
352060.0 381764.0 0
355937.0 381949.0 0
358604.0 384446.0 0
365422.0 382912.0 0
362631.0 385341.0 0
370117.0 383595.0 0
374234.0 382350.0 0
373932.0 385613.0 0
378238.0 384289.0 0
384438.0 384998.0 0
390224.0 383829.0 0
395280.0 381967.0 0
393542.0 385645.0 0
399782.0 381778.0 0
401741.0 384828.0 0
398399.0 384791.0 0
407062.0 382794.0 0
405360.0 386267.0 0
409883.0 385210.0 0
413667.0 383347.0 0
416953.0 386084.0 0
420263.0 383871.0 0
427816.0 382425.0 0
424160.0 384811.0 0
427380.0 386492.0 0
433194.0 382100.0 0
430796.0 385104.0 0
437481.0 383697.0 0
441429.0 382417.0 0
440484.0 386369.0 0
444899.0 385135.0 0
448897.0 383285.0 0
452545.0 384682.0 0
457408.0 383033.0 0
456104.0 386400.0 0
462246.0 383625.0 0
460110.0 386624.0 0
468799.0 381736.0 0
466763.0 384803.0 0
471051.0 383949.0 0
473937.0 385970.0 0
475582.0 382301.0 0
478231.0 386493.0 0
480223.0 382572.0 0
482415.0 385960.0 0
484256.0 382412.0 0
487749.0 382080.0 0
486404.0 385150.0 0
494503.0 383088.0 0
490361.0 384018.0 0
498774.0 383975.0 0
1924.61 387851.0 0
5463.63 389000.0 0
10133.1 388230.0 0
14346.6 389910.0 0
19836.4 386652.0 0
17402.1 389286.0 0
23200.0 387976.0 0
20794.4 390960.0 0
26500.1 387747.0 0
29173.0 390760.0 0
30312.9 387341.0 0
33598.0 389576.0 0
35939.6 387411.0 0
39179.5 389473.0 0
44229.5 388232.0 0
49250.0 388962.0 0
54247.7 387609.0 0
57523.8 390029.0 0
61890.3 388404.0 0
65122.1 389573.0 0
68788.5 390744.0 0
71621.7 386112.0 0
76245.3 387033.0 0
73910.3 390354.0 0
78726.3 390143.0 0
81946.5 388346.0 0
86558.3 387460.0 0
95249.3 390046.0 0
100207.0 389140.0 0
103186.0 386345.0 0
106601.0 388812.0 0
110215.0 390687.0 0
114581.0 388320.0 0
118399.0 389246.0 0
120490.0 387577.0 0
123004.0 389349.0 0
126212.0 386122.0 0
127174.0 390693.0 0
130187.0 387927.0 0
130810.0 391295.0 0
133833.0 389359.0 0
140628.0 387290.0 0
137718.0 390523.0 0
142139.0 391475.0 0
145514.0 387227.0 0
150101.0 389335.0 0
154251.0 387298.0 0
162048.0 387756.0 0
158603.0 389497.0 0
165042.0 389046.0 0
169561.0 387874.0 0
174256.0 389242.0 0
178143.0 388307.0 0
182198.0 387375.0 0
186049.0 385941.0 0
185063.0 389230.0 0
189747.0 389376.0 0
198620.0 390196.0 0
202789.0 382667.0 0
205338.0 386086.0 0
209460.0 384698.0 0
213689.0 384918.0 0
218174.0 383793.0 0
222609.0 384228.0 0
227695.0 384789.0 0
233247.0 385242.0 0
238286.0 384502.0 0
242581.0 381851.0 0
248196.0 381157.0 0
245528.0 385622.0 0
251206.0 385962.0 0
258959.0 382421.0 0
255726.0 384681.0 0
261717.0 384798.0 0
268853.0 381443.0 0
273994.0 381112.0 0
272131.0 385047.0 0
277477.0 384760.0 0
283284.0 381447.0 0
281759.0 385417.0 0
287268.0 384596.0 0
292469.0 384189.0 0
296979.0 382548.0 0
301173.0 387330.0 0
305137.0 389072.0 0
309375.0 390532.0 0
313414.0 387529.0 0
317160.0 386188.0 0
320852.0 388457.0 0
317155.0 390062.0 0
325349.0 390186.0 0
329217.0 388044.0 0
333739.0 388847.0 0
339518.0 389070.0 0
344386.0 388796.0 0
348600.0 388139.0 0
353785.0 386708.0 0
359492.0 388207.0 0
363678.0 388995.0 0
366826.0 386518.0 0
371094.0 388008.0 0
367518.0 389855.0 0
376082.0 388679.0 0
380218.0 387663.0 0
382799.0 389381.0 0
389097.0 387299.0 0
386500.0 389439.0 0
392066.0 389339.0 0
397004.0 388645.0 0
401257.0 387946.0 0
404612.0 390480.0 0
408872.0 388845.0 0
412789.0 387418.0 0
412075.0 391356.0 0
415519.0 389614.0 0
421053.0 386800.0 0
419493.0 390402.0 0
424325.0 388745.0 0
430257.0 389075.0 0
434990.0 386874.0 0
433857.0 391297.0 0
438745.0 389974.0 0
444051.0 389679.0 0
448741.0 387649.0 0
453060.0 388938.0 0
450249.0 391309.0 0
457556.0 389639.0 0
463697.0 386752.0 0
462458.0 390291.0 0
466831.0 389022.0 0
470381.0 387575.0 0
474673.0 390026.0 0
480541.0 389533.0 0
485168.0 389237.0 0
489205.0 387012.0 0
493039.0 386892.0 0
490298.0 390600.0 0
494521.0 390620.0 0
497493.0 386819.0 0
498488.0 390334.0 0
2149.65 391411.0 0
2577.87 395465.0 0
7159.17 392831.0 0
11983.1 392131.0 0
16831.2 394101.0 0
22402.4 395013.0 0
24951.7 391220.0 0
26868.5 394334.0 0
31890.5 393982.0 0
36171.7 392508.0 0
39975.5 394501.0 0
46015.9 391654.0 0
42544.4 391780.0 0
44463.3 395317.0 0
49320.2 394306.0 0
53240.5 391589.0 0
53759.5 395272.0 0
57131.7 393749.0 0
60516.8 391723.0 0
64171.4 392249.0 0
61199.8 395583.0 0
66567.8 395621.0 0
71898.4 395172.0 0
80991.9 392901.0 0
76299.5 393103.0 0
79129.7 394375.0 0
83317.4 391099.0 0
90590.6 391424.0 0
86875.3 392570.0 0
93815.6 394602.0 0
99023.7 392843.0 0
104310.0 391243.0 0
107746.0 395316.0 0
115592.0 392435.0 0
112384.0 395337.0 0
115818.0 395977.0 0
120043.0 392125.0 0
119310.0 395498.0 0
124244.0 394344.0 0
129485.0 394571.0 0
134311.0 393583.0 0
139037.0 393761.0 0
146296.0 391418.0 0
144725.0 395043.0 0
149694.0 394621.0 0
154382.0 391904.0 0
162763.0 391034.0 0
159412.0 393359.0 0
163496.0 394680.0 0
166682.0 391951.0 0
171839.0 392515.0 0
168905.0 394255.0 0
176738.0 392180.0 0
181451.0 391593.0 0
179282.0 395681.0 0
182945.0 395190.0 0
185924.0 392724.0 0
190472.0 394562.0 0
194548.0 392271.0 0
198470.0 394653.0 0
204286.0 391030.0 0
209298.0 389230.0 0
215010.0 390538.0 0
219991.0 387978.0 0
226595.0 389834.0 0
231401.0 390173.0 0
236767.0 389562.0 0
241858.0 386279.0 0
241768.0 390044.0 0
247492.0 390972.0 0
253505.0 390485.0 0
257995.0 388582.0 0
262903.0 388925.0 0
267471.0 386649.0 0
271714.0 389542.0 0
280302.0 389548.0 0
284346.0 388128.0 0
288185.0 389369.0 0
292736.0 389031.0 0
296482.0 387045.0 0
301653.0 391988.0 0
306206.0 393605.0 0
310840.0 395378.0 0
313533.0 391745.0 0
319158.0 392398.0 0
316283.0 394869.0 0
320867.0 395318.0 0
321768.0 392020.0 0
325133.0 394767.0 0
329698.0 392711.0 0
333351.0 392370.0 0
336250.0 392233.0 0
339299.0 394720.0 0
346769.0 391373.0 0
343372.0 392583.0 0
351277.0 392298.0 0
347180.0 395037.0 0
356586.0 391561.0 0
355279.0 396011.0 0
360859.0 391720.0 0
360015.0 395558.0 0
364935.0 393611.0 0
370379.0 392931.0 0
373408.0 390909.0 0
375532.0 393617.0 0
379420.0 391146.0 0
379620.0 395098.0 0
384193.0 393362.0 0
389429.0 392015.0 0
394659.0 392483.0 0
400036.0 392343.0 0
408299.0 393145.0 0
404151.0 395063.0 0
411678.0 395838.0 0
415789.0 393461.0 0
420385.0 395612.0 0
423277.0 392347.0 0
427131.0 391547.0 0
430645.0 394385.0 0
436416.0 391398.0 0
436952.0 394935.0 0
441672.0 393026.0 0
445477.0 394104.0 0
447430.0 391636.0 0
449253.0 394487.0 0
453968.0 393296.0 0
458760.0 393000.0 0
462709.0 395365.0 0
466863.0 393140.0 0
470369.0 391169.0 0
474541.0 394062.0 0
471101.0 395135.0 0
478275.0 392897.0 0
482589.0 392948.0 0
487249.0 394024.0 0
492493.0 395639.0 0
497547.0 394684.0 0
1808.7 399272.0 0
6879.72 397849.0 0
11394.7 395687.0 0
10978.7 399685.0 0
15473.4 398910.0 0
20185.0 398510.0 0
25121.9 397998.0 0
28564.7 400679.0 0
29260.7 397077.0 0
35580.6 396408.0 0
32355.0 398774.0 0
38869.5 398104.0 0
41652.8 397502.0 0
44188.5 399006.0 0
47718.2 398213.0 0
49848.1 400911.0 0
51831.1 398237.0 0
56786.4 398199.0 0
63235.1 400282.0 0
68262.5 399858.0 0
71466.6 399411.0 0
75008.7 399888.0 0
76433.4 396228.0 0
79871.5 398349.0 0
83713.7 395393.0 0
85081.1 399655.0 0
89081.1 396364.0 0
93441.8 399431.0 0
97829.8 397271.0 0
102828.0 395778.0 0
105680.0 399610.0 0
110473.0 399836.0 0
114040.0 398561.0 0
117592.0 399019.0 0
122216.0 398825.0 0
127390.0 398614.0 0
132787.0 398508.0 0
137013.0 396812.0 0
141336.0 397125.0 0
146558.0 398318.0 0
150692.0 398700.0 0
155404.0 396920.0 0
160357.0 397141.0 0
166810.0 396377.0 0
163778.0 398963.0 0
170752.0 396616.0 0
173080.0 399384.0 0
174888.0 395947.0 0
177326.0 399655.0 0
182105.0 399103.0 0
186527.0 396987.0 0
190924.0 399456.0 0
194880.0 396483.0 0
195182.0 399936.0 0
198548.0 398192.0 0
202915.0 396231.0 0
208301.0 394347.0 0
218608.0 395279.0 0
222484.0 391941.0 0
222907.0 395851.0 0
226878.0 394678.0 0
232147.0 395419.0 0
237483.0 394982.0 0
242609.0 394711.0 0
252202.0 395396.0 0
257586.0 394021.0 0
262618.0 393696.0 0
267140.0 391955.0 0
272029.0 395286.0 0
275844.0 391478.0 0
279058.0 394718.0 0
284560.0 393650.0 0
291031.0 394560.0 0
296200.0 391968.0 0
302492.0 396707.0 0
306933.0 397223.0 0
309829.0 399363.0 0
314133.0 398778.0 0
318992.0 398649.0 0
323424.0 398468.0 0
328475.0 397702.0 0
334078.0 396619.0 0
335780.0 400694.0 0
339084.0 398804.0 0
338768.0 402362.0 0
343139.0 397156.0 0
351085.0 396608.0 0
348037.0 400199.0 0
353661.0 400257.0 0
358315.0 399581.0 0
363908.0 399060.0 0
368275.0 396800.0 0
372476.0 397002.0 0
376210.0 397697.0 0
379277.0 398369.0 0
387736.0 396253.0 0
383719.0 399469.0 0
391980.0 395959.0 0
389365.0 400224.0 0
397395.0 396724.0 0
393758.0 399816.0 0
401137.0 396027.0 0
402355.0 400021.0 0
407599.0 397964.0 0
411382.0 400148.0 0
415255.0 397700.0 0
419064.0 399730.0 0
423821.0 400265.0 0
425789.0 395764.0 0
428586.0 399318.0 0
433028.0 398295.0 0
438111.0 400310.0 0
442284.0 397069.0 0
447229.0 398378.0 0
452188.0 397662.0 0
457600.0 397546.0 0
462027.0 399359.0 0
466868.0 398261.0 0
471154.0 399215.0 0
475982.0 398195.0 0
480292.0 396351.0 0
484073.0 397226.0 0
480815.0 400443.0 0
488563.0 398879.0 0
497506.0 399584.0 0
4866.45 400953.0 0
1816.14 402756.0 0
8444.04 402593.0 0
5212.34 404550.0 0
13222.9 403065.0 0
18019.0 402878.0 0
23670.8 402666.0 0
28393.5 404484.0 0
32087.7 402501.0 0
35816.8 400546.0 0
36055.6 404836.0 0
40776.4 402005.0 0
46405.4 402485.0 0
53562.1 401958.0 0
50281.3 403942.0 0
55337.8 404709.0 0
58271.7 402512.0 0
62298.9 405680.0 0
67066.5 404279.0 0
71496.1 403085.0 0
77810.4 402508.0 0
81857.1 402035.0 0
85199.7 404609.0 0
89284.1 401954.0 0
97955.9 402021.0 0
101727.0 399840.0 0
107353.0 403035.0 0
102952.0 403964.0 0
111158.0 404907.0 0
114483.0 402207.0 0
119240.0 403099.0 0
125117.0 403470.0 0
130477.0 402482.0 0
129469.0 405897.0 0
132968.0 405539.0 0
134160.0 402642.0 0
137945.0 400888.0 0
143208.0 401085.0 0
140345.0 404145.0 0
148429.0 402565.0 0
154004.0 401393.0 0
156628.0 403860.0 0
159260.0 401045.0 0
163881.0 402973.0 0
168533.0 400704.0 0
173957.0 404075.0 0
180269.0 403320.0 0
186166.0 401421.0 0
189769.0 403526.0 0
193515.0 403105.0 0
197936.0 402180.0 0
203125.0 401719.0 0
207405.0 398987.0 0
213158.0 396408.0 0
211329.0 401012.0 0
216311.0 400960.0 0
221412.0 399657.0 0
226225.0 399521.0 0
231029.0 400668.0 0
236964.0 400892.0 0
242638.0 399751.0 0
247227.0 397267.0 0
251083.0 400367.0 0
255722.0 399239.0 0
261974.0 399665.0 0
266017.0 397392.0 0
270294.0 400938.0 0
276610.0 400353.0 0
282002.0 398266.0 0
286904.0 399244.0 0
292231.0 401079.0 0
296730.0 397535.0 0
301180.0 400525.0 0
305433.0 400571.0 0
302502.0 404395.0 0
308813.0 403077.0 0
312475.0 401956.0 0
317097.0 403001.0 0
321785.0 401382.0 0
322011.0 404944.0 0
326131.0 401904.0 0
331310.0 401471.0 0
335201.0 405255.0 0
342936.0 401946.0 0
351449.0 403959.0 0
356282.0 404124.0 0
360843.0 403071.0 0
365947.0 404884.0 0
369311.0 400577.0 0
371524.0 404681.0 0
374021.0 400930.0 0
378311.0 401317.0 0
381599.0 404379.0 0
386998.0 404494.0 0
392949.0 404380.0 0
397310.0 401244.0 0
399135.0 404867.0 0
407517.0 402328.0 0
403962.0 404173.0 0
411393.0 404531.0 0
415244.0 402059.0 0
420085.0 403534.0 0
424811.0 405052.0 0
433332.0 402438.0 0
429152.0 403567.0 0
436712.0 404550.0 0
443158.0 401676.0 0
440429.0 404323.0 0
446878.0 403041.0 0
450920.0 401853.0 0
454867.0 400995.0 0
454702.0 404704.0 0
459152.0 402437.0 0
462152.0 405483.0 0
464278.0 402271.0 0
469110.0 403014.0 0
473516.0 402344.0 0
477891.0 403391.0 0
482868.0 405252.0 0
484946.0 401095.0 0
488419.0 403685.0 0
492909.0 401065.0 0
497758.0 404054.0 0
1900.61 406397.0 0
1544.49 409429.0 0
6344.02 408966.0 0
10552.1 406252.0 0
15147.9 406919.0 0
20400.6 407389.0 0
25891.4 408219.0 0
31630.6 406854.0 0
40005.0 406920.0 0
43866.6 405690.0 0
43343.0 409339.0 0
47882.7 407264.0 0
52875.9 407147.0 0
57791.8 407110.0 0
65657.4 408906.0 0
70247.7 407636.0 0
75143.3 406510.0 0
80725.8 406316.0 0
84377.1 409851.0 0
88858.5 407144.0 0
93899.4 405118.0 0
98875.9 406166.0 0
102401.0 408738.0 0
106790.0 407405.0 0
115596.0 407166.0 0
121204.0 407637.0 0
126266.0 409154.0 0
131250.0 408895.0 0
135535.0 409153.0 0
136704.0 405040.0 0
139959.0 407800.0 0
144107.0 405424.0 0
148659.0 407650.0 0
152849.0 405341.0 0
156789.0 406853.0 0
160064.0 405149.0 0
163710.0 407464.0 0
159580.0 409131.0 0
168194.0 405569.0 0
171239.0 408418.0 0
174877.0 409440.0 0
178065.0 406813.0 0
181852.0 407059.0 0
186161.0 405724.0 0
188810.0 409219.0 0
191128.0 406594.0 0
194913.0 406492.0 0
198630.0 405677.0 0
198007.0 409726.0 0
207705.0 403913.0 0
212272.0 405704.0 0
217432.0 406355.0 0
222434.0 404719.0 0
227827.0 405040.0 0
233182.0 405499.0 0
244206.0 405123.0 0
247414.0 401621.0 0
249679.0 404809.0 0
253916.0 406258.0 0
258984.0 404079.0 0
264001.0 405738.0 0
265755.0 402166.0 0
268339.0 405363.0 0
273002.0 405379.0 0
278230.0 406618.0 0
282766.0 403193.0 0
288121.0 404907.0 0
293216.0 406220.0 0
297360.0 402700.0 0
297598.0 406756.0 0
302022.0 409317.0 0
307012.0 407092.0 0
312616.0 406169.0 0
318074.0 408799.0 0
323590.0 408706.0 0
325512.0 405650.0 0
329639.0 405930.0 0
326597.0 407879.0 0
333004.0 409226.0 0
340753.0 406324.0 0
346863.0 406351.0 0
353083.0 408545.0 0
360324.0 408002.0 0
369956.0 408415.0 0
376271.0 405350.0 0
379875.0 408771.0 0
384171.0 407688.0 0
389489.0 409591.0 0
395479.0 408823.0 0
399840.0 409236.0 0
402753.0 407439.0 0
407371.0 407439.0 0
416063.0 406752.0 0
420861.0 407668.0 0
424754.0 409604.0 0
432868.0 406535.0 0
428722.0 408032.0 0
435747.0 409074.0 0
436002.0 407126.0 0
439202.0 407948.0 0
444005.0 406730.0 0
449822.0 406936.0 0
458579.0 407027.0 0
454652.0 408839.0 0
462650.0 409075.0 0
465924.0 406451.0 0
474416.0 406618.0 0
469829.0 407148.0 0
478902.0 408376.0 0
487746.0 408797.0 0
492994.0 405966.0 0
497616.0 408464.0 0
2648.1 412916.0 0
7982.42 414403.0 0
11682.1 410428.0 0
13176.4 414564.0 0
16924.0 411386.0 0
22222.4 411900.0 0
29927.0 410413.0 0
26956.8 413018.0 0
35994.9 410329.0 0
40195.2 410063.0 0
36569.6 415188.0 0
40933.4 413612.0 0
44205.0 412049.0 0
46631.9 410717.0 0
50844.1 411662.0 0
56040.1 411196.0 0
61121.5 410426.0 0
68865.6 411646.0 0
73519.0 411843.0 0
78711.9 410638.0 0
81797.6 414098.0 0
85941.4 414341.0 0
88489.9 411455.0 0
92986.2 410354.0 0
96403.2 413887.0 0
97761.1 409678.0 0
100994.0 412748.0 0
106198.0 412548.0 0
110796.0 409729.0 0
111103.0 414431.0 0
114353.0 411743.0 0
118635.0 411455.0 0
122022.0 414983.0 0
122768.0 411282.0 0
127225.0 414292.0 0
129575.0 411541.0 0
139318.0 413452.0 0
144146.0 409995.0 0
148705.0 412165.0 0
144790.0 414129.0 0
153760.0 410382.0 0
158264.0 412882.0 0
162769.0 412022.0 0
167621.0 410480.0 0
172164.0 413780.0 0
179353.0 411102.0 0
184737.0 410270.0 0
188192.0 413250.0 0
192757.0 410913.0 0
203311.0 407329.0 0
202142.0 411618.0 0
208542.0 409982.0 0
214237.0 410607.0 0
218845.0 410420.0 0
222500.0 409530.0 0
228770.0 410160.0 0
234284.0 410603.0 0
238519.0 407036.0 0
242900.0 410584.0 0
248033.0 409559.0 0
252374.0 409850.0 0
256461.0 410331.0 0
261287.0 409307.0 0
265844.0 409483.0 0
270271.0 409371.0 0
275017.0 411213.0 0
282797.0 409342.0 0
288153.0 410773.0 0
293539.0 411071.0 0
297585.0 410763.0 0
302508.0 414555.0 0
305903.0 411386.0 0
310965.0 411207.0 0
315151.0 412104.0 0
317838.0 413823.0 0
322318.0 412623.0 0
328457.0 411824.0 0
334583.0 413475.0 0
337684.0 409888.0 0
343038.0 411128.0 0
348568.0 411562.0 0
353173.0 413556.0 0
357281.0 411367.0 0
361338.0 413137.0 0
365420.0 410309.0 0
365534.0 415026.0 0
369932.0 412358.0 0
374535.0 410276.0 0
379130.0 413237.0 0
384103.0 411544.0 0
394028.0 413914.0 0
398532.0 411965.0 0
403609.0 411845.0 0
412039.0 409405.0 0
408623.0 411985.0 0
416421.0 411323.0 0
420973.0 411870.0 0
427870.0 412819.0 0
432612.0 410995.0 0
437554.0 412326.0 0
441792.0 410684.0 0
446364.0 411670.0 0
451785.0 411790.0 0
458489.0 412092.0 0
463329.0 412541.0 0
467092.0 410746.0 0
471807.0 410646.0 0
470069.0 414086.0 0
475924.0 410838.0 0
474176.0 414168.0 0
482805.0 410174.0 0
479387.0 413236.0 0
485365.0 413157.0 0
492825.0 411377.0 0
497700.0 413274.0 0
2324.59 417133.0 0
10317.7 417866.0 0
13712.7 418393.0 0
18592.6 416681.0 0
23888.5 415937.0 0
28195.6 417817.0 0
31920.5 414294.0 0
39305.6 418413.0 0
43299.8 417550.0 0
46432.9 414662.0 0
47185.2 419514.0 0
50847.3 416618.0 0
54818.3 415362.0 0
59601.3 414730.0 0
57475.3 418416.0 0
62422.2 418472.0 0
64809.6 414185.0 0
69893.6 415648.0 0
66980.3 418982.0 0
74168.8 416954.0 0
77415.4 414392.0 0
79141.4 418598.0 0
84213.2 418032.0 0
90859.4 415962.0 0
96245.3 418557.0 0
101822.0 417447.0 0
107592.0 417912.0 0
116303.0 416413.0 0
120930.0 419601.0 0
125433.0 418414.0 0
132969.0 414080.0 0
132067.0 418727.0 0
136388.0 418311.0 0
143102.0 418601.0 0
148418.0 416546.0 0
152310.0 414814.0 0
152671.0 418681.0 0
155994.0 416183.0 0
161124.0 416813.0 0
166418.0 415215.0 0
165140.0 419266.0 0
169581.0 419102.0 0
178028.0 416107.0 0
174185.0 418293.0 0
183309.0 414914.0 0
187146.0 418072.0 0
191856.0 416217.0 0
197184.0 415077.0 0
194951.0 419678.0 0
202936.0 416006.0 0
207908.0 415407.0 0
212497.0 415113.0 0
217550.0 415030.0 0
222792.0 414747.0 0
226814.0 413785.0 0
231123.0 414751.0 0
238654.0 412004.0 0
236009.0 415359.0 0
240944.0 415478.0 0
246163.0 415083.0 0
252201.0 414165.0 0
257378.0 415303.0 0
262429.0 414259.0 0
267899.0 414024.0 0
272854.0 416147.0 0
278037.0 415705.0 0
282380.0 413900.0 0
286186.0 416212.0 0
291461.0 415882.0 0
297109.0 415223.0 0
302398.0 419385.0 0
307077.0 414504.0 0
307199.0 418412.0 0
310238.0 415737.0 0
314036.0 415267.0 0
311818.0 418977.0 0
316462.0 419238.0 0
320470.0 416939.0 0
325578.0 416872.0 0
331458.0 418003.0 0
338916.0 413717.0 0
337345.0 417847.0 0
341894.0 416267.0 0
346252.0 415350.0 0
350195.0 415400.0 0
348677.0 419154.0 0
352966.0 418070.0 0
357111.0 415801.0 0
362066.0 418759.0 0
369110.0 415981.0 0
374076.0 416351.0 0
379689.0 417975.0 0
382866.0 415470.0 0
383947.0 419189.0 0
387789.0 415510.0 0
392201.0 419693.0 0
396822.0 417838.0 0
400000.0 415307.0 0
406686.0 415465.0 0
412769.0 414394.0 0
409833.0 419084.0 0
418272.0 415533.0 0
423730.0 415739.0 0
428136.0 417246.0 0
432129.0 415390.0 0
436578.0 417028.0 0
441933.0 415284.0 0
446133.0 418856.0 0
449466.0 415525.0 0
451333.0 419725.0 0
454238.0 415633.0 0
462064.0 415871.0 0
458488.0 416679.0 0
461064.0 419703.0 0
466285.0 415600.0 0
471642.0 417463.0 0
476939.0 418179.0 0
482726.0 415835.0 0
488926.0 413779.0 0
486857.0 417700.0 0
492251.0 417024.0 0
497520.0 417858.0 0
1884.19 421128.0 0
6534.27 419780.0 0
11050.2 421335.0 0
15107.3 422142.0 0
23443.6 420834.0 0
18932.2 421625.0 0
28630.7 423160.0 0
33953.2 419987.0 0
38514.2 423737.0 0
42678.5 421712.0 0
46704.6 423862.0 0
52957.8 422313.0 0
59641.2 422404.0 0
64699.4 422800.0 0
69472.5 423268.0 0
71134.8 419565.0 0
73141.8 424399.0 0
74836.1 421427.0 0
82040.6 423139.0 0
86812.0 421357.0 0
91728.2 421870.0 0
98382.6 423332.0 0
104165.0 422614.0 0
109582.0 422796.0 0
112167.0 419344.0 0
117190.0 421310.0 0
120731.0 423250.0 0
124378.0 422644.0 0
128909.0 421273.0 0
133858.0 423556.0 0
139209.0 422290.0 0
148519.0 421020.0 0
157066.0 420301.0 0
153150.0 423022.0 0
161833.0 422129.0 0
166577.0 422772.0 0
173499.0 423526.0 0
177419.0 420194.0 0
182010.0 420041.0 0
178857.0 423860.0 0
186401.0 422818.0 0
191020.0 421231.0 0
198467.0 419583.0 0
197021.0 422448.0 0
201939.0 422397.0 0
207253.0 420615.0 0
213274.0 420483.0 0
218778.0 420052.0 0
222985.0 420881.0 0
227016.0 418329.0 0
231961.0 420138.0 0
237363.0 420370.0 0
242922.0 419259.0 0
247853.0 421023.0 0
252294.0 418740.0 0
256517.0 420382.0 0
261028.0 418807.0 0
265777.0 419086.0 0
270341.0 419950.0 0
275611.0 420842.0 0
281964.0 420321.0 0
287995.0 421629.0 0
293620.0 421327.0 0
298813.0 422500.0 0
305784.0 422578.0 0
309662.0 421975.0 0
313623.0 423203.0 0
318374.0 423554.0 0
322426.0 421133.0 0
327187.0 421416.0 0
336874.0 422666.0 0
341742.0 421244.0 0
344909.0 418599.0 0
346343.0 422803.0 0
352291.0 422981.0 0
356761.0 420703.0 0
359976.0 422947.0 0
368189.0 420610.0 0
373198.0 421354.0 0
375313.0 423867.0 0
376901.0 421002.0 0
380993.0 421483.0 0
379057.0 424249.0 0
387477.0 420710.0 0
389583.0 424384.0 0
396730.0 421102.0 0
394457.0 424324.0 0
400559.0 419823.0 0
398828.0 423926.0 0
404964.0 419364.0 0
403446.0 423869.0 0
407379.0 422571.0 0
412004.0 424218.0 0
415269.0 419612.0 0
420976.0 420160.0 0
425508.0 419855.0 0
427941.0 422506.0 0
424249.0 423302.0 0
431674.0 419929.0 0
436304.0 422209.0 0
440298.0 419714.0 0
443239.0 423251.0 0
448452.0 423547.0 0
453741.0 424344.0 0
456236.0 420012.0 0
458909.0 423734.0 0
463796.0 423172.0 0
467698.0 420083.0 0
472746.0 422179.0 0
482200.0 419956.0 0
484199.0 423756.0 0
494336.0 421852.0 0
498492.0 421631.0 0
3291.81 425734.0 0
8327.47 424253.0 0
9047.62 428965.0 0
12393.7 425340.0 0
18101.5 427173.0 0
24090.2 425906.0 0
28333.1 428681.0 0
33832.6 426456.0 0
39091.0 426687.0 0
42666.2 426882.0 0
49235.7 426597.0 0
57506.5 426978.0 0
62086.6 426445.0 0
66660.2 427288.0 0
71792.2 428090.0 0
77020.6 426011.0 0
86380.0 425892.0 0
91271.5 427607.0 0
94643.4 425002.0 0
96341.2 427908.0 0
101458.0 428151.0 0
107118.0 427303.0 0
113776.0 423045.0 0
117599.0 425516.0 0
122717.0 427490.0 0
127837.0 425615.0 0
131255.0 427526.0 0
138980.0 427450.0 0
144349.0 424558.0 0
147907.0 428010.0 0
149325.0 424922.0 0
152835.0 428209.0 0
157656.0 425376.0 0
163007.0 427504.0 0
168843.0 427126.0 0
174146.0 428751.0 0
178533.0 428445.0 0
182723.0 424839.0 0
185650.0 427219.0 0
190188.0 426100.0 0
194187.0 424073.0 0
197714.0 426213.0 0
203627.0 426681.0 0
208437.0 425493.0 0
213134.0 426284.0 0
217688.0 424547.0 0
222459.0 425385.0 0
227848.0 424077.0 0
232967.0 424649.0 0
237437.0 425779.0 0
241569.0 423454.0 0
245464.0 425954.0 0
249849.0 425761.0 0
254739.0 425596.0 0
261193.0 424620.0 0
267923.0 424415.0 0
273496.0 426013.0 0
279002.0 425863.0 0
283265.0 425185.0 0
286706.0 426354.0 0
291083.0 425932.0 0
296409.0 426648.0 0
302819.0 426425.0 0
309350.0 426935.0 0
315681.0 427128.0 0
320116.0 427481.0 0
322842.0 425006.0 0
326531.0 425240.0 0
331706.0 424007.0 0
328866.0 428530.0 0
337577.0 427109.0 0
343270.0 426175.0 0
348603.0 426991.0 0
354080.0 428193.0 0
358111.0 425940.0 0
363374.0 423730.0 0
362299.0 427874.0 0
366900.0 426125.0 0
370702.0 429114.0 0
371630.0 424763.0 0
375891.0 427965.0 0
380783.0 428116.0 0
384307.0 424265.0 0
384493.0 428821.0 0
392401.0 428785.0 0
397165.0 426973.0 0
400607.0 427339.0 0
407443.0 426532.0 0
417931.0 424735.0 0
414447.0 428982.0 0
422529.0 426181.0 0
426856.0 426804.0 0
431641.0 424749.0 0
430970.0 428827.0 0
436241.0 428091.0 0
439425.0 424683.0 0
441103.0 427088.0 0
445037.0 427825.0 0
450270.0 428559.0 0
457326.0 428546.0 0
461433.0 426834.0 0
468282.0 424778.0 0
465046.0 427338.0 0
472154.0 427184.0 0
478419.0 423982.0 0
476114.0 428133.0 0
482525.0 427731.0 0
488908.0 422910.0 0
493053.0 426721.0 0
497803.0 424981.0 0
497498.0 429135.0 0
3463.94 432206.0 0
13751.6 431890.0 0
23366.6 430688.0 0
27214.3 433626.0 0
32720.6 432662.0 0
38341.9 430290.0 0
47123.3 430710.0 0
52910.6 429155.0 0
56742.7 433126.0 0
62328.0 431423.0 0
68139.0 432682.0 0
73667.0 433118.0 0
77934.4 430980.0 0
82077.7 428420.0 0
86731.7 430864.0 0
91993.5 432822.0 0
97646.3 432155.0 0
102496.0 433273.0 0
108383.0 433234.0 0
112848.0 428152.0 0
114959.0 432690.0 0
118072.0 430222.0 0
122116.0 433239.0 0
127942.0 431219.0 0
134382.0 431035.0 0
139772.0 432813.0 0
143945.0 430020.0 0
148856.0 432298.0 0
158135.0 431131.0 0
153404.0 432962.0 0
167109.0 430884.0 0
163893.0 433414.0 0
171029.0 432454.0 0
176549.0 433005.0 0
182911.0 430692.0 0
188162.0 431024.0 0
193880.0 430355.0 0
198585.0 430296.0 0
202064.0 429840.0 0
206565.0 429696.0 0
212920.0 431076.0 0
217474.0 429440.0 0
222250.0 430145.0 0
227134.0 429698.0 0
232009.0 428976.0 0
236613.0 430896.0 0
241459.0 428808.0 0
246645.0 431017.0 0
251623.0 429714.0 0
257010.0 431372.0 0
263658.0 431166.0 0
268846.0 429539.0 0
273134.0 431147.0 0
277960.0 430914.0 0
283096.0 429799.0 0
288023.0 429786.0 0
293164.0 430114.0 0
297587.0 429851.0 0
302391.0 431874.0 0
307855.0 433087.0 0
313410.0 431586.0 0
318096.0 430741.0 0
324330.0 428775.0 0
322166.0 432517.0 0
327065.0 432999.0 0
333411.0 429091.0 0
336858.0 431824.0 0
340699.0 430042.0 0
345288.0 430929.0 0
350679.0 432152.0 0
358385.0 429986.0 0
366134.0 430704.0 0
361921.0 432382.0 0
369715.0 433234.0 0
374012.0 432845.0 0
378779.0 432164.0 0
383292.0 432629.0 0
387717.0 430973.0 0
391558.0 433814.0 0
397792.0 431226.0 0
403572.0 430833.0 0
409308.0 431532.0 0
414071.0 433445.0 0
419991.0 430041.0 0
425054.0 431312.0 0
428747.0 431049.0 0
432773.0 432344.0 0
436921.0 433294.0 0
441263.0 431245.0 0
446421.0 432466.0 0
454006.0 432141.0 0
458337.0 433454.0 0
462509.0 431169.0 0
468235.0 429684.0 0
472800.0 432743.0 0
478764.0 431575.0 0
484108.0 432668.0 0
487661.0 428303.0 0
488157.0 432386.0 0
491535.0 431139.0 0
494659.0 433429.0 0
498233.0 433116.0 0
9178.41 434581.0 0
14208.9 437814.0 0
19014.5 433879.0 0
23570.7 437096.0 0
28645.9 437970.0 0
33202.1 438161.0 0
37609.3 435785.0 0
42745.7 434135.0 0
51342.2 434284.0 0
47246.2 436595.0 0
57301.8 437601.0 0
60795.8 436138.0 0
64701.5 436184.0 0
74640.1 437796.0 0
77512.4 434830.0 0
82077.5 433486.0 0
86458.6 435794.0 0
90664.7 437169.0 0
95398.8 436701.0 0
100618.0 437844.0 0
113229.0 436278.0 0
117813.0 435201.0 0
120947.0 437895.0 0
126489.0 437601.0 0
131497.0 435288.0 0
136334.0 436555.0 0
144365.0 434963.0 0
148605.0 437182.0 0
153673.0 437368.0 0
159257.0 436992.0 0
168048.0 436193.0 0
173322.0 437098.0 0
177534.0 437475.0 0
181183.0 435167.0 0
186049.0 435593.0 0
191831.0 436423.0 0
197743.0 434269.0 0
202758.0 434222.0 0
208929.0 434535.0 0
214072.0 435360.0 0
218242.0 434438.0 0
222344.0 434596.0 0
226589.0 434570.0 0
231943.0 434415.0 0
238049.0 435097.0 0
242133.0 433940.0 0
247149.0 436038.0 0
252200.0 434224.0 0
257555.0 436277.0 0
261120.0 435831.0 0
268939.0 434661.0 0
273930.0 435572.0 0
279597.0 435463.0 0
284391.0 434865.0 0
288634.0 434558.0 0
292890.0 434775.0 0
297221.0 433036.0 0
302808.0 437390.0 0
307542.0 438036.0 0
312325.0 437227.0 0
318092.0 435677.0 0
323697.0 437309.0 0
328910.0 437802.0 0
332446.0 433936.0 0
333218.0 438263.0 0
337060.0 436344.0 0
341459.0 434403.0 0
346442.0 436136.0 0
351488.0 437270.0 0
356742.0 435129.0 0
361500.0 436011.0 0
365870.0 435916.0 0
371500.0 437595.0 0
377080.0 436622.0 0
381479.0 436507.0 0
387046.0 435935.0 0
391941.0 437860.0 0
395892.0 436189.0 0
401251.0 435762.0 0
406620.0 436874.0 0
411247.0 436070.0 0
414376.0 437440.0 0
418368.0 435419.0 0
423783.0 436026.0 0
428875.0 434849.0 0
433754.0 436923.0 0
438726.0 436995.0 0
442135.0 435275.0 0
445524.0 437070.0 0
450778.0 436374.0 0
455412.0 435791.0 0
462019.0 436218.0 0
466850.0 434376.0 0
470466.0 437766.0 0
475810.0 438169.0 0
480540.0 435965.0 0
484525.0 437508.0 0
490465.0 437222.0 0
497132.0 437476.0 0
3188.12 438694.0 0
1927.49 443601.0 0
8757.76 439477.0 0
11947.8 443091.0 0
19256.4 438664.0 0
17492.1 443168.0 0
21757.7 441151.0 0
25841.0 441602.0 0
32846.2 442397.0 0
37577.3 441311.0 0
43283.5 439815.0 0
48584.7 441243.0 0
53153.8 438873.0 0
57405.6 441597.0 0
62878.0 440771.0 0
69141.4 439144.0 0
73916.3 441614.0 0
78018.6 440991.0 0
82260.2 438489.0 0
83318.7 442839.0 0
87524.4 440718.0 0
92824.0 441271.0 0
97270.6 440853.0 0
105762.0 438589.0 0
102777.0 442320.0 0
106797.0 442798.0 0
110572.0 440486.0 0
116386.0 440540.0 0
121483.0 442323.0 0
125966.0 443215.0 0
132235.0 440181.0 0
141254.0 438708.0 0
137574.0 441050.0 0
141786.0 443434.0 0
145714.0 440991.0 0
150517.0 441418.0 0
156021.0 441935.0 0
160840.0 441852.0 0
164497.0 438735.0 0
169853.0 440954.0 0
175583.0 441620.0 0
181319.0 440686.0 0
187273.0 440886.0 0
197186.0 439345.0 0
201655.0 439877.0 0
205399.0 438592.0 0
212506.0 439911.0 0
216891.0 439627.0 0
221184.0 439464.0 0
226641.0 439741.0 0
231580.0 439536.0 0
236870.0 439968.0 0
243145.0 439380.0 0
247997.0 440043.0 0
251988.0 438769.0 0
256531.0 440232.0 0
261302.0 440122.0 0
266268.0 439688.0 0
271348.0 439565.0 0
276447.0 439673.0 0
282647.0 439393.0 0
287500.0 439535.0 0
292551.0 439706.0 0
296990.0 437460.0 0
302477.0 442750.0 0
309319.0 441080.0 0
312916.0 442343.0 0
317260.0 440765.0 0
326166.0 440892.0 0
322136.0 442401.0 0
331326.0 442555.0 0
336296.0 441036.0 0
341813.0 440084.0 0
348424.0 441740.0 0
354573.0 441485.0 0
360942.0 440679.0 0
367158.0 441496.0 0
371825.0 442521.0 0
375187.0 440565.0 0
379624.0 440999.0 0
384124.0 439687.0 0
388920.0 441242.0 0
394310.0 440786.0 0
398652.0 440176.0 0
403387.0 440876.0 0
407699.0 440349.0 0
411331.0 440597.0 0
417140.0 441042.0 0
422147.0 440387.0 0
427510.0 440357.0 0
432350.0 441194.0 0
436667.0 441291.0 0
442218.0 440857.0 0
447815.0 440908.0 0
453278.0 441697.0 0
457922.0 438959.0 0
461855.0 441655.0 0
466012.0 439478.0 0
472140.0 441215.0 0
476982.0 443249.0 0
480904.0 440571.0 0
486010.0 442312.0 0
492962.0 442851.0 0
497627.0 442459.0 0
4107.66 447646.0 0
6144.49 443156.0 0
8770.63 446355.0 0
12898.6 447899.0 0
20129.1 446278.0 0
22986.2 445010.0 0
29275.5 445819.0 0
36696.8 447324.0 0
41476.5 444288.0 0
47401.9 445439.0 0
50522.8 447495.0 0
53046.0 443897.0 0
57821.8 446231.0 0
62272.7 445901.0 0
66617.7 444778.0 0
71200.8 444387.0 0
75844.2 445355.0 0
81015.7 447180.0 0
86945.0 446272.0 0
92112.6 445997.0 0
96576.6 444900.0 0
101059.0 446580.0 0
106053.0 446979.0 0
111620.0 446096.0 0
117731.0 446527.0 0
122960.0 446524.0 0
130522.0 445513.0 0
135416.0 444331.0 0
139047.0 447231.0 0
143655.0 446354.0 0
147498.0 445689.0 0
152562.0 445564.0 0
157138.0 446275.0 0
161540.0 446467.0 0
165201.0 443446.0 0
167925.0 446576.0 0
172598.0 446143.0 0
178799.0 445179.0 0
183355.0 445398.0 0
188226.0 446546.0 0
192619.0 442753.0 0
193318.0 447062.0 0
197522.0 444773.0 0
202085.0 444850.0 0
207794.0 444230.0 0
212905.0 446183.0 0
215983.0 444015.0 0
220549.0 444475.0 0
225673.0 445259.0 0
230959.0 444223.0 0
235790.0 445424.0 0
240450.0 445297.0 0
246264.0 445048.0 0
253238.0 445289.0 0
259650.0 444991.0 0
264315.0 445507.0 0
269080.0 444644.0 0
273487.0 444273.0 0
278626.0 444775.0 0
283438.0 443912.0 0
287353.0 444255.0 0
292108.0 445127.0 0
297226.0 442373.0 0
302138.0 447352.0 0
307002.0 444231.0 0
311144.0 446244.0 0
316950.0 446580.0 0
322796.0 447342.0 0
326711.0 444918.0 0
333548.0 447558.0 0
338966.0 445647.0 0
343770.0 444702.0 0
352501.0 445979.0 0
348059.0 447248.0 0
357978.0 446353.0 0
363921.0 446163.0 0
369467.0 445638.0 0
375651.0 445197.0 0
380273.0 445558.0 0
384559.0 444446.0 0
392678.0 444192.0 0
389057.0 446487.0 0
397412.0 445332.0 0
401435.0 443929.0 0
402179.0 447185.0 0
407327.0 445176.0 0
413662.0 445496.0 0
419044.0 446259.0 0
423738.0 444432.0 0
428247.0 445840.0 0
433507.0 445768.0 0
439373.0 444794.0 0
437614.0 447798.0 0
443693.0 446175.0 0
449205.0 445714.0 0
454432.0 446892.0 0
457903.0 443701.0 0
461740.0 446087.0 0
467142.0 445049.0 0
472794.0 445122.0 0
477541.0 446763.0 0
481364.0 445532.0 0
489579.0 446187.0 0
493938.0 447053.0 0
497955.0 446759.0 0
2899.17 453025.0 0
8335.23 451078.0 0
14574.1 452313.0 0
17711.2 448704.0 0
24377.0 449002.0 0
21194.6 452023.0 0
27631.2 449878.0 0
31126.6 450938.0 0
35256.5 452387.0 0
39675.8 452054.0 0
42261.7 448350.0 0
46766.5 449804.0 0
50071.8 452442.0 0
54557.5 450632.0 0
60483.5 450379.0 0
65663.8 449763.0 0
72073.9 450388.0 0
78101.4 451713.0 0
81755.3 451414.0 0
85077.3 450892.0 0
91595.0 451513.0 0
97192.0 449709.0 0
102934.0 452025.0 0
109016.0 451291.0 0
113465.0 450557.0 0
121285.0 451238.0 0
126827.0 449833.0 0
133871.0 450906.0 0
140069.0 452439.0 0
144642.0 449833.0 0
149372.0 450953.0 0
154576.0 450197.0 0
159539.0 450625.0 0
163668.0 450245.0 0
167514.0 450381.0 0
171625.0 451080.0 0
177092.0 450200.0 0
183402.0 450582.0 0
188451.0 451340.0 0
191659.0 449636.0 0
196759.0 450511.0 0
202961.0 449536.0 0
208826.0 451226.0 0
213625.0 449577.0 0
217415.0 449535.0 0
222051.0 449697.0 0
227202.0 450236.0 0
232664.0 449700.0 0
238300.0 449924.0 0
242790.0 449622.0 0
248146.0 450713.0 0
252125.0 450556.0 0
256173.0 450738.0 0
261255.0 450079.0 0
266395.0 449653.0 0
272320.0 450024.0 0
277479.0 449360.0 0
282684.0 449274.0 0
288136.0 448296.0 0
292276.0 450733.0 0
297037.0 448065.0 0
301978.0 451634.0 0
307053.0 449822.0 0
312807.0 451158.0 0
317988.0 452815.0 0
323132.0 452014.0 0
328411.0 450229.0 0
334392.0 452136.0 0
338629.0 450952.0 0
343265.0 449291.0 0
352207.0 450651.0 0
347307.0 452110.0 0
357875.0 452416.0 0
363201.0 451161.0 0
367949.0 449846.0 0
372491.0 448784.0 0
376852.0 450342.0 0
381922.0 449701.0 0
387165.0 451554.0 0
393458.0 450213.0 0
399287.0 450521.0 0
405156.0 451709.0 0
410985.0 450159.0 0
416553.0 451112.0 0
423569.0 450057.0 0
429804.0 451043.0 0
435228.0 451009.0 0
440854.0 450573.0 0
446586.0 450850.0 0
451883.0 451038.0 0
458681.0 450298.0 0
464340.0 450217.0 0
469464.0 450302.0 0
474196.0 449570.0 0
478842.0 450382.0 0
483174.0 449610.0 0
487531.0 450753.0 0
492234.0 450776.0 0
496911.0 451156.0 0
1196.72 456717.0 0
6960.91 455634.0 0
11068.4 455133.0 0
18012.2 455731.0 0
22114.0 455829.0 0
26417.9 454063.0 0
32060.7 455683.0 0
37542.6 457001.0 0
42313.6 455399.0 0
46483.7 454631.0 0
52633.1 456478.0 0
58279.5 455175.0 0
63512.4 454509.0 0
68020.9 454492.0 0
71719.4 456420.0 0
76750.2 456759.0 0
81806.9 455106.0 0
86903.1 455197.0 0
91613.7 457443.0 0
97179.7 455477.0 0
102118.0 457277.0 0
107079.0 456271.0 0
112192.0 455544.0 0
116560.0 453261.0 0
122997.0 456190.0 0
128785.0 455746.0 0
135229.0 457599.0 0
139723.0 456590.0 0
144723.0 454581.0 0
148626.0 456043.0 0
153272.0 455492.0 0
158280.0 454798.0 0
162879.0 454448.0 0
168136.0 455135.0 0
173618.0 454191.0 0
177062.0 455661.0 0
181393.0 455384.0 0
186386.0 455611.0 0
192124.0 454739.0 0
197560.0 456077.0 0
201722.0 454324.0 0
206134.0 456822.0 0
214038.0 454040.0 0
218423.0 454746.0 0
222500.0 454855.0 0
226859.0 455915.0 0
232468.0 454825.0 0
237231.0 455113.0 0
242516.0 454420.0 0
247317.0 455540.0 0
252500.0 454858.0 0
256504.0 455462.0 0
261342.0 455312.0 0
267026.0 455233.0 0
272548.0 455899.0 0
277460.0 453962.0 0
281984.0 456709.0 0
286710.0 453910.0 0
291644.0 455958.0 0
297066.0 454213.0 0
302621.0 456309.0 0
307467.0 455421.0 0
312095.0 456113.0 0
316391.0 457340.0 0
321238.0 457016.0 0
326567.0 455963.0 0
331869.0 455861.0 0
337668.0 456431.0 0
343044.0 454311.0 0
347908.0 457023.0 0
353229.0 456030.0 0
362263.0 455465.0 0
358219.0 457836.0 0
366290.0 454154.0 0
371787.0 453751.0 0
376449.0 454798.0 0
380947.0 454280.0 0
385037.0 456790.0 0
391199.0 456183.0 0
396675.0 455107.0 0
401464.0 456000.0 0
407943.0 457067.0 0
412915.0 454785.0 0
417713.0 456621.0 0
422195.0 455021.0 0
426459.0 455370.0 0
433096.0 454867.0 0
437799.0 455475.0 0
443179.0 455227.0 0
448304.0 456079.0 0
452435.0 454974.0 0
456583.0 455399.0 0
461907.0 455008.0 0
467406.0 455075.0 0
472632.0 453981.0 0
477276.0 454712.0 0
482259.0 454313.0 0
488651.0 455974.0 0
492987.0 454496.0 0
497793.0 455778.0 0
2820.51 460373.0 0
8011.3 461093.0 0
13002.1 459621.0 0
17616.0 460192.0 0
22089.2 460121.0 0
27635.4 460048.0 0
33231.3 460796.0 0
37794.4 462831.0 0
42244.5 460441.0 0
47695.2 459606.0 0
52172.4 461671.0 0
56919.4 460491.0 0
62100.1 459386.0 0
67628.1 459602.0 0
73059.1 461326.0 0
78274.4 461903.0 0
84106.7 460539.0 0
89634.5 461788.0 0
94451.3 461683.0 0
99129.5 460706.0 0
104211.0 461598.0 0
108956.0 460440.0 0
112916.0 460074.0 0
116194.0 461923.0 0
118132.0 457965.0 0
122180.0 460879.0 0
128177.0 463033.0 0
134791.0 462746.0 0
139139.0 460976.0 0
143464.0 459470.0 0
146586.0 462334.0 0
150467.0 460359.0 0
157216.0 460235.0 0
162850.0 459184.0 0
167638.0 460614.0 0
172798.0 458546.0 0
177808.0 460179.0 0
183020.0 460066.0 0
188291.0 459933.0 0
193023.0 460116.0 0
197730.0 460713.0 0
202500.0 459731.0 0
207996.0 461413.0 0
212689.0 459520.0 0
217500.0 459687.0 0
222500.0 459556.0 0
228084.0 461215.0 0
232684.0 459538.0 0
237829.0 460012.0 0
242662.0 458961.0 0
247444.0 459938.0 0
251960.0 459230.0 0
256321.0 459693.0 0
260724.0 460327.0 0
265507.0 460432.0 0
270759.0 461018.0 0
276931.0 460003.0 0
281920.0 461379.0 0
286542.0 460050.0 0
292222.0 461173.0 0
298355.0 460690.0 0
303899.0 460921.0 0
308089.0 459813.0 0
312832.0 461204.0 0
318507.0 461829.0 0
323569.0 461130.0 0
328241.0 461081.0 0
333522.0 460883.0 0
338276.0 462095.0 0
342992.0 459920.0 0
351348.0 460960.0 0
356711.0 463075.0 0
363020.0 460951.0 0
368535.0 458271.0 0
373300.0 461771.0 0
378455.0 458880.0 0
382887.0 461337.0 0
388301.0 461413.0 0
393452.0 461143.0 0
398080.0 460099.0 0
403432.0 460623.0 0
408126.0 462019.0 0
412831.0 459920.0 0
417754.0 461705.0 0
422312.0 459525.0 0
427128.0 461180.0 0
430241.0 457782.0 0
434750.0 460659.0 0
440971.0 460368.0 0
446613.0 462333.0 0
452723.0 460118.0 0
459429.0 460488.0 0
464520.0 458964.0 0
469224.0 460631.0 0
474497.0 458628.0 0
479545.0 459331.0 0
484150.0 458824.0 0
488157.0 461145.0 0
493119.0 458441.0 0
497443.0 460354.0 0
1742.13 464769.0 0
5734.29 465735.0 0
11482.3 464669.0 0
17309.7 465415.0 0
23323.3 465167.0 0
28332.1 465467.0 0
33405.8 466154.0 0
38163.6 467327.0 0
42399.8 465569.0 0
47059.4 464722.0 0
51847.9 466371.0 0
57235.2 466040.0 0
62513.4 464590.0 0
67163.5 464530.0 0
71226.8 466184.0 0
76021.6 466238.0 0
81809.8 467055.0 0
87118.7 465264.0 0
91820.0 466097.0 0
97778.5 465724.0 0
103147.0 467208.0 0
108579.0 465326.0 0
113944.0 465605.0 0
119356.0 465208.0 0
123873.0 467795.0 0
133424.0 466990.0 0
138461.0 465444.0 0
143325.0 464478.0 0
146913.0 465616.0 0
151327.0 466040.0 0
157245.0 466505.0 0
162537.0 464240.0 0
167404.0 465595.0 0
173071.0 464798.0 0
177464.0 466237.0 0
181139.0 465152.0 0
186499.0 464466.0 0
192555.0 465992.0 0
198042.0 464944.0 0
202520.0 464499.0 0
207253.0 465772.0 0
212280.0 464918.0 0
217524.0 464456.0 0
222418.0 464576.0 0
226516.0 465702.0 0
231531.0 464414.0 0
236480.0 464704.0 0
241708.0 463609.0 0
247443.0 465088.0 0
253660.0 464643.0 0
258887.0 464781.0 0
262892.0 464584.0 0
267300.0 465108.0 0
273471.0 465329.0 0
277913.0 465478.0 0
282555.0 464877.0 0
287658.0 465131.0 0
292006.0 465960.0 0
297195.0 467088.0 0
301876.0 464884.0 0
306325.0 464914.0 0
310680.0 465261.0 0
315117.0 466548.0 0
320126.0 466752.0 0
325576.0 466220.0 0
331283.0 465651.0 0
336058.0 465931.0 0
341947.0 466522.0 0
347113.0 463459.0 0
351589.0 466324.0 0
361578.0 467041.0 0
367905.0 465524.0 0
378862.0 465884.0 0
385008.0 465764.0 0
389909.0 466633.0 0
394754.0 465487.0 0
400083.0 465232.0 0
404092.0 464465.0 0
407224.0 466913.0 0
413010.0 465241.0 0
418255.0 466352.0 0
422650.0 464468.0 0
427398.0 466428.0 0
431896.0 464956.0 0
436280.0 465902.0 0
441317.0 466118.0 0
446093.0 467468.0 0
451493.0 466723.0 0
457313.0 466374.0 0
462221.0 465356.0 0
467456.0 466571.0 0
473715.0 465172.0 0
484149.0 462944.0 0
479826.0 464845.0 0
487425.0 466841.0 0
493000.0 463926.0 0
497923.0 465749.0 0
2244.81 469262.0 0
5503.44 471356.0 0
10478.6 470496.0 0
16926.8 471869.0 0
22188.5 469926.0 0
27316.7 470673.0 0
32895.8 471575.0 0
38280.2 472171.0 0
42705.0 472830.0 0
47431.8 470492.0 0
53365.4 471299.0 0
58561.2 471415.0 0
63746.0 469893.0 0
68603.1 469897.0 0
73002.0 470662.0 0
77613.0 470949.0 0
82559.6 471991.0 0
87367.3 469641.0 0
92576.8 471237.0 0
98363.5 471236.0 0
102996.0 471913.0 0
107296.0 470507.0 0
112347.0 469788.0 0
117310.0 469869.0 0
121427.0 471356.0 0
125491.0 472038.0 0
128128.0 469012.0 0
131922.0 472542.0 0
137198.0 470409.0 0
142829.0 469739.0 0
147919.0 469837.0 0
153392.0 471357.0 0
158735.0 471731.0 0
162933.0 469443.0 0
167355.0 470144.0 0
172145.0 470707.0 0
177547.0 469911.0 0
182401.0 469959.0 0
186670.0 469559.0 0
190611.0 471770.0 0
196926.0 470875.0 0
202854.0 469445.0 0
207835.0 470339.0 0
212878.0 470103.0 0
217756.0 469542.0 0
221889.0 469537.0 0
225711.0 469956.0 0
230705.0 469880.0 0
236499.0 469924.0 0
242350.0 469557.0 0
247989.0 470661.0 0
252305.0 469779.0 0
256783.0 469419.0 0
261664.0 469577.0 0
267070.0 470912.0 0
272713.0 469989.0 0
278208.0 470715.0 0
283658.0 469111.0 0
289107.0 470018.0 0
293957.0 471101.0 0
297959.0 472268.0 0
302712.0 469457.0 0
309019.0 470532.0 0
314939.0 471709.0 0
320024.0 471713.0 0
324585.0 471257.0 0
332512.0 470452.0 0
337796.0 471601.0 0
343035.0 472405.0 0
347218.0 468162.0 0
347440.0 472123.0 0
356418.0 468886.0 0
352059.0 471729.0 0
359330.0 472798.0 0
363863.0 471763.0 0
367838.0 470585.0 0
373087.0 468467.0 0
372507.0 472924.0 0
377231.0 471176.0 0
382439.0 469742.0 0
386640.0 470647.0 0
392449.0 471031.0 0
397590.0 470238.0 0
402531.0 469816.0 0
406676.0 471918.0 0
411616.0 470241.0 0
417224.0 471646.0 0
422800.0 469493.0 0
427641.0 471629.0 0
432614.0 469742.0 0
438120.0 470546.0 0
443318.0 471297.0 0
448253.0 471216.0 0
452880.0 472453.0 0
457427.0 471005.0 0
462293.0 470448.0 0
467090.0 471932.0 0
472280.0 471355.0 0
477782.0 469936.0 0
482875.0 469893.0 0
487840.0 471963.0 0
492471.0 470150.0 0
497458.0 469741.0 0
328439.0 473387.0 0
POINT_DATA 5000
SCALARS Radius float 1
LOOKUP_TABLE default
5782.6 6044.04 5415.48 5120.0 5580.89 6810.52 5529.52 6756.95 6324.23 5191.63 4861.06 5320.28 4797.52 4796.58 3979.26 4298.67 3471.03 5960.66 5253.55 5820.48 7034.11 4862.21 5113.21 3929.19 4107.03 4478.15 5379.87 5925.6 4501.51 4792.73 4736.58 4931.38 3485.26 4329.05 4151.94 4049.23 5337.48 6124.89 5708.81 5252.48 4780.03 5495.39 3996.0 3856.1 4665.12 3383.4 4133.88 4834.9 3850.77 5085.53 3863.18 2356.98 4998.37 6182.6 5492.18 5258.36 5061.3 3642.12 3163.97 5812.43 5122.66 5906.14 5484.19 7513.1 5254.28 4436.4 5733.48 4672.91 3588.44 5645.7 5176.86 5840.26 3672.51 6110.27 5561.06 5073.35 3615.22 5670.04 4380.59 3589.27 6716.79 3607.45 5759.91 7613.27 4951.03 5255.32 6037.08 4523.7 5096.78 4129.43 3843.58 3320.52 4727.24 4194.5 4270.53 5082.47 5344.25 5445.87 4593.7 4150.99 4704.72 4216.92 4177.94 4742.68 4344.58 5634.83 5495.84 6268.1 5374.51 6739.08 6326.39 4569.12 5873.69 6608.73 5011.84 6261.42 4502.5 3771.48 4043.57 4271.69 5681.38 4138.42 3708.04 5513.6 3240.09 4556.36 6082.81 3191.99 4685.34 5601.05 4929.8 3586.91 3103.0 3554.9 4015.92 5542.21 4487.31 3936.02 4044.71 5980.74 4094.62 5109.54 4927.02 5546.39 5325.36 5484.83 5538.89 5351.6 4730.36 4715.55 5867.73 3951.75 5013.56 5701.86 4499.64 4375.68 5542.27 5054.98 6030.06 5170.02 3557.27 4927.31 4688.68 4402.52 4517.56 4182.53 5903.42 3968.64 3955.56 3761.32 4118.05 4366.19 5553.16 2938.66 4940.78 4231.61 4008.92 4003.05 3942.53 3379.84 4827.82 5227.21 3997.1 3260.67 5123.52 4091.31 3038.33 4392.68 4333.2 4295.38 7199.21 2240.39 5923.5 5091.39 5293.9 3912.37 6142.94 4602.25 6691.39 4790.08 4763.45 5344.0 3815.26 6048.7 4571.7 5896.46 5022.8 3784.5 3780.23 6481.79 5224.12 7042.12 4819.73 4471.58 6098.14 4962.09 3999.48 4203.26 4359.62 6946.21 2586.12 5433.8 4011.77 5499.11 4527.08 3633.87 5922.5 5198.77 5987.17 6013.14 2765.2 4901.41 5110.37 5664.98 4382.74 5927.43 4651.28 4384.42 3693.63 4516.43 5481.78 4948.92 5637.59 4937.14 5043.05 5816.2 5693.81 6483.19 3829.13 5945.65 6759.9 5418.62 7021.47 5416.38 6059.59 4955.55 2720.68 3563.63 4238.81 4345.55 4468.59 5885.03 2837.58 3871.88 5325.02 5200.76 5017.13 4862.64 5279.39 5185.34 3673.74 4432.58 5205.43 6684.56 7447.37 4688.67 2635.86 4385.06 5292.64 6166.5 5065.13 5936.02 5305.17 4861.08 5390.22 4805.87 4712.33 6038.78 5697.78 4667.36 6372.62 4254.17 5090.24 5615.42 7565.34 5530.87 4612.68 4281.49 4973.83 6342.25 4840.84 5135.69 4020.32 6045.46 4245.72 5908.1 4541.21 6133.92 4164.68 3719.84 4178.4 3095.48 4166.08 5762.59 4123.6 4850.14 5163.55 3382.7 6817.32 4319.79 4472.17 3637.61 6222.42 5188.81 4730.41 3745.84 6057.22 5062.71 6125.34 5965.78 5347.48 4850.01 3970.25 5147.67 3979.82 5011.31 5138.31 5264.06 4659.59 6327.9 4048.37 6355.42 4362.19 5690.56 3115.91 4493.48 3307.12 5924.89 4002.16 4778.34 4174.52 4138.16 3486.22 4684.5 3091.3 6230.49 6458.82 4601.27 5493.32 5740.68 5926.61 6051.14 5836.15 3261.21 4195.44 6704.06 3653.41 5600.93 3856.01 5246.2 4390.66 4827.23 6116.18 4924.6 4733.32 7184.19 2899.43 2924.37 3867.67 4290.3 5399.73 4660.72 3888.21 5891.05 6902.81 6644.76 5629.19 4786.6 5740.84 6445.94 4310.18 7134.64 5978.9 4187.56 3629.62 4716.19 4997.27 5514.76 4301.06 4877.67 4290.14 6562.18 4156.38 6006.16 5316.75 7055.53 5669.65 5934.22 5624.49 7092.87 4666.81 3703.1 3954.91 6471.55 2965.01 5499.39 6643.85 5501.93 5654.31 4938.74 5690.26 4156.2 5607.14 4497.59 4374.35 4810.12 5643.58 5215.05 4292.06 3821.72 5577.04 5006.58 4602.86 3688.8 4548.16 3369.23 5449.18 5492.26 4220.88 5244.78 5762.84 3937.74 4749.8 6084.86 5478.92 5551.36 6894.71 4414.54 5789.98 6138.47 7054.71 3641.64 5489.43 5747.75 4277.89 4727.62 5054.25 4796.33 5539.32 5360.19 6496.85 4794.96 4874.39 5541.59 4124.71 5728.85 6337.56 4911.47 5803.39 5863.59 4381.97 4024.3 6257.19 3255.82 5242.73 2812.98 4737.14 4065.69 5603.15 4695.45 6052.7 3921.18 3798.62 5308.1 3666.57 4907.89 4937.02 4073.93 5655.21 4645.41 4433.59 4320.28 5542.14 2739.94 4931.53 4218.06 5480.13 6308.71 6405.76 3456.98 3498.2 5105.16 3066.13 5448.61 4302.5 6009.88 5013.67 5826.04 5339.78 4143.78 4970.88 4763.66 4636.5 4940.42 5923.4 5085.71 5644.82 6343.14 5463.38 5945.21 5750.71 5696.88 4831.47 3923.03 5975.63 5252.34 6396.74 4138.46 2775.04 4986.77 6898.19 6318.18 5586.81 3948.17 4551.24 4621.75 5358.59 4515.71 6519.71 6640.13 5082.6 5810.84 4230.54 5094.44 3748.24 4655.49 4467.94 4933.21 4850.81 6038.14 2540.31 6029.66 5527.54 5573.7 5697.4 4270.95 4055.8 7325.81 5280.17 6425.26 5143.58 6186.19 4839.34 5083.08 2980.99 6834.49 5525.39 3998.5 5938.34 5380.13 6394.38 5555.28 5169.36 4686.65 5834.74 5556.96 5788.23 5581.75 6392.01 3599.45 6730.19 4907.06 3735.44 5163.9 6043.3 5952.75 6332.36 6122.55 6155.31 4223.33 5911.67 3323.28 6695.82 5835.78 5794.24 4678.38 5050.65 4827.33 5260.34 5206.48 5513.57 5729.23 5226.0 3365.82 4538.95 5965.15 4780.2 6090.91 4946.42 5019.93 5081.78 6116.33 6263.44 5774.97 5462.21 5470.77 4643.85 4004.04 6062.05 4289.17 5564.02 4274.61 2965.79 4410.55 6035.6 5137.34 4481.53 5330.45 4581.13 3856.59 4219.07 3610.4 5413.79 6387.01 5367.52 3092.35 4322.15 5210.03 4714.54 3629.96 5478.47 5351.39 6142.37 6061.47 5375.47 4566.18 4723.12 5120.49 5201.36 5262.61 6302.8 5409.61 6038.2 4005.44 5206.78 5555.88 6732.43 5028.96 3866.16 6362.12 4484.76 4840.01 4511.82 5611.2 7933.0 4455.12 5173.87 4894.16 5711.87 5118.27 4941.22 5932.23 5791.61 3369.13 4479.66 3043.85 5367.2 5461.13 4726.76 5839.13 5495.68 5489.34 5002.48 5708.14 5537.72 3920.42 8332.24 4553.56 5329.64 6049.55 5709.62 4127.74 2476.04 5133.97 3942.07 7443.72 3937.08 5371.02 4709.35 6586.45 4373.3 4750.78 4163.5 5724.64 5078.86 5100.1 3561.29 4963.34 3295.83 4459.28 4260.92 6250.23 5960.56 4118.84 4020.95 6313.06 3474.39 3493.7 6470.3 4200.03 5082.74 6915.83 6072.45 7099.43 5526.14 5198.29 5423.0 5077.33 4746.52 6338.89 6202.55 5025.39 5893.5 4547.19 3320.11 5030.91 6022.17 5119.37 3982.23 6163.38 3459.9 4853.39 4964.09 4809.42 5024.9 4306.53 5659.17 5094.81 5972.06 5713.22 5861.71 4359.04 3183.98 3794.63 4524.28 3778.1 5152.36 5826.64 4220.65 6820.42 4816.2 6321.41 4896.52 4751.02 3372.79 5184.56 5282.64 4715.72 4669.66 4808.52 5046.33 4764.96 5607.24 5053.92 6352.26 3847.38 3818.59 4863.72 4143.08 6623.85 4262.82 5102.36 4342.9 5065.11 5069.84 4051.44 4241.89 5054.74 5941.72 5991.09 5126.91 6600.94 4788.58 6155.1 5876.71 6262.72 5029.78 6515.84 4888.6 2990.77 4739.14 4918.77 4371.99 4219.78 4188.3 3885.86 5235.29 4479.94 5453.3 6413.02 4863.27 5862.86 6049.79 5374.98 4719.7 6939.12 4735.33 5411.85 5092.37 6444.77 6314.07 4287.63 5315.4 6449.45 3975.31 3689.45 3824.16 5125.78 5572.95 3868.18 4373.47 6723.16 5584.06 7111.16 3817.13 5507.24 6851.54 4583.31 4503.89 5806.08 5243.29 4997.27 4093.08 4449.22 5543.27 4717.05 5287.2 6135.57 5998.38 4312.67 5423.8 4270.24 4989.15 5017.78 5015.69 6175.81 4727.24 6677.09 4305.57 6959.81 4829.35 5201.67 4424.7 4089.76 4754.05 5526.55 3192.41 6084.93 5215.15 4987.87 3315.57 5804.71 5020.12 5727.3 4242.52 5281.28 5356.51 4277.88 3057.03 4087.15 7500.97 3948.23 5228.18 5787.31 3927.99 5868.82 4050.9 4978.31 4099.77 4981.9 4656.78 4537.32 3600.43 4906.82 5131.24 5196.67 5004.23 6496.67 5474.8 6607.87 3664.11 5117.47 4925.63 5882.65 4434.19 5187.7 4623.61 6261.75 5177.64 4255.31 6134.99 4094.73 4407.9 3492.19 4584.5 4440.57 5122.63 4703.08 6345.13 5274.19 5516.95 4406.4 4413.85 4844.57 3999.94 4027.46 4470.98 5776.37 4516.28 3921.08 4190.31 3627.82 4044.45 5262.19 5344.43 5045.38 5350.88 5372.61 3686.21 5402.24 6480.17 5023.15 4377.07 5101.59 3813.22 5570.3 4336.42 4306.11 7589.94 3130.65 5628.24 5856.11 3327.49 4109.88 4234.94 4562.29 5013.13 4980.85 5080.66 3417.33 4926.42 4164.13 4642.34 4520.1 4947.52 5153.74 5874.89 4293.03 5813.4 4389.21 3791.79 4128.98 4925.44 6246.22 4951.47 4307.28 3697.96 4739.42 4723.48 5538.93 4899.11 2631.9 4745.45 6255.18 4668.71 4758.21 5269.18 7228.46 6362.14 6719.88 5978.82 5266.5 4523.88 4066.38 4403.98 4948.98 5227.52 4414.48 4729.43 4092.24 5163.02 7144.24 5598.74 5687.83 6442.69 6320.71 4648.04 3464.83 4721.32 4305.16 3163.78 3293.56 5092.28 5274.14 4903.82 5746.28 4082.47 5511.6 4453.64 4338.08 4378.3 4989.56 4718.54 5548.29 6766.43 2315.64 5916.16 4390.41 5226.56 5599.49 5313.22 4097.57 3905.51 5017.5 4864.22 3901.8 5759.46 5083.41 5678.96 4244.9 6048.86 6070.58 4285.32 6034.41 5452.83 5130.91 4948.5 4519.22 6445.22 3844.9 3695.36 4564.34 3963.86 4871.44 3848.93 5076.35 6020.48 5935.47 3402.32 5903.66 4528.49 5004.67 5365.89 5992.26 3960.8 4511.54 5070.39 5714.58 5110.45 5208.32 5248.77 3296.27 4083.97 4713.25 4607.02 3895.51 4528.09 4165.81 5441.96 6291.51 5174.89 5882.89 4188.32 5246.61 4100.38 3746.31 5344.77 5027.98 5097.87 4278.07 7267.18 6256.02 5320.92 4305.43 4406.1 5034.59 4942.77 4263.33 5080.18 4454.63 5912.61 3279.1 6193.35 4560.84 6086.96 5233.78 5776.57 4562.74 5683.26 5139.5 7493.3 4814.55 3527.05 5698.77 2477.07 4497.31 6413.11 5529.42 5257.12 4965.89 5659.95 4152.85 2908.7 6415.61 4517.73 4687.64 5469.47 4419.71 5660.16 3838.47 2588.37 6736.03 6235.57 3623.87 3087.09 6934.37 6113.95 4050.08 5328.22 5563.79 6171.13 5511.88 4512.11 7055.42 5486.68 5100.25 5490.43 5022.28 5197.52 4959.34 5383.07 4527.02 4531.14 5013.42 3838.56 6552.22 5651.07 6375.99 5200.05 5234.29 5313.66 5419.37 5275.32 4466.03 5409.33 4898.94 5196.0 4923.9 4973.78 3329.99 3947.47 5091.68 4204.84 6243.0 6673.96 3556.85 3161.47 3435.9 6390.78 4288.3 5370.52 4788.87 4652.29 4495.87 5774.81 6022.72 5498.32 5527.33 5346.27 6475.1 4969.21 2691.29 2845.98 4880.14 5289.52 5314.85 5941.4 5450.44 6510.17 5742.65 5592.32 5381.16 5565.13 4470.61 3701.27 5653.9 5046.21 4929.14 5894.61 3979.54 5304.13 5944.09 5833.06 4923.41 5384.76 6138.12 4428.78 5243.43 4537.14 4345.67 5551.9 3757.34 4642.66 5329.59 4888.12 5037.06 4541.8 5175.29 3197.63 5842.56 5887.15 5412.31 7480.41 3423.15 4890.5 3981.07 5452.42 5186.3 6853.85 3497.9 2395.5 5941.61 5782.48 6248.6 3836.45 5683.61 5805.86 6894.26 4986.51 5339.38 5178.99 5615.35 4591.87 4790.78 6422.84 4247.15 4502.18 4602.85 6248.81 5872.05 5273.35 4091.8 4645.58 2651.49 5181.4 5512.23 5670.2 5985.29 4247.23 4178.15 4613.31 4733.04 6119.09 5788.66 7531.29 5069.25 3903.75 5048.89 4755.47 5935.03 3991.03 5475.8 5314.69 7435.25 6826.57 4249.46 5965.81 3702.37 4643.31 6917.52 5402.21 4989.09 6718.19 4982.31 4307.48 3848.54 4425.84 5331.02 4871.96 4863.23 4402.67 4631.83 4996.99 4384.88 6887.27 6008.49 4220.46 4806.34 4287.53 5612.21 5945.08 3169.67 4968.03 3306.14 5490.58 5395.14 4863.79 4702.06 3830.46 6031.67 4689.15 4655.16 5409.66 3867.19 4765.72 4039.91 4752.14 5276.7 6119.63 4950.97 5512.16 4863.96 5191.08 5203.08 5374.07 5163.77 4588.7 4488.85 3766.55 3731.84 4579.69 4901.07 3554.48 6496.52 3436.15 5005.85 4151.76 4020.4 3493.47 4721.02 4596.75 4933.65 5443.58 4558.46 4049.02 4470.4 5311.03 5255.12 6169.11 4027.09 5801.99 5379.09 5210.48 4962.77 4853.02 6259.23 5088.44 4711.62 4114.24 4268.65 5349.31 4694.83 4649.22 5509.42 4354.08 5094.52 4256.43 5936.36 2682.24 4520.62 5229.48 5475.7 4485.99 5127.16 5435.74 4244.99 6050.81 5543.46 6185.89 3997.96 4750.17 5660.85 3460.94 2330.66 3990.25 4177.19 3691.0 4752.51 3587.05 6229.37 4236.14 4407.87 5282.91 3797.33 7256.35 4800.69 6566.1 3555.86 6386.78 4456.39 4896.39 6081.14 5480.83 4607.85 5128.57 6000.7 5604.21 3361.92 4750.58 6710.88 3967.48 6213.04 5235.11 6622.11 3685.13 4590.55 6790.73 5251.4 5097.69 5857.79 6543.13 5149.72 5036.58 5464.25 5411.02 4752.9 4287.16 5199.44 4062.5 4435.51 5683.95 6027.62 5010.2 4216.17 6484.17 4938.72 4254.37 3374.08 4031.78 6098.1 5708.99 5687.85 5346.68 5296.29 4611.53 4285.66 4896.11 5094.48 5172.53 3872.61 4135.62 5534.94 7644.38 7552.94 6101.92 5323.3 4998.21 4635.6 4662.56 5166.79 2976.22 3405.98 5394.55 4681.72 4946.74 5996.33 5928.32 5415.19 4612.62 4016.18 3619.07 5526.75 4275.57 6385.23 5327.45 5560.26 6363.92 6205.93 4439.35 5830.72 6184.4 3758.07 3828.81 4373.45 4082.57 5733.62 5169.9 5282.51 4460.92 5945.89 4042.28 4105.55 4421.12 4340.76 5254.49 6065.22 4221.28 4303.19 5514.84 3633.79 5421.53 3914.2 5937.08 6070.3 4135.08 5233.29 4778.82 4312.56 4612.06 5204.04 5053.95 5926.11 6667.68 5767.9 5211.38 5089.62 5869.4 4741.26 5920.32 4255.85 4732.09 3988.3 6136.49 4356.25 4216.95 5776.96 5486.48 5301.47 4617.55 3645.12 5424.88 5415.85 8659.64 5469.13 4233.8 5765.42 6123.03 5966.61 5711.11 4575.94 5021.88 3546.71 5956.65 5768.57 5564.23 5950.04 4231.83 2435.33 6401.43 4074.48 4558.47 5020.71 2681.29 5997.88 5839.71 4238.4 5576.92 4318.48 6132.95 5266.22 4860.33 3685.13 6004.68 4051.34 3361.26 6799.4 3627.55 6239.84 4256.67 5865.39 3457.48 4427.28 3931.07 6079.11 6430.39 5417.15 3688.16 3949.6 4945.39 6326.18 3950.63 5661.62 6631.19 6648.68 4467.04 5626.61 5817.25 2983.99 2614.4 5061.98 4537.6 4923.24 4419.61 7177.44 5309.98 6553.94 5255.18 5460.65 3004.16 4767.78 5235.17 5225.33 4779.5 4929.75 4435.36 6649.96 5134.39 5784.3 4256.57 5442.32 6088.68 4643.56 4863.01 5620.74 6124.08 5467.84 5266.01 5253.37 6515.8 3685.65 3701.16 4916.22 4186.6 5895.77 5750.07 4757.74 6045.67 4209.49 5742.74 3821.94 4244.21 4947.24 3875.05 3540.11 6200.54 5148.58 4652.01 4199.45 7234.66 6599.66 4055.54 6098.95 4997.83 4893.49 5325.44 5102.75 4597.29 4200.09 4498.25 5931.77 4188.87 5151.21 3735.24 6574.95 6333.29 4477.04 5731.57 6408.83 5365.24 3930.79 5226.97 4004.35 3312.06 5754.18 5180.76 3418.99 4480.95 5278.36 4409.63 5521.25 3661.9 3082.32 5370.85 5949.46 3658.37 7440.72 5376.71 5703.6 4807.28 4867.08 4266.03 5280.69 4713.74 4220.03 5407.78 4084.49 5449.46 6179.96 6632.99 6113.54 5147.36 6260.79 3963.76 4563.46 6799.88 3062.43 5726.66 5426.78 5652.0 5463.41 4159.35 4237.98 6439.37 6045.22 4614.3 3532.3 5769.98 5067.46 2221.99 3580.58 4011.37 2775.69 5356.79 4785.25 5657.36 3619.79 5029.47 6306.21 2978.76 2040.66 7016.27 5884.9 3876.21 4673.35 5689.26 4992.42 6022.7 4940.84 4833.46 4809.67 7248.4 5280.12 3946.28 5984.81 5439.9 3498.16 5367.73 4409.27 4640.06 3456.47 5471.74 5421.64 3548.39 4858.51 4207.54 4886.12 6419.12 4976.12 4817.16 5453.98 3991.42 5148.08 4388.63 4834.87 5760.22 5938.17 4795.43 5398.64 6817.57 3614.96 3886.68 5703.74 5662.55 5737.92 3056.7 3755.95 4360.23 5293.51 4763.96 4446.06 3450.93 5008.63 5132.68 6595.03 4993.35 6218.95 5222.16 5107.23 5136.08 3178.54 5558.68 3776.94 4765.02 5629.39 4448.13 2684.03 5070.29 4768.61 2261.36 5075.55 6923.84 5227.59 6166.29 5453.6 5703.07 5294.77 4662.43 4630.82 4043.66 5528.53 4540.86 5990.52 4835.83 2967.38 5604.35 6477.91 3091.67 4081.97 5401.99 5580.92 5973.33 3583.21 4347.74 2511.46 5291.9 4009.62 6505.78 5461.55 6519.43 5876.64 5424.46 4857.84 4908.49 4962.21 4684.44 4858.44 3468.42 3809.69 4771.13 5297.19 4351.38 5550.75 5933.7 5466.33 4444.97 5721.05 4247.69 4514.39 4588.99 4321.21 4344.34 3673.28 4928.27 3583.49 3375.28 4366.74 5625.65 4301.61 3184.64 6107.89 4446.84 5660.55 3718.69 4514.79 3672.21 2216.82 4509.89 5269.38 5097.95 5108.06 3573.73 4693.52 4000.43 6853.04 4745.43 3420.08 5831.96 4539.07 4747.55 5464.68 6234.32 5591.76 4585.31 4586.19 6625.18 5323.91 4270.74 6293.89 4558.15 4983.39 5366.52 4690.55 5533.72 5533.42 4802.32 4010.57 4599.38 5246.47 6157.04 6191.29 4522.21 7422.36 5506.19 5161.01 6719.94 4950.67 5832.37 4642.93 5409.63 4263.16 4709.05 3077.84 6024.75 6109.49 4813.08 5860.67 5332.65 3764.1 6451.33 5413.31 6316.56 4332.87 6420.81 4743.59 5208.14 4715.58 3317.83 4450.7 5151.52 5369.08 3101.75 4518.04 4766.06 2081.58 4874.18 5435.19 3298.2 4270.15 6865.76 6449.64 6464.8 4406.05 4749.59 4680.94 5799.69 5571.72 5236.43 3208.96 5285.07 7051.9 4184.23 4608.41 4144.57 5980.59 6834.41 6226.14 3000.29 4209.31 5718.28 6242.79 5950.45 5713.03 5849.65 5052.84 4165.21 5297.16 4936.96 5206.33 5530.49 5653.03 6192.0 4940.28 6752.75 5885.28 3004.34 5607.3 3022.6 2928.82 4811.76 4914.45 4222.4 4698.87 4568.41 4912.04 3624.7 4691.91 4475.83 2685.81 4510.8 5889.35 5010.04 4570.98 5097.45 5825.38 5737.75 2761.07 5742.47 3778.02 6552.21 5417.8 7132.12 3678.08 5518.57 4187.31 5463.48 5730.33 3240.51 5545.46 4527.99 4298.15 4376.7 5190.61 4628.4 8325.01 6051.83 4440.81 5941.9 3973.12 6642.76 4497.78 5567.93 4243.79 5987.42 4442.22 4669.06 3012.99 4811.32 6400.08 5829.32 4396.25 3763.05 5092.24 5551.95 5549.49 3918.87 5423.42 2275.45 6605.86 5012.5 3562.79 7093.13 4953.1 5818.95 4093.99 3604.14 3940.49 4452.54 5089.1 2711.19 5828.35 5876.72 4099.92 4884.59 3858.06 4680.14 4083.79 4187.94 5021.77 3796.15 5599.29 4801.8 7216.98 5271.02 7013.17 3805.67 4601.74 5088.57 5580.34 5134.67 3852.6 5775.31 4215.0 4603.5 4481.76 5452.78 5065.26 4304.41 4892.44 5578.94 4286.17 6579.31 5323.55 5375.1 5313.12 5351.56 4661.03 3984.88 5160.59 5262.35 4320.42 4255.34 5064.79 5480.3 7509.24 4394.56 5896.26 4275.07 5388.78 4185.61 4047.87 4573.72 5099.21 4917.99 4367.78 5146.37 5670.0 4836.16 4232.16 5300.96 5151.11 5680.94 3781.77 5581.55 5193.01 4543.1 6550.44 3860.83 3764.06 5732.27 4523.39 5278.56 5434.47 5829.22 5631.14 4343.78 5811.18 5433.65 4909.65 4008.15 4887.76 7693.4 4286.49 4437.07 6184.88 3449.37 6405.0 4659.16 5789.55 4633.05 4901.2 4383.56 4990.79 5166.79 6479.39 2895.63 4516.53 4122.92 5079.22 5381.54 5810.77 5474.15 4028.32 7519.2 6355.68 4511.7 4478.6 4304.63 5263.27 4469.54 6300.92 4173.54 6038.68 5046.12 4807.4 4590.01 6101.86 6506.86 5993.0 4803.57 5966.42 4110.59 4706.5 3332.49 5354.66 4647.67 4214.44 5375.12 4356.36 4787.97 3746.36 7610.49 4777.03 3684.56 4246.61 6028.09 5452.36 4172.6 3804.5 6486.37 5498.42 5318.53 4732.09 4281.98 7165.9 5344.83 3427.63 4146.81 4863.97 6342.48 5756.75 6101.13 5599.7 6969.28 5636.4 3665.95 5698.96 4350.12 4095.75 5227.02 3603.51 4298.45 5222.51 6609.84 4344.51 5135.96 3834.43 5658.37 4707.06 6074.94 3474.5 5491.37 4250.88 3783.54 6348.03 3475.67 4792.39 7038.89 5146.37 6917.62 4013.38 5067.56 6137.8 2735.53 5263.3 3352.35 3747.03 6523.86 2783.85 4326.48 3994.07 4219.94 5907.46 5491.9 4264.91 5399.29 4909.31 6522.59 5711.62 4798.17 5425.98 5996.66 4405.42 4997.91 2995.67 3598.08 4599.81 5698.23 7300.58 4714.83 3608.06 6633.61 5484.36 3953.55 4277.24 4063.9 5291.05 4314.56 5161.1 3928.53 4619.2 5606.51 5740.65 5067.56 3834.47 6349.67 6329.53 6541.45 4227.41 5391.48 4923.43 5131.15 4847.14 3950.27 5116.66 5378.23 5374.67 4981.43 6789.23 3989.7 4215.2 5069.89 4157.29 6813.72 5327.75 4609.02 4638.18 4196.37 3344.57 6448.66 5220.76 6945.98 5138.2 7046.11 5783.48 4449.98 4504.35 4840.44 5093.82 4587.67 4163.74 3924.14 4296.69 6238.32 3319.67 6471.42 5283.8 4076.59 4428.14 5164.1 6464.15 4972.17 5699.53 4222.77 5268.38 5527.23 4805.33 3863.67 4814.12 6193.08 6069.3 5887.01 5116.6 5388.39 5335.47 4356.49 4526.81 5048.19 6799.23 6740.71 6487.56 4854.11 5971.22 5533.19 5417.21 6602.43 3568.28 6063.64 5522.21 3772.3 4855.01 4923.57 3340.09 5217.95 4867.7 2279.05 4829.35 4075.28 8137.11 6650.77 5166.41 4067.96 7104.73 2596.96 5701.75 4350.15 4139.3 3516.27 4750.49 4263.78 5078.31 4643.9 5228.75 6047.14 5009.83 5210.38 5717.8 3629.44 3566.79 5003.78 3299.24 6246.56 4741.28 2603.64 5107.0 6212.15 4783.07 4896.65 4946.23 6083.28 5211.6 4453.97 3556.79 3503.41 4701.5 7001.83 4771.65 5012.97 5589.37 5439.49 5951.81 6918.35 4834.3 6804.79 6372.13 5369.5 5404.01 6016.19 4124.49 4479.11 5714.25 6685.4 4850.06 6332.01 7044.29 4234.18 4049.16 7085.01 5980.95 3936.95 6153.94 6836.82 3862.77 4631.99 5168.35 3185.39 3728.18 5633.61 4243.26 4153.84 4888.27 4592.15 4901.44 4998.22 5096.43 6104.26 5583.61 6171.71 4986.71 7382.3 4022.56 5027.43 5522.75 6208.9 5602.53 6061.63 6545.43 6760.92 5484.32 4711.04 4506.18 4824.12 6162.3 3272.75 4264.54 7043.44 4061.6 6502.97 4852.58 5806.31 5456.71 7317.04 6412.67 4036.91 6639.64 5212.43 5454.12 6348.54 4066.57 5642.35 5156.76 6357.47 6101.57 4891.38 5535.91 3230.13 5955.86 6176.67 5325.96 4848.46 5412.24 5016.02 4581.37 4920.21 6942.34 5851.61 5478.11 5526.31 3858.17 4740.98 5128.77 7122.87 5797.36 5119.86 5089.26 5084.17 3776.8 6156.21 2460.79 4653.83 3628.89 6589.82 4668.88 5867.64 4438.58 6059.93 5073.02 3472.91 4989.2 7144.05 2970.9 6542.5 4383.47 5971.21 6318.23 4206.98 4058.87 5174.75 5932.07 4984.46 5948.71 4793.65 2949.12 3856.53 5460.89 4533.37 4532.89 5260.85 5742.09 2779.99 5887.38 2884.65 5807.46 4648.21 3658.05 4549.69 6423.81 5030.15 6413.15 6103.11 5048.55 6459.51 4024.31 5844.72 3992.97 6040.74 4054.22 7228.94 5393.65 4961.99 6551.93 4393.16 4595.12 3311.29 6484.43 4625.67 6192.77 3485.54 5305.59 5416.45 5754.6 4955.16 4904.51 4147.31 5989.05 2202.77 5751.15 5950.88 4149.55 4441.22 5853.89 3380.69 4140.4 4386.8 3110.13 5446.4 4725.01 5966.75 5262.47 5261.19 3104.96 3831.52 4263.65 6106.43 4807.35 6761.81 5467.63 5666.95 4642.2 4811.22 3683.86 4918.76 5293.75 4208.41 5826.78 5473.72 2856.55 6214.73 4553.68 5175.89 5361.87 3758.22 4268.19 4757.2 4532.7 3205.68 5561.74 6100.73 4788.08 4745.79 4908.75 6556.26 3971.08 6204.65 4482.9 4593.7 4349.13 5110.11 6379.14 5216.26 3687.65 4887.52 6631.28 5478.95 3851.85 4392.65 6735.97 5244.78 3636.15 4330.58 6114.89 5135.63 3288.01 4355.83 6870.97 5351.86 6056.87 5474.01 6201.86 7554.58 5166.89 3639.44 5491.63 5725.37 3868.62 4458.64 4312.15 3644.78 3477.1 4078.93 5934.82 4501.78 4922.49 3572.94 5001.58 4820.17 4729.42 5244.98 3886.72 5792.98 5415.45 4385.81 6592.93 6350.71 6436.74 4456.11 5096.24 5039.12 3908.98 4824.81 5769.14 6328.42 7307.21 3381.82 3619.72 4646.51 4565.93 7107.63 4831.93 5788.97 4928.85 4023.93 5868.89 3274.85 5007.21 5494.28 4099.26 5206.47 4580.06 4835.97 4834.39 5493.89 7066.96 3512.94 4991.35 4587.7 4467.0 5196.92 4258.98 5644.81 3903.91 5334.36 4568.64 4728.55 3919.62 4929.6 4127.53 5210.75 5750.35 4489.99 4474.83 6555.44 5658.14 4551.26 5730.61 4508.18 7124.45 6358.93 2205.51 5064.67 3894.64 3703.49 6618.21 5232.85 4374.74 3717.47 4062.56 4504.86 5975.23 6816.66 4473.29 4198.94 3217.67 5470.04 5079.64 4211.82 6163.54 5212.37 6003.78 5684.25 5438.92 6550.4 3766.69 4050.03 4891.67 5513.8 6818.91 3503.65 3634.5 4027.63 4521.75 5569.2 5350.88 6571.31 5420.67 4844.83 5652.87 5483.7 5018.69 6384.7 3152.86 5952.38 3896.27 5807.52 5963.36 5230.02 5307.35 4342.18 6016.08 4731.21 3124.7 6064.71 6102.98 5138.33 4583.52 5510.9 3657.69 6418.11 6015.02 3492.83 5244.22 5832.29 3684.15 5585.14 2606.51 7039.98 6456.58 3814.65 4159.81 4960.64 3965.3 4983.3 7778.01 4034.05 5690.96 5127.82 5798.38 5805.1 3862.91 4125.9 5366.11 3419.87 4234.88 4064.58 4384.28 5113.6 4456.26 4810.98 5944.3 5091.22 3563.14 6282.38 5135.5 5640.72 5347.9 5851.63 4504.52 5212.92 5615.84 4464.73 5043.14 4717.73 5072.5 6440.38 5556.0 3904.07 5748.9 5545.59 4954.81 3742.31 5610.53 5755.15 4608.34 6419.64 3926.11 4057.17 5464.83 2781.96 5414.58 4431.23 5577.41 4994.65 5917.34 5601.55 5740.98 3787.08 4462.87 6545.99 5630.9 4554.68 4368.28 4140.92 4692.32 4548.45 4945.0 3127.83 4658.11 4585.04 4212.15 5114.07 4385.49 5678.58 4263.18 7142.95 4559.74 4383.68 5836.26 2617.39 5144.44 6666.67 4051.18 6200.63 4583.94 4826.52 5969.37 4928.35 3844.54 5034.69 4509.46 3538.53 996.652 4680.69 4420.11 6500.49 2628.22 5965.58 5058.51 4244.49 3352.34 4901.29 4124.76 5036.98 4775.04 4120.07 5188.53 4882.66 4813.33 3429.57 4952.52 3840.21 6746.66 5410.33 4642.74 4954.76 3908.56 4749.96 5377.37 4658.24 5869.67 4311.48 4899.73 5457.66 6394.19 5973.89 5518.11 5087.14 5712.35 5169.48 6776.22 3719.11 4467.13 6060.17 4505.28 3743.76 3425.69 4883.63 6711.21 4971.29 6280.13 5510.45 4730.14 4941.02 3994.39 4438.76 3864.92 6119.99 6006.89 2955.36 4128.1 4618.73 4009.24 4446.58 5372.82 4402.17 5401.4 5053.15 4775.49 5910.86 5124.17 3220.29 6239.68 7320.78 4834.44 5782.43 5667.51 4027.33 3873.92 4708.31 5026.76 5431.29 4833.67 5023.41 5325.91 4092.07 5657.55 4546.44 4224.3 5727.79 4184.21 4700.07 5188.82 5235.87 5273.37 4732.37 4985.3 5713.36 4966.07 4749.18 4400.14 3663.0 5553.94 4546.96 4316.0 6304.49 5424.55 5134.72 4392.75 4921.1 3814.16 4271.07 5695.79 4420.6 3622.8 4770.51 4184.47 6511.37 3999.5 4346.07 4012.92 4013.86 5759.79 4177.47 5218.42 4218.16 4933.49 2918.64 6139.64 4512.07 5984.8 5236.24 4639.8 5260.52 3185.09 6102.49 6570.35 4242.63 5114.23 5495.0 3269.54 7407.91 6015.22 4454.74 6063.44 2904.46 6449.06 5046.31 4337.32 1937.5 5241.75 5849.53 4731.53 4651.99 3763.9 4788.7 5863.0 4577.73 5084.5 6127.39 5640.12 4972.18 4607.18 5329.76 2403.72 7200.89 4147.49 4802.98 4833.55 4081.34 3646.95 7224.99 6334.53 4019.34 4869.48 3623.19 4906.11 4387.39 4564.1 5825.55 5509.51 4848.14 5366.22 6193.73 4316.5 5254.24 3742.11 4192.21 3597.43 5701.52 4743.9 4158.91 5311.55 5321.17 3360.86 4869.25 5545.21 3877.8 5153.18 4763.4 5902.67 5454.11 4236.86 5393.76 4708.17 5806.61 4983.1 6010.59 7123.04 3668.93 5906.57 7541.76 4932.29 4990.23 4681.29 5499.59 3784.94 5749.6 3845.9 4141.21 4439.71 4174.44 4564.41 6331.74 4198.9 5951.86 4252.18 4659.88 5076.84 3791.41 4213.05 5853.12 5157.38 5702.4 6203.03 5069.9 5473.89 6089.45 5810.17 5265.21 3306.84 4657.24 3669.32 5866.42 4762.1 4704.92 6502.99 4287.25 6219.34 4191.01 4475.38 5674.63 5340.05 5287.25 4589.06 4920.88 5995.4 5890.25 4216.44 6710.14 5034.05 4598.54 4816.51 5345.73 4770.63 4841.23 4896.43 3990.94 4756.8 5477.8 5463.06 4176.32 4462.35 3986.41 4241.68 6069.78 5532.75 6949.65 2945.34 3469.18 3372.95 4489.29 5064.23 4301.93 5268.15 6061.85 5512.44 6347.72 5120.92 4924.07 3200.6 4685.4 4629.02 6240.42 5146.0 5721.14 4288.45 4918.64 4987.28 6206.98 6638.25 3899.7 5078.59 4759.99 5134.33 5419.57 2646.13 5162.67 5760.98 4636.53 3629.49 4705.68 5469.35 5384.86 3835.81 5429.3 5510.96 6653.07 4745.16 4584.81 5071.98 5719.79 3199.4 4371.08 7261.51 4968.14 4914.03 5086.29 5144.56 5139.18 5551.43 3034.16 5049.99 4201.03 4333.87 6273.6 5136.87 5638.7 5024.32 2741.2 5813.79 4644.88 3779.45 5790.42 5784.37 3142.09 3682.35 5591.77 3756.96 5182.13 6110.48 5003.3 6245.52 5800.81 3954.77 5106.46 6793.1 6016.87 3125.13 5077.29 4506.66 5515.73 6715.73 5209.55 5426.4 5763.05 5357.39 5129.68 4825.73 5247.01 6296.54 4208.37 4841.7 5685.74 952.938 6740.35 4678.7 3673.6 3450.07 4550.92 6215.87 5191.26 6060.06 5544.27 3987.69 3484.81 5393.43 5308.33 4666.12 6023.07 6470.23 6506.63 4140.04 5322.11 5700.79 4697.49 5735.08 4726.2 4426.02 4750.81 4711.15 5188.22 3825.48 3810.68 2804.54 4196.62 4357.11 2809.19 5005.6 5486.89 7208.19 4549.51 3587.93 4975.85 4095.83 5695.25 5676.61 5323.95 5846.95 5716.42 5701.63 5819.0 4620.95 5368.93 3460.93 5124.86 4927.73 5914.5 6006.16 4608.62 5407.96 4071.75 4626.72 6562.03 4815.47 4368.12 4410.82 4365.58 3889.98 5214.4 5193.58 5399.43 5766.05 5695.44 5117.64 3422.21 3916.42 5603.68 4944.51 5532.72 4697.91 3220.8 5179.17 5579.39 5270.51 5148.1 5224.64 5949.73 4312.48 5527.13 6370.33 4278.57 5081.08 6318.25 6864.06 5001.87 5684.05 3667.93 4279.44 4899.19 5058.34 4028.22 5293.13 7350.26 3852.82 3768.46 4507.36 5167.53 4168.52 7145.73 5403.97 4795.08 6562.92 4068.31 5166.05 3671.06 3612.44 4850.5 7035.54 5866.91 5233.76 6405.69 4683.28 2820.07 6549.8 5679.74 4165.36 5288.33 4871.77 5811.26 5797.21 5062.77 6019.35 6075.99 6028.63 5927.2 5146.1 6485.77 3869.39 5960.5 4117.9 6896.55 4685.65 5377.01 4638.09 5330.26 5939.22 3495.3 4668.8 5125.17 4271.93 4859.01 5524.45 7133.44 3953.26 4474.39 4658.59 5459.92 6478.35 5453.77 4916.7 4104.04 2638.82 5589.53 5593.79 5025.42 5196.08 4517.29 4495.75 4849.5 6171.01 5796.26 4603.04 4870.94 5578.18 5271.88 4488.39 6121.56 7168.2 4602.57 3763.85 3419.07 3565.32 5710.33 5344.44 3622.48 6432.8 5131.77 3186.07 5549.71 4967.51 6443.99 7212.97 5490.64 5034.34 3769.2 4507.46 5036.14 5635.32 4526.34 5610.95 4316.45 5409.08 5042.75 4598.92 5241.22 6647.08 4979.52 5490.75 4407.79 5214.63 3495.68 5783.94 5352.24 7362.42 4202.77 5836.14 5473.05 6008.81 4493.79 4932.56 5537.34 5192.49 3487.31 6643.4 3918.94 4674.9 5575.11 5487.63 6599.28 6224.85 4556.19 5368.66 5648.78 6875.73 5501.73 5226.42 4697.24 4983.43 5117.52 6311.89 6734.39 4217.36 5942.45 4851.18 4150.76 5005.72 5368.52 5155.28 5388.73 4884.93 5205.38 4600.71 5262.79 3957.38 4494.15 5035.71 4419.79 4710.88 5407.69 4057.4 5152.78 5534.23 4753.76 4781.9 6815.96 4441.91 5339.6 5828.25 4725.11 4215.05 3626.86 6371.96 4604.1 5076.11 5990.75 5600.21 5467.51 4625.53 4096.47 4542.16 5114.67 5353.66 5030.33 5234.2 4965.24 6379.38 6257.79 5438.55 5353.23 6229.83 4468.26 5106.33 5293.37 5933.54 5559.79 5879.24 4571.74 5740.78 4096.86 4796.12 5001.51 5385.86 5115.42 4082.4 4369.86 5482.76 4209.0 5173.82 3745.02 4887.73 3720.7 4211.36 5698.53 3856.73 3604.31 4450.49 3468.45 5887.71 4827.61 5285.75 5385.03 5481.64 5673.75 5360.67 6263.3 3422.29 4501.05 4537.03 6548.29 4114.2 3990.96 4326.06 5034.46 5757.29 5793.12 5469.17 5061.75 4373.2 3769.24 6022.78 5884.99 5726.42 7025.09 4433.12 3392.26 5461.72 2549.95 4361.24 5138.93 6406.8 7086.69 6170.9 4436.48 6081.3 5615.35 3967.76 6213.24 5987.88 3579.59 4228.53 6123.46 6142.88 5111.26 4574.54 4764.83 4949.55 3132.34 1969.87 4841.28 5507.38 6889.5 5300.17 4416.87 4052.43 4896.67 6025.77 3934.11 4466.22 6153.71 5917.08 5483.37 5418.12 5934.05 5322.07 4714.66 5770.07 5101.6 4282.11 4656.01 6589.13 2347.41 4037.86 5602.62 2030.03 3543.37 5628.97 5527.27 5104.39 4612.13 5846.6 5327.05 4903.84 4290.49 4434.65 5977.66 5209.5 4523.81 5065.74 5791.25 5198.94 4873.23 4028.35 5464.05 5410.6 2980.31 5453.2 3148.79 6824.53 5997.91 4742.82 4332.64 6791.86 4820.68 4930.72 5728.58 6424.77 6297.99 5378.24 4538.89 5817.74 5661.6 3242.31 6099.28 5372.25 3234.26 4169.15 4778.37 5134.17 5968.54 4904.35 5592.54 3247.97 5124.34 4904.37 4358.81 4651.64 5729.92 5016.46 6224.13 4761.84 3661.67 5517.65 4087.32 6647.85 2569.12 4161.32 5161.74 7336.37 5932.28 5099.9 6945.69 5118.86 4183.4 4304.64 4733.79 5833.78 4905.53 4823.06 5758.98 5254.49 5288.64 6883.86 3350.99 6161.94 5057.59 4065.28 4461.14 5285.6 5615.06 5490.54 5203.54 4047.95 6142.94 5001.69 6581.56 3980.46 5383.9 5158.44 3798.09 3886.56 4288.5 4496.51 5715.51 4511.05 6561.94 5259.21 5092.93 2803.01 4444.0 6771.18 4984.17 5327.39 5781.62 4981.81 4138.59 5714.51 4970.55 4938.33 4484.78 5157.73 4621.33 4541.22 5847.91 4934.66 4946.08 4984.01 4109.44 6217.33 4557.1 6688.53 5927.1 6175.27 5876.51 6731.89 4733.41 5264.83 6348.93 3901.53 5136.51 6815.51 5232.16 4422.23 4457.05 3989.26 6031.22 5485.84 3618.64 5703.84 5453.69 4335.79 5918.95 5432.04 5689.56 6556.86 3921.27 5265.63 4898.29 4431.06 5730.2 4830.13 3494.16 5370.9 4074.16 4529.77 4325.13 6172.27 5390.33 5078.73 5278.54 5729.0 5192.92 5275.57 4179.87 4786.66 5891.25 5370.1 5129.4 4009.68 5114.51 3303.49 4622.73 4655.37 5585.25 5256.75 6351.89 6530.78 2960.5 5560.23 4975.32 4298.7 3902.48 5237.55 3909.94 6030.39 6589.8 3799.01 7392.65 5319.1 3757.23 4181.93 6828.8 6570.43 3820.19 4979.5 4745.37 5939.29 6026.04 5418.98 5575.11 4052.49 5061.74 5326.03 6189.67 5717.45 4948.96 5117.83 5256.82 4061.87 4013.86 4645.93 5165.31 4585.37 6417.61 3721.69 3456.3 5783.69 6074.39 5317.83 4256.08 5881.93 4399.52 4554.24 6182.19 3939.96 5910.66 7415.84 4637.3 5141.03 4840.44 8123.59 5765.14 4767.54 5121.08 3539.68 2927.84 4696.03 6177.68 4605.39 6270.59 6045.26 6500.45 4907.55 4103.76 4286.61 2932.52 4603.66 4969.68 6636.43 5431.14 5313.86 5189.91 5178.07 5777.26 4171.02 7012.36 3530.82 5797.32 5028.06 4886.99 5159.67 3702.45 3161.1 5764.52 5684.88 6523.78 4645.86 4045.67 5620.88 4941.52 5900.0 4262.74 6241.77 3783.79 5317.19 4248.14 5279.19 4016.6 5821.49 7050.08 5580.44 5998.13 5095.52 4746.15 3720.38 4758.84 4731.37 5023.61 4672.86 5059.37 5783.38 3043.77 4139.39 6264.03 5088.64 3562.8 6920.92 3729.16 3573.84 3783.36 3038.91 4067.89 3922.28 4571.57 3445.92 5131.07 5236.69 4121.07 4586.82 5524.28 3133.28 5731.43 6200.05 5859.17 4034.41 4150.44 3518.14 5522.34 5771.98 4420.35 5899.78 5000.74 5772.57 5268.27 4813.81 5244.95 5448.64 5901.8 5395.12 3830.7 5350.9 3483.61 6738.9 4460.89 5992.06 4157.1 8052.53 4867.12 6044.01 6520.19 1458.87 5734.07 3997.68 4819.83 4801.16 5071.38 5616.66 5688.77 4698.7 6229.64 2848.44 4220.43 6263.87 5743.8 4094.63 5084.76 6605.11 4757.87 3557.46 5971.95 6298.8 3979.46 3689.24 6321.97 5151.19 6509.54 6119.0 3792.06 5128.59 4002.99 4293.3 5587.3 3572.73 4864.38 3770.22 4390.64 5150.84 4608.01 5087.97 6005.95 4308.49 4930.17 4581.1 4745.44 4085.96 5762.82 7360.12 6223.98 5462.6 5617.29 3035.06 4262.19 4597.88 4878.93 6275.25 6892.33 4505.3 4452.36 3976.0 4068.41 6463.71 4832.21 4742.35 5394.79 5645.54 5264.08 4526.87 4151.74 4691.01 5192.82 5245.95 4174.22 5821.42 4515.02 6294.09 3463.53 6126.03 2970.24 4197.87 5105.54 6353.81 5462.1 3414.67 5444.36 5044.68 4026.03 6908.32 2649.69 3467.11 4817.75 6153.26 5637.53 3882.37 4634.25 4095.4 5188.57 6351.48 3873.79 5357.33 6210.0 5432.4 4262.52 5037.58 7430.48 5545.68 4970.12 4967.93 6369.66 5973.57 6241.48 6033.28 5957.82 6286.27 6327.54 5507.07 4802.36 5368.28 5466.13 5257.38 5075.23 4975.56 7282.36 6666.34 3826.01 4645.91 5581.01 6834.92 6379.33 5130.57 5652.73 5402.45 6412.84 3985.93 2589.19 6071.59 6079.55 5485.61 4993.49 5310.33 6583.37 3688.83 3402.44 4848.98 4491.96 5184.98 4467.51 5339.82 4519.03 5460.57 5110.27 5703.34 4612.68 6668.98 6649.52 4232.33 4939.56 4747.68 5770.92 3093.38 4845.91 2002.78 5631.32 6322.0 5793.14 4491.26 4511.34 4609.65 5704.61 5009.21 4379.91 4574.03 5290.37 5850.38 4227.66 4594.89 4730.97 3677.85 5214.71 4677.84 4811.11 4924.52 4866.8 6044.69 5658.05 6593.1 4000.51 6032.45 5011.37 2827.92 4441.44 4232.44 5336.61 5563.09 4848.15 4439.09 5523.81 4718.61 6697.45 5717.67 5515.59 5252.37 3224.81 4499.54 3775.38 4046.22 5640.67 6572.17 6080.69 5555.89 4766.47 4871.1 5678.08 5922.62 5125.45 4414.09 3784.68 4188.16 3717.22 4654.92 2943.17 5327.71 4880.78 4322.56 5509.09 5625.02 4829.77 3928.99 4444.92 6959.88 4125.75 5749.53 5090.48 5034.02 5582.28 5945.25 3856.4 4696.06 4137.16 4937.36 5308.4 6581.13 4569.32 5537.61 6084.88 4397.06 4199.44 4053.12 4479.5 6261.67 3435.13 5065.78 4431.46 4521.42 3207.84 3977.98 6043.34 4128.93 4959.72 4712.17 3808.04 4723.71 4461.67 6126.5 4034.88 6007.1 6345.2 5488.96 5128.03 5410.73 3720.92 5087.3 4942.63 6139.74 4975.57 7066.26 3057.3 6150.31 5873.62 4996.91 3920.44 5379.52 3768.62 5314.67 5563.47 5651.46 4066.36 3162.27 6033.93 5516.37 5092.44 5432.2 4612.4 3312.3 4746.19 6381.58 3282.57 4798.13 5648.59 4630.5 6296.36 4432.32 4451.76 7885.41 5782.25 6457.89 4104.97 4844.2 5114.61 3751.73 6118.13 3374.62 4926.62 3917.09 6009.93 5872.45 5270.1 5191.29 4947.64 6305.9 6649.21 3470.69 4859.95 5286.55 4132.08 5522.18 5223.1 3873.72 5212.05 4592.49 3625.98 5479.86 6474.5 4702.32 4763.04 5971.9 5247.73 3746.62 4532.67 4876.37 4769.62 5260.13 4649.5 5181.31 5985.75 5475.83 6189.29 5984.55 5803.3 3228.27 4721.98 5252.82 3543.98 5056.26 5878.55 4014.44 6604.72 6002.77 3794.47 4610.55 4967.02 4614.49 5400.69 4462.5 5573.31 5004.68 4023.88 5348.11 4405.61 5108.84 3511.5 4520.14 5067.92 3188.21 5357.14 5919.27 4793.06 6637.38 6188.33 6111.23 6916.18 5786.06 4137.41 3868.69 5447.74 4450.51 6033.72 3851.47 4966.74 4959.94 1635.31 5639.4 6185.73 4083.24 6520.96 3771.91 5217.62 6178.19 4616.81 5715.25 5212.2 4611.21 5108.42 3354.94 4404.87 5237.27 5767.65 4750.76 4907.03 5497.27 4575.72 4081.77 4948.21 2181.29 4420.3 6332.64 6492.44 4083.1 3482.73 3996.93 5130.56 4957.99 4063.26 4997.89 4542.62 5093.28 6131.52 6009.88 4699.77 4850.49 4981.55 5144.23 6188.62 6153.07 4414.06 5944.52 4413.56 5050.2 2513.38 5316.05 4908.32 3995.08 5019.84 4810.74 3900.93 5784.38 4149.17 4329.8 5728.27 5672.46 3074.49 5202.33 3956.24 7558.99 3393.59 4142.1 5043.14 5333.04 5445.91 4521.99 4812.59 6842.54 7115.67 5675.45 3361.11 6038.56 2807.46 5599.16 4179.8 3488.34 5658.35 5428.24 4487.51 4582.12 4295.25 7394.47 4729.45 4850.95 5374.09 6271.22 3421.81 3920.64 5378.75 6186.24 5822.7 3780.07 5466.49 4038.17 5007.41 3692.99 4907.48 6213.74 2329.93 4369.87 6938.87 5412.07 5512.57 4806.99 4813.55 5856.43 3839.0 3465.03 5349.85 5799.86 5172.1 4362.94 4469.82 6545.78 4870.14 2932.2 5105.72 5003.49 3964.03 4216.33 5832.72 5617.91 4721.2 4987.01 4202.12 4706.31 2694.25 4735.99 4203.68 4739.56 4613.32 5145.39 3352.46 6351.95 5195.09 5345.05 7679.2 4881.51 2626.41 4311.92 6729.99 5093.41 6842.35 5464.34 3621.63 5801.89 5908.57 7296.47 5742.39 4821.41 4924.53 5616.11 4499.52 3874.12 4028.13 4457.73 6476.35 6260.58 4067.24 3053.19 6571.26 5580.95 6598.99 3549.92 4032.06 5246.81 5089.1 5888.95 5394.78 3463.34 5122.38 2853.68 5262.85 4998.37 5329.84 6559.82 3879.83 6565.95 4577.98 5043.34 5886.81 4246.24 6805.02 5354.48 5640.63 4900.26 6261.13 4167.55 4720.34 5244.47 5510.89 4731.16 6470.87 4495.33 5282.67 4159.89 5178.55 5146.69 6203.24 6818.23 4488.41 6679.12 5652.19 5806.74 6578.62 6284.12 4796.04 5229.56 6011.4 4672.34 6052.22 5376.41 5003.63 4695.7 4944.08 4082.01 5269.39 4305.35 5210.22 2451.27 3903.9 4444.95 5161.02 3124.49 6265.48 5003.81 6262.18 3818.37 4701.03 6225.05 5434.04 5200.1 3997.52 4444.54 5779.9 4909.74 5310.33 5299.03 6664.54 3922.98 5161.73 5259.48 4777.96 4803.4 6833.5 6608.94 2613.78 4780.16 3834.01 5738.37 4433.23 4813.24 5759.19 3113.64 4490.2 4304.75 5480.86 6139.9 4720.22 4313.38 5827.3 5250.56 3633.58 2468.16 6294.14 4339.97 5203.75 5169.09 4691.15 2459.88 4210.24 5470.67 5901.71 5225.11 5342.9 5252.22 5733.12 4962.35 6436.29 5402.81 4600.81 4919.13 4124.33 5168.97 5783.88 5002.38 6705.93 4865.11 5449.09 5502.14 4465.56 4605.61 4131.08 5747.9 3864.19 4287.93 5315.71 6158.93 5081.65 4823.14 5438.5 4621.32 5699.4 3878.8 4698.94 3948.21 5669.15 5296.05 5263.86 3330.85 5056.32 5533.52 5410.33 4747.24 4380.86 5576.16 5648.02 3308.75 4439.17 5677.42 4929.35 5606.22 3943.77 5242.38 6081.35 5459.52 4609.98 5566.5 5663.36 4276.59 5579.04 5125.53 5994.21 5403.81 5082.25 6964.78 4374.05 5036.84 4565.36 5813.68 4025.08 4008.67 3618.53 5254.93 4770.21 8013.28 3846.55 3796.73 5417.07 3082.16 5656.84 6789.66 4739.41 5312.2 5847.27 4706.59 5734.84 3982.31 4950.07 4582.24 2832.83 4084.87 6036.99 3010.1 3825.98 4589.22 5087.03 4667.84 3906.41 4123.08 4512.6 4260.38 4636.45 4932.27 5638.51 6793.49 3563.33 6060.19 5536.0 6786.37 4333.23 4328.76 5561.63 5940.5 4358.06 5093.51 5647.93 4280.92 6201.49 5154.74 6437.99 6898.8 5386.95 6540.57 5332.11 4893.72 6004.72 4072.4 5373.78 5345.65 4489.18 5863.36 4632.75 5237.76 4994.98 4286.84 6423.96 6058.13 5894.69 6988.4 6635.51 4060.17 6051.35 5302.53 4909.13 4287.61 4867.13 4604.34 4863.27 2701.42 5442.79 5051.39 6673.92 5151.68 4884.94 5362.15 4455.61 4738.72 4752.31 5240.97 5569.85 5405.6 3929.35 4884.93 4759.38 6960.97 4287.15 5282.51 5504.65 5669.41 5732.11 5040.9 5596.68 4868.66 5159.9 5283.65 4644.68 2892.36 5981.54 5911.29 5416.41 4694.27 6760.64 2515.5 5177.88 5551.79 6981.47 3916.15 4474.96 4758.76 4790.63 5259.29 3584.05 4916.75 4818.53 5097.85 5584.64 6189.04 6224.64 4221.03 3799.55 5082.66 4550.77 4337.93 3550.88 4345.51 4048.73 6223.33 3860.8 5145.13 3747.96 5611.29 4521.88 6568.45 5004.22 4601.54 7263.57 4696.92 5705.96 5739.69 6632.04 7360.62 4977.64 4985.45 4983.56 5699.51 2489.44 5499.37 4883.13 4836.76 4752.94 5551.09 3950.53 4501.1 5581.47 4384.91 6550.61 4987.01 4713.56 6094.34 6779.82 3999.81 5543.67 6210.48 6377.45 4182.05 4502.12 3255.93 6853.07 6327.61 4633.59 5733.59 5575.8 5268.93 3695.72 6874.6 5106.9 5306.31 5523.96 4223.53 4733.37 4535.94 3037.72 4523.9 5126.08 5604.0 3760.4 4951.02 3919.47 4602.7 3783.35 4037.16 4004.39 6395.63 4987.48 5943.61 4248.58 5479.17 5020.37 4542.25 4414.23 5233.88 4849.21 4785.55 3793.83 5245.4 6189.81 5367.05 4449.73 5647.11 4088.72 3945.62 3743.85 6236.46 5342.17 6379.3 5015.67 3795.63 5189.4 4576.71 6538.04 4894.15 6157.59 5201.3 5848.41 4090.28 4246.83 5438.6 7370.52 4726.5 5467.05 3724.23 4963.88 5888.94 4727.98 3832.09 4122.2 5267.65 5175.88 4516.26 4790.16 3509.34 5360.88 3647.26 3731.58 3166.37 5369.42 5207.08 5205.53 4714.52 4587.19 5543.05 6028.89 5333.16 4888.17 5755.98 5392.85 5077.2 4274.05 5275.27 4277.54 5529.09 4531.46 5925.82 5448.68 4739.5 4072.95 4491.62 3865.5 5103.3 
SCALARS Velocity float 1
LOOKUP_TABLE default
1.20169 1.19486 1.19606 1.19621 1.19242 1.19298 1.20274 1.19677 1.20638 1.20093 1.19965 1.19189 1.19527 1.19586 1.2002 1.20381 1.19562 1.19393 1.21086 1.19178 1.20221 1.20053 1.19868 1.19175 1.19178 1.19178 1.19433 1.19178 1.19178 1.19621 1.19178 1.19178 1.19548 1.19178 1.19175 1.19153 1.19796 1.196 1.19174 1.19178 1.19148 1.19202 1.19166 1.19178 1.19178 1.19178 1.19415 1.19579 1.19931 1.19663 1.19537 1.19178 1.19441 1.19381 1.19174 1.19965 1.19178 1.19157 1.2045 1.20021 1.1948 1.19437 1.19563 1.19207 1.19542 1.19275 1.19776 1.19252 1.19139 1.19198 1.19407 1.20026 1.19494 1.19204 1.19174 1.19694 1.19125 1.19181 1.19303 1.19014 1.19579 1.18659 1.19837 1.19592 1.20652 1.20304 1.19863 1.20129 1.19659 1.20606 1.2048 1.20159 1.20454 1.19189 1.21782 1.21854 1.19342 1.2026 1.19178 1.20116 1.20365 1.19263 1.19534 1.19888 1.20678 1.21524 1.20212 1.20357 1.19671 1.19725 1.19529 1.21147 1.20215 1.21129 1.19606 1.19997 1.2034 1.19977 1.20126 1.19178 1.19487 1.19163 1.19192 1.19673 1.19178 1.19179 1.1957 1.19178 1.19992 1.19178 1.19861 1.19178 1.19178 1.19178 1.19563 1.19174 1.19178 1.1924 1.19304 1.19138 1.19513 1.19459 1.19746 1.19963 1.19558 1.19652 1.19813 1.19687 1.19266 1.19719 1.194 1.19967 1.19809 1.19928 1.19051 1.20028 1.204 1.19376 1.19291 1.20107 1.19755 1.1944 1.19433 1.19367 1.20041 1.19742 1.19675 1.19304 1.19205 1.19178 1.19624 1.19333 1.19975 1.19491 1.19178 1.19171 1.19731 1.19716 1.19178 1.19178 1.19522 1.19439 1.19269 1.19949 1.1903 1.1975 1.1958 1.19885 1.20818 1.20822 1.20099 1.2044 1.20536 1.19683 1.19235 1.19147 1.20587 1.20188 1.20364 1.19182 1.19666 1.21983 1.19178 1.19552 1.20077 1.21007 1.18319 1.20121 1.2084 1.20413 1.19638 1.19891 1.19597 1.19178 1.20155 1.20243 1.21173 1.21237 1.19877 1.20202 1.19938 1.20163 1.18995 1.20078 1.19875 1.19595 1.19428 1.19934 1.19208 1.19949 1.19158 1.19185 1.19616 1.19178 1.19988 1.19178 1.19823 1.19178 1.19581 1.19249 1.19655 1.19437 1.19546 1.19097 1.19359 1.19265 1.19382 1.19746 1.19639 1.20016 1.19892 1.19815 1.19719 1.19174 1.19529 1.19184 1.19851 1.19178 1.20128 1.20264 1.2033 1.19365 1.19286 1.1937 1.19141 1.20106 1.19616 1.19432 1.19798 1.19401 1.19968 1.20069 1.20161 1.19905 1.19359 1.19141 1.19177 1.19681 1.20019 1.19425 1.19972 1.19504 1.18947 1.20196 1.18486 1.19632 1.1975 1.19549 1.20018 1.18901 1.19562 1.19693 1.20792 1.20103 1.20102 1.20426 1.19452 1.19952 1.19293 1.20476 1.20112 1.19275 1.21148 1.20345 1.21376 1.20291 1.20125 1.20437 1.21873 1.19092 1.1836 1.19178 1.20575 1.20355 1.19762 1.19309 1.19672 1.1957 1.19588 1.19178 1.20074 1.20401 1.21139 1.20019 1.19473 1.19797 1.19937 1.20123 1.18946 1.19541 1.19178 1.19458 1.19918 1.19188 1.20007 1.19234 1.1918 1.19594 1.19126 1.19953 1.20371 1.19784 1.19313 1.19703 1.19178 1.19669 1.19183 1.19596 1.19484 1.19542 1.20062 1.19504 1.19723 1.19592 1.19543 1.20092 1.19878 1.19612 1.19885 1.19415 1.19803 1.18776 1.1978 1.18491 1.19658 1.20259 1.19824 1.19282 1.19055 1.20183 1.19129 1.20086 1.20043 1.19965 1.19546 1.19594 1.19172 1.19178 1.1905 1.20607 1.19833 1.19708 1.19862 1.19929 1.20006 1.1889 1.19542 1.20809 1.20183 1.19678 1.19733 1.17596 1.19917 1.19942 1.1911 1.19247 1.19961 1.19923 1.2019 1.17621 1.21468 1.20438 1.2135 1.20874 1.20335 1.20644 1.19611 1.19007 1.20969 1.19564 1.19872 1.19336 1.19463 1.196 1.19508 1.19607 1.19971 1.20467 1.19858 1.19885 1.19975 1.20124 1.19977 1.21106 1.17923 1.19416 1.19909 1.19176 1.20129 1.20176 1.19474 1.19589 1.19803 1.19178 1.1994 1.19125 1.19918 1.19525 1.19512 1.19834 1.19522 1.2128 1.19802 1.19235 1.19579 1.19515 1.19498 1.19561 1.2007 1.19789 1.19235 1.20079 1.19583 1.19119 1.19796 1.19273 1.187 1.18816 1.18349 1.18952 1.20497 1.19564 1.18475 1.2048 1.20258 1.19904 1.20004 1.19804 1.20084 1.1923 1.19905 1.19895 1.1968 1.19509 1.19524 1.19178 1.19037 1.19165 1.19033 1.20591 1.19821 1.20191 1.19876 1.19375 1.20148 1.19871 1.18965 1.19127 1.18935 1.19714 1.2017 1.19861 1.19622 1.19493 1.19394 1.19485 1.19187 1.20059 1.19823 1.1952 1.19154 1.17096 1.20451 1.20439 1.20424 1.20176 1.18808 1.19367 1.19543 1.2179 1.20861 1.1622 1.19477 1.19841 1.19979 1.19624 1.19178 1.20335 1.21031 1.19775 1.19887 1.19891 1.19872 1.21014 1.19485 1.17923 1.19538 1.19316 1.20852 1.19601 1.20177 1.20073 1.19856 1.20181 1.19356 1.19887 1.1984 1.19788 1.19497 1.2122 1.19691 1.19745 1.19472 1.19756 1.19415 1.19462 1.19405 1.19339 1.20019 1.19931 1.19753 1.19722 1.19444 1.19636 1.19092 1.18496 1.19451 1.19393 1.19042 1.18916 1.18895 1.19356 1.19417 1.20329 1.20621 1.199 1.19504 1.20061 1.19087 1.19164 1.1973 1.19258 1.18928 1.16991 1.19028 1.20554 1.19864 1.19887 1.20365 1.19245 1.19086 1.19706 1.19864 1.20194 1.19797 1.1962 1.19755 1.19526 1.19413 1.19198 1.19725 1.20091 1.19369 1.19293 1.19306 1.20963 1.20376 1.20556 1.20133 1.19867 1.20753 1.18967 1.19767 1.19178 1.19121 1.20541 1.1617 1.19426 1.19786 1.18483 1.19592 1.19483 1.19431 1.20064 1.19749 1.19677 1.20866 1.19167 1.19408 1.18911 1.19599 1.1948 1.19377 1.19579 1.19359 1.18769 1.1981 1.20222 1.20033 1.20114 1.17671 1.19775 1.19575 1.19295 1.19635 1.19426 1.19831 1.20128 1.19286 1.20196 1.19529 1.19257 1.19548 1.19388 1.19978 1.19911 1.19766 1.19869 1.19753 1.19575 1.19708 1.19144 1.18899 1.18323 1.19386 1.19416 1.19105 1.19476 1.1884 1.18804 1.20189 1.20165 1.19442 1.1971 1.20033 1.19481 1.20013 1.19041 1.19505 1.19234 1.18886 1.19344 1.18414 1.19178 1.19488 1.21854 1.19862 1.19504 1.19103 1.19079 1.19712 1.19779 1.19005 1.19698 1.19494 1.19924 1.19187 1.20099 1.1942 1.2009 1.19238 1.21593 1.19231 1.20884 1.19867 1.20271 1.20128 1.19943 1.19508 1.20761 1.19118 1.19799 1.17952 1.19357 1.19044 1.17826 1.1916 1.2024 1.18467 1.19507 1.19178 1.19137 1.18655 1.19951 1.19532 1.18907 1.19566 1.19357 1.18249 1.19313 1.19268 1.19528 1.19474 1.18816 1.19463 1.18989 1.2009 1.20834 1.19228 1.19361 1.19389 1.19696 1.19584 1.20009 1.19042 1.19915 1.19215 1.19798 1.18616 1.1914 1.19492 1.19173 1.19824 1.19632 1.19465 1.19654 1.19141 1.19551 1.18314 1.20059 1.19169 1.18978 1.19496 1.18627 1.19005 1.19021 1.20467 1.1941 1.19849 1.19447 1.19911 1.18867 1.20208 1.19561 1.20535 1.19102 1.20148 1.19178 1.19011 1.19242 1.19637 1.18453 1.20903 1.20083 1.17521 1.19178 1.1998 1.19678 1.18972 1.19445 1.19289 1.19875 1.19211 1.19137 1.2006 1.19305 1.22051 1.19849 1.19208 1.19012 1.20753 1.19239 1.20301 1.19911 1.19843 1.19082 1.1933 1.20165 1.19056 1.18009 1.17967 1.18615 1.19093 1.21229 1.21188 1.19241 1.19521 1.18677 1.19001 1.18629 1.19791 1.19378 1.18724 1.18256 1.19466 1.19362 1.19222 1.19373 1.19512 1.1912 1.18717 1.19762 1.19394 1.19215 1.19385 1.19665 1.19156 1.19604 1.19459 1.18958 1.19353 1.18814 1.19359 1.19883 1.19529 1.19836 1.19212 1.19729 1.18586 1.19075 1.19137 1.19325 1.19912 1.1939 1.19329 1.19589 1.18444 1.19462 1.1787 1.19874 1.19714 1.15559 1.18862 1.19187 1.18966 1.19144 1.20312 1.19179 1.19216 1.19551 1.19212 1.19739 1.18985 1.19937 1.19859 1.19501 1.19368 1.19351 1.19713 1.20436 1.20779 1.19007 1.18524 1.19506 1.2057 1.20287 1.19794 1.17392 1.19178 1.20224 1.18716 1.19263 1.19266 1.199 1.19021 1.19178 1.19993 1.19184 1.22252 1.18806 1.18502 1.2087 1.2332 1.2264 1.1957 1.20125 1.19276 1.19664 1.19555 1.18971 1.19303 1.19989 1.21131 1.19144 1.18409 1.1904 1.17777 1.2012 1.19659 1.18592 1.1849 1.18802 1.18496 1.19178 1.19286 1.18826 1.19138 1.18827 1.18513 1.19878 1.19314 1.19177 1.19203 1.19822 1.198 1.19491 1.18676 1.19113 1.19932 1.21003 1.18688 1.19083 1.19178 1.19648 1.1901 1.18874 1.18805 1.1939 1.19764 1.19663 1.19453 1.19758 1.19776 1.19142 1.18706 1.18639 1.19224 1.19268 1.18968 1.19174 1.18759 1.18902 1.18519 1.19177 1.19924 1.18007 1.20122 1.20197 1.19681 1.19178 1.19178 1.20777 1.18534 1.19658 1.20173 1.19956 1.19023 1.1923 1.19318 1.20595 1.19785 1.19567 1.20014 1.20048 1.19635 1.1934 1.19178 1.21196 1.21134 1.18939 1.18416 1.19323 1.19753 1.19127 1.16659 1.20813 1.20512 1.18565 1.19593 1.19358 1.19778 1.19834 1.18737 1.17416 1.19228 1.19818 1.19017 1.22729 1.1967 1.18422 1.20058 1.18379 1.19224 1.19551 1.18391 1.18896 1.19437 1.19298 1.19711 1.18776 1.18188 1.21366 1.2133 1.19197 1.18535 1.19166 1.17844 1.17094 1.18649 1.20323 1.1963 1.18596 1.18462 1.19293 1.19458 1.19768 1.19782 1.18416 1.19508 1.19217 1.19178 1.19307 1.18576 1.17981 1.19526 1.1846 1.19602 1.20932 1.18691 1.1887 1.19476 1.19229 1.20157 1.18805 1.18688 1.19347 1.19565 1.19344 1.19702 1.19855 1.19297 1.19921 1.19555 1.1946 1.19391 1.20383 1.19101 1.18911 1.19753 1.18315 1.18635 1.18847 1.18383 1.19344 1.19874 1.19768 1.19382 1.19704 1.19538 1.18099 1.20742 1.21039 1.18318 1.18982 1.19444 1.18113 1.19119 1.18895 1.19848 1.20547 1.19473 1.19738 1.19819 1.19312 1.19284 1.19634 1.18739 1.21077 1.18032 1.19626 1.19757 1.187 1.18926 1.20802 1.18212 1.18865 1.1917 1.19306 1.19597 1.19411 1.18673 1.18057 1.18139 1.18181 1.18656 1.18725 1.18246 1.19844 1.18323 1.17783 1.18618 1.18245 1.18884 1.19065 1.19097 1.18326 1.19651 1.18719 1.21303 1.18966 1.1837 1.19164 1.18748 1.19979 1.20651 1.2104 1.19653 1.19827 1.18443 1.18793 1.18468 1.18854 1.19294 1.195 1.19396 1.18232 1.18914 1.19053 1.18211 1.18762 1.19535 1.19001 1.19848 1.18632 1.18752 1.20051 1.18989 1.18675 1.18529 1.19278 1.19515 1.1925 1.1968 1.19826 1.19178 1.19409 1.2008 1.18653 1.19721 1.18282 1.18772 1.19239 1.18646 1.18761 1.19383 1.19404 1.1918 1.19443 1.1979 1.19178 1.18082 1.20749 1.19276 1.19181 1.18549 1.19178 1.19178 1.20256 1.19289 1.1959 1.19924 1.20115 1.19834 1.2001 1.19421 1.19002 1.18944 1.21216 1.18055 1.19232 1.19815 1.19441 1.18373 1.19441 1.1905 1.19405 1.19931 1.18466 1.17066 1.19158 1.19401 1.19266 1.18576 1.19149 1.18509 1.18224 1.19436 1.18234 1.19432 1.17106 1.18423 1.18733 1.17714 1.18954 1.1957 1.18669 1.21166 1.1879 1.18332 1.18218 1.19276 1.19064 1.19109 1.21021 1.19739 1.18366 1.19004 1.18432 1.18391 1.18738 1.19163 1.19418 1.18144 1.18173 1.18897 1.191 1.19492 1.18348 1.19012 1.16241 1.19626 1.20644 1.18778 1.18651 1.18586 1.19426 1.19953 1.1884 1.18603 1.18355 1.19192 1.19308 1.19236 1.18466 1.17706 1.18719 1.19275 1.20186 1.18822 1.19649 1.19315 1.18794 1.18566 1.18725 1.19267 1.19053 1.19312 1.18785 1.20177 1.17623 1.18751 1.19877 1.19695 1.19267 1.19681 1.19033 1.19272 1.19162 1.19876 1.18089 1.19178 1.18777 1.19106 1.19364 1.19524 1.20166 1.19697 1.18632 1.19249 1.18099 1.19071 1.19848 1.19529 1.19817 1.18367 1.19145 1.18968 1.18723 1.18325 1.19137 1.19139 1.1847 1.18577 1.17918 1.18787 1.18377 1.19266 1.19197 1.18174 1.19197 1.18737 1.17461 1.17552 1.18301 1.19889 1.18927 1.18564 1.17565 1.18579 1.18297 1.19433 1.21034 1.18614 1.18326 1.19422 1.19322 1.19777 1.19691 1.19922 1.18302 1.18922 1.18755 1.19178 1.18062 1.18113 1.1818 1.18133 1.19028 1.20351 1.19193 1.19126 1.19429 1.1965 1.18977 1.18885 1.18793 1.19708 1.19246 1.19553 1.19351 1.18893 1.18632 1.18576 1.19286 1.19178 1.19434 1.17818 1.18374 1.19287 1.18884 1.18784 1.19877 1.20067 1.18566 1.19368 1.1858 1.19026 1.18643 1.18659 1.18304 1.20231 1.20283 1.20443 1.19825 1.19307 1.19915 1.19249 1.1923 1.19557 1.19329 1.1885 1.19886 1.1879 1.19034 1.19016 1.20852 1.19341 1.19162 1.20192 1.19392 1.18534 1.20292 1.1967 1.21551 1.21449 1.21328 1.21306 1.18156 1.1921 1.18644 1.20046 1.19422 1.20098 1.1844 1.20031 1.19219 1.18435 1.19194 1.19024 1.1912 1.18286 1.18839 1.1862 1.18247 1.18374 1.19027 1.19294 1.176 1.18473 1.20383 1.18 1.18226 1.18546 1.16903 1.19292 1.19127 1.1808 1.18486 1.20545 1.1955 1.18965 1.19926 1.18472 1.19814 1.18286 1.18896 1.19403 1.18557 1.18957 1.17999 1.2042 1.19145 1.19414 1.19175 1.1895 1.19343 1.1888 1.18757 1.17995 1.19125 1.19823 1.18867 1.18981 1.17826 1.18395 1.19536 1.19957 1.19565 1.18854 1.19916 1.19121 1.18395 1.18412 1.19453 1.18641 1.19171 1.19105 1.191 1.18539 1.19851 1.16816 1.19013 1.20142 1.20025 1.19559 1.18676 1.19519 1.19095 1.20131 1.18769 1.19305 1.19364 1.19655 1.19267 1.22269 1.18661 1.20274 1.19569 1.18452 1.19906 1.2065 1.19198 1.18713 1.21035 1.19507 1.18547 1.19879 1.19914 1.18194 1.19135 1.19143 1.19695 1.19178 1.19639 1.21301 1.18424 1.19043 1.18999 1.18211 1.18951 1.18668 1.18372 1.18445 1.17797 1.17736 1.18792 1.18952 1.18986 1.19013 1.20599 1.18416 1.17396 1.19048 1.1848 1.17795 1.16876 1.19004 1.17841 1.19051 1.18368 1.19178 1.1882 1.18593 1.19069 1.19701 1.17929 1.18275 1.18864 1.18848 1.18471 1.19097 1.18192 1.17941 1.18567 1.19114 1.19363 1.18802 1.1848 1.18535 1.18465 1.19286 1.19135 1.19127 1.18868 1.18761 1.19385 1.18097 1.19004 1.18642 1.18995 1.19218 1.18122 1.19268 1.20296 1.20107 1.18845 1.18721 1.19174 1.18503 1.18149 1.18848 1.18614 1.19027 1.18067 1.21372 1.19027 1.18375 1.18803 1.18325 1.1907 1.20293 1.18911 1.18614 1.20315 1.19384 1.19178 1.20125 1.20407 1.19141 1.19072 1.19393 1.21079 1.2065 1.19744 1.19295 1.1965 1.20529 1.23683 1.18786 1.19985 1.1956 1.1841 1.19851 1.20413 1.20445 1.19524 1.19104 1.1971 1.19178 1.18131 1.19174 1.18754 1.19304 1.19644 1.20755 1.18357 1.18932 1.17702 1.18357 1.18574 1.18704 1.17486 1.17262 1.18832 1.19046 1.19287 1.17352 1.19239 1.17589 1.1689 1.17524 1.17919 1.19152 1.18479 1.19178 1.18861 1.19608 1.17875 1.19561 1.18954 1.18254 1.18978 1.1853 1.19256 1.18978 1.19031 1.19306 1.18437 1.18019 1.18217 1.18432 1.18742 1.18374 1.18805 1.18371 1.19212 1.19116 1.1911 1.18981 1.18862 1.18747 1.19148 1.1918 1.18009 1.18427 1.17878 1.17759 1.18829 1.18901 1.18991 1.18634 1.17791 1.19871 1.19908 1.19107 1.19178 1.1886 1.20065 1.19126 1.20115 1.18788 1.18975 1.19632 1.20365 1.19359 1.19719 1.20425 1.19258 1.21302 1.18749 1.20645 1.19663 1.19131 1.18561 1.2105 1.18889 1.19208 1.1967 1.20382 1.19469 1.18935 1.19881 1.20431 1.20571 1.18479 1.19239 1.19082 1.19222 1.19737 1.19574 1.19178 1.21575 1.19085 1.19595 1.18356 1.17601 1.17999 1.18549 1.19178 1.17423 1.19144 1.1952 1.18797 1.19074 1.18922 1.18975 1.19335 1.18389 1.18848 1.19178 1.18607 1.1773 1.17128 1.19178 1.17981 1.17898 1.19117 1.18421 1.18817 1.18477 1.18788 1.19288 1.17535 1.18737 1.18254 1.18268 1.19128 1.1913 1.19328 1.18959 1.19168 1.18889 1.19208 1.18258 1.18222 1.18287 1.18078 1.18122 1.18702 1.18375 1.19286 1.19397 1.18337 1.18304 1.19169 1.19033 1.18797 1.18593 1.17952 1.18308 1.17851 1.19296 1.19178 1.18755 1.19178 1.19178 1.18783 1.177 1.18629 1.18871 1.19993 1.19263 1.18681 1.18807 1.20297 1.19017 1.194 1.18848 1.19162 1.19178 1.21057 1.19807 1.19957 1.20507 1.18904 1.2089 1.19336 1.20902 1.18321 1.19675 1.20161 1.19969 1.19076 1.19594 1.18873 1.19358 1.1893 1.19936 1.20376 1.20326 1.18551 1.1856 1.18551 1.19945 1.19549 1.19105 1.21375 1.18393 1.18293 1.18401 1.17282 1.19099 1.19178 1.19178 1.18421 1.1955 1.19537 1.192 1.18824 1.1868 1.18857 1.18098 1.19078 1.18402 1.19177 1.18639 1.17635 1.20407 1.18262 1.19055 1.19178 1.18756 1.1824 1.19099 1.18726 1.1857 1.19438 1.19178 1.19317 1.19138 1.19224 1.18945 1.18637 1.19454 1.17547 1.17814 1.1826 1.18167 1.19178 1.18098 1.18445 1.18482 1.19282 1.18694 1.18017 1.19178 1.1906 1.19185 1.18878 1.18593 1.17901 1.18018 1.18491 1.17967 1.19058 1.19188 1.19225 1.19172 1.19291 1.19202 1.18775 1.18741 1.17706 1.17505 1.19104 1.19952 1.19078 1.187 1.20195 1.19318 1.19662 1.19057 1.19034 1.21168 1.19912 1.19964 1.20381 1.2086 1.18759 1.20749 1.2 1.19393 1.19594 1.19385 1.20431 1.20639 1.19791 1.19758 1.18788 1.19093 1.18777 1.1874 1.18254 1.20354 1.20104 1.18409 1.18293 1.1831 1.1816 1.18832 1.17526 1.19042 1.19282 1.19125 1.19047 1.18349 1.19602 1.18269 1.18398 1.1724 1.19518 1.18505 1.19527 1.19385 1.19432 1.19629 1.19138 1.19113 1.18372 1.19211 1.18111 1.18422 1.1839 1.18569 1.18815 1.1838 1.17874 1.18515 1.18576 1.18992 1.19029 1.19039 1.19233 1.187 1.18129 1.18726 1.18683 1.19443 1.19086 1.19342 1.19061 1.19159 1.1936 1.19225 1.17862 1.18355 1.19071 1.18088 1.18623 1.18894 1.19142 1.19146 1.18854 1.1893 1.19178 1.18906 1.19178 1.18618 1.19173 1.19346 1.18728 1.18781 1.17908 1.19281 1.1956 1.19186 1.19187 1.18333 1.18483 1.19233 1.18844 1.19361 1.18842 1.18421 1.1882 1.17473 1.19318 1.19614 1.1946 1.19064 1.2005 1.20051 1.2002 1.18941 1.19921 1.20997 1.22503 1.19046 1.19814 1.19987 1.18797 1.21093 1.20685 1.19852 1.18673 1.18137 1.19794 1.18644 1.18598 1.20191 1.19141 1.19256 1.1813 1.17766 1.18678 1.17946 1.17846 1.19442 1.18943 1.1952 1.1834 1.18498 1.18412 1.17292 1.18919 1.1959 1.19178 1.18992 1.19469 1.1852 1.18949 1.18114 1.1896 1.1935 1.19178 1.18161 1.18483 1.18415 1.19178 1.19056 1.18376 1.18791 1.19209 1.19162 1.18426 1.19924 1.19175 1.18025 1.19508 1.19669 1.18552 1.18762 1.18425 1.19007 1.1928 1.1934 1.19141 1.19131 1.19064 1.18997 1.19182 1.18616 1.18991 1.1809 1.18889 1.19095 1.18543 1.18535 1.19139 1.18881 1.18754 1.19047 1.19178 1.19341 1.1892 1.17877 1.19364 1.19555 1.19325 1.19054 1.19468 1.18827 1.19671 1.18924 1.18994 1.18967 1.18609 1.18299 1.19121 1.18613 1.1844 1.1969 1.19581 1.19174 1.19659 1.19927 1.20036 1.20051 1.19994 1.20596 1.20029 1.19164 1.19809 1.17979 1.18662 1.20547 1.19178 1.18273 1.17764 1.22376 1.19585 1.18415 1.1918 1.20213 1.16997 1.18732 1.17328 1.16883 1.17073 1.18113 1.1852 1.19261 1.18985 1.19088 1.19093 1.19464 1.18377 1.18945 1.19172 1.19548 1.18569 1.19524 1.18895 1.18868 1.18058 1.1803 1.18958 1.18895 1.18958 1.18094 1.19655 1.1953 1.19085 1.19209 1.1848 1.19153 1.19447 1.19197 1.19101 1.18587 1.18963 1.18603 1.18761 1.18324 1.19317 1.19095 1.19042 1.19178 1.19126 1.18994 1.19176 1.18676 1.18758 1.19178 1.18037 1.18096 1.18855 1.19102 1.19156 1.19178 1.19003 1.19111 1.18746 1.18718 1.19044 1.19069 1.18409 1.19545 1.19257 1.19244 1.19296 1.19346 1.18891 1.19313 1.19264 1.18967 1.18678 1.18602 1.18953 1.1835 1.18685 1.18382 1.19451 1.19402 1.19177 1.19079 1.18505 1.18444 1.19575 1.19506 1.20271 1.19937 1.20441 1.19586 1.19274 1.19659 1.19479 1.2113 1.18545 1.18513 1.19185 1.20726 1.12311 1.19672 1.1856 1.21375 1.19277 1.19178 1.18516 1.19408 1.19138 1.20169 1.1518 1.18212 1.15653 1.19649 1.1842 1.19178 1.19085 1.18603 1.191 1.19076 1.18783 1.19484 1.18466 1.19261 1.19202 1.19 1.17902 1.19279 1.19178 1.19008 1.18669 1.19156 1.1866 1.18835 1.18943 1.181 1.18797 1.18731 1.1888 1.19171 1.18974 1.18961 1.19264 1.19091 1.18587 1.18543 1.19198 1.1871 1.18577 1.18453 1.18655 1.18864 1.18361 1.19 1.1904 1.19178 1.19125 1.19008 1.19176 1.19178 1.19178 1.19178 1.18909 1.19158 1.19178 1.19162 1.18999 1.19168 1.19176 1.18744 1.19048 1.19054 1.19251 1.18955 1.18633 1.18954 1.19293 1.18547 1.19199 1.19409 1.18629 1.18228 1.18987 1.18606 1.18617 1.19135 1.18646 1.18109 1.18268 1.19069 1.18904 1.18292 1.19371 1.20273 1.19273 1.20389 1.18975 1.19473 1.21118 1.19482 1.20444 1.1975 1.19324 1.20808 1.16381 1.18296 1.19099 1.19781 1.20426 1.1718 1.19645 1.18561 1.18379 1.18688 1.18629 1.19031 1.18732 1.18706 1.18586 1.19059 1.19145 1.19189 1.18935 1.19178 1.19323 1.18735 1.19226 1.19017 1.18773 1.18869 1.19071 1.19111 1.19178 1.19128 1.19182 1.18924 1.18595 1.18477 1.18024 1.18735 1.18653 1.18371 1.18996 1.18987 1.19178 1.19177 1.19178 1.19177 1.19178 1.1912 1.19008 1.19175 1.19178 1.19178 1.19178 1.18921 1.18917 1.19178 1.19178 1.19165 1.19178 1.19171 1.18731 1.19049 1.19138 1.19012 1.19197 1.19221 1.18546 1.18666 1.1931 1.18609 1.19185 1.18837 1.18591 1.18599 1.19227 1.18292 1.18017 1.18975 1.184 1.20181 1.19149 1.20909 1.20079 1.19813 1.2218 1.20721 1.19032 1.20735 1.19002 1.19387 1.19526 1.19375 1.19304 1.17061 1.16515 1.18039 1.19539 1.20008 1.18302 1.17149 1.20791 1.18167 1.18711 1.19181 1.19177 1.1898 1.18685 1.19178 1.18742 1.18623 1.19189 1.19194 1.19252 1.18898 1.18962 1.19155 1.19081 1.19319 1.18113 1.18801 1.18979 1.18926 1.1904 1.19051 1.19058 1.19079 1.17908 1.18606 1.18381 1.18997 1.19032 1.19167 1.1904 1.19101 1.19096 1.18841 1.18378 1.18528 1.18659 1.18318 1.1775 1.18258 1.18735 1.18472 1.18868 1.19898 1.19924 1.20946 1.20576 1.19212 1.21573 1.20699 1.19159 1.19577 1.19637 1.20356 1.1974 1.19221 1.19506 1.19259 1.19188 1.19763 1.1844 1.17716 1.17121 1.18202 1.1883 1.19177 1.18993 1.18671 1.18688 1.18806 1.189 1.19178 1.18886 1.18905 1.18948 1.18932 1.18531 1.19162 1.18417 1.1899 1.18723 1.18917 1.18626 1.17941 1.18047 1.18502 1.18849 1.19669 1.20338 1.20084 1.20615 1.20046 1.2073 1.19043 1.2072 1.15977 1.16595 1.18596 1.1948 1.20942 1.19732 1.21028 1.20941 1.20159 1.21478 1.19233 1.15877 1.20442 1.19713 1.20235 1.19327 1.20753 1.18427 1.22163 1.22105 1.19827 1.20597 1.17326 1.20911 1.19256 1.21509 1.21464 1.23543 1.19579 1.19909 1.21922 1.19194 1.19892 1.21036 1.1944 1.18609 1.17292 1.22666 1.1863 1.21069 1.20819 1.21404 1.18371 1.18425 1.20931 1.19723 1.19569 1.29175 1.21497 1.19178 1.20314 1.22967 1.22575 1.21691 1.21525 1.18913 0.0535776 0.17332 1.19178 0.0211195 0.211545 0.203703 0.176361 0.13722 0.102771 0.0624168 0.0680221 0.0357608 0.0767617 0.0677486 0.0608876 0.0892328 0.0970305 0.0631156 0.0327542 0.0732379 0.0749895 0.0969957 0.0754456 0.0997137 0.0940226 0.0921655 0.0393789 0.0905219 0.0739542 0.0534148 0.0661933 0.0946115 0.0944785 0.0865804 0.0909772 0.100564 0.0929902 0.135376 0.158904 0.176077 0.131748 0.184684 0.168325 0.221774 0.167631 0.185677 0.142656 0.150162 1.22135 1.24593 1.16781 1.22877 1.24793 1.16849 1.17599 1.20556 1.21656 1.20768 1.20558 1.19304 1.27318 1.17464 1.22286 1.20453 1.29845 1.23443 1.1845 0.200826 0.404698 0.68457 1.19193 0.599342 0.29127 0.26224 0.13311 0.102468 0.131044 0.0028104 1.19178 0.103051 0.107462 0.184108 0.215391 0.235496 0.192802 0.15503 0.134359 0.15921 0.109206 0.131105 0.469508 0.136655 0.393273 0.29059 0.209033 0.0479048 0.0228138 0.0356998 0.120548 0.158617 0.140706 0.0936102 0.120838 0.0530002 0.0659219 0.105995 0.145867 0.146503 0.0798141 0.0148573 0.114437 0.140809 0.105336 0.0841744 0.201601 0.290747 0.166302 0.322005 0.436364 0.294824 0.213143 0.171803 0.0901979 0.0978592 0.042629 0.080051 0.0554138 0.114531 0.0835141 0.0851647 0.142462 0.139239 0.114701 0.157724 0.103323 0.218095 0.0952224 0.0579094 0.0411533 0.138292 0.103902 0.158938 0.0967285 0.107661 0.166822 0.151216 0.121798 0.0934729 0.1542 0.132081 0.1237 0.166557 0.0392529 0.189826 0.238497 0.105179 0.1684 0.147729 0.198151 0.110361 0.0480449 0.112822 0.137086 0.137134 0.160089 0.093423 0.127199 0.23732 0.264042 0.282033 0.220428 0.0517378 0.332967 0.201776 0.23494 0.253832 0.317592 1.18093 1.20685 1.21292 1.1776 1.20546 1.21533 1.20767 1.21728 1.2053 1.20594 1.18746 1.20378 1.18524 1.2272 1.29967 1.29609 1.24757 1.2218 1.192 0.47826 0.323223 1.34202 0.888564 0.419238 1.05335 0.45955 0.246716 0.406004 0.130477 0.168888 0.0589331 0.0786077 0.092754 0.146053 0.15954 0.0808342 0.195034 0.223306 0.265628 0.26779 0.231033 0.248096 0.0788327 0.292226 0.249042 0.378786 0.36494 0.393926 0.615341 0.140387 0.258746 0.0875691 0.358013 0.229402 0.653655 0.397858 0.171323 0.0953364 0.175494 0.048411 0.0890028 0.124812 0.127116 0.195263 0.200498 0.23619 0.146718 0.186667 0.163162 0.124298 0.245038 0.213239 0.163982 0.145701 0.191647 0.091653 0.133197 0.0997947 0.156546 0.148653 0.139312 0.197431 0.258668 0.323955 0.398466 0.342668 0.295194 0.415368 0.225875 0.27771 0.178417 0.173618 0.132335 0.0803895 0.107479 0.192644 0.170762 0.204633 0.159781 0.190826 0.204744 0.196193 0.22452 0.217031 0.151452 0.121619 0.181149 0.0421686 0.115774 0.216766 0.276607 0.282358 0.214175 0.175748 0.246959 0.216959 0.164857 0.158261 0.207633 0.165834 0.225749 0.253674 0.217286 0.263379 0.249785 0.222353 0.130342 0.275353 0.0366585 0.0886495 0.170947 0.1455 0.152202 0.225893 0.252433 0.183655 0.189218 0.25437 0.302322 0.26483 0.338838 0.36764 0.273255 0.2435 0.409583 0.193536 0.360645 0.379052 0.316756 0.334434 1.27789 1.27001 1.19225 1.20191 1.19599 1.33555 1.18833 1.20326 1.22087 1.18558 1.19484 1.18156 1.14595 1.3001 1.17535 1.21448 0.973738 0.399905 0.449471 0.380241 0.529949 0.368302 0.607612 0.67348 0.502563 0.213527 0.124159 0.0656191 0.0947126 0.16954 0.134234 0.137042 0.187297 0.160099 0.201452 0.218579 0.178262 0.152439 0.207576 0.240117 0.295513 0.29549 0.291468 0.320496 0.351916 0.297482 0.176376 0.851714 0.345181 0.508319 0.0425172 0.568992 0.575005 0.991311 0.456352 0.260124 0.216861 0.237599 0.284156 0.139792 0.1708 0.353165 0.0451253 0.0552277 0.0810585 0.209214 0.226837 0.268475 0.220508 0.257293 0.225337 0.298565 0.302842 0.281674 0.193036 0.307319 0.232901 0.0824602 0.115963 0.458774 0.263776 0.0804477 0.0622493 0.141271 0.139156 0.214031 0.197243 0.26926 0.38193 0.355461 0.402712 0.324244 0.235942 0.280088 0.240372 0.306035 0.157904 0.0858104 0.100811 0.143483 0.0744508 0.209381 0.229667 0.256983 0.244905 0.253193 0.243007 0.19232 0.229346 0.159748 0.157555 0.170484 0.112448 0.154908 0.315128 0.342766 0.346767 0.251137 0.22222 0.209702 0.183441 0.254523 0.280302 0.28357 0.27578 0.346526 0.340949 0.435955 0.318054 0.142853 0.368518 0.358581 0.0877202 0.229126 0.294803 0.284184 0.379301 0.339654 0.380739 0.378924 0.322091 0.352629 0.230704 0.254702 0.315481 0.216434 1.2998 1.14722 1.1622 1.17964 1.17567 1.32917 1.17053 1.19419 1.1751 1.1813 1.20647 1.19633 1.18805 1.18951 1.16987 1.19289 1.14587 1.26316 1.21584 1.19455 1.08661 1.06223 1.13962 1.2292 1.01157 0.437197 0.447298 0.477019 0.645004 0.287586 0.479938 0.731993 0.116981 0.153736 0.146484 0.247192 0.243334 0.22295 0.236671 0.286219 0.313401 0.328394 0.367541 0.349852 0.355199 0.475929 0.575298 1.02966 0.838769 0.841081 0.407418 0.184724 0.394683 0.316058 0.217862 0.316589 0.230443 0.339892 0.286299 0.427831 0.370405 0.0693457 0.271779 0.261643 0.305895 0.269862 0.281238 0.29319 0.314964 0.362128 0.303451 0.426545 0.432698 0.691946 0.487839 0.298615 0.213363 0.233713 0.196511 0.33314 0.35768 0.474203 0.329459 0.359736 0.43232 0.397313 0.367694 0.383118 0.275905 0.301474 0.0384248 0.30651 0.320493 0.286563 0.268406 0.314574 0.290996 0.311058 0.33952 0.313954 0.229866 0.329922 0.273581 0.502521 0.26083 0.0759318 0.34711 0.515101 0.226797 0.384434 0.452541 0.424092 0.408048 0.303586 0.219809 0.252484 0.287894 0.281734 0.281191 0.284716 0.315826 0.368155 0.475979 0.736811 0.0563705 0.463876 0.470865 0.437551 0.373777 0.45803 0.404138 0.396033 0.372862 0.360635 0.342931 0.339691 0.339974 0.357347 0.322062 0.28638 0.174896 0.0319117 1.08747 1.18192 1.22848 1.24574 1.18174 1.20203 1.18423 1.18607 1.18489 1.18418 1.1915 1.17331 1.19449 1.1634 1.20258 1.0663 1.26458 1.12273 1.24169 1.22818 0.431696 0.442492 0.453849 0.608807 1.10481 0.673022 0.470514 0.562155 0.279492 0.208052 0.192286 0.261708 0.34389 0.309281 0.301057 0.295586 0.349959 0.300958 0.3353 0.324729 0.336271 0.344533 0.366273 0.403486 0.400171 0.413357 0.434256 0.281096 0.792946 0.267662 0.2071 0.324606 0.36305 0.293397 0.295724 0.301512 0.416 0.583813 0.494769 0.468347 0.504759 0.380183 0.326677 0.301061 0.332604 0.324859 0.32536 0.298561 0.261787 0.680147 0.667382 0.687227 0.591768 0.252717 0.228134 0.303249 0.534623 0.437905 0.489562 0.460607 0.499291 0.44672 0.395667 0.39015 0.34267 0.421819 0.373493 0.610812 0.329628 0.365825 0.362122 0.336933 0.343755 0.258984 0.388164 0.420281 0.688074 0.39901 0.315509 0.366838 0.653608 0.524805 0.448038 0.436264 0.40976 0.491738 0.379404 0.229351 0.355537 0.306773 0.32904 0.320842 0.345022 0.348995 0.426678 0.926218 0.567783 0.520181 0.489023 0.478676 0.376697 0.393335 0.379821 0.391755 0.369809 0.361479 0.409164 0.378862 0.329258 0.183514 0.218107 0.104753 1.18046 1.17795 1.06956 1.10183 1.10481 1.18588 1.19647 1.19118 1.18151 1.18763 1.19888 1.18363 1.16667 1.21015 1.1837 1.1687 1.08354 1.13223 1.31052 0.460127 0.488454 0.516836 0.574624 0.461682 0.454218 0.411367 0.339271 0.341834 0.363759 0.417372 0.34272 0.345215 0.400889 0.373419 0.364279 0.37694 0.367706 0.328344 0.364256 0.409353 0.677544 0.422486 0.653647 0.585847 0.255035 0.555469 0.17829 0.317632 0.319865 0.328661 0.268033 0.415194 0.501914 0.672682 1.27066 0.714421 0.344283 0.351916 0.367073 0.36549 0.381934 0.370575 0.46554 0.560555 0.265103 0.357753 0.239338 0.288471 0.337644 0.588442 0.538515 0.494362 0.538917 0.547623 0.511466 0.469714 0.385639 0.348378 0.525476 0.468521 0.519013 0.400681 0.431188 0.188152 0.463578 0.543378 0.579601 0.464662 0.480061 0.32267 0.687118 0.623868 0.507306 0.424523 0.483257 0.544436 0.4054 0.672071 0.38474 0.37881 0.393306 0.377454 0.34497 0.355855 0.470438 0.472609 0.54052 0.830145 0.688726 0.465966 0.488476 0.501142 0.503464 0.44864 0.417894 0.416983 0.445196 0.45883 0.422085 0.337133 0.22354 1.13579 1.15795 1.21709 1.20988 1.19178 1.10088 1.1803 1.18483 1.19643 1.17864 1.18764 1.20439 1.19715 1.18196 1.16877 1.16392 1.18466 1.1373 1.12004 1.25624 1.19602 0.460164 0.503735 0.511155 0.539359 0.557513 0.490551 0.384867 0.476808 0.517428 0.319861 0.390379 0.378256 0.45975 0.425855 0.350257 0.420719 0.376561 0.379362 0.378843 0.431162 0.439908 0.535865 0.512266 0.372422 0.436248 0.364625 0.387933 0.386991 0.409325 0.498423 0.262615 0.450275 0.891126 0.483923 0.367087 0.365941 0.40037 0.395549 0.400085 0.448222 0.447835 0.541944 0.520932 0.399667 0.529306 0.124892 0.468257 0.419661 0.3541 0.259362 0.561846 0.552752 0.588327 0.574076 0.563715 0.552854 0.493264 0.520315 0.514653 0.478524 0.438096 0.476649 0.494749 0.653401 0.498634 0.532096 0.512623 0.779059 0.568175 0.410321 0.439918 0.423868 0.63229 0.620738 0.478305 0.441629 0.477794 0.43023 0.407104 0.663718 0.616123 0.67572 0.708839 0.555627 0.516138 0.489737 0.495364 0.497875 0.541408 0.446921 0.403257 0.463545 0.489148 0.454414 0.548351 0.733638 0.690268 0.610158 0.418473 0.46753 1.13773 1.20655 1.13064 1.12308 1.16025 1.19307 1.18258 1.18731 1.13906 1.19444 1.19038 1.16055 1.17443 1.17115 1.19629 1.20005 1.12906 1.18693 1.26206 1.16912 1.1073 0.552871 0.539491 0.551136 0.560135 0.541942 0.543354 0.497877 0.539945 0.534129 0.453949 0.461292 0.56473 0.321445 0.410244 0.438267 0.492813 0.474137 0.535361 0.543044 0.475022 0.410317 0.462083 0.473733 0.524509 0.236027 0.635593 0.601715 0.610887 0.571574 0.504423 0.416931 0.435663 0.473699 0.485384 0.505541 0.528979 0.713675 0.445808 0.899474 0.237797 0.261089 0.567728 0.620169 0.59939 0.58321 0.602375 0.604097 0.497726 0.692625 0.602577 0.545135 0.492607 0.604918 0.519283 0.519755 0.573912 0.644385 0.559105 0.515554 0.514514 0.732614 0.660795 0.559143 0.362575 0.464559 0.503713 0.65297 0.691466 0.68786 0.554379 0.446345 0.477337 0.49289 0.523516 0.650301 0.56731 0.482994 0.515996 0.668735 0.675053 0.609258 0.67435 0.537564 0.601817 0.536343 0.495839 0.528775 0.528878 0.557857 0.676356 0.628824 1.11251 1.0386 1.24399 1.16346 1.12994 1.12476 1.17317 1.19262 1.17114 1.19744 1.13132 1.23211 1.17702 1.17955 1.15271 1.17814 1.17574 1.21661 1.15716 1.25537 1.09306 0.603238 0.573439 0.533102 0.519897 0.63442 0.6095 0.579737 0.622016 0.425399 0.644223 0.456103 0.807924 0.379808 0.0670341 0.461391 0.732625 0.476645 0.497316 0.50125 0.486211 0.585337 0.564173 0.42297 0.43776 0.62482 0.6886 0.806008 0.58491 0.673848 0.565508 0.530218 0.454046 0.498786 0.515478 0.491435 0.521898 0.406053 0.514489 0.780638 0.662962 0.660563 0.828061 0.660524 0.335206 0.652653 0.665967 0.671113 0.660622 0.734553 0.567793 0.660024 0.717204 0.548314 0.612747 0.62202 0.672686 0.701675 0.505436 0.587909 0.609727 0.574638 0.549659 0.638338 0.623184 0.914006 0.741581 0.728614 0.648632 0.582663 0.705417 0.686524 0.641778 0.578247 0.722019 0.629774 0.744701 0.755286 0.722302 0.69671 0.649294 0.598191 0.647209 0.640549 0.618298 0.545721 0.640438 0.515073 0.596957 0.543426 0.611219 0.720127 0.671423 0.586365 0.635449 1.10102 1.23677 1.13256 1.17957 1.17123 1.21309 1.19717 1.16991 1.17635 1.1256 1.14538 1.22957 1.17389 1.18013 1.1567 1.17244 1.17653 1.21654 1.19505 1.20715 1.06516 0.645906 0.587425 0.615278 0.510744 0.447699 0.432483 0.31594 0.688176 0.658096 0.603629 0.892064 0.787272 0.783766 0.614359 0.221741 0.597495 0.383109 0.679596 1.17599 0.515541 0.576879 0.431262 0.499766 0.537124 0.541029 0.612344 0.630605 0.607516 0.6538 0.436405 0.29825 0.570013 0.843741 0.624299 0.720214 0.573552 0.590737 0.620478 0.515046 0.526683 0.526549 0.542587 0.561162 0.622446 0.522257 0.671315 0.644331 0.642331 0.738657 0.785315 0.49115 0.765048 0.721573 0.632372 0.698819 0.683977 0.637069 0.79256 0.726706 0.733471 0.794738 0.648931 0.69162 0.7734 0.610125 0.657921 0.67109 0.650313 0.690935 1.09549 1.00931 1.00213 0.684606 0.756073 0.709833 0.678556 0.843114 0.694436 0.761951 0.724771 0.736308 0.746966 0.763974 0.682724 0.644625 0.6721 0.676597 0.719291 0.556986 0.601163 0.66519 0.627881 0.748119 0.745245 0.688147 0.736248 1.00834 1.23281 1.14337 1.18858 1.0995 1.20948 1.1855 1.17873 1.16789 1.16379 1.22931 1.17238 1.18182 1.16167 1.174 1.16317 1.17002 1.13235 1.22576 0.853553 0.750877 0.540808 0.307828 0.493652 0.755295 0.717997 0.925412 0.768217 0.770062 0.735369 0.64882 0.533835 1.07662 0.68772 0.653283 0.609903 0.538403 0.429255 0.576947 0.523838 0.550392 0.650692 0.69431 0.660548 0.688794 0.834442 0.762441 0.622589 0.328357 0.500025 0.73653 0.872642 0.997602 0.900022 0.827093 0.625306 0.649602 0.663413 0.594443 0.522255 0.558037 0.647933 0.736724 0.65072 0.743045 0.363025 0.73015 0.613521 0.836374 0.790587 0.721211 0.798629 0.690207 0.809263 0.69775 0.757526 0.802043 0.821882 0.684066 0.763906 0.621643 0.679955 0.642368 0.750017 1.11988 0.956803 0.788545 0.711782 0.713497 0.778734 0.712178 0.956387 0.764852 0.786301 0.789978 0.856666 0.789887 0.731954 0.732289 0.710633 0.720541 0.646316 0.748457 0.916071 0.628545 0.73388 0.702474 0.870651 0.777536 0.904234 0.787832 1.00065 1.19228 1.13493 1.19916 1.11212 1.19878 1.18145 1.18166 1.17766 1.18014 1.14641 1.16822 1.17943 1.16809 1.15763 1.16451 1.17415 1.13615 1.25266 0.939293 0.93151 0.666091 0.766052 0.860055 1.08962 0.973387 0.705696 0.568665 1.02645 0.790785 0.848036 0.838666 1.27642 1.66155 1.40224 0.578296 0.558922 0.6667 0.545952 0.575906 0.579442 0.690234 0.657913 0.731646 0.756542 0.710087 0.674025 0.598411 0.965847 0.969348 0.851778 0.925147 0.70435 0.604544 0.634275 0.73076 0.609512 0.637947 0.770805 0.644979 0.718941 0.849935 0.58978 0.593372 0.809422 1.03491 0.686417 0.89807 0.739774 0.832865 0.900602 0.735237 0.787426 0.809593 0.881652 0.768917 0.82639 1.0212 0.773983 0.707201 0.867899 1.09315 0.997358 0.945005 0.858753 0.752272 0.867488 0.817549 0.999892 1.00409 0.822639 0.862813 0.839132 0.920562 0.801667 0.758956 0.751062 0.834531 0.75173 1.07618 0.79208 0.970245 0.978599 0.896383 0.799401 0.669934 0.918311 1.045 1.1336 1.12817 1.19168 1.11417 1.19378 1.1979 1.18719 1.17987 1.18197 1.15342 1.17794 1.18945 1.17301 1.15605 1.1544 1.13809 1.16983 1.1797 0.98699 0.976156 0.652801 0.823665 0.845969 0.921258 1.13925 0.667914 0.909527 0.690278 0.8317 0.85905 0.876117 1.129 0.752505 1.16743 0.74046 0.535326 0.550721 0.765307 0.894179 0.772346 0.753031 0.935287 0.904149 0.573605 0.888806 0.922186 0.771792 0.837006 0.738348 0.681547 0.780984 0.811254 0.566646 0.764111 1.02351 0.853973 0.786241 0.811613 1.04323 1.01669 0.723737 0.874784 0.746283 0.870145 0.906438 0.847586 0.872625 0.812652 0.836048 0.891763 1.00246 0.871377 1.05626 0.971911 0.863952 1.08547 0.932611 1.08608 0.971454 0.984542 0.900529 0.908114 0.980705 0.912398 1.00052 0.931262 0.887981 0.888727 0.947209 0.797423 0.800487 0.766028 0.841892 0.703041 1.03549 0.983551 1.12598 1.00825 0.796529 0.955434 1.14696 1.02395 1.15386 1.23281 1.18639 1.18576 1.18148 1.17994 1.18321 1.18378 1.15587 1.17811 1.19014 1.17178 1.15467 1.16498 1.15878 1.19801 1.06743 1.12411 1.00465 0.588952 0.788615 1.04808 1.0728 0.829952 0.886545 0.897924 0.816913 0.914352 0.88605 0.944016 1.0589 1.14879 0.900988 0.81897 0.686223 0.896949 0.933523 0.802752 0.826853 0.907846 1.00643 0.796439 0.971278 0.92365 0.958901 0.739403 0.789693 0.794872 0.71216 0.783102 0.967405 0.790189 0.798155 1.04637 0.866614 0.890764 0.819411 0.854506 1.01365 0.777361 0.893999 0.922733 0.915826 0.946728 0.872817 0.893929 0.875624 0.887319 0.858489 0.943488 1.05771 1.01254 0.88735 0.974078 1.00105 1.1962 0.99219 0.903893 0.972775 0.958544 0.964604 0.932787 0.946293 0.999584 0.987946 1.0238 1.10518 0.756058 0.954872 0.903256 0.905487 0.970186 0.958975 0.984612 0.93846 0.804059 0.91625 0.89316 0.872896 1.04942 1.01411 1.09508 1.05127 1.08791 1.11434 1.10211 1.17942 1.19301 1.19301 1.18158 1.18806 1.17446 1.18536 1.17845 1.15784 1.18234 1.18971 1.17214 1.19178 1.17297 1.16174 1.19178 1.09054 1.18386 1.01424 0.835917 0.925631 0.94608 1.01821 0.980647 0.87613 0.888363 0.984206 0.938943 1.07039 1.09068 0.951213 1.00642 1.04214 0.77884 1.03374 0.96699 0.860035 0.929861 0.960333 1.04814 0.862119 0.957964 0.990537 0.892022 0.797429 0.791595 0.872707 0.891565 1.04359 1.0176 1.00516 1.08491 0.88591 0.911252 0.859129 0.922396 1.04827 0.783377 0.96041 0.93554 0.95768 0.976077 0.871879 1.05273 1.00988 1.0014 1.0631 1.06563 1.07661 0.946441 1.01133 1.00673 1.03241 1.12312 0.965578 0.974031 0.965908 0.979746 0.983967 1.0199 1.0421 1.10319 0.80718 0.947388 0.945064 0.945263 0.938511 1.16149 1.04394 0.937121 0.916767 0.955698 0.914416 0.91724 1.06063 1.07624 1.2082 1.13344 1.12549 1.13768 1.12296 1.19071 1.17195 1.17771 1.20615 1.19322 1.18396 1.18992 1.17655 1.19778 1.17326 1.18163 1.1873 1.19178 1.18679 1.19208 1.17767 1.16253 1.19178 1.10854 1.18257 1.02125 1.00169 0.959077 0.915633 0.958525 1.22189 0.94609 0.963669 1.07984 1.06332 1.00047 1.07156 1.05035 1.06293 1.14625 0.842327 1.04537 0.990184 1.01096 1.02893 1.07217 1.10279 0.927901 0.89655 0.980058 0.996914 0.94749 0.79627 0.862999 0.938008 0.952358 0.959086 1.06148 1.03714 1.02987 1.09609 0.895368 0.933291 0.911909 0.966007 1.06151 0.798463 0.993794 0.973938 0.966108 0.887903 1.09974 1.01592 1.05789 0.985563 0.999919 1.03303 1.02469 1.06587 1.07617 1.10766 1.02064 1.09792 1.12034 1.07272 0.997035 1.04716 1.02344 1.00695 1.03646 1.06842 1.12057 0.919865 0.984458 1.09231 0.985892 1.12394 1.16995 0.925875 0.976565 1.02299 0.949978 1.0654 1.09645 1.15269 1.09973 1.17487 1.1392 1.18916 1.18023 1.17638 1.19195 1.19171 1.18787 1.19218 1.18976 1.19178 1.17869 1.19801 1.18923 1.18977 1.19303 1.17776 1.18506 1.14865 1.11965 1.16147 1.17268 1.03066 1.00869 1.02871 0.940295 1.00246 1.16448 1.00546 0.988778 1.0507 1.05875 1.03214 1.06974 1.05935 1.11421 1.20371 1.14383 0.994724 1.0062 1.0638 1.13937 1.09323 0.958293 1.04168 1.0348 1.01472 1.01504 0.992924 0.972611 1.08142 1.056 1.05535 1.12167 0.937917 1.0418 1.05049 0.99512 1.06383 0.827893 1.00028 0.979228 0.966552 1.07926 0.986311 1.08808 0.992835 1.03574 1.06587 1.07207 1.10088 1.0792 1.0566 1.00373 1.10923 1.00706 1.02724 1.08885 1.05034 1.03026 1.04838 1.03792 1.05307 1.0845 1.0344 1.07454 1.08407 0.990634 1.13388 1.0989 0.953693 1.01424 1.06367 1.00792 1.11845 1.09349 1.14163 1.11623 1.10494 1.14477 1.19056 1.18563 1.19031 1.19127 1.19178 1.18847 1.19181 1.19036 1.19261 1.18083 1.19178 1.18931 1.18993 1.1922 1.17958 1.18425 1.19318 1.1763 1.18472 1.1797 1.04024 1.00778 1.04465 0.976059 1.04272 1.11388 1.05451 1.02843 1.05907 1.05801 1.07012 1.06501 1.06935 1.09584 1.11618 1.13803 1.03834 1.06361 1.04601 1.12078 1.04357 1.16324 1.01864 1.04742 1.10122 1.12263 1.06481 1.09914 1.00976 0.965394 1.07185 1.07893 1.07639 1.16052 0.996518 1.0602 1.05134 1.03519 1.10019 0.84528 1.00966 1.15851 1.0502 1.07926 1.19835 1.10594 1.08672 1.12925 1.09019 1.08652 1.10232 1.10803 1.08772 1.15716 1.19053 1.01127 1.07298 1.03947 1.12413 1.07101 1.1123 1.08922 1.07232 1.14372 1.14175 1.0783 1.07884 1.09187 1.11415 1.14866 1.00957 1.05095 1.01556 1.10573 1.07313 1.13277 1.08364 1.1203 1.12922 1.10435 1.14437 1.19178 1.18897 1.19159 1.19178 1.19178 1.18937 1.19178 1.19073 1.19207 1.18132 1.19187 1.18932 1.18968 1.19105 1.17932 1.18367 1.18772 1.19043 1.18277 1.1831 1.05286 1.01131 1.05926 1.05203 1.0421 1.11839 1.07047 1.13595 1.10735 1.08014 1.06577 1.06716 1.09713 1.15289 1.15169 1.0712 1.09244 1.19178 1.13561 1.07573 1.14685 1.04886 1.05464 1.11598 1.12958 1.17711 1.17208 1.05625 1.19031 1.08681 1.09596 1.08269 1.15005 1.04902 1.18738 1.11793 1.05854 1.1476 0.849101 1.19178 1.16562 1.09731 1.08804 1.18777 1.11393 1.0969 1.1285 1.09378 1.09747 1.11231 1.12184 1.11256 1.16497 1.18601 1.03876 1.10484 1.06477 1.15038 1.15413 1.12136 1.14326 1.14677 1.10863 1.08924 1.08263 1.12491 1.15178 1.17924 1.07385 1.02535 1.16648 1.14679 1.12836 1.15836 1.128 1.11483 1.10962 1.14411 1.19178 1.18985 1.19173 1.19178 1.19187 1.18994 1.19072 1.19085 1.19185 1.18145 1.19178 1.19155 1.19344 1.18626 1.18702 1.18605 1.18836 1.19119 1.18251 1.18686 1.19606 1.07635 1.07418 1.15691 1.05789 1.13326 1.10965 1.1452 1.12241 1.11581 1.08945 1.07193 1.11372 1.1202 1.07282 1.1165 1.19528 1.13114 1.08628 1.13975 1.06429 1.05637 1.1251 1.1288 1.15535 1.18645 1.07325 1.17116 1.11404 1.19324 1.09343 1.15663 1.16342 1.11681 1.16178 1.17037 1.16268 1.15612 1.16643 1.14972 1.10284 1.09092 1.18978 1.18464 1.10408 1.12905 1.14031 1.10205 1.11814 1.17819 1.13373 1.16837 1.18515 1.10279 1.11477 1.07473 1.15463 1.14861 1.1239 1.14591 1.17467 1.15391 1.15077 1.15941 1.08073 1.08686 1.13951 1.16077 1.13032 1.10069 1.05163 1.19402 1.16467 1.12669 1.15874 1.13211 1.19834 1.12161 1.12158 1.19178 1.19013 1.19175 1.19178 1.19179 1.18981 1.19097 1.19083 1.19172 1.18182 1.19178 1.19178 1.19178 1.18591 1.18859 1.18574 1.18853 1.19132 1.18933 1.19174 1.19498 1.07771 1.15683 1.06642 1.1365 1.12164 1.14189 1.1204 1.12493 1.12477 1.06941 1.09046 1.12267 1.10807 1.1143 1.10542 1.115 1.1266 1.16644 1.09309 1.12445 1.19437 1.15319 1.13835 1.09259 1.06866 1.12929 1.12901 1.15533 1.10772 1.18742 1.17433 1.11702 1.19308 1.09848 1.17463 1.17335 1.16415 1.19181 1.17076 1.19178 1.16081 1.13704 
SCALARS Stress float 1
LOOKUP_TABLE default
-17631900000.0 -14256600000.0 -14205400000.0 -13993900000.0 -13039000000.0 -13385500000.0 -20686000000.0 -25802600000.0 -21333000000.0 -15748600000.0 -18383100000.0 -12724600000.0 -13644900000.0 -14202700000.0 -14253300000.0 -27151500000.0 -13321000000.0 -27036000000.0 -20231500000.0 -12549700000.0 -49906700000.0 -16179000000.0 -15955600000.0 -13006100000.0 -12549700000.0 -12549700000.0 -13545900000.0 -12549700000.0 -12549700000.0 -13839000000.0 -12549700000.0 -12549700000.0 -13113400000.0 -12549700000.0 -12743200000.0 -13172500000.0 -15347100000.0 -16686100000.0 -14980300000.0 -14198800000.0 -13638500000.0 -13137900000.0 -12685900000.0 -12549700000.0 -12549700000.0 -12549700000.0 -12981200000.0 -13701600000.0 -14178100000.0 -19736000000.0 -13198600000.0 -12549700000.0 -13419300000.0 -13731700000.0 -12685100000.0 -15140400000.0 -12645900000.0 -12756500000.0 -14185900000.0 -19355500000.0 -18942900000.0 -16479800000.0 -17552100000.0 -13334900000.0 -13922500000.0 -12888800000.0 -15613600000.0 -13779900000.0 -12985100000.0 -12951300000.0 -13727500000.0 -16492400000.0 -13186200000.0 -13012500000.0 -13112700000.0 -14795300000.0 -13584300000.0 -13795300000.0 -13878700000.0 -14056400000.0 -16933100000.0 -17319400000.0 -21159300000.0 -23323600000.0 -36177200000.0 -23032300000.0 -26272000000.0 -36549000000.0 -26823800000.0 -26750500000.0 -14821000000.0 -13721500000.0 -26399900000.0 -12566500000.0 -18188000000.0 -36095700000.0 -13126600000.0 -23306600000.0 -12549700000.0 -14609300000.0 -20457000000.0 -13439300000.0 -13838800000.0 -15987200000.0 -17144100000.0 -30964100000.0 -29730400000.0 -29673700000.0 -21514200000.0 -18774400000.0 -24415100000.0 -35190900000.0 -58338500000.0 -50206300000.0 -39502100000.0 -42780500000.0 -17833100000.0 -15751600000.0 -14440700000.0 -12549700000.0 -16083800000.0 -12740600000.0 -12572700000.0 -17257800000.0 -12549700000.0 -12552700000.0 -15562100000.0 -12549700000.0 -14564600000.0 -12549700000.0 -22925300000.0 -12549700000.0 -12549700000.0 -12549700000.0 -13500400000.0 -12716000000.0 -12549700000.0 -12668700000.0 -13316900000.0 -14639300000.0 -16569400000.0 -16700900000.0 -21348800000.0 -21782900000.0 -18413400000.0 -21534300000.0 -23773300000.0 -19385500000.0 -15165800000.0 -16538700000.0 -18490000000.0 -19097700000.0 -17796900000.0 -28827600000.0 -14117500000.0 -16837000000.0 -27676900000.0 -13221600000.0 -18583300000.0 -18846100000.0 -18789600000.0 -16467900000.0 -16328400000.0 -13438500000.0 -18866400000.0 -13926500000.0 -16517300000.0 -14394800000.0 -12903600000.0 -12549700000.0 -15000000000.0 -14328200000.0 -23107200000.0 -13766200000.0 -12549700000.0 -12560800000.0 -16012600000.0 -24502200000.0 -12549700000.0 -12549700000.0 -13524500000.0 -27650200000.0 -15529800000.0 -13552100000.0 -12943500000.0 -29825100000.0 -21517300000.0 -23547800000.0 -27848900000.0 -45917100000.0 -38507700000.0 -14080700000.0 -28789300000.0 -19876400000.0 -15088200000.0 -13099300000.0 -55104000000.0 -27097100000.0 -76219800000.0 -24399300000.0 -16154300000.0 -76896100000.0 -12549700000.0 -29553800000.0 -24349800000.0 -65880100000.0 -32564500000.0 -32866300000.0 -33304400000.0 -49542200000.0 -51403700000.0 -45993900000.0 -46851400000.0 -12549700000.0 -62424700000.0 -49687400000.0 -67514200000.0 -62315600000.0 -34131600000.0 -38588700000.0 -13209100000.0 -49396100000.0 -23386400000.0 -28366800000.0 -27996500000.0 -24696700000.0 -26740500000.0 -20116900000.0 -14535500000.0 -23011400000.0 -12605000000.0 -12941900000.0 -19007100000.0 -12549700000.0 -18624000000.0 -12549700000.0 -25987600000.0 -12549700000.0 -13240700000.0 -12745900000.0 -16875900000.0 -18835400000.0 -16352000000.0 -14420500000.0 -14943400000.0 -16252600000.0 -17928200000.0 -27359400000.0 -24949300000.0 -37598900000.0 -35330200000.0 -26338200000.0 -30906300000.0 -21022300000.0 -27870000000.0 -12674900000.0 -13329700000.0 -12549700000.0 -18130300000.0 -37654200000.0 -33109400000.0 -14556300000.0 -16026300000.0 -17011600000.0 -13027900000.0 -31454800000.0 -23463500000.0 -16403000000.0 -31419600000.0 -15311800000.0 -18441200000.0 -24527100000.0 -37449800000.0 -27588800000.0 -25864900000.0 -12719600000.0 -12575500000.0 -27822700000.0 -21620500000.0 -19812800000.0 -42559600000.0 -28529100000.0 -28894700000.0 -28125600000.0 -23339800000.0 -30290200000.0 -28993300000.0 -28302400000.0 -31767200000.0 -28538100000.0 -32839400000.0 -39298900000.0 -54357900000.0 -70948100000.0 -123272000000.0 -161251000000.0 -17031700000.0 -18176200000.0 -17915200000.0 -109227000000.0 -79561300000.0 -57332600000.0 -78407400000.0 -43073400000.0 -31131800000.0 -38824700000.0 -35108700000.0 -65674800000.0 -79089500000.0 -13287800000.0 -15180500000.0 -12549700000.0 -43491000000.0 -96422300000.0 -13966100000.0 -44642100000.0 -51761500000.0 -50783800000.0 -46304500000.0 -12549700000.0 -14516700000.0 -19085000000.0 -84728300000.0 -61061800000.0 -28448900000.0 -23562500000.0 -46328500000.0 -61966300000.0 -13500000000.0 -41518500000.0 -12549700000.0 -20821100000.0 -22696700000.0 -18282200000.0 -25431800000.0 -15896600000.0 -14474800000.0 -22717600000.0 -14048800000.0 -27173600000.0 -18258200000.0 -33938900000.0 -12887500000.0 -16867600000.0 -12549700000.0 -17558100000.0 -12840800000.0 -14539600000.0 -13876000000.0 -18768600000.0 -15812000000.0 -20159500000.0 -29323300000.0 -22118700000.0 -21758600000.0 -43980500000.0 -52302500000.0 -47444600000.0 -46525300000.0 -43140600000.0 -57406100000.0 -59073000000.0 -56955500000.0 -44525400000.0 -29882900000.0 -68473700000.0 -17817900000.0 -25398300000.0 -13709100000.0 -33423800000.0 -12770300000.0 -43141100000.0 -51221700000.0 -28157000000.0 -22627200000.0 -50708600000.0 -12725700000.0 -12549700000.0 -15715800000.0 -15744700000.0 -23736800000.0 -25869000000.0 -26635100000.0 -31652800000.0 -63781400000.0 -64021200000.0 -41594300000.0 -71426400000.0 -39126000000.0 -86434300000.0 -140512000000.0 -124087000000.0 -154539000000.0 -16665300000.0 -17113100000.0 -136446000000.0 -79624100000.0 -115124000000.0 -61534300000.0 -64600700000.0 -59960700000.0 -140080000000.0 -33789400000.0 -198153000000.0 -49915800000.0 -173491000000.0 -41590300000.0 -42581600000.0 -66499100000.0 -91013100000.0 -52000500000.0 -13457400000.0 -13478900000.0 -30685300000.0 -12907300000.0 -68886100000.0 -93616900000.0 -80741000000.0 -67667000000.0 -27922700000.0 -17919000000.0 -57629200000.0 -61746300000.0 -48148200000.0 -22466900000.0 -22265900000.0 -25954100000.0 -18588500000.0 -27144700000.0 -34027600000.0 -20041700000.0 -15565600000.0 -23931300000.0 -12549700000.0 -28468200000.0 -14156700000.0 -38386600000.0 -25822400000.0 -40472500000.0 -30553200000.0 -29624300000.0 -26708900000.0 -26495400000.0 -20315700000.0 -26456100000.0 -34218900000.0 -34611100000.0 -18168500000.0 -54662900000.0 -99900600000.0 -70000800000.0 -27201300000.0 -43563400000.0 -29163800000.0 -29631500000.0 -13197100000.0 -39934100000.0 -35804800000.0 -46657100000.0 -59375100000.0 -109211000000.0 -99800700000.0 -23502000000.0 -48905600000.0 -16527900000.0 -45762100000.0 -69792000000.0 -17040400000.0 -52027000000.0 -18867100000.0 -30808300000.0 -38706900000.0 -34124800000.0 -18491400000.0 -63916400000.0 -12549700000.0 -42290500000.0 -12933000000.0 -17114200000.0 -26034200000.0 -41939800000.0 -20304300000.0 -18693000000.0 -47224800000.0 -42190600000.0 -14844400000.0 -14888900000.0 -38336200000.0 -51060400000.0 -68888700000.0 -69221700000.0 -92620700000.0 -14801000000.0 -16056200000.0 -66363400000.0 -56072900000.0 -56591000000.0 -73247400000.0 -90283800000.0 -13180100000.0 -12617500000.0 -26400900000.0 -13981300000.0 -83817100000.0 -59776300000.0 -192115000000.0 -114881000000.0 -95496300000.0 -89650200000.0 -74962900000.0 -55457300000.0 -47938300000.0 -84969100000.0 -93886800000.0 -80180900000.0 -67393600000.0 -12549700000.0 -192842000000.0 -120656000000.0 -134522000000.0 -166695000000.0 -49354200000.0 -81241900000.0 -63142600000.0 -36367800000.0 -27756300000.0 -40325300000.0 -16831600000.0 -15929200000.0 -20660000000.0 -67443200000.0 -30885200000.0 -41457500000.0 -29450700000.0 -25054200000.0 -41720300000.0 -61329400000.0 -48106500000.0 -56172200000.0 -65367200000.0 -38054100000.0 -36019500000.0 -36889000000.0 -36184300000.0 -15905500000.0 -23221700000.0 -25913200000.0 -51820200000.0 -15014900000.0 -122415000000.0 -23640300000.0 -16866400000.0 -25960100000.0 -23200400000.0 -20956200000.0 -27905200000.0 -13087000000.0 -25605200000.0 -20332300000.0 -37990500000.0 -41861800000.0 -110874000000.0 -106875000000.0 -112966000000.0 -14953200000.0 -158826000000.0 -52476600000.0 -80405200000.0 -45800500000.0 -69012300000.0 -74690500000.0 -64934000000.0 -27821100000.0 -41381100000.0 -60455000000.0 -65753000000.0 -100038000000.0 -74157900000.0 -77967600000.0 -61783300000.0 -41208300000.0 -40677200000.0 -36394100000.0 -109736000000.0 -107630000000.0 -89651300000.0 -64129900000.0 -64310800000.0 -134638000000.0 -36278500000.0 -52361300000.0 -26096200000.0 -76077800000.0 -142682000000.0 -69402600000.0 -96186600000.0 -37507200000.0 -96880200000.0 -136948000000.0 -129295000000.0 -75905800000.0 -49765100000.0 -28916300000.0 -12549700000.0 -13341800000.0 -90963900000.0 -79597100000.0 -98214800000.0 -91522500000.0 -82342600000.0 -85479400000.0 -104755000000.0 -242709000000.0 -88957400000.0 -103781000000.0 -141427000000.0 -93766800000.0 -18552100000.0 -114248000000.0 -15352200000.0 -35165400000.0 -16497200000.0 -13974400000.0 -90624900000.0 -52094700000.0 -18994100000.0 -32340400000.0 -28864500000.0 -38287600000.0 -34632900000.0 -20817900000.0 -54013600000.0 -54579000000.0 -24755900000.0 -54034400000.0 -12838100000.0 -14032800000.0 -77075900000.0 -61607800000.0 -78114900000.0 -84843200000.0 -90122600000.0 -111618000000.0 -112219000000.0 -61840600000.0 -65324000000.0 -92600800000.0 -36526000000.0 -34178600000.0 -30972400000.0 -28416000000.0 -25951400000.0 -19871800000.0 -21538900000.0 -17430700000.0 -43300800000.0 -45098900000.0 -24491800000.0 -32799700000.0 -57472200000.0 -16896000000.0 -57241300000.0 -59636500000.0 -47009700000.0 -116343000000.0 -69194900000.0 -105052000000.0 -87673400000.0 -33751200000.0 -28424400000.0 -27608900000.0 -35338300000.0 -38057800000.0 -12549700000.0 -13705700000.0 -22620300000.0 -69357400000.0 -40749600000.0 -32791900000.0 -106295000000.0 -111746000000.0 -121067000000.0 -13492100000.0 -70961600000.0 -73353400000.0 -61419100000.0 -119091000000.0 -99242500000.0 -125380000000.0 -111949000000.0 -95285200000.0 -60256900000.0 -39200400000.0 -44516700000.0 -60793900000.0 -71602600000.0 -58865000000.0 -71703300000.0 -94897400000.0 -106004000000.0 -87940600000.0 -85488200000.0 -57560100000.0 -80670300000.0 -14103800000.0 -60685500000.0 -16794600000.0 -17053500000.0 -13124100000.0 -62921300000.0 -12549700000.0 -180201000000.0 -57955200000.0 -105508000000.0 -79012800000.0 -28465100000.0 -43550900000.0 -44484200000.0 -76333000000.0 -69530500000.0 -108020000000.0 -130028000000.0 -87576300000.0 -73183900000.0 -76921900000.0 -78177200000.0 -87574400000.0 -70207500000.0 -33403800000.0 -18094700000.0 -65483000000.0 -63315700000.0 -69811900000.0 -34983600000.0 -13142900000.0 -29554200000.0 -16781500000.0 -29260900000.0 -18743200000.0 -91729800000.0 -116871000000.0 -108486000000.0 -24073300000.0 -37009900000.0 -34368400000.0 -39831100000.0 -37692200000.0 -15359600000.0 -20732500000.0 -36203200000.0 -13791400000.0 -22375000000.0 -19958100000.0 -22599000000.0 -33270400000.0 -23089800000.0 -37245000000.0 -84288300000.0 -122959000000.0 -67329400000.0 -110432000000.0 -114412000000.0 -18800600000.0 -24384600000.0 -15733500000.0 -22991100000.0 -15987500000.0 -12549700000.0 -26545400000.0 -17714300000.0 -104428000000.0 -86207800000.0 -43540500000.0 -54565100000.0 -53157900000.0 -12549700000.0 -52893800000.0 -46038600000.0 -46706900000.0 -64801300000.0 -53330900000.0 -66765700000.0 -62039100000.0 -47449800000.0 -91841700000.0 -60244900000.0 -51144400000.0 -34284200000.0 -13098600000.0 -62047900000.0 -61498300000.0 -74386100000.0 -96883700000.0 -186939000000.0 -243948000000.0 -113879000000.0 -94356700000.0 -93117900000.0 -48377800000.0 -66107300000.0 -39461600000.0 -56398500000.0 -13892500000.0 -22258000000.0 -38695100000.0 -12881900000.0 -76325900000.0 -70066100000.0 -65136300000.0 -121759000000.0 -128421000000.0 -53514400000.0 -37932800000.0 -58819000000.0 -32729500000.0 -72374900000.0 -29035200000.0 -72508500000.0 -30383600000.0 -27773900000.0 -56449200000.0 -38224400000.0 -46082800000.0 -13196100000.0 -13759900000.0 -61427900000.0 -69481600000.0 -39540400000.0 -63965900000.0 -37327400000.0 -37736200000.0 -76344000000.0 -47650100000.0 -25610600000.0 -49673500000.0 -66238900000.0 -57944300000.0 -50231600000.0 -49611500000.0 -79126900000.0 -89013900000.0 -55986600000.0 -72446300000.0 -96816700000.0 -44162200000.0 -42416000000.0 -53009900000.0 -72114400000.0 -67413500000.0 -67675900000.0 -57917100000.0 -49694000000.0 -56498300000.0 -68137700000.0 -81444200000.0 -49219200000.0 -74351300000.0 -128604000000.0 -12627500000.0 -88495800000.0 -41663400000.0 -83055100000.0 -17917600000.0 -100003000000.0 -45904900000.0 -87238700000.0 -13104300000.0 -122182000000.0 -86568800000.0 -71986700000.0 -70607300000.0 -73183400000.0 -46514800000.0 -48259600000.0 -23873200000.0 -35115100000.0 -40068400000.0 -28153000000.0 -12549700000.0 -43654200000.0 -43527700000.0 -46005500000.0 -51854600000.0 -71125200000.0 -28997700000.0 -12549700000.0 -73722900000.0 -79309600000.0 -42412900000.0 -35228000000.0 -84677600000.0 -37714000000.0 -95564000000.0 -215478000000.0 -172874000000.0 -18387100000.0 -166021000000.0 -196413000000.0 -188180000000.0 -107390000000.0 -13763300000.0 -27910400000.0 -29835100000.0 -60690300000.0 -59410400000.0 -66394600000.0 -52791300000.0 -93776600000.0 -19081400000.0 -51215700000.0 -43488900000.0 -55236100000.0 -62335600000.0 -12549700000.0 -104281000000.0 -37102500000.0 -69527400000.0 -13642200000.0 -47997500000.0 -43700900000.0 -94192700000.0 -56166900000.0 -74432400000.0 -14197100000.0 -25696400000.0 -13131200000.0 -43459800000.0 -13185000000.0 -41197400000.0 -28291400000.0 -32425300000.0 -13571500000.0 -12549700000.0 -48814100000.0 -63895800000.0 -44894700000.0 -30127700000.0 -45000500000.0 -36356600000.0 -49144800000.0 -70051300000.0 -40396100000.0 -22912000000.0 -26118100000.0 -14729400000.0 -20437300000.0 -12647400000.0 -12970900000.0 -96363800000.0 -12700100000.0 -79684400000.0 -15349600000.0 -30720000000.0 -14718300000.0 -14527600000.0 -15397000000.0 -15547900000.0 -35813400000.0 -25460900000.0 -12549700000.0 -12549700000.0 -15845200000.0 -56812700000.0 -51715100000.0 -72362700000.0 -44423900000.0 -122973000000.0 -13260300000.0 -87931000000.0 -20461600000.0 -19413800000.0 -19339600000.0 -76924400000.0 -82826900000.0 -17383900000.0 -12893600000.0 -12549700000.0 -30479900000.0 -53610200000.0 -16473200000.0 -42206300000.0 -41810400000.0 -45561000000.0 -83577500000.0 -67288200000.0 -106127000000.0 -65169300000.0 -124067000000.0 -143911000000.0 -184138000000.0 -160465000000.0 -195577000000.0 -174801000000.0 -162510000000.0 -44540300000.0 -183180000000.0 -242426000000.0 -196096000000.0 -20843200000.0 -216860000000.0 -226860000000.0 -312329000000.0 -42527600000.0 -186773000000.0 -302478000000.0 -63805100000.0 -205922000000.0 -46420100000.0 -90190600000.0 -26753000000.0 -51681000000.0 -64873500000.0 -35980100000.0 -71578600000.0 -50293300000.0 -30482300000.0 -16354500000.0 -43861300000.0 -27985500000.0 -65659500000.0 -21698500000.0 -66243600000.0 -26701600000.0 -137733000000.0 -88839900000.0 -12974000000.0 -92580400000.0 -55244500000.0 -37874600000.0 -79055400000.0 -12549700000.0 -53799500000.0 -79155000000.0 -55172600000.0 -33408600000.0 -26241400000.0 -15896500000.0 -56888800000.0 -23384100000.0 -41837800000.0 -91618700000.0 -75261900000.0 -15796700000.0 -52266700000.0 -39558300000.0 -48421400000.0 -71877300000.0 -43809300000.0 -37889900000.0 -25159300000.0 -32460400000.0 -45526000000.0 -13297100000.0 -30745700000.0 -17806800000.0 -29633600000.0 -14338600000.0 -119983000000.0 -13746400000.0 -62250400000.0 -49976800000.0 -79745800000.0 -56088900000.0 -33024000000.0 -29900300000.0 -31570000000.0 -36595700000.0 -43706100000.0 -36782300000.0 -37316800000.0 -44479600000.0 -24651300000.0 -59215000000.0 -35633800000.0 -62877500000.0 -39662500000.0 -144753000000.0 -113403000000.0 -107940000000.0 -76293200000.0 -85123800000.0 -111771000000.0 -62257400000.0 -100896000000.0 -32132000000.0 -24778400000.0 -29000500000.0 -70085500000.0 -35061200000.0 -86350500000.0 -91374700000.0 -118460000000.0 -39310800000.0 -107348000000.0 -28210700000.0 -46769000000.0 -13282000000.0 -46305100000.0 -72716200000.0 -85630900000.0 -50360900000.0 -37518600000.0 -67182000000.0 -105091000000.0 -165248000000.0 -42368000000.0 -86271500000.0 -21542800000.0 -85843400000.0 -34062200000.0 -190398000000.0 -138058000000.0 -12886200000.0 -170671000000.0 -12899000000.0 -60277100000.0 -72307900000.0 -67869700000.0 -81844400000.0 -38116400000.0 -25029100000.0 -21232600000.0 -13549100000.0 -75951100000.0 -48908100000.0 -20259500000.0 -58058500000.0 -54285400000.0 -41226900000.0 -63937300000.0 -40041700000.0 -58305900000.0 -109351000000.0 -60749900000.0 -13099600000.0 -129713000000.0 -112349000000.0 -62160300000.0 -49721400000.0 -104466000000.0 -79467500000.0 -80698100000.0 -85912800000.0 -57442300000.0 -58297200000.0 -130692000000.0 -71181900000.0 -57519800000.0 -63729800000.0 -71688400000.0 -109193000000.0 -76796900000.0 -56716600000.0 -91419500000.0 -12549700000.0 -83940000000.0 -92320300000.0 -125029000000.0 -16931200000.0 -33857200000.0 -31136200000.0 -61452500000.0 -34370900000.0 -54233300000.0 -48956400000.0 -38676200000.0 -27752400000.0 -14977700000.0 -36886300000.0 -12549700000.0 -14061600000.0 -53030900000.0 -60395500000.0 -33399100000.0 -106770000000.0 -12549700000.0 -12549700000.0 -22336300000.0 -144958000000.0 -121083000000.0 -49562000000.0 -27216300000.0 -48296800000.0 -81839000000.0 -80810500000.0 -82654000000.0 -67304500000.0 -31979400000.0 -70131200000.0 -81330000000.0 -20169500000.0 -12778600000.0 -13822700000.0 -14699500000.0 -122131000000.0 -91467800000.0 -42867600000.0 -138644000000.0 -126491000000.0 -137830000000.0 -111513000000.0 -100373000000.0 -123519000000.0 -43631300000.0 -52923800000.0 -82788200000.0 -60495900000.0 -94584400000.0 -28132300000.0 -23429400000.0 -83228000000.0 -78451100000.0 -151998000000.0 -158257000000.0 -93768400000.0 -17154300000.0 -55710400000.0 -64898400000.0 -41802900000.0 -16372600000.0 -38850700000.0 -30693900000.0 -16538200000.0 -41543000000.0 -56876000000.0 -100046000000.0 -151366000000.0 -142860000000.0 -22560700000.0 -168033000000.0 -213617000000.0 -70267200000.0 -108100000000.0 -38705800000.0 -34340500000.0 -28436900000.0 -48911100000.0 -30653500000.0 -60758200000.0 -20961400000.0 -23119800000.0 -30089400000.0 -92497100000.0 -87761600000.0 -74933000000.0 -78451300000.0 -47612800000.0 -179167000000.0 -89275100000.0 -142564000000.0 -124203000000.0 -49871700000.0 -117754000000.0 -115369000000.0 -137120000000.0 -94444300000.0 -68603400000.0 -38036300000.0 -119760000000.0 -89393500000.0 -79030900000.0 -71537900000.0 -71909900000.0 -60194000000.0 -18983900000.0 -90067900000.0 -58111900000.0 -28026300000.0 -15311600000.0 -35628300000.0 -39043400000.0 -47284100000.0 -56385100000.0 -55973300000.0 -108696000000.0 -18448900000.0 -15707700000.0 -41559600000.0 -37099900000.0 -63732800000.0 -12549700000.0 -85629500000.0 -48123000000.0 -120141000000.0 -172000000000.0 -107834000000.0 -158797000000.0 -68067600000.0 -36959100000.0 -55372200000.0 -66956900000.0 -28723900000.0 -95920600000.0 -101876000000.0 -15260700000.0 -28608400000.0 -27372700000.0 -19159700000.0 -35242700000.0 -40727200000.0 -57619100000.0 -92111600000.0 -63615500000.0 -96914200000.0 -195799000000.0 -100789000000.0 -35906500000.0 -74542800000.0 -38189000000.0 -48260900000.0 -73362800000.0 -17617200000.0 -58703500000.0 -53902000000.0 -87308900000.0 -58475800000.0 -103190000000.0 -184108000000.0 -129847000000.0 -24779200000.0 -68520300000.0 -103767000000.0 -39002100000.0 -13887500000.0 -21202100000.0 -27329100000.0 -77810900000.0 -91410700000.0 -97729100000.0 -43257100000.0 -30801700000.0 -28708100000.0 -12549700000.0 -146722000000.0 -182258000000.0 -42354000000.0 -94704400000.0 -38301000000.0 -15575500000.0 -41000700000.0 -26727100000.0 -54942000000.0 -13878600000.0 -74225100000.0 -42796200000.0 -50610400000.0 -18907400000.0 -22264800000.0 -55625700000.0 -57440000000.0 -15565600000.0 -27674500000.0 -16291100000.0 -38142900000.0 -12549700000.0 -86296100000.0 -122963000000.0 -49603400000.0 -53228300000.0 -46933800000.0 -107319000000.0 -62246700000.0 -61079600000.0 -69338600000.0 -38602500000.0 -44256800000.0 -13507800000.0 -26277600000.0 -15896800000.0 -20571400000.0 -33887100000.0 -15371600000.0 -32147800000.0 -53536000000.0 -12879100000.0 -34912200000.0 -30630300000.0 -14231700000.0 -13543200000.0 -94769700000.0 -104249000000.0 -116211000000.0 -19212500000.0 -64635100000.0 -76991600000.0 -43761500000.0 -58141800000.0 -96763600000.0 -220901000000.0 -35179700000.0 -60637700000.0 -46753500000.0 -13316900000.0 -13985200000.0 -37702000000.0 -16354000000.0 -25587000000.0 -32178100000.0 -13213200000.0 -65454000000.0 -27261000000.0 -66540600000.0 -55885500000.0 -32241000000.0 -83658100000.0 -62589200000.0 -76202300000.0 -28345100000.0 -103538000000.0 -19512300000.0 -74019000000.0 -55940200000.0 -109025000000.0 -106081000000.0 -39087800000.0 -48377500000.0 -45324700000.0 -31597900000.0 -153601000000.0 -96623400000.0 -62155600000.0 -301003000000.0 -177690000000.0 -186644000000.0 -131820000000.0 -54119800000.0 -126126000000.0 -98841500000.0 -144356000000.0 -33574600000.0 -115487000000.0 -96679000000.0 -23209600000.0 -105589000000.0 -36396600000.0 -24199800000.0 -15983400000.0 -30037600000.0 -24550200000.0 -37695700000.0 -71715900000.0 -43130300000.0 -36306900000.0 -13588600000.0 -26432800000.0 -78892500000.0 -13937600000.0 -20217500000.0 -17663700000.0 -40635700000.0 -52527900000.0 -48187600000.0 -126491000000.0 -27307300000.0 -17556500000.0 -15968700000.0 -16331000000.0 -14980700000.0 -22444600000.0 -18391400000.0 -12929000000.0 -50323400000.0 -122448000000.0 -143265000000.0 -64912700000.0 -13740700000.0 -50014700000.0 -63040700000.0 -26584900000.0 -40402200000.0 -25794800000.0 -18060600000.0 -76376400000.0 -31686900000.0 -50856000000.0 -105269000000.0 -102220000000.0 -26703300000.0 -42635800000.0 -92928000000.0 -13527600000.0 -131284000000.0 -87734400000.0 -119169000000.0 -43183500000.0 -83484500000.0 -157653000000.0 -111799000000.0 -30857000000.0 -18206100000.0 -70896300000.0 -26943700000.0 -34556500000.0 -28970400000.0 -32143500000.0 -72255500000.0 -117289000000.0 -77721900000.0 -46577000000.0 -77927400000.0 -13768500000.0 -15814800000.0 -12549700000.0 -21251000000.0 -36927300000.0 -88283200000.0 -31073400000.0 -37373600000.0 -60768100000.0 -13148300000.0 -87909300000.0 -52902100000.0 -15846600000.0 -92521000000.0 -46010600000.0 -83314100000.0 -51570500000.0 -90115500000.0 -98092000000.0 -104553000000.0 -65270200000.0 -90278800000.0 -82517500000.0 -125257000000.0 -92257400000.0 -74831800000.0 -60868300000.0 -58475200000.0 -99946100000.0 -95042400000.0 -12549700000.0 -139661000000.0 -76769000000.0 -14161400000.0 -26701600000.0 -96392900000.0 -29324200000.0 -20320500000.0 -20373000000.0 -16951800000.0 -15292200000.0 -21732000000.0 -129727000000.0 -83743700000.0 -18056200000.0 -18045300000.0 -74227100000.0 -70155900000.0 -52281200000.0 -62830600000.0 -19129700000.0 -67547500000.0 -36228000000.0 -70907900000.0 -82691500000.0 -77802600000.0 -57319200000.0 -40755100000.0 -122532000000.0 -12866700000.0 -48485200000.0 -17775900000.0 -12936200000.0 -80191900000.0 -81429000000.0 -20998200000.0 -87087400000.0 -12555900000.0 -80684300000.0 -56288700000.0 -36294000000.0 -37138600000.0 -70708800000.0 -43209200000.0 -18779200000.0 -61279600000.0 -54700500000.0 -57376000000.0 -30508000000.0 -33563000000.0 -38216100000.0 -19594300000.0 -17914000000.0 -41471700000.0 -26177500000.0 -12549700000.0 -75090000000.0 -14886400000.0 -47073800000.0 -66126100000.0 -49384500000.0 -69148800000.0 -47150400000.0 -63999700000.0 -32833600000.0 -83102000000.0 -177204000000.0 -72466100000.0 -87255400000.0 -225479000000.0 -84723800000.0 -53180700000.0 -63940700000.0 -106106000000.0 -68035700000.0 -145349000000.0 -107578000000.0 -105036000000.0 -12549700000.0 -14814800000.0 -48569800000.0 -68574400000.0 -13511900000.0 -56816300000.0 -50211000000.0 -80476100000.0 -29786300000.0 -31835600000.0 -67624400000.0 -52161900000.0 -75063800000.0 -60420300000.0 -34069900000.0 -27047000000.0 -41283300000.0 -13496700000.0 -29901700000.0 -15048300000.0 -79913400000.0 -15138700000.0 -19913000000.0 -72916500000.0 -37589100000.0 -46451400000.0 -12549700000.0 -45184600000.0 -50243300000.0 -30098300000.0 -98738800000.0 -84810800000.0 -22592100000.0 -15339000000.0 -13793100000.0 -13232300000.0 -16248900000.0 -13582200000.0 -14219500000.0 -18838800000.0 -56469700000.0 -70554300000.0 -67055200000.0 -73861400000.0 -41862100000.0 -26707900000.0 -42360200000.0 -15604400000.0 -20380500000.0 -35809900000.0 -19714300000.0 -57371300000.0 -29364600000.0 -46652900000.0 -31791500000.0 -20044600000.0 -84438800000.0 -61548500000.0 -80876400000.0 -110115000000.0 -86782800000.0 -14470000000.0 -28912300000.0 -36898800000.0 -36005500000.0 -68465200000.0 -49570000000.0 -12549700000.0 -56365100000.0 -28563000000.0 -30652000000.0 -21308700000.0 -20822600000.0 -15605300000.0 -71781300000.0 -67466800000.0 -54386500000.0 -103870000000.0 -59630700000.0 -42162300000.0 -37522600000.0 -90021100000.0 -93590100000.0 -105805000000.0 -80416000000.0 -82997800000.0 -234244000000.0 -203535000000.0 -214931000000.0 -78575000000.0 -223247000000.0 -298266000000.0 -19870900000.0 -147220000000.0 -113419000000.0 -57996000000.0 -129064000000.0 -13431800000.0 -121177000000.0 -13720700000.0 -94806800000.0 -89760900000.0 -12549700000.0 -46202400000.0 -60299600000.0 -57727300000.0 -97180200000.0 -23388500000.0 -91145300000.0 -23588700000.0 -12549700000.0 -14669100000.0 -12953300000.0 -13930300000.0 -37884300000.0 -16269900000.0 -65774000000.0 -60909100000.0 -34906000000.0 -78820000000.0 -16566400000.0 -12549700000.0 -124858000000.0 -48790900000.0 -40025600000.0 -12549700000.0 -43283500000.0 -17467400000.0 -80595100000.0 -71739000000.0 -63787300000.0 -51551000000.0 -68416200000.0 -69481200000.0 -14662400000.0 -100173000000.0 -18238600000.0 -13483400000.0 -15432900000.0 -12641300000.0 -15525000000.0 -14787200000.0 -14663200000.0 -18378700000.0 -13372400000.0 -35160100000.0 -15113200000.0 -66627500000.0 -63407800000.0 -41740300000.0 -39337500000.0 -18897800000.0 -16055700000.0 -20823900000.0 -29135900000.0 -28823600000.0 -28406000000.0 -57216200000.0 -14308400000.0 -46297300000.0 -55878300000.0 -23632300000.0 -14549000000.0 -13191600000.0 -12549700000.0 -14631800000.0 -12549700000.0 -12549700000.0 -13958700000.0 -79413100000.0 -59023900000.0 -16210100000.0 -14053000000.0 -95057300000.0 -60621000000.0 -102254000000.0 -54270400000.0 -32125700000.0 -18133900000.0 -47129900000.0 -13214400000.0 -12549700000.0 -63055200000.0 -14144400000.0 -69619000000.0 -58937100000.0 -15310500000.0 -14865200000.0 -52991700000.0 -31513600000.0 -12733400000.0 -86299200000.0 -243140000000.0 -16331700000.0 -206749000000.0 -107232000000.0 -67071500000.0 -127170000000.0 -184539000000.0 -104223000000.0 -112445000000.0 -116813000000.0 -134161000000.0 -145745000000.0 -93665300000.0 -42664300000.0 -91729400000.0 -68805800000.0 -30061900000.0 -27117200000.0 -37842800000.0 -69212200000.0 -81494100000.0 -15234600000.0 -12549700000.0 -12549700000.0 -19828700000.0 -15747600000.0 -19822000000.0 -26071400000.0 -37000500000.0 -60991900000.0 -42853500000.0 -83525500000.0 -56148200000.0 -106765000000.0 -12549600000.0 -29598400000.0 -32775000000.0 -32031400000.0 -20196300000.0 -41634200000.0 -12549700000.0 -31312400000.0 -81792400000.0 -62762200000.0 -102683000000.0 -57186700000.0 -13057500000.0 -12549700000.0 -16324700000.0 -14692500000.0 -13248900000.0 -14002700000.0 -19296700000.0 -17400700000.0 -25915100000.0 -17851500000.0 -55042400000.0 -14620100000.0 -12549700000.0 -42540700000.0 -29746800000.0 -26293700000.0 -13154100000.0 -17250900000.0 -20104900000.0 -12549700000.0 -21037700000.0 -13008200000.0 -15203800000.0 -18706400000.0 -18518300000.0 -24283800000.0 -18727600000.0 -34707900000.0 -13917700000.0 -12628700000.0 -13218900000.0 -12697500000.0 -13100500000.0 -13567600000.0 -45634600000.0 -22847200000.0 -37350100000.0 -41393700000.0 -54491400000.0 -47709200000.0 -54143600000.0 -49060400000.0 -105201000000.0 -134182000000.0 -114645000000.0 -107725000000.0 -94879200000.0 -114108000000.0 -69837500000.0 -71261800000.0 -107818000000.0 -66559500000.0 -43295400000.0 -68791700000.0 -34306200000.0 -158570000000.0 -111176000000.0 -13257500000.0 -138447000000.0 -86692100000.0 -48634000000.0 -85114600000.0 -43784400000.0 -165716000000.0 -166414000000.0 -152915000000.0 -83471000000.0 -113374000000.0 -189652000000.0 -209779000000.0 -27441200000.0 -14684200000.0 -40919400000.0 -74510400000.0 -80978400000.0 -35240500000.0 -32766700000.0 -13327800000.0 -33920300000.0 -14207700000.0 -23187800000.0 -26274600000.0 -36759000000.0 -37837600000.0 -13055000000.0 -14300900000.0 -15461200000.0 -16767200000.0 -17684900000.0 -23614500000.0 -19701700000.0 -13510000000.0 -62863600000.0 -19670300000.0 -49003300000.0 -28173500000.0 -80572100000.0 -71154900000.0 -52882600000.0 -51037500000.0 -31909800000.0 -28506800000.0 -32187300000.0 -38554200000.0 -43260300000.0 -31025300000.0 -37428200000.0 -70276600000.0 -82237500000.0 -64920800000.0 -54948600000.0 -16233500000.0 -24028900000.0 -25697700000.0 -26306900000.0 -26670300000.0 -22991900000.0 -12764500000.0 -25738500000.0 -46599900000.0 -38011000000.0 -22074500000.0 -24078700000.0 -20949400000.0 -30990900000.0 -27725800000.0 -49339900000.0 -27873600000.0 -12549700000.0 -14447700000.0 -12549700000.0 -12862600000.0 -12807800000.0 -14669500000.0 -14561500000.0 -17014100000.0 -22208500000.0 -13600800000.0 -13126000000.0 -12691300000.0 -12807800000.0 -13620800000.0 -16780900000.0 -12832500000.0 -57290400000.0 -13608800000.0 -87817400000.0 -55747500000.0 -37214700000.0 -23696900000.0 -96746800000.0 -22470500000.0 -35155200000.0 -34616400000.0 -198208000000.0 -52657500000.0 -96720800000.0 -81978200000.0 -138628000000.0 -103449000000.0 -28001400000.0 -140670000000.0 -15554800000.0 -93242800000.0 -40985400000.0 -216432000000.0 -85367900000.0 -263258000000.0 -213373000000.0 -88242500000.0 -181759000000.0 -139277000000.0 -241346000000.0 -71427500000.0 -13587200000.0 -19282400000.0 -124982000000.0 -17962900000.0 -67287900000.0 -25133700000.0 -20337900000.0 -34020300000.0 -30744100000.0 -13438900000.0 -31784200000.0 -40036100000.0 -33003300000.0 -33410500000.0 -14784400000.0 -27189900000.0 -12549700000.0 -22848600000.0 -22598900000.0 -14851900000.0 -34904600000.0 -38886400000.0 -24182600000.0 -16624200000.0 -12549700000.0 -23770500000.0 -19223200000.0 -64896000000.0 -12549700000.0 -29290200000.0 -25326100000.0 -15826500000.0 -13646800000.0 -12842000000.0 -29015800000.0 -16399300000.0 -29146000000.0 -20026000000.0 -17129100000.0 -37010700000.0 -15780800000.0 -107242000000.0 -56407800000.0 -17904000000.0 -15137100000.0 -15349700000.0 -21264200000.0 -19623000000.0 -25733900000.0 -22128000000.0 -17487500000.0 -14353500000.0 -20559000000.0 -37448700000.0 -34474500000.0 -26652900000.0 -31189200000.0 -22208200000.0 -23103700000.0 -24116900000.0 -33150300000.0 -19969300000.0 -18196100000.0 -20629300000.0 -21318500000.0 -15198700000.0 -20571600000.0 -17356200000.0 -14407600000.0 -13319200000.0 -15180200000.0 -18515000000.0 -26949300000.0 -77330600000.0 -13460900000.0 -53528100000.0 -47648900000.0 -47961100000.0 -45739500000.0 -69350800000.0 -39815100000.0 -16269000000.0 -88043800000.0 -58355000000.0 -32218500000.0 -168315000000.0 -58095600000.0 -51591900000.0 -39177900000.0 -90643400000.0 -162418000000.0 -13618100000.0 -165031000000.0 -59124900000.0 -44206600000.0 -180825000000.0 -12549700000.0 -158120000000.0 -116003000000.0 -29867800000.0 -157765000000.0 -71903900000.0 -35095600000.0 -103036000000.0 -63359100000.0 -67935000000.0 -69428300000.0 -60504400000.0 -38418900000.0 -58323300000.0 -58534300000.0 -18044500000.0 -23335700000.0 -28943600000.0 -30680300000.0 -34449600000.0 -43238900000.0 -26198600000.0 -24106800000.0 -26379100000.0 -16999700000.0 -26295400000.0 -25478300000.0 -37837300000.0 -27985200000.0 -23508800000.0 -22787900000.0 -37409400000.0 -40008200000.0 -77908700000.0 -18474000000.0 -25648100000.0 -42353100000.0 -31396900000.0 -20738500000.0 -28177500000.0 -24677000000.0 -30861700000.0 -16180400000.0 -57923800000.0 -40588400000.0 -88546900000.0 -22759300000.0 -34678400000.0 -16459300000.0 -19657500000.0 -23029900000.0 -12570400000.0 -13426800000.0 -15686100000.0 -12573100000.0 -17890300000.0 -12895000000.0 -12549700000.0 -24548400000.0 -14256900000.0 -23907000000.0 -20254600000.0 -12735200000.0 -12559800000.0 -24315300000.0 -12932200000.0 -29351200000.0 -18492100000.0 -23043100000.0 -21425700000.0 -17113200000.0 -19580900000.0 -21469400000.0 -13876800000.0 -19014000000.0 -18765000000.0 -24553700000.0 -30095200000.0 -33951300000.0 -36699500000.0 -45122000000.0 -39490900000.0 -46916100000.0 -47741900000.0 -22067500000.0 -41535200000.0 -75654400000.0 -87033400000.0 -12549600000.0 -84213300000.0 -39795800000.0 -60808500000.0 -54958500000.0 -77546800000.0 -88828200000.0 -107881000000.0 -23672100000.0 -40627700000.0 -38092700000.0 -170870000000.0 -121767000000.0 -136267000000.0 -123807000000.0 -16478700000.0 -231912000000.0 -36392000000.0 -34899700000.0 -148580000000.0 -114186000000.0 -65965600000.0 -200248000000.0 -12549700000.0 -215198000000.0 -90154600000.0 -55834500000.0 -48656500000.0 -15437900000.0 -52691000000.0 -39319800000.0 -15326200000.0 -68475100000.0 -12549700000.0 -26040900000.0 -40328400000.0 -39562800000.0 -45426700000.0 -29920000000.0 -28617600000.0 -34978200000.0 -15667100000.0 -15543300000.0 -27294500000.0 -22749200000.0 -12962500000.0 -12549700000.0 -21969600000.0 -27996000000.0 -15156800000.0 -18484000000.0 -15805500000.0 -16891500000.0 -48572700000.0 -20625300000.0 -17964900000.0 -18031700000.0 -20608500000.0 -25315700000.0 -24032300000.0 -12874900000.0 -14275800000.0 -28971100000.0 -26364500000.0 -12931700000.0 -13888600000.0 -31521200000.0 -75118800000.0 -40361300000.0 -18599300000.0 -27214500000.0 -16974200000.0 -16136500000.0 -12556000000.0 -13216100000.0 -14661100000.0 -12566900000.0 -12549700000.0 -12549700000.0 -12549700000.0 -15641000000.0 -12611700000.0 -12549700000.0 -12780000000.0 -12879400000.0 -12760300000.0 -13278200000.0 -18030500000.0 -13681900000.0 -13896200000.0 -13033900000.0 -20596600000.0 -19621900000.0 -13118600000.0 -22091700000.0 -18762500000.0 -23486300000.0 -23924300000.0 -67621700000.0 -39748700000.0 -19967400000.0 -21282600000.0 -39565700000.0 -32917300000.0 -40556700000.0 -45519500000.0 -44164600000.0 -72162500000.0 -91406000000.0 -13739700000.0 -68394500000.0 -96230100000.0 -137883000000.0 -120111000000.0 -97334400000.0 -212670000000.0 -243079000000.0 -242580000000.0 -24711300000.0 -103401000000.0 -141368000000.0 -145666000000.0 -68063300000.0 -192704000000.0 -155410000000.0 -47429200000.0 -43689400000.0 -30324600000.0 -21509200000.0 -21186100000.0 -34891900000.0 -34210700000.0 -15643800000.0 -16112700000.0 -51329000000.0 -27246600000.0 -28512700000.0 -19445800000.0 -18424500000.0 -17877700000.0 -14578500000.0 -12561800000.0 -15509600000.0 -15159000000.0 -13843900000.0 -13927800000.0 -13509100000.0 -12922400000.0 -23823600000.0 -17313200000.0 -12549700000.0 -15733500000.0 -17252900000.0 -33049100000.0 -45015400000.0 -46344400000.0 -47674500000.0 -16097000000.0 -34938700000.0 -26980300000.0 -13770600000.0 -13655100000.0 -12549700000.0 -12550800000.0 -12558500000.0 -12592300000.0 -12579800000.0 -12752600000.0 -13290300000.0 -12555900000.0 -12549700000.0 -12549700000.0 -12549700000.0 -14119900000.0 -13128000000.0 -12549700000.0 -12549700000.0 -12625700000.0 -12549700000.0 -12935500000.0 -16462100000.0 -15539500000.0 -16092700000.0 -15509000000.0 -13174000000.0 -13392700000.0 -23060200000.0 -15213700000.0 -14844500000.0 -22082200000.0 -13445800000.0 -24695100000.0 -15806500000.0 -16992400000.0 -14590600000.0 -47070500000.0 -50437200000.0 -17302100000.0 -95052500000.0 -194206000000.0 -135139000000.0 -169154000000.0 -130579000000.0 -243273000000.0 -178778000000.0 -180028000000.0 -201842000000.0 -150530000000.0 -70114500000.0 -97532200000.0 -214291000000.0 -150475000000.0 -135610000000.0 -114857000000.0 -32988500000.0 -105832000000.0 -141272000000.0 -55547200000.0 -26206800000.0 -34106700000.0 -17475200000.0 -20477100000.0 -20341900000.0 -12578200000.0 -12589700000.0 -15755000000.0 -16870400000.0 -12549700000.0 -24219000000.0 -18994300000.0 -19739300000.0 -16409800000.0 -13956800000.0 -14846900000.0 -20175200000.0 -13354800000.0 -16011500000.0 -17080500000.0 -35343100000.0 -19889800000.0 -22271400000.0 -15955200000.0 -15595500000.0 -30729900000.0 -13693400000.0 -13169300000.0 -31282200000.0 -23032700000.0 -13265400000.0 -12832200000.0 -13632400000.0 -12565200000.0 -15229600000.0 -13006300000.0 -13559200000.0 -14466500000.0 -19858500000.0 -16010700000.0 -13673800000.0 -21299900000.0 -21094500000.0 -16483900000.0 -17035900000.0 -17704400000.0 -81789500000.0 -136493000000.0 -43607400000.0 -143992000000.0 -92038000000.0 -196075000000.0 -27842500000.0 -145142000000.0 -126359000000.0 -96193300000.0 -133419000000.0 -150149000000.0 -54290500000.0 -203380000000.0 -178274000000.0 -259338000000.0 -70596300000.0 -99036100000.0 -123745000000.0 -18218000000.0 -23173900000.0 -18682000000.0 -18297400000.0 -12561400000.0 -13085600000.0 -13909200000.0 -14151600000.0 -13002200000.0 -17325300000.0 -12549700000.0 -14230800000.0 -14047400000.0 -15319400000.0 -15896700000.0 -19060400000.0 -12642000000.0 -21577900000.0 -13390100000.0 -13445300000.0 -13619100000.0 -17466500000.0 -13251500000.0 -26835100000.0 -26365700000.0 -20490800000.0 -28458500000.0 -39150000000.0 -46964700000.0 -144049000000.0 -53177800000.0 -169086000000.0 -69652600000.0 -229088000000.0 -102430000000.0 -92620500000.0 -15984900000.0 -154851000000.0 -145302000000.0 -128445000000.0 -248873000000.0 -42604100000.0 -126194000000.0 -118756000000.0 -121587000000.0 -177447000000.0 -66659900000.0 -101675000000.0 -163255000000.0 -24078300000.0 -48493100000.0 -120716000000.0 -163472000000.0 -165924000000.0 -56504700000.0 -266130000000.0 -176990000000.0 -178709000000.0 -151348000000.0 -628096000000.0 -298885000000.0 -348771000000.0 -333866000000.0 -47134700000.0 -61316500000.0 -16505800000.0 -221771000000.0 -46539800000.0 -33020200000.0 -28153000000.0 -82111800000.0 -164020000000.0 -192398000000.0 -151949000000.0 -215961000000.0 -137724000000.0 -303416000000.0 -13576000000.0 -300007000000.0 -526230000000.0 -14501400000.0 -203134000000.0 -181155000000.0 -12549700000.0 -321901000000.0 -229434000000.0 -17428700000.0 -348659000000.0 -70531100000.0 -23752200000.0 -2.92835e+12 -4.21031e+12 -12549700000.0 -2.49327e+12 -3.30346e+12 -4.92228e+12 -3.82606e+12 -5.84626e+12 -4.45388e+12 -4.64321e+12 -3.30269e+12 -3.17193e+12 -2.5209e+12 -3.35686e+12 -3.88824e+12 -2.96808e+12 -4.38281e+12 -4.63442e+12 -1.92637e+12 -5.07115e+12 -3.37345e+12 -3.83526e+12 -3.52354e+12 -2.35169e+12 -2.60484e+12 -3.17268e+12 -2.92451e+12 -2.05312e+12 -4.22153e+12 -5.10075e+12 -2.85948e+12 -2.96373e+12 -3.36144e+12 -5.36052e+12 -2.89757e+12 -5.57018e+12 -3.13879e+12 -3.13191e+12 -3.09772e+12 -3.36435e+12 -5.0777e+12 -3.45554e+12 -2.40474e+12 -3.44817e+12 -5.75631e+12 -4.29115e+12 -2.80556e+12 -2.01395e+12 -73728500000.0 -155550000000.0 -127151000000.0 -221191000000.0 -608817000000.0 -340345000000.0 -85993100000.0 -378555000000.0 -393750000000.0 -338078000000.0 -399039000000.0 -363303000000.0 -325061000000.0 -490484000000.0 -431424000000.0 -16481500000.0 -108933000000.0 -399628000000.0 -29271900000.0 -2.81051e+12 -2.72313e+12 -2.77785e+12 -12553000000.0 -3.03883e+12 -4.59866e+12 -3.5064e+12 -3.5633e+12 -2.65497e+12 -4.27844e+12 -4.04219e+12 -12549700000.0 -3.90067e+12 -2.65692e+12 -4.26262e+12 -4.41005e+12 -2.79777e+12 -5.09552e+12 -5.22423e+12 -5.2445e+12 -2.90958e+12 -3.62025e+12 -3.53893e+12 -2.63779e+12 -3.43008e+12 -4.22211e+12 -5.65607e+12 -6.61172e+12 -1.95217e+12 -2.09522e+12 -2.95436e+12 -2.93462e+12 -5.72215e+12 -3.23671e+12 -4.04082e+12 -5.08917e+12 -2.77582e+12 -4.54867e+12 -2.14776e+12 -3.64686e+12 -3.48022e+12 -2.50529e+12 -3.54633e+12 -3.13441e+12 -3.54468e+12 -3.60938e+12 -2.94626e+12 -8.81258e+12 -3.45531e+12 -3.86913e+12 -4.75781e+12 -4.39543e+12 -6.04941e+12 -4.00074e+12 -6.86676e+12 -3.86291e+12 -6.11174e+12 -4.65035e+12 -4.61064e+12 -3.68296e+12 -4.45483e+12 -4.34351e+12 -5.9608e+12 -6.34938e+12 -4.05796e+12 -4.47796e+12 -8.28904e+12 -6.35508e+12 -5.05855e+12 -6.67609e+12 -4.25773e+12 -9.78871e+12 -8.26371e+12 -1.90502e+12 -4.92819e+12 -3.92426e+12 -3.67266e+12 -7.70889e+12 -5.53076e+12 -4.46596e+12 -3.37252e+12 -3.39666e+12 -4.80396e+12 -7.30004e+12 -9.01779e+12 -4.98143e+12 -4.21814e+12 -2.89048e+12 -6.46663e+12 -5.05481e+12 -4.77345e+12 -6.85515e+12 -6.20286e+12 -7.79214e+12 -6.37322e+12 -6.5112e+12 -8.46292e+12 -3.41153e+12 -3.94653e+12 -5.60728e+12 -7.13828e+12 -9.63797e+12 -3.2596e+12 -3.2884e+12 -3.84494e+12 -4.34923e+12 -6.1113e+12 -7.0109e+12 -8.77104e+12 -4.75628e+12 -16976800000.0 -693753000000.0 -275834000000.0 -330379000000.0 -489243000000.0 -15771500000.0 -198182000000.0 -275115000000.0 -154572000000.0 -341796000000.0 -97401300000.0 -527619000000.0 -212044000000.0 -125437000000.0 -341292000000.0 -308111000000.0 -332560000000.0 -507502000000.0 -20836900000.0 -4.56448e+12 -3.93446e+12 -3.40737e+12 -6.0622e+12 -7.67728e+12 -3.40631e+12 -6.08015e+12 -6.78902e+12 -3.68876e+12 -6.44544e+12 -1.88038e+12 -9.65832e+12 -6.38464e+12 -3.50094e+12 -4.10362e+12 -5.43998e+12 -3.3918e+12 -5.70924e+12 -1.12665e+13 -4.63186e+12 -7.46248e+12 -6.19306e+12 -7.74895e+12 -7.70963e+12 -4.01538e+12 -4.70864e+12 -6.06057e+12 -3.35231e+12 -3.91565e+12 -4.29994e+12 -4.65396e+12 -5.65556e+12 -4.57702e+12 -5.11687e+12 -7.87234e+12 -5.79176e+12 -3.59795e+12 -7.9458e+12 -6.16242e+12 -6.73729e+12 -6.49199e+12 -7.55617e+12 -5.42064e+12 -6.47036e+12 -7.21691e+12 -5.02569e+12 -5.64084e+12 -5.2203e+12 -5.40134e+12 -8.75495e+12 -6.67382e+12 -3.99803e+12 -6.74824e+12 -6.7629e+12 -5.93703e+12 -3.77678e+12 -7.27712e+12 -7.34196e+12 -5.02092e+12 -8.24315e+12 -3.98601e+12 -2.86979e+12 -4.79284e+12 -1.93895e+12 -5.03124e+12 -4.71634e+12 -5.6769e+12 -5.40758e+12 -7.02435e+12 -5.49601e+12 -5.67489e+12 -3.57163e+12 -4.0769e+12 -7.98717e+12 -5.88051e+12 -4.30312e+12 -4.31422e+12 -3.8824e+12 -4.3267e+12 -4.24125e+12 -5.01834e+12 -2.50219e+12 -4.63905e+12 -4.18301e+12 -3.5283e+12 -5.79501e+12 -4.75591e+12 -5.88706e+12 -4.31489e+12 -8.39409e+12 -4.98542e+12 -4.66187e+12 -6.65961e+12 -2.29688e+12 -5.19404e+12 -8.02832e+12 -3.77865e+12 -6.85285e+12 -4.88601e+12 -4.72892e+12 -7.35917e+12 -5.08972e+12 -3.14417e+12 -5.49514e+12 -4.57415e+12 -2.95513e+12 -506430000000.0 -4.81036e+12 -4.21637e+12 -8.28297e+12 -2.43864e+12 -6.56037e+12 -5.37682e+12 -3.97234e+12 -2.83873e+12 -4.86529e+12 -3.56319e+12 -5.11608e+12 -4.57112e+12 -4.29862e+12 -6.07687e+12 -5.2056e+12 -4.30587e+12 -2.89324e+12 -4.61312e+12 -3.34696e+12 -8.6034e+12 -6.30129e+12 -3.61718e+12 -4.741e+12 -2.42892e+12 -718808000000.0 -577238000000.0 -681733000000.0 -614698000000.0 -454709000000.0 -417655000000.0 -542687000000.0 -477779000000.0 -435233000000.0 -378171000000.0 -461592000000.0 -277963000000.0 -348490000000.0 -621258000000.0 -589857000000.0 -507461000000.0 -923010000000.0 -3.92776e+12 -2.44735e+12 -2.7578e+12 -5.17657e+12 -7.96175e+12 -4.83741e+12 -7.74799e+12 -6.12293e+12 -4.91418e+12 -4.97393e+12 -3.32884e+12 -4.28278e+12 -3.68367e+12 -7.22351e+12 -6.86583e+12 -2.88632e+12 -3.41693e+12 -4.48373e+12 -3.65819e+12 -4.23577e+12 -6.0312e+12 -5.00888e+12 -6.78774e+12 -5.88366e+12 -5.15485e+12 -6.93597e+12 -5.97957e+12 -2.55036e+12 -7.42819e+12 -8.88064e+12 -4.54345e+12 -6.38549e+12 -6.51709e+12 -3.78563e+12 -3.39976e+12 -4.74173e+12 -5.94932e+12 -5.53515e+12 -4.76587e+12 -5.17446e+12 -5.28914e+12 -4.12981e+12 -6.26014e+12 -4.60121e+12 -3.94112e+12 -6.55639e+12 -4.12831e+12 -5.18252e+12 -6.02581e+12 -5.4902e+12 -5.79477e+12 -4.73965e+12 -5.05377e+12 -6.18836e+12 -5.5068e+12 -4.36941e+12 -3.94475e+12 -3.77089e+12 -5.85825e+12 -4.57749e+12 -4.60478e+12 -8.10527e+12 -5.59175e+12 -5.8792e+12 -3.79548e+12 -5.1759e+12 -3.65978e+12 -3.82402e+12 -6.29283e+12 -4.20493e+12 -2.40731e+12 -3.31538e+12 -3.61355e+12 -7.00793e+12 -3.50354e+12 -3.87021e+12 -3.81804e+12 -3.654e+12 -6.43522e+12 -3.59056e+12 -4.88638e+12 -4.08743e+12 -3.80012e+12 -2.2819e+12 -5.4639e+12 -2.94674e+12 -5.89567e+12 -5.39213e+12 -4.14833e+12 -4.84239e+12 -2.85466e+12 -5.98396e+12 -7.332e+12 -3.98914e+12 -4.69884e+12 -4.48429e+12 -3.11108e+12 -8.79211e+12 -6.68228e+12 -4.3448e+12 -6.63205e+12 -2.26611e+12 -5.47313e+12 -4.93751e+12 -3.70565e+12 -1.26321e+12 -4.62764e+12 -6.05179e+12 -3.94082e+12 -4.28794e+12 -3.20533e+12 -4.60563e+12 -6.81086e+12 -4.013e+12 -4.10827e+12 -7.05409e+12 -6.48984e+12 -5.02881e+12 -4.14582e+12 -5.50596e+12 -1.10401e+12 -8.25727e+12 -3.78997e+12 -4.43182e+12 -4.51441e+12 -3.29804e+12 -2.89172e+12 -8.56024e+12 -4.51604e+12 -782560000000.0 -541246000000.0 -132410000000.0 -82996300000.0 -80229900000.0 -287799000000.0 -371731000000.0 -403229000000.0 -231219000000.0 -498412000000.0 -624254000000.0 -303703000000.0 -200754000000.0 -96836900000.0 -152317000000.0 -122288000000.0 -439619000000.0 -400864000000.0 -342471000000.0 -17195000000.0 -500508000000.0 -191850000000.0 -257764000000.0 -84654600000.0 -59495600000.0 -3.4971e+12 -4.52835e+12 -6.72269e+12 -5.74567e+12 -3.56653e+12 -5.08948e+12 -4.07528e+12 -6.53518e+12 -4.86546e+12 -6.50872e+12 -8.16635e+12 -2.52525e+12 -6.87697e+12 -9.82158e+12 -5.05479e+12 -4.9174e+12 -4.53273e+12 -5.48293e+12 -3.33788e+12 -5.76088e+12 -3.65181e+12 -4.1108e+12 -3.88671e+12 -4.05159e+12 -4.52266e+12 -7.75298e+12 -3.75009e+12 -6.50956e+12 -3.2804e+12 -4.18313e+12 -4.57239e+12 -3.31979e+12 -4.04135e+12 -5.86649e+12 -4.99355e+12 -5.95276e+12 -6.89823e+12 -5.37272e+12 -5.74125e+12 -6.31346e+12 -6.05477e+12 -5.66413e+12 -2.61115e+12 -4.15911e+12 -3.23614e+12 -5.86746e+12 -4.36607e+12 -4.46721e+12 -6.68105e+12 -3.26068e+12 -6.60963e+12 -3.88193e+12 -3.92525e+12 -6.08737e+12 -5.5764e+12 -4.13057e+12 -3.3782e+12 -3.27327e+12 -4.33885e+12 -4.83209e+12 -3.57147e+12 -5.86732e+12 -3.65764e+12 -4.12862e+12 -3.88781e+12 -4.19354e+12 -4.36109e+12 -3.085e+12 -4.80374e+12 -3.14798e+12 -2.79494e+12 -4.28242e+12 -5.39876e+12 -3.50502e+12 -3.64368e+12 -3.42901e+12 -3.25349e+12 -6.10851e+12 -4.62957e+12 -6.7048e+12 -2.18945e+12 -2.39837e+12 -1.78422e+12 -4.2104e+12 -4.15485e+12 -3.78961e+12 -4.2141e+12 -6.35273e+12 -4.41915e+12 -6.50338e+12 -3.45083e+12 -3.95073e+12 -2.10038e+12 -4.28832e+12 -3.25816e+12 -5.44837e+12 -4.17818e+12 -5.17498e+12 -3.46063e+12 -5.27257e+12 -4.38673e+12 -5.97359e+12 -8.24959e+12 -2.53318e+12 -4.78689e+12 -3.92517e+12 -4.14026e+12 -4.83899e+12 -1.85549e+12 -4.63957e+12 -5.22689e+12 -3.44408e+12 -2.67917e+12 -3.87273e+12 -5.10244e+12 -5.14286e+12 -1.47367e+12 -730814000000.0 -753966000000.0 -697342000000.0 -297493000000.0 -139656000000.0 -95763900000.0 -136951000000.0 -91383600000.0 -104102000000.0 -526180000000.0 -362100000000.0 -234004000000.0 -305501000000.0 -111771000000.0 -553152000000.0 -203641000000.0 -29303700000.0 -370222000000.0 -210411000000.0 -111141000000.0 -5.04437e+12 -4.49505e+12 -4.56169e+12 -5.40007e+12 -1.64268e+12 -5.21632e+12 -3.91252e+12 -3.1797e+12 -5.89789e+12 -5.44853e+12 -3.02198e+12 -3.45905e+12 -5.41217e+12 -3.01523e+12 -4.72149e+12 -6.20737e+12 -4.14645e+12 -7.20765e+12 -5.8234e+12 -3.63705e+12 -4.24941e+12 -7.78705e+12 -6.13263e+12 -2.80522e+12 -3.70624e+12 -3.75776e+12 -5.3733e+12 -7.53319e+12 -4.31245e+12 -5.34591e+12 -5.71448e+12 -5.24111e+12 -4.88072e+12 -3.65685e+12 -4.77783e+12 -5.86967e+12 -4.06043e+12 -4.72251e+12 -4.73629e+12 -861615000000.0 -7.21518e+12 -4.50758e+12 -1.86418e+12 -2.5322e+12 -3.45666e+12 -6.3282e+12 -5.8965e+12 -6.69795e+12 -5.42723e+12 -3.21675e+12 -3.08649e+12 -4.12674e+12 -4.92404e+12 -4.07754e+12 -6.49431e+12 -6.21819e+12 -5.65716e+12 -2.23904e+12 -3.79757e+12 -5.36059e+12 -4.26449e+12 -5.3038e+12 -2.59862e+12 -2.95382e+12 -3.29914e+12 -3.98164e+12 -4.28183e+12 -1.94018e+12 -2.78086e+12 -1.32492e+12 -3.34804e+12 -2.7456e+12 -1.24093e+12 -3.91098e+12 -3.83836e+12 -7.28239e+12 -2.85942e+12 -3.04076e+12 -3.24474e+12 -3.36179e+12 -4.35643e+12 -4.78294e+12 -4.07133e+12 -3.89379e+12 -4.80083e+12 -5.74821e+12 -6.13837e+12 -3.15905e+12 -3.21478e+12 -2.17561e+12 -4.34238e+12 -3.18777e+12 -5.17522e+12 -4.6277e+12 -4.33729e+12 -4.45378e+12 -2.39357e+12 -4.01628e+12 -6.41015e+12 -4.58384e+12 -3.22021e+12 -2.57947e+12 -3.45023e+12 -2.85924e+12 -4.57936e+12 -3.92944e+12 -4.18283e+12 -5.59581e+12 -4.05759e+12 -3.85702e+12 -1.93517e+12 -1.21876e+12 -376784000000.0 -45553400000.0 -388235000000.0 -109013000000.0 -184952000000.0 -190509000000.0 -281035000000.0 -283966000000.0 -298279000000.0 -141758000000.0 -302171000000.0 -248218000000.0 -658266000000.0 -125673000000.0 -382821000000.0 -434898000000.0 -391294000000.0 -555550000000.0 -552644000000.0 -3.99175e+12 -2.16234e+12 -2.54692e+12 -3.38067e+12 -4.03821e+12 -2.24727e+12 -4.15329e+12 -7.54828e+12 -2.83601e+12 -1.37822e+12 -3.92544e+12 -3.96823e+12 -3.55185e+12 -7.22168e+12 -4.49445e+12 -3.02254e+12 -5.70411e+12 -3.41472e+12 -4.23766e+12 -1.98101e+12 -3.22734e+12 -4.92379e+12 -6.4842e+12 -6.23487e+12 -4.48714e+12 -6.60706e+12 -4.45595e+12 -2.37032e+12 -4.67126e+12 -4.82068e+12 -1.75673e+12 -4.49404e+12 -4.63233e+12 -4.36828e+12 -5.66302e+12 -3.8089e+12 -6.29119e+12 -5.37954e+12 -5.9922e+12 -4.52156e+12 -4.23342e+12 -6.62641e+12 -2.61132e+12 -4.8419e+12 -3.16749e+12 -6.12765e+12 -4.54581e+12 -5.12391e+12 -3.23265e+12 -4.7083e+12 -3.85299e+12 -2.03421e+12 -2.61347e+12 -3.44739e+12 -3.01855e+12 -3.41394e+12 -4.07111e+12 -5.96267e+12 -2.16782e+12 -2.49432e+12 -3.17827e+12 -3.98321e+12 -4.73139e+12 -3.70083e+12 -2.85862e+12 -2.76193e+12 -1.63137e+12 -4.83036e+12 -4.42021e+12 -2.84795e+12 -3.41595e+12 -3.33486e+12 -3.82757e+12 -3.06027e+12 -5.38676e+12 -5.3609e+12 -4.03529e+12 -4.06306e+12 -3.56507e+12 -3.35624e+12 -2.35249e+12 -5.31707e+12 -6.64931e+12 -2.77776e+12 -2.10557e+12 -791550000000.0 -1.89732e+12 -3.97684e+12 -3.59019e+12 -1.86992e+12 -5.09592e+12 -3.77071e+12 -1.66872e+12 -3.44911e+12 -2.85179e+12 -5.24985e+12 -4.82967e+12 -3.02042e+12 -3.35304e+12 -1.93332e+12 -2.42722e+12 -2.11221e+12 -599312000000.0 -33495800000.0 -36251900000.0 -48805900000.0 -12549700000.0 -304116000000.0 -22961700000.0 -144793000000.0 -160441000000.0 -135979000000.0 -373508000000.0 -96564200000.0 -190780000000.0 -14759100000.0 -335776000000.0 -53760700000.0 -377467000000.0 -88469000000.0 -385063000000.0 -105903000000.0 -81278300000.0 -2.54062e+12 -3.07357e+12 -3.08331e+12 -4.17818e+12 -2.00157e+12 -5.74078e+12 -2.54761e+12 -2.51733e+12 -2.95368e+12 -4.22881e+12 -5.4146e+12 -5.66739e+12 -3.41573e+12 -3.37607e+12 -5.61378e+12 -5.44032e+12 -4.35798e+12 -3.81072e+12 -3.0886e+12 -3.84306e+12 -3.40828e+12 -5.14428e+12 -5.06157e+12 -2.91718e+12 -3.94497e+12 -2.62557e+12 -2.81072e+12 -2.85475e+12 -4.40906e+12 -3.95876e+12 -3.47105e+12 -3.9281e+12 -3.43918e+12 -3.57933e+12 -4.17357e+12 -2.73173e+12 -3.48292e+12 -3.73463e+12 -3.63178e+12 -2.61011e+12 -3.54674e+12 -2.9377e+12 -3.77428e+12 -3.706e+12 -3.89804e+12 -2.73175e+12 -5.21991e+12 -3.7393e+12 -3.60718e+12 -4.7956e+12 -1.96413e+12 -2.0284e+12 -1.67047e+12 -3.65835e+12 -2.79522e+12 -2.77769e+12 -4.29246e+12 -2.0926e+12 -3.62677e+12 -2.87092e+12 -2.48932e+12 -2.17873e+12 -2.18857e+12 -2.78276e+12 -3.5288e+12 -3.10306e+12 -2.75633e+12 -4.88456e+12 -5.89665e+12 -2.14186e+12 -3.32877e+12 -4.25953e+12 -2.94011e+12 -2.8908e+12 -3.31238e+12 -2.9141e+12 -4.12635e+12 -3.57054e+12 -2.59741e+12 -4.00148e+12 -1.89549e+12 -2.53661e+12 -3.21933e+12 -3.59079e+12 -3.87961e+12 -2.77499e+12 -2.64458e+12 -3.94372e+12 -2.02865e+12 -3.03115e+12 -1.86241e+12 -3.18178e+12 -2.08283e+12 -2.57925e+12 -3.53846e+12 -1.77234e+12 -820251000000.0 -2.16542e+12 -1.35559e+12 -3.12132e+12 -390999000000.0 -476956000000.0 -496699000000.0 -615870000000.0 -517224000000.0 -470221000000.0 -433334000000.0 -318309000000.0 -131876000000.0 -127772000000.0 -194954000000.0 -239617000000.0 -261505000000.0 -127844000000.0 -88536600000.0 -599686000000.0 -301797000000.0 -29069200000.0 -123627000000.0 -62547600000.0 -20682400000.0 -3.30267e+12 -4.11487e+12 -3.88968e+12 -4.32273e+12 -2.1929e+12 -1.94581e+12 -3.16368e+12 -1.58807e+12 -2.81023e+12 -3.15685e+12 -3.30181e+12 -4.96403e+12 -3.21963e+12 -2.35028e+12 -4.95995e+12 -3.97909e+12 -2.44777e+12 -2.30205e+12 -4.73972e+12 -1.8882e+12 -3.18388e+12 -3.97817e+12 -5.01444e+12 -4.07411e+12 -2.82044e+12 -2.8644e+12 -2.91303e+12 -1.7158e+12 -925879000000.0 -2.80234e+12 -2.75036e+12 -5.59911e+12 -3.97831e+12 -2.82236e+12 -1.47551e+12 -3.2923e+12 -4.32216e+12 -2.11592e+12 -2.02149e+12 -3.19901e+12 -3.9039e+12 -2.6101e+12 -2.72762e+12 -1.97484e+12 -2.6937e+12 -1.94447e+12 -3.35504e+12 -1.93451e+12 -2.56151e+12 -1.57665e+12 -3.55616e+12 -1.03171e+12 -1.58869e+12 -1.83575e+12 -878693000000.0 -2.00405e+12 -2.3814e+12 -3.14254e+12 -2.6062e+12 -3.18591e+12 -2.75506e+12 -3.40355e+12 -1.96759e+12 -1.84489e+12 -2.95059e+12 -4.14269e+12 -2.90077e+12 -2.22983e+12 -3.0503e+12 -1.50133e+12 -2.42272e+12 -1.59425e+12 -1.95889e+12 -3.72239e+12 -2.56069e+12 -1.13216e+12 -2.62676e+12 -2.17422e+12 -3.21823e+12 -4.76155e+12 -2.52353e+12 -2.70251e+12 -4.90752e+12 -2.79979e+12 -2.52852e+12 -3.88021e+12 -2.14329e+12 -4.44921e+12 -3.81702e+12 -1.2669e+12 -2.32599e+12 -89706200000.0 -37820200000.0 -119072000000.0 -284032000000.0 -17698100000.0 -27715900000.0 -56133000000.0 -132837000000.0 -423040000000.0 -44473400000.0 -305095000000.0 -162475000000.0 -277300000000.0 -252937000000.0 -316069000000.0 -275621000000.0 -553618000000.0 -235780000000.0 -250491000000.0 -477176000000.0 -406320000000.0 -1.67859e+12 -2.50089e+12 -4.14187e+12 -1.12134e+12 -1.85315e+12 -2.50485e+12 -4.33407e+12 -3.93982e+12 -2.92536e+12 -4.65257e+12 -2.62656e+12 -1.91106e+12 -2.51627e+12 -1.51652e+12 -3.7002e+12 -2.45727e+12 -2.50416e+12 -2.38972e+12 -2.46486e+12 -2.59213e+12 -4.53675e+12 -1.37871e+12 -3.29792e+12 -2.62491e+12 -1.54362e+12 -2.06105e+12 -3.67557e+12 -3.36951e+12 -3.56532e+12 -2.30583e+12 -2.0958e+12 -3.51245e+12 -3.03214e+12 -3.94535e+12 -2.22388e+12 -2.67978e+12 -3.65988e+12 -1.58204e+12 -2.17993e+12 -1.69798e+12 -2.51138e+12 -2.74466e+12 -2.1246e+12 -4.93673e+12 -2.37072e+12 -2.38708e+12 -522891000000.0 -2.36759e+12 -2.9163e+12 -3.42313e+12 -1.99154e+12 -3.15807e+12 -2.33559e+12 -2.18712e+12 -3.42516e+12 -1.93148e+12 -2.60846e+12 -1.80376e+12 -2.27213e+12 -2.53867e+12 -1.13333e+12 -2.07898e+12 -2.22276e+12 -1.52283e+12 -2.41244e+12 -2.37361e+12 -3.46617e+12 -1.23366e+12 -2.80168e+12 -3.74437e+12 -2.82185e+12 -2.21431e+12 -3.1072e+12 -1.60422e+12 -3.29792e+12 -2.65064e+12 -1.1994e+12 -1.63187e+12 -4.0335e+12 -3.1812e+12 -2.64037e+12 -1.51206e+12 -1.09811e+12 -2.74537e+12 -2.73813e+12 -1.1628e+12 -2.49125e+12 -2.20995e+12 -2.16286e+12 -3.89558e+12 -2.53133e+12 -3.14836e+12 -2.98561e+12 -1.01352e+12 -226973000000.0 -288587000000.0 -277896000000.0 -145508000000.0 -80074300000.0 -85422400000.0 -177254000000.0 -180369000000.0 -108348000000.0 -99253000000.0 -152440000000.0 -26159000000.0 -156750000000.0 -95408900000.0 -241397000000.0 -390034000000.0 -361235000000.0 -99428200000.0 -156705000000.0 -324433000000.0 -49700600000.0 -1.63269e+12 -1.97766e+12 -2.02265e+12 -1.29947e+12 -2.22429e+12 -2.08126e+12 -2.87223e+12 -3.65692e+12 -4.95813e+12 -2.94305e+12 -280683000000.0 -2.24962e+12 -2.40246e+12 -1.5069e+12 -1.56837e+12 -2.32995e+12 -673726000000.0 -3.8043e+12 -3.22131e+12 -2.68038e+12 -4.14728e+12 -3.07879e+12 -1.63357e+12 -1.08975e+12 -3.96359e+12 -4.20774e+12 -1.87315e+12 -2.16242e+12 -2.39656e+12 -2.4523e+12 -3.50337e+12 -2.75562e+12 -2.73723e+12 -1.49851e+12 -2.94129e+12 -2.06646e+12 -3.25566e+12 -2.41613e+12 -3.0059e+12 -1.88878e+12 -2.61607e+12 -1.70401e+12 -2.41841e+12 -1.65802e+12 -2.30972e+12 -1.75788e+12 -3.17216e+12 -1.52373e+12 -1.17487e+12 -2.66094e+12 -2.80166e+12 -2.0727e+12 -1.75831e+12 -2.35889e+12 -1.78697e+12 -2.05544e+12 -2.73528e+12 -1.96751e+12 -2.40464e+12 -4.10646e+12 -739101000000.0 -2.04636e+12 -2.08904e+12 -2.96703e+12 -2.80152e+12 -1.24417e+12 -985753000000.0 -719281000000.0 -964740000000.0 -1.24084e+12 -2.72952e+12 -1.49092e+12 -3.08245e+12 -2.7804e+12 -3.66224e+12 -1.31073e+12 -954742000000.0 -1.90749e+12 -474193000000.0 -1.59476e+12 -2.06373e+12 -1.88269e+12 -3.29436e+12 -2.46567e+12 -1.92405e+12 -2.24037e+12 -2.90219e+12 -848673000000.0 -3.40829e+12 -1.12671e+12 -1.85375e+12 -2.86357e+12 -1.47656e+12 -1.96574e+12 -1.25725e+12 -513402000000.0 -660214000000.0 -382559000000.0 -343032000000.0 -187535000000.0 -183752000000.0 -192100000000.0 -55420700000.0 -102793000000.0 -76029200000.0 -154646000000.0 -71660200000.0 -187030000000.0 -29661600000.0 -55065800000.0 -122717000000.0 -272215000000.0 -615126000000.0 -481419000000.0 -710110000000.0 -1.07437e+12 -2.28302e+12 -1.37116e+12 -1.02479e+12 -1.18273e+12 -1.98107e+12 -2.05965e+12 -2.03465e+12 -2.07867e+12 -942972000000.0 -909211000000.0 -2.67083e+12 -2.28588e+12 -1.64983e+12 -2.42921e+12 -1.46742e+12 -1.34633e+12 -1.04114e+12 -927023000000.0 -370552000000.0 -1.34308e+12 -648228000000.0 -1.49819e+12 -2.63263e+12 -2.55438e+12 -1.34762e+12 -1.853e+12 -2.34126e+12 -689572000000.0 -1.72849e+12 -3.84582e+12 -2.93776e+12 -1.68457e+12 -1.54462e+12 -551745000000.0 -2.74961e+12 -2.58606e+12 -2.1172e+12 -2.73588e+12 -1.17195e+12 -2.06601e+12 -2.83172e+12 -1.51564e+12 -1.96646e+12 -2.16417e+12 -2.3332e+12 -2.27388e+12 -932514000000.0 -2.10912e+12 -1.15002e+12 -2.27408e+12 -1.98108e+12 -1.73648e+12 -674920000000.0 -3.29253e+12 -1.74686e+12 -2.80471e+12 -2.34665e+12 -85309000000.0 -1.31553e+12 -2.37237e+12 -975560000000.0 -2.26068e+12 -938764000000.0 -1.01174e+12 -766194000000.0 -1.04224e+12 -2.55706e+12 -1.10315e+12 -865520000000.0 -2.2323e+12 -2.73124e+12 -1.02144e+12 -1.92527e+12 -2.78154e+12 -1.39792e+12 -1.26479e+12 -1.74414e+12 -2.49977e+12 -1.61346e+12 -1.30744e+12 -2.5727e+12 -730902000000.0 -2.73075e+12 -2.69391e+12 -368856000000.0 -1.21457e+12 -1.20458e+12 -1.33265e+12 -2.04679e+12 -412221000000.0 -497017000000.0 -355730000000.0 -66151900000.0 -107374000000.0 -25452500000.0 -69898100000.0 -40882200000.0 -34581200000.0 -63355600000.0 -118186000000.0 -148016000000.0 -125448000000.0 -193864000000.0 -231117000000.0 -268799000000.0 -268177000000.0 -199519000000.0 -45450100000.0 -123247000000.0 -161109000000.0 -398842000000.0 -1.62987e+12 -1.65694e+12 -769598000000.0 -1.53958e+12 -1.58418e+12 -1.33698e+12 -2.68088e+12 -1.91315e+12 -1.16574e+12 -1.58433e+12 -1.6944e+12 -1.21358e+12 -1.11778e+12 -1.22952e+12 -415600000000.0 -1.77521e+12 -1.69101e+12 -768997000000.0 -1.85539e+12 -929195000000.0 -1.78038e+12 -1.02095e+12 -2.25723e+12 -647841000000.0 -1.6167e+12 -1.84922e+12 -3.06818e+12 -1.74378e+12 -362992000000.0 -1.27368e+12 -1.86572e+12 -1.29008e+12 -2.66101e+12 -661583000000.0 -1.08466e+12 -1.37847e+12 -2.21801e+12 -1.26434e+12 -1.49959e+12 -1.35963e+12 -1.60016e+12 -2.35158e+12 -2.18027e+12 -1.39435e+12 -1.43566e+12 -1.73462e+12 -1.28771e+12 -1.05829e+12 -1.23272e+12 -2.67415e+12 -1.75777e+12 -920206000000.0 -1.44799e+12 -1.32396e+12 -1.65223e+12 -1.90169e+12 -2.61145e+12 -1.54301e+12 -1.99942e+12 -1.49931e+12 -1.61902e+12 -1.24165e+12 -1.5418e+12 -1.06955e+12 -1.19972e+12 -766900000000.0 -1.37985e+12 -2.29923e+12 -2.16091e+12 -986953000000.0 -884256000000.0 -1.03838e+12 -2.05886e+12 -1.65535e+12 -1.26368e+12 -2.54077e+12 -1.25725e+12 -1.63104e+12 -1.12523e+12 -595444000000.0 -1.37883e+12 -1.55292e+12 -1.14258e+12 -624050000000.0 -1.06561e+12 -1.92274e+12 -722124000000.0 -133905000000.0 -248141000000.0 -59342100000.0 -12547700000.0 -27490300000.0 -33606300000.0 -16351800000.0 -70943600000.0 -35549800000.0 -100481000000.0 -104064000000.0 -54126800000.0 -73141900000.0 -71461000000.0 -173255000000.0 -87787400000.0 -89223600000.0 -14076900000.0 -341741000000.0 -53334600000.0 -1.68701e+12 -1.78884e+12 -1.56149e+12 -1.95323e+12 -913792000000.0 -1.11709e+12 -1.58172e+12 -1.85971e+12 -827474000000.0 -1.72766e+12 -1.51826e+12 -1.32489e+12 -1.00385e+12 -743909000000.0 -1.05138e+12 -725617000000.0 -1.50434e+12 -759258000000.0 -761955000000.0 -1.26519e+12 -1.26507e+12 -1.57568e+12 -1.21126e+12 -2.51951e+12 -1.00814e+12 -1.96397e+12 -1.51991e+12 -579318000000.0 -1.08048e+12 -849203000000.0 -945052000000.0 -1.85544e+12 -1.52495e+12 -563408000000.0 -1.14952e+12 -1.45606e+12 -1.61249e+12 -1.53143e+12 -1.16345e+12 -677677000000.0 -953178000000.0 -954797000000.0 -842499000000.0 -1.26362e+12 -1.79752e+12 -866962000000.0 -1.61343e+12 -992022000000.0 -946425000000.0 -993923000000.0 -2.0423e+12 -1.75763e+12 -891224000000.0 -192554000000.0 -1.13398e+12 -828329000000.0 -290422000000.0 -666583000000.0 -27127200000.0 -1.27371e+12 -1.00772e+12 -1.04509e+12 -1.37505e+12 -1.49007e+12 -1.5116e+12 -168325000000.0 -904365000000.0 -1.55447e+12 -419693000000.0 -1.5732e+12 -1.29318e+12 -1.54106e+12 -1.3677e+12 -1.07228e+12 -392300000000.0 -714490000000.0 -1.21689e+12 -925304000000.0 -1.08937e+12 -580170000000.0 -332452000000.0 -126688000000.0 -205922000000.0 -106907000000.0 -64717300000.0 -56042300000.0 -72931800000.0 -57371100000.0 -37200900000.0 -31016900000.0 -60430400000.0 -56624900000.0 -19382900000.0 -18555100000.0 -136070000000.0 -117982000000.0 -59766800000.0 -48295700000.0 -24423200000.0 -264914000000.0 -36311800000.0 -1.18274e+12 -1.06141e+12 -994587000000.0 -2.15087e+12 -546634000000.0 -869395000000.0 -761403000000.0 -682203000000.0 -889549000000.0 -1.11192e+12 -2.41583e+12 -1.93697e+12 -1.21437e+12 -1.0914e+12 -1.46025e+12 -759728000000.0 -705901000000.0 -212829000000.0 -777633000000.0 -991680000000.0 -1.38401e+12 -809043000000.0 -795188000000.0 -1.39253e+12 -483810000000.0 -2.02418e+12 -1.62008e+12 -598594000000.0 -602091000000.0 -943163000000.0 -536254000000.0 -1.86727e+12 -1.46618e+12 -662134000000.0 -296925000000.0 -1.1921e+12 -814833000000.0 -1.22602e+12 -1.16691e+12 -892742000000.0 -1.49751e+12 -1.20899e+12 -1.26825e+12 -622637000000.0 -875524000000.0 -654223000000.0 -434186000000.0 -449633000000.0 -140729000000.0 -1.10506e+12 -512829000000.0 -1.14508e+12 -689158000000.0 -264519000000.0 -750132000000.0 -1.01475e+12 -710336000000.0 -22483600000.0 -396333000000.0 -455144000000.0 -946922000000.0 -770457000000.0 -882168000000.0 -694102000000.0 -797537000000.0 -1.18802e+12 -614836000000.0 -449650000000.0 -1.01681e+12 -1.47772e+12 -690977000000.0 -959810000000.0 -1.42823e+12 -918084000000.0 -405726000000.0 -437118000000.0 -461596000000.0 -605771000000.0 -790605000000.0 -835459000000.0 -1.00029e+12 -390870000000.0 -640478000000.0 -725576000000.0 -895945000000.0 -413691000000.0 -44428200000.0 -114200000000.0 -54008600000.0 -21886100000.0 -20877000000.0 -35202700000.0 -27032700000.0 -29192900000.0 -19683700000.0 -76367700000.0 -62152700000.0 -65248500000.0 -69043300000.0 -111704000000.0 -12549700000.0 -123356000000.0 -33884200000.0 -12549700000.0 -220725000000.0 -16895700000.0 -658294000000.0 -551860000000.0 -835627000000.0 -1.60011e+12 -35353900000.0 -300311000000.0 -1.11471e+12 -989210000000.0 -1.11367e+12 -918290000000.0 -970006000000.0 -1.11834e+12 -928048000000.0 -628593000000.0 -583543000000.0 -894459000000.0 -809998000000.0 -1.33149e+12 -76059100000.0 -1.16261e+12 -617961000000.0 -13934100000.0 -967281000000.0 -1.52206e+12 -388774000000.0 -1.2589e+12 -718459000000.0 -847075000000.0 -1.5028e+12 -611880000000.0 -567588000000.0 -632635000000.0 -535976000000.0 -794969000000.0 -375655000000.0 -427101000000.0 -1.03201e+12 -516406000000.0 -625294000000.0 -868995000000.0 -737924000000.0 -883287000000.0 -498805000000.0 -528586000000.0 -353649000000.0 -488564000000.0 -760553000000.0 -420603000000.0 -585422000000.0 -30808000000.0 -457764000000.0 -513180000000.0 -834446000000.0 -134733000000.0 -609499000000.0 -489366000000.0 -627130000000.0 -804973000000.0 -922168000000.0 -906245000000.0 -780644000000.0 -751445000000.0 -450518000000.0 -420668000000.0 -530592000000.0 -550758000000.0 -1.7861e+12 -438193000000.0 -351795000000.0 -120496000000.0 -216586000000.0 -671932000000.0 -424397000000.0 -801288000000.0 -959371000000.0 -528669000000.0 -720219000000.0 -65263800000.0 -349618000000.0 -327737000000.0 -489054000000.0 -20962100000.0 -437212000000.0 -54979500000.0 -97984700000.0 -23387900000.0 -19864800000.0 -22116000000.0 -34309900000.0 -26954200000.0 -27573900000.0 -33919900000.0 -73010900000.0 -22742500000.0 -18553200000.0 -12549700000.0 -74069000000.0 -12790100000.0 -118256000000.0 -17706300000.0 -12549700000.0 -194387000000.0 -25307300000.0 -557396000000.0 -385229000000.0 -339819000000.0 -1.6659e+12 -693367000000.0 -485815000000.0 -530575000000.0 -1.12208e+12 -27662800000.0 -168074000000.0 -810536000000.0 -1.04576e+12 -742327000000.0 -173002000000.0 -406030000000.0 -553908000000.0 -284741000000.0 -227234000000.0 -676059000000.0 -1.09749e+12 -48698700000.0 -585931000000.0 -845476000000.0 -597059000000.0 -1.09366e+12 -619189000000.0 -553805000000.0 -386207000000.0 -519673000000.0 -464520000000.0 -797587000000.0 -751948000000.0 -700225000000.0 -165952000000.0 -262310000000.0 -468093000000.0 -431597000000.0 -197067000000.0 -392381000000.0 -520347000000.0 -204723000000.0 -557139000000.0 -344732000000.0 -463387000000.0 -435296000000.0 -397125000000.0 -237937000000.0 -181423000000.0 -412517000000.0 -332125000000.0 -388808000000.0 -443903000000.0 -580027000000.0 -487801000000.0 -59895700000.0 -586839000000.0 -406648000000.0 -398471000000.0 -649580000000.0 -556378000000.0 -335320000000.0 -478144000000.0 -503623000000.0 -443196000000.0 -625160000000.0 -279982000000.0 -236548000000.0 -724447000000.0 -861664000000.0 -944643000000.0 -555513000000.0 -202384000000.0 -41467600000.0 -830933000000.0 -430382000000.0 -341674000000.0 -432485000000.0 -281413000000.0 -242369000000.0 -437661000000.0 -362936000000.0 -13700700000.0 -312214000000.0 -15993000000.0 -33459100000.0 -15463800000.0 -13832800000.0 -13107700000.0 -22917200000.0 -14963400000.0 -16840700000.0 -12549700000.0 -49149700000.0 -24150800000.0 -28102100000.0 -33053900000.0 -34820500000.0 -96795800000.0 -86163400000.0 -130251000000.0 -112052000000.0 -29619500000.0 -137142000000.0 -405898000000.0 -1.0726e+12 -814376000000.0 -706460000000.0 -398166000000.0 -62729900000.0 -336173000000.0 -575635000000.0 -495501000000.0 -291957000000.0 -434699000000.0 -967527000000.0 -259243000000.0 -430969000000.0 -161575000000.0 -226818000000.0 -425736000000.0 -703710000000.0 -946104000000.0 -27050800000.0 -517668000000.0 -862826000000.0 -633571000000.0 -593399000000.0 -632461000000.0 -399049000000.0 -245771000000.0 -849868000000.0 -160550000000.0 -559594000000.0 -453096000000.0 -249809000000.0 -390144000000.0 -478136000000.0 -519447000000.0 -624979000000.0 -236957000000.0 -441595000000.0 -150493000000.0 -97401600000.0 -482630000000.0 -304685000000.0 -99219200000.0 -294777000000.0 -64878300000.0 -577329000000.0 -60624900000.0 -216771000000.0 -515886000000.0 -219437000000.0 -452941000000.0 -263753000000.0 -226699000000.0 -358229000000.0 -183571000000.0 -540389000000.0 -522541000000.0 -455403000000.0 -229872000000.0 -194773000000.0 -304709000000.0 -476860000000.0 -143720000000.0 -559999000000.0 -382597000000.0 -29172300000.0 -458904000000.0 -344922000000.0 -737288000000.0 -276820000000.0 -143284000000.0 -212451000000.0 -203086000000.0 -205028000000.0 -253768000000.0 -135398000000.0 -400904000000.0 -58354600000.0 -16182200000.0 -19319700000.0 -15409900000.0 -13024400000.0 -12549700000.0 -18842200000.0 -12677000000.0 -14677100000.0 -13656700000.0 -33422000000.0 -12549700000.0 -14505300000.0 -16298500000.0 -17599400000.0 -57943000000.0 -40822600000.0 -26925000000.0 -33835800000.0 -27355800000.0 -49925200000.0 -325192000000.0 -352241000000.0 -450958000000.0 -255285000000.0 -264146000000.0 -405690000000.0 -316042000000.0 -595560000000.0 -57317300000.0 -536252000000.0 -354739000000.0 -526250000000.0 -293180000000.0 -276163000000.0 -98513900000.0 -153779000000.0 -55156300000.0 -261460000000.0 -448731000000.0 -354579000000.0 -311747000000.0 -51655800000.0 -389339000000.0 -391894000000.0 -217718000000.0 -61140700000.0 -216292000000.0 -420059000000.0 -591410000000.0 -533835000000.0 -92488000000.0 -110755000000.0 -412205000000.0 -23500300000.0 -103389000000.0 -124398000000.0 -171440000000.0 -278781000000.0 -30999200000.0 -217411000000.0 -155678000000.0 -207797000000.0 -484312000000.0 -473072000000.0 -307740000000.0 -474176000000.0 -469826000000.0 -130467000000.0 -353130000000.0 -489939000000.0 -209213000000.0 -221555000000.0 -288252000000.0 -113247000000.0 -13795800000.0 -191537000000.0 -406920000000.0 -130092000000.0 -195100000000.0 -123264000000.0 -261490000000.0 -118050000000.0 -149409000000.0 -161148000000.0 -146240000000.0 -123361000000.0 -348093000000.0 -151999000000.0 -113271000000.0 -145031000000.0 -38638900000.0 -306482000000.0 -429960000000.0 -158242000000.0 -142202000000.0 -240595000000.0 -52092000000.0 -226068000000.0 -22198400000.0 -268570000000.0 -58781900000.0 -12549700000.0 -15075300000.0 -13303600000.0 -12549700000.0 -12549700000.0 -16543200000.0 -12549700000.0 -13783100000.0 -12605500000.0 -28124600000.0 -12738300000.0 -13517700000.0 -13918800000.0 -14222700000.0 -33850200000.0 -34094000000.0 -21468200000.0 -35356700000.0 -40916000000.0 -57981200000.0 -202761000000.0 -44385200000.0 -267800000000.0 -297789000000.0 -163830000000.0 -321066000000.0 -464802000000.0 -186681000000.0 -487651000000.0 -314603000000.0 -230242000000.0 -505774000000.0 -186011000000.0 -205417000000.0 -164178000000.0 -324263000000.0 -304163000000.0 -12549700000.0 -101800000000.0 -129628000000.0 -102032000000.0 -258559000000.0 -200508000000.0 -191288000000.0 -103559000000.0 -104202000000.0 -130750000000.0 -281492000000.0 -14647600000.0 -473476000000.0 -431578000000.0 -202649000000.0 -190004000000.0 -143111000000.0 -24627700000.0 -85798300000.0 -188209000000.0 -62385300000.0 -85075400000.0 -12549700000.0 -46253200000.0 -152058000000.0 -167534000000.0 -15601900000.0 -49983500000.0 -126442000000.0 -78029900000.0 -62328000000.0 -134763000000.0 -127380000000.0 -64346000000.0 -136435000000.0 -68860800000.0 -75535900000.0 -106626000000.0 -197398000000.0 -149923000000.0 -61606400000.0 -99613000000.0 -101707000000.0 -80048800000.0 -48648000000.0 -131635000000.0 -100489000000.0 -122406000000.0 -69669600000.0 -61208700000.0 -18987500000.0 -187278000000.0 -193302000000.0 -30647100000.0 -49610800000.0 -132859000000.0 -49921800000.0 -86268400000.0 -91684000000.0 -227894000000.0 -18448400000.0 -12549700000.0 -13648600000.0 -12582600000.0 -12549700000.0 -12597000000.0 -13642900000.0 -14437400000.0 -14186200000.0 -12885300000.0 -23093400000.0 -12549700000.0 -13364600000.0 -15071100000.0 -23412700000.0 -16049200000.0 -19848700000.0 -14551300000.0 -13077600000.0 -13993200000.0 -17200400000.0 -73285100000.0 -275714000000.0 -280169000000.0 -154080000000.0 -276063000000.0 -257152000000.0 -220484000000.0 -66271400000.0 -227870000000.0 -45982500000.0 -184676000000.0 -161546000000.0 -225921000000.0 -254718000000.0 -162271000000.0 -92735500000.0 -28012800000.0 -83441400000.0 -61498300000.0 -77963300000.0 -104757000000.0 -148136000000.0 -118281000000.0 -92463600000.0 -85985100000.0 -13849100000.0 -154435000000.0 -65175400000.0 -146039000000.0 -12979200000.0 -175025000000.0 -90354500000.0 -169878000000.0 -155972000000.0 -146363000000.0 -37957800000.0 -113902000000.0 -56195400000.0 -31012700000.0 -24485900000.0 -75178700000.0 -67964400000.0 -14735500000.0 -26132500000.0 -55381300000.0 -47614600000.0 -36962400000.0 -102003000000.0 -50125000000.0 -40489400000.0 -75444600000.0 -55762500000.0 -44543700000.0 -60954300000.0 -19446700000.0 -33907600000.0 -23383900000.0 -29171700000.0 -21231800000.0 -30037900000.0 -14924700000.0 -23787600000.0 -18758600000.0 -18403500000.0 -96558000000.0 -71864400000.0 -27255100000.0 -32524700000.0 -35306000000.0 -48252500000.0 -54024800000.0 -14166500000.0 -20633100000.0 -36523300000.0 -18307100000.0 -28647600000.0 -16220200000.0 -39358700000.0 -63810100000.0 -12549700000.0 -12887700000.0 -12582600000.0 -12549700000.0 -12566900000.0 -12800400000.0 -12930600000.0 -12848700000.0 -12582400000.0 -15544000000.0 -12549700000.0 -12549700000.0 -12549700000.0 -15746600000.0 -13315500000.0 -15166900000.0 -13733200000.0 -13350700000.0 -13620600000.0 -12548900000.0 -23999800000.0 -127214000000.0 -51536100000.0 -77800500000.0 -53242100000.0 -88352500000.0 -75354900000.0 -53508300000.0 -90980200000.0 -48442200000.0 -162687000000.0 -69577400000.0 -33112200000.0 -42665200000.0 -27183800000.0 -131456000000.0 -21988700000.0 -23898200000.0 -16571200000.0 -45455300000.0 -39696200000.0 -19846000000.0 -30567800000.0 -25744400000.0 -62215600000.0 -69293400000.0 -31454600000.0 -31374900000.0 -45721100000.0 -59157600000.0 -13989700000.0 -15895300000.0 -42539500000.0 -24914300000.0 -64548300000.0 -32175000000.0 -38363700000.0 -33473800000.0 -13325800000.0 -16727600000.0 -12549700000.0 -16505100000.0 -39856500000.0 