# vtk DataFile Version 2.0
Time step 18
ASCII
DATASET UNSTRUCTURED_GRID
POINTS 5000 float
27675.6 185953.0 0
182940.0 186704.0 0
372010.0 186051.0 0
403643.0 186441.0 0
432486.0 186965.0 0
477066.0 186838.0 0
485845.0 186753.0 0
497601.0 186789.0 0
2398.09 189032.0 0
8506.97 188412.0 0
6049.31 191742.0 0
12438.3 188242.0 0
16747.8 187565.0 0
22243.6 189194.0 0
33183.2 188636.0 0
38170.9 189217.0 0
42689.9 189354.0 0
47478.1 189275.0 0
52137.1 189360.0 0
57006.6 188204.0 0
62763.5 189275.0 0
67994.7 189408.0 0
72700.7 188549.0 0
77500.0 189288.0 0
82500.0 189277.0 0
87408.3 188578.0 0
92500.0 189315.0 0
97197.2 189337.0 0
101297.0 189253.0 0
105952.0 188655.0 0
111933.0 189131.0 0
117847.0 189308.0 0
123327.0 189384.0 0
128342.0 189505.0 0
133425.0 188754.0 0
138121.0 189437.0 0
142500.0 189359.0 0
147500.0 189292.0 0
152501.0 189262.0 0
157587.0 188895.0 0
162558.0 189052.0 0
167013.0 188601.0 0
171832.0 187481.0 0
177736.0 187519.0 0
183527.0 191773.0 0
187396.0 188554.0 0
192500.0 189710.0 0
196085.0 188879.0 0
201750.0 188237.0 0
207652.0 188997.0 0
212987.0 188345.0 0
218129.0 189419.0 0
222481.0 189431.0 0
225801.0 188684.0 0
230433.0 188547.0 0
235810.0 189534.0 0
241170.0 188239.0 0
246501.0 190243.0 0
252677.0 188221.0 0
259049.0 188704.0 0
263772.0 189782.0 0
268742.0 188707.0 0
273937.0 189001.0 0
278880.0 187640.0 0
282030.0 190971.0 0
286326.0 189279.0 0
291718.0 189738.0 0
297320.0 187607.0 0
303660.0 188409.0 0
307737.0 190974.0 0
312125.0 188814.0 0
317926.0 189450.0 0
323242.0 189347.0 0
327579.0 189605.0 0
332204.0 189205.0 0
337221.0 188915.0 0
341018.0 190126.0 0
345897.0 188468.0 0
350693.0 190377.0 0
355272.0 189390.0 0
361817.0 188011.0 0
367952.0 189365.0 0
377028.0 188025.0 0
382607.0 188888.0 0
388128.0 188175.0 0
394015.0 187495.0 0
399191.0 189179.0 0
408582.0 187646.0 0
412477.0 189289.0 0
408374.0 191926.0 0
417500.0 189321.0 0
422733.0 187450.0 0
422127.0 192087.0 0
427273.0 189146.0 0
437537.0 189298.0 0
442097.0 188247.0 0
446259.0 187821.0 0
447596.0 191829.0 0
450671.0 188597.0 0
455215.0 188553.0 0
460243.0 188413.0 0
465797.0 188773.0 0
471631.0 188032.0 0
481314.0 189692.0 0
491674.0 188297.0 0
2282.74 194080.0 0
6745.82 196788.0 0
11077.0 192757.0 0
17320.4 193468.0 0
22990.9 194731.0 0
28503.7 192307.0 0
34955.2 193908.0 0
40327.4 194229.0 0
44450.0 194572.0 0
48263.9 193273.0 0
52500.0 194320.0 0
57990.8 193646.0 0
62846.4 194374.0 0
67505.2 194046.0 0
72125.7 193670.0 0
77500.0 194446.0 0
82116.1 194092.0 0
87906.4 193336.0 0
92500.0 194455.0 0
97186.2 194101.0 0
102467.0 193988.0 0
108246.0 193248.0 0
112500.0 194391.0 0
117500.0 194473.0 0
122500.0 194396.0 0
127726.0 193941.0 0
132493.0 194289.0 0
137520.0 194304.0 0
142773.0 193783.0 0
146938.0 194131.0 0
151949.0 194009.0 0
156874.0 192947.0 0
161309.0 193770.0 0
166521.0 193274.0 0
172967.0 193052.0 0
178370.0 192932.0 0
182186.0 196912.0 0
188598.0 193002.0 0
193566.0 193857.0 0
198247.0 193228.0 0
203920.0 193858.0 0
213693.0 192895.0 0
209356.0 194077.0 0
217607.0 194487.0 0
222039.0 194271.0 0
226810.0 192918.0 0
232215.0 193962.0 0
237696.0 194782.0 0
243294.0 194629.0 0
248453.0 194321.0 0
252669.0 194787.0 0
257255.0 193341.0 0
262325.0 193960.0 0
267085.0 193556.0 0
271631.0 192877.0 0
277044.0 193280.0 0
282827.0 194657.0 0
287500.0 194369.0 0
292900.0 194233.0 0
298242.0 193118.0 0
303108.0 194078.0 0
307451.0 194267.0 0
312501.0 194564.0 0
317499.0 194327.0 0
322441.0 193817.0 0
327500.0 194350.0 0
332500.0 194422.0 0
337707.0 193767.0 0
343302.0 193154.0 0
347740.0 193576.0 0
352666.0 194271.0 0
361453.0 193324.0 0
357770.0 193809.0 0
365128.0 193048.0 0
366511.0 197134.0 0
372926.0 192851.0 0
378825.0 192572.0 0
382011.0 193706.0 0
384361.0 197044.0 0
388367.0 193264.0 0
393546.0 193637.0 0
402986.0 192639.0 0
398129.0 194068.0 0
412852.0 193233.0 0
417509.0 193832.0 0
428295.0 194095.0 0
424099.0 196912.0 0
433408.0 192203.0 0
437504.0 194364.0 0
443211.0 192532.0 0
448249.0 196901.0 0
451935.0 193079.0 0
457165.0 193288.0 0
462427.0 194742.0 0
466601.0 193342.0 0
470196.0 194517.0 0
475186.0 193324.0 0
480803.0 194967.0 0
486596.0 192954.0 0
492082.0 195204.0 0
496837.0 192299.0 0
2238.62 199959.0 0
11847.1 198610.0 0
16326.2 198677.0 0
20504.9 198702.0 0
27028.6 199140.0 0
32607.0 198981.0 0
38246.2 198740.0 0
42953.8 199112.0 0
47575.5 197994.0 0
51791.5 199748.0 0
56544.7 199265.0 0
62105.1 199257.0 0
67685.9 198891.0 0
73697.7 199214.0 0
78212.5 199643.0 0
81955.9 198818.0 0
86961.7 198852.0 0
92531.5 199206.0 0
97547.8 198620.0 0
102630.0 199750.0 0
107925.0 198027.0 0
112497.0 199299.0 0
116734.0 199080.0 0
120857.0 198926.0 0
125868.0 198311.0 0
131163.0 200007.0 0
136450.0 199955.0 0
141000.0 197907.0 0
146314.0 199022.0 0
151841.0 200625.0 0
156252.0 197507.0 0
161709.0 199461.0 0
166531.0 201284.0 0
170003.0 197844.0 0
176299.0 198693.0 0
188052.0 199164.0 0
194264.0 198882.0 0
199976.0 198330.0 0
208109.0 198976.0 0
204287.0 199331.0 0
213298.0 197706.0 0
217709.0 199423.0 0
222567.0 198546.0 0
226875.0 197922.0 0
232450.0 199427.0 0
237434.0 199208.0 0
241799.0 199860.0 0
246855.0 198397.0 0
251799.0 199682.0 0
257724.0 198093.0 0
262706.0 198741.0 0
267472.0 198014.0 0
273029.0 198127.0 0
279887.0 197314.0 0
283568.0 199591.0 0
287229.0 199666.0 0
291034.0 198552.0 0
296750.0 198169.0 0
302246.0 199316.0 0
307711.0 198697.0 0
313216.0 199824.0 0
318200.0 198829.0 0
322515.0 197822.0 0
326815.0 199709.0 0
336507.0 198432.0 0
331859.0 199447.0 0
341407.0 197359.0 0
346835.0 197963.0 0
351888.0 199112.0 0
356024.0 197675.0 0
361253.0 198025.0 0
357350.0 201631.0 0
366564.0 201826.0 0
371104.0 198994.0 0
377674.0 198505.0 0
392422.0 198461.0 0
388344.0 200233.0 0
397215.0 198417.0 0
402854.0 198879.0 0
409236.0 197570.0 0
414396.0 200139.0 0
419116.0 198528.0 0
427669.0 199939.0 0
432237.0 197827.0 0
437325.0 198589.0 0
442334.0 197765.0 0
446544.0 201914.0 0
454147.0 198489.0 0
458965.0 199516.0 0
463143.0 199286.0 0
467510.0 199427.0 0
472370.0 197842.0 0
477760.0 198815.0 0
482615.0 199666.0 0
487503.0 200749.0 0
491509.0 199265.0 0
496593.0 198877.0 0
2182.12 204373.0 0
8049.09 202629.0 0
13471.1 203230.0 0
11880.5 206959.0 0
17750.6 202522.0 0
22413.2 203077.0 0
26970.1 205077.0 0
32051.2 203267.0 0
37568.8 203943.0 0
43182.1 204176.0 0
49062.5 202782.0 0
53807.2 204441.0 0
59216.9 203941.0 0
63612.6 203587.0 0
68064.4 204567.0 0
72602.7 204089.0 0
77068.7 203575.0 0
82136.5 203839.0 0
87334.1 204026.0 0
92269.9 204532.0 0
97734.9 203972.0 0
102770.0 205223.0 0
107688.0 203525.0 0
113107.0 203630.0 0
118132.0 203559.0 0
123413.0 202913.0 0
127500.0 204470.0 0
132687.0 204838.0 0
137735.0 203871.0 0
142523.0 204026.0 0
148000.0 203632.0 0
156822.0 202922.0 0
153404.0 205286.0 0
160407.0 204272.0 0
164429.0 204986.0 0
170843.0 203873.0 0
177033.0 205260.0 0
182232.0 202391.0 0
186625.0 204797.0 0
191646.0 204295.0 0
197220.0 203613.0 0
203050.0 203474.0 0
208745.0 205322.0 0
214360.0 203375.0 0
218725.0 204651.0 0
222051.0 202807.0 0
227535.0 203469.0 0
234303.0 203821.0 0
237839.0 202538.0 0
237942.0 207273.0 0
241782.0 204461.0 0
246248.0 203585.0 0
251526.0 204941.0 0
255882.0 202817.0 0
260347.0 202490.0 0
262645.0 206065.0 0
266368.0 202705.0 0
271768.0 204401.0 0
278362.0 202814.0 0
284359.0 204332.0 0
288762.0 202824.0 0
292986.0 204540.0 0
298944.0 204473.0 0
303985.0 204690.0 0
307500.0 204514.0 0
312166.0 204332.0 0
316233.0 203553.0 0
321056.0 203091.0 0
325841.0 204638.0 0
329889.0 203270.0 0
334362.0 205242.0 0
339782.0 202753.0 0
346085.0 204217.0 0
352840.0 204687.0 0
361676.0 204019.0 0
367115.0 206732.0 0
371935.0 204617.0 0
377880.0 205950.0 0
382813.0 202557.0 0
387365.0 204416.0 0
393042.0 205108.0 0
399509.0 204049.0 0
408061.0 202931.0 0
404314.0 204060.0 0
412359.0 204616.0 0
416955.0 203926.0 0
421359.0 205206.0 0
425636.0 203562.0 0
431042.0 204016.0 0
437129.0 202784.0 0
441830.0 203355.0 0
450863.0 202453.0 0
455441.0 204247.0 0
461236.0 203969.0 0
467011.0 203758.0 0
472621.0 202799.0 0
478866.0 204313.0 0
484725.0 204803.0 0
489145.0 205531.0 0
492124.0 203126.0 0
496755.0 205519.0 0
1487.19 209086.0 0
7133.42 208931.0 0
12651.7 211463.0 0
17143.7 207699.0 0
23032.3 208461.0 0
30210.6 207808.0 0
28638.3 211854.0 0
34862.5 208594.0 0
39749.7 208002.0 0
43654.3 209864.0 0
48542.2 208001.0 0
53112.3 210418.0 0
57202.6 208331.0 0
63074.4 208363.0 0
68325.5 209742.0 0
73380.4 208151.0 0
72217.7 212037.0 0
78280.9 208728.0 0
83572.3 208780.0 0
88376.4 208848.0 0
92500.0 209378.0 0
97242.4 209387.0 0
101201.0 209435.0 0
105592.0 209042.0 0
111306.0 208216.0 0
116640.0 208819.0 0
122097.0 208104.0 0
126926.0 208554.0 0
131218.0 209220.0 0
136576.0 208422.0 0
142211.0 209719.0 0
147009.0 207909.0 0
151794.0 209854.0 0
157932.0 208834.0 0
167055.0 207852.0 0
163670.0 209471.0 0
171005.0 209880.0 0
176731.0 211550.0 0
182930.0 209302.0 0
193690.0 208380.0 0
189201.0 209212.0 0
198248.0 209503.0 0
203174.0 208575.0 0
207327.0 210701.0 0
212119.0 209567.0 0
216328.0 207989.0 0
221186.0 208297.0 0
226329.0 210098.0 0
231988.0 208338.0 0
236040.0 212266.0 0
242850.0 209101.0 0
248040.0 208671.0 0
252905.0 208969.0 0
257735.0 207999.0 0
262851.0 211643.0 0
267607.0 208642.0 0
272707.0 210283.0 0
278483.0 209468.0 0
283575.0 208919.0 0
288838.0 208144.0 0
293489.0 209138.0 0
297508.0 210516.0 0
302639.0 208995.0 0
307135.0 209354.0 0
311961.0 209070.0 0
316993.0 207980.0 0
322322.0 208674.0 0
330970.0 208787.0 0
327178.0 209504.0 0
341490.0 208236.0 0
337100.0 209158.0 0
346720.0 210155.0 0
351638.0 210351.0 0
355603.0 212490.0 0
357888.0 208198.0 0
362976.0 208989.0 0
370199.0 210156.0 0
374573.0 210195.0 0
383267.0 208584.0 0
388188.0 208598.0 0
392176.0 211356.0 0
397907.0 209987.0 0
403062.0 208043.0 0
408167.0 207781.0 0
411959.0 212375.0 0
414658.0 208249.0 0
417916.0 209466.0 0
422469.0 210070.0 0
427474.0 208034.0 0
427259.0 212286.0 0
431219.0 209445.0 0
436088.0 207757.0 0
441960.0 209016.0 0
448298.0 207440.0 0
454007.0 209392.0 0
459423.0 209562.0 0
464957.0 208841.0 0
473860.0 208022.0 0
469621.0 209695.0 0
477650.0 211075.0 0
481991.0 209273.0 0
486777.0 209146.0 0
492179.0 209701.0 0
497459.0 211253.0 0
2747.45 213126.0 0
7839.1 215429.0 0
13601.2 217307.0 0
18082.0 213465.0 0
23735.9 214215.0 0
28766.7 217196.0 0
33609.2 214148.0 0
39106.5 212840.0 0
43708.3 214073.0 0
48655.5 213971.0 0
54150.3 215118.0 0
59698.7 213347.0 0
64851.1 214442.0 0
68274.8 213966.0 0
76328.3 213636.0 0
71709.2 217372.0 0
81950.9 214206.0 0
87895.1 213919.0 0
92643.7 214326.0 0
96911.4 213959.0 0
101495.0 214079.0 0
106439.0 214378.0 0
111044.0 213064.0 0
115385.0 213535.0 0
120869.0 214123.0 0
127440.0 213817.0 0
133298.0 213674.0 0
138722.0 214161.0 0
143739.0 214327.0 0
148384.0 213940.0 0
152801.0 214429.0 0
157001.0 214534.0 0
161433.0 213308.0 0
166775.0 213205.0 0
172243.0 215661.0 0
177068.0 215876.0 0
181353.0 215922.0 0
186873.0 214204.0 0
192402.0 213723.0 0
197837.0 215211.0 0
202621.0 213140.0 0
206608.0 215308.0 0
210632.0 214103.0 0
216377.0 213879.0 0
222679.0 213967.0 0
228326.0 215642.0 0
233994.0 216794.0 0
240961.0 214695.0 0
246443.0 215239.0 0
250929.0 213127.0 0
252350.0 217438.0 0
256786.0 214207.0 0
268279.0 214029.0 0
272899.0 215177.0 0
277858.0 215478.0 0
282089.0 212850.0 0
287111.0 214229.0 0
293045.0 213552.0 0
297888.0 215853.0 0
301879.0 212919.0 0
306183.0 214831.0 0
311441.0 214785.0 0
316880.0 213104.0 0
322350.0 214592.0 0
328012.0 214119.0 0
333897.0 213032.0 0
337582.0 216401.0 0
342256.0 214205.0 0
348029.0 214923.0 0
352338.0 214630.0 0
356048.0 217085.0 0
360548.0 213748.0 0
366543.0 213841.0 0
372551.0 215123.0 0
378574.0 213546.0 0
383445.0 212721.0 0
387265.0 213077.0 0
383527.0 217167.0 0
390784.0 216003.0 0
396056.0 215809.0 0
400407.0 214262.0 0
405322.0 213281.0 0
417758.0 214259.0 0
422948.0 214936.0 0
432213.0 214019.0 0
437063.0 213083.0 0
441838.0 214621.0 0
447099.0 213607.0 0
452634.0 214584.0 0
458100.0 214925.0 0
462539.0 214502.0 0
466543.0 213517.0 0
471804.0 214254.0 0
476949.0 215797.0 0
482257.0 214628.0 0
487737.0 213994.0 0
492479.0 215521.0 0
497461.0 216335.0 0
3050.89 218923.0 0
8747.48 221324.0 0
18365.8 221047.0 0
23867.5 219914.0 0
33707.7 219849.0 0
38522.9 218026.0 0
43248.9 218330.0 0
49652.3 218860.0 0
46370.6 222675.0 0
53675.1 219865.0 0
58558.9 219217.0 0
63408.5 218393.0 0
67000.9 218840.0 0
68666.7 222135.0 0
77982.8 218939.0 0
83405.6 220281.0 0
88027.4 218952.0 0
93065.7 218946.0 0
97994.2 218431.0 0
98575.2 222609.0 0
105793.0 218814.0 0
102082.0 220058.0 0
110775.0 218409.0 0
116652.0 218311.0 0
126508.0 219045.0 0
122668.0 219623.0 0
131217.0 218380.0 0
128396.0 222462.0 0
135243.0 220201.0 0
139768.0 219708.0 0
145122.0 218913.0 0
150866.0 218980.0 0
156896.0 219892.0 0
162044.0 217968.0 0
167186.0 218302.0 0
171465.0 220982.0 0
176190.0 219604.0 0
180979.0 221525.0 0
185799.0 219491.0 0
191581.0 219603.0 0
197327.0 220741.0 0
202633.0 218590.0 0
207601.0 219325.0 0
212129.0 218486.0 0
217208.0 220266.0 0
223342.0 219936.0 0
228972.0 221631.0 0
233403.0 221259.0 0
238451.0 220444.0 0
243831.0 219757.0 0
248954.0 219375.0 0
255550.0 220305.0 0
262545.0 218824.0 0
268734.0 218998.0 0
273492.0 219721.0 0
278391.0 220868.0 0
282799.0 218235.0 0
287967.0 220244.0 0
293208.0 218885.0 0
297716.0 221114.0 0
302615.0 218762.0 0
308395.0 219735.0 0
313173.0 219344.0 0
317434.0 218836.0 0
325907.0 218222.0 0
322176.0 220163.0 0
330030.0 219258.0 0
335093.0 219811.0 0
340359.0 220212.0 0
345969.0 220983.0 0
351123.0 219100.0 0
356409.0 222617.0 0
360849.0 219623.0 0
366467.0 219584.0 0
371167.0 220058.0 0
377247.0 220770.0 0
387815.0 220365.0 0
392752.0 220354.0 0
398353.0 221330.0 0
403869.0 219310.0 0
409478.0 217968.0 0
414448.0 218267.0 0
417745.0 218393.0 0
417008.0 222125.0 0
420932.0 218743.0 0
427635.0 218775.0 0
433309.0 218377.0 0
437894.0 218056.0 0
442662.0 219509.0 0
448512.0 219488.0 0
453990.0 219449.0 0
458528.0 219894.0 0
462977.0 219646.0 0
467785.0 218496.0 0
472977.0 219985.0 0
479949.0 219722.0 0
484277.0 219557.0 0
488517.0 219123.0 0
492609.0 219677.0 0
497772.0 221093.0 0
2142.5 224790.0 0
7227.09 227392.0 0
13671.1 224934.0 0
18593.5 225986.0 0
22330.6 224393.0 0
27477.7 224792.0 0
32317.6 224099.0 0
32586.0 227572.0 0
37255.4 224651.0 0
42424.9 225952.0 0
51397.5 225072.0 0
57385.9 225346.0 0
63626.7 223562.0 0
73538.4 225195.0 0
79801.6 224426.0 0
85106.2 225192.0 0
90117.4 223441.0 0
95020.5 225313.0 0
101279.0 225953.0 0
105624.0 223321.0 0
111324.0 224748.0 0
118223.0 223877.0 0
123830.0 224150.0 0
133276.0 224536.0 0
137503.0 227598.0 0
137795.0 223640.0 0
141898.0 224511.0 0
147417.0 224226.0 0
152988.0 224195.0 0
157252.0 225783.0 0
161800.0 223536.0 0
167157.0 223272.0 0
170772.0 225011.0 0
176895.0 224596.0 0
182336.0 226342.0 0
186900.0 224515.0 0
191549.0 224907.0 0
196363.0 226190.0 0
201658.0 224070.0 0
207187.0 224297.0 0
213023.0 224037.0 0
219811.0 225360.0 0
224920.0 225252.0 0
228662.0 225726.0 0
232722.0 225027.0 0
236995.0 225688.0 0
242076.0 223988.0 0
246534.0 223746.0 0
251477.0 223309.0 0
257761.0 225578.0 0
262734.0 224895.0 0
268245.0 224613.0 0
274060.0 224680.0 0
279358.0 226390.0 0
284569.0 224315.0 0
289671.0 225189.0 0
293284.0 223334.0 0
296590.0 226049.0 0
302339.0 224517.0 0
307427.0 225016.0 0
312020.0 223505.0 0
316758.0 223430.0 0
321319.0 225293.0 0
326416.0 223748.0 0
331723.0 224235.0 0
337289.0 225476.0 0
342892.0 225552.0 0
346862.0 225551.0 0
351194.0 224276.0 0
361714.0 225725.0 0
367006.0 224453.0 0
371687.0 224539.0 0
382226.0 224687.0 0
378370.0 227377.0 0
386911.0 225087.0 0
391463.0 224863.0 0
395535.0 225633.0 0
400540.0 226430.0 0
405872.0 225094.0 0
411615.0 223480.0 0
417196.0 227251.0 0
422652.0 223722.0 0
428255.0 224858.0 0
432988.0 223019.0 0
438710.0 223701.0 0
444683.0 224400.0 0
450492.0 226153.0 0
455646.0 223849.0 0
461344.0 224770.0 0
468701.0 223721.0 0
465810.0 226395.0 0
473157.0 225538.0 0
477808.0 224246.0 0
482451.0 224385.0 0
486607.0 223299.0 0
486641.0 227502.0 0
490662.0 223713.0 0
495014.0 225075.0 0
2238.66 229363.0 0
12433.6 230993.0 0
18040.2 230437.0 0
23268.3 229243.0 0
29045.8 230771.0 0
35972.0 230434.0 0
41012.6 230182.0 0
46982.3 229148.0 0
52812.1 229786.0 0
57593.1 231505.0 0
62182.9 228955.0 0
67949.1 229016.0 0
73638.2 231900.0 0
78092.5 229027.0 0
82809.8 229921.0 0
88766.6 229721.0 0
93959.7 230163.0 0
97838.8 228668.0 0
101250.0 230238.0 0
105726.0 228811.0 0
110246.0 230173.0 0
115524.0 229749.0 0
121628.0 228975.0 0
128124.0 228503.0 0
133716.0 229370.0 0
142032.0 229778.0 0
148124.0 230802.0 0
153552.0 229012.0 0
157994.0 229961.0 0
163113.0 229374.0 0
173365.0 228254.0 0
168449.0 228542.0 0
177766.0 229039.0 0
181601.0 230911.0 0
186466.0 229780.0 0
191582.0 229418.0 0
195898.0 231942.0 0
201130.0 229660.0 0
207151.0 230374.0 0
212107.0 228964.0 0
216826.0 230148.0 0
221596.0 230992.0 0
226061.0 229784.0 0
231011.0 229086.0 0
235869.0 230323.0 0
241278.0 228900.0 0
246723.0 228681.0 0
252421.0 228822.0 0
257588.0 230805.0 0
263743.0 230391.0 0
269636.0 230268.0 0
274612.0 229655.0 0
279891.0 231736.0 0
283983.0 228769.0 0
288568.0 230207.0 0
292628.0 228619.0 0
298692.0 230805.0 0
303617.0 229490.0 0
307764.0 229374.0 0
312276.0 228736.0 0
317548.0 228425.0 0
323368.0 230271.0 0
328013.0 228406.0 0
332720.0 229343.0 0
337390.0 230789.0 0
341960.0 229480.0 0
345526.0 229269.0 0
349563.0 228473.0 0
355372.0 228832.0 0
360703.0 230911.0 0
366532.0 229174.0 0
373461.0 229685.0 0
378308.0 231872.0 0
383175.0 230332.0 0
388096.0 229486.0 0
392602.0 229232.0 0
397133.0 229483.0 0
408077.0 229847.0 0
403374.0 230570.0 0
412533.0 228721.0 0
421046.0 229298.0 0
418451.0 232665.0 0
425390.0 228905.0 0
431956.0 228665.0 0
428738.0 232697.0 0
437674.0 229937.0 0
443657.0 229978.0 0
450713.0 232583.0 0
454486.0 229099.0 0
458772.0 230056.0 0
463923.0 229873.0 0
469279.0 229164.0 0
474354.0 230092.0 0
479071.0 229136.0 0
483693.0 230775.0 0
491438.0 229572.0 0
497411.0 229696.0 0
2123.46 233729.0 0
6949.83 233248.0 0
8518.18 237756.0 0
12547.3 236401.0 0
16004.8 234424.0 0
20032.7 234712.0 0
24879.9 234491.0 0
32191.6 235130.0 0
37665.2 236044.0 0
43301.8 234623.0 0
48672.1 235138.0 0
53560.8 234302.0 0
57431.5 236414.0 0
62542.0 234196.0 0
67217.9 234283.0 0
71125.7 236671.0 0
79066.6 234557.0 0
84505.1 234535.0 0
88571.0 234756.0 0
92508.1 234230.0 0
97469.2 233059.0 0
102453.0 234660.0 0
107195.0 233561.0 0
111839.0 234335.0 0
117997.0 235256.0 0
123254.0 234205.0 0
127772.0 233889.0 0
132825.0 234440.0 0
138529.0 233707.0 0
143147.0 234598.0 0
151876.0 234592.0 0
147991.0 236777.0 0
156563.0 234790.0 0
161569.0 234309.0 0
166880.0 233414.0 0
173246.0 234472.0 0
178604.0 234619.0 0
183558.0 235551.0 0
189469.0 234625.0 0
193917.0 235763.0 0
199741.0 234657.0 0
203873.0 235239.0 0
208376.0 235509.0 0
212777.0 233592.0 0
219044.0 234908.0 0
223358.0 234456.0 0
227640.0 234483.0 0
232480.0 233845.0 0
237809.0 234742.0 0
242361.0 235247.0 0
246764.0 233516.0 0
251943.0 235076.0 0
257453.0 235102.0 0
262281.0 236606.0 0
267706.0 234451.0 0
271776.0 234043.0 0
272495.0 237937.0 0
276112.0 234486.0 0
284246.0 233182.0 0
288538.0 235444.0 0
293562.0 233163.0 0
298781.0 235564.0 0
302598.0 234361.0 0
306693.0 233256.0 0
306832.0 237984.0 0
311698.0 234420.0 0
316849.0 233265.0 0
321350.0 235155.0 0
324900.0 234156.0 0
328716.0 233115.0 0
334178.0 234962.0 0
339630.0 234661.0 0
344191.0 233483.0 0
350147.0 234127.0 0
356759.0 235677.0 0
363294.0 235569.0 0
369429.0 233967.0 0
374946.0 235007.0 0
379760.0 235840.0 0
384044.0 235870.0 0
388127.0 233981.0 0
393197.0 234299.0 0
397964.0 233653.0 0
402019.0 234898.0 0
406616.0 234471.0 0
412756.0 234614.0 0
423565.0 234031.0 0
433887.0 235175.0 0
440197.0 236095.0 0
445496.0 234689.0 0
448667.0 237213.0 0
456137.0 234210.0 0
458549.0 238041.0 0
463202.0 233914.0 0
460055.0 234625.0 0
467453.0 234435.0 0
472541.0 234395.0 0
477864.0 234465.0 0
482747.0 235024.0 0
487585.0 234020.0 0
492458.0 234770.0 0
497811.0 234457.0 0
3066.51 238837.0 0
7507.43 242183.0 0
12202.0 240950.0 0
16393.9 238586.0 0
21280.6 239616.0 0
27433.0 239855.0 0
32656.2 239013.0 0
32864.7 243123.0 0
37724.0 241412.0 0
42240.1 239763.0 0
47938.3 240643.0 0
53255.7 239270.0 0
58922.9 240295.0 0
62501.7 238618.0 0
66932.2 238719.0 0
71384.2 240849.0 0
76192.4 239727.0 0
80900.2 242415.0 0
82325.0 238146.0 0
86366.6 238470.0 0
91231.4 239291.0 0
96586.1 238176.0 0
101329.0 239320.0 0
106453.0 238729.0 0
112401.0 239845.0 0
118083.0 240678.0 0
123231.0 239455.0 0
128389.0 238391.0 0
133241.0 239923.0 0
138702.0 239437.0 0
143910.0 238638.0 0
146832.0 241019.0 0
143089.0 242761.0 0
152623.0 239043.0 0
150635.0 242988.0 0
157971.0 239284.0 0
155608.0 243069.0 0
162826.0 238444.0 0
168106.0 238865.0 0
172591.0 240162.0 0
177259.0 239894.0 0
182438.0 240503.0 0
187100.0 239511.0 0
192277.0 239786.0 0
197942.0 239377.0 0
202916.0 239223.0 0
207323.0 240207.0 0
212062.0 238538.0 0
217210.0 239981.0 0
222465.0 238686.0 0
227448.0 240022.0 0
232465.0 238551.0 0
231519.0 242716.0 0
237105.0 239046.0 0
235501.0 243141.0 0
241399.0 239707.0 0
246133.0 238527.0 0
250375.0 240100.0 0
254552.0 239569.0 0
258845.0 240221.0 0
267432.0 239780.0 0
272430.0 242588.0 0
277185.0 239778.0 0
283122.0 238564.0 0
288134.0 239993.0 0
292682.0 238757.0 0
297294.0 239495.0 0
302014.0 239435.0 0
306733.0 242858.0 0
316045.0 238157.0 0
311357.0 239886.0 0
320410.0 239568.0 0
326146.0 238942.0 0
332581.0 241009.0 0
338278.0 239992.0 0
343333.0 238420.0 0
345192.0 242829.0 0
348085.0 239567.0 0
353200.0 240125.0 0
358609.0 241186.0 0
363211.0 241055.0 0
372382.0 239134.0 0
367636.0 239564.0 0
377385.0 240484.0 0
382083.0 238975.0 0
387293.0 238581.0 0
391757.0 238974.0 0
396347.0 238269.0 0
401376.0 239785.0 0
406525.0 239333.0 0
411910.0 240971.0 0
417757.0 238550.0 0
422241.0 241490.0 0
428002.0 238901.0 0
435883.0 240430.0 0
440095.0 241030.0 0
444905.0 239827.0 0
448961.0 240348.0 0
453274.0 238984.0 0
457779.0 242897.0 0
463247.0 238104.0 0
468262.0 239490.0 0
473574.0 239575.0 0
478476.0 239373.0 0
481986.0 239754.0 0
485453.0 238522.0 0
490363.0 238669.0 0
495356.0 238724.0 0
497799.0 243020.0 0
2830.08 244729.0 0
9620.01 246057.0 0
12477.3 244592.0 0
17114.1 244127.0 0
23532.5 245054.0 0
28459.1 244946.0 0
32666.5 247781.0 0
37930.9 247070.0 0
44146.7 245102.0 0
48937.6 246791.0 0
51652.8 243756.0 0
56206.7 243834.0 0
61476.0 244281.0 0
67340.1 244222.0 0
73089.8 245235.0 0
77998.1 246233.0 0
86734.3 244085.0 0
92887.1 245291.0 0
98380.3 243538.0 0
101917.0 247844.0 0
103687.0 243498.0 0
108535.0 244118.0 0
113672.0 245225.0 0
118725.0 245974.0 0
123578.0 244486.0 0
128444.0 243565.0 0
133097.0 244443.0 0
137609.0 244815.0 0
141660.0 247331.0 0
146707.0 245067.0 0
161150.0 243327.0 0
167134.0 244940.0 0
172931.0 244449.0 0
178060.0 245404.0 0
183612.0 245281.0 0
189258.0 244253.0 0
194199.0 244308.0 0
203778.0 243428.0 0
199082.0 245020.0 0
208275.0 245251.0 0
213122.0 243797.0 0
217842.0 245284.0 0
222500.0 244430.0 0
227501.0 244600.0 0
231645.0 246907.0 0
241038.0 244096.0 0
246252.0 244390.0 0
252693.0 244848.0 0
257745.0 243955.0 0
257368.0 247294.0 0
262639.0 243160.0 0
268581.0 244503.0 0
276597.0 244825.0 0
282665.0 244354.0 0
287861.0 244400.0 0
293334.0 244226.0 0
298011.0 243351.0 0
302139.0 245424.0 0
311406.0 245107.0 0
317184.0 243867.0 0
322899.0 244128.0 0
326721.0 243885.0 0
331450.0 245417.0 0
328132.0 247395.0 0
335610.0 245919.0 0
340767.0 244704.0 0
345746.0 248098.0 0
349875.0 244176.0 0
355438.0 246358.0 0
361531.0 245761.0 0
367133.0 244917.0 0
372549.0 244048.0 0
377572.0 246218.0 0
382861.0 243646.0 0
389011.0 243532.0 0
397217.0 243389.0 0
393396.0 245701.0 0
402338.0 245413.0 0
407507.0 244036.0 0
411963.0 246276.0 0
416978.0 244243.0 0
421566.0 246068.0 0
426093.0 245006.0 0
432069.0 244246.0 0
437848.0 245369.0 0
443199.0 244855.0 0
447828.0 244000.0 0
452690.0 244854.0 0
463152.0 243274.0 0
463599.0 248094.0 0
468225.0 244598.0 0
473108.0 244683.0 0
478123.0 244209.0 0
482760.0 244520.0 0
487727.0 243456.0 0
493272.0 243445.0 0
497559.0 247666.0 0
2504.88 250072.0 0
7247.13 249507.0 0
12083.0 249831.0 0
17550.4 250401.0 0
23361.0 251107.0 0
28759.2 249452.0 0
34044.4 253136.0 0
39383.4 252041.0 0
43254.0 250530.0 0
47688.3 250605.0 0
52859.0 249470.0 0
58179.8 248615.0 0
64135.3 249891.0 0
71393.7 248806.0 0
69229.4 250805.0 0
75140.5 250633.0 0
81047.8 250376.0 0
87049.7 250739.0 0
96743.7 249355.0 0
92014.1 249870.0 0
107424.0 250207.0 0
113363.0 250219.0 0
118424.0 251233.0 0
123404.0 249550.0 0
128619.0 248728.0 0
133599.0 248973.0 0
138000.0 250591.0 0
145490.0 249929.0 0
150744.0 248698.0 0
156829.0 248292.0 0
162671.0 249400.0 0
170982.0 249309.0 0
175334.0 251030.0 0
183138.0 249234.0 0
179598.0 250098.0 0
183448.0 253150.0 0
187215.0 249320.0 0
192592.0 248905.0 0
197941.0 250659.0 0
202919.0 248460.0 0
206836.0 250748.0 0
210996.0 249331.0 0
215659.0 249616.0 0
221189.0 249704.0 0
227135.0 249943.0 0
237639.0 248877.0 0
243894.0 249610.0 0
248944.0 249352.0 0
254190.0 250967.0 0
260306.0 249333.0 0
265509.0 248328.0 0
272395.0 248910.0 0
279492.0 249563.0 0
285569.0 248521.0 0
284007.0 252756.0 0
290228.0 248311.0 0
293588.0 251690.0 0
297319.0 248576.0 0
302267.0 250565.0 0
306828.0 248319.0 0
312359.0 251164.0 0
318338.0 249692.0 0
323493.0 249072.0 0
327584.0 253258.0 0
332374.0 249901.0 0
340996.0 249279.0 0
337099.0 250481.0 0
350980.0 250254.0 0
359274.0 250561.0 0
364353.0 250246.0 0
368942.0 249576.0 0
373328.0 248912.0 0
377202.0 251301.0 0
381323.0 249482.0 0
386950.0 249677.0 0
393334.0 250554.0 0
398503.0 248968.0 0
402875.0 250350.0 0
407736.0 249422.0 0
415850.0 250077.0 0
421158.0 251340.0 0
424599.0 249044.0 0
428967.0 249566.0 0
434130.0 249240.0 0
438725.0 250555.0 0
442772.0 249209.0 0
447703.0 249263.0 0
453027.0 249877.0 0
458313.0 248707.0 0
463565.0 252634.0 0
468165.0 249923.0 0
473593.0 249097.0 0
471807.0 252795.0 0
478165.0 249366.0 0
482824.0 248717.0 0
481074.0 252688.0 0
487508.0 249033.0 0
492505.0 248394.0 0
495985.0 252937.0 0
2475.3 255064.0 0
7679.23 254515.0 0
12006.5 254025.0 0
15774.9 255456.0 0
20838.9 256155.0 0
26803.6 255439.0 0
40021.8 256286.0 0
44672.4 254999.0 0
48724.9 254319.0 0
47733.9 258354.0 0
53027.5 254643.0 0
59474.1 253710.0 0
63877.8 255028.0 0
67593.3 254262.0 0
71678.9 254214.0 0
78314.8 254121.0 0
77967.9 258211.0 0
82489.7 255361.0 0
87155.2 256329.0 0
92013.9 254509.0 0
97014.2 254469.0 0
102143.0 253730.0 0
106970.0 256093.0 0
111116.0 254521.0 0
115814.0 255873.0 0
121095.0 255865.0 0
126573.0 254255.0 0
132454.0 253946.0 0
137141.0 255059.0 0
142292.0 254197.0 0
147729.0 253686.0 0
152622.0 254359.0 0
157514.0 253373.0 0
156138.0 258315.0 0
162023.0 254968.0 0
167211.0 253411.0 0
172469.0 254462.0 0
178170.0 255359.0 0
186101.0 257547.0 0
190394.0 253915.0 0
195381.0 255354.0 0
203330.0 253817.0 0
199749.0 255974.0 0
208117.0 254772.0 0
204905.0 258350.0 0
212507.0 253875.0 0
217666.0 254325.0 0
223413.0 254509.0 0
227835.0 254915.0 0
232883.0 254219.0 0
238068.0 254883.0 0
242317.0 253809.0 0
241533.0 258306.0 0
246644.0 253680.0 0
251490.0 255424.0 0
257651.0 255273.0 0
262648.0 253512.0 0
268070.0 253588.0 0
266307.0 258025.0 0
273529.0 255562.0 0
279496.0 255748.0 0
284960.0 257876.0 0
289071.0 253407.0 0
290128.0 258272.0 0
293807.0 255910.0 0
298770.0 254347.0 0
302759.0 254114.0 0
302607.0 257271.0 0
307516.0 253907.0 0
307406.0 257840.0 0
312823.0 256979.0 0
316371.0 254553.0 0
321276.0 254714.0 0
333561.0 254889.0 0
340754.0 253408.0 0
337863.0 256331.0 0
346459.0 254657.0 0
352469.0 255095.0 0
358052.0 256145.0 0
362689.0 254113.0 0
367609.0 254828.0 0
373239.0 254027.0 0
377758.0 256032.0 0
383129.0 254912.0 0
388880.0 255548.0 0
397588.0 253387.0 0
393913.0 255830.0 0
401982.0 254968.0 0
407539.0 255224.0 0
417754.0 254217.0 0
413340.0 255276.0 0
420763.0 255486.0 0
426072.0 254932.0 0
432057.0 254040.0 0
436721.0 254395.0 0
442750.0 254229.0 0
438888.0 258450.0 0
448796.0 256359.0 0
453395.0 254045.0 0
458485.0 255263.0 0
467775.0 255239.0 0
472223.0 257881.0 0
476429.0 254382.0 0
481554.0 257960.0 0
485623.0 253676.0 0
490683.0 254668.0 0
3198.45 260193.0 0
8247.37 259616.0 0
12752.5 259252.0 0
17395.9 260219.0 0
21996.3 260750.0 0
26212.0 260219.0 0
30916.7 258747.0 0
35892.4 258878.0 0
39969.1 261995.0 0
43610.3 258986.0 0
51785.1 258703.0 0
52659.7 262895.0 0
56805.7 258906.0 0
62553.7 259035.0 0
67145.1 259449.0 0
72494.1 259403.0 0
78844.3 262959.0 0
82550.5 259785.0 0
86315.4 260396.0 0
90168.1 259648.0 0
95230.4 259489.0 0
101133.0 259397.0 0
106566.0 261113.0 0
111803.0 259379.0 0
118316.0 260549.0 0
123263.0 260296.0 0
127616.0 259376.0 0
132205.0 259262.0 0
137224.0 259657.0 0
141695.0 260949.0 0
146448.0 258676.0 0
151559.0 261123.0 0
161844.0 261268.0 0
169295.0 259788.0 0
175986.0 261140.0 0
181620.0 260197.0 0
190962.0 259215.0 0
195721.0 260029.0 0
200492.0 261205.0 0
208484.0 260474.0 0
206372.0 262866.0 0
211735.0 258483.0 0
216613.0 259668.0 0
221809.0 258952.0 0
226809.0 259400.0 0
232031.0 258472.0 0
231060.0 262843.0 0
236145.0 259739.0 0
246857.0 258789.0 0
251512.0 259675.0 0
252661.0 263315.0 0
256220.0 260399.0 0
260043.0 263453.0 0
261538.0 258844.0 0
265454.0 263266.0 0
270572.0 260422.0 0
276604.0 260487.0 0
281974.0 263386.0 0
288355.0 263052.0 0
293708.0 260504.0 0
297269.0 258795.0 0
298769.0 263192.0 0
304642.0 261930.0 0
310186.0 260318.0 0
313941.0 261878.0 0
316936.0 258787.0 0
326178.0 258639.0 0
321542.0 260691.0 0
327753.0 263161.0 0
331798.0 259864.0 0
336646.0 260302.0 0
341743.0 259273.0 0
346581.0 260498.0 0
350376.0 259023.0 0
354425.0 260215.0 0
363434.0 259441.0 0
368540.0 260051.0 0
372668.0 258718.0 0
377001.0 261181.0 0
381281.0 259421.0 0
382590.0 263436.0 0
385769.0 260020.0 0
391595.0 260570.0 0
397819.0 259466.0 0
403449.0 259931.0 0
408203.0 260338.0 0
412662.0 260398.0 0
417337.0 258912.0 0
422299.0 259240.0 0
427068.0 261638.0 0
433137.0 259971.0 0
443926.0 259818.0 0
448486.0 262205.0 0
453733.0 259007.0 0
457878.0 261143.0 0
463011.0 259721.0 0
468082.0 260036.0 0
472251.0 263036.0 0
476495.0 259412.0 0
483453.0 263083.0 0
487365.0 258586.0 0
487737.0 263252.0 0
492230.0 261065.0 0
497270.0 258581.0 0
2743.09 265622.0 0
8046.65 264639.0 0
14939.7 264469.0 0
11770.0 267118.0 0
19929.0 265032.0 0
25348.7 265067.0 0
32693.4 265527.0 0
42505.3 266957.0 0
47190.6 263629.0 0
52162.2 268308.0 0
57751.4 265143.0 0
63747.8 264388.0 0
69573.5 264756.0 0
74689.6 265272.0 0
82760.8 264584.0 0
87409.4 264835.0 0
93073.1 264906.0 0
98826.3 264750.0 0
103887.0 265287.0 0
107215.0 265123.0 0
111630.0 265247.0 0
107419.0 268373.0 0
116394.0 267953.0 0
120368.0 265281.0 0
124158.0 264595.0 0
128419.0 263996.0 0
131764.0 268319.0 0
132885.0 263594.0 0
136869.0 264349.0 0
141100.0 265134.0 0
146516.0 264641.0 0
151899.0 266512.0 0
156634.0 264722.0 0
160717.0 266818.0 0
166708.0 266052.0 0
172252.0 264777.0 0
170862.0 268212.0 0
179230.0 264763.0 0
184119.0 265411.0 0
189287.0 263727.0 0
193646.0 264594.0 0
197490.0 264300.0 0
202924.0 265048.0 0
207386.0 267678.0 0
212346.0 264259.0 0
216898.0 264193.0 0
221060.0 263782.0 0
221737.0 268044.0 0
225827.0 264429.0 0
235694.0 264658.0 0
238411.0 268622.0 0
240618.0 263546.0 0
244799.0 267879.0 0
248423.0 263582.0 0
251422.0 268345.0 0
256129.0 265394.0 0
261837.0 268051.0 0
270070.0 267246.0 0
272892.0 263869.0 0
275629.0 264456.0 0
277997.0 267477.0 0
288936.0 268383.0 0
293496.0 265179.0 0
297171.0 268060.0 0
302959.0 268393.0 0
309207.0 263982.0 0
312939.0 266614.0 0
317721.0 263771.0 0
323320.0 265890.0 0
328784.0 268373.0 0
332500.0 264494.0 0
336863.0 264911.0 0
342185.0 264845.0 0
351670.0 263760.0 0
347192.0 264864.0 0
354406.0 267393.0 0
357632.0 263780.0 0
363232.0 265790.0 0
368505.0 264313.0 0
373399.0 265533.0 0
379118.0 265583.0 0
387089.0 265619.0 0
392329.0 266756.0 0
395886.0 264186.0 0
400742.0 264633.0 0
405929.0 264273.0 0
411223.0 265569.0 0
416961.0 264767.0 0
422183.0 264138.0 0
426366.0 267190.0 0
431401.0 265672.0 0
437977.0 263870.0 0
443843.0 265681.0 0
453571.0 264235.0 0
449061.0 266554.0 0
458367.0 265335.0 0
462262.0 264718.0 0
467292.0 265046.0 0
472915.0 268235.0 0
478259.0 264155.0 0
482522.0 267544.0 0
487858.0 268379.0 0
492428.0 266054.0 0
497074.0 264178.0 0
2121.9 270446.0 0
6644.84 269573.0 0
10889.4 270773.0 0
16452.3 269690.0 0
22159.0 269832.0 0
26828.8 269640.0 0
31195.6 273328.0 0
38015.8 270988.0 0
44017.6 271469.0 0
47182.2 268759.0 0
57345.0 271238.0 0
62693.5 269768.0 0
67627.3 270093.0 0
72728.2 269816.0 0
77866.1 269215.0 0
83354.2 269297.0 0
86317.3 273420.0 0
88722.4 269797.0 0
93481.6 269764.0 0
97425.2 269385.0 0
102459.0 270498.0 0
111810.0 271610.0 0
120444.0 271124.0 0
125879.0 268926.0 0
137397.0 269227.0 0
143331.0 270041.0 0
148481.0 269587.0 0
152910.0 271035.0 0
157333.0 269717.0 0
162746.0 273702.0 0
163277.0 269202.0 0
168099.0 271467.0 0
175909.0 268780.0 0
181661.0 270616.0 0
186425.0 273345.0 0
189119.0 268973.0 0
194248.0 269391.0 0
199447.0 268647.0 0
203612.0 270601.0 0
210858.0 271336.0 0
216157.0 269701.0 0
221817.0 272706.0 0
226475.0 269713.0 0
232425.0 268849.0 0
236454.0 273620.0 0
241256.0 273046.0 0
245818.0 273229.0 0
256878.0 269921.0 0
266249.0 271355.0 0
274184.0 269989.0 0
271156.0 273662.0 0
278090.0 273311.0 0
283395.0 269724.0 0
288392.0 273672.0 0
293185.0 270702.0 0
298341.0 273269.0 0
308765.0 269245.0 0
318342.0 269053.0 0
324041.0 271333.0 0
334048.0 270142.0 0
339566.0 269508.0 0
344904.0 269312.0 0
349958.0 268851.0 0
353187.0 273528.0 0
358636.0 270485.0 0
363888.0 271379.0 0
368155.0 269023.0 0
372326.0 270193.0 0
376975.0 270111.0 0
382483.0 269081.0 0
387497.0 270107.0 0
392136.0 270864.0 0
396155.0 269572.0 0
401236.0 270100.0 0
406700.0 269430.0 0
411224.0 270440.0 0
415500.0 269808.0 0
421164.0 269722.0 0
428493.0 270720.0 0
430928.0 270112.0 0
435851.0 269893.0 0
442064.0 271620.0 0
446677.0 270033.0 0
451300.0 271249.0 0
456096.0 268996.0 0
461506.0 269766.0 0
466940.0 270449.0 0
470967.0 273210.0 0
478068.0 269623.0 0
482647.0 273545.0 0
493652.0 269944.0 0
498091.0 268846.0 0
497012.0 273625.0 0
2817.73 275238.0 0
8172.33 274511.0 0
12917.5 273877.0 0
11908.3 277840.0 0
16355.7 274521.0 0
17729.1 278768.0 0
20408.0 274409.0 0
25297.0 275618.0 0
37236.8 276335.0 0
41768.4 275331.0 0
47418.3 275449.0 0
53071.8 274756.0 0
58682.3 276529.0 0
63559.4 274921.0 0
68262.0 274489.0 0
72448.1 274664.0 0
77181.4 274325.0 0
82030.6 274405.0 0
91300.2 274330.0 0
87019.6 278440.0 0
96813.8 273785.0 0
101400.0 276390.0 0
107504.0 276577.0 0
116477.0 274334.0 0
113019.0 276434.0 0
121273.0 275861.0 0
126003.0 275078.0 0
132143.0 274703.0 0
137841.0 274867.0 0
147553.0 274141.0 0
142860.0 275413.0 0
152654.0 275676.0 0
157586.0 274705.0 0
167339.0 276502.0 0
172608.0 273958.0 0
172051.0 278366.0 0
177922.0 274046.0 0
182359.0 275702.0 0
188288.0 278321.0 0
192150.0 273902.0 0
196700.0 274513.0 0
201196.0 274095.0 0
206852.0 273982.0 0
212749.0 274470.0 0
214061.0 277899.0 0
217662.0 275607.0 0
222164.0 278196.0 0
226843.0 274801.0 0
226330.0 278685.0 0
231592.0 274483.0 0
235762.0 278357.0 0
240076.0 276410.0 0
243683.0 277381.0 0
250482.0 274232.0 0
255227.0 274071.0 0
260794.0 274220.0 0
266736.0 276864.0 0
283219.0 276506.0 0
293411.0 275600.0 0
299306.0 278628.0 0
303403.0 273944.0 0
303582.0 277941.0 0
308134.0 274249.0 0
314292.0 274351.0 0
319207.0 273950.0 0
317848.0 278767.0 0
322826.0 277062.0 0
328937.0 274002.0 0
333119.0 274349.0 0
333072.0 278633.0 0
336742.0 274280.0 0
342560.0 274673.0 0
347862.0 273907.0 0
346956.0 277458.0 0
357735.0 276170.0 0
362476.0 276182.0 0
367764.0 274686.0 0
373536.0 274866.0 0
382622.0 274333.0 0
378308.0 274638.0 0
387500.0 274643.0 0
390869.0 274444.0 0
394239.0 274043.0 0
394675.0 278663.0 0
398019.0 274019.0 0
400652.0 278413.0 0
405861.0 275457.0 0
412274.0 275068.0 0
417903.0 274596.0 0
423029.0 274979.0 0
427896.0 274618.0 0
432810.0 275047.0 0
437695.0 275536.0 0
441790.0 276288.0 0
447125.0 274318.0 0
452093.0 276418.0 0
456301.0 273944.0 0
461229.0 275418.0 0
466180.0 275032.0 0
470802.0 278397.0 0
476152.0 274641.0 0
488894.0 273943.0 0
492852.0 276758.0 0
2349.52 279682.0 0
2856.82 283521.0 0
7488.63 279359.0 0
7660.86 283820.0 0
13281.6 282245.0 0
17506.1 283659.0 0
22199.6 279364.0 0
22020.3 283650.0 0
25724.8 280145.0 0
29641.3 281922.0 0
33501.2 278916.0 0
36836.6 281326.0 0
41270.5 280561.0 0
46281.6 280687.0 0
51609.3 280101.0 0
56842.2 280779.0 0
62243.3 280371.0 0
67521.4 279211.0 0
72512.3 279275.0 0
73844.2 283755.0 0
81272.9 279528.0 0
76628.4 280346.0 0
92317.1 279596.0 0
97263.6 279620.0 0
102435.0 281540.0 0
106772.0 281721.0 0
111801.0 280405.0 0
117628.0 279880.0 0
123422.0 279620.0 0
128784.0 280131.0 0
134060.0 279746.0 0
137961.0 279474.0 0
142167.0 279412.0 0
147545.0 279939.0 0
152913.0 280607.0 0
158959.0 279101.0 0
162907.0 279100.0 0
163018.0 283485.0 0
167200.0 281135.0 0
177786.0 279580.0 0
183300.0 280379.0 0
186719.0 283696.0 0
193943.0 279178.0 0
196827.0 283229.0 0
199099.0 278892.0 0
204203.0 279293.0 0
209544.0 279063.0 0
213685.0 282170.0 0
217505.0 279985.0 0
220527.0 283041.0 0
225422.0 282545.0 0
230552.0 279997.0 0
235845.0 283834.0 0
240010.0 280467.0 0
245189.0 283440.0 0
250393.0 279620.0 0
256497.0 279506.0 0
262617.0 279851.0 0
267367.0 282388.0 0
272503.0 279303.0 0
278302.0 279118.0 0
282872.0 282052.0 0
289933.0 279161.0 0
289723.0 283932.0 0
294863.0 280046.0 0
293373.0 283631.0 0
303720.0 283077.0 0
307755.0 279403.0 0
312961.0 280534.0 0
320180.0 283117.0 0
324490.0 281674.0 0
327870.0 279020.0 0
334612.0 283920.0 0
338892.0 279912.0 0
344215.0 279960.0 0
351183.0 279637.0 0
358176.0 280546.0 0
362929.0 281086.0 0
367617.0 280049.0 0
372858.0 280494.0 0
376892.0 283138.0 0
377591.0 279315.0 0
380647.0 283780.0 0
383032.0 279495.0 0
387669.0 279136.0 0
390592.0 279989.0 0
391393.0 283373.0 0
400521.0 282789.0 0
404227.0 281714.0 0
409736.0 280911.0 0
416373.0 280392.0 0
422825.0 280633.0 0
428624.0 279427.0 0
433388.0 279864.0 0
438579.0 280791.0 0
448819.0 279187.0 0
444220.0 280099.0 0
452108.0 280407.0 0
457234.0 280238.0 0
462839.0 279875.0 0
466805.0 281138.0 0
476412.0 281017.0 0
482897.0 280278.0 0
488675.0 279417.0 0
492901.0 280476.0 0
497143.0 279477.0 0
2103.92 287681.0 0
12523.7 287607.0 0
18521.8 288694.0 0
24346.2 288419.0 0
25962.7 284061.0 0
30114.2 288798.0 0
33842.8 284822.0 0
38552.4 284794.0 0
39857.6 288855.0 0
43312.1 285624.0 0
47500.0 284456.0 0
47457.1 288620.0 0
51961.2 285746.0 0
58878.0 285332.0 0
64464.2 285573.0 0
68976.0 284308.0 0
71680.1 288652.0 0
77214.8 284182.0 0
80680.2 284629.0 0
77179.9 287802.0 0
86310.1 284744.0 0
92816.1 284603.0 0
93311.0 288710.0 0
98247.2 284882.0 0
103090.0 285504.0 0
109003.0 284917.0 0
113171.0 284530.0 0
112313.0 288794.0 0
122443.0 284411.0 0
117545.0 285589.0 0
126564.0 285023.0 0
122472.0 288505.0 0
131868.0 284480.0 0
136849.0 284023.0 0
137660.0 288964.0 0
140224.0 286308.0 0
144036.0 284698.0 0
150471.0 284488.0 0
157106.0 284326.0 0
153074.0 288518.0 0
161598.0 288367.0 0
167689.0 285790.0 0
173093.0 283995.0 0
183077.0 285006.0 0
178877.0 285648.0 0
185034.0 288780.0 0
191874.0 284051.0 0
190277.0 288333.0 0
195434.0 288830.0 0
201813.0 284326.0 0
207337.0 284147.0 0
212367.0 287983.0 0
216956.0 285130.0 0
222895.0 287506.0 0
229416.0 285041.0 0
232592.0 288662.0 0
240264.0 285475.0 0
248610.0 288412.0 0
252561.0 284611.0 0
257278.0 284950.0 0
255111.0 288703.0 0
259914.0 288887.0 0
262310.0 284616.0 0
272588.0 285406.0 0
277768.0 284126.0 0
276475.0 288929.0 0
281544.0 287815.0 0
285960.0 285582.0 0
292781.0 288447.0 0
297832.0 284521.0 0
303464.0 288372.0 0
309249.0 284956.0 0
315296.0 285969.0 0
323639.0 286569.0 0
328717.0 284599.0 0
332630.0 288553.0 0
338195.0 286135.0 0
342793.0 285134.0 0
348320.0 284429.0 0
354578.0 284357.0 0
358838.0 284507.0 0
358284.0 288343.0 0
362320.0 285146.0 0
366747.0 285094.0 0
372008.0 285885.0 0
377273.0 287428.0 0
386660.0 284287.0 0
383140.0 288752.0 0
392807.0 288110.0 0
396451.0 284368.0 0
401654.0 287857.0 0
407492.0 286376.0 0
413219.0 286210.0 0
418117.0 285456.0 0
422120.0 285785.0 0
426896.0 284232.0 0
431438.0 284153.0 0
429098.0 288437.0 0
436302.0 286140.0 0
442112.0 285438.0 0
447560.0 284347.0 0
452814.0 284594.0 0
457505.0 286269.0 0
461607.0 284094.0 0
461736.0 288684.0 0
465864.0 285196.0 0
470846.0 284186.0 0
476637.0 286939.0 0
480527.0 284694.0 0
485121.0 285325.0 0
491130.0 285263.0 0
497366.0 284967.0 0
6791.93 289311.0 0
12819.0 293029.0 0
23735.6 293785.0 0
35416.0 290229.0 0
43502.3 290922.0 0
47737.8 293382.0 0
51735.0 290585.0 0
56696.0 290371.0 0
61953.6 290388.0 0
66625.6 290060.0 0
82280.7 289611.0 0
88454.5 291054.0 0
94102.0 292931.0 0
97500.0 289490.0 0
102240.0 289290.0 0
107098.0 289069.0 0
108328.0 294032.0 0
113646.0 293639.0 0
117490.0 290204.0 0
122416.0 292898.0 0
132612.0 289270.0 0
127687.0 289985.0 0
131367.0 294071.0 0
135441.0 292735.0 0
142134.0 289377.0 0
140006.0 293665.0 0
147666.0 289187.0 0
157510.0 290207.0 0
162276.0 293791.0 0
165696.0 290030.0 0
171297.0 289885.0 0
176298.0 289886.0 0
180388.0 290302.0 0
188889.0 292451.0 0
198209.0 293531.0 0
201348.0 289780.0 0
206617.0 290131.0 0
218139.0 289542.0 0
217367.0 294008.0 0
221986.0 292839.0 0
227506.0 290174.0 0
231265.0 294063.0 0
238131.0 289417.0 0
243755.0 289753.0 0
247368.0 293717.0 0
251776.0 291659.0 0
256860.0 293877.0 0
262079.0 294112.0 0
266642.0 289422.0 0
272618.0 290322.0 0
277756.0 293438.0 0
282655.0 293300.0 0
286997.0 290170.0 0
298708.0 290382.0 0
304143.0 293387.0 0
307680.0 289612.0 0
312663.0 291238.0 0
319064.0 290254.0 0
323751.0 290800.0 0
328162.0 290242.0 0
337171.0 289911.0 0
341697.0 290364.0 0
346945.0 289861.0 0
352948.0 289628.0 0
357522.0 293689.0 0
363835.0 289548.0 0
368620.0 289192.0 0
368175.0 294025.0 0
372504.0 289766.0 0
373356.0 293470.0 0
378030.0 292534.0 0
388496.0 289978.0 0
392124.0 293064.0 0
396719.0 289864.0 0
408650.0 290966.0 0
412964.0 291174.0 0
417500.0 289389.0 0
421524.0 294135.0 0
423637.0 289696.0 0
427083.0 293497.0 0
432842.0 289649.0 0
436291.0 293337.0 0
439574.0 289824.0 0
445086.0 289442.0 0
449566.0 289107.0 0
453924.0 289452.0 0
458017.0 290836.0 0
454957.0 294129.0 0
462508.0 292887.0 0
466247.0 289905.0 0
472020.0 290212.0 0
477069.0 291599.0 0
481387.0 289312.0 0
487081.0 290505.0 0
492809.0 291159.0 0
497597.0 290001.0 0
3506.34 294762.0 0
8912.76 294582.0 0
7865.21 298647.0 0
13203.1 298939.0 0
18047.1 294904.0 0
29008.8 294590.0 0
33720.9 294391.0 0
38524.1 294712.0 0
43678.4 295660.0 0
47500.0 299266.0 0
52016.1 295140.0 0
56986.5 295777.0 0
61804.1 295097.0 0
66406.8 294653.0 0
71640.8 294537.0 0
78217.8 295015.0 0
84128.1 294349.0 0
87692.7 296129.0 0
92062.9 298245.0 0
99300.7 294189.0 0
103857.0 295612.0 0
113343.0 299056.0 0
118199.0 294665.0 0
121262.0 298165.0 0
126924.0 294932.0 0
129862.0 298349.0 0
135583.0 298528.0 0
141837.0 298537.0 0
145236.0 294326.0 0
151723.0 294628.0 0
157504.0 295344.0 0
167890.0 294334.0 0
173512.0 295519.0 0
178699.0 294266.0 0
183543.0 294326.0 0
188055.0 298332.0 0
193456.0 295084.0 0
197929.0 298555.0 0
202281.0 295082.0 0
207064.0 295297.0 0
212431.0 294373.0 0
210462.0 298943.0 0
215957.0 298516.0 0
222086.0 298918.0 0
226329.0 294924.0 0
232911.0 298508.0 0
236066.0 294586.0 0
237613.0 299082.0 0
240749.0 294426.0 0
243221.0 298934.0 0
248601.0 299208.0 0
251804.0 295667.0 0
259220.0 298814.0 0
266458.0 296734.0 0
272498.0 295068.0 0
276862.0 298008.0 0
287482.0 295649.0 0
294220.0 295064.0 0
299681.0 295205.0 0
305958.0 298983.0 0
308954.0 294693.0 0
315323.0 296092.0 0
311334.0 297714.0 0
320338.0 295264.0 0
326045.0 295540.0 0
333103.0 294714.0 0
339089.0 295246.0 0
336980.0 299085.0 0
341084.0 299025.0 0
343384.0 294386.0 0
346143.0 299191.0 0
347317.0 294663.0 0
351759.0 295163.0 0
357126.0 299009.0 0
362981.0 294580.0 0
372163.0 298089.0 0
377861.0 298537.0 0
382779.0 294900.0 0
387978.0 295664.0 0
397069.0 294222.0 0
392972.0 298283.0 0
402883.0 294530.0 0
407570.0 294511.0 0
411393.0 295488.0 0
416299.0 294343.0 0
415646.0 299138.0 0
431822.0 295783.0 0
442639.0 294715.0 0
449575.0 294734.0 0
453725.0 298956.0 0
459049.0 295139.0 0
458598.0 299229.0 0
462386.0 297361.0 0
466471.0 294768.0 0
470820.0 295382.0 0
475089.0 295147.0 0
479831.0 295633.0 0
485479.0 296169.0 0
491400.0 295369.0 0
496527.0 295475.0 0
3164.7 301425.0 0
18016.5 300882.0 0
22913.6 299422.0 0
28302.9 299734.0 0
33683.2 299300.0 0
38743.7 299650.0 0
37850.8 304183.0 0
42462.0 299491.0 0
42860.5 304287.0 0
47500.0 304349.0 0
52546.1 299539.0 0
52500.0 304268.0 0
57790.4 301093.0 0
62773.4 299565.0 0
67039.4 299464.0 0
67614.2 303850.0 0
72935.3 300587.0 0
78321.3 300815.0 0
82589.4 299410.0 0
81632.8 304315.0 0
86243.9 304165.0 0
87057.6 300043.0 0
97669.6 299472.0 0
102293.0 299281.0 0
102674.0 303844.0 0
107405.0 299862.0 0
111197.0 303931.0 0
117554.0 300403.0 0
120821.0 304049.0 0
125809.0 300828.0 0
131572.0 304333.0 0
147655.0 300660.0 0
152848.0 299982.0 0
152379.0 303934.0 0
156990.0 299819.0 0
162592.0 299903.0 0
168641.0 299852.0 0
173710.0 300873.0 0
178569.0 299349.0 0
183166.0 300986.0 0
193431.0 299856.0 0
190832.0 303228.0 0
196003.0 304200.0 0
202766.0 299276.0 0
202303.0 302954.0 0
206588.0 299685.0 0
212798.0 303118.0 0
217465.0 302904.0 0
227940.0 299378.0 0
226201.0 304224.0 0
231961.0 303553.0 0
240954.0 303205.0 0
254377.0 299338.0 0
257781.0 302799.0 0
262926.0 300364.0 0
267348.0 302451.0 0
270759.0 299330.0 0
272652.0 303419.0 0
277766.0 302718.0 0
282686.0 299442.0 0
287940.0 300869.0 0
292263.0 300586.0 0
298240.0 299508.0 0
302000.0 303614.0 0
310123.0 300504.0 0
314000.0 301108.0 0
318429.0 299355.0 0
318428.0 303930.0 0
322500.0 299551.0 0
325774.0 303885.0 0
328890.0 300175.0 0
333232.0 301106.0 0
352112.0 301273.0 0
361932.0 299497.0 0
367460.0 300824.0 0
372111.0 304208.0 0
383974.0 300939.0 0
389038.0 300473.0 0
393841.0 303962.0 0
398548.0 299657.0 0
404602.0 299693.0 0
408302.0 299715.0 0
411598.0 299781.0 0
413401.0 303970.0 0
420771.0 299623.0 0
427257.0 300047.0 0
432707.0 299849.0 0
432985.0 304105.0 0
437827.0 299903.0 0
443866.0 300964.0 0
448908.0 300848.0 0
447415.0 304229.0 0
455867.0 303229.0 0
466465.0 299649.0 0
471677.0 300040.0 0
476756.0 299717.0 0
482157.0 300491.0 0
489736.0 299496.0 0
493002.0 301497.0 0
497150.0 301468.0 0
2175.05 306672.0 0
6289.35 305624.0 0
11599.1 305053.0 0
17536.7 305346.0 0
22464.4 305093.0 0
27690.7 304794.0 0
32846.9 304680.0 0
37800.7 309254.0 0
42911.0 309403.0 0
48373.5 309222.0 0
53049.3 309451.0 0
57474.6 305554.0 0
62273.9 304621.0 0
62500.0 309435.0 0
67351.0 309459.0 0
72220.4 306308.0 0
77006.6 304704.0 0
86601.4 309337.0 0
91742.0 304658.0 0
97810.3 304861.0 0
106905.0 306008.0 0
102894.0 308859.0 0
112146.0 309236.0 0
115542.0 304724.0 0
117791.0 309104.0 0
126029.0 305660.0 0
127514.0 309379.0 0
137601.0 304715.0 0
135068.0 308215.0 0
143047.0 305121.0 0
148566.0 306463.0 0
156818.0 304499.0 0
161297.0 305697.0 0
165921.0 304397.0 0
170870.0 304797.0 0
176353.0 305432.0 0
181203.0 304519.0 0
186260.0 306466.0 0
191942.0 307962.0 0
201347.0 307925.0 0
207137.0 304689.0 0
211993.0 308885.0 0
217723.0 307616.0 0
221426.0 304420.0 0
222976.0 309085.0 0
228686.0 309227.0 0
233706.0 308537.0 0
236967.0 305735.0 0
241212.0 308535.0 0
246423.0 305199.0 0
252572.0 304612.0 0
257107.0 307282.0 0
262367.0 305407.0 0
268810.0 308413.0 0
276073.0 306897.0 0
283365.0 306463.0 0
289841.0 305406.0 0
295961.0 304653.0 0
305071.0 307996.0 0
308425.0 304464.0 0
313659.0 306238.0 0
316659.0 309142.0 0
322134.0 306583.0 0
330986.0 305661.0 0
336301.0 304780.0 0
338661.0 309167.0 0
342214.0 304419.0 0
347981.0 305364.0 0
352467.0 306928.0 0
357687.0 304830.0 0
363343.0 304425.0 0
362639.0 309251.0 0
367594.0 306912.0 0
377579.0 304500.0 0
382653.0 307227.0 0
388184.0 305344.0 0
397814.0 307801.0 0
403551.0 305491.0 0
409207.0 306254.0 0
418006.0 304594.0 0
417026.0 309137.0 0
422323.0 304666.0 0
427434.0 306798.0 0
437053.0 304829.0 0
442555.0 306449.0 0
448188.0 309278.0 0
451705.0 304809.0 0
455981.0 309131.0 0
461834.0 304524.0 0
468607.0 305234.0 0
474673.0 305129.0 0
480001.0 304572.0 0
481990.0 308547.0 0
486610.0 304718.0 0
493174.0 305873.0 0
498364.0 305788.0 0
2646.97 310953.0 0
6704.61 309499.0 0
11883.5 311840.0 0
17237.6 309843.0 0
21689.7 309968.0 0
26625.9 309997.0 0
32270.3 310135.0 0
57491.6 309840.0 0
72974.1 310644.0 0
77093.6 309632.0 0
80948.9 309619.0 0
92663.7 311252.0 0
98143.4 309905.0 0
107107.0 311360.0 0
123043.0 310767.0 0
131667.0 311131.0 0
139812.0 310816.0 0
146663.0 311683.0 0
153479.0 309759.0 0
159467.0 310233.0 0
162836.0 313253.0 0
165983.0 309611.0 0
171481.0 310028.0 0
177297.0 311655.0 0
183222.0 311714.0 0
188859.0 312079.0 0
196023.0 311784.0 0
201290.0 313355.0 0
206528.0 311366.0 0
210893.0 314541.0 0
216523.0 313346.0 0
234086.0 313339.0 0
237030.0 310100.0 0
240433.0 314304.0 0
246278.0 311627.0 0
251806.0 310059.0 0
258307.0 312257.0 0
263361.0 310991.0 0
274297.0 311103.0 0
270510.0 313952.0 0
278960.0 309865.0 0
284390.0 312841.0 0
288489.0 310173.0 0
293554.0 310330.0 0
300022.0 309746.0 0
304842.0 312060.0 0
308676.0 310238.0 0
313264.0 311185.0 0
320510.0 310703.0 0
326622.0 310311.0 0
333852.0 310606.0 0
342795.0 309901.0 0
347411.0 310336.0 0
352855.0 311753.0 0
357813.0 310614.0 0
367027.0 311263.0 0
371837.0 309643.0 0
377411.0 310406.0 0
382625.0 311583.0 0
386620.0 310860.0 0
391984.0 310138.0 0
396549.0 311919.0 0
401650.0 312213.0 0
406992.0 310438.0 0
411815.0 309952.0 0
422582.0 310390.0 0
427264.0 312544.0 0
432175.0 310690.0 0
437971.0 310053.0 0
442939.0 312003.0 0
452075.0 312437.0 0
461572.0 311082.0 0
466235.0 309746.0 0
471912.0 311449.0 0
477539.0 309944.0 0
481344.0 312390.0 0
486492.0 312014.0 0
491855.0 310978.0 0
497015.0 310568.0 0
199836.0 318335.0 0
204565.0 315879.0 0
209724.0 319569.0 0
215891.0 319445.0 0
222567.0 314823.0 0
228051.0 314637.0 0
231639.0 317872.0 0
236683.0 316682.0 0
244591.0 317481.0 0
248948.0 316256.0 0
253426.0 314869.0 0
257825.0 317798.0 0
261248.0 315261.0 0
262082.0 318429.0 0
265671.0 315926.0 0
271281.0 319067.0 0
278445.0 315335.0 0
283296.0 317459.0 0
289738.0 314709.0 0
287105.0 318964.0 0
293086.0 319627.0 0
296948.0 315091.0 0
302197.0 315629.0 0
200791.0 324623.0 0
204748.0 320005.0 0
207047.0 324531.0 0
212573.0 323810.0 0
221294.0 320215.0 0
223460.0 324159.0 0
226792.0 320183.0 0
231949.0 323165.0 0
235481.0 319850.0 0
236839.0 323520.0 0
240469.0 320390.0 0
245923.0 322585.0 0
252316.0 319795.0 0
250714.0 324162.0 0
256754.0 324172.0 0
262813.0 322494.0 0
267913.0 323239.0 0
276233.0 320688.0 0
278727.0 324567.0 0
280744.0 320558.0 0
284386.0 321802.0 0
288620.0 324259.0 0
299338.0 320457.0 0
213723.0 328904.0 0
218314.0 325139.0 0
227477.0 326149.0 0
231792.0 328528.0 0
236217.0 327597.0 0
241064.0 326131.0 0
246428.0 328447.0 0
252244.0 328916.0 0
261581.0 327426.0 0
266611.0 328469.0 0
273225.0 325424.0 0
276756.0 329425.0 0
283236.0 325529.0 0
280916.0 328473.0 0
285726.0 329444.0 0
294092.0 325203.0 0
291328.0 329165.0 0
298147.0 325147.0 0
297221.0 329781.0 0
10310.7 334392.0 0
202461.0 330974.0 0
208485.0 330047.0 0
210577.0 333992.0 0
218881.0 330495.0 0
215423.0 334402.0 0
223907.0 330112.0 0
221024.0 334708.0 0
228378.0 330793.0 0
231400.0 333131.0 0
237069.0 333038.0 0
240649.0 330205.0 0
243182.0 333007.0 0
248830.0 333811.0 0
254649.0 334077.0 0
257342.0 330091.0 0
261798.0 332738.0 0
268316.0 334930.0 0
271789.0 330201.0 0
274508.0 333498.0 0
279466.0 332203.0 0
283463.0 334398.0 0
289058.0 333920.0 0
293817.0 333329.0 0
341742.0 332056.0 0
202103.0 338111.0 0
206402.0 335474.0 0
211650.0 338909.0 0
217118.0 339936.0 0
222475.0 339548.0 0
226694.0 335714.0 0
232340.0 338188.0 0
237249.0 338415.0 0
242091.0 338478.0 0
247839.0 339682.0 0
253418.0 339273.0 0
258719.0 337594.0 0
272915.0 339908.0 0
278594.0 336283.0 0
282566.0 338588.0 0
292624.0 338636.0 0
297610.0 336046.0 0
309756.0 335922.0 0
404603.0 339178.0 0
497243.0 340046.0 0
6878.9 344202.0 0
48261.5 341816.0 0
126005.0 345173.0 0
167796.0 344064.0 0
174681.0 340841.0 0
177286.0 344894.0 0
201617.0 342882.0 0
206465.0 340774.0 0
210690.0 344587.0 0
215774.0 344725.0 0
220318.0 344003.0 0
228298.0 340326.0 0
225630.0 343706.0 0
231521.0 344295.0 0
237621.0 343331.0 0
253823.0 344617.0 0
258790.0 342784.0 0
262748.0 340232.0 0
267391.0 341202.0 0
279018.0 342005.0 0
286794.0 340354.0 0
288516.0 344925.0 0
292475.0 343916.0 0
297541.0 342506.0 0
317421.0 344141.0 0
357807.0 343648.0 0
362467.0 342065.0 0
368610.0 341848.0 0
374583.0 344489.0 0
389098.0 340912.0 0
421499.0 340449.0 0
437044.0 343739.0 0
443009.0 340097.0 0
455114.0 340478.0 0
461586.0 344339.0 0
472319.0 341221.0 0
476569.0 344465.0 0
492537.0 342198.0 0
14254.8 348755.0 0
22442.4 350070.0 0
30433.9 349975.0 0
56374.4 345730.0 0
63868.7 345739.0 0
68827.6 346758.0 0
75161.9 348794.0 0
79658.9 347493.0 0
85031.3 348191.0 0
96187.4 346006.0 0
100416.0 345453.0 0
107589.0 347190.0 0
111005.0 349035.0 0
115161.0 347492.0 0
121008.0 347385.0 0
131855.0 349496.0 0
137504.0 348509.0 0
154054.0 347795.0 0
158565.0 347189.0 0
173221.0 349917.0 0
178734.0 348263.0 0
191569.0 346046.0 0
196244.0 346974.0 0
201092.0 347235.0 0
205406.0 345664.0 0
208258.0 348658.0 0
213492.0 349465.0 0
218024.0 348445.0 0
222491.0 348179.0 0
227602.0 348973.0 0
233140.0 350014.0 0
238255.0 349409.0 0
242369.0 346411.0 0
248080.0 345694.0 0
245440.0 350212.0 0
258883.0 347192.0 0
255449.0 349170.0 0
263544.0 345335.0 0
261658.0 349587.0 0
269161.0 346313.0 0
274220.0 345116.0 0
273025.0 349372.0 0
277724.0 348812.0 0
284022.0 345371.0 0
282072.0 349245.0 0
287490.0 349086.0 0
292688.0 348916.0 0
297181.0 347504.0 0
309917.0 347427.0 0
322450.0 345532.0 0
322451.0 350244.0 0
391310.0 347591.0 0
396056.0 349029.0 0
417127.0 350095.0 0
423600.0 348400.0 0
449230.0 350111.0 0
466760.0 349601.0 0
471850.0 348198.0 0
481239.0 345558.0 0
497839.0 349497.0 0
8032.23 354391.0 0
17655.2 352071.0 0
36537.1 350508.0 0
40985.6 354913.0 0
48339.7 352720.0 0
53010.0 352717.0 0
88220.9 354181.0 0
93065.2 352107.0 0
97919.2 354232.0 0
119144.0 354381.0 0
124394.0 352308.0 0
142262.0 350762.0 0
146000.0 354213.0 0
150902.0 352084.0 0
169989.0 355169.0 0
178041.0 351764.0 0
199866.0 355122.0 0
204318.0 350290.0 0
209656.0 352995.0 0
215390.0 354970.0 0
220423.0 352326.0 0
226253.0 353978.0 0
231002.0 354847.0 0
236534.0 354469.0 0
241835.0 351208.0 0
241547.0 354969.0 0
250951.0 350585.0 0
253360.0 355037.0 0
257829.0 353023.0 0
262721.0 353789.0 0
267151.0 351313.0 0
271637.0 353772.0 0
280569.0 353433.0 0
284447.0 351602.0 0
287680.0 354026.0 0
292299.0 353803.0 0
296628.0 351889.0 0
300129.0 354544.0 0
304499.0 354886.0 0
308667.0 354092.0 0
318273.0 354267.0 0
326630.0 351003.0 0
330913.0 351277.0 0
335045.0 353937.0 0
339605.0 350621.0 0
345114.0 352813.0 0
383595.0 355024.0 0
388723.0 352106.0 0
393964.0 353912.0 0
407296.0 353182.0 0
422388.0 353867.0 0
426612.0 351969.0 0
431907.0 352672.0 0
436080.0 354509.0 0
439714.0 350960.0 0
444222.0 353218.0 0
458451.0 352977.0 0
462790.0 350788.0 0
479717.0 350841.0 0
484429.0 350921.0 0
489239.0 353846.0 0
2630.74 357362.0 0
14588.8 355579.0 0
18911.2 357906.0 0
30589.4 356177.0 0
27252.5 360229.0 0
37311.7 358508.0 0
45936.2 356388.0 0
54909.3 359378.0 0
60744.6 360426.0 0
85759.2 359397.0 0
91010.0 359529.0 0
92904.6 357116.0 0
96476.5 358554.0 0
102310.0 356339.0 0
105708.0 359429.0 0
113050.0 356397.0 0
126271.0 356518.0 0
132649.0 359869.0 0
137102.0 357967.0 0
155278.0 355450.0 0
166525.0 359225.0 0
177695.0 355945.0 0
183190.0 357665.0 0
189019.0 356315.0 0
194878.0 357374.0 0
204760.0 355407.0 0
208993.0 358398.0 0
218662.0 360093.0 0
222420.0 356584.0 0
226829.0 358808.0 0
232024.0 360068.0 0
237408.0 359884.0 0
242568.0 359601.0 0
247316.0 355670.0 0
252169.0 359961.0 0
257543.0 358476.0 0
262621.0 358462.0 0
267168.0 356651.0 0
272389.0 359447.0 0
276053.0 355338.0 0
278221.0 359466.0 0
283947.0 358298.0 0
290564.0 359227.0 0
295965.0 356781.0 0
305435.0 358753.0 0
309710.0 358233.0 0
314008.0 356966.0 0
342100.0 356217.0 0
348027.0 356368.0 0
360427.0 359171.0 0
364960.0 355386.0 0
368659.0 358087.0 0
377600.0 356235.0 0
385623.0 359757.0 0
390689.0 356034.0 0
394399.0 358702.0 0
398809.0 356064.0 0
398411.0 360081.0 0
403236.0 356935.0 0
412976.0 355504.0 0
415149.0 359947.0 0
431773.0 358195.0 0
473827.0 357626.0 0
478880.0 356061.0 0
483291.0 359659.0 0
492521.0 357844.0 0
497266.0 357601.0 0
1396.45 365455.0 0
4199.3 362464.0 0
10165.2 360614.0 0
8211.1 364421.0 0
21754.0 364061.0 0
31965.1 362714.0 0
44551.6 361870.0 0
49617.5 362805.0 0
53511.7 364347.0 0
65233.2 363570.0 0
73247.1 362464.0 0
79511.2 363152.0 0
97591.4 364157.0 0
100409.0 360722.0 0
101262.0 365273.0 0
118177.0 361717.0 0
122349.0 363698.0 0
127560.0 361259.0 0
140005.0 362169.0 0
145849.0 362191.0 0
157949.0 364360.0 0
169946.0 362929.0 0
175268.0 361288.0 0
182182.0 362886.0 0
204328.0 360891.0 0
208719.0 363693.0 0
213274.0 361472.0 0
223008.0 360479.0 0
221746.0 364377.0 0
226537.0 363766.0 0
231178.0 365395.0 0
242749.0 364627.0 0
247275.0 362044.0 0
251153.0 365117.0 0
255740.0 363730.0 0
261578.0 364028.0 0
265869.0 362267.0 0
275960.0 365253.0 0
281362.0 362866.0 0
286277.0 363895.0 0
295788.0 362978.0 0
301459.0 361989.0 0
305143.0 365436.0 0
308877.0 362853.0 0
312838.0 362414.0 0
329664.0 364566.0 0
335146.0 361458.0 0
341655.0 361108.0 0
350864.0 363969.0 0
368277.0 363586.0 0
373952.0 360668.0 0
380954.0 361017.0 0
388239.0 362991.0 0
402468.0 361837.0 0
406830.0 364450.0 0
411664.0 362944.0 0
440796.0 363448.0 0
462565.0 360609.0 0
468005.0 362267.0 0
472750.0 363301.0 0
488293.0 361107.0 0
494690.0 362551.0 0
498185.0 365644.0 0
1684.88 375481.0 0
9024.03 369300.0 0
5438.75 375286.0 0
11918.3 365896.0 0
16619.0 365365.0 0
18683.8 375195.0 0
22148.9 369548.0 0
22584.6 375381.0 0
27562.5 370573.0 0
31735.3 367471.0 0
31922.7 375046.0 0
36095.3 366708.0 0
40517.2 366338.0 0
42513.6 369976.0 0
47220.3 370692.0 0
49918.5 375288.0 0
55238.8 368552.0 0
58526.9 372894.0 0
62400.2 375239.0 0
65928.6 372297.0 0
70928.6 369016.0 0
75905.5 367760.0 0
75503.1 375148.0 0
80363.8 375090.0 0
85103.1 375061.0 0
87657.0 370394.0 0
89366.5 375080.0 0
93994.0 375264.0 0
99393.1 375380.0 0
102853.0 370464.0 0
107075.0 371263.0 0
111246.0 375095.0 0
116057.0 368519.0 0
121435.0 369386.0 0
125812.0 365025.0 0
124173.0 372700.0 0
127142.0 368653.0 0
131823.0 366087.0 0
138042.0 367539.0 0
134395.0 370200.0 0
139352.0 375622.0 0
143463.0 370603.0 0
145629.0 374095.0 0
150246.0 365607.0 0
153972.0 371558.0 0
158317.0 370195.0 0
162386.0 365140.0 0
162016.0 371856.0 0
164026.0 375260.0 0
166756.0 367716.0 0
170963.0 369523.0 0
178364.0 364780.0 0
173828.0 366084.0 0
175572.0 375025.0 0
178901.0 372467.0 0
178743.0 368886.0 0
183192.0 367552.0 0
188748.0 369625.0 0
193910.0 372090.0 0
198684.0 370030.0 0
204187.0 366496.0 0
208689.0 369143.0 0
212276.0 366326.0 0
217111.0 366773.0 0
222261.0 369577.0 0
227793.0 369649.0 0
233227.0 370397.0 0
237092.0 365826.0 0
244219.0 370008.0 0
247502.0 366481.0 0
249585.0 369847.0 0
254047.0 370442.0 0
259180.0 368438.0 0
265075.0 367157.0 0
269695.0 366254.0 0
267810.0 370704.0 0
272411.0 370645.0 0
282005.0 367801.0 0
287111.0 370168.0 0
291269.0 366517.0 0
295753.0 368519.0 0
301804.0 375257.0 0
305591.0 375083.0 0
308573.0 375046.0 0
310210.0 370275.0 0
315850.0 371820.0 0
321203.0 365954.0 0
315481.0 366450.0 0
325908.0 368845.0 0
329675.0 370763.0 0
332692.0 368949.0 0
333058.0 375427.0 0
341295.0 375292.0 0
342126.0 377771.0 0
337074.0 375050.0 0
344496.0 375256.0 0
345971.0 366201.0 0
350811.0 375073.0 0
355933.0 365672.0 0
355032.0 375071.0 0
359607.0 369163.0 0
364930.0 368477.0 0
367074.0 375096.0 0
371727.0 375374.0 0
371614.0 367961.0 0
376852.0 365768.0 0
380009.0 375091.0 0
382881.0 368659.0 0
387966.0 371840.0 0
390565.0 375455.0 0
392773.0 367460.0 0
397327.0 365297.0 0
402414.0 366597.0 0
405523.0 369560.0 0
409521.0 375295.0 0
413287.0 375448.0 0
417627.0 364759.0 0
417009.0 375523.0 0
422929.0 370962.0 0
418332.0 369917.0 0
425507.0 375177.0 0
430432.0 367508.0 0
435876.0 365842.0 0
443743.0 367737.0 0
440263.0 375228.0 0
448507.0 365827.0 0
449105.0 370643.0 0
453556.0 372232.0 0
457332.0 369351.0 0
460250.0 375365.0 0
463509.0 369359.0 0
468157.0 375215.0 0
473584.0 367652.0 0
470782.0 370863.0 0
478374.0 368920.0 0
474624.0 372814.0 0
481881.0 373092.0 0
485802.0 375461.0 0
488961.0 375511.0 0
490340.0 365692.0 0
492562.0 369545.0 0
497348.0 370541.0 0
4814.57 378501.0 0
1493.11 378556.0 0
9565.33 376311.0 0
13968.4 375222.0 0
12432.1 379139.0 0
15757.9 378077.0 0
18817.2 378831.0 0
21688.6 377898.0 0
25359.0 375593.0 0
23940.4 379034.0 0
26732.1 378491.0 0
28504.4 376105.0 0
31223.1 378715.0 0
34327.5 377467.0 0
36166.6 375314.0 0
40038.2 375188.0 0
38245.3 378662.0 0
43103.8 375846.0 0
46151.4 375557.0 0
42090.7 378696.0 0
45458.8 379294.0 0
49300.3 378672.0 0
53790.9 375364.0 0
53031.4 379046.0 0
57002.3 375879.0 0
59763.8 377163.0 0
56610.4 378761.0 0
59133.9 380740.0 0
63404.2 378186.0 0
66502.5 377341.0 0
62440.0 380918.0 0
69216.3 375370.0 0
69770.7 380473.0 0
72470.5 377138.0 0
75385.3 380245.0 0
77365.8 377751.0 0
86772.6 378414.0 0
82706.5 378033.0 0
91259.3 379043.0 0
95719.8 379549.0 0
99931.3 379743.0 0
104159.0 375896.0 0
107613.0 376174.0 0
103404.0 379907.0 0
107087.0 380007.0 0
110345.0 378886.0 0
111308.0 381447.0 0
115597.0 375542.0 0
114690.0 379232.0 0
119025.0 375760.0 0
122065.0 375964.0 0
122059.0 379494.0 0
120920.0 372824.0 0
128268.0 375325.0 0
125024.0 377183.0 0
132237.0 375499.0 0
128409.0 379361.0 0
131388.0 378537.0 0
136693.0 370337.0 0
134927.0 377801.0 0
138165.0 378825.0 0
136084.0 375098.0 0
142649.0 376789.0 0
146515.0 378073.0 0
149609.0 374650.0 0
153642.0 375610.0 0
151457.0 378549.0 0
157121.0 375433.0 0
155504.0 378497.0 0
160762.0 376487.0 0
167474.0 375207.0 0
164613.0 378092.0 0
167370.0 377972.0 0
171357.0 377085.0 0
175829.0 378384.0 0
178853.0 376574.0 0
181947.0 375283.0 0
185624.0 375258.0 0
184465.0 377582.0 0
189536.0 376792.0 0
193427.0 376922.0 0
196075.0 376080.0 0
195211.0 380288.0 0
198925.0 375453.0 0
203680.0 372121.0 0
213397.0 370992.0 0
208976.0 374583.0 0
218258.0 373178.0 0
223563.0 374572.0 0
229310.0 374632.0 0
234169.0 375549.0 0
238569.0 372210.0 0
242682.0 375766.0 0
247804.0 374662.0 0
252092.0 373782.0 0
255897.0 375447.0 0
263695.0 371143.0 0
260792.0 374539.0 0
265397.0 375012.0 0
269892.0 374774.0 0
277632.0 371549.0 0
282657.0 373131.0 0
292145.0 371709.0 0
300919.0 378931.0 0
296492.0 372501.0 0
305403.0 377671.0 0
309339.0 377934.0 0
316336.0 376214.0 0
312774.0 375953.0 0
315912.0 379398.0 0
319761.0 375265.0 0
319645.0 379270.0 0
323650.0 375241.0 0
323117.0 378048.0 0
326845.0 375581.0 0
330210.0 375330.0 0
326402.0 379589.0 0
330020.0 378373.0 0
333736.0 378847.0 0
338761.0 379306.0 0
347568.0 375295.0 0
344486.0 378037.0 0
346107.0 380294.0 0
347758.0 377742.0 0
351437.0 378299.0 0
356203.0 379440.0 0
359142.0 375322.0 0
362825.0 372777.0 0
361220.0 377424.0 0
363287.0 380504.0 0
364419.0 376959.0 0
368612.0 377369.0 0
375180.0 375571.0 0
376510.0 371581.0 0
374946.0 377786.0 0
377767.0 376661.0 0
381723.0 377344.0 0
383468.0 375111.0 0
385739.0 376485.0 0
388236.0 376243.0 0
388907.0 379613.0 0
392019.0 378565.0 0
394223.0 375509.0 0
396066.0 379457.0 0
398713.0 375486.0 0
402301.0 375998.0 0
405647.0 375233.0 0
404548.0 379297.0 0
411584.0 378467.0 0
408305.0 378373.0 0
420635.0 375156.0 0
414898.0 378653.0 0
422852.0 377085.0 0
418715.0 379056.0 0
427287.0 377912.0 0
429159.0 375210.0 0
425082.0 380086.0 0
432142.0 375796.0 0
430678.0 379112.0 0
435835.0 375573.0 0
436752.0 378775.0 0
434305.0 379494.0 0
444079.0 375346.0 0
439448.0 378531.0 0
447941.0 375573.0 0
443700.0 378895.0 0
451308.0 376101.0 0
448105.0 379553.0 0
452209.0 380107.0 0
454354.0 377038.0 0
457066.0 375609.0 0
456745.0 379824.0 0
463696.0 375916.0 0
459961.0 378324.0 0
466503.0 378420.0 0
469599.0 378944.0 0
472006.0 376082.0 0
471955.0 380499.0 0
478134.0 375770.0 0
475045.0 378230.0 0
482594.0 377010.0 0
480150.0 378383.0 0
490028.0 378182.0 0
486231.0 379331.0 0
491932.0 375412.0 0
493423.0 379254.0 0
495403.0 375586.0 0
498652.0 376138.0 0
2506.2 382082.0 0
1587.61 385205.0 0
7664.66 380377.0 0
6332.51 384344.0 0
11073.8 382492.0 0
16002.5 382017.0 0
20821.8 382108.0 0
24849.7 382045.0 0
28514.5 380862.0 0
27355.8 384640.0 0
34569.5 380322.0 0
31665.3 383159.0 0
39412.9 382269.0 0
36067.8 383587.0 0
42364.0 381776.0 0
45220.5 382943.0 0
42054.9 384543.0 0
49074.7 382595.0 0
52652.2 382753.0 0
55967.9 382175.0 0
59714.8 384662.0 0
64298.9 383789.0 0
65865.9 380975.0 0
67842.7 384309.0 0
73313.2 383817.0 0
80047.7 380457.0 0
77674.5 382892.0 0
79742.0 384482.0 0
83753.7 381212.0 0
81644.3 383542.0 0
84823.0 384604.0 0
92217.6 382783.0 0
88058.0 382281.0 0
89367.4 385745.0 0
96410.6 383571.0 0
100578.0 383951.0 0
104567.0 383805.0 0
109308.0 384216.0 0
118653.0 379372.0 0
114037.0 383199.0 0
117444.0 382644.0 0
120912.0 382815.0 0
125400.0 382212.0 0
130375.0 382377.0 0
134215.0 381325.0 0
137627.0 382657.0 0
140706.0 380541.0 0
141292.0 384544.0 0
144063.0 381527.0 0
148682.0 381674.0 0
146311.0 384480.0 0
150218.0 384895.0 0
153393.0 382494.0 0
159049.0 380576.0 0
163410.0 380818.0 0
157168.0 385134.0 0
162114.0 384344.0 0
167403.0 380219.0 0
166083.0 383491.0 0
169982.0 382252.0 0
170706.0 385114.0 0
173817.0 381514.0 0
178066.0 380917.0 0
177053.0 384759.0 0
181723.0 379712.0 0
180770.0 384031.0 0
186400.0 379936.0 0
184024.0 382343.0 0
187942.0 383373.0 0
191515.0 381517.0 0
195789.0 384061.0 0
199103.0 379510.0 0
199158.0 383457.0 0
203858.0 377239.0 0
207712.0 379917.0 0
214266.0 376724.0 0
220161.0 377039.0 0
223052.0 379844.0 0
226658.0 377793.0 0
230744.0 379491.0 0
238443.0 377220.0 0
235653.0 380492.0 0
240668.0 380761.0 0
246017.0 380227.0 0
251656.0 378547.0 0
256500.0 380495.0 0
262228.0 379401.0 0
267716.0 379483.0 0
274787.0 376491.0 0
281504.0 377876.0 0
284851.0 380938.0 0
287310.0 376044.0 0
292702.0 376624.0 0
296840.0 376175.0 0
295657.0 381023.0 0
305070.0 381017.0 0
301453.0 383405.0 0
305526.0 384227.0 0
308937.0 382035.0 0
312849.0 380664.0 0
315935.0 383965.0 0
318171.0 381846.0 0
320597.0 383520.0 0
322837.0 381576.0 0
325707.0 384011.0 0
330065.0 382640.0 0
333288.0 382416.0 0
335895.0 382260.0 0
339182.0 384277.0 0
342758.0 381582.0 0
346516.0 383386.0 0
348766.0 380834.0 0
351638.0 383130.0 0
356033.0 384840.0 0
360081.0 382311.0 0
367176.0 381022.0 0
372054.0 379589.0 0
371032.0 383412.0 0
376407.0 380645.0 0
374539.0 383760.0 0
379825.0 380271.0 0
378261.0 384009.0 0
381271.0 383503.0 0
384586.0 380515.0 0
388877.0 383200.0 0
393003.0 382499.0 0
400418.0 379813.0 0
398024.0 383869.0 0
401594.0 383090.0 0
404452.0 383147.0 0
412388.0 381633.0 0
408486.0 381891.0 0
411385.0 385038.0 0
415787.0 382187.0 0
421883.0 380731.0 0
419616.0 384147.0 0
424171.0 384237.0 0
428240.0 382482.0 0
432319.0 383803.0 0
437465.0 382403.0 0
441839.0 382369.0 0
445295.0 382223.0 0
444367.0 384679.0 0
447835.0 383798.0 0
450542.0 382780.0 0
454790.0 383471.0 0
459823.0 382085.0 0
463635.0 385322.0 0
463581.0 380484.0 0
467650.0 382290.0 0
471891.0 383724.0 0
478492.0 381368.0 0
474930.0 382268.0 0
482641.0 381036.0 0
481387.0 384302.0 0
489393.0 382367.0 0
485355.0 384273.0 0
493747.0 383868.0 0
497867.0 380250.0 0
4428.98 386781.0 0
1533.17 388245.0 0
4611.36 390011.0 0
10060.6 386092.0 0
7703.7 388783.0 0
14404.0 386119.0 0
12156.6 389512.0 0
18850.8 385944.0 0
16566.9 389880.0 0
23201.8 385510.0 0
21580.1 389889.0 0
30109.5 386849.0 0
26160.1 388075.0 0
33582.7 386199.0 0
33105.8 389273.0 0
39668.6 385451.0 0
36826.2 387276.0 0
44142.4 386137.0 0
41362.4 389050.0 0
47514.9 386056.0 0
49198.8 388502.0 0
46175.0 389757.0 0
51359.9 386320.0 0
55455.0 385894.0 0
53882.1 389590.0 0
58323.5 389550.0 0
63273.1 388092.0 0
70631.8 386927.0 0
67657.9 388171.0 0
73962.8 388358.0 0
77273.2 385949.0 0
77427.9 389121.0 0
81425.3 387601.0 0
86018.1 388711.0 0
90511.3 390273.0 0
93894.7 386906.0 0
98377.7 387860.0 0
102597.0 387903.0 0
106190.0 387560.0 0
105148.0 391463.0 0
109421.0 389004.0 0
112942.0 387114.0 0
116214.0 385411.0 0
116537.0 388791.0 0
119281.0 385682.0 0
120800.0 389601.0 0
123619.0 386078.0 0
128432.0 386031.0 0
131269.0 389304.0 0
133585.0 385807.0 0
134980.0 389691.0 0
137837.0 386757.0 0
141025.0 389113.0 0
143828.0 387270.0 0
148680.0 388621.0 0
153118.0 387169.0 0
156481.0 389937.0 0
160604.0 388005.0 0
164677.0 387126.0 0
168178.0 386200.0 0
173435.0 385192.0 0
171689.0 388930.0 0
175895.0 388094.0 0
179672.0 388189.0 0
183977.0 385810.0 0
183905.0 389679.0 0
188004.0 387620.0 0
192132.0 386146.0 0
191119.0 389942.0 0
196029.0 387383.0 0
199038.0 386451.0 0
198510.0 389916.0 0
194354.0 390005.0 0
203662.0 382942.0 0
208579.0 385214.0 0
212197.0 381144.0 0
217891.0 380902.0 0
214581.0 386051.0 0
220103.0 385572.0 0
226888.0 383384.0 0
232058.0 384451.0 0
237441.0 385388.0 0
242921.0 384393.0 0
251861.0 383119.0 0
259971.0 383572.0 0
255652.0 385619.0 0
264673.0 384280.0 0
269304.0 384513.0 0
272765.0 381518.0 0
277973.0 381018.0 0
281750.0 385908.0 0
290143.0 381326.0 0
293774.0 386330.0 0
300465.0 387153.0 0
304198.0 386995.0 0
308281.0 385770.0 0
307164.0 389175.0 0
310686.0 387976.0 0
312012.0 384912.0 0
314990.0 388954.0 0
319147.0 387042.0 0
322778.0 385985.0 0
322245.0 389005.0 0
326038.0 388666.0 0
329668.0 386769.0 0
334657.0 386484.0 0
339775.0 387809.0 0
337949.0 390170.0 0
343075.0 385699.0 0
343265.0 390099.0 0
348079.0 387318.0 0
352666.0 387075.0 0
356174.0 389137.0 0
359908.0 386966.0 0
363485.0 384595.0 0
367659.0 386169.0 0
363524.0 389033.0 0
372140.0 387366.0 0
376323.0 387095.0 0
380373.0 386838.0 0
385131.0 385836.0 0
390500.0 386603.0 0
394411.0 386316.0 0
397597.0 388024.0 0
402346.0 387197.0 0
407406.0 386112.0 0
407372.0 389756.0 0
411146.0 388416.0 0
414881.0 386044.0 0
414928.0 390049.0 0
418646.0 388021.0 0
423198.0 388269.0 0
427758.0 390088.0 0
427992.0 386498.0 0
431799.0 388083.0 0
436051.0 386882.0 0
441123.0 386496.0 0
442612.0 390569.0 0
446517.0 387616.0 0
451167.0 386026.0 0
450650.0 389698.0 0
454627.0 388043.0 0
458751.0 386115.0 0
462027.0 389248.0 0
468222.0 386671.0 0
465449.0 389890.0 0
472291.0 387168.0 0
477019.0 385920.0 0
474601.0 389475.0 0
481889.0 387581.0 0
489765.0 386681.0 0
485906.0 387650.0 0
494093.0 388615.0 0
498063.0 385091.0 0
498318.0 389118.0 0
1590.81 391525.0 0
1318.73 394206.0 0
9708.32 392005.0 0
5747.44 393986.0 0
13851.7 393372.0 0
18420.0 394373.0 0
23400.7 394751.0 0
29154.9 390251.0 0
25851.7 391600.0 0
28152.2 393958.0 0
32049.7 393065.0 0
36666.0 390993.0 0
40487.7 393157.0 0
44261.2 392982.0 0
50709.5 390533.0 0
48530.0 393158.0 0
55816.8 391908.0 0
53206.4 393936.0 0
57836.5 394159.0 0
61857.7 392899.0 0
70515.6 390566.0 0
66420.3 392039.0 0
69696.2 394478.0 0
74502.6 393013.0 0
79750.3 392385.0 0
83595.7 391493.0 0
86896.0 392986.0 0
91036.6 394650.0 0
95423.4 391635.0 0
100663.0 391144.0 0
98740.1 394088.0 0
102648.0 394709.0 0
109344.0 392742.0 0
112539.0 395617.0 0
113363.0 391361.0 0
117457.0 393169.0 0
122361.0 393965.0 0
126180.0 390481.0 0
129993.0 392543.0 0
132129.0 394705.0 0
133211.0 391743.0 0
136469.0 393815.0 0
138090.0 390434.0 0
140931.0 392734.0 0
144640.0 390991.0 0
144956.0 395071.0 0
149051.0 393228.0 0
152840.0 391102.0 0
157703.0 393368.0 0
159852.0 391358.0 0
163174.0 390661.0 0
161290.0 393938.0 0
167163.0 389987.0 0
165434.0 393738.0 0
170229.0 393218.0 0
175797.0 392685.0 0
180369.0 391654.0 0
183478.0 393155.0 0
188002.0 391913.0 0
192232.0 392933.0 0
190094.0 395231.0 0
195780.0 393204.0 0
199189.0 393077.0 0
203698.0 388422.0 0
208944.0 390218.0 0
218550.0 389930.0 0
224042.0 387275.0 0
228554.0 389375.0 0
233627.0 388770.0 0
237578.0 391043.0 0
241596.0 388572.0 0
247868.0 386136.0 0
249692.0 390946.0 0
254567.0 391047.0 0
260815.0 389282.0 0
267536.0 389294.0 0
275357.0 386340.0 0
278398.0 391223.0 0
282690.0 390859.0 0
288007.0 386584.0 0
286307.0 391151.0 0
290902.0 390769.0 0
302009.0 390624.0 0
301118.0 395051.0 0
305965.0 392928.0 0
311046.0 391749.0 0
316037.0 394507.0 0
319497.0 391098.0 0
321169.0 394415.0 0
323148.0 391627.0 0
323838.0 393928.0 0
330877.0 390832.0 0
326918.0 392612.0 0
330293.0 394929.0 0
334628.0 390769.0 0
334977.0 394608.0 0
339802.0 392962.0 0
348619.0 392346.0 0
352324.0 390350.0 0
354759.0 394276.0 0
359507.0 391383.0 0
363665.0 393772.0 0
368459.0 391325.0 0
371717.0 394097.0 0
373929.0 390971.0 0
376211.0 395167.0 0
378395.0 390756.0 0
381343.0 394106.0 0
383183.0 390210.0 0
385542.0 393361.0 0
388146.0 390385.0 0
393520.0 390687.0 0
395547.0 394853.0 0
399230.0 391399.0 0
402549.0 393863.0 0
403845.0 390862.0 0
406861.0 394029.0 0
411137.0 391991.0 0
415801.0 394371.0 0
419550.0 391534.0 0
421147.0 395150.0 0
424189.0 392257.0 0
431607.0 391655.0 0
428451.0 394122.0 0
435358.0 390892.0 0
434095.0 393226.0 0
435986.0 394134.0 0
438789.0 389803.0 0
439099.0 393097.0 0
446520.0 391429.0 0
443885.0 394672.0 0
449701.0 394211.0 0
458516.0 390362.0 0
454268.0 391534.0 0
458115.0 393899.0 0
454316.0 395149.0 0
462479.0 392614.0 0
466635.0 393405.0 0
470291.0 390765.0 0
470586.0 394355.0 0
478898.0 390347.0 0
475014.0 393091.0 0
483914.0 391508.0 0
479801.0 393993.0 0
489008.0 390512.0 0
488188.0 395176.0 0
492858.0 392566.0 0
497618.0 392821.0 0
2120.7 397413.0 0
6553.54 399199.0 0
10389.1 395825.0 0
14962.5 397976.0 0
10830.3 399563.0 0
19957.4 398564.0 0
23940.3 398847.0 0
27251.9 396959.0 0
31423.7 397697.0 0
35555.1 399742.0 0
36153.0 395483.0 0
40023.2 395883.0 0
39566.1 399139.0 0
42902.1 396225.0 0
42638.4 399257.0 0
46351.7 395630.0 0
50386.5 397126.0 0
45767.7 399323.0 0
55917.7 397841.0 0
52794.5 400412.0 0
60857.8 397276.0 0
65129.3 395897.0 0
64703.0 400491.0 0
68510.3 397963.0 0
73022.3 397703.0 0
78072.2 396416.0 0
76885.3 399770.0 0
81110.1 399267.0 0
83232.8 395815.0 0
85564.3 399598.0 0
87316.6 396537.0 0
90503.1 399846.0 0
94958.7 396717.0 0
99334.5 397934.0 0
103713.0 398547.0 0
107277.0 396310.0 0
110391.0 399140.0 0
116106.0 396493.0 0
119897.0 397788.0 0
127255.0 395884.0 0
123577.0 396966.0 0
124377.0 400035.0 0
130732.0 397209.0 0
134662.0 398529.0 0
140231.0 397710.0 0
145319.0 398808.0 0
149319.0 397345.0 0
152663.0 400056.0 0
153950.0 395605.0 0
156255.0 399762.0 0
158855.0 396940.0 0
163081.0 397382.0 0
168109.0 397063.0 0
172368.0 396265.0 0
175654.0 397879.0 0
180346.0 395940.0 0
185985.0 395730.0 0
184112.0 399500.0 0
193693.0 396985.0 0
188977.0 398535.0 0
198552.0 396750.0 0
202987.0 395335.0 0
205517.0 392803.0 0
209312.0 394799.0 0
213457.0 391763.0 0
218099.0 394793.0 0
223045.0 391725.0 0
227235.0 394868.0 0
232046.0 393804.0 0
236476.0 396093.0 0
241406.0 394238.0 0
245336.0 391305.0 0
251245.0 394994.0 0
263080.0 395889.0 0
268320.0 394458.0 0
272917.0 391394.0 0
277209.0 396242.0 0
282367.0 395273.0 0
286750.0 394763.0 0
296049.0 391371.0 0
293383.0 395577.0 0
297012.0 395244.0 0
304892.0 396651.0 0
301916.0 399795.0 0
309867.0 396307.0 0
306171.0 399234.0 0
313603.0 397617.0 0
316041.0 399254.0 0
320323.0 398016.0 0
325802.0 397676.0 0
331557.0 398937.0 0
335994.0 399654.0 0
339544.0 396828.0 0
339510.0 400048.0 0
344462.0 395370.0 0
342651.0 400053.0 0
346910.0 399049.0 0
350127.0 396454.0 0
350203.0 399876.0 0
353605.0 399014.0 0
359745.0 395307.0 0
357945.0 398818.0 0
367390.0 396701.0 0
362705.0 398257.0 0
371894.0 397244.0 0
369682.0 399892.0 0
380077.0 398025.0 0
384866.0 396830.0 0
389907.0 395259.0 0
393850.0 399416.0 0
399601.0 395376.0 0
398329.0 397851.0 0
402808.0 398024.0 0
407530.0 397649.0 0
411465.0 395931.0 0
410848.0 400084.0 0
414961.0 398859.0 0
418820.0 397963.0 0
425134.0 396041.0 0
423374.0 399557.0 0
428437.0 398619.0 0
432476.0 395824.0 0
433158.0 399811.0 0
436974.0 397380.0 0
440401.0 396063.0 0
441864.0 399766.0 0
446707.0 398465.0 0
452048.0 398356.0 0
457322.0 398657.0 0
461158.0 395515.0 0
461812.0 398572.0 0
464296.0 396093.0 0
468149.0 397352.0 0
465077.0 400329.0 0
473124.0 397044.0 0
470860.0 399587.0 0
477252.0 396205.0 0
476283.0 399221.0 0
483479.0 395721.0 0
480591.0 398461.0 0
485310.0 398812.0 0
489040.0 399022.0 0
493500.0 397035.0 0
498157.0 396865.0 0
2060.38 401349.0 0
1559.94 405006.0 0
9247.89 402348.0 0
5872.01 404163.0 0
12670.0 402347.0 0
10210.0 405408.0 0
17311.1 402730.0 0
23033.1 403033.0 0
27830.6 401046.0 0
32797.7 403261.0 0
38199.3 403097.0 0
42380.4 402096.0 0
49116.2 401463.0 0
45793.8 404101.0 0
55860.0 402309.0 0
59694.6 401069.0 0
62594.8 404082.0 0
69466.6 401441.0 0
66882.6 404970.0 0
70839.3 404580.0 0
73706.8 401931.0 0
78758.5 403439.0 0
83433.2 402201.0 0
87274.9 403523.0 0
95874.9 401605.0 0
91945.4 405056.0 0
101150.0 402161.0 0
106727.0 401882.0 0
110994.0 402880.0 0
115078.0 400499.0 0
120224.0 401897.0 0
117119.0 404184.0 0
126762.0 403367.0 0
123135.0 404551.0 0
129656.0 400365.0 0
130456.0 405043.0 0
137574.0 402355.0 0
133369.0 402546.0 0
143086.0 402731.0 0
147704.0 405317.0 0
148382.0 401113.0 0
151680.0 403358.0 0
155756.0 403679.0 0
160333.0 401318.0 0
165631.0 400804.0 0
163603.0 403946.0 0
168162.0 404649.0 0
171312.0 400660.0 0
175505.0 401906.0 0
177996.0 404159.0 0
179301.0 400553.0 0
182485.0 404125.0 0
187455.0 402590.0 0
192210.0 401244.0 0
197582.0 401563.0 0
194362.0 404719.0 0
199206.0 405635.0 0
203567.0 399764.0 0
213612.0 396571.0 0
209501.0 400228.0 0
218725.0 399434.0 0
214691.0 400861.0 0
222612.0 396482.0 0
222621.0 400741.0 0
226748.0 399736.0 0
232096.0 399944.0 0
237664.0 400366.0 0
241771.0 399298.0 0
246321.0 396431.0 0
251559.0 399531.0 0
256521.0 396949.0 0
261147.0 400831.0 0
268050.0 399802.0 0
272404.0 396519.0 0
273265.0 400937.0 0
279699.0 400378.0 0
284504.0 400038.0 0
289121.0 397897.0 0
293003.0 400664.0 0
297040.0 398479.0 0
301469.0 404117.0 0
305862.0 402753.0 0
308917.0 400459.0 0
310187.0 403415.0 0
312434.0 400300.0 0
314737.0 403784.0 0
318729.0 401667.0 0
323381.0 402653.0 0
328953.0 403026.0 0
334096.0 403668.0 0
339025.0 403534.0 0
345410.0 401609.0 0
343639.0 403905.0 0
348257.0 403139.0 0
352223.0 402131.0 0
355818.0 402863.0 0
360984.0 403041.0 0
365694.0 401099.0 0
369777.0 404004.0 0
375113.0 400671.0 0
374264.0 405203.0 0
377727.0 405124.0 0
380213.0 402302.0 0
383370.0 400303.0 0
383947.0 403796.0 0
387926.0 400605.0 0
391714.0 404607.0 0
396176.0 403458.0 0
398938.0 401094.0 0
402582.0 402720.0 0
406298.0 400905.0 0
405621.0 403922.0 0
409365.0 404657.0 0
414617.0 403508.0 0
418791.0 401880.0 0
422746.0 404118.0 0
426644.0 402545.0 0
429952.0 402170.0 0
433269.0 404195.0 0
429168.0 405561.0 0
437283.0 401715.0 0
440839.0 403976.0 0
445557.0 403770.0 0
449511.0 401621.0 0
453711.0 402213.0 0
450426.0 405499.0 0
457643.0 402984.0 0
461184.0 402110.0 0
468881.0 402546.0 0
464398.0 404935.0 0
473494.0 401577.0 0
478179.0 403145.0 0
482780.0 401572.0 0
482774.0 405355.0 0
486928.0 402570.0 0
492277.0 401453.0 0
497604.0 400979.0 0
495344.0 405035.0 0
498831.0 404598.0 0
2969.26 409202.0 0
7846.19 408112.0 0
13655.8 406063.0 0
11595.9 409422.0 0
20305.0 405993.0 0
17206.9 409772.0 0
23082.4 408270.0 0
27407.1 405732.0 0
32225.6 408786.0 0
36988.1 407002.0 0
39329.7 408254.0 0
41507.9 405916.0 0
45646.2 408089.0 0
48631.3 410049.0 0
51648.0 406032.0 0
55649.8 409652.0 0
58323.7 405775.0 0
59771.9 410002.0 0
62981.6 407721.0 0
66586.5 409253.0 0
70723.6 408103.0 0
74466.2 405531.0 0
74394.4 408363.0 0
78323.9 408389.0 0
83406.3 406384.0 0
87814.7 407863.0 0
94769.6 407641.0 0
96519.7 410229.0 0
98181.1 406251.0 0
103877.0 406473.0 0
106829.0 410410.0 0
109106.0 406131.0 0
113473.0 405255.0 0
117081.0 407747.0 0
112560.0 409784.0 0
119946.0 405400.0 0
122085.0 409111.0 0
126752.0 407424.0 0
130382.0 408822.0 0
134764.0 406966.0 0
139646.0 406334.0 0
144002.0 408621.0 0
151993.0 407061.0 0
148620.0 409023.0 0
155862.0 408332.0 0
160033.0 406401.0 0
164681.0 406786.0 0
168429.0 409764.0 0
173538.0 406415.0 0
179061.0 407398.0 0
183128.0 408188.0 0
186535.0 406843.0 0
190834.0 405627.0 0
190067.0 409797.0 0
196530.0 406214.0 0
194127.0 408139.0 0
198098.0 409250.0 0
202577.0 406216.0 0
205996.0 404283.0 0
212394.0 405086.0 0
216711.0 404266.0 0
220944.0 404966.0 0
226404.0 404892.0 0
231338.0 405013.0 0
236630.0 405264.0 0
242899.0 404702.0 0
247289.0 401389.0 0
247724.0 405465.0 0
251664.0 404077.0 0
257675.0 401747.0 0
256192.0 405552.0 0
260928.0 405115.0 0
265899.0 405069.0 0
270784.0 404424.0 0
276486.0 404534.0 0
281867.0 404854.0 0
288197.0 402102.0 0
286326.0 405534.0 0
291312.0 405407.0 0
296787.0 403202.0 0
305071.0 406595.0 0
301699.0 409129.0 0
308308.0 406210.0 0
311722.0 407176.0 0
315900.0 408212.0 0
319096.0 405696.0 0
319769.0 409708.0 0
322549.0 406960.0 0
326312.0 406869.0 0
323726.0 410171.0 0
331507.0 408008.0 0
327729.0 410309.0 0
336651.0 407485.0 0
341443.0 407328.0 0
346509.0 407054.0 0
352126.0 406340.0 0
357129.0 406773.0 0
360718.0 407140.0 0
364943.0 405291.0 0
363511.0 409016.0 0
367776.0 408434.0 0
372339.0 408107.0 0
375858.0 407569.0 0
380912.0 405648.0 0
379157.0 408329.0 0
387088.0 405325.0 0
383770.0 408439.0 0
388904.0 408588.0 0
395845.0 406451.0 0
393296.0 409151.0 0
397400.0 409326.0 0
399569.0 405667.0 0
401186.0 409536.0 0
404226.0 407017.0 0
408248.0 408815.0 0
413293.0 408187.0 0
418835.0 407293.0 0
426019.0 405941.0 0
423496.0 408048.0 0
427290.0 409478.0 0
432147.0 408439.0 0
437143.0 406633.0 0
442608.0 407747.0 0
439267.0 409418.0 0
447348.0 408457.0 0
452463.0 409591.0 0
455298.0 406155.0 0
457728.0 410224.0 0
459784.0 405958.0 0
462136.0 408369.0 0
468362.0 406461.0 0
465599.0 409133.0 0
473095.0 405768.0 0
469780.0 409830.0 0
474015.0 410063.0 0
478512.0 408412.0 0
483912.0 409868.0 0
486434.0 406942.0 0
490484.0 406067.0 0
493954.0 409445.0 0
498256.0 408031.0 0
3029.4 415113.0 0
8094.34 412359.0 0
12779.5 414065.0 0
22329.7 412781.0 0
27019.2 410621.0 0
26291.3 414952.0 0
31377.8 414196.0 0
36770.4 411741.0 0
41707.4 410430.0 0
46110.3 413441.0 0
51913.2 412698.0 0
57429.8 413989.0 0
63306.8 413109.0 0
69327.2 413214.0 0
74191.2 411669.0 0
78651.9 412847.0 0
82773.8 410798.0 0
82788.2 415223.0 0
87184.1 412481.0 0
91562.3 415125.0 0
92005.8 410493.0 0
96329.7 414056.0 0
100952.0 411322.0 0
104458.0 414460.0 0
109909.0 415182.0 0
114770.0 413873.0 0
117720.0 411781.0 0
121820.0 414223.0 0
127289.0 412386.0 0
133289.0 412369.0 0
138744.0 411115.0 0
147316.0 411922.0 0
143459.0 413637.0 0
151959.0 412118.0 0
158098.0 412536.0 0
163055.0 410762.0 0
166065.0 413434.0 0
172460.0 411246.0 0
169507.0 415039.0 0
176587.0 410861.0 0
174371.0 414803.0 0
181270.0 411224.0 0
179055.0 414737.0 0
185723.0 410945.0 0
183951.0 414782.0 0
188899.0 414240.0 0
194334.0 412735.0 0
198942.0 412890.0 0
202502.0 409781.0 0
208279.0 409968.0 0
213610.0 411221.0 0
215879.0 408215.0 0
220120.0 409943.0 0
225278.0 410377.0 0
230613.0 409678.0 0
235482.0 410699.0 0
240053.0 409827.0 0
245834.0 410412.0 0
252802.0 410533.0 0
259183.0 409952.0 0
264012.0 409960.0 0
269474.0 409493.0 0
273875.0 409062.0 0
278311.0 409789.0 0
283168.0 409255.0 0
286998.0 409225.0 0
291251.0 410898.0 0
295980.0 408047.0 0
302669.0 413737.0 0
307770.0 411021.0 0
312944.0 410723.0 0
312516.0 414800.0 0
316750.0 412301.0 0
321004.0 413443.0 0
325744.0 413839.0 0
330517.0 413339.0 0
334851.0 411498.0 0
339359.0 410891.0 0
337779.0 414293.0 0
341682.0 414792.0 0
344096.0 411014.0 0
349568.0 410856.0 0
354642.0 410539.0 0
357425.0 414780.0 0
359257.0 410110.0 0
362369.0 412862.0 0
366398.0 412434.0 0
370766.0 411690.0 0
369207.0 415214.0 0
375726.0 411327.0 0
380283.0 412011.0 0
377797.0 415488.0 0
383615.0 413080.0 0
386781.0 411990.0 0
391014.0 413206.0 0
395331.0 411983.0 0
399308.0 413310.0 0
404946.0 412179.0 0
410696.0 412753.0 0
416604.0 411743.0 0
414561.0 415172.0 0
422105.0 411914.0 0
426845.0 413723.0 0
430839.0 412150.0 0
429909.0 414931.0 0
432797.0 415755.0 0
435967.0 412127.0 0
440774.0 411408.0 0
440772.0 415010.0 0
444453.0 412063.0 0
449156.0 413052.0 0
454388.0 413843.0 0
458547.0 414762.0 0
462150.0 412158.0 0
466801.0 413318.0 0
471951.0 414598.0 0
476522.0 413006.0 0
480550.0 413125.0 0
488832.0 410489.0 0
485737.0 414355.0 0
489453.0 414023.0 0
492638.0 413179.0 0
497673.0 411972.0 0
495212.0 415474.0 0
8634.28 417561.0 0
13815.1 419612.0 0
18004.6 415604.0 0
18888.7 419664.0 0
22897.3 417765.0 0
28021.4 418616.0 0
32140.3 418835.0 0
36236.4 416804.0 0
41049.9 415389.0 0
45030.7 418994.0 0
49235.1 416927.0 0
53287.7 417218.0 0
60849.9 417134.0 0
57127.5 418087.0 0
66113.5 416463.0 0
64307.8 420473.0 0
70363.4 418699.0 0
75071.4 416223.0 0
75076.5 420542.0 0
79138.6 415948.0 0
78564.5 418923.0 0
83030.6 419755.0 0
86995.7 417135.0 0
90570.2 418783.0 0
95436.3 418537.0 0
100511.0 417078.0 0
105645.0 418688.0 0
114749.0 417677.0 0
117866.0 415610.0 0
120177.0 418498.0 0
125572.0 418256.0 0
130396.0 416321.0 0
134835.0 417330.0 0
139292.0 415779.0 0
139323.0 420239.0 0
143546.0 418281.0 0
147996.0 415955.0 0
152189.0 418495.0 0
154565.0 415307.0 0
157663.0 418116.0 0
162888.0 416195.0 0
166987.0 418276.0 0
172595.0 419124.0 0
176627.0 418138.0 0
181128.0 419122.0 0
186962.0 418789.0 0
192747.0 418293.0 0
197936.0 416376.0 0
197942.0 420872.0 0
203467.0 414431.0 0
213650.0 414691.0 0
217404.0 414171.0 0
222010.0 414722.0 0
227149.0 415233.0 0
232629.0 415039.0 0
238310.0 414770.0 0
242730.0 414522.0 0
247756.0 416059.0 0
251677.0 415385.0 0
255678.0 416007.0 0
260707.0 415064.0 0
265732.0 413947.0 0
271469.0 415423.0 0
276523.0 414169.0 0
281693.0 414831.0 0
287175.0 413945.0 0
291310.0 416502.0 0
296277.0 413726.0 0
301916.0 418355.0 0
307484.0 416918.0 0
312449.0 419958.0 0
317622.0 416981.0 0
323039.0 417713.0 0
328133.0 417684.0 0
334056.0 416157.0 0
331602.0 418871.0 0
338434.0 418367.0 0
346812.0 415048.0 0
343561.0 419646.0 0
351976.0 415068.0 0
354500.0 419607.0 0
361602.0 416168.0 0
365422.0 417148.0 0
370393.0 419522.0 0
373250.0 415470.0 0
375539.0 419231.0 0
381875.0 416057.0 0
379512.0 419173.0 0
386433.0 416472.0 0
383159.0 420006.0 0
390962.0 417984.0 0
395162.0 415681.0 0
394736.0 419424.0 0
402782.0 416369.0 0
398840.0 418661.0 0
407347.0 417246.0 0
411657.0 417111.0 0
414618.0 418312.0 0
418673.0 416419.0 0
420921.0 420168.0 0
423852.0 416976.0 0
428707.0 418154.0 0
433147.0 419869.0 0
436813.0 417224.0 0
440660.0 419092.0 0
443822.0 420165.0 0
445503.0 416698.0 0
451210.0 417948.0 0
455854.0 417251.0 0
463289.0 416431.0 0
459611.0 418833.0 0
463933.0 420543.0 0
467673.0 418174.0 0
472090.0 419280.0 0
477078.0 417691.0 0
481988.0 416847.0 0
485411.0 418742.0 0
490807.0 418674.0 0
498507.0 415534.0 0
497315.0 419437.0 0
3830.13 420796.0 0
1693.04 424748.0 0
9051.26 422414.0 0
5716.04 425534.0 0
13075.7 425043.0 0
17938.5 423835.0 0
21650.7 421512.0 0
22467.1 424959.0 0
25508.0 421955.0 0
35211.3 421093.0 0
30703.0 423368.0 0
39911.9 420688.0 0
45488.9 423538.0 0
41784.8 425062.0 0
49547.0 421435.0 0
54441.5 421388.0 0
52212.4 425498.0 0
59158.8 421015.0 0
57016.5 425121.0 0
61183.9 424255.0 0
68338.0 423436.0 0
72487.0 423215.0 0
75703.5 425493.0 0
79232.5 422717.0 0
83372.9 423896.0 0
87441.6 422145.0 0
92407.8 422014.0 0
96008.0 424006.0 0
98859.7 421188.0 0
100249.0 425212.0 0
102707.0 421618.0 0
107075.0 422304.0 0
111059.0 420623.0 0
110350.0 425590.0 0
116691.0 422062.0 0
122009.0 422233.0 0
126165.0 423537.0 0
130731.0 420996.0 0
135410.0 421350.0 0
133963.0 424447.0 0
138026.0 424299.0 0
147408.0 420637.0 0
143204.0 422944.0 0
147582.0 425447.0 0
151249.0 422727.0 0
155769.0 423008.0 0
160201.0 421671.0 0
164180.0 421061.0 0
164730.0 425443.0 0
169042.0 422255.0 0
176287.0 422247.0 0
180522.0 423665.0 0
184268.0 422528.0 0
188641.0 423768.0 0
193653.0 423711.0 0
197989.0 426001.0 0
202872.0 419333.0 0
209124.0 416982.0 0
214706.0 418962.0 0
219100.0 419608.0 0
222482.0 419658.0 0
226683.0 420901.0 0
232049.0 420115.0 0
237102.0 419938.0 0
242228.0 419155.0 0
246849.0 420868.0 0
252500.0 419664.0 0
255853.0 420734.0 0
260672.0 420295.0 0
266338.0 419854.0 0
271707.0 421287.0 0
276350.0 418775.0 0
281176.0 420877.0 0
286323.0 419013.0 0
295913.0 419899.0 0
305341.0 421004.0 0
301777.0 423323.0 0
305934.0 424648.0 0
308538.0 421652.0 0
310006.0 424973.0 0
313963.0 424427.0 0
317253.0 421748.0 0
325811.0 420873.0 0
321868.0 422131.0 0
325538.0 424740.0 0
329878.0 422657.0 0
334751.0 420988.0 0
339230.0 423589.0 0
343740.0 423984.0 0
349225.0 419782.0 0
351780.0 423518.0 0
356353.0 424745.0 0
360479.0 420507.0 0
365954.0 422632.0 0
370277.0 424151.0 0
373718.0 422580.0 0
378226.0 423244.0 0
387592.0 421571.0 0
383228.0 424382.0 0
392242.0 421706.0 0
390881.0 424596.0 0
396632.0 423348.0 0
400288.0 421749.0 0
401571.0 424638.0 0
403459.0 420678.0 0
407643.0 420622.0 0
406963.0 424613.0 0
411194.0 421035.0 0
416465.0 421874.0 0
420847.0 424072.0 0
425323.0 422258.0 0
429847.0 422311.0 0
433321.0 425070.0 0
437359.0 421707.0 0
442187.0 424031.0 0
447127.0 421182.0 0
447270.0 425755.0 0
451025.0 422901.0 0
455528.0 421414.0 0
460439.0 423091.0 0
464454.0 424372.0 0
469426.0 423389.0 0
474559.0 421513.0 0
474455.0 425155.0 0
477840.0 422702.0 0
481577.0 420793.0 0
481539.0 425258.0 0
486131.0 423263.0 0
494186.0 423046.0 0
490522.0 424942.0 0
497996.0 424161.0 0
2476.35 428899.0 0
9307.85 426655.0 0
7297.41 430745.0 0
12165.9 429718.0 0
20031.5 427354.0 0
16668.8 428555.0 0
23074.8 428865.0 0
26321.5 426062.0 0
29260.5 427096.0 0
32383.7 428421.0 0
36570.6 425416.0 0
36110.0 430308.0 0
40273.7 429222.0 0
45065.6 428073.0 0
48292.6 425548.0 0
49590.7 428954.0 0
54969.8 429970.0 0
60346.1 428403.0 0
64817.2 426201.0 0
70461.6 428849.0 0
76138.1 430035.0 0
80467.3 427450.0 0
86306.7 427616.0 0
90867.5 425688.0 0
91620.0 430565.0 0
96662.5 428475.0 0
101892.0 430471.0 0
104969.0 425700.0 0
107611.0 430088.0 0
111902.0 430092.0 0
115588.0 427376.0 0
120400.0 425866.0 0
124763.0 428350.0 0
129943.0 426586.0 0
135577.0 429449.0 0
140952.0 427264.0 0
144149.0 426127.0 0
144915.0 429417.0 0
152340.0 426734.0 0
149268.0 430078.0 0
156249.0 427310.0 0
160051.0 425792.0 0
158877.0 430176.0 0
162628.0 428980.0 0
166187.0 429429.0 0
168515.0 426786.0 0
172822.0 426025.0 0
170541.0 430202.0 0
177971.0 427692.0 0
174192.0 430447.0 0
183860.0 427212.0 0
188294.0 428249.0 0
191418.0 427009.0 0
194333.0 427797.0 0
197318.0 431382.0 0
202500.0 424537.0 0
206672.0 422685.0 0
213143.0 424385.0 0
217665.0 424496.0 0
222500.0 424362.0 0
228103.0 426151.0 0
233020.0 424723.0 0
237895.0 424826.0 0
242675.0 423736.0 0
247632.0 425195.0 0
251770.0 423966.0 0
256041.0 424961.0 0
260470.0 425342.0 0
265250.0 425162.0 0
270353.0 426532.0 0
276386.0 425037.0 0
285215.0 424804.0 0
290682.0 422070.0 0
296503.0 426473.0 0
302026.0 427560.0 0
307020.0 429517.0 0
312824.0 428649.0 0
318855.0 427171.0 0
324265.0 428792.0 0
329521.0 428362.0 0
334281.0 425669.0 0
338296.0 428512.0 0
343028.0 427692.0 0
347547.0 424973.0 0
347388.0 429829.0 0
351885.0 427794.0 0
361808.0 426241.0 0
366298.0 427017.0 0
369958.0 427889.0 0
374146.0 426612.0 0
380085.0 427036.0 0
377280.0 429896.0 0
387476.0 426632.0 0
383579.0 429348.0 0
393477.0 428430.0 0
398708.0 427652.0 0
403363.0 429657.0 0
412704.0 425949.0 0
409244.0 429967.0 0
417726.0 427178.0 0
428422.0 426227.0 0
423480.0 428480.0 0
431087.0 430457.0 0
437737.0 425548.0 0
436065.0 429087.0 0
439831.0 428065.0 0
443666.0 429292.0 0
448463.0 430913.0 0
452346.0 427295.0 0
457009.0 425868.0 0
456158.0 430345.0 0
461452.0 428025.0 0
466868.0 428239.0 0
471751.0 428606.0 0
478014.0 426174.0 0
476357.0 429223.0 0
480975.0 429614.0 0
485024.0 427739.0 0
489182.0 429284.0 0
494270.0 427096.0 0
493373.0 430857.0 0
498032.0 428027.0 0
2751.46 434012.0 0
7213.82 435302.0 0
15334.2 432953.0 0
10992.4 434069.0 0
19945.7 432009.0 0
23823.4 432560.0 0
27805.7 430837.0 0
32705.7 433068.0 0
38545.1 434421.0 0
42956.0 432008.0 0
50917.7 432312.0 0
46970.7 432195.0 0
54673.5 435781.0 0
59760.7 433172.0 0
64560.5 431068.0 0
68020.7 433849.0 0
72047.2 434551.0 0
76938.3 434641.0 0
79635.5 431612.0 0
81795.8 434989.0 0
82997.3 431122.0 0
86766.8 433216.0 0
96613.4 434202.0 0
101600.0 435557.0 0
105866.0 434716.0 0
110806.0 434192.0 0
115276.0 432383.0 0
119951.0 430551.0 0
119122.0 435478.0 0
123879.0 433607.0 0
129408.0 432474.0 0
141040.0 432461.0 0
146138.0 433705.0 0
150251.0 434016.0 0
154118.0 431379.0 0
158007.0 434247.0 0
162294.0 433030.0 0
167339.0 433680.0 0
172787.0 434689.0 0
177269.0 432605.0 0
181373.0 431515.0 0
186091.0 432330.0 0
191574.0 431324.0 0
189347.0 435544.0 0
198058.0 436601.0 0
202860.0 429309.0 0
208883.0 427117.0 0
207091.0 431158.0 0
212434.0 429776.0 0
217524.0 429262.0 0
222380.0 429376.0 0
226449.0 430605.0 0
231476.0 429427.0 0
236432.0 429530.0 0
241644.0 428368.0 0
247195.0 430325.0 0
253339.0 429450.0 0
258554.0 429696.0 0
262507.0 429032.0 0
266710.0 430453.0 0
273797.0 430282.0 0
278240.0 430365.0 0
281065.0 427226.0 0
283008.0 430195.0 0
290418.0 427307.0 0
286909.0 430779.0 0
291634.0 431935.0 0
302003.0 431568.0 0
306842.0 434771.0 0
311227.0 433097.0 0
316233.0 432643.0 0
321411.0 432345.0 0
326427.0 433145.0 0
331570.0 433432.0 0
334292.0 430083.0 0
337936.0 433781.0 0
343338.0 432255.0 0
347667.0 434714.0 0
352218.0 432659.0 0
357377.0 430289.0 0
360362.0 434620.0 0
362579.0 430855.0 0
364441.0 434359.0 0
367235.0 431123.0 0
372476.0 431998.0 0
376789.0 433913.0 0
380548.0 432591.0 0
384251.0 435007.0 0
388354.0 431725.0 0
393423.0 434381.0 0
398112.0 432029.0 0
401873.0 434768.0 0
406580.0 434497.0 0
411261.0 434511.0 0
414471.0 431006.0 0
417122.0 435730.0 0
419088.0 431301.0 0
422169.0 434057.0 0
426586.0 432726.0 0
429915.0 435383.0 0
435094.0 433051.0 0
439592.0 432565.0 0
444475.0 434387.0 0
449479.0 435959.0 0
452700.0 431782.0 0
459683.0 432817.0 0
464352.0 432673.0 0
469301.0 432701.0 0
474037.0 433002.0 0
478408.0 432972.0 0
485075.0 432261.0 0
490168.0 434439.0 0
494467.0 434431.0 0
497632.0 432052.0 0
1086.86 437656.0 0
4604.61 439156.0 0
9600.92 438811.0 0
14294.3 437683.0 0
18393.2 435871.0 0
22804.2 436325.0 0
28292.1 436452.0 0
33730.6 437836.0 0
38160.5 439685.0 0
43872.9 436365.0 0
49215.0 436363.0 0
55696.0 440789.0 0
59634.3 438312.0 0
64157.8 435914.0 0
68889.3 438600.0 0
74306.3 438930.0 0
79503.0 439309.0 0
85571.4 438890.0 0
91026.6 436213.0 0
90497.1 440834.0 0
94784.5 439619.0 0
99281.8 438816.0 0
104120.0 439599.0 0
108759.0 438184.0 0
114679.0 436341.0 0
116871.0 439178.0 0
112788.0 440136.0 0
120819.0 439804.0 0
126843.0 439091.0 0
132479.0 439928.0 0
134992.0 435797.0 0
139430.0 436032.0 0
138802.0 438990.0 0
143068.0 437471.0 0
148427.0 438300.0 0
153763.0 436763.0 0
159106.0 439441.0 0
164001.0 437216.0 0
168604.0 438749.0 0
177502.0 436808.0 0
173954.0 440807.0 0
182312.0 436099.0 0
178446.0 440198.0 0
186722.0 439117.0 0
193600.0 436118.0 0
197808.0 440949.0 0
203065.0 434275.0 0
207943.0 435682.0 0
212941.0 434970.0 0
217769.0 434347.0 0
221859.0 434341.0 0
225668.0 434864.0 0
230658.0 434892.0 0
236499.0 434750.0 0
242350.0 434363.0 0
248001.0 435866.0 0
252214.0 434576.0 0
256692.0 434218.0 0
261574.0 434327.0 0
266785.0 436259.0 0
272300.0 434760.0 0
277734.0 435759.0 0
283283.0 434557.0 0
288645.0 435874.0 0
293473.0 437053.0 0
296661.0 432974.0 0
302316.0 436067.0 0
302050.0 440777.0 0
305953.0 439036.0 0
310557.0 437790.0 0
315133.0 437178.0 0
319530.0 436561.0 0
324012.0 437313.0 0
328679.0 437736.0 0
333791.0 437943.0 0
338297.0 439158.0 0
342934.0 437486.0 0
347688.0 439616.0 0
356144.0 435406.0 0
352016.0 437704.0 0
363308.0 439270.0 0
368670.0 436027.0 0
374065.0 437900.0 0
379760.0 437128.0 0
383920.0 439999.0 0
388863.0 437747.0 0
393672.0 439236.0 0
397884.0 437258.0 0
402624.0 439495.0 0
407442.0 439082.0 0
412529.0 439174.0 0
417335.0 440752.0 0
421355.0 438698.0 0
425860.0 437348.0 0
429651.0 439409.0 0
434389.0 437751.0 0
440323.0 438067.0 0
445764.0 439609.0 0
455243.0 436027.0 0
461668.0 437951.0 0
466669.0 436513.0 0
471370.0 437567.0 0
476733.0 437146.0 0
481619.0 435973.0 0
484842.0 440301.0 0
485977.0 436668.0 0
489248.0 439530.0 0
493698.0 438109.0 0
497826.0 436425.0 0
497680.0 440744.0 0
1221.56 441182.0 0
2769.32 444316.0 0
7643.06 443487.0 0
12787.5 442641.0 0
19231.7 440877.0 0
25048.0 440945.0 0
22594.3 445215.0 0
29973.5 441354.0 0
34572.2 443023.0 0
39129.1 444110.0 0
42308.4 441121.0 0
46635.5 440628.0 0
51315.7 441125.0 0
59361.0 443745.0 0
63974.1 441033.0 0
67676.7 443403.0 0
71855.5 443159.0 0
76613.3 443288.0 0
82185.2 444621.0 0
87695.0 443990.0 0
93180.8 444519.0 0
98288.1 443479.0 0
103457.0 445161.0 0
108511.0 442979.0 0
112946.0 444544.0 0
117483.0 443591.0 0
122662.0 444009.0 0
126839.0 445070.0 0
131138.0 443973.0 0
136117.0 442478.0 0
141379.0 442033.0 0
145115.0 441124.0 0
147743.0 442457.0 0
149691.0 445390.0 0
153597.0 442374.0 0
158644.0 445510.0 0
164472.0 442068.0 0
169155.0 443640.0 0
178186.0 444592.0 0
181960.0 441387.0 0
185802.0 443508.0 0
192210.0 441719.0 0
198181.0 445011.0 0
297583.0 438127.0 0
301662.0 444814.0 0
305747.0 443620.0 0
309559.0 442002.0 0
314060.0 441789.0 0
319532.0 441703.0 0
321650.0 446321.0 0
325453.0 442397.0 0
330994.0 442171.0 0
335717.0 442620.0 0
341473.0 443819.0 0
351524.0 442970.0 0
346894.0 443615.0 0
356971.0 440560.0 0
361121.0 444922.0 0
369198.0 441915.0 0
378616.0 443023.0 0
384030.0 445762.0 0
387883.0 442852.0 0
392737.0 443449.0 0
397986.0 442552.0 0
405541.0 441978.0 0
402870.0 444352.0 0
409109.0 443593.0 0
414182.0 444136.0 0
421144.0 443311.0 0
426189.0 442512.0 0
432344.0 443326.0 0
437227.0 442179.0 0
441921.0 443610.0 0
447012.0 444386.0 0
451531.0 441395.0 0
457233.0 441523.0 0
461937.0 443429.0 0
466893.0 441403.0 0
474605.0 442702.0 0
480328.0 440885.0 0
481840.0 445626.0 0
487101.0 444602.0 0
493066.0 443438.0 0
497962.0 445180.0 0
5372.84 447158.0 0
11103.3 448321.0 0
17437.0 446928.0 0
27583.5 445923.0 0
32743.7 448049.0 0
38094.9 448742.0 0
42981.8 445237.0 0
48125.6 446153.0 0
54275.0 445227.0 0
57941.1 448877.0 0
64068.7 446418.0 0
68773.9 447245.0 0
73114.3 447697.0 0
77610.9 447828.0 0
85914.9 447845.0 0
89643.7 447839.0 0
94094.1 449548.0 0
99343.0 448849.0 0
106000.0 449071.0 0
110188.0 447963.0 0
115216.0 448097.0 0
120085.0 447439.0 0
124254.0 448110.0 0
134333.0 448580.0 0
139445.0 446316.0 0
144810.0 445819.0 0
153643.0 448061.0 0
160663.0 450502.0 0
163676.0 446849.0 0
167990.0 447952.0 0
173101.0 446625.0 0
182637.0 446290.0 0
188750.0 446724.0 0
194240.0 447921.0 0
304275.0 448599.0 0
310768.0 447279.0 0
316676.0 446101.0 0
319059.0 450510.0 0
324347.0 449361.0 0
328241.0 447377.0 0
333096.0 446529.0 0
337716.0 449092.0 0
342933.0 449587.0 0
346706.0 447456.0 0
351193.0 448337.0 0
355867.0 446198.0 0
359297.0 449641.0 0
365078.0 448245.0 0
368911.0 446869.0 0
370759.0 449887.0 0
373243.0 446164.0 0
377192.0 448341.0 0
380588.0 447870.0 0
388901.0 447809.0 0
394192.0 448210.0 0
399349.0 447744.0 0
406140.0 447580.0 0
411456.0 448498.0 0
418128.0 447738.0 0
423769.0 447511.0 0
428755.0 447046.0 0
437626.0 446990.0 0
444394.0 448249.0 0
449113.0 448069.0 0
453662.0 446770.0 0
458270.0 445930.0 0
462377.0 448459.0 0
466939.0 446555.0 0
471788.0 448249.0 0
477439.0 447993.0 0
484585.0 449023.0 0
490878.0 448333.0 0
495181.0 448045.0 0
POINT_DATA 5000
SCALARS Radius float 1
LOOKUP_TABLE default
5782.6 5120.0 5529.52 6324.23 5191.63 4861.06 5320.28 4797.52 4796.58 3979.26 4298.67 3471.03 5253.55 5820.48 4862.21 5113.21 3929.19 4107.03 4478.15 5379.87 5925.6 4501.51 4792.73 4736.58 4931.38 3485.26 4329.05 4151.94 4049.23 5337.48 6124.89 5708.81 5252.48 4780.03 5495.39 3996.0 3856.1 4665.12 3383.4 4133.88 4834.9 3850.77 6044.04 5415.48 5085.53 3863.18 2356.98 4998.37 6182.6 5492.18 5258.36 5061.3 3642.12 3163.97 5812.43 5122.66 5906.14 5484.19 7513.1 5254.28 4436.4 5733.48 4672.91 5580.89 3588.44 5645.7 5176.86 6810.52 5840.26 3672.51 6110.27 5561.06 5073.35 3615.22 5670.04 4380.59 3589.27 6716.79 3607.45 5759.91 7613.27 4951.03 5255.32 6037.08 5096.78 6756.95 4129.43 3843.58 3320.52 4727.24 4194.5 4270.53 5082.47 5344.25 4593.7 4150.99 4216.92 4177.94 4742.68 4344.58 5634.83 5495.84 6268.1 5374.51 6739.08 4569.12 5873.69 5960.66 6608.73 5011.84 7034.11 6261.42 4502.5 3771.48 4043.57 4271.69 5681.38 4138.42 3708.04 5513.6 3240.09 4556.36 6082.81 3191.99 4685.34 5601.05 4929.8 3586.91 3103.0 3554.9 4015.92 5542.21 4487.31 3936.02 4044.71 5980.74 4094.62 4927.02 5546.39 5325.36 5484.83 5538.89 5351.6 4730.36 4715.55 5867.73 3951.75 5013.56 4499.64 4375.68 5542.27 5054.98 6030.06 5170.02 3557.27 4927.31 4688.68 4402.52 4517.56 4182.53 5903.42 3955.56 3761.32 4118.05 4366.19 5553.16 2938.66 4940.78 4231.61 4008.92 3942.53 3379.84 4827.82 3997.1 3260.67 5123.52 3038.33 4392.68 4333.2 4295.38 7199.21 4523.7 2240.39 5923.5 5091.39 5293.9 6142.94 3912.37 4602.25 4790.08 4763.45 5344.0 5445.87 3815.26 4704.72 6048.7 4571.7 5896.46 5022.8 3784.5 3780.23 6481.79 5224.12 7042.12 4819.73 6326.39 4471.58 4962.09 3999.48 4359.62 6946.21 2586.12 5433.8 4011.77 5499.11 3633.87 5922.5 5198.77 5987.17 6013.14 2765.2 4901.41 5110.37 5664.98 4382.74 5927.43 4651.28 4384.42 3693.63 4516.43 5481.78 5637.59 4937.14 5043.05 5816.2 5693.81 5109.54 6483.19 3829.13 5945.65 6759.9 7021.47 5416.38 6059.59 4955.55 2720.68 5701.86 3563.63 4238.81 4468.59 5885.03 2837.58 5325.02 5200.76 5017.13 4862.64 5185.34 4432.58 6684.56 3968.64 4688.67 2635.86 5292.64 6166.5 5065.13 5936.02 5305.17 4861.08 4003.05 5390.22 4805.87 4712.33 5227.21 5697.78 4667.36 4091.31 6372.62 4254.17 5090.24 5615.42 7565.34 4612.68 4281.49 4973.83 6342.25 6691.39 4840.84 5135.69 4020.32 6045.46 4245.72 5908.1 4541.21 6133.92 3719.84 4178.4 3095.48 4166.08 4123.6 4850.14 5163.55 3382.7 6817.32 4319.79 6098.14 4472.17 3637.61 4203.26 5188.81 4730.41 6057.22 5062.71 6125.34 4527.08 5347.48 4850.01 3970.25 5147.67 3979.82 5011.31 5138.31 5264.06 4659.59 6327.9 4048.37 6355.42 4362.19 5690.56 4948.92 3115.91 4493.48 3307.12 5924.89 4002.16 4174.52 4138.16 3486.22 4684.5 6230.49 6458.82 5418.62 4601.27 5493.32 5740.68 5926.61 6051.14 5836.15 3261.21 4345.55 6704.06 3653.41 3871.88 5600.93 3856.01 5246.2 4390.66 5279.39 3673.74 4827.23 5205.43 6116.18 7447.37 4924.6 4385.06 4733.32 7184.19 2899.43 2924.37 3867.67 4290.3 5399.73 4660.72 3888.21 5891.05 6038.78 6902.81 6644.76 5629.19 4786.6 5740.84 6445.94 5530.87 4310.18 7134.64 5978.9 4187.56 3629.62 4997.27 4301.06 4877.67 4290.14 6562.18 4156.38 5316.75 4164.68 5669.65 5934.22 5624.49 5762.59 7092.87 4666.81 3703.1 3954.91 6471.55 2965.01 6643.85 5501.93 6222.42 5654.31 3745.84 4938.74 5690.26 4156.2 4497.59 5965.78 4374.35 4810.12 5643.58 5215.05 4292.06 3821.72 5577.04 5006.58 4602.86 3688.8 4548.16 3369.23 5449.18 5492.26 5244.78 5762.84 3937.74 4749.8 6084.86 5478.92 4778.34 5551.36 6894.71 3091.3 4414.54 5789.98 6138.47 7054.71 3641.64 5489.43 5747.75 4277.89 5054.25 4796.33 4195.44 5539.32 5360.19 6496.85 4794.96 4874.39 5541.59 4124.71 5728.85 6337.56 4911.47 5803.39 5863.59 4381.97 6257.19 3255.82 5242.73 2812.98 4065.69 5603.15 4695.45 6052.7 3921.18 3798.62 5308.1 3666.57 4907.89 4937.02 4073.93 5655.21 4645.41 4433.59 4320.28 5542.14 4218.06 5480.13 6308.71 4716.19 5514.76 6405.76 3456.98 3498.2 5105.16 3066.13 5448.61 4302.5 6006.16 6009.88 7055.53 5013.67 5826.04 5339.78 4970.88 4143.78 4763.66 4636.5 4940.42 5923.4 5085.71 5499.39 5644.82 6343.14 5463.38 5945.21 5750.71 5696.88 5607.14 3923.03 5975.63 5252.34 6396.74 4138.46 2775.04 4986.77 6898.19 6318.18 5586.81 3948.17 4621.75 4551.24 5358.59 4220.88 4515.71 6519.71 6640.13 5082.6 5810.84 4230.54 5094.44 3748.24 4655.49 4467.94 4850.81 6038.14 2540.31 6029.66 5527.54 5573.7 5697.4 4727.62 4270.95 4055.8 7325.81 5280.17 6425.26 5143.58 6186.19 4839.34 5083.08 2980.99 6834.49 5525.39 3998.5 5938.34 4024.3 6394.38 5555.28 5169.36 4737.14 4686.65 5834.74 5556.96 5788.23 5581.75 6392.01 3599.45 6730.19 4907.06 3735.44 5163.9 6043.3 5952.75 6332.36 6122.55 2739.94 4931.53 6155.31 4223.33 5911.67 3323.28 6695.82 5794.24 4678.38 5050.65 4827.33 5206.48 5513.57 5729.23 5226.0 3365.82 4538.95 5965.15 4780.2 6090.91 4946.42 5019.93 5081.78 6116.33 6263.44 5774.97 5462.21 5470.77 4831.47 4643.85 4004.04 6062.05 4289.17 5564.02 4274.61 2965.79 4410.55 6035.6 5137.34 4481.53 5330.45 4581.13 3856.59 3610.4 4219.07 6387.01 5367.52 3092.35 4322.15 5210.03 4714.54 3629.96 5478.47 5351.39 6142.37 6061.47 4933.21 5375.47 4723.12 5120.49 5201.36 5262.61 6302.8 5409.61 6038.2 4005.44 5206.78 5555.88 6732.43 5028.96 3866.16 6362.12 4484.76 4840.01 5611.2 7933.0 4455.12 5173.87 4894.16 5380.13 5711.87 5118.27 4941.22 5932.23 5791.61 3369.13 4479.66 3043.85 5367.2 5461.13 4726.76 5839.13 5495.68 5489.34 5002.48 5708.14 5537.72 3920.42 8332.24 4553.56 5329.64 6049.55 5709.62 5835.78 4127.74 2476.04 5133.97 3942.07 7443.72 3937.08 5260.34 4709.35 6586.45 4373.3 4750.78 4163.5 5724.64 5078.86 5100.1 3561.29 4963.34 3295.83 4459.28 4260.92 6250.23 5960.56 4118.84 4020.95 6313.06 3474.39 3493.7 6470.3 4200.03 5082.74 6915.83 6072.45 7099.43 5526.14 5198.29 5423.0 5077.33 4746.52 5413.79 6338.89 6202.55 5025.39 5893.5 4547.19 3320.11 5030.91 6022.17 5119.37 3982.23 6163.38 4566.18 3459.9 4964.09 4809.42 5024.9 4306.53 5659.17 5094.81 5972.06 5713.22 5861.71 4359.04 3183.98 3794.63 4524.28 3778.1 5152.36 4511.82 5826.64 4220.65 6820.42 4816.2 6321.41 4896.52 4751.02 3372.79 5184.56 5282.64 4715.72 4669.66 4808.52 5046.33 5607.24 5053.92 6352.26 3847.38 3818.59 4863.72 6623.85 4262.82 5102.36 4342.9 5065.11 5069.84 4051.44 4241.89 5054.74 5941.72 5991.09 5126.91 6600.94 4788.58 5371.02 6155.1 5876.71 6262.72 5029.78 6515.84 4888.6 2990.77 4739.14 4918.77 4371.99 4219.78 4188.3 3885.86 5235.29 4479.94 6413.02 4863.27 5862.86 6049.79 5374.98 4719.7 6939.12 4735.33 5411.85 5092.37 6444.77 6314.07 4287.63 5315.4 6449.45 3975.31 3689.45 3824.16 5572.95 3868.18 6723.16 5584.06 7111.16 3817.13 5507.24 6851.54 4583.31 4503.89 5806.08 4853.39 4997.27 4093.08 4449.22 5543.27 4717.05 5287.2 6135.57 5998.38 4312.67 5423.8 4270.24 4989.15 5017.78 5015.69 6175.81 4727.24 6677.09 4305.57 6959.81 4829.35 5201.67 4424.7 4089.76 5526.55 3192.41 5215.15 4987.87 3315.57 5804.71 4764.96 5727.3 4242.52 5356.51 4277.88 3057.03 4087.15 4143.08 7500.97 3948.23 5228.18 5787.31 3927.99 5868.82 4050.9 4978.31 4099.77 4537.32 4981.9 4656.78 3600.43 4906.82 5131.24 5196.67 5004.23 6496.67 5474.8 6607.87 3664.11 5117.47 4925.63 5882.65 4434.19 5187.7 4623.61 6261.75 5177.64 4255.31 5453.3 4094.73 4407.9 3492.19 4584.5 5122.63 4703.08 6345.13 5274.19 5516.95 4406.4 4413.85 4844.57 4027.46 4470.98 5776.37 4516.28 3627.82 4044.45 5125.78 5344.43 4373.47 5045.38 5350.88 5372.61 3686.21 6480.17 5023.15 4377.07 3813.22 5101.59 5570.3 4336.42 5243.29 7589.94 3130.65 5628.24 5856.11 3327.49 4109.88 4234.94 4562.29 5013.13 5080.66 3417.33 4926.42 4164.13 4642.34 4520.1 4947.52 5874.89 4293.03 5813.4 4389.21 3791.79 4128.98 4925.44 4754.05 4951.47 6084.93 4307.28 3697.96 4739.42 4723.48 5538.93 5020.12 4745.45 2631.9 5281.28 6255.18 4668.71 4758.21 7228.46 6362.14 6719.88 5978.82 5266.5 4523.88 4066.38 4948.98 5227.52 4414.48 4092.24 5163.02 7144.24 5687.83 6442.69 6320.71 4648.04 3464.83 4721.32 4305.16 3293.56 3163.78 5274.14 4903.82 5746.28 4082.47 5511.6 4338.08 4378.3 6134.99 4989.56 4718.54 4440.57 5548.29 6766.43 2315.64 5916.16 4390.41 5226.56 5599.49 5313.22 3905.51 3999.94 4864.22 3901.8 5759.46 5083.41 3921.08 4190.31 5678.96 5262.19 4244.9 6070.58 6034.41 5452.83 5130.91 5402.24 4519.22 6445.22 3844.9 3695.36 4564.34 3963.86 4871.44 3848.93 5076.35 4306.11 5935.47 3402.32 5903.66 4528.49 5004.67 5365.89 5992.26 3960.8 5070.39 4980.85 5714.58 5110.45 5208.32 5248.77 3296.27 4083.97 4713.25 4607.02 5153.74 3895.51 4528.09 4165.81 6291.51 5174.89 5882.89 6246.22 4188.32 5246.61 4100.38 5344.77 5027.98 4899.11 5097.87 4278.07 7267.18 6256.02 5320.92 5269.18 4305.43 4406.1 5034.59 4942.77 4263.33 4454.63 5080.18 5912.61 3279.1 4403.98 4560.84 4729.43 5776.57 4562.74 5683.26 5598.74 5139.5 7493.3 4814.55 3527.05 5698.77 2477.07 6413.11 5529.42 5092.28 4965.89 5659.95 4152.85 2908.7 4453.64 4517.73 5469.47 4419.71 5660.16 3838.47 2588.37 6736.03 6235.57 3623.87 3087.09 6934.37 6113.95 4050.08 4097.57 5017.5 5563.79 6171.13 5511.88 4512.11 7055.42 5486.68 6048.86 5100.25 4285.32 5490.43 5022.28 5197.52 4959.34 4948.5 4527.02 4531.14 5013.42 3838.56 6020.48 6375.99 5200.05 5234.29 5313.66 5419.37 4466.03 4511.54 5409.33 5196.0 4923.9 4973.78 3329.99 3947.47 5091.68 4204.84 6243.0 6673.96 3556.85 3161.47 5441.96 3435.9 4288.3 5370.52 4652.29 5774.81 3746.31 5498.32 5346.27 6475.1 4969.21 2691.29 2845.98 4880.14 5289.52 5314.85 5941.4 5450.44 6510.17 5742.65 5592.32 5381.16 5565.13 6193.35 6086.96 5233.78 3701.27 5653.9 5046.21 4929.14 5894.61 3979.54 5304.13 5944.09 5833.06 4923.41 4497.31 5384.76 5257.12 4428.78 5243.43 4537.14 5551.9 3757.34 6415.61 4687.64 4888.12 5037.06 4541.8 5175.29 5842.56 5887.15 5412.31 7480.41 3423.15 4890.5 3981.07 5452.42 5328.22 6853.85 2395.5 3497.9 5941.61 5782.48 6248.6 5683.61 3836.45 6894.26 4986.51 5339.38 5178.99 5383.07 4591.87 4790.78 4247.15 6552.22 5651.07 6248.81 5273.35 4091.8 2651.49 4645.58 5181.4 5512.23 5275.32 5985.29 4898.94 4178.15 4613.31 4733.04 6119.09 5788.66 7531.29 5069.25 5048.89 5935.03 3991.03 6390.78 7435.25 6826.57 4788.87 4249.46 4495.87 3702.37 6022.72 4643.31 5527.33 6917.52 5402.21 4989.09 6718.19 4982.31 3848.54 4307.48 5331.02 4871.96 4863.23 4402.67 4470.61 4631.83 4384.88 6887.27 6008.49 4806.34 4287.53 5612.21 5945.08 4968.03 3306.14 5490.58 4863.79 4702.06 3830.46 6031.67 4689.15 6138.12 4655.16 5409.66 4345.67 3867.19 4765.72 4642.66 4039.91 4752.14 5329.59 6119.63 4950.97 5512.16 3197.63 4863.96 5191.08 5203.08 5163.77 4488.85 3731.84 4579.69 4901.07 5186.3 3436.15 4151.76 4020.4 3493.47 4721.02 4596.75 4933.65 5443.58 4558.46 5805.86 4049.02 4470.4 5311.03 5255.12 6169.11 5615.35 4027.09 6422.84 4502.18 5379.09 4602.85 5210.48 4962.77 5872.05 4853.02 6259.23 5088.44 5670.2 4711.62 4247.23 4114.24 4268.65 5349.31 4694.83 5509.42 4354.08 4256.43 5936.36 4520.62 3903.75 5229.48 4755.47 4485.99 5127.16 5475.8 5314.69 4244.99 6050.81 5543.46 6185.89 5965.81 3997.96 4750.17 5660.85 2330.66 3990.25 4177.19 3691.0 4752.51 3587.05 6229.37 5282.91 4425.84 3797.33 7256.35 4800.69 6566.1 3555.86 6386.78 4996.99 4896.39 6081.14 5480.83 4220.46 4607.85 5128.57 6000.7 3169.67 5604.21 3361.92 6710.88 5395.14 3967.48 6213.04 5235.11 6622.11 3685.13 6790.73 5251.4 5097.69 5857.79 6543.13 5276.7 5036.58 5411.02 4752.9 4287.16 5199.44 4062.5 4435.51 5374.07 4588.7 5683.95 3766.55 3554.48 5010.2 6496.52 5005.85 4216.17 6484.17 4938.72 4254.37 3374.08 4031.78 6098.1 5708.99 5687.85 5346.68 5296.29 4611.53 4285.66 4896.11 5172.53 4135.62 5801.99 5534.94 7644.38 7552.94 6101.92 5323.3 4998.21 4662.56 5166.79 2976.22 3405.98 4649.22 5394.55 5094.52 4946.74 2682.24 5996.33 5928.32 5475.7 4016.18 3619.07 5526.75 4275.57 5435.74 6385.23 5327.45 5560.26 6363.92 6205.93 4439.35 3460.94 5830.72 6184.4 3758.07 4373.45 4236.14 4407.87 5733.62 5169.9 5282.51 4460.92 5945.89 4042.28 4105.55 4340.76 6065.22 4221.28 4456.39 5514.84 3633.79 3914.2 5421.53 5937.08 6070.3 5233.29 4312.56 4612.06 5204.04 4750.58 5926.11 6667.68 5211.38 5089.62 4590.55 4741.26 5920.32 4255.85 4732.09 3988.3 4356.25 5149.72 4216.95 5776.96 5464.25 5486.48 5301.47 4617.55 3645.12 5424.88 5415.85 8659.64 5469.13 6027.62 5765.42 6123.03 5966.61 5711.11 4575.94 3546.71 5768.57 5564.23 5950.04 4231.83 2435.33 6401.43 4074.48 4558.47 5020.71 2681.29 5094.48 5839.71 3872.61 4238.4 4318.48 6132.95 5266.22 4860.33 3685.13 6004.68 4051.34 3361.26 3627.55 6239.84 4635.6 4256.67 3457.48 3931.07 6430.39 5417.15 3688.16 4681.72 3949.6 4945.39 3950.63 5661.62 5415.19 6631.19 4612.62 6648.68 4467.04 5626.61 5817.25 2983.99 2614.4 5061.98 4537.6 4923.24 4419.61 7177.44 3828.81 5309.98 4082.57 5255.18 5460.65 3004.16 4767.78 5235.17 4421.12 4779.5 4435.36 5254.49 6649.96 4303.19 5784.3 4256.57 6088.68 4643.56 4135.08 5620.74 4778.82 6124.08 5467.84 5053.95 5266.01 5253.37 5767.9 6515.8 5869.4 3685.65 3701.16 4186.6 5895.77 5750.07 6136.49 4757.74 6045.67 4209.49 5742.74 4244.21 4947.24 3875.05 6200.54 5148.58 4199.45 7234.66 6599.66 4055.54 4233.8 6098.95 4997.83 4893.49 5325.44 5021.88 5956.65 4200.09 4498.25 4188.87 3735.24 6574.95 6333.29 5731.57 5997.88 5576.92 6408.83 3930.79 4004.35 5226.97 5754.18 3312.06 5180.76 6799.4 5278.36 4409.63 5865.39 4427.28 6079.11 3082.32 3658.37 7440.72 5376.71 5703.6 6326.18 4807.28 4867.08 4266.03 4713.74 5407.78 4084.49 5449.46 6179.96 6632.99 6113.54 5147.36 6260.79 4563.46 6553.94 5726.66 5652.0 5463.41 5225.33 4929.75 6439.37 6045.22 4614.3 5134.39 3532.3 5769.98 5442.32 2221.99 3580.58 4863.01 5356.79 5657.36 3619.79 5029.47 6306.21 2978.76 2040.66 7016.27 5884.9 3876.21 5689.26 4916.22 6022.7 4940.84 4833.46 4809.67 7248.4 3946.28 3821.94 5984.81 5439.9 5367.73 3540.11 4640.06 3456.47 5471.74 4652.01 5421.64 4207.54 4886.12 6419.12 4976.12 4817.16 5453.98 3991.42 4388.63 5102.75 4597.29 5931.77 5938.17 5151.21 5398.64 6817.57 4477.04 3614.96 3886.68 5703.74 5662.55 5737.92 5365.24 4360.23 5293.51 4763.96 5008.63 3418.99 5132.68 4480.95 4993.35 6218.95 5521.25 3661.9 5370.85 5949.46 3178.54 3776.94 4765.02 5629.39 4448.13 2684.03 5070.29 4768.61 2261.36 5075.55 5280.69 4220.03 6923.84 5227.59 5703.07 4662.43 4630.82 3963.76 4043.66 5528.53 6799.88 3062.43 4540.86 5990.52 5426.78 2967.38 5604.35 4159.35 6477.91 4237.98 3091.67 4081.97 5401.99 5580.92 5973.33 5067.46 3583.21 2511.46 4011.37 2775.69 6505.78 4785.25 5461.55 6519.43 5876.64 5424.46 4857.84 4908.49 4962.21 4858.44 3468.42 4673.35 4771.13 4992.42 5297.19 4351.38 5550.75 5933.7 5280.12 4444.97 3498.16 4247.69 4409.27 4514.39 4588.99 4321.21 3548.39 4344.34 3673.28 4928.27 4858.51 3375.28 5625.65 4301.61 6107.89 4446.84 5660.55 5148.08 4834.87 4514.79 5760.22 3672.21 4795.43 5097.95 5108.06 3573.73 4693.52 6853.04 4745.43 5831.96 4747.55 3056.7 3755.95 6234.32 4586.19 4446.06 3450.93 5323.91 4270.74 6595.03 4558.15 4983.39 5222.16 4690.55 5107.23 5136.08 5558.68 4802.32 4010.57 4599.38 5246.47 6157.04 6191.29 4522.21 7422.36 5506.19 6719.94 4950.67 5832.37 6166.29 5453.6 5409.63 5294.77 4263.16 4709.05 3077.84 6109.49 4813.08 5860.67 5332.65 3764.1 4835.83 5413.31 6316.56 4332.87 6420.81 4715.58 4450.7 5151.52 5369.08 3101.75 4347.74 4518.04 5291.9 4009.62 2081.58 4874.18 3298.2 4270.15 6865.76 6449.64 6464.8 4684.44 4749.59 5799.69 3809.69 5571.72 3208.96 7051.9 4184.23 4144.57 6834.41 6226.14 5466.33 3000.29 5721.05 4209.31 6242.79 5950.45 5713.03 3583.49 5849.65 5052.84 4366.74 4165.21 5297.16 3184.64 4936.96 5206.33 5530.49 5653.03 3718.69 6192.0 2216.82 4509.89 4940.28 6752.75 5269.38 3004.34 5607.3 2928.82 4222.4 4000.43 4698.87 3420.08 4568.41 4912.04 3624.7 4539.07 5464.68 4475.83 2685.81 5591.76 4585.31 6625.18 5010.04 4570.98 5097.45 6293.89 2761.07 5737.75 5742.47 5366.52 3778.02 6552.21 5533.72 5533.42 7132.12 3678.08 5518.57 4187.31 5463.48 3240.51 4527.99 5161.01 4298.15 4376.7 5190.61 4628.4 6051.83 4642.93 4440.81 5941.9 3973.12 6642.76 6024.75 4497.78 5567.93 5987.42 4442.22 6451.33 4669.06 3012.99 6400.08 4743.59 5208.14 3317.83 4396.25 3763.05 5092.24 5549.49 5423.42 4766.06 6605.86 5012.5 5435.19 7093.13 4953.1 5818.95 4093.99 3940.49 4406.05 4680.94 5089.1 5828.35 5876.72 5236.43 5285.07 4680.14 4608.41 4083.79 4187.94 5980.59 5021.77 3796.15 4801.8 7216.98 5271.02 5718.28 4601.74 5088.57 5134.67 4215.0 4603.5 4481.76 5452.78 5065.26 4304.41 5885.28 6579.31 5323.55 3022.6 4811.76 4914.45 5313.12 5351.56 4661.03 5160.59 4691.91 5262.35 4320.42 4255.34 4510.8 5064.79 5889.35 4394.56 5896.26 4275.07 5825.38 4185.61 4047.87 4917.99 4367.78 5417.8 5146.37 4836.16 4232.16 5300.96 5151.11 5680.94 5730.33 5545.46 5193.01 4543.1 6550.44 3860.83 8325.01 3764.06 4523.39 5278.56 5434.47 5829.22 5631.14 4243.79 5811.18 5433.65 4008.15 4887.76 4811.32 4286.49 6184.88 5829.32 6405.0 5551.95 3918.87 5789.55 2275.45 4633.05 4901.2 4383.56 4990.79 3562.79 4516.53 4122.92 3604.14 5381.54 4452.54 5810.77 2711.19 5474.15 4028.32 4099.92 4884.59 3858.06 4511.7 4478.6 4304.63 5263.27 6300.92 4173.54 5599.29 6038.68 5046.12 4807.4 7013.17 3805.67 4590.01 6101.86 6506.86 5580.34 3852.6 5775.31 4706.5 5354.66 4647.67 5375.12 4356.36 4892.44 5578.94 7610.49 4286.17 3684.56 6028.09 5375.1 4172.6 5498.42 3984.88 5318.53 4732.09 4281.98 7165.9 5344.83 5480.3 7509.24 4146.81 5388.78 6101.13 4573.72 5099.21 6969.28 5636.4 5698.96 4350.12 5227.02 5670.0 4298.45 5222.51 6609.84 4344.51 3834.43 3781.77 5658.37 5581.55 4707.06 6074.94 3474.5 4250.88 6348.03 5732.27 4792.39 5146.37 6917.62 4013.38 6137.8 4343.78 5263.3 3352.35 4909.65 6523.86 7693.4 4326.48 3994.07 4219.94 4437.07 5907.46 3449.37 5491.9 4264.91 4659.16 4909.31 6522.59 5711.62 4798.17 5166.79 5425.98 6479.39 2895.63 4997.91 5079.22 4599.81 4714.83 7519.2 6355.68 5484.36 3953.55 4277.24 4063.9 4469.54 4314.56 3928.53 5606.51 5740.65 3834.47 6349.67 6329.53 4227.41 5993.0 4803.57 5966.42 4110.59 5131.15 3332.49 4847.14 3950.27 4214.44 5116.66 5378.23 4787.97 3746.36 4981.43 6789.23 3989.7 4777.03 5069.89 4157.29 4246.61 5452.36 3804.5 4609.02 6486.37 4638.18 3344.57 6448.66 5220.76 6945.98 7046.11 3427.63 4449.98 4863.97 6342.48 5756.75 4587.67 5599.7 4163.74 3665.95 4296.69 6238.32 4095.75 3319.67 3603.51 5283.8 4076.59 5135.96 5164.1 6464.15 4972.17 5491.37 4222.77 3783.54 5268.38 3475.67 5527.23 4805.33 7038.89 3863.67 4814.12 5067.56 6069.3 2735.53 5116.6 3747.03 5388.39 2783.85 5335.47 4356.49 4526.81 6740.71 5399.29 5971.22 5533.19 6602.43 3568.28 6063.64 5996.66 4405.42 2995.67 3598.08 5522.21 5698.23 7300.58 3608.06 4923.57 6633.61 5217.95 4867.7 2279.05 4075.28 5291.05 5161.1 4619.2 5166.41 5067.56 2596.96 5701.75 4350.15 4139.3 6541.45 4750.49 5078.31 5391.48 4923.43 5009.83 5210.38 5717.8 3629.44 3566.79 5374.67 3299.24 6246.56 4741.28 4215.2 6212.15 6813.72 5327.75 4896.65 4946.23 6083.28 4196.37 5211.6 4453.97 3556.79 5138.2 3503.41 5783.48 4701.5 4504.35 4771.65 4840.44 5093.82 5951.81 3924.14 6918.35 4834.3 6804.79 6471.42 6372.13 5369.5 4428.14 5404.01 6016.19 4124.49 4479.11 5714.25 6685.4 5699.53 4850.06 6332.01 7044.29 4234.18 7085.01 5980.95 6193.08 3862.77 5887.01 5168.35 3185.39 3728.18 5633.61 5048.19 4243.26 6799.23 4888.27 4592.15 6487.56 4854.11 4901.44 4998.22 5417.21 6104.26 5583.61 4986.71 7382.3 4022.56 3772.3 5522.75 4855.01 6208.9 3340.09 6061.63 6545.43 4829.35 6760.92 8137.11 5484.32 6650.77 4067.96 4824.12 7104.73 6162.3 3272.75 4264.54 3516.27 7043.44 4263.78 4643.9 5228.75 6047.14 5003.78 4061.6 2603.64 5107.0 6502.97 4783.07 4852.58 5806.31 5456.71 7317.04 6412.67 7001.83 5012.97 4036.91 5589.37 5439.49 6639.64 5212.43 5454.12 6348.54 4066.57 5642.35 5156.76 6357.47 5535.91 3230.13 5955.86 6176.67 5325.96 5412.24 5016.02 4920.21 4581.37 4049.16 5851.61 3936.95 6153.94 6836.82 3858.17 4631.99 4740.98 5128.77 7122.87 5797.36 4153.84 5119.86 5089.26 5084.17 3776.8 5096.43 6156.21 2460.79 4653.83 6171.71 3628.89 6589.82 4668.88 5027.43 5867.64 4438.58 6059.93 5602.53 5073.02 3472.91 4989.2 4711.04 7144.05 4506.18 2970.9 6542.5 4383.47 5971.21 6318.23 4206.98 5174.75 5932.07 6101.57 4891.38 4793.65 2949.12 4532.89 4533.37 4848.46 5742.09 2779.99 2884.65 5887.38 5807.46 6942.34 3658.05 5478.11 4549.69 6423.81 5526.31 5030.15 6413.15 4058.87 6103.11 5048.55 4984.46 4024.31 5948.71 5844.72 3856.53 3992.97 5460.89 6040.74 5260.85 4054.22 7228.94 5393.65 4961.99 4648.21 4595.12 4393.16 3311.29 6484.43 6192.77 5416.45 6459.51 4955.16 4904.51 4147.31 5989.05 5751.15 5950.88 4441.22 5853.89 6551.93 4140.4 3110.13 4386.8 5446.4 4625.67 4725.01 3485.54 5966.75 3104.96 6735.97 5305.59 3636.15 4330.58 6114.89 5754.6 5135.63 3288.01 4355.83 6870.97 2202.77 5351.86 6056.87 5474.01 4149.55 6201.86 7554.58 3380.69 5166.89 3639.44 5491.63 5725.37 3868.62 4729.42 4844.83 5244.78 5652.87 5483.7 5018.69 6384.7 5952.38 3896.27 5807.52 5963.36 5230.02 5307.35 6016.08 4731.21 3124.7 6102.98 5138.33 3477.1 5769.14 5493.89 5261.19 4811.22 4788.08 6379.14 5216.26 3687.65 4749.96 5377.37 5869.67 4311.48 4899.73 3152.86 5457.66 6394.19 5973.89 5518.11 5087.14 4342.18 5169.48 6776.22 6064.71 3719.11 4467.13 6060.17 5934.82 5415.45 4385.81 6592.93 6350.71 5096.24 3381.82 7107.63 4831.93 4023.93 5868.89 5494.28 4099.26 4834.39 3831.52 6106.43 6761.81 4918.76 4208.41 5826.78 2856.55 6214.73 4553.68 3758.22 4268.19 4532.7 3205.68 5561.74 6100.73 4908.75 6556.26 4593.7 4349.13 6818.91 3634.5 5478.95 3851.85 4019.34 4658.24 3623.19 4906.11 4387.39 4564.1 5825.55 5509.51 4848.14 5366.22 6193.73 4316.5 3742.11 4192.21 5712.35 3597.43 5701.52 4743.9 4158.91 5311.55 5321.17 3360.86 4869.25 5545.21 3877.8 6418.11 4501.78 4922.49 5039.12 4824.81 7307.21 5135.5 5788.97 5007.21 5545.59 5206.47 4057.17 7066.96 4263.65 5467.63 5666.95 4127.53 5210.75 5175.89 5361.87 5232.85 6816.66 4473.29 3971.08 6204.65 4482.9 5513.8 3503.65 4392.65 4869.48 5510.96 6653.07 4745.16 4584.81 5071.98 5719.79 3199.4 4371.08 5254.24 4968.14 4914.03 5086.29 5144.56 5139.18 5551.43 3034.16 5049.99 4201.03 4333.87 4458.64 4312.15 3657.69 6015.02 3572.94 5001.58 4820.17 6456.58 5244.98 6436.74 5366.11 4384.28 5944.3 5640.72 3619.72 4565.93 4504.52 5615.84 4464.73 6440.38 3274.85 4580.06 4835.97 6419.64 5262.47 4587.7 5196.92 5644.81 4807.35 4568.64 4642.2 6555.44 5293.75 6358.93 2205.51 3894.64 3703.49 4374.74 4757.2 5975.23 4745.79 5470.04 4211.82 6550.4 4891.67 4887.52 6631.28 5350.88 6571.31 5429.3 4944.51 5532.72 4697.91 5179.17 5579.39 5270.51 5148.1 7261.51 5224.64 5949.73 4312.48 5527.13 6370.33 4278.57 5081.08 6318.25 6864.06 5001.87 3644.78 4883.63 4078.93 3814.65 3886.72 7778.01 4034.05 5127.82 5798.38 3862.91 3419.87 4456.26 3908.98 4027.33 5113.6 6328.42 3563.14 5851.63 4954.81 5610.53 5755.15 3926.11 5464.83 2781.96 5414.58 4991.35 3512.94 5601.55 5334.36 5750.35 4489.99 3683.86 5658.14 5473.72 7124.45 2617.39 5144.44 4062.56 5034.69 4198.94 5079.64 6003.78 5684.25 3766.69 5188.53 4882.66 4027.63 5603.68 4526.34 5610.95 3220.8 5042.75 4598.92 5241.22 4979.52 5490.75 4407.79 5214.63 3495.68 5783.94 7362.42 4202.77 5836.14 6008.81 5510.9 4583.52 4505.28 3492.83 5585.14 7039.98 6006.89 5792.98 5910.86 5690.96 5805.1 4456.11 4810.98 5026.76 5091.22 5212.92 5556.0 5748.9 3742.31 4608.34 5695.79 3622.8 4770.51 4431.23 5577.41 4467.0 4994.65 5740.98 4258.98 3787.08 6545.99 3903.91 5630.9 4929.6 3919.62 4368.28 4945.0 4474.83 4548.45 4658.11 4551.26 5114.07 5730.61 4508.18 4263.18 7142.95 4559.74 5064.67 4383.68 6618.21 6666.67 3717.47 4504.86 6200.63 5969.37 4928.35 3217.67 3844.54 4509.46 6163.54 5212.37 3538.53 4680.69 6500.49 2628.22 5438.92 5058.51 4244.49 5110.11 4050.03 4124.76 5036.98 4120.07 4521.75 4813.33 4952.52 3429.57 3840.21 5569.2 6746.66 5410.33 5420.67 5635.32 4827.61 4316.45 5409.08 5481.64 5673.75 5360.67 6647.08 6263.3 3422.29 4501.05 4537.03 6548.29 3990.96 5352.24 4326.06 5034.46 5793.12 5469.17 5473.05 4373.2 5153.18 3743.76 3425.69 6711.21 4971.29 5244.22 6280.13 5832.29 2606.51 4438.76 3864.92 4128.1 2955.36 6119.99 4159.81 4960.64 4446.58 4983.3 5372.82 5401.4 5053.15 4681.29 5499.59 5124.17 6239.68 3845.9 7320.78 4834.44 4125.9 4234.88 5782.43 4708.31 3873.92 4833.67 5023.41 6282.38 5325.91 5347.9 4092.07 4646.51 5657.55 5727.79 5188.82 4700.07 5043.14 4717.73 4928.85 5072.5 3904.07 4749.18 5553.94 3663.0 4546.96 6304.49 4316.0 5134.72 4921.1 3814.16 4420.6 4475.38 5287.25 4184.47 4920.88 6511.37 5917.34 4216.44 3999.5 4012.92 4346.07 4462.87 4013.86 4177.47 4218.16 4933.49 2918.64 4728.55 4554.68 6139.64 4140.92 4692.32 4512.07 4896.43 5984.8 5236.24 5463.06 3127.83 4585.04 4639.8 3986.41 4212.15 5678.58 5260.52 4385.49 6102.49 6570.35 5114.23 4242.63 7407.91 3269.54 5836.26 6015.22 6061.85 6063.44 4051.18 4454.74 5512.44 4826.52 2904.46 4583.94 6449.06 5046.31 4337.32 4685.4 1937.5 5849.53 5241.75 4651.99 4731.53 3763.9 996.652 4788.7 4577.73 4420.11 5863.0 6127.39 5965.58 3352.34 5640.12 4901.29 4972.18 5329.76 4775.04 4607.18 2403.72 7200.89 4147.49 4802.98 4833.55 4081.34 3646.95 7224.99 4954.76 3908.56 5384.86 4642.74 5661.6 5285.75 6099.28 5385.03 4169.15 4778.37 5134.17 5968.54 4904.35 5592.54 3247.97 5124.34 4114.2 4904.37 4358.81 4651.64 5757.29 5016.46 5061.75 6273.6 3769.24 4763.4 5902.67 4236.86 5454.11 4708.17 5510.45 5393.76 3684.15 4941.02 4730.14 3994.39 5806.61 4983.1 6010.59 7123.04 3965.3 4618.73 3668.93 4009.24 5906.57 7541.76 4402.17 4775.49 4932.29 3954.77 4990.23 3784.94 3220.29 5749.6 3125.13 4506.66 4141.21 4174.44 4439.71 4064.58 5209.55 4564.41 5667.51 5426.4 6331.74 4198.9 5431.29 5951.86 4659.88 4252.18 4213.05 3791.41 5157.38 5853.12 4546.44 4224.3 4841.7 4184.21 5702.4 6203.03 952.938 5069.9 5235.87 5473.89 5273.37 6089.45 4732.37 5810.17 5265.21 4985.3 4966.07 4657.24 5713.36 4400.14 3669.32 4762.1 4704.92 3987.69 5424.55 6502.99 4392.75 4287.25 4271.07 6219.34 4191.01 5674.63 5340.05 4589.06 5995.4 4140.04 5890.25 5322.11 5700.79 6710.14 5759.79 4598.54 5218.42 4816.51 4770.63 5345.73 4841.23 5188.22 3990.94 4756.8 2804.54 5477.8 4176.32 4462.35 6069.78 4241.68 3185.09 5532.75 6949.65 5495.0 3469.18 3372.95 4489.29 2945.34 5676.61 5064.23 4301.93 5846.95 5268.15 5701.63 5819.0 6347.72 5120.92 4924.07 3200.6 4629.02 6240.42 5146.0 5721.14 4608.62 4288.45 5407.96 5084.5 4918.64 4987.28 4071.75 6206.98 6638.25 5078.59 6562.03 4815.47 3899.7 4759.99 5134.33 2646.13 5419.57 5162.67 5214.4 5760.98 4636.53 4705.68 3629.49 5766.05 5469.35 5117.64 6334.53 3835.81 3242.31 4898.29 5372.25 3234.26 4830.13 3494.16 5370.9 4074.16 4529.77 4325.13 6172.27 5390.33 5078.73 5278.54 5729.0 5729.92 4179.87 4786.66 6224.13 4761.84 3661.67 5370.1 5136.87 5684.05 3667.93 5638.7 5024.32 5813.79 2741.2 4644.88 3779.45 5790.42 5784.37 3142.09 3682.35 5591.77 5182.13 5003.3 3756.96 6110.48 5800.81 6245.52 6793.1 6016.87 4068.31 5077.29 5166.05 5515.73 3671.06 3612.44 6715.73 4850.5 5866.91 5763.05 6405.69 2820.07 5129.68 5076.84 5357.39 4825.73 5247.01 4208.37 6296.54 5797.21 5685.74 6019.35 6740.35 4678.7 3450.07 3673.6 4550.92 3306.84 6215.87 5191.26 6060.06 5866.42 5544.27 5393.43 5308.33 3484.81 4666.12 4685.65 6023.07 5377.01 6470.23 6506.63 3495.3 4668.8 4271.93 4697.49 5125.17 5735.08 4859.01 4726.2 5524.45 5034.05 7133.44 4711.15 4426.02 3825.48 4474.39 3810.68 4658.59 4196.62 6478.35 4357.11 2809.19 5453.77 5005.6 5486.89 4916.7 5589.53 7208.19 3587.93 4549.51 4975.85 4095.83 4517.29 5695.25 5323.95 6171.01 5716.42 5796.26 4603.04 4620.95 5578.18 4870.94 5368.93 3460.93 4488.39 5124.86 6121.56 4927.73 5914.5 4602.57 6006.16 3565.32 5710.33 3622.48 5344.44 6432.8 4626.72 5131.77 5549.71 4410.82 4368.12 4365.58 6443.99 3889.98 5193.58 5399.43 5490.64 5034.34 5695.44 3769.2 3422.21 3916.42 5036.14 4507.46 5265.63 5684.88 4431.06 5730.2 6523.78 4645.86 5620.88 4941.52 5900.0 4262.74 3783.79 4248.14 5317.19 5279.19 4016.6 5192.92 5275.57 7050.08 5891.25 5998.13 4493.79 4932.56 4279.44 5192.49 3487.31 4899.19 6643.4 5058.34 4028.22 3918.94 5575.11 5293.13 7350.26 3768.46 4507.36 5167.53 6224.85 7145.73 4168.52 5403.97 4795.08 5106.46 6562.92 5648.78 5501.73 4697.24 4983.43 7035.54 5233.76 4683.28 4217.36 6549.8 5679.74 4851.18 4165.36 5288.33 5368.52 4871.77 5811.26 5205.38 5062.77 4884.93 6075.99 6028.63 5262.79 5927.2 5146.1 5035.71 4419.79 6485.77 3869.39 5960.5 5152.78 4117.9 6896.55 4753.76 4638.09 5330.26 4441.91 5828.25 5939.22 4725.11 4215.05 3626.86 4604.1 6371.96 5076.11 5990.75 5600.21 4750.81 3953.26 4282.11 5467.51 5459.92 4625.53 4096.47 4104.04 5114.67 2638.82 5353.66 5030.33 5593.79 5196.08 5025.42 4965.24 6379.38 6257.79 4495.75 4849.5 5353.23 6229.83 4468.26 4523.81 5106.33 5293.37 5198.94 5271.88 5933.54 5559.79 7168.2 3763.85 4571.74 3419.07 5740.78 4096.86 4796.12 5001.51 5997.91 5385.86 5115.42 4082.4 3186.07 4369.86 4209.0 4967.51 5482.76 5173.82 7212.97 3720.7 4211.36 5698.53 3604.31 3856.73 4450.49 3468.45 5764.52 4390.64 4608.01 4045.67 6005.95 4308.49 4930.17 4581.1 6241.77 4085.96 5762.82 7360.12 6223.98 5821.49 5617.29 3035.06 5580.44 4262.19 4597.88 5537.34 6022.78 5884.99 5726.42 7025.09 4674.9 4433.12 3392.26 2549.95 5487.63 5461.72 4361.24 3852.82 6599.28 5138.93 6406.8 4556.19 7086.69 5368.66 6170.9 6875.73 4436.48 5226.42 5758.98 6081.3 5615.35 5117.52 3967.76 6311.89 6734.39 5987.88 5942.45 4228.53 4150.76 6123.46 5005.72 6142.88 5155.28 5111.26 5388.73 4764.83 4949.55 4600.71 1969.87 3132.34 3957.38 4841.28 4494.15 5507.38 6889.5 5407.69 4710.88 5300.17 4416.87 4057.4 4896.67 5534.23 3934.11 4781.9 6025.77 6815.96 4466.22 5339.6 6153.71 5917.08 5483.37 5418.12 5934.05 5322.07 5770.07 4714.66 5101.6 4984.17 4656.01 5781.62 4037.86 6589.13 2347.41 5602.62 4542.16 2030.03 3543.37 5628.97 5714.51 5527.27 4484.78 5104.39 5234.2 5847.91 4612.13 5846.6 5327.05 4109.44 4903.84 5438.55 4290.49 4434.65 6688.53 5977.66 5209.5 5065.74 5791.25 4873.23 4028.35 5464.05 5879.24 2980.31 5410.6 3148.79 6348.93 6824.53 4332.64 4742.82 4422.23 6791.86 3989.26 4820.68 4930.72 5728.58 3745.02 4887.73 6297.99 5378.24 5918.95 5817.74 4538.89 5887.71 3402.44 3770.22 4848.98 5150.84 5184.98 5087.97 5339.82 4519.03 5460.57 5110.27 4745.44 4612.68 6649.52 4232.33 5462.6 4747.68 5770.92 3093.38 5095.52 4878.93 2002.78 4087.32 5517.65 6647.85 4009.68 2569.12 4161.32 5161.74 7336.37 5932.28 5560.23 5099.9 2960.5 6945.69 4975.32 4298.7 5118.86 3902.48 4183.4 4304.64 6030.39 5833.78 4733.79 4823.06 3799.01 5254.49 5288.64 6213.24 6883.86 3579.59 3350.99 6161.94 4065.28 5057.59 5939.29 4461.14 5285.6 4574.54 5575.11 5615.06 5490.54 5061.74 5203.54 4047.95 6189.67 6142.94 5001.69 6581.56 4052.43 4061.87 3980.46 5383.9 5165.31 5158.44 3798.09 3886.56 4288.5 4496.51 5715.51 4511.05 3456.3 6561.94 5259.21 5092.93 4256.08 2803.01 5881.93 4444.0 4399.52 6771.18 6182.19 5327.39 7415.84 4981.81 4138.59 4938.33 4970.55 4621.33 5157.73 4541.22 4934.66 4946.08 3539.68 4984.01 6217.33 4557.1 4605.39 5927.1 6270.59 6175.27 5876.51 4103.76 6731.89 4733.41 4286.61 5264.83 4603.66 5453.2 4969.68 5136.51 3901.53 6815.51 5313.86 5232.16 4457.05 5189.91 6031.22 5485.84 3618.64 5703.84 6424.77 4335.79 3530.82 5453.69 5797.32 5432.04 5689.56 6556.86 3921.27 3702.45 5537.61 4491.96 6084.88 4199.44 4397.06 4467.51 4053.12 4479.5 6261.67 3435.13 5065.78 5703.34 4521.42 6668.98 3977.98 6043.34 4939.56 4128.93 4959.72 4712.17 4845.91 4723.71 4461.67 5129.4 5114.51 3303.49 4655.37 4622.73 5585.25 5256.75 6351.89 6530.78 5059.37 5783.38 3043.77 4139.39 5237.55 3909.94 5088.64 6589.8 4905.53 6920.92 7392.65 3729.16 3783.36 5319.1 3757.23 4181.93 6828.8 6570.43 3820.19 4979.5 4586.82 4745.37 3133.28 6026.04 6200.05 5418.98 5859.17 4034.41 4052.49 5522.34 4150.44 5326.03 4420.35 5717.45 4948.96 5256.82 5117.83 4013.86 4645.93 5448.64 5244.95 4585.37 6417.61 3721.69 5395.12 5783.69 6074.39 5317.83 5350.9 3483.61 6738.9 4460.89 4554.24 4157.1 3939.96 8052.53 4867.12 5910.66 6520.19 4637.3 1458.87 5141.03 4840.44 3997.68 8123.59 4819.83 5765.14 4801.16 4767.54 5071.38 5121.08 4696.03 2927.84 5688.77 6177.68 4698.7 2848.44 4220.43 6045.26 6500.45 5743.8 4907.55 4094.63 5084.76 6666.34 2932.52 6605.11 4757.87 3557.46 6636.43 5431.14 6298.8 5178.07 3689.24 5151.19 5777.26 4171.02 6119.0 7012.36 5028.06 4002.99 4886.99 5159.67 5587.3 3161.1 3572.73 4864.38 3228.27 4721.98 5252.82 3543.98 5056.26 5878.55 4014.44 6604.72 6002.77 4431.46 3794.47 4610.55 3207.84 4967.02 4614.49 5400.69 4462.5 5573.31 5004.68 3808.04 4023.88 5348.11 4405.61 4746.15 6275.25 3720.38 4758.84 4731.37 5023.61 4452.36 3976.0 4672.86 4511.34 6463.71 4068.41 4742.35 5394.79 5645.54 6264.03 4526.87 3562.8 4151.74 4691.01 5192.82 4174.22 3573.84 3038.91 4067.89 3922.28 6294.09 4571.57 3445.92 5131.07 4121.07 5236.69 4197.87 5524.28 5105.54 5731.43 6353.81 3518.14 3414.67 5444.36 5044.68 5771.98 5899.78 2649.69 5000.74 5772.57 5268.27 5637.53 4813.81 3882.37 4634.25 4095.4 5901.8 4718.61 5188.57 6351.48 5357.33 3830.7 6210.0 5432.4 4262.52 7430.48 5992.06 5545.68 4970.12 6044.01 4967.93 6369.66 5973.57 5734.07 6241.48 6033.28 5957.82 6286.27 6327.54 5616.66 4802.36 5368.28 5327.71 5466.13 5257.38 6229.64 5075.23 6263.87 4975.56 7282.36 3826.01 4645.91 5581.01 6834.92 6379.33 5971.95 3979.46 5652.73 6321.97 6412.84 6509.54 2589.19 3792.06 6079.55 5128.59 5485.61 4993.49 4937.36 4293.3 5308.4 5310.33 6583.37 3688.83 3956.24 7558.99 3393.59 4142.1 5043.14 5333.04 5445.91 4521.99 4812.59 6842.54 7115.67 5675.45 3361.11 6038.56 2807.46 5599.16 4179.8 3488.34 5658.35 5428.24 5631.32 6892.33 4505.3 5793.14 4491.26 4609.65 5704.61 4832.21 5009.21 4574.03 4379.91 4942.63 5290.37 5850.38 5264.08 7066.26 4227.66 4730.97 4594.89 5245.95 3677.85 5821.42 4515.02 4677.84 3463.53 4924.52 6126.03 2970.24 6044.69 5658.05 6593.1 5462.1 4000.51 6032.45 5011.37 4026.03 2827.92 4441.44 6908.32 3467.11 5336.61 4817.75 6153.26 4848.15 4439.09 5523.81 5648.59 6697.45 3873.79 5717.67 5252.37 5515.59 3224.81 4499.54 5037.58 3775.38 5640.67 6572.17 6080.69 3751.73 5555.89 4766.47 4871.1 5678.08 5922.62 5872.45 4414.09 5125.45 4188.16 3784.68 3717.22 6305.9 6649.21 5507.07 3470.69 2943.17 4654.92 5286.55 4880.78 4322.56 5509.09 5625.02 5212.05 4829.77 3928.99 4444.92 6959.88 4125.75 5749.53 5130.57 5247.73 5090.48 5402.45 5582.28 3985.93 5945.25 6071.59 3856.4 4696.06 4137.16 6189.29 5984.55 6581.13 4569.32 5803.3 5580.95 3549.92 4032.06 5246.81 5089.1 5888.95 5394.78 3463.34 5122.38 2853.68 5262.85 4998.37 5329.84 6559.82 3879.83 6565.95 4577.98 5043.34 5886.81 6126.5 6322.0 6007.1 6345.2 5488.96 5128.03 5410.73 3720.92 5087.3 6139.74 6637.38 4975.57 6111.23 3057.3 6150.31 5873.62 5214.71 4996.91 4811.11 3920.44 5379.52 4450.51 4866.8 5314.67 3851.47 5563.47 4966.74 5651.46 4066.36 3162.27 6033.93 4083.24 5516.37 5092.44 5432.2 4232.44 4612.4 3312.3 5563.09 6381.58 3282.57 4798.13 5212.2 4611.21 5108.42 4630.5 6296.36 4432.32 4451.76 7885.41 4046.22 5782.25 6457.89 4104.97 4844.2 4575.72 5114.61 6118.13 3374.62 4420.3 4926.62 3917.09 6332.64 6009.93 4083.1 4613.32 5270.1 5191.29 5130.56 4947.64 4957.99 4063.26 4997.89 4542.62 5093.28 4859.95 4132.08 5522.18 5223.1 4850.49 3873.72 4981.55 4592.49 3625.98 5479.86 6188.62 6474.5 4702.32 4763.04 5971.9 3746.62 4413.56 4532.67 5034.02 4876.37 5316.05 4769.62 5260.13 4649.5 5181.31 4810.74 5985.75 5475.83 4149.17 4329.8 5728.27 5672.46 5202.33 4313.38 6598.99 5250.56 3633.58 2468.16 6294.14 4339.97 5203.75 5169.09 4691.15 2459.88 4210.24 5470.67 5901.71 5225.11 5342.9 5252.22 5733.12 6436.29 4034.88 5108.84 4582.12 3511.5 4295.25 4520.14 5067.92 3188.21 5357.14 4850.95 5919.27 4793.06 6271.22 3421.81 6188.33 3920.64 6186.24 6916.18 5786.06 4137.41 3868.69 5447.74 6033.72 5007.41 3768.62 3692.99 6213.74 2329.93 4369.87 4959.94 1635.31 6938.87 5639.4 6185.73 4806.99 6520.96 3771.91 5856.43 5217.62 6178.19 4746.19 5349.85 4616.81 5715.25 4362.94 4469.82 6545.78 3354.94 4870.14 4404.87 5237.27 5105.72 5767.65 4750.76 5003.49 4907.03 5497.27 4081.77 5617.91 4948.21 2181.29 4987.01 4706.31 4202.12 2694.25 4735.99 6492.44 4203.68 4739.56 5145.39 3482.73 3996.93 6351.95 5195.09 5345.05 7679.2 4881.51 6131.52 6009.88 4699.77 6729.99 5093.41 6842.35 5144.23 5464.34 3621.63 6153.07 4414.06 5908.57 5944.52 7296.47 5050.2 2513.38 4821.41 4908.32 4924.53 3995.08 5019.84 4499.52 3874.12 4028.13 3900.93 5784.38 4457.73 6476.35 3113.64 6260.58 4067.24 3053.19 3074.49 6571.26 2832.83 5827.3 6036.99 3010.1 3825.98 4589.22 5087.03 4667.84 3906.41 4123.08 4512.6 4260.38 4636.45 4932.27 5638.51 6793.49 6060.19 4962.35 6786.37 4487.51 6805.02 5354.48 7394.47 4729.45 6261.13 5374.09 4720.34 5244.47 5378.75 4731.16 5510.89 5822.7 3780.07 4159.89 5466.49 4038.17 5178.55 4907.48 5146.69 6818.23 4488.41 6679.12 5412.07 5652.19 5512.57 4813.55 6578.62 6284.12 3465.03 4796.04 3839.0 5229.56 6011.4 5799.86 5172.1 4672.34 6052.22 5376.41 5003.63 2932.2 4695.7 4944.08 4082.01 5269.39 3964.03 4305.35 4216.33 5832.72 3903.9 4721.2 4444.95 5161.02 3124.49 6265.48 5003.81 6262.18 3818.37 3352.46 4701.03 6225.05 5434.04 5200.1 3997.52 4444.54 5779.9 2626.41 4909.74 4311.92 5310.33 6664.54 3922.98 5161.73 5259.48 4777.96 5801.89 5254.93 4803.4 6833.5 5742.39 4780.16 3834.01 5616.11 4433.23 4813.24 5759.19 5847.27 4490.2 4304.75 5480.86 6139.9 3982.31 4720.22 4474.96 4084.87 4758.76 4790.63 5259.29 3584.05 4916.75 4818.53 5097.85 5584.64 6189.04 6224.64 4221.03 3799.55 5082.66 4550.77 4337.93 3563.33 3550.88 5536.0 4345.51 4048.73 4246.24 4600.81 4919.13 5640.63 4900.26 5783.88 5002.38 4167.55 6705.93 4865.11 5449.09 5502.14 6470.87 4465.56 4495.33 4131.08 5282.67 5747.9 3864.19 4287.93 5315.71 6203.24 6158.93 5081.65 4823.14 5438.5 4621.32 5806.74 5699.4 3878.8 5237.76 4698.94 4286.84 3948.21 5669.15 5296.05 5263.86 3330.85 5056.32 5533.52 5410.33 4747.24 4380.86 5576.16 5648.02 3308.75 5210.22 2451.27 5677.42 4929.35 5606.22 3943.77 5242.38 6081.35 5459.52 4609.98 5566.5 5663.36 4276.59 5579.04 5125.53 5994.21 5403.81 5082.25 6964.78 5299.03 4374.05 5036.84 4565.36 5813.68 4025.08 4008.67 3618.53 5040.9 4770.21 8013.28 3846.55 6608.94 2613.78 3796.73 5417.07 5656.84 5738.37 6789.66 4739.41 5312.2 4706.59 6760.64 5734.84 2515.5 5551.79 4950.07 4582.24 5367.05 4449.73 5647.11 4088.72 3945.62 3743.85 6236.46 5342.17 6379.3 5015.67 3795.63 5189.4 4576.71 6538.04 4894.15 6157.59 5201.3 5848.41 4090.28 6223.33 5402.81 4333.23 4328.76 5561.63 4124.33 5168.97 4358.06 5093.51 5647.93 4280.92 6201.49 4696.92 4605.61 5154.74 6898.8 5386.95 6540.57 5332.11 4893.72 6004.72 4072.4 5373.78 5345.65 4489.18 5863.36 4632.75 4752.94 4994.98 3950.53 6423.96 6058.13 5894.69 6988.4 6635.51 4060.17 6051.35 5302.53 4909.13 3999.81 4287.61 4867.13 4604.34 4439.17 4863.27 2701.42 4502.12 5442.79 5051.39 6673.92 5151.68 4633.59 4884.94 5362.15 4455.61 4738.72 4752.31 5240.97 5569.85 5405.6 3929.35 4884.93 4759.38 6960.97 4287.15 5282.51 5504.65 5669.41 5732.11 3919.47 5596.68 4868.66 4004.39 5159.9 5283.65 4644.68 3082.16 2892.36 4248.58 5981.54 5911.29 5416.41 4694.27 4849.21 5177.88 3793.83 6981.47 3916.15 4246.83 3860.8 5145.13 3747.96 5611.29 5940.5 4521.88 6568.45 5004.22 4601.54 7263.57 5705.96 3832.09 6437.99 5739.69 6632.04 7360.62 4977.64 4985.45 4983.56 5699.51 2489.44 4714.52 5499.37 4883.13 4836.76 5551.09 5755.98 4501.1 5581.47 4384.91 6550.61 4987.01 4713.56 6094.34 6779.82 5543.67 4739.5 6210.48 6377.45 4182.05 3255.93 6853.07 6327.61 5733.59 5575.8 5268.93 3695.72 6874.6 5106.9 5306.31 5523.96 4223.53 4733.37 4535.94 3037.72 4523.9 5126.08 5604.0 3760.4 4951.02 4602.7 3783.35 4037.16 6395.63 4987.48 5943.61 5479.17 5020.37 4542.25 4414.23 5233.88 4785.55 5245.4 6189.81 5438.6 7370.52 4726.5 5467.05 3724.23 5103.3 4963.88 5888.94 4727.98 4122.2 5175.88 5267.65 4516.26 4790.16 3509.34 3647.26 5360.88 3731.58 3166.37 5369.42 5207.08 5205.53 4587.19 5543.05 6028.89 5333.16 4888.17 5392.85 5077.2 4274.05 5275.27 4277.54 5529.09 4531.46 5925.82 5448.68 4072.95 4491.62 3865.5 
SCALARS Velocity float 1
LOOKUP_TABLE default
1.19294 1.19235 1.19313 1.1932 1.19274 1.19292 1.19179 1.19205 1.19249 1.19262 1.19315 1.19245 1.19308 1.19178 1.19272 1.19254 1.19177 1.19246 1.19178 1.19206 1.19178 1.19178 1.19221 1.19178 1.19178 1.19201 1.19178 1.19177 1.19175 1.19242 1.19221 1.19177 1.19178 1.19175 1.1918 1.19176 1.19178 1.19178 1.19178 1.19207 1.19206 1.19265 1.19224 1.19214 1.19242 1.19213 1.19178 1.19209 1.19193 1.19177 1.19241 1.19178 1.19176 1.19301 1.19254 1.192 1.19202 1.19215 1.1918 1.19232 1.19172 1.19248 1.19243 1.19182 1.19173 1.19179 1.19194 1.19196 1.19287 1.19256 1.19182 1.19177 1.19249 1.19175 1.19178 1.19181 1.19186 1.19221 1.19147 1.193 1.19216 1.19308 1.19337 1.19279 1.19195 1.19225 1.193 1.19303 1.19258 1.193 1.19178 1.19314 1.19319 1.19188 1.19178 1.19242 1.19185 1.19182 1.19239 1.19315 1.19414 1.19248 1.19261 1.19216 1.19207 1.19375 1.193 1.19233 1.19311 1.19302 1.19304 1.1926 1.19282 1.19261 1.19266 1.19178 1.19213 1.19176 1.19178 1.19227 1.19178 1.19178 1.19202 1.19178 1.19264 1.19178 1.19249 1.19178 1.19178 1.19178 1.19191 1.19177 1.19178 1.19184 1.19185 1.19185 1.1922 1.19227 1.1927 1.19235 1.19221 1.19266 1.19232 1.19189 1.19244 1.19194 1.19242 1.19227 1.19166 1.19261 1.19297 1.19202 1.19181 1.19291 1.19233 1.1921 1.19223 1.19178 1.19281 1.19333 1.19339 1.19174 1.19178 1.19212 1.19203 1.19281 1.19258 1.19178 1.19178 1.19258 1.19178 1.19178 1.19243 1.19203 1.19329 1.19169 1.19217 1.19294 1.19357 1.19377 1.19305 1.19314 1.19285 1.19279 1.19195 1.19201 1.19314 1.19176 1.19264 1.19149 1.1923 1.19366 1.19296 1.19169 1.19265 1.19196 1.19266 1.19357 1.19164 1.19249 1.19197 1.19252 1.19212 1.19255 1.19257 1.19205 1.19178 1.19334 1.19314 1.19337 1.19301 1.1934 1.1927 1.19191 1.19266 1.1921 1.19207 1.19262 1.19179 1.19243 1.19176 1.19178 1.19205 1.19178 1.19264 1.19178 1.19245 1.19224 1.19199 1.19178 1.19202 1.19197 1.19165 1.19202 1.19183 1.19208 1.19216 1.19228 1.19267 1.19292 1.19256 1.19239 1.19177 1.19217 1.19178 1.19252 1.1924 1.19178 1.19262 1.19294 1.19202 1.19181 1.19172 1.19276 1.19231 1.19225 1.1919 1.19295 1.19375 1.19218 1.19172 1.19216 1.19278 1.19238 1.19297 1.19257 1.19308 1.19351 1.19257 1.19256 1.19245 1.19361 1.19196 1.19329 1.19205 1.19248 1.19211 1.19237 1.19373 1.19309 1.19299 1.19208 1.19287 1.19189 1.19306 1.19291 1.19384 1.19187 1.19296 1.193 1.19421 1.19248 1.19276 1.19294 1.19164 1.19197 1.19337 1.19219 1.19336 1.19232 1.19153 1.19252 1.1928 1.19178 1.19303 1.19324 1.19291 1.19309 1.19343 1.19375 1.19332 1.1926 1.19192 1.19245 1.19178 1.19198 1.19255 1.19166 1.19241 1.19243 1.19176 1.19204 1.19164 1.19262 1.19313 1.19242 1.1923 1.19212 1.19172 1.19178 1.19209 1.19176 1.19203 1.19197 1.19305 1.19243 1.19216 1.19252 1.19291 1.19257 1.19263 1.19228 1.19258 1.19205 1.19247 1.19175 1.19235 1.19065 1.19277 1.19273 1.1928 1.1921 1.19206 1.1916 1.19288 1.19237 1.19267 1.19259 1.19271 1.19325 1.19392 1.19204 1.19183 1.1924 1.19237 1.19258 1.19178 1.19178 1.19178 1.19387 1.19422 1.19248 1.19358 1.19258 1.19208 1.19332 1.192 1.19216 1.19366 1.19256 1.19252 1.19262 1.19266 1.19067 1.19276 1.19356 1.19178 1.19434 1.19312 1.1936 1.19291 1.19296 1.19426 1.19264 1.19473 1.19216 1.19367 1.19362 1.19207 1.19328 1.19229 1.19237 1.19272 1.19273 1.1931 1.19282 1.19291 1.19287 1.19346 1.19337 1.19327 1.19284 1.19231 1.1938 1.1922 1.19045 1.19181 1.19252 1.19166 1.19266 1.19278 1.19276 1.19177 1.19221 1.19178 1.19263 1.19169 1.19253 1.19247 1.19224 1.19183 1.19415 1.1922 1.19181 1.19203 1.19198 1.19258 1.19192 1.19223 1.1926 1.19283 1.19249 1.19189 1.1927 1.19243 1.19216 1.19246 1.19175 1.19143 1.19217 1.19055 1.19217 1.19371 1.19259 1.19091 1.19336 1.19242 1.19267 1.19265 1.19258 1.19379 1.19202 1.19184 1.19237 1.19241 1.19246 1.19178 1.19175 1.19162 1.19343 1.19371 1.19373 1.19222 1.19158 1.19353 1.19184 1.19265 1.1933 1.19187 1.19205 1.19269 1.19343 1.19293 1.19264 1.19074 1.19347 1.19214 1.19355 1.19396 1.19353 1.19165 1.19383 1.1933 1.19323 1.19298 1.1937 1.19262 1.19349 1.19144 1.19276 1.1925 1.19251 1.19327 1.19138 1.19353 1.19259 1.19253 1.19266 1.19339 1.19178 1.19266 1.19266 1.19328 1.1932 1.19269 1.19214 1.19373 1.1922 1.1905 1.19206 1.1916 1.19387 1.19365 1.19285 1.19233 1.19234 1.19283 1.19259 1.19204 1.1925 1.19244 1.19223 1.19171 1.1941 1.19221 1.19221 1.19203 1.19268 1.19181 1.19207 1.19202 1.19213 1.19257 1.19254 1.19259 1.19219 1.19273 1.19212 1.1919 1.19149 1.19178 1.19181 1.19187 1.19212 1.19201 1.19232 1.19192 1.19284 1.19408 1.19269 1.194 1.19365 1.1919 1.19188 1.19229 1.19199 1.19137 1.19168 1.19145 1.19089 1.19334 1.19358 1.19243 1.19456 1.19164 1.19102 1.19115 1.19272 1.19328 1.19281 1.19238 1.19311 1.1934 1.19287 1.19297 1.19286 1.19134 1.19319 1.19182 1.1923 1.19397 1.19365 1.19262 1.19346 1.19247 1.19346 1.19145 1.19273 1.19178 1.19235 1.193 1.19128 1.19342 1.19259 1.19072 1.19253 1.19329 1.19226 1.19279 1.19317 1.1925 1.19214 1.1937 1.19198 1.1927 1.1906 1.19219 1.19186 1.19124 1.19188 1.19193 1.19164 1.19231 1.1929 1.19276 1.19288 1.19242 1.19119 1.19201 1.1921 1.19214 1.19335 1.19284 1.19206 1.19269 1.19197 1.19168 1.19218 1.19208 1.19184 1.1921 1.19233 1.19276 1.19264 1.19225 1.1928 1.19211 1.19232 1.19126 1.19187 1.19174 1.19182 1.19176 1.19192 1.1916 1.19321 1.19338 1.19246 1.19344 1.19399 1.19352 1.1919 1.19217 1.19319 1.19197 1.1905 1.19124 1.19087 1.19178 1.19224 1.19791 1.19332 1.19115 1.1917 1.19116 1.19352 1.19172 1.19151 1.19295 1.19229 1.19304 1.19176 1.19455 1.19262 1.19359 1.19191 1.19339 1.1954 1.19392 1.19424 1.19309 1.19189 1.19227 1.19309 1.19221 1.19333 1.19154 1.1927 1.1908 1.19246 1.19166 1.19239 1.19174 1.19294 1.19077 1.19237 1.19178 1.19198 1.19116 1.19263 1.19308 1.19075 1.19265 1.19263 1.19189 1.19225 1.19287 1.19209 1.19187 1.1914 1.19234 1.19105 1.19278 1.19373 1.19217 1.19226 1.19212 1.19187 1.19326 1.19214 1.19258 1.19149 1.19261 1.19179 1.19261 1.19092 1.19176 1.19206 1.19217 1.19265 1.19236 1.19204 1.19278 1.19223 1.19271 1.19144 1.19382 1.19234 1.19159 1.1918 1.19126 1.19172 1.19226 1.19373 1.19218 1.19264 1.1933 1.1939 1.19342 1.19185 1.19386 1.19381 1.19579 1.19107 1.19489 1.19178 1.19127 1.19223 1.19306 1.19384 1.19237 1.18933 1.19178 1.19396 1.19169 1.19274 1.19218 1.19291 1.19115 1.19236 1.19453 1.19275 1.19396 1.19326 1.19319 1.19281 1.19414 1.19221 1.19193 1.19217 1.19292 1.19268 1.19246 1.19176 1.19293 1.1924 1.19185 1.191 1.19287 1.19164 1.19381 1.19376 1.19185 1.19227 1.19185 1.19103 1.19237 1.19293 1.19113 1.19121 1.19264 1.19242 1.19178 1.19201 1.19195 1.19164 1.19135 1.19259 1.19163 1.19057 1.19391 1.19304 1.19212 1.19214 1.19135 1.19134 1.1928 1.19238 1.19211 1.19257 1.19164 1.1925 1.19089 1.19174 1.19197 1.19199 1.19272 1.19215 1.19196 1.19276 1.19234 1.19257 1.19221 1.19348 1.19235 1.1934 1.19179 1.19246 1.19147 1.19235 1.19365 1.19216 1.19178 1.19291 1.19351 1.19313 1.19183 1.19359 1.1939 1.19374 1.19311 1.19566 1.19337 1.19135 1.19045 1.19255 1.19365 1.1922 1.1893 1.1917 1.19503 1.19142 1.19242 1.19256 1.19216 1.19258 1.19231 1.19178 1.19432 1.1927 1.19368 1.19244 1.19219 1.19241 1.1962 1.19629 1.1926 1.19178 1.19181 1.19252 1.19232 1.19235 1.19179 1.19235 1.19219 1.19035 1.19166 1.19316 1.19037 1.1939 1.19241 1.19177 1.19058 1.1909 1.19093 1.19082 1.19199 1.19279 1.1909 1.19157 1.19341 1.1922 1.19122 1.19191 1.19226 1.19249 1.19148 1.1933 1.19256 1.19049 1.19178 1.193 1.19191 1.192 1.19132 1.19139 1.19271 1.19232 1.19208 1.19272 1.19212 1.19185 1.19158 1.19069 1.19185 1.19182 1.19183 1.19177 1.19149 1.1918 1.1922 1.19178 1.1918 1.192 1.19225 1.1928 1.19178 1.19165 1.19475 1.18948 1.1931 1.19355 1.19226 1.19178 1.19234 1.19321 1.19352 1.19369 1.19304 1.19352 1.19385 1.19373 1.1931 1.19217 1.19395 1.19394 1.1909 1.19085 1.19083 1.19195 1.1934 1.19176 1.18763 1.19505 1.19121 1.19317 1.19186 1.19211 1.19275 1.19229 1.18725 1.19404 1.19238 1.19302 1.1923 1.19232 1.19235 1.19104 1.19287 1.19229 1.19151 1.19071 1.19263 1.19085 1.19204 1.19114 1.19058 1.19192 1.19332 1.19052 1.1905 1.19421 1.19238 1.19168 1.19118 1.19094 1.19099 1.19208 1.19327 1.19437 1.1945 1.1916 1.19285 1.19199 1.19178 1.19134 1.19226 1.19251 1.19135 1.19207 1.19343 1.19299 1.19219 1.19058 1.19275 1.19182 1.19193 1.19126 1.19104 1.19261 1.19226 1.19198 1.19265 1.19201 1.19183 1.19206 1.19271 1.1932 1.1915 1.1932 1.19191 1.19174 1.19243 1.19121 1.19122 1.19188 1.1922 1.19177 1.19186 1.19185 1.19232 1.19292 1.19228 1.19143 1.19474 1.19607 1.18905 1.19128 1.19257 1.19328 1.19293 1.19316 1.19402 1.19296 1.19364 1.19341 1.19316 1.1936 1.19338 1.19277 1.1897 1.19388 1.1907 1.18912 1.19067 1.19198 1.19126 1.19111 1.19458 1.19535 1.19026 1.19122 1.19178 1.19154 1.19178 1.19392 1.19167 1.18975 1.19265 1.1901 1.19446 1.19142 1.19212 1.192 1.19132 1.1919 1.19222 1.19183 1.19178 1.19132 1.19178 1.1925 1.19105 1.19189 1.1904 1.19171 1.19301 1.18596 1.19267 1.19478 1.1932 1.19375 1.19167 1.19206 1.19107 1.19114 1.19228 1.19346 1.19246 1.1914 1.19181 1.19173 1.19185 1.19082 1.19177 1.19259 1.1924 1.19202 1.19165 1.19145 1.19213 1.19281 1.19315 1.19159 1.19112 1.19069 1.19247 1.19219 1.19191 1.19258 1.19192 1.19178 1.19198 1.19157 1.19239 1.19117 1.19181 1.19192 1.19231 1.19118 1.19134 1.192 1.19224 1.19285 1.19178 1.19143 1.19618 1.1925 1.19376 1.1929 1.19178 1.19178 1.19488 1.19302 1.19329 1.19347 1.19328 1.19307 1.19241 1.19294 1.18908 1.19121 1.19162 1.19181 1.19108 1.19205 1.19235 1.19221 1.19297 1.19072 1.18888 1.19148 1.19168 1.19171 1.19152 1.19054 1.19144 1.19131 1.19228 1.19096 1.19187 1.19194 1.19096 1.19137 1.19211 1.19091 1.19088 1.19154 1.19029 1.19253 1.19175 1.19175 1.18954 1.18983 1.19285 1.19319 1.19407 1.19297 1.19359 1.19098 1.19207 1.19225 1.19113 1.19191 1.19336 1.1906 1.19162 1.19163 1.19146 1.19266 1.19118 1.19216 1.19386 1.19016 1.19381 1.19071 1.19121 1.19199 1.19123 1.19134 1.19103 1.19061 1.19233 1.19219 1.19193 1.19082 1.19156 1.19313 1.19298 1.19205 1.19205 1.19182 1.19186 1.19158 1.19159 1.19109 1.19173 1.19136 1.19233 1.18889 1.19063 1.19366 1.19407 1.19035 1.19307 1.19487 1.19336 1.1925 1.19178 1.19452 1.19527 1.1917 1.19542 1.19439 1.19188 1.19127 1.19324 1.19412 1.19346 1.18917 1.19135 1.19171 1.19247 1.19306 1.19197 1.19119 1.194 1.19047 1.19118 1.19178 1.19178 1.19142 1.19167 1.1915 1.19222 1.19179 1.1908 1.19148 1.19249 1.19099 1.19211 1.19185 1.19214 1.19087 1.19098 1.19016 1.19256 1.19122 1.19162 1.18951 1.19001 1.19022 1.19271 1.19312 1.19208 1.19392 1.19291 1.19325 1.19091 1.19193 1.19179 1.19183 1.19178 1.18878 1.19168 1.19175 1.19155 1.19167 1.1926 1.19128 1.19217 1.19051 1.1913 1.19271 1.19221 1.19038 1.19116 1.19121 1.19189 1.19249 1.19178 1.19153 1.19039 1.19011 1.19228 1.19192 1.19077 1.19069 1.19203 1.19354 1.19312 1.19299 1.19192 1.19263 1.19237 1.19168 1.19127 1.19135 1.19093 1.19252 1.19102 1.19085 1.19306 1.19279 1.19464 1.19207 1.18961 1.19264 1.19275 1.19511 1.19477 1.19419 1.19157 1.19322 1.1944 1.195 1.19562 1.19343 1.19168 1.1935 1.19172 1.19155 1.19121 1.19424 1.19774 1.1976 1.19461 1.19457 1.18902 1.18983 1.19168 1.19321 1.19182 1.19054 1.19319 1.19563 1.19067 1.19114 1.19099 1.19145 1.19136 1.19181 1.19113 1.19181 1.19212 1.19091 1.19151 1.19147 1.19323 1.19121 1.19232 1.19103 1.19112 1.19071 1.19119 1.18985 1.19236 1.19209 1.18951 1.19137 1.19184 1.19265 1.19277 1.19007 1.19093 1.19198 1.19197 1.19201 1.19167 1.18858 1.18997 1.19081 1.19047 1.19188 1.1927 1.19253 1.19175 1.19181 1.19116 1.19139 1.19181 1.19036 1.19121 1.1914 1.19176 1.19238 1.19173 1.19124 1.19061 1.1903 1.19232 1.19189 1.19073 1.19168 1.19165 1.19089 1.19189 1.19235 1.19196 1.19288 1.19108 1.19087 1.1937 1.18731 1.19083 1.19445 1.19559 1.19372 1.19008 1.19206 1.19161 1.19147 1.19428 1.19162 1.19144 1.19393 1.19439 1.19374 1.19533 1.19226 1.19164 1.19324 1.19246 1.19114 1.19473 1.19461 1.19551 1.1904 1.19551 1.19376 1.1924 1.19149 1.19286 1.19286 1.18912 1.19137 1.19127 1.19567 1.19115 1.19041 1.19087 1.19138 1.19127 1.19184 1.19097 1.19143 1.19143 1.19109 1.19041 1.1914 1.19082 1.19218 1.19127 1.19178 1.19117 1.19025 1.18984 1.19113 1.18962 1.1926 1.18962 1.19178 1.19192 1.192 1.19265 1.19241 1.19043 1.19289 1.19093 1.19199 1.19282 1.19195 1.19197 1.18882 1.18898 1.19005 1.19169 1.19178 1.19147 1.19147 1.19197 1.19086 1.19206 1.19154 1.19133 1.19186 1.19091 1.19193 1.19102 1.19178 1.19182 1.19095 1.19191 1.19207 1.19176 1.1917 1.19079 1.19178 1.19152 1.19076 1.19108 1.19231 1.19213 1.19241 1.19237 1.19232 1.19331 1.19091 1.18935 1.19508 1.19339 1.19202 1.19175 1.19531 1.19366 1.19439 1.19182 1.19135 1.1935 1.19494 1.19436 1.19423 1.19417 1.19381 1.19577 1.19336 1.19154 1.19091 1.19026 1.19267 1.1912 1.19403 1.19486 1.19035 1.19514 1.19377 1.19201 1.19226 1.19178 1.18902 1.19128 1.19178 1.19116 1.19277 1.19286 1.19017 1.19086 1.19098 1.1909 1.19141 1.19154 1.19045 1.18965 1.19085 1.19056 1.19248 1.19097 1.19189 1.19148 1.19088 1.1901 1.19117 1.18986 1.18932 1.19283 1.18975 1.19178 1.19103 1.19189 1.19234 1.19043 1.19258 1.19088 1.19192 1.19211 1.19153 1.19206 1.18869 1.18896 1.19004 1.18985 1.19169 1.19133 1.19137 1.19152 1.19062 1.19214 1.19204 1.19185 1.19162 1.1913 1.19184 1.19094 1.19086 1.18987 1.19229 1.19075 1.19198 1.19152 1.19034 1.19085 1.19355 1.19362 1.19212 1.19224 1.19315 1.19248 1.19083 1.19176 1.19482 1.19178 1.19097 1.19447 1.19436 1.19227 1.19241 1.19688 1.19185 1.1948 1.19364 1.19371 1.19297 1.19296 1.19584 1.1941 1.19246 1.19127 1.1941 1.19374 1.19399 1.19168 1.19372 1.19132 1.19123 1.19109 1.19074 1.19194 1.18998 1.1901 1.1874 1.1905 1.19115 1.19178 1.19154 1.19128 1.18954 1.19054 1.1905 1.19266 1.19079 1.19289 1.19192 1.19097 1.19038 1.18948 1.18929 1.19003 1.19282 1.18963 1.19098 1.19095 1.19186 1.19019 1.19169 1.19142 1.1908 1.19167 1.19184 1.19159 1.19145 1.19177 1.19209 1.19082 1.1903 1.18973 1.18992 1.18921 1.19131 1.19137 1.19151 1.19058 1.19186 1.19208 1.19136 1.19172 1.19182 1.191 1.19043 1.19032 1.19071 1.18999 1.1919 1.19179 1.19074 1.19156 1.1914 1.19026 1.19086 1.19234 1.19178 1.19032 1.19077 1.19263 1.19253 1.19356 1.19005 1.19335 1.1966 1.19178 1.19481 1.19419 1.19427 1.19174 1.19279 1.19261 1.19675 1.19145 1.19328 1.19371 1.19267 1.19574 1.19308 1.19246 1.19122 1.19431 1.19485 1.19479 1.19346 1.19197 1.1919 1.19254 1.19045 1.19334 1.19352 1.19336 1.19178 1.19129 1.19523 1.19505 1.19073 1.18961 1.19092 1.18893 1.19113 1.19177 1.19178 1.19168 1.19207 1.19216 1.19061 1.19111 1.1904 1.19018 1.19136 1.19018 1.1932 1.19068 1.19091 1.19033 1.19102 1.18964 1.19006 1.19261 1.1896 1.19096 1.19052 1.1922 1.19073 1.19093 1.1913 1.19178 1.19178 1.19196 1.19172 1.19188 1.19189 1.19091 1.19024 1.18918 1.18859 1.18974 1.19037 1.18935 1.19088 1.19091 1.19198 1.19053 1.19121 1.19215 1.19106 1.19121 1.19138 1.19103 1.19038 1.19042 1.19056 1.19165 1.19179 1.19195 1.19178 1.1913 1.19148 1.19011 1.19124 1.19475 1.1947 1.1921 1.19063 1.19248 1.19243 1.19272 1.19171 1.19229 1.19093 1.19736 1.19499 1.19402 1.19467 1.19329 1.19223 1.19672 1.19473 1.19238 1.19355 1.19521 1.19605 1.19334 1.19272 1.1956 1.1927 1.19214 1.19214 1.19116 1.19136 1.19434 1.19321 1.19168 1.19454 1.18644 1.19232 1.19203 1.18862 1.19099 1.19125 1.19061 1.1896 1.19081 1.1888 1.19182 1.19178 1.19127 1.19098 1.19339 1.19177 1.19177 1.19102 1.19082 1.18991 1.19199 1.18993 1.19178 1.1905 1.19103 1.19184 1.19095 1.18961 1.19197 1.19133 1.19092 1.19036 1.19158 1.19029 1.19054 1.19103 1.19149 1.19206 1.19155 1.19146 1.19225 1.19194 1.19216 1.1886 1.18891 1.18981 1.19178 1.19123 1.18929 1.19097 1.19159 1.19197 1.1918 1.19178 1.19202 1.19193 1.19152 1.19122 1.19127 1.19143 1.19106 1.19127 1.19117 1.19182 1.19178 1.19054 1.19181 1.19299 1.19177 1.19184 1.19179 1.19029 1.19112 1.19071 1.19151 1.19186 1.19221 1.19164 1.18985 1.19348 1.19074 1.19276 1.19252 1.19225 1.19284 1.19149 1.19663 1.19438 1.19198 1.19477 1.19259 1.19498 1.19469 1.1932 1.19189 1.19455 1.19409 1.19645 1.19549 1.1925 1.19523 1.19159 1.19389 1.19418 1.19141 1.19023 1.19433 1.19157 1.19325 1.18916 1.19157 1.19174 1.18994 1.19234 1.19075 1.19136 1.19051 1.19263 1.18989 1.19108 1.18906 1.19091 1.19183 1.19148 1.19179 1.19189 1.19073 1.18991 1.19003 1.19312 1.18981 1.18954 1.19049 1.18988 1.19117 1.19074 1.19054 1.18963 1.18969 1.19144 1.19311 1.19106 1.19026 1.19033 1.1916 1.19178 1.19031 1.19103 1.19144 1.1918 1.19145 1.19161 1.1904 1.19113 1.18927 1.19136 1.1916 1.19114 1.19153 1.19118 1.19162 1.19178 1.19177 1.19198 1.19195 1.19204 1.19052 1.193 1.1932 1.19163 1.19117 1.1925 1.19059 1.19141 1.19192 1.19163 1.19184 1.19099 1.19101 1.19143 1.19001 1.19289 1.19202 1.19154 1.19316 1.19546 1.19552 1.19488 1.19747 1.19536 1.19293 1.1914 1.18968 1.19166 1.19521 1.19524 1.1931 1.19178 1.19822 1.19329 1.19392 1.18982 1.19483 1.19178 1.19358 1.18713 1.19148 1.19147 1.18961 1.19196 1.19201 1.19129 1.19255 1.19024 1.19033 1.19006 1.18925 1.1919 1.191 1.19119 1.19181 1.19046 1.18974 1.19004 1.19178 1.19093 1.19044 1.18951 1.19178 1.19303 1.19291 1.19138 1.19179 1.19177 1.18992 1.19212 1.19193 1.1911 1.19025 1.19202 1.1918 1.19002 1.19029 1.19103 1.19145 1.19182 1.19189 1.19174 1.19154 1.19175 1.19159 1.19159 1.1913 1.19178 1.18915 1.1913 1.19163 1.19118 1.19181 1.19164 1.19117 1.19115 1.19156 1.19187 1.19114 1.192 1.19147 1.19196 1.19163 1.19179 1.19216 1.19169 1.19222 1.1919 1.1902 1.19042 1.19101 1.18955 1.19279 1.19265 1.19307 1.19205 1.19199 1.19315 1.19397 1.1936 1.19498 1.19188 1.19608 1.19445 1.19178 1.19339 1.19216 1.19418 1.19009 1.19165 1.19864 1.19293 1.19186 1.19826 1.19178 1.19272 1.19094 1.19508 1.19667 1.19067 1.19456 1.18727 1.19147 1.19169 1.19162 1.19097 1.19133 1.19193 1.19218 1.19214 1.19092 1.19257 1.19019 1.19188 1.19187 1.19143 1.18995 1.19142 1.19198 1.19075 1.18951 1.19113 1.19118 1.19111 1.19096 1.19162 1.19178 1.19185 1.1911 1.19105 1.19177 1.19151 1.19041 1.19182 1.1913 1.19011 1.19038 1.19086 1.19143 1.19178 1.19178 1.19175 1.19158 1.1916 1.19165 1.19137 1.19178 1.19178 1.18929 1.19178 1.1914 1.19173 1.19178 1.19178 1.19178 1.19165 1.19178 1.19178 1.19112 1.1911 1.19153 1.19103 1.19181 1.19178 1.19153 1.19184 1.19158 1.1905 1.19161 1.19138 1.19192 1.19023 1.19009 1.19175 1.19045 1.19017 1.18947 1.18986 1.19135 1.19083 1.19248 1.19189 1.19138 1.19327 1.19212 1.1937 1.19566 1.19627 1.19425 1.19561 1.19301 1.19699 1.1834 1.1947 1.19033 1.18995 1.19835 1.19273 1.19043 1.19257 1.19202 1.19536 1.19317 1.18988 1.19077 1.19046 1.19178 1.19073 1.19035 1.19185 1.19095 1.1902 1.1916 1.19186 1.19132 1.19178 1.19209 1.19178 1.19101 1.19185 1.19114 1.19123 1.19086 1.18932 1.19077 1.19076 1.19103 1.19163 1.19151 1.19178 1.19201 1.19151 1.19053 1.19123 1.19075 1.19046 1.19105 1.19075 1.19142 1.19145 1.19166 1.19178 1.19178 1.19175 1.19159 1.19165 1.19178 1.19178 1.19178 1.19143 1.19173 1.19178 1.19178 1.19178 1.19176 1.19111 1.19156 1.19151 1.19178 1.19168 1.1918 1.19135 1.19185 1.19051 1.19068 1.19217 1.19194 1.19056 1.19115 1.19009 1.18921 1.19092 1.19002 1.18958 1.19065 1.18795 1.1903 1.19235 1.19303 1.19209 1.1936 1.1915 1.19284 1.19888 1.19573 1.19926 1.19505 1.19123 1.19362 1.19784 1.19101 1.19485 1.19534 1.19196 1.19131 1.19176 1.18981 1.194 1.18993 1.1924 1.18722 1.19156 1.19142 1.19189 1.19179 1.19175 1.19088 1.19085 1.1904 1.19057 1.19084 1.19185 1.19189 1.19187 1.19115 1.19105 1.19184 1.19202 1.19221 1.19097 1.18921 1.19101 1.19142 1.19143 1.19173 1.19152 1.19113 1.19155 1.19063 1.18959 1.18941 1.19078 1.191 1.19077 1.19143 1.19178 1.19165 1.19178 1.19178 1.19175 1.19159 1.19143 1.19178 1.19178 1.19177 1.19156 1.19151 1.19167 1.19165 1.19124 1.19069 1.19048 1.19182 1.18886 1.19031 1.19091 1.19023 1.18979 1.18641 1.18901 1.19014 1.19207 1.19103 1.19165 1.19328 1.19459 1.18757 1.1951 1.19125 1.1936 1.19843 1.19135 1.19412 1.19531 1.191 1.19177 1.1914 1.18962 1.19471 1.19395 1.18979 1.18764 1.18709 1.19007 1.19113 1.19175 1.19174 1.19088 1.19083 1.19102 1.19048 1.19113 1.19178 1.19117 1.19197 1.19118 1.19109 1.19097 1.19163 1.19015 1.19177 1.19005 1.19106 1.19145 1.19088 1.19112 1.19164 1.1908 1.19163 1.1895 1.18976 1.19088 1.19131 1.19565 1.18986 1.19422 1.19391 1.193 1.19931 1.1935 1.1963 1.2017 1.19446 1.19514 1.19841 1.19429 1.19893 1.19236 1.19535 1.19055 1.19071 1.19112 1.18929 1.19388 1.19117 1.18928 1.19545 1.18934 1.19133 1.19654 1.19387 1.19397 1.19006 1.19303 1.19595 1.19686 1.19178 1.19867 1.19437 1.19889 1.1977 1.19918 1.198 1.18852 1.18685 1.1868 1.18625 1.1901 1.19146 1.19664 1.19444 1.19428 1.19315 1.1969 1.19048 1.19957 1.202 1.19027 1.19849 1.19439 1.19705 1.19475 1.18821 1.18747 1.19013 1.18675 1.19058 1.19225 1.19178 1.1924 1.19169 1.18971 1.19439 1.19539 1.19517 1.19436 1.19515 1.1932 1.19818 1.19019 1.19432 1.20036 1.20181 1.19808 1.1901 1.19792 1.19391 1.20027 1.19054 1.19068 1.18196 1.18858 1.19178 1.19574 1.19614 1.19659 1.19409 1.19365 1.1955 1.19239 1.19769 1.19735 1.20215 1.20509 1.19291 1.20739 1.19065 1.18619 1.19412 1.19766 1.19178 1.19178 1.19178 1.19178 1.19178 1.19178 1.19178 1.19178 1.19178 1.19686 1.1948 1.1961 1.19934 1.19412 1.19256 1.19721 1.19086 1.19808 1.20498 1.19219 1.19387 1.19729 1.19058 1.19225 1.19278 1.19351 1.19579 1.19178 1.19178 1.19178 1.19178 1.19178 1.19178 1.19178 1.19178 1.19178 1.19178 1.19178 1.19178 1.19178 1.19178 1.19178 1.19178 1.19178 1.19178 1.19178 1.19178 1.19178 1.19178 1.19178 1.19178 1.19178 1.19178 1.19178 1.19178 1.19178 1.19178 1.19178 1.19178 1.19178 1.1918 1.19257 1.19178 1.19178 1.19632 1.19475 1.19806 1.19082 1.20106 1.19312 1.19501 1.18888 1.19721 1.19578 1.20136 1.19772 1.19152 1.20263 1.19942 1.19832 1.19676 1.20437 1.20106 1.20748 1.20307 1.21239 1.19406 1.19249 1.19476 1.19178 1.19178 1.19178 1.19178 1.19178 1.19178 1.19178 1.19178 1.19178 1.19178 1.19178 1.19178 1.1922 1.19178 1.19178 1.19178 1.19178 1.19178 1.19178 1.19178 1.19178 1.19178 1.19178 1.19178 1.19178 1.19178 1.19178 1.19253 1.21482 1.19228 1.1963 1.19062 1.19523 1.19885 1.19529 1.18804 1.20374 1.20319 1.19855 1.20035 1.20587 1.19452 1.19501 1.19802 1.20863 1.19233 1.19252 1.1923 1.18605 1.19162 1.19345 1.19289 1.19192 1.19178 1.19178 1.19178 1.19178 1.19178 1.1919 1.19343 1.19178 1.19178 1.19177 1.19178 1.19178 1.19178 1.19178 1.19178 1.19178 1.19178 1.19178 1.19178 1.19178 1.19207 1.19178 1.19178 1.19178 1.19178 1.19178 1.19178 1.19178 1.19178 1.19178 1.19178 1.19178 1.19178 1.19178 1.19178 1.19178 1.19178 1.19178 1.19178 1.19178 1.19238 1.1943 1.21672 1.20371 1.1791 1.19017 1.19745 1.19128 1.19277 1.19957 1.19616 1.18613 1.20106 1.19591 1.20176 1.19467 1.18957 1.20168 1.19289 1.20445 1.20388 1.20275 1.19387 1.19546 1.18836 1.19233 1.19167 1.19412 1.19178 1.19126 1.19736 1.21766 1.19949 1.19129 1.19175 1.19178 1.19178 1.19178 1.19179 1.19177 1.19178 1.19178 1.19178 1.19178 1.19178 1.19178 1.19178 1.19017 1.19109 1.19178 1.19168 1.19192 1.19178 1.19178 1.19178 1.19178 1.19178 1.19178 1.19178 1.19178 1.19178 1.19178 1.19178 1.19178 1.19178 1.19178 1.19178 1.19178 1.19152 1.36583 1.18807 1.18431 1.1896 1.20153 1.19166 1.18859 1.19511 1.19531 1.19973 1.19608 1.19268 1.19601 1.2057 1.18059 1.1978 1.19588 1.20619 1.18382 1.1997 1.17306 1.19595 1.48351 1.21336 1.20401 1.19182 1.22246 1.21674 1.45528 1.19178 1.19176 1.19177 1.19178 1.19178 1.19178 1.19178 1.19178 1.19178 1.19178 1.19178 1.19178 0.0259063 1.19178 0.0937078 1.19109 1.19174 0.168584 1.19069 0.729892 1.23217 1.30962 0.392165 1.19173 1.19555 1.18849 1.19301 1.0298 1.19178 3.32584 1.17522 2.94956 1.19178 1.19178 0.803593 0.714559 0.918512 1.19183 0.805477 0.734653 0.523201 1.18673 1.19424 0.468686 1.1918 1.40628 1.19176 2.38702 1.19178 1.19286 1.19369 1.17878 0.769878 1.95945 4.12806 1.19178 1.88727 1.68525 1.19322 1.74201 1.07006 1.19041 1.19015 1.39633 1.19158 0.446162 0.560261 1.26271 1.62052 1.41931 1.89308 1.6566 1.173 1.21883 1.19851 1.17505 1.18167 1.20259 1.19062 1.18537 1.19632 1.19475 1.19327 1.22026 1.20171 1.19178 1.19143 1.20072 1.17535 1.19286 1.18613 1.18432 1.28957 0.726118 1.16816 1.42981 1.28998 1.51053 1.24789 1.64874 1.11391 1.07755 1.20004 0.441751 0.221474 0.422792 0.148899 0.319219 1.19178 0.439176 1.47193 0.560412 1.62209 1.46339 0.672569 0.154094 1.08882 1.52879 1.17072 1.2015 1.3702 0.568639 1.19178 1.19178 1.19176 1.19178 0.539338 0.338145 1.19186 0.510379 1.46238 1.17482 1.34111 1.19178 1.19178 1.19178 0.410094 1.3641 1.42905 2.21439 1.96816 0.614143 1.19178 0.503471 1.23537 1.82028 1.6173 2.80216 3.7799 0.71938 0.97005 1.2057 1.17566 1.19096 0.0511423 0.0506547 0.181651 0.124256 0.260535 0.159302 0.341161 0.681403 0.954244 1.32925 1.16746 0.530297 0.697049 0.615381 0.318508 0.201121 0.623917 0.0754398 0.789991 0.438355 0.939415 0.138812 0.891426 0.128281 2.10326 2.00765 0.85935 1.63661 0.739459 1.75434 0.900706 1.04877 1.05702 0.810571 0.947851 0.327539 0.908664 0.478532 0.696868 0.517165 0.792985 0.553232 0.212883 0.86627 0.524628 0.662576 0.324301 0.732876 0.437979 0.712122 1.7005 1.21655 1.54721 0.556991 1.49411 0.567452 0.885111 0.243346 1.16923 0.317387 0.41029 0.606832 1.61308 1.83746 4.48017 0.830537 1.06348 1.19216 0.812046 1.01492 0.833427 0.585117 0.819634 0.573826 0.377377 0.175516 0.044639 0.292903 0.339574 1.16688 1.18971 1.05128 1.1936 0.513671 1.12342 1.19184 1.19108 1.17521 1.19178 1.20285 1.18948 1.19188 1.19404 1.19633 1.21857 1.18918 1.17513 1.17475 1.17174 1.18954 1.18982 1.19348 1.18354 0.689388 1.24961 0.673399 0.421606 1.13654 1.1371 1.02996 0.622953 0.771691 0.595748 0.502039 0.549545 0.566889 0.425209 0.164137 0.355813 0.0855917 0.379634 0.276194 0.237071 0.218799 0.399036 0.724201 1.08634 2.02312 1.32065 0.945929 0.974242 1.02281 1.31017 1.54963 1.34287 0.845138 0.831347 0.872261 0.770436 1.25169 0.805094 0.423962 0.349697 0.447227 0.0746644 0.279618 0.384025 0.412886 0.332289 0.44365 1.12478 0.291725 0.774417 0.677258 1.07755 0.622543 0.997047 0.288009 0.828878 0.288394 0.813109 0.79452 0.42292 0.644438 0.324697 0.567707 0.938603 0.910674 0.924562 1.70757 0.864208 1.08439 0.478486 0.429938 0.402278 0.87599 1.52438 0.771942 1.22481 1.84946 2.55212 0.363353 0.718823 1.12916 0.751449 0.694828 0.769839 0.149714 0.175932 0.311144 0.335755 0.459383 0.405097 0.396227 0.40566 0.738598 0.320891 0.360774 0.756987 0.48177 0.205274 0.528378 0.317195 0.940123 0.233564 0.364197 0.495502 0.614989 0.658381 1.27259 1.47057 0.806631 0.732462 0.146145 0.892855 0.768645 0.555219 0.252057 0.524709 0.568276 0.384097 0.35507 0.228614 0.16127 0.658296 0.406415 0.503735 0.307818 0.604139 0.708282 1.08908 0.509083 0.236694 0.631847 1.27526 0.946 1.03719 0.848411 0.88727 0.538385 0.703811 0.976979 1.01488 0.580741 0.509397 0.457563 0.703453 0.378993 0.408594 0.387702 0.571852 0.724039 0.523665 0.67802 1.29641 1.07191 0.336408 1.13643 1.05724 0.634254 0.742539 1.19178 1.19429 1.18699 1.19383 1.17384 1.21053 1.19947 1.19146 1.1948 1.19828 1.18883 1.18766 1.18717 1.17917 1.18093 1.20332 1.19637 1.31385 1.24926 1.1313 1.25817 1.18705 0.532332 0.498079 0.424477 0.1563 0.904482 0.789252 0.801652 0.650445 0.648454 0.57742 0.275304 0.37321 0.294673 0.212507 0.303586 0.281197 0.290365 0.341994 0.557343 1.02995 0.962698 0.762398 0.302695 0.732076 0.673059 0.724815 0.618545 0.748275 0.599541 0.808316 0.518887 0.271613 0.381686 0.287258 0.20344 0.30722 0.332766 0.467896 0.726754 0.538289 0.303871 0.596796 0.662849 0.214665 0.240569 0.24683 0.745469 0.574173 0.468396 0.836478 0.0556582 0.799855 0.686217 0.496737 0.747711 0.447706 1.11631 1.41556 1.37979 0.832288 0.397611 0.632359 0.403405 0.418326 0.536957 0.251298 0.469674 0.361063 0.402519 0.339521 0.394378 0.395519 0.395213 0.470799 0.465526 0.505692 0.345995 0.589336 0.530888 0.479218 0.512014 0.786371 0.532647 0.609786 0.60291 0.518539 0.440769 0.541462 0.469603 0.555199 0.67863 0.687422 0.423334 0.550705 0.521051 0.43511 0.426659 0.369 0.208381 0.341289 0.165084 0.376732 0.663919 0.564893 0.580665 0.503685 0.693852 0.598425 0.592903 0.711312 0.839721 0.760122 0.606068 0.38431 0.476993 0.613393 0.44627 0.680647 0.699971 0.619819 0.193499 0.208358 0.488724 0.748356 0.559238 0.449708 0.544855 0.627713 0.740029 0.720544 0.569509 0.935148 0.847836 0.895427 0.858864 0.803155 0.768172 1.16505 1.2033 1.16508 1.20777 1.17321 1.22733 1.17517 1.2053 1.20818 1.19401 1.18668 1.19222 1.1848 1.19733 1.21716 1.19122 1.19002 1.18973 1.17193 1.11267 0.334121 0.406458 0.348079 0.405185 0.63772 0.703799 0.607679 0.696391 0.583126 0.658818 0.562729 0.405429 0.355866 0.248231 0.391045 0.358365 0.33468 0.297037 0.364386 0.457963 0.726978 0.547667 0.808078 0.571602 0.602959 0.689761 0.559702 0.662979 0.643923 0.549465 0.422212 0.360064 0.376448 0.442752 0.269354 0.415329 0.561784 0.591206 0.539638 0.371637 0.493818 0.241898 0.281405 0.224324 0.445813 0.453603 0.621279 0.504829 0.180479 0.598565 0.457397 0.570499 0.526863 0.329645 0.697749 0.537032 0.496149 0.483082 0.504547 0.460544 0.51257 0.662586 0.30498 0.330773 0.426243 0.431475 0.445242 0.436027 0.480417 0.519543 0.352268 0.508475 0.539056 0.52008 0.482926 0.418856 0.562948 0.452713 0.471515 0.522107 0.438087 0.55664 0.483686 0.47703 0.460551 0.474043 0.419294 0.402575 0.346992 0.279827 0.290748 0.364411 0.389276 0.496265 0.547021 0.606602 0.613731 0.595705 0.586478 0.569067 0.543247 0.545582 0.568963 0.468899 0.539763 0.494171 0.509989 0.443863 0.572709 0.857588 0.437877 0.429197 0.482351 0.522635 0.646526 0.541765 0.478199 0.575741 0.620737 0.714658 0.636761 0.744105 0.626451 0.726143 0.742866 1.15635 1.21354 1.21184 1.16165 1.17962 1.2111 1.18234 1.18902 1.18449 1.18393 1.18345 1.19173 1.21095 1.17962 1.18574 1.18364 1.14443 1.15049 1.14202 0.316883 0.387344 0.457606 0.54084 0.551985 0.578776 0.556101 0.57809 0.555613 0.451597 0.564696 0.465118 0.386833 0.403399 0.383827 0.343022 0.236715 0.407733 0.661082 0.506981 0.684114 0.558959 0.5728 0.54462 0.661266 0.56772 0.532955 0.475082 0.469869 0.500725 0.487928 0.422667 0.462044 0.409921 0.451376 0.445093 0.514058 0.593453 0.511807 0.473346 0.21439 0.369829 0.297985 0.236467 0.367971 0.291449 0.425852 0.454389 0.39842 0.499786 0.537485 0.364563 0.513544 0.493012 0.472836 0.489266 0.450919 0.448885 0.4954 0.491919 0.441145 0.502302 0.361437 0.336534 0.454279 0.681273 0.374073 0.433473 0.441729 0.458885 0.439844 0.46466 0.508004 0.55156 0.481524 0.519139 0.53753 0.468252 0.49009 0.403584 0.388185 0.362164 0.412623 0.425611 0.459387 0.336783 0.432708 0.462221 0.424947 0.455489 0.447854 0.454775 0.451877 0.451689 0.411061 0.397139 0.375058 0.382822 0.332477 0.442206 0.530451 0.528746 0.571369 0.574316 0.583177 0.550053 0.614731 0.551996 0.533925 0.486147 0.478563 0.481453 0.599191 0.666591 0.812452 0.61051 0.454355 0.454077 0.509199 0.53859 0.56385 0.607423 0.627375 0.559143 0.66456 0.59391 0.681916 1.17667 1.12603 1.22248 1.17719 1.20438 1.1528 1.18037 1.20131 1.18226 1.17393 1.17675 1.18319 1.19122 1.20814 1.18305 1.18062 1.19257 1.14993 1.15896 1.19079 1.19944 0.496377 0.463204 0.50098 0.512492 0.503585 0.520154 0.530117 0.536017 0.434923 0.426323 0.399824 0.426237 0.400609 0.416531 0.46049 0.43916 0.433104 0.391612 0.544289 0.431031 0.573676 0.486842 0.534041 0.507117 0.492112 0.484301 0.46696 0.48007 0.442536 0.466517 0.466842 0.438952 0.449405 0.452048 0.480661 0.438776 0.464523 0.463391 0.397586 0.317036 0.371063 0.368713 0.384018 0.430072 0.476159 0.501294 0.509422 0.489384 0.504683 0.482299 0.503286 0.508537 0.478096 0.505935 0.525584 0.498107 0.434645 0.460045 0.404127 0.39895 0.508163 0.703374 0.39994 0.42107 0.426961 0.426885 0.452444 0.438433 0.475587 0.491152 0.518139 0.510397 0.506318 0.452649 0.433174 0.455109 0.408637 0.447123 0.442182 0.439881 0.427337 0.436525 0.444444 0.45799 0.474966 0.421104 0.345453 0.466062 0.503644 0.570352 0.585746 0.580948 0.575377 0.565643 0.509068 0.546885 0.521087 0.52137 0.507049 0.507877 0.528798 0.570347 0.568983 0.607761 0.559719 0.438972 0.470904 0.471025 0.468317 0.535488 0.545684 0.553859 0.574354 0.538883 0.546006 0.587462 0.60363 0.555412 0.551622 1.17766 1.1732 1.22779 1.20254 1.16405 1.17055 1.17215 1.18029 1.17072 1.18358 1.17365 1.17628 1.18313 1.18329 1.19015 1.17525 1.18156 1.1843 1.17291 1.1865 1.16733 1.16152 1.19182 0.493121 0.495493 0.501265 0.495779 0.496408 0.50554 0.515758 0.515524 0.492692 0.461809 0.452178 0.475478 0.462973 0.457331 0.421659 0.431307 0.443956 0.521845 0.485856 0.512095 0.496371 0.482501 0.473487 0.463867 0.458925 0.458027 0.45933 0.474395 0.459011 0.462358 0.438217 0.432066 0.445663 0.45415 0.446513 0.446637 0.406819 0.391732 0.406457 0.413775 0.406195 0.448824 0.473003 0.489345 0.501431 0.492556 0.515489 0.521629 0.504049 0.503328 0.488537 0.473354 0.448725 0.470865 0.45788 0.506468 0.638875 0.585706 0.61541 0.432682 0.434871 0.462274 0.455089 0.483905 0.479243 0.498363 0.509292 0.524081 0.523664 0.496367 0.48797 0.476742 0.441239 0.415493 0.427561 0.417768 0.415982 0.431311 0.433114 0.43508 0.437837 0.440371 0.43162 0.491738 0.393952 0.627877 0.533225 0.450651 0.535894 0.529858 0.567446 0.561341 0.551835 0.553195 0.542047 0.530109 0.517576 0.517807 0.520506 0.533392 0.544046 0.575603 0.557013 0.57374 0.432257 0.461346 0.450128 0.514079 0.532895 0.524811 0.531205 0.53877 0.514826 0.553967 0.526137 0.510335 1.14753 1.21879 1.17745 1.14567 1.17166 1.18077 1.17093 1.18624 1.17113 1.18016 1.17604 1.18263 1.18347 1.18712 1.19003 1.17081 1.19905 1.16985 1.17108 1.17115 1.16908 1.17649 1.19433 0.492774 0.493397 0.495486 0.502211 0.502233 0.508532 0.507495 0.511801 0.497313 0.505342 0.493522 0.498186 0.486792 0.495415 0.496937 0.46548 0.453424 0.46378 0.507283 0.515051 0.480769 0.47696 0.471148 0.467011 0.470551 0.456398 0.461326 0.462368 0.464549 0.457565 0.460809 0.457821 0.452922 0.449028 0.451319 0.44874 0.440357 0.420114 0.441901 0.426078 0.434215 0.431038 0.456691 0.446956 0.478837 0.489881 0.501802 0.508021 0.52246 0.486783 0.506672 0.507343 0.494771 0.506344 0.505075 0.493849 0.49365 0.480961 0.51786 0.557843 0.571226 0.444235 0.447046 0.468622 0.505432 0.513914 0.518854 0.536672 0.533072 0.504351 0.486251 0.432553 0.419944 0.423989 0.449469 0.433418 0.471565 0.463626 0.45065 0.388569 0.472098 0.499336 0.501666 0.481714 0.490735 0.53022 0.548123 0.533976 0.53035 0.51994 0.515566 0.539411 0.550615 0.541589 0.55173 0.601664 0.448548 0.336441 0.498793 0.450374 0.510421 0.499022 0.517224 0.505863 0.515149 0.501848 0.492319 0.485316 0.47683 1.13654 1.17118 1.18579 1.17641 1.17082 1.18049 1.16914 1.18476 1.19201 1.17332 1.18275 1.18896 1.21604 1.19076 1.19265 1.17204 1.17549 1.16977 1.17936 1.19261 0.487305 0.498547 0.500775 0.49852 0.504017 0.505342 0.505827 0.496 0.511569 0.513978 0.528753 0.523184 0.51636 0.526444 0.456331 0.509231 0.480389 0.514169 0.496556 0.478202 0.491072 0.461617 0.462359 0.454415 0.461441 0.464384 0.467562 0.461856 0.460494 0.454017 0.457994 0.449886 0.456691 0.441512 0.433564 0.4378 0.440539 0.441202 0.443896 0.448282 0.452064 0.459162 0.477533 0.501037 0.513037 0.477885 0.51128 0.503989 0.503796 0.503266 0.511204 0.510991 0.517512 0.53412 0.536241 0.511437 0.457539 0.481456 0.491683 0.503772 0.52171 0.537972 0.544196 0.539734 0.514767 0.50026 0.492505 0.404015 0.43088 0.424147 0.442385 0.454405 0.460582 0.452148 0.455969 0.48194 0.478992 0.455254 0.435124 0.473833 0.477315 0.487755 0.508337 0.515599 0.538389 0.527324 0.518331 0.518504 0.509492 0.528181 0.516774 0.526232 0.561281 0.633066 0.60292 0.56515 0.500182 0.630088 0.469192 0.501652 0.491544 0.481991 0.460287 0.449353 0.426699 1.14087 1.18585 1.19377 1.17446 1.1854 1.17833 1.18674 1.16994 1.17089 1.18418 1.17884 1.18806 1.21577 1.17458 1.18016 1.15655 1.20397 1.24246 1.18424 0.480139 0.492695 0.493948 0.501429 0.501423 0.515064 0.532629 0.568685 0.534826 0.539633 0.535193 0.575935 0.557216 0.517259 0.504422 0.493821 0.47146 0.464435 0.45763 0.442676 0.469608 0.466873 0.473401 0.46994 0.477027 0.460697 0.475052 0.467045 0.466778 0.468823 0.462754 0.477634 0.453524 0.449019 0.449402 0.447331 0.457634 0.466311 0.455081 0.488376 0.539078 0.48752 0.524301 0.479486 0.510714 0.48625 0.505212 0.509199 0.511669 0.513147 0.520689 0.502182 0.451774 0.448696 0.468597 0.454794 0.491619 0.50583 0.526737 0.54571 0.547289 0.543158 0.548467 0.533872 0.532903 0.550117 0.50776 0.406073 0.417791 0.427742 0.415565 0.440517 0.466411 0.468694 0.470628 0.47617 0.468086 0.460078 0.47385 0.515485 0.49534 0.492539 0.494598 0.493512 0.523765 0.514155 0.502222 0.531434 0.510135 0.511655 0.509558 0.511555 0.512431 0.532344 0.516965 0.537239 0.573454 0.504249 0.613578 0.484695 0.514752 0.619474 0.500494 0.469556 0.475807 0.467977 0.442689 0.403158 1.14371 1.17088 1.18936 1.19093 1.1924 1.186 1.17996 1.19111 1.19595 1.17115 1.19178 1.1788 1.18994 1.19812 1.17256 1.1793 1.17769 1.1999 1.1799 0.490488 0.483171 0.490906 0.490727 0.489233 0.495078 0.496024 0.516605 0.488938 0.529593 0.549126 0.553097 0.554779 0.548435 0.576925 0.568458 0.562888 0.526043 0.51264 0.505948 0.487486 0.443521 0.481426 0.474466 0.475208 0.484204 0.491455 0.484276 0.488155 0.475942 0.472505 0.483175 0.480752 0.488855 0.501941 0.464475 0.459283 0.474038 0.462512 0.474608 0.436775 0.437812 0.517027 0.594217 0.520206 0.441747 0.493793 0.505087 0.508179 0.499533 0.506191 0.498425 0.515924 0.489684 0.508611 0.492441 0.45361 0.476508 0.477398 0.489216 0.508784 0.51243 0.556412 0.561028 0.563966 0.545075 0.543024 0.532382 0.562344 0.544926 0.572469 0.608624 0.417871 0.437322 0.457473 0.474357 0.468346 0.481627 0.47652 0.472695 0.479043 0.502418 0.491048 0.483189 0.499197 0.510352 0.506288 0.518002 0.500966 0.513526 0.513884 0.514656 0.521228 0.523887 0.542324 0.533822 0.527438 0.562279 0.551193 0.527088 0.541279 0.578148 0.606473 0.554754 0.483205 0.492534 0.475482 0.470356 0.461431 0.431837 0.37975 1.19178 1.1764 1.19181 1.19177 1.19178 1.1877 1.18437 1.19172 1.19304 1.1759 1.19566 1.1797 1.19082 1.19308 1.168 1.18628 1.18649 1.08004 1.179 0.48265 0.493958 0.491793 0.493373 0.538006 0.555588 0.559286 0.558143 0.565826 0.584383 0.577397 0.577063 0.537152 0.515646 0.508749 0.502115 0.446429 0.536934 0.502106 0.471143 0.509534 0.496283 0.492954 0.500184 0.493472 0.512312 0.461138 0.517253 0.494948 0.482491 0.499306 0.491327 0.46105 0.453964 0.543933 0.656831 0.68371 0.457341 0.475653 0.502941 0.50695 0.509499 0.501371 0.509972 0.490807 0.479982 0.462762 0.483837 0.456716 0.487131 0.511403 0.487792 0.545632 0.566157 0.581527 0.548669 0.536399 0.59138 0.663052 0.509085 0.436433 0.438563 0.456042 0.469538 0.491557 0.476406 0.487602 0.489446 0.49227 0.477834 0.492122 0.488863 0.495049 0.503771 0.513835 0.516218 0.525849 0.495351 0.512181 0.515258 0.525369 0.533383 0.543252 0.559557 0.531083 0.536627 0.506393 0.462593 0.515658 0.454427 0.479037 0.463368 0.356285 1.19226 1.18435 1.18827 1.19069 1.19178 1.19197 1.18863 1.18648 1.19126 1.19346 1.1771 1.18568 1.18922 1.18693 1.17883 1.18334 1.19169 1.17684 1.17617 1.1678 1.17012 1.17233 0.480372 0.493117 0.496573 0.495258 0.504718 0.567243 0.565003 0.571522 0.563534 0.577815 0.58247 0.585607 0.568237 0.560522 0.548087 0.54875 0.518379 0.5025 0.528287 0.571284 0.619674 0.533607 0.512045 0.500121 0.501909 0.499162 0.496317 0.516847 0.537455 0.513899 0.559391 0.563771 0.556921 0.50971 0.502514 0.456193 0.418329 0.582492 0.40466 0.475502 0.482712 0.49462 0.517833 0.512539 0.46857 0.456959 0.470489 0.442958 0.479685 0.509182 0.512827 0.542279 0.571501 0.609928 0.592092 0.541378 0.648359 0.620607 0.513363 0.460186 0.46199 0.481274 0.479792 0.481986 0.476456 0.487759 0.493854 0.48882 0.489067 0.483457 0.48969 0.523977 0.521523 0.579078 0.552312 0.504877 0.490342 0.51513 0.512265 0.512587 0.519954 0.524034 0.539821 0.575795 0.539413 0.516695 0.462897 0.50434 0.530963 0.462218 0.553262 0.533467 0.348756 1.19178 1.18898 1.18965 1.19179 1.19183 1.18841 1.18642 1.19127 1.19178 1.17851 1.19178 1.19178 1.19178 1.18017 1.1899 1.18991 1.17336 1.18029 1.19136 1.18887 0.483659 0.487513 0.490567 0.497613 0.494412 0.500971 0.589314 0.569885 0.556217 0.563476 0.577869 0.587568 0.582293 0.587391 0.565486 0.512664 0.49251 0.570493 0.607371 0.557684 0.524089 0.467657 0.528949 0.511425 0.521377 0.487211 0.550955 0.557419 0.587578 0.531925 0.485833 0.424684 0.576948 0.445378 0.471344 0.482766 0.507477 0.544251 0.48064 0.498252 0.455634 0.458303 0.463856 0.461452 0.582272 0.6129 0.501267 0.516262 0.557916 0.598058 0.5412 0.631029 0.540097 0.585668 0.789686 0.597085 0.689216 0.423893 0.453821 0.48235 0.486208 0.479795 0.474556 0.487212 0.485011 0.485883 0.494618 0.451554 0.660164 0.54662 0.555354 0.50009 0.50182 0.473445 0.526683 0.518215 0.507105 0.521533 0.532232 0.575942 0.527907 0.508646 0.526714 0.537995 0.561324 0.562084 0.349971 1.1883 0.487792 0.49154 0.497766 0.495425 0.498029 0.534459 0.589596 0.565186 0.556849 0.575019 0.591828 0.592092 0.587127 0.576288 0.522443 0.549916 0.443272 0.556259 0.548565 0.458489 0.533258 0.528968 0.524177 0.551022 0.582173 0.524191 0.563851 0.50384 0.483379 0.451321 0.512696 0.587662 0.458874 0.475265 0.509742 0.543866 0.495926 0.421693 0.461786 0.462176 0.548524 0.513284 0.565629 0.675141 0.529395 0.579928 0.844171 0.658558 0.560991 0.498997 0.466305 0.493988 0.496876 0.477473 0.418458 0.472764 0.486985 0.486126 0.793898 0.615263 0.555591 0.537236 0.53342 0.540051 0.505595 0.600875 0.546047 0.544373 0.507329 0.471113 0.508866 0.538314 0.574151 0.549529 0.491373 0.495484 0.4956 0.536486 0.491808 0.580295 0.564349 0.585717 0.571758 0.599258 0.595616 0.586076 0.579713 0.645802 0.505738 0.578963 0.63841 0.573245 0.518161 0.661221 0.593625 0.473683 0.491921 0.536705 0.678067 0.575269 0.484704 0.510927 0.510565 0.436095 0.515406 0.600209 0.451409 0.469733 0.573338 0.442623 0.467636 0.448397 0.462823 
SCALARS Stress float 1
LOOKUP_TABLE default
-13145700000.0 -12737500000.0 -13549100000.0 -13417500000.0 -12888300000.0 -13371300000.0 -12569600000.0 -12634600000.0 -12848700000.0 -12723100000.0 -14651400000.0 -12682100000.0 -13080900000.0 -12549700000.0 -12961000000.0 -12926000000.0 -12599900000.0 -12672800000.0 -12549700000.0 -12661900000.0 -12549700000.0 -12549700000.0 -12674600000.0 -12549700000.0 -12549700000.0 -12584800000.0 -12549700000.0 -12569400000.0 -12613200000.0 -12837900000.0 -12972000000.0 -12798300000.0 -12718200000.0 -12660800000.0 -12609700000.0 -12563600000.0 -12549700000.0 -12549700000.0 -12549700000.0 -12602500000.0 -12630100000.0 -12741000000.0 -12802000000.0 -12690300000.0 -13467900000.0 -12613800000.0 -12549700000.0 -12652400000.0 -12638700000.0 -12560100000.0 -12759200000.0 -12557400000.0 -12566300000.0 -12707000000.0 -13168600000.0 -13114800000.0 -12917000000.0 -13019500000.0 -12620200000.0 -12768700000.0 -12609700000.0 -13002800000.0 -12950500000.0 -12582200000.0 -12572800000.0 -12575600000.0 -12629500000.0 -12668500000.0 -13056600000.0 -12692500000.0 -12603600000.0 -12566600000.0 -12779400000.0 -12595500000.0 -12592600000.0 -12584200000.0 -12582600000.0 -12900500000.0 -12810100000.0 -13201900000.0 -12907200000.0 -14100800000.0 -13821600000.0 -14189600000.0 -14015000000.0 -13902800000.0 -13898100000.0 -12775000000.0 -12645400000.0 -13743000000.0 -12549700000.0 -12842800000.0 -13786300000.0 -12585900000.0 -12549700000.0 -12697400000.0 -12635300000.0 -12593600000.0 -12861300000.0 -12971900000.0 -14321900000.0 -14114100000.0 -14124900000.0 -13765000000.0 -12900400000.0 -15226500000.0 -17846700000.0 -15533800000.0 -16854500000.0 -17040500000.0 -17098200000.0 -15951200000.0 -13128700000.0 -12906100000.0 -12959900000.0 -12549700000.0 -12948600000.0 -12571200000.0 -12549700000.0 -13014700000.0 -12549700000.0 -12549700000.0 -12738400000.0 -12549700000.0 -12763300000.0 -12549700000.0 -13615000000.0 -12549700000.0 -12549700000.0 -12549700000.0 -12583300000.0 -12555500000.0 -12549700000.0 -12561400000.0 -12627000000.0 -12829600000.0 -12969300000.0 -13360400000.0 -13619300000.0 -13463300000.0 -13502600000.0 -13480400000.0 -13328400000.0 -12871600000.0 -13023200000.0 -12999700000.0 -13081300000.0 -12959100000.0 -12683000000.0 -12943300000.0 -13971900000.0 -12696800000.0 -13208200000.0 -13320600000.0 -13155200000.0 -12988700000.0 -13095900000.0 -12549700000.0 -13283900000.0 -12929100000.0 -13989100000.0 -12553600000.0 -12549700000.0 -12730800000.0 -12836800000.0 -13916600000.0 -12846800000.0 -12549700000.0 -12549700000.0 -13041400000.0 -12549700000.0 -12549700000.0 -12734700000.0 -13033900000.0 -12747500000.0 -12573500000.0 -14068600000.0 -14317600000.0 -14649300000.0 -15585100000.0 -14111000000.0 -15846500000.0 -12675000000.0 -13515500000.0 -12781000000.0 -12704200000.0 -16463600000.0 -12570400000.0 -13553100000.0 -13202800000.0 -12899100000.0 -16377600000.0 -13718200000.0 -12575700000.0 -13105900000.0 -14107600000.0 -13616400000.0 -17478000000.0 -14368000000.0 -14082100000.0 -14018900000.0 -15292000000.0 -15671100000.0 -16120700000.0 -16467600000.0 -13392100000.0 -12549700000.0 -16078500000.0 -16808000000.0 -15350700000.0 -17004100000.0 -12690200000.0 -16302000000.0 -13839100000.0 -14405500000.0 -13749700000.0 -14007500000.0 -13233900000.0 -12665900000.0 -13537600000.0 -12553300000.0 -12575100000.0 -12955200000.0 -12549700000.0 -13195500000.0 -12549700000.0 -13934400000.0 -12649700000.0 -12586800000.0 -12549700000.0 -12763100000.0 -12825400000.0 -12764300000.0 -12860400000.0 -13026400000.0 -13420400000.0 -13351000000.0 -14235500000.0 -13915100000.0 -15409400000.0 -14043500000.0 -13920000000.0 -13316800000.0 -14029000000.0 -12562800000.0 -12635700000.0 -13861000000.0 -12549700000.0 -13163600000.0 -14594300000.0 -12780400000.0 -12816600000.0 -12614900000.0 -14662400000.0 -13923300000.0 -13238400000.0 -12672300000.0 -13908700000.0 -16132200000.0 -13613500000.0 -13402000000.0 -13271900000.0 -14146500000.0 -14572300000.0 -18104400000.0 -16472600000.0 -16731400000.0 -14808700000.0 -14279600000.0 -14870000000.0 -15316500000.0 -15358800000.0 -14642700000.0 -15222400000.0 -14395700000.0 -14473200000.0 -13983100000.0 -16487700000.0 -21429300000.0 -21046400000.0 -23943600000.0 -13295800000.0 -13611200000.0 -13269600000.0 -21786800000.0 -18587400000.0 -18663500000.0 -15652300000.0 -16850900000.0 -16064600000.0 -14818000000.0 -14964800000.0 -14154900000.0 -17698100000.0 -12646500000.0 -13382000000.0 -12735300000.0 -14096900000.0 -12932900000.0 -15267000000.0 -15075800000.0 -14990400000.0 -16789700000.0 -12549700000.0 -18952800000.0 -13020300000.0 -13581000000.0 -15838400000.0 -18532000000.0 -13338000000.0 -17312900000.0 -17543600000.0 -13113400000.0 -14268800000.0 -12549700000.0 -13527800000.0 -13711700000.0 -13318100000.0 -13812500000.0 -13606600000.0 -13023100000.0 -13465600000.0 -12880700000.0 -14204200000.0 -13201800000.0 -14776100000.0 -12949000000.0 -12931500000.0 -12796200000.0 -12549700000.0 -12847800000.0 -12571200000.0 -12672700000.0 -12584800000.0 -13002700000.0 -13774300000.0 -14051800000.0 -13327600000.0 -17722300000.0 -17491600000.0 -15133400000.0 -17950800000.0 -16872200000.0 -17048800000.0 -18391600000.0 -18392500000.0 -16257300000.0 -15352300000.0 -14771700000.0 -17764900000.0 -13247100000.0 -12949400000.0 -13911300000.0 -12685500000.0 -14747700000.0 -12679100000.0 -15007900000.0 -12877200000.0 -16208200000.0 -15795900000.0 -19901300000.0 -13611000000.0 -13341400000.0 -13935700000.0 -13285500000.0 -18105000000.0 -12549700000.0 -12549700000.0 -12549700000.0 -15532300000.0 -15260600000.0 -16970000000.0 -15788700000.0 -15662800000.0 -14627200000.0 -20478000000.0 -20564200000.0 -19234600000.0 -18908900000.0 -13624200000.0 -17871700000.0 -25431600000.0 -24365100000.0 -23121900000.0 -25411200000.0 -12931900000.0 -12563400000.0 -19578000000.0 -18762200000.0 -20303000000.0 -17937800000.0 -20439900000.0 -14743400000.0 -15065900000.0 -18206700000.0 -14432500000.0 -16709200000.0 -17784800000.0 -18646400000.0 -20995400000.0 -14630600000.0 -12874500000.0 -12848000000.0 -16401400000.0 -12694900000.0 -23205900000.0 -20371300000.0 -17548500000.0 -20675500000.0 -16305800000.0 -17217900000.0 -13734500000.0 -17920600000.0 -16133500000.0 -15708000000.0 -13612900000.0 -13518100000.0 -13831800000.0 -13071600000.0 -13615100000.0 -14264300000.0 -14145600000.0 -12906500000.0 -13332900000.0 -12549700000.0 -14237300000.0 -12698000000.0 -15210500000.0 -14405600000.0 -13833200000.0 -13363800000.0 -13651200000.0 -13435800000.0 -13050800000.0 -13344400000.0 -12833100000.0 -15712700000.0 -14704800000.0 -13608700000.0 -13086200000.0 -18463100000.0 -22782400000.0 -19938300000.0 -13233400000.0 -15182800000.0 -13574500000.0 -13377200000.0 -13592500000.0 -16609100000.0 -13290000000.0 -14800600000.0 -17194000000.0 -22684200000.0 -21750900000.0 -13672900000.0 -16399400000.0 -13191300000.0 -17231100000.0 -18605200000.0 -13171200000.0 -21332100000.0 -14717000000.0 -14078300000.0 -15612400000.0 -13627600000.0 -20921000000.0 -12549700000.0 -12642200000.0 -12932600000.0 -16730200000.0 -20730100000.0 -13098900000.0 -12721100000.0 -18488100000.0 -17988400000.0 -12982100000.0 -14766600000.0 -19346100000.0 -21294900000.0 -16894700000.0 -20509700000.0 -21213200000.0 -12907700000.0 -16875800000.0 -20215700000.0 -21940900000.0 -27242300000.0 -26098500000.0 -25398200000.0 -12879700000.0 -12582800000.0 -17862100000.0 -12719100000.0 -18813600000.0 -16905700000.0 -25205600000.0 -23623400000.0 -24955200000.0 -18224500000.0 -19791100000.0 -17419000000.0 -12991200000.0 -14102100000.0 -12714900000.0 -20326800000.0 -17483400000.0 -15991500000.0 -18894400000.0 -20927800000.0 -12549700000.0 -24962100000.0 -16113000000.0 -24364800000.0 -26356500000.0 -17518400000.0 -18261800000.0 -18166300000.0 -15691700000.0 -14631100000.0 -15320300000.0 -13012300000.0 -12938600000.0 -16850700000.0 -20148800000.0 -16809100000.0 -17260900000.0 -16498900000.0 -17450400000.0 -15854900000.0 -20013200000.0 -17723800000.0 -17892000000.0 -18690200000.0 -20140000000.0 -16472500000.0 -16159400000.0 -16304500000.0 -16943200000.0 -12557900000.0 -12634500000.0 -14293300000.0 -12653400000.0 -26989000000.0 -13629700000.0 -13076500000.0 -14868200000.0 -15373400000.0 -15013100000.0 -12630900000.0 -13093200000.0 -12549700000.0 -16958200000.0 -16040100000.0 -13646500000.0 -15305000000.0 -22943300000.0 -22526000000.0 -23195100000.0 -12929000000.0 -29196300000.0 -17649200000.0 -23729700000.0 -15673300000.0 -15245200000.0 -20468000000.0 -19769300000.0 -13594900000.0 -17555100000.0 -19793200000.0 -21621500000.0 -23471100000.0 -32178200000.0 -23137500000.0 -24046000000.0 -20975100000.0 -16706000000.0 -16303600000.0 -16765400000.0 -34122200000.0 -19043600000.0 -20170200000.0 -14794300000.0 -22078800000.0 -13389500000.0 -20643300000.0 -35370600000.0 -14293800000.0 -17052300000.0 -12563900000.0 -17015100000.0 -21414700000.0 -29226600000.0 -14262600000.0 -18752500000.0 -23288000000.0 -23084700000.0 -17079300000.0 -17646700000.0 -12549700000.0 -14874000000.0 -15366600000.0 -14551700000.0 -23604200000.0 -19109200000.0 -18282700000.0 -20910500000.0 -28685500000.0 -41386600000.0 -20359700000.0 -32036300000.0 -21626700000.0 -18713800000.0 -20294000000.0 -13579800000.0 -23951400000.0 -13109300000.0 -14526200000.0 -12896500000.0 -12761400000.0 -23563200000.0 -14842600000.0 -12698800000.0 -13498600000.0 -14871700000.0 -15364300000.0 -14476600000.0 -17121700000.0 -13929900000.0 -13281500000.0 -15132300000.0 -12592600000.0 -12903800000.0 -18518900000.0 -17274100000.0 -18717600000.0 -19222400000.0 -20059400000.0 -23450500000.0 -22376100000.0 -17619600000.0 -18490700000.0 -21200300000.0 -15958500000.0 -15331500000.0 -14819700000.0 -14521900000.0 -13178000000.0 -15006200000.0 -13549400000.0 -13493800000.0 -17727100000.0 -18164300000.0 -15107200000.0 -16826200000.0 -17338400000.0 -13171300000.0 -17593400000.0 -17180800000.0 -25034400000.0 -21270600000.0 -27718700000.0 -21680900000.0 -20844400000.0 -17611500000.0 -16735000000.0 -17122400000.0 -17532900000.0 -15830900000.0 -12549700000.0 -12658900000.0 -14222500000.0 -26285600000.0 -16355700000.0 -16222500000.0 -27999200000.0 -29558900000.0 -27167000000.0 -12689400000.0 -31360300000.0 -28987800000.0 -27249900000.0 -31969400000.0 -29935100000.0 -28617100000.0 -34606400000.0 -28656300000.0 -32441000000.0 -19552200000.0 -19239600000.0 -21448400000.0 -22726500000.0 -23274900000.0 -20238400000.0 -28402300000.0 -15428800000.0 -23641500000.0 -20020300000.0 -21971800000.0 -14716200000.0 -18307400000.0 -12683500000.0 -22204900000.0 -12904600000.0 -13062500000.0 -12682600000.0 -19423300000.0 -12549700000.0 -18031300000.0 -34443000000.0 -37307300000.0 -35810500000.0 -24639000000.0 -24900300000.0 -14201100000.0 -24210200000.0 -26438000000.0 -27265900000.0 -29523200000.0 -22701700000.0 -22611100000.0 -20800200000.0 -20501300000.0 -19527500000.0 -17536300000.0 -14491400000.0 -18538200000.0 -13868700000.0 -16064000000.0 -17680000000.0 -18083200000.0 -15214800000.0 -12578600000.0 -13884700000.0 -12771000000.0 -14932100000.0 -13155800000.0 -19813700000.0 -17757000000.0 -23690500000.0 -14517100000.0 -15744400000.0 -15472800000.0 -16605800000.0 -15495600000.0 -14791700000.0 -13494600000.0 -16869400000.0 -13086300000.0 -14527400000.0 -13569400000.0 -14826000000.0 -14231000000.0 -13955800000.0 -15619700000.0 -18014100000.0 -23923100000.0 -28534900000.0 -24010100000.0 -28802000000.0 -26011400000.0 -14353400000.0 -15880900000.0 -13428700000.0 -15395900000.0 -13662100000.0 -12549700000.0 -14561000000.0 -13760100000.0 -31157800000.0 -15518600000.0 -16377700000.0 -18184200000.0 -12549700000.0 -19605100000.0 -13958300000.0 -23212300000.0 -16939500000.0 -17533100000.0 -25686200000.0 -18896900000.0 -31079800000.0 -19581900000.0 -20852800000.0 -22659900000.0 -17302800000.0 -23957600000.0 -20465400000.0 -28750600000.0 -18930400000.0 -16558800000.0 -30615200000.0 -29731900000.0 -17544700000.0 -16061600000.0 -22408000000.0 -17946200000.0 -16309800000.0 -19366600000.0 -24025900000.0 -12744600000.0 -13558600000.0 -15007000000.0 -12587800000.0 -21383900000.0 -15009100000.0 -32270900000.0 -33670000000.0 -19905000000.0 -15465400000.0 -13980300000.0 -14770200000.0 -26506700000.0 -12549700000.0 -19468900000.0 -19132600000.0 -19318300000.0 -18905900000.0 -13034500000.0 -13511900000.0 -14515800000.0 -13817900000.0 -16970900000.0 -17576300000.0 -18589200000.0 -13513100000.0 -18139300000.0 -17727500000.0 -13488600000.0 -15864000000.0 -18897300000.0 -19068300000.0 -18216400000.0 -18010400000.0 -20805200000.0 -24100800000.0 -19353700000.0 -21018000000.0 -24506900000.0 -17660000000.0 -17996000000.0 -22289200000.0 -25400400000.0 -24785200000.0 -22831200000.0 -21077000000.0 -23325200000.0 -23109300000.0 -24253800000.0 -24918500000.0 -20195500000.0 -22784400000.0 -30268600000.0 -12549700000.0 -21867600000.0 -20606200000.0 -26650300000.0 -14470600000.0 -24045700000.0 -24312200000.0 -12878600000.0 -25274800000.0 -23166400000.0 -20202700000.0 -20715500000.0 -23626400000.0 -21769800000.0 -13434400000.0 -13998500000.0 -14710400000.0 -12644900000.0 -17880400000.0 -18736600000.0 -19470900000.0 -24455600000.0 -19771600000.0 -21658800000.0 -14359400000.0 -12549700000.0 -25602400000.0 -16760400000.0 -24445600000.0 -17796700000.0 -18438200000.0 -25587700000.0 -23401000000.0 -31093500000.0 -37789800000.0 -12549700000.0 -42644500000.0 -32481700000.0 -26815900000.0 -19459300000.0 -12665300000.0 -12784300000.0 -24287700000.0 -17091400000.0 -12699500000.0 -21738400000.0 -16028900000.0 -23538600000.0 -13649400000.0 -19237400000.0 -24353400000.0 -14871400000.0 -16949000000.0 -12856500000.0 -30345900000.0 -24741600000.0 -12823100000.0 -13024200000.0 -15683500000.0 -27667800000.0 -17844500000.0 -16550500000.0 -12674900000.0 -12681100000.0 -14392900000.0 -16298400000.0 -13546100000.0 -12835600000.0 -12549700000.0 -16986700000.0 -18539500000.0 -17472000000.0 -16417900000.0 -12759500000.0 -17356400000.0 -14757600000.0 -18497200000.0 -16772200000.0 -12618900000.0 -13196600000.0 -14654500000.0 -13754400000.0 -12564400000.0 -20297700000.0 -21051700000.0 -12564400000.0 -22084300000.0 -13250600000.0 -18548200000.0 -12549700000.0 -12553300000.0 -16932600000.0 -12696700000.0 -19903100000.0 -12549700000.0 -12584300000.0 -13164200000.0 -19001600000.0 -18620800000.0 -21012600000.0 -29508800000.0 -12549700000.0 -20579100000.0 -22283300000.0 -12999400000.0 -13381400000.0 -25940700000.0 -18959400000.0 -20500700000.0 -28810500000.0 -14447400000.0 -12721800000.0 -16838300000.0 -20235900000.0 -13967100000.0 -18485900000.0 -14589700000.0 -23787500000.0 -16988700000.0 -21938800000.0 -19057000000.0 -25091600000.0 -24638000000.0 -30146300000.0 -46547500000.0 -43306800000.0 -40447300000.0 -40137400000.0 -38870100000.0 -41175900000.0 -39336400000.0 -41380700000.0 -46614900000.0 -45070900000.0 -57670300000.0 -26448300000.0 -58109700000.0 -27393300000.0 -29921200000.0 -21550000000.0 -18331200000.0 -14209100000.0 -24024500000.0 -17046600000.0 -16678800000.0 -15677200000.0 -22213400000.0 -12795900000.0 -18135000000.0 -19114000000.0 -13999300000.0 -15815900000.0 -17587200000.0 -14871400000.0 -13409600000.0 -31967500000.0 -26735000000.0 -12732800000.0 -25485000000.0 -15654400000.0 -16707200000.0 -26598500000.0 -12549700000.0 -16941400000.0 -13480000000.0 -14210500000.0 -13370800000.0 -12800500000.0 -18752300000.0 -17707400000.0 -15001400000.0 -14990400000.0 -17886500000.0 -14723600000.0 -22158300000.0 -16246100000.0 -13981200000.0 -18384600000.0 -16047100000.0 -15353200000.0 -16443600000.0 -12734800000.0 -15410100000.0 -15556300000.0 -12733000000.0 -15741200000.0 -13055600000.0 -15040000000.0 -12613500000.0 -24090200000.0 -12679700000.0 -17807300000.0 -17165200000.0 -21253500000.0 -20777600000.0 -12604500000.0 -12682200000.0 -17417200000.0 -17187300000.0 -23776000000.0 -13191600000.0 -13244600000.0 -15419300000.0 -15428900000.0 -17310600000.0 -15534800000.0 -18188500000.0 -15277500000.0 -15611100000.0 -32551700000.0 -26739500000.0 -26517500000.0 -30846400000.0 -39634900000.0 -29495100000.0 -33455900000.0 -29574600000.0 -21558700000.0 -17704900000.0 -16961600000.0 -18506700000.0 -18156300000.0 -19508300000.0 -29429400000.0 -26351300000.0 -15981900000.0 -20237500000.0 -27128300000.0 -12932600000.0 -17404200000.0 -12549700000.0 -30481500000.0 -20082900000.0 -17663900000.0 -20664600000.0 -13732500000.0 -25788100000.0 -22550500000.0 -15764200000.0 -31036600000.0 -12941600000.0 -15899500000.0 -34705700000.0 -32685500000.0 -31632800000.0 -33982700000.0 -12549700000.0 -25601600000.0 -12549700000.0 -23694800000.0 -35070100000.0 -20817000000.0 -13083000000.0 -12977000000.0 -21805500000.0 -14182300000.0 -17483700000.0 -17224100000.0 -19648100000.0 -26408900000.0 -12592500000.0 -19923600000.0 -17883800000.0 -18921400000.0 -37201800000.0 -22966200000.0 -12721700000.0 -30584700000.0 -31863600000.0 -20944100000.0 -20686900000.0 -20217100000.0 -23981200000.0 -22590200000.0 -22027600000.0 -23062400000.0 -15913300000.0 -17039800000.0 -21140100000.0 -25568000000.0 -13001600000.0 -23311500000.0 -18393000000.0 -18152100000.0 -22457600000.0 -19585400000.0 -20540400000.0 -19264100000.0 -20923700000.0 -12549700000.0 -13987500000.0 -26043600000.0 -13072900000.0 -15223400000.0 -15463400000.0 -22673300000.0 -22641700000.0 -17704300000.0 -20383400000.0 -15330200000.0 -12993800000.0 -23452400000.0 -12549700000.0 -12598500000.0 -22664900000.0 -19500100000.0 -17182300000.0 -30501000000.0 -12549700000.0 -12549700000.0 -27795300000.0 -33267100000.0 -29927000000.0 -13274300000.0 -26748400000.0 -23128400000.0 -19979500000.0 -23517200000.0 -17970800000.0 -17144000000.0 -14123600000.0 -19405900000.0 -12635900000.0 -22979400000.0 -28390100000.0 -24277200000.0 -16026600000.0 -29589000000.0 -28637700000.0 -38229400000.0 -17079500000.0 -18702400000.0 -23602600000.0 -13042300000.0 -34469000000.0 -16752400000.0 -19002800000.0 -27371000000.0 -14503500000.0 -17286100000.0 -14258700000.0 -12738300000.0 -35717800000.0 -19358900000.0 -38850500000.0 -24501900000.0 -25985800000.0 -28617900000.0 -38985200000.0 -17855700000.0 -32093900000.0 -30554600000.0 -36879400000.0 -31757500000.0 -38742200000.0 -30892100000.0 -21387400000.0 -30649800000.0 -46291700000.0 -43655300000.0 -46293800000.0 -61074900000.0 -26978600000.0 -35167700000.0 -17098400000.0 -18852000000.0 -16076000000.0 -17976300000.0 -16834300000.0 -16511200000.0 -13732800000.0 -13667600000.0 -14150100000.0 -22999200000.0 -20311100000.0 -19409200000.0 -19761000000.0 -33253700000.0 -17869100000.0 -20970300000.0 -22392100000.0 -16478400000.0 -19050800000.0 -17723500000.0 -24106600000.0 -24349300000.0 -23250000000.0 -26414900000.0 -21660100000.0 -22721200000.0 -21493600000.0 -23380800000.0 -13050600000.0 -26839700000.0 -18413500000.0 -14563200000.0 -16987000000.0 -16700900000.0 -17297100000.0 -20768300000.0 -25087800000.0 -22706400000.0 -31522200000.0 -20518200000.0 -24453900000.0 -33422700000.0 -12549700000.0 -53493600000.0 -31946500000.0 -36824300000.0 -24398500000.0 -44874400000.0 -26896200000.0 -18068200000.0 -17733100000.0 -15646400000.0 -22343700000.0 -25381200000.0 -20662400000.0 -20013600000.0 -17243200000.0 -31591500000.0 -15046600000.0 -12782600000.0 -14548300000.0 -22432900000.0 -22507000000.0 -12549700000.0 -12549700000.0 -24154000000.0 -27677900000.0 -45678800000.0 -27138000000.0 -14845000000.0 -24939600000.0 -16202400000.0 -15134000000.0 -13623300000.0 -13296900000.0 -38986000000.0 -22815200000.0 -42682800000.0 -17975800000.0 -14530900000.0 -20134300000.0 -13195700000.0 -20774800000.0 -15008000000.0 -13126700000.0 -12823500000.0 -21153400000.0 -21007400000.0 -23918300000.0 -27302800000.0 -23175200000.0 -23893500000.0 -15943300000.0 -12673500000.0 -12554200000.0 -12570600000.0 -12549700000.0 -44620200000.0 -15091900000.0 -17064700000.0 -17770800000.0 -16441900000.0 -19347600000.0 -13558600000.0 -15404200000.0 -13217000000.0 -12809400000.0 -17846700000.0 -18327500000.0 -13893500000.0 -14527500000.0 -14115400000.0 -15838000000.0 -17111500000.0 -12549700000.0 -24479200000.0 -24211700000.0 -19687500000.0 -24186600000.0 -21614100000.0 -20945800000.0 -26185400000.0 -17926900000.0 -19493000000.0 -13778000000.0 -21527600000.0 -16345800000.0 -24692800000.0 -19233000000.0 -15096500000.0 -12717500000.0 -25542900000.0 -14499700000.0 -12775500000.0 -13008100000.0 -15182900000.0 -16489900000.0 -13246900000.0 -28700900000.0 -12618800000.0 -16420200000.0 -15369300000.0 -27929300000.0 -15385800000.0 -38440500000.0 -16777300000.0 -12718600000.0 -37784200000.0 -47896400000.0 -27518500000.0 -27854800000.0 -13502300000.0 -13007400000.0 -53767200000.0 -35224400000.0 -24367900000.0 -20333300000.0 -19250800000.0 -12923000000.0 -17591400000.0 -13051800000.0 -14211700000.0 -16446400000.0 -13280200000.0 -13035700000.0 -29206200000.0 -15488100000.0 -19685400000.0 -22556600000.0 -23867200000.0 -30643800000.0 -12627900000.0 -32165100000.0 -28733600000.0 -20523500000.0 -22000400000.0 -27043700000.0 -24464400000.0 -22530000000.0 -33011900000.0 -17936800000.0 -12605400000.0 -17663200000.0 -12742700000.0 -26715300000.0 -30426500000.0 -25714300000.0 -44122700000.0 -34981700000.0 -39252500000.0 -27510400000.0 -26464600000.0 -18449900000.0 -39135600000.0 -31242200000.0 -20773900000.0 -28021400000.0 -14637200000.0 -15803400000.0 -13161200000.0 -12835600000.0 -12909900000.0 -12704100000.0 -17681200000.0 -49370200000.0 -28024600000.0 -26144800000.0 -17097700000.0 -14638100000.0 -15243100000.0 -22934300000.0 -19025500000.0 -14949100000.0 -14762300000.0 -20576400000.0 -12913000000.0 -13564000000.0 -12739400000.0 -14859300000.0 -16313800000.0 -15158600000.0 -23944700000.0 -13826400000.0 -13097600000.0 -15405800000.0 -12716900000.0 -14649100000.0 -12612900000.0 -21312400000.0 -17494000000.0 -29801400000.0 -36238900000.0 -18300100000.0 -13114900000.0 -24071000000.0 -16482200000.0 -18995700000.0 -13830400000.0 -12947600000.0 -14776200000.0 -30171300000.0 -14136600000.0 -16222300000.0 -12636300000.0 -28383900000.0 -27292700000.0 -35509700000.0 -30415600000.0 -13220900000.0 -40058700000.0 -56721200000.0 -49156300000.0 -47654100000.0 -15241900000.0 -12699200000.0 -40881000000.0 -41502100000.0 -14234100000.0 -13056300000.0 -15476600000.0 -24761600000.0 -14538500000.0 -14438800000.0 -15036700000.0 -16993700000.0 -15706400000.0 -35811600000.0 -33210900000.0 -22372200000.0 -30179400000.0 -22447300000.0 -20099900000.0 -19698000000.0 -35533300000.0 -14872300000.0 -15650000000.0 -18337900000.0 -12614100000.0 -18942500000.0 -26627300000.0 -12723700000.0 -21397700000.0 -34268800000.0 -18947200000.0 -19727900000.0 -22830100000.0 -29276500000.0 -22799600000.0 -31184200000.0 -22244500000.0 -29702100000.0 -21295400000.0 -27828900000.0 -34166000000.0 -36537200000.0 -12549700000.0 -24272500000.0 -12598800000.0 -27109300000.0 -19056000000.0 -21811200000.0 -24208300000.0 -15207400000.0 -13166300000.0 -13501200000.0 -13579000000.0 -13841200000.0 -16742100000.0 -41224500000.0 -25024200000.0 -16301100000.0 -12549700000.0 -21726100000.0 -19109600000.0 -16790200000.0 -18671300000.0 -19053300000.0 -19389700000.0 -20139300000.0 -19627200000.0 -17028800000.0 -15658100000.0 -24602700000.0 -12549700000.0 -16471200000.0 -13138300000.0 -12600200000.0 -15722000000.0 -20712500000.0 -12620700000.0 -14163100000.0 -12549700000.0 -18401700000.0 -18308700000.0 -16118900000.0 -15298900000.0 -23947600000.0 -21802000000.0 -17875200000.0 -18429200000.0 -22514400000.0 -25426400000.0 -15493100000.0 -16682000000.0 -16079800000.0 -15467900000.0 -13224300000.0 -34600900000.0 -19006300000.0 -13544700000.0 -21488200000.0 -13128700000.0 -28123600000.0 -23923500000.0 -20799300000.0 -18611000000.0 -28119800000.0 -22043100000.0 -79273400000.0 -32257800000.0 -12968400000.0 -12630500000.0 -32573500000.0 -37940500000.0 -16647800000.0 -21841700000.0 -30481400000.0 -18414900000.0 -25838300000.0 -13551900000.0 -33538200000.0 -23888100000.0 -12549700000.0 -13148000000.0 -16704300000.0 -12549700000.0 -17839100000.0 -18074000000.0 -20647600000.0 -33182500000.0 -13209700000.0 -13111000000.0 -21482900000.0 -27124200000.0 -23424900000.0 -17310300000.0 -15533000000.0 -28549400000.0 -19768200000.0 -17335800000.0 -27760000000.0 -15810600000.0 -17183100000.0 -35587600000.0 -23064400000.0 -28158600000.0 -12768000000.0 -14059600000.0 -15053000000.0 -22699000000.0 -12549700000.0 -18896500000.0 -16263500000.0 -21751100000.0 -13697100000.0 -25032800000.0 -14401100000.0 -12684000000.0 -13637000000.0 -12701800000.0 -12879000000.0 -15143800000.0 -25186900000.0 -25705300000.0 -21548600000.0 -12565400000.0 -22408100000.0 -17206000000.0 -15488400000.0 -17202800000.0 -14185700000.0 -15993800000.0 -16390800000.0 -13646500000.0 -14253500000.0 -14521900000.0 -13521200000.0 -20274000000.0 -19677300000.0 -19773700000.0 -22048800000.0 -23605800000.0 -14337800000.0 -15001000000.0 -14275600000.0 -21071200000.0 -16012600000.0 -20897100000.0 -26721100000.0 -21537300000.0 -18451500000.0 -18997000000.0 -15166700000.0 -20021600000.0 -12549700000.0 -22325100000.0 -41305700000.0 -24645500000.0 -23177400000.0 -28641400000.0 -15344700000.0 -25206400000.0 -24196600000.0 -22806300000.0 -36128300000.0 -42632300000.0 -41967100000.0 -32001400000.0 -31610300000.0 -64156900000.0 -17693800000.0 -39965300000.0 -21635400000.0 -46443900000.0 -25014700000.0 -23422100000.0 -22464000000.0 -21023700000.0 -22003700000.0 -20406800000.0 -17393200000.0 -28062000000.0 -17252100000.0 -16276800000.0 -27454800000.0 -22425700000.0 -12549700000.0 -12586200000.0 -20534100000.0 -18403000000.0 -29621600000.0 -22889500000.0 -19696900000.0 -29720500000.0 -12802700000.0 -12566000000.0 -33445300000.0 -18106400000.0 -21023700000.0 -22645000000.0 -30645000000.0 -27895000000.0 -30714500000.0 -27874500000.0 -16115400000.0 -27797300000.0 -12755200000.0 -23511000000.0 -27406700000.0 -14137500000.0 -13231600000.0 -13464100000.0 -13403800000.0 -13305400000.0 -12714200000.0 -13731500000.0 -14588300000.0 -12841300000.0 -24362000000.0 -23593500000.0 -19201900000.0 -15687800000.0 -13630800000.0 -13354700000.0 -14840000000.0 -13103000000.0 -13401200000.0 -17550100000.0 -17542000000.0 -16087000000.0 -16363600000.0 -17061900000.0 -17547100000.0 -13757500000.0 -12819900000.0 -12620400000.0 -12722000000.0 -13524800000.0 -22357800000.0 -13398700000.0 -21371700000.0 -18991100000.0 -27865500000.0 -12549700000.0 -19521300000.0 -22083400000.0 -24974500000.0 -19050800000.0 -14967700000.0 -14678500000.0 -26933100000.0 -26653300000.0 -12549700000.0 -20395000000.0 -43260500000.0 -25214500000.0 -12668000000.0 -12638100000.0 -19584000000.0 -16971400000.0 -12555900000.0 -30443100000.0 -30987400000.0 -19727900000.0 -100062000000.0 -13277800000.0 -42119500000.0 -51589500000.0 -28087000000.0 -31220600000.0 -29151800000.0 -32710400000.0 -43110400000.0 -12704700000.0 -25134200000.0 -24216400000.0 -14504800000.0 -17375500000.0 -25053300000.0 -12549700000.0 -18474900000.0 -15038700000.0 -14493100000.0 -15810600000.0 -18555300000.0 -22561700000.0 -24617700000.0 -15886100000.0 -13089400000.0 -12549700000.0 -12647300000.0 -12827300000.0 -14254200000.0 -17002700000.0 -20736400000.0 -23250600000.0 -19426000000.0 -16506500000.0 -28220200000.0 -19755400000.0 -28727300000.0 -14375100000.0 -14207200000.0 -12862200000.0 -17905800000.0 -16970500000.0 -17517700000.0 -12942200000.0 -18805100000.0 -30724200000.0 -30988400000.0 -41165700000.0 -13394100000.0 -13195600000.0 -12549700000.0 -12549700000.0 -13483800000.0 -12726000000.0 -12718800000.0 -12733900000.0 -12960100000.0 -14237500000.0 -19151500000.0 -16826800000.0 -20880900000.0 -12843500000.0 -18619000000.0 -15412200000.0 -13239000000.0 -13154600000.0 -14152400000.0 -13226200000.0 -13842400000.0 -12996900000.0 -13301300000.0 -12947100000.0 -13292700000.0 -13179900000.0 -13751400000.0 -14766600000.0 -12703000000.0 -12604900000.0 -12627500000.0 -12549700000.0 -12602800000.0 -17440800000.0 -17759100000.0 -12670900000.0 -12980400000.0 -20335600000.0 -21879600000.0 -28950400000.0 -32054400000.0 -43274400000.0 -15803700000.0 -35759200000.0 -24269100000.0 -17011600000.0 -32499400000.0 -34781600000.0 -32775300000.0 -31961600000.0 -31468000000.0 -19432600000.0 -27377800000.0 -16822500000.0 -57186100000.0 -44489700000.0 -53045400000.0 -66952400000.0 -46704900000.0 -56198100000.0 -63340700000.0 -14518100000.0 -21530600000.0 -33910000000.0 -41168300000.0 -46261500000.0 -29788700000.0 -42244400000.0 -52404800000.0 -23567800000.0 -18408800000.0 -24124200000.0 -20290000000.0 -20893900000.0 -15178400000.0 -15958100000.0 -13277400000.0 -16112400000.0 -17457600000.0 -17684100000.0 -12572200000.0 -12549700000.0 -15356900000.0 -16066000000.0 -13821500000.0 -14023100000.0 -13582700000.0 -17458800000.0 -13048900000.0 -24148500000.0 -14939300000.0 -23680100000.0 -12549700000.0 -25324100000.0 -20723400000.0 -17969900000.0 -20022800000.0 -16696900000.0 -15958900000.0 -19489600000.0 -18937100000.0 -30456800000.0 -23944200000.0 -24790300000.0 -23766700000.0 -19205600000.0 -13745600000.0 -15817200000.0 -15583300000.0 -15636800000.0 -13655800000.0 -14938900000.0 -12850100000.0 -14709300000.0 -14823600000.0 -19993600000.0 -12549700000.0 -18296800000.0 -14477600000.0 -14572900000.0 -13096400000.0 -12660700000.0 -16144300000.0 -12549700000.0 -13975900000.0 -15554900000.0 -17579000000.0 -12876900000.0 -12582100000.0 -12791100000.0 -12590900000.0 -12744300000.0 -13173900000.0 -13137100000.0 -12553700000.0 -13494900000.0 -12602600000.0 -12734200000.0 -12574500000.0 -12716400000.0 -12579100000.0 -12732900000.0 -14698100000.0 -14563400000.0 -20703200000.0 -19042200000.0 -12798200000.0 -29179000000.0 -16925000000.0 -14796100000.0 -15737800000.0 -38630300000.0 -36839000000.0 -17594600000.0 -14615100000.0 -33339300000.0 -38548100000.0 -63781000000.0 -15635900000.0 -35434700000.0 -34968900000.0 -55998500000.0 -22032500000.0 -13246500000.0 -13001100000.0 -38315900000.0 -23212700000.0 -79343300000.0 -57120000000.0 -59905100000.0 -59752200000.0 -16133600000.0 -63112800000.0 -35118900000.0 -42552200000.0 -26157300000.0 -21687600000.0 -12803300000.0 -51496900000.0 -13457800000.0 -13305100000.0 -20553300000.0 -14299000000.0 -15219000000.0 -13114600000.0 -15009800000.0 -14077900000.0 -12773800000.0 -16098100000.0 -17101100000.0 -16497400000.0 -15252100000.0 -12705300000.0 -13367600000.0 -14280400000.0 -13648300000.0 -18316400000.0 -16422800000.0 -16576900000.0 -14538800000.0 -18088200000.0 -16375300000.0 -23649000000.0 -21948400000.0 -16273000000.0 -14117000000.0 -15139200000.0 -16148300000.0 -16116000000.0 -16512300000.0 -13158900000.0 -16998600000.0 -21036300000.0 -18508100000.0 -12738500000.0 -12566500000.0 -31240400000.0 -16413700000.0 -15645800000.0 -12568200000.0 -13119600000.0 -14934700000.0 -13001000000.0 -13396000000.0 -18418700000.0 -17501300000.0 -16009900000.0 -16008300000.0 -14920600000.0 -15511300000.0 -13776600000.0 -12549700000.0 -12574300000.0 -12751700000.0 -14028700000.0 -14591900000.0 -12807900000.0 -14050400000.0 -13106200000.0 -12714300000.0 -13722100000.0 -14748400000.0 -13620800000.0 -15715000000.0 -12998600000.0 -12616000000.0 -21331500000.0 -18084400000.0 -29295100000.0 -25115400000.0 -28523300000.0 -37983000000.0 -21616400000.0 -18923700000.0 -17934700000.0 -30771300000.0 -23942800000.0 -24366200000.0 -34708100000.0 -62620300000.0 -34226400000.0 -51508900000.0 -32436600000.0 -22099300000.0 -79236400000.0 -13783100000.0 -117965000000.0 -16672700000.0 -14420500000.0 -62607700000.0 -23146500000.0 -17522500000.0 -28525700000.0 -12549700000.0 -40955900000.0 -23287900000.0 -17775600000.0 -17618100000.0 -13699800000.0 -13130400000.0 -14751100000.0 -14549200000.0 -15794700000.0 -17623100000.0 -14240200000.0 -14790700000.0 -12611200000.0 -14063200000.0 -14865300000.0 -12939800000.0 -14437900000.0 -12995900000.0 -14164300000.0 -14626400000.0 -12549700000.0 -16884500000.0 -17057900000.0 -25932000000.0 -12549700000.0 -14009700000.0 -15418500000.0 -12663500000.0 -12593900000.0 -12561400000.0 -14038900000.0 -16244600000.0 -15790400000.0 -17620000000.0 -21224300000.0 -15531600000.0 -17641700000.0 -26817400000.0 -16739700000.0 -14446100000.0 -13761200000.0 -12575300000.0 -12717000000.0 -13090600000.0 -13326000000.0 -12930600000.0 -13230600000.0 -13233300000.0 -13058000000.0 -12549700000.0 -14515600000.0 -13906600000.0 -13401000000.0 -13584100000.0 -13763600000.0 -14019400000.0 -14820700000.0 -15523800000.0 -14823800000.0 -13622600000.0 -13867700000.0 -13859600000.0 -14346900000.0 -13841800000.0 -14307600000.0 -14909100000.0 -16286300000.0 -17712100000.0 -16639000000.0 -24956200000.0 -21148800000.0 -26569600000.0 -14098700000.0 -18406600000.0 -13112800000.0 -30895200000.0 -31877900000.0 -36197000000.0 -16165300000.0 -20063200000.0 -52638700000.0 -36617200000.0 -35721800000.0 -13316400000.0 -26392200000.0 -64765100000.0 -12549700000.0 -45071800000.0 -41146500000.0 -27118900000.0 -42366000000.0 -14139400000.0 -14979300000.0 -87067000000.0 -14749600000.0 -19117300000.0 -12549700000.0 -42392000000.0 -25625400000.0 -46562200000.0 -39479500000.0 -25463400000.0 -17410500000.0 -23682700000.0 -24717400000.0 -22154900000.0 -14985800000.0 -19129300000.0 -18529700000.0 -14097700000.0 -20011400000.0 -15244800000.0 -14133200000.0 -16211100000.0 -18523200000.0 -13047100000.0 -12964100000.0 -14757200000.0 -13910900000.0 -14088100000.0 -12635300000.0 -17829400000.0 -14242800000.0 -14153200000.0 -15969600000.0 -13662200000.0 -14397500000.0 -19300700000.0 -17339300000.0 -13982000000.0 -16159400000.0 -15399000000.0 -12873500000.0 -13189700000.0 -15781700000.0 -12621300000.0 -14888800000.0 -23063700000.0 -14209200000.0 -14355900000.0 -13291300000.0 -12550000000.0 -12550700000.0 -12594200000.0 -12887100000.0 -12721300000.0 -12652700000.0 -12583600000.0 -12549700000.0 -12549700000.0 -12943200000.0 -12549700000.0 -12970300000.0 -12590000000.0 -12551900000.0 -12549700000.0 -12549700000.0 -12573400000.0 -12549700000.0 -12656300000.0 -13334700000.0 -13398600000.0 -14622300000.0 -14389300000.0 -12568200000.0 -14284900000.0 -13172400000.0 -13624200000.0 -13850900000.0 -14056100000.0 -14127600000.0 -23065600000.0 -13114900000.0 -17451100000.0 -15137900000.0 -13942100000.0 -23989500000.0 -17426000000.0 -18754700000.0 -20759300000.0 -12758100000.0 -32671900000.0 -40945800000.0 -27926400000.0 -14027500000.0 -31951500000.0 -42966200000.0 -50070900000.0 -25115300000.0 -62265800000.0 -93830300000.0 -54211000000.0 -87379900000.0 -22597200000.0 -14506200000.0 -92031200000.0 -12713800000.0 -28633200000.0 -50532000000.0 -79591000000.0 -32435500000.0 -43106700000.0 -22096900000.0 -53684600000.0 -21834600000.0 -20697400000.0 -12728300000.0 -15264400000.0 -12549700000.0 -14387800000.0 -16975400000.0 -17794600000.0 -20036400000.0 -17922900000.0 -13704400000.0 -13676300000.0 -12894100000.0 -12553400000.0 -13165700000.0 -12549700000.0 -15540600000.0 -13348600000.0 -13675600000.0 -12753800000.0 -14176500000.0 -21213700000.0 -13911100000.0 -12784000000.0 -13930400000.0 -14657800000.0 -13410800000.0 -12549700000.0 -12966300000.0 -12984300000.0 -15279400000.0 -12706800000.0 -18445500000.0 -17446600000.0 -15991400000.0 -14525500000.0 -12764200000.0 -12663800000.0 -12856500000.0 -12549700000.0 -12554000000.0 -12590700000.0 -12778800000.0 -12583700000.0 -12549700000.0 -12549700000.0 -12549700000.0 -12760500000.0 -12563200000.0 -12549700000.0 -12549700000.0 -12549700000.0 -12580500000.0 -13041500000.0 -12809300000.0 -12784300000.0 -12803000000.0 -12800100000.0 -12641700000.0 -13079300000.0 -12680200000.0 -14197500000.0 -13027000000.0 -13870600000.0 -12931900000.0 -16020300000.0 -14343800000.0 -17828200000.0 -19119300000.0 -20883900000.0 -20905900000.0 -22113200000.0 -22107600000.0 -25373300000.0 -15456600000.0 -49579600000.0 -36948000000.0 -52145000000.0 -44436600000.0 -53785200000.0 -13055500000.0 -30319600000.0 -56401600000.0 -50403400000.0 -99166800000.0 -78288500000.0 -97846300000.0 -59219300000.0 -40324200000.0 -70411700000.0 -41384600000.0 -42938200000.0 -24855400000.0 -45708800000.0 -27383700000.0 -23979800000.0 -18082300000.0 -17453300000.0 -14395300000.0 -16373500000.0 -12740400000.0 -12644900000.0 -12656800000.0 -12612400000.0 -13324800000.0 -15414300000.0 -16624500000.0 -12848200000.0 -15167800000.0 -13533400000.0 -14064600000.0 -13339900000.0 -13043400000.0 -14724300000.0 -12563000000.0 -12619300000.0 -13706900000.0 -12770300000.0 -17890200000.0 -12642400000.0 -14422200000.0 -13119900000.0 -12921800000.0 -13123500000.0 -16396700000.0 -15655700000.0 -18301100000.0 -18780000000.0 -15928600000.0 -13335600000.0 -14079100000.0 -12642300000.0 -12604400000.0 -12549700000.0 -12641100000.0 -12550100000.0 -12551200000.0 -12560300000.0 -12630200000.0 -12627100000.0 -12549700000.0 -12555500000.0 -12597700000.0 -12859200000.0 -12852300000.0 -12611500000.0 -12710700000.0 -12863500000.0 -13553200000.0 -13236700000.0 -12925800000.0 -13993300000.0 -12872200000.0 -13521300000.0 -14067100000.0 -15175100000.0 -15711400000.0 -13726200000.0 -14105500000.0 -27128600000.0 -31731600000.0 -24628200000.0 -72458600000.0 -60389300000.0 -30824500000.0 -61119100000.0 -52230300000.0 -51482900000.0 -56424400000.0 -28455900000.0 -48013300000.0 -93527900000.0 -18199700000.0 -41395200000.0 -25241600000.0 -37035000000.0 -66320200000.0 -15314200000.0 -17419200000.0 -15389900000.0 -17076700000.0 -16647500000.0 -12901200000.0 -12604500000.0 -12580200000.0 -12793700000.0 -12861100000.0 -12642400000.0 -14022900000.0 -13654200000.0 -12549700000.0 -12896700000.0 -12877200000.0 -12923200000.0 -13338700000.0 -13490300000.0 -13438500000.0 -14182500000.0 -12552400000.0 -14542200000.0 -14111900000.0 -12719700000.0 -12725000000.0 -12800200000.0 -12721100000.0 -13435200000.0 -12682900000.0 -12680600000.0 -15077800000.0 -14926400000.0 -13899400000.0 -27913400000.0 -22023100000.0 -22633800000.0 -56360700000.0 -41324400000.0 -47665300000.0 -72634900000.0 -47134100000.0 -51851100000.0 -52993100000.0 -52244400000.0 -94968900000.0 -12917500000.0 -43129100000.0 -38877100000.0 -94120200000.0 -34252700000.0 -48537000000.0 -41331300000.0 -48326400000.0 -75013900000.0 -65371000000.0 -16754400000.0 -35297600000.0 -21769400000.0 -32593100000.0 -44063400000.0 -23466700000.0 -30264400000.0 -14243800000.0 -107436000000.0 -48800300000.0 -73965400000.0 -12549700000.0 -50956000000.0 -59818800000.0 -35341100000.0 -197802000000.0 -89553700000.0 -118371000000.0 -60370600000.0 -53628400000.0 -42684400000.0 -20491700000.0 -107852000000.0 -16463000000.0 -41517500000.0 -41841700000.0 -82743900000.0 -42935100000.0 -23382000000.0 -88239700000.0 -133334000000.0 -196886000000.0 -52626200000.0 -88803700000.0 -52078900000.0 -35802400000.0 -12914200000.0 -50601800000.0 -102962000000.0 -15792000000.0 -14080700000.0 -14397400000.0 -13989200000.0 -12549700000.0 -38510500000.0 -25400700000.0 -45033700000.0 -41055500000.0 -97552200000.0 -69873800000.0 -101845000000.0 -13160700000.0 -41218500000.0 -19820000000.0 -12725100000.0 -13759000000.0 -188090000000.0 -72746200000.0 -14125500000.0 -29345900000.0 -109574000000.0 -12898500000.0 -28809700000.0 -52508000000.0 -74146500000.0 -24383200000.0 -14606300000.0 -12549700000.0 -16886300000.0 -54105500000.0 -40035600000.0 -57299400000.0 -83033300000.0 -26392500000.0 -62710400000.0 -48579200000.0 -44394100000.0 -211665000000.0 -52863400000.0 -55197600000.0 -40300000000.0 -55099400000.0 -82603000000.0 -31392700000.0 -16902600000.0 -12549700000.0 -12549700000.0 -12549700000.0 -12549700000.0 -12549700000.0 -12549700000.0 -12549700000.0 -12549700000.0 -12549700000.0 -18389800000.0 -53282700000.0 -28187100000.0 -25824100000.0 -80225100000.0 -12674900000.0 -71681500000.0 -75151900000.0 -46701500000.0 -87726100000.0 -50064700000.0 -43484000000.0 -97406300000.0 -151262000000.0 -44768600000.0 -42994500000.0 -31851500000.0 -18922300000.0 -12549700000.0 -12549700000.0 -12549700000.0 -12549700000.0 -12549700000.0 -12549700000.0 -12549700000.0 -12549700000.0 -12549700000.0 -12549700000.0 -12549700000.0 -12549700000.0 -12549700000.0 -12549700000.0 -12549700000.0 -12549700000.0 -12549700000.0 -12549700000.0 -12549700000.0 -12549700000.0 -12549700000.0 -12549700000.0 -12549700000.0 -12549700000.0 -12549700000.0 -12549700000.0 -12549700000.0 -12549700000.0 -12549700000.0 -12549700000.0 -12549700000.0 -12549700000.0 -12549700000.0 -12578400000.0 -12664400000.0 -12549700000.0 -12549700000.0 -15373800000.0 -54150000000.0 -36453600000.0 -13677300000.0 -22386700000.0 -96137700000.0 -149806000000.0 -132800000000.0 -88212400000.0 -84148800000.0 -262737000000.0 -83173200000.0 -26172200000.0 -78495900000.0 -29685800000.0 -29347000000.0 -136466000000.0 -152816000000.0 -94265200000.0 -22519100000.0 -65443400000.0 -24247300000.0 -70484400000.0 -30124600000.0 -14166300000.0 -12549700000.0 -12549700000.0 -12549700000.0 -12549700000.0 -12549700000.0 -12554600000.0 -12549700000.0 -12549700000.0 -12549700000.0 -12549700000.0 -12549700000.0 -12549700000.0 -13136200000.0 -12549700000.0 -12549700000.0 -12549700000.0 -12549700000.0 -12549700000.0 -12549700000.0 -12549700000.0 -12549700000.0 -12549700000.0 -12549700000.0 -12549700000.0 -12549700000.0 -12549700000.0 -12549700000.0 -12892600000.0 -36413400000.0 -44827100000.0 -66035800000.0 -79600700000.0 -82133800000.0 -70708700000.0 -28239900000.0 -55638800000.0 -59273700000.0 -61360300000.0 -170076000000.0 -278438000000.0 -147899000000.0 -186419000000.0 -143531000000.0 -179319000000.0 -66208500000.0 -21335700000.0 -65344600000.0 -14219500000.0 -19374100000.0 -19868400000.0 -15113200000.0 -12687100000.0 -12656900000.0 -12549700000.0 -12549700000.0 -12549700000.0 -12549700000.0 -12549700000.0 -16683500000.0 -13842800000.0 -12549700000.0 -12550300000.0 -12551100000.0 -12549700000.0 -12549700000.0 -12549700000.0 -12549700000.0 -12549700000.0 -12549700000.0 -12549700000.0 -12549700000.0 -12549700000.0 -12549700000.0 -13463100000.0 -12549700000.0 -12549700000.0 -12549700000.0 -12549700000.0 -12549700000.0 -12549700000.0 -12549700000.0 -12549700000.0 -12549700000.0 -12549700000.0 -12549700000.0 -12549700000.0 -12549700000.0 -12549700000.0 -12549700000.0 -12549700000.0 -12549700000.0 -12549700000.0 -12549700000.0 -12562400000.0 -16113300000.0 -42563000000.0 -34922900000.0 -35569500000.0 -83341000000.0 -26610600000.0 -74866700000.0 -62260500000.0 -111229000000.0 -138473000000.0 -144077000000.0 -212677000000.0 -178539000000.0 -154236000000.0 -193208000000.0 -197790000000.0 -129124000000.0 -180112000000.0 -76824200000.0 -61791000000.0 -83639000000.0 -61368300000.0 -22674300000.0 -12884100000.0 -12824700000.0 -12755000000.0 -12947800000.0 -12549700000.0 -13214700000.0 -14414300000.0 -23149100000.0 -20539300000.0 -12831300000.0 -12575000000.0 -12549700000.0 -12549700000.0 -12549700000.0 -12551400000.0 -12552800000.0 -12549600000.0 -12549700000.0 -12549700000.0 -12549700000.0 -12549700000.0 -12549700000.0 -12549700000.0 -12515800000.0 -13054100000.0 -12549700000.0 -12910800000.0 -12784000000.0 -12549700000.0 -12549700000.0 -12549700000.0 -12549700000.0 -12549700000.0 -12549700000.0 -12549700000.0 -12549700000.0 -12549700000.0 -12549700000.0 -12549700000.0 -12549700000.0 -12549700000.0 -12549700000.0 -12549700000.0 -12549700000.0 -12544300000.0 -57850900000.0 -71089700000.0 -52119700000.0 -13672600000.0 -47132800000.0 -114025000000.0 -119320000000.0 -14943000000.0 -87600400000.0 -190841000000.0 -137280000000.0 -53373600000.0 -182472000000.0 -16940500000.0 -128300000000.0 -235298000000.0 -69719200000.0 -114347000000.0 -26644400000.0 -19545600000.0 -19503200000.0 -30878200000.0 -107560000000.0 -51518600000.0 -37864700000.0 -20279300000.0 -66816200000.0 -43907400000.0 -168102000000.0 -12549700000.0 -12570100000.0 -12551300000.0 -12549700000.0 -12549700000.0 -12549700000.0 -12549700000.0 -12549700000.0 -12549700000.0 -12549700000.0 -12549700000.0 -12549700000.0 -2.82822e+12 -12549700000.0 -4.95678e+12 -13025300000.0 -13096600000.0 -5.07456e+12 -12526800000.0 -2.71348e+12 -77523100000.0 -48794100000.0 -4.37172e+12 -12548600000.0 -12629300000.0 -12480500000.0 -12575600000.0 -3.3702e+12 -12549700000.0 -835248000000.0 -3.0078e+12 -1.03915e+12 -12549700000.0 -12549700000.0 -3.49358e+12 -6.7584e+12 -3.73433e+12 -12550700000.0 -3.78825e+12 -6.47099e+12 -6.81464e+12 -12443700000.0 -12601500000.0 -5.2246e+12 -14024000000.0 -113664000000.0 -12549400000.0 -344871000000.0 -12549700000.0 -12572400000.0 -12589900000.0 -12277500000.0 -3.61943e+12 -501454000000.0 -1.43505e+12 -12549700000.0 -505769000000.0 -229909000000.0 -12580100000.0 -252840000000.0 -3.15323e+12 -12520900000.0 -12515400000.0 -131812000000.0 -12545600000.0 -3.75481e+12 -57887600000.0 -187159000000.0 -459811000000.0 -868038000000.0 -1.35615e+12 -474449000000.0 -42811400000.0 -58056000000.0 -46948900000.0 -31292600000.0 -188694000000.0 -169333000000.0 -128834000000.0 -117124000000.0 -278783000000.0 -76893100000.0 -54732100000.0 -99208400000.0 -223046000000.0 -12549700000.0 -137951000000.0 -196022000000.0 -278416000000.0 -180145000000.0 -17780600000.0 -54521000000.0 -50833800000.0 -3.13142e+12 -2.29383e+12 -1.90279e+12 -45481800000.0 -664438000000.0 -63439400000.0 -451496000000.0 -54642400000.0 -12772000000.0 -15236900000.0 -3.20632e+12 -3.52446e+12 -2.97226e+12 -5.52857e+12 -2.72226e+12 -12549700000.0 -3.23253e+12 -230853000000.0 -4.68569e+12 -482577000000.0 -170730000000.0 -2.81653e+12 -4.06074e+12 -37599800000.0 -576629000000.0 -2.29672e+12 -288591000000.0 -209016000000.0 -3.16948e+12 -12549700000.0 -12549700000.0 -12550100000.0 -12549700000.0 -4.24547e+12 -4.37272e+12 -12551500000.0 -4.75245e+12 -96412200000.0 -19477700000.0 -3.22266e+12 -12549700000.0 -12549700000.0 -12549700000.0 -4.11707e+12 -49466600000.0 -166138000000.0 -1.05134e+12 -332310000000.0 -3.02191e+12 -12549700000.0 -4.49697e+12 -48400600000.0 -161273000000.0 -425058000000.0 -861954000000.0 -2.55886e+12 -4.07709e+12 -2.94429e+12 -13266000000.0 -12634000000.0 -12532500000.0 -4.89852e+12 -4.18278e+12 -7.22852e+12 -5.45924e+12 -5.16495e+12 -4.72367e+12 -4.861e+12 -4.75654e+12 -3.34072e+12 -3.90438e+12 -4.42371e+12 -3.79696e+12 -5.97039e+12 -3.0715e+12 -3.90421e+12 -3.57598e+12 -8.16519e+12 -3.33004e+12 -3.75609e+12 -5.11536e+12 -5.81376e+12 -7.72083e+12 -3.8328e+12 -6.71085e+12 -2.5752e+12 -4.40349e+12 -5.37952e+12 -4.29551e+12 -4.29983e+12 -6.34846e+12 -5.88016e+12 -3.48287e+12 -8.23683e+12 -8.00996e+12 -6.28332e+12 -5.31184e+12 -1.14033e+13 -3.88451e+12 -8.71733e+12 -9.09816e+12 -8.46566e+12 -5.89655e+12 -4.09536e+12 -5.2196e+12 -7.15795e+12 -6.01143e+12 -2.99221e+12 -3.9346e+12 -9.16415e+12 -4.09643e+12 -3.61566e+12 -5.59865e+12 -21151400000.0 -4.59339e+12 -5.95852e+12 -3.79286e+12 -5.7263e+12 -3.93695e+12 -12079300000.0 -5.45045e+12 -5.04303e+12 -3.14441e+12 -5.677e+12 -7.92596e+12 -4.46686e+12 -2.6279e+12 -7.62266e+12 -3.48362e+12 -6.12841e+12 -5.05695e+12 -3.88218e+12 -5.09351e+12 -2.33069e+12 -8.66027e+12 -5.08405e+12 -4.9315e+12 -3.61007e+12 -3.0652e+12 -3.85059e+12 -7.32405e+12 -5.28391e+12 -3.28659e+12 -6.42218e+12 -2.44221e+12 -241294000000.0 -21915200000.0 -158391000000.0 -142759000000.0 -12549700000.0 -70292800000.0 -135707000000.0 -174188000000.0 -33155700000.0 -233137000000.0 -116297000000.0 -118420000000.0 -243825000000.0 -133984000000.0 -39626700000.0 -33055700000.0 -453174000000.0 -394194000000.0 -15058900000.0 -6.00509e+12 -59002000000.0 -5.46293e+12 -7.61939e+12 -3.88662e+12 -4.19011e+12 -5.14722e+12 -4.29361e+12 -6.57853e+12 -2.53029e+12 -6.07186e+12 -3.95331e+12 -2.73073e+12 -7.76908e+12 -6.30278e+12 -8.64049e+12 -1.13669e+13 -2.69652e+12 -5.04937e+12 -3.93499e+12 -4.23202e+12 -8.43695e+12 -1.23148e+13 -3.34809e+12 -1.07011e+12 -5.19645e+12 -4.56291e+12 -5.24047e+12 -4.24886e+12 -2.35595e+12 -565002000000.0 -3.13077e+12 -4.13681e+12 -4.67025e+12 -2.51807e+12 -4.25022e+12 -3.18709e+12 -6.64599e+12 -5.42899e+12 -5.39449e+12 -7.5893e+12 -6.12515e+12 -4.52812e+12 -4.71462e+12 -8.33329e+12 -5.5796e+12 -5.05698e+12 -3.06507e+12 -4.49356e+12 -6.10031e+12 -8.20427e+12 -5.51695e+12 -3.31845e+12 -5.87769e+12 -3.82941e+12 -7.67614e+12 -5.57719e+12 -987065000000.0 -6.48491e+12 -4.3079e+12 -7.34944e+12 -4.64864e+12 -8.42902e+12 -4.67473e+12 -7.56895e+12 -6.62064e+12 -5.27379e+12 -3.88163e+12 -5.42498e+12 -5.36372e+12 -5.07547e+12 -4.26547e+12 -5.46738e+12 -4.20726e+12 -3.99349e+12 -4.70884e+12 -8.09776e+12 -4.78694e+12 -4.67154e+12 -5.06626e+12 -8.69851e+12 -3.45947e+12 -7.87958e+12 -4.75278e+12 -2.79955e+12 -6.04192e+12 -2.97383e+12 -7.68157e+12 -5.98075e+12 -7.43276e+12 -9.88805e+12 -7.5306e+12 -5.39434e+12 -6.10385e+12 -5.34933e+12 -5.45676e+12 -6.56152e+12 -5.38562e+12 -6.18468e+12 -3.85563e+12 -5.08372e+12 -2.07643e+12 -6.67299e+12 -4.34994e+12 -5.12244e+12 -8.22612e+12 -4.72787e+12 -2.94649e+12 -6.79496e+12 -9.81999e+12 -6.83814e+12 -3.52589e+12 -2.98301e+12 -5.2865e+12 -2.71416e+12 -7.12849e+12 -6.36189e+12 -5.19012e+12 -8.01446e+12 -6.84912e+12 -7.24202e+12 -7.6037e+12 -8.61481e+12 -5.76431e+12 -5.65591e+12 -2.75546e+12 -5.07177e+12 -8.31754e+12 -6.49436e+12 -7.14777e+12 -4.97354e+12 -4.4768e+12 -6.16646e+12 -5.99896e+12 -5.91743e+12 -5.6803e+12 -4.41452e+12 -8.55884e+12 -9.26285e+12 -5.83661e+12 -9.13614e+12 -5.7617e+12 -3.9762e+12 -5.04866e+12 -5.70657e+12 -2.33799e+12 -6.92342e+12 -6.33891e+12 -6.03562e+12 -7.22443e+12 -5.06614e+12 -5.26003e+12 -3.71439e+12 -6.83357e+12 -6.42938e+12 -5.34451e+12 -5.34648e+12 -2.70773e+12 -12549700000.0 -88886500000.0 -159591000000.0 -24568400000.0 -53438000000.0 -46674600000.0 -127312000000.0 -71960000000.0 -18422700000.0 -53004400000.0 -124915000000.0 -76011300000.0 -86848900000.0 -85734300000.0 -68985300000.0 -134507000000.0 -13910600000.0 -185707000000.0 -423739000000.0 -158228000000.0 -143305000000.0 -460920000000.0 -6.3972e+12 -5.43611e+12 -3.67773e+12 -7.14474e+12 -5.97564e+12 -7.26866e+12 -2.62116e+12 -4.80015e+12 -3.98018e+12 -7.20853e+12 -7.93094e+12 -3.42391e+12 -4.64195e+12 -7.54804e+12 -6.73981e+12 -6.21809e+12 -4.23748e+12 -8.62762e+12 -7.99348e+12 -8.63922e+12 -9.66141e+12 -8.27927e+12 -4.79319e+12 -5.9901e+12 -6.02797e+12 -6.72183e+12 -3.35095e+12 -3.78885e+12 -9.74253e+12 -6.19998e+12 -7.83636e+12 -8.1038e+12 -8.88909e+12 -2.91115e+12 -6.50983e+12 -5.98059e+12 -7.17593e+12 -5.51047e+12 -6.50902e+12 -5.22188e+12 -8.90965e+12 -7.96005e+12 -7.89796e+12 -8.38817e+12 -9.87194e+12 -5.89566e+12 -3.62515e+12 -3.84761e+12 -5.02483e+12 -3.42359e+12 -8.18026e+12 -6.65788e+12 -7.8392e+12 -7.65748e+12 -6.88871e+12 -6.24411e+12 -6.64262e+12 -3.81855e+12 -5.47392e+12 -5.42776e+12 -8.56128e+12 -6.20202e+12 -9.77278e+12 -7.0788e+12 -3.13857e+12 -3.48652e+12 -4.44291e+12 -5.19426e+12 -5.27906e+12 -7.4471e+12 -5.28179e+12 -5.49114e+12 -6.61244e+12 -5.95904e+12 -9.79634e+12 -4.98247e+12 -4.58864e+12 -3.86791e+12 -4.45794e+12 -3.72288e+12 -4.97817e+12 -4.2915e+12 -7.80367e+12 -4.70231e+12 -2.38814e+12 -6.04997e+12 -5.4811e+12 -6.68019e+12 -5.32713e+12 -6.72729e+12 -1.05139e+13 -3.85994e+12 -5.25909e+12 -5.86741e+12 -4.14039e+12 -4.93876e+12 -6.60057e+12 -6.57072e+12 -8.15397e+12 -7.7008e+12 -7.34749e+12 -4.98427e+12 -5.24408e+12 -5.75081e+12 -5.34393e+12 -6.37661e+12 -3.1744e+12 -4.81842e+12 -5.6894e+12 -8.10091e+12 -5.80857e+12 -7.61857e+12 -4.67179e+12 -7.29546e+12 -2.89769e+12 -6.58841e+12 -2.93401e+12 -6.1981e+12 -8.25811e+12 -5.16747e+12 -5.25314e+12 -6.68914e+12 -4.38059e+12 -4.43866e+12 -4.55167e+12 -8.35962e+12 -3.97697e+12 -4.98137e+12 -6.10577e+12 -6.08782e+12 -5.61611e+12 -6.28713e+12 -3.38685e+12 -2.94785e+12 -2.41315e+12 -3.42894e+12 -4.012e+12 -325072000000.0 -186231000000.0 -85998300000.0 -91742700000.0 -219923000000.0 -155325000000.0 -60771300000.0 -83461300000.0 -31562500000.0 -118991000000.0 -44750700000.0 -125878000000.0 -51549400000.0 -39995200000.0 -87866500000.0 -173300000000.0 -17404700000.0 -262800000000.0 -387090000000.0 -146670000000.0 -3.24384e+12 -5.44309e+12 -4.38433e+12 -5.40407e+12 -3.29134e+12 -5.51943e+12 -8.7222e+12 -5.83752e+12 -4.10714e+12 -3.68579e+12 -6.21886e+12 -6.55154e+12 -1.05161e+13 -3.60296e+12 -4.34339e+12 -6.47562e+12 -7.58314e+12 -1.04719e+13 -4.86891e+12 -6.52007e+12 -5.34676e+12 -6.39006e+12 -9.46087e+12 -6.99538e+12 -6.76051e+12 -5.03441e+12 -5.60167e+12 -1.00831e+13 -6.69409e+12 -5.68061e+12 -4.60513e+12 -8.06733e+12 -6.98175e+12 -4.68753e+12 -3.93016e+12 -6.15321e+12 -5.89715e+12 -5.5567e+12 -6.82383e+12 -5.75962e+12 -5.69898e+12 -5.23423e+12 -8.17907e+12 -7.75041e+12 -5.80127e+12 -6.85531e+12 -5.81524e+12 -5.43021e+12 -4.46973e+12 -8.82853e+12 -3.7563e+12 -7.77105e+12 -5.45617e+12 -4.52263e+12 -9.15817e+12 -5.33618e+12 -4.79475e+12 -6.41618e+12 -4.80756e+12 -6.73631e+12 -5.67112e+12 -3.65732e+12 -3.06902e+12 -2.45926e+12 -4.84105e+12 -7.20478e+12 -5.11269e+12 -6.88459e+12 -5.69717e+12 -4.86379e+12 -3.82155e+12 -3.48083e+12 -6.10741e+12 -6.30211e+12 -4.69636e+12 -3.44333e+12 -3.65524e+12 -5.08787e+12 -2.33648e+12 -5.27857e+12 -5.15683e+12 -6.60178e+12 -5.97404e+12 -5.69701e+12 -5.12263e+12 -7.95025e+12 -8.04128e+12 -4.88434e+12 -5.12216e+12 -5.99057e+12 -7.41941e+12 -4.14093e+12 -4.69406e+12 -5.2369e+12 -5.98796e+12 -4.78557e+12 -5.82338e+12 -6.41641e+12 -6.44947e+12 -9.81356e+12 -3.46738e+12 -4.30665e+12 -2.81485e+12 -6.09985e+12 -3.96627e+12 -4.70582e+12 -5.32075e+12 -6.88453e+12 -5.97457e+12 -5.80133e+12 -3.67654e+12 -2.64281e+12 -4.19129e+12 -3.517e+12 -5.26487e+12 -5.89344e+12 -5.43546e+12 -8.3926e+12 -3.51373e+12 -4.1313e+12 -5.9945e+12 -2.43978e+12 -3.25472e+12 -3.87829e+12 -2.18153e+12 -90530700000.0 -67493300000.0 -60153700000.0 -154925000000.0 -169098000000.0 -187271000000.0 -203437000000.0 -142173000000.0 -79520100000.0 -159915000000.0 -225253000000.0 -343396000000.0 -265346000000.0 -143609000000.0 -254200000000.0 -55158000000.0 -215920000000.0 -123260000000.0 -26805100000.0 -4.95145e+12 -4.43828e+12 -7.02272e+12 -6.81261e+12 -7.87106e+12 -4.67713e+12 -3.82283e+12 -2.57041e+12 -2.1748e+12 -6.03321e+12 -6.20085e+12 -4.33605e+12 -4.2742e+12 -7.37739e+12 -5.80385e+12 -8.24275e+12 -5.38734e+12 -8.39005e+12 -6.07589e+12 -7.66237e+12 -9.12504e+12 -4.26027e+12 -5.7311e+12 -6.01346e+12 -7.53825e+12 -6.30357e+12 -5.87638e+12 -3.69377e+12 -8.16613e+12 -8.59914e+12 -7.00266e+12 -6.78771e+12 -4.22456e+12 -4.17373e+12 -6.72063e+12 -4.98465e+12 -6.52966e+12 -5.43056e+12 -5.26309e+12 -6.14136e+12 -4.88643e+12 -5.16627e+12 -4.25408e+12 -1.48148e+12 -2.34579e+12 -4.17856e+12 -4.1136e+12 -4.9399e+12 -5.49651e+12 -8.53661e+12 -5.63386e+12 -4.55404e+12 -5.56517e+12 -4.61106e+12 -2.45302e+12 -4.3799e+12 -5.80239e+12 -3.36482e+12 -4.7303e+12 -6.33391e+12 -8.54103e+12 -4.00596e+12 -6.04582e+12 -6.69363e+12 -7.15136e+12 -4.11542e+12 -4.50591e+12 -6.0227e+12 -5.5984e+12 -5.45322e+12 -4.67431e+12 -4.57075e+12 -5.36929e+12 -4.70626e+12 -5.86804e+12 -3.87026e+12 -8.33374e+12 -2.02289e+12 -5.95397e+12 -4.09598e+12 -1.50342e+12 -2.8401e+12 -5.28269e+12 -5.7038e+12 -4.52912e+12 -4.49009e+12 -4.68139e+12 -5.3298e+12 -5.2271e+12 -4.58097e+12 -5.82283e+12 -5.44773e+12 -3.70695e+12 -4.38594e+12 -5.11785e+12 -3.09397e+12 -4.37551e+12 -7.33669e+12 -7.00751e+12 -5.47034e+12 -5.59106e+12 -5.69951e+12 -4.82557e+12 -4.14471e+12 -5.21149e+12 -5.61436e+12 -2.64673e+12 -4.52666e+12 -2.8839e+12 -7.07258e+12 -7.69776e+12 -4.21341e+12 -4.20701e+12 -3.34108e+12 -7.39333e+12 -3.18443e+12 -4.34374e+12 -4.46566e+12 -6.17248e+12 -3.00842e+12 -4.33088e+12 -7.00249e+12 -5.56398e+12 -6.43714e+12 -5.2941e+12 -3.75465e+12 -4.45466e+12 -22270700000.0 -69756600000.0 -134137000000.0 -49649900000.0 -62845200000.0 -30266400000.0 -79037100000.0 -19502400000.0 -130725000000.0 -161532000000.0 -134185000000.0 -143099000000.0 -129078000000.0 -44092900000.0 -293444000000.0 -126616000000.0 -108178000000.0 -108225000000.0 -43569400000.0 -37155000000.0 -12711600000.0 -3.8863e+12 -3.71188e+12 -7.48633e+12 -3.47046e+12 -2.2865e+12 -3.32516e+12 -4.55647e+12 -8.47984e+12 -6.37401e+12 -6.03186e+12 -5.50903e+12 -2.69168e+12 -8.64985e+12 -4.43038e+12 -3.83061e+12 -5.04327e+12 -3.39651e+12 -3.34093e+12 -4.30425e+12 -6.7135e+12 -5.77512e+12 -3.93606e+12 -5.05884e+12 -3.24095e+12 -5.17456e+12 -5.27562e+12 -6.33127e+12 -7.88969e+12 -3.18291e+12 -2.53322e+12 -5.82817e+12 -3.75182e+12 -4.8475e+12 -6.73979e+12 -3.80252e+12 -5.65194e+12 -4.79338e+12 -5.08832e+12 -5.2524e+12 -5.50184e+12 -4.81249e+12 -4.55595e+12 -3.94783e+12 -6.14146e+12 -6.83893e+12 -5.00118e+12 -7.09374e+12 -3.58437e+12 -3.63569e+12 -2.90435e+12 -4.96558e+12 -4.49739e+12 -4.92951e+12 -3.5438e+12 -3.58613e+12 -4.06933e+12 -4.56072e+12 -5.58531e+12 -3.73692e+12 -2.47263e+12 -7.12108e+12 -3.95915e+12 -3.75844e+12 -2.83599e+12 -1.65568e+12 -5.50726e+12 -3.64341e+12 -3.14732e+12 -7.25889e+12 -6.07071e+12 -5.52335e+12 -8.6152e+12 -4.28039e+12 -3.15011e+12 -5.51883e+12 -3.99019e+12 -4.45327e+12 -4.45096e+12 -3.72365e+12 -4.05214e+12 -2.76687e+12 -2.36611e+12 -4.47746e+12 -6.09314e+12 -4.24952e+12 -3.27212e+12 -5.96826e+12 -5.64746e+12 -7.09607e+12 -5.32098e+12 -3.42007e+12 -7.04715e+12 -3.7648e+12 -3.77874e+12 -5.62325e+12 -3.7068e+12 -4.6871e+12 -4.44966e+12 -4.46765e+12 -2.99256e+12 -7.33421e+12 -5.02013e+12 -5.05036e+12 -3.98955e+12 -3.31371e+12 -5.32101e+12 -5.1298e+12 -2.52424e+12 -5.31671e+12 -6.38305e+12 -3.97149e+12 -2.39795e+12 -5.53685e+12 -5.08832e+12 -5.02469e+12 -5.80037e+12 -4.63121e+12 -3.24703e+12 -1.80772e+12 -16124600000.0 -86940200000.0 -155063000000.0 -61225100000.0 -102176000000.0 -32701600000.0 -61310700000.0 -93418500000.0 -94624800000.0 -51040700000.0 -65523000000.0 -118445000000.0 -57695500000.0 -64375800000.0 -30767400000.0 -143638000000.0 -215884000000.0 -94981500000.0 -95312200000.0 -91674400000.0 -108543000000.0 -45968600000.0 -17339400000.0 -3.1424e+12 -4.09567e+12 -2.62705e+12 -3.91837e+12 -4.26819e+12 -4.84216e+12 -5.58773e+12 -6.44279e+12 -7.1439e+12 -3.78324e+12 -5.08561e+12 -2.42691e+12 -2.85973e+12 -4.61934e+12 -3.38673e+12 -4.44964e+12 -6.05897e+12 -3.93501e+12 -7.54602e+12 -8.4823e+12 -3.11807e+12 -2.52253e+12 -5.29542e+12 -3.16377e+12 -2.8536e+12 -7.53779e+12 -7.18986e+12 -3.13008e+12 -4.31673e+12 -3.87322e+12 -4.5433e+12 -2.6612e+12 -6.10119e+12 -6.70876e+12 -5.31739e+12 -6.1723e+12 -2.77667e+12 -3.52467e+12 -5.46378e+12 -2.74268e+12 -5.0109e+12 -3.81353e+12 -4.53355e+12 -5.16507e+12 -5.30397e+12 -4.18339e+12 -3.66829e+12 -3.90221e+12 -4.43422e+12 -3.58331e+12 -3.96165e+12 -6.19935e+12 -2.7238e+12 -4.78563e+12 -5.18449e+12 -6.46682e+12 -3.35925e+12 -5.3279e+12 -1.69115e+12 -4.91415e+12 -3.71043e+12 -4.27569e+12 -2.10602e+12 -4.15618e+12 -8.34544e+12 -3.56912e+12 -5.84265e+12 -6.81711e+12 -3.14727e+12 -647283000000.0 -3.72336e+12 -3.29483e+12 -3.84673e+12 -8.26005e+12 -4.38709e+12 -4.64174e+12 -4.30095e+12 -3.27687e+12 -4.45631e+12 -3.45731e+12 -3.80868e+12 -2.17899e+12 -4.66279e+12 -5.91677e+12 -2.96397e+12 -2.28933e+12 -3.55776e+12 -5.31931e+12 -6.55913e+12 -4.74296e+12 -3.53449e+12 -2.59464e+12 -4.29737e+12 -5.91576e+12 -1.87985e+12 -6.12526e+12 -3.70573e+12 -2.12422e+12 -6.51178e+12 -5.86543e+12 -5.69092e+12 -4.403e+12 -2.6263e+12 -4.33322e+12 -4.42724e+12 -3.43438e+12 -4.96888e+12 -5.85767e+12 -4.03591e+12 -3.09108e+12 -3.93981e+12 -4.68308e+12 -4.80163e+12 -1.91303e+12 -1.58989e+12 -2.34967e+12 -120325000000.0 -139914000000.0 -106237000000.0 -37285300000.0 -49522300000.0 -59683100000.0 -66657000000.0 -79461300000.0 -67747600000.0 -45539100000.0 -99241300000.0 -91941100000.0 -22068600000.0 -113892000000.0 -109200000000.0 -155922000000.0 -56213000000.0 -90847300000.0 -31088200000.0 -115685000000.0 -26767400000.0 -102973000000.0 -27757300000.0 -4.58799e+12 -4.09227e+12 -2.85674e+12 -3.71966e+12 -3.5946e+12 -4.58675e+12 -3.01473e+12 -3.14105e+12 -3.46323e+12 -3.19428e+12 -5.37631e+12 -3.01333e+12 -2.85433e+12 -4.62835e+12 -4.9154e+12 -5.67878e+12 -2.67604e+12 -2.51704e+12 -2.78469e+12 -2.72244e+12 -4.31675e+12 -2.83087e+12 -2.56346e+12 -1.7986e+12 -2.53553e+12 -2.95988e+12 -4.92756e+12 -3.26626e+12 -2.48287e+12 -4.41406e+12 -2.64102e+12 -3.94465e+12 -3.13685e+12 -4.52825e+12 -4.97801e+12 -5.24932e+12 -5.55606e+12 -2.51396e+12 -1.98846e+12 -3.26185e+12 -3.40148e+12 -4.74097e+12 -5.13364e+12 -2.02073e+12 -3.37158e+12 -5.0727e+12 -4.75673e+12 -3.7552e+12 -3.71987e+12 -2.54978e+12 -3.82879e+12 -2.22322e+12 -4.29311e+12 -3.2564e+12 -5.03627e+12 -5.26122e+12 -4.06187e+12 -2.96426e+12 -7.03082e+12 -4.41379e+12 -2.02654e+12 -5.46991e+12 -5.23923e+12 -3.341e+12 -2.97265e+12 -5.83666e+12 -4.17937e+12 -4.98148e+12 -4.49687e+12 -5.00717e+12 -4.68103e+12 -4.42203e+12 -4.08884e+12 -3.93978e+12 -4.94948e+12 -4.65021e+12 -3.3249e+12 -4.45682e+12 -3.46945e+12 -3.33576e+12 -3.26189e+12 -5.26675e+12 -2.67095e+12 -4.14408e+12 -4.16538e+12 -7.12515e+12 -2.70105e+12 -3.02546e+12 -4.42552e+12 -5.77046e+12 -4.99346e+12 -4.71102e+12 -2.89124e+12 -4.64943e+12 -4.25622e+12 -5.05599e+12 -6.65652e+12 -1.16452e+12 -2.35953e+12 -3.97183e+12 -3.9372e+12 -4.50536e+12 -3.74162e+12 -3.48196e+12 -2.34192e+12 -3.60985e+12 -3.45641e+12 -5.26597e+12 -1.56668e+12 -58593600000.0 -102928000000.0 -16400800000.0 -46273400000.0 -55037200000.0 -57149000000.0 -46018700000.0 -68743700000.0 -61797400000.0 -119069000000.0 -66378100000.0 -21057700000.0 -15978700000.0 -143837000000.0 -13233000000.0 -75773400000.0 -23486500000.0 -22722300000.0 -104572000000.0 -126266000000.0 -3.86299e+12 -4.99836e+12 -3.67963e+12 -4.26475e+12 -2.55575e+12 -2.64091e+12 -4.89044e+12 -2.16809e+12 -3.37062e+12 -2.65322e+12 -3.44037e+12 -3.17937e+12 -3.98125e+12 -4.82743e+12 -3.61264e+12 -6.61019e+12 -2.232e+12 -3.10916e+12 -2.90852e+12 -4.28864e+12 -2.21957e+12 -4.58001e+12 -2.70291e+12 -2.89171e+12 -2.01876e+12 -4.53217e+12 -4.89596e+12 -1.44966e+12 -4.78529e+12 -3.43198e+12 -5.68927e+12 -3.99112e+12 -3.17361e+12 -3.38862e+12 -3.58061e+12 -2.09262e+12 -1.80123e+12 -2.57038e+12 -5.55563e+12 -2.45161e+12 -3.6024e+12 -3.25236e+12 -5.46333e+12 -2.71032e+12 -2.32642e+12 -4.3955e+12 -4.52064e+12 -5.86736e+12 -2.5213e+12 -4.78318e+12 -3.41991e+12 -3.4723e+12 -2.51002e+12 -2.89054e+12 -2.43913e+12 -2.09079e+12 -3.21051e+12 -3.61141e+12 -4.88756e+12 -2.04816e+12 -3.00822e+12 -2.39359e+12 -4.16304e+12 -4.51705e+12 -4.81633e+12 -3.58249e+12 -2.65099e+12 -3.51898e+12 -2.13287e+12 -2.39484e+12 -2.3377e+12 -3.31384e+12 -4.61776e+12 -3.4397e+12 -660286000000.0 -1.69746e+12 -2.8864e+12 -3.12426e+12 -2.52424e+12 -3.01748e+12 -2.80742e+12 -2.03241e+12 -3.12504e+12 -3.46904e+12 -2.37035e+12 -2.37832e+12 -5.39863e+12 -2.33277e+12 -3.80985e+12 -3.71537e+12 -3.11281e+12 -2.91316e+12 -3.23992e+12 -2.91124e+12 -3.4887e+12 -4.11359e+12 -3.39574e+12 -2.36794e+12 -2.13005e+12 -2.78843e+12 -4.10214e+12 -4.13562e+12 -3.85076e+12 -1.87534e+12 -2.5897e+12 -57265800000.0 -16071600000.0 -14757700000.0 -23806200000.0 -40506400000.0 -43353900000.0 -16125600000.0 -17818000000.0 -62744900000.0 -35818500000.0 -56484900000.0 -59170700000.0 -67545500000.0 -203371000000.0 -54215400000.0 -69334500000.0 -98955100000.0 -40535100000.0 -19599100000.0 -3.83245e+12 -4.06553e+12 -3.46802e+12 -4.24627e+12 -3.41591e+12 -2.55133e+12 -3.53376e+12 -2.65152e+12 -3.03855e+12 -5.4891e+12 -5.2756e+12 -2.58442e+12 -4.88491e+12 -2.37027e+12 -4.42223e+12 -3.51691e+12 -3.99092e+12 -3.19611e+12 -3.11874e+12 -2.02546e+12 -2.68175e+12 -2.05254e+12 -2.98523e+12 -4.17315e+12 -2.43652e+12 -5.31588e+12 -2.44497e+12 -3.20192e+12 -3.25714e+12 -1.51295e+12 -4.06751e+12 -2.74204e+12 -3.8585e+12 -2.53738e+12 -3.70706e+12 -1.61452e+12 -2.62169e+12 -2.15387e+12 -3.16996e+12 -4.01515e+12 -1.18071e+12 -2.95668e+12 -3.0582e+12 -2.18154e+12 -2.57054e+12 -3.2066e+12 -3.41703e+12 -3.47071e+12 -3.3528e+12 -5.34865e+12 -2.16767e+12 -2.90912e+12 -3.77422e+12 -1.74425e+12 -1.55563e+12 -1.90405e+12 -2.32982e+12 -4.09221e+12 -1.68817e+12 -2.3532e+12 -2.48805e+12 -2.13185e+12 -2.82285e+12 -3.76368e+12 -1.29165e+12 -2.18331e+12 -1.95812e+12 -3.13832e+12 -2.5189e+12 -3.07834e+12 -2.51314e+12 -2.29006e+12 -3.85713e+12 -2.70999e+12 -2.74305e+12 -2.6742e+12 -2.24001e+12 -2.49909e+12 -4.27791e+12 -2.37686e+12 -1.63422e+12 -2.37265e+12 -1.92359e+12 -1.46533e+12 -3.16601e+12 -3.51049e+12 -3.59175e+12 -2.43553e+12 -2.33654e+12 -3.20281e+12 -2.09167e+12 -3.02978e+12 -2.23415e+12 -2.49601e+12 -1.43537e+12 -2.21844e+12 -3.29986e+12 -1.78817e+12 -3.02224e+12 -3.56422e+12 -1.71503e+12 -3.15079e+12 -2.53692e+12 -2.43534e+12 -2.92476e+12 -2.9386e+12 -3.76937e+12 -1.82924e+12 -27145300000.0 -51104500000.0 -17035100000.0 -13322300000.0 -12695000000.0 -24070800000.0 -23870000000.0 -13978300000.0 -17065400000.0 -41509000000.0 -12549700000.0 -25901800000.0 -26617800000.0 -27018100000.0 -101007000000.0 -109429000000.0 -114274000000.0 -90622700000.0 -236084000000.0 -2.79168e+12 -2.25995e+12 -2.41563e+12 -1.35462e+12 -1.40213e+12 -2.74765e+12 -3.70694e+12 -758067000000.0 -3.20418e+12 -2.3138e+12 -3.04959e+12 -2.35108e+12 -3.66908e+12 -2.09614e+12 -4.55576e+12 -1.9411e+12 -4.3182e+12 -5.27402e+12 -3.17062e+12 -1.70068e+12 -1.93924e+12 -1.92858e+12 -3.58841e+12 -1.66491e+12 -1.81629e+12 -1.92608e+12 -3.62748e+12 -883382000000.0 -1.59051e+12 -2.58837e+12 -513972000000.0 -4.58304e+12 -3.60704e+12 -3.81948e+12 -3.81467e+12 -4.5104e+12 -1.89651e+12 -2.89576e+12 -3.10772e+12 -2.71764e+12 -2.40569e+12 -2.56211e+12 -2.6503e+12 -3.19474e+12 -1.48464e+12 -2.46812e+12 -3.09975e+12 -1.60702e+12 -2.52903e+12 -2.29118e+12 -3.67516e+12 -2.99574e+12 -3.18249e+12 -3.61975e+12 -2.69528e+12 -2.20916e+12 -2.24423e+12 -1.94781e+12 -1.71404e+12 -1.97528e+12 -110035000000.0 -1.89685e+12 -1.9726e+12 -1.58771e+12 -1.51891e+12 -2.12099e+12 -3.70104e+12 -1.80733e+12 -1.31303e+12 -1.23819e+12 -1.05938e+12 -581396000000.0 -2.47271e+12 -2.36637e+12 -2.76224e+12 -3.13883e+12 -2.53529e+12 -3.87043e+12 -2.39283e+12 -2.66147e+12 -3.98532e+12 -2.09916e+12 -3.23397e+12 -2.06727e+12 -2.50948e+12 -1.12861e+12 -4.08817e+12 -1.70822e+12 -2.23143e+12 -3.56296e+12 -3.79922e+12 -2.37083e+12 -1.25002e+12 -2.40356e+12 -2.24772e+12 -1.8946e+12 -1.83693e+12 -2.069e+12 -1.57485e+12 -1.44973e+12 -1.44399e+12 -1.88874e+12 -3.29261e+12 -1.37433e+12 -3.82928e+12 -309691000000.0 -3.42158e+12 -2.15878e+12 -1.01161e+12 -668402000000.0 -2.18584e+12 -12549700000.0 -29163700000.0 -13319200000.0 -12583300000.0 -12549700000.0 -20057500000.0 -19935100000.0 -13326900000.0 -12790300000.0 -34246300000.0 -15906200000.0 -25251900000.0 -23518300000.0 -14883600000.0 -49792700000.0 -48850600000.0 -87789100000.0 -99987700000.0 -74781100000.0 -1.33972e+12 -2.92083e+12 -2.21722e+12 -4.10997e+12 -2.23054e+12 -2.40649e+12 -2.50192e+12 -1.70569e+12 -1.73836e+12 -1.74209e+12 -962724000000.0 -2.41099e+12 -2.68756e+12 -1.23636e+12 -1.73047e+12 -2.45713e+12 -1.99652e+12 -2.78934e+12 -1.85905e+12 -1.63905e+12 -3.56686e+12 -2.51166e+12 -3.36814e+12 -2.28392e+12 -2.52576e+12 -3.1506e+12 -2.3525e+12 -2.15686e+12 -2.78297e+12 -1.37197e+12 -2.30981e+12 -1.90038e+12 -2.27359e+12 -3.50032e+12 -3.11379e+12 -3.26526e+12 -1.8034e+12 -3.07744e+12 -2.67961e+12 -1.81171e+12 -994265000000.0 -1.68011e+12 -1.89294e+12 -1.37221e+12 -2.00873e+12 -953330000000.0 -1.2481e+12 -1.55797e+12 -1.6653e+12 -1.03344e+12 -1.53277e+12 -763568000000.0 -1.8625e+12 -1.02367e+12 -3.12449e+12 -1.26245e+12 -1.14263e+12 -944438000000.0 -465111000000.0 -1.47554e+12 -2.11066e+12 -1.65763e+12 -1.6061e+12 -1.09704e+12 -729897000000.0 -2.60958e+12 -355144000000.0 -1.96705e+12 -2.42921e+12 -1.89253e+12 -2.28985e+12 -1.11365e+12 -1.71894e+12 -1.35944e+12 -1.75235e+12 -3.41145e+12 -1.42636e+12 -960205000000.0 -2.47677e+12 -1.6453e+12 -1.06365e+12 -1.03647e+12 -1.76627e+12 -1.32586e+12 -1.24232e+12 -2.48561e+12 -1.08491e+12 -1.53632e+12 -1.4252e+12 -1.55751e+12 -3.1258e+12 -1.0839e+12 -1.21034e+12 -12800300000.0 -19654300000.0 -14571700000.0 -14917000000.0 -12549700000.0 -12636700000.0 -14401300000.0 -20639300000.0 -15327000000.0 -16104200000.0 -30150400000.0 -20019400000.0 -16494300000.0 -22952700000.0 -34559600000.0 -18898000000.0 -13894200000.0 -45272100000.0 -30097500000.0 -96777900000.0 -20344700000.0 -28720800000.0 -857791000000.0 -1.48074e+12 -1.94189e+12 -2.05058e+12 -1.76567e+12 -2.31445e+12 -1.20159e+12 -1.34102e+12 -2.07918e+12 -1.48222e+12 -1.77569e+12 -2.48039e+12 -2.59705e+12 -1.12101e+12 -1.61879e+12 -1.86191e+12 -2.13903e+12 -907467000000.0 -1.36958e+12 -1.58478e+12 -2.05549e+12 -3.006e+12 -3.451e+12 -1.53962e+12 -2.23302e+12 -1.98872e+12 -1.65872e+12 -2.92434e+12 -964737000000.0 -1.08609e+12 -1.85508e+12 -1.92183e+12 -1.14119e+12 -1.54596e+12 -2.02819e+12 -1.48672e+12 -1.82504e+12 -951471000000.0 -3.11487e+12 -2.85424e+12 -2.66385e+12 -1.17464e+12 -1.61878e+12 -2.06209e+12 -1.19043e+12 -743289000000.0 -1.83334e+12 -367335000000.0 -1.75217e+12 -1.2461e+12 -1.98352e+12 -1.32076e+12 -1.05105e+12 -1.71388e+12 -1.17632e+12 -912487000000.0 -1.26314e+12 -2.24719e+12 -1.19245e+12 -2.20867e+12 -1.33496e+12 -1.14783e+12 -1.61606e+12 -421895000000.0 -2.41137e+12 -1.09011e+12 -1.41359e+12 -937913000000.0 -1.56312e+12 -1.47349e+12 -504086000000.0 -1.24666e+12 -831488000000.0 -908636000000.0 -1.55338e+12 -1.85815e+12 -1.19942e+12 -2.23366e+12 -681805000000.0 -901234000000.0 -1.14353e+12 -654540000000.0 -1.91088e+12 -2.17355e+12 -1.74077e+12 -1.24177e+12 -1.58564e+12 -1.7622e+12 -1.80554e+12 -328551000000.0 -1.39153e+12 -1.30766e+12 -683159000000.0 -12549700000.0 -13085400000.0 -13378300000.0 -12568900000.0 -12605200000.0 -13066300000.0 -15148500000.0 -12709700000.0 -12549700000.0 -16529600000.0 -12549700000.0 -12549700000.0 -12549700000.0 -19681100000.0 -16067300000.0 -16986900000.0 -24798900000.0 -20900700000.0 -12871600000.0 -19852800000.0 -1.08224e+12 -371461000000.0 -761886000000.0 -2.12875e+12 -901689000000.0 -1.85792e+12 -841918000000.0 -1.07856e+12 -1.90305e+12 -1.19555e+12 -2.28176e+12 -1.08161e+12 -1.52061e+12 -1.10006e+12 -2.0617e+12 -1.07246e+12 -1.74076e+12 -1.7833e+12 -332225000000.0 -1.49226e+12 -625199000000.0 -1.63096e+12 -899860000000.0 -806308000000.0 -1.22594e+12 -939503000000.0 -1.01636e+12 -1.06176e+12 -706298000000.0 -2.03526e+12 -1.75457e+12 -2.024e+12 -2.41831e+12 -1.66452e+12 -1.16884e+12 -2.20879e+12 -1.43271e+12 -987368000000.0 -873043000000.0 -1.52782e+12 -696421000000.0 -545054000000.0 -919127000000.0 -814882000000.0 -338922000000.0 -156079000000.0 -923929000000.0 -288047000000.0 -1.59318e+12 -418591000000.0 -473406000000.0 -999608000000.0 -1.01731e+12 -722520000000.0 -1.22903e+12 -1.27922e+12 -1.36916e+12 -1.00595e+12 -1.5421e+12 -651699000000.0 -738869000000.0 -453100000000.0 -1.22488e+12 -465178000000.0 -733547000000.0 -950238000000.0 -887464000000.0 -1.26153e+12 -460384000000.0 -655983000000.0 -545434000000.0 -375252000000.0 -827189000000.0 -390136000000.0 -827068000000.0 -133923000000.0 -140615000000.0 -619823000000.0 -864185000000.0 -660870000000.0 -830973000000.0 -578921000000.0 -322746000000.0 -678738000000.0 -569572000000.0 -902722000000.0 -363260000000.0 -13333200000.0 -363743000000.0 -1.03953e+12 -1.06509e+12 -1.4323e+12 -1.6915e+12 -447717000000.0 -1.53433e+12 -964071000000.0 -457386000000.0 -1.04677e+12 -795525000000.0 -597521000000.0 -1.26082e+12 -840343000000.0 -1.40866e+12 -1.18163e+12 -378164000000.0 -904316000000.0 -513914000000.0 -459499000000.0 -209452000000.0 -385109000000.0 -750061000000.0 -699085000000.0 -749792000000.0 -371361000000.0 -684649000000.0 -888793000000.0 -628560000000.0 -487833000000.0 -1.16981e+12 -589816000000.0 -484042000000.0 -923140000000.0 -1.27239e+12 -1.1879e+12 -525595000000.0 -953810000000.0 -1.35777e+12 -228001000000.0 -62208500000.0 -515035000000.0 -533977000000.0 -485497000000.0 -301545000000.0 -176568000000.0 -196200000000.0 -367775000000.0 -284461000000.0 -196545000000.0 -433490000000.0 -323270000000.0 -397309000000.0 -381462000000.0 -135327000000.0 -281193000000.0 -283216000000.0 -361041000000.0 -91358800000.0 -185318000000.0 -120580000000.0 -92149400000.0 -91432900000.0 -382897000000.0 -454207000000.0 -583177000000.0 -289279000000.0 -166248000000.0 -272519000000.0 -129043000000.0 -194015000000.0 -186836000000.0 -354667000000.0 -425905000000.0 -189302000000.0 -449609000000.0 -420246000000.0 -193195000000.0 -110465000000.0 -363331000000.0 -587232000000.0 -446747000000.0 -259504000000.0 -316246000000.0 -280691000000.0 -533852000000.0 -128621000000.0 -208867000000.0 -301624000000.0 -70078000000.0 -530623000000.0 -117268000000.0 -96504200000.0 -151740000000.0 -186423000000.0 -238832000000.0 -157067000000.0 -206697000000.0 -307183000000.0 -344823000000.0 -341533000000.0 -177653000000.0 -172711000000.0 -148611000000.0 -352565000000.0 -388974000000.0 -296488000000.0 -435102000000.0 -369253000000.0 -333863000000.0 -114706000000.0 -156118000000.0 -100281000000.0 