# vtk DataFile Version 2.0
Time step 23
ASCII
DATASET UNSTRUCTURED_GRID
POINTS 5000 float
16747.5 169957.0 0
27672.4 168344.0 0
171831.0 169879.0 0
177735.0 169917.0 0
182939.0 169101.0 0
278881.0 170042.0 0
297320.0 170008.0 0
372011.0 168440.0 0
394017.0 169894.0 0
403647.0 168830.0 0
408585.0 170038.0 0
422736.0 169842.0 0
432482.0 169358.0 0
477064.0 169231.0 0
485844.0 169156.0 0
497601.0 169190.0 0
2398.22 171428.0 0
8520.09 170807.0 0
6055.18 174131.0 0
12438.6 170638.0 0
11081.6 175154.0 0
22243.6 171597.0 0
28511.2 174697.0 0
33193.5 171029.0 0
38177.9 171612.0 0
42696.7 171757.0 0
47475.2 171670.0 0
52137.1 171763.0 0
57005.7 170604.0 0
62763.5 171678.0 0
67994.7 171812.0 0
72701.7 170948.0 0
77500.0 171691.0 0
82500.0 171680.0 0
87408.0 170980.0 0
92500.0 171718.0 0
97194.7 171740.0 0
101294.0 171657.0 0
105949.0 171052.0 0
111935.0 171529.0 0
117849.0 171711.0 0
123329.0 171788.0 0
128344.0 171908.0 0
133426.0 171157.0 0
138123.0 171841.0 0
142500.0 171762.0 0
147500.0 171695.0 0
152501.0 171665.0 0
157588.0 171295.0 0
162559.0 171452.0 0
167012.0 170996.0 0
183531.0 174170.0 0
187394.0 170954.0 0
192500.0 172113.0 0
196082.0 171279.0 0
201749.0 170638.0 0
207651.0 171400.0 0
212986.0 170742.0 0
218128.0 171822.0 0
222480.0 171834.0 0
225797.0 171075.0 0
230433.0 170942.0 0
235810.0 171935.0 0
241170.0 170640.0 0
246501.0 172643.0 0
252678.0 170623.0 0
259050.0 171102.0 0
263773.0 172186.0 0
268741.0 171102.0 0
273936.0 171397.0 0
282030.0 173374.0 0
286326.0 171682.0 0
291718.0 172140.0 0
303662.0 170801.0 0
307734.0 173369.0 0
312126.0 171216.0 0
317927.0 171848.0 0
323243.0 171743.0 0
327580.0 172008.0 0
332205.0 171608.0 0
337222.0 171317.0 0
341018.0 172528.0 0
345896.0 170867.0 0
350690.0 172783.0 0
355265.0 171781.0 0
361816.0 170411.0 0
367953.0 171755.0 0
377029.0 170413.0 0
382608.0 171282.0 0
378822.0 174962.0 0
388130.0 170576.0 0
399196.0 171570.0 0
402993.0 175028.0 0
412475.0 171685.0 0
408381.0 174318.0 0
417500.0 171724.0 0
422126.0 174478.0 0
427273.0 171548.0 0
433419.0 174593.0 0
437537.0 171702.0 0
442092.0 170645.0 0
443213.0 174929.0 0
446255.0 170223.0 0
447600.0 174232.0 0
450668.0 170995.0 0
455211.0 170943.0 0
460242.0 170794.0 0
465794.0 171169.0 0
471629.0 170427.0 0
481307.0 172091.0 0
491674.0 170697.0 0
496837.0 174699.0 0
2283.68 176462.0 0
6742.76 179177.0 0
17326.1 175860.0 0
22997.7 177120.0 0
34961.7 176303.0 0
40334.1 176622.0 0
44456.8 176965.0 0
48271.7 175667.0 0
52500.0 176723.0 0
57993.3 176046.0 0
62848.4 176777.0 0
67505.2 176449.0 0
72120.4 176068.0 0
77500.0 176849.0 0
82116.1 176495.0 0
87907.2 175738.0 0
92500.0 176858.0 0
97184.8 176495.0 0
102467.0 176392.0 0
108244.0 175644.0 0
112500.0 176794.0 0
117500.0 176876.0 0
122500.0 176799.0 0
127727.0 176343.0 0
132493.0 176692.0 0
137520.0 176707.0 0
142773.0 176185.0 0
146932.0 176533.0 0
151943.0 176411.0 0
156867.0 175346.0 0
156248.0 179906.0 0
161302.0 176168.0 0
166515.0 175668.0 0
172971.0 175448.0 0
170000.0 180237.0 0
178374.0 175329.0 0
182187.0 179309.0 0
188602.0 175400.0 0
193569.0 176259.0 0
198250.0 175625.0 0
203919.0 176259.0 0
213693.0 175292.0 0
209356.0 176475.0 0
213299.0 180103.0 0
217604.0 176892.0 0
222036.0 176666.0 0
226805.0 175309.0 0
232210.0 176363.0 0
237691.0 177185.0 0
243289.0 177020.0 0
248457.0 176718.0 0
252674.0 177187.0 0
257259.0 175739.0 0
262325.0 176363.0 0
267073.0 175949.0 0
271622.0 175262.0 0
277058.0 175665.0 0
279883.0 179713.0 0
282828.0 177061.0 0
287500.0 176772.0 0
292906.0 176633.0 0
298246.0 175519.0 0
303113.0 176471.0 0
307446.0 176662.0 0
312501.0 176967.0 0
317493.0 176724.0 0
322437.0 176212.0 0
322513.0 180217.0 0
327500.0 176753.0 0
332500.0 176825.0 0
337710.0 176164.0 0
341410.0 179760.0 0
343305.0 175555.0 0
347746.0 175964.0 0
352667.0 176675.0 0
356026.0 180070.0 0
361447.0 175724.0 0
357762.0 176200.0 0
365121.0 175433.0 0
366512.0 179516.0 0
372928.0 175241.0 0
382007.0 176099.0 0
384357.0 179436.0 0
388370.0 175665.0 0
393549.0 176038.0 0
398132.0 176471.0 0
412858.0 175628.0 0
409239.0 179962.0 0
417514.0 176238.0 0
428314.0 176493.0 0
424111.0 179299.0 0
432243.0 180217.0 0
437507.0 176768.0 0
442346.0 180164.0 0
448262.0 179303.0 0
451941.0 175474.0 0
457171.0 175673.0 0
462428.0 177146.0 0
466600.0 175739.0 0
470194.0 176917.0 0
472372.0 180240.0 0
475183.0 175719.0 0
480799.0 177366.0 0
486591.0 175350.0 0
492078.0 177600.0 0
2238.62 182362.0 0
8050.36 185018.0 0
11845.7 180997.0 0
16325.2 181069.0 0
17751.0 184914.0 0
20504.2 181087.0 0
27035.6 181530.0 0
32611.6 181367.0 0
38254.8 181134.0 0
42962.0 181514.0 0
47582.1 180388.0 0
49062.8 185178.0 0
51795.9 182148.0 0
56549.4 181665.0 0
62109.9 181649.0 0
67691.5 181293.0 0
73697.6 181611.0 0
78211.7 182046.0 0
81955.1 181221.0 0
86960.9 181253.0 0
92531.5 181609.0 0
97548.1 181014.0 0
102630.0 182154.0 0
107924.0 180423.0 0
116733.0 181481.0 0
112495.0 181697.0 0
120857.0 181329.0 0
125866.0 180712.0 0
123416.0 185316.0 0
131160.0 182409.0 0
136447.0 182359.0 0
140996.0 180308.0 0
146310.0 181424.0 0
151838.0 183025.0 0
156825.0 185311.0 0
161706.0 181858.0 0
166530.0 183678.0 0
176295.0 181088.0 0
182233.0 184787.0 0
188049.0 181562.0 0
194262.0 181285.0 0
199973.0 180730.0 0
208110.0 181379.0 0
204288.0 181727.0 0
217709.0 181826.0 0
222565.0 180941.0 0
222035.0 185200.0 0
226873.0 180314.0 0
232447.0 181827.0 0
237427.0 181610.0 0
237858.0 184937.0 0
241795.0 182263.0 0
246848.0 180791.0 0
251791.0 182080.0 0
257731.0 180492.0 0
255877.0 185212.0 0
262713.0 181142.0 0
260342.0 184884.0 0
267480.0 180405.0 0
266360.0 185092.0 0
273038.0 180508.0 0
278362.0 185215.0 0
283561.0 181995.0 0
287222.0 182066.0 0
288760.0 185221.0 0
291025.0 180945.0 0
296742.0 180566.0 0
302240.0 181708.0 0
307705.0 181092.0 0
313212.0 182216.0 0
318195.0 181216.0 0
326814.0 182103.0 0
336509.0 180828.0 0
331857.0 181831.0 0
339781.0 185153.0 0
346841.0 180350.0 0
351891.0 181512.0 0
361257.0 180426.0 0
357350.0 184027.0 0
366558.0 184209.0 0
371103.0 181383.0 0
377674.0 180896.0 0
382813.0 184951.0 0
392422.0 180861.0 0
388340.0 182626.0 0
397215.0 180820.0 0
402855.0 181269.0 0
408060.0 185317.0 0
414405.0 182522.0 0
419132.0 180930.0 0
427677.0 182332.0 0
437333.0 180968.0 0
437121.0 185163.0 0
446533.0 184308.0 0
450855.0 184827.0 0
454162.0 180881.0 0
458978.0 181920.0 0
463167.0 181687.0 0
467514.0 181813.0 0
472607.0 185199.0 0
477753.0 181201.0 0
482618.0 182063.0 0
487504.0 183155.0 0
491507.0 181661.0 0
496592.0 181271.0 0
2182.12 186776.0 0
13470.9 185618.0 0
11891.8 189353.0 0
17154.1 190092.0 0
22414.8 185462.0 0
26980.0 187459.0 0
30217.7 190194.0 0
32062.2 185653.0 0
37579.3 186338.0 0
39757.2 190400.0 0
43194.1 186577.0 0
48563.9 190400.0 0
53807.2 186844.0 0
59220.0 186343.0 0
63615.0 185979.0 0
68065.1 186969.0 0
72603.0 186486.0 0
77069.0 185972.0 0
82136.5 186242.0 0
87334.3 186427.0 0
92269.7 186937.0 0
97733.6 186366.0 0
102769.0 187616.0 0
107687.0 185921.0 0
113110.0 186027.0 0
118135.0 185959.0 0
127500.0 186873.0 0
137737.0 186275.0 0
132689.0 187238.0 0
142523.0 186427.0 0
147010.0 190311.0 0
148001.0 186034.0 0
153412.0 187682.0 0
160406.0 186671.0 0
164429.0 187381.0 0
167052.0 190251.0 0
170843.0 186266.0 0
177033.0 187656.0 0
186625.0 187196.0 0
191646.0 186689.0 0
197222.0 186013.0 0
203053.0 185870.0 0
208746.0 187726.0 0
214360.0 185773.0 0
218721.0 187065.0 0
216324.0 190388.0 0
227519.0 185862.0 0
234318.0 186214.0 0
237943.0 189673.0 0
241764.0 186866.0 0
246227.0 185977.0 0
251522.0 187338.0 0
257732.0 190393.0 0
262642.0 188458.0 0
271763.0 186779.0 0
284358.0 186735.0 0
292984.0 186938.0 0
298942.0 186868.0 0
303985.0 187093.0 0
307500.0 186917.0 0
316243.0 185935.0 0
312166.0 186735.0 0
321065.0 185468.0 0
316979.0 190366.0 0
325845.0 187034.0 0
329890.0 185654.0 0
334358.0 187638.0 0
346086.0 186605.0 0
352842.0 187088.0 0
361675.0 186417.0 0
367109.0 189115.0 0
371934.0 187012.0 0
377880.0 188345.0 0
387368.0 186810.0 0
393044.0 187522.0 0
399510.0 186441.0 0
403059.0 190439.0 0
404316.0 186460.0 0
412354.0 186993.0 0
408165.0 190167.0 0
416953.0 186317.0 0
421362.0 187586.0 0
425645.0 185957.0 0
427475.0 190420.0 0
431052.0 186407.0 0
436105.0 190142.0 0
441821.0 185751.0 0
448312.0 189827.0 0
455423.0 186646.0 0
461218.0 186353.0 0
466993.0 186141.0 0
473874.0 190418.0 0
478856.0 186700.0 0
484714.0 187201.0 0
489146.0 187928.0 0
492123.0 185520.0 0
496754.0 187913.0 0
1482.48 191472.0 0
2748.54 195510.0 0
7143.74 191323.0 0
12661.8 193857.0 0
23044.1 190845.0 0
28643.7 194240.0 0
34868.9 190985.0 0
39120.6 195239.0 0
43669.5 192247.0 0
53124.7 192834.0 0
57208.3 190734.0 0
63072.4 190755.0 0
68320.7 192144.0 0
73392.6 190546.0 0
72218.4 194429.0 0
78293.3 191123.0 0
83584.7 191183.0 0
88388.9 191247.0 0
92500.1 191781.0 0
97238.3 191781.0 0
101197.0 191839.0 0
105587.0 191438.0 0
111305.0 190612.0 0
111042.0 195461.0 0
116639.0 191217.0 0
122097.0 190507.0 0
126928.0 190934.0 0
131217.0 191619.0 0
136576.0 190825.0 0
142211.0 192120.0 0
151797.0 192249.0 0
157937.0 191236.0 0
163664.0 191866.0 0
171005.0 192273.0 0
176729.0 193946.0 0
182932.0 191704.0 0
193692.0 190774.0 0
189203.0 191607.0 0
198249.0 191902.0 0
203174.0 190971.0 0
202625.0 195543.0 0
207324.0 193105.0 0
212117.0 191974.0 0
221180.0 190713.0 0
226330.0 192496.0 0
231986.0 190721.0 0
236028.0 194661.0 0
242846.0 191513.0 0
248034.0 191059.0 0
252902.0 191366.0 0
250917.0 195520.0 0
262840.0 194037.0 0
267598.0 191036.0 0
272702.0 192663.0 0
278481.0 191869.0 0
283574.0 191321.0 0
282086.0 195252.0 0
288836.0 190542.0 0
293488.0 191535.0 0
297507.0 192913.0 0
302639.0 191398.0 0
301875.0 195323.0 0
307125.0 191758.0 0
311951.0 191475.0 0
316872.0 195491.0 0
322308.0 191057.0 0
330953.0 191170.0 0
327163.0 191902.0 0
333892.0 195407.0 0
341506.0 190641.0 0
337111.0 191544.0 0
346687.0 192558.0 0
351606.0 192745.0 0
355575.0 194877.0 0
357890.0 190599.0 0
362979.0 191389.0 0
370183.0 192550.0 0
374558.0 192579.0 0
383267.0 190973.0 0
383433.0 195110.0 0
387252.0 195467.0 0
388198.0 190992.0 0
392172.0 193769.0 0
397898.0 192374.0 0
411966.0 194756.0 0
414673.0 190634.0 0
417923.0 191871.0 0
422486.0 192449.0 0
427276.0 194673.0 0
431239.0 191836.0 0
437075.0 195470.0 0
441976.0 191412.0 0
454015.0 191799.0 0
459432.0 191954.0 0
464968.0 191235.0 0
469632.0 192085.0 0
477656.0 193481.0 0
481988.0 191657.0 0
486774.0 191541.0 0
492177.0 192096.0 0
497458.0 193648.0 0
7839.1 197832.0 0
13604.0 199703.0 0
18084.9 195860.0 0
23740.8 196601.0 0
28774.4 199583.0 0
33621.2 196540.0 0
38532.1 200425.0 0
43727.0 196456.0 0
48674.9 196369.0 0
54166.2 197534.0 0
59709.7 195748.0 0
64861.5 196846.0 0
68282.3 196349.0 0
76323.6 196023.0 0
71707.3 199764.0 0
81945.2 196606.0 0
87889.7 196317.0 0
92639.3 196718.0 0
96907.8 196354.0 0
101492.0 196480.0 0
106437.0 196774.0 0
115384.0 195933.0 0
120868.0 196528.0 0
127439.0 196198.0 0
133299.0 196073.0 0
138723.0 196560.0 0
143740.0 196727.0 0
148385.0 196334.0 0
152800.0 196831.0 0
157001.0 196934.0 0
161438.0 195709.0 0
162040.0 200371.0 0
166774.0 195605.0 0
172239.0 198056.0 0
177075.0 198272.0 0
181360.0 198318.0 0
186878.0 196603.0 0
192407.0 196116.0 0
197841.0 197610.0 0
206622.0 197714.0 0
210632.0 196506.0 0
216381.0 196282.0 0
222683.0 196369.0 0
228326.0 198041.0 0
233994.0 199194.0 0
240949.0 197093.0 0
246433.0 197641.0 0
252364.0 199815.0 0
256775.0 196601.0 0
268277.0 196408.0 0
272897.0 197558.0 0
277854.0 197879.0 0
282797.0 200634.0 0
287110.0 196627.0 0
293046.0 195952.0 0
297886.0 198260.0 0
306180.0 197237.0 0
311439.0 197197.0 0
322345.0 196976.0 0
325891.0 200560.0 0
328010.0 196515.0 0
337552.0 198806.0 0
342229.0 196616.0 0
348003.0 197324.0 0
352314.0 197023.0 0
356028.0 199472.0 0
360532.0 196140.0 0
366529.0 196239.0 0
372538.0 197513.0 0
378560.0 195931.0 0
383512.0 199557.0 0
390758.0 198410.0 0
396051.0 198198.0 0
400407.0 196665.0 0
405319.0 195677.0 0
409490.0 200353.0 0
417768.0 196635.0 0
414462.0 200628.0 0
422959.0 197316.0 0
432227.0 196415.0 0
437895.0 200447.0 0
441847.0 197018.0 0
447108.0 195994.0 0
452639.0 196991.0 0
458107.0 197319.0 0
462539.0 196905.0 0
466549.0 195914.0 0
471809.0 196647.0 0
476951.0 198204.0 0
482255.0 197013.0 0
487737.0 196389.0 0
492473.0 197935.0 0
497460.0 198731.0 0
3054.2 201308.0 0
8749.26 203722.0 0
18372.1 203441.0 0
23873.3 202301.0 0
33713.6 202243.0 0
43260.1 200714.0 0
49662.5 201260.0 0
46371.5 205068.0 0
53681.5 202280.0 0
58563.1 201617.0 0
63413.2 200795.0 0
67004.6 201250.0 0
68677.6 204537.0 0
77978.9 201341.0 0
83401.5 202685.0 0
88021.5 201349.0 0
93068.3 201337.0 0
97997.2 200824.0 0
98590.3 205001.0 0
105787.0 201210.0 0
102079.0 202466.0 0
105631.0 205719.0 0
110770.0 200810.0 0
116646.0 200711.0 0
126504.0 201444.0 0
122660.0 202011.0 0
131203.0 200773.0 0
128391.0 204861.0 0
135229.0 202596.0 0
139756.0 202109.0 0
145112.0 201318.0 0
150857.0 201379.0 0
156889.0 202292.0 0
167183.0 200701.0 0
167150.0 205672.0 0
171464.0 203379.0 0
176187.0 201998.0 0
180977.0 203920.0 0
185798.0 201889.0 0
191580.0 201996.0 0
197329.0 203140.0 0
202639.0 200986.0 0
207605.0 201734.0 0
212132.0 200888.0 0
217210.0 202669.0 0
223345.0 202338.0 0
228975.0 204034.0 0
233407.0 203660.0 0
238456.0 202849.0 0
243833.0 202146.0 0
248972.0 201761.0 0
251476.0 205709.0 0
255546.0 202701.0 0
262543.0 201209.0 0
268734.0 201376.0 0
273492.0 202104.0 0
278389.0 203268.0 0
287971.0 202630.0 0
293216.0 201286.0 0
293298.0 205692.0 0
297716.0 203530.0 0
302613.0 201170.0 0
308392.0 202147.0 0
313173.0 201747.0 0
317436.0 201234.0 0
322185.0 202549.0 0
329996.0 201666.0 0
335060.0 202215.0 0
340327.0 202621.0 0
345942.0 203368.0 0
351104.0 201496.0 0
356400.0 205023.0 0
360830.0 202015.0 0
366451.0 201983.0 0
371154.0 202449.0 0
377236.0 203171.0 0
387814.0 202740.0 0
392753.0 202749.0 0
398358.0 203716.0 0
403882.0 201711.0 0
417759.0 200770.0 0
417003.0 204498.0 0
420946.0 201125.0 0
427633.0 201174.0 0
433309.0 200776.0 0
432995.0 205420.0 0
442660.0 201909.0 0
448517.0 201877.0 0
453996.0 201856.0 0
458537.0 202288.0 0
462988.0 202058.0 0
467792.0 200892.0 0
472983.0 202389.0 0
479966.0 202117.0 0
484294.0 201960.0 0
488533.0 201516.0 0
486601.0 205681.0 0
492622.0 202090.0 0
497771.0 203491.0 0
2142.5 207193.0 0
7229.67 209794.0 0
13670.2 207340.0 0
18597.5 208382.0 0
22335.7 206783.0 0
27482.6 207207.0 0
32321.3 206493.0 0
32588.2 209966.0 0
37260.4 207046.0 0
42430.8 208352.0 0
51402.0 207462.0 0
57392.4 207746.0 0
63635.7 205964.0 0
73547.6 207602.0 0
79811.0 206823.0 0
85115.1 207603.0 0
90121.5 205834.0 0
95029.1 207697.0 0
101287.0 208352.0 0
111331.0 207148.0 0
118212.0 206280.0 0
123819.0 206538.0 0
133272.0 206936.0 0
137502.0 209994.0 0
137793.0 206046.0 0
141901.0 206906.0 0
147420.0 206629.0 0
152991.0 206590.0 0
157249.0 208195.0 0
161793.0 205940.0 0
170766.0 207409.0 0
173361.0 210655.0 0
176888.0 206991.0 0
182328.0 208739.0 0
186894.0 206914.0 0
191543.0 207300.0 0
196356.0 208588.0 0
201641.0 206462.0 0
207170.0 206704.0 0
213005.0 206418.0 0
219806.0 207757.0 0
224915.0 207657.0 0
228657.0 208128.0 0
232761.0 207435.0 0
236993.0 208092.0 0
242088.0 206386.0 0
246546.0 206128.0 0
257765.0 207971.0 0
262739.0 207282.0 0
268250.0 206993.0 0
274067.0 207063.0 0
279360.0 208791.0 0
284562.0 206693.0 0
289695.0 207569.0 0
296561.0 208459.0 0
302322.0 206888.0 0
307427.0 207419.0 0
312021.0 205914.0 0
316759.0 205828.0 0
321325.0 207681.0 0
317576.0 210842.0 0
326420.0 206131.0 0
328010.0 210792.0 0
331727.0 206630.0 0
337286.0 207903.0 0
342892.0 207956.0 0
346850.0 207934.0 0
351176.0 206671.0 0
349541.0 210867.0 0
361694.0 208119.0 0
366988.0 206853.0 0
371670.0 206931.0 0
382213.0 207093.0 0
378350.0 209776.0 0
386903.0 207462.0 0
391458.0 207257.0 0
395533.0 208016.0 0
400538.0 208820.0 0
405871.0 207485.0 0
411613.0 205870.0 0
417180.0 209625.0 0
422642.0 206113.0 0
428260.0 207258.0 0
438718.0 206094.0 0
444692.0 206796.0 0
450503.0 208550.0 0
455660.0 206253.0 0
461361.0 207161.0 0
468712.0 206118.0 0
465824.0 208796.0 0
473163.0 207950.0 0
477808.0 206636.0 0
482451.0 206789.0 0
486613.0 209885.0 0
490657.0 206115.0 0
495010.0 207474.0 0
2239.97 211765.0 0
6953.74 215665.0 0
12435.1 213401.0 0
18042.5 212835.0 0
23269.5 211635.0 0
29063.5 213182.0 0
35962.1 212843.0 0
41002.2 212577.0 0
46992.3 211545.0 0
52812.1 212189.0 0
57597.5 213906.0 0
62188.8 211357.0 0
67956.0 211421.0 0
73644.5 214308.0 0
78090.7 211421.0 0
82806.2 212325.0 0
88770.1 212137.0 0
93966.3 212545.0 0
97841.6 211059.0 0
101250.0 212637.0 0
97468.2 215450.0 0
105726.0 211210.0 0
110244.0 212580.0 0
107193.0 215962.0 0
115522.0 212156.0 0
121625.0 211368.0 0
128118.0 210900.0 0
133716.0 211770.0 0
142032.0 212173.0 0
148123.0 213208.0 0
153549.0 211409.0 0
157988.0 212373.0 0
163108.0 211778.0 0
166877.0 215816.0 0
168444.0 210942.0 0
177764.0 211433.0 0
181599.0 213311.0 0
186465.0 212181.0 0
191580.0 211811.0 0
195896.0 214339.0 0
201128.0 212053.0 0
207150.0 212773.0 0
212103.0 211348.0 0
216820.0 212545.0 0
221594.0 213377.0 0
226066.0 212187.0 0
231018.0 211481.0 0
235875.0 212729.0 0
241283.0 211297.0 0
246728.0 211064.0 0
246730.0 215901.0 0
252426.0 211221.0 0
257588.0 213208.0 0
263733.0 212782.0 0
269626.0 212652.0 0
274603.0 212041.0 0
279900.0 214136.0 0
283997.0 211150.0 0
284262.0 215563.0 0
288585.0 212585.0 0
292645.0 210998.0 0
293580.0 215541.0 0
298716.0 213191.0 0
303636.0 211852.0 0
307785.0 211759.0 0
306692.0 215635.0 0
312302.0 211143.0 0
316841.0 215678.0 0
323365.0 212664.0 0
328702.0 215503.0 0
332715.0 211740.0 0
337408.0 213216.0 0
341937.0 211884.0 0
345501.0 211649.0 0
344162.0 215863.0 0
355351.0 211230.0 0
360685.0 213306.0 0
366508.0 211574.0 0
373438.0 212080.0 0
378300.0 214272.0 0
383175.0 212735.0 0
388086.0 211864.0 0
392594.0 211626.0 0
397126.0 211870.0 0
408066.0 212242.0 0
403363.0 212967.0 0
412522.0 211115.0 0
421034.0 211669.0 0
418446.0 215043.0 0
425382.0 211296.0 0
431956.0 211069.0 0
428729.0 215095.0 0
437684.0 212333.0 0
443669.0 212377.0 0
450713.0 214981.0 0
454492.0 211503.0 0
458782.0 212451.0 0
463930.0 212271.0 0
469289.0 211583.0 0
474366.0 212496.0 0
479084.0 211524.0 0
483698.0 213188.0 0
491411.0 211955.0 0
497411.0 212093.0 0
2124.78 216132.0 0
8535.44 220168.0 0
12563.3 218809.0 0
16005.0 216834.0 0
20033.5 217115.0 0
16407.1 220999.0 0
24880.9 216885.0 0
32206.9 217544.0 0
37668.3 218449.0 0
43309.5 217009.0 0
48678.8 217538.0 0
53570.1 216712.0 0
57445.5 218816.0 0
62542.1 216594.0 0
62499.3 221016.0 0
67218.8 216679.0 0
71128.8 219077.0 0
79083.2 216946.0 0
84526.1 216930.0 0
82339.0 220538.0 0
86380.7 220869.0 0
88590.9 217172.0 0
92508.1 216633.0 0
96594.2 220570.0 0
102449.0 217061.0 0
111837.0 216742.0 0
117996.0 217663.0 0
123251.0 216598.0 0
127769.0 216288.0 0
128384.0 220790.0 0
132822.0 216840.0 0
138526.0 216101.0 0
143146.0 216999.0 0
143902.0 221039.0 0
151877.0 216995.0 0
147993.0 219183.0 0
156564.0 217204.0 0
161568.0 216712.0 0
162828.0 220846.0 0
173248.0 216875.0 0
178606.0 217022.0 0
183545.0 217957.0 0
189463.0 217028.0 0
193913.0 218161.0 0
199741.0 217060.0 0
203874.0 217642.0 0
208368.0 217910.0 0
212778.0 215991.0 0
212057.0 220935.0 0
219052.0 217299.0 0
223358.0 216859.0 0
227641.0 216888.0 0
232480.0 216214.0 0
232454.0 220920.0 0
237769.0 217169.0 0
242326.0 217634.0 0
246121.0 220914.0 0
251906.0 217474.0 0
257453.0 217505.0 0
262296.0 219004.0 0
267700.0 216838.0 0
271770.0 216423.0 0
272503.0 220315.0 0
276110.0 216873.0 0
283156.0 220950.0 0
288556.0 217823.0 0
298805.0 217951.0 0
302626.0 216760.0 0
306857.0 220363.0 0
311690.0 216832.0 0
316042.0 220572.0 0
321342.0 217570.0 0
324888.0 216554.0 0
334161.0 217363.0 0
339616.0 217106.0 0
343324.0 220805.0 0
350118.0 216522.0 0
356732.0 218071.0 0
363270.0 217970.0 0
369410.0 216366.0 0
374932.0 217400.0 0
379751.0 218240.0 0
384040.0 218321.0 0
387338.0 220975.0 0
388096.0 216361.0 0
393169.0 216697.0 0
397942.0 216046.0 0
396384.0 220645.0 0
402003.0 217294.0 0
406606.0 216867.0 0
412753.0 217009.0 0
417749.0 220957.0 0
423555.0 216437.0 0
433885.0 217567.0 0
440196.0 218492.0 0
445498.0 217095.0 0
448663.0 219628.0 0
456140.0 216600.0 0
458559.0 220455.0 0
463204.0 216314.0 0
460058.0 217035.0 0
463258.0 220505.0 0
467453.0 216850.0 0
472541.0 216797.0 0
477866.0 216852.0 0
482745.0 217436.0 0
487590.0 216432.0 0
485412.0 220913.0 0
492462.0 217148.0 0
490351.0 221040.0 0
497811.0 216854.0 0
3067.21 221240.0 0
7505.93 224592.0 0
12200.4 223358.0 0
21296.4 222018.0 0
27449.3 222244.0 0
32653.3 221389.0 0
32890.6 225498.0 0
37761.1 223816.0 0
42273.1 222155.0 0
47944.1 223046.0 0
53255.7 221673.0 0
51659.0 226160.0 0
58924.8 222703.0 0
66930.1 221116.0 0
71369.8 223256.0 0
76182.9 222127.0 0
80898.2 224803.0 0
91243.4 221706.0 0
101327.0 221723.0 0
98373.4 225937.0 0
106451.0 221130.0 0
103682.0 225887.0 0
112398.0 222253.0 0
118081.0 223088.0 0
123225.0 221849.0 0
128435.0 225965.0 0
133237.0 222324.0 0
138697.0 221832.0 0
146824.0 223422.0 0
143079.0 225163.0 0
152633.0 221437.0 0
150635.0 225377.0 0
157999.0 221690.0 0
155608.0 225458.0 0
161150.0 225729.0 0
168107.0 221267.0 0
172594.0 222558.0 0
177253.0 222304.0 0
182433.0 222911.0 0
187094.0 221914.0 0
192271.0 222185.0 0
197938.0 221781.0 0
202912.0 221625.0 0
203779.0 225837.0 0
207319.0 222610.0 0
217208.0 222370.0 0
222466.0 221085.0 0
227447.0 222428.0 0
231441.0 225071.0 0
237086.0 221478.0 0
235417.0 225547.0 0
241387.0 222099.0 0
254540.0 221956.0 0
250362.0 222488.0 0
258836.0 222598.0 0
262641.0 225526.0 0
267453.0 222171.0 0
272458.0 224966.0 0
277217.0 222159.0 0
288172.0 222375.0 0
292721.0 221139.0 0
297332.0 221887.0 0
298028.0 225747.0 0
302053.0 221864.0 0
306747.0 225238.0 0
311360.0 222320.0 0
320407.0 221984.0 0
326143.0 221340.0 0
332577.0 223413.0 0
338275.0 222400.0 0
345197.0 225210.0 0
348124.0 221986.0 0
353192.0 222535.0 0
358609.0 223590.0 0
363213.0 223459.0 0
372381.0 221536.0 0
367632.0 221945.0 0
377384.0 222889.0 0
382039.0 221400.0 0
382866.0 226063.0 0
391800.0 221394.0 0
389028.0 225938.0 0
397246.0 225797.0 0
401404.0 222190.0 0
406553.0 221730.0 0
411920.0 223368.0 0
422242.0 223890.0 0
428002.0 221300.0 0
435869.0 222831.0 0
440095.0 223434.0 0
444896.0 222235.0 0
448961.0 222751.0 0
453280.0 221376.0 0
457771.0 225309.0 0
463147.0 225677.0 0
468257.0 221907.0 0
473569.0 221978.0 0
478471.0 221762.0 0
481971.0 222220.0 0
487721.0 225832.0 0
493268.0 225838.0 0
495344.0 221115.0 0
497796.0 225406.0 0
2829.83 227138.0 0
9638.89 228455.0 0
12501.8 226998.0 0
17140.4 226539.0 0
23561.3 227454.0 0
28488.7 227333.0 0
32698.7 230177.0 0
37933.5 229478.0 0
44150.4 227505.0 0
48942.5 229194.0 0
56214.3 226246.0 0
58196.0 231024.0 0
61485.7 226684.0 0
67351.5 226617.0 0
71375.6 231189.0 0
73102.8 227632.0 0
78012.3 228634.0 0
86728.0 226490.0 0
92881.2 227697.0 0
101920.0 230237.0 0
108528.0 226523.0 0
113665.0 227634.0 0
118718.0 228387.0 0
123568.0 226882.0 0
128619.0 231127.0 0
133089.0 226844.0 0
137602.0 227210.0 0
141651.0 229734.0 0
146707.0 227470.0 0
150734.0 231087.0 0
156821.0 230683.0 0
167133.0 227344.0 0
172930.0 226846.0 0
178057.0 227814.0 0
183635.0 227683.0 0
189256.0 226655.0 0
194198.0 226706.0 0
199081.0 227427.0 0
202928.0 230857.0 0
208280.0 227652.0 0
213125.0 226194.0 0
217847.0 227674.0 0
222500.0 226833.0 0
227501.0 227006.0 0
231628.0 229260.0 0
237612.0 231262.0 0
241023.0 226489.0 0
246239.0 226767.0 0
252680.0 227237.0 0
257745.0 226358.0 0
257368.0 229697.0 0
268612.0 226892.0 0
265510.0 230698.0 0
272399.0 231270.0 0
276624.0 227208.0 0
282637.0 226738.0 0
285573.0 230883.0 0
287911.0 226785.0 0
290256.0 230710.0 0
293348.0 226613.0 0
297334.0 230962.0 0
302159.0 227816.0 0
306853.0 230705.0 0
311394.0 227541.0 0
317167.0 226274.0 0
322883.0 226535.0 0
326704.0 226285.0 0
331450.0 227823.0 0
328126.0 229792.0 0
335620.0 228317.0 0
340779.0 227105.0 0
345721.0 230491.0 0
349873.0 226593.0 0
355436.0 228780.0 0
361529.0 228166.0 0
367132.0 227321.0 0
372548.0 226451.0 0
377570.0 228624.0 0
393419.0 228099.0 0
402352.0 227823.0 0
407519.0 226437.0 0
411977.0 228674.0 0
416997.0 226654.0 0
421582.0 228483.0 0
426097.0 227407.0 0
432044.0 226666.0 0
437826.0 227778.0 0
443177.0 227260.0 0
447809.0 226417.0 0
452676.0 227255.0 0
458326.0 231116.0 0
463611.0 230497.0 0
468215.0 227028.0 0
473100.0 227110.0 0
478114.0 226600.0 0
482754.0 226908.0 0
482816.0 231106.0 0
492503.0 230787.0 0
497557.0 230053.0 0
2512.25 232483.0 0
7260.09 231903.0 0
12102.2 232229.0 0
17574.5 232813.0 0
23392.4 233510.0 0
28787.7 231839.0 0
34055.7 235551.0 0
39393.5 234446.0 0
43265.0 232935.0 0
47699.7 233012.0 0
52872.0 231864.0 0
59495.6 236118.0 0
64153.8 232290.0 0
69244.7 233224.0 0
75122.2 233016.0 0
81047.6 232790.0 0
87051.4 233148.0 0
96747.8 231757.0 0
92017.3 232278.0 0
102134.0 236126.0 0
107424.0 232615.0 0
113364.0 232630.0 0
118425.0 233647.0 0
123402.0 231948.0 0
132454.0 236348.0 0
133600.0 231375.0 0
137999.0 233003.0 0
145482.0 232333.0 0
147729.0 236085.0 0
157519.0 235764.0 0
162663.0 231800.0 0
167210.0 235804.0 0
170989.0 231709.0 0
175341.0 233432.0 0
183150.0 231635.0 0
179608.0 232503.0 0
183459.0 235555.0 0
187229.0 231730.0 0
192606.0 231309.0 0
190415.0 236323.0 0
197955.0 233066.0 0
203342.0 236213.0 0
206825.0 233182.0 0
210979.0 231747.0 0
212560.0 236268.0 0
215645.0 231998.0 0
221214.0 232081.0 0
227159.0 232359.0 0
243870.0 231979.0 0
242282.0 236175.0 0
248922.0 231734.0 0
246610.0 236056.0 0
254166.0 233361.0 0
260306.0 231736.0 0
262644.0 235886.0 0
268081.0 235954.0 0
279494.0 231965.0 0
284035.0 235129.0 0
289097.0 235807.0 0
293615.0 234093.0 0
302286.0 232942.0 0
307504.0 236277.0 0
312360.0 233596.0 0
318333.0 232097.0 0
323490.0 231479.0 0
327588.0 235658.0 0
332373.0 232292.0 0
340973.0 231682.0 0
337078.0 232888.0 0
340752.0 235812.0 0
350937.0 232627.0 0
359283.0 232974.0 0
364346.0 232656.0 0
368942.0 231979.0 0
373328.0 231315.0 0
377201.0 233709.0 0
381323.0 231887.0 0
386953.0 232082.0 0
393340.0 232952.0 0
397592.0 235791.0 0
398511.0 231372.0 0
402894.0 232762.0 0
407755.0 231829.0 0
415867.0 232472.0 0
421171.0 233753.0 0
424603.0 231444.0 0
428970.0 231971.0 0
434135.0 231649.0 0
438732.0 232964.0 0
442781.0 231619.0 0
447711.0 231680.0 0
453038.0 232278.0 0
463582.0 235038.0 0
468166.0 232354.0 0
473608.0 231522.0 0
471815.0 235216.0 0
478157.0 231758.0 0
481088.0 235087.0 0
487502.0 231411.0 0
485641.0 236066.0 0
495988.0 235328.0 0
2475.39 237476.0 0
7678.8 236917.0 0
12006.3 236428.0 0
15774.7 237859.0 0
20838.9 238558.0 0
26805.7 237873.0 0
30935.9 241169.0 0
40038.7 238691.0 0
35913.9 241291.0 0
44689.6 237402.0 0
43620.4 241389.0 0
48743.1 236724.0 0
47744.9 240758.0 0
53047.5 237037.0 0
51797.4 241097.0 0
56817.9 241309.0 0
63881.6 237428.0 0
62566.9 241438.0 0
67600.3 236677.0 0
71686.0 236622.0 0
78285.8 236515.0 0
77980.3 240610.0 0
82479.5 237778.0 0
87146.8 238738.0 0
92005.5 236918.0 0
97006.1 236871.0 0
106970.0 238496.0 0
111121.0 236927.0 0
115817.0 238289.0 0
121099.0 238286.0 0
126572.0 236653.0 0
137141.0 237473.0 0
142293.0 236609.0 0
146460.0 241079.0 0
152625.0 236745.0 0
156137.0 240707.0 0
162024.0 237368.0 0
172468.0 236859.0 0
178175.0 237763.0 0
186107.0 239955.0 0
195401.0 237766.0 0
199770.0 238385.0 0
208173.0 237184.0 0
204935.0 240739.0 0
211676.0 240855.0 0
217680.0 236696.0 0
223416.0 236908.0 0
221757.0 241331.0 0
227771.0 237343.0 0
232813.0 236608.0 0
231998.0 240870.0 0
237998.0 237273.0 0
241490.0 240672.0 0
246815.0 241166.0 0
251486.0 237830.0 0
257648.0 237654.0 0
261538.0 241224.0 0
266304.0 240386.0 0
273550.0 237948.0 0
279491.0 238151.0 0
284964.0 240258.0 0
290152.0 240674.0 0
293832.0 238313.0 0
298787.0 236723.0 0
297269.0 241161.0 0
302774.0 236450.0 0
302654.0 239608.0 0
307422.0 240210.0 0
312818.0 239413.0 0
316376.0 236982.0 0
321282.0 237119.0 0
316952.0 241174.0 0
326185.0 241040.0 0
333582.0 237277.0 0
337875.0 238749.0 0
346460.0 237048.0 0
350380.0 241383.0 0
352474.0 237453.0 0
358048.0 238557.0 0
362682.0 236523.0 0
367603.0 237240.0 0
373235.0 236433.0 0
372664.0 241125.0 0
377755.0 238440.0 0
383126.0 237314.0 0
388878.0 237957.0 0
393913.0 238229.0 0
401986.0 237379.0 0
407545.0 237631.0 0
417749.0 236622.0 0
413346.0 237667.0 0
417333.0 241315.0 0
420756.0 237897.0 0
426069.0 237336.0 0
432057.0 236451.0 0
436723.0 236803.0 0
442762.0 236641.0 0
438894.0 240859.0 0
448809.0 238779.0 0
453403.0 236447.0 0
453755.0 241417.0 0
458496.0 237661.0 0
467777.0 237670.0 0
472238.0 240290.0 0
476441.0 236783.0 0
481576.0 240356.0 0
487388.0 240976.0 0
490695.0 237087.0 0
497269.0 240974.0 0
3204.76 242605.0 0
8252.49 242017.0 0
12757.7 241653.0 0
17401.2 242620.0 0
22001.3 243154.0 0
26221.0 242656.0 0
39990.3 244412.0 0
47195.9 246033.0 0
52664.2 245290.0 0
67158.3 241858.0 0
72507.9 241810.0 0
78842.3 245361.0 0
82537.0 242203.0 0
86303.3 242805.0 0
90162.7 242054.0 0
95225.0 241892.0 0
101128.0 241795.0 0
106559.0 243517.0 0
111798.0 241788.0 0
118325.0 242963.0 0
123273.0 242714.0 0
127621.0 241774.0 0
132210.0 241664.0 0
128412.0 246396.0 0
137228.0 242072.0 0
132878.0 245998.0 0
141702.0 243353.0 0
151569.0 243534.0 0
161840.0 243669.0 0
169291.0 242185.0 0
175982.0 243541.0 0
181614.0 242587.0 0
190978.0 241625.0 0
189302.0 246139.0 0
195738.0 242440.0 0
200517.0 243588.0 0
208476.0 242927.0 0
206321.0 245280.0 0
216559.0 242028.0 0
216856.0 246556.0 0
221021.0 246163.0 0
226752.0 241830.0 0
231023.0 245248.0 0
236111.0 242144.0 0
240584.0 245915.0 0
248394.0 245955.0 0
251467.0 242081.0 0
252607.0 245724.0 0
256183.0 242773.0 0
260010.0 245826.0 0
265475.0 245631.0 0
270613.0 242820.0 0
272918.0 246278.0 0
276601.0 242892.0 0
281972.0 245769.0 0
288350.0 245443.0 0
293728.0 242911.0 0
298769.0 245557.0 0
304641.0 244290.0 0
310159.0 242735.0 0
309180.0 246400.0 0
313935.0 244244.0 0
317708.0 246150.0 0
321551.0 243097.0 0
327778.0 245556.0 0
331824.0 242255.0 0
336669.0 242737.0 0
341762.0 241683.0 0
346603.0 242905.0 0
351670.0 246163.0 0
354416.0 242624.0 0
357642.0 246173.0 0
363430.0 241858.0 0
368537.0 242462.0 0
376997.0 243590.0 0
381272.0 241823.0 0
382583.0 245846.0 0
385759.0 242426.0 0
391599.0 242976.0 0
397813.0 241875.0 0
403443.0 242348.0 0
408199.0 242746.0 0
412660.0 242812.0 0
422297.0 241649.0 0
422187.0 246549.0 0
427069.0 244041.0 0
433142.0 242381.0 0
437981.0 246283.0 0
443932.0 242231.0 0
448490.0 244625.0 0
457897.0 243562.0 0
463026.0 242116.0 0
468099.0 242460.0 0
472251.0 245439.0 0
476517.0 241812.0 0
478253.0 246566.0 0
483452.0 245482.0 0
487735.0 245645.0 0
492241.0 243484.0 0
497100.0 246574.0 0
2743.18 248034.0 0
8044.71 247040.0 0
14930.2 246861.0 0
11767.7 249520.0 0
19918.7 247433.0 0
25338.3 247501.0 0
32694.8 247958.0 0
42522.0 249378.0 0
47182.2 251163.0 0
52162.2 250711.0 0
57751.6 247549.0 0
63748.8 246795.0 0
69575.8 247157.0 0
74691.6 247684.0 0
77868.9 251614.0 0
82761.4 246984.0 0
87411.1 247240.0 0
93076.1 247313.0 0
98830.3 247152.0 0
103891.0 247698.0 0
107220.0 247525.0 0
111635.0 247658.0 0
107419.0 250776.0 0
116404.0 250356.0 0
120385.0 247692.0 0
124172.0 246997.0 0
125867.0 251324.0 0
131754.0 250722.0 0
136860.0 246762.0 0
137387.0 251641.0 0
141100.0 247537.0 0
146519.0 247045.0 0
151900.0 248924.0 0
156635.0 247132.0 0
160686.0 249214.0 0
163260.0 251584.0 0
166707.0 248451.0 0
172253.0 247172.0 0
170863.0 250607.0 0
175911.0 251177.0 0
179232.0 247160.0 0
184124.0 247795.0 0
193658.0 247024.0 0
189126.0 251386.0 0
197498.0 246666.0 0
202946.0 247433.0 0
199451.0 251015.0 0
207399.0 250079.0 0
212305.0 246663.0 0
221744.0 250417.0 0
225787.0 246829.0 0
232432.0 251245.0 0
235677.0 247064.0 0
238420.0 251011.0 0
244765.0 250249.0 0
251388.0 250723.0 0
256095.0 247769.0 0
261851.0 250413.0 0
270073.0 249635.0 0
275654.0 246868.0 0
278027.0 249896.0 0
288982.0 250771.0 0
293487.0 247586.0 0
297191.0 250432.0 0
302980.0 250759.0 0
308784.0 251633.0 0
312948.0 248983.0 0
318350.0 251429.0 0
323345.0 248291.0 0
328782.0 250775.0 0
332500.0 246898.0 0
336866.0 247347.0 0
342197.0 247255.0 0
347204.0 247273.0 0
349973.0 251260.0 0
354416.0 249787.0 0
363234.0 248210.0 0
368505.0 246724.0 0
368157.0 251445.0 0
373399.0 247945.0 0
379110.0 247994.0 0
382478.0 251490.0 0
387084.0 248025.0 0
392327.0 249161.0 0
395892.0 246602.0 0
400748.0 247058.0 0
405934.0 246687.0 0
411227.0 247986.0 0
416964.0 247163.0 0
426357.0 249591.0 0
431394.0 248079.0 0
443845.0 248102.0 0
453581.0 246644.0 0
449066.0 248975.0 0
458363.0 247757.0 0
456086.0 251417.0 0
462253.0 247110.0 0
467281.0 247467.0 0
472915.0 250638.0 0
482526.0 249944.0 0
487863.0 250774.0 0
492446.0 248472.0 0
498090.0 251251.0 0
2122.01 252859.0 0
6634.69 251975.0 0
10879.9 253173.0 0
12904.2 256279.0 0
16448.4 252096.0 0
22144.9 252232.0 0
26816.2 252075.0 0
31186.9 255760.0 0
38031.5 253409.0 0
44031.5 253893.0 0
57346.1 253645.0 0
62695.5 252175.0 0
67630.2 252498.0 0
72732.3 252230.0 0
77183.4 256727.0 0
83357.3 251698.0 0
86319.7 255822.0 0
88728.6 252201.0 0
91302.1 256737.0 0
93485.3 252172.0 0
96815.8 256188.0 0
97428.6 251787.0 0
102460.0 252909.0 0
111805.0 254022.0 0
116469.0 256752.0 0
120440.0 253546.0 0
143325.0 252441.0 0
147543.0 256546.0 0
148475.0 251992.0 0
152894.0 253451.0 0
157316.0 252129.0 0
162729.0 256085.0 0
168103.0 253866.0 0
172608.0 256361.0 0
177886.0 256459.0 0
181667.0 253003.0 0
186399.0 255739.0 0
192116.0 256284.0 0
194256.0 251794.0 0
203612.0 253004.0 0
201154.0 256480.0 0
206810.0 256326.0 0
210861.0 253747.0 0
216150.0 252071.0 0
221808.0 255080.0 0
226481.0 252107.0 0
236429.0 255962.0 0
241239.0 255454.0 0
245802.0 255596.0 0
250463.0 256614.0 0
256845.0 252297.0 0
255209.0 256461.0 0
260777.0 256583.0 0
266247.0 253741.0 0
274191.0 252378.0 0
271156.0 256049.0 0
278127.0 255667.0 0
283444.0 252096.0 0
288429.0 256062.0 0
293224.0 253104.0 0
298367.0 255641.0 0
303431.0 256310.0 0
308163.0 256640.0 0
314323.0 256750.0 0
319238.0 256351.0 0
324038.0 253738.0 0
328951.0 256376.0 0
334054.0 252525.0 0
333133.0 256734.0 0
339577.0 251918.0 0
336742.0 256683.0 0
344917.0 251722.0 0
347869.0 256271.0 0
353197.0 255941.0 0
358641.0 252887.0 0
363891.0 253801.0 0
372321.0 252643.0 0
376970.0 252526.0 0
382636.0 256742.0 0
387497.0 252510.0 0
392132.0 253268.0 0
396152.0 251980.0 0
394222.0 256443.0 0
401232.0 252525.0 0
398002.0 256434.0 0
406696.0 251847.0 0
411222.0 252857.0 0
415495.0 252201.0 0
421161.0 252134.0 0
428501.0 253112.0 0
430939.0 252514.0 0
435841.0 252304.0 0
442053.0 254040.0 0
446670.0 252462.0 0
447104.0 256729.0 0
451293.0 253680.0 0
456317.0 256365.0 0
461503.0 252159.0 0
466935.0 252873.0 0
470972.0 255622.0 0
478062.0 252036.0 0
482651.0 255945.0 0
488901.0 256339.0 0
493662.0 252364.0 0
497010.0 256032.0 0
2815.1 257651.0 0
8168.56 256915.0 0
7488.63 261762.0 0
11904.0 260245.0 0
16341.8 256927.0 0
20394.2 256809.0 0
17724.9 261171.0 0
25280.6 258030.0 0
22195.6 261766.0 0
33501.0 261345.0 0
37232.5 258753.0 0
41782.6 257756.0 0
47433.5 257873.0 0
53088.8 257185.0 0
58685.4 258936.0 0
63562.5 257328.0 0
68265.1 256895.0 0
67518.4 261612.0 0
72450.9 257079.0 0
72509.2 261690.0 0
82032.6 256806.0 0
87017.1 260843.0 0
101398.0 258800.0 0
107502.0 258994.0 0
113009.0 258848.0 0
121277.0 258281.0 0
126005.0 257479.0 0
132133.0 257106.0 0
137830.0 257281.0 0
142850.0 257821.0 0
137961.0 261877.0 0
142165.0 261821.0 0
152641.0 258093.0 0
157573.0 257118.0 0
158960.0 261509.0 0
162908.0 261469.0 0
167315.0 258897.0 0
172019.0 260785.0 0
182331.0 258094.0 0
188266.0 260714.0 0
196661.0 256936.0 0
193921.0 261571.0 0
199077.0 261288.0 0
204181.0 261706.0 0
212749.0 256874.0 0
214045.0 260264.0 0
209519.0 261401.0 0
217652.0 257982.0 0
222157.0 260571.0 0
226828.0 257205.0 0
226336.0 261077.0 0
231576.0 256878.0 0
235748.0 260701.0 0
240070.0 258821.0 0
243706.0 259768.0 0
256489.0 261882.0 0
266771.0 259255.0 0
272514.0 261691.0 0
278315.0 261477.0 0
283256.0 258903.0 0
289961.0 261554.0 0
293448.0 258003.0 0
299346.0 260997.0 0
303625.0 260308.0 0
307792.0 261796.0 0
317888.0 261158.0 0
322877.0 259479.0 0
327936.0 261405.0 0
333140.0 261019.0 0
342573.0 257082.0 0
346973.0 259824.0 0
357748.0 258578.0 0
362489.0 258608.0 0
367777.0 257098.0 0
373550.0 257297.0 0
378321.0 257041.0 0
377591.0 261719.0 0
387500.0 257046.0 0
387667.0 261521.0 0
390853.0 256848.0 0
394667.0 261062.0 0
400645.0 260822.0 0
405860.0 257876.0 0
412263.0 257489.0 0
417892.0 257004.0 0
423018.0 257397.0 0
427884.0 257007.0 0
432798.0 257460.0 0
428624.0 261830.0 0
437684.0 257948.0 0
441777.0 258708.0 0
448818.0 261592.0 0
452113.0 258845.0 0
461254.0 257813.0 0
466173.0 257456.0 0
470797.0 260810.0 0
476157.0 257058.0 0
488672.0 261835.0 0
492849.0 259171.0 0
497142.0 261890.0 0
2331.66 262093.0 0
2869.13 265929.0 0
7660.86 266223.0 0
13289.6 264646.0 0
17513.3 266063.0 0
21998.8 266052.0 0
25718.7 262557.0 0
29632.1 264340.0 0
25941.6 266460.0 0
36833.2 263761.0 0
41265.8 262985.0 0
46274.5 263106.0 0
47500.0 266859.0 0
51621.4 262529.0 0
56856.6 263191.0 0
62242.4 262782.0 0
68991.8 266709.0 0
73863.7 266164.0 0
81269.6 261928.0 0
76626.7 262756.0 0
77214.8 266586.0 0
92312.1 262004.0 0
97258.7 262027.0 0
102435.0 263950.0 0
106772.0 264138.0 0
111800.0 262822.0 0
113193.0 266940.0 0
117635.0 262295.0 0
122443.0 266814.0 0
123428.0 262024.0 0
128783.0 262534.0 0
131866.0 266883.0 0
134059.0 262148.0 0
136846.0 266426.0 0
147523.0 262345.0 0
152890.0 263026.0 0
150439.0 266902.0 0
157095.0 266731.0 0
163004.0 265855.0 0
167202.0 263534.0 0
173070.0 266417.0 0
177756.0 261994.0 0
183276.0 262773.0 0
186699.0 266090.0 0
191857.0 266446.0 0
196814.0 265631.0 0
201803.0 266730.0 0
207328.0 266493.0 0
213641.0 264534.0 0
217471.0 262362.0 0
220505.0 265411.0 0
225403.0 264931.0 0
230555.0 262396.0 0
235833.0 266179.0 0
240018.0 262837.0 0
245182.0 265837.0 0
250381.0 262004.0 0
262629.0 262212.0 0
262333.0 266983.0 0
267371.0 264769.0 0
277785.0 266491.0 0
282863.0 264445.0 0
289742.0 266325.0 0
294911.0 262448.0 0
293397.0 266029.0 0
297857.0 266933.0 0
303739.0 265453.0 0
313002.0 262937.0 0
320248.0 265494.0 0
324564.0 264070.0 0
334633.0 266321.0 0
338948.0 262351.0 0
344273.0 262371.0 0
351178.0 262046.0 0
348323.0 266842.0 0
354574.0 266765.0 0
358175.0 262956.0 0
358834.0 266918.0 0
362948.0 263512.0 0
367633.0 262461.0 0
372872.0 262927.0 0
376887.0 265541.0 0
380642.0 266188.0 0
383032.0 261906.0 0
386654.0 266689.0 0
390585.0 262392.0 0
391387.0 265776.0 0
396445.0 266769.0 0
400519.0 265199.0 0
404219.0 264125.0 0
409730.0 263334.0 0
416366.0 262793.0 0
422817.0 263053.0 0
426886.0 266657.0 0
433384.0 262279.0 0
431428.0 266567.0 0
438576.0 263201.0 0
444219.0 262511.0 0
447554.0 266763.0 0
452099.0 262835.0 0
457226.0 262640.0 0
462832.0 262282.0 0
461594.0 266501.0 0
466798.0 263549.0 0
470835.0 266604.0 0
476404.0 263436.0 0
482890.0 262683.0 0
492899.0 262891.0 0
2104.35 270087.0 0
6792.67 271717.0 0
12523.3 270008.0 0
18521.0 271099.0 0
24345.9 270825.0 0
30114.7 271200.0 0
33841.4 267221.0 0
38551.2 267229.0 0
39866.4 271287.0 0
43313.3 268047.0 0
47470.4 271029.0 0
51968.5 268175.0 0
58894.3 267744.0 0
64481.0 267978.0 0
71686.3 271054.0 0
80686.7 267030.0 0
77186.6 270204.0 0
86316.6 267149.0 0
82286.7 272016.0 0
92813.5 267012.0 0
93312.2 271118.0 0
98244.8 267288.0 0
97500.0 271893.0 0
103092.0 267914.0 0
102238.0 271694.0 0
107096.0 271469.0 0
109017.0 267325.0 0
112301.0 271197.0 0
117544.0 268005.0 0
126564.0 267426.0 0
122473.0 270895.0 0
132600.0 271657.0 0
137657.0 271367.0 0
140210.0 268726.0 0
142130.0 271792.0 0
144020.0 267108.0 0
147651.0 271588.0 0
153059.0 270920.0 0
161588.0 270765.0 0
167659.0 268194.0 0
183052.0 267390.0 0
178856.0 268061.0 0
184995.0 271172.0 0
190269.0 270732.0 0
195420.0 271223.0 0
212343.0 270354.0 0
216952.0 267532.0 0
218121.0 271898.0 0
222883.0 269873.0 0
229395.0 267435.0 0
232609.0 271029.0 0
238148.0 271808.0 0
240244.0 267843.0 0
248616.0 270778.0 0
252525.0 267013.0 0
255055.0 271077.0 0
257244.0 267335.0 0
259919.0 271249.0 0
266649.0 271806.0 0
272607.0 267797.0 0
276483.0 271332.0 0
281550.0 270200.0 0
285968.0 267962.0 0
292788.0 270846.0 0
303451.0 270748.0 0
309258.0 267360.0 0
307680.0 272015.0 0
315372.0 268360.0 0
323665.0 268988.0 0
328741.0 267008.0 0
332654.0 270957.0 0
338202.0 268560.0 0
342794.0 267530.0 0
352947.0 272039.0 0
358287.0 270735.0 0
362313.0 267569.0 0
366740.0 267504.0 0
363843.0 271968.0 0
371999.0 268315.0 0
368598.0 271609.0 0
377269.0 269839.0 0
383138.0 271158.0 0
392801.0 270513.0 0
401642.0 270271.0 0
407482.0 268798.0 0
413217.0 268631.0 0
418111.0 267845.0 0
417500.0 271792.0 0
422111.0 268207.0 0
429096.0 270858.0 0
432842.0 272052.0 0
436294.0 268549.0 0
442105.0 267852.0 0
445089.0 271850.0 0
452808.0 267022.0 0
449568.0 271509.0 0
453925.0 271855.0 0
457501.0 268693.0 0
461736.0 271073.0 0
465851.0 267606.0 0
476634.0 269359.0 0
480522.0 267100.0 0
481391.0 271718.0 0
485119.0 267728.0 0
491129.0 267681.0 0
497365.0 267380.0 0
3506.48 277169.0 0
8912.78 276985.0 0
12819.1 275432.0 0
23735.1 276191.0 0
29008.9 276993.0 0
35416.0 272634.0 0
33721.1 276795.0 0
38524.4 277116.0 0
43520.0 273338.0 0
47739.2 275791.0 0
51740.3 273013.0 0
56701.3 272779.0 0
61959.7 272793.0 0
66632.8 272469.0 0
66403.1 277062.0 0
71637.2 276940.0 0
84125.4 276757.0 0
88452.5 273463.0 0
94101.7 275335.0 0
99301.2 276591.0 0
108324.0 276433.0 0
113642.0 276039.0 0
117490.0 272619.0 0
122404.0 275287.0 0
118194.0 277071.0 0
127677.0 272390.0 0
131350.0 276481.0 0
135420.0 275130.0 0
139983.0 276072.0 0
145215.0 276724.0 0
151701.0 277030.0 0
157503.0 272612.0 0
162249.0 276193.0 0
165681.0 272441.0 0
167863.0 276752.0 0
171262.0 272295.0 0
176265.0 272292.0 0
180356.0 272724.0 0
178677.0 276693.0 0
183518.0 276718.0 0
188855.0 274843.0 0
198183.0 275931.0 0
201327.0 272184.0 0
206597.0 272515.0 0
212403.0 276749.0 0
217339.0 276363.0 0
221961.0 275204.0 0
227514.0 272511.0 0
231249.0 276427.0 0
236066.0 276989.0 0
243773.0 272160.0 0
240751.0 276827.0 0
247352.0 276159.0 0
251744.0 274063.0 0
256845.0 276238.0 0
262046.0 276431.0 0
272624.0 272723.0 0
277759.0 275781.0 0
282660.0 275691.0 0
286997.0 272551.0 0
298711.0 272796.0 0
304161.0 275760.0 0
308979.0 277039.0 0
312734.0 273630.0 0
319083.0 272698.0 0
323775.0 273211.0 0
328187.0 272650.0 0
333131.0 277119.0 0
337188.0 272338.0 0
341717.0 272763.0 0
343409.0 276783.0 0
346944.0 272260.0 0
347342.0 277060.0 0
357537.0 276083.0 0
362991.0 277001.0 0
368185.0 276445.0 0
372510.0 272194.0 0
373364.0 275873.0 0
378039.0 274943.0 0
388494.0 272388.0 0
392118.0 275467.0 0
396708.0 272280.0 0
397061.0 276630.0 0
402876.0 276944.0 0
407563.0 276938.0 0
408635.0 273390.0 0
412950.0 273595.0 0
416297.0 276752.0 0
421523.0 276546.0 0
423646.0 272112.0 0
427083.0 275922.0 0
436287.0 275727.0 0
439587.0 272215.0 0
442633.0 277120.0 0
449569.0 277137.0 0
458035.0 273258.0 0
454951.0 276528.0 0
462497.0 275290.0 0
466241.0 272315.0 0
466458.0 277176.0 0
472014.0 272630.0 0
477069.0 273998.0 0
487082.0 272927.0 0
492809.0 273577.0 0
497597.0 272414.0 0
7862.67 281049.0 0
13200.5 281342.0 0
18046.4 277310.0 0
22913.6 281825.0 0
28302.8 282137.0 0
33684.1 281705.0 0
38744.0 282055.0 0
43678.3 278067.0 0
42462.2 281898.0 0
47500.0 281669.0 0
52009.1 277570.0 0
52552.4 281967.0 0
56982.5 278185.0 0
61799.7 277501.0 0
62773.7 281968.0 0
67039.7 281867.0 0
78214.3 277420.0 0
82589.4 281813.0 0
87690.5 278538.0 0
92063.1 280650.0 0
97670.1 281878.0 0
103855.0 278022.0 0
102294.0 281692.0 0
107408.0 282265.0 0
113345.0 281456.0 0
121263.0 280566.0 0
126906.0 277336.0 0
129846.0 280752.0 0
135567.0 280926.0 0
141821.0 280941.0 0
157481.0 277765.0 0
156974.0 282241.0 0
168626.0 282270.0 0
173485.0 277930.0 0
178556.0 281777.0 0
188028.0 280726.0 0
193426.0 277473.0 0
193398.0 282264.0 0
197894.0 280955.0 0
202252.0 277492.0 0
202733.0 281688.0 0
207036.0 277682.0 0
206560.0 282071.0 0
210436.0 281324.0 0
215948.0 280879.0 0
222055.0 281320.0 0
226311.0 277281.0 0
227912.0 281741.0 0
232884.0 280884.0 0
237589.0 281468.0 0
243263.0 281314.0 0
248643.0 281640.0 0
251815.0 278071.0 0
254423.0 281737.0 0
259254.0 281124.0 0
266380.0 279124.0 0
272453.0 277468.0 0
270749.0 281745.0 0
276855.0 280350.0 0
282755.0 281840.0 0
287515.0 278039.0 0
294250.0 277460.0 0
299712.0 277613.0 0
298259.0 281912.0 0
306004.0 281349.0 0
315345.0 278510.0 0
311336.0 280079.0 0
320365.0 277707.0 0
318454.0 281771.0 0
326073.0 277949.0 0
322500.0 281954.0 0
339115.0 277649.0 0
336996.0 281500.0 0
341101.0 281433.0 0
346161.0 281587.0 0
351781.0 277580.0 0
357130.0 281402.0 0
361934.0 281917.0 0
372167.0 280491.0 0
377865.0 280939.0 0
382789.0 277307.0 0
387985.0 278089.0 0
392971.0 280684.0 0
398548.0 282060.0 0
404603.0 282104.0 0
411391.0 277898.0 0
408303.0 282118.0 0
411599.0 282191.0 0
415647.0 281547.0 0
420773.0 282035.0 0
431830.0 278194.0 0
432707.0 282262.0 0
453719.0 281359.0 0
459041.0 277550.0 0
458591.0 281640.0 0
462383.0 279763.0 0
466460.0 282056.0 0
470805.0 277798.0 0
475079.0 277550.0 0
476748.0 282125.0 0
479822.0 278040.0 0
485468.0 278590.0 0
489729.0 281913.0 0
491397.0 277786.0 0
496533.0 277890.0 0
3164.74 283831.0 0
18016.5 283285.0 0
27690.5 287198.0 0
32846.7 287085.0 0
37849.7 286588.0 0
42860.5 286690.0 0
47500.0 286752.0 0
52500.0 286671.0 0
57793.9 283500.0 0
62273.9 287025.0 0
67614.2 286253.0 0
72935.3 282990.0 0
78321.3 283219.0 0
77003.4 287107.0 0
81629.6 286718.0 0
86240.9 286574.0 0
87057.1 282452.0 0
91741.5 287063.0 0
97810.0 287266.0 0
102673.0 286247.0 0
111197.0 286337.0 0
115542.0 287132.0 0
117556.0 282805.0 0
120821.0 286454.0 0
125801.0 283245.0 0
131565.0 286738.0 0
137595.0 287114.0 0
147640.0 283067.0 0
152831.0 282382.0 0
152355.0 286353.0 0
156795.0 286921.0 0
162577.0 282306.0 0
165892.0 286808.0 0
170841.0 287222.0 0
173694.0 283295.0 0
183155.0 283412.0 0
181175.0 286937.0 0
190775.0 285642.0 0
195952.0 286597.0 0
202306.0 285371.0 0
207077.0 287079.0 0
212742.0 285520.0 0
217412.0 285286.0 0
221371.0 286818.0 0
226150.0 286579.0 0
231918.0 285932.0 0
240962.0 285570.0 0
252563.0 287002.0 0
257892.0 285136.0 0
262902.0 282805.0 0
267386.0 284831.0 0
272687.0 285821.0 0
277791.0 285055.0 0
288001.0 283298.0 0
292325.0 282995.0 0
296014.0 287073.0 0
302048.0 285990.0 0
310165.0 282886.0 0
308464.0 286844.0 0
314037.0 283531.0 0
318472.0 286345.0 0
325767.0 286302.0 0
328894.0 282600.0 0
333241.0 283509.0 0
336304.0 287188.0 0
342217.0 286828.0 0
352125.0 283686.0 0
357699.0 287245.0 0
363355.0 286842.0 0
367466.0 283229.0 0
372119.0 286610.0 0
377586.0 286902.0 0
383975.0 283349.0 0
389039.0 282876.0 0
393849.0 286361.0 0
413405.0 286379.0 0
418011.0 286995.0 0
422327.0 287077.0 0
427257.0 282474.0 0
432985.0 286519.0 0
437827.0 282314.0 0
437053.0 287241.0 0
443861.0 283368.0 0
448903.0 283255.0 0
447415.0 286632.0 0
451704.0 287212.0 0
455865.0 285630.0 0
461831.0 286934.0 0
471671.0 282455.0 0
482134.0 282904.0 0
480001.0 286998.0 0
486598.0 287131.0 0
493001.0 283907.0 0
497150.0 283884.0 0
2175.07 289078.0 0
6289.7 288030.0 0
6704.61 291902.0 0
11599.3 287458.0 0
17536.7 287749.0 0
17237.5 292246.0 0
22464.1 287496.0 0
21689.6 292371.0 0
26625.9 292400.0 0
37800.7 291658.0 0
42911.0 291806.0 0
48373.5 291625.0 0
53049.3 291854.0 0
57472.9 287961.0 0
57491.6 292246.0 0
62500.0 291839.0 0
67351.0 291862.0 0
72220.4 288711.0 0
77091.5 292035.0 0
80946.8 292022.0 0
86599.7 291746.0 0
98143.3 292311.0 0
106904.0 288411.0 0
102894.0 291263.0 0
112145.0 291639.0 0
117790.0 291506.0 0
126025.0 288077.0 0
127516.0 291794.0 0
135066.0 290616.0 0
143039.0 287537.0 0
148536.0 288872.0 0
153466.0 292162.0 0
161272.0 288128.0 0
165975.0 292023.0 0
171473.0 292450.0 0
176326.0 287860.0 0
186222.0 288911.0 0
191911.0 290381.0 0
201294.0 290331.0 0
211926.0 291287.0 0
217652.0 290000.0 0
222977.0 291482.0 0
228698.0 291553.0 0
233725.0 290902.0 0
236951.0 288060.0 0
241170.0 290907.0 0
246414.0 287616.0 0
251740.0 292447.0 0
257137.0 289608.0 0
262434.0 287839.0 0
268853.0 290800.0 0
276149.0 289260.0 0
278983.0 292280.0 0
283384.0 288871.0 0
289923.0 287828.0 0
300107.0 292137.0 0
305174.0 290437.0 0
313683.0 288661.0 0
316719.0 291529.0 0
322152.0 289034.0 0
330999.0 288067.0 0
338663.0 291569.0 0
342797.0 292304.0 0
347984.0 287768.0 0
352468.0 289342.0 0
362636.0 291666.0 0
367608.0 289327.0 0
371850.0 292062.0 0
382660.0 289629.0 0
388193.0 287747.0 0
397812.0 290211.0 0
403549.0 287903.0 0
409206.0 288656.0 0
411811.0 292356.0 0
417022.0 291536.0 0
427433.0 289226.0 0
437976.0 292463.0 0
442558.0 288855.0 0
448191.0 291685.0 0
455974.0 291537.0 0
468604.0 287640.0 0
466230.0 292151.0 0
474670.0 287543.0 0
477530.0 292349.0 0
481989.0 290975.0 0
493170.0 288283.0 0
498364.0 288203.0 0
2647.73 293360.0 0
11883.6 294244.0 0
32269.9 292540.0 0
72974.1 293047.0 0
92663.3 293657.0 0
107106.0 293764.0 0
123042.0 293172.0 0
131671.0 293540.0 0
139802.0 293231.0 0
146653.0 294100.0 0
159452.0 292668.0 0
162837.0 295672.0 0
177288.0 294082.0 0
183213.0 294177.0 0
188847.0 294513.0 0
195985.0 294211.0 0
201261.0 295764.0 0
206467.0 293787.0 0
210844.0 296949.0 0
216471.0 295737.0 0
222519.0 297217.0 0
228005.0 296959.0 0
233988.0 295717.0 0
237012.0 292547.0 0
240363.0 296679.0 0
246217.0 294043.0 0
253444.0 297236.0 0
258346.0 294585.0 0
263426.0 293424.0 0
274421.0 293492.0 0
270617.0 296329.0 0
284430.0 295252.0 0
288533.0 292587.0 0
289787.0 297123.0 0
293637.0 292767.0 0
297066.0 297507.0 0
304922.0 294462.0 0
308777.0 292684.0 0
313364.0 293638.0 0
320541.0 293159.0 0
326652.0 292733.0 0
333856.0 293017.0 0
347413.0 292740.0 0
352856.0 294167.0 0
357814.0 293029.0 0
367025.0 293675.0 0
377425.0 292817.0 0
382625.0 293987.0 0
386620.0 293269.0 0
391983.0 292539.0 0
396545.0 294328.0 0
401646.0 294624.0 0
406988.0 292850.0 0
422573.0 292809.0 0
427264.0 294947.0 0
432181.0 293110.0 0
442946.0 294409.0 0
452074.0 294849.0 0
461569.0 293492.0 0
471905.0 293861.0 0
481336.0 294817.0 0
486493.0 294439.0 0
491854.0 293390.0 0
497015.0 292976.0 0
199684.0 300709.0 0
204521.0 298309.0 0
204575.0 302440.0 0
209573.0 301955.0 0
215791.0 301837.0 0
221195.0 302598.0 0
226712.0 302605.0 0
231543.0 300258.0 0
236603.0 299051.0 0
235394.0 302224.0 0
244586.0 299778.0 0
248969.0 298633.0 0
252351.0 302170.0 0
257870.0 300132.0 0
261324.0 297637.0 0
262134.0 300752.0 0
265788.0 298336.0 0
271405.0 301451.0 0
278539.0 297757.0 0
283390.0 299889.0 0
287198.0 301412.0 0
293169.0 302021.0 0
302315.0 298060.0 0
200665.0 306997.0 0
206922.0 306944.0 0
212444.0 306183.0 0
218250.0 307519.0 0
223395.0 306527.0 0
231877.0 305558.0 0
236778.0 305891.0 0
240469.0 302793.0 0
245823.0 304913.0 0
250616.0 306491.0 0
256827.0 306519.0 0
262892.0 304817.0 0
267998.0 305607.0 0
276350.0 303121.0 0
278822.0 307022.0 0
280862.0 303018.0 0
284500.0 304270.0 0
288745.0 306705.0 0
294222.0 307625.0 0
299420.0 302872.0 0
298277.0 307573.0 0
208391.0 312453.0 0
213646.0 311272.0 0
218750.0 312886.0 0
223775.0 312485.0 0
227398.0 308554.0 0
231720.0 310924.0 0
236138.0 309950.0 0
241002.0 308529.0 0
240625.0 312607.0 0
246414.0 310773.0 0
252240.0 311220.0 0
257436.0 312426.0 0
261594.0 309875.0 0
266646.0 310835.0 0
273306.0 307819.0 0
271774.0 312595.0 0
276856.0 311809.0 0
283257.0 307919.0 0
281027.0 310932.0 0
285844.0 311904.0 0
291404.0 311638.0 0
297248.0 312186.0 0
10310.7 316795.0 0
202269.0 313371.0 0
206232.0 317859.0 0
210432.0 316429.0 0
215288.0 316793.0 0
220899.0 317099.0 0
228281.0 313160.0 0
231282.0 315527.0 0
237039.0 315385.0 0
243185.0 315383.0 0
248838.0 316144.0 0
254688.0 316375.0 0
261824.0 315190.0 0
268368.0 317305.0 0
274559.0 315855.0 0
279510.0 314647.0 0
283511.0 316839.0 0
289127.0 316421.0 0
293879.0 315767.0 0
341742.0 314459.0 0
201932.0 320495.0 0
211505.0 321296.0 0
216975.0 322337.0 0
222353.0 321954.0 0
226570.0 318100.0 0
228133.0 322604.0 0
232213.0 320590.0 0
237128.0 320766.0 0
241973.0 320829.0 0
247729.0 322024.0 0
253304.0 321541.0 0
258670.0 320002.0 0
262736.0 322594.0 0
273061.0 322202.0 0
278588.0 318727.0 0
282761.0 321070.0 0
287032.0 322747.0 0
292861.0 321016.0 0
297830.0 318392.0 0
309756.0 318325.0 0
404603.0 321581.0 0
421499.0 322852.0 0
443009.0 322500.0 0
455114.0 322881.0 0
497243.0 322449.0 0
6878.9 326605.0 0
48261.5 324219.0 0
56374.4 328133.0 0
63868.7 328142.0 0
100416.0 327856.0 0
126005.0 327577.0 0
167796.0 326467.0 0
174681.0 323244.0 0
177286.0 327297.0 0
201447.0 325267.0 0
206318.0 323166.0 0
205231.0 328061.0 0
210537.0 326974.0 0
215625.0 327044.0 0
220186.0 326411.0 0
225582.0 326068.0 0
231473.0 326714.0 0
237567.0 325679.0 0
248056.0 328067.0 0
253786.0 326888.0 0
258807.0 325196.0 0
263572.0 327731.0 0
267384.0 323582.0 0
274255.0 327446.0 0
279159.0 324450.0 0
284236.0 327733.0 0
288738.0 327327.0 0
292698.0 326299.0 0
297765.0 324879.0 0
317421.0 326544.0 0
322450.0 327935.0 0
357807.0 326051.0 0
362467.0 324468.0 0
368610.0 324251.0 0
374583.0 326892.0 0
389098.0 323315.0 0
437044.0 326142.0 0
461586.0 326742.0 0
472319.0 323625.0 0
476569.0 326868.0 0
481239.0 327961.0 0
492537.0 324601.0 0
14254.8 331158.0 0
22442.4 332473.0 0
30433.9 332378.0 0
36537.1 332911.0 0
68827.6 329162.0 0
75161.9 331197.0 0
79658.9 329896.0 0
85031.3 330594.0 0
96187.4 328409.0 0
107589.0 329593.0 0
111005.0 331438.0 0
115161.0 329895.0 0
121008.0 329788.0 0
131855.0 331899.0 0
137504.0 330912.0 0
142262.0 333165.0 0
154054.0 330198.0 0
158565.0 329592.0 0
173221.0 332320.0 0
178735.0 330664.0 0
191569.0 328449.0 0
196244.0 329378.0 0
200939.0 329622.0 0
208099.0 331045.0 0
204148.0 332697.0 0
213400.0 331879.0 0
217906.0 330745.0 0
222379.0 330596.0 0
227510.0 331360.0 0
233061.0 332448.0 0
238175.0 331718.0 0
242326.0 328755.0 0
245409.0 332594.0 0
250992.0 332957.0 0
258979.0 329606.0 0
255461.0 331438.0 0
261748.0 332014.0 0
269194.0 328697.0 0
273080.0 331732.0 0
277782.0 331176.0 0
282117.0 331522.0 0
287681.0 331485.0 0
292883.0 331301.0 0
297373.0 329878.0 0
309917.0 329830.0 0
322451.0 332647.0 0
339605.0 333024.0 0
391311.0 329993.0 0
396056.0 331432.0 0
417127.0 332498.0 0
423600.0 330804.0 0
449230.0 332514.0 0
462790.0 333191.0 0
466760.0 332004.0 0
471850.0 330601.0 0
479717.0 333244.0 0
497839.0 331900.0 0
8033.11 336794.0 0
14588.8 337982.0 0
17655.2 334475.0 0
40985.6 337316.0 0
48339.7 335123.0 0
53010.0 335120.0 0
88220.9 336584.0 0
93065.2 334510.0 0
97919.2 336635.0 0
119140.0 336785.0 0
124379.0 334683.0 0
146000.0 336616.0 0
150902.0 334488.0 0
155278.0 337853.0 0
169989.0 337572.0 0
178042.0 334165.0 0
177595.0 338336.0 0
199630.0 337316.0 0
204511.0 337831.0 0
209417.0 335415.0 0
215167.0 337387.0 0
220187.0 334696.0 0
226036.0 336340.0 0
230781.0 337217.0 0
236457.0 336918.0 0
241771.0 333504.0 0
241488.0 337273.0 0
247347.0 338040.0 0
253420.0 337434.0 0
257862.0 335297.0 0
262758.0 336236.0 0
267202.0 333728.0 0
271718.0 336169.0 0
276182.0 337643.0 0
284615.0 333972.0 0
280712.0 335750.0 0
287816.0 336438.0 0
292435.0 336204.0 0
296770.0 334347.0 0
300372.0 336868.0 0
304737.0 337276.0 0
308663.0 336487.0 0
318276.0 336669.0 0
326630.0 333406.0 0
330913.0 333680.0 0
335045.0 336340.0 0
345114.0 335217.0 0
364943.0 337774.0 0
383597.0 337427.0 0
388726.0 334508.0 0
393964.0 336315.0 0
407296.0 335585.0 0
412976.0 337907.0 0
422388.0 336270.0 0
426612.0 334373.0 0
431907.0 335075.0 0
436080.0 336913.0 0
439714.0 333364.0 0
444222.0 335621.0 0
458451.0 335380.0 0
484429.0 333324.0 0
489239.0 336249.0 0
2631.23 339765.0 0
10165.2 343017.0 0
18911.2 340309.0 0
30589.4 338580.0 0
27252.5 342632.0 0
37311.7 340911.0 0
45936.2 338791.0 0
54909.3 341781.0 0
60744.6 342830.0 0
85759.2 341800.0 0
91010.0 341932.0 0
92904.6 339519.0 0
96476.5 340957.0 0
100409.0 343125.0 0
102310.0 338742.0 0
105708.0 341833.0 0
113050.0 338800.0 0
126262.0 338890.0 0
137141.0 340350.0 0
132697.0 342269.0 0
166524.0 341628.0 0
183111.0 339990.0 0
188951.0 338655.0 0
194784.0 339876.0 0
208833.0 340694.0 0
204271.0 343340.0 0
218508.0 342479.0 0
222210.0 338955.0 0
222866.0 342852.0 0
226704.0 341170.0 0
231928.0 342412.0 0
237340.0 342347.0 0
242518.0 341913.0 0
252150.0 342360.0 0
257584.0 340940.0 0
262701.0 340929.0 0
267245.0 339063.0 0
272486.0 341867.0 0
278284.0 341817.0 0
284026.0 340672.0 0
290820.0 341579.0 0
296225.0 339140.0 0
305450.0 341190.0 0
309711.0 340627.0 0
314012.0 339369.0 0
341691.0 343511.0 0
342101.0 338617.0 0
348027.0 338771.0 0
360423.0 341576.0 0
368691.0 340407.0 0
373639.0 342826.0 0
377600.0 338636.0 0
380959.0 343416.0 0
385630.0 342158.0 0
390690.0 338438.0 0
394399.0 341105.0 0
398809.0 338467.0 0
398411.0 342485.0 0
403236.0 339338.0 0
415149.0 342350.0 0
431773.0 340598.0 0
462565.0 343012.0 0
473827.0 340029.0 0
478880.0 338464.0 0
483291.0 342062.0 0
488293.0 343510.0 0
492521.0 340247.0 0
497266.0 340004.0 0
4198.95 344868.0 0
1396.57 347858.0 0
8211.08 346824.0 0
11918.4 348299.0 0
16619.4 347768.0 0
21754.5 346465.0 0
31965.1 345117.0 0
44551.6 344273.0 0
49617.5 345208.0 0
53511.7 346750.0 0
65233.2 345973.0 0
73247.1 344867.0 0
79766.0 345383.0 0
97591.4 346560.0 0
101262.0 347676.0 0
118044.0 344089.0 0
122206.0 346088.0 0
125707.0 347311.0 0
127597.0 343618.0 0
132217.0 348352.0 0
140009.0 344577.0 0
145853.0 344594.0 0
150246.0 348010.0 0
157949.0 346763.0 0
162385.0 347543.0 0
169946.0 345332.0 0
175198.0 343669.0 0
178327.0 347179.0 0
173828.0 348488.0 0
182130.0 345228.0 0
208584.0 346094.0 0
213099.0 343793.0 0
221591.0 346770.0 0
226427.0 346150.0 0
231080.0 347747.0 0
236993.0 348296.0 0
242642.0 346961.0 0
247209.0 344413.0 0
251072.0 347506.0 0
255693.0 346183.0 0
261566.0 346379.0 0
265944.0 344783.0 0
276157.0 347660.0 0
281418.0 345236.0 0
286507.0 346230.0 0
296100.0 345257.0 0
301776.0 344288.0 0
305221.0 347976.0 0
308851.0 345242.0 0
312802.0 344625.0 0
315850.0 348446.0 0
321608.0 348214.0 0
329672.0 346937.0 0
335177.0 343846.0 0
350533.0 346264.0 0
355714.0 347758.0 0
368277.0 345911.0 0
376826.0 347869.0 0
388242.0 345396.0 0
397327.0 347700.0 0
402468.0 344240.0 0
406830.0 346853.0 0
411664.0 345347.0 0
417627.0 347162.0 0
435876.0 348245.0 0
440796.0 345851.0 0
448497.0 348210.0 0
468005.0 344670.0 0
472750.0 345704.0 0
494690.0 344954.0 0
490331.0 348094.0 0
498185.0 348047.0 0
9024.03 351703.0 0
22141.1 351951.0 0
27556.0 352975.0 0
31750.6 349860.0 0
36111.9 349109.0 0
40529.6 348738.0 0
42506.5 352381.0 0
47221.1 353095.0 0
55093.5 350859.0 0
71098.8 351207.0 0
76019.2 349823.0 0
87177.6 352697.0 0
101304.0 352899.0 0
105416.0 353306.0 0
115988.0 350918.0 0
121376.0 351725.0 0
127453.0 350758.0 0
137709.0 349833.0 0
134374.0 352710.0 0
136901.0 353006.0 0
142940.0 352466.0 0
154955.0 353399.0 0
159503.0 352123.0 0
166757.0 350119.0 0
170964.0 351927.0 0
178120.0 351440.0 0
182600.0 350003.0 0
188443.0 351944.0 0
198386.0 351735.0 0
203704.0 348929.0 0
208412.0 351208.0 0
212215.0 348674.0 0
213350.0 353338.0 0
217033.0 349323.0 0
222021.0 352001.0 0
227582.0 351922.0 0
233021.0 352796.0 0
244084.0 352379.0 0
247405.0 348863.0 0
249464.0 352247.0 0
253971.0 352548.0 0
259245.0 350855.0 0
265065.0 349590.0 0
263750.0 353680.0 0
269892.0 348696.0 0
267918.0 353106.0 0
272592.0 353131.0 0
282235.0 350161.0 0
287420.0 352335.0 0
291560.0 348766.0 0
296012.0 350867.0 0
310186.0 351625.0 0
326129.0 351413.0 0
329885.0 353357.0 0
332766.0 351330.0 0
345721.0 348671.0 0
359390.0 351427.0 0
365233.0 350470.0 0
371514.0 350379.0 0
382983.0 350709.0 0
392773.0 349863.0 0
402414.0 349000.0 0
405524.0 351963.0 0
418256.0 352327.0 0
423877.0 352379.0 0
430432.0 349911.0 0
443743.0 350141.0 0
448865.0 353085.0 0
457751.0 351651.0 0
463509.0 351762.0 0
472922.0 350028.0 0
469552.0 353146.0 0
477904.0 350149.0 0
492549.0 351950.0 0
497345.0 352944.0 0
12432.9 357338.0 0
18261.9 357299.0 0
35807.4 356474.0 0
40409.5 357182.0 0
57788.5 354590.0 0
62143.2 356081.0 0
66602.6 354228.0 0
78385.1 355132.0 0
83542.9 357828.0 0
87994.7 358182.0 0
92583.3 355157.0 0
110427.0 355188.0 0
115498.0 357019.0 0
119859.0 355380.0 0
125026.0 354158.0 0
124322.0 358187.0 0
145130.0 356470.0 0
149278.0 354597.0 0
152637.0 357836.0 0
157044.0 357946.0 0
162950.0 354438.0 0
175791.0 356193.0 0
179935.0 354845.0 0
193858.0 354704.0 0
203154.0 354551.0 0
208635.0 356664.0 0
218111.0 355745.0 0
223563.0 356975.0 0
229146.0 356900.0 0
233987.0 357954.0 0
238389.0 354576.0 0
242625.0 358155.0 0
247749.0 357013.0 0
252022.0 355912.0 0
255740.0 357823.0 0
260677.0 356972.0 0
265270.0 357628.0 0
269759.0 357194.0 0
274716.0 358717.0 0
277915.0 353972.0 0
283072.0 355499.0 0
288023.0 358145.0 0
292366.0 354133.0 0
296717.0 354881.0 0
297647.0 358502.0 0
301341.0 356070.0 0
305768.0 355509.0 0
309180.0 356619.0 0
315912.0 354315.0 0
320548.0 358405.0 0
332502.0 356254.0 0
337497.0 356148.0 0
344487.0 357064.0 0
350089.0 356603.0 0
354804.0 355140.0 0
359342.0 356956.0 0
363529.0 355079.0 0
368250.0 355534.0 0
375763.0 353772.0 0
379842.0 356341.0 0
383935.0 356410.0 0
388117.0 354243.0 0
396224.0 358412.0 0
420703.0 356053.0 0
428710.0 355888.0 0
443845.0 358580.0 0
453540.0 354406.0 0
473869.0 354145.0 0
480007.0 355624.0 0
485098.0 354226.0 0
2385.26 362392.0 0
11457.4 363475.0 0
19755.7 361823.0 0
23726.9 363051.0 0
28043.2 363806.0 0
31572.7 359474.0 0
37894.0 363331.0 0
42563.5 361101.0 0
48901.4 363929.0 0
59411.4 362458.0 0
73236.5 361214.0 0
79509.9 363034.0 0
85306.1 363490.0 0
98107.3 358845.0 0
103471.0 362272.0 0
108322.0 363702.0 0
119756.0 359268.0 0
127047.0 362491.0 0
133529.0 362973.0 0
137186.0 360265.0 0
141682.0 363018.0 0
178009.0 363261.0 0
182816.0 362935.0 0
188845.0 362862.0 0
203858.0 359642.0 0
208301.0 362151.0 0
213859.0 359010.0 0
212679.0 363752.0 0
217779.0 362938.0 0
220465.0 359351.0 0
223039.0 362453.0 0
226382.0 359975.0 0
230418.0 361805.0 0
238287.0 359591.0 0
235470.0 362841.0 0
240612.0 363081.0 0
245945.0 362602.0 0
251501.0 361008.0 0
256378.0 362880.0 0
262295.0 361794.0 0
267789.0 361991.0 0
272918.0 363851.0 0
278123.0 363328.0 0
281316.0 359843.0 0
284561.0 362936.0 0
290478.0 363676.0 0
293458.0 358928.0 0
296098.0 363376.0 0
324961.0 363922.0 0
327915.0 360912.0 0
332244.0 360189.0 0
349617.0 363322.0 0
373783.0 361510.0 0
391305.0 361852.0 0
401114.0 360369.0 0
405441.0 362486.0 0
415232.0 362889.0 0
420447.0 363539.0 0
441281.0 362841.0 0
447422.0 362428.0 0
460614.0 359589.0 0
463380.0 363908.0 0
468394.0 361348.0 0
475351.0 359347.0 0
482264.0 362137.0 0
486287.0 359775.0 0
488314.0 363647.0 0
491602.0 361364.0 0
6006.39 366087.0 0
11002.7 368916.0 0
31549.5 366779.0 0
44669.6 365753.0 0
53337.5 366023.0 0
57735.5 365931.0 0
81557.5 367287.0 0
90025.3 367992.0 0
131487.0 367023.0 0
147366.0 364924.0 0
157006.0 367280.0 0
162148.0 366978.0 0
166764.0 365937.0 0
172721.0 366100.0 0
195076.0 365125.0 0
204246.0 365212.0 0
209263.0 367472.0 0
215311.0 368542.0 0
220728.0 367203.0 0
226872.0 366002.0 0
232111.0 366666.0 0
237597.0 367602.0 0
242809.0 366762.0 0
247749.0 368536.0 0
251795.0 365581.0 0
259905.0 365908.0 0
255623.0 368035.0 0
264620.0 366539.0 0
269263.0 366628.0 0
275464.0 368715.0 0
281879.0 368210.0 0
288153.0 368909.0 0
293933.0 368631.0 0
307859.0 367612.0 0
318165.0 368254.0 0
320417.0 363997.0 0
339150.0 366124.0 0
344385.0 368279.0 0
356286.0 364241.0 0
361856.0 367053.0 0
366109.0 364490.0 0
370489.0 364784.0 0
373349.0 367786.0 0
377847.0 368389.0 0
382117.0 367852.0 0
386421.0 368080.0 0
410203.0 364407.0 0
424465.0 366385.0 0
429055.0 365936.0 0
436037.0 364415.0 0
452098.0 364208.0 0
472623.0 364239.0 0
475462.0 367520.0 0
478625.0 364506.0 0
497634.0 365180.0 0
1795.97 375061.0 0
5344.49 375421.0 0
9068.13 375602.0 0
13056.4 375945.0 0
15099.4 369404.0 0
19021.9 368545.0 0
22471.9 370961.0 0
24381.4 374411.0 0
27629.0 375283.0 0
34408.0 375193.0 0
31381.8 375590.0 0
37416.0 375067.0 0
41083.6 375330.0 0
44725.9 375439.0 0
48944.5 375354.0 0
53197.6 375716.0 0
60069.6 375418.0 0
56859.0 375264.0 0
63822.0 375155.0 0
67930.6 375406.0 0
72062.8 375094.0 0
76799.5 375274.0 0
80295.1 375495.0 0
84122.2 375037.0 0
87677.0 375815.0 0
90824.0 375573.0 0
95424.3 370206.0 0
93947.6 375670.0 0
99079.0 374655.0 0
103140.0 375653.0 0
111410.0 375164.0 0
107104.0 375229.0 0
114602.0 375092.0 0
115852.0 369807.0 0
120909.0 375193.0 0
117538.0 375962.0 0
124480.0 371126.0 0
129366.0 372034.0 0
131636.0 375299.0 0
134973.0 375283.0 0
138608.0 375160.0 0
141968.0 375169.0 0
145619.0 375450.0 0
151889.0 368687.0 0
149394.0 375333.0 0
153601.0 375941.0 0
158348.0 375629.0 0
162691.0 375647.0 0
166096.0 375543.0 0
169592.0 375333.0 0
173671.0 375173.0 0
177757.0 375353.0 0
181433.0 372590.0 0
183314.0 376432.0 0
185642.0 375128.0 0
188174.0 376895.0 0
190383.0 373578.0 0
198191.0 375124.0 0
194385.0 375608.0 0
204810.0 371062.0 0
210080.0 372445.0 0
219365.0 372351.0 0
224070.0 369968.0 0
228686.0 371935.0 0
233747.0 370982.0 0
237579.0 373537.0 0
241587.0 370999.0 0
249678.0 373315.0 0
245306.0 373798.0 0
254582.0 373476.0 0
260844.0 371621.0 0
267600.0 371452.0 0
272933.0 373753.0 0
278438.0 373583.0 0
282704.0 373179.0 0
286306.0 373452.0 0
290715.0 373330.0 0
295509.0 373961.0 0
300989.0 376205.0 0
304848.0 372690.0 0
309190.0 375611.0 0
313339.0 369172.0 0
316664.0 375168.0 0
318757.0 376787.0 0
320993.0 375261.0 0
325139.0 375185.0 0
329382.0 375383.0 0
333612.0 369688.0 0
338065.0 375267.0 0
341956.0 375221.0 0
345207.0 373382.0 0
347880.0 371219.0 0
349672.0 375231.0 0
353758.0 375122.0 0
358923.0 375335.0 0
362656.0 376114.0 0
366205.0 375321.0 0
371350.0 375372.0 0
375333.0 371153.0 0
374811.0 375223.0 0
376396.0 377541.0 0
378710.0 375134.0 0
383397.0 375631.0 0
387672.0 375097.0 0
391114.0 375403.0 0
395001.0 375060.0 0
399771.0 375334.0 0
404459.0 375049.0 0
412946.0 371189.0 0
408681.0 375271.0 0
411732.0 375773.0 0
416594.0 375088.0 0
420434.0 375145.0 0
424334.0 375532.0 0
427532.0 375475.0 0
431719.0 375062.0 0
434165.0 370335.0 0
432261.0 367917.0 0
436352.0 375515.0 0
438920.0 371122.0 0
444145.0 368901.0 0
447378.0 375101.0 0
452429.0 375015.0 0
455903.0 370780.0 0
460759.0 370931.0 0
464687.0 373054.0 0
467489.0 375497.0 0
470872.0 375172.0 0
473703.0 375804.0 0
477008.0 375316.0 0
478866.0 370181.0 0
484068.0 368595.0 0
488011.0 375266.0 0
484301.0 375465.0 0
492303.0 375098.0 0
497412.0 375364.0 0
2300.99 378290.0 0
1313.19 381233.0 0
4507.71 381803.0 0
6510.47 378952.0 0
10598.0 379601.0 0
14586.8 379907.0 0
17537.1 375529.0 0
18417.1 380189.0 0
21431.7 376788.0 0
22411.9 380493.0 0
25403.1 377882.0 0
29029.5 378613.0 0
26002.0 381399.0 0
35047.1 378041.0 0
32183.5 379556.0 0
39025.5 378175.0 0
38318.4 380993.0 0
35534.6 381252.0 0
42788.9 378018.0 0
41251.5 380017.0 0
44177.4 380653.0 0
46603.2 378656.0 0
50723.3 379391.0 0
47939.2 381898.0 0
54082.4 379438.0 0
56824.8 378238.0 0
60037.2 377886.0 0
59029.5 381521.0 0
63097.4 378925.0 0
66507.6 380239.0 0
66332.9 377533.0 0
69802.1 378846.0 0
71230.1 381870.0 0
74783.2 379082.0 0
79053.1 378013.0 0
82066.7 377706.0 0
78550.3 380819.0 0
81140.0 379433.0 0
85259.6 379153.0 0
89877.6 379171.0 0
96647.5 377968.0 0
93707.7 380417.0 0
100811.0 379137.0 0
105123.0 379083.0 0
109740.0 378998.0 0
117113.0 378965.0 0
113998.0 377888.0 0
114259.0 381405.0 0
118176.0 380902.0 0
120842.0 378880.0 0
123866.0 376241.0 0
127282.0 376624.0 0
124580.0 380317.0 0
131154.0 378029.0 0
128835.0 381364.0 0
135166.0 378672.0 0
138784.0 377935.0 0
142425.0 378328.0 0
139050.0 381616.0 0
146841.0 378745.0 0
143971.0 381566.0 0
150312.0 378432.0 0
152694.0 380524.0 0
156565.0 380337.0 0
161276.0 379203.0 0
168102.0 378197.0 0
164867.0 379030.0 0
167378.0 381645.0 0
171094.0 377351.0 0
170625.0 380115.0 0
172920.0 378279.0 0
176059.0 378199.0 0
178534.0 380845.0 0
174239.0 381049.0 0
180230.0 377148.0 0
182314.0 379161.0 0
185958.0 379607.0 0
191359.0 378370.0 0
189992.0 381964.0 0
195427.0 379208.0 0
196453.0 382256.0 0
199425.0 378324.0 0
204257.0 378416.0 0
206325.0 375544.0 0
210317.0 377063.0 0
214486.0 379095.0 0
214478.0 374298.0 0
218926.0 377220.0 0
223699.0 374519.0 0
227935.0 377556.0 0
232459.0 375601.0 0
236443.0 378596.0 0
241400.0 376785.0 0
246314.0 379028.0 0
251191.0 377384.0 0
262994.0 378278.0 0
268171.0 376640.0 0
272160.0 378875.0 0
276973.0 378536.0 0
282189.0 377905.0 0
286541.0 377103.0 0
292300.0 377787.0 0
296924.0 377634.0 0
305909.0 376977.0 0
303070.0 379484.0 0
306663.0 380561.0 0
309291.0 379557.0 0
313123.0 375725.0 0
312490.0 379180.0 0
316446.0 379237.0 0
320672.0 378923.0 0
320155.0 382222.0 0
323617.0 378132.0 0
323804.0 380877.0 0
327636.0 378837.0 0
332611.0 376566.0 0
335712.0 375469.0 0
335941.0 379984.0 0
339754.0 378168.0 0
344655.0 377318.0 0
342391.0 380553.0 0
347009.0 375987.0 0
349753.0 377865.0 0
347605.0 381084.0 0
352335.0 378261.0 0
356307.0 378876.0 0
352313.0 380848.0 0
361405.0 378982.0 0
359143.0 381587.0 0
365741.0 380144.0 0
369427.0 378576.0 0
370699.0 382003.0 0
373292.0 378908.0 0
377471.0 380265.0 0
380102.0 378474.0 0
384179.0 380518.0 0
388090.0 378068.0 0
388852.0 381675.0 0
392317.0 378981.0 0
396836.0 378766.0 0
395529.0 382540.0 0
400595.0 378587.0 0
407618.0 378274.0 0
403417.0 378554.0 0
411374.0 379513.0 0
408700.0 381928.0 0
414771.0 377111.0 0
414844.0 381101.0 0
419026.0 378961.0 0
428384.0 378868.0 0
423802.0 378870.0 0
433011.0 378600.0 0
438397.0 379283.0 0
440658.0 375838.0 0
442612.0 380612.0 0
443583.0 375346.0 0
444043.0 377628.0 0
447142.0 378660.0 0
450186.0 377133.0 0
451003.0 380030.0 0
457945.0 375227.0 0
454752.0 377790.0 0
458566.0 379913.0 0
461682.0 376357.0 0
465355.0 377943.0 0
470017.0 378535.0 0
474142.0 378897.0 0
471994.0 381914.0 0
478637.0 379719.0 0
480899.0 375713.0 0
483741.0 378714.0 0
488125.0 378768.0 0
493080.0 378618.0 0
498049.0 379464.0 0
1822.3 383895.0 0
1717.03 386623.0 0
8027.23 382511.0 0
5260.18 384844.0 0
9109.17 386101.0 0
11832.7 383389.0 0
15764.7 384035.0 0
24525.2 384374.0 0
20428.5 384532.0 0
29649.2 382239.0 0
27968.2 385064.0 0
32720.7 382901.0 0
31833.9 386509.0 0
36358.0 384900.0 0
40893.3 383566.0 0
45369.0 384092.0 0
49032.8 384843.0 0
51439.5 383326.0 0
55117.2 382587.0 0
54230.9 386402.0 0
58568.0 385976.0 0
63487.0 383740.0 0
68204.2 383018.0 0
70966.6 385414.0 0
67054.7 386887.0 0
74339.8 383344.0 0
77713.4 383708.0 0
80091.7 386831.0 0
82062.4 382440.0 0
86500.8 382865.0 0
84071.7 386036.0 0
90395.2 383974.0 0
94698.4 385434.0 0
97994.5 382407.0 0
100545.0 385054.0 0
106913.0 382628.0 0
102831.0 382519.0 0
104829.0 385888.0 0
110773.0 383028.0 0
109078.0 386327.0 0
116918.0 383589.0 0
113631.0 385955.0 0
121301.0 383300.0 0
126168.0 385316.0 0
130966.0 385305.0 0
133533.0 382130.0 0
136492.0 384183.0 0
134326.0 385849.0 0
142133.0 384202.0 0
139351.0 385256.0 0
145597.0 385251.0 0
148915.0 382552.0 0
153243.0 384466.0 0
156831.0 385197.0 0
160346.0 382891.0 0
160146.0 386422.0 0
163028.0 385860.0 0
164028.0 382416.0 0
166839.0 385176.0 0
171310.0 384294.0 0
175769.0 383581.0 0
182212.0 382433.0 0
179049.0 384957.0 0
186216.0 383670.0 0
183687.0 386505.0 0
193490.0 382076.0 0
188925.0 386663.0 0
192250.0 384981.0 0
198935.0 385325.0 0
195177.0 385102.0 0
199208.0 382092.0 0
203887.0 382838.0 0
209832.0 382510.0 0
218997.0 381909.0 0
214997.0 383455.0 0
223281.0 379286.0 0
222746.0 383616.0 0
226807.0 382330.0 0
232166.0 382590.0 0
237618.0 382877.0 0
241740.0 381858.0 0
247455.0 383964.0 0
251442.0 381932.0 0
256443.0 379428.0 0
257672.0 384209.0 0
261131.0 383247.0 0
267891.0 382304.0 0
273194.0 383269.0 0
279319.0 382765.0 0
284137.0 382834.0 0
288353.0 380615.0 0
292229.0 383394.0 0
300326.0 381413.0 0
295934.0 380709.0 0
304367.0 383136.0 0
301202.0 385334.0 0
308542.0 383468.0 0
311621.0 382189.0 0
315473.0 383558.0 0
311429.0 386284.0 0
319691.0 385736.0 0
323293.0 383906.0 0
326984.0 382903.0 0
322829.0 386375.0 0
331127.0 380969.0 0
330670.0 385400.0 0
333706.0 383936.0 0
339605.0 382718.0 0
336838.0 384627.0 0
339686.0 386669.0 0
343500.0 384544.0 0
351727.0 384089.0 0
348441.0 386350.0 0
355395.0 383116.0 0
358741.0 385665.0 0
362664.0 383460.0 0
367582.0 385304.0 0
375080.0 382051.0 0
373100.0 385468.0 0
379916.0 381898.0 0
377693.0 385106.0 0
382691.0 385009.0 0
392216.0 383243.0 0
387362.0 385348.0 0
396415.0 385356.0 0
392353.0 387422.0 0
400258.0 382406.0 0
400466.0 386588.0 0
404805.0 382159.0 0
404447.0 385649.0 0
408265.0 385235.0 0
411844.0 383482.0 0
415397.0 385214.0 0
418474.0 383029.0 0
422448.0 383008.0 0
419910.0 386667.0 0
426513.0 382369.0 0
428596.0 385460.0 0
424706.0 386660.0 0
430794.0 382370.0 0
432532.0 386163.0 0
435091.0 382589.0 0
436694.0 385926.0 0
442827.0 385032.0 0
439415.0 383669.0 0
446871.0 382250.0 0
446657.0 385986.0 0
454227.0 382169.0 0
450746.0 384038.0 0
454238.0 385953.0 0
457761.0 384056.0 0
462584.0 381475.0 0
461165.0 385332.0 0
467771.0 382261.0 0
464959.0 384990.0 0
475166.0 383010.0 0
470884.0 385376.0 0
478869.0 384556.0 0
482123.0 382122.0 0
483608.0 385984.0 0
485978.0 382090.0 0
488242.0 385401.0 0
490324.0 382342.0 0
494740.0 382955.0 0
492693.0 386611.0 0
498585.0 383482.0 0
1200.52 389156.0 0
5576.62 388834.0 0
10020.3 390106.0 0
13007.9 387445.0 0
17196.2 388742.0 0
21965.9 389144.0 0
25114.7 387431.0 0
28546.4 388388.0 0
26337.4 390790.0 0
30894.4 391641.0 0
35338.4 389392.0 0
39714.5 387498.0 0
39157.1 390059.0 0
43368.4 387387.0 0
42064.2 390531.0 0
45381.2 389931.0 0
47362.8 387342.0 0
49341.1 391013.0 0
51044.7 387311.0 0
53916.3 390633.0 0
56310.2 388509.0 0
58613.0 390359.0 0
62472.8 388460.0 0
66026.4 390654.0 0
70480.5 389233.0 0
75063.6 387779.0 0
78733.4 391008.0 0
83504.2 390250.0 0
87122.6 387218.0 0
90843.9 388668.0 0
87309.6 390836.0 0
94735.3 390507.0 0
98141.6 387480.0 0
98953.6 391509.0 0
101971.0 388620.0 0
106743.0 390151.0 0
111527.0 389600.0 0
115209.0 389658.0 0
118146.0 387196.0 0
122422.0 388093.0 0
118936.0 391622.0 0
126589.0 391054.0 0
122601.0 391075.0 0
129389.0 388364.0 0
130715.0 390789.0 0
132806.0 388496.0 0
137247.0 388184.0 0
141908.0 387521.0 0
140672.0 391938.0 0
145719.0 389208.0 0
149927.0 387063.0 0
149596.0 391140.0 0
154279.0 389658.0 0
158323.0 388595.0 0
161348.0 389292.0 0
165206.0 388948.0 0
169696.0 388476.0 0
171763.0 391540.0 0
175010.0 388109.0 0
180179.0 387827.0 0
182885.0 390074.0 0
179155.0 391411.0 0
186650.0 390069.0 0
192770.0 387953.0 0
190607.0 390181.0 0
193886.0 391983.0 0
195998.0 388362.0 0
198618.0 391843.0 0
199285.0 388374.0 0
203241.0 388917.0 0
206850.0 387018.0 0
212477.0 387519.0 0
216831.0 386938.0 0
221010.0 387825.0 0
226442.0 387494.0 0
231363.0 387660.0 0
236649.0 387793.0 0
242915.0 387262.0 0
247730.0 388068.0 0
251600.0 386481.0 0
256124.0 387989.0 0
260869.0 387529.0 0
265853.0 387634.0 0
270701.0 386756.0 0
276242.0 387022.0 0
281543.0 387246.0 0
287852.0 384908.0 0
285928.0 388316.0 0
290970.0 388250.0 0
296070.0 385989.0 0
301272.0 389638.0 0
305970.0 387019.0 0
304953.0 390813.0 0
309703.0 390455.0 0
316059.0 388982.0 0
313383.0 391751.0 0
320964.0 389087.0 0
323548.0 388586.0 0
326458.0 386912.0 0
329917.0 389214.0 0
334665.0 388510.0 0
339309.0 390530.0 0
344208.0 389604.0 0
349663.0 390435.0 0
354245.0 388174.0 0
359322.0 389316.0 0
363133.0 387938.0 0
366940.0 390728.0 0
370845.0 388182.0 0
371497.0 391298.0 0
375525.0 389383.0 0
380483.0 388493.0 0
384657.0 388234.0 0
383796.0 391587.0 0
388601.0 390435.0 0
396663.0 389448.0 0
403515.0 388954.0 0
400391.0 390480.0 0
407423.0 389081.0 0
411823.0 387103.0 0
411920.0 390876.0 0
416329.0 389407.0 0
421870.0 389827.0 0
425763.0 390428.0 0
429166.0 388948.0 0
433026.0 390362.0 0
434852.0 387848.0 0
436657.0 389019.0 0
439785.0 387574.0 0
440627.0 390606.0 0
444213.0 389238.0 0
449924.0 388607.0 0
458390.0 387986.0 0
454645.0 389441.0 0
463008.0 387886.0 0
461167.0 390154.0 0
467216.0 387731.0 0
464685.0 390701.0 0
470846.0 388926.0 0
473377.0 391192.0 0
475145.0 387042.0 0
477251.0 390312.0 0
479749.0 388265.0 0
483572.0 390016.0 0
488239.0 389659.0 0
493534.0 390979.0 0
497648.0 387089.0 0
498189.0 390928.0 0
2047.79 392244.0 0
1989.65 396065.0 0
6390.42 393845.0 0
9049.17 396853.0 0
14328.3 392296.0 0
10431.8 393911.0 0
12305.2 396697.0 0
19208.3 392896.0 0
23317.0 392929.0 0
27281.5 394781.0 0
34942.8 393628.0 0
38789.2 393173.0 0
37506.4 397005.0 0
41877.0 393477.0 0
45021.3 393555.0 0
41589.9 396183.0 0
48656.9 395301.0 0
52343.8 394091.0 0
54401.2 396611.0 0
57262.5 394096.0 0
60989.5 396787.0 0
61975.8 392836.0 0
65927.7 395127.0 0
69476.2 392579.0 0
70774.4 395901.0 0
73969.5 392434.0 0
74849.4 396856.0 0
77740.6 394462.0 0
81698.6 393986.0 0
85758.2 394078.0 0
90535.9 393874.0 0
95844.5 395297.0 0
100866.0 395775.0 0
103344.0 392269.0 0
106253.0 395678.0 0
109682.0 393098.0 0
110567.0 396609.0 0
114421.0 393943.0 0
119358.0 395777.0 0
122981.0 394081.0 0
126586.0 396148.0 0
130327.0 394084.0 0
134871.0 392278.0 0
137648.0 396009.0 0
133582.0 396313.0 0
145688.0 392863.0 0
143337.0 396545.0 0
152629.0 393619.0 0
148768.0 394968.0 0
155811.0 394763.0 0
158545.0 392248.0 0
162783.0 392625.0 0
160123.0 396437.0 0
167686.0 392352.0 0
165328.0 395973.0 0
170985.0 395851.0 0
174995.0 393227.0 0
175482.0 396841.0 0
179317.0 395583.0 0
184116.0 393979.0 0
187466.0 397070.0 0
189008.0 393230.0 0
192246.0 395890.0 0
197673.0 396403.0 0
203341.0 392564.0 0
208970.0 392805.0 0
214291.0 393983.0 0
215974.0 390653.0 0
220034.0 392775.0 0
225211.0 392967.0 0
230553.0 392315.0 0
235446.0 393220.0 0
240027.0 392386.0 0
245806.0 393016.0 0
252776.0 393005.0 0
259138.0 392371.0 0
263629.0 391883.0 0
269645.0 391891.0 0
274001.0 391147.0 0
278042.0 392288.0 0
282891.0 391658.0 0
286736.0 391983.0 0
290992.0 393735.0 0
295740.0 390937.0 0
301885.0 394111.0 0
306027.0 393430.0 0
308772.0 394552.0 0
315831.0 393492.0 0
312258.0 394398.0 0
320225.0 392450.0 0
318479.0 395849.0 0
325702.0 392005.0 0
323190.0 396825.0 0
331441.0 392984.0 0
335848.0 393386.0 0
339448.0 393706.0 0
342512.0 394027.0 0
346639.0 393331.0 0
345365.0 396179.0 0
350183.0 393548.0 0
348699.0 396784.0 0
353457.0 392697.0 0
352459.0 395695.0 0
355819.0 396613.0 0
357652.0 392605.0 0
360818.0 396741.0 0
362380.0 392216.0 0
365437.0 395040.0 0
369312.0 393846.0 0
374645.0 394856.0 0
379348.0 392412.0 0
379734.0 396609.0 0
382817.0 394891.0 0
387449.0 395233.0 0
393593.0 393444.0 0
398482.0 392634.0 0
403121.0 392975.0 0
398849.0 395543.0 0
407869.0 392556.0 0
406563.0 395638.0 0
411197.0 394834.0 0
415407.0 393660.0 0
419426.0 392572.0 0
419191.0 396404.0 0
423920.0 394091.0 0
428882.0 393251.0 0
433510.0 394348.0 0
430316.0 396746.0 0
437394.0 392058.0 0
437605.0 396250.0 0
442220.0 394259.0 0
447023.0 392890.0 0
452318.0 392621.0 0
449818.0 395928.0 0
453959.0 396463.0 0
457507.0 392922.0 0
462105.0 393009.0 0
461359.0 396403.0 0
468347.0 391772.0 0
465319.0 394798.0 0
469151.0 396774.0 0
471162.0 393746.0 0
473700.0 395720.0 0
476436.0 393368.0 0
480631.0 392565.0 0
482825.0 395634.0 0
485323.0 393029.0 0
489124.0 393257.0 0
487003.0 396591.0 0
492410.0 395306.0 0
497661.0 394855.0 0
1513.77 399647.0 0
5758.37 398728.0 0
10026.0 399856.0 0
13393.5 400372.0 0
16847.6 396961.0 0
19942.1 400033.0 0
22567.7 397027.0 0
26930.0 399471.0 0
32181.6 397041.0 0
36380.7 400731.0 0
45047.2 398022.0 0
40776.1 399901.0 0
44949.1 401986.0 0
50630.9 399956.0 0
57255.9 399387.0 0
64433.5 398794.0 0
61685.2 401230.0 0
68449.8 399182.0 0
72024.4 399229.0 0
74987.8 400854.0 0
79467.7 398294.0 0
83886.5 397145.0 0
84051.7 401531.0 0
87567.8 397785.0 0
88468.5 401722.0 0
92305.8 398870.0 0
94867.0 401589.0 0
98143.2 399973.0 0
103615.0 400159.0 0
108760.0 399750.0 0
116440.0 397741.0 0
113052.0 398766.0 0
116810.0 401156.0 0
119571.0 398967.0 0
122880.0 398164.0 0
126488.0 400524.0 0
130138.0 398488.0 0
134410.0 400456.0 0
139389.0 399680.0 0
143674.0 401944.0 0
147991.0 398824.0 0
152406.0 397039.0 0
151839.0 400870.0 0
156082.0 398832.0 0
160170.0 401608.0 0
163450.0 399046.0 0
168019.0 399610.0 0
164681.0 401838.0 0
178062.0 398963.0 0
173668.0 401155.0 0
182627.0 398657.0 0
179240.0 401962.0 0
186678.0 401248.0 0
190890.0 400085.0 0
194406.0 399326.0 0
196559.0 400891.0 0
199258.0 400323.0 0
203826.0 397288.0 0
213771.0 397383.0 0
217489.0 396565.0 0
222063.0 397499.0 0
227221.0 397774.0 0
232706.0 397638.0 0
238339.0 397246.0 0
242767.0 397176.0 0
247557.0 398728.0 0
251431.0 397803.0 0
255406.0 398600.0 0
260419.0 397548.0 0
265300.0 395892.0 0
270821.0 398056.0 0
275984.0 396555.0 0
281186.0 397472.0 0
286639.0 396386.0 0
290824.0 399069.0 0
296012.0 396588.0 0
305781.0 396907.0 0
301386.0 398286.0 0
304958.0 400687.0 0
310030.0 397471.0 0
308190.0 400278.0 0
314506.0 397882.0 0
311540.0 401203.0 0
318870.0 399750.0 0
322309.0 400976.0 0
326109.0 400891.0 0
328754.0 397086.0 0
331287.0 401895.0 0
333815.0 397504.0 0
336400.0 401132.0 0
338558.0 397170.0 0
341145.0 400894.0 0
342931.0 397614.0 0
346289.0 400218.0 0
352175.0 399924.0 0
357186.0 400434.0 0
360892.0 400754.0 0
364658.0 399171.0 0
369453.0 397957.0 0
373947.0 399300.0 0
377353.0 399304.0 0
375568.0 401679.0 0
380543.0 399894.0 0
383529.0 398207.0 0
386814.0 399690.0 0
391544.0 398626.0 0
395953.0 397486.0 0
395702.0 400436.0 0
402628.0 397296.0 0
399429.0 399877.0 0
405797.0 398488.0 0
404216.0 401357.0 0
409591.0 399231.0 0
414945.0 398149.0 0
423073.0 398570.0 0
419123.0 401719.0 0
427021.0 397107.0 0
426310.0 400414.0 0
433590.0 398696.0 0
429477.0 400075.0 0
437435.0 401061.0 0
441137.0 398395.0 0
445868.0 398125.0 0
450715.0 399757.0 0
457867.0 397204.0 0
455569.0 400352.0 0
460010.0 400178.0 0
464607.0 399186.0 0
468560.0 400599.0 0
473290.0 399853.0 0
478315.0 397222.0 0
482913.0 399325.0 0
486591.0 400855.0 0
490604.0 399818.0 0
495441.0 398798.0 0
498876.0 398411.0 0
498307.0 401796.0 0
2917.27 403741.0 0
7734.02 402580.0 0
8030.72 406756.0 0
11457.6 403773.0 0
17003.0 403909.0 0
22752.5 402184.0 0
22132.3 406663.0 0
26691.7 404329.0 0
31768.8 402467.0 0
38582.2 402338.0 0
36403.7 405329.0 0
41250.7 404253.0 0
47987.4 404025.0 0
54715.7 403386.0 0
51383.1 406574.0 0
58589.5 403548.0 0
65959.2 402487.0 0
62282.5 406228.0 0
70981.3 402790.0 0
67678.8 406621.0 0
74837.0 404120.0 0
72742.0 407093.0 0
78658.3 402913.0 0
77228.8 407049.0 0
82008.2 405772.0 0
87158.4 406158.0 0
96685.8 403987.0 0
92200.1 404385.0 0
101007.0 405047.0 0
106703.0 403970.0 0
112357.0 403163.0 0
121841.0 402517.0 0
117488.0 405037.0 0
126941.0 405588.0 0
130039.0 402195.0 0
132930.0 405761.0 0
138300.0 404231.0 0
142527.0 406876.0 0
146409.0 405284.0 0
148095.0 402422.0 0
150761.0 405721.0 0
155352.0 403287.0 0
158633.0 406588.0 0
164038.0 406021.0 0
168884.0 404381.0 0
172652.0 405990.0 0
176741.0 405389.0 0
183318.0 402612.0 0
181474.0 405588.0 0
185929.0 405260.0 0
190213.0 404170.0 0
194186.0 402656.0 0
198164.0 403824.0 0
194436.0 407172.0 0
202773.0 402114.0 0
209348.0 399846.0 0
215041.0 401572.0 0
219447.0 402063.0 0
222488.0 401923.0 0
226596.0 403430.0 0
231856.0 402676.0 0
236981.0 402368.0 0
242094.0 401503.0 0
246586.0 403532.0 0
252500.0 402067.0 0
255621.0 403325.0 0
260430.0 402777.0 0
266082.0 402158.0 0
271360.0 403913.0 0
275869.0 401164.0 0
280668.0 403344.0 0
285999.0 401498.0 0
295262.0 402701.0 0
301588.0 403203.0 0
307628.0 405027.0 0
315694.0 402203.0 0
312755.0 404683.0 0
319545.0 403671.0 0
316529.0 406207.0 0
323508.0 404067.0 0
327585.0 404244.0 0
334729.0 405042.0 0
339248.0 404316.0 0
344023.0 404221.0 0
349412.0 403999.0 0
354594.0 403997.0 0
359260.0 403627.0 0
363480.0 402824.0 0
362330.0 406468.0 0
366338.0 406210.0 0
372111.0 402074.0 0
367634.0 402292.0 0
370658.0 405576.0 0
375546.0 405378.0 0
378882.0 402466.0 0
380059.0 406114.0 0
383496.0 402640.0 0
383419.0 407158.0 0
386616.0 405954.0 0
388760.0 402625.0 0
393157.0 403091.0 0
397244.0 403337.0 0
395194.0 405888.0 0
401094.0 403621.0 0
404872.0 406348.0 0
408238.0 403124.0 0
410658.0 406943.0 0
413462.0 402673.0 0
416859.0 406009.0 0
422338.0 406254.0 0
423770.0 402464.0 0
427540.0 403895.0 0
432418.0 402866.0 0
431066.0 406491.0 0
436231.0 406447.0 0
442889.0 402058.0 0
439575.0 403779.0 0
441049.0 405720.0 0
447636.0 402673.0 0
444730.0 406248.0 0
452777.0 403752.0 0
458002.0 404390.0 0
462361.0 402549.0 0
462404.0 406280.0 0
465827.0 403268.0 0
470005.0 403882.0 0
474231.0 404049.0 0
478699.0 402352.0 0
476754.0 406892.0 0
484104.0 403716.0 0
480776.0 406926.0 0
489039.0 404237.0 0
494051.0 403097.0 0
492924.0 406825.0 0
497678.0 405690.0 0
2997.02 409546.0 0
8648.76 411835.0 0
12716.5 408294.0 0
17924.2 409638.0 0
22824.4 411557.0 0
26108.4 408646.0 0
31104.3 407781.0 0
35956.2 410288.0 0
40718.9 409053.0 0
45635.2 407287.0 0
48875.8 410628.0 0
52980.9 411102.0 0
56844.0 407756.0 0
60786.6 410666.0 0
57052.6 411738.0 0
64676.9 409998.0 0
69545.3 411677.0 0
75118.3 411261.0 0
79831.8 408896.0 0
79557.1 412120.0 0
83498.8 409552.0 0
91778.7 408769.0 0
87604.6 410941.0 0
96552.7 407751.0 0
95818.5 412045.0 0
100754.0 410798.0 0
104533.0 408086.0 0
109937.0 408533.0 0
114618.0 407199.0 0
114786.0 411077.0 0
121523.0 407536.0 0
117644.0 408733.0 0
119580.0 411757.0 0
125072.0 411491.0 0
129802.0 409565.0 0
134066.0 410693.0 0
138290.0 408839.0 0
142600.0 411470.0 0
146779.0 409270.0 0
151147.0 411047.0 0
154334.0 407649.0 0
156121.0 411546.0 0
161621.0 410933.0 0
165547.0 409581.0 0
169503.0 409756.0 0
174437.0 409352.0 0
176933.0 412299.0 0
179246.0 408996.0 0
184193.0 408973.0 0
189095.0 408525.0 0
198001.0 410800.0 0
199014.0 407391.0 0
202500.0 406941.0 0
206576.0 405392.0 0
209023.0 409679.0 0
213252.0 406909.0 0
217781.0 406901.0 0
222500.0 406765.0 0
228106.0 408655.0 0
233060.0 407229.0 0
237936.0 407209.0 0
242687.0 406113.0 0
247780.0 407770.0 0
251841.0 406306.0 0
256052.0 407534.0 0
260487.0 407827.0 0
265261.0 407531.0 0
270267.0 409224.0 0
276229.0 407434.0 0
284704.0 407263.0 0
290047.0 404989.0 0
295729.0 409293.0 0
302599.0 407728.0 0
307356.0 410860.0 0
312323.0 408715.0 0
320762.0 407300.0 0
317365.0 410800.0 0
325475.0 407595.0 0
322666.0 411517.0 0
330403.0 407220.0 0
327692.0 411260.0 0
331359.0 411487.0 0
334341.0 409444.0 0
337921.0 407593.0 0
341776.0 408035.0 0
338598.0 411592.0 0
346808.0 408147.0 0
351946.0 408143.0 0
357403.0 408127.0 0
361531.0 409664.0 0
365305.0 410777.0 0
369115.0 408993.0 0
373143.0 409409.0 0
377660.0 409575.0 0
381676.0 410100.0 0
386295.0 410351.0 0
390869.0 407108.0 0
390820.0 411818.0 0
395001.0 409485.0 0
399210.0 407235.0 0
402684.0 410404.0 0
407376.0 411286.0 0
411734.0 411208.0 0
414617.0 409231.0 0
418784.0 410618.0 0
427048.0 408058.0 0
424000.0 411233.0 0
430102.0 409240.0 0
432988.0 410008.0 0
436993.0 411421.0 0
441069.0 409268.0 0
445853.0 410715.0 0
449471.0 407116.0 0
451452.0 411945.0 0
454692.0 407950.0 0
458852.0 408885.0 0
456138.0 411299.0 0
463531.0 410494.0 0
467041.0 407348.0 0
467952.0 412077.0 0
472201.0 408552.0 0
477327.0 411463.0 0
482220.0 410557.0 0
485972.0 408058.0 0
489728.0 407670.0 0
495319.0 409218.0 0
498544.0 409221.0 0
3913.18 415106.0 0
9104.95 416591.0 0
13846.1 413733.0 0
18878.2 413628.0 0
21671.3 415288.0 0
27896.4 412233.0 0
25544.9 415595.0 0
31960.4 412348.0 0
35063.9 414553.0 0
30728.1 416881.0 0
39669.7 414114.0 0
44803.1 412752.0 0
45697.9 417020.0 0
49680.0 414944.0 0
54587.0 415086.0 0
59225.4 414588.0 0
64261.4 414240.0 0
68856.4 416702.0 0
73030.6 415545.0 0
76713.5 414838.0 0
80067.2 416337.0 0
83877.7 413849.0 0
91106.4 412493.0 0
88225.1 415978.0 0
93122.6 415571.0 0
99035.3 414948.0 0
105874.0 412243.0 0
102974.0 415251.0 0
107111.0 415894.0 0
110869.0 413875.0 0
116312.0 415599.0 0
121546.0 415338.0 0
125658.0 416792.0 0
130169.0 414258.0 0
134879.0 414597.0 0
138595.0 413270.0 0
142456.0 416039.0 0
146654.0 413820.0 0
150812.0 415467.0 0
155138.0 416407.0 0
159177.0 415053.0 0
165852.0 412263.0 0
163426.0 415460.0 0
172943.0 413738.0 0
168592.0 415527.0 0
176890.0 416219.0 0
181498.0 413197.0 0
187206.0 412948.0 0
184543.0 416608.0 0
192866.0 412665.0 0
198013.0 415238.0 0
203166.0 411710.0 0
207312.0 413746.0 0
212615.0 412278.0 0
217631.0 411660.0 0
222347.0 411774.0 0
226390.0 413087.0 0
231487.0 411923.0 0
236444.0 411949.0 0
241647.0 410744.0 0
247129.0 412882.0 0
253265.0 411969.0 0
258482.0 412165.0 0
262445.0 411560.0 0
266597.0 413125.0 0
273893.0 412799.0 0
278325.0 413108.0 0
280736.0 409981.0 0
282502.0 413068.0 0
289652.0 410241.0 0
286336.0 414009.0 0
291143.0 414784.0 0
301792.0 412285.0 0
305242.0 414900.0 0
301710.0 417195.0 0
308423.0 415551.0 0
312301.0 413833.0 0
317166.0 415519.0 0
325609.0 414382.0 0
321790.0 416057.0 0
329973.0 415623.0 0
334653.0 413958.0 0
339159.0 416621.0 0
343692.0 412834.0 0
343564.0 417064.0 0
349245.0 412746.0 0
351603.0 416517.0 0
354404.0 412722.0 0
360292.0 413874.0 0
365641.0 416177.0 0
370202.0 413235.0 0
375421.0 413211.0 0
373417.0 416315.0 0
379383.0 413348.0 0
383075.0 413860.0 0
387470.0 415338.0 0
392161.0 415505.0 0
394565.0 413177.0 0
396623.0 416966.0 0
398655.0 412400.0 0
400318.0 415352.0 0
403588.0 414579.0 0
407810.0 414573.0 0
411309.0 415070.0 0
414713.0 412367.0 0
416513.0 415968.0 0
421030.0 414326.0 0
425464.0 416435.0 0
428881.0 412424.0 0
433318.0 414059.0 0
430010.0 416549.0 0
437565.0 415843.0 0
440741.0 413252.0 0
443955.0 413971.0 0
447248.0 415190.0 0
451188.0 416772.0 0
455693.0 415362.0 0
459896.0 412926.0 0
460856.0 417050.0 0
464331.0 414550.0 0
472342.0 413221.0 0
469555.0 417242.0 0
474900.0 415233.0 0
478097.0 416430.0 0
481785.0 414475.0 0
485601.0 412389.0 0
486292.0 416845.0 0
490955.0 412290.0 0
494260.0 416682.0 0
497387.0 413141.0 0
1701.09 418921.0 0
5792.48 419806.0 0
9450.05 420715.0 0
13170.9 419082.0 0
18069.5 417827.0 0
20055.8 421395.0 0
22619.4 418616.0 0
26463.2 419639.0 0
29415.7 420607.0 0
32561.1 421842.0 0
36642.8 418804.0 0
41911.8 418256.0 0
45180.9 421342.0 0
48488.7 418911.0 0
49605.8 422201.0 0
52433.2 419112.0 0
57229.9 418746.0 0
60729.2 421943.0 0
61304.7 417895.0 0
65171.6 419613.0 0
70804.1 422005.0 0
75973.7 418744.0 0
80731.5 421092.0 0
84080.5 417908.0 0
91815.8 419393.0 0
87145.6 421282.0 0
96342.5 418016.0 0
100634.0 418881.0 0
105309.0 419312.0 0
110700.0 418904.0 0
115854.0 420864.0 0
120472.0 419092.0 0
124745.0 421635.0 0
129695.0 419684.0 0
133658.0 417594.0 0
137782.0 417366.0 0
140685.0 420403.0 0
147313.0 418459.0 0
143860.0 419056.0 0
151997.0 419759.0 0
156188.0 420408.0 0
160226.0 419154.0 0
164929.0 419243.0 0
172770.0 419005.0 0
168704.0 420131.0 0
177789.0 421555.0 0
180844.0 417767.0 0
183957.0 421203.0 0
188299.0 422375.0 0
188843.0 417899.0 0
193799.0 418031.0 0
191476.0 421204.0 0
198057.0 420368.0 0
194397.0 422092.0 0
203325.0 416841.0 0
208014.0 418296.0 0
212996.0 417479.0 0
217809.0 416748.0 0
221833.0 416742.0 0
225629.0 417349.0 0
230619.0 417380.0 0
236403.0 417168.0 0
242254.0 416842.0 0
247988.0 418416.0 0
252149.0 416969.0 0
256626.0 416616.0 0
261508.0 416676.0 0
266585.0 418933.0 0
272005.0 417125.0 0
277405.0 418281.0 0
283019.0 417440.0 0
288353.0 418864.0 0
293175.0 420066.0 0
296162.0 415843.0 0
305831.0 418535.0 0
302014.0 421367.0 0
309901.0 418825.0 0
313810.0 418205.0 0
318581.0 420942.0 0
325778.0 417998.0 0
324028.0 421816.0 0
329657.0 421259.0 0
334343.0 418594.0 0
338319.0 421549.0 0
342958.0 420660.0 0
347369.0 417831.0 0
351630.0 420725.0 0
356091.0 417873.0 0
361415.0 419587.0 0
365770.0 420550.0 0
369839.0 417716.0 0
369369.0 421409.0 0
373466.0 420220.0 0
377899.0 417419.0 0
380188.0 421088.0 0
383024.0 418130.0 0
387387.0 420257.0 0
390750.0 418298.0 0
393450.0 421975.0 0
401563.0 418265.0 0
398675.0 421150.0 0
407029.0 418480.0 0
412729.0 420019.0 0
417695.0 421268.0 0
420860.0 418144.0 0
428602.0 420453.0 0
433567.0 419167.0 0
438097.0 419536.0 0
442576.0 417964.0 0
440279.0 421958.0 0
447655.0 419727.0 0
452803.0 421033.0 0
457427.0 419611.0 0
461692.0 422028.0 0
464697.0 418405.0 0
467127.0 422168.0 0
471981.0 422366.0 0
474619.0 418808.0 0
478228.0 419820.0 0
481769.0 418939.0 0
485320.0 421294.0 0
490603.0 418480.0 0
494280.0 420717.0 0
498008.0 417878.0 0
498022.0 421728.0 0
2445.17 423011.0 0
7315.98 424671.0 0
12233.9 423783.0 0
16679.8 422481.0 0
15562.2 426871.0 0
20164.4 425618.0 0
23263.3 422434.0 0
24068.3 426008.0 0
28044.0 424335.0 0
33044.2 426415.0 0
36352.0 423639.0 0
40459.6 422429.0 0
43182.1 425202.0 0
47181.6 425401.0 0
55403.0 423573.0 0
51143.7 425299.0 0
60292.0 426666.0 0
65026.0 424442.0 0
68617.9 427060.0 0
76282.9 423372.0 0
80581.4 425232.0 0
83778.2 424445.0 0
87376.4 426868.0 0
92245.1 424327.0 0
97230.3 422308.0 0
102391.0 424123.0 0
108041.0 423541.0 0
112214.0 423478.0 0
115580.0 425766.0 0
120199.0 423870.0 0
124075.0 427071.0 0
129404.0 425524.0 0
135390.0 422486.0 0
140801.0 425539.0 0
144649.0 422383.0 0
145896.0 426635.0 0
149010.0 423043.0 0
150032.0 426879.0 0
153936.0 424312.0 0
157765.0 427368.0 0
158772.0 423352.0 0
162698.0 422505.0 0
162043.0 426370.0 0
166443.0 422883.0 0
167122.0 427025.0 0
170632.0 423546.0 0
174154.0 424295.0 0
177168.0 426543.0 0
181268.0 425056.0 0
185950.0 426427.0 0
191519.0 425440.0 0
197338.0 425733.0 0
297569.0 420884.0 0
301960.0 425334.0 0
306973.0 423360.0 0
312731.0 422481.0 0
311239.0 426880.0 0
316258.0 426516.0 0
321472.0 425848.0 0
326622.0 425714.0 0
334306.0 422900.0 0
331722.0 426314.0 0
337532.0 426783.0 0
342859.0 425148.0 0
347203.0 422725.0 0
351696.0 425528.0 0
356961.0 423429.0 0
362137.0 424205.0 0
366760.0 424607.0 0
372024.0 425463.0 0
376751.0 423085.0 0
376405.0 427126.0 0
380172.0 425637.0 0
383749.0 423025.0 0
388540.0 425270.0 0
397970.0 425391.0 0
403264.0 423225.0 0
409163.0 423862.0 0
414389.0 425185.0 0
419146.0 425273.0 0
423509.0 422437.0 0
426891.0 426448.0 0
431564.0 424497.0 0
436503.0 423003.0 0
435643.0 426927.0 0
440072.0 426397.0 0
444133.0 423202.0 0
448981.0 424813.0 0
453239.0 425434.0 0
456711.0 424064.0 0
460049.0 426806.0 0
464691.0 426605.0 0
469604.0 426571.0 0
474234.0 426637.0 0
476572.0 422787.0 0
478503.0 426397.0 0
481274.0 423267.0 0
489523.0 422813.0 0
485486.0 425735.0 0
493581.0 424505.0 0
497711.0 425750.0 0
2785.03 428040.0 0
1144.47 431710.0 0
7374.99 429145.0 0
11241.6 428135.0 0
14744.0 431626.0 0
18796.2 429541.0 0
23280.7 429735.0 0
28822.2 429852.0 0
34275.8 431131.0 0
38918.3 427647.0 0
44337.4 429481.0 0
49772.7 429337.0 0
55299.3 429383.0 0
60352.7 431777.0 0
64790.0 429241.0 0
69583.9 431725.0 0
72720.0 427611.0 0
74971.3 432030.0 0
77671.7 427854.0 0
82561.5 428366.0 0
86132.2 432499.0 0
91600.9 429929.0 0
97193.4 427958.0 0
99898.7 432514.0 0
102166.0 429207.0 0
106386.0 428250.0 0
111225.0 427622.0 0
109319.0 431684.0 0
115106.0 429701.0 0
119450.0 428728.0 0
117445.0 432449.0 0
127616.0 432276.0 0
134901.0 428835.0 0
139283.0 429167.0 0
138667.0 432155.0 0
142907.0 430473.0 0
148262.0 431122.0 0
153507.0 429621.0 0
163622.0 430459.0 0
168283.0 432085.0 0
172436.0 428305.0 0
176809.0 430838.0 0
181298.0 429388.0 0
185807.0 431781.0 0
189574.0 429645.0 0
193832.0 430088.0 0
198157.0 431067.0 0
302334.0 429782.0 0
306874.0 428562.0 0
310615.0 431531.0 0
315261.0 431120.0 0
319667.0 430356.0 0
324033.0 429495.0 0
328629.0 430297.0 0
333537.0 430976.0 0
337915.0 432183.0 0
342472.0 430399.0 0
347150.0 427544.0 0
351471.0 430523.0 0
347172.0 432383.0 0
355583.0 428379.0 0
359843.0 427900.0 0
363951.0 427768.0 0
368265.0 429398.0 0
373783.0 431286.0 0
379467.0 430165.0 0
384047.0 428055.0 0
388690.0 431114.0 0
393594.0 428100.0 0
398018.0 431364.0 0
401415.0 428187.0 0
403221.0 432549.0 0
406119.0 428117.0 0
408035.0 432296.0 0
410791.0 428499.0 0
417508.0 429615.0 0
422461.0 427888.0 0
421683.0 432514.0 0
426142.0 431122.0 0
430140.0 429218.0 0
434651.0 431499.0 0
440625.0 431852.0 0
444891.0 428263.0 0
449795.0 429865.0 0
455543.0 429747.0 0
462051.0 431872.0 0
467065.0 430415.0 0
471804.0 431432.0 0
477104.0 430591.0 0
481859.0 429006.0 0
486078.0 430287.0 0
490356.0 428032.0 0
494593.0 428110.0 0
493837.0 431781.0 0
497877.0 430113.0 0
4876.73 432991.0 0
1190.4 434245.0 0
2539.1 437469.0 0
9915.19 432580.0 0
7868.02 437260.0 0
12992.6 436485.0 0
19948.7 434428.0 0
25670.4 434232.0 0
30604.7 434750.0 0
35286.2 436259.0 0
38790.5 432858.0 0
39872.1 437223.0 0
42991.3 434212.0 0
47325.7 433588.0 0
52078.3 434044.0 0
56518.5 434317.0 0
60242.5 437249.0 0
64737.9 434351.0 0
68461.9 436545.0 0
72530.2 436239.0 0
80151.9 432587.0 0
77182.5 436423.0 0
91029.8 434543.0 0
95360.0 433311.0 0
98882.7 437143.0 0
104760.0 433172.0 0
109208.0 436527.0 0
113362.0 433470.0 0
121515.0 432838.0 0
118260.0 436740.0 0
123360.0 437041.0 0
131678.0 437313.0 0
133261.0 433369.0 0
136690.0 436119.0 0
141457.0 435102.0 0
145117.0 433992.0 0
148381.0 435284.0 0
152746.0 435138.0 0
158573.0 432695.0 0
164012.0 435152.0 0
173368.0 434784.0 0
168438.0 437056.0 0
177852.0 434226.0 0
181539.0 434625.0 0
185654.0 436296.0 0
190838.0 434904.0 0
196476.0 435152.0 0
302018.0 434445.0 0
305973.0 432775.0 0
305617.0 437318.0 0
309379.0 435705.0 0
313837.0 435671.0 0
319204.0 435623.0 0
324983.0 434479.0 0
330499.0 434968.0 0
335253.0 435669.0 0
341029.0 436777.0 0
346363.0 436337.0 0
350906.0 435715.0 0
356361.0 433506.0 0
362749.0 432627.0 0
368709.0 435135.0 0
378699.0 436148.0 0
383658.0 432893.0 0
387163.0 436109.0 0
391924.0 436872.0 0
393674.0 432948.0 0
397186.0 436551.0 0
402298.0 437269.0 0
405492.0 435642.0 0
412988.0 432826.0 0
409202.0 436927.0 0
417673.0 434675.0 0
421588.0 437046.0 0
426591.0 436289.0 0
429942.0 433167.0 0
432592.0 437078.0 0
437455.0 435893.0 0
442089.0 437407.0 0
446052.0 433522.0 0
451868.0 435195.0 0
457517.0 435181.0 0
462101.0 437367.0 0
467288.0 435280.0 0
475630.0 436264.0 0
481057.0 433886.0 0
485459.0 434136.0 0
489498.0 433037.0 0
493009.0 437138.0 0
497680.0 434446.0 0
4962.47 440450.0 0
11204.7 442151.0 0
17334.7 440116.0 0
22694.1 439220.0 0
27764.6 439110.0 0
32952.9 441052.0 0
38291.6 441668.0 0
43706.5 438306.0 0
48837.3 439052.0 0
54708.3 438461.0 0
58253.6 442194.0 0
65113.3 439747.0 0
70215.9 440136.0 0
74661.9 440407.0 0
78809.9 442308.0 0
82567.7 438088.0 0
86571.6 440952.0 0
88132.9 437651.0 0
90261.1 441448.0 0
93783.1 438160.0 0
100031.0 442469.0 0
104092.0 438688.0 0
107129.0 442187.0 0
111353.0 441369.0 0
113768.0 437783.0 0
116120.0 441283.0 0
120897.0 440553.0 0
127420.0 438275.0 0
124739.0 441218.0 0
135080.0 441733.0 0
140253.0 439691.0 0
145387.0 438400.0 0
150139.0 439426.0 0
154701.0 440472.0 0
159899.0 438714.0 0
164943.0 439943.0 0
169123.0 441474.0 0
173836.0 440644.0 0
178083.0 438038.0 0
182712.0 439368.0 0
187854.0 440147.0 0
193541.0 440708.0 0
198173.0 438915.0 0
301596.0 438490.0 0
304173.0 442296.0 0
310466.0 441071.0 0
316375.0 440039.0 0
322708.0 439353.0 0
327471.0 439582.0 0
332365.0 439401.0 0
337013.0 441822.0 0
345646.0 440084.0 0
342170.0 442633.0 0
350125.0 441003.0 0
354934.0 439146.0 0
360159.0 438118.0 0
365082.0 439394.0 0
369058.0 440158.0 0
373171.0 438751.0 0
376796.0 441342.0 0
380170.0 441181.0 0
383793.0 439519.0 0
388792.0 440916.0 0
394461.0 441193.0 0
399649.0 441350.0 0
405648.0 440402.0 0
411159.0 441977.0 0
414245.0 437858.0 0
418369.0 441251.0 0
424044.0 441316.0 0
429050.0 440860.0 0
437706.0 440692.0 0
447422.0 438283.0 0
444574.0 442002.0 0
449224.0 442129.0 0
453705.0 440664.0 0
458244.0 439568.0 0
465665.0 440208.0 0
470787.0 440079.0 0
477613.0 441916.0 0
481585.0 438809.0 0
483719.0 442600.0 0
487027.0 438722.0 0
491069.0 442140.0 0
497953.0 438848.0 0
495207.0 441716.0 0
94753.3 443149.0 0
162023.0 443655.0 0
320048.0 443452.0 0
324654.0 442935.0 0
358166.0 442760.0 0
371388.0 442835.0 0
461594.0 442973.0 0
POINT_DATA 5000
SCALARS Radius float 1
LOOKUP_TABLE default
5253.55 5782.6 6044.04 5415.48 5120.0 5580.89 6810.52 5529.52 6756.95 6324.23 3843.58 4270.53 5191.63 4861.06 5320.28 4797.52 4796.58 3979.26 4298.67 3471.03 5960.66 5820.48 7034.11 4862.21 5113.21 3929.19 4107.03 4478.15 5379.87 5925.6 4501.51 4792.73 4736.58 4931.38 3485.26 4329.05 4151.94 4049.23 5337.48 6124.89 5708.81 5252.48 4780.03 5495.39 3996.0 3856.1 4665.12 3383.4 4133.88 4834.9 3850.77 5085.53 3863.18 2356.98 4998.37 6182.6 5492.18 5258.36 5061.3 3642.12 3163.97 5812.43 5122.66 5906.14 5484.19 7513.1 5254.28 4436.4 5733.48 4672.91 3588.44 5645.7 5176.86 5840.26 3672.51 6110.27 5561.06 5073.35 3615.22 5670.04 4380.59 3589.27 6716.79 3607.45 5759.91 7613.27 4951.03 5255.32 6037.08 4523.7 5096.78 4129.43 6142.94 3320.52 4727.24 4194.5 5082.47 5344.25 5445.87 4593.7 4150.99 4704.72 4216.92 4177.94 4742.68 4344.58 5634.83 5495.84 6268.1 5374.51 6739.08 6326.39 4569.12 5873.69 6608.73 5011.84 6261.42 4502.5 3771.48 4043.57 4271.69 5681.38 4138.42 3708.04 5513.6 3240.09 4556.36 6082.81 3191.99 4685.34 5601.05 4929.8 3586.91 3103.0 3554.9 4015.92 5542.21 4487.31 3936.02 4044.71 5980.74 4094.62 5109.54 4927.02 5546.39 5325.36 5945.65 5484.83 5538.89 5351.6 4730.36 4715.55 5867.73 3951.75 5013.56 5701.86 4499.64 4375.68 5542.27 5054.98 6030.06 5170.02 3557.27 4927.31 4688.68 4402.52 4517.56 4182.53 5903.42 3968.64 3955.56 3761.32 4118.05 4366.19 5553.16 2938.66 4940.78 4231.61 4008.92 4003.05 3942.53 3379.84 4827.82 5227.21 3997.1 3260.67 5123.52 4091.31 3038.33 4392.68 4333.2 4295.38 7199.21 2240.39 5923.5 5091.39 5293.9 3912.37 4602.25 6691.39 4790.08 4763.45 5344.0 6045.46 3815.26 5908.1 6048.7 4571.7 5896.46 5022.8 3784.5 3780.23 4166.08 6481.79 5224.12 7042.12 4819.73 4471.58 6098.14 4962.09 3999.48 4203.26 4359.62 6946.21 2586.12 5433.8 4011.77 5499.11 4527.08 3633.87 5922.5 5198.77 5987.17 6013.14 2765.2 4901.41 5110.37 5664.98 4382.74 5927.43 4651.28 3693.63 4384.42 4516.43 5481.78 4948.92 5637.59 4937.14 5043.05 5816.2 5693.81 4174.52 6483.19 3829.13 6759.9 5418.62 7021.47 5416.38 6059.59 4955.55 2720.68 3563.63 4238.81 4345.55 4468.59 5885.03 2837.58 3871.88 5325.02 5200.76 5017.13 4862.64 5279.39 5185.34 3673.74 4432.58 5205.43 6684.56 7447.37 4688.67 2635.86 4385.06 5292.64 6166.5 5065.13 5936.02 5305.17 4861.08 5390.22 4805.87 4712.33 6038.78 5697.78 4667.36 6372.62 4254.17 5090.24 5615.42 7565.34 5530.87 4612.68 4281.49 4973.83 6342.25 4187.56 4840.84 5135.69 4020.32 4245.72 4156.38 4541.21 4164.68 6133.92 3719.84 4178.4 3095.48 5762.59 4123.6 4850.14 5163.55 3382.7 6817.32 4319.79 4472.17 3637.61 6222.42 5188.81 4730.41 3745.84 6057.22 5062.71 4156.2 6125.34 5965.78 5347.48 4850.01 3970.25 5147.67 3979.82 5011.31 5138.31 5264.06 4659.59 6327.9 4048.37 6355.42 4362.19 5690.56 3115.91 3307.12 4493.48 5924.89 4778.34 4002.16 4138.16 3486.22 4684.5 3091.3 6230.49 6458.82 4601.27 5493.32 5740.68 5926.61 6051.14 5836.15 3261.21 4195.44 6704.06 3653.41 5600.93 3856.01 5246.2 4390.66 5728.85 4827.23 6116.18 4924.6 4733.32 7184.19 2899.43 2924.37 4290.3 3867.67 5399.73 4695.45 4660.72 3888.21 5891.05 6902.81 6644.76 5629.19 4786.6 5740.84 6445.94 4310.18 7134.64 5978.9 4716.19 3629.62 4997.27 5514.76 4301.06 4877.67 4290.14 3066.13 6562.18 6006.16 5316.75 7055.53 5669.65 5934.22 5624.49 4970.88 7092.87 4666.81 3703.1 3954.91 6471.55 2965.01 5499.39 6643.85 5501.93 5654.31 4938.74 5690.26 5607.14 4497.59 4374.35 4810.12 5643.58 5215.05 4292.06 3821.72 5577.04 5006.58 4602.86 3688.8 4548.16 3369.23 5449.18 5492.26 4220.88 5244.78 5762.84 3937.74 4749.8 6084.86 5478.92 5551.36 6894.71 4414.54 5789.98 6138.47 7054.71 3641.64 5489.43 5747.75 4277.89 4727.62 5054.25 4796.33 5539.32 5360.19 6496.85 4794.96 4874.39 5541.59 4124.71 5083.08 6337.56 4911.47 5803.39 5863.59 4381.97 4024.3 6257.19 3255.82 5242.73 2812.98 4737.14 4065.69 5603.15 5556.96 6052.7 3921.18 3798.62 6392.01 5308.1 3666.57 4907.89 4937.02 4073.93 5655.21 4645.41 4433.59 4320.28 5542.14 2739.94 4931.53 4218.06 5480.13 6308.71 6405.76 3456.98 3498.2 5105.16 5448.61 4302.5 4827.33 6009.88 5013.67 5826.04 5339.78 4143.78 4763.66 4636.5 4940.42 5923.4 5085.71 5644.82 6343.14 5463.38 5945.21 5750.71 5696.88 4831.47 3923.03 5975.63 5252.34 6396.74 4138.46 2775.04 4986.77 6898.19 6318.18 5586.81 3948.17 4621.75 4551.24 5358.59 4515.71 6519.71 6640.13 5082.6 5810.84 4230.54 5094.44 3748.24 4655.49 4467.94 4933.21 4850.81 6038.14 2540.31 6029.66 5527.54 5573.7 5697.4 4270.95 4055.8 7325.81 5280.17 6425.26 5143.58 6186.19 4839.34 2980.99 6834.49 5525.39 3998.5 5938.34 5380.13 6394.38 5555.28 5169.36 4686.65 5834.74 5788.23 3043.85 5581.75 3599.45 6730.19 4907.06 3735.44 5163.9 6043.3 5952.75 6332.36 6122.55 6155.31 4223.33 5911.67 3323.28 6695.82 5835.78 5794.24 4127.74 4678.38 5050.65 5260.34 5206.48 5513.57 5729.23 5226.0 3365.82 4538.95 5965.15 4780.2 6090.91 4946.42 5019.93 5081.78 6116.33 6263.44 5774.97 5462.21 5470.77 4643.85 4004.04 6062.05 4289.17 5564.02 4274.61 2965.79 4410.55 6035.6 5137.34 4481.53 5330.45 4581.13 3856.59 3610.4 4219.07 5413.79 6387.01 5367.52 3092.35 4322.15 5210.03 4714.54 3629.96 5478.47 5351.39 6142.37 6061.47 5375.47 4566.18 4723.12 5120.49 5201.36 5262.61 6302.8 5409.61 6038.2 4005.44 5206.78 5555.88 6732.43 5028.96 3866.16 6362.12 4484.76 4840.01 4511.82 5611.2 7933.0 4455.12 5173.87 4894.16 5711.87 5118.27 3372.79 4941.22 5932.23 5791.61 3369.13 4479.66 5367.2 5461.13 4726.76 5839.13 5495.68 5489.34 5002.48 5708.14 5537.72 3920.42 8332.24 4553.56 5329.64 6049.55 5709.62 2476.04 5133.97 3942.07 7443.72 3937.08 5371.02 4709.35 6586.45 4373.3 4750.78 4163.5 5724.64 5078.86 5100.1 3561.29 4963.34 4219.78 3295.83 4459.28 4260.92 6250.23 5960.56 4118.84 4020.95 6313.06 3474.39 3493.7 6470.3 4200.03 5082.74 6915.83 6072.45 7099.43 5526.14 5198.29 5423.0 5077.33 4746.52 6338.89 6202.55 5025.39 5893.5 4547.19 3320.11 5030.91 6022.17 5119.37 3982.23 6163.38 3459.9 4853.39 4964.09 4809.42 5024.9 4306.53 5659.17 5094.81 5972.06 5713.22 5861.71 4359.04 3183.98 3794.63 4524.28 3778.1 5152.36 5826.64 4220.65 6820.42 4816.2 6321.41 4896.52 4751.02 5184.56 5282.64 4715.72 4669.66 4808.52 5046.33 4764.96 5607.24 4242.52 5053.92 6352.26 3847.38 3818.59 4863.72 4143.08 6623.85 4262.82 5102.36 4342.9 5065.11 5069.84 4051.44 4241.89 5054.74 5941.72 5991.09 5126.91 6600.94 4788.58 6155.1 5876.71 6262.72 5029.78 6515.84 4888.6 2990.77 4739.14 4918.77 4371.99 4188.3 3885.86 5235.29 4479.94 5453.3 6413.02 4863.27 5862.86 6049.79 5374.98 4719.7 6939.12 4735.33 5411.85 5092.37 6444.77 6314.07 4287.63 5315.4 6449.45 3975.31 3689.45 3824.16 5125.78 5572.95 3868.18 4373.47 6723.16 5584.06 7111.16 3817.13 5507.24 6851.54 4583.31 4503.89 5806.08 5243.29 4997.27 4093.08 4449.22 5543.27 4717.05 5287.2 6135.57 5998.38 4312.67 5423.8 4270.24 4989.15 5017.78 5015.69 6175.81 4727.24 4947.52 6677.09 4305.57 6959.81 4829.35 5201.67 4424.7 4089.76 4754.05 5526.55 3192.41 6084.93 5215.15 4987.87 3315.57 4739.42 5804.71 5020.12 5727.3 5281.28 5356.51 4277.88 3057.03 4087.15 4758.21 7500.97 3948.23 5228.18 5787.31 3927.99 5868.82 4050.9 4978.31 4099.77 4537.32 4981.9 4656.78 3600.43 4906.82 5131.24 5196.67 5004.23 6496.67 5474.8 6607.87 3664.11 5117.47 4925.63 5882.65 4434.19 5187.7 4623.61 6261.75 5177.64 4255.31 4094.73 4407.9 3492.19 4584.5 4440.57 5122.63 4703.08 6345.13 5274.19 5516.95 4406.4 4413.85 4844.57 3999.94 4027.46 4470.98 5776.37 4516.28 3921.08 4190.31 3627.82 4044.45 5262.19 5344.43 5045.38 5350.88 5372.61 3686.21 5402.24 6480.17 5023.15 4377.07 3844.9 3813.22 5101.59 5570.3 4336.42 4306.11 7589.94 3130.65 5628.24 5856.11 3327.49 4109.88 4234.94 4562.29 5013.13 4980.85 5080.66 3417.33 4926.42 4164.13 5248.77 4642.34 4520.1 5153.74 5874.89 4293.03 5813.4 4389.21 3791.79 4128.98 4925.44 6246.22 4951.47 4307.28 3697.96 4723.48 5538.93 4899.11 4745.45 2631.9 6255.18 4668.71 5269.18 7228.46 6362.14 6719.88 5978.82 5266.5 4523.88 4066.38 4403.98 4948.98 5227.52 4414.48 4729.43 4092.24 5163.02 7144.24 5598.74 5687.83 6442.69 6320.71 4648.04 3464.83 4721.32 4305.16 3293.56 3163.78 5092.28 5274.14 4903.82 5746.28 4082.47 5511.6 4453.64 4338.08 4517.73 4378.3 6134.99 4989.56 4718.54 5548.29 6766.43 2315.64 5916.16 4390.41 5226.56 5599.49 5313.22 4097.57 3905.51 4864.22 3901.8 5759.46 5083.41 5678.96 4244.9 6048.86 6070.58 4285.32 6034.41 5452.83 5130.91 4948.5 4519.22 6445.22 3695.36 4564.34 3963.86 4871.44 3848.93 5076.35 6020.48 5935.47 3402.32 5903.66 4528.49 5004.67 5365.89 5992.26 3960.8 4511.54 5070.39 5714.58 5110.45 5208.32 3296.27 4083.97 4713.25 4607.02 4528.09 3895.51 4165.81 5441.96 6291.51 5174.89 5882.89 4188.32 5246.61 4100.38 3746.31 5344.77 5027.98 5097.87 4278.07 7267.18 6256.02 5320.92 4305.43 4406.1 5034.59 4942.77 4263.33 4454.63 5080.18 5912.61 3279.1 6193.35 4560.84 6086.96 5233.78 5776.57 4562.74 5683.26 5139.5 7493.3 4814.55 3527.05 5698.77 2477.07 6413.11 5529.42 5257.12 4965.89 5659.95 4152.85 2908.7 6415.61 4687.64 5469.47 4419.71 5660.16 3838.47 2588.37 6736.03 6235.57 3623.87 3087.09 6934.37 6113.95 4050.08 5017.5 5328.22 5563.79 6171.13 2395.5 5511.88 4512.11 7055.42 5486.68 5100.25 5490.43 5022.28 5197.52 4959.34 5383.07 4527.02 4531.14 5013.42 3838.56 6552.22 5651.07 6375.99 5200.05 5234.29 5313.66 5419.37 4466.03 5409.33 4898.94 5196.0 4923.9 4973.78 3329.99 3947.47 5091.68 7531.29 4204.84 6243.0 6673.96 3556.85 3161.47 3435.9 6390.78 7435.25 4288.3 5370.52 4788.87 4652.29 4495.87 5774.81 6022.72 5498.32 5527.33 5346.27 6475.1 4969.21 2691.29 2845.98 4880.14 5289.52 5314.85 5941.4 5450.44 6510.17 5742.65 5592.32 5381.16 5565.13 3701.27 5653.9 5046.21 4929.14 5894.61 3979.54 5304.13 5944.09 5833.06 4923.41 4497.31 5384.76 6138.12 4428.78 5243.43 4537.14 5551.9 3757.34 4642.66 5329.59 4888.12 5037.06 4541.8 5175.29 5842.56 5887.15 5412.31 7480.41 3423.15 4890.5 3981.07 5452.42 5186.3 6853.85 3497.9 5941.61 5782.48 6248.6 5683.61 3836.45 5805.86 6894.26 4986.51 5339.38 5178.99 5615.35 4591.87 4790.78 4247.15 4502.18 4602.85 6248.81 5872.05 5273.35 4091.8 2651.49 4645.58 5181.4 5512.23 5275.32 5670.2 5985.29 4247.23 4178.15 4613.31 4694.83 4733.04 6119.09 5788.66 5069.25 3903.75 5048.89 4755.47 5935.03 3991.03 5475.8 5314.69 6826.57 4249.46 5965.81 3702.37 4643.31 4177.19 6917.52 5402.21 4989.09 6718.19 4982.31 3848.54 4307.48 4425.84 5331.02 4871.96 4863.23 4402.67 4470.61 4631.83 4384.88 6887.27 6008.49 4220.46 4806.34 4287.53 5612.21 5945.08 4968.03 3306.14 5490.58 4863.79 4702.06 3830.46 6031.67 4689.15 4655.16 5409.66 4345.67 3867.19 4765.72 4039.91 4752.14 5276.7 6119.63 4950.97 5512.16 3197.63 4863.96 5191.08 5203.08 5374.07 5163.77 4588.7 4488.85 3766.55 3731.84 4579.69 4901.07 3554.48 6496.52 3436.15 5005.85 4151.76 4020.4 3493.47 4721.02 4596.75 4933.65 5443.58 4558.46 4049.02 4470.4 5311.03 5255.12 6169.11 4027.09 6422.84 5801.99 5379.09 5210.48 4962.77 4853.02 6259.23 5088.44 4711.62 4114.24 4268.65 5349.31 4649.22 5509.42 4354.08 5094.52 4256.43 5936.36 2682.24 4520.62 5229.48 5475.7 4485.99 5127.16 5435.74 4244.99 6050.81 5543.46 6185.89 3997.96 4750.17 5660.85 3460.94 2330.66 3990.25 3691.0 4752.51 3587.05 6229.37 4236.14 4407.87 5282.91 3797.33 7256.35 4105.55 4800.69 6566.1 3555.86 6386.78 4996.99 4456.39 4896.39 6081.14 5480.83 4607.85 5128.57 6000.7 3169.67 5604.21 5204.04 3361.92 6710.88 5395.14 3967.48 6213.04 5235.11 6622.11 3685.13 4590.55 6790.73 5251.4 5097.69 5857.79 6543.13 5149.72 5036.58 5464.25 5411.02 4752.9 4287.16 5199.44 4062.5 4435.51 5683.95 6027.62 5010.2 4216.17 6484.17 4938.72 4254.37 3374.08 4031.78 6098.1 5708.99 5687.85 5346.68 5296.29 4611.53 4285.66 4896.11 5094.48 5172.53 3872.61 4135.62 5534.94 7644.38 7552.94 6101.92 5323.3 4998.21 4635.6 4662.56 5166.79 2976.22 3405.98 5394.55 3688.16 4681.72 4946.74 5996.33 5928.32 5415.19 4612.62 4016.18 3619.07 5526.75 4275.57 6385.23 5327.45 2983.99 5560.26 6363.92 6205.93 4439.35 5830.72 6184.4 3758.07 3828.81 4373.45 4082.57 5733.62 5169.9 5282.51 4460.92 5945.89 4042.28 4421.12 4340.76 5254.49 6065.22 4221.28 5514.84 3633.79 3914.2 5421.53 5937.08 6070.3 5233.29 4312.56 4612.06 4750.58 5053.95 5926.11 6667.68 5767.9 5211.38 5089.62 4741.26 5920.32 4255.85 4732.09 3988.3 6136.49 4356.25 4216.95 5776.96 5742.74 5486.48 5301.47 4617.55 3645.12 5424.88 5415.85 8659.64 5469.13 4233.8 5765.42 6123.03 5966.61 5711.11 4575.94 5021.88 3546.71 5768.57 5564.23 5950.04 4231.83 2435.33 6401.43 4074.48 4558.47 5020.71 2681.29 5997.88 5839.71 4238.4 5576.92 4318.48 6132.95 5266.22 4860.33 3685.13 3312.06 6004.68 4051.34 3361.26 6799.4 3627.55 6239.84 4256.67 5865.39 3457.48 3931.07 6079.11 6430.39 5417.15 3949.6 4945.39 6326.18 3950.63 5661.62 6631.19 6648.68 4467.04 5626.61 5817.25 2614.4 5061.98 4537.6 4923.24 4419.61 7177.44 4563.46 5309.98 6553.94 5255.18 5460.65 3004.16 4767.78 5235.17 4779.5 4929.75 4435.36 6649.96 4303.19 5134.39 5784.3 4256.57 5442.32 6088.68 4643.56 4135.08 5620.74 4778.82 6124.08 5467.84 5266.01 5253.37 6515.8 5869.4 3685.65 3701.16 4916.22 4186.6 5895.77 5750.07 4757.74 6045.67 4209.49 3821.94 4244.21 4947.24 3875.05 3540.11 6200.54 5148.58 4199.45 7234.66 6599.66 4055.54 6098.95 4997.83 4893.49 5325.44 5102.75 5956.65 4200.09 4498.25 5931.77 4188.87 5151.21 3735.24 6574.95 6333.29 4477.04 5731.57 6408.83 5365.24 3930.79 4004.35 5226.97 5754.18 5180.76 3418.99 4480.95 5278.36 4409.63 5521.25 4427.28 3082.32 5370.85 5949.46 3658.37 7440.72 5376.71 5703.6 4807.28 4867.08 4266.03 5280.69 4713.74 4220.03 6923.84 5407.78 4084.49 5449.46 6179.96 6632.99 6113.54 5147.36 6260.79 3963.76 5528.53 6799.88 3062.43 5726.66 5426.78 5652.0 2967.38 5463.41 4159.35 5225.33 4237.98 6439.37 6045.22 4614.3 3532.3 5769.98 5067.46 2221.99 3580.58 4863.01 2775.69 5356.79 4785.25 5657.36 3619.79 5029.47 6306.21 2978.76 2040.66 7016.27 5884.9 3876.21 4673.35 5689.26 4992.42 6022.7 4940.84 4833.46 4809.67 7248.4 5280.12 3946.28 5984.81 5439.9 5367.73 4409.27 4640.06 3456.47 4652.01 5471.74 5421.64 3548.39 4858.51 4207.54 4886.12 6419.12 4976.12 4817.16 5453.98 3991.42 5148.08 4388.63 4834.87 4597.29 5938.17 5398.64 6817.57 3614.96 3886.68 5703.74 5662.55 5737.92 4360.23 3056.7 3755.95 5293.51 4763.96 4446.06 3450.93 5008.63 5132.68 4993.35 6218.95 3661.9 5222.16 5107.23 5136.08 3178.54 3776.94 5558.68 4765.02 5629.39 4448.13 2684.03 5070.29 4768.61 2261.36 5075.55 6719.94 5227.59 6166.29 5453.6 5703.07 5294.77 4662.43 4630.82 4043.66 4813.08 4540.86 5990.52 4835.83 5604.35 6477.91 3091.67 4081.97 5401.99 5580.92 5973.33 3583.21 4347.74 2511.46 4009.62 4011.37 6505.78 5461.55 6519.43 5876.64 5424.46 4857.84 4908.49 4962.21 4684.44 4858.44 3468.42 3809.69 4771.13 5297.19 4351.38 5550.75 5933.7 5466.33 4444.97 5721.05 3498.16 4247.69 4514.39 4588.99 4321.21 4344.34 3673.28 4928.27 3583.49 3375.28 5625.65 4301.61 3184.64 6107.89 4446.84 5660.55 3718.69 4514.79 5760.22 3672.21 2216.82 4795.43 5097.95 5108.06 3573.73 4693.52 4000.43 6853.04 3420.08 4745.43 5831.96 4539.07 4747.55 5464.68 6234.32 4586.19 4585.31 6625.18 5323.91 4270.74 6293.89 6595.03 4558.15 4983.39 5366.52 4690.55 5533.72 5533.42 4802.32 4010.57 4599.38 5246.47 6157.04 6191.29 4522.21 7422.36 5506.19 4950.67 4628.4 5832.37 4642.93 5409.63 4263.16 4709.05 3077.84 6024.75 6109.49 5860.67 5332.65 3764.1 5413.31 6316.56 4332.87 6420.81 4743.59 5208.14 4715.58 3317.83 4450.7 5151.52 5369.08 3101.75 4518.04 5291.9 4766.06 2081.58 4874.18 5435.19 3298.2 4270.15 6865.76 6449.64 6464.8 4406.05 4749.59 4680.94 5799.69 5571.72 5236.43 3208.96 7051.9 4184.23 4608.41 4144.57 5980.59 6834.41 6226.14 3000.29 4209.31 5718.28 6242.79 5950.45 5713.03 5849.65 5052.84 4366.74 4165.21 5297.16 4936.96 5206.33 5530.49 5653.03 6192.0 4509.89 4940.28 6752.75 5885.28 5269.38 3004.34 5607.3 3022.6 2928.82 4811.76 4914.45 4222.4 4698.87 4568.41 4912.04 3624.7 4691.91 4475.83 2685.81 4510.8 5591.76 5889.35 5010.04 4570.98 5097.45 2761.07 5737.75 5742.47 3778.02 6552.21 7132.12 3678.08 4836.16 5518.57 4187.31 5463.48 5730.33 3240.51 4527.99 5161.01 4376.7 4298.15 5190.61 8325.01 6051.83 4440.81 5941.9 3973.12 6642.76 4497.78 5567.93 4243.79 5987.42 4442.22 6451.33 4669.06 3012.99 6400.08 5829.32 4396.25 3763.05 5092.24 5551.95 5549.49 3918.87 5423.42 6605.86 5012.5 7093.13 4953.1 5818.95 4093.99 3604.14 3940.49 5089.1 2711.19 5828.35 5876.72 4099.92 5285.07 4884.59 3858.06 4680.14 4083.79 4187.94 5021.77 3796.15 5599.29 4801.8 7216.98 5271.02 7013.17 3805.67 4601.74 5088.57 5580.34 5134.67 3852.6 5775.31 4215.0 4603.5 4481.76 5452.78 5065.26 4304.41 4892.44 5578.94 4286.17 6579.31 5323.55 5375.1 5313.12 5351.56 4661.03 5160.59 3984.88 5262.35 4320.42 4255.34 5064.79 5480.3 7509.24 4394.56 5896.26 4275.07 5388.78 5825.38 4185.61 4047.87 4573.72 5099.21 4917.99 4367.78 5417.8 5146.37 5670.0 4232.16 5300.96 5151.11 5680.94 3781.77 5545.46 5581.55 5193.01 4543.1 6550.44 3860.83 3764.06 4523.39 5278.56 5434.47 5829.22 5631.14 4343.78 5811.18 5433.65 4008.15 4887.76 7693.4 4811.32 4286.49 4437.07 6184.88 3449.37 6405.0 4659.16 5789.55 2275.45 4633.05 4901.2 4383.56 4990.79 3562.79 5166.79 6479.39 2895.63 4516.53 4122.92 5079.22 5381.54 4452.54 5810.77 5474.15 4028.32 7519.2 6355.68 4511.7 4478.6 4304.63 5263.27 4469.54 6300.92 4173.54 6038.68 5046.12 4807.4 4590.01 6101.86 6506.86 5993.0 4803.57 5966.42 4110.59 4706.5 3332.49 5354.66 4647.67 4214.44 5375.12 4356.36 4787.97 3746.36 7610.49 4777.03 3684.56 6028.09 5452.36 4172.6 3804.5 6486.37 5498.42 5318.53 4732.09 4281.98 7165.9 5344.83 4146.81 4863.97 5756.75 6101.13 5599.7 6969.28 5636.4 3665.95 5698.96 4350.12 4095.75 5227.02 3603.51 4298.45 5222.51 6609.84 4344.51 5135.96 3834.43 5658.37 4707.06 6074.94 3474.5 5491.37 4250.88 6348.03 5732.27 3475.67 4792.39 7038.89 5146.37 6917.62 4013.38 5067.56 6137.8 5263.3 3352.35 4909.65 3747.03 6523.86 2783.85 4326.48 3994.07 4219.94 5907.46 5491.9 4264.91 5399.29 4909.31 6522.59 5711.62 4798.17 5425.98 5996.66 4405.42 4997.91 2995.67 3598.08 4599.81 5698.23 4714.83 3608.06 5484.36 3953.55 4277.24 4063.9 5291.05 4314.56 3928.53 4619.2 5606.51 5740.65 5067.56 3834.47 6349.67 6329.53 4227.41 5391.48 4923.43 5131.15 4847.14 3950.27 5116.66 5378.23 5374.67 4981.43 6789.23 3989.7 4215.2 5069.89 4157.29 4246.61 6813.72 5327.75 4609.02 4638.18 4196.37 3344.57 6448.66 5220.76 6945.98 5138.2 7046.11 3427.63 4449.98 4504.35 6342.48 4840.44 5093.82 4587.67 4163.74 3924.14 4296.69 6238.32 3319.67 6471.42 5283.8 4076.59 4428.14 5164.1 6464.15 4972.17 5699.53 4222.77 3783.54 5268.38 5527.23 4805.33 3863.67 4814.12 6193.08 6069.3 2735.53 5887.01 5116.6 5388.39 5335.47 4356.49 4526.81 5048.19 6799.23 6740.71 6487.56 4854.11 5971.22 5533.19 5417.21 6602.43 3568.28 6063.64 5522.21 3772.3 4855.01 7300.58 4923.57 6633.61 3340.09 5217.95 4867.7 2279.05 4829.35 4075.28 8137.11 5161.1 5166.41 4067.96 7104.73 2596.96 5701.75 4350.15 4139.3 3516.27 6541.45 4750.49 4263.78 5078.31 4643.9 5228.75 5009.83 5210.38 5717.8 3629.44 3566.79 5003.78 3299.24 6246.56 4741.28 2603.64 5107.0 6212.15 4783.07 4896.65 4946.23 6083.28 5211.6 4453.97 3556.79 3503.41 5783.48 4701.5 7001.83 4771.65 5589.37 5439.49 5951.81 6918.35 4834.3 6804.79 6372.13 5369.5 5404.01 6016.19 4124.49 4479.11 5714.25 6685.4 5325.96 4850.06 6332.01 7044.29 4234.18 4049.16 7085.01 5980.95 6836.82 3862.77 5168.35 3185.39 3728.18 5633.61 4243.26 4153.84 4888.27 4592.15 4901.44 4998.22 5096.43 6104.26 5583.61 4986.71 7382.3 4022.56 5027.43 5522.75 6208.9 5602.53 6061.63 6545.43 6760.92 5484.32 4711.04 6650.77 4506.18 4824.12 6162.3 3272.75 4264.54 7043.44 6047.14 4061.6 6502.97 4852.58 5806.31 5456.71 7317.04 6412.67 5012.97 4036.91 6639.64 5212.43 5454.12 6348.54 4066.57 5642.35 5156.76 6357.47 6101.57 4891.38 5535.91 3230.13 5955.86 6176.67 4848.46 5412.24 5016.02 4920.21 4581.37 5851.61 3936.95 5478.11 6153.94 5526.31 3858.17 4631.99 4740.98 5128.77 7122.87 5797.36 5119.86 5089.26 5084.17 3776.8 6156.21 2460.79 4653.83 6171.71 3628.89 6589.82 4668.88 5867.64 4438.58 6059.93 5073.02 3472.91 4989.2 7144.05 2970.9 6542.5 4383.47 5971.21 6318.23 4206.98 4058.87 5174.75 5932.07 4984.46 5948.71 4793.65 2949.12 3856.53 4532.89 4533.37 5260.85 5742.09 2779.99 2884.65 5887.38 5807.46 6942.34 3658.05 4549.69 6423.81 5030.15 6413.15 6103.11 5048.55 6459.51 4024.31 5844.72 3992.97 5460.89 6040.74 4054.22 7228.94 5393.65 4961.99 4648.21 4595.12 4393.16 3311.29 6484.43 4625.67 6192.77 3485.54 5305.59 5416.45 4330.58 5754.6 4955.16 4904.51 4147.31 5989.05 2202.77 5751.15 5950.88 4149.55 4441.22 5853.89 6551.93 3380.69 4140.4 3110.13 4386.8 5446.4 4725.01 5966.75 3104.96 6735.97 5244.78 3636.15 6114.89 5135.63 3288.01 4355.83 6870.97 5351.86 6056.87 5474.01 6201.86 7554.58 5166.89 3639.44 5491.63 5725.37 3868.62 4729.42 4844.83 5652.87 5483.7 5018.69 6384.7 3152.86 5952.38 3896.27 5807.52 5963.36 5230.02 5307.35 4342.18 6016.08 4731.21 3124.7 6064.71 6102.98 5138.33 3477.1 5769.14 3381.82 4831.93 4023.93 5493.89 5261.19 4811.22 4918.76 4208.41 4268.19 4788.08 6379.14 5216.26 3687.65 4749.96 5377.37 4658.24 5869.67 4311.48 4899.73 5457.66 6394.19 5973.89 6193.73 5518.11 5087.14 5712.35 5169.48 4743.9 6776.22 5321.17 3719.11 4467.13 6060.17 5934.82 4501.78 5415.45 4385.81 6592.93 6350.71 5096.24 7107.63 5868.89 5494.28 4099.26 5206.47 4834.39 3831.52 6106.43 6761.81 5467.63 5826.78 2856.55 6214.73 4553.68 3758.22 4532.7 3205.68 5561.74 6100.73 4908.75 6556.26 3971.08 4593.7 4349.13 6818.91 3634.5 5478.95 3851.85 4019.34 3623.19 4869.48 4906.11 4387.39 4564.1 5825.55 5509.51 4848.14 5366.22 4316.5 5254.24 3742.11 4192.21 3597.43 5701.52 4158.91 5311.55 3360.86 4869.25 5545.21 3877.8 6418.11 4922.49 6456.58 5039.12 4824.81 7307.21 5135.5 5788.97 3274.85 5007.21 5545.59 4580.06 4057.17 7066.96 4587.7 4263.65 5666.95 4127.53 5210.75 5175.89 5361.87 5232.85 6816.66 4473.29 6204.65 4482.9 6550.4 5513.8 3503.65 4887.52 4392.65 5429.3 5510.96 6653.07 4745.16 4584.81 5071.98 5719.79 3199.4 4371.08 7261.51 4968.14 4914.03 5086.29 5144.56 5139.18 4278.57 3034.16 5551.43 5049.99 4201.03 4333.87 4458.64 4312.15 3657.69 6015.02 3572.94 5001.58 4820.17 5244.98 4034.05 6436.74 5366.11 4384.28 5944.3 6328.42 5640.72 3619.72 4565.93 4504.52 5615.84 4464.73 6440.38 4835.97 6419.64 5262.47 4991.35 5196.92 5644.81 4807.35 4568.64 4642.2 6555.44 5293.75 6358.93 2205.51 3894.64 3703.49 5144.44 4374.74 4757.2 5975.23 4745.79 4211.82 5470.04 4891.67 6631.28 5350.88 6571.31 4944.51 5603.68 5532.72 4697.91 3220.8 5179.17 5579.39 5270.51 5148.1 5224.64 5949.73 4312.48 5527.13 6370.33 5081.08 6318.25 6864.06 5001.87 3644.78 4883.63 4078.93 6006.89 3814.65 3886.72 7778.01 5127.82 5690.96 5798.38 5805.1 3862.91 3419.87 4456.26 3908.98 4027.33 5113.6 3563.14 5851.63 5556.0 4954.81 5610.53 5755.15 4608.34 3926.11 5464.83 5414.58 2781.96 3512.94 4467.0 4994.65 5601.55 5334.36 5750.35 4489.99 3683.86 5658.14 5473.72 7124.45 2617.39 4062.56 5034.69 4198.94 3217.67 5079.64 6163.54 6003.78 5684.25 5438.92 3766.69 5110.11 5188.53 4882.66 4521.75 4813.33 4027.63 4526.34 5610.95 5042.75 4598.92 5241.22 6647.08 4979.52 5490.75 4407.79 5214.63 3495.68 5783.94 7362.42 4202.77 5836.14 6008.81 5510.9 4583.52 4505.28 3492.83 6280.13 5244.22 5585.14 7039.98 5792.98 4983.3 5910.86 6239.68 4456.11 5782.43 4810.98 5026.76 5091.22 6282.38 5727.79 5212.92 5043.14 5748.9 3742.31 5695.79 4420.6 3622.8 4431.23 4258.98 6545.99 3903.91 4929.6 3919.62 4368.28 4945.0 4548.45 5730.61 4508.18 5064.67 3717.47 4504.86 5969.37 4928.35 4509.46 5212.37 3538.53 996.652 6500.49 5058.51 4244.49 5036.98 4120.07 3840.21 5569.2 6746.66 5420.67 5635.32 4827.61 4316.45 5285.75 5409.08 5481.64 5673.75 5360.67 6263.3 3422.29 4501.05 4537.03 6548.29 3990.96 4114.2 5352.24 4326.06 5034.46 5793.12 5469.17 5473.05 4373.2 6711.21 5832.29 2606.51 4438.76 4960.64 5401.4 5053.15 5124.17 7320.78 4234.88 4708.31 3873.92 4092.07 5347.9 5657.55 5188.82 4717.73 5072.5 4749.18 3663.0 4546.96 6304.49 4475.38 5287.25 5917.34 5740.98 4728.55 4554.68 4658.11 4551.26 5114.07 7142.95 4559.74 4383.68 6618.21 6200.63 4583.94 1937.5 3844.54 4337.32 2628.22 5965.58 3352.34 4901.29 4050.03 4952.52 3429.57 5410.33 5661.6 6099.28 5385.03 4169.15 4778.37 5134.17 5968.54 4904.35 5592.54 3247.97 5124.34 4904.37 4358.81 4651.64 5729.92 5757.29 5016.46 6224.13 5061.75 3769.24 3661.67 5153.18 3743.76 3425.69 4971.29 5510.45 3864.92 6119.99 4159.81 4446.58 5372.82 4402.17 4775.49 4681.29 5749.6 3845.9 4174.44 4834.44 6331.74 4213.05 4224.3 5235.87 4928.85 4316.0 5424.55 5134.72 4770.51 6511.37 3787.08 4462.87 4218.16 5630.9 6139.64 4140.92 4474.83 4585.04 6570.35 4242.63 7407.91 6666.67 6063.44 4051.18 5046.31 5849.53 4420.11 4680.69 5863.0 4802.98 4833.55 7224.99 3242.31 4898.29 5372.25 4431.06 5730.2 3234.26 4830.13 3494.16 5370.9 4074.16 4529.77 4325.13 6172.27 5390.33 5078.73 5278.54 5729.0 5192.92 5275.57 4179.87 4786.66 5891.25 4761.84 5370.1 3684.15 4730.14 3994.39 5906.57 5499.59 5667.51 4198.9 5431.29 5325.91 5157.38 4700.07 5273.37 3904.07 5713.36 5553.94 6502.99 4392.75 4921.1 3814.16 4191.01 5577.41 4216.44 4933.49 4692.32 5236.24 3127.83 3269.54 5836.26 4651.99 6127.39 4972.18 5329.76 4124.76 7200.89 3908.56 5265.63 5684.88 6523.78 4645.86 5620.88 4941.52 5900.0 4262.74 6241.77 3783.79 4248.14 5317.19 5279.19 4016.6 5821.49 7050.08 5580.44 5998.13 5902.67 4236.86 5393.76 7123.04 4128.1 7541.76 4932.29 4990.23 3784.94 4506.66 4141.21 4439.71 4064.58 4833.67 4646.51 4546.44 6203.03 4732.37 4704.92 3987.69 4287.25 4589.06 4920.88 4184.47 5890.25 5700.79 3999.5 4012.92 4346.07 4013.86 4177.47 2918.64 5345.73 4770.63 4512.07 4896.43 5984.8 5463.06 4212.15 4639.8 5678.58 4385.49 6102.49 5114.23 4263.18 5495.0 4489.29 4301.93 6015.22 5064.23 6061.85 4454.74 4826.52 5512.44 2904.46 6449.06 4685.4 5120.92 5241.75 4731.53 3763.9 4788.7 4577.73 4288.45 5084.5 5640.12 4918.64 6206.98 6638.25 5078.59 4607.18 4775.04 5419.57 4147.49 5760.98 3646.95 4081.34 4705.68 4954.76 4642.74 5384.86 5764.52 4390.64 4608.01 4045.67 6005.95 4308.49 4930.17 4581.1 4085.96 4745.44 5762.82 7360.12 6223.98 5462.6 5617.29 3035.06 4262.19 4597.88 5095.52 6273.6 4763.4 5638.7 5454.11 4708.17 2741.2 4941.02 5806.61 4983.1 6010.59 3682.35 5182.13 2955.36 4618.73 3965.3 6110.48 6245.52 3954.77 6793.1 6016.87 3220.29 3125.13 5077.29 5515.73 6715.73 4125.9 4564.41 5426.4 5763.05 5951.86 5023.41 4252.18 4659.88 3791.41 5853.12 4208.37 4841.7 5702.4 4184.21 952.938 5069.9 5473.89 6089.45 5810.17 5265.21 4985.3 4966.07 4400.14 3669.32 4762.1 3484.81 5308.33 4666.12 6219.34 5674.63 4271.07 5340.05 6506.63 5995.4 4140.04 3495.3 5322.11 4697.49 5735.08 6710.14 4726.2 5759.79 5034.05 4598.54 5218.42 4816.51 5188.22 3825.48 4841.23 3810.68 4658.59 3990.94 2804.54 4196.62 4756.8 5477.8 4357.11 4176.32 4462.35 3986.41 6069.78 5260.52 4241.68 3185.09 5532.75 3587.93 6949.65 3469.18 3372.95 4095.83 2945.34 5676.61 5846.95 5268.15 5716.42 5701.63 5819.0 6347.72 3200.6 4924.07 5368.93 3460.93 5124.86 4629.02 6240.42 4927.73 5146.0 5914.5 5721.14 4608.62 5407.96 5710.33 4987.28 5344.44 4071.75 4626.72 6562.03 4815.47 3899.7 4759.99 4368.12 2403.72 5134.33 2646.13 5162.67 5214.4 4365.58 4636.53 3629.49 5766.05 5469.35 5695.44 5117.64 3835.81 6334.53 3402.44 3770.22 4848.98 4491.96 5150.84 5184.98 5087.97 5339.82 4519.03 5460.57 5110.27 5703.34 4612.68 6649.52 4232.33 4939.56 4747.68 5770.92 3093.38 4878.93 2002.78 5136.87 5684.05 3667.93 4279.44 5024.32 4899.19 5813.79 4644.88 5058.34 3779.45 4028.22 5790.42 5784.37 3142.09 7350.26 5591.77 5003.3 5167.53 3668.93 4009.24 7145.73 3756.96 5800.81 4168.52 5106.46 4795.08 6562.92 4068.31 5501.73 5166.05 3671.06 3612.44 7035.54 5209.55 4850.5 5866.91 6405.69 4683.28 2820.07 5357.39 5129.68 5076.84 4825.73 5247.01 5288.33 6296.54 5685.74 5797.21 6019.35 6740.35 4678.7 6028.63 3450.07 3673.6 4550.92 3306.84 5146.1 4657.24 6215.87 6485.77 5191.26 5866.42 5544.27 5393.43 4117.9 6896.55 4685.65 5377.01 6023.07 6470.23 5939.22 4668.8 4215.05 5125.17 4271.93 4604.1 4859.01 5524.45 4426.02 7133.44 4711.15 4750.81 4474.39 5467.51 5459.92 6478.35 5453.77 2809.19 5005.6 5486.89 4916.7 5589.53 7208.19 4549.51 5196.08 5025.42 4975.85 4517.29 6257.79 5695.25 5323.95 4495.75 6171.01 6229.83 5796.26 4468.26 4620.95 4603.04 5578.18 4870.94 5293.37 4488.39 5271.88 6121.56 7168.2 4602.57 6006.16 3565.32 3419.07 3622.48 4096.86 5001.51 6432.8 5115.42 5131.77 5549.71 3186.07 4369.86 4410.82 4967.51 6443.99 3889.98 5399.43 5193.58 5034.34 5490.64 3422.21 5698.53 3769.2 5036.14 4507.46 3916.42 5537.61 6084.88 4199.44 4397.06 4467.51 4053.12 4479.5 6261.67 3435.13 5065.78 4431.46 4521.42 6668.98 3207.84 3977.98 6043.34 4128.93 4959.72 4712.17 4845.91 4723.71 4493.79 4461.67 4932.56 5537.34 5192.49 3487.31 6643.4 5726.42 4674.9 3918.94 5575.11 3392.26 5293.13 5487.63 3852.82 3768.46 4507.36 5138.93 6224.85 4556.19 6406.8 5403.97 5368.66 5648.78 6875.73 4697.24 5226.42 4983.43 6081.3 5117.52 5233.76 6311.89 4217.36 6734.39 6549.8 5942.45 5679.74 4150.76 4851.18 4165.36 5368.52 4871.77 5811.26 5155.28 5062.77 5205.38 5388.73 4884.93 4764.83 6075.99 4600.71 5262.79 3957.38 5927.2 4494.15 4419.79 5035.71 4710.88 5407.69 6060.06 3869.39 5960.5 5152.78 4753.76 5534.23 4781.9 4638.09 6815.96 4441.91 5339.6 5330.26 5828.25 5917.08 4725.11 3626.86 6371.96 5322.07 5076.11 5990.75 5600.21 3953.26 4282.11 4656.01 5781.62 6589.13 4625.53 2347.41 4096.47 4542.16 3543.37 5114.67 5628.97 4104.04 5353.66 2638.82 5030.33 5593.79 5234.2 4965.24 6379.38 5327.05 5438.55 4849.5 5353.23 4434.65 5977.66 4523.81 5209.5 5106.33 5791.25 5198.94 4028.35 5933.54 5559.79 5464.05 5879.24 2980.31 3763.85 3148.79 4571.74 5740.78 4796.12 6824.53 5997.91 5385.86 4742.82 6791.86 4082.4 4209.0 5482.76 5173.82 3745.02 7212.97 3720.7 4211.36 6297.99 5378.24 3604.31 3856.73 5817.74 4450.49 5887.71 3468.45 3228.27 4721.98 5252.82 3543.98 5056.26 5878.55 4014.44 6604.72 6002.77 3794.47 4610.55 4967.02 4614.49 5400.69 4462.5 5573.31 5004.68 3808.04 4023.88 5348.11 4405.61 6022.78 5884.99 4087.32 6647.85 7025.09 2569.12 4433.12 2549.95 5461.72 4361.24 6599.28 5099.9 6945.69 5118.86 7086.69 4304.64 6170.9 5833.78 4436.48 4823.06 5758.98 5615.35 3967.76 5288.64 6213.24 5987.88 4228.53 3579.59 6123.46 5005.72 5057.59 6142.88 5111.26 4574.54 4949.55 5490.54 1969.87 3132.34 4841.28 4047.95 5507.38 6889.5 5300.17 4416.87 4057.4 4052.43 4896.67 3980.46 3934.11 5158.44 6025.77 3886.56 4466.22 4496.51 6153.71 6561.94 5483.37 5259.21 5418.12 5092.93 5934.05 2803.01 5770.07 4714.66 4444.0 5101.6 4984.17 5327.39 4037.86 5602.62 4981.81 2030.03 5714.51 4138.59 4938.33 4484.78 4621.33 5527.27 5157.73 5104.39 5847.91 4612.13 4934.66 5846.6 4984.01 4109.44 4903.84 4290.49 6688.53 5927.1 6175.27 5065.74 5876.51 4873.23 4103.76 6731.89 4733.41 5410.6 5264.83 5453.2 6348.93 5136.51 3901.53 4332.64 6815.51 4422.23 5232.16 3989.26 4820.68 4930.72 6031.22 5728.58 5485.84 6424.77 4887.73 4335.79 5453.69 5918.95 5432.04 4538.89 5689.56 6556.86 3956.24 7558.99 3393.59 4142.1 5043.14 5333.04 5445.91 4521.99 4812.59 6842.54 7115.67 5675.45 3361.11 6038.56 2807.46 5599.16 4179.8 3488.34 5658.35 5428.24 5517.65 4009.68 3303.49 4161.32 4622.73 5161.74 5256.75 7336.37 6351.89 5932.28 5560.23 2960.5 4975.32 4298.7 3043.77 3902.48 5237.55 4183.4 3909.94 5088.64 6030.39 6589.8 4733.79 4905.53 3799.01 7392.65 5254.49 5319.1 3757.23 6828.8 6883.86 3350.99 6161.94 4979.5 4065.28 4745.37 5939.29 4461.14 5285.6 5418.98 5575.11 5615.06 5061.74 4052.49 5203.54 5326.03 6189.67 6142.94 5001.69 4948.96 5256.82 6581.56 4061.87 4645.93 5383.9 5165.31 5448.64 3798.09 4585.37 4288.5 5715.51 3721.69 4511.05 3456.3 5783.69 6074.39 5317.83 4256.08 5881.93 4399.52 4554.24 6771.18 3939.96 6182.19 5910.66 7415.84 4637.3 4970.55 5141.03 4840.44 8123.59 5765.14 4541.22 4767.54 4946.08 3539.68 4696.03 6217.33 4557.1 6177.68 4605.39 4698.7 6270.59 2848.44 6045.26 6500.45 4907.55 4286.61 4094.63 5084.76 2932.52 4603.66 4757.87 4969.68 6636.43 5431.14 6298.8 5313.86 4457.05 5178.07 5189.91 5777.26 3618.64 5703.84 4171.02 3530.82 7012.36 5797.32 5028.06 4886.99 5159.67 3921.27 3161.1 3702.45 5580.95 3549.92 4032.06 5246.81 5089.1 5888.95 5394.78 3463.34 5122.38 2853.68 5262.85 4998.37 5329.84 6559.82 3879.83 6565.95 4577.98 5043.34 5886.81 5114.51 5129.4 4746.15 4655.37 3720.38 5585.25 4758.84 5023.61 3976.0 4672.86 6530.78 6463.71 5059.37 4742.35 5783.38 5394.79 4139.39 5645.54 6264.03 4526.87 3562.8 4151.74 6920.92 3729.16 3783.36 3573.84 3038.91 4181.93 3922.28 6570.43 3820.19 3445.92 4586.82 5236.69 3133.28 5524.28 6026.04 6200.05 5859.17 6353.81 4034.41 3518.14 5522.34 4150.44 5771.98 4420.35 5717.45 5117.83 4013.86 5268.27 4813.81 5244.95 4634.25 5901.8 6417.61 5395.12 3830.7 6210.0 5350.9 3483.61 4262.52 6738.9 4460.89 5992.06 4157.1 8052.53 4867.12 4970.12 6044.01 6520.19 1458.87 5973.57 5734.07 3997.68 4819.83 6033.28 4801.16 5071.38 6286.27 5121.08 6327.54 2927.84 5616.66 5688.77 4802.36 5368.28 5466.13 4220.43 6229.64 6263.87 5743.8 6666.34 6605.11 4645.91 6834.92 3557.46 6379.33 5971.95 5652.73 3979.46 3689.24 6321.97 5151.19 6412.84 6509.54 6119.0 3792.06 5128.59 4002.99 4993.49 4293.3 5587.3 3572.73 4864.38 6583.37 4313.38 6598.99 5250.56 3633.58 2468.16 6294.14 4339.97 5203.75 5169.09 4691.15 2459.88 4210.24 5470.67 5901.71 5225.11 5342.9 5252.22 5733.12 6436.29 6275.25 6892.33 4731.37 4505.3 4452.36 4491.26 4511.34 4068.41 5009.21 4574.03 5290.37 5850.38 5264.08 4227.66 4691.01 4730.97 4594.89 4174.22 5192.82 5245.95 5821.42 4067.89 4515.02 6294.09 3463.53 4924.52 4571.57 5131.07 4121.07 2970.24 4197.87 5658.05 5105.54 6593.1 5731.43 5462.1 6032.45 3414.67 5444.36 5044.68 4026.03 6908.32 5899.78 2649.69 3467.11 5000.74 4817.75 5772.57 5637.53 3882.37 5523.81 4095.4 4718.61 5188.57 6351.48 3873.79 5357.33 5717.67 5252.37 5432.4 4499.54 5037.58 7430.48 5640.67 5545.68 6080.69 5555.89 4967.93 6369.66 5678.08 5922.62 6241.48 4414.09 5125.45 5957.82 4188.16 3784.68 3717.22 6649.21 5507.07 2943.17 4654.92 5327.71 5257.38 4880.78 5075.23 5509.09 5625.02 4975.56 7282.36 3826.01 4829.77 5581.01 3928.99 4444.92 6959.88 4125.75 5749.53 5130.57 5090.48 5402.45 5582.28 3985.93 5945.25 6071.59 2589.19 6079.55 5485.61 4137.16 4937.36 5308.4 5310.33 4569.32 3688.83 2832.83 5827.3 4084.87 6036.99 3010.1 3825.98 4589.22 5087.03 4667.84 3906.41 4123.08 4512.6 4260.38 4636.45 4932.27 5638.51 6793.49 6060.19 4962.35 6786.37 5631.32 6322.0 5793.14 4609.65 6345.2 5704.61 5488.96 4832.21 5128.03 3720.92 5410.73 4379.91 4942.63 5087.3 6139.74 4975.57 7066.26 3057.3 6150.31 3677.85 5214.71 4677.84 4811.11 5379.52 6126.03 4866.8 5314.67 6044.69 5563.47 5651.46 4066.36 4000.51 6033.93 5011.37 5516.37 2827.92 4441.44 4232.44 5336.61 5563.09 6153.26 6381.58 4848.15 4439.09 3282.57 4798.13 5648.59 5108.42 6697.45 6296.36 4432.32 5515.59 3224.81 3775.38 4046.22 6457.89 4844.2 6572.17 3751.73 3374.62 4766.47 4926.62 4871.1 3917.09 6332.64 6009.93 5872.45 4083.1 5270.1 5191.29 4947.64 6305.9 4997.89 4542.62 3470.69 4859.95 5286.55 4322.56 5522.18 5223.1 3873.72 5212.05 4592.49 3625.98 5479.86 6474.5 4702.32 4763.04 5971.9 3746.62 5247.73 4876.37 5034.02 4769.62 5260.13 4649.5 3856.4 5181.31 4696.06 5985.75 5475.83 6189.29 5984.55 4329.8 6581.13 5803.3 4474.96 4758.76 4790.63 5259.29 3584.05 4916.75 4818.53 5097.85 5584.64 6189.04 6224.64 4221.03 3799.55 5082.66 4550.77 4337.93 3563.33 3550.88 5536.0 4345.51 4048.73 6126.5 4034.88 5108.84 3511.5 6007.1 5067.92 3188.21 5357.14 5919.27 4793.06 6271.22 6637.38 3421.81 6188.33 3920.64 6111.23 6916.18 5786.06 5873.62 4996.91 3868.69 3920.44 4450.51 6033.72 3768.62 3851.47 6213.74 4966.74 2329.93 4959.94 1635.31 5639.4 3162.27 6185.73 4083.24 6520.96 5092.44 5432.2 3771.91 5217.62 4612.4 3312.3 4746.19 4616.81 5715.25 5212.2 4362.94 4611.21 4630.5 6545.78 3354.94 4404.87 5237.27 4451.76 5767.65 7885.41 4750.76 5782.25 4104.97 4575.72 4081.77 5114.61 6118.13 2181.29 4420.3 4202.12 2694.25 4735.99 6492.44 4613.32 5145.39 3482.73 3996.93 5130.56 4957.99 5195.09 4063.26 5345.05 7679.2 5093.28 6131.52 4132.08 4699.77 6009.88 4850.49 4981.55 5144.23 6188.62 6153.07 4414.06 5908.57 5944.52 4413.56 4532.67 5050.2 5316.05 2513.38 4908.32 3995.08 5019.84 4810.74 5784.38 3900.93 6476.35 4149.17 6260.58 4067.24 5728.27 5672.46 3053.19 5202.33 3074.49 5367.05 4449.73 5647.11 4088.72 3945.62 3743.85 6236.46 5342.17 6379.3 5015.67 3795.63 5189.4 4576.71 6538.04 4894.15 6157.59 5201.3 5848.41 4090.28 6223.33 4582.12 4487.51 4295.25 4520.14 7394.47 4850.95 4729.45 6261.13 5374.09 4720.34 5244.47 5378.75 5510.89 6186.24 5822.7 3780.07 4137.41 4159.89 5466.49 5447.74 4038.17 5007.41 4907.48 3692.99 6818.23 4369.87 4488.41 6938.87 5412.07 5512.57 4806.99 4813.55 5856.43 3465.03 6178.19 3839.0 5349.85 5799.86 5172.1 6052.22 4469.82 5376.41 5003.63 4870.14 2932.2 5105.72 4082.01 5003.49 3964.03 4907.03 4216.33 5497.27 5617.91 4948.21 4987.01 4721.2 5161.02 4706.31 3124.49 6265.48 5003.81 4203.68 4739.56 3818.37 4701.03 6351.95 3352.46 5434.04 5200.1 3997.52 4881.51 2626.41 4311.92 5310.33 6729.99 5093.41 6842.35 5464.34 3621.63 4777.96 5801.89 4803.4 6833.5 7296.47 5742.39 4821.41 4780.16 4924.53 3834.01 5616.11 4433.23 4499.52 3874.12 4813.24 4028.13 5759.19 4457.73 3113.64 4490.2 4304.75 5480.86 6139.9 6571.26 4246.83 4246.24 6805.02 5354.48 4919.13 5640.63 4900.26 5783.88 4167.55 5002.38 6705.93 4865.11 4731.16 5502.14 6470.87 4495.33 5282.67 5747.9 5178.55 3864.19 4287.93 5146.69 6203.24 5081.65 6679.12 5652.19 5806.74 3878.8 6578.62 4698.94 6284.12 4796.04 3948.21 5669.15 5229.56 6011.4 3330.85 4672.34 5056.32 5533.52 5410.33 4747.24 4695.7 4380.86 4944.08 5269.39 5576.16 4305.35 5210.22 5832.72 2451.27 3903.9 4444.95 5606.22 3943.77 5242.38 6081.35 5459.52 6262.18 5566.5 5663.36 6225.05 5579.04 5125.53 5994.21 4444.54 5403.81 5779.9 4909.74 6964.78 5299.03 6664.54 4565.36 3922.98 5161.73 5259.48 4025.08 4008.67 5254.93 3618.53 8013.28 6608.94 2613.78 3796.73 5417.07 5656.84 5738.37 4739.41 5312.2 5847.27 4706.59 5734.84 5551.79 3982.31 4950.07 4720.22 5402.81 4600.81 5561.63 4124.33 5168.97 4358.06 5093.51 5647.93 4280.92 6201.49 5449.09 5154.74 4696.92 4605.61 4465.56 4131.08 5386.95 6540.57 5332.11 5315.71 6004.72 6158.93 5373.78 4823.14 5345.65 5438.5 4489.18 4621.32 5699.4 5237.76 4752.94 4994.98 4286.84 6423.96 6058.13 5296.05 5263.86 6988.4 6635.51 4060.17 6051.35 5302.53 4909.13 4287.61 5648.02 3308.75 4604.34 4439.17 5677.42 2701.42 4502.12 4929.35 5442.79 5051.39 6673.92 5151.68 4884.94 5362.15 4609.98 4455.61 4738.72 4752.31 5240.97 4276.59 5569.85 5405.6 3929.35 4884.93 5082.25 4759.38 4374.05 5036.84 5504.65 5813.68 5732.11 5040.9 4770.21 5596.68 4868.66 5159.9 3846.55 5283.65 4644.68 3082.16 2892.36 5981.54 6789.66 5416.41 6760.64 4694.27 2515.5 5177.88 3793.83 6981.47 4582.24 4333.23 4328.76 5145.13 3747.96 5611.29 5940.5 6568.45 5004.22 4601.54 7263.57 3832.09 5705.96 6437.99 6898.8 6632.04 7360.62 4893.72 4985.45 4983.56 4072.4 5699.51 4714.52 2489.44 5863.36 5499.37 4632.75 4836.76 5551.09 3950.53 5755.98 4501.1 5581.47 5894.69 6550.61 4987.01 4713.56 6094.34 6779.82 5543.67 3999.81 4867.13 6377.45 4863.27 3255.93 6853.07 6327.61 4633.59 5733.59 5575.8 5268.93 3695.72 6874.6 5106.9 5306.31 5523.96 4223.53 4733.37 4535.94 6960.97 3037.72 4287.15 4523.9 5282.51 5604.0 5669.41 3760.4 4951.02 3919.47 4602.7 3783.35 4004.39 4037.16 6395.63 4987.48 5943.61 4248.58 5479.17 5911.29 4542.25 4414.23 5233.88 4849.21 4785.55 5245.4 6189.81 3916.15 3860.8 5438.6 7370.52 4726.5 4521.88 5103.3 4963.88 5888.94 4122.2 4727.98 5175.88 5267.65 5739.69 4790.16 3509.34 5360.88 3731.58 3166.37 4977.64 5369.42 5207.08 5205.53 4587.19 5543.05 4883.13 6028.89 5333.16 4888.17 5392.85 4384.91 5077.2 4274.05 5275.27 4277.54 4531.46 5925.82 5448.68 4739.5 4072.95 6210.48 4491.62 4182.05 3865.5 5126.08 5020.37 5467.05 3724.23 4516.26 3647.26 5529.09 
SCALARS Velocity float 1
LOOKUP_TABLE default
1.19216 1.19234 1.1921 1.19208 1.19199 1.19179 1.19184 1.19238 1.19197 1.19241 1.19226 1.19217 1.19227 1.19219 1.19178 1.19189 1.19202 1.1922 1.19243 1.19208 1.19201 1.19178 1.1924 1.19222 1.19217 1.19177 1.19211 1.19178 1.19188 1.19178 1.19178 1.19194 1.19178 1.19178 1.19184 1.19178 1.19178 1.19176 1.19206 1.19197 1.19177 1.19178 1.19176 1.19179 1.19177 1.19178 1.19178 1.19178 1.19191 1.19194 1.19212 1.192 1.1919 1.19176 1.19192 1.19187 1.19177 1.19205 1.19178 1.19177 1.19231 1.19211 1.19187 1.19188 1.19194 1.19179 1.19199 1.19175 1.19211 1.19207 1.19176 1.19178 1.19184 1.19226 1.19214 1.1918 1.19239 1.19203 1.19175 1.19178 1.1918 1.19182 1.19196 1.19164 1.19234 1.19188 1.19234 1.19245 1.1922 1.19235 1.1919 1.19231 1.19239 1.19209 1.19225 1.19178 1.19218 1.19182 1.19238 1.19178 1.19191 1.19198 1.19181 1.19178 1.19197 1.19238 1.19275 1.19206 1.19213 1.19197 1.1919 1.19189 1.19285 1.19245 1.19218 1.19241 1.19216 1.19221 1.19226 1.19221 1.19178 1.1919 1.19177 1.19178 1.19197 1.19178 1.19178 1.19184 1.19178 1.19219 1.19178 1.19209 1.19178 1.19178 1.19178 1.19185 1.19178 1.19178 1.19181 1.19181 1.19183 1.19197 1.19196 1.19205 1.19214 1.19211 1.19223 1.19209 1.19202 1.19194 1.19182 1.19199 1.19191 1.19205 1.19202 1.19204 1.19172 1.19214 1.1923 1.19188 1.19178 1.19229 1.19202 1.19193 1.19195 1.19178 1.19228 1.19267 1.19265 1.19195 1.19176 1.19178 1.19191 1.19187 1.19224 1.19214 1.19178 1.19246 1.19207 1.19206 1.19178 1.19178 1.19203 1.19186 1.19187 1.19246 1.19174 1.19213 1.19189 1.19231 1.19262 1.19274 1.19239 1.19223 1.19226 1.1919 1.19184 1.19177 1.19212 1.19222 1.19167 1.19199 1.19237 1.19242 1.19173 1.1919 1.19175 1.19208 1.19254 1.19174 1.19206 1.19192 1.19199 1.19209 1.19196 1.19206 1.19205 1.19178 1.19246 1.19259 1.19224 1.19227 1.19266 1.1924 1.19258 1.19218 1.19185 1.19221 1.19211 1.19194 1.19186 1.19249 1.19179 1.19201 1.19177 1.19178 1.19186 1.19178 1.19219 1.19178 1.19208 1.19189 1.19203 1.19178 1.1919 1.19175 1.19182 1.19172 1.19191 1.1918 1.19193 1.19247 1.19205 1.19216 1.19214 1.19201 1.19194 1.19181 1.19197 1.19178 1.19208 1.19178 1.19215 1.19222 1.19229 1.19189 1.19179 1.19193 1.19175 1.19222 1.19202 1.19195 1.19216 1.1919 1.19224 1.19235 1.19254 1.19291 1.19189 1.19178 1.19191 1.19202 1.19219 1.19203 1.19232 1.19214 1.19217 1.19253 1.19219 1.19205 1.19277 1.19194 1.19247 1.19189 1.19187 1.19209 1.19272 1.19243 1.1923 1.19221 1.19187 1.19225 1.1918 1.19236 1.19257 1.19262 1.19183 1.19214 1.19289 1.19291 1.19208 1.19306 1.19224 1.19171 1.19189 1.19265 1.19194 1.19257 1.19207 1.1916 1.19204 1.1921 1.19178 1.1924 1.19213 1.19221 1.1927 1.19272 1.19258 1.19254 1.19215 1.19204 1.19185 1.19201 1.19178 1.1918 1.19243 1.19195 1.19199 1.19204 1.19177 1.19187 1.19165 1.19218 1.19211 1.19207 1.19206 1.19196 1.19178 1.19178 1.19188 1.19186 1.19185 1.19185 1.19211 1.19202 1.19211 1.19191 1.19223 1.19214 1.19192 1.19222 1.19189 1.19205 1.19176 1.19202 1.19127 1.19193 1.1922 1.19225 1.19191 1.1917 1.19228 1.19205 1.19216 1.19225 1.19301 1.19183 1.19203 1.19213 1.19178 1.19178 1.19279 1.19178 1.19306 1.19257 1.19212 1.19265 1.19209 1.19247 1.19188 1.19203 1.19268 1.19217 1.1922 1.19219 1.19131 1.19239 1.1922 1.19209 1.1929 1.19256 1.19224 1.19298 1.192 1.19255 1.19234 1.19264 1.19198 1.19246 1.1919 1.19266 1.19277 1.19207 1.19254 1.19198 1.19208 1.19217 1.19208 1.19273 1.19274 1.19234 1.1921 1.19269 1.1926 1.19243 1.19197 1.19268 1.19118 1.19174 1.19247 1.19192 1.19208 1.19229 1.19216 1.19177 1.19194 1.19174 1.19216 1.19176 1.19208 1.19211 1.1921 1.192 1.19179 1.19277 1.19191 1.1918 1.19186 1.19217 1.19185 1.19211 1.19219 1.19211 1.19185 1.19218 1.19218 1.19197 1.19205 1.19182 1.19176 1.19161 1.19122 1.192 1.19266 1.19217 1.19139 1.1925 1.19205 1.19224 1.19222 1.19218 1.19296 1.19188 1.19182 1.19183 1.19201 1.19208 1.19208 1.19178 1.1917 1.19176 1.19171 1.19253 1.19279 1.19271 1.19207 1.19308 1.1917 1.19251 1.19181 1.19221 1.19253 1.19184 1.1919 1.19213 1.19273 1.19257 1.19253 1.19242 1.19223 1.19132 1.19236 1.19276 1.19254 1.19172 1.19306 1.19251 1.19235 1.19254 1.192 1.19154 1.19221 1.19221 1.19226 1.19165 1.1927 1.19216 1.19211 1.19204 1.19178 1.19202 1.19216 1.19259 1.19257 1.19236 1.19198 1.19266 1.192 1.1911 1.19187 1.19174 1.19271 1.19241 1.19225 1.19188 1.192 1.19226 1.19214 1.19193 1.19207 1.19197 1.19163 1.19275 1.19195 1.19198 1.19188 1.19217 1.19179 1.1919 1.19181 1.19174 1.19196 1.19212 1.19212 1.19204 1.19195 1.19224 1.19196 1.19163 1.1918 1.19182 1.19184 1.19199 1.19191 1.19201 1.19184 1.19308 1.19218 1.19298 1.19289 1.19193 1.19201 1.19198 1.19194 1.19161 1.19168 1.19139 1.19274 1.19496 1.19216 1.19166 1.19143 1.19237 1.19226 1.19251 1.19231 1.19195 1.19232 1.1927 1.19252 1.19165 1.19234 1.19178 1.19209 1.19267 1.19312 1.19383 1.19298 1.19199 1.1924 1.19198 1.19249 1.19159 1.19223 1.19178 1.1921 1.19207 1.19173 1.19265 1.19216 1.19129 1.19199 1.19269 1.19209 1.19215 1.19251 1.19228 1.19266 1.19191 1.19227 1.19114 1.19191 1.19183 1.1914 1.19176 1.19184 1.19176 1.192 1.19227 1.19218 1.19224 1.19207 1.1916 1.19201 1.1919 1.19189 1.19196 1.19241 1.19222 1.19196 1.19208 1.19186 1.19171 1.19191 1.1919 1.19195 1.19194 1.19203 1.19218 1.19205 1.192 1.19227 1.19196 1.19215 1.19148 1.19186 1.1918 1.19182 1.19181 1.19186 1.19165 1.19247 1.19261 1.19192 1.1921 1.19268 1.19297 1.19282 1.19193 1.19266 1.19193 1.19408 1.19122 1.19162 1.1914 1.19178 1.19202 1.19263 1.1916 1.19175 1.19156 1.19266 1.19246 1.19162 1.19229 1.19191 1.19231 1.19201 1.19305 1.19214 1.19248 1.19189 1.19308 1.19323 1.1929 1.19207 1.19179 1.19176 1.19187 1.19238 1.19155 1.19219 1.19152 1.19206 1.19176 1.1922 1.19175 1.19218 1.19266 1.19132 1.19193 1.19178 1.19178 1.19172 1.19211 1.19234 1.19117 1.19223 1.1922 1.19239 1.19181 1.1925 1.19188 1.19184 1.19158 1.19204 1.19145 1.19218 1.19255 1.19195 1.19194 1.1918 1.19238 1.19189 1.19203 1.19167 1.19211 1.19178 1.19208 1.19136 1.19175 1.19198 1.19189 1.19213 1.19199 1.19195 1.19225 1.19202 1.19232 1.19157 1.19286 1.19206 1.19167 1.19183 1.19155 1.19174 1.19201 1.19276 1.19225 1.19263 1.19293 1.19275 1.19191 1.19321 1.19299 1.19157 1.1932 1.19178 1.19152 1.19202 1.19258 1.19104 1.19266 1.19251 1.1922 1.19072 1.19178 1.19262 1.19244 1.19263 1.19223 1.19188 1.19228 1.19182 1.19196 1.19301 1.19219 1.1926 1.19227 1.19217 1.19239 1.19318 1.19244 1.19206 1.19236 1.19211 1.19208 1.19169 1.19236 1.19206 1.19191 1.19132 1.19252 1.19176 1.19265 1.19182 1.19197 1.19178 1.1911 1.19162 1.19197 1.19225 1.1913 1.19151 1.1921 1.19203 1.19178 1.19184 1.19177 1.19168 1.19157 1.19215 1.19171 1.19122 1.19272 1.19228 1.19194 1.19227 1.19196 1.19158 1.19191 1.19161 1.19222 1.19198 1.19188 1.19209 1.19164 1.19203 1.19134 1.19174 1.19185 1.19194 1.19215 1.19193 1.19192 1.19223 1.19203 1.19224 1.19197 1.19271 1.19204 1.19271 1.1918 1.1922 1.19165 1.19207 1.19272 1.19269 1.19195 1.19178 1.19246 1.19271 1.19258 1.19197 1.19304 1.19302 1.19306 1.19321 1.19326 1.1928 1.19366 1.19284 1.19305 1.19158 1.19122 1.19231 1.19246 1.19209 1.19072 1.19174 1.19255 1.19253 1.19192 1.19219 1.19188 1.19219 1.19192 1.19178 1.19285 1.19214 1.19241 1.19209 1.19214 1.19229 1.19295 1.1925 1.19235 1.19178 1.19202 1.19226 1.19203 1.19205 1.19188 1.19226 1.19205 1.19106 1.19173 1.19256 1.19157 1.19264 1.19209 1.19175 1.19131 1.1916 1.19151 1.19173 1.19118 1.19216 1.19122 1.19169 1.19254 1.19185 1.19147 1.19181 1.19202 1.19201 1.19205 1.19162 1.1924 1.19208 1.19223 1.19196 1.1912 1.19178 1.19217 1.19185 1.19158 1.19162 1.19217 1.19196 1.19194 1.19187 1.19216 1.19186 1.19181 1.19172 1.19162 1.19125 1.1918 1.19181 1.19183 1.19178 1.19164 1.19178 1.19201 1.19178 1.19179 1.19185 1.19197 1.19201 1.19233 1.19178 1.19173 1.19342 1.19341 1.19064 1.19265 1.19255 1.19204 1.19178 1.19217 1.19257 1.19348 1.19367 1.19265 1.19275 1.19303 1.19277 1.19193 1.19306 1.19131 1.19119 1.19105 1.19215 1.19199 1.18987 1.19236 1.19258 1.19182 1.19204 1.19197 1.19229 1.19181 1.18963 1.19214 1.19273 1.19205 1.1922 1.19303 1.1922 1.19209 1.19222 1.19175 1.19133 1.19247 1.19207 1.19184 1.19127 1.1925 1.19124 1.19198 1.19142 1.1919 1.19119 1.19183 1.19256 1.19159 1.19156 1.19246 1.19287 1.19321 1.19208 1.19172 1.19153 1.19166 1.19175 1.19237 1.19297 1.19305 1.19171 1.19227 1.19175 1.19178 1.19168 1.19158 1.19205 1.19157 1.19188 1.19243 1.19128 1.19181 1.19191 1.19188 1.19235 1.19155 1.19151 1.19213 1.19192 1.19185 1.19214 1.19172 1.19175 1.1922 1.19242 1.19165 1.19243 1.19183 1.19182 1.19211 1.1915 1.19154 1.19179 1.19197 1.19177 1.19184 1.19153 1.19178 1.19243 1.19194 1.19166 1.19418 1.19044 1.19171 1.19238 1.19259 1.19242 1.1931 1.19351 1.19244 1.19365 1.19292 1.19286 1.19298 1.19207 1.19178 1.19041 1.19305 1.19016 1.19104 1.19214 1.19184 1.19157 1.19264 1.1915 1.19134 1.19178 1.19191 1.19199 1.19287 1.19162 1.19072 1.19108 1.19107 1.19164 1.19158 1.19181 1.1922 1.19212 1.19219 1.19187 1.19202 1.19178 1.19148 1.19178 1.19244 1.1914 1.19183 1.19116 1.19177 1.19245 1.18892 1.19314 1.19215 1.19232 1.19241 1.19131 1.19207 1.19175 1.19123 1.19187 1.19247 1.19207 1.19154 1.19176 1.19171 1.19138 1.19152 1.19175 1.19208 1.19266 1.19202 1.19184 1.19172 1.19166 1.19218 1.19172 1.19149 1.19136 1.19207 1.19191 1.19183 1.19215 1.19175 1.19178 1.19239 1.19233 1.19175 1.1921 1.1915 1.19184 1.19183 1.192 1.19161 1.19206 1.19183 1.19205 1.19238 1.19178 1.19166 1.19426 1.19275 1.19234 1.19311 1.19245 1.19178 1.19178 1.1926 1.19356 1.19368 1.19293 1.19282 1.19392 1.19274 1.19209 1.19274 1.19267 1.1923 1.19259 1.19013 1.19172 1.19157 1.19198 1.19178 1.1922 1.19213 1.19191 1.1922 1.1908 1.19175 1.19161 1.19178 1.19199 1.19157 1.19204 1.19156 1.19203 1.1921 1.19159 1.19066 1.19189 1.19065 1.19175 1.19165 1.19118 1.19142 1.19147 1.19186 1.19032 1.19051 1.19237 1.19248 1.19244 1.19211 1.19235 1.19139 1.19228 1.19196 1.1912 1.1917 1.19239 1.19122 1.19163 1.19167 1.19159 1.19219 1.19158 1.19191 1.19113 1.19261 1.1913 1.19154 1.19185 1.19158 1.19206 1.1916 1.19145 1.19133 1.19202 1.19181 1.19184 1.19136 1.19181 1.19198 1.1923 1.192 1.19225 1.19196 1.19182 1.19187 1.19167 1.1917 1.19146 1.19172 1.19156 1.19158 1.1921 1.19031 1.19114 1.19225 1.1928 1.19309 1.1912 1.19345 1.19364 1.19281 1.19309 1.1922 1.19178 1.19326 1.19359 1.1923 1.19339 1.19204 1.19233 1.19319 1.19357 1.19024 1.19187 1.19143 1.1918 1.19243 1.19181 1.19158 1.19173 1.19338 1.19162 1.1912 1.19178 1.19178 1.19156 1.19128 1.19171 1.19201 1.19165 1.19159 1.19148 1.19158 1.19218 1.19119 1.19197 1.19148 1.19102 1.19175 1.19154 1.19115 1.19142 1.1918 1.19029 1.19067 1.19063 1.19223 1.192 1.19308 1.19259 1.19224 1.19136 1.19185 1.19178 1.19178 1.19178 1.19036 1.19094 1.19167 1.19132 1.19175 1.19181 1.19166 1.19172 1.19217 1.19221 1.19179 1.19192 1.19175 1.1913 1.19157 1.19217 1.19199 1.19116 1.19153 1.19157 1.19181 1.19178 1.19162 1.19125 1.19094 1.192 1.19128 1.19149 1.19185 1.19254 1.19223 1.19194 1.19208 1.19172 1.19156 1.19142 1.19148 1.19139 1.19243 1.19329 1.19336 1.19196 1.19299 1.19058 1.1925 1.19206 1.19249 1.19375 1.19301 1.19162 1.19303 1.19299 1.19363 1.19249 1.19195 1.19297 1.19202 1.19232 1.19318 1.19389 1.1952 1.19513 1.1935 1.19019 1.19036 1.19168 1.1924 1.19169 1.1926 1.191 1.19233 1.19368 1.19375 1.19165 1.19135 1.19102 1.19151 1.19152 1.19153 1.1919 1.1915 1.19195 1.19147 1.19159 1.19179 1.19229 1.19162 1.19127 1.19122 1.19156 1.19161 1.19155 1.19149 1.19113 1.19135 1.19154 1.19225 1.19028 1.19136 1.19203 1.19202 1.19265 1.19112 1.19211 1.19137 1.19188 1.19187 1.19187 1.19174 1.19026 1.19114 1.19173 1.19213 1.1915 1.19162 1.19182 1.19115 1.19155 1.19166 1.19174 1.19202 1.19173 1.19151 1.19138 1.19105 1.19203 1.19183 1.19191 1.19127 1.19175 1.19173 1.19142 1.19193 1.19211 1.19187 1.19249 1.19145 1.19138 1.19141 1.19276 1.18939 1.1912 1.19395 1.19381 1.19289 1.19038 1.1915 1.19173 1.19356 1.19337 1.1916 1.19138 1.19349 1.19339 1.19343 1.19196 1.19142 1.19174 1.19293 1.19258 1.19149 1.19396 1.19403 1.19115 1.19113 1.19358 1.19307 1.19163 1.19197 1.19243 1.19002 1.19134 1.19158 1.19178 1.1917 1.19229 1.19113 1.19148 1.19153 1.19181 1.19148 1.19166 1.19163 1.19154 1.19116 1.19151 1.1912 1.1914 1.19133 1.19182 1.19148 1.19139 1.19153 1.19108 1.19145 1.1921 1.19096 1.19178 1.19198 1.19138 1.19208 1.19248 1.19115 1.19197 1.19137 1.19189 1.19226 1.19185 1.19188 1.19038 1.19054 1.19095 1.19173 1.19178 1.19166 1.1916 1.19186 1.19135 1.19191 1.19188 1.19168 1.1916 1.19184 1.19145 1.1918 1.19143 1.19178 1.19182 1.1915 1.19183 1.19201 1.19178 1.19129 1.19127 1.19178 1.19181 1.19138 1.19144 1.19217 1.19284 1.19202 1.19221 1.19221 1.1921 1.19212 1.19275 1.19047 1.19135 1.19357 1.19265 1.19348 1.19187 1.19175 1.19328 1.19192 1.192 1.19162 1.19248 1.19379 1.19293 1.19345 1.19377 1.19219 1.1915 1.19112 1.19272 1.19156 1.19355 1.19365 1.19226 1.19342 1.19317 1.19188 1.19161 1.19178 1.18997 1.19126 1.19146 1.19158 1.1922 1.19102 1.19147 1.19103 1.19134 1.19143 1.19155 1.19164 1.19173 1.19129 1.19085 1.19127 1.19109 1.19218 1.19188 1.1916 1.19095 1.19153 1.19107 1.19132 1.19094 1.19228 1.19109 1.19178 1.19201 1.19239 1.19123 1.19155 1.19135 1.19184 1.19191 1.1918 1.19166 1.19191 1.19032 1.19055 1.191 1.19082 1.19161 1.19159 1.19171 1.19131 1.19184 1.19187 1.19184 1.19173 1.19161 1.19159 1.19183 1.19183 1.19146 1.19137 1.19113 1.19097 1.19204 1.19171 1.19166 1.19118 1.19132 1.19281 1.19204 1.19178 1.19134 1.19266 1.19229 1.19278 1.1918 1.19178 1.19271 1.19488 1.19145 1.19338 1.19325 1.19222 1.19487 1.19128 1.19383 1.19278 1.19348 1.1925 1.19358 1.19262 1.19237 1.19267 1.19404 1.19347 1.1926 1.19207 1.19353 1.19361 1.19218 1.19213 1.19184 1.19162 1.19403 1.19271 1.19252 1.19118 1.19178 1.19135 1.19368 1.19141 1.19182 1.19094 1.18951 1.1913 1.19154 1.19178 1.19173 1.19154 1.19194 1.19081 1.19125 1.19111 1.19107 1.19228 1.19133 1.1923 1.19182 1.19147 1.19096 1.19058 1.19141 1.19042 1.19096 1.19218 1.19097 1.19134 1.19134 1.192 1.19237 1.19099 1.19137 1.19131 1.19173 1.19178 1.1917 1.19164 1.19189 1.19177 1.19138 1.19182 1.19063 1.19113 1.1908 1.19074 1.19067 1.19161 1.1916 1.19172 1.19186 1.1913 1.19128 1.19187 1.19179 1.19148 1.19117 1.1913 1.19103 1.19183 1.19178 1.19126 1.19154 1.19178 1.19146 1.19116 1.19132 1.19154 1.19349 1.19217 1.19099 1.19238 1.1923 1.19076 1.1923 1.19219 1.1912 1.19178 1.19372 1.19518 1.19316 1.19321 1.19174 1.19232 1.19217 1.19472 1.19105 1.19257 1.19266 1.19229 1.19265 1.19385 1.19199 1.1924 1.19201 1.19363 1.19358 1.19211 1.19237 1.19105 1.19356 1.19248 1.19126 1.19349 1.19235 1.19064 1.19141 1.19052 1.19178 1.19178 1.19178 1.19269 1.19173 1.19198 1.19147 1.191 1.19096 1.19149 1.19116 1.19241 1.19139 1.19178 1.19142 1.19095 1.19159 1.19057 1.19211 1.19098 1.19131 1.19108 1.19112 1.19134 1.19127 1.19138 1.19156 1.19178 1.19185 1.19175 1.19182 1.19142 1.1911 1.19197 1.19034 1.19081 1.19096 1.19178 1.19067 1.19132 1.19144 1.19188 1.19155 1.1919 1.1915 1.19178 1.19155 1.19162 1.1915 1.19116 1.19117 1.19152 1.19124 1.19178 1.19172 1.19179 1.19177 1.19186 1.1918 1.19168 1.1911 1.19136 1.19166 1.19346 1.19205 1.19091 1.19127 1.1923 1.19222 1.19217 1.19184 1.19183 1.19467 1.19381 1.19305 1.19348 1.1926 1.19187 1.19467 1.19351 1.19203 1.19265 1.19368 1.1933 1.19283 1.19354 1.19215 1.19232 1.19196 1.19213 1.19116 1.19313 1.19193 1.19303 1.19411 1.19174 1.18969 1.1914 1.19154 1.19137 1.19144 1.19219 1.19224 1.19059 1.19136 1.19047 1.19179 1.19154 1.19147 1.19176 1.19185 1.19185 1.19187 1.19142 1.19151 1.19082 1.19188 1.19107 1.19083 1.19133 1.19135 1.19148 1.19131 1.1911 1.19056 1.1918 1.19157 1.19161 1.19143 1.19119 1.191 1.19169 1.19125 1.19165 1.19164 1.1919 1.19168 1.19163 1.19186 1.19192 1.19037 1.1905 1.19087 1.19152 1.19063 1.19132 1.19171 1.19179 1.19185 1.19182 1.19171 1.19171 1.19155 1.19157 1.19164 1.19178 1.19151 1.19177 1.19189 1.19157 1.19183 1.19123 1.19179 1.19241 1.19255 1.19178 1.19108 1.1912 1.19144 1.1919 1.19182 1.19201 1.19181 1.19267 1.19133 1.19233 1.19193 1.19208 1.19338 1.1918 1.19409 1.19364 1.19206 1.1935 1.19212 1.19325 1.19396 1.19183 1.19306 1.19227 1.19337 1.19261 1.19253 1.19196 1.19247 1.1929 1.19199 1.19315 1.19175 1.19178 1.19233 1.19126 1.19149 1.19163 1.19081 1.19218 1.19133 1.1922 1.19076 1.19152 1.191 1.19062 1.19119 1.1915 1.19159 1.19184 1.19129 1.19086 1.19095 1.19237 1.19178 1.19103 1.19103 1.19178 1.19157 1.1913 1.19158 1.19056 1.19178 1.19177 1.19082 1.19243 1.19146 1.19096 1.19163 1.1915 1.19178 1.19111 1.19125 1.19164 1.19179 1.19178 1.19163 1.19177 1.19171 1.1917 1.19171 1.1912 1.19149 1.19062 1.19156 1.1917 1.19151 1.19153 1.19179 1.19155 1.19155 1.19172 1.19183 1.19185 1.19191 1.19123 1.19242 1.19162 1.1917 1.19144 1.19216 1.19166 1.19203 1.19183 1.1917 1.19187 1.19139 1.19105 1.19147 1.19166 1.19088 1.19059 1.1923 1.19233 1.19192 1.19184 1.19258 1.19309 1.19415 1.19351 1.1951 1.19364 1.19178 1.19146 1.19168 1.18943 1.19172 1.1937 1.19616 1.19196 1.1938 1.19216 1.19283 1.191 1.19322 1.19461 1.19204 1.19033 1.19126 1.19146 1.19162 1.19068 1.19201 1.19215 1.19215 1.19223 1.19207 1.19089 1.19102 1.19071 1.19174 1.19163 1.19144 1.19182 1.19134 1.19136 1.1913 1.19066 1.19078 1.19097 1.19153 1.19144 1.19125 1.1909 1.19237 1.19231 1.19174 1.19182 1.19092 1.19194 1.19164 1.19146 1.19144 1.19119 1.19199 1.19085 1.1911 1.19123 1.19182 1.19176 1.19168 1.19178 1.19177 1.19169 1.19171 1.19161 1.1916 1.19178 1.19057 1.19063 1.19153 1.19172 1.19176 1.19178 1.19172 1.19178 1.19154 1.19169 1.19167 1.19147 1.1914 1.19178 1.19189 1.19187 1.19174 1.19178 1.192 1.19179 1.19092 1.19086 1.19105 1.19136 1.19054 1.19218 1.19245 1.19155 1.19192 1.19099 1.19096 1.1925 1.19243 1.19282 1.19373 1.19183 1.1939 1.19361 1.19305 1.19234 1.19234 1.18995 1.19175 1.19177 1.19605 1.19219 1.19201 1.19148 1.19391 1.19182 1.19297 1.19187 1.19112 1.19122 1.19366 1.19077 1.19391 1.19035 1.19103 1.19135 1.19178 1.1917 1.19108 1.19143 1.1923 1.19113 1.19211 1.191 1.19186 1.19187 1.19154 1.19058 1.1919 1.19178 1.19138 1.19146 1.19183 1.19147 1.19151 1.19142 1.1914 1.19132 1.19178 1.1914 1.19138 1.1918 1.19144 1.19123 1.1918 1.19158 1.1917 1.19094 1.19117 1.19113 1.19119 1.19163 1.19178 1.19177 1.1917 1.19172 1.19178 1.19178 1.19178 1.19158 1.19176 1.19178 1.19178 1.19173 1.19177 1.19178 1.19152 1.19151 1.19169 1.19167 1.19179 1.19169 1.19157 1.19179 1.1917 1.1911 1.19167 1.192 1.19162 1.19201 1.19104 1.19086 1.19183 1.19139 1.19072 1.1909 1.1906 1.19105 1.19123 1.19211 1.19077 1.19213 1.19168 1.19264 1.19188 1.19399 1.19283 1.193 1.19195 1.19482 1.19015 1.19261 1.19171 1.19427 1.18932 1.19085 1.1901 1.19282 1.19312 1.19285 1.1907 1.19133 1.19102 1.19049 1.19187 1.19157 1.19125 1.1911 1.19111 1.19114 1.19171 1.19181 1.19186 1.19141 1.19178 1.19197 1.1915 1.19186 1.19146 1.19083 1.19132 1.1914 1.1914 1.19173 1.19162 1.19178 1.19176 1.19189 1.19143 1.19126 1.19136 1.19073 1.19132 1.19147 1.19116 1.19163 1.19164 1.19178 1.19173 1.19178 1.19178 1.19178 1.19178 1.19176 1.19171 1.19178 1.19178 1.19178 1.19159 1.19159 1.19178 1.19178 1.19178 1.19178 1.19177 1.19152 1.19166 1.19177 1.19173 1.19179 1.19181 1.1911 1.19121 1.19186 1.19113 1.19151 1.1918 1.19044 1.1914 1.19083 1.19051 1.18975 1.19104 1.19129 1.1916 1.19246 1.19193 1.19518 1.19331 1.1948 1.19268 1.19062 1.19208 1.19519 1.18961 1.19193 1.19325 1.19096 1.19133 1.18996 1.19169 1.18927 1.19067 1.19273 1.18962 1.19167 1.19185 1.19176 1.19164 1.19106 1.19126 1.1912 1.19095 1.19185 1.19179 1.19143 1.19138 1.1918 1.19172 1.19195 1.19078 1.19148 1.19163 1.19163 1.19164 1.19166 1.19169 1.19134 1.19171 1.19067 1.19144 1.19117 1.19163 1.19173 1.1917 1.19178 1.19169 1.19173 1.19171 1.19149 1.19119 1.19113 1.19022 1.19106 1.19063 1.18891 1.19033 1.19034 1.19115 1.19065 1.19143 1.19201 1.19214 1.19532 1.19273 1.19017 1.19235 1.19065 1.19327 1.19471 1.18936 1.19182 1.19249 1.19108 1.19093 1.19101 1.18953 1.19121 1.19096 1.18874 1.18904 1.18908 1.19073 1.19138 1.19165 1.19105 1.19109 1.19132 1.19137 1.19178 1.19145 1.19186 1.19144 1.1914 1.19135 1.19115 1.19177 1.1911 1.19164 1.19134 1.19143 1.19141 1.19072 1.1908 1.19139 1.19158 1.19272 1.19021 1.19005 1.19243 1.1918 1.1925 1.19089 1.19263 1.19311 1.19305 1.19522 1.19278 1.19298 1.19419 1.19287 1.19535 1.19074 1.19165 1.19063 1.18986 1.18883 1.19164 1.19082 1.19276 1.19103 1.19286 1.19241 1.1935 1.19229 1.19305 1.19178 1.19407 1.19462 1.19338 1.19518 1.19189 1.19077 1.1899 1.18938 1.18852 1.18877 1.19093 1.1907 1.19008 1.19142 1.19341 1.19179 1.19202 1.19084 1.1921 1.19349 1.19257 1.19237 1.1938 1.19495 1.19426 1.18922 1.1919 1.19158 1.19178 1.19062 1.19178 1.18917 1.18911 1.18796 1.19116 1.19178 1.19216 1.19172 1.18975 1.19234 1.19135 1.19303 1.19205 1.19354 1.19289 1.1932 1.19565 1.18916 1.19162 1.19061 1.18944 1.1891 1.18813 1.19009 1.19178 1.19226 1.19099 1.19285 1.19024 1.19349 1.19312 1.19163 1.19332 1.19363 1.19188 1.19692 1.19152 1.19427 1.19405 1.18916 1.18758 1.19341 1.19274 1.19433 1.19178 1.19178 1.19178 1.19178 1.19178 1.19178 1.19178 1.19178 1.19178 1.19178 1.19178 1.19178 1.19178 1.19178 1.19178 1.192 1.19149 1.19143 1.19147 1.19401 1.19034 1.19136 1.19105 1.19321 1.19004 1.19686 1.19151 1.19011 1.19146 1.19292 1.18914 1.19254 1.19232 1.19279 1.19288 1.19178 1.19178 1.19178 1.19178 1.19178 1.19178 1.19178 1.19178 1.19178 1.19178 1.19178 1.19178 1.19178 1.19178 1.19178 1.19178 1.19178 1.19178 1.19178 1.19178 1.19178 1.19178 1.19178 1.19178 1.19178 1.19178 1.19178 1.19178 1.19178 1.19178 1.19178 1.19178 1.19182 1.19178 1.19178 1.19181 1.19069 1.19093 1.19141 1.19636 1.1914 1.19076 1.19106 1.1978 1.19619 1.19075 1.19072 1.1916 1.19748 1.18885 1.19123 1.19209 1.19205 1.19555 1.19211 1.19278 1.19299 1.19178 1.19178 1.19178 1.19178 1.19178 1.19178 1.19178 1.19178 1.19178 1.19178 1.19178 1.19178 1.19178 1.19178 1.19178 1.19178 1.19178 1.19178 1.19178 1.19178 1.19178 1.19178 1.19178 1.19178 1.19178 1.19178 1.19178 1.19178 1.19182 1.19207 1.19855 1.19041 1.19002 1.19087 1.19361 1.1913 1.19308 1.189 1.19475 1.19442 1.1919 1.18859 1.19592 1.1882 1.19 1.19098 1.19482 1.19388 1.19435 1.19164 1.19189 1.18965 1.19676 1.19225 1.19204 1.19181 1.19178 1.19178 1.19178 1.19178 1.19178 1.19178 1.19178 1.19178 1.19178 1.19178 1.19178 1.19178 1.19178 1.19178 1.19178 1.19178 1.19178 1.19178 1.19178 1.19178 1.19178 1.19178 1.19178 1.19178 1.19178 1.19178 1.19178 1.19178 1.19178 1.19178 1.19178 1.19178 1.19178 1.19178 1.19178 1.19178 1.19178 1.19178 1.19178 1.19178 1.19199 1.19334 1.18884 1.19582 1.18989 1.19061 1.19295 1.193 1.1911 1.19365 1.18847 1.1947 1.18887 1.18496 1.18759 1.18998 1.19048 1.1959 1.19244 1.19538 1.19377 1.19047 1.19207 1.19176 1.19178 1.19178 1.19178 1.19178 1.19178 1.19178 1.19178 1.19178 1.19178 1.19178 1.19178 1.19178 1.19178 1.19178 1.19178 1.19178 1.19178 1.19178 1.19178 1.19178 1.19178 1.19178 1.19178 1.19178 1.19178 1.19178 1.19178 1.19178 1.19178 1.19178 1.19178 1.19178 1.19178 1.19178 1.19178 1.20365 1.19178 1.19178 1.19178 1.19178 1.19178 1.19178 1.19178 1.19178 1.19178 1.19178 1.19178 1.19178 1.19178 1.19185 1.19154 1.19178 1.19161 1.18976 1.19037 1.19167 1.19236 1.19291 1.18854 1.19355 1.19198 1.18994 1.18613 1.19178 1.18693 1.19427 1.19142 1.19662 1.1947 1.19501 1.18822 1.19186 1.19186 1.19178 1.19178 1.19178 1.19178 1.19178 1.19178 1.19178 1.19178 1.19178 1.19178 1.19178 1.19178 1.19178 1.19178 1.19178 1.19178 1.19178 1.19178 1.19178 1.19178 1.19178 1.19178 1.19178 1.19178 1.19178 1.19178 1.19178 1.19178 1.19178 1.19178 1.19526 1.19526 1.24226 1.19178 1.19178 1.19178 1.19178 1.19178 1.19178 1.19178 1.19178 1.19159 1.19178 1.19178 1.19178 1.19178 1.19178 1.19146 1.19143 1.19236 1.20184 1.19056 1.19436 1.18917 1.18873 1.18743 1.19043 1.19524 1.19218 1.19181 1.19158 1.19103 1.20445 1.18749 1.18799 1.19337 1.19308 1.19492 1.1903 1.19225 1.18855 1.19559 1.19035 1.19178 1.19178 1.19178 1.19178 1.19178 1.19178 1.19178 1.19178 1.19178 1.19178 1.19178 1.19178 1.19178 1.19178 1.19178 1.19178 1.19178 1.19178 1.19178 1.19178 1.19192 1.19268 1.19178 1.19178 1.19178 1.19178 1.19178 1.19178 1.19128 1.18225 1.18363 1.20052 1.40108 1.17927 1.19833 1.19178 1.19178 1.19178 1.19178 1.19178 1.19178 1.19178 1.19178 1.19178 1.19178 1.19178 1.19178 1.18711 1.1916 1.19406 1.18565 1.19178 1.19389 1.19323 1.1913 1.19178 1.19477 1.20166 1.19633 1.19804 1.18937 1.19051 1.19923 1.19336 1.19187 1.1875 1.1887 1.19065 1.19245 1.19178 1.19178 1.19178 1.19178 1.19178 1.19178 1.19178 1.19178 1.19178 1.19178 1.19178 1.19178 1.19178 1.19178 1.19178 1.19178 1.19178 1.19178 1.19178 1.19178 1.1923 1.19178 1.19578 1.19502 1.19316 1.19178 1.19178 1.19178 1.19178 1.19178 1.19178 1.19178 1.19178 1.19178 1.19178 1.19178 1.20405 1.24066 1.19127 1.19174 1.19176 1.19178 1.19178 1.19178 1.19178 1.19178 1.19178 1.19178 1.19178 1.19178 1.19447 1.19552 1.19536 1.20644 1.19537 1.18552 1.19378 1.19299 1.19112 1.1893 1.19658 1.19568 1.19064 1.19584 1.19582 1.1918 1.19877 1.20228 1.19525 1.19515 1.196 1.19001 1.19507 1.19178 1.19178 1.19178 1.19178 1.19184 1.19178 1.19178 1.19178 1.19178 1.19178 1.19165 1.19135 1.19178 1.18412 1.21964 1.19391 1.19178 1.19178 1.19178 1.19178 1.19178 1.18983 1.19178 1.19178 1.19178 1.19178 1.15101 1.05332 1.19177 1.19178 1.19178 1.19178 1.19178 1.19178 1.19178 1.18825 1.18381 1.20952 1.20795 1.1866 1.19472 1.19215 1.1928 1.19541 1.1921 1.19378 1.19469 1.20707 1.19445 1.19449 1.19811 1.21504 1.19064 1.19178 1.19178 1.19178 1.19178 1.19178 1.19178 1.19167 1.19186 1.19101 1.1915 1.19165 1.19194 1.19178 1.19178 1.19178 1.19178 1.19178 1.19171 1.18803 1.15952 1.19178 1.19178 0.0399965 0.0186749 0.156227 0.222043 1.18831 1.19669 1.54352 5.1044 0.25645 0.162502 0.0829864 0.131006 0.246411 0.179204 0.0962707 0.14464 0.107845 0.0886407 0.101397 0.16834 0.277668 0.45204 0.51067 0.171869 0.701016 0.609729 1.49425 0.516451 4.40165 0.47157 0.451134 0.460063 0.440691 1.19178 0.330345 0.394823 1.23519 3.10133 1.43652 0.755516 0.44811 0.505219 0.488694 1.19177 0.359746 0.253437 0.127408 0.0943822 0.204755 0.506288 0.703436 0.918051 3.28351 1.4603 0.135118 2.03163 4.11979 0.836338 0.986682 1.29394 1.19197 1.22094 1.18792 1.1924 1.19052 1.19065 1.1903 1.1947 1.18599 1.19442 1.19226 1.19888 1.19955 1.19343 1.20163 1.19898 1.22632 1.18752 0.990527 3.28729 0.548135 1.19178 0.319193 0.258741 0.131509 0.0863232 0.20114 1.19178 0.571686 0.248914 2.69516 2.4411 0.598117 0.0694633 0.318955 0.19445 0.305514 0.235792 1.18575 0.454567 0.264162 0.244845 0.234954 0.327768 0.243664 0.142116 0.141784 0.273278 1.60524 0.788712 1.40917 0.226931 0.524415 0.793989 0.761764 0.533038 1.22664 1.7842 0.776646 1.82312 1.39958 0.451112 0.152096 1.31804 1.75942 3.22276 0.890547 0.791342 0.802305 0.614292 1.15556 1.19597 0.16854 0.249832 0.206175 0.0891765 0.0954771 0.095609 0.0820775 0.141536 0.228473 0.240274 0.278391 0.292435 0.581828 0.359476 1.54786 0.189639 0.446721 0.22246 0.0873338 0.298273 0.376325 0.390632 0.276684 0.27656 0.188891 0.0761704 0.0954401 0.110574 0.494271 0.228837 0.203694 0.0733079 0.172489 0.249821 0.158191 0.244345 0.241114 0.318215 0.0740379 0.654443 0.269954 0.199959 0.439289 0.280991 0.792458 0.363068 0.810789 0.353409 0.265732 0.433835 0.138311 0.383926 0.526664 0.316164 0.466975 1.6209 1.0249 0.89484 0.652603 0.493506 0.609636 0.477445 0.46293 0.32655 0.325362 0.200786 0.139601 0.158389 0.148459 0.3251 0.153732 0.262968 0.477198 0.285818 0.218526 0.516983 1.34799 0.134872 2.02925 0.655958 1.26002 1.6667 1.1211 0.351016 0.287981 0.582066 1.14054 1.33838 1.18211 1.23788 1.21951 1.21583 1.18684 1.19058 1.20023 1.1904 1.18705 1.18541 1.19405 1.19237 1.19939 1.19885 1.19007 1.18969 1.18887 1.21706 1.2383 1.89137 0.440841 1.47964 0.791648 0.338345 0.305382 0.0967156 0.0601595 0.260244 0.321952 0.311363 0.322814 0.758128 0.794268 0.185588 0.0321438 1.51433 1.36219 1.83319 1.45414 0.785776 1.14416 0.422947 0.646898 0.304883 0.290912 0.145519 0.244676 0.438574 0.299568 0.937026 0.209137 0.118032 0.308673 0.426464 0.23004 0.392631 0.458606 0.424242 0.128011 0.437084 1.25106 0.342486 0.733864 0.495119 0.323419 0.524058 0.511638 0.863146 0.29578 0.82268 0.501682 0.550825 0.775992 0.803092 0.762612 0.749869 0.633478 0.580518 1.31731 1.51441 1.72623 0.603932 0.476079 0.276314 0.463277 0.449363 0.345215 0.198715 0.140651 0.122774 0.128593 0.125769 0.114485 0.127498 0.154291 0.155157 0.163957 0.341955 0.422368 0.151114 0.292414 0.32012 0.218822 0.0858548 0.143036 0.227169 0.154034 0.0386749 0.179237 0.185972 0.170496 0.190577 0.153896 0.304533 0.24243 0.390113 0.130172 0.28555 0.384574 0.249459 0.34986 0.176206 0.435577 0.373974 0.399888 0.377775 0.445755 0.321367 0.423533 0.313808 0.668998 0.389842 0.706353 0.369354 0.460493 0.161417 0.452454 0.343251 0.575539 0.517814 0.430172 0.242785 0.199237 0.242023 0.20473 0.231472 0.188376 0.167162 0.213761 0.255161 0.855795 0.369593 0.513073 0.513059 0.0668166 1.25516 0.453965 0.827887 0.364912 0.419085 0.600296 1.09055 1.19974 1.21752 1.23744 1.17589 1.17279 1.19327 1.18669 1.19039 1.18716 1.18493 1.1938 1.19146 1.19253 1.18991 1.19227 1.19934 1.17395 1.16194 1.19556 1.19577 0.984425 1.23118 0.461256 0.848529 0.710382 0.609443 0.401318 0.535844 0.450226 0.306598 0.700394 0.761981 0.772232 0.397578 0.0964922 0.672017 0.347825 0.288081 0.485583 0.270142 0.404405 0.368613 0.289643 0.229575 0.331477 0.603225 0.417773 0.38829 0.374846 0.211793 0.370941 0.218913 0.271457 0.269363 0.230797 0.40428 0.227544 0.150134 0.227382 0.578008 0.20106 0.475559 0.0758572 0.410323 0.253039 0.545923 0.370311 0.532873 0.195673 0.224181 0.34934 0.589759 0.190405 0.364464 0.406871 0.363453 0.49233 0.464431 1.04741 0.638423 0.177043 0.811818 0.51394 0.414109 0.606425 0.406829 0.290521 0.325591 0.31217 0.291929 0.144204 0.116008 0.22265 0.14092 0.197826 0.152691 0.200528 0.209573 0.326824 0.399939 0.27569 0.242608 0.333887 0.249988 0.195832 0.129455 0.173147 0.207208 0.217301 0.275089 0.240475 0.265456 0.143882 0.211712 0.13022 0.210433 0.247844 0.268833 0.245333 0.223299 0.246425 0.231184 0.151463 0.336351 0.254169 0.393057 0.222629 0.256258 0.179745 0.329824 0.446453 0.404904 0.547741 0.358198 0.343694 0.428046 0.355815 0.355689 0.441587 0.365022 0.464392 0.509728 0.436475 0.400239 0.327776 0.340921 0.290818 0.280902 0.24291 0.191274 0.161299 0.244192 0.333889 0.398537 0.293348 0.149756 0.365306 0.403277 0.225717 0.261438 0.223028 0.173505 0.266683 1.19178 1.1595 1.24417 1.23547 1.16913 1.19206 1.18364 1.18731 1.19007 1.18417 1.19386 1.19015 1.18912 1.18502 1.19473 1.17482 1.19308 1.18484 1.17857 1.17466 1.19178 0.640588 0.295546 0.382514 0.368979 0.351994 0.293428 0.453742 0.212739 0.430422 0.480456 0.310248 0.368353 0.430296 0.337371 0.156499 0.233255 0.315972 0.260548 0.31521 0.346291 0.391247 0.301257 0.291758 0.344938 0.149195 0.400919 0.402857 0.472926 0.243204 0.422715 0.44431 0.391263 0.474052 0.272485 0.343415 0.426382 0.403865 0.476318 0.459691 0.271276 0.469249 0.553291 0.537503 0.351611 0.182041 0.478974 0.773661 0.377675 0.56384 0.402092 0.363015 0.303456 0.381358 0.330877 0.165383 0.201052 0.169267 0.177837 0.234136 0.271159 0.206201 0.283294 0.284029 0.270221 0.315804 0.307539 0.386879 0.313722 0.253681 0.202989 0.255672 0.252529 0.292121 0.264407 0.28702 0.269655 0.287362 0.262539 0.28315 0.25109 0.267504 0.26935 0.276832 0.210185 0.229651 0.245384 0.269576 0.252696 0.316107 0.328868 0.298622 0.234721 0.345462 0.476784 0.408013 0.30326 0.339523 0.359154 0.408695 0.440766 0.377486 0.373472 0.388321 0.373269 0.389186 0.328836 0.339503 0.32055 0.28547 0.248451 0.302791 0.186646 0.241585 0.196616 0.241075 0.20577 0.156003 0.255724 0.196574 0.273333 0.238839 0.220969 1.22254 1.15919 1.14676 1.23497 1.17439 1.19039 1.18519 1.18911 1.18218 1.18493 1.18938 1.18973 1.22046 1.19145 1.2174 1.18304 1.19193 1.17895 1.1483 1.22071 0.472926 0.34045 0.324068 0.28914 0.335007 0.0540219 0.229064 0.234219 0.255473 0.438625 0.313545 0.357701 0.397579 0.36564 0.32081 0.363405 0.344151 0.325118 0.341858 0.269167 0.242945 0.27747 0.251398 0.263268 0.274053 0.339989 0.364944 0.351915 0.368724 0.279445 0.189285 0.332295 0.283833 0.247609 0.259734 0.14394 0.356339 0.402551 0.389496 0.364614 0.393345 0.433962 0.366888 0.38076 0.267244 0.384718 0.486975 0.550831 0.418542 0.450816 0.450557 0.412105 0.545886 0.505725 0.588727 0.401651 0.437541 0.448875 0.42903 0.350395 0.355242 0.329381 0.308606 0.198911 0.287603 0.246962 0.215874 0.298528 0.285465 0.330556 0.336589 0.31872 0.373274 0.370948 0.330739 0.276049 0.291626 0.293807 0.294891 0.302078 0.292551 0.291691 0.293256 0.306242 0.296798 0.26439 0.240564 0.272437 0.269529 0.288235 0.295281 0.289002 0.298778 0.303907 0.328785 0.35948 0.349606 0.335308 0.350577 0.375531 0.360597 0.363718 0.39147 0.409968 0.370253 0.360801 0.361123 0.3403 0.337438 0.339176 0.332052 0.333172 0.286499 0.207349 0.29606 0.182568 0.212058 0.212055 0.215392 0.201357 0.214306 0.236831 0.20144 0.275895 1.14379 1.15618 1.19178 1.17535 1.19129 1.18818 1.19079 1.18389 1.18121 1.19214 1.18347 1.18718 1.21464 1.18059 1.18937 1.18059 1.17184 1.15372 1.19637 0.342082 0.393669 0.320645 0.314822 0.346392 0.318166 0.326083 0.289307 0.298216 0.306946 0.334225 0.318003 0.360382 0.352271 0.342301 0.350134 0.378262 0.335276 0.314828 0.268199 0.282431 0.276796 0.313988 0.303879 0.30276 0.297467 0.337152 0.349339 0.299528 0.306343 0.21172 0.262235 0.264186 0.243103 0.148234 0.281868 0.335311 0.31525 0.385644 0.363122 0.428538 0.423439 0.406444 0.417816 0.406503 0.473642 0.48328 0.45422 0.437145 0.44156 0.456168 0.408129 0.408246 0.402437 0.3791 0.319878 0.312605 0.29701 0.241904 0.250299 0.262541 0.322861 0.333819 0.348397 0.342732 0.354927 0.359527 0.354236 0.336695 0.316854 0.309247 0.321696 0.310058 0.304743 0.31087 0.316853 0.316307 0.316593 0.325344 0.292705 0.325532 0.258647 0.321062 0.274915 0.255167 0.304608 0.291435 0.324173 0.302499 0.364161 0.358036 0.366215 0.376921 0.3928 0.378747 0.382802 0.365377 0.351914 0.349413 0.350957 0.339062 0.338956 0.333032 0.335453 0.361855 0.212418 0.24572 0.236539 0.220899 0.22592 0.232793 0.222844 0.167461 0.250231 0.236929 1.15668 1.13246 1.16532 1.18199 1.23118 1.18993 1.18646 1.19234 1.1942 1.18061 1.19178 1.18277 1.18655 1.19293 1.18237 1.18858 1.17549 1.18719 1.18588 0.373736 0.352791 0.344845 0.347963 0.313497 0.355449 0.320223 0.296221 0.34011 0.359581 0.347735 0.330399 0.328528 0.313061 0.299908 0.326998 0.319562 0.322755 0.310305 0.316269 0.314979 0.312513 0.329046 0.339129 0.340846 0.345612 0.334407 0.334754 0.280654 0.33874 0.291096 0.304496 0.324135 0.322254 0.250169 0.377571 0.367951 0.392128 0.402763 0.403631 0.382379 0.393112 0.445568 0.398385 0.413295 0.447309 0.415533 0.427755 0.417204 0.403061 0.410179 0.409858 0.382867 0.393716 0.360258 0.369434 0.325429 0.352451 0.319646 0.284414 0.320417 0.305696 0.343775 0.350226 0.355149 0.354512 0.350816 0.339376 0.335944 0.335216 0.325286 0.312771 0.325947 0.331811 0.330215 0.344047 0.3409 0.340233 0.346785 0.314051 0.33602 0.352691 0.303015 0.312947 0.305364 0.329131 0.315648 0.366641 0.37052 0.372367 0.381766 0.378719 0.373814 0.402789 0.381686 0.370092 0.365901 0.370988 0.351574 0.347157 0.340771 0.337513 0.332607 0.333858 0.354902 0.3755 0.243106 0.24858 0.272393 0.240299 0.253988 0.264006 0.246695 0.221923 1.19178 1.10437 1.15028 1.17549 1.19178 1.19178 1.18742 1.18457 1.19401 1.19178 1.18552 1.19428 1.18257 1.18635 1.19342 1.17956 1.19085 1.16771 1.17557 1.19096 0.378027 0.369147 0.364282 0.332026 0.381701 0.322099 0.325874 0.309189 0.346686 0.442461 0.356868 0.360807 0.363954 0.364446 0.356366 0.350207 0.342985 0.336317 0.333901 0.324416 0.317239 0.321036 0.330278 0.344653 0.361974 0.373235 0.361896 0.322213 0.332836 0.312398 0.355424 0.420003 0.357486 0.372488 0.352194 0.372371 0.373171 0.377244 0.387289 0.390741 0.408308 0.380009 0.399772 0.392032 0.382806 0.397256 0.387602 0.382804 0.375848 0.354756 0.345605 0.334923 0.326273 0.341274 0.327403 0.346184 0.352314 0.354204 0.35397 0.348833 0.342324 0.345763 0.343626 0.341452 0.345503 0.343252 0.326173 0.339064 0.335822 0.340822 0.350476 0.36047 0.379043 0.32862 0.341942 0.346044 0.321754 0.338309 0.333933 0.350774 0.378438 0.377336 0.365714 0.371314 0.378596 0.364685 0.386446 0.366352 0.366294 0.369599 0.362418 0.355719 0.33857 0.346014 0.342205 0.357475 0.369493 0.349776 0.21243 0.334412 0.29419 0.275785 0.271288 0.278729 0.273573 0.287732 1.19182 1.19743 1.17344 1.19178 1.19196 1.18881 1.18597 1.1913 1.19121 1.18626 1.18383 1.18943 1.18426 1.18065 1.18704 1.18131 1.19037 1.19017 1.18075 1.19338 1.16146 0.390747 0.381903 0.39593 0.375184 0.366223 0.388475 0.349761 0.295883 0.400845 0.395131 0.385629 0.369814 0.378308 0.368641 0.371783 0.359389 0.355515 0.350445 0.336106 0.32511 0.349258 0.313468 0.332669 0.344312 0.387662 0.364425 0.336831 0.345121 0.342811 0.34304 0.34477 0.359543 0.399589 0.374996 0.358652 0.352061 0.358199 0.362095 0.344848 0.360462 0.366875 0.388399 0.373356 0.371044 0.366102 0.375083 0.375815 0.385514 0.381401 0.379017 0.358948 0.355568 0.34558 0.340164 0.347669 0.342324 0.353214 0.354007 0.337338 0.346689 0.353031 0.355432 0.360187 0.369144 0.346322 0.348546 0.347722 0.352213 0.349707 0.355746 0.351632 0.345525 0.356262 0.338817 0.34933 0.362975 0.363022 0.373141 0.405817 0.354091 0.339891 0.313013 0.3569 0.36087 0.421948 0.372742 0.364029 0.378617 0.370255 0.379108 0.36045 0.372194 0.367677 0.365367 0.354103 0.34792 0.360442 0.35393 0.354049 0.357583 0.345205 0.371985 0.343913 0.311236 0.279964 0.291384 0.296286 0.28783 0.246625 0.27493 0.295914 0.275327 1.13169 1.1862 1.17811 1.19178 1.19207 1.18923 1.18681 1.19132 1.18743 1.18586 1.19283 1.19212 1.19554 1.18125 1.19328 1.18829 1.19693 1.17133 1.19134 1.19267 0.37587 0.398946 0.389229 0.394137 0.380023 0.366213 0.425958 0.399986 0.395667 0.392401 0.387856 0.382461 0.381652 0.37304 0.375738 0.362015 0.363977 0.380799 0.370062 0.316757 0.334227 0.34217 0.353904 0.365312 0.303187 0.350336 0.336492 0.375721 0.368753 0.368757 0.360848 0.339241 0.354732 0.360195 0.370187 0.361609 0.367463 0.360876 0.358423 0.389249 0.388087 0.384314 0.369711 0.356776 0.357504 0.348565 0.355926 0.358473 0.356015 0.366522 0.368842 0.342084 0.3492 0.358079 0.359801 0.360939 0.358027 0.352484 0.356799 0.350102 0.356416 0.356256 0.358698 0.355774 0.353533 0.345828 0.370043 0.363086 0.377167 0.395424 0.355721 0.35235 0.389747 0.367328 0.359339 0.398648 0.376112 0.373751 0.375411 0.372417 0.373573 0.375437 0.370072 0.369226 0.358799 0.356048 0.360224 0.356251 0.361329 0.363111 0.37835 0.365189 0.356811 0.364593 0.360406 0.37745 0.359888 0.336023 0.329977 0.314639 0.306034 0.297084 0.291608 1.18452 0.393117 0.382359 0.38989 0.389295 0.37858 0.407258 0.440664 0.395271 0.410205 0.400766 0.396431 0.389404 0.391096 0.385409 0.385518 0.378132 0.387371 0.409684 0.407889 0.411479 0.370402 0.328787 0.32213 0.377185 0.385044 0.368253 0.370208 0.36509 0.380491 0.357095 0.363522 0.365758 0.367475 0.365203 0.363966 0.349444 0.362538 0.400669 0.388187 0.374554 0.371757 0.365725 0.376127 0.346319 0.363907 0.363418 0.358411 0.368188 0.347745 0.348849 0.351568 0.361455 0.365264 0.362227 0.360116 0.357098 0.362081 0.362962 0.356556 0.364824 0.350042 0.367449 0.382099 0.406442 0.421328 0.387499 0.381073 0.370206 0.367611 0.366846 0.381889 0.379974 0.376756 0.376144 0.374058 0.375198 0.374619 0.376127 0.377973 0.375412 0.368864 0.359151 0.362894 0.364446 0.363102 0.367249 0.377824 0.379566 0.348903 0.346754 0.324001 0.322333 0.319985 0.305035 0.296551 0.3882 0.381732 0.38725 0.374009 0.401635 0.435236 0.426236 0.411048 0.408005 0.402209 0.396256 0.396462 0.402357 0.393299 0.390392 0.387612 0.391522 0.39341 0.406766 0.385489 0.338008 0.283168 0.391244 0.377867 0.382694 0.40429 0.449255 0.374156 0.374485 0.372271 0.372338 0.377032 0.37414 0.378557 0.376186 0.362642 0.36647 0.357593 0.396398 0.390378 0.367137 0.381687 0.4159 0.350786 0.357717 0.363068 0.362943 0.368132 0.350318 0.349955 0.350781 0.357976 0.358082 0.362646 0.366492 0.357747 0.363498 0.369447 0.366977 0.367744 0.355599 0.367227 0.362236 0.351834 0.374004 0.391056 0.407867 0.396715 0.376705 0.381492 0.36735 0.375996 0.380352 0.374583 0.375796 0.375572 0.379636 0.381038 0.377813 0.372666 0.368367 0.361787 0.367546 0.369107 0.363688 0.365409 0.395169 0.38476 0.344445 0.376904 0.352028 0.328748 0.323358 0.328387 0.314523 0.384682 0.382978 0.379928 0.385291 0.381947 0.405568 0.439973 0.419985 0.415985 0.405853 0.408529 0.400999 0.398374 0.393541 0.401133 0.384981 0.411575 0.382334 0.442654 0.322581 0.446852 0.455347 0.229626 0.386341 0.423699 0.364742 0.375887 0.377882 0.382228 0.379895 0.380681 0.384324 0.365108 0.362472 0.354162 0.388806 0.40806 0.378762 0.425988 0.332816 0.364946 0.36245 0.368898 0.357692 0.362561 0.362293 0.378537 0.361763 0.367073 0.365058 0.355966 0.368858 0.360784 0.382203 0.392141 0.401307 0.391303 0.391536 0.372977 0.370145 0.369602 0.374469 0.371484 0.378972 0.373511 0.37636 0.377078 0.376938 0.379159 0.378635 0.376507 0.37638 0.382719 0.368846 0.375322 0.378005 0.354346 0.399377 0.384162 0.376594 0.348502 0.333962 0.328873 0.326764 0.343418 0.328967 0.38395 0.380062 0.381923 0.390728 0.427614 0.455746 0.421466 0.401013 0.410253 0.407642 0.401959 0.402314 0.396554 0.397968 0.39971 0.4194 0.398411 0.371707 0.308206 0.379988 0.436328 0.440154 0.521921 0.408912 0.379583 0.392349 0.36411 0.371153 0.381881 0.362187 0.378692 0.330654 0.34413 0.351918 0.423801 0.430804 0.381756 0.431601 0.399049 0.326501 0.352148 0.373404 0.368976 0.368695 0.394781 0.413986 0.438902 0.39974 0.409424 0.404365 
SCALARS Stress float 1
LOOKUP_TABLE default
-12710000000.0 -12838200000.0 -12719800000.0 -12665200000.0 -12618500000.0 -12563100000.0 -12592000000.0 -12998300000.0 -13114300000.0 -12934100000.0 -12635700000.0 -12635200000.0 -12722200000.0 -12846500000.0 -12556300000.0 -12584200000.0 -12652900000.0 -12637000000.0 -13443800000.0 -12609400000.0 -13777900000.0 -12549700000.0 -14929700000.0 -12751900000.0 -12742900000.0 -12575500000.0 -12610200000.0 -12549700000.0 -12588400000.0 -12549700000.0 -12549700000.0 -12598400000.0 -12549700000.0 -12549700000.0 -12558800000.0 -12549700000.0 -12558400000.0 -12577800000.0 -12677300000.0 -12736200000.0 -12659100000.0 -12623700000.0 -12598400000.0 -12576000000.0 -12555800000.0 -12549700000.0 -12549700000.0 -12549700000.0 -12574500000.0 -12598300000.0 -12627500000.0 -12780800000.0 -12572000000.0 -12558600000.0 -12603600000.0 -12603300000.0 -12554100000.0 -12639500000.0 -12552900000.0 -12556700000.0 -12618000000.0 -12816000000.0 -12792400000.0 -12707200000.0 -12751000000.0 -12579700000.0 -12635400000.0 -12570700000.0 -12757200000.0 -12728300000.0 -12558900000.0 -12559600000.0 -12579300000.0 -12774900000.0 -12620100000.0 -12592700000.0 -12831000000.0 -12676500000.0 -12600200000.0 -12591500000.0 -12576800000.0 -12569200000.0 -12699700000.0 -12665800000.0 -12848800000.0 -12638500000.0 -13203200000.0 -13102300000.0 -13243300000.0 -13941700000.0 -13182500000.0 -13108600000.0 -14258000000.0 -12587400000.0 -13011700000.0 -12549700000.0 -12913200000.0 -12563600000.0 -13147200000.0 -12549700000.0 -12587000000.0 -12671500000.0 -12589200000.0 -12559200000.0 -12668300000.0 -12736300000.0 -13268500000.0 -13171900000.0 -13172800000.0 -13001300000.0 -12697300000.0 -12892100000.0 -13855300000.0 -15180200000.0 -14071500000.0 -14652200000.0 -14324700000.0 -12866800000.0 -12758300000.0 -12752100000.0 -12549700000.0 -12687600000.0 -12557100000.0 -12549700000.0 -12731500000.0 -12549700000.0 -12549700000.0 -12599800000.0 -12549700000.0 -12650800000.0 -12549700000.0 -13021800000.0 -12549700000.0 -12549700000.0 -12549700000.0 -12568300000.0 -12552900000.0 -12549700000.0 -12556100000.0 -12584800000.0 -12680400000.0 -12726700000.0 -12975200000.0 -12926900000.0 -12973500000.0 -13212300000.0 -13896900000.0 -13153200000.0 -13537900000.0 -12720300000.0 -12612100000.0 -12713000000.0 -12839600000.0 -12777800000.0 -12763800000.0 -13138100000.0 -12606800000.0 -12719800000.0 -13165300000.0 -12616400000.0 -12838800000.0 -12898100000.0 -12810600000.0 -12741500000.0 -12765900000.0 -12549700000.0 -12900600000.0 -12768500000.0 -13289000000.0 -13044500000.0 -12551200000.0 -12549700000.0 -12616700000.0 -12651100000.0 -13154500000.0 -12689000000.0 -12549700000.0 -13111000000.0 -12720600000.0 -13159100000.0 -12549700000.0 -12549700000.0 -12623100000.0 -13446100000.0 -12753800000.0 -12639300000.0 -12560100000.0 -13433400000.0 -13150200000.0 -13362100000.0 -13522800000.0 -13772400000.0 -13212000000.0 -12603600000.0 -13058900000.0 -12734600000.0 -12631800000.0 -12564600000.0 -12933900000.0 -14924000000.0 -12776700000.0 -12689800000.0 -13771200000.0 -14242600000.0 -12563000000.0 -13324100000.0 -13068500000.0 -12902000000.0 -14563400000.0 -13277600000.0 -13162600000.0 -13141700000.0 -13232500000.0 -13673200000.0 -13843500000.0 -13853700000.0 -13966800000.0 -12549700000.0 -15801700000.0 -14432400000.0 -14480900000.0 -13624000000.0 -14487100000.0 -14007300000.0 -12619000000.0 -14324800000.0 -13177600000.0 -13491300000.0 -13430800000.0 -13145900000.0 -13204000000.0 -13033200000.0 -12613900000.0 -12931500000.0 -12550600000.0 -12556400000.0 -12661600000.0 -12549700000.0 -12855700000.0 -12549700000.0 -13165200000.0 -12568700000.0 -12603500000.0 -12549700000.0 -12657500000.0 -12681800000.0 -12665900000.0 -12666300000.0 -12712200000.0 -12795400000.0 -12998100000.0 -12794900000.0 -13443000000.0 -13290400000.0 -12849300000.0 -13866100000.0 -13376300000.0 -13093800000.0 -13346400000.0 -12555000000.0 -12585100000.0 -12549700000.0 -12817400000.0 -13519500000.0 -13438100000.0 -12653700000.0 -12661900000.0 -12722600000.0 -12580600000.0 -13500100000.0 -13183700000.0 -12805600000.0 -13638200000.0 -12615500000.0 -12778000000.0 -13201900000.0 -14161800000.0 -14573700000.0 -12992400000.0 -12956700000.0 -12884000000.0 -13113500000.0 -13238200000.0 -13434000000.0 -15088700000.0 -14369800000.0 -14476700000.0 -14293100000.0 -13450500000.0 -13707500000.0 -13750500000.0 -13460200000.0 -13736600000.0 -13371300000.0 -12873600000.0 -14040100000.0 -16838600000.0 -16248900000.0 -17245300000.0 -18199700000.0 -12767300000.0 -12888400000.0 -12743300000.0 -16420300000.0 -12718300000.0 -14867900000.0 -13643000000.0 -13948200000.0 -13512900000.0 -13516600000.0 -13067900000.0 -15049500000.0 -14715800000.0 -12596000000.0 -12902900000.0 -12651400000.0 -15373600000.0 -12742200000.0 -13782300000.0 -13637600000.0 -13609300000.0 -14056900000.0 -12549700000.0 -12751500000.0 -12977400000.0 -14652400000.0 -15707900000.0 -13399400000.0 -13677200000.0 -14565800000.0 -14870200000.0 -14952600000.0 -12830800000.0 -14022700000.0 -12549700000.0 -12813900000.0 -13289000000.0 -12986100000.0 -13060200000.0 -13103800000.0 -12871100000.0 -13006300000.0 -12860500000.0 -13482400000.0 -13062100000.0 -13628100000.0 -12765200000.0 -12749600000.0 -12549700000.0 -12567000000.0 -12638000000.0 -12589600000.0 -12650800000.0 -12562900000.0 -13186800000.0 -13380600000.0 -12988700000.0 -13128300000.0 -14945600000.0 -14582200000.0 -14857700000.0 -14503600000.0 -14554000000.0 -15157400000.0 -15136300000.0 -14177300000.0 -13777200000.0 -12840700000.0 -14827900000.0 -12868000000.0 -13153100000.0 -12610900000.0 -13529600000.0 -12609500000.0 -14612000000.0 -14387800000.0 -16593300000.0 -12915200000.0 -12916300000.0 -15004500000.0 -12549700000.0 -12549700000.0 -13764400000.0 -12549700000.0 -14606300000.0 -14342100000.0 -14702600000.0 -14149000000.0 -14007100000.0 -16065100000.0 -15917700000.0 -15699500000.0 -15732600000.0 -13100900000.0 -15177800000.0 -17588200000.0 -17223400000.0 -18281900000.0 -18985800000.0 -12597400000.0 -15272500000.0 -17941500000.0 -15059000000.0 -15764000000.0 -14613900000.0 -12635900000.0 -15388200000.0 -17957000000.0 -13234900000.0 -17946300000.0 -13383500000.0 -14445900000.0 -15070700000.0 -12733700000.0 -16508300000.0 -13384600000.0 -12700600000.0 -12670600000.0 -13798100000.0 -12654000000.0 -16970400000.0 -18007400000.0 -16393400000.0 -17637500000.0 -14176200000.0 -12979800000.0 -15683300000.0 -13956000000.0 -12809900000.0 -12790300000.0 -13888100000.0 -13478600000.0 -12904400000.0 -13962100000.0 -13224700000.0 -12755100000.0 -12847100000.0 -12575100000.0 -13265800000.0 -12572300000.0 -13476800000.0 -13631100000.0 -15410700000.0 -13227600000.0 -12958300000.0 -13038300000.0 -12923700000.0 -12761500000.0 -12836000000.0 -14073100000.0 -13639600000.0 -12776700000.0 -15304800000.0 -17010600000.0 -15850800000.0 -12823800000.0 -13967200000.0 -12980200000.0 -12884200000.0 -12577800000.0 -12965000000.0 -14305200000.0 -13504100000.0 -14627000000.0 -17052600000.0 -16643900000.0 -13047900000.0 -14271900000.0 -12848200000.0 -17309600000.0 -15734500000.0 -12864100000.0 -17467000000.0 -13659000000.0 -13380400000.0 -13852500000.0 -13887600000.0 -13077600000.0 -16262600000.0 -12549700000.0 -14778500000.0 -12586900000.0 -12703800000.0 -17440500000.0 -17241900000.0 -12795900000.0 -12641600000.0 -17735800000.0 -15234000000.0 -15008700000.0 -12750400000.0 -13369800000.0 -15896100000.0 -16803000000.0 -14721000000.0 -16465700000.0 -16830800000.0 -12863700000.0 -13148900000.0 -15964400000.0 -14341400000.0 -15725800000.0 -16188500000.0 -17861500000.0 -12693300000.0 -12564100000.0 -15048700000.0 -17242700000.0 -16312800000.0 -14130100000.0 -17784800000.0 -15322100000.0 -16013500000.0 -15017000000.0 -13177400000.0 -12596800000.0 -16306100000.0 -14735800000.0 -14080600000.0 -14855000000.0 -12549700000.0 -17106000000.0 -12897300000.0 -18389600000.0 -18700800000.0 -15458600000.0 -15307400000.0 -15437100000.0 -14657400000.0 -13802000000.0 -14391800000.0 -12765000000.0 -12721900000.0 -15360600000.0 -15969900000.0 -15391900000.0 -15275800000.0 -15005800000.0 -15275400000.0 -14628100000.0 -16304700000.0 -15413500000.0 -15675400000.0 -16223200000.0 -14552200000.0 -14396600000.0 -14344000000.0 -14708500000.0 -12555800000.0 -12785700000.0 -13216600000.0 -14376900000.0 -12605100000.0 -18650900000.0 -13076100000.0 -12833000000.0 -13473700000.0 -14248900000.0 -13956000000.0 -12765600000.0 -12554800000.0 -14585100000.0 -14237200000.0 -13042100000.0 -13802200000.0 -17168400000.0 -16999800000.0 -12762500000.0 -20108800000.0 -15256000000.0 -18755100000.0 -14186600000.0 -16176900000.0 -15869800000.0 -15710300000.0 -12983200000.0 -15799100000.0 -16635100000.0 -22518500000.0 -13384200000.0 -17400500000.0 -16370700000.0 -14489100000.0 -14518400000.0 -14086400000.0 -22691700000.0 -15823600000.0 -16289400000.0 -13710300000.0 -17428600000.0 -23841600000.0 -13424500000.0 -14163200000.0 -12549700000.0 -15254700000.0 -23393600000.0 -16335300000.0 -17230600000.0 -21309700000.0 -13490400000.0 -17573000000.0 -16820700000.0 -16294800000.0 -14570000000.0 -14877800000.0 -12549700000.0 -13841700000.0 -13459600000.0 -13187000000.0 -17732800000.0 -15388600000.0 -15023200000.0 -15680000000.0 -21317900000.0 -26957900000.0 -15879600000.0 -22922800000.0 -16148600000.0 -16015800000.0 -13330600000.0 -18006800000.0 -12945900000.0 -13832200000.0 -12800700000.0 -12733900000.0 -17421500000.0 -13535500000.0 -12566400000.0 -12698600000.0 -13775000000.0 -13789100000.0 -13230900000.0 -14548000000.0 -13274500000.0 -15262600000.0 -12860900000.0 -13662900000.0 -12571700000.0 -12691300000.0 -14908800000.0 -14467400000.0 -14996100000.0 -15244500000.0 -15519000000.0 -17112000000.0 -16602900000.0 -14819300000.0 -14945800000.0 -16122000000.0 -13867300000.0 -13393200000.0 -13284800000.0 -13604000000.0 -12710000000.0 -14200700000.0 -13316200000.0 -13345500000.0 -15123900000.0 -15424800000.0 -13944100000.0 -14671200000.0 -14758900000.0 -12857200000.0 -14873000000.0 -15011100000.0 -14921100000.0 -17903700000.0 -16520400000.0 -20323500000.0 -16510200000.0 -15110100000.0 -14570600000.0 -13046500000.0 -14796000000.0 -14909900000.0 -14137300000.0 -12549700000.0 -12606000000.0 -19987200000.0 -14498100000.0 -14233000000.0 -19646100000.0 -20339300000.0 -20402200000.0 -12628900000.0 -21095800000.0 -20086500000.0 -19321500000.0 -21735900000.0 -21654800000.0 -20634800000.0 -23952700000.0 -21040400000.0 -16858500000.0 -17762400000.0 -19998800000.0 -16295200000.0 -15461400000.0 -13915000000.0 -13723000000.0 -16156700000.0 -15253300000.0 -16273500000.0 -13093200000.0 -14902200000.0 -12567900000.0 -17399200000.0 -12750500000.0 -12762400000.0 -12906800000.0 -12611500000.0 -14935600000.0 -12549700000.0 -12549700000.0 -25950000000.0 -26438600000.0 -25867200000.0 -19845700000.0 -19709800000.0 -13267400000.0 -18567200000.0 -19747900000.0 -19423300000.0 -20493200000.0 -17052500000.0 -17003400000.0 -16206600000.0 -16040000000.0 -15438600000.0 -14449600000.0 -13226400000.0 -13177400000.0 -14063600000.0 -14635400000.0 -14796100000.0 -13718400000.0 -12560500000.0 -13151300000.0 -12669300000.0 -13724100000.0 -12908400000.0 -15808700000.0 -17396200000.0 -17830300000.0 -13525200000.0 -13577700000.0 -13617400000.0 -14389100000.0 -13602000000.0 -13900600000.0 -12986500000.0 -14600800000.0 -12834100000.0 -13529900000.0 -13138200000.0 -13611400000.0 -13136600000.0 -13315000000.0 -14096400000.0 -18645100000.0 -20630500000.0 -18942200000.0 -21852500000.0 -19516300000.0 -13587000000.0 -14374400000.0 -14103600000.0 -13057700000.0 -12549700000.0 -13561000000.0 -13180500000.0 -22535500000.0 -18414900000.0 -13939800000.0 -12863300000.0 -14639900000.0 -15271200000.0 -12549700000.0 -15790500000.0 -14663800000.0 -16715800000.0 -17058500000.0 -14258900000.0 -14353700000.0 -18035300000.0 -16316000000.0 -20972000000.0 -15022000000.0 -15868900000.0 -18049500000.0 -15228500000.0 -18726500000.0 -16354600000.0 -24163800000.0 -14461100000.0 -18218200000.0 -18475800000.0 -14495400000.0 -14023300000.0 -16905700000.0 -15152400000.0 -14335800000.0 -15846100000.0 -18312100000.0 -12559400000.0 -13558100000.0 -12574500000.0 -15626900000.0 -12549700000.0 -20843800000.0 -23259300000.0 -23841600000.0 -16178800000.0 -14129900000.0 -13176900000.0 -13560100000.0 -19556100000.0 -12549700000.0 -15782900000.0 -15667900000.0 -15716200000.0 -15283800000.0 -12769700000.0 -12948000000.0 -13432300000.0 -13106600000.0 -14243400000.0 -14431400000.0 -14349700000.0 -15243500000.0 -12743400000.0 -15012900000.0 -14928800000.0 -14646800000.0 -12919100000.0 -13752200000.0 -15309500000.0 -15350000000.0 -15050200000.0 -15007700000.0 -16178900000.0 -15813100000.0 -15554000000.0 -16520800000.0 -17859700000.0 -15169600000.0 -15484200000.0 -17729600000.0 -19020400000.0 -18588400000.0 -17630300000.0 -16785600000.0 -17924100000.0 -17786000000.0 -18428800000.0 -18708700000.0 -16656300000.0 -17926900000.0 -16734800000.0 -21561500000.0 -12549700000.0 -16972400000.0 -16936600000.0 -20457200000.0 -13139500000.0 -19176900000.0 -16151700000.0 -19163500000.0 -12775800000.0 -21505600000.0 -19423200000.0 -17912900000.0 -16688800000.0 -14793000000.0 -16880500000.0 -15565000000.0 -17663700000.0 -14233300000.0 -13596100000.0 -13718400000.0 -12585200000.0 -14559300000.0 -17128500000.0 -15417500000.0 -17968700000.0 -15805200000.0 -16307800000.0 -14215900000.0 -12549700000.0 -18927200000.0 -14369100000.0 -17964900000.0 -15116000000.0 -15840600000.0 -19054700000.0 -17498700000.0 -19090400000.0 -27677800000.0 -12549700000.0 -30104700000.0 -19163400000.0 -17530100000.0 -15486500000.0 -12575500000.0 -12727300000.0 -17918900000.0 -14649800000.0 -12604400000.0 -17437700000.0 -14611300000.0 -16399100000.0 -13039900000.0 -16333400000.0 -14361400000.0 -14618900000.0 -12627200000.0 -21829300000.0 -13129600000.0 -18409800000.0 -12724300000.0 -12749300000.0 -13943300000.0 -19859700000.0 -15026100000.0 -14381100000.0 -12611100000.0 -12993600000.0 -12599800000.0 -13304400000.0 -14139600000.0 -12951900000.0 -14683000000.0 -13559200000.0 -12673600000.0 -12549700000.0 -14667300000.0 -14877800000.0 -14319400000.0 -12638000000.0 -14530900000.0 -13430700000.0 -13820800000.0 -14830700000.0 -14345300000.0 -12567200000.0 -12595000000.0 -12832300000.0 -13332900000.0 -13103400000.0 -12553700000.0 -12567300000.0 -16349900000.0 -12553500000.0 -16563400000.0 -12841900000.0 -15716300000.0 -12549700000.0 -12552100000.0 -14707700000.0 -12608100000.0 -14758600000.0 -16256500000.0 -12549700000.0 -12563300000.0 -12888200000.0 -14010800000.0 -15618100000.0 -15564100000.0 -13920300000.0 -20942600000.0 -12549700000.0 -16471300000.0 -17706100000.0 -12821300000.0 -13410400000.0 -19937600000.0 -23832500000.0 -16425700000.0 -14133900000.0 -13011800000.0 -16574300000.0 -13292700000.0 -15886800000.0 -13162200000.0 -18437500000.0 -17133700000.0 -15159700000.0 -14811700000.0 -21019400000.0 -20516900000.0 -28065800000.0 -26283400000.0 -25072100000.0 -25153900000.0 -24290100000.0 -19023500000.0 -25483200000.0 -23800900000.0 -24942500000.0 -14003200000.0 -27728100000.0 -26328600000.0 -32012800000.0 -23834300000.0 -16939300000.0 -34181000000.0 -22426900000.0 -20057300000.0 -18049600000.0 -15331200000.0 -13266800000.0 -17795400000.0 -14544200000.0 -16432700000.0 -14387200000.0 -13959700000.0 -17407700000.0 -12577500000.0 -15586000000.0 -14814100000.0 -16035800000.0 -13623700000.0 -13216100000.0 -13470100000.0 -15168500000.0 -13440700000.0 -23043900000.0 -19295600000.0 -12633900000.0 -18420700000.0 -14006600000.0 -14448100000.0 -19283200000.0 -12549700000.0 -16307100000.0 -14572400000.0 -13253400000.0 -12855100000.0 -12638600000.0 -15027000000.0 -13540300000.0 -13312700000.0 -15825300000.0 -16710300000.0 -12742400000.0 -13952400000.0 -13064400000.0 -14885700000.0 -15439500000.0 -13553200000.0 -14148100000.0 -13554900000.0 -13535600000.0 -12633900000.0 -13744400000.0 -12778200000.0 -13467600000.0 -12949000000.0 -17532700000.0 -12608800000.0 -14972500000.0 -14634300000.0 -16371300000.0 -16849500000.0 -12586900000.0 -12639600000.0 -14898100000.0 -14866500000.0 -18120200000.0 -12758500000.0 -12770500000.0 -14154100000.0 -14823100000.0 -13997100000.0 -15462600000.0 -22539700000.0 -14106600000.0 -19653600000.0 -20293100000.0 -19909000000.0 -24988300000.0 -29524000000.0 -25377400000.0 -23358500000.0 -18590200000.0 -17505500000.0 -15762300000.0 -14125800000.0 -15792900000.0 -15752800000.0 -21754000000.0 -19774000000.0 -13579500000.0 -20706900000.0 -16392400000.0 -14053200000.0 -12549700000.0 -21141600000.0 -16288900000.0 -15044300000.0 -16427300000.0 -13210000000.0 -12826200000.0 -16679300000.0 -22566800000.0 -14630600000.0 -21405500000.0 -12814400000.0 -13480000000.0 -22721100000.0 -22364100000.0 -21857800000.0 -12549700000.0 -17778400000.0 -12549700000.0 -19439200000.0 -26613600000.0 -27972600000.0 -12769500000.0 -12676900000.0 -17205100000.0 -13279000000.0 -27313600000.0 -25266100000.0 -16706400000.0 -21329200000.0 -12914400000.0 -15822800000.0 -14812100000.0 -15357900000.0 -23231200000.0 -18042200000.0 -12623000000.0 -20455200000.0 -21343800000.0 -16075700000.0 -16107900000.0 -14212200000.0 -17500100000.0 -16678600000.0 -12997000000.0 -16382200000.0 -16794000000.0 -13830000000.0 -14244100000.0 -17573300000.0 -17781600000.0 -14921400000.0 -15025200000.0 -16768200000.0 -12991300000.0 -15902900000.0 -15571700000.0 -15887200000.0 -12549700000.0 -17794700000.0 -17437500000.0 -18310700000.0 -12814800000.0 -13761400000.0 -13815300000.0 -16983800000.0 -17287200000.0 -16118900000.0 -14599800000.0 -13936600000.0 -12817200000.0 -18158100000.0 -12549700000.0 -12565400000.0 -18181600000.0 -23072200000.0 -16336500000.0 -15095600000.0 -21610800000.0 -12549700000.0 -12549700000.0 -24227400000.0 -33367900000.0 -26660200000.0 -20154000000.0 -12996800000.0 -19342400000.0 -20860000000.0 -21716700000.0 -19184900000.0 -14638500000.0 -18631900000.0 -18627300000.0 -14817100000.0 -14530500000.0 -13500700000.0 -16912300000.0 -12549700000.0 -19306700000.0 -22396700000.0 -20140100000.0 -14126300000.0 -20348200000.0 -22979400000.0 -26680700000.0 -15693900000.0 -16270200000.0 -18218700000.0 -15785200000.0 -19730900000.0 -13535900000.0 -15131600000.0 -13982600000.0 -13157900000.0 -26058000000.0 -15040600000.0 -25549500000.0 -18021300000.0 -20729600000.0 -22311500000.0 -12765400000.0 -14464200000.0 -25258600000.0 -24313800000.0 -27229900000.0 -25199400000.0 -17709000000.0 -17723800000.0 -16695000000.0 -20906800000.0 -28066000000.0 -27045300000.0 -28394700000.0 -35000600000.0 -20265100000.0 -23534500000.0 -14722900000.0 -15763700000.0 -14218900000.0 -14586100000.0 -13039700000.0 -14252800000.0 -12981500000.0 -13185200000.0 -16698700000.0 -15562200000.0 -15198000000.0 -15340000000.0 -14373000000.0 -21122700000.0 -13781800000.0 -14876000000.0 -15594200000.0 -17008900000.0 -14286300000.0 -13557600000.0 -17687100000.0 -14643400000.0 -13023000000.0 -18948300000.0 -18030800000.0 -16433000000.0 -16885100000.0 -16434300000.0 -17276100000.0 -12761400000.0 -18838400000.0 -15412400000.0 -18627000000.0 -13411000000.0 -12646100000.0 -14499300000.0 -14863400000.0 -12882700000.0 -16622000000.0 -19307100000.0 -18247800000.0 -16668300000.0 -13732600000.0 -19095200000.0 -15728300000.0 -23229300000.0 -12549700000.0 -29881500000.0 -27530200000.0 -23487100000.0 -28538900000.0 -24999700000.0 -15076200000.0 -14232700000.0 -13159500000.0 -20217700000.0 -17595200000.0 -17141000000.0 -14798200000.0 -24500500000.0 -14121200000.0 -12659700000.0 -14371500000.0 -17438300000.0 -16330500000.0 -17981800000.0 -12549700000.0 -12549700000.0 -18028500000.0 -20153400000.0 -28325300000.0 -20062100000.0 -18457700000.0 -13519500000.0 -18840400000.0 -14471700000.0 -13919000000.0 -13405300000.0 -13327800000.0 -27031300000.0 -17316400000.0 -24292300000.0 -13431700000.0 -13111000000.0 -16156300000.0 -15628400000.0 -14108700000.0 -13164700000.0 -12759900000.0 -16696900000.0 -18937600000.0 -18229900000.0 -18212100000.0 -17995600000.0 -14142500000.0 -12577900000.0 -12550000000.0 -12552500000.0 -12549700000.0 -26982900000.0 -28493700000.0 -13337600000.0 -20595500000.0 -14554400000.0 -15045900000.0 -14816600000.0 -14583300000.0 -15257000000.0 -13693100000.0 -17064000000.0 -13806900000.0 -15380800000.0 -12825100000.0 -12665400000.0 -14611200000.0 -14814700000.0 -13131000000.0 -13330700000.0 -13187600000.0 -13843800000.0 -12549700000.0 -18191200000.0 -17405900000.0 -16053800000.0 -18099500000.0 -16686000000.0 -17937500000.0 -15809500000.0 -15318200000.0 -16171900000.0 -14346000000.0 -15455700000.0 -13668500000.0 -12620600000.0 -13327900000.0 -12727900000.0 -13799300000.0 -14457000000.0 -13750500000.0 -21006600000.0 -12592800000.0 -13553100000.0 -15145400000.0 -14826900000.0 -12622600000.0 -22097600000.0 -28588700000.0 -27550400000.0 -12589200000.0 -25696300000.0 -31409100000.0 -26935900000.0 -12956800000.0 -12699300000.0 -34956600000.0 -21701700000.0 -16627000000.0 -16349900000.0 -12906100000.0 -12768400000.0 -15373200000.0 -13771900000.0 -14259200000.0 -13090900000.0 -12975200000.0 -13441900000.0 -14235400000.0 -23145200000.0 -17102600000.0 -20574700000.0 -16293400000.0 -17711000000.0 -20416300000.0 -12596300000.0 -22447300000.0 -20497100000.0 -13747200000.0 -16391100000.0 -17164500000.0 -18842400000.0 -16904400000.0 -22918900000.0 -15110100000.0 -12570800000.0 -14914100000.0 -16525500000.0 -12756600000.0 -17397100000.0 -21998100000.0 -17798000000.0 -23954900000.0 -21651000000.0 -23285100000.0 -19372300000.0 -15337500000.0 -18787700000.0 -14869100000.0 -24591600000.0 -21651700000.0 -15957900000.0 -19420000000.0 -13341800000.0 -18144200000.0 -14070300000.0 -12808700000.0 -12681800000.0 -12692100000.0 -12608100000.0 -14968200000.0 -20025600000.0 -14310300000.0 -13754000000.0 -13584400000.0 -13465300000.0 -15714200000.0 -12703900000.0 -12948100000.0 -12607700000.0 -13379500000.0 -13987600000.0 -13383500000.0 -17301600000.0 -12991000000.0 -12776100000.0 -13764900000.0 -12603000000.0 -13941700000.0 -13578000000.0 -12594600000.0 -12577000000.0 -14401600000.0 -20108500000.0 -23135700000.0 -15067600000.0 -12903500000.0 -18029800000.0 -18768300000.0 -14372300000.0 -15648200000.0 -13206100000.0 -12748100000.0 -21925800000.0 -24184300000.0 -15962400000.0 -14865400000.0 -21078100000.0 -20476800000.0 -19287000000.0 -16514900000.0 -24071400000.0 -13011300000.0 -29032500000.0 -38775300000.0 -35407200000.0 -13695500000.0 -12680800000.0 -12593600000.0 -28335500000.0 -30400400000.0 -12878700000.0 -14691100000.0 -19817300000.0 -13631600000.0 -15710900000.0 -13567300000.0 -13549100000.0 -13783900000.0 -26090500000.0 -25514300000.0 -18735500000.0 -24879600000.0 -17506100000.0 -12549700000.0 -15928400000.0 -16475100000.0 -23284000000.0 -13394000000.0 -15076700000.0 -12579800000.0 -15274000000.0 -18971600000.0 -12620400000.0 -16450000000.0 -23073500000.0 -14879400000.0 -15057700000.0 -18639800000.0 -19253900000.0 -18686900000.0 -24765800000.0 -22596600000.0 -17611800000.0 -22114300000.0 -19260600000.0 -22649900000.0 -23924600000.0 -12549700000.0 -17176100000.0 -15083900000.0 -12642400000.0 -15829100000.0 -17173600000.0 -17906800000.0 -13766000000.0 -12799400000.0 -12964200000.0 -12990300000.0 -13155000000.0 -14531800000.0 -24549200000.0 -19240100000.0 -12558200000.0 -12549700000.0 -16473300000.0 -15307800000.0 -14283800000.0 -14980600000.0 -13139300000.0 -15103800000.0 -15237700000.0 -15503800000.0 -15407100000.0 -14230000000.0 -13843900000.0 -17781600000.0 -12549700000.0 -14200800000.0 -12777800000.0 -12570000000.0 -15705600000.0 -16138400000.0 -13362500000.0 -16836300000.0 -12549700000.0 -14935800000.0 -14932400000.0 -14161500000.0 -13846100000.0 -14302100000.0 -18054000000.0 -16794900000.0 -15213700000.0 -19329600000.0 -15185500000.0 -17568500000.0 -14027900000.0 -15618300000.0 -14643900000.0 -14226300000.0 -16360700000.0 -13911500000.0 -12871600000.0 -13263700000.0 -17127200000.0 -21516400000.0 -12742600000.0 -21343800000.0 -17597100000.0 -20192400000.0 -16228000000.0 -54999000000.0 -23687500000.0 -12576100000.0 -23832900000.0 -30208900000.0 -12672300000.0 -16410300000.0 -22508000000.0 -16674700000.0 -19110600000.0 -32745300000.0 -25287400000.0 -16980600000.0 -12549700000.0 -12942500000.0 -16382000000.0 -15083000000.0 -16966500000.0 -15152800000.0 -22463100000.0 -12852800000.0 -14873200000.0 -12848200000.0 -16352500000.0 -17355000000.0 -19516900000.0 -17730000000.0 -14773500000.0 -13897200000.0 -21332300000.0 -16621300000.0 -15751900000.0 -15133400000.0 -16234600000.0 -18446900000.0 -21434000000.0 -12630300000.0 -12628500000.0 -22319600000.0 -13548100000.0 -17527500000.0 -12549700000.0 -14464000000.0 -17394400000.0 -13419500000.0 -17179200000.0 -13394600000.0 -12605500000.0 -13012800000.0 -12932600000.0 -12623600000.0 -12705600000.0 -13782600000.0 -18038400000.0 -17785300000.0 -17681400000.0 -16594600000.0 -14350400000.0 -13633000000.0 -14299900000.0 -12934700000.0 -13865800000.0 -14158100000.0 -12982700000.0 -14633800000.0 -13175800000.0 -14121600000.0 -13364100000.0 -12814800000.0 -15975900000.0 -14755600000.0 -15636100000.0 -17468600000.0 -17200600000.0 -13357100000.0 -13492700000.0 -13323700000.0 -16976800000.0 -16599200000.0 -12549700000.0 -17013900000.0 -17423400000.0 -15406000000.0 -13859200000.0 -13835700000.0 -12549700000.0 -20193500000.0 -20155100000.0 -17445300000.0 -27757000000.0 -19356200000.0 -18598200000.0 -14411800000.0 -19776700000.0 -20893000000.0 -23627900000.0 -18126700000.0 -18162100000.0 -65995000000.0 -25020000000.0 -29603100000.0 -28952900000.0 -23817900000.0 -24313700000.0 -46914700000.0 -16702000000.0 -29716600000.0 -23234500000.0 -23773200000.0 -32223000000.0 -12629200000.0 -17087800000.0 -14077900000.0 -16763400000.0 -14549400000.0 -16648400000.0 -12549700000.0 -17746400000.0 -14213700000.0 -16540500000.0 -14712400000.0 -19891700000.0 -14385600000.0 -19306900000.0 -14241000000.0 -12549700000.0 -12565200000.0 -16424300000.0 -12681400000.0 -15342300000.0 -14658000000.0 -21305200000.0 -17598700000.0 -16200700000.0 -20254100000.0 -12640900000.0 -12555200000.0 -21585700000.0 -15774800000.0 -17317100000.0 -12700700000.0 -18136400000.0 -14462300000.0 -21155800000.0 -22621700000.0 -21302000000.0 -13697700000.0 -21299000000.0 -22975800000.0 -12980500000.0 -19060100000.0 -13259700000.0 -12845700000.0 -12549700000.0 -12909900000.0 -12865800000.0 -13045300000.0 -12620800000.0 -13394300000.0 -12623900000.0 -15440100000.0 -12677300000.0 -17438600000.0 -17766900000.0 -15111900000.0 -14123100000.0 -13190700000.0 -13035100000.0 -12781800000.0 -13604300000.0 -13177500000.0 -13073500000.0 -14430700000.0 -14147500000.0 -14552700000.0 -13083900000.0 -12662900000.0 -12581000000.0 -12663100000.0 -13120500000.0 -13096900000.0 -12549700000.0 -12584100000.0 -16807500000.0 -15831000000.0 -12601700000.0 -12794800000.0 -20350800000.0 -16260400000.0 -19041400000.0 -16026000000.0 -13707500000.0 -14367200000.0 -18987000000.0 -15153400000.0 -12549700000.0 -17065400000.0 -23943700000.0 -29947100000.0 -19040600000.0 -12660400000.0 -12596800000.0 -16361700000.0 -15164700000.0 -12566500000.0 -23026500000.0 -33461500000.0 -12839600000.0 -38950400000.0 -43715300000.0 -31494400000.0 -20649800000.0 -38700100000.0 -20220500000.0 -20803500000.0 -26248400000.0 -17497700000.0 -15875500000.0 -19005900000.0 -18446000000.0 -17754400000.0 -13536800000.0 -14751400000.0 -15662300000.0 -17060200000.0 -17900900000.0 -12815400000.0 -12549700000.0 -12549700000.0 -13244600000.0 -12595000000.0 -13471600000.0 -16675700000.0 -18130500000.0 -15692300000.0 -14329000000.0 -18756700000.0 -15443700000.0 -18891100000.0 -12549700000.0 -13529800000.0 -13512200000.0 -14620000000.0 -15190600000.0 -14723900000.0 -12694200000.0 -16078300000.0 -22458100000.0 -17195400000.0 -26644500000.0 -16668500000.0 -12919300000.0 -12827400000.0 -12549700000.0 -12942600000.0 -12624100000.0 -12629900000.0 -12726300000.0 -13279900000.0 -13023600000.0 -14425700000.0 -16219100000.0 -12719900000.0 -12549700000.0 -15594800000.0 -14129600000.0 -12794500000.0 -12610600000.0 -12815500000.0 -13093200000.0 -12724200000.0 -12549700000.0 -12850900000.0 -12699500000.0 -12845800000.0 -12821700000.0 -13082200000.0 -12826600000.0 -13526900000.0 -12551700000.0 -12618400000.0 -12576100000.0 -12561200000.0 -12586200000.0 -12627400000.0 -14718900000.0 -15054500000.0 -13400400000.0 -16679300000.0 -16604500000.0 -17215700000.0 -15006600000.0 -20942600000.0 -23036500000.0 -29355700000.0 -25966000000.0 -25316800000.0 -24224400000.0 -27051100000.0 -25655100000.0 -24301900000.0 -23488400000.0 -22341400000.0 -16059300000.0 -21866300000.0 -15763100000.0 -36474100000.0 -29383600000.0 -46991000000.0 -39737900000.0 -35370700000.0 -40165600000.0 -13610700000.0 -26294000000.0 -30871600000.0 -28868100000.0 -20463400000.0 -19807700000.0 -33485500000.0 -22392000000.0 -20199000000.0 -17650100000.0 -18765300000.0 -13964200000.0 -13909800000.0 -12812800000.0 -13402900000.0 -13645600000.0 -14244800000.0 -14321700000.0 -14782800000.0 -14828100000.0 -12556800000.0 -14097000000.0 -14432700000.0 -12599200000.0 -13359700000.0 -13117800000.0 -13102200000.0 -15062500000.0 -12694800000.0 -18102600000.0 -13651100000.0 -17013000000.0 -14136200000.0 -17496100000.0 -16924100000.0 -15805100000.0 -15620200000.0 -13744700000.0 -14325900000.0 -13674300000.0 -15377200000.0 -14223700000.0 -15431800000.0 -14781400000.0 -20386900000.0 -16900000000.0 -18105700000.0 -13052800000.0 -13846900000.0 -13918400000.0 -13819700000.0 -13845000000.0 -13550400000.0 -12659900000.0 -13470000000.0 -13528500000.0 -15756000000.0 -14992400000.0 -13511300000.0 -13665200000.0 -12841200000.0 -13992200000.0 -13139700000.0 -13758500000.0 -14484000000.0 -13482700000.0 -12682900000.0 -12562800000.0 -12647700000.0 -12549700000.0 -12565100000.0 -12561400000.0 -12647100000.0 -12635000000.0 -12820300000.0 -12965300000.0 -12576700000.0 -12646500000.0 -12851400000.0 -12564700000.0 -12635200000.0 -12986900000.0 -13498700000.0 -12848100000.0 -15741600000.0 -12682600000.0 -21327800000.0 -13976000000.0 -14387500000.0 -26561700000.0 -15195300000.0 -13855300000.0 -42427300000.0 -13927500000.0 -24281400000.0 -26607300000.0 -24059500000.0 -36796700000.0 -23675600000.0 -17392200000.0 -13518500000.0 -12781100000.0 -17625600000.0 -24976500000.0 -48047000000.0 -74486400000.0 -39160400000.0 -12927400000.0 -39714400000.0 -23898700000.0 -34779900000.0 -16850500000.0 -12582000000.0 -12549700000.0 -37336800000.0 -12759100000.0 -16016800000.0 -17964900000.0 -13310000000.0 -13912900000.0 -12854800000.0 -13912300000.0 -14391700000.0 -14763900000.0 -14939600000.0 -14522100000.0 -13308500000.0 -14183700000.0 -12924300000.0 -13594200000.0 -15559800000.0 -14459100000.0 -14371200000.0 -13371500000.0 -12549700000.0 -14705600000.0 -16255000000.0 -12549700000.0 -14075000000.0 -13235600000.0 -12607100000.0 -14252300000.0 -12572100000.0 -12555600000.0 -14169600000.0 -12843700000.0 -14822700000.0 -16178600000.0 -12573800000.0 -15064400000.0 -12558300000.0 -21197700000.0 -14792100000.0 -13055700000.0 -12555400000.0 -12552700000.0 -12773400000.0 -12693400000.0 -13563400000.0 -12824800000.0 -12818800000.0 -12740700000.0 -12869100000.0 -15133800000.0 -14748100000.0 -13944400000.0 -13943100000.0 -12948700000.0 -13024000000.0 -13477500000.0 -13725200000.0 -13075400000.0 -13032400000.0 -13268200000.0 -13550900000.0 -12663200000.0 -13333700000.0 -13467900000.0 -12637900000.0 -13167600000.0 -13727400000.0 -14193100000.0 -14921100000.0 -18869300000.0 -12585100000.0 -17243400000.0 -15489600000.0 -20096800000.0 -21427600000.0 -19245100000.0 -21154300000.0 -15801300000.0 -12841900000.0 -26080500000.0 -17879000000.0 -17162600000.0 -16625000000.0 -34803400000.0 -18937400000.0 -18159600000.0 -26438000000.0 -41175200000.0 -12549700000.0 -33841800000.0 -27835500000.0 -22689400000.0 -18430900000.0 -51268500000.0 -15391500000.0 -13193300000.0 -13068600000.0 -39463900000.0 -17457800000.0 -17602900000.0 -21987300000.0 -30990100000.0 -31558100000.0 -17453400000.0 -14508200000.0 -15190200000.0 -22091900000.0 -13395000000.0 -13408100000.0 -15398700000.0 -13296700000.0 -15758700000.0 -16489000000.0 -16672800000.0 -14588000000.0 -12575600000.0 -14022800000.0 -14464400000.0 -12775800000.0 -13694400000.0 -12905200000.0 -13458600000.0 -15341300000.0 -13373800000.0 -13323000000.0 -13496000000.0 -14108400000.0 -14418800000.0 -14293300000.0 -17909100000.0 -13230100000.0 -13766300000.0 -15619100000.0 -14797700000.0 -13234500000.0 -14242500000.0 -14196600000.0 -15558500000.0 -13035100000.0 -16194500000.0 -13513900000.0 -19384400000.0 -14445800000.0 -13862100000.0 -12612400000.0 -12764900000.0 -12858800000.0 -12550100000.0 -12566200000.0 -12696200000.0 -12635700000.0 -12741200000.0 -12570400000.0 -12549700000.0 -13401200000.0 -12730500000.0 -13172200000.0 -12867000000.0 -12563300000.0 -12550400000.0 -13142500000.0 -12549700000.0 -13750300000.0 -13497400000.0 -13431300000.0 -13165900000.0 -13347700000.0 -13310000000.0 -13138500000.0 -13215600000.0 -13489400000.0 -13859200000.0 -14656800000.0 -15421300000.0 -17153500000.0 -14353500000.0 -19015200000.0 -13406200000.0 -16093500000.0 -22669000000.0 -23363800000.0 -12658400000.0 -25112400000.0 -14332000000.0 -20197200000.0 -17117000000.0 -23018300000.0 -25068500000.0 -27171600000.0 -13002600000.0 -19438000000.0 -18839100000.0 -42520700000.0 -30925200000.0 -19073300000.0 -25491600000.0 -12551800000.0 -53281300000.0 -15098400000.0 -60246600000.0 -13109600000.0 -12582800000.0 -14605800000.0 -52570500000.0 -13274700000.0 -35564900000.0 -23184700000.0 -24656100000.0 -27766800000.0 -23330300000.0 -18799800000.0 -22381100000.0 -12681700000.0 -23388300000.0 -12549700000.0 -16635900000.0 -16601000000.0 -16918600000.0 -17205200000.0 -15839600000.0 -14763800000.0 -15552600000.0 -12786200000.0 -12679400000.0 -14114700000.0 -13457000000.0 -12600500000.0 -12549700000.0 -14194900000.0 -13307300000.0 -12989300000.0 -13146900000.0 -13147400000.0 -13350900000.0 -13400000000.0 -13244400000.0 -13299400000.0 -14284200000.0 -14078200000.0 -12561500000.0 -12717500000.0 -13769200000.0 -12586000000.0 -12605600000.0 -13428000000.0 -17401100000.0 -14748700000.0 -13325900000.0 -13618900000.0 -12856400000.0 -12549800000.0 -12565700000.0 -12649100000.0 -12599600000.0 -12549700000.0 -12549700000.0 -12549700000.0 -12774300000.0 -12554300000.0 -12549700000.0 -12549700000.0 -12559200000.0 -12561700000.0 -12591500000.0 -12857200000.0 -12881500000.0 -12653400000.0 -12649000000.0 -12560800000.0 -12842700000.0 -12806700000.0 -13049200000.0 -13177300000.0 -13367400000.0 -13366800000.0 -13231800000.0 -18101600000.0 -13243900000.0 -15037400000.0 -15275300000.0 -13815000000.0 -16920400000.0 -17283400000.0 -15421900000.0 -17276500000.0 -17952000000.0 -23000600000.0 -27466600000.0 -12662200000.0 -27083100000.0 -29886600000.0 -35760800000.0 -38537400000.0 -43068400000.0 -61166500000.0 -37295400000.0 -68445900000.0 -14286000000.0 -17604400000.0 -61975500000.0 -29066700000.0 -39243300000.0 -27919500000.0 -32847100000.0 -33947400000.0 -34511300000.0 -19490800000.0 -21603600000.0 -16361300000.0 -13589800000.0 -13485700000.0 -15225800000.0 -15741200000.0 -12664800000.0 -13009400000.0 -17926000000.0 -14614100000.0 -15002000000.0 -13249500000.0 -13243900000.0 -13112900000.0 -12855700000.0 -12551000000.0 -12928400000.0 -12651900000.0 -12578700000.0 -12637500000.0 -16055700000.0 -12656400000.0 -13260900000.0 -12595300000.0 -13437000000.0 -12953800000.0 -12549700000.0 -12716500000.0 -12749600000.0 -14604100000.0 -13513900000.0 -15331800000.0 -15503600000.0 -12913400000.0 -14071700000.0 -13534800000.0 -12638900000.0 -12596600000.0 -12549700000.0 -12673100000.0 -12549700000.0 -12549800000.0 -12551500000.0 -12550200000.0 -12553700000.0 -12566100000.0 -12549700000.0 -12549700000.0 -12549700000.0 -12662200000.0 -12591000000.0 -12549700000.0 -12549700000.0 -12549700000.0 -12552200000.0 -12570900000.0 -12750500000.0 -12687800000.0 -12676500000.0 -12669600000.0 -12596100000.0 -12617200000.0 -13384700000.0 -12799400000.0 -12755700000.0 -14412000000.0 -13440800000.0 -12745100000.0 -15974800000.0 -13007500000.0 -13372700000.0 -17994100000.0 -19556700000.0 -14460200000.0 -31751700000.0 -33731000000.0 -33119300000.0 -12613800000.0 -21390700000.0 -37265400000.0 -40141900000.0 -55288000000.0 -57412300000.0 -28441400000.0 -48290500000.0 -35123500000.0 -47049000000.0 -27529100000.0 -14738500000.0 -22462300000.0 -18063800000.0 -51309500000.0 -24804900000.0 -15937300000.0 -15609800000.0 -13294100000.0 -14903900000.0 -12608500000.0 -12584900000.0 -12781900000.0 -13175900000.0 -12677300000.0 -14199700000.0 -13488800000.0 -13458100000.0 -13061900000.0 -12840400000.0 -13760000000.0 -12555300000.0 -12884700000.0 -12990200000.0 -14623700000.0 -13172700000.0 -13325800000.0 -12795700000.0 -12856100000.0 -14217000000.0 -12635000000.0 -15128700000.0 -12647700000.0 -14182000000.0 -13228000000.0 -12605600000.0 -12572400000.0 -12586300000.0 -12584600000.0 -12549700000.0 -12684800000.0 -12579300000.0 -12633900000.0 -12716500000.0 -13095700000.0 -12893400000.0 -13306900000.0 -12708900000.0 -13991600000.0 -14222100000.0 -13161200000.0 -13886500000.0 -18687600000.0 -22827400000.0 -15503200000.0 -44811700000.0 -25329400000.0 -28997700000.0 -38181700000.0 -19425600000.0 -38703200000.0 -25551400000.0 -30280700000.0 -42400600000.0 -24424000000.0 -30808400000.0 -55049500000.0 -21269400000.0 -17402500000.0 -22077500000.0 -21212800000.0 -48409700000.0 -13505700000.0 -15824700000.0 -14421800000.0 -15293000000.0 -15112600000.0 -12763200000.0 -12599500000.0 -12745900000.0 -12776100000.0 -12605900000.0 -13250400000.0 -12549700000.0 -12729700000.0 -12695400000.0 -12706300000.0 -12918400000.0 -12914900000.0 -13179500000.0 -12551800000.0 -13332300000.0 -12618500000.0 -12634400000.0 -12682800000.0 -12905200000.0 -12610600000.0 -13770700000.0 -13688400000.0 -13187300000.0 -18386800000.0 -18040300000.0 -18176900000.0 -14928300000.0 -37544400000.0 -16983900000.0 -13404800000.0 -42391900000.0 -31450500000.0 -31101900000.0 -32433200000.0 -28666300000.0 -25981600000.0 -61352000000.0 -12709300000.0 -28269000000.0 -26530300000.0 -53769700000.0 -21728000000.0 -23140100000.0 -23724500000.0 -47178400000.0 -13588400000.0 -20525000000.0 -22867100000.0 -28461000000.0 -27957900000.0 -20095900000.0 -60816600000.0 -39316300000.0 -12549700000.0 -29829900000.0 -19075900000.0 -103572000000.0 -49583800000.0 -62741600000.0 -40196300000.0 -18678400000.0 -27931600000.0 -23248100000.0 -60018800000.0 -14269600000.0 -15048000000.0 -14323700000.0 -18040200000.0 -25064300000.0 -27468000000.0 -37157600000.0 -43108100000.0 -30389200000.0 -16408500000.0 -45698500000.0 -15007400000.0 -65046200000.0 -98585900000.0 -13167100000.0 -29493800000.0 -44984400000.0 -32956800000.0 -12549700000.0 -27880500000.0 -12549700000.0 -20972600000.0 -50037600000.0 -13700400000.0 -13597300000.0 -12549700000.0 -21019600000.0 -27288900000.0 -25970400000.0 -49664600000.0 -50665400000.0 -12763700000.0 -30293300000.0 -16063800000.0 -15385200000.0 -96872400000.0 -32016500000.0 -17462000000.0 -47982400000.0 -18898300000.0 -23372800000.0 -41801900000.0 -14736800000.0 -13481600000.0 -12549700000.0 -14701800000.0 -21893200000.0 -27725700000.0 -39325200000.0 -19380800000.0 -21371200000.0 -39785500000.0 -31793700000.0 -30936600000.0 -104470000000.0 -26008800000.0 -25832800000.0 -24011400000.0 -18919600000.0 -18895700000.0 -44772200000.0 -29394300000.0 -19075200000.0 -14428500000.0 -12549700000.0 -12549700000.0 -12549700000.0 -12549700000.0 -12549700000.0 -12549700000.0 -12549700000.0 -12549700000.0 -12549700000.0 -12549700000.0 -12549700000.0 -12549700000.0 -12549700000.0 -12549700000.0 -12549700000.0 -14491800000.0 -23450300000.0 -22986800000.0 -18666100000.0 -19966700000.0 -31386300000.0 -40132200000.0 -32804600000.0 -23837600000.0 -118991000000.0 -41858700000.0 -26683100000.0 -18520600000.0 -43234800000.0 -55137300000.0 -52818500000.0 -20068800000.0 -24344400000.0 -16671200000.0 -14353600000.0 -12549700000.0 -12549700000.0 -12549700000.0 -12549700000.0 -12549700000.0 -12549700000.0 -12549700000.0 -12549700000.0 -12549700000.0 -12549700000.0 -12549700000.0 -12549700000.0 -12549700000.0 -12549700000.0 -12549700000.0 -12549700000.0 -12549700000.0 -12549700000.0 -12549700000.0 -12549700000.0 -12549700000.0 -12549700000.0 -12549700000.0 -12549700000.0 -12549700000.0 -12549700000.0 -12549700000.0 -12549700000.0 -12549700000.0 -12549700000.0 -12549700000.0 -12550600000.0 -12555400000.0 -12549700000.0 -12549700000.0 -13317600000.0 -18574400000.0 -20224000000.0 -12918900000.0 -19142100000.0 -35846300000.0 -70289500000.0 -56149100000.0 -47347400000.0 -40480100000.0 -46034900000.0 -71763800000.0 -14537800000.0 -34592600000.0 -13389000000.0 -56523200000.0 -30106400000.0 -12936100000.0 -13291300000.0 -31441200000.0 -17038200000.0 -13212100000.0 -12549700000.0 -12549700000.0 -12549700000.0 -12549700000.0 -12549700000.0 -12549700000.0 -12549700000.0 -12549700000.0 -12549700000.0 -12549700000.0 -12549700000.0 -12549700000.0 -12549700000.0 -12549700000.0 -12549700000.0 -12549700000.0 -12549700000.0 -12549700000.0 -12549700000.0 -12549700000.0 -12549700000.0 -12549700000.0 -12549700000.0 -12549700000.0 -12549700000.0 -12549700000.0 -12549700000.0 -12549700000.0 -12567300000.0 -12937600000.0 -18422900000.0 -27850900000.0 -22415900000.0 -27217600000.0 -35684600000.0 -45432600000.0 -29771400000.0 -15999300000.0 -34288300000.0 -28036900000.0 -71489800000.0 -100319000000.0 -54394400000.0 -60175900000.0 -55944700000.0 -55981800000.0 -36434200000.0 -21268600000.0 -25659700000.0 -27364800000.0 -12935300000.0 -13586900000.0 -16004800000.0 -13662700000.0 -12589300000.0 -12573300000.0 -12549700000.0 -12549700000.0 -12549700000.0 -12549700000.0 -12549700000.0 -12549700000.0 -12549700000.0 -12549700000.0 -12549700000.0 -12549700000.0 -12549700000.0 -12549700000.0 -12549700000.0 -12549700000.0 -12549700000.0 -12549700000.0 -12549700000.0 -12549700000.0 -12549700000.0 -12549700000.0 -12549700000.0 -12549700000.0 -12549700000.0 -12549700000.0 -12549700000.0 -12549700000.0 -12549700000.0 -12549700000.0 -12549700000.0 -12549700000.0 -12549700000.0 -12549700000.0 -12549700000.0 -12549700000.0 -12549700000.0 -12549700000.0 -12549700000.0 -12549700000.0 -12549700000.0 -12549700000.0 -14559100000.0 -15426900000.0 -16853000000.0 -22445800000.0 -17405400000.0 -39410300000.0 -41522400000.0 -44940400000.0 -42751500000.0 -61828500000.0 -46596100000.0 -81601500000.0 -43728700000.0 -63157800000.0 -61227100000.0 -42013800000.0 -41328300000.0 -29741800000.0 -21497000000.0 -35511100000.0 -19691400000.0 -12679700000.0 -12738800000.0 -12600500000.0 -12549700000.0 -12549700000.0 -12549700000.0 -12549700000.0 -12549700000.0 -12549700000.0 -12549700000.0 -12549700000.0 -12549700000.0 -12549700000.0 -12549700000.0 -12549700000.0 -12549700000.0 -12549700000.0 -12549700000.0 -12549700000.0 -12549700000.0 -12549700000.0 -12549700000.0 -12549700000.0 -12549700000.0 -12549700000.0 -12549700000.0 -12549700000.0 -12549700000.0 -12549700000.0 -12549700000.0 -12549700000.0 -12549700000.0 -12549700000.0 -12549700000.0 -12549700000.0 -12549700000.0 -12549700000.0 -12549700000.0 -23065100000.0 -12549700000.0 -12549700000.0 -12549700000.0 -12549700000.0 -12549800000.0 -12549800000.0 -12550000000.0 -12549700000.0 -12549700000.0 -12549700000.0 -12549700000.0 -12549700000.0 -12549700000.0 -12574600000.0 -12634800000.0 -12549700000.0 -13406600000.0 -13554200000.0 -31181200000.0 -51008500000.0 -12983400000.0 -48258200000.0 -36357800000.0 -70724400000.0 -40975100000.0 -24692600000.0 -58593700000.0 -12549700000.0 -40124300000.0 -66177400000.0 -29034200000.0 -38003800000.0 -22228600000.0 -16417800000.0 -13648600000.0 -12962400000.0 -12606400000.0 -12549700000.0 -12549700000.0 -12549700000.0 -12549700000.0 -12549700000.0 -12549700000.0 -12549700000.0 -12549700000.0 -12549700000.0 -12549700000.0 -12549700000.0 -12549700000.0 -12549700000.0 -12549700000.0 -12549700000.0 -12549700000.0 -12549700000.0 -12549700000.0 -12549700000.0 -12549700000.0 -12549700000.0 -12549700000.0 -12549700000.0 -12549700000.0 -12549700000.0 -12549700000.0 -12549700000.0 -12549700000.0 -12549700000.0 -12549700000.0 -13628400000.0 -30514900000.0 -52935700000.0 -12549700000.0 -12549700000.0 -12549700000.0 -12549700000.0 -12549800000.0 -12550100000.0 -12549900000.0 -12549700000.0 -12545800000.0 -12549800000.0 -12549700000.0 -12549700000.0 -12549700000.0 -12549700000.0 -12702100000.0 -13736000000.0 -14541700000.0 -19825900000.0 -16955700000.0 -20108900000.0 -21961800000.0 -15337000000.0 -16643600000.0 -80072700000.0 -72070900000.0 -38845900000.0 -89461600000.0 -28197100000.0 -15011800000.0 -24087700000.0 -54804100000.0 -13147400000.0 -56294500000.0 -48068200000.0 -49658100000.0 -31302700000.0 -77747700000.0 -41937500000.0 -25564000000.0 -13233300000.0 -12549700000.0 -12549700000.0 -12549700000.0 -12549700000.0 -12549700000.0 -12549700000.0 -12549700000.0 -12549700000.0 -12549700000.0 -12549700000.0 -12549700000.0 -12549700000.0 -12549700000.0 -12549700000.0 -12549700000.0 -12549700000.0 -12549700000.0 -12549700000.0 -12549700000.0 -12549700000.0 -12624100000.0 -13013900000.0 -12549700000.0 -12549700000.0 -12549700000.0 -12549700000.0 -12549700000.0 -12549700000.0 -15602200000.0 -18422700000.0 -24153400000.0 -77331000000.0 -148696000000.0 -25737600000.0 -20592600000.0 -12549800000.0 -12549800000.0 -12549700000.0 -12550100000.0 -12550000000.0 -12549700000.0 -12549700000.0 -12549700000.0 -12549700000.0 -12549700000.0 -12549700000.0 -12549700000.0 -15831300000.0 -27322100000.0 -40787300000.0 -65936000000.0 -12549700000.0 -35606500000.0 -24574800000.0 -53932900000.0 -12549700000.0 -79395300000.0 -31475200000.0 -31294900000.0 -31290800000.0 -25563100000.0 -30514600000.0 -77364000000.0 -96067200000.0 -34712400000.0 -43102600000.0 -16831800000.0 -13506100000.0 -13348100000.0 -12549700000.0 -12549700000.0 -12549700000.0 -12549700000.0 -12549700000.0 -12549700000.0 -12549700000.0 -12549700000.0 -12549700000.0 -12549700000.0 -12549700000.0 -12549700000.0 -12549700000.0 -12549700000.0 -12549700000.0 -12549700000.0 -12549700000.0 -12549700000.0 -12549700000.0 -12549700000.0 -12560700000.0 -12549700000.0 -13354600000.0 -17263100000.0 -13845800000.0 -12549700000.0 -12549700000.0 -12549700000.0 -12549700000.0 -12549700000.0 -12549700000.0 -12549700000.0 -12549700000.0 -12549700000.0 -12549700000.0 -12549700000.0 -29024200000.0 -276473000000.0 -13577700000.0 -12617100000.0 -12549400000.0 -12549800000.0 -12549800000.0 -12549800000.0 -12549700000.0 -12549700000.0 -12550700000.0 -12550600000.0 -12550000000.0 -12549700000.0 -20119900000.0 -69817300000.0 -61287900000.0 -25865600000.0 -18285800000.0 -16874200000.0 -15225900000.0 -37795400000.0 -30164700000.0 -13892200000.0 -27468000000.0 -47968800000.0 -48700900000.0 -49567000000.0 -33662200000.0 -49574400000.0 -94245500000.0 -22046300000.0 -13538000000.0 -13984800000.0 -40380800000.0 -16068900000.0 -16834100000.0 -12549600000.0 -12549700000.0 -12549700000.0 -12549700000.0 -12551000000.0 -12549700000.0 -12549700000.0 -12549700000.0 -12549700000.0 -12549700000.0 -12546900000.0 -12690500000.0 -12549700000.0 -17815500000.0 -27666100000.0 -19978800000.0 -12549700000.0 -12549700000.0 -12549700000.0 -12549700000.0 -12549700000.0 -12508800000.0 -12549700000.0 -12549700000.0 -12549700000.0 -12549700000.0 -16270800000.0 -304876000000.0 -12549500000.0 -12549700000.0 -12549700000.0 -12549700000.0 -12549600000.0 -12550000000.0 -12549700000.0 -14430000000.0 -28959900000.0 -76632900000.0 -32438200000.0 -15883100000.0 -35585600000.0 -13753100000.0 -48322800000.0 -41783900000.0 -24859400000.0 -65901000000.0 -25224200000.0 -33117500000.0 -65352600000.0 -65360500000.0 -32142100000.0 -54371900000.0 -16969100000.0 -12549700000.0 -12549700000.0 -12549700000.0 -12549700000.0 -12549600000.0 -12549700000.0 -12547500000.0 -12551400000.0 -12533500000.0 -12543800000.0 -12546900000.0 -12553100000.0 -12549700000.0 -12549700000.0 -12549700000.0 -12549700000.0 -12549700000.0 -12698200000.0 -33272800000.0 -26105900000.0 -12549700000.0 -12549700000.0 -2.66866e+12 -4.011e+12 -5.56449e+12 -6.14921e+12 -12476800000.0 -12653300000.0 -255057000000.0 -2.74245e+12 -3.36156e+12 -2.28009e+12 -4.6427e+12 -3.77567e+12 -3.72611e+12 -4.2631e+12 -5.63608e+12 -5.51436e+12 -3.25364e+12 -3.60155e+12 -4.65481e+12 -3.85159e+12 -5.79307e+12 -4.5855e+12 -3.46899e+12 -4.52072e+12 -4.36338e+12 -3.45821e+12 -555667000000.0 -3.96507e+12 -5.02658e+12 -4.21416e+12 -3.98755e+12 -4.89928e+12 -2.0196e+12 -12549700000.0 -3.56454e+12 -4.62144e+12 -34419100000.0 -935358000000.0 -2.75076e+12 -3.69216e+12 -3.44025e+12 -3.40802e+12 -4.45043e+12 -12549600000.0 -4.30878e+12 -6.72639e+12 -6.87563e+12 -4.84215e+12 -3.94672e+12 -3.72749e+12 -4.25701e+12 -3.25681e+12 -1.53884e+12 -3.17039e+12 -2.30056e+12 -4.78844e+12 -2.14931e+12 -2.90131e+12 -4.86716e+12 -64929700000.0 -12553700000.0 -27969600000.0 -32342700000.0 -38864000000.0 -48281500000.0 -61705100000.0 -51110900000.0 -74046000000.0 -53657100000.0 -102326000000.0 -163717000000.0 -163232000000.0 -140023000000.0 -144424000000.0 -97480500000.0 -105701000000.0 -57928800000.0 -26097600000.0 -3.51134e+12 -1.0752e+12 -4.5003e+12 -12549700000.0 -3.60703e+12 -2.83881e+12 -4.06e+12 -5.23424e+12 -4.35743e+12 -12549700000.0 -2.66751e+12 -3.84064e+12 -794324000000.0 -352393000000.0 -2.59164e+12 -5.41336e+12 -5.7088e+12 -4.13597e+12 -6.39572e+12 -5.44559e+12 -12423100000.0 -2.43807e+12 -5.865e+12 -4.55221e+12 -7.00946e+12 -3.21792e+12 -4.05822e+12 -4.94588e+12 -5.60378e+12 -5.29641e+12 -139774000000.0 -3.27284e+12 -3.82194e+12 -2.70444e+12 -5.08471e+12 -3.52655e+12 -4.0774e+12 -4.74601e+12 -23966400000.0 -28127400000.0 -4.55744e+12 -484861000000.0 -165919000000.0 -4.3716e+12 -3.46076e+12 -157679000000.0 -413235000000.0 -1.24338e+12 -2.87844e+12 -3.19638e+12 -2.80123e+12 -4.47622e+12 -24351200000.0 -18868000000.0 -4.57558e+12 -3.45634e+12 -4.57455e+12 -4.63303e+12 -6.36968e+12 -3.13628e+12 -3.70018e+12 -6.93421e+12 -5.86468e+12 -7.7443e+12 -6.51249e+12 -6.05863e+12 -6.61861e+12 -6.47221e+12 -5.53569e+12 -6.61307e+12 -5.76368e+12 -6.4114e+12 -4.21894e+12 -5.62531e+12 -3.96627e+12 -5.23409e+12 -4.31709e+12 -2.73107e+12 -4.68802e+12 -5.79925e+12 -7.2205e+12 -4.8169e+12 -4.43443e+12 -5.25938e+12 -4.50922e+12 -8.81929e+12 -7.13552e+12 -5.0538e+12 -3.48824e+12 -7.59114e+12 -4.00825e+12 -1.07846e+13 -3.68412e+12 -3.37637e+12 -4.4886e+12 -2.5589e+12 -7.61221e+12 -7.77144e+12 -6.92519e+12 -7.75034e+12 -7.7863e+12 -8.21722e+12 -9.51907e+12 -3.00899e+12 -6.22248e+12 -6.67095e+12 -3.46088e+12 -6.30661e+12 -4.43963e+12 -6.94721e+12 -6.24934e+12 -6.97663e+12 -8.40635e+12 -7.59314e+12 -5.51849e+12 -7.06156e+12 -7.27452e+12 -6.46729e+12 -6.73979e+12 -4.89168e+12 -5.68755e+12 -9.70308e+12 -6.15963e+12 -4.1321e+12 -5.51923e+12 -5.01665e+12 -2.08496e+12 -6.15821e+12 -2.54828e+12 -6.32837e+12 -6.17242e+12 -4.97508e+12 -4.81176e+12 -3.68188e+12 -7.29384e+12 -6.30566e+12 -7.07544e+12 -5.97785e+12 -3.77127e+12 -5.1426e+12 -131999000000.0 -142531000000.0 -96903400000.0 -163809000000.0 -78604800000.0 -55111000000.0 -18213500000.0 -25858600000.0 -24544400000.0 -66383800000.0 -54419700000.0 -42595300000.0 -74638900000.0 -78225300000.0 -54935200000.0 -122075000000.0 -84865800000.0 -27611200000.0 -55781400000.0 -39860000000.0 -14856100000.0 -5.85067e+12 -7.28259e+12 -3.9521e+12 -4.47969e+12 -4.50258e+12 -5.71409e+12 -7.91153e+12 -5.4126e+12 -5.89515e+12 -4.08065e+12 -4.3063e+12 -7.85413e+12 -6.2558e+12 -2.41031e+12 -1.12588e+13 -7.18733e+12 -5.62567e+12 -6.39736e+12 -2.7545e+12 -4.22356e+12 -1.05149e+13 -3.77536e+12 -7.91898e+12 -4.54934e+12 -6.59221e+12 -5.94503e+12 -9.7395e+12 -5.2549e+12 -7.18618e+12 -6.43832e+12 -3.40991e+12 -4.21973e+12 -1.09419e+13 -7.2965e+12 -6.50028e+12 -8.57064e+12 -9.63435e+12 -5.61051e+12 -3.21516e+12 -7.23141e+12 -6.89112e+12 -6.48917e+12 -5.87349e+12 -6.21165e+12 -6.94346e+12 -9.21321e+12 -7.57979e+12 -8.26423e+12 -8.73493e+12 -9.81086e+12 -3.70504e+12 -7.73437e+12 -2.32161e+12 -3.60504e+12 -5.26646e+12 -3.41102e+12 -6.08071e+12 -3.37088e+12 -8.06926e+12 -9.11647e+12 -4.78334e+12 -7.06517e+12 -7.08842e+12 -7.08867e+12 -4.70899e+12 -1.01157e+13 -4.2714e+12 -6.93266e+12 -8.19687e+12 -9.80345e+12 -6.20551e+12 -3.69952e+12 -3.24794e+12 -6.03787e+12 -4.36096e+12 -5.05057e+12 -5.64541e+12 -7.12163e+12 -4.92924e+12 -1.03343e+13 -5.34845e+12 -5.35659e+12 -4.86363e+12 -6.57844e+12 -7.11223e+12 -8.80045e+12 -6.66893e+12 -2.40448e+12 -5.64021e+12 -6.93213e+12 -5.61599e+12 -7.42303e+12 -1.12154e+13 -5.43275e+12 -6.38064e+12 -5.98235e+12 -6.11597e+12 -5.28238e+12 -8.4764e+12 -7.41011e+12 -6.84145e+12 -5.16414e+12 -8.61336e+12 -8.339e+12 -7.40572e+12 -4.8485e+12 -5.54461e+12 -5.39719e+12 -6.85689e+12 -5.84837e+12 -6.4242e+12 -5.20827e+12 -6.28109e+12 -8.58136e+12 -1.05203e+13 -5.41165e+12 -7.98641e+12 -3.69126e+12 -3.40709e+12 -3.68776e+12 -4.45993e+12 -6.04655e+12 -9.12835e+12 -6.13866e+12 -6.16541e+12 -7.08023e+12 -2.92668e+12 -4.60085e+12 -4.81498e+12 -5.71288e+12 -9.10405e+12 -4.22902e+12 -6.90952e+12 -6.23599e+12 -6.427e+12 -6.43283e+12 -3.09175e+12 -6.74209e+12 -3.58804e+12 -3.88585e+12 -4.33113e+12 -3.04768e+12 -54277000000.0 -18516400000.0 -34227900000.0 -169831000000.0 -20451900000.0 -28175900000.0 -34577800000.0 -40756700000.0 -39373200000.0 -36491200000.0 -14425800000.0 -47190800000.0 -39208100000.0 -19657900000.0 -29888800000.0 -67853700000.0 -66655100000.0 -73852800000.0 -56438600000.0 -79674200000.0 -75072100000.0 -3.02492e+12 -75966500000.0 -5.98993e+12 -4.75537e+12 -6.05071e+12 -3.51491e+12 -9.37191e+12 -7.2148e+12 -5.24218e+12 -3.73354e+12 -7.14656e+12 -2.97127e+12 -6.9137e+12 -6.70769e+12 -4.35631e+12 -4.00417e+12 -5.23473e+12 -5.86497e+12 -8.83566e+12 -5.67851e+12 -9.19416e+12 -7.09344e+12 -6.84558e+12 -7.90842e+12 -1.00182e+13 -5.47419e+12 -6.32077e+12 -5.98922e+12 -7.91047e+12 -6.47221e+12 -6.48977e+12 -8.76046e+12 -4.75901e+12 -9.35957e+12 -9.4386e+12 -7.49364e+12 -7.42089e+12 -4.23968e+12 -5.58474e+12 -4.55114e+12 -6.64075e+12 -6.22331e+12 -7.84651e+12 -6.016e+12 -6.58093e+12 -6.09895e+12 -6.18814e+12 -6.15784e+12 -5.1712e+12 -8.29834e+12 -4.78858e+12 -6.11084e+12 -4.19145e+12 -7.59216e+12 -5.08307e+12 -4.98854e+12 -5.82846e+12 -4.98282e+12 -6.43735e+12 -8.0166e+12 -3.81426e+12 -7.65931e+12 -6.00258e+12 -5.47152e+12 -6.23403e+12 -5.48457e+12 -5.74997e+12 -9.34014e+12 -5.4761e+12 -6.79418e+12 -7.26746e+12 -8.16443e+12 -7.59144e+12 -3.9336e+12 -2.5913e+12 -8.06533e+12 -6.03804e+12 -5.48351e+12 -7.73495e+12 -6.72707e+12 -3.69601e+12 -4.49524e+12 -4.79431e+12 -6.55404e+12 -8.77487e+12 -5.26073e+12 -2.16684e+12 -4.22483e+12 -4.53717e+12 -3.29793e+12 -5.70952e+12 -6.24846e+12 -3.79054e+12 -5.37783e+12 -2.50413e+12 -5.55303e+12 -6.99688e+12 -5.79257e+12 -5.52081e+12 -8.6446e+12 -6.11698e+12 -5.72972e+12 -5.47225e+12 -6.58693e+12 -4.6865e+12 -7.47885e+12 -4.7903e+12 -5.93184e+12 -5.82934e+12 -6.77632e+12 -5.98492e+12 -4.26437e+12 -7.64228e+12 -7.03754e+12 -6.16756e+12 -6.36923e+12 -2.76122e+12 -3.81209e+12 -2.64312e+12 -4.80357e+12 -7.08506e+12 -5.5749e+12 -8.77892e+12 -7.42128e+12 -6.60133e+12 -5.15681e+12 -8.09835e+12 -4.24264e+12 -3.95655e+12 -6.4423e+12 -6.2187e+12 -3.58274e+12 -1.00413e+13 -3.82803e+12 -4.72889e+12 -8.10449e+12 -6.17975e+12 -3.08148e+12 -3.66925e+12 -6.21086e+12 -4.54036e+12 -5.21547e+12 -2.47239e+12 -12549700000.0 -20255400000.0 -178944000000.0 -112420000000.0 -82164100000.0 -77657700000.0 -81359600000.0 -93726600000.0 -62851000000.0 -66319400000.0 -73759000000.0 -85855600000.0 -78180900000.0 -95638900000.0 -38907200000.0 -79784700000.0 -13704700000.0 -32604500000.0 -16336200000.0 -69305200000.0 -12549700000.0 -4.99472e+12 -7.09755e+12 -4.10905e+12 -7.94201e+12 -8.99407e+12 -2.39e+12 -4.56766e+12 -2.39739e+12 -6.60158e+12 -4.71408e+12 -7.99176e+12 -5.46244e+12 -9.30454e+12 -5.45077e+12 -9.45724e+12 -4.57892e+12 -8.27149e+12 -6.51175e+12 -4.5954e+12 -5.33686e+12 -6.63682e+12 -6.76184e+12 -4.19e+12 -5.98357e+12 -7.99657e+12 -7.93084e+12 -4.60835e+12 -3.61058e+12 -7.12321e+12 -5.67471e+12 -5.20962e+12 -7.16678e+12 -5.48974e+12 -4.84338e+12 -5.25483e+12 -5.67572e+12 -1.47372e+12 -2.52115e+12 -4.62723e+12 -4.01073e+12 -6.0908e+12 -8.94356e+12 -5.61688e+12 -4.67531e+12 -3.39889e+12 -3.87758e+12 -4.60958e+12 -3.29311e+12 -3.75755e+12 -5.22029e+12 -6.95009e+12 -3.82982e+12 -4.47202e+12 -4.75122e+12 -7.27031e+12 -7.70912e+12 -4.90019e+12 -4.2242e+12 -4.85159e+12 -4.05612e+12 -6.70385e+12 -1.94022e+12 -6.18055e+12 -4.95464e+12 -3.99577e+12 -5.35464e+12 -5.60468e+12 -5.77495e+12 -4.24804e+12 -6.3331e+12 -4.7749e+12 -1.6195e+12 -6.18275e+12 -3.51043e+12 -5.487e+12 -4.14495e+12 -5.14675e+12 -5.22068e+12 -4.73725e+12 -5.27277e+12 -6.1104e+12 -4.93377e+12 -4.80588e+12 -6.5378e+12 -4.86738e+12 -4.02755e+12 -4.79608e+12 -3.62931e+12 -8.01009e+12 -6.83381e+12 -7.63275e+12 -5.87519e+12 -6.17912e+12 -5.42776e+12 -3.74539e+12 -7.84583e+12 -4.47016e+12 -6.06071e+12 -5.36619e+12 -5.84847e+12 -7.73623e+12 -5.01689e+12 -3.58721e+12 -4.57299e+12 -8.26352e+12 -4.38199e+12 -5.31131e+12 -2.51761e+12 -4.55666e+12 -4.93458e+12 -5.82309e+12 -6.6832e+12 -5.62756e+12 -7.32285e+12 -5.21967e+12 -4.29697e+12 -5.78999e+12 -6.45331e+12 -5.40108e+12 -4.02315e+12 -6.15194e+12 -5.43421e+12 -382553000000.0 -368780000000.0 -108951000000.0 -91251500000.0 -44910800000.0 -34872000000.0 -38272300000.0 -50925800000.0 -55704400000.0 -75890000000.0 -59934600000.0 -28146800000.0 -17361200000.0 -89821100000.0 -21476400000.0 -77186500000.0 -13002300000.0 -13113200000.0 -126667000000.0 -118269000000.0 -4.14899e+12 -3.61715e+12 -2.75917e+12 -3.66491e+12 -4.47559e+12 -5.22703e+12 -5.81709e+12 -9.59221e+12 -7.17007e+12 -6.90631e+12 -6.3321e+12 -2.65584e+12 -4.61358e+12 -3.99438e+12 -2.20751e+12 -3.62419e+12 -5.4901e+12 -3.74351e+12 -3.73846e+12 -4.96256e+12 -7.13382e+12 -7.0422e+12 -4.59693e+12 -4.4397e+12 -3.49308e+12 -9.30339e+12 -5.73944e+12 -5.51308e+12 -3.31993e+12 -8.13913e+12 -7.53455e+12 -2.56895e+12 -6.3242e+12 -4.26277e+12 -3.86268e+12 -4.79426e+12 -6.97707e+12 -4.24512e+12 -5.82907e+12 -5.55379e+12 -5.39088e+12 -5.59377e+12 -5.01661e+12 -3.66943e+12 -4.89079e+12 -5.30592e+12 -6.58587e+12 -7.18991e+12 -5.23013e+12 -5.29411e+12 -5.51422e+12 -7.47907e+12 -3.73251e+12 -4.09636e+12 -5.40616e+12 -4.96097e+12 -4.88177e+12 -3.60344e+12 -4.23643e+12 -4.31179e+12 -5.96972e+12 -2.9954e+12 -4.14975e+12 -2.76757e+12 -5.6557e+12 -6.82268e+12 -3.78727e+12 -3.0137e+12 -6.0371e+12 -3.46424e+12 -4.54365e+12 -7.89062e+12 -4.29514e+12 -6.52311e+12 -6.2612e+12 -9.35482e+12 -3.80273e+12 -4.423e+12 -4.02808e+12 -3.97603e+12 -9.62928e+12 -5.42115e+12 -4.50968e+12 -4.01332e+12 -4.56951e+12 -2.93066e+12 -3.83551e+12 -6.41762e+12 -4.40029e+12 -5.45522e+12 -3.67548e+12 -4.12179e+12 -6.55633e+12 -2.54222e+12 -5.93549e+12 -7.24354e+12 -4.10557e+12 -4.03004e+12 -3.03526e+12 -4.6008e+12 -2.03813e+12 -4.109e+12 -3.73269e+12 -4.69751e+12 -7.21855e+12 -6.28725e+12 -6.50848e+12 -5.02745e+12 -3.49901e+12 -4.76042e+12 -4.31561e+12 -4.70869e+12 -2.75482e+12 -5.75405e+12 -3.5469e+12 -2.69165e+12 -6.85503e+12 -5.51842e+12 -4.29398e+12 -4.32788e+12 -4.9893e+12 -3.46993e+12 -2.18309e+12 -2.04407e+12 -50425900000.0 -79971700000.0 -12549700000.0 -20763900000.0 -21769300000.0 -32083800000.0 -15024200000.0 -14420600000.0 -35158900000.0 -23926700000.0 -45048500000.0 -48296700000.0 -50509600000.0 -119506000000.0 -15376000000.0 -80100200000.0 -60774700000.0 -38165100000.0 -17451700000.0 -4.49269e+12 -3.41337e+12 -4.79877e+12 -4.16562e+12 -3.06936e+12 -5.31562e+12 -4.01366e+12 -4.86881e+12 -3.36089e+12 -3.78874e+12 -7.80652e+12 -5.82615e+12 -4.4027e+12 -3.35882e+12 -5.7669e+12 -5.05386e+12 -3.66498e+12 -4.75468e+12 -6.22905e+12 -3.08694e+12 -2.53151e+12 -2.95848e+12 -7.99716e+12 -3.31324e+12 -2.67689e+12 -2.70233e+12 -1.9805e+12 -3.31265e+12 -3.25027e+12 -7.3564e+12 -3.13649e+12 -2.54464e+12 -4.16407e+12 -4.19384e+12 -2.68321e+12 -4.76782e+12 -6.30261e+12 -7.0518e+12 -6.3261e+12 -5.97064e+12 -3.04368e+12 -2.64214e+12 -5.65699e+12 -2.96512e+12 -5.06314e+12 -3.98439e+12 -4.97396e+12 -4.42926e+12 -3.80929e+12 -4.97067e+12 -3.95113e+12 -3.9441e+12 -3.98396e+12 -4.79992e+12 -6.7607e+12 -5.15446e+12 -3.23946e+12 -7.39186e+12 -5.70851e+12 -1.81211e+12 -2.19995e+12 -5.34988e+12 -3.96546e+12 -5.63222e+12 -2.49919e+12 -9.07867e+12 -3.96623e+12 -3.40558e+12 -6.21654e+12 -7.35467e+12 -508264000000.0 -4.91392e+12 -5.62955e+12 -4.08308e+12 -4.66216e+12 -5.00274e+12 -4.84792e+12 -4.24735e+12 -5.43649e+12 -3.53741e+12 -6.60179e+12 -1.4024e+12 -5.03045e+12 -5.51649e+12 -3.07839e+12 -4.62626e+12 -2.89716e+12 -3.8408e+12 -5.83944e+12 -4.81732e+12 -5.34687e+12 -6.55481e+12 -6.69245e+12 -3.48326e+12 -6.11347e+12 -2.33224e+12 -5.23462e+12 -5.76829e+12 -5.36129e+12 -3.50306e+12 -3.04422e+12 -5.96392e+12 -4.27635e+12 -6.85389e+12 -6.2834e+12 -6.0653e+12 -2.61222e+12 -4.23925e+12 -3.30227e+12 -4.04261e+12 -2.69839e+12 -5.18777e+12 -1.89039e+12 -2.65228e+12 -5.79278e+12 -146557000000.0 -101858000000.0 -68373500000.0 -26571800000.0 -25007400000.0 -28276800000.0 -27035700000.0 -14658800000.0 -14686800000.0 -25539300000.0 -12549700000.0 -25251200000.0 -23302200000.0 -14364500000.0 -48759200000.0 -87973200000.0 -110861000000.0 -20544000000.0 -50604100000.0 -4.30888e+12 -5.65558e+12 -3.89163e+12 -3.88088e+12 -3.27634e+12 -2.86411e+12 -3.39826e+12 -3.10597e+12 -3.74883e+12 -3.01921e+12 -4.30891e+12 -5.17395e+12 -4.02645e+12 -2.54199e+12 -3.2837e+12 -3.48107e+12 -3.28952e+12 -3.02787e+12 -4.63065e+12 -4.52839e+12 -4.8517e+12 -2.75544e+12 -2.96247e+12 -5.38877e+12 -2.23264e+12 -4.70021e+12 -3.45699e+12 -4.56404e+12 -2.84815e+12 -1.5711e+12 -3.27085e+12 -3.795e+12 -5.0722e+12 -6.07417e+12 -5.34178e+12 -4.36862e+12 -3.82308e+12 -2.13076e+12 -3.51748e+12 -3.62671e+12 -2.2482e+12 -5.86271e+12 -5.39475e+12 -2.07126e+12 -2.51553e+12 -3.69818e+12 -3.50652e+12 -5.33254e+12 -4.07966e+12 -2.70614e+12 -4.63022e+12 -2.48915e+12 -3.49988e+12 -5.22329e+12 -5.79315e+12 -2.77081e+12 -4.41304e+12 -5.0805e+12 -3.7722e+12 -4.863e+12 -2.93918e+12 -2.55798e+12 -5.74464e+12 -3.6036e+12 -3.79566e+12 -5.2552e+12 -3.3632e+12 -4.41527e+12 -5.56058e+12 -4.94417e+12 -5.32832e+12 -5.37583e+12 -3.11409e+12 -3.58095e+12 -4.46281e+12 -1.65688e+12 -2.3682e+12 -2.01468e+12 -5.31583e+12 -3.62619e+12 -1.71422e+12 -2.46427e+12 -4.43774e+12 -3.51304e+12 -3.02799e+12 -3.21025e+12 -3.49719e+12 -2.42517e+12 -4.45049e+12 -7.79761e+12 -2.97623e+12 -3.31892e+12 -4.82589e+12 -2.82828e+12 -2.26573e+12 -5.67002e+12 -2.65461e+12 -4.70365e+12 -3.7915e+12 -3.35468e+12 -4.47583e+12 -3.69673e+12 -2.9384e+12 -4.75195e+12 -5.42328e+12 -1.57063e+12 -3.40528e+12 -4.56584e+12 -3.07508e+12 -3.7596e+12 -4.03893e+12 -3.92987e+12 -2.11569e+12 -1.70223e+12 -12549700000.0 -119068000000.0 -57216100000.0 -49555700000.0 -12549700000.0 -12549700000.0 -19357200000.0 -20986800000.0 -17162300000.0 -12549700000.0 -22432100000.0 -14109400000.0 -26550000000.0 -24274200000.0 -15102000000.0 -37219600000.0 -16344000000.0 -91158600000.0 -21509300000.0 -32635600000.0 -4.1651e+12 -4.49004e+12 -4.67817e+12 -2.94234e+12 -4.76814e+12 -5.06047e+12 -3.6906e+12 -2.01368e+12 -3.50985e+12 -2.19306e+12 -4.50789e+12 -3.77086e+12 -3.55203e+12 -3.54075e+12 -5.92541e+12 -3.00725e+12 -7.22379e+12 -2.53265e+12 -4.90635e+12 -2.45084e+12 -4.22199e+12 -3.00067e+12 -3.25761e+12 -3.06441e+12 -5.21336e+12 -3.20359e+12 -4.41849e+12 -5.09003e+12 -5.36638e+12 -3.5166e+12 -3.31446e+12 -3.12521e+12 -4.28737e+12 -3.76398e+12 -4.0575e+12 -1.85669e+12 -2.72916e+12 -1.8823e+12 -3.62451e+12 -3.72326e+12 -5.81189e+12 -4.39652e+12 -2.94291e+12 -2.4599e+12 -1.28637e+12 -3.05483e+12 -4.78677e+12 -2.9715e+12 -6.21286e+12 -3.90798e+12 -3.60274e+12 -3.87376e+12 -2.59247e+12 -2.40167e+12 -2.22166e+12 -4.14388e+12 -1.82893e+12 -3.97507e+12 -2.17732e+12 -1.81285e+12 -2.70312e+12 -2.7864e+12 -4.39428e+12 -2.43916e+12 -3.2661e+12 -4.58381e+12 -3.706e+12 -1.87817e+12 -2.06649e+12 -3.44822e+12 -3.24764e+12 -4.39626e+12 -3.53195e+12 -2.04397e+12 -1.68525e+12 -2.89255e+12 -3.79459e+12 -3.36603e+12 -2.82133e+12 -4.53451e+12 -1.43769e+12 -3.3702e+12 -1.92298e+12 -1.61612e+12 -3.52848e+12 -3.7878e+12 -2.7983e+12 -2.34433e+12 -3.68224e+12 -2.27513e+12 -3.71963e+12 -1.69012e+12 -2.53631e+12 -2.89124e+12 -3.26001e+12 -3.50148e+12 -2.7476e+12 -3.85735e+12 -2.12402e+12 -3.50225e+12 -3.98858e+12 -4.86936e+12 -4.78556e+12 -3.22442e+12 -4.30725e+12 -2.85162e+12 -12550500000.0 -43477000000.0 -30568400000.0 -12549700000.0 -12630400000.0 -14085300000.0 -20039200000.0 -14594500000.0 -18865100000.0 -31793700000.0 -26161100000.0 -17038500000.0 -21435200000.0 -26751600000.0 -20467900000.0 -16387200000.0 -18471200000.0 -12697400000.0 -75587000000.0 -13023500000.0 -40631000000.0 -3.82163e+12 -2.90346e+12 -2.44701e+12 -1.47713e+12 -3.75995e+12 -3.72154e+12 -1.10604e+12 -3.19798e+12 -3.52963e+12 -2.56943e+12 -4.16816e+12 -5.5342e+12 -2.43813e+12 -5.21436e+12 -2.23048e+12 -5.35136e+12 -5.92442e+12 -3.57211e+12 -3.90038e+12 -3.22083e+12 -2.09672e+12 -1.84229e+12 -2.41971e+12 -3.93456e+12 -1.83738e+12 -2.59977e+12 -4.0172e+12 -3.03125e+12 -846191000000.0 -3.11154e+12 -665081000000.0 -3.78277e+12 -1.58009e+12 -4.00953e+12 -2.80555e+12 -4.72782e+12 -2.70473e+12 -3.84944e+12 -1.91316e+12 -3.31873e+12 -3.05451e+12 -2.1866e+12 -2.40144e+12 -2.96994e+12 -3.48328e+12 -3.07264e+12 -1.8799e+12 -2.20105e+12 -3.22553e+12 -3.39321e+12 -1.85556e+12 -2.50526e+12 -3.92683e+12 -3.57032e+12 -3.58039e+12 -6.06772e+12 -3.79358e+12 -3.10832e+12 -1.79247e+12 -1.8404e+12 -2.19241e+12 -2.59962e+12 -4.1326e+12 -162868000000.0 -2.62417e+12 -1.83296e+12 -1.60962e+12 -2.31827e+12 -4.07553e+12 -2.12802e+12 -1.71842e+12 -1.38912e+12 -1.21972e+12 -2.4761e+12 -2.70548e+12 -2.51369e+12 -2.56933e+12 -3.02465e+12 -3.81404e+12 -2.31678e+12 -3.49317e+12 -2.32304e+12 -2.51912e+12 -2.8228e+12 -2.57819e+12 -2.5021e+12 -2.35735e+12 -3.27596e+12 -4.73752e+12 -1.69284e+12 -3.00211e+12 -3.99396e+12 -3.12445e+12 -2.22028e+12 -2.78522e+12 -2.41509e+12 -1.16487e+12 -2.44099e+12 -1.68742e+12 -2.08971e+12 -2.74637e+12 -2.91816e+12 -2.12251e+12 -3.71772e+12 -2.79315e+12 -3.68974e+12 -2.17294e+12 -3.11812e+12 -4.11379e+12 -1.1363e+12 -1.91883e+12 -757563000000.0 -81197800000.0 -13190700000.0 -17756900000.0 -12549700000.0 -12802500000.0 -13640100000.0 -16723800000.0 -15975100000.0 -18697000000.0 -14659300000.0 -14072600000.0 -14989300000.0 -16415000000.0 -22239800000.0 -22293300000.0 -21477800000.0 -22834800000.0 -24827300000.0 -12964100000.0 -23057200000.0 -2.50262e+12 -1.44438e+12 -1.52905e+12 -2.9265e+12 -4.89521e+12 -3.02276e+12 -2.09397e+12 -3.25874e+12 -2.9844e+12 -1.82165e+12 -2.27226e+12 -1.9031e+12 -2.83115e+12 -4.80491e+12 -3.21666e+12 -1.44808e+12 -2.10829e+12 -1.97416e+12 -3.32427e+12 -1.64535e+12 -2.06298e+12 -1.63452e+12 -2.25241e+12 -2.15235e+12 -3.98131e+12 -1.83677e+12 -2.85133e+12 -4.91527e+12 -2.30724e+12 -3.11824e+12 -3.90348e+12 -2.12643e+12 -3.08675e+12 -1.41105e+12 -2.76641e+12 -2.01025e+12 -2.84949e+12 -3.10852e+12 -3.62272e+12 -3.17369e+12 -2.78612e+12 -2.85114e+12 -1.90305e+12 -2.5529e+12 -1.06904e+12 -3.117e+12 -1.44973e+12 -3.03308e+12 -998758000000.0 -2.24406e+12 -1.57827e+12 -2.45321e+12 -1.71911e+12 -2.01043e+12 -2.28724e+12 -1.55212e+12 -1.87986e+12 -2.16321e+12 -1.21531e+12 -3.27587e+12 -1.48757e+12 -1.97423e+12 -1.53397e+12 -1.22735e+12 -1.85783e+12 -2.57761e+12 -805207000000.0 -1.78455e+12 -1.79542e+12 -1.16172e+12 -2.68388e+12 -728970000000.0 -2.58671e+12 -2.0704e+12 -4.41488e+12 -2.61776e+12 -3.61707e+12 -2.68055e+12 -1.27001e+12 -2.12409e+12 -3.77378e+12 -1.04248e+12 -3.46999e+12 -4.35738e+12 -1.7827e+12 -2.45758e+12 -1.2314e+12 -2.08149e+12 -1.20658e+12 -1.79881e+12 -1.36978e+12 -1.57185e+12 -1.44541e+12 -1.53965e+12 -1.73867e+12 -2.48151e+12 -836754000000.0 -611873000000.0 -1.23606e+12 -2.04956e+12 -1.07695e+12 -3.27033e+12 -2.1539e+12 -14830200000.0 -986202000000.0 -3.18524e+12 -2.43532e+12 -2.0803e+12 -1.7879e+12 -1.36859e+12 -3.20636e+12 -1.88835e+12 -1.33608e+12 -2.55436e+12 -1.58365e+12 -1.15595e+12 -2.6138e+12 -2.89013e+12 -1.63895e+12 -2.41557e+12 -1.23864e+12 -2.87574e+12 -1.2963e+12 -1.36935e+12 -2.29746e+12 -3.48725e+12 -2.3357e+12 -3.93324e+12 -2.59767e+12 -2.34e+12 -1.12514e+12 -2.7212e+12 -1.79188e+12 -3.11279e+12 -2.51682e+12 -1.77688e+12 -2.40596e+12 -2.44545e+12 -3.39161e+12 -1.13619e+12 -1.7058e+12 -3.38249e+12 -3.0074e+12 -2.76773e+12 -1.33126e+12 -1.82809e+12 -2.15204e+12 -1.81884e+12 -2.18701e+12 -2.57413e+12 -1.47585e+12 -2.00538e+12 -1.70668e+12 -266355000000.0 -1.062e+12 -686898000000.0 -1.73359e+12 -1.28603e+12 -1.1137e+12 -2.02634e+12 -1.26214e+12 -1.45007e+12 -1.39653e+12 -2.2805e+12 -2.22145e+12 -2.2835e+12 -1.45261e+12 -1.30537e+12 -542837000000.0 -1.76147e+12 -2.635e+12 -2.00143e+12 -2.5547e+12 -1.2168e+12 -2.641e+12 -1.57697e+12 -1.21165e+12 -1.8916e+12 -1.60172e+12 -578026000000.0 -1.45318e+12 -1.96986e+12 -904844000000.0 -1.89091e+12 -2.37896e+12 -756610000000.0 -687528000000.0 -1.2938e+12 -1.11289e+12 -2.42623e+12 -1.73472e+12 -1.13738e+12 -1.10472e+12 -1.89878e+12 -2.55771e+12 -2.36395e+12 -1.26587e+12 -1.7569e+12 -1.03863e+12 -1.16715e+12 -1.63498e+12 -2.15999e+12 -725282000000.0 -1.46187e+12 -1.66814e+12 -1.55195e+12 -2.50655e+12 -1.38418e+12 -2.51953e+12 -2.07588e+12 -1.41516e+12 -1.48777e+12 -1.7806e+12 -986868000000.0 -1.8222e+12 -1.29612e+12 -1.25608e+12 -1.74363e+12 -1.93466e+12 -1.48967e+12 -2.888e+12 -1.40962e+12 -2.62685e+12 -1.04864e+12 -2.42261e+12 -1.04395e+12 -1.54215e+12 -1.56184e+12 -2.12863e+12 -1.23147e+12 -1.15387e+12 -1.45496e+12 -2.13622e+12 -1.76348e+12 -1.57898e+12 -2.08704e+12 -2.3993e+12 -1.70043e+12 -1.16523e+12 -1.82672e+12 -1.78951e+12 -1.53087e+12 -1.20692e+12 -1.42884e+12 -876747000000.0 -783467000000.0 -1.03202e+12 -1.96613e+12 -408828000000.0 -179423000000.0 -1.07354e+12 -1.01032e+12 -377069000000.0 -1.81982e+12 -948303000000.0 -836375000000.0 -1.06471e+12 -989429000000.0 -847727000000.0 -1.32517e+12 -1.34552e+12 -1.16422e+12 -1.34762e+12 -787210000000.0 -1.61185e+12 -911932000000.0 -1.1078e+12 -493080000000.0 -833085000000.0 -1.33675e+12 -1.02788e+12 -1.04196e+12 -1.58553e+12 -995645000000.0 -1.09464e+12 -1.38303e+12 -880864000000.0 -808967000000.0 -1.06154e+12 -1.20421e+12 -620933000000.0 -825680000000.0 -362494000000.0 -297067000000.0 -781366000000.0 -1.73378e+12 -1.48535e+12 -1.8795e+12 -919000000000.0 -323244000000.0 -1.06835e+12 -384416000000.0 -1.66454e+12 -579942000000.0 -453605000000.0 -765206000000.0 -1.38418e+12 -1.05225e+12 -1.70843e+12 -1.70083e+12 -2.21608e+12 -965136000000.0 -372435000000.0 -1.23463e+12 -860080000000.0 -1.38871e+12 -1.38662e+12 -2.0404e+12 -1.76908e+12 -1.34971e+12 -1.10222e+12 -1.12351e+12 -722520000000.0 -688330000000.0 -697103000000.0 -529813000000.0 -160172000000.0 -1.69278e+12 -782803000000.0 -829290000000.0 -1.02543e+12 -515537000000.0 -920775000000.0 -703065000000.0 -1.03667e+12 -724386000000.0 -1.91061e+12 -1.3061e+12 -951685000000.0 -381912000000.0 -910551000000.0 -1.47937e+12 -1.69071e+12 -1.21283e+12 -1.24433e+12 -1.08084e+12 -839977000000.0 -74372600000.0 -566009000000.0 -696221000000.0 -388142000000.0 -616238000000.0 -408581000000.0 -236518000000.0 -285799000000.0 -606874000000.0 -443839000000.0 -219536000000.0 -283601000000.0 -132640000000.0 -297331000000.0 -221587000000.0 -1.18059e+12 -159560000000.0 -349805000000.0 -240742000000.0 -908079000000.0 -326238000000.0 -888232000000.0 -153470000000.0 -250493000000.0 -610886000000.0 -156284000000.0 -112867000000.0 -492784000000.0 -110393000000.0 -460683000000.0 -607575000000.0 -933856000000.0 -623986000000.0 -571237000000.0 -1.04197e+12 -362454000000.0 -171848000000.0 -293714000000.0 -373747000000.0 -158541000000.0 -220821000000.0 -406011000000.0 -234180000000.0 -422906000000.0 -203228000000.0 -581910000000.0 -445296000000.0 -603735000000.0 -483685000000.0 -696886000000.0 -565342000000.0 -388434000000.0 -284069000000.0 -301709000000.0 -685437000000.0 -1.11072e+12 -493852000000.0 -269402000000.0 -998362000000.0 -182206000000.0 -172459000000.0 -404447000000.0 -209911000000.0 -222237000000.0 -216876000000.0 -165253000000.0 -230048000000.0 -658010000000.0 -343911000000.0 -309185000000.0 -327237000000.0 -183717000000.0 -448879000000.0 -222519000000.0 -187185000000.0 -405269000000.0 -544216000000.0 -506501000000.0 -531538000000.0 -252399000000.0 -406600000000.0 -119256000000.0 -655402000000.0 -189039000000.0 -240072000000.0 -128620000000.0 -240958000000.0 -187956000000.0 -237166000000.0 -86475900000.0 -149270000000.0 -80520800000.0 -287666000000.0 