# vtk DataFile Version 2.0
Time step 33
ASCII
DATASET UNSTRUCTURED_GRID
POINTS 5000 float
27670.0 133141.0 0
182938.0 133904.0 0
372012.0 133236.0 0
403649.0 133625.0 0
432479.0 134156.0 0
477063.0 134031.0 0
485844.0 133962.0 0
497601.0 133994.0 0
2398.28 136231.0 0
8530.66 135606.0 0
6060.72 138927.0 0
12438.9 135439.0 0
16747.6 134757.0 0
22243.6 136403.0 0
33202.3 135828.0 0
38183.4 136412.0 0
42702.1 136563.0 0
47473.0 136471.0 0
52137.1 136569.0 0
57005.1 135409.0 0
62763.5 136484.0 0
67994.7 136618.0 0
72702.3 135751.0 0
77500.0 136497.0 0
82500.0 136486.0 0
87407.8 135785.0 0
92500.0 136525.0 0
97193.0 136546.0 0
101293.0 136463.0 0
105946.0 135854.0 0
111936.0 136333.0 0
117850.0 136517.0 0
123330.0 136594.0 0
128345.0 136715.0 0
133427.0 135963.0 0
138124.0 136647.0 0
142500.0 136568.0 0
147500.0 136502.0 0
152501.0 136471.0 0
157589.0 136099.0 0
162561.0 136255.0 0
167011.0 135797.0 0
171830.0 134680.0 0
177734.0 134718.0 0
183532.0 138972.0 0
187394.0 135758.0 0
192499.0 136920.0 0
196080.0 136083.0 0
201748.0 135443.0 0
207651.0 136207.0 0
212985.0 135544.0 0
218128.0 136628.0 0
222480.0 136641.0 0
225795.0 135872.0 0
230434.0 135743.0 0
235810.0 136740.0 0
241170.0 135445.0 0
246502.0 137446.0 0
252679.0 135429.0 0
259052.0 135905.0 0
263774.0 136992.0 0
268740.0 135903.0 0
273935.0 136199.0 0
278881.0 134848.0 0
282030.0 138181.0 0
286326.0 136488.0 0
291718.0 136945.0 0
297319.0 134813.0 0
303664.0 135599.0 0
307731.0 138169.0 0
312126.0 136022.0 0
317928.0 136643.0 0
323244.0 136545.0 0
327580.0 136815.0 0
332206.0 136414.0 0
337223.0 136123.0 0
341019.0 137334.0 0
345896.0 135670.0 0
350687.0 137591.0 0
355260.0 136578.0 0
361815.0 135216.0 0
367954.0 136552.0 0
377031.0 135209.0 0
382609.0 136081.0 0
388131.0 135380.0 0
394019.0 134697.0 0
399199.0 136367.0 0
408587.0 134836.0 0
412474.0 136486.0 0
408386.0 139117.0 0
417500.0 136530.0 0
422737.0 134642.0 0
422127.0 139279.0 0
427272.0 136352.0 0
437537.0 136508.0 0
442089.0 135449.0 0
446252.0 135029.0 0
447601.0 139039.0 0
450665.0 135798.0 0
455209.0 135739.0 0
460242.0 135585.0 0
465794.0 135971.0 0
471628.0 135228.0 0
481305.0 136894.0 0
491674.0 135501.0 0
2284.33 141250.0 0
6739.84 143972.0 0
11085.9 139957.0 0
17331.0 140660.0 0
23003.7 141917.0 0
28517.5 139493.0 0
34967.5 141103.0 0
40340.0 141421.0 0
44462.8 141763.0 0
48277.9 140466.0 0
52500.0 141529.0 0
57994.8 140850.0 0
62849.6 141584.0 0
67505.2 141256.0 0
72116.9 140871.0 0
77500.0 141655.0 0
82116.1 141301.0 0
87907.7 140543.0 0
92500.0 141664.0 0
97183.7 141295.0 0
102467.0 141198.0 0
108243.0 140445.0 0
112500.0 141601.0 0
117500.0 141682.0 0
122500.0 141605.0 0
127727.0 141148.0 0
132494.0 141499.0 0
137520.0 141513.0 0
142774.0 140991.0 0
146927.0 141339.0 0
151939.0 141216.0 0
156862.0 140149.0 0
161297.0 140970.0 0
166510.0 140469.0 0
172971.0 140249.0 0
178375.0 140131.0 0
182187.0 144111.0 0
188603.0 140204.0 0
193570.0 141064.0 0
198250.0 140428.0 0
203920.0 141063.0 0
213692.0 140094.0 0
209356.0 141278.0 0
217602.0 141699.0 0
222033.0 141467.0 0
226802.0 140107.0 0
232206.0 141167.0 0
237687.0 141991.0 0
243284.0 141818.0 0
248461.0 141521.0 0
252677.0 141990.0 0
257262.0 140543.0 0
262325.0 141169.0 0
267064.0 140747.0 0
271613.0 140053.0 0
277071.0 140457.0 0
282828.0 141867.0 0
287500.0 141579.0 0
292910.0 141437.0 0
298249.0 140324.0 0
303117.0 141270.0 0
307442.0 141462.0 0
312501.0 141773.0 0
317479.0 141518.0 0
322434.0 141014.0 0
327500.0 141559.0 0
332500.0 141631.0 0
337713.0 140966.0 0
343307.0 140360.0 0
347751.0 140759.0 0
352668.0 141482.0 0
361442.0 140529.0 0
357757.0 140998.0 0
365115.0 140225.0 0
366513.0 144307.0 0
372930.0 140037.0 0
378820.0 139759.0 0
382004.0 140897.0 0
384355.0 144234.0 0
388374.0 140469.0 0
393553.0 140843.0 0
402997.0 139825.0 0
398136.0 141278.0 0
412863.0 140429.0 0
417518.0 141046.0 0
428325.0 141295.0 0
424119.0 144097.0 0
433427.0 139389.0 0
437510.0 141575.0 0
443214.0 139732.0 0
448272.0 144111.0 0
451944.0 140276.0 0
457175.0 140467.0 0
462429.0 141953.0 0
466599.0 140541.0 0
470193.0 141721.0 0
475182.0 140521.0 0
480798.0 142169.0 0
486590.0 140152.0 0
492077.0 142402.0 0
496837.0 139504.0 0
2238.62 147168.0 0
11843.9 145789.0 0
16323.8 145867.0 0
20503.2 145879.0 0
27041.7 146326.0 0
32615.0 146160.0 0
38261.6 145934.0 0
42968.6 146319.0 0
47587.3 145187.0 0
51799.4 146951.0 0
56553.4 146470.0 0
62113.9 146443.0 0
67696.3 146100.0 0
73696.0 146414.0 0
78211.2 146853.0 0
81954.7 146028.0 0
86960.5 146059.0 0
92531.5 146415.0 0
97548.3 145814.0 0
102630.0 146960.0 0
107924.0 145225.0 0
116732.0 146286.0 0
112494.0 146499.0 0
120857.0 146135.0 0
125865.0 145516.0 0
131158.0 147215.0 0
136446.0 147167.0 0
140993.0 145112.0 0
146306.0 146230.0 0
151835.0 147828.0 0
156245.0 144710.0 0
161703.0 146660.0 0
166528.0 148479.0 0
169997.0 145036.0 0
176294.0 145888.0 0
182233.0 149590.0 0
188049.0 146366.0 0
194261.0 146090.0 0
199972.0 145533.0 0
208111.0 146185.0 0
204288.0 146528.0 0
213300.0 144905.0 0
217709.0 146633.0 0
222564.0 145741.0 0
226872.0 145112.0 0
232445.0 146632.0 0
237422.0 146417.0 0
241792.0 147070.0 0
246843.0 145590.0 0
251786.0 146882.0 0
257736.0 145295.0 0
262718.0 145947.0 0
267487.0 145202.0 0
273045.0 145294.0 0
279879.0 144517.0 0
283556.0 146801.0 0
287217.0 146870.0 0
291018.0 145745.0 0
296736.0 145368.0 0
302235.0 146505.0 0
307701.0 145892.0 0
313208.0 147017.0 0
318190.0 146009.0 0
322510.0 145019.0 0
326813.0 146902.0 0
336511.0 145630.0 0
331856.0 146620.0 0
341413.0 144565.0 0
346844.0 145145.0 0
351893.0 146317.0 0
356026.0 144871.0 0
361260.0 145231.0 0
357350.0 148828.0 0
366553.0 148999.0 0
371102.0 146178.0 0
377674.0 145694.0 0
392423.0 145666.0 0
388338.0 147424.0 0
397216.0 145625.0 0
402857.0 146066.0 0
409242.0 144762.0 0
414411.0 147317.0 0
419142.0 145735.0 0
427683.0 147133.0 0
432248.0 145013.0 0
437339.0 145754.0 0
442355.0 144968.0 0
446527.0 149110.0 0
454174.0 145680.0 0
458989.0 146728.0 0
463183.0 146492.0 0
467518.0 146604.0 0
472372.0 145043.0 0
477748.0 145994.0 0
482621.0 146864.0 0
487506.0 147964.0 0
491507.0 146464.0 0
496591.0 146073.0 0
2182.12 151582.0 0
8050.27 149813.0 0
13471.5 150415.0 0
11902.2 154154.0 0
17751.9 149712.0 0
22416.6 150253.0 0
26986.9 152250.0 0
32070.3 150447.0 0
37587.0 151139.0 0
43203.4 151382.0 0
49063.4 149978.0 0
53807.2 151651.0 0
59222.3 151149.0 0
63616.5 150775.0 0
68064.9 151772.0 0
72603.0 151289.0 0
77068.8 150774.0 0
82136.2 151049.0 0
87334.1 151232.0 0
92269.3 151745.0 0
97732.4 151166.0 0
102767.0 152417.0 0
107686.0 150723.0 0
113112.0 150828.0 0
118138.0 150762.0 0
123419.0 150123.0 0
127500.0 151679.0 0
137738.0 151081.0 0
132690.0 152043.0 0
142523.0 151231.0 0
148001.0 150839.0 0
156828.0 150106.0 0
153418.0 152483.0 0
160406.0 151473.0 0
164429.0 152182.0 0
170842.0 151065.0 0
177032.0 152456.0 0
186625.0 152000.0 0
191646.0 151489.0 0
197223.0 150818.0 0
203055.0 150672.0 0
208748.0 152532.0 0
214360.0 150575.0 0
218718.0 151879.0 0
222024.0 149999.0 0
227508.0 150662.0 0
234330.0 151013.0 0
237871.0 149741.0 0
237943.0 154477.0 0
241751.0 151673.0 0
246212.0 150775.0 0
251519.0 152140.0 0
255873.0 150011.0 0
260338.0 149682.0 0
262638.0 153257.0 0
266352.0 149885.0 0
271758.0 151564.0 0
278362.0 150019.0 0
284358.0 151540.0 0
288759.0 150024.0 0
292983.0 151740.0 0
298941.0 151668.0 0
303985.0 151899.0 0
307500.0 151723.0 0
316253.0 150724.0 0
312166.0 151542.0 0
321075.0 150251.0 0
325850.0 151834.0 0
329892.0 150446.0 0
334357.0 152439.0 0
339780.0 149956.0 0
346088.0 151400.0 0
352844.0 151893.0 0
361675.0 151219.0 0
367105.0 153906.0 0
371934.0 151811.0 0
377880.0 153144.0 0
382814.0 149750.0 0
387369.0 151609.0 0
393045.0 152336.0 0
399508.0 151236.0 0
408059.0 150111.0 0
404320.0 151261.0 0
412349.0 151782.0 0
416950.0 151118.0 0
421364.0 152372.0 0
425655.0 150760.0 0
431063.0 151204.0 0
437116.0 149949.0 0
441814.0 150554.0 0
448326.0 154623.0 0
450850.0 149613.0 0
455411.0 151451.0 0
461205.0 151145.0 0
466980.0 150930.0 0
472597.0 150002.0 0
478849.0 151493.0 0
484707.0 152005.0 0
489148.0 152729.0 0
492123.0 150320.0 0
496754.0 152715.0 0
1482.5 156262.0 0
7152.43 156120.0 0
12669.0 158659.0 0
17159.9 154891.0 0
23051.1 155637.0 0
30223.0 154987.0 0
28647.4 159033.0 0
34873.8 155780.0 0
39762.9 155202.0 0
43680.4 157039.0 0
48578.9 155202.0 0
53132.9 157649.0 0
57212.4 155541.0 0
63066.5 155550.0 0
68312.7 156948.0 0
73399.4 155348.0 0
72213.8 159227.0 0
78300.4 155922.0 0
83591.8 155989.0 0
88396.1 156050.0 0
92506.9 156588.0 0
97237.2 156582.0 0
101195.0 156646.0 0
105586.0 156239.0 0
111305.0 155412.0 0
116639.0 156020.0 0
122098.0 155313.0 0
126930.0 155725.0 0
131218.0 156424.0 0
136577.0 155631.0 0
142212.0 156924.0 0
147011.0 155116.0 0
151800.0 157049.0 0
157941.0 156041.0 0
167048.0 155056.0 0
163659.0 156667.0 0
171004.0 157073.0 0
176728.0 158748.0 0
182933.0 156509.0 0
193693.0 155574.0 0
189204.0 156407.0 0
198249.0 156706.0 0
203175.0 155773.0 0
207322.0 157912.0 0
212116.0 156782.0 0
216321.0 155192.0 0
221177.0 155528.0 0
226331.0 157299.0 0
231984.0 155513.0 0
236019.0 159461.0 0
242844.0 156326.0 0
248030.0 155853.0 0
252899.0 156168.0 0
257728.0 155194.0 0
262832.0 158836.0 0
267590.0 155836.0 0
272699.0 157449.0 0
278480.0 156674.0 0
283574.0 156127.0 0
288835.0 155344.0 0
293487.0 156336.0 0
297507.0 157714.0 0
302639.0 156204.0 0
307117.0 156564.0 0
311943.0 156282.0 0
316969.0 155159.0 0
322299.0 155844.0 0
330941.0 155961.0 0
327153.0 156703.0 0
341518.0 155448.0 0
337120.0 156338.0 0
346664.0 157364.0 0
351584.0 157545.0 0
355555.0 159671.0 0
357892.0 155405.0 0
362981.0 156193.0 0
370169.0 157351.0 0
374545.0 157370.0 0
383271.0 155765.0 0
388207.0 155790.0 0
392171.0 158582.0 0
397894.0 157172.0 0
403056.0 155238.0 0
408163.0 154961.0 0
411970.0 159547.0 0
414682.0 155429.0 0
417928.0 156678.0 0
422496.0 157233.0 0
427476.0 155213.0 0
427290.0 159466.0 0
431257.0 156633.0 0
436122.0 154932.0 0
441991.0 156215.0 0
454024.0 156610.0 0
459442.0 156754.0 0
464978.0 156034.0 0
473885.0 155219.0 0
469643.0 156885.0 0
477661.0 158290.0 0
481986.0 156448.0 0
486774.0 156341.0 0
492177.0 156897.0 0
497457.0 158451.0 0
2749.38 160300.0 0
7839.1 162639.0 0
13608.5 164506.0 0
18087.6 160661.0 0
23744.4 161395.0 0
28780.9 164376.0 0
33630.5 161337.0 0
39132.1 160042.0 0
43741.8 161249.0 0
48690.4 161171.0 0
54178.6 162352.0 0
59718.1 160553.0 0
64869.6 161652.0 0
68288.3 161141.0 0
76320.3 160819.0 0
71705.9 164563.0 0
81941.5 161410.0 0
87886.6 161119.0 0
96906.7 161155.0 0
92637.3 161517.0 0
101491.0 161283.0 0
106437.0 161576.0 0
111043.0 160262.0 0
115385.0 160737.0 0
120870.0 161337.0 0
127440.0 160989.0 0
133300.0 160877.0 0
138725.0 161364.0 0
143743.0 161532.0 0
148388.0 161135.0 0
152799.0 161638.0 0
157000.0 161739.0 0
161441.0 160516.0 0
166774.0 160408.0 0
172236.0 162857.0 0
177078.0 163073.0 0
181363.0 163120.0 0
186881.0 161407.0 0
192410.0 160915.0 0
197842.0 162414.0 0
202628.0 160348.0 0
206634.0 162523.0 0
210631.0 161311.0 0
216383.0 161086.0 0
222686.0 161174.0 0
228326.0 162844.0 0
233994.0 163999.0 0
240941.0 161895.0 0
246425.0 162446.0 0
250907.0 160319.0 0
252373.0 164598.0 0
256766.0 161401.0 0
268274.0 161194.0 0
272894.0 162345.0 0
277851.0 162682.0 0
282085.0 160057.0 0
287110.0 161430.0 0
293046.0 160755.0 0
297884.0 163068.0 0
301872.0 160131.0 0
306178.0 162045.0 0
311438.0 162009.0 0
316866.0 160284.0 0
322342.0 161764.0 0
328008.0 161315.0 0
333889.0 160192.0 0
337529.0 163613.0 0
342208.0 161428.0 0
347986.0 162119.0 0
352297.0 161822.0 0
356014.0 164267.0 0
360520.0 160937.0 0
366517.0 161044.0 0
372528.0 162310.0 0
378549.0 160721.0 0
383424.0 159903.0 0
387243.0 160262.0 0
383500.0 164350.0 0
390738.0 163217.0 0
396044.0 162995.0 0
400403.0 161470.0 0
405313.0 160478.0 0
417775.0 161421.0 0
422967.0 162102.0 0
432238.0 161220.0 0
437083.0 160263.0 0
441852.0 161821.0 0
447111.0 160789.0 0
452641.0 161800.0 0
458109.0 162117.0 0
462539.0 161712.0 0
466554.0 160715.0 0
471812.0 161450.0 0
476953.0 163010.0 0
482254.0 161805.0 0
487738.0 161189.0 0
492470.0 162749.0 0
497459.0 163535.0 0
3057.11 166099.0 0
8751.49 168523.0 0
18378.5 168242.0 0
23879.0 167096.0 0
33718.5 167041.0 0
38539.9 165228.0 0
43269.2 165506.0 0
49670.2 166064.0 0
46373.0 169867.0 0
53685.9 167098.0 0
58565.7 166421.0 0
63415.9 165600.0 0
67006.7 166060.0 0
68686.7 169344.0 0
77976.0 166146.0 0
83400.4 167492.0 0
88019.4 166152.0 0
93070.1 166136.0 0
97999.4 165624.0 0
98600.6 169800.0 0
105784.0 166012.0 0
102078.0 167275.0 0
110766.0 165614.0 0
116643.0 165515.0 0
126501.0 166248.0 0
122655.0 166808.0 0
131195.0 165573.0 0
128388.0 169665.0 0
135220.0 167398.0 0
139749.0 166915.0 0
145106.0 166125.0 0
150852.0 166184.0 0
156885.0 167096.0 0
162037.0 165178.0 0
167181.0 165505.0 0
171462.0 168181.0 0
176186.0 166798.0 0
180974.0 168722.0 0
185796.0 166692.0 0
191578.0 166794.0 0
197331.0 167944.0 0
202644.0 165787.0 0
207608.0 166545.0 0
212134.0 165692.0 0
217212.0 167474.0 0
223347.0 167144.0 0
228978.0 168839.0 0
233410.0 168466.0 0
238460.0 167658.0 0
243835.0 166940.0 0
248986.0 166553.0 0
255540.0 167502.0 0
262542.0 166000.0 0
268734.0 166163.0 0
273493.0 166891.0 0
278386.0 168072.0 0
282795.0 165436.0 0
287974.0 167421.0 0
293222.0 166089.0 0
297717.0 168345.0 0
302611.0 165978.0 0
308390.0 166959.0 0
313173.0 166553.0 0
317437.0 166036.0 0
325882.0 165311.0 0
322198.0 167339.0 0
329972.0 166475.0 0
335036.0 167022.0 0
340303.0 167430.0 0
345923.0 168158.0 0
351087.0 166291.0 0
356393.0 169832.0 0
360817.0 166813.0 0
366439.0 166788.0 0
371145.0 167246.0 0
377228.0 167973.0 0
387809.0 167526.0 0
392750.0 167549.0 0
398357.0 168511.0 0
403886.0 166514.0 0
409494.0 165145.0 0
414468.0 165401.0 0
417766.0 165555.0 0
416995.0 169281.0 0
420954.0 165912.0 0
427628.0 165975.0 0
433305.0 165585.0 0
437891.0 165242.0 0
442653.0 166714.0 0
448517.0 166673.0 0
453997.0 166666.0 0
458540.0 167087.0 0
462991.0 166867.0 0
467794.0 165694.0 0
472983.0 167195.0 0
479978.0 166916.0 0
484306.0 166767.0 0
488544.0 166316.0 0
492632.0 166903.0 0
497771.0 168295.0 0
2142.5 171999.0 0
7229.67 174600.0 0
13671.2 172148.0 0
18602.4 173183.0 0
22342.5 171581.0 0
27489.8 172023.0 0
32327.8 171291.0 0
32590.1 174765.0 0
37269.1 171841.0 0
42438.1 173159.0 0
51407.0 172255.0 0
57398.5 172551.0 0
63643.1 170769.0 0
73555.5 172412.0 0
79818.8 171625.0 0
85122.4 172414.0 0
90125.5 170634.0 0
95035.8 172492.0 0
101292.0 173156.0 0
105636.0 170522.0 0
111335.0 171952.0 0
118205.0 171085.0 0
123814.0 171336.0 0
133268.0 171741.0 0
137500.0 174797.0 0
137791.0 170854.0 0
141902.0 171708.0 0
147422.0 171435.0 0
152992.0 171392.0 0
157247.0 173008.0 0
161787.0 170746.0 0
167145.0 170475.0 0
170763.0 172212.0 0
176883.0 171792.0 0
182322.0 173543.0 0
186888.0 171718.0 0
191539.0 172099.0 0
196351.0 173391.0 0
201629.0 171260.0 0
207157.0 171514.0 0
212991.0 171206.0 0
219802.0 172561.0 0
224911.0 172464.0 0
228654.0 172932.0 0
232790.0 172245.0 0
236991.0 172899.0 0
242098.0 171188.0 0
246555.0 170918.0 0
251472.0 170513.0 0
257766.0 172769.0 0
262741.0 172073.0 0
268253.0 171780.0 0
274070.0 171852.0 0
279359.0 173594.0 0
284552.0 171474.0 0
289716.0 172354.0 0
293308.0 170458.0 0
296535.0 173268.0 0
302310.0 171671.0 0
307427.0 172225.0 0
312021.0 170724.0 0
316759.0 170630.0 0
321329.0 172472.0 0
326426.0 170923.0 0
331732.0 171429.0 0
337285.0 172726.0 0
342892.0 172762.0 0
346833.0 172725.0 0
351167.0 171466.0 0
361681.0 172918.0 0
366976.0 171659.0 0
371658.0 171728.0 0
382203.0 171898.0 0
378338.0 174579.0 0
386896.0 172250.0 0
391452.0 172057.0 0
395530.0 172810.0 0
400532.0 173619.0 0
405866.0 172286.0 0
411608.0 170667.0 0
417171.0 174409.0 0
422631.0 170909.0 0
428259.0 172059.0 0
432998.0 170229.0 0
438723.0 170888.0 0
444697.0 171596.0 0
450507.0 173351.0 0
455668.0 171060.0 0
461371.0 171956.0 0
468719.0 170919.0 0
465831.0 173599.0 0
473165.0 172765.0 0
477806.0 171429.0 0
482449.0 171595.0 0
486596.0 170473.0 0
486594.0 174677.0 0
490652.0 170920.0 0
495006.0 172276.0 0
2239.97 176572.0 0
12439.2 178210.0 0
18047.8 177639.0 0
23273.8 176434.0 0
29079.0 177997.0 0
35954.5 177654.0 0
40994.3 177379.0 0
47004.4 176347.0 0
52812.1 176995.0 0
57601.7 178711.0 0
62194.2 176163.0 0
67962.1 176229.0 0
73650.1 179118.0 0
78090.1 176222.0 0
82804.5 177133.0 0
88773.2 176952.0 0
93971.3 177336.0 0
97843.6 175858.0 0
101250.0 177441.0 0
105727.0 176014.0 0
110243.0 177389.0 0
115522.0 176964.0 0
121623.0 176167.0 0
128113.0 175704.0 0
133715.0 176575.0 0
142031.0 176975.0 0
148122.0 178016.0 0
153547.0 176211.0 0
157984.0 177186.0 0
163104.0 176584.0 0
173357.0 175459.0 0
168440.0 175746.0 0
177762.0 176234.0 0
181596.0 178115.0 0
186463.0 176985.0 0
191579.0 176610.0 0
195893.0 179142.0 0
201125.0 176852.0 0
207149.0 177576.0 0
212099.0 176139.0 0
216815.0 177348.0 0
221591.0 178168.0 0
226069.0 176993.0 0
231021.0 176281.0 0
235877.0 177537.0 0
241284.0 176098.0 0
246730.0 175854.0 0
252429.0 176025.0 0
257588.0 178015.0 0
263724.0 177576.0 0
269617.0 177443.0 0
274595.0 176833.0 0
279912.0 178939.0 0
284009.0 175934.0 0
288597.0 177369.0 0
292656.0 175778.0 0
298737.0 177978.0 0
303656.0 176627.0 0
307806.0 176548.0 0
312327.0 175952.0 0
317603.0 175662.0 0
323361.0 177460.0 0
328007.0 175587.0 0
332711.0 176542.0 0
337428.0 178039.0 0
345483.0 176440.0 0
341920.0 176690.0 0
349523.0 175659.0 0
355333.0 176033.0 0
360669.0 178106.0 0
366491.0 176379.0 0
373424.0 176879.0 0
378300.0 179075.0 0
383175.0 177541.0 0
392584.0 176427.0 0
388076.0 176654.0 0
397117.0 176667.0 0
408061.0 177044.0 0
403357.0 177766.0 0
412516.0 175912.0 0
421024.0 176458.0 0
418443.0 179838.0 0
425374.0 176093.0 0
431956.0 175875.0 0
428719.0 179898.0 0
437686.0 177128.0 0
443671.0 177178.0 0
450715.0 179783.0 0
454496.0 176307.0 0
458794.0 177248.0 0
463932.0 177071.0 0
469295.0 176401.0 0
474373.0 177303.0 0
479087.0 176317.0 0
483696.0 177996.0 0
491392.0 176746.0 0
497411.0 176894.0 0
2126.91 180939.0 0
6958.93 180482.0 0
8550.77 184982.0 0
12577.4 183619.0 0
16007.7 181645.0 0
20036.4 181923.0 0
24884.0 181685.0 0
32220.2 182360.0 0
37671.0 183257.0 0
43316.3 181803.0 0
48684.7 182344.0 0
53577.6 181523.0 0
57456.1 183622.0 0
62542.2 181396.0 0
67219.2 181482.0 0
71132.1 183886.0 0
79095.5 181742.0 0
84539.3 181732.0 0
88603.3 181988.0 0
92508.1 181439.0 0
97466.8 180249.0 0
102446.0 181866.0 0
107193.0 180766.0 0
111837.0 181552.0 0
117995.0 182472.0 0
123248.0 181399.0 0
127767.0 181091.0 0
132820.0 181645.0 0
138523.0 180901.0 0
143145.0 181804.0 0
151877.0 181803.0 0
147994.0 183992.0 0
156564.0 182019.0 0
161568.0 181518.0 0
166876.0 180621.0 0
173249.0 181680.0 0
178607.0 181829.0 0
183535.0 182765.0 0
189458.0 181834.0 0
193909.0 182964.0 0
199741.0 181866.0 0
203874.0 182448.0 0
208361.0 182715.0 0
212779.0 180794.0 0
219057.0 182097.0 0
223358.0 181665.0 0
227641.0 181694.0 0
232480.0 180995.0 0
237735.0 181994.0 0
242295.0 182424.0 0
246700.0 180691.0 0
251874.0 182276.0 0
257453.0 182312.0 0
262303.0 183803.0 0
267693.0 181631.0 0
271760.0 181199.0 0
272514.0 185087.0 0
276113.0 181663.0 0
284280.0 180347.0 0
288574.0 182608.0 0
293596.0 180321.0 0
298812.0 182739.0 0
302638.0 181563.0 0
306699.0 180420.0 0
306884.0 185148.0 0
311690.0 181645.0 0
316843.0 180495.0 0
321343.0 182388.0 0
324884.0 181352.0 0
328697.0 180299.0 0
334155.0 182165.0 0
339612.0 181943.0 0
344146.0 180656.0 0
350103.0 181315.0 0
356716.0 182878.0 0
363255.0 182770.0 0
369399.0 181169.0 0
374926.0 182197.0 0
379746.0 183046.0 0
384038.0 183160.0 0
388074.0 181154.0 0
393150.0 181498.0 0
397925.0 180846.0 0
401991.0 182093.0 0
406598.0 181668.0 0
412749.0 181808.0 0
423548.0 181252.0 0
433883.0 182362.0 0
440196.0 183292.0 0
445499.0 181897.0 0
448657.0 184442.0 0
456145.0 181393.0 0
458567.0 185272.0 0
463205.0 181115.0 0
460061.0 181849.0 0
467453.0 181666.0 0
472542.0 181602.0 0
477866.0 181646.0 0
482744.0 182244.0 0
487589.0 181240.0 0
492465.0 181936.0 0
497811.0 181655.0 0
3067.43 186048.0 0
7504.35 189402.0 0
12198.4 188166.0 0
16417.6 185815.0 0
21308.7 186826.0 0
27462.2 187041.0 0
32651.0 186177.0 0
32911.2 190284.0 0
37789.4 188623.0 0
42298.7 186954.0 0
47949.5 187853.0 0
53255.7 186480.0 0
58927.8 187512.0 0
62499.2 185818.0 0
66930.2 185918.0 0
71361.3 188066.0 0
76177.7 186932.0 0
80897.6 189599.0 0
82348.8 185338.0 0
86390.6 185672.0 0
91251.8 186520.0 0
96600.1 185370.0 0
101326.0 186528.0 0
106449.0 185934.0 0
112396.0 187063.0 0
118078.0 187898.0 0
123221.0 186651.0 0
128380.0 185594.0 0
133236.0 187129.0 0
138696.0 186633.0 0
143898.0 185845.0 0
146818.0 188230.0 0
143073.0 189970.0 0
152639.0 186237.0 0
150635.0 190173.0 0
158018.0 186498.0 0
155608.0 190254.0 0
162828.0 185651.0 0
168108.0 186073.0 0
172596.0 187359.0 0
177247.0 187114.0 0
182428.0 187721.0 0
187088.0 186720.0 0
192266.0 186988.0 0
197935.0 186587.0 0
202909.0 186431.0 0
207316.0 187416.0 0
212053.0 185738.0 0
217206.0 187167.0 0
222465.0 185888.0 0
227445.0 187237.0 0
232443.0 185701.0 0
231380.0 189839.0 0
237070.0 186306.0 0
235352.0 190355.0 0
241376.0 186894.0 0
246109.0 185707.0 0
254526.0 186749.0 0
250349.0 187286.0 0
258827.0 187381.0 0
262638.0 190304.0 0
267463.0 186966.0 0
272481.0 189739.0 0
277251.0 186945.0 0
283193.0 185738.0 0
288211.0 187163.0 0
292762.0 185924.0 0
297372.0 186688.0 0
302094.0 186695.0 0
306757.0 190022.0 0
316042.0 185389.0 0
311366.0 187154.0 0
320407.0 186805.0 0
326140.0 186139.0 0
332574.0 188217.0 0
338274.0 187210.0 0
343319.0 185601.0 0
345205.0 190000.0 0
348154.0 186795.0 0
353182.0 187348.0 0
358609.0 188396.0 0
363216.0 188261.0 0
372381.0 186338.0 0
367630.0 186732.0 0
377383.0 187698.0 0
382011.0 186222.0 0
387368.0 185776.0 0
391830.0 186211.0 0
396409.0 185432.0 0
401424.0 186994.0 0
406573.0 186531.0 0
411925.0 188168.0 0
417743.0 185762.0 0
422243.0 188689.0 0
428007.0 186105.0 0
435857.0 187632.0 0
440095.0 188240.0 0
444888.0 187046.0 0
448961.0 187557.0 0
453284.0 186168.0 0
457758.0 190122.0 0
463267.0 185307.0 0
468255.0 186723.0 0
473568.0 186785.0 0
478469.0 186558.0 0
481962.0 187071.0 0
485381.0 185706.0 0
490343.0 185823.0 0
495335.0 185911.0 0
497792.0 190201.0 0
2830.01 191953.0 0
9653.97 193257.0 0
12520.4 191805.0 0
17160.6 191356.0 0
23584.8 192260.0 0
28512.6 192129.0 0
32718.7 194979.0 0
37936.2 194288.0 0
44153.6 192312.0 0
48946.2 194002.0 0
51664.4 190968.0 0
56220.7 191058.0 0
61493.3 191491.0 0
67360.0 191419.0 0
73112.2 192435.0 0
78022.2 193440.0 0
86724.7 191297.0 0
92878.2 192505.0 0
98369.6 190742.0 0
101922.0 195037.0 0
103677.0 190685.0 0
108523.0 191330.0 0
113659.0 192445.0 0
118713.0 193200.0 0
123560.0 191684.0 0
128428.0 190769.0 0
133083.0 191650.0 0
137597.0 192010.0 0
141643.0 194541.0 0
146707.0 192277.0 0
156815.0 195480.0 0
161150.0 190534.0 0
167133.0 192151.0 0
172930.0 191647.0 0
178055.0 192624.0 0
183650.0 192488.0 0
189254.0 191461.0 0
194196.0 191509.0 0
203778.0 190647.0 0
199079.0 192236.0 0
208281.0 192458.0 0
213126.0 190997.0 0
217850.0 192472.0 0
222500.0 191639.0 0
227501.0 191814.0 0
231616.0 194027.0 0
241014.0 191285.0 0
246231.0 191555.0 0
252671.0 192033.0 0
257745.0 191165.0 0
257368.0 194503.0 0
268641.0 191685.0 0
265514.0 195473.0 0
276642.0 191993.0 0
282618.0 191519.0 0
287951.0 191575.0 0
293355.0 191402.0 0
298039.0 190554.0 0
302177.0 192614.0 0
306876.0 195496.0 0
311380.0 192376.0 0
317146.0 191081.0 0
322862.0 191345.0 0
326684.0 191088.0 0
331450.0 192629.0 0
328120.0 194590.0 0
335628.0 193115.0 0
340790.0 191909.0 0
345699.0 195290.0 0
349873.0 191414.0 0
355445.0 193584.0 0
361540.0 192974.0 0
367143.0 192125.0 0
372559.0 191253.0 0
377579.0 193433.0 0
382874.0 190879.0 0
389043.0 190747.0 0
397270.0 190606.0 0
393437.0 192901.0 0
402360.0 192631.0 0
407526.0 191239.0 0
411985.0 193474.0 0
417008.0 191461.0 0
421587.0 193310.0 0
426097.0 192212.0 0
432020.0 191493.0 0
437806.0 192585.0 0
443159.0 192068.0 0
447794.0 191234.0 0
452663.0 192073.0 0
463138.0 190480.0 0
463621.0 195299.0 0
468201.0 191861.0 0
473089.0 191938.0 0
478103.0 191396.0 0
482745.0 191706.0 0
487712.0 190615.0 0
493262.0 190643.0 0
497556.0 194849.0 0
2517.11 197296.0 0
7268.11 196701.0 0
12114.1 197033.0 0
17589.3 197630.0 0
23412.4 198318.0 0
28805.7 196637.0 0
34063.3 200366.0 0
39400.7 199256.0 0
43272.2 197743.0 0
47707.2 197822.0 0
52881.6 196664.0 0
58207.5 195834.0 0
64166.7 197095.0 0
71364.7 195982.0 0
69255.6 198039.0 0
75110.9 197810.0 0
81048.3 197603.0 0
87053.2 197957.0 0
96750.6 196562.0 0
92019.8 197087.0 0
107424.0 197424.0 0
113364.0 197441.0 0
118426.0 198460.0 0
123399.0 196751.0 0
128618.0 195933.0 0
133599.0 196180.0 0
137996.0 197816.0 0
145476.0 197138.0 0
150727.0 195884.0 0
157520.0 200563.0 0
162658.0 196602.0 0
167210.0 200603.0 0
170994.0 196512.0 0
175346.0 198238.0 0
183158.0 196440.0 0
179615.0 197311.0 0
183466.0 200363.0 0
187238.0 196541.0 0
192615.0 196116.0 0
197963.0 197876.0 0
202933.0 195659.0 0
206814.0 198011.0 0
210965.0 196563.0 0
215632.0 196789.0 0
221234.0 196866.0 0
227179.0 197174.0 0
237594.0 196052.0 0
243854.0 196759.0 0
248907.0 196526.0 0
254150.0 198161.0 0
260306.0 196542.0 0
272405.0 196043.0 0
279499.0 196760.0 0
285573.0 195652.0 0
284054.0 199907.0 0
290277.0 195512.0 0
289113.0 200611.0 0
293629.0 198888.0 0
297348.0 195754.0 0
302304.0 197723.0 0
312363.0 198428.0 0
318330.0 196900.0 0
323489.0 196292.0 0
327595.0 200464.0 0
332372.0 197086.0 0
340952.0 196487.0 0
337058.0 197698.0 0
350923.0 197405.0 0
359289.0 197780.0 0
364351.0 197470.0 0
368943.0 196788.0 0
373329.0 196121.0 0
377201.0 198518.0 0
381327.0 196704.0 0
386960.0 196889.0 0
393349.0 197755.0 0
397597.0 200602.0 0
398523.0 196184.0 0
402909.0 197571.0 0
407770.0 196638.0 0
415876.0 197272.0 0
421176.0 198570.0 0
424599.0 196248.0 0
428965.0 196782.0 0
434132.0 196472.0 0
438736.0 197770.0 0
442786.0 196429.0 0
447716.0 196498.0 0
453043.0 197095.0 0
458329.0 195927.0 0
463595.0 199840.0 0
468163.0 197188.0 0
473600.0 196350.0 0
471814.0 200048.0 0
478151.0 196554.0 0
482810.0 195905.0 0
481097.0 199894.0 0
487498.0 196195.0 0
492502.0 195594.0 0
495997.0 200127.0 0
2475.46 202289.0 0
7677.9 201722.0 0
12005.4 201234.0 0
15773.2 202666.0 0
20838.9 203364.0 0
26807.7 202701.0 0
40051.1 203500.0 0
44702.1 202209.0 0
48756.3 201533.0 0
47753.0 205565.0 0
53061.8 201838.0 0
59511.6 200927.0 0
63884.6 202232.0 0
67605.2 201490.0 0
71690.9 201431.0 0
78267.9 201315.0 0
77989.4 205413.0 0
82473.3 202593.0 0
87141.9 203548.0 0
92000.4 201727.0 0
97001.1 201677.0 0
102129.0 200928.0 0
106970.0 203303.0 0
111124.0 201736.0 0
115819.0 203104.0 0
121102.0 203105.0 0
126570.0 201456.0 0
132454.0 201153.0 0
137140.0 202287.0 0
142292.0 201419.0 0
147729.0 200888.0 0
152626.0 201540.0 0
156133.0 205506.0 0
162024.0 202172.0 0
172467.0 201660.0 0
178178.0 202571.0 0
186111.0 204764.0 0
190427.0 201133.0 0
195413.0 202577.0 0
203349.0 201014.0 0
199783.0 203195.0 0
208213.0 201996.0 0
204957.0 205535.0 0
212597.0 201067.0 0
211629.0 205638.0 0
217693.0 201477.0 0
223418.0 201712.0 0
227708.0 202168.0 0
232747.0 201402.0 0
231965.0 205671.0 0
237932.0 202068.0 0
242256.0 200951.0 0
241447.0 205446.0 0
246584.0 200843.0 0
251467.0 202628.0 0
257655.0 202439.0 0
262652.0 200669.0 0
268086.0 200730.0 0
266311.0 205166.0 0
273561.0 202745.0 0
279480.0 202953.0 0
284959.0 205044.0 0
290177.0 205477.0 0
293854.0 203108.0 0
298806.0 201505.0 0
302790.0 201197.0 0
302699.0 204356.0 0
307477.0 201055.0 0
307440.0 204989.0 0
312810.0 204246.0 0
316381.0 201811.0 0
321288.0 201923.0 0
333602.0 202068.0 0
340751.0 200619.0 0
337886.0 203568.0 0
346462.0 201844.0 0
352478.0 202226.0 0
358046.0 203362.0 0
362683.0 201335.0 0
367602.0 202059.0 0
373234.0 201245.0 0
377756.0 203250.0 0
383126.0 202118.0 0
388875.0 202769.0 0
393912.0 203033.0 0
401993.0 202189.0 0
407552.0 202441.0 0
417740.0 201430.0 0
413354.0 202467.0 0
420744.0 202713.0 0
426076.0 202155.0 0
432062.0 201258.0 0
436729.0 201612.0 0
442764.0 201450.0 0
438897.0 205670.0 0
448811.0 203597.0 0
453407.0 201266.0 0
458507.0 202459.0 0
467771.0 202504.0 0
472247.0 205100.0 0
476447.0 201585.0 0
481588.0 205162.0 0
485654.0 200858.0 0
490706.0 201893.0 0
3209.53 207418.0 0
8256.38 206822.0 0
12761.7 206458.0 0
17405.2 207426.0 0
22005.1 207961.0 0
26227.4 207485.0 0
30949.2 205988.0 0
35928.8 206105.0 0
40005.3 209228.0 0
43627.8 206195.0 0
51806.5 205896.0 0
52668.4 210091.0 0
56827.1 206115.0 0
62576.7 206245.0 0
67168.1 206668.0 0
72518.0 206618.0 0
78841.2 210167.0 0
82528.5 207019.0 0
86295.9 207615.0 0
90160.3 206862.0 0
95222.6 206699.0 0
101125.0 206598.0 0
106556.0 208325.0 0
111796.0 206598.0 0
118331.0 207775.0 0
123279.0 207532.0 0
127624.0 206576.0 0
132213.0 206470.0 0
137230.0 206886.0 0
132873.0 210804.0 0
141707.0 208160.0 0
146467.0 205883.0 0
151572.0 208346.0 0
161835.0 208472.0 0
169287.0 206986.0 0
175977.0 208346.0 0
181608.0 207382.0 0
190990.0 206437.0 0
195751.0 207252.0 0
200535.0 208379.0 0
208469.0 207770.0 0
206284.0 210096.0 0
216514.0 206799.0 0
221715.0 206119.0 0
226706.0 206659.0 0
230990.0 210062.0 0
236075.0 206951.0 0
240551.0 210692.0 0
246774.0 205955.0 0
248384.0 210735.0 0
251428.0 206879.0 0
252566.0 210522.0 0
256150.0 207549.0 0
259980.0 210605.0 0
261546.0 206010.0 0
265487.0 210415.0 0
270635.0 207624.0 0
276600.0 207699.0 0
281963.0 210557.0 0
288340.0 210236.0 0
293748.0 207723.0 0
297267.0 205928.0 0
298770.0 210324.0 0
304642.0 209058.0 0
310137.0 207557.0 0
313930.0 209022.0 0
316962.0 205967.0 0
326195.0 205847.0 0
321557.0 207898.0 0
327803.0 210358.0 0
331847.0 207050.0 0
336690.0 207575.0 0
341779.0 206496.0 0
346622.0 207714.0 0
350386.0 206157.0 0
354413.0 207429.0 0
363424.0 206674.0 0
368531.0 207281.0 0
372656.0 205936.0 0
376991.0 208399.0 0
381265.0 206629.0 0
382577.0 210658.0 0
385752.0 207235.0 0
391602.0 207785.0 0
397807.0 206684.0 0
403438.0 207163.0 0
408195.0 207557.0 0
412656.0 207629.0 0
417329.0 206128.0 0
422294.0 206461.0 0
427069.0 208848.0 0
433143.0 207191.0 0
443937.0 207041.0 0
448492.0 209444.0 0
453763.0 206226.0 0
457906.0 208371.0 0
463035.0 206918.0 0
468109.0 207278.0 0
472251.0 210246.0 0
476528.0 206618.0 0
483447.0 210285.0 0
487403.0 205769.0 0
487731.0 210441.0 0
492245.0 208299.0 0
497268.0 205777.0 0
2743.22 212846.0 0
8043.25 211844.0 0
14923.5 211661.0 0
11765.9 214325.0 0
19911.5 212237.0 0
25331.0 212328.0 0
32698.3 212783.0 0
42534.8 214197.0 0
47200.7 210840.0 0
52162.2 215517.0 0
57753.0 212357.0 0
63750.7 211604.0 0
69578.4 211962.0 0
74693.9 212497.0 0
82761.3 211789.0 0
87411.6 212048.0 0
93077.3 212122.0 0
98831.9 211957.0 0
103893.0 212509.0 0
107221.0 212331.0 0
111638.0 212470.0 0
107419.0 215582.0 0
116411.0 215161.0 0
120395.0 212502.0 0
124182.0 211802.0 0
128407.0 211200.0 0
131747.0 215528.0 0
136854.0 211576.0 0
141100.0 212343.0 0
146521.0 211850.0 0
151900.0 213737.0 0
156635.0 211944.0 0
160662.0 214014.0 0
166705.0 213253.0 0
172255.0 211971.0 0
170863.0 215406.0 0
179233.0 211961.0 0
184127.0 212586.0 0
189312.0 210952.0 0
193666.0 211851.0 0
197502.0 211444.0 0
202962.0 212226.0 0
199453.0 215795.0 0
207409.0 214884.0 0
212267.0 211469.0 0
216818.0 211330.0 0
220985.0 210952.0 0
221748.0 215200.0 0
225750.0 211634.0 0
235666.0 211874.0 0
238428.0 215806.0 0
244742.0 215018.0 0
251363.0 215513.0 0
256065.0 212549.0 0
261845.0 215189.0 0
270071.0 214439.0 0
272927.0 211091.0 0
275664.0 211678.0 0
278047.0 214715.0 0
289028.0 215561.0 0
293480.0 212397.0 0
297212.0 215207.0 0
303001.0 215533.0 0
309157.0 211221.0 0
312953.0 213764.0 0
317701.0 210935.0 0
323363.0 213087.0 0
328788.0 215581.0 0
332500.0 211704.0 0
336869.0 212186.0 0
342206.0 212070.0 0
351676.0 210969.0 0
347214.0 212085.0 0
354426.0 214587.0 0
357649.0 210970.0 0
363234.0 213029.0 0
368505.0 211543.0 0
373400.0 212761.0 0
379102.0 212805.0 0
387080.0 212835.0 0
392324.0 213969.0 0
395893.0 211414.0 0
400749.0 211877.0 0
405935.0 211501.0 0
411228.0 212804.0 0
416962.0 211962.0 0
422188.0 211361.0 0
426356.0 214404.0 0
431392.0 212888.0 0
437982.0 211095.0 0
443846.0 212920.0 0
453589.0 211453.0 0
449069.0 213793.0 0
458354.0 212568.0 0
462243.0 211909.0 0
467270.0 212284.0 0
472915.0 215444.0 0
478245.0 211380.0 0
482526.0 214748.0 0
487864.0 215570.0 0
492456.0 213287.0 0
497112.0 211378.0 0
2122.06 217672.0 0
6630.16 216779.0 0
10875.3 217978.0 0
16445.7 216904.0 0
22135.4 217036.0 0
26807.5 216903.0 0
31182.1 220584.0 0
38043.1 218227.0 0
44042.5 218714.0 0
47182.2 215971.0 0
57345.8 218454.0 0
62695.9 216984.0 0
67631.1 217305.0 0
72733.8 217043.0 0
77869.6 216419.0 0
83358.2 216503.0 0
86321.4 220627.0 0
88733.0 217008.0 0
93487.3 216981.0 0
96817.1 220993.0 0
97430.2 216592.0 0
102461.0 217719.0 0
111802.0 218835.0 0
120438.0 218363.0 0
125859.0 216126.0 0
137379.0 216455.0 0
143320.0 217242.0 0
148471.0 216800.0 0
152881.0 218267.0 0
157303.0 216943.0 0
163245.0 216373.0 0
162715.0 220875.0 0
168106.0 218668.0 0
175911.0 215979.0 0
181670.0 217795.0 0
186379.0 220536.0 0
189131.0 216199.0 0
194262.0 216600.0 0
203612.0 217810.0 0
210864.0 218559.0 0
216144.0 216852.0 0
221802.0 219863.0 0
226487.0 216907.0 0
232440.0 216050.0 0
236398.0 220719.0 0
241214.0 220273.0 0
245780.0 220366.0 0
256825.0 217076.0 0
266232.0 218533.0 0
274195.0 217178.0 0
271145.0 220840.0 0
278157.0 220439.0 0
283480.0 216875.0 0
288457.0 220855.0 0
293264.0 217907.0 0
298386.0 220416.0 0
308802.0 216436.0 0
318355.0 216213.0 0
324039.0 218536.0 0
334063.0 217327.0 0
339588.0 216734.0 0
344929.0 216535.0 0
349985.0 216071.0 0
353208.0 220753.0 0
358647.0 217691.0 0
363895.0 218621.0 0
368160.0 216261.0 0
372316.0 217488.0 0
376964.0 217339.0 0
382473.0 216300.0 0
387497.0 217316.0 0
392129.0 218077.0 0
396150.0 216790.0 0
401229.0 217345.0 0
406694.0 216663.0 0
411220.0 217675.0 0
415491.0 217000.0 0
421159.0 216947.0 0
428516.0 217915.0 0
430954.0 217319.0 0
435837.0 217116.0 0
442047.0 218859.0 0
446666.0 217284.0 0
451289.0 218508.0 0
456079.0 216236.0 0
461500.0 216960.0 0
466932.0 217691.0 0
470975.0 220435.0 0
478057.0 216850.0 0
482655.0 220749.0 0
493646.0 217187.0 0
498089.0 216059.0 0
497008.0 220842.0 0
2813.89 222464.0 0
8166.46 221722.0 0
12896.4 221086.0 0
11900.6 225053.0 0
16333.9 221735.0 0
20386.3 221614.0 0
17722.3 225978.0 0
25270.9 222843.0 0
37229.5 223569.0 0
41792.2 222577.0 0
47443.5 222696.0 0
53099.2 222007.0 0
58687.3 223744.0 0
63564.8 222137.0 0
68267.3 221701.0 0
72452.9 221892.0 0
77184.9 221532.0 0
82034.2 221611.0 0
91303.3 221546.0 0
87015.3 225649.0 0
101397.0 223611.0 0
107501.0 223809.0 0
116465.0 221568.0 0
113003.0 223662.0 0
121275.0 223099.0 0
126005.0 222285.0 0
132124.0 221912.0 0
137821.0 222096.0 0
142842.0 222631.0 0
147534.0 221353.0 0
152631.0 222909.0 0
157563.0 221931.0 0
167296.0 223697.0 0
172608.0 221168.0 0
171995.0 225604.0 0
177858.0 221272.0 0
182310.0 222891.0 0
188247.0 225512.0 0
192090.0 221074.0 0
196630.0 221759.0 0
201120.0 221271.0 0
199060.0 226088.0 0
206776.0 221081.0 0
212749.0 221680.0 0
214031.0 225041.0 0
217645.0 222767.0 0
222152.0 225355.0 0
226806.0 222012.0 0
226340.0 225875.0 0
231553.0 221679.0 0
235735.0 225461.0 0
240059.0 223644.0 0
243727.0 224561.0 0
250438.0 221405.0 0
255185.0 221255.0 0
260756.0 221365.0 0
266793.0 224053.0 0
283285.0 223707.0 0
293477.0 222807.0 0
299377.0 225771.0 0
303454.0 221085.0 0
303659.0 225083.0 0
308185.0 221444.0 0
314348.0 221551.0 0
319263.0 221157.0 0
317915.0 225959.0 0
322906.0 224283.0 0
328966.0 221147.0 0
333145.0 221538.0 0
333187.0 225823.0 0
336742.0 221489.0 0
342587.0 221897.0 0
347878.0 221050.0 0
346988.0 224605.0 0
357769.0 223373.0 0
362510.0 223434.0 0
367789.0 221910.0 0
373562.0 222124.0 0
382647.0 221552.0 0
378332.0 221847.0 0
387500.0 221853.0 0
390843.0 221655.0 0
394212.0 221246.0 0
394662.0 225865.0 0
397992.0 221248.0 0
400641.0 225633.0 0
405860.0 222694.0 0
412258.0 222309.0 0
417887.0 221815.0 0
423012.0 222212.0 0
427878.0 221806.0 0
432791.0 222273.0 0
437677.0 222760.0 0
441770.0 223528.0 0
447088.0 221541.0 0
452127.0 223671.0 0
456328.0 221184.0 0
461270.0 222615.0 0
466169.0 222274.0 0
470795.0 225624.0 0
476162.0 221876.0 0
488907.0 221136.0 0
492847.0 223984.0 0
2319.56 226906.0 0
2877.26 230738.0 0
7488.63 226569.0 0
7660.86 231029.0 0
13294.8 229452.0 0
17518.1 230870.0 0
22193.0 226571.0 0
21985.1 230857.0 0
25714.9 227368.0 0
29626.2 229157.0 0
33500.8 226168.0 0
36830.4 228589.0 0
41262.1 227806.0 0
46268.2 227926.0 0
51633.3 227352.0 0
56870.0 228005.0 0
62241.5 227593.0 0
67516.3 226417.0 0
72507.0 226503.0 0
73875.2 230974.0 0
81267.5 226733.0 0
76625.5 227567.0 0
92309.4 226814.0 0
97256.1 226835.0 0
102435.0 228760.0 0
106772.0 228953.0 0
111799.0 227637.0 0
117641.0 227109.0 0
123434.0 226836.0 0
128783.0 227340.0 0
134059.0 226953.0 0
137961.0 226684.0 0
142163.0 226632.0 0
147507.0 227153.0 0
152873.0 227842.0 0
158961.0 226319.0 0
162909.0 226248.0 0
162992.0 230635.0 0
167203.0 228336.0 0
177733.0 226808.0 0
183257.0 227571.0 0
186683.0 230890.0 0
193903.0 226368.0 0
196807.0 230438.0 0
204163.0 226522.0 0
209497.0 226151.0 0
213603.0 229309.0 0
217442.0 227149.0 0
220488.0 230190.0 0
225388.0 229724.0 0
230558.0 227203.0 0
235826.0 230940.0 0
240024.0 227614.0 0
245173.0 230640.0 0
250370.0 226797.0 0
256481.0 226680.0 0
262639.0 226993.0 0
267375.0 229566.0 0
272519.0 226482.0 0
278323.0 226252.0 0
282855.0 229246.0 0
289981.0 226351.0 0
289755.0 231124.0 0
294950.0 227254.0 0
293413.0 230829.0 0
303740.0 230234.0 0
307818.0 226602.0 0
313030.0 227742.0 0
320293.0 230285.0 0
324609.0 228853.0 0
327979.0 226182.0 0
334653.0 231133.0 0
338989.0 227186.0 0
344314.0 227180.0 0
351178.0 226854.0 0
358166.0 227754.0 0
362964.0 228339.0 0
367645.0 227274.0 0
372884.0 227754.0 0
376885.0 230347.0 0
377591.0 226525.0 0
380639.0 230998.0 0
387666.0 226313.0 0
383033.0 226717.0 0
390580.0 227197.0 0
391382.0 230581.0 0
400517.0 230011.0 0
404215.0 228935.0 0
409728.0 228156.0 0
416362.0 227598.0 0
422814.0 227870.0 0
428624.0 226636.0 0
433383.0 227092.0 0
438576.0 228013.0 0
448819.0 226402.0 0
444220.0 227325.0 0
452095.0 227661.0 0
457221.0 227446.0 0
462828.0 227092.0 0
466794.0 228361.0 0
476400.0 228255.0 0
482886.0 227491.0 0
488671.0 226651.0 0
492896.0 227705.0 0
497140.0 226704.0 0
2104.59 234896.0 0
12523.0 234812.0 0
18520.5 235907.0 0
24345.7 235634.0 0
25928.2 231263.0 0
30115.1 236004.0 0
33841.1 232025.0 0
38550.8 232056.0 0
39872.0 236113.0 0
43314.3 232867.0 0
47500.0 231666.0 0
47479.4 235839.0 0
51973.9 232999.0 0
58907.4 232558.0 0
64494.5 232785.0 0
69004.5 231514.0 0
71689.9 235861.0 0
77214.9 231392.0 0
80690.7 231835.0 0
77190.5 235010.0 0
86320.7 231956.0 0
92811.8 231821.0 0
93312.9 235928.0 0
98243.2 232096.0 0
103094.0 232724.0 0
107094.0 236274.0 0
109025.0 232134.0 0
113208.0 231750.0 0
112292.0 236002.0 0
122442.0 231620.0 0
117544.0 232819.0 0
126563.0 232232.0 0
122473.0 235691.0 0
131864.0 231689.0 0
136845.0 231232.0 0
137654.0 236174.0 0
140202.0 233543.0 0
144009.0 231919.0 0
150416.0 231714.0 0
153047.0 235725.0 0
157087.0 231539.0 0
161580.0 235568.0 0
167636.0 232999.0 0
173052.0 231237.0 0
183033.0 232183.0 0
178840.0 232874.0 0
184966.0 235970.0 0
191845.0 231246.0 0
190264.0 235536.0 0
195407.0 236024.0 0
201799.0 231535.0 0
207325.0 231253.0 0
212326.0 235137.0 0
216950.0 232339.0 0
222874.0 234650.0 0
229378.0 232239.0 0
232624.0 235808.0 0
240228.0 232632.0 0
248620.0 235551.0 0
252501.0 231810.0 0
255007.0 235867.0 0
257222.0 232138.0 0
259925.0 236037.0 0
262351.0 231771.0 0
272616.0 232590.0 0
277797.0 231272.0 0
276490.0 236135.0 0
281555.0 234996.0 0
285973.0 232751.0 0
292797.0 235649.0 0
297868.0 231758.0 0
303430.0 235528.0 0
309258.0 232167.0 0
315420.0 233161.0 0
323685.0 233803.0 0
328761.0 231826.0 0
332678.0 235771.0 0
338213.0 233385.0 0
342800.0 232328.0 0
348331.0 231655.0 0
354571.0 231576.0 0
358832.0 231715.0 0
358289.0 235533.0 0
362307.0 232393.0 0
366734.0 232314.0 0
371990.0 233140.0 0
377265.0 234649.0 0
386649.0 231496.0 0
383137.0 235968.0 0
392797.0 235317.0 0
396440.0 231573.0 0
401635.0 235085.0 0
407476.0 233619.0 0
413219.0 233451.0 0
418109.0 232642.0 0
422108.0 233024.0 0
426879.0 231477.0 0
431422.0 231380.0 0
429096.0 235675.0 0
436289.0 233358.0 0
442101.0 232667.0 0
447550.0 231581.0 0
452804.0 231848.0 0
449570.0 236316.0 0
457500.0 233515.0 0
461587.0 231309.0 0
461735.0 235869.0 0
465843.0 232417.0 0
470829.0 231419.0 0
476633.0 234178.0 0
480520.0 231908.0 0
485119.0 232535.0 0
491128.0 232498.0 0
497365.0 232195.0 0
6793.15 236525.0 0
12819.2 240238.0 0
23734.9 241000.0 0
35415.9 237441.0 0
43531.7 238153.0 0
47740.5 240602.0 0
51743.7 237837.0 0
56704.6 237589.0 0
61963.5 237600.0 0
66637.2 237279.0 0
82290.5 236823.0 0
88450.5 238272.0 0
94100.6 240142.0 0
97500.0 236700.0 0
99300.6 241397.0 0
102236.0 236500.0 0
108320.0 241239.0 0
113638.0 240844.0 0
117489.0 237433.0 0
122395.0 240083.0 0
132591.0 236451.0 0
127670.0 237197.0 0
131337.0 241292.0 0
135403.0 239931.0 0
142127.0 236607.0 0
139966.0 240879.0 0
147639.0 236392.0 0
157498.0 237419.0 0
162228.0 240997.0 0
165670.0 237253.0 0
171235.0 237106.0 0
176240.0 237100.0 0
180332.0 237545.0 0
188830.0 239640.0 0
198166.0 240735.0 0
201313.0 236989.0 0
206585.0 237313.0 0
218109.0 236672.0 0
217316.0 241136.0 0
221942.0 239988.0 0
227522.0 237267.0 0
231238.0 241204.0 0
238162.0 236613.0 0
243788.0 236973.0 0
247335.0 241003.0 0
251711.0 238870.0 0
256824.0 241019.0 0
262028.0 241168.0 0
266657.0 236607.0 0
272631.0 237528.0 0
277767.0 240566.0 0
282670.0 240492.0 0
287001.0 237341.0 0
298712.0 237625.0 0
304165.0 240539.0 0
307680.0 236821.0 0
312781.0 238436.0 0
319105.0 237523.0 0
323799.0 238028.0 0
328211.0 237468.0 0
337208.0 237166.0 0
341739.0 237565.0 0
346950.0 237058.0 0
352954.0 236852.0 0
357556.0 240884.0 0
363850.0 236787.0 0
368581.0 236424.0 0
368202.0 241263.0 0
372515.0 237017.0 0
373381.0 240681.0 0
378056.0 239750.0 0
388492.0 237199.0 0
392116.0 240272.0 0
396699.0 237093.0 0
408626.0 238212.0 0
412941.0 238414.0 0
417500.0 236598.0 0
421523.0 241357.0 0
423653.0 236926.0 0
427085.0 240740.0 0
432842.0 236858.0 0
436284.0 240524.0 0
439596.0 237013.0 0
445091.0 236660.0 0
453927.0 236661.0 0
458049.0 238077.0 0
454947.0 241331.0 0
462489.0 240100.0 0
466237.0 237126.0 0
472010.0 237445.0 0
477068.0 238801.0 0
481395.0 236530.0 0
487084.0 237749.0 0
492809.0 238394.0 0
497596.0 237229.0 0
3506.56 241977.0 0
8912.79 241791.0 0
7861.09 245855.0 0
13198.9 246149.0 0
18045.9 242117.0 0
29009.0 241800.0 0
33721.3 241603.0 0
33684.7 246512.0 0
38524.6 241924.0 0
43678.3 242875.0 0
47500.0 246475.0 0
52004.7 242394.0 0
56979.9 242996.0 0
61796.8 242308.0 0
66400.5 241872.0 0
71634.7 241746.0 0
78211.8 242227.0 0
84123.4 241567.0 0
87688.7 243347.0 0
92062.6 245458.0 0
103853.0 242833.0 0
102295.0 246504.0 0
113346.0 246261.0 0
118189.0 241880.0 0
121263.0 245371.0 0
126892.0 242143.0 0
129833.0 245558.0 0
135554.0 245729.0 0
141809.0 245747.0 0
145198.0 241526.0 0
151685.0 241835.0 0
157465.0 242584.0 0
167842.0 241569.0 0
173465.0 242743.0 0
178660.0 241518.0 0
183501.0 241516.0 0
188010.0 245526.0 0
193405.0 242269.0 0
197870.0 245759.0 0
202230.0 242311.0 0
202709.0 246506.0 0
207016.0 242482.0 0
212381.0 241536.0 0
210418.0 246117.0 0
215940.0 245658.0 0
222034.0 246126.0 0
226299.0 242056.0 0
227894.0 246520.0 0
232873.0 245670.0 0
236066.0 241795.0 0
237579.0 246272.0 0
240758.0 241638.0 0
243283.0 246119.0 0
248662.0 246478.0 0
251815.0 242878.0 0
259268.0 245869.0 0
266318.0 243933.0 0
272436.0 242272.0 0
276853.0 245133.0 0
287564.0 242826.0 0
294272.0 242264.0 0
299734.0 242439.0 0
306024.0 246130.0 0
308987.0 241808.0 0
315362.0 243334.0 0
311333.0 244858.0 0
320384.0 242534.0 0
326095.0 242767.0 0
333154.0 241934.0 0
339140.0 242458.0 0
337013.0 246322.0 0
341119.0 246246.0 0
343434.0 241584.0 0
346180.0 246383.0 0
347367.0 241857.0 0
351804.0 242398.0 0
357134.0 246202.0 0
363008.0 241823.0 0
372171.0 245296.0 0
377869.0 245743.0 0
382804.0 242117.0 0
387998.0 242917.0 0
397058.0 241443.0 0
392971.0 245488.0 0
402873.0 241757.0 0
407560.0 241762.0 0
411391.0 242710.0 0
416297.0 241561.0 0
415648.0 246357.0 0
431835.0 243006.0 0
442627.0 241927.0 0
449565.0 241942.0 0
453714.0 246165.0 0
459035.0 242362.0 0
458586.0 246453.0 0
462382.0 244569.0 0
466449.0 241988.0 0
470797.0 242612.0 0
475073.0 242356.0 0
479815.0 242846.0 0
485461.0 243410.0 0
491395.0 242603.0 0
496535.0 242705.0 0
3164.76 248640.0 0
18016.5 248092.0 0
22913.6 246631.0 0
28302.8 246944.0 0
38744.2 246862.0 0
37849.1 251395.0 0
42462.5 246707.0 0
42860.5 251496.0 0
47500.0 251558.0 0
52556.7 246791.0 0
52500.0 251477.0 0
57796.7 248310.0 0
62773.9 246775.0 0
67039.8 246673.0 0
67614.2 251059.0 0
72935.3 247796.0 0
78321.3 248026.0 0
81627.8 251525.0 0
82589.4 246620.0 0
86239.2 251384.0 0
87056.7 247262.0 0
97669.8 246686.0 0
102672.0 251053.0 0
107409.0 247071.0 0
111197.0 251144.0 0
117556.0 247611.0 0
120820.0 251261.0 0
125794.0 248062.0 0
131560.0 251546.0 0
147627.0 247876.0 0
152818.0 247185.0 0
152337.0 251170.0 0
156962.0 247061.0 0
162565.0 247111.0 0
165870.0 251620.0 0
168614.0 247088.0 0
178547.0 246603.0 0
173683.0 248115.0 0
183148.0 248236.0 0
193375.0 247074.0 0
190731.0 250458.0 0
195913.0 251398.0 0
202303.0 250192.0 0
206541.0 246871.0 0
212695.0 250331.0 0
217367.0 250082.0 0
221327.0 251627.0 0
226113.0 251352.0 0
231890.0 250723.0 0
240965.0 250367.0 0
254444.0 246546.0 0
257949.0 249909.0 0
262871.0 247644.0 0
267427.0 249631.0 0
270746.0 246555.0 0
272728.0 250641.0 0
277828.0 249831.0 0
282819.0 246647.0 0
288058.0 248148.0 0
292383.0 247816.0 0
298263.0 246734.0 0
302081.0 250788.0 0
310183.0 247676.0 0
314049.0 248356.0 0
318477.0 246589.0 0
318493.0 251156.0 0
322500.0 246761.0 0
325754.0 251121.0 0
328895.0 247431.0 0
333247.0 248314.0 0
352137.0 248505.0 0
361937.0 246736.0 0
367471.0 248036.0 0
372126.0 251415.0 0
383976.0 248162.0 0
389039.0 247682.0 0
393856.0 251164.0 0
398548.0 246866.0 0
404604.0 246917.0 0
408304.0 246923.0 0
411600.0 247002.0 0
413407.0 251189.0 0
420774.0 246846.0 0
427258.0 247294.0 0
432708.0 247075.0 0
432985.0 251332.0 0
437828.0 247127.0 0
443857.0 248175.0 0
448898.0 248063.0 0
447415.0 251438.0 0
455864.0 250434.0 0
466456.0 246868.0 0
471666.0 247269.0 0
476744.0 246934.0 0
482116.0 247717.0 0
489725.0 246729.0 0
493000.0 248719.0 0
497149.0 248700.0 0
2175.07 253887.0 0
6289.93 252839.0 0
6704.61 256708.0 0
11599.4 252265.0 0
17536.7 252555.0 0
22463.9 252303.0 0
27690.3 252004.0 0
32846.5 251892.0 0
37800.7 256465.0 0
42911.0 256612.0 0
48373.5 256431.0 0
53049.3 256660.0 0
57471.5 252771.0 0
62273.8 251831.0 0
62500.0 256645.0 0
67351.0 256668.0 0
72220.4 253517.0 0
77001.5 251913.0 0
86598.6 256556.0 0
91741.2 251870.0 0
97809.7 252074.0 0
106903.0 253217.0 0
102893.0 256070.0 0
112144.0 256445.0 0
115541.0 251941.0 0
117790.0 256312.0 0
126021.0 252894.0 0
127517.0 256609.0 0
137590.0 251916.0 0
135064.0 255421.0 0
143034.0 252353.0 0
148513.0 253682.0 0
156777.0 251742.0 0
161254.0 252955.0 0
170819.0 252045.0 0
176304.0 252686.0 0
181153.0 251753.0 0
186192.0 253750.0 0
191887.0 255198.0 0
201247.0 255149.0 0
207027.0 251885.0 0
211871.0 256100.0 0
217595.0 254799.0 0
222978.0 256284.0 0
228688.0 256313.0 0
233719.0 255690.0 0
236936.0 252834.0 0
241141.0 255711.0 0
246409.0 252447.0 0
252566.0 251814.0 0
257172.0 254379.0 0
262499.0 252688.0 0
268881.0 255612.0 0
276217.0 254053.0 0
283406.0 253684.0 0
290013.0 252665.0 0
296055.0 251913.0 0
305265.0 255293.0 0
308493.0 251641.0 0
313703.0 253486.0 0
316773.0 256318.0 0
322153.0 253873.0 0
331011.0 252875.0 0
336305.0 251998.0 0
338665.0 256374.0 0
342218.0 251645.0 0
347987.0 252577.0 0
352469.0 254161.0 0
357712.0 252063.0 0
363368.0 251659.0 0
362633.0 256481.0 0
367622.0 254143.0 0
377594.0 251707.0 0
382668.0 254434.0 0
388201.0 252553.0 0
397810.0 255023.0 0
403548.0 252715.0 0
409206.0 253462.0 0
418014.0 251800.0 0
417019.0 256340.0 0
422330.0 251888.0 0
427432.0 254046.0 0
437053.0 252053.0 0
442559.0 253664.0 0
448192.0 256493.0 0
451703.0 252019.0 0
455968.0 256345.0 0
461827.0 251746.0 0
468602.0 252448.0 0
474668.0 252355.0 0
480001.0 251821.0 0
481988.0 255798.0 0
486589.0 251945.0 0
493166.0 253095.0 0
498364.0 253019.0 0
2648.19 258168.0 0
11883.6 259051.0 0
17237.5 257052.0 0
21689.6 257177.0 0
26625.8 257206.0 0
32269.7 257347.0 0
57491.6 257056.0 0
72974.1 257853.0 0
77090.2 256841.0 0
80945.5 256828.0 0
92662.9 258465.0 0
98143.0 257118.0 0
107106.0 258571.0 0
123040.0 257979.0 0
131674.0 258350.0 0
139794.0 258047.0 0
146646.0 258916.0 0
153457.0 256968.0 0
159441.0 257499.0 0
162837.0 260489.0 0
165969.0 256834.0 0
171467.0 257271.0 0
177281.0 258906.0 0
183205.0 259028.0 0
188839.0 259341.0 0
195947.0 259042.0 0
201234.0 260584.0 0
206416.0 258615.0 0
210801.0 261764.0 0
216427.0 260544.0 0
227968.0 261718.0 0
233933.0 260514.0 0
236989.0 257372.0 0
240343.0 261490.0 0
246175.0 258873.0 0
251694.0 257256.0 0
258374.0 259365.0 0
263472.0 258278.0 0
274501.0 258294.0 0
270693.0 261133.0 0
279015.0 257107.0 0
284472.0 260064.0 0
288586.0 257413.0 0
293678.0 257610.0 0
300181.0 256954.0 0
304994.0 259284.0 0
308866.0 257545.0 0
313457.0 258489.0 0
320570.0 258009.0 0
326679.0 257557.0 0
333860.0 257830.0 0
342798.0 257111.0 0
347414.0 257549.0 0
352857.0 258987.0 0
357815.0 257848.0 0
367022.0 258489.0 0
371861.0 256883.0 0
377437.0 257631.0 0
382625.0 258793.0 0
386622.0 258081.0 0
391984.0 257344.0 0
396543.0 259140.0 0
401644.0 259437.0 0
406987.0 257663.0 0
411809.0 257163.0 0
422568.0 257624.0 0
427263.0 259753.0 0
432184.0 257925.0 0
437979.0 257273.0 0
442950.0 259217.0 0
452071.0 259662.0 0
461567.0 258304.0 0
466227.0 256958.0 0
471901.0 258673.0 0
477525.0 257156.0 0
481331.0 259640.0 0
486495.0 259260.0 0
491854.0 258202.0 0
497014.0 257785.0 0
199586.0 265507.0 0
204484.0 263144.0 0
209470.0 266756.0 0
215739.0 266649.0 0
222480.0 262015.0 0
231476.0 265055.0 0
236564.0 263841.0 0
244598.0 264554.0 0
248989.0 263429.0 0
253464.0 262024.0 0
257896.0 264920.0 0
261355.0 262432.0 0
262167.0 265517.0 0
265873.0 263172.0 0
271460.0 266268.0 0
278594.0 262586.0 0
283451.0 264707.0 0
289815.0 261957.0 0
287248.0 266263.0 0
293216.0 266840.0 0
297128.0 262326.0 0
302378.0 262877.0 0
200582.0 271795.0 0
204464.0 267276.0 0
206839.0 271767.0 0
212358.0 270973.0 0
221146.0 267395.0 0
223365.0 271315.0 0
226657.0 267425.0 0
231825.0 270361.0 0
235333.0 267012.0 0
236732.0 270678.0 0
240450.0 267596.0 0
245801.0 269702.0 0
252380.0 266961.0 0
250600.0 271265.0 0
256853.0 271318.0 0
262920.0 269586.0 0
268029.0 270416.0 0
276408.0 267952.0 0
278881.0 271856.0 0
280926.0 267842.0 0
284557.0 269128.0 0
288810.0 271554.0 0
299474.0 267696.0 0
213601.0 276055.0 0
218221.0 272325.0 0
227350.0 273381.0 0
231683.0 275732.0 0
236098.0 274739.0 0
240964.0 273321.0 0
246385.0 275568.0 0
252219.0 275998.0 0
261596.0 274716.0 0
266658.0 275646.0 0
273340.0 272637.0 0
276897.0 276626.0 0
283257.0 272725.0 0
281075.0 275774.0 0
285892.0 276755.0 0
294294.0 272442.0 0
291458.0 276494.0 0
298349.0 272402.0 0
297263.0 277002.0 0
10310.7 281601.0 0
202179.0 278172.0 0
208348.0 277268.0 0
210345.0 281268.0 0
218690.0 277699.0 0
215209.0 281591.0 0
223718.0 277313.0 0
220823.0 281924.0 0
228239.0 277950.0 0
231223.0 280338.0 0
237011.0 280172.0 0
240604.0 277401.0 0
243169.0 280174.0 0
248821.0 280944.0 0
254691.0 281147.0 0
257463.0 277214.0 0
261850.0 280031.0 0
268404.0 282117.0 0
271774.0 277401.0 0
274598.0 280671.0 0
279538.0 279481.0 0
283534.0 281688.0 0
289162.0 281283.0 0
293910.0 280599.0 0
341742.0 279265.0 0
201825.0 285297.0 0
206133.0 282671.0 0
211449.0 286116.0 0
216924.0 287130.0 0
222273.0 286788.0 0
226501.0 282895.0 0
232144.0 285408.0 0
237065.0 285555.0 0
241916.0 285611.0 0
247670.0 286839.0 0
253241.0 286298.0 0
258645.0 284810.0 0
273128.0 286987.0 0
278614.0 283562.0 0
282855.0 285940.0 0
293002.0 285811.0 0
297960.0 283164.0 0
309756.0 283131.0 0
404603.0 286387.0 0
443009.0 287306.0 0
497243.0 287255.0 0
6878.9 291411.0 0
48261.5 289026.0 0
126005.0 292383.0 0
167796.0 291273.0 0
174681.0 288050.0 0
177286.0 292103.0 0
201373.0 290073.0 0
206259.0 287981.0 0
210433.0 291787.0 0
215523.0 291823.0 0
220092.0 291242.0 0
228052.0 287404.0 0
225528.0 290891.0 0
231427.0 291539.0 0
237517.0 290469.0 0
253778.0 291645.0 0
258820.0 290004.0 0
262732.0 287373.0 0
267376.0 288394.0 0
274268.0 292245.0 0
279207.0 289285.0 0
287166.0 287527.0 0
288844.0 292122.0 0
292805.0 291092.0 0
297872.0 289670.0 0
317421.0 291351.0 0
357807.0 290858.0 0
362467.0 289275.0 0
368610.0 289057.0 0
374583.0 291699.0 0
389098.0 288122.0 0
421499.0 287659.0 0
437044.0 290948.0 0
455114.0 287687.0 0
461586.0 291548.0 0
472319.0 288431.0 0
476569.0 291674.0 0
492537.0 289407.0 0
14254.8 295964.0 0
22442.4 297280.0 0
30433.9 297184.0 0
56374.4 292939.0 0
63868.7 292949.0 0
68827.6 293968.0 0
75161.9 296004.0 0
79658.9 294702.0 0
85031.3 295400.0 0
96187.4 293215.0 0
100416.0 292663.0 0
107589.0 294399.0 0
111005.0 296244.0 0
115161.0 294701.0 0
121008.0 294594.0 0
131855.0 296706.0 0
137504.0 295718.0 0
154054.0 295004.0 0
158565.0 294399.0 0
173221.0 297127.0 0
178735.0 295469.0 0
191569.0 293256.0 0
196244.0 294184.0 0
200892.0 294431.0 0
205151.0 292874.0 0
208011.0 295869.0 0
204089.0 297518.0 0
213364.0 296690.0 0
217854.0 295494.0 0
222329.0 295411.0 0
227465.0 296189.0 0
233026.0 297271.0 0
238135.0 296433.0 0
242312.0 293495.0 0
248060.0 292901.0 0
245368.0 297413.0 0
259048.0 294413.0 0
255498.0 296184.0 0
263577.0 292560.0 0
261786.0 296857.0 0
269203.0 293512.0 0
273095.0 296538.0 0
277796.0 295963.0 0
284325.0 292507.0 0
282142.0 296287.0 0
287754.0 296275.0 0
292958.0 296096.0 0
297449.0 294672.0 0
309917.0 294637.0 0
322450.0 292741.0 0
322451.0 297453.0 0
391311.0 294800.0 0
396056.0 296238.0 0
417127.0 297304.0 0
423600.0 295610.0 0
449230.0 297320.0 0
466760.0 296810.0 0
471850.0 295407.0 0
481239.0 292767.0 0
497839.0 296706.0 0
8033.11 301600.0 0
17655.2 299281.0 0
36537.1 297718.0 0
40985.6 302122.0 0
48339.7 299929.0 0
53010.0 299926.0 0
88220.9 301390.0 0
93065.2 299317.0 0
97919.2 301441.0 0
119140.0 301591.0 0
124379.0 299489.0 0
142262.0 297971.0 0
146000.0 301423.0 0
150902.0 299294.0 0
169989.0 302378.0 0
178042.0 298970.0 0
199543.0 302052.0 0
209325.0 300242.0 0
215077.0 302217.0 0
220076.0 299483.0 0
225957.0 301169.0 0
230708.0 302026.0 0
236392.0 301764.0 0
241711.0 298274.0 0
241430.0 302048.0 0
251052.0 297777.0 0
253464.0 302280.0 0
257880.0 300064.0 0
262773.0 301085.0 0
267219.0 298556.0 0
271750.0 300986.0 0
276228.0 302443.0 0
284673.0 298775.0 0
280751.0 300520.0 0
287929.0 301230.0 0
292549.0 301007.0 0
296821.0 299175.0 0
300487.0 301602.0 0
304845.0 302084.0 0
308747.0 301273.0 0
318278.0 301475.0 0
326630.0 298212.0 0
330913.0 298486.0 0
335045.0 301146.0 0
339605.0 297830.0 0
345114.0 300023.0 0
364943.0 302580.0 0
383597.0 302233.0 0
388726.0 299314.0 0
393964.0 301122.0 0
407296.0 300391.0 0
422388.0 301076.0 0
426612.0 299179.0 0
431907.0 299882.0 0
436080.0 301719.0 0
439714.0 298170.0 0
444222.0 300427.0 0
458451.0 300186.0 0
462790.0 297997.0 0
479717.0 298050.0 0
484429.0 298130.0 0
489239.0 301056.0 0
2631.23 304571.0 0
14588.8 302788.0 0
18911.2 305115.0 0
30589.4 303386.0 0
27252.5 307438.0 0
37311.7 305718.0 0
45936.2 303598.0 0
54909.3 306587.0 0
60744.6 307636.0 0
85759.2 306606.0 0
91010.0 306739.0 0
92904.6 304325.0 0
96476.5 305763.0 0
102310.0 303548.0 0
105708.0 306639.0 0
113050.0 303606.0 0
126262.0 303697.0 0
137141.0 305156.0 0
132697.0 307075.0 0
155278.0 302659.0 0
166524.0 306434.0 0
177571.0 303140.0 0
183088.0 304794.0 0
188926.0 303446.0 0
194750.0 304713.0 0
204416.0 302657.0 0
208781.0 305459.0 0
218425.0 307307.0 0
222099.0 303748.0 0
222794.0 307645.0 0
226658.0 306000.0 0
231897.0 307216.0 0
237321.0 307182.0 0
242505.0 306683.0 0
247376.0 302841.0 0
252148.0 307202.0 0
257608.0 305830.0 0
262737.0 305783.0 0
267277.0 303891.0 0
272527.0 306687.0 0
278413.0 306581.0 0
284094.0 305423.0 0
290957.0 306359.0 0
296367.0 303925.0 0
305456.0 306016.0 0
309713.0 305433.0 0
314014.0 304176.0 0
342101.0 303424.0 0
348027.0 303578.0 0
360423.0 306382.0 0
368691.0 305213.0 0
373639.0 307632.0 0
377600.0 303442.0 0
385630.0 306964.0 0
390690.0 303244.0 0
394399.0 305911.0 0
398809.0 303273.0 0
398411.0 307291.0 0
403236.0 304144.0 0
412976.0 302713.0 0
415149.0 307156.0 0
431773.0 305404.0 0
473827.0 304835.0 0
478880.0 303270.0 0
483291.0 306868.0 0
492521.0 305054.0 0
497266.0 304810.0 0
4198.95 309674.0 0
1396.57 312665.0 0
10165.2 307824.0 0
8211.08 311630.0 0
16619.4 312575.0 0
21754.5 311271.0 0
31965.1 309923.0 0
44551.6 309079.0 0
49617.5 310014.0 0
53511.7 311556.0 0
65233.2 310780.0 0
73247.1 309673.0 0
79797.4 310172.0 0
100409.0 307931.0 0
97591.4 311367.0 0
101262.0 312482.0 0
118044.0 308896.0 0
122206.0 310895.0 0
125707.0 312118.0 0
127597.0 308425.0 0
140009.0 309383.0 0
145853.0 309400.0 0
150246.0 312816.0 0
157949.0 311569.0 0
162385.0 312349.0 0
169946.0 310138.0 0
175196.0 308474.0 0
178322.0 311987.0 0
182125.0 310035.0 0
204254.0 308170.0 0
208501.0 310930.0 0
213010.0 308616.0 0
221539.0 311580.0 0
226391.0 310950.0 0
231041.0 312558.0 0
242602.0 311745.0 0
247183.0 309213.0 0
251023.0 312337.0 0
255661.0 311060.0 0
261566.0 311186.0 0
265984.0 309646.0 0
276290.0 312429.0 0
281548.0 310026.0 0
286607.0 310985.0 0
296228.0 310051.0 0
301902.0 309057.0 0
305262.0 312823.0 0
308861.0 310049.0 0
312811.0 309427.0 0
329672.0 311743.0 0
335177.0 308653.0 0
341691.0 308317.0 0
350533.0 311070.0 0
355714.0 312564.0 0
368277.0 310717.0 0
376826.0 312676.0 0
380959.0 308222.0 0
388242.0 310202.0 0
397327.0 312506.0 0
402468.0 309047.0 0
406830.0 311660.0 0
411664.0 310153.0 0
417627.0 311968.0 0
440796.0 310658.0 0
462565.0 307818.0 0
468005.0 309476.0 0
472750.0 310510.0 0
488293.0 308316.0 0
494690.0 309760.0 0
498185.0 312853.0 0
9024.03 316509.0 0
11918.4 313105.0 0
22141.1 316757.0 0
27556.0 317781.0 0
31750.6 314666.0 0
36111.9 313915.0 0
40529.6 313545.0 0
42506.5 317187.0 0
47221.1 317901.0 0
55082.9 315659.0 0
71070.6 316008.0 0
75981.4 314561.0 0
87177.6 317504.0 0
101304.0 317705.0 0
115988.0 315724.0 0
121376.0 316531.0 0
127453.0 315564.0 0
132217.0 313159.0 0
137709.0 314639.0 0
134374.0 317516.0 0
136926.0 317812.0 0
142940.0 317272.0 0
159503.0 316929.0 0
166757.0 314926.0 0
170964.0 316733.0 0
173828.0 313294.0 0
178097.0 316250.0 0
182577.0 314813.0 0
188424.0 316743.0 0
198209.0 316413.0 0
203608.0 313753.0 0
208341.0 315982.0 0
212188.0 313511.0 0
217004.0 314177.0 0
221904.0 316828.0 0
227478.0 316690.0 0
232922.0 317576.0 0
236957.0 313130.0 0
244015.0 317184.0 0
247341.0 313666.0 0
249420.0 317038.0 0
253932.0 317271.0 0
259251.0 315716.0 0
265047.0 314443.0 0
270021.0 313479.0 0
267994.0 317872.0 0
272674.0 317946.0 0
282362.0 314956.0 0
287552.0 317140.0 0
291659.0 313526.0 0
296081.0 315690.0 0
310186.0 316431.0 0
315851.0 313253.0 0
321608.0 313020.0 0
326129.0 316219.0 0
332766.0 316136.0 0
345721.0 313477.0 0
359390.0 316233.0 0
365233.0 315276.0 0
371514.0 315185.0 0
382983.0 315515.0 0
392773.0 314669.0 0
402414.0 313806.0 0
405524.0 316769.0 0
418256.0 317133.0 0
423877.0 317185.0 0
430432.0 314717.0 0
435876.0 313052.0 0
443743.0 314947.0 0
448497.0 313016.0 0
448865.0 317891.0 0
457751.0 316457.0 0
463509.0 316568.0 0
472922.0 314834.0 0
469551.0 317952.0 0
477904.0 314955.0 0
490331.0 312900.0 0
492549.0 316756.0 0
497345.0 317750.0 0
12432.9 322144.0 0
18261.9 322106.0 0
35807.4 321280.0 0
40409.5 321988.0 0
57767.4 319398.0 0
62118.7 320904.0 0
66580.1 319047.0 0
78232.9 319934.0 0
83627.7 322200.0 0
88025.0 323012.0 0
92596.4 319952.0 0
105416.0 318112.0 0
110427.0 319994.0 0
115498.0 321825.0 0
119859.0 320186.0 0
125026.0 318964.0 0
124322.0 322994.0 0
145130.0 321277.0 0
149278.0 319403.0 0
152637.0 322642.0 0
154955.0 318205.0 0
157044.0 322752.0 0
162950.0 319244.0 0
175791.0 320999.0 0
179935.0 319651.0 0
193807.0 319567.0 0
202903.0 319357.0 0
208399.0 321444.0 0
213343.0 318170.0 0
218063.0 320667.0 0
223595.0 321768.0 0
229053.0 321673.0 0
233894.0 322732.0 0
238299.0 319354.0 0
242519.0 322890.0 0
247737.0 321795.0 0
252007.0 320653.0 0
255722.0 322582.0 0
263817.0 318464.0 0
260654.0 321680.0 0
265219.0 322460.0 0
269720.0 322014.0 0
278016.0 318755.0 0
283176.0 320299.0 0
288126.0 322958.0 0
292490.0 318964.0 0
296844.0 319698.0 0
305801.0 320308.0 0
301386.0 320853.0 0
309206.0 321429.0 0
315912.0 319121.0 0
329885.0 318163.0 0
332502.0 321061.0 0
337497.0 320954.0 0
344487.0 321870.0 0
350089.0 321409.0 0
354804.0 319946.0 0
359342.0 321762.0 0
363529.0 319886.0 0
368250.0 320340.0 0
375763.0 318578.0 0
379842.0 321147.0 0
383935.0 321216.0 0
388117.0 319050.0 0
420703.0 320859.0 0
428710.0 320695.0 0
453540.0 319212.0 0
473869.0 318950.0 0
480010.0 320429.0 0
485101.0 319032.0 0
2385.26 327198.0 0
19755.7 326630.0 0
23726.9 327857.0 0
31572.7 324280.0 0
37894.0 328137.0 0
42563.5 325907.0 0
59411.4 327264.0 0
73236.5 326020.0 0
78992.8 327849.0 0
84814.0 328065.0 0
98112.3 323653.0 0
103476.0 327080.0 0
119756.0 324075.0 0
127047.0 327297.0 0
137186.0 325071.0 0
133529.0 327779.0 0
141682.0 327824.0 0
178009.0 328067.0 0
182816.0 327741.0 0
188845.0 327668.0 0
203858.0 324448.0 0
208083.0 326934.0 0
213653.0 323742.0 0
217769.0 327465.0 0
220701.0 324075.0 0
223048.0 327356.0 0
226296.0 324755.0 0
230330.0 326590.0 0
238195.0 324373.0 0
235422.0 327662.0 0
240577.0 327829.0 0
245803.0 327349.0 0
251491.0 325801.0 0
256391.0 327639.0 0
262262.0 326511.0 0
267757.0 326817.0 0
274709.0 323447.0 0
278143.0 328131.0 0
281330.0 324639.0 0
284661.0 327645.0 0
293561.0 323758.0 0
297752.0 323346.0 0
320548.0 323211.0 0
327915.0 325719.0 0
332244.0 324995.0 0
349617.0 328128.0 0
373783.0 326316.0 0
391305.0 326658.0 0
396224.0 323218.0 0
401114.0 325175.0 0
405441.0 327292.0 0
415232.0 327695.0 0
443848.0 323383.0 0
441300.0 327648.0 0
447423.0 327235.0 0
460614.0 324395.0 0
468386.0 326149.0 0
475351.0 324153.0 0
482264.0 326943.0 0
486287.0 324581.0 0
491602.0 326170.0 0
6006.39 330893.0 0
11457.4 328282.0 0
17628.4 332326.0 0
28043.2 328613.0 0
31549.5 331585.0 0
44669.6 330559.0 0
48901.4 328736.0 0
53337.5 330829.0 0
57735.5 330737.0 0
81396.5 332167.0 0
108327.0 328509.0 0
131487.0 331829.0 0
147366.0 329730.0 0
157006.0 332087.0 0
162148.0 331785.0 0
166764.0 330744.0 0
172721.0 330906.0 0
195076.0 329931.0 0
203983.0 329997.0 0
209006.0 332176.0 0
212477.0 328499.0 0
215415.0 333120.0 0
220824.0 331734.0 0
226901.0 330885.0 0
232156.0 331412.0 0
237585.0 332406.0 0
242709.0 331553.0 0
251770.0 330379.0 0
259936.0 330667.0 0
255608.0 332822.0 0
264648.0 331358.0 0
269295.0 331441.0 0
272917.0 328602.0 0
282063.0 332963.0 0
290873.0 328356.0 0
296500.0 328174.0 0
307859.0 332419.0 0
320417.0 328803.0 0
318165.0 333060.0 0
324961.0 328728.0 0
339112.0 330919.0 0
344315.0 333061.0 0
356286.0 329047.0 0
361855.0 331860.0 0
366109.0 329296.0 0
370489.0 329590.0 0
373349.0 332592.0 0
382120.0 332658.0 0
377846.0 333195.0 0
386421.0 332886.0 0
410203.0 329213.0 0
420447.0 328346.0 0
424465.0 331191.0 0
429055.0 330742.0 0
436061.0 329156.0 0
452098.0 329014.0 0
463371.0 328716.0 0
472620.0 329046.0 0
478625.0 329313.0 0
475464.0 332332.0 0
488314.0 328453.0 0
497634.0 329987.0 0
10345.6 333707.0 0
14356.5 334642.0 0
21198.9 334511.0 0
23712.7 337860.0 0
73587.4 337282.0 0
88732.2 333404.0 0
94616.0 334108.0 0
99836.4 337143.0 0
115852.0 334613.0 0
124424.0 335935.0 0
129417.0 336247.0 0
137331.0 337827.0 0
151889.0 333493.0 0
178121.0 338100.0 0
182877.0 336647.0 0
190151.0 336865.0 0
198863.0 338296.0 0
204550.0 335770.0 0
209831.0 337145.0 0
223907.0 334795.0 0
219386.0 337026.0 0
228565.0 336681.0 0
233645.0 335790.0 0
237519.0 338304.0 0
241577.0 335826.0 0
247673.0 333265.0 0
249641.0 338035.0 0
254557.0 338282.0 0
260840.0 336399.0 0
267629.0 336280.0 0
275642.0 333384.0 0
278609.0 338272.0 0
282921.0 337932.0 0
288353.0 333507.0 0
286565.0 338090.0 0
294142.0 333435.0 0
290992.0 337942.0 0
304833.0 336847.0 0
313339.0 333979.0 0
333604.0 334497.0 0
345237.0 337579.0 0
348224.0 335028.0 0
375332.0 335960.0 0
396070.0 337845.0 0
405148.0 337865.0 0
412280.0 335700.0 0
416387.0 337355.0 0
425501.0 335135.0 0
431748.0 338151.0 0
434661.0 334157.0 0
439140.0 335960.0 0
444448.0 333667.0 0
452878.0 337574.0 0
456662.0 334116.0 0
461427.0 335564.0 0
465643.0 337616.0 0
478873.0 334997.0 0
484076.0 333400.0 0
2520.43 339387.0 0
27712.7 338773.0 0
35470.8 341465.0 0
31330.3 341878.0 0
38957.8 339844.0 0
64003.3 339973.0 0
69034.9 339885.0 0
78890.1 339109.0 0
83595.1 341560.0 0
106851.0 340258.0 0
102136.0 341872.0 0
111993.0 339724.0 0
115838.0 340374.0 0
122579.0 342009.0 0
132091.0 339660.0 0
141484.0 339463.0 0
173534.0 339485.0 0
187621.0 342301.0 0
194183.0 340103.0 0
206171.0 340253.0 0
204361.0 343349.0 0
210213.0 341748.0 0
214289.0 338844.0 0
219003.0 341908.0 0
223639.0 339354.0 0
227928.0 342318.0 0
232412.0 340271.0 0
236329.0 343360.0 0
241313.0 341601.0 0
245273.0 338670.0 0
251084.0 342134.0 0
262864.0 343103.0 0
268059.0 341489.0 0
273071.0 338403.0 0
276999.0 343196.0 0
282233.0 342698.0 0
286566.0 341767.0 0
295770.0 338749.0 0
292295.0 342498.0 0
296342.0 342252.0 0
320801.0 340306.0 0
326082.0 339292.0 0
339966.0 340299.0 0
344226.0 341524.0 0
348323.0 339359.0 0
353398.0 340531.0 0
377578.0 342064.0 0
387759.0 339589.0 0
391971.0 340787.0 0
417562.0 341747.0 0
422843.0 340019.0 0
429251.0 342794.0 0
448734.0 341248.0 0
444373.0 342821.0 0
457920.0 339071.0 0
483950.0 343468.0 0
488519.0 341337.0 0
493893.0 340024.0 0
23860.2 348525.0 0
58276.5 344609.0 0
62760.5 344760.0 0
79117.6 343928.0 0
85357.4 346230.0 0
89677.3 347399.0 0
114635.0 347595.0 0
118035.0 343890.0 0
119205.0 348050.0 0
148593.0 347169.0 0
154063.0 348245.0 0
177642.0 347729.0 0
182265.0 345917.0 0
186511.0 346002.0 0
204017.0 347806.0 0
209797.0 347199.0 0
214474.0 343658.0 0
219177.0 346597.0 0
215110.0 348053.0 0
223352.0 344123.0 0
226795.0 347095.0 0
232152.0 347471.0 0
237501.0 347648.0 0
241638.0 346678.0 0
246225.0 343861.0 0
251269.0 346693.0 0
256308.0 344260.0 0
261119.0 348121.0 0
267897.0 346966.0 0
272169.0 343521.0 0
273125.0 347950.0 0
279237.0 347501.0 0
284069.0 347645.0 0
288262.0 345354.0 0
292266.0 347971.0 0
296132.0 345478.0 0
334097.0 344544.0 0
338749.0 343506.0 0
362728.0 348034.0 0
367860.0 346441.0 0
374256.0 346777.0 0
383309.0 344199.0 0
388742.0 346657.0 0
440415.0 343744.0 0
449043.0 346299.0 0
472532.0 346427.0 0
476982.0 345876.0 0
18980.9 352440.0 0
24601.3 353651.0 0
46285.1 352960.0 0
57656.8 351292.0 0
160451.0 348959.0 0
164978.0 352688.0 0
172783.0 349495.0 0
175845.0 351368.0 0
203274.0 353576.0 0
207137.0 351983.0 0
212561.0 352148.0 0
216922.0 351582.0 0
222795.0 348580.0 0
221045.0 352791.0 0
226484.0 352264.0 0
231418.0 352556.0 0
236724.0 352605.0 0
242999.0 352042.0 0
247329.0 348817.0 0
247804.0 352981.0 0
251624.0 351242.0 0
257640.0 349015.0 0
256141.0 352817.0 0
260908.0 352411.0 0
265909.0 352327.0 0
270777.0 351546.0 0
276134.0 351753.0 0
281418.0 351990.0 0
287822.0 349658.0 0
285807.0 353046.0 0
295721.0 350952.0 0
291060.0 352893.0 0
300730.0 352800.0 0
343860.0 348852.0 0
347413.0 351338.0 0
351113.0 352360.0 0
354633.0 348865.0 0
359569.0 352038.0 0
378320.0 350553.0 0
441465.0 349936.0 0
447200.0 350330.0 0
487877.0 349032.0 0
496741.0 351545.0 0
3000.82 358091.0 0
29372.6 354826.0 0
34198.8 356786.0 0
41944.7 355004.0 0
44756.1 358460.0 0
49720.9 357287.0 0
59419.7 355193.0 0
78998.1 357987.0 0
125705.0 355897.0 0
131308.0 354551.0 0
136308.0 354419.0 0
169679.0 353892.0 0
203607.0 357156.0 0
209623.0 357838.0 0
216041.0 355321.0 0
219956.0 357721.0 0
225142.0 357822.0 0
230494.0 357195.0 0
235410.0 358010.0 0
240015.0 357267.0 0
245804.0 357906.0 0
252780.0 357832.0 0
259149.0 357245.0 0
263542.0 356191.0 0
269624.0 356667.0 0
273806.0 355235.0 0
277542.0 357156.0 0
282425.0 356472.0 0
286249.0 356776.0 0
290617.0 358378.0 0
295557.0 355866.0 0
303320.0 358188.0 0
354750.0 355651.0 0
374379.0 356593.0 0
378180.0 354935.0 0
382647.0 357480.0 0
388980.0 356240.0 0
435600.0 358675.0 0
441425.0 356344.0 0
463934.0 357434.0 0
5576.43 362492.0 0
38189.5 359838.0 0
40981.1 362583.0 0
78850.0 361440.0 0
104572.0 363037.0 0
109302.0 359210.0 0
110521.0 363968.0 0
199024.0 359688.0 0
204523.0 361978.0 0
213867.0 362220.0 0
215014.0 358944.0 0
217606.0 361602.0 0
222177.0 362391.0 0
227339.0 362593.0 0
232827.0 362527.0 0
238454.0 362126.0 0
242882.0 362150.0 0
247475.0 363649.0 0
251321.0 362598.0 0
255278.0 363492.0 0
264985.0 360290.0 0
260302.0 362461.0 0
270312.0 362922.0 0
275508.0 361438.0 0
280906.0 362219.0 0
286394.0 361266.0 0
295359.0 361668.0 0
318205.0 359214.0 0
321222.0 361484.0 0
324319.0 360408.0 0
344872.0 358980.0 0
399809.0 360774.0 0
406576.0 363058.0 0
412274.0 362737.0 0
420030.0 362691.0 0
425901.0 361237.0 0
430527.0 359323.0 0
30674.9 365734.0 0
114684.0 365433.0 0
118919.0 367923.0 0
194112.0 366528.0 0
199285.0 365408.0 0
203769.0 366867.0 0
209724.0 365146.0 0
215567.0 366407.0 0
219950.0 367125.0 0
222854.0 366189.0 0
226719.0 368251.0 0
231992.0 367572.0 0
236810.0 367173.0 0
241931.0 366359.0 0
246402.0 368435.0 0
252146.0 366795.0 0
255160.0 368223.0 0
259970.0 367685.0 0
265614.0 367008.0 0
275354.0 366070.0 0
270874.0 368872.0 0
280244.0 368087.0 0
285529.0 366358.0 0
290390.0 363943.0 0
294629.0 367818.0 0
306624.0 364470.0 0
349594.0 365829.0 0
355596.0 368629.0 0
389404.0 366431.0 0
394819.0 364264.0 0
466754.0 363891.0 0
470906.0 365248.0 0
1551.73 375148.0 0
4424.6 375187.0 0
8368.82 375097.0 0
13265.2 369208.0 0
18870.7 375477.0 0
22973.3 375184.0 0
26941.7 375330.0 0
30519.2 375766.0 0
34026.5 375146.0 0
36576.7 376108.0 0
40229.4 375669.0 0
44492.4 375382.0 0
47636.1 375351.0 0
51265.2 376006.0 0
55268.0 375266.0 0
59224.8 375075.0 0
62894.9 375446.0 0
65938.0 375318.0 0
69700.5 375097.0 0
67029.0 377451.0 0
74909.9 375039.0 0
78972.0 375493.0 0
82353.3 375106.0 0
87005.3 375504.0 0
91135.0 375081.0 0
95971.9 375038.0 0
100599.0 375263.0 0
104155.0 375839.0 0
110982.0 375668.0 0
107548.0 375547.0 0
114600.0 375651.0 0
118125.0 375523.0 0
123166.0 370179.0 0
126386.0 375464.0 0
130925.0 375470.0 0
135292.0 375634.0 0
139266.0 375089.0 0
143904.0 375171.0 0
148329.0 375170.0 0
152038.0 375410.0 0
155215.0 375439.0 0
159434.0 375145.0 0
164396.0 375191.0 0
168191.0 375169.0 0
171641.0 375423.0 0
175012.0 375473.0 0
179259.0 375252.0 0
182865.0 375126.0 0
187148.0 375050.0 0
190056.0 369598.0 0
192623.0 375176.0 0
199298.0 375786.0 0
196600.0 375282.0 0
203383.0 373081.0 0
207032.0 370745.0 0
213627.0 371707.0 0
218154.0 371708.0 0
222500.0 371571.0 0
228119.0 373510.0 0
233097.0 372153.0 0
237971.0 371973.0 0
242687.0 370920.0 0
247742.0 372631.0 0
251709.0 370930.0 0
255841.0 372399.0 0
260270.0 372738.0 0
265036.0 372391.0 0
275865.0 372221.0 0
284109.0 372205.0 0
289387.0 370062.0 0
300535.0 376159.0 0
303577.0 375217.0 0
310535.0 375553.0 0
306954.0 375567.0 0
314954.0 375302.0 0
319401.0 375289.0 0
323633.0 375235.0 0
327886.0 375214.0 0
332575.0 375311.0 0
337300.0 370220.0 0
341628.0 375076.0 0
346209.0 375935.0 0
351891.0 371242.0 0
354742.0 375677.0 0
358938.0 375095.0 0
363480.0 375117.0 0
368557.0 375167.0 0
373168.0 375248.0 0
375810.0 375716.0 0
378402.0 375065.0 0
382432.0 375135.0 0
386862.0 375201.0 0
390929.0 375196.0 0
395106.0 376086.0 0
398648.0 375219.0 0
401808.0 375377.0 0
405642.0 375475.0 0
409827.0 375150.0 0
417609.0 368815.0 0
414273.0 375153.0 0
423377.0 375132.0 0
419079.0 375274.0 0
427786.0 375450.0 0
431256.0 370143.0 0
436160.0 375247.0 0
432209.0 375412.0 0
440636.0 375394.0 0
444307.0 375649.0 0
447674.0 375166.0 0
452647.0 375378.0 0
457791.0 375165.0 0
462705.0 375862.0 0
466896.0 375237.0 0
471284.0 376138.0 0
475096.0 375305.0 0
480091.0 375138.0 0
484484.0 375844.0 0
488054.0 375235.0 0
492828.0 375159.0 0
497815.0 375447.0 0
1552.64 377815.0 0
4165.11 381179.0 0
1307.47 380776.0 0
5119.04 378077.0 0
8369.59 379577.0 0
11495.2 376640.0 0
12753.3 379572.0 0
10520.4 382110.0 0
14940.3 375397.0 0
16481.4 379442.0 0
20991.0 379221.0 0
25320.7 378272.0 0
25861.9 381132.0 0
28883.0 378761.0 0
28293.6 382525.0 0
33177.2 378281.0 0
31653.2 381312.0 0
36684.9 379380.0 0
40078.7 380512.0 0
43726.2 378572.0 0
43350.4 381880.0 0
47361.9 378283.0 0
50702.0 379857.0 0
47168.3 381765.0 0
54681.5 379235.0 0
58902.5 378405.0 0
58484.0 382415.0 0
63584.7 379912.0 0
68717.7 379986.0 0
70707.4 377840.0 0
71563.0 381885.0 0
73372.9 378872.0 0
76193.9 380467.0 0
77681.1 377983.0 0
80911.3 378716.0 0
85033.8 378921.0 0
83724.0 382268.0 0
89485.1 379629.0 0
93397.4 377730.0 0
94702.0 381568.0 0
98222.3 378602.0 0
101911.0 379240.0 0
99102.1 382351.0 0
105659.0 379178.0 0
109766.0 379180.0 0
113590.0 379458.0 0
117693.0 379450.0 0
121795.0 376224.0 0
120917.0 381369.0 0
125224.0 380165.0 0
129454.0 379071.0 0
132484.0 378762.0 0
132413.0 381864.0 0
129275.0 382298.0 0
134733.0 379114.0 0
136540.0 382072.0 0
141429.0 377814.0 0
137769.0 378448.0 0
140402.0 381313.0 0
144134.0 379593.0 0
146819.0 378125.0 0
147830.0 381646.0 0
151581.0 379200.0 0
155700.0 378154.0 0
155495.0 381838.0 0
162566.0 378331.0 0
158896.0 379783.0 0
161736.0 381738.0 0
166465.0 378256.0 0
164852.0 381280.0 0
168647.0 381315.0 0
169852.0 378020.0 0
173352.0 379523.0 0
177108.0 377423.0 0
177648.0 379700.0 0
180240.0 381916.0 0
180817.0 378419.0 0
183019.0 381463.0 0
184509.0 377845.0 0
186812.0 380653.0 0
189607.0 377538.0 0
191172.0 381257.0 0
193446.0 378452.0 0
196095.0 377462.0 0
195726.0 380558.0 0
199056.0 378976.0 0
199414.0 382148.0 0
204452.0 376719.0 0
208612.0 379196.0 0
209710.0 374913.0 0
213384.0 377400.0 0
218301.0 376369.0 0
222721.0 376483.0 0
226676.0 378038.0 0
231455.0 376825.0 0
236418.0 376757.0 0
241629.0 375565.0 0
247097.0 377744.0 0
253250.0 376950.0 0
258473.0 377020.0 0
262429.0 376362.0 0
269985.0 374230.0 0
266446.0 378257.0 0
273808.0 377590.0 0
280214.0 375029.0 0
278150.0 378521.0 0
282064.0 378065.0 0
288804.0 375597.0 0
294855.0 374451.0 0
301079.0 379699.0 0
305378.0 381487.0 0
304143.0 377992.0 0
309579.0 379859.0 0
306977.0 378036.0 0
313115.0 378509.0 0
317490.0 379315.0 0
321386.0 381822.0 0
322295.0 378482.0 0
325738.0 377950.0 0
327327.0 380010.0 0
324692.0 380949.0 0
330472.0 378148.0 0
335731.0 376350.0 0
333598.0 380333.0 0
337040.0 379812.0 0
338851.0 376776.0 0
340181.0 380483.0 0
342476.0 378209.0 0
345502.0 380958.0 0
350421.0 376743.0 0
353710.0 380947.0 0
361452.0 378156.0 0
357689.0 378843.0 0
366317.0 379182.0 0
371853.0 378301.0 0
369986.0 381585.0 0
375768.0 378550.0 0
373866.0 382078.0 0
379782.0 378034.0 0
382382.0 381260.0 0
384820.0 377968.0 0
386371.0 381026.0 0
389713.0 378643.0 0
397919.0 381772.0 0
394197.0 380932.0 0
399390.0 378510.0 0
402140.0 382224.0 0
407788.0 378110.0 0
403675.0 378433.0 0
405827.0 380833.0 0
411799.0 377772.0 0
410002.0 381589.0 0
416453.0 377753.0 0
414053.0 380278.0 0
420250.0 379023.0 0
427035.0 379521.0 0
423959.0 378576.0 0
430396.0 378039.0 0
432385.0 379176.0 0
433129.0 380837.0 0
430083.0 381908.0 0
434852.0 378423.0 0
438126.0 378258.0 0
439965.0 380978.0 0
442169.0 378685.0 0
445652.0 379097.0 0
449903.0 378164.0 0
453022.0 380155.0 0
455646.0 378546.0 0
457137.0 382097.0 0
459757.0 379115.0 0
464083.0 379745.0 0
461234.0 382153.0 0
468151.0 379023.0 0
471541.0 381391.0 0
473950.0 378806.0 0
477513.0 378389.0 0
475949.0 382419.0 0
482194.0 378638.0 0
479801.0 380942.0 0
484466.0 382375.0 0
486222.0 378756.0 0
488794.0 382456.0 0
489947.0 378698.0 0
494614.0 379041.0 0
492795.0 382529.0 0
498614.0 379063.0 0
497837.0 382573.0 0
1424.76 383464.0 0
2021.66 386530.0 0
6132.76 383951.0 0
10466.7 385522.0 0
14358.6 383253.0 0
18549.2 384005.0 0
23140.3 383258.0 0
22892.9 387090.0 0
26542.6 385252.0 0
30738.3 385980.0 0
35329.4 383343.0 0
34530.8 387672.0 0
38886.2 383064.0 0
38269.1 386831.0 0
44749.7 384345.0 0
41266.9 384375.0 0
41054.6 387462.0 0
50513.3 382878.0 0
48282.4 385679.0 0
53893.6 382784.0 0
51934.1 385401.0 0
55019.6 387400.0 0
56237.0 384651.0 0
59180.6 386416.0 0
62800.7 384516.0 0
67231.5 383252.0 0
70522.6 385600.0 0
66314.4 387075.0 0
75019.7 384283.0 0
79785.8 382689.0 0
79008.9 386979.0 0
83566.6 386088.0 0
86988.1 382898.0 0
91037.9 383953.0 0
87550.5 386211.0 0
95700.1 385706.0 0
100144.0 385899.0 0
102902.0 382689.0 0
104741.0 386170.0 0
107487.0 383012.0 0
111860.0 383125.0 0
109420.0 386581.0 0
115653.0 382825.0 0
114333.0 387186.0 0
118818.0 384797.0 0
126573.0 385050.0 0
122802.0 384018.0 0
122608.0 387144.0 0
130591.0 384565.0 0
134302.0 386036.0 0
139806.0 386060.0 0
144036.0 383000.0 0
144737.0 386705.0 0
151666.0 383726.0 0
148168.0 385362.0 0
155933.0 386189.0 0
159258.0 383245.0 0
162817.0 384241.0 0
160613.0 386527.0 0
166343.0 384774.0 0
171101.0 383982.0 0
172882.0 387278.0 0
175963.0 383913.0 0
180757.0 385798.0 0
184298.0 384049.0 0
187843.0 384694.0 0
193829.0 383377.0 0
191379.0 385237.0 0
196905.0 383404.0 0
194602.0 387144.0 0
199275.0 386375.0 0
204670.0 382372.0 0
213540.0 382616.0 0
218174.0 381126.0 0
222189.0 381206.0 0
225773.0 382595.0 0
230753.0 382308.0 0
236531.0 381975.0 0
242389.0 381903.0 0
247909.0 383309.0 0
252051.0 381814.0 0
256538.0 381613.0 0
261408.0 381272.0 0
266196.0 384091.0 0
271348.0 381619.0 0
276514.0 383577.0 0
282114.0 382633.0 0
285733.0 379513.0 0
289858.0 380270.0 0
294906.0 381203.0 0
300871.0 384005.0 0
304619.0 385106.0 0
305879.0 387535.0 0
309376.0 384583.0 0
313541.0 382519.0 0
313661.0 385769.0 0
318089.0 384692.0 0
326292.0 382709.0 0
323705.0 383974.0 0
329593.0 382550.0 0
332349.0 384593.0 0
327461.0 387007.0 0
336505.0 384147.0 0
341515.0 384036.0 0
339334.0 386440.0 0
344844.0 385928.0 0
349547.0 381662.0 0
348406.0 385192.0 0
351805.0 385109.0 0
355295.0 385283.0 0
357938.0 382620.0 0
359097.0 386480.0 0
362007.0 382352.0 0
363274.0 386576.0 0
366724.0 384117.0 0
369210.0 386973.0 0
371446.0 385022.0 0
377835.0 382389.0 0
380725.0 385396.0 0
384920.0 384452.0 0
389591.0 383512.0 0
393703.0 386476.0 0
398514.0 385384.0 0
402521.0 386201.0 0
406245.0 384996.0 0
410283.0 385546.0 0
417978.0 382507.0 0
413909.0 384218.0 0
416946.0 386896.0 0
423006.0 382394.0 0
420906.0 385567.0 0
426459.0 383263.0 0
424814.0 387015.0 0
433256.0 384209.0 0
429269.0 386324.0 0
436449.0 381829.0 0
437283.0 385856.0 0
440073.0 384307.0 0
443717.0 383133.0 0
446463.0 386973.0 0
448929.0 382713.0 0
453509.0 383425.0 0
451481.0 386655.0 0
456311.0 386767.0 0
463790.0 383589.0 0
460095.0 384723.0 0
462778.0 386334.0 0
467071.0 382780.0 0
466755.0 386636.0 0
470018.0 384670.0 0
473342.0 385831.0 0
477511.0 385721.0 0
480437.0 384360.0 0
484035.0 386300.0 0
488594.0 386702.0 0
493974.0 386354.0 0
498347.0 386374.0 0
1912.26 390422.0 0
6286.44 388692.0 0
8916.45 391725.0 0
14590.1 387469.0 0
10356.9 389027.0 0
12246.3 391583.0 0
19173.3 388038.0 0
16727.0 391975.0 0
22493.2 391542.0 0
26848.6 389087.0 0
31698.2 391219.0 0
36916.6 390901.0 0
40741.6 390255.0 0
43946.6 387779.0 0
44170.9 392291.0 0
47473.0 389822.0 0
51203.9 388880.0 0
54182.8 391265.0 0
58447.4 390399.0 0
62655.7 388995.0 0
69775.4 388945.0 0
66442.0 391720.0 0
71343.3 392066.0 0
74311.2 388687.0 0
78407.8 390412.0 0
82240.3 389763.0 0
86381.3 389315.0 0
84802.3 392435.0 0
91285.4 388672.0 0
88465.2 392548.0 0
96859.8 389891.0 0
101789.0 389761.0 0
106820.0 389887.0 0
110941.0 390050.0 0
116391.0 390972.0 0
113273.0 392219.0 0
119167.0 388972.0 0
119491.0 392167.0 0
126121.0 389800.0 0
122598.0 391363.0 0
129993.0 387964.0 0
129757.0 392177.0 0
137039.0 389913.0 0
133160.0 390114.0 0
142741.0 390504.0 0
147850.0 389131.0 0
151494.0 387672.0 0
151373.0 391297.0 0
154456.0 389934.0 0
159125.0 390390.0 0
162769.0 391804.0 0
163895.0 388331.0 0
166677.0 391381.0 0
168883.0 387723.0 0
172041.0 391338.0 0
176321.0 388531.0 0
176472.0 392065.0 0
180289.0 390195.0 0
185038.0 388469.0 0
188009.0 391953.0 0
189703.0 388171.0 0
192694.0 390888.0 0
198082.0 391297.0 0
208965.0 384748.0 0
287309.0 384511.0 0
292154.0 385618.0 0
296217.0 386859.0 0
301788.0 388324.0 0
305749.0 390917.0 0
301309.0 392269.0 0
308601.0 388646.0 0
310137.0 391357.0 0
315388.0 388017.0 0
311999.0 388206.0 0
314620.0 391861.0 0
318901.0 389807.0 0
322197.0 387204.0 0
323775.0 391569.0 0
332708.0 388498.0 0
336920.0 389329.0 0
341362.0 389003.0 0
345164.0 389762.0 0
347335.0 388267.0 0
350369.0 388668.0 0
353847.0 387910.0 0
356811.0 389831.0 0
361789.0 391137.0 0
366209.0 388753.0 0
366276.0 392257.0 0
370902.0 390675.0 0
375656.0 387385.0 0
375016.0 392067.0 0
380266.0 389530.0 0
378031.0 392202.0 0
383515.0 387935.0 0
387776.0 388286.0 0
383832.0 391249.0 0
391429.0 391656.0 0
397702.0 389013.0 0
395573.0 390554.0 0
401113.0 389242.0 0
398915.0 392634.0 0
404856.0 389095.0 0
407028.0 391592.0 0
408696.0 388914.0 0
412961.0 388393.0 0
416180.0 391658.0 0
420180.0 389415.0 0
427633.0 390249.0 0
423907.0 391462.0 0
430615.0 390007.0 0
433676.0 388088.0 0
437675.0 389986.0 0
433809.0 392288.0 0
441968.0 387998.0 0
441125.0 392142.0 0
445633.0 392023.0 0
449418.0 389956.0 0
453501.0 390503.0 0
457499.0 390949.0 0
460224.0 388228.0 0
460858.0 391388.0 0
464233.0 389694.0 0
468362.0 391094.0 0
470299.0 387880.0 0
472841.0 390099.0 0
476034.0 388321.0 0
477372.0 392203.0 0
480520.0 388377.0 0
481777.0 391914.0 0
484841.0 389481.0 0
488298.0 390600.0 0
492418.0 390379.0 0
497751.0 390227.0 0
1455.22 394030.0 0
5590.22 393360.0 0
9828.21 394584.0 0
7567.0 397183.0 0
13117.3 395175.0 0
19943.3 394653.0 0
22526.9 396699.0 0
26634.7 393832.0 0
31323.2 396658.0 0
40011.9 393978.0 0
35800.9 394753.0 0
37864.2 396432.0 0
44160.8 396070.0 0
49983.2 394260.0 0
53789.3 397822.0 0
56815.0 394517.0 0
61081.5 396833.0 0
61836.5 393139.0 0
65256.3 395779.0 0
69289.7 395413.0 0
75759.3 392744.0 0
73168.9 394832.0 0
76664.8 396569.0 0
80523.7 394138.0 0
85183.1 396649.0 0
89659.5 396030.0 0
93335.8 393275.0 0
96015.5 395823.0 0
99143.1 394205.0 0
104265.0 394274.0 0
109308.0 393536.0 0
116968.0 394419.0 0
112757.0 396710.0 0
121836.0 395766.0 0
126228.0 394020.0 0
129753.0 395806.0 0
134018.0 394218.0 0
138986.0 393437.0 0
147338.0 393030.0 0
143299.0 395926.0 0
147656.0 396588.0 0
151351.0 395017.0 0
155486.0 393221.0 0
155237.0 397183.0 0
160059.0 395084.0 0
164349.0 394621.0 0
168770.0 395275.0 0
174457.0 396315.0 0
178962.0 393758.0 0
183352.0 393319.0 0
179948.0 396750.0 0
187218.0 396128.0 0
183896.0 397353.0 0
191374.0 395043.0 0
194869.0 394251.0 0
196831.0 395874.0 0
199389.0 395373.0 0
304853.0 394548.0 0
301440.0 397028.0 0
308167.0 394063.0 0
311495.0 394998.0 0
315699.0 395948.0 0
319085.0 393675.0 0
322410.0 395517.0 0
326235.0 395809.0 0
329296.0 392357.0 0
331337.0 397310.0 0
334259.0 393066.0 0
336251.0 396834.0 0
338603.0 393171.0 0
340608.0 396652.0 0
342912.0 393119.0 0
345136.0 396663.0 0
347814.0 392524.0 0
350125.0 396727.0 0
353057.0 392471.0 0
354761.0 396988.0 0
357706.0 393708.0 0
361301.0 395235.0 0
359034.0 396946.0 0
364648.0 395451.0 0
368879.0 395167.0 0
373063.0 394981.0 0
376289.0 394681.0 0
380975.0 392887.0 0
379343.0 395502.0 0
386879.0 392714.0 0
383725.0 395713.0 0
388777.0 395627.0 0
393053.0 396049.0 0
395429.0 393467.0 0
397130.0 396165.0 0
400949.0 396112.0 0
403476.0 393145.0 0
407157.0 394978.0 0
411023.0 392966.0 0
414675.0 396329.0 0
420216.0 394676.0 0
426924.0 393548.0 0
424536.0 395484.0 0
428066.0 397112.0 0
429915.0 393356.0 0
432710.0 396353.0 0
437558.0 394717.0 0
442856.0 395826.0 0
439635.0 397453.0 0
447471.0 396503.0 0
450418.0 393710.0 0
452533.0 397624.0 0
455225.0 394215.0 0
459292.0 394544.0 0
461681.0 396890.0 0
464074.0 393897.0 0
467823.0 395081.0 0
472168.0 394212.0 0
476971.0 396873.0 0
481701.0 395840.0 0
485445.0 393172.0 0
486127.0 396788.0 0
490120.0 394546.0 0
493969.0 397774.0 0
498851.0 393631.0 0
495252.0 393803.0 0
498280.0 396770.0 0
2800.61 398189.0 0
7850.15 401279.0 0
11255.9 398438.0 0
16792.9 398535.0 0
21803.7 401093.0 0
26326.0 398651.0 0
30575.0 401982.0 0
35764.1 399428.0 0
40493.6 398290.0 0
44636.6 401395.0 0
46986.1 398082.0 0
50161.0 400790.0 0
55226.8 402240.0 0
57784.6 398664.0 0
60856.0 402087.0 0
64200.2 399398.0 0
68446.5 400003.0 0
72913.3 398006.0 0
76267.3 399731.0 0
73202.5 402174.0 0
80343.6 399180.0 0
77665.3 402743.0 0
84474.9 401444.0 0
88891.6 400275.0 0
93514.4 398684.0 0
97732.5 398323.0 0
101778.0 399213.0 0
97418.1 402228.0 0
105147.0 402032.0 0
107296.0 397826.0 0
110440.0 402179.0 0
114945.0 400650.0 0
117710.0 398337.0 0
121609.0 400852.0 0
117857.0 402007.0 0
126806.0 399057.0 0
132741.0 399361.0 0
137749.0 402188.0 0
138081.0 397850.0 0
142357.0 400725.0 0
146167.0 399469.0 0
150563.0 399640.0 0
154626.0 401013.0 0
159164.0 399815.0 0
164476.0 398934.0 0
169532.0 399866.0 0
173442.0 400921.0 0
177537.0 400300.0 0
182117.0 400412.0 0
186410.0 400141.0 0
190603.0 399134.0 0
194509.0 397658.0 0
198317.0 398905.0 0
194652.0 402253.0 0
199101.0 402529.0 0
302512.0 401426.0 0
307444.0 398689.0 0
312598.0 398347.0 0
316198.0 399846.0 0
311786.0 402294.0 0
319410.0 397650.0 0
320260.0 401349.0 0
323318.0 398766.0 0
327101.0 399245.0 0
329815.0 401886.0 0
334655.0 401538.0 0
338534.0 399897.0 0
342451.0 400376.0 0
347409.0 400835.0 0
352314.0 401126.0 0
357685.0 401163.0 0
361827.0 402165.0 0
362645.0 398886.0 0
366897.0 398844.0 0
371371.0 398570.0 0
369499.0 401651.0 0
376071.0 398472.0 0
380387.0 399204.0 0
383652.0 400201.0 0
386765.0 399019.0 0
390943.0 399983.0 0
395173.0 398658.0 0
395157.0 402155.0 0
399176.0 399835.0 0
402778.0 402629.0 0
404588.0 398468.0 0
410138.0 398726.0 0
414582.0 400896.0 0
418192.0 398870.0 0
423084.0 399300.0 0
427396.0 401295.0 0
431313.0 399900.0 0
436336.0 400009.0 0
441043.0 399448.0 0
444615.0 399975.0 0
449274.0 400889.0 0
457456.0 398596.0 0
454283.0 401993.0 0
461794.0 400595.0 0
465119.0 397816.0 0
466423.0 401841.0 0
469091.0 398475.0 0
472877.0 398651.0 0
475789.0 401322.0 0
484176.0 399723.0 0
479848.0 400722.0 0
489303.0 399084.0 0
486728.0 402981.0 0
490388.0 402343.0 0
493354.0 401563.0 0
497723.0 400501.0 0
2901.63 403902.0 0
8318.68 406331.0 0
12434.0 402834.0 0
17578.0 404114.0 0
22401.3 405902.0 0
25675.6 402956.0 0
27375.9 406491.0 0
31330.9 406532.0 0
35264.5 404415.0 0
39891.6 403151.0 0
43785.5 406934.0 0
47626.6 404840.0 0
51465.1 405453.0 0
55246.1 406282.0 0
58601.4 405424.0 0
65121.8 403339.0 0
63016.4 407496.0 0
69055.0 405612.0 0
74763.0 406431.0 0
81126.1 403129.0 0
79519.8 406250.0 0
83905.9 405780.0 0
88146.9 404530.0 0
91344.4 406745.0 0
92796.1 403222.0 0
96163.4 406715.0 0
101356.0 404849.0 0
106450.0 406028.0 0
111290.0 407451.0 0
115173.0 404545.0 0
119582.0 405079.0 0
124898.0 404992.0 0
129471.0 403042.0 0
129761.0 407779.0 0
133556.0 404197.0 0
142040.0 404869.0 0
138000.0 406521.0 0
146879.0 403485.0 0
145449.0 407607.0 0
151862.0 404416.0 0
156967.0 404415.0 0
162458.0 404064.0 0
166508.0 402797.0 0
166356.0 405855.0 0
170309.0 404691.0 0
175142.0 404192.0 0
177409.0 407151.0 0
179869.0 403884.0 0
184670.0 403895.0 0
189439.0 403520.0 0
198106.0 405976.0 0
301624.0 405917.0 0
307119.0 404525.0 0
316362.0 404261.0 0
312021.0 407598.0 0
321081.0 405747.0 0
324846.0 402811.0 0
324722.0 407135.0 0
328131.0 405855.0 0
332187.0 404647.0 0
335673.0 406364.0 0
339077.0 403813.0 0
344037.0 405130.0 0
349537.0 405651.0 0
354731.0 405627.0 0
360657.0 406554.0 0
365498.0 403160.0 0
370195.0 405756.0 0
373580.0 402548.0 0
375772.0 406500.0 0
377958.0 402680.0 0
381981.0 403127.0 0
379707.0 406222.0 0
386483.0 403369.0 0
383348.0 406930.0 0
391009.0 404459.0 0
394851.0 405709.0 0
398891.0 404995.0 0
407318.0 403351.0 0
403438.0 406784.0 0
407603.0 406656.0 0
411707.0 402913.0 0
411141.0 406957.0 0
414548.0 404257.0 0
418719.0 403247.0 0
420837.0 406955.0 0
423957.0 404185.0 0
430284.0 402662.0 0
428715.0 405658.0 0
433044.0 403396.0 0
433010.0 407364.0 0
436824.0 404913.0 0
440999.0 402982.0 0
443502.0 407368.0 0
440322.0 406852.0 0
445674.0 404355.0 0
451039.0 405819.0 0
458336.0 403100.0 0
455605.0 405418.0 0
462838.0 404767.0 0
459222.0 407128.0 0
467298.0 406373.0 0
471631.0 403314.0 0
471863.0 407918.0 0
477303.0 405485.0 0
482306.0 404109.0 0
485329.0 406686.0 0
491135.0 407033.0 0
495454.0 404097.0 0
498587.0 404035.0 0
497437.0 407983.0 0
3419.72 409481.0 0
8719.05 410958.0 0
13472.7 408142.0 0
18485.4 408011.0 0
17672.4 412130.0 0
21252.3 409609.0 0
25066.3 409884.0 0
22167.0 412922.0 0
30159.0 411089.0 0
34374.8 408694.0 0
38853.5 408247.0 0
35947.3 412953.0 0
44682.3 411216.0 0
41060.6 412405.0 0
48508.5 409249.0 0
47486.9 413121.0 0
53234.5 409530.0 0
57864.9 408983.0 0
60276.7 411633.0 0
56144.1 412983.0 0
63912.4 413144.0 0
67215.2 410173.0 0
71468.8 410081.0 0
74646.2 409965.0 0
78079.2 410102.0 0
82371.9 409931.0 0
87439.8 409294.0 0
92437.1 410238.0 0
99989.2 408754.0 0
97117.4 411281.0 0
101337.0 412678.0 0
103776.0 409136.0 0
107736.0 409662.0 0
111354.0 412516.0 0
116479.0 409080.0 0
121410.0 408693.0 0
121291.0 412592.0 0
125340.0 410467.0 0
134412.0 408015.0 0
133353.0 410996.0 0
137337.0 410698.0 0
141512.0 409406.0 0
146987.0 411671.0 0
143505.0 412074.0 0
149787.0 408107.0 0
151667.0 412175.0 0
154537.0 408634.0 0
155894.0 412516.0 0
159201.0 408072.0 0
160138.0 411985.0 0
163585.0 408775.0 0
173344.0 408515.0 0
168613.0 409917.0 0
177142.0 410988.0 0
181879.0 408101.0 0
181039.0 412595.0 0
187513.0 407952.0 0
184782.0 411556.0 0
193067.0 407788.0 0
198116.0 410475.0 0
305020.0 408498.0 0
301612.0 410825.0 0
305730.0 412074.0 0
308159.0 409105.0 0
309866.0 412207.0 0
313909.0 411642.0 0
317328.0 408996.0 0
322161.0 410181.0 0
331522.0 408749.0 0
326777.0 410339.0 0
335557.0 411311.0 0
340051.0 409095.0 0
344550.0 409369.0 0
348134.0 410707.0 0
352203.0 409330.0 0
356731.0 410655.0 0
362065.0 412346.0 0
365786.0 408509.0 0
366568.0 412729.0 0
369724.0 410390.0 0
372911.0 408666.0 0
373986.0 412235.0 0
378830.0 410276.0 0
383844.0 411097.0 0
387909.0 408199.0 0
392387.0 407853.0 0
391619.0 410785.0 0
396578.0 409581.0 0
400259.0 407953.0 0
401565.0 410655.0 0
406909.0 410576.0 0
412443.0 412058.0 0
416185.0 408167.0 0
420449.0 410630.0 0
425151.0 409363.0 0
429647.0 409763.0 0
433097.0 412409.0 0
437133.0 409279.0 0
437627.0 412878.0 0
442115.0 411429.0 0
446716.0 408828.0 0
450543.0 410534.0 0
455057.0 409518.0 0
460079.0 411218.0 0
463574.0 408763.0 0
468342.0 411307.0 0
463698.0 412667.0 0
473510.0 411977.0 0
475252.0 408917.0 0
477859.0 411240.0 0
481404.0 408374.0 0
486190.0 410790.0 0
494211.0 411527.0 0
490296.0 413025.0 0
498016.0 412621.0 0
1635.03 413472.0 0
2424.51 417500.0 0
5586.83 414133.0 0
9168.12 415086.0 0
12815.4 413400.0 0
19743.4 415615.0 0
16401.8 416732.0 0
22893.5 416694.0 0
25991.4 413892.0 0
28908.6 414819.0 0
32011.0 416044.0 0
39746.5 416588.0 0
35762.7 417781.0 0
44303.3 415535.0 0
48605.5 416378.0 0
51387.8 413488.0 0
54575.0 417818.0 0
59737.3 415795.0 0
64041.7 418044.0 0
69508.0 415394.0 0
74921.2 413409.0 0
74979.3 417732.0 0
79954.9 414794.0 0
84661.8 413058.0 0
84664.7 416777.0 0
89012.2 414351.0 0
94028.7 413923.0 0
98022.9 415996.0 0
106012.0 413099.0 0
103143.0 417870.0 0
108777.0 417179.0 0
116612.0 414298.0 0
112938.0 416978.0 0
120725.0 417424.0 0
125150.0 415468.0 0
129608.0 413129.0 0
135317.0 415814.0 0
140409.0 413743.0 0
144349.0 415455.0 0
148786.0 415811.0 0
153616.0 416580.0 0
158134.0 415660.0 0
161847.0 415696.0 0
164697.0 412920.0 0
165259.0 416788.0 0
168356.0 414698.0 0
172696.0 413440.0 0
170888.0 417763.0 0
177757.0 416178.0 0
184003.0 416082.0 0
188319.0 417401.0 0
188998.0 412952.0 0
191519.0 416353.0 0
193898.0 413210.0 0
198076.0 415647.0 0
194396.0 417309.0 0
301933.0 414951.0 0
306878.0 416755.0 0
312628.0 415790.0 0
318505.0 414502.0 0
324389.0 414197.0 0
330545.0 413878.0 0
335128.0 415515.0 0
339297.0 414263.0 0
343756.0 413096.0 0
343371.0 417613.0 0
347844.0 415480.0 0
352304.0 413482.0 0
357520.0 416164.0 0
362543.0 416972.0 0
367112.0 416879.0 0
370022.0 413913.0 0
377240.0 415192.0 0
372543.0 417585.0 0
381009.0 413969.0 0
384601.0 415760.0 0
388310.0 413087.0 0
393665.0 414830.0 0
398732.0 413593.0 0
403219.0 415557.0 0
408992.0 415965.0 0
417288.0 413524.0 0
414052.0 417281.0 0
422963.0 415068.0 0
418651.0 417648.0 0
428116.0 413559.0 0
431052.0 417600.0 0
435977.0 416227.0 0
439752.0 415310.0 0
443536.0 416671.0 0
447096.0 413359.0 0
452250.0 414750.0 0
456861.0 413748.0 0
456061.0 418120.0 0
460959.0 416345.0 0
466332.0 416281.0 0
471198.0 415911.0 0
478923.0 414633.0 0
475688.0 415545.0 0
482032.0 412788.0 0
481868.0 417023.0 0
485870.0 415254.0 0
489931.0 417318.0 0
494064.0 415422.0 0
497940.0 416410.0 0
2739.43 422490.0 0
7235.42 419124.0 0
12027.8 418059.0 0
11027.8 422400.0 0
19859.4 419846.0 0
15314.1 421105.0 0
23713.4 420255.0 0
27623.3 418572.0 0
32614.2 420613.0 0
38340.1 421779.0 0
42487.0 419404.0 0
46421.0 419609.0 0
50323.1 419293.0 0
59609.8 420583.0 0
64243.1 422875.0 0
67733.9 420466.0 0
71782.3 420625.0 0
78688.9 420485.0 0
81845.4 418201.0 0
83573.0 421091.0 0
88001.1 419740.0 0
93121.0 418535.0 0
98097.7 421785.0 0
107160.0 421888.0 0
102972.0 422975.0 0
111929.0 421160.0 0
116187.0 419254.0 0
119997.0 422223.0 0
124569.0 420770.0 0
129770.0 419059.0 0
135317.0 422186.0 0
140691.0 418857.0 0
139605.0 422591.0 0
145809.0 419531.0 0
149903.0 419456.0 0
157603.0 419472.0 0
153472.0 421824.0 0
162006.0 419647.0 0
167173.0 420558.0 0
172241.0 422661.0 0
174183.0 418825.0 0
177018.0 421139.0 0
181140.0 419723.0 0
185815.0 421331.0 0
191435.0 420608.0 0
197242.0 421025.0 0
301947.0 418903.0 0
311103.0 420068.0 0
306956.0 421966.0 0
316009.0 419924.0 0
320211.0 422823.0 0
322227.0 418391.0 0
324638.0 421788.0 0
327269.0 417993.0 0
329102.0 422689.0 0
332362.0 418901.0 0
338079.0 419433.0 0
342982.0 422894.0 0
347627.0 420198.0 0
352173.0 418186.0 0
356047.0 421004.0 0
360339.0 420712.0 0
364468.0 420387.0 0
368811.0 421561.0 0
376930.0 419164.0 0
380720.0 417929.0 0
379796.0 422354.0 0
384471.0 420651.0 0
389083.0 418310.0 0
394078.0 421062.0 0
398124.0 417869.0 0
401258.0 420777.0 0
405997.0 420226.0 0
410674.0 420629.0 0
416910.0 421911.0 0
421859.0 420437.0 0
426274.0 419155.0 0
429361.0 422105.0 0
435051.0 420072.0 0
439424.0 419698.0 0
444127.0 421714.0 0
448320.0 418415.0 0
452512.0 419131.0 0
459402.0 421196.0 0
464142.0 420795.0 0
469145.0 420318.0 0
473823.0 419759.0 0
478014.0 418860.0 0
481430.0 421539.0 0
485833.0 419830.0 0
493757.0 419210.0 0
490351.0 422568.0 0
494610.0 422756.0 0
497775.0 420428.0 0
1128.36 426153.0 0
4832.97 427431.0 0
7260.68 423570.0 0
9837.35 426915.0 0
14545.6 425822.0 0
18550.0 423742.0 0
22991.7 423963.0 0
28460.4 424054.0 0
33900.3 425300.0 0
38495.2 426960.0 0
43775.4 423688.0 0
49322.0 423378.0 0
46980.0 427615.0 0
54891.5 423596.0 0
51747.7 428125.0 0
60061.0 425709.0 0
56335.0 428518.0 0
64767.3 427905.0 0
69329.3 424910.0 0
74869.1 424086.0 0
81011.5 425088.0 0
77538.6 428211.0 0
86885.2 425486.0 0
91580.2 428263.0 0
92511.7 423818.0 0
96110.0 427145.0 0
100716.0 426396.0 0
105623.0 426784.0 0
110144.0 425277.0 0
115735.0 423236.0 0
114152.0 427056.0 0
118178.0 425923.0 0
122299.0 426207.0 0
128427.0 425786.0 0
134074.0 426855.0 0
139093.0 425556.0 0
143208.0 423631.0 0
145705.0 427009.0 0
148460.0 423761.0 0
148575.0 427868.0 0
152890.0 427334.0 0
158492.0 424614.0 0
163635.0 423771.0 0
167789.0 425804.0 0
176470.0 425433.0 0
180979.0 423992.0 0
185224.0 426611.0 0
189223.0 424689.0 0
193549.0 425394.0 0
198083.0 426285.0 0
302447.0 423324.0 0
302010.0 427904.0 0
311065.0 424648.0 0
306376.0 426112.0 0
315892.0 424541.0 0
319351.0 428084.0 0
325086.0 426666.0 0
330612.0 427394.0 0
334001.0 423642.0 0
338429.0 424760.0 0
351943.0 423135.0 0
347614.0 425050.0 0
356921.0 426049.0 0
363389.0 425355.0 0
369637.0 427267.0 0
374260.0 423208.0 0
383690.0 425261.0 0
388925.0 424134.0 0
393612.0 425794.0 0
398290.0 424657.0 0
403542.0 424847.0 0
408038.0 424206.0 0
412609.0 425138.0 0
417029.0 427159.0 0
420924.0 424997.0 0
425371.0 423861.0 0
429104.0 425977.0 0
433813.0 424491.0 0
439745.0 425117.0 0
445069.0 427007.0 0
448896.0 423485.0 0
454559.0 423540.0 0
461866.0 426157.0 0
466884.0 424340.0 0
471832.0 424794.0 0
476985.0 423340.0 0
481332.0 426247.0 0
485837.0 424489.0 0
489248.0 427469.0 0
493741.0 426331.0 0
497865.0 424748.0 0
1175.66 428683.0 0
2497.4 431907.0 0
7902.83 431610.0 0
13020.4 430750.0 0
19674.2 428614.0 0
25379.7 428493.0 0
22659.5 433220.0 0
30297.7 428893.0 0
27692.2 433324.0 0
34967.5 430354.0 0
39496.1 431336.0 0
42690.9 428467.0 0
43267.6 432585.0 0
48421.5 433067.0 0
54291.9 432555.0 0
60461.7 431084.0 0
65589.6 433167.0 0
68826.3 429784.0 0
71310.4 432916.0 0
72937.7 428706.0 0
75735.6 432494.0 0
82653.3 430740.0 0
88202.8 430791.0 0
94308.6 431890.0 0
99482.3 431028.0 0
104805.0 432196.0 0
110022.0 430159.0 0
114614.0 431326.0 0
119059.0 430136.0 0
124132.0 430453.0 0
132476.0 430829.0 0
128195.0 431755.0 0
137459.0 429604.0 0
142131.0 428331.0 0
141171.0 432993.0 0
146244.0 431438.0 0
151131.0 431915.0 0
157702.0 430647.0 0
162887.0 428546.0 0
167294.0 430636.0 0
172519.0 428948.0 0
177015.0 428885.0 0
177035.0 432503.0 0
180689.0 429194.0 0
184678.0 431085.0 0
189917.0 430004.0 0
195382.0 429706.0 0
198316.0 432464.0 0
305711.0 430586.0 0
301661.0 431925.0 0
309472.0 428769.0 0
313998.0 428892.0 0
317049.0 432833.0 0
323048.0 431656.0 0
327821.0 431567.0 0
335860.0 428280.0 0
332671.0 431732.0 0
341658.0 429234.0 0
346989.0 429079.0 0
346041.0 432791.0 0
351455.0 428241.0 0
355345.0 431717.0 0
360502.0 430764.0 0
365467.0 430804.0 0
369212.0 432266.0 0
373499.0 431615.0 0
378661.0 428315.0 0
386376.0 428897.0 0
383093.0 432468.0 0
391099.0 429377.0 0
396284.0 429642.0 0
401163.0 428888.0 0
404658.0 428485.0 0
404577.0 431972.0 0
408511.0 428915.0 0
413454.0 430213.0 0
420872.0 429532.0 0
425864.0 429096.0 0
431557.0 429973.0 0
436429.0 428981.0 0
440966.0 430726.0 0
446245.0 431812.0 0
450821.0 428876.0 0
456757.0 428801.0 0
459021.0 432686.0 0
463160.0 431421.0 0
467820.0 429065.0 0
476211.0 429117.0 0
481739.0 431217.0 0
485139.0 428453.0 0
486928.0 432941.0 0
492916.0 431557.0 0
497658.0 429014.0 0
497927.0 433403.0 0
5011.96 434807.0 0
11269.6 436438.0 0
17369.2 434396.0 0
32895.0 435243.0 0
38239.3 435864.0 0
58197.6 435887.0 0
79327.3 435315.0 0
86445.4 433957.0 0
90271.5 434573.0 0
95736.7 436737.0 0
101037.0 436245.0 0
108061.0 435464.0 0
112314.0 434951.0 0
117080.0 434741.0 0
121651.0 433959.0 0
125478.0 434645.0 0
136018.0 435188.0 0
154468.0 435237.0 0
159638.0 435661.0 0
163697.0 433345.0 0
167808.0 435061.0 0
172593.0 434805.0 0
181595.0 433998.0 0
186623.0 435056.0 0
194040.0 434906.0 0
304415.0 435593.0 0
310655.0 434179.0 0
320859.0 436042.0 0
325308.0 435088.0 0
337353.0 433998.0 0
342435.0 435144.0 0
350533.0 433499.0 0
358490.0 435396.0 0
370991.0 435313.0 0
376247.0 435151.0 0
379207.0 433483.0 0
388103.0 433597.0 0
393279.0 433982.0 0
399967.0 433588.0 0
410057.0 434083.0 0
417506.0 433629.0 0
423143.0 433881.0 0
428130.0 433800.0 0
436403.0 433766.0 0
443290.0 435407.0 0
449796.0 434150.0 0
454435.0 433347.0 0
462193.0 436341.0 0
466726.0 434212.0 0
471812.0 433423.0 0
477917.0 434811.0 0
482567.0 435511.0 0
490867.0 436494.0 0
495034.0 436148.0 0
POINT_DATA 5000
SCALARS Radius float 1
LOOKUP_TABLE default
5782.6 5120.0 5529.52 6324.23 5191.63 4861.06 5320.28 4797.52 4796.58 3979.26 4298.67 3471.03 5253.55 5820.48 4862.21 5113.21 3929.19 4107.03 4478.15 5379.87 5925.6 4501.51 4792.73 4736.58 4931.38 3485.26 4329.05 4151.94 4049.23 5337.48 6124.89 5708.81 5252.48 4780.03 5495.39 3996.0 3856.1 4665.12 3383.4 4133.88 4834.9 3850.77 6044.04 5415.48 5085.53 3863.18 2356.98 4998.37 6182.6 5492.18 5258.36 5061.3 3642.12 3163.97 5812.43 5122.66 5906.14 5484.19 7513.1 5254.28 4436.4 5733.48 4672.91 5580.89 3588.44 5645.7 5176.86 6810.52 5840.26 3672.51 6110.27 5561.06 5073.35 3615.22 5670.04 4380.59 3589.27 6716.79 3607.45 5759.91 7613.27 4951.03 5255.32 6037.08 5096.78 6756.95 4129.43 3843.58 3320.52 4727.24 4194.5 4270.53 5082.47 5344.25 4593.7 4150.99 4216.92 4177.94 4742.68 4344.58 5634.83 5495.84 6268.1 5374.51 6739.08 4569.12 5873.69 5960.66 6608.73 5011.84 7034.11 6261.42 4502.5 3771.48 4043.57 4271.69 5681.38 4138.42 3708.04 5513.6 3240.09 4556.36 6082.81 3191.99 4685.34 5601.05 4929.8 3586.91 3103.0 3554.9 4015.92 5542.21 4487.31 3936.02 4044.71 5980.74 4094.62 4927.02 5546.39 5325.36 5484.83 5538.89 5351.6 4730.36 4715.55 5867.73 3951.75 5013.56 4499.64 4375.68 5542.27 5054.98 6030.06 5170.02 3557.27 4927.31 4688.68 4402.52 4517.56 4182.53 5903.42 3955.56 3761.32 4118.05 4366.19 5553.16 2938.66 4940.78 4231.61 4008.92 3942.53 3379.84 4827.82 3997.1 3260.67 5123.52 3038.33 4392.68 4333.2 4295.38 7199.21 4523.7 2240.39 5923.5 5091.39 5293.9 6142.94 3912.37 4602.25 4790.08 4763.45 5344.0 5445.87 3815.26 4704.72 6048.7 4571.7 5896.46 5022.8 3784.5 3780.23 6481.79 5224.12 7042.12 4819.73 6326.39 4471.58 4962.09 3999.48 4359.62 6946.21 2586.12 5433.8 4011.77 5499.11 3633.87 5922.5 5198.77 5987.17 6013.14 2765.2 4901.41 5110.37 5664.98 4382.74 5927.43 4651.28 3693.63 4384.42 4516.43 5481.78 5637.59 4937.14 5043.05 5816.2 5693.81 5109.54 6483.19 3829.13 5945.65 6759.9 5418.62 7021.47 5416.38 6059.59 4955.55 2720.68 5701.86 3563.63 4238.81 4468.59 5885.03 2837.58 5325.02 5200.76 5017.13 4862.64 5185.34 4432.58 6684.56 3968.64 4688.67 2635.86 5292.64 6166.5 5065.13 5936.02 5305.17 4861.08 4003.05 5390.22 4805.87 4712.33 5227.21 5697.78 4667.36 4091.31 6372.62 4254.17 5090.24 5615.42 7565.34 4612.68 4281.49 4973.83 6342.25 6691.39 4840.84 5135.69 4020.32 6045.46 4245.72 5908.1 4541.21 6133.92 3719.84 4178.4 3095.48 4166.08 4123.6 4850.14 5163.55 3382.7 6817.32 4319.79 6098.14 4472.17 3637.61 4203.26 5188.81 4730.41 6057.22 5062.71 6125.34 4527.08 5347.48 4850.01 3970.25 5147.67 3979.82 5011.31 5138.31 5264.06 4659.59 6327.9 4048.37 6355.42 4362.19 5690.56 4948.92 3115.91 3307.12 4493.48 5924.89 4002.16 4174.52 4138.16 3486.22 4684.5 6230.49 6458.82 4601.27 5493.32 5740.68 5926.61 6051.14 5836.15 3261.21 4345.55 6704.06 3653.41 3871.88 5600.93 3856.01 5246.2 4390.66 5279.39 3673.74 4827.23 5205.43 6116.18 7447.37 4924.6 4385.06 4733.32 7184.19 2899.43 2924.37 4290.3 3867.67 5399.73 4660.72 3888.21 5891.05 6038.78 6902.81 6644.76 5629.19 4786.6 5740.84 6445.94 5530.87 4310.18 7134.64 5978.9 4187.56 3629.62 4997.27 4301.06 4877.67 4290.14 6562.18 4156.38 5316.75 7055.53 4164.68 5669.65 5934.22 5624.49 5762.59 7092.87 4666.81 3703.1 3954.91 6471.55 2965.01 6643.85 5501.93 6222.42 5654.31 3745.84 4938.74 5690.26 4156.2 4497.59 5965.78 4374.35 4810.12 5643.58 5215.05 4292.06 3821.72 5577.04 5006.58 4602.86 3688.8 4548.16 3369.23 5449.18 5492.26 5244.78 5762.84 3937.74 4749.8 6084.86 5478.92 4778.34 5551.36 6894.71 3091.3 4414.54 5789.98 6138.47 7054.71 3641.64 5489.43 5747.75 4277.89 5054.25 4796.33 4195.44 5539.32 5360.19 6496.85 4794.96 4874.39 5541.59 4124.71 5728.85 6337.56 4911.47 5803.39 5863.59 4381.97 6257.19 3255.82 5242.73 2812.98 4065.69 5603.15 4695.45 6052.7 3921.18 3798.62 5308.1 3666.57 4907.89 4937.02 4073.93 5655.21 4645.41 4433.59 4320.28 5542.14 4218.06 5480.13 6308.71 4716.19 5514.76 6405.76 3456.98 3498.2 5105.16 3066.13 5448.61 4302.5 6006.16 6009.88 5013.67 5826.04 5339.78 4970.88 4143.78 4763.66 4636.5 4940.42 5923.4 5085.71 5499.39 5644.82 6343.14 5463.38 5945.21 5750.71 5696.88 5607.14 3923.03 5975.63 5252.34 6396.74 4138.46 2775.04 4986.77 6898.19 6318.18 5586.81 4621.75 3948.17 4551.24 5358.59 4220.88 4515.71 6519.71 6640.13 5082.6 5810.84 4230.54 5094.44 3748.24 4655.49 4467.94 4850.81 6038.14 2540.31 6029.66 5527.54 5573.7 5697.4 4727.62 4270.95 4055.8 7325.81 5280.17 6425.26 5143.58 6186.19 4839.34 5083.08 2980.99 6834.49 5525.39 3998.5 5938.34 4024.3 6394.38 5555.28 5169.36 4737.14 4686.65 5834.74 5556.96 5788.23 5581.75 6392.01 3599.45 6730.19 4907.06 3735.44 5163.9 6043.3 5952.75 6332.36 6122.55 2739.94 4931.53 6155.31 4223.33 5911.67 3323.28 6695.82 5794.24 4678.38 5050.65 4827.33 5206.48 5513.57 5729.23 5226.0 3365.82 4538.95 5965.15 4780.2 6090.91 4946.42 5019.93 5081.78 6116.33 6263.44 5774.97 5462.21 5470.77 4831.47 4643.85 4004.04 6062.05 4289.17 5564.02 4274.61 2965.79 4410.55 6035.6 5137.34 4481.53 5330.45 4581.13 3856.59 3610.4 4219.07 6387.01 5367.52 3092.35 4322.15 5210.03 4714.54 3629.96 5478.47 5351.39 6142.37 6061.47 4933.21 5375.47 4723.12 5120.49 5201.36 5262.61 6302.8 5409.61 6038.2 4005.44 5206.78 5555.88 6732.43 5028.96 3866.16 6362.12 4484.76 4840.01 5611.2 7933.0 4455.12 5173.87 4894.16 5380.13 5711.87 5118.27 4941.22 5932.23 5791.61 3369.13 4479.66 3043.85 5367.2 5461.13 4726.76 5839.13 5495.68 5489.34 5002.48 5708.14 5537.72 3920.42 8332.24 4553.56 5329.64 6049.55 5709.62 5835.78 4127.74 2476.04 5133.97 3942.07 7443.72 3937.08 5260.34 4709.35 6586.45 4373.3 4750.78 4163.5 5724.64 5078.86 5100.1 3561.29 4963.34 3295.83 4459.28 4260.92 6250.23 5960.56 4118.84 4020.95 6313.06 3474.39 3493.7 6470.3 4200.03 5082.74 6915.83 6072.45 7099.43 5526.14 5198.29 5423.0 5077.33 4746.52 5413.79 6338.89 6202.55 5025.39 5893.5 4547.19 3320.11 5030.91 6022.17 5119.37 3982.23 6163.38 4566.18 3459.9 4964.09 4809.42 5024.9 4306.53 5659.17 5094.81 5972.06 5713.22 5861.71 4359.04 3183.98 3794.63 4524.28 3778.1 5152.36 4511.82 5826.64 4220.65 6820.42 4816.2 6321.41 4896.52 4751.02 3372.79 5184.56 5282.64 4715.72 4669.66 4808.52 5046.33 5607.24 5053.92 6352.26 3847.38 3818.59 4863.72 6623.85 4262.82 5102.36 4342.9 5065.11 5069.84 4051.44 4241.89 5054.74 5941.72 5991.09 5126.91 6600.94 4788.58 5371.02 6155.1 5876.71 6262.72 5029.78 6515.84 4888.6 2990.77 4739.14 4918.77 4371.99 4219.78 4188.3 3885.86 5235.29 4479.94 6413.02 4863.27 5862.86 6049.79 5374.98 4719.7 6939.12 4735.33 5411.85 5092.37 6444.77 6314.07 4287.63 5315.4 6449.45 3975.31 3689.45 3824.16 5572.95 3868.18 6723.16 5584.06 7111.16 3817.13 5507.24 6851.54 4583.31 4503.89 5806.08 4853.39 4997.27 4093.08 4449.22 5543.27 4717.05 5287.2 6135.57 5998.38 4312.67 5423.8 4270.24 4989.15 5017.78 5015.69 6175.81 4727.24 6677.09 4305.57 6959.81 4829.35 5201.67 4424.7 4089.76 5526.55 3192.41 5215.15 4987.87 3315.57 5804.71 4764.96 5727.3 4242.52 5356.51 4277.88 4087.15 3057.03 4143.08 7500.97 3948.23 5228.18 5787.31 3927.99 5868.82 4978.31 4050.9 4099.77 4537.32 4981.9 4656.78 3600.43 4906.82 5131.24 5196.67 5004.23 6496.67 5474.8 6607.87 3664.11 5117.47 4925.63 5882.65 4434.19 5187.7 4623.61 6261.75 5177.64 4255.31 5453.3 4094.73 4407.9 3492.19 4584.5 5122.63 4703.08 6345.13 5274.19 5516.95 4406.4 4413.85 4844.57 4027.46 4470.98 5776.37 4516.28 3627.82 4044.45 5125.78 5344.43 4373.47 5045.38 5350.88 5372.61 3686.21 6480.17 5023.15 4377.07 3813.22 5101.59 5570.3 4336.42 5243.29 7589.94 3130.65 5628.24 5856.11 3327.49 4109.88 4234.94 4562.29 5013.13 5080.66 3417.33 4926.42 4164.13 4642.34 4520.1 4947.52 5874.89 4293.03 5813.4 4389.21 3791.79 4128.98 4925.44 4754.05 4951.47 6084.93 4307.28 3697.96 4739.42 4723.48 5538.93 5020.12 4745.45 2631.9 5281.28 6255.18 4668.71 4758.21 7228.46 6362.14 6719.88 5978.82 5266.5 4523.88 4066.38 4948.98 5227.52 4414.48 4092.24 5163.02 7144.24 5687.83 6442.69 6320.71 4648.04 3464.83 4721.32 4305.16 3293.56 3163.78 5274.14 4903.82 5746.28 4082.47 5511.6 4338.08 4378.3 6134.99 4989.56 4718.54 4440.57 5548.29 6766.43 2315.64 5916.16 4390.41 5226.56 5599.49 5313.22 3905.51 3999.94 4864.22 3901.8 5759.46 5083.41 3921.08 4190.31 5678.96 5262.19 4244.9 6070.58 6034.41 5452.83 5130.91 5402.24 4519.22 6445.22 3844.9 3695.36 4564.34 3963.86 4871.44 3848.93 5076.35 4306.11 5935.47 3402.32 5903.66 4528.49 5004.67 5365.89 5992.26 3960.8 5070.39 4980.85 5714.58 5110.45 5208.32 5248.77 3296.27 4083.97 4713.25 4607.02 5153.74 4528.09 3895.51 4165.81 5441.96 6291.51 5174.89 5882.89 6246.22 4188.32 5246.61 4100.38 5344.77 5027.98 4899.11 5097.87 4278.07 7267.18 6256.02 5320.92 5269.18 4305.43 4406.1 5034.59 4942.77 4263.33 4454.63 5080.18 5912.61 3279.1 4403.98 4560.84 4729.43 5776.57 4562.74 5683.26 5598.74 5139.5 7493.3 4814.55 3527.05 5698.77 2477.07 6413.11 5529.42 5092.28 4965.89 5659.95 4152.85 2908.7 4453.64 4517.73 5469.47 4419.71 5660.16 3838.47 2588.37 6736.03 6235.57 3623.87 3087.09 6934.37 6113.95 4050.08 4097.57 5017.5 5563.79 6171.13 5511.88 4512.11 7055.42 5486.68 6048.86 5100.25 4285.32 5490.43 5022.28 5197.52 4959.34 4948.5 4527.02 4531.14 5013.42 3838.56 5651.07 6020.48 6375.99 5200.05 5234.29 5313.66 5419.37 4466.03 4511.54 5409.33 5196.0 4923.9 4973.78 3329.99 3947.47 5091.68 4204.84 6243.0 6673.96 3556.85 3161.47 3435.9 6390.78 4288.3 5370.52 4652.29 5774.81 3746.31 5498.32 5527.33 5346.27 6475.1 4969.21 2691.29 2845.98 4880.14 5289.52 5314.85 5941.4 5450.44 6510.17 5742.65 5592.32 5381.16 5565.13 6193.35 6086.96 5233.78 3701.27 5653.9 5046.21 4929.14 5894.61 3979.54 5304.13 5944.09 5833.06 4923.41 4497.31 5384.76 5257.12 4428.78 5243.43 4537.14 5551.9 3757.34 6415.61 4687.64 4888.12 5037.06 4541.8 5175.29 5842.56 5887.15 5412.31 7480.41 3423.15 4890.5 3981.07 5452.42 5328.22 6853.85 2395.5 3497.9 5941.61 5782.48 6248.6 5683.61 3836.45 6894.26 4986.51 5339.38 5178.99 5383.07 4591.87 4790.78 4247.15 6552.22 4602.85 6248.81 5872.05 5273.35 4091.8 2651.49 4645.58 5181.4 5512.23 5275.32 5985.29 4898.94 4178.15 4613.31 4733.04 6119.09 5788.66 7531.29 5069.25 5048.89 5935.03 3991.03 7435.25 6826.57 4788.87 4249.46 4495.87 5965.81 3702.37 6022.72 4643.31 6917.52 5402.21 4989.09 6718.19 4982.31 3848.54 4307.48 5331.02 4871.96 4863.23 4402.67 4470.61 4631.83 4384.88 6887.27 6008.49 4220.46 4806.34 4287.53 5612.21 5945.08 4968.03 3306.14 5490.58 4863.79 4702.06 3830.46 6031.67 4689.15 6138.12 4655.16 5409.66 4345.67 3867.19 4765.72 4642.66 4039.91 4752.14 5329.59 6119.63 4950.97 5512.16 3197.63 4863.96 5191.08 5203.08 5163.77 4488.85 3731.84 4579.69 4901.07 5186.3 3436.15 4151.76 4020.4 3493.47 4721.02 4596.75 4933.65 5443.58 4558.46 5805.86 4049.02 4470.4 5311.03 5255.12 6169.11 5615.35 4027.09 6422.84 4502.18 5379.09 5210.48 4962.77 4853.02 6259.23 5088.44 5670.2 4711.62 4247.23 4114.24 4268.65 5349.31 4694.83 4649.22 5509.42 4354.08 4256.43 5936.36 2682.24 4520.62 3903.75 5229.48 4755.47 4485.99 5127.16 5475.8 5314.69 4244.99 6050.81 5543.46 6185.89 3997.96 4750.17 5660.85 2330.66 3990.25 4177.19 3691.0 4752.51 3587.05 6229.37 5282.91 4425.84 3797.33 7256.35 4800.69 6566.1 3555.86 6386.78 4996.99 4896.39 6081.14 5480.83 4607.85 5128.57 6000.7 3169.67 5604.21 3361.92 6710.88 5395.14 3967.48 6213.04 5235.11 6622.11 3685.13 6790.73 5251.4 5097.69 5857.79 6543.13 5276.7 5036.58 5411.02 4752.9 4287.16 5199.44 4062.5 4435.51 5374.07 4588.7 5683.95 3766.55 3554.48 5010.2 6496.52 5005.85 4216.17 6484.17 4938.72 4254.37 3374.08 4031.78 6098.1 5708.99 5687.85 5346.68 5296.29 4611.53 4285.66 4896.11 5172.53 3872.61 4135.62 5801.99 5534.94 7644.38 7552.94 6101.92 5323.3 4998.21 4662.56 5166.79 2976.22 3405.98 5394.55 5094.52 4946.74 5996.33 5928.32 5415.19 5475.7 4612.62 4016.18 3619.07 5526.75 4275.57 5435.74 6385.23 5327.45 5560.26 6363.92 6205.93 4439.35 3460.94 5830.72 6184.4 3758.07 4373.45 4236.14 4407.87 5733.62 5169.9 5282.51 4460.92 5945.89 4042.28 4105.55 4340.76 6065.22 4221.28 4456.39 5514.84 3633.79 3914.2 5421.53 5937.08 6070.3 5233.29 4312.56 4612.06 5204.04 4750.58 5926.11 6667.68 5211.38 5089.62 4590.55 4741.26 5920.32 4255.85 4732.09 3988.3 4356.25 5149.72 4216.95 5776.96 5464.25 5486.48 5301.47 4617.55 3645.12 5424.88 5415.85 8659.64 5469.13 6027.62 5765.42 6123.03 5966.61 5711.11 4575.94 3546.71 5768.57 5564.23 5950.04 4231.83 2435.33 6401.43 4074.48 4558.47 5020.71 2681.29 5094.48 5839.71 4238.4 4318.48 6132.95 5266.22 4860.33 3685.13 6004.68 4051.34 3361.26 3627.55 6239.84 4635.6 4256.67 3457.48 3931.07 6079.11 6430.39 5417.15 3688.16 4681.72 3949.6 4945.39 3950.63 5661.62 6631.19 6648.68 4467.04 5626.61 5817.25 2983.99 2614.4 5061.98 4537.6 4923.24 4419.61 7177.44 3828.81 5309.98 4082.57 5255.18 5460.65 3004.16 4767.78 5235.17 4421.12 4779.5 4435.36 5254.49 6649.96 4303.19 5784.3 4256.57 6088.68 4643.56 4135.08 5620.74 4778.82 6124.08 5467.84 5053.95 5266.01 5253.37 5767.9 6515.8 5869.4 3685.65 3701.16 4186.6 5895.77 5750.07 6136.49 4757.74 6045.67 4209.49 5742.74 4244.21 4947.24 3875.05 6200.54 5148.58 4199.45 7234.66 6599.66 4055.54 4233.8 6098.95 4997.83 4893.49 5325.44 5021.88 5956.65 4200.09 4498.25 4188.87 5151.21 3735.24 6574.95 6333.29 5731.57 5997.88 5576.92 6408.83 3930.79 4004.35 5226.97 3312.06 5754.18 5180.76 6799.4 5278.36 4409.63 5865.39 4427.28 3082.32 3658.37 7440.72 5376.71 5703.6 6326.18 4807.28 4867.08 4266.03 4713.74 5407.78 4084.49 5449.46 6179.96 6632.99 6113.54 5147.36 6260.79 4563.46 6553.94 5726.66 5652.0 5463.41 5225.33 4929.75 6439.37 6045.22 4614.3 5134.39 3532.3 5769.98 5442.32 2221.99 3580.58 4863.01 5356.79 5657.36 3619.79 5029.47 6306.21 2978.76 2040.66 7016.27 5884.9 3876.21 5689.26 4916.22 6022.7 4940.84 4833.46 4809.67 7248.4 3946.28 3821.94 5984.81 5439.9 5367.73 3540.11 4640.06 3456.47 4652.01 5471.74 5421.64 4207.54 4886.12 6419.12 4976.12 4817.16 5453.98 3991.42 4388.63 5102.75 4597.29 5931.77 5938.17 5398.64 6817.57 4477.04 3614.96 3886.68 5703.74 5662.55 5737.92 4360.23 5365.24 5293.51 4763.96 5008.63 3418.99 5132.68 4480.95 4993.35 6218.95 5521.25 3661.9 5370.85 5107.23 5949.46 3178.54 3776.94 4765.02 5629.39 4448.13 2684.03 5070.29 4768.61 2261.36 5075.55 5280.69 4220.03 6923.84 5227.59 5703.07 4662.43 4630.82 3963.76 4043.66 5528.53 6799.88 3062.43 4540.86 5990.52 5426.78 2967.38 5604.35 4159.35 6477.91 4237.98 3091.67 4081.97 5401.99 5580.92 5973.33 5067.46 3583.21 2511.46 4011.37 2775.69 6505.78 4785.25 5461.55 6519.43 5876.64 5424.46 4857.84 4908.49 4962.21 4858.44 3468.42 4673.35 4771.13 4992.42 5297.19 4351.38 5550.75 5933.7 5280.12 4444.97 3498.16 4247.69 4409.27 4514.39 4588.99 4321.21 3548.39 4344.34 3673.28 4928.27 4858.51 3375.28 5625.65 4301.61 6107.89 4446.84 5660.55 5148.08 4834.87 4514.79 5760.22 3672.21 4795.43 5097.95 5108.06 3573.73 4693.52 6853.04 4745.43 5831.96 4747.55 3056.7 3755.95 6234.32 4586.19 4446.06 3450.93 5323.91 4270.74 6595.03 4558.15 4983.39 5222.16 4690.55 5136.08 5558.68 4802.32 4010.57 4599.38 5246.47 6157.04 6191.29 4522.21 7422.36 5506.19 6719.94 4950.67 5832.37 6166.29 5453.6 5409.63 5294.77 4263.16 4709.05 3077.84 6109.49 4813.08 5860.67 5332.65 3764.1 4835.83 5413.31 6316.56 4332.87 6420.81 4715.58 4450.7 5151.52 5369.08 3101.75 4347.74 4518.04 4009.62 5291.9 2081.58 4874.18 3298.2 4270.15 6865.76 6449.64 6464.8 4684.44 4749.59 5799.69 3809.69 5571.72 3208.96 7051.9 4184.23 4144.57 6834.41 6226.14 5466.33 3000.29 5721.05 4209.31 6242.79 5950.45 5713.03 3583.49 5849.65 5052.84 4366.74 4165.21 5297.16 3184.64 4936.96 5206.33 5530.49 5653.03 3718.69 6192.0 2216.82 4509.89 4940.28 6752.75 5269.38 3004.34 5607.3 2928.82 4914.45 4222.4 4000.43 4698.87 3420.08 4568.41 4912.04 3624.7 4539.07 5464.68 4475.83 2685.81 5591.76 4585.31 5010.04 6625.18 4570.98 5097.45 6293.89 2761.07 5737.75 5742.47 5366.52 3778.02 6552.21 5533.72 5533.42 7132.12 3678.08 5518.57 4187.31 5463.48 3240.51 4527.99 5161.01 4376.7 4298.15 5190.61 4628.4 6051.83 4642.93 4440.81 5941.9 3973.12 6642.76 6024.75 4497.78 5567.93 5987.42 4442.22 6451.33 4669.06 3012.99 6400.08 4743.59 5208.14 3317.83 4396.25 3763.05 5092.24 5549.49 5423.42 4766.06 6605.86 5012.5 5435.19 7093.13 4953.1 5818.95 4093.99 3940.49 4406.05 4680.94 5089.1 5828.35 5876.72 5236.43 5285.07 4884.59 4680.14 4608.41 4083.79 4187.94 5980.59 5021.77 3796.15 4801.8 7216.98 5271.02 5718.28 4601.74 5088.57 5134.67 4215.0 4603.5 4481.76 5452.78 5065.26 4304.41 5885.28 6579.31 5323.55 3022.6 5375.1 4811.76 5313.12 5351.56 4661.03 5160.59 4691.91 5262.35 4320.42 4255.34 4510.8 5064.79 5889.35 4394.56 5896.26 4275.07 5825.38 4185.61 4047.87 4917.99 4367.78 5417.8 5146.37 4836.16 4232.16 5300.96 5151.11 5680.94 5730.33 5545.46 5193.01 4543.1 6550.44 3860.83 8325.01 3764.06 4523.39 5278.56 5434.47 5829.22 5631.14 4243.79 5811.18 5433.65 4008.15 4887.76 4811.32 4286.49 6184.88 5829.32 6405.0 5551.95 3918.87 5789.55 2275.45 4633.05 4901.2 4383.56 4990.79 3562.79 4516.53 4122.92 3604.14 5381.54 4452.54 5810.77 2711.19 5474.15 4028.32 4099.92 3858.06 4511.7 4478.6 4304.63 5263.27 6300.92 4173.54 5599.29 6038.68 5046.12 4807.4 7013.17 3805.67 4590.01 6101.86 6506.86 5580.34 3852.6 5966.42 5775.31 4706.5 5354.66 4647.67 5375.12 4356.36 4892.44 5578.94 7610.49 4286.17 3684.56 6028.09 4172.6 3804.5 5498.42 3984.88 5318.53 4732.09 4281.98 7165.9 5344.83 5480.3 7509.24 4146.81 5388.78 6101.13 4573.72 5099.21 6969.28 5636.4 5698.96 4350.12 4095.75 5227.02 5670.0 4298.45 5222.51 6609.84 4344.51 5135.96 3834.43 3781.77 5658.37 5581.55 4707.06 6074.94 3474.5 4250.88 6348.03 5732.27 4792.39 5146.37 6917.62 4013.38 6137.8 4343.78 5263.3 3352.35 4909.65 6523.86 7693.4 4326.48 3994.07 4219.94 4437.07 5907.46 3449.37 5491.9 4264.91 4659.16 4909.31 6522.59 5711.62 4798.17 5166.79 5425.98 6479.39 2895.63 4997.91 5079.22 4599.81 4714.83 7519.2 6355.68 5484.36 3953.55 4277.24 4063.9 4469.54 4314.56 3928.53 5606.51 5740.65 3834.47 6349.67 6329.53 4227.41 5993.0 4803.57 4110.59 5131.15 3332.49 4847.14 3950.27 4214.44 5116.66 5378.23 4787.97 3746.36 4981.43 6789.23 3989.7 5069.89 4777.03 4157.29 4246.61 5452.36 4609.02 6486.37 4638.18 3344.57 6448.66 5220.76 6945.98 7046.11 3427.63 4449.98 4863.97 6342.48 4840.44 5756.75 5599.7 4587.67 4163.74 3665.95 4296.69 6238.32 3319.67 3603.51 5283.8 4076.59 4428.14 5164.1 6464.15 4972.17 5491.37 4222.77 3783.54 5268.38 3475.67 5527.23 4805.33 7038.89 3863.67 4814.12 5067.56 6069.3 2735.53 5116.6 3747.03 5388.39 2783.85 5335.47 4356.49 4526.81 6740.71 5399.29 5971.22 5533.19 6602.43 3568.28 6063.64 5996.66 4405.42 2995.67 3598.08 5522.21 5698.23 7300.58 3608.06 4923.57 6633.61 5217.95 4867.7 2279.05 4075.28 5291.05 5161.1 4619.2 5166.41 5067.56 2596.96 5701.75 4350.15 4139.3 3516.27 6541.45 4750.49 5078.31 5391.48 4923.43 5009.83 5210.38 5717.8 3629.44 3566.79 5374.67 3299.24 6246.56 4741.28 4215.2 6212.15 6813.72 5327.75 4896.65 4946.23 6083.28 4196.37 5211.6 4453.97 3556.79 5138.2 3503.41 5783.48 4701.5 4504.35 4771.65 5093.82 5951.81 3924.14 6918.35 4834.3 6804.79 6471.42 6372.13 5369.5 5404.01 6016.19 4124.49 4479.11 5714.25 6685.4 5699.53 4850.06 6332.01 7044.29 4234.18 7085.01 5980.95 6193.08 3862.77 5887.01 5168.35 3185.39 3728.18 5633.61 5048.19 4243.26 6799.23 4888.27 4592.15 6487.56 4854.11 4901.44 4998.22 5417.21 6104.26 5583.61 4986.71 7382.3 4022.56 3772.3 5522.75 4855.01 6208.9 3340.09 6061.63 6545.43 4829.35 6760.92 8137.11 5484.32 6650.77 4067.96 4824.12 7104.73 6162.3 3272.75 4264.54 7043.44 4263.78 4643.9 5228.75 6047.14 5003.78 4061.6 2603.64 5107.0 6502.97 4783.07 4852.58 5806.31 5456.71 7317.04 6412.67 7001.83 5012.97 4036.91 5589.37 5439.49 6639.64 5212.43 5454.12 6348.54 4066.57 5642.35 5156.76 6357.47 4891.38 5535.91 3230.13 5955.86 6176.67 5325.96 5412.24 5016.02 4920.21 4581.37 4049.16 5851.61 3936.95 6153.94 6836.82 3858.17 4631.99 4740.98 5128.77 7122.87 5797.36 4153.84 5119.86 5089.26 5084.17 3776.8 5096.43 6156.21 2460.79 4653.83 6171.71 3628.89 6589.82 4668.88 5027.43 5867.64 4438.58 6059.93 5602.53 5073.02 3472.91 4989.2 4711.04 7144.05 4506.18 2970.9 6542.5 4383.47 5971.21 6318.23 4206.98 5174.75 5932.07 6101.57 4793.65 2949.12 4532.89 4533.37 4848.46 5742.09 2779.99 2884.65 5887.38 5807.46 6942.34 3658.05 5478.11 4549.69 6423.81 5526.31 5030.15 6413.15 4058.87 6103.11 5048.55 4984.46 4024.31 5948.71 5844.72 3856.53 3992.97 5460.89 6040.74 5260.85 4054.22 7228.94 5393.65 4961.99 4648.21 4595.12 4393.16 3311.29 6484.43 6192.77 5416.45 6459.51 4955.16 4904.51 4147.31 5989.05 5751.15 5950.88 4441.22 5853.89 6551.93 4140.4 3110.13 4386.8 5446.4 4625.67 4725.01 3485.54 5966.75 3104.96 6735.97 5305.59 3636.15 4330.58 6114.89 5754.6 5135.63 3288.01 4355.83 6870.97 2202.77 5351.86 6056.87 5474.01 4149.55 6201.86 7554.58 3380.69 5166.89 3639.44 5491.63 5725.37 3868.62 4729.42 4844.83 5244.78 5652.87 5483.7 5018.69 6384.7 5952.38 3896.27 5807.52 5963.36 5230.02 5307.35 6016.08 4731.21 3124.7 6102.98 5138.33 3477.1 5769.14 4831.93 5493.89 5261.19 4811.22 4788.08 6379.14 5216.26 3687.65 4749.96 5377.37 5869.67 4311.48 4899.73 3152.86 5457.66 6394.19 5973.89 5518.11 5087.14 4342.18 5169.48 4743.9 6776.22 6064.71 3719.11 4467.13 6060.17 5934.82 5415.45 4385.81 6592.93 6350.71 5096.24 3381.82 7107.63 4023.93 5868.89 5494.28 4099.26 4834.39 3831.52 6106.43 6761.81 4918.76 4208.41 5826.78 2856.55 6214.73 4553.68 3758.22 4268.19 4532.7 3205.68 5561.74 6100.73 4908.75 6556.26 4593.7 4349.13 6818.91 3634.5 5478.95 3851.85 4019.34 4658.24 3623.19 4869.48 4906.11 4387.39 4564.1 5825.55 5509.51 4848.14 5366.22 6193.73 4316.5 3742.11 4192.21 5712.35 3597.43 5701.52 4158.91 5311.55 5321.17 3360.86 4869.25 5545.21 3877.8 6418.11 4501.78 4922.49 5039.12 4824.81 7307.21 5135.5 5788.97 5007.21 5545.59 5206.47 4057.17 7066.96 4263.65 5467.63 5666.95 4127.53 5210.75 5175.89 5361.87 5232.85 6816.66 4473.29 3971.08 6204.65 4482.9 5513.8 3503.65 4392.65 5510.96 6653.07 4745.16 4584.81 5071.98 5719.79 3199.4 4371.08 5254.24 4968.14 4914.03 5086.29 5144.56 5139.18 4278.57 3034.16 5551.43 5049.99 4201.03 4333.87 4458.64 4312.15 3657.69 6015.02 3572.94 5001.58 4820.17 6456.58 5244.98 4034.05 6436.74 5366.11 4384.28 5944.3 5640.72 3619.72 4565.93 4504.52 5615.84 4464.73 6440.38 3274.85 4580.06 4835.97 6419.64 5262.47 4587.7 5196.92 5644.81 4807.35 4568.64 4642.2 6555.44 5293.75 6358.93 2205.51 3894.64 3703.49 4374.74 4757.2 5975.23 4745.79 4211.82 5470.04 6550.4 4891.67 4887.52 6631.28 5350.88 6571.31 5429.3 4944.51 5532.72 4697.91 3220.8 5179.17 5579.39 5270.51 5148.1 7261.51 5224.64 5949.73 4312.48 5527.13 6370.33 5081.08 6318.25 6864.06 5001.87 3644.78 4883.63 4078.93 3814.65 3886.72 7778.01 5127.82 5690.96 5798.38 3862.91 3419.87 4456.26 3908.98 4027.33 5113.6 6328.42 3563.14 5851.63 4954.81 5610.53 5755.15 3926.11 5464.83 5414.58 2781.96 4991.35 3512.94 4994.65 5601.55 5334.36 5750.35 4489.99 3683.86 5658.14 5473.72 7124.45 5144.44 2617.39 4062.56 5034.69 4198.94 3217.67 5079.64 6003.78 5684.25 5438.92 3766.69 5110.11 5188.53 4882.66 4521.75 4027.63 5603.68 4526.34 5610.95 5042.75 4598.92 5241.22 4979.52 5490.75 4407.79 5214.63 3495.68 5783.94 7362.42 4202.77 5836.14 6008.81 5510.9 4583.52 4505.28 3492.83 5585.14 7039.98 6006.89 5792.98 4983.3 5910.86 6239.68 5805.1 4456.11 5782.43 4810.98 5026.76 5091.22 6282.38 5212.92 5556.0 5748.9 3742.31 4608.34 5695.79 3622.8 4431.23 4467.0 4258.98 6545.99 3903.91 4929.6 3919.62 4368.28 4945.0 4548.45 5730.61 4508.18 5064.67 3717.47 5969.37 4928.35 4509.46 6163.54 5212.37 3538.53 996.652 6500.49 4244.49 5036.98 4120.07 4813.33 3840.21 5569.2 6746.66 5420.67 5635.32 4827.61 4316.45 5409.08 5481.64 5673.75 5360.67 6647.08 6263.3 3422.29 4501.05 4537.03 6548.29 3990.96 5352.24 4326.06 5034.46 5793.12 5469.17 5473.05 4373.2 6711.21 6280.13 5244.22 5832.29 4438.76 4960.64 5401.4 5053.15 5124.17 7320.78 4234.88 4708.31 3873.92 4092.07 5347.9 5657.55 5727.79 5188.82 5043.14 4717.73 5072.5 4749.18 3663.0 4546.96 6304.49 4420.6 4475.38 5287.25 5917.34 5740.98 4728.55 4554.68 4658.11 4551.26 5114.07 7142.95 4559.74 4383.68 6618.21 4504.86 6200.63 4583.94 1937.5 3844.54 4337.32 2628.22 5965.58 3352.34 5058.51 4901.29 4050.03 4952.52 3429.57 5410.33 5661.6 6099.28 5285.75 5385.03 4169.15 4778.37 5134.17 5968.54 4904.35 5592.54 3247.97 5124.34 4114.2 4904.37 4358.81 4651.64 5757.29 5016.46 6224.13 5061.75 3769.24 3743.76 5153.18 3425.69 4971.29 2606.51 3864.92 6119.99 4159.81 4446.58 5372.82 4402.17 4775.49 4681.29 5749.6 3845.9 4174.44 4834.44 4213.05 4224.3 4928.85 4316.0 5424.55 5134.72 4770.51 3787.08 4462.87 5630.9 6139.64 4140.92 4585.04 6570.35 4242.63 7407.91 6666.67 6063.44 5046.31 5849.53 4680.69 4420.11 5863.0 4802.98 4833.55 7224.99 3242.31 4898.29 5372.25 5730.2 3234.26 4830.13 3494.16 5370.9 4074.16 4529.77 4325.13 6172.27 5390.33 5078.73 5278.54 5729.0 5729.92 5275.57 4179.87 4786.66 4761.84 3661.67 5510.45 4730.14 3994.39 5906.57 5499.59 5667.51 6331.74 4198.9 5431.29 5325.91 5235.87 4700.07 5273.37 3904.07 5553.94 6502.99 4392.75 4921.1 4191.01 5577.41 6511.37 4012.92 4218.16 4933.49 4692.32 4474.83 5236.24 3127.83 3269.54 4051.18 4651.99 6127.39 4972.18 5329.76 4124.76 7200.89 3908.56 5265.63 5684.88 4431.06 6523.78 4645.86 5620.88 4941.52 5900.0 4262.74 3783.79 4248.14 5317.19 5279.19 4016.6 5192.92 7050.08 5891.25 5370.1 5902.67 5393.76 4236.86 3684.15 7123.04 4128.1 7541.76 4932.29 4990.23 3784.94 4506.66 4439.71 4141.21 4064.58 4833.67 5157.38 4646.51 4546.44 6203.03 4732.37 5713.36 4704.92 4287.25 3987.69 3814.16 4589.06 4216.44 3999.5 4346.07 4013.86 6102.49 5836.26 6015.22 6061.85 6449.06 5241.75 4731.53 4577.73 5640.12 4147.49 5760.98 4954.76 4642.74 5764.52 4390.64 4045.67 4608.01 6005.95 4308.49 4930.17 4581.1 6241.77 4085.96 5762.82 7360.12 6223.98 5821.49 5617.29 3035.06 5580.44 4262.19 5998.13 4597.88 4763.4 5454.11 6010.59 2955.36 4618.73 3220.29 5426.4 5951.86 5023.41 3791.41 952.938 5702.4 4184.21 5473.89 6089.45 5265.21 4985.3 4966.07 4400.14 4666.12 6219.34 4920.88 4177.47 2918.64 5345.73 4770.63 5678.58 4385.49 5114.23 5495.0 5512.44 4454.74 4826.52 2904.46 4685.4 3763.9 4288.45 5419.57 4081.34 5384.86 3770.22 3402.44 4848.98 5150.84 5184.98 5087.97 5339.82 4519.03 5460.57 5110.27 4745.44 4612.68 6649.52 4232.33 5462.6 4747.68 5770.92 3093.38 5095.52 4878.93 2002.78 4941.02 5806.61 3682.35 5182.13 3965.3 6110.48 5515.73 4125.9 4564.41 5247.01 5853.12 4841.7 5810.17 3450.07 4657.24 4271.07 5674.63 5340.05 5759.79 4639.8 4212.15 4263.18 4489.29 4301.93 4924.07 5120.92 3200.6 4918.64 6206.98 5162.67 4636.53 3646.95 5537.61 6084.88 4491.96 4199.44 4397.06 4467.51 4479.5 6261.67 3435.13 5065.78 5703.34 4521.42 6668.98 3977.98 6043.34 4939.56 4128.93 4959.72 4712.17 4845.91 4723.71 4461.67 5784.37 3142.09 3954.77 6793.1 6016.87 6715.73 5209.55 4678.7 3306.84 3484.81 5308.33 6710.14 4598.54 4896.43 4462.35 6638.25 5078.59 4775.04 2403.72 3228.27 4721.98 5252.82 3543.98 4053.12 5056.26 5878.55 4014.44 6604.72 6002.77 4431.46 3794.47 4610.55 3207.84 4967.02 4614.49 5400.69 4462.5 5573.31 5004.68 3808.04 4023.88 4405.61 5348.11 6273.6 5003.3 3668.93 4009.24 3756.96 6245.52 5077.29 6740.35 4550.92 6023.07 6506.63 5995.4 5218.42 5188.22 4512.07 4196.62 5984.8 3986.41 3469.18 6240.42 5146.0 4788.7 4607.18 3956.24 7558.99 4142.1 5043.14 5333.04 5445.91 4521.99 4812.59 6842.54 7115.67 5675.45 3361.11 6038.56 2807.46 5599.16 4179.8 3488.34 5658.35 5428.24 5684.05 5800.81 5166.05 3125.13 7035.54 5866.91 6019.35 6075.99 5191.26 4184.47 4841.23 2804.54 3372.95 5819.0 6347.72 3460.93 6334.53 5580.95 3549.92 3393.59 4032.06 5246.81 5089.1 5888.95 5394.78 3463.34 5122.38 2853.68 5262.85 5329.84 4998.37 6559.82 3879.83 6565.95 4577.98 5886.81 4708.17 2741.2 3779.45 5167.53 5763.05 5357.39 4252.18 6296.54 5797.21 4208.37 3825.48 5124.86 4629.02 5469.35 5117.64 4313.38 6598.99 5250.56 3633.58 2468.16 6294.14 4339.97 5203.75 5169.09 4691.15 2459.88 4210.24 5470.67 5901.71 5342.9 5225.11 5252.22 5733.12 5043.34 6436.29 5136.87 7145.73 4168.52 5233.76 6405.69 3669.32 4762.1 4140.04 3495.3 5890.25 5700.79 4726.2 5034.05 4816.51 4711.15 4658.59 3810.68 6478.35 3990.94 4756.8 5477.8 5463.06 4176.32 5260.52 3185.09 5532.75 4241.68 6949.65 2945.34 5676.61 5846.95 5064.23 5268.15 5701.63 4603.04 4870.94 4620.95 5368.93 4488.39 4927.73 5914.5 6006.16 5721.14 4608.62 5407.96 5084.5 4987.28 4071.75 6562.03 4815.47 4759.99 3899.7 5134.33 5214.4 3629.49 5766.05 4705.68 5695.44 3916.42 3835.81 2832.83 5827.3 6036.99 3010.1 3825.98 4589.22 5087.03 4667.84 3906.41 4123.08 4512.6 4260.38 4636.45 4932.27 6793.49 6060.19 4962.35 4493.79 4932.56 5638.7 4279.44 5024.32 5813.79 4644.88 5790.42 4983.1 7350.26 5591.77 6224.85 4556.19 5403.97 4795.08 5106.46 6562.92 4068.31 3671.06 3612.44 4983.43 4850.5 4683.28 6549.8 2820.07 5129.68 4825.73 5076.84 4659.88 5288.33 5811.26 4871.77 5062.77 5685.74 5069.9 4884.93 6028.63 3673.6 5146.1 6215.87 6485.77 6060.06 5866.42 5544.27 5393.43 6896.55 4685.65 5377.01 6470.23 5939.22 4668.8 4271.93 4215.05 5322.11 5125.17 4697.49 4859.01 4604.1 5735.08 5524.45 7133.44 4426.02 3953.26 4750.81 4282.11 4474.39 5467.51 5459.92 4625.53 5453.77 4096.47 4357.11 5005.6 5114.67 5486.89 6069.78 5589.53 7208.19 4549.51 3587.93 5196.08 4975.85 4517.29 4095.83 5695.25 5323.95 4495.75 6171.01 5716.42 6229.83 5796.26 4468.26 4523.81 5578.18 5293.37 5271.88 5933.54 6121.56 5559.79 7168.2 4602.57 3419.07 4571.74 3763.85 3565.32 5740.78 5710.33 4096.86 4796.12 3622.48 5344.44 5001.51 6432.8 4626.72 5115.42 5549.71 5131.77 3186.07 4410.82 4369.86 4967.51 4368.12 6443.99 2646.13 4365.58 3889.98 5193.58 3720.7 5399.43 5490.64 5034.34 5698.53 3769.2 3422.21 4507.46 5036.14 3468.45 4474.96 4758.76 4084.87 4790.63 5259.29 3584.05 4916.75 4818.53 5097.85 5584.64 6189.04 6224.64 4221.03 3799.55 5638.51 5082.66 4550.77 3563.33 4337.93 3550.88 5536.0 6786.37 5537.34 5884.99 3667.93 5192.49 3487.31 4899.19 6643.4 4674.9 5058.34 4028.22 3918.94 3392.26 5575.11 5293.13 5487.63 3852.82 4507.36 5138.93 3768.46 6945.69 6406.8 7086.69 5648.78 5368.66 6875.73 5501.73 4436.48 4697.24 5226.42 6081.3 5615.35 5117.52 3967.76 6311.89 4217.36 6734.39 5679.74 5942.45 4851.18 4150.76 4228.53 4165.36 6123.46 5368.52 5005.72 5155.28 5205.38 5388.73 4764.83 1969.87 3132.34 4949.55 4600.71 3957.38 5262.79 4494.15 5927.2 5035.71 4710.88 4419.79 5300.17 5407.69 5152.78 3869.39 5960.5 5534.23 4117.9 4753.76 6025.77 4638.09 4781.9 6815.96 4441.91 5339.6 5330.26 5828.25 5917.08 4725.11 5483.37 3626.86 5418.12 6371.96 5322.07 5076.11 5990.75 5600.21 4984.17 4656.01 5781.62 6589.13 4037.86 2347.41 5602.62 3543.37 4542.16 2030.03 2809.19 5628.97 4916.7 4104.04 5353.66 2638.82 5030.33 5593.79 5025.42 4965.24 5234.2 6379.38 6257.79 5327.05 5438.55 4849.5 5353.23 4434.65 5977.66 5209.5 5106.33 5065.74 5791.25 5198.94 4873.23 4028.35 6731.89 5464.05 5879.24 2980.31 5410.6 3148.79 6348.93 6824.53 5997.91 4332.64 5385.86 4742.82 6791.86 4082.4 4209.0 4820.68 5482.76 5173.82 3745.02 7212.97 6297.99 4211.36 5378.24 3604.31 3856.73 4450.49 5817.74 5887.71 5367.05 5647.11 4088.72 3945.62 3743.85 6236.46 5342.17 6379.3 5015.67 3795.63 5189.4 4576.71 6538.04 4894.15 6157.59 5201.3 4345.51 4048.73 6223.33 6022.78 4087.32 4009.68 6647.85 5726.42 2569.12 7025.09 2549.95 4433.12 5461.72 4361.24 7336.37 6599.28 5099.9 2960.5 4975.32 5118.86 4298.7 3902.48 4183.4 4304.64 6030.39 6170.9 4733.79 5833.78 3799.01 4823.06 5758.98 5254.49 5288.64 6213.24 6883.86 5987.88 3579.59 6161.94 4065.28 6142.88 5057.59 4461.14 5111.26 5285.6 4574.54 5575.11 5490.54 5615.06 4841.28 5203.54 4047.95 5507.38 6142.94 6889.5 4416.87 5001.69 6581.56 4057.4 4052.43 3980.46 4896.67 5383.9 3934.11 5158.44 3886.56 4466.22 4496.51 6153.71 6561.94 5259.21 5092.93 5934.05 2803.01 5770.07 4714.66 4444.0 5101.6 6771.18 6182.19 5327.39 7415.84 4981.81 4138.59 5714.51 4970.55 4938.33 4484.78 4621.33 5527.27 5104.39 4612.13 5847.91 4934.66 5846.6 4109.44 4903.84 4290.49 4557.1 6688.53 4605.39 5927.1 6175.27 5876.51 4103.76 4286.61 4094.63 4733.41 2932.52 5264.83 4603.66 5453.2 4969.68 5136.51 3901.53 6815.51 5232.16 4422.23 4457.05 3989.26 6031.22 3618.64 4930.72 5485.84 5728.58 6424.77 4887.73 4335.79 5453.69 5918.95 5432.04 4538.89 5689.56 6556.86 4449.73 5848.41 4090.28 4246.83 5517.65 5114.51 5129.4 3303.49 4655.37 4161.32 4622.73 5585.25 5256.75 5161.74 6351.89 5932.28 5560.23 5783.38 4139.39 3043.77 5237.55 3909.94 5088.64 6589.8 4905.53 4151.74 6920.92 7392.65 3729.16 5319.1 3783.36 3757.23 6828.8 4181.93 6570.43 3350.99 3820.19 4979.5 5236.69 4586.82 3133.28 4745.37 5939.29 6200.05 5418.98 4034.41 5859.17 4052.49 5061.74 5326.03 5522.34 6189.67 4420.35 5717.45 4948.96 5256.82 4013.86 4061.87 4645.93 5165.31 5448.64 3798.09 4585.37 4288.5 6417.61 5715.51 3721.69 4511.05 3456.3 6074.39 5317.83 4256.08 5881.93 4399.52 4460.89 4554.24 3939.96 4867.12 5910.66 6520.19 5141.03 4637.3 1458.87 4840.44 8123.59 4819.83 5765.14 4767.54 5157.73 4541.22 4946.08 4984.01 3539.68 4696.03 6217.33 6177.68 4698.7 6270.59 2848.44 6045.26 6500.45 4907.55 5084.76 6666.34 6605.11 4757.87 3557.46 6636.43 5431.14 5313.86 6298.8 3689.24 5178.07 5189.91 5151.19 5777.26 4171.02 5703.84 7012.36 3530.82 5797.32 5028.06 4886.99 4002.99 5159.67 3921.27 3161.1 3702.45 4746.15 6275.25 3720.38 4758.84 4731.37 5023.61 3976.0 4672.86 6530.78 6463.71 5059.37 5009.21 4742.35 4574.03 5394.79 5290.37 5645.54 5850.38 6264.03 5264.08 4526.87 3562.8 4227.66 4691.01 5192.82 4174.22 3573.84 3038.91 4067.89 3922.28 6294.09 4571.57 5131.07 3445.92 4121.07 4197.87 5524.28 5105.54 6026.04 5731.43 6353.81 3518.14 3414.67 5444.36 4150.44 5044.68 5771.98 5899.78 2649.69 5000.74 5117.83 5772.57 5268.27 4813.81 3882.37 5244.95 4634.25 5901.8 6351.48 5395.12 5783.69 3830.7 6210.0 5432.4 3483.61 5350.9 4262.52 6738.9 5992.06 4157.1 8052.53 4970.12 6044.01 6369.66 5973.57 5734.07 6241.48 3997.68 6033.28 5957.82 4801.16 6286.27 5071.38 6327.54 5121.08 2927.84 5616.66 5688.77 4802.36 5368.28 5466.13 6229.64 4220.43 6263.87 5075.23 4975.56 5743.8 7282.36 3826.01 4645.91 5581.01 3928.99 6834.92 6379.33 5130.57 5971.95 5652.73 3979.46 6321.97 3985.93 6412.84 6509.54 6119.0 3792.06 5128.59 4993.49 4293.3 5587.3 3572.73 4864.38 6583.37 3688.83 5631.32 6892.33 4505.3 4491.26 5793.14 4452.36 4609.65 4511.34 4068.41 4832.21 5410.73 4379.91 4942.63 6139.74 4975.57 7066.26 3057.3 4730.97 4594.89 5245.95 3677.85 5821.42 4515.02 3463.53 4924.52 6126.03 2970.24 5314.67 6044.69 5563.47 5658.05 6593.1 4000.51 5462.1 6032.45 5011.37 4026.03 6908.32 3467.11 4817.75 6153.26 5637.53 4848.15 5523.81 4095.4 5648.59 4718.61 5188.57 3873.79 5357.33 5717.67 5252.37 5515.59 3224.81 4499.54 5037.58 7430.48 5640.67 5545.68 6080.69 5555.89 4967.93 4766.47 4871.1 5678.08 5922.62 5872.45 4414.09 5125.45 3784.68 4188.16 3717.22 6305.9 6649.21 5507.07 2943.17 4654.92 5327.71 4880.78 4322.56 5257.38 5509.09 5625.02 5212.05 5479.86 4829.77 4444.92 6959.88 4125.75 5971.9 5749.53 5090.48 5247.73 5402.45 5034.02 5582.28 5945.25 6071.59 2589.19 3856.4 6079.55 5485.61 4137.16 4937.36 5308.4 5310.33 4569.32 6126.5 6322.0 6345.2 6007.1 5488.96 5704.61 3188.21 5128.03 3720.92 4793.06 5087.3 6637.38 6188.33 6111.23 6916.18 6150.31 5873.62 5214.71 4996.91 4677.84 4811.11 3920.44 5379.52 4450.51 4866.8 3851.47 4966.74 5651.46 4959.94 1635.31 4066.36 5639.4 3162.27 6033.93 4083.24 5516.37 2827.92 5092.44 4441.44 5432.2 4232.44 5336.61 3312.3 4612.4 5563.09 6381.58 4439.09 3282.57 4798.13 5212.2 5108.42 6697.45 4630.5 6296.36 4432.32 4451.76 7885.41 3775.38 4046.22 5782.25 6457.89 4844.2 6572.17 3751.73 6118.13 3374.62 4926.62 4420.3 6332.64 3917.09 6009.93 6492.44 4083.1 4613.32 5270.1 3482.73 5191.29 4947.64 4063.26 4957.99 5345.05 4997.89 4542.62 3470.69 4859.95 5286.55 5522.18 5223.1 3873.72 4850.49 4981.55 4592.49 3625.98 6188.62 6474.5 4702.32 4414.06 4763.04 3746.62 4413.56 4532.67 4876.37 5316.05 2513.38 4769.62 4908.32 5260.13 3995.08 4649.5 5019.84 5181.31 4696.06 5985.75 5475.83 6189.29 4149.17 5984.55 4329.8 6581.13 5803.3 4034.88 5108.84 4582.12 3511.5 4295.25 4520.14 5067.92 5357.14 5919.27 4850.95 5374.09 6271.22 3421.81 5378.75 3920.64 6186.24 5822.7 5786.06 3780.07 4137.41 3868.69 5466.49 5447.74 5007.41 6033.72 3768.62 3692.99 6213.74 2329.93 4369.87 6938.87 5412.07 6185.73 4806.99 6520.96 3771.91 5856.43 5217.62 3465.03 6178.19 4746.19 4616.81 5715.25 4362.94 4611.21 6545.78 4469.82 4870.14 3354.94 4404.87 5237.27 5767.65 4750.76 5003.49 4907.03 4104.97 5497.27 4575.72 4081.77 5114.61 2181.29 4987.01 4706.31 4202.12 2694.25 4735.99 4739.56 4203.68 5145.39 3996.93 5130.56 6351.95 5195.09 5200.1 7679.2 5093.28 4881.51 6131.52 4132.08 4311.92 6009.88 4699.77 5093.41 5144.23 6842.35 5464.34 6153.07 3621.63 5801.89 5908.57 5944.52 7296.47 5050.2 4821.41 4924.53 5616.11 4499.52 3874.12 4810.74 4028.13 3900.93 5784.38 4457.73 6476.35 6260.58 4067.24 5728.27 3053.19 5672.46 5202.33 3074.49 4487.51 6805.02 5354.48 7394.47 4729.45 6261.13 4167.55 4720.34 5244.47 4865.11 4731.16 5510.89 6470.87 4495.33 5282.67 4159.89 5178.55 5747.9 4038.17 5146.69 4907.48 6818.23 4488.41 6679.12 5652.19 5512.57 5806.74 6578.62 3878.8 4813.55 6284.12 4796.04 3839.0 5229.56 5349.85 5799.86 5172.1 4672.34 6052.22 5376.41 5003.63 2932.2 4695.7 5105.72 4944.08 4082.01 5269.39 3964.03 4216.33 5832.72 5617.91 4948.21 4444.95 5161.02 4721.2 3124.49 6265.48 5003.81 6262.18 3818.37 4701.03 3352.46 5434.04 5125.53 3997.52 4444.54 5779.9 2626.41 4909.74 5310.33 6729.99 6664.54 5161.73 3922.98 5259.48 4777.96 5254.93 4803.4 6833.5 6608.94 5742.39 2613.78 4780.16 3834.01 4433.23 5738.37 4813.24 5759.19 5847.27 3113.64 4490.2 4304.75 5480.86 6139.9 6571.26 4246.24 4919.13 4600.81 5640.63 5168.97 4900.26 4358.06 5783.88 5093.51 5002.38 6705.93 6201.49 5449.09 5502.14 4605.61 4465.56 4131.08 5386.95 3864.19 4287.93 5332.11 5315.71 6203.24 6158.93 5081.65 4823.14 5438.5 4621.32 5699.4 5237.76 4698.94 4286.84 3948.21 5669.15 5296.05 6011.4 3330.85 5056.32 5533.52 5410.33 4747.24 4380.86 4909.13 5576.16 4305.35 5648.02 3308.75 5210.22 2451.27 5677.42 3903.9 4929.35 5606.22 3943.77 5242.38 6081.35 5459.52 4609.98 5566.5 5663.36 4752.31 6225.05 5240.97 5579.04 4276.59 5405.6 5994.21 5403.81 5082.25 4759.38 6964.78 4374.05 5299.03 5036.84 4565.36 5813.68 4025.08 4008.67 5040.9 3618.53 4770.21 8013.28 3846.55 3796.73 5417.07 3082.16 5656.84 2892.36 5981.54 6789.66 4739.41 5312.2 4706.59 5734.84 5551.79 3982.31 4950.07 4720.22 5402.81 4333.23 5561.63 4328.76 4124.33 5940.5 6568.45 5004.22 5647.93 4280.92 5154.74 4696.92 6437.99 6898.8 6632.04 6540.57 4893.72 6004.72 4072.4 5373.78 5345.65 4489.18 5863.36 4632.75 4752.94 4994.98 3950.53 6423.96 6058.13 5894.69 5263.86 6988.4 6635.51 4060.17 6051.35 5302.53 5543.67 4287.61 4867.13 4604.34 4439.17 2701.42 4502.12 5442.79 5051.39 6673.92 5151.68 4633.59 4884.94 5733.59 5362.15 4455.61 4738.72 3695.72 6874.6 5106.9 5569.85 5523.96 3929.35 4223.53 4884.93 4733.37 6960.97 4287.15 5282.51 5504.65 5669.41 5732.11 3919.47 5596.68 4868.66 5159.9 4004.39 5283.65 4644.68 4987.48 5943.61 4248.58 5911.29 5416.41 4694.27 6760.64 2515.5 4849.21 5177.88 3793.83 6981.47 4582.24 3916.15 5145.13 3860.8 3747.96 5611.29 4726.5 4521.88 5103.3 4601.54 4963.88 7263.57 3832.09 4122.2 5705.96 5267.65 5739.69 4790.16 3509.34 5360.88 7360.62 4985.45 4977.64 4983.56 5699.51 4714.52 2489.44 4587.19 5499.37 4883.13 4836.76 5551.09 5755.98 4501.1 5581.47 4384.91 6550.61 4987.01 4277.54 4713.56 6094.34 6779.82 4739.5 3999.81 6210.48 6377.45 4863.27 4182.05 3255.93 6853.07 6327.61 5575.8 5268.93 5306.31 4535.94 3037.72 4523.9 5126.08 5604.0 3760.4 4951.02 4602.7 3783.35 4037.16 6395.63 5479.17 5020.37 4542.25 4414.23 5233.88 4785.55 5245.4 6189.81 5438.6 7370.52 5467.05 3724.23 5888.94 4727.98 5175.88 4516.26 3647.26 3731.58 3166.37 5369.42 5207.08 5205.53 5543.05 6028.89 5333.16 4888.17 5392.85 5077.2 4274.05 5275.27 5529.09 4531.46 5925.82 5448.68 4072.95 4491.62 3865.5 
SCALARS Velocity float 1
LOOKUP_TABLE default
1.19192 1.19183 1.19193 1.19195 1.1919 1.19185 1.19178 1.1918 1.19183 1.19189 1.19195 1.19186 1.19187 1.19178 1.19189 1.19188 1.19177 1.19187 1.19178 1.1918 1.19178 1.19178 1.19182 1.19178 1.19178 1.19179 1.19178 1.19178 1.19177 1.19184 1.19182 1.19178 1.19178 1.19177 1.19178 1.19178 1.19178 1.19178 1.19178 1.19181 1.19182 1.19185 1.19185 1.19185 1.19183 1.1918 1.19177 1.19181 1.1918 1.19178 1.19184 1.19178 1.19177 1.19191 1.19186 1.1918 1.1918 1.19182 1.19178 1.19183 1.19177 1.19187 1.19186 1.19178 1.19177 1.19178 1.1918 1.19179 1.1919 1.19187 1.19178 1.19197 1.19184 1.19177 1.19178 1.19179 1.19178 1.19183 1.19174 1.19193 1.1918 1.19194 1.19195 1.19188 1.19181 1.19182 1.19192 1.1919 1.19186 1.19189 1.19178 1.19184 1.19184 1.1919 1.19182 1.19181 1.19178 1.19177 1.19183 1.19192 1.19201 1.19185 1.19187 1.19184 1.19181 1.19207 1.19196 1.19184 1.19188 1.19193 1.19194 1.19187 1.19189 1.19191 1.19189 1.19178 1.1918 1.19177 1.19178 1.19183 1.19178 1.19178 1.19179 1.19178 1.19187 1.19178 1.19185 1.19178 1.19178 1.19178 1.19179 1.19178 1.19178 1.19178 1.19178 1.19179 1.19182 1.19185 1.19186 1.19186 1.19185 1.19183 1.19181 1.19179 1.19183 1.19181 1.19184 1.19184 1.19176 1.19187 1.19191 1.1918 1.19177 1.19191 1.19184 1.19182 1.19182 1.1918 1.19191 1.19205 1.19204 1.19177 1.19178 1.19183 1.1918 1.19189 1.19187 1.19178 1.19199 1.19185 1.19178 1.19178 1.19184 1.1918 1.19196 1.19176 1.1918 1.19191 1.19201 1.19204 1.19194 1.19192 1.19192 1.19192 1.19181 1.1918 1.19194 1.19177 1.19187 1.19176 1.19192 1.19187 1.19192 1.19178 1.19183 1.19174 1.19186 1.19196 1.19177 1.19185 1.19183 1.19186 1.19184 1.19183 1.19182 1.1918 1.19178 1.192 1.1919 1.19199 1.19194 1.19198 1.19188 1.19179 1.19189 1.19183 1.19179 1.19196 1.19178 1.19183 1.19178 1.19178 1.19179 1.19178 1.19187 1.19178 1.19184 1.1918 1.19186 1.19178 1.19181 1.19178 1.19176 1.19181 1.19178 1.19181 1.19182 1.19185 1.19186 1.19188 1.19186 1.19183 1.19181 1.19179 1.19183 1.19178 1.19185 1.19184 1.19178 1.19187 1.19191 1.1918 1.19176 1.19177 1.1919 1.19184 1.19182 1.1918 1.19193 1.19212 1.19184 1.19179 1.19187 1.19192 1.19184 1.19191 1.19187 1.19185 1.19201 1.19185 1.19192 1.19184 1.19206 1.1918 1.19196 1.1918 1.19186 1.1918 1.19186 1.19203 1.19195 1.19191 1.1918 1.19194 1.19178 1.19194 1.19189 1.19193 1.19178 1.19186 1.19192 1.19213 1.1918 1.19184 1.19188 1.19176 1.19181 1.19205 1.19184 1.192 1.19186 1.19172 1.19182 1.19183 1.19178 1.19196 1.19193 1.19186 1.19191 1.19201 1.19201 1.19197 1.19187 1.19179 1.19187 1.19178 1.19178 1.19195 1.19183 1.19182 1.19185 1.19177 1.19179 1.19175 1.19187 1.19184 1.19184 1.19186 1.19181 1.19177 1.19178 1.19178 1.1918 1.19182 1.19181 1.19195 1.19186 1.19184 1.19185 1.19188 1.19185 1.19181 1.19189 1.1918 1.19184 1.19179 1.19184 1.19165 1.19189 1.19189 1.19188 1.19179 1.19178 1.19185 1.19192 1.19185 1.19188 1.1919 1.1919 1.19199 1.19216 1.19183 1.1918 1.19189 1.1919 1.19187 1.19178 1.19178 1.19206 1.19178 1.19219 1.1919 1.19202 1.19185 1.19182 1.19196 1.19179 1.19183 1.19203 1.1919 1.19188 1.1919 1.19192 1.19167 1.19197 1.19193 1.19187 1.19201 1.19182 1.19214 1.19183 1.1919 1.19214 1.19183 1.19193 1.19211 1.19179 1.19201 1.19208 1.19183 1.19199 1.19182 1.19185 1.19186 1.19183 1.19203 1.19193 1.19185 1.1919 1.192 1.19198 1.19198 1.19195 1.19184 1.192 1.19184 1.19164 1.19177 1.19196 1.19182 1.19184 1.1919 1.19188 1.19178 1.19182 1.19177 1.19187 1.19177 1.19184 1.19187 1.19182 1.19177 1.19199 1.19181 1.19177 1.19182 1.19181 1.19187 1.19179 1.1918 1.19185 1.19187 1.19185 1.19179 1.19187 1.19188 1.19182 1.19184 1.19177 1.19175 1.19181 1.19163 1.19183 1.19199 1.19186 1.19169 1.19195 1.19184 1.19187 1.19189 1.1919 1.19214 1.19183 1.1918 1.1919 1.19186 1.19186 1.19178 1.19177 1.19176 1.19199 1.1921 1.19203 1.19184 1.19174 1.19196 1.19178 1.19187 1.19194 1.19178 1.19183 1.19185 1.19204 1.19204 1.19194 1.19168 1.19191 1.19192 1.19193 1.19201 1.19195 1.19176 1.19217 1.19201 1.192 1.1919 1.19206 1.19184 1.19168 1.19188 1.19192 1.19186 1.19187 1.19174 1.19204 1.19188 1.19187 1.19183 1.19204 1.19178 1.19183 1.19188 1.19197 1.19198 1.19193 1.19182 1.192 1.19184 1.19158 1.1918 1.19178 1.19201 1.19194 1.19189 1.1918 1.19183 1.19186 1.1919 1.19182 1.19184 1.19187 1.19182 1.19173 1.19199 1.19181 1.19181 1.19182 1.19187 1.19178 1.1918 1.19177 1.19182 1.19185 1.19185 1.19182 1.19181 1.19189 1.19182 1.19178 1.19174 1.19181 1.19181 1.19179 1.19183 1.19179 1.19184 1.1918 1.19189 1.19216 1.19188 1.19207 1.19212 1.19181 1.19181 1.1919 1.19182 1.19174 1.19176 1.19176 1.19168 1.19198 1.19208 1.19187 1.19213 1.19178 1.19168 1.19196 1.19187 1.19194 1.19194 1.19178 1.19195 1.19208 1.19203 1.192 1.19202 1.19177 1.19192 1.19183 1.1919 1.19211 1.19215 1.19174 1.19202 1.19184 1.19197 1.19173 1.19192 1.19178 1.19187 1.1918 1.19178 1.19202 1.19188 1.19165 1.19182 1.19202 1.19187 1.19184 1.19195 1.19191 1.19182 1.192 1.19181 1.19189 1.19159 1.19181 1.19181 1.19171 1.19177 1.19178 1.19177 1.19182 1.1919 1.19187 1.19189 1.19184 1.19173 1.1918 1.1918 1.19182 1.1919 1.19188 1.19182 1.19183 1.19178 1.19178 1.19179 1.1918 1.19175 1.19182 1.19183 1.19186 1.19183 1.19183 1.1919 1.19182 1.19187 1.1917 1.19182 1.1918 1.19179 1.19183 1.19177 1.19174 1.19198 1.19202 1.19186 1.19204 1.19207 1.1921 1.19182 1.19185 1.19193 1.19182 1.19163 1.19174 1.19168 1.19178 1.19185 1.19272 1.19204 1.19172 1.19177 1.19175 1.19205 1.19196 1.19174 1.1919 1.19177 1.19194 1.19186 1.19208 1.19189 1.19195 1.19186 1.192 1.19232 1.1921 1.19215 1.19211 1.19188 1.19168 1.19198 1.1918 1.19195 1.19173 1.19191 1.19174 1.19185 1.19178 1.19191 1.19177 1.19189 1.19166 1.19181 1.19178 1.19178 1.19175 1.19183 1.1919 1.19164 1.19189 1.19188 1.19197 1.19175 1.19198 1.1918 1.1918 1.19172 1.19184 1.19169 1.19187 1.19195 1.19182 1.19183 1.19181 1.19179 1.1919 1.19179 1.19182 1.19174 1.19184 1.19178 1.19184 1.19167 1.19178 1.19181 1.19182 1.19185 1.19181 1.19181 1.19189 1.19184 1.19191 1.19172 1.19205 1.19176 1.19176 1.19183 1.19171 1.19176 1.19183 1.19206 1.19181 1.1919 1.19203 1.19207 1.19206 1.1918 1.19215 1.19205 1.19246 1.19173 1.19216 1.19178 1.1917 1.19185 1.19203 1.19198 1.19189 1.19152 1.19178 1.19204 1.19196 1.19188 1.19176 1.19193 1.19181 1.19184 1.19206 1.19189 1.19196 1.19189 1.19184 1.19193 1.19214 1.19196 1.19186 1.19168 1.192 1.19188 1.19187 1.19177 1.19197 1.19186 1.19188 1.19163 1.192 1.19177 1.19202 1.19202 1.19179 1.19185 1.19178 1.19172 1.19178 1.19188 1.19166 1.19169 1.19183 1.19183 1.19178 1.19179 1.19177 1.19175 1.19171 1.19186 1.19176 1.19163 1.19201 1.19188 1.19182 1.19181 1.19175 1.19175 1.19186 1.19182 1.19179 1.19183 1.19174 1.19182 1.19167 1.19177 1.1918 1.19182 1.19186 1.1918 1.19181 1.19189 1.19183 1.19189 1.19182 1.19201 1.19179 1.19197 1.19178 1.19188 1.19175 1.19186 1.19205 1.19181 1.19178 1.19197 1.192 1.19201 1.19182 1.1921 1.1921 1.19218 1.19208 1.19229 1.19207 1.19173 1.19154 1.19195 1.19194 1.19185 1.19152 1.19204 1.19177 1.192 1.19182 1.19188 1.19176 1.19191 1.19183 1.19178 1.19186 1.19201 1.1919 1.19184 1.19189 1.19192 1.19205 1.19194 1.19193 1.19178 1.19183 1.19201 1.19189 1.19186 1.19181 1.19196 1.1919 1.19157 1.19176 1.19199 1.19176 1.19205 1.19188 1.19176 1.1916 1.19165 1.19171 1.19169 1.19172 1.19186 1.19157 1.19177 1.19195 1.19177 1.1917 1.19178 1.19184 1.19182 1.19173 1.19191 1.19184 1.19163 1.19178 1.19188 1.19179 1.1918 1.19173 1.19174 1.19185 1.19182 1.19179 1.19185 1.19179 1.19175 1.19173 1.19165 1.19178 1.1918 1.19179 1.19178 1.19174 1.19177 1.19182 1.19178 1.19178 1.19179 1.19182 1.19187 1.19178 1.19177 1.19214 1.19148 1.19206 1.19204 1.19184 1.19178 1.1919 1.19198 1.19227 1.19233 1.19205 1.1921 1.19209 1.1922 1.19207 1.19182 1.19213 1.19213 1.19168 1.19159 1.19164 1.19193 1.19194 1.19186 1.1913 1.192 1.192 1.19175 1.19189 1.19183 1.19194 1.1918 1.19127 1.19198 1.19184 1.19186 1.19191 1.19185 1.1919 1.19163 1.19195 1.19192 1.1919 1.19167 1.19204 1.19158 1.19189 1.19161 1.19161 1.19179 1.19197 1.19175 1.19179 1.19212 1.19188 1.19175 1.19171 1.19173 1.19162 1.19171 1.19191 1.19206 1.19209 1.19177 1.19189 1.19175 1.19178 1.19173 1.19184 1.19182 1.19172 1.1918 1.19191 1.19187 1.19182 1.19167 1.19185 1.19179 1.1918 1.19172 1.19171 1.19184 1.19181 1.19179 1.19185 1.19178 1.19175 1.19176 1.19187 1.19191 1.19175 1.19193 1.19178 1.19179 1.19185 1.19171 1.19172 1.19177 1.19181 1.19178 1.19179 1.19177 1.19183 1.1919 1.19184 1.19172 1.19214 1.19232 1.19142 1.19172 1.19198 1.192 1.19196 1.19184 1.19215 1.19223 1.19194 1.19233 1.19212 1.19204 1.19205 1.19211 1.19187 1.19133 1.19214 1.19158 1.19133 1.19149 1.1919 1.19184 1.1917 1.19197 1.19205 1.19173 1.19168 1.19178 1.19185 1.19185 1.19208 1.19175 1.19153 1.19185 1.19162 1.19206 1.19182 1.19185 1.19188 1.19186 1.19187 1.19179 1.19186 1.19178 1.19169 1.19178 1.19207 1.19165 1.19187 1.19161 1.19178 1.19195 1.19106 1.19202 1.19215 1.19196 1.19198 1.19165 1.19182 1.19175 1.19162 1.19175 1.19193 1.19184 1.1917 1.19175 1.19174 1.19173 1.19169 1.19176 1.19183 1.19182 1.19178 1.19176 1.19175 1.1918 1.19186 1.1919 1.19176 1.19171 1.19169 1.19183 1.19181 1.19179 1.19186 1.19177 1.19178 1.19191 1.19178 1.19177 1.19185 1.19171 1.19179 1.19178 1.19181 1.1917 1.19174 1.19178 1.19183 1.19189 1.19178 1.19172 1.19236 1.19197 1.19197 1.19189 1.19178 1.19178 1.19201 1.19227 1.19211 1.19219 1.19201 1.19203 1.19177 1.19191 1.19205 1.19132 1.19177 1.19171 1.19184 1.19178 1.19192 1.19192 1.19181 1.19192 1.19154 1.19184 1.19176 1.19181 1.19185 1.19175 1.19166 1.19174 1.19173 1.19185 1.19176 1.19181 1.19188 1.19182 1.19145 1.19178 1.1914 1.19174 1.19176 1.19157 1.1915 1.19186 1.19189 1.19127 1.19135 1.19195 1.19195 1.19216 1.19172 1.19196 1.19168 1.19187 1.1918 1.19161 1.19172 1.1919 1.19164 1.1917 1.19173 1.19172 1.19187 1.19172 1.19179 1.19197 1.19164 1.19195 1.19167 1.19173 1.19179 1.19174 1.19173 1.1917 1.19168 1.19182 1.19178 1.1918 1.19167 1.19179 1.1919 1.19186 1.19183 1.19189 1.19182 1.19178 1.1918 1.19175 1.19176 1.1917 1.19175 1.19173 1.19184 1.19144 1.19161 1.19199 1.19208 1.19167 1.19202 1.19216 1.19193 1.19184 1.19178 1.1923 1.19196 1.19238 1.19222 1.19179 1.19177 1.19195 1.19197 1.1922 1.19137 1.19184 1.19163 1.19177 1.192 1.19179 1.19173 1.19224 1.19179 1.19169 1.19173 1.19178 1.19176 1.19158 1.19174 1.19184 1.19168 1.19165 1.19175 1.19173 1.19183 1.19157 1.1918 1.19168 1.19141 1.19179 1.19172 1.19157 1.19151 1.19168 1.19188 1.19126 1.19136 1.19131 1.19194 1.19193 1.19181 1.1921 1.1917 1.19187 1.19167 1.19179 1.19181 1.19172 1.19178 1.19146 1.19171 1.19176 1.19174 1.19175 1.19187 1.19173 1.19179 1.19168 1.19173 1.19186 1.19183 1.19163 1.19172 1.19174 1.19178 1.19183 1.19178 1.19173 1.19166 1.19158 1.19183 1.19179 1.19167 1.19171 1.19183 1.19194 1.19187 1.19182 1.19183 1.19176 1.19173 1.19171 1.1917 1.19184 1.19172 1.19169 1.19192 1.19187 1.19213 1.19215 1.19178 1.19152 1.19197 1.19186 1.19194 1.19222 1.19227 1.19204 1.19205 1.19213 1.1921 1.19225 1.1921 1.19189 1.19185 1.19208 1.19178 1.19196 1.19215 1.19276 1.19275 1.19218 1.19217 1.19133 1.1914 1.19204 1.19202 1.19176 1.19158 1.19196 1.19233 1.19181 1.19175 1.19154 1.19168 1.19171 1.19179 1.19167 1.19182 1.19175 1.19173 1.1917 1.19181 1.1916 1.19152 1.19179 1.19174 1.19171 1.19168 1.19156 1.19149 1.19188 1.19126 1.19177 1.19186 1.1918 1.19199 1.19196 1.19168 1.19181 1.19179 1.19177 1.19176 1.19144 1.19158 1.19166 1.19162 1.19178 1.19188 1.19186 1.19178 1.19176 1.19171 1.19174 1.19179 1.19163 1.19173 1.19176 1.19176 1.19182 1.19176 1.19171 1.19169 1.19161 1.19184 1.19179 1.19166 1.19178 1.19177 1.1918 1.1917 1.19181 1.19185 1.19179 1.19193 1.19169 1.1917 1.19199 1.19124 1.19164 1.1923 1.19201 1.19143 1.1916 1.19174 1.19221 1.19202 1.19218 1.19204 1.19206 1.1923 1.1922 1.19206 1.19203 1.1918 1.19175 1.19202 1.19199 1.19167 1.19233 1.19229 1.19241 1.19139 1.19213 1.19204 1.19177 1.19203 1.19186 1.19195 1.19123 1.19169 1.19172 1.19231 1.19183 1.1916 1.19151 1.1917 1.19173 1.19178 1.19166 1.1917 1.19172 1.19173 1.19165 1.1917 1.19161 1.19158 1.19167 1.19173 1.19174 1.19172 1.19155 1.19173 1.19176 1.19182 1.19159 1.19178 1.19173 1.1917 1.19197 1.19194 1.19167 1.19179 1.19168 1.19181 1.19187 1.19179 1.1918 1.19147 1.19152 1.19158 1.19175 1.19178 1.19176 1.19172 1.19179 1.19168 1.19179 1.19175 1.19174 1.19179 1.19172 1.19177 1.19169 1.19178 1.1918 1.19171 1.19179 1.19182 1.19179 1.19167 1.19178 1.19179 1.19169 1.1917 1.19187 1.19183 1.19188 1.19189 1.19185 1.19198 1.19168 1.19148 1.19219 1.19197 1.19217 1.1918 1.19177 1.19226 1.192 1.19211 1.19179 1.19171 1.19191 1.19236 1.19203 1.19212 1.19218 1.19173 1.19167 1.19172 1.19153 1.192 1.1917 1.19216 1.19233 1.1914 1.1921 1.1921 1.19208 1.19182 1.19178 1.19121 1.19166 1.1918 1.19169 1.1919 1.19197 1.19157 1.19151 1.19157 1.19173 1.1917 1.19172 1.19168 1.1916 1.19166 1.19159 1.19189 1.19166 1.19161 1.19175 1.19168 1.19158 1.19175 1.19155 1.19173 1.19187 1.19163 1.19178 1.19162 1.19169 1.19192 1.19167 1.19177 1.19167 1.19183 1.19179 1.19175 1.19181 1.19145 1.19153 1.19159 1.19154 1.19175 1.19175 1.19173 1.19178 1.19168 1.19179 1.19178 1.1918 1.19177 1.19174 1.19179 1.19179 1.19172 1.19168 1.19162 1.19184 1.19166 1.19184 1.19175 1.19165 1.19167 1.19201 1.192 1.19184 1.19184 1.19196 1.1919 1.19167 1.19178 1.19178 1.19169 1.19214 1.19211 1.19188 1.19174 1.19249 1.19152 1.19233 1.19213 1.19197 1.19182 1.19201 1.19227 1.19216 1.19193 1.19191 1.19218 1.19178 1.19213 1.19206 1.19164 1.19162 1.19167 1.19171 1.19169 1.19185 1.19156 1.19165 1.19111 1.19169 1.1917 1.19178 1.19172 1.19171 1.19157 1.19163 1.19158 1.1919 1.19166 1.1918 1.19181 1.19168 1.19157 1.19153 1.19143 1.19159 1.19185 1.1916 1.19166 1.19161 1.19169 1.19157 1.19173 1.19171 1.19167 1.19178 1.19175 1.19174 1.19175 1.1918 1.19177 1.19169 1.19163 1.19155 1.19149 1.19155 1.19176 1.19173 1.19178 1.19168 1.1918 1.19178 1.19174 1.19179 1.19172 1.19165 1.19164 1.19167 1.19161 1.19178 1.19178 1.19166 1.19172 1.19176 1.19164 1.19168 1.19187 1.19178 1.1916 1.19168 1.19189 1.1919 1.19202 1.19152 1.19199 1.19185 1.19255 1.19178 1.19217 1.19208 1.1921 1.19176 1.19187 1.19181 1.19244 1.19145 1.19194 1.19202 1.19198 1.19205 1.1919 1.1918 1.19186 1.1922 1.19233 1.19231 1.19174 1.1918 1.19179 1.19182 1.19196 1.19221 1.19165 1.19165 1.19178 1.19163 1.19215 1.19215 1.19197 1.19146 1.19167 1.19144 1.1917 1.19178 1.19178 1.19177 1.19182 1.19183 1.19165 1.1917 1.1916 1.19156 1.19168 1.19163 1.19187 1.19166 1.19167 1.19157 1.19168 1.19147 1.19159 1.19183 1.1916 1.19165 1.19159 1.19193 1.19167 1.19168 1.19173 1.19178 1.19178 1.19178 1.19177 1.19179 1.19179 1.19169 1.19163 1.19154 1.19146 1.19155 1.19154 1.19153 1.19166 1.19172 1.19179 1.19168 1.19173 1.19178 1.19172 1.19173 1.19175 1.19172 1.19164 1.19165 1.19167 1.19169 1.19178 1.19179 1.19178 1.19171 1.19176 1.19163 1.19172 1.19214 1.19213 1.19184 1.19166 1.19188 1.19187 1.19193 1.19173 1.19163 1.19262 1.19221 1.19204 1.19217 1.19194 1.19172 1.19243 1.19222 1.19178 1.19199 1.19182 1.19208 1.19178 1.19202 1.19221 1.19184 1.19189 1.19186 1.19177 1.19185 1.19224 1.19173 1.19176 1.19191 1.19201 1.19212 1.19158 1.19139 1.19174 1.19177 1.19191 1.19144 1.19166 1.19143 1.19178 1.19178 1.19171 1.19201 1.19168 1.19181 1.1918 1.19169 1.19168 1.19154 1.1918 1.19161 1.19178 1.19166 1.19168 1.19169 1.19165 1.19146 1.19177 1.19172 1.19169 1.19157 1.19176 1.19161 1.19165 1.19165 1.19175 1.19179 1.19175 1.19175 1.19182 1.1918 1.1918 1.19148 1.1915 1.19157 1.19178 1.19172 1.19152 1.19165 1.19178 1.19181 1.19177 1.19177 1.19177 1.19177 1.19177 1.19173 1.19173 1.19175 1.19172 1.1918 1.19173 1.19172 1.19179 1.19178 1.19166 1.19178 1.19192 1.19178 1.19178 1.19178 1.19163 1.1917 1.19169 1.19179 1.19175 1.19182 1.19179 1.19157 1.19197 1.19168 1.19189 1.19187 1.19182 1.19187 1.19179 1.19246 1.19207 1.19176 1.19218 1.19178 1.19218 1.19198 1.19223 1.19212 1.19196 1.19176 1.19196 1.19196 1.19199 1.19214 1.19187 1.19195 1.19198 1.19178 1.1914 1.19225 1.19178 1.19177 1.19162 1.19152 1.19154 1.19139 1.19186 1.19166 1.19177 1.19193 1.19191 1.19149 1.19171 1.19148 1.19173 1.19177 1.19173 1.1918 1.19181 1.19166 1.19155 1.19157 1.19192 1.19161 1.19157 1.19169 1.19162 1.19172 1.19162 1.19158 1.19146 1.19178 1.19155 1.19173 1.19193 1.1917 1.19165 1.19156 1.19175 1.19178 1.19161 1.19164 1.19175 1.19178 1.19175 1.19176 1.19166 1.19171 1.19152 1.19172 1.19176 1.19171 1.19177 1.19174 1.19177 1.19178 1.19179 1.19178 1.19179 1.1918 1.19166 1.19192 1.19195 1.19176 1.1917 1.19186 1.19166 1.19176 1.1918 1.19176 1.19182 1.1917 1.1917 1.19176 1.19157 1.1919 1.19182 1.19179 1.1918 1.19212 1.19212 1.19201 1.19252 1.1922 1.19174 1.19164 1.19118 1.19173 1.19206 1.19279 1.19172 1.1917 1.19199 1.19186 1.19197 1.19136 1.1923 1.19178 1.19171 1.19151 1.19158 1.19151 1.19137 1.19181 1.19198 1.19163 1.19186 1.19156 1.19162 1.19158 1.19151 1.19175 1.19177 1.1917 1.19179 1.19167 1.19154 1.19158 1.19178 1.1917 1.19166 1.19159 1.19178 1.19192 1.19191 1.19169 1.19177 1.19157 1.19182 1.19172 1.19169 1.19165 1.19183 1.19167 1.19154 1.19161 1.19164 1.19175 1.19178 1.19179 1.19177 1.19175 1.19177 1.19176 1.19176 1.19176 1.19175 1.19178 1.19151 1.19171 1.19176 1.19171 1.19177 1.19177 1.19174 1.19173 1.19176 1.19171 1.19169 1.1918 1.19174 1.1918 1.19177 1.19178 1.19183 1.19179 1.19184 1.19179 1.19159 1.19162 1.19169 1.19151 1.19187 1.19186 1.19192 1.19182 1.19163 1.19163 1.19178 1.192 1.19191 1.19205 1.19178 1.19216 1.19212 1.19206 1.19178 1.19177 1.19167 1.19173 1.19125 1.19174 1.19267 1.19161 1.19171 1.192 1.19205 1.19175 1.19131 1.19203 1.19215 1.19147 1.19201 1.19147 1.19154 1.19152 1.19172 1.19145 1.19167 1.19179 1.19199 1.19198 1.19158 1.19188 1.19152 1.1918 1.1918 1.19171 1.19141 1.19167 1.19181 1.19167 1.19151 1.1917 1.19173 1.19172 1.19168 1.19177 1.19179 1.19177 1.19168 1.19168 1.19178 1.19169 1.19166 1.19178 1.19178 1.19157 1.19161 1.19163 1.19175 1.19178 1.19178 1.19177 1.19176 1.19176 1.19175 1.19178 1.19178 1.19152 1.19178 1.19172 1.19177 1.19178 1.19178 1.19178 1.19177 1.19178 1.19178 1.19173 1.19173 1.19176 1.19178 1.19178 1.19176 1.19178 1.19176 1.19163 1.19175 1.19175 1.1918 1.19162 1.19158 1.19181 1.1917 1.19162 1.1915 1.19158 1.19155 1.19174 1.19161 1.19187 1.1916 1.19177 1.19163 1.19183 1.19165 1.19222 1.19197 1.19184 1.19165 1.19203 1.19118 1.19176 1.19167 1.19144 1.19211 1.19177 1.19095 1.19154 1.19142 1.19174 1.19189 1.19148 1.19167 1.19167 1.19178 1.19154 1.19134 1.19177 1.19157 1.19156 1.19176 1.19179 1.19166 1.19178 1.19183 1.19178 1.19168 1.19179 1.1917 1.19171 1.1917 1.19158 1.19166 1.19166 1.19168 1.19176 1.19174 1.19178 1.1918 1.19169 1.19167 1.19174 1.19168 1.19162 1.19169 1.19162 1.19175 1.19175 1.19178 1.19177 1.19178 1.19178 1.19177 1.19176 1.19176 1.19178 1.19178 1.19178 1.19173 1.19177 1.19178 1.19178 1.19178 1.19178 1.19173 1.19176 1.19176 1.19178 1.19177 1.19178 1.19173 1.19178 1.19163 1.19165 1.19183 1.19179 1.19164 1.19172 1.19158 1.19148 1.19154 1.19149 1.19166 1.1913 1.19165 1.19156 1.1917 1.19161 1.1918 1.19188 1.19233 1.19196 1.19205 1.1916 1.19134 1.19156 1.19205 1.19105 1.19161 1.19186 1.19171 1.19121 1.19122 1.1909 1.19176 1.19147 1.19202 1.1913 1.19173 1.1917 1.1918 1.19161 1.19173 1.19156 1.19157 1.1916 1.19164 1.19161 1.1918 1.1918 1.19178 1.19168 1.19168 1.19178 1.19179 1.19181 1.1917 1.19157 1.19168 1.19174 1.19174 1.19177 1.19174 1.19169 1.19175 1.19168 1.19153 1.19152 1.19166 1.19169 1.19162 1.19175 1.19177 1.19178 1.19178 1.19177 1.19176 1.19173 1.19178 1.19178 1.19178 1.19176 1.19175 1.19177 1.19176 1.19171 1.19165 1.19164 1.19178 1.19143 1.19162 1.1917 1.19156 1.19152 1.19111 1.19146 1.19139 1.19154 1.19144 1.19158 1.1917 1.19234 1.19185 1.19148 1.1915 1.19135 1.1916 1.19192 1.19098 1.19181 1.1917 1.19145 1.19171 1.19137 1.19123 1.19152 1.19152 1.1909 1.19115 1.19113 1.19151 1.19167 1.19177 1.19173 1.19155 1.19157 1.19164 1.19153 1.19165 1.19178 1.19169 1.19179 1.19169 1.19168 1.19167 1.19176 1.19165 1.19178 1.19164 1.19171 1.19174 1.19167 1.19169 1.19175 1.1917 1.19176 1.19153 1.19154 1.19166 1.19175 1.19183 1.19131 1.19176 1.19161 1.19191 1.19183 1.19196 1.19203 1.19184 1.19189 1.19181 1.19188 1.19213 1.1912 1.19154 1.19144 1.19164 1.19125 1.19114 1.19143 1.19155 1.19172 1.19185 1.19129 1.1915 1.19195 1.19188 1.19194 1.19157 1.19175 1.19198 1.19202 1.19182 1.19188 1.19187 1.19207 1.19168 1.19205 1.1917 1.19137 1.19143 1.19157 1.19104 1.19119 1.19155 1.19201 1.19167 1.19142 1.19167 1.19196 1.19201 1.19181 1.19197 1.19126 1.19166 1.19159 1.19177 1.19178 1.19131 1.19108 1.19166 1.19115 1.19151 1.19165 1.19178 1.19183 1.19163 1.19132 1.19161 1.19186 1.19129 1.19144 1.19197 1.19162 1.19199 1.19198 1.19197 1.19176 1.192 1.19183 1.19126 1.19165 1.19178 1.19185 1.19145 1.1912 1.19095 1.19141 1.19178 1.19182 1.19166 1.19157 1.19192 1.19141 1.1918 1.19154 1.19197 1.19206 1.19161 1.19215 1.19171 1.19202 1.19145 1.19096 1.19189 1.19218 1.19178 1.19178 1.19178 1.19178 1.19178 1.19178 1.19178 1.19178 1.19178 1.19178 1.19177 1.19165 1.19164 1.19205 1.19151 1.19176 1.19148 1.19145 1.19197 1.19217 1.19171 1.19201 1.19167 1.19182 1.19145 1.19212 1.19196 1.19191 1.19195 1.19178 1.19178 1.19178 1.19178 1.19178 1.19178 1.19178 1.19178 1.19178 1.19178 1.19178 1.19178 1.19178 1.19178 1.19178 1.19178 1.19178 1.19178 1.19178 1.19178 1.19178 1.19178 1.19178 1.19178 1.19178 1.19178 1.19178 1.19178 1.19178 1.19178 1.19178 1.19178 1.19178 1.19178 1.19178 1.19178 1.19173 1.19168 1.19157 1.19158 1.19172 1.19233 1.19169 1.19142 1.19145 1.19295 1.19252 1.19143 1.19167 1.19174 1.19237 1.19155 1.19135 1.19164 1.19173 1.19215 1.1924 1.1921 1.19203 1.19189 1.1919 1.19178 1.19178 1.19178 1.19178 1.19178 1.19178 1.19178 1.19178 1.19178 1.19178 1.19178 1.19178 1.19178 1.19178 1.19178 1.19178 1.19178 1.19178 1.19178 1.19178 1.19178 1.19178 1.19178 1.19178 1.19178 1.19178 1.19178 1.19178 1.19248 1.19156 1.19146 1.19196 1.19139 1.19148 1.19126 1.1923 1.19223 1.19169 1.19137 1.1921 1.19126 1.19149 1.19161 1.1918 1.19182 1.19215 1.19198 1.19182 1.19156 1.19278 1.19173 1.19204 1.19178 1.19178 1.19178 1.19178 1.19178 1.19178 1.19178 1.19178 1.19178 1.19178 1.19178 1.19178 1.19178 1.19178 1.19178 1.19178 1.19178 1.19178 1.19178 1.19178 1.19178 1.19178 1.19178 1.19178 1.19178 1.19178 1.19178 1.19178 1.19178 1.19178 1.19178 1.19178 1.19178 1.19178 1.19178 1.19178 1.19178 1.19178 1.19178 1.19178 1.19178 1.19178 1.19178 1.1918 1.1918 1.19193 1.19148 1.19154 1.19208 1.1915 1.1919 1.19193 1.19142 1.19155 1.19158 1.1923 1.19195 1.19138 1.19079 1.19123 1.19144 1.19155 1.19231 1.19264 1.19199 1.19202 1.19155 1.19177 1.19177 1.19178 1.19178 1.19178 1.19178 1.19178 1.19178 1.19178 1.19178 1.19178 1.19178 1.19178 1.19178 1.19178 1.19178 1.19178 1.19178 1.19178 1.19178 1.19178 1.19178 1.19178 1.19178 1.19178 1.19178 1.19178 1.19178 1.19178 1.19178 1.19178 1.19178 1.19178 1.19178 1.19178 1.19178 1.19178 1.19178 1.19178 1.19178 1.19178 1.19178 1.19178 1.19178 1.19178 1.19178 1.19178 1.19178 1.19178 1.19175 1.19177 1.19151 1.19116 1.19166 1.19177 1.19184 1.19152 1.19218 1.19191 1.19148 1.1909 1.19178 1.19116 1.19212 1.19199 1.19245 1.19153 1.19217 1.19134 1.19176 1.19183 1.19178 1.19178 1.19178 1.19178 1.19178 1.19178 1.19178 1.19178 1.19178 1.19178 1.19178 1.19178 1.19178 1.19178 1.19178 1.19178 1.19178 1.19178 1.19178 1.19178 1.19178 1.19178 1.19178 1.19178 1.19178 1.19178 1.19178 1.19178 1.19178 1.19178 1.19178 1.19178 1.19178 1.19178 1.19178 1.19178 1.19178 1.19178 1.19178 1.19178 1.19178 1.19178 1.19178 1.19178 1.19178 1.19178 1.19178 1.19174 1.19175 1.19186 1.19337 1.19154 1.19208 1.19152 1.19141 1.19151 1.19244 1.19257 1.1916 1.1919 1.19181 1.19222 1.19209 1.1913 1.19125 1.19238 1.19251 1.19177 1.19189 1.19156 1.19212 1.1916 1.19178 1.19176 1.19178 1.19177 1.19178 1.19178 1.19178 1.19178 1.19178 1.19178 1.19178 1.19178 1.19178 1.19178 1.19178 1.19178 1.19178 1.19178 1.19178 1.19178 1.19178 1.19178 1.19178 1.19178 1.19178 1.19178 1.19178 1.19178 1.19178 1.19178 1.19178 1.19178 1.19178 1.19178 1.19178 1.19178 1.19178 1.19178 1.19178 1.19178 1.19178 1.19178 1.19178 1.19178 1.19178 1.19178 1.19178 1.19178 1.19178 1.19178 1.19178 1.19178 1.19178 1.19109 1.19183 1.19204 1.19157 1.18996 1.19264 1.1924 1.19257 1.19256 1.19327 1.19224 1.19216 1.19232 1.19216 1.19262 1.19163 1.19181 1.19183 1.19187 1.19155 1.19256 1.19164 1.19199 1.19233 1.19164 1.19178 1.19178 1.19178 1.19178 1.19178 1.19178 1.19178 1.19178 1.19178 1.19178 1.19178 1.19178 1.19178 1.19178 1.19178 1.19178 1.19178 1.19178 1.19178 1.19178 1.19178 1.19178 1.19178 1.19178 1.19178 1.19178 1.19178 1.19178 1.19178 1.19178 1.19178 1.19178 1.19178 1.19178 1.19178 1.19178 1.19178 1.19178 1.19178 1.19178 1.19178 1.19198 1.19234 1.19457 1.1923 1.19046 1.19175 1.19202 1.19243 1.19162 1.19128 1.19292 1.19249 1.19232 1.19254 1.1916 1.19252 1.19178 1.19178 1.19315 1.19253 1.19083 1.19178 1.19178 1.19178 1.19178 1.19178 1.19178 1.19178 1.19178 1.19178 1.19178 1.19178 1.19178 1.19178 1.19178 1.19178 1.19178 1.19178 1.19178 1.19178 1.19178 1.19178 1.19178 1.19178 1.19178 1.19178 1.19178 1.19178 1.19178 1.19178 1.19178 1.19178 1.19178 1.19178 1.19178 1.19178 1.19178 1.19178 1.19222 1.19203 1.19204 1.19366 1.1949 1.19099 1.19254 1.19177 1.19161 1.19237 1.19216 1.19197 1.19151 1.19144 1.19211 1.19226 1.192 1.19182 1.19178 1.19178 1.19178 1.19178 1.19178 1.19178 1.19178 1.19178 1.19178 1.19178 1.19178 1.19178 1.19178 1.19178 1.19178 1.19178 1.19178 1.19178 1.19178 1.19178 1.19178 1.19178 1.19178 1.19178 1.19178 1.19178 1.19178 1.19178 1.19178 1.19178 1.19178 1.19178 1.19178 1.19178 1.19178 1.19178 1.19178 1.19178 1.19178 1.19178 1.19178 1.19178 1.19178 1.19171 1.19169 1.19165 1.19194 1.19261 1.19168 1.1924 1.19111 1.19325 1.19285 1.19208 1.19187 1.19097 1.19362 1.19294 1.19208 1.19163 1.19185 1.1918 1.19225 1.19178 1.19178 1.19178 1.19178 1.19178 1.19178 1.19178 1.19178 1.19178 1.19178 1.19177 1.19178 1.19178 1.19178 1.19178 1.19178 1.19178 1.19178 1.19178 1.19178 1.19178 1.19178 1.19178 1.19178 1.19178 1.19178 1.19178 1.19178 1.19178 1.19178 1.19178 1.19178 1.19178 1.19178 1.19178 1.19178 1.19178 1.19178 1.19178 1.19178 1.19181 1.19151 1.19199 1.19373 1.19182 1.19152 1.19218 1.19347 1.19233 1.1921 1.19074 1.19228 1.1915 1.19067 1.19411 1.19279 1.1916 1.19172 1.19179 1.19163 1.19153 1.19178 1.19178 1.19178 1.19178 1.19178 1.19178 1.19178 1.19178 1.19178 1.19178 1.19178 1.19178 1.19178 1.19178 1.19178 1.19178 1.19178 1.19178 1.19178 1.19178 1.19178 1.19178 1.19178 1.19178 1.19178 1.19178 1.19178 1.19178 1.19178 1.19178 1.19178 1.19178 1.19149 1.19205 1.19288 1.1918 1.19165 1.19147 1.19223 1.19156 1.19206 1.1921 1.19242 1.19189 1.19132 1.19073 1.1941 1.19387 1.19318 1.19326 1.19118 1.19196 1.19173 1.19157 1.19178 1.19178 1.19178 1.19178 1.19178 1.19178 1.19178 1.19178 1.19178 1.19178 1.19178 1.19178 1.19178 1.19178 1.19178 1.19178 1.19178 1.19178 1.19178 1.19178 1.19178 1.19144 1.19046 1.19153 1.19033 1.19225 1.19164 1.19164 1.19206 1.1915 1.19104 1.19158 1.19178 1.19201 1.19065 1.19363 1.19235 1.19367 1.19178 1.19187 1.19178 1.19134 1.19245 1.19186 1.19178 1.19178 1.19178 1.19178 1.19178 1.19178 1.19178 1.19178 1.19178 1.19178 1.19178 1.19178 1.19178 1.19178 1.19178 1.19178 1.19178 1.19178 1.19178 1.19178 1.19178 1.19178 1.19178 1.18966 1.19003 1.19034 1.19128 1.19179 1.19157 1.19094 1.19111 1.1928 1.19125 1.198 1.19188 1.19445 1.19216 1.19178 1.19178 1.19236 1.19121 1.19083 1.19178 1.19178 1.19178 1.19178 1.19178 1.19178 1.19178 1.19178 1.19178 1.19178 1.19178 1.19178 1.19178 1.19178 1.1854 1.19256 1.1925 1.18893 1.18938 1.1897 1.1918 1.1915 1.18991 1.19038 1.18994 1.19109 1.1926 1.19299 1.19808 1.19015 1.18931 1.19178 1.19227 1.19075 1.19139 1.19178 1.19178 1.19178 1.19178 1.19178 1.19178 1.19178 1.19178 1.19178 1.19178 1.19178 1.19177 1.19175 1.19195 1.1938 1.19166 1.19084 1.19194 1.19124 1.19175 1.19159 1.1897 1.19146 1.19067 1.19126 1.19404 1.19273 1.19068 1.19303 1.18732 1.1924 1.18962 1.19178 1.18983 1.19178 1.19178 1.19179 1.19178 1.19178 1.19178 1.19178 1.19178 0.0667226 0.0935314 0.150828 1.19178 0.319986 0.18532 0.0643444 0.18488 0.2445 0.237935 0.0834896 0.0840832 0.095382 0.0900212 0.136406 0.184974 0.115971 0.080176 0.0572628 0.120339 0.0582689 0.0504066 0.118496 0.0740855 0.0482585 0.122654 0.169509 0.274002 0.40024 0.332112 0.4456 0.331528 1.19174 0.185745 0.224661 0.173078 0.153867 0.114347 0.176683 0.267512 0.25095 0.123847 0.127513 0.14957 0.186162 0.208015 0.181587 0.220865 0.253678 1.19077 0.450999 0.257384 0.33833 1.19177 1.18962 1.1917 1.19178 1.19178 1.19189 1.18994 1.19293 1.19178 1.18988 1.19876 1.19208 1.18709 1.19069 1.1955 1.18447 1.19178 0.258617 0.376153 0.157912 0.356502 0.0448863 0.230642 0.316421 0.390659 0.354295 1.19293 0.727998 0.329796 1.18211 0.15433 0.157459 0.148911 0.165325 0.161444 0.126029 0.168477 0.120219 0.12542 0.148121 0.121045 0.0433476 0.0621402 0.057635 0.114185 1.19178 0.175339 0.0980162 0.130061 0.217647 1.19591 0.279587 0.643611 0.288499 0.147477 0.0832695 0.0654245 0.114188 0.0923089 0.0501734 0.0540713 0.0593226 0.0927662 0.0680275 0.0282956 0.0252371 0.0286858 0.0179979 0.136653 0.0825498 0.201431 0.0897565 0.474478 0.323425 0.178807 0.470249 0.190319 0.239771 0.195698 0.262203 0.176316 0.100126 0.107048 0.071171 0.166154 0.106805 0.0921 0.0631306 0.0599229 0.036407 0.0146183 0.0268561 0.0293574 0.0242382 0.023805 0.041399 0.148645 0.108533 0.149097 0.0373955 0.094269 0.116554 0.0277799 0.0601479 0.0343916 0.107443 0.0717923 0.0169715 0.0464025 0.074495 0.147324 0.0218099 0.0698525 0.320181 0.517996 0.987441 0.31336 0.132823 0.0873228 0.0506829 0.169691 0.104629 0.0223084 0.0234537 0.0170603 0.0501303 0.0324248 0.0179709 0.029546 0.0798389 0.129782 0.033149 0.111706 0.114192 0.0772595 0.119574 0.11576 0.123048 0.153235 0.159963 0.176643 0.296168 0.344261 0.212847 0.289138 0.299979 0.391403 0.378805 0.477975 0.245125 0.210274 0.270781 0.370459 0.127542 1.19178 1.18943 1.18979 1.1902 1.19251 1.19294 1.1908 1.19062 1.19202 1.19152 1.18855 1.18617 1.19177 1.19182 1.19095 1.19176 1.18798 1.19343 1.18391 1.19574 1.18314 1.19306 0.147392 0.0593389 0.0673331 0.139581 0.164621 0.155768 0.0857216 0.197904 0.189124 0.253136 0.0565584 0.0959702 0.474663 1.10281 0.579522 0.391924 0.69399 0.175109 0.335139 0.192702 0.478732 0.470538 0.250353 0.134538 0.181757 0.316018 0.716369 0.251053 0.374548 0.216125 0.235107 0.125034 0.144334 0.0552884 0.0442302 0.0467506 0.116582 0.0728464 0.0569874 0.0693447 0.163562 0.142203 0.130808 0.219803 0.117181 0.335749 0.228221 0.216121 0.358675 0.883203 0.532864 0.419077 0.615526 0.212712 0.333773 0.249396 0.149193 0.115537 0.094879 0.032388 0.060179 0.0585058 0.0885639 0.0666822 0.148071 0.0692585 0.117443 0.0814007 0.0187556 0.0540641 0.0349388 0.00742315 0.0533096 0.0652487 0.0620701 0.0962476 0.108975 0.0271392 0.0320947 0.118548 0.150664 0.0206856 0.15859 0.125571 0.216814 0.269898 0.163616 0.122661 0.0204475 0.0180895 0.0465481 0.0826037 0.0167031 0.0760119 0.081068 0.0750141 0.0187779 0.0630123 0.042311 0.0687457 0.03801 0.0606999 0.0234585 0.021184 0.0413309 0.0518424 0.0293401 0.0170156 0.0375668 0.0354608 0.0417377 0.0702 0.0798248 0.0106988 0.0653322 0.0824089 0.126085 0.13087 0.228642 0.211347 0.250767 0.365182 0.363869 0.517645 0.513432 1.00545 0.620896 0.28104 0.109087 0.0535074 0.0543676 0.0139906 0.104232 0.0609825 0.0519253 0.0556735 0.0928425 0.101868 0.17129 0.165155 0.169914 0.209541 0.0986063 0.109004 0.0542274 0.721015 0.32107 0.20278 0.313167 0.0976248 1.19167 1.18946 1.19339 1.19478 1.18761 1.1911 1.19192 1.18781 1.18825 1.18494 1.18805 1.19629 1.188 1.18908 1.19085 1.19267 1.18576 1.18237 1.19027 0.187169 0.0201266 0.16743 0.0934485 0.0607985 0.159354 0.197362 0.315656 0.304079 0.274226 0.477826 0.279685 0.298193 0.158165 0.360241 0.304043 0.564443 0.415675 0.487384 0.600817 0.265262 0.430932 0.270833 0.444674 0.476315 1.51601 0.750645 0.247776 0.276826 0.233577 0.0879534 0.0914022 0.00628649 0.0280215 0.0425871 0.0685797 0.229221 0.15697 0.215035 0.224267 0.169178 0.329318 0.106958 0.181202 0.145505 0.388101 0.332564 0.135484 0.116507 0.123 0.0913179 0.0779921 0.0597965 0.0227229 0.0168496 0.0276845 0.0335227 0.0273668 0.0425406 0.0128786 0.0106591 0.0159445 0.073526 0.057787 0.106471 0.0809596 0.0646618 0.171596 0.0826766 0.116539 0.0957228 0.150652 0.0920628 0.162617 0.127147 0.142317 0.0929192 0.0410369 0.0748687 0.0525174 0.042706 0.0560885 0.0372159 0.0566883 0.0358148 0.0299423 0.0282392 0.0556843 0.00900944 0.0479391 0.0241301 0.0640684 0.0606236 0.0677514 0.0836604 0.0948798 0.0981507 0.0881501 0.114213 0.173014 0.269211 0.147849 0.194315 0.192279 0.153686 0.289192 0.21103 0.299955 0.156225 0.0578706 0.0694563 0.0460246 0.0726813 0.133727 0.117686 0.0967607 0.130662 0.174154 0.153952 0.156824 0.18547 0.175199 0.110321 0.168303 0.0863954 0.0287585 0.142123 0.146645 0.173582 0.0666109 1.19041 1.19014 1.19167 1.19178 0.137315 0.164154 0.141052 0.152143 0.196689 0.246656 0.212874 0.225716 0.264581 0.329808 0.321244 0.312334 0.346597 0.304286 0.358454 0.431719 0.421385 0.396059 0.242837 0.301227 0.659002 0.139601 0.434928 0.541917 0.196766 0.275557 0.0147838 0.205449 0.116984 0.126543 0.140073 0.0198459 0.0877831 0.0390046 0.0732553 0.0353786 0.0379914 0.0463464 0.0652424 0.116717 0.17044 0.11093 0.113187 0.0823026 0.0397836 0.296503 0.079919 0.14801 0.148145 0.0498329 0.114407 0.029388 0.0385383 0.0478209 0.0849018 0.0336057 0.0770247 0.0340953 0.052046 0.0325106 0.0980266 0.0916094 0.15385 0.137947 0.118652 0.074017 0.0164515 0.17889 0.146394 0.0942409 0.144161 0.138388 0.152329 0.12177 0.0635394 0.0738112 0.0693649 0.0635348 0.055281 0.0695871 0.0280075 0.0437698 0.0404587 0.0367606 0.0300395 0.0176243 0.0194801 0.0746669 0.0402145 0.0550207 0.0548132 0.0732209 0.104748 0.11418 0.0938814 0.0812068 0.123575 0.150927 0.156573 0.131113 0.0973933 0.138475 0.0859723 0.109143 0.0874581 0.0829262 0.0899542 0.0999673 0.131997 0.145448 0.137761 0.133198 0.154199 0.151214 0.151442 0.156736 0.105966 0.122382 0.0267814 0.101931 0.0648444 0.0245963 0.0437794 0.0540645 0.17257 0.177193 0.208504 0.177552 0.22997 0.254959 0.311294 0.285039 0.261888 0.282798 0.31785 0.299952 0.337505 0.328159 0.346177 0.335513 0.403241 0.328354 0.386531 0.287852 0.249615 0.198055 0.242829 0.252345 0.384838 0.367884 0.168906 0.0125332 0.0614534 0.100318 0.0990536 0.147934 0.168476 0.136202 0.112579 0.0402475 0.0212503 0.0646177 0.0401831 0.0877478 0.120331 0.118758 0.0942969 0.116774 0.0608908 0.134835 0.202543 0.121568 0.18337 0.0872252 0.0754639 0.131523 0.0723251 0.0805148 0.117383 0.105751 0.17216 0.0945119 0.0711023 0.0976797 0.125772 0.12262 0.0716382 0.0553715 0.0039612 0.0277093 0.0199299 0.156945 0.148403 0.135855 0.137656 0.12768 0.101033 0.0965494 0.0643831 0.0372356 0.0354573 0.0832827 0.0584204 0.0235037 0.040164 0.0271277 0.0130408 0.0366188 0.0444847 0.0261538 0.035985 0.0181364 0.0236199 0.0532719 0.0807909 0.108427 0.0776553 0.0958305 0.100679 0.129631 0.0971232 0.122396 0.110283 0.0881264 0.0759301 0.0716674 0.0933737 0.0831662 0.0699281 0.0923595 0.0693501 0.083293 0.120447 0.138334 0.1126 0.13273 0.127666 0.129333 0.137868 0.129423 0.0445392 0.0199853 0.0421631 0.0659623 0.0559327 0.0578301 0.178032 0.191226 0.194993 0.224557 0.189058 0.272164 0.241322 0.26994 0.276299 0.272412 0.267398 0.290184 0.321518 0.291864 0.2479 0.24623 0.22143 0.227068 0.299802 0.285664 0.243027 0.249028 0.131131 0.161952 0.167342 0.163107 0.148449 0.174654 0.111086 0.131313 0.0753631 0.0640473 0.124735 0.102001 0.120592 0.127373 0.16281 0.192594 0.207065 0.128854 0.16443 0.142492 0.181598 0.161668 0.175849 0.222599 0.234638 0.200072 0.237009 0.144445 0.103116 0.0823746 0.153622 0.102698 0.0759532 0.0408658 0.126441 0.138658 0.143954 0.144772 0.123743 0.103257 0.105029 0.103412 0.087054 0.0597583 0.0547687 0.0489437 0.0293813 0.0137504 0.0189179 0.0346885 0.0456925 0.0483203 0.0374736 0.0324045 0.0388517 0.0597687 0.0763366 0.0838543 0.097653 0.0914848 0.11678 0.134047 0.113094 0.108202 0.0388828 0.044885 0.0478881 0.0623602 0.0524476 0.0958735 0.0800551 0.100205 0.111308 0.139241 0.129333 0.112909 0.116733 0.112008 0.120905 0.120804 0.119642 0.137003 0.114752 0.06523 0.0790997 0.155399 0.184663 0.210272 0.197406 0.229916 0.259687 0.239543 0.263513 0.250205 0.238847 0.269071 0.303571 0.225471 0.229094 0.221123 0.247497 0.205261 0.230365 0.204286 0.203065 0.181682 0.20428 0.179007 0.198999 0.153804 0.185035 0.161721 0.0942738 0.148607 0.148727 0.110477 0.151962 0.156922 0.134874 0.16367 0.148476 0.202698 0.193697 0.116345 0.145959 0.153491 0.272749 0.158434 0.249015 0.214047 0.121112 0.239389 0.176483 0.104399 0.241393 0.095556 0.307311 0.39917 0.377544 0.261741 0.323672 0.087386 0.0545678 0.0449222 0.0423238 0.108164 0.10501 0.137522 0.131219 0.131171 0.107061 0.100929 0.0912321 0.0849854 0.0864212 0.082088 0.0747854 0.0413959 0.0803526 0.0204341 0.0383285 0.0183711 0.0213091 0.0552467 0.0256537 0.0460655 0.0518653 0.0543262 0.0786685 0.0802465 0.0928601 0.0780684 0.0699699 0.0923874 0.0949121 0.0996538 0.115078 0.114787 0.124894 0.120161 0.0719894 0.0907139 0.0761528 0.0730185 0.069498 0.0933732 0.117953 0.134898 0.134017 0.146494 0.135619 0.129544 0.126116 0.12242 0.122585 0.11517 0.114787 0.115368 0.119255 0.120894 0.123493 0.124984 0.118527 0.0835361 0.113483 0.180334 0.149398 0.207061 0.207077 0.185306 0.192351 0.205938 0.214594 0.23381 0.243792 0.228117 0.242248 0.288445 0.171904 0.212954 0.211555 0.229744 0.223346 0.205625 0.19137 0.184795 0.182572 0.199649 0.194152 0.187802 0.148544 0.167535 0.182896 0.179516 0.163979 0.164789 0.162055 0.160556 0.163245 0.1925 0.209392 0.175194 0.198373 0.146491 0.0799127 0.0245119 0.0333663 0.139143 0.278428 0.191495 0.290897 0.243994 0.42364 0.629778 0.858193 0.544606 0.285749 0.0933254 0.155998 0.061315 0.11469 0.100404 0.0654344 0.118457 0.117589 0.150836 0.109636 0.0848468 0.0877757 0.083712 0.0839141 0.0839295 0.0854948 0.0742768 0.0730946 0.00593016 0.0197525 0.0362983 0.0368729 0.0408159 0.0430618 0.0114559 0.0669325 0.0664131 0.0579241 0.0657559 0.0848351 0.104322 0.109997 0.111479 0.121491 0.121975 0.115823 0.111388 0.0926687 0.0901979 0.105646 0.127019 0.138513 0.1381 0.127342 0.127187 0.125627 0.121195 0.122175 0.115688 0.115642 0.125864 0.126171 0.138635 0.145287 0.1517 0.130627 0.116618 0.111378 0.113666 0.11321 0.16012 0.166536 0.197628 0.216962 0.216591 0.216341 0.22199 0.245561 0.220903 0.165612 0.17631 0.191356 0.222524 0.179262 0.199753 0.187448 0.177673 0.197359 0.174678 0.167458 0.184723 0.175354 0.155582 0.161622 0.168593 0.185635 0.150786 0.16611 0.245602 0.267412 0.160144 0.158398 0.169893 0.11307 0.197922 0.207305 0.147628 0.191747 0.223941 0.258901 0.730574 0.48051 0.278197 0.462771 0.407419 0.18335 0.0996227 0.0637429 0.112268 0.129529 0.111867 0.118971 0.0859603 0.106894 0.0861879 0.0635387 0.064562 0.0676023 0.0729918 0.0644991 0.0779207 0.02293 0.0346758 0.0424409 0.045493 0.0675173 0.0545218 0.0624768 0.0719922 0.0816049 0.11183 0.124159 0.123445 0.125691 0.126035 0.121716 0.113782 0.11207 0.113718 0.138187 0.140458 0.13603 0.136057 0.123203 0.116471 0.126513 0.134571 0.136395 0.142814 0.134393 0.133124 0.136567 0.125696 0.106812 0.113417 0.147033 0.138317 0.189693 0.173512 0.193068 0.186019 0.192753 0.180391 0.203528 0.206119 0.186477 0.156353 0.172467 0.18852 0.180859 0.189448 0.154046 0.179799 0.182769 0.179162 0.166679 0.170624 0.157795 0.172453 0.149488 0.161945 0.16204 0.199001 0.153076 0.103831 0.146123 0.267702 0.184056 0.159703 0.184824 0.187223 0.121013 0.173864 0.211679 0.414694 0.570516 0.1348 0.274572 0.0805667 0.139241 0.0371245 0.0170272 0.118254 0.111556 0.121276 0.116794 0.115305 0.0951509 0.0787165 0.0425271 0.0491661 0.0564241 0.0562799 0.0535072 0.0371882 0.028698 0.0345526 0.0209362 0.0264381 0.0328225 0.0414431 0.0751128 0.079278 0.0920779 0.0863208 0.0917237 0.0895367 0.111388 0.120499 0.123322 0.13627 0.122089 0.112249 0.126268 0.120269 0.121197 0.116814 0.140452 0.137692 0.127975 0.128799 0.125411 0.105609 0.120591 0.133229 0.137434 0.131213 0.133115 0.129391 0.131851 0.125467 0.100476 0.0940153 0.0780472 0.129657 0.113292 0.171075 0.167739 0.172277 0.175776 0.18875 0.18909 0.159862 0.151447 0.194435 0.168527 0.129189 0.182436 0.165792 0.157434 0.152372 0.135779 0.144982 0.178228 0.145639 0.100245 0.191845 0.134238 0.179542 0.103168 0.111162 0.129799 0.170581 0.141236 0.163361 0.128768 0.322775 0.422541 0.272924 0.0412693 0.0539364 0.0135088 0.0254571 0.121526 0.120825 0.115971 0.111741 0.0996784 0.0636272 0.101142 0.0430005 0.0632568 0.0437625 0.0487322 0.0584109 0.0486634 0.0257118 0.0324081 0.0251467 0.0520905 0.050381 0.0860265 0.0768192 0.102121 0.0938031 0.094113 0.115398 0.114886 0.117274 0.108383 0.0971353 0.117694 0.124454 0.122515 0.130279 0.135136 0.136904 0.137759 0.124358 0.0945529 0.130362 0.136214 0.136017 0.134069 0.129905 0.127967 0.125987 0.118659 0.131785 0.12887 0.16 0.0989052 0.069585 0.118853 0.146202 0.159269 0.16347 0.168695 0.181241 0.180945 0.170803 0.158559 0.161276 0.157694 0.107731 0.187348 0.139056 0.13826 0.0901119 0.182366 0.154313 0.166054 0.152926 0.151171 0.168864 0.161137 0.15896 0.206284 0.181672 0.137403 0.111723 0.214943 0.16887 0.183146 0.0483043 0.00550743 0.176308 0.238335 0.264849 0.291717 0.354303 0.35523 0.153621 0.132577 0.0614064 0.0430061 0.0381194 0.131245 0.111668 0.0964733 0.0654624 0.0744929 0.0274798 0.105511 0.0950657 0.122504 0.105278 0.105912 0.101001 0.0955992 0.108878 0.127282 0.134458 0.129902 0.133775 0.134995 0.137436 0.136555 0.128332 0.120804 0.120654 0.134619 0.0948976 0.125681 0.150324 0.166779 0.170371 0.164981 0.155543 0.189187 0.110516 0.0683367 0.188485 0.157789 0.151606 0.149859 0.220345 0.196794 0.144032 0.129356 0.170094 0.091435 0.116628 0.150861 0.249867 0.249657 0.260044 0.343516 0.388194 0.107282 0.0895589 
SCALARS Stress float 1
LOOKUP_TABLE default
-12623400000.0 -12566000000.0 -12666100000.0 -12653800000.0 -12594300000.0 -12605200000.0 -12550700000.0 -12558100000.0 -12571400000.0 -12573000000.0 -12769300000.0 -12565500000.0 -12590800000.0 -12549700000.0 -12601200000.0 -12599200000.0 -12556300000.0 -12565900000.0 -12549700000.0 -12558700000.0 -12549700000.0 -12549700000.0 -12562100000.0 -12549700000.0 -12549700000.0 -12551600000.0 -12549700000.0 -12551600000.0 -12555900000.0 -12578200000.0 -12591300000.0 -12574100000.0 -12566200000.0 -12560500000.0 -12555500000.0 -12551000000.0 -12549700000.0 -12549700000.0 -12549700000.0 -12555600000.0 -12563000000.0 -12567000000.0 -12591000000.0 -12576300000.0 -12604600000.0 -12554300000.0 -12550100000.0 -12562400000.0 -12562900000.0 -12550800000.0 -12571700000.0 -12550500000.0 -12551400000.0 -12566900000.0 -12616300000.0 -12609900000.0 -12589100000.0 -12600300000.0 -12557200000.0 -12570900000.0 -12555200000.0 -12605600000.0 -12599100000.0 -12553200000.0 -12552500000.0 -12553300000.0 -12561500000.0 -12560200000.0 -12606600000.0 -12568900000.0 -12562600000.0 -12640100000.0 -12586200000.0 -12566700000.0 -12564500000.0 -12560400000.0 -12558600000.0 -12594200000.0 -12582400000.0 -12629100000.0 -12573000000.0 -12734700000.0 -12691800000.0 -12721000000.0 -12706600000.0 -12688300000.0 -12686600000.0 -12570600000.0 -12560000000.0 -12660900000.0 -12549700000.0 -12563600000.0 -12609700000.0 -12592000000.0 -12571400000.0 -12559900000.0 -12558700000.0 -12554300000.0 -12581200000.0 -12595200000.0 -12721100000.0 -12694700000.0 -12691300000.0 -12639400000.0 -12589200000.0 -12891700000.0 -13245300000.0 -12851100000.0 -12923400000.0 -13077500000.0 -13164400000.0 -13009900000.0 -12634000000.0 -12606700000.0 -12603900000.0 -12549700000.0 -12581900000.0 -12551400000.0 -12549700000.0 -12596100000.0 -12549700000.0 -12549700000.0 -12560100000.0 -12549700000.0 -12573100000.0 -12549700000.0 -12655200000.0 -12549700000.0 -12549700000.0 -12549700000.0 -12554200000.0 -12550500000.0 -12549700000.0 -12551300000.0 -12557900000.0 -12580600000.0 -12590600000.0 -12641900000.0 -12643200000.0 -12711900000.0 -12692800000.0 -12791900000.0 -12587000000.0 -12565200000.0 -12593700000.0 -12621400000.0 -12605600000.0 -12602400000.0 -12563800000.0 -12591900000.0 -12704300000.0 -12566500000.0 -12620700000.0 -12642500000.0 -12616700000.0 -12599200000.0 -12602900000.0 -12554600000.0 -12643500000.0 -12616900000.0 -12768200000.0 -12550100000.0 -12549700000.0 -12577200000.0 -12573900000.0 -12702200000.0 -12587300000.0 -12549700000.0 -12728200000.0 -12592100000.0 -12549700000.0 -12549700000.0 -12568900000.0 -12608900000.0 -12573400000.0 -12552800000.0 -12698900000.0 -12762900000.0 -12808600000.0 -12868400000.0 -12746100000.0 -12901500000.0 -12567800000.0 -12698500000.0 -12600700000.0 -12574100000.0 -13003500000.0 -12553800000.0 -12645000000.0 -12600400000.0 -12720600000.0 -12837300000.0 -12733300000.0 -12549700000.0 -12585300000.0 -12689500000.0 -12645500000.0 -13042500000.0 -12730600000.0 -12701000000.0 -12696100000.0 -12825800000.0 -12873000000.0 -12806900000.0 -12823300000.0 -12634500000.0 -12549700000.0 -13049900000.0 -13060400000.0 -13062600000.0 -12884600000.0 -12567000000.0 -13002300000.0 -12709900000.0 -12799600000.0 -12703900000.0 -12713500000.0 -12677800000.0 -12567100000.0 -12646400000.0 -12549900000.0 -12551100000.0 -12572400000.0 -12549700000.0 -12620700000.0 -12549700000.0 -12687300000.0 -12553100000.0 -12566500000.0 -12549700000.0 -12575000000.0 -12574200000.0 -12578400000.0 -12589900000.0 -12610100000.0 -12659600000.0 -12654200000.0 -12775100000.0 -12735300000.0 -12862200000.0 -12605900000.0 -12867200000.0 -12745500000.0 -12687400000.0 -12755100000.0 -12550900000.0 -12557700000.0 -12694100000.0 -12549700000.0 -12616200000.0 -12773900000.0 -12574000000.0 -12570400000.0 -12557800000.0 -12806000000.0 -12720300000.0 -12610300000.0 -12572900000.0 -12724200000.0 -13163900000.0 -12695800000.0 -12669200000.0 -12646600000.0 -12766800000.0 -12791800000.0 -13222500000.0 -13040700000.0 -13066200000.0 -13068200000.0 -12702000000.0 -12793200000.0 -12854900000.0 -12871600000.0 -12793900000.0 -12860700000.0 -12759900000.0 -12779600000.0 -12611000000.0 -12909400000.0 -13669000000.0 -13486400000.0 -13794600000.0 -12617100000.0 -12660900000.0 -12603200000.0 -13586800000.0 -13168200000.0 -13115200000.0 -12825500000.0 -12810500000.0 -13135900000.0 -12871000000.0 -12796900000.0 -12661800000.0 -13071500000.0 -12563300000.0 -12638000000.0 -12581500000.0 -12731300000.0 -12602700000.0 -12889500000.0 -12847900000.0 -12843000000.0 -12839000000.0 -12549700000.0 -13418100000.0 -12597100000.0 -12654300000.0 -12827100000.0 -13356200000.0 -12792200000.0 -13046400000.0 -13139400000.0 -12620900000.0 -12792700000.0 -12549700000.0 -12604200000.0 -12735100000.0 -12653800000.0 -12664300000.0 -12695900000.0 -12626500000.0 -12652200000.0 -12624400000.0 -12767900000.0 -12669300000.0 -12793600000.0 -12617300000.0 -12597200000.0 -12581500000.0 -12549700000.0 -12553100000.0 -12562700000.0 -12570400000.0 -12555900000.0 -12610100000.0 -12706200000.0 -12763400000.0 -12660400000.0 -13102200000.0 -13011100000.0 -13095000000.0 -13024300000.0 -13042600000.0 -13204600000.0 -13206400000.0 -12949900000.0 -12854700000.0 -12792200000.0 -13128500000.0 -12624000000.0 -12578000000.0 -12740400000.0 -12625700000.0 -12834600000.0 -12564900000.0 -12836900000.0 -12619200000.0 -13049400000.0 -12991100000.0 -13744800000.0 -12677200000.0 -12637600000.0 -12751400000.0 -12655400000.0 -13173700000.0 -12549700000.0 -12549700000.0 -12855600000.0 -12549700000.0 -13179800000.0 -13168300000.0 -12998200000.0 -12950200000.0 -12802600000.0 -13476700000.0 -13401500000.0 -13347200000.0 -13438100000.0 -12725500000.0 -13287100000.0 -14089400000.0 -13942000000.0 -13839400000.0 -14118600000.0 -12583100000.0 -12564600000.0 -13119800000.0 -13115000000.0 -13293600000.0 -12999400000.0 -13270800000.0 -12857800000.0 -12739500000.0 -13972600000.0 -13203300000.0 -12756700000.0 -13058100000.0 -13269400000.0 -13330600000.0 -13642100000.0 -12771300000.0 -12586500000.0 -12576100000.0 -12745900000.0 -12577600000.0 -14007400000.0 -13565900000.0 -13116300000.0 -13881900000.0 -12789300000.0 -12919400000.0 -12649000000.0 -13151500000.0 -12889200000.0 -12945500000.0 -12607800000.0 -12598800000.0 -12903100000.0 -12795700000.0 -12625700000.0 -12905400000.0 -12731000000.0 -12598500000.0 -12611600000.0 -12556300000.0 -12715100000.0 -12553200000.0 -12745300000.0 -12822800000.0 -12682100000.0 -12622700000.0 -12638900000.0 -12606100000.0 -12559500000.0 -12649500000.0 -12595000000.0 -12936200000.0 -12826700000.0 -12690700000.0 -12601800000.0 -13186700000.0 -13571600000.0 -13319100000.0 -12613000000.0 -12891100000.0 -12652100000.0 -12630700000.0 -12650900000.0 -13011200000.0 -12613600000.0 -12782100000.0 -13072100000.0 -13704700000.0 -13568600000.0 -12660500000.0 -12989100000.0 -12626100000.0 -13089400000.0 -13418900000.0 -12646800000.0 -14036200000.0 -12917000000.0 -12752000000.0 -13060000000.0 -12689100000.0 -13495800000.0 -12549700000.0 -12561400000.0 -12598300000.0 -13030900000.0 -14008800000.0 -12615900000.0 -12571900000.0 -13253600000.0 -13200500000.0 -12595600000.0 -12710200000.0 -13390800000.0 -13659600000.0 -13171600000.0 -13600300000.0 -13704400000.0 -12658800000.0 -13082600000.0 -13206100000.0 -13216600000.0 -14093600000.0 -13651100000.0 -13664200000.0 -12582500000.0 -12552900000.0 -13188400000.0 -12576000000.0 -14220400000.0 -13946100000.0 -14107400000.0 -14182800000.0 -13355000000.0 -13534700000.0 -13295600000.0 -12604300000.0 -12721300000.0 -12563700000.0 -13588100000.0 -13136700000.0 -12969100000.0 -13031100000.0 -13730300000.0 -12549700000.0 -13732400000.0 -12636800000.0 -14037300000.0 -14086200000.0 -13321000000.0 -13370100000.0 -13291600000.0 -13142100000.0 -12870500000.0 -13020800000.0 -12605200000.0 -12592400000.0 -13315500000.0 -13433000000.0 -13320700000.0 -13274400000.0 -13266200000.0 -13218000000.0 -13128800000.0 -13516800000.0 -13321900000.0 -13299800000.0 -13408500000.0 -13525800000.0 -13124000000.0 -13137500000.0 -12965700000.0 -13080200000.0 -12550800000.0 -12615100000.0 -12698100000.0 -12562800000.0 -13923500000.0 -12668600000.0 -12609100000.0 -12759100000.0 -12960000000.0 -12890500000.0 -12555300000.0 -12600900000.0 -12556500000.0 -13100900000.0 -12978400000.0 -12656100000.0 -12844700000.0 -13711200000.0 -13678000000.0 -13757500000.0 -12612000000.0 -14503200000.0 -13266100000.0 -14364300000.0 -13004700000.0 -13050900000.0 -13728300000.0 -13346500000.0 -12660500000.0 -13124100000.0 -13392000000.0 -13619900000.0 -13830500000.0 -15427700000.0 -13822000000.0 -13921300000.0 -13560000000.0 -13031500000.0 -13032000000.0 -12883500000.0 -15138200000.0 -13510800000.0 -13574900000.0 -12949700000.0 -13934400000.0 -12749500000.0 -13321600000.0 -15499500000.0 -13040700000.0 -12991600000.0 -12668100000.0 -13530200000.0 -13354500000.0 -15000800000.0 -12859900000.0 -12909100000.0 -13677800000.0 -13219700000.0 -13010400000.0 -13149800000.0 -12549700000.0 -12948700000.0 -12733700000.0 -12674400000.0 -13942400000.0 -13276600000.0 -13180900000.0 -13232900000.0 -14885100000.0 -16378800000.0 -13383400000.0 -15180500000.0 -13422100000.0 -13235800000.0 -13408300000.0 -12808200000.0 -13949000000.0 -12684300000.0 -12923500000.0 -12659400000.0 -12644800000.0 -13769000000.0 -12806300000.0 -12551400000.0 -12563400000.0 -12866800000.0 -12841100000.0 -12691600000.0 -13029500000.0 -12733600000.0 -12627400000.0 -12801500000.0 -12554300000.0 -12577300000.0 -13034300000.0 -12934900000.0 -13066300000.0 -13188300000.0 -13158700000.0 -13544300000.0 -13418000000.0 -12926500000.0 -13032400000.0 -13345700000.0 -12822600000.0 -12700700000.0 -12706400000.0 -12801900000.0 -12584800000.0 -12958700000.0 -12747300000.0 -12760200000.0 -13298100000.0 -13267200000.0 -12937700000.0 -13080500000.0 -13110700000.0 -12638200000.0 -13156400000.0 -13217300000.0 -13877100000.0 -13499100000.0 -14720900000.0 -13538300000.0 -13255600000.0 -13480300000.0 -13075400000.0 -13145000000.0 -13177500000.0 -12985400000.0 -12549700000.0 -12566100000.0 -12788000000.0 -14799500000.0 -13065900000.0 -13003000000.0 -14471500000.0 -14647300000.0 -14646600000.0 -12566100000.0 -14586400000.0 -14335200000.0 -14213400000.0 -14801400000.0 -15091700000.0 -15200100000.0 -15720200000.0 -14928100000.0 -15769100000.0 -14107700000.0 -13901400000.0 -13938500000.0 -15138500000.0 -13078400000.0 -13074800000.0 -13408800000.0 -13194600000.0 -13261400000.0 -13141000000.0 -13452900000.0 -12618900000.0 -13148200000.0 -12549700000.0 -13892800000.0 -12604800000.0 -12607800000.0 -12566200000.0 -13029100000.0 -12549700000.0 -12549700000.0 -16110500000.0 -16175500000.0 -15998300000.0 -14542100000.0 -14455700000.0 -12710100000.0 -14128800000.0 -14436700000.0 -14269400000.0 -14533500000.0 -13666700000.0 -13664400000.0 -13458400000.0 -13403400000.0 -13230100000.0 -12973600000.0 -12689300000.0 -13192700000.0 -12691400000.0 -12876500000.0 -12970400000.0 -13011500000.0 -12785000000.0 -12553000000.0 -12749400000.0 -12598100000.0 -12843100000.0 -12658000000.0 -13286700000.0 -13102800000.0 -13650600000.0 -12774800000.0 -12742500000.0 -12788400000.0 -12983600000.0 -12794100000.0 -12880600000.0 -12658600000.0 -13057100000.0 -12708800000.0 -12822100000.0 -12753500000.0 -12788900000.0 -12675500000.0 -12752000000.0 -12982000000.0 -13186500000.0 -14294500000.0 -14808800000.0 -14358300000.0 -15406700000.0 -14649100000.0 -13006600000.0 -13121100000.0 -12696100000.0 -12980100000.0 -12685600000.0 -12549700000.0 -12836100000.0 -12735500000.0 -15557700000.0 -12933700000.0 -13124600000.0 -13339700000.0 -12549700000.0 -13441000000.0 -13119300000.0 -13697200000.0 -13084600000.0 -13290500000.0 -14017600000.0 -13466400000.0 -14809100000.0 -13411900000.0 -13199000000.0 -14163600000.0 -13301800000.0 -14268400000.0 -13306100000.0 -16334800000.0 -12621400000.0 -12648000000.0 -13421700000.0 -14088600000.0 -13049100000.0 -12931800000.0 -13727800000.0 -13288800000.0 -13059800000.0 -13472100000.0 -14157400000.0 -12552200000.0 -12647400000.0 -12827800000.0 -12557200000.0 -13184600000.0 -12549700000.0 -15331100000.0 -15431000000.0 -13381800000.0 -13008400000.0 -12682200000.0 -12800500000.0 -14347300000.0 -12549700000.0 -13349700000.0 -13302400000.0 -13305800000.0 -13196800000.0 -12597800000.0 -12633400000.0 -12774300000.0 -12688100000.0 -12925200000.0 -12961400000.0 -13184200000.0 -12575500000.0 -13063200000.0 -12969000000.0 -12631300000.0 -12788500000.0 -13192200000.0 -13163700000.0 -13100900000.0 -13105500000.0 -13352700000.0 -13753600000.0 -13220700000.0 -13454600000.0 -13731400000.0 -13177500000.0 -13260100000.0 -13805000000.0 -14122100000.0 -14025200000.0 -13802600000.0 -13604500000.0 -13862700000.0 -13835800000.0 -14052100000.0 -14151300000.0 -13665300000.0 -14048900000.0 -15030600000.0 -12549700000.0 -13780200000.0 -13746000000.0 -14907600000.0 -12700100000.0 -14538000000.0 -14494900000.0 -12611500000.0 -14535800000.0 -14080400000.0 -13776700000.0 -13831200000.0 -14301300000.0 -14107900000.0 -12594000000.0 -12806100000.0 -12932300000.0 -13128300000.0 -12560200000.0 -13687300000.0 -13370400000.0 -14107500000.0 -13057700000.0 -13775500000.0 -12895800000.0 -12549700000.0 -13360800000.0 -14243000000.0 -13880500000.0 -13038000000.0 -13476600000.0 -14092700000.0 -13579400000.0 -13929800000.0 -16798000000.0 -12549700000.0 -17577600000.0 -14042000000.0 -14070700000.0 -13362300000.0 -12559200000.0 -12617200000.0 -14066200000.0 -13128800000.0 -12564200000.0 -13918600000.0 -13159900000.0 -13403600000.0 -12685400000.0 -13526600000.0 -14699800000.0 -13025000000.0 -13088300000.0 -12572700000.0 -14895900000.0 -13931100000.0 -12651900000.0 -12611800000.0 -12879500000.0 -14382700000.0 -13158100000.0 -13007100000.0 -12565000000.0 -12557500000.0 -12726800000.0 -12914600000.0 -12633900000.0 -12579200000.0 -12549700000.0 -12962400000.0 -13075800000.0 -13145600000.0 -12957700000.0 -12570300000.0 -12945700000.0 -12737100000.0 -13039600000.0 -12987600000.0 -12552600000.0 -12615400000.0 -12704900000.0 -12680900000.0 -12550200000.0 -13277200000.0 -13419800000.0 -12550400000.0 -13415000000.0 -12614800000.0 -13312300000.0 -12549700000.0 -12550400000.0 -13073000000.0 -12561900000.0 -13415100000.0 -12549700000.0 -12550700000.0 -12625200000.0 -13335400000.0 -13357500000.0 -13703000000.0 -14821900000.0 -12549700000.0 -13704300000.0 -13802100000.0 -12624300000.0 -12799900000.0 -14753900000.0 -13605900000.0 -13585400000.0 -15166600000.0 -13001500000.0 -12674800000.0 -13116500000.0 -13707800000.0 -12702700000.0 -13392400000.0 -12638400000.0 -14258900000.0 -12881300000.0 -13604600000.0 -13049000000.0 -13625400000.0 -14504600000.0 -14151800000.0 -16244200000.0 -15477800000.0 -15404300000.0 -15270300000.0 -15094300000.0 -15612200000.0 -15395500000.0 -15411200000.0 -16017600000.0 -16053600000.0 -17320000000.0 -13488200000.0 -18459500000.0 -15699100000.0 -14893500000.0 -14381800000.0 -13374700000.0 -12725200000.0 -14041500000.0 -13096700000.0 -13043300000.0 -12929900000.0 -13877300000.0 -12554100000.0 -13341100000.0 -13644500000.0 -12745100000.0 -12768900000.0 -13212500000.0 -12770400000.0 -12703300000.0 -15252200000.0 -14146300000.0 -12570000000.0 -13911100000.0 -12903500000.0 -12997300000.0 -14226900000.0 -12549700000.0 -13054200000.0 -12658700000.0 -12702700000.0 -12616000000.0 -12567100000.0 -13083100000.0 -13025100000.0 -12775900000.0 -12769900000.0 -13013200000.0 -12703300000.0 -13530300000.0 -12864700000.0 -12674100000.0 -13034800000.0 -12859400000.0 -12720800000.0 -12910600000.0 -12557200000.0 -12737500000.0 -12732000000.0 -12567700000.0 -12776900000.0 -12603800000.0 -12729000000.0 -12551900000.0 -13672100000.0 -12562700000.0 -13106500000.0 -13017800000.0 -13390200000.0 -13575100000.0 -12560800000.0 -12576400000.0 -13098000000.0 -13078900000.0 -13856600000.0 -12636400000.0 -12657900000.0 -12931300000.0 -12887100000.0 -13183200000.0 -12909900000.0 -13420100000.0 -12999000000.0 -15301300000.0 -13030900000.0 -14572900000.0 -14766300000.0 -14556600000.0 -16139000000.0 -17537100000.0 -15857700000.0 -16224400000.0 -15741900000.0 -14353600000.0 -13542300000.0 -12809600000.0 -13606100000.0 -13603600000.0 -13488400000.0 -15366000000.0 -14688400000.0 -12918500000.0 -13338400000.0 -15032000000.0 -13631200000.0 -12808300000.0 -12549700000.0 -14883500000.0 -13620500000.0 -13220400000.0 -13367400000.0 -12704100000.0 -14206700000.0 -13779300000.0 -12869000000.0 -14588500000.0 -12793600000.0 -12613000000.0 -15662700000.0 -15315900000.0 -15315500000.0 -14834600000.0 -12549700000.0 -14308900000.0 -12549700000.0 -14882100000.0 -17351300000.0 -13699200000.0 -12601500000.0 -12562400000.0 -13789900000.0 -12721300000.0 -13094000000.0 -12731000000.0 -13913600000.0 -15603000000.0 -12652700000.0 -13339300000.0 -13091700000.0 -13300600000.0 -14782200000.0 -14016000000.0 -12564900000.0 -14302100000.0 -14599200000.0 -13297700000.0 -13467500000.0 -13423800000.0 -13717200000.0 -13437900000.0 -13380200000.0 -13467100000.0 -12816100000.0 -12901100000.0 -13237200000.0 -13594900000.0 -12591700000.0 -13813500000.0 -13083600000.0 -13134300000.0 -13458100000.0 -13222100000.0 -13282000000.0 -13266500000.0 -13287900000.0 -12549700000.0 -13718700000.0 -12595800000.0 -13823300000.0 -12610800000.0 -12823500000.0 -12824400000.0 -13509600000.0 -13615400000.0 -13072500000.0 -13338900000.0 -12862500000.0 -12601000000.0 -13814200000.0 -12549700000.0 -12557400000.0 -13762200000.0 -13668700000.0 -13234700000.0 -14967300000.0 -12549700000.0 -12549700000.0 -15143800000.0 -17581700000.0 -14672900000.0 -12735700000.0 -14866200000.0 -14459600000.0 -14000700000.0 -14155900000.0 -14380100000.0 -13165600000.0 -13053600000.0 -12834100000.0 -13900700000.0 -12549700000.0 -14645600000.0 -15472000000.0 -14811900000.0 -12907500000.0 -14812200000.0 -16079200000.0 -16913900000.0 -13687000000.0 -13859900000.0 -14168100000.0 -12668900000.0 -15528100000.0 -13073000000.0 -13365700000.0 -14308800000.0 -13017200000.0 -13229100000.0 -13072600000.0 -12721900000.0 -16339000000.0 -13158300000.0 -16094900000.0 -14392500000.0 -15275800000.0 -15782700000.0 -17717500000.0 -13035300000.0 -17034900000.0 -16721200000.0 -17394600000.0 -17087700000.0 -17379100000.0 -17105700000.0 -13821900000.0 -14450000000.0 -16078500000.0 -15844800000.0 -16264500000.0 -17593500000.0 -14621300000.0 -15263200000.0 -13082400000.0 -13390100000.0 -12972000000.0 -12889500000.0 -12844500000.0 -12921600000.0 -12641200000.0 -12639400000.0 -12682800000.0 -13431000000.0 -13175500000.0 -13095000000.0 -13129500000.0 -14427000000.0 -12697400000.0 -12922300000.0 -13051700000.0 -12549700000.0 -12811200000.0 -12644300000.0 -13748900000.0 -13746800000.0 -12626000000.0 -14066400000.0 -13806900000.0 -13387100000.0 -13475800000.0 -13385500000.0 -13573900000.0 -12596600000.0 -13908700000.0 -13201000000.0 -12731600000.0 -12998800000.0 -12977900000.0 -13069300000.0 -13463900000.0 -14058700000.0 -13810100000.0 -15061700000.0 -13297300000.0 -13683100000.0 -15179300000.0 -12549700000.0 -17452000000.0 -15669300000.0 -14429500000.0 -17006500000.0 -15134200000.0 -15869300000.0 -13040600000.0 -12936600000.0 -13048000000.0 -14950800000.0 -14085800000.0 -13951700000.0 -13165600000.0 -16172700000.0 -12996000000.0 -12575400000.0 -14403000000.0 -13209200000.0 -14399100000.0 -12560400000.0 -12551000000.0 -14039600000.0 -14790100000.0 -17318900000.0 -14749100000.0 -14178600000.0 -12968300000.0 -13895200000.0 -12903000000.0 -13190500000.0 -12899500000.0 -12875700000.0 -16643400000.0 -14014400000.0 -15270800000.0 -12852600000.0 -12696400000.0 -13603700000.0 -12603000000.0 -13419500000.0 -13112700000.0 -12784500000.0 -12624200000.0 -13516300000.0 -14260600000.0 -14350200000.0 -13757400000.0 -13969500000.0 -14153000000.0 -12911200000.0 -12562400000.0 -12564300000.0 -12619400000.0 -12549700000.0 -15655800000.0 -12602400000.0 -12973600000.0 -13044000000.0 -13103300000.0 -13050800000.0 -12669200000.0 -12834900000.0 -12609200000.0 -12575600000.0 -12975600000.0 -13020000000.0 -12683800000.0 -12718100000.0 -12693200000.0 -12822400000.0 -12942000000.0 -12549700000.0 -13868300000.0 -13597600000.0 -13349800000.0 -13747200000.0 -13538600000.0 -13471600000.0 -13642700000.0 -12939700000.0 -13047300000.0 -13230700000.0 -12915500000.0 -13166600000.0 -12795800000.0 -12565400000.0 -13888700000.0 -12708800000.0 -12569200000.0 -12586000000.0 -12821600000.0 -12959700000.0 -12619900000.0 -12818900000.0 -14454100000.0 -12549700000.0 -13171300000.0 -13150500000.0 -12571200000.0 -15084600000.0 -12923600000.0 -16883900000.0 -12906900000.0 -12836800000.0 -15548700000.0 -16240700000.0 -18026600000.0 -17666600000.0 -12613700000.0 -12619300000.0 -18467400000.0 -15150900000.0 -13714400000.0 -13650300000.0 -12613200000.0 -13346800000.0 -12691900000.0 -12829500000.0 -13276300000.0 -12696800000.0 -12829200000.0 -15808400000.0 -13093600000.0 -13976300000.0 -15259700000.0 -13953500000.0 -14481700000.0 -12780900000.0 -15784700000.0 -14968200000.0 -13782500000.0 -14089700000.0 -14293000000.0 -13751500000.0 -15142700000.0 -13329200000.0 -12575600000.0 -13372900000.0 -12665200000.0 -13860500000.0 -14864900000.0 -13650800000.0 -15409400000.0 -14724100000.0 -15258800000.0 -14444400000.0 -14257300000.0 -13293700000.0 -15575600000.0 -14639100000.0 -13995200000.0 -13442400000.0 -13016100000.0 -12884300000.0 -12601200000.0 -12565500000.0 -12612700000.0 -12567100000.0 -13084500000.0 -15856600000.0 -14602700000.0 -14577400000.0 -13230700000.0 -12862200000.0 -12841800000.0 -13514800000.0 -13181200000.0 -12778400000.0 -12747000000.0 -13209400000.0 -12584900000.0 -12636300000.0 -12558000000.0 -12701400000.0 -12836500000.0 -12683400000.0 -13565800000.0 -12647100000.0 -12600900000.0 -12781500000.0 -12562000000.0 -12779000000.0 -12566000000.0 -12555500000.0 -13219100000.0 -12899600000.0 -14066200000.0 -14879800000.0 -13081700000.0 -12622400000.0 -13756000000.0 -12947500000.0 -13220400000.0 -12691800000.0 -12591400000.0 -14678500000.0 -12746600000.0 -13096100000.0 -14712200000.0 -14676200000.0 -14321600000.0 -16130600000.0 -12920200000.0 -16102800000.0 -13262000000.0 -16783100000.0 -19297300000.0 -16739400000.0 -18915200000.0 -12729400000.0 -12566600000.0 -16411300000.0 -17653600000.0 -12667100000.0 -12642800000.0 -13062200000.0 -14524500000.0 -12861000000.0 -12715200000.0 -13022800000.0 -13005800000.0 -13492100000.0 -16606000000.0 -16457400000.0 -14406000000.0 -16552300000.0 -13866800000.0 -13544100000.0 -13438700000.0 -15230700000.0 -12800900000.0 -12717100000.0 -13215200000.0 -12557600000.0 -13237300000.0 -14395800000.0 -12576200000.0 -13635300000.0 -15074000000.0 -13028200000.0 -13081800000.0 -13548400000.0 -14179700000.0 -13993100000.0 -15795100000.0 -13725000000.0 -14899700000.0 -13132900000.0 -14064100000.0 -15018500000.0 -15284600000.0 -12549700000.0 -13912400000.0 -12961800000.0 -14203200000.0 -13571000000.0 -13738300000.0 -14070100000.0 -12820300000.0 -12618300000.0 -12665200000.0 -12670300000.0 -12684500000.0 -12985200000.0 -14943500000.0 -14346000000.0 -12995800000.0 -12549700000.0 -13377300000.0 -13147000000.0 -12921000000.0 -13058700000.0 -13080100000.0 -13115100000.0 -13160200000.0 -13164600000.0 -12895700000.0 -12845200000.0 -13719500000.0 -12549700000.0 -12939000000.0 -12601100000.0 -12554300000.0 -12822800000.0 -13318300000.0 -12732500000.0 -12549700000.0 -13070400000.0 -13028200000.0 -12887000000.0 -12832500000.0 -13706600000.0 -13513600000.0 -13091700000.0 -13112700000.0 -13618400000.0 -13900600000.0 -12862900000.0 -12996600000.0 -12918400000.0 -13391300000.0 -12842500000.0 -12645100000.0 -15250300000.0 -13347600000.0 -12634100000.0 -13758100000.0 -12595500000.0 -14778400000.0 -13821500000.0 -14157100000.0 -13207200000.0 -24152500000.0 -15201700000.0 -12561200000.0 -12553500000.0 -15294600000.0 -17605700000.0 -12595500000.0 -13414600000.0 -15138000000.0 -13450100000.0 -14206300000.0 -12623600000.0 -17127900000.0 -13990800000.0 -12549700000.0 -12672500000.0 -14044900000.0 -12566900000.0 -13231900000.0 -13300000000.0 -13648400000.0 -15238300000.0 -12741800000.0 -12699100000.0 -13497000000.0 -14550700000.0 -14019700000.0 -13210600000.0 -12899800000.0 -14884700000.0 -13843600000.0 -13642900000.0 -14552400000.0 -13463900000.0 -13839700000.0 -14869900000.0 -14014300000.0 -14674500000.0 -12575500000.0 -12562900000.0 -12842700000.0 -13766300000.0 -12549700000.0 -13238600000.0 -13275200000.0 -13805000000.0 -12767400000.0 -13734600000.0 -12764700000.0 -12611700000.0 -12690700000.0 -12565300000.0 -12585900000.0 -12817300000.0 -13703500000.0 -13523500000.0 -13983400000.0 -12554000000.0 -13337300000.0 -12870400000.0 -12723300000.0 -12864300000.0 -12629700000.0 -12791600000.0 -12867300000.0 -12643100000.0 -12663500000.0 -12888600000.0 -12717300000.0 -12586800000.0 -13286900000.0 -13249200000.0 -13233700000.0 -13472500000.0 -13606600000.0 -12702000000.0 -12735300000.0 -12714600000.0 -12935900000.0 -13516700000.0 -13433100000.0 -14010700000.0 -13571200000.0 -13181600000.0 -13228900000.0 -12835700000.0 -12549700000.0 -13649400000.0 -16015300000.0 -14160400000.0 -14113100000.0 -14688100000.0 -13060800000.0 -14426800000.0 -14760600000.0 -13989600000.0 -15334800000.0 -16638700000.0 -16444800000.0 -15171400000.0 -15325400000.0 -21491800000.0 -13864600000.0 -17341500000.0 -13434600000.0 -17744800000.0 -14986400000.0 -13653200000.0 -13789300000.0 -14293300000.0 -13702600000.0 -13769100000.0 -13245900000.0 -14612400000.0 -13204600000.0 -13069400000.0 -14367100000.0 -13926700000.0 -12549700000.0 -12556000000.0 -13608700000.0 -13226800000.0 -14628200000.0 -13818800000.0 -13425200000.0 -14372700000.0 -12606300000.0 -12554000000.0 -14840000000.0 -13420200000.0 -13782800000.0 -13998200000.0 -14974700000.0 -14734100000.0 -15076500000.0 -14766700000.0 -12818500000.0 -14904400000.0 -12671900000.0 -13571200000.0 -14036900000.0 -12707000000.0 -12610700000.0 -12667300000.0 -12644600000.0 -12639700000.0 -12673600000.0 -12572600000.0 -12740300000.0 -12579300000.0 -13503000000.0 -13768100000.0 -12994000000.0 -12946300000.0 -12731500000.0 -12687600000.0 -12806100000.0 -12666800000.0 -12713000000.0 -12979100000.0 -12882500000.0 -12883600000.0 -12979600000.0 -13007200000.0 -12664100000.0 -12615400000.0 -12551000000.0 -12574600000.0 -12676700000.0 -12670000000.0 -13547600000.0 -13463200000.0 -13267000000.0 -14247800000.0 -12549700000.0 -13340600000.0 -13534400000.0 -13928800000.0 -13347500000.0 -12858500000.0 -12826500000.0 -14285700000.0 -14005100000.0 -14310300000.0 -12549700000.0 -13363300000.0 -16464500000.0 -13654700000.0 -12591700000.0 -12558000000.0 -13352800000.0 -13134900000.0 -12556900000.0 -15029700000.0 -15304500000.0 -14180100000.0 -26727100000.0 -12618900000.0 -17480600000.0 -18979900000.0 -14990600000.0 -15759200000.0 -15172300000.0 -15539700000.0 -17812000000.0 -12572300000.0 -14453500000.0 -15052900000.0 -12791200000.0 -12810700000.0 -13079300000.0 -12549700000.0 -14858500000.0 -13242500000.0 -12701300000.0 -13212700000.0 -13419900000.0 -13790100000.0 -13979200000.0 -13028900000.0 -12631300000.0 -12549700000.0 -12557800000.0 -12574500000.0 -12769500000.0 -13091700000.0 -13569700000.0 -13834300000.0 -13364300000.0 -12994600000.0 -13945500000.0 -13206700000.0 -13907500000.0 -12949900000.0 -12832500000.0 -12588300000.0 -13190600000.0 -12971600000.0 -13058600000.0 -12582000000.0 -13412800000.0 -15078800000.0 -15247900000.0 -15981000000.0 -12630500000.0 -12609400000.0 -12549700000.0 -12549700000.0 -12646000000.0 -12574500000.0 -12566900000.0 -12566300000.0 -12589500000.0 -12702600000.0 -13157100000.0 -12944200000.0 -13333700000.0 -12598500000.0 -13307500000.0 -12980700000.0 -12594500000.0 -12595300000.0 -12684400000.0 -12614100000.0 -12672800000.0 -12583800000.0 -12612800000.0 -12579100000.0 -12610000000.0 -12607200000.0 -12663200000.0 -12740500000.0 -12569100000.0 -12555400000.0 -12557300000.0 -12549700000.0 -12557200000.0 -12996400000.0 -13068400000.0 -12561100000.0 -12601400000.0 -13389500000.0 -13573400000.0 -14348600000.0 -14749400000.0 -16103200000.0 -12984300000.0 -15310200000.0 -13152600000.0 -15135800000.0 -15807300000.0 -15599900000.0 -15179700000.0 -14173500000.0 -13182800000.0 -14677800000.0 -13318800000.0 -18034500000.0 -16401700000.0 -17438900000.0 -21858600000.0 -18573500000.0 -19197100000.0 -20342300000.0 -12886000000.0 -14830500000.0 -16249900000.0 -17241300000.0 -17019300000.0 -14129600000.0 -16252100000.0 -18210700000.0 -15383200000.0 -16053000000.0 -13325800000.0 -14691800000.0 -14781000000.0 -12785500000.0 -12839500000.0 -12887000000.0 -13035000000.0 -13158800000.0 -13149100000.0 -12551000000.0 -12549700000.0 -12976500000.0 -12729400000.0 -13066400000.0 -12755500000.0 -12694100000.0 -13176800000.0 -12597600000.0 -13873600000.0 -12777900000.0 -13532600000.0 -12549700000.0 -13564800000.0 -13342000000.0 -12959200000.0 -13221800000.0 -12940900000.0 -12736300000.0 -13158800000.0 -13187900000.0 -14339000000.0 -13447900000.0 -13498700000.0 -13958100000.0 -13623400000.0 -12655100000.0 -12838100000.0 -12818300000.0 -12816300000.0 -12647100000.0 -12754900000.0 -12567700000.0 -12735100000.0 -12755200000.0 -13216900000.0 -12549700000.0 -13048800000.0 -12787900000.0 -12857200000.0 -12641200000.0 -12566100000.0 -12833900000.0 -12550500000.0 -12672200000.0 -12779300000.0 -12897300000.0 -12577800000.0 -12552400000.0 -12569800000.0 -12552700000.0 -12570800000.0 -12567700000.0 -12608200000.0 -12607300000.0 -12550100000.0 -12634800000.0 -12555500000.0 -12571200000.0 -12552000000.0 -12565700000.0 -12552800000.0 -12567300000.0 -12742600000.0 -12728000000.0 -13216500000.0 -13405500000.0 -12576200000.0 -14411400000.0 -13003000000.0 -12806700000.0 -12909700000.0 -15575100000.0 -15394000000.0 -13258500000.0 -12652600000.0 -15040900000.0 -15588100000.0 -18986400000.0 -12591000000.0 -16419500000.0 -14494700000.0 -17431300000.0 -13553800000.0 -12743700000.0 -12674700000.0 -13982900000.0 -15269500000.0 -20923100000.0 -19707200000.0 -18565000000.0 -19009000000.0 -12840700000.0 -19208200000.0 -15507500000.0 -18785000000.0 -13595800000.0 -13699800000.0 -12549700000.0 -19002700000.0 -12595400000.0 -15390100000.0 -14890600000.0 -12710100000.0 -12814300000.0 -12640600000.0 -12766600000.0 -13048300000.0 -12977400000.0 -13050900000.0 -13152900000.0 -13082800000.0 -13017700000.0 -12559300000.0 -12643600000.0 -12831300000.0 -12690200000.0 -13295400000.0 -13008400000.0 -12977800000.0 -12739600000.0 -13040400000.0 -12886600000.0 -13449100000.0 -13303300000.0 -12889900000.0 -12720800000.0 -12837700000.0 -12962100000.0 -12558900000.0 -12935000000.0 -12930000000.0 -12620400000.0 -13090200000.0 -12887200000.0 -13504400000.0 -12554300000.0 -12551100000.0 -14590500000.0 -13087600000.0 -12819900000.0 -12549800000.0 -12593400000.0 -12761000000.0 -12588600000.0 -12605700000.0 -13102300000.0 -13027300000.0 -12810100000.0 -12827800000.0 -12717900000.0 -12768400000.0 -12653700000.0 -12549700000.0 -12648600000.0 -12552200000.0 -12704000000.0 -12766400000.0 -12572900000.0 -12723400000.0 -12616900000.0 -12569200000.0 -12685700000.0 -12810600000.0 -12636400000.0 -12911200000.0 -12612000000.0 -12556700000.0 -13566700000.0 -13166700000.0 -14488700000.0 -14007700000.0 -14423600000.0 -15595400000.0 -13526600000.0 -13464100000.0 -13253700000.0 -15252100000.0 -13889000000.0 -13195600000.0 -16360400000.0 -18734900000.0 -14674800000.0 -17309700000.0 -14734300000.0 -13835400000.0 -21838100000.0 -13166200000.0 -27261000000.0 -12928000000.0 -12600600000.0 -18927900000.0 -13693200000.0 -12794200000.0 -15388700000.0 -12549700000.0 -17403900000.0 -13748300000.0 -12939000000.0 -13490800000.0 -13179700000.0 -13226400000.0 -12932200000.0 -12728400000.0 -13825200000.0 -13194000000.0 -12752500000.0 -13215200000.0 -12556300000.0 -13034200000.0 -13156800000.0 -12603900000.0 -12883800000.0 -12629400000.0 -12733300000.0 -12767000000.0 -12549700000.0 -12967700000.0 -12947100000.0 -13681500000.0 -12549700000.0 -12716200000.0 -12840800000.0 -12573300000.0 -12552100000.0 -12713300000.0 -12961700000.0 -12953000000.0 -13305500000.0 -13358900000.0 -12722000000.0 -13159200000.0 -14164100000.0 -13036900000.0 -12906600000.0 -12654500000.0 -12550400000.0 -12562700000.0 -12594700000.0 -12615300000.0 -12576600000.0 -12605000000.0 -12581200000.0 -12599600000.0 -12582500000.0 -12549700000.0 -12729500000.0 -12695000000.0 -12603500000.0 -12624700000.0 -12637000000.0 -12659300000.0 -12723500000.0 -12773800000.0 -12730400000.0 -12679000000.0 -12706600000.0 -12668700000.0 -12752400000.0 -12697300000.0 -12759700000.0 -12848700000.0 -13030300000.0 -13203300000.0 -13080100000.0 -13904200000.0 -13550000000.0 -14193200000.0 -12738300000.0 -13264300000.0 -12604600000.0 -14829700000.0 -14698700000.0 -15248200000.0 -12746300000.0 -14121300000.0 -13135200000.0 -17176700000.0 -15246100000.0 -15845100000.0 -12618800000.0 -13396400000.0 -13434400000.0 -19234900000.0 -12549700000.0 -16639700000.0 -15817600000.0 -13647500000.0 -15078900000.0 -12552700000.0 -13117700000.0 -23540000000.0 -12672400000.0 -12777900000.0 -12713800000.0 -19542500000.0 -15076200000.0 -15518000000.0 -17272000000.0 -15632400000.0 -14503900000.0 -15467700000.0 -15851300000.0 -15615400000.0 -13844500000.0 -13725100000.0 -13824400000.0 -13506000000.0 -13871000000.0 -13540100000.0 -13652900000.0 -13168700000.0 -13809700000.0 -12610800000.0 -12584900000.0 -13038900000.0 -12825300000.0 -12796000000.0 -12563800000.0 -13264300000.0 -12751800000.0 -12730900000.0 -12906000000.0 -12701600000.0 -12759400000.0 -13293600000.0 -13099700000.0 -12732900000.0 -12975000000.0 -12925400000.0 -12551100000.0 -12664400000.0 -12803900000.0 -12557600000.0 -12721600000.0 -13655400000.0 -12747400000.0 -12856100000.0 -12613300000.0 -12549700000.0 -12549700000.0 -12552600000.0 -12567200000.0 -12560700000.0 -12553300000.0 -12549700000.0 -12549700000.0 -12590300000.0 -12549700000.0 -12610700000.0 -12551600000.0 -12549800000.0 -12549700000.0 -12549700000.0 -12551400000.0 -12557300000.0 -12549700000.0 -12606100000.0 -12610500000.0 -12720500000.0 -12552100000.0 -12699500000.0 -12608200000.0 -12652200000.0 -12678100000.0 -12736000000.0 -12722600000.0 -13766700000.0 -12742400000.0 -13098300000.0 -12982800000.0 -12874600000.0 -13528000000.0 -13966100000.0 -13322300000.0 -13175100000.0 -13590800000.0 -12569400000.0 -14973700000.0 -15916300000.0 -12562000000.0 -14492000000.0 -16651500000.0 -17929200000.0 -18850600000.0 -19765200000.0 -23492200000.0 -17925100000.0 -22045200000.0 -12699000000.0 -13800100000.0 -24230500000.0 -12562100000.0 -17589700000.0 -19606500000.0 -22530100000.0 -17173600000.0 -19315400000.0 -13734100000.0 -16352700000.0 -14357900000.0 -13368500000.0 -12607000000.0 -12750300000.0 -12549700000.0 -12798600000.0 -13325300000.0 -13441700000.0 -14151300000.0 -13392100000.0 -12736800000.0 -12743900000.0 -12647200000.0 -12549900000.0 -12657900000.0 -12549700000.0 -12976200000.0 -12663400000.0 -12701600000.0 -12575100000.0 -12749800000.0 -13290900000.0 -12726900000.0 -12576000000.0 -12731000000.0 -12751300000.0 -12644700000.0 -12549700000.0 -12596200000.0 -12588200000.0 -12748600000.0 -12559300000.0 -13201400000.0 -13048600000.0 -12875000000.0 -12818600000.0 -12568100000.0 -12559400000.0 -12549700000.0 -12575400000.0 -12549700000.0 -12550300000.0 -12553600000.0 -12572400000.0 -12553000000.0 -12549700000.0 -12549700000.0 -12549700000.0 -12580300000.0 -12550300000.0 -12549700000.0 -12549700000.0 -12549700000.0 -12551900000.0 -12587400000.0 -12568900000.0 -12568800000.0 -12575700000.0 -12574000000.0 -12559700000.0 -12601700000.0 -12564400000.0 -12727100000.0 -12604700000.0 -12693200000.0 -12595000000.0 -12950600000.0 -12741800000.0 -13152400000.0 -13310000000.0 -13645300000.0 -13794000000.0 -13783300000.0 -14167900000.0 -12962700000.0 -16881800000.0 -15484400000.0 -16241700000.0 -17160200000.0 -12639500000.0 -14268300000.0 -17488300000.0 -19259900000.0 -21486900000.0 -23448000000.0 -26181800000.0 -21231400000.0 -18738300000.0 -19124500000.0 -15972200000.0 -13942200000.0 -14684000000.0 -18010100000.0 -15584400000.0 -14906400000.0 -13356800000.0 -13260700000.0 -12716800000.0 -13154100000.0 -12592000000.0 -12565100000.0 -12699700000.0 -12630900000.0 -12742100000.0 -13173000000.0 -13266100000.0 -12583300000.0 -13037700000.0 -12705200000.0 -12809000000.0 -12700400000.0 -12629800000.0 -12865800000.0 -12550900000.0 -12555900000.0 -12636700000.0 -12569500000.0 -12970700000.0 -12561100000.0 -12721100000.0 -12603700000.0 -12587400000.0 -12624300000.0 -13052200000.0 -12957300000.0 -13140600000.0 -13242200000.0 -12936200000.0 -12639400000.0 -12719200000.0 -12563900000.0 -12554400000.0 -12557300000.0 -12549700000.0 -12549800000.0 -12550500000.0 -12557200000.0 -12560900000.0 -12549700000.0 -12550200000.0 -12553800000.0 -12576000000.0 -12577200000.0 -12555900000.0 -12568200000.0 -12586500000.0 -12668400000.0 -12624200000.0 -12592900000.0 -12718100000.0 -12584100000.0 -12646200000.0 -12737700000.0 -12879300000.0 -12937200000.0 -12682900000.0 -12903800000.0 -13674600000.0 -14940100000.0 -13377500000.0 -18143400000.0 -15352000000.0 -17621900000.0 -14073500000.0 -17392900000.0 -14608700000.0 -15765900000.0 -18919400000.0 -15288400000.0 -16529100000.0 -20631100000.0 -13149300000.0 -14585600000.0 -14470400000.0 -14052600000.0 -20103200000.0 -12667000000.0 -13293800000.0 -12971700000.0 -13192100000.0 -13171800000.0 -12605300000.0 -12559100000.0 -12566100000.0 -12610100000.0 -12618200000.0 -12566000000.0 -12828900000.0 -12758100000.0 -12549700000.0 -12596200000.0 -12583300000.0 -12583900000.0 -12635900000.0 -12623500000.0 -12615200000.0 -12676200000.0 -12550400000.0 -12710100000.0 -12679500000.0 -12564900000.0 -12569400000.0 -12582300000.0 -12569900000.0 -12627100000.0 -12576100000.0 -12563900000.0 -12839200000.0 -12822900000.0 -12689500000.0 -13516700000.0 -13635600000.0 -13051000000.0 -16875700000.0 -14707000000.0 -18159000000.0 -16002100000.0 -15950300000.0 -15038900000.0 -15925200000.0 -22182300000.0 -12564700000.0 -15556700000.0 -15465600000.0 -19906300000.0 -15370600000.0 -14075400000.0 -14566200000.0 -14367600000.0 -18674300000.0 -18941600000.0 -12666100000.0 -13766500000.0 -13608100000.0 -14424700000.0 -15547000000.0 -13486300000.0 -13930600000.0 -12743900000.0 -21451200000.0 -15783500000.0 -16786800000.0 -12599800000.0 -15271600000.0 -14271600000.0 -13478400000.0 -28038400000.0 -18555000000.0 -20977200000.0 -18000000000.0 -14025400000.0 -14881300000.0 -14260400000.0 -20344700000.0 -13048800000.0 -14912200000.0 -14820000000.0 -17689900000.0 -16409600000.0 -13321700000.0 -18024600000.0 -20988500000.0 -26780500000.0 -15491200000.0 -18163800000.0 -15852900000.0 -14974200000.0 -12549700000.0 -14439000000.0 -18764300000.0 -12783700000.0 -12738200000.0 -12886700000.0 -12778100000.0 -12549700000.0 -13725800000.0 -13413500000.0 -14542600000.0 -14760500000.0 -18772400000.0 -16475300000.0 -17245900000.0 -12581700000.0 -16279800000.0 -13017100000.0 -12897000000.0 -13012500000.0 -25556400000.0 -15329300000.0 -12562700000.0 -13348300000.0 -18508400000.0 -12549700000.0 -13710000000.0 -14716400000.0 -16972500000.0 -13043900000.0 -12756900000.0 -12549700000.0 -12886000000.0 -14626000000.0 -13927800000.0 -15392700000.0 -15542100000.0 -13498000000.0 -17211000000.0 -15260500000.0 -15243000000.0 -26296800000.0 -13841400000.0 -14804200000.0 -13459700000.0 -14250600000.0 -17368800000.0 -13559400000.0 -12842900000.0 -12549700000.0 -12549700000.0 -12549700000.0 -12549700000.0 -12549700000.0 -12549700000.0 -12549700000.0 -12549700000.0 -12549700000.0 -12549700000.0 -12829500000.0 -13940700000.0 -13462800000.0 -13758200000.0 -15151100000.0 -13778500000.0 -15705700000.0 -16088400000.0 -13997900000.0 -15906300000.0 -14735100000.0 -14432900000.0 -17683000000.0 -19504500000.0 -19852100000.0 -15177200000.0 -14433000000.0 -13180500000.0 -12839200000.0 -12549700000.0 -12549700000.0 -12549700000.0 -12549700000.0 -12549700000.0 -12549700000.0 -12549700000.0 -12549700000.0 -12549700000.0 -12549700000.0 -12549700000.0 -12549700000.0 -12549700000.0 -12549700000.0 -12549700000.0 -12549700000.0 -12549700000.0 -12549700000.0 -12549700000.0 -12549700000.0 -12549700000.0 -12549700000.0 -12549700000.0 -12549700000.0 -12549700000.0 -12549700000.0 -12549700000.0 -12549700000.0 -12549700000.0 -12549700000.0 -12549700000.0 -12549700000.0 -12549700000.0 -12550100000.0 -12549700000.0 -12549700000.0 -12634800000.0 -13856700000.0 -13411300000.0 -13394500000.0 -12606400000.0 -13770900000.0 -16016000000.0 -20012400000.0 -18926300000.0 -17428300000.0 -16401700000.0 -28198000000.0 -17369400000.0 -12857200000.0 -14729500000.0 -13613500000.0 -12735800000.0 -20025400000.0 -15201300000.0 -12773600000.0 -14759500000.0 -12595600000.0 -16269300000.0 -12982600000.0 -12618400000.0 -12549700000.0 -12549700000.0 -12549700000.0 -12549700000.0 -12549700000.0 -12549700000.0 -12549700000.0 -12549700000.0 -12549700000.0 -12549700000.0 -12549700000.0 -12549700000.0 -12549700000.0 -12549700000.0 -12549700000.0 -12549700000.0 -12549700000.0 -12549700000.0 -12549700000.0 -12549700000.0 -12549700000.0 -12549700000.0 -12549700000.0 -12549700000.0 -12549700000.0 -12549700000.0 -12549700000.0 -12551100000.0 -13126300000.0 -13977900000.0 -14500500000.0 -16029700000.0 -16590600000.0 -15148800000.0 -13118500000.0 -15661600000.0 -14817800000.0 -21392200000.0 -23640100000.0 -16312700000.0 -17137000000.0 -18835900000.0 -16677800000.0 -13029900000.0 -12560900000.0 -13220300000.0 -16910600000.0 -12699800000.0 -12638000000.0 -13182500000.0 -12853300000.0 -12649400000.0 -12554200000.0 -12549700000.0 -12549700000.0 -12549700000.0 -12549700000.0 -12549700000.0 -12549700000.0 -12549700000.0 -12549700000.0 -12549700000.0 -12549700000.0 -12549700000.0 -12549700000.0 -12549700000.0 -12549700000.0 -12549700000.0 -12549700000.0 -12549700000.0 -12549700000.0 -12549700000.0 -12549700000.0 -12549700000.0 -12549700000.0 -12549700000.0 -12549700000.0 -12549700000.0 -12549700000.0 -12549700000.0 -12549700000.0 -12549700000.0 -12549700000.0 -12549700000.0 -12549700000.0 -12549700000.0 -12549700000.0 -12549700000.0 -12549700000.0 -12549700000.0 -12549700000.0 -12549700000.0 -12549700000.0 -12549700000.0 -12549700000.0 -12586100000.0 -12744100000.0 -12821800000.0 -12963100000.0 -14235400000.0 -13236400000.0 -15473300000.0 -16818000000.0 -15834900000.0 -14986400000.0 -17221400000.0 -15522600000.0 -18892700000.0 -18651000000.0 -17486100000.0 -19843100000.0 -19506200000.0 -17055600000.0 -18802700000.0 -13070500000.0 -16135300000.0 -16766300000.0 -13756600000.0 -12572700000.0 -12594300000.0 -12559400000.0 -12549700000.0 -12549700000.0 -12549700000.0 -12549700000.0 -12549700000.0 -12549700000.0 -12549700000.0 -12549700000.0 -12549700000.0 -12549700000.0 -12549700000.0 -12549700000.0 -12549700000.0 -12549700000.0 -12549700000.0 -12549700000.0 -12549700000.0 -12549700000.0 -12549700000.0 -12549700000.0 -12549700000.0 -12549700000.0 -12549700000.0 -12549700000.0 -12549700000.0 -12549700000.0 -12549700000.0 -12549700000.0 -12549700000.0 -12549700000.0 -12549700000.0 -12549700000.0 -12549700000.0 -12549700000.0 -12549700000.0 -12549700000.0 -12549700000.0 -12549700000.0 -12549700000.0 -12549700000.0 -12549700000.0 -12549700000.0 -12549700000.0 -12549700000.0 -12549700000.0 -12549700000.0 -12552100000.0 -12558100000.0 -12641500000.0 -13240600000.0 -12831100000.0 -14177400000.0 -17426200000.0 -12595700000.0 -15976800000.0 -18305100000.0 -19093400000.0 -14348500000.0 -19504100000.0 -12549700000.0 -16392700000.0 -23737200000.0 -16944100000.0 -16451300000.0 -13805500000.0 -13026300000.0 -12682400000.0 -12607400000.0 -12565600000.0 -12550400000.0 -12550100000.0 -12549800000.0 -12549700000.0 -12549700000.0 -12549700000.0 -12549700000.0 -12549700000.0 -12549700000.0 -12549700000.0 -12549700000.0 -12549700000.0 -12549700000.0 -12549700000.0 -12549700000.0 -12549700000.0 -12549700000.0 -12549700000.0 -12549700000.0 -12549700000.0 -12549700000.0 -12549700000.0 -12549700000.0 -12549700000.0 -12549700000.0 -12549700000.0 -12549700000.0 -12549700000.0 -12549700000.0 -12549700000.0 -12549700000.0 -12549700000.0 -12549700000.0 -12549700000.0 -12549700000.0 -12549700000.0 -12549700000.0 -12549700000.0 -12549700000.0 -12549700000.0 -12549700000.0 -12549700000.0 -12549700000.0 -12549700000.0 -12549700000.0 -12549700000.0 -12549700000.0 -12569600000.0 -12698600000.0 -12814600000.0 -13650000000.0 -12954000000.0 -13203000000.0 -13233000000.0 -12903900000.0 -21268200000.0 -19901700000.0 -17742500000.0 -15399900000.0 -22308100000.0 -16965400000.0 -14704100000.0 -14625200000.0 -19351200000.0 -12632600000.0 -18300400000.0 -17305900000.0 -12686400000.0 -21062800000.0 -15730300000.0 -13713400000.0 -12631800000.0 -12549700000.0 -12558700000.0 -12553800000.0 -12551500000.0 -12549700000.0 -12549700000.0 -12549700000.0 -12549700000.0 -12549700000.0 -12549700000.0 -12549700000.0 -12549700000.0 -12549700000.0 -12549700000.0 -12549700000.0 -12549700000.0 -12549700000.0 -12549700000.0 -12549700000.0 -12549700000.0 -12549700000.0 -12549700000.0 -12549700000.0 -12549700000.0 -12549700000.0 -12549700000.0 -12549700000.0 -12549700000.0 -12549700000.0 -12549700000.0 -12549700000.0 -12549700000.0 -12549700000.0 -12549700000.0 -12549700000.0 -12549700000.0 -12549700000.0 -12549700000.0 -12549700000.0 -12549700000.0 -12549700000.0 -12549700000.0 -12549700000.0 -12549700000.0 -12549700000.0 -12549700000.0 -12549700000.0 -12549700000.0 -12549700000.0 -12549700000.0 -12549700000.0 -12549700000.0 -12549700000.0 -13006600000.0 -14796800000.0 -16498600000.0 -12608600000.0 -18850100000.0 -12764400000.0 -15313900000.0 -15919700000.0 -19448000000.0 -13137700000.0 -21731000000.0 -13971000000.0 -13927300000.0 -18383900000.0 -13448800000.0 -16487400000.0 -16662200000.0 -25914500000.0 -15100800000.0 -15825200000.0 -13618400000.0 -12666800000.0 -12712000000.0 -12961600000.0 -12588300000.0 -12549700000.0 -12549700000.0 -12549700000.0 -12549700000.0 -12549700000.0 -12549700000.0 -12549700000.0 -12549700000.0 -12549700000.0 -12549700000.0 -12549700000.0 -12549700000.0 -12549700000.0 -12549700000.0 -12549700000.0 -12549700000.0 -12549700000.0 -12549700000.0 -12549700000.0 -12549700000.0 -12549700000.0 -12549700000.0 -12549700000.0 -12549700000.0 -12549700000.0 -12549700000.0 -12549700000.0 -12549700000.0 -12549700000.0 -12549700000.0 -12549700000.0 -12549700000.0 -12549700000.0 -12549700000.0 -12549700000.0 -12549700000.0 -12549700000.0 -12549700000.0 -12549700000.0 -12549700000.0 -12549700000.0 -12870200000.0 -20352800000.0 -17159600000.0 -13227300000.0 -14801000000.0 -14350600000.0 -13585900000.0 -18200300000.0 -12598700000.0 -17811500000.0 -19271500000.0 -17463200000.0 -16138700000.0 -13224500000.0 -20777500000.0 -24713300000.0 -12549700000.0 -12549700000.0 -13045900000.0 -14267300000.0 -13157600000.0 -12549700000.0 -12549700000.0 -12549700000.0 -12549700000.0 -12549700000.0 -12549700000.0 -12549700000.0 -12549700000.0 -12549700000.0 -12549700000.0 -12549700000.0 -12549700000.0 -12549700000.0 -12549700000.0 -12549700000.0 -12549700000.0 -12549700000.0 -12549700000.0 -12549700000.0 -12549700000.0 -12549700000.0 -12549700000.0 -12549700000.0 -12549700000.0 -12549700000.0 -12549700000.0 -12549700000.0 -12549700000.0 -12549700000.0 -12549700000.0 -12549700000.0 -12549700000.0 -12549700000.0 -12549700000.0 -12549700000.0 -12549700000.0 -12549700000.0 -12940300000.0 -15492100000.0 -17782200000.0 -22389900000.0 -14114700000.0 -13141000000.0 -13724400000.0 -12554500000.0 -18398300000.0 -16051500000.0 -17006800000.0 -15330400000.0 -18719000000.0 -19609200000.0 -26528600000.0 -18093900000.0 -17236900000.0 -13025200000.0 -12549700000.0 -12549700000.0 -12549700000.0 -12549700000.0 -12549700000.0 -12549700000.0 -12549700000.0 -12549700000.0 -12549700000.0 -12549700000.0 -12549700000.0 -12549700000.0 -12549700000.0 -12549700000.0 -12549700000.0 -12549700000.0 -12549700000.0 -12549700000.0 -12549700000.0 -12549700000.0 -12549700000.0 -12549700000.0 -12549700000.0 -12549700000.0 -12549700000.0 -12549700000.0 -12549700000.0 -12549700000.0 -12549700000.0 -12549700000.0 -12549700000.0 -12549700000.0 -12549700000.0 -12549700000.0 -12549700000.0 -12549700000.0 -12549700000.0 -12549700000.0 -12549700000.0 -12549700000.0 -12549700000.0 -12549700000.0 -12549700000.0 -13162600000.0 -14625100000.0 -14370000000.0 -12634300000.0 -15028400000.0 -14424300000.0 -16412600000.0 -16466300000.0 -24361500000.0 -25559700000.0 -21160000000.0 -30610700000.0 -22676300000.0 -25632200000.0 -18836800000.0 -15195800000.0 -18946200000.0 -17387400000.0 -13286100000.0 -13452700000.0 -12549700000.0 -12549700000.0 -12549700000.0 -12549700000.0 -12549700000.0 -12549700000.0 -12549700000.0 -12549700000.0 -12549700000.0 -12549700000.0 -12549500000.0 -12549700000.0 -12549700000.0 -12549700000.0 -12549700000.0 -12549700000.0 -12549700000.0 -12549700000.0 -12549700000.0 -12549700000.0 -12549700000.0 -12549700000.0 -12549700000.0 -12549700000.0 -12549700000.0 -12549700000.0 -12549700000.0 -12549700000.0 -12549700000.0 -12549700000.0 -12549700000.0 -12549700000.0 -12549700000.0 -12549700000.0 -12549700000.0 -12549700000.0 -12549700000.0 -12549700000.0 -12549700000.0 -12549700000.0 -13070000000.0 -12709400000.0 -14575000000.0 -22854700000.0 -12562100000.0 -13137700000.0 -13581400000.0 -15673300000.0 -19394900000.0 -15026300000.0 -16307500000.0 -26109100000.0 -25008200000.0 -17337500000.0 -24211100000.0 -21729100000.0 -14730300000.0 -16161700000.0 -12913300000.0 -12584500000.0 -12617100000.0 -12549700000.0 -12549700000.0 -12549700000.0 -12549700000.0 -12549700000.0 -12549700000.0 -12549700000.0 -12549700000.0 -12549700000.0 -12549700000.0 -12549700000.0 -12549700000.0 -12549700000.0 -12549700000.0 -12549700000.0 -12549700000.0 -12549700000.0 -12549700000.0 -12549700000.0 -12549700000.0 -12549700000.0 -12549700000.0 -12549700000.0 -12549700000.0 -12549700000.0 -12549700000.0 -12549700000.0 -12549700000.0 -12549700000.0 -12549700000.0 -12549700000.0 -12549700000.0 -12831500000.0 -14318800000.0 -22715000000.0 -12592600000.0 -22572700000.0 -12609300000.0 -13648300000.0 -13335200000.0 -18994000000.0 -16807400000.0 -15512600000.0 -21213600000.0 -17903900000.0 -15210400000.0 -26772900000.0 -30325200000.0 -19812000000.0 -20617500000.0 -17114900000.0 -17015500000.0 -15612600000.0 -12575900000.0 -12549700000.0 -12549700000.0 -12549700000.0 -12549700000.0 -12549700000.0 -12549700000.0 -12549700000.0 -12549700000.0 -12549700000.0 -12549700000.0 -12549700000.0 -12549700000.0 -12549700000.0 -12549700000.0 -12549700000.0 -12549700000.0 -12549700000.0 -12549700000.0 -12549700000.0 -12549700000.0 -12549700000.0 -19284600000.0 -21981500000.0 -12645200000.0 -21478000000.0 -22093000000.0 -22541300000.0 -29277200000.0 -22559700000.0 -12660800000.0 -25417500000.0 -27859100000.0 -14441900000.0 -32429100000.0 -29232700000.0 -36379700000.0 -16581400000.0 -24102100000.0 -12549700000.0 -14453100000.0 -12549700000.0 -15395600000.0 -14372100000.0 -13968200000.0 -12549700000.0 -12549700000.0 -12549700000.0 -12549700000.0 -12549700000.0 -12549700000.0 -12549700000.0 -12549700000.0 -12549700000.0 -12549700000.0 -12549700000.0 -12549700000.0 -12549700000.0 -12549700000.0 -12549700000.0 -12549700000.0 -12549700000.0 -12549700000.0 -12549700000.0 -12549700000.0 -12549700000.0 -12549700000.0 -12549700000.0 -17575000000.0 -16232200000.0 -15576800000.0 -14749400000.0 -15835300000.0 -21155500000.0 -22976700000.0 -30364700000.0 -28461600000.0 -12808500000.0 -13375000000.0 -36761100000.0 -19849000000.0 -24427900000.0 -12549700000.0 -12549700000.0 -17045700000.0 -13969400000.0 -12990800000.0 -12549700000.0 -12549700000.0 -12549700000.0 -12549700000.0 -12549700000.0 -12549700000.0 -12549700000.0 -12549700000.0 -12549700000.0 -12549700000.0 -12549700000.0 -12549700000.0 -12549600000.0 -12549700000.0 -12415800000.0 -13654600000.0 -17167000000.0 -17337900000.0 -15275200000.0 -16006000000.0 -15605500000.0 -15914400000.0 -19322100000.0 -14332400000.0 -15202000000.0 -18754700000.0 -15128000000.0 -26074300000.0 -20043400000.0 -18596000000.0 -45171700000.0 -12549700000.0 -28009000000.0 -18651700000.0 -13273900000.0 -12549700000.0 -12549700000.0 -12549700000.0 -12549700000.0 -12549700000.0 -12549700000.0 -12549700000.0 -12549700000.0 -12549700000.0 -12549700000.0 -12549700000.0 -12549600000.0 -12549200000.0 -13779900000.0 -14784700000.0 -17031800000.0 -17270800000.0 -12700800000.0 -12765300000.0 -13057100000.0 -13369600000.0 -15565000000.0 -13187300000.0 -15021500000.0 -18456000000.0 -12778200000.0 -22069100000.0 -14956200000.0 -24956700000.0 -34602200000.0 -13552800000.0 -40580500000.0 -12549700000.0 -13529700000.0 -12549700000.0 -12549700000.0 -12549900000.0 -12549700000.0 -12549700000.0 -12549700000.0 -12549700000.0 -12549700000.0 -1.97055e+12 -2.66678e+12 -4.78326e+12 -12549700000.0 -4.39069e+12 -4.34525e+12 -3.88205e+12 -4.02418e+12 -3.17429e+12 -3.60002e+12 -5.92184e+12 -3.27286e+12 -3.52191e+12 -5.42376e+12 -4.89944e+12 -3.28616e+12 -4.82673e+12 -2.28558e+12 -4.34384e+12 -4.9554e+12 -6.10336e+12 -2.67859e+12 -4.77278e+12 -5.68579e+12 -4.3548e+12 -4.41861e+12 -5.01254e+12 -4.20148e+12 -4.29589e+12 -3.92919e+12 -4.87776e+12 -3.947e+12 -12548900000.0 -5.87754e+12 -5.5947e+12 -5.24741e+12 -3.66717e+12 -4.46016e+12 -4.45966e+12 -4.37149e+12 -3.35165e+12 -6.15873e+12 -4.0962e+12 -3.66524e+12 -3.30234e+12 -4.22582e+12 -3.92954e+12 -2.75807e+12 -4.14974e+12 -12898000000.0 -4.16366e+12 -1.84761e+12 -2.33904e+12 -12549600000.0 -18490100000.0 -12585900000.0 -12549700000.0 -12549700000.0 -12803100000.0 -14409800000.0 -13366800000.0 -12549700000.0 -19570400000.0 -16345200000.0 -32087700000.0 -25948400000.0 -32067300000.0 -18693200000.0 -33494500000.0 -12549700000.0 -2.53644e+12 -3.41889e+12 -4.90666e+12 -3.37807e+12 -4.54093e+12 -5.32306e+12 -4.03135e+12 -4.85121e+12 -4.01001e+12 -12574000000.0 -4.08176e+12 -6.22997e+12 -12346900000.0 -4.8558e+12 -3.74445e+12 -4.2821e+12 -5.89963e+12 -3.01014e+12 -2.71863e+12 -2.20472e+12 -3.63083e+12 -3.82184e+12 -3.83288e+12 -6.65065e+12 -2.32651e+12 -4.11657e+12 -3.94047e+12 -3.93963e+12 -12549700000.0 -3.82243e+12 -4.69713e+12 -3.87506e+12 -4.24891e+12 -12636900000.0 -4.23834e+12 -3.66531e+12 -4.91517e+12 -3.29705e+12 -4.23161e+12 -5.94711e+12 -6.31635e+12 -6.45992e+12 -5.38011e+12 -5.85908e+12 -5.08091e+12 -6.42401e+12 -4.71095e+12 -4.96936e+12 -6.41176e+12 -4.30744e+12 -3.92929e+12 -4.66193e+12 -3.01443e+12 -6.63449e+12 -6.48785e+12 -4.9342e+12 -6.08236e+12 -5.45016e+12 -4.79758e+12 -7.35269e+12 -1.11311e+13 -5.20169e+12 -4.02805e+12 -5.59126e+12 -4.59927e+12 -4.91742e+12 -6.81821e+12 -6.78356e+12 -4.95468e+12 -6.82809e+12 -4.24303e+12 -4.88139e+12 -5.84985e+12 -5.98927e+12 -7.34404e+12 -9.02317e+12 -7.26257e+12 -1.11212e+13 -5.20457e+12 -3.79088e+12 -6.3919e+12 -5.69146e+12 -5.2503e+12 -4.5081e+12 -7.65061e+12 -7.32654e+12 -5.43773e+12 -9.17391e+12 -8.03161e+12 -8.98219e+12 -8.30687e+12 -5.29746e+12 -5.19233e+12 -7.4037e+12 -6.84654e+12 -6.71889e+12 -7.97495e+12 -6.77708e+12 -7.13278e+12 -1.11408e+13 -5.68262e+12 -3.47913e+12 -4.99132e+12 -4.05439e+12 -3.69185e+12 -7.59481e+12 -7.18681e+12 -4.95944e+12 -6.03984e+12 -3.72812e+12 -6.79933e+12 -6.30966e+12 -9.37225e+12 -5.92826e+12 -6.83572e+12 -7.51066e+12 -6.64429e+12 -3.05628e+12 -5.37119e+12 -4.99168e+12 -5.986e+12 -5.19784e+12 -9.38103e+12 -2.42203e+12 -5.1356e+12 -4.32711e+12 -6.23399e+12 -3.61946e+12 -6.61163e+12 -6.79373e+12 -6.19389e+12 -6.99637e+12 -3.95248e+12 -3.19991e+12 -4.67024e+12 -3.62031e+12 -2.13051e+12 -12549700000.0 -13327800000.0 -16818700000.0 -15668400000.0 -13970200000.0 -13346900000.0 -12961400000.0 -13384400000.0 -12628400000.0 -13641400000.0 -24439700000.0 -26232300000.0 -12549500000.0 -12550500000.0 -30550500000.0 -12549400000.0 -24725900000.0 -17120100000.0 -20048900000.0 -21381700000.0 -27078800000.0 -16772300000.0 -5.18864e+12 -7.96418e+12 -3.79505e+12 -6.61676e+12 -3.40617e+12 -6.44346e+12 -1.04344e+13 -5.6459e+12 -6.39171e+12 -4.3328e+12 -3.86503e+12 -3.15918e+12 -7.14327e+12 -4.68984e+12 -6.86331e+12 -4.38084e+12 -4.51767e+12 -5.96193e+12 -4.36694e+12 -9.50387e+12 -6.95164e+12 -1.05148e+13 -7.81199e+12 -7.09797e+12 -1.08406e+13 -7.15874e+12 -5.29551e+12 -5.56001e+12 -6.67025e+12 -8.38349e+12 -7.52636e+12 -6.49496e+12 -4.69667e+12 -9.20579e+12 -5.01522e+12 -9.80276e+12 -7.59635e+12 -7.8821e+12 -5.72683e+12 -4.59738e+12 -4.9478e+12 -4.72924e+12 -8.27753e+12 -6.82997e+12 -6.19039e+12 -6.77228e+12 -6.37945e+12 -6.59264e+12 -5.4819e+12 -1.41128e+12 -2.93742e+12 -5.79836e+12 -5.02502e+12 -4.47304e+12 -6.01653e+12 -5.17483e+12 -8.22728e+12 -6.78141e+12 -5.76787e+12 -5.40094e+12 -6.45751e+12 -7.39182e+12 -6.52147e+12 -3.85584e+12 -8.13301e+12 -6.89734e+12 -4.86212e+12 -5.94166e+12 -7.88251e+12 -5.82256e+12 -5.77733e+12 -9.84041e+12 -5.57131e+12 -6.92315e+12 -7.44115e+12 -8.57443e+12 -7.78544e+12 -4.14143e+12 -5.53763e+12 -2.5752e+12 -4.75191e+12 -8.20463e+12 -6.48069e+12 -6.2221e+12 -7.74783e+12 -7.08632e+12 -5.55916e+12 -5.17094e+12 -7.27611e+12 -8.72799e+12 -4.58014e+12 -1.91909e+12 -6.45169e+12 -3.62339e+12 -4.56826e+12 -1.72691e+12 -2.43558e+12 -6.69734e+12 -5.31481e+12 -4.14804e+12 -6.02279e+12 -2.42288e+12 -5.88735e+12 -7.16108e+12 -6.11981e+12 -5.81255e+12 -6.13451e+12 -9.01953e+12 -8.72296e+12 -6.38607e+12 -6.27339e+12 -5.86348e+12 -7.00254e+12 -4.87685e+12 -7.75298e+12 -6.03073e+12 -6.09983e+12 -5.78483e+12 -7.5327e+12 -6.35363e+12 -5.41137e+12 -4.37192e+12 -8.1983e+12 -6.26962e+12 -7.33304e+12 -2.93772e+12 -6.2338e+12 -2.99974e+12 -8.46965e+12 -9.93367e+12 -7.81788e+12 -5.05455e+12 -7.05171e+12 -5.41647e+12 -9.52793e+12 -4.41702e+12 -4.26717e+12 -5.5591e+12 -6.55815e+12 -6.41924e+12 -4.0048e+12 -1.097e+13 -8.10097e+12 -4.45742e+12 -6.33564e+12 -3.69453e+12 -3.9384e+12 -4.73299e+12 -6.88053e+12 -4.56316e+12 -12952200000.0 -14599600000.0 -14340500000.0 -14636200000.0 -15327100000.0 -17707800000.0 -19677700000.0 -22251900000.0 -15687200000.0 -16654700000.0 -16648100000.0 -16212400000.0 -16724500000.0 -17769800000.0 -14071400000.0 -13749500000.0 -19528200000.0 -21805900000.0 -16232600000.0 -5.22189e+12 -4.46022e+12 -3.90485e+12 -8.63259e+12 -7.7075e+12 -2.03525e+12 -9.78027e+12 -2.166e+12 -4.59153e+12 -6.92826e+12 -4.9115e+12 -1.0305e+13 -8.61442e+12 -5.9282e+12 -3.04265e+12 -5.29536e+12 -6.25032e+12 -4.17107e+12 -3.6125e+12 -4.02178e+12 -5.09078e+12 -7.62475e+12 -8.50441e+12 -5.62072e+12 -7.52537e+12 -4.05752e+12 -5.43835e+12 -7.9224e+12 -6.58953e+12 -6.71294e+12 -9.16627e+12 -9.41381e+12 -7.36939e+12 -3.52787e+12 -7.86425e+12 -4.55501e+12 -8.21823e+12 -6.11751e+12 -4.8192e+12 -6.09301e+12 -6.34052e+12 -5.02894e+12 -6.26717e+12 -6.84023e+12 -6.4669e+12 -5.27529e+12 -5.96999e+12 -4.22229e+12 -7.23302e+12 -8.19568e+12 -1.04397e+13 -5.2747e+12 -6.06841e+12 -8.59558e+12 -3.88783e+12 -3.97322e+12 -3.68889e+12 -5.88326e+12 -6.11528e+12 -4.04122e+12 -5.65675e+12 -3.93396e+12 -4.96911e+12 -4.99102e+12 -7.39575e+12 -8.93448e+12 -4.50814e+12 -4.13946e+12 -7.21716e+12 -2.17282e+12 -7.01662e+12 -5.06535e+12 -4.33362e+12 -6.08611e+12 -8.99263e+12 -7.2472e+12 -6.01912e+12 -1.00034e+13 -5.06482e+12 -3.79103e+12 -6.65715e+12 -4.68438e+12 -5.90908e+12 -4.90687e+12 -5.13243e+12 -6.43464e+12 -5.72294e+12 -5.00507e+12 -6.24064e+12 -5.01838e+12 -6.78115e+12 -4.10757e+12 -5.1568e+12 -4.0012e+12 -4.70449e+12 -8.4642e+12 -4.14906e+12 -7.33295e+12 -8.07434e+12 -7.14994e+12 -4.00268e+12 -4.20259e+12 -3.39602e+12 -4.78431e+12 -2.22414e+12 -5.84813e+12 -4.30283e+12 -6.45531e+12 -5.06775e+12 -5.70376e+12 -3.95344e+12 -8.88667e+12 -5.8707e+12 -4.63472e+12 -4.07207e+12 -3.89885e+12 -6.95992e+12 -3.08346e+12 -4.81609e+12 -6.07855e+12 -6.9248e+12 -7.8356e+12 -5.31341e+12 -4.4701e+12 -6.04854e+12 -6.73825e+12 -5.75717e+12 -4.51288e+12 -6.5563e+12 -5.4784e+12 -13205500000.0 -13668700000.0 -12617000000.0 -12549700000.0 -4.70174e+12 -4.83982e+12 -3.78204e+12 -3.04116e+12 -4.2802e+12 -4.31465e+12 -4.66069e+12 -5.49447e+12 -5.89281e+12 -6.28485e+12 -7.22317e+12 -7.27918e+12 -6.36069e+12 -6.38856e+12 -4.11662e+12 -2.36649e+12 -5.4239e+12 -3.45474e+12 -5.34272e+12 -7.42208e+12 -5.51966e+12 -4.05001e+12 -8.77174e+12 -1.01531e+13 -3.53981e+12 -5.9758e+12 -2.89538e+12 -3.86509e+12 -9.26469e+12 -3.71346e+12 -8.30085e+12 -3.05589e+12 -3.67804e+12 -5.21816e+12 -5.10725e+12 -4.51948e+12 -2.50609e+12 -4.96049e+12 -7.46206e+12 -7.62919e+12 -6.33133e+12 -3.52237e+12 -6.81452e+12 -3.96141e+12 -5.83427e+12 -6.04805e+12 -6.28465e+12 -7.42406e+12 -4.46196e+12 -5.82077e+12 -5.69689e+12 -5.9518e+12 -3.68269e+12 -3.80616e+12 -4.72212e+12 -5.65077e+12 -5.38324e+12 -3.55128e+12 -4.26618e+12 -4.36262e+12 -7.16832e+12 -6.50171e+12 -3.29668e+12 -4.33785e+12 -3.1296e+12 -7.42955e+12 -4.34917e+12 -3.09585e+12 -6.59177e+12 -3.77222e+12 -4.22159e+12 -4.91248e+12 -4.42733e+12 -4.30558e+12 -6.83681e+12 -7.92257e+12 -4.4737e+12 -4.14137e+12 -645331000000.0 -4.20637e+12 -9.87044e+12 -5.02089e+12 -5.41777e+12 -4.19625e+12 -4.88099e+12 -3.83443e+12 -4.64287e+12 -5.10046e+12 -2.97812e+12 -4.28569e+12 -7.00576e+12 -6.20984e+12 -4.70153e+12 -7.28897e+12 -2.69399e+12 -6.80758e+12 -8.064e+12 -4.80325e+12 -5.0556e+12 -7.3827e+12 -7.24267e+12 -4.16877e+12 -2.66435e+12 -7.87754e+12 -6.59769e+12 -5.66416e+12 -7.08273e+12 -3.20935e+12 -5.10215e+12 -5.08728e+12 -4.77559e+12 -5.42037e+12 -3.71402e+12 -5.98455e+12 -7.29985e+12 -2.63608e+12 -5.71534e+12 -4.46274e+12 -4.53473e+12 -3.38424e+12 -5.17934e+12 -3.52106e+12 -2.16517e+12 -1.99293e+12 -5.11994e+12 -4.64905e+12 -3.29707e+12 -4.2149e+12 -4.14173e+12 -4.74143e+12 -3.38782e+12 -3.87896e+12 -8.05014e+12 -6.093e+12 -4.8293e+12 -3.98537e+12 -3.96897e+12 -3.60958e+12 -5.6002e+12 -4.81628e+12 -5.48529e+12 -6.00839e+12 -6.96595e+12 -4.96924e+12 -3.85403e+12 -2.76216e+12 -3.76096e+12 -4.05569e+12 -5.20909e+12 -3.48708e+12 -2.92178e+12 -2.27214e+12 -3.09598e+12 -3.69903e+12 -6.13505e+12 -4.07706e+12 -5.08326e+12 -3.03588e+12 -3.29446e+12 -3.62759e+12 -5.34646e+12 -5.57541e+12 -6.67552e+12 -5.83612e+12 -7.25872e+12 -2.89487e+12 -2.59683e+12 -4.43405e+12 -3.39519e+12 -4.40201e+12 -5.8975e+12 -6.0938e+12 -2.27629e+12 -4.27267e+12 -4.93104e+12 -5.77754e+12 -5.20594e+12 -4.38851e+12 -3.07329e+12 -4.78181e+12 -4.39501e+12 -5.90935e+12 -7.63188e+12 -4.78912e+12 -6.45924e+12 -3.19257e+12 -7.11368e+12 -5.11253e+12 -2.01406e+12 -5.84613e+12 -2.43976e+12 -5.75875e+12 -6.14012e+12 -2.97215e+12 -1.00341e+13 -3.89354e+12 -6.68203e+12 -6.12464e+12 -5.44042e+12 -5.95821e+12 -5.99032e+12 -4.23862e+12 -5.82466e+12 -5.66711e+12 -4.95475e+12 -6.141e+12 -5.21827e+12 -6.38186e+12 -4.95041e+12 -1.73415e+12 -5.53054e+12 -4.89054e+12 -3.76603e+12 -4.89427e+12 -5.29033e+12 -6.79639e+12 -4.13306e+12 -5.71517e+12 -3.69341e+12 -4.82144e+12 -6.00416e+12 -8.49854e+12 -3.29883e+12 -4.06365e+12 -5.29351e+12 -3.12959e+12 -6.75709e+12 -5.66732e+12 -3.88844e+12 -6.33419e+12 -5.22339e+12 -3.3984e+12 -6.38878e+12 -3.49257e+12 -7.37361e+12 -6.41125e+12 -6.26945e+12 -2.97363e+12 -4.67699e+12 -4.32569e+12 -2.90769e+12 -5.44175e+12 -2.07288e+12 -2.76679e+12 -6.09586e+12 -1.76873e+12 -4.56761e+12 -6.56026e+12 -4.05904e+12 -3.28266e+12 -5.51898e+12 -3.44598e+12 -3.29581e+12 -3.47408e+12 -3.22922e+12 -3.52085e+12 -3.24779e+12 -3.63398e+12 -3.85921e+12 -6.40492e+12 -3.57004e+12 -7.97725e+12 -2.55348e+12 -3.23086e+12 -3.50247e+12 -4.80786e+12 -2.66734e+12 -5.35061e+12 -3.30842e+12 -2.47868e+12 -4.95808e+12 -5.85942e+12 -1.91986e+12 -4.77445e+12 -5.74089e+12 -5.72091e+12 -4.45469e+12 -6.43481e+12 -2.33756e+12 -5.93613e+12 -5.24971e+12 -4.34865e+12 -2.78481e+12 -6.75188e+12 -2.79473e+12 -3.99152e+12 -6.32407e+12 -4.78368e+12 -3.45564e+12 -5.03284e+12 -3.07959e+12 -5.18051e+12 -3.79574e+12 -5.66132e+12 -3.37472e+12 -4.72067e+12 -5.59111e+12 -4.35328e+12 -5.33305e+12 -2.86483e+12 -3.27149e+12 -2.80995e+12 -6.28099e+12 -3.99194e+12 -4.32026e+12 -5.73564e+12 -3.8408e+12 -4.6879e+12 -3.02131e+12 -4.58935e+12 -5.34934e+12 -5.80873e+12 -4.24839e+12 -3.49398e+12 -4.30988e+12 -3.06243e+12 -3.47351e+12 -2.47392e+12 -3.40918e+12 -5.38497e+12 -3.80646e+12 -1.54964e+12 -3.05983e+12 -4.26825e+12 -3.515e+12 -3.06286e+12 -4.27947e+12 -2.8595e+12 -3.00584e+12 -3.90459e+12 -4.23008e+12 -3.74877e+12 -2.72804e+12 -6.21463e+12 -3.0317e+12 -4.14722e+12 -5.33849e+12 -3.70208e+12 -4.28508e+12 -3.38233e+12 -3.85114e+12 -4.58541e+12 -5.7561e+12 -4.94892e+12 -659997000000.0 -2.53335e+12 -4.96618e+12 -4.89137e+12 -3.20621e+12 -4.11465e+12 -4.34292e+12 -4.20861e+12 -2.18495e+12 -4.01705e+12 -5.20957e+12 -6.41859e+12 -3.9695e+12 -4.62611e+12 -4.3976e+12 -1.52587e+12 -3.98965e+12 -2.42741e+12 -2.62866e+12 -3.43446e+12 -6.38731e+12 -5.29713e+12 -5.81832e+12 -6.51404e+12 -5.38159e+12 -4.64259e+12 -4.2488e+12 -2.84823e+12 -3.26231e+12 -3.56669e+12 -2.35308e+12 -3.51575e+12 -2.40178e+12 -3.73632e+12 -2.8271e+12 -3.08725e+12 -3.64154e+12 -3.0159e+12 -651814000000.0 -3.06811e+12 -3.72122e+12 -1.40395e+12 -4.57076e+12 -3.02843e+12 -4.47182e+12 -1.97659e+12 -3.28572e+12 -3.23405e+12 -4.16719e+12 -2.41408e+12 -3.96885e+12 -2.19619e+12 -3.54472e+12 -4.43831e+12 -5.04732e+12 -2.71291e+12 -1.51732e+12 -3.26017e+12 -3.44755e+12 -3.4566e+12 -6.14113e+12 -2.94481e+12 -4.18608e+12 -2.76314e+12 -3.56398e+12 -7.23235e+12 -2.71696e+12 -2.25582e+12 -3.36402e+12 -3.89964e+12 -2.00506e+12 -4.54652e+12 -2.3965e+12 -4.55744e+12 -1.97179e+12 -3.09247e+12 -2.75178e+12 -3.84832e+12 -2.6929e+12 -5.07031e+12 -4.63892e+12 -2.20844e+12 -2.48935e+12 -2.72181e+12 -1.659e+12 -3.99007e+12 -3.72331e+12 -2.4883e+12 -3.08455e+12 -3.29795e+12 -4.21484e+12 -2.65508e+12 -2.84077e+12 -3.43815e+12 -3.74031e+12 -2.85619e+12 -3.28236e+12 -2.22859e+12 -2.85399e+12 -2.74729e+12 -2.45789e+12 -1.90579e+12 -3.68633e+12 -4.80755e+12 -3.36664e+12 -1.75099e+12 -2.04898e+12 -2.54114e+12 -3.43373e+12 -2.78442e+12 -2.95494e+12 -3.5246e+12 -1.05388e+12 -2.84253e+12 -2.55971e+12 -3.13842e+12 -1.54455e+12 -2.98298e+12 -2.79547e+12 -3.73858e+12 -2.70156e+12 -3.53252e+12 -4.25733e+12 -5.16089e+12 -2.92713e+12 -5.04137e+12 -3.36587e+12 -4.52816e+12 -2.77025e+12 -3.16342e+12 -2.59627e+12 -2.7545e+12 -1.8791e+12 -1.5322e+12 -3.11741e+12 -3.16243e+12 -3.65706e+12 -5.20666e+12 -2.38333e+12 -3.39589e+12 -4.23586e+12 -2.24226e+12 -2.90965e+12 -2.53678e+12 -5.05076e+12 -3.01698e+12 -4.61526e+12 -1.52919e+12 -2.15554e+12 -2.86404e+12 -3.01892e+12 -2.16368e+12 -2.39781e+12 -4.36563e+12 -2.55286e+12 -2.00495e+12 -4.11226e+12 -1.04676e+12 -2.11927e+12 -5.09449e+12 -2.64366e+12 -4.35635e+12 -4.0565e+12 -5.27164e+12 -2.14533e+12 -3.55255e+12 -3.7356e+12 -1.60188e+12 -3.26566e+12 -2.79499e+12 -3.37483e+12 -3.56648e+12 -2.06916e+12 -2.52505e+12 -4.8201e+12 -3.2125e+12 -2.88e+12 -2.09581e+12 -1.33314e+12 -3.35524e+12 -4.39062e+12 -3.78219e+12 -3.05666e+12 -2.37655e+12 -2.04336e+12 -2.63727e+12 -2.16613e+12 -2.30224e+12 -2.8552e+12 -245655000000.0 -2.50749e+12 -2.43235e+12 -2.061e+12 -1.69141e+12 -2.60315e+12 -1.93463e+12 -2.25294e+12 -2.15883e+12 -1.69813e+12 -2.69962e+12 -2.87047e+12 -2.80116e+12 -2.28767e+12 -5.34029e+12 -3.32616e+12 -2.40955e+12 -2.38742e+12 -2.19768e+12 -1.65128e+12 -3.19382e+12 -3.71308e+12 -2.4313e+12 -2.76363e+12 -3.93687e+12 -2.97226e+12 -4.7102e+12 -1.36056e+12 -4.14181e+12 -3.97826e+12 -4.44603e+12 -5.31796e+12 -3.25052e+12 -2.70808e+12 -2.58323e+12 -2.40838e+12 -2.52258e+12 -1.88532e+12 -2.78552e+12 -1.84262e+12 -1.25999e+12 -3.1215e+12 -1.61659e+12 -3.83455e+12 -3.79227e+12 -2.18327e+12 -3.22297e+12 -1.13107e+12 -4.14101e+12 -1.86021e+12 -737783000000.0 -1.59636e+12 -3.56621e+12 -2.77514e+12 -5.23224e+12 -1.75614e+12 -3.71256e+12 -1.98395e+12 -1.75582e+12 -2.64276e+12 -1.39142e+12 -1.36141e+12 -3.32414e+12 -3.21102e+12 -1.99508e+12 -2.15315e+12 -2.52523e+12 -2.97406e+12 -1.66751e+12 -2.39029e+12 -2.90075e+12 -2.25831e+12 -4.70052e+12 -3.17635e+12 -4.28016e+12 -3.02623e+12 -3.45673e+12 -2.95383e+12 -3.44605e+12 -1.44157e+12 -2.29905e+12 -3.56726e+12 -2.81771e+12 -2.19473e+12 -2.75139e+12 -3.17914e+12 -3.07018e+12 -4.01899e+12 -1.86039e+12 -3.38415e+12 -3.27135e+12 -2.35061e+12 -987697000000.0 -2.02602e+12 -3.31825e+12 -2.47214e+12 -1.11707e+12 -2.65588e+12 -954242000000.0 -1.51641e+12 -1.90085e+12 -2.01451e+12 -2.34205e+12 -805594000000.0 -2.11627e+12 -1.79614e+12 -1.3476e+12 -3.57365e+12 -1.66982e+12 -1.8669e+12 -1.43818e+12 -2.08013e+12 -1.06881e+12 -2.03993e+12 -1.63305e+12 -1.66158e+12 -1.7412e+12 -2.62858e+12 -1.35225e+12 -2.48645e+12 -2.60438e+12 -5.51921e+12 -2.84388e+12 -2.11361e+12 -1.34419e+12 -1.88391e+12 -2.3521e+12 -2.39411e+12 -1.16908e+12 -4.46204e+12 -2.47334e+12 -1.89698e+12 -1.00568e+12 -1.5386e+12 -1.56364e+12 -1.86286e+12 -3.1261e+12 -1.15198e+12 -2.61932e+12 -1.38604e+12 -992162000000.0 -1.52696e+12 -2.19443e+12 -1.16989e+12 -3.13818e+12 -2.03048e+12 -1.02523e+12 -2.777e+12 -1.71854e+12 -2.17378e+12 -1.12924e+12 -2.18603e+12 -2.13898e+12 -3.2572e+12 -1.61833e+12 -1.51793e+12 -2.96098e+12 -2.84509e+12 -2.26476e+12 -2.74956e+12 -1.98422e+12 -897467000000.0 -1.73291e+12 -1.62603e+12 -1.55744e+12 -1.44134e+12 -2.29314e+12 -2.30985e+12 -3.96567e+12 -2.53266e+12 -2.97477e+12 -2.14609e+12 -2.87004e+12 -1.69603e+12 -1.78025e+12 -2.38603e+12 -1.81506e+12 -1.72966e+12 -2.04566e+12 -2.76304e+12 -1.84525e+12 -3.56206e+12 -1.28905e+12 -2.87911e+12 -2.92013e+12 -2.80076e+12 -1.4125e+12 -1.82565e+12 -2.36556e+12 -2.88585e+12 -1.83607e+12 -1.59694e+12 -1.01019e+12 -2.15233e+12 -311684000000.0 -2.11944e+12 -1.29891e+12 -1.23782e+12 -2.083e+12 -1.46441e+12 -1.29442e+12 -2.2847e+12 -1.59719e+12 -911580000000.0 -1.30365e+12 -2.02935e+12 -1.45422e+12 -2.46814e+12 -1.11885e+12 -2.22871e+12 -906019000000.0 -1.56794e+12 -1.59371e+12 -1.29803e+12 -1.34371e+12 -1.05979e+12 -2.47669e+12 -1.12078e+12 -2.03058e+12 -993346000000.0 -1.33889e+12 -1.91624e+12 -606965000000.0 -1.55384e+12 -1.20254e+12 -1.0343e+12 -1.26226e+12 -2.13961e+12 -1.1996e+12 -700213000000.0 -1.53951e+12 -275742000000.0 -1.79442e+12 -431841000000.0 -1.37508e+12 -2.93514e+12 -2.42077e+12 -1.65852e+12 -1.83774e+12 -2.91744e+12 -2.51885e+12 -1.10628e+12 -1.04233e+12 -992087000000.0 -1.12904e+12 -560875000000.0 -1.84061e+12 -632855000000.0 -567254000000.0 -1.59172e+12 -2.27453e+12 -1.03009e+12 -2.28025e+12 -1.49661e+12 -1.52203e+12 -1.38107e+12 -1.33801e+12 -1.67464e+12 -2.06179e+12 -2.69738e+12 -1.76665e+12 -869800000000.0 -913006000000.0 -934836000000.0 -1.76648e+12 -2.00594e+12 -2.4684e+12 -1.04931e+12 -1.4885e+12 -1.17191e+12 -1.21177e+12 -2.37521e+12 -1.99625e+12 -2.02801e+12 -2.33649e+12 -2.99427e+12 -1.24675e+12 -930152000000.0 -1.92208e+12 -1.94467e+12 -1.98843e+12 -664214000000.0 -864858000000.0 -829834000000.0 -1.1192e+12 -444832000000.0 -194295000000.0 -1.12643e+12 -324450000000.0 -2.12467e+12 -899530000000.0 -497326000000.0 -1.10732e+12 -673134000000.0 -1.2396e+12 -987547000000.0 -1.34454e+12 -304528000000.0 -681384000000.0 -509452000000.0 -694730000000.0 -254879000000.0 -591685000000.0 -161915000000.0 -991918000000.0 -346574000000.0 -1.05215e+12 -579416000000.0 -889602000000.0 -986443000000.0 -959035000000.0 -884757000000.0 -686632000000.0 -1.00546e+12 -842286000000.0 -992580000000.0 -509134000000.0 -920929000000.0 -806641000000.0 -544131000000.0 -841835000000.0 -665921000000.0 -889202000000.0 -1.04849e+12 -959548000000.0 -1.88418e+12 -466897000000.0 -314925000000.0 -954441000000.0 -475827000000.0 -1.87952e+12 -1.0808e+12 -382907000000.0 -1.347e+12 -387356000000.0 -744958000000.0 -1.95906e+12 -447979000000.0 -500100000000.0 -716567000000.0 -431793000000.0 -828868000000.0 -1.50293e+12 -873578000000.0 -452167000000.0 -1.66081e+12 -870103000000.0 -1.34671e+12 -854791000000.0 -349633000000.0 -845828000000.0 -1.72271e+12 -1.25163e+12 -407772000000.0 -643754000000.0 -1.28659e+12 -998456000000.0 -338661000000.0 -191749000000.0 -924823000000.0 -751792000000.0 -1.16296e+12 -532463000000.0 -865846000000.0 -1.19298e+12 -751571000000.0 -452702000000.0 -1.27023e+12 -677739000000.0 -576674000000.0 -1.00549e+12 -1.08012e+12 -1.69746e+12 -239114000000.0 -1.07909e+12 -731500000000.0 -1.19616e+12 -865606000000.0 -174302000000.0 -81310500000.0 -642919000000.0 -787555000000.0 -419730000000.0 -247739000000.0 -262357000000.0 -207444000000.0 -70367800000.0 -169983000000.0 -246903000000.0 -351219000000.0 -193970000000.0 -276998000000.0 -169463000000.0 -138283000000.0 -131703000000.0 -458456000000.0 -377083000000.0 -330844000000.0 -418813000000.0 -176935000000.0 -292397000000.0 -187201000000.0 -232913000000.0 -468753000000.0 -237681000000.0 -632749000000.0 -308267000000.0 -162700000000.0 -670420000000.0 -309401000000.0 -367856000000.0 -161801000000.0 -84128100000.0 -119498000000.0 -185928000000.0 -390106000000.0 -358063000000.0 -221188000000.0 -253518000000.0 -434571000000.0 -426866000000.0 -389657000000.0 -200975000000.0 -225132000000.0 -213982000000.0 -512445000000.0 -239656000000.0 -307350000000.0 -557318000000.0 -323145000000.0 -207039000000.0 -181137000000.0 -118197000000.0 