# vtk DataFile Version 2.0
Time step 46
ASCII
DATASET UNSTRUCTURED_GRID
POINTS 5000 float
8533.67 89851.9 0
12438.9 89685.9 0
16747.6 89003.8 0
27669.3 87387.0 0
33204.7 90074.3 0
57005.0 89656.7 0
72702.5 89998.4 0
87407.7 90032.9 0
167010.0 90044.0 0
171830.0 88926.9 0
177734.0 88965.2 0
182938.0 88151.5 0
187393.0 90006.1 0
201747.0 89690.6 0
212985.0 89790.4 0
230434.0 89990.0 0
241170.0 89692.2 0
252680.0 89677.5 0
278881.0 89096.3 0
297319.0 89061.0 0
303664.0 89845.3 0
345896.0 89917.0 0
361815.0 89463.7 0
372012.0 87481.7 0
377031.0 89453.4 0
388132.0 89628.0 0
394019.0 88943.9 0
403650.0 87870.1 0
408587.0 89082.2 0
422737.0 88889.4 0
432478.0 88401.5 0
442088.0 89696.4 0
446251.0 89277.1 0
450665.0 90045.0 0
455208.0 89984.9 0
460242.0 89828.8 0
471628.0 89474.4 0
477063.0 88277.8 0
485844.0 88209.9 0
491674.0 89748.6 0
497601.0 88242.1 0
2398.29 90478.3 0
6062.3 93172.0 0
11087.1 94203.8 0
17332.4 94906.0 0
22243.6 90651.6 0
28519.3 93738.7 0
38185.1 90658.1 0
42703.7 90811.2 0
47472.3 90717.6 0
48279.7 94712.1 0
52137.1 90817.1 0
57995.2 95098.0 0
62763.5 90732.4 0
67994.7 90865.9 0
72116.0 95118.1 0
77500.0 90745.3 0
82500.0 90734.6 0
87907.8 94790.7 0
92500.0 90772.8 0
97192.6 90794.2 0
101292.0 90711.3 0
105946.0 90100.9 0
111936.0 90580.1 0
108243.0 94692.1 0
117850.0 90765.1 0
123330.0 90841.9 0
128345.0 90962.8 0
133428.0 90211.4 0
138124.0 90894.9 0
142500.0 90816.1 0
147500.0 90749.6 0
152501.0 90719.4 0
157589.0 90347.0 0
156861.0 94396.2 0
162561.0 90502.3 0
166509.0 94715.7 0
172971.0 94495.9 0
178375.0 94377.5 0
183532.0 93219.5 0
188603.0 94451.8 0
192498.0 91167.9 0
196079.0 90330.4 0
198250.0 94675.1 0
207650.0 90454.8 0
213692.0 94340.8 0
218128.0 90876.3 0
222479.0 90888.7 0
225794.0 90118.0 0
226801.0 94353.0 0
235810.0 90987.8 0
246502.0 91693.6 0
259052.0 90152.2 0
257263.0 94790.7 0
263773.0 91240.7 0
268740.0 90149.7 0
267062.0 94992.7 0
273935.0 90445.1 0
271610.0 94296.2 0
277075.0 94700.0 0
282030.0 92428.8 0
286325.0 90736.4 0
291717.0 91192.5 0
298249.0 94571.4 0
307730.0 92415.6 0
312126.0 90270.0 0
317928.0 90887.2 0
323245.0 90792.4 0
327581.0 91063.3 0
332206.0 90661.9 0
337223.0 90371.0 0
341019.0 91581.9 0
343308.0 94607.1 0
350687.0 91840.0 0
347752.0 95003.6 0
355259.0 90823.5 0
361441.0 94776.3 0
365114.0 94469.0 0
367954.0 90797.2 0
372930.0 94282.4 0
382609.0 90327.4 0
378819.0 94004.2 0
382004.0 95142.5 0
388375.0 94716.2 0
393554.0 95091.0 0
399200.0 90612.8 0
402999.0 94069.6 0
412474.0 90732.7 0
408388.0 93363.0 0
412864.0 94674.8 0
417500.0 90778.4 0
422128.0 93526.1 0
427271.0 90598.2 0
433429.0 93634.7 0
437540.0 90754.8 0
443214.0 93978.7 0
447602.0 93287.1 0
451946.0 94522.6 0
457176.0 94712.0 0
465794.0 90217.8 0
466599.0 94787.5 0
475181.0 94767.4 0
481305.0 91141.0 0
486589.0 94399.1 0
496837.0 93751.2 0
2284.53 95493.2 0
6739.02 98217.2 0
11843.4 100033.0 0
16323.4 100113.0 0
23005.3 96161.9 0
20502.9 100123.0 0
34969.1 95348.9 0
40341.6 95667.4 0
38263.6 100180.0 0
44464.5 96009.1 0
47588.8 99433.2 0
52500.0 95777.2 0
62849.9 95831.9 0
67505.2 95503.7 0
77500.0 95903.4 0
82116.1 95549.6 0
81954.5 100276.0 0
92500.0 95912.4 0
97183.5 95541.3 0
97548.4 100061.0 0
102467.0 95445.9 0
107924.0 99472.0 0
112500.0 95848.7 0
117500.0 95930.2 0
122500.0 95853.1 0
125864.0 99763.9 0
127727.0 95395.8 0
132494.0 95746.6 0
137520.0 95761.4 0
142774.0 95238.7 0
140992.0 99359.5 0
146926.0 95586.7 0
151937.0 95464.2 0
156244.0 98956.9 0
161296.0 95216.5 0
169996.0 99282.4 0
176294.0 100135.0 0
182187.0 98358.5 0
193570.0 95312.1 0
203920.0 95310.4 0
199972.0 99780.1 0
209357.0 95524.8 0
213300.0 99151.6 0
217601.0 95947.0 0
222032.0 95713.3 0
222564.0 99987.6 0
226872.0 99358.0 0
232205.0 95414.8 0
237686.0 96239.1 0
243283.0 96063.6 0
248462.0 95767.2 0
246841.0 99835.4 0
252678.0 96237.7 0
257738.0 99542.7 0
262325.0 95416.3 0
262719.0 100194.0 0
267489.0 99447.2 0
273047.0 99536.3 0
279878.0 98763.0 0
282828.0 96115.4 0
287500.0 95826.8 0
292912.0 95683.7 0
291017.0 99990.2 0
296734.0 99614.9 0
303118.0 95515.8 0
307441.0 95708.6 0
307700.0 100138.0 0
312501.0 96021.3 0
317475.0 95762.5 0
318188.0 100252.0 0
322433.0 95260.4 0
322509.0 99265.7 0
327500.0 95807.0 0
332500.0 95879.3 0
336511.0 99877.1 0
337713.0 95212.6 0
341414.0 98812.5 0
346846.0 99390.2 0
352668.0 95729.9 0
356026.0 99117.6 0
357755.0 95243.6 0
361261.0 99478.4 0
366513.0 98550.0 0
377673.0 99939.1 0
384354.0 98480.0 0
392424.0 99913.6 0
397217.0 99873.3 0
398136.0 95525.7 0
409243.0 99007.8 0
417519.0 95294.0 0
419145.0 99983.3 0
428326.0 95540.5 0
424121.0 98343.4 0
432249.0 99258.0 0
437510.0 95823.1 0
437342.0 99995.6 0
442358.0 99215.6 0
448275.0 98359.9 0
454178.0 99926.7 0
462429.0 96201.6 0
470193.0 95967.8 0
472372.0 99289.8 0
477746.0 100238.0 0
480797.0 96416.0 0
492077.0 96649.5 0
2238.62 101416.0 0
8050.24 104058.0 0
13471.9 104660.0 0
17752.3 103958.0 0
22417.3 104497.0 0
27043.6 100571.0 0
32615.8 100405.0 0
32072.6 104692.0 0
42970.5 100567.0 0
49063.6 104224.0 0
51800.5 101198.0 0
56554.5 100718.0 0
62115.1 100688.0 0
63617.0 105020.0 0
67697.7 100348.0 0
73695.4 100661.0 0
78211.1 101101.0 0
77068.8 105020.0 0
82136.1 105297.0 0
86960.3 100306.0 0
92531.5 100663.0 0
102630.0 101208.0 0
107685.0 104970.0 0
116732.0 100533.0 0
112494.0 100746.0 0
113113.0 105075.0 0
120857.0 100383.0 0
118139.0 105010.0 0
123420.0 104371.0 0
131158.0 101463.0 0
136445.0 101415.0 0
137738.0 105329.0 0
146305.0 100478.0 0
151834.0 102076.0 0
148002.0 105086.0 0
156828.0 104351.0 0
161703.0 100907.0 0
166528.0 102725.0 0
170842.0 105311.0 0
182233.0 103837.0 0
188048.0 100613.0 0
194261.0 100338.0 0
197223.0 105065.0 0
203055.0 104919.0 0
208111.0 100433.0 0
204288.0 100775.0 0
217709.0 100881.0 0
214360.0 104822.0 0
222021.0 104245.0 0
227505.0 104908.0 0
232444.0 100880.0 0
234332.0 105259.0 0
237422.0 100665.0 0
237874.0 103989.0 0
241792.0 101318.0 0
246211.0 105021.0 0
251784.0 101129.0 0
255872.0 104258.0 0
260336.0 103928.0 0
266349.0 104129.0 0
278361.0 104266.0 0
283554.0 101048.0 0
287216.0 101116.0 0
288758.0 104270.0 0
302234.0 100751.0 0
313207.0 101264.0 0
316257.0 104967.0 0
321078.0 104491.0 0
326812.0 101147.0 0
329893.0 104690.0 0
331856.0 100863.0 0
339780.0 104203.0 0
351893.0 100565.0 0
357349.0 103075.0 0
366551.0 103243.0 0
371101.0 100423.0 0
382813.0 103996.0 0
388338.0 101668.0 0
402858.0 100311.0 0
408059.0 104357.0 0
414413.0 101562.0 0
416948.0 105365.0 0
427685.0 101380.0 0
425658.0 105007.0 0
437115.0 104190.0 0
441812.0 104801.0 0
446524.0 103357.0 0
450849.0 103855.0 0
458992.0 100976.0 0
463187.0 100739.0 0
467519.0 100847.0 0
466976.0 105173.0 0
472594.0 104249.0 0
482622.0 101111.0 0
487506.0 102214.0 0
491506.0 100711.0 0
492124.0 104566.0 0
496591.0 100320.0 0
2182.12 105830.0 0
7155.04 110365.0 0
11905.3 108400.0 0
17161.6 109137.0 0
23053.1 109881.0 0
26988.8 106494.0 0
30224.3 109232.0 0
34875.0 110026.0 0
37589.3 105385.0 0
39764.3 109449.0 0
43205.9 105630.0 0
48582.8 109449.0 0
53807.2 105899.0 0
59223.0 105397.0 0
57213.5 109789.0 0
63064.8 109795.0 0
68064.9 106020.0 0
72603.0 105536.0 0
73401.3 109595.0 0
78302.3 110169.0 0
83593.7 110237.0 0
87334.1 105480.0 0
88398.0 110298.0 0
92269.2 105994.0 0
97732.1 105413.0 0
102767.0 106664.0 0
111306.0 109659.0 0
116640.0 110268.0 0
122098.0 109561.0 0
127500.0 105928.0 0
126931.0 109970.0 0
132691.0 106291.0 0
136577.0 109879.0 0
142524.0 105478.0 0
147012.0 109363.0 0
153419.0 106729.0 0
157942.0 110289.0 0
160406.0 105720.0 0
164429.0 106429.0 0
167047.0 109303.0 0
177032.0 106703.0 0
186625.0 106248.0 0
191646.0 105735.0 0
193693.0 109820.0 0
203174.0 110020.0 0
208748.0 106779.0 0
218717.0 106129.0 0
216320.0 109439.0 0
221176.0 109779.0 0
231983.0 109758.0 0
237943.0 108725.0 0
241749.0 105919.0 0
248029.0 110099.0 0
251518.0 106387.0 0
252898.0 110415.0 0
257727.0 109440.0 0
262636.0 107502.0 0
267587.0 110081.0 0
271756.0 105805.0 0
284358.0 105787.0 0
283573.0 110374.0 0
288835.0 109590.0 0
292983.0 105985.0 0
298941.0 105915.0 0
303985.0 106147.0 0
302639.0 110452.0 0
307500.0 105971.0 0
312166.0 105790.0 0
316965.0 109404.0 0
325851.0 106080.0 0
322296.0 110087.0 0
330937.0 110204.0 0
334357.0 106686.0 0
341522.0 109697.0 0
346088.0 105645.0 0
352844.0 106141.0 0
361674.0 105466.0 0
357892.0 109653.0 0
367104.0 108150.0 0
362982.0 110440.0 0
371934.0 106057.0 0
377880.0 107390.0 0
387369.0 105854.0 0
383272.0 110008.0 0
388209.0 110034.0 0
393045.0 106585.0 0
399508.0 105480.0 0
403054.0 109483.0 0
404321.0 105507.0 0
408162.0 109207.0 0
412346.0 106026.0 0
414685.0 109674.0 0
421365.0 106613.0 0
427477.0 109457.0 0
431066.0 105450.0 0
436127.0 109175.0 0
441996.0 110462.0 0
448331.0 108868.0 0
455407.0 105699.0 0
461201.0 105389.0 0
464982.0 110279.0 0
473889.0 109466.0 0
478847.0 105737.0 0
484704.0 106252.0 0
489148.0 106976.0 0
496754.0 106962.0 0
1482.5 110505.0 0
2749.64 114543.0 0
12671.2 112905.0 0
18088.4 114907.0 0
28648.5 113278.0 0
33633.1 115582.0 0
39135.3 114290.0 0
43683.2 111283.0 0
43746.0 115493.0 0
48694.7 115418.0 0
53135.0 111900.0 0
59720.4 114801.0 0
68310.4 111195.0 0
68290.0 115385.0 0
72212.4 113473.0 0
76319.2 115064.0 0
87885.7 115367.0 0
92508.7 110836.0 0
96906.3 115401.0 0
97237.0 110828.0 0
101195.0 110894.0 0
101491.0 115531.0 0
105586.0 110486.0 0
111043.0 114508.0 0
115385.0 114984.0 0
120870.0 115586.0 0
127441.0 115234.0 0
131218.0 110671.0 0
133301.0 115124.0 0
142212.0 111172.0 0
151801.0 111296.0 0
148389.0 115381.0 0
161442.0 114764.0 0
163657.0 110914.0 0
166774.0 114655.0 0
171003.0 111319.0 0
176728.0 112994.0 0
182933.0 110757.0 0
189204.0 110653.0 0
192410.0 115161.0 0
198249.0 110953.0 0
202629.0 114596.0 0
207321.0 112160.0 0
212115.0 111031.0 0
210631.0 115559.0 0
216384.0 115334.0 0
222686.0 115422.0 0
226331.0 111546.0 0
236017.0 113708.0 0
242843.0 110575.0 0
250904.0 114566.0 0
262830.0 113081.0 0
268273.0 115438.0 0
272697.0 111690.0 0
278480.0 110920.0 0
282084.0 114304.0 0
293487.0 110583.0 0
293046.0 115002.0 0
297507.0 111960.0 0
301871.0 114379.0 0
307115.0 110812.0 0
311941.0 110531.0 0
316864.0 114529.0 0
327150.0 110950.0 0
328008.0 115561.0 0
333888.0 114434.0 0
337123.0 110583.0 0
346658.0 111612.0 0
351577.0 111791.0 0
355550.0 113917.0 0
360517.0 115182.0 0
366514.0 115292.0 0
370164.0 111598.0 0
374541.0 111613.0 0
378546.0 114963.0 0
383422.0 114146.0 0
387240.0 114505.0 0
392170.0 112832.0 0
397892.0 111417.0 0
405311.0 114723.0 0
411971.0 113791.0 0
417929.0 110926.0 0
422499.0 111473.0 0
427294.0 113710.0 0
431263.0 110879.0 0
432240.0 115469.0 0
437085.0 114506.0 0
447111.0 115033.0 0
454028.0 110860.0 0
459446.0 111001.0 0
466555.0 114961.0 0
469646.0 111131.0 0
477663.0 112539.0 0
481986.0 110691.0 0
486773.0 110587.0 0
487738.0 115435.0 0
492177.0 111144.0 0
497457.0 112698.0 0
3058.0 120343.0 0
7838.91 116886.0 0
13609.9 118753.0 0
23745.5 115639.0 0
28782.6 118621.0 0
38542.0 119475.0 0
43271.7 119750.0 0
49672.3 120312.0 0
54182.1 116604.0 0
58566.4 120669.0 0
64871.9 115900.0 0
63416.7 119847.0 0
67007.2 120310.0 0
71705.4 118809.0 0
77975.1 120394.0 0
81940.4 115658.0 0
88019.0 120399.0 0
92636.7 115763.0 0
93070.7 120382.0 0
98000.0 119871.0 0
106437.0 115823.0 0
105783.0 120259.0 0
110766.0 119862.0 0
116642.0 119763.0 0
126500.0 120495.0 0
131193.0 119819.0 0
138726.0 115611.0 0
143744.0 115779.0 0
145104.0 120373.0 0
152799.0 115886.0 0
150850.0 120432.0 0
157000.0 115986.0 0
162036.0 119427.0 0
167180.0 119752.0 0
172235.0 117104.0 0
177078.0 117320.0 0
181363.0 117368.0 0
186882.0 115654.0 0
197843.0 116661.0 0
202645.0 120033.0 0
206636.0 116772.0 0
212134.0 119939.0 0
228326.0 117091.0 0
233994.0 118247.0 0
240938.0 116142.0 0
246423.0 116694.0 0
252376.0 118839.0 0
256764.0 115648.0 0
262544.0 120243.0 0
268735.0 120406.0 0
272894.0 116587.0 0
277851.0 116930.0 0
282796.0 119683.0 0
287109.0 115676.0 0
293224.0 120336.0 0
297883.0 117317.0 0
302610.0 120226.0 0
306177.0 116293.0 0
311437.0 116259.0 0
317437.0 120283.0 0
322340.0 116007.0 0
325880.0 119542.0 0
337522.0 117861.0 0
342203.0 115677.0 0
347981.0 116364.0 0
351083.0 120535.0 0
352292.0 116069.0 0
356010.0 118513.0 0
372525.0 116555.0 0
383496.0 118593.0 0
390732.0 117465.0 0
396042.0 117241.0 0
400401.0 115717.0 0
409494.0 119388.0 0
417777.0 115662.0 0
414469.0 119639.0 0
417767.0 119797.0 0
422969.0 116342.0 0
420956.0 120154.0 0
427626.0 120221.0 0
433303.0 119835.0 0
437889.0 119486.0 0
441852.0 116068.0 0
452640.0 116049.0 0
458109.0 116363.0 0
462539.0 115960.0 0
467794.0 119941.0 0
471813.0 115697.0 0
476954.0 117258.0 0
482254.0 116048.0 0
488548.0 120562.0 0
492469.0 116999.0 0
497459.0 117782.0 0
8752.21 122770.0 0
18380.2 122489.0 0
23880.4 121341.0 0
33719.9 121286.0 0
32330.0 125537.0 0
46373.4 124113.0 0
53687.1 121349.0 0
63645.2 125017.0 0
68689.2 123592.0 0
83400.2 121740.0 0
90126.7 124881.0 0
98603.4 124046.0 0
102078.0 121524.0 0
105637.0 124769.0 0
118204.0 125333.0 0
122654.0 121054.0 0
123813.0 125582.0 0
128387.0 123912.0 0
135218.0 121645.0 0
139747.0 121163.0 0
137790.0 125103.0 0
147422.0 125683.0 0
152993.0 125639.0 0
156884.0 121344.0 0
161786.0 124995.0 0
167144.0 124723.0 0
171462.0 122428.0 0
176185.0 121044.0 0
180973.0 122970.0 0
185795.0 120939.0 0
191577.0 121040.0 0
197331.0 122191.0 0
201626.0 125506.0 0
207608.0 120795.0 0
207153.0 125763.0 0
212988.0 125450.0 0
217212.0 121721.0 0
223347.0 121392.0 0
228979.0 123086.0 0
233411.0 122714.0 0
238461.0 121907.0 0
243836.0 121185.0 0
242101.0 125435.0 0
248991.0 120797.0 0
246558.0 125161.0 0
251470.0 124761.0 0
255537.0 121748.0 0
273495.0 121134.0 0
278387.0 122319.0 0
284549.0 125716.0 0
287975.0 121667.0 0
293312.0 124694.0 0
297717.0 122596.0 0
308389.0 121209.0 0
313173.0 120801.0 0
312021.0 124974.0 0
316759.0 124877.0 0
322202.0 121583.0 0
326427.0 125168.0 0
329964.0 120725.0 0
335029.0 121270.0 0
331733.0 125676.0 0
340296.0 121679.0 0
345917.0 122402.0 0
351163.0 125711.0 0
356392.0 124081.0 0
360813.0 121059.0 0
366436.0 121037.0 0
371143.0 121491.0 0
377226.0 122219.0 0
387807.0 121769.0 0
392749.0 121795.0 0
398356.0 122756.0 0
403887.0 120760.0 0
411605.0 124912.0 0
416991.0 123523.0 0
422628.0 125153.0 0
432998.0 124479.0 0
438724.0 125132.0 0
442650.0 120961.0 0
448517.0 120918.0 0
453997.0 120915.0 0
458539.0 121332.0 0
455670.0 125308.0 0
462991.0 121113.0 0
468722.0 125166.0 0
472983.0 121443.0 0
477805.0 125673.0 0
479982.0 121162.0 0
484310.0 121015.0 0
486594.0 124717.0 0
492635.0 121154.0 0
490650.0 125168.0 0
497770.0 122542.0 0
2142.5 126247.0 0
2239.97 130820.0 0
7229.67 128848.0 0
13671.6 126396.0 0
18604.0 127431.0 0
22344.5 125827.0 0
23275.1 130681.0 0
27492.1 126274.0 0
32590.7 129012.0 0
37271.9 126085.0 0
42440.4 127408.0 0
47008.2 130595.0 0
51408.5 126500.0 0
57400.3 126798.0 0
62195.7 130411.0 0
67963.9 130478.0 0
73557.7 126661.0 0
79821.1 125872.0 0
78090.1 130469.0 0
85124.5 126664.0 0
95037.7 126737.0 0
101293.0 127403.0 0
97844.2 130104.0 0
105727.0 130261.0 0
111337.0 126199.0 0
121623.0 130414.0 0
128112.0 129951.0 0
133268.0 125989.0 0
137500.0 129044.0 0
133715.0 130823.0 0
141902.0 125955.0 0
157246.0 127258.0 0
153546.0 130459.0 0
163103.0 130833.0 0
170762.0 126460.0 0
173356.0 129707.0 0
168439.0 129993.0 0
176881.0 126038.0 0
177762.0 130481.0 0
182321.0 127790.0 0
186887.0 125965.0 0
191537.0 126345.0 0
191579.0 130856.0 0
196349.0 127638.0 0
212098.0 130383.0 0
219801.0 126810.0 0
224910.0 126713.0 0
228653.0 127179.0 0
232797.0 126494.0 0
231021.0 130527.0 0
236990.0 127147.0 0
241284.0 130345.0 0
246730.0 130098.0 0
252429.0 130273.0 0
257766.0 127015.0 0
262740.0 126317.0 0
268253.0 126023.0 0
274071.0 126095.0 0
279358.0 127842.0 0
284011.0 130177.0 0
289724.0 126597.0 0
292658.0 130019.0 0
296527.0 127517.0 0
302306.0 125913.0 0
303661.0 130866.0 0
307427.0 126473.0 0
307812.0 130791.0 0
312334.0 130202.0 0
321330.0 126716.0 0
317611.0 129914.0 0
328006.0 129832.0 0
332710.0 130788.0 0
337285.0 126979.0 0
342892.0 127010.0 0
346828.0 126969.0 0
345478.0 130684.0 0
349518.0 129903.0 0
355328.0 130281.0 0
361677.0 127164.0 0
366973.0 125907.0 0
366485.0 130628.0 0
371655.0 125973.0 0
382201.0 126145.0 0
378335.0 128826.0 0
386894.0 126493.0 0
391451.0 126303.0 0
392581.0 130674.0 0
395529.0 127055.0 0
400529.0 127865.0 0
405864.0 126533.0 0
412514.0 130158.0 0
417168.0 128650.0 0
421020.0 130701.0 0
428258.0 126306.0 0
425370.0 130338.0 0
431956.0 130123.0 0
444698.0 125842.0 0
450508.0 127597.0 0
454498.0 130555.0 0
461373.0 126201.0 0
465833.0 127844.0 0
469297.0 130653.0 0
473166.0 127016.0 0
479087.0 130561.0 0
482449.0 125843.0 0
486587.0 128921.0 0
495005.0 126523.0 0
2127.54 135187.0 0
6960.44 134733.0 0
12440.6 132459.0 0
18049.5 131887.0 0
16008.6 135894.0 0
24885.0 135932.0 0
29083.2 132247.0 0
35952.3 131904.0 0
40992.0 131626.0 0
52812.1 131243.0 0
53579.7 135772.0 0
57602.9 132959.0 0
62542.2 135643.0 0
67219.3 135729.0 0
73651.6 133367.0 0
79098.9 135988.0 0
82804.1 131381.0 0
84542.6 135979.0 0
88774.1 131202.0 0
93972.8 131580.0 0
92508.1 135687.0 0
101251.0 131688.0 0
97466.4 134496.0 0
110243.0 131637.0 0
107194.0 135014.0 0
111837.0 135801.0 0
115522.0 131213.0 0
123247.0 135646.0 0
127766.0 135339.0 0
132819.0 135893.0 0
142031.0 131222.0 0
138522.0 135148.0 0
148122.0 132265.0 0
157983.0 131436.0 0
161568.0 135766.0 0
166875.0 134869.0 0
173249.0 135928.0 0
181596.0 132363.0 0
186463.0 131232.0 0
195893.0 133389.0 0
201124.0 131098.0 0
207148.0 131824.0 0
212779.0 135042.0 0
216813.0 131596.0 0
221590.0 132413.0 0
223358.0 135913.0 0
226069.0 131241.0 0
227641.0 135943.0 0
232481.0 135237.0 0
235877.0 131786.0 0
246692.0 134935.0 0
257588.0 132263.0 0
263719.0 131821.0 0
269613.0 131687.0 0
267689.0 135876.0 0
274591.0 131077.0 0
271757.0 135439.0 0
279916.0 133186.0 0
276114.0 135906.0 0
284286.0 134590.0 0
288600.0 131612.0 0
293601.0 134561.0 0
298743.0 132221.0 0
302642.0 135811.0 0
306701.0 134662.0 0
311690.0 135895.0 0
316843.0 134746.0 0
323360.0 131705.0 0
324883.0 135597.0 0
328697.0 134544.0 0
337435.0 132292.0 0
341915.0 130939.0 0
344143.0 134900.0 0
350100.0 135559.0 0
360664.0 132352.0 0
369396.0 135416.0 0
373420.0 131124.0 0
378300.0 133322.0 0
383175.0 131790.0 0
388072.0 130898.0 0
388068.0 135398.0 0
397114.0 130913.0 0
397920.0 135093.0 0
393144.0 135745.0 0
408059.0 131291.0 0
403355.0 132012.0 0
406595.0 135915.0 0
418441.0 134084.0 0
423545.0 135503.0 0
428715.0 134145.0 0
437683.0 131371.0 0
443669.0 131424.0 0
450715.0 134029.0 0
458799.0 131492.0 0
456147.0 135636.0 0
463933.0 131317.0 0
463205.0 135361.0 0
467453.0 135918.0 0
474376.0 131552.0 0
472541.0 135850.0 0
477866.0 135890.0 0
483695.0 132245.0 0
487589.0 135488.0 0
491385.0 130989.0 0
497411.0 131140.0 0
497811.0 135901.0 0
3067.48 140297.0 0
8555.13 139233.0 0
12581.4 137868.0 0
20037.4 136172.0 0
16420.8 140066.0 0
21312.3 141075.0 0
32222.1 136612.0 0
32650.3 140420.0 0
37673.4 137505.0 0
43318.3 136049.0 0
48686.4 136592.0 0
53255.7 140728.0 0
57459.0 137870.0 0
62499.3 140065.0 0
71133.0 138135.0 0
66930.3 140166.0 0
82351.4 139584.0 0
86393.2 139920.0 0
88606.4 136238.0 0
91254.0 140770.0 0
96601.8 139617.0 0
101325.0 140776.0 0
102445.0 136114.0 0
106448.0 140182.0 0
117994.0 136720.0 0
123220.0 140898.0 0
128379.0 139841.0 0
138695.0 140880.0 0
143145.0 136052.0 0
143897.0 140093.0 0
151877.0 136051.0 0
147994.0 138240.0 0
152641.0 140483.0 0
156564.0 136269.0 0
158023.0 140747.0 0
162828.0 139899.0 0
168108.0 140321.0 0
178608.0 136077.0 0
183533.0 137014.0 0
187087.0 140968.0 0
189457.0 136082.0 0
193908.0 137212.0 0
197934.0 140835.0 0
199741.0 136114.0 0
203874.0 136696.0 0
202908.0 140678.0 0
208359.0 136963.0 0
212052.0 139985.0 0
219058.0 136344.0 0
222464.0 140135.0 0
232440.0 139944.0 0
237724.0 136247.0 0
237065.0 140561.0 0
242286.0 136667.0 0
246106.0 139951.0 0
251864.0 136523.0 0
254522.0 140994.0 0
257453.0 136560.0 0
262305.0 138048.0 0
272517.0 139325.0 0
283203.0 139983.0 0
288580.0 136851.0 0
292774.0 140166.0 0
298814.0 136982.0 0
297383.0 140935.0 0
302106.0 140951.0 0
306892.0 139390.0 0
316042.0 139641.0 0
321345.0 136638.0 0
320406.0 141059.0 0
326139.0 140385.0 0
334154.0 136412.0 0
339612.0 136200.0 0
343317.0 139845.0 0
348163.0 141044.0 0
356712.0 137127.0 0
363252.0 137016.0 0
372382.0 140585.0 0
367630.0 140975.0 0
374924.0 136443.0 0
379745.0 137293.0 0
382003.0 140475.0 0
384038.0 137417.0 0
387376.0 140023.0 0
391837.0 140462.0 0
396415.0 139675.0 0
401987.0 136338.0 0
406578.0 140777.0 0
412747.0 136054.0 0
417742.0 140009.0 0
428007.0 140353.0 0
433882.0 136607.0 0
440195.0 137537.0 0
445499.0 136142.0 0
448654.0 138692.0 0
453284.0 140410.0 0
458570.0 139524.0 0
460062.0 136100.0 0
463270.0 139554.0 0
468255.0 140974.0 0
473568.0 141033.0 0
478469.0 140803.0 0
482744.0 136493.0 0
485370.0 139949.0 0
492465.0 136178.0 0
490340.0 140064.0 0
495332.0 140156.0 0
7503.9 143652.0 0
12197.8 142415.0 0
12524.9 146054.0 0
17165.5 145606.0 0
27466.0 141287.0 0
32917.1 144527.0 0
37797.2 142872.0 0
42305.9 141200.0 0
47951.0 142101.0 0
51665.8 145217.0 0
58928.8 141761.0 0
56222.4 145308.0 0
61495.4 145740.0 0
71359.2 142315.0 0
67362.4 145666.0 0
76176.5 141180.0 0
80897.5 143845.0 0
86724.0 145545.0 0
98368.8 144989.0 0
103676.0 144931.0 0
108521.0 145578.0 0
112395.0 141312.0 0
118078.0 142147.0 0
123558.0 145931.0 0
128426.0 145016.0 0
133236.0 141377.0 0
133081.0 145898.0 0
146817.0 142478.0 0
143072.0 144219.0 0
150635.0 144419.0 0
155609.0 144499.0 0
161150.0 144782.0 0
172596.0 141605.0 0
172930.0 145894.0 0
177246.0 141363.0 0
182427.0 141970.0 0
192265.0 141236.0 0
189253.0 145709.0 0
194195.0 145757.0 0
203778.0 144897.0 0
207315.0 141665.0 0
213126.0 145244.0 0
217205.0 141413.0 0
222500.0 145888.0 0
227444.0 141486.0 0
227501.0 146063.0 0
231365.0 144079.0 0
235335.0 144604.0 0
241372.0 141138.0 0
241012.0 145530.0 0
246229.0 145800.0 0
250345.0 141534.0 0
258823.0 141622.0 0
257745.0 145413.0 0
262636.0 144544.0 0
267465.0 141211.0 0
268649.0 145929.0 0
272487.0 143977.0 0
277260.0 141187.0 0
282613.0 145761.0 0
288222.0 141407.0 0
287963.0 145819.0 0
293356.0 145646.0 0
298041.0 144802.0 0
306759.0 144264.0 0
311368.0 141410.0 0
317139.0 145329.0 0
322855.0 145594.0 0
326677.0 145335.0 0
332573.0 142464.0 0
338274.0 141460.0 0
340794.0 146156.0 0
345207.0 144244.0 0
349873.0 145666.0 0
353179.0 141598.0 0
358609.0 142644.0 0
363217.0 142508.0 0
377383.0 141946.0 0
372563.0 145500.0 0
382879.0 145129.0 0
389047.0 144996.0 0
397277.0 144855.0 0
401429.0 141241.0 0
407528.0 145487.0 0
411926.0 142415.0 0
417012.0 145709.0 0
422243.0 142936.0 0
432011.0 145749.0 0
435853.0 141879.0 0
440095.0 142488.0 0
444884.0 141296.0 0
448961.0 141805.0 0
447788.0 145486.0 0
457752.0 144372.0 0
463133.0 144726.0 0
468195.0 146120.0 0
473084.0 146195.0 0
478098.0 145641.0 0
481959.0 141334.0 0
482741.0 145951.0 0
487708.0 144855.0 0
493259.0 144892.0 0
497791.0 144446.0 0
2830.07 146203.0 0
9657.59 147505.0 0
7270.1 150948.0 0
12117.0 151281.0 0
23591.5 146509.0 0
28519.3 146374.0 0
28810.1 150883.0 0
32723.6 149226.0 0
37936.9 148537.0 0
44154.4 146561.0 0
48947.1 148251.0 0
52884.1 150911.0 0
58210.6 150083.0 0
71362.1 150226.0 0
73114.8 146682.0 0
78024.8 147688.0 0
92877.4 146754.0 0
96751.4 150810.0 0
101923.0 149284.0 0
113658.0 146695.0 0
118711.0 147449.0 0
123398.0 150998.0 0
128618.0 150181.0 0
137596.0 146257.0 0
133599.0 150428.0 0
141641.0 148789.0 0
146707.0 146525.0 0
150726.0 150130.0 0
156814.0 149726.0 0
162657.0 150849.0 0
167133.0 146399.0 0
170995.0 150760.0 0
178054.0 146873.0 0
183653.0 146736.0 0
183159.0 150688.0 0
187240.0 150790.0 0
192617.0 150365.0 0
199079.0 146485.0 0
202934.0 149906.0 0
208282.0 146706.0 0
210961.0 150814.0 0
217850.0 146718.0 0
215629.0 151034.0 0
221239.0 151109.0 0
231614.0 148265.0 0
237590.0 150296.0 0
243850.0 151001.0 0
248904.0 150772.0 0
252669.0 146280.0 0
257368.0 148752.0 0
260306.0 150790.0 0
265515.0 149713.0 0
272406.0 150282.0 0
276647.0 146236.0 0
279500.0 151005.0 0
285572.0 149890.0 0
290284.0 149761.0 0
297351.0 149999.0 0
302181.0 146860.0 0
306882.0 149739.0 0
311374.0 146632.0 0
318328.0 151147.0 0
323489.0 150543.0 0
331450.0 146877.0 0
328118.0 148835.0 0
335630.0 147361.0 0
340947.0 150735.0 0
345692.0 149535.0 0
355447.0 147831.0 0
361543.0 147222.0 0
367147.0 146373.0 0
368943.0 151036.0 0
373329.0 150370.0 0
377583.0 147682.0 0
381329.0 150955.0 0
386962.0 151138.0 0
393442.0 147148.0 0
402363.0 146879.0 0
398527.0 150435.0 0
407775.0 150887.0 0
411988.0 147721.0 0
421587.0 147564.0 0
426096.0 146460.0 0
424598.0 150496.0 0
428963.0 151032.0 0
437799.0 146834.0 0
434131.0 150727.0 0
443152.0 146316.0 0
442788.0 150678.0 0
447718.0 150750.0 0
452657.0 146327.0 0
458330.0 150177.0 0
463624.0 149544.0 0
473597.0 150606.0 0
478149.0 150799.0 0
482808.0 150151.0 0
487497.0 150437.0 0
492502.0 149843.0 0
497556.0 149094.0 0
2518.31 151545.0 0
7677.14 155970.0 0
12004.6 155481.0 0
17593.0 151881.0 0
23417.4 152567.0 0
34065.0 154616.0 0
39402.4 153505.0 0
43273.9 151992.0 0
47709.0 152071.0 0
48760.0 155781.0 0
53065.8 156084.0 0
59516.0 155176.0 0
64170.0 151343.0 0
69258.5 152290.0 0
67606.5 155740.0 0
75108.2 152055.0 0
71692.2 155680.0 0
81048.6 151853.0 0
78263.6 155562.0 0
87053.7 152206.0 0
92020.5 151336.0 0
91999.2 155976.0 0
96999.9 155925.0 0
102128.0 155176.0 0
107424.0 151672.0 0
111124.0 155985.0 0
113364.0 151690.0 0
118426.0 152710.0 0
126570.0 155703.0 0
132454.0 155401.0 0
137995.0 152066.0 0
142292.0 155668.0 0
145474.0 151386.0 0
147728.0 155135.0 0
152626.0 155785.0 0
157521.0 154810.0 0
167210.0 154849.0 0
172467.0 155908.0 0
175347.0 152486.0 0
179617.0 151560.0 0
183468.0 154611.0 0
190430.0 155382.0 0
197965.0 152124.0 0
203351.0 155261.0 0
206811.0 152265.0 0
208222.0 156246.0 0
212606.0 155314.0 0
217696.0 155719.0 0
223411.0 155959.0 0
227185.0 151424.0 0
232729.0 155647.0 0
237915.0 156313.0 0
242249.0 155192.0 0
246578.0 155087.0 0
254146.0 152409.0 0
262657.0 154912.0 0
268086.0 154970.0 0
284059.0 154148.0 0
289117.0 154860.0 0
293632.0 153132.0 0
298812.0 155747.0 0
302309.0 151964.0 0
302795.0 155428.0 0
307470.0 155296.0 0
312363.0 152684.0 0
316382.0 156065.0 0
321289.0 156166.0 0
327598.0 154712.0 0
332371.0 151330.0 0
333607.0 156312.0 0
337053.0 151947.0 0
340751.0 154868.0 0
346463.0 156089.0 0
350919.0 151645.0 0
359291.0 152028.0 0
364354.0 151719.0 0
362684.0 155583.0 0
367601.0 156312.0 0
377200.0 152766.0 0
373234.0 155495.0 0
383127.0 156367.0 0
393351.0 152002.0 0
397598.0 154852.0 0
402913.0 151819.0 0
415878.0 151519.0 0
417737.0 155680.0 0
421177.0 152822.0 0
432064.0 155505.0 0
438737.0 152017.0 0
436732.0 155861.0 0
442765.0 155700.0 0
453045.0 151349.0 0
453409.0 155520.0 0
463599.0 154086.0 0
468161.0 151446.0 0
471814.0 154305.0 0
476449.0 155831.0 0
481100.0 154142.0 0
485658.0 155102.0 0
490710.0 156137.0 0
496002.0 154374.0 0
2475.48 156539.0 0
8257.65 161069.0 0
12763.0 160706.0 0
15771.8 156915.0 0
20838.9 157612.0 0
26808.3 156955.0 0
30952.6 160240.0 0
40054.2 157749.0 0
35932.6 160355.0 0
44705.7 156458.0 0
43629.9 160443.0 0
47755.3 159814.0 0
51809.0 160142.0 0
56829.7 160363.0 0
63885.5 156480.0 0
62579.4 160494.0 0
67170.8 160918.0 0
72520.7 160867.0 0
77991.9 159660.0 0
82471.7 156844.0 0
82526.4 161269.0 0
87140.7 157797.0 0
90159.8 161110.0 0
95222.1 160948.0 0
101125.0 160845.0 0
106970.0 157551.0 0
111795.0 160847.0 0
115819.0 157354.0 0
121102.0 157356.0 0
132214.0 160718.0 0
127624.0 160823.0 0
137140.0 156537.0 0
137231.0 161136.0 0
146468.0 160131.0 0
156132.0 159753.0 0
162025.0 156419.0 0
169286.0 161233.0 0
178178.0 156819.0 0
186112.0 159013.0 0
190993.0 160686.0 0
195416.0 156826.0 0
195754.0 161501.0 0
199786.0 157444.0 0
204962.0 159781.0 0
211617.0 159880.0 0
216503.0 161039.0 0
221704.0 160364.0 0
227692.0 156421.0 0
226695.0 160913.0 0
231955.0 159918.0 0
236065.0 161200.0 0
241435.0 159686.0 0
246763.0 160199.0 0
251457.0 156872.0 0
251418.0 161123.0 0
257659.0 156681.0 0
261549.0 160254.0 0
266315.0 159409.0 0
273563.0 156991.0 0
279477.0 157200.0 0
284957.0 159288.0 0
290186.0 159725.0 0
293860.0 157352.0 0
297271.0 160170.0 0
302713.0 158588.0 0
307445.0 159230.0 0
312804.0 158502.0 0
316961.0 160210.0 0
326197.0 160096.0 0
331854.0 161295.0 0
337889.0 157820.0 0
341784.0 160746.0 0
350388.0 160396.0 0
352479.0 156464.0 0
358046.0 157610.0 0
363421.0 160926.0 0
372652.0 160186.0 0
377756.0 157500.0 0
381263.0 160877.0 0
385749.0 161485.0 0
388875.0 157019.0 0
393912.0 157280.0 0
397805.0 160934.0 0
401995.0 156437.0 0
407554.0 156690.0 0
403437.0 161413.0 0
413357.0 156714.0 0
417328.0 160379.0 0
420740.0 156964.0 0
422294.0 160711.0 0
426079.0 156408.0 0
433144.0 161439.0 0
438898.0 159920.0 0
448812.0 157849.0 0
443938.0 161290.0 0
453765.0 160475.0 0
458511.0 156705.0 0
463038.0 161166.0 0
467768.0 156762.0 0
472249.0 159348.0 0
476531.0 160867.0 0
481591.0 159410.0 0
487406.0 160014.0 0
497268.0 160025.0 0
3211.05 161668.0 0
8042.85 166092.0 0
14921.8 165907.0 0
17406.4 161674.0 0
19909.7 166485.0 0
22006.4 162209.0 0
25329.2 166582.0 0
26229.3 161739.0 0
40009.2 163479.0 0
47202.1 165089.0 0
52669.6 164337.0 0
57753.5 166605.0 0
63751.4 165853.0 0
69579.3 166210.0 0
78841.1 164415.0 0
86294.1 161863.0 0
82761.3 166037.0 0
87411.8 166296.0 0
93077.6 166370.0 0
98832.4 166205.0 0
106555.0 162573.0 0
107222.0 166579.0 0
118333.0 162024.0 0
123281.0 161783.0 0
124184.0 166050.0 0
128406.0 165447.0 0
132872.0 165052.0 0
136853.0 165826.0 0
141708.0 162408.0 0
141100.0 166591.0 0
146522.0 166098.0 0
151573.0 162595.0 0
156635.0 166193.0 0
161834.0 162720.0 0
172255.0 166217.0 0
175976.0 162594.0 0
181606.0 161628.0 0
179233.0 166208.0 0
189315.0 165201.0 0
193668.0 166104.0 0
197503.0 165685.0 0
200539.0 162623.0 0
202966.0 166471.0 0
208467.0 162027.0 0
206275.0 164346.0 0
212257.0 165718.0 0
216807.0 165570.0 0
220975.0 165197.0 0
225740.0 165881.0 0
230981.0 164314.0 0
235664.0 166123.0 0
240542.0 164933.0 0
248381.0 164977.0 0
252559.0 164766.0 0
256142.0 161788.0 0
259972.0 164846.0 0
265489.0 164660.0 0
270639.0 161872.0 0
272928.0 165341.0 0
276599.0 161948.0 0
275665.0 165927.0 0
281962.0 164801.0 0
288337.0 164480.0 0
293756.0 161973.0 0
298770.0 164567.0 0
304642.0 163295.0 0
310130.0 161812.0 0
309148.0 165476.0 0
313928.0 163264.0 0
317700.0 165176.0 0
321557.0 162141.0 0
327810.0 164605.0 0
336696.0 161833.0 0
332500.0 165952.0 0
336870.0 166444.0 0
346627.0 161963.0 0
342208.0 166320.0 0
351679.0 165217.0 0
347217.0 166334.0 0
354412.0 161676.0 0
357651.0 165215.0 0
368528.0 161534.0 0
368505.0 165796.0 0
376987.0 162648.0 0
382576.0 164908.0 0
391603.0 162034.0 0
395893.0 165664.0 0
400749.0 166128.0 0
405935.0 165751.0 0
408193.0 161806.0 0
412655.0 161880.0 0
416962.0 166208.0 0
422189.0 165612.0 0
427069.0 163098.0 0
437982.0 165345.0 0
448492.0 163696.0 0
453591.0 165702.0 0
457909.0 162619.0 0
462239.0 166156.0 0
468113.0 161530.0 0
467266.0 166535.0 0
472251.0 164494.0 0
478242.0 165631.0 0
483445.0 164535.0 0
487729.0 164686.0 0
492246.0 162549.0 0
497114.0 165627.0 0
2743.24 167096.0 0
6629.68 171026.0 0
11765.3 168572.0 0
16445.0 171152.0 0
22133.0 171284.0 0
26805.3 171157.0 0
32699.7 167036.0 0
42538.3 168449.0 0
47182.2 170219.0 0
52162.2 169765.0 0
62695.8 171233.0 0
67631.1 171553.0 0
74694.7 166747.0 0
72734.0 171293.0 0
77869.6 170667.0 0
83358.2 170751.0 0
88734.2 171256.0 0
93487.7 171230.0 0
97430.6 170840.0 0
103893.0 166758.0 0
111638.0 166719.0 0
107419.0 169831.0 0
116413.0 169409.0 0
120398.0 166751.0 0
125857.0 170373.0 0
131745.0 169776.0 0
137378.0 170706.0 0
143319.0 171489.0 0
151900.0 167986.0 0
148470.0 171049.0 0
157300.0 171193.0 0
160656.0 168261.0 0
163242.0 170617.0 0
166704.0 167501.0 0
170863.0 169653.0 0
175911.0 170226.0 0
184127.0 166831.0 0
189133.0 170449.0 0
194263.0 170848.0 0
199454.0 170036.0 0
207411.0 169132.0 0
216143.0 171095.0 0
221749.0 169443.0 0
226488.0 171153.0 0
232442.0 170299.0 0
238431.0 170053.0 0
244736.0 169256.0 0
251357.0 169757.0 0
256058.0 166792.0 0
256819.0 171318.0 0
261841.0 169430.0 0
270071.0 168689.0 0
274196.0 171425.0 0
278053.0 168967.0 0
283490.0 171117.0 0
289033.0 169807.0 0
293477.0 166646.0 0
297213.0 169450.0 0
303005.0 169772.0 0
308805.0 170683.0 0
312953.0 168007.0 0
318356.0 170454.0 0
323366.0 167329.0 0
328792.0 169829.0 0
334066.0 171578.0 0
339592.0 170986.0 0
344932.0 170785.0 0
349988.0 170320.0 0
354428.0 168832.0 0
363233.0 167281.0 0
368161.0 170512.0 0
373400.0 167013.0 0
376962.0 171589.0 0
379099.0 167054.0 0
382471.0 170550.0 0
387079.0 167085.0 0
387497.0 171564.0 0
392324.0 168219.0 0
396150.0 171039.0 0
401229.0 171597.0 0
406693.0 170914.0 0
411228.0 167055.0 0
415491.0 171246.0 0
421158.0 171198.0 0
426356.0 168655.0 0
431391.0 167136.0 0
430960.0 171566.0 0
435835.0 171366.0 0
443845.0 167172.0 0
446665.0 171536.0 0
449070.0 168046.0 0
458351.0 166817.0 0
456077.0 170487.0 0
461499.0 171207.0 0
472915.0 169692.0 0
478057.0 171101.0 0
482524.0 168998.0 0
487864.0 169815.0 0
492458.0 167538.0 0
493643.0 171439.0 0
498089.0 170309.0 0
2122.1 171922.0 0
2813.64 176714.0 0
8165.95 175970.0 0
10874.6 172226.0 0
12894.6 175334.0 0
16332.2 175983.0 0
20384.6 175862.0 0
31181.2 174836.0 0
38046.3 172478.0 0
44045.5 172966.0 0
53101.6 176259.0 0
57345.5 172702.0 0
63565.4 176386.0 0
68267.9 175949.0 0
72453.5 176142.0 0
77185.4 175780.0 0
86321.8 174875.0 0
82034.7 175859.0 0
91303.7 175794.0 0
96817.4 175241.0 0
102461.0 171968.0 0
111801.0 173084.0 0
116464.0 175818.0 0
120437.0 172614.0 0
126005.0 176533.0 0
132122.0 176160.0 0
137819.0 176346.0 0
147532.0 175601.0 0
152879.0 172517.0 0
157561.0 176181.0 0
162712.0 175119.0 0
168107.0 172915.0 0
172608.0 175416.0 0
177851.0 175522.0 0
181671.0 172040.0 0
186374.0 174783.0 0
192083.0 175318.0 0
196622.0 176011.0 0
203612.0 172058.0 0
201111.0 175516.0 0
206767.0 175317.0 0
210865.0 172808.0 0
212749.0 175928.0 0
221800.0 174106.0 0
226799.0 176260.0 0
231547.0 175927.0 0
236389.0 174955.0 0
241207.0 174525.0 0
245773.0 174605.0 0
250430.0 175649.0 0
255178.0 175500.0 0
260749.0 175609.0 0
266226.0 172778.0 0
271141.0 175084.0 0
278165.0 174679.0 0
288465.0 175101.0 0
293268.0 172155.0 0
298393.0 174658.0 0
303462.0 175324.0 0
308193.0 175692.0 0
314356.0 175800.0 0
319272.0 175404.0 0
324039.0 172779.0 0
328968.0 175388.0 0
333146.0 175788.0 0
336742.0 175737.0 0
342592.0 176148.0 0
347881.0 175291.0 0
353212.0 175002.0 0
358650.0 171938.0 0
363897.0 172873.0 0
372314.0 171748.0 0
367793.0 176160.0 0
373566.0 176378.0 0
382651.0 175802.0 0
378336.0 176095.0 0
387500.0 176101.0 0
392129.0 172326.0 0
390840.0 175903.0 0
394209.0 175494.0 0
397990.0 175498.0 0
411220.0 171927.0 0
412257.0 176561.0 0
417885.0 176065.0 0
423011.0 176463.0 0
428522.0 172162.0 0
427877.0 176053.0 0
432790.0 176523.0 0
442045.0 173111.0 0
447083.0 175791.0 0
451287.0 172763.0 0
456331.0 175435.0 0
466931.0 171942.0 0
466168.0 176525.0 0
470975.0 174686.0 0
476162.0 176127.0 0
482656.0 174999.0 0
488908.0 175381.0 0
497008.0 175091.0 0
2316.45 181155.0 0
7488.63 180817.0 0
11899.4 179302.0 0
17721.6 180226.0 0
25268.8 177092.0 0
22192.4 180819.0 0
25713.9 181618.0 0
33500.7 180420.0 0
37228.7 177820.0 0
41794.7 176829.0 0
47446.0 176950.0 0
51637.0 181604.0 0
58687.7 177993.0 0
62241.2 181842.0 0
67515.8 180665.0 0
72506.5 180753.0 0
81267.0 180981.0 0
76625.2 181816.0 0
87014.8 179897.0 0
92308.8 181063.0 0
101396.0 177860.0 0
97255.5 181084.0 0
107501.0 178059.0 0
111799.0 181888.0 0
113002.0 177911.0 0
121274.0 177350.0 0
117643.0 181359.0 0
123436.0 181085.0 0
128783.0 181588.0 0
134059.0 181201.0 0
142840.0 176880.0 0
137961.0 180932.0 0
142163.0 180881.0 0
147504.0 181401.0 0
152628.0 177159.0 0
158962.0 180568.0 0
162909.0 180491.0 0
167293.0 177944.0 0
171989.0 179855.0 0
177728.0 181058.0 0
182305.0 177137.0 0
183253.0 181818.0 0
188242.0 179758.0 0
193898.0 180613.0 0
199056.0 180335.0 0
204158.0 180773.0 0
214028.0 179283.0 0
209492.0 180385.0 0
217643.0 177010.0 0
217434.0 181393.0 0
222151.0 179597.0 0
226340.0 180122.0 0
230558.0 181453.0 0
235732.0 179698.0 0
240055.0 177898.0 0
243733.0 178807.0 0
240026.0 181855.0 0
250365.0 181042.0 0
256477.0 180928.0 0
262642.0 181236.0 0
266798.0 178299.0 0
272519.0 180726.0 0
278324.0 180493.0 0
283291.0 177955.0 0
289988.0 180598.0 0
293486.0 177055.0 0
294960.0 181503.0 0
299385.0 180013.0 0
303667.0 179323.0 0
307824.0 180849.0 0
317923.0 180208.0 0
322913.0 178528.0 0
327989.0 180425.0 0
333197.0 180074.0 0
338999.0 181441.0 0
344323.0 181429.0 0
346990.0 178846.0 0
351177.0 181102.0 0
357776.0 177618.0 0
362517.0 177688.0 0
367649.0 181525.0 0
377591.0 180773.0 0
387666.0 180556.0 0
383033.0 180967.0 0
390579.0 181444.0 0
394661.0 180112.0 0
400640.0 179883.0 0
405861.0 176945.0 0
416361.0 181845.0 0
428624.0 180884.0 0
433383.0 181342.0 0
437676.0 177010.0 0
441768.0 177779.0 0
448820.0 180652.0 0
444221.0 181576.0 0
452131.0 177924.0 0
457220.0 181694.0 0
461274.0 176862.0 0
462827.0 181341.0 0
470795.0 179875.0 0
482885.0 181739.0 0
488671.0 180903.0 0
492846.0 178234.0 0
497140.0 180954.0 0
2879.32 184987.0 0
7660.86 185277.0 0
13296.2 183700.0 0
17519.5 185118.0 0
21981.7 185105.0 0
29624.8 183407.0 0
25924.9 185510.0 0
33841.2 186273.0 0
36829.6 182842.0 0
38550.9 186310.0 0
41261.1 182058.0 0
46266.4 182179.0 0
47500.0 185914.0 0
56874.1 182255.0 0
58911.1 186809.0 0
69008.3 185761.0 0
73877.8 185222.0 0
77217.5 185640.0 0
80691.7 186084.0 0
86321.7 186204.0 0
92811.5 186070.0 0
98242.8 186345.0 0
102435.0 183009.0 0
106772.0 183203.0 0
103094.0 186973.0 0
109028.0 186383.0 0
113212.0 185999.0 0
122442.0 185869.0 0
126563.0 186480.0 0
131864.0 185937.0 0
136845.0 185480.0 0
144006.0 186169.0 0
152870.0 182093.0 0
150411.0 185964.0 0
157085.0 185788.0 0
162990.0 184878.0 0
167203.0 182583.0 0
173048.0 185489.0 0
183029.0 186428.0 0
186680.0 185137.0 0
191843.0 185492.0 0
196806.0 184687.0 0
201799.0 185783.0 0
207325.0 185490.0 0
213592.0 183550.0 0
216949.0 186587.0 0
220483.0 184432.0 0
225384.0 183970.0 0
229373.0 186487.0 0
235824.0 185177.0 0
240223.0 186876.0 0
245170.0 184888.0 0
252494.0 186052.0 0
257217.0 186387.0 0
262355.0 186017.0 0
267377.0 183815.0 0
272615.0 186834.0 0
277797.0 185514.0 0
282852.0 183493.0 0
289758.0 185372.0 0
285974.0 186996.0 0
293416.0 185077.0 0
297870.0 186012.0 0
303739.0 184474.0 0
309258.0 186415.0 0
313037.0 181991.0 0
320304.0 184532.0 0
324620.0 183097.0 0
328767.0 186078.0 0
334659.0 185385.0 0
342802.0 186575.0 0
348333.0 185906.0 0
354571.0 185823.0 0
358163.0 182000.0 0
358832.0 185961.0 0
362968.0 182593.0 0
362305.0 186646.0 0
366732.0 186564.0 0
372887.0 182009.0 0
376885.0 184595.0 0
380638.0 185248.0 0
386648.0 185744.0 0
391380.0 184829.0 0
396438.0 185821.0 0
400517.0 184261.0 0
404214.0 183185.0 0
409727.0 182408.0 0
418109.0 186888.0 0
422812.0 182121.0 0
426878.0 185729.0 0
431420.0 185629.0 0
438577.0 182263.0 0
442100.0 186918.0 0
447550.0 185833.0 0
452094.0 181914.0 0
452803.0 186102.0 0
461585.0 185559.0 0
466793.0 182610.0 0
465841.0 186667.0 0
470827.0 185669.0 0
476400.0 182507.0 0
480519.0 186157.0 0
485119.0 186783.0 0
492896.0 181956.0 0
491128.0 186749.0 0
497365.0 186446.0 0
2104.65 189144.0 0
6793.27 190774.0 0
12523.0 189060.0 0
18520.4 190155.0 0
24345.7 189882.0 0
30115.2 190252.0 0
35415.9 191689.0 0
39873.4 190365.0 0
43314.6 187119.0 0
47481.8 190088.0 0
51975.3 187251.0 0
51744.5 192090.0 0
56705.4 191838.0 0
64498.4 187033.0 0
61964.4 191849.0 0
66638.3 191529.0 0
71690.7 190109.0 0
77191.4 189258.0 0
82291.5 191071.0 0
93313.1 190176.0 0
97500.0 190948.0 0
107094.0 190522.0 0
102236.0 190748.0 0
112290.0 190250.0 0
117544.0 187069.0 0
117489.0 191683.0 0
122473.0 189937.0 0
132589.0 190697.0 0
127669.0 191445.0 0
137654.0 190422.0 0
140200.0 187793.0 0
142126.0 190857.0 0
147636.0 190640.0 0
153045.0 189973.0 0
157497.0 191668.0 0
161579.0 189815.0 0
167631.0 187247.0 0
165668.0 191502.0 0
171229.0 191355.0 0
176235.0 191348.0 0
178837.0 187124.0 0
180327.0 191796.0 0
184960.0 190216.0 0
190262.0 189783.0 0
195404.0 190270.0 0
201311.0 191237.0 0
206583.0 191561.0 0
212322.0 189381.0 0
218105.0 190916.0 0
222871.0 188892.0 0
227523.0 191502.0 0
232627.0 190050.0 0
238165.0 190862.0 0
243791.0 191224.0 0
248620.0 189792.0 0
254995.0 190112.0 0
259925.0 190282.0 0
266658.0 190857.0 0
272632.0 191778.0 0
276489.0 190381.0 0
281554.0 189241.0 0
287001.0 191586.0 0
292799.0 189898.0 0
298711.0 191879.0 0
303424.0 189769.0 0
307680.0 191070.0 0
315430.0 187410.0 0
319111.0 191776.0 0
323692.0 188055.0 0
328218.0 191721.0 0
332684.0 190024.0 0
338217.0 187640.0 0
337214.0 191422.0 0
341746.0 191813.0 0
346956.0 191303.0 0
352960.0 191101.0 0
358289.0 189779.0 0
363852.0 191039.0 0
371988.0 187393.0 0
368575.0 190675.0 0
377264.0 188898.0 0
372516.0 191270.0 0
383137.0 190217.0 0
392796.0 189565.0 0
388492.0 191449.0 0
396697.0 191343.0 0
401632.0 189335.0 0
407475.0 187871.0 0
413219.0 187702.0 0
417500.0 190846.0 0
422107.0 187275.0 0
423655.0 191176.0 0
429096.0 189926.0 0
432842.0 191106.0 0
436288.0 187607.0 0
439598.0 191259.0 0
445091.0 190910.0 0
449570.0 190564.0 0
453928.0 190909.0 0
457499.0 187767.0 0
461735.0 190114.0 0
466235.0 191376.0 0
472008.0 191695.0 0
476634.0 188430.0 0
481396.0 190780.0 0
487085.0 192001.0 0
497596.0 191480.0 0
3506.58 196226.0 0
8912.79 196039.0 0
12819.2 194486.0 0
18045.9 196366.0 0
23734.8 195248.0 0
29009.0 196048.0 0
33721.4 195851.0 0
38524.6 196172.0 0
43534.6 192403.0 0
43678.4 197124.0 0
47740.9 194851.0 0
52003.7 196647.0 0
61796.1 196556.0 0
66400.0 196121.0 0
71634.1 195994.0 0
78211.2 196475.0 0
84122.9 195816.0 0
88450.0 192521.0 0
94100.3 194390.0 0
99300.4 195645.0 0
103853.0 197082.0 0
108319.0 195486.0 0
113637.0 195091.0 0
122392.0 194329.0 0
118188.0 196128.0 0
126889.0 196391.0 0
131334.0 195542.0 0
135399.0 194177.0 0
139962.0 195128.0 0
145194.0 195774.0 0
151682.0 196083.0 0
157461.0 196835.0 0
162224.0 195245.0 0
167837.0 195820.0 0
173461.0 196993.0 0
178656.0 195770.0 0
183497.0 195763.0 0
188825.0 193886.0 0
193401.0 196514.0 0
198163.0 194982.0 0
202226.0 196561.0 0
207011.0 196730.0 0
212376.0 195781.0 0
217313.0 195380.0 0
221939.0 194232.0 0
226296.0 196298.0 0
231236.0 195445.0 0
236066.0 196043.0 0
240758.0 195888.0 0
247331.0 195261.0 0
251702.0 193119.0 0
251815.0 197127.0 0
256818.0 195263.0 0
262022.0 195401.0 0
272433.0 196522.0 0
277769.0 194811.0 0
282670.0 194739.0 0
287574.0 197070.0 0
294278.0 196514.0 0
299741.0 196694.0 0
304166.0 194778.0 0
308989.0 196050.0 0
312791.0 192686.0 0
320388.0 196787.0 0
323805.0 192279.0 0
326100.0 197019.0 0
333159.0 196187.0 0
339147.0 196707.0 0
343440.0 195832.0 0
347374.0 196102.0 0
351811.0 196649.0 0
357562.0 195131.0 0
363013.0 196075.0 0
368207.0 195515.0 0
373386.0 194929.0 0
378061.0 193998.0 0
382809.0 196367.0 0
392116.0 194520.0 0
388002.0 197172.0 0
397057.0 195693.0 0
402872.0 196007.0 0
407559.0 196014.0 0
408624.0 192465.0 0
412939.0 192665.0 0
411392.0 196959.0 0
416297.0 195810.0 0
421524.0 195607.0 0
427086.0 194992.0 0
436283.0 194770.0 0
442626.0 196175.0 0
449564.0 196190.0 0
458052.0 192329.0 0
454946.0 195578.0 0
459033.0 196612.0 0
462487.0 194349.0 0
466447.0 196238.0 0
470794.0 196862.0 0
477068.0 193048.0 0
475071.0 196604.0 0
479813.0 197094.0 0
492809.0 192645.0 0
491394.0 196854.0 0
496535.0 196956.0 0
7860.71 200103.0 0
13198.6 200397.0 0
22913.6 200879.0 0
28302.8 201192.0 0
33684.8 200761.0 0
38744.3 201110.0 0
42462.6 200955.0 0
47500.0 200723.0 0
52557.8 201043.0 0
56979.3 197245.0 0
62773.9 201023.0 0
67039.9 200921.0 0
72935.3 202044.0 0
78321.3 202274.0 0
82589.4 200868.0 0
87688.3 197596.0 0
87056.7 201511.0 0
92062.4 199706.0 0
97669.7 200934.0 0
102295.0 200754.0 0
107409.0 201319.0 0
113346.0 200508.0 0
121263.0 199619.0 0
117556.0 201859.0 0
125793.0 202312.0 0
129829.0 199806.0 0
135551.0 199976.0 0
141806.0 199995.0 0
147624.0 202124.0 0
152815.0 201433.0 0
156959.0 201313.0 0
162562.0 201358.0 0
168612.0 201338.0 0
178545.0 200856.0 0
188006.0 199773.0 0
193371.0 201322.0 0
197865.0 200007.0 0
202704.0 200757.0 0
206537.0 201120.0 0
210415.0 200363.0 0
215936.0 199903.0 0
222030.0 200373.0 0
227890.0 200763.0 0
232869.0 199914.0 0
237576.0 200520.0 0
243286.0 200368.0 0
248665.0 200735.0 0
254448.0 200797.0 0
259269.0 200102.0 0
262860.0 201903.0 0
266300.0 198185.0 0
270744.0 200805.0 0
276853.0 199378.0 0
282832.0 200895.0 0
292397.0 202070.0 0
298265.0 200988.0 0
306027.0 200374.0 0
310185.0 201922.0 0
315365.0 197588.0 0
311332.0 199102.0 0
318484.0 200839.0 0
322500.0 201009.0 0
328894.0 201686.0 0
337017.0 200576.0 0
341124.0 200496.0 0
346186.0 200627.0 0
357136.0 200449.0 0
361938.0 200988.0 0
372172.0 199543.0 0
367473.0 202285.0 0
377871.0 199991.0 0
389039.0 201930.0 0
392970.0 199735.0 0
398548.0 201114.0 0
404604.0 201167.0 0
408305.0 201171.0 0
411601.0 201252.0 0
415648.0 200606.0 0
420774.0 201096.0 0
427258.0 201545.0 0
431837.0 197256.0 0
432708.0 201325.0 0
437828.0 201376.0 0
448897.0 202312.0 0
453712.0 200413.0 0
458584.0 200702.0 0
462382.0 198817.0 0
466455.0 201118.0 0
471665.0 201519.0 0
476743.0 201183.0 0
482111.0 201966.0 0
485459.0 197661.0 0
489724.0 200980.0 0
3164.77 202888.0 0
6289.98 207087.0 0
11599.4 206513.0 0
18016.5 202340.0 0
17536.7 206803.0 0
22463.8 206551.0 0
27690.2 206252.0 0
32846.4 206141.0 0
37849.1 205643.0 0
42860.5 205745.0 0
47500.0 205806.0 0
52500.0 205725.0 0
57797.6 202559.0 0
57471.1 207020.0 0
62273.8 206080.0 0
67614.2 205308.0 0
81627.4 205773.0 0
77001.2 206161.0 0
86238.9 205633.0 0
91741.1 206119.0 0
97809.6 206322.0 0
102672.0 205301.0 0
111197.0 205393.0 0
115541.0 206190.0 0
120820.0 205509.0 0
126021.0 207144.0 0
131558.0 205794.0 0
137589.0 206164.0 0
143032.0 206604.0 0
152333.0 205421.0 0
156773.0 205993.0 0
161249.0 207208.0 0
165865.0 205870.0 0
170814.0 206297.0 0
173681.0 202366.0 0
176299.0 206939.0 0
183146.0 202487.0 0
181148.0 206003.0 0
190721.0 204709.0 0
195905.0 205644.0 0
202302.0 204443.0 0
207015.0 206135.0 0
212684.0 204582.0 0
217357.0 204330.0 0
221318.0 205878.0 0
226105.0 205593.0 0
231885.0 204968.0 0
236933.0 207079.0 0
240965.0 204615.0 0
246407.0 206702.0 0
252566.0 206066.0 0
257957.0 204155.0 0
262513.0 206949.0 0
267435.0 203881.0 0
272736.0 204896.0 0
277836.0 204075.0 0
288071.0 202402.0 0
290026.0 206919.0 0
296066.0 206171.0 0
302092.0 205040.0 0
308498.0 205889.0 0
314051.0 202609.0 0
318496.0 205406.0 0
325750.0 205374.0 0
331013.0 207124.0 0
333249.0 202563.0 0
336305.0 206247.0 0
342218.0 205895.0 0
347988.0 206826.0 0
352140.0 202757.0 0
357716.0 206315.0 0
363372.0 205910.0 0
372128.0 205663.0 0
377596.0 205954.0 0
383977.0 202412.0 0
388203.0 206801.0 0
393858.0 205411.0 0
403548.0 206965.0 0
413408.0 205438.0 0
418015.0 206048.0 0
422331.0 206138.0 0
432985.0 205582.0 0
437053.0 206303.0 0
443856.0 202424.0 0
447415.0 205687.0 0
451703.0 206267.0 0
455863.0 204682.0 0
461826.0 205996.0 0
468601.0 206696.0 0
474668.0 206605.0 0
480001.0 206073.0 0
486587.0 206195.0 0
493000.0 202968.0 0
493164.0 207345.0 0
497149.0 202951.0 0
498364.0 207270.0 0
2175.08 208135.0 0
2648.31 212417.0 0
6704.61 210957.0 0
17237.5 211300.0 0
21689.6 211425.0 0
26625.8 211455.0 0
32269.6 211596.0 0
37800.7 210714.0 0
42911.0 210860.0 0
48373.5 210679.0 0
53049.3 210908.0 0
57491.6 211305.0 0
62500.0 210893.0 0
67351.0 210916.0 0
72220.4 207765.0 0
72974.1 212101.0 0
77090.0 211089.0 0
80945.3 211076.0 0
86598.3 210805.0 0
98143.0 211367.0 0
106903.0 207465.0 0
102893.0 210318.0 0
112144.0 210693.0 0
117789.0 210560.0 0
127517.0 210859.0 0
123040.0 212227.0 0
135063.0 209669.0 0
139793.0 212297.0 0
148507.0 207931.0 0
153455.0 211216.0 0
159439.0 211753.0 0
165968.0 211084.0 0
171465.0 211523.0 0
186185.0 208006.0 0
191882.0 209448.0 0
201236.0 209400.0 0
211858.0 210352.0 0
217582.0 209047.0 0
222973.0 210530.0 0
228683.0 210553.0 0
233716.0 209935.0 0
236982.0 211625.0 0
241134.0 209963.0 0
251685.0 211508.0 0
257179.0 208624.0 0
268885.0 209864.0 0
276233.0 208301.0 0
279024.0 211360.0 0
283411.0 207933.0 0
288598.0 211668.0 0
293685.0 211867.0 0
300198.0 211208.0 0
305286.0 209556.0 0
308888.0 211807.0 0
313707.0 207740.0 0
316786.0 210562.0 0
320577.0 212268.0 0
322152.0 208129.0 0
326685.0 211809.0 0
333861.0 212080.0 0
338665.0 210622.0 0
342799.0 211359.0 0
347415.0 211798.0 0
352469.0 208413.0 0
357815.0 212100.0 0
362633.0 210732.0 0
367626.0 208394.0 0
371864.0 211135.0 0
377441.0 211881.0 0
382670.0 208682.0 0
386622.0 212331.0 0
391984.0 211592.0 0
397810.0 209273.0 0
406986.0 211913.0 0
409206.0 207710.0 0
411808.0 211411.0 0
417019.0 210587.0 0
422567.0 211874.0 0
427432.0 208298.0 0
432185.0 212176.0 0
437979.0 211523.0 0
442560.0 207912.0 0
448193.0 210742.0 0
455966.0 210594.0 0
466226.0 211207.0 0
477523.0 211404.0 0
481988.0 210051.0 0
491854.0 212452.0 0
497014.0 212033.0 0
11883.7 213299.0 0
92662.9 212713.0 0
107106.0 212820.0 0
131674.0 212599.0 0
146644.0 213167.0 0
162838.0 214740.0 0
177279.0 213158.0 0
183204.0 213287.0 0
188838.0 213594.0 0
195938.0 213297.0 0
201229.0 214836.0 0
206404.0 212868.0 0
204476.0 217400.0 0
210791.0 216016.0 0
216417.0 214794.0 0
222471.0 216261.0 0
227959.0 215958.0 0
233920.0 214761.0 0
240340.0 215744.0 0
246167.0 213129.0 0
253470.0 216272.0 0
258379.0 213613.0 0
263481.0 212540.0 0
261359.0 216679.0 0
265889.0 217430.0 0
274515.0 212543.0 0
270707.0 215383.0 0
278603.0 216840.0 0
284480.0 214313.0 0
289821.0 216214.0 0
297137.0 216579.0 0
305011.0 213538.0 0
302387.0 217125.0 0
313479.0 212747.0 0
352858.0 213238.0 0
367022.0 212740.0 0
382625.0 213041.0 0
396543.0 213390.0 0
401644.0 213687.0 0
427263.0 214001.0 0
442951.0 213466.0 0
452071.0 213912.0 0
461566.0 212554.0 0
471899.0 212922.0 0
481329.0 213892.0 0
486495.0 213512.0 0
199566.0 219755.0 0
204441.0 221532.0 0
209450.0 221005.0 0
215731.0 220900.0 0
221139.0 221641.0 0
226643.0 221677.0 0
231461.0 219303.0 0
236554.0 218087.0 0
235320.0 221257.0 0
244603.0 218799.0 0
240447.0 221843.0 0
248994.0 217677.0 0
252386.0 221209.0 0
257902.0 219169.0 0
262174.0 219761.0 0
271470.0 220521.0 0
276418.0 222207.0 0
283462.0 218957.0 0
280938.0 222093.0 0
287256.0 220522.0 0
293225.0 221095.0 0
299485.0 221947.0 0
200566.0 226042.0 0
206824.0 226020.0 0
212343.0 225220.0 0
218217.0 226575.0 0
223360.0 225560.0 0
227341.0 227635.0 0
231814.0 224610.0 0
236723.0 224923.0 0
240956.0 227566.0 0
245799.0 223949.0 0
250599.0 225510.0 0
256856.0 225570.0 0
262924.0 223832.0 0
268034.0 224666.0 0
273344.0 226888.0 0
278895.0 226110.0 0
284566.0 223387.0 0
283257.0 226973.0 0
288821.0 225812.0 0
294306.0 226692.0 0
298361.0 226654.0 0
202163.0 232419.0 0
208342.0 231518.0 0
213593.0 230301.0 0
218680.0 231950.0 0
223709.0 231569.0 0
228231.0 232198.0 0
231676.0 229983.0 0
236091.0 228984.0 0
240598.0 231646.0 0
246378.0 229816.0 0
252213.0 230245.0 0
257463.0 231461.0 0
261597.0 228972.0 0
266660.0 229897.0 0
271774.0 231649.0 0
276906.0 230875.0 0
281085.0 230030.0 0
285902.0 231015.0 0
291469.0 230752.0 0
297266.0 231252.0 0
10310.7 235849.0 0
206115.0 236921.0 0
210329.0 235523.0 0
215194.0 235839.0 0
220809.0 236178.0 0
226488.0 237143.0 0
231212.0 234589.0 0
237005.0 234417.0 0
243163.0 234419.0 0
248814.0 235194.0 0
254688.0 235393.0 0
261854.0 234288.0 0
268410.0 236368.0 0
274604.0 234919.0 0
279543.0 233735.0 0
278616.0 237816.0 0
283537.0 235946.0 0
289171.0 235544.0 0
293918.0 234853.0 0
297981.0 237407.0 0
309756.0 237379.0 0
341742.0 233513.0 0
174681.0 242298.0 0
201806.0 239545.0 0
206247.0 242231.0 0
211439.0 240368.0 0
216915.0 241377.0 0
222263.0 241042.0 0
228038.0 241653.0 0
232131.0 239661.0 0
237054.0 239800.0 0
241905.0 239855.0 0
247659.0 241092.0 0
253229.0 240543.0 0
258639.0 239060.0 0
262729.0 241620.0 0
267373.0 242645.0 0
273141.0 241232.0 0
282869.0 240202.0 0
287187.0 241772.0 0
293025.0 240057.0 0
389098.0 242370.0 0
404603.0 240635.0 0
421499.0 241907.0 0
443009.0 241554.0 0
455114.0 241936.0 0
472319.0 242679.0 0
497243.0 241503.0 0
6878.9 245659.0 0
48261.5 243274.0 0
56374.4 247187.0 0
63868.7 247197.0 0
68827.6 248216.0 0
96187.4 247463.0 0
100416.0 246911.0 0
126005.0 246631.0 0
167796.0 245521.0 0
177286.0 246351.0 0
191569.0 247504.0 0
201362.0 244321.0 0
205140.0 247124.0 0
210418.0 246039.0 0
215508.0 246069.0 0
220078.0 245494.0 0
225520.0 245145.0 0
231418.0 245793.0 0
237507.0 244714.0 0
242307.0 247733.0 0
248058.0 247157.0 0
253775.0 245889.0 0
258819.0 244254.0 0
263576.0 246810.0 0
269202.0 247763.0 0
274268.0 246493.0 0
279213.0 243539.0 0
284340.0 246748.0 0
288859.0 246369.0 0
292821.0 245338.0 0
297888.0 243916.0 0
317421.0 245599.0 0
322450.0 246989.0 0
357807.0 245106.0 0
362467.0 243523.0 0
368610.0 243305.0 0
374583.0 245947.0 0
437044.0 245196.0 0
461586.0 245796.0 0
476569.0 245922.0 0
481239.0 247015.0 0
492537.0 243655.0 0
14254.8 250212.0 0
22442.4 251528.0 0
30433.9 251433.0 0
36537.1 251966.0 0
75161.9 250252.0 0
79658.9 248950.0 0
85031.3 249648.0 0
107589.0 248647.0 0
111005.0 250492.0 0
115161.0 248949.0 0
121008.0 248842.0 0
131855.0 250954.0 0
137504.0 249967.0 0
142262.0 252219.0 0
154054.0 249252.0 0
158565.0 248647.0 0
173221.0 251375.0 0
178042.0 253219.0 0
178735.0 249717.0 0
196244.0 248432.0 0
200884.0 248680.0 0
204080.0 251769.0 0
207997.0 250121.0 0
213357.0 250939.0 0
217846.0 249737.0 0
222321.0 249661.0 0
227456.0 250444.0 0
233020.0 251525.0 0
238127.0 250668.0 0
241700.0 252519.0 0
245359.0 251666.0 0
251060.0 252030.0 0
259056.0 248662.0 0
255503.0 250426.0 0
261792.0 251109.0 0
267220.0 252811.0 0
273096.0 250787.0 0
277796.0 250207.0 0
282146.0 250530.0 0
284677.0 253022.0 0
287764.0 250521.0 0
292968.0 250342.0 0
297459.0 248919.0 0
309917.0 248885.0 0
322451.0 251701.0 0
326630.0 252460.0 0
330913.0 252735.0 0
339605.0 252078.0 0
391311.0 249048.0 0
396056.0 250487.0 0
417127.0 251552.0 0
423600.0 249858.0 0
439714.0 252418.0 0
449230.0 251568.0 0
462790.0 252245.0 0
466760.0 251058.0 0
471850.0 249655.0 0
479717.0 252298.0 0
484429.0 252378.0 0
497839.0 250955.0 0
8033.11 255848.0 0
14588.8 257036.0 0
17655.2 253529.0 0
30589.4 257634.0 0
40985.6 256370.0 0
48339.7 254177.0 0
45936.2 257846.0 0
53010.0 254174.0 0
88220.9 255638.0 0
93065.2 253565.0 0
97919.2 255689.0 0
102310.0 257796.0 0
113050.0 257854.0 0
119140.0 255840.0 0
124379.0 253738.0 0
126262.0 257945.0 0
146000.0 255671.0 0
150902.0 253542.0 0
155278.0 256908.0 0
169989.0 256626.0 0
177569.0 257387.0 0
188923.0 257692.0 0
199532.0 256291.0 0
204404.0 256908.0 0
209313.0 254494.0 0
215065.0 256472.0 0
220061.0 253730.0 0
222084.0 257996.0 0
225948.0 255425.0 0
230700.0 256280.0 0
236386.0 256019.0 0
241424.0 256294.0 0
247380.0 257091.0 0
253469.0 256537.0 0
257880.0 254309.0 0
262773.0 255339.0 0
267283.0 258146.0 0
271753.0 255238.0 0
276232.0 256691.0 0
280753.0 254763.0 0
287947.0 255477.0 0
292567.0 255255.0 0
296828.0 253425.0 0
300502.0 255839.0 0
296386.0 258171.0 0
304859.0 256333.0 0
308760.0 255518.0 0
314014.0 258424.0 0
318278.0 255723.0 0
335045.0 255394.0 0
345114.0 254271.0 0
342101.0 257672.0 0
348027.0 257826.0 0
364943.0 256828.0 0
377600.0 257690.0 0
383597.0 256481.0 0
388726.0 253563.0 0
390690.0 257492.0 0
393964.0 255370.0 0
398809.0 257521.0 0
407296.0 254639.0 0
403236.0 258392.0 0
412976.0 256961.0 0
422388.0 255324.0 0
426612.0 253427.0 0
431907.0 254130.0 0
436080.0 255967.0 0
444222.0 254675.0 0
458451.0 254434.0 0
478880.0 257518.0 0
489239.0 255304.0 0
2631.23 258819.0 0
10165.2 262072.0 0
18911.2 259363.0 0
27252.5 261686.0 0
37311.7 259966.0 0
44551.6 263327.0 0
54909.3 260835.0 0
60744.6 261884.0 0
85759.2 260854.0 0
91010.0 260987.0 0
92904.6 258573.0 0
96476.5 260011.0 0
100409.0 262180.0 0
105708.0 260887.0 0
118044.0 263144.0 0
127597.0 262673.0 0
137141.0 259404.0 0
132697.0 261323.0 0
166524.0 260682.0 0
175196.0 262722.0 0
183086.0 259042.0 0
194746.0 258964.0 0
208773.0 259704.0 0
204248.0 262422.0 0
212999.0 262866.0 0
218415.0 261561.0 0
222786.0 261893.0 0
226654.0 260256.0 0
231894.0 261470.0 0
237319.0 261434.0 0
242504.0 260929.0 0
247180.0 263464.0 0
252149.0 261459.0 0
257611.0 260093.0 0
262741.0 260038.0 0
272535.0 260939.0 0
278427.0 260824.0 0
284101.0 259663.0 0
290976.0 260607.0 0
305457.0 260266.0 0
301918.0 263300.0 0
309713.0 259681.0 0
335177.0 262901.0 0
341691.0 262565.0 0
360423.0 260630.0 0
368691.0 259461.0 0
373639.0 261880.0 0
380959.0 262470.0 0
385630.0 261212.0 0
394399.0 260159.0 0
398411.0 261539.0 0
402468.0 263295.0 0
415149.0 261405.0 0
431773.0 259652.0 0
462565.0 262066.0 0
473827.0 259083.0 0
483291.0 261116.0 0
488293.0 262564.0 0
492521.0 259302.0 0
497266.0 259058.0 0
4198.95 263922.0 0
1396.57 266913.0 0
8211.08 265879.0 0
11918.4 267354.0 0
16619.4 266823.0 0
21754.5 265519.0 0
31965.1 264171.0 0
40529.6 267793.0 0
36111.9 268164.0 0
49617.5 264262.0 0
53511.7 265804.0 0
65233.2 265028.0 0
73247.1 263921.0 0
79797.4 264420.0 0
97591.4 265615.0 0
101262.0 266730.0 0
122206.0 265143.0 0
125707.0 266366.0 0
132217.0 267407.0 0
140009.0 263631.0 0
145853.0 263649.0 0
150246.0 267064.0 0
157949.0 265817.0 0
162385.0 266597.0 0
169946.0 264387.0 0
178322.0 266236.0 0
173828.0 267542.0 0
182125.0 264284.0 0
203599.0 268004.0 0
208492.0 265186.0 0
212185.0 267763.0 0
217001.0 268430.0 0
221535.0 265830.0 0
226387.0 265198.0 0
231035.0 266812.0 0
236952.0 267381.0 0
242597.0 265993.0 0
247334.0 267918.0 0
251017.0 266590.0 0
255658.0 265323.0 0
261566.0 265434.0 0
265988.0 263903.0 0
270040.0 267723.0 0
276310.0 266674.0 0
281571.0 264275.0 0
286619.0 265226.0 0
291670.0 267769.0 0
296246.0 264302.0 0
305267.0 267077.0 0
308862.0 264297.0 0
312813.0 263675.0 0
315851.0 267502.0 0
321609.0 267268.0 0
329672.0 265991.0 0
345721.0 267726.0 0
350533.0 265318.0 0
355714.0 266812.0 0
368277.0 264965.0 0
376826.0 266924.0 0
388242.0 264450.0 0
397327.0 266754.0 0
402414.0 268054.0 0
406830.0 265908.0 0
411664.0 264402.0 0
417627.0 266216.0 0
435876.0 267300.0 0
440796.0 264906.0 0
448497.0 267264.0 0
468005.0 263724.0 0
472750.0 264758.0 0
494690.0 264008.0 0
490331.0 267149.0 0
498185.0 267101.0 0
9024.03 270757.0 0
22141.1 271005.0 0
27556.0 272029.0 0
31750.6 268914.0 0
42506.5 271435.0 0
47221.1 272149.0 0
55082.9 269907.0 0
57767.4 273646.0 0
71070.6 270256.0 0
66580.1 273295.0 0
75981.4 268809.0 0
87177.6 271752.0 0
101304.0 271953.0 0
105416.0 272360.0 0
115988.0 269972.0 0
121376.0 270779.0 0
127453.0 269812.0 0
125026.0 273212.0 0
137709.0 268887.0 0
134374.0 271764.0 0
136926.0 272061.0 0
142940.0 271520.0 0
149278.0 273651.0 0
154955.0 272453.0 0
159503.0 271177.0 0
162950.0 273492.0 0
166757.0 269174.0 0
170964.0 270981.0 0
178095.0 270498.0 0
182575.0 269061.0 0
188423.0 270991.0 0
198191.0 270648.0 0
202877.0 273606.0 0
208334.0 270228.0 0
213345.0 272421.0 0
221885.0 271081.0 0
227461.0 270936.0 0
232907.0 271819.0 0
238285.0 273599.0 0
244005.0 271435.0 0
249419.0 271286.0 0
253932.0 271518.0 0
259256.0 269976.0 0
265044.0 268699.0 0
263832.0 272710.0 0
268010.0 272115.0 0
272690.0 272195.0 0
278030.0 273005.0 0
282381.0 269207.0 0
287571.0 271392.0 0
292514.0 273206.0 0
296089.0 269940.0 0
310186.0 270679.0 0
315912.0 273369.0 0
326129.0 270468.0 0
329885.0 272411.0 0
332766.0 270385.0 0
359390.0 270481.0 0
365233.0 269524.0 0
371514.0 269433.0 0
375763.0 272826.0 0
382983.0 269763.0 0
392773.0 268917.0 0
388117.0 273298.0 0
405524.0 271017.0 0
418256.0 271382.0 0
423877.0 271433.0 0
430432.0 268965.0 0
443743.0 269195.0 0
448865.0 272139.0 0
453540.0 273460.0 0
457751.0 270705.0 0
463509.0 270816.0 0
472922.0 269082.0 0
469551.0 272200.0 0
473869.0 273198.0 0
477904.0 269203.0 0
485101.0 273280.0 0
492549.0 271004.0 0
497345.0 271998.0 0
12432.9 276392.0 0
18261.9 276354.0 0
31572.7 278528.0 0
35807.4 275528.0 0
40409.5 276236.0 0
62118.7 275153.0 0
78232.9 274182.0 0
83627.7 276448.0 0
88025.0 277260.0 0
92596.4 274200.0 0
98112.3 277901.0 0
110427.0 274243.0 0
115498.0 276074.0 0
119859.0 274434.0 0
119756.0 278323.0 0
124322.0 277242.0 0
145130.0 275525.0 0
152637.0 276890.0 0
157044.0 277000.0 0
175791.0 275247.0 0
179935.0 273899.0 0
193802.0 273821.0 0
203858.0 278696.0 0
208375.0 275691.0 0
213629.0 277991.0 0
218054.0 274933.0 0
223604.0 276013.0 0
220713.0 278325.0 0
229037.0 275919.0 0
233879.0 276976.0 0
238181.0 278619.0 0
242503.0 277127.0 0
247734.0 276043.0 0
252004.0 274900.0 0
255720.0 276827.0 0
260652.0 275922.0 0
265215.0 276714.0 0
269724.0 276264.0 0
274714.0 277694.0 0
283190.0 274551.0 0
288141.0 277211.0 0
293577.0 278001.0 0
296866.0 273948.0 0
297770.0 277603.0 0
305810.0 274554.0 0
301395.0 275096.0 0
309214.0 275679.0 0
320548.0 277459.0 0
332502.0 275309.0 0
337497.0 275202.0 0
344487.0 276118.0 0
350089.0 275657.0 0
354804.0 274195.0 0
359342.0 276010.0 0
363529.0 274134.0 0
368250.0 274588.0 0
379842.0 275395.0 0
383935.0 275464.0 0
396224.0 277466.0 0
420703.0 275107.0 0
428710.0 274943.0 0
443848.0 277631.0 0
460614.0 278643.0 0
475351.0 278401.0 0
480010.0 274677.0 0
486287.0 278829.0 0
2385.26 281446.0 0
11457.4 282530.0 0
19755.7 280878.0 0
23726.9 282105.0 0
28043.2 282861.0 0
37894.0 282385.0 0
42563.5 280155.0 0
48901.4 282984.0 0
59411.4 281512.0 0
73236.5 280268.0 0
78992.8 282097.0 0
84814.0 282313.0 0
103476.0 281328.0 0
108327.0 282757.0 0
127047.0 281545.0 0
137186.0 279319.0 0
133529.0 282028.0 0
141682.0 282073.0 0
178009.0 282315.0 0
182816.0 281989.0 0
188845.0 281916.0 0
208072.0 281182.0 0
212465.0 282752.0 0
217762.0 281699.0 0
223042.0 281616.0 0
226283.0 279005.0 0
230319.0 280837.0 0
235414.0 281913.0 0
240555.0 282083.0 0
245781.0 281592.0 0
251494.0 280046.0 0
256395.0 281883.0 0
262262.0 280757.0 0
267761.0 281069.0 0
272922.0 282853.0 0
278143.0 282379.0 0
281330.0 278887.0 0
284671.0 281883.0 0
290898.0 282605.0 0
296525.0 282422.0 0
320417.0 283052.0 0
324961.0 282976.0 0
327915.0 279967.0 0
332244.0 279243.0 0
349617.0 282376.0 0
356286.0 283295.0 0
366109.0 283544.0 0
370489.0 283838.0 0
373783.0 280564.0 0
391305.0 280907.0 0
401114.0 279423.0 0
405441.0 281540.0 0
410203.0 283462.0 0
415232.0 281944.0 0
420447.0 282594.0 0
436061.0 283404.0 0
441300.0 281896.0 0
447423.0 281483.0 0
452098.0 283262.0 0
463371.0 282964.0 0
468386.0 280397.0 0
472620.0 283294.0 0
478625.0 283561.0 0
482264.0 281192.0 0
488314.0 282701.0 0
491602.0 280418.0 0
6006.39 285141.0 0
10345.6 287955.0 0
14356.5 288890.0 0
17628.4 286574.0 0
21198.9 288759.0 0
31549.5 285833.0 0
44669.6 284808.0 0
53337.5 285077.0 0
57735.5 284986.0 0
81396.5 286415.0 0
88732.2 287652.0 0
94616.0 288356.0 0
115852.0 288861.0 0
131487.0 286078.0 0
147366.0 283978.0 0
151889.0 287741.0 0
157006.0 286335.0 0
162148.0 286033.0 0
166764.0 284992.0 0
172721.0 285154.0 0
195076.0 284179.0 0
203964.0 284241.0 0
208985.0 286423.0 0
215424.0 287362.0 0
220830.0 285960.0 0
223891.0 289044.0 0
226900.0 285141.0 0
232157.0 285655.0 0
237585.0 286655.0 0
242700.0 285803.0 0
247669.0 287505.0 0
251771.0 284624.0 0
259937.0 284917.0 0
255609.0 287070.0 0
264650.0 285610.0 0
269297.0 285694.0 0
275667.0 287627.0 0
282089.0 287209.0 0
288380.0 287759.0 0
294169.0 287683.0 0
307859.0 286667.0 0
313339.0 288227.0 0
318165.0 287308.0 0
333604.0 288745.0 0
339112.0 285167.0 0
344315.0 287309.0 0
361855.0 286108.0 0
373349.0 286840.0 0
382120.0 286906.0 0
377846.0 287443.0 0
386421.0 287134.0 0
424465.0 285439.0 0
429055.0 284990.0 0
434661.0 288405.0 0
444448.0 287915.0 0
456662.0 288364.0 0
475464.0 286580.0 0
484076.0 287648.0 0
497634.0 284235.0 0
2520.43 293635.0 0
23712.7 292108.0 0
27712.7 293021.0 0
38957.8 294092.0 0
69034.9 294133.0 0
73587.4 291530.0 0
78890.1 293357.0 0
99836.4 291391.0 0
111993.0 293973.0 0
124424.0 290183.0 0
129417.0 290495.0 0
132091.0 293908.0 0
137331.0 292075.0 0
141484.0 293712.0 0
178121.0 292348.0 0
173534.0 293733.0 0
182877.0 290895.0 0
190151.0 291113.0 0
198863.0 292544.0 0
204533.0 290022.0 0
209812.0 291393.0 0
214272.0 293085.0 0
219383.0 291274.0 0
223634.0 293604.0 0
228552.0 290924.0 0
233632.0 290038.0 0
237509.0 292551.0 0
241571.0 290078.0 0
249634.0 292280.0 0
245266.0 292923.0 0
254552.0 292529.0 0
260839.0 290651.0 0
267630.0 290535.0 0
273080.0 292642.0 0
278625.0 292522.0 0
282938.0 292179.0 0
286583.0 292340.0 0
291010.0 292186.0 0
295789.0 292996.0 0
304833.0 291095.0 0
326082.0 293540.0 0
345237.0 291827.0 0
348224.0 289276.0 0
348323.0 293607.0 0
375332.0 290208.0 0
387759.0 293837.0 0
396070.0 292093.0 0
405148.0 292113.0 0
412280.0 289948.0 0
416387.0 291603.0 0
425494.0 289383.0 0
431748.0 292399.0 0
439140.0 290208.0 0
452878.0 291822.0 0
457920.0 293319.0 0
461427.0 289812.0 0
465643.0 291864.0 0
478873.0 289245.0 0
35470.8 295713.0 0
31330.3 296126.0 0
58276.5 298857.0 0
64003.3 294221.0 0
62760.5 299008.0 0
79117.6 298176.0 0
83595.1 295808.0 0
106851.0 294506.0 0
102136.0 296120.0 0
115838.0 294623.0 0
118035.0 298138.0 0
122579.0 296257.0 0
187621.0 296549.0 0
194183.0 294351.0 0
206165.0 294502.0 0
204357.0 297599.0 0
210207.0 295996.0 0
219003.0 296156.0 0
214471.0 297902.0 0
223352.0 298373.0 0
227926.0 296564.0 0
232406.0 294507.0 0
236316.0 297607.0 0
241300.0 295848.0 0
246217.0 298105.0 0
251079.0 296382.0 0
256302.0 298511.0 0
262861.0 297357.0 0
268059.0 295745.0 0
272177.0 297764.0 0
277010.0 297446.0 0
282246.0 296948.0 0
286579.0 296018.0 0
292295.0 296747.0 0
296350.0 296501.0 0
320801.0 294555.0 0
334097.0 298792.0 0
339966.0 294547.0 0
338749.0 297754.0 0
344226.0 295772.0 0
353398.0 294779.0 0
377578.0 296312.0 0
383309.0 298447.0 0
391971.0 295035.0 0
417562.0 295995.0 0
422843.0 294267.0 0
429251.0 297042.0 0
440415.0 297992.0 0
448734.0 295496.0 0
444373.0 297069.0 0
483950.0 297716.0 0
488519.0 295586.0 0
493893.0 294272.0 0
23860.2 302773.0 0
85357.4 300478.0 0
89677.3 301647.0 0
114635.0 301843.0 0
119205.0 302298.0 0
148593.0 301417.0 0
154063.0 302493.0 0
160451.0 303207.0 0
172783.0 303743.0 0
177642.0 301977.0 0
182265.0 300165.0 0
186511.0 300250.0 0
204006.0 302055.0 0
209786.0 301446.0 0
219173.0 300845.0 0
215089.0 302303.0 0
222789.0 302832.0 0
226786.0 301340.0 0
232143.0 301723.0 0
237492.0 301897.0 0
241630.0 300925.0 0
247322.0 303067.0 0
251264.0 300945.0 0
257637.0 303265.0 0
261118.0 302377.0 0
267903.0 301212.0 0
273126.0 302197.0 0
279254.0 301750.0 0
284088.0 301897.0 0
288281.0 299604.0 0
287843.0 303909.0 0
292285.0 302223.0 0
296140.0 299726.0 0
343860.0 303100.0 0
354633.0 303113.0 0
362728.0 302282.0 0
367860.0 300689.0 0
374256.0 301025.0 0
388742.0 300905.0 0
441465.0 304184.0 0
449043.0 300547.0 0
472532.0 300675.0 0
476982.0 300124.0 0
487877.0 303280.0 0
18980.9 306689.0 0
24601.3 307899.0 0
29372.6 309074.0 0
41944.7 309252.0 0
46285.1 307208.0 0
57656.8 305540.0 0
59419.7 309441.0 0
131308.0 308799.0 0
136308.0 308667.0 0
164978.0 306936.0 0
169679.0 308140.0 0
175845.0 305616.0 0
203274.0 307824.0 0
207137.0 306231.0 0
212541.0 306401.0 0
216903.0 305835.0 0
221028.0 307048.0 0
226469.0 306509.0 0
231406.0 306808.0 0
236716.0 306856.0 0
242994.0 306289.0 0
247799.0 307239.0 0
251624.0 305497.0 0
256146.0 307071.0 0
260920.0 306669.0 0
265927.0 306582.0 0
270797.0 305807.0 0
276141.0 305998.0 0
281425.0 306238.0 0
285814.0 307294.0 0
295740.0 305207.0 0
291086.0 307141.0 0
300752.0 307047.0 0
347413.0 305586.0 0
351113.0 306608.0 0
359569.0 306286.0 0
378320.0 304801.0 0
378180.0 309183.0 0
447200.0 304578.0 0
496741.0 305793.0 0
3000.82 312339.0 0
34198.8 311034.0 0
38189.5 314086.0 0
44756.1 312708.0 0
49720.9 311535.0 0
78998.1 312235.0 0
109302.0 313458.0 0
125705.0 310145.0 0
203607.0 311404.0 0
199008.0 313933.0 0
209616.0 312100.0 0
216026.0 309577.0 0
215005.0 313204.0 0
219940.0 311979.0 0
225127.0 312073.0 0
230480.0 311446.0 0
235397.0 312261.0 0
240006.0 311521.0 0
245797.0 312167.0 0
252776.0 312085.0 0
259145.0 311498.0 0
263538.0 310431.0 0
264996.0 314526.0 0
269639.0 310933.0 0
273818.0 309485.0 0
277559.0 311401.0 0
282425.0 310720.0 0
286250.0 311025.0 0
290629.0 312625.0 0
295575.0 310121.0 0
303327.0 312443.0 0
318205.0 313462.0 0
344872.0 313229.0 0
354750.0 309899.0 0
374379.0 310841.0 0
382647.0 311728.0 0
388980.0 310488.0 0
430527.0 313571.0 0
435600.0 312923.0 0
441425.0 310592.0 0
463934.0 311682.0 0
5576.43 316740.0 0
40981.1 316831.0 0
78850.0 315688.0 0
104572.0 317285.0 0
110496.0 318218.0 0
199280.0 319654.0 0
204506.0 316229.0 0
213854.0 316479.0 0
209705.0 319400.0 0
217595.0 315864.0 0
222169.0 316639.0 0
227333.0 316843.0 0
232822.0 316785.0 0
238449.0 316382.0 0
242878.0 316413.0 0
247483.0 317907.0 0
251330.0 316856.0 0
255291.0 317740.0 0
260318.0 316712.0 0
270308.0 317197.0 0
275508.0 315687.0 0
280916.0 316473.0 0
286405.0 315515.0 0
290401.0 318195.0 0
295370.0 315919.0 0
306624.0 318718.0 0
321222.0 315732.0 0
324319.0 314656.0 0
394819.0 318512.0 0
399809.0 315022.0 0
406576.0 317306.0 0
412274.0 316985.0 0
420030.0 316939.0 0
425901.0 315485.0 0
466754.0 318139.0 0
470906.0 319496.0 0
13308.9 323430.0 0
30674.9 319982.0 0
114684.0 319681.0 0
118920.0 322171.0 0
123167.0 324427.0 0
190052.0 323848.0 0
194107.0 320776.0 0
203762.0 321120.0 0
215563.0 320654.0 0
222849.0 320436.0 0
219946.0 321376.0 0
226713.0 322501.0 0
231988.0 321831.0 0
236793.0 321422.0 0
241917.0 320621.0 0
246392.0 322690.0 0
252118.0 321037.0 0
255128.0 322474.0 0
259938.0 321935.0 0
265584.0 321259.0 0
275365.0 320335.0 0
270872.0 323120.0 0
280266.0 322346.0 0
285529.0 320606.0 0
289387.0 324310.0 0
294636.0 322069.0 0
336311.0 324048.0 0
349594.0 320077.0 0
355596.0 322877.0 0
389404.0 320679.0 0
417609.0 323064.0 0
431254.0 324391.0 0
4937.82 327657.0 0
9627.86 327910.0 0
203371.0 327333.0 0
207021.0 325004.0 0
213627.0 325955.0 0
209713.0 329165.0 0
218154.0 325956.0 0
222500.0 325819.0 0
228118.0 327758.0 0
233102.0 326411.0 0
237975.0 326214.0 0
242687.0 325168.0 0
241624.0 329815.0 0
247738.0 326887.0 0
251699.0 325169.0 0
255829.0 326651.0 0
260264.0 326994.0 0
265036.0 326648.0 0
269992.0 328483.0 0
275872.0 326466.0 0
280221.0 329276.0 0
284133.0 326474.0 0
288836.0 329865.0 0
294886.0 328696.0 0
341778.0 327515.0 0
351904.0 325491.0 0
361777.0 329231.0 0
367623.0 329283.0 0
378832.0 328011.0 0
2103.89 330217.0 0
187646.0 330086.0 0
204452.0 330967.0 0
208611.0 333448.0 0
213389.0 331651.0 0
218306.0 330616.0 0
222726.0 330729.0 0
226681.0 332288.0 0
231449.0 331079.0 0
236417.0 331004.0 0
247090.0 332002.0 0
253246.0 331213.0 0
258473.0 331268.0 0
262430.0 330613.0 0
266448.0 332505.0 0
273824.0 331841.0 0
278168.0 332781.0 0
282084.0 332307.0 0
285751.0 333770.0 0
289876.0 334543.0 0
320148.0 333841.0 0
325382.0 334231.0 0
329037.0 330504.0 0
371598.0 332846.0 0
375018.0 334779.0 0
385884.0 332032.0 0
390115.0 334387.0 0
35193.8 338066.0 0
68661.0 337623.0 0
74935.4 339225.0 0
139476.0 338326.0 0
144683.0 339026.0 0
204665.0 336620.0 0
208958.0 339000.0 0
213534.0 336868.0 0
218165.0 335370.0 0
222182.0 335445.0 0
225758.0 336856.0 0
230740.0 336561.0 0
236519.0 336223.0 0
242380.0 336162.0 0
247901.0 337569.0 0
252047.0 336077.0 0
256535.0 335877.0 0
261403.0 335495.0 0
266160.0 338368.0 0
271274.0 335815.0 0
276404.0 337870.0 0
281975.0 336769.0 0
287124.0 338774.0 0
294931.0 335454.0 0
292000.0 339730.0 0
315116.0 335965.0 0
61778.3 343382.0 0
68580.0 341996.0 0
71617.3 343511.0 0
90847.8 341581.0 0
137181.0 343040.0 0
149546.0 341962.0 0
154306.0 340156.0 0
157366.0 344314.0 0
161601.0 341042.0 0
295743.0 341565.0 0
300503.0 344494.0 0
302840.0 340364.0 0
306217.0 343674.0 0
78448.2 348863.0 0
81810.3 346048.0 0
132100.0 346391.0 0
135499.0 349914.0 0
309713.0 348838.0 0
305097.0 354315.0 0
308845.0 353380.0 0
185974.0 356598.0 0
197715.0 360401.0 0
138284.0 365138.0 0
142495.0 362510.0 0
1672.21 375616.0 0
5457.58 375225.0 0
9909.73 375283.0 0
14367.5 375202.0 0
18522.6 375144.0 0
23059.0 375105.0 0
26945.6 375430.0 0
30804.1 375249.0 0
34467.6 375527.0 0
37378.8 375618.0 0
41270.7 375477.0 0
45937.9 375119.0 0
49318.9 375247.0 0
53021.1 375814.0 0
57118.5 375453.0 0
61166.8 375914.0 0
65898.1 375035.0 0
69470.8 375482.0 0
72871.3 375642.0 0
76652.8 375171.0 0
80822.4 375347.0 0
85408.5 375211.0 0
90401.7 375323.0 0
94802.7 375263.0 0
99405.3 375297.0 0
103488.0 375357.0 0
107392.0 375280.0 0
111411.0 375258.0 0
115750.0 375173.0 0
119895.0 375541.0 0
124102.0 375110.0 0
129591.0 375499.0 0
133504.0 375521.0 0
136310.0 375533.0 0
142606.0 375529.0 0
139535.0 375485.0 0
145908.0 375377.0 0
150492.0 375879.0 0
154756.0 375162.0 0
158591.0 375869.0 0
162594.0 375719.0 0
166395.0 375312.0 0
170402.0 375351.0 0
173569.0 375444.0 0
177486.0 375074.0 0
182110.0 375139.0 0
179643.0 376835.0 0
185694.0 375411.0 0
189495.0 375151.0 0
193738.0 368636.0 0
193046.0 375599.0 0
195846.0 375409.0 0
198618.0 375136.0 0
300818.0 376275.0 0
304646.0 375610.0 0
308266.0 376321.0 0
311692.0 375292.0 0
316373.0 375690.0 0
320489.0 375837.0 0
323734.0 375593.0 0
327196.0 375468.0 0
331310.0 375354.0 0
335605.0 375061.0 0
339538.0 375664.0 0
343442.0 375384.0 0
348468.0 375742.0 0
352606.0 375984.0 0
356228.0 375018.0 0
360841.0 375281.0 0
365721.0 375914.0 0
370424.0 375270.0 0
375975.0 375298.0 0
373143.0 377286.0 0
379968.0 375742.0 0
383894.0 375467.0 0
388290.0 375993.0 0
393505.0 375226.0 0
397034.0 375497.0 0
400019.0 375348.0 0
403973.0 375348.0 0
408302.0 375054.0 0
410343.0 377472.0 0
412915.0 375148.0 0
417624.0 375175.0 0
421856.0 375487.0 0
426071.0 375646.0 0
429760.0 375278.0 0
433762.0 375451.0 0
438121.0 375086.0 0
442698.0 375217.0 0
440879.0 377229.0 0
446106.0 375203.0 0
451199.0 375483.0 0
455978.0 375588.0 0
460944.0 375650.0 0
465244.0 375548.0 0
469920.0 375488.0 0
474119.0 375189.0 0
479383.0 375227.0 0
484115.0 375600.0 0
487780.0 375435.0 0
492581.0 375353.0 0
497638.0 375369.0 0
4051.7 378773.0 0
1268.03 378718.0 0
1385.47 381464.0 0
7739.01 378068.0 0
10017.1 380697.0 0
5656.09 382309.0 0
12115.5 378245.0 0
13853.8 382170.0 0
16140.5 379053.0 0
20670.1 378549.0 0
25215.7 378462.0 0
23270.9 382293.0 0
26983.7 381093.0 0
28975.4 378381.0 0
30186.6 381734.0 0
32852.7 378716.0 0
37326.5 378966.0 0
38757.2 382205.0 0
40733.7 379906.0 0
44771.1 377976.0 0
43849.6 381145.0 0
48646.0 377941.0 0
47785.4 381144.0 0
50915.1 382090.0 0
51879.0 379258.0 0
54428.7 382049.0 0
56458.7 379042.0 0
60043.7 380401.0 0
65059.2 379110.0 0
69382.7 378261.0 0
68390.1 382295.0 0
72029.5 380120.0 0
74998.8 378209.0 0
75968.9 382596.0 0
78695.3 378377.0 0
81160.2 381817.0 0
83302.2 378464.0 0
85606.0 381876.0 0
87814.9 378841.0 0
92727.3 379405.0 0
96920.1 378827.0 0
101173.0 378593.0 0
98832.2 381660.0 0
105042.0 378529.0 0
102619.0 382017.0 0
107213.0 382246.0 0
109350.0 378503.0 0
111614.0 382172.0 0
113432.0 378586.0 0
115395.0 381895.0 0
117744.0 378875.0 0
121806.0 379300.0 0
126632.0 379041.0 0
122875.0 382196.0 0
131025.0 379321.0 0
130164.0 381834.0 0
133718.0 378453.0 0
137485.0 378781.0 0
139531.0 382905.0 0
146779.0 378949.0 0
142508.0 379062.0 0
148150.0 381963.0 0
151389.0 380008.0 0
155187.0 378343.0 0
161213.0 378474.0 0
158754.0 379563.0 0
162323.0 380797.0 0
168049.0 377942.0 0
164817.0 379002.0 0
168332.0 381127.0 0
171476.0 378620.0 0
172204.0 382289.0 0
175531.0 378604.0 0
179661.0 379241.0 0
181385.0 381963.0 0
183067.0 378416.0 0
184741.0 381095.0 0
187224.0 378344.0 0
191399.0 378973.0 0
193929.0 381335.0 0
195416.0 378137.0 0
196795.0 381292.0 0
199120.0 377891.0 0
199641.0 381102.0 0
301201.0 380402.0 0
304666.0 379185.0 0
308414.0 380602.0 0
312518.0 378970.0 0
312546.0 382133.0 0
320735.0 379230.0 0
316876.0 380840.0 0
323589.0 378049.0 0
323802.0 381169.0 0
326051.0 378771.0 0
326848.0 381153.0 0
329683.0 379113.0 0
333779.0 378476.0 0
340656.0 378793.0 0
337630.0 377891.0 0
337554.0 380938.0 0
340728.0 382556.0 0
344773.0 379845.0 0
349348.0 380044.0 0
353582.0 380116.0 0
357596.0 377926.0 0
357966.0 381639.0 0
361777.0 379676.0 0
366527.0 380620.0 0
369765.0 379078.0 0
373117.0 380825.0 0
377097.0 379788.0 0
381374.0 379117.0 0
385161.0 378764.0 0
383543.0 382439.0 0
387968.0 381443.0 0
392214.0 379569.0 0
395604.0 381776.0 0
397535.0 378691.0 0
400407.0 381826.0 0
401945.0 378152.0 0
406177.0 377822.0 0
404159.0 380403.0 0
408488.0 381141.0 0
412569.0 380011.0 0
415409.0 377805.0 0
416550.0 382313.0 0
419415.0 378945.0 0
421422.0 382503.0 0
427414.0 379285.0 0
423694.0 379293.0 0
430760.0 378353.0 0
430556.0 380975.0 0
432551.0 381062.0 0
428537.0 382610.0 0
434304.0 378740.0 0
437060.0 378357.0 0
435820.0 382097.0 0
439497.0 380534.0 0
444116.0 379203.0 0
447963.0 382613.0 0
448222.0 378081.0 0
451714.0 379758.0 0
454644.0 379266.0 0
456492.0 382387.0 0
458920.0 379232.0 0
460475.0 382381.0 0
463187.0 379757.0 0
467648.0 378966.0 0
466144.0 382693.0 0
470675.0 381722.0 0
472216.0 378472.0 0
475893.0 378114.0 0
475044.0 381890.0 0
479059.0 379992.0 0
482378.0 378477.0 0
483162.0 382692.0 0
485929.0 378961.0 0
487626.0 382692.0 0
489683.0 378903.0 0
494528.0 379254.0 0
498643.0 378792.0 0
497712.0 382280.0 0
1882.24 384854.0 0
10094.5 384144.0 0
6192.82 387163.0 0
14516.6 386257.0 0
10383.3 387656.0 0
18491.7 383277.0 0
19324.2 387121.0 0
23092.0 386012.0 0
26930.2 384281.0 0
30786.9 385453.0 0
34849.9 382705.0 0
34755.9 387027.0 0
38374.7 385783.0 0
41171.3 386565.0 0
45041.5 383522.0 0
41435.8 383519.0 0
44133.8 386866.0 0
48551.8 384958.0 0
52197.5 384505.0 0
55759.6 385915.0 0
57390.8 382702.0 0
59791.6 384745.0 0
63647.6 383511.0 0
63196.0 387741.0 0
67114.5 385877.0 0
70375.6 387569.0 0
71667.6 384208.0 0
74830.6 387467.0 0
79213.0 385956.0 0
83679.1 385585.0 0
90242.4 382832.0 0
87420.6 385087.0 0
91286.9 387562.0 0
95035.6 383803.0 0
99757.3 385054.0 0
104560.0 385337.0 0
109408.0 385610.0 0
114476.0 385973.0 0
119084.0 383203.0 0
119274.0 387381.0 0
126456.0 383386.0 0
122681.0 385501.0 0
130210.0 385383.0 0
134090.0 382735.0 0
136834.0 386690.0 0
133278.0 387190.0 0
142577.0 386856.0 0
144502.0 382574.0 0
147357.0 385506.0 0
151190.0 384155.0 0
155547.0 382735.0 0
153795.0 386563.0 0
158160.0 387196.0 0
160107.0 383019.0 0
162461.0 385989.0 0
165045.0 383345.0 0
169032.0 385365.0 0
172981.0 385852.0 0
177058.0 383371.0 0
180995.0 386607.0 0
183894.0 383604.0 0
188090.0 382522.0 0
186100.0 386656.0 0
191543.0 382979.0 0
190332.0 386103.0 0
194786.0 385168.0 0
199142.0 384901.0 0
301292.0 384658.0 0
304743.0 382832.0 0
305127.0 386782.0 0
307434.0 384491.0 0
310804.0 384384.0 0
309139.0 387466.0 0
314223.0 384285.0 0
317607.0 386022.0 0
320905.0 383560.0 0
325880.0 385264.0 0
329415.0 382639.0 0
330905.0 386935.0 0
333601.0 382894.0 0
335639.0 387274.0 0
337546.0 384217.0 0
340034.0 386807.0 0
344152.0 384390.0 0
346468.0 386517.0 0
347883.0 383479.0 0
351332.0 383615.0 0
349453.0 386888.0 0
355312.0 384084.0 0
353010.0 386124.0 0
359700.0 384839.0 0
363500.0 383397.0 0
364403.0 386833.0 0
366944.0 384522.0 0
370044.0 383204.0 0
374695.0 385385.0 0
379390.0 383286.0 0
379113.0 387625.0 0
382162.0 385909.0 0
386342.0 386425.0 0
392073.0 385185.0 0
397254.0 384972.0 0
401230.0 385732.0 0
404788.0 384421.0 0
408821.0 385087.0 0
412433.0 383872.0 0
415420.0 386665.0 0
419373.0 385609.0 0
425046.0 383193.0 0
423390.0 386977.0 0
427855.0 386620.0 0
432098.0 384181.0 0
436037.0 386093.0 0
438986.0 384134.0 0
442695.0 383315.0 0
445371.0 386898.0 0
452747.0 383052.0 0
450565.0 386317.0 0
455345.0 386877.0 0
462975.0 383772.0 0
459289.0 385114.0 0
461843.0 386543.0 0
465873.0 386781.0 0
469028.0 384853.0 0
472708.0 385662.0 0
476801.0 385379.0 0
479140.0 383585.0 0
484664.0 386400.0 0
488723.0 386882.0 0
492033.0 382486.0 0
494181.0 385932.0 0
498457.0 386090.0 0
1901.41 388815.0 0
1447.17 392451.0 0
8829.71 390254.0 0
5551.49 391853.0 0
12162.7 390321.0 0
16651.7 390758.0 0
22550.6 390521.0 0
26868.1 388211.0 0
31849.4 390465.0 0
37184.4 390001.0 0
40937.8 389278.0 0
44491.2 391265.0 0
47840.3 388871.0 0
51798.0 387822.0 0
54769.6 389874.0 0
59025.2 388928.0 0
62279.6 391863.0 0
66942.2 390482.0 0
71757.8 390862.0 0
76016.9 391765.0 0
78715.0 389528.0 0
82392.2 389101.0 0
86610.7 388492.0 0
85023.6 391642.0 0
88668.9 391688.0 0
96616.1 388418.0 0
93458.8 392223.0 0
101719.0 388768.0 0
106862.0 388844.0 0
111076.0 388876.0 0
109468.0 392322.0 0
116605.0 389610.0 0
113464.0 390919.0 0
119717.0 390535.0 0
126375.0 387890.0 0
122818.0 389597.0 0
126528.0 391959.0 0
130001.0 389656.0 0
134126.0 391359.0 0
138890.0 390066.0 0
142974.0 392448.0 0
146892.0 389545.0 0
150732.0 387815.0 0
150756.0 391673.0 0
154637.0 390024.0 0
161773.0 389229.0 0
158967.0 392073.0 0
163457.0 391675.0 0
165887.0 388464.0 0
171078.0 389707.0 0
175848.0 387852.0 0
175118.0 391403.0 0
179088.0 390579.0 0
183936.0 391009.0 0
188729.0 390138.0 0
193181.0 389124.0 0
198241.0 389745.0 0
301054.0 388686.0 0
304523.0 390657.0 0
307492.0 390273.0 0
310589.0 391305.0 0
313407.0 388105.0 0
314549.0 392433.0 0
317500.0 390077.0 0
320494.0 392291.0 0
321978.0 388371.0 0
324002.0 392535.0 0
327676.0 390701.0 0
333073.0 390811.0 0
337485.0 390913.0 0
341743.0 390901.0 0
343956.0 387880.0 0
346747.0 390519.0 0
356138.0 387835.0 0
352092.0 390452.0 0
356494.0 391787.0 0
360661.0 389535.0 0
365187.0 390243.0 0
369453.0 388191.0 0
371651.0 392697.0 0
373546.0 389890.0 0
376653.0 390228.0 0
374819.0 392581.0 0
379553.0 390999.0 0
382473.0 389382.0 0
385329.0 390984.0 0
389725.0 390265.0 0
395994.0 388223.0 0
393817.0 389372.0 0
393714.0 392256.0 0
397191.0 391745.0 0
399619.0 388694.0 0
401862.0 392512.0 0
403416.0 388576.0 0
405504.0 391071.0 0
407190.0 388396.0 0
411438.0 388021.0 0
409452.0 392517.0 0
414626.0 391381.0 0
418673.0 389339.0 0
422357.0 391422.0 0
426081.0 390405.0 0
429126.0 390232.0 0
432213.0 388100.0 0
432229.0 392377.0 0
436152.0 390137.0 0
440604.0 387955.0 0
439566.0 392069.0 0
444126.0 391798.0 0
448287.0 389598.0 0
452322.0 390304.0 0
456487.0 391177.0 0
459250.0 388722.0 0
460101.0 392108.0 0
463242.0 389803.0 0
467807.0 391064.0 0
469613.0 387865.0 0
472435.0 389631.0 0
475782.0 387865.0 0
477011.0 391487.0 0
480446.0 387605.0 0
481544.0 391327.0 0
484625.0 389690.0 0
487870.0 390754.0 0
492350.0 390077.0 0
497740.0 389925.0 0
2775.22 396664.0 0
9744.0 393186.0 0
7510.32 395744.0 0
13046.5 393918.0 0
11193.7 397080.0 0
19905.7 393459.0 0
16765.5 397284.0 0
22529.2 395597.0 0
26727.4 392873.0 0
26385.9 397592.0 0
31474.9 395751.0 0
36043.3 393799.0 0
40315.3 392980.0 0
38129.6 395415.0 0
40769.5 397219.0 0
44516.0 394965.0 0
50444.1 393083.0 0
47352.9 396868.0 0
54197.4 396573.0 0
57255.0 393157.0 0
58121.3 397362.0 0
61446.8 395553.0 0
65648.0 394544.0 0
69679.2 394274.0 0
73439.6 393885.0 0
73211.5 397163.0 0
76874.9 395720.0 0
80709.2 393418.0 0
85392.0 395848.0 0
89868.5 395152.0 0
96119.9 394820.0 0
93744.2 397708.0 0
99105.4 392955.0 0
97972.6 397190.0 0
104337.0 393161.0 0
107542.0 396550.0 0
117240.0 392946.0 0
113039.0 395322.0 0
122139.0 393968.0 0
118049.0 396749.0 0
127196.0 396854.0 0
130036.0 393352.0 0
133023.0 396733.0 0
138060.0 394765.0 0
142129.0 397475.0 0
147290.0 393144.0 0
145743.0 395855.0 0
150054.0 396444.0 0
154428.0 394171.0 0
158011.0 397082.0 0
162945.0 395931.0 0
167501.0 393061.0 0
172689.0 395390.0 0
177072.0 393978.0 0
177541.0 397604.0 0
180627.0 394388.0 0
184296.0 395223.0 0
187534.0 394155.0 0
191745.0 393377.0 0
190680.0 397368.0 0
195121.0 392688.0 0
196935.0 394380.0 0
194646.0 396119.0 0
198388.0 397402.0 0
199423.0 393852.0 0
301269.0 393451.0 0
306864.0 395111.0 0
311707.0 394826.0 0
315167.0 396469.0 0
318056.0 394336.0 0
322043.0 395568.0 0
326080.0 395577.0 0
330632.0 394860.0 0
335349.0 394425.0 0
339569.0 394345.0 0
337460.0 397509.0 0
344002.0 394406.0 0
348958.0 394572.0 0
353459.0 394962.0 0
360052.0 393433.0 0
357690.0 394957.0 0
361284.0 396834.0 0
363510.0 393490.0 0
365585.0 396693.0 0
367717.0 392983.0 0
370023.0 396455.0 0
374490.0 396412.0 0
377812.0 393562.0 0
378756.0 397294.0 0
382142.0 393907.0 0
385006.0 397442.0 0
387067.0 394120.0 0
391306.0 394702.0 0
395340.0 395109.0 0
393346.0 397449.0 0
399192.0 395234.0 0
402832.0 397745.0 0
405529.0 394405.0 0
413031.0 395985.0 0
418616.0 394569.0 0
422884.0 395503.0 0
425290.0 393682.0 0
426398.0 397269.0 0
428288.0 393530.0 0
431029.0 396485.0 0
435877.0 394838.0 0
437828.0 397594.0 0
441042.0 395729.0 0
445547.0 396248.0 0
448747.0 393328.0 0
450378.0 397296.0 0
453499.0 393987.0 0
457568.0 394902.0 0
461199.0 395593.0 0
464028.0 397689.0 0
464283.0 393713.0 0
467660.0 395775.0 0
471623.0 393493.0 0
475633.0 396326.0 0
480538.0 395013.0 0
484999.0 393801.0 0
486824.0 397415.0 0
490037.0 394188.0 0
494333.0 397335.0 0
498834.0 393322.0 0
495211.0 393397.0 0
498367.0 396449.0 0
2885.85 402396.0 0
7808.93 399845.0 0
12389.1 401480.0 0
17566.2 402834.0 0
21814.5 399924.0 0
25727.6 401833.0 0
30683.6 400936.0 0
35975.9 398392.0 0
40110.2 402038.0 0
44930.9 400222.0 0
50472.5 399578.0 0
55497.1 400993.0 0
61098.7 400817.0 0
64505.7 398152.0 0
65318.4 402103.0 0
68755.7 398846.0 0
76541.5 398967.0 0
73512.5 401427.0 0
80553.3 398473.0 0
77891.6 402109.0 0
81387.2 402428.0 0
84737.9 400652.0 0
89153.1 399414.0 0
93134.7 402271.0 0
101979.0 398001.0 0
97725.9 401139.0 0
105473.0 400722.0 0
110839.0 400759.0 0
115353.0 399151.0 0
122019.0 398979.0 0
118332.0 400377.0 0
125479.0 402758.0 0
129997.0 400637.0 0
134069.0 401605.0 0
137976.0 399375.0 0
142264.0 401955.0 0
146406.0 399831.0 0
150871.0 401709.0 0
153692.0 398310.0 0
155982.0 401795.0 0
161181.0 401523.0 0
164370.0 399805.0 0
167622.0 398127.0 0
165524.0 402411.0 0
171516.0 399508.0 0
174714.0 401223.0 0
182136.0 398192.0 0
179560.0 401393.0 0
186477.0 398154.0 0
184481.0 401710.0 0
189361.0 401631.0 0
194622.0 400645.0 0
199102.0 400982.0 0
302212.0 397993.0 0
301454.0 402556.0 0
306707.0 401132.0 0
311057.0 398889.0 0
315555.0 400922.0 0
319211.0 397997.0 0
320246.0 402325.0 0
323896.0 399332.0 0
328631.0 398803.0 0
330994.0 401723.0 0
327043.0 402647.0 0
333605.0 399011.0 0
337905.0 401350.0 0
341307.0 398029.0 0
346171.0 398565.0 0
342751.0 402753.0 0
350955.0 399003.0 0
356248.0 399074.0 0
360259.0 400058.0 0
363868.0 400924.0 0
368010.0 399408.0 0
371977.0 400668.0 0
376266.0 400644.0 0
380293.0 401280.0 0
381937.0 398418.0 0
384647.0 401802.0 0
389125.0 398551.0 0
389143.0 403011.0 0
393290.0 400913.0 0
397352.0 398817.0 0
400908.0 401744.0 0
405461.0 402673.0 0
408417.0 398202.0 0
409918.0 402355.0 0
412875.0 400505.0 0
416511.0 398648.0 0
417044.0 403015.0 0
421431.0 399306.0 0
425708.0 401492.0 0
429592.0 400119.0 0
428546.0 402870.0 0
434489.0 400219.0 0
439173.0 399502.0 0
439008.0 403100.0 0
442600.0 399892.0 0
447075.0 400683.0 0
451898.0 401741.0 0
455049.0 398445.0 0
455923.0 402551.0 0
459682.0 399070.0 0
463705.0 401890.0 0
467328.0 399843.0 0
471187.0 398232.0 0
474589.0 400561.0 0
479034.0 399690.0 0
483328.0 398642.0 0
486566.0 401783.0 0
490194.0 398710.0 0
490343.0 401984.0 0
493643.0 401359.0 0
497824.0 400322.0 0
3352.77 407999.0 0
8268.25 404910.0 0
13433.2 406771.0 0
18478.6 406707.0 0
22421.2 404695.0 0
27433.5 405355.0 0
31444.6 405431.0 0
35420.2 403321.0 0
34491.8 407570.0 0
39014.6 407122.0 0
43982.3 405738.0 0
47868.6 403641.0 0
48664.7 408045.0 0
51686.5 404234.0 0
55445.7 405043.0 0
58810.3 404179.0 0
58029.0 407751.0 0
63171.5 406256.0 0
69200.9 404390.0 0
75001.7 405928.0 0
79800.1 405588.0 0
84282.6 404968.0 0
88522.3 403676.0 0
91812.3 405857.0 0
96606.5 405678.0 0
101753.0 403634.0 0
100471.0 407587.0 0
106925.0 404638.0 0
104296.0 407797.0 0
111879.0 405927.0 0
115699.0 402973.0 0
117182.0 407418.0 0
120161.0 403314.0 0
122190.0 406734.0 0
126180.0 407995.0 0
130472.0 405295.0 0
135064.0 405411.0 0
138558.0 403845.0 0
142321.0 406606.0 0
146184.0 404169.0 0
149986.0 405839.0 0
154246.0 405912.0 0
158784.0 405647.0 0
163594.0 405950.0 0
168449.0 407863.0 0
169621.0 403072.0 0
173229.0 405969.0 0
177025.0 404449.0 0
181571.0 405689.0 0
187248.0 405786.0 0
192874.0 406067.0 0
198029.0 404333.0 0
304787.0 405196.0 0
301454.0 407464.0 0
307779.0 405831.0 0
311464.0 404286.0 0
316665.0 405653.0 0
321359.0 406808.0 0
323749.0 403711.0 0
325737.0 407008.0 0
330328.0 405800.0 0
334446.0 403706.0 0
338702.0 406555.0 0
343169.0 406952.0 0
348125.0 403430.0 0
350729.0 407104.0 0
353267.0 403472.0 0
359118.0 404436.0 0
364103.0 406353.0 0
368184.0 403412.0 0
370986.0 405837.0 0
368109.0 408059.0 0
374291.0 404621.0 0
378007.0 404133.0 0
381455.0 405306.0 0
386050.0 406647.0 0
390461.0 406435.0 0
392957.0 404445.0 0
396963.0 403915.0 0
398256.0 406910.0 0
401451.0 405880.0 0
405826.0 405909.0 0
409309.0 406308.0 0
412789.0 403778.0 0
414355.0 407696.0 0
419163.0 406775.0 0
422329.0 404272.0 0
427089.0 405966.0 0
431244.0 403782.0 0
431279.0 407913.0 0
434954.0 405269.0 0
438452.0 407087.0 0
441589.0 407541.0 0
443561.0 404328.0 0
448875.0 405596.0 0
453505.0 404999.0 0
457151.0 406873.0 0
459532.0 403318.0 0
461986.0 406340.0 0
466176.0 405602.0 0
470862.0 403346.0 0
473778.0 407051.0 0
477214.0 404100.0 0
482095.0 403081.0 0
481182.0 407578.0 0
485132.0 405609.0 0
490942.0 406465.0 0
495525.0 404009.0 0
498595.0 403927.0 0
497379.0 407909.0 0
1627.15 412008.0 0
8677.09 409527.0 0
5558.51 412650.0 0
12781.5 412014.0 0
17624.3 410775.0 0
21248.0 408364.0 0
25071.8 408689.0 0
22120.7 411688.0 0
30204.8 409929.0 0
25990.1 412672.0 0
36016.2 411802.0 0
41155.2 411272.0 0
44789.2 410023.0 0
47597.1 411919.0 0
53395.6 408299.0 0
51511.7 412255.0 0
56289.0 411735.0 0
60457.5 410397.0 0
64115.3 411929.0 0
67291.5 408953.0 0
71460.4 408701.0 0
74423.8 410094.0 0
78163.3 409461.0 0
82779.0 409035.0 0
85444.3 412112.0 0
87972.8 408436.0 0
92998.9 409377.0 0
94675.0 413166.0 0
97651.4 410244.0 0
101951.0 411427.0 0
106678.0 411618.0 0
108316.0 408166.0 0
112009.0 410897.0 0
117185.0 412655.0 0
121510.0 410556.0 0
125670.0 412796.0 0
130273.0 410640.0 0
134061.0 408425.0 0
138028.0 408013.0 0
140721.0 411119.0 0
146844.0 408792.0 0
143612.0 409621.0 0
144563.0 412898.0 0
151706.0 409666.0 0
155989.0 409606.0 0
158080.0 412771.0 0
160321.0 409321.0 0
164592.0 410457.0 0
168308.0 412537.0 0
172662.0 410973.0 0
177005.0 408475.0 0
180897.0 410217.0 0
184588.0 409237.0 0
188932.0 410719.0 0
193873.0 411406.0 0
198064.0 408693.0 0
305446.0 408850.0 0
301883.0 411577.0 0
309517.0 408961.0 0
313417.0 408362.0 0
312344.0 412600.0 0
318014.0 411175.0 0
323712.0 410923.0 0
329113.0 410940.0 0
334161.0 408587.0 0
333679.0 412724.0 0
337824.0 411581.0 0
342264.0 410627.0 0
346661.0 408401.0 0
346274.0 413129.0 0
350745.0 411200.0 0
355221.0 408470.0 0
360537.0 410221.0 0
365078.0 410475.0 0
368579.0 411577.0 0
372454.0 409383.0 0
375148.0 412943.0 0
377453.0 408219.0 0
379057.0 412114.0 0
382151.0 409485.0 0
386426.0 411584.0 0
389742.0 409367.0 0
394557.0 408402.0 0
396650.0 412489.0 0
399516.0 409648.0 0
404880.0 409715.0 0
410400.0 411341.0 0
415251.0 412988.0 0
418585.0 410274.0 0
423494.0 409521.0 0
427953.0 410300.0 0
431464.0 413097.0 0
435397.0 409763.0 0
440403.0 411695.0 0
444804.0 408758.0 0
448693.0 410390.0 0
452973.0 408923.0 0
456559.0 412002.0 0
460207.0 409624.0 0
464339.0 409819.0 0
469409.0 409393.0 0
474351.0 410932.0 0
477212.0 408310.0 0
478461.0 411341.0 0
482336.0 412296.0 0
485939.0 409822.0 0
493967.0 411159.0 0
489914.0 412338.0 0
497925.0 412607.0 0
2424.45 416031.0 0
9133.15 413660.0 0
7225.33 417684.0 0
12016.4 416649.0 0
19763.3 414229.0 0
16408.2 415364.0 0
22890.8 415434.0 0
28912.6 413633.0 0
27613.3 417363.0 0
32036.3 414864.0 0
35797.6 416621.0 0
39809.9 415428.0 0
44404.0 414346.0 0
42555.4 418207.0 0
48727.4 415171.0 0
50428.9 418103.0 0
54674.9 416558.0 0
59862.0 414531.0 0
64166.9 416718.0 0
69891.8 414063.0 0
75887.4 413431.0 0
74781.8 417546.0 0
80885.1 413777.0 0
85449.9 415909.0 0
82534.3 417233.0 0
89765.5 413609.0 0
93907.5 417999.0 0
98727.7 414894.0 0
104034.0 416467.0 0
109574.0 415601.0 0
113674.0 415343.0 0
117042.0 417508.0 0
121602.0 415467.0 0
130178.0 416543.0 0
135781.0 413263.0 0
140986.0 416343.0 0
146068.0 416902.0 0
148861.0 413049.0 0
150126.0 416678.0 0
153759.0 413826.0 0
157834.0 416643.0 0
161698.0 413270.0 0
162122.0 417248.0 0
165117.0 414313.0 0
167319.0 417976.0 0
171115.0 415345.0 0
177696.0 413767.0 0
174292.0 416528.0 0
181117.0 417383.0 0
183924.0 413743.0 0
188204.0 415208.0 0
191322.0 414274.0 0
198094.0 413798.0 0
194411.0 415419.0 0
301846.0 415531.0 0
306723.0 413529.0 0
310907.0 416911.0 0
315785.0 416791.0 0
320884.0 415720.0 0
325904.0 415126.0 0
330965.0 415986.0 0
336690.0 416643.0 0
341988.0 415094.0 0
346087.0 417868.0 0
350531.0 415847.0 0
355884.0 413905.0 0
360782.0 414788.0 0
365342.0 414571.0 0
362635.0 418073.0 0
370546.0 415441.0 0
374862.0 416964.0 0
378583.0 415947.0 0
382583.0 414080.0 0
386907.0 416835.0 0
391602.0 413559.0 0
395942.0 416767.0 0
401081.0 414573.0 0
406846.0 415153.0 0
411860.0 416480.0 0
416504.0 417162.0 0
420819.0 414777.0 0
426351.0 414130.0 0
424364.0 418371.0 0
429642.0 418366.0 0
436025.0 413463.0 0
434695.0 416983.0 0
438440.0 415778.0 0
442486.0 416803.0 0
445511.0 413154.0 0
447670.0 417646.0 0
451605.0 413971.0 0
452106.0 418313.0 0
455593.0 416468.0 0
461371.0 413882.0 0
466616.0 413919.0 0
471485.0 414376.0 0
479346.0 414662.0 0
475921.0 414762.0 0
478292.0 418062.0 0
482367.0 416561.0 0
486217.0 414543.0 0
490299.0 416698.0 0
494374.0 415016.0 0
497981.0 416568.0 0
2728.93 421016.0 0
7239.36 422121.0 0
11002.3 420981.0 0
15287.3 419726.0 0
19832.7 418533.0 0
18511.0 422407.0 0
23680.6 418985.0 0
22957.8 422676.0 0
28442.6 422843.0 0
32606.5 419420.0 0
38385.5 420609.0 0
43829.9 422469.0 0
46508.0 418395.0 0
49362.1 422174.0 0
54929.3 422336.0 0
59680.9 419310.0 0
64220.4 421635.0 0
67592.1 419136.0 0
71320.1 419524.0 0
74831.1 422535.0 0
79141.0 419207.0 0
84108.8 420112.0 0
88675.4 419031.0 0
92867.5 423480.0 0
99269.6 420505.0 0
104123.0 421600.0 0
108207.0 420372.0 0
112862.0 419478.0 0
116619.0 421541.0 0
120821.0 420266.0 0
125320.0 418898.0 0
135739.0 419647.0 0
139976.0 420147.0 0
139487.0 423153.0 0
143564.0 421052.0 0
148795.0 420998.0 0
153751.0 419010.0 0
158723.0 421887.0 0
163861.0 421269.0 0
172309.0 420279.0 0
177078.0 418798.0 0
176482.0 423091.0 0
180972.0 421702.0 0
185714.0 419050.0 0
191349.0 418531.0 0
189240.0 422632.0 0
197220.0 419121.0 0
302255.0 419930.0 0
305923.0 422902.0 0
306687.0 418699.0 0
310567.0 421470.0 0
315219.0 421537.0 0
319473.0 420304.0 0
323595.0 418966.0 0
327911.0 419858.0 0
332667.0 420694.0 0
336964.0 421997.0 0
341460.0 420316.0 0
345968.0 422778.0 0
350276.0 420820.0 0
354302.0 418620.0 0
358562.0 418542.0 0
361789.0 423066.0 0
366767.0 419495.0 0
372114.0 420938.0 0
377544.0 420331.0 0
381215.0 423456.0 0
382212.0 418900.0 0
386452.0 422637.0 0
391754.0 419767.0 0
395882.0 423448.0 0
399034.0 419729.0 0
403788.0 419290.0 0
405745.0 423217.0 0
408546.0 419877.0 0
414403.0 421110.0 0
419725.0 420127.0 0
426201.0 422031.0 0
434164.0 420880.0 0
438802.0 420165.0 0
444036.0 421662.0 0
449565.0 422223.0 0
455312.0 422045.0 0
459470.0 418489.0 0
464241.0 418403.0 0
469145.0 418392.0 0
466693.0 422197.0 0
473862.0 418549.0 0
471440.0 423221.0 0
476801.0 422313.0 0
481586.0 421011.0 0
486130.0 419201.0 0
494071.0 418815.0 0
490415.0 421966.0 0
494528.0 422487.0 0
497845.0 420716.0 0
1119.24 424675.0 0
4803.04 425960.0 0
1165.48 427207.0 0
9789.56 425486.0 0
14493.5 424434.0 0
19590.2 427288.0 0
25308.4 427226.0 0
30251.1 427697.0 0
33885.8 424107.0 0
38468.6 425785.0 0
42684.4 427233.0 0
46997.8 426409.0 0
51777.4 426895.0 0
56350.9 427270.0 0
60072.5 424473.0 0
64759.8 426713.0 0
69232.7 423718.0 0
72993.6 427266.0 0
81290.2 423854.0 0
77534.9 426545.0 0
87092.7 424718.0 0
91447.0 427961.0 0
97330.1 425660.0 0
101987.0 425081.0 0
106926.0 425310.0 0
111380.0 423667.0 0
115389.0 425517.0 0
119278.0 423988.0 0
120261.0 428089.0 0
123431.0 424043.0 0
125327.0 428231.0 0
129580.0 423463.0 0
135276.0 424487.0 0
142760.0 425751.0 0
138432.0 427456.0 0
146191.0 424326.0 0
148994.0 425096.0 0
153202.0 424489.0 0
157769.0 428037.0 0
162944.0 425989.0 0
167896.0 423309.0 0
167312.0 428124.0 0
172530.0 426575.0 0
177006.0 426543.0 0
180656.0 426896.0 0
185209.0 424364.0 0
193514.0 423372.0 0
189830.0 427944.0 0
198067.0 424361.0 0
195297.0 427695.0 0
301978.0 424537.0 0
305465.0 427496.0 0
301494.0 428544.0 0
308915.0 425488.0 0
313234.0 425902.0 0
318435.0 425406.0 0
324073.0 423898.0 0
329575.0 424634.0 0
334311.0 425375.0 0
340044.0 426584.0 0
345432.0 426834.0 0
349925.0 425919.0 0
355312.0 423530.0 0
358569.0 428333.0 0
363497.0 428584.0 0
367918.0 425333.0 0
376075.0 426240.0 0
383587.0 427286.0 0
391059.0 424407.0 0
388313.0 427790.0 0
393505.0 428325.0 0
398403.0 427741.0 0
401179.0 423861.0 0
401831.0 427556.0 0
405613.0 427840.0 0
410246.0 424611.0 0
414247.0 427446.0 0
417779.0 424547.0 0
422359.0 424173.0 0
426223.0 425939.0 0
430771.0 424333.0 0
436655.0 425064.0 0
442033.0 426678.0 0
446732.0 425687.0 0
451803.0 427424.0 0
457495.0 427451.0 0
461710.0 423582.0 0
466938.0 427041.0 0
475309.0 427961.0 0
480757.0 425654.0 0
484690.0 427763.0 0
485275.0 423797.0 0
488811.0 426701.0 0
493452.0 425944.0 0
497823.0 425130.0 0
2462.56 430435.0 0
4930.47 433373.0 0
7809.59 430166.0 0
12928.6 429348.0 0
17218.2 433049.0 0
22514.4 431929.0 0
27540.1 432077.0 0
34941.5 429172.0 0
39502.2 430141.0 0
43295.3 431345.0 0
48455.5 431848.0 0
54327.3 431319.0 0
60455.0 429865.0 0
65623.2 431954.0 0
68890.9 428587.0 0
71594.3 431547.0 0
75996.2 430906.0 0
82321.1 429598.0 0
85785.9 433161.0 0
87799.6 430147.0 0
91302.0 432632.0 0
95439.6 430200.0 0
100643.0 429668.0 0
106029.0 430680.0 0
111322.0 428719.0 0
109891.0 433206.0 0
115961.0 429783.0 0
118848.0 432877.0 0
122944.0 431820.0 0
126765.0 432415.0 0
129355.0 429444.0 0
133550.0 428474.0 0
136871.0 433003.0 0
142068.0 430882.0 0
146900.0 428761.0 0
151766.0 429111.0 0
154621.0 432773.0 0
159733.0 433077.0 0
163728.0 430776.0 0
167790.0 432555.0 0
172560.0 432442.0 0
176990.0 430165.0 0
181503.0 431723.0 0
184591.0 428835.0 0
186373.0 432883.0 0
198282.0 430421.0 0
193973.0 432861.0 0
303868.0 432439.0 0
310164.0 431362.0 0
316031.0 430066.0 0
319846.0 433282.0 0
322074.0 428934.0 0
324315.0 432366.0 0
326778.0 428802.0 0
331556.0 429081.0 0
336086.0 431635.0 0
340984.0 433393.0 0
344082.0 430427.0 0
348548.0 431067.0 0
353501.0 429804.0 0
357037.0 433127.0 0
367068.0 430297.0 0
368469.0 433529.0 0
371356.0 430117.0 0
376143.0 431418.0 0
380123.0 430729.0 0
385070.0 432070.0 0
390245.0 432485.0 0
397027.0 432397.0 0
401700.0 430988.0 0
406255.0 433174.0 0
410214.0 429842.0 0
414658.0 432735.0 0
418432.0 429034.0 0
420234.0 433680.0 0
423272.0 429263.0 0
428705.0 429964.0 0
432859.0 433642.0 0
433470.0 428887.0 0
438028.0 430640.0 0
443089.0 431983.0 0
447154.0 429919.0 0
455228.0 431447.0 0
462002.0 428969.0 0
465295.0 432052.0 0
470447.0 431770.0 0
481163.0 430523.0 0
486268.0 432359.0 0
492298.0 430994.0 0
497607.0 429491.0 0
11101.3 435038.0 0
32726.5 434001.0 0
38063.4 434616.0 0
58211.0 434678.0 0
79097.1 434257.0 0
97093.1 434968.0 0
102405.0 434836.0 0
114149.0 433673.0 0
373797.0 433885.0 0
425320.0 433970.0 0
450723.0 433086.0 0
459668.0 433346.0 0
477178.0 433621.0 0
481776.0 434806.0 0
490191.0 435914.0 0
494349.0 435608.0 0
497934.0 433881.0 0
POINT_DATA 5000
SCALARS Radius float 1
LOOKUP_TABLE default
3979.26 3471.03 5253.55 5782.6 4862.21 5379.87 4792.73 3485.26 3850.77 6044.04 5415.48 5120.0 3863.18 6182.6 5258.36 5812.43 5906.14 7513.1 5580.89 6810.52 5840.26 6716.79 7613.27 5529.52 5255.32 5096.78 6756.95 6324.23 3843.58 4270.53 5191.63 4150.99 4216.92 4742.68 4344.58 5634.83 6268.1 4861.06 5320.28 6739.08 4797.52 4796.58 4298.67 5960.66 6608.73 5820.48 7034.11 5113.21 3929.19 4107.03 4043.57 4478.15 5681.38 5925.6 4501.51 5513.6 4736.58 4931.38 6082.81 4329.05 4151.94 4049.23 5337.48 6124.89 4929.8 5708.81 5252.48 4780.03 5495.39 3996.0 3856.1 4665.12 3383.4 4133.88 4094.62 4834.9 5546.39 5325.36 5484.83 5085.53 5351.6 2356.98 4998.37 4715.55 5492.18 3951.75 5061.3 3642.12 3163.97 5542.27 5122.66 5484.19 5254.28 4688.68 4436.4 5733.48 4517.56 4672.91 4182.53 5903.42 3588.44 5645.7 5176.86 4366.19 3672.51 6110.27 5561.06 5073.35 3615.22 5670.04 4380.59 3589.27 3997.1 3607.45 3260.67 5759.91 3038.33 4333.2 4951.03 7199.21 6037.08 4523.7 2240.39 5091.39 5293.9 4129.43 6142.94 3320.52 4727.24 4602.25 4194.5 5082.47 5344.25 5445.87 4593.7 4704.72 4177.94 4571.7 5896.46 5495.84 3784.5 6481.79 5374.51 7042.12 6326.39 4569.12 5873.69 4962.09 3999.48 5011.84 4359.62 6261.42 4502.5 5433.8 3771.48 5499.11 4271.69 4138.42 3708.04 3240.09 4556.36 4901.41 3191.99 4685.34 4382.74 5601.05 4651.28 3586.91 3103.0 3554.9 5481.78 4015.92 5542.21 4487.31 3936.02 5043.05 4044.71 5980.74 5109.54 4927.02 5945.65 6759.9 5538.89 4730.36 5867.73 6059.59 5013.56 5701.86 4499.64 4375.68 4238.81 4468.59 5054.98 6030.06 5170.02 3557.27 5200.76 4927.31 4862.64 4402.52 5185.34 4432.58 6684.56 3968.64 3955.56 3761.32 4118.05 5292.64 6166.5 5553.16 2938.66 5936.02 4940.78 4231.61 4861.08 4008.92 4003.05 3942.53 3379.84 4805.87 4827.82 5227.21 5697.78 5123.52 4091.31 4392.68 6372.62 4295.38 7565.34 5923.5 4612.68 4973.83 3912.37 6691.39 4790.08 5135.69 4763.45 5344.0 6045.46 3815.26 4245.72 5908.1 6048.7 6133.92 5022.8 3780.23 4166.08 4123.6 5224.12 4819.73 4471.58 6098.14 4472.17 4203.26 5188.81 6946.21 2586.12 6057.22 4011.77 4527.08 3633.87 5922.5 5198.77 3970.25 5987.17 6013.14 2765.2 5011.31 5138.31 5110.37 5664.98 5927.43 6355.42 3693.63 4384.42 4362.19 4516.43 5690.56 4948.92 5637.59 4937.14 3307.12 5816.2 5693.81 4002.16 4174.52 6483.19 3829.13 6230.49 5418.62 7021.47 5416.38 5740.68 5926.61 4955.55 2720.68 3563.63 5836.15 4345.55 6704.06 5885.03 3653.41 2837.58 3871.88 5325.02 5246.2 5017.13 5279.39 3673.74 5205.43 7447.37 4688.67 2635.86 4385.06 5065.13 5305.17 4290.3 5399.73 5390.22 3888.21 4712.33 6038.78 4667.36 4254.17 5090.24 5615.42 5530.87 4281.49 6342.25 4187.56 4840.84 4301.06 4020.32 4290.14 4156.38 5316.75 4541.21 4164.68 3719.84 4178.4 3095.48 5624.49 5762.59 4850.14 5163.55 3382.7 3954.91 6817.32 4319.79 6643.85 3637.61 6222.42 5654.31 4730.41 3745.84 5690.26 5062.71 4156.2 6125.34 5965.78 5347.48 4850.01 4810.12 5643.58 5147.67 3979.82 4292.06 5577.04 5006.58 5264.06 4602.86 4659.59 6327.9 4048.37 5492.26 5244.78 5762.84 3115.91 3937.74 4493.48 6084.86 5924.89 4778.34 4138.16 6894.71 3486.22 4684.5 3091.3 6458.82 4601.27 5493.32 3641.64 4277.89 6051.14 3261.21 4195.44 5539.32 6496.85 5600.93 3856.01 5541.59 4390.66 4124.71 5728.85 4827.23 4911.47 6116.18 4924.6 4381.97 6257.19 4733.32 7184.19 2899.43 2812.98 2924.37 3867.67 4695.45 4660.72 6052.7 3921.18 5891.05 5308.1 6902.81 6644.76 5629.19 5655.21 4786.6 4645.41 5740.84 6445.94 4310.18 5542.14 4218.06 7134.64 5978.9 4716.19 3629.62 5514.76 4997.27 3456.98 4877.67 3066.13 6562.18 6006.16 6009.88 7055.53 5669.65 5934.22 5339.78 4970.88 7092.87 4666.81 3703.1 6471.55 2965.01 5499.39 5501.93 5463.38 4938.74 5696.88 5607.14 4497.59 3923.03 5975.63 4374.35 6396.74 5215.05 2775.04 3821.72 4986.77 5586.81 3688.8 4621.75 4548.16 3369.23 4551.24 5449.18 4220.88 4515.71 6519.71 6640.13 4749.8 5082.6 5478.92 5551.36 5094.44 4467.94 4414.54 4850.81 5789.98 6138.47 7054.71 5489.43 5573.7 5747.75 4727.62 5054.25 4796.33 4055.8 7325.81 5280.17 5360.19 4794.96 4874.39 5083.08 6337.56 5525.39 5803.39 5863.59 4024.3 3255.82 5555.28 5242.73 4737.14 4065.69 5603.15 5556.96 3798.62 5581.75 6392.01 3666.57 4907.89 4937.02 4073.93 6043.3 5952.75 4433.59 4320.28 6122.55 2739.94 4931.53 5480.13 6308.71 6695.82 6405.76 3498.2 5105.16 5448.61 4302.5 5050.65 4827.33 5513.57 5013.67 5826.04 4538.95 4143.78 4763.66 4636.5 4940.42 4946.42 5923.4 5085.71 6116.33 5644.82 6343.14 5945.21 5750.71 4831.47 4643.85 4004.04 5252.34 5564.02 4138.46 4274.61 2965.79 6898.19 6035.6 6318.18 4481.53 3948.17 5330.45 4581.13 5358.59 3610.4 6387.01 5367.52 3092.35 5210.03 5810.84 4230.54 5351.39 3748.24 6142.37 4655.49 4933.21 5375.47 6038.14 2540.31 6029.66 5527.54 5697.4 6038.2 4270.95 5206.78 6425.26 5143.58 6186.19 4839.34 2980.99 6834.49 7933.0 4455.12 3998.5 5938.34 5380.13 6394.38 5118.27 5169.36 5932.23 4686.65 5834.74 4479.66 5788.23 3043.85 3599.45 6730.19 4907.06 5489.34 3735.44 5163.9 6332.36 6155.31 4223.33 5911.67 3323.28 5835.78 5794.24 4127.74 2476.04 4678.38 3942.07 7443.72 3937.08 5260.34 5206.48 5729.23 5226.0 3365.82 5724.64 5965.15 4780.2 6090.91 4963.34 5019.93 5081.78 6263.44 5774.97 5462.21 5470.77 3474.39 6062.05 4289.17 6072.45 4410.55 5137.34 5423.0 3856.59 4219.07 5413.79 6202.55 4322.15 5025.39 4714.54 3629.96 5478.47 3320.11 6022.17 5119.37 6061.47 6163.38 4566.18 4723.12 5120.49 5201.36 5262.61 6302.8 5409.61 5094.81 4005.44 5972.06 5713.22 5555.88 6732.43 5028.96 3866.16 6362.12 4484.76 3778.1 4840.01 5152.36 4511.82 5611.2 5173.87 4894.16 4896.52 5711.87 3372.79 4941.22 5791.61 3369.13 4669.66 4808.52 5367.2 5607.24 5461.13 4726.76 5053.92 5839.13 5495.68 4863.72 5002.48 5708.14 5537.72 3920.42 8332.24 4553.56 5329.64 6049.55 5709.62 5991.09 5133.97 6600.94 5371.02 6155.1 4709.35 6586.45 4373.3 4750.78 5029.78 4163.5 4888.6 5078.86 4918.77 5100.1 3561.29 4219.78 3295.83 3885.86 4459.28 4260.92 4479.94 6250.23 5960.56 4118.84 4020.95 5862.86 6313.06 3493.7 6470.3 4200.03 6939.12 5082.74 6915.83 5092.37 6444.77 7099.43 5526.14 4287.63 5198.29 5077.33 4746.52 3689.45 5572.95 6338.89 5584.06 7111.16 5893.5 4547.19 3817.13 5030.91 3982.23 4583.31 5806.08 3459.9 4853.39 4997.27 4964.09 4093.08 4809.42 5024.9 4306.53 4717.05 5659.17 4312.67 5861.71 4359.04 3183.98 3794.63 5017.78 4524.28 6175.81 4727.24 6677.09 5826.64 4220.65 6820.42 4816.2 6321.41 4089.76 4751.02 3192.41 5184.56 5282.64 4987.87 4715.72 3315.57 5804.71 5046.33 4764.96 4242.52 5356.51 6352.26 3847.38 3818.59 4087.15 4143.08 7500.97 6623.85 4262.82 5228.18 5102.36 4342.9 5065.11 5069.84 4051.44 4978.31 4241.89 5054.74 5941.72 4656.78 5126.91 3600.43 4788.58 5131.24 5196.67 5876.71 6262.72 3664.11 6515.84 2990.77 5882.65 4739.14 5187.7 4371.99 4188.3 5235.29 4255.31 5453.3 6413.02 4863.27 3492.19 5122.63 6049.79 5374.98 4719.7 4735.33 4406.4 5411.85 4844.57 4027.46 6314.07 5776.37 5315.4 4516.28 6449.45 3975.31 4044.45 3824.16 5125.78 3868.18 4373.47 5045.38 6723.16 5372.61 3686.21 6480.17 5507.24 5023.15 6851.54 4503.89 4336.42 5243.29 7589.94 4449.22 5543.27 5287.2 6135.57 5998.38 5013.13 5423.8 4270.24 3417.33 4989.15 4926.42 4164.13 5015.69 4947.52 4305.57 6959.81 4829.35 4389.21 5201.67 3791.79 4424.7 4925.44 4754.05 5526.55 6084.93 5215.15 3697.96 4739.42 5538.93 5020.12 5727.3 2631.9 5281.28 4277.88 3057.03 4758.21 7228.46 3948.23 5978.82 5787.31 3927.99 5868.82 4050.9 4948.98 4099.77 4414.48 5227.52 4537.32 4981.9 5163.02 4906.82 5687.83 5004.23 6496.67 5474.8 6607.87 5117.47 4721.32 4925.63 3293.56 5274.14 4434.19 4903.82 5746.28 4623.61 5511.6 6261.75 5177.64 4378.3 6134.99 4094.73 4407.9 4584.5 4440.57 5548.29 4703.08 2315.64 6345.13 5274.19 5516.95 5313.22 4413.85 3999.94 4470.98 4864.22 3921.08 4190.31 3627.82 5678.96 5262.19 4244.9 5344.43 6070.58 5350.88 5130.91 5402.24 6445.22 4377.07 3844.9 3813.22 5101.59 3963.86 5570.3 3848.93 4306.11 5935.47 3130.65 5628.24 5004.67 5856.11 3327.49 5992.26 4109.88 4234.94 3960.8 4562.29 4980.85 5080.66 5110.45 5248.77 4642.34 4083.97 4520.1 5153.74 5874.89 4528.09 4293.03 5813.4 4128.98 6246.22 4951.47 5246.61 4307.28 4100.38 5344.77 4723.48 4899.11 4745.45 4278.07 7267.18 6255.18 4668.71 5269.18 4406.1 6362.14 6719.88 4454.63 5080.18 5266.5 4523.88 3279.1 4066.38 4403.98 4560.84 4729.43 4092.24 4562.74 7144.24 5598.74 7493.3 6442.69 6320.71 4648.04 3464.83 6413.11 4305.16 3163.78 5092.28 4965.89 5659.95 4152.85 4082.47 4453.64 4338.08 4517.73 5469.47 4989.56 4718.54 2588.37 6736.03 6766.43 5916.16 4390.41 5226.56 5599.49 4097.57 3905.51 5017.5 5563.79 3901.8 6171.13 5759.46 5083.41 7055.42 6048.86 4285.32 5490.43 6034.41 5452.83 4959.34 4948.5 4519.22 4527.02 3695.36 4564.34 4871.44 5076.35 6020.48 3402.32 5200.05 5903.66 4528.49 5365.89 5419.37 4466.03 4511.54 5070.39 4923.9 5714.58 3329.99 5208.32 3947.47 3296.27 4713.25 4607.02 4204.84 6243.0 3895.51 4165.81 3556.85 5441.96 6291.51 3435.9 5174.89 5882.89 5370.52 4188.32 4652.29 5774.81 3746.31 5027.98 5097.87 6475.1 4969.21 2691.29 6256.02 5320.92 5314.85 4305.43 5450.44 5034.59 4942.77 4263.33 5912.61 5381.16 6193.35 6086.96 5233.78 5776.57 5046.21 5683.26 5894.61 5139.5 5944.09 4814.55 3527.05 5698.77 2477.07 4497.31 5529.42 5257.12 5243.43 4537.14 5551.9 2908.7 3757.34 6415.61 4687.64 4419.71 5660.16 3838.47 4541.8 5175.29 6235.57 3623.87 5412.31 3087.09 6934.37 6113.95 4050.08 5452.42 5328.22 2395.5 5511.88 4512.11 5486.68 5683.61 5100.25 5022.28 5197.52 5178.99 5383.07 4531.14 4591.87 5013.42 3838.56 6552.22 5651.07 6248.81 6375.99 5273.35 5234.29 5313.66 2651.49 5512.23 5275.32 5409.33 4898.94 5196.0 4613.31 4973.78 4733.04 6119.09 5091.68 7531.29 5069.25 5048.89 6673.96 3161.47 3991.03 6390.78 7435.25 4288.3 6826.57 4788.87 4495.87 6022.72 5498.32 5527.33 5346.27 5402.21 4989.09 2845.98 4880.14 5289.52 3848.54 5941.4 6510.17 5742.65 5592.32 4402.67 4470.61 5565.13 4384.88 6887.27 3701.27 5653.9 4806.34 5612.21 4929.14 3979.54 5304.13 3306.14 5490.58 5833.06 4863.79 4923.41 3830.46 6031.67 5384.76 6138.12 4428.78 4345.67 4765.72 4642.66 4752.14 5329.59 4888.12 5037.06 5512.16 3197.63 5842.56 5887.15 7480.41 3423.15 4890.5 3981.07 3731.84 4901.07 5186.3 6853.85 3497.9 4151.76 5941.61 4020.4 5782.48 3493.47 6248.6 3836.45 5443.58 4558.46 5805.86 6894.26 4470.4 4986.51 5339.38 6169.11 5615.35 4790.78 6422.84 4247.15 4502.18 5379.09 4602.85 5872.05 4853.02 4091.8 4645.58 5181.4 5670.2 5985.29 4247.23 4178.15 4268.65 4694.83 5509.42 4354.08 5788.66 5936.36 4520.62 3903.75 4755.47 5935.03 5475.8 5314.69 4249.46 5965.81 3702.37 5660.85 4643.31 2330.66 4177.19 6917.52 3587.05 6229.37 6718.19 4982.31 5282.91 4307.48 4425.84 7256.35 5331.02 4871.96 4863.23 3555.86 6386.78 4631.83 4996.99 6081.14 6008.49 4220.46 4287.53 5945.08 3169.67 4968.03 5395.14 4702.06 3967.48 6213.04 4689.15 3685.13 4655.16 5409.66 3867.19 5857.79 4039.91 5276.7 5036.58 6119.63 4950.97 4752.9 4287.16 4863.96 5191.08 5203.08 5374.07 5163.77 4588.7 4488.85 3766.55 4579.69 3554.48 6496.52 3436.15 5005.85 4216.17 6484.17 4721.02 4596.75 4254.37 4933.65 4031.78 6098.1 5708.99 4049.02 5346.68 5311.03 5255.12 4896.11 4285.66 4027.09 5172.53 5801.99 5210.48 4962.77 7552.94 6259.23 5088.44 4998.21 4711.62 4662.56 4114.24 5349.31 4649.22 5394.55 5094.52 4256.43 4946.74 2682.24 5928.32 5229.48 5475.7 4485.99 4016.18 5127.16 5435.74 4244.99 6050.81 5543.46 6185.89 3997.96 4750.17 3460.94 3990.25 3691.0 4752.51 4236.14 4407.87 5282.51 3797.33 5945.89 4105.55 4800.69 6566.1 6065.22 4456.39 4896.39 3633.79 5421.53 5480.83 4607.85 6070.3 5128.57 6000.7 5233.29 5604.21 5204.04 3361.92 4750.58 6710.88 6667.68 5235.11 6622.11 5211.38 4590.55 6790.73 5920.32 5251.4 5097.69 3988.3 6543.13 5149.72 5464.25 5411.02 5301.47 4617.55 5199.44 5424.88 4062.5 5415.85 4435.51 5683.95 6027.62 5010.2 6123.03 5966.61 5711.11 4938.72 3374.08 3546.71 5768.57 5564.23 5950.04 5687.85 2435.33 5296.29 4611.53 2681.29 5094.48 3872.61 4238.4 4135.62 4318.48 6132.95 5534.94 4860.33 7644.38 4051.34 6101.92 5323.3 3627.55 4635.6 4256.67 3457.48 5166.79 3931.07 2976.22 3405.98 5417.15 3688.16 4681.72 4945.39 5996.33 3950.63 5415.19 4612.62 3619.07 5526.75 4275.57 6385.23 5327.45 2983.99 5560.26 2614.4 6363.92 6205.93 4439.35 5830.72 6184.4 3758.07 3828.81 4373.45 4082.57 5733.62 5169.9 4460.92 3004.16 4767.78 4042.28 5235.17 4421.12 4779.5 4340.76 5254.49 4221.28 4303.19 5514.84 3914.2 5937.08 4135.08 5620.74 4778.82 4312.56 4612.06 5467.84 5053.95 5926.11 5767.9 5089.62 5869.4 4741.26 4186.6 4255.85 5895.77 4732.09 6136.49 4356.25 4216.95 5776.96 5742.74 5486.48 4947.24 3645.12 6200.54 5148.58 4199.45 8659.64 5469.13 4233.8 5765.42 4997.83 4893.49 4575.94 5325.44 5021.88 5956.65 4498.25 4188.87 3735.24 4231.83 6401.43 4074.48 4558.47 5020.71 5997.88 5839.71 5576.92 6408.83 5266.22 3930.79 5226.97 3685.13 3312.06 6004.68 3361.26 6799.4 6239.84 5865.39 4427.28 6079.11 6430.39 7440.72 3949.6 5703.6 6326.18 5661.62 6631.19 6648.68 4467.04 4713.74 5626.61 5817.25 4084.49 5061.98 6632.99 4537.6 4923.24 4419.61 7177.44 4563.46 5309.98 6553.94 5255.18 5460.65 5652.0 5463.41 5225.33 4929.75 4435.36 6649.96 5134.39 5784.3 5769.98 4256.57 5442.32 6088.68 2221.99 4643.56 4863.01 5356.79 5657.36 6124.08 5029.47 6306.21 5266.01 5253.37 2040.66 7016.27 6515.8 3876.21 3685.65 3701.16 4916.22 6022.7 5750.07 4809.67 4757.74 6045.67 4209.49 3946.28 3821.94 4244.21 5439.9 5367.73 3875.05 3540.11 3456.47 4652.01 7234.66 6599.66 4055.54 4976.12 6098.95 5453.98 3991.42 4388.63 5102.75 4200.09 4597.29 5931.77 5151.21 6574.95 6333.29 4477.04 5731.57 5703.74 5662.55 5737.92 5365.24 4004.35 4763.96 5754.18 5180.76 3418.99 4480.95 5278.36 4409.63 5521.25 3661.9 3082.32 5370.85 5949.46 3658.37 3178.54 5376.71 4448.13 5070.29 4807.28 4867.08 4266.03 5280.69 4220.03 6923.84 5407.78 5449.46 6179.96 6113.54 5147.36 6260.79 3963.76 5528.53 6799.88 3062.43 5726.66 5426.78 2967.38 4159.35 6477.91 4237.98 6439.37 6045.22 4614.3 3532.3 5580.92 5973.33 5067.46 3583.21 2511.46 3580.58 4011.37 2775.69 4785.25 3619.79 5876.64 5424.46 4857.84 2978.76 4908.49 4962.21 5884.9 4673.35 5689.26 4992.42 4940.84 4351.38 4833.46 5933.7 7248.4 5280.12 5984.81 3498.16 4409.27 4640.06 5471.74 5421.64 3548.39 3673.28 4858.51 4207.54 4886.12 6419.12 6107.89 4817.16 5660.55 5148.08 4834.87 5760.22 3672.21 5938.17 4795.43 5398.64 5097.95 6817.57 4693.52 3614.96 3886.68 6853.04 4745.43 5831.96 4747.55 4360.23 3056.7 3755.95 6234.32 5293.51 4446.06 3450.93 5008.63 5132.68 6595.03 4993.35 4558.15 6218.95 5222.16 5107.23 5136.08 3776.94 5558.68 4765.02 4010.57 5629.39 2684.03 6157.04 4768.61 2261.36 5075.55 4522.21 5506.19 6719.94 4950.67 5227.59 6166.29 5453.6 5703.07 5294.77 4662.43 4709.05 4630.82 4043.66 4813.08 4540.86 5990.52 4835.83 5604.35 6316.56 4332.87 3091.67 6420.81 4081.97 5401.99 5151.52 4347.74 4009.62 5291.9 2081.58 6505.78 5461.55 6519.43 6449.64 4684.44 4749.59 4858.44 3468.42 3809.69 5571.72 4771.13 7051.9 5297.19 4184.23 5550.75 6226.14 5466.33 4444.97 5721.05 4247.69 4514.39 4588.99 4321.21 4344.34 4928.27 3583.49 5052.84 3375.28 4366.74 5625.65 4301.61 3184.64 4446.84 5530.49 3718.69 4514.79 2216.82 4509.89 6752.75 5269.38 5607.3 5108.06 3573.73 2928.82 4222.4 4000.43 3420.08 4912.04 4539.07 5464.68 5591.76 4586.19 4585.31 6625.18 5323.91 4270.74 6293.89 2761.07 4983.39 5366.52 4690.55 5533.72 5533.42 4802.32 3678.08 4599.38 5246.47 4187.31 6191.29 3240.51 7422.36 5161.01 4298.15 4628.4 5832.37 6051.83 4642.93 5409.63 4263.16 3973.12 3077.84 6024.75 6109.49 5567.93 5860.67 5332.65 3764.1 6451.33 5413.31 6400.08 4743.59 5208.14 4715.58 3317.83 4450.7 3763.05 5092.24 5369.08 3101.75 4518.04 4766.06 4874.18 5435.19 3298.2 4270.15 6865.76 4093.99 6464.8 4406.05 4680.94 5799.69 5876.72 5236.43 3208.96 5285.07 4608.41 4144.57 4187.94 5980.59 6834.41 3796.15 4801.8 3000.29 7216.98 5271.02 4209.31 5718.28 6242.79 5950.45 5713.03 5849.65 5134.67 4165.21 5297.16 4936.96 5206.33 4481.76 5452.78 5653.03 5065.26 4304.41 6192.0 4940.28 5885.28 3004.34 3022.6 4914.45 4811.76 4698.87 4568.41 4661.03 3624.7 4691.91 5262.35 4475.83 2685.81 4510.8 5889.35 5010.04 4394.56 4570.98 5097.45 4275.07 5825.38 4185.61 5737.75 4047.87 5742.47 3778.02 6552.21 5417.8 5146.37 7132.12 4836.16 5518.57 5151.11 5463.48 5730.33 5545.46 4527.99 4376.7 5190.61 8325.01 3764.06 4440.81 5941.9 5434.47 6642.76 5829.22 4497.78 4243.79 5987.42 5433.65 4442.22 4887.76 4669.06 3012.99 4811.32 4286.49 6184.88 5829.32 4396.25 5551.95 5549.49 3918.87 5423.42 2275.45 6605.86 5012.5 4383.56 3562.79 7093.13 4953.1 5818.95 3604.14 3940.49 4452.54 5089.1 2711.19 5828.35 4028.32 4099.92 4884.59 3858.06 4680.14 4083.79 5263.27 6300.92 5021.77 5599.29 6038.68 4807.4 7013.17 3805.67 4601.74 6506.86 5088.57 5580.34 3852.6 5775.31 4215.0 4706.5 4603.5 4647.67 4356.36 4892.44 5578.94 7610.49 4286.17 6579.31 5323.55 5375.1 4172.6 5313.12 5351.56 5160.59 3984.88 4732.09 4320.42 4255.34 5064.79 5480.3 7509.24 4146.81 5896.26 5388.78 6101.13 4573.72 5099.21 4917.99 5636.4 4367.78 4350.12 5227.02 5670.0 4232.16 5300.96 4344.51 5680.94 3781.77 5581.55 5193.01 4543.1 3474.5 6550.44 3860.83 5732.27 4523.39 5278.56 5146.37 6917.62 4013.38 5631.14 4343.78 5811.18 4909.65 4008.15 6523.86 7693.4 4326.48 4437.07 3449.37 5491.9 6405.0 4659.16 5789.55 4633.05 4901.2 5711.62 4990.79 4798.17 5166.79 6479.39 2895.63 4516.53 4122.92 4997.91 5079.22 5381.54 5810.77 5474.15 7519.2 6355.68 4511.7 4478.6 3953.55 4304.63 4469.54 4314.56 4173.54 3928.53 5606.51 5046.12 3834.47 6349.67 4590.01 6101.86 5993.0 4803.57 5966.42 4110.59 3332.49 5354.66 4214.44 5375.12 4787.97 3746.36 6789.23 3989.7 4777.03 3684.56 4246.61 6028.09 5452.36 3804.5 6486.37 5498.42 5318.53 3344.57 5220.76 4281.98 7165.9 5344.83 7046.11 3427.63 4863.97 6342.48 5756.75 5599.7 6969.28 3665.95 5698.96 4095.75 3603.51 4298.45 5222.51 6609.84 5135.96 3834.43 5658.37 4707.06 6074.94 5491.37 4250.88 3783.54 6348.03 3475.67 4792.39 7038.89 4814.12 5067.56 6137.8 2735.53 5263.3 3352.35 3747.03 2783.85 4356.49 3994.07 4219.94 5907.46 4264.91 5399.29 4909.31 5971.22 6522.59 3568.28 5425.98 5996.66 4405.42 2995.67 3598.08 4599.81 5698.23 7300.58 4714.83 3608.06 6633.61 4867.7 5484.36 4277.24 4063.9 5291.05 5161.1 4619.2 5166.41 5740.65 5067.56 6329.53 4139.3 6541.45 4227.41 4750.49 5078.31 5391.48 4923.43 5131.15 4847.14 3950.27 5116.66 5378.23 3566.79 5374.67 4981.43 5069.89 4215.2 4157.29 6813.72 5327.75 4609.02 4638.18 4196.37 6448.66 4453.97 6945.98 5138.2 5783.48 4449.98 4504.35 4771.65 4840.44 5093.82 4587.67 5951.81 4163.74 3924.14 4296.69 6238.32 3319.67 6471.42 5283.8 4076.59 4428.14 5164.1 6464.15 4479.11 4972.17 6685.4 5699.53 4222.77 6332.01 5268.38 5527.23 4805.33 3863.67 5980.95 6193.08 6069.3 5887.01 5116.6 5388.39 5335.47 5633.61 4526.81 5048.19 6799.23 4888.27 6740.71 6487.56 4854.11 5533.19 5417.21 6602.43 5583.61 6063.64 7382.3 5522.21 3772.3 4855.01 4923.57 3340.09 5217.95 2279.05 4829.35 4075.28 8137.11 5484.32 6650.77 4067.96 7104.73 2596.96 6162.3 5701.75 3272.75 4350.15 4264.54 3516.27 4263.78 4643.9 5228.75 6047.14 5009.83 5210.38 5717.8 3629.44 5003.78 3299.24 6246.56 4741.28 4061.6 2603.64 5107.0 6212.15 4783.07 4896.65 4946.23 6083.28 5211.6 3556.79 5806.31 3503.41 7317.04 4701.5 7001.83 5012.97 5589.37 5439.49 6918.35 4834.3 6804.79 6372.13 5369.5 5404.01 6016.19 4124.49 3230.13 5714.25 5325.96 4850.06 7044.29 4234.18 4049.16 7085.01 3936.95 6153.94 6836.82 3862.77 4631.99 5168.35 3185.39 5128.77 3728.18 7122.87 5797.36 4243.26 4153.84 5119.86 4592.15 5084.17 4901.44 4998.22 5096.43 6156.21 6104.26 4653.83 6171.71 4986.71 4668.88 4022.56 5027.43 5522.75 5867.64 6208.9 6059.93 5602.53 6061.63 6545.43 6760.92 4711.04 4506.18 4824.12 4383.47 5971.21 7043.44 6502.97 4852.58 5456.71 6412.67 4036.91 6639.64 5212.43 5454.12 6348.54 4066.57 5642.35 4206.98 5156.76 6357.47 6101.57 4891.38 5535.91 5955.86 6176.67 4848.46 5412.24 5016.02 2779.99 5887.38 4920.21 4581.37 6942.34 5851.61 5478.11 5526.31 3858.17 5030.15 4740.98 5089.26 3776.8 2460.79 3628.89 6589.82 4438.58 5073.02 3472.91 4989.2 7144.05 2970.9 6542.5 6318.23 4058.87 5174.75 5932.07 4984.46 5948.71 4793.65 2949.12 3856.53 4532.89 5460.89 4533.37 5260.85 5742.09 2884.65 5807.46 4648.21 3658.05 4393.16 4549.69 6423.81 6192.77 6413.15 6103.11 5048.55 6459.51 4024.31 4955.16 5844.72 3992.97 5989.05 6040.74 4054.22 7228.94 5393.65 4961.99 6551.93 4595.12 3311.29 3110.13 6484.43 4625.67 3485.54 6735.97 5305.59 5416.45 4330.58 5754.6 3288.01 4904.51 4147.31 2202.77 5751.15 5950.88 4149.55 4441.22 5853.89 3380.69 4140.4 4386.8 5446.4 4725.01 5966.75 3104.96 5244.78 3636.15 6114.89 5135.63 6384.7 4355.83 6870.97 5351.86 6056.87 5474.01 6201.86 7554.58 5166.89 3639.44 4731.21 5491.63 5725.37 3868.62 5138.33 3477.1 4729.42 5216.26 4844.83 5377.37 5652.87 5483.7 5018.69 3152.86 5952.38 3896.27 5807.52 5963.36 5230.02 5307.35 4342.18 5169.48 6016.08 3124.7 6064.71 6102.98 5096.24 5769.14 3381.82 4831.93 4023.93 5494.28 5493.89 5261.19 4811.22 4918.76 4208.41 5826.78 3758.22 4268.19 4788.08 6379.14 3687.65 5478.95 4749.96 4658.24 5869.67 4311.48 4899.73 5457.66 6394.19 5973.89 5366.22 6193.73 5518.11 5087.14 5712.35 5701.52 4743.9 6776.22 5321.17 3719.11 4467.13 6060.17 5934.82 4501.78 5415.45 4385.81 6592.93 6350.71 7107.63 5868.89 4099.26 5206.47 4834.39 3831.52 6106.43 6761.81 5467.63 2856.55 6214.73 4553.68 4532.7 3205.68 5561.74 6100.73 4908.75 6556.26 3971.08 4593.7 4349.13 6818.91 3503.65 3634.5 3851.85 4019.34 4869.48 3623.19 4906.11 4387.39 4564.1 5825.55 5509.51 4848.14 3199.4 4316.5 5254.24 3742.11 4192.21 3597.43 5144.56 4158.91 5311.55 3360.86 3034.16 4869.25 5545.21 3877.8 6418.11 4922.49 3572.94 5001.58 6456.58 5039.12 4824.81 7307.21 5135.5 5615.84 5788.97 3274.85 5007.21 5545.59 4580.06 4835.97 4057.17 7066.96 4587.7 4263.65 5644.81 5666.95 4127.53 4642.2 5210.75 5175.89 5361.87 5232.85 4374.74 5975.23 6816.66 4473.29 4745.79 6204.65 4482.9 6550.4 5513.8 4887.52 5350.88 4392.65 5429.3 5510.96 6653.07 4745.16 4697.91 4584.81 5071.98 5719.79 4371.08 7261.51 4968.14 4914.03 5086.29 5527.13 5139.18 4278.57 5551.43 5049.99 4201.03 4333.87 4458.64 5001.87 4312.15 3657.69 4078.93 6015.02 4820.17 5244.98 3814.65 3886.72 4034.05 5798.38 6436.74 5366.11 3419.87 4384.28 3908.98 5944.3 5113.6 6328.42 5640.72 3619.72 4565.93 4504.52 4464.73 6440.38 5610.53 6419.64 5262.47 4991.35 5196.92 4807.35 4568.64 5750.35 6555.44 5293.75 6358.93 2205.51 3894.64 3703.49 5144.44 4757.2 5034.69 5079.64 4211.82 5470.04 4891.67 4882.66 6631.28 6571.31 4944.51 5603.68 5610.95 5532.72 3220.8 5179.17 5579.39 5270.51 5148.1 5490.75 5224.64 5949.73 4312.48 6370.33 5081.08 6318.25 6864.06 3644.78 5510.9 4883.63 7039.98 6006.89 7778.01 5127.82 5690.96 5805.1 3862.91 4456.26 4027.33 4810.98 3563.14 5851.63 5556.0 4954.81 5755.15 4608.34 3926.11 5464.83 5414.58 2781.96 3512.94 4467.0 4994.65 5601.55 5334.36 3919.62 4929.6 4489.99 3683.86 5658.14 5473.72 7124.45 2617.39 4062.56 4198.94 3217.67 6163.54 6003.78 5684.25 5438.92 3766.69 5110.11 5188.53 4521.75 4813.33 4027.63 5635.32 4526.34 4316.45 5409.08 5042.75 4598.92 5241.22 6647.08 4979.52 3422.29 4407.79 5214.63 3495.68 5783.94 5352.24 7362.42 4202.77 5836.14 5473.05 6008.81 4583.52 4505.28 3492.83 6280.13 5244.22 5585.14 4960.64 5792.98 4983.3 5910.86 6239.68 4456.11 5782.43 4708.31 5026.76 5091.22 6282.38 5727.79 5212.92 5043.14 5748.9 3742.31 5695.79 4420.6 3622.8 4431.23 4258.98 6545.99 3903.91 4368.28 4945.0 4548.45 4658.11 5730.61 5114.07 4508.18 5064.67 3717.47 4504.86 5969.37 4928.35 4509.46 3844.54 5212.37 3538.53 996.652 6500.49 5965.58 5058.51 4244.49 4050.03 5036.98 4120.07 3840.21 5569.2 6746.66 5420.67 5661.6 4827.61 5285.75 5481.64 5673.75 5360.67 5968.54 6263.3 4501.05 4537.03 6548.29 3990.96 4114.2 4326.06 5034.46 5757.29 5793.12 5469.17 5061.75 4373.2 6711.21 4971.29 5832.29 2606.51 4438.76 5401.4 5053.15 5124.17 5749.6 7320.78 4234.88 4834.44 3873.92 4092.07 5347.9 5657.55 5188.82 4717.73 4928.85 5072.5 4749.18 3663.0 4546.96 4316.0 6304.49 5134.72 4475.38 5287.25 5917.34 5740.98 5630.9 4728.55 4554.68 4551.26 7142.95 4559.74 4383.68 6618.21 6666.67 6200.63 4583.94 1937.5 5046.31 4337.32 2628.22 3352.34 4901.29 4952.52 3429.57 5410.33 3242.31 6099.28 5372.25 5385.03 4169.15 3234.26 4778.37 5134.17 4074.16 4904.35 5592.54 3247.97 5124.34 4904.37 4358.81 4651.64 5729.92 5016.46 6224.13 4761.84 3769.24 3661.67 3743.76 5153.18 3425.69 5510.45 3864.92 6119.99 4159.81 4446.58 5372.82 4402.17 4775.49 4681.29 3845.9 4174.44 6331.74 4213.05 4224.3 5235.87 3904.07 6502.99 5424.55 4921.1 4770.51 6511.37 3787.08 4462.87 4218.16 6139.64 4140.92 4474.83 4585.04 6570.35 4242.63 7407.91 6063.44 4051.18 5849.53 4680.69 4420.11 5863.0 4802.98 4833.55 7224.99 4898.29 4431.06 5730.2 4830.13 3494.16 5370.9 4529.77 4325.13 6172.27 5390.33 5078.73 5278.54 5729.0 5192.92 5275.57 4179.87 4786.66 5891.25 5370.1 5393.76 3684.15 4730.14 3994.39 5906.57 7541.76 4990.23 3784.94 5499.59 5667.51 4198.9 5431.29 4833.67 5325.91 5157.38 6203.03 4700.07 5273.37 4732.37 5713.36 5553.94 4704.92 4287.25 4392.75 3814.16 4191.01 5577.41 4216.44 3999.5 4012.92 4346.07 4933.49 4692.32 5236.24 3127.83 3269.54 5836.26 6015.22 6449.06 4651.99 6127.39 5640.12 4972.18 5329.76 4124.76 7200.89 3908.56 5265.63 5684.88 6523.78 4645.86 4045.67 5620.88 4941.52 5900.0 4262.74 6241.77 3783.79 4248.14 5317.19 5279.19 4016.6 5821.49 7050.08 5580.44 5998.13 5902.67 5454.11 4236.86 6010.59 7123.04 4128.1 4932.29 4506.66 4439.71 4141.21 4064.58 4646.51 4546.44 4184.21 6089.45 4985.3 3987.69 6219.34 4589.06 4920.88 4013.86 4177.47 4770.63 4385.49 6102.49 5114.23 6061.85 4826.52 5241.75 4731.53 3763.9 4577.73 4288.45 4147.49 5419.57 5760.98 4954.76 4642.74 5764.52 4390.64 5150.84 4608.01 5087.97 6005.95 4308.49 4930.17 4581.1 4085.96 4745.44 5762.82 7360.12 6223.98 5462.6 5617.29 3035.06 4262.19 4597.88 5095.52 4763.4 5806.61 2955.36 4618.73 3965.3 3220.29 4125.9 5426.4 5951.86 5023.41 3791.41 952.938 5702.4 5473.89 5265.21 4657.24 4966.07 4400.14 4666.12 2918.64 5345.73 4639.8 5678.58 4212.15 4263.18 5495.0 5512.44 4454.74 2904.46 5120.92 4685.4 4081.34 5384.86 3770.22 3402.44 4848.98 5184.98 4491.96 4467.51 5339.82 4519.03 5460.57 5110.27 5703.34 4612.68 6668.98 6649.52 4232.33 4939.56 4747.68 5770.92 3093.38 4878.93 2002.78 4941.02 5784.37 3682.35 3142.09 5182.13 6110.48 5515.73 6715.73 4564.41 5247.01 5853.12 4841.7 4678.7 5810.17 3450.07 4271.07 5674.63 5340.05 5759.79 4489.29 4301.93 4924.07 3200.6 4918.64 6206.98 6638.25 4775.04 5162.67 4636.53 3646.95 5537.61 6084.88 4199.44 4397.06 4053.12 4479.5 6261.67 3435.13 5065.78 4431.46 4521.42 3207.84 3977.98 6043.34 4128.93 4959.72 4712.17 4845.91 3808.04 4723.71 4461.67 5003.3 3756.96 3954.77 6793.1 6016.87 5209.55 6740.35 3306.84 3484.81 5308.33 6023.07 6710.14 4598.54 5218.42 4512.07 4896.43 4462.35 3986.41 5146.0 4788.7 5078.59 4607.18 2403.72 3228.27 4721.98 5252.82 3543.98 5056.26 5878.55 4014.44 6604.72 6002.77 3794.47 4610.55 4967.02 4614.49 5400.69 4462.5 5573.31 5004.68 4023.88 4405.61 5348.11 6273.6 3668.93 4009.24 6245.52 5077.29 3125.13 4550.92 6506.63 5995.4 5188.22 4841.23 4196.62 5984.8 3469.18 6347.72 6240.42 3956.24 6334.53 7558.99 4142.1 3393.59 5043.14 5333.04 5445.91 4521.99 4812.59 6842.54 7115.67 5675.45 3361.11 5329.84 6038.56 2807.46 5599.16 4179.8 3488.34 5658.35 5428.24 5684.05 4708.17 5167.53 5800.81 5166.05 7035.54 5866.91 4208.37 6019.35 6075.99 5191.26 4184.47 2804.54 3372.95 5819.0 3460.93 5117.64 5580.95 3549.92 6598.99 4032.06 5246.81 5089.1 5888.95 5394.78 3463.34 5122.38 2853.68 5262.85 4998.37 6559.82 3879.83 6565.95 4577.98 5043.34 5886.81 5136.87 2741.2 3779.45 6405.69 5763.05 5357.39 4252.18 6296.54 5797.21 3669.32 4762.1 5700.79 3825.48 5124.86 4629.02 4927.73 4705.68 5469.35 4313.38 5250.56 2468.16 3633.58 6294.14 4339.97 5203.75 5169.09 4691.15 2459.88 4210.24 5470.67 5901.71 5342.9 5225.11 5252.22 5733.12 4962.35 6436.29 7350.26 7145.73 4168.52 5233.76 4659.88 5685.74 3495.3 5890.25 2832.83 5827.3 6036.99 4084.87 3010.1 3825.98 4589.22 5087.03 4667.84 3906.41 5584.64 4123.08 4512.6 4260.38 4636.45 4932.27 5638.51 6793.49 3563.33 6060.19 5536.0 6786.37 5591.77 4556.19 5106.46 6562.92 3612.44 4140.04 5766.05 4474.96 4758.76 4790.63 5259.29 3584.05 4916.75 4818.53 5097.85 6189.04 6224.64 4221.03 3799.55 5082.66 4550.77 4337.93 3550.88 4345.51 4048.73 5813.79 4644.88 5790.42 4068.31 3671.06 4850.5 4683.28 4658.59 5532.75 6949.65 4608.62 5407.96 5367.05 4449.73 5647.11 4088.72 3945.62 3743.85 6236.46 5342.17 6379.3 5015.67 3795.63 5189.4 4576.71 6538.04 4894.15 6157.59 5201.3 5848.41 6223.33 4090.28 5024.32 4176.32 3185.09 3587.93 5064.23 5721.14 5084.5 4987.28 4071.75 6562.03 4246.83 4493.79 4932.56 4279.44 2945.34 5676.61 6006.16 3565.32 5638.7 3667.93 3487.31 5399.43 3835.81 4096.86 5710.33 4668.8 5322.11 4697.49 5735.08 4726.2 5034.05 4816.51 4711.15 4474.39 3810.68 6478.35 3990.94 4756.8 5477.8 5463.06 6069.78 5260.52 4241.68 4975.85 4095.83 5323.95 5846.95 5716.42 5268.15 5701.63 4603.04 4620.95 4870.94 5368.93 4488.39 6121.56 5914.5 4602.57 3419.07 3622.48 4796.12 5344.44 6432.8 4626.72 5131.77 5549.71 4815.47 4759.99 3899.7 5134.33 5214.4 2646.13 3629.49 5034.34 5695.44 3769.2 3422.21 3916.42 5537.34 5884.99 5192.49 4899.19 6643.4 5058.34 4028.22 5575.11 4983.1 5293.13 4507.36 6224.85 6406.8 5403.97 4795.08 5648.78 6875.73 5501.73 6081.3 4697.24 4983.43 5117.52 6311.89 6549.8 2820.07 5129.68 4825.73 5076.84 4165.36 5288.33 4871.77 5811.26 5062.77 4884.93 5069.9 6028.63 3673.6 4494.15 5146.1 6215.87 6485.77 6060.06 5866.42 5544.27 5393.43 6896.55 4685.65 5377.01 6470.23 5939.22 4271.93 4215.05 3626.86 5125.17 4604.1 6371.96 4859.01 5076.11 5524.45 7133.44 4426.02 5600.21 3953.26 4750.81 4282.11 5467.51 5459.92 2347.41 4625.53 5453.77 4096.47 4357.11 5114.67 2809.19 5005.6 4916.7 5486.89 5589.53 7208.19 4549.51 5025.42 5196.08 4517.29 6379.38 5695.25 6257.79 4495.75 4849.5 6171.01 6229.83 5796.26 4468.26 4523.81 5578.18 5106.33 5791.25 5293.37 5198.94 5271.88 4028.35 5933.54 5559.79 7168.2 2980.31 3763.85 3148.79 4571.74 5740.78 6824.53 5001.51 5997.91 4742.82 5385.86 5115.42 3186.07 4082.4 4209.0 4410.82 4369.86 4967.51 4368.12 5173.82 6443.99 4365.58 3889.98 5193.58 3720.7 5490.64 5698.53 3604.31 4507.46 4450.49 5036.14 3468.45 6022.78 4087.32 6647.85 5726.42 2569.12 4674.9 7025.09 3392.26 4433.12 3918.94 2549.95 5461.72 5487.63 3768.46 3852.82 5138.93 5099.9 6945.69 5118.86 7086.69 5368.66 4304.64 6170.9 5833.78 4436.48 5226.42 5758.98 5615.35 3967.76 5288.64 6213.24 6734.39 4217.36 5679.74 5942.45 4150.76 4851.18 4228.53 6123.46 5005.72 5368.52 6142.88 5155.28 5111.26 5205.38 5388.73 4764.83 1969.87 3132.34 4949.55 4600.71 3957.38 4841.28 5262.79 5927.2 6889.5 5035.71 4710.88 4419.79 5300.17 5407.69 3869.39 5152.78 5960.5 4896.67 5534.23 4117.9 4753.76 6025.77 4781.9 4638.09 6815.96 4441.91 5339.6 5330.26 5828.25 4725.11 5483.37 5418.12 5322.07 5934.05 5770.07 4714.66 5990.75 5101.6 4984.17 4656.01 5781.62 6589.13 4037.86 5602.62 2030.03 3543.37 4542.16 5714.51 5628.97 4104.04 5353.66 2638.82 5030.33 5593.79 5104.39 5234.2 4612.13 4965.24 5846.6 5327.05 5438.55 5353.23 4434.65 6688.53 5977.66 5209.5 5065.74 4873.23 6731.89 5464.05 4733.41 5879.24 5410.6 5453.2 6348.93 5136.51 3901.53 6815.51 4332.64 5232.16 4422.23 6791.86 3989.26 6031.22 4820.68 4930.72 5482.76 5728.58 3745.02 7212.97 6297.99 4211.36 5378.24 5918.95 3856.73 4538.89 5817.74 5887.71 5517.65 4009.68 5114.51 3303.49 4622.73 4655.37 4161.32 5256.75 5161.74 7336.37 4361.24 5932.28 6599.28 5560.23 2960.5 5783.38 4975.32 3043.77 4298.7 3902.48 5237.55 4183.4 3909.94 6030.39 4733.79 4905.53 3799.01 4823.06 7392.65 5254.49 5319.1 3757.23 6828.8 6883.86 5987.88 3579.59 6161.94 4065.28 5057.59 4461.14 5285.6 4574.54 5575.11 5615.06 5490.54 5203.54 4047.95 5507.38 6142.94 4416.87 5001.69 6581.56 4057.4 4052.43 3980.46 5383.9 3934.11 5158.44 3886.56 4466.22 4496.51 6153.71 5917.08 6561.94 5259.21 5092.93 4256.08 2803.01 5881.93 4444.0 6771.18 6182.19 5327.39 7415.84 4981.81 4138.59 4970.55 4938.33 4484.78 4621.33 5527.27 5157.73 5847.91 4934.66 4984.01 4109.44 4903.84 4290.49 4557.1 4605.39 5927.1 6270.59 6175.27 5876.51 4103.76 4907.55 4286.61 4094.63 2932.52 5264.83 4603.66 4757.87 4969.68 6636.43 5431.14 6298.8 5313.86 4457.05 5178.07 5189.91 3618.64 5777.26 4171.02 5485.84 6424.77 4887.73 4335.79 5453.69 5797.32 5432.04 5689.56 6556.86 5129.4 4746.15 3720.38 4758.84 5585.25 4731.37 5023.61 3976.0 6351.89 4672.86 6530.78 5059.37 4742.35 5394.79 4139.39 5645.54 5088.64 6264.03 4526.87 6589.8 4151.74 6920.92 4174.22 3729.16 3783.36 3573.84 3038.91 4181.93 3922.28 6570.43 3350.99 3820.19 3445.92 5236.69 4979.5 5524.28 4586.82 3133.28 4745.37 5939.29 6026.04 6200.05 5418.98 5859.17 4034.41 4052.49 5061.74 5522.34 5326.03 6189.67 4420.35 5717.45 4948.96 5256.82 4013.86 4061.87 4645.93 5165.31 5448.64 3798.09 4585.37 4288.5 6417.61 5715.51 3721.69 4511.05 3456.3 6074.39 5317.83 6738.9 4399.52 4460.89 4554.24 4157.1 3939.96 8052.53 4867.12 5910.66 6044.01 6520.19 4637.3 5141.03 1458.87 5734.07 4840.44 8123.59 3997.68 4819.83 5765.14 4801.16 4767.54 4541.22 4946.08 3539.68 5121.08 4696.03 6217.33 6177.68 4698.7 2848.44 6229.64 6045.26 4220.43 6500.45 5743.8 5084.76 6666.34 6605.11 4645.91 6834.92 3557.46 6379.33 5971.95 5652.73 3689.24 3979.46 6321.97 5151.19 6412.84 6509.54 5703.84 7012.36 3530.82 5128.59 5028.06 4002.99 4886.99 5159.67 5587.3 3921.27 3161.1 3572.73 4864.38 3702.45 6275.25 6892.33 4505.3 4491.26 4452.36 4511.34 4068.41 6463.71 5009.21 4574.03 4379.91 5290.37 5850.38 5264.08 3562.8 4227.66 4730.97 4691.01 4594.89 5192.82 5245.95 5821.42 4067.89 4515.02 6294.09 4924.52 4571.57 5131.07 4121.07 2970.24 4197.87 5658.05 5105.54 5731.43 6353.81 3414.67 3518.14 5444.36 4150.44 5044.68 5771.98 2649.69 5899.78 5000.74 5117.83 5772.57 5268.27 4813.81 3882.37 4095.4 5244.95 4634.25 5901.8 6351.48 5395.12 5783.69 3830.7 6210.0 5432.4 3483.61 5350.9 4262.52 7430.48 5992.06 5545.68 6080.69 4970.12 4967.93 6369.66 5973.57 5922.62 6241.48 6033.28 5957.82 6286.27 5071.38 3717.22 6327.54 2927.84 5616.66 5688.77 4802.36 2943.17 5368.28 5466.13 5257.38 6263.87 5075.23 4975.56 7282.36 3826.01 5581.01 3928.99 6959.88 4125.75 5749.53 5130.57 5090.48 5402.45 5582.28 3985.93 5945.25 6071.59 2589.19 6119.0 3856.4 3792.06 5485.61 4993.49 4937.36 4293.3 5308.4 5310.33 6583.37 3688.83 5631.32 6126.5 6322.0 5793.14 6345.2 4609.65 5488.96 5704.61 4832.21 3720.92 5128.03 5410.73 5087.3 4942.63 6139.74 6637.38 4975.57 7066.26 3057.3 6150.31 3677.85 5214.71 4677.84 4811.11 3463.53 5379.52 6126.03 4866.8 5314.67 6044.69 5563.47 5651.46 6593.1 4066.36 4000.51 5462.1 6033.93 6032.45 5011.37 4026.03 2827.92 6908.32 3467.11 5336.61 4817.75 6153.26 4848.15 5637.53 4439.09 5523.81 5648.59 4718.61 5188.57 3873.79 5717.67 5357.33 5515.59 5252.37 3224.81 4499.54 5037.58 6457.89 5640.67 6572.17 3751.73 5555.89 4766.47 4871.1 5678.08 3917.09 6009.93 5872.45 4414.09 5270.1 5125.45 3784.68 4188.16 4947.64 6305.9 6649.21 5507.07 4654.92 5327.71 4880.78 4322.56 5509.09 5625.02 3873.72 5212.05 4592.49 5479.86 4829.77 6474.5 4444.92 4702.32 4763.04 5971.9 3746.62 5247.73 4876.37 5034.02 4769.62 5260.13 4649.5 5181.31 5985.75 6079.55 4696.06 4137.16 6189.29 5984.55 6581.13 4569.32 4034.88 5108.84 3511.5 6007.1 5067.92 5357.14 3188.21 4850.95 5919.27 4793.06 6271.22 3421.81 6188.33 3920.64 6111.23 6916.18 5786.06 5873.62 3868.69 4137.41 4996.91 3920.44 4450.51 6033.72 3768.62 3851.47 4966.74 2329.93 4959.94 1635.31 5639.4 3162.27 6185.73 4083.24 5516.37 5092.44 4441.44 5432.2 4232.44 4612.4 3312.3 5563.09 6381.58 3282.57 5212.2 4798.13 4611.21 5108.42 6697.45 4630.5 6296.36 4432.32 5237.27 4451.76 7885.41 3775.38 4046.22 5782.25 4104.97 4844.2 4575.72 5114.61 6118.13 3374.62 4926.62 4420.3 6332.64 4202.12 6492.44 4613.32 4083.1 3482.73 5191.29 5130.56 4957.99 4063.26 5345.05 4997.89 4542.62 3470.69 4859.95 5286.55 4132.08 5522.18 5223.1 4699.77 4850.49 4981.55 5144.23 3625.98 6188.62 6153.07 4414.06 5908.57 5944.52 4413.56 4532.67 5050.2 5316.05 2513.38 4821.41 4908.32 3995.08 4499.52 5019.84 4810.74 3900.93 5784.38 5475.83 4149.17 4329.8 5728.27 5672.46 5803.3 4582.12 4487.51 4295.25 4520.14 5354.48 7394.47 4729.45 6261.13 5374.09 4167.55 4720.34 5244.47 5378.75 4731.16 5510.89 6186.24 5822.7 3780.07 4159.89 5466.49 5178.55 5447.74 4038.17 5007.41 4907.48 3692.99 6213.74 4488.41 4369.87 6938.87 5412.07 5512.57 4806.99 6520.96 3771.91 5856.43 5217.62 6178.19 4746.19 4616.81 5715.25 5172.1 4362.94 4469.82 6545.78 4870.14 3354.94 4404.87 5105.72 5767.65 4750.76 5003.49 4907.03 5497.27 4081.77 5617.91 4948.21 2181.29 4987.01 4706.31 2694.25 6265.48 4735.99 4203.68 4739.56 5145.39 3818.37 3996.93 3352.46 6351.95 5195.09 5200.1 7679.2 5093.28 4881.51 6131.52 4311.92 2626.41 6009.88 6729.99 5093.41 6842.35 5464.34 3621.63 4777.96 5801.89 6833.5 7296.47 5742.39 4780.16 4924.53 3834.01 5616.11 4433.23 3874.12 4813.24 4028.13 5759.19 4457.73 6476.35 3113.64 4304.75 6260.58 4067.24 3053.19 5202.33 3074.49 4246.24 6805.02 4919.13 5640.63 4900.26 5783.88 5002.38 6705.93 4865.11 5449.09 5502.14 6470.87 4495.33 5282.67 4131.08 5747.9 3864.19 4287.93 5146.69 6203.24 6818.23 5081.65 6679.12 5652.19 5806.74 3878.8 6578.62 4813.55 4698.94 6284.12 3465.03 4796.04 3839.0 5229.56 5349.85 6011.4 5799.86 3330.85 4672.34 6052.22 5376.41 5003.63 2932.2 4695.7 4380.86 4944.08 4082.01 5269.39 3964.03 4216.33 5832.72 3903.9 4444.95 4721.2 5161.02 3943.77 3124.49 5242.38 6081.35 5003.81 6262.18 5566.5 4701.03 5663.36 6225.05 5434.04 5125.53 3997.52 4444.54 5403.81 5779.9 4909.74 5310.33 5299.03 6664.54 3922.98 5161.73 5259.48 4008.67 5254.93 4803.4 6608.94 2613.78 3796.73 5417.07 5656.84 5738.37 6789.66 4739.41 5847.27 4490.2 4706.59 5734.84 5480.86 6139.9 3982.31 6571.26 5402.81 4328.76 4600.81 5561.63 4124.33 5168.97 4358.06 5093.51 5647.93 4280.92 6201.49 4696.92 5154.74 4605.61 4465.56 6898.8 5386.95 6540.57 5332.11 4893.72 5315.71 6004.72 6158.93 5373.78 4823.14 5438.5 4489.18 4621.32 5699.4 5237.76 4286.84 3948.21 5669.15 5296.05 5263.86 6988.4 5056.32 5533.52 5410.33 4060.17 4747.24 6051.35 5302.53 4909.13 5576.16 4305.35 5648.02 3308.75 5210.22 2451.27 5677.42 2701.42 4929.35 5606.22 6673.92 5151.68 4884.94 5459.52 4609.98 4738.72 4752.31 5240.97 4276.59 5579.04 5405.6 5994.21 4884.93 5082.25 4759.38 6964.78 4374.05 5036.84 4565.36 5813.68 4025.08 5040.9 3618.53 5596.68 4770.21 4868.66 8013.28 3846.55 4644.68 5283.65 3082.16 2892.36 5981.54 5911.29 5416.41 5312.2 4694.27 6760.64 2515.5 5177.88 5551.79 4950.07 6981.47 4720.22 4582.24 4333.23 5145.13 3860.8 3747.96 5611.29 5940.5 6568.45 5004.22 4601.54 7263.57 3832.09 5705.96 6437.99 5739.69 4790.16 6632.04 7360.62 4985.45 4072.4 4983.56 5699.51 4714.52 5345.65 2489.44 5499.37 5863.36 4632.75 4752.94 4994.98 3950.53 6423.96 6058.13 5894.69 4384.91 6550.61 4987.01 6635.51 6094.34 6779.82 5543.67 3999.81 4287.61 4867.13 4604.34 4439.17 4502.12 3255.93 5442.79 5051.39 6327.61 4633.59 5733.59 5362.15 4455.61 3695.72 6874.6 5106.9 5569.85 5523.96 3929.35 4223.53 4733.37 6960.97 3037.72 4287.15 4523.9 5282.51 5504.65 5669.41 5732.11 3760.4 3919.47 4602.7 3783.35 4037.16 4004.39 5159.9 6395.63 4987.48 5943.61 4248.58 5479.17 5020.37 4542.25 4414.23 5233.88 4849.21 4785.55 3793.83 5245.4 3916.15 6189.81 5438.6 7370.52 4726.5 5467.05 4521.88 3724.23 5103.3 4963.88 5888.94 4727.98 4122.2 5175.88 5267.65 4516.26 3509.34 3647.26 5360.88 3166.37 4977.64 5369.42 5207.08 5205.53 4587.19 5543.05 4883.13 6028.89 4836.76 5333.16 5551.09 5755.98 5392.85 4501.1 5581.47 5077.2 4274.05 4277.54 4713.56 4531.46 5925.82 4739.5 6210.48 6377.45 4863.27 6853.07 5575.8 5268.93 5306.31 4535.94 5126.08 5604.0 4951.02 3731.58 4888.17 5275.27 5529.09 5448.68 4072.95 4491.62 3865.5 4182.05 
SCALARS Velocity float 1
LOOKUP_TABLE default
1.19179 1.19179 1.19179 1.1918 1.1918 1.19178 1.19178 1.19178 1.19179 1.19179 1.19179 1.19178 1.19178 1.19178 1.19179 1.19179 1.19178 1.19178 1.19178 1.19178 1.1918 1.19179 1.19178 1.1918 1.19181 1.19178 1.19179 1.19181 1.1918 1.19179 1.1918 1.19178 1.19178 1.19179 1.1918 1.19182 1.19179 1.19179 1.19178 1.19178 1.19178 1.19179 1.1918 1.19179 1.19179 1.19178 1.1918 1.19179 1.19178 1.19179 1.1918 1.19178 1.19178 1.19178 1.19178 1.19178 1.19178 1.19178 1.19178 1.19178 1.19178 1.19178 1.19179 1.19178 1.19179 1.19178 1.19178 1.19178 1.19178 1.19178 1.19178 1.19178 1.19178 1.19178 1.19178 1.19178 1.19179 1.19179 1.19179 1.19178 1.19178 1.19178 1.19178 1.19179 1.19178 1.19179 1.19178 1.19178 1.1918 1.19179 1.19178 1.19178 1.19178 1.19178 1.19177 1.19179 1.1918 1.1918 1.19182 1.19182 1.19178 1.19178 1.19178 1.19178 1.19179 1.19178 1.19181 1.19179 1.19177 1.19178 1.19178 1.19178 1.19178 1.19177 1.19181 1.1918 1.19178 1.19182 1.19181 1.19181 1.1918 1.19181 1.19181 1.19178 1.19178 1.1918 1.19181 1.19179 1.1918 1.1918 1.19178 1.19179 1.1918 1.19181 1.19179 1.19179 1.19178 1.19179 1.19181 1.19179 1.19179 1.19179 1.19179 1.19179 1.19178 1.19182 1.19181 1.19181 1.1918 1.1918 1.19181 1.19179 1.1918 1.19179 1.1918 1.1918 1.19178 1.19178 1.19178 1.19178 1.19178 1.19178 1.19178 1.19179 1.19179 1.19178 1.19179 1.19178 1.19178 1.19178 1.19178 1.19178 1.19178 1.19178 1.19178 1.19178 1.19178 1.19178 1.19178 1.19179 1.19179 1.19179 1.19179 1.19178 1.19178 1.19178 1.19179 1.19179 1.19177 1.19179 1.19179 1.19179 1.19178 1.19177 1.1918 1.19179 1.1918 1.19178 1.19178 1.19178 1.19178 1.1918 1.19183 1.19179 1.19178 1.19178 1.19179 1.1918 1.19179 1.1918 1.19179 1.19179 1.19178 1.19181 1.19182 1.19179 1.19179 1.19178 1.19178 1.19179 1.19179 1.19178 1.19181 1.19177 1.19179 1.1918 1.19178 1.19182 1.1918 1.1918 1.19178 1.19178 1.19178 1.1918 1.19177 1.19178 1.1918 1.19179 1.19181 1.19178 1.19185 1.19178 1.19177 1.1918 1.19177 1.19179 1.19179 1.19182 1.19179 1.19179 1.19178 1.19181 1.1918 1.1918 1.19181 1.1918 1.19181 1.1918 1.19178 1.19179 1.19178 1.19178 1.19181 1.1918 1.19178 1.19178 1.19178 1.19179 1.19178 1.19178 1.19178 1.19178 1.19179 1.19178 1.19179 1.19179 1.19178 1.19178 1.19178 1.19178 1.19177 1.19178 1.19178 1.19178 1.19178 1.1918 1.19179 1.19179 1.19179 1.19178 1.19178 1.19178 1.19178 1.19179 1.19178 1.19179 1.19178 1.19179 1.19179 1.19179 1.19178 1.19179 1.19177 1.19178 1.19178 1.1918 1.19179 1.19179 1.1918 1.19181 1.19179 1.19178 1.19179 1.1918 1.1918 1.19179 1.19182 1.19184 1.1918 1.19182 1.19183 1.19178 1.19178 1.19179 1.19182 1.19181 1.1918 1.19181 1.19181 1.1918 1.1918 1.19177 1.19179 1.19179 1.19185 1.19179 1.19179 1.19184 1.19177 1.19178 1.19183 1.19184 1.19179 1.19179 1.19177 1.19179 1.19179 1.19179 1.19178 1.1918 1.19179 1.1918 1.19181 1.19181 1.19181 1.1918 1.19179 1.19179 1.19178 1.19179 1.19178 1.19178 1.19177 1.1918 1.19178 1.19178 1.19179 1.19179 1.19178 1.19178 1.19178 1.19177 1.19179 1.19178 1.19179 1.19178 1.19178 1.19178 1.19181 1.19178 1.19178 1.19178 1.19178 1.19179 1.19178 1.19179 1.19179 1.19178 1.19179 1.19178 1.19179 1.19179 1.19179 1.19178 1.19176 1.19178 1.19176 1.19181 1.19178 1.1918 1.1918 1.19179 1.19178 1.19179 1.1918 1.1918 1.19183 1.19178 1.19178 1.1918 1.1918 1.19179 1.19178 1.19178 1.19178 1.19178 1.19181 1.19179 1.19183 1.19182 1.19179 1.19177 1.19181 1.19178 1.19178 1.19177 1.19182 1.19179 1.1918 1.19179 1.19181 1.19183 1.19181 1.19176 1.19182 1.1918 1.1918 1.1918 1.19182 1.1918 1.19185 1.19182 1.1918 1.19183 1.19179 1.1918 1.19178 1.19182 1.1918 1.1918 1.19182 1.19179 1.19179 1.19179 1.19182 1.19182 1.19179 1.19179 1.19181 1.1918 1.19178 1.19181 1.19181 1.19179 1.19176 1.19178 1.19178 1.19181 1.1918 1.1918 1.19179 1.19178 1.19179 1.19179 1.19178 1.19178 1.19178 1.19179 1.19178 1.19177 1.19181 1.19178 1.19178 1.19178 1.19179 1.19179 1.19177 1.19179 1.19178 1.19179 1.19179 1.19178 1.19179 1.19179 1.19178 1.19178 1.19177 1.19177 1.19178 1.19178 1.19178 1.19178 1.19179 1.19176 1.19179 1.1918 1.19182 1.19183 1.19179 1.19179 1.19179 1.19178 1.19179 1.19177 1.19178 1.19177 1.19181 1.19179 1.19179 1.19184 1.19181 1.19178 1.19179 1.1918 1.19181 1.19177 1.19179 1.19182 1.19183 1.19183 1.19183 1.19176 1.1918 1.1918 1.19182 1.19177 1.19186 1.19182 1.1918 1.19177 1.19182 1.19181 1.19176 1.19179 1.19179 1.1918 1.19177 1.19183 1.1918 1.1918 1.19179 1.19179 1.19182 1.19179 1.19178 1.19181 1.19181 1.19178 1.19181 1.19178 1.19174 1.19178 1.19178 1.19178 1.19176 1.19179 1.19178 1.19178 1.19178 1.19179 1.1918 1.19179 1.19178 1.19178 1.19178 1.19178 1.19178 1.19179 1.19178 1.19178 1.19178 1.19178 1.19178 1.19178 1.19177 1.19178 1.19179 1.19179 1.19178 1.19178 1.19178 1.19179 1.19177 1.19178 1.19178 1.19178 1.19178 1.19178 1.19184 1.19179 1.19182 1.19182 1.19183 1.19178 1.19178 1.1918 1.19178 1.19177 1.19177 1.19178 1.19176 1.19179 1.19183 1.19194 1.19178 1.19176 1.19181 1.19181 1.19179 1.1918 1.19181 1.19182 1.19178 1.1918 1.1918 1.19182 1.19184 1.19188 1.19184 1.19185 1.19184 1.1918 1.19175 1.19182 1.19179 1.19177 1.1918 1.19178 1.19179 1.19178 1.19178 1.19182 1.1918 1.19175 1.19179 1.19179 1.19178 1.1918 1.1918 1.19179 1.1918 1.19175 1.19178 1.19177 1.19178 1.19179 1.19179 1.19177 1.19178 1.19178 1.19179 1.19179 1.19178 1.19178 1.19178 1.19177 1.19178 1.19178 1.19178 1.19178 1.19178 1.19178 1.19179 1.19178 1.19178 1.19179 1.19178 1.1918 1.19176 1.19177 1.19182 1.19178 1.19178 1.19179 1.19178 1.19177 1.1918 1.19178 1.19181 1.19182 1.19177 1.19179 1.19183 1.19178 1.19183 1.1918 1.19188 1.19175 1.19176 1.19178 1.19176 1.19179 1.19182 1.19181 1.19177 1.19177 1.19179 1.19177 1.19182 1.19181 1.19177 1.19179 1.19177 1.19181 1.19179 1.19183 1.1918 1.19181 1.1918 1.1918 1.19185 1.19182 1.19175 1.19182 1.19178 1.19181 1.19177 1.1918 1.19178 1.19182 1.19179 1.19178 1.19182 1.1918 1.19177 1.19182 1.19175 1.19178 1.19178 1.19178 1.19178 1.19178 1.19177 1.19178 1.1918 1.19179 1.19175 1.19179 1.19181 1.19177 1.19178 1.19181 1.19178 1.19178 1.19177 1.19177 1.19179 1.19179 1.19176 1.1918 1.19178 1.19179 1.19178 1.19178 1.19179 1.19178 1.19178 1.19178 1.19178 1.19178 1.19176 1.19178 1.19178 1.19178 1.19178 1.19178 1.19179 1.19179 1.19178 1.19178 1.19179 1.19179 1.19179 1.19181 1.19177 1.19177 1.19179 1.19177 1.19179 1.19177 1.19179 1.19182 1.19178 1.19179 1.19182 1.19182 1.19182 1.19177 1.19182 1.19181 1.19183 1.19176 1.19183 1.19185 1.19178 1.19182 1.19176 1.19182 1.19174 1.1918 1.19179 1.19173 1.19178 1.19182 1.19182 1.19181 1.19179 1.19179 1.19177 1.19177 1.1918 1.19179 1.19179 1.19182 1.1918 1.19179 1.19181 1.1918 1.19179 1.1918 1.19185 1.19183 1.19178 1.1918 1.19178 1.1918 1.19179 1.19178 1.19181 1.1918 1.19174 1.19175 1.19182 1.19178 1.19182 1.19179 1.19177 1.19175 1.19177 1.19178 1.19176 1.19179 1.19176 1.19176 1.19178 1.19178 1.19177 1.19178 1.19179 1.19178 1.19177 1.1918 1.19177 1.19179 1.19175 1.19181 1.19178 1.19178 1.19179 1.19177 1.19178 1.19177 1.19177 1.19179 1.19178 1.19178 1.19178 1.19179 1.19177 1.19176 1.19178 1.19178 1.19178 1.19178 1.19178 1.19178 1.19179 1.19178 1.19178 1.19178 1.1918 1.19178 1.19177 1.19178 1.19182 1.19177 1.19181 1.19178 1.19181 1.19181 1.19181 1.19181 1.19185 1.19178 1.19181 1.19182 1.19182 1.19184 1.19182 1.19178 1.19183 1.19176 1.19174 1.19181 1.1918 1.1918 1.19173 1.19177 1.19181 1.19181 1.19179 1.19178 1.1918 1.19179 1.19178 1.19181 1.19181 1.1918 1.19179 1.19179 1.19179 1.19179 1.19179 1.1918 1.19175 1.19179 1.19183 1.1918 1.19179 1.19182 1.19183 1.1918 1.1918 1.19174 1.19177 1.19178 1.19182 1.19177 1.19178 1.19183 1.1918 1.1918 1.19177 1.19176 1.19177 1.19177 1.19175 1.19176 1.19174 1.19182 1.19177 1.1918 1.19177 1.19178 1.19178 1.19179 1.19177 1.19178 1.19179 1.19178 1.19175 1.19176 1.19179 1.19178 1.19178 1.19178 1.19177 1.19178 1.19178 1.19179 1.19178 1.19178 1.19177 1.19177 1.19179 1.19176 1.19177 1.19178 1.19178 1.19178 1.19177 1.19177 1.19177 1.19178 1.19178 1.19178 1.19178 1.19178 1.19178 1.19178 1.19179 1.19179 1.19182 1.19173 1.19173 1.19182 1.19181 1.19178 1.1918 1.19178 1.1918 1.19186 1.19181 1.19182 1.19183 1.19182 1.19179 1.19171 1.19183 1.19174 1.19176 1.19173 1.1918 1.19179 1.1917 1.19181 1.19177 1.19177 1.19179 1.19179 1.19183 1.1918 1.19179 1.19173 1.19168 1.19179 1.19175 1.19182 1.1918 1.19179 1.1918 1.19179 1.19178 1.19181 1.19181 1.19181 1.19175 1.19184 1.19174 1.19174 1.1918 1.19174 1.19178 1.19181 1.19177 1.19183 1.19184 1.19185 1.19181 1.19176 1.19177 1.19177 1.19175 1.1918 1.19182 1.19178 1.19179 1.19177 1.19177 1.19177 1.19176 1.19177 1.19177 1.19178 1.19178 1.1918 1.19177 1.19178 1.19179 1.19177 1.19177 1.19177 1.19178 1.19178 1.19178 1.19178 1.19177 1.19177 1.19179 1.1918 1.19178 1.19179 1.19179 1.19177 1.19177 1.19178 1.19177 1.19178 1.19176 1.19177 1.19178 1.19179 1.19178 1.19177 1.19177 1.19185 1.19177 1.1918 1.1918 1.1918 1.19178 1.19183 1.19178 1.19184 1.1918 1.19181 1.19186 1.19182 1.19182 1.19181 1.1918 1.19181 1.19177 1.19183 1.19171 1.19178 1.19177 1.19178 1.19179 1.19176 1.19178 1.19182 1.19174 1.19176 1.19178 1.19179 1.19178 1.19179 1.19176 1.19177 1.19177 1.19178 1.19178 1.19179 1.19179 1.19179 1.1917 1.19179 1.19178 1.19176 1.19178 1.19173 1.19175 1.19179 1.19167 1.19168 1.19181 1.19162 1.1918 1.19186 1.19177 1.19181 1.19176 1.19178 1.19179 1.19178 1.19177 1.1918 1.1918 1.19179 1.19176 1.19177 1.19177 1.19179 1.19177 1.19181 1.19178 1.19178 1.19177 1.19178 1.19179 1.19177 1.19176 1.19178 1.19178 1.19179 1.19178 1.19177 1.19178 1.19179 1.19179 1.19178 1.19178 1.19178 1.19177 1.19178 1.19178 1.19176 1.19177 1.19177 1.19178 1.19178 1.19175 1.19179 1.1918 1.19181 1.19185 1.19181 1.19182 1.1918 1.19179 1.19178 1.19178 1.19185 1.19185 1.19182 1.1918 1.19186 1.19177 1.1918 1.1918 1.19182 1.1917 1.19179 1.19174 1.19178 1.1918 1.1918 1.19178 1.1918 1.19179 1.19177 1.19178 1.19177 1.19178 1.19178 1.19174 1.19176 1.19179 1.19177 1.19176 1.19177 1.19179 1.19172 1.19178 1.19178 1.19176 1.19177 1.19169 1.19177 1.19176 1.19173 1.19171 1.19176 1.1918 1.19169 1.19181 1.1918 1.19183 1.19176 1.19181 1.19176 1.19178 1.19178 1.19175 1.19177 1.19176 1.19176 1.19177 1.19177 1.19177 1.19179 1.19177 1.19178 1.19176 1.19176 1.1918 1.19177 1.19176 1.19179 1.19177 1.19177 1.19177 1.19178 1.19178 1.19177 1.19177 1.19177 1.19176 1.19178 1.19178 1.19176 1.19177 1.19178 1.19178 1.1918 1.19179 1.19179 1.19178 1.19178 1.19177 1.19177 1.19177 1.19177 1.19179 1.19173 1.19176 1.19179 1.19182 1.19182 1.19176 1.19181 1.1918 1.19183 1.19181 1.19178 1.19182 1.19184 1.19184 1.19177 1.1918 1.19183 1.19184 1.19192 1.19183 1.19171 1.19172 1.19182 1.19177 1.19181 1.19182 1.19177 1.19177 1.19181 1.19185 1.19178 1.19176 1.19177 1.19173 1.19178 1.19176 1.19177 1.19179 1.19176 1.19177 1.19179 1.19176 1.19173 1.19178 1.19178 1.19177 1.19176 1.19171 1.19171 1.1918 1.19166 1.19168 1.1918 1.19177 1.19181 1.19181 1.19179 1.19176 1.19178 1.19178 1.19177 1.19178 1.19173 1.19175 1.19177 1.19176 1.19177 1.19178 1.19177 1.19179 1.19178 1.19178 1.19177 1.19177 1.19177 1.19178 1.19175 1.19175 1.19177 1.19177 1.19177 1.19178 1.19178 1.19177 1.19176 1.19175 1.19178 1.19178 1.19176 1.19176 1.19178 1.19179 1.19178 1.19178 1.19177 1.19177 1.19176 1.19177 1.19177 1.19177 1.19179 1.19182 1.19184 1.1918 1.19174 1.19173 1.19179 1.19178 1.19184 1.1918 1.19181 1.19181 1.19183 1.19181 1.19181 1.19179 1.19179 1.19181 1.19177 1.19181 1.19182 1.19192 1.19183 1.19171 1.19182 1.19177 1.1918 1.19174 1.19176 1.19186 1.19187 1.19178 1.19174 1.19177 1.19176 1.19178 1.19176 1.19175 1.19178 1.19177 1.19177 1.19177 1.19176 1.19178 1.19174 1.19174 1.19175 1.19172 1.19177 1.19176 1.19173 1.19176 1.19177 1.1918 1.19178 1.19166 1.19177 1.19176 1.19177 1.19181 1.19178 1.19176 1.19178 1.19179 1.19177 1.19178 1.19177 1.19173 1.19172 1.19175 1.19177 1.19179 1.19177 1.19177 1.19178 1.19178 1.19177 1.19178 1.19177 1.19177 1.19178 1.19177 1.19178 1.19176 1.19175 1.19178 1.19178 1.19178 1.19176 1.19177 1.19178 1.19178 1.19177 1.19177 1.19178 1.19179 1.19178 1.19179 1.19178 1.19176 1.19174 1.19183 1.1918 1.1918 1.19171 1.19176 1.19177 1.19184 1.1918 1.19178 1.19175 1.19177 1.19183 1.19183 1.19181 1.19185 1.19183 1.1918 1.19178 1.19176 1.19177 1.19177 1.1918 1.1918 1.19176 1.19181 1.19186 1.19172 1.19172 1.19183 1.19183 1.19182 1.19178 1.19168 1.19178 1.19168 1.19176 1.19175 1.19178 1.19176 1.19179 1.19181 1.19173 1.19173 1.19177 1.19175 1.19176 1.19176 1.19175 1.19176 1.19177 1.19175 1.1918 1.19175 1.19176 1.19176 1.19173 1.19177 1.19177 1.19179 1.19174 1.19175 1.19178 1.19174 1.19175 1.1918 1.19175 1.19177 1.19176 1.19178 1.19178 1.19177 1.19178 1.19173 1.19174 1.19175 1.19177 1.19178 1.19177 1.19178 1.19176 1.19176 1.19178 1.19178 1.19178 1.19177 1.19178 1.19177 1.19176 1.19178 1.19178 1.19177 1.19178 1.19178 1.19176 1.19178 1.19177 1.19177 1.19176 1.19179 1.1918 1.19178 1.19179 1.19178 1.1918 1.19176 1.19178 1.19182 1.19178 1.19182 1.19182 1.19179 1.19177 1.19179 1.19185 1.19181 1.19182 1.19182 1.19182 1.19176 1.19177 1.19174 1.19182 1.19179 1.19177 1.19181 1.19185 1.19179 1.19183 1.19183 1.19183 1.19177 1.19175 1.19174 1.19176 1.19176 1.1918 1.19174 1.19175 1.19174 1.19176 1.19177 1.19176 1.19176 1.19178 1.19176 1.19176 1.19174 1.19175 1.19174 1.1918 1.19175 1.19174 1.19177 1.19178 1.19176 1.19173 1.19173 1.19173 1.19176 1.19175 1.19178 1.19178 1.19174 1.19175 1.1918 1.19175 1.19174 1.19177 1.19176 1.19176 1.19178 1.19178 1.19177 1.19177 1.19178 1.19174 1.19175 1.19174 1.19174 1.19177 1.19177 1.19178 1.19176 1.19178 1.19178 1.19178 1.19177 1.19178 1.19177 1.19176 1.19176 1.19175 1.19178 1.19178 1.19176 1.19177 1.19176 1.19176 1.1918 1.19178 1.19178 1.19176 1.19179 1.19179 1.19181 1.19174 1.19178 1.1918 1.19187 1.19176 1.19178 1.19182 1.19177 1.19178 1.19187 1.19174 1.19185 1.19181 1.1918 1.1918 1.1918 1.19181 1.19183 1.19178 1.19177 1.19182 1.19185 1.19178 1.19177 1.19178 1.19182 1.19183 1.19175 1.19178 1.19175 1.19183 1.19176 1.19179 1.19174 1.19166 1.19176 1.19171 1.19176 1.19178 1.19178 1.19176 1.19177 1.19178 1.19175 1.19174 1.19174 1.19175 1.19174 1.19178 1.19179 1.19175 1.19174 1.19176 1.19172 1.19175 1.19174 1.19174 1.19176 1.19174 1.19175 1.1918 1.19176 1.19176 1.19178 1.19177 1.19178 1.19176 1.19178 1.19176 1.19174 1.19175 1.19174 1.19173 1.19174 1.19177 1.19177 1.19178 1.19176 1.19178 1.19177 1.19178 1.19177 1.19177 1.19177 1.19176 1.19176 1.19176 1.19175 1.19176 1.19176 1.19178 1.19178 1.19177 1.19178 1.19177 1.19177 1.19176 1.19177 1.19182 1.19179 1.19176 1.19176 1.19179 1.19179 1.19179 1.1918 1.19178 1.19176 1.19182 1.19188 1.19181 1.19181 1.19182 1.19179 1.19177 1.19187 1.19173 1.19179 1.19183 1.1918 1.19177 1.1918 1.19179 1.19181 1.19183 1.19178 1.19177 1.19177 1.19176 1.19182 1.19185 1.19178 1.19176 1.19181 1.19182 1.19175 1.19172 1.19176 1.19184 1.19178 1.19179 1.19172 1.19176 1.19178 1.19182 1.19176 1.19178 1.19179 1.19176 1.19175 1.19178 1.19178 1.19175 1.19176 1.19174 1.19176 1.19175 1.19172 1.19178 1.19178 1.19176 1.19175 1.19177 1.19175 1.19176 1.19175 1.19177 1.19178 1.19178 1.19178 1.19178 1.19175 1.19178 1.19178 1.19173 1.19173 1.19174 1.19174 1.19178 1.19176 1.19176 1.19178 1.19177 1.19177 1.19177 1.19178 1.19177 1.19177 1.19177 1.19176 1.19177 1.19177 1.19177 1.19178 1.19178 1.19178 1.19178 1.19177 1.19176 1.19176 1.19177 1.19182 1.19178 1.19175 1.1918 1.19179 1.19179 1.19176 1.19178 1.19186 1.19182 1.19177 1.19182 1.1918 1.19178 1.19186 1.1918 1.19177 1.19182 1.19176 1.19179 1.19176 1.1918 1.19182 1.19178 1.19177 1.1918 1.19177 1.19173 1.19183 1.19178 1.19177 1.19177 1.19181 1.19174 1.19174 1.19178 1.19176 1.19179 1.19178 1.19179 1.19172 1.19173 1.19176 1.19171 1.19178 1.19177 1.19178 1.19178 1.19178 1.19176 1.19175 1.19174 1.1918 1.19174 1.19174 1.19176 1.19176 1.19175 1.19174 1.19172 1.19172 1.19176 1.19176 1.19176 1.19175 1.19174 1.19177 1.19178 1.19175 1.19175 1.19175 1.19177 1.19177 1.19178 1.19177 1.19177 1.19178 1.19177 1.19173 1.19174 1.19177 1.19174 1.19174 1.19177 1.19178 1.19177 1.19177 1.19178 1.19177 1.19178 1.19177 1.19178 1.19178 1.19178 1.19178 1.19176 1.19176 1.19179 1.1918 1.19177 1.19178 1.19176 1.19176 1.19178 1.19178 1.19177 1.19178 1.19178 1.19177 1.19177 1.19177 1.19176 1.19175 1.19179 1.19179 1.19179 1.19178 1.19176 1.1918 1.19179 1.19182 1.19187 1.19183 1.19177 1.19175 1.19183 1.19179 1.19179 1.19175 1.19175 1.1918 1.1918 1.1918 1.19176 1.19172 1.19183 1.19178 1.19177 1.19173 1.19173 1.19174 1.19174 1.19172 1.19171 1.19177 1.19181 1.19178 1.19178 1.19174 1.19172 1.19175 1.19177 1.19172 1.19177 1.19178 1.19176 1.19176 1.19176 1.19174 1.19174 1.19178 1.19174 1.19175 1.19175 1.19178 1.19177 1.1918 1.19176 1.19178 1.19178 1.19173 1.1918 1.19176 1.19175 1.19174 1.19176 1.19173 1.19175 1.19177 1.19178 1.19178 1.19177 1.19177 1.19178 1.19177 1.19177 1.19176 1.19177 1.19177 1.19173 1.19177 1.19177 1.19178 1.19178 1.19177 1.19177 1.19177 1.19178 1.19177 1.19178 1.19178 1.19179 1.19177 1.19178 1.19177 1.19179 1.19177 1.19178 1.19178 1.19175 1.19178 1.19176 1.19177 1.19174 1.19179 1.19179 1.19179 1.19178 1.19176 1.19176 1.19179 1.19179 1.19181 1.19181 1.19183 1.19178 1.19176 1.19169 1.19176 1.19176 1.1918 1.19188 1.19175 1.19179 1.19179 1.19181 1.19176 1.19172 1.19183 1.19181 1.19176 1.19172 1.19174 1.19174 1.19174 1.19177 1.19178 1.19181 1.19175 1.19178 1.19173 1.19174 1.19177 1.19177 1.19177 1.19178 1.19172 1.19176 1.19176 1.19173 1.19173 1.19174 1.19176 1.19177 1.19176 1.19174 1.1918 1.19177 1.19178 1.19174 1.19178 1.19176 1.19177 1.19176 1.19176 1.19179 1.19178 1.19178 1.19175 1.19175 1.19175 1.19178 1.19178 1.19178 1.19178 1.19177 1.19177 1.19177 1.19178 1.19174 1.19177 1.19178 1.19178 1.19178 1.19178 1.19178 1.19177 1.19177 1.19177 1.19177 1.19177 1.19178 1.19178 1.19178 1.19178 1.19176 1.19178 1.19178 1.19178 1.19177 1.19178 1.19175 1.19178 1.19176 1.19174 1.19179 1.19177 1.19178 1.19176 1.19176 1.19178 1.19179 1.19178 1.1918 1.19181 1.19177 1.19177 1.1917 1.19174 1.1919 1.19169 1.19173 1.19175 1.19179 1.19178 1.19172 1.19173 1.1918 1.19179 1.19173 1.1918 1.19176 1.19178 1.19171 1.19173 1.19177 1.19181 1.19178 1.19174 1.19178 1.19177 1.19178 1.19178 1.19178 1.19178 1.19176 1.19178 1.19176 1.19177 1.19176 1.19174 1.19176 1.19176 1.19176 1.19177 1.19178 1.19176 1.19178 1.19176 1.19176 1.19177 1.19176 1.19174 1.19175 1.19177 1.19177 1.19177 1.19178 1.19178 1.19178 1.19178 1.19177 1.19177 1.19178 1.19178 1.19178 1.19177 1.19177 1.19178 1.19178 1.19178 1.19178 1.19177 1.19177 1.19177 1.19178 1.19177 1.19177 1.19177 1.19176 1.19177 1.19178 1.19176 1.19176 1.19175 1.19174 1.19177 1.19175 1.19175 1.19174 1.19175 1.19176 1.19176 1.19179 1.19176 1.19175 1.19175 1.19177 1.19175 1.19181 1.1918 1.19179 1.19178 1.19172 1.19173 1.19178 1.19167 1.19175 1.19172 1.1918 1.19174 1.19173 1.19169 1.19172 1.19177 1.19173 1.19176 1.19174 1.19177 1.19177 1.19176 1.19176 1.19177 1.19175 1.19175 1.19174 1.19178 1.19178 1.19176 1.19178 1.19179 1.19176 1.19176 1.19178 1.19176 1.19176 1.19176 1.19177 1.19178 1.19178 1.19178 1.19176 1.19177 1.19176 1.19173 1.19176 1.19176 1.19176 1.19175 1.19175 1.19177 1.19177 1.19178 1.19178 1.19178 1.19178 1.19177 1.19177 1.19178 1.19178 1.19178 1.19177 1.19178 1.19178 1.19178 1.19178 1.19178 1.19178 1.19177 1.19177 1.19178 1.19178 1.19178 1.19178 1.19176 1.19177 1.19178 1.19176 1.19177 1.19178 1.19173 1.19177 1.19175 1.19172 1.19176 1.19174 1.19175 1.19176 1.19179 1.19182 1.19179 1.19174 1.19173 1.19173 1.19178 1.19174 1.19177 1.19173 1.19177 1.19173 1.19171 1.1917 1.19166 1.19167 1.19173 1.19181 1.19169 1.19171 1.19174 1.19176 1.19178 1.19178 1.19177 1.19174 1.19175 1.19175 1.19175 1.19174 1.19176 1.19178 1.19176 1.19178 1.19176 1.19176 1.19178 1.19177 1.19178 1.19175 1.19174 1.19175 1.19177 1.19177 1.19177 1.19177 1.19177 1.19177 1.19173 1.19176 1.19177 1.19177 1.19177 1.19177 1.19177 1.19176 1.19176 1.19175 1.19169 1.19174 1.19173 1.19174 1.19173 1.19171 1.19174 1.19175 1.1918 1.19182 1.19178 1.19172 1.19171 1.19177 1.19176 1.19166 1.19178 1.19169 1.19176 1.19175 1.19173 1.19177 1.19171 1.19174 1.19172 1.19177 1.1917 1.19174 1.19176 1.19178 1.19176 1.19176 1.19178 1.19177 1.19176 1.19176 1.19176 1.19173 1.19174 1.19178 1.19171 1.19175 1.19174 1.19179 1.19175 1.19177 1.19179 1.19179 1.19178 1.19178 1.19177 1.19177 1.19175 1.19177 1.19173 1.19172 1.19176 1.19176 1.19169 1.19172 1.19175 1.19178 1.19175 1.19177 1.19175 1.19179 1.19173 1.19177 1.19179 1.19179 1.19176 1.19179 1.19173 1.19176 1.19175 1.19175 1.19173 1.19169 1.19178 1.19169 1.19177 1.19175 1.19178 1.19176 1.19178 1.19174 1.19172 1.19177 1.19176 1.19179 1.19179 1.19175 1.19176 1.19178 1.19171 1.19174 1.19178 1.19175 1.19171 1.19168 1.1917 1.19176 1.19178 1.19177 1.19173 1.19176 1.19173 1.19177 1.19175 1.19179 1.19179 1.19174 1.19177 1.19171 1.19173 1.19177 1.19172 1.19172 1.1917 1.19168 1.19173 1.19181 1.19178 1.19178 1.19178 1.19178 1.19176 1.19174 1.19177 1.19173 1.19177 1.19174 1.19179 1.1918 1.19172 1.19178 1.19175 1.19177 1.19174 1.19181 1.19168 1.19178 1.19178 1.19178 1.19178 1.19178 1.19178 1.19178 1.19178 1.19178 1.19178 1.19178 1.19178 1.19178 1.19178 1.19178 1.19178 1.19178 1.19178 1.19178 1.19178 1.19177 1.19176 1.19174 1.19178 1.19175 1.19173 1.19173 1.19179 1.19183 1.1917 1.19178 1.19175 1.19178 1.19174 1.19178 1.19173 1.1918 1.19175 1.19179 1.19179 1.19178 1.19178 1.19178 1.19178 1.19178 1.19178 1.19178 1.19178 1.19178 1.19178 1.19178 1.19178 1.19178 1.19178 1.19178 1.19178 1.19178 1.19178 1.19178 1.19178 1.19178 1.19178 1.19178 1.19178 1.19178 1.19178 1.19178 1.19178 1.19178 1.19178 1.19178 1.19177 1.19176 1.19173 1.19177 1.1918 1.19176 1.19172 1.19174 1.19183 1.19177 1.19172 1.19173 1.19176 1.1918 1.19176 1.19172 1.19177 1.19179 1.1918 1.19178 1.19176 1.19179 1.19178 1.19178 1.19178 1.19178 1.19178 1.19178 1.19178 1.19178 1.19178 1.19178 1.19178 1.19178 1.19178 1.19178 1.19178 1.19178 1.19178 1.19178 1.19178 1.19178 1.19178 1.19178 1.19178 1.19178 1.19178 1.19178 1.19178 1.19178 1.19178 1.19178 1.19178 1.19178 1.19178 1.19178 1.19178 1.19178 1.19178 1.19178 1.19178 1.19178 1.19182 1.19176 1.19174 1.19173 1.19178 1.19177 1.19171 1.19173 1.19175 1.19176 1.19175 1.19169 1.19178 1.19174 1.19172 1.19176 1.19177 1.19179 1.19176 1.19178 1.19176 1.1918 1.19178 1.19177 1.19179 1.19178 1.19178 1.19178 1.19178 1.19178 1.19178 1.19178 1.19178 1.19178 1.19178 1.19178 1.19178 1.19178 1.19178 1.19178 1.19178 1.19178 1.19178 1.19178 1.19178 1.19178 1.19178 1.19178 1.19178 1.19178 1.19178 1.19178 1.19178 1.19178 1.19178 1.19178 1.19178 1.19178 1.19178 1.19178 1.19178 1.19178 1.19178 1.19178 1.19178 1.19178 1.19178 1.19178 1.19178 1.19178 1.19176 1.1918 1.19175 1.19176 1.19173 1.19177 1.19171 1.19173 1.19175 1.19176 1.19174 1.19169 1.19166 1.19174 1.19176 1.19178 1.19179 1.19176 1.19177 1.1918 1.19178 1.19178 1.19178 1.19178 1.19178 1.19178 1.19178 1.19178 1.19178 1.19178 1.19178 1.19178 1.19178 1.19178 1.19178 1.19178 1.19178 1.19178 1.19178 1.19178 1.19178 1.19178 1.19178 1.19178 1.19178 1.19178 1.19178 1.19178 1.19178 1.19178 1.19178 1.19178 1.19178 1.19178 1.19178 1.19178 1.19178 1.19178 1.19178 1.19178 1.19178 1.19178 1.19178 1.19178 1.19178 1.19178 1.19177 1.19175 1.19173 1.19175 1.19176 1.19175 1.19178 1.19173 1.19175 1.19174 1.19174 1.19173 1.19166 1.19178 1.19173 1.19177 1.19177 1.19173 1.19179 1.19181 1.19177 1.19176 1.19178 1.19178 1.19178 1.19178 1.19178 1.19178 1.19178 1.19178 1.19178 1.19178 1.19178 1.19178 1.19178 1.19178 1.19178 1.19178 1.19178 1.19178 1.19178 1.19178 1.19178 1.19178 1.19178 1.19178 1.19178 1.19178 1.19178 1.19178 1.19178 1.19178 1.19178 1.19178 1.19178 1.19178 1.19178 1.19178 1.19178 1.19178 1.19178 1.19178 1.19178 1.19178 1.19178 1.19178 1.19178 1.19178 1.19178 1.19178 1.19178 1.19178 1.19178 1.19178 1.19178 1.19177 1.19178 1.19181 1.19176 1.19178 1.19175 1.19175 1.19176 1.19178 1.19176 1.19173 1.19176 1.19177 1.19169 1.19174 1.19176 1.19176 1.19178 1.19175 1.19173 1.19175 1.19177 1.19177 1.19178 1.19178 1.19178 1.19178 1.19178 1.19178 1.19178 1.19178 1.19178 1.19178 1.19178 1.19178 1.19178 1.19178 1.19178 1.19178 1.19178 1.19178 1.19178 1.19178 1.19178 1.19178 1.19178 1.19178 1.19178 1.19178 1.19178 1.19178 1.19178 1.19178 1.19178 1.19178 1.19178 1.19178 1.19178 1.19178 1.19178 1.19178 1.19178 1.19178 1.19178 1.19178 1.19178 1.19178 1.19178 1.19178 1.19178 1.19178 1.19178 1.19176 1.19178 1.19178 1.19176 1.19172 1.19178 1.19177 1.19176 1.19174 1.19176 1.19178 1.19176 1.19178 1.19176 1.1918 1.19172 1.19173 1.19174 1.19172 1.19174 1.19176 1.19177 1.19174 1.19178 1.1918 1.19177 1.19178 1.19178 1.19178 1.19178 1.19178 1.19178 1.19178 1.19178 1.19178 1.19178 1.19178 1.19178 1.19178 1.19178 1.19178 1.19178 1.19178 1.19178 1.19178 1.19178 1.19178 1.19178 1.19178 1.19178 1.19178 1.19178 1.19178 1.19178 1.19178 1.19178 1.19178 1.19178 1.19178 1.19178 1.19178 1.19178 1.19178 1.19178 1.19178 1.19178 1.19177 1.19175 1.19179 1.19174 1.19178 1.19176 1.19176 1.19176 1.19177 1.19176 1.19176 1.19178 1.19174 1.19174 1.19178 1.19178 1.1918 1.19175 1.19178 1.19178 1.19178 1.19178 1.19178 1.19178 1.19178 1.19178 1.19178 1.19178 1.19178 1.19178 1.19178 1.19178 1.19178 1.19178 1.19178 1.19178 1.19178 1.19178 1.19178 1.19178 1.19178 1.19178 1.19178 1.19178 1.19178 1.19178 1.19178 1.19178 1.19178 1.19178 1.19178 1.19178 1.19178 1.19178 1.19178 1.19178 1.19178 1.19178 1.19178 1.19178 1.19178 1.19178 1.19178 1.19178 1.19178 1.19178 1.19179 1.19176 1.19177 1.19181 1.19177 1.19173 1.19179 1.19178 1.19176 1.19177 1.19176 1.19176 1.19178 1.19175 1.19177 1.19174 1.19178 1.19176 1.19178 1.19178 1.19178 1.19178 1.19178 1.19178 1.19178 1.19178 1.19178 1.19178 1.19178 1.19178 1.19178 1.19178 1.19178 1.19178 1.19178 1.19178 1.19178 1.19178 1.19178 1.19178 1.19178 1.19178 1.19178 1.19178 1.19178 1.19178 1.19178 1.19178 1.19178 1.19178 1.19178 1.19178 1.19178 1.19178 1.19178 1.19178 1.19178 1.19176 1.19177 1.19178 1.19177 1.19177 1.19178 1.19178 1.19177 1.19176 1.19177 1.19176 1.19177 1.19176 1.19178 1.19177 1.19173 1.19178 1.19176 1.19179 1.19178 1.19178 1.19178 1.19178 1.19178 1.19178 1.19178 1.19178 1.19178 1.19178 1.19178 1.19178 1.19178 1.19178 1.19178 1.19178 1.19178 1.19178 1.19178 1.19178 1.19178 1.19178 1.19178 1.19178 1.19178 1.19178 1.19178 1.19178 1.19178 1.19178 1.19178 1.19178 1.19178 1.19178 1.19178 1.19177 1.19177 1.19177 1.19177 1.19177 1.19177 1.19181 1.19177 1.19177 1.19178 1.19177 1.19178 1.19175 1.19178 1.19177 1.19175 1.19177 1.19176 1.19177 1.19177 1.19178 1.19178 1.19178 1.19178 1.19178 1.19178 1.19178 1.19178 1.19178 1.19178 1.19178 1.19178 1.19178 1.19178 1.19178 1.19178 1.19178 1.19178 1.19178 1.19178 1.19178 1.19178 1.19178 1.19178 1.19178 1.19178 1.19178 1.19178 1.19178 1.19178 1.19178 1.19177 1.19177 1.19177 1.19176 1.19178 1.19176 1.19177 1.19177 1.19177 1.19176 1.19177 1.19176 1.19176 1.19177 1.19176 1.19177 1.19177 1.19177 1.19176 1.19177 1.19178 1.19178 1.19178 1.19178 1.19178 1.19178 1.19178 1.19178 1.19178 1.19178 1.19178 1.19178 1.19178 1.19178 1.19178 1.19178 1.19178 1.19178 1.19178 1.19178 1.19178 1.19178 1.19178 1.19178 1.19178 1.19177 1.19177 1.19177 1.19178 1.19176 1.19177 1.19177 1.19176 1.19176 1.19176 1.19176 1.19175 1.19176 1.19177 1.19178 1.19178 1.19176 1.19177 1.19178 1.19178 1.19178 1.19178 1.19178 1.19178 1.19178 1.19178 1.19178 1.19178 1.19178 1.19178 1.19178 1.19178 1.19178 1.19178 1.19178 1.19178 1.19176 1.19177 1.19177 1.19177 1.19177 1.19176 1.19176 1.19177 1.19176 1.19176 1.19176 1.19178 1.19178 1.19175 1.19176 1.19178 1.19178 1.19178 1.19178 1.19176 1.19177 1.19178 1.19178 1.19178 1.19178 1.19178 1.19178 1.19178 1.19178 1.19178 1.19178 1.19178 1.19178 1.19178 1.19178 1.19178 1.19178 1.19177 1.19177 1.19177 1.19177 1.19178 1.19178 1.19176 1.19177 1.19176 1.19177 1.19176 1.19177 1.19178 1.19175 1.19178 1.19176 1.19178 1.19177 1.19177 1.19178 1.19178 1.19178 1.19178 1.19178 1.19178 1.19178 1.19178 1.19178 1.19178 1.19178 1.19178 1.19178 1.19178 1.19178 1.19178 1.19178 1.19178 1.19177 1.19178 1.19178 1.19177 1.19177 1.19176 1.19178 1.19176 1.19177 1.19178 1.19177 1.19178 1.19176 1.19176 1.19178 1.19176 1.19178 1.19178 1.19177 1.19178 1.19178 1.19178 1.19178 1.19178 1.19178 1.19178 1.19178 1.19177 1.19177 1.19178 1.19177 1.19178 1.19178 1.19178 1.19177 1.19178 1.19178 1.19177 1.19177 1.19176 1.19177 1.19177 1.19176 1.19177 1.19178 1.19178 1.19176 1.19177 1.19178 1.19178 1.19178 1.19178 1.19178 1.19178 1.19178 1.19178 1.19178 1.19177 1.19177 1.19178 1.19178 1.19178 1.19177 1.19178 1.19177 1.19177 1.19178 1.19178 1.19178 1.19177 1.19178 1.19178 1.19178 1.19176 1.19178 1.19178 1.19178 1.19178 1.19178 1.19178 1.19178 1.19178 1.19178 1.19178 1.19178 1.19178 1.19178 1.19178 1.19177 1.19178 1.19178 1.19177 1.19177 1.19178 1.19177 1.19178 1.19177 1.19177 1.19178 1.19178 1.19178 1.19178 1.19178 1.19178 1.19178 1.19178 1.19178 1.19178 1.19178 1.19178 1.19178 1.19178 1.19178 1.19178 1.19178 1.19178 1.19178 1.19178 1.19178 1.19178 1.19178 1.19178 1.19178 1.19178 1.19178 1.19178 1.19178 1.19178 1.19178 1.19178 1.19178 0.0013944 0.00455535 0.00414729 0.00395643 0.00648806 0.010218 0.0111078 0.0114326 0.0119081 0.00993528 0.00688269 0.00204571 0.00628933 0.0113404 0.00806859 0.00211395 0.00937802 0.00763011 0.00333969 0.0139177 0.0010088 0.0196885 0.018104 0.0237874 0.0206011 0.026916 0.0440922 0.0596707 0.0579213 0.0705495 0.0732779 0.0794402 0.116837 0.0914061 0.0376242 0.0604454 0.0102582 0.0180256 0.00922602 0.0291687 0.00796184 0.0431853 0.0717646 0.052515 0.0338301 0.00382986 0.0600765 0.0116092 0.0248623 1.19178 0.0373382 0.0375647 0.0979969 0.00307543 0.00340312 0.00404127 0.00489813 0.00632269 0.00630602 0.0100557 0.00676152 0.003955 0.00731698 0.0063579 0.00724563 0.00261679 0.00287332 0.00561807 0.00077678 0.00222507 0.00266116 0.00275316 0.00595074 0.00459788 0.00689735 0.00831424 0.0106439 0.0123554 0.0141833 0.0167682 0.0199479 0.0179395 0.0231424 0.0255789 0.0279029 0.0300483 0.0317498 0.0325145 0.04314 0.048217 0.0406746 0.0592405 0.0872931 0.118204 0.129481 0.133737 0.148394 0.135783 0.133574 0.158505 0.0980965 0.0802688 0.0496703 0.00290712 0.00293486 0.00208171 0.00867207 0.00810213 0.00255371 0.00934042 0.00894015 0.00915566 0.0113058 0.012629 0.0111954 0.0136724 0.0120755 0.0154798 0.0110555 0.0118203 0.0150674 0.0137268 0.00731081 0.0188598 0.00347777 0.0129949 0.014731 0.00663148 0.0091177 0.0057564 0.00435124 0.00445615 0.00578346 0.00553178 0.00190546 0.00169454 0.00372441 0.00893376 0.000751511 0.00370871 0.00433756 0.0186667 0.0133666 0.0178315 0.0387031 0.0392276 0.0488737 0.0311569 0.0252632 0.0535724 0.0450735 0.0423779 0.0586687 0.0447507 0.0464574 0.0366895 0.0335731 0.0573154 0.0369975 0.0453171 0.0439237 0.0456582 0.0229516 0.0376525 0.0243004 0.0323669 0.0150274 0.0260217 0.033783 0.0533824 0.047823 0.042966 0.0190344 0.0411216 0.0520107 0.0396617 0.0584883 0.0643624 0.0470069 0.0663735 0.022037 0.0170089 0.152587 0.0868175 0.112549 0.0742409 0.0911652 0.000625509 0.00678878 0.002149 0.00305602 0.00511337 0.00684587 0.00476341 0.00386794 0.00233024 0.00211165 0.00526399 0.00820711 0.00474958 0.00319044 0.00333175 0.00296191 0.00275817 0.00657453 0.00175357 0.0022762 0.00525464 0.00606711 0.00484752 0.00697962 0.00783179 0.00934368 0.00900604 0.0111189 0.0108286 0.0126939 0.0127378 0.0117255 0.0129424 0.0133736 0.0159607 0.0151668 0.016648 0.0174982 0.019324 0.0214115 0.0274694 0.0219262 0.0292207 0.0255109 0.0370396 0.034896 0.0399162 0.033449 0.0382035 0.0267106 0.0416194 0.0388049 0.0324327 0.0334225 0.0486835 0.0423961 0.0701249 0.0438531 0.0619302 0.0550555 0.0694016 0.0631925 0.09028 0.110731 0.0757328 0.0949388 0.157629 0.216589 0.1322 0.245007 0.31347 0.376406 0.101475 0.151383 0.0259034 0.118519 0.0729362 0.0915607 0.00018167 0.00815391 0.00399852 0.00908516 0.00735268 0.0104948 0.00994345 0.0125454 0.013796 0.0142559 0.0151985 0.0158036 0.0164347 0.0170294 0.0167596 0.0184381 0.0145392 0.01312 0.00743148 0.0035243 0.00447181 0.00335071 0.00411177 0.00472164 0.00620999 0.0145031 0.0055962 0.00848169 0.0019227 0.00310751 0.0192745 0.0149272 0.0207769 0.0247742 0.0269707 0.0217393 0.0246452 0.0299676 0.0380654 0.0271027 0.0178141 0.0288736 0.0245664 0.0306779 0.0270141 0.0239806 0.0306953 0.0384941 0.0203404 0.00630097 0.0249566 0.0251287 0.0162059 0.029078 0.0408085 0.0285988 0.0237531 0.0633937 0.0715954 0.0634892 0.0305747 0.0462691 0.0641393 0.0599536 0.0655514 0.057185 0.0614771 0.00638967 0.00526074 0.00915516 0.00358989 0.00356232 0.00765499 0.007327 0.00383778 0.00381567 0.00147866 0.00652822 0.00544131 0.00339001 0.00393374 0.00467313 0.00312777 0.00104962 0.00352276 0.00567582 0.00625744 0.0044557 0.00843582 0.00878302 0.00659458 0.00628457 0.0110485 0.0100764 0.0114337 0.0124614 0.0119988 0.0110964 0.0110493 0.0122304 0.0137864 0.0163416 0.0179003 0.0179118 0.0180225 0.0189911 0.0205661 0.0220984 0.0272312 0.0213679 0.0205366 0.0244063 0.0258409 0.0308246 0.0325286 0.0379355 0.0568609 0.0468816 0.0386242 0.0629476 0.0443657 0.0338296 0.0332015 0.0497417 0.0445684 0.151391 0.323114 0.172202 0.0934919 0.0967865 0.142775 0.0569334 0.00217115 0.00145032 0.0053913 0.00342317 0.00731624 0.00838624 0.0106925 0.013018 0.0153527 0.0138666 0.0120971 0.00627134 0.00770162 0.00494836 0.00766939 0.00430719 0.0103221 0.00584621 0.00563969 0.00485055 0.0134763 0.0131275 0.0179469 0.0170295 0.0133611 0.0209471 0.0220648 0.01944 0.0196544 0.0279104 0.0324756 0.0270535 0.0270729 0.0187905 0.0220727 0.0140577 0.0235242 0.0205185 0.030658 0.0310075 0.0235863 0.0252964 0.0026177 0.0158078 0.00775506 0.0571858 0.0501991 0.0709092 0.055669 0.0537874 0.0672083 0.0785084 0.0819658 0.00960918 0.00516177 0.0441325 0.0778216 0.00530959 0.00279593 0.00755446 0.00219728 0.00323937 0.00605216 0.008367 0.00662446 0.00207604 0.00431938 0.00457376 0.00287195 0.00357944 0.00632547 0.0021061 0.00664638 0.00760466 0.00606692 0.0091498 0.0112546 0.0110639 0.0117638 0.0121289 0.0114802 0.0117115 0.0118603 0.0117054 0.0118971 0.0132297 0.0145549 0.0153092 0.0150764 0.0156786 0.016043 0.0160887 0.0171165 0.0173619 0.0186263 0.0186621 0.0194986 0.0204778 0.0226416 0.0228554 0.0232081 0.0212978 0.0194366 0.0199818 0.0208697 0.0205887 0.0267274 0.0248815 0.0307993 0.0467121 0.0389177 0.0268822 0.0310994 0.0214561 0.0245002 0.00851848 0.0303551 0.029248 0.0837134 0.0753657 0.0943049 0.123638 0.112184 0.0779882 0.135846 0.0521186 0.00224294 0.00645742 0.00250793 0.00704399 0.00298119 0.00769904 0.0061528 0.00893944 0.0132251 0.00858321 0.0114522 0.0127273 0.00945324 0.0109235 0.00843379 0.00630509 0.00281172 0.00362496 0.00706922 0.00851547 0.00777853 0.00281574 0.00381652 0.00217883 0.00586469 0.00734372 0.00628896 0.0106453 0.0182135 0.0238066 0.0287466 0.0272561 0.0217127 0.0284704 0.0207431 0.0383494 0.0340569 0.0369881 0.0360422 0.0374281 0.0377077 0.0263797 0.0445007 0.0391144 0.0304214 0.0229224 0.0257615 0.0310854 0.0375603 0.042447 0.059729 0.0531568 0.0460709 0.0663622 0.0470244 0.0356192 0.0537253 0.0476869 0.0559496 0.05967 0.070751 0.0927594 0.0816039 0.0553608 0.0602443 0.00637233 0.00416818 0.00647304 0.00720943 0.00232588 0.00293874 0.00635953 0.0080234 0.0020892 0.00396241 0.00504926 0.00410516 0.00478232 0.00959742 0.00942817 0.0107508 0.0123153 0.0122705 0.0141057 0.0144714 0.0133635 0.0119227 0.0110729 0.011576 0.0121164 0.0141824 0.0145217 0.0158488 0.0168305 0.0166971 0.0175845 0.0186841 0.0186203 0.0230516 0.0249651 0.0259258 0.0251965 0.0210747 0.0211321 0.020531 0.0231165 0.0211095 0.0228149 0.0311568 0.0417247 0.0412816 0.0485604 0.0216934 0.0233683 0.0281189 0.00931289 0.0276078 0.0531843 0.0565138 0.0509897 0.0979191 0.104887 0.0369817 0.0343926 0.0171415 0.0803215 0.0152862 0.00385323 0.00239695 0.00315394 0.00406089 0.00583353 0.00493639 0.00713851 0.00865288 0.0062726 0.00445649 0.00337125 0.00128185 0.00310374 0.00595706 0.00731945 0.00203947 0.0113226 0.00549863 0.0147257 0.00859476 0.0120737 0.0186878 0.0283648 0.0335109 0.0306737 0.0332018 0.0315043 0.0417384 0.0401065 0.0378326 0.0424204 0.0523215 0.0509536 0.0502109 0.0388152 0.0369494 0.0290457 0.032571 0.0432414 0.021144 0.0329056 0.0552901 0.0509075 0.0604329 0.0445026 0.0628137 0.0306863 0.0417707 0.0440603 0.050186 0.0391865 0.0645089 0.0622307 0.00600952 0.0091484 0.00684951 0.000758838 0.00648675 0.0082652 0.0112892 0.00697515 0.0041588 0.00641009 0.00426599 0.00647248 0.00950327 0.00808817 0.00545823 0.0097112 0.0100456 0.0111639 0.0109193 0.0102785 0.0122857 0.0128957 0.013661 0.0133908 0.0125675 0.0143997 0.0156829 0.0158059 0.0161181 0.0173894 0.0175838 0.0189169 0.0203785 0.0219717 0.0243262 0.0259417 0.0281426 0.0270195 0.0304714 0.0233606 0.0375872 0.0209107 0.028306 0.0325447 0.0281059 0.0348718 0.0544134 0.0689991 0.113735 0.0396002 0.0225754 0.0194374 0.0276731 0.0549067 0.0394256 0.0747304 0.0567172 0.0540713 0.0232579 0.0309125 0.0144287 0.00527929 0.0034447 0.00343777 0.00358311 0.00354338 0.00504861 0.00628946 0.00710587 0.00539798 0.00721847 0.00752454 0.00553604 0.00455627 0.000465373 0.00225475 0.00377067 0.00419124 0.00139415 0.00452841 0.00588108 0.0147306 0.0209135 0.0270405 0.0303761 0.0331972 0.0366135 0.0404022 0.0420083 0.0457925 0.0455115 0.0503132 0.04189 0.0508257 0.0419421 0.0552696 0.0555405 0.0562176 0.0499305 0.0450897 0.0329071 0.0288726 0.0250694 0.0214619 0.0449093 0.0606257 0.0631473 0.08742 0.0635403 0.0601641 0.0554824 0.0605363 0.0705107 0.0080182 0.0118276 0.00756185 0.00476889 0.0104472 0.0106795 0.00744352 0.00736041 0.0090794 0.0107787 0.0110095 0.0120326 0.0100345 0.0115997 0.00938253 0.0101654 0.0103269 0.00771109 0.0161482 0.0132611 0.0167324 0.0151973 0.0152146 0.0153904 0.0154516 0.0158385 0.0161599 0.0162475 0.0162823 0.0244832 0.023946 0.0251896 0.0266264 0.0306616 0.0323448 0.0358414 0.0315967 0.0430271 0.0376022 0.0496076 0.0445323 0.0225703 0.0640295 0.0894288 0.0489851 0.0597794 0.0174974 0.044268 0.046878 0.0222249 0.0327285 0.0513155 0.0408016 0.0365853 0.026676 0.0257021 0.0354763 0.0389713 0.0033042 0.00427136 0.00593656 0.00450333 0.0069111 0.00125083 0.0026806 0.00444446 0.00189315 0.0011 0.00204089 0.00308754 0.00429301 0.00376462 0.00496872 0.0079307 0.00914886 0.00764277 0.00439651 0.0022268 0.00319871 0.00793204 0.0103447 0.0199435 0.0150924 0.0274278 0.0347352 0.0293612 0.0348099 0.037528 0.0431366 0.0477212 0.0460859 0.0474829 0.0366351 0.0485604 0.0475319 0.0425184 0.0455117 0.0419673 0.035768 0.0389789 0.0411207 0.03562 0.0363105 0.0344561 0.0305936 0.0423306 0.0600012 0.0965198 0.0803407 0.0804677 0.07264 0.0593545 0.0521301 0.0655372 0.0110529 0.011894 0.00742368 0.00863216 0.0107655 0.00964424 0.00639011 0.00841763 0.0100045 0.00951536 0.011274 0.0123102 0.0114815 0.0121324 0.0111197 0.0106447 0.0112933 0.0130283 0.0138396 0.0131944 0.0106094 0.0131226 0.0118922 0.0137813 0.0145861 0.0161314 0.0161803 0.0162563 0.0166918 0.0193889 0.0215768 0.0261147 0.0301922 0.0342525 0.0406343 0.0451599 0.0554106 0.0663199 0.0411059 0.0798833 0.0751319 0.0609101 0.0194575 0.0394085 0.0287107 0.0287809 0.0354132 0.0399037 0.0406527 0.0309541 0.0509598 0.0387376 0.0338173 0.00518678 0.00616919 0.00774892 0.0087021 0.0139581 0.00981823 0.0041649 0.000865662 0.00185943 0.00118402 0.003233 0.00236659 0.00493994 0.00649479 0.00502849 0.00571969 0.00732965 0.00627321 0.00283492 0.0063698 0.0164429 0.00524116 0.0163375 0.0208595 0.0193971 0.0260116 0.0277347 0.035534 0.0473983 0.0516791 0.0531951 0.0514125 0.0508541 0.0438239 0.0469568 0.050179 0.0453366 0.040499 0.0376744 0.0374976 0.0465314 0.0496145 0.0728401 0.0712758 0.0838073 0.0873031 0.0842718 0.0495695 0.0895299 0.0903064 0.0673361 0.0773659 0.0745192 0.0672747 0.0117783 0.0120003 0.0121751 0.0111188 0.0120763 0.00805675 0.00828272 0.0101001 0.0110595 0.0102839 0.0113637 0.0110044 0.0126097 0.0118936 0.0115255 0.0114419 0.0114632 0.0103142 0.0120562 0.0140586 0.0157411 0.016516 0.0179803 0.0191595 0.0240577 0.0255419 0.0295327 0.039598 0.0347238 0.0325392 0.0551362 0.0455088 0.0498401 0.0606895 0.101055 0.0949685 0.0653992 0.100837 0.059899 0.0574713 0.0378518 0.0342477 0.0409548 0.0365919 0.0424699 0.0401066 0.037545 0.0190712 0.0396757 0.0258099 0.00827156 0.00760677 0.00831148 0.00807599 0.00602282 0.00703017 0.00309372 0.00417487 0.00283489 0.00143256 0.00397634 0.0076967 0.00654 0.00637225 0.00697047 0.00547828 0.00269007 0.00664936 0.00278824 0.00803414 0.0150081 0.0138998 0.020423 0.00788897 0.0474958 0.0413102 0.0421834 0.0473868 0.0516842 0.0445549 0.0435002 0.0528537 0.0538497 0.0531488 0.0534768 0.0552892 0.0505375 0.0703654 0.0966959 0.0625665 0.0729304 0.0821293 0.0773822 0.079172 0.0776551 0.0730831 0.0767909 0.0134416 0.0156537 0.0136283 0.0122414 0.00911804 0.00908391 0.00688801 0.00481458 0.00896957 0.00533228 0.00582029 0.013354 0.0115978 0.0112451 0.0121129 0.00860394 0.0116974 0.012552 0.0129869 0.0142684 0.0128938 0.0149457 0.0152996 0.0189104 0.0191173 0.0195769 0.0213287 0.0230602 0.020977 0.0229615 0.0194766 0.0380209 0.0241851 0.0353901 0.315069 0.126075 0.0622812 0.0415346 0.0337792 0.0373543 0.0366738 0.030123 0.0315747 0.0316045 0.0278117 0.0305034 0.0121779 0.0158809 0.00813465 0.0116407 0.00841627 0.0140974 0.00758977 0.00654466 0.00752556 0.00101903 0.00338292 0.00322711 0.00599281 0.0107923 0.00757615 0.00642024 0.00607377 0.00621611 0.0041553 0.00586747 0.00379138 0.0147577 0.00957393 0.0108841 0.00438556 0.035361 0.0298879 0.0239028 0.0291026 0.0430588 0.0465709 0.0642082 0.0469878 0.0610576 0.0536973 0.0500919 0.0521627 0.0479367 0.0557347 0.0734049 0.0744715 0.113018 0.123523 0.0532323 0.0919717 0.0964176 0.0798147 0.0838954 0.0832281 0.0817556 0.076984 0.0785371 0.0782815 0.0130638 0.0156981 0.0143607 0.0146286 0.0101382 0.0101336 0.00850684 0.00938254 0.00543962 0.00131897 0.0134834 0.00455822 0.00702363 0.0111634 0.0107726 0.00942268 0.0132087 0.0166166 0.0154839 0.0163122 0.0168259 0.0154563 0.0192758 0.0126437 0.014545 0.0174657 0.00503928 0.00770926 0.00286523 0.013934 0.0270685 0.0641131 0.12473 0.450764 0.155684 0.0639373 0.0513409 0.0387289 0.0250739 0.0250236 0.0171178 0.0253223 0.012769 0.00566145 0.00932735 0.0168898 0.017876 0.0090844 0.00508713 0.011896 0.0152368 0.0103412 0.00141684 0.00474387 0.00997081 0.00537025 0.00442452 0.00461803 0.00757039 0.00111768 0.00074673 0.00704925 0.0112065 0.00720423 0.00185629 0.0266453 0.0297526 0.0321218 0.0236779 0.0373288 0.0232535 0.0539867 0.0216718 0.0849661 0.0886762 0.0620307 0.0513227 0.0613124 0.0694944 0.07043 0.0701039 0.11062 0.104519 0.0995681 0.0537194 0.104144 0.0828932 0.0808514 0.0775662 0.0810164 0.0951964 0.0695216 0.0146049 0.012376 0.00965031 0.0091755 0.0109909 0.0114679 0.0113442 0.0100173 0.0127797 0.0315657 0.0182896 0.0136702 0.0136515 0.00336903 0.0119823 0.0110857 0.0113767 0.016824 0.0168359 0.0172272 0.0177506 0.0158326 0.0148079 0.0123779 0.00985107 0.00440083 0.00393536 0.00710373 0.00815449 0.0166291 0.0159233 0.028486 0.0501681 0.115342 0.474537 0.224387 0.0278263 0.032121 0.036876 0.0129232 0.000723725 0.0114163 0.0252441 0.0159257 0.0126892 0.0170823 0.00638884 0.00983739 0.0239088 0.0363013 0.0463446 0.0128756 0.0081297 0.440808 0.236097 0.0122922 0.0127191 0.0146049 0.0267418 0.0373601 
SCALARS Stress float 1
LOOKUP_TABLE default
-12553400000.0 -12552100000.0 -12555900000.0 -12561400000.0 -12558300000.0 -12551100000.0 -12551600000.0 -12550000000.0 -12552000000.0 -12555700000.0 -12553700000.0 -12552100000.0 -12550400000.0 -12551700000.0 -12553000000.0 -12559100000.0 -12556000000.0 -12550800000.0 -12550100000.0 -12552000000.0 -12559200000.0 -12557400000.0 -12556500000.0 -12570800000.0 -12576200000.0 -12578600000.0 -12576000000.0 -12570500000.0 -12553700000.0 -12552100000.0 -12558900000.0 -12551800000.0 -12551300000.0 -12555600000.0 -12558000000.0 -12581800000.0 -12576700000.0 -12560200000.0 -12549900000.0 -12557200000.0 -12551300000.0 -12553500000.0 -12586100000.0 -12598800000.0 -12609700000.0 -12549700000.0 -12649500000.0 -12558200000.0 -12550800000.0 -12552300000.0 -12558500000.0 -12549700000.0 -12554600000.0 -12549700000.0 -12549700000.0 -12556900000.0 -12549700000.0 -12549700000.0 -12551300000.0 -12549700000.0 -12549900000.0 -12550600000.0 -12553800000.0 -12555700000.0 -12564900000.0 -12553200000.0 -12552000000.0 -12551200000.0 -12550500000.0 -12549900000.0 -12549700000.0 -12549700000.0 -12549700000.0 -12550500000.0 -12555300000.0 -12551700000.0 -12562300000.0 -12573500000.0 -12571200000.0 -12558000000.0 -12555400000.0 -12549700000.0 -12551700000.0 -12556700000.0 -12549800000.0 -12558300000.0 -12549800000.0 -12549900000.0 -12552100000.0 -12571700000.0 -12557900000.0 -12558100000.0 -12552400000.0 -12555500000.0 -12551200000.0 -12559600000.0 -12563700000.0 -12560500000.0 -12560000000.0 -12589500000.0 -12550100000.0 -12550300000.0 -12552000000.0 -12555100000.0 -12553000000.0 -12551900000.0 -12564700000.0 -12556100000.0 -12552600000.0 -12552200000.0 -12551600000.0 -12551300000.0 -12559700000.0 -12555400000.0 -12553700000.0 -12563800000.0 -12577500000.0 -12596300000.0 -12588100000.0 -12593500000.0 -12582000000.0 -12617500000.0 -12553400000.0 -12555600000.0 -12553900000.0 -12575800000.0 -12639300000.0 -12551900000.0 -12570800000.0 -12569100000.0 -12549700000.0 -12560400000.0 -12557800000.0 -12587400000.0 -12554000000.0 -12557200000.0 -12550600000.0 -12568200000.0 -12641600000.0 -12577100000.0 -12578300000.0 -12602800000.0 -12567000000.0 -12599200000.0 -12566100000.0 -12605100000.0 -12661200000.0 -12630700000.0 -12631300000.0 -12636900000.0 -12634400000.0 -12627500000.0 -12563500000.0 -12629400000.0 -12558500000.0 -12590300000.0 -12549700000.0 -12549900000.0 -12549700000.0 -12549700000.0 -12549700000.0 -12549900000.0 -12549700000.0 -12553200000.0 -12560400000.0 -12549700000.0 -12569600000.0 -12549700000.0 -12549700000.0 -12549700000.0 -12553500000.0 -12550300000.0 -12549800000.0 -12549700000.0 -12549900000.0 -12555900000.0 -12550900000.0 -12554200000.0 -12566100000.0 -12562800000.0 -12594000000.0 -12557700000.0 -12586300000.0 -12552100000.0 -12560800000.0 -12581900000.0 -12557800000.0 -12572000000.0 -12551700000.0 -12555900000.0 -12559500000.0 -12581400000.0 -12552200000.0 -12558600000.0 -12563500000.0 -12561300000.0 -12589100000.0 -12557200000.0 -12553600000.0 -12551100000.0 -12555000000.0 -12575600000.0 -12644200000.0 -12582500000.0 -12549700000.0 -12549700000.0 -12555200000.0 -12592000000.0 -12596100000.0 -12575300000.0 -12556300000.0 -12636300000.0 -12549700000.0 -12579300000.0 -12638300000.0 -12557500000.0 -12577700000.0 -12549700000.0 -12549700000.0 -12604400000.0 -12553400000.0 -12591700000.0 -12603200000.0 -12550200000.0 -12590200000.0 -12587500000.0 -12567100000.0 -12612400000.0 -12806000000.0 -12574900000.0 -12567300000.0 -12563300000.0 -12550200000.0 -12674000000.0 -12559600000.0 -12600000000.0 -12582300000.0 -12601500000.0 -12666400000.0 -12549700000.0 -12611900000.0 -12598700000.0 -12576700000.0 -12646800000.0 -12583200000.0 -12577500000.0 -12584900000.0 -12560000000.0 -12612000000.0 -12602800000.0 -12549700000.0 -12687200000.0 -12556700000.0 -12591800000.0 -12678500000.0 -12598600000.0 -12552300000.0 -12621400000.0 -12576900000.0 -12587700000.0 -12574700000.0 -12575900000.0 -12570500000.0 -12578600000.0 -12552600000.0 -12564800000.0 -12549700000.0 -12572200000.0 -12561100000.0 -12553200000.0 -12549700000.0 -12549700000.0 -12585200000.0 -12550100000.0 -12552400000.0 -12560600000.0 -12549700000.0 -12556800000.0 -12554500000.0 -12553300000.0 -12554100000.0 -12550200000.0 -12559000000.0 -12566700000.0 -12550700000.0 -12559000000.0 -12583700000.0 -12578300000.0 -12628600000.0 -12597800000.0 -12579900000.0 -12571000000.0 -12625600000.0 -12651500000.0 -12549800000.0 -12550900000.0 -12549700000.0 -12610800000.0 -12585100000.0 -12631500000.0 -12553300000.0 -12561000000.0 -12551100000.0 -12552400000.0 -12550500000.0 -12595900000.0 -12573000000.0 -12584700000.0 -12566700000.0 -12615700000.0 -12583700000.0 -12575600000.0 -12569000000.0 -12588200000.0 -12667100000.0 -12640200000.0 -12602600000.0 -12655000000.0 -12592700000.0 -12626700000.0 -12606500000.0 -12597400000.0 -12586000000.0 -12618800000.0 -12748800000.0 -12726800000.0 -12853700000.0 -12578400000.0 -12758900000.0 -12555200000.0 -12656800000.0 -12657500000.0 -12596700000.0 -12635100000.0 -12610700000.0 -12588900000.0 -12571700000.0 -12672000000.0 -12552100000.0 -12565000000.0 -12556000000.0 -12691400000.0 -12702700000.0 -12615600000.0 -12608100000.0 -12607100000.0 -12554900000.0 -12606600000.0 -12549700000.0 -12779500000.0 -12565600000.0 -12637800000.0 -12761900000.0 -12587000000.0 -12586300000.0 -12573700000.0 -12648800000.0 -12641000000.0 -12560800000.0 -12610700000.0 -12549700000.0 -12557300000.0 -12556200000.0 -12605900000.0 -12565500000.0 -12567000000.0 -12561400000.0 -12578400000.0 -12557400000.0 -12565100000.0 -12559500000.0 -12560600000.0 -12582200000.0 -12567200000.0 -12591700000.0 -12568500000.0 -12559900000.0 -12549700000.0 -12562300000.0 -12551400000.0 -12550700000.0 -12552800000.0 -12557000000.0 -12573900000.0 -12591100000.0 -12581600000.0 -12566600000.0 -12571100000.0 -12618200000.0 -12633300000.0 -12622600000.0 -12559800000.0 -12563100000.0 -12651600000.0 -12595500000.0 -12560900000.0 -12586400000.0 -12722400000.0 -12583800000.0 -12564200000.0 -12615200000.0 -12551800000.0 -12560400000.0 -12611500000.0 -12629800000.0 -12570100000.0 -12732900000.0 -12570500000.0 -12575200000.0 -12629600000.0 -12566100000.0 -12657300000.0 -12549700000.0 -12549700000.0 -12549700000.0 -12549700000.0 -12631500000.0 -12654900000.0 -12792300000.0 -12561900000.0 -12619700000.0 -12670300000.0 -12714400000.0 -12703700000.0 -12691900000.0 -12744200000.0 -12706800000.0 -12659300000.0 -12582100000.0 -12684400000.0 -12834600000.0 -12570800000.0 -12665400000.0 -12809900000.0 -12864900000.0 -12838800000.0 -12552600000.0 -12737600000.0 -12648700000.0 -12555000000.0 -12693200000.0 -12555100000.0 -12689000000.0 -12859600000.0 -12886600000.0 -12826800000.0 -12592300000.0 -12644900000.0 -12700900000.0 -12561800000.0 -12763300000.0 -12594000000.0 -12556900000.0 -12589300000.0 -12554100000.0 -12736300000.0 -12708000000.0 -12561900000.0 -12605500000.0 -12678600000.0 -12680700000.0 -12600000000.0 -12666800000.0 -12645400000.0 -12557900000.0 -12623900000.0 -12588600000.0 -12556400000.0 -12605600000.0 -12670900000.0 -12664100000.0 -12550700000.0 -12661500000.0 -12574600000.0 -12550000000.0 -12641400000.0 -12576400000.0 -12670200000.0 -12665700000.0 -12684200000.0 -12701200000.0 -12556900000.0 -12639300000.0 -12565000000.0 -12609600000.0 -12631400000.0 -12572600000.0 -12557600000.0 -12551200000.0 -12640900000.0 -12704900000.0 -12668300000.0 -12602800000.0 -12613000000.0 -12566100000.0 -12550400000.0 -12566300000.0 -12623800000.0 -12550700000.0 -12638800000.0 -12622000000.0 -12634400000.0 -12691200000.0 -12567100000.0 -12717400000.0 -12717400000.0 -12679000000.0 -12784600000.0 -12627900000.0 -12688500000.0 -12564700000.0 -12689300000.0 -12706900000.0 -12642100000.0 -12551700000.0 -12558100000.0 -12763900000.0 -12553400000.0 -12763300000.0 -12783000000.0 -12660300000.0 -12557600000.0 -12577800000.0 -12695300000.0 -12720200000.0 -12730200000.0 -12735600000.0 -12755700000.0 -12802000000.0 -12589000000.0 -12689200000.0 -12661300000.0 -12653400000.0 -12766600000.0 -12740400000.0 -12550200000.0 -12676800000.0 -12896700000.0 -12840300000.0 -12615300000.0 -12616100000.0 -12655400000.0 -12718600000.0 -12740100000.0 -12626700000.0 -12588100000.0 -12552800000.0 -12752000000.0 -12665200000.0 -12694800000.0 -12631700000.0 -12645600000.0 -12919600000.0 -12554600000.0 -12730600000.0 -12786500000.0 -12792600000.0 -12656300000.0 -12683000000.0 -12591300000.0 -12601500000.0 -12607800000.0 -12558500000.0 -12567200000.0 -12564800000.0 -12688700000.0 -12589500000.0 -12671300000.0 -12551500000.0 -12655000000.0 -12598800000.0 -12593500000.0 -12697400000.0 -12620600000.0 -12561600000.0 -12587200000.0 -12550300000.0 -12619200000.0 -12642100000.0 -12613300000.0 -12638000000.0 -12549800000.0 -12696400000.0 -12557500000.0 -12607100000.0 -12622100000.0 -12750400000.0 -12566900000.0 -12557300000.0 -12581400000.0 -12602800000.0 -12614100000.0 -12557500000.0 -12584400000.0 -12563200000.0 -12590500000.0 -12709100000.0 -12705100000.0 -12560200000.0 -12818900000.0 -12684700000.0 -12648100000.0 -12849800000.0 -12651300000.0 -12584300000.0 -12780100000.0 -12642200000.0 -12568400000.0 -12657400000.0 -12687800000.0 -12728000000.0 -12552700000.0 -13028400000.0 -12589700000.0 -12722700000.0 -12632200000.0 -12632300000.0 -12910900000.0 -12607700000.0 -12997300000.0 -12625600000.0 -13081400000.0 -12679700000.0 -12642400000.0 -12586400000.0 -13192500000.0 -12692000000.0 -12870100000.0 -12825000000.0 -13037200000.0 -13090800000.0 -12630200000.0 -12636400000.0 -12681500000.0 -12771700000.0 -12638600000.0 -12653200000.0 -12549700000.0 -12672700000.0 -12593000000.0 -12579100000.0 -12823700000.0 -12561000000.0 -12675700000.0 -12686700000.0 -13161800000.0 -12678200000.0 -12968600000.0 -12683800000.0 -12853600000.0 -12769000000.0 -12571300000.0 -12725200000.0 -12741100000.0 -12549900000.0 -12653500000.0 -12570300000.0 -12577700000.0 -12643900000.0 -12597400000.0 -12553400000.0 -12609000000.0 -12604100000.0 -12624800000.0 -12644000000.0 -12550200000.0 -12557300000.0 -12593800000.0 -12675300000.0 -12655000000.0 -12630100000.0 -12662400000.0 -12587200000.0 -12567300000.0 -12572500000.0 -12587600000.0 -12554400000.0 -12600400000.0 -12581900000.0 -12566600000.0 -12627100000.0 -12666200000.0 -12663700000.0 -12613300000.0 -12630600000.0 -12628100000.0 -12562300000.0 -12584000000.0 -12636300000.0 -12615700000.0 -12638300000.0 -12663100000.0 -12843900000.0 -12655200000.0 -12677600000.0 -12738400000.0 -12571700000.0 -12651400000.0 -12626400000.0 -12549700000.0 -12600900000.0 -12584600000.0 -12921800000.0 -12610100000.0 -12635900000.0 -12628200000.0 -12642200000.0 -12881300000.0 -12912600000.0 -12645200000.0 -12553200000.0 -12898200000.0 -12855300000.0 -12842200000.0 -12956900000.0 -13016700000.0 -13104200000.0 -13145400000.0 -13002600000.0 -12885800000.0 -12814600000.0 -13319300000.0 -12558600000.0 -12676900000.0 -12704300000.0 -12666300000.0 -12660000000.0 -12705400000.0 -12642000000.0 -12578100000.0 -12695200000.0 -12549700000.0 -12863200000.0 -12812600000.0 -12561600000.0 -12567200000.0 -12553000000.0 -12551000000.0 -12646400000.0 -12549700000.0 -12549700000.0 -12549700000.0 -13121000000.0 -13126800000.0 -13101000000.0 -12681200000.0 -12868800000.0 -12574100000.0 -12799800000.0 -12848300000.0 -12833300000.0 -12819000000.0 -12859600000.0 -12665300000.0 -12665300000.0 -12722900000.0 -12690100000.0 -12556900000.0 -12680900000.0 -12613300000.0 -12569500000.0 -12605800000.0 -12642800000.0 -12569800000.0 -12607900000.0 -12560900000.0 -12615800000.0 -12582900000.0 -12584100000.0 -12579900000.0 -12566800000.0 -12628900000.0 -12663600000.0 -12706900000.0 -12723200000.0 -12645700000.0 -12582400000.0 -12680700000.0 -12572200000.0 -12584000000.0 -12613600000.0 -12656900000.0 -12584800000.0 -12739600000.0 -12574800000.0 -12594200000.0 -12585200000.0 -12583500000.0 -12784400000.0 -12557500000.0 -12737900000.0 -12794600000.0 -12944300000.0 -12845800000.0 -12900400000.0 -12856600000.0 -13026300000.0 -12901600000.0 -12875500000.0 -12635700000.0 -12558500000.0 -12617700000.0 -12570300000.0 -12787000000.0 -12549700000.0 -12742700000.0 -12753300000.0 -13046000000.0 -12828400000.0 -12555700000.0 -12589100000.0 -12684800000.0 -12549700000.0 -12703400000.0 -12650600000.0 -12743900000.0 -12698500000.0 -12747600000.0 -12654000000.0 -12600000000.0 -12708800000.0 -12838800000.0 -12716100000.0 -12978800000.0 -12760100000.0 -12751400000.0 -12654300000.0 -12856700000.0 -12696000000.0 -12834500000.0 -12681500000.0 -12735500000.0 -12551400000.0 -13393100000.0 -12549700000.0 -12856500000.0 -12661300000.0 -12551300000.0 -12794800000.0 -12650200000.0 -12665300000.0 -12731000000.0 -12814700000.0 -12550000000.0 -12600900000.0 -12677600000.0 -12704600000.0 -12890800000.0 -12992000000.0 -13005000000.0 -12553500000.0 -12767000000.0 -12622700000.0 -12569800000.0 -12588500000.0 -12549700000.0 -12644100000.0 -12673900000.0 -12552100000.0 -12550800000.0 -12649500000.0 -12605200000.0 -12562100000.0 -12562200000.0 -12584100000.0 -12570300000.0 -12549700000.0 -12610100000.0 -12610800000.0 -12553900000.0 -12635800000.0 -12608400000.0 -12623600000.0 -12604200000.0 -12575300000.0 -12620200000.0 -12642300000.0 -12612600000.0 -12637500000.0 -12630000000.0 -12549700000.0 -12650200000.0 -12672600000.0 -12716800000.0 -12644600000.0 -12738400000.0 -12786100000.0 -12771200000.0 -12550900000.0 -12709000000.0 -12748900000.0 -12549700000.0 -12747100000.0 -12549800000.0 -12559200000.0 -12797800000.0 -12718100000.0 -12549700000.0 -12720600000.0 -12728500000.0 -12728300000.0 -12908800000.0 -12560400000.0 -12575000000.0 -12883100000.0 -12739400000.0 -12838300000.0 -12948900000.0 -12857400000.0 -12568200000.0 -12633500000.0 -12571400000.0 -12681300000.0 -12812700000.0 -12835400000.0 -12600500000.0 -12616800000.0 -12551600000.0 -12726200000.0 -12862500000.0 -12834200000.0 -13014800000.0 -12798400000.0 -12603200000.0 -12549700000.0 -12857600000.0 -13075000000.0 -12791000000.0 -13048600000.0 -13086300000.0 -12628900000.0 -12717000000.0 -13189400000.0 -12794600000.0 -12717200000.0 -13549300000.0 -12812300000.0 -12857000000.0 -12711500000.0 -12564200000.0 -12715900000.0 -12856300000.0 -12848800000.0 -12645000000.0 -12552900000.0 -12623200000.0 -12807500000.0 -12665700000.0 -12709100000.0 -12718600000.0 -12575500000.0 -12586600000.0 -12584100000.0 -12625100000.0 -12635600000.0 -12919700000.0 -12574000000.0 -12974800000.0 -12566300000.0 -12552800000.0 -12559300000.0 -12600400000.0 -12836600000.0 -12549700000.0 -12620900000.0 -12567100000.0 -12577300000.0 -12573500000.0 -12621500000.0 -12583700000.0 -12554200000.0 -12582700000.0 -12618300000.0 -12571700000.0 -12626100000.0 -12690800000.0 -12552900000.0 -12617400000.0 -12594100000.0 -12600200000.0 -12550000000.0 -12550600000.0 -12559200000.0 -12571600000.0 -12551900000.0 -12568800000.0 -12557300000.0 -12550000000.0 -12704800000.0 -12549700000.0 -12667900000.0 -12663900000.0 -12559100000.0 -12663500000.0 -12551100000.0 -12549700000.0 -12549800000.0 -12553100000.0 -12626300000.0 -12622500000.0 -12672900000.0 -12561900000.0 -12600300000.0 -12663600000.0 -12641100000.0 -12666900000.0 -12613900000.0 -12886900000.0 -12954000000.0 -12549700000.0 -12718500000.0 -12585800000.0 -13066000000.0 -12713000000.0 -13021100000.0 -12617100000.0 -12818400000.0 -12699000000.0 -12724400000.0 -12716000000.0 -12561600000.0 -12699100000.0 -13017800000.0 -12715600000.0 -12625500000.0 -12690400000.0 -12728600000.0 -12800300000.0 -13175800000.0 -12739200000.0 -12667200000.0 -13003800000.0 -12978100000.0 -12574300000.0 -12951600000.0 -12836700000.0 -12804100000.0 -12599200000.0 -13144900000.0 -12605000000.0 -13420100000.0 -13124400000.0 -13085900000.0 -13692600000.0 -13193600000.0 -13026000000.0 -12929100000.0 -13036400000.0 -12583000000.0 -12657200000.0 -12783600000.0 -12560300000.0 -12553700000.0 -12792700000.0 -12550400000.0 -12665500000.0 -12749500000.0 -12586600000.0 -12801000000.0 -12654600000.0 -12584700000.0 -12634700000.0 -12667700000.0 -12800300000.0 -12762100000.0 -12605000000.0 -12619000000.0 -12811600000.0 -12691600000.0 -12628600000.0 -12685200000.0 -12727800000.0 -12559700000.0 -12683800000.0 -12552100000.0 -12629300000.0 -12588700000.0 -12649800000.0 -12555600000.0 -12731400000.0 -12595800000.0 -12568500000.0 -12673700000.0 -12642100000.0 -12573500000.0 -12650100000.0 -12575700000.0 -12575100000.0 -12580200000.0 -12574800000.0 -12556500000.0 -12551300000.0 -12557500000.0 -12628400000.0 -12614700000.0 -12700300000.0 -12682000000.0 -12694800000.0 -12619900000.0 -12626100000.0 -12555200000.0 -12730000000.0 -12549700000.0 -12565800000.0 -12550800000.0 -12592000000.0 -12602900000.0 -12673600000.0 -12707200000.0 -12645400000.0 -12617900000.0 -12847800000.0 -12549700000.0 -12877300000.0 -12846100000.0 -12909500000.0 -13078600000.0 -13289800000.0 -12600700000.0 -13094300000.0 -12892300000.0 -12830100000.0 -12765500000.0 -12584500000.0 -12712300000.0 -12630700000.0 -12597500000.0 -12777500000.0 -12903000000.0 -12614100000.0 -12928200000.0 -12971000000.0 -12938100000.0 -12588800000.0 -12549700000.0 -12960300000.0 -12685900000.0 -12784400000.0 -12569800000.0 -13137600000.0 -12639900000.0 -12888100000.0 -12652200000.0 -12559600000.0 -12645700000.0 -13061900000.0 -12676900000.0 -12979100000.0 -12549700000.0 -12915000000.0 -12549700000.0 -13124000000.0 -13563500000.0 -13636000000.0 -13506800000.0 -13440800000.0 -13560800000.0 -12585300000.0 -13521500000.0 -13587100000.0 -13533600000.0 -13166500000.0 -12566200000.0 -12673700000.0 -13098600000.0 -13062200000.0 -12899300000.0 -12779800000.0 -12874200000.0 -12552000000.0 -12819700000.0 -12867100000.0 -12663500000.0 -12600300000.0 -12594300000.0 -12563200000.0 -12674400000.0 -12687100000.0 -12600800000.0 -12629000000.0 -12701300000.0 -12623800000.0 -12630600000.0 -12616600000.0 -12549700000.0 -12647500000.0 -12585600000.0 -12650000000.0 -12549700000.0 -12714000000.0 -12712700000.0 -12758300000.0 -12725200000.0 -12663900000.0 -12588300000.0 -12587100000.0 -12665000000.0 -12736500000.0 -12640100000.0 -12655000000.0 -12608800000.0 -12591500000.0 -12618400000.0 -12718000000.0 -12669600000.0 -12743000000.0 -12704000000.0 -12890700000.0 -12642000000.0 -12698500000.0 -12894500000.0 -12549700000.0 -12549700000.0 -13266200000.0 -13287300000.0 -12869100000.0 -13031000000.0 -12829600000.0 -12926300000.0 -12600100000.0 -12785300000.0 -12829100000.0 -12642000000.0 -12794800000.0 -12775200000.0 -12549700000.0 -12899500000.0 -13034300000.0 -12625500000.0 -12610800000.0 -13170600000.0 -13320300000.0 -12750700000.0 -12551400000.0 -12549900000.0 -12835200000.0 -12953700000.0 -13457700000.0 -12688000000.0 -12851200000.0 -12641400000.0 -12603500000.0 -12677900000.0 -12581100000.0 -13257500000.0 -12618900000.0 -13335600000.0 -13247000000.0 -12873600000.0 -12934000000.0 -12611800000.0 -12582700000.0 -13230500000.0 -12560300000.0 -12640400000.0 -12600100000.0 -12719800000.0 -12899600000.0 -12785100000.0 -12837400000.0 -12765000000.0 -12845400000.0 -12551600000.0 -12552000000.0 -13128000000.0 -13335400000.0 -12969800000.0 -12631900000.0 -12680800000.0 -12614400000.0 -12625900000.0 -12626300000.0 -12568500000.0 -12607200000.0 -12563100000.0 -12558700000.0 -12569300000.0 -12553600000.0 -12680400000.0 -12611900000.0 -12641300000.0 -12634400000.0 -12570400000.0 -12589000000.0 -12605500000.0 -12820400000.0 -12740200000.0 -12569800000.0 -12599900000.0 -12714400000.0 -12687100000.0 -12561800000.0 -12699700000.0 -12714400000.0 -12597400000.0 -12610400000.0 -12558700000.0 -12721700000.0 -12634100000.0 -12676800000.0 -12691500000.0 -12556100000.0 -12732300000.0 -12574000000.0 -12552300000.0 -12605700000.0 -12584200000.0 -12558500000.0 -12791700000.0 -12571500000.0 -12707900000.0 -12659400000.0 -12917100000.0 -12594500000.0 -12601300000.0 -12905800000.0 -13061100000.0 -13362800000.0 -13220100000.0 -13025500000.0 -12613800000.0 -12714900000.0 -12626300000.0 -12559000000.0 -12570200000.0 -12919600000.0 -12571400000.0 -12596800000.0 -12641100000.0 -13150700000.0 -13093000000.0 -12554100000.0 -12642500000.0 -13026600000.0 -12876500000.0 -12656300000.0 -12882700000.0 -12592100000.0 -13136700000.0 -12815900000.0 -12990100000.0 -12847600000.0 -12936300000.0 -12838900000.0 -12755900000.0 -12681800000.0 -12555200000.0 -12623500000.0 -12933900000.0 -13068800000.0 -12735500000.0 -13101400000.0 -12767500000.0 -12930800000.0 -12717700000.0 -12670100000.0 -12565500000.0 -12927300000.0 -12904600000.0 -12699700000.0 -12613400000.0 -12836800000.0 -12606100000.0 -12557600000.0 -12552100000.0 -12560800000.0 -12549700000.0 -13032600000.0 -13057900000.0 -12557900000.0 -12876100000.0 -12616600000.0 -12657700000.0 -12636000000.0 -12599200000.0 -12699200000.0 -12593600000.0 -12646900000.0 -12584800000.0 -12579500000.0 -12618500000.0 -12570100000.0 -12555000000.0 -12574000000.0 -12550700000.0 -12571100000.0 -12589400000.0 -12549700000.0 -12691800000.0 -12697100000.0 -12662700000.0 -12551600000.0 -12579400000.0 -12677500000.0 -12581500000.0 -12636500000.0 -12634900000.0 -12593500000.0 -12867500000.0 -12584300000.0 -12551800000.0 -12712400000.0 -12571300000.0 -12603800000.0 -12554700000.0 -12600900000.0 -12584200000.0 -12820200000.0 -12588100000.0 -12657300000.0 -12618900000.0 -12552700000.0 -12821300000.0 -13156100000.0 -13052000000.0 -12590700000.0 -13047900000.0 -12955900000.0 -13118400000.0 -13303300000.0 -12557500000.0 -12560400000.0 -13389500000.0 -12942200000.0 -12724000000.0 -12558000000.0 -12665800000.0 -12587100000.0 -12658900000.0 -12622200000.0 -12611500000.0 -13196300000.0 -12789500000.0 -13230100000.0 -12708700000.0 -12792000000.0 -12881000000.0 -13024600000.0 -12576600000.0 -12784700000.0 -12551200000.0 -12900400000.0 -12892800000.0 -12782400000.0 -12757300000.0 -12983000000.0 -12702600000.0 -12977400000.0 -12714500000.0 -12762900000.0 -12573900000.0 -12906200000.0 -12844100000.0 -13088700000.0 -12925500000.0 -13079200000.0 -12733900000.0 -12655900000.0 -12889800000.0 -13006300000.0 -12697000000.0 -13103800000.0 -12802700000.0 -12842600000.0 -12840500000.0 -12836800000.0 -12601800000.0 -12560200000.0 -12567500000.0 -12559400000.0 -12570700000.0 -12552300000.0 -12617800000.0 -12633300000.0 -12872600000.0 -12617800000.0 -12593900000.0 -12676300000.0 -12639500000.0 -12604700000.0 -12645600000.0 -12562000000.0 -12626400000.0 -12630900000.0 -12637100000.0 -12636900000.0 -12566600000.0 -12591200000.0 -12564200000.0 -12557200000.0 -12550300000.0 -12584700000.0 -12552600000.0 -12575100000.0 -12550500000.0 -12549700000.0 -12613100000.0 -12597000000.0 -12601600000.0 -12746000000.0 -12683800000.0 -12621300000.0 -12556300000.0 -12624500000.0 -12724100000.0 -12585600000.0 -12600700000.0 -12635100000.0 -12599100000.0 -12567700000.0 -12554900000.0 -12562700000.0 -12892800000.0 -12662300000.0 -12704000000.0 -12823900000.0 -12553500000.0 -12793300000.0 -12596100000.0 -12646300000.0 -13142400000.0 -13497200000.0 -13436800000.0 -12571500000.0 -12551100000.0 -12552300000.0 -12550200000.0 -13066500000.0 -13313300000.0 -12569400000.0 -12581600000.0 -12816800000.0 -12594300000.0 -12666700000.0 -12576200000.0 -12562000000.0 -12701500000.0 -13206600000.0 -12858100000.0 -12549700000.0 -12570300000.0 -12758800000.0 -12811800000.0 -12551700000.0 -12655700000.0 -12692800000.0 -12727600000.0 -12591700000.0 -12580500000.0 -12674200000.0 -12680300000.0 -12556500000.0 -12673200000.0 -12614200000.0 -12932800000.0 -12657100000.0 -12671200000.0 -12726600000.0 -12930500000.0 -12799100000.0 -12974700000.0 -12962500000.0 -12911100000.0 -12806900000.0 -12614700000.0 -13043500000.0 -12767300000.0 -12549700000.0 -12675100000.0 -12650200000.0 -12737400000.0 -12785800000.0 -12759000000.0 -12591700000.0 -12558900000.0 -12568200000.0 -12552100000.0 -12555300000.0 -12591500000.0 -12912700000.0 -12834600000.0 -12550200000.0 -12549700000.0 -12595200000.0 -12572900000.0 -12623900000.0 -12593000000.0 -12559200000.0 -12583100000.0 -12562800000.0 -12565900000.0 -12573400000.0 -12597800000.0 -12714400000.0 -12549700000.0 -12603400000.0 -12557200000.0 -12640600000.0 -12649400000.0 -12669800000.0 -12682800000.0 -12618200000.0 -12578700000.0 -12570400000.0 -12582700000.0 -12594100000.0 -12685200000.0 -12610500000.0 -12736100000.0 -12677400000.0 -12642500000.0 -12587700000.0 -12652900000.0 -12588400000.0 -12990300000.0 -12569800000.0 -12756500000.0 -12824300000.0 -12845900000.0 -12719100000.0 -12766100000.0 -12643800000.0 -12728300000.0 -14178900000.0 -12895200000.0 -13088700000.0 -12919400000.0 -12895400000.0 -13299000000.0 -12561200000.0 -12608700000.0 -12918200000.0 -12686400000.0 -12784800000.0 -13362500000.0 -13304200000.0 -12755000000.0 -12702800000.0 -12733300000.0 -12826000000.0 -12730800000.0 -12668800000.0 -13013500000.0 -12660000000.0 -12576300000.0 -12880800000.0 -12728300000.0 -12796000000.0 -12914600000.0 -12549700000.0 -12817300000.0 -12738600000.0 -12668400000.0 -12893700000.0 -12769900000.0 -12696800000.0 -12889100000.0 -12688700000.0 -12744200000.0 -12550500000.0 -12946800000.0 -12815000000.0 -12763400000.0 -12555100000.0 -12552700000.0 -12970000000.0 -12940500000.0 -12549700000.0 -12596100000.0 -12694900000.0 -12768000000.0 -12591400000.0 -12573000000.0 -12729000000.0 -12582800000.0 -12573900000.0 -12559100000.0 -12571100000.0 -12567400000.0 -12563200000.0 -12568400000.0 -12726200000.0 -12694200000.0 -12779400000.0 -12613300000.0 -12667500000.0 -12579500000.0 -12572200000.0 -12589100000.0 -12569100000.0 -12594700000.0 -12577000000.0 -12611000000.0 -12597800000.0 -12554600000.0 -12653000000.0 -12611700000.0 -12644000000.0 -12549800000.0 -12552500000.0 -12565600000.0 -12673000000.0 -12571600000.0 -12633000000.0 -12660400000.0 -12659800000.0 -12549700000.0 -12682100000.0 -12662300000.0 -12634400000.0 -12590600000.0 -12586600000.0 -12549700000.0 -12763400000.0 -12771300000.0 -12691900000.0 -12549700000.0 -12777300000.0 -12555800000.0 -12645700000.0 -12620700000.0 -12799400000.0 -12845900000.0 -12925800000.0 -12772600000.0 -14488100000.0 -12913700000.0 -13072600000.0 -12875600000.0 -13793200000.0 -12722300000.0 -13312700000.0 -13061500000.0 -13065800000.0 -13413600000.0 -12553400000.0 -12903800000.0 -12575200000.0 -12579500000.0 -12549700000.0 -12927300000.0 -12659700000.0 -12747800000.0 -12667800000.0 -12906400000.0 -12638500000.0 -12768900000.0 -12811000000.0 -12634400000.0 -12562500000.0 -12549700000.0 -12551000000.0 -12551000000.0 -12553700000.0 -12645600000.0 -12771300000.0 -12698600000.0 -12631600000.0 -12819100000.0 -12560500000.0 -12672500000.0 -12802600000.0 -12697200000.0 -12556600000.0 -12801600000.0 -12624000000.0 -12992700000.0 -12556000000.0 -12936900000.0 -12992400000.0 -12968700000.0 -13020000000.0 -12810900000.0 -12562000000.0 -12549700000.0 -12563900000.0 -12553100000.0 -12578400000.0 -12552300000.0 -12555700000.0 -12642600000.0 -12554200000.0 -12693000000.0 -12739600000.0 -12669700000.0 -12613500000.0 -12556300000.0 -12556300000.0 -12569000000.0 -12568200000.0 -12554600000.0 -12593000000.0 -12559200000.0 -12596800000.0 -12553800000.0 -12610000000.0 -12565200000.0 -12565200000.0 -12558700000.0 -12575700000.0 -12552300000.0 -12550400000.0 -12550600000.0 -12563700000.0 -12549700000.0 -12550500000.0 -12608800000.0 -12655500000.0 -12551300000.0 -12555600000.0 -12751200000.0 -12638100000.0 -12766500000.0 -12712700000.0 -12800300000.0 -12652500000.0 -12604700000.0 -12722700000.0 -12622200000.0 -12617500000.0 -12856900000.0 -13017500000.0 -12962500000.0 -12683000000.0 -12550600000.0 -12619300000.0 -12628800000.0 -12550800000.0 -12865200000.0 -12646900000.0 -13072300000.0 -13216200000.0 -13811900000.0 -12556800000.0 -13457300000.0 -13603500000.0 -13252700000.0 -12848300000.0 -13379900000.0 -13109700000.0 -12867900000.0 -12891900000.0 -13090100000.0 -12854900000.0 -12933100000.0 -12642600000.0 -12605900000.0 -12902400000.0 -12579900000.0 -12571400000.0 -12605500000.0 -12649500000.0 -12695100000.0 -12656600000.0 -12549700000.0 -12580400000.0 -12640500000.0 -12584500000.0 -12585800000.0 -12722600000.0 -12757000000.0 -12587900000.0 -12549700000.0 -12737600000.0 -12609700000.0 -12597500000.0 -12622900000.0 -12668600000.0 -12662000000.0 -12582900000.0 -12646300000.0 -12662000000.0 -12700300000.0 -12709400000.0 -12718300000.0 -13149900000.0 -12737700000.0 -12558700000.0 -12549700000.0 -12564100000.0 -12553400000.0 -12552200000.0 -12573000000.0 -12564500000.0 -12552000000.0 -12610000000.0 -12577600000.0 -12669500000.0 -12557400000.0 -12549700000.0 -12619700000.0 -12599900000.0 -12552300000.0 -12559000000.0 -12550000000.0 -12567800000.0 -12595100000.0 -12553900000.0 -12552500000.0 -12558300000.0 -12557700000.0 -12550100000.0 -12552100000.0 -12557500000.0 -12549700000.0 -12550400000.0 -12550000000.0 -12551700000.0 -12575300000.0 -12609900000.0 -12573200000.0 -12649200000.0 -12646800000.0 -12675000000.0 -12598200000.0 -12575400000.0 -12961000000.0 -12873700000.0 -12860600000.0 -12828400000.0 -12884800000.0 -12971100000.0 -12550300000.0 -12916500000.0 -12714200000.0 -12751900000.0 -12832500000.0 -12694200000.0 -13269900000.0 -12564700000.0 -12912700000.0 -13503800000.0 -13374000000.0 -13315800000.0 -13389800000.0 -12595700000.0 -13053200000.0 -12976400000.0 -13151400000.0 -12715000000.0 -12810900000.0 -12549700000.0 -13359800000.0 -12958700000.0 -13058000000.0 -12989100000.0 -12883400000.0 -12575600000.0 -12562100000.0 -12610500000.0 -12593700000.0 -12624400000.0 -12631600000.0 -12639700000.0 -12658800000.0 -12660700000.0 -12549900000.0 -12624900000.0 -12551300000.0 -12574200000.0 -12573200000.0 -12655100000.0 -12561000000.0 -12779000000.0 -12585600000.0 -12738000000.0 -12611300000.0 -12714600000.0 -12684000000.0 -12582200000.0 -12602500000.0 -12618600000.0 -12624000000.0 -12618700000.0 -12663900000.0 -12644100000.0 -12614500000.0 -12864800000.0 -12550400000.0 -12549800000.0 -12793400000.0 -12901300000.0 -12642600000.0 -12565400000.0 -12589800000.0 -12592500000.0 -12589500000.0 -12589300000.0 -12580000000.0 -12581200000.0 -12580900000.0 -12650300000.0 -12624300000.0 -12587400000.0 -12633700000.0 -12622700000.0 -12564900000.0 -12586900000.0 -12590000000.0 -12590000000.0 -12582100000.0 -12571800000.0 -12550100000.0 -12549700000.0 -12552300000.0 -12550000000.0 -12557100000.0 -12561300000.0 -12552800000.0 -12552300000.0 -12557700000.0 -12552000000.0 -12550000000.0 -12551900000.0 -12562000000.0 -12555600000.0 -12629400000.0 -12550500000.0 -12552800000.0 -12769200000.0 -12622500000.0 -12781000000.0 -12723400000.0 -12590500000.0 -12771700000.0 -12906600000.0 -12636800000.0 -12565100000.0 -12665900000.0 -12640500000.0 -13316700000.0 -12883300000.0 -13099000000.0 -13091400000.0 -13137600000.0 -12801700000.0 -13134800000.0 -12571900000.0 -12732400000.0 -13657800000.0 -14472900000.0 -12639200000.0 -12622400000.0 -13466200000.0 -12701900000.0 -13272500000.0 -12586800000.0 -12714100000.0 -12549700000.0 -13454200000.0 -12732700000.0 -12565800000.0 -12711400000.0 -12924200000.0 -12567500000.0 -12669100000.0 -12674400000.0 -12654600000.0 -12653000000.0 -12595600000.0 -12660200000.0 -12647900000.0 -12586500000.0 -12632200000.0 -12550900000.0 -12566400000.0 -12597500000.0 -12559100000.0 -12563800000.0 -12675700000.0 -12629200000.0 -12625800000.0 -12549700000.0 -12646400000.0 -12628400000.0 -12687400000.0 -12549700000.0 -12608400000.0 -12597600000.0 -12553600000.0 -12551200000.0 -12550100000.0 -12619400000.0 -12561600000.0 -12678700000.0 -12690300000.0 -12713500000.0 -12653900000.0 -12824700000.0 -12612900000.0 -12565200000.0 -12549800000.0 -12549700000.0 -12559200000.0 -12556000000.0 -12553500000.0 -12557900000.0 -12556300000.0 -12555600000.0 -12553700000.0 -12556900000.0 -12576200000.0 -12556100000.0 -12559100000.0 -12560200000.0 -12563100000.0 -12571600000.0 -12577900000.0 -12562800000.0 -12562000000.0 -12565600000.0 -12568500000.0 -12576300000.0 -12570600000.0 -12574300000.0 -12574900000.0 -12566000000.0 -12581000000.0 -12594200000.0 -12609800000.0 -12710800000.0 -12667600000.0 -12669700000.0 -12744700000.0 -12571800000.0 -12634300000.0 -12556300000.0 -12910300000.0 -12797600000.0 -12663300000.0 -12569200000.0 -12604300000.0 -13084900000.0 -12718300000.0 -12588700000.0 -12605700000.0 -13335600000.0 -12549700000.0 -12989400000.0 -12798600000.0 -12706400000.0 -12550700000.0 -13739100000.0 -12611000000.0 -12570800000.0 -12552800000.0 -13399600000.0 -12567500000.0 -13325500000.0 -12875700000.0 -12924100000.0 -13173900000.0 -13205400000.0 -12934300000.0 -12617700000.0 -12990800000.0 -12943500000.0 -12693800000.0 -12653400000.0 -12660900000.0 -12661700000.0 -12750900000.0 -12758400000.0 -12659200000.0 -12629500000.0 -12651400000.0 -12632000000.0 -12605600000.0 -12595700000.0 -12591200000.0 -12669500000.0 -12584200000.0 -12581400000.0 -12587600000.0 -12580600000.0 -12611100000.0 -12623700000.0 -12758500000.0 -12579400000.0 -12675300000.0 -12642900000.0 -12578200000.0 -12619800000.0 -12621800000.0 -12618100000.0 -12570100000.0 -12594900000.0 -12579000000.0 -12551000000.0 -12578700000.0 -12636800000.0 -12585100000.0 -12604300000.0 -12551500000.0 -12556200000.0 -12549700000.0 -12550100000.0 -12554600000.0 -12552100000.0 -12550100000.0 -12549700000.0 -12555900000.0 -12571600000.0 -12550000000.0 -12549700000.0 -12549700000.0 -12549900000.0 -12549700000.0 -12578200000.0 -12557500000.0 -12572300000.0 -12570900000.0 -12569100000.0 -12568200000.0 -12564400000.0 -12567600000.0 -12562200000.0 -12572100000.0 -12585500000.0 -12607100000.0 -12629000000.0 -12697700000.0 -12573200000.0 -12601800000.0 -12589200000.0 -12718200000.0 -12641400000.0 -12823900000.0 -12551700000.0 -12863400000.0 -12729700000.0 -12758300000.0 -12863100000.0 -12935400000.0 -12558900000.0 -12620900000.0 -13416300000.0 -13084700000.0 -12704800000.0 -12844500000.0 -13761200000.0 -12624800000.0 -12719200000.0 -13920900000.0 -12552400000.0 -12565400000.0 -13901000000.0 -13352900000.0 -12654000000.0 -12934400000.0 -12777300000.0 -12955600000.0 -12798700000.0 -12558000000.0 -12549700000.0 -12669100000.0 -12729400000.0 -12735000000.0 -12751700000.0 -12665200000.0 -12696900000.0 -12561700000.0 -12586400000.0 -12556200000.0 -12549700000.0 -12551900000.0 -12549700000.0 -12620600000.0 -12568600000.0 -12575000000.0 -12575000000.0 -12584200000.0 -12685400000.0 -12587400000.0 -12579600000.0 -12579500000.0 -12565800000.0 -12580500000.0 -12613300000.0 -12549900000.0 -12556500000.0 -12584900000.0 -12551200000.0 -12660300000.0 -12736800000.0 -12635300000.0 -12559000000.0 -12551100000.0 -12553400000.0 -12549700000.0 -12549700000.0 -12549800000.0 -12550200000.0 -12553200000.0 -12551200000.0 -12549700000.0 -12549700000.0 -12549700000.0 -12559600000.0 -12554700000.0 -12549800000.0 -12549700000.0 -12550600000.0 -12549900000.0 -12557000000.0 -12552100000.0 -12552000000.0 -12549900000.0 -12556800000.0 -12555900000.0 -12565200000.0 -12571100000.0 -12570400000.0 -12566900000.0 -12597800000.0 -12616100000.0 -12622300000.0 -12641400000.0 -12667700000.0 -12682600000.0 -12623800000.0 -12700200000.0 -12674200000.0 -12699000000.0 -12844400000.0 -12955300000.0 -12551100000.0 -12903500000.0 -13071900000.0 -13207700000.0 -13360200000.0 -13458200000.0 -13948600000.0 -13421200000.0 -13258900000.0 -13908600000.0 -14281900000.0 -12559600000.0 -13373100000.0 -14006500000.0 -13254700000.0 -13512700000.0 -13234700000.0 -12840200000.0 -13388400000.0 -12997100000.0 -12843300000.0 -12658300000.0 -12576500000.0 -12588300000.0 -12635100000.0 -12685000000.0 -12557400000.0 -12569500000.0 -12564200000.0 -12787700000.0 -12634600000.0 -12660800000.0 -12583300000.0 -12577000000.0 -12566500000.0 -12573700000.0 -12566900000.0 -12602000000.0 -12554000000.0 -12550800000.0 -12553400000.0 -12554400000.0 -12551600000.0 -12584000000.0 -12549700000.0 -12555900000.0 -12557200000.0 -12634000000.0 -12617800000.0 -12650400000.0 -12667000000.0 -12565600000.0 -12604200000.0 -12578700000.0 -12596800000.0 -12552200000.0 -12552400000.0 -12550400000.0 -12549700000.0 -12549700000.0 -12549700000.0 -12549800000.0 -12550800000.0 -12550100000.0 -12549700000.0 -12549700000.0 -12549700000.0 -12551500000.0 -12549700000.0 -12549700000.0 -12549700000.0 -12549700000.0 -12549700000.0 -12550200000.0 -12554500000.0 -12553000000.0 -12552800000.0 -12552600000.0 -12550900000.0 -12551400000.0 -12556300000.0 -12551900000.0 -12555100000.0 -12563900000.0 -12573100000.0 -12554900000.0 -12570000000.0 -12561100000.0 -12572400000.0 -12746600000.0 -12599000000.0 -13086200000.0 -12910300000.0 -13087900000.0 -12563400000.0 -12710200000.0 -13140900000.0 -12686900000.0 -13632200000.0 -12933000000.0 -13644300000.0 -13291700000.0 -12974600000.0 -12613700000.0 -12686600000.0 -12773200000.0 -12715200000.0 -13403900000.0 -12923100000.0 -12643800000.0 -12652600000.0 -12639700000.0 -12632600000.0 -12575500000.0 -12631900000.0 -12557700000.0 -12551900000.0 -12551100000.0 -12552600000.0 -12576900000.0 -12558900000.0 -12556600000.0 -12622900000.0 -12591200000.0 -12580400000.0 -12591000000.0 -12557900000.0 -12555800000.0 -12562600000.0 -12563400000.0 -12549900000.0 -12562000000.0 -12566000000.0 -12573300000.0 -12628100000.0 -12579100000.0 -12573200000.0 -12579400000.0 -12559000000.0 -12562200000.0 -12553000000.0 -12553900000.0 -12615000000.0 -12595900000.0 -12573000000.0 -12550800000.0 -12552900000.0 -12550400000.0 -12554100000.0 -12558700000.0 -12553800000.0 -12589500000.0 -12596900000.0 -12565300000.0 -12596900000.0 -12687900000.0 -12826400000.0 -12673200000.0 -12646400000.0 -13044400000.0 -12729500000.0 -12791300000.0 -13137600000.0 -13164700000.0 -12762500000.0 -12945200000.0 -13310300000.0 -12896800000.0 -12550700000.0 -12908500000.0 -13037100000.0 -13459900000.0 -12874700000.0 -12771200000.0 -12773800000.0 -13197700000.0 -12569300000.0 -12557200000.0 -12602800000.0 -12558200000.0 -12552100000.0 -12549700000.0 -12555900000.0 -12564800000.0 -12549700000.0 -12552300000.0 -12553000000.0 -12555200000.0 -12563000000.0 -12552100000.0 -12598600000.0 -12664100000.0 -12662800000.0 -12596500000.0 -12932700000.0 -12642600000.0 -12573900000.0 -13115900000.0 -12987900000.0 -12939000000.0 -12959600000.0 -12549700000.0 -12818300000.0 -12675500000.0 -13671900000.0 -12902900000.0 -13328200000.0 -13123500000.0 -12707900000.0 -12789100000.0 -12738300000.0 -13150400000.0 -12605600000.0 -12685200000.0 -12733200000.0 -12808500000.0 -12726700000.0 -12679900000.0 -13124000000.0 -13552400000.0 -12983800000.0 -13087500000.0 -12839200000.0 -12610600000.0 -14161900000.0 -13154500000.0 -13400900000.0 -12862200000.0 -12706900000.0 -12727200000.0 -12549700000.0 -13288700000.0 -12571000000.0 -12586700000.0 -12683300000.0 -12640000000.0 -12740200000.0 -12717400000.0 -13012900000.0 -12552600000.0 -12927100000.0 -12602700000.0 -12596300000.0 -13388500000.0 -13962500000.0 -12549700000.0 -12847100000.0 -13111400000.0 -12549700000.0 -12770200000.0 -12746300000.0 -13110200000.0 -12572200000.0 -12575900000.0 -12549700000.0 -12773100000.0 -12756900000.0 -13125400000.0 -13038200000.0 -12646800000.0 -12917400000.0 -12594400000.0 -12607300000.0 -13858300000.0 -12748200000.0 -12619100000.0 -13095200000.0 -12641000000.0 -12733300000.0 -12677700000.0 -12899900000.0 -12606200000.0 -12573400000.0 -12572000000.0 -12549700000.0 -12549700000.0 -12549700000.0 -12582000000.0 -12708300000.0 -12710600000.0 -12695100000.0 -12823900000.0 -12660300000.0 -12989500000.0 -12797200000.0 -12801700000.0 -13868800000.0 -12612500000.0 -12713500000.0 -12685300000.0 -12941000000.0 -12670900000.0 -12906900000.0 -12732600000.0 -12626400000.0 -12549700000.0 -12549700000.0 -12549700000.0 -12549700000.0 -12549700000.0 -12549700000.0 -12549700000.0 -12549700000.0 -12549700000.0 -12549700000.0 -12549700000.0 -12549700000.0 -12549700000.0 -12549700000.0 -12549700000.0 -12549700000.0 -12549700000.0 -12549700000.0 -12572400000.0 -12683500000.0 -12625900000.0 -12615100000.0 -12730900000.0 -12819900000.0 -12861500000.0 -12664400000.0 -12852600000.0 -13910000000.0 -12673400000.0 -12640600000.0 -12576600000.0 -13024700000.0 -13063100000.0 -13051500000.0 -12675900000.0 -12653200000.0 -12584700000.0 -12565500000.0 -12549700000.0 -12549700000.0 -12549700000.0 -12549700000.0 -12549700000.0 -12549700000.0 -12549700000.0 -12549700000.0 -12549700000.0 -12549700000.0 -12549700000.0 -12549700000.0 -12549700000.0 -12549700000.0 -12549700000.0 -12549700000.0 -12549700000.0 -12549700000.0 -12549700000.0 -12549700000.0 -12549700000.0 -12549700000.0 -12549700000.0 -12549700000.0 -12549700000.0 -12549700000.0 -12549700000.0 -12549700000.0 -12549700000.0 -12549700000.0 -12549700000.0 -12560600000.0 -12657700000.0 -12600600000.0 -12554800000.0 -12603400000.0 -12776500000.0 -13106900000.0 -13028900000.0 -12894200000.0 -12749400000.0 -12865900000.0 -13394500000.0 -12578600000.0 -12654400000.0 -12566400000.0 -12914800000.0 -12784900000.0 -12560300000.0 -12552400000.0 -12550800000.0 -12742600000.0 -12577300000.0 -12553200000.0 -12549700000.0 -12549700000.0 -12549700000.0 -12549700000.0 -12549700000.0 -12549700000.0 -12549700000.0 -12549700000.0 -12549700000.0 -12549700000.0 -12549700000.0 -12549700000.0 -12549700000.0 -12549700000.0 -12549700000.0 -12549700000.0 -12549700000.0 -12549700000.0 -12549700000.0 -12549700000.0 -12549700000.0 -12549700000.0 -12549700000.0 -12549700000.0 -12549700000.0 -12549700000.0 -12549700000.0 -12549700000.0 -12549700000.0 -12549700000.0 -12549700000.0 -12549700000.0 -12549700000.0 -12549700000.0 -12549700000.0 -12549700000.0 -12549700000.0 -12551700000.0 -12565100000.0 -12583200000.0 -12693400000.0 -12603400000.0 -12621100000.0 -12728300000.0 -12808500000.0 -12845300000.0 -12727600000.0 -12612500000.0 -12678700000.0 -12768100000.0 -13444800000.0 -12703000000.0 -12752800000.0 -12986900000.0 -12857800000.0 -12581500000.0 -12583100000.0 -12747400000.0 -12554600000.0 -12559500000.0 -12571000000.0 -12583100000.0 -12560200000.0 -12553200000.0 -12550100000.0 -12549800000.0 -12549700000.0 -12549700000.0 -12549700000.0 -12549700000.0 -12549700000.0 -12549700000.0 -12549700000.0 -12549700000.0 -12549700000.0 -12549700000.0 -12549700000.0 -12549700000.0 -12549700000.0 -12549700000.0 -12549700000.0 -12549700000.0 -12549700000.0 -12549700000.0 -12549700000.0 -12549700000.0 -12549700000.0 -12549700000.0 -12549700000.0 -12549700000.0 -12549700000.0 -12549700000.0 -12549700000.0 -12549700000.0 -12549700000.0 -12549700000.0 -12549700000.0 -12549700000.0 -12549700000.0 -12549700000.0 -12549700000.0 -12549700000.0 -12549700000.0 -12549700000.0 -12549700000.0 -12549700000.0 -12549700000.0 -12549800000.0 -12559900000.0 -12573500000.0 -12621100000.0 -12615800000.0 -12689200000.0 -12713500000.0 -12685100000.0 -12674100000.0 -12798800000.0 -12731700000.0 -12802800000.0 -13053000000.0 -12956100000.0 -13213100000.0 -13126900000.0 -12954300000.0 -12569900000.0 -12686000000.0 -12699100000.0 -12550500000.0 -12573100000.0 -12551500000.0 -12549700000.0 -12549700000.0 -12549700000.0 -12549700000.0 -12549700000.0 -12549700000.0 -12549700000.0 -12549700000.0 -12549700000.0 -12549700000.0 -12549700000.0 -12549700000.0 -12549700000.0 -12549700000.0 -12549700000.0 -12549700000.0 -12549700000.0 -12549700000.0 -12549700000.0 -12549700000.0 -12549700000.0 -12549700000.0 -12549700000.0 -12549700000.0 -12549700000.0 -12549700000.0 -12549700000.0 -12549700000.0 -12549700000.0 -12549700000.0 -12549700000.0 -12549700000.0 -12549700000.0 -12549700000.0 -12549700000.0 -12549700000.0 -12549700000.0 -12549700000.0 -12549700000.0 -12549700000.0 -12549700000.0 -12549700000.0 -12549700000.0 -12550000000.0 -12549700000.0 -12553300000.0 -12589400000.0 -12571100000.0 -12598700000.0 -12569300000.0 -12729400000.0 -12550300000.0 -12694400000.0 -12657100000.0 -12647100000.0 -12876600000.0 -12707200000.0 -13102400000.0 -12549700000.0 -12810000000.0 -12911000000.0 -13202300000.0 -12695700000.0 -12650000000.0 -12606000000.0 -12611100000.0 -12556100000.0 -12552300000.0 -12550400000.0 -12550100000.0 -12549900000.0 -12549700000.0 -12549700000.0 -12549700000.0 -12549700000.0 -12549700000.0 -12549700000.0 -12549700000.0 -12549700000.0 -12549700000.0 -12549700000.0 -12549700000.0 -12549700000.0 -12549700000.0 -12549700000.0 -12549700000.0 -12549700000.0 -12549700000.0 -12549700000.0 -12549700000.0 -12549700000.0 -12549700000.0 -12549700000.0 -12549700000.0 -12549700000.0 -12549700000.0 -12549700000.0 -12549700000.0 -12549700000.0 -12549700000.0 -12549700000.0 -12549700000.0 -12549700000.0 -12549700000.0 -12549700000.0 -12549700000.0 -12549700000.0 -12549700000.0 -12549700000.0 -12549700000.0 -12549700000.0 -12549700000.0 -12549700000.0 -12549700000.0 -12549700000.0 -12549700000.0 -12549700000.0 -12549700000.0 -12549700000.0 -12550100000.0 -12553500000.0 -12555300000.0 -12572700000.0 -12607000000.0 -12582100000.0 -12556300000.0 -12831000000.0 -12780100000.0 -12695500000.0 -12837300000.0 -12867900000.0 -12666600000.0 -12649500000.0 -12992800000.0 -12555900000.0 -12903700000.0 -12821100000.0 -12564500000.0 -12885200000.0 -12893400000.0 -12718300000.0 -12588100000.0 -12552300000.0 -12549700000.0 -12549700000.0 -12549700000.0 -12549700000.0 -12549700000.0 -12549700000.0 -12549700000.0 -12549700000.0 -12549700000.0 -12549700000.0 -12549700000.0 -12549700000.0 -12549700000.0 -12549700000.0 -12549700000.0 -12549700000.0 -12549700000.0 -12549700000.0 -12549700000.0 -12549700000.0 -12549700000.0 -12549700000.0 -12549700000.0 -12549700000.0 -12549700000.0 -12549700000.0 -12549700000.0 -12549700000.0 -12549700000.0 -12549700000.0 -12549700000.0 -12549700000.0 -12549700000.0 -12549700000.0 -12549700000.0 -12549700000.0 -12549700000.0 -12549700000.0 -12549700000.0 -12549700000.0 -12549700000.0 -12549700000.0 -12549700000.0 -12549700000.0 -12549700000.0 -12549700000.0 -12549700000.0 -12549700000.0 -12549700000.0 -12559200000.0 -12549700000.0 -12646100000.0 -12745100000.0 -12748500000.0 -12550000000.0 -12561400000.0 -12599500000.0 -12664000000.0 -12596400000.0 -12552700000.0 -12756800000.0 -12598800000.0 -12585400000.0 -12579700000.0 -12754700000.0 -12724900000.0 -12814000000.0 -12695400000.0 -12711000000.0 -12593200000.0 -12556700000.0 -12571200000.0 -12555400000.0 -12564200000.0 -12551000000.0 -12549700000.0 -12549700000.0 -12549700000.0 -12549700000.0 -12549700000.0 -12549700000.0 -12549700000.0 -12549700000.0 -12549700000.0 -12549700000.0 -12549700000.0 -12549700000.0 -12549700000.0 -12549700000.0 -12549700000.0 -12549700000.0 -12549700000.0 -12549700000.0 -12549700000.0 -12549700000.0 -12549700000.0 -12549700000.0 -12549700000.0 -12549700000.0 -12549700000.0 -12549700000.0 -12549700000.0 -12549700000.0 -12549700000.0 -12549700000.0 -12549700000.0 -12549700000.0 -12549700000.0 -12549700000.0 -12549700000.0 -12549700000.0 -12549700000.0 -12549700000.0 -12549700000.0 -12549700000.0 -12555100000.0 -12680900000.0 -12564100000.0 -12577700000.0 -12576700000.0 -12614400000.0 -12554600000.0 -12584800000.0 -12716300000.0 -12576500000.0 -12571900000.0 -12549700000.0 -12939100000.0 -12882200000.0 -12549700000.0 -12549700000.0 -12557400000.0 -12654600000.0 -12564700000.0 -12549700000.0 -12549700000.0 -12549700000.0 -12549700000.0 -12549700000.0 -12549700000.0 -12549700000.0 -12549700000.0 -12549700000.0 -12549700000.0 -12549700000.0 -12549700000.0 -12549700000.0 -12549700000.0 -12549700000.0 -12549700000.0 -12549700000.0 -12549700000.0 -12549700000.0 -12549700000.0 -12549700000.0 -12549700000.0 -12549700000.0 -12549700000.0 -12549700000.0 -12549700000.0 -12549700000.0 -12549700000.0 -12549700000.0 -12549700000.0 -12549700000.0 -12549700000.0 -12549700000.0 -12549700000.0 -12549700000.0 -12549700000.0 -12549700000.0 -12549700000.0 -12549700000.0 -12549700000.0 -12549700000.0 -12549700000.0 -12549700000.0 -12549700000.0 -12549700000.0 -12549700000.0 -12549700000.0 -12558500000.0 -12624400000.0 -12640600000.0 -12566600000.0 -12570500000.0 -12570500000.0 -12572200000.0 -12550100000.0 -12627800000.0 -12634000000.0 -12553900000.0 -12563100000.0 -12551600000.0 -12820600000.0 -12560100000.0 -12851400000.0 -12647900000.0 -12658400000.0 -12562600000.0 -12549700000.0 -12549700000.0 -12549700000.0 -12549700000.0 -12549700000.0 -12549700000.0 -12549700000.0 -12549700000.0 -12549700000.0 -12549700000.0 -12549700000.0 -12549700000.0 -12549700000.0 -12549700000.0 -12549700000.0 -12549700000.0 -12549700000.0 -12549700000.0 -12549700000.0 -12549700000.0 -12549700000.0 -12549700000.0 -12549700000.0 -12549700000.0 -12549700000.0 -12549700000.0 -12549700000.0 -12549700000.0 -12549700000.0 -12549700000.0 -12549700000.0 -12549700000.0 -12549700000.0 -12549700000.0 -12549700000.0 -12549700000.0 -12549700000.0 -12549700000.0 -12563900000.0 -12581700000.0 -12602700000.0 -12577100000.0 -12570100000.0 -12579800000.0 -12589000000.0 -12623200000.0 -12635900000.0 -12710700000.0 -12651200000.0 -12766200000.0 -12896300000.0 -12583600000.0 -12673700000.0 -12670900000.0 -12599100000.0 -12626500000.0 -12569000000.0 -12558100000.0 -12549700000.0 -12549700000.0 -12549700000.0 -12549700000.0 -12549700000.0 -12549700000.0 -12549700000.0 -12549700000.0 -12549700000.0 -12549700000.0 -12549700000.0 -12549700000.0 -12549700000.0 -12549700000.0 -12549700000.0 -12549700000.0 -12549700000.0 -12549700000.0 -12549700000.0 -12549700000.0 -12549700000.0 -12549700000.0 -12549700000.0 -12549700000.0 -12549700000.0 -12549700000.0 -12549700000.0 -12549700000.0 -12549700000.0 -12549700000.0 -12549700000.0 -12549700000.0 -12549700000.0 -12550900000.0 -12549800000.0 -12579400000.0 -12555000000.0 -12594400000.0 -12550500000.0 -12569100000.0 -12583600000.0 -12665200000.0 -12616100000.0 -12583400000.0 -12662600000.0 -12555500000.0 -12686100000.0 -12549700000.0 -12705600000.0 -12652200000.0 -12568300000.0 -12594300000.0 -12550300000.0 -12552200000.0 -12549700000.0 -12549700000.0 -12549700000.0 -12549700000.0 -12549700000.0 -12549700000.0 -12549700000.0 -12549700000.0 -12549700000.0 -12549700000.0 -12549700000.0 -12549700000.0 -12549700000.0 -12549700000.0 -12549700000.0 -12549700000.0 -12549700000.0 -12549700000.0 -12549700000.0 -12549700000.0 -12549700000.0 -12549700000.0 -12549700000.0 -12549700000.0 -12549700000.0 -12549700000.0 -12549700000.0 -12549700000.0 -12549700000.0 -12549700000.0 -12552800000.0 -12577100000.0 -12553500000.0 -12591200000.0 -12555200000.0 -12569800000.0 -12592000000.0 -12608900000.0 -12597400000.0 -12550600000.0 -12621000000.0 -12556300000.0 -12583500000.0 -12707900000.0 -12575700000.0 -12621800000.0 -12592000000.0 -12599500000.0 -12572000000.0 -12583300000.0 -12553400000.0 -12549700000.0 -12549700000.0 -12549700000.0 -12549700000.0 -12549700000.0 -12549700000.0 -12549700000.0 -12549700000.0 -12549700000.0 -12549700000.0 -12549700000.0 -12549700000.0 -12549700000.0 -12549700000.0 -12549700000.0 -12549700000.0 -12549700000.0 -12549700000.0 -12549700000.0 -12549700000.0 -12549700000.0 -12549700000.0 -12549700000.0 -12549700000.0 -12549700000.0 -12594300000.0 -12600100000.0 -12603900000.0 -12609400000.0 -12625700000.0 -12669100000.0 -12625000000.0 -12642200000.0 -12663800000.0 -12673400000.0 -12673400000.0 -12720600000.0 -12557500000.0 -12609000000.0 -12550800000.0 -12550000000.0 -12574400000.0 -12569200000.0 -12563600000.0 -12549700000.0 -12549700000.0 -12549700000.0 -12549700000.0 -12549700000.0 -12549700000.0 -12549700000.0 -12549700000.0 -12549700000.0 -12549700000.0 -12549700000.0 -12549700000.0 -12549700000.0 -12549700000.0 -12549700000.0 -12549700000.0 -12553400000.0 -12575000000.0 -12561800000.0 -12558600000.0 -12563800000.0 -12558300000.0 -12567000000.0 -12599400000.0 -12596200000.0 -12636600000.0 -12608200000.0 -12555100000.0 -12549700000.0 -12551900000.0 -12673200000.0 -12600300000.0 -12591600000.0 -12549700000.0 -12549700000.0 -12562800000.0 -12556600000.0 -12554000000.0 -12549700000.0 -12549700000.0 -12549700000.0 -12549700000.0 -12549700000.0 -12549700000.0 -12549700000.0 -12549700000.0 -12549700000.0 -12549700000.0 -12549700000.0 -12549700000.0 -12549700000.0 -12549700000.0 -12549700000.0 -12551300000.0 -12565100000.0 -12566800000.0 -12566000000.0 -12563800000.0 -12562800000.0 -12565700000.0 -12589900000.0 -12558700000.0 -12566600000.0 -12571800000.0 -12556700000.0 -12573800000.0 -12555700000.0 -12638800000.0 -12549700000.0 -12591600000.0 -12567200000.0 -12555100000.0 -12552300000.0 -12549700000.0 -12549700000.0 -12549700000.0 -12549700000.0 -12549700000.0 -12549700000.0 -12549700000.0 -12549700000.0 -12549700000.0 -12549700000.0 -12549700000.0 -12549700000.0 -12549700000.0 -12549700000.0 -12549700000.0 -12549700000.0 -12549900000.0 -12550600000.0 -12554600000.0 -12550400000.0 -12552300000.0 -12550800000.0 -12554200000.0 -12569500000.0 -12552000000.0 -12559800000.0 -12566700000.0 -12550000000.0 -12573900000.0 -12567500000.0 -12587600000.0 -12589000000.0 -12549700000.0 -12596100000.0 -12549700000.0 -12549700000.0 -12552000000.0 -12549700000.0 -12549700000.0 -12549700000.0 -12549700000.0 -12549700000.0 -12549700000.0 -12549700000.0 -12549700000.0 -12550100000.0 -12559300000.0 -12549800000.0 -12553500000.0 -12549700000.0 -12549700000.0 -12550400000.0 -12561800000.0 -12552400000.0 -12549700000.0 -12550600000.0 -12568000000.0 -12560000000.0 -12559200000.0 -12555000000.0 -12560800000.0 -12555300000.0 -12551300000.0 -12550000000.0 -12579200000.0 -12569100000.0 -12555000000.0 -12549700000.0 -12549700000.0 -12549700000.0 -12549700000.0 -12549700000.0 -12549700000.0 -12549700000.0 -12549700000.0 -12550300000.0 -12552200000.0 -12550900000.0 -12550300000.0 -12550000000.0 -12556700000.0 -12549700000.0 -12565500000.0 -12558000000.0 -12549700000.0 -12549700000.0 -12549700000.0 -12551900000.0 -12550700000.0 -12550400000.0 -12549900000.0 -12552800000.0 -12549700000.0 -12549700000.0 -12549700000.0 -12549700000.0 -12549700000.0 -12549700000.0 -12549700000.0 -12549700000.0 -12549700000.0 -12549700000.0 -12549700000.0 -12549700000.0 -12549900000.0 -12550100000.0 -12551100000.0 -12550900000.0 -12551100000.0 -12551700000.0 -12555800000.0 -12554700000.0 -12558000000.0 -12549800000.0 -12550400000.0 -12551100000.0 -12550400000.0 -12550300000.0 -12550300000.0 -12549800000.0 -12549700000.0 -12549700000.0 -12550300000.0 -12549700000.0 -12549700000.0 -12549700000.0 -12549700000.0 -12549700000.0 -12549700000.0 -12549700000.0 -12549700000.0 -12549700000.0 -12549700000.0 -12549700000.0 -12549700000.0 -12549700000.0 -12549700000.0 -12549700000.0 -12549700000.0 -12549700000.0 -12549700000.0 -12549700000.0 -12549700000.0 -12549700000.0 -12549700000.0 -12549700000.0 -12549700000.0 -12549700000.0 -12549700000.0 -2.66993e+12 -4.12673e+12 -3.68537e+12 -4.86492e+12 -4.04959e+12 -4.11007e+12 -3.93244e+12 -3.78385e+12 -3.54037e+12 -3.19016e+12 -5.79843e+12 -3.00506e+12 -3.50403e+12 -5.11094e+12 -4.7848e+12 -6.33803e+12 -4.40398e+12 -3.20213e+12 -3.93348e+12 -3.02326e+12 -4.29956e+12 -5.18321e+12 -5.40287e+12 -4.94479e+12 -4.9099e+12 -3.71125e+12 -3.63175e+12 -3.91288e+12 -4.39746e+12 -4.02011e+12 -5.41839e+12 -5.23313e+12 -3.40541e+12 -2.61825e+12 -2.97466e+12 -3.79954e+12 -4.64488e+12 -6.26479e+12 -3.59234e+12 -4.52368e+12 -4.61366e+12 -3.8329e+12 -3.61735e+12 -3.15761e+12 -3.80616e+12 -3.62294e+12 -2.34933e+12 -2.69542e+12 -3.72162e+12 -12549700000.0 -2.78721e+12 -2.12351e+12 -1.78868e+12 -3.46853e+12 -4.83655e+12 -5.38193e+12 -4.02799e+12 -6.67135e+12 -4.47528e+12 -3.01548e+12 -4.72217e+12 -4.49613e+12 -4.23347e+12 -3.92969e+12 -5.93e+12 -6.56102e+12 -5.32635e+12 -3.7436e+12 -5.3203e+12 -7.37997e+12 -4.56235e+12 -5.01906e+12 -5.73115e+12 -4.62929e+12 -4.44654e+12 -6.6625e+12 -5.99583e+12 -2.57237e+12 -4.09224e+12 -3.82839e+12 -3.75935e+12 -4.66959e+12 -4.05119e+12 -3.92307e+12 -5.22428e+12 -4.62638e+12 -3.89866e+12 -4.41373e+12 -4.55709e+12 -2.69731e+12 -5.22338e+12 -4.14328e+12 -5.77511e+12 -6.48467e+12 -6.15977e+12 -5.76875e+12 -5.19112e+12 -4.80981e+12 -6.62432e+12 -4.29335e+12 -4.90245e+12 -6.25827e+12 -4.15327e+12 -4.89809e+12 -2.84852e+12 -2.60037e+12 -6.62773e+12 -5.45002e+12 -8.61556e+12 -6.15506e+12 -6.11244e+12 -7.73526e+12 -1.1145e+13 -5.48256e+12 -7.26498e+12 -4.07683e+12 -5.7184e+12 -4.73467e+12 -7.20402e+12 -7.03808e+12 -1.86948e+12 -5.20184e+12 -6.89596e+12 -4.28287e+12 -4.77016e+12 -6.09644e+12 -2.51937e+12 -5.83044e+12 -5.47372e+12 -6.83661e+12 -7.16708e+12 -1.11888e+13 -5.34931e+12 -6.22544e+12 -6.34371e+12 -5.45401e+12 -9.07823e+12 -7.69432e+12 -8.75475e+12 -5.61439e+12 -5.77345e+12 -8.90845e+12 -9.28781e+12 -8.0386e+12 -5.46745e+12 -5.22372e+12 -7.44685e+12 -6.31583e+12 -7.69309e+12 -7.08293e+12 -6.61961e+12 -6.98032e+12 -4.72451e+12 -8.26331e+12 -7.47718e+12 -1.08557e+13 -2.76466e+12 -3.95822e+12 -3.15993e+12 -5.00761e+12 -7.72478e+12 -9.94722e+12 -6.02208e+12 -8.20557e+12 -5.29317e+12 -6.85104e+12 -6.55294e+12 -2.8994e+12 -4.33749e+12 -4.12762e+12 -4.93572e+12 -4.67114e+12 -5.83765e+12 -5.04579e+12 -6.45011e+12 -9.17564e+12 -4.96941e+12 -4.06092e+12 -6.06564e+12 -3.85312e+12 -7.11199e+12 -7.19692e+12 -3.70111e+12 -4.77512e+12 -4.92482e+12 -3.73572e+12 -2.41375e+12 -5.42506e+12 -4.30501e+12 -8.68947e+12 -8.10931e+12 -2.28292e+12 -5.2515e+12 -1.01804e+13 -3.26238e+12 -4.98484e+12 -3.96707e+12 -2.36423e+12 -7.16214e+12 -7.55208e+12 -4.29881e+12 -4.23951e+12 -6.28216e+12 -6.15938e+12 -1.0662e+13 -6.56293e+12 -1.03286e+13 -7.25148e+12 -5.23746e+12 -9.00848e+12 -7.81348e+12 -5.33941e+12 -6.5671e+12 -7.65942e+12 -7.36065e+12 -4.62467e+12 -6.74266e+12 -8.8319e+12 -1.03468e+13 -5.11259e+12 -7.64616e+12 -7.79831e+12 -4.61267e+12 -5.65757e+12 -4.93503e+12 -8.34571e+12 -6.44031e+12 -6.83786e+12 -8.3946e+12 -6.81866e+12 -6.2765e+12 -6.22251e+12 -7.09491e+12 -5.4901e+12 -1.49333e+12 -2.93413e+12 -5.61165e+12 -4.98154e+12 -4.29863e+12 -5.56126e+12 -6.43955e+12 -8.50824e+12 -1.02126e+13 -6.89747e+12 -5.63843e+12 -4.94214e+12 -6.35241e+12 -7.23658e+12 -3.804e+12 -6.44354e+12 -8.25382e+12 -5.72855e+12 -7.0804e+12 -4.92124e+12 -6.03628e+12 -7.99051e+12 -6.32202e+12 -5.95085e+12 -9.71592e+12 -5.50757e+12 -6.79392e+12 -7.36881e+12 -8.34515e+12 -4.09754e+12 -5.4028e+12 -4.7105e+12 -6.53529e+12 -7.28601e+12 -6.97103e+12 -5.09661e+12 -7.81199e+12 -6.07888e+12 -5.42011e+12 -5.12088e+12 -7.44471e+12 -9.09314e+12 -4.72647e+12 -6.39083e+12 -1.74892e+12 -3.5601e+12 -4.62949e+12 -6.71878e+12 -6.87637e+12 -4.23444e+12 -5.93296e+12 -2.25512e+12 -5.59737e+12 -7.2719e+12 -5.6576e+12 -5.96474e+12 -4.96998e+12 -5.73425e+12 -6.96828e+12 -6.60813e+12 -6.70042e+12 -6.88801e+12 -5.0027e+12 -8.63596e+12 -7.61904e+12 -6.15064e+12 -5.73854e+12 -5.39525e+12 -8.37696e+12 -6.50323e+12 -4.94566e+12 -7.61142e+12 -6.51597e+12 -6.46641e+12 -8.36097e+12 -5.80566e+12 -3.92492e+12 -9.04598e+12 -4.8074e+12 -6.02539e+12 -4.78828e+12 -9.57165e+12 -4.15889e+12 -7.4659e+12 -5.40351e+12 -5.39079e+12 -6.21895e+12 -7.14221e+12 -3.89964e+12 -1.06369e+13 -8.03688e+12 -4.51221e+12 -6.38428e+12 -7.38788e+12 -3.9759e+12 -4.92051e+12 -7.08396e+12 -4.96074e+12 -4.77101e+12 -4.06811e+12 -5.1227e+12 -3.10824e+12 -4.79632e+12 -4.54272e+12 -4.4241e+12 -6.17573e+12 -6.55601e+12 -1.09529e+13 -5.20021e+12 -8.09826e+12 -9.40803e+12 -6.78969e+12 -2.96448e+12 -6.73521e+12 -5.78944e+12 -2.65802e+12 -4.45771e+12 -3.83819e+12 -5.89898e+12 -4.26115e+12 -3.83334e+12 -7.53193e+12 -5.63952e+12 -5.47241e+12 -4.05668e+12 -5.77643e+12 -1.03669e+13 -6.62027e+12 -6.10453e+12 -3.86209e+12 -9.33952e+12 -9.62089e+12 -7.617e+12 -3.74528e+12 -7.95535e+12 -4.59989e+12 -6.11208e+12 -4.85944e+12 -6.40214e+12 -5.10442e+12 -6.1361e+12 -6.50814e+12 -6.51529e+12 -6.0971e+12 -4.46236e+12 -7.28396e+12 -8.08582e+12 -4.95603e+12 -5.82422e+12 -8.34839e+12 -3.78589e+12 -3.89218e+12 -3.66331e+12 -5.96564e+12 -4.02296e+12 -5.88124e+12 -3.86812e+12 -5.21271e+12 -4.91168e+12 -7.49437e+12 -7.57117e+12 -9.10174e+12 -4.54434e+12 -4.13607e+12 -3.07347e+12 -2.14699e+12 -6.6088e+12 -4.42837e+12 -8.96922e+12 -7.36344e+12 -6.21479e+12 -1.01605e+13 -5.1112e+12 -3.77922e+12 -4.60786e+12 -5.9195e+12 -4.82393e+12 -4.98998e+12 -6.3082e+12 -4.84436e+12 -6.15211e+12 -4.95567e+12 -4.99032e+12 -4.16397e+12 -5.21139e+12 -4.13684e+12 -4.67441e+12 -4.17163e+12 -7.32321e+12 -7.36031e+12 -8.21174e+12 -7.20665e+12 -4.04877e+12 -4.84128e+12 -4.32139e+12 -3.54771e+12 -2.31077e+12 -6.1489e+12 -4.46153e+12 -4.44321e+12 -5.1791e+12 -8.04433e+12 -6.63153e+12 -7.38407e+12 -6.03357e+12 -4.2347e+12 -5.41648e+12 -5.43503e+12 -3.27321e+12 -5.92895e+12 -3.85672e+12 -5.63251e+12 -7.60453e+12 -5.31973e+12 -4.57938e+12 -6.08203e+12 -6.2264e+12 -6.14832e+12 -6.83381e+12 -5.53579e+12 -4.06157e+12 -5.16344e+12 -3.21702e+12 -4.56106e+12 -5.90743e+12 -4.42669e+12 -5.27332e+12 -3.83352e+12 -7.93057e+12 -4.78522e+12 -7.81099e+12 -5.30926e+12 -4.44262e+12 -5.87797e+12 -4.32908e+12 -5.97033e+12 -5.7338e+12 -7.33495e+12 -4.23414e+12 -8.26714e+12 -4.33387e+12 -8.61073e+12 -3.43984e+12 -3.52316e+12 -3.01238e+12 -2.92641e+12 -2.3001e+12 -3.76269e+12 -3.78229e+12 -8.53788e+12 -2.91697e+12 -3.6262e+12 -3.0228e+12 -5.12566e+12 -5.44041e+12 -5.53533e+12 -4.67559e+12 -2.56038e+12 -5.00657e+12 -7.53745e+12 -6.79135e+12 -7.67192e+12 -6.33132e+12 -6.79217e+12 -3.56213e+12 -4.02609e+12 -5.73702e+12 -6.26201e+12 -6.01257e+12 -7.56424e+12 -4.38555e+12 -5.86781e+12 -5.5082e+12 -5.75855e+12 -3.29218e+12 -3.58806e+12 -4.2769e+12 -5.5053e+12 -5.32183e+12 -3.52527e+12 -4.409e+12 -4.29676e+12 -7.34436e+12 -6.04321e+12 -3.20473e+12 -4.05351e+12 -2.82213e+12 -7.3847e+12 -4.41081e+12 -5.72782e+12 -3.78402e+12 -4.23077e+12 -4.94973e+12 -2.98401e+12 -4.44435e+12 -1.00951e+13 -4.38828e+12 -6.90979e+12 -6.68082e+12 -7.9824e+12 -4.16508e+12 -4.50327e+12 -650032000000.0 -5.97524e+12 -4.13289e+12 -9.71138e+12 -4.21866e+12 -5.01159e+12 -5.3076e+12 -4.94397e+12 -4.19034e+12 -3.78464e+12 -4.60454e+12 -2.9567e+12 -4.88902e+12 -4.21034e+12 -7.00793e+12 -6.11734e+12 -4.69317e+12 -2.74083e+12 -6.76504e+12 -6.65827e+12 -4.10721e+12 -8.10749e+12 -6.03998e+12 -5.1657e+12 -7.51324e+12 -7.48585e+12 -4.16458e+12 -7.18877e+12 -2.7977e+12 -6.02346e+12 -6.74574e+12 -5.81906e+12 -3.4166e+12 -3.76038e+12 -6.75836e+12 -5.16335e+12 -7.59409e+12 -7.24663e+12 -6.00768e+12 -7.55318e+12 -3.1104e+12 -4.40114e+12 -4.93866e+12 -3.51098e+12 -4.66482e+12 -5.40615e+12 -5.59539e+12 -3.6226e+12 -2.18109e+12 -2.29466e+12 -2.86166e+12 -2.02099e+12 -5.03721e+12 -7.24271e+12 -4.4364e+12 -3.71906e+12 -3.67297e+12 -3.75505e+12 -2.79942e+12 -7.36047e+12 -4.6539e+12 -4.06789e+12 -3.91357e+12 -5.25745e+12 -6.41912e+12 -5.43005e+12 -3.05622e+12 -3.97513e+12 -3.68842e+12 -4.44352e+12 -3.73468e+12 -5.33006e+12 -4.91828e+12 -5.36113e+12 -3.18523e+12 -3.42401e+12 -6.2757e+12 -5.00236e+12 -4.25144e+12 -5.13913e+12 -3.36287e+12 -1.98007e+12 -3.65264e+12 -4.58871e+12 -5.65435e+12 -5.90521e+12 -7.25936e+12 -2.59114e+12 -2.89982e+12 -4.44875e+12 -3.43055e+12 -4.39818e+12 -5.85782e+12 -2.21028e+12 -6.06096e+12 -4.47773e+12 -4.95939e+12 -6.1445e+12 -5.25385e+12 -4.46552e+12 -3.29338e+12 -2.7991e+12 -5.24279e+12 -3.68613e+12 -6.39536e+12 -7.64858e+12 -5.68262e+12 -5.69363e+12 -3.28816e+12 -6.92736e+12 -5.47615e+12 -2.02328e+12 -5.8324e+12 -2.48247e+12 -6.29602e+12 -6.17318e+12 -4.37524e+12 -5.7664e+12 -3.92393e+12 -4.67347e+12 -6.12523e+12 -5.4451e+12 -5.83252e+12 -6.01205e+12 -5.82024e+12 -5.69757e+12 -6.17479e+12 -5.20231e+12 -2.51166e+12 -6.33317e+12 -1.68215e+12 -5.30136e+12 -4.74386e+12 -3.58542e+12 -1.44558e+12 -4.80822e+12 -5.26325e+12 -4.24933e+12 -5.65185e+12 -3.67614e+12 -4.79799e+12 -8.55431e+12 -3.33995e+12 -5.46714e+12 -3.17823e+12 -6.62431e+12 -3.20115e+12 -5.50981e+12 -4.18331e+12 -3.88415e+12 -4.97694e+12 -3.92191e+12 -3.50246e+12 -5.95413e+12 -5.41306e+12 -1.97819e+12 -6.48047e+12 -2.45449e+12 -3.87389e+12 -3.76741e+12 -4.37768e+12 -3.88401e+12 -3.0183e+12 -4.36703e+12 -4.29477e+12 -6.26723e+12 -1.83074e+12 -4.73096e+12 -4.26462e+12 -5.57938e+12 -5.97504e+12 -6.83248e+12 -3.62893e+12 -4.89365e+12 -4.56656e+12 -3.82444e+12 -2.60061e+12 -4.39612e+12 -3.97852e+12 -3.94637e+12 -4.28517e+12 -6.80391e+12 -6.86182e+12 -4.04791e+12 -8.42308e+12 -2.74601e+12 -5.96603e+12 -2.86509e+12 -4.00362e+12 -3.41501e+12 -3.67791e+12 -2.49686e+12 -3.61284e+12 -6.01782e+12 -3.90737e+12 -4.87418e+12 -5.82464e+12 -5.79223e+12 -3.67264e+12 -6.50051e+12 -3.10236e+12 -2.31179e+12 -5.96035e+12 -4.60457e+12 -5.268e+12 -4.29776e+12 -2.77968e+12 -1.98024e+12 -6.6959e+12 -2.7709e+12 -4.09252e+12 -3.9968e+12 -6.62025e+12 -4.01496e+12 -5.61506e+12 -3.02585e+12 -4.57885e+12 -4.93385e+12 -3.8478e+12 -4.9988e+12 -3.02484e+12 -5.87578e+12 -4.92277e+12 -4.42943e+12 -5.38431e+12 -2.93623e+12 -3.71708e+12 -2.80936e+12 -3.84188e+12 -4.02652e+12 -4.59713e+12 -2.40972e+12 -3.83294e+12 -3.03519e+12 -4.60592e+12 -5.32849e+12 -2.66551e+12 -4.99589e+12 -4.31433e+12 -3.49306e+12 -2.72285e+12 -4.29073e+12 -3.06161e+12 -3.51881e+12 -3.72929e+12 -3.50558e+12 -5.57858e+12 -3.26548e+12 -2.89281e+12 -4.14863e+12 -3.45159e+12 -3.03887e+12 -2.78454e+12 -2.97492e+12 -2.20627e+12 -3.86907e+12 -2.46829e+12 -4.22653e+12 -3.76263e+12 -4.63506e+12 -2.72185e+12 -3.36348e+12 -2.91222e+12 -4.56083e+12 -2.65548e+12 -4.24508e+12 -2.14203e+12 -3.41039e+12 -4.04933e+12 -3.7566e+12 -2.7695e+12 -2.73086e+12 -4.123e+12 -5.50641e+12 -2.50334e+12 -3.05132e+12 -5.11904e+12 -5.24085e+12 -4.34444e+12 -2.3201e+12 -3.29275e+12 -2.75518e+12 -1.93582e+12 -4.40518e+12 -3.55201e+12 -4.09161e+12 -1.72847e+12 -3.11246e+12 -5.5665e+12 -3.07489e+12 -4.75318e+12 -2.36428e+12 -5.68184e+12 -2.72921e+12 -6.19657e+12 -6.98073e+12 -5.03494e+12 -5.56304e+12 -3.0122e+12 -2.31896e+12 -3.19142e+12 -2.77751e+12 -2.23039e+12 -4.52717e+12 -2.66942e+12 -2.88898e+12 -3.22998e+12 -1.09169e+12 -3.16656e+12 -788667000000.0 -3.89184e+12 -1.46265e+12 -4.50346e+12 -2.88415e+12 -4.30766e+12 -3.0026e+12 -3.06601e+12 -3.94721e+12 -2.24233e+12 -3.41343e+12 -2.22602e+12 -4.57137e+12 -5.50145e+12 -1.63082e+12 -3.03381e+12 -4.28703e+12 -2.97913e+12 -3.85081e+12 -5.51429e+12 -4.07621e+12 -5.20718e+12 -2.51963e+12 -2.57397e+12 -3.19118e+12 -6.83508e+12 -2.74976e+12 -2.21444e+12 -3.04905e+12 -2.07354e+12 -2.00904e+12 -2.21953e+12 -2.85592e+12 -4.62969e+12 -1.98638e+12 -3.05254e+12 -2.69217e+12 -3.8092e+12 -2.04051e+12 -4.58465e+12 -2.5259e+12 -2.14531e+12 -1.62485e+12 -4.00396e+12 -2.7332e+12 -3.08078e+12 -2.45918e+12 -3.20724e+12 -4.35858e+12 -3.4308e+12 -1.83131e+12 -2.92594e+12 -3.68211e+12 -2.36828e+12 -2.65871e+12 -3.16472e+12 -3.54767e+12 -2.78913e+12 -2.70964e+12 -2.846e+12 -1.93073e+12 -3.82171e+12 -5.17005e+12 -2.11585e+12 -4.15023e+12 -4.85033e+12 -3.50675e+12 -2.60179e+12 -3.35768e+12 -3.08384e+12 -1.46814e+12 -2.96401e+12 -2.96339e+12 -1.38449e+12 -2.83022e+12 -2.98956e+12 -2.78432e+12 -1.15919e+12 -3.23029e+12 -4.27405e+12 -2.94759e+12 -3.3219e+12 -3.04074e+12 -4.30413e+12 -2.88568e+12 -2.876e+12 -1.70282e+12 -1.73989e+12 -3.27759e+12 -2.96027e+12 -5.78221e+12 -2.03003e+12 -3.73874e+12 -3.71884e+12 -2.14185e+12 -2.21256e+12 -2.91834e+12 -3.22277e+12 -1.57848e+12 -3.60675e+12 -5.32394e+12 -3.17084e+12 -1.66081e+12 -2.22161e+12 -3.02866e+12 -2.62764e+12 -2.58511e+12 -2.49111e+12 -3.03754e+12 -2.51467e+12 -1.98668e+12 -4.24419e+12 -3.2324e+12 -2.18287e+12 -5.0994e+12 -2.86306e+12 -3.6268e+12 -4.09774e+12 -4.89406e+12 -1.74678e+12 -2.73509e+12 -3.50706e+12 -3.13956e+12 -3.05091e+12 -3.5506e+12 -4.75599e+12 -2.5201e+12 -3.01067e+12 -1.96063e+12 -5.04383e+12 -3.42498e+12 -1.93426e+12 -2.49245e+12 -3.43813e+12 -4.60293e+12 -3.47996e+12 -3.29891e+12 -2.12251e+12 -2.65566e+12 -2.30028e+12 -2.08105e+12 -2.34454e+12 -203335000000.0 -2.45231e+12 -2.47182e+12 -1.68884e+12 -3.54189e+12 -2.58453e+12 -2.21086e+12 -1.91538e+12 -2.13155e+12 -1.42347e+12 -1.64554e+12 -1.02651e+12 -2.90778e+12 -2.8042e+12 -2.13114e+12 -4.26505e+12 -3.10759e+12 -2.83094e+12 -3.48244e+12 -1.76099e+12 -1.41111e+12 -2.89511e+12 -4.44104e+12 -2.33402e+12 -4.16228e+12 -3.16886e+12 -1.58302e+12 -2.50254e+12 -3.89939e+12 -4.34868e+12 -5.6204e+12 -2.03223e+12 -1.77756e+12 -2.65635e+12 -1.65076e+12 -2.67525e+12 -1.796e+12 -1.7533e+12 -1.45577e+12 -2.03645e+12 -2.49667e+12 -1.76465e+12 -3.73468e+12 -1.22573e+12 -2.18548e+12 -3.81117e+12 -2.19838e+12 -1.22728e+12 -1.99732e+12 -911578000000.0 -1.19114e+12 -4.05789e+12 -2.77859e+12 -1.90514e+12 -2.1864e+12 -3.33887e+12 -1.71495e+12 -3.2888e+12 -1.74535e+12 -2.5925e+12 -3.08814e+12 -3.64817e+12 -2.30892e+12 -2.04369e+12 -2.02038e+12 -2.19135e+12 -1.73103e+12 -1.51717e+12 -3.11974e+12 -4.15088e+12 -5.00625e+12 -2.96288e+12 -4.36494e+12 -3.06355e+12 -3.37631e+12 -1.46193e+12 -3.98721e+12 -1.14151e+12 -1.53015e+12 -2.3658e+12 -1.36916e+12 -1.94038e+12 -1.93838e+12 -2.55297e+12 -3.59174e+12 -3.42951e+12 -3.12094e+12 -770506000000.0 -1.96552e+12 -3.65305e+12 -2.92036e+12 -2.5647e+12 -1.14368e+12 -2.67415e+12 -1.66276e+12 -2.8912e+12 -1.05727e+12 -2.55934e+12 -1.31764e+12 -1.33993e+12 -1.95029e+12 -1.34108e+12 -835711000000.0 -1.80748e+12 -2.13649e+12 -1.46647e+12 -1.37837e+12 -1.25672e+12 -2.27505e+12 -1.67524e+12 -1.81256e+12 -1.36235e+12 -2.07208e+12 -2.09982e+12 -2.40438e+12 -2.00072e+12 -1.70661e+12 -1.78171e+12 -2.67641e+12 -1.12037e+12 -2.3781e+12 -2.4606e+12 -2.29233e+12 -1.35087e+12 -3.54522e+12 -1.4293e+12 -2.21199e+12 -2.20342e+12 -1.53851e+12 -2.74775e+12 -1.51483e+12 -2.49161e+12 -1.01864e+12 -400951000000.0 -1.67204e+12 -2.10333e+12 -3.29474e+12 -2.91854e+12 -2.65697e+12 -1.60754e+12 -1.65377e+12 -1.92385e+12 -3.04196e+12 -1.2941e+12 -2.9554e+12 -1.2578e+12 -2.15917e+12 -1.37318e+12 -766718000000.0 -1.93311e+12 -2.33658e+12 -675225000000.0 -1.88774e+12 -2.52994e+12 -1.89281e+12 -2.85315e+12 -1.73738e+12 -3.22383e+12 -1.19346e+12 -1.74434e+12 -2.40412e+12 -951864000000.0 -1.75514e+12 -1.42852e+12 -3.61917e+12 -2.58807e+12 -1.96387e+12 -2.4968e+12 -895126000000.0 -2.67008e+12 -893454000000.0 -2.19844e+12 -2.86908e+12 -2.17299e+12 -1.4642e+12 -2.01462e+12 -1.44403e+12 -1.50945e+12 -1.14838e+12 -1.88913e+12 -844178000000.0 -2.12628e+12 -3.10267e+12 -3.01983e+12 -3.1671e+12 -2.84712e+12 -1.29556e+12 -1.55306e+12 -1.96549e+12 -1.79455e+12 -1.92119e+12 -3.02436e+12 -1.65032e+12 -1.90228e+12 -1.21623e+12 -2.07026e+12 -331514000000.0 -2.21675e+12 -465502000000.0 -1.28698e+12 -2.11197e+12 -2.10733e+12 -887123000000.0 -998006000000.0 -1.51448e+12 -944966000000.0 -1.3113e+12 -1.44211e+12 -1.11518e+12 -930542000000.0 -2.23156e+12 -1.57152e+12 -1.8353e+12 -961564000000.0 -1.61166e+12 -1.30265e+12 -2.29426e+12 -856390000000.0 -1.23941e+12 -1.28868e+12 -1.95082e+12 -577045000000.0 -1.12653e+12 -1.20313e+12 -1.07505e+12 -1.16902e+12 -839460000000.0 -2.17475e+12 -1.07566e+12 -1.08312e+12 -1.31535e+12 -427186000000.0 -639835000000.0 -1.95911e+12 -657412000000.0 -1.17167e+12 -1.80952e+12 -1.09563e+12 -2.0132e+12 -504406000000.0 -1.0282e+12 -2.45179e+12 -1.07916e+12 -1.83604e+12 -995698000000.0 -1.15088e+12 -606518000000.0 -1.57778e+12 -568876000000.0 -1.24425e+12 -2.25988e+12 -2.10994e+12 -2.47357e+12 -919407000000.0 -667457000000.0 -1.56809e+12 -728042000000.0 -1.49375e+12 -1.71217e+12 -1.46637e+12 -1.00051e+12 -1.74177e+12 -2.03783e+12 -1.14236e+12 -1.11924e+12 -665468000000.0 -1.27204e+12 -1.0284e+12 -1.54878e+12 -579590000000.0 -1.10984e+12 -1.94193e+12 -966907000000.0 -1.44794e+12 -1.30587e+12 -1.37062e+12 -2.41305e+12 -2.31019e+12 -1.42455e+12 -1.02338e+12 -1.72434e+12 -622840000000.0 -2.11756e+12 -1.04385e+12 -1.61025e+12 -1.97696e+12 -967981000000.0 -475911000000.0 -679055000000.0 -979873000000.0 -847460000000.0 -196775000000.0 -82485100000.0 -1.15471e+12 -353496000000.0 -801639000000.0 -517863000000.0 -706730000000.0 -1.17119e+12 -943595000000.0 -288746000000.0 -668384000000.0 -506104000000.0 -683417000000.0 -244190000000.0 -460725000000.0 -158301000000.0 -359880000000.0 -1.08339e+12 -70827500000.0 -606621000000.0 -244170000000.0 -1.12166e+12 -884894000000.0 -915482000000.0 -766172000000.0 -235660000000.0 -610785000000.0 -178090000000.0 -169183000000.0 -153135000000.0 -653944000000.0 -1.30072e+12 -449134000000.0 -533126000000.0 -970334000000.0 -853539000000.0 -433103000000.0 -439569000000.0 -578900000000.0 -219435000000.0 -328961000000.0 -419799000000.0 -226236000000.0 -557895000000.0 -246815000000.0 -333872000000.0 -447265000000.0 -253313000000.0 -705340000000.0 -503847000000.0 -305098000000.0 -661419000000.0 -150550000000.0 -882458000000.0 -921252000000.0 -683993000000.0 -282246000000.0 -599773000000.0 -444367000000.0 -760755000000.0 -168168000000.0 -433127000000.0 -86943000000.0 -796265000000.0 -181297000000.0 -401183000000.0 -398887000000.0 -370466000000.0 -238505000000.0 -175572000000.0 -264775000000.0 -736048000000.0 -470761000000.0 -1.32805e+12 -291006000000.0 -1.35172e+12 -959934000000.0 -219099000000.0 -1.27439e+12 -572207000000.0 -359029000000.0 -399303000000.0 -306073000000.0 -953374000000.0 -267403000000.0 -539408000000.0 -524300000000.0 -647351000000.0 -1.04528e+12 -584793000000.0 -648887000000.0 -444874000000.0 -257713000000.0 -261739000000.0 -196331000000.0 -267071000000.0 -365552000000.0 -244536000000.0 -102269000000.0 -231599000000.0 -220098000000.0 -290052000000.0 -302421000000.0 -135333000000.0 -197096000000.0 -146927000000.0 -176593000000.0 