# vtk DataFile Version 2.0
Time step 20
ASCII
DATASET UNSTRUCTURED_GRID
POINTS 5000 float
2398.15 181990.0 0
8513.33 181369.0 0
12438.5 181200.0 0
16747.5 180520.0 0
22243.6 182155.0 0
27674.0 178909.0 0
33187.9 181592.0 0
38174.2 182174.0 0
42693.2 182315.0 0
47476.7 182232.0 0
52137.1 182321.0 0
57006.1 181164.0 0
62763.5 182236.0 0
67994.7 182370.0 0
72701.2 181508.0 0
77500.0 182249.0 0
82500.0 182238.0 0
87408.1 181538.0 0
92500.0 182277.0 0
97195.9 182298.0 0
101296.0 182215.0 0
105950.0 181613.0 0
111934.0 182090.0 0
117848.0 182269.0 0
123328.0 182346.0 0
128343.0 182466.0 0
133425.0 181716.0 0
138122.0 182399.0 0
142500.0 182320.0 0
147500.0 182253.0 0
152501.0 182223.0 0
157588.0 181855.0 0
162558.0 182011.0 0
167013.0 181558.0 0
171832.0 180440.0 0
177736.0 180478.0 0
182940.0 179662.0 0
187395.0 181514.0 0
192500.0 182671.0 0
196083.0 181839.0 0
201750.0 181197.0 0
207651.0 181959.0 0
212986.0 181303.0 0
218129.0 182380.0 0
222480.0 182392.0 0
225799.0 181639.0 0
230433.0 181504.0 0
235810.0 182494.0 0
241170.0 181199.0 0
246501.0 183203.0 0
252677.0 181182.0 0
259049.0 181663.0 0
263773.0 182744.0 0
268742.0 181664.0 0
273936.0 181959.0 0
278880.0 180601.0 0
286326.0 182240.0 0
291718.0 182698.0 0
297320.0 180567.0 0
303661.0 181365.0 0
312126.0 181775.0 0
317927.0 182411.0 0
323243.0 182304.0 0
327579.0 182566.0 0
332204.0 182166.0 0
337221.0 181876.0 0
341018.0 183087.0 0
345897.0 181427.0 0
350691.0 183339.0 0
355268.0 182346.0 0
361817.0 180971.0 0
372010.0 179005.0 0
367952.0 182320.0 0
377028.0 180979.0 0
382608.0 181845.0 0
388129.0 181136.0 0
394016.0 180454.0 0
399193.0 182134.0 0
403645.0 179395.0 0
408584.0 180601.0 0
412476.0 182247.0 0
417500.0 182282.0 0
422734.0 180405.0 0
427273.0 182107.0 0
432484.0 179921.0 0
437537.0 182260.0 0
442095.0 181205.0 0
446257.0 180782.0 0
450670.0 181555.0 0
455213.0 181508.0 0
460243.0 181363.0 0
465795.0 181731.0 0
471630.0 180989.0 0
477065.0 179794.0 0
481310.0 182651.0 0
485845.0 179714.0 0
491674.0 181257.0 0
497601.0 179749.0 0
2283.23 187032.0 0
6052.02 184697.0 0
11079.1 185715.0 0
17323.2 186423.0 0
22994.0 187685.0 0
28507.1 185262.0 0
34958.2 186865.0 0
40330.5 187185.0 0
44453.1 187528.0 0
48267.7 186230.0 0
52500.0 187281.0 0
57992.1 186606.0 0
62847.5 187336.0 0
67505.2 187008.0 0
72122.8 186628.0 0
77500.0 187407.0 0
82116.1 187053.0 0
87906.8 186296.0 0
92500.0 187416.0 0
97185.5 187058.0 0
102467.0 186950.0 0
108245.0 186206.0 0
112500.0 187353.0 0
117500.0 187434.0 0
122500.0 187357.0 0
127727.0 186902.0 0
132493.0 187250.0 0
137520.0 187265.0 0
142773.0 186744.0 0
146935.0 187092.0 0
151946.0 186970.0 0
156870.0 185906.0 0
161305.0 186729.0 0
166518.0 186231.0 0
172969.0 186010.0 0
178373.0 185890.0 0
183529.0 184731.0 0
188601.0 185961.0 0
193568.0 186817.0 0
198249.0 186186.0 0
203919.0 186818.0 0
213693.0 185853.0 0
209356.0 187036.0 0
217605.0 187449.0 0
222038.0 187228.0 0
226808.0 185873.0 0
232212.0 186922.0 0
237694.0 187743.0 0
243291.0 187584.0 0
248455.0 187279.0 0
252672.0 187746.0 0
257257.0 186300.0 0
262325.0 186921.0 0
267079.0 186512.0 0
271627.0 185830.0 0
277050.0 186233.0 0
282030.0 183932.0 0
282827.0 187619.0 0
287500.0 187331.0 0
292903.0 187192.0 0
298244.0 186078.0 0
303110.0 187034.0 0
307735.0 183931.0 0
307449.0 187224.0 0
312501.0 187525.0 0
317499.0 187289.0 0
322439.0 186774.0 0
327500.0 187311.0 0
332500.0 187383.0 0
337709.0 186725.0 0
343303.0 186114.0 0
347743.0 186529.0 0
352667.0 187232.0 0
361450.0 186284.0 0
357766.0 186765.0 0
365124.0 186001.0 0
372927.0 185806.0 0
378823.0 185526.0 0
382009.0 186662.0 0
388368.0 186224.0 0
393547.0 186597.0 0
402989.0 185593.0 0
398130.0 187029.0 0
408377.0 184882.0 0
412855.0 186190.0 0
417512.0 186795.0 0
422126.0 185042.0 0
428305.0 187054.0 0
433414.0 185158.0 0
437505.0 187326.0 0
443212.0 185490.0 0
447598.0 184791.0 0
451938.0 186036.0 0
457168.0 186240.0 0
462427.0 187704.0 0
466601.0 186300.0 0
470195.0 187477.0 0
475185.0 186281.0 0
480801.0 187926.0 0
486593.0 185911.0 0
492080.0 188161.0 0
496837.0 185258.0 0
2238.62 192920.0 0
6744.45 189743.0 0
11846.6 191563.0 0
16325.9 191632.0 0
20504.8 191655.0 0
27031.8 192095.0 0
32609.3 191934.0 0
38250.3 191697.0 0
42957.8 192073.0 0
47578.7 190951.0 0
51793.6 192708.0 0
56547.0 192225.0 0
62107.4 192214.0 0
67688.6 191852.0 0
73697.9 192172.0 0
78212.0 192605.0 0
81955.5 191780.0 0
86961.3 191813.0 0
92531.5 192167.0 0
97547.9 191577.0 0
102630.0 192712.0 0
107924.0 190985.0 0
116734.0 192040.0 0
112496.0 192258.0 0
120857.0 191887.0 0
125867.0 191271.0 0
131161.0 192968.0 0
136449.0 192917.0 0
140998.0 190867.0 0
146312.0 191983.0 0
151839.0 193585.0 0
156250.0 190466.0 0
161707.0 192420.0 0
170001.0 190800.0 0
176297.0 191650.0 0
182186.0 189870.0 0
188050.0 192123.0 0
194263.0 191843.0 0
199974.0 191290.0 0
208109.0 191937.0 0
204287.0 192289.0 0
213298.0 190664.0 0
217709.0 192385.0 0
222566.0 191503.0 0
226874.0 190878.0 0
232449.0 192387.0 0
237430.0 192169.0 0
241797.0 192821.0 0
246852.0 191354.0 0
251795.0 192641.0 0
257728.0 191052.0 0
262709.0 191702.0 0
267476.0 190970.0 0
273033.0 191078.0 0
279885.0 190273.0 0
283565.0 192553.0 0
287226.0 192626.0 0
291029.0 191508.0 0
296746.0 191127.0 0
302243.0 192272.0 0
307708.0 191654.0 0
313214.0 192779.0 0
318198.0 191782.0 0
322514.0 190779.0 0
326815.0 192666.0 0
336508.0 191390.0 0
331858.0 192399.0 0
341409.0 190319.0 0
346838.0 190916.0 0
351890.0 192072.0 0
356025.0 190632.0 0
361254.0 190985.0 0
366512.0 190085.0 0
371103.0 191948.0 0
377674.0 191460.0 0
384359.0 190000.0 0
392422.0 191421.0 0
388342.0 193189.0 0
397215.0 191378.0 0
402854.0 191834.0 0
409237.0 190526.0 0
414400.0 193090.0 0
419124.0 191488.0 0
424105.0 189864.0 0
427673.0 192895.0 0
432240.0 190782.0 0
437329.0 191538.0 0
442340.0 190724.0 0
448256.0 189862.0 0
454154.0 191445.0 0
458972.0 192478.0 0
463155.0 192247.0 0
467512.0 192380.0 0
472371.0 190801.0 0
477757.0 191768.0 0
482617.0 192624.0 0
487503.0 193712.0 0
491508.0 192222.0 0
496592.0 191834.0 0
2182.12 197334.0 0
8049.92 195583.0 0
13471.2 196184.0 0
17750.9 195478.0 0
22414.0 196030.0 0
26975.0 198028.0 0
32056.6 196220.0 0
37573.9 196900.0 0
43187.9 197136.0 0
49062.7 195739.0 0
53807.2 197402.0 0
59218.5 196901.0 0
63614.0 196544.0 0
68065.1 197529.0 0
72603.1 197047.0 0
77069.1 196533.0 0
82136.7 196800.0 0
87334.4 196986.0 0
92270.0 197494.0 0
97734.5 196929.0 0
102770.0 198178.0 0
107687.0 196483.0 0
113108.0 196588.0 0
118134.0 196519.0 0
123414.0 195874.0 0
127500.0 197431.0 0
137736.0 196833.0 0
132687.0 197798.0 0
142523.0 196986.0 0
148000.0 196593.0 0
156824.0 195876.0 0
153408.0 198243.0 0
160407.0 197231.0 0
166530.0 194241.0 0
164429.0 197943.0 0
170843.0 196829.0 0
177033.0 198218.0 0
182232.0 195348.0 0
186625.0 197756.0 0
191646.0 197252.0 0
197221.0 196573.0 0
203052.0 196432.0 0
208746.0 198284.0 0
214360.0 196334.0 0
218723.0 197617.0 0
222043.0 195763.0 0
227527.0 196425.0 0
234310.0 196777.0 0
237849.0 195497.0 0
241773.0 197423.0 0
246237.0 196541.0 0
251524.0 197900.0 0
255880.0 195774.0 0
260344.0 195447.0 0
266365.0 195658.0 0
271766.0 197350.0 0
278362.0 195774.0 0
284359.0 197293.0 0
288761.0 195782.0 0
292985.0 197499.0 0
298943.0 197430.0 0
303985.0 197651.0 0
307500.0 197475.0 0
316237.0 196504.0 0
312166.0 197294.0 0
321059.0 196039.0 0
325843.0 197596.0 0
329889.0 196222.0 0
334360.0 198200.0 0
339781.0 195712.0 0
346085.0 197171.0 0
352841.0 197647.0 0
357350.0 194589.0 0
361676.0 196978.0 0
366561.0 194777.0 0
371935.0 197574.0 0
377880.0 198907.0 0
382813.0 195514.0 0
387366.0 197373.0 0
393043.0 198075.0 0
399510.0 197005.0 0
408060.0 195884.0 0
404314.0 197021.0 0
412356.0 197564.0 0
416954.0 196881.0 0
421360.0 198157.0 0
425640.0 196518.0 0
431046.0 196971.0 0
437124.0 195734.0 0
441825.0 196312.0 0
446538.0 194870.0 0
450859.0 195400.0 0
455432.0 197206.0 0
461227.0 196921.0 0
467002.0 196710.0 0
472614.0 195759.0 0
478861.0 197266.0 0
484720.0 197762.0 0
489145.0 198489.0 0
492123.0 196082.0 0
496755.0 198475.0 0
1482.66 202040.0 0
7138.16 201887.0 0
11885.4 199915.0 0
17149.3 200655.0 0
23038.5 201413.0 0
30214.1 200761.0 0
34865.6 201550.0 0
39753.3 200961.0 0
43661.8 202815.0 0
48553.0 200960.0 0
53118.6 203386.0 0
57205.6 201292.0 0
63075.8 201320.0 0
68325.6 202704.0 0
73387.0 201108.0 0
78287.6 201685.0 0
83579.0 201741.0 0
88383.2 201807.0 0
92500.0 202339.0 0
97239.6 202344.0 0
101198.0 202397.0 0
105589.0 201999.0 0
111305.0 201173.0 0
116639.0 201778.0 0
122096.0 201065.0 0
126927.0 201503.0 0
131217.0 202179.0 0
136576.0 201383.0 0
142211.0 202679.0 0
147009.0 200870.0 0
151795.0 202812.0 0
157934.0 201795.0 0
167054.0 200811.0 0
163667.0 202428.0 0
171005.0 202836.0 0
182931.0 202263.0 0
193691.0 201337.0 0
189202.0 202170.0 0
198248.0 202463.0 0
203174.0 201533.0 0
207325.0 203663.0 0
212118.0 202530.0 0
216326.0 200948.0 0
221183.0 201265.0 0
226329.0 203057.0 0
231987.0 201289.0 0
237943.0 200233.0 0
242848.0 202067.0 0
248037.0 201625.0 0
252904.0 201927.0 0
257734.0 200956.0 0
262644.0 199021.0 0
267603.0 201599.0 0
272705.0 203234.0 0
278482.0 202428.0 0
283575.0 201880.0 0
288837.0 201103.0 0
293488.0 202096.0 0
297508.0 203474.0 0
302639.0 201956.0 0
307129.0 202316.0 0
311956.0 202033.0 0
316986.0 200933.0 0
322315.0 201625.0 0
330962.0 201738.0 0
327171.0 202463.0 0
341498.0 201198.0 0
337105.0 202110.0 0
346704.0 203116.0 0
351622.0 203308.0 0
357889.0 201158.0 0
367112.0 199683.0 0
362977.0 201949.0 0
370192.0 203112.0 0
374566.0 203148.0 0
383266.0 201539.0 0
388193.0 201555.0 0
397902.0 202940.0 0
403061.0 201001.0 0
408166.0 200734.0 0
414666.0 201201.0 0
417919.0 202428.0 0
422478.0 203020.0 0
427474.0 200987.0 0
431228.0 202400.0 0
436096.0 200709.0 0
441968.0 201973.0 0
448305.0 200393.0 0
454010.0 202355.0 0
459427.0 202518.0 0
464962.0 201798.0 0
473866.0 200980.0 0
469626.0 202650.0 0
477653.0 204038.0 0
481989.0 202225.0 0
486775.0 202103.0 0
492178.0 202658.0 0
2747.99 206078.0 0
7839.1 208390.0 0
12656.7 204419.0 0
18084.0 206422.0 0
23739.0 207168.0 0
28641.6 204807.0 0
33615.1 207104.0 0
39113.4 205799.0 0
43717.5 207024.0 0
48665.1 206930.0 0
54158.3 208085.0 0
59704.3 206307.0 0
64856.3 207404.0 0
68278.6 206917.0 0
72220.6 204993.0 0
76325.3 206588.0 0
81947.2 207165.0 0
87891.6 206878.0 0
92640.6 207282.0 0
96908.8 206916.0 0
101493.0 207039.0 0
106437.0 207335.0 0
111042.0 206022.0 0
115384.0 206494.0 0
120868.0 207085.0 0
127439.0 206767.0 0
133298.0 206633.0 0
138722.0 207120.0 0
143739.0 207287.0 0
148384.0 206897.0 0
152801.0 207390.0 0
157001.0 207494.0 0
161436.0 206268.0 0
166774.0 206165.0 0
172241.0 208618.0 0
176730.0 204508.0 0
177072.0 208834.0 0
181357.0 208879.0 0
186876.0 207163.0 0
192405.0 206679.0 0
197839.0 208170.0 0
202623.0 206101.0 0
206614.0 208271.0 0
210632.0 207065.0 0
216379.0 206840.0 0
222680.0 206928.0 0
228326.0 208601.0 0
236034.0 205223.0 0
240955.0 207653.0 0
246438.0 208200.0 0
250923.0 206083.0 0
256781.0 207164.0 0
262846.0 204600.0 0
268278.0 206979.0 0
272898.0 208129.0 0
277856.0 208438.0 0
282087.0 205811.0 0
287111.0 207188.0 0
293046.0 206512.0 0
297887.0 208816.0 0
301877.0 205881.0 0
306181.0 207794.0 0
311440.0 207751.0 0
316876.0 206057.0 0
322348.0 207544.0 0
328011.0 207077.0 0
333894.0 205980.0 0
342243.0 207170.0 0
348016.0 207886.0 0
355589.0 205443.0 0
352326.0 207587.0 0
360540.0 206704.0 0
366536.0 206799.0 0
372544.0 208078.0 0
378568.0 206499.0 0
383439.0 205676.0 0
387258.0 206032.0 0
392174.0 204322.0 0
390771.0 208966.0 0
396054.0 208763.0 0
400407.0 207223.0 0
405322.0 206239.0 0
411963.0 205326.0 0
417763.0 207208.0 0
422953.0 207887.0 0
427267.0 205239.0 0
432220.0 206976.0 0
437069.0 206037.0 0
441842.0 207579.0 0
447103.0 206560.0 0
452637.0 207547.0 0
458104.0 207882.0 0
462539.0 207463.0 0
466546.0 206476.0 0
471807.0 207209.0 0
476950.0 208761.0 0
482256.0 207580.0 0
487737.0 206951.0 0
492476.0 208487.0 0
497458.0 204210.0 0
3052.48 211876.0 0
8748.46 214283.0 0
13602.5 210264.0 0
18368.6 214003.0 0
23870.3 212868.0 0
28770.4 210150.0 0
33710.6 212806.0 0
38527.3 210985.0 0
43254.3 211282.0 0
49656.9 211820.0 0
53677.9 212832.0 0
58560.6 212177.0 0
63410.5 211354.0 0
67002.5 211804.0 0
71708.1 210328.0 0
77980.7 211900.0 0
83403.2 213243.0 0
88024.1 211910.0 0
93067.0 211901.0 0
97995.7 211387.0 0
105790.0 211772.0 0
102080.0 213022.0 0
110772.0 211369.0 0
116649.0 211270.0 0
126506.0 212004.0 0
122664.0 212576.0 0
131209.0 211336.0 0
135236.0 213157.0 0
139762.0 212668.0 0
145117.0 211875.0 0
150861.0 211939.0 0
156893.0 212851.0 0
162042.0 210929.0 0
167185.0 211261.0 0
171464.0 213940.0 0
176189.0 212560.0 0
185799.0 212450.0 0
191581.0 212559.0 0
197328.0 213700.0 0
202636.0 211548.0 0
207603.0 212289.0 0
212131.0 211447.0 0
217209.0 213227.0 0
223343.0 212897.0 0
233994.0 209754.0 0
233405.0 214219.0 0
238453.0 213406.0 0
243832.0 212711.0 0
248962.0 212328.0 0
252357.0 210387.0 0
255548.0 213262.0 0
262544.0 211777.0 0
268734.0 211947.0 0
273492.0 212673.0 0
278390.0 213828.0 0
282798.0 211194.0 0
287969.0 213197.0 0
293212.0 211845.0 0
297716.0 214082.0 0
302614.0 211726.0 0
308394.0 212701.0 0
313173.0 212305.0 0
317435.0 211795.0 0
325898.0 211152.0 0
322180.0 213116.0 0
330013.0 212222.0 0
335077.0 212773.0 0
337567.0 209363.0 0
340343.0 213177.0 0
345956.0 213935.0 0
351114.0 212060.0 0
356038.0 210038.0 0
360840.0 212579.0 0
366459.0 212543.0 0
371161.0 213013.0 0
377242.0 213731.0 0
383520.0 210123.0 0
387816.0 213312.0 0
392754.0 213311.0 0
398356.0 214282.0 0
403876.0 212270.0 0
409485.0 210921.0 0
414456.0 211208.0 0
417753.0 211342.0 0
420940.0 211695.0 0
427634.0 211735.0 0
433309.0 211336.0 0
437894.0 211011.0 0
442661.0 212468.0 0
448515.0 212442.0 0
453994.0 212412.0 0
458533.0 212850.0 0
462983.0 212612.0 0
467789.0 211454.0 0
472981.0 212947.0 0
479958.0 212680.0 0
484285.0 212518.0 0
488525.0 212079.0 0
492615.0 212643.0 0
497461.0 209292.0 0
497772.0 214051.0 0
2142.5 217751.0 0
13670.0 217898.0 0
18594.7 218943.0 0
22332.2 217348.0 0
27479.1 217759.0 0
32318.3 217055.0 0
37256.5 217609.0 0
42427.0 218911.0 0
46370.8 215631.0 0
51399.3 218027.0 0
57388.8 218305.0 0
63630.9 216523.0 0
68671.9 215096.0 0
73542.8 218158.0 0
79806.2 217384.0 0
85110.6 218157.0 0
90119.3 216397.0 0
95024.8 218265.0 0
98582.8 215565.0 0
101283.0 218912.0 0
105627.0 216280.0 0
111327.0 217708.0 0
118217.0 216838.0 0
123824.0 217104.0 0
128393.0 215421.0 0
133274.0 217495.0 0
137794.0 216603.0 0
141899.0 217468.0 0
147419.0 217187.0 0
152989.0 217152.0 0
157251.0 218749.0 0
161797.0 216498.0 0
167154.0 216231.0 0
170769.0 217970.0 0
176891.0 217553.0 0
180978.0 214482.0 0
182332.0 219300.0 0
186897.0 217474.0 0
191546.0 217863.0 0
196360.0 219149.0 0
201650.0 217026.0 0
207178.0 217260.0 0
213014.0 216988.0 0
219809.0 218318.0 0
228973.0 214592.0 0
224918.0 218214.0 0
228660.0 218687.0 0
232741.0 217991.0 0
236994.0 218650.0 0
242082.0 216947.0 0
246540.0 216697.0 0
251477.0 216269.0 0
257763.0 218534.0 0
262737.0 217849.0 0
268248.0 217563.0 0
274064.0 217632.0 0
279359.0 219350.0 0
284566.0 217265.0 0
289682.0 218139.0 0
293290.0 216274.0 0
296576.0 219014.0 0
302331.0 217463.0 0
307427.0 217977.0 0
312021.0 216469.0 0
316759.0 216389.0 0
321322.0 218247.0 0
326418.0 216699.0 0
331725.0 217193.0 0
337287.0 218450.0 0
342892.0 218514.0 0
346859.0 218502.0 0
351183.0 217235.0 0
356405.0 215580.0 0
361704.0 218682.0 0
366997.0 217413.0 0
371678.0 217494.0 0
382220.0 217651.0 0
386907.0 218035.0 0
391461.0 217820.0 0
395535.0 218584.0 0
400540.0 219385.0 0
405872.0 218049.0 0
411615.0 216435.0 0
417007.0 215072.0 0
422648.0 216679.0 0
428259.0 217818.0 0
432992.0 215978.0 0
438715.0 216657.0 0
444688.0 217357.0 0
450498.0 219111.0 0
455654.0 216810.0 0
461353.0 217725.0 0
468707.0 216679.0 0
465817.0 219356.0 0
473160.0 218504.0 0
477809.0 217202.0 0
482452.0 217347.0 0
486605.0 216250.0 0
490660.0 216674.0 0
495013.0 218034.0 0
2239.68 222324.0 0
7229.05 220352.0 0
12433.8 223957.0 0
18040.8 223395.0 0
23268.4 222199.0 0
29054.1 223736.0 0
32587.1 220529.0 0
35967.2 223398.0 0
41007.5 223139.0 0
46986.1 222106.0 0
52812.1 222747.0 0
57595.1 224465.0 0
62185.6 221915.0 0
67952.3 221978.0 0
78091.4 221984.0 0
82807.9 222883.0 0
88768.3 222689.0 0
93963.0 223113.0 0
97840.1 221623.0 0
101250.0 223197.0 0
105726.0 221771.0 0
110245.0 223136.0 0
115523.0 222712.0 0
121627.0 221931.0 0
128121.0 221461.0 0
137503.0 220555.0 0
133716.0 222330.0 0
142032.0 222735.0 0
148124.0 223765.0 0
153551.0 221970.0 0
157991.0 222926.0 0
163111.0 222336.0 0
173363.0 221214.0 0
168447.0 221502.0 0
177765.0 221996.0 0
181600.0 223870.0 0
186465.0 222740.0 0
191581.0 222374.0 0
201129.0 222617.0 0
207151.0 223333.0 0
212105.0 221916.0 0
216823.0 223106.0 0
221595.0 223945.0 0
226063.0 222745.0 0
231014.0 222044.0 0
235872.0 223285.0 0
241280.0 221858.0 0
246725.0 221632.0 0
252423.0 221781.0 0
257588.0 223766.0 0
263739.0 223347.0 0
269632.0 223220.0 0
274608.0 222608.0 0
283990.0 221721.0 0
288576.0 223157.0 0
292637.0 221570.0 0
298703.0 223758.0 0
303625.0 222431.0 0
307773.0 222327.0 0
312288.0 221699.0 0
317561.0 221393.0 0
323367.0 223228.0 0
328012.0 221358.0 0
332718.0 222302.0 0
337398.0 223763.0 0
341948.0 222441.0 0
345512.0 222217.0 0
349552.0 221432.0 0
355362.0 221790.0 0
360694.0 223869.0 0
366520.0 222133.0 0
373449.0 222642.0 0
378359.0 220336.0 0
383175.0 223293.0 0
388092.0 222434.0 0
392599.0 222189.0 0
397130.0 222435.0 0
408071.0 222804.0 0
403368.0 223529.0 0
412527.0 221678.0 0
417187.0 220199.0 0
421041.0 222241.0 0
425387.0 221861.0 0
431956.0 221627.0 0
437679.0 222895.0 0
443663.0 222937.0 0
454489.0 222061.0 0
458776.0 223014.0 0
463927.0 222832.0 0
469285.0 222133.0 0
474360.0 223054.0 0
479080.0 222090.0 0
483697.0 223743.0 0
486627.0 220453.0 0
491425.0 222522.0 0
497411.0 222655.0 0
2123.84 226690.0 0
6951.17 226215.0 0
12554.2 229365.0 0
16004.5 227389.0 0
20032.8 227673.0 0
24880.1 227447.0 0
32198.5 228096.0 0
37666.8 229006.0 0
43305.3 227575.0 0
48675.2 228098.0 0
53565.2 227266.0 0
57438.2 229374.0 0
62542.1 227155.0 0
67218.3 227241.0 0
73641.1 224863.0 0
79074.7 227511.0 0
84515.8 227492.0 0
88581.2 227724.0 0
92508.1 227191.0 0
97468.7 226014.0 0
102451.0 227620.0 0
107194.0 226521.0 0
111838.0 227298.0 0
117996.0 228219.0 0
123252.0 227161.0 0
127771.0 226848.0 0
132823.0 227400.0 0
138527.0 226663.0 0
143146.0 227558.0 0
151877.0 227553.0 0
156564.0 227757.0 0
161568.0 227270.0 0
166878.0 226375.0 0
173247.0 227433.0 0
178606.0 227581.0 0
183551.0 228513.0 0
189466.0 227586.0 0
195897.0 224900.0 0
193915.0 228722.0 0
199741.0 227618.0 0
203873.0 228200.0 0
208372.0 228469.0 0
212778.0 226551.0 0
219048.0 227863.0 0
223358.0 227417.0 0
227641.0 227445.0 0
232480.0 226790.0 0
237790.0 227715.0 0
242344.0 228201.0 0
246748.0 226468.0 0
251925.0 228035.0 0
257453.0 228064.0 0
262288.0 229565.0 0
267704.0 227404.0 0
271774.0 226996.0 0
279895.0 224696.0 0
276110.0 227440.0 0
284253.0 226133.0 0
288546.0 228394.0 0
293570.0 226113.0 0
298793.0 228518.0 0
302612.0 227320.0 0
306691.0 226206.0 0
311693.0 227386.0 0
316844.0 226231.0 0
321345.0 228122.0 0
324893.0 227115.0 0
328708.0 226069.0 0
334169.0 227923.0 0
339622.0 227643.0 0
344175.0 226431.0 0
350131.0 227087.0 0
356745.0 228632.0 0
363281.0 228530.0 0
369419.0 226926.0 0
374939.0 227964.0 0
378303.0 224831.0 0
379755.0 228799.0 0
384042.0 228855.0 0
388112.0 226930.0 0
393183.0 227258.0 0
397953.0 226609.0 0
402011.0 227857.0 0
406611.0 227429.0 0
412755.0 227572.0 0
418448.0 225611.0 0
423559.0 226993.0 0
428734.0 225657.0 0
433886.0 228132.0 0
440197.0 229054.0 0
445497.0 227652.0 0
450713.0 225542.0 0
456138.0 227166.0 0
463204.0 226874.0 0
460057.0 227589.0 0
467454.0 227402.0 0
472542.0 227356.0 0
477866.0 227418.0 0
482747.0 227991.0 0
487590.0 226987.0 0
492459.0 227719.0 0
497811.0 227415.0 0
3066.93 231798.0 0
8525.43 230722.0 0
12201.6 233914.0 0
16400.2 231551.0 0
21288.1 232576.0 0
27440.8 232809.0 0
32654.8 231961.0 0
37741.9 234374.0 0
42256.0 232719.0 0
47940.8 233604.0 0
53255.7 232231.0 0
58923.4 233259.0 0
62500.2 231577.0 0
71126.9 229633.0 0
66930.8 231677.0 0
71376.7 233812.0 0
76187.4 232687.0 0
82332.0 231101.0 0
86373.6 231429.0 0
91237.3 232259.0 0
96590.1 231132.0 0
101328.0 232281.0 0
106452.0 231689.0 0
112400.0 232809.0 0
118082.0 233643.0 0
123228.0 232412.0 0
128387.0 231350.0 0
133239.0 232883.0 0
138699.0 232394.0 0
143906.0 231598.0 0
146828.0 233980.0 0
147992.0 229739.0 0
152628.0 232000.0 0
157984.0 232247.0 0
162827.0 231404.0 0
168107.0 231826.0 0
172593.0 233119.0 0
177256.0 232859.0 0
182436.0 233467.0 0
187097.0 232472.0 0
192274.0 232745.0 0
197940.0 232339.0 0
202914.0 232184.0 0
207321.0 233168.0 0
212060.0 231496.0 0
217209.0 232936.0 0
222465.0 231645.0 0
227447.0 232985.0 0
232460.0 231496.0 0
237096.0 232022.0 0
241393.0 232663.0 0
246127.0 231481.0 0
254546.0 232523.0 0
250369.0 233054.0 0
258841.0 233170.0 0
267442.0 232736.0 0
272498.0 230889.0 0
277199.0 232729.0 0
283136.0 231517.0 0
288150.0 232945.0 0
292699.0 231709.0 0
297311.0 232451.0 0
302031.0 232408.0 0
306843.0 230934.0 0
316043.0 231124.0 0
311358.0 232862.0 0
320408.0 232535.0 0
326144.0 231901.0 0
332578.0 233971.0 0
338276.0 232956.0 0
343328.0 231371.0 0
348101.0 232537.0 0
353197.0 233089.0 0
358609.0 234148.0 0
363212.0 234017.0 0
372381.0 232096.0 0
367634.0 232514.0 0
377385.0 233446.0 0
382060.0 231946.0 0
387315.0 231537.0 0
391778.0 231944.0 0
396365.0 231217.0 0
401390.0 232747.0 0
406539.0 232292.0 0
411915.0 233930.0 0
417753.0 231514.0 0
422241.0 234451.0 0
428001.0 231860.0 0
435877.0 233391.0 0
440095.0 233992.0 0
448665.0 230180.0 0
444901.0 232791.0 0
448961.0 233309.0 0
453277.0 231941.0 0
458554.0 231008.0 0
463252.0 231064.0 0
468259.0 232458.0 0
473571.0 232536.0 0
478473.0 232328.0 0
481979.0 232746.0 0
485434.0 231478.0 0
490356.0 231615.0 0
495349.0 231679.0 0
2829.85 237692.0 0
7506.89 235147.0 0
9628.68 239016.0 0
12489.0 237556.0 0
17126.6 237092.0 0
23546.2 238013.0 0
28473.2 237899.0 0
32877.1 236071.0 0
44148.5 238063.0 0
48940.0 239752.0 0
51655.6 236717.0 0
56210.2 236800.0 0
61480.6 237242.0 0
67345.6 237179.0 0
73096.1 238193.0 0
80899.0 235368.0 0
78005.1 239193.0 0
86731.0 237047.0 0
92884.0 238254.0 0
98376.6 236497.0 0
103684.0 236452.0 0
108532.0 237080.0 0
113668.0 238189.0 0
118722.0 238940.0 0
123573.0 237444.0 0
128439.0 236525.0 0
133093.0 237403.0 0
137606.0 237772.0 0
143084.0 235721.0 0
146707.0 238028.0 0
150635.0 235942.0 0
155608.0 236023.0 0
161150.0 236287.0 0
167134.0 237902.0 0
172931.0 237407.0 0
178058.0 238369.0 0
183623.0 238242.0 0
189257.0 237214.0 0
194199.0 237267.0 0
203779.0 236392.0 0
199082.0 237984.0 0
208278.0 238211.0 0
213124.0 236756.0 0
217845.0 238239.0 0
222500.0 237391.0 0
227501.0 237562.0 0
231482.0 235655.0 0
235461.0 236104.0 0
241030.0 237053.0 0
246245.0 237340.0 0
252686.0 237803.0 0
257745.0 236917.0 0
262640.0 236104.0 0
268594.0 237458.0 0
272442.0 235540.0 0
276610.0 237777.0 0
282652.0 237306.0 0
287885.0 237353.0 0
293341.0 237180.0 0
298019.0 236309.0 0
302148.0 238380.0 0
306739.0 235808.0 0
311400.0 238083.0 0
317176.0 236831.0 0
322892.0 237091.0 0
326714.0 236845.0 0
331450.0 238380.0 0
335615.0 238878.0 0
340772.0 237664.0 0
345193.0 235778.0 0
349873.0 237142.0 0
355434.0 239333.0 0
361527.0 238723.0 0
367130.0 237879.0 0
372546.0 237010.0 0
377569.0 239180.0 0
382863.0 236614.0 0
389019.0 236495.0 0
397231.0 236353.0 0
393407.0 238660.0 0
402346.0 238378.0 0
407514.0 236996.0 0
411971.0 239235.0 0
416988.0 237209.0 0
421577.0 239032.0 0
426095.0 237966.0 0
432057.0 237214.0 0
437837.0 238335.0 0
443188.0 237817.0 0
447819.0 236968.0 0
452683.0 237813.0 0
457776.0 235863.0 0
463150.0 236235.0 0
468221.0 237572.0 0
473105.0 237655.0 0
478119.0 237165.0 0
482758.0 237474.0 0
487724.0 236405.0 0
493270.0 236401.0 0
497797.0 235972.0 0
2508.52 243037.0 0
7253.69 242466.0 0
12092.7 242790.0 0
17562.6 243366.0 0
23376.8 244067.0 0
28773.5 242405.0 0
32682.7 240739.0 0
37932.1 240033.0 0
43259.4 243492.0 0
47693.9 243568.0 0
52865.3 242427.0 0
58187.8 241579.0 0
64144.4 242850.0 0
71384.4 241757.0 0
69236.9 243774.0 0
75131.1 243584.0 0
81047.5 243343.0 0
87050.5 243703.0 0
96745.8 242316.0 0
92015.7 242834.0 0
101918.0 240800.0 0
107424.0 243171.0 0
113364.0 243184.0 0
118425.0 244200.0 0
123403.0 242509.0 0
128619.0 241687.0 0
133600.0 241934.0 0
141656.0 240292.0 0
138000.0 243557.0 0
145486.0 242891.0 0
150739.0 241652.0 0
156825.0 241247.0 0
162667.0 242360.0 0
170985.0 242269.0 0
175338.0 243991.0 0
183144.0 242194.0 0
179603.0 243060.0 0
187222.0 242284.0 0
192599.0 241866.0 0
197948.0 243622.0 0
202924.0 241418.0 0
206831.0 243724.0 0
210988.0 242298.0 0
215652.0 242567.0 0
221201.0 242653.0 0
227147.0 242911.0 0
231637.0 239844.0 0
237626.0 241830.0 0
243883.0 242555.0 0
248934.0 242304.0 0
254178.0 243925.0 0
257368.0 240255.0 0
260306.0 242294.0 0
265509.0 241274.0 0
272397.0 241850.0 0
279493.0 242525.0 0
285571.0 241463.0 0
290241.0 241271.0 0
293602.0 244653.0 0
297326.0 241529.0 0
302276.0 243514.0 0
306839.0 241272.0 0
312359.0 244139.0 0
318335.0 242655.0 0
323491.0 242034.0 0
328129.0 240354.0 0
332374.0 242857.0 0
340985.0 242240.0 0
337089.0 243445.0 0
345733.0 241053.0 0
350953.0 243203.0 0
359279.0 243528.0 0
364348.0 243210.0 0
368942.0 242537.0 0
373328.0 241873.0 0
377202.0 244264.0 0
381323.0 242443.0 0
386951.0 242639.0 0
393337.0 243513.0 0
398507.0 241930.0 0
402885.0 243316.0 0
407745.0 242384.0 0
415859.0 243034.0 0
421165.0 244306.0 0
424603.0 242004.0 0
428970.0 242527.0 0
434135.0 242202.0 0
438729.0 243521.0 0
442777.0 242174.0 0
447707.0 242231.0 0
453033.0 242835.0 0
458320.0 241671.0 0
463604.0 241055.0 0
468166.0 242897.0 0
473600.0 242068.0 0
478162.0 242322.0 0
482820.0 241672.0 0
487506.0 241983.0 0
492504.0 241350.0 0
497558.0 240618.0 0
2475.34 248030.0 0
7679.0 247476.0 0
12006.3 246987.0 0
15774.8 248417.0 0
20838.9 249116.0 0
26804.6 248415.0 0
34050.0 246103.0 0
39388.3 245003.0 0
40029.9 249248.0 0
44680.7 247960.0 0
48733.7 247281.0 0
53037.2 247600.0 0
59484.6 246674.0 0
63879.6 247988.0 0
67596.8 247229.0 0
71682.4 247178.0 0
78300.0 247078.0 0
82484.4 248329.0 0
87150.9 249293.0 0
92009.6 247473.0 0
97010.0 247429.0 0
102138.0 246688.0 0
106970.0 249055.0 0
111119.0 247484.0 0
115816.0 248841.0 0
121097.0 248835.0 0
126572.0 247214.0 0
132454.0 246906.0 0
137141.0 248026.0 0
142292.0 247163.0 0
147730.0 246646.0 0
152624.0 247312.0 0
157517.0 246328.0 0
162023.0 247928.0 0
167211.0 246368.0 0
172469.0 247420.0 0
178173.0 248321.0 0
183453.0 246113.0 0
190405.0 246878.0 0
195391.0 248320.0 0
203337.0 246774.0 0
199760.0 248939.0 0
208144.0 247738.0 0
212533.0 246831.0 0
217673.0 247271.0 0
223415.0 247468.0 0
227808.0 247888.0 0
232853.0 247174.0 0
238037.0 247839.0 0
242300.0 246753.0 0
246628.0 246628.0 0
251487.0 248386.0 0
257649.0 248225.0 0
262645.0 246460.0 0
268076.0 246532.0 0
273539.0 248515.0 0
279494.0 248709.0 0
284021.0 245704.0 0
289084.0 246368.0 0
293819.0 248874.0 0
298778.0 247295.0 0
302765.0 247044.0 0
307516.0 246853.0 0
312820.0 249954.0 0
316373.0 247525.0 0
321279.0 247676.0 0
327586.0 246217.0 0
333571.0 247843.0 0
340753.0 246370.0 0
337869.0 249299.0 0
346460.0 247611.0 0
352472.0 248035.0 0
358050.0 249111.0 0
362686.0 247077.0 0
367605.0 247793.0 0
373236.0 246989.0 0
377756.0 248996.0 0
383127.0 247873.0 0
388879.0 248512.0 0
397590.0 246349.0 0
393913.0 248789.0 0
401984.0 247934.0 0
407542.0 248187.0 0
417752.0 247180.0 0
413343.0 248231.0 0
420760.0 248451.0 0
426069.0 247892.0 0
432056.0 247005.0 0
436721.0 247359.0 0
442757.0 247195.0 0
448803.0 249329.0 0
453399.0 247004.0 0
458490.0 248223.0 0
463572.0 245596.0 0
467776.0 248213.0 0
471812.0 245765.0 0
476435.0 247343.0 0
481082.0 245648.0 0
485633.0 246632.0 0
490690.0 247637.0 0
495987.0 245891.0 0
3201.55 253159.0 0
8249.88 252576.0 0
12755.1 252212.0 0
17398.5 253180.0 0
21998.8 253711.0 0
26216.5 253197.0 0
30926.0 251718.0 0
35902.9 251844.0 0
39979.3 254963.0 0
43615.1 251947.0 0
47739.2 251315.0 0
51791.0 251660.0 0
56811.5 251868.0 0
62560.0 251996.0 0
67151.4 252413.0 0
72500.7 252366.0 0
77973.8 251170.0 0
82543.6 252754.0 0
86309.1 253360.0 0
90165.1 252611.0 0
95227.5 252450.0 0
101130.0 252356.0 0
106563.0 254075.0 0
111800.0 252343.0 0
118320.0 253516.0 0
123268.0 253264.0 0
127618.0 252335.0 0
132208.0 252223.0 0
137226.0 252624.0 0
141699.0 253911.0 0
146455.0 251637.0 0
151565.0 254088.0 0
156138.0 251270.0 0
161842.0 254228.0 0
169293.0 252747.0 0
175984.0 254100.0 0
181618.0 253153.0 0
186104.0 250510.0 0
190970.0 252180.0 0
195730.0 252994.0 0
200504.0 254156.0 0
204919.0 251304.0 0
208481.0 253459.0 0
211708.0 251430.0 0
216588.0 252609.0 0
221785.0 251902.0 0
226783.0 252373.0 0
232017.0 251431.0 0
236130.0 252701.0 0
241514.0 251251.0 0
246838.0 251738.0 0
251491.0 252637.0 0
256203.0 253348.0 0
261538.0 251795.0 0
266305.0 250966.0 0
270592.0 253380.0 0
276603.0 253449.0 0
284962.0 250828.0 0
290139.0 251234.0 0
293717.0 253467.0 0
297270.0 251740.0 0
302629.0 250201.0 0
304641.0 254871.0 0
307413.0 250786.0 0
310173.0 253286.0 0
313938.0 254821.0 0
316944.0 251740.0 0
326180.0 251598.0 0
321546.0 253654.0 0
331811.0 252820.0 0
336658.0 253278.0 0
341753.0 252236.0 0
346592.0 253461.0 0
350377.0 251964.0 0
354420.0 253179.0 0
363433.0 252409.0 0
368539.0 253017.0 0
372667.0 251681.0 0
377000.0 254145.0 0
381277.0 252382.0 0
385764.0 252983.0 0
391597.0 253533.0 0
397816.0 252430.0 0
403446.0 252899.0 0
408201.0 253301.0 0
412661.0 253365.0 0
417335.0 251872.0 0
422299.0 252204.0 0
427068.0 254599.0 0
433139.0 252936.0 0
438891.0 251414.0 0
443928.0 252785.0 0
453745.0 251972.0 0
457888.0 254114.0 0
463018.0 252678.0 0
468091.0 253008.0 0
472230.0 250844.0 0
476505.0 252372.0 0
481564.0 250917.0 0
487375.0 251542.0 0
492235.0 254034.0 0
497269.0 251537.0 0
2743.14 258587.0 0
8045.72 257599.0 0
14935.1 257425.0 0
11768.9 260079.0 0
19924.0 257992.0 0
25343.7 258043.0 0
32693.7 258502.0 0
42513.2 259927.0 0
47193.0 256590.0 0
52661.7 255852.0 0
57751.2 258106.0 0
63748.0 257351.0 0
69574.4 257716.0 0
74690.3 258238.0 0
78843.2 255920.0 0
82761.1 257544.0 0
87410.3 257797.0 0
93074.7 257869.0 0
98828.3 257711.0 0
103889.0 258252.0 0
107217.0 258083.0 0
111633.0 258212.0 0
120377.0 258247.0 0
124165.0 257556.0 0
128415.0 256956.0 0
132881.0 256555.0 0
136865.0 257315.0 0
141100.0 258095.0 0
146518.0 257603.0 0
151900.0 259478.0 0
156634.0 257686.0 0
160703.0 259776.0 0
166708.0 259012.0 0
172253.0 257735.0 0
179231.0 257721.0 0
184122.0 258364.0 0
189294.0 256693.0 0
193652.0 257568.0 0
197494.0 257244.0 0
202935.0 258001.0 0
206348.0 255832.0 0
212327.0 257221.0 0
216878.0 257136.0 0
221042.0 256733.0 0
225809.0 257389.0 0
231043.0 255805.0 0
235685.0 257621.0 0
240602.0 256491.0 0
248408.0 256530.0 0
252637.0 256279.0 0
260028.0 256401.0 0
256113.0 258343.0 0
265465.0 256208.0 0
270073.0 260200.0 0
272906.0 256832.0 0
275642.0 257422.0 0
281974.0 256338.0 0
288352.0 256009.0 0
293491.0 258143.0 0
298769.0 256137.0 0
309194.0 256950.0 0
312944.0 259559.0 0
317714.0 256722.0 0
323332.0 258850.0 0
327764.0 256117.0 0
332500.0 257456.0 0
336865.0 257887.0 0
342191.0 257809.0 0
351670.0 256722.0 0
347198.0 257828.0 0
357637.0 256736.0 0
363233.0 258760.0 0
368505.0 257279.0 0
373399.0 258498.0 0
382587.0 256400.0 0
379114.0 258548.0 0
387087.0 258582.0 0
392328.0 259719.0 0
395889.0 257154.0 0
400745.0 257605.0 0
405932.0 257240.0 0
411225.0 258536.0 0
416962.0 257725.0 0
422185.0 257103.0 0
426362.0 260150.0 0
431397.0 258635.0 0
437978.0 256836.0 0
443843.0 258650.0 0
448488.0 255175.0 0
453576.0 257199.0 0
449063.0 259525.0 0
458367.0 258307.0 0
462259.0 257674.0 0
467289.0 258017.0 0
472251.0 255997.0 0
478257.0 257120.0 0
483453.0 256043.0 0
487737.0 256210.0 0
492436.0 259022.0 0
497087.0 257135.0 0
2121.95 263412.0 0
6639.69 262534.0 0
10884.6 263733.0 0
16450.4 262652.0 0
22152.1 262792.0 0
26822.7 262617.0 0
38023.3 263958.0 0
44024.3 264440.0 0
47182.2 261721.0 0
52162.2 261269.0 0
57345.7 264202.0 0
62694.7 262731.0 0
67628.9 263055.0 0
72730.4 262783.0 0
77867.7 262174.0 0
83355.9 262257.0 0
88725.4 262759.0 0
93483.5 262728.0 0
97426.9 262346.0 0
102459.0 263463.0 0
107419.0 261334.0 0
111807.0 264576.0 0
116399.0 260914.0 0
120442.0 264095.0 0
125873.0 261884.0 0
131759.0 261280.0 0
137392.0 262194.0 0
143328.0 263001.0 0
148478.0 262549.0 0
152903.0 264003.0 0
157325.0 262683.0 0
163269.0 262153.0 0
168101.0 264426.0 0
170863.0 261170.0 0
175910.0 261739.0 0
181664.0 263570.0 0
189123.0 261939.0 0
194252.0 262352.0 0
199449.0 261592.0 0
203612.0 263562.0 0
207393.0 260638.0 0
210859.0 264302.0 0
216154.0 262647.0 0
221740.0 260992.0 0
226478.0 262670.0 0
232428.0 261806.0 0
238415.0 261576.0 0
244782.0 260826.0 0
251405.0 261294.0 0
256861.0 262871.0 0
261845.0 260992.0 0
266250.0 264307.0 0
274187.0 262943.0 0
278012.0 260447.0 0
283419.0 262672.0 0
288958.0 261338.0 0
293203.0 263665.0 0
297180.0 261008.0 0
302968.0 261337.0 0
308774.0 262198.0 0
318346.0 262002.0 0
324040.0 264295.0 0
328783.0 261332.0 0
334050.0 263093.0 0
339571.0 262472.0 0
344910.0 262276.0 0
349965.0 261816.0 0
354411.0 260350.0 0
358638.0 263445.0 0
363889.0 264350.0 0
368156.0 261994.0 0
372324.0 263177.0 0
376972.0 263079.0 0
382481.0 262046.0 0
387497.0 263068.0 0
392135.0 263826.0 0
396154.0 262535.0 0
401234.0 263072.0 0
406698.0 262398.0 0
411223.0 263408.0 0
415498.0 262765.0 0
421163.0 262688.0 0
428498.0 263676.0 0
430934.0 263073.0 0
435846.0 262858.0 0
442058.0 264589.0 0
446673.0 263006.0 0
451296.0 264224.0 0
456091.0 261966.0 0
461504.0 262722.0 0
466937.0 263421.0 0
472915.0 261196.0 0
478065.0 262589.0 0
482525.0 260504.0 0
487861.0 261337.0 0
493657.0 262913.0 0
498090.0 261808.0 0
2816.37 268204.0 0
8170.41 267473.0 0
12910.8 266837.0 0
16348.7 267483.0 0
20401.0 267369.0 0
25288.7 268584.0 0
31191.1 266304.0 0
37234.7 269304.0 0
41775.4 268303.0 0
47425.9 268420.0 0
53080.4 267731.0 0
58683.9 269492.0 0
63561.0 267884.0 0
68263.5 267452.0 0
72449.4 267631.0 0
77182.3 267286.0 0
86318.5 266381.0 0
82031.5 267365.0 0
91301.1 267293.0 0
96814.8 266746.0 0
101399.0 269355.0 0
107503.0 269545.0 0
116473.0 267303.0 0
113014.0 269401.0 0
121275.0 268831.0 0
126004.0 268038.0 0
132138.0 267664.0 0
137836.0 267834.0 0
142856.0 268376.0 0
147548.0 267103.0 0
152648.0 268644.0 0
157580.0 267671.0 0
162738.0 266654.0 0
167327.0 269460.0 0
172608.0 266919.0 0
177905.0 267012.0 0
182346.0 268658.0 0
186413.0 266302.0 0
192134.0 266853.0 0
196682.0 267483.0 0
201176.0 267048.0 0
206832.0 266916.0 0
212749.0 267432.0 0
217657.0 268555.0 0
221813.0 265654.0 0
226837.0 267763.0 0
231585.0 267440.0 0
236443.0 266553.0 0
241249.0 266009.0 0
240074.0 269374.0 0
243693.0 270334.0 0
245812.0 266174.0 0
250474.0 267183.0 0
255220.0 267027.0 0
260787.0 267162.0 0
266754.0 269819.0 0
271157.0 266616.0 0
278108.0 266250.0 0
283236.0 269464.0 0
288410.0 266628.0 0
293429.0 268563.0 0
298353.0 266217.0 0
303417.0 266888.0 0
308148.0 267204.0 0
314307.0 267311.0 0
319222.0 266910.0 0
322851.0 270030.0 0
328942.0 266954.0 0
333124.0 267301.0 0
336742.0 267241.0 0
342566.0 267636.0 0
347866.0 266850.0 0
346963.0 270402.0 0
353192.0 266495.0 0
357740.0 269136.0 0
362481.0 269154.0 0
367770.0 267652.0 0
373542.0 267841.0 0
382629.0 267297.0 0
378314.0 267599.0 0
387500.0 267605.0 0
390861.0 267405.0 0
394231.0 267003.0 0
398011.0 266987.0 0
405860.0 268426.0 0
412268.0 268038.0 0
417898.0 267560.0 0
423023.0 267948.0 0
427890.0 267573.0 0
432803.0 268013.0 0
437689.0 268502.0 0
441783.0 269257.0 0
447115.0 267283.0 0
452103.0 269390.0 0
456309.0 266914.0 0
461242.0 268375.0 0
466176.0 268004.0 0
470969.0 266175.0 0
476154.0 267609.0 0
482649.0 266505.0 0
488897.0 266902.0 0
492851.0 269724.0 0
497011.0 266588.0 0
2340.67 272647.0 0
7488.63 272320.0 0
11906.1 270802.0 0
13285.6 275205.0 0
17727.0 271729.0 0
22197.6 272325.0 0
25721.7 273111.0 0
29636.7 274891.0 0
33501.1 271890.0 0
36835.0 274303.0 0
41268.2 273532.0 0
46278.3 273656.0 0
51614.7 273075.0 0
56848.8 273745.0 0
62242.9 273336.0 0
67519.9 272171.0 0
72510.7 272242.0 0
81271.2 272488.0 0
76627.6 273311.0 0
87018.4 271401.0 0
92314.5 272560.0 0
97261.1 272583.0 0
102435.0 274505.0 0
106772.0 274689.0 0
111800.0 273373.0 0
117632.0 272847.0 0
123425.0 272581.0 0
128784.0 273092.0 0
134059.0 272707.0 0
137961.0 272436.0 0
142166.0 272375.0 0
147534.0 272902.0 0
152902.0 273576.0 0
158959.0 272065.0 0
162908.0 272045.0 0
167201.0 274095.0 0
172037.0 271335.0 0
177772.0 272547.0 0
183289.0 273336.0 0
188278.0 271278.0 0
193933.0 272134.0 0
199089.0 271850.0 0
204193.0 272259.0 0
214054.0 270843.0 0
209532.0 271994.0 0
213665.0 275114.0 0
217489.0 272934.0 0
222161.0 271144.0 0
226333.0 271641.0 0
225413.0 275498.0 0
230553.0 272956.0 0
235756.0 271290.0 0
240013.0 273413.0 0
250387.0 272572.0 0
256493.0 272452.0 0
262624.0 272792.0 0
267369.0 275340.0 0
272508.0 272258.0 0
278307.0 272058.0 0
282868.0 275008.0 0
289946.0 272119.0 0
294887.0 273009.0 0
299326.0 271575.0 0
303603.0 270885.0 0
307773.0 272359.0 0
312981.0 273496.0 0
317867.0 271724.0 0
324535.0 274650.0 0
327900.0 271977.0 0
333103.0 271585.0 0
338917.0 272889.0 0
344241.0 272925.0 0
351180.0 272601.0 0
358177.0 273513.0 0
362938.0 274058.0 0
367624.0 273015.0 0
372865.0 273470.0 0
377591.0 272277.0 0
383032.0 272460.0 0
387668.0 272089.0 0
390588.0 272951.0 0
394671.0 271623.0 0
400649.0 271377.0 0
404223.0 274679.0 0
409733.0 273882.0 0
416369.0 273352.0 0
422821.0 273603.0 0
428624.0 272388.0 0
433386.0 272831.0 0
438577.0 273756.0 0
448818.0 272149.0 0
444219.0 273065.0 0
452103.0 273380.0 0
457230.0 273198.0 0
462836.0 272838.0 0
466802.0 274104.0 0
470799.0 271363.0 0
476408.0 273986.0 0
482893.0 273240.0 0
488674.0 272386.0 0
492900.0 273443.0 0
497143.0 272442.0 0
2862.95 276484.0 0
7660.86 276781.0 0
12523.5 280567.0 0
17509.8 276621.0 0
22009.5 276611.0 0
25952.1 277020.0 0
33842.0 277781.0 0
38551.7 277771.0 0
43312.7 278595.0 0
47500.0 277418.0 0
51964.8 278720.0 0
58885.7 278298.0 0
64472.2 278535.0 0
68983.4 277268.0 0
73854.2 276720.0 0
77214.8 277144.0 0
80683.5 277589.0 0
86313.4 277706.0 0
92814.8 277567.0 0
98246.0 277845.0 0
103091.0 278469.0 0
109010.0 277880.0 0
113182.0 277495.0 0
122443.0 277372.0 0
117544.0 278557.0 0
126564.0 277984.0 0
131867.0 277441.0 0
136848.0 276984.0 0
140217.0 279276.0 0
144028.0 277662.0 0
150455.0 277455.0 0
157101.0 277288.0 0
163012.0 276431.0 0
167675.0 278752.0 0
173082.0 276965.0 0
183065.0 277958.0 0
178868.0 278614.0 0
186710.0 276653.0 0
191867.0 277008.0 0
196821.0 276190.0 0
201809.0 277288.0 0
207333.0 277082.0 0
216954.0 278091.0 0
220517.0 275987.0 0
222889.0 280451.0 0
229406.0 277997.0 0
235839.0 276768.0 0
240255.0 278419.0 0
245185.0 276398.0 0
252544.0 277572.0 0
257262.0 277900.0 0
262323.0 277559.0 0
272596.0 278363.0 0
277775.0 277069.0 0
289732.0 276889.0 0
285964.0 278532.0 0
293385.0 276591.0 0
297844.0 277486.0 0
303730.0 276026.0 0
309254.0 277918.0 0
315336.0 278924.0 0
320216.0 276065.0 0
323651.0 279541.0 0
328729.0 277563.0 0
334621.0 276880.0 0
338197.0 279106.0 0
342793.0 278092.0 0
348321.0 277395.0 0
354576.0 277320.0 0
358835.0 277475.0 0
362317.0 278117.0 0
366744.0 278059.0 0
372004.0 278860.0 0
376889.0 276099.0 0
377271.0 280394.0 0
380644.0 276744.0 0
386657.0 277248.0 0
391390.0 276335.0 0
396448.0 277328.0 0
400520.0 275754.0 0
407487.0 279347.0 0
413217.0 279180.0 0
418113.0 278410.0 0
422115.0 278756.0 0
426891.0 277204.0 0
431433.0 277120.0 0
436298.0 279104.0 0
442108.0 278405.0 0
447557.0 277314.0 0
452811.0 277567.0 0
457503.0 279241.0 0
461600.0 277057.0 0
465857.0 278161.0 0
470840.0 277155.0 0
476635.0 279908.0 0
480524.0 277656.0 0
485120.0 278287.0 0
491129.0 278232.0 0
497365.0 277933.0 0
2104.14 280644.0 0
6792.3 282274.0 0
18521.4 281656.0 0
24346.0 281382.0 0
30114.5 281759.0 0
35416.0 283191.0 0
39862.0 281831.0 0
43511.1 283890.0 0
47463.7 281584.0 0
51737.6 283559.0 0
56698.7 283335.0 0
61956.7 283350.0 0
66629.2 283024.0 0
71683.2 281613.0 0
77183.3 280762.0 0
82283.7 282573.0 0
88453.7 284019.0 0
93311.6 281674.0 0
97500.0 282451.0 0
102239.0 282252.0 0
107097.0 282029.0 0
112307.0 281755.0 0
117490.0 283171.0 0
122472.0 281460.0 0
132607.0 282224.0 0
127682.0 282947.0 0
137658.0 281926.0 0
135431.0 285693.0 0
142132.0 282344.0 0
147659.0 282147.0 0
153067.0 281479.0 0
157507.0 283169.0 0
161593.0 281326.0 0
165689.0 282995.0 0
171281.0 282850.0 0
176282.0 282849.0 0
180373.0 283273.0 0
185015.0 281736.0 0
190273.0 281292.0 0
188873.0 285407.0 0
195429.0 281785.0 0
201338.0 282742.0 0
206608.0 283083.0 0
212355.0 280930.0 0
218130.0 282482.0 0
227509.0 283105.0 0
232599.0 281606.0 0
238138.0 282371.0 0
243763.0 282715.0 0
248613.0 281359.0 0
255087.0 281650.0 0
251764.0 284620.0 0
259916.0 281827.0 0
266645.0 282375.0 0
272620.0 283282.0 0
276479.0 281891.0 0
281546.0 280767.0 0
286996.0 283120.0 0
292784.0 281407.0 0
298709.0 283348.0 0
303457.0 281320.0 0
307680.0 282573.0 0
312697.0 284192.0 0
319072.0 283238.0 0
323762.0 283764.0 0
328173.0 283205.0 0
332641.0 281514.0 0
337179.0 282883.0 0
341706.0 283324.0 0
346944.0 282821.0 0
352946.0 282593.0 0
358285.0 281299.0 0
363839.0 282517.0 0
368609.0 282160.0 0
372507.0 282740.0 0
378033.0 285499.0 0
383139.0 281715.0 0
392804.0 281071.0 0
388495.0 282942.0 0
396713.0 282832.0 0
401648.0 280824.0 0
408643.0 283938.0 0
412957.0 284144.0 0
417500.0 282350.0 0
423642.0 282664.0 0
429097.0 281408.0 0
432842.0 282610.0 0
439580.0 282779.0 0
445087.0 282406.0 0
449567.0 282068.0 0
453925.0 282413.0 0
458026.0 283807.0 0
461736.0 281638.0 0
466245.0 282870.0 0
472017.0 283181.0 0
477069.0 284558.0 0
481389.0 282274.0 0
487081.0 283475.0 0
492809.0 284128.0 0
497597.0 282966.0 0
3506.41 287725.0 0
8912.77 287543.0 0
12819.0 285990.0 0
18046.7 287867.0 0
23735.4 286748.0 0
29008.9 287551.0 0
33721.0 287353.0 0
38524.2 287674.0 0
43678.3 288623.0 0
47738.4 286346.0 0
52012.6 288114.0 0
56984.5 288741.0 0
61801.9 288059.0 0
66405.0 287617.0 0
71639.1 287498.0 0
78216.1 287977.0 0
84126.8 287313.0 0
87691.7 289093.0 0
94102.0 285893.0 0
99301.2 287150.0 0
103857.0 288577.0 0
108327.0 286992.0 0
113644.0 286599.0 0
122411.0 285852.0 0
118197.0 287627.0 0
126916.0 287894.0 0
131359.0 287035.0 0
139995.0 286628.0 0
145226.0 287285.0 0
151713.0 287588.0 0
157493.0 288314.0 0
162263.0 286752.0 0
167877.0 287302.0 0
173499.0 288484.0 0
178688.0 287238.0 0
183531.0 287282.0 0
193442.0 288038.0 0
198197.0 286491.0 0
202268.0 288044.0 0
207051.0 288250.0 0
212418.0 287321.0 0
217354.0 286947.0 0
221974.0 285783.0 0
226321.0 287863.0 0
231258.0 287005.0 0
236066.0 287547.0 0
240748.0 287385.0 0
247362.0 286693.0 0
251812.0 288629.0 0
256855.0 286818.0 0
262054.0 287036.0 0
266413.0 289689.0 0
272474.0 288028.0 0
277756.0 286367.0 0
282656.0 286254.0 0
287484.0 288609.0 0
294237.0 288021.0 0
299699.0 288167.0 0
304155.0 286334.0 0
308968.0 287627.0 0
315333.0 289059.0 0
311335.0 290658.0 0
320350.0 288248.0 0
326058.0 288503.0 0
333115.0 287675.0 0
339100.0 288208.0 0
343395.0 287345.0 0
347328.0 287622.0 0
351768.0 288130.0 0
357528.0 286646.0 0
362985.0 287550.0 0
368178.0 286995.0 0
373359.0 286431.0 0
382783.0 287863.0 0
392121.0 286026.0 0
387981.0 288635.0 0
397065.0 287185.0 0
402879.0 287497.0 0
407566.0 287484.0 0
411392.0 288453.0 0
416298.0 287307.0 0
421523.0 287100.0 0
427083.0 286469.0 0
431826.0 288748.0 0
436289.0 286292.0 0
442636.0 287677.0 0
449572.0 287695.0 0
454954.0 287088.0 0
459045.0 288104.0 0
462502.0 285848.0 0
462384.0 290322.0 0
466464.0 287731.0 0
470812.0 288350.0 0
475084.0 288108.0 0
479827.0 288596.0 0
485474.0 289139.0 0
491398.0 288337.0 0
496531.0 288442.0 0
3164.72 294388.0 0
7863.92 291608.0 0
13201.8 291900.0 0
18016.5 293844.0 0
22913.6 292383.0 0
28302.8 292695.0 0
33683.7 292262.0 0
38743.8 292612.0 0
42462.0 292454.0 0
47500.0 292227.0 0
52549.2 292513.0 0
57792.1 294056.0 0
62773.6 292526.0 0
67039.5 292425.0 0
72935.3 293548.0 0
78321.3 293776.0 0
82589.4 292372.0 0
87057.3 293007.0 0
92063.1 291207.0 0
97670.0 292435.0 0
102294.0 292246.0 0
107407.0 292823.0 0
113344.0 292016.0 0
121263.0 291125.0 0
117555.0 293364.0 0
125806.0 293795.0 0
129855.0 291310.0 0
135575.0 291487.0 0
141830.0 291499.0 0
147648.0 293624.0 0
152840.0 292942.0 0
156983.0 292789.0 0
162585.0 292864.0 0
168634.0 292821.0 0
173702.0 293843.0 0
178562.0 292322.0 0
183160.0 293958.0 0
188043.0 291289.0 0
193415.0 292820.0 0
197912.0 291515.0 0
202751.0 292239.0 0
206574.0 292637.0 0
210450.0 291894.0 0
215952.0 291459.0 0
217441.0 295855.0 0
222072.0 291879.0 0
227927.0 292320.0 0
232898.0 291456.0 0
237601.0 292035.0 0
243241.0 291882.0 0
248621.0 292180.0 0
254398.0 292295.0 0
259236.0 291733.0 0
257830.0 295730.0 0
262913.0 293348.0 0
267364.0 295400.0 0
270753.0 292298.0 0
276859.0 290936.0 0
277774.0 295645.0 0
282715.0 292400.0 0
287967.0 293838.0 0
292290.0 293547.0 0
298251.0 292468.0 0
305983.0 291927.0 0
310146.0 293457.0 0
314021.0 294079.0 0
318439.0 292321.0 0
322500.0 292513.0 0
328892.0 293145.0 0
333236.0 294067.0 0
336987.0 292051.0 0
341092.0 291988.0 0
346151.0 292149.0 0
357128.0 291965.0 0
352118.0 294239.0 0
361933.0 292467.0 0
372165.0 291050.0 0
367463.0 293786.0 0
377863.0 291498.0 0
383975.0 293903.0 0
389039.0 293434.0 0
392972.0 291243.0 0
398548.0 292618.0 0
404603.0 292658.0 0
408303.0 292676.0 0
411598.0 292746.0 0
415646.0 292102.0 0
420772.0 292589.0 0
427257.0 293021.0 0
432707.0 292815.0 0
437827.0 292868.0 0
443864.0 293926.0 0
448905.0 293811.0 0
453722.0 291917.0 0
458595.0 292194.0 0
466463.0 292611.0 0
471674.0 293008.0 0
476752.0 292681.0 0
482146.0 293458.0 0
489733.0 292464.0 0
493002.0 294462.0 0
497150.0 294435.0 0
2175.06 299635.0 0
6289.52 298587.0 0
11599.2 298015.0 0
17536.7 298307.0 0
22464.2 298055.0 0
27690.6 297756.0 0
32846.8 297642.0 0
37850.3 297145.0 0
42860.5 297248.0 0
47500.0 297310.0 0
52500.0 297229.0 0
57473.8 298517.0 0
62273.9 297583.0 0
67614.2 296811.0 0
72220.4 299269.0 0
77004.9 297665.0 0
81631.2 297277.0 0
86242.4 297129.0 0
91741.7 297620.0 0
97810.1 297823.0 0
102673.0 296805.0 0
106905.0 298969.0 0
111197.0 296894.0 0
115542.0 297688.0 0
120821.0 297011.0 0
126027.0 298628.0 0
131569.0 297295.0 0
137599.0 297674.0 0
143043.0 298088.0 0
152368.0 296903.0 0
148552.0 299427.0 0
156807.0 297470.0 0
161285.0 298671.0 0
165908.0 297363.0 0
170857.0 297768.0 0
176340.0 298405.0 0
181190.0 297487.0 0
186242.0 299448.0 0
190805.0 296194.0 0
191927.0 300931.0 0
195978.0 297159.0 0
202306.0 295920.0 0
201323.0 300885.0 0
207110.0 297643.0 0
212773.0 296078.0 0
217690.0 300567.0 0
221401.0 297379.0 0
226178.0 297162.0 0
231942.0 296502.0 0
236960.0 298657.0 0
240958.0 296146.0 0
246419.0 298165.0 0
252568.0 297565.0 0
257119.0 300208.0 0
262395.0 298378.0 0
272666.0 296383.0 0
276112.0 299839.0 0
283375.0 299425.0 0
289876.0 298372.0 0
295985.0 297618.0 0
302023.0 296561.0 0
305116.0 300972.0 0
308443.0 297414.0 0
313670.0 299208.0 0
318452.0 296897.0 0
325772.0 296852.0 0
322145.0 299568.0 0
330992.0 298624.0 0
336302.0 297744.0 0
342215.0 297382.0 0
347982.0 298326.0 0
352468.0 299894.0 0
357692.0 297796.0 0
363348.0 297393.0 0
372115.0 297169.0 0
367600.0 299879.0 0
377582.0 297461.0 0
382656.0 300188.0 0
388188.0 298305.0 0
393845.0 296921.0 0
397813.0 300765.0 0
403550.0 298457.0 0
409207.0 299215.0 0
413403.0 296934.0 0
418009.0 297554.0 0
422325.0 297631.0 0
427434.0 299772.0 0
432985.0 297071.0 0
437053.0 297794.0 0
442557.0 299412.0 0
447415.0 297190.0 0
451704.0 297770.0 0
455866.0 296189.0 0
461833.0 297489.0 0
468606.0 298196.0 0
474672.0 298096.0 0
480001.0 297545.0 0
486604.0 297684.0 0
493172.0 298838.0 0
498364.0 298755.0 0
2647.35 303916.0 0
6704.61 302460.0 0
11883.5 304802.0 0
17237.6 302804.0 0
21689.7 302929.0 0
26625.9 302958.0 0
32270.1 303097.0 0
37800.7 302216.0 0
42911.0 302364.0 0
48373.5 302183.0 0
53049.3 302412.0 0
57491.6 302803.0 0
62500.0 302397.0 0
67351.0 302420.0 0
72974.1 303605.0 0
77092.6 302593.0 0
80947.9 302580.0 0
86600.6 302302.0 0
92663.5 304214.0 0
98143.4 302867.0 0
102894.0 301821.0 0
107107.0 304322.0 0
112145.0 302198.0 0
117791.0 302065.0 0
127515.0 302346.0 0
123042.0 303729.0 0
131669.0 304095.0 0
135067.0 301175.0 0
139807.0 303783.0 0
146658.0 304651.0 0
153473.0 302720.0 0
159460.0 303210.0 0
165979.0 302577.0 0
171477.0 302998.0 0
177292.0 304627.0 0
183217.0 304704.0 0
188853.0 305055.0 0
196006.0 304755.0 0
206500.0 304334.0 0
211962.0 301845.0 0
222977.0 302042.0 0
228694.0 302150.0 0
233717.0 301478.0 0
237023.0 303084.0 0
241192.0 301479.0 0
246249.0 304592.0 0
251776.0 303012.0 0
258329.0 305182.0 0
263395.0 303961.0 0
268833.0 301363.0 0
274351.0 304054.0 0
278973.0 302832.0 0
284413.0 305804.0 0
288514.0 303136.0 0
293592.0 303304.0 0
300059.0 302699.0 0
304878.0 305014.0 0
308722.0 303213.0 0
313308.0 304169.0 0
316686.0 302096.0 0
320524.0 303689.0 0
326635.0 303281.0 0
333854.0 303571.0 0
338662.0 302128.0 0
342796.0 302862.0 0
347412.0 303297.0 0
352855.0 304719.0 0
357813.0 303581.0 0
362638.0 302219.0 0
367026.0 304228.0 0
371843.0 302612.0 0
377417.0 303371.0 0
382625.0 304545.0 0
386620.0 303824.0 0
391984.0 303098.0 0
396547.0 304883.0 0
401648.0 305178.0 0
406990.0 303404.0 0
411813.0 302914.0 0
417024.0 302096.0 0
422577.0 303359.0 0
427264.0 305505.0 0
432178.0 303660.0 0
437973.0 303017.0 0
442943.0 304965.0 0
448189.0 302241.0 0
452075.0 305403.0 0
455978.0 302094.0 0
461571.0 304047.0 0
466232.0 302708.0 0
471909.0 304415.0 0
477535.0 302906.0 0
481989.0 301520.0 0
481340.0 305363.0 0
486493.0 304986.0 0
491855.0 303943.0 0
497015.0 303532.0 0
162836.0 306222.0 0
201279.0 306317.0 0
204546.0 308852.0 0
210870.0 307504.0 0
216499.0 306299.0 0
222544.0 307779.0 0
228030.0 307559.0 0
234036.0 306287.0 0
231593.0 310825.0 0
236643.0 309625.0 0
240397.0 307249.0 0
244587.0 310387.0 0
248957.0 309204.0 0
253433.0 307813.0 0
257846.0 310723.0 0
261286.0 308208.0 0
265724.0 308888.0 0
270557.0 306898.0 0
278482.0 308304.0 0
283335.0 310429.0 0
289761.0 307673.0 0
297012.0 308061.0 0
302261.0 308606.0 0
199763.0 311280.0 0
204664.0 312980.0 0
209643.0 312521.0 0
215842.0 312397.0 0
221245.0 313165.0 0
226754.0 313154.0 0
231917.0 316121.0 0
235440.0 312796.0 0
240469.0 313351.0 0
245868.0 315507.0 0
252331.0 312743.0 0
262105.0 311352.0 0
262853.0 315417.0 0
267956.0 316175.0 0
271344.0 312014.0 0
276290.0 313666.0 0
280800.0 313547.0 0
284439.0 314793.0 0
287144.0 311942.0 0
293127.0 312580.0 0
299379.0 313420.0 0
200729.0 317569.0 0
206986.0 317495.0 0
212509.0 316752.0 0
218276.0 318087.0 0
223422.0 317105.0 0
227437.0 319105.0 0
236812.0 316463.0 0
236174.0 320532.0 0
241032.0 319095.0 0
246423.0 321366.0 0
250659.0 317086.0 0
256790.0 317103.0 0
261589.0 320405.0 0
266631.0 321403.0 0
273264.0 318376.0 0
278774.0 317556.0 0
283251.0 318481.0 0
288680.0 317235.0 0
294153.0 318174.0 0
298208.0 318115.0 0
202362.0 323933.0 0
208436.0 323009.0 0
213678.0 321845.0 0
218819.0 323447.0 0
223845.0 323056.0 0
228330.0 323737.0 0
231752.0 321485.0 0
231343.0 326088.0 0
237065.0 325968.0 0
240636.0 323171.0 0
243188.0 325954.0 0
252246.0 321824.0 0
257390.0 323018.0 0
261808.0 325718.0 0
271775.0 323153.0 0
274530.0 326420.0 0
276811.0 322365.0 0
279485.0 325181.0 0
280977.0 321461.0 0
285791.0 322432.0 0
291361.0 322156.0 0
293851.0 326306.0 0
297235.0 322740.0 0
341742.0 325017.0 0
10310.7 327353.0 0
202019.0 331060.0 0
206318.0 328423.0 0
210506.0 326967.0 0
215357.0 327353.0 0
220963.0 327660.0 0
226632.0 328664.0 0
232276.0 331148.0 0
237186.0 331347.0 0
242028.0 331410.0 0
248839.0 326731.0 0
254669.0 326985.0 0
258697.0 330557.0 0
268340.0 327869.0 0
278581.0 329260.0 0
283485.0 327372.0 0
282670.0 331585.0 0
289095.0 326932.0 0
292744.0 331586.0 0
297721.0 328979.0 0
309756.0 328883.0 0
48261.5 334777.0 0
174681.0 333802.0 0
201514.0 335830.0 0
206389.0 333727.0 0
211572.0 331853.0 0
217040.0 332894.0 0
222419.0 332505.0 0
228238.0 333244.0 0
225604.0 336645.0 0
237593.0 336262.0 0
247780.0 332600.0 0
253358.0 332166.0 0
258791.0 335750.0 0
262740.0 333179.0 0
267388.0 334144.0 0
272993.0 332802.0 0
279094.0 334982.0 0
286916.0 333314.0 0
297666.0 335450.0 0
357807.0 336610.0 0
362467.0 335026.0 0
368610.0 334809.0 0
389098.0 333873.0 0
404603.0 332139.0 0
421499.0 333411.0 0
437044.0 336700.0 0
443009.0 333058.0 0
455114.0 333439.0 0
472319.0 334183.0 0
492537.0 335159.0 0
497243.0 333007.0 0
6878.9 337163.0 0
14254.8 341716.0 0
56374.4 338691.0 0
63868.7 338701.0 0
68827.6 339720.0 0
75161.9 341755.0 0
79658.9 340454.0 0
85031.3 341152.0 0
96187.4 338967.0 0
100416.0 338415.0 0
107589.0 340151.0 0
115161.0 340453.0 0
121008.0 340346.0 0
126005.0 338135.0 0
137504.0 341470.0 0
154054.0 340756.0 0
158565.0 340151.0 0
167796.0 337025.0 0
177286.0 337855.0 0
178735.0 341222.0 0
191569.0 339008.0 0
196244.0 339936.0 0
201010.0 340185.0 0
205302.0 338617.0 0
208172.0 341599.0 0
210615.0 337532.0 0
215702.0 337646.0 0
217962.0 341360.0 0
220254.0 336959.0 0
222432.0 341144.0 0
231496.0 337263.0 0
242340.0 339349.0 0
248056.0 338623.0 0
253796.0 337512.0 0
258911.0 340161.0 0
263558.0 338281.0 0
269179.0 339258.0 0
274237.0 338029.0 0
277757.0 341738.0 0
284140.0 338302.0 0
288639.0 337887.0 0
292600.0 336869.0 0
297279.0 340451.0 0
309917.0 340389.0 0
317421.0 337103.0 0
322450.0 338493.0 0
374583.0 337451.0 0
391311.0 340552.0 0
423600.0 341362.0 0
461586.0 337300.0 0
471850.0 341159.0 0
476569.0 337426.0 0
481239.0 338519.0 0
17655.2 345033.0 0
22442.4 343032.0 0
30433.9 342936.0 0
36537.1 343469.0 0
48339.7 345681.0 0
53010.0 345678.0 0
93065.2 345069.0 0
111005.0 341996.0 0
124380.0 345244.0 0
131855.0 342458.0 0
142262.0 343723.0 0
150902.0 345046.0 0
173221.0 342879.0 0
178042.0 344724.0 0
204226.0 343251.0 0
213442.0 342432.0 0
209535.0 345953.0 0
220309.0 345273.0 0
227555.0 341921.0 0
226138.0 346907.0 0
233098.0 342992.0 0
238212.0 342335.0 0
241807.0 344111.0 0
245426.0 343151.0 0
250946.0 343518.0 0
255435.0 342068.0 0
257838.0 345915.0 0
261697.0 342546.0 0
262734.0 346760.0 0
267174.0 344271.0 0
273056.0 342303.0 0
271677.0 346723.0 0
282093.0 342130.0 0
284535.0 344547.0 0
280640.0 346341.0 0
287588.0 342044.0 0
292788.0 341871.0 0
292372.0 346763.0 0
296704.0 344879.0 0
322451.0 343205.0 0
326630.0 343964.0 0
330913.0 344238.0 0
335045.0 346898.0 0
339605.0 343582.0 0
345114.0 345775.0 0
388726.0 345066.0 0
396056.0 341990.0 0
393964.0 346874.0 0
407296.0 346143.0 0
417127.0 343056.0 0
422388.0 346828.0 0
426612.0 344931.0 0
431907.0 345633.0 0
439714.0 343922.0 0
444222.0 346179.0 0
449230.0 343072.0 0
458451.0 345938.0 0
462790.0 343749.0 0
466760.0 342562.0 0
479717.0 343802.0 0
484429.0 343882.0 0
489239.0 346808.0 0
497839.0 342458.0 0
2631.23 350323.0 0
8033.11 347352.0 0
14588.8 348540.0 0
18911.2 350867.0 0
30589.4 349138.0 0
37311.7 351470.0 0
40985.6 347874.0 0
45936.2 349349.0 0
88220.9 347142.0 0
92904.6 350077.0 0
96476.5 351515.0 0
97919.2 347193.0 0
102310.0 349300.0 0
113050.0 349358.0 0
119140.0 347343.0 0
126263.0 349452.0 0
137137.0 350910.0 0
146000.0 347174.0 0
155278.0 348411.0 0
169989.0 348130.0 0
177630.0 348899.0 0
183146.0 350552.0 0
188989.0 349237.0 0
194834.0 350392.0 0
199746.0 347970.0 0
204633.0 348376.0 0
208900.0 351307.0 0
215278.0 347934.0 0
222323.0 349530.0 0
226770.0 351733.0 0
230882.0 347789.0 0
236512.0 347444.0 0
241536.0 347876.0 0
247316.0 348609.0 0
253375.0 347974.0 0
257550.0 351445.0 0
262653.0 351446.0 0
267200.0 349605.0 0
276118.0 348246.0 0
283986.0 351240.0 0
287753.0 346992.0 0
300248.0 347479.0 0
296086.0 349721.0 0
304617.0 347840.0 0
305443.0 351732.0 0
308665.0 347049.0 0
309710.0 351190.0 0
314010.0 349927.0 0
318274.0 347228.0 0
342101.0 349175.0 0
348027.0 349330.0 0
364943.0 348332.0 0
368691.0 350965.0 0
377600.0 349194.0 0
383597.0 347985.0 0
390690.0 348996.0 0
394399.0 351663.0 0
398809.0 349025.0 0
403236.0 349896.0 0
412976.0 348465.0 0
431773.0 351156.0 0
436080.0 347471.0 0
473827.0 350587.0 0
478880.0 349022.0 0
492521.0 350805.0 0
497266.0 350562.0 0
4198.95 355426.0 0
10165.2 353575.0 0
21754.5 357023.0 0
27252.5 353190.0 0
31965.1 355675.0 0
44551.6 354831.0 0
49617.5 355766.0 0
54909.3 352339.0 0
60744.6 353388.0 0
65233.2 356532.0 0
73247.1 355425.0 0
79679.9 355995.0 0
85759.2 352358.0 0
91010.0 352491.0 0
100409.0 353683.0 0
97591.4 357118.0 0
105708.0 352391.0 0
118061.0 354652.0 0
122224.0 356648.0 0
127593.0 354181.0 0
132691.0 352827.0 0
140008.0 355135.0 0
145852.0 355152.0 0
166524.0 352186.0 0
169946.0 355890.0 0
175200.0 354228.0 0
182139.0 355784.0 0
204297.0 353878.0 0
208664.0 356639.0 0
213204.0 354339.0 0
218604.0 353033.0 0
222952.0 353426.0 0
226475.0 356716.0 0
231973.0 352995.0 0
237368.0 352870.0 0
242536.0 352517.0 0
247240.0 354981.0 0
252155.0 352900.0 0
255711.0 356695.0 0
261567.0 356944.0 0
265898.0 355283.0 0
272427.0 352411.0 0
278257.0 352398.0 0
281393.0 355808.0 0
290687.0 352171.0 0
286383.0 356828.0 0
295934.0 355896.0 0
301601.0 354899.0 0
308833.0 355801.0 0
312784.0 355185.0 0
335177.0 354405.0 0
341691.0 354069.0 0
350533.0 356822.0 0
360423.0 352134.0 0
368277.0 356469.0 0
373639.0 353384.0 0
380959.0 353974.0 0
385630.0 352716.0 0
388242.0 355954.0 0
398411.0 353043.0 0
402468.0 354799.0 0
411664.0 355905.0 0
415149.0 352908.0 0
440796.0 356409.0 0
462565.0 353570.0 0
468005.0 355228.0 0
472750.0 356262.0 0
483291.0 352620.0 0
488293.0 354068.0 0
494690.0 355512.0 0
1396.57 358417.0 0
8211.08 357382.0 0
11918.4 358857.0 0
16619.4 358326.0 0
31750.6 360418.0 0
36111.9 359667.0 0
40529.6 359297.0 0
53511.7 357308.0 0
55120.1 361435.0 0
71194.4 361782.0 0
76163.3 360612.0 0
101262.0 358234.0 0
116011.0 361478.0 0
125720.0 357885.0 0
127426.0 361351.0 0
132184.0 358935.0 0
137685.0 360392.0 0
150246.0 358568.0 0
157949.0 357321.0 0
162385.0 358101.0 0
166757.0 360678.0 0
178334.0 357733.0 0
173828.0 359046.0 0
178153.0 361993.0 0
182633.0 360556.0 0
203853.0 359475.0 0
208527.0 361811.0 0
212267.0 359199.0 0
217086.0 359818.0 0
221675.0 357330.0 0
231125.0 358323.0 0
237037.0 358816.0 0
242693.0 357552.0 0
247455.0 359424.0 0
251112.0 358063.0 0
259212.0 361379.0 0
265075.0 360118.0 0
269787.0 359238.0 0
276048.0 358211.0 0
282096.0 360741.0 0
291420.0 359420.0 0
295922.0 361406.0 0
305159.0 358475.0 0
310186.0 362183.0 0
315850.0 359004.0 0
321608.0 358772.0 0
326129.0 361971.0 0
329672.0 357495.0 0
332766.0 361888.0 0
345721.0 359229.0 0
355714.0 358316.0 0
359390.0 361985.0 0
365233.0 361028.0 0
371514.0 360937.0 0
376826.0 358428.0 0
382983.0 361267.0 0
392773.0 360421.0 0
397327.0 358258.0 0
402414.0 359558.0 0
406830.0 357412.0 0
417627.0 357720.0 0
430432.0 360469.0 0
435876.0 358804.0 0
443743.0 360699.0 0
448497.0 358768.0 0
457751.0 362209.0 0
472939.0 360586.0 0
477922.0 360739.0 0
490331.0 358652.0 0
498185.0 358605.0 0
9024.03 362261.0 0
22141.1 362509.0 0
27556.0 363533.0 0
35817.7 367048.0 0
42506.5 362939.0 0
47221.1 363653.0 0
57843.5 365144.0 0
62209.9 366595.0 0
66669.3 364750.0 0
78890.3 365738.0 0
87656.3 363356.0 0
93424.3 366520.0 0
101312.0 363457.0 0
105428.0 363866.0 0
110458.0 365752.0 0
121406.0 362302.0 0
119863.0 365938.0 0
125034.0 364775.0 0
134374.0 363268.0 0
136692.0 363532.0 0
142919.0 363020.0 0
145120.0 367018.0 0
149278.0 365155.0 0
154955.0 363957.0 0
159503.0 362681.0 0
162950.0 364996.0 0
170964.0 362485.0 0
175791.0 366751.0 0
179935.0 365403.0 0
188470.0 362512.0 0
193925.0 365187.0 0
198591.0 362447.0 0
203439.0 365107.0 0
208897.0 367249.0 0
213453.0 363843.0 0
218210.0 366238.0 0
222145.0 362545.0 0
227691.0 362540.0 0
233129.0 363363.0 0
238491.0 365143.0 0
244159.0 362947.0 0
249531.0 362797.0 0
254016.0 363257.0 0
252053.0 366604.0 0
263698.0 364181.0 0
267841.0 363660.0 0
272481.0 363667.0 0
277763.0 364527.0 0
282873.0 366082.0 0
287252.0 362931.0 0
292221.0 364660.0 0
296569.0 365425.0 0
301341.0 366628.0 0
305768.0 366067.0 0
309180.0 367177.0 0
315912.0 364873.0 0
329885.0 363915.0 0
337341.0 366707.0 0
350089.0 367161.0 0
354804.0 365698.0 0
363529.0 365637.0 0
368250.0 366092.0 0
375763.0 364330.0 0
379842.0 366899.0 0
383935.0 366968.0 0
388117.0 364801.0 0
405524.0 362521.0 0
418256.0 362885.0 0
420703.0 366611.0 0
423877.0 362937.0 0
428710.0 366447.0 0
448865.0 363643.0 0
453540.0 364964.0 0
463509.0 362320.0 0
469646.0 363714.0 0
473919.0 364963.0 0
479710.0 366323.0 0
484772.0 364820.0 0
492549.0 362508.0 0
497345.0 363502.0 0
13206.6 368205.0 0
18967.2 368788.0 0
22201.9 372155.0 0
31611.8 370021.0 0
40387.5 367753.0 0
42186.1 371710.0 0
83974.5 368559.0 0
88407.2 368672.0 0
99013.6 370003.0 0
115536.0 367592.0 0
119831.0 369782.0 0
124433.0 368821.0 0
152637.0 368394.0 0
157044.0 368504.0 0
203858.0 370200.0 0
214081.0 369645.0 0
223563.0 367533.0 0
220375.0 369952.0 0
229268.0 367506.0 0
226551.0 370614.0 0
234110.0 368512.0 0
230605.0 372391.0 0
238399.0 370158.0 0
242645.0 368712.0 0
247770.0 367599.0 0
251573.0 371535.0 0
255807.0 368415.0 0
260729.0 367547.0 0
262262.0 372389.0 0
265333.0 368077.0 0
269824.0 367723.0 0
274741.0 369379.0 0
281227.0 370468.0 0
287783.0 368723.0 0
293213.0 369469.0 0
297402.0 369070.0 0
320548.0 368963.0 0
329631.0 370677.0 0
332185.0 367442.0 0
344487.0 367622.0 0
359342.0 367514.0 0
397919.0 370088.0 0
443621.0 371371.0 0
460614.0 370147.0 0
475201.0 370227.0 0
485454.0 372344.0 0
490479.0 372441.0 0
2033.64 375021.0 0
6102.98 375308.0 0
10999.5 375122.0 0
14720.1 376033.0 0
17474.1 375205.0 0
20271.1 375552.0 0
24949.4 375101.0 0
22401.6 376811.0 0
28269.6 375190.0 0
34186.8 375138.0 0
31516.3 376016.0 0
37980.2 375057.0 0
45103.9 375056.0 0
41766.7 376077.0 0
48865.8 375144.0 0
52480.2 375177.0 0
55357.7 375532.0 0
58312.2 375180.0 0
65094.4 375540.0 0
61370.4 375834.0 0
68700.0 375474.0 0
73282.6 372514.0 0
75406.8 377179.0 0
77850.5 375312.0 0
81296.7 375131.0 0
83409.7 376109.0 0
87262.3 375399.0 0
92469.3 375705.0 0
96873.5 375911.0 0
102837.0 375005.0 0
107059.0 375032.0 0
110961.0 375119.0 0
115250.0 375777.0 0
119694.0 375523.0 0
122982.0 376161.0 0
126804.0 375027.0 0
131343.0 375240.0 0
134836.0 375198.0 0
138398.0 375031.0 0
142689.0 375092.0 0
147655.0 375119.0 0
152277.0 375542.0 0
156179.0 375536.0 0
160237.0 375390.0 0
163772.0 375073.0 0
167694.0 375389.0 0
165645.0 377401.0 0
172175.0 375139.0 0
177885.0 375111.0 0
175695.0 376810.0 0
181685.0 375123.0 0
184585.0 375891.0 0
188750.0 375128.0 0
192929.0 376005.0 0
195942.0 375419.0 0
198834.0 375307.0 0
208501.0 372720.0 0
204414.0 375727.0 0
212847.0 374369.0 0
217876.0 373671.0 0
223095.0 372915.0 0
226927.0 376454.0 0
232137.0 377292.0 0
235566.0 373394.0 0
240646.0 373691.0 0
242890.0 377336.0 0
246037.0 373195.0 0
251816.0 376109.0 0
256421.0 373468.0 0
259918.0 376519.0 0
264624.0 377188.0 0
267754.0 372492.0 0
269259.0 377333.0 0
272831.0 374463.0 0
278032.0 373950.0 0
284469.0 373564.0 0
289818.0 374368.0 0
295424.0 374024.0 0
300854.0 376205.0 0
304887.0 375357.0 0
308867.0 375509.0 0
313035.0 375572.0 0
316694.0 375317.0 0
320302.0 375497.0 0
323968.0 375533.0 0
326885.0 373506.0 0
329861.0 376631.0 0
333206.0 375256.0 0
337973.0 375981.0 0
342066.0 375326.0 0
343619.0 377504.0 0
345339.0 375195.0 0
348011.0 375812.0 0
351304.0 375370.0 0
356244.0 375782.0 0
360993.0 375518.0 0
364641.0 375220.0 0
370966.0 375064.0 0
367788.0 375751.0 0
374148.0 375606.0 0
376824.0 375429.0 0
380111.0 375372.0 0
383149.0 375483.0 0
386239.0 375202.0 0
389401.0 375299.0 0
391643.0 377025.0 0
393049.0 372655.0 0
395706.0 376656.0 0
401905.0 372755.0 0
399526.0 376581.0 0
405434.0 375232.0 0
409177.0 375374.0 0
412901.0 375118.0 0
417205.0 375056.0 0
414863.0 377453.0 0
421584.0 375405.0 0
425004.0 375068.0 0
432312.0 375277.0 0
428706.0 375230.0 0
436259.0 375237.0 0
440712.0 375163.0 0
447310.0 375104.0 0
444105.0 377053.0 0
451272.0 375246.0 0
455274.0 375269.0 0
459211.0 375181.0 0
461527.0 376984.0 0
464341.0 375163.0 0
468955.0 375043.0 0
473002.0 375430.0 0
475724.0 375962.0 0
478576.0 375274.0 0
482127.0 375221.0 0
488185.0 375454.0 0
494443.0 375118.0 0
491887.0 377199.0 0
498431.0 375377.0 0
4908.63 378371.0 0
1506.01 377671.0 0
2250.81 381242.0 0
8725.8 379140.0 0
6326.36 382284.0 0
12899.6 379643.0 0
17478.4 379359.0 0
25489.8 377974.0 0
21411.3 380140.0 0
25127.3 380816.0 0
28342.7 377949.0 0
28667.5 381124.0 0
35206.8 377799.0 0
32126.6 379894.0 0
39398.3 378889.0 0
36492.0 381066.0 0
44081.7 378473.0 0
41964.9 380489.0 0
45749.7 381717.0 0
48196.4 378303.0 0
49867.6 382134.0 0
52599.3 378671.0 0
53453.1 382350.0 0
56458.0 380945.0 0
56303.3 378029.0 0
59506.7 378520.0 0
60178.1 382358.0 0
63193.8 379079.0 0
65149.7 381447.0 0
66949.2 378548.0 0
70984.1 377705.0 0
68568.0 381657.0 0
73831.9 381510.0 0
80050.3 378451.0 0
77567.3 380283.0 0
80111.2 381848.0 0
83716.1 378767.0 0
82482.9 381415.0 0
86014.2 381389.0 0
89335.6 378950.0 0
93091.3 379432.0 0
96475.6 380658.0 0
100373.0 377900.0 0
100025.0 382256.0 0
105104.0 378037.0 0
104247.0 381299.0 0
108586.0 377928.0 0
111761.0 377982.0 0
109132.0 381647.0 0
116001.0 380647.0 0
113413.0 379943.0 0
118186.0 378795.0 0
121726.0 379531.0 0
119587.0 382527.0 0
125765.0 380050.0 0
128983.0 377927.0 0
132291.0 378072.0 0
130904.0 381009.0 0
135049.0 378120.0 0
135013.0 381655.0 0
138596.0 380954.0 0
138292.0 377862.0 0
141325.0 378038.0 0
142197.0 381290.0 0
145231.0 378485.0 0
146548.0 381879.0 0
149269.0 378722.0 0
150057.0 381938.0 0
153489.0 379666.0 0
158185.0 379392.0 0
162624.0 378805.0 0
161318.0 382517.0 0
166937.0 379543.0 0
164910.0 381932.0 0
169058.0 377936.0 0
169305.0 381134.0 0
172282.0 379545.0 0
176300.0 379745.0 0
180044.0 378561.0 0
183487.0 378385.0 0
180586.0 382113.0 0
186761.0 378752.0 0
183806.0 380746.0 0
187641.0 382066.0 0
191197.0 379785.0 0
195432.0 378895.0 0
195016.0 382428.0 0
198316.0 382327.0 0
199424.0 378955.0 0
204434.0 381839.0 0
209251.0 378280.0 0
215265.0 379249.0 0
220694.0 377995.0 0
224232.0 380452.0 0
228768.0 382539.0 0
233800.0 381579.0 0
237609.0 378190.0 0
241626.0 381547.0 0
247821.0 379130.0 0
255617.0 378602.0 0
260814.0 382227.0 0
267546.0 382137.0 0
275369.0 379321.0 0
281779.0 378834.0 0
288017.0 379743.0 0
293777.0 379447.0 0
304938.0 378757.0 0
301307.0 380639.0 0
305505.0 381785.0 0
308892.0 379415.0 0
312718.0 379060.0 0
316190.0 381733.0 0
316594.0 378229.0 0
319154.0 378570.0 0
320136.0 381142.0 0
322517.0 378464.0 0
326530.0 378168.0 0
323618.0 381389.0 0
331028.0 380489.0 0
327033.0 382433.0 0
333604.0 378533.0 0
335831.0 379244.0 0
341381.0 379163.0 0
338901.0 381724.0 0
345713.0 378469.0 0
344688.0 381115.0 0
348201.0 378390.0 0
348470.0 380872.0 0
352085.0 379688.0 0
355656.0 381827.0 0
359233.0 379753.0 0
362788.0 378381.0 0
366562.0 379450.0 0
362574.0 382253.0 0
371081.0 378905.0 0
370295.0 382520.0 0
374149.0 377681.0 0
376285.0 379342.0 0
374027.0 382060.0 0
379557.0 378653.0 0
377861.0 382467.0 0
380646.0 382086.0 0
383717.0 379333.0 0
387651.0 378295.0 0
389199.0 380958.0 0
393081.0 380275.0 0
397663.0 381459.0 0
400704.0 380205.0 0
403436.0 377811.0 0
407884.0 378407.0 0
407306.0 381300.0 0
403328.0 381700.0 0
411320.0 378328.0 0
411365.0 381491.0 0
415146.0 380366.0 0
419131.0 378402.0 0
422950.0 378790.0 0
419247.0 382438.0 0
425958.0 377736.0 0
427417.0 380880.0 0
423510.0 382195.0 0
430611.0 378239.0 0
431882.0 382539.0 0
436916.0 378351.0 0
434426.0 378846.0 0
437492.0 381859.0 0
439649.0 378465.0 0
442556.0 380941.0 0
448945.0 378793.0 0
445854.0 380465.0 0
453201.0 378308.0 0
451404.0 381299.0 0
457390.0 378326.0 0
455271.0 381889.0 0
460355.0 380055.0 0
464675.0 379784.0 0
467405.0 377707.0 0
468782.0 381168.0 0
471032.0 378266.0 0
474041.0 378777.0 0
472945.0 381974.0 0
477084.0 379080.0 0
480527.0 378129.0 0
481036.0 381207.0 0
484072.0 382533.0 0
484903.0 377784.0 0
488288.0 381784.0 0
488947.0 378405.0 0
493131.0 381537.0 0
497455.0 378845.0 0
1390.07 384327.0 0
4456.5 385090.0 0
1781.01 387146.0 0
8056.38 385931.0 0
10554.5 383148.0 0
14684.8 383652.0 0
12012.1 386982.0 0
18760.4 383901.0 0
16212.5 387680.0 0
22844.1 383930.0 0
25456.2 387460.0 0
26638.0 384410.0 0
30507.7 384268.0 0
29080.3 387715.0 0
33575.7 383103.0 0
33148.3 386463.0 0
39649.2 382681.0 0
36675.0 384686.0 0
42397.9 382775.0 0
44521.8 384268.0 0
41015.3 386549.0 0
45666.7 387722.0 0
48075.0 385112.0 0
51861.0 385906.0 0
56162.7 384828.0 0
59068.3 387627.0 0
63704.2 385468.0 0
71057.8 384481.0 0
68018.4 385506.0 0
74509.5 385868.0 0
77889.2 383421.0 0
77981.6 386502.0 0
82048.5 384866.0 0
86303.7 385584.0 0
90231.3 382699.0 0
90334.8 387340.0 0
94312.9 384102.0 0
98204.8 385957.0 0
106245.0 384939.0 0
102709.0 385363.0 0
109672.0 386127.0 0
113184.0 383885.0 0
116438.0 382774.0 0
116635.0 385847.0 0
120607.0 386603.0 0
123632.0 383458.0 0
128385.0 384015.0 0
133266.0 385146.0 0
136116.0 387466.0 0
138735.0 384729.0 0
141710.0 387454.0 0
143569.0 384718.0 0
152405.0 384165.0 0
148438.0 385924.0 0
156414.0 384036.0 0
160445.0 386105.0 0
164337.0 385372.0 0
167786.0 384262.0 0
170904.0 383267.0 0
171502.0 386741.0 0
177258.0 383101.0 0
173627.0 382984.0 0
175649.0 386039.0 0
183645.0 384039.0 0
179570.0 386320.0 0
187855.0 385896.0 0
183892.0 387741.0 0
191877.0 384317.0 0
196376.0 385099.0 0
198546.0 387709.0 0
194503.0 387507.0 0
199521.0 384485.0 0
209138.0 383292.0 0
205541.0 386397.0 0
213575.0 384828.0 0
219275.0 383054.0 0
223693.0 384970.0 0
232401.0 386362.0 0
237630.0 384075.0 0
241448.0 387289.0 0
249698.0 383925.0 0
245344.0 384322.0 0
254576.0 384038.0 0
268260.0 387306.0 0
272883.0 384373.0 0
278369.0 384172.0 0
282635.0 383795.0 0
286213.0 384229.0 0
290882.0 383971.0 0
295764.0 384573.0 0
300465.0 384375.0 0
304022.0 384261.0 0
308262.0 383063.0 0
306908.0 386353.0 0
310427.0 385485.0 0
311970.0 382740.0 0
314891.0 386409.0 0
319316.0 384773.0 0
322823.0 383932.0 0
322223.0 386927.0 0
325931.0 386464.0 0
330326.0 385131.0 0
334910.0 383476.0 0
333538.0 387707.0 0
339382.0 385874.0 0
342256.0 383787.0 0
343450.0 387695.0 0
347768.0 384581.0 0
352036.0 383708.0 0
352040.0 387193.0 0
355533.0 386075.0 0
359262.0 384420.0 0
366729.0 384301.0 0
362772.0 386681.0 0
371795.0 385754.0 0
376072.0 385180.0 0
380394.0 385101.0 0
385208.0 383780.0 0
390325.0 384457.0 0
394013.0 384107.0 0
396685.0 386053.0 0
400937.0 385176.0 0
405815.0 385296.0 0
410013.0 384599.0 0
411991.0 386961.0 0
414681.0 384256.0 0
418843.0 386132.0 0
423305.0 386302.0 0
427656.0 384714.0 0
431571.0 386612.0 0
435669.0 385641.0 0
441368.0 384834.0 0
444962.0 383014.0 0
448403.0 382691.0 0
446564.0 386164.0 0
451573.0 384539.0 0
459175.0 383972.0 0
454969.0 386245.0 0
463830.0 383781.0 0
462115.0 387475.0 0
468190.0 384902.0 0
471868.0 385020.0 0
474400.0 386774.0 0
477164.0 383462.0 0
481341.0 385294.0 0
486032.0 385513.0 0
490309.0 385561.0 0
494589.0 386320.0 0
498020.0 383116.0 0
498528.0 387151.0 0
1755.72 389964.0 0
1223.99 392531.0 0
5277.16 388194.0 0
9227.87 389553.0 0
5643.14 392223.0 0
13301.1 390962.0 0
17714.8 392239.0 0
21132.0 388083.0 0
22656.5 392642.0 0
25867.6 390457.0 0
28926.7 391392.0 0
32363.6 390217.0 0
36659.4 388454.0 0
40257.7 390757.0 0
43712.7 390694.0 0
49444.6 387828.0 0
47943.5 390690.0 0
51435.7 390085.0 0
54531.5 388582.0 0
56646.0 390359.0 0
58850.8 392143.0 0
62710.3 390511.0 0
70985.7 387965.0 0
67010.5 389405.0 0
70278.5 391915.0 0
74969.8 390417.0 0
80181.4 389689.0 0
84002.6 388713.0 0
86970.6 390215.0 0
90820.0 392057.0 0
94756.2 389084.0 0
101225.0 388472.0 0
98558.7 390842.0 0
105472.0 388768.0 0
102578.0 391941.0 0
109506.0 389865.0 0
113429.0 388243.0 0
112426.0 392628.0 0
117268.0 390225.0 0
121867.0 391161.0 0
125758.0 388108.0 0
130557.0 388056.0 0
129293.0 391137.0 0
132479.0 391607.0 0
133864.0 388977.0 0
136813.0 391530.0 0
138904.0 388449.0 0
141397.0 390845.0 0
145089.0 388581.0 0
145269.0 392575.0 0
152896.0 388017.0 0
149495.0 390456.0 0
156736.0 388627.0 0
160149.0 389558.0 0
163182.0 388824.0 0
158345.0 391879.0 0
161512.0 392246.0 0
167092.0 387960.0 0
165510.0 391735.0 0
170216.0 391041.0 0
175694.0 390429.0 0
180368.0 389529.0 0
183534.0 391071.0 0
188128.0 389805.0 0
191234.0 387966.0 0
192474.0 390582.0 0
190348.0 392822.0 0
195857.0 390764.0 0
199267.0 390742.0 0
202639.0 388390.0 0
204046.0 392584.0 0
209531.0 387831.0 0
213766.0 389691.0 0
218196.0 387807.0 0
218945.0 392423.0 0
222659.0 389630.0 0
227815.0 388111.0 0
236529.0 389131.0 0
241805.0 392353.0 0
246353.0 389492.0 0
251248.0 387978.0 0
251540.0 392520.0 0
256512.0 389957.0 0
263058.0 388845.0 0
267955.0 392854.0 0
272264.0 389500.0 0
277063.0 389207.0 0
282218.0 388339.0 0
286571.0 387799.0 0
288677.0 391045.0 0
292642.0 388361.0 0
296920.0 388204.0 0
295997.0 391558.0 0
301837.0 387905.0 0
301101.0 392325.0 0
305827.0 390089.0 0
310835.0 389024.0 0
315718.0 391858.0 0
319234.0 388617.0 0
320711.0 391893.0 0
322849.0 389423.0 0
326364.0 390388.0 0
323287.0 391826.0 0
330312.0 389033.0 0
329941.0 392764.0 0
334737.0 391906.0 0
336850.0 387788.0 0
339680.0 389925.0 0
344302.0 392793.0 0
348608.0 389649.0 0
354396.0 391390.0 0
358827.0 388692.0 0
359432.0 392495.0 0
363261.0 391148.0 0
368041.0 389030.0 0
371392.0 391624.0 0
373808.0 388956.0 0
378256.0 388639.0 0
381199.0 391839.0 0
383174.0 388152.0 0
385466.0 391233.0 0
388006.0 388260.0 0
393133.0 388698.0 0
395422.0 392627.0 0
399006.0 389405.0 0
402465.0 391510.0 0
403830.0 388625.0 0
406778.0 391868.0 0
408202.0 388184.0 0
411566.0 390361.0 0
415530.0 388283.0 0
416022.0 392520.0 0
419886.0 389671.0 0
427871.0 388336.0 0
424375.0 390271.0 0
431822.0 390034.0 0
428591.0 392260.0 0
435433.0 389380.0 0
434284.0 391701.0 0
436158.0 392506.0 0
442562.0 388874.0 0
438813.0 387841.0 0
439133.0 391215.0 0
443868.0 392850.0 0
446473.0 389830.0 0
450661.0 387847.0 0
449753.0 392211.0 0
458651.0 388234.0 0
454250.0 389485.0 0
458033.0 391669.0 0
462465.0 390659.0 0
465536.0 388152.0 0
466606.0 391462.0 0
470312.0 388856.0 0
470479.0 392375.0 0
478434.0 388105.0 0
474812.0 390682.0 0
483389.0 388984.0 0
479618.0 391671.0 0
488207.0 388852.0 0
492586.0 390068.0 0
497547.0 390655.0 0
2088.03 395631.0 0
10188.9 393536.0 0
6510.76 397236.0 0
14639.5 395720.0 0
10645.2 397322.0 0
19676.9 396341.0 0
23889.2 396432.0 0
26949.2 394098.0 0
31361.7 395101.0 0
35490.7 397223.0 0
36037.9 393054.0 0
39860.6 393465.0 0
39467.3 396735.0 0
42666.4 393962.0 0
42583.5 396925.0 0
45745.3 396913.0 0
45919.8 393201.0 0
50004.7 394283.0 0
54234.1 392972.0 0
53174.1 397307.0 0
57356.0 396009.0 0
61916.5 395065.0 0
65925.2 393427.0 0
69123.3 395505.0 0
73532.0 395178.0 0
78416.5 393801.0 0
77303.9 397268.0 0
81353.3 396776.0 0
83393.5 393172.0 0
85647.3 397058.0 0
87255.9 393922.0 0
90517.4 397189.0 0
94952.8 393984.0 0
99249.2 394848.0 0
103658.0 395677.0 0
107224.0 393447.0 0
110275.0 396169.0 0
115827.0 393493.0 0
114823.0 397567.0 0
119419.0 394999.0 0
126482.0 393635.0 0
122839.0 394289.0 0
123840.0 397392.0 0
130435.0 393949.0 0
129576.0 397358.0 0
134371.0 395700.0 0
140271.0 395381.0 0
145418.0 396229.0 0
149326.0 394488.0 0
152452.0 396960.0 0
154122.0 393021.0 0
155841.0 397956.0 0
158666.0 395367.0 0
162997.0 395449.0 0
168069.0 394907.0 0
172331.0 393960.0 0
175684.0 395413.0 0
180339.0 393536.0 0
186131.0 393328.0 0
184220.0 396872.0 0
193874.0 394527.0 0
189130.0 395970.0 0
198622.0 394302.0 0
206169.0 397312.0 0
209776.0 393220.0 0
214948.0 393951.0 0
216816.0 397435.0 0
222756.0 393945.0 0
226859.0 392882.0 0
232205.0 393042.0 0
237697.0 393402.0 0
242881.0 397769.0 0
247409.0 394436.0 0
251611.0 397067.0 0
257678.0 394751.0 0
261138.0 393791.0 0
273270.0 393888.0 0
270713.0 397320.0 0
279595.0 393332.0 0
276437.0 397525.0 0
284397.0 393098.0 0
281709.0 397846.0 0
288050.0 395263.0 0
292273.0 394121.0 0
296865.0 396208.0 0
304805.0 393849.0 0
301825.0 397017.0 0
306009.0 396452.0 0
309660.0 393528.0 0
308755.0 397653.0 0
313348.0 394929.0 0
315819.0 396518.0 0
312228.0 397543.0 0
320079.0 395357.0 0
325504.0 395255.0 0
331423.0 396387.0 0
335888.0 396758.0 0
339413.0 393873.0 0
339470.0 397098.0 0
342566.0 397350.0 0
346660.0 396648.0 0
349777.0 393782.0 0
350198.0 396945.0 0
353526.0 396044.0 0
357759.0 395917.0 0
367104.0 394177.0 0
362469.0 395520.0 0
371681.0 394708.0 0
369485.0 397275.0 0
376026.0 392907.0 0
379877.0 395662.0 0
384641.0 394568.0 0
383161.0 397947.0 0
389715.0 393134.0 0
393723.0 397062.0 0
399566.0 393228.0 0
398214.0 395542.0 0
402764.0 395691.0 0
407530.0 395419.0 0
411460.0 393970.0 0
410818.0 397954.0 0
414988.0 396797.0 0
421331.0 393212.0 0
418954.0 395978.0 0
425262.0 394036.0 0
423473.0 397530.0 0
428489.0 396679.0 0
432547.0 394104.0 0
433232.0 397939.0 0
437063.0 395573.0 0
440386.0 394149.0 0
441963.0 397800.0 0
446797.0 396384.0 0
452115.0 396230.0 0
454318.0 393038.0 0
457332.0 396432.0 0
461030.0 393350.0 0
464211.0 394003.0 0
461780.0 396370.0 0
468077.0 395248.0 0
473133.0 394715.0 0
470915.0 397218.0 0
477123.0 393779.0 0
476296.0 396818.0 0
483440.0 393204.0 0
480547.0 395984.0 0
488014.0 393052.0 0
485160.0 396445.0 0
489006.0 396698.0 0
493415.0 394516.0 0
498162.0 394520.0 0
2035.23 399442.0 0
1534.6 403001.0 0
9216.26 400237.0 0
5855.21 402100.0 0
12548.7 400097.0 0
17169.9 400377.0 0
22967.8 400515.0 0
27778.6 398271.0 0
27375.7 402987.0 0
32720.2 400601.0 0
38148.3 400568.0 0
42360.5 399655.0 0
49453.3 398625.0 0
45937.1 401436.0 0
56020.7 399836.0 0
60510.3 399122.0 0
65381.8 398168.0 0
63327.2 402036.0 0
70098.3 398936.0 0
67548.2 402384.0 0
71337.7 402157.0 0
74191.9 399509.0 0
79001.9 401087.0 0
83573.8 399792.0 0
87353.6 400951.0 0
95895.9 398766.0 0
92061.8 402309.0 0
101048.0 399154.0 0
106633.0 398950.0 0
110830.0 399928.0 0
116892.0 401260.0 0
113323.0 402287.0 0
119916.0 399104.0 0
119799.0 402514.0 0
126654.0 400282.0 0
122999.0 401754.0 0
130247.0 402088.0 0
137367.0 399493.0 0
133177.0 399669.0 0
143191.0 399984.0 0
148595.0 398354.0 0
148037.0 402258.0 0
152423.0 400347.0 0
156256.0 401993.0 0
160326.0 399439.0 0
165599.0 398583.0 0
163723.0 401838.0 0
168282.0 402087.0 0
171385.0 398218.0 0
175678.0 399252.0 0
178245.0 401481.0 0
179445.0 397978.0 0
182702.0 401433.0 0
187605.0 399905.0 0
192346.0 398638.0 0
190967.0 402953.0 0
197696.0 399044.0 0
194467.0 402106.0 0
202629.0 399231.0 0
202952.0 402901.0 0
212508.0 398104.0 0
215999.0 401185.0 0
221012.0 398139.0 0
226439.0 398011.0 0
231348.0 398093.0 0
230597.0 402752.0 0
236620.0 398281.0 0
240042.0 402837.0 0
247701.0 398529.0 0
256141.0 398533.0 0
259149.0 402917.0 0
260879.0 398074.0 0
263876.0 402759.0 0
265855.0 398149.0 0
269601.0 402435.0 0
274003.0 402018.0 0
278222.0 402782.0 0
283066.0 402243.0 0
286137.0 398641.0 0
286878.0 402301.0 0
290821.0 398854.0 0
296036.0 401055.0 0
305746.0 399943.0 0
301402.0 401313.0 0
310005.0 400620.0 0
314521.0 401001.0 0
318478.0 398922.0 0
318833.0 402940.0 0
323080.0 400014.0 0
328682.0 400357.0 0
333830.0 400875.0 0
338594.0 400585.0 0
345362.0 399578.0 0
342925.0 401024.0 0
348657.0 400190.0 0
352440.0 399111.0 0
355822.0 399991.0 0
360840.0 400174.0 0
365499.0 398443.0 0
364718.0 402585.0 0
369555.0 401355.0 0
374883.0 398206.0 0
374050.0 402656.0 0
377517.0 402618.0 0
379982.0 399858.0 0
387731.0 398272.0 0
383732.0 401361.0 0
386900.0 402880.0 0
391570.0 402126.0 0
396076.0 400993.0 0
398862.0 398676.0 0
402515.0 400310.0 0
406242.0 398560.0 0
405578.0 401520.0 0
409303.0 402356.0 0
414614.0 401311.0 0
418814.0 399774.0 0
422763.0 401978.0 0
426694.0 400501.0 0
430006.0 400173.0 0
433338.0 402191.0 0
437378.0 399740.0 0
440933.0 401903.0 0
445681.0 401605.0 0
449609.0 399445.0 0
453803.0 399988.0 0
457733.0 400684.0 0
461224.0 399840.0 0
465064.0 398131.0 0
468954.0 400224.0 0
464484.0 402604.0 0
473528.0 399179.0 0
478202.0 400671.0 0
482718.0 399121.0 0
482822.0 402837.0 0
486913.0 400076.0 0
492320.0 398887.0 0
497604.0 398447.0 0
495380.0 402419.0 0
498854.0 402008.0 0
2966.93 407078.0 0
7853.35 405937.0 0
10186.8 403225.0 0
13606.1 403758.0 0
11620.3 407140.0 0
20274.3 403484.0 0
17237.3 407313.0 0
23090.1 405666.0 0
27041.9 407855.0 0
32223.5 406040.0 0
36969.3 404306.0 0
39279.3 405648.0 0
41534.9 403320.0 0
45733.6 405352.0 0
41782.7 407693.0 0
48769.5 407236.0 0
51729.4 403186.0 0
55502.8 406978.0 0
58433.2 403228.0 0
59420.6 407601.0 0
62576.4 405482.0 0
70903.9 405738.0 0
66357.9 406306.0 0
74707.4 403291.0 0
74462.2 406318.0 0
78313.7 406097.0 0
83535.2 404045.0 0
87990.0 405184.0 0
94847.5 404865.0 0
96624.7 407377.0 0
92122.8 407732.0 0
98194.9 403372.0 0
103810.0 403479.0 0
106801.0 407401.0 0
109006.0 403163.0 0
116987.0 404768.0 0
112506.0 406743.0 0
121984.0 406207.0 0
126629.0 404448.0 0
130224.0 405901.0 0
134516.0 404026.0 0
139446.0 403234.0 0
138517.0 407913.0 0
143849.0 405474.0 0
152042.0 404215.0 0
148359.0 405895.0 0
155679.0 406522.0 0
160453.0 404682.0 0
164932.0 404661.0 0
169115.0 406860.0 0
173892.0 403678.0 0
176861.0 408116.0 0
179339.0 404677.0 0
183365.0 405464.0 0
186723.0 404127.0 0
190207.0 407100.0 0
196575.0 403652.0 0
194212.0 405517.0 0
198153.0 406666.0 0
199216.0 403094.0 0
203612.0 407627.0 0
208620.0 403114.0 0
213945.0 404317.0 0
213659.0 407756.0 0
217402.0 407131.0 0
220127.0 403102.0 0
222053.0 407860.0 0
225272.0 403470.0 0
232676.0 408086.0 0
235473.0 403713.0 0
238311.0 407774.0 0
242735.0 407609.0 0
245812.0 403479.0 0
252779.0 403534.0 0
260599.0 408047.0 0
265575.0 406754.0 0
276222.0 407065.0 0
281333.0 407980.0 0
286737.0 406928.0 0
290982.0 404238.0 0
295862.0 407037.0 0
305026.0 403741.0 0
301733.0 406285.0 0
308205.0 403417.0 0
311572.0 404371.0 0
315702.0 405419.0 0
312791.0 407918.0 0
319552.0 406924.0 0
322289.0 404234.0 0
326062.0 404133.0 0
323516.0 407378.0 0
331281.0 405202.0 0
327548.0 407504.0 0
336403.0 404589.0 0
341136.0 404401.0 0
339196.0 407890.0 0
346256.0 403703.0 0
343979.0 407810.0 0
349349.0 407593.0 0
352123.0 403396.0 0
357097.0 403900.0 0
354507.0 407569.0 0
360748.0 404244.0 0
359170.0 407167.0 0
363415.0 406259.0 0
372160.0 405467.0 0
367631.0 405717.0 0
375666.0 405005.0 0
380706.0 403159.0 0
378973.0 405788.0 0
383577.0 405922.0 0
388742.0 406038.0 0
395720.0 403919.0 0
393161.0 406585.0 0
397276.0 406750.0 0
399470.0 403176.0 0
401086.0 406995.0 0
404131.0 404555.0 0
408148.0 406407.0 0
413241.0 405853.0 0
418830.0 405069.0 0
426040.0 403798.0 0
423513.0 405844.0 0
427306.0 407281.0 0
429212.0 403479.0 0
432192.0 406301.0 0
437230.0 404513.0 0
442734.0 405519.0 0
439412.0 407192.0 0
447488.0 406142.0 0
450559.0 403240.0 0
452637.0 407210.0 0
455441.0 403828.0 0
457887.0 407823.0 0
459899.0 403619.0 0
462254.0 405986.0 0
468456.0 404055.0 0
465721.0 406704.0 0
473179.0 403303.0 0
469914.0 407340.0 0
474142.0 407518.0 0
478610.0 405850.0 0
484019.0 407270.0 0
486503.0 404386.0 0
488947.0 407841.0 0
490523.0 403422.0 0
494000.0 406749.0 0
498282.0 405404.0 0
3027.54 412875.0 0
8119.35 410101.0 0
12843.0 411657.0 0
18074.5 413055.0 0
22377.5 410130.0 0
26349.8 412166.0 0
31420.4 411365.0 0
36828.7 408929.0 0
41120.2 412559.0 0
46163.9 410624.0 0
51914.6 410006.0 0
57276.0 411495.0 0
63120.7 410511.0 0
68908.3 410339.0 0
74051.3 409741.0 0
78585.8 410433.0 0
82709.6 408411.0 0
82962.2 412742.0 0
87264.1 409761.0 0
91781.0 412295.0 0
96524.5 411188.0 0
101038.0 408416.0 0
104557.0 411523.0 0
109965.0 412084.0 0
114725.0 410851.0 0
117630.0 408751.0 0
121687.0 411273.0 0
117755.0 412530.0 0
127152.0 409430.0 0
133160.0 409467.0 0
138733.0 412642.0 0
146746.0 408782.0 0
142883.0 410490.0 0
147198.0 412801.0 0
151171.0 409171.0 0
154735.0 411187.0 0
158957.0 409879.0 0
164368.0 409056.0 0
165771.0 412833.0 0
172826.0 408573.0 0
169593.0 412250.0 0
174529.0 412056.0 0
181500.0 408472.0 0
179237.0 411946.0 0
185916.0 408213.0 0
184120.0 412009.0 0
189037.0 411523.0 0
194414.0 410097.0 0
198986.0 410290.0 0
202662.0 412482.0 0
209187.0 410141.0 0
214829.0 411983.0 0
219228.0 412580.0 0
222440.0 412612.0 0
227200.0 408287.0 0
231958.0 413145.0 0
237051.0 412919.0 0
242170.0 412093.0 0
247689.0 409142.0 0
251591.0 408371.0 0
252500.0 412625.0 0
255584.0 409041.0 0
266224.0 412773.0 0
271230.0 408483.0 0
276162.0 411763.0 0
286177.0 412021.0 0
291045.0 409588.0 0
295622.0 413114.0 0
302596.0 410920.0 0
307675.0 408212.0 0
312379.0 411987.0 0
316572.0 409484.0 0
320818.0 410611.0 0
325554.0 410968.0 0
330367.0 410503.0 0
334688.0 408544.0 0
334062.0 413095.0 0
337731.0 411234.0 0
341640.0 411645.0 0
346724.0 411823.0 0
351855.0 411820.0 0
357328.0 411738.0 0
361486.0 413215.0 0
362268.0 409981.0 0
366292.0 409665.0 0
370639.0 408995.0 0
369088.0 412456.0 0
375569.0 408727.0 0
373125.0 412806.0 0
380100.0 409450.0 0
377651.0 412914.0 0
383426.0 410512.0 0
386606.0 409393.0 0
390851.0 410575.0 0
395199.0 409354.0 0
394996.0 412978.0 0
399190.0 410678.0 0
404841.0 409664.0 0
410624.0 410282.0 0
416558.0 409372.0 0
414493.0 412711.0 0
422094.0 409614.0 0
426857.0 411429.0 0
430876.0 409890.0 0
429933.0 412618.0 0
436061.0 409862.0 0
440883.0 409143.0 0
440917.0 412675.0 0
444587.0 409708.0 0
449327.0 410592.0 0
454557.0 411385.0 0
458717.0 412291.0 0
462302.0 409720.0 0
466956.0 410793.0 0
472113.0 412031.0 0
476661.0 410402.0 0
480685.0 410478.0 0
485878.0 411670.0 0
489615.0 411320.0 0
492801.0 410477.0 0
497675.0 409312.0 0
495276.0 412828.0 0
498530.0 412857.0 0
8704.94 415182.0 0
13909.4 417111.0 0
18974.3 417056.0 0
22980.3 415039.0 0
28082.8 415775.0 0
32195.9 415945.0 0
35274.5 418160.0 0
36282.4 413907.0 0
39955.6 417742.0 0
45103.5 416170.0 0
49212.8 414099.0 0
53196.3 414710.0 0
60860.1 414554.0 0
57150.1 415531.0 0
65912.2 413778.0 0
64457.3 417838.0 0
70307.5 415601.0 0
75464.2 414350.0 0
79272.1 413278.0 0
79539.1 416202.0 0
83770.1 417246.0 0
87350.6 414397.0 0
90916.9 415981.0 0
95732.9 415625.0 0
100736.0 414218.0 0
99098.5 418360.0 0
105871.0 415741.0 0
110866.0 417531.0 0
114738.0 414718.0 0
119857.0 415511.0 0
125318.0 415299.0 0
130125.0 413372.0 0
130437.0 418062.0 0
134457.0 414457.0 0
139008.0 417168.0 0
143042.0 415172.0 0
147168.0 417405.0 0
151594.0 414600.0 0
156601.0 415082.0 0
162107.0 414201.0 0
166589.0 415542.0 0
172751.0 416319.0 0
176799.0 415305.0 0
181287.0 416301.0 0
187075.0 416015.0 0
192817.0 415638.0 0
197975.0 413754.0 0
197995.0 418238.0 0
202500.0 417499.0 0
206539.0 415747.0 0
213192.0 417375.0 0
217714.0 417458.0 0
222500.0 417323.0 0
226617.0 413932.0 0
233050.0 417727.0 0
237927.0 417788.0 0
242680.0 416686.0 0
246738.0 413942.0 0
247690.0 418235.0 0
251794.0 416901.0 0
255750.0 413766.0 0
256043.0 417985.0 0
260564.0 413275.0 0
260474.0 418322.0 0
265252.0 418114.0 0
271554.0 414341.0 0
276313.0 417986.0 0
280995.0 413849.0 0
284995.0 417781.0 0
290376.0 415324.0 0
301821.0 415550.0 0
305285.0 418151.0 0
307386.0 414083.0 0
312359.0 417136.0 0
317462.0 414126.0 0
322839.0 414844.0 0
325688.0 417905.0 0
327906.0 414737.0 0
331455.0 415618.0 0
334666.0 417808.0 0
338422.0 415246.0 0
343530.0 416467.0 0
349135.0 416522.0 0
354344.0 416413.0 0
360292.0 417471.0 0
365285.0 414290.0 0
370221.0 416732.0 0
375400.0 416606.0 0
381689.0 413479.0 0
379353.0 416655.0 0
386264.0 413819.0 0
383012.0 417349.0 0
390795.0 415299.0 0
394556.0 416676.0 0
402662.0 413782.0 0
398666.0 415907.0 0
407284.0 414665.0 0
403470.0 418018.0 0
407614.0 418006.0 0
411592.0 414610.0 0
414560.0 415815.0 0
418628.0 413996.0 0
420882.0 417706.0 0
423840.0 414596.0 0
432839.0 413402.0 0
428734.0 415792.0 0
433196.0 417444.0 0
436879.0 414834.0 0
440688.0 416665.0 0
445701.0 414198.0 0
443892.0 417513.0 0
451349.0 415414.0 0
456025.0 414723.0 0
463465.0 413926.0 0
459805.0 416304.0 0
464183.0 417994.0 0
467855.0 415559.0 0
472248.0 416703.0 0
477234.0 415013.0 0
482132.0 414146.0 0
481705.0 418069.0 0
485530.0 416018.0 0
490898.0 415955.0 0
497356.0 416768.0 0
3938.54 418446.0 0
1703.62 422287.0 0
9132.67 419959.0 0
5784.91 423151.0 0
13174.7 422480.0 0
18085.0 421244.0 0
21745.7 418769.0 0
22636.3 422129.0 0
25626.1 419122.0 0
26470.5 423186.0 0
30811.5 420458.0 0
36682.0 422435.0 0
45668.2 420589.0 0
41916.3 422010.0 0
49768.8 418558.0 0
48454.3 422549.0 0
54643.0 418816.0 0
52405.8 422810.0 0
59326.4 418414.0 0
57247.8 422512.0 0
61412.3 421622.0 0
65157.3 423428.0 0
68757.6 420548.0 0
76348.4 418439.0 0
72951.1 419867.0 0
76039.9 422608.0 0
79896.4 420093.0 0
83936.0 421339.0 0
88030.3 419513.0 0
91533.1 422993.0 0
92864.1 419150.0 0
96303.2 421275.0 0
100501.0 422384.0 0
102972.0 418759.0 0
107019.0 419459.0 0
105159.0 422905.0 0
110532.0 422577.0 0
116434.0 419200.0 0
121738.0 419173.0 0
120420.0 422872.0 0
125882.0 420600.0 0
135149.0 418394.0 0
133792.0 421447.0 0
137876.0 421236.0 0
143029.0 419779.0 0
147589.0 422105.0 0
144136.0 422886.0 0
151309.0 419120.0 0
152254.0 423421.0 0
155728.0 420118.0 0
159760.0 418421.0 0
160272.0 422622.0 0
163968.0 418725.0 0
164980.0 422725.0 0
169017.0 419188.0 0
172874.0 422939.0 0
176465.0 419358.0 0
180637.0 420834.0 0
184383.0 419720.0 0
188744.0 420970.0 0
193740.0 421033.0 0
198029.0 423383.0 0
202856.0 422270.0 0
208923.0 420088.0 0
212479.0 422742.0 0
217524.0 422223.0 0
222368.0 422336.0 0
228110.0 419155.0 0
231484.0 422425.0 0
236438.0 422496.0 0
241645.0 421317.0 0
247164.0 423357.0 0
253298.0 422446.0 0
258512.0 422681.0 0
262465.0 422035.0 0
270319.0 419614.0 0
273854.0 423279.0 0
278297.0 423326.0 0
280918.0 420310.0 0
282763.0 423335.0 0
289950.0 420689.0 0
295962.0 419654.0 0
301794.0 420515.0 0
305935.0 421791.0 0
308474.0 418791.0 0
309999.0 422088.0 0
313942.0 421564.0 0
317203.0 418874.0 0
321798.0 419287.0 0
325557.0 421701.0 0
329853.0 419509.0 0
334267.0 422458.0 0
339161.0 420392.0 0
343630.0 420770.0 0
351613.0 420287.0 0
347417.0 421706.0 0
356133.0 421568.0 0
361524.0 423174.0 0
365714.0 419726.0 0
369964.0 421289.0 0
373483.0 419824.0 0
377986.0 420742.0 0
387433.0 418841.0 0
383054.0 421677.0 0
392116.0 418991.0 0
390708.0 421806.0 0
396555.0 420500.0 0
400239.0 418914.0 0
401498.0 421811.0 0
406909.0 421967.0 0
411143.0 418495.0 0
412600.0 423444.0 0
416378.0 419378.0 0
420745.0 421535.0 0
425323.0 419800.0 0
429878.0 419906.0 0
433431.0 422551.0 0
437458.0 419242.0 0
437941.0 422966.0 0
442422.0 421440.0 0
447194.0 418661.0 0
447504.0 423190.0 0
451143.0 420274.0 0
455651.0 418793.0 0
457222.0 423124.0 0
460659.0 420483.0 0
464555.0 421827.0 0
469474.0 420735.0 0
474772.0 418789.0 0
477994.0 419989.0 0
474538.0 422380.0 0
478130.0 423399.0 0
481671.0 422525.0 0
486227.0 420502.0 0
494226.0 420343.0 0
490564.0 422185.0 0
498004.0 421493.0 0
2461.1 426405.0 0
9422.43 424115.0 0
7323.19 428128.0 0
12220.2 427171.0 0
20062.7 424814.0 0
16687.8 425915.0 0
23225.8 425987.0 0
29409.2 424177.0 0
27979.2 427909.0 0
32534.7 425460.0 0
36276.0 427300.0 0
40403.3 426158.0 0
45158.5 425024.0 0
49560.7 425916.0 0
55297.0 427317.0 0
60675.7 425722.0 0
64924.2 428289.0 0
70807.7 425932.0 0
76424.3 427186.0 0
80833.1 424778.0 0
83472.6 428321.0 0
86812.1 424919.0 0
96911.5 425711.0 0
91936.3 427924.0 0
102114.0 427664.0 0
107828.0 427190.0 0
112047.0 427153.0 0
115711.0 424510.0 0
120059.0 427611.0 0
124742.0 425441.0 0
129815.0 423574.0 0
135534.0 426376.0 0
140900.0 424100.0 0
144895.0 426145.0 0
149212.0 426778.0 0
156323.0 424201.0 0
154061.0 428088.0 0
158923.0 426998.0 0
162726.0 426010.0 0
166392.0 426550.0 0
168692.0 423786.0 0
170578.0 427222.0 0
177978.0 424808.0 0
174238.0 427546.0 0
181388.0 428532.0 0
183925.0 424366.0 0
188304.0 425448.0 0
191455.0 424245.0 0
191544.0 428508.0 0
194379.0 425113.0 0
203238.0 427322.0 0
207179.0 424147.0 0
212961.0 427939.0 0
217789.0 427307.0 0
221855.0 427302.0 0
226427.0 423597.0 0
225659.0 427857.0 0
230649.0 427886.0 0
236467.0 427716.0 0
242315.0 427348.0 0
252214.0 427537.0 0
256692.0 427179.0 0
261574.0 427288.0 0
266648.0 423505.0 0
272256.0 427723.0 0
283258.0 427679.0 0
286588.0 424276.0 0
291782.0 425109.0 0
296823.0 426077.0 0
302007.0 424725.0 0
307014.0 426638.0 0
312805.0 425782.0 0
318803.0 424311.0 0
324220.0 425715.0 0
329542.0 425174.0 0
334285.0 426813.0 0
338279.0 425324.0 0
342955.0 424453.0 0
351707.0 424559.0 0
347245.0 426595.0 0
357118.0 427120.0 0
365942.0 424125.0 0
362327.0 427762.0 0
366964.0 428206.0 0
369584.0 425002.0 0
373704.0 423795.0 0
376889.0 426867.0 0
380098.0 424493.0 0
387356.0 423829.0 0
383635.0 426632.0 0
393379.0 425516.0 0
398616.0 424702.0 0
403208.0 426819.0 0
409057.0 427376.0 0
417592.0 424663.0 0
414295.0 428569.0 0
423403.0 425842.0 0
428464.0 423795.0 0
431358.0 427868.0 0
436319.0 426434.0 0
440095.0 425428.0 0
443943.0 426678.0 0
448770.0 428303.0 0
452610.0 424590.0 0
456498.0 427597.0 0
461541.0 425457.0 0
466978.0 425607.0 0
471874.0 425878.0 0
476486.0 426396.0 0
481134.0 426848.0 0
485189.0 424955.0 0
489356.0 426522.0 0
494274.0 424383.0 0
493480.0 428156.0 0
498028.0 425346.0 0
2764.71 431470.0 0
7306.15 432611.0 0
11134.3 431523.0 0
15479.5 430304.0 0
20100.4 429157.0 0
18651.3 433057.0 0
23999.3 429615.0 0
23103.1 433360.0 0
28614.3 433467.0 0
32922.6 430068.0 0
38761.0 431365.0 0
43084.1 428918.0 0
44146.6 433222.0 0
47069.7 429129.0 0
49548.9 433125.0 0
51028.9 429089.0 0
55065.3 433143.0 0
60128.5 430473.0 0
64564.5 433135.0 0
68414.1 430985.0 0
72436.8 431638.0 0
80170.9 428954.0 0
77331.8 431795.0 0
82197.3 432176.0 0
87092.5 430552.0 0
91327.6 433541.0 0
96904.0 431465.0 0
101875.0 432760.0 0
106108.0 431851.0 0
111012.0 431293.0 0
115421.0 429463.0 0
114914.0 433399.0 0
119302.0 432507.0 0
123970.0 430755.0 0
129423.0 429424.0 0
134956.0 432714.0 0
141028.0 429274.0 0
139392.0 432860.0 0
146086.0 430452.0 0
150163.0 430708.0 0
157910.0 431016.0 0
153631.0 433430.0 0
162238.0 429987.0 0
167296.0 430778.0 0
172742.0 431709.0 0
177312.0 429782.0 0
182036.0 433050.0 0
186086.0 429555.0 0
189431.0 432755.0 0
193708.0 433165.0 0
197318.0 428777.0 0
207968.0 428682.0 0
248020.0 428891.0 0
266766.0 429307.0 0
277685.0 428734.0 0
288644.0 428933.0 0
293493.0 430017.0 0
297510.0 431259.0 0
302004.0 428709.0 0
302310.0 433186.0 0
306832.0 431878.0 0
311230.0 430216.0 0
316251.0 429783.0 0
321473.0 429456.0 0
326556.0 429883.0 0
331687.0 430214.0 0
337764.0 430591.0 0
343141.0 428996.0 0
351945.0 429403.0 0
347436.0 431466.0 0
355857.0 432175.0 0
360073.0 431491.0 0
364148.0 431295.0 0
372162.0 429125.0 0
368380.0 433109.0 0
376490.0 430911.0 0
380232.0 429451.0 0
384083.0 431770.0 0
388460.0 428847.0 0
397921.0 428946.0 0
393540.0 431601.0 0
401336.0 431793.0 0
406080.0 431776.0 0
410785.0 431963.0 0
417334.0 433035.0 0
419032.0 428685.0 0
422314.0 431311.0 0
426735.0 429907.0 0
430017.0 432634.0 0
435407.0 430345.0 0
439862.0 429880.0 0
444707.0 431745.0 0
453027.0 429006.0 0
449642.0 433347.0 0
455406.0 433287.0 0
459884.0 430267.0 0
464510.0 430051.0 0
469438.0 429992.0 0
474149.0 430163.0 0
478491.0 430098.0 0
481741.0 432994.0 0
485259.0 429436.0 0
490266.0 431704.0 0
494536.0 431747.0 0
497673.0 429367.0 0
1127.72 435173.0 0
4805.36 436462.0 0
1206.79 438012.0 0
9823.99 436032.0 0
14584.1 435044.0 0
19674.9 437994.0 0
25433.7 437914.0 0
30360.9 438353.0 0
34062.9 434804.0 0
38524.1 436600.0 0
42709.6 437961.0 0
47052.5 437377.0 0
51794.3 437836.0 0
60085.7 435606.0 0
56203.6 438084.0 0
64418.5 438283.0 0
69296.6 435729.0 0
74695.5 436060.0 0
79876.4 436494.0 0
85866.1 436200.0 0
90790.6 438153.0 0
95087.1 436890.0 0
99586.2 436051.0 0
104427.0 436770.0 0
109006.0 435307.0 0
117158.0 436229.0 0
113045.0 437134.0 0
121182.0 436735.0 0
127253.0 436119.0 0
132897.0 437074.0 0
138790.0 435854.0 0
143029.0 434275.0 0
145126.0 437878.0 0
148375.0 435037.0 0
158784.0 436264.0 0
163751.0 434190.0 0
168249.0 435874.0 0
177308.0 434065.0 0
173536.0 437862.0 0
178040.0 437527.0 0
181671.0 438287.0 0
186456.0 436020.0 0
191998.0 438603.0 0
198072.0 434073.0 0
197725.0 438450.0 0
302031.0 437881.0 0
305941.0 436144.0 0
310537.0 434895.0 0
315114.0 434322.0 0
319509.0 433716.0 0
324007.0 433870.0 0
328669.0 434458.0 0
333710.0 434801.0 0
338162.0 435988.0 0
342744.0 434245.0 0
351768.0 434443.0 0
347468.0 436359.0 0
356721.0 437306.0 0
363051.0 436138.0 0
373850.0 435023.0 0
379559.0 433975.0 0
383786.0 436704.0 0
388734.0 434719.0 0
397852.0 434955.0 0
393452.0 436428.0 0
403028.0 436179.0 0
407841.0 436068.0 0
412830.0 436366.0 0
417568.0 438073.0 0
421542.0 435917.0 0
426007.0 434577.0 0
429812.0 436586.0 0
434528.0 434942.0 0
440479.0 435347.0 0
445894.0 436996.0 0
451693.0 438702.0 0
457349.0 438734.0 0
461877.0 435376.0 0
466858.0 433843.0 0
467197.0 438708.0 0
471577.0 434790.0 0
476900.0 434255.0 0
480571.0 437896.0 0
486053.0 433875.0 0
485040.0 437538.0 0
489319.0 436776.0 0
493750.0 435420.0 0
497845.0 433733.0 0
497674.0 438050.0 0
2872.89 441112.0 0
7835.65 440728.0 0
12980.7 439969.0 0
17366.4 443831.0 0
22658.8 442619.0 0
27707.9 442784.0 0
34984.9 439975.0 0
39565.3 440981.0 0
43403.5 442064.0 0
48535.4 442854.0 0
54412.7 442254.0 0
59829.2 441081.0 0
64600.3 443685.0 0
68114.4 440608.0 0
72237.6 440274.0 0
76949.8 440438.0 0
82442.3 441899.0 0
87966.2 441304.0 0
93511.2 441795.0 0
98602.5 440710.0 0
103783.0 442312.0 0
108861.0 440133.0 0
113383.0 441481.0 0
117917.0 440592.0 0
123054.0 440943.0 0
127186.0 442109.0 0
131486.0 441071.0 0
136503.0 439639.0 0
141400.0 438887.0 0
139928.0 443379.0 0
145191.0 442327.0 0
148368.0 439269.0 0
150039.0 442906.0 0
153137.0 439022.0 0
159534.0 442274.0 0
164083.0 439066.0 0
168743.0 440772.0 0
173249.0 443710.0 0
177901.0 441486.0 0
182351.0 443187.0 0
185494.0 440385.0 0
188449.0 443554.0 0
198205.0 442516.0 0
305699.0 440717.0 0
301641.0 441924.0 0
309491.0 439101.0 0
313973.0 438932.0 0
319406.0 438896.0 0
316555.0 443279.0 0
325330.0 438947.0 0
322046.0 443263.0 0
330859.0 438960.0 0
335582.0 439487.0 0
332851.0 443344.0 0
341348.0 440605.0 0
346725.0 440351.0 0
351302.0 439689.0 0
355569.0 442955.0 0
360791.0 441727.0 0
368832.0 438965.0 0
373276.0 442697.0 0
378739.0 439918.0 0
387525.0 439788.0 0
383972.0 443046.0 0
392355.0 440565.0 0
397673.0 440216.0 0
402884.0 441010.0 0
405757.0 438856.0 0
409231.0 440658.0 0
414288.0 441356.0 0
421476.0 440455.0 0
426508.0 439769.0 0
432445.0 440499.0 0
437312.0 439372.0 0
441949.0 440915.0 0
447228.0 441751.0 0
458403.0 443061.0 0
462303.0 440896.0 0
466570.0 443808.0 0
474935.0 439832.0 0
481680.0 442741.0 0
487034.0 441946.0 0
493038.0 440747.0 0
497955.0 442475.0 0
5217.74 444162.0 0
11162.8 445628.0 0
32859.2 444880.0 0
38206.6 445515.0 0
57885.7 446056.0 0
69369.2 444402.0 0
73767.0 444705.0 0
78209.7 445594.0 0
86256.2 445027.0 0
89986.1 445123.0 0
94454.4 446809.0 0
99705.1 446057.0 0
106643.0 445968.0 0
110850.0 445022.0 0
115613.0 445062.0 0
120547.0 444423.0 0
124521.0 445085.0 0
134791.0 445594.0 0
154467.0 444575.0 0
161152.0 447376.0 0
164455.0 443936.0 0
168703.0 445255.0 0
193898.0 444829.0 0
304264.0 445704.0 0
310659.0 444405.0 0
319403.0 447406.0 0
324418.0 446569.0 0
327961.0 444003.0 0
337509.0 445806.0 0
346399.0 444166.0 0
342704.0 446405.0 0
350880.0 445044.0 0
358959.0 446436.0 0
365124.0 444474.0 0
369127.0 443956.0 0
371346.0 446721.0 0
377018.0 445162.0 0
380409.0 444884.0 0
389186.0 444586.0 0
394916.0 444854.0 0
400101.0 445019.0 0
405969.0 444417.0 0
411427.0 445622.0 0
418382.0 444774.0 0
424037.0 444658.0 0
429029.0 444362.0 0
437543.0 444173.0 0
444472.0 445513.0 0
449307.0 445448.0 0
453830.0 444064.0 0
462169.0 445991.0 0
471565.0 445017.0 0
477350.0 445309.0 0
484291.0 446232.0 0
490847.0 445637.0 0
495178.0 445340.0 0
POINT_DATA 5000
SCALARS Radius float 1
LOOKUP_TABLE default
4796.58 3979.26 3471.03 5253.55 5820.48 5782.6 4862.21 5113.21 3929.19 4107.03 4478.15 5379.87 5925.6 4501.51 4792.73 4736.58 4931.38 3485.26 4329.05 4151.94 4049.23 5337.48 6124.89 5708.81 5252.48 4780.03 5495.39 3996.0 3856.1 4665.12 3383.4 4133.88 4834.9 3850.77 6044.04 5415.48 5120.0 3863.18 2356.98 4998.37 6182.6 5492.18 5258.36 5061.3 3642.12 3163.97 5812.43 5122.66 5906.14 5484.19 7513.1 5254.28 4436.4 5733.48 4672.91 5580.89 5645.7 5176.86 6810.52 5840.26 6110.27 5561.06 5073.35 3615.22 5670.04 4380.59 3589.27 6716.79 3607.45 5759.91 7613.27 5529.52 4951.03 5255.32 6037.08 5096.78 6756.95 4129.43 6324.23 3843.58 3320.52 4194.5 4270.53 5344.25 5191.63 4593.7 4150.99 4216.92 4742.68 4344.58 5634.83 5495.84 6268.1 4861.06 5374.51 5320.28 6739.08 4797.52 4569.12 4298.67 5960.66 6608.73 5011.84 7034.11 6261.42 4502.5 3771.48 4043.57 4271.69 5681.38 4138.42 3708.04 5513.6 3240.09 4556.36 6082.81 3191.99 4685.34 5601.05 4929.8 3586.91 3103.0 3554.9 4015.92 5542.21 4487.31 3936.02 4044.71 5980.74 4094.62 4927.02 5546.39 5325.36 5484.83 5085.53 5351.6 4730.36 4715.55 5867.73 3951.75 5013.56 4499.64 4375.68 5542.27 5054.98 6030.06 5170.02 3557.27 4927.31 4688.68 4402.52 4517.56 4182.53 5903.42 3588.44 3955.56 3761.32 4118.05 4366.19 5553.16 3672.51 2938.66 4940.78 4231.61 4008.92 3942.53 3379.84 4827.82 3997.1 3260.67 5123.52 3038.33 4392.68 4333.2 7199.21 4523.7 2240.39 5091.39 5293.9 6142.94 3912.37 4727.24 4602.25 4790.08 5082.47 4763.45 5445.87 3815.26 4704.72 4177.94 4571.7 5896.46 5022.8 3784.5 3780.23 6481.79 5224.12 7042.12 4819.73 6326.39 4471.58 5873.69 4962.09 3999.48 4359.62 6946.21 2586.12 5433.8 4011.77 5499.11 3633.87 5922.5 5198.77 5987.17 6013.14 2765.2 4901.41 5110.37 5664.98 4382.74 5927.43 4651.28 3693.63 4384.42 4516.43 5481.78 5637.59 4937.14 5043.05 5816.2 5693.81 5109.54 6483.19 5945.65 6759.9 5538.89 7021.47 5416.38 6059.59 4955.55 2720.68 5701.86 3563.63 4238.81 4468.59 5885.03 2837.58 5325.02 5200.76 5017.13 4862.64 5185.34 4432.58 6684.56 3968.64 4688.67 2635.86 5292.64 6166.5 5065.13 5936.02 5305.17 4861.08 4003.05 5390.22 4805.87 4712.33 5227.21 5697.78 4667.36 4091.31 6372.62 4295.38 5615.42 7565.34 5923.5 4612.68 4281.49 4973.83 6342.25 6691.39 4840.84 5135.69 5344.0 4020.32 6045.46 4245.72 5908.1 6048.7 6133.92 3719.84 4178.4 3095.48 4166.08 4123.6 4850.14 5163.55 3382.7 6817.32 4319.79 6098.14 4472.17 4203.26 5188.81 4730.41 6057.22 5062.71 6125.34 4527.08 5347.48 4850.01 3970.25 5147.67 3979.82 5011.31 5138.31 5264.06 4659.59 6327.9 4048.37 6355.42 4362.19 5690.56 4948.92 3115.91 3307.12 4493.48 5924.89 4002.16 4174.52 4138.16 3486.22 3829.13 4684.5 6230.49 6458.82 5418.62 4601.27 5493.32 5740.68 5926.61 6051.14 5836.15 3261.21 4345.55 6704.06 3653.41 3871.88 3856.01 5246.2 4390.66 5279.39 3673.74 5205.43 6116.18 7447.37 4924.6 4385.06 4733.32 7184.19 2899.43 2924.37 4290.3 3867.67 5399.73 4660.72 3888.21 5891.05 6038.78 6902.81 6644.76 4254.17 5629.19 5090.24 5740.84 6445.94 5530.87 4310.18 7134.64 5978.9 4187.56 3629.62 4997.27 4301.06 4877.67 4290.14 6562.18 4156.38 5316.75 4541.21 4164.68 5669.65 5934.22 5624.49 5762.59 7092.87 4666.81 3703.1 3954.91 6471.55 2965.01 6643.85 3637.61 6222.42 5654.31 3745.84 5690.26 4156.2 4497.59 5965.78 4374.35 4810.12 5643.58 5215.05 4292.06 5577.04 5006.58 4602.86 3688.8 4548.16 3369.23 5449.18 5492.26 5244.78 5762.84 3937.74 4749.8 6084.86 5478.92 4778.34 5551.36 6894.71 3091.3 4414.54 5789.98 7054.71 3641.64 5489.43 5747.75 4277.89 5054.25 4796.33 4195.44 5539.32 5360.19 6496.85 5600.93 4874.39 5541.59 4124.71 5728.85 4827.23 4911.47 5803.39 5863.59 4381.97 6257.19 3255.82 5242.73 2812.98 4065.69 5603.15 4695.45 6052.7 3921.18 3798.62 5308.1 3666.57 4907.89 4937.02 5655.21 4786.6 4645.41 4433.59 4320.28 5542.14 4218.06 6308.71 4716.19 5514.76 3456.98 3498.2 5105.16 3066.13 4302.5 6006.16 6009.88 7055.53 5013.67 5826.04 5339.78 4970.88 4143.78 4763.66 4636.5 4940.42 5923.4 5499.39 5644.82 5501.93 5463.38 5945.21 4938.74 5696.88 5607.14 3923.03 5975.63 5252.34 6396.74 4138.46 2775.04 3821.72 4986.77 6318.18 5586.81 3948.17 4621.75 4551.24 5358.59 4220.88 4515.71 6519.71 6640.13 5082.6 5810.84 4230.54 5094.44 3748.24 4655.49 4467.94 4850.81 6038.14 6138.47 2540.31 6029.66 5527.54 5573.7 5697.4 4727.62 4270.95 4055.8 7325.81 5280.17 6425.26 4794.96 6186.19 4839.34 5083.08 6834.49 6337.56 5525.39 3998.5 5938.34 4024.3 6394.38 5555.28 5169.36 4737.14 4686.65 5834.74 5556.96 5788.23 5581.75 6392.01 6730.19 4907.06 4073.93 3735.44 6043.3 5952.75 6332.36 6122.55 2739.94 4931.53 5480.13 4223.33 5911.67 3323.28 6695.82 6405.76 5794.24 4678.38 5448.61 5050.65 4827.33 5206.48 5513.57 5729.23 5226.0 3365.82 4538.95 5965.15 4780.2 6090.91 4946.42 5019.93 5085.71 6116.33 6263.44 6343.14 5774.97 5462.21 5750.71 5470.77 4831.47 4643.85 4004.04 4289.17 5564.02 4274.61 2965.79 6898.19 6035.6 5137.34 4481.53 5330.45 4581.13 3610.4 4219.07 6387.01 5367.52 3092.35 4322.15 5210.03 3629.96 5478.47 5351.39 6142.37 6061.47 4933.21 5375.47 4723.12 5120.49 5262.61 6302.8 5409.61 6038.2 4005.44 5206.78 5555.88 6732.43 5143.58 3866.16 6362.12 4484.76 4840.01 2980.99 5611.2 7933.0 4455.12 5173.87 4894.16 5380.13 5711.87 5118.27 4941.22 5932.23 5791.61 3369.13 4479.66 3043.85 5367.2 5461.13 4726.76 3599.45 5839.13 5495.68 5489.34 5163.9 5708.14 5537.72 3920.42 8332.24 6155.31 4553.56 5329.64 6049.55 5709.62 5835.78 4127.74 2476.04 3942.07 7443.72 3937.08 5260.34 4709.35 6586.45 4373.3 4750.78 4163.5 5724.64 5078.86 5100.1 3561.29 4963.34 3295.83 5081.78 4459.28 4260.92 5960.56 4118.84 4020.95 6313.06 3474.39 6470.3 4200.03 6062.05 5082.74 6915.83 6072.45 4410.55 7099.43 5526.14 5198.29 5423.0 5077.33 3856.59 4746.52 5413.79 6338.89 6202.55 5025.39 4714.54 5893.5 3320.11 5030.91 6022.17 5119.37 3982.23 6163.38 4566.18 3459.9 4964.09 5201.36 4809.42 5024.9 4306.53 5659.17 5094.81 5972.06 5713.22 5861.71 5028.96 4359.04 3183.98 3794.63 4524.28 3778.1 5152.36 4511.82 5826.64 4220.65 6820.42 4816.2 6321.41 4896.52 4751.02 3372.79 5184.56 5282.64 4715.72 4669.66 4808.52 5046.33 5607.24 5053.92 6352.26 3847.38 3818.59 4863.72 5002.48 6623.85 4262.82 5102.36 4342.9 5069.84 4051.44 4241.89 5054.74 5941.72 5991.09 5133.97 6600.94 4788.58 5371.02 6155.1 5876.71 6262.72 5029.78 6515.84 4888.6 2990.77 4739.14 4918.77 4371.99 4219.78 3885.86 5235.29 4479.94 6250.23 6413.02 4863.27 5862.86 6049.79 3493.7 5374.98 4719.7 6939.12 4735.33 5411.85 5092.37 6444.77 4287.63 5315.4 6449.45 3975.31 3689.45 3824.16 5572.95 3868.18 6723.16 5584.06 7111.16 4547.19 3817.13 5507.24 6851.54 4583.31 4503.89 5806.08 4853.39 4997.27 4093.08 4449.22 5543.27 4717.05 6135.57 5998.38 4312.67 5423.8 4270.24 4989.15 5017.78 5015.69 6175.81 4727.24 6677.09 4305.57 6959.81 4829.35 5201.67 4089.76 5526.55 3192.41 5215.15 4987.87 3315.57 5804.71 4764.96 5727.3 4242.52 5356.51 4277.88 3057.03 4087.15 4143.08 7500.97 3948.23 5228.18 5787.31 5065.11 5868.82 4050.9 4978.31 4099.77 4537.32 4981.9 4656.78 5126.91 3600.43 5131.24 5196.67 6496.67 5474.8 3664.11 5117.47 4925.63 5882.65 4434.19 5187.7 4623.61 4188.3 6261.75 5177.64 4255.31 5453.3 4407.9 3492.19 4584.5 5122.63 4703.08 6345.13 5274.19 5516.95 4406.4 4413.85 4844.57 4027.46 6314.07 5776.37 4516.28 3627.82 4044.45 5125.78 5344.43 4373.47 5045.38 5350.88 5372.61 3686.21 6480.17 5023.15 4377.07 3813.22 5570.3 4336.42 5243.29 7589.94 3130.65 5628.24 5856.11 5287.2 3327.49 4109.88 4234.94 4562.29 5013.13 5080.66 3417.33 4926.42 4164.13 4642.34 4520.1 4947.52 5874.89 4293.03 5813.4 4389.21 3791.79 4424.7 4925.44 4754.05 4951.47 6084.93 4307.28 3697.96 4739.42 5538.93 5020.12 4745.45 2631.9 5281.28 6255.18 4668.71 4758.21 7228.46 6362.14 6719.88 5978.82 5266.5 3927.99 4523.88 4066.38 4948.98 5227.52 4414.48 4092.24 5163.02 7144.24 4906.82 5687.83 5004.23 6442.69 6320.71 4648.04 6607.87 4721.32 3293.56 3163.78 5274.14 4903.82 5746.28 4082.47 5511.6 4338.08 4378.3 6134.99 4094.73 4718.54 4440.57 5548.29 6766.43 2315.64 4390.41 5226.56 5599.49 5313.22 3905.51 3999.94 4470.98 4864.22 3901.8 5759.46 3921.08 4190.31 5678.96 5262.19 4244.9 6070.58 6034.41 5452.83 5130.91 5402.24 4519.22 6445.22 3844.9 3695.36 5101.59 3963.86 3848.93 4306.11 5935.47 3402.32 5903.66 4528.49 5004.67 5365.89 5992.26 3960.8 5070.39 4980.85 5714.58 5110.45 5208.32 5248.77 4083.97 4607.02 5153.74 4528.09 3895.51 4165.81 6291.51 4128.98 5882.89 6246.22 4188.32 5246.61 4100.38 5344.77 4723.48 4899.11 5097.87 4278.07 7267.18 6256.02 5320.92 5269.18 4406.1 5034.59 4942.77 4263.33 4454.63 5080.18 5912.61 3279.1 4403.98 4560.84 4729.43 5776.57 4562.74 5683.26 5598.74 5139.5 7493.3 4814.55 3527.05 3464.83 5698.77 2477.07 6413.11 4305.16 5092.28 4965.89 5659.95 4152.85 2908.7 4453.64 4517.73 5469.47 5660.16 4989.56 3838.47 2588.37 6736.03 6235.57 3623.87 5916.16 6113.95 4050.08 4097.57 5017.5 5563.79 6171.13 5511.88 5083.41 4512.11 7055.42 5486.68 6048.86 4285.32 5490.43 5022.28 5197.52 4959.34 4948.5 4527.02 4531.14 4564.34 3838.56 4871.44 5076.35 6020.48 6375.99 5200.05 5234.29 5313.66 5419.37 4466.03 4511.54 5409.33 5196.0 4923.9 4973.78 3329.99 3947.47 3296.27 4713.25 4204.84 6243.0 6673.96 3556.85 5441.96 3435.9 5174.89 4288.3 5370.52 4652.29 5774.81 3746.31 5498.32 5027.98 5346.27 6475.1 4969.21 2691.29 2845.98 5289.52 5314.85 4305.43 5450.44 6510.17 5742.65 5592.32 5381.16 5565.13 6193.35 6086.96 5233.78 3701.27 5653.9 5046.21 4929.14 5894.61 3979.54 5304.13 5944.09 5833.06 4923.41 4497.31 5384.76 5529.42 5257.12 5243.43 4537.14 5551.9 3757.34 6415.61 4687.64 4419.71 5037.06 4541.8 5175.29 5842.56 5887.15 5412.31 3087.09 6934.37 4890.5 3981.07 5452.42 5328.22 6853.85 2395.5 3497.9 5941.61 5782.48 6248.6 5683.61 3836.45 5100.25 6894.26 4986.51 5339.38 5178.99 5383.07 4591.87 5013.42 4790.78 4247.15 6552.22 5651.07 6248.81 5273.35 4091.8 2651.49 4645.58 5512.23 5275.32 5985.29 4898.94 4178.15 4613.31 4733.04 6119.09 5788.66 5091.68 7531.29 5069.25 5048.89 5935.03 3161.47 3991.03 6390.78 7435.25 6826.57 4788.87 4495.87 3702.37 6022.72 4643.31 5527.33 6917.52 5402.21 4989.09 4880.14 4982.31 3848.54 4307.48 5941.4 5331.02 4871.96 4863.23 4402.67 4470.61 4631.83 4384.88 6887.27 6008.49 4806.34 4287.53 5612.21 5945.08 4968.03 3306.14 5490.58 4863.79 4702.06 3830.46 6031.67 4689.15 6138.12 4428.78 5409.66 4345.67 4765.72 4642.66 4752.14 5329.59 4888.12 4950.97 5512.16 3197.63 4863.96 5191.08 5203.08 7480.41 3423.15 5163.77 4488.85 3731.84 4901.07 5186.3 3436.15 4151.76 4020.4 3493.47 4596.75 4933.65 5443.58 4558.46 5805.86 4049.02 4470.4 5311.03 5255.12 6169.11 5615.35 4027.09 6422.84 4502.18 5379.09 4602.85 4962.77 5872.05 4853.02 6259.23 5181.4 5670.2 4711.62 4247.23 4114.24 4268.65 4694.83 5509.42 4354.08 4256.43 5936.36 4520.62 3903.75 4755.47 4485.99 5127.16 5475.8 5314.69 6050.81 5543.46 4249.46 5965.81 4750.17 5660.85 2330.66 4177.19 4752.51 3587.05 6229.37 6718.19 5282.91 4425.84 3797.33 7256.35 4800.69 6566.1 3555.86 6386.78 4996.99 4896.39 6081.14 5480.83 4220.46 4607.85 5128.57 6000.7 3169.67 5604.21 3361.92 6710.88 5395.14 3967.48 6213.04 6622.11 3685.13 6790.73 4655.16 5251.4 3867.19 5857.79 4039.91 5276.7 5036.58 6119.63 5411.02 4752.9 4287.16 5199.44 4062.5 4435.51 5374.07 4588.7 5683.95 3766.55 4579.69 3554.48 6496.52 5005.85 4216.17 6484.17 4721.02 4254.37 3374.08 4031.78 6098.1 5708.99 5687.85 5346.68 5296.29 4611.53 4285.66 4896.11 5172.53 4135.62 5801.99 5534.94 5210.48 7644.38 7552.94 6101.92 5323.3 5088.44 4998.21 4662.56 5166.79 5349.31 2976.22 4649.22 5394.55 5094.52 4946.74 2682.24 5928.32 5229.48 5475.7 4016.18 5526.75 5435.74 4244.99 5327.45 5560.26 6185.89 3997.96 4439.35 3460.94 3990.25 6184.4 3691.0 3758.07 4373.45 4236.14 4407.87 5733.62 5282.51 4460.92 5945.89 4042.28 4105.55 4340.76 6065.22 4221.28 4456.39 5514.84 3633.79 5421.53 5937.08 6070.3 5233.29 4312.56 4612.06 5204.04 4750.58 5926.11 6667.68 5235.11 5211.38 4590.55 4741.26 5920.32 4255.85 5097.69 3988.3 6543.13 5149.72 5776.96 5464.25 5486.48 5301.47 4617.55 3645.12 5424.88 5415.85 8659.64 5469.13 6027.62 5010.2 6123.03 5966.61 5711.11 4575.94 4938.72 3546.71 5768.57 5564.23 5950.04 4231.83 2435.33 6401.43 5020.71 2681.29 5094.48 3872.61 4238.4 4318.48 6132.95 5266.22 4860.33 3685.13 6004.68 4051.34 3627.55 6239.84 4635.6 4256.67 3457.48 3931.07 3405.98 5417.15 3688.16 4681.72 4945.39 5996.33 3950.63 5415.19 4612.62 3619.07 4275.57 4467.04 6385.23 5817.25 2983.99 2614.4 6363.92 6205.93 4923.24 5830.72 3828.81 5309.98 4082.57 5255.18 5169.9 3004.16 4767.78 5235.17 4421.12 4779.5 5254.49 6649.96 4303.19 5784.3 3914.2 4256.57 6088.68 4643.56 4135.08 5620.74 4778.82 6124.08 5467.84 5053.95 5266.01 5253.37 5767.9 6515.8 5089.62 5869.4 3685.65 3701.16 4186.6 5895.77 4732.09 6136.49 4356.25 4216.95 4209.49 5742.74 4244.21 4947.24 3875.05 6200.54 5148.58 4199.45 6599.66 4055.54 4233.8 5765.42 6098.95 4997.83 4893.49 5325.44 5021.88 5956.65 4498.25 4188.87 3735.24 6574.95 4074.48 6333.29 4558.47 5731.57 5997.88 5839.71 5576.92 6408.83 3930.79 4004.35 5226.97 3312.06 5180.76 3361.26 6799.4 5278.36 5865.39 4427.28 6079.11 3082.32 6430.39 3658.37 7440.72 3949.6 5703.6 6326.18 5661.62 6631.19 6648.68 4713.74 5626.61 5407.78 4084.49 5061.98 6632.99 4537.6 5147.36 4419.61 7177.44 4563.46 6553.94 5726.66 5460.65 5652.0 5463.41 5225.33 4929.75 4435.36 6045.22 4614.3 5134.39 3532.3 5769.98 5442.32 2221.99 3580.58 4863.01 5356.79 5657.36 3619.79 5029.47 6306.21 2978.76 2040.66 7016.27 5884.9 3876.21 5689.26 4916.22 6022.7 4940.84 5750.07 4809.67 4757.74 6045.67 3946.28 3821.94 5439.9 5367.73 3540.11 3456.47 4652.01 5421.64 7234.66 4207.54 4886.12 6419.12 4976.12 4817.16 5453.98 3991.42 4388.63 5102.75 4200.09 4597.29 5931.77 5151.21 5398.64 6817.57 4477.04 3614.96 3886.68 5703.74 5662.55 5737.92 4360.23 5365.24 5293.51 4763.96 5754.18 5008.63 3418.99 4480.95 4993.35 4409.63 5521.25 3661.9 5370.85 5949.46 3178.54 4765.02 5376.71 4448.13 5070.29 4807.28 4867.08 2261.36 5075.55 4266.03 5280.69 4220.03 6923.84 5227.59 5449.46 6179.96 5703.07 6113.54 4662.43 6260.79 3963.76 5528.53 6799.88 3062.43 5990.52 5426.78 2967.38 4159.35 6477.91 4237.98 3091.67 6439.37 4081.97 5401.99 5580.92 5973.33 5067.46 3583.21 2511.46 4011.37 2775.69 4785.25 6519.43 5876.64 5424.46 4857.84 4908.49 4962.21 4858.44 3468.42 4673.35 4771.13 4992.42 5297.19 4351.38 4833.46 5933.7 7248.4 5280.12 4444.97 5984.81 3498.16 4409.27 4640.06 4588.99 5471.74 3548.39 3673.28 4928.27 4858.51 3375.28 5625.65 4301.61 6107.89 4446.84 5660.55 5148.08 4834.87 5760.22 3672.21 5938.17 4795.43 5097.95 5108.06 3573.73 4693.52 6853.04 4745.43 5831.96 4747.55 3056.7 3755.95 6234.32 4586.19 4446.06 3450.93 4270.74 5132.68 6595.03 4558.15 6218.95 5222.16 5107.23 5136.08 3776.94 5558.68 4802.32 4010.57 5629.39 2684.03 5246.47 6157.04 4768.61 4522.21 5506.19 6719.94 4950.67 5832.37 6166.29 5453.6 5409.63 5294.77 4709.05 4630.82 4043.66 4813.08 5860.67 4540.86 3764.1 4835.83 5604.35 6316.56 4332.87 6420.81 4715.58 4450.7 5151.52 5369.08 4347.74 5291.9 4009.62 2081.58 6505.78 5461.55 4270.15 6865.76 6449.64 6464.8 4684.44 4749.59 5799.69 3809.69 5571.72 3208.96 7051.9 4184.23 4144.57 5550.75 6834.41 6226.14 5466.33 3000.29 5721.05 4247.69 4514.39 6242.79 4321.21 4344.34 3583.49 5052.84 4366.74 5297.16 3184.64 5206.33 5530.49 5653.03 3718.69 4514.79 2216.82 4509.89 6752.75 5269.38 5607.3 2928.82 4222.4 4000.43 3420.08 4568.41 4912.04 4539.07 5464.68 2685.81 5591.76 4585.31 6625.18 5323.91 5097.45 6293.89 2761.07 5737.75 4983.39 5366.52 4690.55 5533.72 5533.42 3678.08 4599.38 5518.57 4187.31 6191.29 3240.51 7422.36 5161.01 4298.15 4628.4 6051.83 4642.93 4263.16 3973.12 3077.84 6024.75 6109.49 5567.93 5987.42 5332.65 4442.22 6451.33 5413.31 3012.99 6400.08 4743.59 5208.14 3317.83 3763.05 5092.24 5549.49 3101.75 5423.42 4518.04 4766.06 4874.18 5435.19 3298.2 4953.1 5818.95 4093.99 3940.49 4406.05 4680.94 5828.35 5876.72 5236.43 5285.07 4680.14 4608.41 4187.94 5980.59 5021.77 3796.15 4801.8 7216.98 5271.02 4209.31 5718.28 5950.45 5713.03 5849.65 5134.67 4165.21 4215.0 4936.96 4481.76 5452.78 5065.26 4304.41 6192.0 4940.28 5885.28 6579.31 3004.34 3022.6 4811.76 4914.45 4698.87 4661.03 3624.7 4691.91 5262.35 4475.83 4255.34 4510.8 5889.35 5010.04 4394.56 4570.98 4275.07 5825.38 4185.61 4047.87 5742.47 3778.02 4917.99 6552.21 5417.8 5146.37 7132.12 4836.16 5151.11 5463.48 5730.33 5545.46 4527.99 4376.7 4543.1 5190.61 8325.01 3764.06 4440.81 5941.9 5434.47 6642.76 5829.22 4497.78 4243.79 5811.18 5433.65 4008.15 4887.76 4669.06 4811.32 4286.49 6184.88 5829.32 4396.25 5551.95 3918.87 2275.45 4901.2 6605.86 5012.5 4383.56 3562.79 7093.13 4516.53 4122.92 3604.14 4452.54 5089.1 2711.19 4028.32 4099.92 4884.59 3858.06 4511.7 4083.79 5263.27 6300.92 4173.54 5599.29 6038.68 5046.12 4807.4 7013.17 3805.67 4601.74 6506.86 5088.57 5580.34 3852.6 5775.31 4706.5 4603.5 4647.67 5375.12 4356.36 4892.44 5578.94 7610.49 4286.17 3684.56 5323.55 5375.1 4172.6 5313.12 5351.56 5160.59 3984.88 4732.09 4320.42 5064.79 5480.3 7509.24 4146.81 5896.26 5388.78 6101.13 4573.72 5099.21 5636.4 4367.78 4350.12 5227.02 5670.0 4232.16 5300.96 4344.51 5680.94 3781.77 5581.55 5193.01 3474.5 6550.44 3860.83 6348.03 5732.27 4523.39 5278.56 5146.37 6917.62 4013.38 5631.14 4343.78 5263.3 3352.35 4909.65 6523.86 7693.4 4326.48 4437.07 3449.37 5491.9 6405.0 4659.16 5789.55 4633.05 5711.62 4990.79 4798.17 5166.79 6479.39 2895.63 4997.91 5079.22 5381.54 5810.77 4714.83 5474.15 7519.2 6355.68 4478.6 3953.55 4304.63 4063.9 4469.54 4314.56 3928.53 5606.51 5740.65 3834.47 6349.67 6329.53 4590.01 6101.86 4227.41 5993.0 4803.57 5966.42 4110.59 3332.49 5354.66 4214.44 5378.23 4787.97 3746.36 6789.23 3989.7 4777.03 4246.61 6028.09 5452.36 3804.5 6486.37 5498.42 5318.53 3344.57 5220.76 4281.98 7165.9 5344.83 7046.11 3427.63 4863.97 6342.48 5756.75 4587.67 5599.7 4163.74 6969.28 3665.95 5698.96 4095.75 3603.51 4298.45 5222.51 4076.59 6609.84 5135.96 3834.43 5658.37 4707.06 6074.94 5491.37 4250.88 4222.77 3783.54 5268.38 3475.67 4792.39 4805.33 7038.89 3863.67 4814.12 5067.56 6137.8 2735.53 5116.6 3747.03 2783.85 4356.49 4526.81 3994.07 4219.94 5907.46 4264.91 6740.71 5399.29 4909.31 5971.22 6522.59 6602.43 3568.28 5425.98 5996.66 4405.42 2995.67 3598.08 4599.81 5698.23 7300.58 3608.06 6633.61 5217.95 4867.7 5484.36 4277.24 5291.05 5161.1 4619.2 5166.41 5067.56 2596.96 5701.75 4350.15 4139.3 6541.45 4750.49 5078.31 5391.48 4923.43 5131.15 4847.14 3950.27 5116.66 3566.79 5374.67 4981.43 4741.28 4215.2 5069.89 4157.29 6813.72 5327.75 4609.02 4896.65 4638.18 4196.37 6448.66 4453.97 6945.98 5138.2 5783.48 4449.98 4701.5 4504.35 4771.65 4840.44 5093.82 5951.81 3924.14 6918.35 4296.69 4834.3 6238.32 3319.67 6804.79 6471.42 5283.8 5369.5 4428.14 5164.1 6464.15 4479.11 4972.17 6685.4 5699.53 4850.06 6332.01 5527.23 4234.18 7085.01 5980.95 6193.08 6069.3 3862.77 5887.01 5168.35 5388.39 5335.47 3728.18 5633.61 5048.19 6799.23 4888.27 4592.15 6487.56 4854.11 5533.19 4998.22 5417.21 6104.26 5583.61 6063.64 4986.71 7382.3 4022.56 5522.21 3772.3 4855.01 6208.9 4923.57 3340.09 6061.63 2279.05 4829.35 4075.28 8137.11 5484.32 6650.77 4067.96 7104.73 6162.3 3272.75 4264.54 3516.27 7043.44 4263.78 4643.9 5228.75 6047.14 5009.83 5210.38 5717.8 3629.44 5003.78 3299.24 6246.56 4061.6 2603.64 5107.0 6212.15 6502.97 4783.07 4946.23 4852.58 6083.28 5211.6 3556.79 5806.31 5456.71 3503.41 7317.04 6412.67 7001.83 5012.97 5589.37 5439.49 6639.64 5212.43 5454.12 6348.54 5642.35 6372.13 5404.01 6016.19 4124.49 3230.13 5714.25 6176.67 5325.96 5412.24 5016.02 7044.29 4920.21 4049.16 5851.61 3936.95 6153.94 6836.82 3858.17 4631.99 4740.98 3185.39 5128.77 7122.87 5797.36 4243.26 4153.84 5119.86 5089.26 5084.17 4901.44 3776.8 5096.43 6156.21 2460.79 4653.83 6171.71 3628.89 6589.82 4668.88 5027.43 5522.75 5867.64 4438.58 6059.93 5602.53 5073.02 6545.43 3472.91 6760.92 4989.2 4711.04 7144.05 4506.18 4824.12 2970.9 6542.5 4383.47 5971.21 4036.91 4066.57 4206.98 5156.76 6357.47 6101.57 4891.38 5535.91 4793.65 2949.12 5955.86 4532.89 4533.37 4848.46 5742.09 2779.99 5887.38 4581.37 6942.34 3658.05 5478.11 5526.31 5030.15 6318.23 4058.87 5174.75 5932.07 4984.46 5948.71 5844.72 3856.53 5460.89 6040.74 5260.85 2884.65 5393.65 4961.99 5807.46 4648.21 4393.16 3311.29 4549.69 6423.81 6192.77 6413.15 6103.11 5048.55 6459.51 4024.31 4955.16 3992.97 4147.31 5989.05 5751.15 4054.22 7228.94 4441.22 5853.89 6551.93 4595.12 3110.13 6484.43 4625.67 3485.54 6735.97 5305.59 5416.45 4330.58 5754.6 3288.01 4904.51 4355.83 6870.97 2202.77 5351.86 5950.88 4149.55 6201.86 3380.69 5166.89 4140.4 3639.44 4386.8 5446.4 4725.01 3868.62 5966.75 4729.42 3104.96 4844.83 5244.78 3636.15 6114.89 5135.63 6384.7 5952.38 3896.27 5807.52 6056.87 5474.01 5307.35 7554.58 4731.21 5491.63 3124.7 5725.37 6102.98 5138.33 3477.1 4811.22 5216.26 4749.96 5377.37 5652.87 5483.7 5018.69 3152.86 5457.66 5973.89 5963.36 5230.02 5087.14 4342.18 5169.48 6016.08 6776.22 6064.71 6060.17 5415.45 4385.81 6592.93 5096.24 5769.14 3381.82 7107.63 4831.93 4023.93 5494.28 4834.39 5493.89 5261.19 3831.52 4918.76 4208.41 5826.78 2856.55 6214.73 4553.68 3758.22 4268.19 4532.7 5561.74 6100.73 4788.08 6556.26 4593.7 4349.13 6379.14 3687.65 3634.5 5478.95 3851.85 4019.34 4658.24 3623.19 5869.67 4311.48 4387.39 4899.73 4564.1 6394.19 5366.22 6193.73 5518.11 3742.11 5712.35 5701.52 4743.9 5311.55 5321.17 3719.11 4467.13 3877.8 6418.11 5934.82 4501.78 6350.71 5039.12 5135.5 5868.89 5545.59 4099.26 5206.47 4263.65 6106.43 6761.81 5467.63 4127.53 5210.75 5361.87 3205.68 4473.29 4908.75 3971.08 4482.9 6818.91 3503.65 4869.48 4906.11 5510.96 4745.16 5825.55 4584.81 5509.51 4848.14 3199.4 4316.5 5254.24 4192.21 4914.03 3597.43 5086.29 5144.56 4158.91 5139.18 3360.86 3034.16 5551.43 4869.25 5545.21 4201.03 4333.87 4922.49 3572.94 5001.58 4820.17 6456.58 5244.98 5366.11 4824.81 4384.28 5944.3 7307.21 5640.72 3619.72 4565.93 5615.84 4464.73 5788.97 6440.38 3274.85 5007.21 4580.06 4835.97 6419.64 4057.17 5262.47 7066.96 4587.7 5196.92 5644.81 4568.64 5666.95 4642.2 5175.89 3894.64 3703.49 5232.85 4374.74 5975.23 6816.66 4745.79 4211.82 6204.65 6550.4 5513.8 4887.52 6631.28 5350.88 6571.31 4392.65 5429.3 4944.51 6653.07 4697.91 5179.17 5071.98 5719.79 4371.08 7261.51 4968.14 5949.73 4312.48 5527.13 4278.57 6318.25 5049.99 4458.64 5001.87 4312.15 3644.78 3657.69 4883.63 4078.93 6015.02 3814.65 3886.72 4034.05 5127.82 5798.38 6436.74 3419.87 4456.26 3908.98 5113.6 6328.42 5851.63 4504.52 4954.81 5610.53 3926.11 5464.83 5414.58 4991.35 5601.55 4807.35 5334.36 5750.35 4489.99 6555.44 5293.75 5658.14 5473.72 7124.45 6358.93 2205.51 5144.44 2617.39 4757.2 5034.69 4198.94 5079.64 5470.04 6003.78 5684.25 4891.67 5188.53 4882.66 4027.63 5603.68 4526.34 5610.95 5532.72 3220.8 4598.92 5579.39 5270.51 5148.1 5490.75 5224.64 5214.63 3495.68 5783.94 6370.33 5081.08 4202.77 6864.06 5836.14 6008.81 5510.9 4505.28 3492.83 7039.98 6006.89 5792.98 7778.01 5910.86 5690.96 5805.1 3862.91 4456.11 4027.33 4810.98 5091.22 3563.14 5212.92 5556.0 5748.9 3742.31 5755.15 4608.34 5695.79 2781.96 3512.94 4467.0 4994.65 3903.91 4929.6 3919.62 3683.86 4548.45 5730.61 4508.18 4062.56 5969.37 3217.67 4509.46 6163.54 5212.37 5438.92 3766.69 5110.11 5036.98 4521.75 4813.33 3840.21 5569.2 5635.32 4827.61 4316.45 5409.08 5042.75 5241.22 6647.08 4979.52 3422.29 4407.79 6548.29 3990.96 5352.24 7362.42 5793.12 5473.05 4373.2 4583.52 6711.21 6280.13 5244.22 5832.29 5585.14 4438.76 4960.64 4983.3 5401.4 5053.15 5124.17 6239.68 7320.78 4234.88 5782.43 4708.31 5026.76 6282.38 5657.55 5727.79 5188.82 5043.14 5072.5 3663.0 6304.49 4420.6 3622.8 4431.23 4258.98 6545.99 4728.55 4368.28 4945.0 4658.11 4551.26 5114.07 7142.95 5064.67 6618.21 3717.47 4504.86 6200.63 4928.35 1937.5 3844.54 3538.53 996.652 6500.49 2628.22 5965.58 5058.51 4244.49 4050.03 4120.07 4952.52 3429.57 6746.66 5410.33 5420.67 5661.6 6099.28 5285.75 5385.03 5481.64 5673.75 5360.67 5968.54 6263.3 4501.05 4537.03 3247.97 4114.2 4326.06 5034.46 5757.29 5016.46 5469.17 5061.75 3769.24 5153.18 3743.76 3425.69 4971.29 2606.51 6119.99 4446.58 5372.82 4775.49 4681.29 5749.6 3845.9 4174.44 4834.44 3873.92 4092.07 4213.05 5347.9 4224.3 4717.73 4928.85 4749.18 4546.96 4316.0 5424.55 5134.72 4475.38 5287.25 5917.34 5740.98 3787.08 5630.9 4554.68 4140.92 4559.74 4383.68 6666.67 4583.94 5046.31 4337.32 3352.34 4901.29 3242.31 5372.25 4169.15 3234.26 4778.37 3494.16 5134.17 5370.9 4074.16 4904.35 5592.54 5390.33 5124.34 4904.37 5278.54 4358.81 4651.64 5729.92 4179.87 6224.13 4761.84 3661.67 5510.45 3994.39 3864.92 4159.81 4402.17 6331.74 5235.87 3904.07 6502.99 4921.1 4191.01 4770.51 5577.41 6511.37 4216.44 3999.5 4012.92 4462.87 4346.07 4218.16 2918.64 4933.49 6139.64 4692.32 4512.07 4474.83 5236.24 3127.83 4585.04 5678.58 4212.15 4385.49 6570.35 5114.23 4263.18 4242.63 3269.54 7407.91 5836.26 6015.22 6063.44 4051.18 4826.52 6449.06 4685.4 5241.75 5849.53 4651.99 4420.11 4680.69 5863.0 6127.39 5640.12 4972.18 5329.76 4124.76 4775.04 4607.18 7200.89 4802.98 4147.49 4833.55 4081.34 7224.99 4954.76 3908.56 4642.74 4898.29 5265.63 4431.06 5730.2 4830.13 5620.88 4941.52 4529.77 4325.13 4262.74 6172.27 3783.79 5078.73 4248.14 5279.19 5729.0 4016.6 5192.92 5275.57 4786.66 5891.25 5370.1 6273.6 4763.4 5902.67 5454.11 4236.86 5393.76 3684.15 4730.14 4983.1 6010.59 7123.04 4128.1 2955.36 4618.73 3965.3 5906.57 7541.76 4932.29 4990.23 5499.59 3784.94 3220.29 4506.66 4141.21 4439.71 4064.58 4125.9 4564.41 5667.51 5426.4 4198.9 5763.05 5431.29 4833.67 5023.41 5325.91 3791.41 5157.38 4646.51 4184.21 4546.44 6203.03 4700.07 5273.37 6089.45 4732.37 4985.3 4966.07 4400.14 5713.36 5553.94 4704.92 3987.69 4287.25 4392.75 3814.16 5340.05 5674.63 4589.06 4184.47 4920.88 5995.4 5890.25 5322.11 5700.79 6710.14 4013.86 5759.79 4598.54 4177.47 5218.42 4770.63 5345.73 4841.23 5188.22 4896.43 3990.94 4756.8 5984.8 5477.8 5463.06 4176.32 4462.35 4639.8 3986.41 6069.78 5260.52 4241.68 3185.09 6102.49 5532.75 6949.65 5495.0 3469.18 3372.95 4489.29 2945.34 5676.61 4301.93 5064.23 5268.15 6061.85 5701.63 4454.74 5819.0 5512.44 2904.46 6347.72 3200.6 4924.07 5120.92 4629.02 5124.86 6240.42 4731.53 3763.9 5146.0 4788.7 5721.14 4608.62 4577.73 4288.45 5407.96 5084.5 4987.28 4918.64 4071.75 6206.98 6638.25 5078.59 4815.47 3899.7 4759.99 2403.72 5134.33 5419.57 5162.67 5760.98 3646.95 4636.53 4705.68 3629.49 5766.05 5469.35 5384.86 5117.64 3835.81 6334.53 5764.52 5684.88 6523.78 4645.86 4045.67 6005.95 4308.49 5900.0 4581.1 6241.77 5317.19 7360.12 6223.98 5821.49 7050.08 5580.44 5998.13 5136.87 5684.05 3667.93 5638.7 5024.32 5813.79 4708.17 2741.2 4644.88 4941.02 5806.61 3779.45 5784.37 5790.42 3142.09 3682.35 5182.13 5591.77 3668.93 5003.3 4009.24 3756.96 6110.48 5800.81 6245.52 3954.77 6793.1 5106.46 6016.87 4068.31 3125.13 5077.29 5166.05 5515.73 3671.06 3612.44 6715.73 5209.55 4850.5 5866.91 6405.69 2820.07 5951.86 4252.18 5357.39 5129.68 4659.88 5076.84 5247.01 5853.12 4208.37 6296.54 4841.7 5685.74 5797.21 5702.4 6019.35 952.938 5069.9 6740.35 5473.89 4678.7 5810.17 3450.07 5265.21 3306.84 4657.24 6215.87 5191.26 5866.42 3669.32 5544.27 4762.1 3484.81 5393.43 5308.33 4666.12 4685.65 5377.01 6219.34 6023.07 4271.07 6470.23 6506.63 4140.04 3495.3 4668.8 5125.17 4697.49 5735.08 4859.01 4726.2 5524.45 5034.05 4426.02 4816.51 4711.15 4750.81 3825.48 4474.39 3810.68 4658.59 2804.54 4196.62 6478.35 5453.77 4357.11 5005.6 5486.89 5589.53 7208.19 3587.93 4549.51 4975.85 4095.83 4517.29 5695.25 5323.95 5846.95 6171.01 5716.42 5796.26 4620.95 4603.04 4870.94 5368.93 3460.93 4488.39 6121.56 4927.73 5914.5 6006.16 3565.32 5710.33 3622.48 5344.44 4626.72 6432.8 6562.03 5549.71 4410.82 4368.12 2646.13 6443.99 5214.4 4365.58 3889.98 5399.43 5193.58 5034.34 5490.64 5695.44 3422.21 5036.14 4507.46 3916.42 4390.64 3770.22 5150.84 4608.01 5087.97 4519.03 4930.17 5110.27 4085.96 4745.44 5762.82 4232.33 5462.6 5617.29 3035.06 4262.19 4597.88 5095.52 4493.79 4932.56 4279.44 5192.49 3487.31 4899.19 6643.4 5058.34 4028.22 3918.94 5575.11 5293.13 7350.26 3852.82 3768.46 5167.53 6224.85 7145.73 4168.52 4556.19 5403.97 4795.08 6562.92 5648.78 5501.73 4697.24 4983.43 7035.54 5233.76 4683.28 4217.36 6549.8 5679.74 4825.73 4165.36 5288.33 4871.77 5811.26 5062.77 4884.93 6075.99 6028.63 3673.6 4550.92 5927.2 5146.1 6485.77 4419.79 6060.06 3869.39 5960.5 4117.9 4753.76 6896.55 4638.09 4441.91 5330.26 5828.25 5939.22 4725.11 4215.05 3626.86 4271.93 4604.1 6371.96 5076.11 5990.75 7133.44 5600.21 3953.26 4282.11 5467.51 5459.92 4625.53 4096.47 2809.19 5114.67 4104.04 4916.7 2638.82 5030.33 5593.79 5196.08 5025.42 4965.24 6379.38 6257.79 4495.75 4849.5 5353.23 6229.83 4468.26 4523.81 5578.18 5106.33 5293.37 5271.88 5198.94 5933.54 5559.79 7168.2 4602.57 3763.85 4571.74 3419.07 5740.78 4096.86 4796.12 5001.51 5997.91 5115.42 5385.86 5131.77 3186.07 4369.86 4082.4 4209.0 4967.51 5482.76 5173.82 7212.97 3720.7 4211.36 5698.53 3769.2 3604.31 3856.73 4450.49 3468.45 3402.44 5537.61 4848.98 4491.96 5184.98 4199.44 4467.51 5339.82 5460.57 5065.78 5703.34 4612.68 4521.42 6668.98 6649.52 6043.34 4939.56 4747.68 5770.92 3093.38 4845.91 4878.93 2002.78 4461.67 5537.34 6022.78 5884.99 5726.42 7025.09 4674.9 4433.12 3392.26 5461.72 2549.95 5487.63 4361.24 6599.28 4507.36 5138.93 6945.69 6406.8 7086.69 5368.66 4304.64 6170.9 6875.73 4436.48 5226.42 6081.3 5615.35 5117.52 3967.76 6311.89 6734.39 5987.88 5942.45 4228.53 4150.76 6123.46 4851.18 5005.72 5368.52 6142.88 5155.28 5205.38 5388.73 4764.83 4949.55 4600.71 1969.87 3132.34 5262.79 3957.38 4841.28 5507.38 4494.15 5035.71 6889.5 5407.69 4710.88 5300.17 4057.4 5152.78 4896.67 5534.23 3934.11 4781.9 6025.77 6815.96 4466.22 5339.6 5917.08 5483.37 5418.12 5322.07 5934.05 5770.07 4714.66 5101.6 4984.17 4656.01 5781.62 4037.86 6589.13 2347.41 5602.62 4542.16 2030.03 5714.51 3543.37 5628.97 5353.66 4484.78 5527.27 5104.39 5234.2 4612.13 5846.6 5327.05 4109.44 4903.84 5438.55 4290.49 4434.65 6688.53 5977.66 5209.5 5065.74 5791.25 4873.23 4028.35 6731.89 5464.05 5879.24 2980.31 5410.6 3148.79 5453.2 6348.93 6824.53 4332.64 4742.82 4422.23 6791.86 3989.26 4820.68 4930.72 5728.58 3745.02 4887.73 6297.99 5378.24 5918.95 5817.74 4538.89 5887.71 4721.98 6084.88 4397.06 3543.98 4053.12 4479.5 6261.67 3435.13 6002.77 4431.46 4610.55 3207.84 3977.98 4128.93 4462.5 4959.72 5573.31 4712.17 5004.68 3808.04 4723.71 4405.61 4087.32 5517.65 4009.68 6647.85 3303.49 2569.12 4161.32 4622.73 5161.74 7336.37 5932.28 5560.23 5099.9 2960.5 4975.32 4298.7 5118.86 3902.48 4183.4 6030.39 5833.78 4733.79 4823.06 3799.01 5758.98 5254.49 5288.64 3757.23 6213.24 6883.86 3579.59 3350.99 6161.94 4065.28 5057.59 5939.29 4461.14 5111.26 5285.6 4574.54 5575.11 5615.06 5490.54 5061.74 5203.54 4047.95 6189.67 6142.94 5001.69 4416.87 6581.56 4052.43 3980.46 4061.87 5383.9 5158.44 3798.09 3886.56 4288.5 4496.51 5715.51 6153.71 4511.05 3456.3 6561.94 5259.21 5092.93 4256.08 2803.01 5881.93 4444.0 6771.18 6182.19 5327.39 5910.66 7415.84 4981.81 4138.59 4938.33 4970.55 4621.33 5157.73 5847.91 4541.22 4934.66 4946.08 3539.68 4984.01 6217.33 4557.1 4605.39 5927.1 6270.59 6175.27 5876.51 4103.76 4286.61 4094.63 4733.41 2932.52 5264.83 4603.66 4969.68 5136.51 3901.53 6815.51 5232.16 5313.86 4457.05 5189.91 6031.22 5485.84 3618.64 5703.84 6424.77 4335.79 3530.82 5453.69 5797.32 5432.04 5689.56 5159.67 6556.86 3921.27 3228.27 3956.24 5252.82 4142.1 5056.26 5878.55 4014.44 5445.91 6604.72 4812.59 3794.47 4967.02 5675.45 4614.49 3361.11 5400.69 6038.56 2807.46 5599.16 4179.8 4023.88 3488.34 5348.11 5428.24 5114.51 5129.4 4655.37 5585.25 5256.75 5023.61 6351.89 6530.78 5059.37 5783.38 3043.77 4139.39 5237.55 3909.94 5088.64 6589.8 4905.53 4151.74 6920.92 7392.65 3729.16 3783.36 5319.1 6828.8 4181.93 3922.28 6570.43 3820.19 4979.5 4586.82 4745.37 3133.28 6026.04 6200.05 5418.98 5859.17 4034.41 4052.49 5522.34 5326.03 4420.35 5717.45 4948.96 5256.82 4013.86 4645.93 5165.31 5448.64 5244.95 4585.37 6417.61 3721.69 5395.12 5783.69 6074.39 5317.83 5350.9 3483.61 6738.9 4460.89 4399.52 4554.24 4157.1 3939.96 8052.53 4867.12 6044.01 6520.19 4637.3 1458.87 5141.03 4840.44 5734.07 3997.68 8123.59 4819.83 5765.14 4801.16 4767.54 5121.08 5071.38 4696.03 2927.84 5688.77 6177.68 4698.7 2848.44 4220.43 6229.64 6045.26 6500.45 5743.8 4907.55 5084.76 6666.34 6605.11 4757.87 3557.46 6636.43 5431.14 5971.95 6298.8 5178.07 3689.24 5151.19 5777.26 4171.02 6119.0 7012.36 5128.59 5028.06 4002.99 4886.99 5587.3 3161.1 3572.73 4864.38 3702.45 5580.95 7558.99 3393.59 3549.92 4032.06 5043.14 5246.81 5333.04 5888.95 4521.99 5394.78 3463.34 6842.54 7115.67 4998.37 5329.84 3879.83 6565.95 4577.98 5658.35 5886.81 4746.15 6275.25 3720.38 4758.84 4731.37 4505.3 4452.36 3976.0 4672.86 4511.34 6463.71 4068.41 4742.35 5394.79 4574.03 5645.54 5290.37 5850.38 6264.03 4526.87 5264.08 3562.8 4227.66 4691.01 4174.22 5192.82 3573.84 3038.91 4067.89 6294.09 4571.57 3445.92 5131.07 4121.07 5236.69 4197.87 5524.28 5105.54 5731.43 6353.81 3518.14 3414.67 5444.36 4150.44 5044.68 5771.98 5899.78 2649.69 5000.74 5117.83 5772.57 5268.27 5637.53 4813.81 3882.37 4634.25 4095.4 5901.8 4718.61 5188.57 6351.48 5357.33 3830.7 5252.37 6210.0 5432.4 4262.52 7430.48 5992.06 5545.68 6080.69 4970.12 4967.93 6369.66 5973.57 5922.62 6241.48 6033.28 5957.82 6286.27 6327.54 5616.66 4802.36 5368.28 5327.71 5466.13 5257.38 5075.23 6263.87 4975.56 7282.36 3826.01 4645.91 5581.01 3928.99 6834.92 6379.33 5130.57 3979.46 5652.73 5402.45 6321.97 3985.93 6412.84 6509.54 2589.19 3792.06 6079.55 5485.61 4993.49 4937.36 4293.3 5308.4 5310.33 6583.37 3688.83 4313.38 6598.99 5250.56 3633.58 2468.16 5089.1 4339.97 5203.75 5169.09 5122.38 2853.68 2459.88 5262.85 5901.71 6559.82 5342.9 5733.12 5043.34 6436.29 5631.32 6892.33 5793.14 4491.26 4609.65 5704.61 4832.21 5009.21 5410.73 4379.91 4942.63 6139.74 4975.57 7066.26 3057.3 4730.97 4594.89 5245.95 3677.85 5821.42 5214.71 4515.02 4677.84 3463.53 4924.52 6126.03 2970.24 5314.67 6044.69 5658.05 6593.1 5462.1 4000.51 6032.45 5011.37 4026.03 2827.92 6908.32 3467.11 5336.61 4817.75 6153.26 4848.15 4439.09 5523.81 5648.59 6697.45 3873.79 5717.67 5515.59 3224.81 4499.54 5037.58 3775.38 4046.22 5640.67 6572.17 3751.73 5555.89 4766.47 4871.1 3917.09 5678.08 6009.93 5872.45 4414.09 5125.45 4188.16 3784.68 3717.22 6305.9 6649.21 5507.07 2943.17 4654.92 5286.55 4880.78 4322.56 5509.09 5625.02 3873.72 5212.05 5479.86 4829.77 4444.92 6959.88 4125.75 5971.9 5749.53 5247.73 5090.48 5034.02 5582.28 5945.25 6071.59 3856.4 4696.06 4137.16 6189.29 5984.55 6581.13 4569.32 5803.3 2832.83 5827.3 6036.99 3010.1 3825.98 6294.14 5087.03 4667.84 3906.41 4691.15 4123.08 4512.6 4210.24 4260.38 5470.67 4636.45 4932.27 5225.11 6793.49 5252.22 6060.19 4962.35 6126.5 4034.88 6322.0 6007.1 6345.2 5488.96 3188.21 5128.03 3720.92 4793.06 5087.3 6637.38 6188.33 6111.23 6916.18 6150.31 5873.62 4996.91 4811.11 3920.44 5379.52 4450.51 4866.8 3851.47 5563.47 4966.74 5651.46 4959.94 1635.31 4066.36 3162.27 6033.93 4083.24 5516.37 4441.44 5092.44 5432.2 4232.44 4612.4 5563.09 3312.3 6381.58 3282.57 4798.13 5212.2 4611.21 5108.42 4630.5 6296.36 4432.32 5237.27 4451.76 7885.41 5782.25 6457.89 4104.97 4844.2 4575.72 5114.61 6118.13 3374.62 4420.3 4926.62 4202.12 6332.64 6492.44 4083.1 4613.32 5270.1 3482.73 5191.29 5130.56 4947.64 4957.99 4063.26 5345.05 4997.89 3470.69 4542.62 5093.28 4859.95 4132.08 5522.18 4699.77 5223.1 4850.49 4981.55 4592.49 3625.98 5144.23 6188.62 6474.5 4702.32 4414.06 4763.04 3746.62 4413.56 4532.67 4876.37 5316.05 2513.38 4769.62 4908.32 5260.13 4649.5 5019.84 5181.31 4810.74 5985.75 5784.38 5475.83 4149.17 4329.8 5728.27 5672.46 5202.33 4474.96 4084.87 4790.63 5259.29 3584.05 4589.22 4818.53 5097.85 5584.64 6189.04 6224.64 4221.03 3799.55 5638.51 4550.77 4337.93 3563.33 3550.88 5536.0 6786.37 5108.84 4582.12 3511.5 4295.25 4520.14 5067.92 5357.14 4850.95 5919.27 5374.09 6271.22 3421.81 3920.64 5378.75 6186.24 5822.7 5786.06 4137.41 3868.69 5447.74 6033.72 5007.41 3768.62 3692.99 6213.74 2329.93 4369.87 6938.87 5639.4 5412.07 6185.73 4806.99 6520.96 3771.91 5856.43 5217.62 3465.03 6178.19 4746.19 5349.85 4616.81 5715.25 5172.1 4362.94 4469.82 6545.78 3354.94 4404.87 4870.14 2932.2 5105.72 5767.65 4750.76 5003.49 4907.03 5497.27 4081.77 5617.91 4948.21 2181.29 4987.01 4706.31 2694.25 6265.48 4735.99 4203.68 4739.56 5145.39 3996.93 6351.95 5195.09 5200.1 7679.2 4881.51 6131.52 4311.92 6009.88 5093.41 6729.99 6842.35 5464.34 3621.63 6153.07 5801.89 5908.57 5944.52 7296.47 5050.2 4821.41 4924.53 3995.08 5616.11 4499.52 3874.12 4028.13 3900.93 4457.73 6476.35 3113.64 4304.75 6260.58 4067.24 3053.19 6139.9 3074.49 5367.05 4758.76 5647.11 4088.72 3945.62 4916.75 3743.85 6236.46 5342.17 6379.3 3795.63 5189.4 4576.71 5082.66 4894.15 5201.3 4345.51 4048.73 6223.33 4487.51 6805.02 5354.48 7394.47 4729.45 6261.13 4167.55 4720.34 5244.47 5510.89 4731.16 6470.87 3780.07 4495.33 5282.67 4159.89 5466.49 5178.55 4038.17 4907.48 5146.69 6818.23 4488.41 6679.12 5652.19 5512.57 5806.74 6578.62 4813.55 6284.12 4796.04 3839.0 5229.56 6011.4 5799.86 4672.34 6052.22 5376.41 5003.63 4695.7 4944.08 4082.01 5269.39 3964.03 4305.35 4216.33 5832.72 3903.9 4444.95 4721.2 5161.02 3943.77 3124.49 5242.38 6081.35 5003.81 6262.18 3818.37 5566.5 4701.03 5663.36 3352.46 6225.05 5434.04 5125.53 3997.52 4444.54 2626.41 5779.9 4909.74 5310.33 5299.03 6664.54 3922.98 5161.73 5259.48 4777.96 4008.67 5254.93 4803.4 6833.5 6608.94 5742.39 2613.78 4780.16 3834.01 4433.23 5738.37 4813.24 5759.19 5847.27 4490.2 5734.84 5480.86 3982.31 4950.07 6571.26 4449.73 5015.67 6538.04 6157.59 5848.41 4090.28 4246.83 4246.24 5402.81 4600.81 4919.13 5640.63 4900.26 5783.88 5002.38 6705.93 4865.11 5502.14 5449.09 4605.61 4465.56 4131.08 5747.9 5386.95 3864.19 4287.93 5315.71 6203.24 5081.65 6158.93 4823.14 5438.5 4621.32 5699.4 3878.8 5237.76 4698.94 4286.84 3948.21 5669.15 5296.05 3330.85 5263.86 6988.4 5056.32 5533.52 5410.33 4747.24 4380.86 4909.13 5576.16 5648.02 3308.75 5210.22 2451.27 5677.42 2701.42 4929.35 5606.22 6673.92 5151.68 4884.94 5459.52 4609.98 4738.72 4752.31 5240.97 5579.04 4276.59 5405.6 5994.21 5403.81 5082.25 6964.78 4374.05 5036.84 4565.36 5813.68 4025.08 3618.53 5040.9 4770.21 8013.28 3846.55 3796.73 5417.07 3082.16 5656.84 6789.66 4739.41 5312.2 4706.59 6760.64 2515.5 5177.88 5551.79 6981.47 4720.22 4582.24 4333.23 4328.76 5561.63 4124.33 5168.97 4358.06 5093.51 5647.93 4280.92 6201.49 5154.74 4696.92 6437.99 6898.8 6540.57 5332.11 4893.72 6004.72 5373.78 4072.4 5345.65 4489.18 5863.36 4632.75 4752.94 4994.98 3950.53 6423.96 6058.13 5894.69 6550.61 4987.01 6635.51 4060.17 6094.34 6051.35 5302.53 5543.67 4287.61 3999.81 4867.13 4604.34 4439.17 4863.27 4502.12 5442.79 5051.39 6327.61 4633.59 5733.59 5362.15 4455.61 3695.72 6874.6 5106.9 5569.85 5523.96 3929.35 4884.93 4759.38 6960.97 4287.15 5282.51 5504.65 5669.41 5732.11 3919.47 5596.68 4868.66 4004.39 5159.9 5283.65 4644.68 4987.48 5943.61 2892.36 4248.58 5981.54 5911.29 5416.41 4694.27 5233.88 4849.21 4785.55 3793.83 5245.4 3916.15 5145.13 3860.8 3747.96 5611.29 5940.5 4726.5 6568.45 4521.88 5004.22 4601.54 4963.88 7263.57 3832.09 5705.96 5267.65 5739.69 6632.04 5360.88 7360.62 4985.45 4977.64 4983.56 5699.51 4714.52 2489.44 5499.37 4883.13 4836.76 5551.09 5755.98 4501.1 5581.47 4384.91 4277.54 4713.56 4531.46 6779.82 4739.5 6210.48 6377.45 4182.05 3255.93 6853.07 5575.8 5268.93 5306.31 4223.53 4733.37 4535.94 3037.72 4523.9 5126.08 5604.0 3760.4 4951.02 4602.7 3783.35 4037.16 6395.63 5479.17 5020.37 4542.25 4414.23 6189.81 5438.6 7370.52 5467.05 3724.23 5103.3 5888.94 4122.2 4727.98 5175.88 4516.26 4790.16 3509.34 3647.26 3731.58 3166.37 5369.42 5207.08 5205.53 4587.19 5543.05 6028.89 5333.16 4888.17 5392.85 5077.2 4274.05 5275.27 5529.09 5925.82 5448.68 4072.95 4491.62 3865.5 
SCALARS Velocity float 1
LOOKUP_TABLE default
1.19226 1.1924 1.19227 1.19252 1.19178 1.19262 1.19245 1.19234 1.19177 1.19228 1.19178 1.19196 1.19178 1.19178 1.19208 1.19178 1.19178 1.19187 1.19178 1.19177 1.19175 1.19223 1.19208 1.19177 1.19178 1.19175 1.19179 1.19177 1.19178 1.19178 1.19178 1.19198 1.192 1.19236 1.19217 1.19212 1.1922 1.19203 1.19178 1.19199 1.19188 1.19177 1.19222 1.19178 1.19176 1.19264 1.19231 1.19193 1.19194 1.19204 1.19179 1.19214 1.19174 1.19229 1.19224 1.1918 1.19179 1.19188 1.1919 1.19255 1.19181 1.19177 1.19228 1.19176 1.19178 1.1918 1.19184 1.19209 1.19156 1.19267 1.19199 1.19274 1.19266 1.19288 1.19247 1.19193 1.1921 1.19262 1.19277 1.19263 1.19231 1.19178 1.1926 1.19184 1.19249 1.19178 1.19212 1.19183 1.19219 1.19273 1.1934 1.19226 1.19235 1.19255 1.19205 1.19178 1.19197 1.19196 1.19327 1.19277 1.19218 1.19255 1.19273 1.1927 1.19236 1.19249 1.19244 1.19243 1.19178 1.192 1.19177 1.19178 1.19212 1.19178 1.19178 1.19188 1.19178 1.19241 1.19178 1.19229 1.19178 1.19178 1.19178 1.19188 1.19178 1.19178 1.19182 1.19183 1.19184 1.19208 1.19215 1.19239 1.19223 1.19216 1.19224 1.19214 1.19184 1.19219 1.19189 1.19222 1.19212 1.19169 1.19235 1.19262 1.19195 1.19179 1.19259 1.19217 1.19201 1.19208 1.19178 1.19254 1.19302 1.19302 1.19175 1.19175 1.19178 1.19201 1.19195 1.19251 1.19233 1.19234 1.19178 1.19178 1.19235 1.19178 1.19178 1.19223 1.19196 1.19286 1.19171 1.192 1.19263 1.19307 1.19273 1.19273 1.19253 1.19193 1.19191 1.19273 1.19177 1.1926 1.19235 1.19158 1.19263 1.19214 1.19266 1.19171 1.19226 1.1918 1.19238 1.19302 1.1917 1.19227 1.19193 1.19229 1.19202 1.19231 1.19232 1.19196 1.19178 1.19272 1.19297 1.19259 1.19304 1.19269 1.19306 1.19242 1.19188 1.19243 1.19204 1.19195 1.19258 1.19179 1.19221 1.19177 1.19178 1.1919 1.19178 1.19242 1.19178 1.19226 1.19193 1.19211 1.19178 1.19195 1.1919 1.19168 1.19196 1.19182 1.19201 1.19205 1.19216 1.19255 1.19234 1.19221 1.19217 1.19178 1.19204 1.19178 1.19232 1.19221 1.19178 1.19237 1.1926 1.19195 1.1918 1.19174 1.19248 1.19216 1.19209 1.19192 1.19265 1.19335 1.19206 1.19175 1.19203 1.19247 1.1922 1.19263 1.19234 1.19267 1.1931 1.19234 1.1924 1.19223 1.1931 1.19191 1.19286 1.19195 1.19232 1.19196 1.19323 1.19277 1.19262 1.19252 1.19197 1.19253 1.19184 1.19269 1.19254 1.19323 1.19186 1.19296 1.19251 1.1927 1.19344 1.19213 1.19188 1.19258 1.19168 1.19194 1.19303 1.19208 1.19298 1.19219 1.19156 1.19229 1.19247 1.19178 1.19275 1.19282 1.19257 1.19308 1.1933 1.19299 1.19235 1.19189 1.19228 1.19178 1.19187 1.19254 1.19194 1.19219 1.1922 1.19177 1.1919 1.19163 1.1924 1.19249 1.19224 1.19215 1.19202 1.19175 1.19178 1.19177 1.192 1.19194 1.19189 1.19278 1.19226 1.19211 1.19242 1.19234 1.19254 1.19234 1.19219 1.19208 1.19243 1.192 1.19227 1.19176 1.19218 1.19098 1.19248 1.19245 1.19251 1.19201 1.19165 1.19257 1.1922 1.1924 1.19244 1.1929 1.1935 1.19196 1.19183 1.1922 1.19219 1.19235 1.19178 1.19178 1.19331 1.19178 1.19367 1.19234 1.19307 1.19234 1.19199 1.19288 1.19192 1.19224 1.19213 1.1932 1.19232 1.19237 1.19242 1.1924 1.191 1.1926 1.19305 1.19213 1.19363 1.19268 1.1934 1.19239 1.19264 1.19347 1.19225 1.19242 1.19385 1.19204 1.19318 1.19321 1.192 1.19292 1.19214 1.19224 1.19246 1.19242 1.19288 1.19258 1.19244 1.19242 1.19312 1.19303 1.19261 1.19216 1.19321 1.19211 1.19081 1.19175 1.19262 1.19192 1.19232 1.19238 1.19177 1.1921 1.19178 1.1924 1.19174 1.19232 1.19223 1.19209 1.19181 1.1934 1.19206 1.1918 1.19194 1.1919 1.19236 1.1919 1.19207 1.19237 1.19248 1.19191 1.19243 1.19236 1.19207 1.19226 1.19175 1.19152 1.19204 1.1909 1.19211 1.19317 1.19198 1.19116 1.19291 1.19222 1.19239 1.19249 1.19238 1.19344 1.19195 1.19184 1.19218 1.19225 1.19226 1.19178 1.19175 1.19166 1.19298 1.19329 1.1932 1.19216 1.19165 1.19303 1.19182 1.19242 1.19186 1.19315 1.19196 1.19238 1.19312 1.19277 1.19242 1.19291 1.19227 1.19304 1.19305 1.19168 1.19355 1.19296 1.19266 1.19307 1.19224 1.19295 1.19151 1.19251 1.19238 1.19226 1.19273 1.19155 1.19313 1.19239 1.1923 1.19312 1.19178 1.19241 1.19229 1.19299 1.19299 1.19251 1.19205 1.19317 1.1921 1.19084 1.1919 1.19171 1.19317 1.1926 1.19275 1.19199 1.1922 1.19257 1.19237 1.19197 1.19229 1.19222 1.19209 1.19169 1.19337 1.19207 1.19209 1.19195 1.19243 1.19181 1.19196 1.1919 1.19204 1.19234 1.19228 1.19231 1.19227 1.19207 1.19248 1.19205 1.19185 1.19155 1.19178 1.19184 1.19186 1.19208 1.19239 1.19216 1.19186 1.19253 1.19241 1.19245 1.19354 1.19336 1.19194 1.19186 1.19213 1.19197 1.1915 1.19168 1.19157 1.19115 1.19292 1.1932 1.19231 1.1938 1.19124 1.19203 1.19292 1.19249 1.19257 1.19214 1.19268 1.19306 1.19273 1.19269 1.19104 1.19151 1.19276 1.19178 1.19223 1.19338 1.19375 1.19343 1.19291 1.1923 1.19287 1.19216 1.19292 1.19152 1.19249 1.19178 1.19224 1.19251 1.19153 1.19305 1.19238 1.19101 1.19235 1.19305 1.19206 1.19223 1.19242 1.19288 1.19292 1.19244 1.19206 1.19316 1.19196 1.19089 1.19199 1.19184 1.19133 1.19256 1.19194 1.19171 1.19218 1.19259 1.19243 1.19226 1.19142 1.19196 1.19199 1.19205 1.19287 1.19251 1.19237 1.19192 1.1917 1.19205 1.19198 1.19178 1.19202 1.19219 1.19247 1.19213 1.19252 1.19205 1.19229 1.19136 1.19188 1.1918 1.19183 1.19197 1.1919 1.19161 1.19282 1.19299 1.19362 1.19227 1.19302 1.19353 1.19328 1.19195 1.19209 1.19295 1.19196 1.19085 1.19146 1.19115 1.19178 1.19214 1.19637 1.19302 1.19143 1.19173 1.19162 1.19138 1.19306 1.19233 1.19289 1.19257 1.19208 1.19265 1.19201 1.19272 1.19383 1.19238 1.193 1.19193 1.19314 1.19486 1.1937 1.19329 1.19209 1.19204 1.19261 1.192 1.19275 1.1915 1.19244 1.19119 1.19225 1.19172 1.19232 1.19174 1.19254 1.19105 1.19224 1.19211 1.19178 1.19155 1.19233 1.19271 1.19093 1.19244 1.19235 1.19199 1.19252 1.19274 1.19197 1.19185 1.19189 1.19149 1.19222 1.19125 1.19248 1.1931 1.19253 1.19206 1.19215 1.19203 1.19184 1.19281 1.19201 1.19201 1.19159 1.19235 1.19179 1.19234 1.19113 1.19174 1.19199 1.19209 1.19239 1.19231 1.19216 1.19202 1.19249 1.19214 1.19256 1.19149 1.19339 1.19221 1.19178 1.19163 1.19181 1.19142 1.19173 1.19214 1.19323 1.19201 1.19246 1.19293 1.19346 1.19323 1.19192 1.19354 1.19345 1.19497 1.1913 1.19405 1.19178 1.19137 1.19214 1.19288 1.19319 1.19234 1.19008 1.19178 1.19315 1.19234 1.19155 1.19243 1.192 1.19256 1.19165 1.1938 1.19247 1.19321 1.19269 1.19268 1.19269 1.19393 1.19265 1.19207 1.19198 1.19245 1.19226 1.19219 1.19168 1.19263 1.19223 1.19192 1.19112 1.19275 1.19171 1.19321 1.19184 1.19207 1.19185 1.19193 1.19148 1.19214 1.19255 1.19115 1.1924 1.19136 1.19235 1.1922 1.19178 1.19193 1.19187 1.19166 1.19236 1.19167 1.1909 1.19331 1.19265 1.19203 1.19207 1.19147 1.19149 1.19251 1.19216 1.19227 1.19199 1.19232 1.19162 1.19226 1.1911 1.19174 1.19194 1.19199 1.19243 1.19204 1.19198 1.19247 1.19244 1.19209 1.19314 1.1922 1.19312 1.1918 1.19235 1.19155 1.19221 1.19317 1.19203 1.19178 1.19263 1.19312 1.19301 1.19332 1.19353 1.1935 1.19294 1.19468 1.19297 1.19145 1.19075 1.1925 1.193 1.19222 1.19008 1.19173 1.19339 1.19244 1.19218 1.19228 1.19199 1.19237 1.19197 1.19178 1.19358 1.19238 1.19292 1.19234 1.1922 1.19248 1.19384 1.194 1.19259 1.19178 1.1922 1.19204 1.19168 1.19237 1.19213 1.19069 1.1917 1.19287 1.19112 1.19318 1.19317 1.19222 1.19181 1.19081 1.19143 1.19141 1.19185 1.19245 1.19103 1.19164 1.19299 1.192 1.19132 1.19187 1.19215 1.19227 1.19146 1.19283 1.19231 1.19085 1.19178 1.19263 1.19188 1.19197 1.19146 1.19151 1.19244 1.19212 1.19197 1.19242 1.19194 1.19177 1.19095 1.19182 1.19186 1.19185 1.19177 1.19156 1.19179 1.19217 1.19213 1.19178 1.19179 1.19191 1.1921 1.1926 1.19178 1.19168 1.19422 1.19006 1.19295 1.1931 1.19213 1.19178 1.19207 1.19287 1.19302 1.19195 1.19303 1.19327 1.19349 1.19352 1.19293 1.19212 1.19341 1.19122 1.19106 1.19095 1.19212 1.19287 1.192 1.18877 1.19341 1.19234 1.19261 1.19188 1.1921 1.19244 1.19199 1.19197 1.18843 1.19338 1.19219 1.19252 1.19227 1.19227 1.1924 1.19346 1.19169 1.1922 1.19251 1.19221 1.19152 1.19212 1.19271 1.19203 1.1913 1.19092 1.19185 1.19294 1.19119 1.19113 1.19358 1.19221 1.19175 1.19114 1.19147 1.19105 1.19191 1.19282 1.19368 1.19167 1.19258 1.19185 1.19178 1.19146 1.19214 1.19154 1.19228 1.19145 1.19197 1.19259 1.19208 1.19095 1.19245 1.19182 1.19192 1.19141 1.19129 1.19237 1.19209 1.19191 1.19238 1.19185 1.19176 1.19159 1.19245 1.19156 1.19186 1.19181 1.19228 1.19136 1.19139 1.19183 1.19208 1.19177 1.19185 1.1918 1.19216 1.19273 1.19207 1.19158 1.1942 1.18975 1.19256 1.1929 1.19293 1.19286 1.19367 1.19265 1.19317 1.19337 1.19297 1.19328 1.1932 1.19263 1.19001 1.19342 1.19096 1.18961 1.19085 1.19213 1.19172 1.1914 1.1931 1.18997 1.19137 1.19178 1.19165 1.19178 1.19338 1.19161 1.19021 1.1924 1.19057 1.19373 1.19163 1.19217 1.19223 1.19144 1.19197 1.1921 1.19188 1.19178 1.19091 1.19145 1.19178 1.19254 1.191 1.1919 1.19084 1.19175 1.19277 1.18724 1.19262 1.19416 1.19261 1.19134 1.19143 1.19213 1.19157 1.19117 1.19207 1.19296 1.19379 1.1918 1.19173 1.19175 1.19112 1.19177 1.19233 1.1922 1.1929 1.19192 1.19169 1.19156 1.19202 1.19273 1.19166 1.19131 1.19105 1.19227 1.19204 1.19187 1.19235 1.19188 1.19178 1.19281 1.1928 1.1919 1.19168 1.19225 1.19135 1.19184 1.19187 1.19214 1.19138 1.19147 1.19189 1.1922 1.19266 1.19178 1.19158 1.19529 1.19158 1.19251 1.19365 1.1928 1.19178 1.1945 1.19265 1.19314 1.19324 1.19317 1.19306 1.19293 1.1923 1.19263 1.19339 1.18958 1.19151 1.19151 1.19195 1.19165 1.19216 1.1919 1.19343 1.1911 1.18981 1.19166 1.1917 1.19172 1.19152 1.19078 1.19153 1.19143 1.19217 1.19127 1.19193 1.1922 1.19113 1.19146 1.19193 1.1906 1.19122 1.19165 1.1908 1.192 1.19119 1.19179 1.18988 1.19008 1.19266 1.1929 1.19379 1.19248 1.19289 1.19118 1.19227 1.19214 1.19115 1.19179 1.19288 1.19226 1.19147 1.19165 1.19152 1.19244 1.19137 1.19204 1.19324 1.19067 1.19318 1.19101 1.19138 1.19191 1.19142 1.19248 1.19148 1.19125 1.19099 1.19217 1.19205 1.19188 1.19181 1.19112 1.19171 1.19276 1.19264 1.19205 1.19202 1.19184 1.19189 1.19163 1.19128 1.1917 1.19147 1.1922 1.18957 1.19086 1.19326 1.19359 1.19091 1.19538 1.19306 1.19414 1.19327 1.19244 1.19178 1.19178 1.19409 1.19533 1.19167 1.19471 1.19206 1.19166 1.19299 1.19365 1.19301 1.18967 1.19164 1.19155 1.19214 1.19253 1.19176 1.19149 1.19271 1.19365 1.19093 1.19143 1.19178 1.19178 1.19146 1.19185 1.19162 1.19212 1.19177 1.19116 1.19152 1.19232 1.19105 1.19188 1.19167 1.19154 1.19132 1.19129 1.19074 1.19204 1.19134 1.1918 1.18985 1.19024 1.19257 1.19285 1.19362 1.19245 1.19284 1.19113 1.1919 1.19178 1.1918 1.19178 1.18954 1.1909 1.19163 1.19168 1.19175 1.19161 1.1924 1.19145 1.19205 1.19093 1.19144 1.19244 1.19078 1.19135 1.1914 1.19185 1.19227 1.19178 1.19157 1.19085 1.19051 1.19213 1.19186 1.19102 1.19115 1.19202 1.19303 1.19271 1.19196 1.19245 1.19224 1.19171 1.19165 1.19144 1.19119 1.19232 1.19127 1.19112 1.19254 1.19402 1.1921 1.19002 1.19276 1.19273 1.19438 1.19368 1.19157 1.19329 1.19383 1.19456 1.19301 1.19167 1.19391 1.19196 1.19163 1.19371 1.19653 1.19418 1.18958 1.18991 1.19162 1.19203 1.19276 1.19165 1.19069 1.1929 1.195 1.191 1.19136 1.19138 1.1916 1.19142 1.19184 1.19138 1.19179 1.19206 1.19123 1.19154 1.19158 1.19266 1.1912 1.19179 1.19126 1.19138 1.19119 1.19058 1.19189 1.19217 1.1917 1.18983 1.19048 1.19197 1.19213 1.19272 1.19069 1.19268 1.19114 1.19194 1.19192 1.19193 1.1917 1.18938 1.19045 1.19107 1.1908 1.19185 1.19171 1.19246 1.19177 1.19178 1.19133 1.19151 1.1921 1.19077 1.19139 1.19154 1.19175 1.19219 1.19173 1.19138 1.19103 1.19067 1.19217 1.19186 1.19099 1.19171 1.19177 1.19118 1.19258 1.19193 1.19225 1.19192 1.1927 1.19142 1.19126 1.19116 1.19324 1.19277 1.18824 1.19396 1.19482 1.19356 1.18984 1.19213 1.19167 1.19446 1.19361 1.19157 1.19379 1.19343 1.19498 1.19212 1.19163 1.19326 1.19187 1.19157 1.19441 1.19643 1.1949 1.19414 1.19076 1.1944 1.19291 1.19191 1.19157 1.19244 1.18961 1.19149 1.19155 1.19499 1.19132 1.19075 1.19113 1.19154 1.19135 1.19182 1.19158 1.19157 1.19136 1.1908 1.19145 1.19098 1.1918 1.19139 1.1918 1.19126 1.19135 1.19105 1.19134 1.19057 1.19232 1.19031 1.19131 1.192 1.19221 1.19271 1.19071 1.1925 1.19114 1.19196 1.19255 1.1919 1.19193 1.18956 1.18976 1.1905 1.19173 1.19233 1.19156 1.19153 1.19191 1.19111 1.19182 1.19197 1.19161 1.19148 1.19186 1.19119 1.19186 1.19123 1.19125 1.19187 1.19198 1.19172 1.19103 1.19178 1.1917 1.1911 1.19126 1.19227 1.19209 1.19236 1.19224 1.19306 1.19114 1.1899 1.19437 1.19305 1.19096 1.19175 1.19466 1.19338 1.19204 1.19163 1.19155 1.19421 1.19387 1.1914 1.19385 1.19372 1.1946 1.19275 1.19136 1.19114 1.19321 1.19259 1.19162 1.19441 1.19071 1.19413 1.19348 1.19197 1.19234 1.19178 1.18952 1.19141 1.19178 1.1914 1.19242 1.19055 1.19112 1.19117 1.1913 1.19111 1.19155 1.19167 1.19092 1.19027 1.19105 1.1908 1.19235 1.19121 1.19188 1.1915 1.19112 1.19047 1.19054 1.19136 1.19054 1.19033 1.19256 1.19049 1.19178 1.19119 1.19205 1.19246 1.19071 1.19231 1.19111 1.19188 1.19201 1.19159 1.19199 1.18947 1.19053 1.19031 1.19173 1.19178 1.19147 1.19149 1.19163 1.19098 1.19202 1.19195 1.19168 1.19146 1.19184 1.19122 1.19178 1.19112 1.19182 1.19044 1.19215 1.19176 1.191 1.19204 1.19159 1.1908 1.19108 1.19327 1.19211 1.19235 1.19221 1.19295 1.19108 1.19184 1.19421 1.19178 1.19194 1.19122 1.19411 1.1939 1.19241 1.19227 1.19282 1.19415 1.19359 1.19367 1.19473 1.19291 1.19284 1.19065 1.19398 1.19284 1.19195 1.19397 1.19441 1.19281 1.19365 1.19167 1.19185 1.19317 1.19141 1.19146 1.19131 1.19238 1.19187 1.19039 1.19043 1.18839 1.1909 1.19135 1.19178 1.19167 1.19144 1.19019 1.1908 1.19076 1.19249 1.19112 1.19259 1.19187 1.19122 1.1906 1.1899 1.18981 1.1905 1.19248 1.19035 1.19178 1.19113 1.19199 1.19237 1.19054 1.1917 1.19105 1.1917 1.19182 1.19155 1.19198 1.19111 1.18976 1.19073 1.19025 1.1903 1.18995 1.19146 1.19149 1.19163 1.19095 1.19186 1.19185 1.19197 1.19149 1.19183 1.19125 1.19081 1.19074 1.19101 1.19053 1.19187 1.19179 1.19099 1.19146 1.19163 1.19075 1.19108 1.19322 1.1923 1.19178 1.19106 1.19255 1.19246 1.19326 1.19034 1.19308 1.19595 1.19178 1.19382 1.19386 1.19174 1.19244 1.19613 1.19152 1.19123 1.19293 1.19434 1.19329 1.19267 1.1946 1.19267 1.19287 1.1952 1.19228 1.19274 1.19196 1.19398 1.19437 1.19263 1.19215 1.19187 1.19072 1.19365 1.19298 1.19178 1.19148 1.19458 1.19441 1.19107 1.19099 1.1901 1.19116 1.18973 1.19134 1.19177 1.19178 1.19171 1.19201 1.19095 1.19067 1.19055 1.19148 1.19073 1.19281 1.19105 1.19115 1.19059 1.19123 1.19006 1.19053 1.19234 1.19034 1.19108 1.19077 1.19197 1.19227 1.19107 1.19155 1.19115 1.19178 1.19164 1.19191 1.19177 1.19185 1.19117 1.19067 1.18991 1.18946 1.19027 1.19064 1.19001 1.19109 1.19118 1.19192 1.19092 1.19202 1.19129 1.19176 1.19138 1.19151 1.19128 1.19078 1.1908 1.19091 1.19169 1.19179 1.1919 1.19178 1.19136 1.19158 1.19066 1.19139 1.19419 1.19211 1.19065 1.19096 1.19244 1.19251 1.19249 1.19232 1.19103 1.19442 1.19645 1.19456 1.19368 1.19381 1.19256 1.19299 1.19211 1.19598 1.19409 1.19312 1.19366 1.1948 1.1934 1.1928 1.19495 1.19249 1.19254 1.19202 1.19412 1.1943 1.19248 1.19184 1.19271 1.19422 1.19292 1.19287 1.18937 1.19122 1.19142 1.1909 1.19009 1.19109 1.18965 1.19178 1.19123 1.19305 1.19178 1.19207 1.1913 1.19123 1.19034 1.19194 1.19055 1.19178 1.19092 1.19125 1.19169 1.19116 1.19005 1.19185 1.19145 1.19112 1.19106 1.19065 1.19162 1.19074 1.19093 1.19108 1.19143 1.19178 1.19198 1.19173 1.19186 1.19211 1.19204 1.18949 1.19033 1.19178 1.18995 1.19113 1.19167 1.19193 1.19139 1.19178 1.19193 1.19163 1.19139 1.19154 1.19129 1.19143 1.19135 1.19178 1.19089 1.1918 1.19177 1.19182 1.19068 1.19127 1.19106 1.19159 1.19415 1.19176 1.19039 1.19315 1.19105 1.19241 1.19233 1.19189 1.19178 1.19585 1.19186 1.19416 1.19438 1.19243 1.19592 1.19435 1.19226 1.19187 1.19305 1.19438 1.19265 1.19459 1.19255 1.1934 1.19224 1.1913 1.19365 1.19165 1.19239 1.19347 1.19112 1.19129 1.19186 1.19001 1.19232 1.19095 1.19139 1.19082 1.19032 1.19132 1.18987 1.1918 1.19126 1.19139 1.19179 1.19178 1.1919 1.19122 1.19038 1.19048 1.19274 1.19047 1.1902 1.19093 1.19138 1.191 1.19085 1.19005 1.19031 1.19152 1.1912 1.19073 1.19062 1.19152 1.19178 1.19073 1.19106 1.19157 1.19154 1.19162 1.19155 1.19191 1.19166 1.1897 1.19081 1.19138 1.18994 1.19145 1.19165 1.19133 1.1918 1.19187 1.19163 1.19138 1.19142 1.19178 1.19177 1.19194 1.19183 1.19088 1.19272 1.1929 1.19166 1.19179 1.19234 1.19089 1.19192 1.19183 1.19166 1.19213 1.19119 1.19125 1.19155 1.19042 1.19262 1.19203 1.19258 1.19265 1.19182 1.19324 1.19405 1.19517 1.19641 1.19437 1.19286 1.19155 1.19463 1.19387 1.19181 1.19467 1.19323 1.19192 1.19173 1.19309 1.19324 1.19213 1.19111 1.19366 1.19178 1.19248 1.18885 1.19111 1.19125 1.19167 1.18979 1.19208 1.19198 1.1913 1.19274 1.19061 1.19079 1.19002 1.19138 1.19151 1.1918 1.19133 1.1908 1.191 1.19026 1.1905 1.19178 1.19086 1.19047 1.19178 1.19264 1.19145 1.19179 1.19177 1.19047 1.19277 1.19121 1.19073 1.19205 1.19163 1.1904 1.19071 1.19105 1.19154 1.1918 1.19179 1.19161 1.19154 1.19176 1.19165 1.19166 1.19148 1.19131 1.18986 1.19141 1.19167 1.19136 1.1918 1.19169 1.19137 1.19136 1.19168 1.19185 1.1913 1.1919 1.19198 1.19273 1.19154 1.19169 1.19129 1.19155 1.19214 1.19186 1.19053 1.19189 1.19072 1.19117 1.19004 1.19257 1.19275 1.19197 1.19123 1.19317 1.19372 1.19526 1.1945 1.19502 1.19457 1.19178 1.19207 1.18895 1.19185 1.19484 1.19847 1.19286 1.19199 1.19616 1.19262 1.19329 1.19238 1.19154 1.19385 1.19561 1.19071 1.1944 1.18888 1.19117 1.19174 1.19188 1.19221 1.19213 1.19061 1.19263 1.19051 1.19056 1.19178 1.19146 1.19181 1.19023 1.19148 1.19101 1.19008 1.19129 1.19136 1.1912 1.19022 1.19118 1.19271 1.19168 1.1918 1.19211 1.19123 1.19176 1.19179 1.19161 1.19083 1.19181 1.19152 1.19051 1.19077 1.19097 1.19153 1.19185 1.19175 1.19178 1.19178 1.19176 1.19164 1.19166 1.19146 1.19178 1.18996 1.19148 1.19175 1.19178 1.19178 1.19169 1.19178 1.19132 1.19163 1.1916 1.19121 1.19179 1.19195 1.19192 1.19182 1.19078 1.19178 1.19209 1.19175 1.19151 1.19203 1.19045 1.19175 1.19072 1.19048 1.18997 1.19009 1.19236 1.19143 1.19196 1.19117 1.19311 1.19334 1.19473 1.19343 1.19186 1.19465 1.19368 1.19303 1.1936 1.18974 1.19193 1.19899 1.19679 1.19018 1.19333 1.19092 1.19623 1.19649 1.19212 1.19024 1.19147 1.1918 1.19435 1.19323 1.19036 1.19088 1.19178 1.19013 1.19168 1.19107 1.1915 1.19225 1.19267 1.19115 1.19058 1.19184 1.19169 1.1919 1.19133 1.19178 1.19195 1.19178 1.19118 1.19185 1.19129 1.19132 1.19115 1.19008 1.19105 1.19118 1.19168 1.19155 1.19181 1.19118 1.19161 1.19091 1.19142 1.19107 1.19083 1.19126 1.19091 1.19153 1.19155 1.19169 1.19178 1.19178 1.19176 1.19165 1.19167 1.19178 1.19178 1.19178 1.1915 1.19175 1.19178 1.19178 1.19177 1.19178 1.19133 1.19163 1.19159 1.1918 1.19177 1.19162 1.19145 1.19164 1.19078 1.19163 1.1921 1.19082 1.19066 1.19134 1.19045 1.1898 1.19121 1.19027 1.18996 1.19071 1.18878 1.19099 1.19063 1.1922 1.19082 1.19157 1.19274 1.1919 1.19326 1.19223 1.19518 1.19339 1.19748 1.19467 1.19088 1.1928 1.1976 1.18961 1.19273 1.19497 1.19132 1.19071 1.1908 1.19372 1.18915 1.1934 1.19041 1.19095 1.19077 1.1884 1.19159 1.1913 1.19131 1.19173 1.19108 1.19095 1.19076 1.19187 1.191 1.19189 1.19189 1.19182 1.19204 1.19128 1.19119 1.19182 1.19136 1.19194 1.19122 1.19 1.19104 1.19118 1.19152 1.19178 1.19175 1.19196 1.19126 1.1916 1.19099 1.19014 1.19106 1.19122 1.19092 1.19153 1.19178 1.19169 1.19178 1.19178 1.19176 1.19165 1.19167 1.19178 1.19178 1.19178 1.1915 1.19178 1.19178 1.19178 1.19178 1.19177 1.19133 1.19163 1.19159 1.1917 1.1917 1.1918 1.19183 1.19094 1.19168 1.19135 1.1919 1.19091 1.1908 1.19181 1.1895 1.19121 1.19042 1.19014 1.18755 1.18961 1.19012 1.1904 1.19182 1.1922 1.19738 1.19453 1.18848 1.19404 1.19084 1.19286 1.19738 1.18942 1.19266 1.19289 1.19137 1.19119 1.19107 1.18947 1.19272 1.19167 1.18888 1.18831 1.19298 1.18804 1.19045 1.19127 1.19187 1.19176 1.19176 1.19107 1.19093 1.19091 1.19115 1.19067 1.19123 1.19178 1.19133 1.19191 1.1913 1.19122 1.19113 1.19167 1.19207 1.19065 1.19177 1.19058 1.19127 1.19154 1.19153 1.1911 1.19158 1.19125 1.19166 1.19111 1.19167 1.19002 1.19009 1.19027 1.19114 1.19145 1.1907 1.19138 1.18993 1.19149 1.19268 1.19244 1.19767 1.19361 1.19304 1.19412 1.19394 1.19976 1.19359 1.19439 1.19693 1.19384 1.19138 1.19363 1.19071 1.18981 1.19102 1.19134 1.18967 1.19386 1.18961 1.19315 1.1927 1.19321 1.19043 1.19258 1.19375 1.19178 1.1976 1.19381 1.19768 1.1978 1.19427 1.19305 1.18978 1.18743 1.1871 1.18866 1.1925 1.19073 1.19395 1.19117 1.19385 1.19355 1.19432 1.1915 1.19386 1.19542 1.19272 1.1977 1.19727 1.19597 1.18806 1.19444 1.19189 1.1878 1.19279 1.18873 1.19041 1.19009 1.19252 1.19158 1.19428 1.19281 1.19417 1.19473 1.19243 1.19255 1.19573 1.19243 1.19355 1.19925 1.19695 1.18792 1.19228 1.1959 1.19334 1.18862 1.18751 1.18767 1.1867 1.18941 1.19181 1.19178 1.19178 1.19324 1.19377 1.18955 1.19248 1.19289 1.19221 1.19236 1.19551 1.19546 1.19724 1.19967 1.19129 1.19378 1.18847 1.18908 1.18617 1.18474 1.19379 1.19594 1.19178 1.19178 1.19178 1.193 1.19349 1.19297 1.19155 1.1919 1.20621 1.19591 1.19572 1.19668 1.20184 1.19113 1.1948 1.19357 1.19983 1.18851 1.19209 1.19396 1.19178 1.19178 1.19178 1.19178 1.19178 1.19178 1.19178 1.19178 1.19178 1.19178 1.19178 1.19178 1.19178 1.19178 1.19178 1.19178 1.19178 1.19178 1.19178 1.19178 1.19178 1.19178 1.19178 1.19178 1.19178 1.19178 1.19178 1.19178 1.19178 1.19178 1.19178 1.19192 1.19178 1.19178 1.1933 1.19302 1.1923 1.19296 1.19918 1.20019 1.19125 1.19002 1.19135 1.19616 1.19456 1.20158 1.19119 1.19241 1.19347 1.19728 1.19278 1.19345 1.19121 1.19368 1.19401 1.19178 1.19178 1.19178 1.19178 1.19178 1.19178 1.19178 1.19178 1.19178 1.19178 1.19178 1.19178 1.19178 1.19178 1.19178 1.19178 1.19178 1.19178 1.192 1.19178 1.19178 1.19178 1.19178 1.19193 1.19334 1.19099 1.18899 1.19419 1.19416 1.19539 1.19046 1.1988 1.19939 1.19399 1.19513 1.20219 1.20169 1.19029 1.18896 1.19193 1.19539 1.19368 1.19945 1.19177 1.1968 1.19133 1.19352 1.19211 1.18787 1.19178 1.19178 1.19178 1.19178 1.19178 1.19178 1.19178 1.19178 1.19178 1.19178 1.19178 1.19178 1.19178 1.19178 1.19178 1.19178 1.19178 1.19178 1.19178 1.19178 1.19178 1.19178 1.19178 1.19178 1.19178 1.19178 1.19178 1.19178 1.19178 1.19178 1.19178 1.19178 1.19178 1.19178 1.19178 1.19178 1.19178 1.19178 1.19177 1.19181 1.19205 1.19178 1.19178 1.19178 1.19258 1.19269 1.19597 1.18416 1.20853 1.19217 1.20312 1.18939 1.19596 1.1953 1.19416 1.18957 1.19882 1.19518 1.19322 1.18874 1.18814 1.19182 1.20158 1.19432 1.19056 1.19596 1.19477 1.19278 1.18949 1.19265 1.19278 1.19172 1.19188 1.19178 1.19178 1.19178 1.19178 1.19178 1.19178 1.19178 1.19178 1.19178 1.19178 1.19178 1.19178 1.19178 1.19178 1.19178 1.19178 1.19178 1.19178 1.19178 1.19178 1.19178 1.19178 1.19178 1.19178 1.19178 1.19178 1.19178 1.19178 1.2136 1.19178 1.19178 1.19178 1.19178 1.19178 1.19189 1.19163 1.19172 1.19178 1.19176 1.19178 1.19178 1.19178 1.19199 1.19166 1.18974 1.194 1.2018 1.19316 1.195 1.19282 1.19594 1.18891 1.19862 1.19508 1.19279 1.18922 1.19682 1.18449 1.19264 1.19414 1.19717 1.19281 1.19532 1.21338 1.20253 1.19209 1.19206 1.19178 1.19178 1.19178 1.19178 1.19178 1.19178 1.19178 1.19178 1.19178 1.19178 1.19178 1.19178 1.19178 1.19178 1.19178 1.19178 1.19178 1.19178 1.19178 1.19178 1.19178 1.19178 1.19178 1.19178 1.19178 1.19178 1.19178 1.19178 1.19963 1.20111 1.25857 1.19178 1.19178 1.191 1.1933 1.19231 1.19179 1.19178 1.19178 1.19178 1.19178 1.19104 1.19178 1.19061 1.19087 1.19222 1.2165 1.19492 1.17878 1.19228 1.19522 1.1879 1.19722 1.19429 1.19355 1.19234 1.19178 1.18456 1.1895 1.19705 1.21433 1.18864 1.18021 1.19178 1.19178 1.19178 1.19178 1.19178 1.19178 1.19178 1.19178 1.19178 1.19178 1.19178 1.19178 1.19178 1.19178 1.19178 1.19178 1.19178 1.19178 1.19178 1.19178 1.19178 1.19178 1.19178 1.19174 1.19705 1.19178 1.19178 1.19178 1.19178 1.19178 1.31155 1.19178 1.19178 1.1903 1.172 1.17658 1.19587 1.19178 1.31295 1.19124 1.19176 1.19178 1.19181 1.19176 1.19094 1.19166 1.17768 1.19184 1.19058 1.19178 1.19178 1.19178 1.19178 1.19178 1.19178 1.19178 1.19374 1.17697 1.22034 1.19248 1.19947 1.18736 1.17743 1.18803 1.20343 1.19335 1.19772 1.19484 1.1933 1.21321 1.21279 1.18106 1.18371 1.18671 1.19063 1.19741 1.21369 1.19338 1.18877 1.19178 1.19178 1.19178 1.19178 1.19177 1.19178 1.19178 1.19178 1.19178 1.19178 1.19178 1.19178 1.19178 1.19178 1.19178 1.19178 1.19178 1.19178 1.19178 1.19178 1.19178 1.19178 1.19164 1.20188 1.19088 1.19485 1.19178 1.19178 1.2236 1.43139 1.27499 1.12454 1.35778 1.03996 1.08172 1.06481 1.40479 1.19179 1.19174 1.1893 1.19178 1.19178 1.19178 1.20807 1.19178 1.18989 1.20248 1.20912 1.19135 1.20075 1.1981 1.19339 1.19593 1.18691 1.19303 1.18985 1.19357 1.17523 1.19614 1.20829 1.20297 1.20754 1.1948 1.19578 1.19178 2.67633 1.19178 1.19178 1.19178 2.19158 1.88342 1.1918 1.1877 2.6903 2.32563 0.0281159 0.0996517 0.397882 0.509914 0.424103 1.03828 0.570866 0.380729 0.296692 0.30111 0.12549 0.204236 0.214879 0.441465 0.127018 0.138427 0.206387 0.142844 0.224653 0.110212 0.845479 3.13433 1.49065 0.946777 0.614143 0.465706 0.354124 0.203559 1.01648 1.17737 0.694063 0.489274 0.0354425 0.159944 0.294877 0.384701 0.278719 0.240552 0.277578 0.200643 0.0932524 0.133232 0.200911 0.193122 0.197128 0.271387 0.219761 0.203672 0.124482 0.0723903 0.158613 0.203358 0.230441 0.131985 0.135793 0.16625 1.17703 1.18397 1.21424 1.21844 1.1649 1.16723 1.21263 1.20139 1.19796 1.19686 1.19241 1.18646 1.19254 1.19881 1.20998 1.18333 1.22306 1.20052 1.2097 1.19649 1.22284 1.24443 0.148141 0.352714 0.327668 0.294575 0.474779 1.13783 1.17919 3.89233 1.53109 0.814676 0.479067 0.151994 0.365028 0.323988 0.382129 0.228544 0.189927 0.181773 0.113231 0.488011 0.346111 0.562457 0.0581647 0.190713 0.304295 0.251609 0.531091 1.83952 3.41869 1.17525 3.10001 1.55216 0.363094 0.0478171 0.156343 0.10707 0.2517 0.0976728 0.235115 0.583334 0.377308 0.726237 1.14497 0.589984 0.808425 0.237821 0.354581 0.134168 0.244395 0.108188 0.330747 0.93686 1.3088 1.11438 1.15115 1.49292 0.122828 1.44662 0.179168 0.154811 0.061645 0.16752 0.341057 0.247262 0.447557 0.856559 0.35864 0.654877 0.591362 0.290407 0.635852 0.449783 0.626748 0.69479 0.59364 0.243288 0.227521 0.180265 0.0522137 0.0876149 0.200612 0.245621 0.227846 0.07507 0.0839273 0.320522 0.232517 0.579596 0.858401 1.39773 1.11016 0.0536957 0.76954 1.47074 0.869249 0.541947 0.564082 0.319174 0.308911 0.643191 0.855121 0.657269 0.559503 0.492926 0.239131 0.392233 0.422837 0.451165 0.781588 0.0352038 0.395568 0.148981 0.240365 0.123645 0.304759 0.246871 0.223217 0.233992 0.168052 0.216786 0.296895 0.2641 0.200038 0.235164 0.321963 0.228798 0.272962 0.208632 0.154953 0.128668 0.149158 0.2388 0.139179 0.0693614 0.267093 0.175808 0.109657 0.146752 0.174081 0.223338 0.0807848 0.0281599 0.152166 0.19197 0.386872 0.378777 0.257611 0.172274 1.18938 1.28 1.19472 1.20641 1.1786 1.19081 1.20856 1.21 1.19371 1.19023 1.19032 1.2004 1.21919 1.19436 1.20044 1.23901 1.2847 0.232759 0.150932 0.364109 0.491462 0.538403 0.359393 0.52384 0.548084 0.437537 0.948366 1.71767 0.918755 0.495298 1.0596 0.369854 0.365131 0.308819 0.190772 0.194699 0.059954 0.287118 0.253397 0.29453 0.159167 0.0868125 0.0694273 0.229862 0.116032 0.19219 0.157376 0.648681 0.460484 0.481166 0.441426 0.253588 0.486456 0.645354 1.07496 0.849852 0.624987 1.22814 1.04093 1.27068 0.605605 0.734582 0.95356 0.365909 0.411317 0.368469 0.18681 0.207001 0.221205 0.263324 0.173133 0.227655 0.529797 0.140401 0.971964 0.425262 0.341822 0.703823 0.931233 0.615141 0.991613 0.230614 0.660453 0.38909 0.293869 0.228501 0.444383 0.638394 0.322971 0.683001 1.149 0.52822 0.536373 0.353124 0.912398 1.23864 1.41699 0.444812 1.13199 1.14279 0.555219 0.197089 0.239189 0.209048 0.359162 0.269749 0.479203 0.37521 0.497952 0.442213 0.279824 0.424022 0.170718 0.353107 0.310602 0.733914 0.588276 0.439802 0.545425 0.09622 0.30012 0.578097 0.593802 0.123324 0.17881 0.23451 0.501778 0.578343 0.301304 0.885603 0.279717 0.769243 0.686994 0.433368 0.325252 0.465261 0.518674 0.642968 0.233076 0.330447 0.35256 0.401208 0.318532 0.655035 0.390551 0.114644 0.0802192 0.134288 0.248211 0.212189 0.196059 0.372828 0.287695 0.174469 0.292856 0.202521 0.167662 0.0961396 0.166686 0.219654 0.049883 0.131717 0.102238 0.100434 0.137746 0.0838896 0.133818 0.0262613 0.0913029 0.404868 0.542203 0.13767 0.401018 1.37179 0.977082 1.14143 1.23139 1.161 1.29122 1.18718 1.18306 1.19556 1.19325 1.18849 1.21836 1.19757 1.19271 1.20228 1.21431 1.21889 1.24043 0.131706 0.2455 0.293317 0.388711 0.27124 0.312471 0.174306 0.333829 0.375263 0.134271 0.380536 0.46867 0.512429 0.3119 0.28589 0.248453 0.258528 0.203609 0.420888 0.328434 0.289291 0.161902 0.29962 0.226468 0.313886 0.302765 0.267717 0.447227 0.212392 0.58568 0.899833 0.704166 0.495527 0.582156 0.52068 0.329404 0.223472 0.214786 0.270511 0.243233 0.120759 0.767637 0.851997 0.701068 0.247467 0.696827 0.261987 0.567195 0.25101 0.206878 0.542807 0.792067 0.46953 0.555742 1.00714 0.476378 0.696277 0.763426 0.457055 0.358621 0.342705 0.294828 0.354191 0.371453 0.339663 0.407059 0.345353 0.407645 0.453373 0.344936 0.328697 0.48738 0.523585 0.519987 0.526328 0.477575 0.42623 0.225139 0.237732 0.491539 0.270015 0.384872 0.501959 0.59564 0.461322 0.417649 0.448827 0.345039 0.384454 0.381436 0.398505 0.494902 0.366616 0.304247 0.469938 0.466205 0.301528 0.455033 0.342324 0.214194 0.105062 0.28314 0.220631 0.308157 0.316848 0.37773 0.413095 0.416548 0.31616 0.32826 0.187482 0.244459 0.204404 0.173633 0.124103 0.187516 0.139919 0.0399407 0.0533911 0.105347 0.110034 0.126015 0.0920362 0.158233 0.174948 0.231147 0.263506 0.377785 0.527402 1.09955 1.08094 1.21792 1.12888 1.21347 1.1882 1.16005 1.17637 1.18716 1.18089 1.17365 1.19444 1.19401 1.18222 1.19491 1.18245 1.20451 1.23074 1.16053 1.19556 1.12307 1.1929 1.19178 1.34581 0.233605 0.299266 0.357098 0.277885 0.251748 0.110175 0.0577877 0.148658 0.33584 0.181454 0.184479 0.197582 0.313346 0.336466 0.347004 0.338746 0.220528 0.32158 0.294358 0.342414 0.307786 0.326683 0.338945 0.264464 0.316614 0.330029 0.331207 0.248874 0.10299 0.547562 0.323388 0.438043 0.254578 0.363665 0.291777 0.330936 0.365659 0.328542 0.330251 0.261113 0.26146 0.271773 0.348946 0.289236 0.253411 0.387409 0.18988 0.373684 0.833924 0.519865 0.326067 0.150116 0.0900526 0.315618 0.400783 0.375411 0.275851 0.204967 0.18336 0.315137 0.650407 0.568953 0.473459 0.521009 0.480934 0.43424 0.636491 0.559496 0.43607 0.301156 0.412672 0.356394 0.382495 0.394808 0.415236 0.414746 0.41453 0.421176 0.393694 0.360485 0.418757 0.458116 0.448347 0.46194 0.411019 0.378376 0.424269 0.39971 0.495671 0.420858 0.374326 0.493979 0.444332 0.461164 0.410851 0.423223 0.357188 0.383269 0.354716 0.342618 0.394249 0.447121 0.451042 0.449358 0.386613 0.427143 0.489738 0.456933 0.412319 0.095431 0.450163 0.578776 0.338685 0.416904 0.40284 0.392531 0.33018 0.320525 0.274431 0.197045 0.198318 0.199377 0.135943 0.131929 0.129098 0.185556 0.209013 0.232127 0.298211 0.33555 0.296911 0.45195 1.19178 1.15754 1.16104 1.2322 1.16068 1.17529 1.17032 1.18587 1.18225 1.1752 1.19482 1.18611 1.19039 1.21153 1.1936 1.19676 1.18207 1.12661 1.20247 1.13664 1.22206 1.19178 0.386252 0.340543 0.384797 0.339765 0.36921 0.326162 0.320358 0.364473 0.224206 0.232909 0.276827 0.360534 0.37611 0.385314 0.35898 0.38581 0.307485 0.33001 0.351756 0.363206 0.347844 0.350799 0.365135 0.36488 0.314451 0.356509 0.336316 0.358329 0.304758 0.283017 0.300125 0.291407 0.307661 0.309713 0.346382 0.352624 0.325293 0.29252 0.32665 0.297331 0.311388 0.294517 0.295762 0.300359 0.274938 0.428426 0.27523 0.422703 0.330425 0.350031 0.304279 0.204928 0.30418 0.296238 0.358842 0.430191 0.272845 0.493731 0.440882 0.510544 0.40098 0.451468 0.428427 0.373599 0.427618 0.4131 0.30844 0.291876 0.362382 0.333732 0.376762 0.416944 0.427322 0.444344 0.452836 0.462858 0.469817 0.472337 0.558779 0.497732 0.353251 0.371774 0.382358 0.447207 0.583611 0.693188 0.542618 0.489784 0.353636 0.32844 0.407964 0.549543 0.505208 0.430253 0.412315 0.440294 0.418461 0.453848 0.415317 0.414879 0.715847 0.44001 0.459194 0.419112 0.397386 0.398588 0.296036 0.362978 0.277644 0.201517 0.198978 0.230634 0.27 0.268982 0.195058 0.236229 0.275725 0.244609 0.311645 0.342897 0.32881 0.357597 0.345436 0.348929 1.19178 1.23575 1.20076 1.22785 1.14 1.16555 1.1682 1.17104 1.18091 1.17327 1.17259 1.19026 1.19172 1.19095 1.23427 1.17138 1.18962 1.19294 1.19149 1.20471 1.12503 1.12958 1.19619 1.19178 0.383056 0.355448 0.379588 0.364988 0.327862 0.368321 0.310078 0.305955 0.327384 0.375897 0.402691 0.383947 0.383824 0.347749 0.382525 0.378595 0.374125 0.401577 0.379959 0.360578 0.373102 0.3834 0.389252 0.351319 0.369986 0.373326 0.342639 0.329616 0.330094 0.335124 0.351574 0.373172 0.364857 0.342514 0.328973 0.321531 0.312072 0.294978 0.295232 0.308335 0.307335 0.35957 0.359096 0.3343 0.330225 0.356268 0.354655 0.326001 0.359078 0.341917 0.395081 0.382281 0.392214 0.39877 0.39644 0.414766 0.405997 0.411562 0.307635 0.346443 0.351897 0.392147 0.372371 0.427216 0.407837 0.437314 0.439195 0.463684 0.470992 0.557631 0.500635 0.493731 0.480092 0.493793 0.489401 0.472457 0.347282 0.36704 0.391898 0.385403 0.775965 0.352385 0.266531 0.288948 0.296179 0.534059 0.203589 0.363031 0.360955 0.490509 0.439543 0.437142 0.4281 0.426256 0.439067 0.446899 0.56653 0.47943 0.469897 0.456218 0.474071 0.449093 0.315649 0.428483 0.206397 0.275487 0.297296 0.287 0.267319 0.313041 0.315227 0.338316 0.365722 0.369493 0.353545 0.358318 0.335621 0.308902 1.1924 1.15484 1.16566 1.1616 1.19178 1.1409 1.14519 1.16504 1.17274 1.18201 1.18203 1.17128 1.17514 1.18838 1.18528 1.2317 1.21328 1.1684 1.16504 1.16501 1.17352 0.395014 0.373644 0.379616 0.389989 0.383852 0.395994 0.383233 0.361339 0.351519 0.385384 0.350072 0.377409 0.385338 0.406519 0.428643 0.404333 0.429772 0.43276 0.399434 0.401368 0.421987 0.403497 0.415812 0.428148 0.38204 0.393967 0.384467 0.392878 0.38494 0.388239 0.381796 0.358725 0.375756 0.380745 0.354319 0.375445 0.365765 0.370281 0.354507 0.336433 0.31742 0.326046 0.321797 0.304603 0.309488 0.314921 0.334449 0.318 0.351623 0.340278 0.348405 0.348445 0.350602 0.359493 0.352051 0.346459 0.36104 0.368089 0.365695 0.391216 0.399556 0.409436 0.404703 0.415095 0.420952 0.423222 0.413158 0.30936 0.352295 0.383584 0.402666 0.423436 0.431181 0.449481 0.460698 0.46723 0.485561 0.458129 0.385272 0.40871 0.658962 0.259093 0.308518 0.315417 0.384079 0.501864 0.433871 0.404153 0.440192 0.434616 0.442311 0.441833 0.441055 0.450026 0.44403 0.501454 0.478976 0.482698 0.461991 0.457925 0.436778 0.441958 0.650986 0.376107 0.331199 0.32205 0.272359 0.255812 0.30558 0.348593 0.349957 0.369821 0.381192 0.37894 0.35856 0.34743 1.19275 1.13817 1.16686 1.18952 1.19426 1.16871 1.17802 1.18587 1.19625 1.16854 1.19464 1.19178 1.17534 1.19994 1.16379 1.19243 1.14885 1.15511 1.14895 0.401569 0.392365 0.396726 0.398789 0.397767 0.405515 0.374739 0.408171 0.442862 0.442748 0.441132 0.458536 0.452234 0.442619 0.443478 0.4292 0.41586 0.390402 0.405715 0.384207 0.390604 0.388378 0.380621 0.39674 0.397528 0.401405 0.39727 0.417605 0.397065 0.373089 0.362368 0.345411 0.350605 0.333923 0.329637 0.325939 0.327298 0.328238 0.321103 0.326859 0.348609 0.369016 0.346098 0.344975 0.348119 0.368319 0.37922 0.403981 0.40792 0.417475 0.420837 0.424179 0.423224 0.420865 0.423236 0.367207 0.383281 0.399726 0.423251 0.439895 0.448257 0.454934 0.45663 0.462699 0.463929 0.464763 0.432228 0.424057 0.406146 0.476008 0.472057 0.625373 0.257708 0.351247 0.383121 0.397339 0.459663 0.442765 0.459381 0.428649 0.421302 0.438647 0.459378 0.442124 0.453054 0.473612 0.485509 0.478145 0.48224 0.49341 0.46762 0.474525 0.50832 0.553943 0.366503 0.320993 0.294008 0.350453 0.384636 0.396491 0.371057 0.367043 0.385395 1.19178 1.16299 1.17391 1.19174 1.19178 1.17282 1.18303 1.19179 1.19563 1.16986 1.17743 1.19716 1.17649 1.17856 1.18605 1.18604 1.19392 1.1713 1.1947 1.15401 1.14718 1.16639 0.419062 0.414067 0.407519 0.401172 0.415594 0.408518 0.428697 0.425664 0.533375 0.485192 0.448428 0.455196 0.480716 0.466888 0.450516 0.421779 0.412162 0.386584 0.392984 0.373861 0.408604 0.408863 0.41247 0.425046 0.382482 0.424671 0.378932 0.391793 0.380111 0.357721 0.349703 0.340305 0.341532 0.338138 0.341852 0.33516 0.349406 0.3479 0.346431 0.377567 0.435622 0.360321 0.345176 0.355744 0.344635 0.369861 0.378411 0.382582 0.405444 0.412481 0.413693 0.418728 0.423782 0.417687 0.347328 0.393103 0.367947 0.34286 0.385518 0.390006 0.424724 0.44479 0.441085 0.443358 0.447395 0.458633 0.462388 0.466955 0.447507 0.459225 0.428273 0.438814 0.43158 0.446725 0.458601 0.504056 0.550963 0.401549 0.679806 0.429321 0.36707 0.383162 0.437271 0.465247 0.480084 0.374618 0.439521 0.438773 0.450069 0.454578 0.472033 0.446772 0.471674 0.472428 0.472809 0.48448 0.488906 0.494519 0.498001 0.497434 0.519361 0.5173 0.505268 0.544283 0.517671 0.524828 0.328638 0.373264 0.407135 0.435051 0.370055 0.381204 0.399777 0.412311 0.388977 0.396552 1.19178 1.18267 1.19146 1.19178 1.19238 1.17943 1.1831 1.19013 1.19567 1.17919 1.18316 1.18627 1.18279 1.16906 1.18505 1.19174 1.14926 1.14209 1.14543 1.14225 0.431897 0.425068 0.420112 0.44023 0.426835 0.425835 0.400134 0.45693 0.487852 0.496199 0.483922 0.475897 0.484624 0.501636 0.4761 0.463777 0.42968 0.426868 0.408588 0.373919 0.420436 0.418377 0.416672 0.436733 0.439979 0.440153 0.43487 0.379135 0.358303 0.338178 0.341854 0.347837 0.343903 0.339614 0.358051 0.350053 0.378587 0.396647 0.36544 0.37318 0.386122 0.353703 0.390094 0.368108 0.373342 0.388904 0.403829 0.409367 0.40965 0.414924 0.412426 0.421205 0.419797 0.423168 0.41195 0.40021 0.392268 0.433024 0.372137 0.367695 0.393107 0.448219 0.44781 0.450566 0.453451 0.460554 0.465426 0.465678 0.466991 0.454739 0.471541 0.48131 0.487041 0.442314 0.352802 0.477776 0.454083 0.417151 0.441992 0.447375 0.467724 0.469952 0.456596 0.469103 0.476093 0.489639 0.499357 0.506523 0.521741 0.522396 0.561098 0.52825 0.510426 0.471749 0.379199 0.374893 0.39319 0.380372 0.365024 0.445228 0.411117 0.4082 0.404696 0.41115 0.398801 1.18817 1.1841 1.19086 1.19178 1.19185 1.1826 1.18184 1.18422 1.19016 1.18522 1.19178 1.19178 1.19178 1.1734 1.19499 1.14211 1.15929 1.15366 1.14435 0.444447 0.442205 0.439003 0.427064 0.479896 0.4981 0.51127 0.493695 0.493847 0.494616 0.504033 0.48353 0.430582 0.468671 0.436468 0.435823 0.425909 0.460825 0.385189 0.426861 0.427017 0.455648 0.463187 0.445942 0.37851 0.337675 0.311317 0.366644 0.339624 0.368886 0.387827 0.39732 0.39333 0.393424 0.408822 0.399674 0.372159 0.384505 0.403844 0.418492 0.415439 0.420326 0.419089 0.41827 0.413614 0.409298 0.412295 0.4399 0.365328 0.394998 0.439613 0.430072 0.460478 0.466073 0.461858 0.461182 0.467608 0.466447 0.473655 0.469687 0.488282 0.490569 0.459049 0.467627 0.478882 0.483441 0.498832 0.379402 0.474754 0.478257 0.444098 0.432504 0.432171 0.447795 0.458794 0.470596 0.467221 0.468211 0.477761 0.456356 0.499013 0.498805 0.523773 0.516288 0.538961 0.539815 0.457119 0.535573 0.528058 0.423666 0.395998 0.344529 0.477754 0.399662 0.40143 0.433378 0.411141 1.18535 1.18061 1.17332 1.186 1.16945 1.19061 1.14311 0.453379 0.463563 0.455255 0.44734 0.438588 0.442071 0.524158 0.504314 0.504686 0.508283 0.506318 0.513281 0.502722 0.477229 0.462617 0.435552 0.445489 0.456126 0.472984 0.450979 0.430098 0.498841 0.426598 0.48937 0.494146 0.3526 0.36726 0.35993 0.381763 0.400971 0.39059 0.392713 0.399876 0.399074 0.412807 0.394336 0.399972 0.37337 0.380453 0.398275 0.415285 0.424859 0.437483 0.421983 0.414795 0.408931 0.405822 0.408629 0.434557 0.45616 0.452462 0.389274 0.448667 0.483375 0.450689 0.46339 0.475834 0.476766 0.489853 0.478655 0.465347 0.45573 0.481097 0.490884 0.486574 0.477082 0.454673 0.432613 0.438987 0.441414 0.457008 0.465344 0.480994 0.466719 0.50226 0.490646 0.464953 0.500303 0.552546 0.576275 0.548398 0.398203 0.506741 0.460062 0.308683 0.419968 0.284826 0.497741 0.474734 0.479642 0.410212 0.412921 0.4699 0.463868 0.457818 0.444879 0.437941 0.571012 0.533428 0.497386 0.503775 0.514332 0.514076 0.519319 0.511647 0.473715 0.444375 0.470778 0.460564 0.453908 0.395854 0.417479 0.503345 0.498473 0.413495 0.359521 0.379759 0.39376 0.400202 0.402223 0.402205 0.399364 0.396114 0.403747 0.371427 0.391691 0.398134 0.408771 0.423383 0.439023 0.414724 0.407663 0.416642 0.408079 0.404645 0.402627 0.447597 0.446891 0.399738 0.510128 0.360247 0.467982 0.472161 0.481032 0.474766 0.486543 0.4665 0.463321 0.488254 0.511987 0.491976 0.48452 0.461295 0.443263 0.453392 0.445203 0.457974 0.465304 0.473291 0.49351 0.503303 0.487244 0.474601 0.453186 0.536496 0.532224 0.619996 0.583655 0.212019 0.611426 0.440462 0.542933 0.435925 0.489568 0.502216 0.497933 0.480161 0.496107 0.412074 0.471557 0.470248 0.464541 0.451556 0.436307 0.444763 0.57788 0.504014 0.517038 0.499331 0.514968 0.513923 0.523179 0.522638 0.515626 0.496665 0.455161 0.535175 0.479087 0.462278 0.471342 0.393233 0.419752 0.592077 0.511296 0.467491 0.397931 0.392836 0.395465 0.40078 0.404958 0.399799 0.398504 0.419933 0.364092 0.422338 0.417385 0.43152 0.395887 0.405758 0.401342 0.455326 0.414358 0.496997 0.49685 0.471776 0.548149 0.551684 0.360421 0.540788 0.462143 0.458032 0.451008 0.462807 0.471453 0.486142 0.498998 0.496062 0.549589 0.639308 0.567574 0.612865 0.489551 0.486282 0.471869 0.460852 0.515764 0.452858 0.57003 0.533346 0.534613 0.510872 0.529143 0.505255 0.666332 0.447579 0.495952 0.491656 0.47853 0.448904 0.411427 0.474494 0.584527 0.445676 0.430281 0.365643 0.41398 0.405532 0.396416 0.414592 0.406617 0.347727 0.492616 0.401811 0.414792 0.40185 0.402925 
SCALARS Stress float 1
LOOKUP_TABLE default
-12751500000.0 -12677300000.0 -12647100000.0 -12857400000.0 -12549700000.0 -12980800000.0 -12850000000.0 -12829900000.0 -12587100000.0 -12640400000.0 -12549700000.0 -12620400000.0 -12549700000.0 -12549700000.0 -12636400000.0 -12549700000.0 -12549700000.0 -12564800000.0 -12549700000.0 -12563800000.0 -12595100000.0 -12755900000.0 -12851100000.0 -12726600000.0 -12669300000.0 -12628400000.0 -12592200000.0 -12559500000.0 -12549700000.0 -12549700000.0 -12549700000.0 -12587500000.0 -12614200000.0 -12678300000.0 -12761900000.0 -12683200000.0 -12687900000.0 -12595800000.0 -12549700000.0 -12621400000.0 -12610500000.0 -12556900000.0 -12694400000.0 -12555000000.0 -12561200000.0 -12660200000.0 -12982500000.0 -12944900000.0 -12806900000.0 -12878900000.0 -12598900000.0 -12696500000.0 -12588000000.0 -12873800000.0 -12832000000.0 -12572100000.0 -12567200000.0 -12603100000.0 -12630100000.0 -12909300000.0 -12587900000.0 -12561700000.0 -12712900000.0 -12582300000.0 -12580300000.0 -12574400000.0 -12573300000.0 -12802800000.0 -12738100000.0 -13024500000.0 -12732100000.0 -13265500000.0 -13596600000.0 -13445500000.0 -13687100000.0 -13574300000.0 -13481100000.0 -13474200000.0 -13154200000.0 -12701900000.0 -12613400000.0 -12549700000.0 -12727800000.0 -12574000000.0 -12802400000.0 -12549700000.0 -12634500000.0 -12613200000.0 -12766600000.0 -12843100000.0 -13762800000.0 -13619200000.0 -13626600000.0 -13106300000.0 -13377400000.0 -12562400000.0 -12786000000.0 -12607400000.0 -14506900000.0 -14033200000.0 -14665500000.0 -15333500000.0 -15843300000.0 -15976200000.0 -15103900000.0 -12999300000.0 -12836700000.0 -12852300000.0 -12549700000.0 -12801300000.0 -12563200000.0 -12549700000.0 -12871800000.0 -12549700000.0 -12549700000.0 -12631000000.0 -12549700000.0 -12707400000.0 -12549700000.0 -13312200000.0 -12549700000.0 -12549700000.0 -12549700000.0 -12574500000.0 -12554000000.0 -12549700000.0 -12558400000.0 -12604300000.0 -12749700000.0 -12836800000.0 -13127100000.0 -13261200000.0 -13347400000.0 -13305100000.0 -13102700000.0 -12988800000.0 -12711300000.0 -12849800000.0 -12857000000.0 -12917200000.0 -12831200000.0 -12642200000.0 -12823700000.0 -13546300000.0 -12655100000.0 -13014600000.0 -13101600000.0 -12975300000.0 -12859400000.0 -12917500000.0 -12549700000.0 -13086100000.0 -12852600000.0 -13631900000.0 -12565500000.0 -12552300000.0 -12549700000.0 -12670900000.0 -12744000000.0 -13518400000.0 -12651100000.0 -12760700000.0 -12549700000.0 -12549700000.0 -12899200000.0 -12549700000.0 -12549700000.0 -12677200000.0 -12898600000.0 -12691400000.0 -12566900000.0 -13563000000.0 -13838300000.0 -14072600000.0 -13595000000.0 -14837300000.0 -12639000000.0 -12770500000.0 -12668600000.0 -15262800000.0 -12568300000.0 -13353400000.0 -13210600000.0 -12965200000.0 -13302000000.0 -12789900000.0 -13423800000.0 -12569100000.0 -12853600000.0 -12573600000.0 -13276400000.0 -15936700000.0 -13805400000.0 -13602400000.0 -13559500000.0 -14438500000.0 -14700200000.0 -14976200000.0 -15209600000.0 -13118500000.0 -12549700000.0 -16465300000.0 -15183300000.0 -15457500000.0 -14968000000.0 -15388800000.0 -12660300000.0 -15235000000.0 -13481000000.0 -13929900000.0 -13424900000.0 -13564400000.0 -13141300000.0 -12638100000.0 -13227500000.0 -12551300000.0 -12560700000.0 -12726700000.0 -12549700000.0 -13027400000.0 -12549700000.0 -13543300000.0 -12576200000.0 -12620500000.0 -12549700000.0 -12705000000.0 -12743200000.0 -12710700000.0 -12781400000.0 -12904900000.0 -13200800000.0 -13156600000.0 -13827400000.0 -14580900000.0 -13315600000.0 -13559100000.0 -13441000000.0 -13040600000.0 -13534100000.0 -12559200000.0 -12612300000.0 -13456100000.0 -12549700000.0 -12977800000.0 -13984800000.0 -12714500000.0 -12734200000.0 -12597000000.0 -14059600000.0 -13540400000.0 -12999100000.0 -12645400000.0 -13544900000.0 -15380200000.0 -13311800000.0 -13165600000.0 -13064900000.0 -13664100000.0 -13973600000.0 -16500200000.0 -15342800000.0 -15526600000.0 -14192600000.0 -13781600000.0 -14234200000.0 -14523400000.0 -14566900000.0 -14064700000.0 -14475400000.0 -13885000000.0 -13958000000.0 -13280300000.0 -14572200000.0 -18545800000.0 -20257100000.0 -13295800000.0 -13010000000.0 -13215800000.0 -12990800000.0 -18894100000.0 -16633800000.0 -16656800000.0 -14571800000.0 -14954800000.0 -15276600000.0 -15126800000.0 -14122100000.0 -14053500000.0 -13605400000.0 -16098300000.0 -12618300000.0 -13142000000.0 -12695100000.0 -13634500000.0 -12839500000.0 -14455100000.0 -14268200000.0 -14209600000.0 -15431400000.0 -12549700000.0 -17358400000.0 -12893700000.0 -14497500000.0 -17076000000.0 -13410400000.0 -15910100000.0 -16110900000.0 -12966500000.0 -13853300000.0 -12549700000.0 -13113200000.0 -13507400000.0 -13176600000.0 -13410800000.0 -13325700000.0 -12944000000.0 -13152400000.0 -12921600000.0 -13914600000.0 -13244400000.0 -14232300000.0 -12832800000.0 -12821500000.0 -12731900000.0 -12549700000.0 -12567600000.0 -12745400000.0 -12629300000.0 -12571600000.0 -12905000000.0 -13475800000.0 -13728000000.0 -13589900000.0 -13170900000.0 -16274000000.0 -15946800000.0 -14579600000.0 -16331200000.0 -15677200000.0 -15744900000.0 -16619000000.0 -16629800000.0 -15125600000.0 -14505400000.0 -14101300000.0 -16212200000.0 -13050900000.0 -12829700000.0 -12647000000.0 -14116300000.0 -12642200000.0 -14286100000.0 -12846200000.0 -14966400000.0 -18296200000.0 -13280600000.0 -13112200000.0 -13499400000.0 -13082600000.0 -16484700000.0 -12549700000.0 -12549700000.0 -14655400000.0 -12549700000.0 -14567900000.0 -15768600000.0 -14873500000.0 -14753700000.0 -13980000000.0 -18114900000.0 -18030400000.0 -15117300000.0 -17500400000.0 -19173100000.0 -13294600000.0 -16421800000.0 -21516000000.0 -20667600000.0 -19910400000.0 -21574800000.0 -12822900000.0 -12603400000.0 -17350900000.0 -16864400000.0 -18003700000.0 -16210600000.0 -17669900000.0 -14044600000.0 -13989500000.0 -13610700000.0 -16452500000.0 -13832600000.0 -15501300000.0 -16338100000.0 -16886900000.0 -18617200000.0 -13928400000.0 -12794100000.0 -12764900000.0 -15170400000.0 -12670600000.0 -20581900000.0 -13270900000.0 -15801700000.0 -19256100000.0 -15038400000.0 -13362500000.0 -16343100000.0 -14974600000.0 -14843000000.0 -13139700000.0 -13087600000.0 -14063200000.0 -13627300000.0 -13244100000.0 -13611700000.0 -12793300000.0 -12943400000.0 -12549700000.0 -13726500000.0 -12620000000.0 -14264300000.0 -14013700000.0 -13513000000.0 -13155000000.0 -13322900000.0 -13170600000.0 -12882900000.0 -13060300000.0 -12724000000.0 -14837800000.0 -14158200000.0 -13418500000.0 -12921800000.0 -16861000000.0 -17963700000.0 -12996200000.0 -14713700000.0 -13240400000.0 -13078900000.0 -13225200000.0 -15341200000.0 -13031000000.0 -14091400000.0 -15847200000.0 -19734000000.0 -13514000000.0 -13346300000.0 -15295400000.0 -13010200000.0 -15838800000.0 -15295800000.0 -13017300000.0 -19493700000.0 -14185200000.0 -13727500000.0 -14715500000.0 -13351000000.0 -18502900000.0 -12549700000.0 -12619700000.0 -12839400000.0 -15557900000.0 -18750200000.0 -12940600000.0 -12683400000.0 -16777200000.0 -16416600000.0 -12863300000.0 -13976100000.0 -19069700000.0 -17270900000.0 -15744400000.0 -18473800000.0 -19009000000.0 -12859100000.0 -15486800000.0 -19048000000.0 -23059100000.0 -21887900000.0 -12790300000.0 -12573800000.0 -16516200000.0 -12682100000.0 -16671600000.0 -21176700000.0 -20365200000.0 -21308600000.0 -16710600000.0 -17885700000.0 -16197500000.0 -12844300000.0 -13593100000.0 -12640200000.0 -18252300000.0 -16023700000.0 -14965200000.0 -18965300000.0 -12549700000.0 -18260000000.0 -13754200000.0 -21077300000.0 -15757800000.0 -16416800000.0 -16869800000.0 -16715800000.0 -15211600000.0 -14178200000.0 -14867500000.0 -12865000000.0 -12806400000.0 -14522500000.0 -16357600000.0 -16263000000.0 -16232500000.0 -15753400000.0 -16311700000.0 -15172300000.0 -17977300000.0 -16417900000.0 -16480600000.0 -17014200000.0 -17976000000.0 -15443400000.0 -15213100000.0 -15254300000.0 -15763600000.0 -12560600000.0 -12757100000.0 -13708600000.0 -12626700000.0 -22620100000.0 -19900800000.0 -13338100000.0 -12888400000.0 -13991300000.0 -15026400000.0 -14601700000.0 -12598500000.0 -12899800000.0 -12549700000.0 -15726600000.0 -15149900000.0 -13332600000.0 -19082200000.0 -19918900000.0 -19630600000.0 -20127100000.0 -24464400000.0 -17227400000.0 -16519500000.0 -21395500000.0 -14954600000.0 -14522800000.0 -18044600000.0 -17647700000.0 -13267700000.0 -16114900000.0 -17724000000.0 -19044500000.0 -20355000000.0 -27020600000.0 -20170700000.0 -20748500000.0 -15571000000.0 -15457200000.0 -17677700000.0 -15256200000.0 -17369800000.0 -18188800000.0 -14229800000.0 -19765100000.0 -13270300000.0 -18223700000.0 -17925000000.0 -13723400000.0 -15566100000.0 -12550200000.0 -16245500000.0 -21548300000.0 -18854100000.0 -25390900000.0 -18132900000.0 -13900600000.0 -16075800000.0 -19827200000.0 -19679600000.0 -15864800000.0 -16311700000.0 -12549700000.0 -14393100000.0 -14333400000.0 -13813700000.0 -20600800000.0 -17180000000.0 -16595000000.0 -16896100000.0 -25135500000.0 -33665600000.0 -20083900000.0 -17861100000.0 -27747100000.0 -22100500000.0 -18507300000.0 -16889200000.0 -18019600000.0 -13534500000.0 -13052100000.0 -14152000000.0 -12848500000.0 -12720200000.0 -17899000000.0 -14090500000.0 -12619200000.0 -13001700000.0 -14338300000.0 -14566600000.0 -15752500000.0 -13622400000.0 -13075300000.0 -14347800000.0 -12582200000.0 -12796400000.0 -16591400000.0 -16709600000.0 -17086700000.0 -17615600000.0 -20079200000.0 -19299000000.0 -15858700000.0 -16528600000.0 -18482500000.0 -14795400000.0 -13922200000.0 -14177300000.0 -12875700000.0 -14848100000.0 -13579900000.0 -13594900000.0 -16458100000.0 -16877600000.0 -14534500000.0 -15784400000.0 -16014600000.0 -13008000000.0 -16173400000.0 -12852300000.0 -16045000000.0 -21209200000.0 -18856200000.0 -24116500000.0 -18973000000.0 -18453300000.0 -16384700000.0 -15639600000.0 -15938300000.0 -16192700000.0 -14981400000.0 -12549700000.0 -12634800000.0 -13780600000.0 -22918500000.0 -15427000000.0 -15157700000.0 -18574000000.0 -23617700000.0 -24693800000.0 -23951100000.0 -28206400000.0 -26009900000.0 -24404800000.0 -23167700000.0 -26842400000.0 -29606400000.0 -25863700000.0 -24502700000.0 -29279900000.0 -24857600000.0 -28276100000.0 -18599800000.0 -18300300000.0 -21755000000.0 -19880300000.0 -17894100000.0 -22539800000.0 -14229600000.0 -19611600000.0 -17501400000.0 -19048200000.0 -13820700000.0 -16547100000.0 -12617900000.0 -19792900000.0 -12830500000.0 -12906700000.0 -12646600000.0 -18295800000.0 -17185500000.0 -12549700000.0 -31130300000.0 -32401300000.0 -31496200000.0 -22660200000.0 -22645400000.0 -21423900000.0 -23177000000.0 -20917100000.0 -23217100000.0 -24790600000.0 -19790900000.0 -20372300000.0 -19715200000.0 -18406800000.0 -18177000000.0 -17350100000.0 -15867900000.0 -13803100000.0 -13804100000.0 -16829300000.0 -13532500000.0 -14988300000.0 -16092600000.0 -15807400000.0 -16346600000.0 -12568900000.0 -13508700000.0 -12728300000.0 -14344500000.0 -13059600000.0 -17732600000.0 -16335300000.0 -20402600000.0 -14038500000.0 -14175200000.0 -14472200000.0 -14405700000.0 -15491600000.0 -14388100000.0 -14487500000.0 -13230000000.0 -15721100000.0 -12972400000.0 -14585000000.0 -14039500000.0 -13373500000.0 -14217600000.0 -13597800000.0 -13674000000.0 -14856800000.0 -16413800000.0 -21334200000.0 -24443900000.0 -21610300000.0 -25584200000.0 -22762900000.0 -13953500000.0 -15194400000.0 -13243700000.0 -14727200000.0 -13362000000.0 -12549700000.0 -14074500000.0 -13501500000.0 -26642500000.0 -14677700000.0 -15563600000.0 -16698900000.0 -12549700000.0 -17571600000.0 -14787300000.0 -12666800000.0 -19705000000.0 -15404700000.0 -15649100000.0 -21629800000.0 -25874000000.0 -17046300000.0 -18220300000.0 -20522100000.0 -16556800000.0 -21997000000.0 -20299200000.0 -27754400000.0 -16670300000.0 -15295000000.0 -23789900000.0 -23332000000.0 -15832500000.0 -14964200000.0 -19620800000.0 -16564100000.0 -15330600000.0 -17590900000.0 -21171100000.0 -12637500000.0 -13211600000.0 -12585000000.0 -18482000000.0 -13102500000.0 -13662600000.0 -27801600000.0 -28915900000.0 -18078400000.0 -14812000000.0 -13697700000.0 -13555800000.0 -14162100000.0 -23031000000.0 -12549700000.0 -17507300000.0 -17321900000.0 -17427600000.0 -12892500000.0 -13208000000.0 -13960900000.0 -13453400000.0 -15502100000.0 -15878700000.0 -16835200000.0 -13072300000.0 -16460700000.0 -16141000000.0 -13183400000.0 -14458700000.0 -14713100000.0 -17067700000.0 -17173300000.0 -16616500000.0 -16514100000.0 -18434700000.0 -20956200000.0 -17432200000.0 -18816800000.0 -21127100000.0 -16526900000.0 -16933700000.0 -22398400000.0 -21791900000.0 -20311100000.0 -19008000000.0 -20709300000.0 -20515100000.0 -21417300000.0 -21845500000.0 -18542300000.0 -20421700000.0 -25879500000.0 -12549700000.0 -19202700000.0 -19025400000.0 -24089800000.0 -21678500000.0 -21894200000.0 -12831900000.0 -22234800000.0 -20462500000.0 -18321200000.0 -18672500000.0 -20825200000.0 -19698000000.0 -13107900000.0 -13939900000.0 -14251100000.0 -12607000000.0 -15909400000.0 -18071900000.0 -17068900000.0 -21018300000.0 -17725900000.0 -18774200000.0 -17953700000.0 -12549700000.0 -22291900000.0 -15490000000.0 -21199700000.0 -16740700000.0 -17198400000.0 -22948400000.0 -18748700000.0 -20679900000.0 -34175600000.0 -12549700000.0 -24589400000.0 -21209800000.0 -12580900000.0 -12768200000.0 -21098600000.0 -15833000000.0 -12651600000.0 -19653600000.0 -15451700000.0 -14248500000.0 -19839500000.0 -13344600000.0 -17869700000.0 -23501000000.0 -15697700000.0 -12665000000.0 -26181700000.0 -21558900000.0 -12783500000.0 -12874000000.0 -14808400000.0 -23699300000.0 -16388400000.0 -15368700000.0 -12644300000.0 -12640300000.0 -17027400000.0 -15167900000.0 -13228700000.0 -12751500000.0 -12549700000.0 -15599200000.0 -16588000000.0 -16235000000.0 -15335300000.0 -12694100000.0 -15910200000.0 -14061700000.0 -16539900000.0 -15518300000.0 -12582700000.0 -13012700000.0 -13433500000.0 -12558500000.0 -17898600000.0 -18625600000.0 -12557400000.0 -19191200000.0 -13028900000.0 -20293600000.0 -17292200000.0 -12549700000.0 -12552800000.0 -15852600000.0 -12650200000.0 -18177500000.0 -12549700000.0 -12574000000.0 -13052800000.0 -17262100000.0 -17070900000.0 -18807600000.0 -25074200000.0 -12549700000.0 -18166400000.0 -19940900000.0 -12740900000.0 -13659100000.0 -23350000000.0 -17470700000.0 -18426100000.0 -25109000000.0 -14185500000.0 -12697800000.0 -15619300000.0 -13436400000.0 -16818400000.0 -13683400000.0 -20992800000.0 -15399600000.0 -19602000000.0 -16950900000.0 -20489500000.0 -23951000000.0 -25728400000.0 -37331700000.0 -34858200000.0 -32505300000.0 -14524600000.0 -32566900000.0 -31428100000.0 -33162600000.0 -31142000000.0 -32842900000.0 -37004000000.0 -35118900000.0 -44402800000.0 -24020200000.0 -20626500000.0 -37469400000.0 -44866200000.0 -25178700000.0 -23953600000.0 -16945800000.0 -16624900000.0 -20764000000.0 -15583600000.0 -15307200000.0 -14663900000.0 -19726100000.0 -12645400000.0 -17188100000.0 -17738000000.0 -13594200000.0 -14330600000.0 -14858700000.0 -14075000000.0 -13311000000.0 -27681400000.0 -22977900000.0 -12684200000.0 -14840100000.0 -15598800000.0 -22870800000.0 -12549700000.0 -15669400000.0 -13244300000.0 -13837800000.0 -13732900000.0 -13099500000.0 -12713300000.0 -16119300000.0 -14242300000.0 -14225700000.0 -16185700000.0 -13951500000.0 -19317800000.0 -15015300000.0 -13484700000.0 -16566600000.0 -14828200000.0 -14386900000.0 -15243900000.0 -12635200000.0 -14415100000.0 -13956400000.0 -12683300000.0 -12914400000.0 -12588000000.0 -20629100000.0 -12642300000.0 -16382700000.0 -15881400000.0 -18748200000.0 -19016700000.0 -12597300000.0 -12664700000.0 -16151600000.0 -15989900000.0 -21065400000.0 -12928500000.0 -12943100000.0 -14756400000.0 -16015700000.0 -16821100000.0 -14548400000.0 -27321500000.0 -14819700000.0 -22945500000.0 -22549000000.0 -13181400000.0 -35159400000.0 -26751500000.0 -29550800000.0 -26581100000.0 -20120100000.0 -16806900000.0 -18468400000.0 -17254600000.0 -17050600000.0 -17537500000.0 -25651500000.0 -23249700000.0 -14424200000.0 -16743500000.0 -15807300000.0 -15963400000.0 -12549700000.0 -25545500000.0 -17971700000.0 -16279500000.0 -18561200000.0 -13499100000.0 -22467700000.0 -19375800000.0 -14850000000.0 -26315700000.0 -12882300000.0 -14581200000.0 -29842500000.0 -28322700000.0 -28017200000.0 -27355000000.0 -12549700000.0 -20022600000.0 -20698900000.0 -12549700000.0 -21870500000.0 -13641900000.0 -18715900000.0 -12916700000.0 -12846000000.0 -19544100000.0 -13764700000.0 -16287600000.0 -15222300000.0 -18316100000.0 -12895900000.0 -16476300000.0 -17800500000.0 -16275700000.0 -17054500000.0 -30274800000.0 -20619900000.0 -21890000000.0 -26510900000.0 -18433200000.0 -18436200000.0 -18110100000.0 -20524600000.0 -19502300000.0 -19051300000.0 -16783300000.0 -19758800000.0 -14800600000.0 -15544200000.0 -18307200000.0 -12867200000.0 -20537400000.0 -16551500000.0 -16526100000.0 -19520800000.0 -17381600000.0 -18108000000.0 -17350600000.0 -14440500000.0 -12549700000.0 -14680600000.0 -14196000000.0 -13415200000.0 -21972200000.0 -12947700000.0 -14487200000.0 -14609500000.0 -19756200000.0 -20007700000.0 -16310200000.0 -18241500000.0 -14670000000.0 -12957700000.0 -21029200000.0 -12549700000.0 -12577600000.0 -14927600000.0 -14759900000.0 -18021900000.0 -16255400000.0 -26089000000.0 -12549700000.0 -23777100000.0 -29767400000.0 -26450100000.0 -25941600000.0 -13145600000.0 -23913500000.0 -21276900000.0 -18874000000.0 -21085800000.0 -15401300000.0 -16278400000.0 -15718000000.0 -13806700000.0 -18275700000.0 -12557600000.0 -26456900000.0 -23240600000.0 -24650000000.0 -24362200000.0 -23726400000.0 -30882100000.0 -15633800000.0 -16819000000.0 -20494700000.0 -12945800000.0 -28310800000.0 -15757200000.0 -17490700000.0 -23442600000.0 -13827800000.0 -16158100000.0 -13869800000.0 -12695000000.0 -31170500000.0 -18579800000.0 -31731600000.0 -20352800000.0 -23329100000.0 -25551400000.0 -31206200000.0 -33913700000.0 -29065500000.0 -27776600000.0 -32386700000.0 -28864500000.0 -33446500000.0 -28512500000.0 -24076300000.0 -25845000000.0 -37272100000.0 -35508300000.0 -37512200000.0 -48284900000.0 -23791000000.0 -12673300000.0 -25350000000.0 -17351800000.0 -15125900000.0 -16231600000.0 -15489000000.0 -15343000000.0 -13339100000.0 -13301400000.0 -13642200000.0 -19670400000.0 -17791600000.0 -17175500000.0 -17414100000.0 -21329000000.0 -26904600000.0 -15551300000.0 -17564800000.0 -18673100000.0 -14407000000.0 -16369800000.0 -18220100000.0 -15314500000.0 -20753600000.0 -20942000000.0 -20219100000.0 -22544200000.0 -18924000000.0 -19687100000.0 -18896600000.0 -20255200000.0 -22749900000.0 -16981200000.0 -13963400000.0 -15779700000.0 -15593700000.0 -16093900000.0 -18739300000.0 -22576000000.0 -20964900000.0 -20869000000.0 -27928400000.0 -18730900000.0 -22159800000.0 -28569000000.0 -12549700000.0 -12549700000.0 -44188500000.0 -28167700000.0 -29755600000.0 -21941100000.0 -24566100000.0 -16415400000.0 -15988900000.0 -14906700000.0 -20666800000.0 -22793600000.0 -19074300000.0 -18544300000.0 -21295200000.0 -28885500000.0 -14625900000.0 -12690300000.0 -15133700000.0 -14083600000.0 -19880400000.0 -19697000000.0 -12549700000.0 -12549700000.0 -20982700000.0 -23469400000.0 -36426400000.0 -23401400000.0 -13900600000.0 -22094800000.0 -15316100000.0 -14680100000.0 -13719400000.0 -13509100000.0 -32964800000.0 -19798000000.0 -33811300000.0 -15059100000.0 -13919700000.0 -18294100000.0 -13030600000.0 -16185800000.0 -14605200000.0 -13048200000.0 -18799900000.0 -19457700000.0 -22957900000.0 -20586400000.0 -19011800000.0 -15059300000.0 -12597100000.0 -12551200000.0 -12558900000.0 -12549700000.0 -35924900000.0 -29355300000.0 -15930700000.0 -14224400000.0 -15851900000.0 -16282400000.0 -17278500000.0 -13296200000.0 -14577400000.0 -13011300000.0 -12734200000.0 -16134700000.0 -13499000000.0 -13891600000.0 -13623400000.0 -14778800000.0 -15659100000.0 -12549700000.0 -21325900000.0 -20672700000.0 -17911000000.0 -21202400000.0 -19378000000.0 -18878000000.0 -21841300000.0 -16213700000.0 -17346000000.0 -13397200000.0 -15382100000.0 -21232000000.0 -17305000000.0 -14371000000.0 -12897600000.0 -22120300000.0 -13872200000.0 -12710700000.0 -12856900000.0 -14483200000.0 -13069300000.0 -25096200000.0 -12626100000.0 -16261000000.0 -15666200000.0 -26020700000.0 -14295800000.0 -16967700000.0 -12614400000.0 -32263000000.0 -39796800000.0 -27801600000.0 -13259100000.0 -13005600000.0 -36249500000.0 -30112000000.0 -18187400000.0 -17757100000.0 -12847700000.0 -12975400000.0 -15370400000.0 -13281500000.0 -13198000000.0 -16363200000.0 -26487100000.0 -14962700000.0 -18493900000.0 -20198600000.0 -21272100000.0 -26233500000.0 -12607600000.0 -26967200000.0 -24427500000.0 -18427100000.0 -19580000000.0 -22688600000.0 -21464700000.0 -19552400000.0 -28173700000.0 -16404800000.0 -12616900000.0 -16199600000.0 -12874400000.0 -21069900000.0 -27024300000.0 -21849000000.0 -33277600000.0 -31306400000.0 -23612400000.0 -22743200000.0 -18234000000.0 -16665400000.0 -12774400000.0 -26577500000.0 -21677800000.0 -23234000000.0 -13872600000.0 -20653000000.0 -14952100000.0 -12965100000.0 -12759000000.0 -12792700000.0 -12652200000.0 -16377200000.0 -38875100000.0 -24558400000.0 -23326800000.0 -16141600000.0 -15523700000.0 -14195000000.0 -19985200000.0 -17165900000.0 -14257600000.0 -14091400000.0 -16473400000.0 -12804000000.0 -13233700000.0 -12669100000.0 -14068900000.0 -15080200000.0 -14198000000.0 -20491800000.0 -13368700000.0 -12929100000.0 -14574200000.0 -12654300000.0 -14126000000.0 -12594500000.0 -18323600000.0 -15857100000.0 -18753400000.0 -24934100000.0 -29514900000.0 -16657400000.0 -13015900000.0 -12666200000.0 -21110200000.0 -15436400000.0 -17335600000.0 -15484200000.0 -13551100000.0 -14340400000.0 -26383700000.0 -14067400000.0 -15907800000.0 -12642200000.0 -23593800000.0 -34784700000.0 -33205600000.0 -28197700000.0 -35761500000.0 -40956900000.0 -27828400000.0 -14554200000.0 -12687100000.0 -44448800000.0 -23422500000.0 -13270700000.0 -13001400000.0 -16497300000.0 -22395800000.0 -13958300000.0 -14065800000.0 -13897300000.0 -14188200000.0 -15600700000.0 -14734400000.0 -29464200000.0 -20435600000.0 -26730700000.0 -20670300000.0 -18657100000.0 -18191300000.0 -29751100000.0 -14289400000.0 -14804400000.0 -16731700000.0 -12594100000.0 -22690200000.0 -12654600000.0 -18787400000.0 -28780400000.0 -16608600000.0 -17028000000.0 -19247800000.0 -23201200000.0 -21190800000.0 -29152200000.0 -28081500000.0 -19807700000.0 -18057600000.0 -23495000000.0 -28480300000.0 -30336500000.0 -31933400000.0 -20660000000.0 -18327800000.0 -23478800000.0 -19381700000.0 -20914600000.0 -14488800000.0 -12964200000.0 -13226200000.0 -13273700000.0 -13508700000.0 -15681200000.0 -32722300000.0 -22305000000.0 -15275200000.0 -14470700000.0 -19067600000.0 -17138800000.0 -15482100000.0 -16732300000.0 -18015400000.0 -16970300000.0 -17194100000.0 -17690400000.0 -17410300000.0 -15542000000.0 -14712200000.0 -21086500000.0 -12946300000.0 -12584300000.0 -14821000000.0 -12603800000.0 -13773500000.0 -12549700000.0 -16526100000.0 -16600900000.0 -15192600000.0 -14540000000.0 -21079800000.0 -19225000000.0 -16797700000.0 -20078500000.0 -22149400000.0 -14759400000.0 -15665200000.0 -15173500000.0 -12857300000.0 -12975100000.0 -29531400000.0 -17440800000.0 -18962400000.0 -24649000000.0 -12877700000.0 -22165100000.0 -18230100000.0 -13100200000.0 -49213100000.0 -18870000000.0 -42551200000.0 -28437200000.0 -12819700000.0 -12606900000.0 -34949400000.0 -36038900000.0 -14132800000.0 -15168200000.0 -17063300000.0 -22126800000.0 -13608900000.0 -29541500000.0 -30971900000.0 -12549700000.0 -13040100000.0 -15677700000.0 -12549700000.0 -16782300000.0 -18838300000.0 -28171000000.0 -13082100000.0 -12983300000.0 -17057000000.0 -18875600000.0 -23315700000.0 -20575600000.0 -16012700000.0 -14688900000.0 -25331100000.0 -18387500000.0 -16842200000.0 -23309300000.0 -15731500000.0 -17045300000.0 -29568000000.0 -21211000000.0 -26583600000.0 -25356300000.0 -12690900000.0 -13064300000.0 -14192500000.0 -20172800000.0 -12549700000.0 -16970700000.0 -12625800000.0 -17753900000.0 -13432200000.0 -21267900000.0 -13900400000.0 -12643500000.0 -13315300000.0 -12665400000.0 -12795600000.0 -14492500000.0 -21605300000.0 -19811300000.0 -12559000000.0 -12549700000.0 -19431700000.0 -15712600000.0 -14512900000.0 -15673800000.0 -13636300000.0 -14872700000.0 -13290300000.0 -13680600000.0 -13917700000.0 -13133600000.0 -12549700000.0 -18073200000.0 -15290400000.0 -17589700000.0 -17677200000.0 -18371000000.0 -19399500000.0 -20442600000.0 -13927000000.0 -14180400000.0 -13783300000.0 -15149300000.0 -18838300000.0 -16601300000.0 -23027600000.0 -19558200000.0 -17361200000.0 -14549400000.0 -18259100000.0 -12549700000.0 -14698700000.0 -19965000000.0 -35006700000.0 -13631200000.0 -21102800000.0 -25638100000.0 -25271900000.0 -19410700000.0 -24459600000.0 -20506200000.0 -69442200000.0 -30912300000.0 -36734000000.0 -28402500000.0 -28536900000.0 -34572800000.0 -17482200000.0 -18846900000.0 -26519000000.0 -18721900000.0 -39614800000.0 -20715600000.0 -20148700000.0 -19779900000.0 -19048000000.0 -19834100000.0 -19527800000.0 -16620200000.0 -15975400000.0 -23971700000.0 -16122900000.0 -15367500000.0 -23348500000.0 -19903000000.0 -12549700000.0 -12572700000.0 -18512400000.0 -16870600000.0 -25697200000.0 -20271600000.0 -18025600000.0 -24792500000.0 -12721500000.0 -12560600000.0 -27657600000.0 -17016400000.0 -19333000000.0 -20529800000.0 -26797400000.0 -24937000000.0 -27125800000.0 -12549700000.0 -14857000000.0 -15414700000.0 -19904500000.0 -12709600000.0 -20185900000.0 -13696500000.0 -13034400000.0 -13190100000.0 -13079000000.0 -13379300000.0 -13973300000.0 -21587900000.0 -12756100000.0 -20823300000.0 -20726900000.0 -17075600000.0 -14937100000.0 -13445600000.0 -13223400000.0 -14223600000.0 -13048800000.0 -15246100000.0 -13260900000.0 -16034500000.0 -15081100000.0 -15214300000.0 -15777000000.0 -16113800000.0 -13411300000.0 -12738300000.0 -12600300000.0 -12699900000.0 -13348500000.0 -13282000000.0 -19764200000.0 -19049200000.0 -17422300000.0 -19055400000.0 -24255200000.0 -12549700000.0 -19544400000.0 -22120000000.0 -16994800000.0 -14530600000.0 -14258500000.0 -23777400000.0 -23660300000.0 -12549700000.0 -37598900000.0 -22425300000.0 -12657900000.0 -18212200000.0 -14935700000.0 -22737900000.0 -12562600000.0 -27318200000.0 -22982600000.0 -27890500000.0 -19104500000.0 -85112500000.0 -13052100000.0 -35887500000.0 -28718900000.0 -36964700000.0 -56502000000.0 -45773700000.0 -34959800000.0 -27476800000.0 -27875800000.0 -38003500000.0 -12665600000.0 -19719200000.0 -14240900000.0 -15823500000.0 -12549700000.0 -18197500000.0 -14433600000.0 -14108200000.0 -18343900000.0 -15020800000.0 -17097100000.0 -19791000000.0 -21200700000.0 -15069700000.0 -12957400000.0 -12549700000.0 -12622100000.0 -12756800000.0 -15860300000.0 -20907400000.0 -17503800000.0 -15379500000.0 -23241900000.0 -17526200000.0 -23716900000.0 -13991900000.0 -13817800000.0 -12777200000.0 -16573500000.0 -15686900000.0 -16082500000.0 -12808600000.0 -25026800000.0 -27069400000.0 -25062600000.0 -27664100000.0 -34144500000.0 -22906800000.0 -13153800000.0 -12549700000.0 -13150400000.0 -13206500000.0 -12666700000.0 -12671200000.0 -12841700000.0 -13753700000.0 -17288300000.0 -15621900000.0 -18534200000.0 -12787700000.0 -17169700000.0 -14834400000.0 -12987000000.0 -12956900000.0 -13638600000.0 -13449100000.0 -12851100000.0 -15888300000.0 -13066600000.0 -12816100000.0 -13058900000.0 -12995400000.0 -13407200000.0 -14130100000.0 -12659900000.0 -12590900000.0 -12607200000.0 -12549700000.0 -12595600000.0 -16069900000.0 -16405500000.0 -12635400000.0 -12897700000.0 -19671600000.0 -17942200000.0 -25040700000.0 -27768100000.0 -17779700000.0 -15138300000.0 -21850800000.0 -16228200000.0 -19147300000.0 -28838500000.0 -30836400000.0 -28980700000.0 -22739600000.0 -12617900000.0 -27882700000.0 -18043800000.0 -16285900000.0 -16460300000.0 -37902200000.0 -44027000000.0 -58207400000.0 -42068900000.0 -48361300000.0 -54729200000.0 -14313100000.0 -22187700000.0 -36885700000.0 -24769000000.0 -25661500000.0 -34174200000.0 -43518200000.0 -21154100000.0 -21089200000.0 -21306400000.0 -21486400000.0 -20326600000.0 -14700900000.0 -15139900000.0 -13100800000.0 -15231000000.0 -16108900000.0 -16224900000.0 -12549700000.0 -15259900000.0 -13539600000.0 -13699000000.0 -13881200000.0 -18825400000.0 -12841300000.0 -21167700000.0 -14312800000.0 -20194900000.0 -12549700000.0 -21389200000.0 -18308300000.0 -16245800000.0 -17745800000.0 -15483700000.0 -14733800000.0 -17370700000.0 -17150400000.0 -17516300000.0 -25290100000.0 -20095400000.0 -20630700000.0 -20999400000.0 -18318700000.0 -13008200000.0 -12549700000.0 -14847500000.0 -12673600000.0 -12681600000.0 -13334800000.0 -12749900000.0 -14082600000.0 -17843400000.0 -12549700000.0 -14012000000.0 -14168600000.0 -12972000000.0 -12638000000.0 -13011200000.0 -12549700000.0 -13542000000.0 -15945400000.0 -12776100000.0 -12716300000.0 -12577300000.0 -12688100000.0 -12995000000.0 -12552800000.0 -13222700000.0 -12590500000.0 -12567900000.0 -12672500000.0 -12684800000.0 -14094200000.0 -13954800000.0 -18757500000.0 -18569200000.0 -25530900000.0 -16017400000.0 -14489500000.0 -15158100000.0 -36961200000.0 -31860600000.0 -31116700000.0 -29463700000.0 -33679600000.0 -14928600000.0 -28200600000.0 -31538100000.0 -30665100000.0 -25304300000.0 -20259000000.0 -48198200000.0 -12937700000.0 -31789600000.0 -49327000000.0 -50715700000.0 -51207100000.0 -31524900000.0 -30221000000.0 -38379500000.0 -23077800000.0 -24133600000.0 -12703500000.0 -45501300000.0 -23967100000.0 -12885800000.0 -16291500000.0 -19823700000.0 -14127900000.0 -14878400000.0 -13041300000.0 -14375500000.0 -13703000000.0 -15211400000.0 -15895900000.0 -15483800000.0 -12563000000.0 -14748600000.0 -14728500000.0 -12645800000.0 -13345700000.0 -13404800000.0 -16371000000.0 -15431400000.0 -15480000000.0 -13935100000.0 -16297300000.0 -15235600000.0 -20268100000.0 -15165500000.0 -13656400000.0 -14377300000.0 -15145000000.0 -15069300000.0 -15230200000.0 -15775100000.0 -17541600000.0 -17605800000.0 -12603800000.0 -12564000000.0 -26205400000.0 -15799500000.0 -13391700000.0 -14727100000.0 -14683400000.0 -14723400000.0 -14232800000.0 -14239200000.0 -14164500000.0 -12867800000.0 -16613400000.0 -16761400000.0 -16119400000.0 -14938800000.0 -14936500000.0 -15024800000.0 -14619700000.0 -14166700000.0 -14574000000.0 -12572000000.0 -12549700000.0 -12567800000.0 -12699500000.0 -12976100000.0 -12733500000.0 -12692700000.0 -12991100000.0 -12679500000.0 -12572200000.0 -14282400000.0 -13293500000.0 -12941600000.0 -17412600000.0 -12603000000.0 -12749300000.0 -16868400000.0 -25737600000.0 -22470600000.0 -25231800000.0 -33230200000.0 -16537700000.0 -32662800000.0 -14149400000.0 -18253200000.0 -17576200000.0 -54955100000.0 -28339300000.0 -31178400000.0 -48566300000.0 -30335300000.0 -44114600000.0 -13820200000.0 -20336400000.0 -21284900000.0 -64299100000.0 -99369800000.0 -14807300000.0 -14461800000.0 -52568400000.0 -20546600000.0 -41709200000.0 -18272800000.0 -18893700000.0 -12549700000.0 -36717600000.0 -20443300000.0 -16110500000.0 -16978500000.0 -19430300000.0 -13671400000.0 -13252400000.0 -14244100000.0 -13911400000.0 -12801800000.0 -16294000000.0 -13761300000.0 -12592700000.0 -14818800000.0 -13098600000.0 -13932300000.0 -12846600000.0 -12878500000.0 -17025900000.0 -13745700000.0 -14071100000.0 -12549700000.0 -15591400000.0 -19103700000.0 -12549700000.0 -14624200000.0 -12642800000.0 -12585900000.0 -12559300000.0 -13625300000.0 -12999400000.0 -16593700000.0 -18714000000.0 -14438900000.0 -16394400000.0 -23197000000.0 -15529400000.0 -14301500000.0 -13400500000.0 -12563000000.0 -12558200000.0 -13080300000.0 -12935400000.0 -12802000000.0 -13013300000.0 -13027900000.0 -12897400000.0 -13122400000.0 -13951600000.0 -13543300000.0 -13118300000.0 -13249500000.0 -13374000000.0 -13560500000.0 -14120200000.0 -14596700000.0 -13414200000.0 -13321400000.0 -13513800000.0 -13650700000.0 -14076900000.0 -13710400000.0 -13920500000.0 -13926500000.0 -13465400000.0 -15007300000.0 -15900400000.0 -22022900000.0 -19306000000.0 -19448000000.0 -23666300000.0 -13788000000.0 -17274600000.0 -12989300000.0 -28389400000.0 -20478000000.0 -15588200000.0 -19504400000.0 -45423500000.0 -22001400000.0 -21803600000.0 -23629400000.0 -53870300000.0 -12549700000.0 -36081900000.0 -28255800000.0 -12657100000.0 -68918700000.0 -17059200000.0 -78542100000.0 -13930600000.0 -13786000000.0 -52095500000.0 -13475800000.0 -42328700000.0 -25471000000.0 -25127000000.0 -35845200000.0 -25360800000.0 -19303600000.0 -24211800000.0 -25513000000.0 -22821100000.0 -16233700000.0 -14917800000.0 -15674200000.0 -14876000000.0 -16015900000.0 -17820200000.0 -14855100000.0 -14174700000.0 -14456600000.0 -14106200000.0 -13711700000.0 -13770800000.0 -16712000000.0 -13813900000.0 -13735900000.0 -15062000000.0 -15654400000.0 -21892100000.0 -13898300000.0 -13628600000.0 -17571700000.0 -16170700000.0 -15326500000.0 -15336100000.0 -15095100000.0 -12736100000.0 -12990000000.0 -14755400000.0 -12604700000.0 -14125900000.0 -20268400000.0 -13748500000.0 -14060800000.0 -13067900000.0 -12660700000.0 -12919600000.0 -12549900000.0 -12550400000.0 -12578900000.0 -12787000000.0 -12698200000.0 -12587000000.0 -12549700000.0 -12837700000.0 -12881000000.0 -12575800000.0 -12551100000.0 -12549700000.0 -12565900000.0 -12549700000.0 -13126900000.0 -14134900000.0 -14007400000.0 -13854800000.0 -13788000000.0 -13493700000.0 -13538600000.0 -13336900000.0 -13731600000.0 -14427700000.0 -15560300000.0 -16685700000.0 -20757900000.0 -13355000000.0 -14964600000.0 -14102200000.0 -21945200000.0 -16654000000.0 -17670400000.0 -19364000000.0 -27395000000.0 -12718700000.0 -31239000000.0 -24358000000.0 -28389200000.0 -31258500000.0 -32986000000.0 -44596200000.0 -13196300000.0 -22463000000.0 -55565600000.0 -39285600000.0 -24528200000.0 -34708100000.0 -72464200000.0 -15825600000.0 -18267300000.0 -18135700000.0 -79639800000.0 -12646100000.0 -16985300000.0 -46945700000.0 -68446400000.0 -30516900000.0 -39111000000.0 -27165400000.0 -35426600000.0 -21474900000.0 -18302300000.0 -12710000000.0 -12549700000.0 -16531100000.0 -16997000000.0 -18043200000.0 -18101000000.0 -18827000000.0 -15350000000.0 -18812900000.0 -16719400000.0 -12848800000.0 -13389900000.0 -12712700000.0 -12909400000.0 -12551800000.0 -12620400000.0 -12549700000.0 -14976800000.0 -13199400000.0 -13443800000.0 -13447100000.0 -13799200000.0 -18654700000.0 -13617300000.0 -13654000000.0 -14046800000.0 -13191100000.0 -13666100000.0 -14819500000.0 -12821500000.0 -14389300000.0 -12653300000.0 -16924600000.0 -16080200000.0 -15029800000.0 -14059800000.0 -12700000000.0 -12629200000.0 -12760900000.0 -12549700000.0 -12552700000.0 -12577300000.0 -12710800000.0 -12635900000.0 -12549700000.0 -12549700000.0 -12549700000.0 -12715700000.0 -12558400000.0 -12549700000.0 -12549700000.0 -12570600000.0 -12622300000.0 -13084000000.0 -12726900000.0 -12714400000.0 -12565600000.0 -12745200000.0 -13014300000.0 -12951500000.0 -13528500000.0 -13815100000.0 -13781600000.0 -13577400000.0 -15302200000.0 -16262400000.0 -13894800000.0 -16592500000.0 -17615800000.0 -18924000000.0 -19360900000.0 -20354600000.0 -20324300000.0 -22760200000.0 -28157100000.0 -15097200000.0 -34688500000.0 -13236700000.0 -40992100000.0 -33149300000.0 -36691300000.0 -41188700000.0 -47544700000.0 -54282900000.0 -80416700000.0 -47430100000.0 -48459000000.0 -69597800000.0 -85832300000.0 -56498600000.0 -38622600000.0 -30163000000.0 -34669200000.0 -32786900000.0 -22635100000.0 -40010200000.0 -44154700000.0 -27072700000.0 -23187200000.0 -16734300000.0 -14436800000.0 -14082500000.0 -13962800000.0 -15536200000.0 -12793900000.0 -12978800000.0 -12628400000.0 -13154200000.0 -15113700000.0 -15905600000.0 -13438700000.0 -14752400000.0 -13281500000.0 -13767200000.0 -13222600000.0 -13063500000.0 -12958100000.0 -14323900000.0 -12559500000.0 -12705100000.0 -12598700000.0 -12700800000.0 -16238300000.0 -12719700000.0 -12621900000.0 -13870300000.0 -12549700000.0 -12809900000.0 -12842200000.0 -15569600000.0 -14978700000.0 -16741900000.0 -17185100000.0 -13117000000.0 -13653000000.0 -12628000000.0 -12588000000.0 -12549700000.0 -12612500000.0 -12550000000.0 -12550700000.0 -12556700000.0 -12606300000.0 -12578100000.0 -12549700000.0 -12549700000.0 -12549700000.0 -12610700000.0 -12549700000.0 -12549700000.0 -12549700000.0 -12553900000.0 -12584400000.0 -12891200000.0 -12771400000.0 -12771400000.0 -12737900000.0 -12595700000.0 -12619800000.0 -12650300000.0 -12919500000.0 -12674500000.0 -12795100000.0 -12852900000.0 -13351700000.0 -13066800000.0 -12839000000.0 -13666200000.0 -13236200000.0 -13769400000.0 -14653700000.0 -15026600000.0 -13468900000.0 -14106700000.0 -28024000000.0 -45500400000.0 -12719500000.0 -26269500000.0 -48540900000.0 -24430900000.0 -79211100000.0 -39507200000.0 -40381200000.0 -53098000000.0 -28590700000.0 -65417400000.0 -40578600000.0 -15828400000.0 -31600500000.0 -22537700000.0 -27566600000.0 -62282700000.0 -14239900000.0 -16707800000.0 -14934100000.0 -16373400000.0 -16054400000.0 -15719000000.0 -12823500000.0 -12623400000.0 -12592000000.0 -12570400000.0 -12741800000.0 -12830500000.0 -12763300000.0 -12625500000.0 -13802400000.0 -13490400000.0 -12549700000.0 -12805200000.0 -12778900000.0 -12808800000.0 -13136300000.0 -13193100000.0 -13152000000.0 -13339200000.0 -13672600000.0 -12552000000.0 -13930500000.0 -13637500000.0 -12668800000.0 -12953900000.0 -12681600000.0 -13000300000.0 -12748100000.0 -12678000000.0 -13169000000.0 -12669100000.0 -15082400000.0 -12646500000.0 -14443900000.0 -14324000000.0 -13550900000.0 -12787300000.0 -22691800000.0 -20956200000.0 -17114600000.0 -63524100000.0 -33975700000.0 -39345800000.0 -50610600000.0 -58866400000.0 -40911700000.0 -52477600000.0 -44648600000.0 -42327100000.0 -42244900000.0 -83756000000.0 -12851500000.0 -33747600000.0 -79379200000.0 -27792200000.0 -35793700000.0 -30856100000.0 -60243600000.0 -14660300000.0 -22670000000.0 -21224900000.0 -16352000000.0 -51719100000.0 -20042000000.0 -13871700000.0 -85631500000.0 -41373300000.0 -12549700000.0 -43144300000.0 -42934700000.0 -36974300000.0 -73315700000.0 -95598600000.0 -79147500000.0 -54081500000.0 -37484000000.0 -24201300000.0 -35397500000.0 -62858300000.0 -15631900000.0 -26882600000.0 -28582600000.0 -37355000000.0 -38017500000.0 -25393900000.0 -62464700000.0 -57364000000.0 -19620100000.0 -68028500000.0 -102728000000.0 -27017600000.0 -160819000000.0 -42254900000.0 -69730400000.0 -44129800000.0 -34420400000.0 -12670400000.0 -86175200000.0 -15265400000.0 -14384000000.0 -28581500000.0 -21737700000.0 -32424900000.0 -36504200000.0 -52608800000.0 -13063300000.0 -37830200000.0 -37086000000.0 -18997200000.0 -15743300000.0 -16055400000.0 -155574000000.0 -13835400000.0 -21810200000.0 -12617700000.0 -22780200000.0 -32301300000.0 -37578400000.0 -33484900000.0 -75648300000.0 -14085800000.0 -14062900000.0 -13765000000.0 -12549700000.0 -12549700000.0 -16001800000.0 -40029300000.0 -35692200000.0 -71463000000.0 -79754000000.0 -22283500000.0 -57168000000.0 -45680900000.0 -42879400000.0 -157916000000.0 -50108000000.0 -37121900000.0 -78757400000.0 -34652400000.0 -59461100000.0 -64911500000.0 -17458700000.0 -23825800000.0 -15624300000.0 -12549700000.0 -12549700000.0 -12549700000.0 -16149400000.0 -36337100000.0 -29258200000.0 -39731700000.0 -62978800000.0 -20496800000.0 -61317000000.0 -37190700000.0 -175311000000.0 -39708100000.0 -35040900000.0 -33680000000.0 -69962700000.0 -29054000000.0 -98087700000.0 -38155200000.0 -16070300000.0 -12549700000.0 -12549700000.0 -12549700000.0 -12549700000.0 -12549700000.0 -12549700000.0 -12549700000.0 -12549700000.0 -12549700000.0 -12549700000.0 -12549700000.0 -12549700000.0 -12549700000.0 -12549700000.0 -12549700000.0 -12549700000.0 -12549700000.0 -12549700000.0 -12549700000.0 -12549700000.0 -12549700000.0 -12549700000.0 -12549700000.0 -12549700000.0 -12549700000.0 -12549700000.0 -12549700000.0 -12549700000.0 -12549700000.0 -12549700000.0 -12549700000.0 -12568800000.0 -12549700000.0 -12549700000.0 -14663900000.0 -35930100000.0 -22949800000.0 -21257600000.0 -21128800000.0 -20607800000.0 -53294200000.0 -62126500000.0 -53464200000.0 -65225400000.0 -206176000000.0 -64503800000.0 -18460800000.0 -20811300000.0 -93737200000.0 -100713000000.0 -13634200000.0 -37452600000.0 -31779700000.0 -21569700000.0 -13756300000.0 -12549700000.0 -12549700000.0 -12549700000.0 -12549700000.0 -12549700000.0 -12549700000.0 -12549700000.0 -12549700000.0 -12549700000.0 -12549700000.0 -12549700000.0 -12549700000.0 -12549700000.0 -12549700000.0 -12549700000.0 -12549700000.0 -12549700000.0 -12549700000.0 -12554500000.0 -12549700000.0 -12549700000.0 -12549700000.0 -12553100000.0 -12609100000.0 -33357500000.0 -13409500000.0 -30510800000.0 -54668600000.0 -124572000000.0 -74809600000.0 -90491900000.0 -72330400000.0 -49708700000.0 -69319100000.0 -131345000000.0 -57239900000.0 -101866000000.0 -17523500000.0 -116945000000.0 -98382400000.0 -55177500000.0 -105141000000.0 -14897600000.0 -22180800000.0 -32253900000.0 -48315100000.0 -22518000000.0 -13699800000.0 -15784500000.0 -12549700000.0 -12549700000.0 -12549700000.0 -12549700000.0 -12549700000.0 -12549700000.0 -12549700000.0 -12549700000.0 -12549700000.0 -12549700000.0 -12549700000.0 -12549700000.0 -12549700000.0 -12549700000.0 -12549700000.0 -12549700000.0 -12549700000.0 -12549700000.0 -12549700000.0 -12549700000.0 -12549700000.0 -12549700000.0 -12549700000.0 -12549700000.0 -12549700000.0 -12549700000.0 -12549700000.0 -12549700000.0 -12549700000.0 -12549700000.0 -12549700000.0 -12549700000.0 -12549700000.0 -12549700000.0 -12549700000.0 -12549700000.0 -12549700000.0 -12549700000.0 -12549500000.0 -12550400000.0 -12555400000.0 -12549700000.0 -12549700000.0 -12549700000.0 -13639800000.0 -18346200000.0 -20599000000.0 -24418100000.0 -28470400000.0 -53779400000.0 -44474500000.0 -41335200000.0 -61295100000.0 -88085100000.0 -33908400000.0 -25767100000.0 -40882300000.0 -128296000000.0 -193536000000.0 -114856000000.0 -109833000000.0 -83005400000.0 -49662800000.0 -35155000000.0 -41456700000.0 -17931600000.0 -21932300000.0 -14360400000.0 -12778300000.0 -12684800000.0 -13199900000.0 -12722600000.0 -12629300000.0 -12549700000.0 -12549700000.0 -12549700000.0 -12549700000.0 -12549700000.0 -12549700000.0 -12549700000.0 -12549700000.0 -12549700000.0 -12549700000.0 -12549700000.0 -12549700000.0 -12549700000.0 -12549700000.0 -12549700000.0 -12549700000.0 -12549700000.0 -12549700000.0 -12549700000.0 -12549700000.0 -12549700000.0 -12549700000.0 -12549700000.0 -12549700000.0 -12549700000.0 -12549700000.0 -12549700000.0 -12549700000.0 -30962300000.0 -12549700000.0 -12549700000.0 -12549700000.0 -12549700000.0 -12549700000.0 -12636500000.0 -12631200000.0 -12548500000.0 -12549700000.0 -12549200000.0 -12549700000.0 -12549700000.0 -12549700000.0 -12628300000.0 -15316900000.0 -26187100000.0 -13404200000.0 -69592300000.0 -72413000000.0 -87598100000.0 -13337000000.0 -113792000000.0 -97414800000.0 -157382000000.0 -82725200000.0 -91931700000.0 -129786000000.0 -14312700000.0 -71532100000.0 -110077000000.0 -39546300000.0 -52643700000.0 -41455200000.0 -41975100000.0 -43907100000.0 -25389800000.0 -14019000000.0 -12758600000.0 -12549700000.0 -12549700000.0 -12549700000.0 -12549700000.0 -12549700000.0 -12549700000.0 -12549700000.0 -12549700000.0 -12549700000.0 -12549700000.0 -12549700000.0 -12549700000.0 -12549700000.0 -12549700000.0 -12549700000.0 -12549700000.0 -12549700000.0 -12549700000.0 -12549700000.0 -12549700000.0 -12549700000.0 -12549700000.0 -12549700000.0 -12549700000.0 -12549700000.0 -12549700000.0 -12549700000.0 -12549700000.0 -14886300000.0 -46310200000.0 -79326900000.0 -12549700000.0 -12549700000.0 -12533300000.0 -13468200000.0 -13121600000.0 -12555700000.0 -12549700000.0 -12549700000.0 -12549700000.0 -12549700000.0 -12819900000.0 -12549700000.0 -13098000000.0 -16759700000.0 -29256500000.0 -50741400000.0 -57942700000.0 -25340900000.0 -88061600000.0 -75410800000.0 -71457300000.0 -130647000000.0 -58594800000.0 -42843000000.0 -142817000000.0 -12549700000.0 -83311200000.0 -148868000000.0 -164297000000.0 -65003300000.0 -14758900000.0 -16291500000.0 -12549700000.0 -12549700000.0 -12549700000.0 -12549700000.0 -12549700000.0 -12549700000.0 -12549700000.0 -12549700000.0 -12549700000.0 -12549700000.0 -12549700000.0 -12549700000.0 -12549700000.0 -12549700000.0 -12549700000.0 -12549700000.0 -12549700000.0 -12549700000.0 -12549700000.0 -12549700000.0 -12549700000.0 -12549700000.0 -12549700000.0 -12548900000.0 -13878400000.0 -12549700000.0 -12549700000.0 -12549700000.0 -12549700000.0 -12549700000.0 -73221000000.0 -12549700000.0 -12549700000.0 -18970200000.0 -24446700000.0 -35189900000.0 -95134000000.0 -12549700000.0 -165574000000.0 -12538300000.0 -12549400000.0 -12549700000.0 -12550400000.0 -12549200000.0 -13268400000.0 -12547100000.0 -12254600000.0 -12587600000.0 -12555300000.0 -12549700000.0 -12549700000.0 -12549700000.0 -12549700000.0 -12549700000.0 -12549700000.0 -12549700000.0 -19674400000.0 -23546500000.0 -34324100000.0 -54277100000.0 -115623000000.0 -41988900000.0 -120818000000.0 -139736000000.0 -128314000000.0 -75939800000.0 -129638000000.0 -203071000000.0 -36289300000.0 -60915500000.0 -69614800000.0 -149602000000.0 -115476000000.0 -131438000000.0 -227049000000.0 -144719000000.0 -132671000000.0 -20660800000.0 -14111000000.0 -12549700000.0 -12549700000.0 -12549700000.0 -12549700000.0 -12549600000.0 -12549700000.0 -12549700000.0 -12549700000.0 -12549700000.0 -12549700000.0 -12549700000.0 -12549700000.0 -12549700000.0 -12549700000.0 -12549700000.0 -12549700000.0 -12549700000.0 -12549700000.0 -12549700000.0 -12549700000.0 -12549700000.0 -12549700000.0 -12546800000.0 -12763300000.0 -13835200000.0 -12701300000.0 -12549700000.0 -12549700000.0 -69788100000.0 -186204000000.0 -222827000000.0 -48732100000.0 -38006200000.0 -10809500000.0 -105716000000.0 -108488000000.0 -309373000000.0 -12550000000.0 -12548800000.0 -12908100000.0 -12549600000.0 -12549700000.0 -12549700000.0 -131558000000.0 -12549700000.0 -35450800000.0 -66889300000.0 -38431100000.0 -108799000000.0 -111069000000.0 -48593500000.0 -22244200000.0 -160956000000.0 -66847400000.0 -66435700000.0 -73007000000.0 -60452100000.0 -36609700000.0 -16975400000.0 -96181900000.0 -15543700000.0 -221536000000.0 -38593500000.0 -16918500000.0 -12549700000.0 -476475000000.0 -12549700000.0 -12549700000.0 -12549700000.0 -1.28552e+12 -265205000000.0 -12550200000.0 -12463900000.0 -726166000000.0 -252189000000.0 -2.6337e+12 -5.19691e+12 -6.17425e+12 -4.51651e+12 -2.97121e+12 -2.8452e+12 -2.93209e+12 -4.17862e+12 -3.04397e+12 -2.19019e+12 -4.55336e+12 -5.02497e+12 -3.79579e+12 -4.41152e+12 -3.50888e+12 -4.27955e+12 -2.51756e+12 -3.28647e+12 -4.66793e+12 -3.74572e+12 -3.17861e+12 -2.05002e+12 -6.17594e+12 -3.02286e+12 -2.69886e+12 -3.32397e+12 -6.9587e+12 -5.71371e+12 -5.33441e+12 -4.55662e+12 -3.24129e+12 -3.96882e+12 -6.16371e+12 -3.94868e+12 -5.25604e+12 -5.04033e+12 -3.65615e+12 -3.40596e+12 -3.70845e+12 -5.15219e+12 -5.78652e+12 -5.54519e+12 -4.87611e+12 -4.90449e+12 -3.2614e+12 -4.12433e+12 -4.8415e+12 -6.57306e+12 -3.90342e+12 -4.915e+12 -3.95589e+12 -4.08939e+12 -6.76698e+12 -5.37162e+12 -3.23731e+12 -2.74188e+12 -60500400000.0 -30267300000.0 -101596000000.0 -87841000000.0 -53140500000.0 -65032800000.0 -77493300000.0 -15791200000.0 -40776400000.0 -84389800000.0 -86892700000.0 -30976000000.0 -76172000000.0 -111117000000.0 -47574400000.0 -58304000000.0 -77238800000.0 -145609000000.0 -36247400000.0 -14205500000.0 -214919000000.0 -61146400000.0 -4.20591e+12 -4.10246e+12 -5.57143e+12 -4.88642e+12 -3.3037e+12 -4.41119e+12 -3.2294e+12 -2.40616e+12 -5.25182e+12 -5.27253e+12 -7.71808e+12 -3.75173e+12 -2.90961e+12 -3.34181e+12 -3.5776e+12 -5.9881e+12 -8.84527e+12 -4.99965e+12 -4.33158e+12 -4.08377e+12 -3.83131e+12 -2.40699e+12 -3.58308e+12 -3.1482e+12 -3.70719e+12 -3.3471e+12 -3.29136e+12 -4.93508e+12 -2.71973e+12 -5.79343e+12 -1.72587e+12 -5.63834e+12 -4.65701e+12 -4.44242e+12 -4.21818e+12 -4.54908e+12 -4.23087e+12 -4.7675e+12 -3.6258e+12 -3.71905e+12 -3.80947e+12 -5.62199e+12 -4.21878e+12 -4.37037e+12 -7.76639e+12 -4.2265e+12 -4.23548e+12 -3.732e+12 -5.11601e+12 -4.91843e+12 -4.70443e+12 -3.80158e+12 -3.42315e+12 -3.19997e+12 -3.44341e+12 -2.88301e+12 -4.1452e+12 -6.13571e+12 -2.71933e+12 -5.19635e+12 -4.13955e+12 -6.16736e+12 -8.49195e+12 -6.59704e+12 -8.42352e+12 -9.91697e+12 -4.25439e+12 -7.52886e+12 -5.35939e+12 -4.48635e+12 -6.36514e+12 -6.04353e+12 -6.65954e+12 -5.87599e+12 -6.25863e+12 -5.98249e+12 -3.74741e+12 -5.56257e+12 -8.63467e+12 -7.20386e+12 -7.09403e+12 -4.66653e+12 -5.21599e+12 -5.26688e+12 -4.45869e+12 -7.98873e+12 -6.28174e+12 -4.48061e+12 -2.96984e+12 -7.8938e+12 -6.8329e+12 -1.03863e+13 -6.59906e+12 -3.6543e+12 -3.20069e+12 -5.28127e+12 -2.82506e+12 -7.01276e+12 -5.34013e+12 -6.21035e+12 -6.52407e+12 -8.52886e+12 -7.50212e+12 -5.41019e+12 -7.78705e+12 -7.00979e+12 -3.04758e+12 -8.68072e+12 -2.60312e+12 -5.63742e+12 -6.16771e+12 -5.46446e+12 -6.05001e+12 -9.03312e+12 -6.03988e+12 -4.23099e+12 -6.64418e+12 -5.37234e+12 -7.65513e+12 -5.734e+12 -4.99723e+12 -5.29e+12 -6.92593e+12 -6.95052e+12 -6.3403e+12 -6.64685e+12 -4.85153e+12 -9.36821e+12 -1.02889e+13 -6.69792e+12 -6.04336e+12 -3.7923e+12 -5.39406e+12 -2.2471e+12 -5.75895e+12 -6.87449e+12 -6.20814e+12 -7.5826e+12 -3.81171e+12 -5.16632e+12 -6.03e+12 -3.86972e+12 -7.54631e+12 -7.69166e+12 -7.07202e+12 -5.94109e+12 -3.5519e+12 -5.62914e+12 -681045000000.0 -73465600000.0 -157507000000.0 -106948000000.0 -127487000000.0 -126164000000.0 -151356000000.0 -30523000000.0 -106460000000.0 -59027200000.0 -35260400000.0 -293829000000.0 -241001000000.0 -100613000000.0 -66620700000.0 -262163000000.0 -136957000000.0 -6.67718e+12 -5.48903e+12 -3.63982e+12 -7.1722e+12 -6.41142e+12 -7.84909e+12 -5.62529e+12 -2.43345e+12 -5.20141e+12 -6.02345e+12 -7.67669e+12 -4.00101e+12 -8.14036e+12 -7.63178e+12 -2.93828e+12 -4.14305e+12 -6.78969e+12 -7.33722e+12 -3.54371e+12 -6.09011e+12 -4.37334e+12 -4.13318e+12 -8.59814e+12 -8.03702e+12 -9.28323e+12 -4.92368e+12 -1.05819e+13 -6.9336e+12 -8.55643e+12 -5.18253e+12 -3.04041e+12 -6.00171e+12 -6.34739e+12 -7.24234e+12 -3.70302e+12 -4.04342e+12 -1.0064e+13 -6.43603e+12 -5.63067e+12 -7.84306e+12 -8.74921e+12 -2.96149e+12 -7.35481e+12 -4.81277e+12 -6.60175e+12 -6.55497e+12 -5.57024e+12 -5.99583e+12 -6.94212e+12 -8.2189e+12 -4.76924e+12 -8.82209e+12 -5.92691e+12 -7.62077e+12 -7.68925e+12 -8.01208e+12 -8.80208e+12 -1.20907e+12 -6.83756e+12 -9.9874e+12 -7.72701e+12 -5.8977e+12 -8.11961e+12 -3.59903e+12 -7.08494e+12 -3.759e+12 -5.71826e+12 -8.68955e+12 -6.77734e+12 -8.16166e+12 -4.35718e+12 -7.11809e+12 -6.00078e+12 -3.63896e+12 -6.82635e+12 -6.91009e+12 -5.5194e+12 -5.63249e+12 -6.42096e+12 -7.63794e+12 -8.30741e+12 -5.03008e+12 -9.4475e+12 -7.36305e+12 -3.12207e+12 -3.44207e+12 -3.59887e+12 -5.78665e+12 -5.65058e+12 -7.65902e+12 -5.41783e+12 -5.89776e+12 -6.93614e+12 -6.31046e+12 -4.76748e+12 -5.61667e+12 -5.22931e+12 -4.79147e+12 -3.90455e+12 -4.66067e+12 -3.94681e+12 -5.24721e+12 -2.45239e+12 -4.60921e+12 -8.5358e+12 -6.54626e+12 -4.67818e+12 -5.52452e+12 -6.92127e+12 -6.88949e+12 -1.03308e+13 -3.97608e+12 -5.25285e+12 -5.9613e+12 -4.21682e+12 -4.90876e+12 -6.63148e+12 -6.47667e+12 -7.90782e+12 -8.24769e+12 -7.53057e+12 -7.06073e+12 -5.43521e+12 -5.40903e+12 -5.64692e+12 -6.43419e+12 -3.10868e+12 -5.0703e+12 -8.42022e+12 -6.1542e+12 -7.91151e+12 -7.7334e+12 -3.54743e+12 -7.09783e+12 -3.62041e+12 -6.60075e+12 -5.65289e+12 -8.84625e+12 -9.66345e+12 -6.91647e+12 -4.67915e+12 -4.69141e+12 -2.49585e+12 -8.64614e+12 -6.24445e+12 -4.93455e+12 -4.31788e+12 -6.57502e+12 -5.8326e+12 -6.16405e+12 -6.4272e+12 -6.94268e+12 -2.94119e+12 -4.01893e+12 -4.30472e+12 -2.17528e+12 -398975000000.0 -230190000000.0 -111119000000.0 -131479000000.0 -114482000000.0 -65244400000.0 -161044000000.0 -183755000000.0 -144742000000.0 -125509000000.0 -219551000000.0 -71230900000.0 -227298000000.0 -182370000000.0 -109418000000.0 -237744000000.0 -23224200000.0 -283342000000.0 -3.50054e+12 -5.53499e+12 -4.46587e+12 -5.56204e+12 -3.49507e+12 -5.97107e+12 -9.27277e+12 -6.17482e+12 -4.10863e+12 -3.86991e+12 -6.62751e+12 -7.01007e+12 -1.08836e+13 -4.43968e+12 -3.71829e+12 -6.57671e+12 -8.41734e+12 -1.06263e+13 -4.82741e+12 -5.5695e+12 -6.6184e+12 -5.90833e+12 -9.87622e+12 -7.35707e+12 -7.0354e+12 -5.22867e+12 -5.80424e+12 -1.04619e+13 -6.96148e+12 -5.79884e+12 -4.98728e+12 -9.05116e+12 -7.4655e+12 -5.62275e+12 -4.41271e+12 -6.48082e+12 -5.67807e+12 -7.26844e+12 -6.08722e+12 -5.58845e+12 -8.11502e+12 -7.76127e+12 -3.89643e+12 -5.19896e+12 -7.08623e+12 -5.88244e+12 -9.06725e+12 -4.72483e+12 -8.43734e+12 -4.06928e+12 -7.78455e+12 -4.24184e+12 -5.37248e+12 -9.46327e+12 -5.31606e+12 -5.08589e+12 -6.81676e+12 -7.69417e+12 -6.11645e+12 -3.87949e+12 -3.19089e+12 -2.53269e+12 -4.14859e+12 -4.76757e+12 -7.82637e+12 -5.23766e+12 -7.42705e+12 -1.01884e+13 -6.47174e+12 -3.42633e+12 -4.23019e+12 -6.58964e+12 -6.98187e+12 -5.02556e+12 -3.84972e+12 -2.306e+12 -5.53822e+12 -3.76243e+12 -5.39654e+12 -2.22596e+12 -5.41924e+12 -6.86557e+12 -6.08679e+12 -5.82648e+12 -5.3389e+12 -8.15309e+12 -8.1011e+12 -4.89714e+12 -5.13091e+12 -6.4267e+12 -8.29012e+12 -4.75549e+12 -4.44366e+12 -6.37773e+12 -5.46044e+12 -6.2764e+12 -6.05615e+12 -5.12786e+12 -6.92935e+12 -6.84215e+12 -1.02743e+13 -5.15485e+12 -3.73409e+12 -4.62476e+12 -3.25866e+12 -6.84412e+12 -4.37095e+12 -5.44364e+12 -5.8711e+12 -7.21286e+12 -6.05184e+12 -6.29503e+12 -6.11388e+12 -2.87008e+12 -4.49929e+12 -4.15428e+12 -3.78288e+12 -5.57664e+12 -6.1461e+12 -5.75812e+12 -9.27154e+12 -3.83449e+12 -4.26929e+12 -6.43293e+12 -3.66608e+12 -2.76474e+12 -3.45185e+12 -4.23535e+12 -2.31425e+12 -192380000000.0 -160718000000.0 -309673000000.0 -118621000000.0 -94137500000.0 -74382100000.0 -22877700000.0 -161433000000.0 -174774000000.0 -69639700000.0 -126404000000.0 -150074000000.0 -54557300000.0 -77220700000.0 -133100000000.0 -126191000000.0 -204695000000.0 -113940000000.0 -144354000000.0 -240011000000.0 -364648000000.0 -249029000000.0 -12549700000.0 -244079000000.0 -5.07011e+12 -4.77277e+12 -7.25197e+12 -7.10573e+12 -8.59401e+12 -5.12558e+12 -4.06539e+12 -2.79086e+12 -6.6005e+12 -2.30738e+12 -6.52799e+12 -4.67747e+12 -7.79957e+12 -5.10537e+12 -5.64977e+12 -8.93359e+12 -8.96917e+12 -8.95377e+12 -6.46977e+12 -4.38457e+12 -7.8471e+12 -9.51179e+12 -4.32803e+12 -6.0511e+12 -7.87942e+12 -6.49301e+12 -6.25673e+12 -3.92754e+12 -8.76241e+12 -9.19372e+12 -7.24061e+12 -6.99601e+12 -4.26528e+12 -3.89907e+12 -6.69617e+12 -5.33265e+12 -5.45042e+12 -6.51226e+12 -7.04806e+12 -5.94155e+12 -6.10775e+12 -6.41774e+12 -5.0977e+12 -5.41351e+12 -4.53336e+12 -1.57209e+12 -2.52436e+12 -6.17977e+12 -4.25259e+12 -4.45184e+12 -6.01139e+12 -5.09491e+12 -5.48332e+12 -8.92775e+12 -5.92687e+12 -4.80912e+12 -5.78565e+12 -2.90911e+12 -5.99481e+12 -4.74989e+12 -6.35188e+12 -3.63194e+12 -5.30624e+12 -6.81294e+12 -8.64014e+12 -4.26828e+12 -6.67019e+12 -7.28958e+12 -4.69693e+12 -4.76323e+12 -5.79313e+12 -6.4749e+12 -5.82216e+12 -4.82656e+12 -5.02324e+12 -5.49234e+12 -4.59619e+12 -6.17597e+12 -4.02972e+12 -8.66307e+12 -2.09909e+12 -6.18334e+12 -4.3961e+12 -1.58018e+12 -5.97754e+12 -3.10622e+12 -5.87645e+12 -5.36933e+12 -3.78091e+12 -5.8552e+12 -5.25358e+12 -5.62003e+12 -4.71985e+12 -6.11377e+12 -5.7772e+12 -3.84609e+12 -4.51696e+12 -5.35426e+12 -3.28724e+12 -4.55069e+12 -7.54956e+12 -7.11118e+12 -5.41737e+12 -5.72449e+12 -6.19766e+12 -5.00251e+12 -4.30038e+12 -7.60836e+12 -5.77273e+12 -6.37742e+12 -2.88907e+12 -5.27746e+12 -2.61365e+12 -4.95118e+12 -7.17833e+12 -8.26699e+12 -4.36687e+12 -4.88268e+12 -4.24768e+12 -7.80057e+12 -2.29089e+12 -4.29293e+12 -4.57931e+12 -6.32682e+12 -3.30273e+12 -4.77056e+12 -7.43592e+12 -5.72067e+12 -6.70539e+12 -5.86652e+12 -4.00768e+12 -4.74179e+12 -12549700000.0 -300836000000.0 -109144000000.0 -125742000000.0 -79239800000.0 -166693000000.0 -106189000000.0 -75465900000.0 -94233600000.0 -36211600000.0 -95155400000.0 -25807800000.0 -31461200000.0 -101046000000.0 -59803300000.0 -86253200000.0 -127607000000.0 -109156000000.0 -39844400000.0 -173719000000.0 -262663000000.0 -12549700000.0 -4.0631e+12 -3.88388e+12 -3.60395e+12 -7.94761e+12 -2.73106e+12 -2.39347e+12 -3.53375e+12 -4.40093e+12 -4.78536e+12 -9.11522e+12 -6.71589e+12 -6.22778e+12 -5.3427e+12 -2.61279e+12 -4.41351e+12 -3.82826e+12 -5.25345e+12 -3.54753e+12 -3.52579e+12 -6.85611e+12 -6.20443e+12 -4.24083e+12 -5.11537e+12 -3.34999e+12 -6.47125e+12 -5.44353e+12 -5.54597e+12 -3.29885e+12 -7.01934e+12 -8.20202e+12 -3.30949e+12 -2.61601e+12 -6.10186e+12 -3.86702e+12 -4.9814e+12 -6.95748e+12 -4.05894e+12 -5.56951e+12 -5.84227e+12 -4.93263e+12 -5.43472e+12 -5.59953e+12 -5.83711e+12 -5.06945e+12 -4.90419e+12 -4.0368e+12 -6.65397e+12 -7.20159e+12 -5.33887e+12 -4.86e+12 -7.57304e+12 -3.79739e+12 -3.22399e+12 -3.80491e+12 -5.41116e+12 -5.16566e+12 -3.61292e+12 -3.71587e+12 -4.20409e+12 -4.61025e+12 -5.81001e+12 -6.79951e+12 -4.01241e+12 -2.6358e+12 -7.3409e+12 -4.1201e+12 -3.97053e+12 -2.96543e+12 -1.82955e+12 -5.85927e+12 -3.85341e+12 -7.61319e+12 -6.25971e+12 -5.50612e+12 -5.94836e+12 -8.88436e+12 -4.45964e+12 -3.29829e+12 -5.35381e+12 -4.0285e+12 -4.47143e+12 -4.76455e+12 -5.68038e+12 -3.37957e+12 -4.4233e+12 -3.7195e+12 -2.61518e+12 -4.68661e+12 -6.21657e+12 -4.3346e+12 -3.37332e+12 -6.2e+12 -5.80071e+12 -7.17926e+12 -5.6371e+12 -3.60096e+12 -3.91668e+12 -2.83805e+12 -4.10437e+12 -1.9819e+12 -5.5465e+12 -3.97962e+12 -4.54994e+12 -4.6105e+12 -3.19885e+12 -7.73095e+12 -5.11574e+12 -4.73486e+12 -3.22107e+12 -3.99841e+12 -5.3658e+12 -5.29547e+12 -2.57672e+12 -5.59518e+12 -6.81843e+12 -4.24926e+12 -2.65933e+12 -5.87428e+12 -5.45543e+12 -5.28197e+12 -6.06113e+12 -4.86052e+12 -4.98105e+12 -3.36205e+12 -12549700000.0 -218115000000.0 -316188000000.0 -133379000000.0 -135775000000.0 -184336000000.0 -133910000000.0 -63217100000.0 -153357000000.0 -78377500000.0 -101463000000.0 -115262000000.0 -29153300000.0 -97223100000.0 -18812300000.0 -130314000000.0 -128464000000.0 -13464700000.0 -131474000000.0 -52159800000.0 -81619000000.0 -93084200000.0 -322402000000.0 -12549700000.0 -4.31564e+12 -3.25751e+12 -4.06558e+12 -5.08829e+12 -5.72943e+12 -4.80981e+12 -6.90455e+12 -7.57954e+12 -4.26541e+12 -5.56589e+12 -2.09229e+12 -3.563e+12 -5.36073e+12 -3.61676e+12 -4.6988e+12 -6.58821e+12 -4.21973e+12 -2.86335e+12 -7.75213e+12 -8.93329e+12 -3.22592e+12 -2.63809e+12 -5.42816e+12 -7.93268e+12 -3.05116e+12 -3.11425e+12 -7.41632e+12 -3.22718e+12 -4.44423e+12 -4.02509e+12 -4.63492e+12 -2.6941e+12 -6.29136e+12 -6.95702e+12 -5.55078e+12 -6.36521e+12 -3.01593e+12 -3.65685e+12 -5.70244e+12 -5.35675e+12 -4.02171e+12 -5.00259e+12 -5.33368e+12 -5.56317e+12 -3.83161e+12 -4.15341e+12 -4.86024e+12 -4.83176e+12 -3.93677e+12 -4.17406e+12 -6.5627e+12 -2.9277e+12 -5.03274e+12 -5.44277e+12 -6.65288e+12 -3.59605e+12 -5.55999e+12 -1.76602e+12 -5.25213e+12 -3.85844e+12 -3.35507e+12 -4.4361e+12 -2.33498e+12 -4.21873e+12 -8.73693e+12 -3.74005e+12 -5.97792e+12 -7.034e+12 -3.37941e+12 -595814000000.0 -3.75353e+12 -3.40485e+12 -5.27694e+12 -3.83564e+12 -8.04182e+12 -4.48323e+12 -4.79157e+12 -4.69097e+12 -4.18562e+12 -3.64224e+12 -4.14285e+12 -3.97341e+12 -2.11221e+12 -4.4716e+12 -5.72822e+12 -3.24666e+12 -2.38108e+12 -3.64537e+12 -5.41969e+12 -5.43553e+12 -6.743e+12 -5.0092e+12 -3.79664e+12 -4.45426e+12 -6.25438e+12 -6.40741e+12 -3.79588e+12 -2.19551e+12 -6.88814e+12 -6.07135e+12 -5.26589e+12 -6.10774e+12 -4.50001e+12 -2.87313e+12 -4.00187e+12 -4.21245e+12 -3.44395e+12 -6.20783e+12 -6.71472e+12 -4.17287e+12 -4.31074e+12 -3.22889e+12 -4.14859e+12 -5.01663e+12 -2.02654e+12 -1.76325e+12 -2.49759e+12 -1.9655e+12 -12603300000.0 -309435000000.0 -73791100000.0 -53682900000.0 -12549700000.0 -124368000000.0 -30942900000.0 -134805000000.0 -50697200000.0 -87854400000.0 -22129800000.0 -18024000000.0 -128329000000.0 -73689200000.0 -80524800000.0 -94940500000.0 -106755000000.0 -225401000000.0 -261948000000.0 -532902000000.0 -599840000000.0 -4.69887e+12 -4.52696e+12 -2.94646e+12 -3.90432e+12 -3.76405e+12 -3.81232e+12 -3.1734e+12 -3.2952e+12 -3.65459e+12 -3.34422e+12 -5.67354e+12 -3.09016e+12 -3.16723e+12 -4.89793e+12 -2.86438e+12 -4.49997e+12 -4.09093e+12 -4.91672e+12 -5.93468e+12 -2.86871e+12 -3.75853e+12 -2.50212e+12 -2.36657e+12 -3.03008e+12 -2.93768e+12 -4.4747e+12 -2.63375e+12 -1.89611e+12 -2.66513e+12 -5.17615e+12 -3.4252e+12 -2.54686e+12 -4.53639e+12 -2.76343e+12 -4.132e+12 -3.23804e+12 -4.72633e+12 -5.08831e+12 -5.42406e+12 -5.88364e+12 -2.63892e+12 -2.10614e+12 -3.48981e+12 -2.94112e+12 -3.62642e+12 -5.08557e+12 -5.40144e+12 -2.07564e+12 -3.69381e+12 -4.4304e+12 -5.31956e+12 -4.98817e+12 -4.08069e+12 -3.96301e+12 -2.6901e+12 -3.97398e+12 -2.44542e+12 -4.66863e+12 -3.4736e+12 -5.18144e+12 -5.61847e+12 -4.2847e+12 -3.1297e+12 -3.63926e+12 -7.23273e+12 -4.67634e+12 -2.13069e+12 -5.64773e+12 -5.45583e+12 -3.59738e+12 -5.06952e+12 -3.19027e+12 -4.28445e+12 -5.22818e+12 -4.68318e+12 -5.05202e+12 -5.00542e+12 -4.52151e+12 -4.29592e+12 -4.56676e+12 -5.7226e+12 -3.76279e+12 -3.27855e+12 -4.62714e+12 -3.30665e+12 -3.15294e+12 -3.36563e+12 -2.82514e+12 -4.3491e+12 -4.28683e+12 -7.55916e+12 -2.84522e+12 -3.25e+12 -4.58579e+12 -2.5852e+12 -5.90678e+12 -4.95133e+12 -3.61531e+12 -3.3195e+12 -5.09357e+12 -4.21649e+12 -5.5201e+12 -2.81767e+12 -6.2862e+12 -5.90646e+12 -1.66508e+12 -2.57175e+12 -3.60735e+12 -4.58996e+12 -3.94406e+12 -3.63113e+12 -2.54069e+12 -3.81668e+12 -3.69142e+12 -5.53146e+12 -1.6303e+12 -14163200000.0 -90756800000.0 -42183200000.0 -14950400000.0 -13107700000.0 -80448200000.0 -22731300000.0 -15380500000.0 -16929100000.0 -63638500000.0 -37471800000.0 -12549700000.0 -68104700000.0 -29302400000.0 -232342000000.0 -102972000000.0 -83417300000.0 -32655600000.0 -243687000000.0 -3.91745e+12 -5.4058e+12 -4.47176e+12 -2.72837e+12 -2.81396e+12 -5.0138e+12 -2.22745e+12 -3.58896e+12 -3.93689e+12 -3.59408e+12 -3.32594e+12 -5.65602e+12 -2.6684e+12 -6.94794e+12 -2.46257e+12 -3.30432e+12 -3.10982e+12 -4.41057e+12 -2.33906e+12 -4.72201e+12 -4.11204e+12 -2.83583e+12 -2.95071e+12 -2.12981e+12 -4.64009e+12 -5.08944e+12 -1.52596e+12 -4.32288e+12 -5.00733e+12 -3.63057e+12 -5.90059e+12 -4.16282e+12 -3.22784e+12 -3.67961e+12 -3.71883e+12 -2.22698e+12 -1.85477e+12 -5.85439e+12 -2.52103e+12 -3.65915e+12 -3.49706e+12 -5.7624e+12 -2.93812e+12 -2.50636e+12 -4.58756e+12 -4.75241e+12 -6.1363e+12 -2.70781e+12 -4.99055e+12 -3.72524e+12 -2.56097e+12 -2.92544e+12 -2.51e+12 -2.27932e+12 -2.2002e+12 -3.43572e+12 -3.8067e+12 -2.09729e+12 -3.19446e+12 -2.54564e+12 -4.27616e+12 -2.2727e+12 -4.72385e+12 -4.12091e+12 -3.67227e+12 -2.96758e+12 -3.41059e+12 -2.15992e+12 -2.45586e+12 -2.54376e+12 -3.53751e+12 -4.84164e+12 -3.36303e+12 -1.972e+12 -3.12212e+12 -3.73146e+12 -2.62765e+12 -3.12987e+12 -3.06845e+12 -2.0905e+12 -1.54807e+12 -3.18887e+12 -3.17497e+12 -3.34917e+12 -2.28349e+12 -5.48186e+12 -2.45896e+12 -3.41526e+12 -4.26196e+12 -3.24352e+12 -3.12214e+12 -2.46102e+12 -3.48821e+12 -4.32907e+12 -5.02769e+12 -2.18318e+12 -2.19444e+12 -2.9004e+12 -4.35414e+12 -4.41231e+12 -4.02506e+12 -1.97598e+12 -2.64831e+12 -12549700000.0 -37829000000.0 -28624400000.0 -12752300000.0 -12549700000.0 -48375300000.0 -17699500000.0 -13243000000.0 -13299500000.0 -41484500000.0 -34802900000.0 -16470500000.0 -30592600000.0 -31338200000.0 -35147600000.0 -30786500000.0 -16242800000.0 -109566000000.0 -68391300000.0 -166225000000.0 -195965000000.0 -27374000000.0 -3.68678e+12 -2.86215e+12 -4.22617e+12 -3.55029e+12 -4.50495e+12 -3.56158e+12 -907356000000.0 -2.94781e+12 -2.55903e+12 -2.48201e+12 -3.2444e+12 -5.42039e+12 -4.78346e+12 -5.07329e+12 -5.6382e+12 -4.67866e+12 -3.71804e+12 -3.19839e+12 -3.19427e+12 -1.94458e+12 -2.90696e+12 -2.22889e+12 -3.12295e+12 -2.54328e+12 -5.36678e+12 -2.81983e+12 -3.43315e+12 -2.90754e+12 -573807000000.0 -3.32615e+12 -1.59662e+12 -4.26555e+12 -2.79013e+12 -4.02318e+12 -2.71206e+12 -2.68497e+12 -3.82693e+12 -1.83633e+12 -2.93084e+12 -3.57706e+12 -2.20867e+12 -4.30741e+12 -1.29162e+12 -3.10214e+12 -3.11216e+12 -2.20029e+12 -2.89658e+12 -3.23193e+12 -3.77385e+12 -3.56751e+12 -3.84114e+12 -3.49622e+12 -5.78281e+12 -3.03577e+12 -4.06789e+12 -1.75046e+12 -1.72975e+12 -1.83822e+12 -2.51221e+12 -4.08219e+12 -1.75297e+12 -2.53676e+12 -2.68446e+12 -1.73285e+12 -3.09186e+12 -3.93271e+12 -1.52527e+12 -2.2454e+12 -1.85678e+12 -1.22097e+12 -3.39847e+12 -2.3807e+12 -3.20526e+12 -2.59508e+12 -2.36816e+12 -2.78933e+12 -3.58642e+12 -1.1298e+12 -2.28956e+12 -2.45038e+12 -2.96696e+12 -2.42784e+12 -2.71083e+12 -2.40044e+12 -4.46514e+12 -2.50844e+12 -2.39512e+12 -1.79443e+12 -1.49365e+12 -2.30294e+12 -3.24422e+12 -3.49898e+12 -2.58573e+12 -1.61696e+12 -2.26411e+12 -2.181e+12 -3.09449e+12 -2.32604e+12 -1.47987e+12 -1.99062e+12 -1.2102e+12 -2.55853e+12 -2.22974e+12 -2.68002e+12 -3.45696e+12 -1.63536e+12 -3.59029e+12 -2.36572e+12 -3.09235e+12 -3.26516e+12 -2.86363e+12 -2.52063e+12 -3.02146e+12 -3.00121e+12 -3.93237e+12 -1.83695e+12 -12549700000.0 -26829300000.0 -13508800000.0 -12549700000.0 -12818900000.0 -35605500000.0 -27784300000.0 -21470800000.0 -21796800000.0 -44673500000.0 -32112900000.0 -22008800000.0 -30383600000.0 -61025900000.0 -17539400000.0 -13633000000.0 -67149800000.0 -37076000000.0 -218910000000.0 -323047000000.0 -2.43315e+12 -2.51061e+12 -1.45519e+12 -1.40975e+12 -2.83025e+12 -3.72463e+12 -3.30395e+12 -2.55031e+12 -3.26291e+12 -2.71248e+12 -3.8973e+12 -2.2254e+12 -2.07997e+12 -1.8445e+12 -4.58665e+12 -3.07292e+12 -3.39341e+12 -1.90493e+12 -2.00849e+12 -1.72419e+12 -3.81736e+12 -1.66239e+12 -1.83275e+12 -2.11112e+12 -3.94022e+12 -875059000000.0 -1.78421e+12 -4.84305e+12 -3.72333e+12 -2.2728e+12 -3.96182e+12 -3.88742e+12 -4.70829e+12 -1.91868e+12 -3.06273e+12 -3.26781e+12 -1.40519e+12 -2.76471e+12 -2.3985e+12 -2.77028e+12 -2.82939e+12 -3.4276e+12 -3.52307e+12 -1.71542e+12 -2.68634e+12 -3.30685e+12 -1.78893e+12 -2.44749e+12 -2.53648e+12 -1.05269e+12 -3.09115e+12 -3.44338e+12 -3.71486e+12 -2.87023e+12 -2.2391e+12 -2.35716e+12 -2.10835e+12 -1.66066e+12 -2.01513e+12 -160854000000.0 -2.18077e+12 -2.07147e+12 -1.57303e+12 -3.24071e+12 -2.24744e+12 -1.92252e+12 -1.49225e+12 -1.54743e+12 -1.07855e+12 -2.4664e+12 -2.38386e+12 -1.58792e+12 -3.0893e+12 -2.55949e+12 -3.68729e+12 -2.60185e+12 -2.45927e+12 -2.11527e+12 -4.35056e+12 -3.35875e+12 -2.55526e+12 -1.16047e+12 -4.43351e+12 -3.60745e+12 -2.56639e+12 -3.72548e+12 -3.91915e+12 -2.40198e+12 -2.34093e+12 -1.89486e+12 -1.86621e+12 -1.76431e+12 -1.51312e+12 -1.45186e+12 -1.52887e+12 -2.06321e+12 -1.21868e+12 -3.8374e+12 -351208000000.0 -1.69073e+12 -3.52055e+12 -2.18809e+12 -1.08661e+12 -3.36635e+12 -715238000000.0 -14402300000.0 -20082400000.0 -12978400000.0 -12549700000.0 -12619500000.0 -18092600000.0 -13802000000.0 -16134100000.0 -14857600000.0 -20513200000.0 -12549700000.0 -12549700000.0 -12549700000.0 -45456400000.0 -21544000000.0 -41338300000.0 -73158900000.0 -25639000000.0 -64209600000.0 -1.38024e+12 -2.97136e+12 -2.26929e+12 -4.28257e+12 -2.21352e+12 -2.72652e+12 -1.60792e+12 -1.77244e+12 -2.0017e+12 -2.59773e+12 -1.01296e+12 -2.78251e+12 -1.28825e+12 -1.63268e+12 -2.37274e+12 -1.87174e+12 -2.91793e+12 -2.90448e+12 -2.0114e+12 -2.12167e+12 -1.92433e+12 -3.93678e+12 -2.79744e+12 -3.79054e+12 -2.51234e+12 -3.11869e+12 -2.46985e+12 -2.61228e+12 -2.19182e+12 -3.10114e+12 -2.48206e+12 -1.98807e+12 -2.40376e+12 -3.45687e+12 -3.18878e+12 -1.72603e+12 -3.11056e+12 -2.81041e+12 -1.8662e+12 -1.77788e+12 -1.91889e+12 -1.42582e+12 -2.11152e+12 -983280000000.0 -1.37699e+12 -1.57527e+12 -1.65422e+12 -1.13178e+12 -628854000000.0 -1.54158e+12 -1.85227e+12 -1.31263e+12 -1.12114e+12 -1.10635e+12 -1.90387e+12 -1.40282e+12 -1.32959e+12 -1.13905e+12 -1.37695e+12 -1.76611e+12 -2.31261e+12 -716183000000.0 -2.09079e+12 -1.64497e+12 -1.34876e+12 -1.07885e+12 -684498000000.0 -438668000000.0 -2.60439e+12 -1.91215e+12 -2.00022e+12 -1.20001e+12 -2.4167e+12 -1.16461e+12 -1.78299e+12 -1.43346e+12 -1.92644e+12 -1.36308e+12 -1.64152e+12 -889972000000.0 -2.94492e+12 -2.38242e+12 -1.73039e+12 -653149000000.0 -1.09124e+12 -1.09063e+12 -1.35706e+12 -2.24234e+12 -1.308e+12 -2.40198e+12 -1.25186e+12 -1.32337e+12 -2.02639e+12 -1.3928e+12 -1.0659e+12 -1.62151e+12 -2.09663e+12 -13857300000.0 -15942600000.0 -24676700000.0 -27867300000.0 -22884700000.0 -13543700000.0 -22018700000.0 -902517000000.0 -1.13412e+12 -1.49756e+12 -1.94362e+12 -1.98249e+12 -1.47206e+12 -2.72997e+12 -1.25295e+12 -2.21763e+12 -1.48502e+12 -2.58074e+12 -1.94511e+12 -1.67729e+12 -1.11955e+12 -1.97223e+12 -1.06173e+12 -1.04056e+12 -1.34154e+12 -1.54242e+12 -1.87206e+12 -3.43551e+12 -2.35022e+12 -3.09973e+12 -2.51749e+12 -2.04249e+12 -1.54188e+12 -1.44164e+12 -1.10832e+12 -2.0892e+12 -1.82258e+12 -1.38749e+12 -1.75945e+12 -2.27395e+12 -1.56813e+12 -1.09046e+12 -2.00766e+12 -2.38542e+12 -3.29367e+12 -2.94343e+12 -2.81303e+12 -1.27664e+12 -1.83629e+12 -1.19907e+12 -2.29605e+12 -1.30731e+12 -803183000000.0 -1.92742e+12 -258754000000.0 -1.97839e+12 -339934000000.0 -1.12054e+12 -1.87542e+12 -1.77277e+12 -711310000000.0 -988562000000.0 -1.25652e+12 -980800000000.0 -1.2661e+12 -1.32967e+12 -1.14114e+12 -2.22465e+12 -1.4122e+12 -1.48667e+12 -1.20238e+12 -1.69323e+12 -400011000000.0 -2.47801e+12 -1.39822e+12 -978970000000.0 -1.58297e+12 -1.52867e+12 -577142000000.0 -799696000000.0 -1.03803e+12 -1.44036e+12 -1.821e+12 -1.22091e+12 -868755000000.0 -1.15613e+12 -219505000000.0 -757546000000.0 -2.23171e+12 -1.76649e+12 -1.52349e+12 -1.55707e+12 -1.91803e+12 -330212000000.0 -757896000000.0 -1.36315e+12 -846673000000.0 -1.10431e+12 -522640000000.0 -405975000000.0 -785425000000.0 -2.1768e+12 -879526000000.0 -1.79781e+12 -1.01452e+12 -1.32217e+12 -2.14891e+12 -1.26957e+12 -2.42216e+12 -1.242e+12 -1.19695e+12 -1.36794e+12 -2.27147e+12 -1.2219e+12 -1.73905e+12 -789063000000.0 -1.60257e+12 -1.3894e+12 -736352000000.0 -1.00652e+12 -971520000000.0 -1.55275e+12 -933094000000.0 -1.27298e+12 -1.08357e+12 -933498000000.0 -2.14321e+12 -1.82002e+12 -1.95241e+12 -1.29732e+12 -901714000000.0 -1.48359e+12 -1.20667e+12 -953271000000.0 -2.32812e+12 -1.63629e+12 -1.40288e+12 -1.51767e+12 -1.06771e+12 -815085000000.0 -619693000000.0 -972053000000.0 -812088000000.0 -172630000000.0 -968055000000.0 -268124000000.0 -635050000000.0 -442975000000.0 -576533000000.0 -1.02121e+12 -791373000000.0 -267590000000.0 -555151000000.0 -421451000000.0 -820525000000.0 -361425000000.0 -755544000000.0 -909829000000.0 -584839000000.0 -1.19258e+12 -440693000000.0 -774358000000.0 -1.02687e+12 -916756000000.0 -1.11164e+12 -551433000000.0 -769672000000.0 -687271000000.0 -385422000000.0 -826788000000.0 -386552000000.0 -739130000000.0 -457760000000.0 -701310000000.0 -57363300000.0 -599574000000.0 -718532000000.0 -957726000000.0 -918102000000.0 -464800000000.0 -238870000000.0 -340118000000.0 -192833000000.0 -650254000000.0 -408375000000.0 -360790000000.0 -1.17298e+12 -378662000000.0 -1.07555e+12 -1.49574e+12 -1.73971e+12 -454143000000.0 -1.8227e+12 -483579000000.0 -1.03222e+12 -417055000000.0 -603172000000.0 -1.13852e+12 -739223000000.0 -1.01074e+12 -620483000000.0 -1.0128e+12 -1.42694e+12 -864608000000.0 -1.32787e+12 -917359000000.0 -369104000000.0 -593269000000.0 -547612000000.0 -411215000000.0 -189375000000.0 -749211000000.0 -735541000000.0 -980572000000.0 -409318000000.0 -772484000000.0 -1.0287e+12 -646406000000.0 -504438000000.0 -507373000000.0 -320355000000.0 -485324000000.0 -1.48835e+12 -424874000000.0 -797986000000.0 -1.27216e+12 -221446000000.0 -65867700000.0 -561152000000.0 -345920000000.0 -205134000000.0 -205200000000.0 -221402000000.0 -340127000000.0 -300678000000.0 -130842000000.0 -266772000000.0 -270949000000.0 -349002000000.0 -134311000000.0 -239091000000.0 -152426000000.0 -92800200000.0 -93538800000.0 -385766000000.0 -369566000000.0 -168814000000.0 -209898000000.0 -143813000000.0 -496862000000.0 -192471000000.0 -511310000000.0 -204662000000.0 -99341300000.0 -363022000000.0 -494423000000.0 -352035000000.0 -278099000000.0 -302709000000.0 -138099000000.0 -290243000000.0 -341834000000.0 -76711300000.0 -152068000000.0 -135755000000.0 -201322000000.0 -227046000000.0 -217182000000.0 -147406000000.0 -225809000000.0 -360148000000.0 -373889000000.0 -351743000000.0 -179709000000.0 -191105000000.0 -147978000000.0 -367937000000.0 -333051000000.0 -377916000000.0 -267899000000.0 -119669000000.0 -162078000000.0 -104839000000.0 