# vtk DataFile Version 2.0
Time step 27
ASCII
DATASET UNSTRUCTURED_GRID
POINTS 5000 float
27671.0 154262.0 0
372011.0 154357.0 0
403648.0 154746.0 0
2398.26 157349.0 0
8526.0 156725.0 0
12438.8 156558.0 0
16747.5 155876.0 0
22243.6 157520.0 0
33198.5 156948.0 0
38181.0 157531.0 0
42699.8 157679.0 0
47474.0 157590.0 0
52137.1 157685.0 0
57005.3 156526.0 0
62763.5 157601.0 0
67994.7 157734.0 0
72702.0 156869.0 0
77500.0 157614.0 0
82500.0 157603.0 0
87407.8 156902.0 0
92500.0 157641.0 0
97193.7 157662.0 0
101293.0 157579.0 0
105947.0 156972.0 0
111936.0 157450.0 0
117850.0 157633.0 0
123330.0 157710.0 0
128344.0 157831.0 0
133427.0 157080.0 0
138123.0 157763.0 0
142500.0 157684.0 0
147500.0 157618.0 0
152501.0 157588.0 0
157589.0 157217.0 0
162560.0 157372.0 0
167011.0 156916.0 0
171831.0 155799.0 0
177734.0 155837.0 0
182939.0 155022.0 0
187394.0 156875.0 0
192499.0 158036.0 0
196081.0 157200.0 0
201748.0 156560.0 0
207651.0 157323.0 0
212985.0 156662.0 0
218128.0 157744.0 0
222480.0 157757.0 0
225796.0 156992.0 0
230434.0 156862.0 0
235810.0 157857.0 0
241170.0 156562.0 0
246501.0 158564.0 0
252679.0 156546.0 0
259051.0 157023.0 0
263773.0 158109.0 0
268741.0 157022.0 0
273936.0 157317.0 0
278881.0 155965.0 0
282030.0 159297.0 0
286326.0 157605.0 0
291718.0 158062.0 0
297319.0 155930.0 0
303663.0 156719.0 0
307732.0 159288.0 0
312126.0 157138.0 0
317928.0 157764.0 0
323244.0 157663.0 0
327580.0 157931.0 0
332205.0 157530.0 0
337222.0 157240.0 0
341019.0 158450.0 0
345896.0 156788.0 0
350688.0 158706.0 0
355262.0 157698.0 0
361816.0 156333.0 0
367953.0 157673.0 0
377030.0 156329.0 0
382609.0 157200.0 0
388131.0 156498.0 0
394018.0 155814.0 0
399198.0 157487.0 0
408586.0 155956.0 0
412475.0 157605.0 0
417500.0 157647.0 0
422737.0 155761.0 0
427272.0 157470.0 0
432480.0 155276.0 0
437537.0 157624.0 0
442091.0 156566.0 0
446253.0 156146.0 0
450666.0 156915.0 0
455210.0 156860.0 0
460242.0 156708.0 0
465794.0 157089.0 0
471629.0 156347.0 0
477063.0 155150.0 0
481306.0 158012.0 0
485844.0 155078.0 0
491674.0 156618.0 0
497601.0 155111.0 0
2284.04 162375.0 0
6058.24 160048.0 0
11083.9 161075.0 0
17328.9 161779.0 0
23001.1 163037.0 0
28514.8 160614.0 0
34965.0 162222.0 0
40337.4 162541.0 0
44460.1 162883.0 0
48275.1 161586.0 0
52500.0 162645.0 0
57994.2 161967.0 0
62849.1 162700.0 0
67505.2 162372.0 0
72118.4 161989.0 0
77500.0 162772.0 0
82116.1 162418.0 0
87907.5 161659.0 0
92500.0 162781.0 0
97184.2 162414.0 0
102467.0 162314.0 0
108243.0 161564.0 0
112500.0 162717.0 0
117500.0 162798.0 0
122500.0 162721.0 0
127727.0 162265.0 0
132493.0 162615.0 0
137520.0 162630.0 0
142774.0 162107.0 0
146929.0 162455.0 0
151940.0 162333.0 0
156864.0 161267.0 0
161299.0 162088.0 0
166512.0 161588.0 0
172971.0 161368.0 0
178375.0 161249.0 0
183532.0 160090.0 0
188603.0 161321.0 0
193570.0 162181.0 0
198250.0 161546.0 0
203920.0 162180.0 0
213693.0 161212.0 0
209356.0 162396.0 0
217603.0 162815.0 0
222034.0 162585.0 0
226804.0 161227.0 0
232208.0 162284.0 0
237689.0 163107.0 0
243286.0 162938.0 0
248459.0 162639.0 0
252675.0 163108.0 0
257260.0 161660.0 0
262325.0 162286.0 0
267068.0 161867.0 0
271617.0 161176.0 0
277065.0 161580.0 0
282828.0 162983.0 0
287500.0 162695.0 0
292908.0 162554.0 0
298247.0 161441.0 0
303116.0 162389.0 0
307444.0 162581.0 0
312501.0 162889.0 0
317486.0 162640.0 0
322435.0 162132.0 0
327500.0 162675.0 0
332500.0 162747.0 0
337712.0 162084.0 0
343306.0 161476.0 0
347748.0 161880.0 0
352667.0 162598.0 0
361444.0 161646.0 0
357759.0 162118.0 0
365118.0 161348.0 0
372929.0 161158.0 0
378821.0 160879.0 0
382006.0 162017.0 0
388372.0 161586.0 0
393551.0 161960.0 0
402995.0 160945.0 0
398134.0 162394.0 0
408384.0 160236.0 0
412861.0 161547.0 0
417516.0 162161.0 0
422127.0 160397.0 0
428321.0 162414.0 0
433424.0 160510.0 0
437509.0 162691.0 0
443214.0 160849.0 0
447600.0 160155.0 0
451943.0 161394.0 0
457173.0 161589.0 0
462428.0 163069.0 0
466600.0 161659.0 0
470193.0 162838.0 0
475182.0 161639.0 0
480798.0 163287.0 0
486590.0 161270.0 0
492078.0 163520.0 0
496837.0 160621.0 0
2238.62 168285.0 0
6741.12 165094.0 0
11844.7 166911.0 0
16324.4 166987.0 0
20503.6 167001.0 0
27039.0 167447.0 0
32613.5 167282.0 0
38258.6 167053.0 0
42965.7 167436.0 0
47585.0 166307.0 0
51797.9 168069.0 0
56551.6 167587.0 0
62112.1 167565.0 0
67694.2 167216.0 0
73696.8 167532.0 0
78211.4 167969.0 0
81954.8 167144.0 0
86960.6 167175.0 0
92531.5 167532.0 0
97548.2 166933.0 0
102630.0 168076.0 0
107924.0 166343.0 0
116732.0 167402.0 0
112495.0 167617.0 0
120857.0 167252.0 0
125865.0 166633.0 0
131159.0 168331.0 0
136446.0 168282.0 0
140994.0 166229.0 0
146308.0 167346.0 0
151836.0 168946.0 0
156246.0 165827.0 0
161704.0 167778.0 0
166529.0 169598.0 0
169998.0 166155.0 0
176294.0 167007.0 0
182187.0 165229.0 0
188049.0 167483.0 0
194262.0 167207.0 0
199973.0 166651.0 0
208110.0 167301.0 0
204288.0 167647.0 0
213299.0 166023.0 0
217709.0 167749.0 0
222564.0 166860.0 0
226873.0 166232.0 0
232446.0 167749.0 0
237424.0 167533.0 0
241794.0 168186.0 0
246845.0 166709.0 0
251788.0 168000.0 0
257734.0 166413.0 0
262716.0 167064.0 0
267484.0 166322.0 0
273042.0 166420.0 0
279881.0 165634.0 0
283558.0 167917.0 0
287220.0 167987.0 0
291021.0 166864.0 0
296738.0 166486.0 0
302237.0 167625.0 0
307703.0 167011.0 0
313210.0 168135.0 0
318192.0 167131.0 0
322511.0 166137.0 0
326813.0 168022.0 0
336510.0 166748.0 0
331857.0 167744.0 0
341412.0 165682.0 0
346843.0 166267.0 0
351892.0 167434.0 0
356026.0 165990.0 0
361258.0 166347.0 0
357350.0 169947.0 0
366513.0 165430.0 0
366555.0 170122.0 0
371102.0 167299.0 0
377674.0 166814.0 0
384356.0 165354.0 0
392422.0 166783.0 0
388339.0 168544.0 0
397215.0 166742.0 0
402856.0 167186.0 0
409240.0 165881.0 0
414408.0 168438.0 0
419138.0 166852.0 0
424116.0 165216.0 0
427680.0 168252.0 0
432245.0 166133.0 0
437337.0 166880.0 0
442351.0 166085.0 0
448267.0 165226.0 0
454169.0 166800.0 0
458984.0 167843.0 0
463176.0 167609.0 0
467516.0 167727.0 0
472372.0 166161.0 0
477750.0 167116.0 0
482620.0 167983.0 0
487505.0 169079.0 0
491507.0 167581.0 0
496592.0 167191.0 0
2182.12 172699.0 0
8050.3 170934.0 0
13471.2 171535.0 0
17751.4 170832.0 0
22415.8 171376.0 0
26984.0 173373.0 0
32066.8 171569.0 0
37583.7 172257.0 0
43199.4 172499.0 0
49063.1 171097.0 0
53807.2 172767.0 0
59221.3 172265.0 0
63615.8 171896.0 0
68065.0 172890.0 0
72603.0 172407.0 0
77068.9 171892.0 0
82136.3 172165.0 0
87334.1 172349.0 0
92269.5 172861.0 0
97732.9 172285.0 0
102768.0 173536.0 0
107686.0 171841.0 0
113111.0 171947.0 0
118137.0 171879.0 0
123418.0 171239.0 0
127500.0 172796.0 0
137738.0 172197.0 0
132689.0 173160.0 0
142523.0 172348.0 0
148001.0 171956.0 0
156827.0 171227.0 0
153415.0 173601.0 0
160406.0 172591.0 0
164429.0 173300.0 0
170842.0 172184.0 0
177033.0 173575.0 0
182233.0 170708.0 0
186625.0 173117.0 0
191647.0 172608.0 0
197223.0 171935.0 0
203054.0 171791.0 0
208747.0 173648.0 0
214360.0 171693.0 0
218719.0 172992.0 0
222029.0 171118.0 0
227513.0 171781.0 0
234325.0 172132.0 0
237865.0 170859.0 0
241756.0 172789.0 0
246219.0 171895.0 0
251520.0 173258.0 0
255875.0 171131.0 0
260340.0 170802.0 0
262640.0 174376.0 0
266356.0 171007.0 0
271761.0 172690.0 0
278362.0 171136.0 0
284358.0 172657.0 0
288760.0 171142.0 0
292984.0 172858.0 0
298942.0 172787.0 0
303985.0 173015.0 0
307500.0 172839.0 0
316248.0 171848.0 0
312166.0 172658.0 0
321070.0 171378.0 0
325847.0 172953.0 0
329891.0 171569.0 0
334358.0 173558.0 0
339780.0 171074.0 0
346087.0 172521.0 0
352843.0 173009.0 0
361675.0 172337.0 0
367107.0 175029.0 0
371934.0 172931.0 0
377880.0 174263.0 0
382814.0 170870.0 0
387369.0 172728.0 0
393045.0 173449.0 0
399509.0 172357.0 0
408060.0 171232.0 0
404318.0 172380.0 0
412351.0 172906.0 0
416951.0 172236.0 0
421363.0 173497.0 0
425651.0 171877.0 0
431058.0 172324.0 0
437118.0 171075.0 0
441817.0 171672.0 0
446530.0 170228.0 0
450852.0 170738.0 0
455416.0 172568.0 0
461210.0 172267.0 0
466985.0 172055.0 0
472601.0 171120.0 0
478852.0 172615.0 0
484710.0 173122.0 0
489147.0 173848.0 0
492123.0 171439.0 0
496754.0 173833.0 0
1482.49 177385.0 0
7148.54 177240.0 0
11897.5 175272.0 0
12665.8 179777.0 0
17157.4 176010.0 0
23048.1 176760.0 0
30220.7 176109.0 0
28645.7 180155.0 0
34871.7 176902.0 0
39760.4 176320.0 0
43675.7 178161.0 0
48572.4 176320.0 0
53129.4 178762.0 0
57210.6 176657.0 0
63069.2 176671.0 0
68316.3 178065.0 0
73396.5 176466.0 0
78297.3 177041.0 0
83588.7 177106.0 0
88393.0 177168.0 0
92504.0 177704.0 0
97237.6 177700.0 0
101196.0 177762.0 0
105586.0 177357.0 0
111305.0 176531.0 0
116639.0 177138.0 0
122097.0 176429.0 0
126929.0 176848.0 0
131217.0 177541.0 0
136576.0 176747.0 0
142211.0 178042.0 0
147010.0 176233.0 0
151799.0 178168.0 0
157939.0 177157.0 0
167049.0 176172.0 0
163661.0 177786.0 0
171004.0 178192.0 0
176729.0 179866.0 0
182933.0 177626.0 0
193693.0 176693.0 0
189204.0 177526.0 0
198249.0 177823.0 0
203174.0 176891.0 0
207323.0 179028.0 0
212117.0 177898.0 0
216322.0 176309.0 0
221178.0 176640.0 0
226330.0 178417.0 0
231985.0 176636.0 0
237943.0 175594.0 0
242845.0 177439.0 0
248032.0 176974.0 0
252900.0 177286.0 0
257730.0 176313.0 0
262836.0 179955.0 0
267593.0 176955.0 0
272700.0 178574.0 0
278481.0 177791.0 0
283574.0 177243.0 0
288836.0 176462.0 0
293487.0 177455.0 0
297507.0 178832.0 0
302639.0 177321.0 0
307121.0 177680.0 0
311947.0 177398.0 0
316974.0 176281.0 0
322303.0 176969.0 0
330946.0 177084.0 0
327158.0 177821.0 0
341512.0 176564.0 0
337116.0 177460.0 0
346674.0 178480.0 0
351593.0 178664.0 0
357891.0 176521.0 0
362980.0 177311.0 0
370175.0 178470.0 0
374551.0 178493.0 0
383269.0 176888.0 0
388203.0 176910.0 0
392171.0 179695.0 0
397896.0 178292.0 0
403057.0 176357.0 0
408164.0 176082.0 0
414678.0 176550.0 0
417926.0 177794.0 0
422492.0 178359.0 0
427476.0 176336.0 0
431248.0 177753.0 0
436114.0 176056.0 0
441984.0 177333.0 0
448320.0 175743.0 0
454020.0 177724.0 0
459437.0 177873.0 0
464973.0 177154.0 0
473880.0 176338.0 0
469638.0 178004.0 0
477659.0 179405.0 0
481987.0 177571.0 0
486774.0 177460.0 0
492177.0 178016.0 0
497457.0 179569.0 0
2748.99 181423.0 0
7839.1 183755.0 0
18086.3 181780.0 0
23742.7 182517.0 0
33626.4 182457.0 0
39127.1 181160.0 0
43735.3 182371.0 0
48683.6 182290.0 0
54173.2 183463.0 0
59714.5 181670.0 0
64866.1 182769.0 0
68285.7 182263.0 0
72215.9 180347.0 0
76321.8 181940.0 0
81943.2 182527.0 0
87888.0 182237.0 0
92638.2 182636.0 0
96907.2 182273.0 0
101491.0 182401.0 0
106437.0 182694.0 0
111043.0 181380.0 0
115384.0 181854.0 0
120869.0 182452.0 0
127440.0 182112.0 0
133299.0 181994.0 0
138724.0 182481.0 0
143742.0 182649.0 0
148387.0 182253.0 0
152800.0 182754.0 0
157000.0 182856.0 0
161440.0 181632.0 0
166774.0 181525.0 0
172237.0 183975.0 0
177077.0 184191.0 0
181361.0 184238.0 0
186880.0 182524.0 0
192409.0 182034.0 0
197842.0 183531.0 0
202627.0 181465.0 0
206629.0 183638.0 0
210632.0 182428.0 0
216382.0 182204.0 0
222684.0 182291.0 0
228326.0 183961.0 0
233994.0 185116.0 0
236023.0 180580.0 0
240945.0 183013.0 0
246429.0 183563.0 0
250911.0 181438.0 0
256770.0 182520.0 0
268275.0 182319.0 0
272895.0 183470.0 0
277853.0 183800.0 0
282085.0 181174.0 0
287110.0 182548.0 0
293046.0 181873.0 0
297885.0 184184.0 0
301873.0 181247.0 0
306179.0 183160.0 0
311438.0 183123.0 0
316869.0 181406.0 0
322343.0 182889.0 0
328009.0 182434.0 0
333890.0 181318.0 0
337539.0 184729.0 0
342217.0 182541.0 0
347993.0 183240.0 0
355564.0 180792.0 0
352304.0 182941.0 0
356020.0 185388.0 0
360526.0 182058.0 0
366522.0 182160.0 0
372532.0 183431.0 0
378554.0 181845.0 0
383428.0 181026.0 0
387247.0 181383.0 0
390747.0 184333.0 0
396048.0 184116.0 0
400405.0 182587.0 0
405315.0 181597.0 0
411968.0 180670.0 0
417772.0 182546.0 0
422963.0 183227.0 0
427283.0 180589.0 0
432233.0 182336.0 0
437080.0 181386.0 0
441850.0 182939.0 0
447110.0 181910.0 0
452641.0 182915.0 0
458109.0 183237.0 0
462539.0 182828.0 0
466552.0 181834.0 0
471811.0 182567.0 0
476952.0 184126.0 0
482254.0 182927.0 0
487737.0 182308.0 0
492472.0 183862.0 0
497460.0 184652.0 0
3055.78 187222.0 0
8750.4 189642.0 0
13606.3 185624.0 0
18375.6 189360.0 0
23876.5 188217.0 0
28778.1 185498.0 0
33716.3 188161.0 0
38536.4 186346.0 0
43265.1 186628.0 0
49666.9 187181.0 0
53684.0 188209.0 0
58564.6 187538.0 0
63414.8 186717.0 0
67005.8 187175.0 0
68682.7 190460.0 0
71706.5 185683.0 0
77977.3 187263.0 0
83400.7 188608.0 0
88020.2 187270.0 0
93069.3 187255.0 0
97998.5 186743.0 0
105785.0 187130.0 0
102079.0 188390.0 0
110768.0 186731.0 0
116644.0 186632.0 0
126502.0 187365.0 0
122657.0 187928.0 0
131198.0 186692.0 0
135224.0 188515.0 0
139752.0 188031.0 0
145108.0 187241.0 0
150854.0 187301.0 0
156887.0 188213.0 0
162038.0 186294.0 0
167182.0 186622.0 0
171463.0 189299.0 0
176186.0 187917.0 0
180975.0 189840.0 0
185797.0 187809.0 0
191579.0 187914.0 0
197330.0 189061.0 0
202642.0 186905.0 0
207607.0 187659.0 0
212134.0 186810.0 0
217211.0 188591.0 0
223346.0 188260.0 0
228977.0 189956.0 0
233408.0 189582.0 0
238458.0 188773.0 0
243834.0 188062.0 0
248980.0 187676.0 0
252369.0 185725.0 0
255543.0 188620.0 0
262543.0 187123.0 0
268734.0 187288.0 0
273493.0 188016.0 0
278387.0 189189.0 0
282796.0 186554.0 0
287972.0 188544.0 0
293219.0 187207.0 0
297717.0 189458.0 0
302612.0 187093.0 0
308391.0 188073.0 0
313173.0 187669.0 0
317437.0 187154.0 0
325885.0 186453.0 0
322191.0 188463.0 0
329983.0 187590.0 0
335047.0 188138.0 0
340313.0 188545.0 0
345931.0 189282.0 0
351094.0 187412.0 0
360822.0 187933.0 0
366444.0 187904.0 0
371149.0 188367.0 0
377231.0 189091.0 0
383505.0 185472.0 0
387812.0 188651.0 0
392752.0 188668.0 0
398358.0 189632.0 0
403885.0 187632.0 0
409492.0 186267.0 0
414466.0 186532.0 0
417763.0 186681.0 0
416999.0 190408.0 0
420951.0 187037.0 0
427631.0 187094.0 0
433307.0 186699.0 0
437893.0 186363.0 0
442657.0 187830.0 0
448518.0 187794.0 0
453997.0 187781.0 0
458539.0 188206.0 0
462990.0 187982.0 0
467794.0 186812.0 0
472983.0 188311.0 0
479973.0 188036.0 0
484300.0 187883.0 0
488539.0 187435.0 0
492627.0 188017.0 0
497771.0 189412.0 0
2142.5 193115.0 0
13670.7 193263.0 0
18600.2 194301.0 0
22339.4 192701.0 0
27486.5 193135.0 0
32324.7 192411.0 0
37265.0 192962.0 0
42434.8 194275.0 0
46372.3 190986.0 0
51404.7 193377.0 0
57395.8 193668.0 0
63639.8 191886.0 0
73552.0 193526.0 0
79815.4 192743.0 0
85119.2 193528.0 0
90123.7 191753.0 0
95032.9 193613.0 0
98596.2 190920.0 0
101290.0 194273.0 0
105634.0 191639.0 0
111333.0 193069.0 0
118208.0 192202.0 0
123816.0 192456.0 0
128389.0 190782.0 0
133270.0 192857.0 0
137792.0 191969.0 0
141901.0 192826.0 0
147421.0 192552.0 0
152992.0 192510.0 0
157247.0 194121.0 0
161790.0 191863.0 0
167147.0 191593.0 0
170764.0 193330.0 0
176885.0 192910.0 0
182325.0 194660.0 0
186891.0 192835.0 0
191541.0 193218.0 0
196353.0 194509.0 0
201635.0 192380.0 0
207162.0 192628.0 0
212997.0 192330.0 0
219803.0 193677.0 0
224913.0 193580.0 0
228655.0 194050.0 0
232778.0 193360.0 0
236992.0 194015.0 0
242094.0 192306.0 0
246551.0 192041.0 0
251474.0 191630.0 0
257766.0 193889.0 0
262740.0 193196.0 0
268252.0 192905.0 0
274069.0 192976.0 0
279360.0 194712.0 0
284557.0 192602.0 0
289707.0 193479.0 0
293303.0 191592.0 0
296546.0 194383.0 0
302315.0 192798.0 0
307427.0 193341.0 0
312021.0 191839.0 0
316759.0 191749.0 0
321327.0 193595.0 0
326423.0 192045.0 0
331730.0 192549.0 0
337285.0 193835.0 0
342892.0 193878.0 0
346840.0 193849.0 0
351171.0 192587.0 0
356396.0 190947.0 0
361686.0 194037.0 0
366981.0 192775.0 0
371663.0 192849.0 0
382207.0 193015.0 0
386899.0 193374.0 0
391455.0 193176.0 0
395531.0 193931.0 0
400535.0 194739.0 0
405868.0 193405.0 0
411611.0 191787.0 0
417175.0 195535.0 0
422637.0 192030.0 0
428260.0 193177.0 0
432997.0 191343.0 0
438721.0 192010.0 0
444695.0 192715.0 0
450506.0 194469.0 0
455665.0 192176.0 0
461367.0 193078.0 0
468716.0 192038.0 0
465828.0 194717.0 0
473164.0 193877.0 0
477807.0 192551.0 0
482450.0 192711.0 0
486598.0 191596.0 0
490654.0 192037.0 0
495008.0 193394.0 0
2239.97 197688.0 0
7229.67 195716.0 0
12437.3 199325.0 0
18045.3 198756.0 0
23271.7 197553.0 0
29072.2 199109.0 0
32589.2 195885.0 0
35957.8 198768.0 0
40997.7 198497.0 0
46998.8 197465.0 0
52812.1 198112.0 0
57599.8 199828.0 0
62191.7 197279.0 0
67959.4 197345.0 0
73647.6 200232.0 0
78090.3 197341.0 0
82805.2 198249.0 0
88771.8 198064.0 0
93969.1 198459.0 0
97842.7 196977.0 0
101250.0 198558.0 0
105727.0 197131.0 0
110243.0 198504.0 0
115522.0 198080.0 0
121624.0 197286.0 0
128115.0 196821.0 0
137501.0 195915.0 0
133715.0 197692.0 0
142031.0 198093.0 0
148122.0 199132.0 0
153548.0 197329.0 0
157986.0 198300.0 0
163106.0 197701.0 0
173358.0 196576.0 0
168442.0 196863.0 0
177763.0 197352.0 0
181597.0 199232.0 0
186464.0 198102.0 0
191580.0 197729.0 0
195894.0 200259.0 0
201127.0 197972.0 0
207149.0 198693.0 0
212101.0 197262.0 0
216817.0 198465.0 0
221593.0 199291.0 0
226068.0 198109.0 0
231020.0 197400.0 0
235876.0 198653.0 0
241284.0 197217.0 0
246729.0 196978.0 0
252428.0 197142.0 0
257588.0 199131.0 0
263728.0 198698.0 0
269621.0 198566.0 0
274599.0 197956.0 0
279907.0 200057.0 0
284004.0 197060.0 0
288592.0 198495.0 0
292651.0 196906.0 0
298727.0 199103.0 0
303647.0 197757.0 0
307796.0 197672.0 0
312315.0 197067.0 0
317591.0 196772.0 0
323363.0 198581.0 0
328009.0 196708.0 0
332713.0 197660.0 0
337418.0 199148.0 0
341927.0 197806.0 0
345491.0 197564.0 0
349531.0 196781.0 0
355341.0 197151.0 0
360676.0 199225.0 0
366498.0 197495.0 0
373430.0 197998.0 0
378343.0 195697.0 0
378300.0 200193.0 0
383175.0 198658.0 0
388080.0 197777.0 0
392589.0 197546.0 0
397121.0 197787.0 0
408063.0 198162.0 0
403359.0 198886.0 0
412519.0 197032.0 0
421028.0 197581.0 0
425378.0 197213.0 0
431956.0 196991.0 0
437687.0 198250.0 0
443672.0 198297.0 0
454494.0 197425.0 0
458789.0 198369.0 0
463931.0 198191.0 0
469292.0 197512.0 0
474370.0 198419.0 0
479087.0 197439.0 0
483698.0 199112.0 0
486603.0 195800.0 0
491400.0 197869.0 0
497411.0 198013.0 0
2125.94 202054.0 0
6956.59 201593.0 0
12571.2 204733.0 0
16006.3 202759.0 0
20035.0 203038.0 0
24882.5 202804.0 0
32214.6 203472.0 0
37669.6 204373.0 0
43313.2 202925.0 0
48682.0 203460.0 0
53574.3 202637.0 0
57451.5 204738.0 0
62542.2 202514.0 0
67219.1 202599.0 0
71130.6 205001.0 0
79090.1 202863.0 0
84533.8 202850.0 0
88598.2 203100.0 0
92508.1 202555.0 0
97467.5 201368.0 0
102447.0 202983.0 0
107193.0 201883.0 0
111837.0 202667.0 0
117995.0 203587.0 0
123249.0 202518.0 0
127768.0 202209.0 0
132821.0 202762.0 0
138524.0 202020.0 0
143145.0 202920.0 0
151877.0 202918.0 0
147994.0 205107.0 0
156564.0 203131.0 0
161568.0 202634.0 0
166876.0 201738.0 0
173249.0 202797.0 0
178607.0 202945.0 0
183539.0 203880.0 0
189461.0 202950.0 0
193911.0 204082.0 0
199741.0 202982.0 0
203874.0 203564.0 0
208364.0 203832.0 0
212779.0 201912.0 0
219055.0 203217.0 0
223358.0 202781.0 0
227641.0 202810.0 0
232480.0 202122.0 0
237750.0 203102.0 0
242309.0 203548.0 0
246714.0 201815.0 0
251888.0 203394.0 0
257453.0 203428.0 0
262301.0 204922.0 0
267697.0 202753.0 0
271765.0 202329.0 0
276112.0 202786.0 0
284272.0 201473.0 0
288566.0 203734.0 0
293589.0 201449.0 0
298809.0 203863.0 0
302632.0 202681.0 0
306696.0 201546.0 0
311690.0 202759.0 0
316842.0 201606.0 0
321342.0 203500.0 0
324885.0 202473.0 0
328698.0 201419.0 0
334157.0 203283.0 0
339613.0 203046.0 0
344152.0 201778.0 0
350109.0 202437.0 0
356722.0 203994.0 0
363261.0 203889.0 0
369403.0 202287.0 0
374928.0 203318.0 0
379748.0 204162.0 0
384039.0 204262.0 0
388083.0 202276.0 0
393158.0 202617.0 0
397932.0 201965.0 0
401996.0 203213.0 0
406601.0 202787.0 0
412751.0 202927.0 0
418444.0 200959.0 0
423551.0 202365.0 0
428723.0 201016.0 0
433884.0 203483.0 0
440196.0 204412.0 0
445499.0 203016.0 0
448660.0 205555.0 0
450714.0 200901.0 0
456143.0 202516.0 0
463205.0 202234.0 0
460059.0 202961.0 0
467453.0 202778.0 0
472542.0 202719.0 0
477866.0 202767.0 0
482745.0 203360.0 0
487590.0 202356.0 0
492464.0 203061.0 0
497811.0 202774.0 0
3067.34 207163.0 0
8544.08 206095.0 0
7505.04 210517.0 0
12199.2 209281.0 0
16413.0 206927.0 0
21303.3 207941.0 0
27456.5 208161.0 0
32652.0 207301.0 0
37777.0 209739.0 0
42287.4 208074.0 0
47947.1 208969.0 0
53255.7 207596.0 0
58926.4 208627.0 0
62499.2 206936.0 0
66930.0 207036.0 0
71364.8 209181.0 0
76179.8 208049.0 0
80897.8 210719.0 0
82344.7 206456.0 0
86386.4 206790.0 0
91248.2 207633.0 0
96597.6 206489.0 0
101326.0 207645.0 0
106450.0 207051.0 0
112397.0 208178.0 0
118079.0 209013.0 0
123223.0 207769.0 0
128382.0 206711.0 0
133236.0 208246.0 0
138696.0 207751.0 0
143900.0 206962.0 0
146820.0 209346.0 0
152637.0 207355.0 0
158010.0 207614.0 0
162828.0 206768.0 0
168108.0 207189.0 0
172595.0 208477.0 0
177250.0 208229.0 0
182430.0 208836.0 0
187090.0 207836.0 0
192268.0 208106.0 0
197937.0 207703.0 0
202911.0 207547.0 0
207317.0 208533.0 0
212055.0 206856.0 0
217207.0 208287.0 0
222466.0 207006.0 0
227447.0 208352.0 0
232448.0 206828.0 0
237078.0 207413.0 0
241381.0 208016.0 0
246115.0 206829.0 0
254533.0 207871.0 0
250355.0 208405.0 0
258831.0 208507.0 0
267459.0 208087.0 0
272509.0 206219.0 0
272471.0 210870.0 0
277236.0 208071.0 0
283177.0 206863.0 0
288194.0 208287.0 0
292744.0 207050.0 0
297354.0 207807.0 0
302076.0 207799.0 0
306872.0 206274.0 0
316042.0 206500.0 0
311364.0 208258.0 0
320407.0 207914.0 0
326141.0 207258.0 0
332575.0 209335.0 0
338275.0 208325.0 0
343321.0 206722.0 0
348140.0 207910.0 0
353186.0 208462.0 0
358609.0 209512.0 0
363215.0 209379.0 0
372381.0 207457.0 0
367631.0 207857.0 0
377383.0 208813.0 0
382023.0 207332.0 0
387356.0 206895.0 0
391817.0 207323.0 0
396398.0 206556.0 0
401415.0 208111.0 0
406564.0 207649.0 0
411923.0 209288.0 0
417746.0 206879.0 0
422243.0 209808.0 0
428005.0 207222.0 0
435862.0 208751.0 0
440095.0 209356.0 0
444892.0 208160.0 0
448961.0 208673.0 0
453282.0 207292.0 0
458564.0 206383.0 0
463263.0 206426.0 0
468255.0 207835.0 0
473568.0 207901.0 0
478469.0 207679.0 0
481966.0 208168.0 0
485394.0 206828.0 0
490347.0 206949.0 0
495339.0 207032.0 0
2829.92 213065.0 0
9647.81 214375.0 0
12512.8 212921.0 0
17152.4 212467.0 0
23574.4 213376.0 0
28502.0 213249.0 0
32902.1 211409.0 0
37935.0 215402.0 0
44152.2 213428.0 0
48944.6 215118.0 0
51662.0 212083.0 0
56217.9 212172.0 0
61490.0 212607.0 0
67356.4 212537.0 0
73108.2 213553.0 0
78018.0 214556.0 0
86726.1 212412.0 0
92879.4 213621.0 0
98371.1 211859.0 0
103679.0 211805.0 0
108525.0 212446.0 0
113662.0 213560.0 0
118715.0 214313.0 0
123563.0 212802.0 0
128431.0 211886.0 0
133086.0 212766.0 0
137600.0 213129.0 0
141646.0 215657.0 0
143075.0 211086.0 0
146707.0 213393.0 0
150635.0 211294.0 0
155608.0 211375.0 0
161150.0 211651.0 0
167133.0 213267.0 0
172930.0 212765.0 0
178056.0 213739.0 0
183643.0 213605.0 0
189255.0 212577.0 0
194197.0 212627.0 0
203778.0 211761.0 0
199080.0 213351.0 0
208281.0 213574.0 0
213125.0 212115.0 0
217849.0 213592.0 0
222500.0 212756.0 0
227501.0 212929.0 0
231406.0 210971.0 0
231621.0 215159.0 0
235380.0 211470.0 0
241018.0 212406.0 0
246235.0 212678.0 0
252675.0 213154.0 0
257745.0 212281.0 0
257368.0 215620.0 0
262640.0 211433.0 0
268628.0 212807.0 0
276634.0 213119.0 0
282626.0 212647.0 0
287933.0 212698.0 0
293353.0 212526.0 0
298035.0 211670.0 0
302170.0 213734.0 0
306754.0 211148.0 0
311387.0 213480.0 0
317157.0 212197.0 0
322872.0 212460.0 0
326694.0 212206.0 0
331450.0 213745.0 0
328123.0 215710.0 0
335624.0 214235.0 0
340785.0 213026.0 0
345201.0 211124.0 0
349873.0 212524.0 0
355440.0 214702.0 0
361534.0 214090.0 0
367137.0 213243.0 0
372553.0 212371.0 0
377574.0 214549.0 0
382868.0 211992.0 0
389037.0 211862.0 0
397260.0 211721.0 0
393429.0 214019.0 0
402357.0 213747.0 0
407523.0 212357.0 0
411981.0 214593.0 0
417003.0 212578.0 0
421585.0 214416.0 0
426097.0 213328.0 0
432032.0 212600.0 0
437816.0 213701.0 0
443168.0 213184.0 0
447802.0 212345.0 0
452669.0 213183.0 0
457765.0 211235.0 0
463142.0 211598.0 0
468208.0 212965.0 0
473095.0 213044.0 0
478109.0 212517.0 0
482750.0 212826.0 0
487716.0 211741.0 0
493264.0 211758.0 0
497794.0 211323.0 0
497557.0 215971.0 0
2515.11 218409.0 0
7264.81 217821.0 0
12109.2 218150.0 0
17583.2 218742.0 0
23404.2 219433.0 0
28798.3 217757.0 0
32710.5 216097.0 0
39397.6 220370.0 0
43269.2 218858.0 0
47704.1 218936.0 0
52877.5 217783.0 0
58202.6 216949.0 0
64161.3 218212.0 0
71369.2 217103.0 0
69251.0 219152.0 0
75115.5 218931.0 0
81047.9 218716.0 0
87052.4 219072.0 0
96749.4 217678.0 0
92018.8 218202.0 0
101921.0 216156.0 0
107424.0 218539.0 0
113364.0 218555.0 0
118426.0 219574.0 0
123400.0 217868.0 0
128618.0 217049.0 0
133599.0 217297.0 0
137997.0 218930.0 0
145478.0 218255.0 0
150730.0 217004.0 0
156818.0 216600.0 0
162660.0 217720.0 0
170992.0 217630.0 0
175344.0 219355.0 0
183155.0 217557.0 0
179612.0 218427.0 0
187234.0 217655.0 0
192611.0 217232.0 0
197960.0 218991.0 0
202931.0 216777.0 0
206819.0 219118.0 0
210971.0 217675.0 0
215637.0 217911.0 0
221225.0 217991.0 0
227170.0 218287.0 0
237601.0 217175.0 0
243860.0 217887.0 0
248913.0 217648.0 0
254156.0 219280.0 0
260306.0 217658.0 0
265513.0 216603.0 0
272402.0 217174.0 0
279496.0 217882.0 0
285573.0 216785.0 0
284046.0 221036.0 0
290268.0 216630.0 0
293624.0 220009.0 0
297342.0 216876.0 0
302296.0 218851.0 0
306866.0 216620.0 0
312362.0 219534.0 0
318331.0 218018.0 0
323490.0 217405.0 0
332373.0 218208.0 0
340961.0 217604.0 0
337067.0 218813.0 0
345708.0 216410.0 0
350929.0 218534.0 0
359286.0 218897.0 0
364347.0 218583.0 0
368942.0 217903.0 0
373329.0 217238.0 0
377201.0 219633.0 0
381325.0 217815.0 0
386956.0 218005.0 0
393344.0 218873.0 0
398517.0 217297.0 0
402902.0 218686.0 0
407763.0 217753.0 0
415872.0 218390.0 0
421174.0 219681.0 0
424601.0 217365.0 0
428967.0 217896.0 0
434134.0 217579.0 0
438734.0 218886.0 0
442783.0 217544.0 0
447714.0 217609.0 0
453041.0 218205.0 0
458328.0 217041.0 0
463616.0 216417.0 0
463590.0 220959.0 0
468164.0 218291.0 0
473604.0 217456.0 0
478154.0 217675.0 0
482812.0 217024.0 0
481093.0 221009.0 0
487500.0 217321.0 0
492502.0 216708.0 0
2475.43 223403.0 0
7678.66 222839.0 0
12006.2 222351.0 0
15774.7 223781.0 0
20838.9 224480.0 0
26806.8 223808.0 0
34060.2 221479.0 0
40045.8 224615.0 0
44696.7 223325.0 0
48750.7 222648.0 0
53055.7 222956.0 0
59504.8 222042.0 0
63883.3 223349.0 0
67603.2 222603.0 0
71688.8 222546.0 0
78275.3 222434.0 0
82475.9 223706.0 0
87143.9 224663.0 0
92002.6 222842.0 0
97003.2 222793.0 0
102131.0 222046.0 0
106970.0 224419.0 0
111123.0 222851.0 0
115818.0 224217.0 0
121101.0 224216.0 0
126571.0 222574.0 0
132454.0 222270.0 0
137140.0 223400.0 0
142292.0 222533.0 0
147729.0 222006.0 0
152626.0 222661.0 0
157520.0 221682.0 0
162024.0 223289.0 0
167210.0 221723.0 0
172467.0 222778.0 0
178176.0 223686.0 0
183463.0 221479.0 0
186109.0 225879.0 0
190422.0 222247.0 0
195408.0 223691.0 0
203347.0 222132.0 0
199778.0 224310.0 0
208196.0 223110.0 0
212582.0 222186.0 0
217687.0 222604.0 0
223417.0 222829.0 0
227737.0 223277.0 0
232777.0 222524.0 0
237962.0 223189.0 0
242267.0 222080.0 0
246595.0 221967.0 0
251481.0 223752.0 0
257651.0 223565.0 0
262647.0 221795.0 0
268084.0 221859.0 0
273557.0 223865.0 0
279486.0 224071.0 0
284962.0 226169.0 0
289106.0 221728.0 0
293844.0 224229.0 0
298798.0 222632.0 0
302783.0 222340.0 0
302679.0 225499.0 0
307488.0 222183.0 0
307430.0 226116.0 0
312817.0 225350.0 0
316379.0 222917.0 0
321286.0 223042.0 0
327592.0 221580.0 0
333593.0 223191.0 0
340751.0 221735.0 0
337881.0 224679.0 0
346461.0 222965.0 0
352476.0 223357.0 0
358047.0 224479.0 0
362683.0 222450.0 0
367602.0 223170.0 0
373234.0 222359.0 0
377755.0 224365.0 0
383126.0 223236.0 0
388877.0 223882.0 0
397595.0 221715.0 0
393913.0 224150.0 0
401990.0 223304.0 0
407548.0 223555.0 0
417745.0 222545.0 0
413350.0 223585.0 0
420750.0 223824.0 0
426072.0 223265.0 0
432059.0 222374.0 0
436726.0 222727.0 0
442763.0 222565.0 0
448811.0 224708.0 0
453405.0 222376.0 0
458502.0 223578.0 0
467775.0 223607.0 0
471815.0 221152.0 0
472243.0 226216.0 0
476444.0 222703.0 0
485648.0 221980.0 0
490700.0 223014.0 0
495991.0 221246.0 0
3207.32 228531.0 0
8254.55 227939.0 0
12759.8 227574.0 0
17403.3 228542.0 0
22003.3 229077.0 0
26224.5 228591.0 0
30943.7 227099.0 0
35922.6 227218.0 0
39999.0 230340.0 0
43624.7 227311.0 0
47749.6 226681.0 0
51802.6 227015.0 0
52666.6 231210.0 0
56823.2 227232.0 0
62572.5 227361.0 0
67163.9 227783.0 0
72513.7 227733.0 0
77985.5 226531.0 0
78841.7 231284.0 0
82532.0 228131.0 0
86299.0 228729.0 0
90161.2 227978.0 0
95223.5 227815.0 0
101126.0 227715.0 0
106557.0 229440.0 0
111797.0 227712.0 0
118328.0 228888.0 0
123276.0 228643.0 0
127622.0 227694.0 0
132212.0 227586.0 0
137229.0 227999.0 0
141705.0 229276.0 0
146464.0 227000.0 0
151571.0 229460.0 0
156135.0 226625.0 0
161837.0 229590.0 0
169288.0 228104.0 0
175979.0 229463.0 0
181610.0 228503.0 0
190985.0 227551.0 0
195746.0 228366.0 0
200527.0 229501.0 0
204948.0 226655.0 0
208472.0 228871.0 0
206299.0 231208.0 0
211649.0 226764.0 0
216534.0 227931.0 0
221733.0 227242.0 0
226726.0 227765.0 0
231980.0 226790.0 0
231005.0 231174.0 0
236092.0 228067.0 0
241466.0 226576.0 0
246792.0 227078.0 0
251444.0 228002.0 0
256164.0 228679.0 0
261542.0 227135.0 0
266307.0 226292.0 0
270627.0 228741.0 0
276601.0 228815.0 0
290166.0 226594.0 0
293739.0 228837.0 0
297268.0 227062.0 0
304642.0 230191.0 0
310148.0 228664.0 0
313932.0 230150.0 0
316960.0 227090.0 0
326191.0 226964.0 0
321556.0 229020.0 0
331837.0 228171.0 0
336680.0 228677.0 0
341772.0 227610.0 0
346614.0 228829.0 0
350384.0 227288.0 0
354414.0 228546.0 0
363426.0 227786.0 0
368534.0 228391.0 0
372660.0 227050.0 0
376994.0 229514.0 0
381268.0 227745.0 0
385755.0 228350.0 0
391600.0 228900.0 0
397809.0 227799.0 0
403440.0 228276.0 0
408197.0 228671.0 0
412658.0 228741.0 0
417330.0 227240.0 0
422296.0 227574.0 0
427069.0 229964.0 0
433143.0 228306.0 0
438895.0 226784.0 0
443934.0 228156.0 0
448491.0 230554.0 0
453759.0 227341.0 0
457902.0 229486.0 0
463031.0 228036.0 0
468105.0 228389.0 0
476524.0 227733.0 0
481584.0 226278.0 0
487398.0 226891.0 0
492244.0 229411.0 0
497269.0 226894.0 0
2743.21 233960.0 0
8043.91 232961.0 0
14926.2 232780.0 0
11766.8 235441.0 0
19914.4 233354.0 0
25334.0 233435.0 0
32696.5 233892.0 0
42529.3 235308.0 0
47198.5 231956.0 0
57752.3 233472.0 0
63749.8 232719.0 0
69577.2 233079.0 0
74692.8 233611.0 0
82761.4 232906.0 0
87411.4 233163.0 0
93076.9 233237.0 0
98831.3 233074.0 0
103892.0 233623.0 0
107221.0 233447.0 0
111637.0 233584.0 0
116408.0 236278.0 0
120391.0 233617.0 0
124178.0 232919.0 0
128409.0 232317.0 0
132875.0 231920.0 0
136857.0 232689.0 0
141100.0 233459.0 0
146521.0 232967.0 0
151900.0 234850.0 0
156635.0 233058.0 0
160672.0 235133.0 0
166706.0 234371.0 0
172254.0 233090.0 0
179233.0 233079.0 0
184126.0 233709.0 0
189308.0 232065.0 0
193663.0 232959.0 0
197500.0 232572.0 0
202955.0 233348.0 0
207405.0 236001.0 0
212285.0 232585.0 0
216835.0 232460.0 0
221002.0 232075.0 0
221747.0 236326.0 0
225767.0 232750.0 0
235671.0 232988.0 0
240566.0 231820.0 0
244752.0 236151.0 0
248388.0 231863.0 0
252581.0 231646.0 0
259993.0 231733.0 0
256077.0 233676.0 0
261849.0 236317.0 0
265482.0 231539.0 0
270072.0 235556.0 0
272924.0 232204.0 0
275661.0 232792.0 0
278038.0 235825.0 0
281967.0 231680.0 0
288345.0 231358.0 0
293484.0 233511.0 0
298770.0 231458.0 0
297203.0 236338.0 0
309169.0 232328.0 0
312951.0 234891.0 0
317704.0 232060.0 0
323357.0 234210.0 0
327792.0 231477.0 0
332500.0 232820.0 0
336868.0 233287.0 0
342201.0 233183.0 0
351672.0 232086.0 0
347208.0 233199.0 0
354421.0 235706.0 0
357646.0 232091.0 0
363234.0 234139.0 0
368505.0 232653.0 0
373399.0 233872.0 0
382580.0 231771.0 0
379106.0 233920.0 0
387082.0 233949.0 0
392325.0 235084.0 0
395893.0 232528.0 0
400749.0 232988.0 0
405935.0 232614.0 0
411228.0 233915.0 0
416963.0 233081.0 0
422188.0 232475.0 0
426356.0 235516.0 0
431393.0 234003.0 0
437982.0 232208.0 0
443846.0 234031.0 0
453585.0 232568.0 0
449067.0 234904.0 0
458358.0 233683.0 0
462247.0 233028.0 0
467275.0 233396.0 0
472251.0 231362.0 0
478248.0 232493.0 0
483449.0 231402.0 0
482526.0 235864.0 0
487733.0 231561.0 0
492452.0 234400.0 0
497108.0 232495.0 0
2122.03 238785.0 0
6631.02 237897.0 0
10876.4 239094.0 0
16446.8 238019.0 0
22139.2 238154.0 0
26811.0 238010.0 0
38038.2 239338.0 0
44037.7 239824.0 0
47182.2 237086.0 0
52162.2 236634.0 0
57346.1 239569.0 0
62695.9 238099.0 0
67630.9 238421.0 0
72733.3 238157.0 0
77869.5 237536.0 0
83358.0 237620.0 0
88731.1 238124.0 0
93486.5 238096.0 0
97429.6 237709.0 0
102461.0 238834.0 0
107419.0 236699.0 0
111803.0 239948.0 0
120439.0 239475.0 0
125862.0 237244.0 0
131750.0 236645.0 0
137382.0 237568.0 0
143322.0 238360.0 0
148473.0 237916.0 0
152887.0 239379.0 0
157309.0 238056.0 0
163252.0 237496.0 0
168105.0 239786.0 0
170863.0 236526.0 0
175911.0 237097.0 0
181669.0 238917.0 0
189129.0 237312.0 0
194260.0 237716.0 0
199452.0 236922.0 0
203612.0 238926.0 0
210863.0 239673.0 0
216147.0 237979.0 0
221805.0 240989.0 0
226485.0 238026.0 0
232437.0 237166.0 0
238425.0 236927.0 0
241226.0 241383.0 0
245790.0 241498.0 0
251374.0 236636.0 0
256834.0 238203.0 0
266240.0 239655.0 0
274193.0 238296.0 0
283465.0 238003.0 0
289007.0 236685.0 0
293246.0 239024.0 0
298378.0 241546.0 0
302992.0 236664.0 0
308794.0 237553.0 0
318353.0 237339.0 0
324037.0 239659.0 0
328783.0 236698.0 0
334058.0 238441.0 0
339583.0 237847.0 0
344923.0 237648.0 0
349979.0 237185.0 0
358644.0 238809.0 0
363893.0 239732.0 0
368159.0 237374.0 0
372318.0 238587.0 0
376967.0 238453.0 0
382475.0 237415.0 0
387497.0 238433.0 0
392130.0 239192.0 0
396151.0 237904.0 0
401230.0 238456.0 0
406695.0 237775.0 0
411221.0 238786.0 0
415493.0 238120.0 0
421160.0 238060.0 0
428508.0 239032.0 0
430946.0 238436.0 0
435839.0 238229.0 0
442049.0 239970.0 0
446668.0 238394.0 0
451291.0 239615.0 0
456083.0 237347.0 0
461501.0 238078.0 0
466934.0 238802.0 0
472915.0 236561.0 0
470974.0 241548.0 0
478059.0 237962.0 0
487864.0 236690.0 0
493653.0 238297.0 0
498089.0 237175.0 0
2814.21 243577.0 0
8167.2 242838.0 0
12899.3 242201.0 0
11902.4 246168.0 0
16336.8 242850.0 0
20389.2 242731.0 0
25274.6 243956.0 0
31183.9 241693.0 0
37230.8 244681.0 0
41788.2 243687.0 0
47439.4 243805.0 0
53095.0 243117.0 0
58686.5 244860.0 0
63563.8 243252.0 0
68266.3 242817.0 0
72452.0 243005.0 0
77184.2 242649.0 0
86320.7 241744.0 0
82033.5 242728.0 0
91302.8 242661.0 0
96816.6 242110.0 0
101397.0 244725.0 0
107502.0 244921.0 0
116467.0 242680.0 0
113005.0 244775.0 0
121276.0 244210.0 0
126005.0 243402.0 0
132128.0 243028.0 0
137825.0 243208.0 0
142845.0 243745.0 0
147537.0 242469.0 0
152635.0 244021.0 0
157567.0 243045.0 0
162720.0 241998.0 0
167304.0 244816.0 0
172608.0 242284.0 0
177870.0 242385.0 0
182319.0 244011.0 0
186388.0 241656.0 0
188255.0 246632.0 0
192101.0 242197.0 0
196643.0 242868.0 0
201134.0 242394.0 0
206791.0 242220.0 0
212749.0 242796.0 0
214036.0 246169.0 0
217648.0 243892.0 0
222154.0 246480.0 0
226816.0 243128.0 0
231564.0 242797.0 0
236412.0 241856.0 0
235741.0 246597.0 0
240064.0 244752.0 0
243718.0 245683.0 0
250450.0 242528.0 0
255196.0 242377.0 0
260766.0 242490.0 0
266784.0 245173.0 0
271151.0 241963.0 0
278144.0 241569.0 0
283273.0 244824.0 0
288445.0 241977.0 0
293465.0 243923.0 0
303444.0 242216.0 0
303644.0 246214.0 0
308176.0 242560.0 0
314337.0 242669.0 0
319252.0 242273.0 0
322896.0 245404.0 0
328961.0 242277.0 0
333141.0 242652.0 0
336742.0 242605.0 0
342580.0 243010.0 0
347873.0 242177.0 0
346982.0 245732.0 0
353202.0 241867.0 0
357759.0 244495.0 0
362500.0 244541.0 0
367783.0 243024.0 0
373556.0 243231.0 0
382642.0 242667.0 0
378327.0 242963.0 0
387500.0 242969.0 0
390847.0 242771.0 0
394216.0 242364.0 0
397996.0 242361.0 0
405860.0 243805.0 0
412260.0 243419.0 0
417889.0 242929.0 0
423014.0 243324.0 0
427881.0 242925.0 0
432794.0 243386.0 0
437680.0 243874.0 0
441772.0 244638.0 0
447095.0 242655.0 0
452121.0 244779.0 0
456324.0 242295.0 0
461263.0 243733.0 0
466171.0 243385.0 0
476160.0 242987.0 0
482654.0 241866.0 0
488904.0 242256.0 0
492848.0 245097.0 0
497009.0 241956.0 0
2324.63 248019.0 0
7488.63 247685.0 0
13292.5 250568.0 0
17723.3 247094.0 0
22194.0 247688.0 0
25716.4 248482.0 0
29628.6 250269.0 0
33500.9 247277.0 0
36831.6 249696.0 0
41263.7 248916.0 0
46271.1 249036.0 0
51627.8 248461.0 0
56863.9 249118.0 0
62241.9 248708.0 0
67517.2 247534.0 0
72507.9 247617.0 0
81268.3 247850.0 0
76626.1 248681.0 0
87016.1 246765.0 0
92310.5 247929.0 0
97257.1 247951.0 0
102435.0 249875.0 0
106772.0 250066.0 0
111799.0 248750.0 0
117639.0 248222.0 0
123432.0 247950.0 0
128783.0 248456.0 0
134059.0 248069.0 0
137961.0 247800.0 0
142164.0 247746.0 0
147514.0 248268.0 0
152880.0 248954.0 0
158961.0 247434.0 0
162909.0 247376.0 0
167202.0 249454.0 0
172005.0 246715.0 0
177742.0 247921.0 0
183265.0 248691.0 0
193911.0 247488.0 0
196809.0 251553.0 0
199067.0 247207.0 0
204170.0 247634.0 0
209506.0 247291.0 0
213620.0 250438.0 0
217455.0 248273.0 0
220495.0 251318.0 0
226338.0 246995.0 0
225395.0 250846.0 0
230557.0 248319.0 0
240022.0 248743.0 0
245177.0 251757.0 0
250376.0 247919.0 0
256485.0 247799.0 0
262634.0 248119.0 0
267372.0 250684.0 0
272518.0 247605.0 0
278320.0 247381.0 0
282859.0 250365.0 0
289973.0 247471.0 0
294933.0 248369.0 0
299364.0 246902.0 0
303742.0 251363.0 0
307807.0 247717.0 0
313018.0 248858.0 0
317903.0 247077.0 0
320275.0 251406.0 0
324590.0 249976.0 0
327963.0 247310.0 0
333169.0 246937.0 0
338973.0 248291.0 0
344298.0 248296.0 0
351178.0 247970.0 0
358170.0 248874.0 0
362957.0 249446.0 0
367640.0 248388.0 0
372878.0 248861.0 0
376886.0 251463.0 0
377591.0 247641.0 0
387666.0 247435.0 0
383032.0 247831.0 0
390582.0 248314.0 0
391384.0 251698.0 0
394664.0 246983.0 0
400642.0 246748.0 0
400518.0 251125.0 0
404217.0 250049.0 0
409729.0 249265.0 0
416364.0 248715.0 0
422815.0 248981.0 0
428624.0 247753.0 0
433383.0 248205.0 0
438576.0 249127.0 0
448818.0 247517.0 0
444220.0 248438.0 0
452097.0 248768.0 0
457223.0 248562.0 0
462829.0 248207.0 0
466796.0 249475.0 0
470795.0 246737.0 0
476402.0 249366.0 0
482887.0 248607.0 0
488671.0 247763.0 0
492897.0 248818.0 0
497141.0 247817.0 0
2873.88 251853.0 0
2104.5 256011.0 0
7660.86 252146.0 0
12523.1 255929.0 0
17516.0 251986.0 0
21990.7 251974.0 0
24345.8 256749.0 0
25933.7 252380.0 0
33841.2 253143.0 0
38550.9 253164.0 0
43313.8 253977.0 0
47500.0 252782.0 0
51971.6 254108.0 0
58901.7 253671.0 0
64488.6 253901.0 0
68998.9 252631.0 0
73870.6 252088.0 0
77214.8 252508.0 0
80689.1 252952.0 0
77189.0 256126.0 0
86319.0 253072.0 0
92812.5 252936.0 0
98243.9 253212.0 0
103093.0 253839.0 0
109022.0 253249.0 0
113202.0 252864.0 0
122442.0 252737.0 0
117544.0 253932.0 0
126563.0 253348.0 0
122473.0 256812.0 0
131865.0 252805.0 0
136846.0 252348.0 0
140205.0 254655.0 0
144013.0 253034.0 0
150425.0 252828.0 0
153052.0 256842.0 0
157090.0 252655.0 0
162997.0 251762.0 0
161583.0 256686.0 0
167645.0 254116.0 0
173059.0 252347.0 0
183041.0 253305.0 0
178847.0 253988.0 0
186689.0 252009.0 0
191849.0 252365.0 0
190266.0 256653.0 0
201800.0 252651.0 0
207325.0 252389.0 0
212333.0 256262.0 0
216951.0 253455.0 0
222878.0 255778.0 0
229386.0 253356.0 0
235829.0 252075.0 0
240235.0 253754.0 0
248619.0 256681.0 0
252512.0 252935.0 0
257231.0 253254.0 0
262344.0 252894.0 0
272614.0 253712.0 0
277794.0 252398.0 0
281553.0 256117.0 0
289750.0 252243.0 0
285972.0 253874.0 0
293407.0 251948.0 0
292793.0 256766.0 0
297865.0 252864.0 0
303441.0 256657.0 0
309258.0 253283.0 0
315401.0 254279.0 0
323676.0 254915.0 0
328752.0 252935.0 0
334643.0 252245.0 0
338207.0 254492.0 0
342796.0 253448.0 0
348326.0 252768.0 0
354572.0 252691.0 0
358833.0 252835.0 0
358288.0 256653.0 0
362310.0 253501.0 0
366737.0 253429.0 0
371994.0 254248.0 0
377267.0 255764.0 0
380640.0 252113.0 0
386651.0 252612.0 0
392799.0 256434.0 0
396442.0 252691.0 0
401638.0 256198.0 0
407479.0 254729.0 0
413218.0 254561.0 0
418110.0 253763.0 0
422109.0 254136.0 0
426882.0 252587.0 0
431424.0 252493.0 0
429096.0 256787.0 0
436292.0 254473.0 0
442103.0 253779.0 0
447552.0 252692.0 0
452806.0 252955.0 0
457500.0 254624.0 0
461590.0 252424.0 0
465846.0 253531.0 0
470831.0 252531.0 0
476633.0 255289.0 0
480520.0 253024.0 0
485119.0 253651.0 0
491128.0 253609.0 0
497365.0 253308.0 0
6792.96 257641.0 0
12819.1 261354.0 0
18520.6 257022.0 0
30114.9 257121.0 0
35416.0 258557.0 0
39869.7 257221.0 0
43526.9 259266.0 0
47475.6 256954.0 0
47739.9 261717.0 0
51742.3 258946.0 0
56703.2 258703.0 0
61961.9 258716.0 0
66635.4 258394.0 0
71688.5 256977.0 0
82288.9 257939.0 0
88451.4 259388.0 0
93312.6 257043.0 0
94101.1 261258.0 0
97500.0 257816.0 0
102237.0 257616.0 0
107095.0 257391.0 0
112296.0 257118.0 0
113639.0 261961.0 0
117490.0 258546.0 0
122399.0 261204.0 0
132595.0 257573.0 0
127673.0 258313.0 0
137655.0 257290.0 0
135410.0 261049.0 0
142128.0 257720.0 0
147644.0 257509.0 0
157500.0 258535.0 0
165674.0 258367.0 0
171246.0 258220.0 0
176250.0 258216.0 0
180342.0 258655.0 0
184978.0 257089.0 0
188840.0 260760.0 0
195411.0 257142.0 0
198173.0 261852.0 0
201318.0 258105.0 0
206590.0 258431.0 0
218114.0 257801.0 0
221950.0 261112.0 0
227518.0 258404.0 0
232618.0 256936.0 0
238157.0 257728.0 0
243782.0 258086.0 0
255026.0 256989.0 0
251725.0 259985.0 0
259922.0 257159.0 0
266655.0 257724.0 0
272629.0 258644.0 0
276488.0 257253.0 0
277765.0 261689.0 0
282666.0 261611.0 0
286999.0 258464.0 0
298712.0 258729.0 0
304163.0 261669.0 0
307680.0 257938.0 0
312763.0 259551.0 0
319094.0 258632.0 0
323787.0 259139.0 0
328199.0 258577.0 0
332667.0 256882.0 0
337198.0 258271.0 0
341728.0 258683.0 0
346945.0 258179.0 0
352948.0 257965.0 0
363847.0 257898.0 0
368588.0 257536.0 0
372513.0 258126.0 0
373373.0 261796.0 0
378048.0 260866.0 0
383138.0 257083.0 0
388493.0 258313.0 0
392117.0 261389.0 0
396703.0 258206.0 0
408630.0 259322.0 0
412945.0 259524.0 0
417500.0 257715.0 0
423650.0 258039.0 0
427084.0 261851.0 0
432842.0 257975.0 0
436285.0 261644.0 0
439592.0 258133.0 0
445090.0 257775.0 0
449569.0 257432.0 0
453926.0 257777.0 0
458043.0 259188.0 0
461736.0 256989.0 0
462492.0 261215.0 0
466239.0 258240.0 0
472012.0 258558.0 0
477069.0 259919.0 0
481393.0 257643.0 0
487083.0 258858.0 0
492809.0 259506.0 0
497596.0 258341.0 0
3506.53 263092.0 0
8912.79 262907.0 0
7861.74 266972.0 0
18046.1 263233.0 0
23735.0 262115.0 0
29008.9 262916.0 0
33721.2 262719.0 0
38524.5 263040.0 0
43678.3 263991.0 0
52006.5 263503.0 0
56981.0 264110.0 0
61798.0 263424.0 0
66401.6 262986.0 0
71635.7 262862.0 0
78212.8 263343.0 0
84124.2 262682.0 0
87689.4 264462.0 0
92062.8 266573.0 0
99301.0 262513.0 0
103854.0 263947.0 0
108322.0 262355.0 0
118191.0 262995.0 0
121263.0 266488.0 0
126898.0 263259.0 0
131343.0 262406.0 0
129838.0 266674.0 0
135559.0 266847.0 0
139973.0 261995.0 0
141814.0 266863.0 0
145205.0 262644.0 0
151692.0 262952.0 0
157472.0 263695.0 0
162237.0 262114.0 0
167850.0 262681.0 0
173474.0 263857.0 0
178667.0 262626.0 0
183508.0 262636.0 0
188017.0 266645.0 0
193414.0 263389.0 0
197879.0 266877.0 0
202239.0 263422.0 0
207024.0 263599.0 0
212390.0 262660.0 0
217325.0 262265.0 0
215944.0 266784.0 0
226304.0 263185.0 0
231243.0 262333.0 0
232877.0 266795.0 0
236066.0 262912.0 0
240755.0 262751.0 0
247342.0 262103.0 0
251815.0 263993.0 0
256833.0 262144.0 0
259264.0 267011.0 0
262036.0 262314.0 0
266347.0 265046.0 0
272441.0 263388.0 0
276853.0 266257.0 0
287543.0 263950.0 0
294261.0 263381.0 0
299723.0 263545.0 0
308984.0 262938.0 0
315355.0 264442.0 0
311334.0 265983.0 0
320376.0 263642.0 0
326086.0 263877.0 0
333144.0 263044.0 0
339129.0 263573.0 0
343423.0 262702.0 0
347356.0 262978.0 0
351794.0 263509.0 0
357547.0 262002.0 0
363000.0 262932.0 0
368194.0 262374.0 0
372169.0 266413.0 0
377868.0 266860.0 0
382797.0 263232.0 0
387992.0 264023.0 0
397059.0 262556.0 0
392971.0 266605.0 0
402874.0 262871.0 0
407561.0 262870.0 0
411391.0 263824.0 0
416297.0 262676.0 0
421523.0 262472.0 0
431833.0 264120.0 0
442630.0 263042.0 0
449567.0 263059.0 0
454949.0 262449.0 0
459038.0 263476.0 0
462383.0 265686.0 0
466453.0 263102.0 0
470800.0 263725.0 0
475076.0 263472.0 0
479818.0 263963.0 0
485464.0 264520.0 0
491396.0 263715.0 0
496534.0 263818.0 0
3164.75 269755.0 0
13199.6 267265.0 0
18016.5 269208.0 0
22913.6 267747.0 0
28302.8 268060.0 0
33684.5 267628.0 0
38744.1 267978.0 0
42462.4 267822.0 0
47500.0 267591.0 0
52554.9 267900.0 0
57795.5 269425.0 0
62773.8 267891.0 0
67039.8 267790.0 0
72935.3 268912.0 0
78321.3 269142.0 0
82589.4 267736.0 0
87056.9 268377.0 0
97670.0 267801.0 0
102295.0 267618.0 0
107408.0 268187.0 0
113346.0 267378.0 0
117556.0 268728.0 0
125797.0 269173.0 0
147632.0 268991.0 0
152823.0 268302.0 0
156967.0 268172.0 0
162570.0 268228.0 0
168619.0 268199.0 0
178551.0 267711.0 0
173688.0 269225.0 0
183150.0 269345.0 0
193384.0 268189.0 0
190750.0 271570.0 0
202718.0 267618.0 0
202304.0 271302.0 0
206548.0 267988.0 0
210425.0 267238.0 0
212715.0 271444.0 0
217386.0 271201.0 0
222042.0 267242.0 0
227901.0 267647.0 0
231901.0 271845.0 0
237583.0 267388.0 0
243277.0 267234.0 0
240965.0 271485.0 0
248656.0 267580.0 0
254437.0 267660.0 0
257929.0 271036.0 0
262887.0 268745.0 0
267410.0 270748.0 0
270748.0 267669.0 0
272710.0 271749.0 0
277812.0 270958.0 0
282792.0 267763.0 0
288035.0 269243.0 0
292359.0 268926.0 0
298261.0 267842.0 0
306017.0 267255.0 0
302068.0 271905.0 0
310177.0 268797.0 0
314046.0 269464.0 0
318467.0 267700.0 0
322500.0 267877.0 0
328894.0 268535.0 0
333244.0 269430.0 0
337005.0 267430.0 0
341110.0 267359.0 0
346171.0 267504.0 0
357132.0 267321.0 0
352131.0 269615.0 0
361935.0 267847.0 0
367469.0 269152.0 0
383976.0 269275.0 0
389039.0 268798.0 0
398548.0 267983.0 0
404604.0 268030.0 0
408304.0 268039.0 0
411600.0 268117.0 0
415648.0 267472.0 0
420773.0 267960.0 0
427257.0 268404.0 0
432707.0 268188.0 0
437828.0 268240.0 0
443859.0 269291.0 0
448900.0 269179.0 0
453716.0 267281.0 0
458588.0 267566.0 0
455864.0 271551.0 0
466458.0 267982.0 0
471668.0 268382.0 0
476746.0 268050.0 0
482124.0 268830.0 0
489727.0 267841.0 0
493000.0 269833.0 0
497149.0 269812.0 0
2175.07 275002.0 0
6289.84 273954.0 0
11599.3 273381.0 0
17536.7 273671.0 0
22464.0 273419.0 0
27690.4 273120.0 0
32846.6 273008.0 0
37849.3 272511.0 0
42860.5 272613.0 0
47500.0 272674.0 0
52500.0 272594.0 0
57472.1 273885.0 0
62273.8 272948.0 0
67614.2 272176.0 0
72220.4 274633.0 0
77002.3 273029.0 0
81628.5 272641.0 0
86239.9 272499.0 0
91741.3 272986.0 0
97809.8 273190.0 0
102672.0 272169.0 0
106904.0 274333.0 0
102894.0 277186.0 0
111197.0 272260.0 0
115542.0 273056.0 0
120821.0 272377.0 0
126023.0 274005.0 0
131562.0 272661.0 0
137592.0 273034.0 0
135064.0 276538.0 0
143036.0 273466.0 0
152345.0 272282.0 0
148523.0 274797.0 0
156785.0 272852.0 0
161262.0 274062.0 0
165880.0 272734.0 0
170828.0 273154.0 0
176313.0 273794.0 0
181162.0 272866.0 0
186205.0 274852.0 0
191897.0 276310.0 0
195929.0 272517.0 0
201267.0 276259.0 0
207048.0 273000.0 0
211894.0 277213.0 0
217619.0 275917.0 0
221345.0 272741.0 0
226128.0 272482.0 0
233724.0 276812.0 0
236942.0 273960.0 0
241153.0 276825.0 0
246411.0 273551.0 0
252564.0 272925.0 0
257158.0 275506.0 0
262472.0 273784.0 0
268870.0 276724.0 0
276188.0 275173.0 0
283395.0 274798.0 0
289973.0 273766.0 0
296038.0 273014.0 0
305228.0 276386.0 0
308482.0 272759.0 0
313695.0 274594.0 0
318485.0 272271.0 0
325761.0 272231.0 0
322154.0 274975.0 0
331006.0 273990.0 0
336304.0 273112.0 0
342217.0 272756.0 0
347986.0 273692.0 0
352469.0 275272.0 0
357706.0 273174.0 0
363362.0 272770.0 0
372123.0 272532.0 0
367616.0 275255.0 0
377590.0 272824.0 0
382664.0 275551.0 0
388197.0 273669.0 0
393853.0 272282.0 0
397811.0 276137.0 0
403549.0 273829.0 0
409206.0 274578.0 0
413406.0 272304.0 0
418013.0 272917.0 0
422329.0 273002.0 0
427432.0 275156.0 0
432985.0 272445.0 0
437053.0 273166.0 0
442559.0 274779.0 0
447415.0 272555.0 0
451703.0 273135.0 0
461829.0 272860.0 0
468603.0 273563.0 0
474669.0 273469.0 0
480001.0 272930.0 0
481988.0 276907.0 0
486593.0 273058.0 0
493168.0 274209.0 0
498364.0 274131.0 0
2648.0 279284.0 0
6704.61 277825.0 0
11883.6 280167.0 0
17237.5 278168.0 0
21689.6 278293.0 0
26625.9 278323.0 0
32269.8 278463.0 0
37800.7 277581.0 0
42911.0 277728.0 0
48373.5 277548.0 0
53049.3 277776.0 0
57491.6 278171.0 0
62500.0 277761.0 0
67351.0 277784.0 0
72974.1 278970.0 0
77090.8 277958.0 0
80946.1 277944.0 0
86599.0 277671.0 0
92663.1 279580.0 0
98143.1 278234.0 0
107106.0 279687.0 0
112144.0 277562.0 0
117790.0 277429.0 0
127517.0 277722.0 0
123041.0 279095.0 0
131673.0 279465.0 0
139797.0 279159.0 0
146649.0 280029.0 0
153461.0 278084.0 0
159446.0 278605.0 0
162837.0 281601.0 0
165972.0 277948.0 0
171469.0 278381.0 0
177284.0 280014.0 0
183208.0 280125.0 0
188842.0 280448.0 0
195964.0 280147.0 0
201245.0 281694.0 0
206438.0 279721.0 0
216446.0 281659.0 0
222978.0 277403.0 0
228694.0 277447.0 0
233956.0 281632.0 0
237000.0 278481.0 0
246191.0 279978.0 0
251712.0 278369.0 0
258362.0 280488.0 0
263453.0 279372.0 0
274471.0 279412.0 0
270664.0 282248.0 0
278999.0 278214.0 0
284456.0 281178.0 0
288564.0 278519.0 0
293664.0 278711.0 0
300151.0 278064.0 0
304964.0 280393.0 0
308829.0 278636.0 0
313417.0 279586.0 0
316750.0 277442.0 0
320558.0 279106.0 0
326668.0 278665.0 0
333858.0 278943.0 0
338664.0 277491.0 0
342798.0 278227.0 0
347414.0 278664.0 0
352857.0 280097.0 0
357815.0 278959.0 0
362634.0 277593.0 0
367023.0 279602.0 0
371856.0 277992.0 0
377431.0 278744.0 0
382625.0 279909.0 0
386621.0 279195.0 0
391984.0 278461.0 0
396544.0 280254.0 0
401645.0 280550.0 0
406987.0 278777.0 0
411810.0 278279.0 0
417021.0 277457.0 0
422570.0 278737.0 0
427263.0 280870.0 0
432183.0 279038.0 0
437977.0 278388.0 0
442948.0 280333.0 0
448192.0 277608.0 0
452072.0 280776.0 0
455970.0 277461.0 0
461568.0 279418.0 0
466228.0 278074.0 0
471903.0 279787.0 0
477527.0 278272.0 0
481333.0 280749.0 0
486494.0 280370.0 0
491854.0 279315.0 0
497015.0 278900.0 0
199625.0 286626.0 0
204499.0 284247.0 0
210820.0 282876.0 0
222497.0 283135.0 0
227984.0 282852.0 0
231504.0 286174.0 0
236580.0 284963.0 0
240350.0 282601.0 0
244592.0 285679.0 0
248980.0 284548.0 0
253455.0 283146.0 0
257887.0 286040.0 0
261346.0 283551.0 0
262154.0 286647.0 0
265839.0 284273.0 0
271440.0 287379.0 0
278575.0 283693.0 0
283429.0 285819.0 0
289803.0 283059.0 0
287231.0 287361.0 0
297105.0 283436.0 0
302354.0 283990.0 0
204508.0 288379.0 0
209512.0 287873.0 0
212392.0 292095.0 0
215758.0 287761.0 0
221163.0 288515.0 0
223376.0 292437.0 0
226680.0 288536.0 0
231846.0 291477.0 0
235358.0 288135.0 0
236751.0 291802.0 0
240458.0 288714.0 0
245808.0 290822.0 0
252368.0 288082.0 0
250604.0 292392.0 0
256845.0 292434.0 0
262912.0 290714.0 0
268020.0 291531.0 0
276387.0 289058.0 0
280903.0 288953.0 0
284537.0 290223.0 0
293197.0 287948.0 0
299452.0 288805.0 0
200614.0 292913.0 0
206872.0 292875.0 0
213620.0 297179.0 0
218232.0 293439.0 0
227369.0 294487.0 0
231697.0 296846.0 0
236114.0 295861.0 0
240979.0 294444.0 0
246399.0 296686.0 0
252230.0 297122.0 0
261596.0 295818.0 0
266654.0 296759.0 0
273329.0 293748.0 0
278857.0 292962.0 0
283257.0 293842.0 0
281054.0 296877.0 0
288787.0 292653.0 0
294268.0 293555.0 0
291438.0 297591.0 0
298324.0 293510.0 0
10310.7 302717.0 0
202211.0 299290.0 0
208363.0 298380.0 0
210378.0 302370.0 0
218711.0 298811.0 0
215239.0 302710.0 0
223737.0 298416.0 0
228254.0 299072.0 0
231246.0 301450.0 0
237021.0 301295.0 0
240612.0 298523.0 0
243177.0 301296.0 0
248830.0 302060.0 0
254695.0 302272.0 0
257459.0 298333.0 0
261839.0 301133.0 0
271774.0 298517.0 0
274584.0 301788.0 0
276880.0 297741.0 0
279527.0 300588.0 0
285872.0 297851.0 0
289147.0 302375.0 0
293897.0 301705.0 0
297257.0 298114.0 0
341742.0 300381.0 0
201866.0 306415.0 0
206170.0 303784.0 0
211470.0 307226.0 0
220852.0 303030.0 0
226528.0 304013.0 0
232169.0 306517.0 0
237088.0 306677.0 0
241937.0 306736.0 0
253265.0 307428.0 0
258656.0 305926.0 0
268390.0 303230.0 0
278607.0 304669.0 0
283527.0 302786.0 0
282820.0 307031.0 0
292949.0 306931.0 0
297911.0 304293.0 0
309756.0 304247.0 0
404603.0 307504.0 0
6878.9 312528.0 0
48261.5 310142.0 0
167796.0 312390.0 0
174681.0 309166.0 0
201399.0 311189.0 0
206281.0 309093.0 0
210469.0 312900.0 0
216943.0 308251.0 0
215559.0 312947.0 0
222299.0 307893.0 0
220126.0 312349.0 0
228082.0 308520.0 0
225548.0 311998.0 0
231444.0 312645.0 0
237537.0 311591.0 0
247693.0 307950.0 0
253783.0 312775.0 0
258818.0 311120.0 0
262736.0 308498.0 0
267381.0 309508.0 0
273103.0 308111.0 0
279192.0 310392.0 0
287115.0 308653.0 0
292764.0 312213.0 0
297832.0 310792.0 0
317421.0 312467.0 0
357807.0 311974.0 0
362467.0 310391.0 0
368610.0 310173.0 0
374583.0 312815.0 0
389098.0 309238.0 0
421499.0 308775.0 0
437044.0 312064.0 0
443009.0 308422.0 0
455114.0 308804.0 0
461586.0 312665.0 0
472319.0 309547.0 0
476569.0 312790.0 0
492537.0 310523.0 0
497243.0 308371.0 0
14254.8 317081.0 0
56374.4 314055.0 0
63868.7 314065.0 0
68827.6 315084.0 0
75161.9 317120.0 0
79658.9 315818.0 0
85031.3 316516.0 0
96187.4 314331.0 0
100416.0 313779.0 0
107589.0 315516.0 0
111005.0 317360.0 0
115161.0 315817.0 0
121008.0 315710.0 0
126005.0 313499.0 0
131855.0 317822.0 0
137504.0 316835.0 0
154054.0 316120.0 0
158565.0 315515.0 0
177286.0 313219.0 0
178735.0 316586.0 0
191569.0 314372.0 0
196244.0 315300.0 0
200907.0 315546.0 0
205180.0 313987.0 0
208043.0 316978.0 0
213378.0 317804.0 0
217874.0 316628.0 0
222348.0 316523.0 0
227483.0 317294.0 0
238153.0 317584.0 0
242319.0 314636.0 0
248060.0 314006.0 0
259025.0 315529.0 0
255486.0 317319.0 0
263577.0 313668.0 0
261774.0 317960.0 0
269202.0 314625.0 0
274265.0 313363.0 0
273092.0 317654.0 0
277793.0 317091.0 0
284290.0 313642.0 0
282135.0 317414.0 0
288804.0 313243.0 0
287730.0 317398.0 0
292934.0 317216.0 0
297425.0 315792.0 0
309917.0 315753.0 0
322450.0 313857.0 0
391311.0 315916.0 0
396056.0 317355.0 0
423600.0 316726.0 0
466760.0 317926.0 0
471850.0 316523.0 0
481239.0 313883.0 0
497839.0 317823.0 0
8033.11 322717.0 0
17655.2 320397.0 0
22442.4 318396.0 0
30433.9 318301.0 0
36537.1 318834.0 0
48339.7 321045.0 0
53010.0 321042.0 0
88220.9 322506.0 0
93065.2 320433.0 0
97919.2 322557.0 0
119140.0 322708.0 0
124379.0 320606.0 0
142262.0 319087.0 0
146000.0 322539.0 0
150902.0 320410.0 0
173221.0 318243.0 0
178042.0 320087.0 0
204109.0 318628.0 0
209355.0 321352.0 0
220115.0 320604.0 0
225980.0 322273.0 0
233041.0 318378.0 0
230730.0 323134.0 0
236415.0 322865.0 0
241737.0 319404.0 0
241450.0 323175.0 0
245387.0 318525.0 0
251032.0 318888.0 0
257877.0 321191.0 0
262772.0 322185.0 0
267219.0 319666.0 0
271745.0 322100.0 0
284665.0 319893.0 0
280748.0 321648.0 0
287877.0 322352.0 0
292497.0 322125.0 0
296805.0 320284.0 0
300445.0 322749.0 0
308710.0 322398.0 0
318277.0 322591.0 0
322451.0 318570.0 0
326630.0 319328.0 0
330913.0 319603.0 0
335045.0 322262.0 0
339605.0 318947.0 0
345114.0 321139.0 0
388726.0 320431.0 0
393964.0 322238.0 0
407296.0 321507.0 0
417127.0 318420.0 0
422388.0 322192.0 0
426612.0 320295.0 0
431907.0 320998.0 0
436080.0 322835.0 0
439714.0 319286.0 0
444222.0 321544.0 0
449230.0 318437.0 0
458451.0 321302.0 0
462790.0 319113.0 0
479717.0 319166.0 0
484429.0 319247.0 0
489239.0 322172.0 0
2631.23 325687.0 0
14588.8 323904.0 0
18911.2 326231.0 0
30589.4 324502.0 0
37311.7 326834.0 0
40985.6 323238.0 0
45936.2 324714.0 0
54909.3 327703.0 0
85759.2 327722.0 0
91010.0 327855.0 0
92904.6 325441.0 0
96476.5 326879.0 0
102310.0 324664.0 0
105708.0 327755.0 0
113050.0 324722.0 0
126262.0 324813.0 0
137141.0 326273.0 0
132697.0 328191.0 0
155278.0 323776.0 0
166524.0 327550.0 0
169989.0 323494.0 0
177579.0 324257.0 0
183095.0 325911.0 0
188933.0 324567.0 0
194761.0 325819.0 0
199571.0 323191.0 0
204447.0 323765.0 0
208798.0 326587.0 0
215108.0 323322.0 0
222136.0 324868.0 0
226669.0 327104.0 0
237326.0 328292.0 0
242509.0 327813.0 0
247368.0 323960.0 0
253452.0 323381.0 0
257603.0 326916.0 0
262728.0 326882.0 0
267270.0 324999.0 0
272515.0 327800.0 0
276221.0 323561.0 0
278373.0 327716.0 0
284068.0 326567.0 0
290903.0 327481.0 0
296313.0 325049.0 0
304807.0 323199.0 0
305454.0 327125.0 0
309712.0 326549.0 0
314013.0 325292.0 0
342101.0 324540.0 0
348027.0 324694.0 0
360423.0 327498.0 0
364943.0 323696.0 0
368691.0 326329.0 0
377600.0 324558.0 0
383597.0 323349.0 0
385630.0 328081.0 0
390690.0 324360.0 0
394399.0 327028.0 0
398809.0 324389.0 0
403236.0 325260.0 0
412976.0 323829.0 0
415149.0 328273.0 0
431773.0 326520.0 0
473827.0 325951.0 0
478880.0 324386.0 0
483291.0 327984.0 0
492521.0 326170.0 0
497266.0 325926.0 0
4198.95 330790.0 0
10165.2 328940.0 0
8211.08 332747.0 0
21754.5 332387.0 0
27252.5 328555.0 0
31965.1 331040.0 0
44551.6 330195.0 0
49617.5 331131.0 0
53511.7 332672.0 0
60744.6 328752.0 0
65233.2 331896.0 0
73247.1 330789.0 0
79797.4 331288.0 0
100409.0 329048.0 0
97591.4 332483.0 0
118044.0 330012.0 0
122206.0 332011.0 0
125707.0 333234.0 0
127597.0 329541.0 0
140009.0 330499.0 0
145853.0 330517.0 0
157949.0 332686.0 0
169946.0 331255.0 0
175197.0 329591.0 0
178324.0 333103.0 0
182127.0 331151.0 0
204263.0 329278.0 0
208525.0 332032.0 0
213039.0 329727.0 0
218452.0 328414.0 0
222814.0 328765.0 0
221553.0 332695.0 0
226402.0 332069.0 0
231905.0 328326.0 0
242616.0 332871.0 0
247192.0 330332.0 0
252148.0 328304.0 0
255672.0 332150.0 0
261566.0 332302.0 0
265972.0 330743.0 0
281495.0 331151.0 0
286572.0 332120.0 0
296179.0 331166.0 0
301854.0 330188.0 0
308858.0 331165.0 0
312808.0 330545.0 0
329672.0 332860.0 0
335177.0 329769.0 0
341691.0 329433.0 0
350533.0 332186.0 0
368277.0 331833.0 0
373639.0 328749.0 0
380959.0 329339.0 0
388242.0 331318.0 0
398411.0 328407.0 0
402468.0 330163.0 0
406830.0 332776.0 0
411664.0 331270.0 0
417627.0 333084.0 0
440796.0 331774.0 0
462565.0 328934.0 0
468005.0 330592.0 0
472750.0 331627.0 0
488293.0 329433.0 0
494690.0 330877.0 0
1396.57 333781.0 0
9024.03 337625.0 0
11918.4 334222.0 0
16619.4 333691.0 0
22141.1 337873.0 0
31750.6 335782.0 0
36111.9 335032.0 0
40529.6 334661.0 0
42506.5 338303.0 0
55082.9 336775.0 0
71070.6 337124.0 0
75981.4 335677.0 0
101262.0 333598.0 0
115988.0 336840.0 0
121376.0 337648.0 0
127453.0 336680.0 0
132217.0 334275.0 0
137709.0 335755.0 0
142940.0 338388.0 0
150246.0 333933.0 0
162385.0 333465.0 0
159503.0 338045.0 0
166757.0 336042.0 0
170964.0 337849.0 0
173828.0 334410.0 0
178104.0 337365.0 0
182584.0 335928.0 0
188430.0 337862.0 0
198270.0 337573.0 0
203635.0 334862.0 0
208360.0 337106.0 0
212195.0 334618.0 0
217012.0 335280.0 0
221952.0 337936.0 0
227521.0 337819.0 0
231056.0 333666.0 0
236970.0 334240.0 0
244043.0 338302.0 0
247364.0 334782.0 0
249427.0 338163.0 0
251041.0 333444.0 0
253939.0 338399.0 0
259248.0 336813.0 0
265053.0 335543.0 0
269976.0 334607.0 0
276242.0 333560.0 0
282317.0 336078.0 0
287506.0 338258.0 0
291624.0 334658.0 0
296056.0 336800.0 0
305247.0 333924.0 0
310186.0 337547.0 0
315851.0 334369.0 0
321608.0 334137.0 0
326129.0 337336.0 0
332766.0 337253.0 0
345721.0 334594.0 0
355714.0 333680.0 0
359390.0 337349.0 0
365233.0 336392.0 0
371514.0 336301.0 0
376826.0 333792.0 0
382983.0 336632.0 0
392773.0 335785.0 0
397327.0 333622.0 0
402414.0 334922.0 0
405524.0 337885.0 0
418256.0 338250.0 0
423877.0 338301.0 0
430432.0 335833.0 0
435876.0 334168.0 0
443743.0 336063.0 0
448497.0 334132.0 0
457751.0 337573.0 0
463509.0 337684.0 0
472922.0 335950.0 0
477904.0 336072.0 0
490331.0 334017.0 0
492549.0 337872.0 0
498185.0 333969.0 0
12432.9 343261.0 0
18261.9 343222.0 0
27556.0 338898.0 0
35807.4 342397.0 0
40409.5 343105.0 0
47221.1 339017.0 0
57767.4 340514.0 0
62118.7 342021.0 0
66580.1 340163.0 0
78232.9 341050.0 0
83627.7 343316.0 0
87177.6 338620.0 0
92596.4 341068.0 0
101304.0 338821.0 0
105416.0 339229.0 0
110427.0 341111.0 0
115498.0 342942.0 0
119859.0 341302.0 0
125026.0 340080.0 0
134374.0 338632.0 0
136924.0 338929.0 0
145130.0 342393.0 0
149278.0 340519.0 0
154955.0 339322.0 0
162950.0 340361.0 0
175791.0 342116.0 0
179935.0 340767.0 0
193824.0 340664.0 0
202990.0 340473.0 0
208482.0 342567.0 0
213343.0 339280.0 0
218080.0 341736.0 0
223563.0 342897.0 0
229095.0 342800.0 0
232962.0 338709.0 0
238336.0 340486.0 0
247748.0 342921.0 0
252017.0 341783.0 0
263790.0 339592.0 0
260662.0 342840.0 0
265235.0 343570.0 0
267965.0 339004.0 0
269749.0 343119.0 0
272644.0 339062.0 0
277978.0 339879.0 0
283136.0 341420.0 0
292448.0 340074.0 0
296801.0 340811.0 0
305781.0 341429.0 0
301367.0 341981.0 0
309188.0 342543.0 0
315912.0 340237.0 0
329885.0 339279.0 0
332502.0 342177.0 0
337497.0 342070.0 0
344487.0 342986.0 0
350089.0 342526.0 0
354804.0 341063.0 0
359342.0 342878.0 0
363529.0 341002.0 0
368250.0 341456.0 0
375763.0 339694.0 0
379842.0 342263.0 0
383935.0 342332.0 0
388117.0 340166.0 0
420703.0 341976.0 0
428710.0 341811.0 0
448865.0 339007.0 0
453540.0 340328.0 0
469551.0 339068.0 0
473869.0 340066.0 0
480010.0 341545.0 0
485101.0 340148.0 0
497345.0 338866.0 0
2385.26 348314.0 0
19755.7 347746.0 0
31572.7 345396.0 0
42563.5 347023.0 0
59411.4 348380.0 0
73236.5 347136.0 0
88025.0 344128.0 0
98112.3 344769.0 0
103476.0 348196.0 0
119756.0 345191.0 0
124322.0 344110.0 0
127047.0 348413.0 0
137186.0 346187.0 0
152637.0 343759.0 0
157044.0 343869.0 0
203858.0 345564.0 0
208149.0 348056.0 0
213725.0 344882.0 0
220624.0 345214.0 0
223050.0 348434.0 0
226329.0 345873.0 0
233933.0 343866.0 0
230360.0 347714.0 0
238234.0 345503.0 0
242575.0 344044.0 0
245872.0 348492.0 0
251488.0 346934.0 0
255727.0 343719.0 0
262286.0 347665.0 0
267782.0 347919.0 0
274723.0 344595.0 0
281330.0 345755.0 0
288087.0 344073.0 0
293521.0 344867.0 0
297711.0 344442.0 0
320548.0 344327.0 0
327915.0 346835.0 0
332244.0 346111.0 0
373783.0 347432.0 0
391305.0 347775.0 0
396224.0 344334.0 0
401114.0 346291.0 0
405441.0 348408.0 0
443848.0 344499.0 0
447423.0 348351.0 0
460614.0 345511.0 0
468386.0 347265.0 0
475351.0 345269.0 0
482264.0 348060.0 0
486287.0 345698.0 0
491602.0 347286.0 0
6006.39 352010.0 0
11457.4 349398.0 0
17628.4 353442.0 0
23726.9 348973.0 0
28043.2 349729.0 0
31549.5 352701.0 0
37894.0 349254.0 0
44669.6 351676.0 0
48901.4 349852.0 0
53337.5 351946.0 0
57735.5 351854.0 0
78992.8 348965.0 0
81396.5 353283.0 0
84814.0 349181.0 0
108327.0 349625.0 0
131487.0 352946.0 0
133529.0 348896.0 0
141682.0 348941.0 0
147366.0 350847.0 0
157006.0 353203.0 0
162148.0 352901.0 0
166764.0 351860.0 0
172721.0 352022.0 0
178009.0 349183.0 0
182816.0 348857.0 0
188845.0 348784.0 0
195076.0 351047.0 0
204076.0 351134.0 0
209091.0 353328.0 0
212539.0 349632.0 0
217777.0 348675.0 0
220794.0 352944.0 0
226891.0 351976.0 0
232140.0 352552.0 0
235436.0 348771.0 0
237585.0 353522.0 0
240620.0 348952.0 0
242752.0 352673.0 0
251780.0 351509.0 0
256383.0 348777.0 0
259927.0 351801.0 0
264643.0 352460.0 0
269289.0 352547.0 0
272929.0 349740.0 0
278143.0 349247.0 0
284618.0 348804.0 0
290719.0 349525.0 0
296343.0 349293.0 0
307859.0 353535.0 0
320417.0 349920.0 0
324961.0 349844.0 0
339112.0 352035.0 0
349617.0 349245.0 0
356286.0 350163.0 0
361855.0 352976.0 0
366109.0 350413.0 0
370489.0 350706.0 0
373349.0 353709.0 0
382120.0 353774.0 0
410203.0 350330.0 0
415232.0 348812.0 0
420447.0 349462.0 0
424465.0 352308.0 0
429055.0 351858.0 0
436061.0 350272.0 0
441300.0 348764.0 0
452098.0 350130.0 0
463371.0 349832.0 0
472620.0 350162.0 0
478625.0 350429.0 0
475464.0 353448.0 0
488314.0 349569.0 0
497634.0 351103.0 0
10345.6 354824.0 0
14356.5 355758.0 0
21198.9 355628.0 0
73587.4 358398.0 0
88732.2 354520.0 0
94616.0 355224.0 0
99836.4 358259.0 0
115852.0 355729.0 0
124424.0 357051.0 0
129417.0 357364.0 0
151889.0 354610.0 0
182877.0 357763.0 0
190151.0 357981.0 0
204609.0 356888.0 0
209939.0 358290.0 0
215380.0 354310.0 0
223970.0 355907.0 0
219389.0 358175.0 0
228613.0 357826.0 0
233686.0 356908.0 0
241572.0 356930.0 0
247701.0 354419.0 0
255618.0 353947.0 0
260846.0 357527.0 0
267626.0 357377.0 0
275572.0 354562.0 0
281986.0 354104.0 0
288270.0 354706.0 0
294056.0 354552.0 0
304833.0 357963.0 0
313339.0 355095.0 0
318165.0 354177.0 0
333604.0 355613.0 0
344315.0 354178.0 0
345237.0 358695.0 0
348224.0 356145.0 0
375332.0 357076.0 0
377846.0 354311.0 0
386421.0 354002.0 0
412280.0 356816.0 0
416387.0 358471.0 0
425937.0 356215.0 0
434661.0 355273.0 0
439140.0 357077.0 0
444448.0 354784.0 0
452878.0 358690.0 0
456662.0 355232.0 0
461427.0 356680.0 0
465643.0 358732.0 0
478873.0 356113.0 0
484076.0 354516.0 0
2520.43 360503.0 0
23712.7 358976.0 0
27712.7 359890.0 0
35470.8 362581.0 0
31330.3 362995.0 0
38957.8 360960.0 0
64003.3 361089.0 0
69034.9 361001.0 0
78890.1 360225.0 0
83595.1 362676.0 0
102136.0 362988.0 0
106851.0 361374.0 0
111993.0 360841.0 0
115838.0 361491.0 0
122579.0 363125.0 0
132091.0 360776.0 0
137331.0 358943.0 0
141484.0 360580.0 0
173534.0 360601.0 0
178121.0 359216.0 0
187619.0 363419.0 0
198863.0 359412.0 0
194183.0 361219.0 0
206230.0 361371.0 0
210260.0 362896.0 0
214372.0 360051.0 0
219011.0 363056.0 0
223663.0 360463.0 0
227931.0 363457.0 0
232431.0 361446.0 0
237542.0 359447.0 0
241344.0 362723.0 0
249650.0 359190.0 0
245276.0 359759.0 0
254565.0 359396.0 0
251123.0 363273.0 0
268092.0 362577.0 0
273028.0 359589.0 0
278563.0 359433.0 0
282868.0 359068.0 0
282193.0 363822.0 0
286505.0 359293.0 0
286538.0 362965.0 0
290928.0 359074.0 0
295707.0 359872.0 0
292253.0 363623.0 0
296295.0 363372.0 0
320801.0 361423.0 0
326082.0 360408.0 0
339966.0 361415.0 0
344226.0 362640.0 0
348323.0 360475.0 0
353398.0 361647.0 0
387759.0 360706.0 0
391971.0 361903.0 0
396070.0 358961.0 0
405148.0 358981.0 0
417562.0 362863.0 0
422843.0 361135.0 0
431748.0 359268.0 0
429251.0 363910.0 0
448734.0 362364.0 0
444373.0 363937.0 0
457920.0 360187.0 0
488519.0 362454.0 0
493893.0 361140.0 0
58276.5 365725.0 0
62760.5 365877.0 0
79117.6 365044.0 0
85357.4 367347.0 0
89677.3 368515.0 0
118035.0 365006.0 0
119205.0 369166.0 0
148919.0 368302.0 0
182263.0 367033.0 0
186492.0 367114.0 0
204393.0 364451.0 0
204112.0 368912.0 0
209894.0 368347.0 0
214495.0 364861.0 0
219114.0 367747.0 0
223353.0 365231.0 0
226788.0 368230.0 0
232147.0 368565.0 0
236370.0 364504.0 0
237546.0 368789.0 0
241677.0 367799.0 0
246259.0 364976.0 0
251338.0 367827.0 0
256359.0 365359.0 0
262912.0 364214.0 0
267881.0 368157.0 0
272143.0 364704.0 0
276966.0 364359.0 0
279239.0 368643.0 0
284073.0 368713.0 0
288332.0 366498.0 0
296075.0 366597.0 0
334097.0 365660.0 0
338749.0 364622.0 0
373600.0 367792.0 0
377388.0 363467.0 0
383217.0 365302.0 0
388652.0 367752.0 0
440415.0 364860.0 0
449043.0 367415.0 0
472532.0 367543.0 0
476982.0 366992.0 0
483950.0 364584.0 0
2308.45 375414.0 0
6221.33 375103.0 0
10061.8 375368.0 0
14388.5 375502.0 0
19129.8 375397.0 0
24311.8 373084.0 0
27454.2 376124.0 0
30797.3 375180.0 0
34765.9 375437.0 0
38403.0 375390.0 0
42026.0 375294.0 0
45592.6 375136.0 0
49691.2 375364.0 0
54128.5 375259.0 0
58378.0 375024.0 0
61184.1 375939.0 0
64159.9 375572.0 0
66998.6 375454.0 0
70404.5 375377.0 0
75193.6 375350.0 0
79329.6 375235.0 0
80955.7 377217.0 0
81808.3 375342.0 0
84926.9 375717.0 0
89071.5 376150.0 0
92778.0 375099.0 0
97111.0 375271.0 0
101363.0 375551.0 0
105735.0 375582.0 0
110393.0 375220.0 0
114635.0 368711.0 0
114484.0 375482.0 0
121406.0 375491.0 0
117628.0 375406.0 0
125745.0 375122.0 0
130631.0 375235.0 0
134736.0 375143.0 0
138816.0 375143.0 0
142771.0 375173.0 0
147200.0 375230.0 0
151015.0 375586.0 0
154108.0 375479.0 0
154404.0 369360.0 0
160853.0 370523.0 0
164854.0 375105.0 0
169045.0 375105.0 0
172794.0 370614.0 0
175890.0 372431.0 0
175608.0 375346.0 0
177642.0 368845.0 0
181009.0 375347.0 0
188546.0 375748.0 0
184821.0 375307.0 0
192534.0 375087.0 0
195053.0 377391.0 0
198228.0 375298.0 0
207137.0 373100.0 0
212550.0 373349.0 0
215090.0 369255.0 0
216904.0 372778.0 0
222769.0 369659.0 0
221050.0 373877.0 0
226485.0 373399.0 0
231414.0 373649.0 0
236711.0 373733.0 0
242982.0 373176.0 0
247382.0 369920.0 0
247789.0 374073.0 0
251621.0 372376.0 0
257625.0 370130.0 0
256137.0 373934.0 0
261094.0 369202.0 0
260893.0 373490.0 0
265886.0 373513.0 0
273111.0 369120.0 0
270746.0 372697.0 0
276139.0 372898.0 0
281422.0 373119.0 0
287792.0 370788.0 0
285812.0 374163.0 0
292285.0 369189.0 0
295944.0 371916.0 0
290995.0 374056.0 0
301363.0 375304.0 0
306651.0 375190.0 0
310392.0 375709.0 0
314336.0 375392.0 0
317891.0 375378.0 0
320661.0 375187.0 0
322156.0 377269.0 0
323527.0 375028.0 0
327263.0 375331.0 0
331301.0 375752.0 0
336215.0 375287.0 0
341074.0 375841.0 0
345027.0 370284.0 0
348180.0 372795.0 0
350679.0 375320.0 0
354633.0 369981.0 0
359598.0 375101.0 0
362709.0 370695.0 0
367272.0 367910.0 0
370152.0 375933.0 0
376551.0 375281.0 0
373347.0 375368.0 0
377679.0 371418.0 0
379509.0 375336.0 0
384013.0 375248.0 0
387256.0 377353.0 0
390295.0 375181.0 0
395342.0 375430.0 0
400507.0 375137.0 0
404847.0 375532.0 0
408839.0 375112.0 0
412502.0 375368.0 0
415811.0 375748.0 0
419765.0 375300.0 0
424557.0 375327.0 0
428170.0 375912.0 0
431961.0 375390.0 0
436295.0 375127.0 0
441289.0 371819.0 0
445213.0 375258.0 0
447342.0 371671.0 0
452928.0 375402.0 0
448871.0 376044.0 0
458099.0 375484.0 0
463226.0 375140.0 0
467111.0 375227.0 0
470288.0 375095.0 0
474217.0 375778.0 0
478690.0 375934.0 0
482962.0 375512.0 0
486478.0 375608.0 0
487817.0 370264.0 0
492148.0 375109.0 0
497349.0 375088.0 0
1368.25 378389.0 0
3951.75 379792.0 0
1484.75 381456.0 0
6142.05 378141.0 0
7819.02 381339.0 0
10438.7 378820.0 0
14237.9 379113.0 0
11820.6 382465.0 0
17962.5 379102.0 0
22304.8 377759.0 0
25153.1 378299.0 0
24907.8 381653.0 0
28645.4 379445.0 0
31263.3 377962.0 0
34327.7 378644.0 0
31897.5 381187.0 0
37399.8 378546.0 0
39961.9 377562.0 0
35839.4 382232.0 0
40330.8 381190.0 0
42588.7 378067.0 0
45435.6 377906.0 0
44881.1 381395.0 0
48405.2 378893.0 0
49165.7 381865.0 0
52444.2 378983.0 0
55942.0 380940.0 0
56545.3 377458.0 0
60083.3 379267.0 0
64511.9 380278.0 0
68004.8 377841.0 0
69544.7 380303.0 0
71800.2 378379.0 0
74852.1 379741.0 0
72214.8 382293.0 0
78456.1 377976.0 0
78234.3 380827.0 0
82497.5 379664.0 0
86551.3 379809.0 0
90650.7 380739.0 0
94055.5 378297.0 0
98477.4 379178.0 0
100590.0 382046.0 0
106448.0 378947.0 0
102736.0 379028.0 0
104798.0 382372.0 0
109580.0 379221.0 0
113433.0 378491.0 0
116562.0 378708.0 0
112959.0 382209.0 0
120441.0 379319.0 0
124060.0 378766.0 0
128463.0 378738.0 0
133035.0 378850.0 0
137402.0 378206.0 0
136291.0 381431.0 0
141597.0 378872.0 0
143221.0 381772.0 0
139433.0 381726.0 0
145698.0 378367.0 0
150257.0 379375.0 0
154444.0 378690.0 0
157985.0 376267.0 0
162060.0 376501.0 0
160531.0 380186.0 0
166610.0 377733.0 0
164243.0 379827.0 0
170320.0 377869.0 0
168233.0 380455.0 0
172955.0 375925.0 0
172121.0 381280.0 0
175368.0 378633.0 0
176637.0 381724.0 0
178117.0 376311.0 0
182409.0 378503.0 0
179324.0 380255.0 0
186383.0 379412.0 0
190407.0 378955.0 0
191777.0 382528.0 0
196812.0 379891.0 0
193550.0 380108.0 0
199539.0 378773.0 0
199048.0 382323.0 0
203276.0 374696.0 0
203608.0 378273.0 0
209392.0 378905.0 0
216021.0 376514.0 0
219997.0 378812.0 0
225181.0 378920.0 0
230531.0 378294.0 0
235438.0 379148.0 0
240034.0 378368.0 0
245816.0 379006.0 0
252787.0 378951.0 0
259151.0 378329.0 0
263606.0 377576.0 0
269632.0 377823.0 0
273845.0 376480.0 0
277648.0 378267.0 0
282489.0 377585.0 0
286311.0 377885.0 0
295617.0 376822.0 0
300734.0 379229.0 0
304499.0 377750.0 0
304984.0 380972.0 0
308013.0 378913.0 0
310987.0 379108.0 0
309011.0 382422.0 0
314337.0 378516.0 0
312418.0 381561.0 0
316451.0 382326.0 0
318585.0 378669.0 0
322218.0 380748.0 0
325208.0 378147.0 0
325718.0 380956.0 0
329107.0 379329.0 0
333536.0 379070.0 0
335850.0 381884.0 0
340292.0 378932.0 0
337718.0 379479.0 0
344709.0 375593.0 0
343352.0 380704.0 0
347646.0 378107.0 0
352157.0 378138.0 0
351407.0 381240.0 0
354788.0 375671.0 0
355212.0 380333.0 0
362876.0 376965.0 0
358364.0 378628.0 0
366420.0 375867.0 0
361775.0 380534.0 0
370559.0 379404.0 0
377573.0 377114.0 0
374476.0 378462.0 0
380724.0 378623.0 0
377524.0 381034.0 0
383744.0 380320.0 0
387870.0 381299.0 0
391482.0 378875.0 0
394781.0 379582.0 0
396486.0 382517.0 0
399083.0 379089.0 0
402888.0 377724.0 0
406226.0 378766.0 0
403334.0 380947.0 0
407748.0 382251.0 0
409736.0 378445.0 0
411021.0 381603.0 0
413534.0 378717.0 0
417515.0 379253.0 0
414975.0 382370.0 0
421651.0 379219.0 0
425859.0 379037.0 0
427521.0 382669.0 0
430060.0 379361.0 0
434324.0 378906.0 0
438698.0 377516.0 0
435824.0 381826.0 0
442572.0 377790.0 0
438897.0 380958.0 0
446815.0 379176.0 0
450990.0 379837.0 0
454571.0 378672.0 0
457525.0 380406.0 0
461387.0 378799.0 0
466225.0 378216.0 0
468894.0 382261.0 0
464365.0 381824.0 0
470520.0 378434.0 0
473950.0 379473.0 0
476949.0 379595.0 0
482716.0 378643.0 0
480473.0 381054.0 0
486057.0 379274.0 0
489445.0 377655.0 0
489599.0 381619.0 0
493811.0 379421.0 0
498029.0 378720.0 0
498103.0 382006.0 0
1649.52 384334.0 0
4930.52 382744.0 0
1162.1 386904.0 0
8968.19 384580.0 0
5432.16 386695.0 0
13035.0 386159.0 0
15940.8 383014.0 0
17557.9 387050.0 0
20826.6 382355.0 0
25154.7 385004.0 0
22108.8 387027.0 0
28026.9 382537.0 0
28316.4 385952.0 0
31649.2 384599.0 0
35335.9 386868.0 0
39360.9 384946.0 0
43028.7 384696.0 0
45020.8 387118.0 0
50108.3 385088.0 0
46995.6 384514.0 0
52187.8 383088.0 0
55408.9 384804.0 0
52335.1 386994.0 0
59663.4 383526.0 0
57701.2 386458.0 0
63680.3 385141.0 0
68007.1 383670.0 0
71327.9 386002.0 0
75896.7 384620.0 0
80854.5 383896.0 0
84771.8 383273.0 0
84169.6 387330.0 0
87781.0 384093.0 0
91438.0 385422.0 0
95384.8 382680.0 0
98641.1 384739.0 0
102416.0 385464.0 0
106986.0 386690.0 0
108866.0 382823.0 0
111657.0 386002.0 0
116915.0 382735.0 0
115257.0 385929.0 0
121104.0 383731.0 0
125613.0 382999.0 0
130527.0 382243.0 0
129447.0 385278.0 0
132795.0 385177.0 0
133887.0 382433.0 0
137057.0 384890.0 0
141429.0 384189.0 0
146401.0 381928.0 0
145219.0 385770.0 0
149798.0 384171.0 0
153548.0 382505.0 0
157039.0 381633.0 0
157907.0 385152.0 0
160146.0 383681.0 0
163025.0 383276.0 0
166768.0 382987.0 0
165014.0 386553.0 0
169764.0 385472.0 0
174989.0 385524.0 0
179627.0 383728.0 0
182613.0 385956.0 0
183505.0 382593.0 0
186285.0 386663.0 0
188306.0 383183.0 0
192534.0 385043.0 0
190242.0 386671.0 0
195071.0 382559.0 0
196037.0 385483.0 0
199258.0 385327.0 0
204284.0 382995.0 0
213844.0 383406.0 0
214743.0 380055.0 0
217550.0 382630.0 0
222098.0 383531.0 0
227260.0 383701.0 0
232745.0 383598.0 0
238370.0 383191.0 0
242798.0 383179.0 0
251382.0 383733.0 0
265169.0 381630.0 0
260368.0 383525.0 0
270602.0 384034.0 0
275604.0 382541.0 0
280862.0 383424.0 0
290574.0 379541.0 0
286338.0 382410.0 0
295397.0 382709.0 0
300856.0 386941.0 0
301176.0 382589.0 0
305357.0 384752.0 0
312658.0 385198.0 0
320447.0 383476.0 0
317451.0 387420.0 0
324055.0 383412.0 0
325008.0 385425.0 0
322347.0 386181.0 0
327825.0 383818.0 0
331862.0 382618.0 0
330716.0 386467.0 0
335179.0 385828.0 0
339436.0 382984.0 0
343757.0 385918.0 0
348033.0 383459.0 0
353539.0 385257.0 0
358355.0 382987.0 0
362496.0 385342.0 0
357957.0 386529.0 0
366288.0 381356.0 0
369875.0 383756.0 0
373275.0 382541.0 0
376310.0 385561.0 0
380914.0 383698.0 0
384703.0 383902.0 0
392436.0 383803.0 0
388221.0 386373.0 0
396652.0 386752.0 0
400136.0 384109.0 0
402733.0 386739.0 0
404589.0 384251.0 0
407704.0 386460.0 0
411662.0 384761.0 0
416425.0 386426.0 0
419253.0 382941.0 0
421710.0 386226.0 0
423663.0 382872.0 0
425700.0 386562.0 0
432037.0 382616.0 0
429468.0 385586.0 0
433025.0 387073.0 0
434249.0 384065.0 0
438498.0 384560.0 0
435758.0 385320.0 0
441844.0 382492.0 0
440907.0 386770.0 0
445272.0 382181.0 0
444434.0 386000.0 0
449441.0 384369.0 0
453859.0 382363.0 0
457511.0 384439.0 0
453957.0 385897.0 0
460680.0 382822.0 0
463021.0 384916.0 0
460608.0 386428.0 0
466620.0 385350.0 0
472959.0 382895.0 0
470566.0 386091.0 0
476967.0 383481.0 0
484790.0 383043.0 0
480825.0 385062.0 0
484162.0 387076.0 0
488895.0 386184.0 0
493631.0 383529.0 0
497960.0 385231.0 0
1998.0 390024.0 0
9864.93 388351.0 0
6294.66 391723.0 0
14400.3 390465.0 0
10438.6 391979.0 0
19382.4 390964.0 0
23437.9 390736.0 0
26391.8 388502.0 0
27353.2 392462.0 0
30833.0 389333.0 0
34894.1 391062.0 0
39102.5 387581.0 0
38668.7 390654.0 0
41860.5 387835.0 0
41664.8 390757.0 0
44732.4 390812.0 0
48746.0 388285.0 0
48444.2 392472.0 0
55526.4 388920.0 0
51975.0 390826.0 0
60201.7 387733.0 0
58840.0 391510.0 0
63397.1 389808.0 0
67080.8 387507.0 0
70448.4 389409.0 0
67021.3 392084.0 0
74767.1 389255.0 0
79435.3 387965.0 0
78414.3 391396.0 0
82285.2 390974.0 0
86325.0 390988.0 0
87913.4 387630.0 0
90942.7 390705.0 0
95118.1 387612.0 0
96204.6 392226.0 0
99378.7 388492.0 0
103736.0 389064.0 0
106581.0 392252.0 0
109868.0 389541.0 0
114585.0 390167.0 0
118976.0 387437.0 0
119333.0 391764.0 0
126641.0 387953.0 0
122872.0 386649.0 0
122731.0 389939.0 0
130748.0 387570.0 0
130247.0 390828.0 0
134752.0 388983.0 0
140421.0 388655.0 0
145382.0 389450.0 0
149206.0 387910.0 0
152098.0 390476.0 0
148330.0 391727.0 0
154222.0 386869.0 0
155399.0 391631.0 0
161087.0 386572.0 0
158403.0 389020.0 0
162768.0 390070.0 0
167752.0 389529.0 0
171713.0 388759.0 0
175119.0 390349.0 0
179443.0 387889.0 0
184046.0 390407.0 0
188929.0 389781.0 0
193752.0 388817.0 0
198736.0 388824.0 0
203752.0 387897.0 0
209590.0 386162.0 0
215418.0 387596.0 0
219827.0 388127.0 0
222780.0 387361.0 0
226677.0 389362.0 0
231945.0 388647.0 0
236911.0 388284.0 0
242026.0 387424.0 0
247524.0 384736.0 0
252377.0 387963.0 0
255350.0 384577.0 0
255429.0 389307.0 0
260238.0 388758.0 0
265883.0 388093.0 0
275658.0 387152.0 0
280482.0 389316.0 0
285671.0 387522.0 0
290539.0 385214.0 0
295059.0 388906.0 0
304398.0 388420.0 0
305725.0 390820.0 0
301618.0 391507.0 0
309079.0 387698.0 0
308464.0 391822.0 0
313288.0 388616.0 0
315074.0 390970.0 0
311803.0 391257.0 0
321693.0 389771.0 0
326667.0 389129.0 0
331986.0 390341.0 0
336191.0 390582.0 0
339436.0 387218.0 0
339616.0 390366.0 0
346144.0 389904.0 0
342558.0 390706.0 0
348964.0 387800.0 0
352016.0 389506.0 0
355500.0 389497.0 0
359608.0 389846.0 0
367202.0 386880.0 0
363678.0 389635.0 0
366522.0 391598.0 0
371946.0 386738.0 0
369998.0 389692.0 0
375058.0 390739.0 0
379791.0 388181.0 0
383735.0 387397.0 0
382854.0 390929.0 0
387127.0 391398.0 0
392681.0 389659.0 0
397120.0 390431.0 0
400008.0 388584.0 0
399835.0 392003.0 0
404204.0 390069.0 0
408709.0 390048.0 0
412379.0 388371.0 0
411869.0 392455.0 0
415887.0 390797.0 0
419756.0 389266.0 0
424200.0 390351.0 0
428877.0 389672.0 0
437475.0 388589.0 0
433642.0 390878.0 0
442269.0 390667.0 0
447178.0 389343.0 0
451945.0 388818.0 0
457131.0 389243.0 0
464050.0 387901.0 0
461475.0 389530.0 0
468043.0 388804.0 0
465044.0 391560.0 0
474058.0 387233.0 0
471474.0 389518.0 0
473714.0 391861.0 0
477976.0 387073.0 0
476615.0 389888.0 0
481005.0 389393.0 0
485806.0 389761.0 0
489271.0 390041.0 0
493584.0 388188.0 0
498180.0 388907.0 0
497614.0 392407.0 0
1943.54 393815.0 0
1484.41 397343.0 0
8990.76 394732.0 0
5707.41 396486.0 0
9972.87 397661.0 0
12314.3 394677.0 0
16912.6 394849.0 0
22713.7 394813.0 0
27090.7 397026.0 0
32296.7 394538.0 0
37547.5 394391.0 0
41596.7 393494.0 0
45171.6 395205.0 0
40946.1 397083.0 0
51081.6 396622.0 0
54866.2 393033.0 0
57686.7 396134.0 0
62084.7 393832.0 0
65291.5 395678.0 0
71627.6 392799.0 0
69228.1 396175.0 0
75554.7 393723.0 0
72732.2 396099.0 0
80036.6 395256.0 0
84426.9 394043.0 0
88029.0 394657.0 0
92657.9 395688.0 0
101208.0 392560.0 0
98453.6 396734.0 0
103919.0 396731.0 0
110860.0 392978.0 0
109019.0 396147.0 0
116534.0 393938.0 0
113245.0 395041.0 0
119569.0 395041.0 0
126286.0 392670.0 0
122708.0 394222.0 0
126294.0 396901.0 0
129917.0 395023.0 0
137447.0 392685.0 0
133445.0 392965.0 0
134170.0 397026.0 0
139118.0 396336.0 0
143043.0 393203.0 0
147643.0 395559.0 0
151994.0 393819.0 0
155643.0 395602.0 0
159564.0 393062.0 0
162481.0 395315.0 0
165467.0 393362.0 0
171019.0 393060.0 0
168254.0 397163.0 0
175546.0 393925.0 0
178210.0 395751.0 0
179327.0 392239.0 0
182690.0 395249.0 0
187391.0 393645.0 0
192120.0 392651.0 0
190822.0 396806.0 0
197560.0 393227.0 0
194319.0 396114.0 0
199306.0 397111.0 0
202538.0 392947.0 0
206973.0 391791.0 0
213424.0 392875.0 0
217947.0 392823.0 0
222500.0 392688.0 0
233085.0 393219.0 0
237960.0 393106.0 0
242687.0 392036.0 0
246483.0 389528.0 0
247783.0 393737.0 0
251800.0 392157.0 0
255975.0 393501.0 0
260407.0 393808.0 0
265173.0 393460.0 0
271152.0 389910.0 0
276077.0 393420.0 0
284467.0 393312.0 0
289780.0 390948.0 0
305670.0 394175.0 0
301348.0 395539.0 0
310072.0 394510.0 0
308244.0 397263.0 0
314523.0 394896.0 0
318629.0 392557.0 0
319004.0 396462.0 0
323555.0 394028.0 0
329085.0 394360.0 0
334148.0 394718.0 0
338944.0 394000.0 0
345832.0 392734.0 0
343389.0 394086.0 0
346915.0 396385.0 0
349363.0 392401.0 0
353349.0 392115.0 0
356761.0 393406.0 0
352500.0 396127.0 0
361817.0 394402.0 0
366005.0 395436.0 0
370501.0 394120.0 0
374699.0 395458.0 0
379885.0 392593.0 0
377766.0 395427.0 0
380717.0 396059.0 0
383516.0 394433.0 0
386830.0 395878.0 0
391475.0 394827.0 0
395948.0 393246.0 0
395475.0 396390.0 0
399029.0 395952.0 0
403274.0 394118.0 0
407405.0 393317.0 0
406348.0 395994.0 0
410575.0 396982.0 0
415708.0 395383.0 0
419708.0 393035.0 0
423691.0 394850.0 0
427402.0 393500.0 0
426880.0 396816.0 0
430594.0 393121.0 0
429941.0 396453.0 0
437794.0 392682.0 0
433915.0 395150.0 0
437816.0 397410.0 0
441387.0 394769.0 0
446038.0 394454.0 0
449916.0 392423.0 0
453921.0 392696.0 0
450907.0 396128.0 0
457868.0 393431.0 0
455717.0 396545.0 0
461224.0 392821.0 0
460107.0 396476.0 0
469372.0 393039.0 0
464729.0 395582.0 0
468694.0 396795.0 0
473422.0 396078.0 0
478387.0 393684.0 0
483119.0 392282.0 0
482913.0 395899.0 0
487140.0 393423.0 0
492439.0 392424.0 0
490560.0 396858.0 0
498887.0 395747.0 0
495338.0 396084.0 0
2883.7 401384.0 0
7691.49 400281.0 0
13372.3 398201.0 0
11463.3 401468.0 0
20093.3 397755.0 0
17084.1 401541.0 0
22897.6 399808.0 0
26874.2 401736.0 0
31972.3 399827.0 0
36570.4 398035.0 0
38803.6 399520.0 0
36657.3 402489.0 0
45281.0 398912.0 0
41542.8 401254.0 0
48351.1 400671.0 0
55066.1 400019.0 0
58980.4 400216.0 0
62166.0 398015.0 0
66393.0 399276.0 0
71608.1 399641.0 0
75578.3 397734.0 0
75345.9 401008.0 0
79118.7 399869.0 0
84499.0 398393.0 0
88853.6 398549.0 0
95209.2 398377.0 0
96960.2 400781.0 0
92523.9 401167.0 0
101256.0 401585.0 0
106950.0 400363.0 0
116920.0 397344.0 0
112536.0 399423.0 0
121814.0 398665.0 0
117576.0 401215.0 0
126792.0 401950.0 0
129816.0 398643.0 0
132687.0 402207.0 0
138026.0 400837.0 0
143362.0 398581.0 0
147767.0 399120.0 0
146136.0 401922.0 0
151474.0 397605.0 0
155022.0 400002.0 0
159707.0 398219.0 0
164295.0 397686.0 0
163916.0 401924.0 0
168970.0 401824.0 0
173831.0 398235.0 0
176992.0 402271.0 0
179391.0 398729.0 0
183404.0 399262.0 0
181661.0 402338.0 0
186707.0 397909.0 0
186026.0 401960.0 0
190255.0 400902.0 0
196553.0 397655.0 0
194178.0 399409.0 0
198160.0 400579.0 0
203340.0 397666.0 0
209478.0 396042.0 0
213190.0 398444.0 0
218119.0 397529.0 0
222532.0 397652.0 0
228118.0 394608.0 0
226528.0 399086.0 0
231475.0 397902.0 0
236433.0 397875.0 0
241637.0 396675.0 0
247106.0 398845.0 0
253245.0 397968.0 0
258465.0 398114.0 0
262429.0 397509.0 0
270140.0 395251.0 0
266530.0 399213.0 0
273865.0 398724.0 0
280526.0 396068.0 0
278270.0 399309.0 0
282452.0 399058.0 0
289315.0 396467.0 0
295393.0 395495.0 0
304981.0 397862.0 0
301568.0 400260.0 0
307702.0 401929.0 0
311601.0 398156.0 0
315843.0 399011.0 0
312876.0 401483.0 0
319630.0 400465.0 0
322410.0 397975.0 0
326322.0 398013.0 0
323602.0 401013.0 0
331571.0 399070.0 0
327671.0 401261.0 0
336877.0 397871.0 0
335326.0 401560.0 0
341730.0 397367.0 0
339799.0 400781.0 0
344506.0 400525.0 0
349653.0 400347.0 0
357443.0 397150.0 0
354484.0 400485.0 0
361038.0 398591.0 0
358805.0 400427.0 0
364402.0 398872.0 0
368525.0 398610.0 0
371066.0 401979.0 0
372790.0 398395.0 0
376089.0 397996.0 0
375892.0 401798.0 0
379178.0 398755.0 0
383609.0 398902.0 0
388730.0 398856.0 0
393009.0 399277.0 0
396882.0 399471.0 0
400414.0 400042.0 0
403151.0 397872.0 0
406987.0 399337.0 0
414566.0 400111.0 0
418288.0 402473.0 0
420072.0 398205.0 0
424525.0 398820.0 0
428226.0 400303.0 0
432914.0 399297.0 0
443263.0 398356.0 0
440057.0 400051.0 0
441513.0 402031.0 0
447931.0 398953.0 0
445122.0 402515.0 0
453065.0 400004.0 0
458182.0 400608.0 0
462498.0 398802.0 0
465990.0 399509.0 0
470111.0 400069.0 0
474257.0 400289.0 0
478714.0 398787.0 0
484017.0 400331.0 0
486513.0 397584.0 0
488875.0 401060.0 0
493986.0 400257.0 0
498295.0 398938.0 0
2984.63 407067.0 0
8030.15 404350.0 0
12787.3 405818.0 0
18049.7 407097.0 0
22266.8 404103.0 0
26287.3 405946.0 0
31332.0 404990.0 0
36235.7 407333.0 0
41015.0 405973.0 0
45966.1 404043.0 0
49137.1 407280.0 0
51665.5 403190.0 0
57067.6 404303.0 0
60835.8 407169.0 0
62619.4 402922.0 0
65083.4 406481.0 0
68113.3 403201.0 0
73168.9 403881.0 0
77639.2 404014.0 0
80285.3 405651.0 0
82444.6 402592.0 0
83808.9 406403.0 0
87512.9 402960.0 0
92067.7 405538.0 0
96801.0 404536.0 0
101006.0 407188.0 0
104790.0 404440.0 0
110166.0 404796.0 0
114756.0 403419.0 0
114974.0 407298.0 0
121524.0 403751.0 0
117722.0 404872.0 0
129628.0 405957.0 0
133906.0 407059.0 0
142315.0 403461.0 0
138152.0 405364.0 0
146607.0 405883.0 0
150486.0 402384.0 0
154140.0 404251.0 0
158496.0 403179.0 0
161935.0 407038.0 0
165967.0 405546.0 0
172896.0 402959.0 0
169870.0 406834.0 0
174719.0 406244.0 0
179477.0 405821.0 0
184352.0 405737.0 0
189186.0 405274.0 0
194475.0 403937.0 0
199029.0 404148.0 0
203494.0 403018.0 0
207569.0 400020.0 0
208167.0 404582.0 0
213128.0 403656.0 0
217877.0 402590.0 0
221892.0 402589.0 0
225657.0 403360.0 0
230644.0 403366.0 0
236423.0 403095.0 0
242275.0 402858.0 0
247940.0 404385.0 0
252079.0 402880.0 0
256563.0 402608.0 0
261442.0 402502.0 0
271692.0 402915.0 0
276999.0 404444.0 0
282587.0 403450.0 0
286198.0 400303.0 0
290617.0 401062.0 0
295637.0 402010.0 0
302650.0 404585.0 0
312349.0 405439.0 0
316604.0 402949.0 0
320794.0 404119.0 0
317313.0 407450.0 0
325434.0 404586.0 0
330358.0 404160.0 0
334550.0 405790.0 0
338327.0 404074.0 0
342165.0 404397.0 0
347087.0 404538.0 0
352084.0 404620.0 0
362440.0 402385.0 0
357499.0 404687.0 0
361704.0 405702.0 0
366633.0 402416.0 0
365383.0 406860.0 0
369297.0 405260.0 0
373359.0 405813.0 0
380254.0 402474.0 0
377842.0 406028.0 0
381764.0 406477.0 0
383508.0 403486.0 0
386625.0 402235.0 0
386334.0 406655.0 0
390785.0 403365.0 0
394995.0 402131.0 0
394776.0 405788.0 0
398862.0 403601.0 0
402448.0 406890.0 0
404313.0 402799.0 0
407371.0 407320.0 0
410117.0 402763.0 0
411868.0 406800.0 0
414716.0 404656.0 0
423278.0 402678.0 0
418989.0 406804.0 0
427778.0 404535.0 0
424282.0 407500.0 0
431636.0 402965.0 0
430805.0 405930.0 0
433704.0 406197.0 0
436787.0 402706.0 0
441537.0 405580.0 0
446276.0 406919.0 0
449824.0 403331.0 0
454978.0 404175.0 0
459111.0 405058.0 0
456412.0 407466.0 0
462573.0 402455.0 0
463646.0 406642.0 0
467156.0 403520.0 0
472224.0 404777.0 0
476704.0 403229.0 0
480682.0 403418.0 0
482083.0 407119.0 0
485788.0 404734.0 0
489447.0 404512.0 0
492619.0 403746.0 0
497718.0 402639.0 0
495240.0 405949.0 0
498540.0 406088.0 0
4026.04 412470.0 0
8734.63 409279.0 0
13985.5 411126.0 0
19027.5 410992.0 0
22985.5 408834.0 0
21840.6 412491.0 0
28134.7 409382.0 0
25776.8 412686.0 0
32233.1 409434.0 0
35346.1 411534.0 0
39978.6 411019.0 0
45072.5 409458.0 0
49846.8 411566.0 0
53157.2 407666.0 0
54686.1 411614.0 0
57135.4 408252.0 0
59268.3 411049.0 0
64264.1 410570.0 0
69766.7 408243.0 0
75254.0 408093.0 0
73038.6 412294.0 0
79674.3 408805.0 0
76843.7 411554.0 0
83881.9 410678.0 0
87811.2 407643.0 0
91335.1 409189.0 0
88063.6 412455.0 0
95970.5 408954.0 0
92698.3 412573.0 0
99641.8 411178.0 0
106121.0 408499.0 0
103403.0 411563.0 0
111028.0 410075.0 0
107381.0 412159.0 0
116306.0 411840.0 0
119503.0 407948.0 0
121417.0 411536.0 0
124955.0 407833.0 0
130028.0 410613.0 0
134758.0 410934.0 0
142484.0 408003.0 0
138445.0 409666.0 0
142294.0 412466.0 0
146581.0 410382.0 0
151049.0 407624.0 0
150890.0 411950.0 0
156121.0 408005.0 0
159339.0 411044.0 0
165992.0 408543.0 0
163464.0 411729.0 0
173110.0 410656.0 0
168540.0 412305.0 0
177122.0 409159.0 0
181645.0 409997.0 0
187319.0 409719.0 0
192939.0 409448.0 0
198034.0 407577.0 0
198071.0 412042.0 0
266387.0 405031.0 0
287844.0 405135.0 0
292684.0 406271.0 0
296696.0 407402.0 0
301751.0 409010.0 0
305217.0 411531.0 0
307379.0 407602.0 0
308438.0 412157.0 0
312352.0 410480.0 0
317364.0 412110.0 0
322504.0 408449.0 0
325491.0 411064.0 0
327694.0 408171.0 0
331566.0 407995.0 0
330499.0 412071.0 0
335025.0 410279.0 0
338884.0 407949.0 0
343927.0 409172.0 0
349410.0 409171.0 0
354535.0 409164.0 0
360480.0 410122.0 0
365697.0 412309.0 0
370266.0 409467.0 0
375545.0 409622.0 0
379507.0 409842.0 0
383185.0 410165.0 0
387517.0 411652.0 0
390764.0 408158.0 0
392207.0 411892.0 0
394454.0 409514.0 0
398432.0 408642.0 0
400465.0 411380.0 0
403820.0 410785.0 0
407946.0 410564.0 0
411456.0 410788.0 0
414812.0 407984.0 0
416573.0 411815.0 0
421233.0 410420.0 0
425629.0 412658.0 0
429055.0 408851.0 0
433519.0 410187.0 0
437433.0 407677.0 0
437772.0 412002.0 0
441034.0 409506.0 0
444264.0 410068.0 0
447549.0 411362.0 0
451778.0 408159.0 0
456023.0 411505.0 0
460123.0 409040.0 0
467971.0 408213.0 0
464440.0 410760.0 0
472273.0 409449.0 0
477243.0 407821.0 0
474784.0 411489.0 0
481669.0 411013.0 0
485495.0 408989.0 0
490860.0 409043.0 0
497331.0 409865.0 0
1695.3 416151.0 0
9202.96 413923.0 0
5832.49 417084.0 0
9513.04 417964.0 0
13273.5 416340.0 0
18287.9 415168.0 0
22876.0 415672.0 0
26705.0 416657.0 0
29653.6 417592.0 0
30979.1 413896.0 0
36885.9 415697.0 0
45854.1 413701.0 0
42131.2 415099.0 0
48659.2 415532.0 0
52578.8 415652.0 0
57320.5 415211.0 0
61335.8 414268.0 0
65127.4 415920.0 0
68728.5 412999.0 0
76041.3 415326.0 0
80210.1 413101.0 0
84166.7 414993.0 0
96831.7 413813.0 0
93179.9 416433.0 0
100964.0 415146.0 0
105616.0 415585.0 0
110971.0 415110.0 0
116144.0 417049.0 0
120811.0 415352.0 0
125493.0 413165.0 0
129675.0 415958.0 0
133615.0 413892.0 0
137755.0 413699.0 0
140660.0 416787.0 0
147321.0 414904.0 0
143849.0 415406.0 0
151969.0 416162.0 0
155340.0 412882.0 0
156034.0 416872.0 0
159899.0 415202.0 0
164706.0 415634.0 0
172700.0 415738.0 0
168446.0 417047.0 0
176995.0 413042.0 0
180943.0 414535.0 0
184655.0 413384.0 0
188925.0 414671.0 0
193855.0 414820.0 0
198081.0 417182.0 0
301698.0 413862.0 0
305822.0 415081.0 0
309857.0 415363.0 0
313764.0 414691.0 0
318223.0 417595.0 0
321991.0 413166.0 0
326353.0 414459.0 0
330208.0 417533.0 0
334851.0 414945.0 0
339508.0 412985.0 0
343877.0 413386.0 0
343287.0 416990.0 0
351806.0 412904.0 0
347618.0 414203.0 0
351840.0 417047.0 0
356310.0 414199.0 0
361554.0 415889.0 0
365877.0 416664.0 0
369795.0 413928.0 0
373413.0 412579.0 0
373346.0 416421.0 0
377880.0 413891.0 0
383016.0 414383.0 0
387415.0 416483.0 0
390771.0 414646.0 0
396771.0 413177.0 0
401702.0 414340.0 0
398850.0 417312.0 0
407241.0 414461.0 0
412871.0 415827.0 0
417792.0 417126.0 0
420918.0 414104.0 0
430218.0 412830.0 0
428775.0 416678.0 0
433778.0 415279.0 0
438335.0 415611.0 0
442833.0 414065.0 0
447857.0 415836.0 0
451503.0 412951.0 0
452868.0 417254.0 0
457396.0 415810.0 0
460782.0 413164.0 0
464565.0 414579.0 0
469388.0 413375.0 0
474423.0 414983.0 0
477980.0 412738.0 0
478015.0 416007.0 0
481590.0 415521.0 0
486123.0 413421.0 0
494215.0 413408.0 0
490468.0 415092.0 0
494169.0 417390.0 0
498016.0 414506.0 0
2446.69 420210.0 0
7342.48 421875.0 0
12269.8 420992.0 0
20129.3 418826.0 0
16690.4 419677.0 0
20315.4 422576.0 0
23454.7 419420.0 0
24254.9 422930.0 0
28259.4 421288.0 0
32805.2 418774.0 0
36602.7 420501.0 0
40708.3 419234.0 0
45426.1 418033.0 0
43456.2 421902.0 0
49854.9 418799.0 0
47453.9 422019.0 0
55558.2 420042.0 0
51392.9 421885.0 0
60814.5 418329.0 0
65152.7 420723.0 0
70741.2 418096.0 0
75867.0 419980.0 0
80431.0 417902.0 0
81344.5 421693.0 0
84356.2 420352.0 0
88128.6 417571.0 0
92645.4 421127.0 0
97437.1 418412.0 0
102634.0 420324.0 0
108296.0 419743.0 0
112460.0 419638.0 0
115760.0 421939.0 0
120359.0 420109.0 0
124898.0 418059.0 0
129526.0 421819.0 0
135381.0 418751.0 0
140738.0 421906.0 0
144596.0 418758.0 0
148955.0 419448.0 0
153835.0 420737.0 0
158594.0 419641.0 0
162165.0 418524.0 0
162141.0 422447.0 0
165637.0 419473.0 0
170814.0 420193.0 0
177814.0 418271.0 0
174245.0 421020.0 0
181305.0 421739.0 0
184019.0 417950.0 0
188355.0 419135.0 0
191528.0 417993.0 0
191547.0 422233.0 0
194429.0 418891.0 0
197339.0 422550.0 0
301909.0 417990.0 0
301910.0 421942.0 0
306822.0 419854.0 0
312541.0 418983.0 0
321552.0 421950.0 0
323715.0 417757.0 0
326705.0 421472.0 0
334675.0 419234.0 0
331832.0 422566.0 0
338727.0 417995.0 0
342810.0 421434.0 0
347458.0 419074.0 0
351716.0 421830.0 0
357039.0 419754.0 0
362134.0 420529.0 0
366714.0 420778.0 0
369348.0 417631.0 0
372028.0 421604.0 0
376730.0 419076.0 0
380336.0 417486.0 0
380210.0 421629.0 0
383916.0 419216.0 0
388703.0 421450.0 0
393645.0 418161.0 0
398184.0 421573.0 0
403438.0 419243.0 0
409369.0 419738.0 0
414561.0 421005.0 0
419266.0 421150.0 0
423576.0 418404.0 0
427054.0 422297.0 0
431849.0 420587.0 0
436742.0 419030.0 0
440505.0 417994.0 0
440285.0 422397.0 0
444325.0 419270.0 0
449072.0 420957.0 0
453280.0 421640.0 0
456721.0 420251.0 0
461627.0 418162.0 0
467036.0 418295.0 0
464625.0 422717.0 0
471852.0 418492.0 0
469499.0 422694.0 0
476464.0 418918.0 0
478219.0 422493.0 0
481382.0 419882.0 0
485328.0 417804.0 0
489606.0 419370.0 0
485656.0 422202.0 0
493577.0 421156.0 0
497991.0 418310.0 0
497712.0 422313.0 0
2798.37 425205.0 0
7422.88 426298.0 0
11331.3 425285.0 0
15679.6 423989.0 0
18983.0 426510.0 0
23507.4 426623.0 0
29088.4 426739.0 0
33292.5 423285.0 0
34564.4 427948.0 0
39212.5 424430.0 0
44658.9 426118.0 0
50065.7 425908.0 0
55573.0 425821.0 0
60499.0 423021.0 0
65085.9 425456.0 0
68888.2 423202.0 0
69963.0 427780.0 0
73076.0 423617.0 0
78174.3 423971.0 0
83084.7 424604.0 0
87707.3 423188.0 0
91827.7 426465.0 0
97605.4 424210.0 0
102496.0 425420.0 0
106643.0 424431.0 0
111443.0 423782.0 0
115274.0 425866.0 0
119596.0 424912.0 0
124211.0 423344.0 0
134988.0 425096.0 0
139316.0 425549.0 0
145837.0 423006.0 0
142899.0 426830.0 0
149958.0 423280.0 0
148241.0 427502.0 0
157801.0 423637.0 0
153479.0 425977.0 0
167237.0 423374.0 0
163566.0 426635.0 0
172477.0 424987.0 0
177211.0 423245.0 0
176861.0 427529.0 0
181312.0 426038.0 0
185985.0 423163.0 0
189527.0 426398.0 0
193801.0 426923.0 0
198160.0 427860.0 0
302344.0 426355.0 0
311043.0 423254.0 0
306826.0 425071.0 0
315988.0 423174.0 0
315554.0 427868.0 0
319893.0 426504.0 0
324175.0 425256.0 0
328564.0 426260.0 0
333447.0 427329.0 0
337552.0 423189.0 0
342478.0 426681.0 0
347129.0 423846.0 0
351447.0 426802.0 0
355582.0 424674.0 0
359854.0 424231.0 0
363972.0 424062.0 0
368313.0 425511.0 0
376433.0 423126.0 0
373840.0 427347.0 0
379478.0 426141.0 0
384123.0 424121.0 0
388754.0 427304.0 0
393738.0 424227.0 0
401665.0 424324.0 0
398187.0 427497.0 0
406363.0 423968.0 0
411056.0 424327.0 0
417672.0 425465.0 0
422607.0 423775.0 0
426243.0 427002.0 0
430202.0 425147.0 0
435933.0 422935.0 0
434706.0 427395.0 0
444999.0 424349.0 0
449852.0 425997.0 0
455565.0 425918.0 0
460029.0 422941.0 0
467002.0 426511.0 0
474056.0 422744.0 0
471739.0 427567.0 0
477001.0 426644.0 0
481721.0 424853.0 0
485838.0 426810.0 0
490309.0 424638.0 0
494578.0 424698.0 0
497869.0 426654.0 0
1155.18 428849.0 0
4921.9 430133.0 0
1199.48 431356.0 0
10010.8 429667.0 0
14914.6 428697.0 0
20224.6 431330.0 0
25947.3 431070.0 0
30917.5 431616.0 0
35660.9 433038.0 0
39102.1 429597.0 0
43337.2 430821.0 0
47679.2 430182.0 0
52452.4 430539.0 0
60682.9 428078.0 0
56905.5 430713.0 0
65132.0 430507.0 0
68861.6 432578.0 0
75345.0 428096.0 0
72887.8 432303.0 0
80497.3 428753.0 0
77506.6 432544.0 0
86425.5 428872.0 0
91340.5 431020.0 0
95680.0 429595.0 0
100213.0 428733.0 0
105038.0 429371.0 0
109570.0 427843.0 0
109460.0 432676.0 0
113587.0 429641.0 0
117627.0 428594.0 0
121687.0 428991.0 0
118403.0 432859.0 0
127768.0 428520.0 0
133394.0 429648.0 0
136733.0 432475.0 0
138661.0 428510.0 0
141459.0 431448.0 0
145100.0 430337.0 0
148466.0 431670.0 0
152836.0 431526.0 0
158551.0 428892.0 0
168153.0 428458.0 0
163872.0 431405.0 0
173182.0 431230.0 0
177683.0 430957.0 0
181372.0 431260.0 0
185721.0 428505.0 0
185450.0 433012.0 0
190656.0 431678.0 0
196264.0 431828.0 0
302025.0 430957.0 0
306103.0 429271.0 0
310792.0 427826.0 0
309134.0 431877.0 0
313539.0 432187.0 0
318815.0 431678.0 0
324518.0 430193.0 0
330026.0 431018.0 0
335282.0 431976.0 0
337885.0 428496.0 0
346403.0 432736.0 0
347139.0 428714.0 0
350906.0 431968.0 0
356347.0 429786.0 0
362729.0 428937.0 0
368772.0 431190.0 0
378752.0 432162.0 0
383618.0 428832.0 0
386764.0 432228.0 0
391519.0 432649.0 0
393718.0 428953.0 0
396765.0 432585.0 0
403763.0 428569.0 0
405327.0 432118.0 0
408441.0 427967.0 0
409272.0 432599.0 0
413246.0 428662.0 0
417841.0 430576.0 0
421809.0 428377.0 0
421776.0 432886.0 0
426758.0 432184.0 0
430027.0 429045.0 0
437453.0 431797.0 0
440672.0 427830.0 0
446070.0 429603.0 0
451867.0 431334.0 0
457517.0 431330.0 0
462008.0 427989.0 0
467214.0 431341.0 0
475732.0 432314.0 0
481095.0 429681.0 0
485370.0 430747.0 0
489379.0 429562.0 0
493793.0 428331.0 0
497673.0 430951.0 0
2520.67 434576.0 0
5039.56 437471.0 0
8003.65 434343.0 0
13117.2 433496.0 0
17547.9 436978.0 0
22915.0 436139.0 0
27976.8 435928.0 0
33182.3 437742.0 0
40293.9 433906.0 0
44161.9 434885.0 0
49301.3 435595.0 0
55162.8 434885.0 0
60718.3 433524.0 0
65643.8 435892.0 0
70509.6 436189.0 0
74938.1 436501.0 0
82821.5 434423.0 0
88364.4 434010.0 0
86855.9 437313.0 0
90599.7 437706.0 0
94225.4 434501.0 0
99265.9 433329.0 0
104422.0 434908.0 0
111555.0 437531.0 0
113966.0 433954.0 0
116328.0 437433.0 0
120961.0 436711.0 0
123468.0 433225.0 0
127496.0 434514.0 0
124789.0 437422.0 0
131744.0 433585.0 0
135075.0 438056.0 0
140270.0 436051.0 0
145386.0 434722.0 0
150111.0 435720.0 0
154604.0 436951.0 0
159677.0 434894.0 0
168235.0 433432.0 0
164673.0 436221.0 0
168798.0 437867.0 0
177830.0 434608.0 0
173513.0 437091.0 0
182437.0 436020.0 0
187610.0 436881.0 0
193608.0 437347.0 0
198193.0 435462.0 0
305583.0 433832.0 0
301572.0 434981.0 0
310396.0 437596.0 0
316312.0 436339.0 0
322493.0 435203.0 0
327225.0 435157.0 0
332081.0 435395.0 0
341066.0 433001.0 0
336757.0 437767.0 0
345514.0 436486.0 0
350034.0 437225.0 0
354881.0 435427.0 0
360114.0 434421.0 0
365112.0 435398.0 0
369100.0 436200.0 0
373226.0 434763.0 0
376549.0 437717.0 0
379891.0 437268.0 0
383616.0 435860.0 0
388663.0 436911.0 0
393910.0 437091.0 0
401818.0 432916.0 0
399505.0 437205.0 0
405422.0 435708.0 0
411063.0 437692.0 0
414303.0 433694.0 0
418473.0 437007.0 0
424142.0 437196.0 0
432610.0 432963.0 0
429145.0 436796.0 0
437579.0 436586.0 0
442036.0 433396.0 0
447386.0 434371.0 0
453558.0 436839.0 0
458085.0 435715.0 0
461958.0 433502.0 0
465641.0 436240.0 0
470792.0 436030.0 0
477874.0 437901.0 0
481651.0 434568.0 0
487033.0 435293.0 0
492985.0 433634.0 0
497952.0 435326.0 0
11457.2 439161.0 0
38517.1 438258.0 0
58825.6 438494.0 0
78993.3 438565.0 0
95062.0 439500.0 0
100321.0 438652.0 0
107360.0 438484.0 0
161680.0 439876.0 0
304109.0 438796.0 0
320176.0 439504.0 0
324669.0 438671.0 0
341885.0 438877.0 0
358095.0 439050.0 0
371458.0 438850.0 0
444434.0 438015.0 0
449072.0 438267.0 0
461561.0 438967.0 0
483171.0 438632.0 0
491104.0 438657.0 0
495227.0 438192.0 0
POINT_DATA 5000
SCALARS Radius float 1
LOOKUP_TABLE default
5782.6 5529.52 6324.23 4796.58 3979.26 3471.03 5253.55 5820.48 4862.21 5113.21 3929.19 4107.03 4478.15 5379.87 5925.6 4501.51 4792.73 4736.58 4931.38 3485.26 4329.05 4151.94 4049.23 5337.48 6124.89 5708.81 5252.48 4780.03 5495.39 3996.0 3856.1 4665.12 3383.4 4133.88 4834.9 3850.77 6044.04 5415.48 5120.0 3863.18 2356.98 4998.37 6182.6 5492.18 5258.36 5061.3 3642.12 3163.97 5812.43 5122.66 5906.14 5484.19 7513.1 5254.28 4436.4 5733.48 4672.91 5580.89 3588.44 5645.7 5176.86 6810.52 5840.26 3672.51 6110.27 5561.06 5073.35 3615.22 5670.04 4380.59 3589.27 6716.79 3607.45 5759.91 7613.27 4951.03 5255.32 6037.08 5096.78 6756.95 4129.43 3843.58 3320.52 4194.5 4270.53 5344.25 5191.63 4593.7 4150.99 4216.92 4742.68 4344.58 5634.83 5495.84 6268.1 4861.06 5374.51 5320.28 6739.08 4797.52 4569.12 4298.67 5960.66 6608.73 5011.84 7034.11 6261.42 4502.5 3771.48 4043.57 4271.69 5681.38 4138.42 3708.04 5513.6 3240.09 4556.36 6082.81 3191.99 4685.34 5601.05 4929.8 3586.91 3103.0 3554.9 4015.92 5542.21 4487.31 3936.02 4044.71 5980.74 4094.62 4927.02 5546.39 5325.36 5484.83 5085.53 5351.6 4730.36 4715.55 5867.73 3951.75 5013.56 4499.64 4375.68 5542.27 5054.98 6030.06 5170.02 3557.27 4927.31 4688.68 4402.52 4517.56 4182.53 5903.42 3955.56 3761.32 4118.05 4366.19 5553.16 2938.66 4940.78 4231.61 4008.92 3942.53 3379.84 4827.82 3997.1 3260.67 5123.52 3038.33 4392.68 4333.2 7199.21 4523.7 2240.39 5091.39 5293.9 6142.94 3912.37 4727.24 4602.25 4790.08 5082.47 4763.45 5445.87 3815.26 4704.72 4177.94 4571.7 5896.46 5022.8 3784.5 3780.23 6481.79 5224.12 7042.12 4819.73 6326.39 4471.58 5873.69 4962.09 3999.48 4359.62 6946.21 2586.12 5433.8 4011.77 5499.11 3633.87 5922.5 5198.77 5987.17 6013.14 2765.2 4901.41 5110.37 5664.98 4382.74 5927.43 4651.28 3693.63 4384.42 4516.43 5481.78 5637.59 4937.14 5043.05 5816.2 5693.81 5109.54 6483.19 3829.13 5945.65 6759.9 5538.89 7021.47 5416.38 6059.59 4955.55 2720.68 5701.86 3563.63 4238.81 4468.59 5885.03 2837.58 5325.02 5200.76 5017.13 4862.64 5185.34 4432.58 6684.56 3968.64 4688.67 2635.86 5292.64 6166.5 5065.13 5936.02 5305.17 4861.08 4003.05 5390.22 4805.87 4712.33 5227.21 5697.78 4667.36 4091.31 6372.62 4254.17 4295.38 5090.24 5615.42 7565.34 5923.5 4612.68 4281.49 4973.83 6342.25 6691.39 4840.84 5135.69 5344.0 4020.32 6045.46 4245.72 5908.1 6048.7 6133.92 3719.84 4178.4 3095.48 4166.08 4123.6 4850.14 5163.55 3382.7 6817.32 4319.79 6098.14 4472.17 4203.26 5188.81 4730.41 6057.22 5062.71 6125.34 4527.08 5347.48 4850.01 3970.25 5147.67 3979.82 5011.31 5138.31 5264.06 4659.59 6327.9 4048.37 6355.42 4362.19 5690.56 4948.92 3115.91 3307.12 4493.48 5924.89 4002.16 4174.52 4138.16 3486.22 4684.5 6230.49 6458.82 5418.62 4601.27 5493.32 5740.68 5926.61 6051.14 5836.15 3261.21 4345.55 6704.06 3653.41 3871.88 3856.01 5246.2 4390.66 5279.39 3673.74 4827.23 5205.43 6116.18 7447.37 4924.6 4385.06 4733.32 7184.19 2899.43 2924.37 4290.3 3867.67 5399.73 4660.72 3888.21 5891.05 6038.78 6902.81 6644.76 5629.19 4786.6 5740.84 6445.94 5530.87 4310.18 7134.64 5978.9 4187.56 3629.62 4997.27 4301.06 4877.67 4290.14 6562.18 4156.38 5316.75 4541.21 4164.68 5669.65 5934.22 5624.49 5762.59 7092.87 4666.81 3703.1 3954.91 6471.55 2965.01 6643.85 3637.61 5501.93 6222.42 5654.31 3745.84 4938.74 5690.26 4156.2 4497.59 5965.78 4374.35 4810.12 5643.58 5215.05 4292.06 5577.04 5006.58 4602.86 3688.8 4548.16 3369.23 5449.18 5492.26 5244.78 5762.84 3937.74 4749.8 6084.86 5478.92 4778.34 5551.36 6894.71 3091.3 4414.54 5789.98 6138.47 7054.71 3641.64 5489.43 5747.75 4277.89 5054.25 4796.33 4195.44 5539.32 5360.19 6496.85 5600.93 4874.39 5541.59 4124.71 5728.85 6337.56 4911.47 5803.39 5863.59 4381.97 6257.19 3255.82 5242.73 2812.98 4065.69 5603.15 4695.45 6052.7 3921.18 3798.62 5308.1 3666.57 4907.89 4937.02 5655.21 4645.41 4433.59 4320.28 5542.14 4218.06 5480.13 6308.71 4716.19 5514.76 3456.98 3498.2 5105.16 3066.13 4302.5 6006.16 6009.88 7055.53 5013.67 5826.04 5339.78 4970.88 4143.78 4763.66 4636.5 4940.42 5923.4 5085.71 5499.39 5644.82 5463.38 5945.21 5696.88 5607.14 3923.03 5975.63 5252.34 6396.74 4138.46 2775.04 3821.72 4986.77 6318.18 5586.81 3948.17 4621.75 4551.24 5358.59 4220.88 4515.71 6519.71 6640.13 5082.6 5810.84 4230.54 5094.44 3748.24 4655.49 4467.94 4850.81 6038.14 2540.31 6029.66 5527.54 5573.7 5697.4 4727.62 4270.95 4055.8 7325.81 5280.17 6425.26 5143.58 4794.96 6186.19 4839.34 5083.08 6834.49 5525.39 3998.5 5938.34 4024.3 6394.38 5555.28 5169.36 4737.14 4686.65 5834.74 5556.96 5788.23 5581.75 6392.01 3599.45 6730.19 4907.06 4073.93 3735.44 5163.9 6043.3 5952.75 6332.36 6122.55 2739.94 4931.53 4223.33 5911.67 3323.28 6695.82 6405.76 5794.24 4678.38 5448.61 5050.65 4827.33 5206.48 5513.57 5729.23 5226.0 3365.82 4538.95 5965.15 4780.2 6090.91 4946.42 5019.93 5081.78 6116.33 6263.44 6343.14 5774.97 5462.21 5750.71 5470.77 4831.47 4643.85 4004.04 4289.17 5564.02 4274.61 2965.79 4410.55 6898.19 6035.6 5137.34 4481.53 5330.45 4581.13 3610.4 4219.07 6387.01 5367.52 3092.35 4322.15 5210.03 3629.96 5478.47 5351.39 6142.37 6061.47 4933.21 5375.47 4723.12 5120.49 5201.36 5262.61 6302.8 5409.61 6038.2 4005.44 5206.78 5555.88 6732.43 5028.96 3866.16 6362.12 4484.76 4840.01 2980.99 5611.2 7933.0 4455.12 5173.87 4894.16 5380.13 5711.87 5118.27 4941.22 5932.23 5791.61 3369.13 4479.66 3043.85 5367.2 5461.13 4726.76 5839.13 5495.68 5489.34 5708.14 5537.72 3920.42 8332.24 6155.31 4553.56 5329.64 6049.55 5709.62 5835.78 4127.74 2476.04 5133.97 3942.07 7443.72 3937.08 5260.34 4709.35 6586.45 4373.3 4750.78 4163.5 5724.64 5078.86 5100.1 3561.29 4963.34 3295.83 4459.28 4260.92 5960.56 4118.84 4020.95 6313.06 3474.39 6470.3 4200.03 6062.05 5082.74 6915.83 6072.45 7099.43 5526.14 5198.29 5423.0 5077.33 3856.59 4746.52 5413.79 6338.89 6202.55 5025.39 4714.54 5893.5 3320.11 5030.91 6022.17 5119.37 3982.23 6163.38 4566.18 3459.9 4964.09 4809.42 5024.9 4306.53 5659.17 5094.81 5972.06 5713.22 5861.71 4359.04 3183.98 3794.63 4524.28 3778.1 5152.36 4511.82 5826.64 4220.65 6820.42 4816.2 6321.41 4896.52 4751.02 3372.79 5184.56 5282.64 4715.72 4669.66 4808.52 5046.33 5607.24 5053.92 6352.26 3847.38 3818.59 4863.72 5002.48 6623.85 4262.82 5102.36 4342.9 5069.84 4051.44 4241.89 5054.74 5941.72 5991.09 5126.91 6600.94 4788.58 5371.02 6155.1 5876.71 6262.72 5029.78 6515.84 4888.6 2990.77 4739.14 4918.77 4371.99 4219.78 3885.86 5235.29 4479.94 6250.23 6413.02 4863.27 5862.86 6049.79 3493.7 5374.98 4719.7 6939.12 4735.33 5411.85 5092.37 6444.77 6314.07 4287.63 5315.4 6449.45 3975.31 3689.45 3824.16 5572.95 3868.18 6723.16 5584.06 7111.16 4547.19 3817.13 5507.24 6851.54 4583.31 4503.89 5806.08 4853.39 4997.27 4093.08 4449.22 5543.27 4717.05 5287.2 6135.57 5998.38 4312.67 5423.8 4270.24 4989.15 5017.78 5015.69 6175.81 4727.24 6677.09 4305.57 6959.81 4829.35 5201.67 4424.7 4089.76 5526.55 3192.41 5215.15 4987.87 3315.57 5804.71 4764.96 5727.3 4242.52 5356.51 4277.88 3057.03 4087.15 4143.08 7500.97 3948.23 5228.18 5787.31 5065.11 3927.99 5868.82 4050.9 4978.31 4099.77 4537.32 4981.9 4656.78 3600.43 5131.24 5196.67 6496.67 5474.8 3664.11 5117.47 4925.63 5882.65 4434.19 5187.7 4623.61 4188.3 6261.75 5177.64 4255.31 5453.3 4407.9 3492.19 4584.5 5122.63 4703.08 6345.13 5274.19 5516.95 4406.4 4413.85 4844.57 4027.46 4470.98 5776.37 4516.28 3627.82 4044.45 5125.78 5344.43 4373.47 5045.38 5350.88 5372.61 3686.21 6480.17 5023.15 4377.07 3813.22 5101.59 5570.3 4336.42 5243.29 7589.94 3130.65 5628.24 5856.11 3327.49 4109.88 4234.94 4562.29 5013.13 5080.66 3417.33 4926.42 4164.13 4642.34 4520.1 4947.52 5874.89 4293.03 5813.4 4389.21 3791.79 4925.44 4754.05 4951.47 6084.93 4307.28 3697.96 4739.42 5538.93 5020.12 4745.45 2631.9 5281.28 6255.18 4668.71 4758.21 7228.46 6362.14 6719.88 5978.82 5266.5 4523.88 4066.38 4948.98 5227.52 4414.48 4092.24 5163.02 7144.24 4906.82 5687.83 5004.23 6442.69 6320.71 4648.04 3464.83 6607.87 4721.32 3293.56 3163.78 5274.14 4903.82 5746.28 4082.47 5511.6 4338.08 4378.3 6134.99 4094.73 4989.56 4718.54 4440.57 5548.29 6766.43 2315.64 4390.41 5226.56 5599.49 5313.22 3905.51 3999.94 4864.22 3901.8 5759.46 5083.41 3921.08 4190.31 5678.96 5262.19 4244.9 6070.58 6034.41 5452.83 5130.91 5402.24 4519.22 6445.22 3844.9 3695.36 3963.86 3848.93 4306.11 5935.47 3402.32 5903.66 4528.49 5004.67 5365.89 5992.26 3960.8 5070.39 4980.85 5714.58 5110.45 5208.32 5248.77 4083.97 4607.02 5153.74 4528.09 3895.51 4165.81 6291.51 4128.98 5174.89 5882.89 6246.22 4188.32 5246.61 4100.38 5344.77 4723.48 4899.11 5097.87 4278.07 7267.18 6256.02 5320.92 5269.18 4406.1 5034.59 4942.77 4263.33 4454.63 5080.18 5912.61 3279.1 4403.98 4560.84 4729.43 5776.57 4562.74 5683.26 5598.74 5139.5 7493.3 4814.55 3527.05 5698.77 2477.07 6413.11 4305.16 5092.28 4965.89 5659.95 4152.85 2908.7 4453.64 4517.73 5469.47 5660.16 3838.47 2588.37 6736.03 6235.57 3623.87 5916.16 6934.37 6113.95 4050.08 4097.57 5017.5 5563.79 6171.13 5511.88 4512.11 7055.42 5486.68 6048.86 4285.32 5490.43 5022.28 5197.52 4959.34 4948.5 4527.02 4531.14 5013.42 4564.34 3838.56 4871.44 5076.35 6020.48 6375.99 5200.05 5234.29 5313.66 5419.37 4466.03 4511.54 5409.33 5196.0 4923.9 4973.78 3329.99 3947.47 3296.27 5091.68 4713.25 4204.84 6243.0 6673.96 3556.85 3161.47 5441.96 3435.9 4288.3 5370.52 4652.29 5774.81 3746.31 5498.32 5027.98 5346.27 6475.1 4969.21 2691.29 2845.98 4880.14 5289.52 5314.85 4305.43 5450.44 6510.17 5742.65 5592.32 5381.16 5565.13 6193.35 6086.96 5233.78 3701.27 5653.9 5046.21 4929.14 5894.61 3979.54 5304.13 5944.09 5833.06 4923.41 4497.31 5384.76 5529.42 5257.12 5243.43 4537.14 5551.9 3757.34 6415.61 4687.64 4419.71 4888.12 5037.06 4541.8 5175.29 5842.56 5887.15 5412.31 3087.09 3423.15 4890.5 3981.07 5452.42 5328.22 6853.85 2395.5 3497.9 5941.61 5782.48 6248.6 5683.61 3836.45 5100.25 6894.26 4986.51 5339.38 5178.99 5383.07 4591.87 4790.78 4247.15 6552.22 5651.07 6248.81 5273.35 4091.8 2651.49 4645.58 5512.23 5275.32 5985.29 4898.94 4178.15 4613.31 4733.04 6119.09 5788.66 7531.29 5069.25 5048.89 5935.03 3991.03 6390.78 7435.25 6826.57 4788.87 4249.46 4495.87 3702.37 6022.72 4643.31 5527.33 6917.52 5402.21 4989.09 4982.31 3848.54 4307.48 5941.4 5331.02 4871.96 4863.23 4402.67 4470.61 4631.83 4384.88 6887.27 6008.49 4806.34 4287.53 5612.21 5945.08 4968.03 3306.14 5490.58 4863.79 4702.06 3830.46 6031.67 4689.15 6138.12 4428.78 4655.16 5409.66 4345.67 4765.72 4642.66 4039.91 4752.14 5329.59 4950.97 5512.16 3197.63 4863.96 5191.08 5203.08 7480.41 5163.77 4488.85 3731.84 4901.07 5186.3 3436.15 4151.76 4020.4 3493.47 4596.75 4933.65 5443.58 4558.46 5805.86 4049.02 4470.4 5311.03 5255.12 6169.11 5615.35 4027.09 6422.84 4502.18 5379.09 4602.85 4962.77 5872.05 4853.02 6259.23 5181.4 5088.44 5670.2 4711.62 4247.23 4114.24 4268.65 4694.83 5509.42 4354.08 4256.43 5936.36 4520.62 3903.75 4755.47 4485.99 5127.16 5475.8 5314.69 6050.81 5543.46 6185.89 5965.81 4750.17 5660.85 2330.66 3990.25 4177.19 3691.0 4752.51 3587.05 6229.37 6718.19 5282.91 4425.84 3797.33 7256.35 4800.69 6566.1 3555.86 6386.78 4996.99 4896.39 6081.14 5480.83 4220.46 4607.85 5128.57 6000.7 3169.67 5604.21 3361.92 6710.88 5395.14 3967.48 6213.04 6622.11 3685.13 6790.73 5251.4 3867.19 5097.69 5857.79 5276.7 5036.58 6119.63 5411.02 4752.9 4287.16 5199.44 4062.5 4435.51 5374.07 4588.7 5683.95 3766.55 4579.69 3554.48 5010.2 6496.52 5005.85 4216.17 6484.17 4721.02 4938.72 4254.37 3374.08 4031.78 6098.1 5708.99 5687.85 5346.68 5296.29 4611.53 4285.66 4896.11 5172.53 4135.62 5801.99 5534.94 5210.48 7644.38 7552.94 6101.92 5323.3 4998.21 4662.56 5166.79 5349.31 2976.22 3405.98 4649.22 5394.55 5094.52 4946.74 2682.24 5996.33 5928.32 5229.48 5475.7 4016.18 5526.75 5435.74 4244.99 5327.45 5560.26 3997.96 4439.35 3460.94 6184.4 3758.07 4373.45 4236.14 4407.87 5733.62 5282.51 4460.92 5945.89 4042.28 4105.55 4340.76 6065.22 4221.28 4456.39 5514.84 3633.79 5421.53 5937.08 6070.3 5233.29 4312.56 4612.06 5204.04 4750.58 5926.11 6667.68 5235.11 5211.38 5089.62 4590.55 4741.26 5920.32 4255.85 3988.3 6543.13 5149.72 5776.96 5464.25 5486.48 5301.47 4617.55 3645.12 5424.88 5415.85 8659.64 5469.13 6027.62 6123.03 5966.61 5711.11 4575.94 3546.71 5768.57 5564.23 5950.04 4231.83 2435.33 6401.43 4558.47 5020.71 2681.29 5094.48 3872.61 4238.4 4318.48 6132.95 5266.22 4860.33 3685.13 6004.68 4051.34 3627.55 6239.84 4635.6 4256.67 3457.48 3931.07 6430.39 5417.15 3688.16 4681.72 3949.6 4945.39 3950.63 5415.19 6631.19 4612.62 3619.07 4275.57 4467.04 5626.61 6385.23 5817.25 2983.99 2614.4 5061.98 6363.92 6205.93 4923.24 5830.72 4419.61 3828.81 5309.98 4082.57 5255.18 5169.9 3004.16 4767.78 5235.17 4421.12 4779.5 4435.36 5254.49 6649.96 4303.19 5784.3 3914.2 4256.57 6088.68 4643.56 4135.08 5620.74 4778.82 6124.08 5467.84 5053.95 5266.01 5253.37 5767.9 6515.8 5869.4 3685.65 3701.16 4186.6 5895.77 4732.09 6136.49 4356.25 4757.74 4216.95 4209.49 5742.74 4244.21 4947.24 3875.05 6200.54 5148.58 4199.45 6599.66 4055.54 4233.8 5765.42 6098.95 4997.83 4893.49 5325.44 5021.88 5956.65 4498.25 4188.87 3735.24 6574.95 4074.48 6333.29 5731.57 5997.88 5839.71 5576.92 6408.83 3930.79 4004.35 5226.97 3312.06 5180.76 3361.26 6799.4 5278.36 5865.39 4427.28 6079.11 3082.32 3658.37 7440.72 5376.71 5703.6 6326.18 5661.62 4867.08 4266.03 6648.68 4713.74 5407.78 4084.49 6632.99 4537.6 5147.36 6260.79 7177.44 4563.46 6553.94 5726.66 5460.65 5652.0 5463.41 5225.33 4929.75 6045.22 4614.3 5134.39 3532.3 5769.98 5442.32 2221.99 3580.58 4863.01 5356.79 5657.36 3619.79 5029.47 6306.21 2978.76 2040.66 7016.27 5884.9 3876.21 5689.26 4916.22 6022.7 4940.84 5750.07 4833.46 4809.67 6045.67 3946.28 3821.94 5439.9 5367.73 3540.11 4640.06 3456.47 4652.01 5421.64 7234.66 4207.54 4886.12 6419.12 4976.12 4817.16 5453.98 3991.42 4388.63 5102.75 4200.09 4597.29 5931.77 5151.21 5398.64 6817.57 4477.04 3614.96 3886.68 5703.74 5662.55 5737.92 4360.23 5365.24 5293.51 4763.96 5754.18 5008.63 3418.99 4480.95 4993.35 4409.63 6218.95 5521.25 3661.9 5370.85 5949.46 3178.54 3776.94 4765.02 5629.39 4448.13 5070.29 4807.28 4768.61 2261.36 5075.55 5280.69 4220.03 6923.84 5227.59 5449.46 6179.96 5703.07 6113.54 4662.43 3963.76 4043.66 5528.53 6799.88 3062.43 5990.52 5426.78 2967.38 4159.35 6477.91 4237.98 3091.67 6439.37 4081.97 5401.99 5580.92 5973.33 5067.46 3583.21 2511.46 4011.37 2775.69 4785.25 6519.43 5876.64 5424.46 4857.84 4908.49 4962.21 4858.44 3468.42 4673.35 4771.13 4992.42 5297.19 4351.38 5933.7 7248.4 5280.12 4444.97 5984.81 3498.16 4409.27 4588.99 5471.74 3548.39 3673.28 4928.27 4858.51 3375.28 5625.65 4301.61 6107.89 4446.84 5660.55 5148.08 4834.87 5760.22 3672.21 5938.17 4795.43 5097.95 5108.06 3573.73 4693.52 6853.04 4745.43 5831.96 4747.55 3056.7 3755.95 6234.32 4586.19 4446.06 3450.93 4270.74 5132.68 6595.03 4558.15 5222.16 4690.55 5107.23 5136.08 5558.68 4802.32 4010.57 4599.38 2684.03 5246.47 6157.04 4522.21 7422.36 5506.19 6719.94 4950.67 5832.37 6166.29 5453.6 5409.63 5294.77 4709.05 4630.82 6109.49 4813.08 5860.67 4540.86 5332.65 3764.1 4835.83 5604.35 6316.56 4332.87 6420.81 4715.58 4450.7 5151.52 5369.08 3101.75 4347.74 4009.62 5291.9 2081.58 4874.18 6505.78 5461.55 3298.2 4270.15 6865.76 6449.64 6464.8 4684.44 4749.59 5799.69 3809.69 5571.72 3208.96 7051.9 4184.23 4144.57 5550.75 6834.41 6226.14 5466.33 3000.29 5721.05 4247.69 4209.31 4514.39 6242.79 4321.21 4344.34 5713.03 3583.49 5052.84 4366.74 5297.16 3184.64 5206.33 5530.49 5653.03 3718.69 4514.79 2216.82 4509.89 4940.28 6752.75 5269.38 5607.3 2928.82 4222.4 4000.43 3420.08 4568.41 4912.04 3624.7 4539.07 5464.68 2685.81 5591.76 4585.31 5010.04 6625.18 5323.91 4570.98 5097.45 6293.89 2761.07 5737.75 4983.39 5366.52 3778.02 5533.72 5533.42 7132.12 3678.08 5518.57 4187.31 6191.29 3240.51 4527.99 5161.01 4298.15 4628.4 6051.83 4642.93 5941.9 4263.16 3973.12 3077.84 6642.76 6024.75 4497.78 5567.93 5987.42 4442.22 6451.33 5413.31 3012.99 6400.08 4743.59 5208.14 3317.83 4396.25 3763.05 5092.24 5549.49 5423.42 4518.04 4766.06 5012.5 5435.19 7093.13 4953.1 5818.95 4093.99 3940.49 4406.05 4680.94 5089.1 5828.35 5876.72 5236.43 5285.07 4680.14 4608.41 4187.94 5980.59 5021.77 3796.15 4801.8 7216.98 5271.02 5718.28 4601.74 5950.45 5849.65 5134.67 4165.21 4215.0 4936.96 4603.5 4481.76 5452.78 5065.26 4304.41 6192.0 5885.28 6579.31 3004.34 5323.55 3022.6 4811.76 4914.45 4698.87 5351.56 4661.03 5160.59 4691.91 5262.35 4475.83 4255.34 4510.8 5889.35 4394.56 4275.07 5825.38 4185.61 4047.87 5742.47 4917.99 6552.21 4367.78 5417.8 5146.37 4836.16 5300.96 5151.11 5463.48 5730.33 5545.46 4376.7 4543.1 5190.61 8325.01 3764.06 4440.81 4523.39 5278.56 5434.47 5829.22 5631.14 4243.79 5811.18 5433.65 4008.15 4887.76 4669.06 4811.32 4286.49 6184.88 5829.32 5551.95 3918.87 2275.45 4633.05 4901.2 6605.86 4383.56 4990.79 3562.79 4516.53 4122.92 3604.14 4452.54 5810.77 2711.19 5474.15 4028.32 4099.92 4884.59 3858.06 4511.7 4083.79 4304.63 5263.27 6300.92 4173.54 5599.29 6038.68 5046.12 4807.4 7013.17 3805.67 4590.01 6506.86 5088.57 5580.34 3852.6 5775.31 4706.5 4647.67 5375.12 4356.36 4892.44 5578.94 7610.49 4286.17 3684.56 6028.09 5375.1 4172.6 5313.12 3984.88 5318.53 4732.09 4320.42 4281.98 7165.9 5064.79 5344.83 5480.3 7509.24 4146.81 5896.26 5388.78 6101.13 4573.72 5099.21 6969.28 5636.4 5698.96 4350.12 5227.02 5670.0 4232.16 5222.51 4344.51 5680.94 3834.43 3781.77 5581.55 5193.01 3474.5 6550.44 4250.88 3860.83 6348.03 5732.27 4792.39 5146.37 6917.62 4013.38 4343.78 5263.3 3352.35 4909.65 6523.86 7693.4 4326.48 4437.07 3449.37 5491.9 6405.0 4659.16 5789.55 4909.31 6522.59 5711.62 4798.17 5166.79 5425.98 6479.39 2895.63 4997.91 5079.22 5381.54 4714.83 7519.2 6355.68 4478.6 3953.55 4063.9 4469.54 4314.56 3928.53 5606.51 5740.65 3834.47 6349.67 6329.53 6101.86 4227.41 5993.0 4803.57 5966.42 4110.59 3332.49 5354.66 4214.44 5378.23 4787.97 3746.36 6789.23 3989.7 4777.03 4246.61 5452.36 3804.5 6486.37 5498.42 3344.57 5220.76 7046.11 3427.63 4863.97 6342.48 5756.75 5599.7 4587.67 4163.74 3665.95 4296.69 4095.75 3319.67 3603.51 4298.45 5283.8 4076.59 6609.84 5135.96 6464.15 5658.37 4707.06 4972.17 6074.94 5491.37 4222.77 3783.54 5268.38 3475.67 5527.23 4805.33 7038.89 3863.67 4814.12 5067.56 6137.8 6069.3 2735.53 5116.6 3747.03 2783.85 4356.49 4526.81 3994.07 4219.94 5907.46 4264.91 6740.71 5399.29 5971.22 6602.43 3568.28 5996.66 4405.42 2995.67 3598.08 4599.81 5698.23 7300.58 3608.06 6633.61 5217.95 4867.7 5484.36 4277.24 4075.28 5291.05 5161.1 4619.2 5166.41 5067.56 2596.96 5701.75 4350.15 4139.3 6541.45 4750.49 5078.31 5391.48 4923.43 5131.15 4847.14 3950.27 5116.66 3566.79 5374.67 4981.43 4741.28 4215.2 5069.89 4157.29 6813.72 5327.75 4609.02 4896.65 4946.23 4638.18 4196.37 6448.66 4453.97 6945.98 5138.2 3503.41 5783.48 4449.98 4701.5 4504.35 4771.65 4840.44 5093.82 5951.81 3924.14 6918.35 4834.3 6238.32 6804.79 6471.42 6372.13 5369.5 4428.14 5164.1 4124.49 4479.11 5714.25 6685.4 5699.53 4850.06 6332.01 7044.29 4234.18 7085.01 5980.95 6193.08 3862.77 5887.01 5168.35 5388.39 5335.47 3728.18 5633.61 5048.19 6799.23 4888.27 4592.15 6487.56 4854.11 5533.19 4998.22 5417.21 6104.26 5583.61 6063.64 4986.71 7382.3 4022.56 5522.21 3772.3 4855.01 6208.9 4923.57 3340.09 6061.63 2279.05 4829.35 8137.11 5484.32 6650.77 4067.96 4824.12 7104.73 6162.3 3272.75 4264.54 3516.27 7043.44 4263.78 4643.9 5228.75 6047.14 5009.83 5210.38 5717.8 3629.44 5003.78 3299.24 6246.56 4061.6 2603.64 5107.0 6212.15 6502.97 4783.07 4852.58 6083.28 5211.6 3556.79 5806.31 5456.71 7317.04 6412.67 7001.83 5012.97 4036.91 5589.37 5439.49 6639.64 5212.43 5454.12 6348.54 4066.57 5642.35 6357.47 5404.01 6016.19 5535.91 3230.13 6176.67 5325.96 5412.24 5016.02 4920.21 4581.37 4049.16 5851.61 3936.95 6153.94 6836.82 3858.17 4631.99 4740.98 3185.39 5128.77 7122.87 5797.36 4243.26 4153.84 5119.86 5089.26 5084.17 4901.44 3776.8 5096.43 6156.21 2460.79 4653.83 6171.71 3628.89 6589.82 4668.88 5027.43 5522.75 5867.64 4438.58 6059.93 5602.53 5073.02 6545.43 3472.91 6760.92 4989.2 4711.04 7144.05 4506.18 2970.9 6542.5 4383.47 5971.21 6318.23 4206.98 5156.76 6101.57 4891.38 4793.65 2949.12 5955.86 4532.89 4533.37 4848.46 5742.09 2779.99 2884.65 5887.38 5807.46 6942.34 3658.05 5478.11 4549.69 5526.31 5030.15 4058.87 5174.75 5048.55 5932.07 4984.46 4024.31 5948.71 5844.72 3856.53 3992.97 5460.89 6040.74 5260.85 4054.22 7228.94 5393.65 4961.99 4648.21 4393.16 3311.29 6423.81 6192.77 6413.15 6103.11 5416.45 6459.51 4955.16 4904.51 4147.31 5989.05 5751.15 5950.88 4441.22 5853.89 6551.93 4595.12 3110.13 4386.8 6484.43 4625.67 4725.01 3485.54 3104.96 6735.97 5305.59 3636.15 4330.58 6114.89 5754.6 3288.01 4355.83 6870.97 2202.77 5351.86 6056.87 5474.01 4149.55 6201.86 3380.69 5166.89 4140.4 3639.44 5446.4 5725.37 3868.62 5966.75 4729.42 4844.83 5244.78 5652.87 5135.63 6384.7 5952.38 3896.27 5807.52 5230.02 5307.35 7554.58 4731.21 5491.63 3124.7 6102.98 5138.33 3477.1 5769.14 5261.19 4811.22 6379.14 5216.26 4749.96 5377.37 5869.67 5483.7 4311.48 5018.69 4899.73 3152.86 5457.66 6394.19 5973.89 5963.36 5518.11 5087.14 4342.18 5169.48 6016.08 6776.22 6064.71 4467.13 6060.17 5934.82 5415.45 4385.81 6592.93 6350.71 5096.24 3381.82 7107.63 4831.93 4023.93 5868.89 5494.28 4099.26 4834.39 5493.89 3831.52 4918.76 4208.41 5826.78 2856.55 6214.73 4553.68 3758.22 4268.19 4532.7 3205.68 5561.74 6100.73 4788.08 4908.75 6556.26 4593.7 4349.13 3687.65 3634.5 5478.95 3851.85 4019.34 4658.24 3623.19 4906.11 4387.39 4564.1 5825.55 4848.14 5366.22 6193.73 3742.11 4192.21 5712.35 3597.43 5701.52 4743.9 4158.91 5311.55 5321.17 3360.86 3719.11 4869.25 5545.21 3877.8 6418.11 4501.78 5039.12 4824.81 5135.5 5007.21 5545.59 5206.47 4057.17 7066.96 4263.65 6106.43 6761.81 5467.63 4127.53 5210.75 5175.89 5361.87 5232.85 6816.66 4473.29 3971.08 6204.65 4482.9 6818.91 3503.65 4869.48 5510.96 4745.16 4584.81 5509.51 5071.98 5719.79 3199.4 4371.08 4316.5 5254.24 4914.03 5086.29 5144.56 5139.18 3034.16 5551.43 5049.99 4201.03 4333.87 4458.64 3657.69 6015.02 4922.49 3572.94 5001.58 4820.17 6456.58 5244.98 5366.11 4384.28 5944.3 7307.21 5640.72 3619.72 4565.93 4504.52 5615.84 4464.73 5788.97 6440.38 3274.85 4580.06 4835.97 6419.64 5262.47 4587.7 5196.92 5644.81 4568.64 5666.95 4642.2 6555.44 6358.93 2205.51 3894.64 3703.49 4374.74 4757.2 5975.23 4745.79 4211.82 5470.04 6550.4 4891.67 5513.8 4887.52 6631.28 5350.88 6571.31 4392.65 5429.3 4944.51 6653.07 4697.91 5179.17 5270.51 5148.1 7261.51 4968.14 5949.73 4312.48 5527.13 6370.33 4278.57 5081.08 6318.25 6864.06 5001.87 4312.15 3644.78 4883.63 4078.93 3814.65 3886.72 7778.01 4034.05 5127.82 5798.38 6436.74 3862.91 3419.87 4456.26 3908.98 5113.6 6328.42 3563.14 5851.63 4954.81 5610.53 5755.15 3926.11 5464.83 5414.58 4991.35 3512.94 5601.55 4807.35 5334.36 5750.35 4489.99 3683.86 5293.75 5658.14 5473.72 7124.45 5144.44 2617.39 5034.69 4198.94 3217.67 5079.64 6003.78 5684.25 3766.69 5188.53 4882.66 4521.75 4027.63 5603.68 4526.34 5610.95 5532.72 3220.8 5042.75 4598.92 5579.39 4979.52 5490.75 5224.64 5214.63 3495.68 5783.94 4202.77 5836.14 6008.81 5510.9 4505.28 3492.83 5585.14 7039.98 6006.89 5792.98 5910.86 5690.96 5805.1 4456.11 4027.33 4810.98 5026.76 5091.22 6282.38 5212.92 5556.0 5748.9 3742.31 4608.34 5695.79 2781.96 4431.23 4467.0 4994.65 4258.98 3903.91 4929.6 3919.62 4368.28 4548.45 5730.61 4508.18 4062.56 5969.37 4928.35 4509.46 6163.54 5212.37 6500.49 5438.92 5110.11 4244.49 5036.98 4120.07 4813.33 3840.21 5569.2 6746.66 5420.67 5635.32 4827.61 4316.45 5409.08 5481.64 5673.75 5241.22 6647.08 6263.3 3422.29 4501.05 4407.79 4537.03 6548.29 3990.96 5352.24 7362.42 5793.12 5469.17 5473.05 4373.2 4583.52 6711.21 6280.13 5244.22 5832.29 4438.76 4960.64 4983.3 5401.4 5053.15 5124.17 6239.68 7320.78 4234.88 5782.43 4708.31 3873.92 4092.07 5347.9 5657.55 5727.79 5188.82 5043.14 5072.5 4749.18 3663.0 6304.49 4420.6 4475.38 3622.8 5917.34 5740.98 6545.99 4728.55 4554.68 4945.0 4658.11 4551.26 5114.07 7142.95 4559.74 5064.67 6618.21 3717.47 4504.86 6200.63 4583.94 1937.5 3844.54 3538.53 996.652 2628.22 5965.58 5058.51 4050.03 4952.52 3429.57 5410.33 5661.6 6099.28 5285.75 5385.03 4169.15 4778.37 5360.67 5968.54 5592.54 3247.97 4114.2 4904.37 4358.81 4326.06 4651.64 5034.46 5757.29 5016.46 5061.75 3769.24 3743.76 5153.18 3425.69 4971.29 2606.51 3864.92 6119.99 4159.81 4446.58 5372.82 4402.17 4775.49 4681.29 5749.6 3845.9 4174.44 4834.44 4213.05 4224.3 4717.73 4928.85 4546.96 4316.0 5424.55 5134.72 5287.25 4770.51 3787.08 5630.9 4140.92 4585.04 6570.35 4383.68 6666.67 6063.44 5046.31 4337.32 5849.53 4680.69 3352.34 4901.29 3242.31 4898.29 5372.25 3234.26 4830.13 3494.16 5134.17 5370.9 4074.16 4904.35 6172.27 5390.33 5124.34 5278.54 5729.0 5729.92 4179.87 6224.13 4761.84 3661.67 5510.45 4730.14 3994.39 5499.59 5667.51 6331.74 4198.9 5431.29 5235.87 5273.37 3904.07 5553.94 6502.99 4392.75 4921.1 4191.01 5577.41 6511.37 4012.92 4462.87 4218.16 4933.49 6139.64 4692.32 4474.83 5236.24 3127.83 4242.63 3269.54 7407.91 4051.18 4651.99 4420.11 5863.0 6127.39 4972.18 5329.76 4124.76 7200.89 4802.98 4833.55 7224.99 3908.56 5265.63 5684.88 4431.06 5730.2 4645.86 5620.88 4941.52 4529.77 5900.0 4325.13 4262.74 3783.79 5078.73 4248.14 5279.19 4016.6 5192.92 5275.57 4786.66 5891.25 5370.1 5902.67 5393.76 3684.15 7123.04 5906.57 7541.76 4932.29 4990.23 3784.94 4506.66 4439.71 4833.67 5325.91 5157.38 4646.51 4546.44 6203.03 4700.07 4732.37 5713.36 4704.92 4287.25 3987.69 3814.16 4589.06 4216.44 3999.5 4346.07 6102.49 5836.26 6015.22 6061.85 6449.06 5241.75 4731.53 5640.12 5760.98 4954.76 5764.52 4390.64 6523.78 4045.67 4608.01 6005.95 4308.49 4581.1 6241.77 5317.19 7360.12 6223.98 5821.49 7050.08 5580.44 5998.13 4763.4 5454.11 4236.86 6010.59 4128.1 2955.36 4618.73 3220.29 4141.21 4064.58 5023.41 3791.41 952.938 4184.21 5473.89 6089.45 5265.21 4985.3 4966.07 4400.14 4666.12 6219.34 4920.88 4013.86 4177.47 2918.64 5345.73 4770.63 5678.58 4385.49 5114.23 5495.0 4454.74 5512.44 4826.52 2904.46 4685.4 3763.9 4577.73 4288.45 5419.57 4147.49 4081.34 4642.74 5384.86 3770.22 4848.98 5150.84 5184.98 5087.97 5339.82 4519.03 4930.17 5110.27 4085.96 4745.44 5762.82 4612.68 4232.33 5462.6 5617.29 3035.06 5770.92 4262.19 3093.38 4597.88 5095.52 4878.93 2002.78 4941.02 5806.61 3682.35 5182.13 3965.3 6110.48 4125.9 4564.41 5426.4 5951.86 5247.01 5853.12 5702.4 4841.7 5810.17 3450.07 4657.24 5674.63 5340.05 4639.8 4212.15 4263.18 4489.29 4301.93 5120.92 3200.6 4918.64 4636.53 3646.95 3402.44 5537.61 6084.88 4491.96 4199.44 4467.51 4479.5 6261.67 5460.57 3435.13 5065.78 5703.34 4521.42 6668.98 6649.52 6043.34 4939.56 4747.68 4959.72 4712.17 4845.91 4461.67 5784.37 3142.09 6016.87 5515.73 6715.73 5209.55 4678.7 3306.84 3484.81 5308.33 4271.07 5995.4 4184.47 5890.25 5700.79 6710.14 5759.79 4598.54 5218.42 5188.22 4841.23 4512.07 4896.43 5984.8 5463.06 4462.35 3986.41 5260.52 3185.09 5532.75 6949.65 3469.18 2945.34 3372.95 5676.61 5846.95 5064.23 5268.15 5701.63 5819.0 6347.72 4924.07 3460.93 4629.02 5124.86 6240.42 5146.0 4788.7 4608.62 5407.96 5084.5 4987.28 4071.75 6206.98 6638.25 5078.59 4607.18 4775.04 2403.72 2646.13 5162.67 3629.49 4705.68 5766.05 5469.35 5117.64 6334.53 4721.98 5252.82 4397.06 3543.98 4053.12 5056.26 5878.55 4014.44 6604.72 6002.77 4431.46 3794.47 4610.55 3207.84 4967.02 3977.98 4614.49 5400.69 4128.93 4462.5 5573.31 5004.68 3808.04 4023.88 4723.71 4405.61 5348.11 6273.6 5136.87 5638.7 5024.32 4708.17 2741.2 4644.88 3779.45 5790.42 4983.1 7350.26 5591.77 5003.3 3668.93 4009.24 3756.96 6245.52 3954.77 6793.1 4068.31 3125.13 5166.05 5077.29 3612.44 7035.54 4850.5 5866.91 6405.69 5763.05 5129.68 5357.39 4252.18 4659.88 6296.54 5797.21 4208.37 6019.35 5069.9 6740.35 3673.6 4550.92 6215.87 5146.1 6485.77 5191.26 3669.32 4762.1 5393.43 6896.55 4685.65 5377.01 6023.07 6470.23 6506.63 4140.04 3495.3 4668.8 5322.11 5125.17 4697.49 5735.08 4859.01 4726.2 5034.05 4816.51 4426.02 4711.15 3825.48 4658.59 4474.39 3810.68 2804.54 5459.92 6478.35 3990.94 4196.62 5453.77 4756.8 4357.11 5477.8 5486.89 4176.32 6069.78 7208.19 4241.68 4549.51 3587.93 4975.85 5196.08 4095.83 4517.29 5695.25 5323.95 6171.01 5716.42 5796.26 4468.26 4620.95 4603.04 5578.18 4870.94 5368.93 4488.39 5271.88 6121.56 4927.73 5914.5 6006.16 5721.14 3565.32 5710.33 3622.48 4096.86 5344.44 6432.8 4626.72 6562.03 4815.47 5549.71 4759.99 4410.82 3899.7 4368.12 5134.33 6443.99 4365.58 3889.98 5214.4 5399.43 5193.58 5034.34 5695.44 3769.2 3835.81 3422.21 3916.42 5036.14 3228.27 3956.24 7558.99 4142.1 5043.14 5333.04 5445.91 4521.99 4812.59 6842.54 7115.67 5675.45 3361.11 6038.56 2807.46 5599.16 4179.8 3488.34 5428.24 4493.79 5684.05 4932.56 3667.93 4279.44 5192.49 4899.19 3487.31 6643.4 5813.79 5058.34 4028.22 3918.94 5575.11 5293.13 3852.82 3768.46 4507.36 5167.53 6224.85 7145.73 4168.52 4556.19 5800.81 5403.97 5106.46 4795.08 6562.92 5648.78 5501.73 3671.06 4697.24 4983.43 6081.3 5117.52 6311.89 5233.76 4683.28 4217.36 6549.8 2820.07 4825.73 5679.74 4851.18 5076.84 4165.36 5288.33 4871.77 5368.52 5811.26 5062.77 5205.38 5685.74 4884.93 6075.99 4600.71 6028.63 3957.38 5927.2 5035.71 4419.79 5407.69 6060.06 5866.42 5960.5 5152.78 5544.27 4117.9 4753.76 4638.09 4781.9 4441.91 5330.26 5339.6 5828.25 5939.22 4725.11 4215.05 4271.93 3626.86 4604.1 6371.96 5076.11 5524.45 5990.75 7133.44 3953.26 5600.21 4750.81 4282.11 5467.51 6589.13 4625.53 4096.47 3543.37 2809.19 5114.67 5005.6 4916.7 4104.04 5589.53 2638.82 5593.79 5025.42 4965.24 6379.38 6257.79 4495.75 5438.55 4849.5 5353.23 6229.83 4523.81 5106.33 5791.25 5293.37 5198.94 5933.54 4028.35 5559.79 7168.2 4602.57 3763.85 4571.74 3419.07 5740.78 4796.12 5001.51 5997.91 5385.86 5115.42 5131.77 4082.4 3186.07 4369.86 4967.51 5482.76 5173.82 7212.97 3720.7 4211.36 5490.64 5378.24 5698.53 3604.31 3856.73 4507.46 4450.49 3468.45 5580.95 3549.92 3393.59 4032.06 5246.81 5089.1 5888.95 5394.78 3463.34 2853.68 5329.84 4998.37 6559.82 3879.83 6565.95 5658.35 4577.98 5886.81 6022.78 5537.34 5884.99 5726.42 4674.9 7025.09 3392.26 2549.95 4433.12 5461.72 5487.63 4361.24 6599.28 5138.93 6945.69 6406.8 7086.69 5368.66 6170.9 4304.64 6875.73 4436.48 5226.42 5758.98 5615.35 3967.76 6734.39 6213.24 5987.88 5942.45 4228.53 4150.76 6123.46 5005.72 6142.88 5155.28 5111.26 5388.73 4574.54 4764.83 4949.55 5490.54 1969.87 4841.28 3132.34 5262.79 4047.95 4494.15 5507.38 6889.5 4710.88 5300.17 4416.87 3869.39 4057.4 4052.43 4896.67 5534.23 3934.11 6025.77 6815.96 4466.22 4496.51 6153.71 5917.08 5483.37 5418.12 5322.07 5934.05 5770.07 4714.66 5101.6 4984.17 4656.01 5327.39 5781.62 4037.86 2347.41 5602.62 4542.16 2030.03 5714.51 5628.97 4938.33 5353.66 4484.78 5030.33 5527.27 5104.39 5234.2 4612.13 5847.91 5846.6 5327.05 4109.44 4903.84 4290.49 4434.65 6688.53 5977.66 5927.1 5209.5 5065.74 5876.51 4873.23 6731.89 5464.05 4733.41 5879.24 2980.31 5410.6 3148.79 5453.2 6348.93 6824.53 4332.64 4742.82 4422.23 5232.16 6791.86 3989.26 4209.0 4820.68 4930.72 5728.58 3745.02 4887.73 6297.99 5918.95 4538.89 5817.74 5887.71 4313.38 6598.99 5250.56 3633.58 2468.16 6294.14 4339.97 5203.75 5169.09 5122.38 2459.88 5262.85 4210.24 5470.67 5901.71 5342.9 5252.22 5733.12 5043.34 6436.29 4087.32 4009.68 5517.65 6647.85 3303.49 2569.12 4161.32 4622.73 5161.74 7336.37 5932.28 5560.23 5099.9 2960.5 4298.7 4975.32 5118.86 3902.48 4183.4 6030.39 5833.78 4733.79 4905.53 4823.06 3799.01 7392.65 5254.49 5288.64 3757.23 6828.8 6883.86 3350.99 3579.59 4979.5 6161.94 4065.28 5057.59 5939.29 4461.14 5285.6 5575.11 5615.06 5203.54 5061.74 6189.67 6142.94 5001.69 6581.56 3980.46 4061.87 5383.9 5165.31 5158.44 3798.09 4585.37 3886.56 4288.5 5715.51 4511.05 3456.3 6561.94 5259.21 5317.83 5092.93 4256.08 2803.01 5881.93 4399.52 4444.0 6771.18 6182.19 5910.66 7415.84 4981.81 4138.59 4970.55 5141.03 8123.59 4621.33 5765.14 5157.73 4541.22 4934.66 4946.08 4984.01 3539.68 6217.33 4557.1 4605.39 6270.59 6175.27 6045.26 6500.45 4103.76 4907.55 4286.61 4094.63 2932.52 5264.83 4603.66 4757.87 4969.68 5136.51 3901.53 6636.43 5431.14 6815.51 5313.86 4457.05 5189.91 6031.22 3618.64 5485.84 6424.77 5703.84 4335.79 3530.82 5453.69 5797.32 5432.04 5689.56 5159.67 6556.86 3921.27 3702.45 2832.83 5827.3 6036.99 3010.1 3825.98 5087.03 4667.84 3906.41 4691.15 4123.08 4512.6 4260.38 4636.45 4932.27 5225.11 6793.49 6060.19 4962.35 5114.51 5129.4 4655.37 3720.38 5585.25 5256.75 5023.61 6351.89 6530.78 5059.37 5783.38 3043.77 4139.39 5645.54 5237.55 3909.94 5088.64 6264.03 6589.8 4151.74 6920.92 3729.16 5319.1 3783.36 3038.91 4181.93 3922.28 6570.43 3820.19 3445.92 5236.69 4586.82 4745.37 3133.28 6026.04 6200.05 5418.98 5859.17 4034.41 3518.14 4052.49 4150.44 5326.03 5522.34 5771.98 4420.35 5717.45 4948.96 5256.82 5117.83 4013.86 5268.27 4645.93 4813.81 5448.64 5244.95 4634.25 5901.8 6417.61 3721.69 5395.12 5783.69 6074.39 6210.0 3483.61 5350.9 6738.9 4460.89 4554.24 4157.1 3939.96 8052.53 4867.12 6044.01 6520.19 4637.3 1458.87 5973.57 4840.44 5734.07 3997.68 4819.83 4801.16 4767.54 5071.38 5121.08 4696.03 2927.84 5688.77 6177.68 4698.7 2848.44 4220.43 6229.64 6263.87 5743.8 5084.76 6666.34 6605.11 4645.91 6834.92 3557.46 6379.33 5971.95 6298.8 3689.24 3979.46 5178.07 5151.19 5777.26 4171.02 6509.54 6119.0 7012.36 5128.59 5028.06 4002.99 4993.49 4886.99 4293.3 5587.3 3161.1 3572.73 4864.38 4474.96 4084.87 4790.63 5259.29 3584.05 4589.22 4916.75 4818.53 5097.85 5584.64 6189.04 6224.64 4221.03 3799.55 5638.51 5082.66 4550.77 3563.33 4337.93 3550.88 5536.0 6786.37 4746.15 6275.25 6892.33 4758.84 4731.37 4505.3 4452.36 3976.0 4672.86 4511.34 6463.71 4068.41 4742.35 5009.21 5394.79 4574.03 5290.37 5850.38 4526.87 5264.08 3562.8 4227.66 4691.01 5192.82 5245.95 4174.22 3573.84 5821.42 4067.89 6294.09 4571.57 5131.07 4121.07 4197.87 5524.28 5105.54 5731.43 5462.1 6353.81 3414.67 5444.36 5044.68 5899.78 2649.69 3467.11 5000.74 4817.75 5772.57 5637.53 3882.37 4095.4 4718.61 5188.57 6351.48 5357.33 3830.7 5252.37 5432.4 4262.52 7430.48 5992.06 5545.68 6080.69 4970.12 4967.93 6369.66 5678.08 5922.62 6241.48 4414.09 6033.28 5957.82 4188.16 6286.27 3717.22 6327.54 5616.66 4802.36 2943.17 5368.28 5327.71 5466.13 5257.38 5075.23 5625.02 4975.56 7282.36 3826.01 4829.77 5581.01 3928.99 4125.75 5749.53 5652.73 5130.57 5402.45 6321.97 3985.93 6412.84 6071.59 2589.19 3792.06 6079.55 5485.61 4937.36 5308.4 5310.33 6583.37 3688.83 5367.05 4758.76 4449.73 5647.11 4088.72 3945.62 3743.85 6236.46 5342.17 6379.3 5015.67 3795.63 5189.4 4576.71 4894.15 6157.59 5201.3 4345.51 4048.73 6223.33 5631.32 5793.14 4491.26 4609.65 6345.2 5704.61 4832.21 5410.73 4379.91 4942.63 6139.74 4975.57 4730.97 7066.26 3057.3 4594.89 6150.31 3677.85 5214.71 4515.02 4677.84 4811.11 3463.53 4924.52 5379.52 6126.03 2970.24 5314.67 6044.69 5563.47 5658.05 5651.46 6593.1 4066.36 4000.51 6032.45 6033.93 5011.37 5516.37 4026.03 2827.92 4441.44 6908.32 5336.61 5563.09 6153.26 4848.15 4439.09 3282.57 5523.81 4798.13 5648.59 6697.45 3873.79 5717.67 4432.32 5515.59 3224.81 4499.54 5037.58 3775.38 4046.22 6457.89 5640.67 6572.17 3751.73 5555.89 3374.62 4766.47 4926.62 4871.1 3917.09 6009.93 5872.45 5270.1 5125.45 5191.29 3784.68 4947.64 6305.9 6649.21 5507.07 4542.62 4654.92 3470.69 5286.55 4880.78 4322.56 5522.18 5509.09 5223.1 3873.72 5212.05 4592.49 5479.86 3625.98 6474.5 4444.92 4702.32 6959.88 5971.9 3746.62 5090.48 5247.73 4876.37 5034.02 5582.28 4769.62 5945.25 4649.5 3856.4 5181.31 4696.06 5985.75 4137.16 6189.29 5984.55 6581.13 4569.32 5803.3 6538.04 5848.41 4090.28 4246.83 6126.5 4034.88 6322.0 3511.5 6007.1 5067.92 5488.96 3188.21 5128.03 3720.92 5919.27 4793.06 5087.3 6637.38 6188.33 6111.23 6916.18 5786.06 5873.62 4996.91 3920.44 4450.51 6033.72 4866.8 3768.62 3851.47 4966.74 2329.93 4959.94 1635.31 5639.4 3162.27 6185.73 4083.24 6520.96 5092.44 5432.2 4232.44 5217.62 4612.4 3312.3 4746.19 6381.58 5715.25 5212.2 5108.42 4611.21 4630.5 6296.36 3354.94 5237.27 4451.76 7885.41 5782.25 4104.97 4844.2 4575.72 4081.77 5114.61 6118.13 4420.3 4202.12 2694.25 6332.64 6492.44 4083.1 4613.32 3482.73 5130.56 4957.99 4063.26 5345.05 4997.89 5093.28 4859.95 4132.08 4850.49 4699.77 4981.55 5144.23 6188.62 6153.07 4414.06 4763.04 5944.52 4413.56 4532.67 5050.2 5316.05 2513.38 4908.32 5260.13 3995.08 5019.84 4810.74 5784.38 3900.93 5475.83 4149.17 4329.8 5728.27 5672.46 5202.33 5108.84 4582.12 4295.25 4520.14 7394.47 5357.14 4850.95 6261.13 5374.09 6271.22 3421.81 5244.47 3920.64 5378.75 5510.89 6186.24 5822.7 3780.07 4137.41 3868.69 5466.49 5447.74 5007.41 4907.48 3692.99 6213.74 4369.87 4488.41 6938.87 5412.07 5512.57 4806.99 3771.91 4813.55 5856.43 3465.03 6178.19 5349.85 4616.81 5799.86 5172.1 4362.94 4469.82 6545.78 4870.14 4404.87 2932.2 5105.72 5767.65 4750.76 5003.49 3964.03 4907.03 5497.27 5617.91 4948.21 2181.29 4987.01 5161.02 4706.31 3124.49 6265.48 4735.99 4203.68 4739.56 5145.39 3818.37 3996.93 4701.03 6351.95 3352.46 5195.09 5200.1 7679.2 4881.51 6131.52 2626.41 4311.92 6009.88 6729.99 5093.41 6842.35 5464.34 3621.63 4777.96 5801.89 5908.57 6833.5 7296.47 5742.39 4821.41 4924.53 5616.11 4499.52 3874.12 4813.24 4028.13 4457.73 6476.35 3113.64 4304.75 6260.58 4067.24 3053.19 6139.9 3074.49 6571.26 4487.51 4246.24 6805.02 5354.48 4900.26 4729.45 5783.88 4167.55 5002.38 4720.34 4865.11 4731.16 5502.14 6470.87 4495.33 5282.67 4159.89 5747.9 5178.55 4038.17 4287.93 5146.69 6203.24 6818.23 5081.65 6679.12 5652.19 5806.74 3878.8 6578.62 4698.94 6284.12 4796.04 3839.0 5669.15 5229.56 6011.4 3330.85 4672.34 6052.22 5376.41 5533.52 5003.63 5410.33 4695.7 4380.86 4944.08 4082.01 5269.39 5576.16 4305.35 4216.33 5210.22 5832.72 3903.9 4444.95 4721.2 3943.77 5242.38 6081.35 5003.81 5459.52 6262.18 5566.5 5663.36 6225.05 5434.04 5125.53 3997.52 5994.21 4444.54 5779.9 4909.74 5310.33 5299.03 6664.54 3922.98 5161.73 5259.48 4008.67 5254.93 4803.4 6608.94 2613.78 4780.16 5417.07 3834.01 5656.84 4433.23 5738.37 5759.19 4739.41 5847.27 4490.2 4706.59 5734.84 5480.86 3982.31 4950.07 4720.22 5402.81 4919.13 4600.81 5640.63 4124.33 5168.97 4358.06 5093.51 5647.93 6705.93 6201.49 5449.09 5154.74 4605.61 4465.56 4131.08 5386.95 3864.19 6540.57 5332.11 5315.71 6004.72 6158.93 4823.14 5373.78 5438.5 4621.32 5699.4 5237.76 4994.98 4286.84 3948.21 6423.96 5296.05 5263.86 6988.4 5056.32 4060.17 4747.24 6051.35 5302.53 4909.13 4287.61 5648.02 3308.75 4439.17 2451.27 5677.42 2701.42 4929.35 5606.22 6673.92 5151.68 4884.94 5362.15 4609.98 4738.72 4752.31 5240.97 5579.04 4276.59 5405.6 3929.35 5403.81 4884.93 5082.25 4759.38 6964.78 4374.05 5036.84 4565.36 5813.68 4025.08 5732.11 5040.9 3618.53 4770.21 5596.68 8013.28 3846.55 5283.65 3796.73 4644.68 3082.16 2892.36 5981.54 6789.66 5312.2 5416.41 6760.64 2515.5 5177.88 5551.79 3793.83 6981.47 4582.24 4333.23 4328.76 5561.63 3747.96 5611.29 5940.5 6568.45 5004.22 4601.54 4280.92 3832.09 4696.92 5705.96 6437.99 6898.8 6632.04 7360.62 4893.72 4985.45 4983.56 4072.4 5699.51 5345.65 2489.44 4489.18 5499.37 5863.36 4632.75 4752.94 4836.76 5551.09 3950.53 4501.1 6058.13 5894.69 6550.61 4987.01 6635.51 6094.34 6779.82 5543.67 3999.81 4867.13 4604.34 4863.27 4502.12 3255.93 5442.79 5051.39 6327.61 4633.59 5733.59 5575.8 4455.61 3695.72 6874.6 5106.9 5569.85 5523.96 4223.53 4733.37 6960.97 4287.15 3037.72 4523.9 5282.51 5504.65 5669.41 4951.02 3919.47 4602.7 3783.35 4868.66 4004.39 4037.16 5159.9 6395.63 4987.48 5943.61 4248.58 5479.17 5911.29 4694.27 4542.25 4414.23 4849.21 5233.88 4785.55 5245.4 6189.81 3916.15 5145.13 3860.8 7370.52 4726.5 4521.88 5103.3 4963.88 7263.57 5888.94 4122.2 5175.88 5267.65 5739.69 4790.16 3509.34 5360.88 3731.58 3166.37 4977.64 5369.42 5207.08 4714.52 5205.53 4587.19 5543.05 4883.13 6028.89 5333.16 5755.98 4888.17 5392.85 5581.47 4384.91 5275.27 4277.54 4713.56 4531.46 5925.82 5448.68 4739.5 6210.48 6377.45 4182.05 6853.07 5268.93 5306.31 4535.94 5126.08 5604.0 3760.4 5020.37 5438.6 5467.05 3724.23 4727.98 4516.26 3647.26 5077.2 4274.05 5529.09 4072.95 4491.62 3865.5 
SCALARS Velocity float 1
LOOKUP_TABLE default
1.19211 1.19213 1.19215 1.19189 1.19203 1.19196 1.192 1.19178 1.19204 1.19201 1.19177 1.19198 1.19178 1.19183 1.19178 1.19178 1.19187 1.19178 1.19178 1.1918 1.19178 1.19178 1.19177 1.19193 1.19188 1.19177 1.19178 1.19177 1.19178 1.19177 1.19178 1.19178 1.19178 1.19185 1.19188 1.19196 1.19196 1.19194 1.19189 1.19184 1.19177 1.19186 1.19183 1.19178 1.19193 1.19178 1.19177 1.19208 1.19196 1.19183 1.19183 1.19187 1.19178 1.1919 1.19177 1.19197 1.19194 1.19179 1.19177 1.19178 1.19181 1.19181 1.19206 1.19199 1.19179 1.19218 1.19192 1.19176 1.19178 1.1918 1.19178 1.19188 1.19169 1.19211 1.19182 1.19211 1.19215 1.19201 1.19186 1.19189 1.19208 1.19203 1.19195 1.19178 1.19198 1.1918 1.19207 1.19178 1.19186 1.19179 1.19186 1.19213 1.19231 1.19193 1.19197 1.19197 1.1919 1.19178 1.19185 1.19184 1.19244 1.19216 1.19191 1.19202 1.19214 1.19215 1.192 1.19203 1.19208 1.19204 1.19178 1.19184 1.19177 1.19178 1.19189 1.19178 1.19178 1.19181 1.19178 1.192 1.19178 1.19195 1.19178 1.19178 1.19178 1.19182 1.19178 1.19178 1.1918 1.1918 1.19181 1.19189 1.19193 1.19198 1.19197 1.19194 1.1919 1.19186 1.1918 1.1919 1.19185 1.19193 1.19191 1.19175 1.19198 1.19207 1.19184 1.19178 1.19208 1.19192 1.19187 1.19187 1.19182 1.19207 1.19233 1.19231 1.19177 1.19178 1.19185 1.19183 1.19204 1.19199 1.19178 1.19223 1.19194 1.19178 1.19178 1.19193 1.19183 1.19217 1.19175 1.19183 1.19208 1.19228 1.19214 1.1921 1.19205 1.19186 1.19181 1.19213 1.19177 1.19203 1.19197 1.19172 1.19198 1.19189 1.19214 1.19175 1.19189 1.19175 1.19192 1.19221 1.19176 1.19192 1.19189 1.19195 1.1919 1.19191 1.1919 1.19184 1.19178 1.19219 1.19227 1.19205 1.19228 1.19214 1.19224 1.19201 1.19182 1.19204 1.1919 1.19182 1.1922 1.19178 1.1919 1.19177 1.19178 1.19181 1.19178 1.192 1.19178 1.19194 1.19184 1.19194 1.19178 1.19185 1.19179 1.19174 1.19185 1.19179 1.19187 1.19188 1.19194 1.19198 1.19203 1.19197 1.19191 1.19186 1.1918 1.19189 1.19178 1.19194 1.19192 1.19178 1.19198 1.19207 1.19184 1.19178 1.19176 1.19203 1.19193 1.19187 1.19184 1.19212 1.19248 1.19188 1.19178 1.19184 1.19201 1.19192 1.19209 1.19199 1.19197 1.19227 1.19194 1.19207 1.19193 1.19238 1.19183 1.19218 1.19183 1.19198 1.19182 1.19196 1.19235 1.19233 1.19216 1.19207 1.19207 1.19183 1.19207 1.19179 1.19212 1.19201 1.19219 1.1918 1.19207 1.19197 1.19217 1.1925 1.19184 1.19172 1.19202 1.19174 1.19184 1.19232 1.19191 1.19224 1.19195 1.19167 1.19189 1.19193 1.19178 1.1922 1.19213 1.19208 1.19231 1.19232 1.19222 1.19199 1.19182 1.19199 1.19178 1.19178 1.19216 1.19188 1.19189 1.19195 1.19177 1.19181 1.1917 1.192 1.19194 1.19194 1.19195 1.19188 1.19176 1.19178 1.19178 1.19182 1.19181 1.19181 1.19219 1.19198 1.19192 1.19196 1.19202 1.19197 1.1919 1.19185 1.19203 1.19183 1.19193 1.19179 1.19191 1.19149 1.19203 1.19202 1.19204 1.19186 1.19173 1.19207 1.19193 1.192 1.19205 1.19205 1.19224 1.19255 1.19184 1.19181 1.19191 1.19193 1.19198 1.19178 1.19178 1.19239 1.19178 1.19263 1.19202 1.1923 1.19195 1.19188 1.19218 1.19183 1.19192 1.19232 1.19203 1.19202 1.19204 1.19204 1.19153 1.19216 1.19219 1.19198 1.19237 1.19196 1.19253 1.19187 1.19211 1.19251 1.19189 1.19192 1.1925 1.19182 1.19227 1.19239 1.19189 1.19222 1.19188 1.19194 1.19198 1.19192 1.19235 1.19212 1.19198 1.19196 1.19205 1.1923 1.19225 1.19225 1.19218 1.19193 1.19229 1.19193 1.19147 1.19175 1.19219 1.19187 1.19193 1.19201 1.19177 1.19187 1.19176 1.19199 1.19177 1.19194 1.19198 1.1919 1.19178 1.19231 1.19184 1.19179 1.19181 1.19181 1.19201 1.19182 1.19183 1.19195 1.19201 1.19196 1.19181 1.192 1.19201 1.19189 1.19193 1.19176 1.19171 1.19186 1.19146 1.1919 1.19229 1.19185 1.19155 1.19219 1.19193 1.192 1.19204 1.19201 1.19253 1.19184 1.19181 1.1919 1.19196 1.19195 1.19178 1.19177 1.19174 1.19225 1.19246 1.19232 1.19194 1.19172 1.1922 1.19179 1.19201 1.1918 1.19186 1.19196 1.19236 1.1923 1.19208 1.19153 1.19206 1.19205 1.19218 1.19219 1.19174 1.19258 1.19226 1.19211 1.19235 1.19191 1.19214 1.19161 1.192 1.19205 1.19196 1.19202 1.1917 1.19232 1.19199 1.19197 1.19191 1.19236 1.19178 1.19199 1.19224 1.19214 1.19188 1.19228 1.19192 1.19134 1.19183 1.19178 1.19231 1.19205 1.19215 1.19183 1.1919 1.19206 1.19198 1.19187 1.19194 1.19197 1.19188 1.19167 1.1923 1.19186 1.19189 1.19184 1.19199 1.19178 1.19185 1.19178 1.19189 1.19197 1.19196 1.19191 1.19187 1.19204 1.19188 1.1918 1.19169 1.19184 1.19185 1.19182 1.19189 1.19183 1.19199 1.19191 1.19182 1.19204 1.19201 1.19248 1.19249 1.1919 1.19181 1.19189 1.19188 1.19169 1.19173 1.19174 1.19156 1.19223 1.19242 1.19199 1.19254 1.19175 1.19157 1.19217 1.19219 1.19204 1.19217 1.19211 1.19183 1.19212 1.19238 1.19228 1.1922 1.19173 1.19209 1.19181 1.19199 1.19231 1.19253 1.19254 1.19223 1.19181 1.19228 1.1919 1.19219 1.19167 1.19205 1.19178 1.19197 1.19189 1.19177 1.19229 1.19199 1.1915 1.19189 1.19233 1.19197 1.19191 1.19196 1.19218 1.19224 1.19209 1.19189 1.19228 1.19186 1.19137 1.19186 1.19185 1.19163 1.19176 1.19203 1.1918 1.19177 1.1919 1.19206 1.192 1.19193 1.19168 1.19184 1.19183 1.19188 1.19209 1.19202 1.19192 1.19182 1.19174 1.19183 1.19185 1.19174 1.19188 1.19192 1.19199 1.19192 1.1919 1.19206 1.19188 1.19199 1.1916 1.19188 1.19184 1.1918 1.19186 1.1918 1.1917 1.1922 1.19229 1.19259 1.19197 1.19234 1.19247 1.19245 1.1919 1.19193 1.19234 1.19188 1.19146 1.19171 1.19156 1.19178 1.19192 1.19377 1.19234 1.19167 1.19176 1.19168 1.19234 1.19219 1.19208 1.19181 1.19211 1.19193 1.19227 1.19248 1.19198 1.19218 1.19189 1.19228 1.19296 1.19251 1.19261 1.19246 1.19196 1.19168 1.1922 1.19182 1.19215 1.19166 1.19203 1.19167 1.19193 1.19177 1.19204 1.19176 1.19199 1.19152 1.19187 1.19178 1.19173 1.19194 1.19207 1.19141 1.19205 1.19219 1.19174 1.19204 1.19223 1.19183 1.19182 1.19165 1.19192 1.19159 1.192 1.1922 1.19204 1.19188 1.1919 1.19186 1.19179 1.19208 1.19189 1.19183 1.19172 1.19195 1.19178 1.19192 1.19154 1.19176 1.19187 1.19189 1.19197 1.19188 1.19187 1.19205 1.19192 1.19209 1.19165 1.19241 1.19177 1.19175 1.19188 1.19163 1.19175 1.19192 1.19238 1.19186 1.19207 1.19231 1.19245 1.1924 1.19188 1.19271 1.19256 1.19324 1.19168 1.19262 1.19178 1.19162 1.19193 1.19232 1.19228 1.19203 1.19118 1.19178 1.19232 1.19218 1.1917 1.19205 1.1918 1.19209 1.19182 1.19243 1.192 1.19222 1.19206 1.19196 1.19212 1.19259 1.19217 1.19196 1.19166 1.19221 1.19199 1.19197 1.19175 1.19216 1.19195 1.19191 1.19149 1.19223 1.19177 1.19227 1.1918 1.19191 1.19178 1.19178 1.19166 1.19184 1.19202 1.19148 1.19203 1.19162 1.19192 1.19191 1.19178 1.19181 1.19177 1.19172 1.19164 1.19198 1.19174 1.19145 1.19232 1.19203 1.19187 1.19188 1.1917 1.1917 1.192 1.19189 1.19189 1.19182 1.19195 1.19168 1.19189 1.19153 1.19176 1.19184 1.19188 1.19198 1.19185 1.19185 1.19203 1.19191 1.19204 1.19188 1.19233 1.19186 1.19231 1.19179 1.19201 1.1917 1.19196 1.19236 1.19188 1.19178 1.1922 1.19232 1.19231 1.19193 1.1926 1.1926 1.19272 1.19246 1.19292 1.1924 1.19167 1.19128 1.19214 1.19217 1.19196 1.19118 1.19176 1.1923 1.19228 1.19187 1.19204 1.1918 1.19204 1.19189 1.19187 1.19178 1.19233 1.19197 1.19211 1.19196 1.19205 1.19209 1.19238 1.19212 1.19178 1.19219 1.19198 1.19185 1.19212 1.19199 1.19136 1.19175 1.19225 1.19171 1.19227 1.19229 1.19198 1.19174 1.19138 1.19165 1.19161 1.19169 1.19197 1.19143 1.19173 1.19219 1.19179 1.1916 1.19179 1.19192 1.1919 1.19167 1.19211 1.19194 1.19144 1.19178 1.19203 1.19182 1.19185 1.19166 1.1917 1.19198 1.19188 1.19182 1.19198 1.19182 1.19172 1.19167 1.19148 1.19178 1.19183 1.19181 1.19178 1.19169 1.19177 1.1919 1.19178 1.19178 1.19181 1.19188 1.19206 1.19178 1.19176 1.19269 1.1911 1.19236 1.19234 1.19194 1.19178 1.19204 1.19224 1.1929 1.19238 1.19259 1.19257 1.19276 1.19244 1.19187 1.19253 1.19152 1.19139 1.19136 1.19207 1.19216 1.19193 1.19069 1.19224 1.19226 1.19172 1.192 1.1919 1.19211 1.19178 1.1906 1.19227 1.19194 1.192 1.19208 1.19199 1.19205 1.19214 1.19145 1.1919 1.19219 1.19201 1.19195 1.19153 1.19195 1.19228 1.19195 1.19149 1.19142 1.19181 1.19223 1.1917 1.19172 1.19243 1.19197 1.19172 1.19149 1.19161 1.19169 1.19141 1.19168 1.19208 1.19245 1.19174 1.19204 1.19174 1.19178 1.19166 1.19192 1.1919 1.19164 1.19183 1.19211 1.192 1.19188 1.19151 1.19197 1.1918 1.19184 1.19164 1.19163 1.19196 1.19187 1.19181 1.19197 1.19179 1.19173 1.19201 1.19171 1.19179 1.19181 1.19197 1.19162 1.19164 1.19178 1.19187 1.19177 1.19181 1.19177 1.1919 1.19212 1.19188 1.19169 1.19269 1.19098 1.19219 1.19226 1.19227 1.19208 1.1926 1.19216 1.19303 1.19301 1.19254 1.19242 1.19247 1.19257 1.19197 1.19085 1.19255 1.19138 1.19075 1.19121 1.19204 1.19187 1.19164 1.19217 1.19165 1.19153 1.19178 1.19192 1.19192 1.19245 1.19167 1.1912 1.19196 1.19142 1.19248 1.19187 1.19198 1.19201 1.19179 1.19203 1.19181 1.19195 1.19178 1.19161 1.19178 1.1923 1.19141 1.19192 1.19141 1.19177 1.19218 1.19014 1.19225 1.19262 1.19214 1.19148 1.19193 1.19174 1.19137 1.19177 1.19213 1.1925 1.19163 1.19175 1.19172 1.19169 1.19156 1.19175 1.19192 1.1919 1.1918 1.19175 1.19172 1.19184 1.19208 1.19175 1.19161 1.19156 1.19193 1.19185 1.19181 1.19199 1.19175 1.19173 1.19178 1.19212 1.19215 1.19179 1.19177 1.19196 1.19162 1.19181 1.1918 1.19189 1.19162 1.19169 1.1918 1.19192 1.19209 1.19178 1.1917 1.19313 1.19319 1.19171 1.19217 1.19238 1.19215 1.19178 1.19178 1.19282 1.19228 1.19257 1.19271 1.19238 1.19239 1.19176 1.19206 1.19256 1.19074 1.19177 1.19164 1.19191 1.19178 1.1921 1.19206 1.19186 1.19235 1.19122 1.19189 1.19172 1.19183 1.19193 1.19164 1.19144 1.19171 1.19167 1.19194 1.19173 1.19188 1.192 1.1917 1.191 1.19182 1.19103 1.19175 1.19173 1.19139 1.19131 1.19153 1.1919 1.1908 1.19098 1.19216 1.19204 1.19262 1.19177 1.19221 1.1922 1.19156 1.19208 1.19183 1.19135 1.19169 1.19208 1.19192 1.19165 1.1917 1.19166 1.19199 1.19164 1.19183 1.19225 1.19143 1.19221 1.19152 1.19165 1.1918 1.19168 1.19198 1.19168 1.19159 1.19154 1.1919 1.19178 1.19182 1.19154 1.19182 1.19211 1.19209 1.19192 1.19189 1.19179 1.19183 1.19171 1.1916 1.19173 1.19167 1.19193 1.19094 1.1914 1.19234 1.19254 1.19148 1.19237 1.19272 1.19226 1.19205 1.19178 1.19289 1.19299 1.19223 1.19315 1.19282 1.19192 1.19224 1.19226 1.19268 1.19232 1.19084 1.1919 1.19153 1.19224 1.19181 1.19167 1.19205 1.19279 1.19177 1.19153 1.19169 1.19178 1.19165 1.19142 1.19174 1.19192 1.19153 1.19169 1.19163 1.19202 1.19138 1.19185 1.1916 1.19114 1.19181 1.19165 1.19137 1.19132 1.19159 1.19195 1.19194 1.19078 1.19098 1.19212 1.19201 1.19172 1.19258 1.19172 1.19154 1.19181 1.19178 1.19178 1.19178 1.19101 1.19147 1.19167 1.19174 1.19169 1.19198 1.19167 1.19184 1.19154 1.19167 1.19199 1.19144 1.19164 1.19168 1.19178 1.19192 1.19178 1.19168 1.19149 1.1913 1.19191 1.1918 1.1915 1.19164 1.19191 1.19218 1.19202 1.19188 1.19205 1.19193 1.19174 1.19173 1.19166 1.19165 1.19159 1.19195 1.19162 1.19157 1.19202 1.1927 1.19183 1.19111 1.19223 1.1922 1.19286 1.19245 1.19233 1.19253 1.19265 1.19286 1.1921 1.19195 1.19253 1.19188 1.19225 1.19262 1.19392 1.19388 1.1928 1.19276 1.1908 1.19099 1.19174 1.1918 1.19234 1.19176 1.19133 1.19215 1.19299 1.19179 1.1916 1.19132 1.19156 1.19165 1.19185 1.19159 1.19159 1.19187 1.19167 1.19163 1.19172 1.19202 1.19144 1.19132 1.19176 1.1917 1.19164 1.19136 1.19129 1.19205 1.19078 1.19086 1.19172 1.19192 1.19226 1.19208 1.19204 1.19155 1.19183 1.19183 1.19182 1.19176 1.19096 1.19132 1.19152 1.19141 1.19177 1.19172 1.19202 1.19198 1.19179 1.19174 1.19163 1.1917 1.1919 1.19181 1.19144 1.19166 1.19173 1.19174 1.19189 1.19174 1.19162 1.19157 1.19137 1.19193 1.1918 1.19149 1.19175 1.19184 1.19159 1.19201 1.19187 1.19197 1.19183 1.19219 1.19159 1.19158 1.19233 1.19214 1.19043 1.19144 1.19265 1.19306 1.19242 1.19095 1.19197 1.19148 1.19175 1.19297 1.19237 1.19234 1.19288 1.1925 1.19268 1.19185 1.19173 1.1919 1.19157 1.1932 1.19317 1.19119 1.19277 1.19231 1.19177 1.19211 1.19221 1.19061 1.19155 1.19167 1.19293 1.1918 1.1914 1.19128 1.19159 1.19168 1.19179 1.19167 1.1917 1.19166 1.19145 1.19157 1.1914 1.19151 1.19158 1.19174 1.19167 1.19158 1.19165 1.19133 1.19167 1.1917 1.19193 1.19134 1.19175 1.19171 1.19216 1.19147 1.19188 1.19154 1.19184 1.19204 1.19182 1.19183 1.19102 1.19112 1.1913 1.19173 1.19173 1.19167 1.19182 1.19153 1.19182 1.19172 1.19169 1.19182 1.19162 1.19177 1.19158 1.19183 1.19164 1.19181 1.19187 1.19176 1.1915 1.19178 1.19182 1.19157 1.19159 1.19202 1.19191 1.19204 1.19197 1.19234 1.19156 1.19103 1.19281 1.19227 1.19183 1.19176 1.19296 1.19238 1.19263 1.19183 1.19167 1.19284 1.19317 1.19274 1.19239 1.19279 1.19268 1.19285 1.19253 1.19185 1.19153 1.19163 1.19134 1.19245 1.1923 1.19162 1.19322 1.19295 1.1912 1.19269 1.19262 1.19227 1.19196 1.19178 1.19058 1.1915 1.19181 1.19159 1.192 1.19209 1.19133 1.19128 1.19143 1.19157 1.19164 1.19167 1.19168 1.19155 1.19132 1.19147 1.19135 1.19203 1.19155 1.19145 1.19168 1.19156 1.19137 1.19166 1.19134 1.19164 1.19203 1.19141 1.19178 1.1915 1.19194 1.1919 1.19209 1.19146 1.19184 1.19153 1.19184 1.19183 1.19171 1.19185 1.19099 1.19134 1.19123 1.19173 1.19178 1.19171 1.19167 1.19176 1.19153 1.19183 1.19181 1.19176 1.19169 1.19181 1.19163 1.19178 1.19155 1.19137 1.19192 1.1918 1.19149 1.19195 1.19171 1.19146 1.19152 1.19239 1.19193 1.19205 1.19196 1.19228 1.19154 1.19179 1.19276 1.19178 1.1916 1.19269 1.19262 1.19203 1.1918 1.19216 1.19131 1.19311 1.1923 1.19272 1.1923 1.19198 1.19278 1.19239 1.1919 1.19291 1.19293 1.19187 1.19264 1.19224 1.19183 1.19178 1.19144 1.19155 1.19163 1.19186 1.19129 1.19141 1.1904 1.19156 1.19164 1.19178 1.19168 1.19165 1.19131 1.1914 1.19134 1.19205 1.19153 1.19186 1.19186 1.19157 1.19131 1.19125 1.19099 1.19132 1.19197 1.19134 1.19178 1.19153 1.1915 1.19207 1.19112 1.19171 1.19152 1.19176 1.19178 1.19173 1.19171 1.19183 1.19158 1.19114 1.19142 1.19124 1.19114 1.19121 1.19171 1.19168 1.19176 1.19152 1.19182 1.19182 1.1918 1.19169 1.19181 1.19163 1.19146 1.19143 1.19152 1.19137 1.19178 1.19178 1.19148 1.19164 1.19174 1.19144 1.19152 1.19237 1.19201 1.19178 1.19154 1.19212 1.19208 1.19209 1.19236 1.19117 1.19232 1.19366 1.19178 1.19287 1.19255 1.19259 1.19175 1.19195 1.19355 1.19343 1.19115 1.19224 1.19226 1.19224 1.19261 1.19206 1.19233 1.193 1.19184 1.19231 1.19185 1.19291 1.19291 1.19183 1.19193 1.19181 1.19209 1.19302 1.19175 1.19178 1.19149 1.19275 1.19269 1.19157 1.1922 1.19107 1.19154 1.19106 1.19164 1.19178 1.19178 1.19176 1.19188 1.19152 1.19133 1.19129 1.1916 1.19145 1.192 1.19155 1.19154 1.19131 1.19157 1.19108 1.19133 1.19193 1.19135 1.19136 1.19189 1.19206 1.19153 1.19168 1.19156 1.19178 1.19181 1.19177 1.1918 1.1916 1.19142 1.19118 1.19101 1.19125 1.19127 1.19118 1.19152 1.19162 1.19182 1.19151 1.19182 1.19164 1.19179 1.19166 1.1917 1.19164 1.19145 1.19145 1.1915 1.19157 1.19178 1.19182 1.19178 1.1916 1.19173 1.19141 1.19165 1.19274 1.19194 1.19132 1.1915 1.19207 1.1921 1.19176 1.19201 1.19143 1.19383 1.19293 1.19248 1.19275 1.19206 1.19223 1.19174 1.19288 1.19187 1.19218 1.19203 1.19267 1.19207 1.19234 1.19288 1.19194 1.19215 1.1918 1.19299 1.19274 1.19179 1.19178 1.19193 1.19228 1.19239 1.19282 1.19173 1.19093 1.19182 1.1917 1.19208 1.19103 1.19152 1.19104 1.19178 1.19178 1.19232 1.1916 1.19184 1.19183 1.1919 1.19161 1.19158 1.19163 1.19122 1.19183 1.19141 1.19178 1.19153 1.19157 1.19162 1.19148 1.19107 1.19178 1.19166 1.19159 1.19151 1.19132 1.19173 1.19141 1.19148 1.19148 1.19166 1.1917 1.19178 1.19184 1.19176 1.1918 1.1917 1.19188 1.19185 1.19104 1.19128 1.19178 1.19115 1.1915 1.19173 1.19184 1.19166 1.19178 1.19179 1.19179 1.19175 1.19166 1.19171 1.19165 1.19167 1.19164 1.19178 1.1915 1.19179 1.19214 1.19177 1.19179 1.1914 1.19159 1.19155 1.19181 1.19172 1.19273 1.1919 1.19181 1.19129 1.19228 1.19154 1.19203 1.192 1.19187 1.19181 1.19348 1.19263 1.19177 1.19283 1.19187 1.1934 1.19237 1.19306 1.1918 1.19185 1.1924 1.19227 1.19267 1.19212 1.19208 1.19238 1.19203 1.19193 1.19102 1.19274 1.19178 1.19192 1.19144 1.19125 1.19151 1.19101 1.19214 1.19151 1.19162 1.19211 1.19208 1.19114 1.19163 1.19114 1.19168 1.19164 1.19176 1.19184 1.19186 1.1915 1.19126 1.19131 1.1921 1.19139 1.19128 1.19157 1.1914 1.19164 1.19145 1.19134 1.19106 1.19124 1.19168 1.1916 1.19147 1.1913 1.1917 1.19178 1.1914 1.19147 1.1917 1.19178 1.19173 1.19183 1.19174 1.1911 1.19148 1.19164 1.19162 1.19115 1.19165 1.19174 1.19164 1.19178 1.19175 1.19167 1.19167 1.19175 1.19178 1.19178 1.19184 1.19181 1.19185 1.1915 1.19214 1.19222 1.19173 1.19178 1.19199 1.19147 1.19185 1.19173 1.19156 1.19161 1.19173 1.19126 1.19208 1.19209 1.19197 1.19187 1.19181 1.19206 1.19295 1.19259 1.1936 1.19275 1.19175 1.19152 1.19242 1.19178 1.19241 1.19191 1.1918 1.19187 1.19247 1.19194 1.19237 1.1909 1.19284 1.19178 1.19175 1.19119 1.19145 1.19123 1.19139 1.1909 1.19198 1.19202 1.19155 1.19129 1.19146 1.1912 1.19171 1.19179 1.19166 1.19159 1.19181 1.19152 1.19122 1.19132 1.19178 1.1915 1.19134 1.19178 1.19211 1.19207 1.19162 1.19178 1.19177 1.19129 1.19214 1.19166 1.19159 1.19148 1.1919 1.19157 1.19124 1.19139 1.19146 1.19171 1.19178 1.1918 1.19172 1.1917 1.19177 1.19173 1.19174 1.1917 1.19112 1.19163 1.19175 1.19165 1.19178 1.19175 1.19167 1.19166 1.19173 1.19181 1.1916 1.19181 1.19169 1.19183 1.19177 1.19159 1.19178 1.1919 1.19173 1.19179 1.19192 1.19182 1.1913 1.19185 1.19137 1.19154 1.1911 1.19205 1.19199 1.19217 1.19186 1.19133 1.19201 1.19245 1.19297 1.19274 1.19291 1.1928 1.1925 1.19178 1.19157 1.19038 1.19178 1.19273 1.19399 1.19417 1.19164 1.19184 1.19254 1.19249 1.19186 1.19101 1.19307 1.19111 1.19273 1.1911 1.19134 1.19136 1.19166 1.19194 1.19209 1.19135 1.19197 1.19121 1.19134 1.19184 1.19183 1.19163 1.19096 1.19154 1.19185 1.19152 1.19115 1.1916 1.19165 1.19159 1.19156 1.19175 1.1918 1.19188 1.19156 1.19179 1.19158 1.1915 1.19179 1.19175 1.1913 1.19141 1.19144 1.1917 1.19177 1.19178 1.19178 1.19177 1.19173 1.19174 1.1917 1.19178 1.19116 1.19166 1.19177 1.19178 1.19178 1.19175 1.19178 1.19165 1.19172 1.19157 1.19178 1.19184 1.19178 1.19139 1.1917 1.19183 1.19126 1.19185 1.19136 1.19107 1.19127 1.19115 1.19166 1.19142 1.19132 1.19123 1.19197 1.19227 1.19157 1.19213 1.1918 1.19278 1.19236 1.1918 1.19172 1.19194 1.19061 1.19168 1.19285 1.19051 1.19197 1.19165 1.19121 1.19282 1.19174 1.19024 1.19126 1.19114 1.19264 1.19202 1.19236 1.19113 1.19134 1.19178 1.19086 1.19183 1.19115 1.19152 1.19214 1.19201 1.19132 1.19131 1.19174 1.19152 1.19178 1.19178 1.19155 1.19181 1.1916 1.19165 1.19159 1.1913 1.19152 1.19156 1.19175 1.19169 1.19177 1.19155 1.19184 1.19158 1.19151 1.19168 1.19156 1.19143 1.19161 1.19142 1.1917 1.19171 1.19175 1.19178 1.19178 1.19177 1.19173 1.19175 1.19178 1.19178 1.19178 1.19167 1.19177 1.19178 1.19178 1.19177 1.19178 1.19165 1.19173 1.19172 1.19179 1.19177 1.19175 1.19173 1.19167 1.19174 1.19139 1.19171 1.1919 1.19182 1.19142 1.19136 1.19164 1.19126 1.19101 1.19157 1.19117 1.19105 1.19142 1.19061 1.19139 1.19197 1.19132 1.19178 1.19152 1.19202 1.19168 1.19302 1.1924 1.19286 1.19185 1.19082 1.19152 1.19293 1.19017 1.19156 1.19222 1.19153 1.19069 1.19047 1.1899 1.19209 1.19109 1.19159 1.19128 1.19062 1.19171 1.19166 1.19138 1.19168 1.19129 1.19133 1.19141 1.19182 1.19141 1.19183 1.19183 1.19177 1.1919 1.19157 1.19155 1.19179 1.19162 1.19181 1.19161 1.19128 1.19151 1.19156 1.19169 1.19178 1.19177 1.19158 1.19171 1.19155 1.19119 1.19117 1.19152 1.1916 1.19143 1.1917 1.19178 1.19175 1.19178 1.19178 1.19177 1.19173 1.19175 1.19178 1.19178 1.19178 1.19167 1.19178 1.19178 1.19178 1.19178 1.19177 1.19165 1.19173 1.19172 1.19175 1.19178 1.1918 1.19146 1.19174 1.19161 1.19144 1.19141 1.19179 1.19089 1.19138 1.19158 1.19123 1.19112 1.19013 1.19097 1.19084 1.19125 1.191 1.19175 1.19196 1.19342 1.19208 1.19119 1.19086 1.19167 1.19259 1.18999 1.19192 1.19181 1.19099 1.19159 1.19099 1.19043 1.19135 1.19115 1.18973 1.19016 1.1924 1.19021 1.19114 1.19153 1.19182 1.19177 1.19168 1.19129 1.19132 1.19149 1.19149 1.19124 1.19152 1.19178 1.19159 1.19182 1.19158 1.19155 1.19153 1.19175 1.19186 1.19147 1.19177 1.19144 1.19162 1.1917 1.1917 1.19154 1.1917 1.19158 1.19173 1.19159 1.19174 1.19119 1.19123 1.19157 1.19167 1.19203 1.19072 1.19142 1.19208 1.19345 1.19213 1.19233 1.19157 1.1927 1.19214 1.19242 1.19231 1.19213 1.19322 1.19059 1.19136 1.19093 1.19141 1.19066 1.19016 1.19125 1.19144 1.19066 1.19199 1.19241 1.19154 1.19211 1.1924 1.19129 1.19188 1.19243 1.19247 1.19193 1.19227 1.19232 1.19288 1.19193 1.19304 1.19166 1.19085 1.19129 1.18994 1.19118 1.19113 1.19205 1.1911 1.19261 1.19173 1.191 1.19167 1.19235 1.19232 1.19206 1.19265 1.19065 1.19159 1.19132 1.19086 1.19178 1.19067 1.19027 1.19144 1.19006 1.191 1.19178 1.19196 1.19145 1.19055 1.1915 1.19212 1.19079 1.19238 1.19155 1.19242 1.19224 1.19233 1.19191 1.19282 1.19227 1.19063 1.19178 1.19155 1.1915 1.19095 1.1901 1.18974 1.19084 1.19142 1.19178 1.19192 1.19147 1.19126 1.19103 1.19204 1.19131 1.19237 1.19262 1.19327 1.19182 1.19157 1.19097 1.19018 1.18945 1.19214 1.19299 1.19178 1.19178 1.19178 1.19178 1.19178 1.19178 1.19178 1.19141 1.19153 1.19228 1.19278 1.19068 1.19085 1.19191 1.19111 1.19108 1.19235 1.19143 1.19331 1.19179 1.19276 1.19162 1.1924 1.191 1.19264 1.19218 1.1923 1.19178 1.19178 1.19178 1.19178 1.19178 1.19178 1.19178 1.19178 1.19178 1.19178 1.19178 1.19178 1.19178 1.19178 1.19178 1.19178 1.19178 1.19178 1.19178 1.19178 1.19178 1.19178 1.19178 1.19178 1.19178 1.19178 1.19178 1.19178 1.19178 1.19178 1.19178 1.19178 1.19178 1.19178 1.19179 1.19178 1.19178 1.19163 1.19148 1.19113 1.19162 1.19384 1.1915 1.19089 1.19519 1.1942 1.19081 1.19186 1.19369 1.1911 1.19063 1.19157 1.19197 1.19181 1.19267 1.19333 1.19336 1.19212 1.19244 1.19205 1.1921 1.19178 1.19178 1.19178 1.19178 1.19178 1.19178 1.19178 1.19178 1.19178 1.19178 1.19178 1.19178 1.19178 1.19178 1.19178 1.19178 1.19178 1.19178 1.19178 1.19178 1.19178 1.19178 1.19178 1.19178 1.19178 1.19179 1.19118 1.19106 1.1925 1.19081 1.19113 1.19146 1.19033 1.19308 1.1929 1.19146 1.19138 1.19295 1.19045 1.19112 1.19146 1.1921 1.19327 1.19244 1.1919 1.19121 1.19474 1.19259 1.1918 1.19178 1.19178 1.19178 1.19178 1.19178 1.19178 1.19178 1.19178 1.19178 1.19178 1.19178 1.19178 1.19178 1.19178 1.19178 1.19178 1.19178 1.19178 1.19178 1.19178 1.19178 1.19178 1.19178 1.19178 1.19178 1.19178 1.19178 1.19178 1.19178 1.19178 1.19178 1.19178 1.19178 1.19178 1.19178 1.19178 1.19178 1.19178 1.19178 1.19178 1.19178 1.19178 1.19178 1.19187 1.19186 1.19228 1.19081 1.19407 1.19102 1.19312 1.19076 1.19225 1.19076 1.19086 1.19307 1.19212 1.19054 1.18908 1.19022 1.19116 1.19143 1.19198 1.19349 1.19425 1.19248 1.19251 1.19167 1.19111 1.19178 1.19177 1.19178 1.19178 1.19178 1.19178 1.19178 1.19178 1.19178 1.19178 1.19178 1.19178 1.19178 1.19178 1.19178 1.19178 1.19178 1.19178 1.19178 1.19178 1.19178 1.19178 1.19178 1.19178 1.19178 1.19178 1.19178 1.19178 1.19178 1.19178 1.19178 1.19178 1.19178 1.19178 1.19178 1.19178 1.19178 1.19178 1.19178 1.19178 1.19178 1.19178 1.19178 1.19178 1.19178 1.1918 1.1917 1.19174 1.19088 1.19105 1.19118 1.19087 1.19217 1.19144 1.19197 1.19152 1.19263 1.19211 1.19078 1.18958 1.19178 1.18981 1.193 1.19365 1.19202 1.19314 1.19173 1.19196 1.19178 1.19178 1.19178 1.19178 1.19178 1.19178 1.19178 1.19178 1.19178 1.19178 1.19178 1.19178 1.19178 1.19178 1.19178 1.19178 1.19178 1.19178 1.19178 1.19178 1.19178 1.19178 1.19178 1.19178 1.19178 1.19178 1.19178 1.19178 1.19178 1.19178 1.19178 1.19178 1.19178 1.19178 1.19178 1.19178 1.19178 1.19178 1.19178 1.19178 1.19178 1.19178 1.19178 1.19178 1.19166 1.19168 1.19201 1.1961 1.19113 1.19247 1.19075 1.19023 1.19072 1.1929 1.19125 1.19088 1.19186 1.19198 1.19257 1.19093 1.19377 1.19012 1.19015 1.19273 1.19351 1.19264 1.19192 1.19337 1.1912 1.19028 1.19178 1.19173 1.19179 1.19177 1.19178 1.19178 1.19178 1.19178 1.19178 1.19178 1.19178 1.19178 1.19178 1.19178 1.19178 1.19178 1.19178 1.19178 1.19178 1.19178 1.19178 1.19178 1.19178 1.19178 1.19178 1.19178 1.19178 1.19178 1.19178 1.19178 1.19178 1.19178 1.19178 1.19178 1.19178 1.19178 1.19178 1.19178 1.19178 1.19178 1.19178 1.19178 1.19178 1.19178 1.19178 1.19178 1.19178 1.19178 1.19178 1.19178 1.19178 1.19178 1.19178 1.19178 1.19178 1.19178 1.18987 1.19178 1.1923 1.19106 1.1873 1.19178 1.19261 1.19301 1.19297 1.19236 1.1934 1.19351 1.19676 1.19162 1.19326 1.19088 1.19175 1.1929 1.19251 1.19086 1.19144 1.19218 1.19279 1.19152 1.19178 1.19178 1.19178 1.19178 1.19178 1.19178 1.19178 1.19178 1.19178 1.19178 1.19178 1.19178 1.19178 1.19178 1.19178 1.19178 1.19178 1.19178 1.19178 1.19178 1.19178 1.19178 1.19178 1.19178 1.19178 1.19178 1.19178 1.19178 1.19178 1.19178 1.19178 1.19178 1.19178 1.19178 1.19178 1.19178 1.19178 1.19178 1.19178 1.1921 1.19307 1.19304 1.18812 1.19204 1.19304 1.19266 1.19278 1.19583 1.19433 1.19302 1.19365 1.19614 1.19072 1.19495 1.19178 1.1914 1.19074 1.19008 1.19178 1.19178 1.19178 1.19178 1.19178 1.19178 1.19178 1.19178 1.19178 1.19178 1.19178 1.19178 1.19178 1.19178 1.19178 1.19178 1.19178 1.19178 1.19178 1.19178 1.19178 1.19178 1.19178 1.19178 1.19178 1.19178 1.19178 1.19178 1.19178 1.19178 1.19178 1.19178 1.19178 1.19178 1.19178 1.19178 1.19178 1.19178 1.19178 1.19178 1.19178 1.19178 1.19178 1.19364 1.19431 1.19197 1.19889 1.20037 1.18952 1.19408 1.19108 1.19173 1.19569 1.19168 1.19277 1.19366 1.1937 1.19111 1.19116 1.19374 1.19178 1.19558 1.19527 1.1921 1.19178 1.19178 1.19178 1.19178 1.19178 1.19178 1.19178 1.19178 1.19178 1.19178 1.19178 1.19178 1.19178 1.19178 1.19178 1.19178 1.19178 1.19178 1.19178 1.19178 1.19178 1.19178 1.19178 1.19178 1.19178 1.19178 1.19178 1.19178 1.19178 1.19178 1.19178 1.19178 1.19178 1.19178 1.19178 1.19178 1.19178 1.19178 1.19122 1.1942 1.19648 1.19141 1.19339 1.19338 1.19183 1.19013 1.19548 1.1926 1.19275 1.19027 1.19679 1.19309 1.19567 1.19192 1.19178 1.19178 1.19178 1.19178 1.19178 1.19178 1.19178 1.19178 1.19178 1.19178 1.19178 1.19178 1.18166 1.19178 1.19178 1.19178 1.19178 1.19178 1.19178 1.19178 1.19178 1.19178 1.19178 1.19178 1.19178 1.19178 1.19178 1.19178 1.19178 1.19178 1.19178 1.19178 1.19178 1.19178 1.19178 1.19178 1.19178 1.19178 1.19178 1.19178 1.19178 1.19178 1.19871 1.19178 1.19178 1.19177 1.19405 1.19688 1.19326 1.19111 1.1928 1.1961 1.19287 1.19175 1.19546 1.18895 1.19131 1.19371 1.18871 1.19715 1.19433 1.19269 1.19331 1.19335 1.19101 1.19396 1.1923 1.19268 1.19267 1.19178 1.19178 1.19178 1.19178 1.19178 1.19178 1.19178 1.19178 1.19178 1.19178 1.19178 1.19178 1.19178 1.19178 1.19178 1.19178 1.19178 1.19178 1.19178 1.19178 1.19178 1.19178 1.19178 1.19178 1.19178 1.19177 1.19129 1.19168 1.17905 1.1907 1.19107 1.19449 1.1958 1.19314 1.19097 1.19321 1.19036 1.19282 1.19255 1.19148 1.19134 1.19264 1.19083 1.19072 1.1962 1.19523 1.19238 1.18976 1.19243 1.18785 1.19284 1.19178 1.19178 1.36675 1.23758 1.18992 1.18986 1.19178 1.19178 1.19178 1.19178 1.19178 0.0212485 0.111303 0.236316 0.421079 0.417702 3.26065 1.09491 0.732997 0.529978 0.249414 0.0703304 0.0461406 0.0511551 0.063646 0.0639075 0.240569 0.240194 0.413765 0.279607 0.0817538 0.0648476 0.0610345 0.0428034 0.0732798 0.0673857 0.12128 0.0446005 0.0577515 0.0199678 0.0588312 1.19178 0.127641 0.138885 0.1133 0.108788 0.198111 0.266128 0.440662 0.636374 0.492278 0.236516 0.333763 1.19177 1.59297 0.233986 0.183609 1.19189 1.07852 0.205189 1.19179 0.318124 0.268964 0.332658 0.217387 0.250319 0.122936 1.19178 1.20207 1.19594 1.19232 1.18732 1.18783 1.19313 1.18986 1.19152 1.19242 1.19027 1.1883 1.19191 1.19195 1.18999 1.18801 1.18702 1.19057 1.19383 1.19152 1.18866 1.18904 1.18675 1.18328 1.18985 1.18904 1.19041 0.18413 0.214913 0.288896 0.376454 0.324174 0.295078 0.296043 0.309925 0.25991 0.387504 0.538918 0.816858 2.19753 2.14364 0.399339 1.19178 0.734764 1.10045 1.24254 0.74127 1.03157 0.981984 1.56718 0.678542 0.946615 0.593349 0.931061 0.584063 0.519647 0.454592 0.351047 0.22617 0.149832 0.0221435 0.141419 0.350078 0.418723 0.460965 1.99209 1.04218 2.15971 0.593885 1.75389 0.331998 0.274378 0.353748 0.30558 0.243734 0.482142 0.91773 1.37932 1.70071 0.731277 0.416672 0.0713414 0.038747 0.114705 0.112281 0.129467 0.239826 0.330742 0.154152 0.474899 2.11644 1.87163 1.39088 0.372835 0.672834 0.525413 0.281435 0.257536 0.0150929 0.172679 0.0565432 0.0447935 0.0297355 0.028919 0.0542312 0.0634286 0.0375618 0.121699 0.163705 0.166238 0.166969 0.0794291 0.177077 0.181991 0.0690696 0.103108 0.129059 0.14423 0.0667215 0.0855705 0.157391 0.0910989 0.0483182 0.0560502 0.134892 0.0787304 0.108864 0.146435 0.0648475 0.120167 0.24849 0.0987729 0.0999768 0.147974 0.158035 0.259518 0.0849595 0.23448 0.301627 0.232051 0.194711 0.45081 0.611333 1.02245 0.192622 0.479543 0.471665 0.570196 0.754528 0.766538 0.516137 0.362683 0.343091 0.360943 0.27928 0.112962 0.387949 0.122284 0.0997367 0.0421532 0.189264 0.119948 0.0638181 0.12197 1.20919 1.19796 1.19774 1.19252 1.1885 1.1901 1.1903 1.19228 1.18978 1.18805 1.19052 1.18888 1.19803 1.18955 1.20401 1.18515 1.18704 1.18197 1.18919 0.13232 0.270338 0.209414 0.112951 0.0941053 0.110879 0.142128 0.164622 0.144201 0.25601 0.324216 0.203391 0.28135 0.134341 0.120788 0.383766 0.891541 0.676852 1.44309 1.00646 1.01425 0.845145 0.431847 0.741871 0.0156213 0.536885 0.873337 0.75545 0.512499 0.323793 1.6757 0.890074 0.44729 0.39328 0.241649 0.725633 0.533574 0.38852 0.360755 0.384152 0.345437 0.20206 0.423663 0.230146 0.219496 0.0596202 0.251389 0.276048 0.184197 0.442893 0.618696 0.576239 0.733278 0.952886 1.23078 0.756191 1.5646 1.22039 0.284135 1.04307 0.526108 0.360982 0.282987 0.181528 0.11208 0.308296 0.111709 0.102592 0.317534 0.445873 0.441463 1.29638 1.21574 0.475037 0.296417 0.327821 0.184267 0.0862038 0.0661442 0.0449648 0.0639799 0.0743024 0.113307 0.32731 0.473714 0.944973 0.690772 0.373764 0.236679 0.320118 0.348526 0.206008 0.055525 0.0322048 0.0783589 0.0571866 0.0763619 0.0469151 0.102199 0.0749658 0.0145962 0.0867112 0.145768 0.132781 0.108336 0.0929187 0.0748073 0.111544 0.119777 0.161159 0.0963071 0.0269011 0.114995 0.0435095 0.0402584 0.168061 0.167385 0.102358 0.0604676 0.252458 0.150888 0.0911679 0.125158 0.293096 0.238855 0.198584 0.278134 0.279245 0.285806 0.272726 0.366044 0.522951 0.520518 0.401952 0.615002 0.7452 0.540458 0.495562 0.480226 0.341075 0.334216 0.119307 0.229477 0.0419999 0.061899 0.13228 0.113975 0.0411767 0.0531197 1.18662 1.18912 1.1829 1.1848 1.18967 1.19299 1.18892 1.18885 1.18625 1.18994 1.19905 1.18946 1.18314 1.18514 1.18978 1.19006 1.19142 1.18931 0.203885 0.256452 0.0753671 0.15542 0.174568 0.229231 0.200318 0.197694 0.219168 0.235834 0.171815 0.311801 0.323052 0.442892 0.415313 0.532624 0.324032 0.313893 0.315923 0.304352 0.357964 0.2628 0.508469 0.184207 0.427521 0.388084 0.283897 0.219145 0.253457 0.254961 0.171467 0.349681 0.186136 0.133632 0.228309 0.357125 0.308289 0.477496 0.341122 0.707216 0.380178 0.599849 1.06395 0.888129 0.639643 1.48998 0.975982 0.689494 0.610657 0.40275 0.775402 0.522274 0.247971 0.206674 0.169084 0.403839 0.202403 0.0661931 0.0990186 0.314969 0.592177 0.524398 0.424974 0.287466 0.290903 0.121606 0.0400903 0.066747 0.0703182 0.207837 0.105411 0.163777 0.22913 0.380053 0.138257 0.201496 0.0854202 0.0985031 0.102019 0.0559554 0.0605996 0.0820976 0.0757336 0.0958414 0.0483516 0.0677557 0.079929 0.109805 0.141621 0.131011 0.118987 0.123227 0.0816139 0.0891088 0.114215 0.13286 0.139914 0.135761 0.127776 0.0856434 0.130684 0.119686 0.0386814 0.127223 0.192567 0.134617 0.182976 0.162007 0.145729 0.209048 0.197027 0.225446 0.194497 0.168074 0.254474 0.302298 0.288938 0.350176 0.264295 0.323646 0.415173 0.438221 0.508877 0.305917 0.43648 0.371584 0.439338 0.462651 0.321163 0.212344 0.0826789 0.0668698 1.18106 1.1967 1.19706 1.19041 1.1982 1.1932 1.18895 1.19121 1.18742 1.1879 1.19443 1.19036 1.18899 1.18954 1.18999 1.18475 1.1923 1.19074 1.19382 1.20049 0.161198 0.196968 0.165661 0.139706 0.187592 0.165438 0.206164 0.178799 0.165879 0.122884 0.0611064 0.0873105 0.304426 0.26302 0.291338 0.29275 0.553052 0.319927 0.37203 0.343254 0.429857 0.39076 0.420395 0.384579 0.433909 0.390881 0.47668 0.428776 0.485638 0.322032 0.166554 0.0146515 0.178585 0.133959 0.104366 0.186221 0.205125 0.170008 0.212697 0.270333 0.309547 0.358002 0.556053 0.513371 0.513389 0.459564 0.321995 0.212947 0.360735 0.36674 0.233807 0.35141 0.179719 0.194529 0.274371 0.365812 0.364118 0.38971 0.121432 0.223602 0.273022 0.0365005 0.125098 0.0584212 0.0592276 0.0994395 0.081533 0.0920204 0.0919722 0.0723239 0.0985905 0.064567 0.0954105 0.0752241 0.0641185 0.0825356 0.0763444 0.104868 0.0933994 0.128867 0.150742 0.162539 0.0589423 0.0441233 0.119804 0.123397 0.14301 0.152255 0.149319 0.139105 0.092495 0.107709 0.152488 0.141134 0.134665 0.178584 0.173011 0.191539 0.17848 0.234109 0.197423 0.181463 0.266402 0.170672 0.221839 0.255097 0.251056 0.258827 0.338371 0.349203 0.536732 0.880926 0.343621 0.233475 0.309171 0.377575 0.337772 0.362907 0.297676 0.289271 0.193276 0.255621 0.171704 0.289836 0.202715 1.19178 1.1934 1.1913 1.19179 1.19178 1.18885 1.19235 1.19178 1.18868 1.18976 1.19602 1.18889 1.18968 1.18685 1.19114 1.19206 1.1908 1.15407 0.20511 0.203242 0.170335 0.203113 0.182963 0.182679 0.168833 0.147457 0.072624 0.0626568 0.102806 0.260356 0.312653 0.367823 0.505026 0.313651 0.321464 0.330804 0.356255 0.442496 0.430206 0.435882 0.4812 0.403819 0.420341 0.391289 0.298754 0.305279 0.137513 0.218082 0.189698 0.150575 0.145313 0.1694 0.170664 0.205175 0.238081 0.258692 0.303399 0.188145 0.363725 0.250782 0.336527 0.316517 0.318865 0.451816 0.315063 0.463976 0.353646 0.375756 0.333472 0.316652 0.272609 0.324929 0.272986 0.273711 0.260263 0.261491 0.258662 0.21206 0.257135 0.166032 0.265689 0.301858 0.13408 0.158556 0.0645273 0.0735791 0.0665374 0.0756401 0.0650972 0.0705336 0.0700967 0.05932 0.0710879 0.0759903 0.0796906 0.0805709 0.097181 0.0951926 0.112921 0.12831 0.129071 0.173062 0.210034 0.201776 0.161979 0.156948 0.130811 0.165419 0.159178 0.104101 0.0965853 0.116991 0.14246 0.174089 0.221068 0.224212 0.242861 0.23954 0.232071 0.204344 0.21781 0.24261 0.242451 0.242136 0.232201 0.291654 0.30311 0.458568 0.771907 0.617436 0.206151 0.27696 0.260847 0.274793 0.273643 0.248248 0.277987 0.26812 0.271719 0.253861 0.282795 0.270392 1.18455 1.17482 1.17283 1.20166 1.20669 1.19406 1.17855 1.18889 1.19148 1.19126 1.18925 1.18506 1.19146 1.1903 1.18724 1.18922 1.19305 1.188 1.18677 1.18785 1.21087 1.16002 0.214133 0.215949 0.199056 0.182364 0.146909 0.14119 0.164477 0.154956 0.0952085 0.10932 0.103913 0.0958559 0.202055 0.368674 0.315072 0.308813 0.286997 0.303583 0.345801 0.333292 0.365555 0.351413 0.398261 0.425125 0.404392 0.427703 0.436598 0.422383 0.415494 0.343671 0.309561 0.275721 0.233791 0.214284 0.166081 0.167865 0.197725 0.188546 0.204719 0.184188 0.20417 0.298496 0.306873 0.156153 0.220875 0.290073 0.295275 0.342798 0.272484 0.296943 0.277332 0.26436 0.279991 0.288429 0.305675 0.278103 0.284821 0.215439 0.168937 0.0668881 0.0680139 0.0773718 0.0771838 0.0754157 0.0601719 0.0800256 0.0970485 0.104283 0.113173 0.121978 0.121425 0.139065 0.151426 0.110445 0.21722 0.249702 0.14035 0.117043 0.199823 0.175881 0.138409 0.165615 0.124991 0.0793884 0.141121 0.188669 0.257629 0.242302 0.264816 0.260659 0.258626 0.237793 0.22095 0.236078 0.244164 0.262368 0.25629 0.346922 0.448077 0.492901 0.501327 0.230935 0.169631 0.196774 0.236852 0.239191 0.250359 0.277337 0.283132 1.18194 1.17414 1.16891 1.16428 1.19377 1.19597 1.18709 1.18846 1.1914 1.18421 1.18851 1.193 1.18096 1.20094 1.19981 1.18668 1.19951 1.19134 1.22057 1.13556 0.218921 0.151854 0.169184 0.138357 0.175072 0.0841255 0.0963418 0.331944 0.251781 0.241724 0.27679 0.322983 0.374902 0.33457 0.36115 0.391981 0.371741 0.379739 0.384815 0.375505 0.399382 0.353328 0.345104 0.333712 0.322624 0.315379 0.278839 0.308398 0.236574 0.184766 0.188017 0.201978 0.181149 0.193305 0.190565 0.166695 0.185976 0.162058 0.161547 0.218782 0.153382 0.200292 0.223028 0.17652 0.266291 0.273861 0.271837 0.243843 0.237495 0.280928 0.233979 0.264618 0.244427 0.277984 0.284455 0.241434 0.269373 0.27668 0.232943 0.222307 0.237602 0.245088 0.0755517 0.0711193 0.0769384 0.076461 0.0811275 0.0791875 0.0900447 0.100468 0.095134 0.10304 0.109614 0.117433 0.136502 0.133393 0.143658 0.141409 0.155449 0.210319 0.187481 0.122967 0.162855 0.173844 0.161906 0.135344 0.18247 0.113382 0.266967 0.0452501 0.0693329 0.131935 0.270201 0.251805 0.286598 0.305574 0.270686 0.260116 0.256287 0.248375 0.238029 0.24184 0.262663 0.256354 0.25209 0.280941 0.292978 0.240288 0.460937 0.406437 0.357296 0.352917 0.169429 0.190837 0.192213 0.230281 0.23439 0.261104 0.310698 0.28293 1.18318 1.13805 1.19166 1.19094 0.21319 0.209398 0.198836 0.208296 0.159536 0.177517 0.139877 0.173122 0.0572826 0.204618 0.243842 0.310055 0.267348 0.25494 0.319405 0.323768 0.33411 0.35379 0.353778 0.361049 0.386553 0.309431 0.304497 0.325004 0.32912 0.30108 0.280914 0.281908 0.199065 0.204166 0.195396 0.212736 0.196677 0.182441 0.151839 0.141615 0.175096 0.19508 0.158298 0.158999 0.278286 0.222157 0.236131 0.200076 0.192018 0.262196 0.199914 0.202625 0.256189 0.267695 0.214145 0.256256 0.24452 0.236298 0.0818628 0.0747577 0.0801418 0.0775363 0.0795566 0.0763037 0.0927845 0.102928 0.105797 0.100656 0.109859 0.130295 0.123669 0.140906 0.153502 0.160804 0.183641 0.206197 0.212186 0.203542 0.130548 0.0624959 0.215407 0.354085 0.260789 0.303936 0.292505 0.258441 0.25064 0.249118 0.232536 0.235868 0.244065 0.235372 0.25389 0.224434 0.299223 0.404543 0.353123 0.373614 0.283622 0.191229 0.178511 0.192253 0.228489 0.229637 0.245816 0.242514 0.256843 0.202314 0.195704 0.232741 0.192827 0.181057 0.145082 0.250911 0.242203 0.273661 0.27804 0.248921 0.282641 0.312349 0.327915 0.318194 0.317679 0.32015 0.360259 0.330861 0.334793 0.337049 0.346138 0.283556 0.285424 0.327814 0.276172 0.273205 0.285217 0.216263 0.202078 0.192425 0.180018 0.122984 0.102741 0.136005 0.164438 0.206142 0.212595 0.218805 0.20668 0.189145 0.184491 0.18165 0.241183 0.27058 0.224827 0.240361 0.16386 0.239194 0.208975 0.247882 0.201037 0.22967 0.0823716 0.0838908 0.0788438 0.0715544 0.0829972 0.103058 0.100412 0.109613 0.106736 0.110528 0.117173 0.128043 0.138988 0.142662 0.151518 0.152008 0.166241 0.157787 0.182973 0.198229 0.224358 0.260981 0.1383 0.404695 0.513581 0.484799 0.232506 0.29706 0.278712 0.266076 0.279242 0.250008 0.252295 0.251622 0.240678 0.230744 0.240158 0.234642 0.278938 0.304243 0.334508 0.353826 0.352062 0.255277 0.226331 0.21564 0.213279 0.227176 0.230241 0.246179 0.242527 0.240176 0.2364 0.241278 0.199229 0.198134 0.220158 0.21047 0.245958 0.236759 0.254527 0.261339 0.246738 0.261908 0.277776 0.328276 0.310126 0.312988 0.315235 0.337679 0.325534 0.328636 0.326201 0.313047 0.310875 0.296006 0.260232 0.275731 0.296317 0.270281 0.229138 0.199687 0.197539 0.186833 0.21476 0.123401 0.171431 0.195687 0.214283 0.210725 0.207332 0.198985 0.191786 0.176575 0.201485 0.186667 0.242642 0.20966 0.270991 0.304456 0.17881 0.230724 0.229897 0.232983 0.17468 0.209871 0.176349 0.083707 0.0882849 0.0824803 0.0896645 0.106087 0.116987 0.118532 0.121113 0.132892 0.135234 0.156434 0.164162 0.178669 0.187792 0.211632 0.224461 0.241446 0.207845 0.462321 0.420232 0.351852 0.170638 0.285946 0.253459 0.259431 0.245973 0.235454 0.250914 0.247415 0.228096 0.245315 0.25089 0.244062 0.280168 0.255328 0.31378 0.294848 0.278244 0.3074 0.218417 0.212428 0.208264 0.230559 0.231916 0.236755 0.234306 0.235834 0.185903 0.206964 0.218908 0.21615 0.235891 0.25327 0.255557 0.254184 0.244201 0.246113 0.288832 0.317096 0.313817 0.30964 0.313003 0.3184 0.333686 0.323888 0.330691 0.311714 0.288349 0.264422 0.268418 0.290146 0.252352 0.256865 0.23578 0.214834 0.202612 0.206976 0.178328 0.178664 0.209121 0.205199 0.20468 0.196765 0.184876 0.20125 0.244566 0.214975 0.284296 0.35677 0.191944 0.177517 0.16425 0.159859 0.0873452 0.0889595 0.090026 0.0926928 0.0949228 0.120095 0.125631 0.123526 0.1462 0.145035 0.16591 0.166126 0.179712 0.197219 0.191717 0.216477 0.253222 0.426742 0.341051 0.435902 0.423999 0.25335 0.193802 0.222013 0.173304 0.213818 0.223289 0.208347 0.228663 0.255068 0.250229 0.253922 0.241091 0.228885 0.240189 0.244397 0.242911 0.242708 0.243384 0.272973 0.287969 0.264064 0.285641 0.22755 0.206403 0.224907 0.224592 0.218533 0.229599 0.242141 0.170858 0.205859 0.215103 0.225637 0.242401 0.267165 0.252969 0.256105 0.266486 0.271025 0.289731 0.305378 0.312232 0.307737 0.308391 0.333426 0.315259 0.296719 0.27015 0.275385 0.269217 0.261595 0.283573 0.297361 0.246465 0.248761 0.246901 0.230992 0.217833 0.233051 0.213679 0.186081 0.22456 0.220909 0.21572 0.204714 0.199381 0.183585 0.211144 0.280091 0.358942 0.157737 0.185387 0.159535 0.156078 0.0927066 0.101179 0.0956885 0.101531 0.122358 0.114325 0.122329 0.149732 0.163051 0.183753 0.1832 0.197352 0.207444 0.240177 0.304219 0.385168 0.172364 0.219718 0.171395 0.244198 0.205435 0.19192 0.193254 0.226176 0.226666 0.244968 0.242399 0.241335 0.236012 0.234738 0.231492 0.235358 0.2399 0.234954 0.265589 0.252312 0.283504 0.264521 0.274426 0.265227 0.217766 0.231283 0.220187 0.221599 0.234723 0.253231 0.194139 0.178856 0.248904 0.263081 0.255055 0.266181 0.280462 0.294075 0.315039 0.277089 0.312143 0.304583 0.305476 0.348235 0.328402 0.304765 0.222343 0.306853 0.26547 0.275234 0.271073 0.251182 0.256594 0.237609 0.246862 0.240094 0.235627 0.245144 0.200707 0.223131 0.227271 0.219932 0.222208 0.213712 0.208492 0.179733 0.208972 0.280335 0.265282 0.34067 0.144746 0.164443 0.159151 0.107864 0.162916 0.213618 0.0988875 0.172401 0.221066 0.212202 0.274166 0.164174 0.245564 0.267819 0.281957 0.304428 0.314129 0.219079 0.235228 0.244622 0.3148 0.158291 0.164383 
SCALARS Stress float 1
LOOKUP_TABLE default
-12719900000.0 -12807300000.0 -12770900000.0 -12599200000.0 -12602600000.0 -12585000000.0 -12643300000.0 -12549700000.0 -12668300000.0 -12663100000.0 -12564800000.0 -12586500000.0 -12549700000.0 -12570800000.0 -12549700000.0 -12549700000.0 -12578400000.0 -12549700000.0 -12549700000.0 -12554000000.0 -12549700000.0 -12554500000.0 -12565100000.0 -12620000000.0 -12652400000.0 -12609900000.0 -12590400000.0 -12576500000.0 -12564100000.0 -12553000000.0 -12549700000.0 -12549700000.0 -12549700000.0 -12563900000.0 -12578800000.0 -12591900000.0 -12646500000.0 -12612600000.0 -12586900000.0 -12561100000.0 -12550700000.0 -12577200000.0 -12580000000.0 -12552200000.0 -12599900000.0 -12551500000.0 -12553600000.0 -12588500000.0 -12700300000.0 -12687000000.0 -12638800000.0 -12663700000.0 -12566600000.0 -12596900000.0 -12560400000.0 -12669700000.0 -12651100000.0 -12557200000.0 -12554800000.0 -12555100000.0 -12565700000.0 -12571700000.0 -12679300000.0 -12591400000.0 -12577800000.0 -12738000000.0 -12629800000.0 -12586700000.0 -12582800000.0 -12574400000.0 -12570900000.0 -12642300000.0 -12621200000.0 -12724600000.0 -12592500000.0 -12930000000.0 -12863100000.0 -12936500000.0 -12906400000.0 -12864600000.0 -12861700000.0 -12595100000.0 -12570900000.0 -12549700000.0 -12592700000.0 -12556800000.0 -12652400000.0 -12549700000.0 -12570900000.0 -12565900000.0 -12609800000.0 -12661400000.0 -12941000000.0 -12879300000.0 -12877300000.0 -12690700000.0 -12770600000.0 -12552700000.0 -12632900000.0 -12568400000.0 -13325900000.0 -13047700000.0 -13228800000.0 -13395600000.0 -13750300000.0 -13959700000.0 -13600200000.0 -12741300000.0 -12678700000.0 -12672900000.0 -12549700000.0 -12625100000.0 -12553700000.0 -12549700000.0 -12656900000.0 -12549700000.0 -12549700000.0 -12573200000.0 -12549700000.0 -12605000000.0 -12549700000.0 -12809700000.0 -12549700000.0 -12549700000.0 -12549700000.0 -12560500000.0 -12551600000.0 -12549700000.0 -12553500000.0 -12569100000.0 -12621700000.0 -12648700000.0 -12763500000.0 -12778500000.0 -12928300000.0 -12884700000.0 -12675000000.0 -12639000000.0 -12584300000.0 -12645600000.0 -12713800000.0 -12677300000.0 -12670300000.0 -12581700000.0 -12645200000.0 -12898600000.0 -12588100000.0 -12716100000.0 -12754300000.0 -12697800000.0 -12660500000.0 -12669700000.0 -12560400000.0 -12756700000.0 -12686100000.0 -12993600000.0 -12550500000.0 -12549700000.0 -12585900000.0 -12602200000.0 -12897200000.0 -12631200000.0 -12549700000.0 -12919200000.0 -12644700000.0 -12549700000.0 -12549700000.0 -12592400000.0 -12665500000.0 -12601700000.0 -12556500000.0 -12881100000.0 -13020400000.0 -13116800000.0 -12938000000.0 -13324500000.0 -12582600000.0 -12672000000.0 -12601100000.0 -13529500000.0 -12559400000.0 -12799000000.0 -12765300000.0 -12673900000.0 -12733600000.0 -12622400000.0 -12905900000.0 -12557600000.0 -12626900000.0 -12565500000.0 -12684700000.0 -13647500000.0 -12928800000.0 -12871500000.0 -12863000000.0 -13155100000.0 -13255500000.0 -13174300000.0 -13224500000.0 -12736600000.0 -12549700000.0 -14126200000.0 -13693500000.0 -13718300000.0 -13728800000.0 -13329800000.0 -12589700000.0 -13586400000.0 -12917200000.0 -13118200000.0 -12902800000.0 -12927400000.0 -12841400000.0 -12589200000.0 -12773100000.0 -12550100000.0 -12552800000.0 -12600500000.0 -12549700000.0 -12717200000.0 -12549700000.0 -12888900000.0 -12559900000.0 -12583900000.0 -12549700000.0 -12611200000.0 -12611600000.0 -12619300000.0 -12645900000.0 -12694200000.0 -12813500000.0 -12792300000.0 -13062500000.0 -12974600000.0 -13297800000.0 -12697100000.0 -13103600000.0 -13006600000.0 -12860900000.0 -13010200000.0 -12552500000.0 -12568700000.0 -12879300000.0 -12549700000.0 -12699900000.0 -13054000000.0 -12608100000.0 -12612200000.0 -12568800000.0 -13105500000.0 -12928600000.0 -12687100000.0 -12600800000.0 -12935300000.0 -13806200000.0 -12835300000.0 -12787200000.0 -12743000000.0 -12941200000.0 -13053900000.0 -14023800000.0 -13611500000.0 -13672100000.0 -13642500000.0 -12889700000.0 -13081600000.0 -13222400000.0 -13253100000.0 -13068100000.0 -13235900000.0 -13019800000.0 -13059700000.0 -12682100000.0 -13350700000.0 -13236000000.0 -15035900000.0 -14622100000.0 -15187400000.0 -12865200000.0 -12660200000.0 -12734400000.0 -12638900000.0 -14731500000.0 -13843600000.0 -13764800000.0 -13108500000.0 -13163300000.0 -13255200000.0 -13530800000.0 -13092300000.0 -12977700000.0 -12768200000.0 -13770300000.0 -12578600000.0 -12736700000.0 -12612700000.0 -12939000000.0 -12661400000.0 -13269000000.0 -13186700000.0 -13173400000.0 -13270600000.0 -12549700000.0 -14514100000.0 -12661600000.0 -13185300000.0 -14415900000.0 -13098800000.0 -13692800000.0 -13901500000.0 -12715000000.0 -13099300000.0 -12549700000.0 -12680900000.0 -12976900000.0 -12792600000.0 -12821900000.0 -12887600000.0 -12733700000.0 -12791900000.0 -12732100000.0 -13070500000.0 -12842200000.0 -13149700000.0 -12686900000.0 -12665500000.0 -12626100000.0 -12549700000.0 -12560300000.0 -12585700000.0 -12567900000.0 -12555900000.0 -12695900000.0 -12930800000.0 -13038400000.0 -12808400000.0 -13866100000.0 -13645300000.0 -13275700000.0 -13808500000.0 -13632700000.0 -13665200000.0 -14023200000.0 -14019800000.0 -13458200000.0 -13237300000.0 -13094900000.0 -13842500000.0 -12729700000.0 -12646400000.0 -12585200000.0 -13115900000.0 -12583300000.0 -13190400000.0 -12702300000.0 -13652000000.0 -13514800000.0 -15044200000.0 -12795700000.0 -12763100000.0 -12865600000.0 -12769000000.0 -13959300000.0 -12549700000.0 -12549700000.0 -13231000000.0 -12549700000.0 -13867200000.0 -13868600000.0 -13510300000.0 -13411200000.0 -13082700000.0 -14579000000.0 -14439800000.0 -14343600000.0 -14464200000.0 -12900300000.0 -14125100000.0 -15812100000.0 -15444400000.0 -15256900000.0 -15856400000.0 -12637400000.0 -12580300000.0 -13930000000.0 -13876400000.0 -14272700000.0 -13620300000.0 -14104700000.0 -13150700000.0 -12955800000.0 -12782600000.0 -14024700000.0 -13030600000.0 -13640400000.0 -14056400000.0 -14208400000.0 -14866200000.0 -13034400000.0 -12630800000.0 -12611500000.0 -13096000000.0 -12612500000.0 -15852000000.0 -12794100000.0 -14873400000.0 -13838600000.0 -15614500000.0 -13114700000.0 -13414000000.0 -12782400000.0 -13935300000.0 -13331100000.0 -13448300000.0 -12685200000.0 -12666500000.0 -13351000000.0 -13103100000.0 -12730700000.0 -12959900000.0 -12661500000.0 -12688400000.0 -12564800000.0 -12937100000.0 -12559300000.0 -13038600000.0 -13186800000.0 -12919400000.0 -12766700000.0 -12806100000.0 -12733800000.0 -12655000000.0 -12684400000.0 -12596300000.0 -13439000000.0 -13178900000.0 -12881400000.0 -12674200000.0 -14077400000.0 -14978300000.0 -14359500000.0 -12702300000.0 -13353100000.0 -12793800000.0 -12743000000.0 -12789100000.0 -13582000000.0 -12707400000.0 -13080900000.0 -13715600000.0 -15104300000.0 -12888100000.0 -12832300000.0 -13543700000.0 -12718000000.0 -13752900000.0 -14460000000.0 -12734800000.0 -15596500000.0 -13213100000.0 -13061200000.0 -13321700000.0 -12866600000.0 -14688200000.0 -12549700000.0 -12573800000.0 -12649600000.0 -13600800000.0 -15594600000.0 -12693800000.0 -12601600000.0 -14099600000.0 -13978200000.0 -12658400000.0 -12950100000.0 -15023100000.0 -13870600000.0 -14861700000.0 -15082500000.0 -12765300000.0 -13594900000.0 -14185600000.0 -14318400000.0 -16053600000.0 -15290700000.0 -12627100000.0 -12557400000.0 -13963000000.0 -12603300000.0 -15188500000.0 -15805900000.0 -15874100000.0 -15626800000.0 -14217400000.0 -14578500000.0 -14056000000.0 -12661700000.0 -12915900000.0 -12578400000.0 -14740600000.0 -13809700000.0 -13443200000.0 -13711200000.0 -15220100000.0 -12549700000.0 -12740500000.0 -15981600000.0 -14327700000.0 -14437400000.0 -14254600000.0 -13895400000.0 -13289300000.0 -13628300000.0 -12677000000.0 -12647500000.0 -13358000000.0 -14262900000.0 -14271600000.0 -14164000000.0 -14039800000.0 -14160900000.0 -13827200000.0 -14753800000.0 -14270900000.0 -14251500000.0 -14415500000.0 -14700900000.0 -13743200000.0 -13657200000.0 -13593600000.0 -13821100000.0 -12552400000.0 -12705300000.0 -12904800000.0 -12582200000.0 -15857900000.0 -12839200000.0 -12701800000.0 -13051700000.0 -13515300000.0 -13352300000.0 -12563600000.0 -12671000000.0 -12563100000.0 -13775800000.0 -13503700000.0 -12811900000.0 -13246500000.0 -14880000000.0 -15186400000.0 -15102400000.0 -15287000000.0 -16953700000.0 -14171300000.0 -16383900000.0 -13542300000.0 -13312800000.0 -14419900000.0 -14356500000.0 -12790400000.0 -13837200000.0 -14433700000.0 -14923800000.0 -15385500000.0 -18709700000.0 -15365600000.0 -15564700000.0 -14770700000.0 -13642300000.0 -13656500000.0 -14466500000.0 -13347400000.0 -18363500000.0 -14562700000.0 -14779700000.0 -13323900000.0 -15511500000.0 -12950000000.0 -14368100000.0 -13249700000.0 -13427600000.0 -12647800000.0 -14352300000.0 -15301200000.0 -14522600000.0 -17772700000.0 -15761100000.0 -13161100000.0 -13371800000.0 -14994200000.0 -14300400000.0 -13616000000.0 -13829800000.0 -12549700000.0 -13343900000.0 -13010200000.0 -12867600000.0 -15523800000.0 -14139500000.0 -13932100000.0 -14163500000.0 -17830500000.0 -21214200000.0 -15263900000.0 -14508800000.0 -18641600000.0 -16117000000.0 -14580800000.0 -14132700000.0 -14526400000.0 -13122400000.0 -12848400000.0 -13392600000.0 -12790200000.0 -12757600000.0 -15335300000.0 -14556200000.0 -13135600000.0 -12554300000.0 -12586000000.0 -13276300000.0 -13234300000.0 -13676200000.0 -12975700000.0 -12722500000.0 -13159400000.0 -12562100000.0 -12621000000.0 -13776300000.0 -13839000000.0 -13984600000.0 -14114300000.0 -15027400000.0 -14728000000.0 -13492900000.0 -13743200000.0 -14484800000.0 -13244800000.0 -12965900000.0 -12937200000.0 -13146300000.0 -12634800000.0 -13507700000.0 -13008900000.0 -13035500000.0 -14220100000.0 -14173500000.0 -13390900000.0 -13762300000.0 -13813500000.0 -12736800000.0 -13905100000.0 -12682600000.0 -13995000000.0 -15632400000.0 -14830900000.0 -17270100000.0 -14842400000.0 -14642300000.0 -14098200000.0 -13751600000.0 -13896100000.0 -13947100000.0 -13499600000.0 -12549700000.0 -12584300000.0 -13063800000.0 -17298800000.0 -13700200000.0 -13546500000.0 -16736400000.0 -17136600000.0 -17174200000.0 -17294000000.0 -16720400000.0 -16341000000.0 -17682400000.0 -19123200000.0 -18038900000.0 -17654000000.0 -19411500000.0 -17653300000.0 -19179200000.0 -15625700000.0 -15285500000.0 -15533300000.0 -17565000000.0 -14158300000.0 -13937700000.0 -14889400000.0 -13609500000.0 -14329400000.0 -13950100000.0 -14547200000.0 -12778000000.0 -13859000000.0 -12551700000.0 -15378000000.0 -12669100000.0 -12670300000.0 -12585200000.0 -13734800000.0 -12549700000.0 -20606400000.0 -20838200000.0 -20444000000.0 -16982800000.0 -16865200000.0 -16119300000.0 -16825700000.0 -15746000000.0 -16485400000.0 -17091200000.0 -15101600000.0 -15117700000.0 -14647000000.0 -14530100000.0 -14142100000.0 -13557900000.0 -12891900000.0 -12887000000.0 -14078300000.0 -12892700000.0 -13369900000.0 -13629700000.0 -13543500000.0 -13732000000.0 -12555400000.0 -12885800000.0 -12619700000.0 -13218900000.0 -12765700000.0 -14347800000.0 -13876700000.0 -15205400000.0 -13090900000.0 -13067100000.0 -13127700000.0 -13580300000.0 -13133400000.0 -13322800000.0 -12795300000.0 -13711000000.0 -12890900000.0 -13161100000.0 -12969200000.0 -13129500000.0 -12855200000.0 -13002700000.0 -13485000000.0 -13981000000.0 -16326500000.0 -17477500000.0 -16493100000.0 -18451700000.0 -16895200000.0 -13188600000.0 -13692300000.0 -12862400000.0 -13512400000.0 -12850400000.0 -12549700000.0 -13165500000.0 -12938900000.0 -18913500000.0 -13392000000.0 -13810500000.0 -14210100000.0 -12549700000.0 -14481300000.0 -13819100000.0 -12588000000.0 -15158800000.0 -13624800000.0 -13838900000.0 -15648700000.0 -17400800000.0 -14002700000.0 -14232700000.0 -15944100000.0 -14101900000.0 -16110600000.0 -14520600000.0 -19999500000.0 -13193800000.0 -13062100000.0 -15123700000.0 -15945600000.0 -13673200000.0 -13398800000.0 -15035900000.0 -14084600000.0 -13605100000.0 -14479900000.0 -15922300000.0 -12554600000.0 -12745700000.0 -12564100000.0 -14098600000.0 -12549700000.0 -12549700000.0 -18928400000.0 -19223900000.0 -14559900000.0 -13503700000.0 -12959700000.0 -12908800000.0 -13136600000.0 -16641500000.0 -12549700000.0 -14391400000.0 -14304400000.0 -14317800000.0 -14075200000.0 -12666700000.0 -12755200000.0 -13064900000.0 -12871100000.0 -13447800000.0 -13537100000.0 -14065600000.0 -12621300000.0 -13822900000.0 -13624400000.0 -12757400000.0 -13175000000.0 -13149400000.0 -14042000000.0 -14044500000.0 -13900100000.0 -13886400000.0 -14520700000.0 -15452800000.0 -14178400000.0 -14732600000.0 -15436900000.0 -14025400000.0 -14217400000.0 -15498700000.0 -16238700000.0 -16003200000.0 -15469100000.0 -15014000000.0 -15626800000.0 -15549600000.0 -15994400000.0 -16185500000.0 -15037000000.0 -15832200000.0 -18018200000.0 -12549700000.0 -15210900000.0 -15167100000.0 -17440100000.0 -12859100000.0 -16803600000.0 -16779700000.0 -12697000000.0 -16901900000.0 -15890000000.0 -15190200000.0 -15303800000.0 -16285000000.0 -15828700000.0 -12693400000.0 -13155200000.0 -13304300000.0 -12572000000.0 -13777600000.0 -15043000000.0 -14308700000.0 -15881000000.0 -14142200000.0 -14910200000.0 -14651100000.0 -13452600000.0 -12549700000.0 -16261200000.0 -13779800000.0 -15551300000.0 -13889200000.0 -14631900000.0 -16113600000.0 -15131200000.0 -21578200000.0 -12549700000.0 -16102700000.0 -15664900000.0 -12569100000.0 -12677000000.0 -15681400000.0 -13767200000.0 -12579500000.0 -15421700000.0 -13778200000.0 -13111600000.0 -14536900000.0 -12830800000.0 -14800500000.0 -17501400000.0 -13780200000.0 -12596400000.0 -18001400000.0 -15828400000.0 -12658400000.0 -12661000000.0 -13329000000.0 -16766900000.0 -13959200000.0 -13596000000.0 -12585700000.0 -12572300000.0 -12972100000.0 -13417500000.0 -12757300000.0 -12619100000.0 -12549700000.0 -13531300000.0 -13803300000.0 -13973200000.0 -13543200000.0 -12594400000.0 -13560700000.0 -13014100000.0 -13719400000.0 -13524200000.0 -12557800000.0 -12702400000.0 -12933500000.0 -12854800000.0 -12551100000.0 -14336000000.0 -14651800000.0 -12551700000.0 -14700800000.0 -12707100000.0 -14347600000.0 -12549700000.0 -12551200000.0 -13779800000.0 -12580400000.0 -14655600000.0 -12549700000.0 -12554400000.0 -12738100000.0 -14339600000.0 -14354700000.0 -15077900000.0 -17604400000.0 -12549700000.0 -14978200000.0 -15520000000.0 -12725400000.0 -17146000000.0 -14814900000.0 -14895600000.0 -18273300000.0 -13585500000.0 -12848500000.0 -13841800000.0 -12949900000.0 -14398000000.0 -12814700000.0 -16225100000.0 -13414500000.0 -15087200000.0 -13878300000.0 -15087900000.0 -17229800000.0 -16632000000.0 -21205000000.0 -19849700000.0 -19465300000.0 -19327100000.0 -18869300000.0 -19700600000.0 -18770600000.0 -19256100000.0 -20799400000.0 -20401400000.0 -23322000000.0 -15929500000.0 -14806200000.0 -23126600000.0 -25371400000.0 -18940800000.0 -17340800000.0 -16181900000.0 -14316200000.0 -14273800000.0 -15649900000.0 -13732500000.0 -13638500000.0 -13381900000.0 -15395400000.0 -12560200000.0 -14289500000.0 -14628100000.0 -12945100000.0 -13059500000.0 -13648500000.0 -14080000000.0 -13048800000.0 -12914200000.0 -18819300000.0 -16315500000.0 -12597000000.0 -13375100000.0 -13605300000.0 -16424700000.0 -12549700000.0 -13709000000.0 -12807800000.0 -12928600000.0 -12712300000.0 -12593500000.0 -13849700000.0 -13693100000.0 -13091900000.0 -13079000000.0 -13670200000.0 -12931300000.0 -14885300000.0 -13312400000.0 -12836100000.0 -13765800000.0 -13263300000.0 -13011400000.0 -13396900000.0 -12570800000.0 -13021600000.0 -12595200000.0 -12677400000.0 -12555900000.0 -15295100000.0 -12582700000.0 -13892600000.0 -13693600000.0 -14625900000.0 -14983300000.0 -12573700000.0 -12607700000.0 -13855600000.0 -13798900000.0 -15700600000.0 -12687300000.0 -12709300000.0 -13401800000.0 -13910700000.0 -14368000000.0 -13427800000.0 -18615200000.0 -13529100000.0 -16912300000.0 -16983900000.0 -13118200000.0 -20555100000.0 -23403800000.0 -19873400000.0 -20775200000.0 -19599100000.0 -16514500000.0 -14667700000.0 -15029900000.0 -14730400000.0 -14698700000.0 -14502400000.0 -18438900000.0 -17052400000.0 -13250100000.0 -14076300000.0 -14897400000.0 -13226000000.0 -12549700000.0 -17711100000.0 -14849900000.0 -14038500000.0 -14573800000.0 -12923900000.0 -16290400000.0 -14961100000.0 -13353300000.0 -17491000000.0 -12968600000.0 -12856700000.0 -19174200000.0 -18516600000.0 -18401100000.0 -17713700000.0 -12549700000.0 -16031300000.0 -12549700000.0 -17139500000.0 -12948800000.0 -14861500000.0 -12673300000.0 -12604800000.0 -15250700000.0 -12952100000.0 -13816400000.0 -13040700000.0 -15132300000.0 -12783300000.0 -14384100000.0 -13790700000.0 -14157900000.0 -18037500000.0 -15866900000.0 -15780900000.0 -16821000000.0 -17429100000.0 -14408600000.0 -14688900000.0 -14583200000.0 -15284400000.0 -14723600000.0 -14572300000.0 -14784800000.0 -13206700000.0 -13416800000.0 -14239800000.0 -12652600000.0 -15562800000.0 -13832000000.0 -13937000000.0 -14804400000.0 -14158200000.0 -14343800000.0 -14253600000.0 -14327900000.0 -13002500000.0 -12549700000.0 -13128600000.0 -12997800000.0 -12686900000.0 -15683600000.0 -12700400000.0 -13213900000.0 -13232400000.0 -14931200000.0 -15164300000.0 -13835400000.0 -14504000000.0 -13323500000.0 -12690300000.0 -15690000000.0 -12549700000.0 -12561100000.0 -13426700000.0 -15651500000.0 -13378000000.0 -14928700000.0 -14062700000.0 -18032000000.0 -12549700000.0 -12549700000.0 -17326200000.0 -19064000000.0 -16846900000.0 -12966600000.0 -17814200000.0 -16856000000.0 -15799300000.0 -16196800000.0 -13209500000.0 -13792300000.0 -13650400000.0 -13156000000.0 -15407400000.0 -12549700000.0 -16997000000.0 -18735100000.0 -17325600000.0 -17725800000.0 -17300900000.0 -19652500000.0 -21675300000.0 -14769400000.0 -15123500000.0 -15995400000.0 -12782700000.0 -18532400000.0 -13746200000.0 -14419600000.0 -16717200000.0 -13429300000.0 -14206000000.0 -13476700000.0 -12967700000.0 -20784900000.0 -13735700000.0 -20201500000.0 -16235600000.0 -17966800000.0 -18978300000.0 -21985600000.0 -22701200000.0 -21255200000.0 -20629200000.0 -22184000000.0 -21255400000.0 -22211100000.0 -21304700000.0 -18381400000.0 -15129500000.0 -17115600000.0 -21020200000.0 -20493800000.0 -21286800000.0 -24712000000.0 -17224800000.0 -12587200000.0 -13784500000.0 -14458000000.0 -13525900000.0 -13492900000.0 -13349500000.0 -13460500000.0 -12779800000.0 -12773700000.0 -12880900000.0 -14715500000.0 -14102900000.0 -13906600000.0 -13986800000.0 -15138600000.0 -17135100000.0 -12960000000.0 -13503400000.0 -13881600000.0 -12552200000.0 -13230600000.0 -12809500000.0 -15431900000.0 -15460400000.0 -15344100000.0 -16205500000.0 -14630400000.0 -14857300000.0 -14625100000.0 -15083200000.0 -15925400000.0 -14137500000.0 -13007900000.0 -13673600000.0 -13622800000.0 -13840300000.0 -14826900000.0 -16339200000.0 -15731700000.0 -18572300000.0 -14623900000.0 -15770000000.0 -18728800000.0 -12549700000.0 -24367100000.0 -22711000000.0 -19147400000.0 -16839200000.0 -22259300000.0 -18438700000.0 -13774100000.0 -13511800000.0 -13621900000.0 -16542500000.0 -17565800000.0 -15864300000.0 -15574600000.0 -20215800000.0 -13516700000.0 -12610400000.0 -13362800000.0 -16221500000.0 -14356500000.0 -16297400000.0 -12569600000.0 -12552200000.0 -15764600000.0 -17275200000.0 -22235900000.0 -17254200000.0 -13303100000.0 -16008400000.0 -13547500000.0 -13553300000.0 -13241200000.0 -13185200000.0 -21372100000.0 -15514700000.0 -18711500000.0 -13156800000.0 -12858300000.0 -14716900000.0 -12664700000.0 -13566300000.0 -14323500000.0 -13636700000.0 -13011500000.0 -14851900000.0 -15914000000.0 -16252700000.0 -15619200000.0 -15658500000.0 -13426700000.0 -12564100000.0 -12549700000.0 -12549700000.0 -12549700000.0 -20174200000.0 -18908300000.0 -12767700000.0 -13571400000.0 -13745800000.0 -13849900000.0 -12828600000.0 -13233600000.0 -12695500000.0 -12612500000.0 -13615300000.0 -12865400000.0 -12958400000.0 -12891000000.0 -13214100000.0 -13500400000.0 -12549700000.0 -15750100000.0 -15130100000.0 -14528700000.0 -15597900000.0 -15039300000.0 -14866700000.0 -15309100000.0 -13574000000.0 -13888800000.0 -12766800000.0 -13516500000.0 -15605900000.0 -14092400000.0 -13152000000.0 -12664600000.0 -12588100000.0 -15865900000.0 -12953400000.0 -12599800000.0 -12641500000.0 -13238500000.0 -12730400000.0 -17318900000.0 -12561400000.0 -14065800000.0 -13958300000.0 -18366900000.0 -13301000000.0 -13979000000.0 -13055300000.0 -19759600000.0 -21746900000.0 -23973000000.0 -12733100000.0 -12698700000.0 -26320100000.0 -20095000000.0 -15098000000.0 -14943900000.0 -12687400000.0 -14298400000.0 -12894600000.0 -13242900000.0 -13850700000.0 -12843200000.0 -12749200000.0 -13865400000.0 -19474600000.0 -13703800000.0 -15539100000.0 -17871400000.0 -15622200000.0 -16972800000.0 -12851400000.0 -19126400000.0 -17550100000.0 -14929000000.0 -15496000000.0 -16171800000.0 -16050700000.0 -15100400000.0 -18526600000.0 -14044900000.0 -12587800000.0 -14006300000.0 -12773800000.0 -15386000000.0 -17890800000.0 -15251000000.0 -18781600000.0 -18417000000.0 -16501100000.0 -16150000000.0 -14033900000.0 -12696100000.0 -19398500000.0 -17468400000.0 -15234100000.0 -13449000000.0 -15758900000.0 -13382900000.0 -12689200000.0 -12622300000.0 -12622200000.0 -12579000000.0 -13849600000.0 -20837800000.0 -17204700000.0 -17055900000.0 -14065500000.0 -13792300000.0 -13243800000.0 -13234800000.0 -14909000000.0 -14070100000.0 -13100000000.0 -13031000000.0 -13725100000.0 -14202800000.0 -12633100000.0 -12759900000.0 -12573600000.0 -12936800000.0 -13266100000.0 -12901500000.0 -15064600000.0 -12775400000.0 -12672000000.0 -13174700000.0 -12574500000.0 -13125300000.0 -12564300000.0 -14207500000.0 -13449600000.0 -14342700000.0 -16479600000.0 -18311100000.0 -13885600000.0 -12755000000.0 -15547700000.0 -13538600000.0 -14251500000.0 -13598100000.0 -12911300000.0 -12657400000.0 -13223800000.0 -17862900000.0 -13079200000.0 -13885200000.0 -12599100000.0 -17660000000.0 -17440700000.0 -22502300000.0 -21376100000.0 -20484900000.0 -22283100000.0 -22985600000.0 -23307700000.0 -13064400000.0 -12587400000.0 -18350000000.0 -12779700000.0 -12789800000.0 -17030100000.0 -13224300000.0 -13076600000.0 -13347000000.0 -13608100000.0 -13691700000.0 -20981000000.0 -16557900000.0 -20761800000.0 -15630500000.0 -14871300000.0 -14603800000.0 -18564100000.0 -13142100000.0 -13070900000.0 -13949800000.0 -12567500000.0 -16345700000.0 -12590000000.0 -14871200000.0 -18518500000.0 -13617200000.0 -13724700000.0 -14627100000.0 -16023100000.0 -15709700000.0 -19713300000.0 -17528300000.0 -15375900000.0 -17883800000.0 -13948700000.0 -16152700000.0 -18177200000.0 -18871300000.0 -15482200000.0 -15024900000.0 -16843900000.0 -15305400000.0 -15695400000.0 -13203800000.0 -12677500000.0 -12766700000.0 -12779300000.0 -12874600000.0 -13616100000.0 -18682800000.0 -16557700000.0 -13582000000.0 -14595400000.0 -14018100000.0 -13468100000.0 -13821600000.0 -13884500000.0 -13964200000.0 -14088800000.0 -14086500000.0 -13427500000.0 -13291900000.0 -15442400000.0 -13530300000.0 -12673000000.0 -12560900000.0 -13282900000.0 -12577000000.0 -13008300000.0 -12549700000.0 -13839500000.0 -13765500000.0 -13397200000.0 -13272800000.0 -15549500000.0 -14903600000.0 -13960000000.0 -15328900000.0 -15962200000.0 -13371400000.0 -13719400000.0 -13467300000.0 -13288000000.0 -12759500000.0 -19225100000.0 -14523200000.0 -12874700000.0 -15349900000.0 -12652600000.0 -16611000000.0 -15594100000.0 -14160900000.0 -13967000000.0 -28376600000.0 -14190600000.0 -39194900000.0 -27108800000.0 -19051000000.0 -12593700000.0 -12561100000.0 -19258100000.0 -21956600000.0 -23904400000.0 -12637000000.0 -13983000000.0 -15102700000.0 -14582200000.0 -16588200000.0 -12929400000.0 -21520200000.0 -21365500000.0 -12549700000.0 -12809900000.0 -15322300000.0 -12582700000.0 -14168100000.0 -14121600000.0 -14964700000.0 -18438200000.0 -12908400000.0 -12807900000.0 -14046100000.0 -14620300000.0 -16699600000.0 -15624100000.0 -13928700000.0 -13322200000.0 -17941100000.0 -15400900000.0 -14964000000.0 -17000800000.0 -14533500000.0 -15362300000.0 -17809700000.0 -15796000000.0 -17496100000.0 -12600100000.0 -12582100000.0 -13154100000.0 -15341900000.0 -12549700000.0 -14093200000.0 -12607700000.0 -13718200000.0 -14544800000.0 -13284400000.0 -15130100000.0 -13025500000.0 -12614600000.0 -12804100000.0 -12589700000.0 -12633700000.0 -13214600000.0 -15147100000.0 -15687500000.0 -12558700000.0 -12549700000.0 -14588100000.0 -13430200000.0 -13058000000.0 -13404800000.0 -12811300000.0 -13202600000.0 -12776500000.0 -12843300000.0 -12966100000.0 -12647400000.0 -12549700000.0 -14361500000.0 -14311200000.0 -14278800000.0 -14500800000.0 -14896200000.0 -15237300000.0 -12943600000.0 -13026800000.0 -12969600000.0 -13544000000.0 -14778700000.0 -13992500000.0 -16263900000.0 -15285000000.0 -14224700000.0 -13258800000.0 -14687100000.0 -12549700000.0 -15293400000.0 -21183000000.0 -16474100000.0 -16192000000.0 -17727200000.0 -17763600000.0 -16933900000.0 -17894500000.0 -16748300000.0 -15880000000.0 -19577400000.0 -22565500000.0 -19597400000.0 -23799900000.0 -15239200000.0 -23226900000.0 -18530300000.0 -14934600000.0 -24902200000.0 -16772900000.0 -15642600000.0 -15085800000.0 -15215500000.0 -16042800000.0 -15141400000.0 -13911000000.0 -16940900000.0 -13938400000.0 -13645700000.0 -16418300000.0 -15421700000.0 -12549700000.0 -12563100000.0 -14782100000.0 -14030700000.0 -17413500000.0 -15392700000.0 -14530600000.0 -16656100000.0 -12673000000.0 -12559100000.0 -17744300000.0 -14517200000.0 -15322700000.0 -15801100000.0 -18082000000.0 -17464400000.0 -18271600000.0 -12549700000.0 -17540500000.0 -13216100000.0 -15460800000.0 -12983300000.0 -14792700000.0 -12929400000.0 -12701600000.0 -12752000000.0 -12736400000.0 -12713100000.0 -12804900000.0 -12982200000.0 -15414400000.0 -12620600000.0 -15027800000.0 -15440100000.0 -13784600000.0 -13442400000.0 -12939600000.0 -12845100000.0 -13135400000.0 -12792900000.0 -13373400000.0 -12884100000.0 -13621100000.0 -13385800000.0 -13373400000.0 -13609100000.0 -13689700000.0 -12834400000.0 -12715800000.0 -12553100000.0 -12615600000.0 -12878300000.0 -12867100000.0 -15116800000.0 -14914100000.0 -14404700000.0 -15058800000.0 -16912800000.0 -12549700000.0 -14993900000.0 -16160900000.0 -14113600000.0 -14509100000.0 -13300700000.0 -13219300000.0 -16911500000.0 -16921700000.0 -12549700000.0 -14927200000.0 -22462700000.0 -15810000000.0 -12637500000.0 -14652700000.0 -13739700000.0 -14021000000.0 -12563500000.0 -18741300000.0 -19337300000.0 -16310600000.0 -45542500000.0 -12710600000.0 -22124000000.0 -19049900000.0 -24265800000.0 -33933200000.0 -28739700000.0 -19338400000.0 -17654300000.0 -19474300000.0 -24759000000.0 -12597800000.0 -16405800000.0 -13283000000.0 -13367800000.0 -12549700000.0 -16771900000.0 -13845000000.0 -13001300000.0 -15114700000.0 -13986000000.0 -14451500000.0 -15177300000.0 -15599400000.0 -13568200000.0 -12718800000.0 -12549700000.0 -12570200000.0 -12611800000.0 -13725100000.0 -15675400000.0 -14357600000.0 -13545400000.0 -15799800000.0 -14090900000.0 -15774400000.0 -13359500000.0 -13178500000.0 -12635200000.0 -14026100000.0 -13558400000.0 -13729200000.0 -12627600000.0 -18207300000.0 -17575700000.0 -18578200000.0 -20405200000.0 -16049800000.0 -12745800000.0 -12549700000.0 -12752100000.0 -12586900000.0 -12588700000.0 -12641600000.0 -12931100000.0 -14065400000.0 -13534900000.0 -14495400000.0 -12655800000.0 -14289200000.0 -13489000000.0 -12666500000.0 -12663900000.0 -12869700000.0 -12841600000.0 -12636900000.0 -13460800000.0 -12701700000.0 -12621900000.0 -12698400000.0 -12691200000.0 -12833300000.0 -13023700000.0 -12598900000.0 -12564600000.0 -12569500000.0 -12549700000.0 -12569600000.0 -13703500000.0 -13913100000.0 -12577900000.0 -12687400000.0 -15143500000.0 -14640100000.0 -17216600000.0 -18400000000.0 -13595500000.0 -19761300000.0 -16224100000.0 -14043400000.0 -19088300000.0 -20368200000.0 -19672800000.0 -18929100000.0 -12574700000.0 -17456600000.0 -14351000000.0 -14576600000.0 -26209000000.0 -22124700000.0 -24464500000.0 -34034100000.0 -26632500000.0 -28461000000.0 -31253700000.0 -13172500000.0 -17918100000.0 -23784100000.0 -17276900000.0 -16437200000.0 -20519600000.0 -24935500000.0 -15949600000.0 -18947700000.0 -19479500000.0 -14905400000.0 -14438200000.0 -16902400000.0 -13246100000.0 -13243500000.0 -13284900000.0 -13609400000.0 -13843300000.0 -13836300000.0 -12552600000.0 -12549700000.0 -12961900000.0 -13683500000.0 -13028000000.0 -12883300000.0 -13082100000.0 -14890200000.0 -13978200000.0 -12629500000.0 -15647800000.0 -13118200000.0 -14864800000.0 -12549700000.0 -15000700000.0 -14360700000.0 -13564200000.0 -14160000000.0 -13483500000.0 -13051000000.0 -14010100000.0 -14070300000.0 -14540500000.0 -16776300000.0 -14772600000.0 -14908700000.0 -15732400000.0 -14921800000.0 -12695400000.0 -12808800000.0 -12549700000.0 -13251400000.0 -12588200000.0 -12591700000.0 -13214900000.0 -12796300000.0 -12601300000.0 -13023700000.0 -14229700000.0 -12549700000.0 -13098100000.0 -13210200000.0 -12722500000.0 -12585800000.0 -12685500000.0 -12549700000.0 -12858300000.0 -13160600000.0 -13499900000.0 -12617500000.0 -12599300000.0 -12557200000.0 -12594500000.0 -12697200000.0 -12550800000.0 -12761200000.0 -12564800000.0 -12604400000.0 -12555800000.0 -12591500000.0 -12595600000.0 -13051900000.0 -13002900000.0 -14302500000.0 -14815600000.0 -14781400000.0 -12620600000.0 -17423000000.0 -13869300000.0 -13318900000.0 -13551100000.0 -21930300000.0 -20069200000.0 -14161000000.0 -19117200000.0 -20642000000.0 -29366500000.0 -13032900000.0 -21298700000.0 -18341200000.0 -17965400000.0 -15045200000.0 -13106100000.0 -12652100000.0 -19390700000.0 -29227600000.0 -27762300000.0 -28566800000.0 -28219400000.0 -21016700000.0 -19062900000.0 -22064900000.0 -26839500000.0 -16402700000.0 -15165500000.0 -12549700000.0 -27362900000.0 -12667500000.0 -17494200000.0 -16863300000.0 -13116200000.0 -13506700000.0 -12743400000.0 -12973200000.0 -13628200000.0 -13489400000.0 -13630900000.0 -13831200000.0 -13703400000.0 -13580200000.0 -13488500000.0 -12572800000.0 -13192700000.0 -12869400000.0 -14254800000.0 -13619800000.0 -13553800000.0 -12991600000.0 -13686100000.0 -13361900000.0 -14729500000.0 -14385200000.0 -13357500000.0 -12942700000.0 -13226200000.0 -13511200000.0 -13455200000.0 -13463300000.0 -13828500000.0 -13501700000.0 -14680600000.0 -12561500000.0 -12554100000.0 -17332400000.0 -13787200000.0 -13214600000.0 -12550900000.0 -13200700000.0 -13062100000.0 -13075400000.0 -13062900000.0 -12648500000.0 -13819500000.0 -12703100000.0 -13923300000.0 -13722600000.0 -13252900000.0 -13252800000.0 -13278400000.0 -13011900000.0 -13138600000.0 -12556300000.0 -12824000000.0 -12549700000.0 -12556100000.0 -12603300000.0 -12696100000.0 -13103600000.0 -12607400000.0 -12991700000.0 -12720500000.0 -12599500000.0 -12557900000.0 -13214400000.0 -12775300000.0 -12720400000.0 -12568600000.0 -14177900000.0 -17524400000.0 -16300300000.0 -17381300000.0 -20392800000.0 -20239100000.0 -13112600000.0 -15404200000.0 -15073600000.0 -14649600000.0 -19352800000.0 -15141800000.0 -21164000000.0 -25747000000.0 -18338000000.0 -24789200000.0 -15401500000.0 -15948200000.0 -33013200000.0 -48458200000.0 -12870100000.0 -12732200000.0 -12717900000.0 -27901000000.0 -15176900000.0 -14617700000.0 -18803300000.0 -12549700000.0 -23938800000.0 -15201200000.0 -13392100000.0 -14261700000.0 -16702800000.0 -13271700000.0 -13269300000.0 -13000900000.0 -12709200000.0 -13926000000.0 -12989100000.0 -12563800000.0 -13644200000.0 -13913800000.0 -12758900000.0 -12673100000.0 -13311100000.0 -12738100000.0 -12981000000.0 -13063900000.0 -12549700000.0 -13469600000.0 -15273500000.0 -12549700000.0 -12938200000.0 -13220000000.0 -12595500000.0 -12567500000.0 -12554400000.0 -12932900000.0 -12715000000.0 -13486400000.0 -14295900000.0 -14487600000.0 -13020200000.0 -13964800000.0 -16351500000.0 -13624000000.0 -13307800000.0 -12808500000.0 -12552200000.0 -12581400000.0 -12707300000.0 -12663900000.0 -12622300000.0 -12693900000.0 -12679000000.0 -12640100000.0 -12998300000.0 -12888600000.0 -12701700000.0 -12745200000.0 -12784600000.0 -12848300000.0 -13020200000.0 -13155500000.0 -13035700000.0 -12807500000.0 -12884200000.0 -12945900000.0 -13065300000.0 -12925100000.0 -13082900000.0 -12896800000.0 -13304100000.0 -13764300000.0 -13470700000.0 -14199300000.0 -13912600000.0 -16074600000.0 -15136100000.0 -15183200000.0 -16784800000.0 -13036400000.0 -14388500000.0 -12702800000.0 -18309800000.0 -18442500000.0 -19603900000.0 -13361400000.0 -14693200000.0 -24913600000.0 -16120900000.0 -20954600000.0 -15784900000.0 -28512500000.0 -29432700000.0 -12549700000.0 -20750500000.0 -18385000000.0 -12549700000.0 -34805500000.0 -14012500000.0 -14042400000.0 -39839000000.0 -12763800000.0 -13275700000.0 -12984600000.0 -28206800000.0 -18971700000.0 -23686700000.0 -19579700000.0 -16948900000.0 -19129100000.0 -19898600000.0 -19388300000.0 -15541900000.0 -14712200000.0 -14884300000.0 -15079300000.0 -15420200000.0 -15342700000.0 -14052400000.0 -12678500000.0 -12624400000.0 -13651700000.0 -13174800000.0 -13118600000.0 -12580800000.0 -14183400000.0 -13027900000.0 -12982000000.0 -13400400000.0 -13548800000.0 -13036700000.0 -14271900000.0 -13825700000.0 -13507400000.0 -13537100000.0 -12553500000.0 -12818600000.0 -13163000000.0 -12570000000.0 -13002300000.0 -15213500000.0 -12992200000.0 -13160100000.0 -12706300000.0 -12659200000.0 -12549700000.0 -12549900000.0 -12557900000.0 -12629100000.0 -12591800000.0 -12559500000.0 -12549700000.0 -12648100000.0 -12681000000.0 -12555900000.0 -12550000000.0 -12549700000.0 -12554400000.0 -12549700000.0 -12714300000.0 -13006300000.0 -12966900000.0 -12948200000.0 -12862600000.0 -12818500000.0 -13019200000.0 -15670700000.0 -13004300000.0 -13622700000.0 -13332600000.0 -16187700000.0 -14545300000.0 -14162100000.0 -15231700000.0 -12607400000.0 -18526500000.0 -16754000000.0 -12588500000.0 -18073300000.0 -19596700000.0 -22747700000.0 -26079200000.0 -12761900000.0 -15607900000.0 -40318900000.0 -22785600000.0 -15403200000.0 -26023000000.0 -19435900000.0 -35696100000.0 -13062500000.0 -15680400000.0 -41370500000.0 -12563700000.0 -23962400000.0 -29037600000.0 -36181700000.0 -22765300000.0 -26943400000.0 -18084300000.0 -20272000000.0 -23405400000.0 -16862800000.0 -14594600000.0 -12626200000.0 -12549700000.0 -14191100000.0 -14506200000.0 -15108400000.0 -15372300000.0 -15467900000.0 -13864600000.0 -16040000000.0 -14354400000.0 -12945600000.0 -12770800000.0 -12550100000.0 -12549700000.0 -13510900000.0 -12806200000.0 -12896600000.0 -12893500000.0 -13004400000.0 -14325600000.0 -12954600000.0 -12963800000.0 -13021600000.0 -12771900000.0 -12975800000.0 -13421900000.0 -12661800000.0 -12640600000.0 -13030800000.0 -12577600000.0 -14088700000.0 -13758200000.0 -13373300000.0 -13095600000.0 -12595200000.0 -12573600000.0 -12612600000.0 -12549700000.0 -12550700000.0 -12558000000.0 -12603500000.0 -12574100000.0 -12549700000.0 -12549700000.0 -12549700000.0 -12615500000.0 -12551800000.0 -12549700000.0 -12549700000.0 -12555700000.0 -12570400000.0 -12702400000.0 -12601900000.0 -12601000000.0 -12556000000.0 -12618600000.0 -12614100000.0 -12705700000.0 -12687900000.0 -12888600000.0 -13010900000.0 -13001100000.0 -12925900000.0 -12665900000.0 -13590000000.0 -13956600000.0 -13046200000.0 -14094400000.0 -14495500000.0 -15045300000.0 -15305800000.0 -15697400000.0 -15672900000.0 -16595900000.0 -13676000000.0 -21035700000.0 -23442000000.0 -20477300000.0 -23437400000.0 -24403400000.0 -28043200000.0 -30557100000.0 -25975900000.0 -29156400000.0 -35283700000.0 -40001000000.0 -45816800000.0 -34166300000.0 -27369600000.0 -29925400000.0 -20997500000.0 -16632000000.0 -17131600000.0 -25346400000.0 -20120800000.0 -18286800000.0 -14578100000.0 -13032500000.0 -13077100000.0 -12909900000.0 -13986600000.0 -12615900000.0 -12878600000.0 -12714100000.0 -12973900000.0 -13910700000.0 -14095200000.0 -12964900000.0 -13602100000.0 -12881700000.0 -13104800000.0 -12875800000.0 -12784900000.0 -12726300000.0 -13260100000.0 -12552600000.0 -12609100000.0 -12564700000.0 -12596000000.0 -13572800000.0 -12610800000.0 -12576100000.0 -12955000000.0 -12549700000.0 -12640400000.0 -13724100000.0 -13505300000.0 -13951800000.0 -14184700000.0 -13459200000.0 -12755200000.0 -12916900000.0 -12581700000.0 -12561300000.0 -12549700000.0 -12568300000.0 -12549700000.0 -12550000000.0 -12551700000.0 -12568600000.0 -12557700000.0 -12549700000.0 -12549700000.0 -12549700000.0 -12573800000.0 -12549700000.0 -12549700000.0 -12549700000.0 -12551000000.0 -12560800000.0 -12651200000.0 -12620000000.0 -12622700000.0 -12565800000.0 -12575500000.0 -12587600000.0 -12690400000.0 -12597100000.0 -12644000000.0 -12856600000.0 -12741900000.0 -12660400000.0 -12980300000.0 -12638300000.0 -12799800000.0 -13019900000.0 -13375700000.0 -13509300000.0 -12892800000.0 -13416300000.0 -15608000000.0 -18484300000.0 -29051600000.0 -12624500000.0 -17311600000.0 -26415000000.0 -16408800000.0 -18091400000.0 -20391200000.0 -29086900000.0 -19420800000.0 -22551900000.0 -33952700000.0 -13931800000.0 -17813000000.0 -16775000000.0 -16538400000.0 -33696900000.0 -12985700000.0 -14488800000.0 -13652100000.0 -14371400000.0 -14174000000.0 -14101300000.0 -12679900000.0 -12585700000.0 -12571400000.0 -12583900000.0 -12682600000.0 -12699200000.0 -12621000000.0 -12585100000.0 -13150300000.0 -12997200000.0 -12549700000.0 -12651900000.0 -12626700000.0 -12630000000.0 -12749500000.0 -12729100000.0 -12711000000.0 -12763300000.0 -12858400000.0 -12551200000.0 -12938700000.0 -12863000000.0 -12585400000.0 -12679200000.0 -12596200000.0 -12724700000.0 -12625500000.0 -12597700000.0 -12735300000.0 -12610300000.0 -12583200000.0 -13230000000.0 -13182500000.0 -12902400000.0 -15275900000.0 -15465700000.0 -14478500000.0 -19004000000.0 -20886000000.0 -28373600000.0 -22128000000.0 -25726700000.0 -22038600000.0 -19674500000.0 -21279400000.0 -38057000000.0 -12601100000.0 -20537300000.0 -20048300000.0 -32534800000.0 -19190100000.0 -16709600000.0 -17521200000.0 -17303000000.0 -31197600000.0 -12986300000.0 -15479600000.0 -13931800000.0 -21281800000.0 -25384900000.0 -15104000000.0 -16505100000.0 -13017600000.0 -37674300000.0 -21696600000.0 -25024800000.0 -12718800000.0 -20413500000.0 -17718800000.0 -15310500000.0 -56034500000.0 -29941400000.0 -36369900000.0 -27196400000.0 -19538200000.0 -17753600000.0 -30446600000.0 -13925000000.0 -16112300000.0 -17925100000.0 -19482900000.0 -19714900000.0 -27402100000.0 -23289000000.0 -14760600000.0 -28515400000.0 -37128900000.0 -53253500000.0 -20589700000.0 -27781200000.0 -22560400000.0 -15906900000.0 -12549700000.0 -17220000000.0 -35458900000.0 -13240800000.0 -13065300000.0 -13470700000.0 -12549700000.0 -16052300000.0 -15084900000.0 -18500400000.0 -19611000000.0 -31000400000.0 -24023100000.0 -12652100000.0 -22996900000.0 -13927700000.0 -13531800000.0 -13805400000.0 -49918100000.0 -21316200000.0 -12671400000.0 -15067500000.0 -12549700000.0 -15963000000.0 -20029700000.0 -18332400000.0 -30765300000.0 -13771300000.0 -13071200000.0 -13142500000.0 -12549700000.0 -13550300000.0 -18769600000.0 -16537800000.0 -27405400000.0 -15241000000.0 -26039300000.0 -20641500000.0 -20526200000.0 -17294600000.0 -19489200000.0 -29176300000.0 -16692200000.0 -26207300000.0 -27475400000.0 -15622200000.0 -13442500000.0 -12549700000.0 -12549700000.0 -12549700000.0 -12549700000.0 -12549700000.0 -12549700000.0 -13391000000.0 -16738500000.0 -15328000000.0 -21311200000.0 -16453700000.0 -22608800000.0 -20727000000.0 -16459300000.0 -23189900000.0 -22750900000.0 -16887100000.0 -52568000000.0 -24549400000.0 -20074600000.0 -17987700000.0 -27181300000.0 -14889300000.0 -33732200000.0 -20518800000.0 -14410100000.0 -13405000000.0 -12549700000.0 -12549700000.0 -12549700000.0 -12549700000.0 -12549700000.0 -12549700000.0 -12549700000.0 -12549700000.0 -12549700000.0 -12549700000.0 -12549700000.0 -12549700000.0 -12549700000.0 -12549700000.0 -12549700000.0 -12549700000.0 -12549700000.0 -12549700000.0 -12549700000.0 -12549700000.0 -12549700000.0 -12549700000.0 -12549700000.0 -12549700000.0 -12549700000.0 -12549700000.0 -12549700000.0 -12549700000.0 -12549700000.0 -12549700000.0 -12549700000.0 -12549700000.0 -12549700000.0 -12549700000.0 -12551300000.0 -12549700000.0 -12549700000.0 -12809200000.0 -16508300000.0 -15166000000.0 -12699400000.0 -16429300000.0 -23139900000.0 -36400500000.0 -27924300000.0 -24366600000.0 -58968400000.0 -13628200000.0 -20403000000.0 -16406500000.0 -13392800000.0 -34853500000.0 -33074100000.0 -20255200000.0 -13121400000.0 -18473800000.0 -12770900000.0 -18131200000.0 -22891200000.0 -13635100000.0 -12725500000.0 -12549700000.0 -12549700000.0 -12549700000.0 -12549700000.0 -12549700000.0 -12549700000.0 -12549700000.0 -12549700000.0 -12549700000.0 -12549700000.0 -12549700000.0 -12549700000.0 -12549700000.0 -12549700000.0 -12549700000.0 -12549700000.0 -12549700000.0 -12549700000.0 -12549700000.0 -12549700000.0 -12549700000.0 -12549700000.0 -12549700000.0 -12549700000.0 -12549900000.0 -12554800000.0 -15110500000.0 -16827200000.0 -23767100000.0 -25864400000.0 -32550400000.0 -21015900000.0 -14221500000.0 -22313900000.0 -19518000000.0 -27691300000.0 -37691400000.0 -26379400000.0 -29249100000.0 -31792600000.0 -26094900000.0 -12620700000.0 -14929100000.0 -24886800000.0 -13007700000.0 -12737400000.0 -14376300000.0 -12845600000.0 -12565100000.0 -12549700000.0 -12549700000.0 -12549700000.0 -12549700000.0 -12549700000.0 -12549700000.0 -12549700000.0 -12549700000.0 -12549700000.0 -12549700000.0 -12549700000.0 -12549700000.0 -12549700000.0 -12549700000.0 -12549700000.0 -12549700000.0 -12549700000.0 -12549700000.0 -12549700000.0 -12549700000.0 -12549700000.0 -12549700000.0 -12549700000.0 -12549700000.0 -12549700000.0 -12549700000.0 -12549700000.0 -12549700000.0 -12549700000.0 -12549700000.0 -12549700000.0 -12549700000.0 -12549700000.0 -12549700000.0 -12549700000.0 -12549700000.0 -12549700000.0 -12549700000.0 -12549700000.0 -12549700000.0 -12549700000.0 -12549700000.0 -12549700000.0 -12672600000.0 -13195800000.0 -13465100000.0 -13932600000.0 -14462800000.0 -17744300000.0 -15222500000.0 -18478400000.0 -26495000000.0 -21172500000.0 -23280800000.0 -35804600000.0 -34636500000.0 -46648600000.0 -34216300000.0 -33482400000.0 -25904700000.0 -31757400000.0 -15196700000.0 -14932600000.0 -23145200000.0 -24356100000.0 -16090900000.0 -13429900000.0 -12616500000.0 -12698600000.0 -12583200000.0 -12549700000.0 -12549700000.0 -12549700000.0 -12549700000.0 -12549700000.0 -12549700000.0 -12549700000.0 -12549700000.0 -12549700000.0 -12549700000.0 -12549700000.0 -12549700000.0 -12549700000.0 -12549700000.0 -12549700000.0 -12549700000.0 -12549700000.0 -12549700000.0 -12549700000.0 -12549700000.0 -12549700000.0 -12549700000.0 -12549700000.0 -12549700000.0 -12549700000.0 -12549700000.0 -12549700000.0 -12549700000.0 -12549700000.0 -12549700000.0 -12549700000.0 -12549700000.0 -12549700000.0 -12549700000.0 -12549700000.0 -12549700000.0 -12549700000.0 -12549700000.0 -12549700000.0 -12549700000.0 -12549700000.0 -12549700000.0 -12549700000.0 -12557700000.0 -12577200000.0 -12839600000.0 -14382700000.0 -12910600000.0 -17899000000.0 -21678500000.0 -23770700000.0 -28477200000.0 -12692400000.0 -29187900000.0 -33254600000.0 -28701500000.0 -25670100000.0 -32678100000.0 -12549700000.0 -24574000000.0 -25772100000.0 -23779600000.0 -16768200000.0 -14188900000.0 -12752800000.0 -12607500000.0 -12552300000.0 -12551100000.0 -12550100000.0 -12549700000.0 -12549700000.0 -12549700000.0 -12549700000.0 -12549700000.0 -12549700000.0 -12549700000.0 -12549700000.0 -12549700000.0 -12549700000.0 -12549700000.0 -12549700000.0 -12549700000.0 -12549700000.0 -12549700000.0 -12549700000.0 -12549700000.0 -12549700000.0 -12549700000.0 -12549700000.0 -12549700000.0 -12549700000.0 -12549700000.0 -12549700000.0 -12549700000.0 -12549700000.0 -12549700000.0 -12549700000.0 -12549700000.0 -12549700000.0 -12549700000.0 -12549700000.0 -12549700000.0 -12549700000.0 -12549700000.0 -12549700000.0 -12549700000.0 -12549700000.0 -12549700000.0 -12549700000.0 -12549700000.0 -12607300000.0 -12987900000.0 -13311100000.0 -15582100000.0 -14018300000.0 -14829600000.0 -15119800000.0 -14010300000.0 -40168100000.0 -35822600000.0 -24983900000.0 -21750700000.0 -43851100000.0 -23361000000.0 -16651400000.0 -18061900000.0 -17694100000.0 -31518100000.0 -12807000000.0 -29926900000.0 -47983800000.0 -38107500000.0 -23412000000.0 -17316500000.0 -12819000000.0 -13013500000.0 -12549700000.0 -12582700000.0 -12564900000.0 -12556300000.0 -12549700000.0 -12549700000.0 -12549700000.0 -12549700000.0 -12549700000.0 -12549700000.0 -12549700000.0 -12549700000.0 -12549700000.0 -12549700000.0 -12549700000.0 -12549700000.0 -12549700000.0 -12549700000.0 -12549700000.0 -12549700000.0 -12549700000.0 -12549700000.0 -12549700000.0 -12549700000.0 -12549700000.0 -12549700000.0 -12549700000.0 -12549700000.0 -12549700000.0 -12549700000.0 -12549700000.0 -12549700000.0 -12549700000.0 -12549700000.0 -12549700000.0 -12549700000.0 -12549700000.0 -12549700000.0 -12549700000.0 -12549700000.0 -12549700000.0 -12549700000.0 -12549700000.0 -12549700000.0 -12549700000.0 -12549700000.0 -12549700000.0 -12549700000.0 -12549700000.0 -12549600000.0 -12549700000.0 -12549700000.0 -12549700000.0 -12549700000.0 -12549700000.0 -12549700000.0 -13843200000.0 -18779400000.0 -23585600000.0 -12759200000.0 -32978900000.0 -12549700000.0 -21031900000.0 -26332900000.0 -32264500000.0 -40060500000.0 -17188800000.0 -29425400000.0 -16567700000.0 -23428900000.0 -26364100000.0 -24038800000.0 -12947800000.0 -56101500000.0 -22878300000.0 -13850400000.0 -12835700000.0 -12857700000.0 -13326000000.0 -12623100000.0 -12549700000.0 -12549700000.0 -12549700000.0 -12549700000.0 -12549700000.0 -12549700000.0 -12549700000.0 -12549700000.0 -12549700000.0 -12549700000.0 -12549700000.0 -12549700000.0 -12549700000.0 -12549700000.0 -12549700000.0 -12549700000.0 -12549700000.0 -12549700000.0 -12549700000.0 -12549700000.0 -12549700000.0 -12549700000.0 -12549700000.0 -12549700000.0 -12549700000.0 -12549700000.0 -12549700000.0 -12549700000.0 -12549700000.0 -12549700000.0 -12549700000.0 -12549700000.0 -12549700000.0 -12549700000.0 -12549700000.0 -12549700000.0 -12549700000.0 -12549700000.0 -12549700000.0 -13392600000.0 -35955800000.0 -13599200000.0 -18016500000.0 -16911800000.0 -21304000000.0 -17538100000.0 -25415500000.0 -14162300000.0 -28110400000.0 -28589800000.0 -17229400000.0 -18933600000.0 -33358800000.0 -51659100000.0 -12549700000.0 -27715000000.0 -14544400000.0 -13702500000.0 -12549700000.0 -12549700000.0 -12549700000.0 -12549700000.0 -12549700000.0 -12549700000.0 -12549700000.0 -12549700000.0 -12549700000.0 -12549700000.0 -12549700000.0 -12549700000.0 -12549700000.0 -12549700000.0 -12549700000.0 -12549700000.0 -12549700000.0 -12549700000.0 -12549700000.0 -12549700000.0 -12549700000.0 -12549700000.0 -12549700000.0 -12549700000.0 -12549700000.0 -12549700000.0 -12549700000.0 -12549700000.0 -12549700000.0 -12549700000.0 -12549700000.0 -12549700000.0 -12549700000.0 -12549700000.0 -12549700000.0 -12549700000.0 -12549700000.0 -12549700000.0 -12549700000.0 -12549700000.0 -12549700000.0 -12549700000.0 -12549700000.0 -14169900000.0 -24013100000.0 -29940600000.0 -21232600000.0 -17073000000.0 -14196200000.0 -17683700000.0 -12762400000.0 -12569900000.0 -24053300000.0 -29953800000.0 -22829300000.0 -24747700000.0 -30215300000.0 -16035800000.0 -46191500000.0 -54134500000.0 -12549700000.0 -13912500000.0 -28265700000.0 -15066900000.0 -12549700000.0 -12549700000.0 -12549700000.0 -12549700000.0 -12549700000.0 -12549700000.0 -12549700000.0 -12549700000.0 -12549700000.0 -12549700000.0 -12549700000.0 -12549700000.0 -12549700000.0 -12549700000.0 -12549700000.0 -12549700000.0 -12549700000.0 -12549700000.0 -12549700000.0 -12549700000.0 -12549700000.0 -12549700000.0 -12549700000.0 -12549700000.0 -12549700000.0 -12549700000.0 -12549700000.0 -12549700000.0 -12549700000.0 -12549700000.0 -12549700000.0 -12549700000.0 -12549700000.0 -12549700000.0 -12549700000.0 -12549700000.0 -12549700000.0 -12549700000.0 -14338300000.0 -21582400000.0 -37437000000.0 -17609100000.0 -13028800000.0 -19955000000.0 -21016200000.0 -25608100000.0 -40988800000.0 -20929100000.0 -65304600000.0 -63045400000.0 -47969400000.0 -26947200000.0 -34037300000.0 -14695600000.0 -12549700000.0 -12549700000.0 -12549700000.0 -12549700000.0 -12549700000.0 -12549700000.0 -12549700000.0 -12549700000.0 -12549700000.0 -12549700000.0 -12549700000.0 -12549700000.0 -12337600000.0 -12549700000.0 -12549700000.0 -12549700000.0 -12549700000.0 -12549700000.0 -12549700000.0 -12549700000.0 -12549700000.0 -12549700000.0 -12549700000.0 -12549700000.0 -12549700000.0 -12549700000.0 -12549700000.0 -12549700000.0 -12549700000.0 -12549700000.0 -12549700000.0 -12549700000.0 -12549700000.0 -12549700000.0 -12549700000.0 -12549700000.0 -12549700000.0 -12549700000.0 -12549700000.0 -12549700000.0 -12549700000.0 -12549700000.0 -14287300000.0 -12549700000.0 -12549700000.0 -13846600000.0 -23764300000.0 -38339100000.0 -13606100000.0 -13874800000.0 -16489300000.0 -18562000000.0 -26979100000.0 -22929800000.0 -47048400000.0 -25232800000.0 -37419000000.0 -48288300000.0 -46433900000.0 -50436800000.0 -32075900000.0 -23517800000.0 -23404300000.0 -33156300000.0 -28867800000.0 -16232100000.0 -14158800000.0 -13373400000.0 -13110600000.0 -12549700000.0 -12549700000.0 -12549700000.0 -12549700000.0 -12549700000.0 -12549700000.0 -12549700000.0 -12549700000.0 -12549700000.0 -12549700000.0 -12549700000.0 -12549700000.0 -12549700000.0 -12549700000.0 -12549700000.0 -12549700000.0 -12549700000.0 -12549700000.0 -12549700000.0 -12549700000.0 -12549700000.0 -12549700000.0 -12549700000.0 -12549700000.0 -12549700000.0 -12549600000.0 -12539400000.0 -12547600000.0 -13874100000.0 -12835300000.0 -14290800000.0 -26609400000.0 -38059800000.0 -15486900000.0 -12706500000.0 -18446100000.0 -19297700000.0 -32745900000.0 -27211200000.0 -23543800000.0 -22839800000.0 -33422100000.0 -34518800000.0 -55327500000.0 -35479100000.0 -71965000000.0 -39330700000.0 -24581500000.0 -17228000000.0 -27074100000.0 -13864600000.0 -12549700000.0 -12549700000.0 -283440000000.0 -44751000000.0 -22318900000.0 -14836500000.0 -12549700000.0 -12549700000.0 -12549700000.0 -12549700000.0 -12549700000.0 -3.86619e+12 -3.58831e+12 -5.56298e+12 -5.45481e+12 -6.3274e+12 -2.17256e+12 -4.35223e+12 -3.89363e+12 -4.47562e+12 -3.81461e+12 -3.48849e+12 -4.02747e+12 -5.82496e+12 -4.85946e+12 -3.45241e+12 -3.669e+12 -4.53237e+12 -2.52093e+12 -4.87945e+12 -6.77891e+12 -2.75585e+12 -2.6748e+12 -2.40874e+12 -5.24481e+12 -6.35937e+12 -4.11954e+12 -4.92544e+12 -5.4327e+12 -5.49769e+12 -5.66546e+12 -12549700000.0 -2.83751e+12 -4.21549e+12 -4.11925e+12 -5.49243e+12 -4.66168e+12 -4.0711e+12 -3.77473e+12 -4.70891e+12 -4.35173e+12 -4.25679e+12 -3.36128e+12 -12549500000.0 -311688000000.0 -3.49704e+12 -3.46502e+12 -12552000000.0 -10277800000.0 -1.80583e+12 -12550000000.0 -2.80799e+12 -4.48701e+12 -4.92492e+12 -4.24104e+12 -6.04089e+12 -3.76584e+12 -12549700000.0 -60613400000.0 -41583600000.0 -42318200000.0 -14897800000.0 -43925200000.0 -44087700000.0 -45977600000.0 -57733800000.0 -38465200000.0 -13144000000.0 -43121800000.0 -47838400000.0 -19562300000.0 -59083400000.0 -24426100000.0 -52503800000.0 -58403600000.0 -46903000000.0 -31543800000.0 -40760500000.0 -20303400000.0 -23753400000.0 -17830800000.0 -19329900000.0 -13832300000.0 -21404200000.0 -3.94131e+12 -4.2329e+12 -5.36176e+12 -4.03228e+12 -3.50664e+12 -1.88919e+12 -5.22947e+12 -2.6129e+12 -4.96881e+12 -5.14155e+12 -7.17325e+12 -5.55422e+12 -349736000000.0 -693858000000.0 -3.28473e+12 -12549700000.0 -5.03266e+12 -48616900000.0 -172174000000.0 -3.72277e+12 -1.93206e+12 -3.75037e+12 -242774000000.0 -2.61228e+12 -5.9961e+12 -6.17381e+12 -4.77796e+12 -6.43352e+12 -5.10146e+12 -4.46687e+12 -4.47219e+12 -3.63092e+12 -4.42733e+12 -6.02438e+12 -5.35498e+12 -4.18587e+12 -5.42266e+12 -3.9205e+12 -691949000000.0 -2.32675e+12 -291800000000.0 -5.61151e+12 -5.00588e+12 -6.35391e+12 -4.31875e+12 -2.64e+12 -3.6678e+12 -5.41694e+12 -6.94751e+12 -4.14089e+12 -4.85211e+12 -288601000000.0 -5.80459e+12 -4.81416e+12 -3.18897e+12 -3.44437e+12 -3.69946e+12 -6.75135e+12 -6.05473e+12 -5.70875e+12 -7.71451e+12 -6.1015e+12 -6.26785e+12 -5.74628e+12 -4.85118e+12 -4.86031e+12 -5.48963e+12 -3.92943e+12 -5.18129e+12 -5.2235e+12 -4.36529e+12 -2.99817e+12 -7.27424e+12 -9.16885e+12 -4.65241e+12 -4.53931e+12 -7.28997e+12 -5.80358e+12 -4.85599e+12 -7.58169e+12 -7.49384e+12 -5.01948e+12 -8.99706e+12 -1.11194e+13 -5.01396e+12 -5.30625e+12 -3.9842e+12 -6.24429e+12 -6.55663e+12 -4.76579e+12 -5.32491e+12 -7.73635e+12 -7.26372e+12 -8.6611e+12 -8.27733e+12 -8.10252e+12 -5.01199e+12 -5.37956e+12 -5.80132e+12 -7.022e+12 -5.9866e+12 -6.86065e+12 -5.22987e+12 -6.42917e+12 -8.81887e+12 -6.72982e+12 -8.94139e+12 -8.61836e+12 -7.7912e+12 -3.80088e+12 -7.51926e+12 -3.65273e+12 -4.60668e+12 -7.19323e+12 -9.3328e+12 -5.75115e+12 -6.83948e+12 -4.97173e+12 -7.17909e+12 -5.26924e+12 -4.60263e+12 -4.45699e+12 -4.83477e+12 -4.21066e+12 -8.68707e+12 -4.73332e+12 -4.14908e+12 -4.65501e+12 -7.0797e+12 -5.84429e+12 -6.49794e+12 -7.65385e+12 -3.7662e+12 -4.11992e+12 -3.43837e+12 -2.79472e+12 -3.90488e+12 -12919200000.0 -12680200000.0 -85545600000.0 -19892100000.0 -23976900000.0 -20040200000.0 -23203700000.0 -30494900000.0 -44636400000.0 -57976200000.0 -52535500000.0 -16647400000.0 -13519000000.0 -53347000000.0 -15130500000.0 -36959400000.0 -14377000000.0 -14730000000.0 -14085700000.0 -3.97156e+12 -7.34591e+12 -5.89304e+12 -4.03387e+12 -4.6387e+12 -6.28042e+12 -6.28631e+12 -3.86282e+12 -1.00274e+13 -7.9401e+12 -6.05059e+12 -4.59639e+12 -4.10945e+12 -7.64473e+12 -7.21838e+12 -4.26028e+12 -3.92458e+12 -5.25632e+12 -4.3531e+12 -8.92882e+12 -1.0261e+13 -5.16021e+12 -6.05494e+12 -5.32301e+12 -7.11153e+12 -6.07196e+12 -6.03648e+12 -5.93972e+12 -7.52029e+12 -7.16653e+12 -3.71792e+12 -5.37438e+12 -6.13559e+12 -8.25656e+12 -6.4785e+12 -8.97454e+12 -7.17123e+12 -6.10797e+12 -5.37309e+12 -1.00325e+13 -3.18762e+12 -5.96172e+12 -7.45876e+12 -5.82611e+12 -6.38789e+12 -4.71501e+12 -6.87623e+12 -6.3975e+12 -6.93098e+12 -8.20057e+12 -6.74576e+12 -6.39828e+12 -7.56848e+12 -5.85597e+12 -6.78231e+12 -4.61916e+12 -6.69487e+12 -4.17579e+12 -7.69824e+12 -6.41089e+12 -5.28674e+12 -7.0568e+12 -8.73323e+12 -8.45995e+12 -8.10517e+12 -6.64188e+12 -7.41847e+12 -4.36194e+12 -5.68754e+12 -5.69963e+12 -5.7053e+12 -5.49641e+12 -7.06253e+12 -6.96588e+12 -8.44416e+12 -5.73556e+12 -4.23356e+12 -3.45185e+12 -4.44892e+12 -2.67113e+12 -5.25918e+12 -8.43675e+12 -6.04321e+12 -7.6796e+12 -7.97212e+12 -1.03814e+13 -4.08114e+12 -6.96571e+12 -5.31177e+12 -4.63578e+12 -7.06489e+12 -9.14662e+12 -5.47896e+12 -4.49966e+12 -3.57399e+12 -2.58814e+12 -5.94001e+12 -5.88017e+12 -5.7803e+12 -4.07676e+12 -7.53615e+12 -2.49408e+12 -7.18107e+12 -6.24165e+12 -5.81295e+12 -9.03391e+12 -8.91264e+12 -5.37066e+12 -6.11341e+12 -5.63255e+12 -6.75823e+12 -8.77633e+12 -5.17262e+12 -6.20119e+12 -7.18624e+12 -6.70617e+12 -6.30163e+12 -7.90401e+12 -4.36254e+12 -7.19666e+12 -1.07619e+13 -5.6237e+12 -4.03719e+12 -5.03792e+12 -3.41065e+12 -7.52091e+12 -5.58051e+12 -6.19211e+12 -7.67171e+12 -7.04159e+12 -6.58008e+12 -5.64972e+12 -4.04202e+12 -2.93029e+12 -4.63997e+12 -5.30211e+12 -6.40915e+12 -5.82567e+12 -1.01668e+13 -3.31911e+12 -4.28989e+12 -6.28824e+12 -6.07824e+12 -6.67517e+12 -3.00534e+12 -3.52396e+12 -4.56957e+12 -4.56316e+12 -2.53638e+12 -114010000000.0 -26582600000.0 -22616500000.0 -24134200000.0 -20475400000.0 -22005800000.0 -27153700000.0 -21082600000.0 -18757200000.0 -15914800000.0 -21794400000.0 -21849000000.0 -62861700000.0 -15168800000.0 -32793600000.0 -20821700000.0 -19171400000.0 -14486600000.0 -5.387e+12 -5.24065e+12 -8.13826e+12 -7.59341e+12 -5.51457e+12 -1.01141e+13 -3.24765e+12 -2.43236e+12 -4.83098e+12 -6.83207e+12 -7.2825e+12 -5.28321e+12 -8.96524e+12 -6.19161e+12 -9.78143e+12 -9.55122e+12 -1.0022e+13 -7.00001e+12 -7.93859e+12 -4.76893e+12 -9.8683e+12 -5.12767e+12 -6.39136e+12 -7.42311e+12 -6.70767e+12 -4.54578e+12 -1.01396e+13 -8.73506e+12 -7.89318e+12 -8.00394e+12 -4.29121e+12 -4.69221e+12 -7.56051e+12 -5.8121e+12 -7.67509e+12 -6.45461e+12 -5.73747e+12 -6.85495e+12 -4.87158e+12 -5.21112e+12 -5.64402e+12 -6.14999e+12 -1.543e+12 -5.33898e+12 -2.73255e+12 -5.89923e+12 -4.06588e+12 -5.14924e+12 -6.99545e+12 -9.36456e+12 -5.61003e+12 -6.33769e+12 -4.99653e+12 -4.10037e+12 -3.99694e+12 -3.96752e+12 -5.63054e+12 -6.84978e+12 -3.91337e+12 -7.76539e+12 -9.90246e+12 -5.04383e+12 -5.02135e+12 -7.65993e+12 -7.69984e+12 -5.2674e+12 -4.98125e+12 -6.46328e+12 -7.14837e+12 -6.74631e+12 -5.08087e+12 -5.76707e+12 -5.79355e+12 -5.00591e+12 -6.16683e+12 -7.1689e+12 -4.44805e+12 -2.30764e+12 -6.61774e+12 -4.81288e+12 -1.72907e+12 -6.73077e+12 -6.79308e+12 -5.93611e+12 -6.05916e+12 -4.57027e+12 -5.82098e+12 -6.38591e+12 -5.6619e+12 -6.17273e+12 -5.14036e+12 -6.61357e+12 -6.84216e+12 -6.44482e+12 -4.22198e+12 -5.06192e+12 -3.97062e+12 -4.7946e+12 -8.40325e+12 -7.98512e+12 -7.30154e+12 -6.28764e+12 -6.11716e+12 -6.58636e+12 -5.60134e+12 -8.2989e+12 -6.09446e+12 -4.71883e+12 -7.20017e+12 -2.74264e+12 -6.07128e+12 -2.86423e+12 -6.23794e+12 -8.23726e+12 -9.36876e+12 -4.74793e+12 -5.16255e+12 -4.56665e+12 -5.62181e+12 -8.49809e+12 -3.09207e+12 -3.89515e+12 -4.77893e+12 -4.79261e+12 -6.52942e+12 -3.6426e+12 -5.23419e+12 -8.02798e+12 -6.38658e+12 -4.02168e+12 -6.16675e+12 -4.9278e+12 -54109600000.0 -28620800000.0 -14711000000.0 -13249700000.0 -13462800000.0 -16213000000.0 -18243000000.0 -16148200000.0 -15521900000.0 -22334300000.0 -12831600000.0 -35594300000.0 -27837000000.0 -17202900000.0 -29940000000.0 -44538200000.0 -59152100000.0 -17774700000.0 -13957200000.0 -257637000000.0 -4.61556e+12 -3.92674e+12 -4.47698e+12 -8.69935e+12 -3.03944e+12 -2.14427e+12 -4.3183e+12 -4.63529e+12 -6.49964e+12 -1.06296e+13 -7.66214e+12 -6.78666e+12 -6.05275e+12 -2.7728e+12 -4.35937e+12 -4.99944e+12 -5.87366e+12 -3.82815e+12 -4.1042e+12 -7.42398e+12 -6.57111e+12 -5.22732e+12 -4.70509e+12 -5.15461e+12 -3.47333e+12 -9.65432e+12 -6.08704e+12 -6.28998e+12 -3.60225e+12 -8.94962e+12 -9.33746e+12 -2.82672e+12 -2.97377e+12 -4.65111e+12 -7.20233e+12 -4.29371e+12 -5.65385e+12 -7.27692e+12 -4.60345e+12 -6.10732e+12 -5.70049e+12 -5.95104e+12 -5.37157e+12 -5.20844e+12 -6.94287e+12 -7.74301e+12 -5.51279e+12 -7.90947e+12 -3.76106e+12 -3.86067e+12 -6.05774e+12 -5.39375e+12 -5.47971e+12 -3.42937e+12 -4.11918e+12 -4.02504e+12 -4.38554e+12 -6.25468e+12 -4.19877e+12 -3.12891e+12 -8.52975e+12 -4.5636e+12 -4.20183e+12 -4.21469e+12 -3.11756e+12 -2.05637e+12 -6.40438e+12 -3.69893e+12 -4.29638e+12 -8.49743e+12 -7.05673e+12 -6.6492e+12 -9.90871e+12 -5.05989e+12 -3.78881e+12 -4.66876e+12 -4.32138e+12 -9.61744e+12 -5.11788e+12 -5.52495e+12 -5.14352e+12 -4.7508e+12 -5.10853e+12 -4.83288e+12 -5.10432e+12 -3.09009e+12 -6.80456e+12 -4.56902e+12 -3.9765e+12 -6.93616e+12 -8.03192e+12 -6.47305e+12 -7.62084e+12 -3.91251e+12 -4.4796e+12 -4.20885e+12 -3.28888e+12 -2.15877e+12 -5.72465e+12 -4.16852e+12 -4.03963e+12 -4.94558e+12 -5.4395e+12 -3.8254e+12 -7.60794e+12 -6.46729e+12 -8.68424e+12 -5.29427e+12 -3.71316e+12 -4.71838e+12 -6.26289e+12 -3.29717e+12 -5.14648e+12 -7.26711e+12 -5.73702e+12 -4.34934e+12 -2.64888e+12 -5.87277e+12 -5.49079e+12 -5.37486e+12 -6.19584e+12 -4.9914e+12 -5.58054e+12 -3.49808e+12 -1.96026e+12 -12549700000.0 -69578800000.0 -15881000000.0 -12550000000.0 -12549700000.0 -17064800000.0 -17485400000.0 -12549700000.0 -19792800000.0 -19867300000.0 -15068800000.0 -35444800000.0 -25702300000.0 -30087100000.0 -12981200000.0 -23277800000.0 -53253400000.0 -66822400000.0 -4.7765e+12 -3.79832e+12 -4.26376e+12 -3.26851e+12 -5.52224e+12 -5.91525e+12 -4.77968e+12 -7.46627e+12 -8.15687e+12 -4.81046e+12 -6.18791e+12 -2.33504e+12 -3.79056e+12 -4.89013e+12 -5.05771e+12 -3.63846e+12 -5.08195e+12 -6.21295e+12 -6.66167e+12 -3.9996e+12 -8.79558e+12 -3.46285e+12 -5.59863e+12 -2.70603e+12 -2.11566e+12 -3.53832e+12 -3.35854e+12 -7.56541e+12 -2.67532e+12 -2.60969e+12 -4.48969e+12 -4.28774e+12 -4.60162e+12 -2.44004e+12 -6.53396e+12 -7.44062e+12 -6.05567e+12 -6.62843e+12 -3.28949e+12 -2.79819e+12 -3.8145e+12 -3.16621e+12 -5.65605e+12 -5.95791e+12 -5.534e+12 -4.23762e+12 -5.39537e+12 -5.62302e+12 -5.76753e+12 -4.74492e+12 -3.92865e+12 -5.14303e+12 -4.18905e+12 -4.16538e+12 -5.05609e+12 -4.18801e+12 -4.07304e+12 -5.09816e+12 -6.90962e+12 -3.02923e+12 -5.33433e+12 -6.03225e+12 -7.12443e+12 -7.62593e+12 -2.00757e+12 -6.02589e+12 -5.679e+12 -4.1229e+12 -4.78014e+12 -2.77525e+12 -4.4408e+12 -9.69899e+12 -4.28125e+12 -6.48017e+12 -7.74503e+12 -4.12256e+12 -625645000000.0 -5.28784e+12 -4.04581e+12 -5.84287e+12 -4.12517e+12 -4.88428e+12 -4.94953e+12 -4.22586e+12 -4.47147e+12 -3.92016e+12 -4.05434e+12 -1.52207e+12 -5.66943e+12 -5.87588e+12 -4.33092e+12 -2.58887e+12 -3.94762e+12 -6.1009e+12 -5.28783e+12 -5.69254e+12 -4.93659e+12 -7.03091e+12 -7.01956e+12 -3.82896e+12 -6.61031e+12 -2.58118e+12 -5.74106e+12 -5.98905e+12 -6.80136e+12 -3.1677e+12 -3.61281e+12 -5.01416e+12 -4.6173e+12 -5.42286e+12 -3.58044e+12 -6.25622e+12 -5.96468e+12 -7.00269e+12 -4.43555e+12 -4.339e+12 -3.30771e+12 -4.15387e+12 -4.32128e+12 -2.72626e+12 -5.22734e+12 -2.23195e+12 -1.88714e+12 -2.68511e+12 -28994200000.0 -69886200000.0 -53568400000.0 -34129200000.0 -25564600000.0 -16634500000.0 -18989100000.0 -16818900000.0 -14488600000.0 -19613600000.0 -36409900000.0 -35099500000.0 -13224000000.0 -13776900000.0 -27728200000.0 -13695600000.0 -17626200000.0 -18141900000.0 -14790900000.0 -13121200000.0 -61607400000.0 -48631200000.0 -5.07006e+12 -4.67916e+12 -6.26856e+12 -4.2266e+12 -4.06089e+12 -3.98928e+12 -3.3733e+12 -3.45624e+12 -3.96062e+12 -3.52764e+12 -5.77454e+12 -3.22714e+12 -3.59921e+12 -4.28838e+12 -5.12429e+12 -3.39199e+12 -4.60334e+12 -5.70734e+12 -3.28825e+12 -4.67827e+12 -2.49952e+12 -3.60996e+12 -3.85315e+12 -5.05676e+12 -4.68994e+12 -3.32011e+12 -2.83226e+12 -5.10994e+12 -2.89714e+12 -5.67519e+12 -3.72214e+12 -4.76497e+12 -2.96286e+12 -3.53118e+12 -5.84865e+12 -5.72127e+12 -5.62243e+12 -5.79577e+12 -6.94261e+12 -2.43425e+12 -4.10928e+12 -4.01253e+12 -5.77421e+12 -2.20189e+12 -2.70059e+12 -4.01701e+12 -3.79514e+12 -5.6486e+12 -4.46973e+12 -2.91193e+12 -2.77428e+12 -3.67515e+12 -5.35796e+12 -6.14765e+12 -4.63184e+12 -3.3745e+12 -4.07747e+12 -4.94184e+12 -2.45733e+12 -5.95533e+12 -5.89351e+12 -4.17573e+12 -5.54185e+12 -3.73828e+12 -4.52546e+12 -5.89042e+12 -5.17341e+12 -5.63362e+12 -5.72786e+12 -3.29316e+12 -5.30567e+12 -4.79989e+12 -2.15968e+12 -5.58468e+12 -2.45206e+12 -6.84217e+12 -5.34196e+12 -3.02547e+12 -1.92802e+12 -4.82526e+12 -4.53556e+12 -3.31028e+12 -3.67422e+12 -3.31701e+12 -2.87299e+12 -4.68911e+12 -8.23676e+12 -3.17725e+12 -3.5006e+12 -5.10537e+12 -3.04945e+12 -2.85386e+12 -4.80477e+12 -5.54301e+12 -4.07651e+12 -4.6496e+12 -6.31063e+12 -3.12991e+12 -7.03977e+12 -4.94042e+12 -836927000000.0 -2.76573e+12 -4.4488e+12 -4.71954e+12 -3.92818e+12 -4.15732e+12 -4.00682e+12 -5.86449e+12 -1.71156e+12 -17572200000.0 -31941800000.0 -16886600000.0 -24074200000.0 -15900400000.0 -16801900000.0 -18524900000.0 -22720200000.0 -23406300000.0 -25143300000.0 -13829100000.0 -14082000000.0 -21374000000.0 -21120900000.0 -25442400000.0 -21851600000.0 -23350800000.0 -12772200000.0 -92901400000.0 -146785000000.0 -4.50965e+12 -5.07595e+12 -3.10221e+12 -3.10502e+12 -5.31245e+12 -5.11132e+12 -2.59422e+12 -4.40346e+12 -3.90344e+12 -3.78963e+12 -6.27846e+12 -3.42674e+12 -2.79623e+12 -7.70243e+12 -2.39715e+12 -3.27961e+12 -4.73586e+12 -2.49442e+12 -4.32669e+12 -3.08814e+12 -3.06735e+12 -3.36885e+12 -2.30507e+12 -4.82631e+12 -3.37481e+12 -5.47975e+12 -1.73057e+12 -4.75113e+12 -5.54961e+12 -5.35359e+12 -4.41203e+12 -3.63159e+12 -6.37212e+12 -3.01051e+12 -2.24318e+12 -4.87297e+12 -4.37242e+12 -4.0865e+12 -4.359e+12 -2.49093e+12 -1.75594e+12 -3.35926e+12 -6.49628e+12 -3.82796e+12 -4.13641e+12 -6.11213e+12 -3.24117e+12 -2.66028e+12 -1.48413e+12 -4.91525e+12 -3.25683e+12 -5.08298e+12 -6.52077e+12 -2.95476e+12 -5.34632e+12 -3.74715e+12 -4.08696e+12 -2.74093e+12 -3.40217e+12 -2.90481e+12 -2.39665e+12 -2.32487e+12 -4.56836e+12 -3.90649e+12 -4.25303e+12 -2.25258e+12 -3.64361e+12 -1.90564e+12 -2.94872e+12 -2.9937e+12 -4.54155e+12 -2.54133e+12 -4.70279e+12 -4.11922e+12 -2.34277e+12 -3.76947e+12 -3.69326e+12 -2.56073e+12 -3.49353e+12 -4.72211e+12 -5.85218e+12 -3.97909e+12 -1.98651e+12 -2.39679e+12 -1.72608e+12 -3.80562e+12 -3.23611e+12 -3.40823e+12 -3.67583e+12 -3.10108e+12 -4.29358e+12 -2.16397e+12 -3.71156e+12 -2.30028e+12 -3.97536e+12 -1.80381e+12 -4.34469e+12 -2.43477e+12 -3.07176e+12 -5.92624e+12 -3.77651e+12 -2.28234e+12 -3.5312e+12 -3.92718e+12 -1.86731e+12 -2.53559e+12 -3.85239e+12 -2.82047e+12 -4.65628e+12 -3.71373e+12 -2.52007e+12 -3.76361e+12 -2.44655e+12 -3.49425e+12 -3.12478e+12 -4.98841e+12 -4.89696e+12 -4.37954e+12 -2.12161e+12 -2.77639e+12 -23278400000.0 -43579300000.0 -12547200000.0 -12532000000.0 -3.93123e+12 -3.03985e+12 -4.96494e+12 -1.68815e+12 -4.0097e+12 -3.47021e+12 -3.51459e+12 -1.48772e+12 -3.46097e+12 -2.3364e+12 -4.2282e+12 -2.73149e+12 -3.63917e+12 -5.89433e+12 -5.53805e+12 -5.71098e+12 -6.1442e+12 -3.8083e+12 -3.94341e+12 -3.23592e+12 -1.7548e+12 -2.65644e+12 -4.14135e+12 -3.41449e+12 -1.77826e+12 -2.74881e+12 -3.57913e+12 -687280000000.0 -3.50903e+12 -717392000000.0 -3.62947e+12 -1.35274e+12 -4.20459e+12 -2.93933e+12 -5.19204e+12 -3.39476e+12 -3.75685e+12 -2.24672e+12 -3.48517e+12 -3.38843e+12 -2.18634e+12 -2.51476e+12 -4.71704e+12 -3.67449e+12 -3.50494e+12 -3.35884e+12 -2.20128e+12 -3.38932e+12 -4.27093e+12 -1.97736e+12 -3.94628e+12 -3.64723e+12 -6.40328e+12 -3.2371e+12 -1.80793e+12 -2.08113e+12 -2.006e+12 -2.2966e+12 -2.82273e+12 -4.05033e+12 -2.83178e+12 -1.97928e+12 -1.66808e+12 -3.58438e+12 -4.29831e+12 -1.90052e+12 -2.38287e+12 -1.44341e+12 -2.75085e+12 -2.9523e+12 -2.7348e+12 -3.46874e+12 -4.12281e+12 -2.95093e+12 -2.87791e+12 -1.61934e+12 -2.89618e+12 -2.99463e+12 -2.74338e+12 -2.67107e+12 -3.51003e+12 -4.8454e+12 -1.77763e+12 -2.17101e+12 -4.14474e+12 -3.16325e+12 -2.27179e+12 -2.95188e+12 -2.63045e+12 -1.12973e+12 -2.58155e+12 -3.02653e+12 -2.08191e+12 -1.85918e+12 -2.7309e+12 -2.93485e+12 -1.50369e+12 -4.11395e+12 -2.8667e+12 -3.30286e+12 -3.19436e+12 -4.15209e+12 -1.93005e+12 -2.57177e+12 -2.73801e+12 -1.7201e+12 -3.13104e+12 -5.82642e+12 -3.16932e+12 -3.17158e+12 -4.2504e+12 -3.34254e+12 -4.41889e+12 -2.53221e+12 -2.57532e+12 -2.44778e+12 -2.30693e+12 -3.17818e+12 -4.98613e+12 -3.18788e+12 -1.59331e+12 -2.22498e+12 -2.14381e+12 -3.74898e+12 -1.6461e+12 -1.69151e+12 -2.52259e+12 -2.23966e+12 -4.19236e+12 -1.84347e+12 -2.92145e+12 -5.10699e+12 -2.46486e+12 -3.29173e+12 -4.00475e+12 -2.0487e+12 -2.10326e+12 -3.24282e+12 -1.4957e+12 -3.04653e+12 -3.07705e+12 -2.95676e+12 -3.54147e+12 -3.83852e+12 -1.8206e+12 -2.9761e+12 -3.55888e+12 -2.72161e+12 -2.62332e+12 -1.27871e+12 -2.84608e+12 -3.79583e+12 -3.79262e+12 -3.20251e+12 -976438000000.0 -2.3513e+12 -2.51123e+12 -1.86199e+12 -2.17768e+12 -148169000000.0 -2.66702e+12 -1.81437e+12 -2.23417e+12 -1.25777e+12 -3.3773e+12 -2.44768e+12 -2.05335e+12 -1.6982e+12 -1.8646e+12 -1.30499e+12 -1.26043e+12 -1.97994e+12 -2.82963e+12 -906299000000.0 -2.77601e+12 -2.07628e+12 -4.70386e+12 -3.04097e+12 -3.73593e+12 -1.22265e+12 -2.04279e+12 -2.95703e+12 -5.59671e+12 -2.16761e+12 -3.81811e+12 -2.86496e+12 -1.3548e+12 -2.29789e+12 -4.05795e+12 -3.4747e+12 -3.94709e+12 -4.7047e+12 -1.79378e+12 -2.49791e+12 -2.20853e+12 -2.08899e+12 -1.78358e+12 -2.0501e+12 -1.23029e+12 -1.72835e+12 -1.29188e+12 -3.78109e+12 -789585000000.0 -2.11788e+12 -3.76307e+12 -2.204e+12 -1.15805e+12 -3.30979e+12 -784955000000.0 -2.16847e+12 -1.61152e+12 -1.09468e+12 -3.59769e+12 -2.87001e+12 -1.90131e+12 -2.24492e+12 -2.96505e+12 -2.14376e+12 -1.53507e+12 -1.7824e+12 -1.61234e+12 -1.37729e+12 -2.63356e+12 -3.08478e+12 -1.80987e+12 -2.39763e+12 -2.21271e+12 -1.48387e+12 -2.84249e+12 -2.14613e+12 -1.27133e+12 -2.7031e+12 -3.50658e+12 -4.12214e+12 -2.23058e+12 -3.94759e+12 -2.82944e+12 -2.55907e+12 -1.29529e+12 -3.28097e+12 -1.73544e+12 -3.3494e+12 -2.71861e+12 -2.14605e+12 -2.75543e+12 -2.6982e+12 -3.6722e+12 -1.25733e+12 -1.93476e+12 -3.40016e+12 -3.03324e+12 -3.16895e+12 -2.04547e+12 -2.92837e+12 -1.8458e+12 -2.54278e+12 -1.83746e+12 -1.41755e+12 -2.32694e+12 -3.06173e+12 -1.63293e+12 -1.58053e+12 -2.03788e+12 -1.75686e+12 -1.0718e+12 -745518000000.0 -1.62623e+12 -1.26751e+12 -1.11304e+12 -2.09984e+12 -1.59586e+12 -1.27049e+12 -1.5547e+12 -1.57872e+12 -2.44561e+12 -2.34617e+12 -1.9706e+12 -1.55096e+12 -1.19726e+12 -1.33028e+12 -235410000000.0 -2.50351e+12 -2.16271e+12 -2.23555e+12 -1.74938e+12 -3.02403e+12 -1.40551e+12 -2.03633e+12 -1.80869e+12 -1.55116e+12 -2.18915e+12 -1.16648e+12 -2.51443e+12 -875294000000.0 -1.287e+12 -1.41328e+12 -1.30337e+12 -1.1549e+12 -1.28904e+12 -2.47647e+12 -2.56828e+12 -1.63812e+12 -1.19237e+12 -1.3847e+12 -1.95377e+12 -2.79982e+12 -1.16893e+12 -1.23777e+12 -1.60621e+12 -1.06552e+12 -1.25126e+12 -2.65386e+12 -1.74377e+12 -1.82016e+12 -550255000000.0 -1.3848e+12 -2.24947e+12 -1.60319e+12 -2.30456e+12 -3.03061e+12 -2.7575e+12 -2.0655e+12 -1.43454e+12 -1.8095e+12 -1.05369e+12 -1.78802e+12 -1.52018e+12 -1.29359e+12 -1.42681e+12 -1.82613e+12 -2.01019e+12 -1.11794e+12 -2.95838e+12 -2.43741e+12 -1.15955e+12 -2.6914e+12 -1.69907e+12 -1.69283e+12 -2.29272e+12 -1.23007e+12 -1.70176e+12 -1.97274e+12 -2.28433e+12 -1.81575e+12 -2.22485e+12 -2.67169e+12 -3.5442e+12 -1.27813e+12 -1.56747e+12 -1.84488e+12 -1.99732e+12 -1.59232e+12 -695917000000.0 -1.49811e+12 -921158000000.0 -1.06745e+12 -272308000000.0 -1.85895e+12 -414868000000.0 -1.08654e+12 -1.6599e+12 -1.89575e+12 -1.03447e+12 -709923000000.0 -1.05547e+12 -1.10315e+12 -1.36975e+12 -1.37762e+12 -1.22883e+12 -2.37961e+12 -1.35082e+12 -1.71034e+12 -1.08199e+12 -1.71798e+12 -1.16736e+12 -597636000000.0 -857627000000.0 -2.77812e+12 -1.32509e+12 -990577000000.0 -1.74683e+12 -1.72374e+12 -663277000000.0 -1.23828e+12 -1.21228e+12 -1.03968e+12 -1.45209e+12 -1.01781e+12 -2.14048e+12 -1.22259e+12 -807329000000.0 -732604000000.0 -914303000000.0 -445193000000.0 -264951000000.0 -775581000000.0 -2.21369e+12 -1.31248e+12 -1.59103e+12 -1.96759e+12 -381250000000.0 -1.06993e+12 -2.46711e+12 -381183000000.0 -1.77193e+12 -659748000000.0 -530039000000.0 -600940000000.0 -2.06588e+12 -1.03492e+12 -2.18843e+12 -1.77235e+12 -2.18502e+12 -1.01117e+12 -465827000000.0 -1.49783e+12 -801909000000.0 -1.42191e+12 -1.56028e+12 -1.42906e+12 -2.09019e+12 -1.97426e+12 -1.41147e+12 -1.47156e+12 -1.22292e+12 -744430000000.0 -905122000000.0 -1.08183e+12 -1.14886e+12 -60838100000.0 -1.56472e+12 -818578000000.0 -2.0553e+12 -826357000000.0 -1.35954e+12 -1.12949e+12 -573258000000.0 -1.11211e+12 -1.17101e+12 -1.89075e+12 -1.97096e+12 -1.35899e+12 -1.03549e+12 -1.91547e+12 -1.20783e+12 -1.40513e+12 -1.80984e+12 -1.16541e+12 -1.10144e+12 -818240000000.0 -885531000000.0 -195385000000.0 -83086800000.0 -1.02345e+12 -567153000000.0 -728819000000.0 -411687000000.0 -695774000000.0 -482125000000.0 -860230000000.0 -284635000000.0 -632558000000.0 -469834000000.0 -855770000000.0 -310466000000.0 -150663000000.0 -334542000000.0 -1.17461e+12 -515701000000.0 -89494700000.0 -205467000000.0 -934138000000.0 -1.24172e+12 -979807000000.0 -263362000000.0 -733696000000.0 -159034000000.0 -128193000000.0 -874950000000.0 -534899000000.0 -123480000000.0 -1.1672e+12 -478822000000.0 -615272000000.0 -1.01097e+12 -703173000000.0 -578335000000.0 -1.16135e+12 -953313000000.0 -407842000000.0 -189556000000.0 -357033000000.0 -316608000000.0 -161974000000.0 -226026000000.0 -428769000000.0 -257851000000.0 -1.47267e+12 -471950000000.0 -601437000000.0 -405167000000.0 -622839000000.0 -706331000000.0 -745487000000.0 -1.52519e+12 -565910000000.0 -343807000000.0 -297604000000.0 -682621000000.0 -1.09538e+12 -490755000000.0 -246006000000.0 -1.03662e+12 -176207000000.0 -197730000000.0 -414331000000.0 -288986000000.0 -273273000000.0 -713987000000.0 -215886000000.0 -221535000000.0 -251438000000.0 -661388000000.0 -386239000000.0 -334476000000.0 -781111000000.0 -350585000000.0 -195738000000.0 -803674000000.0 -451443000000.0 -430893000000.0 -573184000000.0 -298523000000.0 -499533000000.0 -523609000000.0 -268381000000.0 -480931000000.0 -697546000000.0 -1.08201e+12 -261964000000.0 -593907000000.0 -274089000000.0 -241684000000.0 -249843000000.0 -241753000000.0 -340576000000.0 -158931000000.0 -197523000000.0 -231574000000.0 -289299000000.0 -135163000000.0 -262149000000.0 -157374000000.0 -85203100000.0 -248187000000.0 -205519000000.0 -321853000000.0 -121196000000.0 -216500000000.0 -151409000000.0 