# vtk DataFile Version 2.0
Time step 25
ASCII
DATASET UNSTRUCTURED_GRID
POINTS 5000 float
2398.24 164388.0 0
8523.41 163766.0 0
12438.7 163598.0 0
16747.5 162917.0 0
22243.6 164558.0 0
27671.6 161303.0 0
33196.3 163988.0 0
38179.7 164571.0 0
42698.5 164718.0 0
47474.5 164630.0 0
52137.1 164724.0 0
57005.5 163565.0 0
62763.5 164639.0 0
67994.7 164773.0 0
72701.9 163908.0 0
77500.0 164652.0 0
82500.0 164642.0 0
87407.9 163941.0 0
92500.0 164680.0 0
97194.1 164701.0 0
101294.0 164618.0 0
105948.0 164012.0 0
111935.0 164490.0 0
117849.0 164672.0 0
123329.0 164749.0 0
128344.0 164869.0 0
133427.0 164118.0 0
138123.0 164802.0 0
142500.0 164723.0 0
147500.0 164657.0 0
152501.0 164626.0 0
157588.0 164256.0 0
162560.0 164412.0 0
167011.0 163956.0 0
171831.0 162839.0 0
177735.0 162876.0 0
182939.0 162061.0 0
187394.0 163915.0 0
196081.0 164240.0 0
201749.0 163599.0 0
207651.0 164362.0 0
212985.0 163701.0 0
218128.0 164783.0 0
222480.0 164796.0 0
225796.0 164033.0 0
230433.0 163902.0 0
241170.0 163601.0 0
252679.0 163585.0 0
259051.0 164062.0 0
268741.0 164062.0 0
273936.0 164357.0 0
278881.0 163003.0 0
286326.0 164643.0 0
297319.0 162969.0 0
303663.0 163760.0 0
312126.0 164177.0 0
317928.0 164806.0 0
323244.0 164703.0 0
332205.0 164569.0 0
337222.0 164278.0 0
345896.0 163827.0 0
355263.0 164739.0 0
361816.0 163372.0 0
372011.0 161398.0 0
367953.0 164714.0 0
377030.0 163371.0 0
382608.0 164241.0 0
388131.0 163537.0 0
394018.0 162854.0 0
399197.0 164528.0 0
403647.0 161787.0 0
408586.0 162996.0 0
412475.0 164645.0 0
417500.0 164685.0 0
422736.0 162801.0 0
427272.0 164509.0 0
432481.0 162316.0 0
437537.0 164663.0 0
442091.0 163606.0 0
446254.0 163184.0 0
450667.0 163955.0 0
455210.0 163901.0 0
460242.0 163750.0 0
465794.0 164129.0 0
471629.0 163387.0 0
477063.0 162190.0 0
485844.0 162117.0 0
491674.0 163658.0 0
497601.0 162151.0 0
2283.88 169418.0 0
6056.88 167089.0 0
11082.9 168114.0 0
17327.7 168819.0 0
28513.2 167655.0 0
34963.6 169262.0 0
40336.0 169581.0 0
44458.7 169924.0 0
48273.6 168626.0 0
52500.0 169684.0 0
57993.8 169007.0 0
62848.8 169739.0 0
67505.2 169411.0 0
72119.3 169028.0 0
77500.0 169810.0 0
82116.1 169456.0 0
87907.4 168698.0 0
92500.0 169819.0 0
97184.4 169454.0 0
102467.0 169353.0 0
108244.0 168603.0 0
112500.0 169756.0 0
117500.0 169837.0 0
122500.0 169760.0 0
127727.0 169304.0 0
132493.0 169654.0 0
137520.0 169668.0 0
142774.0 169146.0 0
146930.0 169494.0 0
151942.0 169372.0 0
156865.0 168306.0 0
161300.0 169128.0 0
166513.0 168628.0 0
172971.0 168408.0 0
178375.0 168289.0 0
183531.0 167130.0 0
188602.0 168361.0 0
192500.0 165075.0 0
193570.0 169220.0 0
198250.0 168585.0 0
203919.0 169219.0 0
213693.0 168252.0 0
209356.0 169435.0 0
217603.0 169853.0 0
222035.0 169626.0 0
226804.0 168268.0 0
232209.0 169323.0 0
235810.0 164896.0 0
243287.0 169979.0 0
246501.0 165603.0 0
248458.0 169678.0 0
257260.0 168700.0 0
263773.0 165147.0 0
262325.0 169324.0 0
267070.0 168907.0 0
271619.0 168219.0 0
277062.0 168622.0 0
282030.0 166335.0 0
287500.0 169734.0 0
291718.0 165101.0 0
292907.0 169593.0 0
298247.0 168480.0 0
303115.0 169430.0 0
307733.0 166328.0 0
307445.0 169621.0 0
312501.0 169928.0 0
317489.0 169682.0 0
322436.0 169172.0 0
327580.0 164970.0 0
327500.0 169714.0 0
332500.0 169786.0 0
341019.0 165489.0 0
337711.0 169124.0 0
343305.0 168516.0 0
350689.0 165745.0 0
347747.0 168921.0 0
352667.0 169636.0 0
361445.0 168685.0 0
357760.0 169159.0 0
365119.0 168390.0 0
372929.0 168199.0 0
378821.0 167920.0 0
382006.0 169058.0 0
388371.0 168625.0 0
393550.0 168999.0 0
402994.0 167987.0 0
398133.0 169432.0 0
408383.0 167277.0 0
412859.0 168587.0 0
417515.0 169200.0 0
422126.0 167437.0 0
428318.0 169454.0 0
433422.0 167551.0 0
437508.0 169730.0 0
443214.0 167889.0 0
447600.0 167194.0 0
451942.0 168434.0 0
457172.0 168631.0 0
466600.0 168699.0 0
470194.0 169878.0 0
475183.0 168679.0 0
481306.0 165051.0 0
486591.0 168310.0 0
496837.0 167660.0 0
6741.84 172135.0 0
11845.1 173954.0 0
16324.8 174028.0 0
22999.6 170078.0 0
20503.9 174044.0 0
27037.5 174488.0 0
32612.7 174324.0 0
38257.0 174093.0 0
42964.1 174475.0 0
47583.8 173347.0 0
56550.6 174626.0 0
62111.1 174606.0 0
67693.0 174255.0 0
73697.2 174571.0 0
78211.5 175008.0 0
81955.0 174183.0 0
86960.7 174214.0 0
92531.5 174570.0 0
97548.2 173973.0 0
107924.0 173383.0 0
116733.0 174442.0 0
112495.0 174657.0 0
120857.0 174290.0 0
125865.0 173673.0 0
140995.0 173268.0 0
146309.0 174385.0 0
156247.0 172866.0 0
161705.0 174818.0 0
169999.0 173196.0 0
176295.0 174047.0 0
182187.0 172269.0 0
188049.0 174522.0 0
194262.0 174246.0 0
199973.0 173690.0 0
208110.0 174340.0 0
204288.0 174687.0 0
213299.0 173063.0 0
217709.0 174788.0 0
222565.0 173900.0 0
226873.0 173273.0 0
232446.0 174788.0 0
237690.0 170146.0 0
237425.0 174572.0 0
246846.0 173750.0 0
252675.0 170147.0 0
251790.0 175040.0 0
257733.0 173452.0 0
262714.0 174103.0 0
267482.0 173363.0 0
273040.0 173463.0 0
279881.0 172673.0 0
282828.0 170022.0 0
283559.0 174956.0 0
287221.0 175026.0 0
291023.0 173905.0 0
296740.0 173526.0 0
302238.0 174666.0 0
307704.0 174051.0 0
318194.0 174173.0 0
322512.0 173177.0 0
326813.0 175062.0 0
336510.0 173788.0 0
331857.0 174787.0 0
341411.0 172721.0 0
346842.0 173308.0 0
351892.0 174473.0 0
356026.0 173030.0 0
361258.0 173386.0 0
366513.0 172473.0 0
371102.0 174341.0 0
377674.0 173854.0 0
384356.0 172395.0 0
392422.0 173822.0 0
397215.0 173781.0 0
402856.0 174227.0 0
409240.0 172921.0 0
419135.0 173891.0 0
424114.0 172257.0 0
432245.0 173175.0 0
437335.0 173923.0 0
442349.0 173124.0 0
448265.0 172265.0 0
454166.0 173840.0 0
458981.0 174882.0 0
462428.0 170108.0 0
463172.0 174648.0 0
467515.0 174769.0 0
472372.0 173201.0 0
477751.0 174158.0 0
480799.0 170326.0 0
482619.0 175023.0 0
492078.0 170560.0 0
491507.0 174621.0 0
496592.0 174231.0 0
2238.62 175323.0 0
2182.12 179737.0 0
8050.34 177976.0 0
13471.0 178576.0 0
17751.2 177873.0 0
22415.3 178418.0 0
32064.8 178611.0 0
37581.8 179298.0 0
43197.1 179538.0 0
49062.9 178137.0 0
51797.0 175108.0 0
53807.2 179806.0 0
59220.7 179304.0 0
63615.5 178937.0 0
68065.0 179929.0 0
72603.0 179446.0 0
77068.9 178932.0 0
82136.4 179203.0 0
87334.2 179388.0 0
92269.6 179899.0 0
97733.2 179325.0 0
102630.0 175115.0 0
107687.0 178881.0 0
113110.0 178987.0 0
118136.0 178919.0 0
123417.0 178278.0 0
127500.0 179834.0 0
131160.0 175370.0 0
136447.0 175321.0 0
137737.0 179236.0 0
142523.0 179387.0 0
151837.0 175985.0 0
148001.0 178995.0 0
156826.0 178269.0 0
160406.0 179631.0 0
166529.0 176638.0 0
170842.0 179225.0 0
182233.0 177747.0 0
186625.0 180157.0 0
191646.0 179648.0 0
197222.0 178974.0 0
203054.0 178830.0 0
214360.0 178733.0 0
218720.0 180029.0 0
222031.0 178159.0 0
227516.0 178821.0 0
234322.0 179173.0 0
237862.0 177898.0 0
241795.0 175225.0 0
241760.0 179827.0 0
246222.0 178936.0 0
255876.0 178171.0 0
260341.0 177843.0 0
266358.0 178049.0 0
271762.0 179734.0 0
278362.0 178175.0 0
284358.0 179696.0 0
288760.0 178181.0 0
292984.0 179897.0 0
298942.0 179827.0 0
303985.0 180054.0 0
307500.0 179878.0 0
313211.0 175175.0 0
316246.0 178891.0 0
312166.0 179697.0 0
321068.0 178422.0 0
325846.0 179994.0 0
329890.0 178611.0 0
339781.0 178113.0 0
346087.0 179563.0 0
352842.0 180049.0 0
357350.0 176987.0 0
361675.0 179377.0 0
366556.0 177165.0 0
371934.0 179971.0 0
382814.0 177910.0 0
387368.0 179769.0 0
388339.0 175584.0 0
399509.0 179399.0 0
408060.0 178274.0 0
404317.0 179420.0 0
412352.0 179948.0 0
414407.0 175479.0 0
416952.0 179276.0 0
427679.0 175292.0 0
425648.0 178917.0 0
431056.0 179365.0 0
437119.0 178118.0 0
441819.0 178712.0 0
446531.0 177268.0 0
450854.0 177782.0 0
455419.0 179607.0 0
461213.0 179309.0 0
466989.0 179097.0 0
472604.0 178159.0 0
478854.0 179657.0 0
487505.0 176117.0 0
484712.0 180162.0 0
492123.0 178479.0 0
1482.49 184428.0 0
7146.44 184281.0 0
11895.0 182312.0 0
17156.0 183051.0 0
23046.4 183802.0 0
26982.3 180416.0 0
30219.4 183151.0 0
34870.5 183943.0 0
39759.0 183360.0 0
43673.0 185204.0 0
48568.8 183360.0 0
57209.6 183695.0 0
63070.6 183713.0 0
68318.2 185105.0 0
73394.8 183506.0 0
78295.6 184082.0 0
83587.0 184144.0 0
88391.2 184207.0 0
92502.3 184743.0 0
97237.9 184741.0 0
101196.0 184800.0 0
102768.0 180575.0 0
105587.0 184397.0 0
111305.0 183571.0 0
116639.0 184177.0 0
122097.0 183468.0 0
126929.0 183890.0 0
131217.0 184580.0 0
132689.0 180199.0 0
136576.0 183786.0 0
142211.0 185081.0 0
147010.0 183272.0 0
151798.0 185208.0 0
153414.0 180641.0 0
157938.0 184197.0 0
164429.0 180340.0 0
167050.0 183212.0 0
163662.0 184826.0 0
171004.0 185232.0 0
177033.0 180615.0 0
182932.0 184665.0 0
193692.0 183733.0 0
189203.0 184566.0 0
198249.0 184863.0 0
203174.0 183931.0 0
208747.0 180687.0 0
212117.0 184936.0 0
216323.0 183349.0 0
221179.0 183677.0 0
231985.0 183678.0 0
237943.0 182634.0 0
242846.0 184476.0 0
248033.0 184016.0 0
251521.0 180298.0 0
252901.0 184326.0 0
257731.0 183353.0 0
262641.0 181417.0 0
267595.0 183995.0 0
278481.0 184830.0 0
283574.0 184282.0 0
288836.0 183502.0 0
293488.0 184495.0 0
302639.0 184359.0 0
307122.0 184719.0 0
311949.0 184437.0 0
316976.0 183323.0 0
322306.0 184013.0 0
330949.0 184126.0 0
327160.0 184861.0 0
334358.0 180598.0 0
341509.0 183602.0 0
337114.0 184501.0 0
357890.0 183560.0 0
367108.0 182072.0 0
362980.0 184350.0 0
377880.0 181304.0 0
383268.0 183930.0 0
388200.0 183951.0 0
393044.0 180486.0 0
403058.0 183398.0 0
408165.0 183124.0 0
414676.0 183591.0 0
417924.0 184832.0 0
421363.0 180541.0 0
427476.0 183377.0 0
431244.0 184794.0 0
436110.0 183098.0 0
441981.0 184372.0 0
448316.0 182785.0 0
454018.0 184761.0 0
459435.0 184914.0 0
464971.0 184194.0 0
473877.0 183378.0 0
469635.0 185044.0 0
481987.0 184613.0 0
489147.0 180888.0 0
486774.0 184500.0 0
492177.0 185056.0 0
496754.0 180873.0 0
2748.79 188466.0 0
12664.0 186817.0 0
18085.6 188820.0 0
23741.8 189558.0 0
28644.8 187197.0 0
33624.2 189498.0 0
39124.3 188199.0 0
43731.7 189413.0 0
48679.8 189329.0 0
53127.4 185799.0 0
59712.4 188709.0 0
64864.1 189807.0 0
68284.2 189306.0 0
72217.0 187388.0 0
76322.6 188981.0 0
81944.1 189566.0 0
87888.8 189277.0 0
92638.7 189677.0 0
96907.4 189313.0 0
101491.0 189440.0 0
106437.0 189734.0 0
111042.0 188420.0 0
115384.0 188894.0 0
120869.0 189490.0 0
127439.0 189154.0 0
133299.0 189034.0 0
138723.0 189520.0 0
143741.0 189688.0 0
148386.0 189294.0 0
152800.0 189793.0 0
157001.0 189895.0 0
161439.0 188670.0 0
166774.0 188565.0 0
176729.0 186906.0 0
186879.0 189564.0 0
192408.0 189075.0 0
202626.0 188504.0 0
207323.0 186066.0 0
210632.0 189467.0 0
216381.0 189243.0 0
222684.0 189330.0 0
226330.0 185456.0 0
236026.0 187620.0 0
240947.0 190053.0 0
250914.0 188479.0 0
256772.0 189560.0 0
262838.0 186995.0 0
268276.0 189362.0 0
272701.0 185618.0 0
282086.0 188213.0 0
287110.0 189588.0 0
293046.0 188912.0 0
297507.0 185872.0 0
301874.0 188285.0 0
306179.0 190199.0 0
311439.0 190160.0 0
316870.0 188448.0 0
322344.0 189932.0 0
328009.0 189474.0 0
333891.0 188362.0 0
346680.0 185519.0 0
342222.0 189579.0 0
351598.0 185704.0 0
347997.0 190282.0 0
355568.0 187834.0 0
352308.0 189982.0 0
360529.0 189099.0 0
366525.0 189199.0 0
370179.0 185510.0 0
374554.0 185536.0 0
378557.0 188888.0 0
383430.0 188068.0 0
387249.0 188425.0 0
392172.0 186733.0 0
397897.0 185333.0 0
400406.0 189626.0 0
405317.0 188637.0 0
411967.0 187712.0 0
417771.0 189590.0 0
422489.0 185403.0 0
422962.0 190271.0 0
427280.0 187630.0 0
432231.0 189375.0 0
437078.0 188428.0 0
441849.0 189978.0 0
447109.0 188952.0 0
452640.0 189953.0 0
458108.0 190278.0 0
462539.0 189867.0 0
466550.0 188874.0 0
471810.0 189607.0 0
477658.0 186443.0 0
482254.0 189970.0 0
487737.0 189348.0 0
497458.0 186608.0 0
3055.08 194265.0 0
7839.1 190794.0 0
13605.2 192663.0 0
23875.1 195259.0 0
28776.5 192540.0 0
33715.1 195202.0 0
38534.5 193385.0 0
43262.9 193670.0 0
49665.0 194221.0 0
54170.2 190499.0 0
53682.9 195245.0 0
58564.0 194578.0 0
63414.1 193756.0 0
67005.3 194213.0 0
71706.9 192723.0 0
77978.0 194302.0 0
88020.7 194309.0 0
93068.9 194296.0 0
97997.9 193784.0 0
105786.0 194170.0 0
102079.0 195428.0 0
110769.0 193770.0 0
116645.0 193671.0 0
126503.0 194404.0 0
122658.0 194969.0 0
131200.0 193732.0 0
139754.0 195070.0 0
145110.0 194279.0 0
150856.0 194340.0 0
156888.0 195252.0 0
162039.0 193332.0 0
167182.0 193662.0 0
172238.0 191016.0 0
177076.0 191231.0 0
176187.0 194957.0 0
181361.0 191278.0 0
185797.0 194849.0 0
191579.0 194955.0 0
197841.0 190571.0 0
202641.0 193946.0 0
206626.0 190676.0 0
207606.0 194697.0 0
212133.0 193849.0 0
223346.0 195299.0 0
228326.0 191001.0 0
233994.0 192155.0 0
243834.0 195103.0 0
246431.0 190602.0 0
248976.0 194718.0 0
252367.0 192769.0 0
262543.0 194166.0 0
268734.0 194331.0 0
272896.0 190514.0 0
273492.0 195059.0 0
277853.0 190839.0 0
282797.0 193594.0 0
293218.0 194246.0 0
297885.0 191222.0 0
302612.0 194131.0 0
308392.0 195110.0 0
313173.0 194708.0 0
317436.0 194194.0 0
325887.0 193505.0 0
329988.0 194628.0 0
335052.0 195177.0 0
337544.0 191768.0 0
351098.0 194453.0 0
356023.0 192430.0 0
360825.0 194973.0 0
366447.0 194944.0 0
371151.0 195408.0 0
372534.0 190472.0 0
383508.0 192514.0 0
390752.0 191372.0 0
396049.0 191156.0 0
403884.0 194672.0 0
409491.0 193309.0 0
414464.0 193578.0 0
417761.0 193724.0 0
420949.0 194080.0 0
427632.0 194134.0 0
433308.0 193738.0 0
437894.0 193405.0 0
442659.0 194869.0 0
448517.0 194835.0 0
453997.0 194818.0 0
458538.0 195247.0 0
462989.0 195020.0 0
467793.0 193852.0 0
472983.0 195350.0 0
476952.0 191165.0 0
479970.0 195076.0 0
484298.0 194922.0 0
488536.0 194475.0 0
492472.0 190899.0 0
492625.0 195054.0 0
497460.0 191692.0 0
2142.5 200154.0 0
8749.87 196682.0 0
13670.5 200302.0 0
18374.1 196400.0 0
22337.7 199742.0 0
27484.7 200171.0 0
32323.1 199451.0 0
37262.9 200004.0 0
46372.0 198027.0 0
51403.5 200419.0 0
63638.0 198925.0 0
68680.5 197498.0 0
73550.0 200564.0 0
79813.5 199783.0 0
83401.0 195647.0 0
85117.4 200566.0 0
90122.7 198793.0 0
98593.7 197960.0 0
105633.0 198679.0 0
111332.0 200108.0 0
118209.0 199241.0 0
123817.0 199497.0 0
128390.0 197822.0 0
135226.0 195555.0 0
133271.0 199897.0 0
137792.0 199008.0 0
141901.0 199866.0 0
147421.0 199590.0 0
152991.0 199550.0 0
161791.0 198901.0 0
167148.0 198632.0 0
171463.0 196339.0 0
170765.0 200369.0 0
176886.0 199950.0 0
180976.0 196880.0 0
186892.0 199875.0 0
191542.0 200259.0 0
197330.0 196100.0 0
201638.0 199421.0 0
207165.0 199666.0 0
213001.0 199373.0 0
217211.0 195630.0 0
228976.0 196995.0 0
233408.0 196621.0 0
232770.0 200398.0 0
238457.0 195811.0 0
242091.0 199346.0 0
246549.0 199084.0 0
251475.0 198670.0 0
255544.0 195660.0 0
262740.0 200239.0 0
268251.0 199948.0 0
274068.0 200019.0 0
278388.0 196229.0 0
284559.0 199647.0 0
287972.0 195587.0 0
289702.0 200523.0 0
293301.0 198641.0 0
297717.0 196494.0 0
302318.0 199842.0 0
307427.0 200380.0 0
312021.0 198876.0 0
316759.0 198788.0 0
322188.0 195505.0 0
326422.0 199087.0 0
331728.0 199589.0 0
340319.0 195584.0 0
345936.0 196324.0 0
351173.0 199629.0 0
356398.0 197985.0 0
366984.0 199814.0 0
371666.0 199889.0 0
377233.0 196131.0 0
382210.0 200054.0 0
386900.0 200417.0 0
387813.0 195694.0 0
392753.0 195708.0 0
391456.0 200216.0 0
398358.0 196673.0 0
405869.0 200445.0 0
411612.0 198828.0 0
417001.0 197452.0 0
422639.0 199071.0 0
428260.0 200217.0 0
432996.0 198381.0 0
438720.0 199051.0 0
444694.0 199755.0 0
455663.0 199215.0 0
461364.0 200119.0 0
468714.0 199078.0 0
477807.0 199593.0 0
482450.0 199750.0 0
486600.0 198638.0 0
490655.0 199076.0 0
497771.0 196451.0 0
495009.0 200434.0 0
2239.97 204727.0 0
7229.67 202755.0 0
18598.9 201341.0 0
23270.7 204594.0 0
32588.7 202925.0 0
42433.0 201313.0 0
40999.7 205537.0 0
46995.9 204505.0 0
52812.1 205150.0 0
57394.3 200707.0 0
62190.4 204318.0 0
67957.9 204383.0 0
78090.5 204381.0 0
82805.6 205287.0 0
88771.0 205101.0 0
95031.2 200655.0 0
93967.9 205501.0 0
101289.0 201313.0 0
97842.3 204018.0 0
101250.0 205598.0 0
105727.0 204171.0 0
110243.0 205542.0 0
115522.0 205118.0 0
121624.0 204327.0 0
128116.0 203861.0 0
137501.0 202954.0 0
133716.0 204731.0 0
142031.0 205133.0 0
157248.0 201158.0 0
153548.0 204369.0 0
157987.0 205337.0 0
163107.0 204739.0 0
173359.0 203616.0 0
168443.0 203903.0 0
177764.0 204393.0 0
182326.0 201700.0 0
186464.0 205141.0 0
191580.0 204770.0 0
196355.0 201548.0 0
201127.0 205012.0 0
212102.0 204305.0 0
216819.0 205505.0 0
219804.0 200717.0 0
224914.0 200618.0 0
228656.0 201089.0 0
226067.0 205148.0 0
231019.0 204440.0 0
236992.0 201053.0 0
235876.0 205691.0 0
241283.0 204257.0 0
246729.0 204020.0 0
252428.0 204182.0 0
257765.0 200930.0 0
269623.0 205608.0 0
274601.0 204998.0 0
279360.0 201751.0 0
284001.0 204105.0 0
288589.0 205540.0 0
292648.0 203951.0 0
296553.0 201421.0 0
303642.0 204804.0 0
307791.0 204715.0 0
312309.0 204105.0 0
321326.0 200638.0 0
317584.0 203808.0 0
323364.0 205622.0 0
328009.0 203749.0 0
332714.0 204700.0 0
337286.0 200870.0 0
342892.0 200917.0 0
346845.0 200891.0 0
341932.0 204845.0 0
345496.0 204606.0 0
349536.0 203824.0 0
355346.0 204190.0 0
361690.0 201078.0 0
366502.0 204534.0 0
373434.0 205039.0 0
378346.0 202736.0 0
383175.0 205696.0 0
388083.0 204820.0 0
392591.0 204586.0 0
395532.0 200973.0 0
397123.0 204828.0 0
400536.0 201779.0 0
408064.0 205202.0 0
412520.0 204073.0 0
417177.0 202579.0 0
421031.0 204624.0 0
425380.0 204255.0 0
431956.0 204030.0 0
437686.0 205291.0 0
443671.0 205337.0 0
450504.0 201509.0 0
454493.0 204464.0 0
458786.0 205410.0 0
463930.0 205231.0 0
465826.0 201757.0 0
469291.0 204548.0 0
473163.0 200914.0 0
474368.0 205458.0 0
479086.0 204481.0 0
486607.0 202842.0 0
491405.0 204911.0 0
497411.0 205053.0 0
2125.42 209093.0 0
6955.33 208629.0 0
12436.2 206363.0 0
18044.0 205795.0 0
16005.6 209796.0 0
20034.3 210076.0 0
24881.7 209844.0 0
29068.4 206146.0 0
32211.2 210508.0 0
35959.7 205806.0 0
43311.6 209966.0 0
48680.6 210499.0 0
53572.5 209674.0 0
57598.8 206867.0 0
62542.2 209554.0 0
67218.9 209639.0 0
73646.3 207270.0 0
79087.1 209904.0 0
84530.6 209890.0 0
88595.2 210136.0 0
92508.1 209594.0 0
97467.8 208409.0 0
102448.0 210022.0 0
107193.0 208922.0 0
111837.0 209705.0 0
117995.0 210625.0 0
123250.0 209558.0 0
127768.0 209248.0 0
132821.0 209801.0 0
138525.0 209060.0 0
143146.0 209960.0 0
148123.0 206170.0 0
151877.0 209956.0 0
156564.0 210168.0 0
161568.0 209673.0 0
166877.0 208777.0 0
173248.0 209836.0 0
181598.0 206271.0 0
178607.0 209984.0 0
189462.0 209989.0 0
195895.0 207299.0 0
199741.0 210021.0 0
203874.0 210603.0 0
207150.0 205733.0 0
212779.0 208951.0 0
219054.0 210257.0 0
221593.0 206333.0 0
223358.0 209820.0 0
227641.0 209849.0 0
232480.0 209167.0 0
237759.0 210137.0 0
242317.0 210590.0 0
246721.0 208857.0 0
251896.0 210434.0 0
257588.0 206170.0 0
257453.0 210467.0 0
263730.0 205739.0 0
267698.0 209795.0 0
271767.0 209375.0 0
279904.0 207096.0 0
276111.0 209829.0 0
284268.0 208518.0 0
288561.0 210778.0 0
293585.0 208494.0 0
298722.0 206147.0 0
302630.0 209720.0 0
306694.0 208590.0 0
311690.0 209795.0 0
316841.0 208642.0 0
321342.0 210536.0 0
324886.0 209513.0 0
328700.0 208461.0 0
334159.0 210323.0 0
337414.0 206183.0 0
339614.0 210078.0 0
344156.0 208820.0 0
350112.0 209479.0 0
360680.0 206265.0 0
369406.0 209326.0 0
374930.0 210359.0 0
378300.0 207232.0 0
388089.0 209318.0 0
393163.0 209656.0 0
397936.0 209005.0 0
401999.0 210253.0 0
403361.0 205926.0 0
406603.0 209827.0 0
412752.0 209968.0 0
418445.0 208000.0 0
423553.0 209401.0 0
428726.0 208055.0 0
433885.0 210525.0 0
445498.0 210056.0 0
450713.0 207941.0 0
456141.0 209558.0 0
463204.0 209274.0 0
460059.0 209998.0 0
467453.0 209815.0 0
472542.0 209758.0 0
477866.0 209809.0 0
483698.0 206150.0 0
482745.0 210398.0 0
487590.0 209395.0 0
492463.0 210104.0 0
497811.0 209814.0 0
3067.29 214202.0 0
8540.37 213132.0 0
12567.8 211771.0 0
16410.5 213964.0 0
21300.4 214979.0 0
27453.4 215202.0 0
32652.6 214344.0 0
37669.0 211411.0 0
42281.2 215114.0 0
53255.7 214635.0 0
57448.9 211777.0 0
58925.6 215665.0 0
62499.2 213976.0 0
71129.8 212039.0 0
66930.0 214075.0 0
76181.1 215088.0 0
82342.2 213497.0 0
86383.9 213829.0 0
91246.2 214670.0 0
96596.2 213529.0 0
101327.0 214684.0 0
106450.0 214091.0 0
112397.0 215216.0 0
123224.0 214809.0 0
128383.0 213750.0 0
133236.0 215285.0 0
138696.0 214791.0 0
143901.0 214001.0 0
147994.0 212145.0 0
152635.0 214396.0 0
158005.0 214652.0 0
162828.0 213807.0 0
168107.0 214228.0 0
172595.0 215517.0 0
177251.0 215266.0 0
183542.0 210919.0 0
182431.0 215874.0 0
187092.0 214875.0 0
192270.0 215145.0 0
193912.0 211121.0 0
197937.0 214742.0 0
202911.0 214586.0 0
208366.0 210871.0 0
207318.0 215571.0 0
212056.0 213895.0 0
217207.0 215328.0 0
222466.0 214046.0 0
227447.0 215390.0 0
232451.0 213873.0 0
237081.0 214446.0 0
241383.0 215057.0 0
246117.0 213871.0 0
254536.0 214913.0 0
250358.0 215446.0 0
258834.0 215552.0 0
262299.0 211963.0 0
267457.0 215128.0 0
272506.0 213266.0 0
277228.0 215114.0 0
283168.0 213906.0 0
288184.0 215331.0 0
292734.0 214094.0 0
298807.0 210907.0 0
297344.0 214847.0 0
302066.0 214832.0 0
306866.0 213318.0 0
316042.0 213537.0 0
311362.0 215290.0 0
320407.0 214949.0 0
326142.0 214299.0 0
338275.0 215363.0 0
343322.0 213763.0 0
348133.0 214948.0 0
356727.0 211032.0 0
353189.0 215499.0 0
363265.0 210930.0 0
372380.0 214496.0 0
367631.0 214900.0 0
377383.0 215851.0 0
379749.0 211201.0 0
382030.0 214367.0 0
384040.0 211293.0 0
387348.0 213935.0 0
391810.0 214359.0 0
396392.0 213600.0 0
401411.0 215150.0 0
406560.0 214689.0 0
417747.0 213918.0 0
428004.0 214261.0 0
435865.0 215791.0 0
440196.0 211452.0 0
448662.0 212592.0 0
444894.0 215198.0 0
448961.0 215712.0 0
453282.0 214334.0 0
458562.0 213420.0 0
463260.0 213465.0 0
468256.0 214871.0 0
473568.0 214940.0 0
478470.0 214720.0 0
481968.0 215196.0 0
485402.0 213870.0 0
490348.0 213994.0 0
495341.0 214073.0 0
2829.88 220102.0 0
7505.43 217554.0 0
12199.7 216319.0 0
12508.0 219960.0 0
17147.2 219504.0 0
23568.7 220415.0 0
28496.2 220291.0 0
32897.2 218453.0 0
37770.1 216778.0 0
44151.4 220467.0 0
47945.8 216007.0 0
51660.7 219122.0 0
56216.3 219209.0 0
61488.2 219646.0 0
71366.9 216219.0 0
67354.3 219577.0 0
73105.9 220592.0 0
80897.9 217761.0 0
86726.9 219451.0 0
92880.2 220659.0 0
98372.1 218898.0 0
103680.0 218846.0 0
108526.0 219484.0 0
113663.0 220597.0 0
118080.0 216050.0 0
123565.0 219842.0 0
128433.0 218925.0 0
133087.0 219805.0 0
137601.0 220169.0 0
146822.0 216384.0 0
143077.0 218125.0 0
146707.0 220432.0 0
150635.0 218335.0 0
155608.0 218416.0 0
161150.0 218690.0 0
167133.0 220305.0 0
172930.0 219805.0 0
178056.0 220776.0 0
183640.0 220644.0 0
189255.0 219616.0 0
194197.0 219666.0 0
203779.0 218799.0 0
199081.0 220390.0 0
208280.0 220613.0 0
213125.0 219154.0 0
217848.0 220633.0 0
222500.0 219794.0 0
227501.0 219967.0 0
231421.0 218019.0 0
235396.0 218509.0 0
241020.0 219447.0 0
246236.0 219721.0 0
252677.0 220195.0 0
257745.0 219320.0 0
262641.0 218478.0 0
268621.0 219849.0 0
272465.0 217917.0 0
276630.0 220163.0 0
282631.0 219692.0 0
287923.0 219741.0 0
293351.0 219569.0 0
298032.0 218709.0 0
302165.0 220774.0 0
306751.0 218192.0 0
311390.0 220511.0 0
317161.0 219236.0 0
322877.0 219497.0 0
326699.0 219245.0 0
331450.0 220784.0 0
332576.0 216374.0 0
340782.0 220065.0 0
345199.0 218166.0 0
349873.0 219559.0 0
358609.0 216551.0 0
363214.0 216419.0 0
367135.0 220282.0 0
372551.0 219411.0 0
382867.0 219028.0 0
389033.0 218900.0 0
397254.0 218759.0 0
402355.0 220785.0 0
407522.0 219396.0 0
411922.0 216328.0 0
417000.0 219616.0 0
422243.0 216849.0 0
426097.0 220368.0 0
432037.0 219634.0 0
437821.0 220740.0 0
440095.0 216395.0 0
443172.0 220222.0 0
447805.0 219381.0 0
452672.0 220219.0 0
457767.0 218272.0 0
463145.0 218637.0 0
468212.0 219997.0 0
473097.0 220077.0 0
478111.0 219558.0 0
482752.0 219866.0 0
487718.0 218786.0 0
493266.0 218797.0 0
497795.0 218365.0 0
2513.91 225446.0 0
9643.94 221415.0 0
7262.84 224862.0 0
12106.3 225190.0 0
17579.6 225778.0 0
28793.9 224798.0 0
32705.6 223137.0 0
37934.3 222440.0 0
43267.4 225897.0 0
48943.7 222156.0 0
47702.2 225974.0 0
52875.1 224823.0 0
58199.8 223987.0 0
64158.1 225251.0 0
71371.9 224145.0 0
75118.3 225973.0 0
78015.5 221595.0 0
81047.7 225753.0 0
96748.7 224717.0 0
92018.1 225240.0 0
101921.0 223196.0 0
107424.0 225577.0 0
113364.0 225593.0 0
118716.0 221351.0 0
123401.0 224908.0 0
128618.0 224088.0 0
133599.0 224336.0 0
141648.0 222695.0 0
137998.0 225967.0 0
145480.0 225294.0 0
150732.0 224045.0 0
156819.0 223641.0 0
162662.0 224760.0 0
170990.0 224669.0 0
183153.0 224596.0 0
179611.0 225465.0 0
187232.0 224693.0 0
192609.0 224270.0 0
197958.0 226029.0 0
202930.0 223817.0 0
210974.0 224711.0 0
215641.0 224954.0 0
221220.0 225035.0 0
227166.0 225323.0 0
231624.0 222208.0 0
237606.0 224218.0 0
243864.0 224932.0 0
248917.0 224690.0 0
257368.0 222658.0 0
260306.0 224697.0 0
265512.0 223649.0 0
272401.0 224221.0 0
279495.0 224923.0 0
285573.0 223833.0 0
290263.0 223670.0 0
297339.0 223918.0 0
302292.0 225895.0 0
306860.0 223662.0 0
318332.0 225058.0 0
323490.0 224442.0 0
328124.0 222751.0 0
335622.0 221276.0 0
332373.0 225250.0 0
340966.0 224643.0 0
337071.0 225851.0 0
345714.0 223450.0 0
350932.0 225579.0 0
355438.0 221741.0 0
361532.0 221128.0 0
359285.0 225936.0 0
364347.0 225620.0 0
368942.0 224941.0 0
373329.0 224277.0 0
377572.0 221586.0 0
381324.0 224851.0 0
386955.0 225043.0 0
393425.0 221059.0 0
393342.0 225912.0 0
398514.0 224335.0 0
402899.0 225725.0 0
407759.0 224791.0 0
411979.0 221634.0 0
415870.0 225431.0 0
421584.0 221450.0 0
424602.0 224405.0 0
428969.0 224934.0 0
434134.0 224614.0 0
438733.0 225925.0 0
442782.0 224581.0 0
447713.0 224645.0 0
453040.0 225241.0 0
458327.0 224079.0 0
463613.0 223457.0 0
468165.0 225323.0 0
473606.0 224489.0 0
478156.0 224716.0 0
482814.0 224065.0 0
487501.0 224365.0 0
492502.0 223747.0 0
497557.0 223012.0 0
2475.42 230440.0 0
7678.72 229878.0 0
12006.2 229390.0 0
15774.7 230820.0 0
23399.3 226471.0 0
26806.3 230842.0 0
34058.3 228515.0 0
39395.9 227408.0 0
44693.7 230364.0 0
48747.5 229686.0 0
53052.3 229997.0 0
59500.8 229080.0 0
63882.5 230388.0 0
69248.3 226188.0 0
67602.0 229640.0 0
71687.6 229584.0 0
78279.7 229474.0 0
82477.4 230742.0 0
87052.0 226110.0 0
92003.8 229880.0 0
97004.4 229832.0 0
102132.0 229086.0 0
111122.0 229889.0 0
118426.0 226611.0 0
126571.0 229613.0 0
132454.0 229309.0 0
137141.0 230437.0 0
142292.0 229571.0 0
147729.0 229046.0 0
152626.0 229702.0 0
157519.0 228722.0 0
162024.0 230329.0 0
167210.0 228763.0 0
172468.0 229818.0 0
175343.0 226394.0 0
178176.0 230725.0 0
183461.0 228517.0 0
190419.0 229285.0 0
195405.0 230729.0 0
203345.0 229172.0 0
206821.0 226151.0 0
208186.0 230147.0 0
212572.0 229227.0 0
217684.0 229649.0 0
223417.0 229868.0 0
227752.0 230311.0 0
232793.0 229566.0 0
237978.0 230231.0 0
242274.0 229127.0 0
246602.0 229011.0 0
254160.0 226321.0 0
251484.0 230792.0 0
257649.0 230609.0 0
262645.0 228840.0 0
268083.0 228905.0 0
273554.0 230906.0 0
279488.0 231111.0 0
284041.0 228082.0 0
289102.0 228767.0 0
293620.0 227051.0 0
298793.0 229677.0 0
302779.0 229393.0 0
307495.0 229229.0 0
312361.0 226566.0 0
316377.0 229950.0 0
321284.0 230081.0 0
327590.0 228619.0 0
333588.0 230234.0 0
340751.0 228774.0 0
346460.0 230007.0 0
352475.0 230404.0 0
362682.0 229487.0 0
367602.0 230205.0 0
377201.0 226671.0 0
373234.0 229396.0 0
383125.0 230275.0 0
388877.0 230920.0 0
397594.0 228753.0 0
393913.0 231189.0 0
401988.0 230342.0 0
407546.0 230593.0 0
417747.0 229584.0 0
413348.0 230626.0 0
421172.0 226717.0 0
420753.0 230861.0 0
426070.0 230301.0 0
432058.0 229413.0 0
436724.0 229765.0 0
442763.0 229603.0 0
453404.0 229411.0 0
458500.0 230619.0 0
463586.0 227998.0 0
467776.0 230639.0 0
471815.0 228185.0 0
476443.0 229743.0 0
481091.0 228048.0 0
485645.0 229023.0 0
490698.0 230052.0 0
495989.0 228287.0 0
3206.23 235568.0 0
8253.67 234978.0 0
12758.9 234613.0 0
17402.4 235581.0 0
20838.9 231519.0 0
22002.5 236115.0 0
26223.0 235625.0 0
30940.4 234135.0 0
40042.8 231653.0 0
35918.9 234255.0 0
43622.9 234350.0 0
47747.6 233719.0 0
51800.4 234056.0 0
56820.9 234271.0 0
62570.1 234400.0 0
67161.5 234821.0 0
72511.2 234772.0 0
77983.3 233570.0 0
82534.1 235167.0 0
86300.8 235767.0 0
87145.1 231700.0 0
90161.8 235016.0 0
95224.1 234854.0 0
101127.0 234755.0 0
106970.0 231458.0 0
111797.0 234750.0 0
115818.0 231253.0 0
121100.0 231251.0 0
118327.0 235926.0 0
123275.0 235679.0 0
127622.0 234734.0 0
132211.0 234625.0 0
137229.0 235035.0 0
146463.0 234039.0 0
156135.0 233666.0 0
169290.0 235144.0 0
181612.0 235545.0 0
186108.0 232917.0 0
190982.0 234588.0 0
195742.0 235403.0 0
199775.0 231347.0 0
204942.0 233697.0 0
208474.0 235900.0 0
211661.0 233809.0 0
216545.0 234978.0 0
221743.0 234286.0 0
226737.0 234798.0 0
231988.0 233830.0 0
236100.0 235105.0 0
241477.0 233623.0 0
246802.0 234121.0 0
251454.0 235043.0 0
256173.0 235725.0 0
261540.0 234179.0 0
266306.0 233338.0 0
270621.0 235780.0 0
276601.0 235853.0 0
284963.0 233213.0 0
290159.0 233634.0 0
293839.0 231271.0 0
293734.0 235874.0 0
297268.0 234110.0 0
302668.0 232551.0 0
307427.0 233162.0 0
310153.0 235700.0 0
312818.0 232382.0 0
316957.0 234132.0 0
326189.0 234002.0 0
321554.0 236059.0 0
331831.0 235213.0 0
336675.0 235708.0 0
337879.0 231715.0 0
341768.0 234647.0 0
346609.0 235867.0 0
350382.0 234334.0 0
354415.0 235585.0 0
358047.0 231518.0 0
363428.0 234822.0 0
368535.0 235426.0 0
372662.0 234088.0 0
377755.0 231403.0 0
381270.0 234784.0 0
385757.0 235388.0 0
391600.0 235938.0 0
397811.0 234837.0 0
403442.0 235312.0 0
408198.0 235708.0 0
412659.0 235777.0 0
417331.0 234277.0 0
422296.0 234612.0 0
433142.0 235344.0 0
438895.0 233821.0 0
448810.0 231744.0 0
443933.0 235194.0 0
453758.0 234379.0 0
463029.0 235076.0 0
468103.0 235425.0 0
472241.0 233254.0 0
476522.0 234772.0 0
481581.0 233316.0 0
487394.0 233933.0 0
497269.0 233934.0 0
2743.2 240997.0 0
8044.25 240001.0 0
14927.9 239820.0 0
19916.2 240393.0 0
25335.9 240469.0 0
32695.7 240926.0 0
39995.3 237376.0 0
47197.4 238994.0 0
52665.5 238250.0 0
57752.0 240511.0 0
63749.3 239757.0 0
69576.6 240118.0 0
74692.3 240648.0 0
78841.9 238323.0 0
82761.4 239945.0 0
87411.3 240202.0 0
93076.6 240275.0 0
98830.9 240113.0 0
106558.0 236479.0 0
103892.0 240661.0 0
107220.0 240486.0 0
111636.0 240621.0 0
120388.0 240654.0 0
124176.0 239958.0 0
128410.0 239357.0 0
132876.0 238959.0 0
136858.0 239726.0 0
141704.0 236314.0 0
141100.0 240498.0 0
146520.0 240006.0 0
151570.0 236497.0 0
156635.0 240095.0 0
161838.0 236629.0 0
166706.0 241411.0 0
172254.0 240131.0 0
175980.0 236502.0 0
179233.0 240119.0 0
184125.0 240752.0 0
189305.0 239102.0 0
193661.0 239992.0 0
197499.0 239618.0 0
200523.0 236544.0 0
202951.0 240390.0 0
206309.0 238245.0 0
212294.0 239624.0 0
216845.0 239507.0 0
221010.0 239118.0 0
225776.0 239790.0 0
231013.0 238211.0 0
235673.0 240026.0 0
240574.0 238866.0 0
248390.0 238908.0 0
252590.0 238688.0 0
260000.0 238779.0 0
256085.0 240721.0 0
265480.0 238584.0 0
272922.0 239241.0 0
275658.0 239830.0 0
281969.0 238724.0 0
288347.0 238400.0 0
293485.0 240549.0 0
298770.0 238507.0 0
304642.0 237239.0 0
309174.0 239364.0 0
313933.0 237195.0 0
317705.0 239105.0 0
323352.0 241251.0 0
327786.0 238517.0 0
332500.0 239859.0 0
336867.0 240318.0 0
342199.0 240219.0 0
351670.0 239125.0 0
347206.0 240236.0 0
357644.0 239132.0 0
363234.0 241175.0 0
368505.0 239688.0 0
376996.0 236552.0 0
373399.0 240908.0 0
382581.0 238808.0 0
379108.0 240957.0 0
387083.0 240987.0 0
395893.0 239565.0 0
400749.0 240024.0 0
405935.0 239651.0 0
411228.0 240951.0 0
416963.0 240122.0 0
422188.0 239512.0 0
427069.0 237002.0 0
431393.0 241041.0 0
437982.0 239246.0 0
443846.0 241067.0 0
448491.0 237590.0 0
453584.0 239606.0 0
457900.0 236524.0 0
458360.0 240720.0 0
462250.0 240069.0 0
467278.0 240432.0 0
472251.0 238401.0 0
478250.0 239530.0 0
483451.0 238442.0 0
487734.0 238603.0 0
492243.0 236448.0 0
497105.0 239534.0 0
2122.04 245822.0 0
6632.54 244936.0 0
11767.2 242480.0 0
10877.9 246134.0 0
16447.4 245057.0 0
22141.6 245193.0 0
26813.2 245044.0 0
38035.4 246374.0 0
42526.2 242344.0 0
47182.2 244125.0 0
52162.2 243672.0 0
62695.8 245137.0 0
67630.6 245459.0 0
72732.9 245194.0 0
77869.3 244575.0 0
83357.8 244659.0 0
88730.0 245163.0 0
93486.1 245134.0 0
97429.2 244748.0 0
102460.0 245871.0 0
107419.0 243738.0 0
116407.0 243317.0 0
120440.0 246511.0 0
125864.0 244284.0 0
131752.0 243683.0 0
137384.0 244605.0 0
143323.0 245400.0 0
151900.0 241888.0 0
148474.0 244954.0 0
152890.0 246416.0 0
157312.0 245093.0 0
160678.0 242174.0 0
163255.0 244539.0 0
170863.0 243566.0 0
175911.0 244137.0 0
181668.0 245959.0 0
189128.0 244349.0 0
194258.0 244755.0 0
199452.0 243968.0 0
203612.0 245965.0 0
207402.0 243040.0 0
216148.0 245024.0 0
221746.0 243371.0 0
226483.0 245066.0 0
232435.0 244205.0 0
238422.0 243968.0 0
244757.0 243199.0 0
251380.0 243678.0 0
256839.0 245248.0 0
261851.0 243364.0 0
270073.0 242595.0 0
274192.0 245336.0 0
278034.0 242861.0 0
283456.0 245048.0 0
288996.0 243727.0 0
293236.0 246064.0 0
297198.0 243384.0 0
302987.0 243710.0 0
308790.0 244592.0 0
312950.0 241936.0 0
318352.0 244383.0 0
328781.0 243737.0 0
334056.0 245481.0 0
339580.0 244883.0 0
344920.0 244685.0 0
349976.0 244223.0 0
354419.0 242746.0 0
358642.0 245848.0 0
368158.0 244410.0 0
372319.0 245616.0 0
376968.0 245490.0 0
382476.0 244453.0 0
387497.0 245471.0 0
392326.0 242123.0 0
392131.0 246230.0 0
396151.0 244942.0 0
401231.0 245491.0 0
406695.0 244811.0 0
411221.0 245822.0 0
415494.0 245160.0 0
421160.0 245097.0 0
426356.0 242553.0 0
428504.0 246071.0 0
430942.0 245475.0 0
435839.0 245267.0 0
446668.0 245429.0 0
449067.0 241940.0 0
456084.0 244382.0 0
461502.0 245118.0 0
466934.0 245838.0 0
472915.0 243599.0 0
478060.0 244999.0 0
482526.0 242904.0 0
487864.0 243731.0 0
492449.0 241436.0 0
493658.0 245331.0 0
498090.0 244213.0 0
2814.57 250614.0 0
8167.77 249877.0 0
12901.4 249240.0 0
16338.9 249889.0 0
20391.3 249770.0 0
25277.1 250994.0 0
31185.1 248727.0 0
44035.0 246859.0 0
41785.8 250722.0 0
47436.9 250839.0 0
53092.4 250152.0 0
57346.2 246608.0 0
63563.3 250290.0 0
68265.8 249856.0 0
72451.5 250042.0 0
77183.8 249688.0 0
86320.3 248783.0 0
82033.1 249767.0 0
91302.5 249699.0 0
96816.3 249149.0 0
111804.0 246985.0 0
116468.0 249716.0 0
121277.0 251246.0 0
126005.0 250440.0 0
132130.0 250067.0 0
137827.0 250245.0 0
142847.0 250783.0 0
147540.0 249507.0 0
152638.0 251058.0 0
157570.0 250082.0 0
162724.0 249041.0 0
168104.0 246826.0 0
172608.0 249323.0 0
177877.0 249422.0 0
182324.0 251052.0 0
186393.0 248697.0 0
192108.0 249240.0 0
196651.0 249903.0 0
201143.0 249436.0 0
206799.0 249271.0 0
210862.0 246710.0 0
212749.0 249835.0 0
217650.0 250936.0 0
221806.0 248033.0 0
226822.0 250166.0 0
231570.0 249837.0 0
236420.0 248907.0 0
241232.0 248418.0 0
245796.0 248546.0 0
250456.0 249570.0 0
255202.0 249419.0 0
260771.0 249535.0 0
266244.0 246698.0 0
271154.0 249006.0 0
278137.0 248616.0 0
288438.0 249019.0 0
293458.0 250963.0 0
298373.0 248593.0 0
303439.0 249262.0 0
308170.0 249600.0 0
314331.0 249709.0 0
319246.0 249312.0 0
324037.0 246700.0 0
328957.0 249325.0 0
333138.0 249692.0 0
336742.0 249644.0 0
342577.0 250046.0 0
347871.0 249223.0 0
353200.0 248904.0 0
357754.0 251536.0 0
363892.0 246767.0 0
362495.0 251576.0 0
367781.0 250061.0 0
373553.0 250265.0 0
382639.0 249705.0 0
378324.0 250002.0 0
387500.0 250008.0 0
390849.0 249809.0 0
394218.0 249403.0 0
397998.0 249398.0 0
405860.0 250841.0 0
412261.0 250454.0 0
417890.0 249966.0 0
423016.0 250361.0 0
427882.0 249966.0 0
432795.0 250423.0 0
437681.0 250911.0 0
442051.0 247005.0 0
447099.0 249692.0 0
451292.0 246649.0 0
456321.0 249331.0 0
461259.0 250772.0 0
466171.0 250421.0 0
470973.0 248585.0 0
476159.0 250023.0 0
482653.0 248905.0 0
488903.0 249297.0 0
497009.0 248994.0 0
2327.61 255057.0 0
7488.63 254724.0 0
11903.1 253207.0 0
17724.0 254133.0 0
22194.7 254727.0 0
25717.4 255520.0 0
33500.9 254312.0 0
37231.5 251717.0 0
41264.6 255951.0 0
46272.6 256072.0 0
51624.9 255496.0 0
58686.1 251898.0 0
56860.7 256155.0 0
62242.1 255745.0 0
67517.7 254573.0 0
72508.5 254654.0 0
81268.8 254889.0 0
76626.4 255719.0 0
87016.5 253804.0 0
92311.2 254967.0 0
101397.0 251763.0 0
97257.8 254989.0 0
107502.0 251958.0 0
111799.0 255786.0 0
113007.0 251812.0 0
117637.0 255259.0 0
123430.0 254987.0 0
128783.0 255495.0 0
134059.0 255109.0 0
137961.0 254839.0 0
142164.0 254783.0 0
147518.0 255307.0 0
152884.0 255991.0 0
158960.0 254472.0 0
162909.0 254421.0 0
167309.0 251857.0 0
167202.0 256494.0 0
172011.0 253751.0 0
177748.0 254958.0 0
183269.0 255731.0 0
188259.0 253672.0 0
193915.0 254529.0 0
199072.0 254247.0 0
204175.0 254671.0 0
214040.0 253216.0 0
209512.0 254344.0 0
217462.0 255317.0 0
222155.0 253525.0 0
226337.0 254035.0 0
230556.0 255357.0 0
235744.0 253647.0 0
240067.0 251787.0 0
243712.0 252725.0 0
240020.0 255789.0 0
250378.0 254961.0 0
256487.0 254839.0 0
262632.0 255164.0 0
266778.0 252213.0 0
272516.0 254648.0 0
278318.0 254428.0 0
283265.0 251863.0 0
289968.0 254512.0 0
294923.0 255409.0 0
299356.0 253949.0 0
303636.0 253260.0 0
307801.0 254756.0 0
313011.0 255897.0 0
317897.0 254117.0 0
322889.0 252444.0 0
327953.0 254356.0 0
333158.0 253977.0 0
338964.0 255324.0 0
344288.0 255334.0 0
346978.0 252777.0 0
351178.0 255008.0 0
358172.0 255915.0 0
362953.0 256480.0 0
367637.0 255425.0 0
372876.0 255895.0 0
377591.0 254680.0 0
387666.0 254478.0 0
383032.0 254869.0 0
390583.0 255353.0 0
394665.0 254022.0 0
400644.0 253785.0 0
409730.0 256300.0 0
416365.0 255754.0 0
422816.0 256018.0 0
428624.0 254791.0 0
433383.0 255242.0 0
438576.0 256164.0 0
441774.0 251674.0 0
448818.0 254554.0 0
444219.0 255475.0 0
452118.0 251813.0 0
452098.0 255802.0 0
457224.0 255601.0 0
462831.0 255245.0 0
466797.0 256512.0 0
470796.0 253774.0 0
476403.0 256401.0 0
482888.0 255645.0 0
488672.0 254800.0 0
492848.0 252134.0 0
492898.0 255855.0 0
497141.0 254853.0 0
2871.88 258891.0 0
7660.86 259184.0 0
13291.3 257607.0 0
17514.9 259025.0 0
21994.1 259013.0 0
29630.1 257305.0 0
25937.0 259420.0 0
33841.3 260182.0 0
36832.3 256730.0 0
38551.0 260198.0 0
43313.6 261013.0 0
47500.0 259821.0 0
51970.3 261142.0 0
58898.5 260708.0 0
64485.3 260940.0 0
68995.8 259670.0 0
73867.7 259126.0 0
77214.8 259547.0 0
80688.1 259991.0 0
86318.0 260111.0 0
92812.9 259974.0 0
98244.2 260250.0 0
102435.0 256913.0 0
106772.0 257102.0 0
103093.0 260877.0 0
109020.0 260287.0 0
113198.0 259902.0 0
122442.0 259776.0 0
117544.0 260969.0 0
126563.0 260387.0 0
131865.0 259844.0 0
136846.0 259387.0 0
140207.0 261691.0 0
144016.0 260071.0 0
150431.0 259865.0 0
157092.0 259693.0 0
163000.0 258807.0 0
167651.0 261155.0 0
173064.0 259383.0 0
183045.0 260347.0 0
178851.0 261025.0 0
186693.0 259049.0 0
191853.0 259405.0 0
196811.0 258592.0 0
201801.0 259690.0 0
207326.0 259440.0 0
213629.0 257485.0 0
216951.0 260493.0 0
220500.0 258363.0 0
225398.0 257888.0 0
229390.0 260395.0 0
235830.0 259125.0 0
240239.0 260798.0 0
245179.0 258797.0 0
252518.0 259974.0 0
257236.0 260294.0 0
262339.0 259937.0 0
267371.0 257726.0 0
272611.0 260754.0 0
277790.0 259443.0 0
282861.0 257405.0 0
289747.0 259284.0 0
285970.0 260917.0 0
293403.0 258988.0 0
297862.0 259898.0 0
303742.0 258407.0 0
309258.0 260322.0 0
315389.0 261319.0 0
320264.0 258449.0 0
324579.0 257019.0 0
328746.0 259971.0 0
334638.0 259283.0 0
338204.0 261526.0 0
342795.0 260489.0 0
348325.0 259806.0 0
354573.0 259728.0 0
358833.0 259876.0 0
362311.0 260536.0 0
366738.0 260467.0 0
371996.0 261282.0 0
376887.0 258502.0 0
380641.0 259151.0 0
386652.0 259651.0 0
391385.0 258737.0 0
396443.0 259730.0 0
400519.0 258163.0 0
404218.0 257087.0 0
407480.0 261764.0 0
413218.0 261597.0 0
418110.0 260803.0 0
422110.0 261172.0 0
426883.0 259623.0 0
431426.0 259531.0 0
436293.0 261511.0 0
442104.0 260816.0 0
447553.0 259728.0 0
452807.0 259989.0 0
457501.0 261660.0 0
461592.0 259463.0 0
465848.0 260569.0 0
470833.0 259568.0 0
480521.0 260062.0 0
485119.0 260690.0 0
491128.0 260646.0 0
497365.0 260344.0 0
2104.44 263049.0 0
6792.84 264679.0 0
12523.2 262968.0 0
18520.8 264061.0 0
24345.8 263787.0 0
30114.9 264160.0 0
35416.0 265595.0 0
39868.3 264255.0 0
43524.0 266303.0 0
47473.4 263991.0 0
51741.4 265981.0 0
56702.4 265741.0 0
61961.0 265755.0 0
66634.3 265431.0 0
71687.6 264016.0 0
77188.0 263165.0 0
82288.0 264977.0 0
88451.9 266425.0 0
93312.5 264081.0 0
97500.0 264855.0 0
102237.0 264655.0 0
107095.0 264430.0 0
112298.0 264157.0 0
117490.0 265583.0 0
122473.0 263853.0 0
132597.0 264614.0 0
127675.0 265351.0 0
137656.0 264329.0 0
142129.0 264756.0 0
147647.0 264549.0 0
153055.0 263881.0 0
157501.0 265574.0 0
161585.0 263725.0 0
165677.0 265404.0 0
171253.0 265258.0 0
176256.0 265254.0 0
180348.0 265690.0 0
184985.0 264130.0 0
190267.0 263693.0 0
195415.0 264182.0 0
201322.0 265144.0 0
206593.0 265472.0 0
212337.0 263307.0 0
218117.0 264848.0 0
222880.0 262824.0 0
227516.0 265456.0 0
232614.0 263981.0 0
238153.0 264767.0 0
243778.0 265123.0 0
248618.0 263728.0 0
255039.0 264032.0 0
259921.0 264203.0 0
266652.0 264764.0 0
272626.0 265683.0 0
276486.0 264293.0 0
281552.0 263158.0 0
286998.0 265507.0 0
292791.0 263806.0 0
298712.0 265763.0 0
303446.0 263702.0 0
307680.0 264976.0 0
312751.0 266590.0 0
319089.0 265666.0 0
323672.0 261952.0 0
323781.0 266176.0 0
328193.0 265613.0 0
332660.0 263919.0 0
337193.0 265305.0 0
341723.0 265723.0 0
346944.0 265219.0 0
352948.0 265002.0 0
358287.0 263694.0 0
363845.0 264933.0 0
368593.0 264573.0 0
377268.0 262802.0 0
372512.0 265161.0 0
383138.0 264121.0 0
392800.0 263473.0 0
388493.0 265350.0 0
396705.0 265243.0 0
401640.0 263235.0 0
408632.0 266357.0 0
412947.0 266560.0 0
417500.0 264753.0 0
423648.0 265076.0 0
429096.0 263823.0 0
432842.0 265013.0 0
439590.0 265174.0 0
445089.0 264812.0 0
449568.0 264471.0 0
453926.0 264816.0 0
458040.0 266224.0 0
461736.0 264031.0 0
466240.0 265278.0 0
472013.0 265594.0 0
476633.0 262324.0 0
481392.0 264681.0 0
487083.0 265893.0 0
492809.0 266542.0 0
497597.0 265378.0 0
3506.51 270131.0 0
8912.79 269946.0 0
12819.1 268393.0 0
18046.2 270271.0 0
23735.0 269153.0 0
29008.9 269955.0 0
33721.2 269757.0 0
38524.4 270078.0 0
43678.3 271029.0 0
47739.5 268754.0 0
52007.6 270537.0 0
56981.6 271148.0 0
61798.8 270463.0 0
66402.2 270024.0 0
71636.4 269901.0 0
78213.4 270381.0 0
84124.7 269720.0 0
87689.9 271500.0 0
94101.4 268297.0 0
99301.1 269552.0 0
103855.0 270985.0 0
108323.0 269394.0 0
113640.0 269000.0 0
122401.0 268245.0 0
118193.0 270033.0 0
126901.0 270298.0 0
131346.0 269444.0 0
135414.0 268090.0 0
139977.0 269033.0 0
145209.0 269684.0 0
151696.0 269991.0 0
157476.0 270730.0 0
162242.0 269154.0 0
167856.0 269717.0 0
173479.0 270894.0 0
178671.0 269661.0 0
183512.0 269676.0 0
188846.0 267801.0 0
193419.0 270431.0 0
198177.0 268892.0 0
202245.0 270458.0 0
207029.0 270640.0 0
212396.0 269703.0 0
217331.0 269312.0 0
221955.0 268157.0 0
226307.0 270231.0 0
231245.0 269378.0 0
236066.0 269950.0 0
240753.0 269789.0 0
247346.0 269132.0 0
251733.0 267024.0 0
251815.0 271032.0 0
256839.0 269190.0 0
262040.0 269369.0 0
272446.0 270428.0 0
277762.0 268733.0 0
282663.0 268651.0 0
287531.0 270994.0 0
294256.0 270420.0 0
299718.0 270579.0 0
304162.0 268714.0 0
308982.0 269986.0 0
315351.0 271477.0 0
320371.0 270676.0 0
326080.0 270913.0 0
333138.0 270081.0 0
339123.0 270611.0 0
343417.0 269742.0 0
347349.0 270019.0 0
351788.0 270545.0 0
357542.0 269042.0 0
362996.0 269967.0 0
368190.0 269410.0 0
373369.0 268834.0 0
378044.0 267905.0 0
382794.0 270270.0 0
392117.0 268428.0 0
387989.0 271057.0 0
397060.0 269594.0 0
402875.0 269908.0 0
407562.0 269905.0 0
411391.0 270861.0 0
416297.0 269714.0 0
421523.0 269509.0 0
427084.0 268887.0 0
431832.0 271157.0 0
436286.0 268686.0 0
442631.0 270081.0 0
449568.0 270098.0 0
454950.0 269488.0 0
459039.0 270513.0 0
462494.0 268253.0 0
466455.0 270139.0 0
470802.0 270762.0 0
477069.0 266958.0 0
475077.0 270511.0 0
479819.0 271001.0 0
485466.0 271556.0 0
491396.0 270751.0 0
496534.0 270854.0 0
3164.75 276793.0 0
7862.13 274010.0 0
13200.0 274304.0 0
18016.5 276247.0 0
22913.6 274786.0 0
28302.8 275098.0 0
33684.3 274666.0 0
38744.0 275016.0 0
42462.3 274860.0 0
47500.0 274630.0 0
52553.8 274934.0 0
57794.8 276463.0 0
62773.8 274930.0 0
67039.7 274828.0 0
72935.3 275951.0 0
78321.3 276180.0 0
82589.4 274775.0 0
87056.9 275415.0 0
92062.9 273612.0 0
97670.0 274840.0 0
102295.0 274655.0 0
107408.0 275226.0 0
113345.0 274417.0 0
121263.0 273527.0 0
117556.0 275766.0 0
125799.0 276209.0 0
129842.0 273713.0 0
135563.0 273887.0 0
141817.0 273902.0 0
147635.0 276029.0 0
152827.0 275342.0 0
156970.0 275207.0 0
162573.0 275267.0 0
168622.0 275235.0 0
178553.0 274745.0 0
173691.0 276261.0 0
183152.0 276379.0 0
188022.0 273685.0 0
193390.0 275226.0 0
197885.0 273916.0 0
202724.0 274653.0 0
206553.0 275029.0 0
210430.0 274280.0 0
215945.0 273830.0 0
222047.0 274281.0 0
227905.0 274693.0 0
232880.0 273838.0 0
237585.0 274427.0 0
243272.0 274273.0 0
248651.0 274611.0 0
254431.0 274698.0 0
259260.0 274065.0 0
262894.0 275775.0 0
266362.0 272084.0 0
270748.0 274707.0 0
276854.0 273301.0 0
282776.0 274802.0 0
288020.0 276272.0 0
292344.0 275961.0 0
298260.0 274877.0 0
306012.0 274300.0 0
310172.0 275840.0 0
311335.0 273029.0 0
314042.0 276498.0 0
318461.0 274736.0 0
322500.0 274916.0 0
328894.0 275568.0 0
333243.0 276470.0 0
337001.0 274465.0 0
341106.0 274396.0 0
346167.0 274545.0 0
357131.0 274361.0 0
352128.0 276651.0 0
361935.0 274882.0 0
372168.0 273452.0 0
367467.0 276190.0 0
377867.0 273899.0 0
383976.0 276312.0 0
389039.0 275837.0 0
392971.0 273644.0 0
398548.0 275021.0 0
404603.0 275068.0 0
408304.0 275078.0 0
411599.0 275154.0 0
415647.0 274510.0 0
420773.0 274998.0 0
427257.0 275440.0 0
432707.0 275225.0 0
437828.0 275277.0 0
443860.0 276330.0 0
448901.0 276217.0 0
453717.0 274320.0 0
458590.0 274603.0 0
462383.0 272725.0 0
466459.0 275019.0 0
471669.0 275419.0 0
476747.0 275088.0 0
482128.0 275868.0 0
489728.0 274877.0 0
493001.0 276870.0 0
497150.0 276848.0 0
2175.07 282040.0 0
6289.78 280992.0 0
11599.3 280419.0 0
17536.7 280710.0 0
22464.0 280458.0 0
27690.4 280159.0 0
32846.6 280047.0 0
37849.5 279550.0 0
42860.5 279651.0 0
47500.0 279713.0 0
52500.0 279632.0 0
57472.5 280923.0 0
62273.8 279986.0 0
67614.2 279214.0 0
72220.4 281672.0 0
77002.7 280068.0 0
81629.0 279680.0 0
86240.3 279537.0 0
91741.4 280025.0 0
97809.9 280228.0 0
102672.0 279208.0 0
106904.0 281372.0 0
111197.0 279298.0 0
115542.0 280094.0 0
120821.0 279415.0 0
126024.0 281041.0 0
131563.0 279700.0 0
137594.0 280074.0 0
143037.0 280502.0 0
152349.0 279318.0 0
148528.0 281835.0 0
156789.0 279887.0 0
161266.0 281096.0 0
165885.0 279772.0 0
170834.0 280188.0 0
176318.0 280828.0 0
181167.0 279902.0 0
186212.0 281883.0 0
190760.0 278606.0 0
195939.0 279557.0 0
202305.0 278337.0 0
207061.0 280039.0 0
212726.0 278482.0 0
217397.0 278243.0 0
221356.0 279779.0 0
226137.0 279529.0 0
231908.0 278888.0 0
236946.0 281007.0 0
240964.0 278526.0 0
246412.0 280584.0 0
252563.0 279963.0 0
257915.0 278083.0 0
262456.0 280813.0 0
267399.0 277789.0 0
272700.0 278785.0 0
277803.0 278005.0 0
276171.0 282215.0 0
283390.0 281835.0 0
289951.0 280798.0 0
296028.0 280044.0 0
302060.0 278946.0 0
308474.0 279800.0 0
313690.0 281628.0 0
318480.0 279308.0 0
325764.0 279267.0 0
322154.0 282006.0 0
331003.0 281029.0 0
336304.0 280150.0 0
342217.0 279792.0 0
347985.0 280730.0 0
357703.0 280210.0 0
363359.0 279807.0 0
372121.0 279571.0 0
377588.0 279863.0 0
388195.0 280708.0 0
393851.0 279321.0 0
403549.0 280866.0 0
409206.0 281617.0 0
413406.0 279341.0 0
418012.0 279956.0 0
422328.0 280040.0 0
427433.0 282192.0 0
432985.0 279482.0 0
437053.0 280204.0 0
442558.0 281817.0 0
447415.0 279593.0 0
451704.0 280173.0 0
455865.0 278590.0 0
461829.0 279897.0 0
468603.0 280601.0 0
474670.0 280506.0 0
480001.0 279965.0 0
486595.0 280095.0 0
493169.0 281246.0 0
498364.0 281168.0 0
2647.89 286322.0 0
6704.61 284863.0 0
11883.6 287206.0 0
17237.5 285207.0 0
21689.6 285332.0 0
26625.9 285361.0 0
32269.8 285501.0 0
37800.7 284620.0 0
42911.0 284767.0 0
48373.5 284586.0 0
53049.3 284815.0 0
57491.6 285209.0 0
62500.0 284800.0 0
67351.0 284823.0 0
72974.1 286008.0 0
77091.1 284996.0 0
80946.4 284983.0 0
86599.3 284709.0 0
92663.2 286619.0 0
98143.2 285272.0 0
102894.0 284225.0 0
107106.0 286726.0 0
112144.0 284600.0 0
117790.0 284467.0 0
127516.0 284758.0 0
123041.0 286133.0 0
131672.0 286502.0 0
135065.0 283577.0 0
139799.0 286195.0 0
146651.0 287065.0 0
153463.0 285123.0 0
159449.0 285638.0 0
165973.0 284986.0 0
171471.0 285416.0 0
177285.0 287049.0 0
183210.0 287153.0 0
191903.0 283346.0 0
195973.0 287180.0 0
201279.0 283295.0 0
206450.0 286755.0 0
211908.0 284250.0 0
217633.0 282958.0 0
222978.0 284442.0 0
228697.0 284497.0 0
233725.0 283855.0 0
237005.0 285515.0 0
241160.0 283865.0 0
246202.0 287011.0 0
251724.0 285408.0 0
257149.0 282554.0 0
263442.0 286399.0 0
268863.0 283762.0 0
274451.0 286452.0 0
278992.0 285247.0 0
288549.0 285553.0 0
293654.0 285740.0 0
300132.0 285100.0 0
305205.0 283412.0 0
308806.0 285661.0 0
313394.0 286614.0 0
316736.0 284485.0 0
320551.0 286134.0 0
326661.0 285700.0 0
333857.0 285980.0 0
338664.0 284530.0 0
342797.0 285266.0 0
347414.0 285702.0 0
352468.0 282307.0 0
352856.0 287132.0 0
357814.0 285994.0 0
362635.0 284630.0 0
367024.0 286639.0 0
367612.0 282291.0 0
371853.0 285028.0 0
377428.0 285781.0 0
382625.0 286948.0 0
382663.0 282590.0 0
386621.0 286232.0 0
391984.0 285500.0 0
397811.0 283174.0 0
396545.0 287291.0 0
406988.0 285814.0 0
411810.0 285318.0 0
417021.0 284496.0 0
422571.0 285773.0 0
432182.0 286074.0 0
437977.0 285425.0 0
448191.0 284647.0 0
455972.0 284499.0 0
461568.0 286455.0 0
466229.0 285112.0 0
471904.0 286824.0 0
477529.0 285310.0 0
481988.0 283941.0 0
491854.0 286353.0 0
497015.0 285938.0 0
162837.0 288637.0 0
188844.0 287481.0 0
201252.0 288729.0 0
204508.0 291279.0 0
210830.0 289912.0 0
216457.0 288698.0 0
222506.0 290176.0 0
227993.0 289903.0 0
233969.0 288674.0 0
236589.0 292006.0 0
240354.0 289639.0 0
248975.0 291590.0 0
253450.0 290190.0 0
258355.0 287534.0 0
261338.0 290593.0 0
265818.0 291304.0 0
270645.0 289288.0 0
278561.0 290725.0 0
284444.0 288216.0 0
289797.0 290091.0 0
297090.0 290472.0 0
304946.0 287428.0 0
302338.0 291026.0 0
401645.0 287588.0 0
427263.0 287908.0 0
442947.0 287371.0 0
452073.0 287813.0 0
481334.0 287784.0 0
486494.0 287405.0 0
199650.0 293667.0 0
204536.0 295410.0 0
209538.0 294913.0 0
215771.0 294798.0 0
221176.0 295556.0 0
226694.0 295571.0 0
231520.0 293215.0 0
235374.0 295178.0 0
244589.0 292725.0 0
240464.0 295754.0 0
252361.0 295125.0 0
257880.0 293083.0 0
262146.0 293696.0 0
271427.0 294415.0 0
276372.0 296090.0 0
283413.0 292856.0 0
280887.0 295988.0 0
284524.0 297249.0 0
287219.0 294389.0 0
293184.0 294983.0 0
299438.0 295839.0 0
200636.0 299954.0 0
206893.0 299910.0 0
212414.0 299139.0 0
218239.0 300478.0 0
223384.0 299480.0 0
227381.0 301521.0 0
231859.0 298517.0 0
236762.0 298845.0 0
240989.0 301487.0 0
245813.0 297865.0 0
250608.0 299439.0 0
256839.0 299475.0 0
262905.0 297762.0 0
268012.0 298569.0 0
273321.0 300783.0 0
278842.0 299994.0 0
283257.0 300880.0 0
288771.0 299681.0 0
294251.0 300591.0 0
298306.0 300543.0 0
202234.0 306330.0 0
208374.0 305417.0 0
213631.0 304224.0 0
218726.0 305848.0 0
223751.0 305449.0 0
228265.0 306115.0 0
231707.0 303884.0 0
236124.0 302904.0 0
240618.0 305565.0 0
246406.0 303727.0 0
252235.0 304168.0 0
257452.0 305376.0 0
261595.0 302849.0 0
266651.0 303797.0 0
271774.0 305556.0 0
276869.0 304777.0 0
279520.0 307620.0 0
281042.0 303907.0 0
285860.0 304879.0 0
291424.0 304618.0 0
297253.0 305150.0 0
341742.0 307420.0 0
10310.7 309756.0 0
206195.0 310821.0 0
210400.0 309401.0 0
215259.0 309751.0 0
220872.0 310064.0 0
226546.0 311054.0 0
231262.0 308488.0 0
237028.0 308338.0 0
243181.0 308339.0 0
248834.0 309101.0 0
254694.0 309319.0 0
261833.0 308164.0 0
268381.0 310268.0 0
274574.0 308823.0 0
278599.0 311701.0 0
283521.0 309814.0 0
289138.0 309400.0 0
293889.0 308737.0 0
297878.0 311341.0 0
309756.0 311286.0 0
48261.5 317181.0 0
174681.0 316205.0 0
201893.0 313454.0 0
206295.0 316129.0 0
211484.0 314262.0 0
216955.0 315293.0 0
222320.0 314924.0 0
228102.0 315560.0 0
232186.0 313553.0 0
237104.0 313720.0 0
241952.0 313781.0 0
247708.0 314987.0 0
253281.0 314479.0 0
258661.0 312965.0 0
262736.0 315544.0 0
267383.0 316545.0 0
273087.0 315154.0 0
279181.0 317424.0 0
282796.0 314054.0 0
287081.0 315699.0 0
292913.0 313973.0 0
297805.0 317834.0 0
362467.0 317430.0 0
368610.0 317212.0 0
389098.0 316277.0 0
404603.0 314542.0 0
421499.0 315814.0 0
443009.0 315461.0 0
455114.0 315843.0 0
472319.0 316586.0 0
492537.0 317562.0 0
497243.0 315410.0 0
6878.9 319566.0 0
56374.4 321094.0 0
63868.7 321104.0 0
68827.6 322123.0 0
79658.9 322857.0 0
96187.4 321370.0 0
100416.0 320818.0 0
107589.0 322554.0 0
115161.0 322856.0 0
121008.0 322749.0 0
126005.0 320538.0 0
158565.0 322554.0 0
167796.0 319428.0 0
177286.0 320258.0 0
191569.0 321411.0 0
196244.0 322339.0 0
201418.0 318228.0 0
200918.0 322584.0 0
205201.0 321024.0 0
210497.0 319937.0 0
215586.0 319994.0 0
220150.0 319381.0 0
225561.0 319033.0 0
231456.0 319680.0 0
237550.0 318634.0 0
242322.0 321692.0 0
248059.0 321038.0 0
253784.0 319826.0 0
258814.0 318158.0 0
259008.0 322568.0 0
263575.0 320702.0 0
269199.0 321662.0 0
274261.0 320403.0 0
284270.0 320689.0 0
288777.0 320284.0 0
292737.0 319255.0 0
297407.0 322834.0 0
309917.0 322792.0 0
317421.0 319506.0 0
322450.0 320896.0 0
357807.0 319013.0 0
374583.0 319854.0 0
391311.0 322955.0 0
437044.0 319103.0 0
461586.0 319703.0 0
476569.0 319829.0 0
481239.0 320922.0 0
14254.8 324119.0 0
17655.2 327436.0 0
22442.4 325435.0 0
30433.9 325339.0 0
36537.1 325873.0 0
48339.7 328084.0 0
53010.0 328081.0 0
75161.9 324159.0 0
85031.3 323555.0 0
93065.2 327472.0 0
111005.0 324399.0 0
124379.0 327644.0 0
131855.0 324861.0 0
137504.0 323874.0 0
142262.0 326126.0 0
150902.0 327449.0 0
154054.0 323159.0 0
173221.0 325282.0 0
178042.0 327126.0 0
178735.0 323625.0 0
208066.0 324012.0 0
204123.0 325663.0 0
213387.0 324842.0 0
217886.0 323683.0 0
222360.0 323560.0 0
220144.0 327649.0 0
227494.0 324327.0 0
233049.0 325413.0 0
238162.0 324647.0 0
241753.0 326451.0 0
245398.0 325561.0 0
251016.0 325923.0 0
255476.0 324373.0 0
261765.0 324990.0 0
267212.0 326699.0 0
273088.0 324692.0 0
277790.0 324135.0 0
282127.0 324465.0 0
284645.0 326929.0 0
287714.0 324441.0 0
292916.0 324257.0 0
296793.0 327318.0 0
322451.0 325608.0 0
326630.0 326367.0 0
330913.0 326641.0 0
339605.0 325985.0 0
388726.0 327469.0 0
396056.0 324393.0 0
417127.0 325459.0 0
423600.0 323765.0 0
426612.0 327334.0 0
431907.0 328037.0 0
439714.0 326325.0 0
449230.0 325475.0 0
462790.0 326152.0 0
466760.0 324965.0 0
471850.0 323562.0 0
479717.0 326205.0 0
484429.0 326285.0 0
497839.0 324861.0 0
2631.23 332726.0 0
8033.11 329755.0 0
14588.8 330943.0 0
30589.4 331541.0 0
40985.6 330277.0 0
45936.2 331753.0 0
88220.9 329545.0 0
92904.6 332480.0 0
97919.2 329596.0 0
102310.0 331703.0 0
113050.0 331761.0 0
119140.0 329746.0 0
126262.0 331852.0 0
146000.0 329578.0 0
155278.0 330814.0 0
169989.0 330533.0 0
177584.0 331296.0 0
183101.0 332950.0 0
188940.0 331609.0 0
194769.0 332851.0 0
199592.0 330247.0 0
204471.0 330799.0 0
209379.0 328385.0 0
215131.0 330354.0 0
222165.0 331910.0 0
226001.0 329306.0 0
230748.0 330173.0 0
236431.0 329893.0 0
241465.0 330221.0 0
247361.0 331001.0 0
253440.0 330410.0 0
257871.0 328239.0 0
262767.0 329214.0 0
267261.0 332033.0 0
271735.0 329135.0 0
276206.0 330600.0 0
280735.0 328698.0 0
287847.0 329395.0 0
292466.0 329164.0 0
300418.0 329805.0 0
296279.0 332093.0 0
304781.0 330237.0 0
308686.0 329442.0 0
314013.0 332331.0 0
318277.0 329630.0 0
335045.0 329301.0 0
345114.0 328178.0 0
342101.0 331579.0 0
348027.0 331733.0 0
364943.0 330735.0 0
377600.0 331597.0 0
383597.0 330388.0 0
390690.0 331399.0 0
393964.0 329277.0 0
398809.0 331428.0 0
407296.0 328546.0 0
403236.0 332299.0 0
412976.0 330868.0 0
422388.0 329231.0 0
436080.0 329874.0 0
444222.0 328582.0 0
458451.0 328341.0 0
473827.0 332990.0 0
478880.0 331425.0 0
489239.0 329211.0 0
492521.0 333209.0 0
497266.0 332965.0 0
4198.95 337829.0 0
10165.2 335979.0 0
18911.2 333270.0 0
27252.5 335593.0 0
31965.1 338078.0 0
37311.7 333873.0 0
44551.6 337234.0 0
49617.5 338169.0 0
54909.3 334742.0 0
60744.6 335791.0 0
73247.1 337828.0 0
79797.1 338327.0 0
85759.2 334761.0 0
91010.0 334894.0 0
96476.5 333918.0 0
100409.0 336086.0 0
105708.0 334794.0 0
118044.0 337051.0 0
127597.0 336580.0 0
137141.0 333311.0 0
132697.0 335230.0 0
140009.0 337538.0 0
145853.0 337556.0 0
166524.0 334589.0 0
169946.0 338293.0 0
175197.0 336630.0 0
182128.0 338190.0 0
208811.0 333636.0 0
204265.0 336310.0 0
213062.0 336761.0 0
218473.0 335447.0 0
222834.0 335807.0 0
226682.0 334137.0 0
231914.0 335366.0 0
237331.0 335323.0 0
242513.0 334859.0 0
247199.0 337373.0 0
252148.0 335334.0 0
257596.0 333934.0 0
262718.0 333909.0 0
265962.0 337767.0 0
272505.0 334835.0 0
278336.0 334764.0 0
284049.0 333620.0 0
281461.0 338195.0 0
290870.0 334525.0 0
296148.0 338207.0 0
305452.0 334159.0 0
301824.0 337235.0 0
309712.0 333588.0 0
308855.0 338203.0 0
312806.0 337585.0 0
335177.0 336808.0 0
341691.0 336472.0 0
360423.0 334537.0 0
368691.0 333368.0 0
373639.0 335787.0 0
380959.0 336377.0 0
385630.0 335119.0 0
394399.0 334066.0 0
398411.0 335446.0 0
402468.0 337202.0 0
411664.0 338308.0 0
415149.0 335311.0 0
431773.0 333559.0 0
462565.0 335973.0 0
468005.0 337631.0 0
483291.0 335023.0 0
488293.0 336471.0 0
494690.0 337915.0 0
1396.57 340820.0 0
8211.08 339786.0 0
11918.4 341260.0 0
16619.4 340730.0 0
21754.5 339426.0 0
31750.6 342821.0 0
36111.9 342070.0 0
40529.6 341700.0 0
53511.7 339711.0 0
65233.2 338935.0 0
75981.4 342716.0 0
97591.4 339522.0 0
101262.0 340637.0 0
122206.0 339050.0 0
125707.0 340273.0 0
132217.0 341314.0 0
137709.0 342794.0 0
150246.0 340971.0 0
157949.0 339724.0 0
162385.0 340504.0 0
166757.0 343081.0 0
178325.0 340141.0 0
173828.0 341449.0 0
182590.0 342966.0 0
203658.0 341896.0 0
208547.0 339065.0 0
212203.0 341648.0 0
217020.0 342306.0 0
221567.0 339732.0 0
226410.0 339109.0 0
231065.0 340704.0 0
236978.0 341271.0 0
242625.0 339914.0 0
247381.0 341823.0 0
251053.0 340477.0 0
255680.0 339171.0 0
261566.0 339341.0 0
265058.0 342569.0 0
269944.0 341650.0 0
276209.0 340609.0 0
282286.0 343120.0 0
286547.0 339171.0 0
291600.0 341708.0 0
305237.0 340953.0 0
315850.0 341408.0 0
321608.0 341175.0 0
329672.0 339898.0 0
345721.0 341632.0 0
350533.0 339225.0 0
355714.0 340719.0 0
365233.0 343431.0 0
368277.0 338872.0 0
371514.0 343340.0 0
376826.0 340831.0 0
388242.0 338357.0 0
392773.0 342824.0 0
397327.0 340661.0 0
402414.0 341961.0 0
406830.0 339815.0 0
417627.0 340123.0 0
430432.0 342872.0 0
435876.0 341207.0 0
440796.0 338813.0 0
443743.0 343102.0 0
448497.0 341171.0 0
472750.0 338665.0 0
472922.0 342989.0 0
477904.0 343110.0 0
490331.0 341055.0 0
498185.0 341008.0 0
9024.03 344664.0 0
22141.1 344912.0 0
27556.0 345936.0 0
42506.5 345342.0 0
47221.1 346056.0 0
55083.1 343814.0 0
57767.7 347553.0 0
71070.7 344163.0 0
66580.2 347202.0 0
78233.1 348089.0 0
87177.6 345659.0 0
92596.3 348107.0 0
101304.0 345860.0 0
105416.0 346267.0 0
110427.0 348149.0 0
115988.0 343879.0 0
121376.0 344686.0 0
119859.0 348341.0 0
127453.0 343719.0 0
125026.0 347119.0 0
134374.0 345671.0 0
136920.0 345967.0 0
142940.0 345427.0 0
149278.0 347558.0 0
154955.0 346360.0 0
159503.0 345084.0 0
162950.0 347399.0 0
170964.0 344888.0 0
178110.0 344403.0 0
179935.0 347806.0 0
188435.0 344903.0 0
193838.0 347688.0 0
198317.0 344646.0 0
203056.0 347512.0 0
208378.0 344151.0 0
213341.0 346312.0 0
221980.0 344969.0 0
227546.0 344867.0 0
232985.0 345753.0 0
238357.0 347532.0 0
244057.0 345340.0 0
249438.0 345208.0 0
253948.0 345459.0 0
259246.0 343838.0 0
263774.0 346637.0 0
267946.0 346051.0 0
272624.0 346098.0 0
277954.0 346925.0 0
283112.0 348460.0 0
287474.0 345297.0 0
292418.0 347106.0 0
296040.0 343835.0 0
296770.0 347847.0 0
305768.0 348470.0 0
310186.0 344586.0 0
315912.0 347276.0 0
326129.0 344374.0 0
329885.0 346318.0 0
332766.0 344291.0 0
354804.0 348102.0 0
359390.0 344388.0 0
363529.0 348041.0 0
368250.0 348495.0 0
375763.0 346733.0 0
382983.0 343670.0 0
388117.0 347205.0 0
405524.0 344924.0 0
418256.0 345288.0 0
423877.0 345340.0 0
448865.0 346046.0 0
453540.0 347367.0 0
457751.0 344612.0 0
463509.0 344723.0 0
469551.0 346107.0 0
473869.0 347105.0 0
485101.0 347187.0 0
492549.0 344911.0 0
497345.0 345905.0 0
12432.9 350299.0 0
18261.9 350261.0 0
31572.7 352435.0 0
35807.4 349435.0 0
40409.5 350143.0 0
62118.9 349059.0 0
83627.4 350356.0 0
88024.8 351167.0 0
98112.3 351808.0 0
115498.0 349980.0 0
119756.0 352230.0 0
124322.0 351149.0 0
137186.0 353226.0 0
145130.0 349432.0 0
152637.0 350797.0 0
157044.0 350907.0 0
175791.0 349154.0 0
203858.0 352603.0 0
208545.0 349610.0 0
213778.0 351940.0 0
218090.0 348744.0 0
223563.0 349936.0 0
220569.0 352268.0 0
229117.0 349846.0 0
226351.0 352917.0 0
233954.0 350910.0 0
238253.0 352549.0 0
242606.0 351103.0 0
247749.0 349963.0 0
252019.0 348837.0 0
255731.0 350767.0 0
260668.0 349905.0 0
265246.0 350605.0 0
269757.0 350153.0 0
274722.0 351655.0 0
281329.0 352795.0 0
288063.0 351111.0 0
293498.0 351898.0 0
297687.0 351470.0 0
301355.0 349027.0 0
309180.0 349580.0 0
320548.0 351366.0 0
332502.0 349216.0 0
332244.0 353150.0 0
337497.0 349109.0 0
344487.0 350025.0 0
350089.0 349564.0 0
359342.0 349917.0 0
379842.0 349302.0 0
383935.0 349371.0 0
396224.0 351373.0 0
401114.0 353330.0 0
420703.0 349014.0 0
428710.0 348850.0 0
443846.0 351540.0 0
460614.0 352550.0 0
475351.0 352308.0 0
480010.0 348584.0 0
486287.0 352736.0 0
2385.26 355353.0 0
11457.4 356437.0 0
19755.7 354785.0 0
23726.9 356012.0 0
28043.2 356768.0 0
37894.0 356292.0 0
42563.5 354062.0 0
44669.6 358714.0 0
48901.4 356891.0 0
59411.4 355419.0 0
73236.5 354175.0 0
78993.3 356004.0 0
84814.5 356220.0 0
103476.0 355235.0 0
108327.0 356664.0 0
127047.0 355452.0 0
133529.0 355935.0 0
141682.0 355980.0 0
147366.0 357885.0 0
178009.0 356222.0 0
182816.0 355896.0 0
188845.0 355823.0 0
195076.0 358086.0 0
208192.0 355097.0 0
204160.0 358190.0 0
212578.0 356683.0 0
217785.0 355780.0 0
223050.0 355446.0 0
230382.0 354759.0 0
235444.0 355806.0 0
240613.0 356015.0 0
245912.0 355546.0 0
251486.0 353976.0 0
251786.0 358550.0 0
256377.0 355826.0 0
262296.0 354727.0 0
267793.0 354953.0 0
272932.0 356800.0 0
278141.0 356286.0 0
284593.0 355868.0 0
290622.0 356596.0 0
296245.0 356334.0 0
320417.0 356958.0 0
324961.0 356883.0 0
327915.0 353874.0 0
349617.0 356283.0 0
356286.0 357202.0 0
366109.0 357451.0 0
370489.0 357745.0 0
373783.0 354471.0 0
391305.0 354813.0 0
405441.0 355447.0 0
410203.0 357368.0 0
415232.0 355850.0 0
420447.0 356501.0 0
436061.0 357316.0 0
441295.0 355801.0 0
447423.0 355390.0 0
452098.0 357169.0 0
463371.0 356871.0 0
468386.0 354304.0 0
472620.0 357201.0 0
478625.0 357468.0 0
482264.0 355098.0 0
488314.0 356608.0 0
491602.0 354325.0 0
497634.0 358142.0 0
6006.39 359048.0 0
10348.0 361862.0 0
14357.0 362797.0 0
17629.3 360481.0 0
21199.3 362666.0 0
31549.5 359740.0 0
53337.5 358984.0 0
57735.5 358892.0 0
81396.9 360322.0 0
88732.5 361558.0 0
94615.6 362263.0 0
115852.0 362768.0 0
131487.0 359984.0 0
151889.0 361648.0 0
157006.0 360242.0 0
162148.0 359940.0 0
166764.0 358899.0 0
172721.0 359061.0 0
209164.0 360408.0 0
215354.0 361397.0 0
220770.0 360047.0 0
224006.0 362943.0 0
226883.0 358996.0 0
232128.0 359607.0 0
237585.0 360561.0 0
242778.0 359714.0 0
247721.0 361478.0 0
259918.0 358850.0 0
255622.0 360990.0 0
264635.0 359496.0 0
269280.0 359586.0 0
275519.0 361652.0 0
281930.0 361152.0 0
288210.0 361793.0 0
293994.0 361591.0 0
307859.0 360574.0 0
313339.0 362134.0 0
318165.0 361215.0 0
333604.0 362652.0 0
339112.0 359074.0 0
344315.0 361216.0 0
348224.0 363183.0 0
361855.0 360015.0 0
373349.0 360747.0 0
377846.0 361350.0 0
382120.0 360813.0 0
386421.0 361041.0 0
424465.0 359346.0 0
429055.0 358897.0 0
427235.0 362927.0 0
434662.0 362310.0 0
444444.0 361823.0 0
456612.0 362343.0 0
461368.0 363715.0 0
475464.0 360487.0 0
478873.0 363152.0 0
484076.0 361555.0 0
2520.43 367542.0 0
23714.1 366014.0 0
27712.9 366928.0 0
38956.9 367999.0 0
68853.9 367799.0 0
73503.4 365630.0 0
78745.3 367390.0 0
99835.6 365298.0 0
111992.0 367879.0 0
115835.0 368529.0 0
124424.0 364090.0 0
129417.0 364402.0 0
132091.0 367815.0 0
137331.0 365982.0 0
141484.0 367618.0 0
173534.0 367640.0 0
178121.0 366255.0 0
182877.0 364802.0 0
190151.0 365020.0 0
198863.0 366451.0 0
194183.0 368258.0 0
204654.0 363931.0 0
206269.0 368415.0 0
209967.0 365375.0 0
219386.0 365243.0 0
214398.0 367138.0 0
223679.0 367497.0 0
228640.0 364881.0 0
233709.0 363949.0 0
232442.0 368517.0 0
237555.0 366496.0 0
241572.0 363962.0 0
249657.0 366254.0 0
245281.0 366780.0 0
254569.0 366432.0 0
260848.0 364573.0 0
267623.0 364416.0 0
272996.0 366688.0 0
278528.0 366514.0 0
282829.0 366113.0 0
286461.0 366386.0 0
290881.0 366125.0 0
295659.0 366935.0 0
304833.0 365002.0 0
326082.0 367447.0 0
345183.0 365788.0 0
348323.0 367514.0 0
375332.0 364115.0 0
387759.0 367744.0 0
396070.0 366000.0 0
405148.0 366020.0 0
412280.0 363855.0 0
416386.0 365510.0 0
422843.0 368174.0 0
431756.0 366302.0 0
439138.0 364113.0 0
452850.0 365732.0 0
457920.0 367226.0 0
465572.0 365753.0 0
2231.65 375504.0 0
6209.86 375176.0 0
9978.77 375470.0 0
14189.0 375737.0 0
18718.2 375480.0 0
23687.1 375220.0 0
27374.5 375959.0 0
30662.9 375455.0 0
35462.6 369618.0 0
31330.3 370033.0 0
34558.5 375620.0 0
41732.8 375289.0 0
38086.7 375525.0 0
45336.5 375564.0 0
49608.4 375208.0 0
54329.5 375198.0 0
62198.9 372783.0 0
58563.1 375034.0 0
64039.6 368714.0 0
66491.7 375125.0 0
70001.6 375519.0 0
74865.4 375642.0 0
79433.6 371867.0 0
79058.9 375624.0 0
84165.3 370640.0 0
87026.9 375091.0 0
90692.8 375310.0 0
93940.7 375615.0 0
97522.1 375725.0 0
102135.0 370026.0 0
106851.0 368413.0 0
109686.0 375794.0 0
114024.0 375369.0 0
121925.0 370356.0 0
118190.0 375041.0 0
122789.0 375161.0 0
127136.0 375342.0 0
131275.0 376126.0 0
134501.0 375305.0 0
138156.0 375340.0 0
141752.0 375710.0 0
145503.0 375217.0 0
149753.0 375156.0 0
154190.0 375388.0 0
159512.0 375175.0 0
164250.0 375390.0 0
167769.0 375439.0 0
171269.0 375210.0 0
173826.0 375453.0 0
174193.0 377150.0 0
176727.0 375493.0 0
183796.0 375032.0 0
180437.0 375329.0 0
185807.0 371697.0 0
188500.0 375323.0 0
192528.0 375213.0 0
195079.0 377465.0 0
198257.0 375466.0 0
204429.0 371493.0 0
210285.0 369976.0 0
214521.0 371939.0 0
219017.0 370125.0 0
223354.0 372264.0 0
227934.0 370509.0 0
236397.0 371555.0 0
241365.0 369762.0 0
246281.0 372010.0 0
251153.0 370329.0 0
256398.0 372392.0 0
262952.0 371248.0 0
268131.0 369611.0 0
272146.0 371805.0 0
276969.0 371454.0 0
282192.0 370876.0 0
286544.0 370055.0 0
288332.0 373590.0 0
292220.0 370670.0 0
295798.0 373689.0 0
301041.0 375767.0 0
296214.0 370451.0 0
305805.0 375170.0 0
309748.0 375584.0 0
313763.0 375337.0 0
317503.0 375210.0 0
320302.0 375407.0 0
320801.0 368461.0 0
321827.0 377831.0 0
322850.0 375251.0 0
326414.0 375589.0 0
330044.0 376215.0 0
333910.0 375029.0 0
336839.0 371701.0 0
339284.0 369367.0 0
343690.0 369573.0 0
344307.0 375434.0 0
347789.0 375200.0 0
350506.0 375883.0 0
353146.0 375073.0 0
353398.0 368686.0 0
358464.0 375127.0 0
363007.0 375237.0 0
367251.0 375162.0 0
372414.0 375338.0 0
375892.0 375278.0 0
378452.0 371818.0 0
383344.0 375172.0 0
391971.0 368942.0 0
388216.0 375438.0 0
396978.0 375298.0 0
401799.0 375275.0 0
408795.0 375261.0 0
405482.0 376455.0 0
412327.0 375749.0 0
415428.0 375396.0 0
417562.0 369902.0 0
423480.0 375933.0 0
427130.0 375097.0 0
429259.0 370946.0 0
432519.0 375432.0 0
436856.0 375199.0 0
440556.0 371910.0 0
443050.0 375218.0 0
448779.0 369362.0 0
444480.0 370943.0 0
448896.0 375115.0 0
453303.0 375285.0 0
458006.0 376132.0 0
462617.0 375332.0 0
466415.0 375317.0 0
469606.0 375197.0 0
472737.0 375264.0 0
476496.0 375052.0 0
483973.0 371622.0 0
480826.0 375198.0 0
488519.0 369492.0 0
493887.0 368179.0 0
497379.0 375242.0 0
1494.06 378692.0 0
4123.12 380609.0 0
5910.42 378282.0 0
7870.2 381626.0 0
10202.7 378977.0 0
13997.9 379422.0 0
17774.0 379416.0 0
21891.3 378850.0 0
25500.2 379081.0 0
25077.8 382142.0 0
28884.6 379424.0 0
31877.1 378443.0 0
34934.9 379121.0 0
32069.9 381578.0 0
37612.7 378697.0 0
39996.3 377695.0 0
42512.1 378232.0 0
45106.5 378984.0 0
48081.9 378825.0 0
48466.8 382029.0 0
51903.5 378993.0 0
55574.9 378212.0 0
55602.1 381702.0 0
58270.8 377837.0 0
60035.7 380666.0 0
61448.9 376537.0 0
64144.2 376909.0 0
67695.8 378015.0 0
71331.3 378728.0 0
68955.3 380780.0 0
74378.9 380203.0 0
78031.4 378455.0 0
80640.1 377355.0 0
77552.5 381618.0 0
81626.3 380486.0 0
81606.0 375091.0 0
84267.8 377015.0 0
86103.6 380919.0 0
89286.4 378316.0 0
93741.5 379179.0 0
101390.0 375877.0 0
98171.8 379696.0 0
105376.0 376017.0 0
106216.0 379652.0 0
102411.0 379641.0 0
109562.0 380149.0 0
116158.0 377533.0 0
113133.0 379207.0 0
116167.0 381124.0 0
117802.0 379025.0 0
120510.0 377433.0 0
120896.0 381548.0 0
124258.0 378799.0 0
128225.0 379727.0 0
136121.0 378692.0 0
132479.0 380074.0 0
136239.0 382146.0 0
139980.0 379380.0 0
147819.0 377919.0 0
144218.0 379314.0 0
151666.0 378099.0 0
153338.0 380683.0 0
149050.0 381564.0 0
156767.0 379215.0 0
161740.0 378568.0 0
160619.0 381878.0 0
168257.0 378141.0 0
165109.0 378841.0 0
168060.0 381145.0 0
164482.0 382014.0 0
171434.0 378484.0 0
175111.0 379450.0 0
176268.0 382083.0 0
178675.0 378924.0 0
182069.0 377598.0 0
182809.0 380735.0 0
185861.0 377425.0 0
187081.0 381097.0 0
190543.0 379142.0 0
196860.0 380139.0 0
193814.0 380390.0 0
199502.0 379089.0 0
204131.0 375954.0 0
209898.0 375419.0 0
219072.0 374814.0 0
215055.0 376329.0 0
222758.0 376659.0 0
226790.0 375281.0 0
232149.0 375586.0 0
237574.0 375839.0 0
241702.0 374837.0 0
247418.0 376948.0 0
251388.0 374880.0 0
257644.0 377168.0 0
261109.0 376226.0 0
267875.0 375248.0 0
273184.0 376201.0 0
279249.0 375734.0 0
284079.0 375769.0 0
287773.0 377876.0 0
292148.0 376470.0 0
300616.0 379972.0 0
296077.0 378918.0 0
304310.0 378513.0 0
304719.0 381771.0 0
307612.0 378691.0 0
310786.0 378800.0 0
308595.0 381881.0 0
314044.0 378409.0 0
312158.0 381363.0 0
318030.0 378549.0 0
321193.0 381326.0 0
324585.0 378678.0 0
328048.0 380179.0 0
332134.0 379410.0 0
336909.0 378315.0 0
339850.0 375017.0 0
339986.0 381413.0 0
342168.0 378530.0 0
347198.0 379301.0 0
355058.0 377504.0 0
351636.0 378640.0 0
354985.0 381543.0 0
361958.0 377873.0 0
358635.0 379713.0 0
366145.0 379295.0 0
370367.0 378587.0 0
370915.0 382016.0 0
374241.0 378766.0 0
377651.0 380100.0 0
374951.0 382185.0 0
377858.0 376865.0 0
380466.0 376809.0 0
380935.0 380255.0 0
385446.0 379405.0 0
390067.0 379087.0 0
392354.0 375928.0 0
392607.0 381445.0 0
394808.0 379152.0 0
402845.0 378317.0 0
399121.0 379587.0 0
407300.0 379623.0 0
403911.0 381121.0 0
410668.0 378844.0 0
412020.0 381855.0 0
414763.0 378965.0 0
418313.0 380455.0 0
419232.0 376213.0 0
422099.0 380599.0 0
429186.0 377420.0 0
425882.0 379300.0 0
431210.0 380357.0 0
439848.0 377599.0 0
434986.0 379500.0 0
443700.0 379355.0 0
438633.0 381633.0 0
446164.0 376015.0 0
447634.0 380361.0 0
450338.0 377635.0 0
451584.0 381491.0 0
454374.0 379234.0 0
457290.0 381285.0 0
461085.0 379668.0 0
465499.0 378454.0 0
469759.0 378409.0 0
468241.0 382433.0 0
473803.0 378072.0 0
472311.0 381430.0 0
478799.0 378870.0 0
475601.0 381755.0 0
484015.0 376581.0 0
482784.0 380094.0 0
487784.0 375641.0 0
486427.0 379889.0 0
492570.0 375817.0 0
489985.0 379667.0 0
494056.0 380274.0 0
498028.0 378926.0 0
1488.9 381746.0 0
1677.57 384707.0 0
5013.27 383486.0 0
8980.92 385060.0 0
11775.7 382800.0 0
13104.1 386530.0 0
15953.8 383308.0 0
20848.0 383044.0 0
25293.2 385367.0 0
28317.4 382782.0 0
28338.1 386334.0 0
31751.4 385144.0 0
35966.3 382752.0 0
39507.9 385464.0 0
40351.8 381520.0 0
44596.1 382239.0 0
43021.4 385551.0 0
49826.2 385318.0 0
46997.5 385420.0 0
51618.7 382975.0 0
54852.2 385450.0 0
51908.0 387007.0 0
59102.7 384831.0 0
64309.2 381577.0 0
63165.8 386351.0 0
71697.3 382771.0 0
67785.0 384700.0 0
75337.9 385397.0 0
80329.4 384880.0 0
84181.6 384061.0 0
90506.7 382682.0 0
87186.1 385355.0 0
91181.5 386938.0 0
95309.8 383632.0 0
100305.0 382818.0 0
98561.7 385845.0 0
104521.0 383106.0 0
102254.0 386372.0 0
108637.0 383665.0 0
112865.0 383450.0 0
117376.0 384714.0 0
121730.0 386152.0 0
125753.0 383831.0 0
130560.0 383589.0 0
129293.0 386630.0 0
134019.0 383535.0 0
132761.0 386397.0 0
137009.0 386019.0 0
142159.0 382355.0 0
138919.0 382677.0 0
141314.0 385337.0 0
145308.0 383189.0 0
149440.0 385873.0 0
153168.0 384156.0 0
156827.0 383806.0 0
160090.0 385278.0 0
163075.0 385062.0 0
167235.0 384514.0 0
171886.0 382703.0 0
170253.0 387043.0 0
175600.0 386433.0 0
179596.0 382893.0 0
180761.0 385688.0 0
184406.0 384381.0 0
189230.0 384332.0 0
192212.0 382709.0 0
192972.0 385761.0 0
199114.0 382786.0 0
195366.0 383110.0 0
196199.0 386222.0 0
199299.0 385959.0 0
203275.0 381759.0 0
207100.0 380126.0 0
212532.0 380424.0 0
216882.0 379835.0 0
216016.0 383568.0 0
221035.0 380873.0 0
226468.0 380448.0 0
231395.0 380665.0 0
236689.0 380774.0 0
242958.0 380224.0 0
247770.0 381084.0 0
251618.0 379430.0 0
256139.0 380966.0 0
260893.0 380513.0 0
265885.0 380605.0 0
270733.0 379720.0 0
274014.0 383949.0 0
276174.0 380003.0 0
281508.0 380203.0 0
285885.0 381304.0 0
290790.0 381305.0 0
295609.0 383812.0 0
301318.0 383534.0 0
306072.0 385525.0 0
311472.0 384949.0 0
315982.0 382563.0 0
319852.0 384571.0 0
324561.0 381705.0 0
323125.0 384255.0 0
323940.0 386284.0 0
326859.0 384684.0 0
330932.0 383625.0 0
334186.0 382321.0 0
337093.0 382998.0 0
334730.0 386847.0 0
339719.0 385270.0 0
343518.0 382837.0 0
351496.0 381923.0 0
348435.0 384503.0 0
353858.0 386482.0 0
358284.0 383952.0 0
361971.0 382068.0 0
362535.0 386736.0 0
366664.0 384034.0 0
369986.0 386439.0 0
373536.0 385569.0 0
378491.0 384036.0 0
383318.0 383623.0 0
385545.0 386539.0 0
388265.0 383557.0 0
392964.0 385841.0 0
396405.0 382828.0 0
400613.0 384189.0 0
405281.0 384185.0 0
408601.0 382936.0 0
403537.0 386911.0 0
411779.0 385419.0 0
415517.0 383145.0 0
419721.0 384537.0 0
424548.0 383967.0 0
428076.0 382372.0 0
432219.0 383756.0 0
428986.0 386064.0 0
435920.0 383516.0 0
434309.0 385616.0 0
441713.0 383063.0 0
439002.0 385645.0 0
445473.0 383680.0 0
449317.0 385812.0 0
454099.0 383584.0 0
457526.0 385610.0 0
460561.0 383846.0 0
464085.0 382701.0 0
463279.0 385913.0 0
466968.0 386219.0 0
471820.0 384965.0 0
479903.0 383134.0 0
476305.0 385367.0 0
484570.0 384026.0 0
480646.0 386749.0 0
489312.0 383312.0 0
493415.0 384338.0 0
498136.0 382566.0 0
497824.0 385876.0 0
1192.73 387332.0 0
1969.79 390589.0 0
5450.87 387406.0 0
9958.09 388859.0 0
14452.2 390987.0 0
17574.5 387522.0 0
19419.9 391499.0 0
22261.9 387637.0 0
23512.8 391377.0 0
26467.1 388987.0 0
30824.1 389896.0 0
35414.8 387444.0 0
34802.0 391721.0 0
39136.0 388167.0 0
38587.9 391343.0 0
41854.6 388661.0 0
45147.3 388057.0 0
41600.5 391629.0 0
44695.2 391672.0 0
49023.2 389216.0 0
54393.1 389895.0 0
56695.6 387670.0 0
59305.8 388883.0 0
62756.2 390874.0 0
66657.3 388536.0 0
71027.8 386885.0 0
70041.4 390363.0 0
74392.3 390278.0 0
78965.5 388932.0 0
83731.4 388336.0 0
87589.5 388923.0 0
95016.2 388662.0 0
99299.2 389656.0 0
106719.0 387615.0 0
103599.0 390151.0 0
111288.0 387187.0 0
109480.0 390740.0 0
114844.0 387281.0 0
118627.0 389300.0 0
126404.0 389145.0 0
122642.0 388886.0 0
130674.0 388822.0 0
134720.0 390233.0 0
140392.0 389917.0 0
145136.0 387111.0 0
145422.0 390821.0 0
149229.0 389561.0 0
152219.0 392201.0 0
154140.0 388588.0 0
158076.0 387196.0 0
161226.0 388152.0 0
158515.0 390849.0 0
162937.0 391325.0 0
165355.0 387923.0 0
168077.0 390839.0 0
172281.0 389918.0 0
175493.0 391469.0 0
183396.0 387899.0 0
179756.0 389418.0 0
187114.0 388087.0 0
190869.0 387973.0 0
189325.0 391242.0 0
194060.0 389885.0 0
198759.0 389660.0 0
203437.0 385347.0 0
209236.0 385879.0 0
214583.0 387038.0 0
220015.0 385811.0 0
225192.0 385939.0 0
230537.0 385314.0 0
235436.0 386191.0 0
240027.0 385399.0 0
245812.0 386021.0 0
252785.0 385983.0 0
259148.0 385351.0 0
263627.0 384760.0 0
265262.0 388782.0 0
269690.0 384858.0 0
278002.0 385260.0 0
282866.0 384613.0 0
286674.0 384969.0 0
290855.0 386774.0 0
301250.0 387704.0 0
304834.0 389134.0 0
305904.0 391696.0 0
309652.0 388930.0 0
316117.0 387701.0 0
313281.0 390221.0 0
315744.0 392004.0 0
321400.0 387387.0 0
320235.0 390708.0 0
325774.0 389987.0 0
329992.0 387377.0 0
331412.0 391162.0 0
335781.0 391693.0 0
339294.0 389011.0 0
339403.0 392140.0 0
344213.0 387876.0 0
346544.0 391659.0 0
349454.0 388749.0 0
350124.0 391785.0 0
353375.0 390973.0 0
358776.0 387617.0 0
357537.0 390957.0 0
366768.0 389398.0 0
362185.0 390780.0 0
371709.0 389452.0 0
376441.0 388356.0 0
381375.0 387228.0 0
379913.0 391109.0 0
384444.0 390017.0 0
389210.0 388830.0 0
397290.0 387200.0 0
394143.0 391609.0 0
400825.0 388449.0 0
398939.0 390604.0 0
407708.0 387445.0 0
403576.0 391165.0 0
408103.0 391166.0 0
411978.0 389417.0 0
416028.0 387411.0 0
415663.0 391778.0 0
422277.0 387324.0 0
419537.0 389762.0 0
425966.0 387848.0 0
432598.0 388134.0 0
428811.0 390775.0 0
435982.0 386817.0 0
437126.0 389900.0 0
440399.0 388610.0 0
443716.0 387081.0 0
446800.0 390473.0 0
451790.0 390174.0 0
453824.0 387114.0 0
457022.0 390440.0 0
460650.0 387455.0 0
464011.0 388890.0 0
461399.0 390634.0 0
467471.0 390268.0 0
470209.0 388011.0 0
473779.0 389130.0 0
470983.0 391328.0 0
477832.0 388750.0 0
476515.0 391580.0 0
484089.0 388276.0 0
480946.0 391013.0 0
488694.0 387711.0 0
485562.0 391277.0 0
489158.0 391474.0 0
493522.0 389121.0 0
498174.0 389670.0 0
1969.64 394438.0 0
6339.3 392378.0 0
9035.99 395363.0 0
5729.78 397176.0 0
10478.6 392529.0 0
12337.3 395266.0 0
16920.0 395480.0 0
22676.0 395483.0 0
27347.8 393097.0 0
32214.1 395289.0 0
37429.5 395171.0 0
41443.1 394368.0 0
44868.8 396304.0 0
48049.8 393641.0 0
51488.2 392339.0 0
54496.4 394275.0 0
58135.0 392565.0 0
61584.5 394959.0 0
66517.3 393120.0 0
64895.1 396843.0 0
71195.3 393822.0 0
75174.5 394804.0 0
78079.6 392446.0 0
79706.1 396352.0 0
81939.9 392012.0 0
85987.8 392141.0 0
84096.0 395198.0 0
90749.5 392044.0 0
87744.8 395891.0 0
96041.3 393391.0 0
101051.0 393812.0 0
106331.0 393480.0 0
110539.0 394329.0 0
114200.0 391601.0 0
116225.0 395471.0 0
112966.0 396538.0 0
119061.0 393518.0 0
119396.0 396701.0 0
122570.0 391883.0 0
126289.0 394056.0 0
122634.0 395950.0 0
130128.0 392052.0 0
129906.0 396375.0 0
137425.0 393991.0 0
133369.0 394236.0 0
143083.0 394538.0 0
147761.0 397061.0 0
148398.0 393292.0 0
152184.0 395446.0 0
155645.0 393327.0 0
155977.0 397196.0 0
160080.0 394821.0 0
165564.0 394444.0 0
171353.0 394131.0 0
175799.0 395097.0 0
179653.0 393672.0 0
182883.0 396729.0 0
184475.0 391983.0 0
187705.0 395135.0 0
192457.0 393925.0 0
197781.0 394369.0 0
204345.0 390190.0 0
213858.0 390421.0 0
209592.0 393116.0 0
217538.0 389599.0 0
222067.0 390538.0 0
227222.0 390740.0 0
232703.0 390613.0 0
238333.0 390213.0 0
242761.0 390173.0 0
242064.0 394452.0 0
247558.0 391737.0 0
251425.0 390778.0 0
255398.0 391589.0 0
260413.0 390532.0 0
270744.0 391048.0 0
275932.0 389524.0 0
275794.0 394132.0 0
281070.0 390480.0 0
286508.0 389403.0 0
290775.0 392165.0 0
295759.0 389661.0 0
301752.0 392237.0 0
305654.0 395102.0 0
301326.0 396402.0 0
308647.0 392907.0 0
309930.0 395765.0 0
312164.0 392826.0 0
314468.0 396231.0 0
318487.0 394103.0 0
323210.0 394911.0 0
328668.0 395176.0 0
333687.0 395705.0 0
338437.0 395463.0 0
342472.0 392310.0 0
345286.0 394461.0 0
342814.0 395840.0 0
348656.0 395011.0 0
352407.0 393927.0 0
355736.0 394917.0 0
360723.0 395155.0 0
365411.0 393500.0 0
369460.0 392077.0 0
369412.0 396223.0 0
374678.0 393271.0 0
379809.0 395072.0 0
383187.0 393360.0 0
387810.0 393574.0 0
383638.0 396537.0 0
391644.0 396767.0 0
396075.0 395566.0 0
399276.0 393606.0 0
403038.0 395412.0 0
407054.0 394475.0 0
411522.0 393474.0 0
415516.0 396396.0 0
419512.0 393878.0 0
423450.0 396109.0 0
424016.0 391600.0 0
427222.0 394694.0 0
433473.0 392083.0 0
430403.0 394333.0 0
437619.0 394046.0 0
433702.0 396421.0 0
442114.0 392160.0 0
441147.0 396273.0 0
445828.0 395871.0 0
449563.0 393639.0 0
453669.0 394019.0 0
457530.0 394780.0 0
460874.0 394103.0 0
464628.0 392968.0 0
468964.0 394646.0 0
473451.0 393564.0 0
478179.0 395353.0 0
482934.0 393978.0 0
487026.0 394892.0 0
492416.0 393526.0 0
497600.0 393331.0 0
498869.0 396784.0 0
1499.82 398013.0 0
2892.01 402112.0 0
10002.2 398327.0 0
7711.3 400998.0 0
13391.0 398854.0 0
11456.5 402191.0 0
20041.7 398471.0 0
17037.0 402302.0 0
22826.9 400576.0 0
27012.4 397792.0 0
31830.2 400721.0 0
36396.9 398945.0 0
40716.7 398109.0 0
38590.2 400565.0 0
45032.1 400137.0 0
50768.2 398023.0 0
54836.6 401434.0 0
57354.5 397420.0 0
58738.2 401534.0 0
61895.2 399258.0 0
66187.9 400509.0 0
68849.4 397225.0 0
71235.3 400826.0 0
72352.5 397206.0 0
75229.6 398867.0 0
78838.2 400995.0 0
84226.5 399620.0 0
88629.4 399829.0 0
92481.6 396996.0 0
95036.8 399699.0 0
98293.3 398024.0 0
103754.0 398102.0 0
106803.0 401873.0 0
108792.0 397567.0 0
116738.0 398896.0 0
112368.0 400980.0 0
121720.0 400304.0 0
126288.0 398378.0 0
129839.0 400059.0 0
134187.0 398365.0 0
139168.0 397655.0 0
143442.0 399955.0 0
151666.0 399141.0 0
147893.0 400593.0 0
155255.0 401504.0 0
160165.0 399859.0 0
163349.0 397248.0 0
168370.0 397864.0 0
164846.0 399839.0 0
178354.0 397099.0 0
173930.0 399408.0 0
179462.0 400106.0 0
183493.0 400723.0 0
186853.0 399347.0 0
191058.0 398162.0 0
194557.0 397388.0 0
196676.0 398921.0 0
194298.0 400738.0 0
198211.0 401909.0 0
199332.0 398386.0 0
203172.0 394991.0 0
206712.0 398608.0 0
215282.0 394612.0 0
219670.0 395101.0 0
222666.0 394637.0 0
226657.0 396404.0 0
231916.0 395662.0 0
236953.0 395328.0 0
242687.0 399075.0 0
246533.0 396532.0 0
252500.0 395029.0 0
251861.0 399247.0 0
255593.0 396317.0 0
260399.0 395763.0 0
266043.0 395126.0 0
271306.0 396912.0 0
280565.0 396333.0 0
285921.0 394510.0 0
290047.0 397907.0 0
295317.0 395757.0 0
304945.0 398812.0 0
301638.0 401257.0 0
308126.0 398476.0 0
311489.0 399430.0 0
315695.0 400412.0 0
318886.0 397939.0 0
319535.0 401830.0 0
322294.0 399072.0 0
326046.0 399012.0 0
331143.0 400024.0 0
336255.0 399307.0 0
341048.0 399079.0 0
346199.0 398401.0 0
352081.0 398140.0 0
357082.0 398728.0 0
360814.0 399101.0 0
359164.0 401876.0 0
364599.0 397523.0 0
363416.0 401107.0 0
372042.0 400371.0 0
367588.0 400559.0 0
373884.0 397660.0 0
377322.0 397667.0 0
375514.0 400003.0 0
380555.0 398250.0 0
378840.0 400778.0 0
386849.0 397938.0 0
383458.0 400911.0 0
388702.0 400798.0 0
395567.0 398588.0 0
392973.0 401291.0 0
396979.0 401453.0 0
399183.0 397844.0 0
400601.0 401836.0 0
406264.0 397277.0 0
403299.0 399355.0 0
407076.0 400753.0 0
410457.0 398154.0 0
414461.0 401321.0 0
419841.0 399333.0 0
426669.0 398063.0 0
424304.0 400108.0 0
428008.0 401625.0 0
429730.0 397717.0 0
432683.0 400645.0 0
437551.0 398868.0 0
443020.0 399872.0 0
439752.0 401552.0 0
447688.0 400446.0 0
450652.0 397458.0 0
452755.0 401473.0 0
455426.0 397975.0 0
459798.0 397860.0 0
462147.0 400351.0 0
464360.0 397082.0 0
468356.0 398430.0 0
465654.0 401102.0 0
473120.0 397725.0 0
469842.0 401707.0 0
474053.0 401926.0 0
478532.0 400425.0 0
482788.0 397552.0 0
483965.0 401892.0 0
486489.0 399079.0 0
490574.0 398085.0 0
494000.0 401428.0 0
495361.0 397161.0 0
498289.0 400081.0 0
8017.33 405122.0 0
12723.6 406638.0 0
22174.2 404981.0 0
26759.0 402620.0 0
26154.7 406907.0 0
31164.3 406011.0 0
36460.4 403540.0 0
40790.9 407193.0 0
41320.9 402402.0 0
45722.1 405385.0 0
48086.9 402088.0 0
51468.8 404623.0 0
56936.3 405747.0 0
62414.2 404225.0 0
67830.3 404604.0 0
75011.2 402162.0 0
72887.3 405138.0 0
77366.7 405129.0 0
79960.0 406973.0 0
82162.9 403868.0 0
87295.0 404267.0 0
96826.0 402072.0 0
92341.8 402491.0 0
91912.1 406866.0 0
96685.7 405830.0 0
101136.0 403020.0 0
104667.0 405999.0 0
110052.0 406413.0 0
114640.0 405031.0 0
117448.0 402803.0 0
121459.0 405357.0 0
117639.0 406487.0 0
126796.0 403440.0 0
132735.0 403633.0 0
138082.0 402177.0 0
142346.0 404855.0 0
138143.0 406755.0 0
146204.0 403342.0 0
150597.0 403869.0 0
154220.0 405758.0 0
158589.0 404728.0 0
164057.0 404050.0 0
168976.0 402592.0 0
172779.0 404164.0 0
176923.0 403583.0 0
181639.0 403737.0 0
179384.0 407157.0 0
186066.0 403383.0 0
184319.0 407123.0 0
190332.0 402272.0 0
189193.0 406652.0 0
194506.0 405280.0 0
199041.0 405500.0 0
202500.0 399902.0 0
203166.0 404672.0 0
209249.0 402860.0 0
213377.0 399931.0 0
217900.0 399862.0 0
217895.0 404608.0 0
222500.0 399726.0 0
228113.0 401640.0 0
233081.0 400224.0 0
237957.0 400160.0 0
241651.0 403712.0 0
247814.0 400746.0 0
256055.0 400523.0 0
260488.0 400814.0 0
265254.0 400481.0 0
262451.0 404545.0 0
270231.0 402233.0 0
276167.0 400433.0 0
284560.0 400236.0 0
280647.0 402991.0 0
289390.0 403267.0 0
295375.0 402442.0 0
302551.0 405770.0 0
307591.0 403170.0 0
312731.0 402837.0 0
312254.0 406814.0 0
316492.0 404343.0 0
320696.0 405458.0 0
323437.0 402187.0 0
325329.0 405754.0 0
327461.0 402395.0 0
330262.0 405326.0 0
334576.0 403139.0 0
339115.0 402406.0 0
337811.0 405628.0 0
341667.0 406073.0 0
343918.0 402332.0 0
346702.0 406217.0 0
349307.0 402136.0 0
351824.0 406264.0 0
354477.0 402195.0 0
362232.0 404684.0 0
357282.0 406286.0 0
366261.0 404442.0 0
370594.0 403840.0 0
369022.0 407201.0 0
375487.0 403665.0 0
379994.0 404386.0 0
383341.0 405412.0 0
386534.0 404150.0 0
390714.0 405326.0 0
394988.0 404068.0 0
398917.0 405438.0 0
404428.0 404379.0 0
410165.0 404184.0 0
418167.0 403798.0 0
414681.0 406048.0 0
423073.0 404017.0 0
427531.0 405939.0 0
431410.0 404365.0 0
436488.0 404260.0 0
441230.0 403538.0 0
444860.0 404078.0 0
449533.0 404925.0 0
457881.0 402102.0 0
454666.0 405715.0 0
458774.0 406616.0 0
462288.0 404086.0 0
466938.0 405159.0 0
472062.0 406413.0 0
476573.0 404870.0 0
480618.0 404998.0 0
488917.0 402430.0 0
485830.0 406207.0 0
489545.0 405871.0 0
492733.0 405049.0 0
497697.0 403891.0 0
2985.73 407870.0 0
8648.17 410149.0 0
13860.8 412021.0 0
17948.0 407959.0 0
18901.7 411909.0 0
22858.2 409816.0 0
27947.3 410449.0 0
32020.8 410545.0 0
36024.9 408474.0 0
39742.9 412261.0 0
44869.3 410834.0 0
48951.7 408692.0 0
53041.9 409127.0 0
60816.4 408638.0 0
57082.8 409730.0 0
64792.4 407960.0 0
64250.1 412177.0 0
69608.5 409663.0 0
75182.5 409324.0 0
79619.2 410192.0 0
83601.5 407670.0 0
83925.5 411979.0 0
87682.8 409038.0 0
91177.5 410529.0 0
95942.3 410164.0 0
100899.0 408739.0 0
106002.0 410130.0 0
110947.0 411741.0 0
114904.0 408953.0 0
119465.0 409589.0 0
124959.0 409356.0 0
129652.0 407436.0 0
130060.0 412129.0 0
133915.0 408544.0 0
142452.0 409429.0 0
138434.0 411135.0 0
146619.0 407315.0 0
146499.0 411843.0 0
151032.0 409126.0 0
156069.0 409581.0 0
161656.0 408955.0 0
165630.0 407596.0 0
165883.0 410294.0 0
169605.0 407908.0 0
173015.0 411873.0 0
174554.0 407504.0 0
177029.0 410438.0 0
181596.0 411341.0 0
187304.0 411102.0 0
192943.0 410788.0 0
198041.0 408930.0 0
207546.0 406939.0 0
212925.0 405342.0 0
217886.0 409642.0 0
222343.0 404735.0 0
221901.0 409643.0 0
226380.0 406064.0 0
231488.0 404912.0 0
236446.0 404911.0 0
247133.0 405853.0 0
253270.0 404959.0 0
258488.0 405143.0 0
256610.0 409584.0 0
261491.0 409619.0 0
266586.0 406154.0 0
273890.0 405773.0 0
278311.0 406159.0 0
282505.0 406010.0 0
286302.0 407073.0 0
290639.0 407877.0 0
295658.0 408935.0 0
301756.0 410292.0 0
307297.0 408930.0 0
312234.0 411890.0 0
317255.0 408872.0 0
322500.0 409736.0 0
327538.0 409351.0 0
331235.0 409428.0 0
334250.0 407472.0 0
334584.0 411911.0 0
338513.0 409589.0 0
343588.0 410834.0 0
349114.0 410812.0 0
354259.0 410815.0 0
361416.0 407831.0 0
360140.0 411987.0 0
365190.0 408962.0 0
370089.0 411385.0 0
373075.0 407653.0 0
375352.0 411451.0 0
377593.0 407856.0 0
381572.0 408351.0 0
379312.0 411664.0 0
386199.0 408553.0 0
383020.0 412035.0 0
390704.0 410070.0 0
394779.0 407682.0 0
394434.0 411383.0 0
402543.0 408545.0 0
398495.0 410469.0 0
407426.0 408906.0 0
411882.0 408342.0 0
414797.0 409478.0 0
418908.0 408275.0 0
421118.0 411988.0 0
424167.0 409001.0 0
430515.0 407258.0 0
433364.0 407830.0 0
428978.0 410337.0 0
433415.0 411879.0 0
437208.0 409288.0 0
441244.0 407117.0 0
440907.0 411114.0 0
445969.0 408576.0 0
444103.0 411849.0 0
451518.0 409792.0 0
456137.0 409068.0 0
463501.0 408286.0 0
459898.0 410637.0 0
467857.0 409923.0 0
472224.0 411072.0 0
477187.0 409447.0 0
482093.0 408637.0 0
485508.0 410495.0 0
490890.0 410442.0 0
495268.0 407322.0 0
498538.0 407387.0 0
497352.0 411241.0 0
3902.78 413386.0 0
1693.34 417178.0 0
9100.63 414858.0 0
13172.1 417319.0 0
18104.0 416091.0 0
21698.9 413521.0 0
25589.0 413798.0 0
22663.7 416807.0 0
35125.4 412721.0 0
30774.7 415059.0 0
36682.5 416950.0 0
45719.1 415101.0 0
41945.6 416393.0 0
49716.4 413000.0 0
48511.2 416974.0 0
54606.8 413103.0 0
52450.2 417146.0 0
59226.6 412568.0 0
57229.2 416749.0 0
61283.5 415856.0 0
68801.7 414620.0 0
73026.4 413579.0 0
75959.1 416764.0 0
76744.1 412891.0 0
80096.8 414418.0 0
84086.6 416079.0 0
88264.0 414054.0 0
93080.5 413591.0 0
96506.0 415755.0 0
99298.8 412852.0 0
100766.0 416793.0 0
103179.0 413182.0 0
105438.0 417241.0 0
107218.0 413801.0 0
110819.0 416788.0 0
116289.0 413541.0 0
121463.0 413168.0 0
120535.0 416966.0 0
125562.0 414674.0 0
134763.0 412458.0 0
133602.0 415452.0 0
142250.0 413964.0 0
137729.0 415232.0 0
147245.0 416445.0 0
143779.0 416940.0 0
150702.0 413478.0 0
155056.0 414375.0 0
159142.0 413034.0 0
160186.0 417107.0 0
163419.0 413462.0 0
164908.0 417240.0 0
168603.0 413608.0 0
172792.0 417070.0 0
176963.0 414337.0 0
180903.0 415899.0 0
184607.0 414754.0 0
188877.0 416069.0 0
193820.0 416168.0 0
198062.0 413395.0 0
203488.0 409966.0 0
208148.0 411504.0 0
213106.0 410558.0 0
225672.0 410382.0 0
230660.0 410375.0 0
236442.0 410131.0 0
242293.0 409855.0 0
247977.0 411391.0 0
252132.0 409928.0 0
266527.0 411962.0 0
271911.0 410057.0 0
277290.0 411299.0 0
282881.0 410369.0 0
288118.0 412126.0 0
292940.0 413333.0 0
297046.0 414049.0 0
305182.0 412935.0 0
301653.0 415176.0 0
305736.0 416566.0 0
308349.0 413593.0 0
309799.0 416839.0 0
313689.0 416182.0 0
317173.0 413542.0 0
325525.0 412472.0 0
321813.0 414362.0 0
325908.0 416024.0 0
329976.0 413561.0 0
334344.0 416521.0 0
339091.0 414579.0 0
343479.0 415041.0 0
351454.0 414576.0 0
347249.0 415861.0 0
355914.0 415938.0 0
365477.0 414311.0 0
369649.0 415776.0 0
373281.0 414447.0 0
377735.0 415732.0 0
387406.0 413515.0 0
382887.0 416244.0 0
392152.0 413794.0 0
390639.0 416526.0 0
396763.0 415000.0 0
400484.0 413210.0 0
401708.0 416134.0 0
403835.0 412482.0 0
407798.0 412244.0 0
407213.0 416221.0 0
411359.0 412433.0 0
416487.0 413407.0 0
420832.0 415750.0 0
425512.0 414235.0 0
430086.0 414417.0 0
433645.0 416986.0 0
437667.0 413682.0 0
442665.0 415820.0 0
447369.0 413068.0 0
451322.0 414643.0 0
455810.0 413150.0 0
460726.0 414829.0 0
464246.0 412374.0 0
464592.0 416214.0 0
469471.0 415094.0 0
474722.0 413185.0 0
477971.0 414376.0 0
474508.0 416736.0 0
481673.0 412530.0 0
481649.0 416997.0 0
486191.0 414931.0 0
494239.0 414808.0 0
490541.0 416570.0 0
498015.0 415932.0 0
2441.79 421251.0 0
5787.36 418059.0 0
9445.21 418954.0 0
12222.9 422001.0 0
20048.7 419683.0 0
16655.8 420698.0 0
23289.4 420604.0 0
26503.1 417816.0 0
29452.1 418776.0 0
28068.8 422494.0 0
32596.0 419998.0 0
36383.6 421778.0 0
40493.8 420555.0 0
45219.2 419432.0 0
49646.7 420262.0 0
55410.0 421594.0 0
60716.2 419922.0 0
65120.6 417547.0 0
65021.1 422381.0 0
70734.6 419867.0 0
76104.8 421423.0 0
80605.3 419192.0 0
83907.5 422340.0 0
87338.0 419282.0 0
92035.6 417413.0 0
92361.2 422334.0 0
97275.9 420134.0 0
102463.0 422020.0 0
108133.0 421444.0 0
115947.0 418792.0 0
112295.0 421376.0 0
120262.0 421776.0 0
124765.0 419533.0 0
129652.0 417539.0 0
135337.0 420346.0 0
140613.0 418332.0 0
144564.0 420307.0 0
151937.0 417729.0 0
148941.0 420995.0 0
156139.0 418351.0 0
153875.0 422249.0 0
158716.0 421287.0 0
162617.0 420450.0 0
166326.0 420889.0 0
168695.0 418217.0 0
170682.0 421591.0 0
177810.0 419658.0 0
174179.0 422380.0 0
183983.0 419347.0 0
188320.0 420535.0 0
191502.0 419362.0 0
198063.0 418526.0 0
194410.0 420243.0 0
301990.0 419327.0 0
306887.0 421372.0 0
312587.0 420490.0 0
318308.0 418981.0 0
323724.0 419582.0 0
329745.0 419162.0 0
334303.0 420832.0 0
338276.0 419505.0 0
342854.0 418622.0 0
351472.0 418773.0 0
347045.0 420743.0 0
356806.0 421470.0 0
361207.0 417645.0 0
361991.0 422235.0 0
365493.0 418673.0 0
369098.0 419432.0 0
373170.0 418285.0 0
376592.0 420913.0 0
380207.0 419336.0 0
387280.0 418343.0 0
383800.0 421080.0 0
393599.0 419989.0 0
398826.0 419125.0 0
403405.0 421062.0 0
412821.0 417523.0 0
409325.0 421530.0 0
417724.0 418810.0 0
423501.0 420117.0 0
428650.0 418289.0 0
431649.0 422300.0 0
438177.0 417365.0 0
436579.0 420817.0 0
440349.0 419792.0 0
447716.0 417587.0 0
444186.0 421060.0 0
452779.0 418954.0 0
457335.0 417466.0 0
456683.0 421934.0 0
461611.0 419832.0 0
467039.0 419993.0 0
471889.0 420242.0 0
478104.0 417726.0 0
476512.0 420688.0 0
481249.0 421344.0 0
485262.0 419348.0 0
489503.0 420877.0 0
494232.0 418825.0 0
498012.0 419766.0 0
2781.52 426264.0 0
7313.8 422904.0 0
7368.96 427362.0 0
11232.7 426332.0 0
15562.2 425063.0 0
20173.9 423771.0 0
18807.9 427694.0 0
24086.6 424163.0 0
33069.9 424555.0 0
38954.1 425767.0 0
43219.3 423298.0 0
44380.4 427561.0 0
47219.3 423473.0 0
49812.9 427397.0 0
51175.9 423362.0 0
55340.6 427410.0 0
60313.5 424648.0 0
64849.9 427164.0 0
68669.5 424946.0 0
72813.8 425421.0 0
80760.3 423263.0 0
77803.6 425781.0 0
82708.0 426329.0 0
87485.7 424843.0 0
97300.9 425854.0 0
102263.0 427107.0 0
106467.0 426148.0 0
111299.0 425523.0 0
115646.0 423679.0 0
119502.0 426633.0 0
124112.0 424998.0 0
129404.0 423401.0 0
134892.0 426706.0 0
140722.0 423464.0 0
139251.0 427102.0 0
145829.0 424557.0 0
149976.0 424814.0 0
157710.0 425262.0 0
162017.0 424309.0 0
167131.0 424987.0 0
172428.0 426367.0 0
177172.0 424640.0 0
181277.0 423175.0 0
181281.0 427502.0 0
185954.0 424574.0 0
191529.0 423599.0 0
197338.0 423894.0 0
301907.0 423298.0 0
311157.0 424856.0 0
306849.0 426561.0 0
316142.0 424577.0 0
321339.0 423703.0 0
323993.0 427152.0 0
326520.0 423388.0 0
331649.0 424203.0 0
337444.0 424723.0 0
342776.0 423091.0 0
351564.0 423548.0 0
347035.0 425539.0 0
355445.0 426399.0 0
359699.0 425923.0 0
366605.0 422660.0 0
363804.0 425798.0 0
371879.0 423439.0 0
368152.0 427369.0 0
376296.0 424970.0 0
380084.0 423477.0 0
384022.0 425968.0 0
388632.0 423291.0 0
393686.0 426088.0 0
398131.0 423390.0 0
401600.0 426154.0 0
406312.0 425805.0 0
411013.0 426149.0 0
414499.0 422743.0 0
417563.0 427258.0 0
419185.0 422895.0 0
422496.0 425563.0 0
426921.0 424130.0 0
430140.0 426957.0 0
435715.0 424731.0 0
440125.0 424228.0 0
444905.0 426144.0 0
448985.0 422713.0 0
453231.0 423340.0 0
460003.0 424633.0 0
464616.0 424422.0 0
469510.0 424424.0 0
474115.0 424512.0 0
478343.0 424298.0 0
481760.0 426797.0 0
485505.0 423769.0 0
493542.0 422600.0 0
490305.0 426117.0 0
494569.0 426171.0 0
497698.0 423785.0 0
1143.69 429929.0 0
4878.23 431207.0 0
1190.27 432459.0 0
9921.87 430771.0 0
14752.2 429798.0 0
19967.5 432565.0 0
23296.1 427878.0 0
28842.1 427992.0 0
25690.4 432366.0 0
34302.4 429255.0 0
38820.6 430966.0 0
43033.7 432291.0 0
47374.9 431649.0 0
52139.2 432084.0 0
60417.9 429747.0 0
56597.5 432341.0 0
64844.0 432248.0 0
69694.1 429575.0 0
75083.2 429929.0 0
80263.4 430524.0 0
86246.5 430467.0 0
91711.1 427902.0 0
91147.5 432513.0 0
95474.4 431235.0 0
99997.7 430407.0 0
104849.0 431078.0 0
109402.0 429584.0 0
115167.0 427611.0 0
113441.0 431380.0 0
117516.0 430351.0 0
121585.0 430731.0 0
127686.0 430171.0 0
133328.0 431274.0 0
138625.0 430080.0 0
142862.0 428388.0 0
145081.0 431890.0 0
148215.0 429042.0 0
153457.0 427557.0 0
158572.0 430532.0 0
163631.0 428378.0 0
168260.0 430055.0 0
176788.0 428927.0 0
177791.0 432328.0 0
185765.0 429921.0 0
189547.0 427787.0 0
193818.0 428258.0 0
198156.0 429221.0 0
302329.0 427733.0 0
302004.0 432376.0 0
305977.0 430752.0 0
310633.0 429486.0 0
315316.0 429218.0 0
319704.0 428284.0 0
324690.0 432100.0 0
328503.0 428059.0 0
333394.0 428895.0 0
337798.0 430087.0 0
342358.0 428331.0 0
351339.0 428527.0 0
347033.0 430370.0 0
356231.0 431508.0 0
362606.0 430639.0 0
373699.0 429194.0 0
379361.0 427983.0 0
383524.0 430680.0 0
388667.0 429141.0 0
393677.0 430833.0 0
398143.0 429385.0 0
403676.0 430414.0 0
408366.0 429819.0 0
413157.0 430522.0 0
417749.0 432392.0 0
421709.0 430197.0 0
426152.0 428831.0 0
429944.0 430885.0 0
434647.0 429267.0 0
440616.0 429686.0 0
446035.0 431416.0 0
449788.0 427767.0 0
455527.0 427633.0 0
461986.0 429696.0 0
466986.0 428245.0 0
471721.0 429310.0 0
477010.0 428459.0 0
481029.0 431646.0 0
485951.0 428359.0 0
485409.0 432256.0 0
489436.0 431093.0 0
493808.0 429830.0 0
497868.0 428145.0 0
497674.0 432466.0 0
2534.16 435680.0 0
7893.11 435451.0 0
13014.2 434653.0 0
22723.8 437341.0 0
30633.2 432880.0 0
27787.6 437235.0 0
35325.0 434374.0 0
39921.4 435316.0 0
43760.2 436383.0 0
48897.6 437098.0 0
54768.5 436486.0 0
60382.0 435208.0 0
65283.4 437640.0 0
68574.6 434386.0 0
72626.2 434111.0 0
77276.5 434338.0 0
82659.5 436036.0 0
88229.0 435604.0 0
93927.0 436105.0 0
99013.4 435038.0 0
104203.0 436606.0 0
109295.0 434427.0 0
113846.0 435691.0 0
118328.0 434635.0 0
123421.0 434935.0 0
127469.0 436171.0 0
131717.0 435221.0 0
136711.0 434065.0 0
141442.0 433017.0 0
140280.0 437624.0 0
145399.0 436278.0 0
148453.0 433206.0 0
152822.0 433103.0 0
150131.0 437329.0 0
159782.0 436551.0 0
163958.0 433069.0 0
168347.0 435028.0 0
173301.0 432820.0 0
177981.0 436121.0 0
181475.0 432739.0 0
182614.0 437487.0 0
185582.0 434437.0 0
190771.0 433051.0 0
196401.0 433269.0 0
198177.0 436991.0 0
305553.0 435286.0 0
301556.0 436413.0 0
309272.0 433642.0 0
313698.0 433695.0 0
319003.0 433528.0 0
322658.0 437083.0 0
330199.0 432802.0 0
327400.0 437054.0 0
335164.0 433545.0 0
332248.0 437191.0 0
340916.0 434687.0 0
346244.0 434319.0 0
350775.0 433697.0 0
354795.0 437137.0 0
360032.0 436127.0 0
364997.0 437305.0 0
368598.0 433036.0 0
373104.0 436531.0 0
378649.0 433997.0 0
386695.0 434072.0 0
383521.0 437688.0 0
391456.0 434525.0 0
396711.0 434488.0 0
401777.0 434808.0 0
405266.0 433948.0 0
409200.0 434480.0 0
414239.0 435558.0 0
421659.0 434745.0 0
426650.0 434024.0 0
432537.0 434826.0 0
437404.0 433687.0 0
442018.0 435247.0 0
447414.0 436180.0 0
451859.0 433089.0 0
457506.0 433065.0 0
458124.0 437462.0 0
461955.0 435201.0 0
467186.0 433101.0 0
475617.0 434124.0 0
481614.0 436541.0 0
487040.0 436824.0 0
493001.0 435172.0 0
497956.0 436857.0 0
4985.67 438637.0 0
11252.3 440321.0 0
17371.4 438257.0 0
32975.8 439156.0 0
38313.5 439748.0 0
58382.3 440147.0 0
70276.8 437993.0 0
74716.5 438296.0 0
78854.5 440210.0 0
86673.5 438902.0 0
90376.5 439376.0 0
94856.0 441101.0 0
100126.0 440368.0 0
107213.0 440130.0 0
111429.0 439274.0 0
116199.0 439186.0 0
120957.0 438449.0 0
124796.0 439116.0 0
135098.0 439665.0 0
154655.0 438494.0 0
161815.0 441524.0 0
164808.0 437869.0 0
168972.0 439449.0 0
173698.0 438682.0 0
187784.0 438288.0 0
193557.0 438811.0 0
304069.0 440252.0 0
310358.0 439055.0 0
316280.0 438024.0 0
320121.0 441247.0 0
324785.0 440562.0 0
336845.0 439685.0 0
345493.0 438051.0 0
341989.0 440553.0 0
349973.0 438974.0 0
358018.0 440755.0 0
369002.0 438040.0 0
371410.0 440647.0 0
376439.0 439473.0 0
379794.0 439103.0 0
388566.0 438769.0 0
393816.0 438981.0 0
399467.0 439105.0 0
405370.0 437630.0 0
411013.0 439575.0 0
418381.0 438912.0 0
424043.0 439061.0 0
429044.0 438639.0 0
437601.0 438487.0 0
444484.0 439841.0 0
449125.0 440071.0 0
453595.0 438590.0 0
461525.0 440810.0 0
465564.0 438009.0 0
470703.0 437861.0 0
477716.0 439733.0 0
483469.0 440468.0 0
491110.0 440198.0 0
495237.0 439736.0 0
POINT_DATA 5000
SCALARS Radius float 1
LOOKUP_TABLE default
4796.58 3979.26 3471.03 5253.55 5820.48 5782.6 4862.21 5113.21 3929.19 4107.03 4478.15 5379.87 5925.6 4501.51 4792.73 4736.58 4931.38 3485.26 4329.05 4151.94 4049.23 5337.48 6124.89 5708.81 5252.48 4780.03 5495.39 3996.0 3856.1 4665.12 3383.4 4133.88 4834.9 3850.77 6044.04 5415.48 5120.0 3863.18 4998.37 6182.6 5492.18 5258.36 5061.3 3642.12 3163.97 5812.43 5906.14 7513.1 5254.28 5733.48 4672.91 5580.89 5645.7 6810.52 5840.26 6110.27 5561.06 5073.35 5670.04 4380.59 6716.79 5759.91 7613.27 5529.52 4951.03 5255.32 6037.08 5096.78 6756.95 4129.43 6324.23 3843.58 3320.52 4194.5 4270.53 5344.25 5191.63 4593.7 4150.99 4216.92 4742.68 4344.58 5634.83 5495.84 6268.1 4861.06 5320.28 6739.08 4797.52 4569.12 4298.67 5960.66 6608.73 7034.11 6261.42 4502.5 3771.48 4043.57 4271.69 5681.38 4138.42 3708.04 5513.6 3240.09 4556.36 6082.81 3191.99 4685.34 5601.05 4929.8 3586.91 3103.0 3554.9 4015.92 5542.21 4487.31 3936.02 4044.71 5980.74 4094.62 4927.02 5546.39 5325.36 5484.83 5085.53 5351.6 2356.98 4730.36 4715.55 5867.73 3951.75 5013.56 4499.64 4375.68 5542.27 5054.98 5122.66 5170.02 5484.19 3557.27 4688.68 4436.4 4402.52 4517.56 4182.53 5903.42 3588.44 3761.32 5176.86 4118.05 4366.19 5553.16 3672.51 2938.66 4940.78 4231.61 4008.92 3615.22 3942.53 3379.84 3589.27 4827.82 3997.1 3607.45 3260.67 5123.52 3038.33 4392.68 4333.2 7199.21 4523.7 2240.39 5091.39 5293.9 6142.94 3912.37 4727.24 4602.25 4790.08 5082.47 4763.45 5445.87 3815.26 4704.72 4177.94 4571.7 5896.46 3784.5 3780.23 6481.79 5374.51 7042.12 6326.39 5873.69 4962.09 3999.48 5011.84 4359.62 6946.21 2586.12 5433.8 4011.77 5499.11 5922.5 5198.77 5987.17 6013.14 2765.2 4901.41 5110.37 5664.98 4382.74 4651.28 3693.63 4384.42 4516.43 5481.78 5043.05 5816.2 5109.54 6483.19 5945.65 6759.9 5538.89 7021.47 5416.38 6059.59 4955.55 2720.68 5701.86 3563.63 4238.81 4468.59 5885.03 6030.06 2837.58 5200.76 4927.31 5017.13 4862.64 5185.34 4432.58 6684.56 3968.64 3955.56 4688.67 2635.86 5292.64 6166.5 5065.13 5936.02 4861.08 4003.05 5390.22 4805.87 4712.33 5227.21 5697.78 4667.36 4091.31 6372.62 4295.38 5615.42 7565.34 5923.5 4612.68 4973.83 6342.25 6691.39 5135.69 5344.0 6045.46 4245.72 5908.1 6048.7 6133.92 3719.84 5022.8 4178.4 3095.48 4166.08 4123.6 5224.12 4850.14 4819.73 3382.7 6817.32 4471.58 4319.79 6098.14 4472.17 4203.26 5188.81 6057.22 5062.71 6125.34 4527.08 3633.87 5347.48 4850.01 3970.25 5147.67 3979.82 5011.31 5138.31 5264.06 4659.59 6327.9 5927.43 6355.42 4362.19 5690.56 4948.92 3115.91 5637.59 4937.14 3307.12 5924.89 5693.81 4002.16 4174.52 3486.22 3829.13 6230.49 5418.62 4601.27 5493.32 5740.68 5926.61 5836.15 3261.21 4345.55 6704.06 3653.41 3871.88 5325.02 3856.01 5246.2 5279.39 3673.74 5205.43 6116.18 7447.37 4924.6 4385.06 4733.32 7184.19 2899.43 2924.37 5305.17 4290.3 3867.67 5399.73 4660.72 3888.21 6038.78 6902.81 6644.76 4254.17 5629.19 5090.24 5740.84 5530.87 4310.18 4281.49 5978.9 4187.56 3629.62 4997.27 4840.84 4301.06 4020.32 4290.14 6562.18 4156.38 5316.75 4541.21 4164.68 5669.65 5934.22 5624.49 5762.59 7092.87 5163.55 4666.81 3954.91 2965.01 6643.85 3637.61 6222.42 5654.31 4730.41 3745.84 5690.26 4156.2 4497.59 5965.78 4810.12 5643.58 5215.05 4292.06 5577.04 5006.58 4602.86 3688.8 4548.16 3369.23 4048.37 5449.18 5492.26 5244.78 5762.84 3937.74 4749.8 4493.48 6084.86 5478.92 4778.34 5551.36 4138.16 6894.71 4684.5 3091.3 4414.54 5789.98 6458.82 7054.71 3641.64 5489.43 5747.75 4277.89 6051.14 4796.33 4195.44 5539.32 6496.85 5600.93 4874.39 5541.59 4390.66 4124.71 5728.85 4827.23 4911.47 5863.59 4381.97 6257.19 3255.82 2812.98 4065.69 5603.15 4695.45 6052.7 3921.18 3798.62 5891.05 5308.1 3666.57 5655.21 4786.6 4645.41 6445.94 5542.14 4218.06 7134.64 4716.19 5514.76 3456.98 3498.2 4877.67 3066.13 4302.5 6006.16 6009.88 7055.53 5013.67 5826.04 5339.78 4970.88 4143.78 4636.5 3703.1 4940.42 5923.4 6471.55 5499.39 5501.93 5463.38 5945.21 4938.74 5696.88 5607.14 3923.03 5975.63 4374.35 6396.74 4138.46 2775.04 3821.72 4986.77 6318.18 5586.81 3948.17 4621.75 4551.24 5358.59 4220.88 4515.71 6519.71 6640.13 5082.6 5810.84 4230.54 5094.44 3748.24 4655.49 4467.94 4850.81 6138.47 5527.54 5573.7 4727.62 5054.25 4055.8 7325.81 5280.17 5360.19 4794.96 6186.19 5083.08 6834.49 6337.56 5525.39 5803.39 4024.3 6394.38 5555.28 5242.73 4737.14 4686.65 5834.74 5556.96 5788.23 5581.75 6392.01 4907.89 6730.19 4937.02 4907.06 4073.93 3735.44 6043.3 5952.75 4433.59 4320.28 6122.55 2739.94 4931.53 5480.13 6308.71 3323.28 6695.82 6405.76 5794.24 5105.16 4678.38 5448.61 5050.65 4827.33 5206.48 5513.57 5729.23 5226.0 3365.82 4538.95 5965.15 4763.66 6090.91 4946.42 5085.71 6116.33 5644.82 6343.14 5462.21 5750.71 5470.77 4831.47 4643.85 4004.04 5252.34 4289.17 5564.02 4274.61 2965.79 6898.19 6035.6 4481.53 5330.45 4581.13 3610.4 4219.07 6387.01 5367.52 3092.35 4322.15 5210.03 5478.47 5351.39 6142.37 6061.47 4933.21 5375.47 6038.14 2540.31 5120.49 6029.66 5262.61 6302.8 5697.4 6038.2 4270.95 4005.44 5206.78 6732.43 6425.26 5143.58 4484.76 4839.34 4840.01 2980.99 7933.0 4455.12 3998.5 5173.87 5938.34 5380.13 5118.27 5169.36 5932.23 5791.61 3369.13 4479.66 3043.85 5461.13 4726.76 3599.45 5489.34 5163.9 5708.14 5537.72 3920.42 6332.36 6155.31 4223.33 5911.67 5709.62 5835.78 4127.74 2476.04 3942.07 7443.72 3937.08 5260.34 4709.35 6586.45 4373.3 4750.78 4163.5 5724.64 5078.86 4780.2 5100.1 3561.29 4963.34 5019.93 3295.83 5081.78 4260.92 6263.44 5960.56 5774.97 4020.95 6313.06 3474.39 6470.3 6062.05 5082.74 6072.45 4410.55 7099.43 5526.14 5137.34 5198.29 5423.0 3856.59 5413.79 6338.89 6202.55 5025.39 4714.54 3629.96 5893.5 3320.11 5030.91 6022.17 5119.37 6163.38 4566.18 4723.12 3459.9 4964.09 5201.36 5024.9 4306.53 5409.61 5094.81 5972.06 5713.22 5555.88 5028.96 3866.16 3794.63 6362.12 3778.1 5152.36 4511.82 5611.2 4220.65 6820.42 4816.2 4894.16 4896.52 5711.87 4751.02 3372.79 4941.22 5282.64 4715.72 4669.66 4808.52 5367.2 5607.24 5053.92 5839.13 5495.68 4863.72 5002.48 4262.82 5102.36 8332.24 4342.9 5069.84 4553.56 5329.64 4051.44 6049.55 5941.72 5991.09 5133.97 6600.94 4788.58 5371.02 6155.1 5876.71 5029.78 6515.84 4888.6 4918.77 4371.99 4219.78 3885.86 4459.28 5235.29 4479.94 6250.23 4118.84 5862.86 3493.7 4200.03 4719.7 6939.12 4735.33 6915.83 5092.37 6444.77 4287.63 5315.4 6449.45 5077.33 3975.31 4746.52 3689.45 3824.16 5572.95 3868.18 6723.16 5584.06 7111.16 4547.19 3817.13 5507.24 3982.23 4583.31 4503.89 5806.08 4853.39 4997.27 4093.08 4809.42 5543.27 4717.05 5659.17 6135.57 4312.67 5423.8 5861.71 4359.04 3183.98 4989.15 5017.78 4524.28 5015.69 6175.81 4727.24 6677.09 5826.64 4829.35 5201.67 6321.41 4089.76 5526.55 3192.41 5184.56 4987.87 3315.57 5804.71 5046.33 4764.96 5727.3 4242.52 5356.51 6352.26 3847.38 3818.59 3057.03 4087.15 4143.08 7500.97 6623.85 5228.18 5787.31 5065.11 5868.82 4050.9 4978.31 4241.89 4099.77 5054.74 4537.32 4656.78 5126.91 3600.43 5131.24 5196.67 6496.67 5474.8 6262.72 3664.11 5117.47 4925.63 2990.77 5882.65 4739.14 4434.19 5187.7 4188.3 6261.75 5177.64 4255.31 5453.3 6413.02 4863.27 3492.19 4584.5 5122.63 6049.79 4703.08 5374.98 5274.19 5516.95 4406.4 5411.85 4844.57 4027.46 6314.07 5776.37 4516.28 3627.82 4044.45 5125.78 5344.43 4373.47 5045.38 5350.88 5372.61 3686.21 6480.17 5023.15 4377.07 6851.54 3813.22 5570.3 4336.42 5243.29 7589.94 4449.22 3130.65 5856.11 5287.2 4109.88 4234.94 5998.38 5013.13 5080.66 4270.24 3417.33 4926.42 4164.13 4642.34 4520.1 4947.52 5874.89 4305.57 4293.03 6959.81 4389.21 3791.79 4424.7 4925.44 4754.05 4951.47 6084.93 5215.15 3697.96 4739.42 5538.93 5020.12 4745.45 2631.9 5281.28 6255.18 4277.88 4668.71 4758.21 7228.46 3948.23 5978.82 5266.5 3927.99 4948.98 5227.52 4414.48 4092.24 4981.9 5163.02 7144.24 4906.82 5687.83 5004.23 6442.69 4648.04 6607.87 4721.32 3293.56 3163.78 5274.14 4903.82 5746.28 4623.61 4082.47 5511.6 4338.08 4378.3 6134.99 4094.73 4407.9 4440.57 5548.29 6766.43 2315.64 6345.13 5226.56 5313.22 4413.85 3905.51 3999.94 4470.98 4864.22 5759.46 3921.08 4190.31 5678.96 5262.19 4244.9 6070.58 6034.41 5130.91 5402.24 4519.22 6445.22 3844.9 5101.59 3963.86 3848.93 4306.11 5935.47 3402.32 5903.66 5628.24 4528.49 5004.67 5365.89 3327.49 5992.26 3960.8 4562.29 5070.39 4980.85 5714.58 5110.45 5208.32 5248.77 4083.97 4607.02 5153.74 4528.09 3895.51 4165.81 5813.4 6291.51 4128.98 5882.89 6246.22 4188.32 5246.61 4307.28 4100.38 5344.77 4723.48 4899.11 5097.87 4278.07 7267.18 5320.92 5269.18 4406.1 6362.14 5034.59 6719.88 4454.63 5080.18 5912.61 4523.88 3279.1 4066.38 4403.98 4560.84 4729.43 5776.57 4562.74 5598.74 7493.3 4814.55 6320.71 3464.83 5698.77 2477.07 6413.11 4305.16 5092.28 4965.89 5659.95 4152.85 2908.7 4453.64 4517.73 5469.47 5660.16 4989.56 4718.54 2588.37 6736.03 6235.57 3623.87 5916.16 4390.41 6113.95 5599.49 4097.57 5017.5 5563.79 3901.8 6171.13 5511.88 5083.41 7055.42 5486.68 6048.86 4285.32 5490.43 5022.28 5452.83 4959.34 4948.5 4527.02 4531.14 3695.36 4564.34 3838.56 4871.44 5076.35 6020.48 6375.99 5200.05 5234.29 5313.66 5419.37 4466.03 4511.54 5409.33 5196.0 4923.9 4973.78 3329.99 3947.47 3296.27 4713.25 4204.84 6243.0 6673.96 3556.85 5441.96 3435.9 5174.89 4288.3 5370.52 4652.29 5774.81 3746.31 5498.32 5027.98 5346.27 6475.1 4969.21 2691.29 2845.98 6256.02 5314.85 4305.43 5450.44 4942.77 4263.33 5592.32 5381.16 6193.35 6086.96 5233.78 5653.9 5046.21 5683.26 5894.61 5139.5 5304.13 5944.09 5833.06 3527.05 4923.41 4497.31 5384.76 5529.42 5257.12 5243.43 4537.14 5551.9 3757.34 6415.61 4687.64 4419.71 5037.06 3838.47 4541.8 5175.29 5842.56 5412.31 3087.09 6934.37 4890.5 4050.08 3981.07 5452.42 5328.22 6853.85 2395.5 5941.61 4512.11 5782.48 5683.61 3836.45 5100.25 6894.26 4986.51 5197.52 5178.99 5383.07 4591.87 5013.42 4790.78 4247.15 6552.22 5651.07 6248.81 5273.35 2651.49 4645.58 5512.23 5275.32 5985.29 4898.94 4613.31 4733.04 6119.09 5788.66 5091.68 7531.29 5069.25 5048.89 3161.47 3991.03 6390.78 7435.25 6826.57 4788.87 4495.87 6022.72 4643.31 5527.33 5402.21 4989.09 4880.14 5289.52 4982.31 3848.54 4307.48 5941.4 5331.02 6510.17 5742.65 4871.96 4863.23 4402.67 4470.61 5565.13 4384.88 6887.27 3701.27 6008.49 4806.34 4287.53 5612.21 4929.14 5945.08 3979.54 3306.14 5490.58 4863.79 4702.06 3830.46 6031.67 4689.15 6138.12 4428.78 5409.66 4345.67 4765.72 4642.66 4752.14 5329.59 4888.12 4950.97 5512.16 3197.63 4863.96 5887.15 5203.08 7480.41 3423.15 4488.85 3731.84 4901.07 5186.3 3436.15 3497.9 4151.76 4020.4 3493.47 4596.75 6248.6 5443.58 4558.46 5805.86 4470.4 5339.38 6169.11 5615.35 4027.09 6422.84 4502.18 5379.09 4602.85 4962.77 5872.05 4853.02 4091.8 6259.23 5181.4 5670.2 4711.62 4247.23 4178.15 4268.65 4694.83 5509.42 4354.08 4256.43 5936.36 4520.62 3903.75 4755.47 5935.03 4485.99 5127.16 5475.8 5314.69 6050.81 5543.46 4249.46 5965.81 3702.37 5660.85 2330.66 4177.19 6917.52 3587.05 6229.37 6718.19 5282.91 4425.84 7256.35 4800.69 3555.86 6386.78 4631.83 4996.99 6081.14 5480.83 4220.46 4607.85 5128.57 6000.7 3169.67 5604.21 4968.03 3361.92 6710.88 5395.14 3967.48 6213.04 3685.13 6790.73 4655.16 5251.4 3867.19 5857.79 4039.91 5276.7 5036.58 6119.63 5411.02 4752.9 4287.16 5199.44 5191.08 4062.5 4435.51 5374.07 5163.77 4588.7 3766.55 4579.69 3554.48 6496.52 5005.85 4216.17 6484.17 4721.02 4254.37 3374.08 4933.65 4031.78 6098.1 5708.99 4049.02 5346.68 5311.03 5255.12 5296.29 4611.53 4285.66 4896.11 5172.53 5801.99 5210.48 7552.94 5323.3 5088.44 4998.21 4662.56 4114.24 5349.31 2976.22 4649.22 5394.55 5094.52 4946.74 2682.24 5928.32 5229.48 5475.7 4016.18 5526.75 5435.74 4244.99 5327.45 5560.26 6185.89 3997.96 4750.17 4439.35 3460.94 3990.25 3691.0 3758.07 4752.51 4236.14 4407.87 5733.62 5282.51 4460.92 3797.33 5945.89 4042.28 4105.55 4340.76 6566.1 6065.22 4221.28 4456.39 4896.39 3633.79 5421.53 5937.08 6070.3 5233.29 4312.56 4612.06 5204.04 4750.58 6667.68 5235.11 6622.11 5211.38 4590.55 5920.32 4255.85 5097.69 3988.3 6543.13 5149.72 5464.25 5486.48 5301.47 4617.55 5424.88 5415.85 8659.64 5683.95 6027.62 5010.2 6123.03 5966.61 5711.11 4575.94 4938.72 3546.71 5768.57 5564.23 5950.04 5687.85 4231.83 2435.33 6401.43 5020.71 2681.29 5094.48 3872.61 4238.4 4135.62 4318.48 6132.95 5534.94 4860.33 7644.38 6004.68 4051.34 6101.92 3627.55 6239.84 4635.6 4256.67 3457.48 5166.79 3931.07 3405.98 5417.15 3688.16 4681.72 4945.39 5996.33 3950.63 5415.19 4612.62 3619.07 4275.57 4467.04 6385.23 2983.99 2614.4 6363.92 6205.93 4923.24 5830.72 6184.4 3828.81 4373.45 4082.57 5255.18 5169.9 3004.16 4767.78 5235.17 4421.12 4779.5 5254.49 6649.96 4303.19 5514.84 5784.3 3914.2 4256.57 6088.68 4135.08 5620.74 4778.82 6124.08 5467.84 5053.95 5926.11 5253.37 5767.9 6515.8 5089.62 5869.4 4741.26 3701.16 4186.6 5895.77 4732.09 6136.49 4356.25 4216.95 5776.96 5742.74 4244.21 4947.24 3645.12 3875.05 6200.54 5148.58 4199.45 6599.66 5469.13 4233.8 5765.42 4997.83 4893.49 5325.44 5021.88 5956.65 4498.25 4188.87 3735.24 6574.95 4074.48 4558.47 5731.57 5997.88 5839.71 5576.92 6408.83 5266.22 3930.79 4004.35 5226.97 3685.13 3312.06 3361.26 6799.4 5278.36 5865.39 4427.28 6079.11 3082.32 6430.39 7440.72 3949.6 5703.6 6326.18 5661.62 6631.19 6648.68 4713.74 5626.61 5817.25 4084.49 5061.98 6632.99 4537.6 5147.36 4419.61 7177.44 4563.46 5309.98 6553.94 5460.65 5652.0 5463.41 5225.33 4929.75 4435.36 6045.22 5134.39 3532.3 5769.98 5442.32 2221.99 4643.56 3580.58 4863.01 5356.79 5657.36 3619.79 5029.47 6306.21 5266.01 2978.76 2040.66 7016.27 3876.21 3685.65 4916.22 6022.7 4940.84 5750.07 4809.67 4757.74 6045.67 4209.49 3946.28 3821.94 5439.9 5367.73 3540.11 3456.47 4652.01 5421.64 7234.66 4055.54 4886.12 6419.12 4976.12 6098.95 5453.98 3991.42 4388.63 5102.75 4200.09 4597.29 5931.77 5151.21 6333.29 4477.04 3886.68 5703.74 5662.55 5737.92 4360.23 5365.24 5293.51 4763.96 5754.18 5180.76 3418.99 4480.95 4993.35 4409.63 5521.25 3661.9 5370.85 5949.46 3658.37 3178.54 4765.02 5376.71 4448.13 5070.29 4807.28 4867.08 4266.03 5280.69 4220.03 6923.84 5407.78 5449.46 6179.96 6113.54 4662.43 6260.79 3963.76 5528.53 6799.88 3062.43 5726.66 5426.78 2967.38 4159.35 6477.91 4237.98 6439.37 4081.97 4614.3 5401.99 5580.92 5973.33 5067.46 3583.21 2511.46 4011.37 2775.69 4785.25 6519.43 5876.64 5424.46 4857.84 4908.49 4962.21 4858.44 5884.9 4673.35 5689.26 4992.42 5297.19 4351.38 4833.46 5933.7 7248.4 5280.12 5984.81 3498.16 4409.27 4640.06 5471.74 3548.39 3673.28 4858.51 4207.54 5625.65 4301.61 6107.89 4817.16 4446.84 5660.55 5148.08 4834.87 5760.22 3672.21 5938.17 4795.43 5398.64 5097.95 6817.57 4693.52 3614.96 6853.04 4745.43 5831.96 4747.55 3056.7 3755.95 6234.32 4586.19 4446.06 3450.93 5008.63 4270.74 5132.68 6595.03 4558.15 6218.95 5222.16 5107.23 5136.08 3776.94 5558.68 4010.57 5629.39 2684.03 6157.04 4768.61 2261.36 5075.55 4522.21 5506.19 6719.94 4950.67 5227.59 6166.29 5453.6 5703.07 5294.77 4709.05 4630.82 4043.66 4813.08 5860.67 4540.86 5990.52 4835.83 5604.35 6316.56 4332.87 3091.67 6420.81 4715.58 4450.7 5151.52 5369.08 4347.74 4009.62 5291.9 2081.58 6505.78 5461.55 6865.76 6449.64 6464.8 4684.44 4749.59 5799.69 3468.42 3809.69 5571.72 4771.13 3208.96 7051.9 4184.23 4144.57 5550.75 6834.41 6226.14 5466.33 4444.97 3000.29 5721.05 4247.69 4514.39 4588.99 4321.21 4344.34 4928.27 3583.49 5052.84 3375.28 4366.74 5297.16 3184.64 5206.33 5530.49 5653.03 3718.69 4514.79 2216.82 4509.89 6752.75 5269.38 5607.3 5108.06 3573.73 2928.82 4222.4 4000.43 3420.08 4568.41 4912.04 4539.07 5464.68 2685.81 5591.76 4585.31 6625.18 5323.91 5097.45 6293.89 2761.07 5737.75 4983.39 5366.52 4690.55 5533.72 5533.42 4802.32 3678.08 4599.38 5246.47 4187.31 6191.29 3240.51 7422.36 5161.01 4298.15 4628.4 5832.37 6051.83 4642.93 5409.63 4263.16 3973.12 3077.84 6024.75 6109.49 5567.93 5987.42 5332.65 3764.1 6451.33 5413.31 3012.99 6400.08 4743.59 5208.14 3317.83 3763.05 5092.24 5549.49 3101.75 4518.04 4766.06 4874.18 5435.19 3298.2 4270.15 4953.1 5818.95 4093.99 3940.49 4406.05 4680.94 5828.35 5876.72 5236.43 5285.07 4680.14 4608.41 4187.94 5980.59 3796.15 4801.8 7216.98 5271.02 4209.31 5718.28 6242.79 5950.45 5713.03 5849.65 5134.67 4165.21 4215.0 4936.96 4481.76 5452.78 5065.26 4304.41 6192.0 4940.28 5885.28 6579.31 3004.34 3022.6 4811.76 4914.45 4698.87 4661.03 3624.7 4691.91 5262.35 4475.83 4510.8 5889.35 5010.04 4394.56 4570.98 4275.07 5825.38 4185.61 4047.87 5742.47 3778.02 6552.21 5417.8 5146.37 7132.12 4836.16 5518.57 5151.11 5463.48 5730.33 5545.46 4527.99 4376.7 5190.61 8325.01 3764.06 4440.81 5941.9 5434.47 6642.76 5829.22 4497.78 4243.79 5811.18 5433.65 4442.22 4008.15 4887.76 4669.06 4811.32 4286.49 6184.88 5829.32 4396.25 5551.95 3918.87 5423.42 2275.45 6605.86 5012.5 4383.56 3562.79 7093.13 4516.53 4122.92 3604.14 4452.54 5089.1 2711.19 4028.32 4099.92 4884.59 3858.06 4511.7 4083.79 5263.27 6300.92 5021.77 5599.29 6038.68 5046.12 4807.4 7013.17 3805.67 4601.74 6506.86 5088.57 5580.34 3852.6 5775.31 4706.5 4603.5 4647.67 5375.12 4356.36 4892.44 5578.94 7610.49 4286.17 3684.56 5323.55 5375.1 4172.6 5313.12 5351.56 5160.59 3984.88 4732.09 4320.42 4255.34 5064.79 5480.3 7509.24 4146.81 5896.26 5388.78 6101.13 4573.72 5099.21 4917.99 5636.4 4367.78 4350.12 5227.02 5670.0 4232.16 5300.96 4344.51 5680.94 3781.77 5581.55 5193.01 4543.1 3474.5 6550.44 3860.83 5732.27 4523.39 5278.56 5146.37 6917.62 4013.38 5631.14 4343.78 5263.3 4909.65 6523.86 7693.4 4326.48 4437.07 3449.37 5491.9 6405.0 4659.16 5789.55 4633.05 4901.2 5711.62 4990.79 4798.17 5166.79 6479.39 2895.63 4997.91 5079.22 5381.54 5810.77 4714.83 5474.15 7519.2 6355.68 4478.6 3953.55 4304.63 4469.54 4314.56 4173.54 3928.53 5606.51 5740.65 3834.47 6349.67 6329.53 4590.01 6101.86 4227.41 5993.0 4803.57 5966.42 4110.59 3332.49 5354.66 4214.44 5378.23 4787.97 3746.36 6789.23 3989.7 4777.03 4246.61 6028.09 5452.36 3804.5 6486.37 5498.42 5318.53 3344.57 5220.76 4281.98 7165.9 5344.83 7046.11 3427.63 4863.97 6342.48 5756.75 5599.7 4587.67 4163.74 6969.28 3665.95 5698.96 4095.75 3603.51 4298.45 5222.51 6609.84 5135.96 3834.43 5658.37 4707.06 6074.94 5491.37 4250.88 3783.54 6348.03 3475.67 4792.39 7038.89 3863.67 4814.12 5067.56 6137.8 2735.53 3352.35 5116.6 3747.03 2783.85 4356.49 4526.81 3994.07 4219.94 5907.46 4264.91 6740.71 5399.29 4909.31 5971.22 6522.59 6602.43 3568.28 5425.98 5996.66 4405.42 2995.67 3598.08 4599.81 5698.23 7300.58 3608.06 6633.61 5217.95 4867.7 5484.36 4277.24 4063.9 5291.05 5161.1 4619.2 5166.41 5067.56 2596.96 5701.75 4350.15 4139.3 6541.45 4750.49 5078.31 5391.48 4923.43 5131.15 4847.14 3950.27 5116.66 3566.79 5374.67 4981.43 4741.28 4215.2 5069.89 4157.29 6813.72 5327.75 4609.02 4896.65 4638.18 4196.37 6448.66 4453.97 6945.98 5138.2 5783.48 4449.98 4701.5 4504.35 4771.65 4840.44 5093.82 5951.81 3924.14 6918.35 4296.69 6238.32 3319.67 6471.42 5283.8 4076.59 4428.14 5164.1 6464.15 4479.11 4972.17 6685.4 5699.53 4222.77 6332.01 5268.38 5527.23 4805.33 4234.18 7085.01 5980.95 6193.08 6069.3 5887.01 5168.35 5388.39 5335.47 3728.18 5633.61 5048.19 6799.23 4888.27 6487.56 4854.11 5533.19 5417.21 5583.61 6063.64 7382.3 4022.56 5522.21 3772.3 4855.01 6208.9 4923.57 3340.09 6061.63 2279.05 4829.35 4075.28 8137.11 5484.32 6650.77 4067.96 7104.73 6162.3 3272.75 4264.54 3516.27 7043.44 4263.78 4643.9 5228.75 6047.14 5009.83 5210.38 5717.8 3629.44 5003.78 3299.24 6246.56 4061.6 2603.64 5107.0 6212.15 6502.97 4783.07 4946.23 4852.58 6083.28 5211.6 3556.79 5806.31 5456.71 3503.41 7317.04 6412.67 7001.83 5012.97 5589.37 5439.49 6639.64 5212.43 4834.3 6348.54 6804.79 5642.35 6372.13 5369.5 5404.01 6016.19 4124.49 3230.13 5714.25 6176.67 5325.96 4850.06 5016.02 7044.29 4920.21 4049.16 3936.95 6153.94 6836.82 3862.77 4631.99 4740.98 3185.39 5128.77 7122.87 5797.36 4243.26 4153.84 5119.86 4592.15 5089.26 5084.17 4901.44 3776.8 4998.22 5096.43 6156.21 2460.79 6104.26 4653.83 6171.71 4986.71 3628.89 4668.88 5027.43 5522.75 5867.64 6059.93 5602.53 6545.43 6760.92 4989.2 4711.04 7144.05 4506.18 4824.12 4383.47 5971.21 4036.91 5454.12 4066.57 4206.98 5156.76 6357.47 6101.57 4891.38 5535.91 2949.12 5955.86 4533.37 4848.46 5412.24 2779.99 5887.38 4581.37 6942.34 5851.61 5478.11 5526.31 3858.17 5030.15 6589.82 4438.58 5073.02 3472.91 2970.9 6542.5 6318.23 4058.87 5174.75 5932.07 4984.46 5948.71 4793.65 3856.53 4532.89 5460.89 5260.85 5742.09 2884.65 5807.46 4648.21 3658.05 4393.16 3311.29 4549.69 6423.81 6192.77 6413.15 6103.11 5048.55 6459.51 4024.31 4955.16 5844.72 3992.97 5989.05 6040.74 4054.22 7228.94 5393.65 4961.99 6551.93 4595.12 3110.13 6484.43 4625.67 3485.54 6735.97 5305.59 5416.45 4330.58 5754.6 3288.01 4904.51 4147.31 2202.77 5751.15 5950.88 4149.55 4441.22 5853.89 3380.69 4140.4 3639.44 4386.8 5446.4 4725.01 5966.75 4729.42 3104.96 5244.78 3636.15 6114.89 5135.63 6384.7 4355.83 6870.97 5351.86 6056.87 5474.01 6201.86 7554.58 5166.89 4731.21 5491.63 5725.37 3868.62 5138.33 3477.1 4811.22 5216.26 4844.83 5377.37 5652.87 5483.7 5018.69 3152.86 5952.38 3896.27 5807.52 5963.36 5230.02 5307.35 4342.18 5169.48 6016.08 6776.22 3124.7 6064.71 6102.98 6060.17 4385.81 6592.93 5096.24 5769.14 3381.82 4831.93 4023.93 5494.28 4834.39 5493.89 5261.19 4918.76 4208.41 5826.78 6214.73 3758.22 4268.19 4532.7 5561.74 6100.73 4788.08 4349.13 6379.14 3687.65 5478.95 3851.85 4749.96 4019.34 4658.24 5869.67 4311.48 4899.73 5457.66 6394.19 5973.89 5366.22 6193.73 5518.11 5087.14 3742.11 5712.35 5701.52 4743.9 5321.17 3719.11 4467.13 3877.8 6418.11 5934.82 4501.78 5415.45 6350.71 5039.12 7107.63 5868.89 4099.26 5206.47 3831.52 4263.65 6106.43 6761.81 5467.63 4127.53 5210.75 2856.55 4553.68 5361.87 3205.68 4473.29 4908.75 6556.26 3971.08 4482.9 4593.7 6818.91 3503.65 3634.5 3623.19 4869.48 4906.11 4387.39 4564.1 4745.16 5825.55 5509.51 4848.14 3199.4 4316.5 5254.24 4192.21 3597.43 5144.56 4158.91 5311.55 3360.86 3034.16 4869.25 5545.21 4333.87 4922.49 3572.94 5001.58 6456.58 5366.11 4824.81 7307.21 5135.5 3619.72 4565.93 5615.84 5788.97 3274.85 5007.21 5545.59 4580.06 4835.97 4057.17 5262.47 7066.96 4587.7 5644.81 5666.95 4642.2 5175.89 3894.64 5232.85 4374.74 5975.23 6816.66 4745.79 6204.65 6550.4 5513.8 4887.52 6631.28 5350.88 6571.31 4392.65 5429.3 5510.96 6653.07 4697.91 4584.81 5071.98 5719.79 4371.08 7261.51 4968.14 4914.03 5086.29 5527.13 5139.18 4278.57 5551.43 5049.99 4201.03 4458.64 5001.87 4312.15 3657.69 4078.93 6015.02 4820.17 5244.98 3814.65 3886.72 4034.05 5798.38 6436.74 3419.87 4384.28 3908.98 5944.3 5113.6 6328.42 5640.72 4504.52 4464.73 6440.38 4954.81 5610.53 6419.64 3926.11 5464.83 5414.58 4991.35 5196.92 4807.35 5334.36 4568.64 5750.35 4489.99 6555.44 5293.75 5473.72 7124.45 6358.93 2205.51 3703.49 5144.44 4757.2 5034.69 5079.64 4211.82 5470.04 6003.78 5684.25 4891.67 5188.53 4882.66 4027.63 4944.51 5603.68 5610.95 5532.72 3220.8 5179.17 5579.39 5270.51 5148.1 5490.75 5224.64 5949.73 4312.48 5783.94 6370.33 5081.08 6318.25 4202.77 6864.06 6008.81 3644.78 5510.9 4883.63 4505.28 3492.83 7039.98 6006.89 7778.01 5127.82 5690.96 5805.1 3862.91 4456.26 4027.33 4810.98 5091.22 3563.14 5851.63 5556.0 5748.9 5755.15 4608.34 5695.79 2781.96 3512.94 4467.0 4994.65 5601.55 3903.91 4929.6 3919.62 3683.86 5658.14 4508.18 2617.39 4062.56 4198.94 3217.67 6163.54 5212.37 5438.92 3766.69 5110.11 5036.98 4521.75 4813.33 5569.2 5635.32 4526.34 4316.45 5409.08 5042.75 4598.92 5241.22 6647.08 4979.52 3422.29 4407.79 5214.63 3495.68 3990.96 5352.24 7362.42 5793.12 5836.14 5473.05 4583.52 6280.13 5244.22 5585.14 4960.64 5792.98 4983.3 5053.15 5910.86 5124.17 6239.68 4456.11 4234.88 5782.43 4708.31 5026.76 6282.38 5657.55 5727.79 5212.92 5188.82 5043.14 3742.31 3663.0 6304.49 4420.6 3622.8 4431.23 4258.98 6545.99 4368.28 4945.0 4548.45 4658.11 5730.61 5114.07 7142.95 5064.67 6618.21 3717.47 4504.86 6200.63 5969.37 4928.35 1937.5 4509.46 3844.54 3538.53 996.652 6500.49 5965.58 5058.51 4244.49 4050.03 4120.07 3840.21 3429.57 6746.66 5410.33 5420.67 5661.6 4827.61 5285.75 5481.64 5673.75 5360.67 5968.54 6263.3 4501.05 4537.03 6548.29 4114.2 4326.06 5034.46 5757.29 5016.46 5469.17 5061.75 4373.2 3769.24 3743.76 6711.21 4971.29 5832.29 2606.51 4438.76 5372.82 5401.4 4775.49 4681.29 5749.6 7320.78 4834.44 3873.92 4092.07 5347.9 4717.73 4928.85 5072.5 4749.18 4546.96 4316.0 5134.72 4475.38 5287.25 5917.34 5740.98 5630.9 4728.55 4554.68 4551.26 4559.74 4383.68 6666.67 4583.94 5046.31 4337.32 4680.69 2628.22 3352.34 4901.29 4952.52 3242.31 6099.28 5372.25 5385.03 4169.15 3234.26 4778.37 3494.16 5134.17 4074.16 4904.35 5592.54 3247.97 5124.34 4904.37 4358.81 4651.64 5729.92 4179.87 6224.13 4761.84 3661.67 5153.18 3425.69 5510.45 3864.92 3994.39 6119.99 4159.81 4446.58 4402.17 3845.9 4174.44 6331.74 4198.9 4213.05 4224.3 5235.87 3904.07 6502.99 5424.55 4921.1 4770.51 6511.37 3787.08 4462.87 4218.16 6139.64 4140.92 4692.32 4474.83 4585.04 6570.35 4242.63 7407.91 6063.44 4051.18 5849.53 4420.11 5863.0 6127.39 4802.98 4833.55 7224.99 3908.56 4898.29 5265.63 4431.06 5730.2 4830.13 5370.9 4529.77 4325.13 6172.27 5390.33 3783.79 5078.73 5278.54 5729.0 5192.92 5275.57 4786.66 5891.25 5370.1 5393.76 3684.15 4730.14 5906.57 7541.76 4990.23 3784.94 5499.59 5667.51 5431.29 4833.67 5325.91 5157.38 6203.03 4700.07 5273.37 4732.37 5713.36 5553.94 4704.92 4287.25 4392.75 3814.16 4191.01 4589.06 5577.41 4216.44 3999.5 4012.92 4346.07 4933.49 5236.24 3127.83 3269.54 5836.26 6015.22 6449.06 4651.99 5640.12 4972.18 5329.76 4124.76 7200.89 5684.88 6523.78 4645.86 4045.67 5620.88 4941.52 5900.0 4262.74 6241.77 4248.14 5317.19 5279.19 4016.6 5821.49 7050.08 5580.44 5998.13 5902.67 5454.11 4236.86 6010.59 7123.04 4128.1 4618.73 4932.29 4506.66 4141.21 4439.71 4064.58 4646.51 4546.44 952.938 4184.21 6089.45 4985.3 4966.07 3987.69 4666.12 6219.34 4920.88 4013.86 4177.47 4770.63 4385.49 6102.49 5114.23 6061.85 4826.52 2904.46 5241.75 4731.53 3763.9 4577.73 4288.45 5419.57 4147.49 5760.98 4954.76 4642.74 5384.86 5764.52 3770.22 4390.64 4608.01 5150.84 5087.97 6005.95 4308.49 4519.03 4930.17 4581.1 4085.96 4745.44 5762.82 7360.12 6223.98 5462.6 5617.29 3035.06 4262.19 4597.88 5095.52 4763.4 5806.61 2955.36 3965.3 3220.29 4125.9 5426.4 5951.86 5023.41 3791.41 5853.12 5702.4 5473.89 5265.21 4657.24 4400.14 5995.4 4184.47 5890.25 5700.79 6710.14 5759.79 4598.54 5218.42 2918.64 5345.73 5188.22 4512.07 4841.23 4896.43 5984.8 5463.06 4212.15 4639.8 5678.58 3185.09 5532.75 6949.65 4263.18 3469.18 5495.0 4489.29 4301.93 5064.23 5268.15 4454.74 5512.44 6347.72 4924.07 4685.4 5120.92 4629.02 6240.42 5146.0 4788.7 4608.62 5407.96 5084.5 4918.64 6206.98 6638.25 5078.59 4607.18 4775.04 2403.72 2646.13 5162.67 3646.95 4636.53 4081.34 4705.68 5469.35 5117.64 6334.53 3402.44 4848.98 4491.96 5184.98 4467.51 5339.82 5460.57 5110.27 5703.34 4612.68 6668.98 6649.52 4232.33 4939.56 4747.68 5770.92 3093.38 4845.91 4878.93 4461.67 6273.6 2002.78 5136.87 5638.7 5024.32 4708.17 2741.2 4941.02 4644.88 3779.45 5790.42 4983.1 5784.37 3142.09 3682.35 5182.13 5003.3 3668.93 4009.24 3756.96 6110.48 6245.52 3954.77 6793.1 6016.87 3125.13 5515.73 6715.73 4564.41 5209.55 6405.69 5763.05 5357.39 5129.68 4252.18 4659.88 5247.01 5797.21 4208.37 4841.7 6019.35 5069.9 4678.7 3673.6 5810.17 3450.07 3306.84 6215.87 6485.77 5191.26 3669.32 4762.1 3484.81 5308.33 4271.07 4685.65 5674.63 5340.05 6506.63 4140.04 3495.3 5322.11 5125.17 4697.49 5735.08 4726.2 5034.05 4816.51 4426.02 4711.15 3825.48 4658.59 4474.39 3810.68 2804.54 3990.94 4196.62 4756.8 4357.11 5477.8 4176.32 5486.89 4462.35 6069.78 3986.41 5260.52 4241.68 3587.93 4549.51 4975.85 4095.83 2945.34 4517.29 5695.25 3372.95 5676.61 5323.95 5846.95 5716.42 5701.63 5796.26 5819.0 4620.95 4603.04 4870.94 3200.6 5368.93 4488.39 3460.93 5124.86 6121.56 4927.73 5914.5 5721.14 6006.16 3565.32 5710.33 4987.28 5344.44 4071.75 4626.72 6432.8 6562.03 4815.47 5549.71 3899.7 4759.99 4368.12 4410.82 5134.33 4365.58 3889.98 5214.4 3629.49 5399.43 5766.05 5034.34 5695.44 3835.81 3422.21 3916.42 5537.61 6084.88 4199.44 4397.06 4053.12 4479.5 6261.67 3435.13 5065.78 4431.46 4521.42 3207.84 3977.98 6043.34 4128.93 4959.72 4712.17 3808.04 4723.71 4493.79 4405.61 5684.05 4932.56 3667.93 4279.44 5192.49 4899.19 3487.31 5813.79 5058.34 4028.22 5575.11 5293.13 7350.26 5591.77 3768.46 5167.53 7145.73 5800.81 4168.52 5403.97 5106.46 4795.08 6562.92 4068.31 5501.73 5166.05 3671.06 4697.24 5077.29 3612.44 4983.43 7035.54 4850.5 5866.91 5233.76 4683.28 2820.07 6549.8 4825.73 5679.74 5076.84 4165.36 5288.33 4871.77 6296.54 5811.26 5685.74 5062.77 4884.93 6740.35 6075.99 6028.63 3957.38 4550.92 5927.2 5146.1 5035.71 4419.79 5407.69 6060.06 5866.42 5544.27 5960.5 5393.43 4117.9 6896.55 4753.76 5377.01 4638.09 6023.07 4441.91 6470.23 5330.26 5828.25 5939.22 4668.8 4215.05 4271.93 4604.1 4859.01 5076.11 5524.45 7133.44 3953.26 4750.81 4282.11 5467.51 5459.92 4625.53 6478.35 5453.77 4096.47 2809.19 5114.67 5005.6 4916.7 4104.04 5589.53 7208.19 5593.79 5196.08 5025.42 6379.38 6257.79 4495.75 6171.01 4849.5 5353.23 6229.83 4468.26 4523.81 5578.18 5106.33 5293.37 5271.88 5933.54 5559.79 7168.2 4602.57 3763.85 3419.07 4571.74 5740.78 3622.48 4096.86 4796.12 5001.51 5385.86 5115.42 5131.77 3186.07 4369.86 4967.51 6443.99 5173.82 7212.97 5193.58 3720.7 5490.64 5698.53 3769.2 3604.31 5036.14 4507.46 4450.49 3468.45 3228.27 4721.98 5252.82 3543.98 4142.1 5056.26 5878.55 4014.44 6604.72 6002.77 3794.47 4610.55 4967.02 4614.49 5400.69 4462.5 2807.46 5573.31 5004.68 4023.88 5348.11 5428.24 5537.34 5884.99 5726.42 6643.4 4674.9 3918.94 3392.26 2549.95 5461.72 5487.63 3852.82 4507.36 6599.28 5138.93 6224.85 4556.19 6406.8 7086.69 5368.66 5648.78 6170.9 6875.73 4436.48 5226.42 6081.3 5117.52 3967.76 6311.89 6734.39 4217.36 5942.45 4150.76 4851.18 4228.53 5005.72 5368.52 5155.28 5388.73 5205.38 4764.83 4949.55 4600.71 1969.87 5262.79 4841.28 4494.15 6889.5 4710.88 5300.17 3869.39 5152.78 4057.4 4896.67 5534.23 4781.9 6025.77 6815.96 4466.22 5339.6 5917.08 4725.11 5483.37 3626.86 5418.12 6371.96 5322.07 5770.07 5990.75 5101.6 5600.21 4984.17 4656.01 5781.62 6589.13 4037.86 2347.41 5602.62 4542.16 3543.37 2030.03 5714.51 5628.97 5353.66 2638.82 5030.33 5104.39 5234.2 4965.24 4612.13 5846.6 5327.05 5438.55 4434.65 5977.66 5209.5 5791.25 5065.74 5198.94 4873.23 4028.35 5464.05 5879.24 2980.31 3148.79 6348.93 6824.53 5997.91 4332.64 4742.82 4422.23 6791.86 4082.4 4209.0 4820.68 4930.72 5482.76 5728.58 3745.02 4887.73 4211.36 6297.99 5378.24 3856.73 4538.89 5817.74 5887.71 3956.24 7558.99 3393.59 5043.14 5333.04 5445.91 4521.99 4812.59 6842.54 7115.67 5675.45 3361.11 5329.84 6038.56 5599.16 4179.8 3488.34 5658.35 6022.78 4087.32 4009.68 6647.85 7025.09 2569.12 4161.32 4433.12 5161.74 7336.37 4361.24 5932.28 5560.23 5099.9 2960.5 6945.69 4298.7 5118.86 3902.48 4183.4 4304.64 6030.39 5833.78 4733.79 4823.06 5758.98 5615.35 5254.49 5288.64 6213.24 5987.88 6883.86 3579.59 3350.99 6123.46 6161.94 4065.28 5057.59 6142.88 4461.14 5111.26 5285.6 4574.54 5490.54 5615.06 3132.34 5203.54 4047.95 5507.38 6142.94 5001.69 4416.87 6581.56 4052.43 3980.46 4061.87 5383.9 3934.11 5158.44 3798.09 3886.56 4288.5 4496.51 5715.51 6153.71 4511.05 3456.3 6561.94 5259.21 5092.93 5934.05 2803.01 5881.93 4714.66 4444.0 6771.18 6182.19 5327.39 7415.84 4981.81 4138.59 4970.55 4938.33 4484.78 4621.33 5527.27 5157.73 5847.91 4541.22 4934.66 4984.01 4109.44 6217.33 4903.84 4290.49 4557.1 6688.53 4605.39 5927.1 6175.27 5876.51 4103.76 6731.89 4286.61 4094.63 4733.41 2932.52 5410.6 5264.83 4603.66 5453.2 4969.68 5136.51 3901.53 6815.51 5313.86 5232.16 4457.05 3989.26 5189.91 6031.22 5485.84 6424.77 4335.79 5453.69 5797.32 5918.95 5432.04 5689.56 6556.86 5580.95 3549.92 6598.99 4032.06 5246.81 5089.1 5888.95 5394.78 3463.34 5169.09 5122.38 2853.68 5262.85 4998.37 6559.82 3879.83 5342.9 6565.95 4577.98 5043.34 5886.81 5517.65 5114.51 5129.4 3303.49 4655.37 4622.73 5585.25 5256.75 6351.89 6530.78 5059.37 5783.38 4975.32 3043.77 4139.39 5237.55 3909.94 5088.64 6589.8 4905.53 3799.01 6920.92 7392.65 5319.1 3757.23 6828.8 4181.93 6570.43 3820.19 4979.5 4586.82 4745.37 5939.29 6200.05 5418.98 5859.17 5575.11 4034.41 5061.74 4052.49 5326.03 5522.34 6189.67 4420.35 5717.45 4948.96 5256.82 4013.86 4645.93 5165.31 5448.64 4585.37 6417.61 3721.69 5783.69 6074.39 5317.83 3483.61 4256.08 6738.9 4399.52 4460.89 4554.24 4157.1 3939.96 8052.53 4867.12 5910.66 6520.19 4637.3 5141.03 1458.87 4840.44 8123.59 4819.83 5765.14 4801.16 4767.54 5071.38 4946.08 5121.08 3539.68 4696.03 5688.77 6177.68 4698.7 6270.59 2848.44 6045.26 6500.45 5743.8 4907.55 5084.76 6666.34 6605.11 4757.87 3557.46 6636.43 5431.14 6298.8 5178.07 3689.24 5151.19 5777.26 3618.64 5703.84 4171.02 3530.82 7012.36 5028.06 4002.99 4886.99 5159.67 3921.27 3161.1 3572.73 4864.38 3702.45 4313.38 5827.3 5250.56 3633.58 2468.16 6294.14 4339.97 5203.75 3906.41 4691.15 2459.88 4512.6 4210.24 5470.67 5901.71 5225.11 5252.22 5733.12 4962.35 6436.29 4746.15 6275.25 3720.38 4758.84 4731.37 5023.61 4452.36 3976.0 4672.86 6463.71 4742.35 5394.79 5645.54 6264.03 4526.87 3562.8 4227.66 4151.74 4691.01 4174.22 5192.82 3729.16 3783.36 3573.84 3038.91 4067.89 3922.28 6294.09 4571.57 3445.92 5131.07 4121.07 5236.69 4197.87 3133.28 5524.28 5105.54 6026.04 5731.43 6353.81 3518.14 3414.67 5444.36 4150.44 5044.68 5771.98 5899.78 2649.69 5000.74 5117.83 5772.57 5268.27 4813.81 3882.37 5244.95 4634.25 4095.4 5901.8 4718.61 5188.57 6351.48 5395.12 5357.33 3830.7 6210.0 5432.4 5350.9 4262.52 5992.06 5545.68 4970.12 6044.01 4967.93 6369.66 5973.57 5922.62 5734.07 6241.48 3997.68 6033.28 5957.82 6286.27 6327.54 2927.84 5616.66 4802.36 2943.17 5368.28 5466.13 4220.43 6229.64 5257.38 5075.23 6263.87 4975.56 7282.36 3826.01 4645.91 5581.01 3928.99 6834.92 6379.33 5971.95 5652.73 5130.57 3979.46 6321.97 3985.93 6412.84 6509.54 6119.0 3792.06 5128.59 4993.49 4937.36 4293.3 5308.4 5587.3 5310.33 6583.37 3688.83 2832.83 4474.96 4084.87 6036.99 3010.1 5259.29 3825.98 4589.22 5087.03 4667.84 5584.64 4123.08 4260.38 4636.45 4932.27 3799.55 5638.51 6793.49 6060.19 3563.33 5536.0 6786.37 5631.32 6892.33 4505.3 5793.14 4491.26 4609.65 4511.34 5704.61 4068.41 4832.21 5009.21 4574.03 4379.91 4942.63 5290.37 6139.74 5850.38 4975.57 5264.08 4730.97 7066.26 4594.89 5245.95 3677.85 5821.42 4515.02 3463.53 4924.52 6126.03 2970.24 6044.69 5658.05 6593.1 5462.1 4000.51 6032.45 5011.37 4026.03 6908.32 3467.11 4817.75 6153.26 5637.53 4848.15 4439.09 5523.81 5648.59 6697.45 3873.79 5717.67 5252.37 5515.59 3224.81 4499.54 5037.58 7430.48 5640.67 6572.17 6080.69 3751.73 5555.89 4766.47 4871.1 5678.08 6009.93 5872.45 4414.09 5125.45 4188.16 3784.68 3717.22 6305.9 6649.21 5507.07 4654.92 5327.71 5286.55 4880.78 4322.56 5509.09 5625.02 5212.05 5479.86 4829.77 4444.92 6959.88 4125.75 5971.9 5749.53 5090.48 5247.73 5402.45 5034.02 5582.28 5945.25 6071.59 2589.19 3856.4 6079.55 4696.06 5485.61 4137.16 6189.29 5984.55 6581.13 4569.32 4758.76 4790.63 4088.72 3584.05 3945.62 4916.75 4818.53 5097.85 6189.04 6224.64 4221.03 5189.4 4576.71 5082.66 4550.77 4337.93 3550.88 4345.51 4048.73 6223.33 6126.5 6322.0 6007.1 6345.2 5488.96 5128.03 3720.92 5410.73 4793.06 5087.3 6637.38 6188.33 6111.23 3057.3 6916.18 6150.31 5873.62 5214.71 4996.91 4677.84 4811.11 3920.44 5379.52 4450.51 4866.8 5314.67 3851.47 5563.47 4966.74 5651.46 4066.36 3162.27 6033.93 4083.24 5516.37 2827.92 4441.44 5092.44 5432.2 4232.44 5336.61 4612.4 5563.09 3312.3 6381.58 3282.57 4798.13 5212.2 5108.42 4630.5 6296.36 4432.32 4451.76 7885.41 3775.38 4046.22 5782.25 6457.89 4104.97 4844.2 5114.61 6118.13 3374.62 4926.62 4420.3 3917.09 6332.64 6492.44 4083.1 4613.32 5270.1 3482.73 5191.29 5130.56 4947.64 4957.99 4063.26 4997.89 4542.62 5093.28 3470.69 4859.95 4132.08 5522.18 5223.1 4850.49 3873.72 4981.55 4592.49 5144.23 3625.98 6188.62 6474.5 4702.32 4414.06 4763.04 3746.62 4413.56 4876.37 4532.67 5316.05 2513.38 4769.62 5260.13 4649.5 5019.84 5181.31 4810.74 5985.75 5784.38 5475.83 4149.17 4329.8 5728.27 5672.46 5803.3 5367.05 4449.73 5647.11 3743.85 6236.46 5342.17 6379.3 5015.67 3795.63 6538.04 4894.15 6157.59 5201.3 5848.41 4090.28 4246.83 4034.88 5108.84 4582.12 3511.5 4295.25 4520.14 5067.92 3188.21 5357.14 4850.95 5919.27 5374.09 6271.22 3421.81 3920.64 5378.75 6186.24 5786.06 4137.41 3868.69 5447.74 6033.72 5007.41 3768.62 3692.99 6213.74 2329.93 4369.87 4959.94 1635.31 6938.87 5639.4 6185.73 4806.99 6520.96 3771.91 5856.43 5217.62 6178.19 4746.19 4616.81 5715.25 4362.94 4611.21 4469.82 6545.78 3354.94 4404.87 4870.14 5237.27 5105.72 5767.65 4750.76 5003.49 4907.03 5497.27 4575.72 4081.77 4948.21 2181.29 4987.01 4706.31 4202.12 2694.25 6265.48 4735.99 4203.68 4739.56 5145.39 3996.93 6351.95 5195.09 5345.05 5200.1 7679.2 4881.51 6131.52 4311.92 6009.88 4699.77 6729.99 5093.41 6842.35 5464.34 6153.07 3621.63 5801.89 5908.57 5944.52 7296.47 5050.2 4821.41 4908.32 4924.53 3995.08 5616.11 4499.52 3874.12 4028.13 3900.93 4457.73 6476.35 3113.64 6260.58 4067.24 3053.19 5202.33 3074.49 4487.51 6805.02 5354.48 7394.47 4729.45 6261.13 4167.55 4720.34 5244.47 5510.89 4731.16 6470.87 5822.7 4495.33 3780.07 4159.89 5466.49 5178.55 4038.17 4907.48 5146.69 6818.23 4488.41 6679.12 5412.07 5652.19 5512.57 6578.62 4813.55 6284.12 3465.03 4796.04 3839.0 5349.85 5229.56 5799.86 5172.1 4672.34 6052.22 5376.41 5003.63 2932.2 4695.7 4944.08 4082.01 5269.39 3964.03 4216.33 5832.72 5617.91 3903.9 4444.95 4721.2 5161.02 3943.77 3124.49 5003.81 6262.18 3818.37 5566.5 4701.03 5663.36 3352.46 6225.05 5434.04 5125.53 3997.52 4444.54 2626.41 5779.9 4909.74 5310.33 6664.54 3922.98 5161.73 5259.48 4777.96 5254.93 4803.4 6833.5 6608.94 5742.39 2613.78 4780.16 3834.01 4433.23 4813.24 5759.19 5847.27 4490.2 4304.75 5734.84 5480.86 6139.9 6571.26 4246.24 4919.13 4600.81 5640.63 4900.26 4358.06 5783.88 5002.38 6705.93 4865.11 5502.14 5449.09 4605.61 4465.56 5282.67 4131.08 5747.9 5386.95 3864.19 4287.93 5315.71 6203.24 6158.93 5081.65 4823.14 5438.5 4621.32 5806.74 5699.4 3878.8 5237.76 4698.94 4286.84 3948.21 5669.15 5296.05 6011.4 3330.85 5056.32 5533.52 5410.33 4747.24 4380.86 4909.13 5576.16 4305.35 5648.02 3308.75 5210.22 2451.27 5677.42 2701.42 4929.35 5606.22 6673.92 5242.38 6081.35 5151.68 5459.52 4609.98 4738.72 4752.31 5240.97 5579.04 4276.59 5405.6 5994.21 5403.81 5082.25 6964.78 5299.03 4374.05 5036.84 4565.36 5813.68 4025.08 4008.67 5040.9 3618.53 4770.21 8013.28 3846.55 3796.73 5417.07 3082.16 5656.84 5738.37 6789.66 4739.41 5312.2 4706.59 2515.5 5551.79 3982.31 4950.07 4720.22 5402.81 4333.23 4328.76 5561.63 4124.33 5168.97 6568.45 5093.51 5647.93 4280.92 6201.49 5154.74 4696.92 6437.99 6898.8 6540.57 5332.11 4893.72 6004.72 4072.4 5373.78 5345.65 4489.18 5863.36 4632.75 4752.94 4994.98 3950.53 6423.96 6058.13 5894.69 5263.86 6988.4 6635.51 4060.17 6051.35 5302.53 5543.67 4287.61 3999.81 4867.13 4604.34 4439.17 4863.27 4502.12 5442.79 5051.39 4633.59 4884.94 5733.59 5362.15 4455.61 3695.72 6874.6 5106.9 5569.85 5523.96 3929.35 4884.93 4759.38 6960.97 4287.15 5282.51 5504.65 5669.41 5732.11 3919.47 5596.68 4868.66 4004.39 5159.9 5283.65 4644.68 4987.48 5943.61 2892.36 5981.54 4248.58 5911.29 5416.41 4694.27 6760.64 4849.21 5177.88 4785.55 3793.83 6981.47 4582.24 3916.15 5145.13 3860.8 3747.96 5611.29 5940.5 4521.88 5004.22 5103.3 4601.54 4963.88 7263.57 3832.09 5705.96 5267.65 5739.69 4790.16 6632.04 5360.88 7360.62 4985.45 4977.64 4983.56 5699.51 4714.52 2489.44 5499.37 4883.13 4836.76 5551.09 5755.98 4501.1 5581.47 4384.91 6550.61 4987.01 4277.54 4713.56 6094.34 6779.82 4739.5 6210.48 6377.45 4182.05 3255.93 6853.07 6327.61 5575.8 5268.93 5306.31 4223.53 4733.37 4535.94 3037.72 4523.9 5126.08 5604.0 3760.4 4951.02 4602.7 3783.35 4037.16 6395.63 5479.17 5020.37 4542.25 4414.23 5233.88 5245.4 6189.81 5438.6 7370.52 4726.5 5467.05 3724.23 5888.94 4122.2 4727.98 5175.88 4516.26 3509.34 3647.26 3731.58 3166.37 5369.42 5207.08 5205.53 4587.19 5543.05 6028.89 5333.16 4888.17 5392.85 5077.2 4274.05 5275.27 5529.09 4531.46 5925.82 5448.68 4072.95 4491.62 3865.5 
SCALARS Velocity float 1
LOOKUP_TABLE default
1.19194 1.19211 1.19201 1.19207 1.19178 1.19221 1.19212 1.19208 1.19177 1.19204 1.19178 1.19185 1.19178 1.19178 1.19191 1.19178 1.19178 1.19182 1.19178 1.19178 1.19177 1.19199 1.19192 1.19177 1.19178 1.19177 1.19178 1.19177 1.19178 1.19178 1.19178 1.19188 1.19191 1.19203 1.19202 1.192 1.19193 1.19186 1.19188 1.19185 1.19178 1.19198 1.19178 1.19177 1.19218 1.19202 1.19185 1.19178 1.19194 1.19203 1.19199 1.19179 1.19178 1.19182 1.19214 1.1918 1.19228 1.19196 1.19178 1.1918 1.19192 1.19221 1.19184 1.19223 1.1922 1.19227 1.19209 1.19188 1.19192 1.19218 1.19226 1.19213 1.19201 1.19178 1.19205 1.1918 1.19215 1.19178 1.19188 1.1918 1.1919 1.19224 1.19249 1.19198 1.19204 1.19205 1.19178 1.19187 1.19186 1.19263 1.19228 1.19195 1.19209 1.19226 1.19207 1.19211 1.19216 1.19212 1.19178 1.19187 1.19177 1.19178 1.19193 1.19178 1.19178 1.19182 1.19178 1.19208 1.19178 1.19201 1.19178 1.19178 1.19178 1.19183 1.19178 1.19178 1.1918 1.1918 1.19182 1.19193 1.19198 1.19205 1.19203 1.192 1.19194 1.19189 1.19177 1.19181 1.19194 1.19188 1.19198 1.19196 1.19174 1.19205 1.19217 1.19186 1.19185 1.19217 1.1919 1.19196 1.1919 1.19176 1.19178 1.19216 1.19248 1.19245 1.19176 1.19178 1.19182 1.19187 1.19184 1.19213 1.19205 1.19205 1.19178 1.19234 1.19199 1.19175 1.19178 1.19178 1.19179 1.19197 1.19185 1.19167 1.1923 1.19174 1.19185 1.19218 1.19243 1.19225 1.1922 1.19212 1.19188 1.19182 1.19224 1.19177 1.19211 1.19203 1.1917 1.19205 1.19193 1.19225 1.19174 1.19192 1.19175 1.19198 1.19235 1.19198 1.19191 1.19201 1.19193 1.19197 1.19186 1.19231 1.19241 1.19214 1.19226 1.19244 1.19226 1.19239 1.19208 1.19183 1.19212 1.19183 1.19233 1.19178 1.19195 1.19177 1.19178 1.19183 1.19178 1.19208 1.192 1.19186 1.19198 1.19178 1.19187 1.19188 1.1918 1.19191 1.19199 1.19211 1.19204 1.19195 1.19189 1.1918 1.19192 1.19178 1.192 1.19197 1.19178 1.19205 1.19216 1.19186 1.19178 1.19178 1.19211 1.19189 1.19197 1.19191 1.19188 1.19222 1.19267 1.19191 1.19177 1.19178 1.19187 1.19208 1.19197 1.19219 1.19205 1.19239 1.19199 1.19213 1.19198 1.19255 1.19184 1.1923 1.19185 1.19204 1.19184 1.19251 1.19228 1.19217 1.19215 1.19184 1.19179 1.19222 1.19209 1.19181 1.19219 1.19228 1.19268 1.19186 1.19172 1.1921 1.19172 1.19175 1.19186 1.19246 1.19195 1.19238 1.19193 1.192 1.19195 1.19195 1.19199 1.19178 1.19178 1.19232 1.19224 1.19217 1.19248 1.19236 1.19206 1.19183 1.19205 1.19192 1.19178 1.19179 1.19228 1.19191 1.19193 1.192 1.19177 1.19183 1.19168 1.19207 1.19178 1.19199 1.192 1.19191 1.19176 1.19178 1.1918 1.19173 1.19178 1.19183 1.1919 1.19183 1.19232 1.19196 1.19206 1.19211 1.19195 1.19188 1.19211 1.19186 1.19198 1.19196 1.19139 1.19211 1.19209 1.19213 1.19189 1.19176 1.19172 1.19216 1.19207 1.19214 1.19237 1.19275 1.19186 1.19182 1.19195 1.19197 1.19205 1.19178 1.19178 1.19205 1.19256 1.19178 1.19283 1.19207 1.19245 1.19191 1.1923 1.19185 1.19202 1.19197 1.1925 1.19209 1.19211 1.19211 1.19215 1.19226 1.19235 1.19203 1.19259 1.19236 1.19207 1.19203 1.19192 1.19221 1.19269 1.19192 1.19197 1.19274 1.19185 1.19243 1.19256 1.19191 1.19236 1.19164 1.19192 1.19205 1.19252 1.19222 1.19205 1.19213 1.19247 1.19249 1.19239 1.1923 1.19198 1.19245 1.19197 1.19174 1.19231 1.19189 1.19199 1.19207 1.19177 1.1919 1.19176 1.19206 1.19177 1.19201 1.19199 1.19204 1.19194 1.19178 1.1925 1.19187 1.19185 1.19179 1.19183 1.19182 1.19208 1.19204 1.19183 1.19202 1.19186 1.19202 1.19208 1.19204 1.19183 1.19208 1.19209 1.19192 1.19197 1.19177 1.19165 1.19189 1.19136 1.19245 1.19188 1.19148 1.19232 1.19198 1.19198 1.19207 1.19214 1.19208 1.19185 1.19182 1.19195 1.19201 1.19178 1.19177 1.19173 1.19239 1.19262 1.19249 1.19199 1.192 1.19171 1.19233 1.19182 1.19248 1.19188 1.1921 1.19242 1.19215 1.19144 1.19213 1.19234 1.19234 1.19173 1.19273 1.19238 1.19221 1.19248 1.19195 1.19227 1.19157 1.19208 1.19212 1.19201 1.19211 1.19248 1.192 1.19206 1.19203 1.19198 1.19253 1.19202 1.19206 1.19239 1.1924 1.19224 1.19192 1.19244 1.19196 1.19136 1.19185 1.19177 1.19247 1.19214 1.19226 1.19185 1.19194 1.19215 1.19205 1.19189 1.19199 1.19203 1.19192 1.19165 1.19249 1.1919 1.19192 1.19186 1.19207 1.19178 1.19187 1.19179 1.19192 1.19202 1.1919 1.19213 1.19181 1.19176 1.1918 1.19182 1.19183 1.19195 1.19207 1.19195 1.19212 1.19208 1.19212 1.1927 1.19272 1.19182 1.19193 1.19191 1.19201 1.19171 1.19172 1.19149 1.19236 1.19257 1.19207 1.19277 1.1918 1.19151 1.1921 1.19227 1.19233 1.19214 1.1922 1.19188 1.19203 1.19252 1.19252 1.19239 1.1923 1.19145 1.19218 1.19175 1.19202 1.19251 1.19278 1.19279 1.19273 1.19235 1.19188 1.1924 1.19193 1.19232 1.19164 1.19213 1.19178 1.19203 1.19196 1.19168 1.19244 1.19206 1.19195 1.19249 1.19178 1.19196 1.19232 1.19239 1.19218 1.19193 1.19244 1.19188 1.19122 1.19125 1.19189 1.19186 1.1916 1.19212 1.19181 1.19194 1.19216 1.19207 1.19199 1.19165 1.19186 1.19186 1.19192 1.19222 1.1921 1.19184 1.19172 1.19186 1.19187 1.19174 1.19191 1.19203 1.19203 1.19207 1.19196 1.19194 1.19215 1.19191 1.19206 1.19166 1.19155 1.19184 1.19181 1.19194 1.19187 1.19232 1.19183 1.19243 1.19281 1.19249 1.19269 1.19266 1.19261 1.19192 1.19197 1.19191 1.19166 1.19168 1.1915 1.19178 1.19196 1.1943 1.19164 1.19175 1.19171 1.19232 1.19232 1.19218 1.19185 1.19219 1.19221 1.19238 1.1917 1.19218 1.19188 1.19246 1.19333 1.19275 1.19265 1.19201 1.19171 1.1923 1.19184 1.19225 1.19162 1.1921 1.19161 1.19198 1.19177 1.19176 1.19211 1.19175 1.19207 1.19141 1.19143 1.19193 1.19178 1.19203 1.19172 1.19204 1.19219 1.1913 1.19213 1.19229 1.19213 1.19236 1.19183 1.19176 1.19161 1.19197 1.19177 1.19153 1.19207 1.19212 1.19195 1.1919 1.1918 1.1922 1.19192 1.19198 1.19185 1.1917 1.19201 1.19178 1.19198 1.19176 1.1919 1.19197 1.19193 1.19203 1.19197 1.1919 1.19213 1.19191 1.19219 1.19162 1.1926 1.1918 1.19182 1.19184 1.19161 1.19168 1.19196 1.19255 1.19188 1.19203 1.19245 1.19266 1.19256 1.19192 1.19295 1.1925 1.19277 1.19364 1.19136 1.19286 1.19178 1.19158 1.19197 1.19248 1.19244 1.19211 1.19163 1.19248 1.1923 1.19167 1.19183 1.19217 1.19197 1.19182 1.19268 1.19272 1.19205 1.19209 1.19229 1.19204 1.19225 1.19287 1.19228 1.19201 1.19169 1.19229 1.19205 1.19173 1.19225 1.19199 1.19235 1.19177 1.19243 1.19181 1.19189 1.19194 1.19178 1.19178 1.19201 1.19212 1.19211 1.19175 1.19198 1.19196 1.19178 1.19185 1.19177 1.1917 1.19205 1.19173 1.19135 1.19234 1.19249 1.19191 1.19213 1.1919 1.19191 1.19165 1.19166 1.19209 1.19193 1.19195 1.19185 1.192 1.19146 1.19194 1.19145 1.19175 1.19186 1.19191 1.19205 1.19192 1.19188 1.19212 1.19196 1.19213 1.19249 1.19197 1.19198 1.1917 1.19184 1.19179 1.19211 1.19174 1.19168 1.19201 1.19251 1.1919 1.19215 1.19249 1.19243 1.19191 1.19281 1.19282 1.19297 1.19164 1.19325 1.19258 1.19163 1.19245 1.19116 1.19223 1.19231 1.19202 1.19098 1.19178 1.19245 1.19175 1.19241 1.19244 1.19189 1.19213 1.19183 1.19211 1.19192 1.19178 1.19255 1.19205 1.19236 1.19221 1.19213 1.19203 1.1922 1.19284 1.19259 1.19222 1.19178 1.19224 1.19201 1.19202 1.19187 1.19219 1.19202 1.19191 1.19124 1.19142 1.19175 1.19238 1.19242 1.19244 1.19202 1.19173 1.19126 1.19164 1.19189 1.19156 1.19171 1.19205 1.1914 1.19133 1.19157 1.19233 1.19181 1.19155 1.19182 1.19196 1.19196 1.1916 1.19223 1.192 1.19133 1.19178 1.19213 1.19183 1.19187 1.19163 1.19167 1.19206 1.19191 1.19184 1.19206 1.19184 1.19166 1.19172 1.19138 1.19179 1.19184 1.19182 1.19188 1.19178 1.19177 1.19196 1.19178 1.19179 1.19192 1.19191 1.19219 1.19248 1.19178 1.19174 1.19301 1.19091 1.19247 1.19249 1.19198 1.19178 1.19178 1.19232 1.19239 1.19319 1.19196 1.19251 1.1928 1.19279 1.19301 1.19263 1.1919 1.19275 1.19143 1.19131 1.19117 1.19212 1.19228 1.19196 1.19099 1.19034 1.19236 1.1924 1.19212 1.19193 1.19219 1.19189 1.19246 1.19199 1.19206 1.19215 1.1921 1.19205 1.19214 1.19226 1.19132 1.19192 1.19232 1.19192 1.192 1.19238 1.19196 1.19146 1.19131 1.19182 1.19237 1.19166 1.19166 1.19167 1.19261 1.19201 1.19171 1.19141 1.19162 1.1913 1.19171 1.19219 1.19266 1.19171 1.19214 1.19178 1.1918 1.19163 1.19196 1.19164 1.19196 1.19185 1.19209 1.19192 1.19142 1.19205 1.19181 1.19186 1.1916 1.19203 1.1919 1.19183 1.19204 1.1918 1.19165 1.19209 1.19168 1.1918 1.19182 1.19203 1.19157 1.19167 1.1916 1.19178 1.19191 1.19195 1.19177 1.19182 1.19183 1.19177 1.19195 1.19226 1.19191 1.19168 1.19301 1.19075 1.19225 1.19239 1.19239 1.19217 1.19284 1.1921 1.19228 1.19336 1.19273 1.19258 1.19266 1.19277 1.19261 1.19201 1.19065 1.19276 1.19129 1.19044 1.19114 1.19209 1.19161 1.19226 1.19159 1.19172 1.19144 1.19205 1.19195 1.19264 1.19165 1.1918 1.191 1.19019 1.19203 1.19129 1.19271 1.19186 1.19206 1.19178 1.1918 1.19199 1.19204 1.19145 1.19156 1.19178 1.19238 1.19134 1.19191 1.19129 1.19177 1.19229 1.18962 1.19238 1.19287 1.19219 1.1914 1.19157 1.19167 1.19174 1.19129 1.1918 1.19227 1.19272 1.19173 1.19175 1.19174 1.19168 1.19149 1.19175 1.19161 1.19198 1.19195 1.19224 1.19174 1.1917 1.19187 1.19219 1.19174 1.19155 1.19158 1.19199 1.19189 1.19182 1.19206 1.19172 1.19172 1.19178 1.19225 1.19227 1.19181 1.19176 1.19202 1.19157 1.19182 1.19181 1.19193 1.19158 1.19166 1.19181 1.19198 1.19222 1.19178 1.19168 1.19361 1.19173 1.19222 1.19277 1.19224 1.19178 1.19314 1.19243 1.19334 1.19275 1.1929 1.19256 1.19256 1.19175 1.19215 1.19277 1.19043 1.19177 1.19161 1.19195 1.19178 1.19186 1.19189 1.19249 1.19104 1.19178 1.19196 1.19184 1.19195 1.19126 1.19169 1.19163 1.19167 1.19194 1.19207 1.19166 1.19213 1.19184 1.19083 1.19177 1.19178 1.19171 1.19131 1.19129 1.19148 1.19187 1.19057 1.19082 1.19226 1.1922 1.19288 1.19201 1.19223 1.19149 1.19199 1.19218 1.19187 1.19126 1.1922 1.19198 1.19158 1.19169 1.19171 1.19162 1.19208 1.19159 1.19186 1.19242 1.19237 1.19181 1.19143 1.19182 1.19164 1.19206 1.19164 1.19153 1.19148 1.19195 1.1918 1.19182 1.19174 1.19147 1.19183 1.19223 1.19219 1.19196 1.19192 1.19185 1.19169 1.19154 1.19173 1.19163 1.19199 1.19128 1.19254 1.19279 1.19134 1.19368 1.19254 1.19307 1.19253 1.19178 1.19178 1.19322 1.19333 1.19228 1.19352 1.192 1.19243 1.19291 1.19243 1.19191 1.19142 1.19215 1.19209 1.19232 1.19181 1.19163 1.19211 1.19305 1.19187 1.19172 1.19176 1.1914 1.19168 1.19178 1.19162 1.19131 1.19174 1.19199 1.19197 1.19154 1.19161 1.1916 1.19205 1.19211 1.19082 1.19188 1.19157 1.19108 1.19181 1.19161 1.19129 1.19129 1.19154 1.19192 1.19055 1.19082 1.19221 1.19216 1.19285 1.19196 1.19218 1.19146 1.19183 1.19178 1.19178 1.19169 1.19073 1.19136 1.19164 1.19174 1.19168 1.19206 1.19163 1.19187 1.19131 1.19144 1.19163 1.19207 1.19132 1.19161 1.19164 1.19179 1.19198 1.19165 1.19145 1.19194 1.1918 1.19141 1.1916 1.19195 1.19233 1.19213 1.19191 1.19214 1.192 1.1918 1.19173 1.19172 1.19161 1.19152 1.19201 1.19067 1.19149 1.19212 1.193 1.19188 1.19087 1.19235 1.19234 1.19323 1.19276 1.19204 1.19163 1.19279 1.19292 1.1932 1.19226 1.19196 1.1931 1.19195 1.19233 1.19287 1.19447 1.19316 1.19054 1.19067 1.19171 1.19174 1.19246 1.19174 1.19223 1.19331 1.19136 1.19123 1.19163 1.19151 1.19188 1.19155 1.1916 1.19192 1.1916 1.1916 1.19175 1.19214 1.1913 1.19137 1.19126 1.19172 1.19168 1.19161 1.19124 1.19217 1.19189 1.19054 1.19064 1.19195 1.1918 1.19247 1.19133 1.19208 1.19147 1.19185 1.19184 1.19184 1.19178 1.19175 1.19066 1.19116 1.19168 1.19143 1.19179 1.19172 1.1921 1.19179 1.19174 1.19158 1.19167 1.19194 1.19132 1.19161 1.1916 1.1917 1.19174 1.19194 1.19178 1.19158 1.1914 1.19114 1.1915 1.19123 1.19197 1.19181 1.19139 1.19186 1.1921 1.19203 1.19233 1.19162 1.19153 1.19151 1.19157 1.19227 1.18998 1.19293 1.19346 1.19267 1.19069 1.19201 1.19174 1.19333 1.19269 1.1916 1.1932 1.19273 1.19308 1.19189 1.19173 1.19274 1.19196 1.19233 1.19152 1.19353 1.19442 1.19311 1.19128 1.1905 1.19224 1.19166 1.19168 1.19231 1.19034 1.19116 1.19143 1.19162 1.19322 1.19179 1.19178 1.19129 1.19121 1.19153 1.19163 1.1918 1.19166 1.19167 1.19162 1.19132 1.19152 1.19128 1.19152 1.19154 1.19162 1.19153 1.19127 1.19161 1.19164 1.192 1.1912 1.19153 1.19189 1.19183 1.19247 1.19198 1.19147 1.19186 1.19213 1.19185 1.19075 1.19088 1.19129 1.19173 1.19204 1.1917 1.19164 1.19184 1.19146 1.19182 1.19184 1.1917 1.19166 1.19184 1.19173 1.19156 1.19177 1.19152 1.19158 1.19182 1.19189 1.19175 1.19141 1.19174 1.19178 1.19183 1.19152 1.19152 1.1919 1.19196 1.19212 1.19185 1.19203 1.19253 1.19149 1.19078 1.19315 1.19252 1.19244 1.19133 1.19175 1.19334 1.19261 1.19188 1.19148 1.19165 1.19318 1.19306 1.19141 1.19309 1.19317 1.19291 1.19146 1.19158 1.19267 1.19245 1.19158 1.19357 1.19354 1.19126 1.19318 1.19283 1.19188 1.19189 1.19178 1.19029 1.19135 1.1918 1.1915 1.1921 1.19119 1.1912 1.19165 1.19139 1.19153 1.19156 1.19165 1.19146 1.19112 1.19137 1.19123 1.19211 1.19152 1.19164 1.19164 1.1915 1.19122 1.19123 1.19161 1.19165 1.19156 1.19213 1.19129 1.19178 1.19145 1.192 1.19235 1.19133 1.1919 1.19146 1.19182 1.19183 1.19187 1.19169 1.19188 1.19071 1.1912 1.19115 1.19173 1.19178 1.19164 1.19174 1.19144 1.19186 1.19184 1.19175 1.19165 1.19182 1.19156 1.19178 1.19185 1.19123 1.19196 1.19179 1.19139 1.192 1.19149 1.19169 1.19134 1.19143 1.19209 1.1926 1.19212 1.19202 1.19246 1.19146 1.1918 1.19308 1.19178 1.19185 1.193 1.19292 1.19212 1.19188 1.1923 1.1935 1.19263 1.19322 1.19326 1.19196 1.19213 1.19124 1.1931 1.19256 1.192 1.19322 1.19323 1.19203 1.19306 1.1929 1.19161 1.19249 1.19126 1.19142 1.19158 1.19203 1.19184 1.19124 1.19005 1.19146 1.19161 1.19178 1.19167 1.19167 1.19161 1.1911 1.19127 1.19121 1.19212 1.19148 1.19149 1.19196 1.19187 1.19151 1.19103 1.19123 1.19116 1.19206 1.1912 1.19178 1.19143 1.19195 1.1923 1.19133 1.19089 1.19168 1.19143 1.19174 1.19179 1.19168 1.19185 1.1915 1.1909 1.19105 1.19105 1.19096 1.19099 1.19167 1.19165 1.19175 1.19143 1.19183 1.19183 1.19183 1.19166 1.19181 1.19147 1.19131 1.19123 1.19179 1.19178 1.19138 1.19159 1.19173 1.19132 1.19143 1.19256 1.19198 1.19178 1.19145 1.19224 1.19218 1.19254 1.19098 1.19249 1.19422 1.19154 1.19178 1.19282 1.1929 1.19174 1.19205 1.19414 1.19125 1.19347 1.19255 1.19238 1.19304 1.19244 1.1925 1.19344 1.19246 1.19194 1.19319 1.19321 1.19197 1.19204 1.19182 1.19183 1.19362 1.19234 1.19178 1.19133 1.19321 1.1915 1.19229 1.19113 1.19087 1.1915 1.19084 1.19161 1.19178 1.19178 1.19175 1.19191 1.19141 1.19119 1.19114 1.19161 1.19134 1.19212 1.19149 1.19148 1.19115 1.1915 1.19074 1.19118 1.19201 1.19121 1.19145 1.19124 1.19195 1.19229 1.19161 1.19148 1.19178 1.19172 1.19177 1.19181 1.19152 1.19095 1.1913 1.19106 1.19113 1.19097 1.19167 1.19143 1.19155 1.19183 1.19142 1.19185 1.19158 1.19179 1.19162 1.19158 1.19167 1.19135 1.19134 1.19143 1.1914 1.19149 1.19178 1.19184 1.19178 1.19154 1.19171 1.19128 1.1916 1.19308 1.19209 1.19199 1.19117 1.19141 1.19218 1.19218 1.19219 1.19209 1.19132 1.19325 1.19445 1.19273 1.19287 1.19217 1.19179 1.194 1.19105 1.19239 1.19316 1.19245 1.19226 1.19311 1.19215 1.19251 1.19328 1.19189 1.1923 1.19189 1.19328 1.1932 1.19191 1.19188 1.19212 1.19175 1.19329 1.19231 1.19015 1.19152 1.19308 1.19162 1.19215 1.19082 1.19146 1.1908 1.19178 1.19248 1.19155 1.19185 1.19193 1.19155 1.19105 1.19185 1.19128 1.19178 1.19145 1.19153 1.19115 1.19159 1.19139 1.19085 1.19084 1.19179 1.19163 1.19152 1.19143 1.19118 1.19172 1.19128 1.19147 1.19139 1.1914 1.19161 1.19178 1.19183 1.19176 1.19181 1.19129 1.19192 1.19188 1.19073 1.19076 1.19111 1.19178 1.19093 1.19142 1.19172 1.19186 1.19162 1.19178 1.19181 1.19174 1.19162 1.19168 1.19158 1.19134 1.19159 1.19163 1.19159 1.19178 1.1914 1.19179 1.19177 1.1918 1.19126 1.19152 1.19147 1.19169 1.19306 1.19181 1.19113 1.19245 1.19145 1.19211 1.19208 1.19179 1.19183 1.19402 1.19333 1.19178 1.19308 1.19239 1.19194 1.19396 1.19276 1.19195 1.19181 1.192 1.19277 1.19239 1.19242 1.19301 1.19202 1.19223 1.19262 1.19212 1.19104 1.19287 1.19178 1.19216 1.19267 1.19238 1.19137 1.19175 1.1911 1.19212 1.1915 1.19153 1.19219 1.19096 1.19159 1.19093 1.19178 1.1916 1.19176 1.19184 1.19187 1.19151 1.19159 1.19109 1.19115 1.19221 1.19125 1.19109 1.19149 1.19162 1.19139 1.19123 1.19084 1.19105 1.19165 1.19154 1.19135 1.19167 1.19178 1.19128 1.19138 1.19168 1.19168 1.19186 1.19171 1.19167 1.19184 1.19173 1.19085 1.19136 1.19159 1.19093 1.19161 1.19172 1.19159 1.19179 1.1918 1.19174 1.19162 1.19163 1.19178 1.19177 1.19186 1.19182 1.1914 1.19226 1.19236 1.19172 1.19178 1.19135 1.19187 1.19181 1.19172 1.19195 1.19149 1.19155 1.1917 1.19109 1.19219 1.19189 1.19202 1.19183 1.19227 1.19296 1.19346 1.1932 1.19427 1.19309 1.19192 1.1915 1.19347 1.19269 1.1928 1.19219 1.1919 1.19188 1.19222 1.19258 1.19201 1.19087 1.19288 1.19178 1.19191 1.19066 1.19131 1.19131 1.19148 1.19159 1.191 1.19198 1.19209 1.19146 1.19215 1.19116 1.19135 1.19162 1.191 1.19163 1.19184 1.19153 1.19144 1.19141 1.19103 1.19117 1.19178 1.1914 1.19125 1.19178 1.19216 1.1916 1.19178 1.19177 1.19113 1.19226 1.19152 1.19136 1.19116 1.19153 1.19107 1.19126 1.19136 1.19168 1.19179 1.19178 1.1917 1.19167 1.19177 1.19172 1.19173 1.19166 1.19156 1.19089 1.19159 1.19173 1.1916 1.19179 1.19174 1.19162 1.19161 1.19174 1.19182 1.19154 1.19183 1.19188 1.19226 1.19166 1.19176 1.19152 1.19207 1.1917 1.19197 1.19182 1.19113 1.19186 1.19123 1.19146 1.19088 1.19216 1.19219 1.1923 1.19189 1.19116 1.19221 1.19273 1.1935 1.19297 1.19336 1.19317 1.19178 1.19162 1.18996 1.19176 1.19178 1.19314 1.195 1.19195 1.19294 1.19197 1.19274 1.19196 1.19097 1.19298 1.19378 1.19096 1.19067 1.1914 1.19163 1.19168 1.19212 1.19217 1.19125 1.19202 1.19106 1.19121 1.19171 1.19174 1.19159 1.19182 1.19077 1.19146 1.19143 1.19094 1.19154 1.1916 1.19153 1.19116 1.19149 1.19223 1.19175 1.19181 1.19191 1.19149 1.19164 1.19151 1.19139 1.19194 1.19179 1.19173 1.19115 1.19128 1.19133 1.19167 1.19181 1.19177 1.19178 1.19178 1.19177 1.19171 1.19173 1.19166 1.19178 1.19094 1.19162 1.19177 1.19178 1.19178 1.19174 1.19178 1.19159 1.19172 1.1917 1.19149 1.19178 1.19186 1.19185 1.19178 1.19126 1.19178 1.19194 1.1918 1.19167 1.19198 1.19109 1.19185 1.19122 1.19083 1.1911 1.19092 1.19207 1.19161 1.19189 1.19114 1.19215 1.19251 1.19318 1.19181 1.19315 1.19277 1.19199 1.19195 1.1903 1.19173 1.1947 1.19026 1.19183 1.19163 1.19305 1.19171 1.18995 1.19117 1.1911 1.19315 1.19274 1.19327 1.19096 1.1912 1.19178 1.19071 1.19188 1.1912 1.19144 1.19224 1.19206 1.19122 1.19117 1.19185 1.19173 1.19185 1.19146 1.19178 1.19187 1.19178 1.19148 1.19182 1.19154 1.19159 1.19152 1.19111 1.19143 1.19149 1.19175 1.19166 1.19178 1.19147 1.19179 1.19151 1.19141 1.19164 1.19147 1.19132 1.19155 1.19131 1.19167 1.19168 1.19174 1.19178 1.19178 1.19177 1.19172 1.19173 1.19178 1.19178 1.19178 1.19163 1.19177 1.19178 1.19178 1.19177 1.19178 1.1916 1.19171 1.1917 1.19179 1.19177 1.19172 1.19162 1.19172 1.19126 1.19169 1.19195 1.19129 1.19123 1.19158 1.19108 1.19076 1.1915 1.19097 1.19081 1.19127 1.19023 1.19133 1.19203 1.19102 1.19191 1.1916 1.19236 1.19177 1.19345 1.1926 1.1936 1.1923 1.19067 1.19165 1.19359 1.18982 1.19219 1.19124 1.19339 1.19257 1.19138 1.19052 1.19015 1.19237 1.19243 1.19091 1.1915 1.19118 1.19022 1.19171 1.19165 1.19129 1.19165 1.19124 1.19128 1.19182 1.19184 1.19177 1.19193 1.19148 1.19179 1.19157 1.19183 1.19154 1.19108 1.19143 1.19149 1.19167 1.19178 1.19177 1.19186 1.19152 1.19169 1.19147 1.19099 1.19143 1.19153 1.19131 1.19167 1.19178 1.19174 1.19178 1.19178 1.19177 1.19172 1.19173 1.19178 1.19178 1.19178 1.19163 1.19178 1.19178 1.19178 1.19178 1.19177 1.1916 1.19171 1.1917 1.19174 1.19174 1.19179 1.1918 1.19135 1.19173 1.19156 1.19184 1.19133 1.19129 1.1918 1.19059 1.1915 1.19105 1.1909 1.18959 1.19123 1.19058 1.19125 1.19081 1.19154 1.19222 1.19198 1.19414 1.19278 1.19089 1.19214 1.1907 1.19184 1.19377 1.18959 1.19162 1.19198 1.19074 1.19094 1.18996 1.19142 1.18955 1.18922 1.18961 1.19259 1.18972 1.19095 1.19147 1.19183 1.19176 1.19166 1.19118 1.19118 1.19122 1.19139 1.19141 1.19131 1.19111 1.19145 1.19178 1.19184 1.19153 1.19183 1.19151 1.19152 1.19145 1.19174 1.19189 1.19134 1.19131 1.19157 1.19167 1.19167 1.19151 1.19171 1.19152 1.19173 1.19095 1.1915 1.19163 1.19124 1.19069 1.19115 1.19046 1.1914 1.19186 1.19214 1.1942 1.19233 1.19268 1.19178 1.19242 1.19284 1.19332 1.19237 1.19048 1.19197 1.19062 1.19153 1.19049 1.19117 1.191 1.19118 1.19148 1.19177 1.19168 1.19145 1.19099 1.19105 1.19226 1.19036 1.1922 1.19163 1.19227 1.19113 1.19236 1.19275 1.19343 1.19205 1.19267 1.19293 1.19404 1.19132 1.19051 1.19127 1.19105 1.18919 1.18953 1.19129 1.19089 1.19228 1.19097 1.1927 1.19194 1.19276 1.19093 1.19204 1.1928 1.19241 1.1928 1.19351 1.19235 1.19384 1.19165 1.19114 1.19034 1.19178 1.18967 1.19126 1.19062 1.19205 1.1914 1.19306 1.19158 1.19099 1.19267 1.1918 1.19268 1.19229 1.19251 1.19332 1.19303 1.19011 1.19157 1.19178 1.19091 1.19024 1.18991 1.18969 1.18926 1.19129 1.19178 1.19178 1.19152 1.19017 1.19228 1.19104 1.19252 1.19167 1.19276 1.19254 1.19218 1.1938 1.19009 1.19148 1.19078 1.19019 1.18964 1.18917 1.19055 1.19355 1.19178 1.19178 1.19178 1.19203 1.1914 1.19107 1.19256 1.1903 1.19223 1.19134 1.19267 1.19303 1.19141 1.19466 1.19167 1.19323 1.19147 1.19287 1.19029 1.18858 1.19326 1.1925 1.19258 1.19178 1.19178 1.19178 1.19178 1.19178 1.19178 1.19178 1.19178 1.19178 1.19178 1.19178 1.19178 1.19178 1.19178 1.19178 1.19178 1.19178 1.19178 1.19178 1.19178 1.19178 1.19178 1.19178 1.19178 1.19178 1.19178 1.19184 1.19167 1.19145 1.19151 1.19338 1.19036 1.19106 1.19104 1.19265 1.19533 1.19037 1.19468 1.19169 1.19181 1.1906 1.19137 1.19217 1.19298 1.19256 1.19253 1.19241 1.19178 1.19178 1.19178 1.19178 1.19178 1.19178 1.19178 1.19178 1.19178 1.19178 1.19178 1.19178 1.19178 1.19178 1.19178 1.19178 1.19178 1.19178 1.19178 1.19178 1.19178 1.19178 1.19178 1.19178 1.19178 1.19178 1.19178 1.19178 1.1918 1.1918 1.19084 1.19105 1.19157 1.19512 1.19139 1.19302 1.19076 1.1912 1.19646 1.19355 1.19114 1.19104 1.19511 1.18994 1.19053 1.19179 1.19254 1.1944 1.19133 1.19274 1.19244 1.19063 1.19178 1.19178 1.19178 1.19178 1.19178 1.19178 1.19178 1.19178 1.19178 1.19178 1.19178 1.19178 1.19178 1.19178 1.19178 1.19178 1.19178 1.19178 1.19178 1.19178 1.19178 1.19178 1.19178 1.19178 1.19178 1.19178 1.19178 1.19178 1.19178 1.19178 1.19178 1.19178 1.19178 1.19178 1.19194 1.19192 1.19265 1.19012 1.19566 1.19075 1.19063 1.19065 1.19258 1.19085 1.1922 1.18978 1.1933 1.19206 1.18976 1.19409 1.18978 1.1907 1.19103 1.19184 1.19392 1.1928 1.19193 1.19506 1.19281 1.19164 1.19305 1.19176 1.19181 1.19178 1.19178 1.19178 1.19178 1.19178 1.19178 1.19178 1.19178 1.19178 1.19178 1.19178 1.19178 1.19178 1.19178 1.19178 1.19178 1.19178 1.19178 1.19178 1.19178 1.19178 1.19178 1.19178 1.19178 1.19178 1.19178 1.19178 1.19178 1.19178 1.19178 1.19178 1.19178 1.19178 1.19202 1.19178 1.19178 1.19178 1.19178 1.19178 1.19178 1.19178 1.19178 1.19178 1.19178 1.19178 1.19178 1.19178 1.19182 1.19172 1.19407 1.19048 1.1907 1.19067 1.1925 1.19073 1.19245 1.18983 1.19352 1.19226 1.19001 1.18734 1.18948 1.18876 1.19095 1.19357 1.19451 1.19258 1.19314 1.19294 1.19074 1.19371 1.19177 1.19169 1.19205 1.19178 1.19178 1.19178 1.19178 1.19178 1.19178 1.19178 1.19178 1.19178 1.19178 1.19178 1.19178 1.19178 1.19178 1.19178 1.19178 1.19178 1.19178 1.19178 1.19178 1.19178 1.19178 1.19178 1.19178 1.19178 1.19178 1.19178 1.19178 1.1922 1.19178 1.19178 1.19178 1.19178 1.19178 1.19178 1.19178 1.19178 1.19178 1.19178 1.19164 1.19178 1.19161 1.19093 1.19055 1.18997 1.18895 1.19143 1.19212 1.192 1.18987 1.19262 1.19234 1.19063 1.18808 1.19178 1.1893 1.19272 1.19365 1.19204 1.1942 1.19427 1.18962 1.19171 1.19179 1.19178 1.19178 1.19178 1.19178 1.19178 1.19178 1.19178 1.19178 1.19178 1.19178 1.19178 1.19178 1.19178 1.19178 1.19178 1.19178 1.19178 1.19178 1.19178 1.19178 1.19178 1.19178 1.19178 1.19178 1.19178 1.19178 1.19178 1.19178 1.19178 1.19192 1.19174 1.1919 1.19157 1.19164 1.19178 1.19178 1.19178 1.19178 1.19178 1.19178 1.19178 1.19178 1.19178 1.19178 1.19178 1.19177 1.19178 1.19178 1.19178 1.19178 1.19178 1.19178 1.19157 1.19178 1.19219 1.18844 1.1992 1.19193 1.19317 1.1904 1.19041 1.19367 1.19233 1.19323 1.19141 1.1931 1.19719 1.18894 1.19193 1.19369 1.19104 1.19274 1.19171 1.19134 1.19045 1.19097 1.19122 1.19192 1.19178 1.19178 1.19176 1.19178 1.19178 1.19178 1.19178 1.19178 1.19178 1.19178 1.19178 1.19178 1.19178 1.19178 1.19178 1.19178 1.19178 1.19178 1.19178 1.19178 1.19178 1.19178 1.19178 1.19178 1.19178 1.19178 1.19178 1.19178 1.19178 1.19146 1.19457 1.19176 1.19178 1.19178 1.19178 1.19178 1.19178 1.19178 1.19178 1.19178 1.19178 1.19178 1.1927 1.19543 1.18517 1.19178 1.1952 1.19342 1.19344 1.1925 1.19294 1.19527 1.19225 1.19573 1.19339 1.19537 1.18982 1.19164 1.19433 1.19231 1.19035 1.19023 1.19005 1.19288 1.19178 1.19178 1.19178 1.19178 1.19178 1.19178 1.19178 1.19178 1.19178 1.19178 1.19178 1.19178 1.19178 1.19178 1.19665 1.19178 1.19178 1.19178 1.19178 1.19178 1.19178 1.19178 1.19178 1.19178 1.19178 1.19178 1.19178 1.19178 1.19178 1.19178 1.19178 1.19221 1.19178 1.19178 1.19178 1.19178 1.19178 1.19178 1.19178 1.19178 1.19178 1.19178 1.19226 1.19494 1.19458 1.20547 1.1863 1.193 1.19166 1.19565 1.19397 1.19152 1.19131 1.19345 1.19554 1.19092 1.1929 1.19157 1.19613 1.19393 1.19222 1.19178 1.19178 1.19178 1.19178 1.19178 1.19178 1.19178 1.19178 1.19178 1.19178 1.19178 1.19178 1.19178 1.21578 1.19016 1.19178 1.19178 1.19178 1.19178 1.19178 1.19178 1.19178 1.19178 1.19178 1.19178 1.19178 1.19194 1.19053 1.1929 1.192 1.19178 1.19178 1.19178 1.19166 1.18964 1.19243 1.19178 1.19178 1.19178 1.19178 1.19178 1.19178 1.19178 1.19813 1.20236 1.20531 1.19068 1.18764 1.19513 1.19196 1.19151 1.19494 1.19381 1.19218 1.19068 1.19063 1.19621 1.19347 1.19491 1.19198 1.19178 1.19178 1.19178 1.19178 1.19178 1.19178 1.19178 1.19178 1.19178 1.19178 1.19178 1.19178 1.19178 1.19178 1.13063 1.17828 1.19543 1.39963 1.18001 1.19178 1.19178 1.19178 1.19178 1.19038 1.19192 1.19178 1.18039 1.37551 1.7769 1.19161 1.1918 1.1917 1.19178 1.19178 1.19178 1.19178 1.19178 1.19178 1.19178 1.19178 1.19178 1.19178 1.19178 1.19198 1.19159 1.20007 1.19561 1.20287 1.19075 1.1932 1.1912 1.19685 1.19198 1.19009 1.19483 1.18843 1.19109 1.19259 1.18893 1.19698 1.1955 1.19346 1.19281 1.19461 1.19087 1.19178 1.19178 1.23349 1.19178 1.19178 1.19178 1.19178 1.19178 1.19178 1.19203 1.19178 1.17445 1.18177 1.27896 1.19178 1.17949 0.106691 0.0844676 0.128257 0.140511 0.0265016 0.452863 0.531531 0.837063 1.18369 1.19178 0.42137 0.60537 0.545954 0.719512 0.558863 0.0350203 1.81603 0.544392 2.23931 0.530702 0.566155 0.291991 0.954608 0.705433 1.19114 0.454557 0.342445 0.250995 0.275103 1.19001 1.19189 0.130713 0.407783 1.19267 0.212427 0.462969 0.663481 0.498638 0.0350706 0.0509916 0.377162 0.405088 0.328016 0.276618 0.461792 0.386409 0.377587 0.33761 0.155801 0.152815 0.114501 0.957533 0.3858 1.2927 0.382655 0.140731 0.260538 0.111904 1.18809 1.2017 1.20357 1.19909 1.19082 1.19315 1.19204 1.19038 1.19051 1.19353 1.19095 1.1901 1.18763 1.19797 1.19687 1.19119 1.1922 1.19186 1.19251 1.20771 0.0675433 1.19176 0.125187 0.0198342 0.0383755 0.158849 0.097251 1.19178 0.426736 0.143337 0.394216 0.694097 0.954275 1.33417 1.48936 1.19743 0.531393 0.248565 0.690966 0.899148 1.19178 0.268404 0.250886 0.113029 0.0677563 0.753951 2.2427 0.795775 1.19178 0.0398601 0.263957 0.15132 0.14838 0.144942 0.240466 0.33064 1.19178 0.721302 0.960967 1.18881 0.695077 0.345572 1.57632 0.953075 1.05314 1.09683 0.847354 0.394229 0.200323 0.114256 0.103236 0.0662274 0.0735927 0.219895 1.19572 0.302606 1.19191 1.19099 0.29271 0.143127 0.157257 0.0871706 0.0922886 0.220214 0.18905 0.212294 0.447588 0.782304 0.279909 0.380577 0.910244 0.32517 0.592865 0.217249 0.119204 0.405128 0.561618 0.485784 0.354158 0.496399 0.348547 0.516897 0.484308 1.18525 1.37632 1.27385 0.690815 0.151418 0.508854 0.601592 0.434383 0.475972 0.880993 0.283298 0.203132 0.484147 0.435155 0.378406 0.282034 0.213111 0.248395 0.221867 0.264836 0.143348 0.18036 0.659147 0.531613 0.1856 0.56377 0.778197 0.22435 0.232489 0.398394 0.119051 0.155615 0.128648 0.30703 0.420611 0.318533 0.27381 0.291087 0.163059 0.412919 0.29742 0.150317 0.411611 0.32119 0.264658 0.058905 0.224051 0.383129 0.229454 0.374312 0.955769 0.573442 0.419107 0.2238 0.481566 0.051812 0.327902 0.0887022 1.19995 1.20407 1.2007 1.20868 1.18532 1.19511 1.19032 1.19183 1.19 1.19026 1.19281 1.19158 1.18872 1.19745 1.19873 1.19534 1.20794 1.1977 1.22525 0.0866697 1.19178 0.0701425 0.0602299 0.128629 0.0760579 0.0961139 0.126885 0.184377 0.30572 0.291426 0.172317 0.330908 0.332332 0.436538 0.829106 0.407053 0.538721 0.325684 0.57245 0.526425 0.139804 0.370158 0.2037 0.216346 0.271142 0.491764 0.571095 0.925477 0.294031 1.2801 0.860747 1.07606 0.444756 0.0405562 0.206385 0.302123 0.248246 0.425152 0.310976 0.0861758 0.135765 0.182797 0.238211 0.204196 0.529751 0.533209 0.252462 0.585337 0.0323601 0.691485 0.840761 0.841956 0.377948 0.875668 0.63837 0.479122 0.707842 0.637788 0.360794 0.277941 0.150031 0.160043 0.132608 0.305479 0.0783782 0.322807 0.131878 0.35542 0.673719 0.805797 0.463462 0.498698 0.512754 0.692366 0.336383 0.297283 0.120399 0.106462 0.143657 0.0954968 0.145224 0.138236 0.0846945 0.236137 0.14354 0.234262 0.297439 0.528122 0.203363 0.224617 0.297199 0.420208 0.383159 0.109415 0.389774 0.437297 0.528309 0.529779 0.794224 0.557589 0.48775 0.197709 0.557271 0.544147 0.328491 0.220012 0.308537 0.340212 0.175164 0.268675 0.264827 0.326972 0.304552 0.288328 0.279673 0.332554 0.14539 0.126584 0.444692 0.190582 0.249519 0.200738 0.200117 0.206294 0.339454 0.293067 0.309838 0.257285 0.22016 0.313031 0.199509 0.12633 0.129729 0.210147 0.162597 0.236266 0.20841 0.28082 0.0701365 0.353427 0.386736 0.501045 0.43606 0.139018 0.362301 0.314832 0.22829 1.19226 1.18186 1.21106 1.20612 1.19582 1.18575 1.19386 1.18893 1.19051 1.19141 1.18641 1.19247 1.19 1.18832 1.19744 1.19679 1.22257 1.20088 1.19248 1.20874 1.23584 1.19178 0.176984 0.146828 0.253889 0.254471 0.202753 0.219202 0.245437 0.278563 0.239884 0.272849 0.198781 0.178604 0.139927 0.408381 0.484583 0.249161 0.307035 0.160951 0.282958 0.298071 0.239717 0.264527 0.445201 0.299723 0.884696 0.75528 0.624542 0.245061 0.40458 0.235335 0.0936005 0.141161 0.211422 0.182687 0.350907 0.399624 0.426682 0.246287 0.27495 0.427041 0.300554 0.882482 0.712934 0.617928 0.736612 0.564856 0.445096 0.144287 0.33323 0.237815 0.206267 0.245402 0.190518 0.36219 0.580567 0.5301 0.762945 0.551395 0.830594 0.228174 0.0218629 0.150173 0.107794 0.147763 0.129804 0.133033 0.160701 0.174687 0.195362 0.269197 0.242329 0.165457 0.304146 0.140924 0.231709 0.0839309 0.0501913 0.15148 0.230617 0.277979 0.183521 0.242592 0.413285 0.596927 0.581418 0.460179 0.354943 0.342998 0.292773 0.45104 0.157053 0.0745896 0.347569 0.222917 0.300378 0.301076 0.231962 0.334975 0.338405 0.346174 0.25465 0.284365 0.192608 0.269596 0.198961 0.227835 0.291911 0.225003 0.146368 0.1303 0.051881 0.188433 0.110467 0.159144 0.119467 0.205791 0.200891 0.289191 0.31195 0.298119 0.0561979 0.428615 0.550363 0.458625 0.377709 0.256871 1.19144 1.20021 1.17003 1.19039 1.18711 1.18927 1.19392 1.18941 1.18628 1.19067 1.18867 1.21848 1.21169 1.19737 1.20439 1.19366 1.21461 1.26058 0.243692 0.206674 0.251461 0.198735 0.253098 0.353939 0.242746 0.242336 0.282934 0.295096 0.263072 0.21759 0.197437 0.426958 0.491373 0.355353 0.272661 0.263179 0.288532 0.163727 0.375746 0.268633 0.351449 0.264185 0.338186 0.590545 0.477917 0.273592 0.389914 0.386524 0.180737 0.33114 0.168963 0.231517 0.280019 0.228657 0.266121 0.299537 0.354749 0.280099 0.275422 0.290614 0.321662 0.38221 0.320673 0.417065 0.385463 0.718951 0.567462 0.484542 0.350831 0.228193 0.30283 0.264734 0.129713 0.236798 0.245727 0.311182 0.420321 0.390147 0.461314 0.40267 0.62447 0.45346 0.618766 0.560519 0.481732 0.187451 0.101601 0.193325 0.193795 0.201522 0.219543 0.171965 0.188808 0.187877 0.256601 0.247303 0.280073 0.172278 0.231854 0.271314 0.317387 0.41902 0.176795 0.382691 0.345547 0.344261 0.312963 0.313646 0.365009 0.167406 0.295677 0.193535 0.261864 0.321684 0.297689 0.299958 0.287719 0.298922 0.2153 0.321638 0.344104 0.333597 0.323368 0.296122 0.313687 0.150393 0.284363 0.261295 0.297846 0.288532 0.201582 0.238329 0.225927 0.165084 0.153016 0.139405 0.114981 0.162664 0.273752 0.0222557 0.303447 0.29942 0.126518 0.289863 0.323086 0.337751 0.284497 0.266612 1.18638 1.18187 1.1001 1.17583 1.18276 1.18972 1.19233 1.18928 1.18599 1.19355 1.18465 1.19314 1.18694 1.18544 1.1942 1.1982 1.20057 1.20184 1.18889 1.19178 1.10421 0.22051 0.266768 0.223458 0.24079 0.260747 0.276269 0.269663 0.318147 0.285112 0.236618 0.230264 0.37302 0.298116 0.216064 0.163697 0.335979 0.223235 0.25947 0.223442 0.33999 0.316192 0.375817 0.491127 0.217968 0.352523 0.279837 0.266954 0.279049 0.312631 0.261669 0.230549 0.257332 0.28799 0.306385 0.341749 0.380211 0.358159 0.341839 0.351591 0.297372 0.381024 0.402016 0.562728 0.480127 0.440825 0.376546 0.327912 0.33783 0.268421 0.259569 0.338318 0.351654 0.393999 0.437133 0.488318 0.310278 0.11178 0.0942886 0.21461 0.234495 0.218907 0.235071 0.203002 0.226899 0.241571 0.244033 0.244189 0.265273 0.294689 0.238955 0.29482 0.293301 0.274691 0.32935 0.318689 0.293737 0.266333 0.279735 0.315917 0.304201 0.325757 0.325988 0.34511 0.320626 0.332946 0.311498 0.320341 0.318457 0.30111 0.279701 0.313222 0.286359 0.332145 0.325004 0.306879 0.293118 0.301223 0.245604 0.192414 0.212914 0.183407 0.183105 0.20363 0.230677 0.389379 0.286356 0.467932 0.225541 0.241001 0.26936 0.24969 0.278312 0.22622 0.155898 0.21303 0.153822 0.211356 0.286038 1.19975 1.15362 1.16302 1.1464 1.34555 1.18829 1.19208 1.191 1.19178 1.18601 1.19178 1.19885 1.18758 1.18559 1.19274 1.19159 1.21299 1.18787 1.17034 1.06366 0.255469 0.234534 0.280807 0.267019 0.289281 0.302295 0.29882 0.291166 0.275336 0.255423 0.310993 0.226855 0.231109 0.277307 0.264082 0.21236 0.241695 0.36155 0.317838 0.326451 0.314914 0.444948 0.295852 0.304112 0.154725 0.258621 0.26781 0.256367 0.271449 0.255032 0.257514 0.254949 0.255962 0.249031 0.25203 0.242433 0.290744 0.281275 0.338225 0.369654 0.374916 0.39943 0.415273 0.363393 0.428494 0.418313 0.414996 0.363944 0.398062 0.35307 0.362781 0.352733 0.314202 0.331268 0.305125 0.342292 0.328529 0.36849 0.346148 0.349797 0.361346 0.4169 0.370412 0.442997 0.352352 0.253592 0.165669 0.160993 0.245868 0.24706 0.252761 0.250479 0.257428 0.285053 0.286575 0.31402 0.293866 0.323954 0.337602 0.333964 0.317373 0.285999 0.335111 0.333422 0.326826 0.31557 0.34522 0.335743 0.324268 0.312526 0.318783 0.326067 0.315557 0.308457 0.325373 0.344048 0.33589 0.32803 0.317448 0.331095 0.313279 0.297314 0.229309 0.244296 0.249098 0.206322 0.215062 0.227308 0.232899 0.399358 0.235166 0.273924 0.250693 0.251918 0.250655 0.251582 0.253006 0.213549 0.227105 0.178739 0.180638 1.19178 1.19178 1.17889 1.19185 1.19178 1.1921 1.19178 1.17831 1.182 1.19293 1.18983 1.18816 1.19012 1.18539 1.19196 1.19036 1.18654 1.19756 1.21121 1.17512 1.11231 1.17989 0.265168 0.277306 0.273999 0.273735 0.29309 0.281991 0.280012 0.278077 0.274311 0.262078 0.265427 0.22598 0.220281 0.264189 0.272995 0.277054 0.252935 0.280113 0.278874 0.265868 0.275416 0.290766 0.267454 0.260146 0.241973 0.256475 0.26882 0.288382 0.266999 0.265897 0.262818 0.277466 0.308611 0.376147 0.365052 0.411591 0.435838 0.445229 0.39467 0.406453 0.393274 0.370029 0.35441 0.363575 0.364893 0.347194 0.336555 0.330536 0.347531 0.336457 0.347633 0.333072 0.328611 0.274377 0.230513 0.248957 0.26149 0.254076 0.255829 0.261484 0.266361 0.280406 0.293217 0.300788 0.314644 0.326906 0.335572 0.341612 0.320424 0.329027 0.328828 0.349366 0.327545 0.320847 0.346974 0.327592 0.332577 0.325368 0.333477 0.324434 0.324029 0.343721 0.356304 0.344017 0.333135 0.329603 0.312629 0.336811 0.320835 0.262634 0.292738 0.232879 0.258317 0.24086 0.253359 0.317406 0.387272 0.338902 0.260381 0.265336 0.26744 0.264308 0.255801 0.259073 0.210044 0.193313 1.18879 1.18888 1.19364 1.19217 1.1946 1.18321 1.18238 1.19179 1.18834 1.18724 1.18932 1.18614 1.19898 1.1756 1.19404 1.16208 1.15574 1.09099 1.14427 1.17125 0.287565 0.278963 0.278797 0.285336 0.26746 0.260188 0.278674 0.261114 0.284194 0.264838 0.261823 0.296982 0.281218 0.258698 0.271501 0.265329 0.262862 0.241435 0.280239 0.264001 0.283009 0.282465 0.293919 0.30762 0.270078 0.275232 0.289585 0.295747 0.294099 0.319945 0.328904 0.397904 0.396439 0.393995 0.409345 0.484432 0.389356 0.448859 0.386987 0.398468 0.399405 0.392883 0.366489 0.329928 0.361686 0.366855 0.350489 0.361985 0.337166 0.333823 0.341323 0.328739 0.329314 0.307354 0.263083 0.259929 0.290518 0.26765 0.279266 0.264899 0.265083 0.25986 0.271386 0.286923 0.286131 0.3072 0.298285 0.31254 0.33047 0.32024 0.341153 0.337239 0.349247 0.35462 0.337763 0.349813 0.350338 0.343772 0.321402 0.334914 0.33341 0.341174 0.332974 0.333115 0.3392 0.357839 0.337515 0.347654 0.34204 0.352588 0.348324 0.36266 0.347494 0.348608 0.346625 0.342115 0.329211 0.343119 0.298367 0.320272 0.28952 0.317674 0.273139 0.278904 0.305002 0.306695 0.312919 0.302692 0.292688 0.280842 0.268642 0.268113 0.264096 0.287947 0.247771 0.240151 1.19224 1.18943 1.18987 1.18859 1.1864 1.19166 1.18496 1.18842 1.19289 1.17698 1.19274 1.16293 1.13075 1.16541 1.19122 1.19112 0.290008 0.304042 0.290287 0.278687 0.2877 0.293792 0.284558 0.278743 0.230544 0.297542 0.28991 0.284015 0.280357 0.260396 0.284933 0.307055 0.280436 0.254758 0.288037 0.292537 0.297887 0.302015 0.322742 0.273577 0.297262 0.31896 0.328976 0.340651 0.334029 0.329225 0.343726 0.328341 0.383259 0.395007 0.415523 0.416787 0.391608 0.39489 0.353523 0.351626 0.348549 0.36227 0.355842 0.349743 0.35562 0.343302 0.347417 0.348274 0.353998 0.334661 0.336989 0.324426 0.312147 0.314675 0.310622 0.279012 0.271178 0.268953 0.265759 0.255903 0.270186 0.291259 0.294851 0.30355 0.302768 0.305811 0.313956 0.319399 0.330557 0.338858 0.350654 0.351273 0.350217 0.350535 0.35242 0.33586 0.336575 0.349354 0.343547 0.34246 0.345131 0.357068 0.355789 0.360751 0.353535 0.362429 0.350775 0.340195 0.3528 0.347557 0.321083 0.319444 0.292163 0.308623 0.296593 0.309365 0.307904 0.302024 0.302433 0.297308 0.295134 0.285441 0.298345 0.285069 0.292796 0.277392 0.262533 0.267827 0.310419 0.291902 0.294214 0.28977 0.349119 0.307402 0.293044 0.280185 0.276995 0.294071 0.299212 0.285845 0.281603 0.284846 0.258415 0.307107 0.294174 0.307465 0.317014 0.3225 0.329497 0.342575 0.332841 0.351678 0.363677 0.369281 0.387482 0.387357 0.407331 0.397405 0.381 0.376329 0.363536 0.346276 0.349416 0.334452 0.347957 0.343643 0.356039 0.352187 0.352679 0.353233 0.355263 0.340782 0.330906 0.319633 0.318482 0.320226 0.281066 0.275982 0.27932 0.267569 0.274142 0.291273 0.285316 0.295585 0.307574 0.314348 0.325828 0.328641 0.335171 0.330179 0.329435 0.348586 0.351031 0.351788 0.352893 0.358818 0.342917 0.347711 0.344883 0.345304 0.354564 0.356026 0.358114 0.361438 0.358454 0.358699 0.34633 0.354271 0.3534 0.332868 0.335798 0.327915 0.319202 0.31938 0.303237 0.306781 0.2991 0.299159 0.29799 0.308561 0.297173 0.289005 0.279491 0.308543 0.302865 0.29805 0.294423 0.331127 0.365855 0.358647 0.312509 0.298782 0.295823 0.305411 0.306403 0.304309 0.280478 0.285903 0.292603 0.308886 0.298215 0.312281 0.322237 0.334166 0.342384 0.351702 0.341092 0.352742 0.372688 0.380472 0.37711 0.380012 0.379154 0.383235 0.37605 0.386027 0.380857 0.359814 0.350226 0.33973 0.34025 0.347275 0.351642 0.353418 0.353141 0.35351 0.353059 0.330717 0.319063 0.320242 0.321271 0.323448 0.286683 0.284008 0.290903 0.279577 0.272737 0.293511 0.298019 0.304196 0.308346 0.304279 0.312549 0.331108 0.325307 0.338191 0.352181 0.353301 0.351486 0.354115 0.347679 0.345535 0.34491 0.347671 0.347085 0.352079 0.3551 0.355877 0.358519 0.358804 0.357083 0.361791 0.367523 0.357916 0.346496 0.339128 0.337773 0.340423 0.331199 0.317554 0.331253 0.312493 0.312555 0.305595 0.302021 0.30533 0.303892 0.292763 0.289611 0.309898 0.312038 0.305399 0.311179 0.295146 0.323669 0.376807 0.344213 0.310532 0.316005 0.312208 0.309735 0.311171 0.314751 0.291557 0.321338 0.326502 0.338399 0.339573 0.356363 0.357765 0.370764 0.385045 0.385497 0.383711 0.383943 0.381603 0.383406 0.371984 0.354743 0.344879 0.341912 0.343013 0.345507 0.35024 0.34892 0.35103 0.356078 0.324674 0.318452 0.323466 0.321461 0.323735 0.323785 0.290108 0.282499 0.283621 0.278541 0.298617 0.304777 0.305082 0.319417 0.338812 0.332346 0.348634 0.350837 0.350009 0.352106 0.349121 0.345331 0.344663 0.346411 0.349949 0.354389 0.354504 0.356676 0.358923 0.365881 0.364159 0.359909 0.34999 0.333349 0.338366 0.334742 0.344684 0.333326 0.320706 0.330705 0.331088 0.318198 0.316055 0.327893 0.322082 0.313409 0.313538 0.30759 0.30813 0.304914 0.317215 0.308463 0.311822 0.317371 0.30793 0.330957 0.35953 0.335326 0.40181 0.321204 0.342222 0.324982 0.312331 0.318609 0.316932 0.305003 0.3316 0.308942 0.297667 0.329706 0.340372 0.333233 0.352884 0.358754 0.397752 0.359733 0.391209 0.388561 0.384034 0.378248 0.375306 0.363046 0.348397 0.344731 0.343428 0.343892 0.34308 0.342217 0.347396 0.34614 0.359224 0.314978 0.322237 0.325002 0.291445 0.287009 0.303153 0.314819 0.327994 0.344708 0.34898 0.346859 0.346995 0.345331 0.34955 0.349689 0.353861 0.357164 0.357758 0.362698 0.364014 0.361673 0.340211 0.318615 0.330053 0.322152 0.316133 0.330099 0.309744 0.319628 0.309992 0.313006 0.317029 0.350175 0.379086 0.341171 0.315613 0.325775 0.321092 0.309329 0.309341 0.304492 0.297015 0.33107 0.345569 0.354347 0.379089 0.407956 0.393622 0.387658 0.380179 0.368583 0.365283 0.348444 0.341645 0.340121 0.346045 0.345401 0.350115 0.348534 0.34469 0.319491 0.324104 
SCALARS Stress float 1
LOOKUP_TABLE default
-12618500000.0 -12618100000.0 -12595400000.0 -12671600000.0 -12549700000.0 -12772300000.0 -12705000000.0 -12698200000.0 -12569500000.0 -12597300000.0 -12549700000.0 -12578000000.0 -12549700000.0 -12549700000.0 -12587600000.0 -12549700000.0 -12549700000.0 -12556100000.0 -12549700000.0 -12556100000.0 -12570500000.0 -12644200000.0 -12687700000.0 -12630600000.0 -12604400000.0 -12585700000.0 -12569100000.0 -12554200000.0 -12549700000.0 -12549700000.0 -12549700000.0 -12568600000.0 -12587700000.0 -12606800000.0 -12679000000.0 -12634600000.0 -12599900000.0 -12565500000.0 -12585000000.0 -12590200000.0 -12553000000.0 -12616700000.0 -12552100000.0 -12554900000.0 -12600900000.0 -12748800000.0 -12667400000.0 -12572100000.0 -12613500000.0 -12706600000.0 -12683200000.0 -12559700000.0 -12556900000.0 -12579900000.0 -12719500000.0 -12584800000.0 -12782300000.0 -12651100000.0 -12589600000.0 -12579300000.0 -12669500000.0 -12778000000.0 -12609300000.0 -12887600000.0 -13044000000.0 -12962500000.0 -13063400000.0 -13021700000.0 -12967700000.0 -12963600000.0 -12839800000.0 -12611300000.0 -12577600000.0 -12549700000.0 -12608800000.0 -12559500000.0 -12682900000.0 -12549700000.0 -12577100000.0 -12573600000.0 -12633500000.0 -12695400000.0 -13074800000.0 -12996700000.0 -12995100000.0 -12749200000.0 -12554100000.0 -12660200000.0 -12574800000.0 -13559200000.0 -13209400000.0 -13449000000.0 -13667900000.0 -14390900000.0 -13921000000.0 -12797900000.0 -12715500000.0 -12708800000.0 -12549700000.0 -12650600000.0 -12555100000.0 -12549700000.0 -12691100000.0 -12549700000.0 -12549700000.0 -12584400000.0 -12549700000.0 -12623900000.0 -12549700000.0 -12899100000.0 -12549700000.0 -12549700000.0 -12549700000.0 -12564000000.0 -12552200000.0 -12549700000.0 -12554700000.0 -12575800000.0 -12646800000.0 -12682100000.0 -12834700000.0 -12860000000.0 -13054500000.0 -12999500000.0 -12718500000.0 -12671600000.0 -12551000000.0 -12595300000.0 -12673200000.0 -12768500000.0 -12720000000.0 -12710600000.0 -12592200000.0 -12676600000.0 -13010400000.0 -12600100000.0 -12731100000.0 -12814400000.0 -12700300000.0 -12745300000.0 -12711700000.0 -12564700000.0 -12549700000.0 -12817900000.0 -12721600000.0 -13118700000.0 -12556500000.0 -12549700000.0 -12571200000.0 -12598400000.0 -12621900000.0 -13005400000.0 -12603700000.0 -12655600000.0 -12549700000.0 -13008600000.0 -12675700000.0 -12594600000.0 -12549700000.0 -12549700000.0 -12575200000.0 -12605300000.0 -12701000000.0 -12642400000.0 -12617600000.0 -12558500000.0 -12991500000.0 -13165400000.0 -13289400000.0 -13052200000.0 -13578900000.0 -12591000000.0 -12704000000.0 -12614900000.0 -13836000000.0 -12562000000.0 -12884900000.0 -12833600000.0 -12714700000.0 -12801700000.0 -12649500000.0 -13011200000.0 -12559900000.0 -12646500000.0 -12567400000.0 -12757100000.0 -14022600000.0 -12987800000.0 -12975000000.0 -13365400000.0 -12858500000.0 -13431000000.0 -12800600000.0 -14594300000.0 -14032100000.0 -14064500000.0 -14130700000.0 -14081800000.0 -13596400000.0 -12602400000.0 -13907900000.0 -13031200000.0 -13286400000.0 -13046600000.0 -12928700000.0 -12600600000.0 -12845000000.0 -12550300000.0 -12554300000.0 -12624600000.0 -12549700000.0 -12774200000.0 -13005500000.0 -12563600000.0 -12593200000.0 -12549700000.0 -12631400000.0 -12675800000.0 -12739500000.0 -12872500000.0 -13230200000.0 -13555300000.0 -12754700000.0 -13290400000.0 -13163500000.0 -12960700000.0 -13152600000.0 -12553600000.0 -12575500000.0 -12989700000.0 -12549700000.0 -12749400000.0 -13215200000.0 -12627800000.0 -12767400000.0 -12633000000.0 -13270800000.0 -12694600000.0 -13035000000.0 -12740800000.0 -12600700000.0 -13049000000.0 -14136200000.0 -12922500000.0 -12550800000.0 -12858300000.0 -12801800000.0 -13064400000.0 -13212100000.0 -14472400000.0 -13931300000.0 -13931900000.0 -12999900000.0 -13238300000.0 -13426400000.0 -13463500000.0 -13226700000.0 -13447500000.0 -13168300000.0 -13218000000.0 -12750000000.0 -13456900000.0 -15297200000.0 -16033700000.0 -12951500000.0 -12696600000.0 -12673600000.0 -15428500000.0 -14278800000.0 -13319000000.0 -13398000000.0 -13835300000.0 -13268400000.0 -13116800000.0 -12871600000.0 -14169100000.0 -12586600000.0 -13067200000.0 -12803100000.0 -12629700000.0 -13062700000.0 -12695700000.0 -13496100000.0 -13489800000.0 -13503400000.0 -13362200000.0 -13563600000.0 -12549700000.0 -12549700000.0 -15090000000.0 -12698800000.0 -13376300000.0 -14992600000.0 -14059000000.0 -14321300000.0 -12766200000.0 -13254300000.0 -13010500000.0 -12549700000.0 -12731000000.0 -13112500000.0 -12873500000.0 -12919000000.0 -12989200000.0 -12793200000.0 -12879300000.0 -12789500000.0 -13243900000.0 -12549700000.0 -13353100000.0 -12724000000.0 -12702700000.0 -12650600000.0 -12549700000.0 -12634300000.0 -12640700000.0 -12563400000.0 -12576000000.0 -12896100000.0 -12558700000.0 -12740700000.0 -13192500000.0 -13114100000.0 -14323500000.0 -13523800000.0 -14244200000.0 -13995600000.0 -14033000000.0 -14490900000.0 -13762600000.0 -13464900000.0 -13273700000.0 -14256800000.0 -12789500000.0 -12678700000.0 -12573600000.0 -12596000000.0 -13290200000.0 -13380000000.0 -12730200000.0 -13791900000.0 -15710700000.0 -12877700000.0 -12829300000.0 -12968400000.0 -12832600000.0 -14398900000.0 -12549700000.0 -12549700000.0 -14011400000.0 -13451600000.0 -12549700000.0 -14203100000.0 -14233900000.0 -13785900000.0 -13242000000.0 -15204500000.0 -15054100000.0 -13629400000.0 -14915600000.0 -15803900000.0 -12989100000.0 -16815600000.0 -16335000000.0 -12788900000.0 -16879400000.0 -12671900000.0 -12588500000.0 -14468200000.0 -14205200000.0 -14353500000.0 -13523700000.0 -14017100000.0 -14623900000.0 -13313400000.0 -13068100000.0 -12879300000.0 -14474400000.0 -13186500000.0 -13983300000.0 -14497600000.0 -14710100000.0 -15570600000.0 -13380900000.0 -13183300000.0 -12634200000.0 -12631000000.0 -16819200000.0 -12872000000.0 -14212100000.0 -16539000000.0 -13249800000.0 -13324500000.0 -12861700000.0 -14371400000.0 -13587400000.0 -13710000000.0 -12711900000.0 -13593000000.0 -13270400000.0 -12798800000.0 -13080700000.0 -12694000000.0 -12743600000.0 -12569600000.0 -13070800000.0 -12564100000.0 -12937500000.0 -13218100000.0 -13384400000.0 -13050400000.0 -12846600000.0 -12901700000.0 -12810300000.0 -12605100000.0 -12697700000.0 -12743000000.0 -12617300000.0 -13719000000.0 -13046600000.0 -13381900000.0 -12890000000.0 -12989900000.0 -12717400000.0 -14601300000.0 -14031900000.0 -14981100000.0 -12752700000.0 -13613800000.0 -12871000000.0 -12801100000.0 -14474900000.0 -13860900000.0 -12767200000.0 -13262400000.0 -15932400000.0 -13001600000.0 -12924000000.0 -13851500000.0 -12594500000.0 -12773300000.0 -14120000000.0 -13966800000.0 -12789400000.0 -13400400000.0 -13201200000.0 -13556900000.0 -12956800000.0 -12549700000.0 -12579800000.0 -12674300000.0 -13915900000.0 -16352500000.0 -12736900000.0 -12618800000.0 -13665500000.0 -14578700000.0 -14414400000.0 -15782800000.0 -15015200000.0 -14241300000.0 -14580900000.0 -12810700000.0 -13899600000.0 -16086200000.0 -17271000000.0 -16367200000.0 -12655600000.0 -12560300000.0 -14877100000.0 -12617000000.0 -15759900000.0 -16733900000.0 -16728300000.0 -16587200000.0 -14692900000.0 -15182100000.0 -14472900000.0 -12692500000.0 -13024800000.0 -15409700000.0 -12658900000.0 -14201400000.0 -13715000000.0 -13342600000.0 -16003600000.0 -15559600000.0 -12801100000.0 -17048400000.0 -13714600000.0 -14853900000.0 -15003400000.0 -14777200000.0 -14269900000.0 -12733400000.0 -13963200000.0 -12715200000.0 -12678100000.0 -13615500000.0 -14766000000.0 -14780900000.0 -14656600000.0 -14479100000.0 -14653000000.0 -14196600000.0 -15440200000.0 -14785800000.0 -14771700000.0 -14978500000.0 -15369900000.0 -14106600000.0 -13989800000.0 -13923300000.0 -14215400000.0 -12553100000.0 -12747400000.0 -13032500000.0 -12592500000.0 -15822400000.0 -13225700000.0 -13827200000.0 -12569500000.0 -12861100000.0 -12554400000.0 -14077000000.0 -13823700000.0 -14108800000.0 -15628800000.0 -16025500000.0 -16142100000.0 -18296900000.0 -15012100000.0 -14645600000.0 -16401600000.0 -13539700000.0 -15013600000.0 -14919500000.0 -15351000000.0 -14233500000.0 -15013700000.0 -15649100000.0 -16255000000.0 -20394000000.0 -16229500000.0 -16483300000.0 -12697000000.0 -13999200000.0 -13119000000.0 -14023900000.0 -15075400000.0 -13646200000.0 -15114100000.0 -15432500000.0 -15553500000.0 -15836600000.0 -16343400000.0 -13040100000.0 -15020400000.0 -14812900000.0 -15068300000.0 -12565900000.0 -14741400000.0 -16361900000.0 -15273700000.0 -14413400000.0 -19309200000.0 -16481300000.0 -13305300000.0 -13660700000.0 -15750400000.0 -15067300000.0 -14004600000.0 -14256100000.0 -12549700000.0 -13562000000.0 -13185800000.0 -12586300000.0 -16455500000.0 -14657300000.0 -14144000000.0 -19387400000.0 -12549700000.0 -16081100000.0 -20538400000.0 -17242200000.0 -15239100000.0 -14631700000.0 -15155500000.0 -13257400000.0 -13516100000.0 -12918800000.0 -13630000000.0 -12838700000.0 -12796700000.0 -15176300000.0 -13316600000.0 -12619400000.0 -13500100000.0 -13465600000.0 -14050100000.0 -13110400000.0 -12781100000.0 -13371400000.0 -12566300000.0 -12649600000.0 -14236500000.0 -14500300000.0 -14687500000.0 -15895500000.0 -15504300000.0 -13846900000.0 -14180000000.0 -17020400000.0 -12939300000.0 -13501900000.0 -12755900000.0 -13078900000.0 -13342500000.0 -13606600000.0 -13803700000.0 -12711500000.0 -13137500000.0 -13162700000.0 -14738800000.0 -12916700000.0 -13488600000.0 -12790000000.0 -15905700000.0 -14318900000.0 -12718600000.0 -16591100000.0 -15549800000.0 -17411900000.0 -18576600000.0 -13827400000.0 -15292400000.0 -14114700000.0 -12861600000.0 -14362100000.0 -13773200000.0 -12549700000.0 -12593800000.0 -13206100000.0 -14048200000.0 -13843100000.0 -15447300000.0 -18573000000.0 -20204200000.0 -18894500000.0 -18137800000.0 -17596500000.0 -13497100000.0 -21127100000.0 -13332700000.0 -13676700000.0 -19163200000.0 -21021800000.0 -16362200000.0 -15995500000.0 -18709000000.0 -14978700000.0 -14537700000.0 -15938000000.0 -13697500000.0 -15040600000.0 -14469000000.0 -15238700000.0 -12895400000.0 -14288300000.0 -12557200000.0 -12991400000.0 -16239700000.0 -12704300000.0 -12707800000.0 -14383800000.0 -12596200000.0 -14748500000.0 -12549700000.0 -23775700000.0 -22991600000.0 -15118300000.0 -22852400000.0 -18265000000.0 -18130500000.0 -17193800000.0 -16730700000.0 -17731200000.0 -15916800000.0 -16222000000.0 -15939700000.0 -15320900000.0 -12558000000.0 -15175000000.0 -14682400000.0 -13020300000.0 -14588500000.0 -13013100000.0 -13661100000.0 -14041800000.0 -13921400000.0 -14311000000.0 -14169300000.0 -12557500000.0 -12995400000.0 -12640800000.0 -13437000000.0 -14964700000.0 -14329500000.0 -15165000000.0 -16124400000.0 -13276500000.0 -13134900000.0 -13329700000.0 -13922100000.0 -12664800000.0 -13574800000.0 -12880600000.0 -14102200000.0 -14504400000.0 -13630900000.0 -14163100000.0 -13344200000.0 -14218400000.0 -13140000000.0 -13752500000.0 -14419100000.0 -14403500000.0 -18872000000.0 -17598200000.0 -19961300000.0 -15546000000.0 -13371900000.0 -14553100000.0 -14009800000.0 -12949300000.0 -14297900000.0 -12939300000.0 -12549700000.0 -13337200000.0 -13044700000.0 -18521700000.0 -13629700000.0 -14172600000.0 -17975700000.0 -18503000000.0 -14205500000.0 -12604700000.0 -13889600000.0 -14052200000.0 -19377000000.0 -16631300000.0 -18898100000.0 -19599300000.0 -18899500000.0 -14374700000.0 -21421100000.0 -14580200000.0 -17221000000.0 -16478300000.0 -21875400000.0 -13662400000.0 -13382900000.0 -16336400000.0 -16989800000.0 -13662700000.0 -15807300000.0 -14537700000.0 -16941500000.0 -12556400000.0 -12809000000.0 -12567700000.0 -14184600000.0 -14674500000.0 -12549700000.0 -12549700000.0 -23335200000.0 -15260400000.0 -13091100000.0 -18112700000.0 -13321900000.0 -17902000000.0 -12549700000.0 -18536800000.0 -14878700000.0 -14902500000.0 -12708000000.0 -12831800000.0 -13224300000.0 -13917000000.0 -12970700000.0 -13013000000.0 -13768700000.0 -13890200000.0 -14575400000.0 -12660400000.0 -14285000000.0 -14043600000.0 -12827900000.0 -13402800000.0 -13387200000.0 -14567300000.0 -12829500000.0 -14380200000.0 -14356400000.0 -15214600000.0 -16456400000.0 -14753900000.0 -15489500000.0 -13270800000.0 -14517000000.0 -14763900000.0 -13325800000.0 -17431700000.0 -16395900000.0 -15756400000.0 -12765900000.0 -13296800000.0 -13020100000.0 -16532100000.0 -17050200000.0 -12968200000.0 -17275200000.0 -15749500000.0 -16755600000.0 -19572900000.0 -17362900000.0 -15950500000.0 -18755400000.0 -18072700000.0 -17904500000.0 -17888600000.0 -12735800000.0 -13787900000.0 -16797500000.0 -15875200000.0 -16021500000.0 -20557000000.0 -17249100000.0 -16670800000.0 -12766000000.0 -13353800000.0 -14660300000.0 -12549700000.0 -15041800000.0 -12577700000.0 -14113200000.0 -15776900000.0 -14788000000.0 -15965900000.0 -14845300000.0 -15492600000.0 -15361700000.0 -12549700000.0 -17397900000.0 -13986100000.0 -14923400000.0 -16561000000.0 -16855500000.0 -14408400000.0 -17358100000.0 -15277100000.0 -16094500000.0 -24204100000.0 -12549700000.0 -17370400000.0 -16470400000.0 -14024700000.0 -12573600000.0 -12701100000.0 -16610200000.0 -13913700000.0 -14140700000.0 -15061900000.0 -12588800000.0 -16280700000.0 -13287900000.0 -15250000000.0 -12910900000.0 -15484900000.0 -18998500000.0 -20858800000.0 -21280300000.0 -12610200000.0 -19702000000.0 -16943300000.0 -13782600000.0 -12688500000.0 -13023800000.0 -13588800000.0 -18095600000.0 -14413500000.0 -14985000000.0 -12596900000.0 -12583100000.0 -14589600000.0 -13719100000.0 -12835400000.0 -12642200000.0 -12549700000.0 -13865600000.0 -14230300000.0 -14438600000.0 -13881700000.0 -12612000000.0 -13961300000.0 -13190800000.0 -14163400000.0 -13860700000.0 -12561800000.0 -14584400000.0 -12756100000.0 -12959300000.0 -12552100000.0 -14953300000.0 -15368500000.0 -16454600000.0 -12552400000.0 -12763800000.0 -16461200000.0 -12549700000.0 -12551700000.0 -17110700000.0 -12592000000.0 -15341400000.0 -16635000000.0 -12549700000.0 -12558400000.0 -12804700000.0 -14888900000.0 -14869500000.0 -15794600000.0 -19052300000.0 -12549700000.0 -12549700000.0 -15978900000.0 -16489400000.0 -12773600000.0 -12964300000.0 -18356500000.0 -15426800000.0 -15585400000.0 -19763400000.0 -18064000000.0 -12933600000.0 -14247400000.0 -13100800000.0 -14911900000.0 -12937300000.0 -17223400000.0 -13757700000.0 -15970700000.0 -13477900000.0 -14423200000.0 -15956800000.0 -18872900000.0 -16784600000.0 -22539200000.0 -21829900000.0 -13791800000.0 -22130300000.0 -20815500000.0 -21607600000.0 -23694300000.0 -15169100000.0 -22840100000.0 -26910000000.0 -17175700000.0 -15616100000.0 -26150000000.0 -29214600000.0 -18567800000.0 -14849900000.0 -14752300000.0 -16560500000.0 -14095500000.0 -13979100000.0 -13638700000.0 -16256100000.0 -14128000000.0 -12566200000.0 -14823200000.0 -15188100000.0 -13049600000.0 -13231600000.0 -13971300000.0 -14148800000.0 -13014600000.0 -20727900000.0 -17605100000.0 -12611800000.0 -12697800000.0 -13958600000.0 -12549700000.0 -13932200000.0 -14079700000.0 -12889000000.0 -13114600000.0 -13065000000.0 -12610600000.0 -14102100000.0 -13284300000.0 -13268000000.0 -14073800000.0 -13077600000.0 -15649900000.0 -13568700000.0 -14221000000.0 -13487900000.0 -13226300000.0 -13703100000.0 -12581000000.0 -13090700000.0 -12611600000.0 -12719800000.0 -12560000000.0 -16234800000.0 -12593900000.0 -14350100000.0 -15477100000.0 -14091000000.0 -15360000000.0 -15788100000.0 -14938100000.0 -12579900000.0 -12622700000.0 -14178000000.0 -14287900000.0 -14209700000.0 -16743600000.0 -12714800000.0 -12731300000.0 -13668100000.0 -14305900000.0 -14828700000.0 -13645400000.0 -20325700000.0 -13777300000.0 -18127200000.0 -15635500000.0 -18290800000.0 -13266100000.0 -26218800000.0 -21755400000.0 -22939400000.0 -21384900000.0 -13865300000.0 -17504700000.0 -15169200000.0 -15688200000.0 -15241800000.0 -15169000000.0 -14999100000.0 -19928400000.0 -13387500000.0 -14395100000.0 -15571000000.0 -18233200000.0 -13518400000.0 -24109800000.0 -15481400000.0 -14484000000.0 -15374400000.0 -21785600000.0 -13040400000.0 -21148700000.0 -17468400000.0 -15639900000.0 -13623900000.0 -19166800000.0 -12917400000.0 -21148300000.0 -19956700000.0 -19458300000.0 -20543800000.0 -17027600000.0 -16844000000.0 -12549700000.0 -18184200000.0 -13089100000.0 -15503400000.0 -12716000000.0 -12633400000.0 -16077900000.0 -13088100000.0 -14239300000.0 -13264900000.0 -15749400000.0 -12845800000.0 -14555100000.0 -13211900000.0 -14208800000.0 -14656900000.0 -20162200000.0 -16809000000.0 -16893200000.0 -13640100000.0 -19085600000.0 -17651200000.0 -15377000000.0 -15232800000.0 -16211900000.0 -12771300000.0 -15526900000.0 -15314300000.0 -14328400000.0 -13454500000.0 -13743800000.0 -14868700000.0 -12689800000.0 -16536900000.0 -14276300000.0 -12922100000.0 -15624600000.0 -14696600000.0 -14990900000.0 -14813100000.0 -13228700000.0 -13203800000.0 -12549700000.0 -13374700000.0 -13184900000.0 -12784300000.0 -16782500000.0 -12750100000.0 -13444500000.0 -13476900000.0 -15791700000.0 -16068200000.0 -14285900000.0 -15188900000.0 -13588600000.0 -12747600000.0 -16764100000.0 -12549700000.0 -12562600000.0 -13752800000.0 -13654700000.0 -15495700000.0 -14499200000.0 -19478700000.0 -12549700000.0 -18658300000.0 -21346400000.0 -22681200000.0 -18152000000.0 -13050500000.0 -19240700000.0 -17979100000.0 -16632300000.0 -17283300000.0 -13543200000.0 -14136000000.0 -13994800000.0 -13320400000.0 -16131200000.0 -12549700000.0 -18234500000.0 -18575600000.0 -19050300000.0 -18592300000.0 -12549700000.0 -19233400000.0 -15200700000.0 -15624000000.0 -12755200000.0 -20213300000.0 -14134700000.0 -18008400000.0 -13475200000.0 -13119500000.0 -13708700000.0 -20296600000.0 -23132900000.0 -14030600000.0 -22544300000.0 -12549700000.0 -17148600000.0 -19277800000.0 -20551500000.0 -24164400000.0 -25098700000.0 -23177000000.0 -22406900000.0 -24507500000.0 -23146300000.0 -24594400000.0 -23254600000.0 -19666700000.0 -18710700000.0 -14990100000.0 -23982000000.0 -23262500000.0 -24303600000.0 -18561400000.0 -12601900000.0 -18346300000.0 -15023000000.0 -15100300000.0 -13822000000.0 -13933400000.0 -13700600000.0 -13790000000.0 -12867600000.0 -13004600000.0 -15606700000.0 -15521600000.0 -14422300000.0 -14529200000.0 -16108800000.0 -18771600000.0 -13218400000.0 -14394900000.0 -14496900000.0 -12630300000.0 -13584500000.0 -14959400000.0 -13022600000.0 -16386000000.0 -16447700000.0 -16237600000.0 -17379100000.0 -15383500000.0 -15381000000.0 -15999800000.0 -17146700000.0 -14682500000.0 -13176100000.0 -14068000000.0 -14280800000.0 -15602600000.0 -17649200000.0 -16849800000.0 -16792400000.0 -20589300000.0 -15623300000.0 -17468300000.0 -12549700000.0 -12549700000.0 -28327200000.0 -24815700000.0 -21102700000.0 -18006600000.0 -20005600000.0 -13949800000.0 -13900300000.0 -17539700000.0 -16659600000.0 -16288600000.0 -18110900000.0 -20348800000.0 -22150500000.0 -13785500000.0 -12630600000.0 -13643300000.0 -16939300000.0 -21273800000.0 -24014000000.0 -15128700000.0 -17204200000.0 -12573400000.0 -12552700000.0 -16910200000.0 -18594100000.0 -24876900000.0 -15024000000.0 -18551600000.0 -13384200000.0 -17245900000.0 -13955300000.0 -14629300000.0 -13739500000.0 -13066200000.0 -13276300000.0 -23903000000.0 -16264800000.0 -20782200000.0 -13279600000.0 -12919800000.0 -15300400000.0 -12690400000.0 -13885100000.0 -13866200000.0 -13115900000.0 -15678800000.0 -16794600000.0 -16901000000.0 -16790200000.0 -15707800000.0 -13729600000.0 -12569800000.0 -12549800000.0 -12550600000.0 -29052500000.0 -23026400000.0 -20900000000.0 -14178500000.0 -13979400000.0 -14190600000.0 -14422100000.0 -12919800000.0 -13473000000.0 -12858200000.0 -12748800000.0 -12634500000.0 -14017800000.0 -12976900000.0 -14689800000.0 -13013300000.0 -13466800000.0 -13853900000.0 -16806300000.0 -13964900000.0 -16689200000.0 -15904100000.0 -15663100000.0 -16363300000.0 -14004100000.0 -14469200000.0 -12868200000.0 -13868100000.0 -16635900000.0 -14660700000.0 -15702700000.0 -13368300000.0 -12704900000.0 -17038300000.0 -13107400000.0 -12618700000.0 -13997600000.0 -13480300000.0 -12795300000.0 -18936900000.0 -12575100000.0 -14539300000.0 -14341100000.0 -19991900000.0 -13480500000.0 -14930600000.0 -20573300000.0 -12587600000.0 -22388300000.0 -25252500000.0 -26037500000.0 -12825900000.0 -12714200000.0 -25059800000.0 -22311600000.0 -14296400000.0 -15580600000.0 -12723300000.0 -13019500000.0 -18697300000.0 -12967600000.0 -12860300000.0 -14145400000.0 -21194300000.0 -14006500000.0 -19051500000.0 -16475500000.0 -12662700000.0 -20700900000.0 -16707600000.0 -18818200000.0 -16175300000.0 -17284200000.0 -17143200000.0 -15858900000.0 -20501300000.0 -14536400000.0 -12584700000.0 -14433200000.0 -13343900000.0 -12790200000.0 -16324500000.0 -19616900000.0 -16260200000.0 -20776000000.0 -17649200000.0 -17201600000.0 -14784600000.0 -14331100000.0 -12730800000.0 -19271300000.0 -17417100000.0 -16587900000.0 -13085000000.0 -16546100000.0 -13674400000.0 -12739400000.0 -12647400000.0 -12650800000.0 -12549700000.0 -12590700000.0 -14323000000.0 -24021700000.0 -12984200000.0 -18673900000.0 -14497700000.0 -14138700000.0 -13441600000.0 -15804200000.0 -14615400000.0 -13300600000.0 -13209300000.0 -14167500000.0 -12662700000.0 -12836900000.0 -13110100000.0 -12586000000.0 -13105300000.0 -13551100000.0 -12549700000.0 -15976600000.0 -16056400000.0 -15192500000.0 -12857200000.0 -12714600000.0 -13427000000.0 -12585300000.0 -13322700000.0 -14842100000.0 -15089500000.0 -20345600000.0 -12824300000.0 -12601600000.0 -16605200000.0 -13891200000.0 -12676800000.0 -13968200000.0 -13036700000.0 -13449500000.0 -19638900000.0 -13276000000.0 -14299800000.0 -12609100000.0 -18751800000.0 -25148900000.0 -24238700000.0 -21698600000.0 -25358400000.0 -26676300000.0 -25354400000.0 -13325900000.0 -12593200000.0 -30285400000.0 -19926800000.0 -15793100000.0 -12828100000.0 -12844900000.0 -14768700000.0 -13493400000.0 -13382300000.0 -13877400000.0 -13220600000.0 -13706100000.0 -13454100000.0 -23095500000.0 -17561000000.0 -16260400000.0 -22628600000.0 -16482500000.0 -15514300000.0 -15170700000.0 -18337400000.0 -20565300000.0 -13327500000.0 -13340100000.0 -15504600000.0 -12573400000.0 -17432800000.0 -12601200000.0 -15548900000.0 -20525000000.0 -14126800000.0 -14260200000.0 -15432900000.0 -17226400000.0 -21889600000.0 -19215100000.0 -20283300000.0 -16354600000.0 -14461900000.0 -20033500000.0 -20983000000.0 -21519500000.0 -16095300000.0 -15309000000.0 -17755100000.0 -16776800000.0 -13444400000.0 -12728400000.0 -12849200000.0 -12993200000.0 -14003900000.0 -21105100000.0 -18364200000.0 -13891900000.0 -13452300000.0 -15372600000.0 -14550600000.0 -13803300000.0 -14295500000.0 -14820700000.0 -14384400000.0 -14489800000.0 -14673900000.0 -14648900000.0 -13072800000.0 -13765300000.0 -13549800000.0 -16449800000.0 -12715800000.0 -12564700000.0 -13567100000.0 -12585900000.0 -13163900000.0 -12569600000.0 -12549700000.0 -14295600000.0 -13825400000.0 -13711600000.0 -17991000000.0 -16627200000.0 -15707100000.0 -14380400000.0 -14476300000.0 -16308100000.0 -17167900000.0 -13660300000.0 -14127400000.0 -14852200000.0 -13790100000.0 -12695600000.0 -12809000000.0 -21403300000.0 -15156300000.0 -16128600000.0 -19126700000.0 -12691500000.0 -17791700000.0 -15464000000.0 -12930800000.0 -33124000000.0 -15028100000.0 -31059600000.0 -12625300000.0 -12567000000.0 -24839700000.0 -26967000000.0 -12646600000.0 -14313700000.0 -18257000000.0 -15049800000.0 -13328800000.0 -13320300000.0 -22934000000.0 -23403300000.0 -12549700000.0 -12871900000.0 -15779100000.0 -12574400000.0 -14595600000.0 -15580800000.0 -20171100000.0 -12936600000.0 -14394000000.0 -12834600000.0 -14551200000.0 -15325000000.0 -17865100000.0 -14309100000.0 -13601000000.0 -19514700000.0 -16085800000.0 -15520900000.0 -18250500000.0 -16792200000.0 -15963400000.0 -19654900000.0 -16879000000.0 -19665800000.0 -19190500000.0 -17420000000.0 -12595100000.0 -13324200000.0 -16270500000.0 -12549700000.0 -14475900000.0 -12628000000.0 -14918700000.0 -16414600000.0 -16126100000.0 -13170500000.0 -12589400000.0 -12867000000.0 -12882600000.0 -12604200000.0 -12664100000.0 -13455400000.0 -16223100000.0 -17732700000.0 -12558800000.0 -12549700000.0 -13802300000.0 -13287900000.0 -13764800000.0 -12941700000.0 -13470600000.0 -12858700000.0 -12972800000.0 -13127600000.0 -12705000000.0 -12549700000.0 -13871100000.0 -14933100000.0 -14894600000.0 -15199900000.0 -15726500000.0 -16188200000.0 -14239300000.0 -13107700000.0 -13217000000.0 -13119900000.0 -13522000000.0 -13879000000.0 -14522500000.0 -17580500000.0 -16239000000.0 -14815000000.0 -13504800000.0 -15419400000.0 -12549700000.0 -13552000000.0 -24064300000.0 -13049300000.0 -17268200000.0 -19370100000.0 -19340100000.0 -16544900000.0 -18018700000.0 -16643500000.0 -46611000000.0 -21120500000.0 -25722400000.0 -21323600000.0 -21769500000.0 -26836100000.0 -15942100000.0 -15697900000.0 -20305400000.0 -15729900000.0 -17689600000.0 -28743400000.0 -15786700000.0 -15612800000.0 -15617900000.0 -16536100000.0 -15829800000.0 -14459000000.0 -14146200000.0 -14293800000.0 -13932400000.0 -17591400000.0 -16215100000.0 -12549700000.0 -16505100000.0 -12565700000.0 -15443700000.0 -14550800000.0 -19043700000.0 -16300100000.0 -15194700000.0 -18014800000.0 -14938000000.0 -12695600000.0 -12560600000.0 -19371600000.0 -16217700000.0 -12612000000.0 -19938400000.0 -19086900000.0 -20173000000.0 -12549700000.0 -13362600000.0 -14067700000.0 -16208600000.0 -13545100000.0 -13124800000.0 -15654000000.0 -13068300000.0 -12763700000.0 -12823600000.0 -12775700000.0 -12904200000.0 -13152100000.0 -16506800000.0 -16573700000.0 -16019600000.0 -16427400000.0 -14320600000.0 -15410700000.0 -13052000000.0 -12930400000.0 -13333200000.0 -12858400000.0 -13696500000.0 -12969700000.0 -14032200000.0 -13689600000.0 -14999700000.0 -14096300000.0 -12772600000.0 -12554300000.0 -12637300000.0 -12987300000.0 -12971800000.0 -16015200000.0 -15738500000.0 -15033700000.0 -15908000000.0 -15559100000.0 -12549700000.0 -15853100000.0 -17425900000.0 -14662700000.0 -13542900000.0 -13433200000.0 -18362100000.0 -18353100000.0 -16225600000.0 -12549700000.0 -25781000000.0 -17754100000.0 -12654900000.0 -15398900000.0 -14081300000.0 -18236900000.0 -19469900000.0 -21258000000.0 -17373400000.0 -54903600000.0 -21936600000.0 -25172800000.0 -21171000000.0 -40084200000.0 -33511300000.0 -26297200000.0 -21077500000.0 -21480400000.0 -28496000000.0 -12613200000.0 -15974000000.0 -13746300000.0 -14029000000.0 -12549700000.0 -16903800000.0 -13926700000.0 -15640200000.0 -14316100000.0 -18153300000.0 -14993500000.0 -15929000000.0 -16537700000.0 -13850800000.0 -12754100000.0 -12549700000.0 -12580400000.0 -12640600000.0 -14109700000.0 -16744100000.0 -14910500000.0 -13851900000.0 -17014300000.0 -14665100000.0 -17030800000.0 -13439300000.0 -15127800000.0 -12663900000.0 -16851100000.0 -13932300000.0 -14147700000.0 -12652900000.0 -19199700000.0 -20047000000.0 -19208500000.0 -20439700000.0 -17337700000.0 -12818100000.0 -12549700000.0 -12807800000.0 -12601000000.0 -12603400000.0 -12676800000.0 -14638500000.0 -12644300000.0 -15214900000.0 -12684400000.0 -14851100000.0 -13735500000.0 -13771200000.0 -12717700000.0 -12711200000.0 -12994200000.0 -12944400000.0 -12671800000.0 -13849000000.0 -12760600000.0 -13682300000.0 -12650200000.0 -13986900000.0 -12934900000.0 -12934700000.0 -13193100000.0 -12615700000.0 -12570000000.0 -12576700000.0 -12549700000.0 -12576200000.0 -14128500000.0 -14406200000.0 -12587800000.0 -12735300000.0 -18414100000.0 -16039600000.0 -15358800000.0 -18845900000.0 -20451900000.0 -15164000000.0 -13935300000.0 -17450700000.0 -14535300000.0 -15858000000.0 -21254200000.0 -21777300000.0 -17185600000.0 -12584200000.0 -15073100000.0 -14527700000.0 -12566200000.0 -20714800000.0 -15195600000.0 -25158800000.0 -28280900000.0 -40067800000.0 -12762500000.0 -33289700000.0 -36987300000.0 -27708000000.0 -19198100000.0 -27077400000.0 -18412600000.0 -18852400000.0 -22835700000.0 -28732900000.0 -16157800000.0 -15210700000.0 -17196000000.0 -16839400000.0 -17529700000.0 -13598800000.0 -13273400000.0 -13513300000.0 -13450800000.0 -13929000000.0 -14225500000.0 -14247100000.0 -12549700000.0 -13086600000.0 -14009500000.0 -13174700000.0 -13254600000.0 -15654000000.0 -16686700000.0 -13342700000.0 -15744200000.0 -12549700000.0 -15988000000.0 -14910300000.0 -13350700000.0 -13982000000.0 -14760600000.0 -14530600000.0 -13833700000.0 -13289100000.0 -14572900000.0 -14643000000.0 -15227300000.0 -18303100000.0 -15673900000.0 -15877300000.0 -23079400000.0 -16773900000.0 -15669500000.0 -12750100000.0 -12549700000.0 -12830800000.0 -12603100000.0 -12607600000.0 -13076100000.0 -12890600000.0 -12624700000.0 -13906300000.0 -13208500000.0 -14863300000.0 -12549700000.0 -13275500000.0 -13410400000.0 -12774700000.0 -12596700000.0 -12738300000.0 -12549700000.0 -12973800000.0 -13897600000.0 -12643700000.0 -12618200000.0 -12756900000.0 -12742500000.0 -12560300000.0 -12610700000.0 -12750400000.0 -12551200000.0 -12836900000.0 -12570100000.0 -12558100000.0 -12606800000.0 -12612500000.0 -13238600000.0 -13166800000.0 -15625600000.0 -15578600000.0 -19134600000.0 -14376400000.0 -13613900000.0 -13920100000.0 -25207100000.0 -22689100000.0 -22236200000.0 -21395600000.0 -23489300000.0 -22762800000.0 -13394100000.0 -20973000000.0 -19529900000.0 -20765700000.0 -19770100000.0 -16001000000.0 -30625400000.0 -12702700000.0 -21731700000.0 -34070400000.0 -30746200000.0 -32863200000.0 -33788800000.0 -13331100000.0 -23325500000.0 -21036200000.0 -24835000000.0 -18358300000.0 -17840400000.0 -12549700000.0 -31895200000.0 -20238800000.0 -19068900000.0 -15614000000.0 -16720500000.0 -13048600000.0 -13550100000.0 -12727600000.0 -13165300000.0 -13915300000.0 -13972400000.0 -14220400000.0 -14055400000.0 -12554000000.0 -13756600000.0 -12583400000.0 -12986300000.0 -12970600000.0 -14443400000.0 -12651000000.0 -13972500000.0 -13899200000.0 -13150200000.0 -14106500000.0 -13679500000.0 -15604500000.0 -13643700000.0 -13077300000.0 -13465800000.0 -13844400000.0 -13772300000.0 -13793900000.0 -14272700000.0 -13983400000.0 -12567200000.0 -12555600000.0 -18997100000.0 -14208600000.0 -12909400000.0 -13475000000.0 -13526100000.0 -13455500000.0 -13474500000.0 -13263000000.0 -13277000000.0 -13256200000.0 -12686600000.0 -14304800000.0 -14428200000.0 -14151200000.0 -13535400000.0 -13534800000.0 -13569800000.0 -13404900000.0 -13203700000.0 -13378100000.0 -12558900000.0 -12549700000.0 -12558300000.0 -12622000000.0 -12748300000.0 -12628100000.0 -12623000000.0 -12778400000.0 -12616500000.0 -12560800000.0 -12861600000.0 -12780400000.0 -14919300000.0 -12575500000.0 -12646700000.0 -14754600000.0 -19229600000.0 -17588500000.0 -19037800000.0 -23101000000.0 -14631400000.0 -13425700000.0 -16023300000.0 -15535500000.0 -35196600000.0 -21599700000.0 -23761900000.0 -23606600000.0 -30610000000.0 -20592300000.0 -28751300000.0 -13294200000.0 -16347500000.0 -39601300000.0 -60117900000.0 -12847700000.0 -12680600000.0 -33163500000.0 -16073300000.0 -30492400000.0 -16066900000.0 -15851800000.0 -12549700000.0 -27251500000.0 -16473800000.0 -12701300000.0 -14084000000.0 -14654800000.0 -17032200000.0 -13230800000.0 -13315800000.0 -13070300000.0 -12762100000.0 -13695800000.0 -14357000000.0 -13120600000.0 -13858100000.0 -12568600000.0 -12827600000.0 -13374200000.0 -12715300000.0 -12805700000.0 -14812200000.0 -13124700000.0 -13243900000.0 -12549700000.0 -13811100000.0 -15126000000.0 -12549700000.0 -13426600000.0 -12599600000.0 -12569100000.0 -12554800000.0 -13062400000.0 -12769000000.0 -14860700000.0 -15191500000.0 -15340800000.0 -14438500000.0 -17653700000.0 -13991300000.0 -13549700000.0 -12910200000.0 -12553400000.0 -12551500000.0 -12769300000.0 -12708600000.0 -12651200000.0 -12747900000.0 -12735400000.0 -12680600000.0 -12769900000.0 -13165900000.0 -13008300000.0 -12768400000.0 -12828000000.0 -12882500000.0 -12969600000.0 -13209100000.0 -13400100000.0 -12929100000.0 -12902900000.0 -13005100000.0 -13085600000.0 -13297400000.0 -13142400000.0 -13242100000.0 -13263100000.0 -13015900000.0 -13440700000.0 -13786300000.0 -14365300000.0 -17283000000.0 -16027700000.0 -16091700000.0 -18235100000.0 -13201000000.0 -15012500000.0 -12762600000.0 -22821000000.0 -20594500000.0 -16489300000.0 -13749500000.0 -15720100000.0 -29278900000.0 -17373300000.0 -16441000000.0 -17362700000.0 -34166900000.0 -12549700000.0 -23829900000.0 -20249100000.0 -17029300000.0 -12549700000.0 -42044100000.0 -14596900000.0 -12859900000.0 -12829700000.0 -32860200000.0 -13132700000.0 -31822800000.0 -21015400000.0 -20216200000.0 -26962600000.0 -21333300000.0 -20724100000.0 -21523300000.0 -20653900000.0 -16219700000.0 -15135500000.0 -15346400000.0 -15560000000.0 -16009100000.0 -16007700000.0 -14356200000.0 -13862700000.0 -14209200000.0 -13895600000.0 -13498400000.0 -13318900000.0 -13274300000.0 -14689000000.0 -13176400000.0 -13119900000.0 -13694300000.0 -13907000000.0 -16334200000.0 -13195700000.0 -13067300000.0 -14823100000.0 -14237200000.0 -13820200000.0 -13858600000.0 -13792800000.0 -12914700000.0 -13402500000.0 -13217100000.0 -12576800000.0 -13176100000.0 -16144600000.0 -13141900000.0 -13361600000.0 -12768000000.0 -12593900000.0 -12702400000.0 -12549700000.0 -12549900000.0 -12561300000.0 -12657100000.0 -12609600000.0 -12563900000.0 -12549700000.0 -12682800000.0 -12721800000.0 -12558800000.0 -12550200000.0 -12549700000.0 -12556400000.0 -12549700000.0 -12782300000.0 -13227600000.0 -13184000000.0 -13126900000.0 -13100600000.0 -12979500000.0 -13053100000.0 -12917200000.0 -13174700000.0 -13553200000.0 -14165600000.0 -14746500000.0 -16746400000.0 -13120100000.0 -13963100000.0 -13571000000.0 -17428500000.0 -15227500000.0 -14713900000.0 -16141300000.0 -20243600000.0 -12630100000.0 -22058500000.0 -18259100000.0 -20233600000.0 -22028300000.0 -23750400000.0 -12865200000.0 -17013900000.0 -35293200000.0 -26379400000.0 -16937000000.0 -22038700000.0 -43496300000.0 -14520500000.0 -16686000000.0 -49042700000.0 -12566500000.0 -13749300000.0 -43442100000.0 -25364500000.0 -29968500000.0 -21186300000.0 -23288600000.0 -18063800000.0 -17923000000.0 -15294400000.0 -12651600000.0 -12549700000.0 -14565400000.0 -14996400000.0 -15678200000.0 -16035000000.0 -16159300000.0 -14235600000.0 -16864700000.0 -14870200000.0 -12719700000.0 -13065900000.0 -12647100000.0 -12817700000.0 -12550300000.0 -12589600000.0 -12549700000.0 -13810200000.0 -12886100000.0 -13005100000.0 -13003100000.0 -13152700000.0 -15019800000.0 -13080100000.0 -13090800000.0 -13180500000.0 -12846200000.0 -13113500000.0 -13705400000.0 -12555500000.0 -12673700000.0 -13220200000.0 -12588800000.0 -14620500000.0 -14182800000.0 -13667300000.0 -13284100000.0 -12613200000.0 -12583000000.0 -12637400000.0 -12549700000.0 -12551000000.0 -12561100000.0 -12622600000.0 -12584500000.0 -12549700000.0 -12549700000.0 -12549700000.0 -12635900000.0 -12552700000.0 -12549700000.0 -12549700000.0 -12558100000.0 -12579000000.0 -12765400000.0 -12623100000.0 -12621000000.0 -12558200000.0 -12643700000.0 -12764400000.0 -12739200000.0 -13013100000.0 -13174300000.0 -13161500000.0 -13060400000.0 -13955000000.0 -14429600000.0 -13217800000.0 -14613400000.0 -15147600000.0 -15878900000.0 -16207600000.0 -16735400000.0 -16704500000.0 -17929100000.0 -20507200000.0 -23897500000.0 -12603800000.0 -23434800000.0 -26019700000.0 -30490500000.0 -32908000000.0 -36319700000.0 -49773700000.0 -34346000000.0 -31049900000.0 -48366500000.0 -56324000000.0 -13384000000.0 -31468200000.0 -50785600000.0 -26717500000.0 -33922800000.0 -23860900000.0 -18527000000.0 -17936500000.0 -29214700000.0 -28103700000.0 -19919200000.0 -15218900000.0 -13228200000.0 -13215100000.0 -13027300000.0 -14404700000.0 -12621400000.0 -12954500000.0 -12759700000.0 -14215300000.0 -14496500000.0 -13083600000.0 -12980800000.0 -12960800000.0 -12849400000.0 -13479400000.0 -12553700000.0 -12627600000.0 -12570400000.0 -12613300000.0 -13990400000.0 -12630700000.0 -12584300000.0 -13098600000.0 -12549700000.0 -12672200000.0 -12699900000.0 -14109000000.0 -13819700000.0 -14446900000.0 -14748800000.0 -12825400000.0 -13047900000.0 -12592200000.0 -12565900000.0 -12549700000.0 -12575700000.0 -12549800000.0 -12550100000.0 -12552500000.0 -12575300000.0 -12561100000.0 -12549700000.0 -12549700000.0 -12549700000.0 -12581300000.0 -12549700000.0 -12549700000.0 -12549700000.0 -12551500000.0 -12565000000.0 -12692100000.0 -12647200000.0 -12650400000.0 -12637900000.0 -12571700000.0 -12584600000.0 -12600600000.0 -12738600000.0 -12613300000.0 -12676100000.0 -12705700000.0 -12962900000.0 -12807900000.0 -12697700000.0 -13124600000.0 -12888700000.0 -13177400000.0 -13650300000.0 -13826900000.0 -14053100000.0 -13659600000.0 -27127500000.0 -20392300000.0 -27891500000.0 -28385800000.0 -12632900000.0 -19110900000.0 -31127600000.0 -17703500000.0 -43822900000.0 -20745600000.0 -23569900000.0 -40859900000.0 -21710400000.0 -36954200000.0 -26224800000.0 -14150400000.0 -17574100000.0 -18272200000.0 -41845500000.0 -22414100000.0 -15138400000.0 -14023600000.0 -14963900000.0 -14697200000.0 -14583900000.0 -12717300000.0 -12596100000.0 -12577700000.0 -12594000000.0 -13068500000.0 -12712200000.0 -12732500000.0 -12646400000.0 -12594300000.0 -13867000000.0 -13300600000.0 -13109800000.0 -12549700000.0 -13259100000.0 -12685100000.0 -12655100000.0 -12777100000.0 -12661300000.0 -12803600000.0 -12779900000.0 -12853400000.0 -12985900000.0 -13094600000.0 -12985300000.0 -12726800000.0 -12782800000.0 -12650200000.0 -12614200000.0 -12804500000.0 -12628300000.0 -13770000000.0 -13399500000.0 -13024100000.0 -12669000000.0 -13011600000.0 -16874700000.0 -16561600000.0 -14988600000.0 -35829700000.0 -21684600000.0 -24313800000.0 -31760000000.0 -26216700000.0 -31301200000.0 -23096400000.0 -24953600000.0 -34916000000.0 -12637200000.0 -22887700000.0 -42664800000.0 -20947800000.0 -19694600000.0 -19237200000.0 -38964300000.0 -13227800000.0 -13244200000.0 -12820500000.0 -12551400000.0 -12597900000.0 -12612400000.0 -12594800000.0 -13462400000.0 -16509400000.0 -16617600000.0 -14426400000.0 -30715500000.0 -15990700000.0 -13173900000.0 -34541600000.0 -25707800000.0 -26278800000.0 -12841400000.0 -20640300000.0 -47914700000.0 -23801800000.0 -41003800000.0 -32939800000.0 -18561400000.0 -22998300000.0 -20342200000.0 -19285800000.0 -37964000000.0 -14430500000.0 -17836700000.0 -20064300000.0 -24658300000.0 -23077900000.0 -18046800000.0 -34130700000.0 -48051700000.0 -30800400000.0 -35542900000.0 -24318500000.0 -16836200000.0 -75030400000.0 -37911700000.0 -46948300000.0 -27164800000.0 -16610700000.0 -12549700000.0 -45635400000.0 -13615300000.0 -13821000000.0 -17904100000.0 -16240200000.0 -22110400000.0 -23050500000.0 -29615400000.0 -12702600000.0 -26884800000.0 -15491600000.0 -14062200000.0 -48323500000.0 -71440000000.0 -12859700000.0 -23967600000.0 -34292400000.0 -12549700000.0 -23504300000.0 -19995200000.0 -18429000000.0 -38631800000.0 -13304500000.0 -13328000000.0 -12549700000.0 -12549700000.0 -21978200000.0 -21368100000.0 -39009700000.0 -35867800000.0 -16294200000.0 -26642600000.0 -14639000000.0 -14388800000.0 -67855500000.0 -25639100000.0 -16001200000.0 -36131000000.0 -17113300000.0 -16935800000.0 -32672700000.0 -14115200000.0 -13224300000.0 -13857100000.0 -12549700000.0 -12549700000.0 -12549700000.0 -13999800000.0 -19168500000.0 -18498400000.0 -24724800000.0 -29001600000.0 -18741700000.0 -31484200000.0 -24633300000.0 -24420900000.0 -72153000000.0 -20660600000.0 -22065500000.0 -20228000000.0 -33050100000.0 -16245400000.0 -40601700000.0 -34611000000.0 -24340000000.0 -17111000000.0 -13857600000.0 -12549700000.0 -12549700000.0 -12549700000.0 -12549700000.0 -12549700000.0 -12549700000.0 -12549700000.0 -12549700000.0 -12549700000.0 -12549700000.0 -12549700000.0 -12549700000.0 -12549700000.0 -12549700000.0 -12549700000.0 -12549700000.0 -12549700000.0 -12549700000.0 -12549700000.0 -12549700000.0 -12549700000.0 -12549700000.0 -12549700000.0 -12549700000.0 -12549700000.0 -12549700000.0 -13804600000.0 -12989700000.0 -18852800000.0 -16678700000.0 -18268300000.0 -24827900000.0 -29988400000.0 -26623700000.0 -19168800000.0 -30305800000.0 -81562600000.0 -31397500000.0 -22798700000.0 -13907300000.0 -17458400000.0 -43021700000.0 -41143300000.0 -18715500000.0 -21083000000.0 -15596400000.0 -12897300000.0 -12549700000.0 -12549700000.0 -12549700000.0 -12549700000.0 -12549700000.0 -12549700000.0 -12549700000.0 -12549700000.0 -12549700000.0 -12549700000.0 -12549700000.0 -12549700000.0 -12549700000.0 -12549700000.0 -12549700000.0 -12549700000.0 -12549700000.0 -12549700000.0 -12549700000.0 -12549700000.0 -12549700000.0 -12549700000.0 -12549700000.0 -12549700000.0 -12549700000.0 -12549700000.0 -12549700000.0 -12550100000.0 -12558800000.0 -12552600000.0 -16445700000.0 -16921400000.0 -12758100000.0 -18044700000.0 -28006700000.0 -29150500000.0 -49679000000.0 -42135800000.0 -35624300000.0 -27073100000.0 -35017600000.0 -50019900000.0 -25783700000.0 -13355500000.0 -40756900000.0 -23633200000.0 -13102100000.0 -12960400000.0 -16119800000.0 -26724200000.0 -15233000000.0 -13392300000.0 -12549700000.0 -12549700000.0 -12549700000.0 -12549700000.0 -12549700000.0 -12549700000.0 -12549700000.0 -12549700000.0 -12549700000.0 -12549700000.0 -12549700000.0 -12549700000.0 -12549700000.0 -12549700000.0 -12549700000.0 -12549700000.0 -12549700000.0 -12549700000.0 -12549700000.0 -12549700000.0 -12549700000.0 -12549700000.0 -12549700000.0 -12549700000.0 -12549700000.0 -12549700000.0 -12549700000.0 -12549700000.0 -12549700000.0 -12549700000.0 -12549700000.0 -12549700000.0 -12549700000.0 -12549700000.0 -12763300000.0 -13674800000.0 -14137400000.0 -14935200000.0 -15830300000.0 -21271000000.0 -18849700000.0 -21625000000.0 -33410500000.0 -33741300000.0 -24968000000.0 -14932100000.0 -22814400000.0 -49326100000.0 -66841000000.0 -36880800000.0 -40954000000.0 -31088900000.0 -37250100000.0 -23675200000.0 -19611000000.0 -26485400000.0 -13097100000.0 -15293800000.0 -17241400000.0 -13900600000.0 -13008000000.0 -12602500000.0 -12574000000.0 -12549700000.0 -12549700000.0 -12549700000.0 -12549700000.0 -12549700000.0 -12549700000.0 -12549700000.0 -12549700000.0 -12549700000.0 -12549700000.0 -12549700000.0 -12549700000.0 -12549700000.0 -12549700000.0 -12549700000.0 -12549700000.0 -12549700000.0 -12549700000.0 -12549700000.0 -12549700000.0 -12549700000.0 -12549700000.0 -12549700000.0 -12549700000.0 -12549700000.0 -12549700000.0 -12549700000.0 -12549700000.0 -12549700000.0 -12549700000.0 -12549700000.0 -12549700000.0 -12549700000.0 -12762700000.0 -12549700000.0 -12549700000.0 -12549700000.0 -12549700000.0 -12549700000.0 -12549700000.0 -12549700000.0 -12549700000.0 -12549700000.0 -12549700000.0 -12549700000.0 -12549700000.0 -12549700000.0 -12563800000.0 -13060200000.0 -17704600000.0 -15414100000.0 -22457800000.0 -28018100000.0 -32001000000.0 -28889300000.0 -41706500000.0 -31844800000.0 -53259500000.0 -32283400000.0 -31406700000.0 -45627700000.0 -44688000000.0 -31278600000.0 -33120300000.0 -20053200000.0 -24399000000.0 -29368200000.0 -27528500000.0 -18440200000.0 -12652800000.0 -14874500000.0 -12781700000.0 -12853000000.0 -12635000000.0 -12551900000.0 -12550300000.0 -12549700000.0 -12549700000.0 -12549700000.0 -12549700000.0 -12549700000.0 -12549700000.0 -12549700000.0 -12549700000.0 -12549700000.0 -12549700000.0 -12549700000.0 -12549700000.0 -12549700000.0 -12549700000.0 -12549700000.0 -12549700000.0 -12549700000.0 -12549700000.0 -12549700000.0 -12549700000.0 -12549700000.0 -12549700000.0 -12549700000.0 -12549700000.0 -12549700000.0 -12549700000.0 -13144900000.0 -12549700000.0 -12549700000.0 -12549700000.0 -12549700000.0 -12549700000.0 -12549700000.0 -12549700000.0 -12549700000.0 -12549700000.0 -12549700000.0 -12598000000.0 -12549700000.0 -13332300000.0 -15031100000.0 -13158700000.0 -17442500000.0 -15225700000.0 -37854300000.0 -12804800000.0 -34549600000.0 -27653500000.0 -48209700000.0 -24789500000.0 -20749900000.0 -41888200000.0 -12549700000.0 -12940300000.0 -38498700000.0 -54800800000.0 -50077200000.0 -27473000000.0 -19898800000.0 -13218100000.0 -12598600000.0 -12572300000.0 -12553700000.0 -12549700000.0 -12549700000.0 -12549700000.0 -12549700000.0 -12549700000.0 -12549700000.0 -12549700000.0 -12549700000.0 -12549700000.0 -12549700000.0 -12549700000.0 -12549700000.0 -12549700000.0 -12549700000.0 -12549700000.0 -12549700000.0 -12549700000.0 -12549700000.0 -12549700000.0 -12549700000.0 -12549700000.0 -12549700000.0 -12549700000.0 -12549700000.0 -12549700000.0 -12549700000.0 -12549700000.0 -12549700000.0 -12589500000.0 -12650400000.0 -12941300000.0 -12846800000.0 -12925200000.0 -12549700000.0 -12549700000.0 -12549700000.0 -12549700000.0 -12549700000.0 -12549700000.0 -12549700000.0 -12549700000.0 -12549700000.0 -12549700000.0 -12549700000.0 -12549400000.0 -12549700000.0 -12549700000.0 -12549700000.0 -12549700000.0 -12549700000.0 -12549700000.0 -12653000000.0 -12549700000.0 -13914000000.0 -14846600000.0 -17820500000.0 -23226600000.0 -16859000000.0 -13125700000.0 -56334700000.0 -50304700000.0 -30886800000.0 -41713500000.0 -61773600000.0 -16144600000.0 -19709900000.0 -39148400000.0 -37842400000.0 -34814000000.0 -18169300000.0 -66790200000.0 -26618900000.0 -29441000000.0 -14747600000.0 -12929500000.0 -13018800000.0 -12950700000.0 -12549700000.0 -12549700000.0 -12559600000.0 -12549700000.0 -12549700000.0 -12549700000.0 -12549700000.0 -12549700000.0 -12549700000.0 -12549700000.0 -12549700000.0 -12549700000.0 -12549700000.0 -12549700000.0 -12549700000.0 -12549700000.0 -12549700000.0 -12549700000.0 -12549700000.0 -12549700000.0 -12549700000.0 -12549700000.0 -12549700000.0 -12549700000.0 -12549700000.0 -12549700000.0 -12549700000.0 -12549700000.0 -12549700000.0 -12719100000.0 -13475200000.0 -12612700000.0 -12549700000.0 -12549700000.0 -12549700000.0 -12549700000.0 -12549700000.0 -12549700000.0 -12549700000.0 -12549700000.0 -12549700000.0 -12549700000.0 -31805300000.0 -52271000000.0 -45359500000.0 -12549700000.0 -14325700000.0 -28496500000.0 -20738800000.0 -26222700000.0 -29031400000.0 -13948800000.0 -53541700000.0 -21571600000.0 -21097000000.0 -20590800000.0 -23395500000.0 -27800600000.0 -57961800000.0 -12693800000.0 -33115800000.0 -15211500000.0 -13943100000.0 -13590200000.0 -12549700000.0 -12549700000.0 -12549700000.0 -12549700000.0 -12549700000.0 -12549700000.0 -12549700000.0 -12549700000.0 -12549700000.0 -12549700000.0 -12549700000.0 -12549700000.0 -12549700000.0 -12549700000.0 -14784200000.0 -12549700000.0 -12549700000.0 -12549700000.0 -12549700000.0 -12549700000.0 -12549700000.0 -12549700000.0 -12549700000.0 -12549700000.0 -12549700000.0 -12549700000.0 -12549700000.0 -12549700000.0 -12549700000.0 -12549700000.0 -12549700000.0 -14386300000.0 -12549700000.0 -12549700000.0 -12549700000.0 -12549700000.0 -12549700000.0 -12549700000.0 -12549700000.0 -12549700000.0 -12549700000.0 -12549700000.0 -14444800000.0 -15384600000.0 -42469000000.0 -31607000000.0 -23410500000.0 -22222700000.0 -12895000000.0 -27113800000.0 -33117700000.0 -34333700000.0 -24534300000.0 -30016900000.0 -21002500000.0 -35290700000.0 -57873000000.0 -13035800000.0 -14150200000.0 -31749800000.0 -15569000000.0 -12549700000.0 -12549700000.0 -12549700000.0 -12549700000.0 -12549700000.0 -12549700000.0 -12549700000.0 -12549700000.0 -12549700000.0 -12549700000.0 -12549700000.0 -12549700000.0 -12549700000.0 -26581600000.0 -18044600000.0 -12549700000.0 -12549700000.0 -12549700000.0 -12549700000.0 -12549700000.0 -12549700000.0 -12549700000.0 -12549700000.0 -12549700000.0 -12549700000.0 -12549700000.0 -12553200000.0 -12523500000.0 -12573400000.0 -12554500000.0 -12549700000.0 -12549700000.0 -12549700000.0 -12547200000.0 -14576900000.0 -14171200000.0 -12549700000.0 -12549700000.0 -12549700000.0 -12549700000.0 -12549700000.0 -12549700000.0 -12549700000.0 -32369200000.0 -61480700000.0 -19921500000.0 -20378800000.0 -15672300000.0 -22453900000.0 -13038700000.0 -36640600000.0 -43596900000.0 -36741300000.0 -21685300000.0 -17713400000.0 -54894900000.0 -48644300000.0 -29497900000.0 -36978000000.0 -14948200000.0 -12549700000.0 -12549700000.0 -12549700000.0 -12549700000.0 -12549700000.0 -12549700000.0 -12549700000.0 -12549700000.0 -12549700000.0 -12549700000.0 -12549700000.0 -12549700000.0 -12549700000.0 -12549700000.0 -11295000000.0 -32391300000.0 -16731700000.0 -127607000000.0 -57683400000.0 -12549700000.0 -12549700000.0 -12549700000.0 -12549700000.0 -12520300000.0 -12552600000.0 -12549800000.0 -318921000000.0 -270894000000.0 -317503000000.0 -13607000000.0 -12583400000.0 -12548000000.0 -12549700000.0 -12549700000.0 -12549700000.0 -12549700000.0 -12549700000.0 -12549700000.0 -12549700000.0 -12549700000.0 -12549700000.0 -12549700000.0 -12549700000.0 -15518600000.0 -15371800000.0 -30096900000.0 -13957400000.0 -64235000000.0 -14233200000.0 -24027000000.0 -28048800000.0 -18837200000.0 -36273900000.0 -33272900000.0 -56197500000.0 -34074400000.0 -52481800000.0 -85243700000.0 -80718000000.0 -65017400000.0 -33248600000.0 -25975900000.0 -36332100000.0 -17131500000.0 -14124800000.0 -12549700000.0 -12549700000.0 -13763500000.0 -12549700000.0 -12549700000.0 -12549700000.0 -12549700000.0 -12549700000.0 -12549700000.0 -12554900000.0 -12549700000.0 -18776200000.0 -19856600000.0 -206611000000.0 -12549700000.0 -25907500000.0 -3.77354e+12 -3.55804e+12 -5.4787e+12 -5.60472e+12 -6.70066e+12 -5.35648e+12 -4.44949e+12 -4.30711e+12 -12379800000.0 -12549600000.0 -4.59182e+12 -3.35414e+12 -3.81873e+12 -4.32828e+12 -5.28452e+12 -4.66538e+12 -1.18245e+12 -3.15835e+12 -740962000000.0 -2.12796e+12 -4.61541e+12 -6.35798e+12 -274329000000.0 -2.77365e+12 -12536200000.0 -3.32243e+12 -3.38294e+12 -4.3022e+12 -4.97398e+12 -12959300000.0 -12730200000.0 -6.26714e+12 -4.24019e+12 -12568500000.0 -3.73837e+12 -3.67011e+12 -5.72468e+12 -5.37605e+12 -4.00701e+12 -4.23632e+12 -5.25732e+12 -4.48601e+12 -4.23914e+12 -6.14725e+12 -6.57205e+12 -4.60877e+12 -3.75955e+12 -3.38675e+12 -1.63759e+12 -2.45264e+12 -4.15409e+12 -2.29937e+12 -3.60929e+12 -14765200000.0 -3.5791e+12 -4.21341e+12 -6.02829e+12 -3.64624e+12 -12884200000.0 -40887000000.0 -62297800000.0 -17278000000.0 -12818400000.0 -18933400000.0 -41309200000.0 -31017500000.0 -24722200000.0 -52633400000.0 -33046500000.0 -56420100000.0 -48080100000.0 -79675900000.0 -36393400000.0 -22197600000.0 -31159900000.0 -31542900000.0 -13396800000.0 -18654100000.0 -4.13332e+12 -12549400000.0 -4.53679e+12 -5.05756e+12 -4.01811e+12 -3.39474e+12 -2.07732e+12 -12549700000.0 -5.25513e+12 -2.58711e+12 -4.96284e+12 -5.1204e+12 -4.71052e+12 -75889100000.0 -70035100000.0 -36102500000.0 -4.40821e+12 -2.77469e+12 -3.3954e+12 -2.17118e+12 -12549700000.0 -5.00934e+12 -3.19692e+12 -6.2959e+12 -5.36263e+12 -2.24302e+12 -607074000000.0 -6.2128e+12 -12549700000.0 -5.2632e+12 -6.49588e+12 -5.2849e+12 -4.36281e+12 -5.44812e+12 -3.90102e+12 -3.80641e+12 -12549700000.0 -5.5656e+12 -2.89259e+12 -12487200000.0 -5.21054e+12 -4.32528e+12 -79493500000.0 -2.67339e+12 -180246000000.0 -90531500000.0 -2.11104e+12 -5.31616e+12 -6.86665e+12 -4.4966e+12 -2.70193e+12 -3.24585e+12 -2.64801e+12 -4.4655e+12 -12632900000.0 -3.74552e+12 -12552400000.0 -12533100000.0 -4.52141e+12 -3.28653e+12 -3.48246e+12 -6.73395e+12 -6.10406e+12 -5.5804e+12 -7.5948e+12 -6.20119e+12 -6.81368e+12 -5.74558e+12 -4.76187e+12 -5.38414e+12 -4.19218e+12 -5.09651e+12 -5.08164e+12 -4.04791e+12 -2.95213e+12 -4.44496e+12 -4.27785e+12 -5.72026e+12 -4.57795e+12 -7.43309e+12 -4.62749e+12 -7.34268e+12 -5.18564e+12 -8.06396e+12 -3.83531e+12 -5.36802e+12 -4.90476e+12 -3.64115e+12 -5.10505e+12 -5.73459e+12 -4.60288e+12 -2.88451e+12 -5.27738e+12 -7.52065e+12 -1.98104e+12 -6.54531e+12 -6.8479e+12 -8.11543e+12 -7.9393e+12 -5.49226e+12 -7.59482e+12 -5.6821e+12 -5.21476e+12 -5.36307e+12 -5.61796e+12 -3.10027e+12 -6.78264e+12 -5.1614e+12 -3.48341e+12 -6.30986e+12 -8.88449e+12 -6.79831e+12 -8.83423e+12 -7.37872e+12 -8.20442e+12 -3.57315e+12 -7.59188e+12 -6.35167e+12 -7.35941e+12 -4.93817e+12 -5.49187e+12 -9.27251e+12 -9.89469e+12 -6.34109e+12 -7.05606e+12 -3.97022e+12 -5.54852e+12 -5.11006e+12 -4.82187e+12 -6.21807e+12 -4.97698e+12 -4.51977e+12 -6.55162e+12 -3.96928e+12 -6.98837e+12 -7.27221e+12 -6.38473e+12 -7.40832e+12 -3.97791e+12 -3.42775e+12 -2.67966e+12 -113991000000.0 -80779700000.0 -25664500000.0 -83560100000.0 -25081100000.0 -26120700000.0 -27492300000.0 -28951700000.0 -26858500000.0 -13155800000.0 -37264500000.0 -18628900000.0 -25182900000.0 -36149500000.0 -58973200000.0 -32112300000.0 -27274900000.0 -40127700000.0 -41143800000.0 -3.85119e+12 -12549700000.0 -7.32957e+12 -5.91116e+12 -4.02808e+12 -4.75053e+12 -6.17301e+12 -6.12152e+12 -3.91092e+12 -7.99698e+12 -6.11743e+12 -4.23578e+12 -7.27995e+12 -7.29438e+12 -1.13539e+13 -4.42408e+12 -4.46607e+12 -7.2522e+12 -1.14176e+13 -7.30678e+12 -4.74745e+12 -7.12146e+12 -6.47153e+12 -6.39187e+12 -9.84247e+12 -5.04507e+12 -7.04983e+12 -6.45605e+12 -3.98878e+12 -5.56599e+12 -5.12943e+12 -3.38558e+12 -6.15287e+12 -1.09157e+13 -6.21461e+12 -5.8436e+12 -6.38576e+12 -5.7574e+12 -3.14381e+12 -9.8054e+12 -5.62783e+12 -7.40465e+12 -6.12685e+12 -4.5299e+12 -6.85902e+12 -5.96098e+12 -6.58198e+12 -7.6251e+12 -6.84536e+12 -6.27854e+12 -5.91068e+12 -8.55657e+12 -8.20848e+12 -8.30067e+12 -4.24916e+12 -3.82619e+12 -7.97507e+12 -6.33594e+12 -6.11895e+12 -4.99065e+12 -6.54551e+12 -8.50511e+12 -8.26836e+12 -7.21438e+12 -8.13175e+12 -7.19427e+12 -4.80384e+12 -1.03861e+13 -5.65125e+12 -5.77679e+12 -5.74727e+12 -5.61946e+12 -5.39364e+12 -6.90696e+12 -6.9083e+12 -7.6971e+12 -5.63303e+12 -3.52591e+12 -3.30164e+12 -4.43942e+12 -5.18591e+12 -5.91895e+12 -5.8206e+12 -7.5415e+12 -1.05675e+13 -3.95596e+12 -5.21491e+12 -4.47244e+12 -6.90377e+12 -6.95241e+12 -5.26001e+12 -8.71505e+12 -6.86493e+12 -4.1984e+12 -2.28671e+12 -5.72333e+12 -5.63387e+12 -5.62472e+12 -4.01796e+12 -7.08204e+12 -1.05909e+13 -6.74222e+12 -6.09489e+12 -5.90625e+12 -8.46881e+12 -8.66098e+12 -5.1808e+12 -8.75692e+12 -5.54031e+12 -6.58768e+12 -8.25952e+12 -4.79442e+12 -5.0818e+12 -6.62425e+12 -5.95323e+12 -6.26133e+12 -6.20244e+12 -7.64864e+12 -7.12842e+12 -1.07887e+13 -5.55024e+12 -3.91888e+12 -3.27722e+12 -4.91022e+12 -7.28378e+12 -3.85793e+12 -4.34357e+12 -5.61662e+12 -5.97032e+12 -6.73781e+12 -6.43094e+12 -6.22824e+12 -2.96536e+12 -4.67385e+12 -5.74217e+12 -9.02946e+12 -6.00787e+12 -1.00739e+13 -6.11058e+12 -3.68094e+12 -6.62962e+12 -6.71962e+12 -3.65681e+12 -3.12482e+12 -3.60859e+12 -4.51359e+12 -4.45761e+12 -2.39022e+12 -12606200000.0 -29883500000.0 -117405000000.0 -70153000000.0 -49120800000.0 -68640700000.0 -57280800000.0 -57709700000.0 -66242000000.0 -46231300000.0 -50015600000.0 -55794700000.0 -62809900000.0 -55157600000.0 -65219700000.0 -34895900000.0 -23696700000.0 -65862300000.0 -13752700000.0 -22638000000.0 -88404500000.0 -12549700000.0 -4.99803e+12 -7.49877e+12 -7.38145e+12 -9.99904e+12 -5.48591e+12 -3.94979e+12 -3.13327e+12 -2.3307e+12 -6.53868e+12 -6.96834e+12 -4.49135e+12 -5.38294e+12 -8.45393e+12 -6.27041e+12 -9.17096e+12 -5.56379e+12 -9.49844e+12 -9.83505e+12 -6.99341e+12 -8.10393e+12 -8.25008e+12 -1.04482e+13 -5.01829e+12 -6.17793e+12 -7.96092e+12 -6.52183e+12 -4.23841e+12 -9.10585e+12 -9.90169e+12 -4.83056e+12 -7.62131e+12 -4.45763e+12 -5.46973e+12 -4.49565e+12 -5.91722e+12 -6.69976e+12 -5.60294e+12 -6.23559e+12 -6.24855e+12 -5.23186e+12 -5.28134e+12 -4.77092e+12 -1.60068e+12 -6.12288e+12 -4.81342e+12 -5.49008e+12 -9.00722e+12 -5.25944e+12 -6.19952e+12 -3.77108e+12 -6.39439e+12 -3.75587e+12 -5.1405e+12 -6.50395e+12 -5.7536e+12 -7.39223e+12 -9.37515e+12 -4.85216e+12 -6.44469e+12 -6.9221e+12 -4.06799e+12 -5.02455e+12 -2.60644e+12 -4.85293e+12 -8.32637e+12 -6.25419e+12 -6.48528e+12 -7.89216e+12 -5.55318e+12 -6.89232e+12 -5.72971e+12 -4.90515e+12 -6.82267e+12 -8.91757e+12 -4.26322e+12 -2.23606e+12 -6.43856e+12 -4.64032e+12 -3.35799e+12 -1.66255e+12 -6.34628e+12 -5.95357e+12 -5.28374e+12 -2.33594e+12 -5.43231e+12 -5.32636e+12 -5.80258e+12 -5.59049e+12 -4.92461e+12 -6.53136e+12 -6.17619e+12 -5.89064e+12 -4.69773e+12 -7.56678e+12 -6.05677e+12 -6.71198e+12 -5.9166e+12 -6.04153e+12 -5.41583e+12 -4.14313e+12 -6.15419e+12 -6.64375e+12 -2.7064e+12 -2.67431e+12 -7.94925e+12 -9.05468e+12 -7.44881e+12 -4.65264e+12 -5.16804e+12 -4.49951e+12 -8.58342e+12 -4.2221e+12 -4.05586e+12 -4.74845e+12 -4.88122e+12 -6.31916e+12 -6.46558e+12 -3.59586e+12 -5.29823e+12 -4.72022e+12 -8.22882e+12 -6.27363e+12 -3.67766e+12 -4.13275e+12 -6.17792e+12 -5.04537e+12 -12589000000.0 -159671000000.0 -41697700000.0 -54370700000.0 -36570800000.0 -36370500000.0 -45468500000.0 -42977200000.0 -55429100000.0 -41366700000.0 -25540200000.0 -17459800000.0 -47472400000.0 -76995800000.0 -88901200000.0 -21631200000.0 -50047800000.0 -247328000000.0 -5.27022e+12 -4.2804e+12 -3.74083e+12 -8.25975e+12 -9.28047e+12 -2.46734e+12 -3.87224e+12 -4.59461e+12 -5.42901e+12 -9.74126e+12 -4.89465e+12 -7.167e+12 -6.54272e+12 -5.74696e+12 -2.73804e+12 -9.64604e+12 -4.1729e+12 -5.76573e+12 -3.64999e+12 -3.76187e+12 -4.63103e+12 -7.0563e+12 -6.58826e+12 -4.70164e+12 -5.0721e+12 -7.1186e+12 -7.04314e+12 -6.0125e+12 -6.26092e+12 -8.28587e+12 -7.63568e+12 -7.68674e+12 -3.51304e+12 -2.49988e+12 -7.41031e+12 -6.27399e+12 -3.97453e+12 -5.48701e+12 -7.53965e+12 -4.22019e+12 -5.77436e+12 -5.51569e+12 -4.94788e+12 -5.96441e+12 -5.81536e+12 -2.66718e+12 -5.09566e+12 -4.12164e+12 -6.23254e+12 -7.2547e+12 -5.35175e+12 -4.86785e+12 -7.47306e+12 -3.73965e+12 -3.55913e+12 -3.73703e+12 -6.04648e+12 -3.90042e+12 -5.52912e+12 -3.49427e+12 -3.9109e+12 -4.30314e+12 -4.89429e+12 -6.13995e+12 -7.23188e+12 -4.1225e+12 -2.84616e+12 -7.89656e+12 -4.38993e+12 -4.11399e+12 -6.94353e+12 -1.98905e+12 -6.22478e+12 -4.99569e+12 -4.14562e+12 -8.1986e+12 -6.8152e+12 -5.93042e+12 -9.56116e+12 -4.83519e+12 -3.59146e+12 -4.50595e+12 -5.80909e+12 -4.78732e+12 -5.03388e+12 -5.97894e+12 -4.83987e+12 -6.18425e+12 -4.57503e+12 -4.85385e+12 -4.85709e+12 -4.08421e+12 -6.47983e+12 -4.83581e+12 -3.66035e+12 -4.40643e+12 -8.17706e+12 -3.71688e+12 -6.93253e+12 -7.84675e+12 -6.15445e+12 -3.85168e+12 -7.88569e+12 -4.05336e+12 -3.1179e+12 -4.53282e+12 -2.05239e+12 -6.07753e+12 -5.50261e+12 -4.14887e+12 -5.96057e+12 -4.77219e+12 -5.2007e+12 -3.65332e+12 -8.38131e+12 -5.14318e+12 -5.53396e+12 -3.56365e+12 -2.88135e+12 -4.45207e+12 -5.96011e+12 -5.24197e+12 -7.35041e+12 -4.34024e+12 -5.88215e+12 -5.48901e+12 -6.49746e+12 -5.41559e+12 -6.23728e+12 -5.27768e+12 -397119000000.0 -78435000000.0 -249007000000.0 -60382300000.0 -40052300000.0 -33841700000.0 -36730500000.0 -17018600000.0 -14198900000.0 -13978700000.0 -27999300000.0 -20300800000.0 -34707800000.0 -40486500000.0 -130889000000.0 -14207400000.0 -129208000000.0 -143009000000.0 -118531000000.0 -12549700000.0 -386656000000.0 -4.21609e+12 -4.63562e+12 -3.53182e+12 -2.90579e+12 -4.25807e+12 -4.6447e+12 -5.57612e+12 -5.85565e+12 -7.28185e+12 -7.96121e+12 -4.6165e+12 -5.94905e+12 -4.80654e+12 -2.33676e+12 -3.7403e+12 -5.58345e+12 -3.79103e+12 -5.06197e+12 -7.24064e+12 -4.53067e+12 -3.35449e+12 -8.04406e+12 -9.31944e+12 -5.54312e+12 -3.47058e+12 -8.15707e+12 -3.27135e+12 -7.43779e+12 -3.43076e+12 -4.38619e+12 -3.98604e+12 -4.24475e+12 -6.84168e+12 -7.04485e+12 -5.56781e+12 -6.47961e+12 -5.62404e+12 -3.08913e+12 -5.22054e+12 -3.72471e+12 -5.48294e+12 -5.80326e+12 -6.77651e+12 -4.1627e+12 -5.11502e+12 -5.42766e+12 -5.56456e+12 -3.82935e+12 -4.10216e+12 -5.26178e+12 -4.849e+12 -4.05321e+12 -6.6387e+12 -2.96795e+12 -5.72382e+12 -6.78577e+12 -3.89955e+12 -1.8877e+12 -3.04416e+12 -5.48634e+12 -3.57366e+12 -4.04236e+12 -4.6539e+12 -2.62788e+12 -4.35831e+12 -9.34971e+12 -4.08357e+12 -6.40149e+12 -7.49455e+12 -3.93655e+12 -4.14826e+12 -565327000000.0 -3.92379e+12 -9.4841e+12 -4.70968e+12 -5.26989e+12 -4.81588e+12 -3.96318e+12 -4.19719e+12 -4.64319e+12 -3.54319e+12 -2.92913e+12 -3.84725e+12 -5.51512e+12 -5.49213e+12 -4.13993e+12 -6.65895e+12 -2.5575e+12 -6.10805e+12 -7.38013e+12 -5.48487e+12 -4.25954e+12 -4.70378e+12 -6.72889e+12 -6.83014e+12 -3.84509e+12 -2.41999e+12 -7.34936e+12 -6.35543e+12 -6.63048e+12 -4.87941e+12 -3.10376e+12 -4.38415e+12 -4.9045e+12 -2.9148e+12 -5.9508e+12 -3.28254e+12 -2.66578e+12 -7.02399e+12 -4.31085e+12 -3.31703e+12 -4.35613e+12 -5.01281e+12 -3.45918e+12 -2.12812e+12 -1.92944e+12 -2.66783e+12 -1.91902e+12 -41103300000.0 -47101900000.0 -102436000000.0 -55914500000.0 -49315500000.0 -47705400000.0 -31950200000.0 -15303500000.0 -12549700000.0 -22131600000.0 -12549700000.0 -17391300000.0 -24219700000.0 -31085100000.0 -46639000000.0 -45333700000.0 -234121000000.0 -52579700000.0 -27014900000.0 -95838000000.0 -4.91384e+12 -4.77493e+12 -3.16883e+12 -4.19103e+12 -4.04856e+12 -4.89618e+12 -3.357e+12 -3.388e+12 -3.92705e+12 -6.03917e+12 -3.54271e+12 -5.18256e+12 -4.95217e+12 -6.42122e+12 -3.2622e+12 -2.61999e+12 -2.66856e+12 -3.11306e+12 -3.39726e+12 -3.08908e+12 -4.71969e+12 -3.36162e+12 -2.76217e+12 -2.73333e+12 -2.02176e+12 -2.82993e+12 -3.26813e+12 -5.53826e+12 -3.52077e+12 -2.75248e+12 -4.75108e+12 -2.97181e+12 -4.65221e+12 -3.59778e+12 -2.32261e+12 -5.78548e+12 -5.59896e+12 -6.00392e+12 -5.31461e+12 -6.39571e+12 -2.66808e+12 -2.29534e+12 -3.90407e+12 -3.01062e+12 -3.8774e+12 -5.32742e+12 -5.55652e+12 -2.12536e+12 -3.81313e+12 -4.58522e+12 -5.47354e+12 -5.00431e+12 -4.01631e+12 -2.83435e+12 -4.01405e+12 -3.97144e+12 -2.5621e+12 -4.76284e+12 -3.54452e+12 -5.25407e+12 -5.85109e+12 -5.17879e+12 -4.45519e+12 -3.27497e+12 -7.42328e+12 -4.82892e+12 -5.80885e+12 -2.2952e+12 -5.75473e+12 -3.95355e+12 -3.53748e+12 -6.31451e+12 -4.45837e+12 -5.66264e+12 -5.02251e+12 -5.38421e+12 -5.65062e+12 -5.44325e+12 -4.08157e+12 -5.04176e+12 -4.4844e+12 -5.38177e+12 -6.62088e+12 -1.38385e+12 -5.07802e+12 -3.04044e+12 -1.73358e+12 -4.62637e+12 -2.90234e+12 -3.87002e+12 -5.89476e+12 -3.49694e+12 -3.22908e+12 -4.95557e+12 -4.53249e+12 -7.91781e+12 -3.03983e+12 -3.63721e+12 -4.92463e+12 -2.94472e+12 -6.29724e+12 -5.43157e+12 -5.84002e+12 -5.41911e+12 -3.91505e+12 -3.52522e+12 -6.1435e+12 -3.03033e+12 -6.98831e+12 -6.34868e+12 -5.96855e+12 -2.62031e+12 -4.30802e+12 -4.08918e+12 -3.80721e+12 -2.72546e+12 -4.08099e+12 -5.22779e+12 -3.98509e+12 -5.87045e+12 -1.71669e+12 -12549700000.0 -12549700000.0 -22760900000.0 -12622900000.0 -12549700000.0 -13353400000.0 -12549700000.0 -27010600000.0 -21902900000.0 -17464000000.0 -16947700000.0 -22140700000.0 -32388100000.0 -32599300000.0 -36957900000.0 -21072900000.0 -63027900000.0 -85154700000.0 -296186000000.0 -93721200000.0 -396358000000.0 -451488000000.0 -4.26136e+12 -6.07918e+12 -3.97168e+12 -4.90437e+12 -3.02974e+12 -3.0515e+12 -3.47165e+12 -5.10499e+12 -3.1832e+12 -2.14461e+12 -3.88956e+12 -3.13111e+12 -3.85438e+12 -3.72175e+12 -4.47102e+12 -6.11397e+12 -5.36498e+12 -3.21739e+12 -4.21612e+12 -3.59401e+12 -7.44077e+12 -3.39638e+12 -4.59928e+12 -2.52944e+12 -4.92501e+12 -3.02437e+12 -2.29623e+12 -4.78025e+12 -5.41124e+12 -1.68181e+12 -5.50614e+12 -4.33572e+12 -6.01953e+12 -5.63303e+12 -2.05424e+12 -4.51256e+12 -3.96013e+12 -2.39321e+12 -6.17448e+12 -2.61658e+12 -3.60462e+12 -5.91949e+12 -4.21317e+12 -3.08449e+12 -2.58225e+12 -4.69699e+12 -4.8803e+12 -6.28353e+12 -2.85997e+12 -5.16258e+12 -3.84008e+12 -3.914e+12 -2.65638e+12 -3.16536e+12 -2.70943e+12 -5.86163e+12 -3.72746e+12 -4.10179e+12 -5.37164e+12 -2.2087e+12 -3.46684e+12 -2.771e+12 -4.43151e+12 -5.00377e+12 -4.58573e+12 -3.80467e+12 -3.14113e+12 -3.57901e+12 -1.75354e+12 -2.39239e+12 -2.09982e+12 -4.45924e+12 -5.40724e+12 -3.64993e+12 -2.43056e+12 -4.42508e+12 -3.74166e+12 -3.0254e+12 -3.36266e+12 -3.33105e+12 -2.57196e+12 -3.51607e+12 -3.6744e+12 -3.27321e+12 -2.21949e+12 -5.72912e+12 -2.71922e+12 -3.70234e+12 -4.74939e+12 -3.42476e+12 -3.84513e+12 -4.53141e+12 -2.50746e+12 -3.73369e+12 -4.81289e+12 -5.36529e+12 -1.48147e+12 -2.72656e+12 -3.5598e+12 -2.1675e+12 -4.56894e+12 -3.07741e+12 -4.90748e+12 -4.79412e+12 -4.39512e+12 -2.13192e+12 -13938800000.0 -16366500000.0 -16047700000.0 -12735000000.0 -16228800000.0 -14954000000.0 -22386400000.0 -13989100000.0 -33627200000.0 -30943000000.0 -17186300000.0 -19323600000.0 -20274200000.0 -29398600000.0 -27908400000.0 -42196900000.0 -29389100000.0 -91917000000.0 -49835200000.0 -29954800000.0 -3.9282e+12 -4.72972e+12 -3.9063e+12 -5.07929e+12 -3.60174e+12 -3.61605e+12 -2.24133e+12 -4.67906e+12 -2.73547e+12 -3.72568e+12 -5.78383e+12 -5.39228e+12 -5.52773e+12 -2.58669e+12 -6.16001e+12 -5.06156e+12 -4.03271e+12 -4.293e+12 -3.21716e+12 -3.03249e+12 -3.32438e+12 -1.74989e+12 -3.25906e+12 -2.58518e+12 -3.30057e+12 -4.63135e+12 -2.65624e+12 -5.32146e+12 -3.4054e+12 -3.51473e+12 -2.85491e+12 -1.27064e+12 -4.14523e+12 -2.80402e+12 -4.07666e+12 -1.81604e+12 -3.02019e+12 -2.97433e+12 -3.77013e+12 -2.00973e+12 -3.77267e+12 -3.10673e+12 -3.80935e+12 -2.21695e+12 -4.49114e+12 -1.37745e+12 -3.20979e+12 -3.22758e+12 -3.06676e+12 -3.34267e+12 -3.97359e+12 -3.62913e+12 -3.57532e+12 -6.13191e+12 -2.34829e+12 -2.2634e+12 -3.14134e+12 -4.24726e+12 -1.82295e+12 -1.91733e+12 -2.6924e+12 -4.14069e+12 -1.84769e+12 -2.85951e+12 -2.68643e+12 -2.45922e+12 -3.36248e+12 -4.12926e+12 -1.85465e+12 -2.19669e+12 -2.09805e+12 -1.38425e+12 -3.48494e+12 -2.53383e+12 -3.27455e+12 -2.74435e+12 -2.59747e+12 -3.68573e+12 -2.0196e+12 -2.45232e+12 -1.68061e+12 -2.86967e+12 -2.14197e+12 -2.85041e+12 -4.69285e+12 -2.51089e+12 -1.69228e+12 -2.55446e+12 -2.01335e+12 -2.44944e+12 -1.63315e+12 -3.24389e+12 -3.90861e+12 -2.89224e+12 -1.67491e+12 -2.2976e+12 -2.27388e+12 -3.1129e+12 -1.76959e+12 -2.17314e+12 -2.569e+12 -1.11655e+12 -2.97213e+12 -3.29812e+12 -3.49143e+12 -2.14454e+12 -3.86578e+12 -2.77911e+12 -3.53893e+12 -2.93915e+12 -4.0256e+12 -2.81823e+12 -3.25049e+12 -3.19314e+12 -4.0866e+12 -2.77509e+12 -13246200000.0 -14304200000.0 -15960700000.0 -17141500000.0 -21532300000.0 -20458600000.0 -23158100000.0 -14002000000.0 -14394300000.0 -27881600000.0 -31428300000.0 -45417300000.0 -57070000000.0 -22968500000.0 -12733400000.0 -12731300000.0 -2.97954e+12 -2.53836e+12 -2.54915e+12 -1.54585e+12 -1.62466e+12 -3.04516e+12 -3.62827e+12 -1.18928e+12 -3.16804e+12 -3.29028e+12 -3.82097e+12 -3.23218e+12 -4.40976e+12 -2.50085e+12 -2.34703e+12 -2.1098e+12 -4.98752e+12 -3.67375e+12 -2.31578e+12 -2.16682e+12 -1.55128e+12 -4.04838e+12 -1.67041e+12 -1.64794e+12 -2.2237e+12 -4.12688e+12 -698149000000.0 -1.78274e+12 -3.25613e+12 -571893000000.0 -4.99969e+12 -3.4489e+12 -3.81109e+12 -3.84837e+12 -4.83229e+12 -1.93842e+12 -3.09418e+12 -3.32918e+12 -2.84095e+12 -2.42534e+12 -2.88268e+12 -3.5357e+12 -1.74601e+12 -2.25006e+12 -2.75331e+12 -3.39419e+12 -1.83649e+12 -2.52261e+12 -2.66882e+12 -3.8752e+12 -3.00079e+12 -3.60344e+12 -3.76895e+12 -3.08017e+12 -2.29289e+12 -2.49628e+12 -1.90974e+12 -2.24037e+12 -2.0999e+12 -167621000000.0 -2.42091e+12 -2.19924e+12 -1.88176e+12 -1.62722e+12 -3.3274e+12 -2.35781e+12 -1.99401e+12 -1.57025e+12 -1.73606e+12 -1.20658e+12 -2.60244e+12 -2.56567e+12 -3.1384e+12 -1.86187e+12 -4.13391e+12 -2.71571e+12 -3.52784e+12 -2.50779e+12 -3.07134e+12 -2.41864e+12 -4.66661e+12 -2.38968e+12 -3.6037e+12 -2.69765e+12 -4.84444e+12 -1.28573e+12 -3.82539e+12 -3.16363e+12 -4.03279e+12 -4.46175e+12 -2.87252e+12 -2.4676e+12 -2.51147e+12 -2.13871e+12 -1.69729e+12 -1.85544e+12 -1.6219e+12 -1.54391e+12 -1.79619e+12 -2.05475e+12 -927673000000.0 -3.73635e+12 -657645000000.0 -3.72485e+12 -2.18879e+12 -1.14335e+12 -1.92504e+12 -757324000000.0 -1.50339e+12 -3.44527e+12 -2.66996e+12 -5.56631e+12 -2.17224e+12 -3.80811e+12 -2.06156e+12 -1.97252e+12 -2.48519e+12 -2.93853e+12 -1.23608e+12 -3.05539e+12 -3.50051e+12 -1.665e+12 -1.56301e+12 -2.04568e+12 -3.70241e+12 -2.80379e+12 -2.12213e+12 -2.55231e+12 -2.6722e+12 -3.97752e+12 -2.87123e+12 -3.83339e+12 -2.26013e+12 -2.68702e+12 -3.09339e+12 -2.87153e+12 -2.08023e+12 -3.20187e+12 -1.42906e+12 -2.56961e+12 -2.04073e+12 -2.89881e+12 -2.49507e+12 -3.3388e+12 -3.67399e+12 -1.76942e+12 -3.15306e+12 -2.85843e+12 -1.93081e+12 -1.16699e+12 -1.78447e+12 -1.78068e+12 -1.43766e+12 -2.21966e+12 -988246000000.0 -1.57465e+12 -1.74747e+12 -1.77848e+12 -1.09959e+12 -712415000000.0 -1.59913e+12 -1.87522e+12 -1.30184e+12 -1.22549e+12 -1.51972e+12 -1.46594e+12 -1.23745e+12 -1.43283e+12 -1.87535e+12 -2.31183e+12 -824773000000.0 -2.20278e+12 -1.80551e+12 -1.44919e+12 -1.15747e+12 -416627000000.0 -901264000000.0 -2.61979e+12 -2.06929e+12 -2.15168e+12 -2.63953e+12 -1.24058e+12 -1.89752e+12 -1.6485e+12 -2.17653e+12 -2.03489e+12 -1.11602e+12 -3.59098e+12 -2.38011e+12 -1.76727e+12 -804816000000.0 -1.24268e+12 -1.22628e+12 -1.45796e+12 -1.46511e+12 -2.50863e+12 -1.12476e+12 -1.2688e+12 -2.0606e+12 -2.58857e+12 -1.08362e+12 -3.27942e+12 -2.15073e+12 -1.05259e+12 -2.28815e+12 -1.75634e+12 -1.7828e+12 -1.52402e+12 -2.00155e+12 -3.09788e+12 -1.44522e+12 -2.68582e+12 -1.60962e+12 -2.73309e+12 -2.19741e+12 -1.85376e+12 -1.02774e+12 -2.59875e+12 -1.85577e+12 -1.40624e+12 -1.47382e+12 -1.24567e+12 -1.23298e+12 -1.94536e+12 -3.3688e+12 -2.7776e+12 -2.19115e+12 -2.36906e+12 -2.57669e+12 -1.54507e+12 -2.45489e+12 -1.52016e+12 -1.17463e+12 -2.14417e+12 -1.71009e+12 -1.51228e+12 -1.83847e+12 -2.48284e+12 -1.63138e+12 -3.47732e+12 -1.1909e+12 -3.44067e+12 -3.04203e+12 -2.80785e+12 -1.41192e+12 -2.33611e+12 -1.57893e+12 -2.7315e+12 -1.51255e+12 -1.40528e+12 -866688000000.0 -1.98231e+12 -273889000000.0 -1.976e+12 -413799000000.0 -1.10287e+12 -1.76368e+12 -1.86946e+12 -1.1356e+12 -2.04833e+12 -959320000000.0 -1.26812e+12 -1.01582e+12 -1.30858e+12 -1.35876e+12 -1.15495e+12 -2.27333e+12 -1.28322e+12 -1.62245e+12 -1.24273e+12 -1.7747e+12 -496801000000.0 -2.62107e+12 -1.27435e+12 -1.3273e+12 -1.03124e+12 -1.6171e+12 -1.58436e+12 -583609000000.0 -1.4782e+12 -1.12523e+12 -931774000000.0 -1.38691e+12 -1.90842e+12 -1.19521e+12 -675687000000.0 -1.34719e+12 -427171000000.0 -1.15069e+12 -2.40939e+12 -1.9264e+12 -1.82962e+12 -1.1892e+12 -1.91388e+12 -325087000000.0 -2.38746e+12 -1.24449e+12 -1.70074e+12 -1.0442e+12 -1.20354e+12 -498966000000.0 -749181000000.0 -2.16115e+12 -685395000000.0 -1.44083e+12 -2.34775e+12 -1.59953e+12 -2.4314e+12 -1.45162e+12 -2.65251e+12 -1.48551e+12 -1.50288e+12 -1.4383e+12 -2.12764e+12 -1.27089e+12 -1.75869e+12 -1.41785e+12 -1.0792e+12 -870781000000.0 -1.08782e+12 -1.07607e+12 -1.48444e+12 -2.03208e+12 -817033000000.0 -1.26097e+12 -1.12812e+12 -1.01094e+12 -2.176e+12 -1.79359e+12 -1.86697e+12 -2.12296e+12 -2.459e+12 -1.83037e+12 -1.20896e+12 -1.80395e+12 -1.87673e+12 -1.73137e+12 -965349000000.0 -1.15577e+12 -1.1658e+12 -764396000000.0 -1.02376e+12 -847563000000.0 -183572000000.0 -1.03519e+12 -414693000000.0 -411974000000.0 -826107000000.0 -645320000000.0 -1.06531e+12 -850170000000.0 -282625000000.0 -608314000000.0 -453323000000.0 -791406000000.0 -290920000000.0 -976076000000.0 -1.12656e+12 -823777000000.0 -1.16056e+12 -388380000000.0 -892303000000.0 -1.08415e+12 -911521000000.0 -1.04649e+12 -634652000000.0 -901338000000.0 -817913000000.0 -516245000000.0 -1.10135e+12 -734344000000.0 -868349000000.0 -598046000000.0 -961701000000.0 -275103000000.0 -781475000000.0 -658386000000.0 -1.09194e+12 -1.54764e+12 -938664000000.0 -1.9151e+12 -359660000000.0 -1.06033e+12 -157857000000.0 -370852000000.0 -1.70392e+12 -602015000000.0 -238691000000.0 -1.50241e+12 -470273000000.0 -1.02873e+12 -1.96242e+12 -1.81489e+12 -665529000000.0 -860849000000.0 -617111000000.0 -520775000000.0 -783373000000.0 -1.30266e+12 -900862000000.0 -1.44676e+12 -687128000000.0 -1.08631e+12 -463739000000.0 -1.94259e+12 -1.06128e+12 -1.40249e+12 -1.18964e+12 -394950000000.0 -713839000000.0 -1.00223e+12 -659048000000.0 -73624900000.0 -758670000000.0 -620129000000.0 -1.03312e+12 -520141000000.0 -733192000000.0 -1.0622e+12 -753651000000.0 -431298000000.0 -1.3005e+12 -972044000000.0 -549612000000.0 -342592000000.0 -1.05776e+12 -1.42322e+12 -456989000000.0 -669818000000.0 -1.05952e+12 -257973000000.0 -76595800000.0 -583529000000.0 -715862000000.0 -426830000000.0 -244434000000.0 -226157000000.0 -138969000000.0 -310737000000.0 -228717000000.0 -143179000000.0 -237377000000.0 -245399000000.0 -332307000000.0 -152445000000.0 -248863000000.0 -153874000000.0 -117557000000.0 -113866000000.0 -461137000000.0 -568274000000.0 -195069000000.0 -354960000000.0 -170651000000.0 -288082000000.0 -219989000000.0 -409397000000.0 -216195000000.0 -621747000000.0 -423241000000.0 -248086000000.0 -90249000000.0 -587605000000.0 -394295000000.0 -298385000000.0 -305982000000.0 -157549000000.0 -240957000000.0 -86225400000.0 -172942000000.0 -188636000000.0 -270755000000.0 -257617000000.0 -202592000000.0 -199884000000.0 -232381000000.0 -367979000000.0 -332171000000.0 -337897000000.0 -184961000000.0 -234083000000.0 -196075000000.0 -413985000000.0 -297976000000.0 -498504000000.0 -527671000000.0 -258547000000.0 -120070000000.0 -201274000000.0 -140574000000.0 