# vtk DataFile Version 2.0
Time step 51
ASCII
DATASET UNSTRUCTURED_GRID
POINTS 5000 float
2398.29 72881.4 0
8533.96 72254.8 0
12438.9 72088.9 0
16747.6 71406.8 0
22243.6 73054.7 0
27669.2 69789.8 0
33204.9 72477.2 0
38185.2 73061.0 0
42703.8 73214.3 0
47472.3 73120.5 0
57004.9 72059.8 0
62763.5 73135.5 0
72702.5 72401.5 0
77500.0 73148.5 0
82500.0 73137.7 0
87407.7 72436.0 0
92500.0 73175.9 0
97192.6 73197.4 0
101292.0 73114.4 0
105946.0 72504.0 0
111936.0 72983.2 0
117850.0 73168.3 0
133428.0 72614.5 0
147500.0 73152.8 0
152501.0 73122.5 0
157589.0 72750.1 0
162561.0 72905.3 0
167010.0 72447.0 0
171830.0 71329.9 0
177734.0 71368.2 0
182938.0 70554.5 0
187393.0 72409.2 0
196079.0 72733.4 0
201747.0 72093.7 0
207650.0 72858.0 0
212985.0 72193.5 0
225794.0 72520.9 0
230434.0 72393.0 0
241170.0 72095.3 0
252680.0 72080.6 0
259052.0 72555.2 0
268740.0 72552.7 0
273935.0 72848.0 0
278881.0 71499.4 0
286325.0 73139.5 0
297319.0 71464.1 0
303664.0 72248.2 0
312126.0 72673.1 0
323245.0 73195.4 0
332206.0 73065.0 0
337223.0 72774.1 0
345896.0 72320.0 0
361815.0 71866.8 0
372012.0 69884.5 0
367954.0 73200.0 0
377031.0 71856.1 0
382609.0 72730.3 0
388132.0 72031.0 0
394019.0 71346.9 0
399200.0 73015.6 0
403650.0 70272.9 0
408587.0 71485.0 0
412474.0 73135.6 0
417500.0 73181.5 0
422737.0 71292.4 0
427271.0 73001.0 0
432478.0 70804.3 0
437541.0 73157.8 0
442088.0 72099.5 0
446251.0 71680.2 0
450665.0 72448.0 0
455208.0 72387.7 0
460242.0 72231.5 0
465793.0 72620.8 0
471628.0 71877.3 0
477063.0 70680.8 0
485844.0 70613.0 0
491674.0 72151.7 0
497601.0 70645.1 0
2284.54 77895.8 0
6062.45 75574.8 0
11087.2 76606.9 0
17332.6 77309.0 0
28519.5 76141.5 0
34969.3 77751.8 0
40341.8 78070.3 0
48279.8 77115.0 0
52137.1 73220.2 0
52500.0 78180.4 0
57995.2 77501.0 0
62850.0 78235.0 0
67994.7 73269.0 0
67505.2 77906.8 0
72115.9 77521.2 0
77500.0 78306.5 0
82116.1 77952.7 0
87907.8 77193.8 0
92500.0 78315.5 0
97183.5 77944.3 0
102467.0 77849.0 0
108243.0 77095.1 0
112500.0 78251.8 0
123330.0 73245.0 0
122500.0 78256.2 0
128345.0 73365.9 0
127727.0 77798.9 0
132494.0 78149.7 0
137520.0 78164.6 0
138124.0 73298.0 0
142500.0 73219.2 0
142774.0 77641.8 0
146926.0 77989.8 0
151937.0 77867.3 0
156861.0 76799.3 0
161296.0 77619.5 0
166509.0 77118.7 0
172971.0 76898.9 0
178375.0 76780.5 0
183533.0 75622.6 0
188604.0 76854.8 0
192498.0 73571.0 0
193571.0 77715.2 0
198250.0 77078.1 0
203920.0 77713.5 0
213692.0 76743.8 0
209357.0 77927.8 0
218128.0 73279.4 0
222479.0 73291.8 0
222032.0 78116.2 0
226801.0 76756.0 0
232205.0 77817.8 0
235810.0 73390.9 0
246502.0 74096.7 0
248462.0 78170.2 0
257263.0 77193.8 0
263773.0 73643.8 0
262325.0 77819.3 0
267061.0 77395.6 0
271610.0 76698.8 0
277075.0 77102.6 0
282030.0 74831.9 0
287500.0 78229.9 0
291717.0 73595.5 0
292913.0 78086.7 0
298250.0 76974.4 0
303119.0 77918.7 0
307730.0 74818.5 0
307441.0 78111.5 0
317929.0 73290.0 0
317475.0 78165.2 0
322433.0 77663.4 0
327581.0 73466.4 0
327500.0 78210.1 0
332500.0 78282.5 0
341019.0 73985.0 0
337713.0 77615.6 0
343308.0 77010.2 0
350686.0 74243.2 0
347752.0 77406.4 0
355258.0 73226.3 0
352668.0 78133.0 0
361441.0 77179.4 0
357755.0 77646.5 0
365113.0 76871.6 0
372930.0 76685.2 0
378819.0 76407.0 0
382004.0 77545.3 0
388375.0 77119.3 0
393554.0 77494.0 0
402999.0 76472.4 0
398136.0 77928.8 0
408388.0 75765.8 0
412865.0 77077.7 0
417520.0 77697.2 0
422128.0 75929.1 0
428327.0 77943.4 0
433429.0 76037.4 0
437510.0 78226.3 0
443214.0 76381.7 0
447602.0 75690.2 0
451946.0 76925.5 0
457176.0 77114.7 0
466599.0 77190.5 0
475181.0 77170.3 0
481305.0 73544.0 0
486589.0 76802.1 0
496837.0 76154.3 0
6738.94 80620.0 0
11843.3 82436.2 0
16323.4 82516.2 0
23005.5 78564.8 0
20502.9 82526.2 0
27043.8 82974.2 0
32615.9 82807.5 0
38263.8 82583.0 0
44464.6 78412.0 0
42970.7 82970.0 0
47589.0 81836.1 0
56554.6 83121.3 0
62115.2 83091.0 0
67697.8 82750.7 0
73695.4 83063.9 0
81954.5 82678.8 0
86960.3 82709.6 0
92531.5 83066.5 0
97548.4 82463.6 0
107924.0 81875.0 0
116732.0 82936.4 0
112494.0 83148.6 0
117500.0 78333.3 0
120857.0 82786.6 0
125864.0 82167.0 0
140992.0 81762.6 0
146305.0 82881.0 0
156244.0 81359.9 0
161703.0 83310.1 0
169996.0 81685.3 0
176294.0 82538.2 0
182187.0 80761.5 0
188048.0 83016.4 0
194261.0 82741.3 0
199972.0 82183.1 0
208111.0 82836.4 0
204288.0 83178.3 0
213300.0 81554.6 0
217601.0 78350.1 0
217709.0 83283.9 0
222564.0 82390.6 0
226872.0 81760.9 0
232444.0 83282.6 0
237686.0 78642.2 0
237422.0 83068.2 0
243283.0 78466.5 0
246841.0 82238.3 0
252678.0 78640.8 0
257738.0 81945.8 0
262720.0 82597.0 0
267489.0 81850.1 0
273047.0 81938.9 0
279878.0 81165.9 0
282828.0 78518.5 0
291017.0 82393.0 0
296734.0 82017.9 0
302234.0 83153.6 0
307700.0 82541.3 0
312501.0 78424.4 0
318188.0 82655.2 0
322509.0 81668.6 0
336512.0 82280.1 0
331856.0 83265.8 0
341414.0 81215.6 0
346846.0 81792.9 0
351893.0 82968.0 0
356026.0 81520.5 0
361261.0 81881.4 0
366513.0 80952.6 0
371101.0 82825.9 0
377673.0 82341.9 0
384354.0 80882.8 0
392424.0 82316.7 0
397217.0 82276.4 0
402858.0 82713.4 0
409243.0 81410.7 0
419145.0 82386.4 0
424121.0 80746.3 0
432249.0 81660.7 0
437342.0 82397.9 0
442359.0 81618.6 0
448275.0 80763.1 0
454179.0 82329.6 0
458992.0 83379.2 0
462429.0 78604.7 0
463188.0 83142.2 0
467519.0 83249.1 0
470193.0 78370.8 0
472372.0 81692.8 0
477746.0 82641.0 0
480797.0 78818.9 0
492077.0 79052.5 0
491506.0 83113.9 0
496591.0 82723.0 0
2238.62 83819.5 0
2182.12 88233.6 0
8050.24 86460.5 0
13471.9 87063.1 0
17752.4 86360.6 0
22417.3 86899.8 0
32072.9 87094.9 0
37589.5 87787.7 0
43206.1 88033.1 0
49063.6 86627.4 0
51800.6 83601.0 0
53807.2 88301.7 0
59223.1 87800.1 0
63617.0 87422.6 0
68064.9 88422.6 0
72603.0 87939.5 0
78211.1 83504.0 0
77068.8 87423.2 0
82136.1 87699.8 0
87334.0 87883.3 0
92269.2 88397.1 0
97732.1 87815.8 0
102630.0 83611.0 0
107685.0 87373.2 0
113113.0 87477.9 0
118139.0 87412.6 0
123420.0 86774.2 0
127500.0 88330.7 0
131158.0 83865.7 0
136445.0 83818.1 0
137738.0 87732.0 0
142524.0 87881.5 0
151834.0 84478.9 0
148002.0 87489.2 0
156828.0 86754.0 0
160406.0 88123.0 0
166528.0 85128.4 0
170842.0 87714.4 0
182233.0 86240.1 0
191646.0 88137.7 0
197223.0 87468.6 0
203055.0 87322.4 0
214360.0 87225.4 0
222020.0 86648.2 0
227505.0 87311.2 0
234333.0 87662.0 0
237874.0 86392.2 0
241792.0 83721.5 0
241749.0 88322.1 0
246210.0 87423.5 0
251784.0 83531.9 0
255872.0 86661.1 0
260336.0 86330.7 0
266349.0 86532.3 0
271756.0 88207.7 0
278361.0 86668.8 0
283554.0 83451.4 0
284358.0 88190.3 0
287216.0 83519.0 0
288758.0 86672.5 0
292983.0 88388.2 0
298941.0 88317.8 0
307500.0 88374.1 0
313207.0 83666.5 0
316257.0 87369.6 0
312166.0 88192.9 0
321079.0 86893.7 0
325851.0 88482.9 0
326812.0 83550.1 0
329893.0 87092.2 0
339780.0 86606.5 0
346088.0 88047.6 0
357349.0 85478.0 0
361674.0 87869.2 0
366551.0 85645.2 0
371934.0 88459.8 0
382813.0 86398.9 0
387369.0 88256.4 0
388338.0 84071.1 0
399508.0 87883.1 0
408059.0 86759.6 0
404321.0 87909.9 0
412346.0 88428.8 0
414413.0 83965.0 0
416948.0 87768.6 0
427686.0 83782.5 0
425659.0 87409.8 0
431067.0 87852.6 0
437115.0 86592.8 0
441812.0 87204.3 0
446524.0 85760.0 0
450849.0 86257.3 0
455406.0 88102.2 0
461200.0 87791.4 0
466975.0 87575.0 0
472594.0 86652.2 0
478847.0 88140.1 0
482622.0 83513.8 0
487506.0 84616.7 0
492124.0 86969.3 0
1482.51 92908.1 0
7155.29 92768.3 0
11905.6 90803.2 0
17161.7 91539.8 0
23053.3 92283.9 0
26989.0 88897.0 0
30224.4 91634.5 0
34875.2 92428.7 0
39764.5 91851.8 0
48583.2 91851.8 0
57213.6 92192.3 0
63064.6 92197.6 0
68310.2 93598.2 0
73401.5 91997.6 0
78302.5 92571.7 0
83593.9 92640.5 0
88398.2 92700.6 0
92508.9 93239.2 0
97237.0 93231.2 0
101195.0 93296.8 0
102767.0 89067.5 0
105585.0 92889.4 0
111306.0 92061.8 0
116640.0 92670.7 0
122098.0 91964.3 0
126931.0 92372.3 0
131218.0 93074.3 0
132691.0 88693.7 0
136577.0 92282.1 0
142212.0 93574.9 0
147012.0 91766.4 0
153419.0 89132.2 0
157942.0 92691.8 0
164429.0 88831.9 0
167047.0 91706.4 0
163657.0 93317.3 0
177032.0 89106.2 0
182933.0 93160.1 0
186625.0 88650.8 0
193693.0 92223.3 0
189204.0 93056.2 0
198249.0 93355.9 0
203174.0 92423.3 0
208748.0 89182.5 0
212115.0 93434.2 0
218717.0 88532.7 0
216320.0 91842.4 0
221175.0 92182.0 0
231983.0 92160.5 0
237943.0 91128.1 0
242843.0 92978.6 0
248029.0 92501.6 0
251518.0 88790.4 0
252897.0 92818.5 0
257727.0 91843.3 0
262636.0 89905.2 0
267587.0 92484.2 0
278480.0 93323.2 0
283573.0 92777.1 0
288835.0 91993.0 0
293487.0 92986.0 0
303985.0 88550.2 0
302639.0 92855.5 0
307115.0 93215.5 0
311941.0 92934.1 0
316965.0 91806.3 0
322296.0 92489.2 0
330937.0 92607.2 0
327150.0 93353.3 0
334357.0 89089.2 0
341522.0 92100.2 0
337123.0 92985.9 0
352844.0 88543.6 0
357892.0 92056.3 0
367104.0 90552.5 0
362982.0 92843.4 0
377880.0 89793.2 0
383272.0 92410.3 0
388210.0 92436.9 0
393045.0 88988.8 0
403054.0 91885.7 0
408162.0 91609.6 0
414685.0 92076.6 0
417929.0 93329.5 0
421365.0 89014.8 0
427477.0 91859.3 0
431264.0 93281.4 0
436128.0 91577.3 0
441996.0 92864.6 0
448332.0 91271.1 0
454028.0 93263.0 0
459446.0 93403.8 0
464982.0 92682.0 0
473889.0 91868.6 0
469647.0 93533.6 0
481986.0 93093.7 0
484704.0 88654.8 0
489148.0 89379.0 0
486773.0 92989.8 0
492177.0 93546.5 0
496754.0 89365.5 0
2749.67 96946.2 0
12671.4 95308.4 0
18088.5 97310.1 0
23745.6 98042.1 0
28648.6 95680.8 0
33633.4 97985.2 0
39135.6 96692.8 0
43683.4 93685.8 0
43746.4 97895.6 0
48695.1 97821.4 0
53135.2 94303.0 0
59720.6 97203.6 0
64872.1 98303.5 0
68290.1 97787.5 0
72212.2 95876.3 0
76319.1 97467.0 0
81940.3 98061.1 0
87885.6 97769.6 0
96906.3 97804.2 0
92636.6 98165.5 0
101491.0 97933.8 0
106437.0 98225.7 0
111043.0 96911.2 0
115385.0 97387.0 0
120870.0 97988.9 0
127441.0 97636.7 0
133301.0 97527.4 0
138726.0 98014.3 0
143744.0 98181.8 0
151801.0 93698.7 0
148389.0 97784.1 0
152799.0 98288.9 0
157000.0 98389.4 0
161442.0 97166.9 0
166774.0 97058.2 0
171003.0 93722.5 0
176727.0 95397.5 0
186882.0 98057.5 0
192411.0 97563.8 0
202629.0 96999.2 0
207321.0 94563.0 0
210631.0 97962.0 0
216384.0 97737.1 0
222686.0 97825.0 0
226331.0 93949.1 0
236017.0 96110.9 0
240938.0 98545.4 0
250904.0 96968.5 0
256764.0 98050.7 0
262829.0 95484.3 0
268273.0 97840.3 0
272697.0 94092.7 0
282084.0 96707.4 0
287109.0 98078.9 0
293046.0 97405.5 0
297506.0 94363.4 0
301871.0 96782.4 0
306177.0 98696.1 0
311437.0 98662.1 0
316864.0 96931.5 0
322340.0 98409.4 0
328008.0 97964.4 0
333887.0 96836.2 0
346658.0 94014.9 0
342202.0 98080.8 0
351577.0 94194.2 0
355549.0 96319.5 0
352291.0 98471.6 0
360516.0 97585.1 0
366513.0 97695.1 0
370164.0 94001.1 0
374540.0 94015.4 0
378545.0 97365.6 0
383421.0 96548.7 0
387240.0 96907.8 0
392170.0 95235.2 0
397892.0 93820.3 0
400401.0 98119.5 0
405311.0 97126.2 0
411971.0 96193.9 0
417777.0 98064.8 0
422500.0 93875.5 0
427294.0 96112.7 0
432240.0 97872.0 0
437085.0 96908.9 0
441852.0 98470.9 0
447111.0 97436.0 0
452640.0 98452.0 0
462539.0 98362.8 0
466556.0 97364.0 0
471813.0 98100.2 0
477663.0 94941.8 0
482254.0 98450.8 0
487738.0 97838.2 0
497457.0 95101.1 0
3058.09 102746.0 0
7838.87 99289.0 0
13610.0 101156.0 0
23880.5 103744.0 0
28782.8 101024.0 0
33720.0 103689.0 0
38542.2 101878.0 0
43271.9 102153.0 0
49672.5 102715.0 0
54182.4 99007.4 0
53687.2 103752.0 0
58566.5 103072.0 0
63416.8 102250.0 0
67007.3 102713.0 0
71705.4 101212.0 0
77975.1 102797.0 0
88019.0 102802.0 0
93070.7 102784.0 0
98000.1 102274.0 0
105783.0 102662.0 0
110766.0 102265.0 0
116642.0 102166.0 0
126500.0 102898.0 0
122654.0 103457.0 0
131193.0 102222.0 0
139747.0 103566.0 0
145104.0 102776.0 0
150850.0 102835.0 0
156884.0 103747.0 0
162036.0 101830.0 0
167180.0 102155.0 0
172235.0 99506.8 0
177078.0 99722.6 0
176185.0 103447.0 0
181363.0 99770.9 0
185795.0 103342.0 0
191577.0 103443.0 0
197843.0 99064.0 0
202645.0 102436.0 0
206637.0 99175.1 0
207608.0 103198.0 0
212134.0 102342.0 0
223347.0 103795.0 0
228326.0 99493.8 0
233993.0 100650.0 0
243836.0 103588.0 0
246423.0 99097.2 0
248991.0 103199.0 0
252376.0 101242.0 0
262544.0 102646.0 0
268736.0 102809.0 0
272894.0 98989.7 0
273495.0 103536.0 0
277851.0 99332.7 0
282796.0 102086.0 0
293224.0 102739.0 0
297883.0 99720.4 0
302610.0 102630.0 0
308389.0 103612.0 0
313173.0 103204.0 0
317438.0 102686.0 0
325879.0 101944.0 0
329964.0 103128.0 0
335028.0 103673.0 0
337522.0 100264.0 0
347980.0 98767.0 0
351082.0 102938.0 0
356010.0 100915.0 0
360813.0 103462.0 0
366435.0 103440.0 0
372525.0 98957.6 0
383496.0 100996.0 0
390731.0 99868.6 0
396042.0 99643.7 0
403887.0 103163.0 0
409494.0 101791.0 0
414469.0 102041.0 0
417767.0 102200.0 0
422969.0 98744.7 0
420957.0 102556.0 0
427626.0 102624.0 0
433303.0 102238.0 0
437889.0 101888.0 0
442650.0 103364.0 0
448517.0 103321.0 0
453997.0 103318.0 0
458109.0 98765.6 0
458539.0 103735.0 0
462991.0 103515.0 0
467794.0 102344.0 0
476954.0 99661.1 0
479982.0 103565.0 0
484311.0 103419.0 0
488549.0 102965.0 0
492469.0 99402.7 0
492635.0 103557.0 0
497459.0 100185.0 0
2142.5 108650.0 0
8752.28 105173.0 0
13671.7 108800.0 0
18380.4 104892.0 0
22344.7 108230.0 0
27492.3 108677.0 0
32330.2 107940.0 0
37272.2 108488.0 0
46373.4 106516.0 0
51408.7 108902.0 0
63645.4 107420.0 0
68689.5 105995.0 0
79821.3 108275.0 0
83400.1 104143.0 0
90126.9 107284.0 0
98603.6 106449.0 0
102078.0 103927.0 0
105637.0 107172.0 0
111337.0 108602.0 0
118204.0 107736.0 0
123812.0 107985.0 0
128387.0 106315.0 0
135218.0 104048.0 0
133268.0 108392.0 0
137790.0 107506.0 0
141902.0 108358.0 0
147422.0 108086.0 0
152993.0 108042.0 0
161786.0 107398.0 0
167144.0 107126.0 0
171462.0 104832.0 0
170762.0 108863.0 0
176881.0 108441.0 0
180973.0 105373.0 0
186887.0 108368.0 0
191537.0 108748.0 0
197331.0 104594.0 0
201626.0 107909.0 0
207153.0 108166.0 0
212987.0 107852.0 0
217212.0 104124.0 0
228979.0 105489.0 0
233411.0 105117.0 0
232798.0 108898.0 0
238461.0 104310.0 0
242102.0 107838.0 0
246559.0 107563.0 0
251470.0 107164.0 0
255537.0 104151.0 0
262740.0 108719.0 0
268253.0 108426.0 0
274071.0 108498.0 0
278387.0 104722.0 0
284548.0 108119.0 0
287975.0 104070.0 0
293312.0 107096.0 0
297717.0 105000.0 0
302306.0 108315.0 0
307427.0 108876.0 0
312020.0 107377.0 0
316759.0 107280.0 0
322203.0 103985.0 0
326427.0 107570.0 0
331733.0 108079.0 0
340295.0 104082.0 0
345917.0 104804.0 0
351163.0 108114.0 0
356391.0 106484.0 0
366973.0 108310.0 0
371143.0 103894.0 0
371655.0 108376.0 0
377225.0 104622.0 0
382201.0 108548.0 0
386894.0 108896.0 0
387807.0 104171.0 0
392748.0 104198.0 0
391451.0 108705.0 0
398356.0 105159.0 0
411605.0 107315.0 0
416991.0 105925.0 0
422627.0 107556.0 0
428258.0 108709.0 0
432998.0 106882.0 0
438724.0 107535.0 0
444698.0 108245.0 0
455670.0 107711.0 0
461373.0 108604.0 0
468722.0 107569.0 0
472983.0 103846.0 0
477805.0 108076.0 0
482449.0 108247.0 0
486594.0 107120.0 0
490650.0 107571.0 0
497770.0 104945.0 0
495005.0 108926.0 0
2239.97 113223.0 0
7229.67 111251.0 0
18604.1 109834.0 0
23275.2 113084.0 0
32590.8 111415.0 0
42440.7 109811.0 0
40991.8 114029.0 0
47008.6 112998.0 0
52812.1 113647.0 0
57400.5 109202.0 0
62195.9 112814.0 0
67964.1 112881.0 0
73558.0 109064.0 0
78090.1 112872.0 0
85124.7 109067.0 0
82804.1 113784.0 0
88774.2 113606.0 0
95037.9 109140.0 0
93972.9 113982.0 0
101293.0 109806.0 0
97844.3 112507.0 0
105727.0 112664.0 0
115522.0 113616.0 0
121623.0 112817.0 0
128112.0 112354.0 0
137500.0 111447.0 0
133715.0 113226.0 0
142031.0 113625.0 0
157246.0 109661.0 0
153546.0 112862.0 0
157983.0 113840.0 0
163103.0 113236.0 0
173356.0 112110.0 0
168439.0 112396.0 0
177762.0 112883.0 0
182321.0 110193.0 0
186463.0 113636.0 0
191579.0 113259.0 0
196349.0 110041.0 0
201124.0 113501.0 0
212098.0 112786.0 0
216812.0 113999.0 0
219801.0 109213.0 0
224910.0 109116.0 0
228653.0 109582.0 0
226069.0 113644.0 0
231021.0 112930.0 0
236990.0 109551.0 0
241284.0 112748.0 0
246730.0 112500.0 0
252429.0 112676.0 0
257766.0 109418.0 0
274590.0 113480.0 0
279358.0 110245.0 0
284011.0 112579.0 0
289724.0 109000.0 0
288600.0 114014.0 0
292658.0 112422.0 0
296527.0 109920.0 0
303662.0 113268.0 0
307813.0 113194.0 0
312335.0 112605.0 0
321330.0 109118.0 0
317612.0 112318.0 0
328006.0 112235.0 0
332709.0 113191.0 0
337285.0 109383.0 0
342892.0 109413.0 0
346828.0 109371.0 0
345477.0 113086.0 0
341914.0 113342.0 0
349517.0 112306.0 0
355327.0 112684.0 0
361677.0 109567.0 0
366485.0 113031.0 0
373420.0 113527.0 0
378335.0 111228.0 0
392581.0 113077.0 0
388072.0 113301.0 0
395529.0 109458.0 0
397114.0 113316.0 0
400529.0 110268.0 0
405863.0 108936.0 0
408059.0 113694.0 0
412514.0 112561.0 0
417167.0 111052.0 0
421019.0 113103.0 0
425370.0 112741.0 0
431956.0 112526.0 0
437683.0 113774.0 0
443668.0 113826.0 0
450508.0 110000.0 0
454498.0 112958.0 0
458800.0 113895.0 0
463934.0 113720.0 0
465833.0 110247.0 0
469297.0 113056.0 0
473167.0 109419.0 0
474376.0 113955.0 0
479087.0 112964.0 0
486586.0 111324.0 0
491385.0 113392.0 0
497411.0 113543.0 0
2127.6 117590.0 0
6960.59 117136.0 0
12440.7 114863.0 0
18049.7 114290.0 0
16008.7 118297.0 0
20037.5 118575.0 0
24885.1 118335.0 0
29083.6 114650.0 0
32222.2 119015.0 0
35952.1 114307.0 0
43318.4 118451.0 0
48686.5 118995.0 0
53579.9 118175.0 0
57603.1 115362.0 0
62542.2 118046.0 0
67219.3 118132.0 0
73651.8 115770.0 0
79099.2 118391.0 0
84542.9 118382.0 0
88606.7 118642.0 0
92508.1 118090.0 0
101251.0 114091.0 0
97466.4 116898.0 0
102445.0 118517.0 0
110243.0 114041.0 0
107194.0 117417.0 0
111837.0 118204.0 0
117994.0 119124.0 0
123247.0 118049.0 0
127766.0 117742.0 0
132819.0 118296.0 0
138522.0 117551.0 0
143145.0 118455.0 0
148122.0 114668.0 0
151877.0 118454.0 0
156564.0 118672.0 0
161568.0 118169.0 0
166875.0 117272.0 0
173249.0 118331.0 0
181596.0 114766.0 0
178608.0 118480.0 0
189457.0 118485.0 0
195892.0 115792.0 0
199741.0 118517.0 0
203874.0 119099.0 0
207148.0 114227.0 0
212779.0 117445.0 0
219058.0 118747.0 0
221590.0 114816.0 0
223358.0 118316.0 0
227641.0 118346.0 0
232481.0 117640.0 0
235877.0 114189.0 0
237724.0 118651.0 0
242286.0 119070.0 0
246691.0 117337.0 0
251864.0 118926.0 0
257588.0 114666.0 0
257453.0 118963.0 0
263719.0 114223.0 0
269612.0 114090.0 0
267688.0 118279.0 0
271757.0 117841.0 0
279917.0 115589.0 0
276114.0 118309.0 0
284286.0 116993.0 0
293601.0 116964.0 0
298744.0 114624.0 0
302642.0 118214.0 0
306701.0 117065.0 0
311690.0 118298.0 0
316843.0 117150.0 0
321345.0 119042.0 0
323360.0 114108.0 0
324883.0 118000.0 0
328697.0 116947.0 0
334154.0 118815.0 0
337436.0 114695.0 0
339612.0 118604.0 0
344143.0 117303.0 0
350100.0 117962.0 0
360664.0 114755.0 0
369396.0 117819.0 0
374924.0 118845.0 0
378300.0 115725.0 0
383175.0 114193.0 0
388067.0 117801.0 0
397920.0 117496.0 0
393143.0 118148.0 0
401987.0 118741.0 0
403354.0 114415.0 0
406595.0 118318.0 0
412747.0 118457.0 0
418441.0 116487.0 0
423544.0 117906.0 0
428715.0 116548.0 0
433882.0 119009.0 0
445499.0 118545.0 0
450715.0 116432.0 0
456148.0 118038.0 0
463205.0 117764.0 0
460063.0 118504.0 0
467453.0 118321.0 0
472541.0 118253.0 0
477866.0 118293.0 0
483695.0 114648.0 0
482744.0 118896.0 0
487589.0 117891.0 0
492465.0 118580.0 0
497811.0 118304.0 0
3067.49 122700.0 0
8555.55 121636.0 0
12581.8 120271.0 0
16421.1 122470.0 0
21312.6 123479.0 0
27466.3 123690.0 0
32650.3 122822.0 0
37673.7 119908.0 0
42306.6 123603.0 0
53255.7 123131.0 0
57459.3 120273.0 0
58928.9 124164.0 0
62499.4 122468.0 0
71133.1 120538.0 0
66930.3 122569.0 0
76176.4 123583.0 0
82351.7 121987.0 0
86393.5 122323.0 0
91254.2 123173.0 0
96601.9 122020.0 0
101325.0 123179.0 0
106448.0 122585.0 0
112395.0 123716.0 0
123220.0 123301.0 0
128379.0 122244.0 0
133236.0 123780.0 0
138695.0 123283.0 0
143897.0 122496.0 0
147994.0 120644.0 0
152641.0 122886.0 0
158024.0 123150.0 0
162828.0 122303.0 0
168108.0 122724.0 0
172596.0 124008.0 0
177246.0 123767.0 0
183533.0 119417.0 0
187087.0 123371.0 0
192265.0 123639.0 0
193907.0 119615.0 0
197934.0 123238.0 0
202908.0 123081.0 0
208359.0 119366.0 0
207315.0 124068.0 0
212051.0 122388.0 0
217205.0 123816.0 0
222464.0 122538.0 0
227444.0 123889.0 0
232440.0 122346.0 0
237065.0 122964.0 0
241372.0 123541.0 0
246106.0 122354.0 0
254521.0 123397.0 0
250344.0 123937.0 0
258823.0 124025.0 0
262305.0 120451.0 0
267465.0 123614.0 0
272517.0 121728.0 0
277260.0 123590.0 0
283204.0 122385.0 0
288580.0 119253.0 0
288223.0 123809.0 0
292775.0 122569.0 0
298814.0 119385.0 0
297384.0 123338.0 0
302107.0 123355.0 0
306892.0 121793.0 0
316042.0 122044.0 0
311368.0 123814.0 0
320406.0 123462.0 0
326139.0 122788.0 0
338274.0 123863.0 0
343317.0 122248.0 0
348164.0 123447.0 0
356711.0 119530.0 0
353179.0 124002.0 0
363251.0 119419.0 0
372382.0 122988.0 0
367630.0 123377.0 0
379744.0 119696.0 0
382002.0 122878.0 0
384038.0 119821.0 0
387377.0 122426.0 0
391838.0 122865.0 0
396416.0 122078.0 0
401430.0 123644.0 0
406579.0 123180.0 0
417742.0 122412.0 0
428007.0 122756.0 0
440195.0 119940.0 0
448654.0 121095.0 0
444884.0 123699.0 0
448961.0 124208.0 0
453284.0 122813.0 0
458570.0 121927.0 0
463270.0 121957.0 0
468255.0 123378.0 0
473568.0 123436.0 0
478469.0 123205.0 0
481959.0 123738.0 0
485369.0 122352.0 0
490339.0 122466.0 0
495332.0 122558.0 0
2830.08 128606.0 0
7503.86 126055.0 0
12197.8 124818.0 0
12525.3 128457.0 0
17166.0 128010.0 0
23592.1 128912.0 0
28520.0 128777.0 0
32917.6 126930.0 0
37798.0 125275.0 0
44154.5 128964.0 0
47951.2 124505.0 0
51666.0 127620.0 0
56222.6 127711.0 0
61495.6 128143.0 0
71359.0 124718.0 0
67362.6 128069.0 0
73115.0 129085.0 0
80897.4 126248.0 0
86723.9 127948.0 0
92877.4 129157.0 0
98368.7 127392.0 0
103676.0 127334.0 0
108521.0 127981.0 0
113657.0 129098.0 0
118078.0 124551.0 0
123557.0 128334.0 0
128426.0 127419.0 0
133081.0 128301.0 0
137596.0 128660.0 0
146817.0 124882.0 0
143072.0 126622.0 0
146707.0 128928.0 0
150635.0 126822.0 0
155609.0 126902.0 0
161150.0 127185.0 0
167133.0 128802.0 0
172930.0 128297.0 0
178054.0 129277.0 0
182427.0 124373.0 0
183654.0 129139.0 0
189253.0 128112.0 0
194195.0 128160.0 0
203778.0 127300.0 0
199079.0 128888.0 0
208282.0 129109.0 0
213126.0 127647.0 0
217850.0 129121.0 0
222500.0 128291.0 0
227501.0 128466.0 0
231363.0 126481.0 0
235333.0 127008.0 0
241012.0 127932.0 0
246228.0 128203.0 0
252669.0 128683.0 0
257745.0 127816.0 0
262636.0 126946.0 0
268650.0 128332.0 0
272487.0 126380.0 0
276647.0 128638.0 0
282613.0 128164.0 0
287964.0 128222.0 0
293356.0 128049.0 0
298042.0 127206.0 0
302181.0 129263.0 0
306759.0 126667.0 0
311373.0 129036.0 0
317138.0 127732.0 0
322854.0 127998.0 0
326676.0 127738.0 0
331450.0 129280.0 0
332573.0 124867.0 0
340794.0 128559.0 0
345207.0 126646.0 0
349873.0 128070.0 0
358609.0 125047.0 0
363217.0 124911.0 0
367147.0 128776.0 0
377383.0 124350.0 0
372564.0 127903.0 0
382879.0 127533.0 0
389047.0 127399.0 0
397277.0 127259.0 0
402363.0 129283.0 0
407529.0 127890.0 0
411926.0 124818.0 0
417012.0 128112.0 0
422243.0 125339.0 0
426096.0 128863.0 0
432010.0 128152.0 0
435852.0 124282.0 0
437798.0 129237.0 0
440095.0 124891.0 0
443151.0 128720.0 0
447787.0 127890.0 0
452656.0 128731.0 0
457751.0 126776.0 0
463132.0 127129.0 0
468194.0 128524.0 0
473083.0 128599.0 0
478097.0 128043.0 0
482741.0 128354.0 0
487708.0 127257.0 0
493259.0 127295.0 0
497790.0 126849.0 0
2518.42 133949.0 0
9657.93 129908.0 0
7270.29 133351.0 0
12117.3 133684.0 0
17593.3 134285.0 0
28810.5 133286.0 0
32724.0 131629.0 0
37937.0 130941.0 0
43274.1 134395.0 0
48947.2 130654.0 0
52884.4 133314.0 0
58210.9 132487.0 0
64170.3 133746.0 0
71361.9 132629.0 0
78025.1 130091.0 0
81048.6 134257.0 0
96751.4 133213.0 0
92020.6 133739.0 0
101923.0 131687.0 0
107424.0 134076.0 0
113364.0 134094.0 0
118711.0 129853.0 0
123398.0 133401.0 0
128618.0 132584.0 0
133599.0 132831.0 0
141641.0 131192.0 0
145474.0 133789.0 0
150726.0 132533.0 0
156814.0 132129.0 0
162657.0 133252.0 0
170995.0 133163.0 0
183159.0 133091.0 0
179617.0 133963.0 0
187240.0 133194.0 0
192617.0 132768.0 0
202934.0 132309.0 0
210961.0 133218.0 0
215629.0 133437.0 0
221240.0 133512.0 0
227185.0 133827.0 0
231614.0 130667.0 0
237589.0 132699.0 0
243850.0 133404.0 0
248904.0 133175.0 0
257368.0 131155.0 0
260306.0 133193.0 0
265515.0 132115.0 0
272406.0 132684.0 0
279500.0 133408.0 0
285572.0 132292.0 0
290284.0 132164.0 0
297351.0 132402.0 0
302309.0 134366.0 0
306882.0 132142.0 0
318328.0 133550.0 0
323488.0 132947.0 0
328118.0 131238.0 0
335630.0 129764.0 0
332371.0 133733.0 0
340946.0 133138.0 0
337052.0 134350.0 0
345692.0 131938.0 0
350918.0 134047.0 0
355448.0 130234.0 0
361544.0 129625.0 0
359291.0 134431.0 0
364354.0 134122.0 0
368943.0 133440.0 0
373329.0 132773.0 0
377583.0 130085.0 0
381329.0 133359.0 0
386962.0 133542.0 0
393443.0 129551.0 0
393352.0 134405.0 0
398527.0 132838.0 0
402914.0 134223.0 0
407775.0 133290.0 0
411988.0 130123.0 0
415878.0 133922.0 0
421587.0 129967.0 0
424598.0 132899.0 0
428963.0 133436.0 0
434131.0 133132.0 0
438737.0 134420.0 0
442788.0 133081.0 0
447718.0 133154.0 0
453045.0 133753.0 0
458330.0 132581.0 0
463625.0 131947.0 0
468161.0 133850.0 0
473597.0 133011.0 0
478149.0 133202.0 0
482808.0 132554.0 0
487497.0 132840.0 0
492502.0 132246.0 0
497556.0 131497.0 0
2475.48 138942.0 0
7677.07 138373.0 0
12004.5 137885.0 0
15771.7 139318.0 0
23417.8 134971.0 0
26808.4 139358.0 0
34065.2 137020.0 0
39402.5 135909.0 0
44706.1 138861.0 0
47709.1 134474.0 0
48760.4 138185.0 0
53066.2 138487.0 0
59516.4 137579.0 0
63885.6 138883.0 0
69258.8 134693.0 0
67606.6 138143.0 0
75107.9 134458.0 0
71692.3 138083.0 0
78263.2 137965.0 0
82471.6 139247.0 0
87053.8 134610.0 0
91999.1 138379.0 0
96999.8 138328.0 0
102128.0 137579.0 0
111124.0 138388.0 0
118426.0 135113.0 0
126570.0 138106.0 0
132454.0 137804.0 0
137140.0 138940.0 0
137995.0 134469.0 0
142292.0 138071.0 0
147728.0 137538.0 0
152626.0 138188.0 0
157521.0 137213.0 0
162025.0 138822.0 0
167210.0 137252.0 0
172467.0 138311.0 0
175347.0 134890.0 0
178178.0 139222.0 0
183468.0 137014.0 0
190431.0 137785.0 0
197965.0 134528.0 0
195416.0 139230.0 0
203351.0 137664.0 0
206811.0 134668.0 0
208223.0 138649.0 0
212607.0 137717.0 0
217696.0 138122.0 0
223410.0 138361.0 0
227690.0 138824.0 0
232728.0 138049.0 0
237913.0 138716.0 0
242249.0 137595.0 0
246577.0 137490.0 0
254146.0 134812.0 0
251456.0 139274.0 0
257659.0 139084.0 0
262657.0 137315.0 0
268086.0 137373.0 0
273563.0 139394.0 0
284060.0 136550.0 0
289117.0 137263.0 0
293632.0 135535.0 0
298812.0 138150.0 0
302795.0 137830.0 0
307469.0 137699.0 0
312363.0 135088.0 0
316382.0 138469.0 0
321289.0 138568.0 0
327598.0 137115.0 0
333607.0 138714.0 0
340751.0 137271.0 0
346463.0 138492.0 0
352479.0 138866.0 0
362683.0 137986.0 0
367601.0 138715.0 0
377200.0 135169.0 0
373234.0 137898.0 0
383127.0 138770.0 0
388874.0 139422.0 0
397598.0 137255.0 0
401996.0 138840.0 0
407555.0 139093.0 0
417737.0 138083.0 0
413357.0 139117.0 0
421177.0 135226.0 0
420739.0 139368.0 0
426079.0 138812.0 0
432065.0 137908.0 0
436732.0 138264.0 0
442765.0 138103.0 0
453409.0 137924.0 0
458511.0 139108.0 0
463600.0 136489.0 0
467767.0 139166.0 0
471813.0 136709.0 0
476449.0 138234.0 0
481100.0 136545.0 0
485658.0 137505.0 0
490710.0 138540.0 0
496002.0 136777.0 0
3211.2 144071.0 0
8257.77 143472.0 0
12763.1 143109.0 0
17406.6 144077.0 0
20838.9 140015.0 0
22006.5 144612.0 0
26229.5 144143.0 0
30952.9 142643.0 0
40054.5 140152.0 0
35932.9 142758.0 0
43630.1 142846.0 0
47755.5 142217.0 0
51809.3 142545.0 0
56829.9 142766.0 0
62579.6 142897.0 0
67171.1 143321.0 0
72521.0 143270.0 0
77992.1 142063.0 0
82526.2 143673.0 0
86293.9 144267.0 0
87140.6 140200.0 0
90159.8 143513.0 0
95222.1 143351.0 0
101125.0 143248.0 0
106970.0 139954.0 0
111795.0 143250.0 0
115819.0 139757.0 0
121102.0 139760.0 0
118333.0 144427.0 0
123281.0 144186.0 0
132214.0 143121.0 0
127624.0 143226.0 0
137231.0 143539.0 0
146469.0 142534.0 0
156132.0 142156.0 0
169286.0 143636.0 0
181606.0 144031.0 0
186112.0 141416.0 0
190993.0 143089.0 0
195754.0 143905.0 0
199786.0 139847.0 0
204962.0 142184.0 0
208466.0 144431.0 0
211616.0 142282.0 0
216503.0 143441.0 0
221703.0 142766.0 0
226694.0 143316.0 0
231955.0 142321.0 0
236065.0 143603.0 0
241434.0 142088.0 0
246762.0 142602.0 0
251417.0 143525.0 0
256142.0 144190.0 0
261549.0 142657.0 0
266315.0 141812.0 0
270640.0 144275.0 0
279476.0 139603.0 0
276599.0 144351.0 0
284957.0 141690.0 0
290186.0 142129.0 0
293861.0 139755.0 0
293757.0 144376.0 0
297271.0 142573.0 0
302714.0 140989.0 0
307446.0 141633.0 0
310129.0 144216.0 0
312804.0 140906.0 0
316961.0 142613.0 0
326197.0 142499.0 0
321557.0 144544.0 0
331855.0 143698.0 0
336696.0 144237.0 0
337889.0 140223.0 0
341785.0 143149.0 0
346628.0 144366.0 0
350388.0 142798.0 0
354412.0 144079.0 0
358046.0 140013.0 0
363421.0 143329.0 0
368528.0 143938.0 0
372652.0 142589.0 0
377756.0 139903.0 0
381262.0 143280.0 0
385749.0 143889.0 0
391603.0 144437.0 0
393912.0 139683.0 0
397805.0 143337.0 0
403436.0 143817.0 0
408193.0 144210.0 0
412655.0 144284.0 0
417328.0 142783.0 0
422294.0 143114.0 0
433144.0 143842.0 0
438898.0 142324.0 0
448812.0 140253.0 0
443938.0 143694.0 0
453765.0 142878.0 0
463038.0 143569.0 0
468113.0 143933.0 0
472250.0 141752.0 0
476531.0 143270.0 0
481591.0 141813.0 0
487407.0 142416.0 0
497268.0 142428.0 0
2743.24 149500.0 0
8042.82 148495.0 0
14921.7 148310.0 0
19909.5 148888.0 0
25329.0 148985.0 0
32699.8 149439.0 0
40009.6 145882.0 0
47202.2 147492.0 0
52669.7 146740.0 0
57753.5 149008.0 0
63751.4 148256.0 0
69579.4 148613.0 0
74694.8 149150.0 0
78841.1 146818.0 0
82761.4 148440.0 0
87411.8 148699.0 0
93077.7 148773.0 0
98832.4 148608.0 0
106555.0 144976.0 0
103893.0 149161.0 0
107222.0 148982.0 0
111638.0 149122.0 0
120398.0 149154.0 0
124184.0 148453.0 0
128406.0 147850.0 0
132872.0 147455.0 0
136853.0 148229.0 0
141708.0 144811.0 0
141100.0 148994.0 0
146522.0 148501.0 0
151573.0 144999.0 0
156635.0 148596.0 0
161834.0 145123.0 0
172255.0 148620.0 0
175976.0 144997.0 0
179233.0 148611.0 0
184127.0 149234.0 0
189315.0 147604.0 0
193668.0 148507.0 0
197503.0 148088.0 0
200539.0 145026.0 0
202966.0 148874.0 0
206274.0 146750.0 0
212256.0 148121.0 0
216806.0 147972.0 0
220974.0 147600.0 0
225739.0 148284.0 0
230980.0 146717.0 0
235664.0 148526.0 0
240542.0 147335.0 0
248381.0 147379.0 0
252558.0 147168.0 0
259971.0 147249.0 0
256057.0 149194.0 0
265490.0 147062.0 0
272928.0 147744.0 0
275665.0 148330.0 0
281961.0 147204.0 0
288336.0 146883.0 0
293476.0 149049.0 0
298770.0 146970.0 0
304641.0 145697.0 0
309147.0 147880.0 0
313927.0 145667.0 0
317699.0 147579.0 0
323366.0 149732.0 0
327810.0 147008.0 0
332500.0 148355.0 0
336870.0 148848.0 0
342208.0 148723.0 0
351679.0 147620.0 0
347217.0 148738.0 0
357651.0 147618.0 0
363233.0 149684.0 0
368505.0 148200.0 0
376987.0 145051.0 0
373400.0 149416.0 0
382575.0 147312.0 0
379099.0 149457.0 0
387079.0 149488.0 0
395893.0 148068.0 0
400749.0 148532.0 0
405935.0 148155.0 0
411228.0 149459.0 0
416962.0 148610.0 0
422189.0 148015.0 0
427069.0 145501.0 0
431391.0 149540.0 0
437982.0 147748.0 0
443845.0 149575.0 0
448492.0 146100.0 0
453591.0 148105.0 0
457909.0 145022.0 0
458351.0 149220.0 0
462239.0 148559.0 0
467266.0 148938.0 0
472251.0 146897.0 0
478242.0 148035.0 0
483445.0 146938.0 0
487729.0 147089.0 0
492246.0 144952.0 0
497114.0 148030.0 0
2122.1 154325.0 0
6629.63 153429.0 0
11765.2 150976.0 0
10874.5 154629.0 0
16444.9 153555.0 0
22132.8 153687.0 0
26805.1 153561.0 0
42538.6 150852.0 0
47182.2 152622.0 0
52162.2 152169.0 0
62695.8 153636.0 0
67631.1 153956.0 0
72734.0 153696.0 0
77869.6 153070.0 0
83358.2 153154.0 0
88734.3 153659.0 0
93487.8 153633.0 0
97430.6 153243.0 0
102461.0 154371.0 0
107419.0 152234.0 0
116413.0 151812.0 0
125857.0 152776.0 0
131745.0 152179.0 0
137377.0 153109.0 0
143319.0 153893.0 0
151900.0 150389.0 0
148470.0 153452.0 0
157300.0 153596.0 0
160656.0 150664.0 0
163242.0 153020.0 0
166704.0 149904.0 0
170863.0 152055.0 0
175911.0 152629.0 0
181671.0 154443.0 0
189133.0 152852.0 0
194263.0 153251.0 0
199454.0 152439.0 0
203612.0 154461.0 0
207411.0 151535.0 0
216143.0 153497.0 0
221749.0 151845.0 0
226488.0 153556.0 0
232442.0 152702.0 0
238431.0 152456.0 0
244735.0 151659.0 0
251356.0 152160.0 0
256819.0 153721.0 0
261841.0 151833.0 0
270071.0 151092.0 0
274196.0 153829.0 0
278053.0 151371.0 0
283491.0 153520.0 0
289033.0 152209.0 0
293268.0 154558.0 0
297213.0 151853.0 0
303006.0 152175.0 0
308805.0 153086.0 0
312953.0 150409.0 0
318356.0 152856.0 0
328792.0 152232.0 0
334066.0 153981.0 0
339592.0 153389.0 0
344933.0 153188.0 0
349989.0 152723.0 0
354429.0 151235.0 0
358650.0 154340.0 0
368161.0 152915.0 0
372313.0 154153.0 0
376962.0 153992.0 0
382471.0 152953.0 0
387497.0 153967.0 0
392323.0 150622.0 0
392129.0 154729.0 0
396150.0 153442.0 0
401229.0 154000.0 0
406693.0 153317.0 0
411220.0 154330.0 0
415490.0 153649.0 0
421158.0 153601.0 0
426356.0 151059.0 0
428523.0 154565.0 0
430961.0 153969.0 0
435835.0 153769.0 0
446665.0 153940.0 0
449070.0 150449.0 0
456077.0 152891.0 0
461499.0 153610.0 0
466931.0 154346.0 0
472915.0 152096.0 0
478057.0 153504.0 0
482524.0 151401.0 0
487864.0 152218.0 0
492458.0 149941.0 0
493643.0 153843.0 0
498089.0 152712.0 0
2813.62 159117.0 0
8165.9 158373.0 0
12894.4 157738.0 0
20384.4 158265.0 0
16332.0 158387.0 0
25268.6 159495.0 0
31181.1 157240.0 0
38046.6 154882.0 0
44045.8 155370.0 0
41794.9 159233.0 0
47446.2 159353.0 0
53101.8 158663.0 0
57345.5 155105.0 0
63565.5 158789.0 0
68268.0 158352.0 0
72453.5 158545.0 0
77185.4 158183.0 0
86321.9 157278.0 0
82034.8 158263.0 0
91303.7 158197.0 0
96817.5 157644.0 0
111801.0 155488.0 0
116464.0 158221.0 0
120437.0 155017.0 0
121274.0 159753.0 0
126005.0 158937.0 0
132122.0 158563.0 0
137819.0 158749.0 0
142840.0 159283.0 0
147532.0 158005.0 0
152878.0 154920.0 0
152628.0 159562.0 0
157561.0 158584.0 0
162712.0 157522.0 0
168107.0 155318.0 0
172608.0 157819.0 0
177851.0 157925.0 0
182304.0 159540.0 0
186374.0 157186.0 0
192082.0 157721.0 0
196621.0 158415.0 0
201110.0 157919.0 0
206767.0 157719.0 0
210865.0 155212.0 0
212749.0 158331.0 0
217643.0 159413.0 0
221800.0 156508.0 0
226798.0 158663.0 0
231546.0 158330.0 0
236388.0 157358.0 0
241206.0 156929.0 0
245772.0 157008.0 0
250430.0 158052.0 0
255178.0 157902.0 0
260749.0 158012.0 0
266226.0 155181.0 0
271140.0 157487.0 0
278166.0 157081.0 0
288465.0 157505.0 0
293486.0 159458.0 0
298393.0 157061.0 0
303462.0 157727.0 0
308194.0 158095.0 0
314357.0 158203.0 0
319272.0 157808.0 0
324039.0 155181.0 0
328968.0 157790.0 0
333146.0 158192.0 0
336742.0 158140.0 0
342592.0 158551.0 0
347881.0 157694.0 0
353212.0 157406.0 0
363897.0 155277.0 0
367793.0 158564.0 0
373566.0 158782.0 0
382651.0 158205.0 0
378336.0 158498.0 0
387500.0 158504.0 0
390840.0 158306.0 0
394209.0 157897.0 0
397989.0 157902.0 0
405861.0 159349.0 0
412257.0 158964.0 0
417885.0 158468.0 0
423011.0 158866.0 0
427877.0 158456.0 0
432790.0 158926.0 0
437676.0 159414.0 0
442045.0 155514.0 0
447083.0 158194.0 0
451287.0 155167.0 0
456331.0 157839.0 0
461274.0 159265.0 0
466168.0 158929.0 0
470975.0 157089.0 0
476162.0 158531.0 0
482656.0 157403.0 0
488909.0 157784.0 0
497008.0 157494.0 0
2316.16 163559.0 0
7488.63 163220.0 0
11899.3 161705.0 0
17721.6 162629.0 0
22192.4 163223.0 0
25713.8 164021.0 0
33500.7 162824.0 0
37228.6 160223.0 0
41261.1 164461.0 0
46266.2 164582.0 0
51637.4 164008.0 0
58687.7 160396.0 0
56874.5 164658.0 0
62241.2 164245.0 0
67515.7 163068.0 0
72506.4 163156.0 0
81266.9 163384.0 0
76625.2 164219.0 0
87014.7 162300.0 0
92308.8 163466.0 0
101396.0 160263.0 0
97255.4 163487.0 0
107501.0 160462.0 0
111799.0 164291.0 0
113001.0 160315.0 0
117643.0 163762.0 0
123436.0 163488.0 0
128783.0 163991.0 0
134059.0 163604.0 0
137961.0 163335.0 0
142163.0 163284.0 0
147504.0 163804.0 0
152869.0 164496.0 0
158962.0 162971.0 0
162909.0 162894.0 0
167292.0 160347.0 0
167203.0 164986.0 0
171989.0 162258.0 0
177728.0 163462.0 0
183253.0 164221.0 0
188242.0 162161.0 0
193898.0 163016.0 0
199055.0 162738.0 0
204158.0 163176.0 0
214027.0 161686.0 0
209491.0 162787.0 0
217434.0 163795.0 0
222151.0 162000.0 0
226340.0 162525.0 0
230558.0 163856.0 0
235731.0 162100.0 0
240054.0 160302.0 0
243733.0 161210.0 0
240026.0 164257.0 0
250365.0 163445.0 0
256477.0 163331.0 0
262643.0 163639.0 0
266799.0 160702.0 0
272519.0 163129.0 0
278324.0 162896.0 0
283292.0 160358.0 0
289989.0 163001.0 0
294960.0 163906.0 0
299386.0 162416.0 0
303668.0 161725.0 0
307824.0 163253.0 0
313038.0 164394.0 0
317923.0 162611.0 0
322914.0 160931.0 0
327990.0 162827.0 0
333198.0 162477.0 0
338999.0 163844.0 0
344324.0 163832.0 0
346990.0 161248.0 0
351177.0 163505.0 0
357776.0 160021.0 0
358163.0 164403.0 0
362518.0 160091.0 0
362969.0 164997.0 0
367649.0 163928.0 0
372887.0 164412.0 0
377591.0 163176.0 0
387666.0 162959.0 0
383033.0 163371.0 0
390579.0 163847.0 0
394661.0 162515.0 0
400640.0 162286.0 0
409727.0 164812.0 0
416361.0 164249.0 0
422812.0 164524.0 0
428624.0 163288.0 0
433383.0 163746.0 0
438577.0 164666.0 0
441768.0 160183.0 0
448820.0 163055.0 0
444221.0 163979.0 0
452132.0 160328.0 0
452094.0 164318.0 0
457220.0 164097.0 0
462826.0 163744.0 0
466793.0 165014.0 0
470795.0 162278.0 0
476400.0 164911.0 0
482885.0 164142.0 0
488671.0 163306.0 0
492846.0 160637.0 0
492895.0 164359.0 0
497140.0 163358.0 0
2879.51 167390.0 0
7660.86 167681.0 0
13296.3 166103.0 0
17519.6 167521.0 0
21981.4 167509.0 0
29624.6 165810.0 0
25924.6 167913.0 0
33841.2 168676.0 0
36829.5 165246.0 0
38550.9 168713.0 0
43314.6 169522.0 0
47500.0 168317.0 0
51975.5 169655.0 0
58911.5 169212.0 0
64498.7 169436.0 0
69008.6 168164.0 0
73878.0 167626.0 0
77217.8 168043.0 0
80691.8 168487.0 0
86321.8 168607.0 0
92811.4 168473.0 0
98242.8 168748.0 0
102435.0 165412.0 0
106772.0 165607.0 0
103094.0 169377.0 0
109028.0 168786.0 0
113212.0 168402.0 0
122442.0 168272.0 0
117544.0 169472.0 0
126563.0 168883.0 0
131864.0 168340.0 0
136845.0 167883.0 0
144006.0 168572.0 0
150410.0 168367.0 0
157085.0 168191.0 0
162990.0 167280.0 0
167630.0 169650.0 0
173048.0 167892.0 0
183029.0 168831.0 0
178837.0 169527.0 0
186680.0 167540.0 0
191842.0 167895.0 0
196806.0 167090.0 0
201799.0 168186.0 0
207325.0 167892.0 0
213592.0 165953.0 0
216949.0 168990.0 0
220482.0 166835.0 0
225384.0 166373.0 0
229372.0 168890.0 0
235824.0 167579.0 0
240223.0 169279.0 0
245170.0 167292.0 0
252493.0 168455.0 0
257216.0 168790.0 0
262355.0 168420.0 0
267377.0 166219.0 0
272615.0 169237.0 0
277796.0 167917.0 0
282852.0 165897.0 0
289758.0 167775.0 0
285973.0 169399.0 0
293416.0 167480.0 0
297871.0 168416.0 0
303739.0 166877.0 0
309258.0 168818.0 0
315431.0 169813.0 0
320305.0 166936.0 0
324621.0 165499.0 0
328767.0 168481.0 0
334659.0 167789.0 0
338218.0 170044.0 0
342802.0 168978.0 0
348333.0 168309.0 0
354571.0 168226.0 0
358832.0 168364.0 0
362305.0 169050.0 0
366732.0 168967.0 0
371988.0 169797.0 0
376885.0 166998.0 0
380638.0 167651.0 0
386648.0 168147.0 0
391380.0 167232.0 0
396438.0 168224.0 0
400517.0 166664.0 0
404214.0 165589.0 0
413219.0 170106.0 0
418108.0 169291.0 0
422107.0 169679.0 0
426877.0 168132.0 0
431420.0 168033.0 0
436288.0 170011.0 0
442100.0 169321.0 0
447549.0 168236.0 0
452803.0 168505.0 0
461585.0 167962.0 0
465841.0 169070.0 0
470827.0 168073.0 0
480519.0 168560.0 0
485119.0 169186.0 0
491128.0 169152.0 0
497364.0 168849.0 0
2104.65 171547.0 0
6793.28 173177.0 0
12523.0 171463.0 0
18520.4 172559.0 0
24345.7 172285.0 0
30115.2 172655.0 0
35415.9 174093.0 0
39873.5 172769.0 0
43534.8 174807.0 0
47482.0 172491.0 0
51744.6 174493.0 0
56705.5 174241.0 0
61964.5 174252.0 0
66638.4 173932.0 0
71690.8 172512.0 0
77191.5 171661.0 0
82291.6 173474.0 0
88449.9 174924.0 0
93313.1 172580.0 0
97500.0 173351.0 0
107094.0 172925.0 0
102236.0 173151.0 0
112290.0 172653.0 0
117489.0 174087.0 0
122473.0 172340.0 0
132589.0 173099.0 0
127669.0 173849.0 0
137654.0 172825.0 0
140199.0 170196.0 0
142126.0 173260.0 0
147636.0 173043.0 0
153045.0 172377.0 0
157497.0 174071.0 0
161579.0 172218.0 0
165667.0 173905.0 0
171229.0 173759.0 0
176234.0 173751.0 0
180326.0 174200.0 0
184959.0 172619.0 0
190262.0 172186.0 0
195404.0 172673.0 0
201311.0 173640.0 0
206583.0 173965.0 0
212321.0 171783.0 0
218105.0 173319.0 0
222870.0 171295.0 0
227523.0 173904.0 0
232628.0 172452.0 0
238165.0 173265.0 0
243791.0 173627.0 0
248620.0 172194.0 0
254994.0 172515.0 0
259925.0 172685.0 0
266658.0 173261.0 0
272632.0 174182.0 0
276489.0 172784.0 0
281554.0 171644.0 0
287001.0 173989.0 0
292799.0 172301.0 0
298711.0 174283.0 0
303424.0 172171.0 0
307680.0 173473.0 0
312791.0 175089.0 0
319111.0 174179.0 0
323692.0 170459.0 0
323805.0 174683.0 0
328218.0 174124.0 0
332685.0 172427.0 0
337214.0 173825.0 0
341746.0 174216.0 0
346957.0 173706.0 0
352961.0 173505.0 0
358289.0 172182.0 0
363852.0 173443.0 0
368575.0 173078.0 0
377264.0 171301.0 0
372516.0 173674.0 0
383137.0 172620.0 0
392796.0 171968.0 0
388492.0 173852.0 0
396697.0 173746.0 0
401632.0 171739.0 0
407475.0 170275.0 0
408624.0 174868.0 0
412939.0 175069.0 0
417500.0 173250.0 0
423655.0 173579.0 0
429096.0 172330.0 0
432842.0 173509.0 0
439598.0 173662.0 0
445091.0 173313.0 0
449570.0 172967.0 0
453928.0 173313.0 0
457499.0 170170.0 0
458053.0 174733.0 0
461735.0 172517.0 0
466235.0 173779.0 0
472008.0 174099.0 0
476634.0 170834.0 0
481396.0 173183.0 0
487086.0 174405.0 0
492809.0 175049.0 0
497596.0 173883.0 0
3506.58 178629.0 0
8912.79 178442.0 0
12819.2 176889.0 0
18045.9 178769.0 0
23734.8 177651.0 0
29009.0 178451.0 0
33721.4 178254.0 0
38524.6 178575.0 0
43678.4 179527.0 0
47741.0 177255.0 0
52003.6 179051.0 0
56979.3 179648.0 0
61796.1 178960.0 0
66399.9 178524.0 0
71634.0 178397.0 0
78211.2 178878.0 0
84122.8 178219.0 0
87688.2 179999.0 0
94100.2 176793.0 0
99300.4 178048.0 0
103853.0 179485.0 0
108319.0 177890.0 0
113637.0 177494.0 0
122392.0 176732.0 0
118188.0 178531.0 0
126888.0 178794.0 0
131334.0 177945.0 0
135399.0 176580.0 0
139961.0 177531.0 0
145194.0 178177.0 0
151681.0 178486.0 0
157461.0 179239.0 0
162223.0 177648.0 0
167837.0 178223.0 0
173461.0 179396.0 0
178656.0 178174.0 0
183497.0 178166.0 0
188825.0 176289.0 0
193401.0 178917.0 0
198162.0 177385.0 0
202225.0 178964.0 0
207011.0 179134.0 0
212376.0 178184.0 0
217312.0 177783.0 0
221939.0 176635.0 0
226296.0 178701.0 0
231236.0 177848.0 0
236066.0 178447.0 0
240758.0 178291.0 0
247330.0 177665.0 0
251701.0 175523.0 0
251815.0 179530.0 0
256817.0 177666.0 0
262021.0 177803.0 0
272433.0 178926.0 0
277769.0 177214.0 0
282670.0 177142.0 0
287575.0 179473.0 0
294279.0 178918.0 0
299741.0 179098.0 0
304166.0 177181.0 0
308989.0 178453.0 0
315365.0 179992.0 0
320388.0 179191.0 0
326100.0 179423.0 0
333160.0 178590.0 0
339147.0 179110.0 0
343441.0 178235.0 0
347375.0 178505.0 0
351812.0 179052.0 0
357563.0 177534.0 0
363014.0 178479.0 0
368208.0 177919.0 0
373386.0 177332.0 0
378061.0 176401.0 0
382810.0 178770.0 0
392116.0 176923.0 0
388002.0 179576.0 0
397057.0 178096.0 0
402872.0 178411.0 0
407559.0 178418.0 0
411392.0 179362.0 0
416297.0 178213.0 0
421524.0 178010.0 0
427086.0 177395.0 0
431837.0 179659.0 0
436283.0 177172.0 0
442626.0 178578.0 0
449563.0 178593.0 0
454946.0 177981.0 0
459033.0 179015.0 0
462487.0 176752.0 0
466447.0 178641.0 0
470794.0 179266.0 0
477068.0 175451.0 0
475071.0 179007.0 0
479813.0 179498.0 0
485458.0 180065.0 0
491394.0 179257.0 0
496535.0 179360.0 0
3164.77 185291.0 0
7860.67 182506.0 0
13198.5 182800.0 0
18016.5 184743.0 0
22913.6 183282.0 0
28302.8 183595.0 0
33684.9 183164.0 0
38744.3 183513.0 0
42462.6 183358.0 0
47500.0 183126.0 0
52557.9 183447.0 0
57797.6 184962.0 0
62773.9 183426.0 0
67039.9 183325.0 0
72935.3 184447.0 0
78321.3 184677.0 0
82589.4 183271.0 0
87056.7 183914.0 0
92062.4 182109.0 0
97669.7 183337.0 0
102295.0 183157.0 0
107409.0 183722.0 0
113346.0 182911.0 0
121263.0 182022.0 0
117556.0 184262.0 0
125792.0 184715.0 0
129829.0 182209.0 0
135551.0 182380.0 0
141806.0 182398.0 0
147624.0 184527.0 0
152815.0 183836.0 0
156959.0 183716.0 0
162562.0 183761.0 0
168611.0 183742.0 0
178545.0 183259.0 0
173681.0 184769.0 0
183146.0 184891.0 0
188006.0 182176.0 0
193371.0 183725.0 0
197865.0 182410.0 0
202704.0 183160.0 0
206537.0 183523.0 0
210414.0 182766.0 0
215936.0 182306.0 0
222030.0 182777.0 0
227890.0 183165.0 0
232868.0 182316.0 0
237576.0 182923.0 0
243287.0 182771.0 0
248665.0 183139.0 0
254448.0 183201.0 0
259269.0 182504.0 0
262859.0 184307.0 0
266299.0 180588.0 0
270744.0 183209.0 0
276853.0 181781.0 0
282833.0 183298.0 0
288072.0 184805.0 0
292398.0 184474.0 0
298266.0 183392.0 0
306027.0 182777.0 0
310185.0 184325.0 0
311332.0 181505.0 0
314051.0 185012.0 0
318485.0 183242.0 0
322500.0 183412.0 0
328894.0 184090.0 0
333249.0 184966.0 0
337018.0 182979.0 0
341124.0 182899.0 0
346186.0 183029.0 0
357136.0 182852.0 0
352140.0 185160.0 0
361938.0 183392.0 0
372172.0 181946.0 0
367473.0 184688.0 0
377871.0 182394.0 0
383977.0 184815.0 0
389039.0 184333.0 0
392970.0 182138.0 0
398548.0 183518.0 0
404604.0 183570.0 0
408305.0 183574.0 0
411601.0 183655.0 0
415648.0 183009.0 0
420774.0 183499.0 0
427258.0 183949.0 0
432708.0 183729.0 0
437828.0 183780.0 0
443855.0 184827.0 0
448897.0 184715.0 0
453712.0 182816.0 0
458584.0 183106.0 0
462382.0 181221.0 0
466454.0 183521.0 0
471665.0 183923.0 0
476743.0 183586.0 0
482110.0 184370.0 0
489724.0 183383.0 0
493000.0 185372.0 0
497149.0 185354.0 0
2175.08 190539.0 0
6289.99 189490.0 0
11599.4 188916.0 0
17536.7 189206.0 0
22463.8 188954.0 0
27690.2 188655.0 0
32846.4 188544.0 0
37849.1 188047.0 0
42860.5 188148.0 0
47500.0 188209.0 0
52500.0 188129.0 0
57471.1 189423.0 0
62273.8 188483.0 0
67614.2 187711.0 0
72220.4 190168.0 0
81627.4 188176.0 0
77001.1 188564.0 0
86238.9 188036.0 0
91741.1 188522.0 0
97809.6 188726.0 0
102672.0 187704.0 0
106903.0 189868.0 0
111197.0 187796.0 0
115541.0 188593.0 0
120820.0 187913.0 0
126021.0 189547.0 0
131558.0 188197.0 0
137589.0 188567.0 0
143032.0 189007.0 0
152332.0 187824.0 0
148507.0 190334.0 0
156773.0 188396.0 0
161249.0 189611.0 0
165865.0 188273.0 0
170814.0 188700.0 0
176299.0 189343.0 0
181147.0 188406.0 0
186185.0 190409.0 0
190720.0 187112.0 0
195904.0 188047.0 0
202302.0 186846.0 0
207014.0 188538.0 0
212683.0 186986.0 0
217356.0 186733.0 0
221317.0 188281.0 0
226104.0 187996.0 0
231885.0 187371.0 0
236932.0 189482.0 0
240965.0 187018.0 0
246406.0 189106.0 0
252566.0 188470.0 0
257957.0 186558.0 0
262514.0 189353.0 0
267435.0 186284.0 0
272737.0 187299.0 0
277837.0 186478.0 0
283412.0 190336.0 0
290026.0 189322.0 0
296067.0 188575.0 0
302093.0 187443.0 0
308498.0 188292.0 0
313707.0 190143.0 0
318496.0 187809.0 0
325750.0 187777.0 0
322152.0 190533.0 0
331013.0 189528.0 0
336305.0 188651.0 0
342218.0 188299.0 0
347988.0 189230.0 0
357716.0 188718.0 0
363372.0 188314.0 0
372129.0 188066.0 0
377596.0 188357.0 0
388203.0 189204.0 0
393859.0 187814.0 0
403548.0 189369.0 0
409206.0 190113.0 0
413408.0 187842.0 0
418015.0 188451.0 0
422331.0 188541.0 0
432985.0 187986.0 0
437053.0 188706.0 0
442560.0 190316.0 0
447415.0 188090.0 0
451703.0 188670.0 0
455863.0 187085.0 0
461826.0 188399.0 0
468601.0 189099.0 0
474668.0 189008.0 0
480001.0 188477.0 0
486586.0 188598.0 0
493164.0 189748.0 0
498364.0 189674.0 0
2648.32 194820.0 0
6704.61 193360.0 0
17237.5 193703.0 0
21689.6 193828.0 0
26625.8 193858.0 0
32269.6 193999.0 0
37800.7 193117.0 0
42911.0 193263.0 0
48373.5 193083.0 0
53049.3 193311.0 0
57491.6 193708.0 0
62500.0 193296.0 0
67351.0 193319.0 0
72974.1 194505.0 0
77089.9 193492.0 0
80945.2 193479.0 0
86598.3 193208.0 0
92662.8 195116.0 0
98143.0 193770.0 0
102893.0 192721.0 0
107106.0 195223.0 0
112144.0 193096.0 0
117789.0 192963.0 0
127517.0 193263.0 0
123040.0 194630.0 0
131675.0 195003.0 0
135063.0 192072.0 0
139792.0 194700.0 0
146644.0 195570.0 0
153455.0 193619.0 0
159438.0 194156.0 0
165968.0 193487.0 0
171465.0 193926.0 0
177279.0 195562.0 0
191882.0 191851.0 0
201235.0 191804.0 0
206403.0 195272.0 0
211857.0 192755.0 0
217581.0 191451.0 0
222973.0 192933.0 0
228683.0 192956.0 0
233716.0 192338.0 0
236982.0 194028.0 0
241134.0 192367.0 0
246166.0 195533.0 0
251684.0 193912.0 0
257179.0 191027.0 0
263482.0 194944.0 0
268885.0 192267.0 0
274516.0 194946.0 0
276234.0 190704.0 0
279025.0 193764.0 0
288599.0 194071.0 0
293685.0 194271.0 0
300199.0 193612.0 0
305288.0 191960.0 0
308889.0 194212.0 0
313481.0 195151.0 0
316786.0 192965.0 0
320577.0 194672.0 0
326686.0 194213.0 0
333861.0 194483.0 0
338665.0 193025.0 0
342799.0 193762.0 0
347415.0 194201.0 0
352469.0 190817.0 0
352858.0 195642.0 0
357815.0 194503.0 0
362632.0 193135.0 0
367022.0 195143.0 0
367626.0 190797.0 0
371864.0 193539.0 0
377441.0 194284.0 0
382625.0 195444.0 0
382670.0 191085.0 0
386622.0 194734.0 0
391984.0 193995.0 0
397810.0 191676.0 0
406986.0 194317.0 0
411808.0 193815.0 0
417019.0 192990.0 0
422566.0 194278.0 0
427432.0 190701.0 0
432185.0 194579.0 0
437979.0 193926.0 0
448193.0 193145.0 0
455966.0 192997.0 0
461566.0 194957.0 0
466226.0 193610.0 0
471899.0 195326.0 0
477523.0 193808.0 0
481988.0 192454.0 0
491854.0 194856.0 0
497014.0 194436.0 0
11883.7 195703.0 0
162838.0 197143.0 0
183203.0 195691.0 0
188837.0 195998.0 0
195937.0 195700.0 0
201229.0 197239.0 0
204475.0 199803.0 0
210790.0 198420.0 0
216416.0 197197.0 0
222470.0 198664.0 0
227958.0 198361.0 0
233919.0 197164.0 0
236553.0 200489.0 0
240340.0 198148.0 0
248995.0 200080.0 0
253470.0 198675.0 0
258379.0 196016.0 0
261359.0 199082.0 0
265891.0 199834.0 0
270708.0 197787.0 0
278604.0 199243.0 0
284480.0 196716.0 0
289821.0 198617.0 0
297138.0 198982.0 0
305013.0 195942.0 0
302388.0 199528.0 0
396543.0 195793.0 0
401644.0 196090.0 0
427263.0 196405.0 0
442951.0 195869.0 0
452071.0 196315.0 0
481329.0 196296.0 0
486495.0 195916.0 0
199565.0 202158.0 0
204439.0 203936.0 0
209449.0 203408.0 0
215731.0 203304.0 0
221138.0 204044.0 0
226642.0 204080.0 0
231460.0 201706.0 0
235319.0 203660.0 0
244603.0 201203.0 0
240447.0 204247.0 0
252387.0 203612.0 0
257902.0 201573.0 0
262175.0 202164.0 0
271471.0 202925.0 0
276419.0 204611.0 0
283463.0 201360.0 0
280938.0 204496.0 0
284566.0 205791.0 0
287257.0 202926.0 0
293226.0 203498.0 0
299486.0 204351.0 0
200565.0 208445.0 0
206824.0 208423.0 0
212342.0 207623.0 0
218217.0 208979.0 0
223359.0 207963.0 0
227341.0 210038.0 0
231813.0 207013.0 0
236722.0 207326.0 0
240956.0 209969.0 0
245799.0 206352.0 0
250599.0 207913.0 0
256857.0 207973.0 0
262924.0 206235.0 0
268034.0 207070.0 0
273345.0 209292.0 0
278896.0 208513.0 0
283257.0 209377.0 0
288822.0 208216.0 0
294307.0 209095.0 0
298362.0 209057.0 0
202162.0 214822.0 0
208341.0 213922.0 0
213592.0 212704.0 0
218680.0 214354.0 0
223708.0 213972.0 0
228230.0 214601.0 0
231676.0 212386.0 0
236090.0 211387.0 0
240598.0 214049.0 0
246377.0 212220.0 0
252212.0 212648.0 0
257463.0 213865.0 0
261597.0 211376.0 0
266660.0 212300.0 0
271774.0 214052.0 0
276907.0 213278.0 0
281086.0 212434.0 0
285903.0 213419.0 0
291470.0 213156.0 0
297266.0 213655.0 0
341742.0 215916.0 0
10310.7 218252.0 0
206113.0 219324.0 0
210328.0 217927.0 0
215193.0 218243.0 0
220808.0 218581.0 0
226487.0 219546.0 0
231212.0 216993.0 0
237005.0 216820.0 0
243162.0 216822.0 0
248814.0 217597.0 0
254688.0 217796.0 0
261855.0 216691.0 0
268410.0 218772.0 0
274604.0 217322.0 0
279543.0 216139.0 0
278616.0 220220.0 0
283537.0 218350.0 0
289172.0 217948.0 0
293918.0 217257.0 0
297982.0 219809.0 0
309756.0 219782.0 0
48261.5 225677.0 0
174681.0 224701.0 0
201804.0 221948.0 0
206246.0 224634.0 0
211438.0 222772.0 0
216914.0 223781.0 0
222263.0 223446.0 0
228037.0 224056.0 0
232131.0 222064.0 0
237053.0 222203.0 0
241904.0 222258.0 0
247658.0 223495.0 0
253228.0 222946.0 0
258639.0 221463.0 0
262729.0 224023.0 0
267373.0 225049.0 0
273142.0 223635.0 0
279213.0 225943.0 0
282870.0 222606.0 0
287189.0 224175.0 0
293026.0 222460.0 0
362467.0 225926.0 0
368610.0 225708.0 0
389098.0 224773.0 0
404603.0 223039.0 0
421499.0 224310.0 0
443009.0 223957.0 0
455114.0 224339.0 0
472319.0 225082.0 0
492537.0 226058.0 0
497243.0 223906.0 0
6878.9 228063.0 0
56374.4 229590.0 0
63868.7 229600.0 0
68827.6 230619.0 0
79658.9 231353.0 0
96187.4 229866.0 0
100416.0 229314.0 0
107589.0 231051.0 0
115161.0 231352.0 0
121008.0 231245.0 0
126005.0 229034.0 0
158565.0 231050.0 0
167796.0 227924.0 0
177286.0 228754.0 0
191569.0 229907.0 0
196244.0 230835.0 0
201361.0 226725.0 0
200883.0 231083.0 0
205139.0 229528.0 0
210417.0 228442.0 0
215508.0 228472.0 0
220077.0 227898.0 0
225519.0 227548.0 0
231418.0 228196.0 0
237507.0 227117.0 0
242306.0 230136.0 0
248058.0 229560.0 0
253774.0 228292.0 0
258819.0 226658.0 0
259057.0 231066.0 0
263576.0 229213.0 0
269202.0 230167.0 0
274268.0 228896.0 0
284341.0 229151.0 0
288860.0 228773.0 0
292821.0 227741.0 0
297889.0 226319.0 0
297460.0 231322.0 0
309917.0 231288.0 0
317421.0 228002.0 0
322450.0 229392.0 0
357807.0 227509.0 0
374583.0 228350.0 0
437044.0 227599.0 0
461586.0 228200.0 0
476569.0 228325.0 0
481239.0 229418.0 0
14254.8 232615.0 0
17655.2 235932.0 0
22442.4 233931.0 0
30433.9 233836.0 0
36537.1 234369.0 0
75161.9 232655.0 0
85031.3 232051.0 0
93065.2 235968.0 0
111005.0 232895.0 0
124379.0 236141.0 0
131855.0 233357.0 0
137504.0 232370.0 0
142262.0 234622.0 0
150902.0 235945.0 0
154054.0 231655.0 0
173221.0 233778.0 0
178042.0 235622.0 0
178735.0 232121.0 0
204079.0 234172.0 0
207996.0 232525.0 0
213357.0 233342.0 0
217845.0 232140.0 0
222320.0 232064.0 0
220060.0 236133.0 0
227456.0 232847.0 0
233019.0 233928.0 0
238126.0 233070.0 0
241699.0 234922.0 0
245359.0 234070.0 0
251061.0 234433.0 0
255503.0 232829.0 0
261792.0 233513.0 0
267220.0 235215.0 0
273097.0 233190.0 0
277796.0 232610.0 0
282146.0 232933.0 0
284677.0 235425.0 0
287764.0 232925.0 0
292969.0 232745.0 0
296828.0 235829.0 0
322451.0 234105.0 0
326630.0 234863.0 0
330913.0 235138.0 0
339605.0 234481.0 0
391311.0 231451.0 0
388726.0 235966.0 0
396056.0 232890.0 0
417127.0 233955.0 0
423600.0 232261.0 0
426612.0 235830.0 0
439714.0 234821.0 0
449230.0 233972.0 0
462790.0 234648.0 0
466760.0 233461.0 0
471850.0 232058.0 0
479717.0 234701.0 0
484429.0 234782.0 0
497839.0 233358.0 0
2631.23 241222.0 0
8033.11 238252.0 0
14588.8 239439.0 0
30589.4 240037.0 0
40985.6 238773.0 0
48339.7 236580.0 0
45936.2 240249.0 0
53010.0 236577.0 0
88220.9 238041.0 0
92904.6 240976.0 0
97919.2 238092.0 0
102310.0 240199.0 0
113050.0 240257.0 0
119140.0 238243.0 0
126262.0 240348.0 0
146000.0 238074.0 0
155278.0 239311.0 0
169989.0 239029.0 0
177569.0 239790.0 0
183085.0 241445.0 0
188922.0 240095.0 0
194746.0 241368.0 0
199532.0 238694.0 0
204404.0 239311.0 0
209313.0 236898.0 0
215064.0 238876.0 0
222083.0 240399.0 0
225948.0 237829.0 0
230700.0 238684.0 0
236386.0 238422.0 0
241423.0 238697.0 0
247380.0 239494.0 0
253470.0 238941.0 0
257880.0 236713.0 0
262773.0 237742.0 0
267283.0 240550.0 0
271753.0 237641.0 0
276232.0 239094.0 0
280753.0 237166.0 0
287948.0 237881.0 0
292568.0 237658.0 0
300502.0 238242.0 0
296386.0 240574.0 0
304860.0 238736.0 0
308760.0 237921.0 0
314014.0 240827.0 0
318278.0 238126.0 0
335045.0 237797.0 0
345114.0 236674.0 0
342101.0 240075.0 0
348027.0 240229.0 0
364943.0 239231.0 0
377600.0 240093.0 0
383597.0 238884.0 0
390690.0 239895.0 0
393964.0 237773.0 0
398809.0 239924.0 0
407296.0 237042.0 0
403236.0 240795.0 0
412976.0 239364.0 0
422388.0 237727.0 0
431907.0 236533.0 0
436080.0 238370.0 0
444222.0 237079.0 0
458451.0 236837.0 0
473827.0 241486.0 0
478880.0 239921.0 0
489239.0 237707.0 0
497266.0 241461.0 0
4198.95 246325.0 0
10165.2 244475.0 0
18911.2 241766.0 0
27252.5 244090.0 0
31965.1 246575.0 0
37311.7 242369.0 0
44551.6 245730.0 0
49617.5 246666.0 0
54909.3 243238.0 0
60744.6 244287.0 0
73247.1 246324.0 0
85759.2 243257.0 0
91010.0 243390.0 0
96476.5 242414.0 0
100409.0 244583.0 0
105708.0 243290.0 0
118044.0 245547.0 0
127597.0 245076.0 0
137141.0 241808.0 0
132697.0 243726.0 0
140009.0 246034.0 0
145853.0 246052.0 0
166524.0 243085.0 0
175196.0 245126.0 0
208773.0 242106.0 0
204248.0 244826.0 0
212998.0 245269.0 0
218415.0 243965.0 0
222785.0 244296.0 0
226654.0 242660.0 0
231894.0 243874.0 0
237319.0 243837.0 0
242504.0 243333.0 0
247180.0 245867.0 0
252149.0 243863.0 0
257611.0 242498.0 0
262742.0 242442.0 0
265988.0 246307.0 0
272536.0 243342.0 0
278428.0 243227.0 0
284102.0 242066.0 0
281572.0 246678.0 0
290977.0 243010.0 0
305457.0 242670.0 0
301919.0 245703.0 0
309713.0 242084.0 0
312813.0 246078.0 0
335177.0 245304.0 0
341691.0 244968.0 0
360423.0 243033.0 0
368691.0 241864.0 0
373639.0 244284.0 0
380959.0 244873.0 0
385630.0 243616.0 0
394399.0 242562.0 0
398411.0 243942.0 0
402468.0 245698.0 0
415149.0 243808.0 0
431773.0 242055.0 0
462565.0 244469.0 0
468005.0 246127.0 0
483291.0 243519.0 0
488293.0 244968.0 0
492521.0 241705.0 0
494690.0 246411.0 0
1396.57 249316.0 0
8211.08 248282.0 0
11918.4 249757.0 0
16619.4 249226.0 0
21754.5 247922.0 0
31750.6 251317.0 0
40529.6 250196.0 0
36111.9 250567.0 0
53511.7 248207.0 0
65233.2 247431.0 0
75981.4 251212.0 0
79797.4 246823.0 0
97591.4 248018.0 0
101262.0 249133.0 0
122206.0 247546.0 0
125707.0 248769.0 0
132217.0 249810.0 0
137709.0 251290.0 0
150246.0 249467.0 0
157949.0 248221.0 0
162385.0 249000.0 0
166757.0 251577.0 0
169946.0 246790.0 0
178322.0 248639.0 0
173828.0 249945.0 0
182125.0 246687.0 0
182575.0 251464.0 0
203599.0 250407.0 0
208492.0 247590.0 0
212184.0 250166.0 0
217001.0 250833.0 0
221535.0 248234.0 0
226387.0 247601.0 0
231035.0 249215.0 0
236952.0 249785.0 0
242597.0 248396.0 0
247334.0 250321.0 0
251017.0 248994.0 0
255658.0 247727.0 0
261566.0 247837.0 0
265044.0 251102.0 0
270041.0 250126.0 0
276311.0 249078.0 0
282382.0 251610.0 0
286620.0 247629.0 0
291670.0 250172.0 0
296247.0 246705.0 0
305267.0 249480.0 0
308862.0 246701.0 0
315851.0 249905.0 0
321609.0 249671.0 0
329672.0 248394.0 0
345721.0 250129.0 0
350533.0 247721.0 0
355714.0 249215.0 0
368277.0 247368.0 0
376826.0 249327.0 0
388242.0 246853.0 0
392773.0 251320.0 0
397327.0 249157.0 0
402414.0 250457.0 0
406830.0 248311.0 0
411664.0 246805.0 0
417627.0 248619.0 0
430432.0 251368.0 0
435876.0 249703.0 0
440796.0 247309.0 0
443743.0 251598.0 0
448497.0 249667.0 0
472750.0 247161.0 0
472922.0 251485.0 0
477904.0 251607.0 0
490331.0 249552.0 0
498185.0 249504.0 0
9024.03 253160.0 0
22141.1 253408.0 0
27556.0 254433.0 0
42506.5 253838.0 0
47221.1 254552.0 0
55082.9 252310.0 0
57767.4 256049.0 0
71070.6 252659.0 0
66580.1 255698.0 0
78232.9 256585.0 0
87177.6 254155.0 0
92596.4 256603.0 0
101304.0 254356.0 0
105416.0 254764.0 0
110427.0 256646.0 0
115988.0 252375.0 0
121376.0 253183.0 0
119859.0 256837.0 0
127453.0 252215.0 0
125026.0 255615.0 0
134374.0 254167.0 0
136926.0 254464.0 0
142940.0 253923.0 0
149278.0 256054.0 0
154955.0 254856.0 0
159503.0 253580.0 0
162950.0 255896.0 0
170964.0 253384.0 0
178095.0 252901.0 0
179935.0 256302.0 0
188423.0 253394.0 0
193802.0 256224.0 0
198191.0 253051.0 0
202876.0 256009.0 0
208334.0 252631.0 0
213345.0 254825.0 0
221885.0 253484.0 0
227461.0 253340.0 0
232907.0 254222.0 0
238284.0 256002.0 0
244005.0 253839.0 0
249419.0 253689.0 0
253932.0 253921.0 0
259256.0 252380.0 0
263833.0 255113.0 0
268011.0 254519.0 0
272691.0 254598.0 0
278031.0 255408.0 0
287571.0 253795.0 0
292515.0 255609.0 0
296089.0 252343.0 0
296867.0 256351.0 0
310186.0 253082.0 0
315912.0 255772.0 0
326129.0 252871.0 0
329885.0 254814.0 0
332766.0 252788.0 0
354804.0 256598.0 0
359390.0 252884.0 0
365233.0 251927.0 0
363529.0 256537.0 0
371514.0 251836.0 0
375763.0 255229.0 0
382983.0 252166.0 0
388117.0 255701.0 0
405524.0 253420.0 0
418256.0 253785.0 0
423877.0 253836.0 0
448865.0 254542.0 0
453540.0 255863.0 0
457751.0 253108.0 0
463509.0 253219.0 0
469551.0 254603.0 0
473869.0 255601.0 0
485101.0 255683.0 0
492549.0 253407.0 0
497345.0 254401.0 0
12432.9 258795.0 0
18261.9 258757.0 0
31572.7 260931.0 0
35807.4 257932.0 0
40409.5 258640.0 0
62118.7 257556.0 0
83627.7 258851.0 0
88025.0 259663.0 0
98112.3 260304.0 0
115498.0 258477.0 0
119756.0 260726.0 0
124322.0 259645.0 0
137186.0 261722.0 0
145130.0 257928.0 0
152637.0 259294.0 0
157044.0 259404.0 0
175791.0 257651.0 0
203858.0 261099.0 0
208374.0 258094.0 0
213629.0 260394.0 0
218054.0 257337.0 0
223604.0 258416.0 0
220713.0 260728.0 0
229037.0 258322.0 0
226282.0 261408.0 0
233879.0 259380.0 0
238180.0 261022.0 0
242503.0 259530.0 0
247734.0 258447.0 0
252004.0 257303.0 0
255720.0 259230.0 0
260652.0 258325.0 0
265215.0 259118.0 0
269724.0 258668.0 0
274714.0 260098.0 0
283191.0 256954.0 0
281330.0 261290.0 0
288142.0 259614.0 0
293578.0 260405.0 0
297771.0 260006.0 0
305811.0 256957.0 0
301395.0 257499.0 0
309214.0 258082.0 0
320548.0 259862.0 0
332502.0 257712.0 0
332244.0 261646.0 0
337497.0 257605.0 0
344487.0 258521.0 0
350089.0 258061.0 0
359342.0 258413.0 0
368250.0 256991.0 0
379842.0 257798.0 0
383935.0 257867.0 0
396224.0 259869.0 0
401114.0 261826.0 0
420703.0 257511.0 0
428710.0 257346.0 0
443848.0 260034.0 0
460614.0 261046.0 0
475351.0 260804.0 0
480010.0 257080.0 0
486287.0 261233.0 0
2385.26 263849.0 0
11457.4 264933.0 0
19755.7 263281.0 0
23726.9 264508.0 0
28043.2 265264.0 0
37894.0 264788.0 0
42563.5 262558.0 0
48901.4 265387.0 0
59411.4 263915.0 0
73236.5 262671.0 0
78992.8 264500.0 0
84814.0 264716.0 0
103476.0 263731.0 0
108327.0 265160.0 0
127047.0 263948.0 0
133529.0 264431.0 0
141682.0 264476.0 0
147366.0 266382.0 0
178009.0 264718.0 0
182816.0 264392.0 0
188845.0 264319.0 0
195076.0 266582.0 0
203963.0 266644.0 0
208072.0 263585.0 0
212464.0 265156.0 0
217762.0 264102.0 0
223042.0 264020.0 0
230318.0 263241.0 0
235414.0 264317.0 0
240555.0 264486.0 0
245780.0 263995.0 0
251494.0 262449.0 0
251771.0 267027.0 0
256396.0 264287.0 0
262262.0 263160.0 0
267761.0 263472.0 0
272922.0 265257.0 0
278143.0 264782.0 0
284671.0 264286.0 0
290898.0 265008.0 0
296526.0 264825.0 0
320417.0 265455.0 0
324961.0 265379.0 0
327915.0 262370.0 0
349617.0 264779.0 0
356286.0 265698.0 0
366109.0 265947.0 0
370489.0 266241.0 0
373783.0 262967.0 0
391305.0 263310.0 0
405441.0 263943.0 0
410203.0 265865.0 0
415232.0 264347.0 0
420447.0 264997.0 0
436061.0 265807.0 0
441300.0 264299.0 0
447423.0 263886.0 0
452098.0 265665.0 0
463371.0 265367.0 0
468386.0 262800.0 0
472620.0 265697.0 0
478625.0 265964.0 0
482264.0 263595.0 0
488314.0 265104.0 0
491602.0 262821.0 0
497634.0 266638.0 0
6006.39 267545.0 0
10345.6 270359.0 0
14356.5 271293.0 0
17628.4 268977.0 0
21198.9 271163.0 0
31549.5 268236.0 0
44669.6 267211.0 0
53337.5 267480.0 0
57735.5 267389.0 0
81396.5 268818.0 0
88732.2 270055.0 0
94616.0 270759.0 0
115852.0 271264.0 0
131487.0 268481.0 0
151889.0 270145.0 0
157006.0 268738.0 0
162148.0 268436.0 0
166764.0 267395.0 0
172721.0 267557.0 0
208985.0 268827.0 0
215424.0 269765.0 0
220830.0 268362.0 0
223890.0 271448.0 0
226900.0 267544.0 0
232157.0 268058.0 0
237585.0 269058.0 0
242700.0 268206.0 0
247669.0 269908.0 0
259937.0 267320.0 0
255609.0 269473.0 0
264650.0 268013.0 0
269298.0 268097.0 0
275667.0 270031.0 0
282089.0 269612.0 0
288380.0 270162.0 0
294169.0 270086.0 0
307859.0 269070.0 0
313339.0 270630.0 0
318165.0 269711.0 0
333604.0 271148.0 0
339112.0 267570.0 0
344315.0 269712.0 0
348224.0 271680.0 0
361855.0 268511.0 0
373349.0 269243.0 0
382120.0 269309.0 0
377846.0 269846.0 0
386421.0 269537.0 0
424465.0 267843.0 0
425494.0 271786.0 0
429055.0 267393.0 0
434661.0 270808.0 0
444448.0 270319.0 0
456662.0 270767.0 0
475464.0 268983.0 0
478873.0 271648.0 0
484076.0 270051.0 0
2520.43 276038.0 0
23712.7 274511.0 0
27712.7 275425.0 0
38957.8 276495.0 0
64003.3 276624.0 0
69034.9 276536.0 0
73587.4 273933.0 0
78890.1 275760.0 0
99836.4 273794.0 0
106851.0 276909.0 0
111993.0 276376.0 0
115838.0 277026.0 0
124424.0 272586.0 0
129417.0 272899.0 0
132091.0 276311.0 0
137331.0 274478.0 0
141484.0 276115.0 0
178121.0 274751.0 0
173534.0 276136.0 0
182877.0 273298.0 0
190151.0 273516.0 0
198863.0 274947.0 0
194183.0 276754.0 0
204533.0 272426.0 0
206165.0 276905.0 0
209812.0 273796.0 0
214272.0 275488.0 0
219383.0 273677.0 0
223634.0 276007.0 0
228551.0 273327.0 0
233632.0 272441.0 0
232406.0 276910.0 0
237508.0 274954.0 0
241571.0 272481.0 0
249634.0 274683.0 0
245265.0 275326.0 0
254552.0 274932.0 0
260839.0 273054.0 0
267630.0 272938.0 0
273080.0 275045.0 0
278626.0 274925.0 0
282938.0 274582.0 0
286583.0 274743.0 0
291011.0 274589.0 0
295789.0 275399.0 0
304833.0 273498.0 0
320801.0 276958.0 0
326082.0 275943.0 0
339966.0 276950.0 0
345237.0 274230.0 0
348323.0 276010.0 0
353398.0 277182.0 0
375332.0 272611.0 0
387759.0 276241.0 0
396070.0 274496.0 0
405148.0 274516.0 0
412280.0 272351.0 0
416387.0 274006.0 0
422843.0 276670.0 0
431748.0 274802.0 0
439140.0 272612.0 0
452878.0 274225.0 0
457920.0 275722.0 0
461427.0 272215.0 0
465643.0 274267.0 0
493893.0 276675.0 0
35470.8 278116.0 0
31330.3 278529.0 0
58276.5 281260.0 0
62760.5 281412.0 0
79117.6 280579.0 0
83595.1 278211.0 0
102136.0 278523.0 0
118035.0 280541.0 0
122579.0 278660.0 0
187621.0 278952.0 0
204357.0 280002.0 0
210207.0 278399.0 0
219003.0 278559.0 0
214471.0 280305.0 0
223352.0 280777.0 0
227926.0 278968.0 0
236315.0 280010.0 0
241299.0 278251.0 0
246217.0 280508.0 0
251078.0 278785.0 0
256302.0 280914.0 0
262861.0 279761.0 0
268059.0 278148.0 0
272177.0 280167.0 0
277010.0 279850.0 0
282246.0 279351.0 0
286579.0 278421.0 0
288281.0 282007.0 0
292295.0 279150.0 0
296350.0 278904.0 0
296140.0 282129.0 0
334097.0 281195.0 0
338749.0 280157.0 0
344226.0 278175.0 0
377578.0 278715.0 0
383309.0 280850.0 0
391971.0 277438.0 0
417562.0 278398.0 0
429251.0 279445.0 0
440415.0 280395.0 0
448734.0 277899.0 0
444373.0 279472.0 0
483950.0 280119.0 0
488519.0 277989.0 0
23860.2 285177.0 0
85357.4 282882.0 0
89677.3 284050.0 0
114635.0 284246.0 0
119205.0 284701.0 0
148593.0 283820.0 0
154063.0 284897.0 0
160451.0 285611.0 0
172783.0 286147.0 0
177642.0 284380.0 0
182265.0 282568.0 0
186511.0 282653.0 0
204006.0 284458.0 0
209786.0 283849.0 0
219172.0 283248.0 0
215089.0 284706.0 0
222789.0 285235.0 0
226785.0 283743.0 0
232142.0 284126.0 0
237492.0 284300.0 0
241630.0 283328.0 0
247322.0 285470.0 0
251264.0 283349.0 0
257637.0 285668.0 0
261118.0 284780.0 0
267903.0 283615.0 0
273126.0 284601.0 0
279255.0 284153.0 0
284088.0 284300.0 0
287844.0 286312.0 0
292285.0 284627.0 0
343860.0 285503.0 0
354633.0 285516.0 0
362728.0 284685.0 0
367860.0 283092.0 0
374256.0 283428.0 0
378320.0 287204.0 0
388742.0 283308.0 0
441465.0 286587.0 0
447200.0 286981.0 0
449043.0 282950.0 0
472532.0 283078.0 0
476982.0 282527.0 0
487877.0 285683.0 0
18980.9 289092.0 0
24601.3 290302.0 0
29372.6 291477.0 0
41944.7 291655.0 0
46285.1 289611.0 0
57656.8 287943.0 0
59419.7 291845.0 0
125705.0 292548.0 0
131308.0 291202.0 0
136308.0 291070.0 0
164978.0 289340.0 0
169679.0 290543.0 0
175845.0 288019.0 0
203274.0 290227.0 0
207137.0 288635.0 0
212541.0 288804.0 0
216903.0 288238.0 0
216026.0 291980.0 0
221028.0 289452.0 0
226469.0 288912.0 0
231406.0 289211.0 0
236716.0 289259.0 0
242994.0 288692.0 0
247799.0 289643.0 0
251624.0 287900.0 0
256146.0 289474.0 0
260920.0 289072.0 0
265927.0 288985.0 0
270797.0 288211.0 0
273818.0 291888.0 0
276141.0 288401.0 0
281425.0 288641.0 0
285814.0 289697.0 0
295740.0 287610.0 0
291086.0 289544.0 0
295575.0 292524.0 0
300753.0 289450.0 0
347413.0 287989.0 0
351113.0 289011.0 0
354750.0 292302.0 0
359569.0 288689.0 0
378180.0 291587.0 0
496741.0 288197.0 0
3000.82 294742.0 0
34198.8 293437.0 0
38189.5 296489.0 0
44756.1 295111.0 0
49720.9 293938.0 0
78998.1 294638.0 0
109302.0 295862.0 0
203607.0 293807.0 0
199008.0 296336.0 0
209616.0 294503.0 0
215005.0 295607.0 0
219940.0 294383.0 0
225127.0 294476.0 0
230480.0 293850.0 0
235397.0 294664.0 0
240005.0 293925.0 0
245797.0 294570.0 0
252776.0 294488.0 0
259145.0 293901.0 0
263538.0 292835.0 0
264996.0 296929.0 0
269639.0 293336.0 0
277560.0 293804.0 0
282425.0 293123.0 0
286250.0 293428.0 0
290629.0 295028.0 0
303327.0 294846.0 0
318205.0 295865.0 0
324319.0 297059.0 0
344872.0 295632.0 0
374379.0 293244.0 0
382647.0 294131.0 0
388980.0 292892.0 0
399809.0 297425.0 0
430527.0 295974.0 0
435600.0 295326.0 0
441425.0 292995.0 0
463934.0 294085.0 0
5576.43 299143.0 0
30674.9 302385.0 0
40981.1 299234.0 0
78850.0 298091.0 0
104572.0 299688.0 0
110496.0 300621.0 0
114684.0 302084.0 0
199280.0 302057.0 0
204506.0 298632.0 0
213854.0 298882.0 0
209704.0 301803.0 0
217595.0 298267.0 0
222169.0 299042.0 0
227333.0 299246.0 0
232822.0 299188.0 0
238449.0 298785.0 0
242878.0 298816.0 0
247483.0 300310.0 0
251331.0 299259.0 0
255291.0 300143.0 0
260318.0 299115.0 0
270308.0 299600.0 0
275508.0 298090.0 0
275365.0 302738.0 0
280916.0 298876.0 0
286405.0 297919.0 0
290401.0 300598.0 0
295370.0 298322.0 0
306624.0 301121.0 0
321222.0 298136.0 0
349594.0 302480.0 0
394819.0 300915.0 0
406576.0 299709.0 0
412274.0 299389.0 0
420030.0 299342.0 0
425901.0 297888.0 0
466754.0 300542.0 0
470906.0 301899.0 0
13308.9 305833.0 0
118920.0 304574.0 0
123167.0 306830.0 0
190052.0 306251.0 0
194107.0 303179.0 0
203762.0 303523.0 0
207021.0 307407.0 0
215563.0 303057.0 0
222848.0 302839.0 0
219946.0 303779.0 0
226713.0 304904.0 0
231988.0 304234.0 0
236793.0 303825.0 0
241917.0 303024.0 0
242687.0 307571.0 0
246392.0 305094.0 0
252118.0 303440.0 0
251699.0 307572.0 0
259938.0 304338.0 0
255128.0 304877.0 0
265584.0 303662.0 0
270872.0 305523.0 0
280266.0 304750.0 0
285529.0 303009.0 0
289387.0 306713.0 0
294636.0 304472.0 0
336311.0 306452.0 0
351904.0 307894.0 0
355596.0 305280.0 0
389404.0 303082.0 0
417609.0 305467.0 0
431254.0 306794.0 0
4937.82 310060.0 0
2103.89 312620.0 0
9627.86 310313.0 0
187646.0 312489.0 0
203371.0 309737.0 0
213627.0 308358.0 0
209713.0 311568.0 0
218154.0 308359.0 0
222500.0 308223.0 0
228118.0 310161.0 0
233102.0 308814.0 0
237975.0 308617.0 0
241624.0 312218.0 0
247738.0 309290.0 0
255829.0 309054.0 0
260264.0 309397.0 0
265036.0 309052.0 0
269992.0 310886.0 0
275872.0 308869.0 0
280221.0 311680.0 0
284133.0 308878.0 0
288836.0 312268.0 0
294886.0 311100.0 0
329037.0 312907.0 0
341778.0 309919.0 0
361777.0 311634.0 0
367623.0 311686.0 0
378832.0 310414.0 0
204452.0 313371.0 0
208611.0 315851.0 0
213389.0 314054.0 0
218306.0 313019.0 0
218165.0 317773.0 0
222726.0 313132.0 0
222182.0 317848.0 0
226681.0 314691.0 0
231449.0 313483.0 0
236417.0 313407.0 0
247090.0 314405.0 0
253246.0 313616.0 0
258473.0 313672.0 0
262430.0 313017.0 0
261403.0 317898.0 0
266448.0 314908.0 0
273824.0 314244.0 0
278168.0 315184.0 0
282084.0 314710.0 0
285751.0 316173.0 0
289876.0 316946.0 0
294931.0 317857.0 0
320148.0 316244.0 0
325382.0 316634.0 0
371598.0 315249.0 0
375018.0 317182.0 0
385884.0 314435.0 0
390115.0 316791.0 0
35193.8 320469.0 0
68661.0 320026.0 0
74935.4 321629.0 0
139476.0 320729.0 0
144683.0 321429.0 0
154306.0 322559.0 0
204665.0 319023.0 0
208958.0 321404.0 0
213534.0 319271.0 0
225758.0 319259.0 0
230740.0 318964.0 0
236519.0 318626.0 0
242380.0 318565.0 0
247901.0 319972.0 0
252047.0 318481.0 0
256535.0 318280.0 0
266160.0 320771.0 0
271274.0 318218.0 0
276404.0 320273.0 0
281975.0 319172.0 0
287124.0 321177.0 0
292000.0 322133.0 0
302840.0 322767.0 0
315116.0 318368.0 0
61778.3 325785.0 0
68580.0 324399.0 0
71617.3 325914.0 0
90847.8 323984.0 0
137181.0 325443.0 0
149546.0 324365.0 0
157366.0 326717.0 0
161601.0 323445.0 0
295743.0 323968.0 0
300503.0 326897.0 0
306217.0 326077.0 0
78448.2 331266.0 0
81810.3 328451.0 0
132100.0 328794.0 0
135499.0 332317.0 0
309713.0 331241.0 0
305097.0 336718.0 0
308845.0 335783.0 0
185974.0 339001.0 0
197715.0 342804.0 0
142495.0 344913.0 0
138284.0 347541.0 0
193738.0 351039.0 0
1675.19 375612.0 0
5466.34 375226.0 0
9922.94 375284.0 0
14387.1 375200.0 0
18548.7 375143.0 0
23089.8 375106.0 0
26983.5 375425.0 0
30849.7 375245.0 0
34518.9 375525.0 0
37434.0 375617.0 0
41325.5 375478.0 0
45994.7 375119.0 0
49375.5 375248.0 0
53080.5 375814.0 0
57180.0 375453.0 0
61228.0 375917.0 0
65958.3 375036.0 0
69530.4 375481.0 0
72931.2 375647.0 0
76709.2 375176.0 0
80874.3 375348.0 0
85456.3 375216.0 0
90444.7 375326.0 0
94844.1 375264.0 0
99444.6 375298.0 0
103525.0 375355.0 0
107426.0 375279.0 0
111437.0 375257.0 0
115771.0 375173.0 0
119901.0 375549.0 0
124092.0 375107.0 0
129570.0 375494.0 0
133459.0 375544.0 0
136255.0 375534.0 0
142524.0 375548.0 0
139470.0 375472.0 0
145818.0 375364.0 0
150404.0 375871.0 0
154668.0 375163.0 0
158499.0 375865.0 0
162485.0 375722.0 0
166287.0 375297.0 0
170312.0 375333.0 0
173489.0 375427.0 0
177421.0 375060.0 0
182056.0 375128.0 0
179588.0 376809.0 0
185632.0 375400.0 0
189442.0 375138.0 0
193016.0 375569.0 0
195820.0 375392.0 0
198585.0 375121.0 0
300812.0 376283.0 0
304632.0 375608.0 0
308246.0 376327.0 0
311662.0 375291.0 0
316340.0 375689.0 0
320448.0 375842.0 0
323689.0 375593.0 0
327151.0 375465.0 0
331264.0 375354.0 0
335553.0 375061.0 0
339481.0 375667.0 0
343381.0 375384.0 0
348404.0 375743.0 0
352534.0 375988.0 0
356152.0 375019.0 0
360760.0 375281.0 0
365633.0 375915.0 0
370331.0 375269.0 0
375876.0 375296.0 0
373048.0 377290.0 0
379858.0 375752.0 0
383770.0 375470.0 0
388151.0 376004.0 0
393349.0 375227.0 0
396867.0 375510.0 0
399841.0 375348.0 0
403782.0 375358.0 0
408090.0 375061.0 0
410129.0 377501.0 0
412679.0 375153.0 0
417374.0 375182.0 0
421602.0 375485.0 0
425809.0 375663.0 0
429478.0 375277.0 0
433467.0 375463.0 0
437804.0 375096.0 0
442370.0 375222.0 0
440568.0 377231.0 0
445754.0 375215.0 0
450809.0 375496.0 0
455540.0 375614.0 0
460489.0 375657.0 0
464771.0 375546.0 0
469454.0 375458.0 0
473697.0 375140.0 0
479037.0 375176.0 0
483921.0 375465.0 0
487724.0 375298.0 0
492689.0 375517.0 0
497565.0 375365.0 0
4054.38 378770.0 0
1268.29 378713.0 0
1387.61 381459.0 0
7748.28 378067.0 0
10030.3 380691.0 0
5663.28 382304.0 0
12131.5 378241.0 0
13870.5 382162.0 0
16162.8 379048.0 0
20697.2 378548.0 0
25249.4 378455.0 0
23303.1 382284.0 0
27020.5 381084.0 0
29012.9 378372.0 0
30222.5 381725.0 0
32893.2 378711.0 0
37370.8 378964.0 0
38799.5 382199.0 0
40780.5 379899.0 0
44826.9 377974.0 0
43895.1 381138.0 0
48704.9 377942.0 0
47835.3 381142.0 0
50963.9 382086.0 0
51936.6 379258.0 0
54480.9 382049.0 0
56517.9 379043.0 0
60103.2 380404.0 0
65120.7 379112.0 0
69443.6 378263.0 0
68447.4 382299.0 0
72088.1 380128.0 0
75057.1 378217.0 0
76024.0 382607.0 0
78752.0 378386.0 0
81213.5 381831.0 0
83352.6 378473.0 0
85656.8 381888.0 0
87862.7 378849.0 0
92772.5 379409.0 0
96962.5 378830.0 0
101211.0 378594.0 0
98871.5 381664.0 0
105076.0 378528.0 0
102653.0 382019.0 0
107241.0 382249.0 0
109378.0 378505.0 0
111635.0 382177.0 0
113454.0 378587.0 0
115405.0 381905.0 0
117756.0 378887.0 0
121811.0 379311.0 0
126621.0 379039.0 0
122862.0 382207.0 0
131006.0 379315.0 0
130144.0 381835.0 0
133697.0 378477.0 0
137454.0 378783.0 0
142447.0 379075.0 0
146701.0 378936.0 0
144437.0 382582.0 0
148065.0 381955.0 0
151305.0 380000.0 0
155098.0 378339.0 0
161128.0 378488.0 0
158674.0 379547.0 0
162264.0 380791.0 0
167975.0 377904.0 0
164741.0 378977.0 0
168262.0 381083.0 0
171410.0 378592.0 0
172142.0 382249.0 0
175469.0 378571.0 0
179597.0 379218.0 0
181340.0 381939.0 0
183003.0 378409.0 0
184707.0 381067.0 0
187171.0 378307.0 0
188071.0 382456.0 0
191383.0 378918.0 0
193927.0 381255.0 0
195427.0 378083.0 0
196799.0 381225.0 0
199148.0 377843.0 0
199642.0 381055.0 0
301194.0 380412.0 0
304648.0 379185.0 0
308392.0 380608.0 0
312494.0 378973.0 0
312521.0 382139.0 0
320703.0 379233.0 0
316848.0 380842.0 0
323552.0 378050.0 0
323766.0 381172.0 0
326011.0 378770.0 0
326808.0 381154.0 0
329638.0 379111.0 0
329377.0 382637.0 0
333730.0 378481.0 0
340601.0 378796.0 0
337575.0 377895.0 0
337509.0 380942.0 0
340678.0 382565.0 0
344714.0 379848.0 0
349282.0 380050.0 0
353514.0 380123.0 0
357521.0 377931.0 0
357895.0 381651.0 0
361695.0 379681.0 0
366439.0 380624.0 0
369673.0 379080.0 0
373015.0 380836.0 0
376989.0 379796.0 0
381261.0 379133.0 0
385034.0 378779.0 0
383414.0 382465.0 0
387827.0 381468.0 0
392064.0 379588.0 0
395440.0 381811.0 0
397368.0 378708.0 0
400223.0 381864.0 0
401758.0 378172.0 0
405978.0 377852.0 0
403961.0 380441.0 0
408276.0 381183.0 0
412342.0 380043.0 0
415150.0 377821.0 0
416322.0 382336.0 0
419154.0 378950.0 0
421180.0 382521.0 0
423418.0 379302.0 0
427131.0 379312.0 0
428289.0 382635.0 0
430457.0 378355.0 0
430284.0 380981.0 0
432260.0 381077.0 0
433999.0 378760.0 0
436760.0 378374.0 0
435542.0 382114.0 0
439202.0 380550.0 0
443791.0 379231.0 0
447863.0 378127.0 0
447685.0 382645.0 0
451397.0 379735.0 0
454317.0 379322.0 0
456181.0 382463.0 0
458546.0 379255.0 0
460120.0 382430.0 0
462776.0 379795.0 0
467174.0 378953.0 0
470200.0 381719.0 0
471708.0 378416.0 0
475386.0 378009.0 0
474537.0 381787.0 0
478566.0 379759.0 0
482127.0 378273.0 0
482393.0 382465.0 0
485668.0 378760.0 0
489497.0 378667.0 0
486721.0 382435.0 0
494366.0 379649.0 0
490868.0 382423.0 0
498517.0 378543.0 0
497990.0 382042.0 0
1884.53 384847.0 0
10105.4 384136.0 0
6198.44 387156.0 0
14529.7 386247.0 0
10391.4 387647.0 0
18513.4 383271.0 0
19340.3 387115.0 0
23112.6 386000.0 0
26959.1 384271.0 0
30817.0 385442.0 0
34886.9 382699.0 0
34789.2 387017.0 0
38412.9 385774.0 0
41210.9 386555.0 0
45086.9 383514.0 0
41479.0 383511.0 0
44173.9 386858.0 0
48596.6 384955.0 0
52244.2 384501.0 0
55807.6 385915.0 0
57444.9 382703.0 0
59843.3 384748.0 0
63703.4 383514.0 0
63246.1 387744.0 0
67167.7 385883.0 0
70426.5 387580.0 0
71721.5 384218.0 0
74881.8 387480.0 0
79264.5 385971.0 0
83730.6 385599.0 0
90289.8 382842.0 0
87470.3 385102.0 0
91330.3 387578.0 0
95076.8 383810.0 0
99791.7 385061.0 0
104586.0 385344.0 0
109427.0 385618.0 0
114485.0 385987.0 0
119084.0 383218.0 0
119275.0 387399.0 0
126435.0 383381.0 0
122675.0 385518.0 0
130179.0 385389.0 0
134057.0 382752.0 0
136794.0 386715.0 0
133243.0 387207.0 0
139475.0 382926.0 0
142535.0 386867.0 0
147303.0 385506.0 0
151120.0 384139.0 0
155476.0 382720.0 0
153737.0 386543.0 0
158109.0 387164.0 0
160038.0 382987.0 0
162402.0 385946.0 0
164989.0 383313.0 0
168978.0 385315.0 0
172930.0 385803.0 0
177005.0 383331.0 0
180958.0 386560.0 0
183864.0 383565.0 0
186080.0 386587.0 0
191535.0 382906.0 0
190313.0 386022.0 0
194775.0 385081.0 0
199138.0 384837.0 0
301286.0 384672.0 0
304730.0 382840.0 0
305118.0 386795.0 0
307418.0 384500.0 0
310782.0 384392.0 0
309124.0 387478.0 0
314198.0 384292.0 0
317580.0 386026.0 0
320874.0 383564.0 0
325846.0 385266.0 0
330865.0 386938.0 0
333559.0 382898.0 0
335595.0 387279.0 0
337501.0 384223.0 0
339988.0 386815.0 0
344103.0 384396.0 0
346414.0 386529.0 0
347826.0 383488.0 0
351269.0 383624.0 0
349395.0 386903.0 0
355240.0 384097.0 0
352943.0 386141.0 0
359618.0 384857.0 0
363410.0 383402.0 0
364310.0 386846.0 0
366847.0 384530.0 0
369943.0 383214.0 0
374586.0 385400.0 0
379268.0 383303.0 0
378992.0 387651.0 0
382030.0 385938.0 0
386200.0 386463.0 0
391913.0 385221.0 0
397078.0 385022.0 0
401041.0 385780.0 0
404590.0 384469.0 0
408617.0 385132.0 0
412219.0 383911.0 0
415207.0 386698.0 0
419149.0 385637.0 0
423160.0 387002.0 0
424795.0 383214.0 0
427616.0 386643.0 0
431846.0 384199.0 0
435794.0 386110.0 0
438725.0 384152.0 0
442428.0 383346.0 0
445120.0 386937.0 0
452442.0 383078.0 0
450301.0 386360.0 0
455064.0 386939.0 0
458994.0 385206.0 0
462620.0 383846.0 0
461552.0 386652.0 0
465742.0 382748.0 0
465559.0 386856.0 0
468659.0 384906.0 0
472320.0 385642.0 0
476331.0 385386.0 0
478470.0 383455.0 0
484233.0 386189.0 0
480078.0 387466.0 0
488405.0 386753.0 0
494100.0 385262.0 0
498380.0 385909.0 0
1903.39 388807.0 0
1448.32 392444.0 0
8836.1 390245.0 0
5555.09 391846.0 0
12171.7 390310.0 0
16663.7 390747.0 0
22569.7 390509.0 0
26891.4 388197.0 0
26749.7 392857.0 0
31875.9 390450.0 0
37215.7 389989.0 0
40973.2 389268.0 0
44525.9 391257.0 0
47878.5 388867.0 0
51841.6 387818.0 0
54813.0 389873.0 0
59072.1 388929.0 0
62325.4 391865.0 0
66990.7 390489.0 0
71808.7 390875.0 0
76067.6 391780.0 0
78766.0 389543.0 0
82441.5 389117.0 0
86657.5 388510.0 0
85070.0 391662.0 0
88712.7 391709.0 0
96650.9 388431.0 0
93496.5 392245.0 0
101746.0 388782.0 0
106881.0 388857.0 0
111089.0 388888.0 0
109483.0 392338.0 0
116608.0 389629.0 0
113473.0 390935.0 0
119721.0 390552.0 0
126364.0 387899.0 0
122817.0 389615.0 0
126523.0 391975.0 0
129983.0 389671.0 0
134105.0 391381.0 0
138862.0 390083.0 0
142946.0 392458.0 0
146853.0 389545.0 0
150684.0 387802.0 0
150722.0 391658.0 0
154596.0 389998.0 0
161730.0 389187.0 0
158933.0 392031.0 0
163425.0 391622.0 0
165841.0 388414.0 0
171037.0 389648.0 0
175808.0 387797.0 0
175081.0 391337.0 0
179053.0 390521.0 0
183910.0 390936.0 0
188707.0 390053.0 0
193164.0 389027.0 0
198232.0 389652.0 0
195110.0 392583.0 0
301051.0 388702.0 0
304516.0 390673.0 0
307481.0 390288.0 0
310574.0 391319.0 0
313386.0 388114.0 0
314529.0 392444.0 0
317475.0 390083.0 0
320465.0 392298.0 0
321949.0 388376.0 0
323969.0 392543.0 0
327640.0 390706.0 0
333031.0 390817.0 0
337438.0 390921.0 0
341694.0 390911.0 0
343906.0 387889.0 0
346692.0 390535.0 0
352030.0 390476.0 0
356063.0 387857.0 0
356424.0 391819.0 0
360576.0 389564.0 0
365091.0 390261.0 0
369351.0 388204.0 0
371549.0 392712.0 0
373441.0 389904.0 0
376542.0 390254.0 0
374710.0 392600.0 0
379436.0 391034.0 0
382343.0 389423.0 0
385189.0 391033.0 0
389571.0 390316.0 0
395826.0 388276.0 0
393652.0 389418.0 0
393551.0 392311.0 0
397019.0 391804.0 0
399442.0 388750.0 0
401683.0 392572.0 0
403229.0 388629.0 0
405316.0 391127.0 0
406995.0 388446.0 0
411236.0 388065.0 0
409258.0 392570.0 0
414422.0 391423.0 0
418456.0 389373.0 0
422140.0 391452.0 0
425857.0 390430.0 0
428901.0 390253.0 0
431979.0 388118.0 0
432009.0 392395.0 0
435922.0 390154.0 0
440362.0 387983.0 0
439342.0 392094.0 0
443900.0 391838.0 0
448044.0 389645.0 0
452073.0 390360.0 0
456244.0 391250.0 0
458978.0 388821.0 0
459868.0 392214.0 0
462981.0 389907.0 0
467547.0 391150.0 0
469296.0 387926.0 0
472140.0 389645.0 0
475408.0 387887.0 0
476798.0 391425.0 0
481356.0 391127.0 0
484388.0 389485.0 0
487760.0 390520.0 0
492318.0 389499.0 0
497663.0 389543.0 0
2777.88 396657.0 0
9750.91 393176.0 0
7516.23 395735.0 0
13055.5 393908.0 0
11203.2 397069.0 0
19921.7 393444.0 0
16780.2 397270.0 0
22547.3 395582.0 0
26406.3 397576.0 0
31498.4 395735.0 0
36070.0 393784.0 0
40345.9 392968.0 0
38157.3 395400.0 0
40797.4 397206.0 0
44547.9 394955.0 0
50481.3 393077.0 0
47384.9 396859.0 0
54234.5 396567.0 0
57297.2 393156.0 0
58160.1 397360.0 0
61489.8 395554.0 0
65693.6 394548.0 0
69727.6 394283.0 0
73489.6 393899.0 0
73260.9 397177.0 0
76925.5 395737.0 0
80758.1 393437.0 0
85437.9 395872.0 0
89911.0 395178.0 0
96152.6 394846.0 0
93782.9 397737.0 0
99134.8 392974.0 0
98007.7 397213.0 0
104360.0 393178.0 0
107564.0 396570.0 0
117249.0 392964.0 0
113054.0 395338.0 0
122144.0 393986.0 0
118062.0 396765.0 0
127199.0 396874.0 0
130026.0 393371.0 0
133018.0 396754.0 0
138044.0 394782.0 0
142119.0 397486.0 0
147262.0 393141.0 0
145724.0 395856.0 0
150035.0 396429.0 0
154402.0 394141.0 0
157995.0 397036.0 0
162923.0 395871.0 0
167471.0 392999.0 0
172665.0 395320.0 0
177045.0 393909.0 0
177521.0 397528.0 0
180606.0 394318.0 0
184281.0 395142.0 0
187519.0 394066.0 0
191732.0 393272.0 0
190678.0 397260.0 0
196929.0 394277.0 0
194640.0 396007.0 0
198388.0 397291.0 0
199421.0 393747.0 0
301264.0 393469.0 0
306853.0 395128.0 0
311691.0 394842.0 0
315147.0 396484.0 0
318032.0 394346.0 0
322014.0 395577.0 0
326046.0 395585.0 0
330592.0 394868.0 0
335305.0 394434.0 0
339521.0 394355.0 0
337412.0 397519.0 0
343950.0 394421.0 0
348901.0 394595.0 0
353397.0 394995.0 0
359982.0 393470.0 0
357626.0 394992.0 0
361218.0 396881.0 0
363428.0 393523.0 0
365501.0 396732.0 0
367619.0 392999.0 0
369919.0 396467.0 0
374388.0 396430.0 0
377699.0 393595.0 0
378633.0 397349.0 0
382012.0 393962.0 0
384863.0 397508.0 0
386923.0 394182.0 0
391151.0 394763.0 0
395177.0 395173.0 0
393189.0 397518.0 0
399021.0 395297.0 0
402658.0 397811.0 0
405346.0 394466.0 0
412837.0 396036.0 0
418410.0 394608.0 0
422677.0 395534.0 0
425075.0 393708.0 0
426192.0 397291.0 0
428073.0 393551.0 0
430821.0 396503.0 0
435664.0 394853.0 0
437627.0 397605.0 0
440838.0 395752.0 0
445343.0 396301.0 0
448519.0 393382.0 0
450164.0 397355.0 0
453272.0 394038.0 0
457345.0 394982.0 0
460976.0 395715.0 0
463841.0 397765.0 0
464056.0 393812.0 0
467467.0 395870.0 0
471418.0 393505.0 0
475513.0 396235.0 0
480443.0 394807.0 0
484914.0 393539.0 0
486832.0 397060.0 0
490040.0 393762.0 0
494333.0 396926.0 0
498821.0 392896.0 0
495144.0 392967.0 0
498355.0 396004.0 0
2889.27 402390.0 0
7815.64 399835.0 0
12403.3 401466.0 0
17583.9 402819.0 0
21832.7 399907.0 0
25747.9 401815.0 0
30706.0 400918.0 0
36001.1 398376.0 0
40136.5 402023.0 0
44960.0 400211.0 0
50505.3 399570.0 0
55532.7 400987.0 0
61138.3 400815.0 0
64550.4 398155.0 0
65360.5 402105.0 0
68801.9 398852.0 0
73560.1 401441.0 0
76590.8 398985.0 0
80602.8 398495.0 0
77942.0 402130.0 0
81438.6 402453.0 0
84787.1 400682.0 0
89196.4 399444.0 0
93177.2 402304.0 0
102009.0 398024.0 0
97763.7 401168.0 0
105502.0 400745.0 0
110866.0 400777.0 0
115371.0 399167.0 0
115727.0 402992.0 0
122034.0 398997.0 0
118348.0 400390.0 0
125500.0 402783.0 0
130004.0 400658.0 0
134073.0 401624.0 0
137973.0 399392.0 0
142271.0 401961.0 0
146404.0 399828.0 0
150877.0 401686.0 0
153681.0 398279.0 0
155987.0 401753.0 0
161182.0 401464.0 0
164362.0 399734.0 0
167610.0 398056.0 0
165524.0 402333.0 0
171507.0 399438.0 0
169616.0 402999.0 0
174708.0 401145.0 0
182126.0 398109.0 0
179556.0 401304.0 0
186473.0 398058.0 0
184484.0 401609.0 0
189366.0 401519.0 0
194626.0 400527.0 0
199108.0 400866.0 0
302206.0 398014.0 0
301449.0 402579.0 0
306697.0 401153.0 0
311041.0 398906.0 0
315534.0 400940.0 0
319185.0 398010.0 0
320219.0 402341.0 0
323864.0 399343.0 0
328593.0 398812.0 0
330954.0 401736.0 0
327008.0 402658.0 0
333560.0 399021.0 0
337853.0 401362.0 0
341255.0 398039.0 0
346117.0 398585.0 0
342690.0 402763.0 0
350895.0 399033.0 0
356190.0 399111.0 0
360208.0 400105.0 0
363820.0 400985.0 0
367928.0 399454.0 0
371887.0 400661.0 0
376143.0 400699.0 0
380155.0 401352.0 0
381800.0 398486.0 0
384504.0 401875.0 0
388977.0 398622.0 0
393139.0 400990.0 0
397190.0 398887.0 0
400747.0 401819.0 0
405295.0 402739.0 0
408236.0 398263.0 0
409742.0 402421.0 0
412688.0 400563.0 0
416316.0 398697.0 0
421230.0 399340.0 0
425506.0 401510.0 0
428344.0 402883.0 0
429391.0 400131.0 0
434298.0 400226.0 0
438984.0 399513.0 0
442426.0 399915.0 0
446923.0 400753.0 0
451746.0 401822.0 0
454810.0 398492.0 0
455804.0 402588.0 0
459424.0 399178.0 0
463479.0 401876.0 0
467193.0 399974.0 0
471055.0 398213.0 0
474571.0 400437.0 0
479023.0 399481.0 0
483320.0 398369.0 0
482125.0 402814.0 0
486587.0 401437.0 0
490194.0 398304.0 0
490359.0 401587.0 0
493644.0 400951.0 0
497826.0 399890.0 0
3376.44 407989.0 0
8284.4 404896.0 0
13452.1 406758.0 0
18497.7 406693.0 0
22441.2 404678.0 0
27455.9 405336.0 0
31467.9 405413.0 0
35444.2 403303.0 0
34515.8 407552.0 0
39038.8 407105.0 0
44008.9 405726.0 0
47897.7 403630.0 0
48694.4 408033.0 0
51718.6 404225.0 0
55479.2 405037.0 0
58845.6 404174.0 0
58063.6 407745.0 0
63209.2 406253.0 0
69244.3 404394.0 0
75050.0 405943.0 0
79851.7 405611.0 0
84334.7 405000.0 0
88571.3 403713.0 0
91862.6 405897.0 0
96650.2 405713.0 0
101790.0 403662.0 0
100516.0 407618.0 0
106964.0 404660.0 0
104344.0 407820.0 0
111921.0 405943.0 0
117230.0 407437.0 0
120184.0 403324.0 0
122219.0 406742.0 0
126199.0 408034.0 0
130487.0 405321.0 0
135083.0 405425.0 0
138572.0 403855.0 0
142349.0 406607.0 0
138061.0 408019.0 0
146202.0 404164.0 0
150011.0 405819.0 0
154270.0 405874.0 0
158805.0 405593.0 0
163618.0 405878.0 0
168475.0 407788.0 0
173242.0 405881.0 0
177036.0 404360.0 0
181585.0 405588.0 0
187259.0 405675.0 0
192882.0 405944.0 0
198032.0 404210.0 0
304780.0 405219.0 0
301450.0 407489.0 0
307769.0 405855.0 0
311448.0 404307.0 0
316642.0 405674.0 0
321329.0 406825.0 0
323717.0 403724.0 0
325702.0 407021.0 0
330289.0 405815.0 0
334401.0 403720.0 0
338653.0 406570.0 0
343121.0 406962.0 0
348058.0 403459.0 0
350661.0 407135.0 0
353200.0 403503.0 0
359050.0 404475.0 0
364035.0 406399.0 0
368174.0 403481.0 0
370859.0 406035.0 0
367984.0 408161.0 0
374108.0 404674.0 0
377843.0 404200.0 0
381307.0 405376.0 0
385908.0 406722.0 0
388998.0 403086.0 0
390318.0 406513.0 0
392812.0 404524.0 0
396814.0 403993.0 0
398114.0 406989.0 0
401306.0 405960.0 0
405643.0 405983.0 0
409133.0 406381.0 0
412607.0 403844.0 0
416853.0 403067.0 0
414179.0 407763.0 0
418977.0 406825.0 0
422132.0 404304.0 0
426887.0 405977.0 0
431043.0 403779.0 0
431074.0 407897.0 0
434759.0 405249.0 0
438257.0 407057.0 0
438842.0 403102.0 0
441421.0 407497.0 0
443421.0 404340.0 0
448756.0 405685.0 0
453392.0 405069.0 0
457028.0 406953.0 0
459395.0 403465.0 0
461992.0 406354.0 0
466183.0 405443.0 0
470919.0 403276.0 0
473843.0 406925.0 0
477262.0 403916.0 0
477275.0 408126.0 0
481238.0 407331.0 0
485165.0 405295.0 0
490962.0 406081.0 0
495529.0 403586.0 0
498596.0 403491.0 0
497392.0 407476.0 0
1629.83 411989.0 0
8695.39 409515.0 0
5569.21 412642.0 0
12799.5 412000.0 0
17646.4 410764.0 0
21268.5 408347.0 0
25095.1 408671.0 0
22145.2 411668.0 0
30228.7 409912.0 0
26013.4 412654.0 0
36041.6 411784.0 0
41182.1 411254.0 0
44818.2 410010.0 0
47625.8 411906.0 0
53427.3 408291.0 0
51541.2 412245.0 0
56320.9 411727.0 0
60492.1 410391.0 0
64152.1 411924.0 0
67331.2 408952.0 0
71503.7 408704.0 0
74465.6 410109.0 0
78211.4 409481.0 0
82832.0 409066.0 0
85500.1 412151.0 0
88026.6 408478.0 0
93050.2 409425.0 0
94728.5 413224.0 0
97699.3 410281.0 0
102006.0 411452.0 0
106741.0 411633.0 0
108367.0 408184.0 0
112072.0 410912.0 0
117261.0 412669.0 0
121589.0 410571.0 0
125740.0 412845.0 0
130317.0 410659.0 0
134094.0 408438.0 0
140767.0 411123.0 0
146879.0 408782.0 0
143652.0 409620.0 0
144613.0 412896.0 0
151743.0 409637.0 0
148912.0 413031.0 0
156025.0 409560.0 0
158126.0 412714.0 0
160355.0 409255.0 0
161744.0 413191.0 0
164630.0 410379.0 0
168349.0 412460.0 0
172693.0 410877.0 0
177027.0 408379.0 0
180919.0 410114.0 0
184608.0 409130.0 0
188953.0 410602.0 0
193889.0 411276.0 0
198073.0 408565.0 0
305438.0 408875.0 0
301877.0 411603.0 0
309505.0 408985.0 0
313399.0 408386.0 0
312328.0 412627.0 0
317992.0 411201.0 0
323681.0 410937.0 0
329072.0 410957.0 0
334117.0 408603.0 0
333630.0 412740.0 0
337774.0 411600.0 0
342208.0 410641.0 0
346602.0 408433.0 0
346204.0 413163.0 0
350674.0 411236.0 0
355144.0 408504.0 0
360445.0 410263.0 0
364960.0 410555.0 0
368464.0 411667.0 0
372349.0 409510.0 0
375057.0 413039.0 0
377313.0 408284.0 0
378944.0 412188.0 0
382018.0 409559.0 0
386296.0 411663.0 0
389604.0 409446.0 0
394416.0 408482.0 0
396517.0 412569.0 0
399374.0 409730.0 0
404731.0 409805.0 0
410248.0 411423.0 0
415098.0 413060.0 0
418412.0 410333.0 0
423308.0 409555.0 0
427756.0 410305.0 0
431263.0 413072.0 0
435190.0 409721.0 0
440208.0 411616.0 0
444664.0 408759.0 0
448582.0 410502.0 0
445311.0 413123.0 0
452871.0 409015.0 0
456546.0 412072.0 0
460178.0 409604.0 0
464372.0 409734.0 0
469434.0 409269.0 0
474403.0 410774.0 0
478523.0 411129.0 0
482403.0 412029.0 0
486001.0 409512.0 0
493999.0 410739.0 0
489984.0 411993.0 0
497932.0 412173.0 0
2425.2 416012.0 0
9148.18 413645.0 0
7230.81 417665.0 0
12026.7 416636.0 0
19776.8 414224.0 0
16419.5 415352.0 0
22910.2 415415.0 0
28936.2 413616.0 0
27634.5 417345.0 0
32060.1 414846.0 0
35822.2 416604.0 0
39835.7 415411.0 0
44430.4 414331.0 0
42581.3 418191.0 0
48753.8 415157.0 0
50456.3 418088.0 0
54704.9 416547.0 0
59894.6 414523.0 0
64199.9 416711.0 0
69931.1 414061.0 0
75933.6 413445.0 0
74816.4 417553.0 0
80934.5 413801.0 0
85498.4 415947.0 0
82577.0 417262.0 0
89822.7 413662.0 0
93970.0 418072.0 0
98787.1 414923.0 0
104113.0 416478.0 0
109652.0 415612.0 0
113752.0 415353.0 0
117122.0 417525.0 0
121672.0 415489.0 0
130262.0 416566.0 0
135838.0 413269.0 0
141050.0 416348.0 0
146137.0 416894.0 0
150193.0 416656.0 0
153810.0 413787.0 0
157891.0 416585.0 0
162176.0 417159.0 0
165164.0 414231.0 0
167383.0 417880.0 0
171173.0 415251.0 0
177724.0 413668.0 0
174338.0 416444.0 0
181150.0 417277.0 0
183950.0 413634.0 0
188232.0 415088.0 0
191352.0 414154.0 0
198103.0 413669.0 0
194422.0 415290.0 0
301843.0 415560.0 0
306714.0 413555.0 0
310890.0 416939.0 0
315761.0 416824.0 0
320849.0 415754.0 0
325860.0 415145.0 0
330915.0 416005.0 0
336630.0 416660.0 0
341922.0 415110.0 0
346012.0 417909.0 0
350448.0 415884.0 0
355801.0 413946.0 0
360693.0 414838.0 0
365247.0 414653.0 0
362534.0 418139.0 0
370451.0 415523.0 0
374762.0 417058.0 0
378482.0 416038.0 0
382467.0 414164.0 0
386791.0 416922.0 0
391472.0 413641.0 0
395815.0 416848.0 0
400947.0 414664.0 0
406711.0 415245.0 0
411726.0 416569.0 0
416371.0 417234.0 0
420669.0 414831.0 0
426181.0 414158.0 0
435819.0 413395.0 0
434489.0 416915.0 0
438231.0 415667.0 0
442280.0 416679.0 0
447510.0 417609.0 0
451581.0 414056.0 0
455581.0 416546.0 0
461433.0 413823.0 0
466675.0 413823.0 0
469238.0 418270.0 0
464324.0 418334.0 0
471552.0 414232.0 0
479424.0 414433.0 0
475998.0 414575.0 0
478391.0 417844.0 0
482450.0 416295.0 0
486284.0 414230.0 0
490343.0 416357.0 0
494375.0 414604.0 0
497986.0 416111.0 0
2730.85 420997.0 0
7244.66 422100.0 0
11011.1 420965.0 0
15300.0 419713.0 0
19848.9 418514.0 0
18526.2 422389.0 0
23699.0 418964.0 0
22976.8 422655.0 0
28465.0 422825.0 0
32629.1 419402.0 0
38410.9 420592.0 0
43855.5 422453.0 0
46534.4 418380.0 0
49388.4 422160.0 0
54956.2 422324.0 0
59710.6 419301.0 0
64248.2 421627.0 0
67621.9 419130.0 0
71347.8 419522.0 0
74850.4 422537.0 0
79175.9 419225.0 0
84148.3 420144.0 0
88722.8 419080.0 0
99368.4 420511.0 0
104218.0 421612.0 0
108294.0 420380.0 0
112947.0 419487.0 0
116707.0 421558.0 0
120905.0 420291.0 0
125404.0 418920.0 0
135836.0 419653.0 0
140071.0 420157.0 0
139587.0 423160.0 0
143658.0 421051.0 0
148886.0 420984.0 0
153826.0 418974.0 0
158810.0 421822.0 0
163933.0 421154.0 0
167945.0 423232.0 0
172358.0 420191.0 0
177122.0 418704.0 0
176538.0 422998.0 0
181016.0 421598.0 0
185747.0 418937.0 0
191372.0 418410.0 0
189266.0 422511.0 0
193536.0 423252.0 0
197231.0 418991.0 0
302248.0 419960.0 0
305914.0 422931.0 0
306675.0 418727.0 0
310555.0 421499.0 0
315199.0 421573.0 0
319447.0 420340.0 0
323561.0 418996.0 0
327868.0 419878.0 0
332614.0 420718.0 0
336906.0 422012.0 0
341394.0 420327.0 0
345879.0 422842.0 0
350184.0 420864.0 0
354207.0 418655.0 0
358466.0 418595.0 0
361690.0 423129.0 0
366668.0 419572.0 0
372009.0 421024.0 0
377441.0 420425.0 0
382106.0 418994.0 0
386350.0 422730.0 0
391643.0 419856.0 0
398904.0 419822.0 0
403662.0 419384.0 0
405634.0 423316.0 0
408421.0 419970.0 0
414298.0 421193.0 0
419612.0 420187.0 0
424233.0 418426.0 0
426133.0 422076.0 0
429499.0 418377.0 0
434023.0 420856.0 0
438565.0 420015.0 0
443685.0 421474.0 0
452080.0 418379.0 0
449863.0 421930.0 0
455478.0 422110.0 0
459546.0 418444.0 0
466819.0 422101.0 0
473962.0 418376.0 0
471581.0 423072.0 0
476932.0 422107.0 0
481703.0 420759.0 0
486220.0 418896.0 0
494104.0 418431.0 0
490514.0 421631.0 0
494627.0 422136.0 0
497868.0 420235.0 0
1119.91 424656.0 0
4805.97 425938.0 0
1166.98 427189.0 0
9795.45 425466.0 0
14505.5 424421.0 0
19610.2 427268.0 0
25328.8 427203.0 0
30273.0 427679.0 0
33909.3 424089.0 0
38493.4 425767.0 0
42709.4 427217.0 0
47023.0 426395.0 0
51802.8 426882.0 0
56376.0 427258.0 0
60098.2 424463.0 0
64783.0 426705.0 0
69257.8 423715.0 0
73011.1 427267.0 0
81317.2 423873.0 0
77548.0 426542.0 0
87114.8 424765.0 0
91440.1 428046.0 0
92902.3 423568.0 0
97423.4 425639.0 0
102085.0 425091.0 0
107026.0 425321.0 0
111470.0 423670.0 0
115469.0 425525.0 0
119368.0 424018.0 0
120381.0 428119.0 0
123531.0 424061.0 0
125444.0 428250.0 0
129685.0 423479.0 0
135384.0 424493.0 0
133667.0 428483.0 0
138545.0 427461.0 0
142869.0 425751.0 0
146297.0 424318.0 0
149106.0 425080.0 0
153315.0 424460.0 0
157918.0 427985.0 0
163072.0 425874.0 0
167405.0 428067.0 0
172593.0 426476.0 0
177060.0 426455.0 0
180702.0 426798.0 0
185245.0 424255.0 0
189864.0 427824.0 0
198078.0 424231.0 0
195328.0 427582.0 0
301973.0 424567.0 0
305459.0 427528.0 0
308902.0 425515.0 0
313215.0 425939.0 0
318414.0 425443.0 0
324048.0 423933.0 0
329543.0 424675.0 0
334270.0 425399.0 0
340000.0 426585.0 0
345381.0 426924.0 0
349861.0 425964.0 0
355226.0 423554.0 0
358442.0 428380.0 0
367808.0 425415.0 0
375962.0 426332.0 0
381110.0 423555.0 0
383490.0 427382.0 0
390966.0 424503.0 0
388217.0 427880.0 0
395766.0 423552.0 0
393409.0 428434.0 0
398311.0 427839.0 0
401063.0 423951.0 0
401749.0 427643.0 0
405538.0 427940.0 0
410151.0 424699.0 0
414184.0 427512.0 0
417708.0 424607.0 0
422297.0 424217.0 0
426190.0 425972.0 0
430741.0 424345.0 0
436696.0 425004.0 0
442150.0 426690.0 0
446718.0 425006.0 0
451585.0 427305.0 0
457626.0 427511.0 0
461847.0 423553.0 0
467120.0 426943.0 0
475499.0 427769.0 0
480911.0 425412.0 0
484848.0 427470.0 0
485391.0 423492.0 0
488929.0 426363.0 0
493542.0 425617.0 0
497841.0 424630.0 0
2473.12 430415.0 0
4937.07 433358.0 0
7809.96 430145.0 0
12929.9 429332.0 0
17226.9 433024.0 0
22525.7 431915.0 0
27552.6 432056.0 0
34965.7 429154.0 0
39527.1 430124.0 0
43320.4 431329.0 0
48480.3 431834.0 0
54352.5 431307.0 0
60478.0 429855.0 0
65637.8 431947.0 0
68909.7 428585.0 0
71612.7 431547.0 0
76015.3 430905.0 0
82309.5 429621.0 0
85748.7 433207.0 0
87777.0 430203.0 0
91363.9 432559.0 0
95507.4 430150.0 0
100716.0 429670.0 0
106106.0 430681.0 0
111414.0 428750.0 0
109954.0 433229.0 0
116067.0 429779.0 0
114216.0 433646.0 0
118924.0 432897.0 0
123072.0 431847.0 0
126892.0 432432.0 0
129475.0 429458.0 0
136998.0 433007.0 0
142191.0 430875.0 0
147018.0 428750.0 0
151878.0 429076.0 0
154753.0 432714.0 0
159853.0 433047.0 0
163789.0 430664.0 0
167821.0 432509.0 0
172593.0 432338.0 0
177039.0 430078.0 0
181554.0 431626.0 0
184635.0 428731.0 0
186426.0 432776.0 0
198290.0 430331.0 0
193979.0 432752.0 0
301490.0 428572.0 0
303854.0 432471.0 0
310150.0 431403.0 0
316015.0 430102.0 0
319824.0 433322.0 0
322051.0 428972.0 0
324292.0 432405.0 0
326754.0 428841.0 0
331536.0 429120.0 0
336081.0 431662.0 0
340933.0 433559.0 0
343947.0 430500.0 0
348416.0 431090.0 0
353386.0 429906.0 0
356961.0 433189.0 0
363373.0 428654.0 0
366943.0 430375.0 0
368338.0 433610.0 0
371235.0 430205.0 0
376036.0 431510.0 0
380015.0 430814.0 0
384957.0 432171.0 0
390132.0 432582.0 0
396948.0 432495.0 0
401621.0 431079.0 0
406186.0 433265.0 0
410157.0 429933.0 0
414636.0 432792.0 0
418398.0 429081.0 0
423255.0 429299.0 0
428712.0 429982.0 0
432916.0 433605.0 0
433494.0 428846.0 0
438065.0 430574.0 0
443086.0 432054.0 0
446576.0 429137.0 0
449601.0 432748.0 0
454996.0 431297.0 0
462199.0 428929.0 0
459465.0 433060.0 0
465535.0 431970.0 0
470684.0 431634.0 0
477245.0 433465.0 0
481187.0 430302.0 0
486324.0 432092.0 0
492358.0 430680.0 0
497606.0 428984.0 0
497933.0 433373.0 0
11109.8 435011.0 0
32739.4 433977.0 0
38075.7 434594.0 0
58234.7 434669.0 0
79087.5 434282.0 0
97175.8 434911.0 0
102487.0 434837.0 0
373682.0 433968.0 0
420223.0 433719.0 0
425319.0 433992.0 0
481858.0 434577.0 0
490282.0 435610.0 0
494439.0 435280.0 0
POINT_DATA 5000
SCALARS Radius float 1
LOOKUP_TABLE default
4796.58 3979.26 3471.03 5253.55 5820.48 5782.6 4862.21 5113.21 3929.19 4107.03 5379.87 5925.6 4792.73 4736.58 4931.38 3485.26 4329.05 4151.94 4049.23 5337.48 6124.89 5708.81 5495.39 4665.12 3383.4 4133.88 4834.9 3850.77 6044.04 5415.48 5120.0 3863.18 4998.37 6182.6 5492.18 5258.36 3163.97 5812.43 5906.14 7513.1 5254.28 5733.48 4672.91 5580.89 5645.7 6810.52 5840.26 6110.27 5073.35 5670.04 4380.59 6716.79 7613.27 5529.52 4951.03 5255.32 6037.08 5096.78 6756.95 4129.43 6324.23 3843.58 3320.52 4194.5 4270.53 5344.25 5191.63 4593.7 4150.99 4216.92 4742.68 4344.58 5634.83 5495.84 6268.1 4861.06 5320.28 6739.08 4797.52 4569.12 4298.67 5960.66 6608.73 7034.11 6261.42 4502.5 4043.57 4478.15 4271.69 5681.38 4138.42 4501.51 3708.04 5513.6 3240.09 4556.36 6082.81 3191.99 4685.34 5601.05 4929.8 3586.91 5252.48 3554.9 4780.03 4015.92 5542.21 4487.31 3996.0 3856.1 3936.02 4044.71 5980.74 4094.62 4927.02 5546.39 5325.36 5484.83 5085.53 5351.6 2356.98 4730.36 4715.55 5867.73 3951.75 5013.56 5061.3 3642.12 4375.68 5542.27 5054.98 5122.66 5484.19 3557.27 4688.68 4436.4 4402.52 4517.56 4182.53 5903.42 3588.44 3761.32 5176.86 4118.05 4366.19 5553.16 3672.51 2938.66 5561.06 4231.61 4008.92 3615.22 3942.53 3379.84 3589.27 4827.82 3997.1 3607.45 3260.67 5759.91 5123.52 3038.33 4392.68 4333.2 7199.21 4523.7 2240.39 5091.39 5293.9 6142.94 3912.37 4727.24 4602.25 4790.08 5082.47 4763.45 5445.87 3815.26 4704.72 4177.94 4571.7 5896.46 3784.5 6481.79 5374.51 7042.12 6326.39 5873.69 4962.09 3999.48 5011.84 4359.62 6946.21 2586.12 5433.8 3771.48 4011.77 5499.11 5922.5 5198.77 5987.17 6013.14 4901.41 5110.37 5664.98 4382.74 4651.28 3693.63 4384.42 3103.0 4516.43 5481.78 5043.05 5816.2 5109.54 6483.19 5945.65 6759.9 5538.89 7021.47 5416.38 6059.59 4955.55 2720.68 5701.86 4499.64 3563.63 4238.81 4468.59 5885.03 6030.06 2837.58 5170.02 5200.76 4927.31 4862.64 5185.34 4432.58 6684.56 3968.64 3955.56 5292.64 6166.5 5065.13 5936.02 4940.78 4861.08 4003.05 4805.87 4712.33 5227.21 5697.78 4667.36 4091.31 6372.62 4295.38 5615.42 7565.34 5923.5 4612.68 4973.83 6342.25 6691.39 5135.69 5344.0 6045.46 4245.72 5908.1 6048.7 6133.92 3719.84 5022.8 4178.4 3095.48 3780.23 4166.08 4123.6 5224.12 4819.73 3382.7 6817.32 4471.58 4319.79 6098.14 4472.17 4203.26 5188.81 6057.22 5062.71 6125.34 4527.08 3633.87 5347.48 4850.01 3970.25 5147.67 3979.82 2765.2 5011.31 5138.31 5264.06 4659.59 6327.9 5927.43 6355.42 4362.19 5690.56 4948.92 3115.91 5637.59 4937.14 3307.12 5924.89 5693.81 4002.16 4174.52 3486.22 3829.13 6230.49 5418.62 5493.32 5740.68 5926.61 5836.15 4345.55 6704.06 3653.41 3871.88 5325.02 3856.01 5246.2 5017.13 5279.39 3673.74 5205.43 6116.18 7447.37 4688.67 4924.6 2635.86 4385.06 4733.32 7184.19 2924.37 5305.17 4290.3 3867.67 5399.73 4660.72 5390.22 3888.21 6038.78 6902.81 4254.17 5629.19 5090.24 5740.84 5530.87 4310.18 4281.49 5978.9 4187.56 3629.62 4997.27 4840.84 4301.06 4020.32 4290.14 6562.18 4156.38 5316.75 4541.21 4164.68 5669.65 5934.22 5624.49 5762.59 7092.87 4850.14 5163.55 3954.91 2965.01 6643.85 3637.61 6222.42 5654.31 4730.41 3745.84 5690.26 4156.2 5965.78 4810.12 5643.58 5215.05 4292.06 5577.04 5006.58 4602.86 3688.8 4548.16 3369.23 4048.37 5449.18 5492.26 5244.78 5762.84 3937.74 4749.8 4493.48 6084.86 5478.92 4778.34 4138.16 6894.71 4684.5 3091.3 4414.54 6458.82 7054.71 4601.27 3641.64 5489.43 5747.75 4277.89 6051.14 4796.33 3261.21 4195.44 5539.32 6496.85 5600.93 4874.39 5541.59 4390.66 4124.71 5728.85 4827.23 4911.47 5863.59 4381.97 6257.19 3255.82 2899.43 2812.98 4065.69 5603.15 4695.45 6052.7 3921.18 3798.62 5891.05 5308.1 3666.57 6644.76 5655.21 4786.6 4645.41 6445.94 5542.14 4218.06 7134.64 4716.19 5514.76 3456.98 3498.2 4877.67 3066.13 4302.5 6006.16 6009.88 7055.53 5013.67 5826.04 5339.78 4970.88 4143.78 4636.5 4666.81 3703.1 4940.42 5923.4 6471.55 5499.39 5501.93 5463.38 5945.21 4938.74 5696.88 5607.14 4497.59 3923.03 5975.63 4374.35 6396.74 4138.46 2775.04 3821.72 4986.77 6318.18 5586.81 4621.75 3948.17 4551.24 5358.59 4220.88 4515.71 6519.71 6640.13 5082.6 5810.84 4230.54 5551.36 5094.44 3748.24 4655.49 4467.94 4850.81 5789.98 6138.47 5527.54 5573.7 4727.62 5054.25 4055.8 7325.81 5280.17 5360.19 4794.96 6186.19 5083.08 6834.49 6337.56 5525.39 5803.39 4024.3 6394.38 5555.28 5242.73 4737.14 4686.65 5834.74 5556.96 5788.23 5581.75 6392.01 4907.89 6730.19 4937.02 4073.93 3735.44 6043.3 5952.75 4433.59 4320.28 6122.55 2739.94 4931.53 5480.13 6308.71 3323.28 6695.82 6405.76 5794.24 5105.16 5448.61 5050.65 4827.33 5206.48 5513.57 5729.23 3365.82 4538.95 5965.15 4763.66 6090.91 4946.42 5085.71 6116.33 5644.82 6343.14 5462.21 5750.71 5470.77 4831.47 4643.85 4004.04 5252.34 4289.17 5564.02 4274.61 2965.79 6898.19 6035.6 4481.53 5330.45 4581.13 3610.4 6387.01 5367.52 3092.35 4322.15 5210.03 5478.47 5351.39 6142.37 6061.47 4933.21 5375.47 6038.14 2540.31 5120.49 6029.66 5262.61 6302.8 5697.4 6038.2 4270.95 4005.44 5206.78 6732.43 6425.26 5143.58 4484.76 4839.34 4840.01 2980.99 7933.0 4455.12 3998.5 5173.87 5938.34 5380.13 5118.27 5169.36 5932.23 5791.61 3369.13 4479.66 3043.85 5461.13 4726.76 3599.45 4907.06 5489.34 5163.9 5708.14 5537.72 6332.36 6155.31 4223.33 5911.67 5709.62 5835.78 4127.74 2476.04 4678.38 3942.07 7443.72 3937.08 5260.34 4709.35 6586.45 4373.3 5226.0 4750.78 4163.5 5724.64 4780.2 5100.1 3561.29 4963.34 5019.93 3295.83 5081.78 4260.92 6263.44 5960.56 5774.97 4020.95 6313.06 3474.39 6470.3 6062.05 5082.74 6072.45 4410.55 5526.14 5137.34 5423.0 3856.59 4219.07 5413.79 6338.89 6202.55 5025.39 4714.54 3629.96 5893.5 3320.11 5030.91 6022.17 5119.37 6163.38 4566.18 4723.12 3459.9 4964.09 5201.36 5024.9 4306.53 5409.61 5094.81 5972.06 5713.22 5555.88 5028.96 3866.16 3794.63 6362.12 3778.1 5152.36 4511.82 5611.2 4220.65 6820.42 4816.2 4894.16 4896.52 5711.87 3372.79 4941.22 5282.64 4715.72 4669.66 4808.52 5367.2 5607.24 5053.92 5839.13 5495.68 4863.72 5002.48 4262.82 3920.42 5102.36 8332.24 4342.9 5069.84 4553.56 5329.64 4051.44 6049.55 5991.09 5133.97 6600.94 4788.58 5371.02 6155.1 5876.71 5029.78 6515.84 4888.6 5078.86 4918.77 4371.99 4219.78 3885.86 4459.28 5235.29 4479.94 6250.23 4118.84 5862.86 3493.7 4200.03 4719.7 6939.12 4735.33 6915.83 5092.37 6444.77 7099.43 4287.63 5198.29 5315.4 6449.45 5077.33 3975.31 4746.52 3689.45 5572.95 6723.16 5584.06 7111.16 4547.19 3817.13 5507.24 3982.23 4583.31 4503.89 5806.08 4853.39 4997.27 4093.08 4809.42 5543.27 4717.05 5659.17 6135.57 4312.67 5423.8 5861.71 4359.04 3183.98 4989.15 5017.78 4524.28 6175.81 4727.24 6677.09 5826.64 5201.67 6321.41 4089.76 4751.02 5526.55 3192.41 5184.56 4987.87 3315.57 5804.71 5046.33 4764.96 4242.52 5356.51 6352.26 3847.38 3818.59 4087.15 3057.03 4143.08 7500.97 6623.85 5228.18 5787.31 5065.11 4978.31 4050.9 4241.89 4099.77 5054.74 5941.72 4537.32 4656.78 5126.91 3600.43 5131.24 5196.67 6496.67 5474.8 6262.72 3664.11 5117.47 4925.63 2990.77 5882.65 4739.14 4434.19 5187.7 4188.3 6261.75 5177.64 4255.31 5453.3 6413.02 4863.27 3492.19 4584.5 5122.63 6049.79 4703.08 5374.98 5274.19 5516.95 4406.4 5411.85 4844.57 4027.46 6314.07 5776.37 4516.28 3627.82 4044.45 3824.16 5125.78 5344.43 3868.18 4373.47 5045.38 5350.88 5372.61 3686.21 6480.17 5023.15 4377.07 6851.54 3813.22 5570.3 4336.42 5243.29 7589.94 4449.22 3130.65 5856.11 5287.2 4109.88 4234.94 5998.38 5013.13 5080.66 4270.24 3417.33 4926.42 4164.13 5015.69 4642.34 4520.1 4947.52 5874.89 4305.57 4293.03 6959.81 4829.35 4389.21 3791.79 4424.7 4925.44 4754.05 6084.93 5215.15 3697.96 4739.42 5538.93 5020.12 4745.45 5727.3 2631.9 5281.28 6255.18 4277.88 4668.71 4758.21 7228.46 3948.23 5978.82 5266.5 3927.99 5868.82 4948.98 4414.48 5227.52 4092.24 4981.9 5163.02 7144.24 4906.82 5687.83 5004.23 6442.69 4648.04 6607.87 4721.32 3293.56 3163.78 5274.14 4903.82 5746.28 4623.61 4082.47 5511.6 4338.08 4378.3 6134.99 4094.73 4407.9 4440.57 5548.29 6766.43 2315.64 6345.13 5226.56 5313.22 4413.85 3905.51 3999.94 4470.98 4864.22 5759.46 3921.08 4190.31 5678.96 5262.19 4244.9 6070.58 6034.41 5130.91 5402.24 4519.22 6445.22 3844.9 5101.59 3963.86 3848.93 4306.11 5935.47 3402.32 5903.66 5628.24 5004.67 5365.89 3327.49 5992.26 3960.8 4562.29 5070.39 4980.85 5714.58 5110.45 5208.32 5248.77 4083.97 4607.02 5153.74 4528.09 3895.51 4165.81 5813.4 6291.51 4128.98 5882.89 6246.22 4951.47 4188.32 5246.61 4307.28 4100.38 5344.77 4723.48 4899.11 5097.87 4278.07 7267.18 5320.92 5269.18 4406.1 6362.14 5034.59 6719.88 4454.63 5080.18 4523.88 3279.1 4066.38 4403.98 4560.84 4729.43 5776.57 4562.74 5598.74 7493.3 6320.71 3464.83 5698.77 2477.07 6413.11 4305.16 5092.28 4965.89 5659.95 4152.85 2908.7 4453.64 4517.73 5469.47 5660.16 4989.56 4718.54 2588.37 6736.03 6235.57 3623.87 5916.16 4390.41 6113.95 5599.49 4097.57 5017.5 5563.79 3901.8 6171.13 5511.88 5083.41 7055.42 5486.68 6048.86 4285.32 5490.43 5022.28 5452.83 4959.34 4948.5 4527.02 4531.14 3695.36 4564.34 3838.56 4871.44 5076.35 6020.48 6375.99 5200.05 5234.29 4528.49 5313.66 5419.37 4466.03 4511.54 5409.33 5196.0 4923.9 4973.78 3329.99 3947.47 3296.27 4713.25 4204.84 6243.0 6673.96 3556.85 5441.96 3435.9 5174.89 4288.3 5370.52 4652.29 5774.81 3746.31 5498.32 5027.98 5346.27 6475.1 4969.21 2691.29 2845.98 6256.02 5314.85 4305.43 5450.44 4942.77 4263.33 5592.32 5912.61 5381.16 6193.35 6086.96 5233.78 5653.9 5046.21 5683.26 5894.61 5139.5 5304.13 5944.09 4814.55 5833.06 3527.05 4923.41 4497.31 5384.76 5529.42 5257.12 5243.43 4537.14 5551.9 3757.34 6415.61 4687.64 4419.71 5037.06 3838.47 4541.8 5175.29 5842.56 5412.31 3087.09 6934.37 4890.5 4050.08 5452.42 5328.22 6853.85 2395.5 4512.11 5782.48 5683.61 3836.45 5100.25 6894.26 4986.51 5197.52 5178.99 5383.07 4591.87 5013.42 4247.15 6552.22 5651.07 6248.81 5273.35 2651.49 4645.58 5512.23 5275.32 4898.94 4613.31 4733.04 6119.09 5788.66 5091.68 7531.29 5069.25 5048.89 3161.47 3991.03 6390.78 7435.25 6826.57 4788.87 4495.87 6022.72 4643.31 5527.33 5402.21 4989.09 4880.14 5289.52 4982.31 3848.54 4307.48 5941.4 5331.02 6510.17 5742.65 4871.96 4863.23 4402.67 4470.61 5565.13 4384.88 6887.27 3701.27 6008.49 4806.34 4287.53 5612.21 4929.14 5945.08 3979.54 3306.14 5490.58 4863.79 4702.06 3830.46 6031.67 4689.15 6138.12 4428.78 5409.66 4345.67 4765.72 4642.66 4752.14 5329.59 4888.12 4950.97 5512.16 3197.63 4863.96 5887.15 5203.08 7480.41 3423.15 4488.85 3981.07 3731.84 4901.07 5186.3 3436.15 3497.9 4151.76 5941.61 4020.4 3493.47 4596.75 6248.6 5443.58 4558.46 5805.86 4470.4 5339.38 6169.11 5615.35 4027.09 4790.78 6422.84 4502.18 5379.09 4602.85 4962.77 5872.05 4853.02 4091.8 6259.23 5181.4 5670.2 5985.29 4711.62 4247.23 4178.15 4268.65 4694.83 5509.42 4354.08 4256.43 5936.36 4520.62 3903.75 4755.47 5935.03 4485.99 5127.16 5475.8 5314.69 6050.81 4249.46 5965.81 3702.37 5660.85 2330.66 4177.19 6917.52 3587.05 6229.37 6718.19 5282.91 4425.84 7256.35 4800.69 3555.86 6386.78 4631.83 4996.99 6081.14 5480.83 4220.46 5128.57 6000.7 3169.67 5604.21 4968.03 3361.92 6710.88 5395.14 3967.48 6213.04 3685.13 6790.73 4655.16 5251.4 3867.19 5857.79 4039.91 5276.7 5036.58 6119.63 5411.02 4752.9 4287.16 5199.44 5191.08 4062.5 4435.51 5374.07 5163.77 4588.7 3766.55 4579.69 3554.48 6496.52 5005.85 4216.17 6484.17 4721.02 4254.37 3374.08 4933.65 4031.78 6098.1 5708.99 4049.02 5346.68 5311.03 5255.12 5296.29 4611.53 4896.11 4285.66 5172.53 5801.99 5210.48 7552.94 5323.3 5088.44 4998.21 4662.56 4114.24 5349.31 2976.22 4649.22 5394.55 5094.52 4946.74 2682.24 5928.32 5229.48 5475.7 4016.18 5526.75 5435.74 4244.99 5327.45 5543.46 5560.26 6185.89 3997.96 4750.17 4439.35 3460.94 3990.25 3691.0 3758.07 4752.51 4236.14 4407.87 5733.62 5282.51 4460.92 3797.33 5945.89 4042.28 4105.55 4340.76 6566.1 6065.22 4221.28 4456.39 4896.39 3633.79 5421.53 5937.08 4607.85 6070.3 5233.29 4312.56 4612.06 5204.04 4750.58 6667.68 5235.11 6622.11 5211.38 4590.55 5920.32 4255.85 5097.69 3988.3 6543.13 5149.72 5464.25 5486.48 5301.47 4617.55 5424.88 5415.85 8659.64 5683.95 6027.62 5010.2 6123.03 5966.61 5711.11 4575.94 4938.72 3546.71 5768.57 5564.23 5950.04 5687.85 4231.83 2435.33 6401.43 5020.71 2681.29 5094.48 3872.61 4238.4 4135.62 4318.48 6132.95 5534.94 4860.33 7644.38 4051.34 6101.92 3627.55 6239.84 4635.6 4256.67 3457.48 5166.79 3931.07 3405.98 5417.15 3688.16 4681.72 4945.39 5996.33 3950.63 5415.19 4612.62 3619.07 4275.57 4467.04 6385.23 2983.99 2614.4 6363.92 6205.93 4923.24 5830.72 6184.4 3828.81 4373.45 4082.57 5255.18 5169.9 3004.16 4767.78 5235.17 4421.12 4779.5 5254.49 6649.96 4303.19 5514.84 5784.3 3914.2 4256.57 6088.68 4135.08 5620.74 4778.82 6124.08 5467.84 5053.95 5926.11 5253.37 5767.9 6515.8 5089.62 5869.4 4741.26 3701.16 4186.6 5895.77 4732.09 6136.49 4356.25 4216.95 5776.96 5742.74 4244.21 4947.24 3645.12 3875.05 6200.54 5148.58 4199.45 5469.13 4233.8 5765.42 4997.83 4893.49 5325.44 5021.88 5956.65 4498.25 4188.87 3735.24 6574.95 4074.48 4558.47 5997.88 5839.71 5576.92 6408.83 5266.22 3930.79 5226.97 3685.13 3312.06 6004.68 3361.26 6799.4 5278.36 5865.39 4427.28 6079.11 3082.32 6430.39 7440.72 3949.6 5703.6 6326.18 5661.62 6631.19 6648.68 4713.74 5626.61 5817.25 4084.49 5061.98 6632.99 4537.6 5147.36 4419.61 7177.44 4563.46 5309.98 6553.94 5460.65 5652.0 5463.41 5225.33 4929.75 4435.36 6045.22 5134.39 3532.3 5769.98 5442.32 2221.99 4643.56 3580.58 4863.01 5356.79 5657.36 3619.79 5029.47 6306.21 5266.01 2978.76 2040.66 7016.27 3876.21 3685.65 4916.22 6022.7 4940.84 5750.07 4809.67 4757.74 6045.67 4209.49 3946.28 3821.94 5439.9 5367.73 3540.11 4652.01 3456.47 5421.64 7234.66 6599.66 4055.54 4886.12 6419.12 4976.12 6098.95 5453.98 3991.42 4388.63 5102.75 4200.09 4597.29 5931.77 5151.21 6333.29 4477.04 5731.57 3886.68 5703.74 5662.55 5737.92 4360.23 5365.24 4004.35 5293.51 4763.96 5754.18 5180.76 3418.99 4480.95 4993.35 4409.63 5521.25 3661.9 5370.85 5949.46 3658.37 3178.54 4765.02 5376.71 4448.13 5070.29 4807.28 4867.08 4266.03 5280.69 4220.03 6923.84 5407.78 5449.46 6179.96 6113.54 4662.43 6260.79 3963.76 5528.53 6799.88 3062.43 5726.66 5426.78 2967.38 4159.35 6477.91 4237.98 6439.37 4614.3 5580.92 5973.33 5067.46 3583.21 2511.46 4011.37 2775.69 4785.25 6519.43 5876.64 5424.46 4857.84 4908.49 4962.21 4858.44 5884.9 4673.35 5689.26 4992.42 5297.19 4351.38 4833.46 5933.7 7248.4 5280.12 5984.81 3498.16 4409.27 4640.06 5471.74 3548.39 3673.28 4858.51 4207.54 5625.65 4301.61 6107.89 4817.16 4446.84 5660.55 5148.08 4834.87 5760.22 3672.21 5938.17 4795.43 5398.64 5097.95 6817.57 4693.52 3614.96 6853.04 4745.43 5831.96 4747.55 3056.7 3755.95 6234.32 4586.19 4446.06 3450.93 5008.63 4270.74 5132.68 6595.03 4558.15 6218.95 5222.16 5107.23 5136.08 3776.94 5558.68 4010.57 5629.39 2684.03 6157.04 4768.61 2261.36 5075.55 4522.21 5506.19 6719.94 4950.67 5227.59 6166.29 5453.6 5703.07 5294.77 4709.05 4630.82 4043.66 4813.08 5860.67 4540.86 5990.52 4835.83 5604.35 6316.56 4332.87 3091.67 6420.81 4081.97 4715.58 5401.99 4450.7 5151.52 5369.08 4347.74 4009.62 5291.9 2081.58 6505.78 5461.55 6865.76 6449.64 6464.8 4684.44 4749.59 5799.69 3468.42 3809.69 5571.72 4771.13 3208.96 7051.9 4184.23 4144.57 5550.75 6834.41 6226.14 5466.33 4444.97 3000.29 5721.05 4247.69 4514.39 4588.99 4321.21 4344.34 4928.27 3583.49 5052.84 3375.28 4366.74 5297.16 3184.64 5206.33 5530.49 5653.03 3718.69 4514.79 2216.82 4509.89 6752.75 5269.38 5607.3 5108.06 3573.73 2928.82 4222.4 4000.43 3420.08 4568.41 4912.04 4539.07 5464.68 5591.76 4585.31 6625.18 5323.91 5097.45 6293.89 2761.07 5737.75 4983.39 5366.52 4690.55 5533.72 5533.42 4802.32 3678.08 4599.38 5246.47 4187.31 6191.29 3240.51 7422.36 5161.01 4298.15 4628.4 5832.37 6051.83 4642.93 5409.63 4263.16 3973.12 3077.84 6024.75 6109.49 5567.93 5987.42 5332.65 3764.1 6451.33 5413.31 3012.99 6400.08 4743.59 5208.14 3317.83 3763.05 5092.24 5549.49 3101.75 4518.04 4766.06 4874.18 5435.19 3298.2 4270.15 5818.95 4093.99 3940.49 4406.05 4680.94 5828.35 5876.72 5236.43 5285.07 4608.41 4187.94 5980.59 3796.15 4801.8 7216.98 5271.02 4209.31 5718.28 6242.79 5950.45 5713.03 5849.65 5134.67 4165.21 4215.0 4936.96 4481.76 5452.78 5065.26 4304.41 6192.0 4940.28 5885.28 6579.31 3004.34 3022.6 4914.45 4811.76 4698.87 4661.03 3624.7 4691.91 5262.35 4475.83 2685.81 4510.8 5889.35 5010.04 4394.56 4570.98 4275.07 5825.38 4185.61 4047.87 5742.47 3778.02 6552.21 5417.8 5146.37 7132.12 4836.16 5518.57 5151.11 5463.48 5730.33 5545.46 4527.99 4376.7 5190.61 8325.01 3764.06 4440.81 5941.9 5434.47 6642.76 5829.22 4497.78 4243.79 5811.18 5433.65 4442.22 4008.15 4887.76 4669.06 4811.32 4286.49 6184.88 5829.32 4396.25 5551.95 3918.87 5423.42 2275.45 6605.86 5012.5 4383.56 3562.79 7093.13 4953.1 4516.53 4122.92 3604.14 4452.54 5089.1 2711.19 4028.32 4099.92 4884.59 3858.06 4680.14 4511.7 4083.79 5263.27 6300.92 5021.77 5599.29 6038.68 5046.12 4807.4 7013.17 3805.67 4601.74 6506.86 5088.57 5580.34 3852.6 5775.31 4706.5 4603.5 4647.67 5375.12 4356.36 4892.44 5578.94 7610.49 4286.17 3684.56 5323.55 5375.1 4172.6 5313.12 5351.56 5160.59 3984.88 4732.09 4320.42 4255.34 5064.79 5480.3 7509.24 4146.81 5896.26 5388.78 6101.13 4573.72 5099.21 4917.99 5636.4 4367.78 4350.12 5227.02 5670.0 4232.16 5300.96 4344.51 5680.94 3781.77 5581.55 5193.01 4543.1 3474.5 6550.44 3860.83 5732.27 4523.39 5278.56 5146.37 6917.62 4013.38 5631.14 4343.78 5263.3 4909.65 6523.86 7693.4 4326.48 4437.07 3449.37 5491.9 6405.0 4659.16 5789.55 4633.05 4901.2 5711.62 4990.79 4798.17 5166.79 6479.39 2895.63 4997.91 5079.22 5381.54 5810.77 4714.83 5474.15 7519.2 6355.68 4478.6 3953.55 4304.63 4469.54 4314.56 4173.54 3928.53 5606.51 5740.65 3834.47 6349.67 6329.53 4590.01 6101.86 4227.41 5993.0 4803.57 5966.42 4110.59 3332.49 5354.66 4214.44 5378.23 4787.97 3746.36 6789.23 3989.7 4777.03 4246.61 6028.09 5452.36 3804.5 6486.37 5498.42 5318.53 3344.57 5220.76 4281.98 7165.9 5344.83 7046.11 3427.63 4863.97 6342.48 5756.75 5599.7 4587.67 4163.74 6969.28 3665.95 5698.96 4095.75 3603.51 4298.45 5222.51 6609.84 5135.96 3834.43 5658.37 4707.06 6074.94 5491.37 4250.88 3783.54 6348.03 3475.67 4792.39 7038.89 3863.67 4814.12 5067.56 6137.8 2735.53 3352.35 5116.6 3747.03 2783.85 4356.49 4526.81 3994.07 4219.94 5907.46 4264.91 6740.71 5399.29 4909.31 5971.22 6522.59 6602.43 3568.28 5425.98 5996.66 4405.42 2995.67 3598.08 4599.81 5698.23 7300.58 3608.06 6633.61 5217.95 4867.7 5484.36 4277.24 4063.9 5291.05 5161.1 4619.2 5166.41 5067.56 2596.96 5701.75 4350.15 4139.3 6541.45 4750.49 5078.31 5391.48 4923.43 5131.15 4847.14 3950.27 5116.66 3566.79 5374.67 4981.43 4741.28 5069.89 4215.2 4157.29 6813.72 5327.75 4609.02 4896.65 4638.18 4196.37 6448.66 4453.97 6945.98 5138.2 5783.48 4449.98 4701.5 4504.35 4771.65 4840.44 5093.82 5951.81 3924.14 6918.35 4296.69 6238.32 3319.67 6471.42 5283.8 4076.59 4428.14 5164.1 6464.15 4479.11 4972.17 6685.4 5699.53 4222.77 6332.01 5268.38 5527.23 4805.33 7085.01 5980.95 6193.08 6069.3 5887.01 5168.35 5388.39 5335.47 3728.18 5633.61 5048.19 6799.23 4888.27 6487.56 4854.11 5533.19 5417.21 5583.61 6063.64 7382.3 4022.56 5522.21 3772.3 4855.01 4923.57 3340.09 6061.63 2279.05 4829.35 4075.28 8137.11 5484.32 6650.77 4067.96 7104.73 6162.3 3272.75 4264.54 3516.27 4263.78 4643.9 5228.75 6047.14 5009.83 5210.38 5717.8 3629.44 5003.78 3299.24 6246.56 4061.6 2603.64 5107.0 6212.15 6502.97 4783.07 4946.23 4852.58 6083.28 5211.6 3556.79 5806.31 5456.71 3503.41 7317.04 6412.67 7001.83 5012.97 5589.37 5439.49 6639.64 4834.3 6804.79 5642.35 6372.13 5369.5 5404.01 6016.19 4124.49 3230.13 5714.25 6176.67 5325.96 4850.06 5016.02 7044.29 4920.21 4234.18 4049.16 3936.95 6153.94 6836.82 3862.77 4631.99 4740.98 3185.39 5128.77 7122.87 5797.36 4243.26 4153.84 5119.86 4592.15 5089.26 5084.17 4901.44 3776.8 4998.22 5096.43 6156.21 2460.79 6104.26 4653.83 6171.71 4986.71 4668.88 5027.43 5522.75 5867.64 6208.9 6059.93 5602.53 6545.43 6760.92 4989.2 4711.04 7144.05 4506.18 4824.12 4383.47 5971.21 7043.44 4036.91 5212.43 5454.12 6348.54 4066.57 4206.98 5156.76 6357.47 6101.57 4891.38 5535.91 2949.12 5955.86 4533.37 4848.46 5412.24 2779.99 5887.38 4581.37 6942.34 5851.61 5478.11 5526.31 3858.17 5030.15 3628.89 6589.82 4438.58 5073.02 3472.91 2970.9 6542.5 6318.23 4058.87 5174.75 5932.07 4984.46 5948.71 4793.65 3856.53 4532.89 5460.89 5260.85 5742.09 2884.65 5807.46 4648.21 3658.05 4393.16 3311.29 4549.69 6423.81 6192.77 6413.15 6103.11 5048.55 6459.51 4024.31 4955.16 5844.72 3992.97 5989.05 6040.74 4054.22 7228.94 5393.65 4961.99 6551.93 4595.12 3110.13 6484.43 4625.67 3485.54 6735.97 5305.59 5416.45 4330.58 5754.6 3288.01 4904.51 4147.31 2202.77 5751.15 5950.88 4149.55 4441.22 5853.89 3380.69 4140.4 4386.8 5446.4 4725.01 5966.75 4729.42 3104.96 5244.78 3636.15 6114.89 5135.63 6384.7 4355.83 6870.97 5351.86 6056.87 5474.01 6201.86 7554.58 5166.89 3639.44 4731.21 5491.63 5725.37 3868.62 5138.33 3477.1 4811.22 5216.26 4844.83 5377.37 5652.87 5483.7 5018.69 3152.86 5952.38 3896.27 5807.52 5963.36 5230.02 5307.35 4342.18 5169.48 6016.08 6776.22 3124.7 6064.71 6102.98 4385.81 6592.93 5096.24 5769.14 3381.82 4831.93 4023.93 5494.28 4834.39 5493.89 5261.19 4918.76 4208.41 5826.78 6214.73 3758.22 4268.19 4532.7 5561.74 6100.73 4788.08 4349.13 6379.14 3687.65 5478.95 3851.85 4749.96 4019.34 4658.24 5869.67 4311.48 4899.73 5457.66 6394.19 5973.89 5366.22 6193.73 5518.11 5087.14 3742.11 5712.35 5701.52 4743.9 5321.17 3719.11 4467.13 6060.17 3877.8 6418.11 5934.82 4501.78 5415.45 6350.71 7107.63 5868.89 4099.26 5206.47 3831.52 4263.65 6106.43 6761.81 5467.63 2856.55 4553.68 5361.87 3205.68 4473.29 4908.75 6556.26 3971.08 4482.9 4593.7 6818.91 3503.65 3634.5 4869.48 3623.19 4906.11 4387.39 4564.1 4745.16 5825.55 5509.51 4848.14 3199.4 4316.5 5254.24 4192.21 3597.43 5144.56 4158.91 5311.55 3360.86 3034.16 4869.25 5545.21 4333.87 4922.49 3572.94 5001.58 6456.58 5039.12 5366.11 4824.81 7307.21 5135.5 3619.72 5615.84 5788.97 3274.85 5007.21 5545.59 4580.06 4835.97 4057.17 5262.47 7066.96 4587.7 5644.81 5666.95 4127.53 4642.2 5210.75 5175.89 3894.64 5232.85 4374.74 5975.23 6816.66 4745.79 6204.65 6550.4 5513.8 4887.52 6631.28 5350.88 6571.31 4392.65 5429.3 5510.96 6653.07 4697.91 4584.81 5071.98 5719.79 4371.08 7261.51 4968.14 4914.03 5086.29 5527.13 5139.18 4278.57 5551.43 5049.99 4201.03 4458.64 5001.87 4312.15 3657.69 4078.93 6015.02 4820.17 5244.98 3814.65 3886.72 4034.05 5798.38 6436.74 3419.87 4384.28 3908.98 5944.3 5113.6 6328.42 5640.72 4565.93 4504.52 4464.73 6440.38 4954.81 5610.53 6419.64 5464.83 5414.58 4991.35 5196.92 4807.35 5334.36 4568.64 5750.35 4489.99 6555.44 5293.75 5473.72 6358.93 2205.51 3703.49 5144.44 4757.2 5034.69 5079.64 4211.82 5470.04 6003.78 5684.25 4891.67 4882.66 4944.51 5603.68 5610.95 5532.72 3220.8 5179.17 5579.39 5270.51 5148.1 5490.75 5224.64 5949.73 4312.48 5783.94 6370.33 5081.08 6318.25 4202.77 6864.06 3644.78 5510.9 4883.63 3492.83 7039.98 6006.89 7778.01 5127.82 5690.96 5805.1 3862.91 4456.26 4027.33 4810.98 3563.14 5851.63 5556.0 5748.9 5755.15 4608.34 3926.11 5695.79 2781.96 3512.94 4467.0 4994.65 5601.55 3903.91 3919.62 4929.6 3683.86 5658.14 4508.18 7124.45 2617.39 4062.56 4198.94 3217.67 6163.54 5212.37 5438.92 3766.69 5110.11 5036.98 5188.53 4521.75 4813.33 4027.63 5569.2 5635.32 4526.34 4316.45 5409.08 5042.75 4598.92 5241.22 6647.08 4979.52 3422.29 4407.79 5214.63 3495.68 3990.96 5352.24 7362.42 5793.12 5836.14 5473.05 6008.81 4583.52 4505.28 6280.13 5244.22 5585.14 4960.64 5792.98 4983.3 5910.86 6239.68 4456.11 4234.88 5782.43 4708.31 5026.76 5091.22 6282.38 5657.55 5727.79 5212.92 5188.82 5043.14 3742.31 3663.0 6304.49 4420.6 3622.8 4431.23 4258.98 6545.99 4368.28 4945.0 4548.45 4658.11 5730.61 5114.07 7142.95 5064.67 6618.21 3717.47 4504.86 6200.63 5969.37 4928.35 1937.5 4509.46 3844.54 3538.53 996.652 6500.49 5965.58 5058.51 4244.49 4050.03 4120.07 3840.21 3429.57 6746.66 5410.33 5420.67 5661.6 4827.61 5285.75 5481.64 5673.75 5360.67 5968.54 6263.3 4501.05 4537.03 6548.29 4114.2 4326.06 5034.46 5757.29 5469.17 5061.75 4373.2 3769.24 6711.21 4971.29 5832.29 2606.51 4438.76 5372.82 5401.4 5053.15 4775.49 5124.17 5749.6 7320.78 4834.44 3873.92 4092.07 5347.9 4717.73 4928.85 5072.5 4749.18 4546.96 4316.0 5134.72 4475.38 5287.25 5917.34 5740.98 5630.9 4728.55 4554.68 4551.26 4559.74 4383.68 6666.67 4583.94 5046.31 4337.32 4680.69 2628.22 3352.34 4901.29 4952.52 3242.31 6099.28 5372.25 5385.03 4169.15 3234.26 4778.37 3494.16 5134.17 4074.16 4904.35 5592.54 3247.97 5124.34 4904.37 4358.81 4651.64 5729.92 5016.46 4179.87 6224.13 4761.84 3661.67 3743.76 5153.18 3425.69 5510.45 3864.92 3994.39 6119.99 4159.81 4446.58 4402.17 4681.29 3845.9 4174.44 6331.74 4198.9 4213.05 4224.3 5235.87 3904.07 6502.99 5424.55 4921.1 4770.51 6511.37 3787.08 4462.87 4218.16 6139.64 4140.92 4474.83 4585.04 6570.35 4242.63 7407.91 6063.44 4051.18 5849.53 4420.11 5863.0 6127.39 4802.98 4833.55 7224.99 3908.56 5265.63 4898.29 4431.06 5730.2 4830.13 5370.9 4529.77 4325.13 6172.27 5390.33 3783.79 5078.73 5278.54 5729.0 5192.92 5275.57 4786.66 5891.25 5370.1 5393.76 3684.15 4730.14 5906.57 7541.76 4990.23 3784.94 5499.59 5667.51 5431.29 4833.67 5325.91 5157.38 6203.03 4700.07 5273.37 4732.37 5713.36 5553.94 4704.92 4287.25 4392.75 3814.16 4191.01 4589.06 5577.41 4216.44 3999.5 4012.92 4346.07 4933.49 4692.32 5236.24 3127.83 3269.54 5836.26 6015.22 6449.06 4651.99 5640.12 4972.18 5329.76 4124.76 7200.89 5684.88 6523.78 4645.86 4045.67 5620.88 4941.52 5900.0 4262.74 6241.77 4248.14 5317.19 5279.19 4016.6 5821.49 7050.08 5580.44 5998.13 5902.67 5454.11 4236.86 6010.59 7123.04 4128.1 4618.73 4932.29 4506.66 4439.71 4141.21 4064.58 4646.51 952.938 4546.44 4184.21 6089.45 4985.3 3987.69 4666.12 6219.34 4920.88 4013.86 4177.47 4770.63 5678.58 4385.49 6102.49 5114.23 6061.85 5512.44 4826.52 2904.46 5241.75 4731.53 3763.9 4577.73 4288.45 4147.49 5419.57 5760.98 4954.76 4642.74 5384.86 5764.52 3770.22 4390.64 5150.84 4608.01 5087.97 6005.95 4308.49 4519.03 4930.17 4581.1 4085.96 4745.44 5762.82 7360.12 6223.98 5462.6 5617.29 3035.06 4262.19 4597.88 5095.52 4763.4 4941.02 5806.61 3682.35 2955.36 3965.3 6110.48 3220.29 4125.9 5426.4 5951.86 5023.41 3791.41 5853.12 5702.4 5473.89 5265.21 4657.24 4966.07 4400.14 5340.05 2918.64 5345.73 4639.8 4212.15 4263.18 5495.0 4454.74 5120.92 4685.4 4081.34 3402.44 4848.98 5184.98 4491.96 4467.51 5339.82 5460.57 5110.27 5703.34 4612.68 6668.98 6649.52 4232.33 4939.56 4747.68 5770.92 3093.38 4845.91 4878.93 2002.78 4461.67 5784.37 3142.09 5182.13 5515.73 6715.73 4564.41 5247.01 4841.7 4678.7 5810.17 3450.07 4271.07 5674.63 5759.79 4489.29 4301.93 4924.07 3200.6 4918.64 6206.98 6638.25 4775.04 5162.67 4636.53 3646.95 5537.61 6084.88 4199.44 4397.06 4053.12 4479.5 6261.67 3435.13 5065.78 4431.46 4521.42 3207.84 3977.98 6043.34 4128.93 4959.72 4712.17 3808.04 4723.71 5003.3 3756.96 3954.77 6793.1 6016.87 5077.29 5209.55 6740.35 4550.92 3306.84 3484.81 5308.33 6023.07 6710.14 4598.54 5218.42 4512.07 4896.43 4462.35 3986.41 6240.42 5146.0 4788.7 5078.59 4607.18 2403.72 3228.27 4721.98 5252.82 3543.98 4142.1 5056.26 5878.55 4014.44 6604.72 6002.77 3794.47 4610.55 4967.02 4614.49 5400.69 4462.5 2807.46 5573.31 5004.68 4023.88 4405.61 5348.11 5428.24 6273.6 3668.93 4009.24 5800.81 6245.52 3125.13 6506.63 5995.4 5188.22 4841.23 4196.62 5984.8 3469.18 6347.72 3956.24 6334.53 7558.99 3393.59 5043.14 5333.04 5445.91 4521.99 4812.59 6842.54 7115.67 5675.45 3361.11 5329.84 6038.56 5599.16 4179.8 3488.34 5658.35 5684.05 4708.17 3779.45 5167.53 5166.05 7035.54 5866.91 5763.05 4208.37 6019.35 6075.99 5191.26 4184.47 3825.48 2804.54 3372.95 5819.0 3460.93 5124.86 5117.64 5580.95 3549.92 6598.99 4032.06 5246.81 5089.1 5888.95 5394.78 3463.34 5122.38 2853.68 5262.85 4998.37 6559.82 3879.83 5342.9 6565.95 4577.98 5043.34 5886.81 5136.87 2741.2 7145.73 6405.69 5357.39 4252.18 6296.54 5797.21 3669.32 4762.1 5700.79 4629.02 4927.73 4705.68 5469.35 4313.38 5827.3 5250.56 2468.16 3633.58 6294.14 4339.97 5203.75 5169.09 3906.41 4691.15 2459.88 4512.6 5470.67 4210.24 5901.71 5225.11 5252.22 5733.12 4962.35 6436.29 7350.26 4556.19 4168.52 5233.76 4659.88 5685.74 3495.3 4140.04 5890.25 5766.05 2832.83 6036.99 4084.87 3010.1 3825.98 4589.22 5087.03 4667.84 5584.64 4123.08 4260.38 4636.45 4932.27 5638.51 6793.49 3563.33 6060.19 5536.0 6786.37 5790.42 5591.77 5106.46 6562.92 3612.44 4474.96 4758.76 4790.63 5259.29 4088.72 3584.05 3945.62 4916.75 4818.53 5097.85 6189.04 6224.64 4221.03 3799.55 4576.71 5082.66 4550.77 4337.93 3550.88 4345.51 4048.73 6223.33 5813.79 4644.88 4068.31 3671.06 4850.5 4683.28 4658.59 5532.75 6949.65 4608.62 5407.96 4987.28 5367.05 4449.73 5647.11 3743.85 6236.46 5342.17 6379.3 5015.67 3795.63 5189.4 6538.04 4894.15 6157.59 5201.3 5848.41 4090.28 4932.56 5024.32 4176.32 3185.09 3587.93 5064.23 5721.14 5084.5 4071.75 6562.03 4246.83 4493.79 4279.44 2945.34 5676.61 6006.16 3565.32 5638.7 3667.93 3487.31 5399.43 3835.81 5710.33 4096.86 5695.44 4668.8 5322.11 4697.49 5735.08 4726.2 5034.05 4816.51 4711.15 4474.39 3810.68 6478.35 3990.94 4756.8 5477.8 5463.06 6069.78 5260.52 4241.68 4975.85 4095.83 5323.95 5846.95 5716.42 5268.15 5701.63 4603.04 4620.95 4870.94 5368.93 4488.39 6121.56 5914.5 4602.57 3419.07 3622.48 4796.12 5344.44 6432.8 4626.72 5131.77 5549.71 4815.47 4759.99 3899.7 5134.33 5214.4 2646.13 3629.49 5034.34 3769.2 3422.21 3916.42 5537.34 5884.99 5192.49 4899.19 6643.4 5058.34 4028.22 5575.11 4983.1 5293.13 4507.36 6224.85 6406.8 5403.97 4795.08 5648.78 6875.73 5501.73 6081.3 4697.24 4983.43 5117.52 6311.89 6549.8 2820.07 5129.68 4825.73 5076.84 4165.36 5288.33 4871.77 5811.26 5062.77 4884.93 5069.9 6028.63 3673.6 4494.15 5146.1 6215.87 6485.77 6060.06 5866.42 5544.27 5393.43 6896.55 4685.65 5377.01 6470.23 5939.22 4271.93 4215.05 3626.86 5125.17 4604.1 6371.96 4859.01 5076.11 5524.45 7133.44 4426.02 5600.21 3953.26 4750.81 4282.11 5467.51 5459.92 2347.41 4625.53 5453.77 4096.47 4357.11 5114.67 2809.19 5005.6 4916.7 5486.89 5589.53 7208.19 4549.51 5025.42 5196.08 4517.29 6379.38 5695.25 6257.79 4495.75 4849.5 6171.01 6229.83 5796.26 4468.26 4523.81 5578.18 5106.33 5791.25 5293.37 5198.94 5271.88 4028.35 5933.54 5559.79 7168.2 2980.31 3763.85 3148.79 4571.74 5740.78 5997.91 5001.51 4332.64 4742.82 5385.86 5115.42 3186.07 4082.4 4209.0 4410.82 4369.86 4967.51 4368.12 5173.82 6443.99 4365.58 3889.98 5193.58 3720.7 5490.64 5378.24 5698.53 3604.31 4507.46 4450.49 5036.14 3468.45 6022.78 4087.32 6647.85 5726.42 2569.12 4674.9 7025.09 3392.26 4433.12 3918.94 2549.95 5461.72 4361.24 5487.63 3768.46 3852.82 5138.93 5099.9 6945.69 5118.86 7086.69 5368.66 4304.64 6170.9 5833.78 4436.48 5226.42 5758.98 5615.35 3967.76 5288.64 6213.24 6734.39 4217.36 5679.74 5942.45 4150.76 4851.18 4228.53 6123.46 5005.72 5368.52 6142.88 5155.28 5111.26 5388.73 5205.38 4949.55 4764.83 1969.87 3132.34 4600.71 3957.38 4841.28 5262.79 5927.2 5035.71 6889.5 4710.88 4419.79 5300.17 5407.69 3869.39 5152.78 5960.5 5534.23 4117.9 4753.76 6025.77 4781.9 4638.09 6815.96 4441.91 5330.26 5339.6 5828.25 5917.08 4725.11 5483.37 5418.12 5322.07 5934.05 5770.07 4714.66 5990.75 5101.6 4984.17 4656.01 5781.62 6589.13 4037.86 5602.62 2030.03 3543.37 4542.16 5714.51 5628.97 4104.04 5353.66 2638.82 5030.33 5593.79 5104.39 5234.2 4612.13 4965.24 5846.6 5327.05 5438.55 5353.23 4434.65 6688.53 5977.66 5209.5 5065.74 4873.23 6731.89 5464.05 4733.41 5879.24 5410.6 5453.2 6348.93 5136.51 3901.53 6824.53 6815.51 5232.16 4422.23 6791.86 3989.26 6031.22 4820.68 4930.72 5482.76 5728.58 3745.02 7212.97 6297.99 4211.36 5918.95 3856.73 4538.89 5817.74 5887.71 5517.65 4009.68 5114.51 3303.49 4622.73 4655.37 4161.32 5256.75 5161.74 7336.37 5932.28 6599.28 5560.23 2960.5 5783.38 4975.32 3043.77 4298.7 3902.48 5237.55 4183.4 3909.94 6030.39 4733.79 4905.53 3799.01 4823.06 7392.65 5254.49 5319.1 3757.23 6828.8 6883.86 5987.88 3579.59 6161.94 4065.28 5057.59 4461.14 5285.6 5575.11 4574.54 5615.06 5490.54 5203.54 4047.95 5507.38 6142.94 4416.87 5001.69 6581.56 4052.43 4057.4 3980.46 4896.67 5383.9 3934.11 5158.44 3886.56 4466.22 4496.51 5715.51 6153.71 6561.94 5259.21 5092.93 4256.08 2803.01 5881.93 4444.0 6771.18 6182.19 5327.39 5910.66 7415.84 4981.81 4138.59 4970.55 4938.33 4484.78 4621.33 5527.27 5157.73 5847.91 4934.66 4984.01 4109.44 4903.84 4290.49 4557.1 4605.39 5927.1 6270.59 6175.27 5876.51 4103.76 4907.55 4286.61 4094.63 2932.52 5264.83 4603.66 4757.87 4969.68 6636.43 5431.14 6298.8 5313.86 4457.05 5178.07 5189.91 3618.64 5777.26 4171.02 5485.84 6424.77 4887.73 4335.79 5453.69 5797.32 5432.04 5689.56 6556.86 3921.27 5129.4 4746.15 3720.38 4758.84 5585.25 4731.37 5023.61 3976.0 6351.89 4672.86 6530.78 5059.37 4742.35 5394.79 4139.39 5645.54 6264.03 5088.64 4526.87 6589.8 4151.74 6920.92 4174.22 3729.16 3783.36 3573.84 3038.91 4181.93 3922.28 6570.43 3350.99 3820.19 3445.92 5236.69 4979.5 5524.28 4586.82 3133.28 4745.37 5939.29 6026.04 6200.05 5418.98 5859.17 4034.41 4052.49 5061.74 5522.34 5326.03 6189.67 4420.35 5717.45 4948.96 5256.82 4013.86 4061.87 4645.93 5165.31 5448.64 3798.09 4585.37 4288.5 6417.61 3721.69 4511.05 3456.3 6074.39 5317.83 6738.9 4399.52 4460.89 4554.24 4157.1 3939.96 8052.53 4867.12 6044.01 6520.19 4637.3 5141.03 1458.87 5734.07 4840.44 8123.59 3997.68 4819.83 5765.14 4801.16 4767.54 4541.22 4946.08 3539.68 5121.08 4696.03 6217.33 6177.68 4698.7 2848.44 6229.64 6045.26 4220.43 6500.45 5743.8 5084.76 6666.34 6605.11 4645.91 6834.92 3557.46 6379.33 5971.95 5652.73 3689.24 3979.46 6321.97 5151.19 6412.84 6509.54 5703.84 7012.36 3530.82 5128.59 5028.06 4002.99 4886.99 5159.67 5587.3 3161.1 3572.73 4864.38 3702.45 6275.25 6892.33 4505.3 4491.26 4452.36 4511.34 4068.41 6463.71 5009.21 4574.03 4379.91 5290.37 5850.38 5264.08 3562.8 4227.66 4730.97 4691.01 4594.89 5192.82 5245.95 5821.42 4067.89 4515.02 6294.09 4924.52 4571.57 5131.07 4121.07 2970.24 4197.87 5658.05 5105.54 5731.43 6353.81 3414.67 3518.14 5444.36 4150.44 5044.68 5771.98 2649.69 5899.78 5000.74 5117.83 5772.57 5268.27 4813.81 3882.37 4095.4 5244.95 4634.25 5901.8 6351.48 5395.12 5783.69 3830.7 6210.0 5432.4 3483.61 5350.9 4262.52 7430.48 5992.06 5545.68 6080.69 4970.12 4967.93 6369.66 5973.57 5922.62 6241.48 6033.28 5957.82 6286.27 5071.38 3717.22 6327.54 5616.66 2927.84 5688.77 4802.36 2943.17 5368.28 5466.13 5257.38 6263.87 5075.23 4975.56 7282.36 3826.01 4829.77 5581.01 3928.99 6959.88 4125.75 5749.53 5130.57 5090.48 5402.45 5582.28 3985.93 5945.25 6071.59 2589.19 6119.0 3856.4 3792.06 6079.55 5485.61 4993.49 4937.36 4293.3 5308.4 5310.33 6583.37 3688.83 5631.32 6126.5 6322.0 5793.14 6345.2 4609.65 5488.96 5704.61 4832.21 3720.92 5128.03 5410.73 5087.3 4942.63 6139.74 6637.38 4975.57 7066.26 3057.3 6150.31 3677.85 5214.71 4677.84 4811.11 3463.53 5379.52 6126.03 5314.67 6044.69 5563.47 5651.46 6593.1 4066.36 4000.51 5462.1 6032.45 5011.37 2827.92 4026.03 6908.32 3467.11 4817.75 6153.26 4848.15 5637.53 4439.09 5523.81 5648.59 4718.61 5188.57 3873.79 5717.67 5357.33 4432.32 5515.59 5252.37 3224.81 4499.54 5037.58 6457.89 5640.67 6572.17 3751.73 5555.89 4766.47 4871.1 5678.08 3917.09 6009.93 5872.45 4414.09 5270.1 5125.45 3784.68 4188.16 4947.64 6305.9 6649.21 5507.07 4654.92 5327.71 4880.78 4322.56 5509.09 5625.02 3873.72 5212.05 4592.49 5479.86 6474.5 4444.92 4702.32 4763.04 5971.9 3746.62 5247.73 4876.37 4532.67 5034.02 4769.62 5260.13 4649.5 5181.31 5985.75 4696.06 4137.16 6189.29 5984.55 6581.13 4569.32 4034.88 5108.84 3511.5 6007.1 5067.92 5357.14 3188.21 4850.95 5919.27 4793.06 6271.22 3421.81 6188.33 3920.64 6111.23 6916.18 5786.06 5873.62 3868.69 4137.41 4996.91 3920.44 4450.51 6033.72 4866.8 3768.62 3851.47 4966.74 2329.93 4959.94 1635.31 5639.4 3162.27 6033.93 6185.73 4083.24 5516.37 5092.44 4441.44 5432.2 4232.44 4612.4 5336.61 3312.3 5563.09 6381.58 3282.57 5212.2 4798.13 4611.21 5108.42 6697.45 4630.5 6296.36 3354.94 5237.27 4451.76 7885.41 3775.38 4046.22 5782.25 4104.97 4844.2 4575.72 5114.61 6118.13 3374.62 4926.62 4420.3 6332.64 4202.12 6492.44 4613.32 4083.1 3482.73 5191.29 5130.56 4957.99 4063.26 5345.05 4997.89 4542.62 3470.69 4859.95 5286.55 4132.08 5522.18 5223.1 4699.77 4850.49 4981.55 5144.23 3625.98 6188.62 6153.07 4414.06 5908.57 5944.52 4413.56 5050.2 5316.05 2513.38 4821.41 4908.32 4924.53 3995.08 4499.52 5019.84 3874.12 4810.74 3900.93 5784.38 5475.83 4149.17 4329.8 5728.27 5672.46 5803.3 4582.12 4487.51 4295.25 4520.14 5354.48 7394.47 4729.45 6261.13 5374.09 4167.55 4720.34 5244.47 5378.75 4731.16 5510.89 6186.24 5822.7 3780.07 4159.89 5466.49 5178.55 5447.74 4038.17 5007.41 4907.48 3692.99 6213.74 4488.41 4369.87 6938.87 5412.07 5512.57 4806.99 6520.96 3771.91 5856.43 5217.62 6178.19 4746.19 4616.81 5349.85 5715.25 5172.1 4362.94 4469.82 6545.78 4870.14 4404.87 5105.72 5767.65 4750.76 5003.49 4907.03 5497.27 4081.77 5617.91 4948.21 2181.29 4987.01 4706.31 2694.25 6265.48 4735.99 4203.68 4739.56 5145.39 3818.37 3996.93 3352.46 6351.95 5195.09 5200.1 7679.2 5093.28 4881.51 6131.52 4311.92 2626.41 6009.88 6729.99 5093.41 6842.35 5464.34 3621.63 4777.96 5801.89 6833.5 7296.47 5742.39 4780.16 3834.01 5616.11 4433.23 4813.24 4028.13 5759.19 4457.73 6476.35 3113.64 4304.75 6260.58 4067.24 3053.19 5202.33 3074.49 4246.24 6805.02 4919.13 5640.63 4900.26 5783.88 5002.38 6705.93 4865.11 5449.09 5502.14 6470.87 4495.33 5282.67 4131.08 5747.9 3864.19 4287.93 5146.69 6203.24 6818.23 5081.65 6679.12 5652.19 5806.74 3878.8 6578.62 4813.55 3465.03 4796.04 3839.0 5229.56 6011.4 5799.86 4672.34 6052.22 5376.41 5410.33 5533.52 5003.63 2932.2 4695.7 4380.86 4944.08 4082.01 5269.39 3964.03 4216.33 5832.72 3903.9 4444.95 4721.2 5161.02 3943.77 3124.49 5242.38 6081.35 5003.81 6262.18 5566.5 4701.03 5663.36 6225.05 5434.04 5125.53 3997.52 4444.54 5403.81 5779.9 4909.74 5310.33 6664.54 3922.98 5161.73 5259.48 4008.67 5254.93 4803.4 6608.94 2613.78 3796.73 5417.07 5656.84 5738.37 6789.66 4739.41 5312.2 5847.27 4490.2 4706.59 5734.84 5480.86 6139.9 3982.31 4950.07 6571.26 5402.81 4328.76 4600.81 5561.63 4124.33 5168.97 4358.06 5093.51 5647.93 4280.92 6201.49 4696.92 5154.74 4605.61 4465.56 6898.8 5386.95 6540.57 5332.11 5315.71 6004.72 6158.93 4823.14 5438.5 4489.18 4621.32 5699.4 5237.76 4698.94 4286.84 6284.12 3948.21 5669.15 5296.05 3330.85 5263.86 6988.4 5056.32 4060.17 4747.24 6051.35 5302.53 4909.13 5576.16 4305.35 5648.02 3308.75 5210.22 2451.27 5677.42 2701.42 4929.35 5606.22 6673.92 5151.68 4884.94 5459.52 4609.98 4738.72 4752.31 5240.97 4276.59 5579.04 5405.6 5994.21 4884.93 5082.25 4759.38 6964.78 4374.05 5299.03 5036.84 4565.36 5813.68 4025.08 5040.9 3618.53 5596.68 4770.21 4868.66 8013.28 3846.55 5159.9 5283.65 4644.68 3082.16 2892.36 5981.54 5911.29 5416.41 4694.27 6760.64 2515.5 5177.88 5551.79 6981.47 4720.22 4582.24 4333.23 5145.13 3747.96 5611.29 5940.5 6568.45 5004.22 4601.54 7263.57 3832.09 5705.96 6437.99 5739.69 6632.04 7360.62 4893.72 4985.45 4072.4 4983.56 5373.78 5699.51 4714.52 5345.65 2489.44 5499.37 5863.36 4632.75 4752.94 4994.98 3950.53 6423.96 6058.13 5894.69 4384.91 6550.61 4987.01 6635.51 6094.34 6779.82 5543.67 3999.81 4287.61 4867.13 4604.34 4439.17 4502.12 3255.93 5442.79 5051.39 6327.61 4633.59 5733.59 5362.15 4455.61 3695.72 6874.6 5106.9 5569.85 5523.96 3929.35 4223.53 4733.37 6960.97 3037.72 4287.15 4523.9 5282.51 5504.65 5669.41 5732.11 3760.4 3919.47 4951.02 4602.7 3783.35 4037.16 4004.39 6395.63 4987.48 5943.61 4248.58 5479.17 5020.37 4542.25 4414.23 5233.88 4849.21 4785.55 3793.83 5245.4 3916.15 6189.81 3860.8 5438.6 7370.52 4726.5 5467.05 4521.88 3724.23 5103.3 4963.88 5888.94 4727.98 4122.2 5175.88 5267.65 4516.26 4790.16 3509.34 3647.26 5360.88 3166.37 4977.64 5369.42 5207.08 5205.53 4587.19 5543.05 4883.13 6028.89 4836.76 5551.09 5755.98 5392.85 4501.1 5581.47 5077.2 4274.05 5275.27 4277.54 4713.56 5529.09 4531.46 5925.82 5448.68 4739.5 6210.48 6377.45 4863.27 4182.05 6853.07 5575.8 5268.93 5306.31 4535.94 5126.08 5604.0 3731.58 5333.16 4888.17 4072.95 4491.62 3865.5 
SCALARS Velocity float 1
LOOKUP_TABLE default
1.19178 1.19179 1.19178 1.19178 1.19178 1.19179 1.19179 1.19178 1.19178 1.19178 1.19178 1.19178 1.19178 1.19178 1.19178 1.19178 1.19178 1.19178 1.19178 1.19178 1.19178 1.19178 1.19178 1.19178 1.19178 1.19178 1.19178 1.19178 1.19178 1.19178 1.19178 1.19178 1.19178 1.19178 1.19178 1.19178 1.19179 1.19178 1.19178 1.19178 1.19178 1.19178 1.19179 1.19178 1.19178 1.19178 1.19179 1.19178 1.19178 1.19178 1.19178 1.19178 1.19178 1.19179 1.19179 1.19179 1.19179 1.19178 1.19178 1.19179 1.19179 1.19179 1.19179 1.19178 1.19178 1.19179 1.19179 1.19178 1.19178 1.19178 1.19178 1.19179 1.1918 1.19178 1.19179 1.19178 1.19178 1.19178 1.19178 1.1918 1.19179 1.19178 1.19178 1.19179 1.19178 1.19179 1.19179 1.19178 1.19178 1.19178 1.19178 1.19178 1.19178 1.19178 1.19178 1.19178 1.19178 1.19178 1.19178 1.19178 1.19178 1.19178 1.19178 1.19178 1.19178 1.19178 1.19178 1.19178 1.19178 1.19178 1.19178 1.19178 1.19178 1.19178 1.19178 1.19178 1.19178 1.19178 1.19178 1.19178 1.19178 1.19178 1.19178 1.19178 1.19178 1.19178 1.19178 1.19178 1.19178 1.19178 1.19178 1.19178 1.19178 1.19178 1.19178 1.19178 1.19178 1.19179 1.1918 1.1918 1.19178 1.19178 1.19178 1.19178 1.19178 1.19179 1.19178 1.19178 1.19179 1.19179 1.19178 1.19178 1.19178 1.19178 1.19178 1.19178 1.19178 1.19177 1.19179 1.19179 1.19178 1.19178 1.19179 1.1918 1.19179 1.19179 1.19179 1.19178 1.19178 1.19179 1.19178 1.19179 1.19179 1.19177 1.19178 1.19179 1.19179 1.19178 1.19178 1.19178 1.19178 1.19179 1.19178 1.19178 1.19178 1.19178 1.19178 1.19179 1.19179 1.19179 1.19179 1.19179 1.19179 1.19179 1.19179 1.19179 1.19178 1.19179 1.19178 1.19179 1.19178 1.19178 1.19178 1.19178 1.19178 1.19178 1.19178 1.19178 1.19178 1.19178 1.19178 1.19178 1.19178 1.19178 1.19178 1.19178 1.19178 1.19178 1.19178 1.19178 1.19178 1.19178 1.19178 1.19178 1.19178 1.19178 1.19178 1.19178 1.19178 1.19178 1.19178 1.19178 1.19179 1.19179 1.19178 1.19178 1.19178 1.19179 1.1918 1.19178 1.19178 1.19179 1.19178 1.19179 1.19178 1.19178 1.1918 1.19178 1.19178 1.1918 1.19178 1.19179 1.19178 1.19178 1.19178 1.1918 1.19179 1.19179 1.19179 1.19178 1.19178 1.19179 1.19179 1.19178 1.19178 1.19179 1.19181 1.19178 1.19177 1.19179 1.19177 1.19177 1.19178 1.19181 1.19178 1.19178 1.1918 1.19178 1.19178 1.19178 1.19178 1.19178 1.19178 1.19179 1.19179 1.19179 1.19179 1.19179 1.19178 1.19178 1.19178 1.19178 1.19178 1.19178 1.19179 1.19178 1.19178 1.19178 1.19178 1.19178 1.19178 1.19177 1.19178 1.19178 1.19178 1.19178 1.19178 1.19178 1.19178 1.19178 1.19178 1.19178 1.19178 1.19178 1.19178 1.19179 1.19178 1.19178 1.19178 1.19178 1.19178 1.19178 1.19178 1.19178 1.19178 1.19178 1.19178 1.19178 1.19178 1.19179 1.19179 1.19178 1.19178 1.19179 1.19179 1.1918 1.19178 1.19178 1.19178 1.19178 1.19179 1.19179 1.19178 1.19178 1.19178 1.1918 1.19178 1.19181 1.19179 1.19179 1.1918 1.19178 1.19179 1.19178 1.19178 1.1918 1.19179 1.19179 1.19179 1.1918 1.1918 1.19179 1.19179 1.1918 1.19179 1.19178 1.19178 1.19178 1.19179 1.19181 1.19178 1.19178 1.19181 1.19178 1.1918 1.19181 1.19178 1.1918 1.19179 1.19177 1.19179 1.1918 1.19179 1.19178 1.19179 1.19179 1.19179 1.19179 1.19179 1.19178 1.19178 1.19178 1.19179 1.19178 1.19178 1.19178 1.19178 1.19178 1.19178 1.19178 1.19178 1.19178 1.19178 1.19178 1.19178 1.19178 1.19179 1.19178 1.19178 1.19178 1.19178 1.19178 1.19178 1.19178 1.19178 1.19178 1.19178 1.19178 1.19178 1.19178 1.19178 1.19178 1.19178 1.19178 1.19178 1.19177 1.19177 1.19178 1.19177 1.19179 1.19178 1.19177 1.19179 1.19178 1.19178 1.19178 1.19179 1.19179 1.19178 1.19178 1.19179 1.19178 1.19178 1.19178 1.19178 1.19177 1.19179 1.1918 1.1918 1.19178 1.19178 1.19177 1.19179 1.19178 1.19178 1.1918 1.19178 1.19178 1.1918 1.1918 1.19177 1.19179 1.19179 1.19179 1.19178 1.19182 1.1918 1.19179 1.19181 1.19178 1.19179 1.19177 1.19178 1.19179 1.19179 1.19179 1.1918 1.19178 1.19178 1.19179 1.19179 1.19178 1.1918 1.19178 1.19178 1.19179 1.19179 1.19179 1.19178 1.19179 1.19179 1.19178 1.19177 1.19178 1.19178 1.19179 1.19179 1.19179 1.19178 1.19178 1.19178 1.19179 1.19178 1.19178 1.19178 1.19178 1.19177 1.19179 1.19178 1.19178 1.19178 1.19178 1.19178 1.19178 1.19178 1.19178 1.19178 1.19178 1.19178 1.19178 1.19178 1.19178 1.19178 1.19178 1.19178 1.19178 1.19178 1.19178 1.19178 1.19178 1.19178 1.19179 1.19179 1.1918 1.19178 1.19179 1.19178 1.19178 1.19178 1.19178 1.19177 1.19179 1.1918 1.19178 1.19181 1.19178 1.19177 1.19178 1.19179 1.19178 1.19179 1.19177 1.19178 1.1918 1.19181 1.1918 1.1918 1.19177 1.19179 1.19179 1.19179 1.1918 1.19181 1.19182 1.1918 1.19177 1.1918 1.19178 1.1918 1.19177 1.19178 1.19179 1.19178 1.19177 1.1918 1.19179 1.19178 1.1918 1.19178 1.19178 1.19179 1.19179 1.19179 1.19178 1.19179 1.19178 1.19176 1.19176 1.19178 1.19178 1.19177 1.19178 1.19178 1.19178 1.19179 1.19178 1.19178 1.19178 1.19178 1.19178 1.19178 1.19178 1.19178 1.19178 1.19178 1.19178 1.19177 1.19178 1.19178 1.19178 1.19178 1.19178 1.19178 1.19178 1.19178 1.19178 1.19177 1.19177 1.19178 1.19178 1.19178 1.19178 1.19179 1.19178 1.19179 1.19181 1.1918 1.19179 1.1918 1.1918 1.19178 1.19178 1.19178 1.19177 1.19177 1.19177 1.19178 1.19178 1.19185 1.19177 1.19178 1.19178 1.19179 1.19179 1.19179 1.19178 1.19177 1.19179 1.1918 1.19178 1.19179 1.19179 1.1918 1.19183 1.19181 1.19182 1.19181 1.19179 1.19176 1.1918 1.19178 1.19179 1.19177 1.19179 1.19179 1.1918 1.19178 1.19178 1.19179 1.19178 1.19179 1.19176 1.19176 1.19178 1.19178 1.19178 1.19177 1.19178 1.19179 1.19177 1.19178 1.19179 1.19179 1.19179 1.19178 1.19178 1.19178 1.19178 1.19178 1.19178 1.19177 1.19178 1.19178 1.19178 1.19178 1.19178 1.19178 1.19178 1.19177 1.19178 1.19178 1.19178 1.19178 1.19178 1.19178 1.19178 1.19178 1.19178 1.19178 1.19178 1.19178 1.19179 1.19177 1.1918 1.19178 1.19178 1.19178 1.19177 1.19177 1.19178 1.1918 1.19177 1.19178 1.1918 1.1918 1.1918 1.19178 1.1918 1.19179 1.19182 1.19176 1.1918 1.19178 1.19177 1.19178 1.1918 1.19179 1.19178 1.19177 1.1918 1.19179 1.19177 1.19177 1.19179 1.19179 1.19179 1.19178 1.1918 1.1918 1.19179 1.19179 1.19179 1.19179 1.19181 1.1918 1.19178 1.19176 1.1918 1.19179 1.19178 1.19179 1.19178 1.19178 1.1918 1.19178 1.1918 1.19178 1.19178 1.19178 1.19178 1.19178 1.19178 1.19178 1.19178 1.19177 1.19178 1.19178 1.19178 1.19178 1.19178 1.19177 1.19177 1.19178 1.19177 1.19178 1.19177 1.19179 1.19179 1.19178 1.19178 1.19178 1.19177 1.19178 1.19178 1.19178 1.19178 1.19178 1.19177 1.19178 1.19177 1.19178 1.19178 1.19178 1.19178 1.19178 1.19178 1.19178 1.19178 1.19179 1.19179 1.19178 1.19177 1.19177 1.19178 1.19178 1.19178 1.19177 1.19178 1.19179 1.19178 1.19179 1.19179 1.19178 1.1918 1.19179 1.1918 1.1918 1.19177 1.19181 1.1918 1.19177 1.1918 1.19176 1.19179 1.19178 1.19175 1.19178 1.1918 1.1918 1.19178 1.19179 1.19178 1.19178 1.19177 1.19179 1.19178 1.19178 1.1918 1.19179 1.19179 1.19179 1.19178 1.19178 1.19179 1.19181 1.1918 1.19179 1.19178 1.1918 1.19179 1.19178 1.19178 1.1918 1.19179 1.19179 1.19175 1.19176 1.19177 1.1918 1.1918 1.1918 1.19179 1.19177 1.19176 1.19177 1.19178 1.19177 1.19177 1.19178 1.19177 1.19176 1.19177 1.19179 1.19178 1.19177 1.19178 1.19178 1.19178 1.19177 1.19179 1.19178 1.19177 1.19178 1.19178 1.19178 1.19178 1.19177 1.19178 1.19177 1.19177 1.19178 1.19178 1.19178 1.19178 1.19178 1.19177 1.19177 1.19177 1.19178 1.19178 1.19178 1.19178 1.19178 1.19178 1.19178 1.19178 1.19178 1.19178 1.19178 1.19178 1.19179 1.19178 1.19178 1.1918 1.19177 1.19176 1.19179 1.19179 1.19178 1.19178 1.19178 1.19179 1.19179 1.19179 1.19181 1.19178 1.19179 1.1918 1.1918 1.1918 1.19178 1.1918 1.19177 1.19176 1.19177 1.19179 1.19179 1.19179 1.19178 1.19175 1.19174 1.19179 1.19179 1.19178 1.19178 1.19179 1.19178 1.19178 1.19179 1.19178 1.19178 1.19179 1.19178 1.19178 1.19179 1.19179 1.19176 1.19178 1.19179 1.19179 1.19178 1.19181 1.19179 1.19176 1.19176 1.19178 1.1918 1.19177 1.19177 1.19178 1.19181 1.19179 1.19177 1.19177 1.19177 1.19176 1.19177 1.19179 1.1918 1.19178 1.19178 1.19178 1.19178 1.19177 1.19178 1.19177 1.19178 1.19178 1.19178 1.19178 1.19177 1.19178 1.19178 1.19178 1.19177 1.19178 1.19178 1.19178 1.19178 1.19178 1.19177 1.19178 1.19177 1.19178 1.19178 1.19178 1.19177 1.19177 1.19178 1.19178 1.19178 1.19178 1.19178 1.19178 1.19178 1.19178 1.19178 1.19178 1.19177 1.1918 1.19175 1.19179 1.19179 1.19179 1.19178 1.1918 1.19179 1.19179 1.19181 1.1918 1.19179 1.1918 1.19179 1.1918 1.1918 1.19178 1.19174 1.1918 1.19176 1.19174 1.19175 1.19178 1.19177 1.19179 1.19177 1.19177 1.19177 1.19178 1.19178 1.1918 1.19178 1.19175 1.19173 1.19178 1.19176 1.1918 1.19178 1.19178 1.19178 1.19178 1.19179 1.19176 1.19177 1.19178 1.19181 1.19175 1.19179 1.19176 1.19178 1.19179 1.19169 1.19181 1.19182 1.19179 1.19177 1.19177 1.19177 1.19177 1.19176 1.19177 1.19179 1.1918 1.19178 1.19177 1.19177 1.19177 1.19177 1.19178 1.19177 1.19178 1.19178 1.19179 1.19178 1.19177 1.19178 1.19178 1.19177 1.19177 1.19177 1.19178 1.19178 1.19178 1.19178 1.19177 1.19177 1.19178 1.19178 1.19179 1.19178 1.19178 1.19178 1.19177 1.19177 1.19178 1.19178 1.19178 1.19177 1.19177 1.19178 1.19178 1.19178 1.19178 1.19177 1.19181 1.19177 1.19179 1.19179 1.19178 1.19178 1.19181 1.19179 1.19181 1.1918 1.1918 1.19179 1.19179 1.19178 1.19179 1.1918 1.19174 1.19178 1.19177 1.19178 1.19178 1.19178 1.19178 1.1918 1.19176 1.19178 1.19178 1.19178 1.19178 1.19178 1.19177 1.19177 1.19177 1.19177 1.19178 1.19178 1.19178 1.19178 1.19178 1.19173 1.19179 1.19177 1.19178 1.19177 1.19175 1.19174 1.19176 1.19179 1.19172 1.19173 1.19179 1.19179 1.19182 1.19177 1.19179 1.19177 1.19178 1.19178 1.19178 1.19176 1.19179 1.19178 1.19177 1.19177 1.19177 1.19178 1.19177 1.19178 1.19179 1.19178 1.19177 1.19178 1.19177 1.19178 1.19177 1.19177 1.19177 1.19178 1.19178 1.19178 1.19177 1.19178 1.19178 1.19178 1.19178 1.19178 1.19178 1.19177 1.19177 1.19178 1.19178 1.19177 1.19179 1.19179 1.19177 1.19181 1.19179 1.1918 1.19178 1.19178 1.19178 1.19181 1.19181 1.19179 1.19181 1.19177 1.19179 1.19181 1.1918 1.19178 1.19176 1.19179 1.19179 1.19179 1.19178 1.19177 1.19179 1.19181 1.19178 1.19177 1.19178 1.19177 1.19177 1.19178 1.19178 1.19176 1.19177 1.19178 1.19178 1.19177 1.19177 1.19177 1.19178 1.19178 1.19175 1.19178 1.19177 1.19173 1.19178 1.19177 1.19175 1.19174 1.19177 1.19179 1.19172 1.19173 1.19179 1.19179 1.1918 1.19177 1.19179 1.19177 1.19178 1.19178 1.19177 1.19177 1.19175 1.19177 1.19177 1.19178 1.19177 1.19177 1.19178 1.19177 1.19178 1.19177 1.19177 1.19179 1.19177 1.19178 1.19177 1.19177 1.19177 1.19178 1.19178 1.19177 1.19177 1.19178 1.19178 1.19177 1.19177 1.19177 1.19178 1.19179 1.19178 1.19178 1.19178 1.19178 1.19178 1.19177 1.19178 1.19178 1.19177 1.19177 1.19178 1.19175 1.19177 1.19178 1.1918 1.19179 1.19176 1.19179 1.19179 1.1918 1.19179 1.19178 1.19179 1.1918 1.19179 1.1918 1.19178 1.1918 1.19177 1.19179 1.1918 1.19184 1.1918 1.19175 1.19175 1.1918 1.19177 1.19179 1.19178 1.19179 1.19182 1.19177 1.19175 1.19178 1.19177 1.19177 1.19176 1.19177 1.19177 1.19177 1.19177 1.19178 1.19175 1.19176 1.19175 1.19178 1.19177 1.19177 1.19174 1.19179 1.19179 1.19172 1.19172 1.19179 1.19177 1.19179 1.19179 1.19178 1.19177 1.19178 1.19178 1.19178 1.19178 1.19178 1.19175 1.19176 1.19177 1.19177 1.19178 1.19177 1.19178 1.19178 1.19177 1.19177 1.19177 1.19178 1.19177 1.19177 1.19177 1.19178 1.19178 1.19178 1.19178 1.19177 1.19177 1.19176 1.19177 1.19176 1.19178 1.19178 1.19177 1.19178 1.19178 1.19178 1.19178 1.19177 1.19177 1.19177 1.19177 1.19178 1.19175 1.1918 1.19181 1.19179 1.19175 1.19178 1.19178 1.1918 1.19179 1.19179 1.19181 1.19179 1.19179 1.19178 1.19178 1.19177 1.19179 1.19177 1.19179 1.19177 1.1918 1.19184 1.1918 1.19175 1.19174 1.1918 1.19177 1.1918 1.19179 1.19173 1.19176 1.19177 1.19177 1.19182 1.19178 1.19178 1.19176 1.19175 1.19177 1.19177 1.19178 1.19177 1.19177 1.19178 1.19177 1.19177 1.19177 1.19176 1.19176 1.19176 1.19178 1.19177 1.19175 1.19177 1.19178 1.19178 1.19176 1.19177 1.19177 1.19177 1.19179 1.19178 1.19177 1.19178 1.19178 1.19178 1.19175 1.19176 1.19176 1.19177 1.19178 1.19177 1.19177 1.19178 1.19177 1.19178 1.19178 1.19177 1.19177 1.19178 1.19178 1.19177 1.19178 1.19177 1.19177 1.19178 1.19178 1.19178 1.19177 1.19178 1.19178 1.19178 1.19177 1.19177 1.19178 1.19178 1.19178 1.19178 1.19178 1.19178 1.19177 1.1918 1.19178 1.19177 1.19177 1.19178 1.19181 1.19179 1.19178 1.19176 1.19177 1.1918 1.1918 1.19179 1.1918 1.19179 1.19179 1.19177 1.19177 1.19179 1.19179 1.19177 1.19179 1.19182 1.19175 1.1918 1.1918 1.1918 1.19178 1.19178 1.19173 1.19176 1.19178 1.19177 1.19179 1.19176 1.19175 1.19177 1.19176 1.19176 1.19177 1.19176 1.19177 1.19176 1.19177 1.19176 1.19179 1.19176 1.19177 1.19177 1.19177 1.19176 1.19175 1.19178 1.19177 1.19177 1.19178 1.19176 1.19178 1.19176 1.19176 1.19179 1.19176 1.19177 1.19177 1.19178 1.19178 1.19178 1.19177 1.19178 1.19175 1.19176 1.19177 1.19178 1.19177 1.19178 1.19177 1.19178 1.19178 1.19178 1.19177 1.19178 1.19177 1.19178 1.19178 1.19178 1.19178 1.19177 1.19178 1.19177 1.19177 1.19177 1.19178 1.19179 1.19178 1.19178 1.19178 1.19178 1.19178 1.19178 1.19179 1.19178 1.19178 1.1918 1.19179 1.19178 1.19177 1.19178 1.19181 1.19179 1.19179 1.1918 1.19177 1.19177 1.19176 1.19179 1.19178 1.19177 1.19179 1.19181 1.19178 1.1918 1.1918 1.19177 1.19176 1.19176 1.19177 1.19177 1.19179 1.19178 1.19176 1.19172 1.19177 1.19177 1.19178 1.19177 1.19177 1.19177 1.19176 1.19177 1.19176 1.19179 1.19176 1.19176 1.19178 1.19178 1.19177 1.19176 1.19175 1.19176 1.19178 1.19176 1.19178 1.19176 1.19176 1.19179 1.19176 1.19175 1.19177 1.19177 1.19178 1.19177 1.19178 1.19177 1.19177 1.19176 1.19176 1.19176 1.19176 1.19175 1.19176 1.19177 1.19177 1.19178 1.19177 1.19178 1.19178 1.19178 1.19177 1.19178 1.19177 1.19177 1.19177 1.19177 1.19178 1.19178 1.19177 1.19177 1.19177 1.19177 1.19177 1.19177 1.19179 1.19178 1.19178 1.19177 1.19178 1.19178 1.19178 1.19173 1.19179 1.19182 1.19177 1.19178 1.19179 1.19179 1.19178 1.19178 1.19182 1.19176 1.19181 1.19179 1.19179 1.19179 1.19178 1.19179 1.1918 1.19178 1.19177 1.1918 1.19181 1.19178 1.19177 1.19178 1.1918 1.1918 1.19177 1.19178 1.19176 1.1918 1.19177 1.19176 1.19177 1.19174 1.19177 1.19178 1.19178 1.19178 1.19178 1.19177 1.19176 1.19176 1.19176 1.19176 1.19179 1.19176 1.19177 1.19176 1.19175 1.19174 1.19176 1.19178 1.19176 1.19177 1.19176 1.19176 1.19179 1.19177 1.19177 1.19178 1.19177 1.19178 1.19178 1.19177 1.19176 1.19177 1.19176 1.19176 1.19176 1.19177 1.19177 1.19177 1.19178 1.19177 1.19178 1.19177 1.19178 1.19177 1.19177 1.19177 1.19177 1.19177 1.19177 1.19177 1.19177 1.19178 1.19178 1.19178 1.19177 1.19177 1.19177 1.19177 1.19179 1.19178 1.19178 1.19177 1.19177 1.19178 1.19178 1.19179 1.19178 1.19177 1.19179 1.19182 1.19179 1.19179 1.19178 1.19177 1.19182 1.19175 1.19178 1.1918 1.19179 1.19177 1.19179 1.19178 1.19179 1.1918 1.19178 1.19177 1.19177 1.1918 1.19181 1.19178 1.19177 1.19176 1.19179 1.19179 1.19177 1.19175 1.19177 1.1918 1.19178 1.19178 1.19178 1.19175 1.19175 1.19177 1.19174 1.19178 1.1918 1.19177 1.19178 1.19178 1.19177 1.19176 1.19178 1.19176 1.19178 1.19176 1.19177 1.19176 1.19177 1.19177 1.19175 1.19175 1.19178 1.19177 1.19177 1.19177 1.19176 1.19177 1.19176 1.19177 1.19176 1.19176 1.19177 1.19178 1.19178 1.19178 1.19178 1.19177 1.19178 1.19178 1.19175 1.19175 1.19176 1.19178 1.19176 1.19177 1.19178 1.19178 1.19177 1.19178 1.19178 1.19178 1.19177 1.19177 1.19177 1.19177 1.19177 1.19177 1.19177 1.19178 1.19177 1.19178 1.19178 1.19178 1.19177 1.19177 1.19178 1.19179 1.19178 1.19176 1.19178 1.19177 1.19178 1.19178 1.19178 1.19178 1.19181 1.1918 1.19177 1.19179 1.19178 1.19178 1.19182 1.19179 1.19177 1.19179 1.19177 1.19178 1.19177 1.19179 1.19179 1.19178 1.19177 1.19179 1.19177 1.19175 1.1918 1.19178 1.19177 1.19177 1.19179 1.19176 1.19176 1.19175 1.19178 1.19177 1.19178 1.19178 1.19175 1.19177 1.19175 1.19178 1.19177 1.19178 1.19178 1.19178 1.19177 1.19176 1.19176 1.19179 1.19176 1.19176 1.19177 1.19177 1.19176 1.19176 1.19175 1.19177 1.19177 1.19176 1.19177 1.19178 1.19176 1.19176 1.19177 1.19177 1.19178 1.19177 1.19177 1.19178 1.19178 1.19176 1.19177 1.19177 1.19176 1.19177 1.19178 1.19177 1.19178 1.19178 1.19178 1.19177 1.19177 1.19178 1.19178 1.19178 1.19178 1.19177 1.19178 1.19179 1.19178 1.19178 1.19177 1.19177 1.19178 1.19178 1.19178 1.19178 1.19177 1.19177 1.19177 1.19176 1.19178 1.19178 1.19178 1.19178 1.19177 1.19179 1.19178 1.19179 1.19182 1.1918 1.19177 1.19177 1.1918 1.19178 1.19178 1.19176 1.19176 1.19179 1.19179 1.19179 1.19177 1.19175 1.1918 1.19178 1.19177 1.19175 1.19175 1.19176 1.19176 1.19176 1.19175 1.19177 1.19179 1.19178 1.19178 1.19176 1.19176 1.19177 1.19175 1.19177 1.19178 1.19177 1.19177 1.19177 1.19176 1.19175 1.19176 1.19178 1.19176 1.19176 1.19178 1.19179 1.19177 1.19178 1.19178 1.19175 1.19176 1.19179 1.19177 1.19176 1.19176 1.19177 1.19175 1.19176 1.19176 1.19177 1.19178 1.19178 1.19177 1.19177 1.19178 1.19177 1.19178 1.19177 1.19177 1.19176 1.19177 1.19178 1.19177 1.19178 1.19178 1.19177 1.19177 1.19178 1.19178 1.19177 1.19178 1.19178 1.19178 1.19177 1.19178 1.19177 1.19178 1.19178 1.19178 1.19178 1.19177 1.19178 1.19177 1.19177 1.19176 1.19178 1.19178 1.19178 1.19178 1.19177 1.19177 1.19178 1.19178 1.19179 1.19179 1.1918 1.19178 1.19177 1.19174 1.19177 1.19177 1.19179 1.19182 1.19176 1.19178 1.19178 1.19179 1.19177 1.19175 1.1918 1.19179 1.19176 1.19175 1.19176 1.19176 1.19178 1.19178 1.19179 1.19176 1.19178 1.19176 1.19176 1.19178 1.19177 1.19177 1.19178 1.19175 1.19177 1.19177 1.19175 1.19177 1.19177 1.19177 1.19176 1.19177 1.19179 1.19178 1.19178 1.19178 1.19177 1.19177 1.19177 1.19177 1.19178 1.19178 1.19178 1.19176 1.19176 1.19176 1.19177 1.19178 1.19178 1.19178 1.19178 1.19178 1.19177 1.19178 1.19177 1.19178 1.19176 1.19177 1.19178 1.19178 1.19178 1.19178 1.19178 1.19177 1.19178 1.19178 1.19177 1.19178 1.19178 1.19178 1.19178 1.19177 1.19178 1.19178 1.19178 1.19177 1.19178 1.19177 1.19178 1.19177 1.19176 1.19177 1.19176 1.19178 1.19177 1.19178 1.19177 1.19177 1.19178 1.19178 1.19178 1.19179 1.19179 1.19177 1.19177 1.19174 1.19176 1.19183 1.19174 1.19176 1.19177 1.19178 1.19178 1.19176 1.19175 1.19175 1.19178 1.19178 1.19178 1.19176 1.19177 1.19178 1.19175 1.19177 1.19175 1.19177 1.19179 1.19178 1.19176 1.19176 1.19178 1.19177 1.19178 1.19177 1.19178 1.19178 1.19178 1.19177 1.19178 1.19177 1.19177 1.19177 1.19176 1.19177 1.19177 1.19178 1.19177 1.19178 1.19177 1.19178 1.19177 1.19177 1.19177 1.19177 1.19176 1.19177 1.19176 1.19177 1.19177 1.19178 1.19178 1.19178 1.19178 1.19177 1.19178 1.19178 1.19178 1.19178 1.19177 1.19178 1.19178 1.19178 1.19178 1.19178 1.19177 1.19178 1.19178 1.19178 1.19178 1.19178 1.19177 1.19178 1.19177 1.19177 1.19178 1.19177 1.19177 1.19177 1.19177 1.19176 1.19177 1.19176 1.19176 1.19177 1.19175 1.19177 1.19178 1.19177 1.19177 1.19176 1.19177 1.19176 1.19179 1.19178 1.19178 1.19178 1.19175 1.19176 1.19177 1.19173 1.19176 1.19175 1.19179 1.19177 1.19176 1.19174 1.19175 1.19177 1.19176 1.19177 1.19176 1.19175 1.19177 1.19177 1.19177 1.19177 1.19176 1.19176 1.19178 1.19178 1.19178 1.19178 1.19177 1.19178 1.19177 1.19178 1.19177 1.19177 1.19177 1.19177 1.19178 1.19178 1.19178 1.19177 1.19177 1.19177 1.19175 1.19177 1.19177 1.19176 1.19177 1.19178 1.19178 1.19178 1.19178 1.19177 1.19178 1.19178 1.19178 1.19178 1.19177 1.19178 1.19178 1.19178 1.19178 1.19178 1.19177 1.19178 1.19178 1.19178 1.19178 1.19178 1.19178 1.19177 1.19178 1.19177 1.19178 1.19177 1.19177 1.19178 1.19176 1.19177 1.19176 1.19176 1.19177 1.19176 1.19176 1.19176 1.19177 1.19178 1.1918 1.19178 1.19176 1.19176 1.19175 1.19176 1.19177 1.19173 1.19176 1.19177 1.19177 1.19175 1.19175 1.19175 1.19174 1.19172 1.19173 1.19174 1.19179 1.19174 1.19176 1.19177 1.19178 1.19178 1.19177 1.19176 1.19176 1.19176 1.19176 1.19177 1.19176 1.19176 1.19177 1.19178 1.19178 1.19177 1.19178 1.19177 1.19177 1.19178 1.19178 1.19176 1.19176 1.19176 1.19177 1.19177 1.19177 1.19177 1.19177 1.19177 1.19178 1.19175 1.19177 1.19177 1.19178 1.19177 1.19174 1.19176 1.19175 1.19176 1.19175 1.19176 1.19177 1.19178 1.1918 1.19177 1.19178 1.19175 1.19177 1.19177 1.19177 1.19178 1.19174 1.19176 1.19175 1.19177 1.19175 1.19176 1.19175 1.19178 1.19177 1.19177 1.19178 1.19177 1.19177 1.19175 1.19176 1.19178 1.19175 1.19176 1.19176 1.19178 1.19177 1.19177 1.19178 1.19178 1.19178 1.19177 1.19176 1.19177 1.19175 1.19175 1.19177 1.19177 1.19174 1.19174 1.19175 1.19176 1.19178 1.19176 1.19177 1.19176 1.19178 1.19176 1.19177 1.19178 1.19178 1.19177 1.19178 1.19176 1.19177 1.19176 1.19176 1.19176 1.19178 1.19174 1.19177 1.19177 1.19178 1.19177 1.19177 1.19176 1.19175 1.19177 1.19177 1.19178 1.19178 1.19176 1.19177 1.19178 1.19175 1.19176 1.19178 1.19177 1.19175 1.19173 1.19174 1.19177 1.19178 1.19178 1.19177 1.19176 1.19177 1.19175 1.19177 1.19176 1.19178 1.19178 1.19176 1.19177 1.19175 1.19176 1.19177 1.19175 1.19175 1.19174 1.19174 1.19176 1.19179 1.19178 1.19178 1.19178 1.19178 1.19177 1.19176 1.19177 1.19176 1.19177 1.19176 1.19178 1.19178 1.19175 1.19178 1.19177 1.19177 1.19176 1.19179 1.19175 1.19173 1.19177 1.19178 1.19178 1.19178 1.19178 1.19178 1.19178 1.19178 1.19178 1.19178 1.19178 1.19178 1.19178 1.19178 1.19178 1.19178 1.19178 1.19178 1.19178 1.19178 1.19178 1.19178 1.19178 1.19178 1.19178 1.19178 1.19178 1.19178 1.19177 1.19177 1.19177 1.19176 1.19178 1.19176 1.19176 1.19176 1.19178 1.1918 1.19174 1.19178 1.19176 1.19177 1.19178 1.19176 1.19178 1.19179 1.19177 1.19178 1.19178 1.19178 1.19178 1.19178 1.19178 1.19178 1.19178 1.19178 1.19178 1.19178 1.19178 1.19178 1.19178 1.19178 1.19178 1.19178 1.19178 1.19178 1.19178 1.19178 1.19178 1.19178 1.19178 1.19178 1.19178 1.19178 1.19178 1.19178 1.19178 1.19177 1.19176 1.19177 1.19178 1.19177 1.19178 1.19175 1.19176 1.1918 1.19177 1.19175 1.19175 1.19179 1.19177 1.19175 1.19177 1.19178 1.19178 1.19178 1.19177 1.19178 1.19177 1.19178 1.19178 1.19178 1.19178 1.19178 1.19178 1.19178 1.19178 1.19178 1.19178 1.19178 1.19178 1.19178 1.19178 1.19178 1.19178 1.19178 1.19178 1.19178 1.19178 1.19178 1.19178 1.19178 1.19178 1.19178 1.19178 1.19178 1.19178 1.19178 1.19178 1.19178 1.19178 1.19178 1.19178 1.19178 1.19178 1.19178 1.19178 1.19178 1.19177 1.19179 1.19177 1.19176 1.19176 1.19177 1.19175 1.19176 1.19177 1.19177 1.19176 1.19174 1.19177 1.19176 1.19175 1.19177 1.19177 1.19178 1.19177 1.19178 1.19178 1.19178 1.19178 1.19178 1.19178 1.19178 1.19178 1.19178 1.19178 1.19178 1.19178 1.19178 1.19178 1.19178 1.19178 1.19178 1.19178 1.19178 1.19178 1.19178 1.19178 1.19178 1.19178 1.19178 1.19178 1.19178 1.19178 1.19178 1.19178 1.19178 1.19178 1.19178 1.19178 1.19178 1.19178 1.19178 1.19178 1.19178 1.19178 1.19178 1.19178 1.19178 1.19178 1.19178 1.19178 1.19178 1.19178 1.19178 1.19178 1.19178 1.19178 1.19178 1.19178 1.19177 1.19177 1.19176 1.19177 1.19175 1.19176 1.19177 1.19177 1.19176 1.19174 1.19173 1.19176 1.19176 1.19177 1.19178 1.19178 1.19176 1.19177 1.19177 1.19178 1.19178 1.19178 1.19178 1.19178 1.19178 1.19178 1.19178 1.19178 1.19178 1.19178 1.19178 1.19178 1.19178 1.19178 1.19178 1.19178 1.19178 1.19178 1.19178 1.19178 1.19178 1.19178 1.19178 1.19178 1.19178 1.19178 1.19178 1.19178 1.19178 1.19178 1.19178 1.19178 1.19178 1.19178 1.19178 1.19178 1.19178 1.19178 1.19178 1.19178 1.19178 1.19178 1.19178 1.19178 1.19178 1.19178 1.19178 1.19177 1.19176 1.19176 1.19177 1.19177 1.19178 1.19176 1.19176 1.19176 1.19176 1.19176 1.19173 1.19178 1.19176 1.19177 1.19177 1.19176 1.19178 1.19179 1.19177 1.19177 1.19178 1.19178 1.19178 1.19178 1.19178 1.19178 1.19178 1.19178 1.19178 1.19178 1.19178 1.19178 1.19178 1.19178 1.19178 1.19178 1.19178 1.19178 1.19178 1.19178 1.19178 1.19178 1.19178 1.19178 1.19178 1.19178 1.19178 1.19178 1.19178 1.19178 1.19178 1.19178 1.19178 1.19178 1.19178 1.19178 1.19178 1.19178 1.19178 1.19178 1.19178 1.19178 1.19178 1.19178 1.19178 1.19178 1.19178 1.19178 1.19178 1.19178 1.19178 1.19178 1.19178 1.19178 1.19178 1.19178 1.19178 1.19177 1.19179 1.19177 1.19178 1.19177 1.19176 1.19177 1.19178 1.19177 1.19176 1.19177 1.19177 1.19174 1.19177 1.19177 1.19178 1.19177 1.19176 1.19177 1.19177 1.19177 1.19178 1.19178 1.19178 1.19178 1.19178 1.19178 1.19178 1.19178 1.19178 1.19178 1.19178 1.19178 1.19178 1.19178 1.19178 1.19178 1.19178 1.19178 1.19178 1.19178 1.19178 1.19178 1.19178 1.19178 1.19178 1.19178 1.19178 1.19178 1.19178 1.19178 1.19178 1.19178 1.19178 1.19178 1.19178 1.19178 1.19178 1.19178 1.19178 1.19178 1.19178 1.19178 1.19178 1.19178 1.19177 1.19176 1.19178 1.19177 1.19177 1.19178 1.19176 1.19177 1.19178 1.19177 1.19178 1.19177 1.19178 1.19175 1.19176 1.19176 1.19175 1.19178 1.19176 1.19177 1.19176 1.19178 1.19178 1.19177 1.19178 1.19178 1.19178 1.19178 1.19178 1.19178 1.19178 1.19178 1.19178 1.19178 1.19178 1.19178 1.19178 1.19178 1.19178 1.19178 1.19178 1.19178 1.19178 1.19178 1.19178 1.19178 1.19178 1.19178 1.19178 1.19178 1.19178 1.19178 1.19178 1.19178 1.19178 1.19178 1.19178 1.19178 1.19178 1.19178 1.19178 1.19178 1.19178 1.19178 1.19178 1.19178 1.19177 1.19176 1.19178 1.19176 1.19177 1.19177 1.19177 1.19177 1.19177 1.19177 1.19177 1.19178 1.19176 1.19176 1.19178 1.19178 1.19176 1.19178 1.19178 1.19178 1.19178 1.19178 1.19178 1.19178 1.19178 1.19178 1.19178 1.19178 1.19178 1.19178 1.19178 1.19178 1.19178 1.19178 1.19178 1.19178 1.19178 1.19178 1.19178 1.19178 1.19178 1.19178 1.19178 1.19178 1.19178 1.19178 1.19178 1.19178 1.19178 1.19178 1.19178 1.19178 1.19178 1.19178 1.19178 1.19178 1.19178 1.19178 1.19178 1.19178 1.19178 1.19178 1.19177 1.19177 1.19179 1.19178 1.19176 1.19178 1.19178 1.19177 1.19177 1.19177 1.19178 1.19176 1.19178 1.19176 1.19178 1.19177 1.19178 1.19178 1.19178 1.19178 1.19178 1.19178 1.19178 1.19178 1.19178 1.19178 1.19178 1.19178 1.19178 1.19178 1.19178 1.19178 1.19178 1.19178 1.19178 1.19178 1.19178 1.19178 1.19178 1.19178 1.19178 1.19178 1.19178 1.19178 1.19178 1.19178 1.19178 1.19178 1.19178 1.19178 1.19178 1.19178 1.19178 1.19178 1.19178 1.19178 1.19178 1.19178 1.19178 1.19178 1.19178 1.19177 1.19178 1.19177 1.19178 1.19177 1.19177 1.19178 1.19178 1.19179 1.19177 1.19177 1.19177 1.19177 1.19177 1.19177 1.19178 1.19177 1.19176 1.19178 1.19177 1.19178 1.19178 1.19178 1.19178 1.19178 1.19178 1.19178 1.19178 1.19178 1.19178 1.19178 1.19178 1.19178 1.19178 1.19178 1.19178 1.19178 1.19178 1.19178 1.19178 1.19178 1.19178 1.19178 1.19178 1.19178 1.19178 1.19178 1.19178 1.19178 1.19178 1.19178 1.19178 1.19178 1.19178 1.19177 1.19177 1.19178 1.19177 1.19177 1.19177 1.19177 1.19178 1.19177 1.19178 1.19177 1.19178 1.19177 1.19177 1.19178 1.19177 1.19177 1.19178 1.19178 1.19178 1.19178 1.19178 1.19178 1.19178 1.19178 1.19178 1.19178 1.19178 1.19178 1.19178 1.19178 1.19178 1.19178 1.19178 1.19178 1.19178 1.19178 1.19178 1.19178 1.19178 1.19178 1.19178 1.19178 1.19178 1.19178 1.19178 1.19177 1.19177 1.19177 1.19177 1.19178 1.19177 1.19177 1.19177 1.19178 1.19177 1.19178 1.19177 1.19177 1.19177 1.19177 1.19178 1.19177 1.19177 1.19178 1.19178 1.19178 1.19178 1.19178 1.19178 1.19178 1.19178 1.19178 1.19178 1.19178 1.19178 1.19178 1.19178 1.19178 1.19178 1.19178 1.19178 1.19178 1.19178 1.19178 1.19178 1.19178 1.19178 1.19178 1.19178 1.19178 1.19178 1.19177 1.19177 1.19177 1.19177 1.19178 1.19177 1.19177 1.19177 1.19177 1.19177 1.19177 1.19177 1.19177 1.19177 1.19177 1.19177 1.19178 1.19178 1.19177 1.19178 1.19177 1.19178 1.19178 1.19178 1.19178 1.19178 1.19178 1.19178 1.19178 1.19178 1.19178 1.19178 1.19178 1.19178 1.19178 1.19178 1.19178 1.19177 1.19177 1.19177 1.19178 1.19177 1.19177 1.19177 1.19177 1.19177 1.19177 1.19178 1.19178 1.19177 1.19178 1.19178 1.19178 1.19178 1.19177 1.19178 1.19178 1.19178 1.19178 1.19178 1.19178 1.19178 1.19178 1.19178 1.19178 1.19178 1.19178 1.19178 1.19178 1.19178 1.19178 1.19178 1.19178 1.19178 1.19177 1.19177 1.19177 1.19177 1.19178 1.19178 1.19177 1.19177 1.19177 1.19177 1.19177 1.19177 1.19178 1.19177 1.19178 1.19177 1.19177 1.19178 1.19178 1.19178 1.19178 1.19178 1.19178 1.19178 1.19178 1.19178 1.19178 1.19178 1.19178 1.19178 1.19178 1.19178 1.19178 1.19178 1.19178 1.19177 1.19177 1.19178 1.19178 1.19178 1.19178 1.19177 1.19178 1.19177 1.19178 1.19177 1.19178 1.19177 1.19178 1.19178 1.19177 1.19178 1.19177 1.19178 1.19178 1.19178 1.19178 1.19178 1.19178 1.19178 1.19178 1.19178 1.19178 1.19178 1.19178 1.19178 1.19178 1.19178 1.19178 1.19178 1.19178 1.19178 1.19177 1.19178 1.19178 1.19177 1.19178 1.19178 1.19177 1.19178 1.19178 1.19178 1.19177 1.19177 1.19178 1.19178 1.19178 1.19178 1.19178 1.19178 1.19178 1.19178 1.19178 1.19178 1.19178 1.19178 1.19178 1.19178 1.19177 1.19178 1.19177 1.19178 1.19178 1.19178 1.19178 1.19178 1.19178 1.19178 1.19178 1.19178 1.19177 1.19178 1.19178 1.19178 1.19178 1.19178 1.19178 1.19178 1.19178 1.19178 1.19178 1.19178 1.19178 1.19178 1.19178 1.19178 1.19178 1.19178 1.19177 1.19178 1.19177 1.19178 1.19178 1.19178 1.19178 1.19178 1.19178 1.19178 1.19178 1.19178 1.19178 1.19178 1.19178 1.19178 1.19178 1.19178 1.19178 1.19178 1.19178 1.19178 1.19178 1.19178 1.19178 1.19178 1.19178 1.19178 1.19178 1.19178 1.19178 1.19178 1.19178 1.19178 1.19178 1.19178 1.19178 5.95508e-05 2.44933e-05 8.8042e-05 0.000180492 0.00027127 0.000251643 0.000223777 0.000226313 0.000185986 0.000194923 0.000149496 0.000254164 0.000199248 0.000280877 0.000236839 0.000180625 7.67962e-05 8.36407e-05 0.000220488 0.000255223 0.000207668 0.000228083 0.000202695 0.000222613 0.000270369 0.000258205 0.000199467 0.000123814 0.000215723 0.000223551 0.00018912 0.000446578 0.000907502 0.00033829 0.000325527 0.00054745 0.000374188 0.000251872 8.6137e-06 0.000379047 0.00014638 0.000364164 0.000108608 0.000333338 0.000335768 0.000648852 0.000473478 0.000659848 0.000788085 0.000799538 0.000573135 0.00144268 0.000181119 0.000247476 0.000350953 0.000474571 0.000596894 0.000574027 0.000653049 0.000878832 0.00101509 0.00114225 0.00109437 0.000883057 0.000872813 0.00084624 0.000747309 0.000827609 0.000859402 0.000923203 0.00107371 0.000855319 0.000776765 0.000539916 0.00049104 0.000462986 0.000669217 0.000193836 0.000261488 0.000180833 0.000490546 0.000396447 0.000627163 0.000647567 0.000720706 0.0010239 0.00163836 0.00292976 0.00345694 0.0023958 0.00362685 0.00409729 0.00463829 0.0058291 0.00282921 0.00195016 0.00199353 0.0049917 0.00506709 0.00418277 0.0030406 0.00131089 7.37576e-05 0.000110094 0.000164029 4.04483e-05 0.000284606 0.000139808 0.000296438 0.000314086 0.000292572 0.000163378 0.00018313 0.000252481 0.000368845 0.000190117 0.000229505 0.000133766 0.000142465 0.000265468 0.000281358 0.000459227 0.000520532 0.000336881 0.000333837 0.000199715 0.000124884 0.000116884 0.000194996 0.00030289 6.28447e-05 0.000160011 0.000322146 0.000307532 0.000495781 0.000311287 0.000482117 0.000370347 0.000367985 0.000381179 0.000583315 0.000590755 0.000526904 0.000490941 0.000611705 0.000340086 0.000582912 0.000494285 0.000316016 0.000540861 0.000369431 0.000570278 0.000184363 0.000318985 0.000510448 0.000632402 0.00129192 0.00104522 0.00131052 0.00106866 0.000607335 0.000457809 0.000555342 0.00063829 0.000548636 0.000561541 0.000284939 0.000417927 0.000110611 0.000392473 0.000145967 0.00020391 0.000292097 0.000592582 0.000661649 0.00068008 0.000265411 0.000254101 0.000483478 0.000363894 0.000569897 0.000434704 0.000352871 0.000962871 0.000246748 0.00081325 0.000744503 0.000160214 0.000277313 0.000499349 0.000536417 0.000653303 0.000802876 0.000671261 0.0009207 0.00104447 0.00113588 0.000903099 0.00110167 0.000521858 0.00110053 0.000940442 0.00102975 0.000880839 0.000836947 0.000861796 0.000887833 0.000939736 0.000904704 0.00112478 0.000968928 0.000761323 0.000573527 0.000168266 0.000448519 0.000247341 0.000476601 0.00101691 0.00110657 0.00109829 0.000960094 0.000733555 0.000783032 0.000362239 0.000551174 0.000653696 0.000388381 0.000340732 0.000830105 0.000600045 0.000333196 0.00058627 0.000127876 0.000487656 0.00077053 0.000387751 0.000393876 0.00137731 0.00174538 0.00155314 0.00147905 0.00110656 0.00229036 0.00383054 0.00376143 0.00556512 0.00321551 0.000920424 0.00375343 0.00392556 0.00530297 0.0054454 0.00877004 0.00602072 0.00771896 0.00816636 0.00490278 0.00364194 0.00323948 0.00396475 0.00273778 0.0037442 0.00268098 0.00310391 0.00175505 0.00264421 0.000257063 0.000250596 0.000218382 0.000248694 0.000281465 0.000158928 0.000166054 0.000171908 0.000125138 0.000195756 0.00024398 0.000179617 0.00022921 0.000306337 0.000446804 0.000330325 0.00025318 0.000556727 0.00028556 0.000266181 0.000195206 0.00029287 0.00039984 0.000372629 0.000459044 0.000349951 0.000349432 0.000222908 0.000233111 0.000417225 0.000522751 0.000440602 0.000625322 0.000666884 0.000585902 0.000655797 0.000673377 0.000619857 0.000508126 0.000751522 0.000754911 0.000755596 0.000633878 0.000525766 0.000590812 0.000502164 0.0005901 0.000347412 0.000440025 0.000380027 0.000354004 0.000232524 0.000223915 5.34216e-05 5.45324e-05 0.000100909 0.00039933 0.000789214 0.000419419 0.000309246 0.000786667 0.000460432 0.000937931 0.000260423 0.000630758 0.000564139 0.000307286 0.000397216 0.000427677 0.000542926 0.000714184 0.000557266 0.000758879 0.000733312 0.000756841 0.0005217 0.000661397 0.000742316 0.000759073 0.000831152 0.000761438 0.000875518 0.000967024 0.000953325 0.000873729 0.000835521 0.000850186 0.000812399 0.000595741 0.000470409 0.000423462 0.000371306 0.000480194 0.000640414 0.000952548 0.000651844 0.000898615 0.000932221 0.000872712 0.000908492 0.000556836 0.000402901 8.15202e-05 0.000275769 0.00059209 0.000672761 0.000812591 0.00046267 0.000823222 0.00124066 0.00152061 0.000970664 0.00308029 0.0034373 0.0035139 0.00218652 0.00324571 0.00335129 0.00714561 0.0050919 0.00680823 0.00474417 0.00687331 0.00740303 0.00271112 0.00181223 0.0025238 0.00124492 0.00352765 0.00385901 0.0026499 0.000286623 0.00024323 0.000206787 0.000333361 0.000268323 0.000231001 0.000213297 0.000142605 0.000174301 0.000179274 0.00018113 0.000207583 0.000318008 0.000460287 0.000415858 0.000526249 0.000388586 0.000480249 0.000367598 0.00036396 0.00039918 0.000374191 0.000315004 0.00041013 0.000521288 0.000571488 0.000717978 0.00062297 0.00076501 0.000885408 0.000780287 0.000889899 0.000804588 0.00081806 0.000577368 0.000600822 0.000499985 0.000550439 0.000569578 0.000551374 0.000451674 0.000299715 5.49659e-05 7.14611e-05 6.40955e-05 4.78069e-05 0.000263047 0.000251446 0.000240009 0.000410088 0.00074748 0.000495449 0.000411827 0.000454384 0.000244508 0.000449005 0.000838003 0.000536091 0.000826048 0.000340058 0.000373195 0.000484846 0.000435658 0.00057242 0.000446405 0.000540347 0.000555631 0.000580085 0.000605062 0.000663463 0.000721625 0.000742665 0.000802672 0.000899721 0.000690498 0.000616186 0.000619407 0.000499639 0.000494605 0.000577524 0.000597111 0.000652079 0.000682973 0.000649185 0.000625608 0.000838963 0.000791367 0.000773973 0.000781542 0.000898927 0.000855775 0.000720814 0.000681588 0.000941773 0.000788058 0.000460014 0.000321352 0.00025886 0.000183646 8.60463e-05 0.000423716 0.00086015 0.00117319 0.00176568 0.00164862 0.00166465 0.00274536 0.0038573 0.00488605 0.00558423 0.00148301 0.0055738 0.00300105 0.0033395 0.00872574 0.00918918 0.00634215 0.0100272 0.00614167 0.00810728 0.0034967 0.00365377 0.0014479 0.00284237 0.00445259 0.00461952 0.00341746 0.00031414 0.000224446 0.000290652 0.000368349 0.000265669 0.000212664 0.000336914 0.000219374 0.000226322 0.00022363 0.000231397 0.000252345 0.000308789 0.000337397 0.000417485 0.000482143 0.000543751 0.000448687 0.000592205 0.000429649 0.000579239 0.000422049 0.000293244 0.000221836 0.000490277 0.000454074 0.000501235 0.000521868 0.000431555 0.000664266 0.000536689 0.000679864 0.000606349 0.000816257 0.000748947 0.000589459 0.000875698 0.000597921 0.000820733 0.000690904 0.000579884 0.000442404 0.000344133 0.000273614 0.000299836 0.000295343 0.000251084 0.000275996 0.00046501 0.000486111 0.000550866 0.000332169 0.000371597 3.62522e-05 0.000273152 0.000261175 5.87842e-05 0.000240323 7.80308e-05 0.000750874 0.000245951 0.000434115 0.000641021 0.000390869 0.000440261 0.000401205 0.000484641 0.000483424 0.000500727 0.000585677 0.000625974 0.000683896 0.00068598 0.000621925 0.000545878 0.000470878 0.000466047 0.000547055 0.000523077 0.000540674 0.000505046 0.000650916 0.000560662 0.00081742 0.000794293 0.000695528 0.000870114 0.000668069 0.000841846 0.000629427 0.000691974 0.000540571 0.000599247 0.000629794 0.000707793 0.000578471 0.000478258 0.00109927 0.00162695 0.00175535 0.00167681 0.00208485 0.00249928 0.00537328 0.0060658 0.00417408 0.00585518 0.00319635 0.00629722 0.00697696 0.00338172 0.00626992 0.00397033 0.00810562 0.0133637 0.00937554 0.00616887 0.00316255 0.00311733 0.00495202 0.00370592 0.00365958 0.00320649 0.00367925 0.00321206 0.000340619 0.000322282 0.000348045 0.000389601 0.000321624 0.000338533 0.000282032 0.000248661 0.000274988 0.00040618 0.000564695 0.000600718 0.000634047 0.000524239 0.000659475 0.000480479 0.000455879 0.000573891 0.000528148 0.000519908 0.000607898 0.000560954 0.000530032 0.000708663 0.000695434 0.000680522 0.000664101 0.000727584 0.000952203 0.000815824 0.000859784 0.000968905 0.000712414 0.000531838 0.00039553 0.000333526 0.000195973 0.000122628 0.000245769 0.000468963 0.000251062 0.000365079 0.00036013 0.00031974 0.000324737 0.000308735 0.000171527 0.000315592 0.000234269 0.00015843 0.00025909 0.00028538 0.000188697 2.39745e-05 0.000359458 0.000446383 0.000500877 0.000503864 0.000450289 0.000505459 0.000502654 0.000543246 0.00057041 0.000628182 0.000697336 0.000649091 0.000684749 0.000613653 0.000542082 0.000493151 0.000521824 0.000426887 0.000471542 0.000421959 0.000585921 0.000699787 0.000695253 0.000895298 0.000869678 0.000871845 0.000839813 0.000782821 0.000812823 0.000669387 0.000701731 0.000650212 0.000426167 0.000553896 0.000393558 0.000774529 0.00158645 0.00240624 0.00385674 0.00188573 0.00510375 0.00609034 0.00328015 0.00868936 0.00593741 0.00731611 0.00546186 0.00740503 0.0153746 0.0223748 0.00657551 0.0103661 0.00790215 0.00515379 0.00837639 0.00574054 0.00427145 0.006018 0.0045239 0.00321148 0.000390865 0.000372321 0.00045925 0.000407509 0.000333458 0.000330681 0.000294664 0.000265731 0.000319698 0.000244781 0.000389102 0.000479325 0.000459458 0.000531175 0.000574644 0.000541252 0.00053088 0.000540488 0.000581525 0.000530604 0.000655885 0.000645974 0.00074263 0.000586881 0.000621723 0.000647283 0.000737949 0.000587 0.000723409 0.000690588 0.000714699 0.000836152 0.000766806 0.000619396 0.000474012 0.000356151 0.000224772 0.000213563 0.000321787 0.000159422 0.000168084 0.000363067 0.00029479 0.00043765 0.000393217 0.000391212 0.000267671 0.000410241 0.000299139 8.60441e-05 0.00013006 0.000524207 0.000607656 0.000580799 0.000503245 0.000560423 0.000662137 0.000648131 0.0006584 0.00072128 0.000684069 0.000681226 0.000660223 0.00050657 0.00060603 0.000520288 0.000555331 0.000683308 0.000548419 0.0011394 0.000896274 0.0010752 0.000928128 0.000838074 0.000816731 0.000942023 0.000812882 0.000896422 0.000822011 0.000822449 0.000938953 0.000577034 0.000604899 0.000711623 0.00113561 0.000726855 0.0015181 0.0018984 0.00217925 0.00450038 0.00370531 0.0060149 0.00692291 0.00664842 0.00759984 0.00436702 0.00497456 0.00481055 0.00701025 0.00888518 0.00903327 0.0197543 0.015775 0.00904905 0.0125922 0.00758503 0.00861566 0.00644299 0.00445036 0.00296324 0.00217275 0.0022147 0.000155178 0.000328735 0.000332504 0.000393455 0.000520077 0.000355 0.000337902 0.000383941 0.000318476 0.000362666 0.000354234 0.000314475 0.000406842 0.000391714 0.000483452 0.000520741 0.00050064 0.000527239 0.000511424 0.000544005 0.000637952 0.000911866 0.00074078 0.000613962 0.000533501 0.000563717 0.00057397 0.000781308 0.000744001 0.000722092 0.000800791 0.000658396 0.000668702 0.000559827 0.000575711 0.000613359 0.000529835 0.000414482 0.00037218 0.00028293 0.000376863 0.000464457 0.00045 0.00046581 0.000430236 0.000459292 0.000491691 0.000716918 0.000632878 0.000603681 0.000467441 0.000526106 0.000431638 0.000357287 0.000243658 0.000260489 0.000146216 0.000569162 0.000635316 0.000524098 0.000514249 0.000561034 0.000632563 0.000552899 0.000706153 0.000719624 0.000799393 0.000790679 0.000749243 0.000660405 0.000774917 0.000740781 0.000643258 0.000801091 0.000908804 0.000924038 0.000915051 0.000783164 0.000897538 0.000827029 0.000865572 0.000808857 0.000714684 0.000812882 0.000830535 0.00089515 0.00100307 0.000936364 0.000789307 0.00123591 0.00192568 0.0024212 0.00294292 0.0060118 0.00811535 0.00305802 0.00275194 0.00998184 0.00386611 0.00197567 0.00873373 0.0108287 0.00649634 0.00433833 0.00612908 0.00617703 0.00721345 0.00375409 0.00707618 0.0011615 0.000134515 0.000320873 0.000188893 0.000321243 0.000565465 0.000340427 0.000370161 0.000381935 0.000358068 0.000372028 0.000360237 0.000350782 0.000303852 0.00032529 0.000293446 0.000242137 0.000577352 0.000547553 0.000607957 0.000566407 0.000539073 0.000547235 0.000530515 0.000673087 0.000723627 0.000642849 0.000787092 0.000729036 0.000667273 0.000853663 0.000696219 0.000797049 0.000728403 0.000684915 0.00049536 0.000561302 0.000444261 0.000403212 0.000464104 0.000539096 0.000624474 0.000400799 0.000584272 0.000816575 0.000314921 0.000643589 0.000238656 0.000161789 0.000171472 0.000256916 0.000163464 0.00046853 0.000671893 0.000558445 0.000613645 0.000718838 0.000803513 0.000704319 0.000732635 0.000735028 0.000745018 0.00087959 0.000913355 0.00089125 0.000966098 0.00100277 0.00103949 0.000902272 0.00102056 0.000856826 0.000785361 0.000938688 0.000874165 0.000893044 0.000908227 0.0011288 0.00133377 0.00108471 0.00103776 0.00202422 0.00502261 0.00244679 0.00360658 0.00603094 0.00602387 0.00335161 0.0071667 0.00932264 0.00859622 0.00867119 0.0101483 0.00639559 0.00534255 0.00310206 0.00195133 0.00535388 0.00559421 0.00491741 0.00125138 0.00057386 9.42199e-05 0.000190388 0.000289964 0.00033182 0.000338785 0.000311995 0.00041655 0.000330853 0.000349162 0.000408287 0.000310029 0.000380696 0.000301682 0.000460073 0.000646276 0.000623038 0.000584411 0.000610607 0.000744742 0.00105524 0.000701674 0.00067606 0.000690404 0.000351257 0.000440238 0.000642586 0.000889118 0.00101046 0.000921308 0.000761792 0.000704346 0.000629864 0.000748271 0.00059532 0.00052026 0.000549382 0.000600788 0.000567213 0.000220598 0.000249593 0.000452999 0.000216961 0.000347292 9.06213e-05 3.45982e-05 0.00018154 0.000296238 0.000483942 0.000735335 0.000705642 0.000638885 0.000608988 0.0007014 0.000753121 0.000688303 0.000641449 0.000730105 0.000665691 0.000700919 0.000943537 0.00095494 0.000980111 0.00106298 0.000863334 0.000876248 0.000967223 0.000961827 0.000959648 0.00108111 0.0010014 0.00108082 0.0011537 0.00140336 0.00120243 0.00158084 0.00115194 0.00168456 0.00132538 0.0017337 0.00176905 0.00183437 0.00139816 0.00435066 0.00590007 0.00781886 0.00920178 0.0106327 0.00438193 0.00535526 0.000896502 0.00382861 0.00557462 0.00287874 0.00496224 0.00414806 0.000902257 0.000191403 0.000131989 0.000344492 0.000239721 0.000304061 0.000304128 0.000291985 0.00033829 0.000406096 0.000433105 0.000480388 0.000408031 0.000473004 0.000642379 0.000620973 0.000695319 0.000559769 0.000865842 0.000857387 0.00100998 0.00103171 0.00163552 0.00119878 0.000399231 0.000260092 0.000254369 0.000475023 0.000545931 0.000736254 0.000606436 0.000748311 0.000758029 0.000734898 0.000969572 0.000812301 0.000771627 0.000766267 0.000711178 0.000710466 0.000673738 0.000505808 0.000602729 0.000331667 0.000144272 0.000186361 0.000103028 0.000164127 0.000319329 0.000635707 0.000471301 0.000774385 0.000801273 0.00058096 0.000778212 0.000753156 0.000710397 0.000756955 0.000687822 0.000428321 0.000818606 0.000705493 0.000785524 0.000953791 0.000860615 0.000772617 0.000947397 0.00127743 0.00122601 0.0012995 0.00113395 0.0013583 0.00153846 0.00118773 0.00182117 0.00183334 0.00165346 0.0020923 0.00199863 0.00171772 0.00190627 0.00155498 0.00170561 0.00273538 0.00437328 0.00654132 0.0097223 0.010942 0.0089629 0.00420926 0.00401204 0.00448671 0.00509241 0.00407724 0.00420975 0.000268708 0.000868879 0.000823024 0.000192281 0.000268127 0.000313668 0.000283426 0.000228271 0.000373 0.000397872 0.000427479 0.00032257 0.000398741 0.000621719 0.000982852 0.000775556 0.000687664 0.000688632 0.0013035 0.0016503 0.00165012 0.000954471 0.00089362 0.000696416 0.000724644 0.000475187 0.000730124 0.000394943 0.000643736 0.000436564 0.000767985 0.000733501 0.000777622 0.000502526 0.000567851 0.000582552 0.000625189 0.000221278 0.000322289 0.000398491 0.000401981 0.000267693 7.53586e-05 0.000281068 0.000220916 0.000300292 0.000355953 0.000290756 0.000775375 0.000857798 0.000897016 0.000731639 0.000707423 0.000749839 0.000689603 0.000723852 0.000804047 0.000347926 0.00120408 0.00119185 0.00101068 0.00117632 0.000625987 0.0009305 0.00074124 0.000404732 0.000569336 0.00140443 0.00134844 0.00143049 0.00130701 0.00153366 0.00159856 0.00160454 0.00214595 0.0024962 0.00260144 0.0025007 0.00261409 0.00336899 0.00252367 0.00327077 0.00403405 0.00445372 0.00643542 0.00677867 0.0115947 0.00746298 0.0104369 0.0082785 0.000547266 0.00382915 0.00464636 0.0038633 0.000113867 0.000205311 8.23567e-05 0.00017816 0.00022938 0.000370413 0.00127395 0.000822495 0.000402066 0.00115462 0.00253669 0.00256546 0.00300525 0.00443414 0.00389645 
SCALARS Stress float 1
LOOKUP_TABLE default
-12551500000.0 -12551500000.0 -12550800000.0 -12552700000.0 -12549700000.0 -12555400000.0 -12553900000.0 -12553800000.0 -12550200000.0 -12551000000.0 -12550300000.0 -12549700000.0 -12550600000.0 -12549700000.0 -12549700000.0 -12549800000.0 -12549700000.0 -12549800000.0 -12550100000.0 -12551600000.0 -12552500000.0 -12551300000.0 -12550100000.0 -12549700000.0 -12549700000.0 -12550100000.0 -12550600000.0 -12550800000.0 -12552500000.0 -12551600000.0 -12550800000.0 -12550000000.0 -12550600000.0 -12550600000.0 -12549700000.0 -12551200000.0 -12550800000.0 -12554000000.0 -12552600000.0 -12550200000.0 -12550900000.0 -12554400000.0 -12554900000.0 -12549900000.0 -12550000000.0 -12550800000.0 -12554200000.0 -12550700000.0 -12552800000.0 -12550900000.0 -12550600000.0 -12553500000.0 -12553400000.0 -12560500000.0 -12570000000.0 -12563400000.0 -12566500000.0 -12564700000.0 -12563400000.0 -12563400000.0 -12560600000.0 -12551800000.0 -12550800000.0 -12549700000.0 -12551000000.0 -12554000000.0 -12554600000.0 -12552000000.0 -12550800000.0 -12550500000.0 -12552800000.0 -12554100000.0 -12566600000.0 -12564200000.0 -12564000000.0 -12555300000.0 -12549800000.0 -12553700000.0 -12550500000.0 -12576800000.0 -12567500000.0 -12573800000.0 -12579100000.0 -12598600000.0 -12587800000.0 -12556400000.0 -12554000000.0 -12549700000.0 -12549700000.0 -12552100000.0 -12549800000.0 -12549700000.0 -12549700000.0 -12553200000.0 -12549700000.0 -12549700000.0 -12550400000.0 -12549700000.0 -12551400000.0 -12549700000.0 -12556900000.0 -12549700000.0 -12550800000.0 -12549700000.0 -12550400000.0 -12550000000.0 -12549700000.0 -12549700000.0 -12549700000.0 -12549700000.0 -12549800000.0 -12550200000.0 -12551800000.0 -12552300000.0 -12555800000.0 -12555500000.0 -12560900000.0 -12559800000.0 -12553600000.0 -12552400000.0 -12549700000.0 -12550800000.0 -12553000000.0 -12554800000.0 -12553700000.0 -12553500000.0 -12549700000.0 -12549800000.0 -12552500000.0 -12559800000.0 -12550900000.0 -12553500000.0 -12553600000.0 -12555100000.0 -12552300000.0 -12550400000.0 -12550400000.0 -12556200000.0 -12554400000.0 -12568500000.0 -12549900000.0 -12549700000.0 -12550800000.0 -12552300000.0 -12552300000.0 -12562000000.0 -12551300000.0 -12552900000.0 -12556900000.0 -12563900000.0 -12553500000.0 -12551100000.0 -12549700000.0 -12549700000.0 -12550500000.0 -12551500000.0 -12554500000.0 -12552600000.0 -12551700000.0 -12556900000.0 -12549900000.0 -12563900000.0 -12569000000.0 -12573600000.0 -12573100000.0 -12585000000.0 -12551600000.0 -12552500000.0 -12551800000.0 -12596700000.0 -12549900000.0 -12560800000.0 -12559800000.0 -12554900000.0 -12555300000.0 -12566900000.0 -12569700000.0 -12549700000.0 -12553600000.0 -12550200000.0 -12559500000.0 -12598300000.0 -12564800000.0 -12577900000.0 -12558900000.0 -12576100000.0 -12558400000.0 -12604400000.0 -12589400000.0 -12589700000.0 -12592500000.0 -12591200000.0 -12573600000.0 -12550900000.0 -12588700000.0 -12554000000.0 -12563000000.0 -12569500000.0 -12562500000.0 -12559800000.0 -12551100000.0 -12557100000.0 -12549800000.0 -12551400000.0 -12549700000.0 -12554800000.0 -12559100000.0 -12549900000.0 -12551000000.0 -12549700000.0 -12549700000.0 -12551500000.0 -12552600000.0 -12554100000.0 -12557400000.0 -12565800000.0 -12570400000.0 -12553500000.0 -12566900000.0 -12563900000.0 -12559700000.0 -12564800000.0 -12549700000.0 -12550200000.0 -12560100000.0 -12550600000.0 -12549700000.0 -12554200000.0 -12564300000.0 -12551400000.0 -12553800000.0 -12550300000.0 -12556000000.0 -12567900000.0 -12553100000.0 -12551300000.0 -12552200000.0 -12561700000.0 -12593300000.0 -12565600000.0 -12549700000.0 -12570100000.0 -12572400000.0 -12606700000.0 -12592000000.0 -12549700000.0 -12592600000.0 -12563600000.0 -12577000000.0 -12577800000.0 -12570500000.0 -12576400000.0 -12568000000.0 -12570200000.0 -12558900000.0 -12582300000.0 -12641400000.0 -12684500000.0 -12562400000.0 -12559000000.0 -12556900000.0 -12659800000.0 -12615200000.0 -12576100000.0 -12576900000.0 -12611500000.0 -12582500000.0 -12575500000.0 -12564000000.0 -12600900000.0 -12551000000.0 -12567500000.0 -12557800000.0 -12553000000.0 -12564400000.0 -12568400000.0 -12555200000.0 -12582800000.0 -12578100000.0 -12580200000.0 -12580200000.0 -12549700000.0 -12549700000.0 -12617100000.0 -12553100000.0 -12570300000.0 -12612800000.0 -12584800000.0 -12598200000.0 -12555100000.0 -12568200000.0 -12561900000.0 -12549700000.0 -12553300000.0 -12563700000.0 -12557300000.0 -12558100000.0 -12549700000.0 -12560500000.0 -12555100000.0 -12557000000.0 -12554900000.0 -12565200000.0 -12549700000.0 -12566500000.0 -12554900000.0 -12553100000.0 -12552000000.0 -12549700000.0 -12551400000.0 -12551800000.0 -12549900000.0 -12551200000.0 -12557800000.0 -12550100000.0 -12554100000.0 -12564900000.0 -12563200000.0 -12586700000.0 -12572300000.0 -12584100000.0 -12585400000.0 -12597500000.0 -12578200000.0 -12566100000.0 -12587400000.0 -12554900000.0 -12550900000.0 -12550000000.0 -12556400000.0 -12571000000.0 -12560400000.0 -12565600000.0 -12557900000.0 -12580200000.0 -12634200000.0 -12566100000.0 -12562300000.0 -12559800000.0 -12559100000.0 -12567900000.0 -12557100000.0 -12601500000.0 -12549700000.0 -12594000000.0 -12575900000.0 -12549700000.0 -12600600000.0 -12601200000.0 -12570800000.0 -12587700000.0 -12573900000.0 -12632700000.0 -12585200000.0 -12622600000.0 -12651900000.0 -12565900000.0 -12708600000.0 -12699300000.0 -12564900000.0 -12715500000.0 -12552500000.0 -12551200000.0 -12601600000.0 -12606000000.0 -12606500000.0 -12574300000.0 -12594700000.0 -12623200000.0 -12581900000.0 -12570400000.0 -12561400000.0 -12614300000.0 -12572200000.0 -12600300000.0 -12625100000.0 -12631000000.0 -12663300000.0 -12584700000.0 -12580700000.0 -12552500000.0 -12551800000.0 -12662300000.0 -12557500000.0 -12592900000.0 -12653700000.0 -12568000000.0 -12567500000.0 -12561500000.0 -12594400000.0 -12579500000.0 -12552800000.0 -12577000000.0 -12568500000.0 -12555500000.0 -12563700000.0 -12553400000.0 -12554400000.0 -12550200000.0 -12561600000.0 -12549800000.0 -12558000000.0 -12562100000.0 -12569800000.0 -12558700000.0 -12554500000.0 -12555600000.0 -12553100000.0 -12550500000.0 -12550100000.0 -12557000000.0 -12553200000.0 -12561300000.0 -12569400000.0 -12557800000.0 -12559900000.0 -12553500000.0 -12582000000.0 -12605800000.0 -12589000000.0 -12554400000.0 -12575200000.0 -12557400000.0 -12556000000.0 -12597500000.0 -12584600000.0 -12570900000.0 -12554900000.0 -12566700000.0 -12629600000.0 -12565700000.0 -12557800000.0 -12580000000.0 -12550600000.0 -12554600000.0 -12577500000.0 -12587100000.0 -12559500000.0 -12587200000.0 -12562200000.0 -12587300000.0 -12557400000.0 -12549700000.0 -12549700000.0 -12550700000.0 -12553800000.0 -12590000000.0 -12666800000.0 -12556000000.0 -12551600000.0 -12584600000.0 -12609900000.0 -12604700000.0 -12627900000.0 -12648800000.0 -12629800000.0 -12605100000.0 -12619000000.0 -12560600000.0 -12610400000.0 -12686500000.0 -12701700000.0 -12647800000.0 -12552300000.0 -12549900000.0 -12625400000.0 -12552500000.0 -12704200000.0 -12713700000.0 -12728500000.0 -12696500000.0 -12639400000.0 -12651100000.0 -12630200000.0 -12556100000.0 -12570000000.0 -12657300000.0 -12573200000.0 -12553500000.0 -12611100000.0 -12593300000.0 -12571100000.0 -12641100000.0 -12627200000.0 -12555600000.0 -12665700000.0 -12576900000.0 -12612900000.0 -12613900000.0 -12574200000.0 -12607000000.0 -12596500000.0 -12553700000.0 -12585900000.0 -12554000000.0 -12553000000.0 -12576900000.0 -12608500000.0 -12608500000.0 -12605000000.0 -12603600000.0 -12600600000.0 -12594000000.0 -12620400000.0 -12607600000.0 -12605500000.0 -12614300000.0 -12622300000.0 -12592700000.0 -12594100000.0 -12580200000.0 -12578400000.0 -12588800000.0 -12549700000.0 -12553200000.0 -12560700000.0 -12550400000.0 -12592600000.0 -12623300000.0 -12564600000.0 -12580200000.0 -12550000000.0 -12557600000.0 -12550200000.0 -12591800000.0 -12583700000.0 -12589200000.0 -12614900000.0 -12622800000.0 -12626900000.0 -12673900000.0 -12629700000.0 -12611100000.0 -12658600000.0 -12616800000.0 -12658600000.0 -12616700000.0 -12626200000.0 -12595100000.0 -12617600000.0 -12637600000.0 -12655500000.0 -12783100000.0 -12655700000.0 -12666100000.0 -12553700000.0 -12591300000.0 -12564000000.0 -12624000000.0 -12579500000.0 -12635900000.0 -12642000000.0 -12645400000.0 -12656100000.0 -12680100000.0 -12570100000.0 -12623100000.0 -12608500000.0 -12603600000.0 -12569500000.0 -12664800000.0 -12648400000.0 -12624000000.0 -12617000000.0 -12734300000.0 -12584800000.0 -12584500000.0 -12667200000.0 -12604800000.0 -12596600000.0 -12549700000.0 -12590800000.0 -12572500000.0 -12551300000.0 -12695300000.0 -12626700000.0 -12601100000.0 -12730800000.0 -12552100000.0 -12638300000.0 -12754900000.0 -12668600000.0 -12615200000.0 -12601800000.0 -12614800000.0 -12569900000.0 -12575100000.0 -12560200000.0 -12577800000.0 -12558100000.0 -12556900000.0 -12617400000.0 -12568900000.0 -12550500000.0 -12573500000.0 -12570700000.0 -12583400000.0 -12555400000.0 -12567600000.0 -12550000000.0 -12551400000.0 -12582600000.0 -12594500000.0 -12591500000.0 -12619500000.0 -12609200000.0 -12577100000.0 -12584300000.0 -12644400000.0 -12558000000.0 -12567800000.0 -12553400000.0 -12560300000.0 -12568100000.0 -12575100000.0 -12581100000.0 -12553500000.0 -12565200000.0 -12566400000.0 -12603900000.0 -12556000000.0 -12568600000.0 -12555300000.0 -12620900000.0 -12589400000.0 -12554700000.0 -12609400000.0 -12593900000.0 -12689700000.0 -12684300000.0 -12598700000.0 -12564200000.0 -12594300000.0 -12558700000.0 -12602100000.0 -12587200000.0 -12549700000.0 -12551200000.0 -12569400000.0 -12592500000.0 -12589200000.0 -12636400000.0 -12591600000.0 -12731800000.0 -12776700000.0 -12727300000.0 -12706300000.0 -12588200000.0 -12826300000.0 -12618400000.0 -12597900000.0 -12786600000.0 -12887800000.0 -12719600000.0 -12695700000.0 -12807700000.0 -12837600000.0 -12590700000.0 -12594500000.0 -12616900000.0 -12632900000.0 -12611100000.0 -12608000000.0 -12604800000.0 -12632500000.0 -12564600000.0 -12615000000.0 -12565200000.0 -12689400000.0 -12556000000.0 -12555600000.0 -12616600000.0 -12551400000.0 -12622900000.0 -12549700000.0 -12849400000.0 -12829400000.0 -12612600000.0 -12819700000.0 -12705800000.0 -12698300000.0 -12671900000.0 -12656700000.0 -12681100000.0 -12635300000.0 -12643000000.0 -12617700000.0 -12549800000.0 -12599800000.0 -12559500000.0 -12563200000.0 -12594300000.0 -12559200000.0 -12572400000.0 -12577600000.0 -12575400000.0 -12585300000.0 -12580900000.0 -12549900000.0 -12564000000.0 -12553400000.0 -12570900000.0 -12599600000.0 -12588200000.0 -12602400000.0 -12623900000.0 -12565600000.0 -12558200000.0 -12565600000.0 -12580200000.0 -12551700000.0 -12574800000.0 -12557700000.0 -12586700000.0 -12605400000.0 -12580100000.0 -12588000000.0 -12565600000.0 -12585600000.0 -12566500000.0 -12580300000.0 -12589600000.0 -12603300000.0 -12714500000.0 -12696100000.0 -12773700000.0 -12597300000.0 -12611100000.0 -12639200000.0 -12559900000.0 -12598900000.0 -12559400000.0 -12549700000.0 -12574700000.0 -12567000000.0 -12729700000.0 -12578800000.0 -12594700000.0 -12716300000.0 -12732500000.0 -12597200000.0 -12551600000.0 -12603800000.0 -12699500000.0 -12632200000.0 -12761200000.0 -12699600000.0 -12772200000.0 -12792300000.0 -12840200000.0 -12660200000.0 -12860300000.0 -12725400000.0 -12688800000.0 -12957700000.0 -12550200000.0 -12554100000.0 -12614200000.0 -12712600000.0 -12598700000.0 -12680400000.0 -12627200000.0 -12549700000.0 -12716200000.0 -12549900000.0 -12558900000.0 -12550400000.0 -12601600000.0 -12618200000.0 -12549700000.0 -12549700000.0 -12832200000.0 -12614200000.0 -12561600000.0 -12695500000.0 -12568600000.0 -12688200000.0 -12549700000.0 -12700800000.0 -12605900000.0 -12605900000.0 -12633900000.0 -12553200000.0 -12613200000.0 -12555700000.0 -12566300000.0 -12580200000.0 -12559600000.0 -12559000000.0 -12576600000.0 -12593900000.0 -12584700000.0 -12577000000.0 -12554800000.0 -12565400000.0 -12566100000.0 -12593400000.0 -12558100000.0 -12587200000.0 -12587900000.0 -12603500000.0 -12632800000.0 -12595300000.0 -12613000000.0 -12560500000.0 -12595500000.0 -12601900000.0 -12565600000.0 -12664500000.0 -12640900000.0 -12626000000.0 -12561800000.0 -12570800000.0 -12566700000.0 -12643500000.0 -12661300000.0 -12551700000.0 -12640500000.0 -12666000000.0 -12735300000.0 -12691000000.0 -12713800000.0 -12716600000.0 -12703800000.0 -12589200000.0 -12685000000.0 -12553700000.0 -12582100000.0 -12662300000.0 -12641600000.0 -12647000000.0 -12789500000.0 -12683200000.0 -12552700000.0 -12568800000.0 -12616700000.0 -12549700000.0 -12626600000.0 -12600100000.0 -12550700000.0 -12646600000.0 -12625100000.0 -12650000000.0 -12573600000.0 -12677600000.0 -12635600000.0 -12655900000.0 -12708800000.0 -12603300000.0 -12674600000.0 -12709600000.0 -12626400000.0 -12590500000.0 -12697500000.0 -12618500000.0 -12647200000.0 -12996600000.0 -12549700000.0 -12686400000.0 -12713400000.0 -12608800000.0 -12550500000.0 -12557500000.0 -12713500000.0 -12603300000.0 -12611200000.0 -12646100000.0 -12551400000.0 -12690200000.0 -12576600000.0 -12639800000.0 -12563300000.0 -12625500000.0 -12716700000.0 -12766300000.0 -12772600000.0 -12551500000.0 -12730800000.0 -12656100000.0 -12585400000.0 -12557800000.0 -12559500000.0 -12574400000.0 -12689700000.0 -12595700000.0 -12610100000.0 -12550900000.0 -12550200000.0 -12598200000.0 -12576600000.0 -12555700000.0 -12551900000.0 -12549700000.0 -12578500000.0 -12578900000.0 -12585800000.0 -12551800000.0 -12590300000.0 -12577400000.0 -12551200000.0 -12575100000.0 -12561500000.0 -12583100000.0 -12579200000.0 -12549800000.0 -12591200000.0 -12554200000.0 -12558800000.0 -12549700000.0 -12596300000.0 -12608100000.0 -12630600000.0 -12549700000.0 -12554100000.0 -12642900000.0 -12549700000.0 -12549700000.0 -12656400000.0 -12550200000.0 -12608100000.0 -12644500000.0 -12549700000.0 -12549700000.0 -12554000000.0 -12666700000.0 -12602000000.0 -12603500000.0 -12626700000.0 -12704900000.0 -12549700000.0 -12549700000.0 -12627200000.0 -12632000000.0 -12632300000.0 -12554500000.0 -12561300000.0 -12701800000.0 -12638400000.0 -12738100000.0 -12695400000.0 -12558500000.0 -12589300000.0 -12560100000.0 -12612900000.0 -12555700000.0 -12677300000.0 -12688500000.0 -12575000000.0 -12631500000.0 -12582800000.0 -12587900000.0 -12638200000.0 -12705400000.0 -12694100000.0 -12784700000.0 -12778200000.0 -12577000000.0 -12549700000.0 -12819200000.0 -12806200000.0 -12826600000.0 -12855000000.0 -12636200000.0 -12881200000.0 -13001000000.0 -12678000000.0 -12637700000.0 -13079700000.0 -13153400000.0 -12803200000.0 -12635000000.0 -12637900000.0 -12709200000.0 -12606600000.0 -12599900000.0 -12588500000.0 -12686300000.0 -12611000000.0 -12550000000.0 -12634900000.0 -12654500000.0 -12569200000.0 -12566500000.0 -12586600000.0 -12591700000.0 -12561500000.0 -12757700000.0 -12672300000.0 -12551200000.0 -12554400000.0 -12583600000.0 -12549700000.0 -12584300000.0 -12588100000.0 -12558200000.0 -12563100000.0 -12561300000.0 -12550800000.0 -12584400000.0 -12566100000.0 -12565600000.0 -12582600000.0 -12560100000.0 -12616100000.0 -12571700000.0 -12581400000.0 -12570500000.0 -12561000000.0 -12573200000.0 -12550100000.0 -12560000000.0 -12550700000.0 -12553200000.0 -12549800000.0 -12622100000.0 -12550300000.0 -12587600000.0 -12607500000.0 -12605200000.0 -12626400000.0 -12607000000.0 -12550200000.0 -12551000000.0 -12586400000.0 -12586200000.0 -12584100000.0 -12634600000.0 -12555000000.0 -12556700000.0 -12572600000.0 -12591000000.0 -12605700000.0 -12578200000.0 -12734800000.0 -12580000000.0 -12685700000.0 -12626600000.0 -12686200000.0 -12565900000.0 -12890400000.0 -12789800000.0 -12624100000.0 -12801600000.0 -12770100000.0 -12581400000.0 -12675300000.0 -12619600000.0 -12631900000.0 -12629000000.0 -12626700000.0 -12621500000.0 -12776100000.0 -12581200000.0 -12619300000.0 -12637200000.0 -12676100000.0 -12569300000.0 -12866400000.0 -12645200000.0 -12609000000.0 -12766300000.0 -12562300000.0 -12753100000.0 -12696200000.0 -12680700000.0 -12574000000.0 -12721600000.0 -12579100000.0 -12846200000.0 -12831700000.0 -12892700000.0 -12752500000.0 -12745000000.0 -12549700000.0 -12810300000.0 -12567200000.0 -12675100000.0 -12555300000.0 -12552000000.0 -12678700000.0 -12568800000.0 -12612100000.0 -12569400000.0 -12681700000.0 -12557800000.0 -12601000000.0 -12566800000.0 -12591300000.0 -12607400000.0 -12720700000.0 -12662400000.0 -12653500000.0 -12576700000.0 -12704600000.0 -12677500000.0 -12618900000.0 -12615700000.0 -12636100000.0 -12554500000.0 -12614600000.0 -12610000000.0 -12588100000.0 -12568300000.0 -12574100000.0 -12597500000.0 -12552400000.0 -12635300000.0 -12583900000.0 -12558700000.0 -12606900000.0 -12592200000.0 -12596100000.0 -12594500000.0 -12562000000.0 -12561600000.0 -12549700000.0 -12563900000.0 -12561600000.0 -12553400000.0 -12632100000.0 -12553100000.0 -12568100000.0 -12582200000.0 -12569500000.0 -12617400000.0 -12622800000.0 -12584100000.0 -12601500000.0 -12569700000.0 -12552300000.0 -12628800000.0 -12549700000.0 -12550200000.0 -12569300000.0 -12573700000.0 -12621300000.0 -12593000000.0 -12707000000.0 -12549700000.0 -12699100000.0 -12718000000.0 -12793600000.0 -12693600000.0 -12573200000.0 -12707200000.0 -12680500000.0 -12650700000.0 -12659600000.0 -12565800000.0 -12593400000.0 -12588600000.0 -12572700000.0 -12659400000.0 -12549700000.0 -12721600000.0 -12734400000.0 -12756200000.0 -12741700000.0 -12549700000.0 -12756700000.0 -12648400000.0 -12619200000.0 -12666100000.0 -12559500000.0 -12852800000.0 -12596200000.0 -12702800000.0 -12603600000.0 -12555600000.0 -12598900000.0 -12814500000.0 -12917600000.0 -12617900000.0 -12776000000.0 -12920500000.0 -12549700000.0 -12755900000.0 -12858800000.0 -12916400000.0 -13095000000.0 -13134200000.0 -13065400000.0 -13029900000.0 -13092500000.0 -13073600000.0 -13109300000.0 -13080900000.0 -12879100000.0 -12694400000.0 -12610400000.0 -12818300000.0 -12800500000.0 -12832700000.0 -12708600000.0 -12550800000.0 -12681300000.0 -12613800000.0 -12605100000.0 -12574300000.0 -12571400000.0 -12577600000.0 -12556200000.0 -12616100000.0 -12612600000.0 -12587600000.0 -12590200000.0 -12622100000.0 -12678200000.0 -12559200000.0 -12586900000.0 -12580700000.0 -12549700000.0 -12566500000.0 -12595600000.0 -12625400000.0 -12625300000.0 -12625000000.0 -12645900000.0 -12603300000.0 -12605200000.0 -12617500000.0 -12645600000.0 -12595900000.0 -12577400000.0 -12582100000.0 -12606200000.0 -12640200000.0 -12623100000.0 -12621200000.0 -12705400000.0 -12592700000.0 -12617600000.0 -12549700000.0 -12549700000.0 -12880200000.0 -12882800000.0 -12767400000.0 -12677900000.0 -12724300000.0 -12572200000.0 -12584900000.0 -12680700000.0 -12666100000.0 -12657100000.0 -12717600000.0 -12785300000.0 -12839800000.0 -12587000000.0 -12551900000.0 -12580200000.0 -12709700000.0 -12856200000.0 -12933800000.0 -12603900000.0 -12716400000.0 -12550400000.0 -12549800000.0 -12692900000.0 -12753900000.0 -13013400000.0 -12620600000.0 -12745400000.0 -12597300000.0 -12652700000.0 -12576900000.0 -12617100000.0 -12619800000.0 -12566000000.0 -12587200000.0 -12961800000.0 -12726200000.0 -12824300000.0 -12582300000.0 -12567500000.0 -12666900000.0 -12555200000.0 -12598000000.0 -12614600000.0 -12576900000.0 -12638000000.0 -12736700000.0 -12674400000.0 -12703200000.0 -12660900000.0 -12577300000.0 -12550600000.0 -12550800000.0 -12555100000.0 -12934200000.0 -12785900000.0 -12755000000.0 -12589800000.0 -12582500000.0 -12581200000.0 -12586800000.0 -12587000000.0 -12558900000.0 -12571100000.0 -12556100000.0 -12554000000.0 -12559100000.0 -12551600000.0 -12579500000.0 -12559600000.0 -12593700000.0 -12559500000.0 -12568300000.0 -12575900000.0 -12640100000.0 -12572900000.0 -12626700000.0 -12614100000.0 -12609600000.0 -12555300000.0 -12619700000.0 -12571200000.0 -12577100000.0 -12554000000.0 -12569900000.0 -12628600000.0 -12589700000.0 -12610100000.0 -12566500000.0 -12552400000.0 -12656200000.0 -12559400000.0 -12559700000.0 -12550900000.0 -12576000000.0 -12565500000.0 -12553700000.0 -12663600000.0 -12558800000.0 -12598200000.0 -12598900000.0 -12715900000.0 -12570700000.0 -12571400000.0 -12711600000.0 -12567800000.0 -12734900000.0 -12787600000.0 -12916400000.0 -12553100000.0 -12853900000.0 -12768400000.0 -12578200000.0 -12625200000.0 -12553900000.0 -12559200000.0 -12724100000.0 -12560000000.0 -12572100000.0 -12594100000.0 -12810300000.0 -12595000000.0 -12782200000.0 -12669100000.0 -12569400000.0 -12844700000.0 -12684000000.0 -12771800000.0 -12701300000.0 -12726800000.0 -12696800000.0 -12768400000.0 -12629300000.0 -12552700000.0 -12636000000.0 -12589600000.0 -12563100000.0 -12711200000.0 -12743100000.0 -12644600000.0 -12842100000.0 -12754300000.0 -12732100000.0 -12639800000.0 -12628900000.0 -12558200000.0 -12746700000.0 -12738000000.0 -12626700000.0 -12580900000.0 -12699600000.0 -12575200000.0 -12553500000.0 -12550900000.0 -12554400000.0 -12549700000.0 -12551000000.0 -12590600000.0 -12797900000.0 -12553700000.0 -12709800000.0 -12602600000.0 -12591900000.0 -12573900000.0 -12622700000.0 -12597000000.0 -12566800000.0 -12564200000.0 -12582700000.0 -12552200000.0 -12555500000.0 -12561200000.0 -12550200000.0 -12559800000.0 -12568200000.0 -12549700000.0 -12616300000.0 -12618900000.0 -12603000000.0 -12556600000.0 -12553200000.0 -12550600000.0 -12563200000.0 -12564600000.0 -12588900000.0 -12588100000.0 -12696300000.0 -12551800000.0 -12550600000.0 -12650800000.0 -12582600000.0 -12551900000.0 -12572900000.0 -12558000000.0 -12565600000.0 -12676700000.0 -12564900000.0 -12580200000.0 -12551000000.0 -12674100000.0 -12824900000.0 -12775600000.0 -12775200000.0 -12819300000.0 -12810500000.0 -12889400000.0 -12559300000.0 -12554700000.0 -12550900000.0 -12933800000.0 -12728500000.0 -12629200000.0 -12558800000.0 -12553500000.0 -12602800000.0 -12566600000.0 -12570500000.0 -12600800000.0 -12583300000.0 -12578600000.0 -12619800000.0 -12857400000.0 -12696600000.0 -12665500000.0 -12877700000.0 -12649300000.0 -12625900000.0 -12618600000.0 -12714300000.0 -12789400000.0 -12570200000.0 -12563400000.0 -12668700000.0 -12550500000.0 -12729000000.0 -12553200000.0 -12670300000.0 -12657300000.0 -12767000000.0 -12608000000.0 -12616200000.0 -12664300000.0 -12744000000.0 -12821000000.0 -12741200000.0 -12832100000.0 -12639900000.0 -12605100000.0 -12789600000.0 -12807300000.0 -12840600000.0 -12683700000.0 -12706600000.0 -12701400000.0 -12701400000.0 -12570200000.0 -12554800000.0 -12558400000.0 -12559900000.0 -12583000000.0 -12726600000.0 -12708000000.0 -12582800000.0 -12571100000.0 -12611200000.0 -12593100000.0 -12576100000.0 -12585200000.0 -12595600000.0 -12586300000.0 -12588300000.0 -12591300000.0 -12591000000.0 -12557300000.0 -12572300000.0 -12569300000.0 -12627200000.0 -12553200000.0 -12550000000.0 -12565700000.0 -12551200000.0 -12561600000.0 -12550100000.0 -12549700000.0 -12577500000.0 -12571700000.0 -12575100000.0 -12639800000.0 -12610700000.0 -12583100000.0 -12584400000.0 -12604600000.0 -12650800000.0 -12559900000.0 -12565200000.0 -12591000000.0 -12572500000.0 -12552200000.0 -12555600000.0 -12711100000.0 -12599500000.0 -12621900000.0 -12674800000.0 -12551300000.0 -12660100000.0 -12568200000.0 -12592300000.0 -12982700000.0 -12593700000.0 -12948700000.0 -12550300000.0 -12549900000.0 -12786300000.0 -12896500000.0 -12555200000.0 -12564400000.0 -12671700000.0 -12604600000.0 -12561700000.0 -12555100000.0 -12904500000.0 -12860400000.0 -12549700000.0 -12559500000.0 -12677400000.0 -12550600000.0 -12600000000.0 -12635400000.0 -12780500000.0 -12564000000.0 -12612900000.0 -12562600000.0 -12616800000.0 -12641200000.0 -12734200000.0 -12612900000.0 -12582800000.0 -12741800000.0 -12661100000.0 -12637800000.0 -12751300000.0 -12678200000.0 -12639800000.0 -12776900000.0 -12693400000.0 -12762900000.0 -12733900000.0 -12681400000.0 -12551300000.0 -12585500000.0 -12662700000.0 -12549700000.0 -12616000000.0 -12604200000.0 -12646800000.0 -12676300000.0 -12658600000.0 -12565900000.0 -12554100000.0 -12558700000.0 -12560100000.0 -12550900000.0 -12552400000.0 -12570100000.0 -12689200000.0 -12549900000.0 -12549700000.0 -12571600000.0 -12560700000.0 -12570300000.0 -12554100000.0 -12565500000.0 -12555900000.0 -12557400000.0 -12560900000.0 -12552000000.0 -12549700000.0 -12574900000.0 -12591600000.0 -12595000000.0 -12604400000.0 -12609400000.0 -12582400000.0 -12564900000.0 -12559000000.0 -12563900000.0 -12568700000.0 -12609900000.0 -12575700000.0 -12632000000.0 -12594700000.0 -12622500000.0 -12552600000.0 -12581200000.0 -12549700000.0 -12569400000.0 -12767500000.0 -12555100000.0 -12645300000.0 -12674100000.0 -12684200000.0 -12625300000.0 -12646600000.0 -12626000000.0 -13287700000.0 -12704400000.0 -12793400000.0 -12719100000.0 -12706000000.0 -12889700000.0 -12628000000.0 -12576400000.0 -12715600000.0 -12612200000.0 -12658900000.0 -12929800000.0 -12643800000.0 -12619700000.0 -12635400000.0 -12681300000.0 -12636000000.0 -12606600000.0 -12606800000.0 -12603900000.0 -12593600000.0 -12717100000.0 -12673200000.0 -12549700000.0 -12685200000.0 -12550400000.0 -12644900000.0 -12609500000.0 -12722500000.0 -12662200000.0 -12623300000.0 -12727100000.0 -12614500000.0 -12555300000.0 -12550100000.0 -12751600000.0 -12663700000.0 -12552500000.0 -12764000000.0 -12751300000.0 -12777000000.0 -12549700000.0 -12574500000.0 -12626500000.0 -12661800000.0 -12572400000.0 -12562400000.0 -12642900000.0 -12561500000.0 -12554200000.0 -12558300000.0 -12558800000.0 -12556300000.0 -12563700000.0 -12635800000.0 -12619900000.0 -12662400000.0 -12619500000.0 -12642500000.0 -12580300000.0 -12606900000.0 -12564300000.0 -12560800000.0 -12568800000.0 -12559200000.0 -12571100000.0 -12563100000.0 -12578800000.0 -12572400000.0 -12598200000.0 -12578400000.0 -12593400000.0 -12553900000.0 -12549700000.0 -12550900000.0 -12556700000.0 -12555700000.0 -12604500000.0 -12559500000.0 -12595200000.0 -12585300000.0 -12596500000.0 -12600100000.0 -12549700000.0 -12609400000.0 -12618100000.0 -12588300000.0 -12616600000.0 -12594100000.0 -12659800000.0 -12672800000.0 -12631700000.0 -12549700000.0 -12745900000.0 -12658300000.0 -12552500000.0 -12592300000.0 -12581900000.0 -12663000000.0 -12681700000.0 -12718900000.0 -12650100000.0 -13418800000.0 -12714800000.0 -12787800000.0 -12693500000.0 -13112700000.0 -12925000000.0 -12898800000.0 -12785100000.0 -12788600000.0 -12951800000.0 -12551300000.0 -12709600000.0 -12560100000.0 -12562900000.0 -12549700000.0 -12732200000.0 -12602800000.0 -12645300000.0 -12727400000.0 -12659000000.0 -12681700000.0 -12591500000.0 -12555700000.0 -12549700000.0 -12550300000.0 -12551700000.0 -12598200000.0 -12653700000.0 -12626500000.0 -12592100000.0 -12693400000.0 -12614300000.0 -12683000000.0 -12578200000.0 -12621300000.0 -12555300000.0 -12677100000.0 -12588500000.0 -12601200000.0 -12553100000.0 -12748000000.0 -12777300000.0 -12765400000.0 -12790900000.0 -12685900000.0 -12555700000.0 -12549700000.0 -12556600000.0 -12551300000.0 -12550900000.0 -12552600000.0 -12595000000.0 -12551900000.0 -12608100000.0 -12553400000.0 -12608500000.0 -12581000000.0 -12584100000.0 -12552800000.0 -12552800000.0 -12558900000.0 -12558600000.0 -12552000000.0 -12569800000.0 -12554300000.0 -12571900000.0 -12551600000.0 -12578000000.0 -12556900000.0 -12556900000.0 -12561800000.0 -12550900000.0 -12550000000.0 -12550100000.0 -12549700000.0 -12550000000.0 -12577200000.0 -12576200000.0 -12550400000.0 -12552300000.0 -12638100000.0 -12606700000.0 -12585900000.0 -12640900000.0 -12651200000.0 -12610200000.0 -12560500000.0 -12606800000.0 -12570700000.0 -12568100000.0 -12682100000.0 -12734900000.0 -12614500000.0 -12549900000.0 -12580200000.0 -12584900000.0 -12550200000.0 -12689200000.0 -12591300000.0 -12784600000.0 -12849500000.0 -13113400000.0 -12552500000.0 -12959500000.0 -13021700000.0 -12867300000.0 -12684500000.0 -12801000000.0 -12692600000.0 -12703500000.0 -12794000000.0 -12918200000.0 -12688200000.0 -12723200000.0 -12588600000.0 -12572600000.0 -12717700000.0 -12562700000.0 -12559000000.0 -12575400000.0 -12598200000.0 -12570700000.0 -12622400000.0 -12591000000.0 -12603000000.0 -12606000000.0 -12549700000.0 -12564600000.0 -12594000000.0 -12566700000.0 -12567400000.0 -12636600000.0 -12666900000.0 -12569200000.0 -12650200000.0 -12549700000.0 -12648900000.0 -12618100000.0 -12573100000.0 -12588100000.0 -12611100000.0 -12607800000.0 -12585500000.0 -12567300000.0 -12609300000.0 -12609500000.0 -12627100000.0 -12714300000.0 -12634200000.0 -12639100000.0 -12859900000.0 -12674800000.0 -12646100000.0 -12554100000.0 -12549700000.0 -12556700000.0 -12551500000.0 -12550900000.0 -12561000000.0 -12556900000.0 -12550800000.0 -12579100000.0 -12563200000.0 -12598600000.0 -12549700000.0 -12568200000.0 -12574400000.0 -12557200000.0 -12551000000.0 -12554200000.0 -12549800000.0 -12558400000.0 -12570900000.0 -12551700000.0 -12551000000.0 -12553700000.0 -12553500000.0 -12549900000.0 -12550800000.0 -12553300000.0 -12549700000.0 -12555100000.0 -12550000000.0 -12549800000.0 -12550600000.0 -12561500000.0 -12560600000.0 -12594200000.0 -12593100000.0 -12647900000.0 -12568800000.0 -12561900000.0 -12569500000.0 -12736600000.0 -12683700000.0 -12680200000.0 -12670100000.0 -12695800000.0 -12736100000.0 -12550100000.0 -12716300000.0 -12621400000.0 -12637800000.0 -12674300000.0 -12615600000.0 -12871300000.0 -12556100000.0 -12712200000.0 -12973900000.0 -12920000000.0 -12889000000.0 -12921600000.0 -12570700000.0 -12776200000.0 -12741700000.0 -12819900000.0 -12624800000.0 -12667900000.0 -12549700000.0 -12956200000.0 -12731200000.0 -12775800000.0 -12748800000.0 -12710300000.0 -12557600000.0 -12560800000.0 -12555400000.0 -12577400000.0 -12584700000.0 -12593400000.0 -12602700000.0 -12597600000.0 -12549800000.0 -12586100000.0 -12550600000.0 -12561800000.0 -12561300000.0 -12602600000.0 -12555600000.0 -12589200000.0 -12568800000.0 -12601900000.0 -12582100000.0 -12636500000.0 -12580000000.0 -12567100000.0 -12577500000.0 -12588600000.0 -12586100000.0 -12598500000.0 -12586100000.0 -12550100000.0 -12549700000.0 -12731400000.0 -12597600000.0 -12557300000.0 -12569200000.0 -12570500000.0 -12569000000.0 -12568900000.0 -12564300000.0 -12565000000.0 -12564900000.0 -12552600000.0 -12585900000.0 -12590600000.0 -12585200000.0 -12567600000.0 -12569100000.0 -12569000000.0 -12565100000.0 -12560000000.0 -12562800000.0 -12549900000.0 -12549700000.0 -12550800000.0 -12549800000.0 -12553000000.0 -12551100000.0 -12550800000.0 -12553300000.0 -12550700000.0 -12549800000.0 -12550700000.0 -12555400000.0 -12552200000.0 -12585700000.0 -12550000000.0 -12551000000.0 -12581000000.0 -12656700000.0 -12630300000.0 -12652400000.0 -12715300000.0 -12586700000.0 -12554800000.0 -12601200000.0 -12589900000.0 -12884600000.0 -12696200000.0 -12797000000.0 -12792900000.0 -12808400000.0 -12662400000.0 -12808100000.0 -12559300000.0 -12630500000.0 -13042300000.0 -13404800000.0 -12591900000.0 -12584100000.0 -12958000000.0 -12617200000.0 -12872400000.0 -12566300000.0 -12623100000.0 -12549700000.0 -12839600000.0 -12635900000.0 -12557800000.0 -12582900000.0 -12628400000.0 -12721200000.0 -12602600000.0 -12604700000.0 -12596900000.0 -12596500000.0 -12571200000.0 -12605400000.0 -12568000000.0 -12588500000.0 -12550300000.0 -12558200000.0 -12572800000.0 -12554500000.0 -12557100000.0 -12613300000.0 -12590200000.0 -12565800000.0 -12569200000.0 -12549700000.0 -12592300000.0 -12621900000.0 -12549700000.0 -12573700000.0 -12551600000.0 -12550400000.0 -12549900000.0 -12586400000.0 -12564400000.0 -12555700000.0 -12615500000.0 -12622900000.0 -12633500000.0 -12603200000.0 -12691300000.0 -12594800000.0 -12582100000.0 -12557200000.0 -12549700000.0 -12549700000.0 -12554300000.0 -12552700000.0 -12551500000.0 -12553700000.0 -12552800000.0 -12551500000.0 -12553000000.0 -12562500000.0 -12560300000.0 -12552600000.0 -12554000000.0 -12554400000.0 -12555800000.0 -12559800000.0 -12562800000.0 -12555600000.0 -12555200000.0 -12556800000.0 -12558100000.0 -12561600000.0 -12559000000.0 -12560700000.0 -12560900000.0 -12557000000.0 -12563700000.0 -12569700000.0 -12576300000.0 -12622200000.0 -12602600000.0 -12603600000.0 -12638600000.0 -12559700000.0 -12588600000.0 -12552500000.0 -12711500000.0 -12662000000.0 -12598000000.0 -12557600000.0 -12572200000.0 -12782600000.0 -12623800000.0 -12564100000.0 -12570900000.0 -12895300000.0 -12549700000.0 -12745500000.0 -12658900000.0 -12618900000.0 -12550200000.0 -13074500000.0 -12575200000.0 -12559400000.0 -12550900000.0 -12925400000.0 -12557200000.0 -12895000000.0 -12694200000.0 -12716000000.0 -12824800000.0 -12729400000.0 -12721200000.0 -12747600000.0 -12724100000.0 -12611100000.0 -12593800000.0 -12597900000.0 -12597000000.0 -12639500000.0 -12646700000.0 -12598600000.0 -12585100000.0 -12595600000.0 -12587100000.0 -12575500000.0 -12570700000.0 -12569300000.0 -12608700000.0 -12566400000.0 -12564600000.0 -12580400000.0 -12587400000.0 -12659400000.0 -12569100000.0 -12565000000.0 -12613400000.0 -12597100000.0 -12585500000.0 -12586500000.0 -12584600000.0 -12560300000.0 -12573600000.0 -12565100000.0 -12550300000.0 -12564800000.0 -12646100000.0 -12568000000.0 -12577800000.0 -12554200000.0 -12550500000.0 -12552800000.0 -12549700000.0 -12549700000.0 -12549900000.0 -12552100000.0 -12550800000.0 -12549900000.0 -12549700000.0 -12552700000.0 -12554600000.0 -12549800000.0 -12549700000.0 -12549700000.0 -12549800000.0 -12549700000.0 -12553300000.0 -12560000000.0 -12559400000.0 -12558500000.0 -12558100000.0 -12556300000.0 -12557600000.0 -12555300000.0 -12559600000.0 -12565500000.0 -12575100000.0 -12584900000.0 -12615900000.0 -12559800000.0 -12572600000.0 -12566700000.0 -12625600000.0 -12590800000.0 -12582800000.0 -12604600000.0 -12670000000.0 -12550500000.0 -12688000000.0 -12629400000.0 -12641000000.0 -12687900000.0 -12716900000.0 -12553600000.0 -12578000000.0 -12931400000.0 -12785500000.0 -12619600000.0 -12679100000.0 -13084100000.0 -12583400000.0 -12626100000.0 -13154800000.0 -12550900000.0 -12556000000.0 -13143600000.0 -12849500000.0 -12904700000.0 -12595700000.0 -12717000000.0 -12649500000.0 -12659700000.0 -12597500000.0 -12553400000.0 -12549700000.0 -12605400000.0 -12612200000.0 -12632600000.0 -12634200000.0 -12643100000.0 -12604800000.0 -12659300000.0 -12620700000.0 -12555400000.0 -12566800000.0 -12552700000.0 -12557300000.0 -12549700000.0 -12550800000.0 -12549700000.0 -12585000000.0 -12559100000.0 -12562200000.0 -12562400000.0 -12567300000.0 -12621200000.0 -12564800000.0 -12564700000.0 -12567100000.0 -12557900000.0 -12565300000.0 -12582100000.0 -12549800000.0 -12553200000.0 -12568300000.0 -12550500000.0 -12606600000.0 -12593900000.0 -12577800000.0 -12573900000.0 -12551000000.0 -12550400000.0 -12551500000.0 -12549700000.0 -12549700000.0 -12549900000.0 -12551400000.0 -12550400000.0 -12549700000.0 -12549700000.0 -12549700000.0 -12552100000.0 -12549700000.0 -12549700000.0 -12549700000.0 -12550100000.0 -12549800000.0 -12553000000.0 -12550800000.0 -12550700000.0 -12549800000.0 -12551100000.0 -12552900000.0 -12552500000.0 -12556700000.0 -12559200000.0 -12559000000.0 -12557400000.0 -12571200000.0 -12579200000.0 -12560200000.0 -12582000000.0 -12590400000.0 -12602100000.0 -12608300000.0 -12615900000.0 -12615300000.0 -12636100000.0 -12678900000.0 -12727100000.0 -12550300000.0 -12705800000.0 -12781600000.0 -12838000000.0 -12908400000.0 -12950700000.0 -13165600000.0 -12936100000.0 -12862400000.0 -13141200000.0 -13308300000.0 -12553400000.0 -12911200000.0 -13188600000.0 -12858100000.0 -12969800000.0 -12611300000.0 -12677900000.0 -12916500000.0 -12742800000.0 -12677900000.0 -12594600000.0 -12561600000.0 -12567700000.0 -12561800000.0 -12588100000.0 -12553500000.0 -12558600000.0 -12556700000.0 -12588200000.0 -12602500000.0 -12565500000.0 -12562500000.0 -12560900000.0 -12557900000.0 -12575700000.0 -12549800000.0 -12551700000.0 -12550200000.0 -12551700000.0 -12552100000.0 -12550600000.0 -12564900000.0 -12549700000.0 -12552800000.0 -12553500000.0 -12592600000.0 -12584300000.0 -12601700000.0 -12610100000.0 -12557900000.0 -12564600000.0 -12551000000.0 -12550000000.0 -12549700000.0 -12549700000.0 -12549700000.0 -12549700000.0 -12550200000.0 -12549900000.0 -12549700000.0 -12549700000.0 -12549700000.0 -12550600000.0 -12549700000.0 -12549700000.0 -12549700000.0 -12549700000.0 -12549900000.0 -12551900000.0 -12551100000.0 -12551200000.0 -12551000000.0 -12550000000.0 -12550200000.0 -12550500000.0 -12552600000.0 -12550700000.0 -12551600000.0 -12552100000.0 -12556000000.0 -12553700000.0 -12552000000.0 -12558700000.0 -12554900000.0 -12559800000.0 -12567300000.0 -12571200000.0 -12785600000.0 -12669600000.0 -12705300000.0 -12783800000.0 -12555800000.0 -12616900000.0 -12803700000.0 -12605700000.0 -13022000000.0 -12645600000.0 -12719300000.0 -13024900000.0 -12700600000.0 -12872300000.0 -12760300000.0 -12734100000.0 -12577700000.0 -12648400000.0 -12621800000.0 -12917300000.0 -12711700000.0 -12590500000.0 -12572700000.0 -12588900000.0 -12586100000.0 -12586000000.0 -12553300000.0 -12550700000.0 -12550300000.0 -12551100000.0 -12562000000.0 -12553500000.0 -12553900000.0 -12553200000.0 -12550800000.0 -12584100000.0 -12569200000.0 -12564200000.0 -12549700000.0 -12569200000.0 -12553600000.0 -12552700000.0 -12555900000.0 -12556800000.0 -12556200000.0 -12558300000.0 -12562200000.0 -12591300000.0 -12565200000.0 -12562000000.0 -12554500000.0 -12556100000.0 -12552500000.0 -12551400000.0 -12556600000.0 -12551800000.0 -12583300000.0 -12573400000.0 -12561700000.0 -12550200000.0 -12551500000.0 -12570400000.0 -12556500000.0 -12570700000.0 -12610700000.0 -12603500000.0 -12591000000.0 -12755600000.0 -12623300000.0 -12649300000.0 -12800300000.0 -12738900000.0 -12815800000.0 -12666800000.0 -12721600000.0 -12876500000.0 -12550000000.0 -12704700000.0 -12943600000.0 -12689800000.0 -12647100000.0 -12647500000.0 -12825300000.0 -12558200000.0 -12552600000.0 -12552800000.0 -12557300000.0 -12549700000.0 -12551000000.0 -12551400000.0 -12550900000.0 -12574800000.0 -12599600000.0 -12598300000.0 -12569200000.0 -12710500000.0 -12588900000.0 -12560300000.0 -12787300000.0 -12717500000.0 -12725300000.0 -12549700000.0 -12605800000.0 -13030100000.0 -12701300000.0 -12885700000.0 -12796200000.0 -12617900000.0 -12652500000.0 -12625700000.0 -12630600000.0 -12804000000.0 -12573800000.0 -12608000000.0 -12627200000.0 -12656400000.0 -12624600000.0 -12605200000.0 -12795500000.0 -12974300000.0 -12734400000.0 -12778000000.0 -12671700000.0 -12575100000.0 -13233600000.0 -12804400000.0 -12911500000.0 -12678800000.0 -12617900000.0 -12549700000.0 -12860900000.0 -12558600000.0 -12565600000.0 -12607100000.0 -12588000000.0 -12626800000.0 -12620200000.0 -12748000000.0 -12550900000.0 -12706900000.0 -12571700000.0 -12569300000.0 -12903400000.0 -13144400000.0 -12549700000.0 -12677900000.0 -12791100000.0 -12549700000.0 -12640100000.0 -12634000000.0 -12783600000.0 -12559500000.0 -12561000000.0 -12549700000.0 -12549700000.0 -12644600000.0 -12637200000.0 -12788600000.0 -12759000000.0 -12590400000.0 -12702300000.0 -12567600000.0 -12573900000.0 -13092600000.0 -12633600000.0 -12579700000.0 -12781200000.0 -12586700000.0 -12626000000.0 -12602800000.0 -12692600000.0 -12574000000.0 -12559900000.0 -12558700000.0 -12549700000.0 -12549700000.0 -12549700000.0 -12563200000.0 -12617600000.0 -12618900000.0 -12603300000.0 -12666800000.0 -12595900000.0 -12731500000.0 -12651000000.0 -12654000000.0 -13094100000.0 -12574800000.0 -12618500000.0 -12605100000.0 -12710100000.0 -12604600000.0 -12752100000.0 -12694200000.0 -12623100000.0 -12580700000.0 -12549700000.0 -12549700000.0 -12549700000.0 -12549700000.0 -12549700000.0 -12549700000.0 -12549700000.0 -12549700000.0 -12549700000.0 -12549700000.0 -12549700000.0 -12549700000.0 -12549700000.0 -12549700000.0 -12549700000.0 -12549700000.0 -12549700000.0 -12549700000.0 -12549700000.0 -12549700000.0 -12549700000.0 -12549700000.0 -12549700000.0 -12549700000.0 -12549700000.0 -12549700000.0 -12559100000.0 -12554300000.0 -12606500000.0 -12581500000.0 -12574900000.0 -12622300000.0 -12663700000.0 -12675800000.0 -12593700000.0 -12669300000.0 -13103500000.0 -12594600000.0 -12584000000.0 -12562100000.0 -12557800000.0 -12737700000.0 -12760200000.0 -12599700000.0 -12590100000.0 -12563300000.0 -12555800000.0 -12551100000.0 -12549700000.0 -12549700000.0 -12549700000.0 -12549700000.0 -12549700000.0 -12549700000.0 -12549700000.0 -12549700000.0 -12549700000.0 -12549700000.0 -12549700000.0 -12549700000.0 -12549700000.0 -12549700000.0 -12549700000.0 -12549700000.0 -12549700000.0 -12549700000.0 -12549700000.0 -12549700000.0 -12549700000.0 -12549700000.0 -12549700000.0 -12549700000.0 -12549700000.0 -12549700000.0 -12549700000.0 -12596100000.0 -12570200000.0 -12551600000.0 -12568900000.0 -12638000000.0 -12618300000.0 -12774700000.0 -12744900000.0 -12688200000.0 -12630600000.0 -12678300000.0 -12895200000.0 -12589900000.0 -12556300000.0 -12691000000.0 -12651100000.0 -12554300000.0 -12550700000.0 -12550100000.0 -12624900000.0 -12560800000.0 -12553800000.0 -12549700000.0 -12549700000.0 -12549700000.0 -12549700000.0 -12549700000.0 -12549700000.0 -12549700000.0 -12549700000.0 -12549700000.0 -12549700000.0 -12549700000.0 -12549700000.0 -12549700000.0 -12549700000.0 -12549700000.0 -12549700000.0 -12549700000.0 -12549700000.0 -12549700000.0 -12549700000.0 -12549700000.0 -12549700000.0 -12549700000.0 -12549700000.0 -12549700000.0 -12549700000.0 -12549700000.0 -12549700000.0 -12549700000.0 -12549700000.0 -12549700000.0 -12549700000.0 -12549700000.0 -12549700000.0 -12549700000.0 -12549700000.0 -12550500000.0 -12553700000.0 -12555800000.0 -12559200000.0 -12563100000.0 -12609700000.0 -12569900000.0 -12576700000.0 -12652600000.0 -12669700000.0 -12621800000.0 -12576300000.0 -12601500000.0 -12637400000.0 -12911500000.0 -12605000000.0 -12622800000.0 -12736600000.0 -12678200000.0 -12561500000.0 -12562500000.0 -12625300000.0 -12551400000.0 -12557600000.0 -12561500000.0 -12553600000.0 -12551000000.0 -12549800000.0 -12549700000.0 -12549700000.0 -12549700000.0 -12549700000.0 -12549700000.0 -12549700000.0 -12549700000.0 -12549700000.0 -12549700000.0 -12549700000.0 -12549700000.0 -12549700000.0 -12549700000.0 -12549700000.0 -12549700000.0 -12549700000.0 -12549700000.0 -12549700000.0 -12549700000.0 -12549700000.0 -12549700000.0 -12549700000.0 -12549700000.0 -12549700000.0 -12549700000.0 -12549700000.0 -12549700000.0 -12549700000.0 -12549700000.0 -12549700000.0 -12549700000.0 -12549700000.0 -12549700000.0 -12549700000.0 -12549700000.0 -12549700000.0 -12549700000.0 -12549700000.0 -12549700000.0 -12549700000.0 -12549700000.0 -12549700000.0 -12549700000.0 -12549700000.0 -12549700000.0 -12549700000.0 -12549700000.0 -12579800000.0 -12577500000.0 -12607700000.0 -12616400000.0 -12600500000.0 -12597700000.0 -12647400000.0 -12621500000.0 -12648900000.0 -12745400000.0 -12705800000.0 -12825400000.0 -12785600000.0 -12650900000.0 -12717300000.0 -12556800000.0 -12600400000.0 -12602900000.0 -12605100000.0 -12550000000.0 -12558600000.0 -12550300000.0 -12550000000.0 -12549700000.0 -12549700000.0 -12549700000.0 -12549700000.0 -12549700000.0 -12549700000.0 -12549700000.0 -12549700000.0 -12549700000.0 -12549700000.0 -12549700000.0 -12549700000.0 -12549700000.0 -12549700000.0 -12549700000.0 -12549700000.0 -12549700000.0 -12549700000.0 -12549700000.0 -12549700000.0 -12549700000.0 -12549700000.0 -12549700000.0 -12549700000.0 -12549700000.0 -12549700000.0 -12549700000.0 -12549700000.0 -12549700000.0 -12549700000.0 -12549700000.0 -12549700000.0 -12549700000.0 -12549700000.0 -12549700000.0 -12549700000.0 -12549700000.0 -12549700000.0 -12549700000.0 -12549700000.0 -12549700000.0 -12549800000.0 -12549700000.0 -12551100000.0 -12551100000.0 -12566300000.0 -12558500000.0 -12569600000.0 -12556800000.0 -12617700000.0 -12549800000.0 -12606100000.0 -12591300000.0 -12586500000.0 -12677700000.0 -12615200000.0 -12770200000.0 -12549700000.0 -12552100000.0 -12688300000.0 -12810200000.0 -12679400000.0 -12585000000.0 -12571200000.0 -12573300000.0 -12552100000.0 -12550700000.0 -12549800000.0 -12549700000.0 -12549700000.0 -12549700000.0 -12549700000.0 -12549700000.0 -12549700000.0 -12549700000.0 -12549700000.0 -12549700000.0 -12549700000.0 -12549700000.0 -12549700000.0 -12549700000.0 -12549700000.0 -12549700000.0 -12549700000.0 -12549700000.0 -12549700000.0 -12549700000.0 -12549700000.0 -12549700000.0 -12549700000.0 -12549700000.0 -12549700000.0 -12549700000.0 -12549700000.0 -12549700000.0 -12549700000.0 -12549700000.0 -12549700000.0 -12549700000.0 -12549700000.0 -12549700000.0 -12549700000.0 -12549700000.0 -12549700000.0 -12549700000.0 -12549700000.0 -12549700000.0 -12549700000.0 -12549700000.0 -12549700000.0 -12549700000.0 -12549700000.0 -12549700000.0 -12549700000.0 -12549700000.0 -12549700000.0 -12549700000.0 -12549700000.0 -12549700000.0 -12549700000.0 -12549800000.0 -12549700000.0 -12551800000.0 -12553200000.0 -12558200000.0 -12571600000.0 -12562400000.0 -12552600000.0 -12656300000.0 -12637700000.0 -12605100000.0 -12662100000.0 -12674000000.0 -12591800000.0 -12585700000.0 -12720200000.0 -12684800000.0 -12652900000.0 -12555500000.0 -12673500000.0 -12614700000.0 -12563800000.0 -12550600000.0 -12552400000.0 -12549700000.0 -12549700000.0 -12549700000.0 -12549700000.0 -12549700000.0 -12549700000.0 -12549700000.0 -12549700000.0 -12549700000.0 -12549700000.0 -12549700000.0 -12549700000.0 -12549700000.0 -12549700000.0 -12549700000.0 -12549700000.0 -12549700000.0 -12549700000.0 -12549700000.0 -12549700000.0 -12549700000.0 -12549700000.0 -12549700000.0 -12549700000.0 -12549700000.0 -12549700000.0 -12549700000.0 -12549700000.0 -12549700000.0 -12549700000.0 -12549700000.0 -12549700000.0 -12549700000.0 -12549700000.0 -12549700000.0 -12549700000.0 -12549700000.0 -12549700000.0 -12549700000.0 -12549700000.0 -12549700000.0 -12549700000.0 -12549700000.0 -12586000000.0 -12623000000.0 -12624600000.0 -12549800000.0 -12554100000.0 -12568900000.0 -12560100000.0 -12595100000.0 -12566300000.0 -12550400000.0 -12624900000.0 -12567300000.0 -12562300000.0 -12560400000.0 -12626400000.0 -12614700000.0 -12643700000.0 -12610000000.0 -12549700000.0 -12614800000.0 -12565900000.0 -12558200000.0 -12551900000.0 -12555500000.0 -12550200000.0 -12549700000.0 -12549700000.0 -12549700000.0 -12549700000.0 -12549700000.0 -12549700000.0 -12549700000.0 -12549700000.0 -12549700000.0 -12549700000.0 -12549700000.0 -12549700000.0 -12549700000.0 -12549700000.0 -12549700000.0 -12549700000.0 -12549700000.0 -12549700000.0 -12549700000.0 -12549700000.0 -12549700000.0 -12549700000.0 -12549700000.0 -12549700000.0 -12549700000.0 -12549700000.0 -12549700000.0 -12549700000.0 -12549700000.0 -12549700000.0 -12549700000.0 -12549700000.0 -12549700000.0 -12549700000.0 -12549700000.0 -12549700000.0 -12549700000.0 -12549700000.0 -12549700000.0 -12549700000.0 -12549700000.0 -12552900000.0 -12551700000.0 -12598300000.0 -12554800000.0 -12560400000.0 -12575400000.0 -12551500000.0 -12562000000.0 -12607500000.0 -12560000000.0 -12551600000.0 -12557400000.0 -12549700000.0 -12693000000.0 -12667800000.0 -12549700000.0 -12552400000.0 -12587600000.0 -12555500000.0 -12549700000.0 -12549700000.0 -12549700000.0 -12549700000.0 -12549700000.0 -12549700000.0 -12549700000.0 -12549700000.0 -12549700000.0 -12549700000.0 -12549700000.0 -12549700000.0 -12549700000.0 -12549700000.0 -12549700000.0 -12549700000.0 -12549700000.0 -12549700000.0 -12549700000.0 -12549700000.0 -12549700000.0 -12549700000.0 -12549700000.0 -12549700000.0 -12549700000.0 -12549700000.0 -12549700000.0 -12549700000.0 -12549700000.0 -12549700000.0 -12549700000.0 -12549700000.0 -12549700000.0 -12549700000.0 -12549700000.0 -12549700000.0 -12549700000.0 -12549700000.0 -12549700000.0 -12549700000.0 -12549700000.0 -12549700000.0 -12549700000.0 -12549700000.0 -12577200000.0 -12582200000.0 -12555500000.0 -12556900000.0 -12558000000.0 -12558000000.0 -12549800000.0 -12577800000.0 -12577400000.0 -12553800000.0 -12550500000.0 -12647000000.0 -12551200000.0 -12656600000.0 -12584200000.0 -12587100000.0 -12554200000.0 -12549700000.0 -12549700000.0 -12549700000.0 -12549700000.0 -12549700000.0 -12549700000.0 -12549700000.0 -12549700000.0 -12549700000.0 -12549700000.0 -12549700000.0 -12549700000.0 -12549700000.0 -12549700000.0 -12549700000.0 -12549700000.0 -12549700000.0 -12549700000.0 -12549700000.0 -12549700000.0 -12549700000.0 -12549700000.0 -12549700000.0 -12549700000.0 -12549700000.0 -12549700000.0 -12549700000.0 -12549700000.0 -12549700000.0 -12549700000.0 -12549700000.0 -12549700000.0 -12549700000.0 -12549700000.0 -12549700000.0 -12549700000.0 -12549700000.0 -12549700000.0 -12549700000.0 -12549700000.0 -12549700000.0 -12549700000.0 -12549700000.0 -12549700000.0 -12555000000.0 -12550000000.0 -12560900000.0 -12567500000.0 -12560100000.0 -12557200000.0 -12560100000.0 -12563800000.0 -12561300000.0 -12576000000.0 -12580500000.0 -12604200000.0 -12585500000.0 -12625300000.0 -12671400000.0 -12560000000.0 -12592000000.0 -12592200000.0 -12566900000.0 -12575900000.0 -12556500000.0 -12552600000.0 -12549700000.0 -12549700000.0 -12549700000.0 -12549700000.0 -12549700000.0 -12549700000.0 -12549700000.0 -12549700000.0 -12549700000.0 -12549700000.0 -12549700000.0 -12549700000.0 -12549700000.0 -12549700000.0 -12549700000.0 -12549700000.0 -12549700000.0 -12549700000.0 -12549700000.0 -12549700000.0 -12549700000.0 -12549700000.0 -12549700000.0 -12549700000.0 -12549700000.0 -12549700000.0 -12549700000.0 -12549700000.0 -12549700000.0 -12549700000.0 -12549700000.0 -12549700000.0 -12559800000.0 -12551700000.0 -12564400000.0 -12549900000.0 -12556600000.0 -12590300000.0 -12572700000.0 -12561600000.0 -12586400000.0 -12551400000.0 -12596500000.0 -12549700000.0 -12601500000.0 -12583600000.0 -12555500000.0 -12564300000.0 -12566000000.0 -12549900000.0 -12550500000.0 -12550900000.0 -12549700000.0 -12549700000.0 -12549700000.0 -12549700000.0 -12549700000.0 -12549700000.0 -12549700000.0 -12549700000.0 -12549700000.0 -12549700000.0 -12549700000.0 -12549700000.0 -12549700000.0 -12549700000.0 -12549700000.0 -12549700000.0 -12549700000.0 -12549700000.0 -12549700000.0 -12549700000.0 -12549700000.0 -12549700000.0 -12549700000.0 -12549700000.0 -12549700000.0 -12550600000.0 -12558500000.0 -12551100000.0 -12563200000.0 -12551700000.0 -12556700000.0 -12564800000.0 -12570300000.0 -12565900000.0 -12550000000.0 -12571700000.0 -12552300000.0 -12561700000.0 -12601100000.0 -12558800000.0 -12573300000.0 -12563500000.0 -12556900000.0 -12560700000.0 -12549700000.0 -12549700000.0 -12549700000.0 -12549700000.0 -12549700000.0 -12549700000.0 -12549700000.0 -12549700000.0 -12549700000.0 -12549700000.0 -12549700000.0 -12549700000.0 -12549700000.0 -12549700000.0 -12549700000.0 -12549700000.0 -12549700000.0 -12549700000.0 -12549700000.0 -12549700000.0 -12549700000.0 -12549700000.0 -12549700000.0 -12549700000.0 -12549700000.0 -12549700000.0 -12549700000.0 -12549700000.0 -12563500000.0 -12565300000.0 -12553600000.0 -12566100000.0 -12567800000.0 -12573400000.0 -12587800000.0 -12572400000.0 -12577500000.0 -12584200000.0 -12587800000.0 -12588400000.0 -12602600000.0 -12552200000.0 -12565200000.0 -12569200000.0 -12550000000.0 -12549800000.0 -12557700000.0 -12556000000.0 -12551900000.0 -12554200000.0 -12549700000.0 -12549700000.0 -12549700000.0 -12549700000.0 -12549700000.0 -12549700000.0 -12549700000.0 -12549700000.0 -12549700000.0 -12549700000.0 -12549700000.0 -12549700000.0 -12549700000.0 -12549700000.0 -12550800000.0 -12557500000.0 -12552600000.0 -12553900000.0 -12552300000.0 -12555100000.0 -12566000000.0 -12564400000.0 -12576300000.0 -12568100000.0 -12551700000.0 -12549700000.0 -12550300000.0 -12587500000.0 -12563200000.0 -12549700000.0 -12549700000.0 -12553800000.0 -12551100000.0 -12549700000.0 -12549700000.0 -12549700000.0 -12549700000.0 -12549700000.0 -12549700000.0 -12549700000.0 -12549700000.0 -12549700000.0 -12549700000.0 -12549700000.0 -12549700000.0 -12549700000.0 -12549700000.0 -12549700000.0 -12549700000.0 -12549700000.0 -12549700000.0 -12550200000.0 -12554400000.0 -12555100000.0 -12554800000.0 -12554100000.0 -12553900000.0 -12554800000.0 -12562900000.0 -12552400000.0 -12554600000.0 -12556300000.0 -12551700000.0 -12557100000.0 -12551500000.0 -12576600000.0 -12549700000.0 -12561500000.0 -12562900000.0 -12555200000.0 -12551400000.0 -12550500000.0 -12549700000.0 -12549700000.0 -12549700000.0 -12549700000.0 -12549700000.0 -12549700000.0 -12549700000.0 -12549700000.0 -12549700000.0 -12549700000.0 -12549700000.0 -12549700000.0 -12549700000.0 -12549700000.0 -12549900000.0 -12551100000.0 -12552600000.0 -12549900000.0 -12550500000.0 -12550000000.0 -12551200000.0 -12556300000.0 -12550300000.0 -12552600000.0 -12549700000.0 -12554700000.0 -12549800000.0 -12552700000.0 -12555000000.0 -12557000000.0 -12561000000.0 -12549700000.0 -12563700000.0 -12549700000.0 -12549700000.0 -12550400000.0 -12549700000.0 -12549700000.0 -12549700000.0 -12549700000.0 -12549700000.0 -12549700000.0 -12549700000.0 -12549700000.0 -12549700000.0 -12549700000.0 -12549800000.0 -12549700000.0 -12550800000.0 -12549700000.0 -12549700000.0 -12549900000.0 -12553700000.0 -12550600000.0 -12550000000.0 -12555000000.0 -12552600000.0 -12551300000.0 -12553000000.0 -12551400000.0 -12550100000.0 -12549800000.0 -12558500000.0 -12555500000.0 -12551300000.0 -12549700000.0 -12549700000.0 -12549700000.0 -12549700000.0 -12549700000.0 -12549700000.0 -12549900000.0 -12550400000.0 -12550000000.0 -12550000000.0 -12549900000.0 -12550100000.0 -12549800000.0 -12552000000.0 -12549700000.0 -12554300000.0 -12552200000.0 -12549700000.0 -12549700000.0 -12549900000.0 -12549700000.0 -12550300000.0 -12550000000.0 -12549900000.0 -12549700000.0 -12550600000.0 -12549900000.0 -12549700000.0 -12549700000.0 -12549700000.0 -12549700000.0 -12549700000.0 -12549700000.0 -12549700000.0 -12549700000.0 -12549700000.0 -12549700000.0 -12549700000.0 -12549700000.0 -12549700000.0 -12549800000.0 -12550100000.0 -12550300000.0 -12551600000.0 -12551100000.0 -12552100000.0 -12549700000.0 -12549900000.0 -12550100000.0 -12549800000.0 -12549800000.0 -12549700000.0 -12549700000.0 -12549700000.0 -12549700000.0 -12549700000.0 -12549700000.0 -12549700000.0 -12549700000.0 -12549700000.0 -12549700000.0 -12549700000.0 -12549700000.0 -12549700000.0 -12549700000.0 -12549700000.0 -12549700000.0 -12549700000.0 -12549700000.0 -12549700000.0 -12549700000.0 -12549700000.0 -12549700000.0 -12549700000.0 -12549700000.0 -12549700000.0 -12549700000.0 -12549700000.0 -12549700000.0 -12549700000.0 -2.66721e+12 -4.12052e+12 -3.67634e+12 -4.85576e+12 -4.04128e+12 -4.10362e+12 -3.92405e+12 -3.77834e+12 -3.53889e+12 -3.18907e+12 -5.79455e+12 -3.00201e+12 -3.50301e+12 -5.10605e+12 -4.78288e+12 -6.33748e+12 -4.40343e+12 -3.20083e+12 -3.93451e+12 -3.0262e+12 -4.30233e+12 -5.1892e+12 -5.40591e+12 -4.94636e+12 -4.91308e+12 -3.71529e+12 -3.64013e+12 -3.92395e+12 -4.40997e+12 -4.04212e+12 -5.43829e+12 -5.24355e+12 -3.42706e+12 -2.62704e+12 -2.98963e+12 -3.79335e+12 -4.64527e+12 -6.27158e+12 -3.5985e+12 -4.53395e+12 -4.6274e+12 -3.83531e+12 -3.61484e+12 -3.15611e+12 -3.80257e+12 -3.62807e+12 -2.34762e+12 -2.69956e+12 -3.72696e+12 -2.78321e+12 -2.11698e+12 -1.79807e+12 -3.4727e+12 -4.82863e+12 -5.39802e+12 -4.03281e+12 -6.67519e+12 -4.48163e+12 -3.0147e+12 -4.72655e+12 -4.50217e+12 -4.23899e+12 -3.93499e+12 -5.93406e+12 -6.56537e+12 -5.33924e+12 -3.74854e+12 -5.32829e+12 -7.39144e+12 -4.57287e+12 -5.02661e+12 -5.7389e+12 -4.64499e+12 -4.45608e+12 -6.68368e+12 -6.00728e+12 -2.58134e+12 -4.09641e+12 -3.84944e+12 -3.78963e+12 -4.67143e+12 -4.06178e+12 -3.94186e+12 -5.22607e+12 -4.64047e+12 -3.89659e+12 -4.43991e+12 -4.57198e+12 -2.70778e+12 -5.2287e+12 -4.18567e+12 -5.78383e+12 -6.50967e+12 -6.15629e+12 -5.7706e+12 -5.16893e+12 -4.70178e+12 -6.50737e+12 -4.15065e+12 -4.71161e+12 -6.2743e+12 -4.00657e+12 -4.89513e+12 -2.84834e+12 -2.59766e+12 -6.62088e+12 -5.44358e+12 -8.60552e+12 -6.14853e+12 -6.10463e+12 -7.7317e+12 -1.11409e+13 -5.47968e+12 -7.25875e+12 -4.07478e+12 -5.71673e+12 -4.73102e+12 -7.20267e+12 -7.03526e+12 -1.86871e+12 -5.19985e+12 -6.89304e+12 -4.28026e+12 -4.76659e+12 -6.09234e+12 -2.51548e+12 -5.82609e+12 -5.47132e+12 -6.8325e+12 -7.16524e+12 -1.11858e+13 -5.34718e+12 -6.22214e+12 -6.33999e+12 -5.45099e+12 -9.07361e+12 -7.69317e+12 -8.75473e+12 -5.61411e+12 -5.77328e+12 -8.90903e+12 -9.28676e+12 -8.03735e+12 -5.47161e+12 -5.22538e+12 -7.45319e+12 -6.3211e+12 -7.70164e+12 -7.09154e+12 -6.62892e+12 -6.98883e+12 -4.73444e+12 -8.27074e+12 -7.48453e+12 -1.08706e+13 -2.77265e+12 -3.95947e+12 -3.16696e+12 -5.00897e+12 -7.74378e+12 -8.23338e+12 -6.03836e+12 -4.82707e+12 -5.29808e+12 -6.86107e+12 -6.56232e+12 -2.89299e+12 -4.34276e+12 -4.12661e+12 -4.9442e+12 -4.69649e+12 -5.84792e+12 -5.06635e+12 -6.46316e+12 -9.1903e+12 -5.00201e+12 -4.08588e+12 -6.0753e+12 -3.85306e+12 -7.12031e+12 -6.39725e+12 -7.21204e+12 -3.71847e+12 -4.77521e+12 -4.94548e+12 -3.70922e+12 -2.42898e+12 -5.42124e+12 -4.31037e+12 -8.69365e+12 -8.11831e+12 -2.28639e+12 -5.2524e+12 -1.01823e+13 -3.26835e+12 -4.98983e+12 -3.96816e+12 -2.36815e+12 -7.1659e+12 -5.20098e+12 -7.55604e+12 -4.3033e+12 -4.24338e+12 -6.2867e+12 -6.16485e+12 -1.06666e+13 -6.56594e+12 -1.03283e+13 -7.26122e+12 -5.23889e+12 -9.01038e+12 -7.81999e+12 -5.3428e+12 -6.57068e+12 -7.66295e+12 -7.36339e+12 -4.62584e+12 -6.7447e+12 -8.8271e+12 -1.03468e+13 -5.12722e+12 -7.66561e+12 -7.81376e+12 -4.62219e+12 -5.67044e+12 -4.94304e+12 -8.36036e+12 -6.42894e+12 -6.83346e+12 -8.40288e+12 -6.823e+12 -6.27725e+12 -7.1007e+12 -6.22333e+12 -5.61937e+12 -5.49189e+12 -1.4853e+12 -2.92726e+12 -4.97956e+12 -4.3064e+12 -5.56917e+12 -6.43971e+12 -8.51866e+12 -6.92126e+12 -1.02184e+13 -5.62692e+12 -4.92553e+12 -6.38068e+12 -7.26747e+12 -3.83257e+12 -6.44392e+12 -8.2948e+12 -7.11585e+12 -4.96221e+12 -6.02478e+12 -8.03144e+12 -6.44042e+12 -5.91851e+12 -9.85882e+12 -5.40723e+12 -7.22037e+12 -6.97047e+12 -8.22147e+12 -8.12758e+12 -4.10946e+12 -5.48255e+12 -4.70643e+12 -6.52456e+12 -7.27589e+12 -6.95851e+12 -5.09091e+12 -7.80004e+12 -6.07482e+12 -5.4149e+12 -5.11467e+12 -7.43915e+12 -9.08936e+12 -4.72408e+12 -6.39028e+12 -1.74904e+12 -3.55707e+12 -4.62912e+12 -6.71604e+12 -6.87197e+12 -4.23117e+12 -5.92607e+12 -2.25268e+12 -5.59414e+12 -7.26936e+12 -5.65321e+12 -5.96148e+12 -4.96846e+12 -5.73108e+12 -6.96319e+12 -6.60711e+12 -6.69937e+12 -6.89042e+12 -5.00346e+12 -8.63662e+12 -7.61892e+12 -6.15755e+12 -5.74933e+12 -5.40803e+12 -8.39952e+12 -6.5238e+12 -4.95754e+12 -7.61643e+12 -6.52929e+12 -6.47758e+12 -8.38079e+12 -5.83038e+12 -3.93423e+12 -9.97773e+12 -9.07384e+12 -6.04078e+12 -4.79482e+12 -9.58923e+12 -4.1624e+12 -7.48508e+12 -5.40777e+12 -5.39545e+12 -6.24997e+12 -7.165e+12 -3.91622e+12 -1.06628e+13 -8.06308e+12 -4.50971e+12 -7.39431e+12 -3.98995e+12 -4.93348e+12 -7.10433e+12 -4.9944e+12 -4.77216e+12 -4.07195e+12 -5.12872e+12 -3.11131e+12 -4.79876e+12 -4.5487e+12 -4.42486e+12 -6.18141e+12 -6.56195e+12 -1.09606e+13 -8.10413e+12 -9.41123e+12 -6.79562e+12 -2.96903e+12 -6.74176e+12 -5.79407e+12 -2.65787e+12 -4.45867e+12 -3.84414e+12 -5.89964e+12 -4.26799e+12 -3.83484e+12 -7.53722e+12 -5.6429e+12 -5.48809e+12 -4.05919e+12 -5.78129e+12 -1.03767e+13 -6.62587e+12 -6.10788e+12 -3.86323e+12 -9.34876e+12 -9.62417e+12 -7.63329e+12 -3.74954e+12 -7.9659e+12 -4.60582e+12 -6.12186e+12 -4.86287e+12 -6.40802e+12 -6.14328e+12 -5.10839e+12 -6.51835e+12 -6.5246e+12 -6.09893e+12 -4.45503e+12 -7.29261e+12 -8.10607e+12 -4.96546e+12 -5.83664e+12 -8.34158e+12 -3.92273e+12 -3.78735e+12 -3.6829e+12 -5.73947e+12 -5.95252e+12 -4.04302e+12 -5.90887e+12 -3.87839e+12 -5.27475e+12 -5.01878e+12 -6.04166e+12 -7.57606e+12 -9.0195e+12 -4.622e+12 -4.13161e+12 -3.0705e+12 -2.14305e+12 -6.59968e+12 -4.42172e+12 -8.96202e+12 -7.35445e+12 -6.20649e+12 -6.90244e+12 -1.01523e+13 -5.10717e+12 -3.77691e+12 -4.60172e+12 -5.91643e+12 -4.8183e+12 -4.9848e+12 -6.30414e+12 -4.83865e+12 -6.14542e+12 -4.95202e+12 -4.98698e+12 -4.16212e+12 -5.21164e+12 -4.13834e+12 -4.67433e+12 -4.17031e+12 -7.32659e+12 -7.36274e+12 -8.21764e+12 -7.21428e+12 -4.05544e+12 -4.85315e+12 -4.32634e+12 -3.55574e+12 -2.31668e+12 -6.15918e+12 -4.47522e+12 -4.45723e+12 -5.19339e+12 -8.07325e+12 -6.64861e+12 -7.40879e+12 -6.04874e+12 -4.24316e+12 -5.42697e+12 -5.4441e+12 -3.28143e+12 -5.9523e+12 -3.87115e+12 -5.66596e+12 -7.63245e+12 -5.33486e+12 -4.59308e+12 -6.09599e+12 -6.24142e+12 -6.16056e+12 -6.84187e+12 -5.58336e+12 -3.63464e+12 -4.06431e+12 -5.16613e+12 -3.21708e+12 -4.56625e+12 -5.91505e+12 -4.43124e+12 -5.27929e+12 -3.83623e+12 -7.94261e+12 -4.78873e+12 -7.82372e+12 -5.31875e+12 -4.45005e+12 -5.88548e+12 -4.3316e+12 -5.98125e+12 -7.34407e+12 -5.74012e+12 -4.24083e+12 -8.27729e+12 -4.34377e+12 -8.62511e+12 -3.44486e+12 -3.52873e+12 -3.01013e+12 -2.93356e+12 -2.30487e+12 -3.7637e+12 -3.78418e+12 -8.53959e+12 -2.91781e+12 -3.62366e+12 -3.02576e+12 -5.13017e+12 -5.44767e+12 -5.53941e+12 -4.67988e+12 -2.56741e+12 -5.01118e+12 -7.54418e+12 -6.79966e+12 -7.6804e+12 -6.34196e+12 -6.7965e+12 -3.5667e+12 -4.02909e+12 -5.7419e+12 -6.26976e+12 -6.02788e+12 -7.57026e+12 -4.39871e+12 -5.87716e+12 -5.52337e+12 -5.77327e+12 -3.29703e+12 -3.58776e+12 -4.26791e+12 -5.51345e+12 -5.31152e+12 -3.53528e+12 -4.41813e+12 -4.32755e+12 -7.35628e+12 -3.17952e+12 -4.05108e+12 -2.80284e+12 -7.1192e+12 -4.35938e+12 -5.71855e+12 -3.77919e+12 -4.22488e+12 -4.9453e+12 -2.97468e+12 -4.44155e+12 -1.00823e+13 -4.38095e+12 -6.67438e+12 -7.97702e+12 -4.16128e+12 -4.49807e+12 -648764000000.0 -5.97146e+12 -4.12599e+12 -9.6945e+12 -4.21622e+12 -5.00775e+12 -5.29628e+12 -4.94205e+12 -4.18678e+12 -3.77939e+12 -4.59908e+12 -2.95318e+12 -4.88368e+12 -4.20619e+12 -7.00572e+12 -6.11465e+12 -4.69269e+12 -2.74216e+12 -6.76282e+12 -6.66152e+12 -4.10705e+12 -8.11558e+12 -6.05267e+12 -5.17731e+12 -7.52931e+12 -7.50726e+12 -4.17671e+12 -7.21443e+12 -2.81102e+12 -6.05019e+12 -6.76689e+12 -5.83178e+12 -3.42542e+12 -3.7681e+12 -6.77287e+12 -5.17622e+12 -7.61176e+12 -7.27458e+12 -6.03641e+12 -7.58843e+12 -3.12349e+12 -4.41385e+12 -4.94909e+12 -3.52009e+12 -4.67844e+12 -5.41935e+12 -5.60889e+12 -2.19733e+12 -2.30766e+12 -2.87573e+12 -2.03279e+12 -5.04108e+12 -7.25611e+12 -4.44246e+12 -3.72645e+12 -3.67842e+12 -3.7629e+12 -2.80642e+12 -7.36952e+12 -4.6599e+12 -4.07578e+12 -3.91885e+12 -5.26607e+12 -6.42521e+12 -5.43164e+12 -3.05247e+12 -3.97371e+12 -3.68531e+12 -4.44901e+12 -3.74383e+12 -5.34057e+12 -4.94278e+12 -5.39023e+12 -3.19684e+12 -3.42084e+12 -6.27954e+12 -4.99926e+12 -4.25792e+12 -5.14162e+12 -3.36501e+12 -1.98433e+12 -3.65691e+12 -4.59966e+12 -5.65892e+12 -5.91633e+12 -7.2737e+12 -2.59614e+12 -2.9043e+12 -4.46216e+12 -3.43583e+12 -4.40777e+12 -5.87922e+12 -2.22152e+12 -6.08413e+12 -4.49348e+12 -4.97805e+12 -6.16397e+12 -5.27868e+12 -4.46354e+12 -3.26521e+12 -2.75712e+12 -5.24728e+12 -3.62456e+12 -6.37161e+12 -7.63863e+12 -5.66625e+12 -5.67938e+12 -3.24942e+12 -6.83111e+12 -5.47731e+12 -2.0101e+12 -5.80279e+12 -2.45827e+12 -6.28104e+12 -6.16107e+12 -4.36648e+12 -5.75834e+12 -3.91713e+12 -4.66968e+12 -6.11971e+12 -5.43971e+12 -5.82835e+12 -6.00609e+12 -5.81303e+12 -5.68954e+12 -6.17048e+12 -5.20027e+12 -2.5095e+12 -6.32815e+12 -5.2943e+12 -1.67938e+12 -4.73949e+12 -3.58114e+12 -1.44135e+12 -4.8028e+12 -5.26064e+12 -4.24857e+12 -5.65609e+12 -3.67576e+12 -4.80372e+12 -8.56855e+12 -3.347e+12 -3.77402e+12 -5.4842e+12 -3.18655e+12 -6.6415e+12 -3.2146e+12 -5.51575e+12 -4.19365e+12 -3.89166e+12 -4.98717e+12 -3.93744e+12 -3.51244e+12 -5.96697e+12 -5.4367e+12 -1.98847e+12 -6.50959e+12 -2.48202e+12 -3.8789e+12 -5.51646e+12 -3.79597e+12 -4.38583e+12 -3.89596e+12 -3.03297e+12 -4.38163e+12 -4.31563e+12 -6.29265e+12 -1.83551e+12 -4.73421e+12 -4.2677e+12 -5.59043e+12 -5.98401e+12 -6.84023e+12 -3.63934e+12 -4.90171e+12 -4.57773e+12 -3.83638e+12 -2.60617e+12 -4.40332e+12 -3.99116e+12 -3.95903e+12 -4.29515e+12 -6.81035e+12 -6.88661e+12 -4.0479e+12 -8.42546e+12 -2.7402e+12 -5.93599e+12 -2.87534e+12 -4.10777e+12 -3.40919e+12 -3.6737e+12 -2.48935e+12 -3.61102e+12 -6.0188e+12 -4.87671e+12 -5.83185e+12 -5.79643e+12 -3.69554e+12 -6.51561e+12 -3.10891e+12 -2.32087e+12 -5.96767e+12 -5.2822e+12 -4.31022e+12 -1.98375e+12 -2.7875e+12 -6.71402e+12 -2.77828e+12 -4.02156e+12 -6.61107e+12 -3.99052e+12 -5.69309e+12 -2.93801e+12 -4.51611e+12 -5.11243e+12 -3.6877e+12 -4.98028e+12 -3.04862e+12 -5.88066e+12 -4.94501e+12 -2.52953e+12 -4.43466e+12 -5.35388e+12 -2.93209e+12 -3.70669e+12 -2.8035e+12 -3.86354e+12 -4.02056e+12 -4.58509e+12 -2.40496e+12 -3.82651e+12 -3.03153e+12 -4.60449e+12 -5.32587e+12 -2.66439e+12 -4.99645e+12 -4.30701e+12 -3.49018e+12 -2.71868e+12 -4.28779e+12 -3.05964e+12 -3.51499e+12 -3.72507e+12 -3.50032e+12 -5.57022e+12 -3.25313e+12 -2.88446e+12 -4.13907e+12 -3.44407e+12 -3.03788e+12 -2.7818e+12 -2.97649e+12 -2.20482e+12 -3.87516e+12 -2.46774e+12 -4.23596e+12 -4.64957e+12 -2.75039e+12 -3.40346e+12 -2.87356e+12 -4.5594e+12 -2.65408e+12 -4.24835e+12 -2.14897e+12 -2.6124e+12 -3.41957e+12 -4.05443e+12 -3.76621e+12 -2.77949e+12 -2.73968e+12 -4.16224e+12 -2.5362e+12 -3.06589e+12 -5.14164e+12 -5.26072e+12 -4.38569e+12 -2.3397e+12 -3.29575e+12 -2.7568e+12 -1.93911e+12 -4.418e+12 -3.56164e+12 -4.10363e+12 -1.73277e+12 -3.12599e+12 -5.57526e+12 -3.08244e+12 -4.76228e+12 -2.35909e+12 -5.67738e+12 -2.73935e+12 -6.19974e+12 -6.98259e+12 -5.00825e+12 -5.44743e+12 -3.10123e+12 -2.35312e+12 -3.0518e+12 -2.75365e+12 -2.21688e+12 -4.51595e+12 -3.90956e+12 -2.66684e+12 -2.88921e+12 -3.22659e+12 -1.09006e+12 -3.16046e+12 -771343000000.0 -3.88299e+12 -1.46491e+12 -4.61863e+12 -4.50365e+12 -2.89574e+12 -4.325e+12 -3.03069e+12 -3.08351e+12 -3.97719e+12 -2.27528e+12 -3.4734e+12 -4.07715e+12 -2.23063e+12 -4.58874e+12 -5.43061e+12 -1.58741e+12 -3.02965e+12 -4.33948e+12 -3.02715e+12 -3.69207e+12 -5.72702e+12 -4.09367e+12 -5.26688e+12 -1.94069e+12 -2.60084e+12 -3.20724e+12 -6.87976e+12 -2.74987e+12 -2.21921e+12 -3.09116e+12 -2.0649e+12 -2.01003e+12 -2.20677e+12 -2.85551e+12 -4.61415e+12 -1.9841e+12 -3.05071e+12 -2.69555e+12 -3.80368e+12 -2.03884e+12 -4.57952e+12 -2.52067e+12 -2.14747e+12 -1.62545e+12 -4.0003e+12 -2.72939e+12 -3.07795e+12 -2.45812e+12 -3.20486e+12 -4.35779e+12 -3.43453e+12 -1.82284e+12 -2.91454e+12 -3.67205e+12 -2.35775e+12 -2.63729e+12 -3.15391e+12 -3.52638e+12 -2.7824e+12 -2.70718e+12 -2.85106e+12 -1.93173e+12 -3.83357e+12 -5.16155e+12 -2.06877e+12 -4.1674e+12 -4.85094e+12 -3.50764e+12 -3.36444e+12 -3.08814e+12 -1.46914e+12 -2.96666e+12 -2.97161e+12 -2.66322e+12 -1.39165e+12 -2.83545e+12 -3.00365e+12 -1.77893e+12 -2.80289e+12 -1.16713e+12 -3.27579e+12 -4.29519e+12 -2.95732e+12 -3.33093e+12 -3.06198e+12 -4.33298e+12 -2.90106e+12 -2.88419e+12 -1.70628e+12 -1.74725e+12 -3.28327e+12 -2.97317e+12 -5.78607e+12 -2.06029e+12 -3.76054e+12 -3.729e+12 -2.15591e+12 -2.21794e+12 -2.93785e+12 -3.24932e+12 -1.59531e+12 -3.62652e+12 -5.34283e+12 -3.20247e+12 -1.67507e+12 -2.25326e+12 -3.0377e+12 -2.66552e+12 -2.54704e+12 -2.48559e+12 -3.02585e+12 -2.50556e+12 -1.98392e+12 -4.24674e+12 -3.23449e+12 -2.1822e+12 -5.12045e+12 -2.85918e+12 -3.62492e+12 -4.10237e+12 -4.91278e+12 -1.77389e+12 -2.81738e+12 -3.5573e+12 -3.27352e+12 -3.04291e+12 -3.42764e+12 -3.6962e+12 -4.6946e+12 -2.39856e+12 -2.93365e+12 -1.89856e+12 -5.01224e+12 -3.41727e+12 -2.48291e+12 -3.45747e+12 -4.61006e+12 -3.54977e+12 -3.26087e+12 -2.15189e+12 -2.65254e+12 -2.30191e+12 -2.06343e+12 -2.34066e+12 -202653000000.0 -2.45726e+12 -2.46618e+12 -1.688e+12 -3.53504e+12 -2.58071e+12 -2.20752e+12 -1.91217e+12 -2.13134e+12 -1.42277e+12 -1.64762e+12 -1.02409e+12 -2.90741e+12 -2.80205e+12 -2.12802e+12 -4.25417e+12 -3.10256e+12 -2.83344e+12 -3.47107e+12 -1.74933e+12 -1.4072e+12 -2.85365e+12 -4.32829e+12 -2.32306e+12 -4.18472e+12 -3.17853e+12 -1.58326e+12 -2.50786e+12 -3.90657e+12 -4.38383e+12 -5.64668e+12 -2.01782e+12 -1.77718e+12 -1.65457e+12 -2.68867e+12 -1.81849e+12 -1.48437e+12 -2.05776e+12 -2.50435e+12 -1.77967e+12 -3.75072e+12 -1.24843e+12 -2.19719e+12 -3.82693e+12 -2.20498e+12 -1.22605e+12 -2.00867e+12 -916381000000.0 -1.19486e+12 -4.07961e+12 -2.79455e+12 -1.91448e+12 -2.21252e+12 -3.34593e+12 -1.73445e+12 -3.33131e+12 -1.7604e+12 -2.5939e+12 -3.10909e+12 -3.66732e+12 -2.30077e+12 -2.08531e+12 -2.0279e+12 -2.19317e+12 -1.73845e+12 -1.52429e+12 -3.11338e+12 -4.1423e+12 -5.00357e+12 -2.97866e+12 -4.36574e+12 -3.05955e+12 -3.35766e+12 -1.46235e+12 -3.99704e+12 -1.16082e+12 -1.40624e+12 -2.08526e+12 -2.01777e+12 -2.72926e+12 -3.1618e+12 -3.08433e+12 -1.94622e+12 -3.6214e+12 -2.90162e+12 -2.83134e+12 -3.11196e+12 -2.55823e+12 -1.14655e+12 -2.67737e+12 -1.67109e+12 -2.901e+12 -1.08786e+12 -2.6495e+12 -1.29771e+12 -1.3924e+12 -1.94547e+12 -1.33576e+12 -824958000000.0 -1.79955e+12 -2.12675e+12 -1.45915e+12 -1.3768e+12 -1.24926e+12 -2.27023e+12 -1.67284e+12 -1.80995e+12 -1.36023e+12 -2.07132e+12 -2.09597e+12 -2.40449e+12 -1.99982e+12 -1.70897e+12 -1.78321e+12 -2.68501e+12 -1.13563e+12 -2.36624e+12 -2.45011e+12 -2.26568e+12 -3.6176e+12 -1.43692e+12 -2.22382e+12 -2.21376e+12 -1.53426e+12 -2.73735e+12 -1.48837e+12 -2.49177e+12 -1.03054e+12 -405737000000.0 -1.67637e+12 -2.09996e+12 -3.30691e+12 -2.94888e+12 -2.71903e+12 -1.76629e+12 -1.62895e+12 -1.67375e+12 -1.93579e+12 -3.06441e+12 -1.31173e+12 -2.99277e+12 -1.26629e+12 -1.0964e+12 -2.17671e+12 -1.38077e+12 -777526000000.0 -1.93954e+12 -2.34371e+12 -686339000000.0 -1.90074e+12 -2.53836e+12 -1.91758e+12 -2.86184e+12 -1.76381e+12 -3.28858e+12 -1.12291e+12 -1.74902e+12 -2.42906e+12 -940355000000.0 -1.79355e+12 -1.44458e+12 -3.62394e+12 -2.58524e+12 -2.49063e+12 -880355000000.0 -2.6594e+12 -2.18427e+12 -2.8605e+12 -2.15029e+12 -1.45851e+12 -2.01031e+12 -1.46611e+12 -1.52126e+12 -1.51478e+12 -2.40245e+12 -1.17785e+12 -2.2858e+12 -1.26837e+12 -582950000000.0 -2.55196e+12 -3.13865e+12 -2.92003e+12 -1.27648e+12 -1.55245e+12 -1.96128e+12 -1.80991e+12 -1.93755e+12 -3.07605e+12 -1.68642e+12 -1.93503e+12 -1.16204e+12 -2.15935e+12 -328661000000.0 -2.21535e+12 -461195000000.0 -1.28027e+12 -2.09115e+12 -2.10219e+12 -889779000000.0 -987848000000.0 -1.50761e+12 -943141000000.0 -1.31162e+12 -1.43978e+12 -1.11355e+12 -932352000000.0 -2.23329e+12 -1.57719e+12 -1.83718e+12 -972917000000.0 -1.62383e+12 -1.32592e+12 -2.26283e+12 -844093000000.0 -1.30016e+12 -1.2732e+12 -1.28459e+12 -1.95276e+12 -600571000000.0 -1.14182e+12 -1.1731e+12 -1.07142e+12 -1.14476e+12 -839529000000.0 -2.17164e+12 -1.07106e+12 -1.29847e+12 -1.33074e+12 -1.08431e+12 -427746000000.0 -633065000000.0 -1.93921e+12 -608266000000.0 -1.2004e+12 -1.10759e+12 -2.08421e+12 -516728000000.0 -1.02848e+12 -2.47285e+12 -1.88329e+12 -1.0096e+12 -1.13101e+12 -612596000000.0 -1.57785e+12 -1.25747e+12 -2.25883e+12 -2.12234e+12 -2.47303e+12 -942837000000.0 -692698000000.0 -1.63681e+12 -701230000000.0 -1.49734e+12 -1.77343e+12 -1.4609e+12 -1.74513e+12 -2.02974e+12 -1.94516e+12 -1.14053e+12 -1.09502e+12 -666592000000.0 -881809000000.0 -1.25208e+12 -1.01092e+12 -1.55824e+12 -558270000000.0 -1.11531e+12 -1.92158e+12 -929709000000.0 -1.46019e+12 -1.26007e+12 -1.34654e+12 -2.34472e+12 -2.0233e+12 -1.15983e+12 -1.32988e+12 -1.42875e+12 -391726000000.0 -2.03526e+12 -1.02981e+12 -1.64118e+12 -2.019e+12 -1.01877e+12 -519854000000.0 -797037000000.0 -1.00739e+12 -911449000000.0 -196683000000.0 -82321700000.0 -1.1549e+12 -353486000000.0 -802214000000.0 -515110000000.0 -707052000000.0 -1.16948e+12 -942818000000.0 -288258000000.0 -667797000000.0 -503992000000.0 -684107000000.0 -244370000000.0 -461598000000.0 -158157000000.0 -359630000000.0 -1.09539e+12 -72050500000.0 -615764000000.0 -254687000000.0 -1.14906e+12 -870984000000.0 -916460000000.0 -738401000000.0 -235207000000.0 -620017000000.0 -247145000000.0 -175501000000.0 -168562000000.0 -153986000000.0 -658268000000.0 -450417000000.0 -538235000000.0 -983598000000.0 -875642000000.0 -447299000000.0 -446980000000.0 -605679000000.0 -210590000000.0 -324364000000.0 -409882000000.0 -226832000000.0 -566437000000.0 -244919000000.0 -345353000000.0 -456325000000.0 -575436000000.0 -255048000000.0 -708865000000.0 -509461000000.0 -305965000000.0 -657644000000.0 -152352000000.0 -880146000000.0 -903952000000.0 -675203000000.0 -268736000000.0 -605633000000.0 -455176000000.0 -746027000000.0 -167356000000.0 -988428000000.0 -429682000000.0 -86743000000.0 -791070000000.0 -181121000000.0 -404798000000.0 -399508000000.0 -370930000000.0 -234757000000.0 -158128000000.0 -255316000000.0 -682327000000.0 -452559000000.0 -1.29619e+12 -1.32439e+12 -884451000000.0 -217480000000.0 -1.22838e+12 -577341000000.0 -324732000000.0 -561422000000.0 -247320000000.0 -358835000000.0 -920487000000.0 -327136000000.0 -266236000000.0 -539504000000.0 -301832000000.0 -480777000000.0 -618647000000.0 -1.03184e+12 -596406000000.0 -177863000000.0 -649276000000.0 -446820000000.0 -258587000000.0 -261288000000.0 -195328000000.0 -271973000000.0 -369446000000.0 -102382000000.0 -270446000000.0 -219129000000.0 -142037000000.0 -197069000000.0 -143817000000.0 