# vtk DataFile Version 2.0
Time step 36
ASCII
DATASET UNSTRUCTURED_GRID
POINTS 5000 float
2398.28 125673.0 0
8531.89 125047.0 0
12438.9 124880.0 0
16747.6 124199.0 0
27669.7 122582.0 0
33203.3 125269.0 0
57005.0 124851.0 0
72702.4 125193.0 0
87407.7 125227.0 0
105946.0 125295.0 0
111936.0 125774.0 0
133428.0 125405.0 0
157589.0 125541.0 0
162561.0 125697.0 0
167011.0 125238.0 0
171830.0 124122.0 0
177734.0 124160.0 0
182938.0 123346.0 0
187393.0 125200.0 0
196080.0 125525.0 0
201748.0 124885.0 0
207651.0 125649.0 0
212985.0 124985.0 0
225794.0 125313.0 0
230434.0 125185.0 0
241170.0 124886.0 0
252679.0 124871.0 0
259052.0 125346.0 0
268740.0 125344.0 0
273935.0 125640.0 0
278881.0 124290.0 0
297319.0 124255.0 0
303664.0 125040.0 0
312126.0 125464.0 0
337223.0 125565.0 0
345896.0 125111.0 0
361815.0 124658.0 0
372012.0 122677.0 0
377031.0 124649.0 0
382609.0 125522.0 0
388132.0 124822.0 0
394019.0 124138.0 0
399200.0 125808.0 0
403649.0 123066.0 0
408587.0 124277.0 0
422737.0 124084.0 0
427271.0 125793.0 0
432479.0 123597.0 0
442089.0 124891.0 0
446252.0 124471.0 0
450665.0 125239.0 0
455208.0 125180.0 0
460242.0 125025.0 0
465794.0 125412.0 0
471628.0 124669.0 0
477063.0 123472.0 0
485844.0 123404.0 0
491674.0 124943.0 0
497601.0 123436.0 0
2284.41 130690.0 0
6061.37 128368.0 0
11086.4 129398.0 0
17331.6 130101.0 0
22243.6 125845.0 0
28518.3 128934.0 0
34968.1 130544.0 0
38184.1 125853.0 0
40340.6 130862.0 0
42702.7 126005.0 0
47472.7 125912.0 0
48278.6 129907.0 0
52137.1 126011.0 0
57995.0 130292.0 0
62763.5 125926.0 0
67994.7 126060.0 0
67505.2 130697.0 0
72116.5 130312.0 0
77500.0 125939.0 0
82500.0 125928.0 0
82116.1 130743.0 0
87907.8 129985.0 0
92500.0 125967.0 0
97192.8 125988.0 0
101293.0 125905.0 0
97183.6 130736.0 0
102467.0 130640.0 0
108243.0 129887.0 0
117850.0 125959.0 0
123330.0 126036.0 0
128345.0 126156.0 0
127727.0 130590.0 0
138124.0 126089.0 0
142500.0 126010.0 0
142774.0 130433.0 0
147500.0 125943.0 0
146927.0 130781.0 0
152501.0 125913.0 0
151938.0 130658.0 0
156861.0 129590.0 0
161297.0 130411.0 0
166510.0 129910.0 0
172971.0 129691.0 0
178375.0 129572.0 0
183532.0 128414.0 0
188603.0 129646.0 0
192498.0 126362.0 0
193570.0 130506.0 0
198250.0 129869.0 0
203920.0 130505.0 0
213692.0 129535.0 0
209356.0 130719.0 0
218128.0 126070.0 0
222480.0 126082.0 0
222033.0 130908.0 0
226802.0 129548.0 0
232206.0 130609.0 0
235810.0 126182.0 0
246502.0 126888.0 0
257262.0 129985.0 0
263774.0 126434.0 0
262325.0 130610.0 0
267063.0 130188.0 0
271612.0 129493.0 0
277073.0 129897.0 0
282030.0 127622.0 0
286326.0 125930.0 0
291718.0 126387.0 0
292911.0 130878.0 0
298249.0 129765.0 0
303118.0 130711.0 0
307730.0 127610.0 0
307442.0 130903.0 0
317928.0 126083.0 0
323245.0 125987.0 0
322434.0 130455.0 0
327581.0 126257.0 0
332206.0 125856.0 0
341019.0 126776.0 0
337713.0 130407.0 0
343307.0 129801.0 0
350687.0 127033.0 0
347751.0 130199.0 0
355259.0 126019.0 0
352668.0 130924.0 0
361442.0 129970.0 0
357756.0 130439.0 0
365115.0 129665.0 0
367954.0 125993.0 0
372930.0 129478.0 0
378820.0 129200.0 0
382004.0 130338.0 0
388374.0 129910.0 0
393553.0 130285.0 0
402998.0 129265.0 0
398136.0 130719.0 0
412474.0 125928.0 0
408387.0 128558.0 0
412863.0 129870.0 0
417500.0 125972.0 0
417519.0 130488.0 0
422128.0 128720.0 0
428325.0 130736.0 0
433428.0 128830.0 0
437539.0 125949.0 0
443214.0 129173.0 0
447601.0 128481.0 0
451945.0 129717.0 0
457176.0 129908.0 0
466599.0 129982.0 0
475182.0 129962.0 0
481305.0 126335.0 0
486589.0 129594.0 0
496837.0 128945.0 0
6739.51 133413.0 0
11843.7 135230.0 0
16323.6 135308.0 0
23004.4 131357.0 0
20503.1 135319.0 0
27042.5 135767.0 0
32615.3 135600.0 0
38262.4 135375.0 0
44463.5 131204.0 0
42969.3 135761.0 0
47587.9 134628.0 0
52500.0 130971.0 0
56553.8 135912.0 0
62849.7 131026.0 0
62114.4 135884.0 0
67696.8 135541.0 0
73695.7 135855.0 0
77500.0 131097.0 0
81954.6 135469.0 0
86960.4 135500.0 0
92500.0 131106.0 0
92531.5 135857.0 0
97548.3 135255.0 0
107924.0 134666.0 0
112500.0 131042.0 0
116732.0 135727.0 0
112494.0 135940.0 0
117500.0 131124.0 0
120857.0 135577.0 0
122500.0 131047.0 0
125864.0 134958.0 0
132494.0 130940.0 0
137520.0 130955.0 0
140993.0 134554.0 0
146306.0 135672.0 0
156245.0 134151.0 0
169997.0 134477.0 0
176294.0 135330.0 0
182187.0 133553.0 0
188049.0 135807.0 0
194261.0 135532.0 0
199972.0 134974.0 0
208111.0 135627.0 0
204288.0 135970.0 0
213300.0 134346.0 0
217601.0 131141.0 0
222564.0 135182.0 0
226872.0 134553.0 0
237687.0 131433.0 0
237422.0 135859.0 0
243284.0 131259.0 0
248461.0 130962.0 0
246842.0 135031.0 0
252677.0 131432.0 0
257737.0 134737.0 0
262718.0 135388.0 0
267488.0 134643.0 0
273046.0 134734.0 0
279878.0 133958.0 0
282828.0 131309.0 0
287500.0 131021.0 0
291018.0 135186.0 0
296735.0 134809.0 0
302234.0 135946.0 0
307701.0 135333.0 0
312501.0 131215.0 0
317478.0 130959.0 0
318189.0 135449.0 0
322510.0 134460.0 0
327500.0 131001.0 0
332500.0 131073.0 0
336511.0 135072.0 0
341413.0 134007.0 0
346845.0 134586.0 0
351893.0 135759.0 0
356026.0 134312.0 0
361260.0 134672.0 0
366513.0 133747.0 0
371101.0 135619.0 0
377674.0 135134.0 0
384355.0 133675.0 0
392423.0 135108.0 0
397216.0 135067.0 0
402857.0 135506.0 0
409242.0 134203.0 0
419143.0 135177.0 0
424120.0 133538.0 0
432248.0 134453.0 0
437510.0 131017.0 0
437340.0 135194.0 0
442356.0 134410.0 0
448273.0 133553.0 0
454176.0 135122.0 0
462429.0 131395.0 0
463185.0 135933.0 0
470193.0 131162.0 0
472372.0 134484.0 0
477747.0 135435.0 0
480798.0 131610.0 0
492077.0 131844.0 0
491506.0 135905.0 0
496591.0 135514.0 0
2238.62 136610.0 0
2182.12 141024.0 0
8050.27 139253.0 0
13471.7 139856.0 0
17752.1 139153.0 0
22416.9 139693.0 0
32071.3 139888.0 0
37587.9 140580.0 0
43204.5 140824.0 0
49063.5 139419.0 0
51799.9 136392.0 0
53807.2 141092.0 0
59222.6 140591.0 0
63616.7 140215.0 0
72603.0 140731.0 0
78211.2 136295.0 0
77068.8 140215.0 0
82136.1 140490.0 0
87334.1 140674.0 0
97732.3 140608.0 0
102630.0 136402.0 0
107686.0 140165.0 0
113112.0 140270.0 0
118138.0 140204.0 0
123420.0 139565.0 0
127500.0 141121.0 0
131158.0 136656.0 0
136445.0 136609.0 0
137738.0 140523.0 0
142523.0 140673.0 0
151835.0 137270.0 0
148001.0 140280.0 0
156828.0 139547.0 0
161703.0 136102.0 0
160406.0 140914.0 0
166528.0 137920.0 0
170842.0 140506.0 0
182233.0 139031.0 0
191646.0 140930.0 0
197223.0 140259.0 0
203055.0 140114.0 0
217709.0 136075.0 0
214360.0 140017.0 0
222022.0 139440.0 0
227507.0 140103.0 0
232445.0 136074.0 0
234331.0 140454.0 0
237872.0 139183.0 0
241792.0 136512.0 0
241750.0 141114.0 0
246211.0 140216.0 0
251785.0 136323.0 0
255873.0 139453.0 0
260337.0 139123.0 0
266351.0 139325.0 0
271757.0 141003.0 0
278362.0 139461.0 0
283555.0 136242.0 0
284358.0 140981.0 0
287217.0 136311.0 0
288759.0 139465.0 0
298941.0 141110.0 0
313207.0 136458.0 0
316255.0 140164.0 0
312166.0 140984.0 0
321077.0 139690.0 0
326813.0 136343.0 0
329893.0 139886.0 0
331856.0 136060.0 0
339780.0 139398.0 0
346088.0 140841.0 0
357350.0 138270.0 0
361674.0 140660.0 0
366552.0 138439.0 0
382813.0 139191.0 0
387369.0 141049.0 0
388338.0 136864.0 0
399508.0 140677.0 0
408059.0 139552.0 0
404320.0 140702.0 0
414412.0 136757.0 0
416949.0 140559.0 0
427684.0 136574.0 0
425656.0 140201.0 0
431064.0 140645.0 0
437116.0 139388.0 0
441813.0 139996.0 0
446526.0 138552.0 0
450850.0 139052.0 0
458990.0 136170.0 0
455409.0 140893.0 0
461203.0 140585.0 0
467518.0 136044.0 0
466978.0 140370.0 0
472596.0 139444.0 0
478848.0 140934.0 0
482622.0 136306.0 0
487506.0 137407.0 0
492124.0 139761.0 0
1482.5 145702.0 0
7153.49 145561.0 0
11903.5 143595.0 0
17160.6 144332.0 0
23051.9 145077.0 0
26987.7 141691.0 0
30223.5 144428.0 0
34874.4 145221.0 0
39763.6 144643.0 0
48580.5 144643.0 0
57212.8 144983.0 0
63065.8 144990.0 0
68064.9 141214.0 0
73400.2 144789.0 0
78301.2 145364.0 0
83592.6 145431.0 0
88396.9 145492.0 0
92269.3 141187.0 0
92507.6 146030.0 0
97237.1 146023.0 0
101195.0 146087.0 0
102767.0 141859.0 0
105586.0 145681.0 0
111306.0 144854.0 0
116640.0 145462.0 0
122098.0 144755.0 0
126931.0 145165.0 0
131218.0 145865.0 0
132691.0 141485.0 0
136577.0 145073.0 0
147011.0 144557.0 0
153418.0 141924.0 0
157941.0 145483.0 0
164429.0 141623.0 0
167047.0 144497.0 0
163658.0 146109.0 0
177032.0 141898.0 0
182933.0 145951.0 0
186625.0 141442.0 0
193693.0 145015.0 0
189204.0 145848.0 0
198249.0 146147.0 0
203175.0 145215.0 0
208748.0 141973.0 0
212116.0 146225.0 0
218717.0 141322.0 0
216321.0 144633.0 0
221176.0 144971.0 0
231983.0 144954.0 0
237943.0 143919.0 0
242843.0 145768.0 0
248030.0 145294.0 0
251519.0 141582.0 0
252898.0 145610.0 0
257728.0 144635.0 0
262637.0 142698.0 0
267589.0 145277.0 0
278480.0 146115.0 0
283574.0 145568.0 0
288835.0 144785.0 0
292983.0 141180.0 0
293487.0 145777.0 0
303985.0 141341.0 0
302639.0 145646.0 0
307500.0 141165.0 0
307116.0 146006.0 0
311942.0 145724.0 0
316967.0 144600.0 0
325850.0 141275.0 0
322298.0 145284.0 0
330940.0 145401.0 0
327152.0 146145.0 0
334357.0 141881.0 0
341519.0 144890.0 0
337121.0 145779.0 0
352844.0 141334.0 0
357892.0 144847.0 0
367105.0 143346.0 0
362982.0 145635.0 0
371934.0 141252.0 0
377880.0 142585.0 0
383271.0 145205.0 0
388208.0 145230.0 0
393045.0 141778.0 0
403055.0 144678.0 0
408163.0 144402.0 0
412348.0 141223.0 0
414683.0 144869.0 0
417928.0 146120.0 0
421365.0 141811.0 0
427477.0 144653.0 0
431259.0 146074.0 0
436124.0 144372.0 0
441993.0 145656.0 0
448328.0 144064.0 0
454025.0 146052.0 0
459443.0 146195.0 0
464979.0 145475.0 0
473886.0 144661.0 0
481986.0 145888.0 0
484706.0 141446.0 0
489148.0 142171.0 0
486774.0 145782.0 0
496754.0 142157.0 0
2749.49 149740.0 0
12669.9 148100.0 0
18088.0 150102.0 0
23744.9 150835.0 0
28647.8 148474.0 0
33631.5 150777.0 0
39133.4 149484.0 0
43681.6 146479.0 0
43743.5 150689.0 0
48692.1 150613.0 0
53133.8 147092.0 0
59719.0 149995.0 0
64870.6 151094.0 0
68311.8 146389.0 0
68289.0 150581.0 0
72213.2 148668.0 0
76319.8 150260.0 0
81941.1 150852.0 0
87886.3 150561.0 0
96906.5 150596.0 0
92637.0 150958.0 0
101491.0 150725.0 0
106437.0 151017.0 0
111043.0 149703.0 0
115385.0 150178.0 0
120870.0 150779.0 0
127440.0 150430.0 0
133300.0 150318.0 0
142212.0 146366.0 0
138725.0 150805.0 0
143743.0 150973.0 0
151801.0 146490.0 0
148388.0 150576.0 0
152799.0 151080.0 0
157000.0 151180.0 0
161442.0 149957.0 0
166774.0 149849.0 0
171004.0 146514.0 0
176728.0 148189.0 0
186882.0 150849.0 0
192410.0 150356.0 0
202628.0 149790.0 0
207322.0 147354.0 0
210631.0 150753.0 0
216383.0 150528.0 0
222686.0 150616.0 0
226331.0 146740.0 0
236018.0 148902.0 0
250906.0 149760.0 0
256765.0 150842.0 0
262831.0 148277.0 0
268274.0 150634.0 0
272698.0 146888.0 0
282085.0 149499.0 0
287110.0 150871.0 0
293046.0 150197.0 0
297507.0 147155.0 0
301872.0 149573.0 0
316865.0 149725.0 0
322341.0 151204.0 0
328008.0 150756.0 0
333888.0 149631.0 0
346662.0 146806.0 0
342206.0 150870.0 0
351581.0 146986.0 0
355553.0 149112.0 0
352295.0 151263.0 0
360519.0 150378.0 0
366516.0 150485.0 0
370167.0 146793.0 0
374544.0 146810.0 0
378548.0 150160.0 0
383423.0 149343.0 0
387242.0 149702.0 0
392170.0 148025.0 0
397893.0 146613.0 0
400402.0 150911.0 0
405312.0 149919.0 0
411970.0 148988.0 0
417776.0 150860.0 0
422498.0 146672.0 0
427291.0 148907.0 0
432239.0 150662.0 0
437084.0 149703.0 0
441852.0 151262.0 0
447111.0 150229.0 0
452641.0 151242.0 0
462539.0 151153.0 0
466554.0 150156.0 0
469644.0 146326.0 0
471813.0 150891.0 0
477662.0 147732.0 0
482254.0 151245.0 0
487738.0 150630.0 0
492177.0 146338.0 0
497457.0 147892.0 0
3057.47 155539.0 0
7839.1 152080.0 0
13609.1 153947.0 0
28781.6 153817.0 0
38540.8 154669.0 0
43270.2 154946.0 0
49671.1 155506.0 0
54180.0 151796.0 0
58566.0 155863.0 0
63416.2 155041.0 0
67006.9 155503.0 0
71705.7 154004.0 0
77975.6 155588.0 0
88019.2 155594.0 0
93070.3 155577.0 0
97999.7 155066.0 0
105783.0 155453.0 0
110766.0 155056.0 0
116643.0 154957.0 0
126500.0 155689.0 0
122655.0 156249.0 0
131194.0 155014.0 0
139748.0 156356.0 0
145105.0 155566.0 0
150851.0 155626.0 0
162037.0 154620.0 0
167181.0 154946.0 0
172236.0 152298.0 0
177078.0 152514.0 0
176185.0 156239.0 0
181363.0 152562.0 0
185796.0 156133.0 0
191577.0 156235.0 0
197843.0 151855.0 0
202644.0 155228.0 0
206635.0 151965.0 0
207608.0 155988.0 0
212134.0 155134.0 0
228326.0 152285.0 0
233994.0 153441.0 0
240940.0 151337.0 0
243836.0 156381.0 0
246424.0 151888.0 0
248988.0 155993.0 0
252374.0 154037.0 0
262543.0 155440.0 0
268734.0 155603.0 0
272894.0 151784.0 0
273494.0 156331.0 0
277851.0 152124.0 0
282796.0 154877.0 0
293223.0 155530.0 0
297884.0 152511.0 0
302611.0 155420.0 0
306177.0 151487.0 0
308390.0 156402.0 0
311438.0 151452.0 0
313173.0 155995.0 0
317437.0 155477.0 0
325881.0 154746.0 0
329969.0 155918.0 0
337526.0 153055.0 0
347984.0 151560.0 0
351086.0 155731.0 0
356013.0 153708.0 0
360815.0 156254.0 0
366438.0 156230.0 0
372527.0 151751.0 0
383498.0 153790.0 0
390736.0 152659.0 0
396044.0 152436.0 0
403887.0 155955.0 0
409494.0 154585.0 0
414469.0 154839.0 0
417766.0 154995.0 0
422967.0 151541.0 0
420955.0 155352.0 0
427628.0 155416.0 0
433305.0 155028.0 0
437890.0 154682.0 0
442652.0 156155.0 0
448517.0 156114.0 0
453997.0 156108.0 0
458109.0 151558.0 0
462991.0 156309.0 0
467794.0 155136.0 0
476954.0 152452.0 0
479979.0 156357.0 0
484308.0 156209.0 0
488546.0 155757.0 0
492470.0 152192.0 0
492633.0 156346.0 0
497459.0 152976.0 0
2142.5 161441.0 0
8751.8 157964.0 0
18379.3 157683.0 0
23879.6 156537.0 0
22343.3 161022.0 0
27490.7 161466.0 0
33719.1 156482.0 0
32328.7 160732.0 0
37270.2 161281.0 0
46373.1 159308.0 0
53686.4 156541.0 0
63644.0 160211.0 0
68687.7 158786.0 0
79819.7 161067.0 0
83400.3 156934.0 0
90126.0 160075.0 0
98601.7 159241.0 0
102078.0 156717.0 0
105636.0 159963.0 0
111336.0 161393.0 0
118205.0 160527.0 0
123813.0 160777.0 0
128387.0 159106.0 0
135220.0 156839.0 0
133268.0 161182.0 0
137791.0 160296.0 0
141902.0 161149.0 0
147422.0 160877.0 0
152993.0 160833.0 0
156885.0 156538.0 0
161787.0 160188.0 0
167145.0 159917.0 0
171462.0 157623.0 0
176882.0 161233.0 0
180974.0 158164.0 0
186888.0 161160.0 0
197331.0 157385.0 0
201628.0 160701.0 0
207155.0 160956.0 0
212990.0 160646.0 0
217212.0 156915.0 0
223347.0 156585.0 0
228978.0 158280.0 0
233410.0 157907.0 0
238460.0 157100.0 0
242100.0 160630.0 0
246557.0 160357.0 0
251471.0 159955.0 0
255539.0 156943.0 0
262741.0 161513.0 0
268253.0 161220.0 0
274071.0 161292.0 0
278387.0 157513.0 0
284551.0 160913.0 0
287974.0 156862.0 0
293310.0 159895.0 0
297717.0 157788.0 0
302308.0 161110.0 0
312021.0 160167.0 0
316759.0 160072.0 0
322199.0 156779.0 0
326426.0 160363.0 0
335033.0 156464.0 0
331732.0 160870.0 0
340300.0 156872.0 0
345921.0 157598.0 0
351165.0 160907.0 0
356393.0 159274.0 0
366975.0 161101.0 0
371144.0 156687.0 0
371657.0 161169.0 0
377227.0 157414.0 0
382202.0 161339.0 0
387809.0 156966.0 0
392750.0 156990.0 0
391452.0 161498.0 0
398357.0 157951.0 0
411607.0 160108.0 0
416993.0 158721.0 0
422630.0 160349.0 0
428259.0 161500.0 0
432998.0 159671.0 0
438723.0 160328.0 0
444697.0 161037.0 0
458540.0 156528.0 0
455669.0 160502.0 0
461372.0 161397.0 0
468720.0 160361.0 0
472983.0 156637.0 0
477805.0 160870.0 0
482449.0 161037.0 0
486595.0 159914.0 0
490651.0 160362.0 0
497770.0 157736.0 0
2239.97 166013.0 0
7229.67 164042.0 0
13671.4 161590.0 0
18603.1 162625.0 0
23274.3 165875.0 0
32590.3 164206.0 0
42439.1 162601.0 0
47006.0 165789.0 0
51407.7 161696.0 0
52812.1 166437.0 0
57399.2 161992.0 0
62194.8 165605.0 0
67962.9 165671.0 0
73556.4 161854.0 0
78090.1 165663.0 0
85123.2 161857.0 0
82804.3 166575.0 0
88773.5 166395.0 0
95036.6 161933.0 0
101292.0 162597.0 0
97843.9 165299.0 0
105727.0 165456.0 0
115522.0 166407.0 0
121623.0 165609.0 0
128113.0 165145.0 0
137500.0 164238.0 0
133715.0 166017.0 0
142031.0 166417.0 0
157246.0 162450.0 0
153547.0 165653.0 0
157984.0 166629.0 0
163104.0 166026.0 0
170762.0 161654.0 0
173356.0 164901.0 0
168440.0 165187.0 0
177762.0 165675.0 0
182322.0 162984.0 0
186463.0 166427.0 0
191538.0 161540.0 0
191579.0 166051.0 0
196350.0 162832.0 0
201125.0 166293.0 0
212099.0 165579.0 0
219802.0 162003.0 0
224911.0 161906.0 0
228653.0 162374.0 0
226069.0 166434.0 0
232793.0 161688.0 0
231021.0 165722.0 0
236991.0 162341.0 0
241284.0 165539.0 0
246730.0 165294.0 0
252429.0 165466.0 0
257766.0 162210.0 0
274593.0 166273.0 0
279359.0 163036.0 0
284010.0 165374.0 0
289719.0 161794.0 0
292657.0 165217.0 0
296532.0 162710.0 0
303658.0 166065.0 0
307427.0 161667.0 0
307809.0 165988.0 0
312330.0 165395.0 0
321330.0 161912.0 0
317606.0 165106.0 0
328007.0 165028.0 0
332710.0 165983.0 0
337285.0 162170.0 0
342892.0 162204.0 0
346831.0 162165.0 0
345481.0 165880.0 0
341918.0 166132.0 0
349521.0 165099.0 0
355331.0 165475.0 0
361679.0 162359.0 0
366489.0 165821.0 0
373422.0 166320.0 0
378337.0 164020.0 0
386895.0 161690.0 0
392583.0 165868.0 0
388074.0 166095.0 0
395529.0 162250.0 0
397116.0 166108.0 0
400531.0 163060.0 0
405865.0 161728.0 0
408060.0 166485.0 0
412516.0 165353.0 0
417170.0 163848.0 0
421022.0 165897.0 0
425373.0 165534.0 0
431956.0 165317.0 0
437685.0 166568.0 0
443670.0 166619.0 0
450508.0 162792.0 0
454497.0 165749.0 0
463933.0 166512.0 0
465832.0 163040.0 0
469295.0 165844.0 0
473166.0 162208.0 0
479087.0 165757.0 0
486591.0 164118.0 0
491389.0 166186.0 0
495005.0 161718.0 0
497411.0 166335.0 0
2127.17 170381.0 0
6959.55 169925.0 0
12439.8 167653.0 0
18048.5 167081.0 0
16008.1 171087.0 0
20036.8 171365.0 0
24884.4 171127.0 0
29080.7 167439.0 0
35953.6 167096.0 0
40993.3 166820.0 0
43317.1 171244.0 0
53578.5 170965.0 0
57602.2 168153.0 0
62542.2 170838.0 0
67219.3 170923.0 0
73650.7 168560.0 0
79096.9 171183.0 0
84540.7 171174.0 0
88604.6 171431.0 0
93971.9 166776.0 0
92508.1 170881.0 0
101251.0 166882.0 0
97466.6 169690.0 0
102445.0 171308.0 0
110243.0 166831.0 0
107193.0 170208.0 0
111837.0 170994.0 0
123248.0 170840.0 0
127767.0 170533.0 0
132820.0 171087.0 0
138523.0 170343.0 0
143145.0 171246.0 0
148122.0 167459.0 0
151877.0 171245.0 0
156564.0 171462.0 0
161568.0 170960.0 0
166876.0 170063.0 0
173249.0 171122.0 0
181596.0 167556.0 0
178607.0 171271.0 0
189458.0 171276.0 0
195893.0 168583.0 0
199741.0 171308.0 0
207148.0 167018.0 0
212779.0 170236.0 0
216814.0 166790.0 0
219058.0 171539.0 0
221591.0 167609.0 0
223358.0 171107.0 0
227641.0 171136.0 0
232480.0 170434.0 0
235877.0 166979.0 0
237730.0 171438.0 0
246697.0 170131.0 0
251870.0 171717.0 0
257588.0 167456.0 0
263722.0 167017.0 0
269615.0 166883.0 0
267691.0 171072.0 0
271759.0 170637.0 0
279914.0 168380.0 0
276113.0 171103.0 0
284283.0 169787.0 0
288598.0 166809.0 0
293598.0 169759.0 0
298740.0 167418.0 0
302639.0 171005.0 0
306700.0 169860.0 0
311690.0 171088.0 0
316843.0 169938.0 0
323361.0 166901.0 0
324883.0 170793.0 0
328697.0 169739.0 0
334155.0 171606.0 0
337431.0 167483.0 0
339612.0 171388.0 0
344145.0 170096.0 0
350102.0 170755.0 0
360667.0 167547.0 0
369398.0 170610.0 0
374925.0 171638.0 0
378300.0 168517.0 0
383175.0 166983.0 0
388072.0 170594.0 0
393148.0 170940.0 0
397924.0 170287.0 0
401989.0 171533.0 0
403356.0 167207.0 0
406597.0 171109.0 0
412748.0 171249.0 0
418442.0 169279.0 0
423547.0 170695.0 0
428718.0 169339.0 0
445499.0 171338.0 0
450715.0 169224.0 0
458796.0 166688.0 0
456146.0 170833.0 0
463205.0 170556.0 0
460062.0 171292.0 0
467453.0 171109.0 0
474374.0 166745.0 0
472541.0 171044.0 0
477866.0 171086.0 0
483696.0 167438.0 0
482744.0 171686.0 0
487589.0 170682.0 0
492465.0 171375.0 0
497811.0 171096.0 0
3067.45 175490.0 0
8552.56 174425.0 0
12579.0 173061.0 0
16418.9 175259.0 0
21310.2 176268.0 0
27463.7 176482.0 0
32221.0 171803.0 0
32650.7 175616.0 0
37672.0 172699.0 0
42301.7 176395.0 0
48685.4 171786.0 0
53255.7 175921.0 0
57457.3 173063.0 0
62499.3 175260.0 0
71132.4 173328.0 0
66930.2 175360.0 0
76177.2 176374.0 0
82349.9 174779.0 0
86391.7 175114.0 0
91252.7 175962.0 0
96600.8 174812.0 0
101325.0 175970.0 0
106449.0 175376.0 0
112396.0 176506.0 0
117995.0 171914.0 0
123221.0 176092.0 0
128380.0 175035.0 0
133236.0 176571.0 0
138695.0 176074.0 0
143898.0 175287.0 0
147994.0 173434.0 0
152640.0 175678.0 0
158021.0 175940.0 0
162828.0 175093.0 0
168108.0 175515.0 0
172596.0 176800.0 0
177247.0 176557.0 0
183534.0 172207.0 0
187087.0 176162.0 0
192266.0 176430.0 0
193908.0 172406.0 0
197935.0 176029.0 0
203874.0 171890.0 0
202909.0 175872.0 0
208360.0 172157.0 0
212052.0 175180.0 0
217206.0 176608.0 0
222465.0 175330.0 0
227445.0 176679.0 0
232442.0 175141.0 0
237068.0 175751.0 0
242292.0 171864.0 0
241374.0 176334.0 0
246108.0 175147.0 0
254525.0 176190.0 0
250347.0 176728.0 0
257453.0 171754.0 0
258825.0 176820.0 0
262304.0 173244.0 0
267464.0 176407.0 0
272515.0 174525.0 0
277255.0 176384.0 0
283197.0 175179.0 0
288577.0 172048.0 0
288216.0 176603.0 0
292767.0 175364.0 0
298813.0 172179.0 0
297377.0 176129.0 0
302099.0 176140.0 0
306888.0 174587.0 0
316043.0 174833.0 0
311367.0 176599.0 0
321344.0 171831.0 0
320407.0 176249.0 0
326140.0 175580.0 0
338274.0 176653.0 0
343318.0 175041.0 0
348158.0 176238.0 0
356714.0 172320.0 0
353181.0 176791.0 0
363254.0 172211.0 0
372381.0 175780.0 0
367630.0 176172.0 0
379745.0 172487.0 0
382008.0 175666.0 0
384038.0 172606.0 0
387372.0 175218.0 0
391833.0 175654.0 0
396411.0 174871.0 0
401426.0 176435.0 0
406575.0 175972.0 0
417743.0 175203.0 0
428007.0 175547.0 0
433883.0 171802.0 0
440196.0 172733.0 0
448656.0 173884.0 0
444887.0 176489.0 0
453284.0 175608.0 0
458568.0 174715.0 0
463268.0 174749.0 0
468255.0 176166.0 0
473568.0 176227.0 0
478469.0 175998.0 0
481961.0 176519.0 0
485377.0 175146.0 0
490341.0 175262.0 0
495334.0 175352.0 0
2830.04 181395.0 0
7504.17 178845.0 0
12198.1 177608.0 0
12522.2 181247.0 0
17162.7 180799.0 0
23587.5 181702.0 0
28515.3 181570.0 0
32913.6 179724.0 0
37792.6 178065.0 0
44153.9 181754.0 0
47950.1 177295.0 0
51665.0 180410.0 0
58928.2 176954.0 0
56221.4 180501.0 0
61494.2 180933.0 0
71360.4 177508.0 0
67361.0 180861.0 0
73113.3 181877.0 0
80897.5 179040.0 0
86724.4 180739.0 0
92877.8 181947.0 0
98369.3 180183.0 0
103677.0 180126.0 0
108522.0 180772.0 0
113658.0 181888.0 0
118078.0 177340.0 0
123559.0 181126.0 0
128427.0 180210.0 0
133082.0 181092.0 0
137597.0 181451.0 0
146818.0 177672.0 0
143072.0 179412.0 0
146707.0 181718.0 0
150635.0 179614.0 0
155608.0 179695.0 0
161150.0 179976.0 0
167133.0 181592.0 0
172930.0 181088.0 0
182427.0 177163.0 0
183651.0 181930.0 0
189253.0 180902.0 0
194196.0 180951.0 0
203778.0 180090.0 0
199079.0 181678.0 0
207315.0 176858.0 0
208282.0 181900.0 0
213126.0 180438.0 0
217850.0 181913.0 0
222500.0 181081.0 0
227501.0 181256.0 0
231374.0 179277.0 0
235345.0 179798.0 0
241013.0 180725.0 0
246230.0 180996.0 0
252671.0 181475.0 0
257745.0 180606.0 0
262637.0 179742.0 0
268645.0 181125.0 0
272483.0 179177.0 0
276644.0 181433.0 0
282616.0 180958.0 0
287956.0 181015.0 0
293356.0 180842.0 0
298040.0 179996.0 0
306758.0 179461.0 0
311377.0 181821.0 0
317144.0 180523.0 0
322860.0 180787.0 0
326681.0 180529.0 0
332574.0 177659.0 0
340792.0 181350.0 0
345206.0 179440.0 0
349873.0 180858.0 0
358609.0 177838.0 0
363216.0 177702.0 0
367144.0 181567.0 0
377383.0 177140.0 0
372561.0 180694.0 0
382876.0 180322.0 0
389044.0 180189.0 0
397273.0 180049.0 0
407527.0 180681.0 0
411925.0 177609.0 0
417010.0 180903.0 0
422243.0 178131.0 0
426096.0 181654.0 0
432017.0 180938.0 0
435855.0 177074.0 0
440095.0 177682.0 0
443156.0 181510.0 0
448961.0 176999.0 0
447792.0 180677.0 0
452660.0 181517.0 0
457755.0 179565.0 0
463136.0 179921.0 0
468199.0 181307.0 0
473087.0 181383.0 0
478101.0 180836.0 0
482744.0 181147.0 0
487710.0 180054.0 0
493261.0 180085.0 0
497792.0 179642.0 0
2517.61 186738.0 0
9655.47 182699.0 0
7268.94 186143.0 0
12115.3 186475.0 0
28807.5 186078.0 0
32720.7 184421.0 0
37936.5 183730.0 0
48946.6 183444.0 0
52882.6 186105.0 0
58208.8 185277.0 0
64168.1 186537.0 0
71363.6 185422.0 0
78023.3 182882.0 0
81048.4 187046.0 0
96750.9 186004.0 0
92020.1 186529.0 0
101923.0 184479.0 0
107424.0 186866.0 0
113364.0 186883.0 0
118712.0 182642.0 0
123399.0 186192.0 0
128618.0 185375.0 0
133599.0 185621.0 0
141642.0 183983.0 0
145475.0 186580.0 0
150727.0 185325.0 0
156815.0 184921.0 0
162658.0 186043.0 0
170994.0 185954.0 0
178055.0 182067.0 0
183158.0 185882.0 0
179616.0 186753.0 0
187239.0 185983.0 0
192616.0 185558.0 0
202934.0 185100.0 0
210963.0 186007.0 0
215631.0 186229.0 0
221236.0 186306.0 0
227182.0 186616.0 0
231615.0 183464.0 0
237592.0 185492.0 0
243852.0 186198.0 0
248906.0 185967.0 0
257368.0 183945.0 0
260306.0 185984.0 0
265515.0 184911.0 0
272405.0 185481.0 0
279499.0 186200.0 0
285572.0 185089.0 0
290280.0 184954.0 0
297349.0 185195.0 0
302178.0 182055.0 0
306878.0 184936.0 0
318329.0 186342.0 0
323489.0 185735.0 0
331450.0 182071.0 0
328120.0 184031.0 0
335629.0 182556.0 0
332372.0 186526.0 0
340950.0 185929.0 0
345696.0 184731.0 0
350921.0 186844.0 0
355446.0 183026.0 0
361541.0 182416.0 0
364352.0 186912.0 0
368943.0 186230.0 0
373329.0 185563.0 0
377580.0 182875.0 0
381328.0 186147.0 0
386961.0 186331.0 0
393439.0 182342.0 0
402361.0 182073.0 0
398525.0 185627.0 0
402911.0 187013.0 0
407772.0 186081.0 0
411986.0 182915.0 0
415877.0 186713.0 0
421587.0 182754.0 0
424599.0 185690.0 0
428964.0 186225.0 0
437803.0 182027.0 0
434132.0 185916.0 0
442786.0 185871.0 0
447717.0 185941.0 0
453044.0 186539.0 0
458330.0 185370.0 0
463622.0 184740.0 0
468162.0 186633.0 0
473599.0 185795.0 0
478150.0 185995.0 0
482809.0 185346.0 0
487497.0 185634.0 0
492502.0 185036.0 0
497556.0 184290.0 0
2475.47 191732.0 0
7677.59 191164.0 0
12005.1 190676.0 0
17590.8 187073.0 0
15772.6 192108.0 0
23414.5 187760.0 0
26808.0 192145.0 0
34064.0 189809.0 0
39401.4 188698.0 0
43273.0 187185.0 0
44703.6 191651.0 0
47708.0 187264.0 0
48757.8 190975.0 0
53063.4 191279.0 0
59513.4 190369.0 0
63885.0 191674.0 0
69256.8 187482.0 0
67605.8 190932.0 0
75109.7 187251.0 0
71691.4 190873.0 0
78266.1 190757.0 0
82472.6 192036.0 0
87053.4 187400.0 0
91999.9 191169.0 0
97000.6 191119.0 0
102128.0 190370.0 0
111124.0 191178.0 0
118426.0 187903.0 0
126570.0 190897.0 0
132454.0 190595.0 0
137140.0 191730.0 0
137996.0 187259.0 0
142292.0 190861.0 0
147729.0 190330.0 0
152626.0 190981.0 0
157521.0 190004.0 0
162025.0 191613.0 0
167210.0 190044.0 0
172467.0 191102.0 0
175347.0 187680.0 0
178178.0 192013.0 0
183467.0 189805.0 0
190429.0 190575.0 0
197964.0 187318.0 0
195415.0 192020.0 0
203350.0 190455.0 0
206813.0 187455.0 0
208217.0 191439.0 0
212601.0 190508.0 0
217694.0 190916.0 0
223418.0 191154.0 0
227701.0 191612.0 0
232739.0 190843.0 0
237925.0 191509.0 0
242253.0 190390.0 0
246581.0 190283.0 0
254149.0 187603.0 0
251463.0 192068.0 0
257657.0 191879.0 0
262654.0 190109.0 0
268086.0 190168.0 0
284057.0 189346.0 0
289115.0 190053.0 0
293631.0 188328.0 0
298808.0 190945.0 0
302306.0 187162.0 0
302792.0 190632.0 0
307474.0 190494.0 0
312363.0 187873.0 0
316382.0 191255.0 0
321289.0 191363.0 0
327596.0 189906.0 0
333604.0 191508.0 0
337056.0 187140.0 0
340751.0 190061.0 0
346462.0 191285.0 0
352479.0 191664.0 0
359290.0 187222.0 0
362684.0 190777.0 0
367601.0 191503.0 0
377201.0 187960.0 0
373234.0 190688.0 0
383126.0 191560.0 0
393350.0 187196.0 0
397597.0 190044.0 0
401994.0 191631.0 0
407553.0 191883.0 0
417739.0 190873.0 0
413355.0 191908.0 0
421176.0 188013.0 0
426077.0 191599.0 0
432063.0 190699.0 0
438736.0 187211.0 0
436730.0 191054.0 0
442764.0 190893.0 0
453408.0 190710.0 0
458508.0 191900.0 0
463597.0 189281.0 0
467770.0 191949.0 0
471814.0 189493.0 0
476448.0 191026.0 0
481098.0 189335.0 0
485656.0 190298.0 0
490708.0 191333.0 0
495999.0 189568.0 0
3210.16 196860.0 0
8256.9 196263.0 0
12762.3 195899.0 0
17405.7 196868.0 0
20838.9 192806.0 0
26228.2 196929.0 0
30950.6 195432.0 0
40052.4 192942.0 0
35930.4 195547.0 0
43628.7 195637.0 0
47754.0 195007.0 0
51807.6 195337.0 0
56828.2 195557.0 0
62577.8 195687.0 0
67169.2 196111.0 0
72519.1 196060.0 0
77990.4 194854.0 0
82527.6 196461.0 0
86295.1 197057.0 0
87141.4 192990.0 0
90160.1 196304.0 0
95222.4 196141.0 0
101125.0 196039.0 0
106970.0 192745.0 0
111796.0 196040.0 0
115819.0 192546.0 0
121102.0 192548.0 0
118332.0 197217.0 0
123280.0 196975.0 0
127624.0 196017.0 0
132214.0 195911.0 0
137231.0 196328.0 0
146467.0 195325.0 0
156133.0 194948.0 0
169286.0 196427.0 0
181607.0 196823.0 0
186111.0 194206.0 0
190991.0 195879.0 0
195752.0 196694.0 0
199784.0 192637.0 0
204959.0 194976.0 0
208468.0 197216.0 0
211624.0 195077.0 0
216510.0 196238.0 0
221710.0 195559.0 0
226701.0 196103.0 0
231961.0 195113.0 0
236071.0 196393.0 0
241442.0 194884.0 0
246769.0 195395.0 0
251423.0 196319.0 0
256147.0 196987.0 0
261547.0 195450.0 0
266313.0 194606.0 0
273562.0 192186.0 0
270637.0 197066.0 0
279479.0 192394.0 0
276599.0 197141.0 0
284958.0 194484.0 0
290181.0 194919.0 0
293856.0 192548.0 0
293751.0 197166.0 0
297268.0 195367.0 0
302705.0 193791.0 0
307442.0 194428.0 0
310134.0 197002.0 0
312808.0 193691.0 0
316962.0 195407.0 0
326196.0 195289.0 0
331850.0 196491.0 0
336692.0 197021.0 0
337887.0 193011.0 0
341781.0 195938.0 0
346624.0 197156.0 0
350387.0 195595.0 0
354413.0 196870.0 0
358046.0 192804.0 0
363423.0 196118.0 0
368530.0 196725.0 0
372655.0 195379.0 0
377756.0 192693.0 0
381264.0 196071.0 0
385751.0 196678.0 0
388875.0 192211.0 0
391602.0 197227.0 0
393912.0 192474.0 0
397806.0 196127.0 0
403437.0 196606.0 0
408194.0 196999.0 0
412656.0 197072.0 0
417328.0 195571.0 0
420742.0 192156.0 0
422294.0 195903.0 0
433143.0 196633.0 0
438897.0 195113.0 0
448811.0 193040.0 0
443937.0 196483.0 0
453763.0 195668.0 0
463036.0 196360.0 0
468111.0 196721.0 0
472248.0 194542.0 0
476529.0 196060.0 0
481589.0 194604.0 0
487404.0 195210.0 0
497268.0 195219.0 0
2743.23 202289.0 0
8043.09 201286.0 0
14922.8 201102.0 0
19910.7 201679.0 0
22005.7 197403.0 0
25330.3 201772.0 0
32698.8 202227.0 0
40006.9 198671.0 0
47201.2 200282.0 0
52668.9 199532.0 0
57753.2 201799.0 0
63750.9 201047.0 0
69578.8 201403.0 0
74694.2 201940.0 0
78841.1 199609.0 0
82761.3 201231.0 0
87411.6 201490.0 0
93077.4 201564.0 0
98832.1 201399.0 0
106555.0 197767.0 0
103893.0 201951.0 0
107222.0 201773.0 0
111638.0 201912.0 0
120396.0 201944.0 0
124183.0 201244.0 0
128407.0 200641.0 0
132873.0 200246.0 0
136854.0 201019.0 0
141707.0 197602.0 0
141100.0 201785.0 0
146522.0 201292.0 0
151573.0 197788.0 0
156635.0 201386.0 0
161835.0 197914.0 0
172255.0 201412.0 0
175977.0 197788.0 0
179233.0 201402.0 0
184127.0 202027.0 0
189313.0 200394.0 0
193667.0 201295.0 0
197502.0 200883.0 0
200536.0 197819.0 0
202964.0 201666.0 0
206280.0 199539.0 0
212263.0 200911.0 0
216813.0 200768.0 0
220981.0 200393.0 0
225746.0 201075.0 0
230986.0 199506.0 0
235665.0 201316.0 0
240548.0 200130.0 0
248383.0 200174.0 0
252563.0 199962.0 0
259976.0 200044.0 0
256062.0 201988.0 0
265488.0 199855.0 0
272927.0 200533.0 0
275664.0 201120.0 0
281962.0 199997.0 0
288339.0 199676.0 0
293479.0 201839.0 0
298770.0 199764.0 0
304642.0 198495.0 0
309153.0 200666.0 0
313929.0 198462.0 0
317701.0 200374.0 0
321557.0 197338.0 0
327806.0 199799.0 0
332500.0 201146.0 0
336869.0 201632.0 0
342207.0 201512.0 0
351678.0 200411.0 0
347215.0 201527.0 0
357650.0 200411.0 0
368505.0 200987.0 0
376989.0 197841.0 0
373400.0 202204.0 0
382577.0 200100.0 0
379101.0 202247.0 0
387080.0 202277.0 0
395893.0 200857.0 0
400749.0 201320.0 0
405935.0 200944.0 0
411228.0 202247.0 0
416962.0 201403.0 0
422188.0 200804.0 0
427069.0 198291.0 0
431392.0 202330.0 0
437982.0 200537.0 0
448492.0 198887.0 0
453590.0 200895.0 0
457907.0 197813.0 0
458353.0 202010.0 0
462241.0 201351.0 0
467268.0 201727.0 0
472251.0 199687.0 0
478244.0 200823.0 0
483446.0 199727.0 0
487730.0 199881.0 0
492245.0 197741.0 0
497113.0 200820.0 0
2122.08 207115.0 0
6629.96 206220.0 0
11765.6 203766.0 0
10875.0 207419.0 0
16445.4 206346.0 0
22134.4 206478.0 0
26806.6 206347.0 0
42536.2 203641.0 0
47182.2 205413.0 0
52162.2 204959.0 0
62695.9 206426.0 0
67631.1 206746.0 0
72733.9 206486.0 0
77869.6 205861.0 0
83358.2 205945.0 0
88733.5 206450.0 0
93487.5 206423.0 0
97430.4 206034.0 0
102461.0 207161.0 0
107419.0 205024.0 0
116412.0 204602.0 0
125858.0 205567.0 0
131746.0 204970.0 0
137378.0 205898.0 0
143319.0 206684.0 0
151900.0 203179.0 0
148470.0 206243.0 0
157302.0 206385.0 0
160659.0 203455.0 0
163244.0 205813.0 0
166704.0 202695.0 0
170863.0 204847.0 0
175911.0 205420.0 0
181671.0 207236.0 0
189132.0 205641.0 0
194263.0 206041.0 0
199453.0 205234.0 0
203612.0 207252.0 0
207410.0 204326.0 0
216144.0 206292.0 0
221748.0 204640.0 0
226487.0 206348.0 0
232441.0 205492.0 0
238429.0 205247.0 0
244739.0 204456.0 0
251360.0 204953.0 0
256822.0 206515.0 0
261843.0 204628.0 0
270071.0 203882.0 0
274195.0 206619.0 0
278049.0 204158.0 0
283485.0 206314.0 0
289030.0 205002.0 0
293266.0 207349.0 0
297213.0 204646.0 0
303003.0 204971.0 0
308803.0 205878.0 0
312953.0 203204.0 0
318356.0 205652.0 0
323364.0 202526.0 0
328790.0 205023.0 0
334064.0 206770.0 0
339590.0 206177.0 0
344930.0 205977.0 0
349986.0 205513.0 0
354427.0 204028.0 0
358648.0 207132.0 0
363234.0 202472.0 0
368160.0 205704.0 0
372315.0 206935.0 0
376963.0 206782.0 0
382472.0 205743.0 0
387497.0 206758.0 0
392324.0 203412.0 0
396150.0 206232.0 0
401229.0 206788.0 0
406694.0 206106.0 0
411220.0 207119.0 0
415491.0 206441.0 0
421158.0 206390.0 0
426356.0 203847.0 0
428519.0 207356.0 0
430957.0 206760.0 0
435836.0 206558.0 0
443846.0 202363.0 0
446665.0 206727.0 0
449069.0 203237.0 0
456078.0 205679.0 0
461500.0 206401.0 0
466932.0 207134.0 0
472915.0 204886.0 0
478057.0 206293.0 0
482525.0 204190.0 0
487864.0 205011.0 0
492457.0 202730.0 0
493645.0 206631.0 0
498089.0 205502.0 0
2813.78 211907.0 0
8166.25 211164.0 0
12895.6 210528.0 0
16333.2 211177.0 0
20385.6 211056.0 0
25270.0 212285.0 0
31181.7 210027.0 0
38044.4 207670.0 0
44043.8 208158.0 0
41793.2 212021.0 0
47444.5 212140.0 0
53100.2 211451.0 0
57345.7 207896.0 0
63565.1 211579.0 0
68267.5 211143.0 0
72453.2 211335.0 0
77185.1 210974.0 0
86321.6 210069.0 0
82034.4 211053.0 0
91303.5 210988.0 0
96817.2 210435.0 0
111801.0 208277.0 0
116464.0 211011.0 0
120437.0 207806.0 0
121274.0 212542.0 0
126005.0 211727.0 0
132123.0 211354.0 0
137820.0 211538.0 0
142841.0 212073.0 0
147533.0 210795.0 0
152880.0 207709.0 0
152630.0 212352.0 0
157562.0 211374.0 0
162714.0 210315.0 0
168106.0 208109.0 0
172608.0 210609.0 0
177855.0 210714.0 0
182307.0 212332.0 0
186377.0 209977.0 0
192087.0 210514.0 0
196626.0 211203.0 0
201116.0 210712.0 0
206772.0 210517.0 0
210864.0 208001.0 0
212749.0 211122.0 0
217645.0 212206.0 0
221801.0 209302.0 0
226803.0 211454.0 0
231551.0 211121.0 0
236394.0 210156.0 0
241211.0 209716.0 0
245777.0 209804.0 0
250435.0 210845.0 0
255182.0 210695.0 0
260753.0 210805.0 0
266230.0 207974.0 0
271143.0 210281.0 0
278161.0 209877.0 0
288461.0 210296.0 0
293481.0 212249.0 0
298389.0 209855.0 0
303457.0 210523.0 0
308189.0 210886.0 0
314351.0 210993.0 0
319267.0 210598.0 0
324039.0 207976.0 0
328967.0 210586.0 0
333146.0 210981.0 0
336742.0 210931.0 0
342589.0 211340.0 0
347879.0 210489.0 0
353209.0 210195.0 0
363896.0 208065.0 0
367790.0 211353.0 0
373563.0 211568.0 0
382649.0 210995.0 0
378333.0 211289.0 0
387500.0 211295.0 0
392129.0 207519.0 0
390842.0 211097.0 0
394211.0 210688.0 0
397991.0 210691.0 0
405861.0 212137.0 0
412257.0 211752.0 0
417886.0 211258.0 0
423012.0 211655.0 0
427878.0 211248.0 0
432791.0 211715.0 0
437677.0 212203.0 0
442046.0 208303.0 0
447086.0 210984.0 0
451288.0 207953.0 0
456329.0 210627.0 0
461271.0 212056.0 0
466168.0 211717.0 0
470975.0 209878.0 0
476162.0 211319.0 0
482655.0 210192.0 0
488907.0 210576.0 0
497008.0 210284.0 0
2318.27 216348.0 0
7488.63 216010.0 0
11900.1 214495.0 0
17722.0 215419.0 0
22192.8 216013.0 0
25714.5 216811.0 0
33500.8 215611.0 0
37229.1 213012.0 0
41261.7 217249.0 0
46267.5 217370.0 0
51634.8 216796.0 0
58687.4 213186.0 0
56871.7 217447.0 0
62241.4 217035.0 0
67516.1 215859.0 0
72506.8 215946.0 0
81267.3 216175.0 0
76625.4 217009.0 0
87015.1 215090.0 0
92309.2 216256.0 0
101397.0 213053.0 0
97255.8 216278.0 0
107501.0 213252.0 0
111799.0 217080.0 0
113002.0 213104.0 0
117642.0 216552.0 0
123435.0 216278.0 0
128783.0 216782.0 0
134059.0 216394.0 0
137961.0 216126.0 0
142163.0 216074.0 0
147506.0 216595.0 0
152872.0 217285.0 0
158961.0 215761.0 0
162909.0 215688.0 0
167295.0 213138.0 0
171992.0 215047.0 0
177731.0 216251.0 0
183255.0 217012.0 0
188245.0 214953.0 0
193901.0 215809.0 0
199058.0 215529.0 0
204161.0 215965.0 0
214029.0 214480.0 0
209495.0 215586.0 0
217439.0 216589.0 0
222152.0 214794.0 0
226340.0 215316.0 0
230558.0 216646.0 0
235734.0 214898.0 0
240057.0 213088.0 0
243730.0 214002.0 0
240025.0 217052.0 0
250368.0 216238.0 0
256479.0 216122.0 0
262640.0 216432.0 0
266796.0 213494.0 0
272520.0 215922.0 0
278324.0 215691.0 0
283288.0 213148.0 0
289984.0 215792.0 0
294954.0 216696.0 0
299381.0 215210.0 0
303663.0 214521.0 0
307820.0 216044.0 0
313033.0 217184.0 0
317918.0 215401.0 0
322909.0 213724.0 0
327983.0 215622.0 0
333191.0 215266.0 0
338993.0 216630.0 0
344318.0 216622.0 0
346989.0 214044.0 0
351178.0 216296.0 0
357772.0 212814.0 0
358165.0 217195.0 0
362513.0 212878.0 0
367647.0 216717.0 0
372885.0 217199.0 0
377591.0 215967.0 0
387666.0 215753.0 0
383033.0 216160.0 0
390580.0 216638.0 0
394661.0 215307.0 0
400641.0 215076.0 0
409728.0 217599.0 0
416362.0 217039.0 0
422813.0 217313.0 0
428624.0 216078.0 0
433383.0 216535.0 0
438577.0 217456.0 0
441769.0 212971.0 0
448819.0 215845.0 0
444220.0 216768.0 0
452129.0 213115.0 0
452095.0 217105.0 0
457220.0 216888.0 0
462827.0 216534.0 0
470795.0 215067.0 0
482885.0 216933.0 0
488671.0 216095.0 0
492847.0 213426.0 0
492896.0 217148.0 0
497140.0 216147.0 0
2878.12 220181.0 0
7660.86 220471.0 0
13295.4 218894.0 0
17518.7 220312.0 0
21983.7 220299.0 0
29625.6 218599.0 0
25926.8 220705.0 0
33841.2 221467.0 0
36830.0 218033.0 0
38550.8 221500.0 0
43314.4 222310.0 0
47500.0 221108.0 0
51974.5 222442.0 0
58908.9 222001.0 0
64496.1 222227.0 0
69006.1 220955.0 0
73876.3 220416.0 0
77216.0 220834.0 0
80691.1 221277.0 0
86321.1 221398.0 0
92811.7 221263.0 0
98243.1 221538.0 0
102435.0 218202.0 0
106772.0 218396.0 0
103094.0 222167.0 0
109026.0 221576.0 0
113210.0 221192.0 0
122442.0 221062.0 0
117544.0 222262.0 0
126563.0 221674.0 0
131864.0 221131.0 0
136845.0 220673.0 0
144008.0 221362.0 0
150414.0 221157.0 0
157086.0 220981.0 0
162991.0 220074.0 0
167203.0 217777.0 0
167633.0 222441.0 0
173050.0 220680.0 0
183031.0 221623.0 0
178839.0 222317.0 0
186682.0 220331.0 0
191844.0 220687.0 0
196806.0 219880.0 0
201799.0 220977.0 0
207325.0 220690.0 0
213598.0 218748.0 0
216950.0 221780.0 0
220486.0 219629.0 0
225386.0 219165.0 0
229376.0 221681.0 0
235825.0 220377.0 0
240226.0 222072.0 0
245172.0 220082.0 0
252498.0 221249.0 0
257220.0 221580.0 0
262353.0 221212.0 0
267376.0 219008.0 0
272616.0 222030.0 0
277797.0 220711.0 0
282854.0 218688.0 0
289756.0 220565.0 0
285974.0 222192.0 0
293414.0 220271.0 0
297869.0 221203.0 0
303740.0 219672.0 0
309258.0 221608.0 0
315424.0 222603.0 0
320298.0 219726.0 0
324614.0 218293.0 0
328764.0 221269.0 0
334655.0 220577.0 0
342801.0 221769.0 0
348332.0 221098.0 0
354571.0 221018.0 0
358832.0 221156.0 0
362966.0 217783.0 0
362306.0 221837.0 0
366733.0 221757.0 0
371989.0 222584.0 0
376885.0 219788.0 0
380639.0 220441.0 0
386649.0 220938.0 0
391381.0 220023.0 0
396439.0 221015.0 0
400517.0 219454.0 0
404214.0 218378.0 0
418109.0 222083.0 0
422108.0 222467.0 0
426879.0 220920.0 0
431421.0 220822.0 0
442101.0 222110.0 0
447550.0 221025.0 0
452804.0 221292.0 0
461586.0 220752.0 0
466793.0 217803.0 0
465843.0 221860.0 0
470828.0 220862.0 0
476400.0 217699.0 0
480519.0 221350.0 0
485119.0 221977.0 0
491128.0 221941.0 0
497365.0 221638.0 0
2104.62 224338.0 0
6793.2 225967.0 0
12523.0 224254.0 0
18520.4 225349.0 0
24345.7 225076.0 0
30115.1 225446.0 0
35415.9 226883.0 0
39872.6 225556.0 0
43532.9 227596.0 0
47480.4 225281.0 0
51744.0 227281.0 0
56704.9 227031.0 0
61963.9 227042.0 0
66637.6 226722.0 0
71690.3 225302.0 0
77190.9 224451.0 0
82290.9 226265.0 0
88450.2 227715.0 0
93313.0 225370.0 0
97500.0 226141.0 0
107094.0 225716.0 0
102236.0 225942.0 0
112291.0 225444.0 0
117489.0 226876.0 0
122473.0 225132.0 0
132590.0 225892.0 0
127670.0 226639.0 0
137654.0 225615.0 0
140201.0 222986.0 0
142126.0 226050.0 0
147637.0 225834.0 0
153046.0 225167.0 0
157497.0 226861.0 0
161580.0 225009.0 0
165669.0 226695.0 0
171232.0 226548.0 0
176238.0 226542.0 0
180330.0 226988.0 0
184963.0 225411.0 0
190263.0 224977.0 0
195406.0 225465.0 0
201312.0 226431.0 0
206584.0 226755.0 0
212324.0 224577.0 0
218107.0 226112.0 0
222873.0 224089.0 0
227522.0 226703.0 0
232626.0 225247.0 0
238164.0 226055.0 0
243790.0 226416.0 0
248620.0 224990.0 0
255002.0 225307.0 0
259925.0 225477.0 0
266658.0 226050.0 0
272632.0 226971.0 0
276490.0 225576.0 0
281554.0 224437.0 0
287001.0 226782.0 0
292798.0 225091.0 0
298711.0 227069.0 0
303427.0 224967.0 0
307680.0 226263.0 0
319108.0 226967.0 0
323688.0 223247.0 0
323802.0 227471.0 0
328214.0 226912.0 0
332681.0 225215.0 0
338215.0 222830.0 0
337211.0 226611.0 0
341742.0 227007.0 0
346953.0 226499.0 0
352957.0 226295.0 0
358289.0 224974.0 0
363851.0 226231.0 0
368579.0 225867.0 0
377265.0 224091.0 0
372515.0 226461.0 0
383137.0 225410.0 0
392796.0 224759.0 0
388492.0 226641.0 0
396699.0 226536.0 0
401634.0 224528.0 0
407476.0 223063.0 0
413219.0 222894.0 0
408625.0 227656.0 0
412940.0 227857.0 0
417500.0 226040.0 0
423654.0 226368.0 0
429096.0 225118.0 0
432842.0 226300.0 0
436289.0 222801.0 0
439597.0 226454.0 0
445091.0 226103.0 0
449570.0 225757.0 0
453927.0 226103.0 0
457500.0 222958.0 0
458050.0 227521.0 0
461735.0 225310.0 0
466236.0 226569.0 0
472009.0 226888.0 0
476633.0 223622.0 0
481395.0 225972.0 0
487085.0 227192.0 0
492809.0 227837.0 0
497596.0 226672.0 0
3506.57 231419.0 0
8912.79 231233.0 0
12819.2 229680.0 0
18045.9 231559.0 0
23734.8 230442.0 0
29009.0 231242.0 0
33721.3 231045.0 0
38524.6 231366.0 0
43678.3 232317.0 0
47740.7 230044.0 0
52004.3 231838.0 0
56979.7 232438.0 0
61796.5 231750.0 0
66400.3 231314.0 0
71634.4 231188.0 0
78211.6 231669.0 0
84123.2 231009.0 0
87688.5 232790.0 0
94100.4 229584.0 0
99300.5 230839.0 0
103853.0 232275.0 0
108320.0 230680.0 0
113637.0 230285.0 0
122394.0 229524.0 0
118189.0 231322.0 0
126890.0 231585.0 0
131336.0 230735.0 0
135402.0 229372.0 0
139964.0 230321.0 0
145196.0 230968.0 0
151684.0 231277.0 0
157463.0 232027.0 0
162226.0 230439.0 0
167840.0 231012.0 0
173463.0 232186.0 0
178659.0 230962.0 0
183499.0 230958.0 0
188828.0 229081.0 0
193403.0 231709.0 0
198165.0 230176.0 0
202228.0 231753.0 0
207014.0 231924.0 0
212379.0 230977.0 0
217314.0 230576.0 0
221941.0 229428.0 0
226298.0 231495.0 0
231237.0 230643.0 0
236066.0 231237.0 0
240758.0 231081.0 0
247334.0 230449.0 0
251707.0 228312.0 0
251815.0 232320.0 0
256822.0 230459.0 0
262025.0 230603.0 0
272434.0 231715.0 0
277768.0 230006.0 0
282670.0 229934.0 0
287568.0 232266.0 0
294275.0 231707.0 0
299737.0 231884.0 0
304166.0 229977.0 0
308988.0 231247.0 0
312785.0 227878.0 0
315363.0 232779.0 0
320385.0 231978.0 0
326097.0 232210.0 0
333156.0 231378.0 0
339143.0 231901.0 0
343436.0 231026.0 0
347370.0 231298.0 0
351807.0 231841.0 0
357559.0 230325.0 0
363010.0 231266.0 0
368204.0 230707.0 0
373383.0 230123.0 0
378058.0 229192.0 0
382806.0 231560.0 0
392116.0 229714.0 0
388000.0 232362.0 0
397058.0 230886.0 0
402872.0 231200.0 0
407560.0 231205.0 0
411391.0 232152.0 0
416297.0 231003.0 0
421524.0 230800.0 0
427086.0 230184.0 0
431836.0 232449.0 0
436284.0 229965.0 0
442627.0 231368.0 0
449564.0 231384.0 0
454947.0 230773.0 0
459034.0 231804.0 0
462488.0 229542.0 0
466448.0 231430.0 0
470796.0 232055.0 0
477068.0 228242.0 0
475072.0 231798.0 0
479814.0 232288.0 0
485460.0 232853.0 0
491394.0 232046.0 0
496535.0 232148.0 0
7860.93 235297.0 0
13198.8 235591.0 0
18016.5 237534.0 0
22913.6 236073.0 0
28302.8 236385.0 0
33684.8 235954.0 0
38744.2 236304.0 0
42462.5 236149.0 0
47500.0 235917.0 0
52557.2 236235.0 0
57797.1 237752.0 0
62773.9 236217.0 0
67039.8 236115.0 0
72935.3 237238.0 0
78321.3 237468.0 0
82589.4 236062.0 0
87056.7 236705.0 0
92062.5 234900.0 0
97669.7 236128.0 0
102295.0 235947.0 0
107409.0 236513.0 0
113346.0 235702.0 0
121263.0 234813.0 0
117556.0 237053.0 0
125793.0 237504.0 0
129831.0 235000.0 0
135552.0 235171.0 0
141808.0 235188.0 0
147626.0 237318.0 0
152817.0 236627.0 0
156961.0 236505.0 0
162564.0 236552.0 0
168613.0 236531.0 0
178546.0 236047.0 0
173682.0 237558.0 0
183147.0 237679.0 0
188008.0 234968.0 0
193373.0 236516.0 0
197867.0 235201.0 0
202707.0 235949.0 0
206539.0 236313.0 0
210416.0 235558.0 0
215939.0 235098.0 0
222033.0 235567.0 0
227892.0 235959.0 0
232871.0 235110.0 0
237578.0 235714.0 0
243285.0 235561.0 0
248663.0 235924.0 0
254446.0 235989.0 0
259268.0 235305.0 0
262867.0 237091.0 0
266311.0 233376.0 0
270745.0 235998.0 0
276853.0 234573.0 0
282825.0 236089.0 0
288063.0 237593.0 0
292388.0 237260.0 0
298265.0 236179.0 0
306026.0 235570.0 0
310184.0 237117.0 0
311333.0 234298.0 0
314050.0 237800.0 0
318480.0 236031.0 0
322500.0 236202.0 0
328895.0 236876.0 0
333248.0 237756.0 0
337015.0 235766.0 0
341121.0 235689.0 0
346182.0 235823.0 0
357135.0 235643.0 0
352138.0 237948.0 0
361937.0 236180.0 0
372171.0 234738.0 0
367472.0 237478.0 0
377870.0 235185.0 0
383976.0 237605.0 0
389039.0 237124.0 0
392970.0 234929.0 0
398548.0 236308.0 0
404604.0 236360.0 0
408305.0 236364.0 0
411600.0 236445.0 0
415648.0 235799.0 0
420774.0 236289.0 0
427258.0 236737.0 0
432708.0 236518.0 0
437828.0 236569.0 0
443856.0 237617.0 0
448898.0 237506.0 0
453713.0 235607.0 0
458585.0 235895.0 0
462382.0 234011.0 0
466455.0 236311.0 0
471666.0 236712.0 0
476744.0 236376.0 0
482114.0 237159.0 0
489725.0 236172.0 0
3164.76 238082.0 0
6289.95 242281.0 0
11599.4 241707.0 0
17536.7 241997.0 0
22463.9 241745.0 0
27690.2 241446.0 0
32846.5 241334.0 0
37849.1 240837.0 0
42860.5 240938.0 0
47500.0 241000.0 0
52500.0 240919.0 0
57471.4 242213.0 0
62273.8 241273.0 0
67614.2 240501.0 0
72220.4 242959.0 0
81627.6 240967.0 0
77001.4 241355.0 0
86239.1 240826.0 0
91741.2 241312.0 0
97809.7 241516.0 0
102672.0 240495.0 0
106903.0 242659.0 0
111197.0 240586.0 0
115541.0 241383.0 0
120820.0 240703.0 0
126021.0 242336.0 0
131559.0 240988.0 0
137590.0 241358.0 0
143033.0 241796.0 0
152335.0 240613.0 0
148510.0 243125.0 0
156776.0 241185.0 0
161252.0 242399.0 0
165868.0 241063.0 0
170817.0 241488.0 0
176302.0 242130.0 0
181150.0 241196.0 0
190727.0 239901.0 0
195910.0 240839.0 0
202303.0 239635.0 0
207022.0 241327.0 0
212690.0 239774.0 0
217363.0 239524.0 0
221323.0 241070.0 0
226109.0 240790.0 0
231888.0 240163.0 0
236934.0 242274.0 0
240965.0 239809.0 0
246408.0 241892.0 0
252566.0 241257.0 0
257953.0 239350.0 0
262506.0 242135.0 0
267430.0 239073.0 0
272731.0 240085.0 0
277832.0 239271.0 0
283408.0 243127.0 0
290019.0 242110.0 0
296059.0 241359.0 0
302085.0 240230.0 0
308495.0 241083.0 0
313705.0 242930.0 0
318494.0 240599.0 0
325752.0 240565.0 0
331012.0 242318.0 0
336305.0 241440.0 0
342218.0 241088.0 0
347987.0 242020.0 0
357714.0 241506.0 0
363370.0 241102.0 0
372127.0 240857.0 0
377594.0 241148.0 0
388202.0 241995.0 0
393857.0 240605.0 0
403548.0 242158.0 0
409206.0 242904.0 0
413408.0 240632.0 0
418015.0 241242.0 0
422331.0 241331.0 0
432985.0 240775.0 0
437053.0 241495.0 0
442559.0 243106.0 0
447415.0 240880.0 0
451703.0 241460.0 0
455864.0 239876.0 0
461827.0 241189.0 0
468601.0 241890.0 0
474668.0 241798.0 0
480001.0 241264.0 0
486588.0 241387.0 0
493000.0 238161.0 0
493165.0 242538.0 0
497149.0 238143.0 0
498364.0 242462.0 0
2175.08 243329.0 0
2648.24 247610.0 0
6704.61 246150.0 0
17237.5 246494.0 0
21689.6 246619.0 0
26625.8 246648.0 0
32269.7 246789.0 0
37800.7 245907.0 0
42911.0 246054.0 0
48373.5 245873.0 0
53049.3 246102.0 0
57491.6 246498.0 0
62500.0 246087.0 0
67351.0 246110.0 0
72974.1 247295.0 0
77090.1 246283.0 0
80945.4 246270.0 0
86598.5 245998.0 0
92662.9 247907.0 0
98143.0 246560.0 0
102893.0 245512.0 0
107106.0 248013.0 0
112144.0 245887.0 0
117790.0 245754.0 0
127517.0 246052.0 0
123040.0 247421.0 0
131674.0 247793.0 0
135063.0 244863.0 0
139793.0 247489.0 0
153456.0 246409.0 0
159440.0 246943.0 0
165969.0 246277.0 0
171466.0 246715.0 0
186189.0 243195.0 0
191885.0 244641.0 0
201242.0 244592.0 0
206411.0 248059.0 0
211865.0 245543.0 0
217590.0 244241.0 0
222976.0 245725.0 0
228686.0 245751.0 0
233718.0 245130.0 0
236986.0 246816.0 0
241138.0 245155.0 0
251690.0 246699.0 0
257175.0 243819.0 0
263476.0 247725.0 0
268883.0 245055.0 0
274507.0 247736.0 0
276224.0 243494.0 0
279019.0 246551.0 0
288591.0 246858.0 0
293681.0 247056.0 0
300188.0 246398.0 0
305274.0 244741.0 0
308875.0 246993.0 0
313466.0 247935.0 0
316778.0 245759.0 0
320573.0 247455.0 0
322153.0 243318.0 0
326682.0 247001.0 0
333861.0 247272.0 0
338665.0 245816.0 0
342798.0 246553.0 0
347415.0 246991.0 0
352469.0 243605.0 0
357815.0 247291.0 0
362633.0 245924.0 0
367022.0 247932.0 0
367624.0 243586.0 0
371862.0 246327.0 0
377439.0 247073.0 0
382625.0 248235.0 0
382669.0 243876.0 0
386622.0 247523.0 0
391984.0 246786.0 0
397810.0 244465.0 0
406987.0 247106.0 0
411809.0 246605.0 0
417019.0 245781.0 0
422567.0 247067.0 0
427432.0 243489.0 0
432184.0 247368.0 0
437979.0 246716.0 0
448192.0 245935.0 0
455967.0 245788.0 0
461567.0 247747.0 0
466226.0 246400.0 0
471900.0 248115.0 0
477524.0 246598.0 0
481988.0 245242.0 0
491854.0 247645.0 0
497014.0 247227.0 0
11883.6 248493.0 0
146645.0 248359.0 0
162838.0 249932.0 0
177280.0 248350.0 0
183205.0 248475.0 0
188838.0 248785.0 0
195943.0 248487.0 0
201232.0 250027.0 0
204480.0 252589.0 0
210797.0 251208.0 0
216423.0 249986.0 0
222476.0 251456.0 0
227964.0 251156.0 0
233928.0 249955.0 0
236559.0 253282.0 0
240342.0 250934.0 0
246171.0 248318.0 0
248991.0 252871.0 0
253466.0 251466.0 0
258376.0 248806.0 0
261357.0 251873.0 0
265880.0 252618.0 0
270699.0 250575.0 0
278598.0 252030.0 0
284476.0 249506.0 0
289818.0 251403.0 0
297133.0 251770.0 0
305001.0 248728.0 0
302382.0 252319.0 0
352858.0 248430.0 0
396543.0 248583.0 0
401644.0 248879.0 0
427263.0 249195.0 0
442950.0 248659.0 0
452071.0 249105.0 0
481330.0 249083.0 0
486495.0 248704.0 0
199577.0 254949.0 0
204454.0 256722.0 0
209461.0 256198.0 0
215735.0 256092.0 0
221143.0 256836.0 0
226651.0 256869.0 0
231470.0 254496.0 0
235327.0 256453.0 0
244600.0 253994.0 0
240448.0 257037.0 0
252383.0 256403.0 0
257899.0 254362.0 0
262170.0 254956.0 0
271465.0 255712.0 0
276413.0 257397.0 0
283456.0 254150.0 0
280931.0 257285.0 0
287251.0 255710.0 0
293221.0 256285.0 0
299479.0 257139.0 0
200574.0 261236.0 0
206832.0 261211.0 0
212351.0 260414.0 0
218219.0 261767.0 0
223362.0 260755.0 0
227346.0 262825.0 0
231820.0 259803.0 0
236728.0 260118.0 0
240960.0 262762.0 0
245800.0 259143.0 0
250599.0 260705.0 0
256855.0 260761.0 0
262922.0 259026.0 0
268031.0 259858.0 0
273342.0 262080.0 0
278887.0 261300.0 0
284561.0 258575.0 0
283257.0 262167.0 0
288815.0 261000.0 0
294300.0 261884.0 0
298355.0 261846.0 0
202171.0 267613.0 0
208345.0 266711.0 0
213597.0 265495.0 0
218686.0 267142.0 0
223714.0 266758.0 0
228235.0 267391.0 0
231680.0 265175.0 0
236095.0 264179.0 0
240601.0 266842.0 0
246382.0 265009.0 0
252216.0 265439.0 0
257463.0 266655.0 0
261596.0 264161.0 0
266659.0 265088.0 0
271774.0 266843.0 0
276902.0 266068.0 0
281080.0 265219.0 0
285897.0 266202.0 0
291463.0 265940.0 0
297264.0 266444.0 0
10310.7 271043.0 0
206124.0 272114.0 0
210338.0 270713.0 0
215202.0 271033.0 0
220817.0 271368.0 0
226495.0 272337.0 0
231218.0 269781.0 0
237009.0 269612.0 0
243166.0 269614.0 0
248818.0 270386.0 0
254690.0 270587.0 0
261852.0 269476.0 0
268407.0 271560.0 0
274601.0 270113.0 0
279541.0 268925.0 0
278615.0 273007.0 0
283536.0 271134.0 0
289166.0 270731.0 0
293914.0 270044.0 0
297970.0 272603.0 0
309756.0 272573.0 0
341742.0 268707.0 0
48261.5 278467.0 0
174681.0 277492.0 0
201816.0 274739.0 0
206254.0 277423.0 0
211444.0 275560.0 0
216920.0 276571.0 0
222267.0 276233.0 0
228046.0 276846.0 0
232138.0 274852.0 0
237060.0 274995.0 0
241911.0 275051.0 0
247665.0 276282.0 0
253235.0 275738.0 0
258642.0 274253.0 0
262731.0 276814.0 0
267375.0 277837.0 0
273134.0 276428.0 0
279210.0 278729.0 0
282862.0 275388.0 0
287176.0 276967.0 0
293013.0 275252.0 0
362467.0 278716.0 0
368610.0 278499.0 0
389098.0 277563.0 0
404603.0 275829.0 0
421499.0 277101.0 0
443009.0 276748.0 0
455114.0 277129.0 0
472319.0 277873.0 0
492537.0 278849.0 0
497243.0 276697.0 0
6878.9 280853.0 0
56374.4 282381.0 0
63868.7 282391.0 0
68827.6 283410.0 0
96187.4 282657.0 0
100416.0 282105.0 0
107589.0 283841.0 0
126005.0 281825.0 0
158565.0 283841.0 0
167796.0 280715.0 0
177286.0 281545.0 0
191569.0 282698.0 0
196244.0 283626.0 0
201367.0 279515.0 0
200888.0 283873.0 0
205145.0 282317.0 0
210425.0 281230.0 0
215516.0 281263.0 0
220085.0 280686.0 0
225524.0 280335.0 0
231423.0 280983.0 0
237513.0 279909.0 0
242310.0 282932.0 0
248059.0 282346.0 0
253777.0 281084.0 0
258820.0 279447.0 0
259053.0 283855.0 0
263576.0 282003.0 0
269203.0 282955.0 0
274269.0 281687.0 0
284332.0 281945.0 0
288852.0 281562.0 0
292813.0 280533.0 0
297881.0 279111.0 0
317421.0 280793.0 0
322450.0 282183.0 0
357807.0 280300.0 0
374583.0 281141.0 0
437044.0 280390.0 0
461586.0 280990.0 0
476569.0 281116.0 0
481239.0 282209.0 0
14254.8 285406.0 0
17655.2 288723.0 0
22442.4 286722.0 0
30433.9 286626.0 0
36537.1 287159.0 0
75161.9 285445.0 0
79658.9 284144.0 0
85031.3 284842.0 0
93065.2 288759.0 0
111005.0 285686.0 0
115161.0 284143.0 0
121008.0 284036.0 0
124379.0 288931.0 0
131855.0 286148.0 0
137504.0 285160.0 0
142262.0 287413.0 0
150902.0 288736.0 0
154054.0 284446.0 0
173221.0 286568.0 0
178042.0 288412.0 0
178735.0 284911.0 0
208004.0 285312.0 0
204085.0 286961.0 0
213361.0 286132.0 0
217850.0 284933.0 0
222325.0 284853.0 0
220068.0 288924.0 0
227461.0 285633.0 0
233023.0 286715.0 0
238131.0 285867.0 0
241706.0 287713.0 0
245364.0 286856.0 0
251056.0 287220.0 0
255501.0 285623.0 0
261789.0 286301.0 0
267219.0 288001.0 0
273096.0 285980.0 0
277796.0 285402.0 0
282144.0 285726.0 0
284675.0 288216.0 0
287760.0 285715.0 0
292964.0 285537.0 0
297455.0 284113.0 0
296825.0 288618.0 0
309917.0 284079.0 0
322451.0 286895.0 0
326630.0 287654.0 0
330913.0 287928.0 0
339605.0 287272.0 0
391311.0 284242.0 0
388726.0 288756.0 0
396056.0 285680.0 0
417127.0 286746.0 0
423600.0 285052.0 0
426612.0 288621.0 0
439714.0 287612.0 0
449230.0 286762.0 0
462790.0 287439.0 0
466760.0 286252.0 0
471850.0 284849.0 0
479717.0 287492.0 0
484429.0 287572.0 0
497839.0 286148.0 0
2631.23 294013.0 0
8033.11 291042.0 0
14588.8 292230.0 0
30589.4 292828.0 0
40985.6 291564.0 0
48339.7 289371.0 0
45936.2 293039.0 0
53010.0 289368.0 0
88220.9 290832.0 0
92904.6 293767.0 0
97919.2 290883.0 0
102310.0 292990.0 0
113050.0 293048.0 0
119140.0 291033.0 0
126262.0 293139.0 0
146000.0 290864.0 0
155278.0 292101.0 0
169989.0 291820.0 0
177570.0 292581.0 0
188924.0 292887.0 0
194748.0 294156.0 0
199537.0 291489.0 0
204410.0 292100.0 0
209319.0 289686.0 0
215070.0 291662.0 0
222091.0 293189.0 0
225952.0 290614.0 0
230704.0 291470.0 0
236388.0 291210.0 0
241426.0 291487.0 0
247378.0 292283.0 0
253467.0 291725.0 0
257881.0 289504.0 0
262774.0 290530.0 0
267279.0 293336.0 0
271751.0 290430.0 0
276229.0 291885.0 0
280751.0 289959.0 0
287940.0 290671.0 0
292560.0 290449.0 0
300495.0 291037.0 0
296378.0 293365.0 0
304853.0 291527.0 0
308754.0 290713.0 0
314014.0 293618.0 0
318278.0 290917.0 0
335045.0 290588.0 0
345114.0 289465.0 0
342101.0 292865.0 0
348027.0 293020.0 0
364943.0 292022.0 0
377600.0 292884.0 0
383597.0 291675.0 0
390690.0 292686.0 0
393964.0 290563.0 0
398809.0 292715.0 0
407296.0 289833.0 0
403236.0 293586.0 0
412976.0 292155.0 0
422388.0 290518.0 0
431907.0 289323.0 0
436080.0 291161.0 0
444222.0 289869.0 0
458451.0 289628.0 0
478880.0 292712.0 0
489239.0 290498.0 0
4198.95 299116.0 0
10165.2 297265.0 0
18911.2 294557.0 0
27252.5 296880.0 0
37311.7 295160.0 0
44551.6 298521.0 0
54909.3 296029.0 0
60744.6 297078.0 0
73247.1 299115.0 0
85759.2 296048.0 0
91010.0 296181.0 0
96476.5 295205.0 0
100409.0 297373.0 0
105708.0 296081.0 0
118044.0 298338.0 0
127597.0 297866.0 0
137141.0 294598.0 0
132697.0 296517.0 0
140009.0 298825.0 0
145853.0 298842.0 0
166524.0 295876.0 0
175196.0 297916.0 0
183087.0 294235.0 0
208777.0 294899.0 0
204251.0 297614.0 0
213004.0 298058.0 0
218420.0 296751.0 0
222790.0 297086.0 0
226656.0 295445.0 0
231896.0 296661.0 0
237320.0 296625.0 0
242505.0 296122.0 0
247182.0 298655.0 0
252148.0 296647.0 0
257609.0 295279.0 0
262739.0 295228.0 0
265986.0 299093.0 0
272530.0 296131.0 0
278421.0 296019.0 0
284099.0 294860.0 0
290968.0 295800.0 0
305457.0 295459.0 0
301911.0 298496.0 0
309713.0 294874.0 0
312812.0 298869.0 0
335177.0 298095.0 0
341691.0 297759.0 0
360423.0 295824.0 0
368691.0 294655.0 0
373639.0 297074.0 0
380959.0 297664.0 0
385630.0 296406.0 0
394399.0 295353.0 0
398411.0 296733.0 0
402468.0 298489.0 0
415149.0 296598.0 0
431773.0 294846.0 0
462565.0 297260.0 0
468005.0 298918.0 0
473827.0 294277.0 0
483291.0 296310.0 0
488293.0 297758.0 0
492521.0 294495.0 0
494690.0 299202.0 0
497266.0 294252.0 0
1396.57 302106.0 0
8211.08 301072.0 0
11918.4 302547.0 0
16619.4 302016.0 0
21754.5 300713.0 0
31965.1 299365.0 0
31750.6 304108.0 0
36111.9 303357.0 0
40529.6 302987.0 0
49617.5 299456.0 0
53511.7 300998.0 0
65233.2 300222.0 0
75981.4 304003.0 0
79797.4 299613.0 0
97591.4 300808.0 0
101262.0 301924.0 0
122206.0 300336.0 0
125707.0 301559.0 0
132217.0 302601.0 0
137709.0 304081.0 0
150246.0 302258.0 0
157949.0 301011.0 0
162385.0 301791.0 0
166757.0 304368.0 0
169946.0 299580.0 0
178322.0 301429.0 0
173828.0 302736.0 0
182125.0 299477.0 0
182576.0 304255.0 0
203603.0 303196.0 0
208496.0 300376.0 0
212186.0 302954.0 0
217003.0 303621.0 0
221537.0 301022.0 0
226388.0 300392.0 0
231038.0 302002.0 0
236954.0 302573.0 0
242599.0 301185.0 0
247336.0 303108.0 0
251019.0 301781.0 0
255658.0 300508.0 0
261566.0 300627.0 0
265045.0 303889.0 0
270031.0 302918.0 0
276300.0 301868.0 0
281560.0 299467.0 0
286615.0 300422.0 0
291665.0 302965.0 0
296238.0 299495.0 0
305265.0 302268.0 0
308862.0 299491.0 0
315851.0 302695.0 0
321608.0 302462.0 0
329672.0 301185.0 0
345721.0 302919.0 0
350533.0 300512.0 0
355714.0 302006.0 0
368277.0 300159.0 0
376826.0 302118.0 0
388242.0 299644.0 0
392773.0 304111.0 0
397327.0 301948.0 0
402414.0 303248.0 0
406830.0 301102.0 0
411664.0 299595.0 0
417627.0 301410.0 0
430432.0 304159.0 0
435876.0 302494.0 0
440796.0 300099.0 0
443743.0 304389.0 0
448497.0 302458.0 0
472750.0 299952.0 0
472922.0 304276.0 0
490331.0 302342.0 0
498185.0 302295.0 0
9024.03 305951.0 0
22141.1 306199.0 0
27556.0 307223.0 0
42506.5 306629.0 0
47221.1 307343.0 0
55082.9 305100.0 0
57767.4 308840.0 0
71070.6 305449.0 0
66580.1 308489.0 0
78232.9 309376.0 0
87177.6 306946.0 0
92596.4 309394.0 0
101304.0 307147.0 0
105416.0 307554.0 0
110427.0 309436.0 0
115988.0 305166.0 0
121376.0 305973.0 0
127453.0 305006.0 0
125026.0 308406.0 0
134374.0 306958.0 0
136926.0 307254.0 0
142940.0 306714.0 0
149278.0 308845.0 0
154955.0 307647.0 0
159503.0 306371.0 0
162950.0 308686.0 0
170964.0 306175.0 0
178096.0 305692.0 0
179935.0 309093.0 0
188423.0 306185.0 0
193804.0 309013.0 0
198197.0 305847.0 0
202886.0 308799.0 0
208338.0 305422.0 0
213344.0 307614.0 0
221893.0 306272.0 0
227468.0 306130.0 0
232913.0 307013.0 0
238291.0 308792.0 0
244009.0 306626.0 0
249419.0 306478.0 0
253932.0 306711.0 0
259253.0 305162.0 0
263824.0 307904.0 0
268001.0 307309.0 0
272681.0 307388.0 0
278024.0 308197.0 0
282372.0 304398.0 0
287561.0 306583.0 0
292503.0 308401.0 0
296085.0 305133.0 0
296856.0 309141.0 0
310186.0 305873.0 0
315912.0 308563.0 0
326129.0 305661.0 0
329885.0 307605.0 0
332766.0 305578.0 0
354804.0 309388.0 0
359390.0 305675.0 0
365233.0 304718.0 0
363529.0 309327.0 0
371514.0 304627.0 0
375763.0 308020.0 0
382983.0 304957.0 0
388117.0 308491.0 0
405524.0 306211.0 0
418256.0 306575.0 0
423877.0 306627.0 0
448865.0 307333.0 0
453540.0 308654.0 0
457751.0 305899.0 0
463509.0 306010.0 0
469551.0 307394.0 0
473869.0 308392.0 0
477904.0 304397.0 0
485101.0 308474.0 0
492549.0 306198.0 0
497345.0 307192.0 0
12432.9 311586.0 0
18261.9 311547.0 0
31572.7 313722.0 0
35807.4 310722.0 0
40409.5 311430.0 0
62118.7 310346.0 0
83627.7 311642.0 0
88025.0 312454.0 0
98112.3 313095.0 0
115498.0 311267.0 0
119859.0 309628.0 0
119756.0 313516.0 0
124322.0 312436.0 0
137186.0 314513.0 0
145130.0 310719.0 0
152637.0 312084.0 0
157044.0 312194.0 0
175791.0 310441.0 0
203858.0 313890.0 0
208384.0 310885.0 0
213639.0 313183.0 0
218059.0 310120.0 0
223603.0 311207.0 0
220711.0 313517.0 0
229043.0 311112.0 0
226289.0 314197.0 0
233885.0 312170.0 0
238186.0 313812.0 0
242507.0 312324.0 0
247735.0 311235.0 0
252005.0 310093.0 0
255721.0 312021.0 0
260654.0 311118.0 0
265218.0 311904.0 0
269720.0 311456.0 0
274709.0 312885.0 0
283185.0 309741.0 0
281330.0 314081.0 0
288135.0 312401.0 0
293570.0 313195.0 0
297762.0 312793.0 0
305807.0 309749.0 0
301392.0 310292.0 0
309211.0 310872.0 0
320548.0 312653.0 0
332502.0 310502.0 0
332244.0 314437.0 0
337497.0 310396.0 0
344487.0 311312.0 0
350089.0 310851.0 0
359342.0 311204.0 0
368250.0 309782.0 0
379842.0 310589.0 0
383935.0 310658.0 0
396224.0 312660.0 0
420703.0 310301.0 0
428710.0 310136.0 0
443848.0 312825.0 0
460614.0 313837.0 0
475351.0 313594.0 0
480010.0 309871.0 0
486287.0 314023.0 0
2385.26 316640.0 0
11457.4 317723.0 0
19755.7 316071.0 0
23726.9 317299.0 0
28043.2 318054.0 0
37894.0 317579.0 0
42563.5 315349.0 0
48901.4 318177.0 0
59411.4 316706.0 0
73236.5 315462.0 0
78992.8 317291.0 0
84814.0 317507.0 0
103476.0 316522.0 0
108327.0 317951.0 0
127047.0 316739.0 0
133529.0 317221.0 0
141682.0 317266.0 0
147366.0 319172.0 0
178009.0 317509.0 0
182816.0 317183.0 0
188845.0 317110.0 0
195076.0 319373.0 0
203971.0 319436.0 0
208075.0 316375.0 0
212469.0 317942.0 0
217766.0 316896.0 0
223045.0 316805.0 0
230324.0 316031.0 0
235418.0 317105.0 0
240562.0 317274.0 0
245788.0 316786.0 0
251492.0 315240.0 0
256393.0 317078.0 0
262262.0 315951.0 0
267758.0 316260.0 0
272919.0 318043.0 0
278143.0 317573.0 0
284667.0 317080.0 0
290888.0 317797.0 0
296515.0 317616.0 0
320417.0 318245.0 0
324961.0 318170.0 0
327915.0 315160.0 0
349617.0 317570.0 0
356286.0 318489.0 0
366109.0 318738.0 0
370489.0 319032.0 0
373783.0 315758.0 0
391305.0 316100.0 0
401114.0 314617.0 0
405441.0 316734.0 0
410203.0 318655.0 0
415232.0 317137.0 0
420447.0 317787.0 0
436061.0 318597.0 0
441300.0 317090.0 0
447423.0 316676.0 0
452098.0 318456.0 0
463371.0 318158.0 0
468386.0 315591.0 0
472620.0 318488.0 0
478625.0 318755.0 0
482264.0 316385.0 0
488314.0 317895.0 0
491602.0 315612.0 0
497634.0 319428.0 0
6006.39 320335.0 0
10345.6 323149.0 0
14356.5 324084.0 0
17628.4 321768.0 0
21198.9 323953.0 0
31549.5 321027.0 0
44669.6 320001.0 0
53337.5 320271.0 0
57735.5 320179.0 0
81396.5 321609.0 0
88732.2 322845.0 0
94616.0 323550.0 0
115852.0 324055.0 0
131487.0 321271.0 0
151889.0 322935.0 0
157006.0 321528.0 0
162148.0 321227.0 0
166764.0 320186.0 0
172721.0 320348.0 0
208993.0 321616.0 0
215420.0 322556.0 0
220828.0 321160.0 0
223896.0 324238.0 0
226902.0 320331.0 0
232157.0 320850.0 0
237585.0 321848.0 0
242702.0 320996.0 0
247670.0 322700.0 0
251771.0 319818.0 0
259937.0 320109.0 0
255608.0 322264.0 0
264649.0 320801.0 0
269296.0 320885.0 0
275658.0 322819.0 0
282080.0 322403.0 0
288371.0 322951.0 0
294160.0 322877.0 0
307859.0 321860.0 0
313339.0 323421.0 0
318165.0 322502.0 0
333604.0 323939.0 0
339112.0 320361.0 0
344315.0 322503.0 0
348224.0 324470.0 0
361855.0 321302.0 0
373349.0 322034.0 0
382120.0 322100.0 0
377846.0 322637.0 0
386421.0 322328.0 0
424465.0 320633.0 0
425495.0 324576.0 0
429055.0 320184.0 0
434661.0 323599.0 0
444448.0 323109.0 0
456662.0 323558.0 0
475464.0 321774.0 0
478873.0 324439.0 0
484076.0 322842.0 0
2520.43 328829.0 0
23712.7 327301.0 0
27712.7 328215.0 0
38957.8 329286.0 0
64003.3 329415.0 0
69034.9 329327.0 0
73587.4 326724.0 0
78890.1 328551.0 0
99836.4 326585.0 0
106851.0 329700.0 0
111993.0 329166.0 0
115838.0 329816.0 0
124424.0 325377.0 0
129417.0 325689.0 0
132091.0 329102.0 0
137331.0 327269.0 0
141484.0 328905.0 0
178121.0 327541.0 0
173534.0 328926.0 0
182877.0 326088.0 0
190151.0 326307.0 0
198863.0 327738.0 0
194183.0 329544.0 0
204540.0 325214.0 0
206166.0 329695.0 0
209816.0 326586.0 0
214276.0 328280.0 0
219383.0 326467.0 0
223635.0 328797.0 0
228556.0 326119.0 0
233636.0 325232.0 0
232407.0 329705.0 0
237513.0 327744.0 0
241575.0 325271.0 0
249637.0 327473.0 0
245269.0 328116.0 0
254555.0 327723.0 0
260840.0 325842.0 0
267630.0 325727.0 0
273079.0 327836.0 0
278619.0 327712.0 0
282931.0 327373.0 0
286576.0 327532.0 0
291003.0 327382.0 0
295782.0 328191.0 0
304833.0 326289.0 0
320801.0 329748.0 0
326082.0 328734.0 0
339966.0 329741.0 0
345237.0 327021.0 0
348323.0 328801.0 0
375332.0 325402.0 0
387759.0 329031.0 0
396070.0 327286.0 0
405148.0 327307.0 0
412280.0 325142.0 0
416387.0 326797.0 0
422843.0 329461.0 0
431748.0 327593.0 0
439140.0 325402.0 0
452878.0 327016.0 0
457920.0 328513.0 0
461427.0 325005.0 0
465643.0 327058.0 0
493893.0 329466.0 0
35470.8 330907.0 0
31330.3 331320.0 0
58276.5 334051.0 0
62760.5 334202.0 0
79117.6 333370.0 0
83595.1 331001.0 0
102136.0 331314.0 0
118035.0 333332.0 0
122579.0 331450.0 0
187621.0 331743.0 0
204358.0 332792.0 0
210208.0 331189.0 0
219003.0 331350.0 0
214472.0 333096.0 0
223352.0 333566.0 0
227926.0 331758.0 0
236320.0 332800.0 0
241304.0 331042.0 0
246220.0 333300.0 0
251081.0 331575.0 0
256304.0 333704.0 0
262862.0 332548.0 0
268059.0 330937.0 0
272176.0 332957.0 0
277008.0 332637.0 0
282244.0 332141.0 0
286576.0 331210.0 0
288275.0 334797.0 0
292295.0 331941.0 0
296346.0 331695.0 0
296136.0 334920.0 0
334097.0 333985.0 0
338749.0 332948.0 0
344226.0 330966.0 0
353398.0 329972.0 0
377578.0 331506.0 0
383309.0 333641.0 0
391971.0 330229.0 0
417562.0 331189.0 0
429251.0 332236.0 0
440415.0 333185.0 0
448734.0 330690.0 0
444373.0 332263.0 0
483950.0 332910.0 0
488519.0 330779.0 0
23860.2 337967.0 0
85357.4 335672.0 0
89677.3 336841.0 0
114635.0 337037.0 0
119205.0 337491.0 0
148593.0 336611.0 0
154063.0 337687.0 0
160451.0 338401.0 0
172783.0 338937.0 0
177642.0 337171.0 0
182265.0 335359.0 0
186511.0 335444.0 0
204010.0 337249.0 0
209789.0 336640.0 0
219175.0 336039.0 0
215094.0 337496.0 0
222792.0 338024.0 0
226790.0 336535.0 0
232147.0 336915.0 0
237495.0 337090.0 0
241633.0 336119.0 0
247324.0 338260.0 0
251265.0 336137.0 0
257641.0 338458.0 0
261122.0 337568.0 0
267902.0 336404.0 0
273126.0 337391.0 0
279250.0 336941.0 0
284083.0 337090.0 0
287838.0 339102.0 0
292280.0 337415.0 0
343860.0 338294.0 0
354633.0 338307.0 0
362728.0 337476.0 0
367860.0 335883.0 0
374256.0 336219.0 0
378320.0 339995.0 0
388742.0 336099.0 0
441465.0 339377.0 0
447200.0 339772.0 0
449043.0 335741.0 0
472532.0 335868.0 0
476982.0 335318.0 0
487877.0 338474.0 0
18980.9 341882.0 0
24601.3 343093.0 0
29372.6 344267.0 0
41944.7 344446.0 0
46285.1 342401.0 0
57656.8 340734.0 0
59419.7 344635.0 0
131308.0 343993.0 0
136308.0 343861.0 0
164978.0 342130.0 0
169679.0 343334.0 0
175845.0 340809.0 0
203274.0 343018.0 0
207137.0 341425.0 0
212546.0 341593.0 0
216907.0 341028.0 0
216029.0 344769.0 0
221033.0 342240.0 0
226473.0 341704.0 0
231410.0 342000.0 0
236718.0 342049.0 0
242995.0 341482.0 0
247801.0 342430.0 0
251623.0 340688.0 0
256145.0 342261.0 0
260917.0 341859.0 0
265922.0 341771.0 0
270793.0 340998.0 0
273814.0 344676.0 0
276140.0 341191.0 0
281424.0 341432.0 0
285813.0 342488.0 0
295735.0 340398.0 0
291080.0 342334.0 0
300746.0 342241.0 0
347413.0 340780.0 0
351113.0 341801.0 0
354750.0 345093.0 0
359569.0 341480.0 0
378180.0 344377.0 0
496741.0 340987.0 0
3000.82 347533.0 0
34198.8 346228.0 0
38189.5 349280.0 0
44756.1 347902.0 0
49720.9 346729.0 0
78998.1 347429.0 0
109302.0 348652.0 0
125705.0 345338.0 0
203607.0 346598.0 0
199011.0 349127.0 0
209618.0 347290.0 0
215007.0 348395.0 0
219943.0 347170.0 0
225130.0 347267.0 0
230483.0 346638.0 0
235400.0 347453.0 0
240007.0 346714.0 0
245799.0 347357.0 0
252777.0 347276.0 0
259146.0 346690.0 0
263538.0 345625.0 0
264993.0 349720.0 0
269634.0 346121.0 0
277552.0 346596.0 0
282425.0 345914.0 0
286249.0 346219.0 0
290626.0 347819.0 0
295570.0 345312.0 0
303325.0 347635.0 0
318205.0 348656.0 0
324319.0 349850.0 0
344872.0 348422.0 0
374379.0 346035.0 0
382647.0 346922.0 0
388980.0 345682.0 0
399809.0 350216.0 0
430527.0 348765.0 0
435600.0 348117.0 0
441425.0 345785.0 0
463934.0 346876.0 0
5576.43 351933.0 0
30674.9 355176.0 0
40981.1 352025.0 0
78850.0 350882.0 0
104572.0 352479.0 0
110496.0 353412.0 0
114684.0 354875.0 0
199281.0 354848.0 0
204510.0 351421.0 0
213857.0 351671.0 0
209709.0 354593.0 0
217598.0 351054.0 0
222171.0 351833.0 0
227335.0 352036.0 0
232823.0 351976.0 0
238451.0 351574.0 0
242880.0 351603.0 0
247481.0 353098.0 0
251328.0 352045.0 0
255288.0 352933.0 0
260314.0 351906.0 0
270308.0 352383.0 0
275508.0 350880.0 0
280914.0 351665.0 0
286403.0 350709.0 0
290399.0 353388.0 0
295367.0 351112.0 0
306624.0 353912.0 0
321222.0 350926.0 0
349594.0 355270.0 0
394819.0 353706.0 0
406576.0 352500.0 0
412274.0 352179.0 0
420030.0 352133.0 0
425901.0 350678.0 0
466754.0 353333.0 0
470906.0 354689.0 0
13308.9 358624.0 0
118920.0 357365.0 0
123167.0 359621.0 0
190052.0 359041.0 0
194108.0 355970.0 0
203764.0 356312.0 0
207023.0 360195.0 0
215564.0 355848.0 0
219947.0 356569.0 0
222850.0 355630.0 0
226714.0 357694.0 0
231989.0 357022.0 0
236797.0 356616.0 0
241920.0 355811.0 0
242687.0 360361.0 0
246394.0 357882.0 0
252122.0 356232.0 0
251702.0 360361.0 0
255133.0 357667.0 0
259943.0 357128.0 0
265589.0 356450.0 0
275362.0 355525.0 0
270872.0 358313.0 0
280262.0 357537.0 0
285529.0 355799.0 0
289387.0 359504.0 0
294634.0 357262.0 0
336311.0 359242.0 0
355596.0 358070.0 0
389404.0 355873.0 0
417609.0 358257.0 0
431254.0 359584.0 0
2103.89 365411.0 0
4937.82 362851.0 0
9627.86 363104.0 0
203374.0 362526.0 0
213627.0 361149.0 0
209712.0 364358.0 0
218154.0 361150.0 0
222500.0 361013.0 0
228119.0 362951.0 0
233100.0 361602.0 0
237973.0 361409.0 0
241624.0 365008.0 0
247740.0 362079.0 0
255830.0 361844.0 0
260265.0 362187.0 0
265036.0 361839.0 0
269991.0 363676.0 0
275871.0 361660.0 0
280220.0 364470.0 0
284129.0 361664.0 0
288832.0 365056.0 0
294881.0 363891.0 0
341778.0 362709.0 0
351904.0 360685.0 0
361777.0 364425.0 0
378832.0 363204.0 0
1666.37 375627.0 0
5446.32 375227.0 0
9884.28 375284.0 0
14338.1 375211.0 0
18481.8 375136.0 0
23015.3 375063.0 0
27091.9 375202.0 0
31194.9 375353.0 0
35316.6 375002.0 0
37586.8 376798.0 0
40658.5 375338.0 0
45155.6 375180.0 0
48406.9 375456.0 0
51951.4 375911.0 0
56070.4 375092.0 0
60407.9 375106.0 0
63924.6 375363.0 0
66699.6 375970.0 0
69706.5 375156.0 0
74859.2 375052.0 0
78845.9 375561.0 0
82109.9 375111.0 0
86661.3 375564.0 0
90751.1 375075.0 0
95610.0 375002.0 0
100327.0 375232.0 0
103889.0 375837.0 0
110821.0 375578.0 0
107283.0 375517.0 0
114650.0 375371.0 0
118195.0 376008.0 0
121739.0 375751.0 0
126452.0 375492.0 0
131063.0 375459.0 0
135409.0 375561.0 0
139414.0 375004.0 0
144090.0 375034.0 0
148885.0 375094.0 0
152971.0 375140.0 0
156485.0 375481.0 0
160403.0 375050.0 0
165454.0 375129.0 0
169197.0 375559.0 0
172194.0 375513.0 0
175812.0 375327.0 0
179573.0 375766.0 0
182847.0 375313.0 0
187646.0 365280.0 0
186339.0 375376.0 0
194243.0 375115.0 0
190176.0 376093.0 0
198215.0 375078.0 0
196599.0 377470.0 0
199812.0 376757.0 0
204452.0 366161.0 0
208611.0 368641.0 0
213388.0 366845.0 0
218306.0 365810.0 0
218166.0 370564.0 0
222726.0 365923.0 0
222182.0 370639.0 0
226680.0 367481.0 0
231450.0 366272.0 0
236417.0 366198.0 0
247090.0 367194.0 0
253246.0 366405.0 0
258473.0 366462.0 0
262430.0 365807.0 0
261403.0 370689.0 0
266448.0 367699.0 0
273823.0 367034.0 0
278167.0 367975.0 0
282083.0 367501.0 0
285750.0 368964.0 0
289876.0 369733.0 0
294930.0 370647.0 0
300736.0 375801.0 0
304043.0 375137.0 0
310907.0 375408.0 0
307309.0 375564.0 0
315118.0 371159.0 0
320148.0 369034.0 0
325381.0 369424.0 0
329037.0 365698.0 0
332309.0 375552.0 0
336432.0 375188.0 0
340231.0 375873.0 0
344071.0 375549.0 0
341231.0 379072.0 0
348998.0 376039.0 0
353245.0 375809.0 0
357016.0 375172.0 0
361563.0 375377.0 0
367623.0 364477.0 0
371598.0 368040.0 0
375017.0 369973.0 0
381098.0 375641.0 0
377115.0 375542.0 0
385884.0 367226.0 0
390115.0 369581.0 0
394275.0 375260.0 0
397766.0 375563.0 0
400722.0 375368.0 0
404609.0 375388.0 0
408860.0 375068.0 0
413438.0 375164.0 0
422388.0 375454.0 0
418145.0 375160.0 0
426642.0 375589.0 0
430362.0 375225.0 0
434429.0 375426.0 0
438797.0 375059.0 0
443344.0 375191.0 0
441569.0 377227.0 0
446752.0 375142.0 0
451946.0 375339.0 0
456824.0 375501.0 0
461900.0 375528.0 0
466271.0 375538.0 0
470874.0 375525.0 0
474869.0 375406.0 0
479791.0 375362.0 0
484446.0 375558.0 0
488138.0 375322.0 0
492913.0 375198.0 0
497827.0 375515.0 0
4038.29 378784.0 0
1265.04 378742.0 0
7706.9 378096.0 0
9976.99 380750.0 0
12048.5 378266.0 0
13774.0 382238.0 0
16026.6 379079.0 0
20515.0 378558.0 0
25080.2 378193.0 0
23176.6 382178.0 0
26720.2 380793.0 0
28833.8 378046.0 0
29150.9 382386.0 0
33722.6 377682.0 0
31493.7 380136.0 0
36770.1 379773.0 0
40229.3 379967.0 0
44034.9 378188.0 0
43356.9 381463.0 0
47675.6 378197.0 0
50793.8 379678.0 0
47136.9 381628.0 0
54846.0 379206.0 0
59071.2 378061.0 0
58406.8 382262.0 0
63408.3 379819.0 0
67248.0 378526.0 0
69135.6 380670.0 0
70620.1 377980.0 0
71961.3 381948.0 0
73441.1 378757.0 0
76309.0 380503.0 0
77746.2 378029.0 0
81003.7 378778.0 0
84944.6 379080.0 0
83762.6 382469.0 0
89277.8 379711.0 0
93036.2 377708.0 0
94526.4 381522.0 0
97882.1 378476.0 0
101532.0 379239.0 0
98882.4 382308.0 0
105206.0 379189.0 0
109250.0 379092.0 0
113072.0 379200.0 0
117011.0 379531.0 0
120601.0 380336.0 0
125024.0 380098.0 0
129311.0 379012.0 0
132355.0 378762.0 0
132317.0 381755.0 0
129144.0 382176.0 0
134555.0 378836.0 0
136439.0 381784.0 0
141381.0 377724.0 0
137749.0 378337.0 0
140398.0 381202.0 0
144119.0 379437.0 0
146704.0 377746.0 0
147839.0 381284.0 0
151512.0 378926.0 0
155711.0 378069.0 0
155541.0 381560.0 0
163229.0 378198.0 0
159016.0 379129.0 0
161733.0 381197.0 0
167005.0 378397.0 0
165073.0 381370.0 0
168508.0 381997.0 0
170167.0 378900.0 0
173741.0 379025.0 0
177248.0 378271.0 0
179525.0 379414.0 0
181622.0 381883.0 0
183058.0 378464.0 0
184682.0 381568.0 0
187204.0 379300.0 0
190776.0 380730.0 0
193128.0 378155.0 0
195221.0 380118.0 0
198936.0 379906.0 0
199552.0 383004.0 0
204666.0 371814.0 0
208958.0 374194.0 0
213534.0 372061.0 0
225759.0 372049.0 0
230741.0 371754.0 0
236520.0 371417.0 0
242381.0 371354.0 0
247901.0 372762.0 0
252046.0 371270.0 0
256534.0 371070.0 0
266160.0 373562.0 0
271274.0 371009.0 0
276404.0 373064.0 0
281975.0 371963.0 0
287124.0 373967.0 0
292000.0 374923.0 0
301052.0 379263.0 0
305517.0 381155.0 0
304175.0 377834.0 0
310075.0 379065.0 0
307069.0 377999.0 0
314206.0 376406.0 0
313807.0 380424.0 0
317989.0 376622.0 0
321285.0 380032.0 0
321926.0 375710.0 0
325103.0 375941.0 0
323869.0 378494.0 0
326584.0 379075.0 0
328364.0 375601.0 0
327461.0 381500.0 0
330275.0 379427.0 0
334410.0 378828.0 0
338181.0 378186.0 0
338289.0 381317.0 0
345256.0 380216.0 0
349829.0 380471.0 0
354115.0 380081.0 0
358325.0 378190.0 0
358524.0 381864.0 0
362499.0 379831.0 0
366478.0 375978.0 0
371358.0 375256.0 0
370518.0 379009.0 0
374038.0 377190.0 0
373726.0 380791.0 0
381851.0 379069.0 0
377781.0 380002.0 0
384937.0 375573.0 0
385757.0 378885.0 0
389173.0 376154.0 0
396490.0 382009.0 0
393130.0 379740.0 0
398327.0 378777.0 0
401155.0 382044.0 0
406790.0 377942.0 0
402641.0 378278.0 0
404841.0 380601.0 0
410892.0 377528.0 0
409157.0 381258.0 0
415986.0 377795.0 0
413191.0 380022.0 0
417239.0 382270.0 0
420028.0 378899.0 0
422152.0 382379.0 0
428113.0 379205.0 0
424359.0 379189.0 0
431482.0 378246.0 0
431281.0 380856.0 0
433252.0 380979.0 0
429316.0 382510.0 0
435027.0 378734.0 0
437762.0 378302.0 0
436588.0 382043.0 0
440218.0 380504.0 0
444846.0 379128.0 0
448776.0 382386.0 0
448953.0 377862.0 0
452487.0 379516.0 0
455421.0 379046.0 0
457325.0 381993.0 0
459829.0 378989.0 0
461443.0 381993.0 0
464215.0 379555.0 0
468774.0 379027.0 0
467098.0 382579.0 0
471722.0 381999.0 0
473215.0 378759.0 0
476758.0 378592.0 0
476000.0 382451.0 0
482652.0 378477.0 0
479843.0 380598.0 0
484296.0 382484.0 0
486369.0 378720.0 0
488624.0 382458.0 0
490120.0 378779.0 0
494669.0 379222.0 0
498628.0 379162.0 0
1375.01 381495.0 0
1863.79 384913.0 0
5610.36 382342.0 0
9995.62 384207.0 0
14354.3 386356.0 0
18367.7 383314.0 0
18981.4 387294.0 0
22672.7 386111.0 0
26340.8 384538.0 0
30464.1 385813.0 0
34424.2 383162.0 0
34411.0 387484.0 0
38457.3 382643.0 0
37994.4 386205.0 0
44501.9 384013.0 0
41013.9 383785.0 0
40773.1 386867.0 0
43644.8 387364.0 0
50391.1 382707.0 0
48050.6 385495.0 0
53758.7 382710.0 0
51708.1 385254.0 0
54855.7 387246.0 0
56152.0 384497.0 0
59035.2 386292.0 0
62672.5 384461.0 0
66239.6 386967.0 0
67022.5 383091.0 0
70371.5 385354.0 0
75136.0 384480.0 0
79837.4 382748.0 0
78987.3 387118.0 0
83489.2 386278.0 0
86967.4 383102.0 0
90964.5 384030.0 0
87467.3 386388.0 0
95583.8 385703.0 0
100013.0 385885.0 0
102692.0 382738.0 0
104668.0 386154.0 0
107290.0 382998.0 0
111632.0 382943.0 0
109418.0 386470.0 0
115281.0 382782.0 0
114355.0 387014.0 0
118803.0 384367.0 0
126356.0 384825.0 0
122424.0 383517.0 0
122595.0 386819.0 0
130448.0 384380.0 0
129906.0 387669.0 0
134265.0 385785.0 0
139773.0 385800.0 0
144102.0 382794.0 0
144752.0 386437.0 0
151697.0 383391.0 0
148212.0 385017.0 0
151488.0 387322.0 0
155922.0 385873.0 0
159199.0 382592.0 0
162750.0 383717.0 0
160434.0 385834.0 0
166014.0 385355.0 0
171874.0 383141.0 0
173591.0 386398.0 0
169729.0 386720.0 0
176800.0 382908.0 0
180648.0 385878.0 0
184178.0 384345.0 0
187742.0 384068.0 0
191236.0 384803.0 0
193506.0 382962.0 0
196548.0 383274.0 0
194396.0 386898.0 0
199020.0 386715.0 0
295743.0 376759.0 0
300834.0 383425.0 0
304608.0 384550.0 0
306236.0 386548.0 0
309629.0 383536.0 0
313643.0 384037.0 0
317757.0 382483.0 0
324391.0 381658.0 0
321837.0 384739.0 0
326677.0 385688.0 0
330144.0 382971.0 0
334356.0 383261.0 0
341341.0 383080.0 0
338196.0 384760.0 0
344792.0 384901.0 0
348475.0 383918.0 0
352028.0 383868.0 0
355920.0 384233.0 0
353724.0 386467.0 0
360450.0 384992.0 0
364318.0 383518.0 0
367328.0 380740.0 0
367739.0 384711.0 0
370809.0 383293.0 0
375474.0 385478.0 0
380241.0 383434.0 0
384287.0 382452.0 0
383026.0 386029.0 0
388761.0 381485.0 0
392874.0 385339.0 0
398027.0 385298.0 0
402016.0 385948.0 0
405557.0 384624.0 0
409601.0 385198.0 0
413170.0 383888.0 0
416229.0 386625.0 0
420169.0 385481.0 0
425803.0 383066.0 0
424218.0 386813.0 0
432905.0 384061.0 0
428699.0 386473.0 0
436938.0 385960.0 0
439852.0 384091.0 0
443527.0 383201.0 0
446305.0 386732.0 0
453506.0 382773.0 0
451372.0 386129.0 0
456095.0 386419.0 0
463883.0 383510.0 0
460131.0 384557.0 0
462684.0 386215.0 0
466652.0 386620.0 0
469832.0 384957.0 0
473321.0 386172.0 0
477367.0 385884.0 0
480267.0 384280.0 0
483894.0 386369.0 0
488515.0 386774.0 0
492696.0 382743.0 0
493994.0 386544.0 0
497816.0 382726.0 0
498358.0 386543.0 0
1877.86 388907.0 0
6121.53 387243.0 0
8722.95 390363.0 0
5489.4 391973.0 0
10270.5 387749.0 0
12006.7 390451.0 0
16421.4 390983.0 0
22268.5 390676.0 0
26522.6 388433.0 0
31448.0 390852.0 0
36772.5 390474.0 0
40470.7 389704.0 0
43902.4 391877.0 0
47197.7 389545.0 0
51006.0 388681.0 0
54017.6 391076.0 0
58313.2 390240.0 0
62549.2 388885.0 0
69706.0 388796.0 0
66342.4 391606.0 0
71180.7 392062.0 0
74129.3 388708.0 0
75556.7 392841.0 0
78189.6 390504.0 0
82084.8 389968.0 0
86252.7 389473.0 0
84662.0 392580.0 0
91189.7 388742.0 0
88354.4 392628.0 0
96774.7 389880.0 0
101741.0 389690.0 0
106835.0 389770.0 0
110977.0 389888.0 0
116475.0 390738.0 0
113343.0 392010.0 0
119187.0 388600.0 0
119547.0 391844.0 0
126117.0 389581.0 0
122609.0 391055.0 0
129803.0 391893.0 0
137026.0 389619.0 0
133125.0 389804.0 0
142754.0 390178.0 0
147866.0 388784.0 0
147357.0 392674.0 0
151358.0 390954.0 0
154374.0 389604.0 0
158999.0 390030.0 0
162848.0 391477.0 0
163297.0 388094.0 0
166819.0 390335.0 0
172116.0 390659.0 0
176420.0 388029.0 0
176486.0 391577.0 0
180397.0 390137.0 0
185183.0 388353.0 0
188100.0 391744.0 0
189626.0 387759.0 0
192655.0 390693.0 0
197946.0 391349.0 0
301917.0 387614.0 0
305863.0 389894.0 0
301307.0 391406.0 0
308849.0 387607.0 0
310265.0 390217.0 0
315473.0 386249.0 0
312243.0 386953.0 0
314738.0 390375.0 0
318868.0 387827.0 0
323287.0 389857.0 0
328758.0 391091.0 0
331812.0 387320.0 0
333826.0 391652.0 0
336357.0 387941.0 0
340708.0 387441.0 0
338189.0 391695.0 0
344642.0 388461.0 0
342483.0 391585.0 0
347149.0 387050.0 0
350185.0 387250.0 0
347525.0 391053.0 0
356910.0 388042.0 0
352888.0 390847.0 0
361452.0 389787.0 0
365148.0 386997.0 0
366027.0 390414.0 0
370282.0 388353.0 0
374428.0 390023.0 0
379948.0 387752.0 0
377541.0 390355.0 0
380474.0 391149.0 0
387177.0 386498.0 0
383351.0 389520.0 0
386236.0 391122.0 0
390586.0 390448.0 0
396823.0 388513.0 0
394649.0 389543.0 0
400491.0 388952.0 0
398080.0 391987.0 0
404271.0 388779.0 0
406404.0 391237.0 0
408049.0 388543.0 0
412287.0 388061.0 0
410388.0 392603.0 0
415528.0 391353.0 0
419533.0 389213.0 0
427007.0 390197.0 0
423269.0 391230.0 0
430096.0 390030.0 0
433147.0 387920.0 0
437197.0 389919.0 0
433300.0 392130.0 0
441612.0 387858.0 0
440684.0 391922.0 0
445268.0 391689.0 0
449222.0 389525.0 0
453205.0 390098.0 0
457194.0 390619.0 0
460000.0 388005.0 0
460586.0 391167.0 0
464016.0 389568.0 0
468127.0 391155.0 0
470211.0 388110.0 0
472708.0 390396.0 0
475969.0 388588.0 0
477256.0 392388.0 0
480414.0 388397.0 0
481675.0 391917.0 0
484772.0 389539.0 0
488214.0 390706.0 0
492335.0 390513.0 0
497733.0 390423.0 0
1433.27 392572.0 0
2742.57 396812.0 0
9624.14 393333.0 0
7430.42 395908.0 0
12864.8 394114.0 0
19686.7 393662.0 0
22244.9 395845.0 0
26365.9 393159.0 0
31077.0 396158.0 0
35600.1 394277.0 0
39824.8 393513.0 0
37670.4 395943.0 0
43956.4 395666.0 0
49756.7 393965.0 0
46732.6 397750.0 0
53547.8 397538.0 0
56633.2 394308.0 0
60884.8 396651.0 0
61700.1 392990.0 0
65097.2 395646.0 0
69137.2 395391.0 0
72968.3 394945.0 0
76459.7 396705.0 0
80315.0 394281.0 0
85015.2 396736.0 0
89541.9 396052.0 0
93259.7 393285.0 0
96002.3 395756.0 0
99119.2 394118.0 0
104281.0 394127.0 0
109362.0 393359.0 0
107350.0 397613.0 0
117059.0 394166.0 0
112845.0 396467.0 0
121917.0 395462.0 0
126285.0 393749.0 0
129833.0 395504.0 0
134081.0 393905.0 0
139042.0 393097.0 0
138170.0 397505.0 0
143364.0 395578.0 0
147723.0 396213.0 0
151398.0 394637.0 0
155503.0 392865.0 0
155329.0 396758.0 0
160167.0 394625.0 0
164603.0 393930.0 0
168808.0 394512.0 0
174408.0 395795.0 0
178899.0 393501.0 0
183415.0 393141.0 0
179948.0 396423.0 0
187236.0 395920.0 0
183906.0 397133.0 0
191356.0 394906.0 0
194760.0 394211.0 0
196783.0 395857.0 0
194484.0 397594.0 0
199391.0 395345.0 0
304889.0 393496.0 0
301475.0 396092.0 0
308254.0 392983.0 0
311597.0 393759.0 0
315664.0 394594.0 0
318904.0 392059.0 0
319301.0 396174.0 0
322183.0 393969.0 0
325841.0 394323.0 0
331044.0 395880.0 0
335937.0 395357.0 0
340280.0 395117.0 0
344810.0 395071.0 0
349826.0 395106.0 0
354375.0 395378.0 0
357337.0 392084.0 0
360973.0 393737.0 0
358618.0 395258.0 0
364447.0 393710.0 0
368651.0 393168.0 0
372602.0 392869.0 0
375765.0 392728.0 0
375542.0 396589.0 0
378789.0 393715.0 0
383128.0 394095.0 0
388036.0 394336.0 0
392280.0 394907.0 0
394623.0 392437.0 0
396300.0 395352.0 0
400159.0 395454.0 0
402789.0 392737.0 0
406508.0 394561.0 0
414027.0 395991.0 0
419578.0 394421.0 0
426282.0 393412.0 0
423896.0 395262.0 0
427457.0 396935.0 0
429324.0 393266.0 0
432150.0 396154.0 0
437048.0 394550.0 0
442344.0 395520.0 0
439114.0 397242.0 0
446944.0 396120.0 0
449984.0 393300.0 0
451974.0 397213.0 0
454769.0 393828.0 0
458850.0 394215.0 0
461209.0 396494.0 0
463755.0 393723.0 0
467499.0 395147.0 0
464653.0 397638.0 0
471845.0 394436.0 0
476490.0 397000.0 0
481508.0 395865.0 0
485324.0 393262.0 0
485983.0 396870.0 0
490030.0 394672.0 0
498835.0 393836.0 0
495197.0 393963.0 0
498252.0 396966.0 0
7713.77 400045.0 0
11052.2 397284.0 0
12214.2 401735.0 0
16559.4 397527.0 0
21542.8 400237.0 0
26049.0 397931.0 0
30289.7 401376.0 0
25400.2 402209.0 0
35532.9 398905.0 0
40278.5 397827.0 0
39613.6 402672.0 0
44366.4 401017.0 0
49895.5 400478.0 0
54943.3 401970.0 0
57540.6 398438.0 0
60579.5 401868.0 0
63999.8 399230.0 0
68266.0 399916.0 0
72748.5 398173.0 0
76092.4 399920.0 0
73045.5 402408.0 0
80138.3 399349.0 0
77441.7 403004.0 0
84335.6 401487.0 0
88809.0 400258.0 0
93469.2 398623.0 0
97715.9 398234.0 0
101800.0 399048.0 0
97430.3 402098.0 0
105218.0 401796.0 0
110534.0 401904.0 0
115056.0 400379.0 0
117811.0 398066.0 0
121730.0 400546.0 0
117987.0 401720.0 0
126910.0 398756.0 0
129597.0 402717.0 0
132843.0 399034.0 0
137863.0 401829.0 0
142463.0 400358.0 0
146262.0 399092.0 0
150656.0 399228.0 0
154713.0 400557.0 0
159246.0 399331.0 0
164543.0 398304.0 0
166537.0 402200.0 0
169508.0 399220.0 0
173396.0 400409.0 0
177474.0 399846.0 0
182073.0 400095.0 0
186404.0 399901.0 0
190597.0 398976.0 0
198314.0 398844.0 0
194639.0 402154.0 0
199105.0 402441.0 0
302552.0 400431.0 0
307496.0 397579.0 0
312601.0 397138.0 0
316173.0 398538.0 0
311814.0 401126.0 0
320170.0 399970.0 0
323117.0 397334.0 0
324733.0 401392.0 0
326880.0 397759.0 0
329632.0 400441.0 0
334438.0 400058.0 0
338272.0 398373.0 0
342181.0 398786.0 0
347130.0 399211.0 0
351976.0 399520.0 0
357322.0 399454.0 0
361387.0 400382.0 0
362308.0 397126.0 0
366615.0 396936.0 0
365031.0 401229.0 0
371052.0 396647.0 0
369129.0 399663.0 0
373130.0 400865.0 0
379824.0 397506.0 0
377412.0 400873.0 0
381451.0 401525.0 0
383026.0 398654.0 0
386054.0 397671.0 0
385812.0 402069.0 0
390199.0 398801.0 0
394376.0 397702.0 0
394423.0 401188.0 0
398424.0 399059.0 0
402064.0 401969.0 0
403873.0 397938.0 0
409466.0 398308.0 0
411062.0 402456.0 0
413947.0 400518.0 0
417549.0 398554.0 0
422467.0 399042.0 0
426789.0 401070.0 0
430729.0 399665.0 0
429684.0 402373.0 0
435743.0 399790.0 0
440478.0 399182.0 0
440366.0 402705.0 0
444013.0 399639.0 0
448627.0 400460.0 0
453612.0 401552.0 0
456878.0 398202.0 0
457619.0 402716.0 0
461153.0 400102.0 0
465734.0 401691.0 0
468616.0 398650.0 0
472281.0 399001.0 0
475176.0 401365.0 0
484045.0 399794.0 0
479602.0 400513.0 0
489209.0 399181.0 0
493919.0 397933.0 0
490327.0 402401.0 0
493324.0 401714.0 0
497706.0 400716.0 0
2845.51 402575.0 0
8114.69 405165.0 0
13216.1 407056.0 0
17330.2 403119.0 0
18217.7 407024.0 0
22124.0 405063.0 0
27058.7 405799.0 0
31013.0 405915.0 0
34959.2 403849.0 0
38500.9 407716.0 0
43456.5 406543.0 0
47321.4 404493.0 0
51165.0 405143.0 0
54937.3 406015.0 0
58288.1 405178.0 0
64823.7 403158.0 0
62685.8 407284.0 0
68731.4 405429.0 0
74536.9 406861.0 0
80945.7 403276.0 0
79333.9 406444.0 0
83827.2 405772.0 0
88106.3 404471.0 0
91380.4 406636.0 0
92780.9 403128.0 0
96217.9 406557.0 0
101420.0 404640.0 0
106542.0 405755.0 0
111403.0 407140.0 0
115290.0 404240.0 0
119716.0 404772.0 0
125028.0 404677.0 0
129905.0 407433.0 0
133688.0 403851.0 0
134556.0 407654.0 0
142157.0 404482.0 0
138137.0 406154.0 0
146998.0 403087.0 0
145563.0 407183.0 0
151976.0 403976.0 0
149892.0 407646.0 0
157058.0 403924.0 0
162541.0 403497.0 0
159303.0 407530.0 0
166389.0 405301.0 0
170290.0 404121.0 0
175103.0 403711.0 0
177359.0 406704.0 0
179810.0 403477.0 0
181827.0 407714.0 0
184626.0 403570.0 0
187446.0 407630.0 0
189423.0 403306.0 0
193006.0 407649.0 0
198082.0 405853.0 0
301638.0 404914.0 0
305066.0 407424.0 0
307157.0 403435.0 0
312072.0 406442.0 0
316367.0 403001.0 0
321057.0 404408.0 0
324680.0 405751.0 0
328041.0 404435.0 0
331464.0 407304.0 0
332050.0 403187.0 0
335547.0 404874.0 0
338866.0 402271.0 0
343796.0 403500.0 0
349246.0 404068.0 0
354432.0 403954.0 0
360330.0 404795.0 0
365382.0 406691.0 0
369435.0 403709.0 0
375495.0 404878.0 0
372220.0 406211.0 0
379217.0 404387.0 0
382711.0 405580.0 0
390350.0 403298.0 0
387351.0 406949.0 0
391758.0 406731.0 0
394207.0 404736.0 0
398191.0 404173.0 0
399574.0 407161.0 0
406637.0 402831.0 0
402745.0 406113.0 0
407033.0 406082.0 0
410540.0 406441.0 0
413944.0 403829.0 0
415603.0 407737.0 0
418132.0 402902.0 0
420278.0 406616.0 0
423397.0 403923.0 0
428199.0 405406.0 0
432417.0 403197.0 0
432468.0 407177.0 0
436215.0 404689.0 0
442844.0 407066.0 0
439707.0 406603.0 0
444986.0 404004.0 0
450274.0 405340.0 0
454832.0 404952.0 0
458272.0 406910.0 0
461773.0 404206.0 0
466127.0 406129.0 0
470886.0 403813.0 0
473496.0 407745.0 0
477221.0 404955.0 0
482144.0 404079.0 0
486640.0 403068.0 0
485059.0 406683.0 0
491034.0 407106.0 0
495438.0 404319.0 0
498574.0 404296.0 0
3195.89 408230.0 0
1600.06 412319.0 0
8508.65 409803.0 0
12576.0 412335.0 0
17343.2 411086.0 0
20961.4 408747.0 0
24728.7 409138.0 0
21789.7 412127.0 0
29807.6 410436.0 0
34033.1 408111.0 0
35589.2 412377.0 0
44367.8 410807.0 0
40717.3 411875.0 0
48190.9 408894.0 0
47146.8 412741.0 0
52908.1 409240.0 0
55810.1 412710.0 0
57542.9 408740.0 0
59978.1 411404.0 0
63645.8 412950.0 0
66829.8 409981.0 0
71016.4 409732.0 0
74010.8 411016.0 0
77708.4 410341.0 0
82311.0 409833.0 0
84948.2 412868.0 0
87504.3 409182.0 0
92539.4 410115.0 0
100073.0 408538.0 0
97226.2 411099.0 0
101476.0 412427.0 0
103882.0 408871.0 0
106168.0 412788.0 0
107860.0 409357.0 0
111510.0 412180.0 0
116605.0 408740.0 0
121543.0 408376.0 0
121465.0 412256.0 0
125492.0 410127.0 0
129765.0 412764.0 0
133506.0 410630.0 0
137485.0 410321.0 0
141655.0 409020.0 0
147092.0 411227.0 0
143630.0 411683.0 0
151762.0 411700.0 0
154655.0 408168.0 0
155968.0 412047.0 0
160182.0 411453.0 0
163637.0 408235.0 0
164738.0 412386.0 0
173315.0 408010.0 0
168632.0 409381.0 0
172696.0 412938.0 0
177113.0 410541.0 0
181016.0 412194.0 0
184760.0 411192.0 0
189024.0 412594.0 0
198115.0 410296.0 0
193923.0 413019.0 0
301664.0 409822.0 0
305818.0 410975.0 0
308225.0 407996.0 0
309939.0 411090.0 0
313965.0 410482.0 0
317356.0 407752.0 0
322170.0 408854.0 0
326769.0 408939.0 0
335516.0 409830.0 0
339946.0 407547.0 0
344455.0 407727.0 0
343653.0 411493.0 0
347986.0 409149.0 0
351997.0 407686.0 0
356520.0 408945.0 0
352138.0 411838.0 0
361868.0 410585.0 0
366415.0 410871.0 0
369395.0 408416.0 0
373810.0 409712.0 0
378779.0 408494.0 0
383521.0 409782.0 0
391107.0 409677.0 0
387852.0 411909.0 0
395903.0 408688.0 0
400897.0 409903.0 0
406255.0 409946.0 0
411805.0 411503.0 0
419899.0 410254.0 0
424619.0 409076.0 0
429105.0 409542.0 0
432560.0 412219.0 0
436585.0 409078.0 0
437112.0 412677.0 0
441573.0 411200.0 0
446017.0 408487.0 0
449748.0 410071.0 0
454125.0 409005.0 0
460124.0 410779.0 0
462640.0 408006.0 0
464188.0 411519.0 0
469066.0 410141.0 0
474079.0 411651.0 0
476974.0 409097.0 0
478300.0 412083.0 0
481078.0 408473.0 0
482305.0 413023.0 0
486033.0 410664.0 0
494061.0 411683.0 0
490063.0 413044.0 0
497400.0 408275.0 0
497935.0 413007.0 0
2404.79 416361.0 0
5445.72 412890.0 0
8958.93 413985.0 0
11868.9 416966.0 0
19541.1 414501.0 0
16244.8 415707.0 0
22566.0 415911.0 0
25627.3 413156.0 0
28531.2 414144.0 0
27250.7 417878.0 0
31633.1 415404.0 0
35368.7 417191.0 0
39357.7 416049.0 0
43912.2 415088.0 0
48195.0 415994.0 0
51042.7 413177.0 0
54203.9 417526.0 0
59391.8 415533.0 0
63705.4 417744.0 0
69422.9 415095.0 0
75417.1 414368.0 0
74321.1 418513.0 0
80418.4 414591.0 0
84974.0 416661.0 0
82084.5 418024.0 0
89245.2 414281.0 0
94198.5 413828.0 0
93334.9 418522.0 0
98199.8 415788.0 0
103366.0 417570.0 0
108976.0 416837.0 0
116793.0 413939.0 0
113134.0 416616.0 0
120913.0 417068.0 0
125324.0 415121.0 0
135472.0 415434.0 0
140547.0 413353.0 0
144482.0 415045.0 0
148902.0 415355.0 0
153713.0 416103.0 0
158224.0 415168.0 0
161916.0 415154.0 0
165319.0 416264.0 0
168388.0 414177.0 0
170926.0 417263.0 0
177741.0 415738.0 0
183998.0 415685.0 0
188306.0 417048.0 0
191496.0 416071.0 0
198087.0 415450.0 0
194384.0 417084.0 0
301934.0 413953.0 0
306932.0 415660.0 0
312694.0 414664.0 0
318573.0 413263.0 0
324456.0 412832.0 0
322358.0 417048.0 0
330566.0 412452.0 0
327381.0 416592.0 0
335151.0 414053.0 0
332459.0 417478.0 0
339267.0 412745.0 0
343415.0 416039.0 0
347695.0 413928.0 0
352038.0 416517.0 0
357358.0 414412.0 0
362310.0 415178.0 0
366873.0 414989.0 0
369979.0 411934.0 0
372080.0 415799.0 0
376610.0 413257.0 0
380496.0 412408.0 0
380090.0 416253.0 0
384068.0 414385.0 0
388444.0 417199.0 0
393065.0 413875.0 0
398106.0 412754.0 0
397482.0 417029.0 0
402580.0 414845.0 0
408353.0 415379.0 0
416698.0 413044.0 0
413389.0 416662.0 0
422379.0 414729.0 0
418013.0 417165.0 0
427566.0 413331.0 0
430514.0 417408.0 0
435489.0 416003.0 0
439295.0 415102.0 0
443145.0 416440.0 0
446599.0 413076.0 0
451912.0 414075.0 0
456683.0 412827.0 0
456026.0 417151.0 0
461078.0 415431.0 0
466488.0 415205.0 0
471298.0 415185.0 0
479298.0 415338.0 0
475803.0 415429.0 0
482399.0 417214.0 0
486268.0 415264.0 0
490311.0 417400.0 0
494354.0 415561.0 0
498002.0 416913.0 0
2692.33 421386.0 0
7133.75 418046.0 0
7145.68 422505.0 0
10847.0 421319.0 0
15079.8 420079.0 0
19569.1 419006.0 0
18242.1 422858.0 0
23362.8 419511.0 0
32211.2 419986.0 0
37895.7 421224.0 0
42061.6 418924.0 0
45991.5 419192.0 0
49909.4 418894.0 0
48879.8 422968.0 0
59218.6 420312.0 0
63760.7 422663.0 0
67152.0 420165.0 0
70912.6 420581.0 0
78715.2 420031.0 0
83654.4 420891.0 0
88194.9 419723.0 0
98401.0 421521.0 0
103259.0 422682.0 0
107413.0 421554.0 0
112152.0 420790.0 0
116385.0 418890.0 0
115936.0 422884.0 0
120191.0 421845.0 0
124761.0 420424.0 0
129944.0 418679.0 0
135483.0 421801.0 0
140836.0 418461.0 0
139766.0 422199.0 0
145946.0 419104.0 0
143368.0 423218.0 0
150021.0 418996.0 0
157689.0 418981.0 0
153584.0 421347.0 0
162068.0 419097.0 0
167223.0 420045.0 0
172244.0 422192.0 0
174192.0 418383.0 0
177020.0 420700.0 0
181126.0 419303.0 0
185781.0 420943.0 0
191400.0 420323.0 0
197229.0 420794.0 0
301994.0 417889.0 0
302452.0 422311.0 0
311179.0 418981.0 0
306966.0 420873.0 0
316118.0 418732.0 0
320407.0 421501.0 0
324800.0 420393.0 0
329233.0 421276.0 0
334144.0 422232.0 0
338158.0 417944.0 0
343084.0 421339.0 0
347631.0 418691.0 0
351941.0 421513.0 0
355902.0 419171.0 0
360172.0 419002.0 0
364223.0 418487.0 0
368400.0 419902.0 0
376417.0 417308.0 0
373765.0 421314.0 0
379169.0 420678.0 0
383754.0 419183.0 0
393392.0 420093.0 0
400594.0 420019.0 0
405373.0 419566.0 0
410121.0 420107.0 0
416083.0 421293.0 0
421167.0 420061.0 0
425641.0 418904.0 0
428703.0 421858.0 0
434606.0 419796.0 0
439008.0 419461.0 0
443789.0 421437.0 0
448091.0 418044.0 0
448544.0 423098.0 0
452403.0 418190.0 0
454239.0 422508.0 0
459290.0 420261.0 0
464153.0 419865.0 0
469077.0 419471.0 0
473871.0 419214.0 0
478299.0 418673.0 0
476985.0 422926.0 0
481655.0 421595.0 0
486189.0 419907.0 0
494033.0 419426.0 0
490505.0 422695.0 0
494684.0 423113.0 0
497858.0 421000.0 0
1105.58 425056.0 0
4746.32 426370.0 0
1146.58 427600.0 0
9664.92 425881.0 0
14259.8 424776.0 0
19190.9 427799.0 0
22616.3 423218.0 0
24901.9 427816.0 0
28035.4 423380.0 0
33447.1 424692.0 0
38019.1 426416.0 0
43300.3 423231.0 0
42187.7 428022.0 0
46477.2 427162.0 0
54463.6 423298.0 0
51234.6 427757.0 0
59599.7 425482.0 0
55829.4 428248.0 0
64303.0 427757.0 0
68773.4 424739.0 0
74539.3 423509.0 0
72632.1 428212.0 0
80879.7 424697.0 0
77230.9 427569.0 0
86724.3 425396.0 0
91284.5 428340.0 0
92400.0 423859.0 0
96364.1 426784.0 0
101016.0 426111.0 0
105937.0 426464.0 0
110430.0 424917.0 0
114411.0 426735.0 0
118416.0 425537.0 0
122551.0 425791.0 0
128679.0 425400.0 0
134316.0 426484.0 0
139265.0 425165.0 0
142322.0 427922.0 0
145882.0 426581.0 0
148609.0 423315.0 0
148742.0 427420.0 0
153047.0 426869.0 0
158591.0 424123.0 0
163026.0 427977.0 0
163688.0 423203.0 0
167784.0 425330.0 0
176464.0 424980.0 0
180968.0 423582.0 0
185210.0 426228.0 0
189229.0 424405.0 0
193534.0 425121.0 0
198076.0 426044.0 0
302015.0 426903.0 0
311042.0 423575.0 0
306383.0 425048.0 0
309538.0 427713.0 0
315836.0 423344.0 0
314086.0 427767.0 0
319431.0 426732.0 0
325166.0 425256.0 0
330703.0 425939.0 0
336108.0 426859.0 0
338582.0 423280.0 0
347715.0 423626.0 0
351799.0 426658.0 0
357067.0 424047.0 0
363512.0 423505.0 0
369661.0 425753.0 0
377830.0 426598.0 0
382950.0 423773.0 0
385339.0 427643.0 0
388205.0 423035.0 0
392858.0 424785.0 0
397535.0 423816.0 0
400228.0 428055.0 0
402835.0 424118.0 0
407414.0 423543.0 0
403728.0 427784.0 0
412004.0 424786.0 0
407567.0 428216.0 0
416302.0 427335.0 0
419910.0 424492.0 0
424606.0 423634.0 0
428556.0 425620.0 0
433324.0 424178.0 0
439382.0 424857.0 0
444828.0 426783.0 0
456560.0 427611.0 0
461747.0 425181.0 0
466822.0 423628.0 0
471739.0 423900.0 0
481029.0 426236.0 0
485588.0 424523.0 0
489018.0 427492.0 0
484875.0 428474.0 0
493611.0 426622.0 0
497840.0 425370.0 0
2401.3 430845.0 0
7780.78 430580.0 0
12899.3 429746.0 0
22259.6 432328.0 0
29803.2 428222.0 0
27262.8 432662.0 0
34427.2 429759.0 0
38920.5 430812.0 0
42647.3 432163.0 0
47800.6 432633.0 0
53678.6 432235.0 0
59943.5 430860.0 0
65293.6 432981.0 0
68500.6 429569.0 0
71214.7 432499.0 0
75605.6 431890.0 0
82194.2 430410.0 0
87752.6 430738.0 0
94574.2 431478.0 0
99731.6 430703.0 0
105053.0 431851.0 0
110306.0 429892.0 0
114911.0 430995.0 0
119319.0 429723.0 0
124377.0 430050.0 0
132707.0 430457.0 0
128430.0 431367.0 0
137679.0 429233.0 0
141394.0 432601.0 0
146441.0 431006.0 0
151311.0 431438.0 0
157877.0 430183.0 0
167351.0 430188.0 0
163694.0 432787.0 0
172522.0 428467.0 0
177006.0 428437.0 0
176994.0 432062.0 0
180664.0 428780.0 0
184627.0 430695.0 0
189872.0 429715.0 0
195344.0 429431.0 0
198303.0 432171.0 0
305760.0 429535.0 0
301697.0 430930.0 0
317327.0 431557.0 0
323174.0 430275.0 0
327947.0 430121.0 0
332791.0 430220.0 0
341953.0 427666.0 0
337517.0 432294.0 0
346136.0 431362.0 0
347343.0 427711.0 0
350580.0 431870.0 0
355453.0 430512.0 0
360397.0 428803.0 0
365297.0 429027.0 0
368872.0 430735.0 0
373153.0 430516.0 0
377912.0 431776.0 0
381891.0 431095.0 0
390098.0 428172.0 0
386847.0 432422.0 0
395309.0 428742.0 0
392019.0 432878.0 0
398938.0 432732.0 0
403583.0 431238.0 0
412353.0 429953.0 0
416940.0 432630.0 0
420602.0 428873.0 0
422579.0 433383.0 0
425514.0 428824.0 0
431061.0 429633.0 0
435995.0 428677.0 0
435127.0 433399.0 0
440574.0 430425.0 0
446558.0 431438.0 0
450869.0 428191.0 0
454855.0 432395.0 0
459302.0 431045.0 0
463507.0 430285.0 0
468317.0 428436.0 0
471765.0 433317.0 0
475630.0 428569.0 0
481411.0 431134.0 0
486506.0 433045.0 0
492541.0 431730.0 0
497625.0 429705.0 0
4885.01 433771.0 0
10866.1 435590.0 0
17010.6 433649.0 0
32433.3 434682.0 0
37773.0 435372.0 0
57550.0 435602.0 0
78922.3 435028.0 0
85826.0 433804.0 0
90493.2 434058.0 0
96001.8 436323.0 0
101308.0 435915.0 0
108425.0 434985.0 0
112687.0 434653.0 0
117447.0 434364.0 0
121888.0 433554.0 0
125709.0 434248.0 0
136250.0 434815.0 0
154609.0 434767.0 0
159748.0 435243.0 0
167750.0 434625.0 0
172531.0 434323.0 0
181538.0 433593.0 0
186478.0 434705.0 0
194014.0 434614.0 0
304529.0 434552.0 0
310761.0 433087.0 0
321146.0 434748.0 0
325561.0 433706.0 0
342517.0 433627.0 0
359147.0 433676.0 0
370305.0 433958.0 0
375607.0 434280.0 0
408586.0 433493.0 0
427630.0 433543.0 0
443384.0 434833.0 0
450275.0 433515.0 0
461929.0 435067.0 0
466663.0 433460.0 0
477412.0 434244.0 0
481996.0 435429.0 0
490414.0 436631.0 0
494624.0 436330.0 0
497928.0 434098.0 0
POINT_DATA 5000
SCALARS Radius float 1
LOOKUP_TABLE default
4796.58 3979.26 3471.03 5253.55 5782.6 4862.21 5379.87 4792.73 3485.26 5337.48 6124.89 5495.39 4133.88 4834.9 3850.77 6044.04 5415.48 5120.0 3863.18 4998.37 6182.6 5492.18 5258.36 3163.97 5812.43 5906.14 7513.1 5254.28 5733.48 4672.91 5580.89 6810.52 5840.26 6110.27 4380.59 6716.79 7613.27 5529.52 5255.32 6037.08 5096.78 6756.95 4129.43 6324.23 3843.58 4270.53 5344.25 5191.63 4150.99 4216.92 4742.68 4344.58 5634.83 5495.84 6268.1 4861.06 5320.28 6739.08 4797.52 4569.12 4298.67 5960.66 6608.73 5820.48 7034.11 6261.42 5113.21 4502.5 3929.19 4107.03 4043.57 4478.15 5681.38 5925.6 4501.51 3708.04 5513.6 4736.58 4931.38 4556.36 6082.81 4329.05 4151.94 4049.23 4685.34 5601.05 4929.8 5708.81 5252.48 4780.03 4015.92 3996.0 3856.1 3936.02 4665.12 4044.71 3383.4 5980.74 4094.62 4927.02 5546.39 5325.36 5484.83 5085.53 5351.6 2356.98 4730.36 4715.55 5867.73 3951.75 5013.56 5061.3 3642.12 4375.68 5542.27 5054.98 5122.66 5484.19 4688.68 4436.4 4402.52 4517.56 4182.53 5903.42 3588.44 5645.7 5176.86 4118.05 4366.19 5553.16 3672.51 2938.66 5561.06 5073.35 4008.92 3615.22 5670.04 3589.27 4827.82 3997.1 3607.45 3260.67 5759.91 5123.52 3038.33 4392.68 4333.2 4951.03 7199.21 4523.7 2240.39 5091.39 5293.9 6142.94 3912.37 3320.52 4727.24 4602.25 4194.5 4790.08 5082.47 4763.45 5445.87 4593.7 4704.72 4177.94 4571.7 5896.46 3784.5 6481.79 5374.51 7042.12 6326.39 5873.69 4962.09 3999.48 5011.84 4359.62 6946.21 2586.12 5433.8 3771.48 4011.77 5499.11 4271.69 5922.5 4138.42 5198.77 5987.17 6013.14 3240.09 4901.41 5110.37 3191.99 5664.98 4382.74 4651.28 3586.91 3693.63 4384.42 3103.0 4516.43 3554.9 5481.78 5542.21 4487.31 5043.05 5816.2 5109.54 5945.65 6759.9 5538.89 7021.47 5416.38 6059.59 4955.55 2720.68 5701.86 4499.64 4238.81 4468.59 6030.06 2837.58 5170.02 3557.27 5200.76 4927.31 4862.64 5185.34 4432.58 6684.56 3968.64 3955.56 3761.32 5292.64 6166.5 5065.13 5936.02 4940.78 4231.61 4861.08 4003.05 3942.53 3379.84 4805.87 5227.21 5697.78 4667.36 4091.31 6372.62 4295.38 5615.42 7565.34 5923.5 4612.68 4973.83 6342.25 6691.39 5135.69 5344.0 6045.46 3815.26 4245.72 5908.1 6048.7 6133.92 5022.8 4178.4 3780.23 4166.08 4123.6 5224.12 4819.73 3382.7 6817.32 4471.58 4319.79 6098.14 4472.17 4203.26 5188.81 6057.22 5062.71 6125.34 4527.08 3633.87 5347.48 4850.01 3970.25 3979.82 2765.2 5011.31 5138.31 5264.06 6327.9 5927.43 6355.42 4362.19 5690.56 4948.92 3115.91 5637.59 4937.14 3307.12 5924.89 5693.81 4002.16 4174.52 6483.19 3486.22 3829.13 6230.49 5418.62 5493.32 5740.68 5926.61 3563.63 5836.15 4345.55 6704.06 5885.03 3653.41 3871.88 5325.02 3856.01 5246.2 5017.13 5279.39 3673.74 5205.43 6116.18 7447.37 4688.67 4924.6 2635.86 4385.06 7184.19 5305.17 4290.3 3867.67 5399.73 5390.22 3888.21 4712.33 6038.78 6902.81 4254.17 5629.19 5090.24 5530.87 4310.18 4281.49 5978.9 4187.56 3629.62 4840.84 4301.06 4020.32 4290.14 6562.18 4156.38 5316.75 4541.21 4164.68 3719.84 5669.65 5934.22 3095.48 5624.49 5762.59 7092.87 4850.14 5163.55 3954.91 2965.01 6643.85 3637.61 6222.42 5654.31 4730.41 3745.84 5690.26 4156.2 5965.78 4810.12 5643.58 5147.67 4292.06 5577.04 5006.58 4602.86 4659.59 3688.8 4548.16 3369.23 4048.37 5449.18 5492.26 5244.78 5762.84 3937.74 4749.8 4493.48 6084.86 4778.34 4138.16 6894.71 4684.5 3091.3 4414.54 6458.82 7054.71 4601.27 3641.64 5489.43 5747.75 4277.89 6051.14 4796.33 3261.21 4195.44 5539.32 6496.85 5600.93 4874.39 5541.59 4390.66 4124.71 5728.85 4827.23 4911.47 5863.59 4381.97 6257.19 4733.32 3255.82 2899.43 2812.98 2924.37 4065.69 5603.15 4695.45 4660.72 6052.7 3921.18 3798.62 5891.05 5308.1 3666.57 6644.76 5655.21 4786.6 4645.41 5740.84 6445.94 5542.14 4218.06 7134.64 4716.19 5514.76 4997.27 3456.98 3498.2 4877.67 3066.13 4302.5 6006.16 6009.88 7055.53 5013.67 5826.04 5339.78 4970.88 4636.5 4666.81 3703.1 4940.42 6471.55 5499.39 5501.93 5463.38 5945.21 4938.74 5696.88 5607.14 4497.59 3923.03 5975.63 4374.35 6396.74 4138.46 5215.05 2775.04 3821.72 4986.77 6318.18 5586.81 4621.75 3948.17 4551.24 5358.59 4220.88 4515.71 6519.71 6640.13 5082.6 5478.92 5810.84 4230.54 5551.36 5094.44 3748.24 4655.49 4467.94 4850.81 5789.98 6138.47 5527.54 5573.7 4727.62 5054.25 4055.8 7325.81 5280.17 5360.19 4794.96 5083.08 6834.49 6337.56 5525.39 5803.39 4024.3 6394.38 5555.28 5242.73 4737.14 5556.96 5788.23 5581.75 6392.01 4907.89 6730.19 4937.02 4073.93 3735.44 6043.3 5952.75 4433.59 4320.28 6122.55 2739.94 4931.53 5480.13 6308.71 3323.28 6695.82 6405.76 5794.24 5105.16 5448.61 5050.65 4827.33 5206.48 5513.57 5729.23 3365.82 4538.95 4143.78 5965.15 4763.66 6090.91 4946.42 5923.4 5085.71 6116.33 5644.82 6343.14 5750.71 4831.47 4643.85 4004.04 5252.34 5564.02 4274.61 2965.79 6898.19 6035.6 4481.53 5330.45 4581.13 3610.4 6387.01 5367.52 3092.35 4322.15 5210.03 5478.47 5351.39 6142.37 4933.21 5375.47 6038.14 2540.31 5120.49 6029.66 5262.61 6302.8 5697.4 6038.2 4270.95 4005.44 5206.78 6425.26 5143.58 6186.19 4484.76 4839.34 4840.01 2980.99 7933.0 4455.12 3998.5 5173.87 5938.34 5380.13 5118.27 5169.36 5932.23 4686.65 5791.61 5834.74 3369.13 4479.66 3043.85 5461.13 3599.45 4907.06 5489.34 5163.9 5708.14 5537.72 6332.36 6155.31 4223.33 5911.67 5709.62 5835.78 4127.74 2476.04 4678.38 3942.07 7443.72 3937.08 5260.34 4709.35 6586.45 4373.3 5226.0 4163.5 5724.64 4780.2 5100.1 3561.29 4963.34 5019.93 3295.83 5081.78 4260.92 6263.44 5774.97 5462.21 4020.95 6313.06 5470.77 3474.39 6470.3 6062.05 4289.17 6072.45 4410.55 5526.14 5137.34 5423.0 3856.59 4219.07 5413.79 6338.89 6202.55 5025.39 4714.54 3629.96 5893.5 3320.11 5030.91 6022.17 5119.37 6061.47 6163.38 4566.18 4723.12 4964.09 5201.36 5024.9 5409.61 5094.81 5972.06 5713.22 5555.88 6732.43 5028.96 3866.16 6362.12 3778.1 5152.36 4511.82 5611.2 4220.65 6820.42 4816.2 4894.16 4896.52 5711.87 3372.79 4941.22 5282.64 4669.66 4808.52 5367.2 5607.24 4726.76 5053.92 5839.13 5495.68 4863.72 5002.48 4262.82 3920.42 5102.36 8332.24 4342.9 4553.56 5329.64 4051.44 6049.55 5991.09 5133.97 6600.94 4788.58 5371.02 6155.1 5876.71 4750.78 5029.78 6515.84 4888.6 5078.86 4918.77 4371.99 4219.78 3885.86 4459.28 4479.94 6250.23 5960.56 4118.84 5862.86 3493.7 4200.03 6939.12 5082.74 4735.33 6915.83 5092.37 6444.77 7099.43 4287.63 5198.29 5315.4 6449.45 5077.33 4746.52 3689.45 5572.95 6723.16 5584.06 7111.16 4547.19 3817.13 5507.24 3982.23 4583.31 4503.89 5806.08 3459.9 4853.39 4997.27 4093.08 4809.42 5543.27 4306.53 4717.05 5659.17 6135.57 4312.67 5861.71 4359.04 3183.98 4989.15 3794.63 5017.78 4524.28 6175.81 4727.24 6677.09 5826.64 5201.67 6321.41 4089.76 4751.02 3192.41 5184.56 4987.87 4715.72 3315.57 5804.71 5046.33 4764.96 4242.52 5356.51 6352.26 3847.38 3818.59 4087.15 3057.03 4143.08 7500.97 6623.85 5228.18 5787.31 5065.11 5069.84 4978.31 4050.9 4241.89 4099.77 5054.74 5941.72 4537.32 4656.78 5126.91 3600.43 5131.24 5196.67 6496.67 5474.8 6262.72 3664.11 4925.63 2990.77 5882.65 4739.14 5187.7 4188.3 6261.75 5235.29 5177.64 4255.31 5453.3 6413.02 4863.27 3492.19 4584.5 5122.63 6049.79 5374.98 4719.7 5274.19 4406.4 5411.85 4844.57 4027.46 6314.07 5776.37 4516.28 3627.82 3975.31 4044.45 3824.16 5125.78 5344.43 3868.18 4373.47 5045.38 5372.61 3686.21 6480.17 5023.15 4377.07 6851.54 3813.22 5570.3 4336.42 5243.29 7589.94 4449.22 3130.65 5856.11 5287.2 4109.88 5998.38 5013.13 5423.8 5080.66 4270.24 3417.33 4926.42 4164.13 5015.69 4642.34 4947.52 5874.89 4305.57 6959.81 4829.35 4389.21 3791.79 4424.7 4925.44 4754.05 5526.55 6084.93 5215.15 3697.96 4739.42 5538.93 5020.12 5727.3 2631.9 5281.28 6255.18 4277.88 4668.71 4758.21 7228.46 3948.23 5978.82 5266.5 3927.99 5868.82 4948.98 5227.52 4414.48 4092.24 4981.9 5163.02 7144.24 4906.82 5687.83 5004.23 4648.04 6607.87 5117.47 4721.32 3293.56 3163.78 5274.14 4434.19 4903.82 5746.28 4623.61 4082.47 5511.6 4338.08 4378.3 6134.99 4094.73 4407.9 4440.57 5548.29 6766.43 4703.08 2315.64 6345.13 5226.56 5516.95 5313.22 4413.85 3999.94 4470.98 4864.22 5759.46 3921.08 4190.31 5678.96 5262.19 4244.9 6070.58 6034.41 5350.88 5130.91 5402.24 4519.22 6445.22 3844.9 5101.59 3963.86 3848.93 4306.11 5935.47 3402.32 5903.66 5628.24 5004.67 5365.89 3327.49 5992.26 4234.94 3960.8 4562.29 4980.85 5714.58 5110.45 5208.32 5248.77 4083.97 4520.1 4607.02 5153.74 4528.09 3895.51 4293.03 4165.81 5813.4 6291.51 4128.98 5882.89 6246.22 4951.47 4188.32 5246.61 4307.28 4100.38 5344.77 4723.48 4899.11 5097.87 4745.45 4278.07 7267.18 5320.92 5269.18 4406.1 6362.14 5034.59 6719.88 4454.63 5080.18 4523.88 3279.1 4066.38 4403.98 4560.84 4729.43 5776.57 4562.74 5598.74 7493.3 6442.69 6320.71 3464.83 5698.77 6413.11 4305.16 5092.28 4965.89 5659.95 4152.85 2908.7 4453.64 4517.73 5469.47 5660.16 4989.56 4718.54 2588.37 6736.03 6235.57 3623.87 5916.16 4390.41 6113.95 5599.49 4097.57 3905.51 5017.5 5563.79 3901.8 6171.13 5511.88 5083.41 7055.42 5486.68 6048.86 4285.32 5490.43 5022.28 5452.83 4959.34 4948.5 4527.02 4531.14 3695.36 4564.34 3838.56 4871.44 5076.35 6020.48 6375.99 5200.05 4528.49 5313.66 5419.37 4466.03 4511.54 5409.33 5070.39 5196.0 4923.9 4973.78 3329.99 3947.47 3296.27 4713.25 4204.84 6243.0 6673.96 3556.85 5441.96 3435.9 5174.89 4288.3 5370.52 4652.29 5774.81 3746.31 5027.98 5346.27 6475.1 4969.21 2691.29 6256.02 5314.85 4305.43 5450.44 4942.77 4263.33 5592.32 5912.61 5381.16 6193.35 6086.96 5233.78 5046.21 5683.26 5894.61 5139.5 5304.13 5944.09 4814.55 3527.05 4923.41 2477.07 4497.31 5384.76 5529.42 5257.12 5243.43 4537.14 5551.9 3757.34 6415.61 4687.64 4419.71 5037.06 3838.47 4541.8 5175.29 5412.31 3087.09 6934.37 4050.08 5452.42 5328.22 6853.85 2395.5 4512.11 5782.48 5683.61 3836.45 5100.25 6894.26 4986.51 5197.52 5178.99 5383.07 4591.87 5013.42 4247.15 6552.22 5651.07 6248.81 5273.35 5234.29 2651.49 4645.58 5512.23 5275.32 4898.94 4613.31 4733.04 6119.09 5788.66 5091.68 7531.29 5069.25 5048.89 3161.47 3991.03 6390.78 7435.25 6826.57 4788.87 4495.87 6022.72 5498.32 5527.33 5402.21 4989.09 2845.98 4880.14 5289.52 4982.31 3848.54 5941.4 5331.02 6510.17 5742.65 4863.23 4402.67 4470.61 5565.13 4384.88 6887.27 3701.27 5653.9 4806.34 4287.53 5612.21 4929.14 5945.08 3979.54 3306.14 5490.58 5833.06 4863.79 3830.46 6031.67 4689.15 6138.12 4428.78 5409.66 4345.67 4765.72 4642.66 4752.14 5329.59 4888.12 4950.97 5512.16 3197.63 5842.56 4863.96 5887.15 5203.08 7480.41 3423.15 4890.5 4488.85 3981.07 3731.84 4901.07 5186.3 3436.15 3497.9 4151.76 5941.61 4020.4 3493.47 4596.75 6248.6 5443.58 4558.46 5805.86 4470.4 5339.38 6169.11 5615.35 4027.09 4790.78 6422.84 4502.18 5379.09 4602.85 4962.77 5872.05 4853.02 4091.8 6259.23 5181.4 5670.2 5985.29 4711.62 4247.23 4178.15 4268.65 4694.83 5509.42 4354.08 4256.43 5936.36 4520.62 3903.75 4755.47 5935.03 4485.99 5127.16 5475.8 5314.69 4249.46 5965.81 3702.37 5660.85 4643.31 2330.66 4177.19 6917.52 3587.05 6229.37 6718.19 5282.91 4307.48 4425.84 7256.35 4800.69 4871.96 3555.86 6386.78 4631.83 4996.99 6081.14 6008.49 4220.46 5128.57 6000.7 3169.67 5604.21 4968.03 6710.88 5395.14 4702.06 3967.48 6213.04 3685.13 6790.73 4655.16 5251.4 3867.19 5857.79 4039.91 5276.7 5036.58 6119.63 5411.02 4752.9 4287.16 5199.44 5191.08 4435.51 5374.07 5163.77 4588.7 3766.55 4579.69 3554.48 6496.52 5005.85 4216.17 6484.17 4721.02 4254.37 3374.08 4933.65 4031.78 6098.1 5708.99 4049.02 5346.68 5311.03 5255.12 5296.29 4611.53 4285.66 4896.11 5172.53 5801.99 5210.48 7552.94 5323.3 5088.44 4998.21 4662.56 4114.24 5349.31 2976.22 4649.22 5394.55 5094.52 4946.74 2682.24 5928.32 5229.48 5475.7 4016.18 5526.75 5435.74 4244.99 6050.81 5327.45 5543.46 5560.26 6185.89 3997.96 4750.17 4439.35 3460.94 3990.25 3691.0 3758.07 4752.51 4236.14 4407.87 5282.51 4460.92 3797.33 5945.89 4042.28 4105.55 4340.76 6566.1 6065.22 4221.28 4456.39 4896.39 3633.79 5421.53 5480.83 5937.08 4607.85 6070.3 5233.29 4312.56 4612.06 5204.04 3361.92 4750.58 6667.68 5235.11 6622.11 5211.38 4590.55 5920.32 4255.85 5097.69 3988.3 6543.13 5149.72 5464.25 5486.48 5301.47 4617.55 5424.88 4062.5 5415.85 8659.64 5683.95 6027.62 5010.2 6123.03 5966.61 5711.11 4575.94 4938.72 3546.71 5768.57 5564.23 5950.04 5687.85 4231.83 2435.33 6401.43 5020.71 2681.29 5094.48 3872.61 4238.4 4135.62 4318.48 6132.95 5534.94 4860.33 7644.38 4051.34 6101.92 3627.55 6239.84 4635.6 4256.67 3457.48 5166.79 3931.07 3405.98 5417.15 3688.16 4681.72 4945.39 5996.33 3950.63 5415.19 4612.62 3619.07 4275.57 4467.04 6385.23 2983.99 2614.4 6363.92 6205.93 4923.24 5830.72 6184.4 3828.81 4373.45 4082.57 5733.62 5169.9 3004.16 4767.78 5235.17 4421.12 4779.5 5254.49 4303.19 5514.84 5784.3 3914.2 4256.57 6088.68 4135.08 5620.74 4778.82 6124.08 5467.84 5053.95 5926.11 5253.37 5767.9 5089.62 5869.4 4741.26 3701.16 4186.6 5895.77 4732.09 6136.49 4356.25 4216.95 5776.96 5742.74 4244.21 4947.24 3645.12 3875.05 6200.54 5148.58 4199.45 5469.13 4233.8 5765.42 4997.83 4893.49 5325.44 5021.88 5956.65 4498.25 4188.87 3735.24 6574.95 4074.48 4558.47 5997.88 5839.71 5576.92 6408.83 5266.22 3930.79 5226.97 3685.13 3312.06 6004.68 3361.26 6799.4 5278.36 5865.39 4427.28 6079.11 3082.32 6430.39 7440.72 3949.6 5703.6 6326.18 5661.62 6631.19 6648.68 4713.74 5626.61 5817.25 4084.49 5061.98 6632.99 4537.6 5147.36 4419.61 7177.44 4563.46 5309.98 6553.94 5255.18 5460.65 5652.0 5463.41 5225.33 4929.75 4435.36 6045.22 6649.96 5134.39 3532.3 5769.98 5442.32 2221.99 4643.56 4863.01 5356.79 5657.36 3619.79 5029.47 6306.21 5266.01 2978.76 2040.66 7016.27 6515.8 3876.21 3685.65 4916.22 6022.7 4940.84 5750.07 4809.67 4757.74 6045.67 4209.49 3946.28 3821.94 5439.9 5367.73 3540.11 3456.47 4652.01 5421.64 7234.66 6599.66 4055.54 4886.12 6419.12 4976.12 6098.95 5453.98 3991.42 4388.63 5102.75 4200.09 4597.29 5931.77 5151.21 6333.29 4477.04 5731.57 3886.68 5703.74 5662.55 5737.92 4360.23 5365.24 4004.35 5293.51 4763.96 5754.18 5180.76 3418.99 4480.95 4993.35 4409.63 5521.25 3661.9 5370.85 5949.46 3658.37 3178.54 4765.02 5376.71 4448.13 5070.29 4807.28 4867.08 4266.03 5280.69 4220.03 6923.84 5407.78 5449.46 6179.96 6113.54 4662.43 6260.79 3963.76 5528.53 6799.88 3062.43 5726.66 5426.78 2967.38 4159.35 6477.91 4237.98 6439.37 4614.3 5580.92 5973.33 5067.46 3583.21 2511.46 3580.58 4011.37 2775.69 4785.25 6519.43 5876.64 5424.46 4857.84 4908.49 4962.21 4858.44 5884.9 4673.35 5689.26 4992.42 5297.19 4351.38 4833.46 5933.7 7248.4 5280.12 5984.81 3498.16 4409.27 4640.06 5471.74 3548.39 3673.28 4858.51 4207.54 5625.65 4301.61 6107.89 4817.16 4446.84 5660.55 5148.08 4834.87 5760.22 3672.21 5938.17 4795.43 5398.64 5097.95 6817.57 4693.52 3614.96 6853.04 4745.43 5831.96 4747.55 3056.7 3755.95 6234.32 4586.19 4446.06 3450.93 5008.63 5132.68 6595.03 4558.15 6218.95 5222.16 5107.23 5136.08 3776.94 5558.68 4010.57 5629.39 2684.03 6157.04 4768.61 2261.36 5075.55 4522.21 5506.19 6719.94 4950.67 5227.59 6166.29 5453.6 5703.07 5294.77 4709.05 4630.82 4043.66 4813.08 5860.67 4540.86 5990.52 4835.83 5604.35 6316.56 4332.87 3091.67 6420.81 4081.97 4715.58 5401.99 5151.52 5369.08 4347.74 4009.62 5291.9 2081.58 6505.78 5461.55 6865.76 6449.64 6464.8 4684.44 4749.59 5799.69 3468.42 3809.69 5571.72 4771.13 3208.96 7051.9 4184.23 5550.75 6226.14 5466.33 4444.97 3000.29 5721.05 4247.69 4514.39 4588.99 4321.21 4344.34 4928.27 3583.49 5052.84 3375.28 4366.74 5297.16 3184.64 5206.33 5530.49 5653.03 3718.69 4514.79 2216.82 4509.89 6752.75 5269.38 5607.3 5108.06 3573.73 2928.82 4222.4 4000.43 3420.08 4568.41 4912.04 4539.07 5464.68 5591.76 4585.31 6625.18 5323.91 4270.74 5097.45 6293.89 2761.07 5737.75 4983.39 5366.52 4690.55 5533.72 5533.42 4802.32 3678.08 4599.38 5246.47 4187.31 6191.29 3240.51 7422.36 5161.01 4298.15 4628.4 5832.37 6051.83 4642.93 5409.63 4263.16 3973.12 3077.84 6024.75 6109.49 5567.93 5987.42 5332.65 3764.1 6451.33 5413.31 6400.08 4743.59 5208.14 3317.83 4450.7 3763.05 5092.24 5549.49 3101.75 4518.04 4766.06 4874.18 5435.19 3298.2 4270.15 4093.99 3940.49 4406.05 4680.94 5876.72 5236.43 5285.07 4608.41 4144.57 4187.94 5980.59 6834.41 3796.15 4801.8 7216.98 5271.02 4209.31 5718.28 6242.79 5950.45 5713.03 5849.65 5134.67 4165.21 4215.0 4936.96 4481.76 5452.78 5065.26 4304.41 6192.0 4940.28 5885.28 6579.31 3004.34 3022.6 4914.45 4811.76 4698.87 4661.03 3624.7 4691.91 5262.35 4475.83 2685.81 4510.8 5889.35 5010.04 4394.56 4570.98 4275.07 5825.38 4185.61 4047.87 5742.47 3778.02 6552.21 5417.8 5146.37 7132.12 4836.16 5518.57 5151.11 5463.48 5730.33 5545.46 4527.99 4376.7 5190.61 8325.01 3764.06 4440.81 5941.9 5434.47 6642.76 5829.22 4497.78 4243.79 5433.65 4442.22 4008.15 4887.76 4669.06 3012.99 4811.32 4286.49 6184.88 5829.32 4396.25 5551.95 3918.87 5423.42 2275.45 6605.86 5012.5 4383.56 3562.79 7093.13 4953.1 5818.95 4516.53 4122.92 3604.14 4452.54 5089.1 2711.19 5828.35 4028.32 4099.92 4884.59 3858.06 4680.14 4511.7 4083.79 5263.27 6300.92 5021.77 5599.29 6038.68 5046.12 4807.4 7013.17 3805.67 4601.74 6506.86 5088.57 5580.34 3852.6 5775.31 4706.5 4603.5 4647.67 5375.12 4356.36 4892.44 5578.94 7610.49 4286.17 3684.56 5323.55 5375.1 4172.6 5313.12 5351.56 5160.59 3984.88 4732.09 4320.42 4255.34 5064.79 5480.3 7509.24 4146.81 5896.26 5388.78 6101.13 4573.72 5099.21 4917.99 5636.4 4367.78 4350.12 5227.02 5670.0 4232.16 5300.96 4344.51 5680.94 3781.77 5581.55 5193.01 4543.1 3474.5 6550.44 3860.83 5732.27 4523.39 5278.56 5146.37 6917.62 4013.38 5631.14 4343.78 5811.18 5263.3 4909.65 6523.86 7693.4 4326.48 4437.07 3449.37 5491.9 6405.0 4659.16 5789.55 4633.05 4901.2 5711.62 4990.79 4798.17 5166.79 6479.39 2895.63 4997.91 5079.22 5381.54 5810.77 4714.83 5474.15 7519.2 6355.68 4478.6 3953.55 4304.63 4469.54 4314.56 4173.54 3928.53 5606.51 5740.65 3834.47 6349.67 4590.01 6101.86 4227.41 5993.0 4803.57 5966.42 4110.59 3332.49 5354.66 4214.44 5378.23 4787.97 3746.36 6789.23 3989.7 4777.03 4246.61 6028.09 5452.36 3804.5 6486.37 5498.42 5318.53 3344.57 5220.76 4281.98 7165.9 5344.83 7046.11 3427.63 4863.97 6342.48 5756.75 5599.7 4587.67 4163.74 6969.28 3665.95 5698.96 4095.75 3603.51 4298.45 5222.51 6609.84 5135.96 3834.43 5658.37 4707.06 6074.94 5491.37 4250.88 3783.54 6348.03 3475.67 4792.39 7038.89 3863.67 4814.12 5067.56 6137.8 2735.53 3352.35 5116.6 3747.03 2783.85 4356.49 4526.81 3994.07 4219.94 5907.46 4264.91 6740.71 5399.29 4909.31 5971.22 6522.59 6602.43 3568.28 5425.98 5996.66 4405.42 2995.67 3598.08 4599.81 5698.23 7300.58 3608.06 6633.61 5217.95 4867.7 5484.36 4277.24 4063.9 5291.05 5161.1 4619.2 5166.41 5067.56 6329.53 4139.3 6541.45 4750.49 5078.31 5391.48 4923.43 5131.15 4847.14 3950.27 5116.66 3566.79 5374.67 4981.43 4741.28 5069.89 4215.2 4157.29 6813.72 5327.75 4609.02 4896.65 4638.18 4196.37 6448.66 4453.97 6945.98 5138.2 5783.48 4449.98 4701.5 4504.35 4771.65 4840.44 5093.82 5951.81 3924.14 4296.69 6238.32 3319.67 6471.42 5283.8 4076.59 4428.14 5164.1 6464.15 4479.11 4972.17 6685.4 5699.53 4222.77 6332.01 5268.38 5527.23 4805.33 7085.01 5980.95 6193.08 6069.3 5887.01 5168.35 5388.39 5335.47 5633.61 5048.19 6799.23 4888.27 6487.56 4854.11 5533.19 5417.21 5583.61 6063.64 7382.3 4022.56 5522.21 3772.3 4855.01 4923.57 3340.09 6061.63 2279.05 4829.35 4075.28 8137.11 5484.32 6650.77 4067.96 7104.73 2596.96 6162.3 5701.75 3272.75 4350.15 4264.54 3516.27 4263.78 4643.9 5228.75 6047.14 5009.83 5210.38 5717.8 3629.44 5003.78 3299.24 6246.56 4061.6 2603.64 5107.0 6212.15 6502.97 4783.07 4946.23 4852.58 6083.28 5211.6 3556.79 5806.31 5456.71 3503.41 7317.04 7001.83 5012.97 5589.37 5439.49 6918.35 4834.3 6804.79 5642.35 6372.13 5369.5 5404.01 6016.19 4124.49 3230.13 5714.25 5325.96 4850.06 5016.02 7044.29 4920.21 4234.18 4049.16 3936.95 6153.94 6836.82 3862.77 4631.99 4740.98 3185.39 5128.77 3728.18 7122.87 5797.36 4243.26 4153.84 5119.86 4592.15 5084.17 4901.44 3776.8 4998.22 5096.43 6156.21 2460.79 6104.26 4653.83 6171.71 4986.71 4668.88 5027.43 5522.75 5867.64 6208.9 6059.93 5602.53 6545.43 6760.92 4989.2 4711.04 7144.05 4506.18 4824.12 4383.47 5971.21 7043.44 6412.67 4036.91 6639.64 5212.43 5454.12 6348.54 4066.57 4206.98 5156.76 6357.47 6101.57 4891.38 5535.91 2949.12 5955.86 6176.67 4533.37 4848.46 5412.24 2779.99 5887.38 4581.37 6942.34 5851.61 5478.11 5526.31 3858.17 5030.15 5089.26 3628.89 6589.82 4438.58 5073.02 3472.91 2970.9 6542.5 6318.23 4058.87 5174.75 5932.07 4984.46 5948.71 4793.65 3856.53 4532.89 5460.89 5260.85 5742.09 2884.65 5807.46 4648.21 3658.05 4393.16 4549.69 6423.81 6192.77 6413.15 6103.11 5048.55 6459.51 4024.31 4955.16 5844.72 3992.97 5989.05 6040.74 4054.22 7228.94 5393.65 4961.99 6551.93 4595.12 3311.29 3110.13 6484.43 4625.67 3485.54 6735.97 5305.59 5416.45 4330.58 5754.6 3288.01 4904.51 4147.31 2202.77 5751.15 5950.88 4149.55 4441.22 5853.89 3380.69 4140.4 4386.8 5446.4 4725.01 5966.75 3104.96 5244.78 3636.15 6114.89 5135.63 6384.7 4355.83 6870.97 5351.86 6056.87 5474.01 6201.86 7554.58 5166.89 3639.44 4731.21 5491.63 5725.37 3868.62 5138.33 3477.1 4729.42 4811.22 5216.26 4844.83 5377.37 5652.87 5483.7 5018.69 3152.86 5952.38 3896.27 5807.52 5963.36 5230.02 5307.35 4342.18 5169.48 6016.08 6776.22 3124.7 6064.71 6102.98 4385.81 6592.93 5096.24 5769.14 3381.82 4831.93 4023.93 5494.28 4834.39 5493.89 5261.19 4918.76 4208.41 5826.78 3758.22 4268.19 4532.7 4788.08 4349.13 6379.14 3687.65 5478.95 3851.85 4749.96 4019.34 4658.24 5869.67 4311.48 4899.73 5457.66 6394.19 5973.89 5366.22 6193.73 5518.11 5087.14 3742.11 5712.35 5701.52 4743.9 5321.17 3719.11 4467.13 6060.17 5934.82 4501.78 5415.45 6350.71 7107.63 5868.89 4099.26 5206.47 3831.52 4263.65 6106.43 6761.81 5467.63 2856.55 6214.73 4553.68 5361.87 3205.68 5561.74 6100.73 4473.29 4908.75 6556.26 3971.08 4482.9 4593.7 6818.91 3503.65 3634.5 3623.19 4869.48 4906.11 4387.39 4564.1 4745.16 5825.55 5509.51 4848.14 3199.4 4316.5 5254.24 4192.21 3597.43 5144.56 4158.91 5311.55 3360.86 3034.16 4869.25 5545.21 3877.8 4333.87 6418.11 4922.49 3572.94 5001.58 6456.58 5039.12 5366.11 4824.81 7307.21 5135.5 3619.72 5615.84 5788.97 3274.85 5007.21 5545.59 4580.06 4835.97 4057.17 5262.47 7066.96 4587.7 5644.81 5666.95 4127.53 4642.2 5210.75 5175.89 3894.64 5232.85 4374.74 5975.23 6816.66 4745.79 6204.65 6550.4 5513.8 4887.52 5350.88 6571.31 4392.65 5429.3 5510.96 6653.07 4697.91 4584.81 5071.98 5719.79 4371.08 7261.51 4968.14 4914.03 5086.29 5527.13 5139.18 4278.57 5551.43 5049.99 4201.03 4458.64 5001.87 4312.15 3657.69 4078.93 6015.02 4820.17 5244.98 3814.65 3886.72 4034.05 5798.38 6436.74 3419.87 4384.28 3908.98 5944.3 5113.6 6328.42 5640.72 4565.93 4504.52 4464.73 6440.38 5610.53 6419.64 5414.58 4991.35 5196.92 4807.35 4568.64 5750.35 6555.44 5293.75 5473.72 6358.93 2205.51 3703.49 5144.44 4757.2 5034.69 5079.64 4211.82 5470.04 6003.78 5684.25 4891.67 4882.66 6631.28 4944.51 5603.68 5610.95 5532.72 3220.8 5179.17 5579.39 5270.51 5148.1 5490.75 5224.64 5949.73 4312.48 5783.94 6370.33 5081.08 6318.25 6864.06 3644.78 5510.9 4883.63 3492.83 7039.98 6006.89 7778.01 5127.82 5690.96 5805.1 3862.91 4456.26 4027.33 4810.98 3563.14 5851.63 5556.0 5748.9 4954.81 5755.15 4608.34 3926.11 5695.79 5464.83 2781.96 3512.94 4467.0 4994.65 5601.55 5334.36 3903.91 4929.6 3919.62 4489.99 3683.86 5658.14 4508.18 7124.45 2617.39 4062.56 4198.94 3217.67 6163.54 5212.37 5438.92 3766.69 5110.11 5036.98 5188.53 4521.75 4813.33 4027.63 5569.2 5635.32 4526.34 4316.45 5409.08 5042.75 4598.92 5241.22 6647.08 4979.52 3422.29 4407.79 5214.63 3495.68 3990.96 5352.24 7362.42 4202.77 5836.14 5473.05 6008.81 4583.52 4505.28 6280.13 5244.22 5585.14 4960.64 5792.98 4983.3 5910.86 6239.68 4456.11 4234.88 5782.43 4708.31 5026.76 5091.22 6282.38 5657.55 5727.79 5212.92 5188.82 5043.14 3742.31 3663.0 4420.6 3622.8 4431.23 4258.98 6545.99 4368.28 4945.0 4548.45 4658.11 5730.61 5114.07 7142.95 5064.67 6618.21 3717.47 4504.86 6200.63 5969.37 4928.35 4509.46 3844.54 3538.53 996.652 6500.49 5965.58 5058.51 4244.49 4050.03 4120.07 3840.21 3429.57 6746.66 5410.33 5420.67 5661.6 4827.61 5285.75 5481.64 5673.75 5360.67 5968.54 6263.3 4501.05 4537.03 6548.29 4114.2 4326.06 5034.46 5757.29 5793.12 5469.17 5061.75 4373.2 3769.24 6711.21 4971.29 5832.29 2606.51 4438.76 5372.82 5401.4 5053.15 4775.49 5124.17 5749.6 7320.78 4834.44 3873.92 4092.07 5347.9 4717.73 4928.85 5072.5 4749.18 4546.96 4316.0 6304.49 5134.72 4475.38 5287.25 5917.34 5740.98 5630.9 4728.55 4554.68 4551.26 4559.74 4383.68 6666.67 4583.94 1937.5 5046.31 4337.32 4680.69 2628.22 3352.34 4901.29 4952.52 3242.31 6099.28 5372.25 5385.03 4169.15 3234.26 4778.37 3494.16 5134.17 4074.16 4904.35 5592.54 3247.97 5124.34 4904.37 4358.81 4651.64 5729.92 5016.46 4179.87 6224.13 4761.84 3661.67 3743.76 5153.18 3425.69 5510.45 3864.92 3994.39 6119.99 4159.81 4446.58 4402.17 4681.29 3845.9 4174.44 6331.74 4213.05 4224.3 5235.87 3904.07 6502.99 5424.55 4921.1 4770.51 6511.37 3787.08 4462.87 4218.16 6139.64 4140.92 4474.83 4585.04 6570.35 4242.63 7407.91 6063.44 4051.18 5849.53 4420.11 5863.0 6127.39 4802.98 4833.55 7224.99 3908.56 5265.63 4898.29 4431.06 5730.2 4830.13 5370.9 4529.77 4325.13 6172.27 5390.33 5078.73 5278.54 5729.0 5192.92 5275.57 4786.66 5891.25 5370.1 5393.76 3684.15 4730.14 5906.57 7541.76 4990.23 3784.94 5499.59 5667.51 4198.9 5431.29 4833.67 5325.91 5157.38 6203.03 4700.07 5273.37 4732.37 5713.36 5553.94 4704.92 4287.25 4392.75 3814.16 4191.01 4589.06 5577.41 4216.44 3999.5 4012.92 4346.07 4933.49 4692.32 5236.24 3127.83 3269.54 5836.26 6015.22 6449.06 4651.99 5640.12 4972.18 5329.76 4124.76 7200.89 5684.88 6523.78 4645.86 4045.67 5620.88 4941.52 5900.0 4262.74 6241.77 3783.79 4248.14 5317.19 5279.19 4016.6 5821.49 7050.08 5580.44 5998.13 5902.67 5454.11 4236.86 6010.59 7123.04 4128.1 4618.73 4932.29 4506.66 4439.71 4141.21 4064.58 4646.51 952.938 4546.44 4184.21 6089.45 4985.3 3987.69 4666.12 6219.34 4920.88 4013.86 4177.47 4770.63 5678.58 4385.49 6102.49 5114.23 6061.85 5512.44 4826.52 2904.46 5241.75 4731.53 3763.9 4577.73 4288.45 4147.49 5419.57 5760.98 4954.76 4642.74 5384.86 5764.52 3770.22 4390.64 5150.84 4608.01 5087.97 6005.95 4308.49 4519.03 4930.17 4581.1 4085.96 4745.44 5762.82 7360.12 6223.98 5462.6 5617.29 3035.06 4262.19 4597.88 5095.52 4763.4 4941.02 5806.61 3682.35 2955.36 3965.3 3220.29 4125.9 5426.4 5951.86 5023.41 3791.41 5853.12 5702.4 5473.89 5265.21 4657.24 4966.07 4400.14 5340.05 2918.64 5345.73 4639.8 4212.15 4263.18 5495.0 4454.74 5120.92 4685.4 4081.34 3402.44 4848.98 5184.98 4491.96 4467.51 5339.82 5460.57 5110.27 5703.34 4612.68 6668.98 6649.52 4232.33 4939.56 4747.68 5770.92 3093.38 4845.91 4878.93 2002.78 4461.67 5784.37 3142.09 5182.13 6110.48 5515.73 6715.73 4564.41 5247.01 4841.7 4678.7 5810.17 3450.07 4271.07 5674.63 5759.79 4489.29 4301.93 4924.07 3200.6 4918.64 6206.98 6638.25 4775.04 5162.67 4636.53 3646.95 5537.61 6084.88 4199.44 4397.06 4053.12 4479.5 6261.67 3435.13 5065.78 4431.46 4521.42 3207.84 3977.98 6043.34 4128.93 4959.72 4712.17 3808.04 4723.71 5003.3 3756.96 3954.77 6793.1 6016.87 5077.29 5209.55 6740.35 4550.92 3306.84 3484.81 5308.33 6023.07 6710.14 4598.54 5218.42 4512.07 4896.43 4462.35 3986.41 5146.0 4788.7 5078.59 4607.18 2403.72 3228.27 4721.98 5252.82 3543.98 4142.1 5056.26 5878.55 4014.44 6604.72 6002.77 3794.47 4610.55 4967.02 4614.49 5400.69 4462.5 2807.46 5573.31 5004.68 4023.88 4405.61 5348.11 6273.6 3668.93 4009.24 5800.81 6245.52 3125.13 6506.63 5995.4 5188.22 4841.23 4196.62 5984.8 3469.18 6347.72 6240.42 3956.24 6334.53 7558.99 3393.59 5043.14 5333.04 5445.91 4521.99 4812.59 6842.54 7115.67 5675.45 3361.11 5329.84 6038.56 5599.16 4179.8 3488.34 5658.35 5428.24 5684.05 4708.17 3779.45 5167.53 5166.05 7035.54 5866.91 5763.05 4208.37 6019.35 6075.99 5191.26 4184.47 3825.48 2804.54 3372.95 5819.0 3460.93 5124.86 5117.64 5580.95 3549.92 6598.99 4032.06 5246.81 5089.1 5888.95 5394.78 3463.34 5122.38 2853.68 5262.85 4998.37 6559.82 3879.83 6565.95 4577.98 5043.34 5886.81 5136.87 2741.2 7145.73 6405.69 5357.39 4252.18 6296.54 5797.21 3669.32 4762.1 5700.79 4629.02 4927.73 4705.68 5469.35 4313.38 5827.3 5250.56 3633.58 2468.16 6294.14 4339.97 5203.75 5169.09 3906.41 4691.15 2459.88 4512.6 4210.24 5470.67 5901.71 5342.9 5225.11 5252.22 5733.12 4962.35 6436.29 7350.26 4168.52 5233.76 4659.88 5685.74 4140.04 3495.3 5890.25 2832.83 6036.99 4084.87 3010.1 3825.98 4589.22 5087.03 4667.84 5584.64 4123.08 4260.38 4636.45 4932.27 5638.51 6793.49 3563.33 6060.19 5536.0 6786.37 5591.77 4556.19 5106.46 3612.44 4668.8 5322.11 4697.49 5735.08 4726.2 5034.05 4816.51 4711.15 4658.59 3810.68 6478.35 3990.94 4756.8 5477.8 5463.06 4176.32 5260.52 3185.09 5532.75 6949.65 2945.34 5676.61 5846.95 5064.23 5268.15 5701.63 4603.04 4870.94 4620.95 5368.93 4488.39 6121.56 5914.5 6006.16 5721.14 4608.62 5407.96 5084.5 4987.28 4071.75 6562.03 4815.47 4759.99 3899.7 5134.33 5214.4 3629.49 5766.05 5399.43 5695.44 5034.34 3835.81 3422.21 3916.42 4474.96 4758.76 4790.63 5259.29 4088.72 3584.05 3945.62 4916.75 4818.53 5097.85 6189.04 6224.64 4221.03 3799.55 4576.71 5082.66 4550.77 4337.93 3550.88 4345.51 4048.73 6223.33 4493.79 4932.56 5638.7 4279.44 5024.32 5813.79 4644.88 5790.42 4983.1 5293.13 4507.36 6224.85 3768.46 6406.8 5403.97 4795.08 5648.78 6562.92 4068.31 3671.06 4983.43 6081.3 4850.5 4683.28 6549.8 2820.07 5129.68 4825.73 5076.84 5288.33 5811.26 4871.77 5062.77 4884.93 5069.9 6028.63 3673.6 4494.15 5146.1 6215.87 6485.77 6060.06 5866.42 5544.27 5393.43 6896.55 4685.65 5377.01 6470.23 5939.22 4271.93 4215.05 5125.17 4604.1 4859.01 5076.11 5524.45 7133.44 4426.02 5600.21 3953.26 4750.81 4282.11 4474.39 5467.51 5459.92 4625.53 5453.77 4096.47 4357.11 5005.6 5114.67 5486.89 6069.78 5589.53 7208.19 4241.68 4549.51 3587.93 5196.08 4975.85 4517.29 4095.83 5695.25 5323.95 4495.75 6171.01 5716.42 6229.83 5796.26 4468.26 4523.81 5578.18 5293.37 5271.88 5933.54 5559.79 7168.2 4602.57 3419.07 4571.74 3763.85 3565.32 5740.78 5710.33 4096.86 4796.12 3622.48 5344.44 5001.51 6432.8 4626.72 5115.42 5549.71 5131.77 3186.07 4410.82 4369.86 4967.51 4368.12 6443.99 2646.13 4365.58 3889.98 5193.58 3720.7 5490.64 5698.53 3769.2 4507.46 5036.14 3468.45 5367.05 4449.73 5647.11 3743.85 6236.46 5342.17 6379.3 5015.67 3795.63 5189.4 6538.04 4894.15 6157.59 5201.3 5848.41 4090.28 5537.34 5884.99 3667.93 5192.49 3487.31 4899.19 5726.42 6643.4 4674.9 5058.34 4028.22 3392.26 3918.94 5575.11 2549.95 5461.72 5487.63 3852.82 5138.93 6945.69 5118.86 7086.69 5368.66 4304.64 6170.9 6875.73 5501.73 4436.48 4697.24 5226.42 5615.35 5758.98 5117.52 3967.76 6311.89 4217.36 6734.39 5679.74 5942.45 4851.18 4150.76 4228.53 4165.36 6123.46 5368.52 5005.72 6142.88 5155.28 5111.26 5205.38 5388.73 4764.83 1969.87 3132.34 4949.55 4600.71 3957.38 4841.28 5262.79 5927.2 6889.5 5035.71 4710.88 4419.79 5300.17 5407.69 3869.39 5152.78 5960.5 4896.67 5534.23 4117.9 4753.76 6025.77 4638.09 4781.9 6815.96 4441.91 5339.6 5330.26 5828.25 4725.11 3626.86 5418.12 6371.96 5322.07 5770.07 5990.75 5101.6 4984.17 4656.01 5781.62 6589.13 4037.86 2347.41 5602.62 3543.37 4542.16 2030.03 5714.51 2809.19 5628.97 4916.7 4104.04 5353.66 2638.82 5030.33 5593.79 5234.2 5025.42 4965.24 6379.38 6257.79 5327.05 5438.55 4849.5 5353.23 4434.65 5977.66 5209.5 5106.33 5065.74 5791.25 5198.94 4873.23 4028.35 6731.89 5464.05 5879.24 2980.31 5410.6 3148.79 5453.2 6348.93 6824.53 5997.91 4332.64 5385.86 4742.82 4422.23 6791.86 4082.4 4209.0 4820.68 5482.76 5173.82 3745.02 5728.58 7212.97 6297.99 4211.36 5378.24 3856.73 3604.31 4450.49 5817.74 5887.71 4246.83 6022.78 4087.32 4009.68 6647.85 2569.12 7025.09 4433.12 5161.74 7336.37 4361.24 6599.28 5099.9 2960.5 4975.32 4298.7 3902.48 4183.4 3909.94 6030.39 4733.79 5833.78 3799.01 4823.06 7392.65 5254.49 5288.64 3757.23 6213.24 6883.86 5987.88 3579.59 6161.94 4065.28 5057.59 4461.14 5285.6 4574.54 5575.11 5490.54 5615.06 5203.54 4047.95 5507.38 6142.94 4416.87 5001.69 6581.56 4057.4 4052.43 3980.46 5383.9 3934.11 5158.44 3886.56 4466.22 4496.51 6153.71 5917.08 6561.94 5483.37 5259.21 5092.93 5934.05 2803.01 5881.93 4714.66 4444.0 6771.18 6182.19 5327.39 7415.84 4981.81 4138.59 4970.55 4938.33 4484.78 4621.33 5527.27 5104.39 4612.13 5847.91 4934.66 5846.6 4984.01 4109.44 4903.84 4290.49 4557.1 6688.53 4605.39 5927.1 6175.27 5876.51 4103.76 4286.61 4094.63 4733.41 2932.52 5264.83 4603.66 4969.68 5136.51 3901.53 6815.51 5232.16 5313.86 4457.05 3989.26 6031.22 3618.64 4930.72 5485.84 6424.77 4887.73 4335.79 5453.69 5918.95 5432.04 4538.89 5689.56 6556.86 5517.65 5114.51 5129.4 3303.49 4655.37 4161.32 4622.73 5585.25 5256.75 6351.89 6530.78 5932.28 5059.37 5560.23 5783.38 4742.35 4139.39 5394.79 3043.77 5237.55 5645.54 5088.64 6264.03 6589.8 4905.53 4151.74 6920.92 3729.16 5319.1 3783.36 3038.91 6828.8 4181.93 3922.28 6570.43 3350.99 3820.19 4979.5 5236.69 4586.82 3133.28 4745.37 5939.29 6026.04 6200.05 5418.98 4034.41 5859.17 4052.49 5061.74 5326.03 5522.34 6189.67 4420.35 5717.45 4948.96 5256.82 4013.86 4061.87 4645.93 5165.31 5448.64 3798.09 4585.37 4288.5 6417.61 5715.51 3721.69 4511.05 3456.3 6074.39 5317.83 4256.08 6738.9 4399.52 4460.89 4554.24 3939.96 4867.12 5910.66 6520.19 4637.3 5141.03 1458.87 4840.44 8123.59 3997.68 4819.83 5765.14 4767.54 5157.73 4541.22 4946.08 3539.68 4696.03 6217.33 6177.68 4698.7 6270.59 2848.44 6045.26 6500.45 4907.55 5743.8 5084.76 6666.34 6605.11 4757.87 3557.46 6636.43 5431.14 5971.95 6298.8 3689.24 5178.07 5189.91 5151.19 5777.26 4171.02 5703.84 7012.36 3530.82 5797.32 5028.06 4886.99 4002.99 5159.67 3921.27 3161.1 3572.73 3702.45 4746.15 6275.25 3720.38 4758.84 4731.37 5023.61 4452.36 3976.0 4672.86 6463.71 5009.21 4574.03 5290.37 5850.38 5264.08 4526.87 3562.8 4227.66 4691.01 5192.82 4174.22 3573.84 5821.42 4067.89 6294.09 4571.57 5131.07 3445.92 4121.07 4197.87 5524.28 5105.54 5731.43 6353.81 3518.14 3414.67 5444.36 4150.44 5044.68 5771.98 5899.78 2649.69 5000.74 5117.83 5772.57 5268.27 4813.81 3882.37 5244.95 4634.25 4095.4 5901.8 6351.48 5395.12 5783.69 3830.7 6210.0 3483.61 5350.9 4262.52 5992.06 4157.1 5545.68 8052.53 4970.12 6044.01 6369.66 4967.93 5973.57 5734.07 5922.62 6241.48 6033.28 5957.82 4801.16 6286.27 5071.38 6327.54 5121.08 2927.84 5616.66 5688.77 4802.36 5368.28 5466.13 6229.64 4220.43 6263.87 5075.23 4975.56 7282.36 3826.01 4645.91 5581.01 3928.99 6834.92 4125.75 6379.33 5130.57 5652.73 3979.46 6321.97 3985.93 6412.84 6509.54 2589.19 6119.0 3792.06 5128.59 4993.49 4293.3 5587.3 4864.38 6583.37 3688.83 5631.32 6892.33 4505.3 4491.26 5793.14 4609.65 4511.34 5704.61 4068.41 4832.21 5410.73 4379.91 4942.63 6139.74 4975.57 7066.26 3057.3 4730.97 4594.89 6150.31 5245.95 3677.85 5214.71 4515.02 4677.84 4811.11 3463.53 4924.52 5379.52 6126.03 2970.24 5314.67 6044.69 5563.47 5658.05 6593.1 4066.36 4000.51 5462.1 6032.45 5011.37 4026.03 2827.92 6908.32 3467.11 5336.61 4817.75 6153.26 4848.15 5637.53 4439.09 5523.81 5648.59 4718.61 5188.57 3873.79 5357.33 5717.67 5252.37 5432.4 3224.81 4499.54 5037.58 7430.48 5640.67 6572.17 6080.69 3751.73 5555.89 4766.47 4871.1 5678.08 6009.93 5872.45 4414.09 5125.45 3784.68 4188.16 3717.22 6305.9 6649.21 5507.07 2943.17 4654.92 5327.71 4880.78 4322.56 5257.38 5509.09 5625.02 5212.05 5479.86 4829.77 4444.92 6959.88 5971.9 5749.53 3746.62 5090.48 5247.73 5402.45 5034.02 5582.28 4769.62 5945.25 6071.59 4649.5 3856.4 6079.55 5485.61 4137.16 4937.36 6189.29 5308.4 5984.55 5310.33 6581.13 4569.32 6126.5 4034.88 6322.0 6007.1 6345.2 5488.96 3188.21 5128.03 5919.27 3720.92 4793.06 5087.3 6637.38 6188.33 6111.23 6916.18 5786.06 5873.62 4996.91 3868.69 3920.44 4450.51 4866.8 6033.72 3768.62 3851.47 4966.74 2329.93 5651.46 4959.94 1635.31 5639.4 3162.27 6185.73 6033.93 4083.24 5516.37 5092.44 4441.44 5432.2 4232.44 3312.3 4612.4 5563.09 6381.58 3282.57 5212.2 4798.13 5108.42 6697.45 4630.5 6296.36 4432.32 5515.59 4451.76 7885.41 3775.38 4046.22 6457.89 4104.97 4844.2 5114.61 6118.13 3374.62 4926.62 4420.3 6332.64 3917.09 6492.44 4083.1 4613.32 5270.1 3482.73 5191.29 4957.99 4947.64 4063.26 5345.05 4997.89 4542.62 3470.69 4859.95 5286.55 4132.08 5522.18 5223.1 3873.72 4850.49 4981.55 4592.49 5144.23 3625.98 6188.62 6474.5 4702.32 4414.06 4763.04 5944.52 4413.56 4532.67 4876.37 5316.05 2513.38 4908.32 5260.13 3995.08 5019.84 5181.31 4810.74 4696.06 5985.75 5784.38 5475.83 4149.17 4329.8 5728.27 5803.3 5672.46 5108.84 4582.12 3511.5 4295.25 4520.14 5067.92 5357.14 4850.95 5374.09 6271.22 3421.81 5244.47 5378.75 3920.64 6186.24 5510.89 5822.7 3780.07 4137.41 5466.49 5447.74 5007.41 3692.99 4907.48 6213.74 4369.87 6938.87 5412.07 4806.99 6520.96 3771.91 5856.43 5217.62 3465.03 6178.19 4746.19 4616.81 5715.25 4362.94 4611.21 4469.82 6545.78 4870.14 3354.94 4404.87 5237.27 5105.72 5767.65 4750.76 5003.49 5782.25 4907.03 5497.27 4575.72 4081.77 4948.21 2181.29 4987.01 4706.31 4202.12 2694.25 6265.48 4735.99 4203.68 4739.56 5145.39 3996.93 5130.56 6351.95 5195.09 5200.1 7679.2 5093.28 4881.51 6131.52 4311.92 2626.41 6009.88 4699.77 6729.99 5093.41 6842.35 5464.34 6153.07 3621.63 5801.89 5908.57 7296.47 5050.2 4821.41 4924.53 5616.11 4499.52 3874.12 4028.13 3900.93 4457.73 6476.35 6260.58 4067.24 3053.19 5202.33 3074.49 4487.51 6805.02 5354.48 7394.47 4729.45 4900.26 6261.13 5783.88 4167.55 5002.38 4720.34 4865.11 4731.16 5502.14 6470.87 4495.33 5282.67 4159.89 5747.9 5178.55 4038.17 4287.93 5146.69 6203.24 6818.23 4488.41 5081.65 6679.12 5652.19 5512.57 5806.74 6578.62 3878.8 4813.55 6284.12 4796.04 3839.0 5229.56 5349.85 5799.86 5172.1 4672.34 6052.22 5376.41 5003.63 2932.2 4695.7 4944.08 4082.01 5269.39 3964.03 4216.33 5832.72 5617.91 3903.9 4444.95 4721.2 5161.02 3943.77 3124.49 5003.81 6262.18 3818.37 4701.03 3352.46 5663.36 5434.04 5125.53 3997.52 4444.54 5779.9 4909.74 5310.33 6664.54 3922.98 5161.73 5259.48 4777.96 4008.67 5254.93 4803.4 6833.5 6608.94 5742.39 2613.78 4780.16 5417.07 3834.01 4433.23 5738.37 4813.24 5759.19 5847.27 3113.64 4490.2 4304.75 5480.86 6139.9 6571.26 4246.24 5402.81 4919.13 4600.81 5640.63 5168.97 4358.06 5093.51 5647.93 6705.93 6201.49 5449.09 5154.74 4605.61 4465.56 4131.08 5386.95 3864.19 6540.57 5332.11 5315.71 6158.93 4823.14 5438.5 4621.32 5699.4 5237.76 4698.94 4286.84 3948.21 5669.15 5296.05 6011.4 5263.86 3330.85 6988.4 5056.32 5533.52 5410.33 4747.24 4380.86 5302.53 4909.13 5576.16 4305.35 5648.02 3308.75 5210.22 2451.27 5677.42 2701.42 4929.35 5606.22 6673.92 5242.38 5151.68 6081.35 5459.52 4609.98 5566.5 4738.72 4752.31 6225.05 5240.97 5579.04 4276.59 5405.6 5994.21 5403.81 4884.93 5082.25 4759.38 6964.78 4374.05 5299.03 5036.84 4565.36 5813.68 4025.08 5040.9 3618.53 4770.21 8013.28 3846.55 3796.73 4644.68 3082.16 5656.84 2892.36 5981.54 6789.66 5416.41 4739.41 5312.2 4706.59 5734.84 5551.79 3982.31 4950.07 4720.22 4333.23 5561.63 4328.76 3747.96 4124.33 5611.29 5940.5 6568.45 5004.22 4601.54 4280.92 4696.92 5705.96 6437.99 6898.8 6632.04 7360.62 4893.72 4985.45 6004.72 4072.4 5373.78 4714.52 5345.65 4489.18 2489.44 5863.36 5499.37 4632.75 4752.94 4994.98 3950.53 6423.96 6058.13 5894.69 4987.01 6635.51 4060.17 6051.35 5543.67 4287.61 4867.13 3999.81 4604.34 4439.17 4502.12 5442.79 5051.39 4633.59 4884.94 5733.59 5362.15 4455.61 3695.72 6874.6 5106.9 5569.85 5523.96 3929.35 4223.53 4733.37 6960.97 4287.15 5282.51 5504.65 5669.41 5732.11 3919.47 5596.68 4868.66 5159.9 4004.39 5283.65 4987.48 5943.61 4248.58 5911.29 4694.27 4542.25 6760.64 2515.5 4849.21 5177.88 3793.83 6981.47 4582.24 3916.15 5145.13 3860.8 4726.5 4521.88 5103.3 4963.88 7263.57 5888.94 4122.2 3832.09 5175.88 5267.65 5739.69 4790.16 3509.34 5360.88 3166.37 4977.64 4983.56 5369.42 5699.51 5207.08 5205.53 4587.19 4883.13 6028.89 4836.76 5333.16 5551.09 5755.98 4501.1 5392.85 5581.47 4384.91 6550.61 5275.27 4277.54 4713.56 6094.34 5925.82 6779.82 4739.5 6210.48 6377.45 4863.27 3255.93 6853.07 6327.61 5575.8 5268.93 5306.31 4535.94 3037.72 4523.9 5126.08 5604.0 3760.4 4951.02 4602.7 3783.35 4037.16 6395.63 5479.17 5020.37 4414.23 5233.88 4785.55 5245.4 6189.81 5438.6 7370.52 5467.05 3724.23 4727.98 4516.26 3647.26 3731.58 5543.05 4888.17 5077.2 4274.05 5529.09 4531.46 5448.68 4072.95 4491.62 3865.5 4182.05 
SCALARS Velocity float 1
LOOKUP_TABLE default
1.19181 1.19185 1.19183 1.19184 1.19187 1.19185 1.19179 1.1918 1.19178 1.19182 1.1918 1.19178 1.1918 1.19181 1.19182 1.19183 1.19182 1.19181 1.19179 1.1918 1.19179 1.19178 1.19182 1.19186 1.19183 1.1918 1.19178 1.19181 1.19184 1.19185 1.19178 1.19179 1.19186 1.19178 1.19178 1.19181 1.19179 1.19188 1.1919 1.19185 1.1918 1.19181 1.19187 1.1919 1.19186 1.19182 1.19186 1.19187 1.1918 1.19178 1.19182 1.19187 1.19193 1.19183 1.19184 1.19183 1.19178 1.1918 1.19179 1.19197 1.19189 1.19182 1.19184 1.19178 1.19188 1.19185 1.19185 1.19186 1.19178 1.19184 1.19185 1.19178 1.19179 1.19178 1.19178 1.19178 1.19181 1.19178 1.19178 1.19178 1.19179 1.19178 1.19178 1.19177 1.19184 1.19178 1.19182 1.19178 1.19178 1.19177 1.19179 1.19178 1.19178 1.19178 1.19178 1.19178 1.19178 1.19179 1.19181 1.19182 1.19183 1.19183 1.19182 1.19181 1.1918 1.19177 1.19179 1.19182 1.1918 1.19182 1.19182 1.19178 1.19177 1.19184 1.19186 1.19179 1.19178 1.19181 1.1918 1.19177 1.19179 1.19186 1.19196 1.19196 1.19177 1.19178 1.1918 1.19182 1.19179 1.19186 1.19184 1.19184 1.19191 1.19182 1.19183 1.19177 1.19178 1.19178 1.19182 1.1918 1.19175 1.1919 1.19188 1.19177 1.19179 1.19187 1.19194 1.19189 1.19189 1.19188 1.19188 1.1918 1.19179 1.19189 1.19177 1.19184 1.19186 1.19184 1.19178 1.19176 1.19181 1.19188 1.19188 1.19181 1.19181 1.19177 1.19183 1.1919 1.19182 1.19183 1.19182 1.19181 1.19179 1.1919 1.19192 1.19186 1.19188 1.19192 1.19188 1.1919 1.19185 1.19186 1.19179 1.19185 1.19178 1.19179 1.19178 1.1919 1.19178 1.19181 1.19178 1.19178 1.19179 1.19178 1.19178 1.19184 1.19182 1.19178 1.19179 1.19183 1.19178 1.19178 1.19178 1.19179 1.19178 1.19178 1.1918 1.19178 1.1918 1.19184 1.19183 1.19182 1.1918 1.19178 1.19181 1.19178 1.19182 1.19182 1.19177 1.19184 1.19186 1.19177 1.19176 1.19187 1.19183 1.19187 1.1918 1.1918 1.1918 1.19188 1.19201 1.19184 1.19177 1.19178 1.19189 1.19182 1.19187 1.19184 1.19178 1.19192 1.19194 1.19183 1.19178 1.19178 1.19182 1.19179 1.1919 1.19179 1.19183 1.19179 1.19195 1.1919 1.19187 1.19187 1.1918 1.19178 1.19189 1.19185 1.19178 1.19184 1.19188 1.19178 1.19202 1.1918 1.19175 1.19184 1.19177 1.19179 1.19181 1.19182 1.19193 1.19182 1.19181 1.19181 1.19181 1.19178 1.19178 1.1919 1.19188 1.19186 1.19193 1.1919 1.19185 1.19179 1.19184 1.19181 1.19178 1.19178 1.19189 1.19181 1.19178 1.19183 1.19177 1.19179 1.19184 1.19178 1.19182 1.19183 1.1918 1.19177 1.19178 1.19178 1.19177 1.19178 1.19181 1.1918 1.1918 1.19189 1.19182 1.19182 1.19183 1.19184 1.19181 1.19185 1.19179 1.19182 1.19178 1.19182 1.19185 1.19184 1.19179 1.19185 1.19178 1.19177 1.19186 1.19187 1.19182 1.19184 1.19187 1.19192 1.19203 1.19183 1.19179 1.1918 1.19186 1.19187 1.19184 1.19183 1.19196 1.19178 1.19205 1.19187 1.19194 1.19197 1.1918 1.1919 1.19183 1.19181 1.19195 1.19186 1.19188 1.19189 1.19192 1.19188 1.19184 1.19187 1.19179 1.19183 1.19181 1.19186 1.19203 1.19182 1.19182 1.192 1.19176 1.19178 1.19193 1.19196 1.19199 1.19181 1.19192 1.19183 1.19174 1.19184 1.19195 1.19187 1.19183 1.19185 1.19192 1.19194 1.19191 1.19187 1.19182 1.19182 1.19177 1.1919 1.19181 1.19182 1.19184 1.19178 1.1918 1.19176 1.19177 1.19183 1.19177 1.19182 1.19182 1.19184 1.1918 1.19177 1.19192 1.1918 1.19179 1.19177 1.1918 1.19183 1.19178 1.19183 1.19179 1.19182 1.19183 1.19178 1.1918 1.19184 1.19184 1.19181 1.19182 1.19179 1.19176 1.1917 1.1918 1.19168 1.19191 1.19178 1.19171 1.19187 1.19181 1.19181 1.19183 1.19186 1.19187 1.19183 1.1918 1.19187 1.19186 1.19181 1.19178 1.19178 1.19178 1.19177 1.19176 1.19192 1.19186 1.192 1.19195 1.19182 1.19182 1.19175 1.1919 1.19179 1.19178 1.19195 1.19181 1.19186 1.19184 1.19196 1.1919 1.19171 1.19188 1.19188 1.19194 1.19189 1.19177 1.19204 1.19194 1.19186 1.19197 1.19182 1.19187 1.19171 1.19183 1.19187 1.19184 1.19195 1.19181 1.19183 1.19184 1.19181 1.19195 1.19183 1.19184 1.19191 1.19191 1.19186 1.19181 1.19193 1.19192 1.19182 1.19169 1.19179 1.19178 1.1918 1.19193 1.19186 1.19189 1.19179 1.19181 1.19183 1.19185 1.1918 1.19182 1.19184 1.1918 1.19175 1.19191 1.1918 1.1918 1.1918 1.19181 1.19184 1.19183 1.19178 1.19179 1.19177 1.1918 1.19184 1.19182 1.1918 1.19185 1.19178 1.19177 1.19179 1.1918 1.19178 1.19181 1.19183 1.19183 1.19183 1.19186 1.19196 1.19202 1.19181 1.19186 1.1918 1.19183 1.19177 1.19191 1.19198 1.19183 1.19201 1.19178 1.19171 1.19184 1.19188 1.19184 1.19189 1.19177 1.19182 1.19196 1.19199 1.19195 1.19194 1.19171 1.19187 1.19183 1.19186 1.19193 1.192 1.19205 1.19193 1.19175 1.19195 1.19182 1.1919 1.19175 1.19178 1.19184 1.19185 1.1918 1.19175 1.19194 1.19185 1.19184 1.19181 1.19194 1.19178 1.19181 1.1919 1.19181 1.19192 1.1918 1.19165 1.1918 1.1918 1.19173 1.19185 1.19178 1.19181 1.19186 1.19184 1.19182 1.19179 1.19179 1.1918 1.19185 1.19184 1.19178 1.19178 1.19179 1.19176 1.1918 1.19182 1.19182 1.19183 1.1918 1.19181 1.19185 1.19181 1.19184 1.19175 1.19173 1.1918 1.19181 1.19179 1.19181 1.19191 1.1918 1.19194 1.19204 1.19196 1.19196 1.192 1.19199 1.19179 1.19181 1.1918 1.19175 1.19175 1.19177 1.19171 1.19172 1.19178 1.19182 1.19241 1.19174 1.19178 1.1919 1.1919 1.19188 1.19185 1.19176 1.1919 1.19195 1.19177 1.19187 1.19184 1.19193 1.19214 1.192 1.19204 1.19201 1.19185 1.19171 1.19192 1.19179 1.19189 1.19175 1.19186 1.19191 1.19182 1.19178 1.19186 1.19177 1.19185 1.19169 1.19169 1.19181 1.19178 1.19183 1.19181 1.19189 1.19186 1.19169 1.19187 1.19185 1.19191 1.19185 1.19166 1.19179 1.19177 1.19182 1.19178 1.19183 1.19185 1.19174 1.19181 1.1918 1.19178 1.19185 1.1918 1.19181 1.19179 1.19175 1.19181 1.19178 1.19181 1.19179 1.19178 1.1918 1.19181 1.19183 1.19181 1.1918 1.1918 1.19186 1.19174 1.19195 1.19179 1.19178 1.19182 1.19178 1.19175 1.19181 1.19196 1.19179 1.19183 1.19195 1.19196 1.19197 1.19179 1.192 1.19187 1.19223 1.19168 1.19202 1.19172 1.19183 1.19195 1.19191 1.19177 1.19185 1.19176 1.19196 1.19189 1.19175 1.19176 1.19189 1.19188 1.19184 1.1918 1.19198 1.19186 1.19185 1.19189 1.19188 1.19203 1.19191 1.1918 1.1917 1.19193 1.19185 1.19186 1.19177 1.19188 1.19183 1.19178 1.19193 1.19177 1.19194 1.19179 1.1918 1.19178 1.19178 1.19176 1.19181 1.19184 1.19184 1.19175 1.19181 1.19191 1.19178 1.19179 1.19177 1.19176 1.19174 1.19183 1.19172 1.19177 1.19168 1.19189 1.1918 1.19184 1.1918 1.19176 1.19183 1.1918 1.19181 1.19179 1.19181 1.19171 1.19181 1.19171 1.19178 1.19181 1.19179 1.1918 1.19183 1.1918 1.1918 1.19185 1.19185 1.19182 1.19185 1.19193 1.19176 1.19176 1.19182 1.19177 1.19173 1.19185 1.19176 1.19183 1.19195 1.1918 1.19186 1.19193 1.19178 1.19197 1.19195 1.19204 1.19174 1.19212 1.19178 1.19197 1.19174 1.19195 1.19162 1.19188 1.19183 1.19161 1.19178 1.19195 1.19196 1.19177 1.19192 1.19181 1.19184 1.19176 1.19187 1.19183 1.19196 1.19183 1.19193 1.19189 1.19186 1.19185 1.19181 1.19182 1.19187 1.19203 1.19196 1.19187 1.19178 1.19194 1.19186 1.19183 1.1918 1.19186 1.19185 1.19163 1.19168 1.19192 1.19194 1.19196 1.19182 1.19185 1.19177 1.19166 1.19174 1.19178 1.19172 1.19173 1.19183 1.1917 1.19172 1.19181 1.19189 1.19173 1.19178 1.19182 1.1918 1.19173 1.19187 1.19182 1.19168 1.19193 1.19178 1.1918 1.19184 1.19179 1.19176 1.19179 1.19175 1.19182 1.1918 1.19179 1.19182 1.19179 1.19175 1.19176 1.19169 1.19178 1.19179 1.19178 1.19179 1.19178 1.19177 1.19181 1.19178 1.1918 1.1918 1.19178 1.19183 1.19189 1.19178 1.19177 1.19201 1.19176 1.19159 1.19195 1.19181 1.19178 1.19191 1.19192 1.19191 1.19209 1.19179 1.19196 1.19197 1.19198 1.19206 1.19198 1.1918 1.19201 1.19171 1.19165 1.19189 1.19189 1.19188 1.19183 1.19161 1.19146 1.19192 1.19192 1.19184 1.19181 1.19188 1.19182 1.19178 1.19191 1.19182 1.19183 1.19186 1.19185 1.19182 1.19186 1.19188 1.19168 1.19181 1.19187 1.19183 1.19191 1.19197 1.19185 1.19166 1.19166 1.19177 1.19179 1.19191 1.19176 1.19176 1.19178 1.19201 1.19185 1.19176 1.19169 1.19173 1.19167 1.19173 1.19187 1.19164 1.19196 1.19177 1.19185 1.19177 1.19178 1.19178 1.19181 1.19174 1.1918 1.19179 1.19183 1.19181 1.1917 1.19182 1.19178 1.19179 1.19174 1.19175 1.19182 1.1918 1.19179 1.19182 1.19178 1.19175 1.19183 1.19176 1.19178 1.19178 1.19183 1.19173 1.19175 1.19177 1.19179 1.1918 1.19178 1.19178 1.19179 1.19178 1.19181 1.19185 1.19182 1.19174 1.19201 1.19155 1.19196 1.19191 1.19192 1.19189 1.19179 1.19178 1.19202 1.19186 1.19188 1.19214 1.192 1.19192 1.19198 1.19195 1.192 1.19197 1.19184 1.19148 1.19201 1.19164 1.19148 1.19169 1.19158 1.19186 1.19173 1.1919 1.19175 1.19176 1.19171 1.19185 1.19183 1.19198 1.1918 1.19162 1.19143 1.19182 1.19167 1.19196 1.1918 1.19182 1.19184 1.19178 1.19189 1.19188 1.1917 1.19172 1.19199 1.19164 1.19184 1.19166 1.19178 1.1919 1.19127 1.19195 1.19204 1.1919 1.19169 1.19173 1.19174 1.19176 1.19168 1.19176 1.19188 1.19198 1.19177 1.19176 1.19176 1.19174 1.19174 1.19172 1.19177 1.19174 1.19181 1.19181 1.19186 1.19177 1.19176 1.19179 1.19185 1.19177 1.19173 1.19173 1.19181 1.1918 1.19179 1.19183 1.19176 1.19176 1.19178 1.19186 1.19188 1.19178 1.19177 1.19182 1.19174 1.19178 1.19178 1.1918 1.19172 1.19175 1.19177 1.19178 1.19181 1.19184 1.19178 1.19174 1.19212 1.19174 1.19189 1.19189 1.19184 1.19178 1.19207 1.19192 1.19213 1.192 1.19205 1.19191 1.19195 1.19177 1.19201 1.19147 1.19177 1.19173 1.19182 1.19182 1.1918 1.19196 1.19163 1.19178 1.19183 1.1918 1.19177 1.19183 1.1917 1.19175 1.19174 1.1918 1.19184 1.19181 1.19183 1.19178 1.19151 1.19183 1.19178 1.19176 1.19178 1.19163 1.19157 1.19169 1.19183 1.19142 1.19147 1.1919 1.19188 1.19206 1.19174 1.19191 1.19171 1.19181 1.19184 1.19179 1.19186 1.19181 1.19173 1.19175 1.19184 1.19174 1.19179 1.1919 1.19178 1.1917 1.19178 1.19175 1.19183 1.19175 1.19173 1.19172 1.19181 1.19178 1.19179 1.19177 1.19178 1.19186 1.19186 1.19181 1.1918 1.19173 1.19179 1.19176 1.19172 1.19176 1.19182 1.19167 1.1919 1.19197 1.19171 1.19214 1.19193 1.19202 1.19187 1.19178 1.19178 1.1921 1.19212 1.1919 1.19217 1.19177 1.1919 1.19186 1.19197 1.19182 1.19167 1.19178 1.19188 1.19188 1.19193 1.19178 1.19188 1.19209 1.19182 1.19177 1.19172 1.19175 1.19178 1.19176 1.19164 1.19174 1.19183 1.19177 1.19169 1.19176 1.19175 1.19184 1.19182 1.19156 1.19179 1.19171 1.19175 1.19151 1.19173 1.19163 1.19158 1.19171 1.19186 1.19141 1.19148 1.19189 1.19187 1.19199 1.19172 1.1919 1.19171 1.19179 1.1918 1.19167 1.19174 1.19174 1.19157 1.19169 1.19173 1.19175 1.19177 1.19174 1.19175 1.19184 1.19175 1.19179 1.19169 1.19172 1.19189 1.19175 1.19183 1.19168 1.19174 1.19175 1.19178 1.19181 1.19175 1.19171 1.19181 1.19179 1.19171 1.19171 1.19173 1.19181 1.19188 1.19183 1.1918 1.19184 1.19181 1.19178 1.19176 1.19177 1.19173 1.19175 1.19173 1.19182 1.19156 1.19172 1.19183 1.19201 1.19178 1.19161 1.1919 1.19188 1.19206 1.19193 1.1918 1.19195 1.192 1.19197 1.19208 1.19206 1.19176 1.19191 1.19202 1.19206 1.19243 1.19203 1.19151 1.19153 1.19197 1.19177 1.19196 1.19175 1.19177 1.1919 1.19215 1.19179 1.19176 1.19161 1.19177 1.19171 1.19178 1.19182 1.19171 1.19176 1.19175 1.19173 1.1918 1.19163 1.1916 1.19179 1.19179 1.19175 1.19173 1.19156 1.19185 1.19185 1.19141 1.19144 1.19184 1.19179 1.19192 1.1919 1.19184 1.19171 1.19179 1.19178 1.19177 1.19178 1.19155 1.19165 1.19174 1.1917 1.19178 1.19176 1.19184 1.19178 1.19176 1.19174 1.19176 1.19181 1.19168 1.19175 1.19174 1.19177 1.19177 1.1918 1.19178 1.19173 1.1917 1.19165 1.19172 1.19167 1.19182 1.19179 1.1917 1.19179 1.19184 1.19182 1.19186 1.19175 1.19172 1.19173 1.19174 1.19186 1.19144 1.192 1.19211 1.19192 1.19156 1.19183 1.19175 1.19209 1.19192 1.19194 1.19211 1.19195 1.19197 1.19184 1.19179 1.19183 1.19176 1.19197 1.19177 1.19191 1.19171 1.19199 1.19242 1.19202 1.19151 1.19148 1.19196 1.19176 1.1919 1.1914 1.19164 1.19171 1.19174 1.19213 1.19182 1.1918 1.19166 1.1916 1.19173 1.19173 1.19178 1.19172 1.19169 1.19173 1.19181 1.19174 1.1917 1.19173 1.19166 1.19164 1.19165 1.1917 1.19176 1.19171 1.19163 1.19173 1.19174 1.1918 1.19165 1.19177 1.19174 1.19178 1.19191 1.19178 1.19171 1.1918 1.19183 1.19179 1.19177 1.19157 1.19161 1.19168 1.19176 1.19183 1.19176 1.19174 1.19179 1.19171 1.19178 1.19178 1.19176 1.19175 1.19179 1.19177 1.19174 1.19177 1.19172 1.19174 1.19178 1.1918 1.19178 1.19171 1.19177 1.19178 1.19178 1.19173 1.19173 1.1918 1.19184 1.19179 1.19182 1.1919 1.19171 1.1916 1.19203 1.19191 1.1919 1.19169 1.19177 1.19208 1.19191 1.19178 1.19166 1.19173 1.19205 1.19203 1.19196 1.19205 1.19199 1.19192 1.19171 1.19174 1.19191 1.19191 1.19174 1.19195 1.19218 1.19153 1.19202 1.19204 1.19196 1.19183 1.19178 1.19139 1.19169 1.19179 1.19172 1.1919 1.19159 1.19174 1.19163 1.19169 1.19174 1.19171 1.19171 1.19166 1.1917 1.19165 1.19185 1.19169 1.19174 1.19176 1.19171 1.19162 1.19176 1.19176 1.19174 1.19183 1.19168 1.19178 1.19167 1.19171 1.19189 1.1917 1.19177 1.19171 1.19181 1.19178 1.19178 1.19176 1.1918 1.19157 1.19165 1.19176 1.19178 1.19175 1.19178 1.19172 1.19179 1.19178 1.19177 1.19175 1.19179 1.19174 1.19178 1.19179 1.19182 1.19178 1.1917 1.19181 1.19172 1.19176 1.19171 1.19183 1.19192 1.19181 1.19185 1.19181 1.19188 1.19171 1.19178 1.19202 1.19178 1.19179 1.192 1.19199 1.19184 1.19175 1.19185 1.19214 1.19193 1.19199 1.19203 1.19173 1.1918 1.1916 1.192 1.19189 1.19177 1.19195 1.19212 1.19181 1.192 1.19205 1.192 1.19179 1.19168 1.19166 1.1917 1.19173 1.19186 1.19183 1.19163 1.19169 1.19133 1.19172 1.19172 1.19178 1.19174 1.19173 1.19163 1.19168 1.19165 1.19186 1.19169 1.19166 1.19179 1.1918 1.19171 1.19164 1.19161 1.19162 1.19165 1.19182 1.19166 1.19178 1.19166 1.1917 1.19188 1.1917 1.19164 1.19174 1.19171 1.19178 1.19176 1.19176 1.19179 1.19172 1.19161 1.19166 1.19162 1.19163 1.19159 1.19163 1.19176 1.19175 1.19178 1.19171 1.19179 1.19179 1.19177 1.19175 1.19178 1.19171 1.19169 1.19168 1.19167 1.19178 1.19178 1.1917 1.19174 1.19177 1.1917 1.19169 1.19171 1.19191 1.19181 1.19178 1.19171 1.19184 1.19185 1.19193 1.19161 1.1919 1.19226 1.19172 1.19178 1.19196 1.19198 1.19177 1.19179 1.19223 1.1916 1.19212 1.19193 1.1919 1.19194 1.1919 1.19194 1.19209 1.19182 1.19177 1.192 1.19212 1.19179 1.19177 1.19179 1.19197 1.19207 1.19169 1.19178 1.19167 1.19202 1.19172 1.19163 1.1917 1.19155 1.19172 1.19178 1.19178 1.19174 1.19177 1.1918 1.19169 1.19166 1.19163 1.1917 1.19167 1.19184 1.1917 1.19171 1.19164 1.19171 1.19154 1.19166 1.19181 1.19166 1.1917 1.19165 1.1917 1.19188 1.19173 1.19172 1.19178 1.19175 1.19177 1.19178 1.19172 1.19162 1.19168 1.19163 1.19162 1.19162 1.19176 1.1917 1.19174 1.19179 1.19171 1.19178 1.19174 1.19178 1.19174 1.19174 1.19176 1.19169 1.19169 1.19171 1.19171 1.19172 1.19178 1.19179 1.19178 1.19173 1.19176 1.19169 1.19174 1.192 1.19183 1.19167 1.1917 1.19183 1.19186 1.19188 1.19182 1.19168 1.19202 1.19231 1.19194 1.19198 1.19184 1.19173 1.1922 1.19156 1.19187 1.19205 1.19191 1.1918 1.19196 1.19185 1.19194 1.19205 1.19179 1.1918 1.19173 1.192 1.19211 1.19179 1.19176 1.19173 1.1919 1.192 1.19169 1.19151 1.19175 1.19202 1.19177 1.1919 1.19187 1.19156 1.1917 1.19154 1.19178 1.19193 1.19171 1.1918 1.19181 1.19173 1.19162 1.19179 1.19166 1.19178 1.19169 1.19171 1.19164 1.19172 1.19169 1.19157 1.19157 1.19177 1.19174 1.19169 1.19177 1.19167 1.19171 1.19169 1.19169 1.19174 1.19178 1.19178 1.19177 1.19178 1.19168 1.1918 1.19179 1.19157 1.19158 1.19164 1.19178 1.19161 1.19169 1.19178 1.1918 1.19175 1.19177 1.19177 1.19177 1.19175 1.19176 1.19174 1.19169 1.19174 1.19175 1.19174 1.19178 1.19171 1.19178 1.19178 1.19178 1.19173 1.19172 1.19176 1.19199 1.19181 1.19178 1.19164 1.19189 1.19171 1.19183 1.19184 1.19174 1.19178 1.19221 1.19204 1.19177 1.19202 1.19188 1.19178 1.19219 1.19191 1.19177 1.192 1.19175 1.19188 1.19175 1.19192 1.192 1.19181 1.19178 1.19191 1.19177 1.19156 1.19207 1.19178 1.19177 1.19179 1.19194 1.19161 1.19164 1.19183 1.1917 1.19177 1.19187 1.19155 1.19158 1.19173 1.19157 1.19178 1.19173 1.19177 1.19179 1.1918 1.19172 1.19171 1.19187 1.19166 1.19164 1.19171 1.19167 1.19164 1.19156 1.19174 1.19172 1.19172 1.19169 1.19164 1.19176 1.19178 1.19167 1.19169 1.19176 1.19176 1.19179 1.19176 1.19176 1.19179 1.19177 1.1916 1.1917 1.19174 1.19161 1.19174 1.19177 1.19173 1.19177 1.19177 1.19177 1.19175 1.19175 1.19178 1.19179 1.19178 1.19178 1.19171 1.19186 1.19188 1.19177 1.19178 1.19169 1.1917 1.19179 1.19178 1.19177 1.19181 1.19173 1.19173 1.19176 1.19165 1.19184 1.19181 1.19184 1.19178 1.19177 1.19195 1.19196 1.19202 1.19224 1.19203 1.19176 1.19168 1.19206 1.19188 1.19189 1.19171 1.1917 1.19185 1.1919 1.19191 1.19173 1.19155 1.19207 1.19178 1.19161 1.19164 1.19164 1.1916 1.19162 1.19153 1.19151 1.1918 1.19191 1.19168 1.19186 1.19163 1.19167 1.19174 1.19159 1.19174 1.19179 1.19172 1.1917 1.1917 1.19163 1.19164 1.19162 1.19165 1.19178 1.1917 1.19167 1.19178 1.19174 1.19186 1.19172 1.19178 1.19178 1.19162 1.19164 1.19188 1.19172 1.19169 1.19163 1.1917 1.19162 1.19166 1.19168 1.19176 1.19178 1.19178 1.19176 1.19176 1.19177 1.19176 1.19177 1.19176 1.19173 1.1916 1.19173 1.19177 1.19173 1.19178 1.19177 1.19175 1.19175 1.19177 1.19178 1.19173 1.19178 1.19179 1.19186 1.19176 1.19177 1.19173 1.19183 1.19177 1.19181 1.19179 1.19166 1.1918 1.19168 1.19172 1.19161 1.19184 1.19185 1.19186 1.19181 1.19169 1.19176 1.1919 1.19195 1.19193 1.192 1.19205 1.19178 1.1917 1.19139 1.19173 1.19174 1.19195 1.19239 1.1917 1.19189 1.19185 1.19193 1.1917 1.19152 1.19209 1.19203 1.19173 1.19157 1.19158 1.19161 1.1916 1.19174 1.19178 1.19191 1.19165 1.19183 1.1916 1.19164 1.19176 1.19177 1.19173 1.19179 1.19154 1.19171 1.1917 1.1916 1.19173 1.19174 1.19172 1.19165 1.19171 1.19187 1.19177 1.19178 1.19181 1.19172 1.19174 1.19172 1.1917 1.19181 1.19178 1.19178 1.19164 1.19167 1.19168 1.19178 1.19177 1.19178 1.19178 1.19178 1.19176 1.19177 1.19176 1.19178 1.19161 1.19174 1.19177 1.19178 1.19178 1.19177 1.19178 1.19175 1.19177 1.19176 1.19173 1.19178 1.19179 1.19179 1.19178 1.19168 1.19178 1.19181 1.19178 1.19176 1.19179 1.19165 1.1918 1.19168 1.19161 1.19166 1.19164 1.19183 1.19175 1.1918 1.19169 1.19176 1.19185 1.19192 1.19178 1.19198 1.19196 1.19177 1.19174 1.19144 1.19168 1.19235 1.19138 1.19164 1.19169 1.1919 1.1918 1.19162 1.19154 1.19157 1.19194 1.19186 1.19194 1.19158 1.19171 1.19178 1.19149 1.19177 1.19156 1.19171 1.19192 1.19184 1.19164 1.19163 1.19179 1.19176 1.19179 1.1917 1.19178 1.1918 1.19178 1.19171 1.19179 1.19173 1.19174 1.19172 1.19164 1.1917 1.19171 1.19177 1.19175 1.19177 1.19171 1.19178 1.19172 1.1917 1.19175 1.19172 1.19167 1.19176 1.19176 1.19177 1.19178 1.19178 1.19178 1.19177 1.19177 1.19178 1.19178 1.19178 1.19174 1.19177 1.19178 1.19178 1.19178 1.19178 1.19175 1.19177 1.19176 1.19178 1.19178 1.19177 1.19175 1.19177 1.19168 1.19176 1.19181 1.19169 1.19168 1.19174 1.19165 1.19159 1.19173 1.19163 1.1916 1.19171 1.19167 1.19184 1.19167 1.19171 1.19167 1.1918 1.19168 1.19204 1.1919 1.19192 1.19181 1.1915 1.19163 1.1919 1.1913 1.19173 1.19153 1.19195 1.19176 1.19157 1.1914 1.19164 1.19178 1.19157 1.19171 1.19162 1.19174 1.19172 1.19167 1.19174 1.19164 1.19166 1.19179 1.19179 1.19178 1.19181 1.19171 1.19178 1.19173 1.19179 1.19173 1.1917 1.19171 1.19175 1.19178 1.19177 1.19179 1.19172 1.19176 1.19172 1.19161 1.1917 1.19172 1.19172 1.19167 1.19167 1.19176 1.19176 1.19178 1.19178 1.19178 1.19177 1.19176 1.19177 1.19178 1.19178 1.19178 1.19174 1.19178 1.19178 1.19178 1.19178 1.19178 1.19175 1.19177 1.19176 1.19177 1.19177 1.19178 1.19178 1.1917 1.19177 1.19174 1.19179 1.1917 1.19178 1.19156 1.19173 1.19164 1.19148 1.1917 1.19164 1.19156 1.19166 1.19177 1.19185 1.19209 1.19188 1.19159 1.19164 1.19165 1.19191 1.19125 1.19164 1.19176 1.1918 1.19157 1.19153 1.19146 1.19154 1.1912 1.19121 1.19137 1.19194 1.19135 1.19146 1.1916 1.19171 1.19179 1.19177 1.19175 1.19163 1.19164 1.19168 1.19169 1.19166 1.19161 1.1917 1.19178 1.19179 1.19172 1.19179 1.19172 1.1917 1.19177 1.1918 1.19169 1.19164 1.19169 1.19173 1.19175 1.19175 1.19172 1.19176 1.19173 1.19177 1.19161 1.1917 1.19176 1.19177 1.19169 1.19168 1.19162 1.19136 1.19158 1.19154 1.19162 1.19148 1.19164 1.19171 1.19186 1.1921 1.19181 1.19189 1.19158 1.19149 1.1918 1.19182 1.19182 1.19183 1.19139 1.1917 1.19156 1.19176 1.19145 1.19163 1.19155 1.19176 1.19163 1.19172 1.19171 1.19178 1.19175 1.19171 1.19161 1.19162 1.1918 1.19147 1.19174 1.19166 1.19184 1.19165 1.19179 1.19189 1.19191 1.1918 1.19181 1.19175 1.19193 1.1916 1.19152 1.19172 1.19169 1.19139 1.19154 1.19164 1.19182 1.19161 1.19185 1.19169 1.19187 1.19154 1.19174 1.19192 1.19193 1.19182 1.19193 1.19168 1.19188 1.19169 1.19165 1.19156 1.19134 1.19178 1.1914 1.19171 1.19162 1.19181 1.19169 1.19189 1.19165 1.19147 1.19178 1.19169 1.19189 1.19191 1.19177 1.19185 1.19178 1.19145 1.19166 1.19178 1.19175 1.19147 1.19133 1.19139 1.1917 1.19178 1.19171 1.1915 1.19179 1.19155 1.19178 1.19165 1.1919 1.19189 1.19173 1.19187 1.19145 1.19166 1.1918 1.19156 1.19156 1.1914 1.19126 1.19155 1.192 1.19178 1.19178 1.19178 1.19178 1.1918 1.1917 1.19163 1.19181 1.19155 1.19174 1.19159 1.1919 1.19193 1.19162 1.19195 1.19173 1.19187 1.19167 1.19185 1.19155 1.19127 1.19194 1.19184 1.19178 1.19178 1.19178 1.19178 1.19178 1.19178 1.19178 1.19178 1.19178 1.19178 1.19178 1.19178 1.19178 1.19178 1.19178 1.19178 1.19178 1.19178 1.19178 1.19178 1.19178 1.19178 1.19178 1.19176 1.19175 1.1917 1.19166 1.19187 1.19162 1.19155 1.19154 1.19189 1.19217 1.1915 1.19196 1.19172 1.19174 1.1917 1.19164 1.19174 1.19211 1.19183 1.19185 1.19187 1.19178 1.19178 1.19178 1.19178 1.19178 1.19178 1.19178 1.19178 1.19178 1.19178 1.19178 1.19178 1.19178 1.19178 1.19178 1.19178 1.19178 1.19178 1.19178 1.19178 1.19178 1.19178 1.19178 1.19178 1.19178 1.19178 1.19178 1.19178 1.19178 1.19162 1.19166 1.19174 1.19199 1.19169 1.19181 1.19151 1.19153 1.19231 1.19191 1.1916 1.19161 1.19204 1.1916 1.19152 1.1917 1.19195 1.19198 1.19181 1.19187 1.19185 1.19184 1.19166 1.19178 1.19178 1.19178 1.19178 1.19178 1.19178 1.19178 1.19178 1.19178 1.19178 1.19178 1.19178 1.19178 1.19178 1.19178 1.19178 1.19178 1.19178 1.19178 1.19178 1.19178 1.19178 1.19178 1.19178 1.19178 1.19178 1.19178 1.19178 1.19178 1.19178 1.19178 1.19178 1.19178 1.19178 1.19178 1.19178 1.19178 1.19179 1.19185 1.19163 1.19213 1.19165 1.19163 1.1915 1.19178 1.19147 1.19152 1.19149 1.19186 1.19172 1.19143 1.19191 1.19155 1.19149 1.19163 1.19175 1.192 1.19182 1.1918 1.19225 1.19189 1.19175 1.19191 1.19177 1.19178 1.19178 1.19178 1.19178 1.19178 1.19178 1.19178 1.19178 1.19178 1.19178 1.19178 1.19178 1.19178 1.19178 1.19178 1.19178 1.19178 1.19178 1.19178 1.19178 1.19178 1.19178 1.19178 1.19178 1.19178 1.19178 1.19178 1.19178 1.19178 1.19178 1.19178 1.19178 1.19178 1.19178 1.19178 1.19178 1.19178 1.19178 1.19178 1.19178 1.19178 1.19178 1.19178 1.19178 1.19193 1.19163 1.19169 1.19154 1.19178 1.19147 1.19154 1.19168 1.19186 1.19169 1.19143 1.19121 1.19151 1.19141 1.19161 1.19198 1.19216 1.19182 1.19166 1.19199 1.19178 1.1918 1.19178 1.19178 1.19178 1.19178 1.19178 1.19178 1.19178 1.19178 1.19178 1.19178 1.19178 1.19178 1.19178 1.19178 1.19178 1.19178 1.19178 1.19178 1.19178 1.19178 1.19178 1.19178 1.19178 1.19178 1.19178 1.19178 1.19178 1.19178 1.19178 1.19178 1.19178 1.19178 1.19178 1.19178 1.19178 1.19178 1.19178 1.19178 1.19178 1.19178 1.19178 1.19178 1.19178 1.19178 1.19178 1.19177 1.19178 1.19177 1.19176 1.19164 1.19144 1.19162 1.19157 1.19167 1.19181 1.19153 1.19169 1.1918 1.19164 1.19155 1.19124 1.19178 1.19146 1.19198 1.19188 1.19175 1.19206 1.19199 1.19165 1.19155 1.19177 1.19177 1.19178 1.19178 1.19178 1.19178 1.19178 1.19178 1.19178 1.19178 1.19178 1.19178 1.19178 1.19178 1.19178 1.19178 1.19178 1.19178 1.19178 1.19178 1.19178 1.19178 1.19178 1.19178 1.19178 1.19178 1.19178 1.19178 1.19178 1.19178 1.19178 1.19178 1.19178 1.19178 1.19178 1.19178 1.19178 1.19178 1.19178 1.19178 1.19178 1.19178 1.19178 1.19178 1.19178 1.19178 1.19178 1.19178 1.19178 1.19178 1.19178 1.19178 1.19176 1.19178 1.1918 1.19156 1.19227 1.19172 1.19183 1.19167 1.19155 1.19185 1.192 1.19189 1.19167 1.19174 1.19181 1.19134 1.19189 1.192 1.19177 1.19172 1.19168 1.19161 1.19208 1.19169 1.1917 1.19178 1.19178 1.19177 1.19178 1.19178 1.19178 1.19178 1.19178 1.19178 1.19178 1.19178 1.19178 1.19178 1.19178 1.19178 1.19178 1.19178 1.19178 1.19178 1.19178 1.19178 1.19178 1.19178 1.19178 1.19178 1.19178 1.19178 1.19178 1.19178 1.19178 1.19178 1.19178 1.19178 1.19178 1.19178 1.19178 1.19178 1.19178 1.19178 1.19178 1.19178 1.19178 1.19178 1.19178 1.19178 1.19182 1.19163 1.19108 1.19187 1.19171 1.19182 1.19165 1.19198 1.19183 1.19218 1.19173 1.19185 1.1919 1.19201 1.19158 1.19175 1.19175 1.19166 1.19178 1.19157 1.19198 1.19142 1.19186 1.19198 1.19173 1.19178 1.19178 1.19178 1.19178 1.19178 1.19178 1.19178 1.19178 1.19178 1.19178 1.19178 1.19178 1.19178 1.19178 1.19178 1.19178 1.19178 1.19178 1.19178 1.19178 1.19178 1.19178 1.19178 1.19178 1.19178 1.19178 1.19178 1.19178 1.19178 1.19178 1.19178 1.19178 1.19178 1.19178 1.19178 1.19178 1.19178 1.19178 1.19178 1.19178 1.19195 1.19178 1.19144 1.19229 1.19126 1.19182 1.1916 1.19152 1.19192 1.19191 1.19192 1.19178 1.19169 1.19155 1.19178 1.19219 1.19174 1.19179 1.19178 1.19178 1.19178 1.19178 1.19178 1.19178 1.19178 1.19178 1.19178 1.19178 1.19178 1.19178 1.19178 1.19178 1.19178 1.19178 1.19178 1.19178 1.19178 1.19178 1.19178 1.19178 1.19178 1.19178 1.19178 1.19178 1.19178 1.19178 1.19178 1.19178 1.19178 1.19178 1.19178 1.19178 1.19178 1.19178 1.19178 1.19178 1.19178 1.19178 1.19178 1.19178 1.19178 1.19178 1.19178 1.19179 1.19193 1.19266 1.19173 1.19149 1.19198 1.19176 1.19173 1.19207 1.19185 1.19161 1.19179 1.19162 1.19147 1.19179 1.19187 1.19163 1.19178 1.19178 1.19178 1.19178 1.19178 1.19178 1.19178 1.19178 1.19178 1.19178 1.19178 1.19178 1.19178 1.19178 1.19178 1.19178 1.19178 1.19178 1.19178 1.19178 1.19178 1.19178 1.19178 1.19178 1.19178 1.19178 1.19178 1.19178 1.19178 1.19178 1.19178 1.19178 1.19178 1.19178 1.19178 1.19178 1.19178 1.19178 1.19178 1.19178 1.19178 1.19178 1.19178 1.19178 1.19178 1.19157 1.19176 1.19179 1.19202 1.19182 1.1917 1.19195 1.1918 1.19221 1.19178 1.19167 1.19181 1.1916 1.19179 1.19156 1.19144 1.192 1.19152 1.1918 1.19169 1.19194 1.19184 1.19178 1.19178 1.19178 1.19178 1.19178 1.19178 1.19178 1.19178 1.19178 1.19178 1.19178 1.19178 1.19178 1.19178 1.19178 1.19178 1.19178 1.19178 1.19178 1.19178 1.19178 1.19178 1.19178 1.19178 1.19178 1.19178 1.19178 1.19178 1.19178 1.19178 1.19172 1.1918 1.1918 1.19193 1.19169 1.19187 1.19175 1.19182 1.1919 1.19168 1.19166 1.19143 1.19141 1.19187 1.19154 1.19171 1.19162 1.19167 1.19173 1.19179 1.19178 1.19178 1.19178 1.19178 1.19178 1.19178 1.19178 1.19178 1.19178 1.19178 1.19178 1.19178 1.19178 1.19178 1.19178 1.19178 1.19178 1.19178 1.19178 1.19178 1.19178 1.19178 1.19178 1.19178 1.19178 1.19178 1.19178 1.19175 1.1918 1.19179 1.19168 1.19162 1.19193 1.1916 1.19173 1.19182 1.19171 1.19152 1.19158 1.19146 1.19162 1.19177 1.1916 1.19155 1.19167 1.19151 1.19178 1.19178 1.19178 1.19178 1.19178 1.19178 1.19178 1.19178 1.19178 1.19178 1.19178 1.19178 1.19178 1.19178 1.19178 1.19178 1.19178 1.19178 1.19178 1.19178 1.19178 1.19178 1.19178 1.19178 1.19178 1.19178 1.19178 1.19158 1.19163 1.1915 1.19144 1.19192 1.19159 1.19164 1.19182 1.19131 1.19138 1.19133 1.19139 1.19125 1.19127 1.19151 1.19185 1.19178 1.19177 1.19146 1.19175 1.1918 1.19178 1.19178 1.19178 1.19178 1.19178 1.19178 1.19178 1.19178 1.19178 1.19178 1.19178 1.19178 1.19178 1.19178 1.19178 1.19189 1.19124 1.19142 1.19136 1.19169 1.19157 1.19162 1.19157 1.19122 1.19142 1.19161 1.19178 1.19188 1.19091 1.19198 1.19178 1.19175 1.19179 1.19144 1.1915 1.19178 1.19178 1.19178 1.19178 1.19178 1.19178 1.19178 1.19178 1.19178 1.19178 1.19178 1.19178 1.19178 1.19178 1.19178 1.19178 1.19178 1.19178 1.19184 1.19164 1.19145 1.19158 1.19128 1.19179 1.19173 1.19145 1.19153 1.19115 1.19136 1.19125 1.19159 1.19176 1.19069 1.19178 1.19149 1.19177 1.19171 1.1917 1.19178 1.19178 1.19178 1.19178 1.19178 1.19178 1.19178 1.19178 1.19178 1.19178 1.19178 1.19178 1.19178 1.19175 1.19178 1.19157 1.19141 1.19181 1.19168 1.1918 1.19172 1.1914 1.19181 1.19116 1.19178 1.19147 1.19194 1.19195 1.19156 1.19172 1.19155 1.19135 1.19178 1.19139 1.19178 1.19178 1.19167 1.19178 1.19178 1.19178 1.19178 1.19178 1.19178 1.19178 1.19178 1.19162 1.19176 1.19168 1.19178 1.19178 1.19178 1.19145 1.19196 1.1917 1.19157 1.1916 1.19166 1.19142 1.1916 1.19177 1.19179 1.19128 1.19138 1.19183 1.19178 1.19178 1.19178 1.19178 0.0161657 0.0461867 0.0377433 0.0469932 0.0507326 0.082592 0.0724354 0.0569284 0.0532372 0.0694485 0.0858306 0.0986425 0.115756 0.120481 0.120877 0.323664 0.382043 0.469919 0.142309 0.099274 0.058092 0.0366869 0.0333013 0.0209188 0.00325324 0.0137342 0.0105726 0.0123057 0.00991673 0.00344436 0.00995431 0.0126678 0.0157921 0.0191308 0.0202311 0.017567 0.0303584 0.0532199 0.0865578 0.265376 0.311189 0.231841 0.362227 0.264643 0.314762 0.0920781 0.063774 1.19178 0.109186 0.0199278 0.0462825 0.0224875 0.0116388 0.00605506 1.19178 1.1917 1.19171 1.1918 1.19184 1.1918 1.19189 1.19174 1.19157 1.19178 1.19158 1.19145 1.19178 1.1917 1.19186 1.19176 1.19162 1.19165 1.19183 1.1917 1.19125 1.19176 0.334878 0.449416 0.468209 0.458005 1.19166 1.19178 1.18946 1.19187 0.134465 0.201197 0.264898 0.227417 0.108224 0.274184 0.275023 0.0711645 0.0328361 1.19178 1.19178 1.19177 0.664627 0.641745 1.19178 1.19178 0.19621 0.17269 0.0234247 0.0552938 0.0594859 0.00555042 0.0128696 0.0270422 0.0137526 0.0228276 0.00373909 0.029911 0.0451149 0.0433577 0.0451415 0.0364652 0.0344946 0.0400556 0.0403451 0.0342099 0.0262319 0.016365 0.00995047 0.00587746 0.00105806 0.00221139 0.0429868 0.0160662 0.112468 0.107132 0.0308549 0.0680687 0.03162 0.041178 0.0653757 0.00468881 0.0238055 0.043702 0.0508894 0.064489 0.0615146 0.0669047 0.0479659 0.0638245 0.0578999 0.0894999 0.099623 0.0731731 0.131529 0.284668 0.0999938 0.0450882 0.33125 0.440956 0.19029 0.273015 0.21979 0.0531469 0.0593702 0.0239478 0.0292657 0.0418793 0.0098216 0.0159066 0.0060134 0.00813376 0.00658157 0.0044333 0.0159278 0.0111308 0.00808945 0.00932415 0.0208073 0.0309527 0.048792 0.0634481 0.0369957 0.0337771 0.113435 0.0884098 0.0604229 0.0554117 0.0632361 0.064397 0.0872986 0.0994846 0.0355057 0.187133 0.158401 0.301499 0.212509 0.098682 0.318951 0.359142 0.706092 0.359738 0.646823 0.399652 0.340383 0.226736 0.194789 0.253107 0.183464 0.0875024 0.0431402 0.0147897 0.028281 0.0454919 1.19177 1.19172 1.19171 1.19163 1.19155 1.19178 1.19156 1.19174 1.19142 1.19152 1.19171 1.19174 1.19177 1.19178 1.19177 1.19178 0.207944 0.198325 0.186221 0.319379 0.294882 0.385602 0.651594 0.422241 0.232862 0.415455 0.362357 0.236441 0.23304 0.201232 0.0922605 0.105906 0.153619 0.229527 0.118626 0.150807 0.17675 0.179905 0.116343 0.164767 0.174999 0.248845 0.403313 0.108956 0.453412 0.38009 0.0652536 0.235156 0.452281 0.133364 0.261628 0.165335 0.147699 0.165624 0.173943 0.0566037 0.0882454 0.0532163 0.0877317 0.0476359 0.0522959 0.0719347 0.0121629 0.0568328 0.0355721 0.0584361 0.0545801 0.0763181 0.0609808 0.0799862 0.0417625 0.0625084 0.0423982 0.0651856 0.0552246 0.0496728 0.0527452 0.0480156 0.054668 0.0513913 0.0442705 0.0498529 0.0451352 0.0374556 0.0332465 0.0277223 0.0278882 0.0295782 0.0230461 0.0230683 0.0151627 0.016934 0.0132966 0.0103482 0.00990701 0.00755254 0.00543596 0.00310156 0.0203163 0.0368169 0.0542765 0.0602654 0.0629435 0.0490549 0.0398875 0.0446027 0.0355219 0.0426857 0.0355609 0.0494491 0.0451023 0.043934 0.0565848 0.0492667 0.0392494 0.0555093 0.0541435 0.0401648 0.0261976 0.0464557 0.057473 0.0802872 0.0397347 0.0341324 0.0688278 0.111248 0.192043 0.13059 0.0367121 0.0779688 0.0251118 0.0137809 0.0138395 0.0224036 0.0047496 0.0110972 0.015354 0.0179541 0.0162964 0.0104316 0.017308 0.0103429 0.0226588 0.0229499 0.0264728 0.0203381 0.0200997 0.0228169 0.0336333 0.0323112 0.0775502 0.0677503 0.122489 0.11669 0.124916 0.173818 0.223563 0.327943 0.209824 0.44451 0.714391 0.578514 0.413702 0.417092 0.363268 0.0846555 0.0521168 0.0778854 0.119304 0.0249845 0.010267 0.0510696 0.0483237 1.19178 0.220653 0.0285327 0.371061 0.281949 0.517381 0.52833 0.0340442 0.354533 0.337876 0.270907 0.183606 0.0395212 0.161808 0.173907 0.210274 0.0868112 0.153976 0.0980999 0.0168022 0.261363 0.246359 0.301074 0.119792 0.0291444 0.112428 0.143703 0.114945 0.120867 0.129099 0.186008 0.169339 0.084328 0.0308554 0.0603498 0.0256713 0.0124867 0.0442165 0.0238137 0.0524097 0.0426367 0.052276 0.0565559 0.0590205 0.0649517 0.0454158 0.0522433 0.0463473 0.041091 0.0407528 0.0335812 0.029698 0.021891 0.0171904 0.0189421 0.0107259 0.0125035 0.0121832 0.00705064 0.00850099 0.00369068 0.00449639 0.0382635 0.057189 0.0546139 0.0468262 0.0482692 0.0379209 0.0552419 0.0467188 0.0245049 0.0318086 0.031127 0.0551622 0.049087 0.0567614 0.0453138 0.0501029 0.0537352 0.0469613 0.133308 0.070563 0.0120773 0.00554138 0.0146043 0.0166322 0.0577986 0.0314026 0.0508732 0.0259947 0.0378013 0.016252 0.0174879 0.0217601 0.0247854 0.0240588 0.022152 0.0252232 0.0217674 0.0239284 0.0203726 0.0332894 0.0513698 0.0418509 0.0887586 0.139881 0.112794 0.187454 0.241065 0.314861 0.0996652 0.624001 0.0672866 0.284585 0.11897 0.0399192 0.0783168 0.0530109 0.0548304 0.0459875 0.00909244 0.0289881 0.153115 0.3132 0.144089 0.297587 0.291389 0.454816 0.375619 0.343311 0.379145 0.32101 0.247349 0.278234 0.246015 0.227254 0.211562 0.20798 0.275282 0.259031 0.209815 0.187164 0.28282 0.0585351 0.183042 0.185683 0.136182 0.203353 0.225798 0.144191 0.0657303 0.116019 0.138509 0.145089 0.12174 0.160835 0.182814 0.177849 0.131957 0.167089 0.1593 0.113286 0.0826472 0.0623526 0.0456308 0.0615905 0.0350038 0.0224898 0.0474508 0.0421288 0.05669 0.0519262 0.0553204 0.0624841 0.0556485 0.0616569 0.0636932 0.0701214 0.0624958 0.0535481 0.040346 0.0475317 0.0357166 0.0291813 0.0174687 0.0141485 0.0179248 0.0156264 0.0130777 0.00758399 0.00976724 0.0132276 0.0148556 0.00832268 0.0455712 0.0481493 0.0483169 0.0539679 0.0570468 0.0581566 0.0575147 0.0370203 0.0354983 0.0401326 0.0453403 0.049817 0.0328898 0.0297763 0.0246415 0.033373 0.0443991 0.037482 0.0500824 0.0383795 0.0165225 0.0127008 0.0295405 0.0302378 0.0467643 0.0431555 0.0384512 0.0490085 0.0275262 0.0212186 0.0216521 0.0188514 0.0213695 0.0209317 0.0195792 0.0219628 0.0306742 0.0425955 0.0588767 0.0424868 0.0640515 0.06275 0.108404 0.191185 0.0617381 0.116935 0.028283 0.163938 0.102108 0.0193922 0.051182 0.0166133 0.0300857 0.0286094 0.0266765 0.0176649 0.0240543 0.0132448 0.0174807 0.336811 0.226631 0.258812 0.275194 0.303971 0.318543 0.266424 0.265828 0.272143 0.214545 0.228138 0.24859 0.298841 0.30967 0.28229 0.197109 0.198159 0.200166 0.201284 0.168701 0.151058 0.148397 0.116902 0.144758 0.129822 0.2176 0.162869 0.147989 0.151502 0.120556 0.121685 0.0959604 0.0666149 0.0424148 0.0551335 0.0584742 0.0725368 0.0607788 0.072591 0.0684434 0.0721691 0.0667228 0.073026 0.0664049 0.0707751 0.05572 0.0504293 0.0504509 0.0437062 0.036901 0.0448378 0.0295779 0.0253814 0.0136112 0.0114577 0.0162129 0.0149274 0.00732336 0.0116959 0.00576982 0.0554914 0.0493351 0.0497233 0.0538578 0.0541745 0.0480954 0.0385402 0.0555902 0.0379372 0.0267583 0.0272033 0.0244031 0.0238396 0.0215083 0.0223766 0.021447 0.0117331 0.0077315 0.0212567 0.0423801 0.0294048 0.0401965 0.0489227 0.0443744 0.0498976 0.0430026 0.0370307 0.0285978 0.042071 0.0250029 0.0139943 0.0119168 0.0100449 0.00745154 0.00869832 0.00956321 0.005799 0.0200683 0.00942223 0.0141008 0.021409 0.0387807 0.03143 0.0307733 0.0976729 0.114845 0.0943258 0.0913615 0.0637396 0.0315176 0.0270573 0.0237521 0.0177271 0.0190032 0.0271614 0.225601 0.267312 0.250997 0.261909 0.23349 0.229335 0.218389 0.206445 0.235109 0.211748 0.218836 0.240126 0.281416 0.262907 0.240215 0.177002 0.12327 0.153055 0.0768874 0.0800276 0.123458 0.0840299 0.135723 0.118718 0.152737 0.167179 0.0819024 0.27497 0.240091 0.174639 0.142102 0.132932 0.116639 0.0985973 0.0981559 0.0823063 0.0839306 0.077066 0.0675906 0.0690728 0.0758673 0.0769073 0.0731973 0.0732884 0.0733857 0.0707671 0.0816805 0.08079 0.0740017 0.0607646 0.064531 0.0558648 0.0482212 0.0378132 0.0333429 0.0322952 0.0164187 0.0252212 0.0111364 0.0135178 0.0211815 0.0168008 0.0100913 0.0511119 0.0548654 0.0577975 0.0584775 0.0612389 0.0553843 0.0447665 0.0367089 0.0384595 0.0261209 0.0217085 0.0189913 0.0202633 0.0215832 0.0247468 0.0141295 0.020508 0.0121207 0.0353923 0.0434939 0.0417713 0.0512064 0.0552162 0.0610225 0.0487522 0.0495048 0.0350522 0.0199583 0.0110062 0.00989657 0.00302678 0.00180363 0.00760039 0.00343828 0.00468637 0.00551682 0.00372153 0.0126517 0.01588 0.0342751 0.0269646 0.0297768 0.0943553 0.103812 0.122723 0.0987999 0.0711636 0.0535148 0.054272 0.033128 0.0362407 0.0202909 0.0178805 0.0114964 0.0304394 0.199377 0.219312 0.246562 0.226903 0.230621 0.212696 0.201029 0.20026 0.207561 0.212406 0.213421 0.237911 0.266698 0.213291 0.186112 0.127879 0.126305 0.114584 0.151421 0.140228 0.158999 0.192087 0.185472 0.21762 0.162727 0.146342 0.118659 0.117215 0.0905449 0.105795 0.102765 0.0983018 0.0839192 0.0948515 0.0820322 0.0868927 0.087374 0.0863787 0.0779256 0.0939883 0.0909084 0.124865 0.112141 0.0767145 0.086348 0.0758413 0.0718355 0.0612052 0.0557399 0.0413315 0.0416525 0.0383042 0.0331415 0.0186212 0.0372569 0.022853 0.00971906 0.0107231 0.0497196 0.0615933 0.0565784 0.0612837 0.0605283 0.0539722 0.0456568 0.0527944 0.0386391 0.0334335 0.0322108 0.016603 0.0294345 0.0185632 0.0169912 0.0174465 0.0203135 0.0201553 0.0190713 0.0166694 0.0205291 0.010286 0.047019 0.0371694 0.0431279 0.0573961 0.0686284 0.0705851 0.0425888 0.0515557 0.035133 0.027007 0.0185174 0.0136869 0.00996338 0.00614329 0.00718945 0.012159 0.0124215 0.0126828 0.0132445 0.0129331 0.0149802 0.0129053 0.0122274 0.0197177 0.0543582 0.013445 0.0750481 0.100749 0.0951641 0.0841225 0.101924 0.0750499 0.0423061 0.0288244 0.0180983 0.00882679 0.0217357 0.0158195 0.213045 0.218367 0.234021 0.204276 0.211657 0.215616 0.202168 0.198764 0.211465 0.208217 0.230087 0.215237 0.16396 0.178829 0.159667 0.175679 0.127236 0.158223 0.152555 0.157745 0.168983 0.188734 0.169258 0.191139 0.141014 0.122699 0.114032 0.110847 0.100449 0.0904688 0.0927672 0.098559 0.101353 0.0982001 0.10066 0.108555 0.109377 0.0981279 0.0620388 0.069245 0.0605153 0.0500321 0.0422372 0.0420921 0.0367309 0.0412396 0.0331578 0.0398459 0.0160369 0.040179 0.0111965 0.0100144 0.0631308 0.0456253 0.0632874 0.0643283 0.062009 0.0597769 0.0496499 0.0465182 0.0392936 0.0442908 0.0321376 0.0346287 0.0323646 0.0270904 0.0175542 0.023653 0.0335123 0.0264731 0.0326053 0.0191941 0.0363387 0.0564009 0.0234136 0.0590048 0.0417406 0.0853556 0.078833 0.106797 0.0457097 0.0349418 0.0248853 0.0105555 0.0221852 0.0159164 0.016954 0.00876709 0.0132665 0.0163094 0.0166817 0.0145799 0.0383908 0.0919173 0.081861 0.100204 0.0737919 0.040426 0.0154107 0.00820918 0.0115405 0.00432545 0.00963029 0.209275 0.19972 0.192276 0.215134 0.195112 0.190473 0.20103 0.185687 0.203523 0.193668 0.208677 0.200225 0.187666 0.195002 0.175622 0.159406 0.196021 0.182361 0.216666 0.188295 0.178885 0.189404 0.179351 0.179171 0.156532 0.135187 0.146511 0.136086 0.130742 0.11291 0.12314 0.109217 0.119489 0.0976791 0.0907113 0.0979615 0.101047 0.0996375 0.102514 0.101439 0.0888638 0.0907356 0.0700399 0.0589335 0.0513673 0.0356959 0.0425738 0.0364658 0.030637 0.0306138 0.0186638 0.0089144 0.070894 0.0737207 0.0715235 0.0741154 0.061669 0.0523509 0.0570025 0.0495926 0.0344742 0.0397004 0.0336507 0.0327743 0.0286169 0.0442937 0.0425681 0.0449746 0.0447516 0.052008 0.045883 0.0611876 0.0829187 0.0587035 0.0545352 0.0405024 0.0249861 0.0189316 0.0140852 0.0148674 0.0113387 0.0161406 0.0097706 0.012493 0.01498 0.0177383 0.0153705 0.014257 0.017489 0.0156738 0.0902484 0.0583123 0.0635802 0.0534711 0.0451464 0.0370193 0.013921 0.00354305 0.00884945 0.196858 0.183187 0.191138 0.196774 0.2004 0.16258 0.185183 0.181062 0.186244 0.196057 0.200043 0.191468 0.196688 0.208865 0.173745 0.19108 0.213839 0.2136 0.239513 0.214935 0.181457 0.167947 0.15697 0.15347 0.155079 0.114782 0.117656 0.109181 0.116436 0.0947303 0.100288 0.101721 0.0976646 0.105285 0.106982 0.116995 0.0830499 0.069969 0.0590906 0.0511934 0.039629 0.0517959 0.038798 0.0313647 0.0230266 0.0366058 0.0323724 0.0100907 0.0741744 0.0772963 0.0764893 0.0576056 0.0728447 0.0657494 0.0528708 0.0608615 0.05004 0.0434782 0.0432737 0.0431314 0.0457013 0.0476859 0.0467224 0.0429568 0.0498207 0.0493186 0.0620451 0.0604492 0.0588908 0.0775414 0.0942451 0.0969838 0.123939 0.183303 0.144343 0.0430577 0.0562764 0.0560047 0.0440655 0.0417776 0.019411 0.0169476 0.0209932 0.0084088 0.0126973 0.014034 0.0188162 0.0189431 0.0169857 0.0142037 0.0261912 0.0537408 0.0752778 0.0600567 0.0552218 0.0383359 0.0327511 0.0180364 0.0133316 0.018038 0.181627 0.186329 0.189846 0.182588 0.187277 0.181769 0.165093 0.174982 0.17101 0.174984 0.185588 0.187503 0.191935 0.22325 0.199758 0.203384 0.24994 0.207953 0.21898 0.192123 0.178285 0.175407 0.179634 0.168529 0.161496 0.169255 0.159542 0.162827 0.158247 0.11895 0.121464 0.121038 0.120333 0.110705 0.100231 0.109953 0.0728398 0.0601635 0.0564728 0.0571134 0.0555462 0.0541022 0.0514282 0.0377969 0.00237097 0.0788861 0.0743412 0.0911708 0.0689142 0.0567267 0.0666662 0.0506462 0.0494145 0.0479399 0.0392045 0.0340721 0.053963 0.0763864 0.0744378 0.0845161 0.0788432 0.140917 0.178362 0.0556488 0.0105956 0.02393 0.0545117 0.0404782 0.0168307 0.0198319 0.015182 0.0231648 0.00968327 0.0133104 0.0170392 0.0173887 0.0252786 0.0392059 0.0553387 0.0650075 0.0583079 0.0687553 0.0473727 0.0493503 0.0362827 0.0327524 0.0229953 0.184399 0.185443 0.173948 0.166437 0.173128 0.158797 0.195261 0.192642 0.189775 0.1836 0.191722 0.181762 0.228909 0.214936 0.20982 0.1888 0.271021 0.249314 0.199013 0.232144 0.186648 0.207494 0.187831 0.177978 0.16169 0.164443 0.144881 0.150614 0.137518 0.129006 0.125465 0.128416 0.122861 0.075132 0.0948545 0.0910418 0.104806 0.0674246 0.0545828 0.0633135 0.0552157 0.0420233 0.037482 0.047672 0.0103408 0.0647336 0.0778013 0.088426 0.0606553 0.0552459 0.0344686 0.12238 0.187231 0.0574002 0.0556093 0.0149505 0.0405339 0.0596272 0.0501657 0.0178693 0.0249548 0.0130314 0.0287753 0.0214354 0.0502856 0.0690691 0.063018 0.0717327 0.0178033 0.18049 0.180592 0.17347 0.177438 0.190706 0.214547 0.208593 0.18429 0.16329 0.147047 0.106243 0.0753807 0.104876 0.0724669 0.0371402 0.0385723 0.0454332 0.0506414 0.0218449 
SCALARS Stress float 1
LOOKUP_TABLE default
-12564000000.0 -12565000000.0 -12560000000.0 -12576300000.0 -12597900000.0 -12584700000.0 -12555600000.0 -12557800000.0 -12550900000.0 -12567900000.0 -12576300000.0 -12553400000.0 -12553500000.0 -12558400000.0 -12560600000.0 -12576600000.0 -12567400000.0 -12560400000.0 -12552700000.0 -12558700000.0 -12558700000.0 -12550400000.0 -12564800000.0 -12560800000.0 -12593100000.0 -12579000000.0 -12555000000.0 -12564600000.0 -12590100000.0 -12590600000.0 -12552100000.0 -12558400000.0 -12588100000.0 -12558500000.0 -12557000000.0 -12579700000.0 -12568100000.0 -12628400000.0 -12646400000.0 -12666200000.0 -12655700000.0 -12643900000.0 -12642800000.0 -12622000000.0 -12563900000.0 -12558600000.0 -12578400000.0 -12582000000.0 -12556800000.0 -12555800000.0 -12571100000.0 -12580200000.0 -12665500000.0 -12647800000.0 -12645600000.0 -12587000000.0 -12550400000.0 -12576600000.0 -12555400000.0 -12774800000.0 -12694200000.0 -12747800000.0 -12794000000.0 -12549700000.0 -12955200000.0 -12863200000.0 -12584000000.0 -12605900000.0 -12554200000.0 -12560500000.0 -12586000000.0 -12549700000.0 -12570700000.0 -12549700000.0 -12549700000.0 -12549700000.0 -12580100000.0 -12549700000.0 -12549700000.0 -12549700000.0 -12556600000.0 -12549700000.0 -12550900000.0 -12553700000.0 -12564900000.0 -12549700000.0 -12617300000.0 -12565300000.0 -12560200000.0 -12556600000.0 -12552600000.0 -12550500000.0 -12549700000.0 -12550700000.0 -12549700000.0 -12555000000.0 -12549700000.0 -12569900000.0 -12575700000.0 -12608900000.0 -12608800000.0 -12655600000.0 -12644300000.0 -12585900000.0 -12574000000.0 -12550000000.0 -12560100000.0 -12580500000.0 -12598500000.0 -12588100000.0 -12585800000.0 -12550200000.0 -12550800000.0 -12577600000.0 -12649900000.0 -12561400000.0 -12587600000.0 -12589500000.0 -12584300000.0 -12555600000.0 -12554000000.0 -12610000000.0 -12594400000.0 -12709600000.0 -12551800000.0 -12552600000.0 -12559600000.0 -12572800000.0 -12569800000.0 -12653300000.0 -12563000000.0 -12575700000.0 -12610500000.0 -12575000000.0 -12579800000.0 -12561200000.0 -12559800000.0 -12555700000.0 -12563200000.0 -12589600000.0 -12571700000.0 -12565500000.0 -12603300000.0 -12551800000.0 -12651600000.0 -12693500000.0 -12724700000.0 -12680000000.0 -12691000000.0 -12790900000.0 -12562500000.0 -12581000000.0 -12566000000.0 -12863700000.0 -12552300000.0 -12557000000.0 -12625200000.0 -12615800000.0 -12549700000.0 -12584200000.0 -12588200000.0 -12665600000.0 -12681500000.0 -12565000000.0 -12574500000.0 -12552800000.0 -12615500000.0 -12882700000.0 -12652300000.0 -12737600000.0 -12610200000.0 -12723700000.0 -12607400000.0 -13007200000.0 -12879300000.0 -12884700000.0 -12898700000.0 -12889900000.0 -12757700000.0 -12560700000.0 -12873400000.0 -12585600000.0 -12660000000.0 -12715800000.0 -12549700000.0 -12658000000.0 -12550800000.0 -12634900000.0 -12561400000.0 -12613000000.0 -12549700000.0 -12550600000.0 -12564600000.0 -12549700000.0 -12549700000.0 -12595800000.0 -12637800000.0 -12549700000.0 -12551800000.0 -12560900000.0 -12549700000.0 -12549700000.0 -12549700000.0 -12566200000.0 -12550200000.0 -12549700000.0 -12576100000.0 -12589400000.0 -12619200000.0 -12750500000.0 -12585500000.0 -12710200000.0 -12679700000.0 -12643000000.0 -12691100000.0 -12550500000.0 -12555000000.0 -12649200000.0 -12559100000.0 -12593700000.0 -12694100000.0 -12591300000.0 -12556500000.0 -12613900000.0 -12604900000.0 -12733300000.0 -12585900000.0 -12582000000.0 -12566800000.0 -12661600000.0 -12957500000.0 -12672000000.0 -12550000000.0 -12549700000.0 -12718000000.0 -12729400000.0 -13017100000.0 -12891400000.0 -12549700000.0 -12669800000.0 -12904500000.0 -12658000000.0 -12549700000.0 -12549700000.0 -12760100000.0 -12715200000.0 -12758700000.0 -12691300000.0 -12704600000.0 -12597300000.0 -12770200000.0 -13188500000.0 -13421300000.0 -12648900000.0 -12600600000.0 -12589500000.0 -13271300000.0 -12978500000.0 -12732400000.0 -12737800000.0 -12960400000.0 -12549700000.0 -12770400000.0 -12720300000.0 -12645700000.0 -12901900000.0 -12671600000.0 -12607500000.0 -12649100000.0 -12673600000.0 -12585900000.0 -12770000000.0 -12734900000.0 -12750600000.0 -12746500000.0 -12549700000.0 -12549700000.0 -13120200000.0 -12580400000.0 -12728500000.0 -13077000000.0 -12852000000.0 -12957000000.0 -12595600000.0 -12707000000.0 -12652300000.0 -12549700000.0 -12583700000.0 -12670800000.0 -12623700000.0 -12549800000.0 -12645000000.0 -12599100000.0 -12616000000.0 -12690800000.0 -12549700000.0 -12706200000.0 -12594800000.0 -12580300000.0 -12570300000.0 -12549700000.0 -12565600000.0 -12568500000.0 -12551800000.0 -12563400000.0 -12622000000.0 -12553800000.0 -12589500000.0 -12697600000.0 -12689100000.0 -12672500000.0 -12905600000.0 -12759500000.0 -12864400000.0 -12878100000.0 -12992400000.0 -12549700000.0 -12821000000.0 -12708500000.0 -12920800000.0 -12565700000.0 -12599700000.0 -12562100000.0 -12553400000.0 -12615600000.0 -12764300000.0 -12658200000.0 -12727000000.0 -12604100000.0 -12835400000.0 -13340900000.0 -12671800000.0 -12646400000.0 -12624500000.0 -12624900000.0 -12710600000.0 -12981500000.0 -12906100000.0 -12755700000.0 -12549700000.0 -12973900000.0 -12718600000.0 -12851400000.0 -12770600000.0 -12723700000.0 -13173400000.0 -12796800000.0 -13084600000.0 -13300900000.0 -13616000000.0 -13524400000.0 -12633700000.0 -13642000000.0 -12571500000.0 -12560000000.0 -12932500000.0 -12937300000.0 -12720800000.0 -12857900000.0 -13042200000.0 -12762700000.0 -12682000000.0 -12626700000.0 -12992000000.0 -12558900000.0 -12692700000.0 -12890800000.0 -12571500000.0 -13041500000.0 -13083200000.0 -13296300000.0 -12782000000.0 -12753900000.0 -12567700000.0 -12568100000.0 -13506700000.0 -12618500000.0 -12917600000.0 -13417300000.0 -12703200000.0 -12708200000.0 -12646900000.0 -12931000000.0 -12803900000.0 -12579500000.0 -12782300000.0 -12617100000.0 -12599000000.0 -12668900000.0 -12581700000.0 -12590500000.0 -12597600000.0 -12554000000.0 -12657200000.0 -12551800000.0 -12626500000.0 -12673500000.0 -12727900000.0 -12633100000.0 -12595300000.0 -12605700000.0 -12583800000.0 -12557900000.0 -12554300000.0 -12579800000.0 -12652500000.0 -12729900000.0 -12622700000.0 -12642400000.0 -12583800000.0 -12850400000.0 -13057900000.0 -12910100000.0 -12594100000.0 -12776800000.0 -12621700000.0 -12609800000.0 -12992900000.0 -12870900000.0 -12753200000.0 -12602400000.0 -12715900000.0 -13326800000.0 -12702800000.0 -12629000000.0 -12854600000.0 -12558000000.0 -12591800000.0 -12873100000.0 -12879700000.0 -12621700000.0 -12837600000.0 -12646300000.0 -12895300000.0 -12622700000.0 -12610700000.0 -12549700000.0 -12549700000.0 -12549700000.0 -12557700000.0 -12583000000.0 -12871300000.0 -12966500000.0 -13530200000.0 -12594400000.0 -12564200000.0 -12818600000.0 -13017800000.0 -12981800000.0 -13125900000.0 -13292000000.0 -13147700000.0 -12969200000.0 -12670800000.0 -13050300000.0 -12625600000.0 -12930300000.0 -13448800000.0 -13597600000.0 -13273200000.0 -12925900000.0 -12571200000.0 -12551800000.0 -13061500000.0 -12567900000.0 -13537500000.0 -13626000000.0 -13695600000.0 -13526700000.0 -13117200000.0 -13219900000.0 -13065700000.0 -12589300000.0 -13258900000.0 -12701800000.0 -12574700000.0 -12951600000.0 -12683600000.0 -13325700000.0 -13215000000.0 -12607300000.0 -13522500000.0 -12788800000.0 -13075800000.0 -13088100000.0 -12762600000.0 -13034100000.0 -12941100000.0 -12585400000.0 -12858300000.0 -12586100000.0 -12711600000.0 -12577700000.0 -12783100000.0 -13054100000.0 -13057400000.0 -13027100000.0 -13020300000.0 -12989800000.0 -12931900000.0 -13181300000.0 -13057200000.0 -13041000000.0 -13115600000.0 -13190900000.0 -12928400000.0 -12614900000.0 -12939200000.0 -12821000000.0 -12803500000.0 -12897300000.0 -12550400000.0 -12590200000.0 -12646700000.0 -12557600000.0 -12959900000.0 -13219900000.0 -12687300000.0 -12820500000.0 -12553000000.0 -12623900000.0 -12553500000.0 -12932500000.0 -12861600000.0 -12926700000.0 -13191400000.0 -13319800000.0 -13791300000.0 -13169000000.0 -13045300000.0 -13543300000.0 -13033500000.0 -13490300000.0 -13116700000.0 -13177400000.0 -12918500000.0 -13392800000.0 -14465800000.0 -13389900000.0 -13460600000.0 -12580200000.0 -12869400000.0 -12656800000.0 -13109100000.0 -12771400000.0 -13199800000.0 -13237700000.0 -13254200000.0 -13325700000.0 -13487500000.0 -12688800000.0 -13065700000.0 -12979000000.0 -12974500000.0 -12652000000.0 -13261600000.0 -13284700000.0 -13085400000.0 -12993200000.0 -13727600000.0 -12767700000.0 -12787500000.0 -13326600000.0 -12976100000.0 -12865100000.0 -12549700000.0 -12817100000.0 -12675700000.0 -12693500000.0 -12559800000.0 -13503800000.0 -13048700000.0 -12837300000.0 -12879900000.0 -14086200000.0 -12549700000.0 -13326900000.0 -13561200000.0 -12995100000.0 -13107400000.0 -12720700000.0 -12761100000.0 -12794400000.0 -12622300000.0 -12612700000.0 -13129400000.0 -12717600000.0 -12558300000.0 -12757000000.0 -12738700000.0 -12860000000.0 -12600400000.0 -12711900000.0 -12552600000.0 -12567100000.0 -12858600000.0 -12962500000.0 -12939200000.0 -13190700000.0 -12794500000.0 -12862500000.0 -13437300000.0 -12626700000.0 -12722300000.0 -12587700000.0 -12650200000.0 -12713300000.0 -12777400000.0 -12823700000.0 -12584400000.0 -12685000000.0 -12694900000.0 -12612700000.0 -12734700000.0 -13278600000.0 -12607700000.0 -13258300000.0 -12938400000.0 -12591900000.0 -13317100000.0 -13090500000.0 -13780000000.0 -13915800000.0 -12905600000.0 -12834500000.0 -12902900000.0 -12634000000.0 -12974100000.0 -13096200000.0 -12849000000.0 -13252800000.0 -12549700000.0 -12561100000.0 -12709000000.0 -12891200000.0 -13222700000.0 -12869700000.0 -13950900000.0 -14277400000.0 -13900200000.0 -13731600000.0 -12826700000.0 -14534900000.0 -12929100000.0 -12865000000.0 -14173800000.0 -14793000000.0 -13643400000.0 -13494700000.0 -14250500000.0 -14378300000.0 -12886700000.0 -12890800000.0 -13093200000.0 -13030500000.0 -13004400000.0 -12948000000.0 -12937600000.0 -12646800000.0 -12975400000.0 -12645400000.0 -13469600000.0 -12589700000.0 -12589900000.0 -12982500000.0 -12561200000.0 -13018500000.0 -12549700000.0 -15068900000.0 -13097200000.0 -14277400000.0 -14813700000.0 -13861700000.0 -13114400000.0 -13802500000.0 -13586200000.0 -13463800000.0 -12638700000.0 -13281700000.0 -13349000000.0 -13142700000.0 -12550800000.0 -12992100000.0 -12641000000.0 -12669400000.0 -12964300000.0 -12640500000.0 -12758700000.0 -12816500000.0 -12794100000.0 -12880700000.0 -12844100000.0 -12551900000.0 -12681400000.0 -12582100000.0 -12741100000.0 -13106200000.0 -13021700000.0 -12906100000.0 -13059500000.0 -12694900000.0 -12641500000.0 -12703000000.0 -12572000000.0 -12767000000.0 -12621400000.0 -12881000000.0 -13041400000.0 -13032600000.0 -12810600000.0 -12896000000.0 -12906400000.0 -12686100000.0 -12835000000.0 -12956100000.0 -13005600000.0 -14049200000.0 -13783300000.0 -14500100000.0 -13134500000.0 -12983800000.0 -13268700000.0 -12646600000.0 -12945100000.0 -12638800000.0 -12747000000.0 -12679000000.0 -14053800000.0 -12803800000.0 -12853600000.0 -12929300000.0 -13836400000.0 -13954600000.0 -12928100000.0 -12561100000.0 -12921400000.0 -13662300000.0 -13085600000.0 -14066300000.0 -13568800000.0 -14273700000.0 -14430000000.0 -13198900000.0 -14702300000.0 -13744000000.0 -13498500000.0 -15197700000.0 -12579100000.0 -12600800000.0 -13090300000.0 -13614000000.0 -13129700000.0 -12848500000.0 -13403400000.0 -13052400000.0 -12549700000.0 -13648800000.0 -12551200000.0 -12614500000.0 -12554700000.0 -12879600000.0 -12549700000.0 -12549700000.0 -14891600000.0 -14930500000.0 -13090800000.0 -12652700000.0 -13787900000.0 -13728300000.0 -13673900000.0 -12549700000.0 -13846500000.0 -13038200000.0 -13040000000.0 -13278100000.0 -12580700000.0 -13106000000.0 -12603500000.0 -12696200000.0 -12824000000.0 -12639200000.0 -12792300000.0 -12958500000.0 -12877900000.0 -12814900000.0 -12601600000.0 -12699100000.0 -12701800000.0 -12963200000.0 -12621800000.0 -12903300000.0 -12907300000.0 -13063100000.0 -13256300000.0 -13323600000.0 -12980300000.0 -13132100000.0 -12667700000.0 -12958300000.0 -12830200000.0 -13011800000.0 -12706800000.0 -13572500000.0 -13366700000.0 -12655100000.0 -12736900000.0 -12690200000.0 -13395100000.0 -12701600000.0 -13540700000.0 -12616600000.0 -13305300000.0 -13558000000.0 -14203100000.0 -13737900000.0 -14152100000.0 -14011100000.0 -13885800000.0 -12932600000.0 -12590300000.0 -12832800000.0 -13559700000.0 -12549700000.0 -13362400000.0 -13400500000.0 -14561800000.0 -13712100000.0 -12575800000.0 -12714800000.0 -13081300000.0 -12549700000.0 -13147500000.0 -12939900000.0 -12556900000.0 -13310600000.0 -13108600000.0 -13315000000.0 -12835600000.0 -13415900000.0 -13169100000.0 -14099000000.0 -13167100000.0 -13694800000.0 -12968200000.0 -13445200000.0 -13650300000.0 -13069500000.0 -12859900000.0 -13593900000.0 -13043600000.0 -13231200000.0 -15483600000.0 -12549700000.0 -13536600000.0 -13606900000.0 -12917600000.0 -12555800000.0 -13611100000.0 -12894900000.0 -12954600000.0 -13182600000.0 -13483600000.0 -12736500000.0 -13135400000.0 -12986800000.0 -12642000000.0 -13189700000.0 -13958600000.0 -14373700000.0 -14436600000.0 -12564700000.0 -14084700000.0 -13448900000.0 -12850800000.0 -12634700000.0 -12712300000.0 -12762900000.0 -12946100000.0 -13071900000.0 -12559700000.0 -12554600000.0 -12970600000.0 -12786000000.0 -12603800000.0 -12568900000.0 -12639400000.0 -12549700000.0 -12815000000.0 -12816000000.0 -12888300000.0 -12566300000.0 -12932700000.0 -12811000000.0 -12799800000.0 -12668700000.0 -12863400000.0 -12832300000.0 -12551500000.0 -12943300000.0 -12592000000.0 -12634400000.0 -12550000000.0 -13012100000.0 -13106500000.0 -13305700000.0 -12550100000.0 -12591600000.0 -13365600000.0 -12549700000.0 -13509200000.0 -12557100000.0 -13237100000.0 -13105000000.0 -13407100000.0 -12549700000.0 -12551200000.0 -12597100000.0 -13604400000.0 -13056900000.0 -13301400000.0 -14035100000.0 -12549700000.0 -13352900000.0 -13357100000.0 -13358300000.0 -12598000000.0 -12664800000.0 -14038300000.0 -13293400000.0 -13812900000.0 -14268500000.0 -13859800000.0 -12630500000.0 -12917300000.0 -12646100000.0 -13104500000.0 -13597200000.0 -13693200000.0 -12760500000.0 -13232800000.0 -12811000000.0 -12864700000.0 -13253800000.0 -13821100000.0 -13613000000.0 -14437900000.0 -14396600000.0 -12771800000.0 -12549700000.0 -14576600000.0 -14491800000.0 -14449100000.0 -14836400000.0 -13165500000.0 -14909500000.0 -15765100000.0 -13456500000.0 -13166600000.0 -16022300000.0 -14181300000.0 -13109900000.0 -12597900000.0 -13121400000.0 -13582400000.0 -12924500000.0 -12884900000.0 -12560900000.0 -12808600000.0 -13456600000.0 -12963800000.0 -12552500000.0 -13096700000.0 -13285100000.0 -12682500000.0 -12692800000.0 -12861100000.0 -12903100000.0 -12650100000.0 -14315700000.0 -13588800000.0 -12617400000.0 -12562900000.0 -12589900000.0 -12839800000.0 -13747300000.0 -12549700000.0 -12849000000.0 -12621100000.0 -12665300000.0 -12649300000.0 -12560800000.0 -12856800000.0 -12695800000.0 -12691800000.0 -12847900000.0 -12647800000.0 -13179700000.0 -12751700000.0 -12563300000.0 -12857200000.0 -12749100000.0 -12657000000.0 -12780700000.0 -12554300000.0 -12648700000.0 -12560800000.0 -12584300000.0 -12551100000.0 -13263300000.0 -12557800000.0 -12906200000.0 -13098700000.0 -13082900000.0 -13211900000.0 -13044200000.0 -12556800000.0 -12550100000.0 -12566900000.0 -12888100000.0 -12888500000.0 -13384700000.0 -12607600000.0 -12623100000.0 -12794300000.0 -12961500000.0 -13072700000.0 -13115100000.0 -12845600000.0 -14348400000.0 -12863800000.0 -12549700000.0 -13878600000.0 -13310500000.0 -13865500000.0 -12712000000.0 -15858400000.0 -14734900000.0 -13265800000.0 -14976200000.0 -14632600000.0 -12843500000.0 -13733900000.0 -13205500000.0 -13311200000.0 -13252500000.0 -13248700000.0 -12603300000.0 -13173600000.0 -14440100000.0 -12802100000.0 -13090500000.0 -13270200000.0 -13576200000.0 -12715500000.0 -14993900000.0 -13273200000.0 -13000900000.0 -14300300000.0 -12649400000.0 -14187800000.0 -13654400000.0 -13417700000.0 -12752300000.0 -13877900000.0 -12725300000.0 -14673100000.0 -14448000000.0 -16587600000.0 -14745700000.0 -13836900000.0 -13784900000.0 -14193200000.0 -12667500000.0 -13349300000.0 -12585400000.0 -12560100000.0 -13400000000.0 -12669600000.0 -12933800000.0 -12676300000.0 -13469000000.0 -12617500000.0 -12983500000.0 -12694300000.0 -12903200000.0 -13040100000.0 -14005700000.0 -13505800000.0 -13434900000.0 -12779900000.0 -13879800000.0 -13644000000.0 -13146000000.0 -12879900000.0 -13118100000.0 -13306700000.0 -12592600000.0 -13122700000.0 -13084900000.0 -12893100000.0 -12720400000.0 -12774600000.0 -12990000000.0 -12576500000.0 -13361100000.0 -12890800000.0 -12630200000.0 -13125400000.0 -12978400000.0 -13014800000.0 -13006400000.0 -12669000000.0 -12665700000.0 -12549700000.0 -12692900000.0 -12664000000.0 -12579300000.0 -13358600000.0 -12587900000.0 -12848000000.0 -12723600000.0 -13159000000.0 -13226300000.0 -12881000000.0 -13048600000.0 -12900900000.0 -12747800000.0 -12580700000.0 -13349700000.0 -12549700000.0 -12554900000.0 -12759800000.0 -12781500000.0 -13269600000.0 -12984800000.0 -14104200000.0 -12549700000.0 -14007800000.0 -14195200000.0 -14893400000.0 -14002900000.0 -12670100000.0 -14082000000.0 -13790300000.0 -13496400000.0 -12709100000.0 -12949300000.0 -12883000000.0 -12741400000.0 -13462100000.0 -13978800000.0 -14066400000.0 -14220100000.0 -14076400000.0 -12549700000.0 -14122600000.0 -13326800000.0 -13085400000.0 -13445700000.0 -12630200000.0 -14627400000.0 -12898600000.0 -12880900000.0 -12583000000.0 -12906200000.0 -14437100000.0 -15129900000.0 -12978600000.0 -14093700000.0 -12549700000.0 -13843500000.0 -12549700000.0 -14468200000.0 -14823700000.0 -15939700000.0 -16189500000.0 -15730900000.0 -15509800000.0 -15956800000.0 -15773900000.0 -15984400000.0 -15797200000.0 -14673800000.0 -13784400000.0 -13064900000.0 -14842300000.0 -14690300000.0 -13899500000.0 -12559400000.0 -13683500000.0 -13031000000.0 -12765900000.0 -12738300000.0 -12791900000.0 -12608400000.0 -13140600000.0 -13116000000.0 -12898400000.0 -12920900000.0 -13217800000.0 -13750800000.0 -12641700000.0 -12923500000.0 -12863300000.0 -12549700000.0 -12714300000.0 -13018900000.0 -13313000000.0 -13310100000.0 -13295900000.0 -13513800000.0 -13080300000.0 -12724800000.0 -13080000000.0 -13200200000.0 -13411400000.0 -12964500000.0 -12832500000.0 -12877800000.0 -13126200000.0 -13497600000.0 -13339700000.0 -13307900000.0 -14140400000.0 -13011100000.0 -13247500000.0 -12549700000.0 -12549700000.0 -15794500000.0 -15818900000.0 -14648300000.0 -13793500000.0 -14232500000.0 -12789400000.0 -13589000000.0 -13756800000.0 -13570800000.0 -13482900000.0 -12549700000.0 -13964000000.0 -14505300000.0 -14984100000.0 -12848900000.0 -12790400000.0 -13820400000.0 -14957100000.0 -15513400000.0 -13816000000.0 -12557000000.0 -12550600000.0 -13643300000.0 -14069800000.0 -15841400000.0 -13091600000.0 -13704300000.0 -12848100000.0 -13405700000.0 -12771800000.0 -13001900000.0 -12996700000.0 -12664700000.0 -12774600000.0 -15356400000.0 -14983800000.0 -13589800000.0 -12763000000.0 -12655400000.0 -13283100000.0 -12587000000.0 -12872500000.0 -12949300000.0 -12716400000.0 -13188600000.0 -13744600000.0 -13378100000.0 -13537600000.0 -13382600000.0 -12784900000.0 -12557900000.0 -12559300000.0 -14964100000.0 -12595600000.0 -15829300000.0 -14567900000.0 -14309100000.0 -12894700000.0 -13097100000.0 -12827500000.0 -12822800000.0 -12870100000.0 -12873200000.0 -12627800000.0 -12735500000.0 -12607400000.0 -12588200000.0 -12635100000.0 -12566500000.0 -12822400000.0 -12636600000.0 -12950500000.0 -12641900000.0 -12724300000.0 -12800500000.0 -13394100000.0 -12784400000.0 -13305100000.0 -13175300000.0 -13132800000.0 -12608300000.0 -13239600000.0 -12790000000.0 -12854900000.0 -12595700000.0 -12772800000.0 -13347900000.0 -12939500000.0 -13136700000.0 -12707400000.0 -12579400000.0 -13397500000.0 -12664400000.0 -12650200000.0 -12561900000.0 -12819000000.0 -12719000000.0 -12593200000.0 -13744700000.0 -12549700000.0 -12941100000.0 -12932200000.0 -14165600000.0 -12788200000.0 -12762500000.0 -14200600000.0 -12737600000.0 -14430100000.0 -14891400000.0 -16186200000.0 -15539500000.0 -14697000000.0 -12857000000.0 -13287100000.0 -12885900000.0 -12591700000.0 -12641000000.0 -14131400000.0 -12647200000.0 -12746300000.0 -12941500000.0 -14755700000.0 -12566600000.0 -12916800000.0 -14427800000.0 -13495600000.0 -12973000000.0 -12714500000.0 -14766100000.0 -13558000000.0 -14202200000.0 -13625200000.0 -14030600000.0 -13646200000.0 -14257200000.0 -13093400000.0 -12566900000.0 -13128200000.0 -12790300000.0 -13482400000.0 -14079900000.0 -14393700000.0 -13274100000.0 -14492300000.0 -13852100000.0 -13717900000.0 -13134300000.0 -13055100000.0 -12602400000.0 -13947500000.0 -13792600000.0 -13133200000.0 -12836100000.0 -13621500000.0 -12767300000.0 -12583000000.0 -12559900000.0 -12590600000.0 -12549700000.0 -12898000000.0 -14686500000.0 -12583900000.0 -13898700000.0 -12996800000.0 -12910600000.0 -12755200000.0 -13177100000.0 -12960200000.0 -12698200000.0 -12677200000.0 -12851100000.0 -12572400000.0 -12605000000.0 -12657500000.0 -12554800000.0 -12645900000.0 -12731500000.0 -12549700000.0 -13195100000.0 -13216600000.0 -13058400000.0 -12613100000.0 -12582700000.0 -12693300000.0 -12557800000.0 -12694800000.0 -12969600000.0 -12970500000.0 -14024100000.0 -12591200000.0 -12559600000.0 -13311400000.0 -12801400000.0 -12572700000.0 -12803500000.0 -12637800000.0 -12717300000.0 -13883100000.0 -12670200000.0 -12890300000.0 -12563600000.0 -13903800000.0 -15310000000.0 -14817300000.0 -14825500000.0 -15257600000.0 -15173300000.0 -15937200000.0 -12588800000.0 -12659500000.0 -12598200000.0 -12561400000.0 -16376000000.0 -14308900000.0 -13330000000.0 -12631600000.0 -12589500000.0 -13075300000.0 -12725900000.0 -12746600000.0 -13021200000.0 -12862300000.0 -12828800000.0 -15208500000.0 -13815000000.0 -13513500000.0 -15286500000.0 -13417100000.0 -13203900000.0 -13135500000.0 -13840700000.0 -14356900000.0 -12714600000.0 -12652700000.0 -13408400000.0 -12554900000.0 -13818600000.0 -13756900000.0 -12570500000.0 -13375700000.0 -13293700000.0 -14211800000.0 -12891400000.0 -12932100000.0 -13256900000.0 -12627200000.0 -13701100000.0 -14699300000.0 -13990700000.0 -14394000000.0 -13316600000.0 -12935800000.0 -14210000000.0 -14378000000.0 -14573800000.0 -13458000000.0 -13550500000.0 -13637800000.0 -13582800000.0 -12725400000.0 -12594000000.0 -12624500000.0 -12637400000.0 -12560900000.0 -12833300000.0 -14086800000.0 -13883300000.0 -12838300000.0 -12738600000.0 -13085500000.0 -12935200000.0 -12788500000.0 -12875500000.0 -12971800000.0 -12888600000.0 -12910700000.0 -12938900000.0 -12941200000.0 -12632600000.0 -12768800000.0 -12737400000.0 -13293600000.0 -12582800000.0 -12552600000.0 -12718900000.0 -12560800000.0 -12665300000.0 -12553400000.0 -12549700000.0 -12872600000.0 -12769400000.0 -12767300000.0 -13492700000.0 -13162700000.0 -12885400000.0 -12904400000.0 -13203200000.0 -13393100000.0 -12739600000.0 -12820700000.0 -12967000000.0 -12782100000.0 -12575400000.0 -12611100000.0 -14245500000.0 -13052400000.0 -13317700000.0 -13914200000.0 -12578600000.0 -13671700000.0 -12758300000.0 -13006800000.0 -16880600000.0 -12978800000.0 -16628400000.0 -12556800000.0 -12552100000.0 -14953800000.0 -15987300000.0 -12591800000.0 -12719200000.0 -13779400000.0 -13067700000.0 -12664500000.0 -12607900000.0 -13192600000.0 -15289100000.0 -12549700000.0 -12633800000.0 -13587600000.0 -12560500000.0 -12996400000.0 -13275600000.0 -12679500000.0 -13005600000.0 -12653800000.0 -13018900000.0 -13194800000.0 -13909400000.0 -13001100000.0 -12787800000.0 -14077200000.0 -13408100000.0 -13266500000.0 -13905400000.0 -13510500000.0 -13393200000.0 -14106500000.0 -14117000000.0 -13954700000.0 -13548400000.0 -12558700000.0 -12755800000.0 -13362500000.0 -12549700000.0 -13004700000.0 -12865300000.0 -13247500000.0 -13360500000.0 -13340900000.0 -12688800000.0 -12589200000.0 -12627600000.0 -12640400000.0 -12559900000.0 -12573200000.0 -12724000000.0 -13729600000.0 -12552300000.0 -12549700000.0 -12751400000.0 -12656400000.0 -12746000000.0 -12596800000.0 -12701300000.0 -12609100000.0 -12621900000.0 -12656200000.0 -12572900000.0 -12549700000.0 -12795800000.0 -12978400000.0 -13028600000.0 -13125000000.0 -13204800000.0 -12853700000.0 -12652100000.0 -12651900000.0 -12722500000.0 -12784700000.0 -13256500000.0 -12876700000.0 -13458000000.0 -13161100000.0 -12980900000.0 -12730000000.0 -13069800000.0 -12549700000.0 -12733300000.0 -14721500000.0 -12598800000.0 -13537200000.0 -13883300000.0 -13952700000.0 -13353100000.0 -13564500000.0 -13451800000.0 -20029100000.0 -14189700000.0 -15092700000.0 -14265000000.0 -14205100000.0 -15937800000.0 -13339200000.0 -12857200000.0 -14261800000.0 -13141900000.0 -13573900000.0 -16033200000.0 -15692600000.0 -13465400000.0 -13244800000.0 -13351800000.0 -13704800000.0 -13302400000.0 -13041700000.0 -13014900000.0 -14356100000.0 -12985500000.0 -12896800000.0 -13780600000.0 -13479400000.0 -12549700000.0 -13547100000.0 -13264200000.0 -13004700000.0 -13911100000.0 -13396900000.0 -13128700000.0 -13779800000.0 -13148100000.0 -12588200000.0 -12552600000.0 -14071700000.0 -13533900000.0 -13371800000.0 -12567700000.0 -14162400000.0 -14012700000.0 -14235200000.0 -12549700000.0 -12719200000.0 -13056500000.0 -13385300000.0 -12690800000.0 -12628300000.0 -13230500000.0 -12651500000.0 -12589200000.0 -12625000000.0 -12607400000.0 -12629100000.0 -12671800000.0 -13293600000.0 -13169500000.0 -13495700000.0 -13160200000.0 -13343100000.0 -12829100000.0 -13054300000.0 -12670900000.0 -12641600000.0 -12716400000.0 -12628300000.0 -12750300000.0 -12660000000.0 -12823000000.0 -12765300000.0 -13018100000.0 -12837900000.0 -12989500000.0 -12591200000.0 -12550500000.0 -12564700000.0 -12627900000.0 -12622500000.0 -13164300000.0 -12663600000.0 -13105800000.0 -12986300000.0 -13136600000.0 -13098200000.0 -12549700000.0 -13171200000.0 -13390300000.0 -12949600000.0 -12744900000.0 -12725300000.0 -13625500000.0 -13649300000.0 -13237200000.0 -12549700000.0 -14972700000.0 -13563100000.0 -12577700000.0 -13040600000.0 -12880700000.0 -13738800000.0 -13949500000.0 -14302300000.0 -13597200000.0 -21635100000.0 -14283200000.0 -15002000000.0 -14152100000.0 -18298800000.0 -16446300000.0 -15950200000.0 -14803400000.0 -14746300000.0 -16256900000.0 -12567600000.0 -14130100000.0 -12695100000.0 -12705200000.0 -12549700000.0 -14122300000.0 -13020600000.0 -13363200000.0 -13938800000.0 -13385400000.0 -13518900000.0 -12870300000.0 -12603500000.0 -12549700000.0 -12554200000.0 -12555000000.0 -12565900000.0 -12914000000.0 -13379800000.0 -13100100000.0 -12850500000.0 -13493700000.0 -12991100000.0 -13459000000.0 -12812600000.0 -13127700000.0 -12575600000.0 -13516100000.0 -12828900000.0 -12892200000.0 -12571500000.0 -14028800000.0 -14233900000.0 -14133200000.0 -14351400000.0 -13534900000.0 -12601900000.0 -12549700000.0 -12610500000.0 -12564400000.0 -12560800000.0 -12575300000.0 -12941600000.0 -12568800000.0 -13055900000.0 -12581800000.0 -13046400000.0 -12811600000.0 -12835500000.0 -12578300000.0 -12578700000.0 -12634800000.0 -12629800000.0 -12571600000.0 -12754600000.0 -12590600000.0 -12761900000.0 -12568400000.0 -12822700000.0 -12621300000.0 -12621800000.0 -12670100000.0 -12562000000.0 -12553200000.0 -12554300000.0 -12549700000.0 -12554200000.0 -12828100000.0 -12864800000.0 -12556900000.0 -12580900000.0 -13590000000.0 -13026200000.0 -13651800000.0 -13877400000.0 -13052700000.0 -12825200000.0 -13447000000.0 -12925600000.0 -13004900000.0 -14145600000.0 -14519100000.0 -13197300000.0 -12555000000.0 -12924100000.0 -12920900000.0 -12554500000.0 -14083700000.0 -13022300000.0 -14990900000.0 -15661000000.0 -18520900000.0 -12590800000.0 -16807800000.0 -17542300000.0 -15793500000.0 -13947100000.0 -15246300000.0 -14062900000.0 -14171700000.0 -14986800000.0 -16221100000.0 -13884400000.0 -14226700000.0 -13052300000.0 -12876400000.0 -14057400000.0 -12702700000.0 -12647400000.0 -12737100000.0 -12991500000.0 -12772400000.0 -13135700000.0 -12959500000.0 -12956900000.0 -12549700000.0 -12667100000.0 -12891700000.0 -12683800000.0 -12691300000.0 -13221400000.0 -13424100000.0 -12696700000.0 -13211000000.0 -12549700000.0 -13226600000.0 -13073400000.0 -12737800000.0 -12820400000.0 -12995400000.0 -12976100000.0 -12809000000.0 -12671800000.0 -12955900000.0 -13124800000.0 -13140500000.0 -13173100000.0 -14831900000.0 -13486700000.0 -13267900000.0 -12588100000.0 -12549700000.0 -12611300000.0 -12565500000.0 -12560400000.0 -12648200000.0 -12612400000.0 -12560800000.0 -12804200000.0 -12668700000.0 -12978800000.0 -12549700000.0 -12705700000.0 -12753900000.0 -12610900000.0 -12560600000.0 -12590400000.0 -12551300000.0 -12628400000.0 -12763900000.0 -12567900000.0 -12562500000.0 -12588000000.0 -12586200000.0 -12551600000.0 -12561000000.0 -12586400000.0 -12549900000.0 -12603400000.0 -12553300000.0 -12551100000.0 -12559500000.0 -12669800000.0 -12661000000.0 -13068700000.0 -13058100000.0 -13182600000.0 -13684500000.0 -12814100000.0 -12698000000.0 -12765100000.0 -14707100000.0 -14271100000.0 -14218800000.0 -14051300000.0 -14375200000.0 -14625300000.0 -12551400000.0 -14239800000.0 -13482700000.0 -13676500000.0 -13888500000.0 -13203600000.0 -15987200000.0 -12629600000.0 -14275100000.0 -17119300000.0 -16430100000.0 -16321800000.0 -16644700000.0 -12758300000.0 -14887200000.0 -14501000000.0 -15365400000.0 -13243300000.0 -13683200000.0 -12549700000.0 -16761800000.0 -14461500000.0 -14885600000.0 -14460600000.0 -13984200000.0 -12720800000.0 -12608500000.0 -12691500000.0 -12877600000.0 -12877000000.0 -12883600000.0 -12951000000.0 -12905100000.0 -12550600000.0 -12831400000.0 -12556100000.0 -12644200000.0 -12642100000.0 -12963000000.0 -12585000000.0 -12677700000.0 -12883700000.0 -12772700000.0 -13147200000.0 -12663200000.0 -12741000000.0 -12823700000.0 -12801500000.0 -12974500000.0 -12907200000.0 -12767600000.0 -13730700000.0 -12552600000.0 -12550500000.0 -13897500000.0 -12905600000.0 -12617200000.0 -12722400000.0 -12734100000.0 -12721300000.0 -12720200000.0 -12680800000.0 -12685200000.0 -12682100000.0 -12574700000.0 -12869800000.0 -12906100000.0 -12858600000.0 -12714300000.0 -12726300000.0 -12728500000.0 -12694700000.0 -12653600000.0 -12684400000.0 -12551500000.0 -12549700000.0 -12562700000.0 -12551200000.0 -12585400000.0 -12564300000.0 -12562900000.0 -12590900000.0 -12561600000.0 -12551500000.0 -12560500000.0 -12604400000.0 -12586100000.0 -12956200000.0 -12554000000.0 -12565800000.0 -12924500000.0 -13741000000.0 -13445100000.0 -13699000000.0 -14402800000.0 -12994100000.0 -12602700000.0 -13098000000.0 -12966000000.0 -16503500000.0 -14224700000.0 -15078600000.0 -15040100000.0 -15523000000.0 -13844100000.0 -15467700000.0 -12669200000.0 -13452400000.0 -17884100000.0 -21885900000.0 -12866900000.0 -12801300000.0 -16880900000.0 -13286700000.0 -16111400000.0 -12716300000.0 -13326800000.0 -12549700000.0 -13320400000.0 -12589500000.0 -12796400000.0 -13179400000.0 -14091100000.0 -12653900000.0 -12963500000.0 -12993300000.0 -12802000000.0 -12667400000.0 -12830400000.0 -12983200000.0 -12686500000.0 -12856600000.0 -12554200000.0 -12612200000.0 -12734100000.0 -12585700000.0 -12602600000.0 -13041500000.0 -12853000000.0 -12834100000.0 -12670800000.0 -12693300000.0 -12549700000.0 -12820600000.0 -13050100000.0 -12549700000.0 -12773100000.0 -12741100000.0 -12565400000.0 -12555800000.0 -12551300000.0 -12805300000.0 -12657700000.0 -12596100000.0 -13050000000.0 -13082100000.0 -13182300000.0 -12951800000.0 -13612900000.0 -12877000000.0 -12789800000.0 -12616700000.0 -12550100000.0 -12549700000.0 -12591300000.0 -12577400000.0 -12566600000.0 -12585100000.0 -12580500000.0 -12569600000.0 -12584000000.0 -12664600000.0 -12643600000.0 -12582000000.0 -12595600000.0 -12602300000.0 -12616300000.0 -12656200000.0 -12687200000.0 -12613600000.0 -12610400000.0 -12629000000.0 -12644400000.0 -12682900000.0 -12656300000.0 -12674200000.0 -12678500000.0 -12633100000.0 -12709800000.0 -12772400000.0 -12871600000.0 -13377300000.0 -13160900000.0 -13171100000.0 -13557000000.0 -12665000000.0 -12988000000.0 -12583300000.0 -14424800000.0 -13854400000.0 -13139000000.0 -12668300000.0 -12888500000.0 -15403600000.0 -13399900000.0 -12864500000.0 -12976900000.0 -16395900000.0 -12549700000.0 -14626700000.0 -13852800000.0 -13340700000.0 -12552500000.0 -18427600000.0 -12919700000.0 -12639900000.0 -12578000000.0 -16666300000.0 -12640800000.0 -16423300000.0 -14173400000.0 -14390100000.0 -15627600000.0 -15723600000.0 -14559200000.0 -14447300000.0 -14702600000.0 -14542900000.0 -13386000000.0 -13168400000.0 -13192000000.0 -13263900000.0 -13379300000.0 -13378000000.0 -12983000000.0 -12863900000.0 -12944500000.0 -12868300000.0 -12767100000.0 -12728900000.0 -12710200000.0 -13018800000.0 -12681600000.0 -12667700000.0 -12783400000.0 -12825600000.0 -13304000000.0 -12689100000.0 -12660200000.0 -13039900000.0 -12912200000.0 -12821300000.0 -12830200000.0 -12815700000.0 -12626000000.0 -12716700000.0 -12661300000.0 -12554800000.0 -12661500000.0 -13275500000.0 -12682600000.0 -12756200000.0 -12557800000.0 -12578100000.0 -12549700000.0 -12549700000.0 -12551500000.0 -12570300000.0 -12560700000.0 -12551900000.0 -12549700000.0 -12576000000.0 -12590200000.0 -12550900000.0 -12549700000.0 -12549700000.0 -12550700000.0 -12549700000.0 -12587100000.0 -12660300000.0 -12654200000.0 -12645700000.0 -12641300000.0 -12622600000.0 -12640300000.0 -12612400000.0 -12664100000.0 -12733100000.0 -12844400000.0 -12951600000.0 -13297100000.0 -12668600000.0 -12815900000.0 -12750100000.0 -13417900000.0 -13023600000.0 -12932800000.0 -13189500000.0 -13957200000.0 -12561500000.0 -14194000000.0 -13506500000.0 -13710000000.0 -14200900000.0 -14613700000.0 -12593700000.0 -13034900000.0 -16743600000.0 -15122700000.0 -13266000000.0 -14071800000.0 -18550500000.0 -12907700000.0 -13342500000.0 -19427600000.0 -12559700000.0 -12679200000.0 -19109900000.0 -15838700000.0 -16551300000.0 -13082900000.0 -14495600000.0 -13725900000.0 -13816400000.0 -13087500000.0 -12587200000.0 -12549700000.0 -13060000000.0 -13133400000.0 -13318000000.0 -13380300000.0 -13412600000.0 -12956800000.0 -13595800000.0 -13106700000.0 -12589200000.0 -12670400000.0 -12572500000.0 -12613200000.0 -12549800000.0 -12559000000.0 -12549700000.0 -12830400000.0 -12624600000.0 -12649500000.0 -12649800000.0 -12682400000.0 -13043800000.0 -12666500000.0 -12668800000.0 -12682700000.0 -12612300000.0 -12670300000.0 -12797400000.0 -12550500000.0 -12575300000.0 -12680200000.0 -12555800000.0 -12978200000.0 -12878800000.0 -12590200000.0 -12555900000.0 -12566000000.0 -12549700000.0 -12550100000.0 -12552200000.0 -12564500000.0 -12556600000.0 -12549700000.0 -12549700000.0 -12549700000.0 -12570000000.0 -12550100000.0 -12549700000.0 -12549700000.0 -12554400000.0 -12551000000.0 -12584300000.0 -12561400000.0 -12561400000.0 -12551100000.0 -12565500000.0 -12585300000.0 -12581300000.0 -12628000000.0 -12658100000.0 -12655200000.0 -12637300000.0 -12794800000.0 -12887100000.0 -12667800000.0 -12920100000.0 -13017200000.0 -13151400000.0 -13224600000.0 -13315500000.0 -13309100000.0 -14052400000.0 -14622500000.0 -12557200000.0 -14340800000.0 -15108200000.0 -15918400000.0 -16509900000.0 -17057200000.0 -19398600000.0 -16781100000.0 -15951400000.0 -19335800000.0 -21165100000.0 -12629800000.0 -16507100000.0 -19882500000.0 -15896600000.0 -17260900000.0 -13282300000.0 -14072700000.0 -16654300000.0 -14897600000.0 -14083800000.0 -13075800000.0 -12681400000.0 -12713700000.0 -12942000000.0 -12578600000.0 -12647800000.0 -12604000000.0 -12955900000.0 -13022400000.0 -12676100000.0 -12650700000.0 -12648400000.0 -12620600000.0 -12757700000.0 -12550500000.0 -12566300000.0 -12553800000.0 -12563000000.0 -12567200000.0 -12557200000.0 -12662900000.0 -12549700000.0 -12574400000.0 -12580000000.0 -12880400000.0 -12817700000.0 -12937800000.0 -13004900000.0 -12609700000.0 -12762100000.0 -12661600000.0 -12729200000.0 -12559200000.0 -12561500000.0 -12552700000.0 -12549700000.0 -12549700000.0 -12549700000.0 -12550200000.0 -12554600000.0 -12551800000.0 -12549700000.0 -12549700000.0 -12549700000.0 -12557100000.0 -12549700000.0 -12549700000.0 -12549700000.0 -12550000000.0 -12552200000.0 -12572800000.0 -12565700000.0 -12566500000.0 -12564500000.0 -12553500000.0 -12555800000.0 -12558700000.0 -12583400000.0 -12561000000.0 -12572200000.0 -12577400000.0 -12622300000.0 -12576200000.0 -12653200000.0 -12608800000.0 -12665600000.0 -13548700000.0 -12796900000.0 -15231000000.0 -14019300000.0 -14720400000.0 -15423700000.0 -12611500000.0 -13558300000.0 -15586500000.0 -13459900000.0 -18107100000.0 -14589300000.0 -18007300000.0 -14290300000.0 -16587400000.0 -15103300000.0 -14730200000.0 -12877900000.0 -13765900000.0 -13414600000.0 -17198500000.0 -14531300000.0 -13041100000.0 -12826900000.0 -13012900000.0 -12967700000.0 -12660000000.0 -12953500000.0 -12585700000.0 -12559700000.0 -12555800000.0 -12560600000.0 -12675100000.0 -12594300000.0 -12572600000.0 -12560400000.0 -12870600000.0 -12733400000.0 -12686900000.0 -12549700000.0 -12719400000.0 -12580000000.0 -12571700000.0 -12602300000.0 -12598600000.0 -12593300000.0 -12607700000.0 -12634000000.0 -12830800000.0 -12656500000.0 -12636000000.0 -12585300000.0 -12598800000.0 -12571200000.0 -12562900000.0 -12600500000.0 -12567000000.0 -12803800000.0 -12729400000.0 -12641000000.0 -12554500000.0 -12595400000.0 -12570800000.0 -12753000000.0 -12789600000.0 -12631100000.0 -12770500000.0 -13240300000.0 -13211700000.0 -13061200000.0 -15843900000.0 -13780700000.0 -14157100000.0 -15656500000.0 -14692100000.0 -15565200000.0 -13783400000.0 -14042300000.0 -14672800000.0 -16501800000.0 -12557300000.0 -14406700000.0 -17528000000.0 -14315300000.0 -13776200000.0 -13767400000.0 -16313300000.0 -12635100000.0 -12609400000.0 -12589100000.0 -12572200000.0 -12606500000.0 -12550100000.0 -12559700000.0 -12562700000.0 -12559000000.0 -12739900000.0 -13138800000.0 -13188600000.0 -12845000000.0 -15111000000.0 -13101500000.0 -12670700000.0 -15882900000.0 -14524800000.0 -14651000000.0 -12574700000.0 -13520400000.0 -18515500000.0 -14439300000.0 -16977800000.0 -15839100000.0 -13445600000.0 -13930000000.0 -13620900000.0 -16145100000.0 -12851100000.0 -13283900000.0 -13668500000.0 -14305600000.0 -13869100000.0 -13359500000.0 -15637500000.0 -17949000000.0 -15041900000.0 -15774500000.0 -14197900000.0 -13079700000.0 -21873500000.0 -16164300000.0 -17591600000.0 -14518700000.0 -13449500000.0 -13568700000.0 -12549700000.0 -17092600000.0 -12686800000.0 -12753600000.0 -13259600000.0 -13065400000.0 -13909600000.0 -13824200000.0 -14924300000.0 -12568900000.0 -14858400000.0 -13001300000.0 -12765600000.0 -17556200000.0 -21043500000.0 -12549700000.0 -14287000000.0 -15859400000.0 -12549700000.0 -13986000000.0 -13700700000.0 -16149400000.0 -12665100000.0 -12690300000.0 -12549700000.0 -13793400000.0 -13735900000.0 -16186800000.0 -15346500000.0 -13132400000.0 -14748800000.0 -12834600000.0 -12839400000.0 -20365900000.0 -14081300000.0 -12992600000.0 -15978800000.0 -13235300000.0 -13807300000.0 -13529100000.0 -15036000000.0 -12858700000.0 -12678500000.0 -12713600000.0 -12549700000.0 -12549700000.0 -12549700000.0 -12549700000.0 -12746500000.0 -13395200000.0 -13388400000.0 -14084300000.0 -14283000000.0 -13271100000.0 -15247400000.0 -14149100000.0 -14129200000.0 -20706700000.0 -13194300000.0 -13816200000.0 -13612800000.0 -15478400000.0 -13005300000.0 -16586800000.0 -15224600000.0 -13997300000.0 -13113400000.0 -12549700000.0 -12549700000.0 -12549700000.0 -12549700000.0 -12549700000.0 -12549700000.0 -12549700000.0 -12549700000.0 -12549700000.0 -12549700000.0 -12549700000.0 -12549700000.0 -12549700000.0 -12549700000.0 -12549700000.0 -12549700000.0 -12549700000.0 -12549700000.0 -12549700000.0 -12549700000.0 -12549700000.0 -12549700000.0 -12549700000.0 -12705300000.0 -12603800000.0 -13318000000.0 -13053000000.0 -13167200000.0 -14020500000.0 -14347700000.0 -14545700000.0 -13428700000.0 -14820100000.0 -21680100000.0 -14244500000.0 -13701000000.0 -12723500000.0 -13115200000.0 -16720100000.0 -16315100000.0 -13749800000.0 -13553800000.0 -12885800000.0 -12704400000.0 -12549700000.0 -12549700000.0 -12549700000.0 -12549700000.0 -12549700000.0 -12549700000.0 -12549700000.0 -12549700000.0 -12549700000.0 -12549700000.0 -12549700000.0 -12549700000.0 -12549700000.0 -12549700000.0 -12549700000.0 -12549700000.0 -12549700000.0 -12549700000.0 -12549700000.0 -12549700000.0 -12549700000.0 -12549700000.0 -12549700000.0 -12549700000.0 -12549700000.0 -12549700000.0 -12549700000.0 -12550400000.0 -12549900000.0 -12992400000.0 -13082800000.0 -12586800000.0 -13156700000.0 -14504000000.0 -14323600000.0 -16752900000.0 -16026700000.0 -15246900000.0 -14181000000.0 -15090600000.0 -17789600000.0 -13629900000.0 -12687000000.0 -15985900000.0 -13882700000.0 -12649000000.0 -12578700000.0 -12558700000.0 -14530900000.0 -12790400000.0 -12586500000.0 -12606700000.0 -12549700000.0 -12549700000.0 -12549700000.0 -12549700000.0 -12549700000.0 -12549700000.0 -12549700000.0 -12549700000.0 -12549700000.0 -12549700000.0 -12549700000.0 -12549700000.0 -12549700000.0 -12549700000.0 -12549700000.0 -12549700000.0 -12549700000.0 -12549700000.0 -12549700000.0 -12549700000.0 -12549700000.0 -12549700000.0 -12549700000.0 -12549700000.0 -12549700000.0 -12549700000.0 -12549700000.0 -12549700000.0 -12549700000.0 -12549700000.0 -12549700000.0 -12549700000.0 -12549700000.0 -12549700000.0 -12549700000.0 -12549700000.0 -12549700000.0 -12567700000.0 -12684800000.0 -12756200000.0 -12838500000.0 -13488500000.0 -13235300000.0 -13467200000.0 -14728400000.0 -14731500000.0 -13849300000.0 -12849100000.0 -13674300000.0 -15154600000.0 -18817700000.0 -14399200000.0 -14953100000.0 -14923500000.0 -14642100000.0 -12864400000.0 -12916800000.0 -14815100000.0 -12623000000.0 -12862800000.0 -13131300000.0 -12700500000.0 -12599300000.0 -12554700000.0 -12552000000.0 -12549700000.0 -12549700000.0 -12549700000.0 -12549700000.0 -12549700000.0 -12549700000.0 -12549700000.0 -12549700000.0 -12549700000.0 -12549700000.0 -12549700000.0 -12549700000.0 -12549700000.0 -12549700000.0 -12549700000.0 -12549700000.0 -12549700000.0 -12549700000.0 -12549700000.0 -12549700000.0 -12549700000.0 -12549700000.0 -12549700000.0 -12549700000.0 -12549700000.0 -12549700000.0 -12549700000.0 -12549700000.0 -12549700000.0 -12549700000.0 -12549700000.0 -12549700000.0 -12549700000.0 -12549700000.0 -12549700000.0 -12549700000.0 -12549700000.0 -12549700000.0 -12549700000.0 -12549700000.0 -12549700000.0 -12550700000.0 -12642500000.0 -12934000000.0 -12963200000.0 -13423300000.0 -13941200000.0 -14098200000.0 -13769800000.0 -14776600000.0 -14017400000.0 -15335500000.0 -16279200000.0 -15498200000.0 -16785700000.0 -16591600000.0 -14813500000.0 -15432400000.0 -12815700000.0 -14347600000.0 -14647700000.0 -12561100000.0 -12802200000.0 -12572600000.0 -12558100000.0 -12549900000.0 -12549700000.0 -12549700000.0 -12549700000.0 -12549700000.0 -12549700000.0 -12549700000.0 -12549700000.0 -12549700000.0 -12549700000.0 -12549700000.0 -12549700000.0 -12549700000.0 -12549700000.0 -12549700000.0 -12549700000.0 -12549700000.0 -12549700000.0 -12549700000.0 -12549700000.0 -12549700000.0 -12549700000.0 -12549700000.0 -12549700000.0 -12549700000.0 -12549700000.0 -12549700000.0 -12549700000.0 -12549700000.0 -12549700000.0 -12549700000.0 -12549700000.0 -12549700000.0 -12549700000.0 -12549700000.0 -12549700000.0 -12549700000.0 -12549700000.0 -12549700000.0 -12549700000.0 -12549700000.0 -12549700000.0 -12549700000.0 -12549700000.0 -12549700000.0 -12553400000.0 -12549700000.0 -12587400000.0 -12599700000.0 -12796000000.0 -12701800000.0 -12894400000.0 -12740800000.0 -14726100000.0 -12572100000.0 -13981100000.0 -13757000000.0 -14646400000.0 -15014300000.0 -13636000000.0 -16614700000.0 -12549700000.0 -12599200000.0 -15873800000.0 -18072600000.0 -14695600000.0 -14381900000.0 -13156000000.0 -13213400000.0 -12620000000.0 -12580000000.0 -12554500000.0 -12551900000.0 -12550100000.0 -12549700000.0 -12549700000.0 -12549700000.0 -12549700000.0 -12549700000.0 -12549700000.0 -12549700000.0 -12549700000.0 -12549700000.0 -12549700000.0 -12549700000.0 -12549700000.0 -12549700000.0 -12549700000.0 -12549700000.0 -12549700000.0 -12549700000.0 -12549700000.0 -12549700000.0 -12549700000.0 -12549700000.0 -12549700000.0 -12549700000.0 -12549700000.0 -12549700000.0 -12549700000.0 -12549700000.0 -12549700000.0 -12549700000.0 -12549700000.0 -12549700000.0 -12549700000.0 -12549700000.0 -12549700000.0 -12549700000.0 -12549700000.0 -12549700000.0 -12549700000.0 -12549700000.0 -12549700000.0 -12549700000.0 -12549700000.0 -12549700000.0 -12549700000.0 -12549700000.0 -12549700000.0 -12549700000.0 -12549700000.0 -12556000000.0 -12549700000.0 -12632600000.0 -12691100000.0 -12890800000.0 -13284200000.0 -12831300000.0 -12580800000.0 -16230600000.0 -15532100000.0 -14776600000.0 -15698500000.0 -16656500000.0 -13554100000.0 -13519300000.0 -16282200000.0 -15722100000.0 -15152200000.0 -12629200000.0 -18098200000.0 -16794100000.0 -14242400000.0 -13075000000.0 -12588600000.0 -12613800000.0 -12549700000.0 -12549700000.0 -12550600000.0 -12549700000.0 -12549700000.0 -12549700000.0 -12549700000.0 -12549700000.0 -12549700000.0 -12549700000.0 -12549700000.0 -12549700000.0 -12549700000.0 -12549700000.0 -12549700000.0 -12549700000.0 -12549700000.0 -12549700000.0 -12549700000.0 -12549700000.0 -12549700000.0 -12549700000.0 -12549700000.0 -12549700000.0 -12549700000.0 -12549700000.0 -12549700000.0 -12549700000.0 -12549700000.0 -12549700000.0 -12549700000.0 -12549700000.0 -12549700000.0 -12549700000.0 -12549700000.0 -12549700000.0 -12549700000.0 -12549700000.0 -12549700000.0 -12549700000.0 -12549700000.0 -12549700000.0 -12549700000.0 -12549700000.0 -12549700000.0 -13819000000.0 -15247100000.0 -15207600000.0 -12572400000.0 -12733200000.0 -13305800000.0 -12955100000.0 -13749300000.0 -14398800000.0 -12706700000.0 -15905000000.0 -13100300000.0 -13068100000.0 -12912200000.0 -14599500000.0 -14687800000.0 -17585300000.0 -13564000000.0 -12549700000.0 -13918700000.0 -13208600000.0 -12774300000.0 -12609500000.0 -12701700000.0 -12563900000.0 -12549700000.0 -12549700000.0 -12549700000.0 -12549700000.0 -12549700000.0 -12549700000.0 -12549700000.0 -12549700000.0 -12549700000.0 -12549700000.0 -12549700000.0 -12549700000.0 -12549700000.0 -12549700000.0 -12549700000.0 -12549700000.0 -12549700000.0 -12549700000.0 -12549700000.0 -12549700000.0 -12549700000.0 -12549700000.0 -12549700000.0 -12549700000.0 -12549700000.0 -12549700000.0 -12549700000.0 -12549700000.0 -12549700000.0 -12549700000.0 -12549700000.0 -12549700000.0 -12549700000.0 -12549700000.0 -12549700000.0 -12549700000.0 -12549700000.0 -12549700000.0 -12549700000.0 -12549700000.0 -12703800000.0 -12605800000.0 -14417900000.0 -13044800000.0 -12979200000.0 -13009800000.0 -12603600000.0 -14205900000.0 -14713900000.0 -14216900000.0 -13747500000.0 -12549700000.0 -17058700000.0 -18576900000.0 -12549700000.0 -12698600000.0 -14346500000.0 -12733700000.0 -12549700000.0 -12549700000.0 -12549700000.0 -12549700000.0 -12549700000.0 -12549700000.0 -12549700000.0 -12549700000.0 -12549700000.0 -12549700000.0 -12549700000.0 -12549700000.0 -12549700000.0 -12549700000.0 -12549700000.0 -12549700000.0 -12549700000.0 -12549700000.0 -12549700000.0 -12549700000.0 -12549700000.0 -12549700000.0 -12549700000.0 -12549700000.0 -12549700000.0 -12549700000.0 -12549700000.0 -12549700000.0 -12549700000.0 -12549700000.0 -12549700000.0 -12549700000.0 -12549700000.0 -12549700000.0 -12549700000.0 -12549700000.0 -12549700000.0 -12549700000.0 -12549700000.0 -12549700000.0 -12549700000.0 -12549700000.0 -12549700000.0 -12549700000.0 -12549700000.0 -13741300000.0 -14440600000.0 -12993800000.0 -13053500000.0 -12711800000.0 -12866600000.0 -12554900000.0 -14337700000.0 -16052700000.0 -13638600000.0 -13775200000.0 -13364900000.0 -16715400000.0 -14065900000.0 -17909100000.0 -14416100000.0 -14833600000.0 -12804700000.0 -12549700000.0 -12549700000.0 -12549700000.0 -12549700000.0 -12549700000.0 -12549700000.0 -12549700000.0 -12549700000.0 -12549700000.0 -12549700000.0 -12549700000.0 -12549700000.0 -12549700000.0 -12549700000.0 -12549700000.0 -12549700000.0 -12549700000.0 -12549700000.0 -12549700000.0 -12549700000.0 -12549700000.0 -12549700000.0 -12549700000.0 -12549700000.0 -12549700000.0 -12549700000.0 -12549700000.0 -12549700000.0 -12549700000.0 -12549700000.0 -12549700000.0 -12549700000.0 -12549700000.0 -12549700000.0 -12549700000.0 -12549700000.0 -12549700000.0 -12549700000.0 -12549700000.0 -12549700000.0 -12549700000.0 -12549700000.0 -12549700000.0 -12549700000.0 -12749000000.0 -12600900000.0 -13264400000.0 -14339700000.0 -12570500000.0 -12706000000.0 -13221700000.0 -13124700000.0 -13332300000.0 -13682800000.0 -13804100000.0 -16670200000.0 -14069400000.0 -15951900000.0 -19355700000.0 -14212800000.0 -15485500000.0 -14713700000.0 -13461400000.0 -14208800000.0 -12856800000.0 -12689500000.0 -12549700000.0 -12549700000.0 -12549700000.0 -12549700000.0 -12549700000.0 -12549700000.0 -12549700000.0 -12549700000.0 -12549700000.0 -12549700000.0 -12549700000.0 -12549700000.0 -12549700000.0 -12549700000.0 -12549700000.0 -12549700000.0 -12549700000.0 -12549700000.0 -12549700000.0 -12549700000.0 -12549700000.0 -12549700000.0 -12549700000.0 -12549700000.0 -12549700000.0 -12549700000.0 -12549700000.0 -12549700000.0 -12549700000.0 -12549700000.0 -12557800000.0 -13237100000.0 -12557500000.0 -14278900000.0 -12567200000.0 -12803900000.0 -14585000000.0 -13624400000.0 -13211400000.0 -16199000000.0 -13357500000.0 -16126700000.0 -12759000000.0 -16752700000.0 -15191300000.0 -13177200000.0 -13736600000.0 -13915300000.0 -12560500000.0 -12602100000.0 -12640100000.0 -12549700000.0 -12549700000.0 -12549700000.0 -12549700000.0 -12549700000.0 -12549700000.0 -12549700000.0 -12549700000.0 -12549700000.0 -12549700000.0 -12549700000.0 -12549700000.0 -12549700000.0 -12549700000.0 -12549700000.0 -12549700000.0 -12549700000.0 -12549700000.0 -12549700000.0 -12549700000.0 -12549700000.0 -12549700000.0 -12549700000.0 -12549700000.0 -12549700000.0 -12549700000.0 -12642500000.0 -13295600000.0 -12576500000.0 -14221100000.0 -12609000000.0 -12894500000.0 -13053100000.0 -13955300000.0 -13648300000.0 -12577700000.0 -15034200000.0 -12801300000.0 -13256000000.0 -17102300000.0 -13261900000.0 -14438800000.0 -13655100000.0 -13030800000.0 -13515600000.0 -12549700000.0 -12549700000.0 -12549700000.0 -12549700000.0 -12549700000.0 -12549700000.0 -12549700000.0 -12549700000.0 -12549700000.0 -12549700000.0 -12549700000.0 -12549700000.0 -12549700000.0 -12549700000.0 -12549700000.0 -12549700000.0 -12549700000.0 -12549700000.0 -12549700000.0 -12549700000.0 -12549700000.0 -12549700000.0 -12549700000.0 -12549700000.0 -12549700000.0 -12549700000.0 -12549700000.0 -14159000000.0 -14559800000.0 -13091400000.0 -14703700000.0 -14894900000.0 -15143900000.0 -16551000000.0 -15297300000.0 -15949800000.0 -16673200000.0 -17072500000.0 -16614900000.0 -18244900000.0 -12856000000.0 -14244700000.0 -14303700000.0 -12613900000.0 -12568800000.0 -13310800000.0 -12954800000.0 -12962700000.0 -12549700000.0 -12549700000.0 -12549700000.0 -12549700000.0 -12549700000.0 -12549700000.0 -12549700000.0 -12549700000.0 -12549700000.0 -12549700000.0 -12549700000.0 -12549700000.0 -12549700000.0 -12549700000.0 -12549700000.0 -12707000000.0 -13489400000.0 -12950000000.0 -13158600000.0 -12927800000.0 -13166500000.0 -14185900000.0 -14363600000.0 -15910300000.0 -14962800000.0 -12611500000.0 -12549700000.0 -12634500000.0 -16667400000.0 -13959100000.0 -12549700000.0 -12551800000.0 -13047100000.0 -12775200000.0 -12679000000.0 -12549700000.0 -12549700000.0 -12549700000.0 -12549700000.0 -12549700000.0 -12549700000.0 -12549700000.0 -12549700000.0 -12549700000.0 -12549700000.0 -12549700000.0 -12549700000.0 -12549700000.0 -12549700000.0 -12549700000.0 -12549700000.0 -12549700000.0 -12549700000.0 -12614900000.0 -13169900000.0 -13318000000.0 -13300800000.0 -13151200000.0 -13072900000.0 -13164300000.0 -13913600000.0 -12944700000.0 -13259100000.0 -13168200000.0 -12704200000.0 -13610600000.0 -12780300000.0 -15365500000.0 -12549700000.0 -14151700000.0 -13246000000.0 -12761800000.0 -12625900000.0 -12549700000.0 -12549700000.0 -12549700000.0 -12549700000.0 -12549700000.0 -12549700000.0 -12549700000.0 -12549700000.0 -12549700000.0 -12549700000.0 -12549700000.0 -12549700000.0 -12549700000.0 -12560100000.0 -12586500000.0 -12737500000.0 -12965200000.0 -12578300000.0 -12590000000.0 -12643800000.0 -12707800000.0 -13201400000.0 -12639900000.0 -12880400000.0 -12549700000.0 -12950400000.0 -12569100000.0 -12647100000.0 -13248000000.0 -12802300000.0 -13619400000.0 -13772800000.0 -12549700000.0 -14324000000.0 -12549700000.0 -12549700000.0 -12635500000.0 -12549700000.0 -12549700000.0 -12549700000.0 -12549700000.0 -12549700000.0 -12549700000.0 -12549700000.0 -12549700000.0 -12567800000.0 -12556600000.0 -12710300000.0 -12549700000.0 -12549700000.0 -12580300000.0 -12994500000.0 -12742900000.0 -12757700000.0 -12867500000.0 -13515200000.0 -13099100000.0 -13347800000.0 -13152100000.0 -12895100000.0 -12613900000.0 -13600700000.0 -13240000000.0 -12742600000.0 -12549700000.0 -12549700000.0 -12549700000.0 -12549700000.0 -2.6712e+12 -4.13342e+12 -3.69468e+12 -4.87246e+12 -4.01559e+12 -4.09403e+12 -3.66235e+12 -3.62077e+12 -3.04321e+12 -3.9194e+12 -5.46166e+12 -3.18492e+12 -3.54424e+12 -5.28041e+12 -4.75704e+12 -3.24547e+12 -4.33697e+12 -2.83792e+12 -4.3842e+12 -6.0204e+12 -2.75569e+12 -4.73205e+12 -5.72629e+12 -4.32447e+12 -4.34775e+12 -4.94595e+12 -4.16731e+12 -4.3477e+12 -3.91735e+12 -4.68556e+12 -4.22943e+12 -6.03524e+12 -5.97895e+12 -5.56794e+12 -5.16834e+12 -3.61815e+12 -4.22984e+12 -4.33121e+12 -4.32747e+12 -3.53069e+12 -5.76881e+12 -3.98457e+12 -3.80046e+12 -3.27343e+12 -4.27052e+12 -4.59354e+12 -2.80502e+12 -12549700000.0 -4.49819e+12 -4.26071e+12 -5.01798e+12 -2.22625e+12 -3.37196e+12 -2.20135e+12 -12549700000.0 -12577100000.0 -12658200000.0 -12600700000.0 -12615200000.0 -12577300000.0 -12624600000.0 -12564300000.0 -12813100000.0 -12565400000.0 -13244100000.0 -13335600000.0 -12549700000.0 -12571300000.0 -12623600000.0 -12557000000.0 -12780100000.0 -12674100000.0 -12672200000.0 -12634300000.0 -12723000000.0 -12602400000.0 -2.55473e+12 -3.51698e+12 -4.35604e+12 -3.59026e+12 -12547300000.0 -12549700000.0 -12500800000.0 -12551500000.0 -4.58163e+12 -4.26992e+12 -3.96168e+12 -5.81064e+12 -4.04635e+12 -6.72552e+12 -5.032e+12 -3.79693e+12 -5.23858e+12 -12549700000.0 -12549700000.0 -12549600000.0 -4.27859e+12 -4.83199e+12 -12549700000.0 -12549700000.0 -5.99308e+12 -2.59035e+12 -4.10539e+12 -3.90257e+12 -3.82427e+12 -4.08683e+12 -5.23133e+12 -3.92163e+12 -4.63801e+12 -3.90995e+12 -4.41527e+12 -4.59785e+12 -2.74888e+12 -5.26136e+12 -4.10851e+12 -5.71381e+12 -6.42054e+12 -6.08955e+12 -5.87165e+12 -5.28009e+12 -5.19396e+12 -6.78424e+12 -4.40776e+12 -4.99788e+12 -6.41916e+12 -4.30357e+12 -4.89885e+12 -2.84376e+12 -6.64099e+12 -5.46335e+12 -6.17132e+12 -6.12054e+12 -7.7275e+12 -1.11359e+13 -5.50681e+12 -7.2238e+12 -3.93884e+12 -5.4266e+12 -4.59382e+12 -4.85485e+12 -6.65302e+12 -6.6001e+12 -5.0581e+12 -6.90663e+12 -4.3063e+12 -4.85048e+12 -5.93419e+12 -6.11303e+12 -7.5926e+12 -8.81212e+12 -7.46061e+12 -1.10605e+13 -4.94413e+12 -4.69222e+12 -3.72817e+12 -6.32934e+12 -5.84854e+12 -5.38694e+12 -4.51613e+12 -7.64035e+12 -7.27516e+12 -5.40847e+12 -9.21073e+12 -8.05966e+12 -9.04644e+12 -8.36278e+12 -5.36246e+12 -5.28565e+12 -7.45316e+12 -6.97508e+12 -6.79867e+12 -7.85178e+12 -7.21762e+12 -1.12597e+13 -5.82877e+12 -3.38652e+12 -5.09043e+12 -4.07177e+12 -3.62808e+12 -7.56315e+12 -7.35488e+12 -5.01723e+12 -6.10729e+12 -3.83835e+12 -6.9071e+12 -6.40253e+12 -9.70292e+12 -5.69073e+12 -6.86674e+12 -7.52555e+12 -6.7248e+12 -3.05201e+12 -5.39887e+12 -4.99064e+12 -5.8236e+12 -4.95787e+12 -9.20807e+12 -2.72733e+12 -4.90217e+12 -4.27398e+12 -6.56966e+12 -3.82364e+12 -7.05526e+12 -7.1109e+12 -3.9788e+12 -4.82823e+12 -4.18354e+12 -2.44603e+12 -12563400000.0 -12573900000.0 -12622300000.0 -12647900000.0 -12810100000.0 -12772000000.0 -12881300000.0 -12581000000.0 -12626600000.0 -12684900000.0 -12617100000.0 -12621600000.0 -12566300000.0 -12560100000.0 -12554600000.0 -12550700000.0 -5.24394e+12 -7.86799e+12 -3.83192e+12 -6.6857e+12 -3.36381e+12 -4.90048e+12 -7.41489e+12 -6.96806e+12 -5.20185e+12 -4.15819e+12 -3.39011e+12 -3.27279e+12 -3.8745e+12 -4.7151e+12 -2.21918e+12 -6.77789e+12 -7.34238e+12 -4.17763e+12 -6.12893e+12 -1.02922e+13 -6.41163e+12 -1.01979e+13 -7.14768e+12 -5.05401e+12 -8.68836e+12 -7.13563e+12 -4.15182e+12 -5.23599e+12 -5.59819e+12 -6.46056e+12 -7.07714e+12 -7.51196e+12 -4.48672e+12 -4.51659e+12 -6.79992e+12 -5.18469e+12 -1.03392e+13 -7.69398e+12 -7.83093e+12 -5.7158e+12 -4.64888e+12 -4.94966e+12 -4.69869e+12 -8.37035e+12 -6.83677e+12 -6.436e+12 -8.40273e+12 -6.83396e+12 -6.27701e+12 -6.3128e+12 -7.14055e+12 -5.57624e+12 -1.48433e+12 -2.93024e+12 -5.66051e+12 -5.02857e+12 -4.33678e+12 -5.6153e+12 -6.44533e+12 -8.59763e+12 -1.0321e+13 -6.91051e+12 -5.73194e+12 -5.02888e+12 -6.39268e+12 -7.22357e+12 -3.84572e+12 -6.57144e+12 -8.31605e+12 -5.76046e+12 -7.04671e+12 -4.87072e+12 -6.03469e+12 -7.77211e+12 -6.00241e+12 -6.06603e+12 -9.7689e+12 -5.65822e+12 -6.94114e+12 -7.53642e+12 -8.58817e+12 -4.11934e+12 -2.6026e+12 -4.71596e+12 -8.63552e+12 -6.59441e+12 -7.03609e+12 -7.92769e+12 -6.21799e+12 -5.61432e+12 -5.36209e+12 -7.43555e+12 -8.84185e+12 -4.76438e+12 -1.90401e+12 -6.37827e+12 -3.60678e+12 -4.51581e+12 -1.699e+12 -6.6365e+12 -2.47406e+12 -6.74522e+12 -5.41986e+12 -4.16928e+12 -6.04776e+12 -2.43545e+12 -5.89395e+12 -7.23726e+12 -6.12765e+12 -5.88111e+12 -5.53445e+12 -9.047e+12 -8.70735e+12 -6.43358e+12 -6.33913e+12 -5.8791e+12 -7.06578e+12 -4.90242e+12 -7.82397e+12 -6.07318e+12 -6.19e+12 -5.79165e+12 -7.60247e+12 -6.38345e+12 -5.40389e+12 -4.52561e+12 -8.29838e+12 -6.36533e+12 -7.33654e+12 -2.88791e+12 -6.21246e+12 -2.99609e+12 -6.45699e+12 -8.53676e+12 -9.95205e+12 -7.89339e+12 -5.07628e+12 -7.12277e+12 -5.50074e+12 -4.74463e+12 -9.66833e+12 -4.45545e+12 -4.21902e+12 -5.61359e+12 -6.52147e+12 -6.63897e+12 -3.93245e+12 -7.18762e+12 -1.08246e+13 -8.60656e+12 -4.65947e+12 -6.20186e+12 -3.91173e+12 -3.61442e+12 -4.9463e+12 -6.8107e+12 -5.01831e+12 -12549700000.0 -5.31774e+12 -4.39358e+12 -3.79365e+12 -8.7529e+12 -2.13822e+12 -9.57956e+12 -4.71854e+12 -5.87441e+12 -1.07022e+13 -5.00095e+12 -9.04613e+12 -5.91525e+12 -2.79332e+12 -5.59371e+12 -4.27022e+12 -3.66639e+12 -4.01657e+12 -3.73894e+12 -7.23149e+12 -5.57577e+12 -7.66994e+12 -3.98724e+12 -5.60264e+12 -1.02042e+13 -6.59615e+12 -6.61971e+12 -3.82117e+12 -8.70356e+12 -9.46466e+12 -7.6241e+12 -3.73029e+12 -7.9764e+12 -4.61016e+12 -6.12241e+12 -4.8843e+12 -6.39976e+12 -5.15128e+12 -6.17922e+12 -6.56295e+12 -6.55408e+12 -6.10062e+12 -4.46394e+12 -7.36705e+12 -8.22607e+12 -5.11199e+12 -5.95273e+12 -8.57481e+12 -3.87951e+12 -3.99776e+12 -3.72757e+12 -6.10791e+12 -4.0858e+12 -5.80463e+12 -3.98747e+12 -4.93186e+12 -4.89861e+12 -7.2382e+12 -7.79681e+12 -8.86811e+12 -5.47883e+12 -4.48357e+12 -4.14302e+12 -7.32747e+12 -2.18255e+12 -6.6515e+12 -5.14428e+12 -4.45365e+12 -9.05449e+12 -7.34651e+12 -6.18114e+12 -1.02028e+13 -5.13799e+12 -3.75003e+12 -4.65563e+12 -5.92223e+12 -4.95507e+12 -5.14103e+12 -6.42864e+12 -5.72889e+12 -4.9932e+12 -6.19561e+12 -5.04301e+12 -6.65244e+12 -5.03474e+12 -4.04296e+12 -5.16675e+12 -4.02362e+12 -4.69553e+12 -8.48553e+12 -4.11521e+12 -7.36259e+12 -8.0999e+12 -7.16366e+12 -4.033e+12 -4.2399e+12 -3.45129e+12 -4.76047e+12 -2.21944e+12 -5.89613e+12 -4.26654e+12 -5.11824e+12 -5.78168e+12 -3.99066e+12 -8.97376e+12 -5.93892e+12 -5.74478e+12 -4.16226e+12 -4.01508e+12 -7.3915e+12 -3.14737e+12 -5.31774e+12 -5.80846e+12 -7.78731e+12 -5.50887e+12 -4.51865e+12 -6.16851e+12 -6.88448e+12 -5.8459e+12 -4.49393e+12 -6.52707e+12 -5.69664e+12 -4.93815e+12 -4.81573e+12 -3.8172e+12 -3.06066e+12 -4.30629e+12 -4.18175e+12 -4.76822e+12 -5.50371e+12 -5.62106e+12 -7.26724e+12 -8.32214e+12 -7.87571e+12 -4.95843e+12 -6.47836e+12 -6.40577e+12 -4.09831e+12 -4.21694e+12 -5.60037e+12 -2.55975e+12 -5.68251e+12 -5.61499e+12 -5.45274e+12 -6.99387e+12 -8.03312e+12 -5.32289e+12 -4.23353e+12 -8.37641e+12 -3.45178e+12 -6.01361e+12 -2.88474e+12 -2.23849e+12 -9.16864e+12 -3.67792e+12 -3.71133e+12 -8.45041e+12 -2.82403e+12 -3.5518e+12 -5.44015e+12 -5.06779e+12 -4.68178e+12 -2.56356e+12 -5.02084e+12 -7.55165e+12 -6.81786e+12 -7.71083e+12 -6.3715e+12 -3.61561e+12 -6.8356e+12 -4.04841e+12 -5.74482e+12 -6.10366e+12 -6.30709e+12 -7.59586e+12 -4.46043e+12 -5.91691e+12 -5.63698e+12 -5.94513e+12 -3.68818e+12 -3.76747e+12 -4.70446e+12 -5.63911e+12 -5.30798e+12 -3.54413e+12 -4.23509e+12 -4.43475e+12 -7.05572e+12 -6.38526e+12 -3.25687e+12 -4.29869e+12 -3.07498e+12 -7.28413e+12 -4.27619e+12 -3.07614e+12 -5.74838e+12 -3.80154e+12 -4.27152e+12 -4.98497e+12 -4.44252e+12 -4.43439e+12 -6.95407e+12 -8.03925e+12 -4.20747e+12 -4.55029e+12 -664706000000.0 -4.24943e+12 -9.89335e+12 -4.26504e+12 -5.02625e+12 -5.3804e+12 -4.20551e+12 -4.86189e+12 -3.80271e+12 -4.62587e+12 -2.94975e+12 -4.22692e+12 -6.89979e+12 -6.10369e+12 -4.67183e+12 -7.28827e+12 -2.69145e+12 -6.84245e+12 -8.08007e+12 -4.82153e+12 -6.00709e+12 -5.08376e+12 -7.4223e+12 -7.254e+12 -4.20298e+12 -2.702e+12 -7.96764e+12 -6.64584e+12 -6.39239e+12 -7.18697e+12 -3.25245e+12 -5.17972e+12 -5.1863e+12 -4.82677e+12 -5.52744e+12 -3.63593e+12 -5.92796e+12 -7.40713e+12 -2.75108e+12 -5.8316e+12 -4.50927e+12 -4.62963e+12 -3.45341e+12 -5.25898e+12 -3.58113e+12 -2.25913e+12 -2.14666e+12 -2.01922e+12 -5.1359e+12 -4.74829e+12 -3.30977e+12 -4.10757e+12 -4.19238e+12 -4.90959e+12 -3.42893e+12 -3.41742e+12 -3.85484e+12 -6.24113e+12 -4.10564e+12 -3.71081e+12 -4.8998e+12 -6.11489e+12 -5.19974e+12 -4.03188e+12 -2.93391e+12 -3.84702e+12 -4.30311e+12 -5.22533e+12 -3.29738e+12 -2.87963e+12 -5.22146e+12 -3.09948e+12 -6.13689e+12 -4.15969e+12 -5.06559e+12 -2.95839e+12 -3.31232e+12 -3.62562e+12 -5.52857e+12 -5.6587e+12 -5.9248e+12 -7.34161e+12 -2.94725e+12 -2.61462e+12 -4.50719e+12 -3.47109e+12 -4.43245e+12 -5.96606e+12 -6.09524e+12 -2.24818e+12 -4.38218e+12 -4.9737e+12 -5.87963e+12 -5.2407e+12 -4.35058e+12 -3.06421e+12 -4.79097e+12 -4.36693e+12 -3.13342e+12 -5.71978e+12 -7.52169e+12 -4.74301e+12 -6.37288e+12 -3.07427e+12 -6.97046e+12 -1.98608e+12 -5.72208e+12 -2.37523e+12 -6.27876e+12 -3.05414e+12 -4.46288e+12 -1.02256e+13 -3.99146e+12 -6.76058e+12 -6.25725e+12 -4.7423e+12 -5.51526e+12 -5.97474e+12 -5.8532e+12 -6.01025e+12 -5.87186e+12 -5.69355e+12 -4.98137e+12 -6.19702e+12 -5.21484e+12 -6.38276e+12 -4.87189e+12 -1.68294e+12 -5.32471e+12 -4.71792e+12 -3.57286e+12 -4.83727e+12 -5.2563e+12 -6.80129e+12 -4.14068e+12 -5.75581e+12 -3.69557e+12 -4.83142e+12 -8.54959e+12 -3.32511e+12 -4.08894e+12 -5.33232e+12 -3.14995e+12 -6.83301e+12 -3.07688e+12 -5.74539e+12 -3.94667e+12 -5.27891e+12 -3.43426e+12 -6.4746e+12 -3.55561e+12 -7.49351e+12 -6.46734e+12 -695565000000.0 -6.31386e+12 -3.03225e+12 -4.68568e+12 -4.37221e+12 -2.97328e+12 -5.52134e+12 -2.81909e+12 -6.18775e+12 -1.79116e+12 -4.59761e+12 -6.50697e+12 -4.08269e+12 -3.28463e+12 -5.54543e+12 -3.33478e+12 -3.57262e+12 -4.44271e+12 -3.26168e+12 -3.63234e+12 -3.37629e+12 -3.70075e+12 -3.97358e+12 -6.49152e+12 -3.74103e+12 -8.16229e+12 -2.67895e+12 -3.49119e+12 -3.6034e+12 -5.75275e+12 -4.79971e+12 -2.77441e+12 -3.90877e+12 -3.3229e+12 -3.30782e+12 -3.57333e+12 -2.389e+12 -4.93219e+12 -3.51484e+12 -5.94786e+12 -1.94619e+12 -4.81656e+12 -5.7681e+12 -5.77647e+12 -4.555e+12 -6.52602e+12 -3.10719e+12 -2.35285e+12 -5.98433e+12 -5.35632e+12 -4.40608e+12 -2.82236e+12 -2.02094e+12 -6.80351e+12 -2.7784e+12 -4.04331e+12 -4.01953e+12 -6.45744e+12 -3.56148e+12 -4.83511e+12 -2.76687e+12 -5.19438e+12 -5.1337e+12 -3.55221e+12 -5.47349e+12 -3.11096e+12 -4.6304e+12 -5.71559e+12 -4.19749e+12 -4.96139e+12 -2.84585e+12 -3.20172e+12 -2.69956e+12 -6.36892e+12 -4.13764e+12 -4.76065e+12 -5.87086e+12 -2.4942e+12 -3.91433e+12 -3.09785e+12 -4.63932e+12 -5.40906e+12 -5.1812e+12 -4.21408e+12 -3.50441e+12 -4.34217e+12 -3.06773e+12 -3.48483e+12 -2.53023e+12 -3.50119e+12 -5.58276e+12 -3.29957e+12 -1.45727e+12 -2.91718e+12 -4.20567e+12 -3.50075e+12 -3.05773e+12 -4.24547e+12 -2.86025e+12 -3.03654e+12 -3.91501e+12 -4.28001e+12 -3.78277e+12 -2.76522e+12 -6.28685e+12 -4.21856e+12 -5.38516e+12 -2.56551e+12 -3.763e+12 -4.32709e+12 -3.44021e+12 -3.93597e+12 -4.6853e+12 -2.85559e+12 -5.83621e+12 -5.01013e+12 -3.06084e+12 -2.56814e+12 -4.99145e+12 -4.972e+12 -3.25626e+12 -4.15242e+12 -5.24965e+12 -4.42132e+12 -5.21096e+12 -4.28522e+12 -4.47733e+12 -2.24695e+12 -3.97397e+12 -3.13747e+12 -5.20326e+12 -3.97627e+12 -6.43011e+12 -4.62657e+12 -1.52868e+12 -4.04252e+12 -5.27128e+12 -2.47356e+12 -2.69391e+12 -3.54636e+12 -6.59212e+12 -5.33897e+12 -5.95981e+12 -6.73974e+12 -4.86373e+12 -5.3759e+12 -2.97342e+12 -3.01475e+12 -2.69969e+12 -2.17106e+12 -3.86372e+12 -4.40407e+12 -2.62232e+12 -2.85238e+12 -3.1629e+12 -1.07409e+12 -3.68578e+12 -3.11017e+12 -740962000000.0 -3.83299e+12 -1.46421e+12 -4.46461e+12 -4.66499e+12 -3.02651e+12 -4.48177e+12 -3.2327e+12 -3.17614e+12 -4.22759e+12 -2.43859e+12 -2.21619e+12 -3.54039e+12 -4.57112e+12 -5.36333e+12 -1.64285e+12 -3.4902e+12 -3.55941e+12 -4.01873e+12 -4.6087e+12 -3.78596e+12 -5.11201e+12 -2.75576e+12 -5.28198e+12 -3.37261e+12 -7.03155e+12 -2.62972e+12 -2.19223e+12 -3.7518e+12 -2.11915e+12 -2.07682e+12 -2.88173e+12 -4.80723e+12 -2.02233e+12 -3.09441e+12 -2.70772e+12 -3.8931e+12 -2.74552e+12 -4.67751e+12 -2.28902e+12 -2.44805e+12 -2.74832e+12 -1.69612e+12 -3.99752e+12 -3.07829e+12 -3.73903e+12 -2.47638e+12 -3.1998e+12 -4.33309e+12 -3.36424e+12 -1.89462e+12 -2.9895e+12 -3.75284e+12 -2.4468e+12 -2.81897e+12 -3.26561e+12 -2.23646e+12 -2.86695e+12 -2.76438e+12 -2.48686e+12 -2.81036e+12 -1.92479e+12 -3.7593e+12 -4.901e+12 -3.38191e+12 -1.83577e+12 -2.11559e+12 -4.52154e+12 -3.4657e+12 -2.82903e+12 -2.98914e+12 -3.54884e+12 -1.09729e+12 -2.60273e+12 -3.15247e+12 -1.63016e+12 -2.79696e+12 -3.79123e+12 -2.81856e+12 -2.74819e+12 -3.58592e+12 -3.20039e+12 -4.31852e+12 -2.95248e+12 -3.38231e+12 -3.11886e+12 -2.82881e+12 -4.29509e+12 -2.55545e+12 -2.78362e+12 -1.88939e+12 -1.49953e+12 -3.10932e+12 -3.17188e+12 -3.65988e+12 -2.44588e+12 -3.46291e+12 -4.32374e+12 -2.21075e+12 -2.77459e+12 -3.10023e+12 -2.6125e+12 -5.17301e+12 -3.45907e+12 -3.12431e+12 -1.52297e+12 -2.22045e+12 -2.93741e+12 -2.4782e+12 -2.95673e+12 -1.93626e+12 -2.39999e+12 -4.2137e+12 -2.13168e+12 -5.08356e+12 -2.75347e+12 -4.04257e+12 -5.2556e+12 -2.12469e+12 -3.50755e+12 -3.74308e+12 -1.59725e+12 -3.2532e+12 -2.9328e+12 -3.69406e+12 -4.34485e+12 -2.83205e+12 -3.50577e+12 -2.48133e+12 -3.74466e+12 -3.2195e+12 -1.83871e+12 -2.49754e+12 -2.70035e+12 -3.46281e+12 -4.53091e+12 -3.62737e+12 -3.16193e+12 -3.06459e+12 -2.12482e+12 -2.65628e+12 -2.35903e+12 -2.29203e+12 -2.41517e+12 -269366000000.0 -2.40404e+12 -2.50962e+12 -2.08242e+12 -1.70462e+12 -3.61823e+12 -2.6344e+12 -2.28326e+12 -1.94361e+12 -2.19957e+12 -1.75533e+12 -2.67801e+12 -2.87555e+12 -2.79338e+12 -2.114e+12 -4.25951e+12 -3.02051e+12 -2.85336e+12 -3.60498e+12 -1.83718e+12 -1.44077e+12 -3.20765e+12 -3.71129e+12 -5.26998e+12 -2.46754e+12 -4.05587e+12 -3.05068e+12 -4.73708e+12 -1.40391e+12 -4.19701e+12 -4.04407e+12 -5.4214e+12 -3.30962e+12 -2.75444e+12 -2.62481e+12 -2.48677e+12 -2.53889e+12 -1.93475e+12 -1.87109e+12 -1.28707e+12 -1.61046e+12 -3.83081e+12 -3.79389e+12 -2.17791e+12 -1.13961e+12 -1.9263e+12 -781102000000.0 -1.5872e+12 -3.40522e+12 -2.69268e+12 -5.16652e+12 -1.77059e+12 -2.27868e+12 -3.75673e+12 -3.36818e+12 -2.0216e+12 -1.53813e+12 -1.82794e+12 -1.38856e+12 -1.3944e+12 -2.95729e+12 -3.47535e+12 -2.16606e+12 -2.08387e+12 -2.18627e+12 -2.14953e+12 -2.62487e+12 -2.45391e+12 -1.50473e+12 -3.0808e+12 -3.96554e+12 -4.9329e+12 -3.20873e+12 -3.0133e+12 -4.31556e+12 -2.98923e+12 -3.48523e+12 -3.21232e+12 -3.40211e+12 -1.47059e+12 -2.20958e+12 -3.34528e+12 -2.75325e+12 -2.15616e+12 -2.59877e+12 -3.14392e+12 -3.08048e+12 -3.65999e+12 -1.63988e+12 -3.01153e+12 -2.70732e+12 -2.26198e+12 -1.15054e+12 -2.66129e+12 -2.93659e+12 -1.10379e+12 -2.67336e+12 -1.13278e+12 -1.47127e+12 -1.98062e+12 -2.30454e+12 -1.42293e+12 -1.0257e+12 -1.94446e+12 -2.29918e+12 -1.58104e+12 -1.39618e+12 -1.69098e+12 -1.90511e+12 -1.45186e+12 -2.0831e+12 -1.06347e+12 -1.96803e+12 -1.98223e+12 -1.65395e+12 -1.7563e+12 -2.56581e+12 -2.43194e+12 -2.51555e+12 -2.4494e+12 -3.14955e+12 -1.39686e+12 -2.18205e+12 -1.9898e+12 -2.4021e+12 -1.54842e+12 -2.47273e+12 -1.16942e+12 -4.58768e+12 -2.50553e+12 -1.95283e+12 -1.01811e+12 -1.5857e+12 -1.57841e+12 -1.59938e+12 -1.92434e+12 -3.19918e+12 -1.2324e+12 -2.67411e+12 -1.44144e+12 -1.0455e+12 -1.57213e+12 -2.20488e+12 -1.24759e+12 -3.11889e+12 -2.09186e+12 -990305000000.0 -1.11855e+12 -2.59554e+12 -1.61156e+12 -2.12263e+12 -1.16635e+12 -2.26423e+12 -1.67571e+12 -2.18408e+12 -2.96924e+12 -3.01256e+12 -2.40385e+12 -1.64294e+12 -2.36502e+12 -827223000000.0 -1.98861e+12 -1.42654e+12 -1.70794e+12 -3.56484e+12 -2.57199e+12 -2.61142e+12 -2.61646e+12 -2.12708e+12 -2.79149e+12 -1.41334e+12 -1.95532e+12 -2.25384e+12 -1.61464e+12 -1.59894e+12 -2.05584e+12 -2.6567e+12 -1.56932e+12 -3.07157e+12 -2.47843e+12 -1.58949e+12 -2.86694e+12 -2.58825e+12 -2.59262e+12 -2.68755e+12 -1.60591e+12 -1.7127e+12 -2.01405e+12 -2.18172e+12 -3.06824e+12 -1.73332e+12 -1.75899e+12 -1.04039e+12 -2.20193e+12 -351664000000.0 -2.29365e+12 -493337000000.0 -1.45729e+12 -2.44922e+12 -2.14577e+12 -1.3541e+12 -814031000000.0 -2.35562e+12 -1.66666e+12 -876123000000.0 -1.25226e+12 -1.30097e+12 -1.49285e+12 -2.43852e+12 -1.10185e+12 -2.16949e+12 -846926000000.0 -1.43289e+12 -1.87604e+12 -1.04202e+12 -818761000000.0 -1.46264e+12 -1.13701e+12 -2.56744e+12 -966797000000.0 -1.72712e+12 -1.0133e+12 -1.34174e+12 -1.9394e+12 -645420000000.0 -1.19711e+12 -1.07176e+12 -1.25018e+12 -2.19745e+12 -1.23071e+12 -698481000000.0 -834710000000.0 -295911000000.0 -1.85779e+12 -449144000000.0 -1.44371e+12 -3.0594e+12 -1.12146e+12 -2.54476e+12 -1.59746e+12 -1.89391e+12 -2.95171e+12 -2.49721e+12 -1.18555e+12 -1.06977e+12 -992466000000.0 -537400000000.0 -1.90041e+12 -659331000000.0 -756984000000.0 -601466000000.0 -1.82469e+12 -1.56012e+12 -2.21819e+12 -1.14272e+12 -341271000000.0 -1.4945e+12 -1.08856e+12 -1.3626e+12 -1.7661e+12 -1.78881e+12 -1.72789e+12 -1.97504e+12 -1.83933e+12 -1.10583e+12 -954576000000.0 -991138000000.0 -816709000000.0 -932061000000.0 -1.63444e+12 -1.97125e+12 -413874000000.0 -1.97052e+12 -980520000000.0 -643094000000.0 -1.37846e+12 -580021000000.0 -1.15972e+12 -1.99768e+12 -1.665e+12 -1.3858e+12 -1.04988e+12 -1.38668e+12 -486805000000.0 -2.73669e+12 -1.9988e+12 -551926000000.0 -754317000000.0 -981672000000.0 -962759000000.0 -956265000000.0 -193760000000.0 -1.14874e+12 -335555000000.0 -554499000000.0 -1.22516e+12 -674849000000.0 -1.27315e+12 -1.01217e+12 -306446000000.0 -687664000000.0 -519450000000.0 -661136000000.0 -246575000000.0 -456206000000.0 -175923000000.0 -372969000000.0 -1.02202e+12 -543560000000.0 -1.00811e+12 -1.02862e+12 -992477000000.0 -837277000000.0 -718304000000.0 -1.07853e+12 -862068000000.0 -1.01358e+12 -528242000000.0 -991632000000.0 -563602000000.0 -898518000000.0 -739389000000.0 -784353000000.0 -1.03112e+12 -480646000000.0 -2.01456e+12 -481114000000.0 -334782000000.0 -994206000000.0 -523258000000.0 -1.83538e+12 -1.11363e+12 -362380000000.0 -1.26016e+12 -341427000000.0 -467162000000.0 -442245000000.0 -769028000000.0 -905019000000.0 -1.51506e+12 -782746000000.0 -643965000000.0 -724011000000.0 -520855000000.0 -830568000000.0 -1.59832e+12 -1.03617e+12 -423350000000.0 -787915000000.0 -184619000000.0 -382236000000.0 -583205000000.0 -388069000000.0 -1.1782e+12 -365266000000.0 -232436000000.0 -175856000000.0 -651626000000.0 -436707000000.0 -1.37802e+12 -297228000000.0 -876066000000.0 -814782000000.0 -999114000000.0 -219812000000.0 -677569000000.0 -484729000000.0 -1.14099e+12 -459558000000.0 -769049000000.0 -1.20325e+12 -1.01128e+12 -561740000000.0 -1.86926e+12 -441666000000.0 -645572000000.0 -1.10594e+12 -671873000000.0 -83315200000.0 -624427000000.0 -760294000000.0 -404059000000.0 -239688000000.0 -263754000000.0 -204817000000.0 -73476000000.0 -199182000000.0 -252002000000.0 -358331000000.0 -213666000000.0 -286986000000.0 -175194000000.0 -145079000000.0 -136808000000.0 -463712000000.0 -415596000000.0 -364472000000.0 -179820000000.0 -296293000000.0 -192995000000.0 -232176000000.0 -463819000000.0 -227581000000.0 -601150000000.0 -319260000000.0 -183692000000.0 -351466000000.0 -157588000000.0 -84841300000.0 -98741100000.0 -255156000000.0 -290543000000.0 -229727000000.0 -220312000000.0 -266183000000.0 -390930000000.0 -314850000000.0 -160138000000.0 -185727000000.0 -126706000000.0 -168154000000.0 