# vtk DataFile Version 2.0
Time step 55
ASCII
DATASET UNSTRUCTURED_GRID
POINTS 5000 float
12439.0 58011.3 0
16747.6 57329.2 0
27669.2 55712.2 0
57004.9 57982.3 0
171830.0 57252.4 0
177734.0 57290.7 0
182938.0 56477.0 0
201747.0 58016.2 0
212984.0 58115.9 0
241170.0 58017.8 0
252680.0 58003.1 0
278881.0 57421.9 0
297319.0 57386.5 0
361815.0 57789.2 0
372012.0 55806.8 0
377031.0 57778.5 0
388132.0 57953.5 0
394019.0 57269.4 0
403650.0 56195.2 0
408587.0 57407.4 0
422737.0 57214.8 0
432478.0 56726.7 0
442088.0 58021.9 0
446251.0 57602.7 0
471628.0 57799.7 0
477063.0 56603.2 0
485844.0 56535.5 0
491674.0 58074.1 0
497601.0 56567.6 0
2398.29 58803.8 0
8534.08 58177.2 0
6062.52 61497.2 0
11087.3 62529.3 0
17332.6 63231.4 0
22243.6 58977.2 0
28519.6 62063.9 0
33205.0 58399.6 0
38185.3 58983.5 0
42703.9 59136.8 0
47472.2 59043.0 0
48279.9 63037.4 0
52137.1 59142.7 0
62763.5 59058.0 0
67994.7 59191.5 0
72702.5 58323.9 0
77500.0 59071.0 0
82500.0 59060.2 0
87407.7 58358.4 0
87907.8 63116.3 0
92500.0 59098.4 0
97192.5 59119.9 0
101292.0 59036.9 0
105946.0 58426.4 0
111936.0 58905.7 0
108243.0 63017.6 0
117850.0 59090.8 0
123330.0 59167.5 0
128345.0 59288.4 0
133428.0 58537.0 0
138124.0 59220.5 0
142500.0 59141.7 0
147500.0 59075.2 0
152501.0 59045.0 0
157589.0 58672.5 0
156860.0 62721.7 0
162561.0 58827.8 0
167010.0 58369.4 0
166509.0 63041.2 0
172971.0 62821.4 0
178375.0 62703.0 0
183533.0 61545.0 0
187393.0 58331.7 0
188604.0 62777.3 0
192498.0 59493.5 0
196079.0 58655.9 0
198250.0 63000.6 0
207650.0 58780.4 0
213692.0 62666.2 0
218128.0 59201.9 0
222479.0 59214.3 0
225794.0 58443.4 0
226801.0 62678.4 0
230434.0 58315.4 0
235810.0 59313.4 0
246502.0 60019.1 0
259052.0 58477.7 0
257263.0 63116.2 0
263773.0 59566.3 0
268740.0 58475.1 0
273935.0 58770.4 0
271610.0 62621.2 0
277075.0 63024.9 0
282030.0 60754.4 0
286325.0 59062.0 0
291717.0 59518.0 0
298250.0 62896.9 0
303664.0 58170.6 0
307730.0 60741.0 0
312126.0 58595.6 0
317929.0 59212.3 0
323245.0 59117.8 0
327581.0 59388.9 0
332206.0 58987.5 0
337223.0 58696.6 0
341019.0 59907.5 0
345896.0 58242.5 0
343308.0 62932.7 0
350686.0 60165.7 0
355258.0 59148.7 0
361440.0 63101.9 0
365113.0 62793.9 0
367954.0 59122.3 0
372930.0 62607.6 0
382609.0 58652.7 0
378819.0 62329.3 0
388375.0 63041.8 0
399200.0 58938.0 0
402999.0 62394.7 0
412474.0 59058.0 0
408388.0 61688.2 0
412865.0 63000.1 0
417500.0 59104.0 0
422128.0 61851.5 0
427271.0 58923.4 0
433429.0 61959.8 0
437541.0 59080.3 0
443214.0 62304.1 0
447602.0 61612.7 0
450665.0 58370.4 0
451946.0 62847.9 0
455208.0 58310.1 0
457176.0 63037.0 0
460242.0 58153.7 0
465793.0 58543.2 0
466599.0 63112.9 0
475181.0 63092.7 0
481305.0 59466.4 0
486589.0 62724.6 0
496837.0 62076.8 0
2284.55 63818.1 0
6738.9 66542.4 0
23005.6 64487.2 0
34969.3 63674.2 0
40341.9 63992.7 0
44464.7 64334.4 0
47589.1 67758.5 0
52500.0 64102.9 0
57995.3 63423.5 0
62850.0 64157.5 0
67505.2 63829.3 0
72115.8 63443.6 0
77500.0 64229.0 0
82116.1 63875.2 0
92500.0 64238.0 0
97183.4 63866.7 0
102467.0 63771.5 0
107924.0 67797.5 0
112500.0 64174.3 0
117500.0 64255.8 0
122500.0 64178.7 0
125864.0 68089.4 0
127727.0 63721.4 0
132494.0 64072.2 0
137520.0 64087.0 0
142774.0 63564.3 0
140992.0 67685.1 0
146926.0 63912.3 0
151937.0 63789.8 0
156244.0 67282.4 0
161296.0 63541.9 0
169996.0 67607.8 0
182187.0 66684.0 0
193571.0 63637.7 0
203920.0 63636.0 0
199972.0 68105.6 0
209357.0 63850.3 0
213300.0 67477.0 0
217601.0 64272.6 0
222032.0 64038.7 0
222564.0 68313.0 0
226872.0 67683.3 0
232205.0 63740.3 0
237686.0 64564.7 0
243283.0 64388.9 0
248462.0 64092.6 0
246841.0 68160.7 0
252678.0 64563.3 0
257738.0 67868.3 0
262325.0 63741.8 0
267061.0 63318.0 0
267489.0 67772.5 0
273047.0 67861.2 0
279878.0 67088.3 0
282828.0 64441.0 0
287500.0 64152.4 0
292913.0 64009.1 0
291016.0 68315.4 0
296734.0 67940.4 0
303119.0 63841.1 0
307441.0 64033.9 0
312501.0 64346.9 0
317474.0 64087.5 0
322433.0 63585.8 0
322509.0 67591.1 0
327500.0 64132.6 0
332500.0 64204.9 0
336512.0 68202.5 0
337713.0 63538.0 0
341414.0 67138.1 0
346846.0 67715.3 0
347752.0 63328.7 0
352668.0 64055.5 0
356026.0 67443.0 0
357754.0 63568.9 0
361261.0 67803.9 0
366513.0 66874.9 0
382004.0 63467.6 0
377673.0 68264.2 0
384354.0 66805.2 0
392424.0 68239.2 0
393554.0 63416.5 0
397217.0 68198.9 0
398136.0 63851.3 0
409244.0 67333.1 0
417520.0 63619.7 0
419145.0 68308.9 0
428327.0 63865.7 0
424121.0 66668.7 0
432249.0 67583.1 0
437510.0 64148.7 0
437342.0 68320.1 0
442359.0 67541.1 0
448276.0 66685.6 0
454179.0 68252.0 0
462429.0 64527.2 0
470193.0 64293.2 0
472372.0 67615.2 0
480797.0 64741.4 0
492077.0 64975.0 0
2238.62 69742.0 0
8050.23 72382.9 0
11843.3 68358.6 0
13471.9 72985.5 0
16323.4 68438.6 0
17752.4 72283.0 0
20502.9 68448.5 0
22417.4 72822.1 0
27043.9 68896.5 0
32616.0 68729.9 0
32073.0 73017.3 0
38263.9 68505.4 0
42970.8 68892.5 0
49063.6 72549.8 0
51800.6 69523.5 0
56554.7 69043.7 0
62115.2 69013.4 0
63617.0 73345.0 0
67697.9 68673.2 0
73695.3 68986.3 0
78211.1 69426.5 0
77068.8 73345.7 0
81954.5 68601.3 0
86960.3 68632.1 0
92531.5 68989.0 0
97548.4 68386.0 0
102630.0 69533.5 0
107685.0 73295.6 0
116732.0 68858.9 0
112494.0 69071.1 0
113113.0 73400.3 0
120857.0 68709.1 0
118139.0 73335.0 0
123420.0 72696.7 0
131158.0 69788.2 0
136445.0 69740.6 0
146305.0 68803.5 0
151834.0 70401.3 0
148002.0 73411.7 0
156828.0 72676.3 0
161703.0 69232.5 0
166528.0 71050.9 0
176294.0 68460.7 0
182233.0 72162.6 0
188048.0 68938.9 0
194261.0 68663.8 0
197223.0 73391.0 0
203055.0 73244.9 0
208111.0 68758.8 0
204288.0 69100.8 0
217709.0 69206.3 0
214360.0 73147.9 0
222020.0 72570.6 0
227505.0 73233.6 0
232444.0 69205.1 0
237422.0 68990.7 0
237875.0 72314.7 0
241792.0 69644.0 0
246210.0 73345.9 0
251784.0 69454.4 0
255872.0 72583.6 0
262720.0 68519.4 0
260336.0 72253.1 0
266349.0 72454.6 0
278361.0 72591.2 0
283554.0 69373.8 0
287215.0 69441.5 0
288758.0 72594.9 0
302234.0 69075.9 0
307700.0 68463.7 0
313207.0 69588.9 0
316257.0 73291.8 0
318188.0 68577.5 0
321079.0 72815.9 0
326812.0 69472.5 0
329893.0 73014.5 0
331856.0 69188.0 0
339780.0 72528.9 0
351893.0 68890.5 0
357349.0 71400.4 0
366550.0 71567.5 0
371101.0 68748.2 0
382813.0 72321.2 0
388338.0 69993.4 0
402858.0 68635.7 0
408059.0 72681.9 0
414413.0 69887.4 0
427686.0 69704.9 0
425659.0 73332.2 0
437115.0 72514.9 0
441811.0 73126.8 0
446524.0 71682.4 0
450848.0 72179.4 0
458992.0 69301.7 0
463188.0 69064.7 0
467519.0 69171.3 0
472593.0 72574.6 0
477746.0 68563.2 0
482622.0 69436.2 0
487506.0 70539.3 0
491506.0 69036.3 0
492124.0 72891.7 0
496591.0 68645.5 0
2182.12 74156.1 0
11905.7 76725.7 0
17161.8 77462.2 0
23053.4 78206.2 0
26989.1 74819.4 0
30224.5 77556.9 0
34875.2 78351.1 0
37589.6 73710.1 0
39764.5 77774.2 0
43206.2 73955.6 0
48583.3 77774.2 0
53807.2 74224.2 0
59223.1 73722.6 0
57213.6 78114.8 0
63064.6 78120.0 0
68064.9 74345.1 0
72603.0 73861.9 0
73401.6 77920.1 0
78302.6 78494.1 0
82136.1 73622.3 0
87334.0 73805.8 0
92269.2 74319.6 0
97732.1 73738.2 0
102767.0 74989.9 0
111306.0 77984.2 0
122098.0 77886.8 0
127500.0 74253.1 0
126931.0 78294.7 0
137738.0 73654.5 0
132691.0 74616.2 0
136577.0 78204.6 0
142524.0 73803.9 0
147012.0 77688.9 0
153420.0 75054.6 0
160406.0 74045.5 0
164429.0 74754.3 0
167047.0 77628.8 0
170842.0 73636.8 0
177032.0 75028.6 0
186625.0 74573.2 0
191646.0 74060.1 0
193693.0 78145.8 0
203174.0 78345.7 0
208748.0 75105.0 0
218717.0 74455.3 0
216320.0 77764.9 0
221175.0 78104.6 0
234333.0 73584.4 0
231983.0 78082.9 0
237943.0 77050.6 0
241749.0 74244.5 0
248029.0 78424.0 0
251518.0 74712.8 0
257727.0 77765.7 0
262636.0 75827.6 0
267587.0 78406.6 0
271756.0 74130.0 0
284358.0 74112.8 0
288835.0 77915.4 0
292983.0 74310.6 0
298941.0 74240.3 0
303985.0 74472.7 0
307500.0 74296.6 0
312166.0 74115.4 0
316965.0 77728.6 0
325851.0 74405.3 0
322295.0 78411.4 0
330937.0 78529.4 0
334356.0 75011.7 0
341522.0 78022.7 0
346088.0 73969.9 0
352844.0 74466.1 0
361674.0 73791.6 0
357892.0 77978.8 0
367104.0 76474.8 0
371934.0 74382.2 0
377880.0 75715.6 0
387369.0 74178.8 0
383272.0 78332.6 0
388210.0 78359.3 0
393045.0 74911.3 0
399508.0 73805.4 0
403054.0 77808.0 0
404321.0 73832.3 0
408162.0 77532.0 0
412346.0 74351.0 0
416948.0 73691.1 0
414685.0 77999.0 0
421365.0 74936.9 0
427477.0 77781.5 0
431067.0 73775.0 0
436128.0 77499.6 0
448332.0 77193.5 0
455406.0 74024.7 0
461200.0 73713.7 0
466975.0 73497.2 0
473889.0 77791.0 0
478847.0 74062.4 0
484704.0 74577.3 0
489148.0 75301.4 0
496754.0 75287.9 0
1482.51 78830.4 0
2749.68 82868.5 0
7155.4 78690.7 0
12671.5 81230.8 0
18088.6 83232.5 0
28648.7 81603.2 0
39135.7 82615.2 0
43683.6 79608.1 0
53135.3 80225.6 0
59720.7 83126.1 0
68310.1 79520.6 0
72212.2 81798.7 0
76319.1 83389.4 0
83594.0 78563.0 0
88398.3 78623.1 0
92509.0 79161.7 0
97237.0 79153.7 0
101195.0 79219.3 0
105585.0 78811.8 0
111043.0 82833.6 0
116640.0 78593.2 0
115385.0 83309.5 0
127441.0 83559.0 0
131218.0 78996.8 0
133301.0 83449.8 0
142212.0 79497.4 0
151801.0 79621.2 0
157942.0 78614.3 0
161442.0 83089.4 0
163657.0 79239.7 0
166774.0 82980.7 0
171003.0 79644.9 0
176727.0 81319.9 0
182933.0 79082.6 0
189204.0 78978.7 0
192411.0 83486.2 0
198249.0 79278.4 0
202629.0 82921.7 0
207321.0 80485.5 0
212115.0 79356.7 0
226331.0 79871.6 0
236016.0 82033.4 0
242843.0 78901.2 0
252897.0 78740.9 0
250904.0 82891.0 0
262829.0 81406.7 0
272697.0 80015.0 0
278480.0 79245.6 0
283573.0 78699.5 0
282084.0 82629.8 0
293487.0 78908.5 0
293046.0 83328.0 0
297506.0 80285.9 0
302639.0 78778.0 0
301871.0 82704.9 0
307114.0 79138.0 0
311941.0 78856.6 0
316864.0 82853.8 0
327150.0 79275.8 0
333887.0 82758.4 0
337123.0 78908.2 0
346657.0 79937.4 0
351577.0 80116.6 0
355549.0 82241.9 0
360516.0 83507.4 0
362982.0 78765.9 0
366513.0 83617.6 0
370163.0 79923.5 0
374540.0 79937.7 0
378545.0 83287.8 0
383421.0 82470.9 0
387240.0 82830.0 0
392170.0 81157.8 0
397892.0 79742.6 0
405311.0 83048.6 0
411971.0 82116.3 0
417929.0 79252.0 0
422500.0 79797.6 0
427295.0 82035.0 0
431264.0 79203.7 0
437085.0 82831.2 0
441997.0 78787.1 0
447111.0 83358.3 0
454028.0 79185.6 0
459446.0 79326.2 0
464982.0 78604.3 0
466556.0 83286.4 0
469647.0 79456.0 0
477664.0 80864.3 0
481986.0 79016.0 0
486773.0 78912.2 0
492177.0 79468.9 0
497457.0 81023.6 0
3058.12 88668.1 0
7838.86 85211.5 0
13610.1 87078.5 0
23745.7 83964.5 0
28782.8 86946.2 0
33633.5 83907.6 0
38542.3 87800.7 0
43746.5 83817.9 0
43272.0 88075.0 0
48695.3 83743.9 0
49672.6 88637.1 0
54182.5 84930.0 0
64872.2 84226.0 0
63416.8 88172.7 0
68290.2 83709.8 0
67007.3 88635.4 0
71705.4 87134.6 0
77975.0 88719.7 0
81940.3 83983.6 0
87885.6 83692.0 0
88018.9 88724.9 0
96906.3 83726.7 0
92636.6 84088.0 0
93070.7 88706.9 0
101491.0 83856.3 0
98000.1 88196.2 0
106437.0 84148.1 0
105783.0 88584.6 0
110765.0 88187.3 0
116642.0 88088.6 0
120870.0 83911.5 0
131193.0 88144.6 0
138726.0 83936.7 0
143744.0 84104.3 0
145104.0 88698.1 0
148389.0 83706.5 0
152799.0 84211.4 0
157000.0 84311.9 0
162036.0 87752.3 0
167180.0 88077.6 0
172235.0 85429.2 0
177078.0 85645.1 0
181363.0 85693.4 0
186882.0 83980.0 0
197843.0 84986.5 0
202645.0 88358.5 0
206637.0 85097.6 0
210631.0 83884.4 0
212134.0 88264.9 0
216384.0 83659.6 0
222686.0 83747.4 0
228326.0 85416.3 0
233993.0 86572.2 0
240938.0 84467.9 0
246423.0 85019.7 0
252376.0 87164.0 0
256764.0 83973.2 0
262544.0 88568.1 0
268273.0 83762.7 0
268736.0 88731.4 0
272894.0 84912.0 0
277850.0 85255.2 0
282796.0 88008.3 0
287109.0 84001.3 0
293224.0 88661.8 0
297883.0 85642.9 0
302610.0 88552.1 0
306177.0 84618.6 0
311437.0 84584.7 0
317438.0 88608.2 0
322340.0 84331.7 0
325879.0 87865.7 0
328008.0 83886.8 0
337521.0 86186.5 0
342202.0 84003.4 0
347980.0 84689.3 0
352291.0 84394.0 0
356010.0 86837.8 0
372525.0 84879.9 0
383496.0 86917.9 0
390731.0 85791.1 0
396042.0 85566.1 0
400401.0 84041.9 0
409494.0 87713.5 0
417777.0 83987.0 0
414469.0 87962.8 0
417767.0 88122.1 0
422969.0 84666.8 0
420957.0 88478.4 0
427626.0 88546.1 0
432241.0 83794.5 0
433303.0 88160.9 0
437888.0 87810.6 0
441852.0 84393.4 0
452640.0 84374.5 0
458109.0 84687.9 0
462539.0 84285.3 0
467794.0 88266.4 0
471814.0 84022.6 0
476954.0 85583.5 0
482254.0 84373.0 0
487738.0 83760.6 0
492469.0 85325.4 0
497459.0 86107.3 0
8752.31 91095.1 0
18380.5 90814.2 0
23880.6 89666.6 0
33720.0 89611.6 0
46373.4 92438.0 0
53687.2 89675.0 0
58566.5 88994.0 0
63645.5 93342.4 0
68689.6 91917.6 0
83400.1 90065.5 0
90126.9 93206.1 0
98603.8 92371.7 0
102078.0 89849.5 0
105637.0 93094.3 0
118204.0 93658.8 0
126500.0 88820.5 0
122654.0 89379.6 0
128387.0 92237.4 0
135218.0 89970.3 0
139747.0 89488.3 0
137790.0 93428.5 0
150850.0 88757.2 0
156884.0 89669.1 0
161786.0 93320.2 0
167144.0 93048.3 0
171462.0 90754.0 0
176185.0 89369.8 0
180973.0 91295.3 0
185795.0 89264.4 0
191577.0 89365.6 0
197331.0 90516.4 0
201625.0 93830.9 0
207609.0 89120.5 0
212987.0 93774.8 0
217212.0 90046.9 0
223347.0 89717.2 0
228979.0 91411.0 0
233411.0 91039.2 0
238461.0 90232.4 0
243836.0 89510.0 0
242102.0 93760.9 0
248991.0 89121.7 0
246559.0 93485.8 0
251470.0 93086.6 0
255537.0 90073.8 0
273495.0 89458.6 0
278387.0 90644.8 0
287975.0 89992.2 0
293312.0 93018.4 0
297717.0 90922.2 0
308389.0 89534.8 0
313173.0 89126.9 0
312020.0 93299.7 0
316759.0 93202.4 0
322203.0 89907.7 0
326427.0 93492.6 0
329963.0 89050.3 0
335028.0 89595.9 0
340295.0 90004.5 0
345916.0 90726.5 0
351082.0 88860.5 0
356391.0 92406.3 0
360812.0 89384.3 0
366435.0 89362.3 0
371142.0 89816.4 0
377225.0 90544.7 0
387807.0 90093.5 0
392748.0 90120.4 0
398356.0 91080.9 0
403887.0 89085.6 0
411605.0 93237.3 0
416991.0 91847.0 0
422627.0 93478.2 0
432998.0 92805.0 0
438724.0 93456.8 0
442650.0 89286.7 0
448517.0 89242.9 0
453997.0 89240.3 0
458539.0 89657.7 0
455670.0 93633.9 0
462991.0 89437.6 0
468723.0 93491.2 0
472983.0 89768.8 0
479982.0 89486.9 0
484311.0 89341.0 0
488549.0 88887.2 0
486594.0 93041.9 0
492636.0 89479.9 0
490650.0 93493.8 0
497770.0 90867.7 0
2142.5 94572.8 0
7229.67 97173.7 0
13671.7 94722.2 0
18604.2 95756.1 0
22344.8 94152.5 0
27492.4 94599.7 0
32330.3 93862.7 0
32590.8 97337.0 0
37272.3 94410.4 0
42440.8 95733.7 0
47008.8 98920.1 0
51408.7 94824.8 0
57400.5 95124.0 0
62196.0 98736.9 0
67964.1 98803.4 0
73558.1 94986.4 0
79821.4 94197.8 0
78090.1 98794.0 0
85124.8 94989.8 0
95038.0 95062.2 0
101293.0 95728.6 0
97844.3 98429.5 0
105727.0 98586.9 0
111337.0 94524.6 0
121623.0 98739.4 0
123812.0 93907.6 0
128112.0 98276.5 0
133268.0 94314.1 0
137500.0 97369.8 0
141902.0 94280.4 0
147422.0 94008.9 0
152993.0 93964.5 0
157246.0 95583.6 0
153546.0 98784.2 0
170761.0 94785.1 0
173356.0 98032.7 0
168439.0 98318.7 0
176881.0 94363.8 0
177762.0 98805.9 0
182321.0 96115.9 0
186887.0 94291.0 0
191537.0 94670.1 0
196349.0 95963.0 0
207153.0 94088.4 0
212098.0 98708.2 0
219801.0 95135.2 0
224910.0 95038.3 0
228653.0 95504.4 0
232798.0 94820.2 0
231021.0 98852.3 0
236990.0 95473.2 0
241284.0 98670.2 0
246730.0 98422.6 0
252429.0 98598.1 0
257766.0 95340.6 0
262740.0 94641.7 0
268253.0 94348.5 0
274071.0 94420.3 0
279358.0 96167.8 0
284548.0 94040.8 0
284011.0 98501.7 0
289725.0 94922.5 0
292659.0 98344.2 0
296526.0 95843.0 0
302306.0 94237.3 0
307427.0 94798.8 0
312335.0 98527.4 0
321330.0 95040.8 0
317612.0 98240.7 0
328006.0 98157.5 0
331733.0 94001.0 0
337285.0 95305.2 0
342892.0 95335.5 0
346827.0 95293.6 0
351163.0 94036.4 0
349517.0 98228.3 0
355327.0 98606.2 0
361676.0 95489.4 0
366973.0 94233.0 0
366485.0 98953.3 0
371655.0 94298.6 0
382200.0 94470.7 0
378335.0 97150.9 0
386894.0 94817.8 0
391451.0 94627.9 0
395528.0 95380.0 0
400529.0 96190.4 0
405863.0 94858.8 0
412514.0 98483.0 0
417167.0 96974.4 0
428258.0 94631.6 0
425370.0 98663.6 0
431956.0 98448.5 0
444698.0 94167.3 0
450508.0 95922.7 0
454498.0 98880.2 0
461373.0 94526.3 0
465833.0 96169.7 0
473167.0 95341.6 0
477805.0 93998.3 0
479087.0 98886.0 0
482449.0 94169.1 0
486586.0 97245.9 0
495004.0 94848.3 0
2239.97 99145.3 0
2127.62 103513.0 0
6960.65 103059.0 0
12440.8 100785.0 0
18049.7 100213.0 0
23275.3 99006.0 0
29083.7 100573.0 0
35952.0 100229.0 0
40991.7 99951.6 0
52812.1 99569.0 0
57603.1 101285.0 0
62542.2 103969.0 0
67219.3 104055.0 0
73651.8 101693.0 0
82804.0 99706.6 0
88774.2 99528.4 0
93973.0 99904.8 0
92508.1 104013.0 0
101251.0 100014.0 0
97466.4 102821.0 0
110243.0 99963.0 0
107194.0 103339.0 0
115522.0 99538.7 0
123247.0 103971.0 0
127766.0 103664.0 0
133715.0 99148.8 0
142031.0 99547.9 0
138522.0 103474.0 0
148122.0 100591.0 0
157983.0 99762.1 0
163103.0 99158.2 0
166875.0 103194.0 0
181596.0 100688.0 0
186463.0 99558.0 0
191579.0 99181.7 0
195892.0 101714.0 0
201124.0 99423.7 0
207148.0 100149.0 0
212779.0 103367.0 0
216812.0 99921.7 0
221590.0 100739.0 0
226069.0 99566.4 0
232481.0 103562.0 0
235877.0 100111.0 0
246691.0 103260.0 0
257588.0 100588.0 0
263719.0 100146.0 0
269612.0 100013.0 0
274590.0 99402.2 0
271757.0 103763.0 0
279917.0 101512.0 0
284286.0 102915.0 0
288600.0 99936.8 0
293601.0 102886.0 0
298744.0 100546.0 0
303662.0 99190.3 0
307813.0 99116.3 0
306701.0 102987.0 0
316843.0 103072.0 0
323360.0 100031.0 0
324883.0 103923.0 0
328697.0 102869.0 0
332709.0 99113.8 0
337436.0 100618.0 0
345477.0 99008.5 0
341914.0 99264.3 0
344142.0 103225.0 0
350099.0 103884.0 0
360664.0 100677.0 0
369396.0 103741.0 0
373419.0 99449.6 0
378300.0 101647.0 0
383175.0 100115.0 0
392581.0 98999.0 0
388072.0 99223.4 0
388067.0 103723.0 0
397113.0 99237.9 0
397920.0 103418.0 0
408059.0 99616.2 0
403354.0 100338.0 0
421019.0 99025.5 0
418441.0 102409.0 0
423544.0 103829.0 0
428715.0 102470.0 0
437683.0 99696.3 0
443668.0 99748.8 0
450716.0 102355.0 0
458800.0 99817.2 0
456148.0 103960.0 0
463934.0 99642.1 0
463205.0 103687.0 0
469297.0 98979.0 0
474376.0 99877.4 0
483695.0 100571.0 0
487589.0 103813.0 0
491384.0 99313.8 0
497411.0 99465.2 0
3067.49 108622.0 0
8555.73 107559.0 0
12582.0 106194.0 0
16008.8 104220.0 0
20037.5 104498.0 0
16421.3 108392.0 0
24885.1 104258.0 0
32222.3 104938.0 0
32650.2 108745.0 0
37673.8 105831.0 0
43318.5 104374.0 0
48686.6 104918.0 0
53580.0 104098.0 0
53255.7 109053.0 0
57459.4 106195.0 0
62499.4 108391.0 0
71133.1 106461.0 0
66930.3 108491.0 0
79099.3 104313.0 0
84543.0 104305.0 0
82351.8 107910.0 0
86393.6 108245.0 0
88606.8 104564.0 0
91254.3 109096.0 0
96602.0 107942.0 0
101325.0 109102.0 0
102445.0 104440.0 0
106448.0 108508.0 0
111837.0 104126.0 0
117994.0 105046.0 0
128379.0 108167.0 0
132819.0 104219.0 0
143145.0 104377.0 0
143897.0 108419.0 0
151877.0 104377.0 0
147994.0 106566.0 0
152641.0 108809.0 0
156564.0 104595.0 0
158024.0 109072.0 0
161568.0 104092.0 0
162828.0 108225.0 0
168108.0 108646.0 0
173249.0 104253.0 0
178608.0 104402.0 0
183533.0 105340.0 0
189457.0 104408.0 0
193907.0 105537.0 0
197934.0 109161.0 0
199741.0 104440.0 0
203874.0 105021.0 0
202908.0 109004.0 0
208359.0 105289.0 0
212051.0 108311.0 0
219058.0 104669.0 0
223358.0 104239.0 0
222464.0 108461.0 0
227641.0 104268.0 0
232440.0 108268.0 0
237723.0 104574.0 0
237065.0 108887.0 0
242285.0 104992.0 0
246106.0 108276.0 0
251863.0 104849.0 0
257453.0 104885.0 0
262305.0 106374.0 0
267688.0 104201.0 0
272517.0 107650.0 0
276114.0 104231.0 0
283204.0 108308.0 0
288580.0 105176.0 0
292775.0 108491.0 0
298814.0 105307.0 0
302642.0 104136.0 0
306893.0 107715.0 0
311690.0 104221.0 0
316042.0 107967.0 0
321345.0 104964.0 0
326139.0 108710.0 0
334154.0 104737.0 0
339612.0 104527.0 0
343317.0 108170.0 0
356711.0 105453.0 0
363251.0 105342.0 0
372382.0 108911.0 0
374924.0 104768.0 0
379744.0 105619.0 0
382001.0 108801.0 0
384038.0 105744.0 0
387377.0 108349.0 0
391838.0 108788.0 0
393143.0 104071.0 0
396416.0 108000.0 0
401986.0 104664.0 0
406595.0 104240.0 0
406579.0 109103.0 0
412747.0 104379.0 0
417742.0 108334.0 0
428007.0 108679.0 0
433882.0 104932.0 0
440195.0 105862.0 0
445499.0 104467.0 0
448653.0 107018.0 0
453284.0 108735.0 0
458570.0 107850.0 0
460063.0 104427.0 0
463271.0 107879.0 0
467453.0 104244.0 0
472541.0 104176.0 0
477866.0 104215.0 0
478469.0 109128.0 0
482744.0 104819.0 0
485368.0 108274.0 0
492465.0 104502.0 0
490339.0 108388.0 0
497811.0 104226.0 0
495332.0 108481.0 0
7503.84 111977.0 0
12197.7 110741.0 0
17166.2 113932.0 0
21312.8 109401.0 0
27466.5 109612.0 0
32917.9 112852.0 0
37798.3 111197.0 0
42306.9 109526.0 0
47951.2 110427.0 0
51666.1 113543.0 0
58928.9 110087.0 0
56222.7 113634.0 0
61495.7 114065.0 0
71358.9 110641.0 0
67362.7 113992.0 0
76176.3 109505.0 0
80897.4 112170.0 0
86723.9 113871.0 0
98368.7 113315.0 0
103676.0 113256.0 0
108521.0 113904.0 0
112395.0 109638.0 0
118078.0 110473.0 0
123220.0 109223.0 0
123557.0 114257.0 0
128426.0 113342.0 0
133236.0 109703.0 0
133081.0 114223.0 0
138695.0 109205.0 0
146817.0 110804.0 0
143072.0 112545.0 0
150635.0 112745.0 0
155609.0 112825.0 0
161150.0 113108.0 0
172596.0 109931.0 0
172930.0 114219.0 0
177246.0 109689.0 0
182426.0 110296.0 0
187087.0 109294.0 0
192265.0 109561.0 0
189253.0 114034.0 0
194195.0 114083.0 0
203778.0 113222.0 0
207315.0 109990.0 0
213126.0 113569.0 0
217205.0 109739.0 0
222500.0 114213.0 0
227444.0 109811.0 0
231363.0 112403.0 0
235333.0 112930.0 0
241372.0 109464.0 0
241012.0 113855.0 0
246228.0 114126.0 0
254521.0 109320.0 0
250344.0 109860.0 0
258823.0 109947.0 0
257745.0 113738.0 0
262636.0 112869.0 0
267465.0 109537.0 0
268650.0 114254.0 0
272487.0 112302.0 0
277261.0 109512.0 0
282612.0 114086.0 0
288223.0 109732.0 0
287964.0 114144.0 0
293356.0 113971.0 0
297385.0 109260.0 0
298042.0 113128.0 0
302107.0 109278.0 0
306759.0 112589.0 0
311368.0 109737.0 0
320406.0 109385.0 0
317138.0 113654.0 0
322854.0 113920.0 0
326676.0 113660.0 0
332573.0 110789.0 0
338274.0 109786.0 0
345207.0 112568.0 0
348164.0 109370.0 0
349873.0 113992.0 0
353179.0 109924.0 0
358609.0 110969.0 0
363217.0 110833.0 0
367630.0 109300.0 0
377383.0 110272.0 0
372564.0 113825.0 0
382879.0 113455.0 0
389047.0 113321.0 0
397278.0 113181.0 0
401430.0 109567.0 0
407529.0 113813.0 0
411926.0 110740.0 0
417012.0 114034.0 0
422243.0 111261.0 0
432009.0 114075.0 0
435852.0 110204.0 0
440095.0 110813.0 0
444884.0 109622.0 0
448961.0 110131.0 0
447787.0 113812.0 0
457750.0 112698.0 0
463132.0 113052.0 0
468255.0 109300.0 0
473568.0 109358.0 0
478097.0 113966.0 0
481959.0 109662.0 0
487707.0 113179.0 0
493259.0 113218.0 0
497790.0 112771.0 0
2830.08 114529.0 0
9658.07 115830.0 0
7270.37 119273.0 0
12525.5 114380.0 0
23592.4 114834.0 0
28520.2 114699.0 0
28810.6 119208.0 0
32724.2 117552.0 0
37937.0 116863.0 0
44154.5 114887.0 0
48947.2 116577.0 0
52884.5 119236.0 0
58211.0 118409.0 0
71361.8 118552.0 0
73115.1 115008.0 0
78025.2 116013.0 0
92877.3 115079.0 0
96751.5 119135.0 0
101923.0 117609.0 0
113657.0 115020.0 0
118711.0 115775.0 0
123398.0 119324.0 0
128618.0 118507.0 0
137596.0 114582.0 0
133599.0 118753.0 0
141641.0 117115.0 0
146707.0 114850.0 0
150726.0 118456.0 0
156814.0 118051.0 0
162657.0 119175.0 0
167133.0 114724.0 0
170995.0 119085.0 0
178054.0 115199.0 0
183654.0 115062.0 0
183159.0 119013.0 0
187240.0 119116.0 0
192617.0 118690.0 0
199079.0 114811.0 0
202934.0 118231.0 0
208282.0 115032.0 0
210961.0 119140.0 0
217850.0 115044.0 0
215629.0 119359.0 0
227501.0 114389.0 0
231614.0 116590.0 0
237589.0 118621.0 0
243850.0 119326.0 0
248904.0 119098.0 0
252669.0 114605.0 0
257368.0 117077.0 0
260306.0 119116.0 0
265515.0 118037.0 0
272406.0 118606.0 0
276648.0 114561.0 0
279500.0 119330.0 0
285572.0 118214.0 0
290284.0 118086.0 0
297351.0 118324.0 0
302181.0 115185.0 0
306882.0 118064.0 0
311373.0 114959.0 0
323488.0 118869.0 0
331450.0 115203.0 0
328118.0 117161.0 0
335630.0 115686.0 0
340794.0 114481.0 0
340946.0 119061.0 0
345691.0 117860.0 0
355448.0 116156.0 0
361544.0 115548.0 0
367147.0 114699.0 0
368943.0 119362.0 0
373329.0 118695.0 0
377583.0 116007.0 0
381329.0 119282.0 0
393443.0 115473.0 0
402363.0 115205.0 0
398527.0 118761.0 0
407775.0 119213.0 0
411988.0 116046.0 0
421587.0 115890.0 0
426096.0 114785.0 0
424598.0 118821.0 0
428963.0 119358.0 0
437797.0 115160.0 0
434131.0 119054.0 0
443150.0 114642.0 0
442788.0 119004.0 0
447719.0 119076.0 0
452656.0 114654.0 0
458331.0 118503.0 0
463625.0 117870.0 0
468193.0 114447.0 0
473083.0 114522.0 0
473597.0 118933.0 0
478149.0 119124.0 0
482741.0 114276.0 0
482808.0 118476.0 0
487497.0 118762.0 0
492502.0 118169.0 0
497556.0 117419.0 0
2518.47 119871.0 0
7677.04 124295.0 0
12117.4 119607.0 0
12004.5 123807.0 0
17593.4 120207.0 0
23418.0 120893.0 0
34065.3 122942.0 0
39402.6 121831.0 0
43274.1 120318.0 0
47709.2 120397.0 0
48760.5 124107.0 0
53066.4 124410.0 0
59516.5 123502.0 0
64170.5 119668.0 0
69258.9 120616.0 0
67606.7 124065.0 0
75107.8 120380.0 0
71692.3 124006.0 0
81048.7 120179.0 0
78263.0 123887.0 0
87053.8 120532.0 0
92020.6 119661.0 0
91999.0 124301.0 0
96999.8 124250.0 0
102127.0 123501.0 0
107424.0 119998.0 0
111124.0 124311.0 0
113364.0 120016.0 0
118426.0 121036.0 0
126570.0 124028.0 0
132454.0 123727.0 0
137995.0 120392.0 0
142292.0 123994.0 0
145474.0 119712.0 0
147728.0 123461.0 0
152626.0 124111.0 0
157521.0 123135.0 0
167210.0 123175.0 0
172467.0 124233.0 0
175347.0 120812.0 0
179617.0 119886.0 0
183468.0 122937.0 0
190431.0 123707.0 0
197965.0 120450.0 0
203351.0 123586.0 0
206811.0 120591.0 0
212607.0 123639.0 0
217697.0 124044.0 0
221240.0 119434.0 0
223410.0 124284.0 0
227185.0 119750.0 0
232727.0 123972.0 0
242248.0 123517.0 0
246577.0 123412.0 0
254146.0 120735.0 0
262657.0 123237.0 0
268086.0 123295.0 0
284060.0 122473.0 0
289118.0 123185.0 0
293632.0 121457.0 0
298812.0 124072.0 0
302309.0 120288.0 0
302795.0 123752.0 0
307469.0 123621.0 0
312363.0 121010.0 0
318328.0 119473.0 0
316382.0 124392.0 0
327598.0 123038.0 0
332371.0 119655.0 0
337052.0 120272.0 0
340750.0 123193.0 0
346463.0 124414.0 0
350918.0 119969.0 0
359291.0 120354.0 0
364354.0 120045.0 0
362683.0 123909.0 0
377200.0 121091.0 0
373234.0 123821.0 0
386962.0 119464.0 0
393352.0 120327.0 0
397598.0 123177.0 0
402914.0 120145.0 0
415879.0 119844.0 0
417737.0 124006.0 0
421177.0 121148.0 0
432065.0 123831.0 0
438737.0 120343.0 0
436732.0 124186.0 0
442765.0 124026.0 0
453045.0 119676.0 0
453409.0 123847.0 0
463600.0 122411.0 0
468161.0 119773.0 0
471813.0 122632.0 0
476449.0 124157.0 0
481100.0 122467.0 0
485659.0 123427.0 0
490710.0 124462.0 0
496002.0 122699.0 0
2475.48 124865.0 0
8257.82 129395.0 0
12763.2 129031.0 0
15771.6 125241.0 0
20838.9 125938.0 0
26808.4 125281.0 0
30953.0 128566.0 0
40054.7 126075.0 0
35933.1 128681.0 0
44706.2 124783.0 0
43630.1 128768.0 0
47755.6 128139.0 0
51809.4 128468.0 0
56830.0 128689.0 0
63885.6 124805.0 0
62579.7 128819.0 0
67171.2 129243.0 0
72521.1 129192.0 0
77992.2 127986.0 0
82471.5 125170.0 0
87140.5 126123.0 0
90159.8 129436.0 0
95222.1 129273.0 0
101125.0 129171.0 0
106970.0 125876.0 0
111795.0 129173.0 0
115819.0 125680.0 0
121102.0 125682.0 0
132214.0 129043.0 0
127624.0 129148.0 0
137140.0 124863.0 0
137231.0 129462.0 0
146469.0 128457.0 0
156132.0 128078.0 0
162025.0 124745.0 0
169286.0 129558.0 0
178178.0 125145.0 0
186112.0 127339.0 0
190993.0 129012.0 0
195416.0 125152.0 0
199786.0 125770.0 0
208223.0 124571.0 0
204963.0 128106.0 0
211616.0 128205.0 0
216502.0 129364.0 0
221703.0 128689.0 0
227690.0 124747.0 0
226694.0 129239.0 0
231954.0 128244.0 0
237913.0 124639.0 0
236064.0 129525.0 0
241434.0 128011.0 0
246761.0 128524.0 0
251456.0 125197.0 0
251417.0 129448.0 0
257660.0 125006.0 0
261549.0 128579.0 0
266315.0 127734.0 0
273563.0 125317.0 0
279476.0 125525.0 0
284957.0 127613.0 0
290187.0 128051.0 0
293861.0 125678.0 0
297271.0 128495.0 0
302714.0 126911.0 0
307446.0 127555.0 0
312804.0 126829.0 0
321289.0 124491.0 0
316961.0 128535.0 0
326197.0 128422.0 0
333607.0 124637.0 0
337889.0 126146.0 0
341785.0 129072.0 0
350388.0 128720.0 0
352479.0 124789.0 0
358046.0 125935.0 0
363421.0 129252.0 0
367601.0 124638.0 0
372652.0 128511.0 0
377756.0 125825.0 0
381262.0 129202.0 0
383127.0 124692.0 0
388874.0 125345.0 0
393912.0 125606.0 0
397805.0 129259.0 0
401996.0 124763.0 0
407555.0 125015.0 0
413357.0 125039.0 0
417328.0 128705.0 0
420739.0 125290.0 0
422294.0 129037.0 0
426080.0 124734.0 0
438898.0 128246.0 0
448812.0 126176.0 0
453766.0 128800.0 0
458512.0 125031.0 0
463038.0 129492.0 0
467767.0 125089.0 0
472250.0 127674.0 0
476531.0 129193.0 0
481592.0 127736.0 0
487407.0 128339.0 0
497268.0 128351.0 0
3211.26 129994.0 0
8042.8 134417.0 0
14921.6 134233.0 0
17406.6 130000.0 0
22006.6 130535.0 0
26229.6 130065.0 0
40009.8 131805.0 0
47202.3 133414.0 0
52669.8 132663.0 0
63751.5 134179.0 0
69579.5 134535.0 0
78841.1 132740.0 0
82526.2 129595.0 0
86293.8 130189.0 0
82761.4 134363.0 0
87411.8 134622.0 0
98832.5 134530.0 0
106555.0 130899.0 0
118333.0 130350.0 0
123281.0 130109.0 0
124185.0 134376.0 0
128406.0 133773.0 0
132872.0 133378.0 0
136853.0 134152.0 0
141708.0 130734.0 0
146522.0 134424.0 0
151573.0 130921.0 0
156635.0 134519.0 0
161834.0 131045.0 0
172255.0 134543.0 0
175976.0 130920.0 0
181606.0 129954.0 0
179233.0 134533.0 0
189315.0 133527.0 0
193668.0 134430.0 0
195754.0 129827.0 0
197503.0 134010.0 0
200539.0 130949.0 0
208466.0 130354.0 0
206274.0 132672.0 0
212255.0 134043.0 0
216806.0 133895.0 0
220974.0 133522.0 0
225739.0 134207.0 0
230980.0 132640.0 0
235664.0 134448.0 0
240541.0 133258.0 0
248381.0 133302.0 0
252558.0 133091.0 0
256142.0 130112.0 0
259971.0 133171.0 0
265490.0 132985.0 0
270640.0 130197.0 0
272928.0 133666.0 0
276599.0 130273.0 0
275665.0 134252.0 0
281961.0 133127.0 0
288336.0 132806.0 0
293757.0 130299.0 0
298770.0 132893.0 0
304641.0 131619.0 0
310129.0 130138.0 0
309147.0 133802.0 0
313927.0 131589.0 0
317699.0 133501.0 0
321557.0 130466.0 0
327811.0 132930.0 0
331855.0 129620.0 0
336696.0 130160.0 0
332500.0 134277.0 0
346628.0 130289.0 0
342208.0 134646.0 0
351679.0 133542.0 0
347217.0 134660.0 0
354412.0 130001.0 0
357651.0 133540.0 0
368528.0 129861.0 0
368505.0 134123.0 0
376987.0 130974.0 0
382575.0 133234.0 0
385749.0 129811.0 0
391603.0 130360.0 0
395893.0 133990.0 0
400749.0 134454.0 0
403436.0 129739.0 0
405935.0 134077.0 0
408193.0 130132.0 0
412655.0 130206.0 0
416962.0 134533.0 0
422189.0 133938.0 0
427069.0 131423.0 0
433144.0 129765.0 0
437982.0 133671.0 0
443938.0 129616.0 0
448492.0 132023.0 0
453591.0 134027.0 0
457909.0 130945.0 0
462239.0 134481.0 0
468113.0 129856.0 0
472251.0 132819.0 0
478242.0 133957.0 0
483445.0 132861.0 0
487728.0 133011.0 0
492246.0 130875.0 0
497115.0 133952.0 0
2743.24 135422.0 0
6629.61 139352.0 0
11765.2 136898.0 0
19909.4 134810.0 0
16444.9 139478.0 0
25328.9 134908.0 0
22132.7 139609.0 0
26805.0 139483.0 0
32699.9 135362.0 0
42538.8 136775.0 0
47182.2 138545.0 0
52162.2 138091.0 0
57753.6 134931.0 0
62695.8 139559.0 0
74694.8 135073.0 0
72734.0 139619.0 0
77869.6 138992.0 0
83358.2 139077.0 0
88734.3 139582.0 0
93077.7 134696.0 0
93487.8 139555.0 0
97430.6 139166.0 0
103893.0 135084.0 0
107222.0 134905.0 0
111638.0 135045.0 0
107419.0 138156.0 0
116413.0 137734.0 0
120398.0 135077.0 0
125857.0 138699.0 0
131745.0 138101.0 0
137377.0 139031.0 0
141100.0 134917.0 0
151900.0 136312.0 0
148470.0 139375.0 0
157300.0 139518.0 0
160655.0 136586.0 0
163241.0 138943.0 0
166704.0 135826.0 0
170863.0 137978.0 0
175911.0 138551.0 0
184127.0 135157.0 0
189132.0 138774.0 0
194263.0 139173.0 0
202966.0 134796.0 0
199453.0 138361.0 0
207411.0 137457.0 0
216143.0 139420.0 0
221749.0 137768.0 0
226488.0 139478.0 0
232442.0 138625.0 0
238431.0 138378.0 0
244735.0 137581.0 0
251356.0 138082.0 0
256057.0 135117.0 0
256819.0 139643.0 0
261841.0 137755.0 0
270071.0 137015.0 0
274196.0 139751.0 0
278053.0 137294.0 0
283492.0 139442.0 0
289033.0 138132.0 0
293476.0 134971.0 0
297212.0 137775.0 0
303006.0 138097.0 0
308805.0 139009.0 0
312953.0 136331.0 0
318356.0 138779.0 0
323366.0 135654.0 0
328792.0 138154.0 0
336870.0 134771.0 0
339592.0 139312.0 0
344933.0 139111.0 0
349989.0 138646.0 0
354429.0 137158.0 0
363233.0 135607.0 0
368161.0 138838.0 0
373400.0 135339.0 0
379099.0 135380.0 0
382471.0 138876.0 0
387079.0 135410.0 0
392323.0 136545.0 0
396150.0 139365.0 0
406693.0 139240.0 0
411228.0 135381.0 0
415490.0 139571.0 0
421158.0 139524.0 0
426356.0 136981.0 0
431391.0 135462.0 0
435835.0 139692.0 0
443845.0 135498.0 0
449070.0 136372.0 0
458351.0 135143.0 0
456077.0 138813.0 0
461499.0 139532.0 0
467266.0 134861.0 0
472915.0 138018.0 0
478057.0 139427.0 0
482524.0 137324.0 0
487864.0 138140.0 0
492458.0 135863.0 0
493642.0 139766.0 0
498089.0 138634.0 0
2122.1 140248.0 0
8165.88 144296.0 0
10874.5 140551.0 0
12894.4 143660.0 0
20384.4 144187.0 0
16332.0 144309.0 0
31181.0 143162.0 0
38046.7 140804.0 0
44046.0 141293.0 0
53101.9 144586.0 0
57345.5 141028.0 0
63565.5 144712.0 0
67631.1 139878.0 0
68268.0 144275.0 0
72453.6 144468.0 0
77185.4 144106.0 0
86321.9 143201.0 0
82034.8 144185.0 0
91303.7 144120.0 0
96817.5 143566.0 0
102461.0 140294.0 0
111801.0 141410.0 0
116464.0 144144.0 0
120437.0 140940.0 0
126005.0 144859.0 0
132122.0 144486.0 0
137819.0 144671.0 0
143319.0 139815.0 0
147532.0 143927.0 0
152878.0 140843.0 0
157561.0 144507.0 0
162712.0 143445.0 0
168107.0 141240.0 0
172608.0 143741.0 0
177851.0 143848.0 0
181671.0 140366.0 0
186373.0 143108.0 0
192082.0 143644.0 0
196621.0 144338.0 0
203612.0 140384.0 0
201110.0 143841.0 0
206767.0 143641.0 0
210865.0 141134.0 0
212749.0 144253.0 0
221800.0 142431.0 0
226798.0 144586.0 0
231546.0 144252.0 0
236388.0 143280.0 0
241206.0 142851.0 0
245772.0 142930.0 0
250430.0 143974.0 0
255178.0 143825.0 0
260748.0 143935.0 0
266226.0 141104.0 0
271140.0 143410.0 0
278166.0 143004.0 0
288465.0 143427.0 0
293268.0 140481.0 0
298394.0 142983.0 0
303462.0 143649.0 0
308194.0 144017.0 0
314357.0 144125.0 0
319273.0 143730.0 0
324039.0 141104.0 0
328968.0 143713.0 0
334066.0 139904.0 0
333146.0 144114.0 0
336742.0 144063.0 0
342592.0 144474.0 0
347881.0 143616.0 0
353212.0 143328.0 0
358650.0 140263.0 0
363897.0 141200.0 0
372313.0 140076.0 0
367793.0 144486.0 0
376962.0 139915.0 0
373566.0 144705.0 0
382651.0 144128.0 0
378336.0 144421.0 0
387497.0 139890.0 0
387500.0 144426.0 0
392129.0 140652.0 0
390840.0 144229.0 0
394209.0 143819.0 0
401229.0 139923.0 0
397989.0 143824.0 0
411220.0 140253.0 0
417885.0 144391.0 0
423011.0 144789.0 0
428523.0 140488.0 0
427877.0 144378.0 0
430961.0 139891.0 0
432790.0 144849.0 0
442045.0 141437.0 0
446664.0 139863.0 0
447083.0 144117.0 0
451287.0 141089.0 0
456331.0 143761.0 0
466931.0 140269.0 0
466168.0 144852.0 0
470975.0 143012.0 0
476162.0 144454.0 0
482656.0 143326.0 0
488909.0 143706.0 0
497008.0 143417.0 0
2813.61 145040.0 0
2316.04 149481.0 0
7488.63 149142.0 0
11899.2 147627.0 0
17721.5 148551.0 0
25268.5 145418.0 0
22192.4 149145.0 0
25713.8 149944.0 0
33500.7 148746.0 0
37228.6 146146.0 0
41795.0 145155.0 0
47446.3 145276.0 0
51637.5 149931.0 0
58687.8 146318.0 0
67515.7 148991.0 0
72506.4 149079.0 0
81266.9 149307.0 0
87014.7 148222.0 0
92308.7 149389.0 0
101396.0 146185.0 0
97255.4 149410.0 0
107501.0 146385.0 0
113001.0 146237.0 0
121274.0 145676.0 0
117643.0 149685.0 0
123436.0 149411.0 0
128783.0 149914.0 0
134059.0 149526.0 0
142840.0 145205.0 0
137961.0 149257.0 0
142163.0 149207.0 0
147504.0 149727.0 0
152628.0 145485.0 0
158962.0 148894.0 0
162909.0 148816.0 0
167292.0 146269.0 0
171989.0 148181.0 0
177728.0 149384.0 0
182304.0 145463.0 0
188242.0 148083.0 0
193898.0 148939.0 0
199055.0 148661.0 0
204158.0 149099.0 0
214027.0 147608.0 0
209491.0 148709.0 0
217643.0 145335.0 0
217433.0 149718.0 0
222151.0 147923.0 0
226340.0 148447.0 0
230558.0 149778.0 0
235731.0 148022.0 0
240054.0 146224.0 0
243733.0 147132.0 0
250365.0 149367.0 0
256477.0 149253.0 0
262643.0 149561.0 0
266799.0 146625.0 0
272519.0 149051.0 0
278324.0 148818.0 0
283292.0 146280.0 0
289989.0 148924.0 0
293487.0 145381.0 0
294961.0 149829.0 0
299386.0 148338.0 0
303668.0 147647.0 0
307825.0 149175.0 0
317924.0 148534.0 0
322914.0 146853.0 0
327990.0 148750.0 0
333198.0 148400.0 0
339000.0 149767.0 0
344324.0 149755.0 0
346990.0 147171.0 0
351176.0 149428.0 0
357776.0 145944.0 0
362518.0 146014.0 0
367650.0 149851.0 0
377591.0 149098.0 0
387666.0 148881.0 0
383033.0 149293.0 0
390579.0 149770.0 0
394661.0 148438.0 0
400640.0 148209.0 0
405861.0 145271.0 0
412257.0 144887.0 0
428624.0 149210.0 0
433383.0 149668.0 0
437676.0 145336.0 0
441767.0 146105.0 0
448820.0 148978.0 0
444221.0 149902.0 0
452132.0 146251.0 0
461274.0 145188.0 0
462826.0 149667.0 0
470795.0 148200.0 0
488671.0 149229.0 0
492846.0 146559.0 0
497140.0 149280.0 0
2879.59 153313.0 0
7660.86 153603.0 0
13296.3 152025.0 0
17519.6 153444.0 0
21981.3 153431.0 0
29624.6 151733.0 0
25924.5 153836.0 0
33841.2 154599.0 0
36829.5 151169.0 0
38550.9 154636.0 0
41261.0 150384.0 0
46266.1 150505.0 0
47500.0 154239.0 0
56874.7 150581.0 0
62241.2 150168.0 0
69008.8 154087.0 0
73878.1 153548.0 0
76625.2 150141.0 0
77217.9 153966.0 0
80691.8 154409.0 0
86321.8 154530.0 0
92811.4 154396.0 0
98242.8 154671.0 0
102435.0 151335.0 0
106772.0 151529.0 0
111799.0 150214.0 0
109028.0 154708.0 0
113212.0 154324.0 0
122442.0 154194.0 0
126563.0 154805.0 0
131864.0 154263.0 0
136845.0 153805.0 0
144006.0 154494.0 0
152869.0 150419.0 0
150410.0 154289.0 0
157085.0 154113.0 0
162990.0 153203.0 0
167203.0 150908.0 0
173048.0 153815.0 0
183253.0 150143.0 0
183029.0 154753.0 0
186680.0 153462.0 0
191842.0 153818.0 0
196806.0 153013.0 0
201799.0 154108.0 0
207325.0 153814.0 0
213591.0 151875.0 0
216949.0 154913.0 0
220482.0 152757.0 0
225383.0 152295.0 0
229372.0 154813.0 0
235824.0 153502.0 0
240026.0 150179.0 0
245170.0 153214.0 0
252493.0 154377.0 0
257216.0 154713.0 0
262356.0 154342.0 0
267377.0 152141.0 0
277796.0 153839.0 0
282852.0 151819.0 0
289758.0 153697.0 0
293417.0 153403.0 0
297871.0 154338.0 0
303739.0 152799.0 0
309258.0 154740.0 0
313038.0 150317.0 0
320305.0 152858.0 0
324621.0 151422.0 0
328767.0 154404.0 0
334659.0 153711.0 0
342802.0 154901.0 0
348333.0 154232.0 0
354571.0 154148.0 0
358163.0 150326.0 0
358832.0 154286.0 0
362969.0 150920.0 0
362305.0 154973.0 0
366732.0 154890.0 0
372887.0 150335.0 0
376885.0 152920.0 0
380638.0 153573.0 0
386648.0 154070.0 0
391380.0 153154.0 0
396438.0 154146.0 0
400517.0 152587.0 0
404214.0 151511.0 0
409727.0 150734.0 0
416361.0 150171.0 0
422812.0 150447.0 0
426877.0 154055.0 0
431420.0 153955.0 0
438577.0 150589.0 0
447549.0 154159.0 0
452094.0 150241.0 0
452803.0 154428.0 0
457219.0 150020.0 0
461585.0 153884.0 0
466793.0 150936.0 0
465841.0 154992.0 0
470827.0 153995.0 0
476400.0 150833.0 0
482884.0 150065.0 0
480519.0 154483.0 0
492895.0 150282.0 0
491128.0 155075.0 0
497364.0 154772.0 0
2104.65 157470.0 0
6793.29 159100.0 0
12523.0 157386.0 0
18520.4 158481.0 0
24345.7 158208.0 0
30115.2 158578.0 0
35415.9 160015.0 0
39873.6 158692.0 0
43314.7 155445.0 0
47482.1 158414.0 0
51975.5 155578.0 0
58911.6 155135.0 0
56705.5 160164.0 0
64498.9 155359.0 0
61964.5 160174.0 0
66638.4 159854.0 0
71690.9 158434.0 0
77191.6 157583.0 0
82291.6 159397.0 0
93313.2 158502.0 0
97500.0 159273.0 0
103094.0 155299.0 0
107094.0 158847.0 0
102236.0 159074.0 0
112290.0 158575.0 0
117544.0 155395.0 0
117489.0 160009.0 0
122473.0 158263.0 0
132589.0 159022.0 0
127668.0 159771.0 0
137654.0 158747.0 0
140199.0 156119.0 0
142126.0 159183.0 0
147636.0 158965.0 0
153045.0 158299.0 0
157497.0 159993.0 0
161579.0 158141.0 0
167630.0 155573.0 0
165667.0 159828.0 0
171229.0 159681.0 0
176234.0 159674.0 0
178837.0 155450.0 0
180326.0 160122.0 0
184959.0 158542.0 0
190262.0 158108.0 0
195404.0 158596.0 0
201310.0 159562.0 0
206583.0 159887.0 0
212321.0 157706.0 0
218105.0 159241.0 0
222870.0 157217.0 0
227523.0 159827.0 0
232628.0 158374.0 0
238165.0 159187.0 0
240222.0 155201.0 0
243792.0 159550.0 0
248620.0 158117.0 0
254994.0 158438.0 0
259925.0 158608.0 0
266658.0 159183.0 0
272615.0 155160.0 0
272632.0 160104.0 0
276489.0 158707.0 0
281554.0 157566.0 0
285973.0 155321.0 0
287001.0 159911.0 0
292799.0 158224.0 0
303423.0 158094.0 0
307680.0 159395.0 0
315431.0 155736.0 0
319111.0 160102.0 0
323692.0 156382.0 0
328218.0 160047.0 0
332685.0 158350.0 0
338218.0 155967.0 0
337214.0 159748.0 0
341746.0 160139.0 0
346957.0 159628.0 0
352961.0 159427.0 0
358289.0 158105.0 0
363852.0 159366.0 0
371987.0 155720.0 0
368575.0 159001.0 0
377264.0 157223.0 0
372516.0 159596.0 0
383137.0 158542.0 0
392795.0 157890.0 0
388492.0 159774.0 0
396697.0 159669.0 0
401632.0 157661.0 0
407475.0 156198.0 0
413219.0 156028.0 0
418108.0 155213.0 0
417500.0 159172.0 0
422107.0 155602.0 0
423655.0 159502.0 0
429096.0 158252.0 0
432842.0 159432.0 0
436288.0 155933.0 0
442100.0 155244.0 0
439599.0 159584.0 0
445091.0 159236.0 0
449570.0 158889.0 0
453928.0 159235.0 0
457499.0 156093.0 0
461735.0 158439.0 0
466235.0 159702.0 0
472008.0 160021.0 0
476634.0 156757.0 0
481396.0 159106.0 0
485119.0 155108.0 0
497596.0 159806.0 0
3506.58 164551.0 0
8912.79 164365.0 0
12819.2 162812.0 0
18045.9 164692.0 0
23734.8 163574.0 0
29009.0 164374.0 0
33721.4 164177.0 0
38524.6 164498.0 0
43534.9 160729.0 0
47741.0 163177.0 0
51744.7 160416.0 0
52003.6 164973.0 0
61796.1 164882.0 0
66399.9 164447.0 0
71634.0 164319.0 0
78211.2 164801.0 0
84122.8 164141.0 0
88449.9 160847.0 0
94100.2 162716.0 0
99300.4 163970.0 0
108319.0 163812.0 0
113637.0 163417.0 0
122392.0 162655.0 0
118188.0 164454.0 0
126888.0 164717.0 0
131334.0 163867.0 0
135399.0 162503.0 0
139961.0 163453.0 0
145194.0 164099.0 0
151681.0 164408.0 0
157461.0 165161.0 0
162223.0 163570.0 0
167836.0 164146.0 0
178656.0 164096.0 0
183497.0 164088.0 0
188825.0 162212.0 0
193401.0 164840.0 0
198162.0 163308.0 0
202225.0 164887.0 0
207011.0 165056.0 0
212376.0 164107.0 0
217312.0 163706.0 0
221938.0 162557.0 0
226296.0 164624.0 0
231236.0 163770.0 0
236066.0 164369.0 0
240758.0 164214.0 0
247330.0 163588.0 0
251701.0 161445.0 0
256817.0 163588.0 0
262021.0 163725.0 0
272433.0 164848.0 0
277769.0 163136.0 0
282670.0 163064.0 0
294279.0 164840.0 0
298711.0 160205.0 0
299741.0 165020.0 0
304166.0 163103.0 0
308989.0 164375.0 0
312792.0 161011.0 0
320388.0 165114.0 0
323805.0 160606.0 0
333160.0 164513.0 0
339147.0 165033.0 0
343441.0 164158.0 0
347375.0 164427.0 0
351812.0 164975.0 0
357563.0 163457.0 0
363014.0 164402.0 0
368208.0 163841.0 0
373386.0 163255.0 0
378062.0 162324.0 0
382810.0 164693.0 0
392116.0 162846.0 0
397057.0 164019.0 0
402872.0 164333.0 0
407559.0 164341.0 0
408624.0 160791.0 0
412939.0 160991.0 0
416297.0 164136.0 0
421524.0 163933.0 0
427086.0 163318.0 0
436283.0 163095.0 0
442626.0 164500.0 0
449563.0 164516.0 0
458053.0 160656.0 0
454946.0 163904.0 0
459033.0 164938.0 0
462487.0 162675.0 0
466447.0 164563.0 0
470794.0 165188.0 0
477068.0 161373.0 0
475071.0 164930.0 0
487086.0 160327.0 0
492809.0 160971.0 0
491394.0 165180.0 0
496535.0 165282.0 0
7860.66 168429.0 0
13198.5 168722.0 0
22913.6 169205.0 0
28302.8 169517.0 0
33684.9 169086.0 0
38744.3 169436.0 0
43678.4 165450.0 0
42462.6 169281.0 0
47500.0 169049.0 0
52558.0 169370.0 0
56979.3 165571.0 0
62773.9 169348.0 0
67039.9 169247.0 0
72935.3 170370.0 0
82589.4 169193.0 0
87688.2 165922.0 0
87056.7 169837.0 0
92062.4 168032.0 0
97669.7 169260.0 0
103853.0 165408.0 0
102295.0 169079.0 0
107409.0 169645.0 0
113346.0 168834.0 0
121263.0 167944.0 0
117556.0 170185.0 0
129829.0 168132.0 0
135551.0 168302.0 0
141806.0 168320.0 0
152815.0 169758.0 0
156959.0 169639.0 0
162562.0 169684.0 0
173460.0 165318.0 0
168611.0 169664.0 0
178545.0 169182.0 0
188006.0 168099.0 0
193371.0 169648.0 0
197865.0 168332.0 0
202704.0 169083.0 0
206536.0 169446.0 0
210414.0 168688.0 0
215936.0 168228.0 0
222030.0 168699.0 0
227890.0 169088.0 0
232868.0 168239.0 0
237576.0 168845.0 0
243287.0 168694.0 0
248665.0 169062.0 0
251815.0 165452.0 0
254448.0 169123.0 0
259269.0 168426.0 0
262858.0 170230.0 0
266298.0 166511.0 0
270744.0 169131.0 0
276853.0 167703.0 0
282833.0 169221.0 0
287575.0 165395.0 0
298266.0 169314.0 0
306027.0 168699.0 0
310185.0 170247.0 0
315365.0 165914.0 0
311332.0 167428.0 0
318485.0 169164.0 0
326100.0 165345.0 0
322500.0 169334.0 0
328894.0 170013.0 0
337018.0 168902.0 0
341124.0 168821.0 0
346186.0 168952.0 0
357136.0 168774.0 0
361938.0 169314.0 0
372172.0 167869.0 0
377871.0 168316.0 0
388003.0 165498.0 0
389039.0 170256.0 0
392970.0 168061.0 0
398548.0 169440.0 0
404604.0 169493.0 0
411392.0 165285.0 0
408305.0 169496.0 0
411601.0 169578.0 0
415648.0 168932.0 0
420774.0 169422.0 0
427258.0 169871.0 0
431837.0 165582.0 0
432708.0 169651.0 0
437828.0 169702.0 0
453712.0 168739.0 0
458584.0 169028.0 0
462382.0 167143.0 0
466454.0 169444.0 0
471665.0 169845.0 0
476743.0 169509.0 0
479813.0 165420.0 0
482110.0 170292.0 0
485458.0 165988.0 0
489724.0 169306.0 0
3164.77 171214.0 0
6289.99 175413.0 0
11599.4 174839.0 0
18016.5 170665.0 0
17536.7 175129.0 0
22463.8 174876.0 0
27690.2 174578.0 0
32846.4 174466.0 0
37849.1 173969.0 0
42860.5 174070.0 0
47500.0 174132.0 0
52500.0 174051.0 0
57797.7 170885.0 0
57471.1 175345.0 0
62273.8 174405.0 0
67614.2 173633.0 0
78321.3 170600.0 0
81627.4 174098.0 0
77001.1 174487.0 0
86238.8 173959.0 0
91741.1 174444.0 0
97809.6 174648.0 0
102672.0 173626.0 0
111197.0 173718.0 0
115541.0 174516.0 0
120820.0 173835.0 0
125792.0 170638.0 0
126020.0 175470.0 0
131558.0 174120.0 0
137589.0 174489.0 0
147624.0 170450.0 0
143032.0 174930.0 0
152332.0 173747.0 0
156773.0 174319.0 0
165865.0 174195.0 0
170813.0 174623.0 0
173680.0 170692.0 0
176299.0 175265.0 0
183146.0 170813.0 0
181147.0 174329.0 0
190720.0 173034.0 0
195904.0 173970.0 0
202302.0 172768.0 0
207014.0 174461.0 0
212683.0 172908.0 0
217356.0 172656.0 0
221317.0 174204.0 0
226104.0 173918.0 0
231884.0 173293.0 0
236932.0 175404.0 0
240965.0 172940.0 0
246406.0 175029.0 0
252566.0 174393.0 0
257958.0 172481.0 0
262514.0 175276.0 0
267435.0 172207.0 0
272737.0 173222.0 0
277837.0 172400.0 0
288072.0 170728.0 0
290027.0 175245.0 0
292398.0 170396.0 0
296068.0 174498.0 0
302094.0 173366.0 0
308499.0 174215.0 0
314051.0 170935.0 0
318496.0 173732.0 0
325749.0 173700.0 0
331013.0 175450.0 0
333249.0 170888.0 0
336305.0 174573.0 0
342218.0 174221.0 0
347988.0 175152.0 0
352141.0 171083.0 0
357716.0 174641.0 0
363372.0 174236.0 0
367473.0 170610.0 0
372129.0 173989.0 0
377596.0 174280.0 0
383977.0 170738.0 0
388203.0 175127.0 0
393859.0 173737.0 0
403548.0 175291.0 0
413408.0 173764.0 0
418015.0 174373.0 0
422331.0 174463.0 0
432985.0 173908.0 0
437053.0 174628.0 0
443855.0 170749.0 0
448897.0 170638.0 0
447415.0 174012.0 0
451703.0 174592.0 0
455863.0 173007.0 0
461826.0 174322.0 0
468601.0 175022.0 0
474668.0 174931.0 0
480001.0 174399.0 0
486586.0 174521.0 0
493000.0 171294.0 0
497149.0 171277.0 0
2175.08 176461.0 0
6704.61 179282.0 0
17237.5 179626.0 0
21689.6 179751.0 0
26625.8 179780.0 0
32269.6 179921.0 0
37800.7 179039.0 0
42911.0 179186.0 0
48373.5 179005.0 0
53049.3 179234.0 0
57491.6 179630.0 0
62500.0 179218.0 0
67351.0 179242.0 0
72220.4 176091.0 0
72974.1 180427.0 0
77089.9 179415.0 0
80945.2 179402.0 0
86598.3 179131.0 0
98143.0 179693.0 0
106903.0 175791.0 0
102893.0 178644.0 0
112144.0 179019.0 0
117789.0 178886.0 0
127517.0 179185.0 0
123040.0 180553.0 0
135063.0 177995.0 0
148507.0 176257.0 0
153455.0 179541.0 0
161249.0 175534.0 0
159438.0 180079.0 0
165968.0 179409.0 0
171465.0 179849.0 0
186185.0 176332.0 0
191881.0 177774.0 0
201235.0 177726.0 0
211857.0 178678.0 0
217581.0 177373.0 0
222973.0 178855.0 0
228683.0 178878.0 0
233716.0 178261.0 0
236981.0 179951.0 0
241133.0 178290.0 0
251684.0 179834.0 0
257179.0 176950.0 0
268885.0 178190.0 0
276234.0 176626.0 0
279025.0 179686.0 0
283412.0 176259.0 0
288599.0 179994.0 0
293685.0 180193.0 0
300200.0 179535.0 0
305288.0 177883.0 0
308890.0 180134.0 0
313707.0 176066.0 0
316787.0 178888.0 0
322152.0 176456.0 0
326686.0 180136.0 0
333861.0 180406.0 0
338665.0 178947.0 0
342799.0 179685.0 0
347415.0 180123.0 0
352469.0 176739.0 0
357815.0 180426.0 0
362632.0 179058.0 0
367627.0 176720.0 0
371865.0 179461.0 0
377441.0 180207.0 0
382670.0 177007.0 0
391984.0 179918.0 0
397810.0 177598.0 0
406986.0 180239.0 0
409206.0 176036.0 0
411808.0 179737.0 0
417019.0 178913.0 0
422566.0 180200.0 0
427432.0 176624.0 0
432185.0 180502.0 0
437979.0 179848.0 0
442560.0 176238.0 0
448193.0 179067.0 0
455966.0 178920.0 0
466225.0 179532.0 0
477523.0 179730.0 0
481988.0 178377.0 0
493164.0 175671.0 0
498364.0 175596.0 0
497014.0 180359.0 0
2648.32 180742.0 0
11883.7 181625.0 0
92662.8 181039.0 0
107106.0 181145.0 0
131675.0 180925.0 0
139792.0 180622.0 0
146644.0 181493.0 0
162838.0 183065.0 0
177279.0 181484.0 0
183203.0 181614.0 0
188837.0 181920.0 0
195937.0 181623.0 0
201229.0 183162.0 0
206403.0 181194.0 0
210790.0 184342.0 0
216415.0 183120.0 0
222470.0 184586.0 0
227958.0 184283.0 0
233919.0 183086.0 0
240340.0 184070.0 0
246166.0 181456.0 0
253471.0 184597.0 0
258379.0 181939.0 0
263482.0 180867.0 0
261359.0 185004.0 0
274516.0 180869.0 0
270708.0 183709.0 0
278604.0 185166.0 0
284481.0 182638.0 0
289821.0 184540.0 0
297138.0 184905.0 0
305013.0 181864.0 0
302388.0 185451.0 0
313481.0 181074.0 0
320577.0 180595.0 0
352858.0 181564.0 0
367022.0 181066.0 0
382625.0 181366.0 0
386622.0 180656.0 0
396543.0 181716.0 0
401643.0 182013.0 0
427263.0 182327.0 0
442951.0 181792.0 0
452071.0 182238.0 0
461566.0 180880.0 0
471899.0 181248.0 0
481329.0 182218.0 0
486495.0 181838.0 0
491854.0 180778.0 0
199564.0 188081.0 0
204475.0 185726.0 0
204439.0 189859.0 0
209449.0 189331.0 0
215731.0 189226.0 0
221138.0 189967.0 0
226642.0 190003.0 0
231460.0 187628.0 0
236553.0 186412.0 0
235318.0 189583.0 0
244603.0 187125.0 0
240447.0 190169.0 0
248995.0 186002.0 0
252387.0 189534.0 0
257902.0 187495.0 0
262175.0 188087.0 0
265891.0 185757.0 0
271471.0 188847.0 0
276419.0 190534.0 0
283463.0 187283.0 0
280939.0 190418.0 0
287257.0 188849.0 0
293226.0 189421.0 0
299486.0 190273.0 0
200565.0 194367.0 0
206823.0 194346.0 0
212341.0 193545.0 0
218216.0 194901.0 0
223359.0 193886.0 0
231813.0 192936.0 0
236722.0 193248.0 0
240956.0 195891.0 0
245799.0 192275.0 0
250599.0 193835.0 0
256857.0 193896.0 0
262924.0 192158.0 0
268034.0 192992.0 0
273345.0 195214.0 0
278896.0 194436.0 0
284566.0 191714.0 0
283257.0 195299.0 0
288822.0 194139.0 0
294307.0 195017.0 0
298362.0 194980.0 0
202161.0 200745.0 0
208341.0 199844.0 0
213592.0 198626.0 0
218679.0 200276.0 0
223708.0 199895.0 0
227340.0 195961.0 0
228230.0 200524.0 0
231676.0 198308.0 0
236090.0 197309.0 0
240597.0 199972.0 0
246377.0 198142.0 0
252212.0 198571.0 0
257463.0 199787.0 0
261597.0 197299.0 0
266661.0 198223.0 0
271774.0 199975.0 0
276907.0 199201.0 0
281086.0 198357.0 0
285903.0 199342.0 0
291470.0 199079.0 0
297267.0 199577.0 0
10310.7 204175.0 0
206113.0 205247.0 0
210328.0 203849.0 0
215193.0 204165.0 0
220808.0 204504.0 0
226487.0 205469.0 0
231211.0 202915.0 0
237005.0 202742.0 0
243162.0 202745.0 0
248814.0 203520.0 0
254687.0 203719.0 0
261855.0 202614.0 0
268411.0 204695.0 0
274604.0 203245.0 0
279543.0 202061.0 0
283537.0 204273.0 0
289172.0 203871.0 0
293919.0 203179.0 0
297982.0 205732.0 0
309756.0 205705.0 0
341742.0 201839.0 0
174681.0 210624.0 0
201804.0 207870.0 0
206246.0 210556.0 0
211438.0 208695.0 0
216914.0 209703.0 0
222262.0 209368.0 0
228037.0 209979.0 0
232130.0 207987.0 0
237053.0 208126.0 0
241904.0 208181.0 0
247658.0 209418.0 0
253228.0 208868.0 0
258639.0 207386.0 0
262729.0 209945.0 0
267372.0 210971.0 0
273143.0 209558.0 0
278616.0 206143.0 0
282870.0 208529.0 0
287189.0 210098.0 0
293026.0 208383.0 0
389098.0 210695.0 0
404603.0 208961.0 0
421499.0 210232.0 0
443009.0 209880.0 0
455114.0 210261.0 0
472319.0 211004.0 0
497243.0 209829.0 0
6878.9 213985.0 0
48261.5 211599.0 0
56374.4 215513.0 0
63868.7 215522.0 0
96187.4 215789.0 0
100416.0 215236.0 0
126005.0 214957.0 0
167796.0 213847.0 0
177286.0 214677.0 0
191569.0 215829.0 0
201361.0 212647.0 0
205139.0 215450.0 0
210417.0 214365.0 0
215507.0 214394.0 0
220077.0 213820.0 0
225519.0 213471.0 0
231417.0 214119.0 0
237507.0 213040.0 0
242306.0 216058.0 0
248058.0 215483.0 0
253774.0 214214.0 0
258819.0 212580.0 0
263576.0 215135.0 0
269202.0 216090.0 0
274268.0 214818.0 0
279213.0 211865.0 0
284341.0 215073.0 0
288860.0 214695.0 0
292821.0 213664.0 0
297889.0 212241.0 0
317421.0 213924.0 0
322450.0 215315.0 0
357807.0 213431.0 0
362467.0 211848.0 0
368610.0 211631.0 0
374583.0 214272.0 0
437044.0 213522.0 0
461586.0 214122.0 0
476569.0 214248.0 0
481239.0 215341.0 0
492537.0 211981.0 0
14254.8 218538.0 0
22442.4 219853.0 0
30433.9 219758.0 0
36537.1 220291.0 0
68827.6 216542.0 0
75161.9 218577.0 0
79658.9 217276.0 0
85031.3 217974.0 0
107589.0 216973.0 0
111005.0 218818.0 0
115161.0 217275.0 0
121008.0 217168.0 0
131855.0 219279.0 0
137504.0 218292.0 0
142262.0 220545.0 0
154054.0 217578.0 0
158565.0 216972.0 0
173221.0 219700.0 0
178735.0 218043.0 0
196244.0 216758.0 0
200883.0 217006.0 0
204078.0 220095.0 0
207996.0 218447.0 0
213357.0 219264.0 0
217845.0 218062.0 0
222320.0 217987.0 0
227456.0 218770.0 0
233019.0 219851.0 0
238126.0 218993.0 0
241699.0 220845.0 0
245359.0 219992.0 0
251061.0 220356.0 0
259057.0 216988.0 0
255503.0 218751.0 0
261792.0 219435.0 0
267220.0 221137.0 0
273097.0 219113.0 0
277796.0 218532.0 0
282146.0 218856.0 0
284677.0 221348.0 0
287765.0 218847.0 0
292969.0 218668.0 0
297460.0 217244.0 0
309917.0 217210.0 0
322451.0 220027.0 0
326630.0 220786.0 0
330913.0 221060.0 0
339605.0 220404.0 0
391311.0 217373.0 0
396056.0 218812.0 0
417127.0 219878.0 0
423600.0 218183.0 0
439714.0 220744.0 0
449230.0 219894.0 0
462790.0 220571.0 0
466760.0 219384.0 0
471850.0 217981.0 0
479717.0 220624.0 0
484429.0 220704.0 0
497839.0 219280.0 0
8033.11 224174.0 0
14588.8 225362.0 0
17655.2 221854.0 0
30589.4 225960.0 0
40985.6 224696.0 0
48339.7 222503.0 0
45936.2 226171.0 0
53010.0 222500.0 0
88220.9 223964.0 0
93065.2 221890.0 0
97919.2 224015.0 0
102310.0 226122.0 0
113050.0 226180.0 0
119140.0 224165.0 0
124379.0 222063.0 0
126262.0 226270.0 0
146000.0 223996.0 0
150902.0 221868.0 0
155278.0 225233.0 0
169989.0 224952.0 0
178042.0 221544.0 0
177569.0 225713.0 0
188922.0 226017.0 0
199532.0 224616.0 0
204404.0 225234.0 0
209313.0 222820.0 0
215064.0 224798.0 0
220060.0 222055.0 0
222083.0 226322.0 0
225948.0 223752.0 0
230700.0 224606.0 0
236385.0 224344.0 0
241423.0 224620.0 0
247380.0 225417.0 0
253470.0 224864.0 0
257880.0 222635.0 0
262773.0 223665.0 0
267283.0 226473.0 0
271753.0 223564.0 0
276232.0 225017.0 0
280753.0 223088.0 0
287948.0 223803.0 0
292568.0 223580.0 0
296828.0 221751.0 0
300502.0 224165.0 0
296387.0 226496.0 0
304860.0 224659.0 0
308760.0 223843.0 0
318278.0 224048.0 0
335045.0 223720.0 0
345114.0 222596.0 0
342101.0 225997.0 0
348027.0 226151.0 0
364943.0 225154.0 0
377600.0 226016.0 0
383597.0 224807.0 0
388726.0 221888.0 0
390690.0 225818.0 0
393964.0 223695.0 0
398809.0 225847.0 0
407296.0 222965.0 0
412976.0 225287.0 0
422388.0 223650.0 0
426612.0 221752.0 0
431907.0 222455.0 0
436080.0 224293.0 0
444222.0 223001.0 0
458451.0 222760.0 0
478880.0 225844.0 0
489239.0 223629.0 0
2631.23 227145.0 0
10165.2 230397.0 0
18911.2 227689.0 0
27252.5 230012.0 0
37311.7 228291.0 0
54909.3 229161.0 0
60744.6 230209.0 0
85759.2 229180.0 0
91010.0 229312.0 0
92904.6 226899.0 0
96476.5 228337.0 0
100409.0 230505.0 0
105708.0 229212.0 0
118044.0 231469.0 0
127597.0 230998.0 0
137141.0 227730.0 0
132697.0 229649.0 0
166524.0 229008.0 0
175196.0 231048.0 0
183085.0 227367.0 0
194746.0 227290.0 0
208773.0 228029.0 0
204247.0 230748.0 0
212998.0 231192.0 0
218415.0 229887.0 0
222785.0 230218.0 0
226654.0 228583.0 0
231894.0 229796.0 0
237319.0 229760.0 0
242504.0 229255.0 0
252149.0 229786.0 0
257611.0 228421.0 0
262742.0 228364.0 0
272536.0 229265.0 0
278428.0 229150.0 0
284102.0 227988.0 0
290977.0 228933.0 0
305457.0 228592.0 0
309713.0 228006.0 0
314014.0 226749.0 0
335177.0 231226.0 0
341691.0 230891.0 0
360423.0 228956.0 0
368691.0 227787.0 0
373639.0 230206.0 0
380959.0 230796.0 0
385630.0 229538.0 0
394399.0 228485.0 0
398411.0 229865.0 0
403236.0 226718.0 0
415149.0 229730.0 0
431773.0 227978.0 0
462565.0 230392.0 0
473827.0 227409.0 0
483291.0 229442.0 0
488293.0 230890.0 0
492521.0 227627.0 0
497266.0 227384.0 0
4198.95 232248.0 0
1396.57 235238.0 0
8211.08 234204.0 0
11918.4 235679.0 0
16619.4 235148.0 0
21754.5 233844.0 0
31965.1 232497.0 0
40529.6 236118.0 0
36111.9 236489.0 0
44551.6 231653.0 0
49617.5 232588.0 0
53511.7 234130.0 0
65233.2 233353.0 0
73247.1 232247.0 0
79797.4 232745.0 0
97591.4 233940.0 0
101262.0 235056.0 0
122206.0 233468.0 0
125707.0 234691.0 0
132217.0 235732.0 0
140009.0 231957.0 0
145853.0 231974.0 0
150246.0 235390.0 0
157949.0 234143.0 0
162385.0 234923.0 0
169946.0 232712.0 0
178322.0 234561.0 0
173828.0 235868.0 0
182125.0 232609.0 0
203598.0 236330.0 0
208492.0 233512.0 0
212184.0 236089.0 0
221535.0 234156.0 0
226387.0 233523.0 0
231035.0 235138.0 0
236952.0 235707.0 0
242597.0 234319.0 0
247180.0 231790.0 0
247334.0 236244.0 0
251017.0 234917.0 0
255658.0 233650.0 0
261566.0 233759.0 0
265988.0 232230.0 0
270041.0 236048.0 0
276311.0 235000.0 0
281573.0 232601.0 0
286620.0 233552.0 0
291671.0 236094.0 0
296247.0 232628.0 0
301919.0 231626.0 0
305267.0 235403.0 0
308862.0 232623.0 0
312813.0 232000.0 0
315851.0 235827.0 0
321609.0 235594.0 0
329672.0 234317.0 0
345721.0 236051.0 0
350533.0 233644.0 0
355714.0 235138.0 0
368277.0 233291.0 0
376826.0 235249.0 0
388242.0 232776.0 0
397327.0 235080.0 0
402468.0 231620.0 0
402414.0 236380.0 0
406830.0 234233.0 0
411664.0 232727.0 0
417627.0 234542.0 0
435876.0 235625.0 0
440796.0 233231.0 0
448497.0 235590.0 0
468005.0 232050.0 0
472750.0 233084.0 0
494690.0 232334.0 0
490331.0 235474.0 0
498185.0 235427.0 0
9024.03 239083.0 0
22141.1 239331.0 0
27556.0 240355.0 0
31750.6 237240.0 0
42506.5 239761.0 0
47221.1 240475.0 0
55082.9 238232.0 0
71070.6 238581.0 0
66580.1 241621.0 0
75981.4 237135.0 0
87177.6 240077.0 0
101304.0 240279.0 0
105416.0 240686.0 0
115988.0 238298.0 0
121376.0 239105.0 0
127453.0 238138.0 0
125026.0 241538.0 0
137709.0 237213.0 0
134374.0 240090.0 0
136926.0 240386.0 0
142940.0 239846.0 0
154955.0 240779.0 0
159503.0 239503.0 0
166757.0 237499.0 0
170964.0 239306.0 0
178095.0 238824.0 0
182575.0 237387.0 0
188423.0 239316.0 0
198190.0 238973.0 0
208334.0 238554.0 0
213345.0 240747.0 0
217001.0 236756.0 0
221885.0 239407.0 0
227460.0 239262.0 0
232907.0 240144.0 0
244005.0 239761.0 0
249419.0 239612.0 0
253932.0 239844.0 0
259256.0 238303.0 0
265044.0 237025.0 0
263834.0 241036.0 0
268012.0 240441.0 0
272691.0 240520.0 0
278031.0 241331.0 0
282382.0 237533.0 0
287572.0 239718.0 0
292515.0 241532.0 0
296089.0 238266.0 0
310186.0 239005.0 0
315912.0 241695.0 0
326129.0 238793.0 0
329885.0 240737.0 0
332766.0 238710.0 0
359390.0 238807.0 0
365233.0 237850.0 0
371514.0 237759.0 0
375763.0 241152.0 0
382983.0 238089.0 0
392773.0 237243.0 0
388117.0 241623.0 0
405524.0 239343.0 0
418256.0 239707.0 0
423877.0 239759.0 0
430432.0 237291.0 0
443743.0 237520.0 0
448865.0 240465.0 0
453540.0 241786.0 0
457751.0 239031.0 0
463509.0 239142.0 0
472922.0 237408.0 0
469551.0 240525.0 0
473869.0 241524.0 0
477904.0 237529.0 0
485101.0 241606.0 0
492549.0 239330.0 0
497345.0 240324.0 0
12432.9 244718.0 0
18261.9 244679.0 0
31572.7 246854.0 0
35807.4 243854.0 0
40409.5 244562.0 0
57767.4 241972.0 0
62118.7 243478.0 0
78232.9 242508.0 0
83627.7 244774.0 0
88025.0 245586.0 0
92596.4 242526.0 0
98112.3 246227.0 0
110427.0 242568.0 0
115498.0 244399.0 0
119859.0 242760.0 0
119756.0 246648.0 0
124322.0 245567.0 0
145130.0 243850.0 0
149278.0 241977.0 0
152637.0 245216.0 0
157044.0 245326.0 0
162950.0 241818.0 0
175791.0 243573.0 0
179935.0 242225.0 0
193802.0 242147.0 0
202876.0 241932.0 0
208374.0 244017.0 0
213628.0 246317.0 0
218053.0 243259.0 0
223604.0 244338.0 0
220713.0 246650.0 0
229037.0 244245.0 0
233879.0 245302.0 0
238284.0 241924.0 0
242503.0 245453.0 0
247734.0 244369.0 0
252004.0 243225.0 0
255720.0 245153.0 0
260652.0 244248.0 0
265215.0 245041.0 0
269725.0 244590.0 0
274715.0 246020.0 0
283191.0 242877.0 0
288142.0 245537.0 0
293578.0 246327.0 0
296868.0 242274.0 0
297771.0 245929.0 0
305811.0 242880.0 0
301395.0 243421.0 0
309215.0 244004.0 0
320548.0 245785.0 0
332502.0 243634.0 0
337497.0 243528.0 0
344487.0 244444.0 0
350089.0 243983.0 0
354804.0 242520.0 0
359342.0 244336.0 0
363529.0 242459.0 0
368250.0 242914.0 0
379842.0 243720.0 0
383935.0 243790.0 0
396224.0 245792.0 0
420703.0 243433.0 0
428710.0 243268.0 0
443848.0 245957.0 0
475351.0 246726.0 0
480010.0 243003.0 0
2385.26 249772.0 0
11457.4 250855.0 0
19755.7 249203.0 0
23726.9 250431.0 0
28043.2 251186.0 0
37894.0 250711.0 0
42563.5 248481.0 0
48901.4 251309.0 0
59411.4 249838.0 0
73236.5 248594.0 0
78992.8 250422.0 0
84814.0 250639.0 0
103476.0 249654.0 0
108327.0 251083.0 0
127047.0 249871.0 0
137186.0 247645.0 0
133529.0 250353.0 0
141682.0 250398.0 0
178009.0 250641.0 0
182816.0 250315.0 0
188845.0 250241.0 0
203858.0 247022.0 0
208072.0 249507.0 0
212464.0 251078.0 0
217762.0 250024.0 0
223042.0 249942.0 0
226282.0 247330.0 0
230318.0 249163.0 0
238180.0 246945.0 0
235414.0 250239.0 0
240555.0 250409.0 0
245780.0 249917.0 0
251494.0 248371.0 0
256396.0 250209.0 0
262262.0 249083.0 0
267761.0 249395.0 0
272922.0 251179.0 0
278143.0 250705.0 0
281330.0 247213.0 0
284671.0 250208.0 0
290899.0 250931.0 0
296526.0 250748.0 0
320417.0 251377.0 0
324961.0 251302.0 0
327915.0 248292.0 0
332244.0 247569.0 0
349617.0 250702.0 0
356286.0 251621.0 0
366109.0 251870.0 0
373783.0 248890.0 0
391305.0 249232.0 0
401114.0 247749.0 0
405441.0 249866.0 0
410203.0 251787.0 0
415232.0 250269.0 0
420447.0 250919.0 0
436061.0 251729.0 0
441300.0 250221.0 0
447423.0 249808.0 0
452098.0 251588.0 0
460614.0 246969.0 0
463371.0 251289.0 0
468386.0 248723.0 0
472620.0 251620.0 0
478625.0 251886.0 0
482264.0 249517.0 0
486287.0 247155.0 0
488314.0 251027.0 0
491602.0 248743.0 0
6006.39 253467.0 0
10345.6 256281.0 0
17628.4 254900.0 0
21198.9 257085.0 0
31549.5 254159.0 0
44669.6 253133.0 0
53337.5 253403.0 0
57735.5 253311.0 0
81396.5 254740.0 0
88732.2 255977.0 0
94616.0 256681.0 0
131487.0 254403.0 0
147366.0 252304.0 0
151889.0 256067.0 0
157006.0 254660.0 0
162148.0 254358.0 0
166764.0 253317.0 0
172721.0 253480.0 0
195076.0 252504.0 0
203963.0 252567.0 0
208985.0 254749.0 0
215424.0 255688.0 0
220830.0 254285.0 0
226900.0 253467.0 0
232157.0 253980.0 0
237585.0 254980.0 0
242700.0 254128.0 0
247669.0 255830.0 0
251771.0 252950.0 0
259937.0 253243.0 0
255609.0 255395.0 0
264650.0 253936.0 0
269298.0 254019.0 0
275667.0 255953.0 0
282089.0 255534.0 0
288381.0 256084.0 0
294169.0 256008.0 0
307859.0 254992.0 0
313339.0 256552.0 0
318165.0 255634.0 0
333604.0 257071.0 0
339112.0 253493.0 0
344315.0 255635.0 0
361855.0 254433.0 0
370489.0 252164.0 0
373349.0 255166.0 0
382120.0 255232.0 0
377846.0 255769.0 0
386421.0 255460.0 0
424465.0 253765.0 0
429055.0 253315.0 0
434661.0 256730.0 0
444448.0 256241.0 0
456662.0 256690.0 0
475464.0 254906.0 0
484076.0 255974.0 0
497634.0 252560.0 0
2520.43 261961.0 0
14356.5 257215.0 0
23712.7 260433.0 0
27712.7 261347.0 0
73587.4 259855.0 0
78890.1 261683.0 0
99836.4 259716.0 0
115852.0 257187.0 0
124424.0 258509.0 0
129417.0 258821.0 0
137331.0 260400.0 0
141484.0 262037.0 0
178121.0 260673.0 0
173534.0 262058.0 0
182877.0 259220.0 0
190151.0 259439.0 0
198863.0 260869.0 0
204533.0 258348.0 0
209812.0 259718.0 0
214272.0 261410.0 0
219383.0 259600.0 0
223890.0 257370.0 0
223634.0 261930.0 0
228551.0 259249.0 0
233632.0 258364.0 0
237508.0 260876.0 0
241571.0 258404.0 0
249634.0 260605.0 0
245265.0 261249.0 0
254552.0 260855.0 0
260839.0 258977.0 0
267630.0 258860.0 0
273080.0 260967.0 0
278626.0 260848.0 0
282938.0 260505.0 0
286583.0 260666.0 0
291011.0 260512.0 0
295789.0 261322.0 0
304833.0 259421.0 0
326082.0 261866.0 0
345237.0 260152.0 0
348224.0 257602.0 0
348323.0 261932.0 0
375332.0 258534.0 0
387759.0 262163.0 0
396070.0 260418.0 0
405148.0 260438.0 0
412280.0 258274.0 0
416387.0 259929.0 0
425494.0 257708.0 0
431748.0 260725.0 0
439140.0 258534.0 0
452878.0 260148.0 0
457920.0 261645.0 0
461427.0 258137.0 0
465643.0 260189.0 0
478873.0 257570.0 0
35470.8 264039.0 0
31330.3 264452.0 0
38957.8 262417.0 0
58276.5 267183.0 0
64003.3 262547.0 0
69034.9 262459.0 0
79117.6 266501.0 0
83595.1 264133.0 0
106851.0 262832.0 0
102136.0 264445.0 0
111993.0 262298.0 0
115838.0 262948.0 0
118035.0 266463.0 0
122579.0 264582.0 0
132091.0 262234.0 0
187621.0 264874.0 0
194183.0 262676.0 0
206165.0 262827.0 0
204357.0 265925.0 0
210207.0 264321.0 0
219003.0 264481.0 0
214471.0 266227.0 0
223352.0 266699.0 0
227926.0 264890.0 0
232406.0 262832.0 0
236315.0 265933.0 0
241299.0 264174.0 0
246217.0 266431.0 0
251078.0 264708.0 0
256302.0 266836.0 0
262861.0 265683.0 0
268059.0 264071.0 0
272177.0 266089.0 0
277010.0 265772.0 0
282246.0 265274.0 0
286579.0 264344.0 0
292295.0 265073.0 0
296350.0 264827.0 0
320801.0 262880.0 0
334097.0 267117.0 0
339966.0 262872.0 0
338749.0 266079.0 0
344226.0 264098.0 0
353398.0 263104.0 0
377578.0 264637.0 0
383309.0 266773.0 0
391971.0 263361.0 0
417562.0 264321.0 0
422843.0 262593.0 0
429251.0 265368.0 0
440415.0 266317.0 0
448734.0 263822.0 0
444373.0 265395.0 0
483950.0 266041.0 0
488519.0 263911.0 0
493893.0 262597.0 0
23860.2 271099.0 0
62760.5 267334.0 0
85357.4 268804.0 0
89677.3 269973.0 0
114635.0 270169.0 0
119205.0 270623.0 0
148593.0 269743.0 0
154063.0 270819.0 0
160451.0 271533.0 0
172783.0 272069.0 0
177642.0 270302.0 0
182265.0 268491.0 0
186511.0 268576.0 0
204006.0 270381.0 0
209786.0 269772.0 0
219172.0 269171.0 0
215089.0 270629.0 0
222789.0 271158.0 0
226785.0 269665.0 0
232142.0 270048.0 0
237492.0 270222.0 0
241630.0 269251.0 0
247322.0 271393.0 0
251264.0 269271.0 0
257636.0 271591.0 0
261118.0 270703.0 0
267903.0 269538.0 0
273126.0 270523.0 0
279255.0 270076.0 0
284088.0 270223.0 0
288281.0 267930.0 0
287844.0 272234.0 0
292285.0 270549.0 0
296140.0 268052.0 0
343860.0 271426.0 0
354633.0 271439.0 0
362728.0 270607.0 0
367860.0 269015.0 0
374256.0 269351.0 0
388742.0 269230.0 0
449043.0 268872.0 0
472532.0 269000.0 0
476982.0 268450.0 0
487877.0 271605.0 0
18980.9 275014.0 0
24601.3 276225.0 0
29372.6 277399.0 0
46285.1 275533.0 0
57656.8 273866.0 0
131308.0 277125.0 0
136308.0 276993.0 0
164978.0 275262.0 0
169679.0 276466.0 0
175845.0 273941.0 0
203274.0 276150.0 0
207137.0 274557.0 0
212541.0 274726.0 0
216903.0 274161.0 0
221028.0 275374.0 0
226469.0 274835.0 0
231406.0 275133.0 0
236716.0 275182.0 0
242994.0 274614.0 0
247799.0 275565.0 0
251624.0 273823.0 0
256146.0 275397.0 0
260920.0 274995.0 0
265927.0 274908.0 0
270797.0 274133.0 0
276141.0 274323.0 0
281425.0 274564.0 0
285814.0 275620.0 0
295740.0 273533.0 0
291086.0 275466.0 0
300753.0 275373.0 0
347413.0 273912.0 0
351113.0 274933.0 0
359569.0 274611.0 0
378320.0 273127.0 0
378180.0 277509.0 0
441465.0 272509.0 0
447200.0 272904.0 0
496741.0 274119.0 0
3000.82 280665.0 0
34198.8 279359.0 0
38189.5 282412.0 0
41944.7 277578.0 0
44756.1 281034.0 0
49720.9 279861.0 0
59419.7 277767.0 0
78998.1 280560.0 0
109302.0 281784.0 0
125705.0 278470.0 0
203607.0 279730.0 0
199008.0 282258.0 0
209616.0 280426.0 0
216026.0 277903.0 0
215005.0 281529.0 0
219940.0 280305.0 0
225127.0 280399.0 0
230480.0 279772.0 0
235397.0 280587.0 0
240005.0 279847.0 0
245797.0 280492.0 0
252776.0 280411.0 0
259145.0 279824.0 0
263538.0 278757.0 0
269639.0 279259.0 0
273818.0 277811.0 0
277560.0 279726.0 0
282425.0 279046.0 0
286250.0 279351.0 0
290629.0 280950.0 0
295575.0 278447.0 0
303327.0 280769.0 0
318205.0 281788.0 0
344872.0 281554.0 0
354750.0 278225.0 0
374379.0 279166.0 0
382647.0 280054.0 0
388980.0 278814.0 0
430527.0 281897.0 0
435600.0 281248.0 0
441425.0 278917.0 0
463934.0 280008.0 0
5576.43 285065.0 0
40981.1 285157.0 0
78850.0 284014.0 0
104572.0 285611.0 0
110496.0 286543.0 0
204505.0 284554.0 0
213854.0 284805.0 0
209704.0 287726.0 0
217595.0 284190.0 0
222169.0 284965.0 0
227333.0 285168.0 0
232822.0 285110.0 0
238449.0 284708.0 0
242878.0 284739.0 0
247484.0 286232.0 0
251331.0 285181.0 0
255291.0 286066.0 0
264996.0 282851.0 0
260318.0 285038.0 0
270308.0 285522.0 0
275508.0 284012.0 0
280916.0 284799.0 0
286405.0 283841.0 0
290401.0 286520.0 0
295370.0 284244.0 0
306624.0 287044.0 0
321222.0 284058.0 0
324319.0 282982.0 0
394819.0 286838.0 0
399809.0 283347.0 0
406576.0 285632.0 0
412274.0 285311.0 0
420030.0 285264.0 0
425901.0 283810.0 0
466754.0 286465.0 0
13308.9 291756.0 0
30674.9 288308.0 0
114684.0 288007.0 0
118920.0 290497.0 0
123167.0 292752.0 0
190052.0 292173.0 0
194107.0 289101.0 0
199280.0 287979.0 0
203762.0 289445.0 0
215563.0 288980.0 0
222848.0 288762.0 0
219946.0 289702.0 0
226713.0 290826.0 0
231987.0 290156.0 0
236793.0 289748.0 0
241917.0 288947.0 0
246392.0 291016.0 0
252118.0 289363.0 0
259938.0 290261.0 0
255128.0 290799.0 0
265584.0 289585.0 0
275365.0 288660.0 0
270872.0 291445.0 0
280266.0 290672.0 0
285529.0 288931.0 0
289387.0 292636.0 0
294636.0 290395.0 0
336311.0 292374.0 0
349594.0 288402.0 0
355596.0 291202.0 0
389404.0 289005.0 0
417609.0 291389.0 0
431254.0 292716.0 0
470906.0 287821.0 0
4937.82 295983.0 0
9627.86 296235.0 0
203371.0 295659.0 0
207021.0 293330.0 0
213627.0 294281.0 0
209713.0 297491.0 0
218154.0 294282.0 0
222500.0 294145.0 0
228118.0 296083.0 0
233102.0 294736.0 0
237975.0 294540.0 0
242687.0 293493.0 0
247738.0 295213.0 0
251699.0 293495.0 0
255829.0 294976.0 0
260264.0 295320.0 0
265036.0 294974.0 0
269992.0 296809.0 0
275872.0 294791.0 0
280221.0 297602.0 0
284133.0 294800.0 0
294886.0 297022.0 0
341778.0 295841.0 0
351904.0 293816.0 0
361777.0 297556.0 0
367623.0 297608.0 0
378832.0 296336.0 0
2103.89 298543.0 0
187646.0 298411.0 0
204452.0 299293.0 0
208611.0 301773.0 0
213389.0 299977.0 0
218306.0 298942.0 0
222726.0 299055.0 0
226681.0 300614.0 0
231449.0 299405.0 0
236417.0 299330.0 0
241624.0 298140.0 0
247090.0 300328.0 0
253246.0 299539.0 0
258473.0 299594.0 0
262430.0 298939.0 0
266448.0 300831.0 0
273824.0 300166.0 0
278168.0 301107.0 0
282084.0 300632.0 0
288836.0 298191.0 0
285751.0 302096.0 0
289876.0 302869.0 0
320148.0 302166.0 0
325382.0 302556.0 0
329037.0 298830.0 0
371598.0 301172.0 0
385884.0 300358.0 0
390115.0 302713.0 0
35193.8 306391.0 0
68661.0 305948.0 0
74935.4 307551.0 0
139476.0 306651.0 0
144683.0 307352.0 0
204665.0 304946.0 0
208958.0 307326.0 0
213534.0 305194.0 0
218165.0 303695.0 0
222182.0 303771.0 0
225758.0 305181.0 0
230740.0 304887.0 0
236519.0 304549.0 0
242380.0 304488.0 0
247901.0 305894.0 0
252047.0 304403.0 0
256535.0 304203.0 0
261403.0 303820.0 0
266160.0 306694.0 0
271274.0 304141.0 0
276404.0 306196.0 0
281975.0 305095.0 0
287124.0 307099.0 0
294931.0 303779.0 0
292000.0 308055.0 0
315116.0 304291.0 0
375018.0 303105.0 0
61778.3 311708.0 0
68580.0 310322.0 0
71617.3 311836.0 0
90847.8 309907.0 0
137181.0 311366.0 0
149546.0 310287.0 0
154306.0 308482.0 0
157366.0 312639.0 0
161601.0 309368.0 0
295743.0 309891.0 0
300503.0 312820.0 0
302840.0 308690.0 0
306217.0 311999.0 0
78448.2 317189.0 0
81810.3 314374.0 0
132100.0 314716.0 0
135499.0 318239.0 0
309713.0 317164.0 0
305097.0 322641.0 0
308845.0 321705.0 0
185974.0 324924.0 0
142495.0 330836.0 0
138284.0 333464.0 0
197715.0 328726.0 0
193738.0 336962.0 0
1675.16 375612.0 0
5466.25 375226.0 0
9922.83 375284.0 0
14387.0 375201.0 0
18548.5 375144.0 0
23089.7 375106.0 0
26983.5 375425.0 0
30849.8 375245.0 0
34519.1 375525.0 0
37434.4 375617.0 0
41326.0 375478.0 0
45995.2 375119.0 0
49376.1 375248.0 0
53081.1 375814.0 0
57180.6 375453.0 0
61228.6 375917.0 0
65959.0 375036.0 0
69531.2 375481.0 0
72931.9 375647.0 0
76710.0 375176.0 0
80875.3 375348.0 0
85457.3 375216.0 0
90445.8 375326.0 0
94845.3 375264.0 0
99445.8 375298.0 0
103526.0 375355.0 0
107427.0 375279.0 0
111439.0 375257.0 0
115772.0 375173.0 0
119903.0 375549.0 0
124093.0 375107.0 0
129572.0 375493.0 0
133459.0 375545.0 0
136255.0 375534.0 0
142525.0 375548.0 0
139471.0 375472.0 0
145819.0 375364.0 0
150406.0 375871.0 0
154669.0 375163.0 0
158500.0 375865.0 0
162486.0 375722.0 0
166288.0 375297.0 0
170313.0 375333.0 0
173490.0 375427.0 0
177422.0 375060.0 0
182057.0 375128.0 0
179589.0 376809.0 0
185633.0 375400.0 0
189443.0 375138.0 0
193017.0 375569.0 0
195821.0 375392.0 0
198585.0 375121.0 0
300812.0 376283.0 0
304632.0 375608.0 0
308246.0 376327.0 0
311662.0 375291.0 0
316339.0 375689.0 0
320448.0 375842.0 0
323688.0 375593.0 0
327150.0 375465.0 0
331263.0 375354.0 0
335552.0 375061.0 0
339480.0 375668.0 0
343380.0 375384.0 0
348402.0 375743.0 0
352532.0 375989.0 0
356149.0 375019.0 0
360757.0 375281.0 0
365630.0 375915.0 0
370327.0 375269.0 0
375872.0 375296.0 0
373044.0 377291.0 0
379853.0 375752.0 0
383765.0 375470.0 0
388145.0 376004.0 0
393343.0 375227.0 0
396860.0 375511.0 0
399833.0 375348.0 0
403774.0 375357.0 0
408083.0 375061.0 0
410123.0 377500.0 0
412673.0 375152.0 0
417368.0 375181.0 0
421597.0 375484.0 0
425804.0 375662.0 0
429474.0 375277.0 0
433463.0 375462.0 0
437801.0 375096.0 0
442368.0 375221.0 0
440565.0 377231.0 0
445753.0 375214.0 0
450808.0 375496.0 0
455539.0 375615.0 0
460487.0 375659.0 0
464766.0 375548.0 0
469448.0 375459.0 0
473689.0 375142.0 0
479028.0 375177.0 0
483913.0 375464.0 0
487718.0 375297.0 0
492684.0 375515.0 0
497563.0 375363.0 0
4054.36 378770.0 0
1268.29 378713.0 0
1387.61 381459.0 0
7748.2 378067.0 0
10030.2 380691.0 0
5663.26 382304.0 0
12131.4 378241.0 0
13870.5 382162.0 0
16162.6 379048.0 0
20697.1 378548.0 0
25249.3 378455.0 0
23303.1 382284.0 0
27020.5 381084.0 0
29012.8 378372.0 0
30222.6 381725.0 0
32893.3 378711.0 0
37371.0 378964.0 0
38799.8 382199.0 0
40780.7 379899.0 0
44827.4 377974.0 0
43895.5 381138.0 0
48705.3 377942.0 0
47835.8 381142.0 0
50964.4 382086.0 0
51937.1 379258.0 0
54481.5 382049.0 0
56518.5 379043.0 0
60103.8 380404.0 0
65121.4 379112.0 0
69444.3 378263.0 0
68448.1 382299.0 0
72088.9 380128.0 0
75058.0 378217.0 0
76024.9 382607.0 0
78752.9 378385.0 0
81214.4 381831.0 0
83353.6 378473.0 0
85657.8 381887.0 0
87863.8 378849.0 0
92773.7 379408.0 0
96963.7 378830.0 0
101213.0 378594.0 0
98872.7 381663.0 0
105077.0 378528.0 0
102654.0 382019.0 0
107242.0 382249.0 0
109379.0 378505.0 0
111637.0 382177.0 0
113455.0 378587.0 0
115406.0 381904.0 0
117758.0 378887.0 0
121812.0 379311.0 0
126623.0 379039.0 0
122863.0 382207.0 0
131007.0 379314.0 0
130146.0 381834.0 0
133699.0 378477.0 0
137456.0 378782.0 0
142449.0 379075.0 0
146702.0 378936.0 0
144438.0 382582.0 0
148066.0 381955.0 0
151306.0 380000.0 0
155099.0 378339.0 0
161129.0 378488.0 0
158675.0 379547.0 0
162265.0 380792.0 0
167976.0 377904.0 0
164742.0 378977.0 0
168263.0 381083.0 0
171410.0 378592.0 0
172143.0 382249.0 0
175469.0 378572.0 0
179597.0 379218.0 0
181340.0 381939.0 0
183003.0 378409.0 0
184707.0 381068.0 0
187171.0 378307.0 0
188071.0 382456.0 0
191383.0 378918.0 0
193927.0 381255.0 0
195427.0 378084.0 0
196799.0 381225.0 0
199148.0 377844.0 0
199642.0 381056.0 0
301194.0 380412.0 0
304648.0 379185.0 0
308392.0 380608.0 0
312493.0 378973.0 0
312520.0 382139.0 0
320702.0 379233.0 0
316848.0 380842.0 0
323551.0 378050.0 0
323766.0 381172.0 0
326010.0 378770.0 0
326808.0 381154.0 0
329637.0 379111.0 0
329376.0 382637.0 0
333729.0 378481.0 0
340599.0 378796.0 0
337573.0 377895.0 0
337507.0 380942.0 0
340677.0 382565.0 0
344712.0 379848.0 0
349280.0 380050.0 0
353512.0 380123.0 0
357519.0 377931.0 0
357892.0 381651.0 0
361691.0 379681.0 0
366435.0 380623.0 0
369669.0 379080.0 0
373011.0 380837.0 0
376984.0 379796.0 0
381255.0 379133.0 0
385029.0 378779.0 0
383408.0 382465.0 0
387821.0 381468.0 0
392058.0 379587.0 0
395433.0 381812.0 0
397361.0 378709.0 0
400216.0 381863.0 0
401751.0 378172.0 0
405971.0 377850.0 0
403953.0 380440.0 0
408268.0 381181.0 0
412335.0 380042.0 0
415143.0 377819.0 0
416315.0 382334.0 0
419148.0 378949.0 0
421173.0 382519.0 0
423412.0 379301.0 0
427126.0 379310.0 0
428283.0 382633.0 0
430453.0 378354.0 0
430278.0 380980.0 0
432256.0 381075.0 0
433995.0 378758.0 0
436756.0 378373.0 0
435537.0 382112.0 0
439199.0 380549.0 0
443788.0 379230.0 0
447861.0 378127.0 0
447681.0 382645.0 0
451394.0 379736.0 0
454315.0 379323.0 0
456179.0 382465.0 0
458544.0 379258.0 0
460116.0 382433.0 0
462772.0 379799.0 0
467168.0 378957.0 0
470195.0 381725.0 0
471700.0 378419.0 0
475377.0 378013.0 0
474531.0 381791.0 0
478559.0 379759.0 0
482119.0 378271.0 0
482389.0 382462.0 0
485662.0 378758.0 0
489493.0 378664.0 0
486718.0 382432.0 0
494365.0 379645.0 0
490867.0 382418.0 0
498518.0 378540.0 0
497990.0 382038.0 0
1884.53 384848.0 0
10105.4 384137.0 0
6198.5 387156.0 0
14529.9 386247.0 0
10391.5 387647.0 0
18513.4 383271.0 0
19340.5 387115.0 0
23112.9 386000.0 0
26959.3 384271.0 0
30817.3 385441.0 0
34887.2 382698.0 0
34789.6 387017.0 0
38413.3 385774.0 0
41211.4 386555.0 0
45087.4 383514.0 0
41479.4 383511.0 0
44174.4 386858.0 0
48597.2 384955.0 0
52244.8 384501.0 0
55808.2 385914.0 0
57445.5 382702.0 0
59844.0 384747.0 0
63704.0 383514.0 0
63246.8 387744.0 0
67168.4 385882.0 0
70427.2 387580.0 0
71722.3 384218.0 0
74882.6 387480.0 0
79265.4 385971.0 0
83731.6 385599.0 0
90290.8 382842.0 0
87471.4 385102.0 0
91331.4 387577.0 0
95077.9 383809.0 0
99792.8 385061.0 0
104587.0 385344.0 0
109428.0 385618.0 0
114486.0 385987.0 0
119086.0 383218.0 0
119276.0 387399.0 0
126436.0 383380.0 0
122677.0 385517.0 0
130180.0 385388.0 0
134058.0 382752.0 0
136795.0 386715.0 0
133244.0 387207.0 0
139476.0 382926.0 0
142536.0 386867.0 0
147304.0 385506.0 0
151121.0 384139.0 0
155477.0 382720.0 0
153738.0 386543.0 0
158109.0 387164.0 0
160039.0 382987.0 0
162403.0 385946.0 0
164990.0 383314.0 0
168979.0 385316.0 0
172931.0 385803.0 0
177005.0 383331.0 0
180959.0 386561.0 0
183864.0 383565.0 0
186080.0 386587.0 0
191535.0 382906.0 0
190314.0 386022.0 0
194775.0 385081.0 0
199138.0 384837.0 0
301286.0 384672.0 0
304730.0 382840.0 0
305117.0 386795.0 0
307417.0 384500.0 0
310781.0 384392.0 0
309123.0 387478.0 0
314198.0 384292.0 0
317579.0 386026.0 0
320873.0 383564.0 0
325845.0 385266.0 0
330864.0 386938.0 0
333558.0 382898.0 0
335594.0 387280.0 0
337499.0 384224.0 0
339986.0 386815.0 0
344101.0 384397.0 0
346412.0 386529.0 0
347824.0 383488.0 0
351267.0 383625.0 0
349392.0 386903.0 0
355237.0 384097.0 0
352940.0 386142.0 0
359615.0 384858.0 0
363407.0 383402.0 0
364306.0 386846.0 0
366843.0 384530.0 0
369938.0 383214.0 0
374581.0 385400.0 0
379263.0 383303.0 0
378987.0 387652.0 0
382024.0 385939.0 0
386194.0 386463.0 0
391906.0 385221.0 0
397071.0 385022.0 0
401034.0 385780.0 0
404582.0 384468.0 0
408609.0 385131.0 0
412212.0 383909.0 0
415199.0 386696.0 0
419141.0 385635.0 0
423152.0 387000.0 0
424788.0 383212.0 0
427609.0 386640.0 0
431839.0 384196.0 0
435787.0 386107.0 0
438720.0 384149.0 0
442424.0 383345.0 0
445114.0 386936.0 0
452440.0 383078.0 0
450297.0 386358.0 0
455061.0 386940.0 0
458992.0 385210.0 0
462617.0 383850.0 0
461550.0 386657.0 0
465739.0 382754.0 0
465557.0 386862.0 0
468656.0 384914.0 0
472317.0 385648.0 0
476329.0 385388.0 0
478467.0 383455.0 0
484232.0 386186.0 0
480076.0 387464.0 0
488404.0 386749.0 0
494100.0 385257.0 0
498380.0 385904.0 0
1903.41 388808.0 0
1448.34 392444.0 0
8836.22 390245.0 0
5555.17 391846.0 0
12171.9 390310.0 0
16664.0 390747.0 0
22570.1 390509.0 0
26891.8 388197.0 0
26750.2 392857.0 0
31876.4 390450.0 0
37216.2 389989.0 0
40973.7 389268.0 0
44526.5 391257.0 0
47879.0 388866.0 0
51842.2 387818.0 0
54813.6 389873.0 0
59072.8 388929.0 0
62326.1 391865.0 0
66991.5 390489.0 0
71809.5 390874.0 0
76068.5 391780.0 0
78766.8 389543.0 0
82442.4 389117.0 0
86658.4 388510.0 0
85071.0 391662.0 0
88713.7 391709.0 0
96652.0 388430.0 0
93497.5 392244.0 0
101747.0 388782.0 0
106883.0 388857.0 0
111090.0 388887.0 0
109484.0 392338.0 0
116609.0 389628.0 0
113474.0 390935.0 0
119722.0 390552.0 0
126365.0 387899.0 0
122818.0 389615.0 0
126524.0 391975.0 0
129984.0 389671.0 0
134106.0 391381.0 0
138863.0 390083.0 0
142947.0 392458.0 0
146854.0 389546.0 0
150685.0 387803.0 0
150723.0 391658.0 0
154596.0 389998.0 0
161730.0 389187.0 0
158934.0 392032.0 0
163426.0 391622.0 0
165842.0 388414.0 0
171037.0 389648.0 0
175809.0 387798.0 0
175082.0 391337.0 0
179053.0 390522.0 0
183910.0 390936.0 0
188707.0 390054.0 0
193164.0 389027.0 0
198232.0 389653.0 0
195110.0 392584.0 0
301050.0 388702.0 0
304516.0 390673.0 0
307481.0 390288.0 0
310574.0 391320.0 0
313385.0 388114.0 0
314529.0 392444.0 0
317474.0 390083.0 0
320464.0 392298.0 0
321948.0 388376.0 0
323968.0 392543.0 0
327639.0 390707.0 0
333029.0 390817.0 0
337437.0 390921.0 0
341692.0 390911.0 0
343904.0 387890.0 0
346690.0 390535.0 0
352027.0 390477.0 0
356060.0 387858.0 0
356421.0 391820.0 0
360573.0 389565.0 0
365087.0 390262.0 0
369347.0 388205.0 0
371544.0 392712.0 0
373437.0 389905.0 0
376537.0 390254.0 0
374705.0 392600.0 0
379431.0 391034.0 0
382338.0 389423.0 0
385183.0 391034.0 0
389564.0 390317.0 0
395819.0 388276.0 0
393645.0 389418.0 0
393545.0 392311.0 0
397012.0 391804.0 0
399434.0 388750.0 0
401676.0 392572.0 0
403221.0 388628.0 0
405308.0 391126.0 0
406987.0 388445.0 0
411227.0 388064.0 0
409250.0 392569.0 0
414413.0 391421.0 0
418447.0 389371.0 0
422130.0 391450.0 0
425848.0 390427.0 0
428891.0 390249.0 0
431971.0 388114.0 0
431999.0 392391.0 0
435913.0 390150.0 0
440355.0 387980.0 0
439332.0 392090.0 0
443891.0 391835.0 0
448037.0 389642.0 0
452066.0 390358.0 0
456238.0 391251.0 0
458975.0 388825.0 0
459863.0 392219.0 0
462977.0 389912.0 0
467544.0 391159.0 0
469293.0 387935.0 0
472139.0 389651.0 0
475406.0 387888.0 0
476797.0 391425.0 0
481356.0 391124.0 0
484388.0 389481.0 0
487761.0 390516.0 0
492318.0 389495.0 0
497663.0 389538.0 0
2777.93 396657.0 0
9751.09 393176.0 0
7516.37 395735.0 0
13055.8 393908.0 0
11203.5 397068.0 0
19922.1 393444.0 0
16780.6 397270.0 0
22547.8 395582.0 0
26406.8 397575.0 0
31498.9 395735.0 0
36070.5 393784.0 0
40346.5 392968.0 0
38157.8 395400.0 0
40798.0 397205.0 0
44548.5 394955.0 0
50482.0 393076.0 0
47385.6 396858.0 0
54235.2 396567.0 0
57297.9 393155.0 0
58160.8 397359.0 0
61490.5 395554.0 0
65694.3 394548.0 0
69728.4 394283.0 0
73490.4 393899.0 0
73261.6 397176.0 0
76926.3 395737.0 0
80759.0 393437.0 0
85438.8 395872.0 0
89912.0 395178.0 0
96153.7 394846.0 0
93783.9 397736.0 0
99135.9 392974.0 0
98008.7 397213.0 0
104361.0 393178.0 0
107565.0 396570.0 0
117251.0 392964.0 0
113055.0 395337.0 0
122145.0 393985.0 0
118063.0 396765.0 0
127199.0 396874.0 0
130027.0 393371.0 0
133019.0 396754.0 0
138045.0 394783.0 0
142119.0 397486.0 0
147262.0 393141.0 0
145725.0 395856.0 0
150036.0 396429.0 0
154402.0 394142.0 0
157995.0 397036.0 0
162924.0 395872.0 0
167471.0 393000.0 0
172665.0 395320.0 0
177045.0 393910.0 0
177521.0 397528.0 0
180607.0 394319.0 0
184281.0 395143.0 0
187519.0 394066.0 0
191732.0 393273.0 0
190678.0 397261.0 0
196929.0 394278.0 0
194640.0 396008.0 0
198388.0 397291.0 0
199421.0 393748.0 0
301264.0 393469.0 0
306852.0 395128.0 0
311691.0 394842.0 0
315147.0 396484.0 0
318031.0 394346.0 0
322013.0 395577.0 0
326045.0 395586.0 0
330591.0 394868.0 0
335303.0 394434.0 0
339519.0 394355.0 0
337411.0 397520.0 0
343948.0 394421.0 0
348899.0 394596.0 0
353395.0 394996.0 0
359980.0 393472.0 0
357623.0 394993.0 0
361215.0 396882.0 0
363425.0 393523.0 0
365497.0 396733.0 0
367615.0 393000.0 0
369915.0 396468.0 0
374384.0 396431.0 0
377695.0 393596.0 0
378628.0 397350.0 0
382007.0 393963.0 0
384858.0 397509.0 0
386918.0 394183.0 0
391145.0 394764.0 0
395170.0 395174.0 0
393183.0 397519.0 0
399014.0 395297.0 0
402651.0 397811.0 0
405338.0 394465.0 0
412828.0 396035.0 0
418401.0 394606.0 0
422666.0 395532.0 0
425064.0 393705.0 0
426181.0 397288.0 0
428062.0 393548.0 0
430810.0 396499.0 0
435653.0 394849.0 0
437615.0 397601.0 0
440825.0 395748.0 0
445331.0 396297.0 0
448509.0 393378.0 0
450151.0 397350.0 0
453261.0 394035.0 0
457336.0 394982.0 0
460969.0 395721.0 0
463836.0 397768.0 0
464051.0 393817.0 0
467462.0 395882.0 0
471414.0 393509.0 0
475513.0 396231.0 0
480445.0 394803.0 0
484916.0 393535.0 0
486836.0 397056.0 0
490042.0 393758.0 0
494334.0 396923.0 0
498821.0 392892.0 0
495145.0 392962.0 0
498356.0 396000.0 0
2889.33 402390.0 0
7815.8 399835.0 0
12403.7 401466.0 0
17584.3 402819.0 0
21833.1 399907.0 0
25748.4 401815.0 0
30706.6 400918.0 0
36001.7 398376.0 0
40137.1 402022.0 0
44960.6 400211.0 0
50506.0 399570.0 0
55533.4 400987.0 0
61139.0 400815.0 0
64551.1 398155.0 0
65361.2 402105.0 0
68802.7 398852.0 0
73560.8 401441.0 0
76591.6 398984.0 0
80603.7 398495.0 0
77942.7 402129.0 0
81439.4 402452.0 0
84788.0 400681.0 0
89197.3 399444.0 0
93178.1 402304.0 0
102010.0 398024.0 0
97764.6 401168.0 0
105503.0 400745.0 0
110866.0 400777.0 0
115372.0 399167.0 0
115728.0 402992.0 0
122035.0 398997.0 0
118349.0 400390.0 0
125501.0 402783.0 0
130004.0 400658.0 0
134074.0 401625.0 0
137973.0 399392.0 0
142272.0 401961.0 0
146404.0 399828.0 0
150877.0 401687.0 0
153682.0 398279.0 0
155987.0 401753.0 0
161182.0 401464.0 0
164362.0 399735.0 0
167610.0 398056.0 0
165525.0 402334.0 0
171508.0 399438.0 0
169616.0 402999.0 0
174708.0 401146.0 0
182126.0 398109.0 0
179556.0 401304.0 0
186473.0 398059.0 0
184484.0 401610.0 0
189366.0 401520.0 0
194626.0 400528.0 0
199108.0 400867.0 0
302206.0 398014.0 0
301449.0 402579.0 0
306697.0 401153.0 0
311040.0 398906.0 0
315533.0 400940.0 0
319184.0 398010.0 0
320218.0 402341.0 0
323863.0 399343.0 0
328592.0 398813.0 0
330953.0 401737.0 0
327006.0 402659.0 0
333559.0 399021.0 0
337851.0 401362.0 0
341253.0 398039.0 0
346115.0 398586.0 0
342688.0 402763.0 0
350892.0 399034.0 0
356187.0 399113.0 0
360206.0 400106.0 0
363818.0 400986.0 0
367925.0 399455.0 0
371884.0 400660.0 0
376138.0 400700.0 0
380149.0 401353.0 0
381795.0 398487.0 0
384499.0 401876.0 0
388971.0 398623.0 0
393133.0 400991.0 0
397184.0 398888.0 0
400740.0 401819.0 0
405288.0 402739.0 0
408228.0 398262.0 0
409734.0 402421.0 0
412679.0 400562.0 0
416306.0 398696.0 0
421220.0 399338.0 0
425495.0 401508.0 0
428332.0 402881.0 0
429379.0 400127.0 0
434285.0 400222.0 0
438971.0 399509.0 0
442412.0 399912.0 0
446908.0 400749.0 0
451732.0 401817.0 0
454796.0 398488.0 0
455789.0 402584.0 0
459409.0 399180.0 0
463457.0 401865.0 0
467189.0 399993.0 0
471052.0 398215.0 0
474581.0 400430.0 0
479029.0 399475.0 0
483325.0 398364.0 0
482133.0 402811.0 0
486592.0 401434.0 0
490197.0 398301.0 0
490363.0 401585.0 0
493647.0 400949.0 0
497827.0 399887.0 0
3376.99 407989.0 0
8284.77 404896.0 0
13452.5 406758.0 0
18498.1 406693.0 0
22441.6 404678.0 0
27456.4 405336.0 0
31468.5 405413.0 0
35444.7 403303.0 0
34516.3 407552.0 0
39039.3 407105.0 0
44009.5 405726.0 0
47898.3 403630.0 0
48695.0 408033.0 0
51719.2 404225.0 0
55479.9 405037.0 0
58846.3 404174.0 0
58064.3 407745.0 0
63209.9 406253.0 0
69245.1 404394.0 0
75050.8 405943.0 0
79852.5 405611.0 0
84335.5 405000.0 0
88572.2 403712.0 0
91863.5 405897.0 0
96651.0 405713.0 0
101791.0 403662.0 0
100517.0 407617.0 0
106965.0 404660.0 0
104345.0 407820.0 0
111921.0 405943.0 0
117231.0 407437.0 0
120185.0 403324.0 0
122219.0 406742.0 0
126199.0 408034.0 0
130488.0 405321.0 0
135083.0 405425.0 0
138572.0 403856.0 0
142349.0 406608.0 0
138062.0 408020.0 0
146202.0 404164.0 0
150011.0 405819.0 0
154271.0 405874.0 0
158806.0 405594.0 0
163618.0 405879.0 0
168475.0 407788.0 0
173243.0 405881.0 0
177036.0 404360.0 0
181585.0 405589.0 0
187259.0 405676.0 0
192882.0 405945.0 0
198032.0 404211.0 0
304780.0 405220.0 0
301449.0 407489.0 0
307768.0 405856.0 0
311447.0 404308.0 0
316641.0 405674.0 0
321328.0 406825.0 0
323716.0 403725.0 0
325701.0 407021.0 0
330287.0 405816.0 0
334400.0 403721.0 0
338651.0 406571.0 0
343120.0 406962.0 0
348056.0 403460.0 0
350659.0 407136.0 0
353198.0 403504.0 0
359048.0 404476.0 0
364033.0 406400.0 0
368173.0 403483.0 0
370854.0 406040.0 0
374102.0 404676.0 0
377838.0 404202.0 0
381302.0 405378.0 0
385903.0 406723.0 0
388992.0 403088.0 0
390313.0 406514.0 0
392806.0 404525.0 0
396808.0 403994.0 0
398108.0 406990.0 0
401301.0 405961.0 0
405633.0 405984.0 0
409124.0 406381.0 0
412598.0 403843.0 0
416844.0 403066.0 0
414170.0 407763.0 0
418967.0 406824.0 0
422122.0 404303.0 0
426876.0 405975.0 0
431032.0 403776.0 0
431063.0 407895.0 0
434746.0 405246.0 0
438245.0 407052.0 0
438827.0 403097.0 0
441409.0 407496.0 0
443406.0 404336.0 0
448740.0 405680.0 0
453373.0 405063.0 0
457004.0 406950.0 0
459382.0 403478.0 0
462010.0 406340.0 0
466196.0 405413.0 0
470939.0 403271.0 0
473853.0 406922.0 0
477274.0 403912.0 0
477282.0 408122.0 0
481244.0 407330.0 0
485170.0 405294.0 0
490964.0 406080.0 0
495530.0 403584.0 0
498596.0 403490.0 0
497392.0 407475.0 0
1629.88 411988.0 0
8695.8 409515.0 0
5569.47 412642.0 0
12800.0 412000.0 0
17646.9 410764.0 0
21269.0 408347.0 0
25095.6 408670.0 0
22145.7 411667.0 0
30229.2 409911.0 0
26013.8 412654.0 0
36042.0 411784.0 0
41182.6 411254.0 0
44818.7 410010.0 0
47626.4 411906.0 0
53427.9 408291.0 0
51541.7 412244.0 0
56321.5 411726.0 0
60492.8 410391.0 0
64152.7 411924.0 0
67331.9 408952.0 0
71504.5 408703.0 0
74466.5 410109.0 0
78212.2 409481.0 0
82832.8 409065.0 0
85500.9 412150.0 0
88027.4 408477.0 0
93051.0 409425.0 0
94729.2 413224.0 0
97700.1 410280.0 0
102007.0 411452.0 0
106741.0 411632.0 0
108368.0 408184.0 0
112073.0 410912.0 0
117262.0 412669.0 0
121589.0 410571.0 0
125741.0 412845.0 0
130318.0 410659.0 0
134095.0 408438.0 0
140768.0 411123.0 0
146879.0 408782.0 0
143652.0 409621.0 0
144614.0 412896.0 0
151743.0 409637.0 0
148912.0 413031.0 0
156025.0 409560.0 0
158126.0 412715.0 0
160355.0 409255.0 0
161745.0 413191.0 0
164630.0 410380.0 0
168349.0 412461.0 0
172693.0 410877.0 0
177027.0 408379.0 0
180919.0 410115.0 0
184608.0 409131.0 0
188953.0 410603.0 0
193889.0 411277.0 0
198073.0 408565.0 0
305437.0 408875.0 0
301877.0 411604.0 0
309505.0 408985.0 0
313398.0 408386.0 0
312328.0 412627.0 0
317991.0 411201.0 0
323680.0 410937.0 0
329071.0 410958.0 0
334115.0 408604.0 0
333628.0 412740.0 0
337772.0 411601.0 0
342206.0 410642.0 0
346600.0 408434.0 0
346202.0 413163.0 0
350672.0 411237.0 0
355142.0 408505.0 0
360442.0 410264.0 0
364957.0 410557.0 0
367980.0 408164.0 0
368461.0 411669.0 0
372345.0 409514.0 0
375053.0 413041.0 0
377308.0 408285.0 0
378940.0 412189.0 0
382014.0 409560.0 0
386291.0 411665.0 0
389599.0 409448.0 0
394410.0 408483.0 0
396512.0 412571.0 0
399368.0 409732.0 0
404725.0 409807.0 0
410240.0 411424.0 0
415090.0 413061.0 0
418403.0 410333.0 0
423299.0 409554.0 0
427746.0 410304.0 0
431253.0 413070.0 0
435178.0 409718.0 0
440195.0 411613.0 0
444650.0 408755.0 0
448568.0 410498.0 0
445297.0 413118.0 0
452855.0 409011.0 0
456542.0 412062.0 0
460174.0 409577.0 0
464377.0 409714.0 0
469436.0 409255.0 0
474405.0 410768.0 0
478526.0 411126.0 0
482405.0 412029.0 0
486005.0 409513.0 0
494001.0 410739.0 0
489987.0 411995.0 0
497932.0 412173.0 0
2425.19 416012.0 0
9148.54 413644.0 0
7230.89 417664.0 0
12026.9 416636.0 0
19777.1 414224.0 0
16419.7 415351.0 0
22910.6 415415.0 0
28936.6 413615.0 0
27634.8 417345.0 0
32060.5 414846.0 0
35822.6 416603.0 0
39836.1 415410.0 0
44430.8 414331.0 0
42581.7 418191.0 0
48754.3 415157.0 0
50456.8 418088.0 0
54705.5 416547.0 0
59895.2 414522.0 0
64200.4 416711.0 0
69931.7 414061.0 0
75934.2 413445.0 0
74817.0 417552.0 0
80935.2 413800.0 0
85499.1 415946.0 0
82577.7 417261.0 0
89823.5 413662.0 0
93970.7 418071.0 0
98787.8 414923.0 0
104114.0 416478.0 0
109652.0 415612.0 0
113752.0 415353.0 0
117122.0 417524.0 0
121672.0 415489.0 0
130263.0 416567.0 0
135838.0 413269.0 0
141051.0 416349.0 0
146138.0 416895.0 0
150193.0 416657.0 0
153811.0 413788.0 0
157891.0 416586.0 0
162176.0 417159.0 0
165164.0 414231.0 0
167383.0 417881.0 0
171174.0 415252.0 0
177724.0 413669.0 0
174338.0 416444.0 0
181150.0 417277.0 0
183950.0 413635.0 0
188232.0 415088.0 0
191352.0 414155.0 0
198102.0 413670.0 0
194422.0 415291.0 0
301843.0 415561.0 0
306714.0 413556.0 0
310890.0 416939.0 0
315760.0 416825.0 0
320848.0 415754.0 0
325858.0 415146.0 0
330914.0 416006.0 0
336629.0 416661.0 0
341921.0 415110.0 0
346010.0 417910.0 0
350446.0 415885.0 0
355799.0 413948.0 0
360690.0 414840.0 0
365244.0 414655.0 0
362531.0 418141.0 0
370448.0 415524.0 0
374758.0 417060.0 0
378479.0 416040.0 0
382462.0 414165.0 0
386787.0 416923.0 0
391467.0 413643.0 0
395810.0 416850.0 0
400941.0 414667.0 0
406705.0 415247.0 0
411719.0 416570.0 0
416364.0 417235.0 0
420661.0 414831.0 0
426172.0 414158.0 0
435808.0 413392.0 0
434479.0 416914.0 0
438220.0 415664.0 0
442269.0 416675.0 0
447500.0 417601.0 0
451573.0 414048.0 0
455570.0 416533.0 0
461433.0 413797.0 0
466674.0 413807.0 0
469232.0 418256.0 0
464318.0 418314.0 0
471550.0 414220.0 0
473957.0 418367.0 0
479424.0 414430.0 0
475998.0 414568.0 0
478388.0 417839.0 0
482449.0 416294.0 0
486284.0 414231.0 0
490342.0 416360.0 0
494374.0 414604.0 0
497986.0 416113.0 0
2730.86 420996.0 0
7244.69 422099.0 0
11011.2 420964.0 0
15300.2 419713.0 0
19849.1 418514.0 0
18526.3 422389.0 0
23699.3 418964.0 0
22977.0 422655.0 0
28465.2 422825.0 0
32629.4 419402.0 0
38411.3 420592.0 0
43855.9 422453.0 0
46534.9 418380.0 0
49388.8 422160.0 0
54956.6 422324.0 0
59711.1 419300.0 0
64248.7 421627.0 0
67622.4 419130.0 0
71348.4 419521.0 0
74851.2 422537.0 0
79176.5 419224.0 0
84148.9 420143.0 0
88723.5 419079.0 0
99369.0 420510.0 0
104219.0 421612.0 0
108295.0 420380.0 0
112948.0 419487.0 0
116707.0 421558.0 0
120906.0 420291.0 0
125404.0 418920.0 0
135837.0 419653.0 0
140071.0 420158.0 0
139587.0 423160.0 0
143658.0 421052.0 0
148886.0 420984.0 0
153826.0 418974.0 0
158811.0 421823.0 0
163934.0 421154.0 0
167945.0 423233.0 0
172358.0 420192.0 0
177122.0 418704.0 0
176538.0 422998.0 0
181016.0 421599.0 0
185747.0 418938.0 0
191372.0 418411.0 0
189266.0 422512.0 0
193536.0 423253.0 0
197231.0 418992.0 0
302248.0 419960.0 0
305914.0 422932.0 0
306675.0 418727.0 0
310554.0 421499.0 0
315199.0 421574.0 0
319446.0 420341.0 0
323560.0 418997.0 0
327867.0 419878.0 0
332613.0 420719.0 0
336905.0 422012.0 0
341392.0 420327.0 0
345877.0 422844.0 0
350182.0 420865.0 0
354205.0 418655.0 0
358463.0 418597.0 0
361687.0 423131.0 0
366665.0 419574.0 0
372006.0 421026.0 0
377437.0 420427.0 0
382102.0 418996.0 0
386346.0 422733.0 0
391638.0 419858.0 0
398898.0 419825.0 0
403656.0 419387.0 0
405629.0 423318.0 0
408415.0 419972.0 0
414292.0 421194.0 0
419605.0 420188.0 0
424225.0 418426.0 0
426126.0 422076.0 0
429490.0 418377.0 0
434017.0 420855.0 0
438558.0 420012.0 0
443679.0 421469.0 0
452070.0 418369.0 0
449856.0 421921.0 0
455472.0 422093.0 0
459539.0 418420.0 0
466811.0 422083.0 0
471572.0 423059.0 0
476925.0 422100.0 0
481698.0 420757.0 0
486217.0 418898.0 0
494103.0 418432.0 0
490512.0 421632.0 0
494626.0 422137.0 0
497867.0 420237.0 0
1119.89 424656.0 0
4805.94 425937.0 0
1166.98 427188.0 0
9795.39 425466.0 0
14505.5 424420.0 0
19610.3 427268.0 0
25328.9 427203.0 0
30273.2 427679.0 0
33909.5 424088.0 0
38493.6 425767.0 0
42709.7 427217.0 0
47023.4 426394.0 0
51803.2 426882.0 0
56376.4 427258.0 0
60098.6 424463.0 0
64783.5 426704.0 0
69258.2 423715.0 0
73011.7 427267.0 0
81317.8 423873.0 0
77548.7 426542.0 0
87115.3 424764.0 0
91440.7 428045.0 0
92902.8 423567.0 0
97423.9 425639.0 0
102085.0 425090.0 0
107027.0 425321.0 0
111470.0 423670.0 0
115469.0 425525.0 0
119369.0 424018.0 0
120381.0 428119.0 0
123531.0 424062.0 0
125445.0 428250.0 0
129685.0 423479.0 0
135385.0 424494.0 0
133667.0 428483.0 0
138545.0 427461.0 0
142869.0 425752.0 0
146297.0 424319.0 0
149106.0 425081.0 0
153315.0 424460.0 0
157918.0 427985.0 0
163073.0 425874.0 0
167405.0 428068.0 0
172593.0 426477.0 0
177060.0 426455.0 0
180702.0 426798.0 0
185245.0 424256.0 0
189864.0 427824.0 0
198078.0 424232.0 0
195328.0 427583.0 0
301973.0 424567.0 0
305459.0 427529.0 0
308901.0 425515.0 0
313215.0 425939.0 0
318414.0 425444.0 0
324047.0 423934.0 0
329542.0 424676.0 0
334269.0 425399.0 0
339999.0 426585.0 0
345380.0 426926.0 0
349860.0 425965.0 0
355224.0 423554.0 0
358439.0 428381.0 0
367805.0 425417.0 0
375958.0 426333.0 0
381106.0 423556.0 0
383486.0 427384.0 0
390962.0 424505.0 0
388212.0 427883.0 0
395760.0 423555.0 0
393404.0 428437.0 0
398307.0 427841.0 0
401058.0 423953.0 0
401744.0 427645.0 0
405534.0 427943.0 0
410146.0 424702.0 0
414179.0 427514.0 0
417702.0 424608.0 0
422291.0 424218.0 0
426185.0 425973.0 0
430735.0 424345.0 0
436691.0 425003.0 0
442147.0 426686.0 0
446715.0 425000.0 0
451584.0 427293.0 0
457618.0 427492.0 0
461839.0 423532.0 0
467110.0 426926.0 0
475486.0 427760.0 0
480902.0 425408.0 0
484839.0 427471.0 0
485384.0 423493.0 0
488923.0 426364.0 0
493539.0 425618.0 0
497840.0 424633.0 0
2473.16 430415.0 0
4936.89 433357.0 0
7809.67 430145.0 0
12929.5 429332.0 0
17226.4 433023.0 0
22525.3 431915.0 0
27552.3 432055.0 0
34966.0 429154.0 0
39527.4 430124.0 0
43320.8 431328.0 0
48480.7 431834.0 0
54352.9 431307.0 0
60478.5 429855.0 0
65638.3 431947.0 0
68910.3 428585.0 0
71613.3 431546.0 0
76015.8 430905.0 0
82310.2 429620.0 0
85749.4 433207.0 0
87777.7 430203.0 0
91364.4 432559.0 0
95507.9 430150.0 0
100716.0 429670.0 0
106106.0 430681.0 0
111415.0 428750.0 0
109954.0 433229.0 0
116067.0 429779.0 0
114216.0 433647.0 0
118925.0 432897.0 0
123072.0 431847.0 0
126892.0 432432.0 0
129476.0 429459.0 0
136998.0 433008.0 0
142191.0 430876.0 0
147018.0 428750.0 0
151878.0 429077.0 0
154753.0 432714.0 0
159854.0 433048.0 0
163789.0 430664.0 0
167821.0 432510.0 0
172593.0 432339.0 0
177038.0 430079.0 0
181554.0 431627.0 0
184635.0 428732.0 0
186426.0 432777.0 0
198290.0 430332.0 0
193979.0 432753.0 0
301490.0 428573.0 0
303853.0 432472.0 0
310150.0 431404.0 0
316014.0 430103.0 0
319824.0 433323.0 0
322051.0 428973.0 0
324292.0 432406.0 0
326754.0 428842.0 0
331536.0 429121.0 0
336081.0 431662.0 0
340932.0 433563.0 0
343944.0 430501.0 0
348413.0 431091.0 0
353383.0 429909.0 0
356959.0 433191.0 0
363370.0 428656.0 0
366940.0 430377.0 0
368335.0 433612.0 0
371231.0 430207.0 0
376032.0 431511.0 0
380011.0 430816.0 0
384952.0 432173.0 0
390127.0 432584.0 0
396943.0 432498.0 0
401617.0 431082.0 0
406181.0 433267.0 0
410152.0 429936.0 0
414632.0 432793.0 0
418394.0 429081.0 0
423251.0 429300.0 0
428708.0 429982.0 0
432913.0 433604.0 0
433491.0 428845.0 0
438064.0 430571.0 0
443087.0 432049.0 0
446576.0 429130.0 0
449606.0 432738.0 0
454998.0 431284.0 0
462189.0 428908.0 0
459467.0 433047.0 0
465520.0 431952.0 0
470669.0 431621.0 0
477243.0 433452.0 0
481190.0 430296.0 0
486324.0 432091.0 0
492356.0 430679.0 0
497606.0 428987.0 0
497933.0 433375.0 0
11109.3 435011.0 0
32739.0 433977.0 0
38075.2 434594.0 0
58235.1 434668.0 0
79088.2 434282.0 0
97176.0 434910.0 0
102488.0 434837.0 0
373678.0 433971.0 0
420220.0 433720.0 0
425316.0 433993.0 0
481855.0 434573.0 0
490281.0 435609.0 0
494438.0 435279.0 0
POINT_DATA 5000
SCALARS Radius float 1
LOOKUP_TABLE default
3471.03 5253.55 5782.6 5379.87 6044.04 5415.48 5120.0 6182.6 5258.36 5906.14 7513.1 5580.89 6810.52 7613.27 5529.52 5255.32 5096.78 6756.95 6324.23 3843.58 4270.53 5191.63 4150.99 4216.92 6268.1 4861.06 5320.28 6739.08 4797.52 4796.58 3979.26 4298.67 5960.66 6608.73 5820.48 7034.11 4862.21 5113.21 3929.19 4107.03 4043.57 4478.15 5925.6 4501.51 4792.73 4736.58 4931.38 3485.26 6082.81 4329.05 4151.94 4049.23 5337.48 6124.89 4929.8 5708.81 5252.48 4780.03 5495.39 3996.0 3856.1 4665.12 3383.4 4133.88 4094.62 4834.9 3850.77 5546.39 5325.36 5484.83 5085.53 3863.18 5351.6 2356.98 4998.37 4715.55 5492.18 3951.75 5061.3 3642.12 3163.97 5542.27 5812.43 5122.66 5484.19 5254.28 4688.68 4436.4 5733.48 4672.91 4182.53 5903.42 3588.44 5645.7 5176.86 4366.19 5840.26 3672.51 6110.27 5561.06 5073.35 3615.22 5670.04 4380.59 3589.27 6716.79 3997.1 3607.45 5759.91 3038.33 4333.2 4951.03 7199.21 6037.08 4523.7 5091.39 4129.43 6142.94 3320.52 4727.24 4602.25 4194.5 5082.47 5344.25 5445.87 4593.7 4704.72 4177.94 4742.68 4571.7 4344.58 5896.46 5634.83 5495.84 3784.5 6481.79 5374.51 7042.12 6326.39 4569.12 5873.69 5011.84 6261.42 4502.5 3771.48 5499.11 4271.69 5681.38 4138.42 3708.04 5513.6 3240.09 4556.36 3191.99 4685.34 5601.05 4651.28 3586.91 3103.0 3554.9 5481.78 4015.92 5542.21 4487.31 3936.02 5043.05 4044.71 5980.74 5109.54 4927.02 5945.65 5538.89 4730.36 5867.73 6059.59 5013.56 5701.86 4499.64 4375.68 4238.81 4468.59 5054.98 6030.06 5170.02 3557.27 5200.76 4927.31 4862.64 4402.52 4517.56 4432.58 6684.56 3968.64 3955.56 3761.32 4118.05 5292.64 6166.5 5553.16 2938.66 4940.78 4231.61 4008.92 4003.05 3942.53 3379.84 4805.87 4827.82 5227.21 5697.78 3260.67 5123.52 4091.31 4392.68 6372.62 4295.38 2240.39 7565.34 5923.5 4612.68 5293.9 4973.83 3912.37 6691.39 4790.08 5135.69 4763.45 5344.0 6045.46 3815.26 4245.72 5908.1 6048.7 6133.92 5022.8 3780.23 4166.08 5224.12 4819.73 4471.58 6098.14 4962.09 4472.17 3999.48 4203.26 4359.62 5188.81 6946.21 2586.12 6057.22 5433.8 4011.77 4527.08 3633.87 5922.5 5198.77 3970.25 5987.17 6013.14 2765.2 5011.31 4901.41 5110.37 5664.98 4382.74 5927.43 6355.42 3693.63 4384.42 4362.19 4516.43 5690.56 4948.92 5637.59 4937.14 5816.2 5693.81 4002.16 4174.52 6483.19 3829.13 6759.9 5418.62 7021.47 5416.38 5740.68 5926.61 4955.55 2720.68 3563.63 5836.15 4345.55 6704.06 5885.03 2837.58 3871.88 5325.02 5246.2 5017.13 5279.39 5185.34 3673.74 5205.43 7447.37 4688.67 2635.86 4385.06 5065.13 5936.02 5305.17 4290.3 4861.08 5399.73 5390.22 3888.21 4712.33 6038.78 4667.36 4254.17 5090.24 5615.42 5530.87 4281.49 6342.25 4187.56 4840.84 4020.32 4290.14 4156.38 5316.75 4541.21 4164.68 3719.84 4178.4 3095.48 5762.59 4123.6 4850.14 5163.55 3382.7 3954.91 6817.32 4319.79 3637.61 6222.42 5654.31 4730.41 3745.84 5690.26 5062.71 4156.2 6125.34 5965.78 5347.48 4850.01 4810.12 5643.58 5147.67 3979.82 4292.06 5577.04 5138.31 5264.06 4659.59 6327.9 4048.37 5492.26 5762.84 3115.91 3937.74 3307.12 4493.48 6084.86 5924.89 4778.34 4138.16 3486.22 4684.5 3091.3 6230.49 6458.82 4601.27 5493.32 3641.64 4277.89 6051.14 3261.21 4195.44 5539.32 3653.41 6496.85 5600.93 3856.01 5541.59 4390.66 5728.85 4827.23 4911.47 6116.18 4924.6 6257.19 4733.32 7184.19 2899.43 2924.37 3867.67 4695.45 4660.72 6052.7 3921.18 5891.05 5308.1 6902.81 6644.76 5629.19 5655.21 4786.6 5740.84 6445.94 4310.18 5542.14 4218.06 7134.64 5978.9 4716.19 3629.62 5514.76 4997.27 4301.06 3456.98 4877.67 3066.13 6562.18 6006.16 7055.53 5669.65 5934.22 5624.49 4970.88 7092.87 4666.81 3703.1 6471.55 2965.01 5499.39 6643.85 5501.93 5463.38 4938.74 5607.14 4497.59 4374.35 6396.74 5215.05 3821.72 4986.77 5006.58 4602.86 3688.8 4548.16 3369.23 5449.18 4220.88 5244.78 4515.71 6640.13 4749.8 5082.6 5478.92 5551.36 6894.71 4467.94 4414.54 4850.81 5789.98 6138.47 7054.71 5489.43 5573.7 5747.75 4727.62 5054.25 4796.33 5360.19 4794.96 4874.39 4124.71 5083.08 6337.56 5803.39 5863.59 4381.97 4024.3 3255.82 5555.28 5242.73 2812.98 4737.14 4065.69 5603.15 5556.96 3798.62 6392.01 3666.57 4907.89 4937.02 4073.93 6043.3 4645.41 5952.75 4433.59 4320.28 6122.55 2739.94 4931.53 5480.13 6308.71 6695.82 6405.76 3498.2 5105.16 5448.61 4302.5 4827.33 6009.88 5513.57 5013.67 5826.04 5339.78 4538.95 4143.78 4763.66 4636.5 4940.42 5923.4 5085.71 6116.33 5644.82 6343.14 5945.21 5750.71 5696.88 4831.47 3923.03 4643.85 5975.63 4004.04 5252.34 4138.46 4274.61 2775.04 2965.79 6898.19 6035.6 6318.18 5586.81 4481.53 4621.75 3948.17 5330.45 4551.24 4581.13 5358.59 3610.4 6387.01 5367.52 6519.71 5210.03 5810.84 4230.54 5351.39 5094.44 3748.24 4655.49 4933.21 5375.47 6038.14 2540.31 6029.66 5527.54 5697.4 6038.2 4270.95 4055.8 5206.78 7325.81 5280.17 6425.26 5143.58 6186.19 4839.34 2980.99 6834.49 7933.0 5525.39 4455.12 3998.5 5938.34 5380.13 6394.38 5118.27 5169.36 5932.23 4686.65 5834.74 4479.66 5788.23 3043.85 5581.75 3599.45 6730.19 4907.06 3735.44 5163.9 6332.36 6155.31 4223.33 5911.67 3323.28 5835.78 5794.24 4127.74 2476.04 4678.38 3942.07 7443.72 5050.65 3937.08 5260.34 5206.48 5729.23 5226.0 3365.82 5724.64 5965.15 4780.2 6090.91 4946.42 5019.93 5081.78 6263.44 5774.97 5462.21 5470.77 6062.05 4289.17 5564.02 6072.45 4410.55 5137.34 5423.0 3856.59 4219.07 5413.79 6202.55 3092.35 4322.15 4714.54 3629.96 5478.47 3320.11 6142.37 6061.47 6163.38 4566.18 4723.12 5120.49 5201.36 5262.61 6302.8 5409.61 5094.81 4005.44 5713.22 5555.88 6732.43 5028.96 3866.16 6362.12 4484.76 3778.1 4840.01 5152.36 4511.82 5611.2 5173.87 4894.16 5711.87 3372.79 4941.22 5791.61 3369.13 4669.66 4808.52 5367.2 5607.24 5461.13 4726.76 5839.13 5495.68 5489.34 5002.48 5708.14 5537.72 3920.42 8332.24 4553.56 5329.64 6049.55 5709.62 5991.09 5133.97 6600.94 5371.02 6155.1 4709.35 6586.45 4373.3 4750.78 5029.78 4163.5 4888.6 5078.86 5100.1 3561.29 4963.34 4219.78 3295.83 3885.86 4459.28 4260.92 6250.23 5960.56 4118.84 4020.95 6313.06 3474.39 3493.7 6470.3 4200.03 6939.12 5082.74 6915.83 5092.37 6444.77 7099.43 5526.14 4287.63 5198.29 5077.33 4746.52 3689.45 5572.95 6338.89 5584.06 5025.39 7111.16 5893.5 4547.19 5030.91 6022.17 5119.37 3982.23 4583.31 3459.9 4853.39 4997.27 4964.09 4093.08 4809.42 5024.9 4306.53 5659.17 5972.06 4312.67 5861.71 4359.04 3183.98 3794.63 5017.78 4524.28 6175.81 4727.24 6677.09 5826.64 4220.65 6820.42 4816.2 6321.41 4896.52 4089.76 4751.02 3192.41 5184.56 5282.64 4715.72 5804.71 5046.33 4764.96 4242.52 5053.92 6352.26 3847.38 3818.59 4863.72 4143.08 7500.97 6623.85 4262.82 5228.18 5102.36 4342.9 5065.11 5069.84 4051.44 4241.89 5054.74 5941.72 4656.78 5126.91 4788.58 5131.24 5196.67 5876.71 6262.72 3664.11 6515.84 2990.77 4739.14 4918.77 5187.7 4371.99 4188.3 5235.29 4479.94 4255.31 5453.3 6413.02 4863.27 5862.86 6049.79 5374.98 4719.7 4735.33 5411.85 4844.57 4027.46 6314.07 5315.4 6449.45 3975.31 4044.45 3824.16 5125.78 3868.18 4373.47 6723.16 5372.61 3686.21 3817.13 5507.24 5023.15 6851.54 4503.89 5806.08 5243.29 4449.22 5543.27 4717.05 5287.2 6135.57 5998.38 5013.13 5423.8 4270.24 4989.15 4164.13 5015.69 4947.52 4305.57 6959.81 4829.35 5201.67 3791.79 4424.7 4754.05 5526.55 6084.93 5215.15 4987.87 3315.57 4739.42 5020.12 5727.3 2631.9 5281.28 5356.51 4277.88 4087.15 3057.03 4758.21 7228.46 3948.23 5978.82 5787.31 3927.99 5868.82 4978.31 4050.9 4948.98 4099.77 4414.48 4537.32 4981.9 3600.43 4906.82 5687.83 5004.23 6496.67 5474.8 6607.87 5117.47 4721.32 4925.63 3293.56 5882.65 4434.19 4623.61 5511.6 6261.75 5177.64 6134.99 4094.73 4407.9 3492.19 4584.5 4440.57 5122.63 4703.08 2315.64 6345.13 5274.19 5516.95 4406.4 5313.22 4413.85 3999.94 4470.98 4864.22 5776.37 4516.28 3921.08 4190.31 3627.82 5678.96 5262.19 4244.9 5344.43 6070.58 5045.38 5350.88 5402.24 6480.17 4377.07 3844.9 3813.22 5101.59 3963.86 5570.3 3848.93 4336.42 4306.11 5935.47 7589.94 3130.65 5628.24 5856.11 3327.49 5992.26 4109.88 4234.94 3960.8 4562.29 4980.85 5080.66 3417.33 5110.45 4926.42 5248.77 4642.34 4083.97 4520.1 5153.74 5874.89 4293.03 5813.4 4389.21 4128.98 4925.44 6246.22 4951.47 5246.61 4307.28 3697.96 4723.48 5538.93 4899.11 4745.45 7267.18 6255.18 4668.71 5269.18 6362.14 6719.88 4454.63 5266.5 4523.88 3279.1 4066.38 4403.98 4560.84 5227.52 4729.43 4092.24 5163.02 4562.74 7144.24 5598.74 7493.3 6442.69 6320.71 4648.04 3464.83 6413.11 4305.16 3163.78 5092.28 5274.14 4903.82 5746.28 4152.85 4082.47 4453.64 4338.08 4517.73 4378.3 5469.47 4989.56 4718.54 6736.03 5548.29 6766.43 5916.16 4390.41 5226.56 5599.49 4097.57 3905.51 5017.5 5563.79 3901.8 6171.13 5759.46 5083.41 7055.42 6048.86 4285.32 5490.43 6034.41 5452.83 5130.91 4959.34 4948.5 4519.22 4527.02 6445.22 3695.36 4564.34 4871.44 5076.35 6020.48 3402.32 5200.05 5903.66 4528.49 5004.67 5365.89 5419.37 4466.03 4511.54 5070.39 4923.9 5714.58 3329.99 5208.32 3296.27 4713.25 4607.02 4204.84 6243.0 4528.09 3895.51 4165.81 3556.85 5441.96 6291.51 3435.9 5174.89 5882.89 5370.52 4188.32 4652.29 5774.81 4100.38 3746.31 5344.77 5027.98 5097.87 4278.07 6475.1 4969.21 2691.29 6256.02 5320.92 4305.43 4406.1 5450.44 5034.59 4942.77 4263.33 5080.18 5912.61 5381.16 6193.35 6086.96 5233.78 5776.57 5046.21 5683.26 5894.61 5139.5 5944.09 4814.55 3527.05 5698.77 2477.07 4497.31 5529.42 5257.12 4965.89 5659.95 5551.9 2908.7 6415.61 4687.64 4419.71 5660.16 3838.47 4541.8 2588.37 6235.57 3623.87 5412.31 3087.09 6934.37 6113.95 4050.08 5452.42 5328.22 2395.5 5511.88 4512.11 5486.68 5683.61 5100.25 5022.28 5197.52 5178.99 5383.07 4531.14 4591.87 5013.42 3838.56 6552.22 5651.07 6248.81 6375.99 5273.35 5234.29 5313.66 2651.49 5512.23 5275.32 5409.33 4898.94 5196.0 4613.31 4973.78 4733.04 3947.47 5091.68 7531.29 5069.25 5048.89 6673.96 3161.47 3991.03 6390.78 7435.25 4288.3 6826.57 4788.87 4495.87 6022.72 5498.32 5527.33 5346.27 4989.09 2845.98 4880.14 5289.52 5314.85 3848.54 5941.4 6510.17 5742.65 5592.32 4402.67 4470.61 5565.13 4384.88 3701.27 5653.9 4806.34 5612.21 4929.14 3979.54 5304.13 3306.14 5490.58 5833.06 4863.79 4923.41 3830.46 6031.67 5384.76 6138.12 4428.78 5243.43 4537.14 4345.67 4765.72 3757.34 4642.66 4752.14 5329.59 4888.12 5037.06 5512.16 5175.29 3197.63 5842.56 5887.15 7480.41 3423.15 4890.5 3981.07 3731.84 4901.07 5186.3 6853.85 3497.9 4151.76 5941.61 4020.4 5782.48 3493.47 6248.6 3836.45 5443.58 4558.46 5805.86 6894.26 4470.4 4986.51 5339.38 6169.11 5615.35 4790.78 6422.84 4247.15 4502.18 5379.09 4602.85 5872.05 4853.02 4091.8 4645.58 5181.4 5670.2 5985.29 4247.23 4178.15 4694.83 5509.42 6119.09 4354.08 5788.66 5936.36 3903.75 4755.47 5935.03 5475.8 5314.69 4249.46 5965.81 3702.37 5660.85 4643.31 2330.66 4177.19 6917.52 5402.21 3587.05 6718.19 4982.31 4307.48 4425.84 7256.35 5331.02 4871.96 4863.23 3555.86 4631.83 4996.99 6887.27 6008.49 4220.46 4287.53 5945.08 3169.67 4968.03 5395.14 4702.06 3967.48 6213.04 4689.15 3685.13 4655.16 5409.66 3867.19 5857.79 4039.91 5276.7 5036.58 6119.63 4950.97 4752.9 4287.16 4863.96 5191.08 5203.08 5374.07 5163.77 4588.7 4488.85 3766.55 4579.69 3554.48 6496.52 3436.15 5005.85 4216.17 6484.17 4721.02 4596.75 4933.65 4031.78 6098.1 5708.99 4049.02 5346.68 5311.03 5255.12 4896.11 4285.66 4027.09 5172.53 5801.99 5210.48 4962.77 7552.94 6259.23 5088.44 4998.21 4711.62 4114.24 4268.65 5349.31 4649.22 5394.55 5094.52 4256.43 4946.74 2682.24 4520.62 5928.32 5229.48 5475.7 4485.99 4016.18 5127.16 5435.74 4244.99 6050.81 5543.46 6185.89 3997.96 4750.17 3460.94 3990.25 3691.0 4752.51 6229.37 4236.14 4407.87 5282.91 3797.33 5945.89 4105.55 4800.69 6566.1 6065.22 6386.78 4456.39 4896.39 3633.79 6081.14 5480.83 4607.85 6070.3 5128.57 6000.7 5604.21 5204.04 3361.92 4750.58 6710.88 5235.11 6622.11 4590.55 6790.73 5920.32 5251.4 5097.69 3988.3 6543.13 5149.72 5464.25 5411.02 5301.47 4617.55 5199.44 4062.5 4435.51 5683.95 6027.62 5010.2 5966.61 5711.11 4938.72 4254.37 3374.08 3546.71 5768.57 5950.04 5687.85 5296.29 4611.53 2681.29 5094.48 3872.61 4238.4 4135.62 6132.95 5534.94 4860.33 7644.38 4051.34 6101.92 5323.3 3627.55 4635.6 4256.67 4662.56 3457.48 5166.79 2976.22 3405.98 5417.15 3688.16 4681.72 4945.39 5996.33 3950.63 5415.19 4612.62 3619.07 5526.75 4275.57 6385.23 5327.45 2983.99 5560.26 2614.4 6363.92 6205.93 4439.35 5830.72 6184.4 3758.07 3828.81 4373.45 4082.57 5733.62 5169.9 5282.51 4460.92 3004.16 4042.28 5235.17 4421.12 4779.5 4340.76 5254.49 4221.28 4303.19 5514.84 3914.2 5421.53 5937.08 4135.08 5620.74 5233.29 4778.82 4312.56 4612.06 5467.84 5053.95 5926.11 6667.68 5767.9 5211.38 5089.62 5869.4 4741.26 4186.6 4255.85 4732.09 6136.49 4356.25 4216.95 5776.96 5742.74 5486.48 4947.24 3645.12 5424.88 6200.54 5415.85 5148.58 4199.45 8659.64 5469.13 4233.8 5765.42 6123.03 4997.83 4575.94 5325.44 5021.88 5956.65 4498.25 5564.23 4188.87 3735.24 4231.83 2435.33 6401.43 4074.48 4558.47 5020.71 5997.88 5839.71 5576.92 4318.48 5266.22 3930.79 5226.97 3685.13 3312.06 6004.68 3361.26 6799.4 6239.84 5865.39 4427.28 3931.07 6079.11 6430.39 7440.72 3949.6 5703.6 6326.18 5661.62 6631.19 6648.68 4467.04 4713.74 5626.61 5817.25 4084.49 5061.98 6632.99 4537.6 4923.24 4419.61 7177.44 4563.46 5309.98 6553.94 5255.18 5460.65 4767.78 5463.41 5225.33 4929.75 4435.36 6649.96 5134.39 5784.3 4256.57 5442.32 6088.68 4643.56 4863.01 5657.36 6124.08 5029.47 6306.21 5266.01 5253.37 7016.27 6515.8 3685.65 3701.16 4916.22 6022.7 5895.77 5750.07 4809.67 4757.74 6045.67 4209.49 3946.28 3821.94 4244.21 5367.73 3875.05 3540.11 4652.01 3456.47 7234.66 6599.66 4055.54 4976.12 6098.95 5453.98 4893.49 3991.42 4388.63 5102.75 4200.09 4597.29 5931.77 5151.21 6574.95 6333.29 4477.04 5731.57 5703.74 5662.55 5737.92 6408.83 5365.24 4004.35 4763.96 5754.18 5180.76 3418.99 4480.95 5278.36 4409.63 5521.25 3661.9 3082.32 5370.85 5949.46 3658.37 3178.54 5376.71 4448.13 5070.29 4807.28 4867.08 4266.03 5280.69 4220.03 6923.84 5407.78 5449.46 6179.96 6113.54 5147.36 6260.79 3963.76 5528.53 6799.88 3062.43 5726.66 5426.78 5652.0 2967.38 4159.35 6477.91 4237.98 6439.37 6045.22 4614.3 3532.3 5580.92 5769.98 5973.33 5067.46 3583.21 2221.99 2511.46 3580.58 4011.37 2775.69 5356.79 4785.25 3619.79 5424.46 4857.84 2978.76 4908.49 2040.66 4962.21 5884.9 3876.21 4673.35 5689.26 4992.42 4940.84 4351.38 4833.46 5933.7 7248.4 5280.12 5984.81 5439.9 3498.16 4409.27 4640.06 5471.74 5421.64 3548.39 3673.28 4858.51 4207.54 4886.12 6419.12 6107.89 4817.16 5148.08 4834.87 5760.22 5938.17 4795.43 5398.64 5097.95 6817.57 3614.96 3886.68 6853.04 4745.43 5831.96 4747.55 4360.23 3056.7 3755.95 6234.32 5293.51 4446.06 3450.93 5008.63 5132.68 6595.03 4993.35 6218.95 5222.16 5107.23 5136.08 3776.94 5558.68 4765.02 4010.57 5629.39 2684.03 6157.04 4768.61 2261.36 5075.55 5506.19 6719.94 4950.67 5227.59 6166.29 5453.6 5703.07 5294.77 4662.43 4709.05 4630.82 4043.66 4813.08 4540.86 5990.52 4835.83 5604.35 6316.56 4332.87 3091.67 6420.81 4081.97 5401.99 5151.52 4347.74 4009.62 5291.9 2081.58 6505.78 5461.55 6519.43 5876.64 4684.44 4749.59 4858.44 3468.42 3809.69 5571.72 4771.13 5297.19 4184.23 5550.75 5466.33 4444.97 5721.05 4247.69 4514.39 4588.99 4321.21 4344.34 4928.27 3583.49 5052.84 3375.28 4366.74 5625.65 4301.61 3184.64 4446.84 5660.55 3718.69 4514.79 3672.21 2216.82 4509.89 6752.75 5269.38 5607.3 5108.06 3573.73 4693.52 4222.4 4000.43 3420.08 4912.04 4539.07 5464.68 5591.76 4586.19 4585.31 6625.18 5323.91 4270.74 6293.89 4558.15 2761.07 4983.39 5366.52 4690.55 5533.72 5533.42 4802.32 3678.08 4599.38 5246.47 4187.31 6191.29 4522.21 7422.36 5161.01 4298.15 4628.4 5832.37 4642.93 5409.63 4263.16 3077.84 6024.75 6109.49 5567.93 5860.67 5332.65 3764.1 6451.33 5413.31 6400.08 4743.59 5208.14 4715.58 3317.83 4450.7 3763.05 5092.24 5369.08 3101.75 4518.04 4766.06 4874.18 5435.19 3298.2 4270.15 6865.76 6449.64 6464.8 4406.05 4680.94 5799.69 5236.43 3208.96 5285.07 7051.9 4608.41 4144.57 4187.94 5980.59 6834.41 6226.14 3796.15 3000.29 7216.98 5271.02 4209.31 5718.28 6242.79 5950.45 5713.03 5849.65 5134.67 4165.21 5297.16 4936.96 5206.33 5530.49 5452.78 5653.03 5065.26 4304.41 6192.0 4940.28 5885.28 3004.34 3022.6 2928.82 4914.45 4811.76 4698.87 4568.41 4661.03 3624.7 4691.91 5262.35 4475.83 2685.81 4510.8 5889.35 5010.04 4394.56 4570.98 5097.45 4275.07 5825.38 4185.61 5737.75 4047.87 5742.47 3778.02 6552.21 5417.8 5146.37 7132.12 4836.16 5518.57 5151.11 5463.48 5730.33 3240.51 5545.46 4527.99 4376.7 5190.61 8325.01 6051.83 3764.06 4440.81 5941.9 3973.12 5434.47 6642.76 4497.78 4243.79 5987.42 5433.65 4442.22 4887.76 4669.06 3012.99 4811.32 4286.49 6184.88 5829.32 4396.25 5551.95 5549.49 3918.87 5423.42 2275.45 6605.86 5012.5 4383.56 3562.79 7093.13 4953.1 5818.95 4093.99 3604.14 3940.49 4452.54 5089.1 2711.19 5828.35 5876.72 4028.32 4099.92 4884.59 3858.06 4680.14 4083.79 5263.27 6300.92 5021.77 5599.29 4801.8 4807.4 7013.17 3805.67 4601.74 6506.86 5088.57 5580.34 3852.6 5775.31 4215.0 4603.5 4481.76 4647.67 4356.36 4892.44 5578.94 7610.49 4286.17 6579.31 5323.55 5375.1 5313.12 5351.56 5160.59 3984.88 4732.09 4320.42 4255.34 5064.79 5480.3 7509.24 4146.81 5896.26 5388.78 4573.72 5099.21 4917.99 5636.4 4367.78 4350.12 5227.02 5670.0 4232.16 5300.96 4344.51 5680.94 3781.77 5581.55 5193.01 4543.1 6550.44 3860.83 5732.27 4523.39 5278.56 6917.62 5829.22 4013.38 5631.14 4343.78 5811.18 4909.65 4008.15 7693.4 4326.48 4437.07 3449.37 5491.9 6405.0 4659.16 5789.55 4633.05 4901.2 5711.62 4990.79 5166.79 6479.39 2895.63 4516.53 4122.92 5079.22 5381.54 5810.77 5474.15 7519.2 6355.68 4511.7 4478.6 3953.55 4304.63 4469.54 4314.56 4173.54 3928.53 6038.68 5046.12 3834.47 6349.67 4590.01 6101.86 5993.0 4803.57 5966.42 4110.59 4706.5 3332.49 5354.66 4214.44 5375.12 4787.97 3746.36 6789.23 4777.03 3684.56 4246.61 6028.09 5452.36 4172.6 3804.5 6486.37 5498.42 5318.53 3344.57 4281.98 7165.9 5344.83 3427.63 4863.97 6342.48 6101.13 5756.75 5599.7 6969.28 3665.95 5698.96 4095.75 3603.51 4298.45 5222.51 6609.84 5135.96 3834.43 5658.37 4707.06 6074.94 3474.5 5491.37 4250.88 3783.54 6348.03 3475.67 4792.39 7038.89 5146.37 5067.56 6137.8 2735.53 5263.3 3352.35 3747.03 6523.86 2783.85 4356.49 3994.07 4219.94 5907.46 4264.91 5399.29 4909.31 6522.59 4798.17 3568.28 5425.98 5996.66 4405.42 4997.91 2995.67 3598.08 4599.81 5698.23 7300.58 4714.83 3608.06 6633.61 5484.36 4277.24 4063.9 5291.05 5161.1 4619.2 5606.51 5166.41 5740.65 5067.56 6329.53 4139.3 6541.45 4227.41 4750.49 5078.31 5391.48 4923.43 5131.15 4847.14 3950.27 5116.66 5378.23 3566.79 5374.67 4981.43 3989.7 5069.89 4215.2 4157.29 6813.72 5327.75 4609.02 4638.18 4196.37 6448.66 5220.76 4453.97 6945.98 5138.2 7046.11 5783.48 4449.98 4504.35 4840.44 5093.82 4587.67 5951.81 4163.74 3924.14 4296.69 6238.32 3319.67 6471.42 5283.8 4076.59 4428.14 5164.1 6464.15 4479.11 4972.17 6685.4 5699.53 4222.77 6332.01 5268.38 5527.23 4805.33 3863.67 5980.95 4814.12 6193.08 6069.3 5887.01 5116.6 5388.39 5335.47 5633.61 4526.81 5048.19 6799.23 4888.27 6740.71 6487.56 4854.11 5971.22 5533.19 5417.21 6602.43 5583.61 6063.64 7382.3 5522.21 3772.3 4855.01 4923.57 3340.09 5217.95 4867.7 2279.05 4829.35 4075.28 8137.11 5484.32 6650.77 4067.96 7104.73 2596.96 5701.75 4350.15 3516.27 4263.78 4643.9 5228.75 6047.14 5009.83 5210.38 5717.8 3629.44 5003.78 3299.24 6246.56 4741.28 4061.6 2603.64 5107.0 6212.15 4783.07 4896.65 4946.23 6083.28 5211.6 3556.79 5806.31 3503.41 4701.5 7001.83 4771.65 5012.97 5589.37 5439.49 6918.35 4834.3 6804.79 6372.13 5369.5 5404.01 6016.19 4124.49 3230.13 5714.25 5325.96 4850.06 7044.29 4234.18 4049.16 7085.01 3936.95 6153.94 6836.82 3862.77 4631.99 5168.35 3185.39 3728.18 7122.87 5797.36 4243.26 4153.84 5119.86 4592.15 5084.17 4901.44 4998.22 5096.43 6156.21 6104.26 6171.71 4986.71 4668.88 4022.56 5027.43 5522.75 5867.64 6208.9 6059.93 5602.53 6061.63 6545.43 6760.92 4711.04 4506.18 4824.12 6162.3 3272.75 5971.21 4264.54 7043.44 6502.97 4852.58 5456.71 7317.04 6412.67 4036.91 6639.64 5212.43 5454.12 6348.54 4066.57 5642.35 5156.76 6357.47 6101.57 4891.38 5535.91 5955.86 6176.67 4848.46 5412.24 5016.02 2779.99 4920.21 4581.37 6942.34 5851.61 5478.11 5526.31 3858.17 5030.15 4740.98 5128.77 5089.26 3776.8 2460.79 4653.83 3628.89 6589.82 4438.58 5073.02 3472.91 4989.2 7144.05 2970.9 6542.5 4383.47 6318.23 4206.98 4058.87 5174.75 5932.07 4984.46 5948.71 4793.65 2949.12 3856.53 4532.89 5460.89 4533.37 5260.85 5742.09 2884.65 5887.38 5807.46 4648.21 3658.05 4393.16 4549.69 6423.81 6192.77 6413.15 6103.11 5048.55 6459.51 4024.31 5844.72 3992.97 5989.05 6040.74 4054.22 7228.94 5393.65 4961.99 6551.93 4595.12 3311.29 3110.13 6484.43 4625.67 3485.54 6735.97 5305.59 5416.45 4330.58 5754.6 4955.16 3288.01 4904.51 4147.31 2202.77 5751.15 5950.88 4149.55 4441.22 5853.89 3380.69 4140.4 4386.8 5446.4 4725.01 5966.75 3104.96 5244.78 3636.15 6114.89 5135.63 6384.7 4355.83 6870.97 5351.86 6056.87 5474.01 6201.86 7554.58 5166.89 3639.44 5491.63 5725.37 3868.62 5138.33 3477.1 4729.42 5216.26 4844.83 5377.37 5652.87 5483.7 5018.69 3152.86 5952.38 3896.27 5807.52 5963.36 5230.02 5307.35 4342.18 5169.48 6016.08 4731.21 3124.7 6064.71 6102.98 5096.24 5769.14 3381.82 4831.93 4023.93 5494.28 5493.89 5261.19 4811.22 4918.76 4208.41 3758.22 4268.19 4788.08 6379.14 3687.65 5478.95 4749.96 4658.24 5869.67 4311.48 4899.73 5457.66 6394.19 5973.89 5366.22 6193.73 5518.11 5087.14 5712.35 5701.52 4743.9 6776.22 5321.17 3719.11 4467.13 6060.17 5934.82 4501.78 5415.45 4385.81 6592.93 6350.71 7107.63 5868.89 4099.26 5206.47 4834.39 3831.52 6106.43 6761.81 5467.63 5826.78 2856.55 6214.73 4553.68 4532.7 3205.68 5561.74 6100.73 4908.75 6556.26 3971.08 4593.7 4349.13 6818.91 3634.5 3851.85 4019.34 4869.48 3623.19 4906.11 4387.39 4564.1 5825.55 5509.51 4848.14 3199.4 4316.5 5254.24 3742.11 4192.21 3597.43 5144.56 4158.91 5311.55 3360.86 3034.16 4869.25 5545.21 3877.8 6418.11 4922.49 3572.94 5001.58 6456.58 5039.12 4824.81 7307.21 5135.5 5615.84 5788.97 3274.85 5007.21 5545.59 4580.06 4835.97 4057.17 7066.96 4587.7 4263.65 5644.81 5666.95 4127.53 4642.2 5210.75 5175.89 5361.87 5232.85 4374.74 5975.23 6816.66 4473.29 4745.79 6204.65 4482.9 6550.4 5513.8 3503.65 4887.52 5350.88 4392.65 5429.3 5510.96 6653.07 4745.16 4697.91 4584.81 5071.98 5719.79 4371.08 7261.51 4968.14 4914.03 5086.29 5527.13 5139.18 4278.57 5551.43 5049.99 4201.03 4333.87 4458.64 5001.87 4312.15 3657.69 6015.02 4820.17 5244.98 3814.65 3886.72 4034.05 5798.38 6436.74 5366.11 3419.87 4384.28 3908.98 5944.3 6328.42 5640.72 3619.72 4565.93 4504.52 4464.73 6440.38 5610.53 6419.64 5262.47 4991.35 5196.92 4807.35 4568.64 6555.44 5293.75 6358.93 2205.51 3894.64 3703.49 5144.44 4757.2 5034.69 5079.64 4211.82 5470.04 4891.67 4882.66 6631.28 6571.31 4944.51 5603.68 5610.95 5532.72 3220.8 5179.17 5579.39 5270.51 5148.1 5224.64 5949.73 4312.48 6370.33 5081.08 6318.25 6864.06 3644.78 4883.63 4078.93 7039.98 6006.89 7778.01 5127.82 5690.96 5805.1 3862.91 4456.26 4027.33 5113.6 3563.14 5851.63 5556.0 4954.81 5755.15 4608.34 3926.11 5464.83 5414.58 2781.96 3512.94 4467.0 4994.65 5601.55 5334.36 3919.62 4929.6 5750.35 4489.99 3683.86 5658.14 5473.72 7124.45 2617.39 4062.56 4198.94 3217.67 6163.54 6003.78 5684.25 5438.92 3766.69 5110.11 5188.53 4521.75 4813.33 4027.63 5635.32 4526.34 4316.45 5042.75 4598.92 5241.22 6647.08 4979.52 5490.75 3422.29 4407.79 5214.63 3495.68 5783.94 5352.24 7362.42 4202.77 5836.14 5473.05 6008.81 5510.9 4583.52 4505.28 3492.83 6280.13 5244.22 5585.14 4960.64 5792.98 4983.3 5910.86 6239.68 4456.11 5782.43 4810.98 4708.31 5026.76 5091.22 6282.38 5727.79 5212.92 5043.14 5748.9 3742.31 5695.79 4420.6 3622.8 4431.23 4258.98 6545.99 3903.91 4368.28 4945.0 4548.45 5730.61 5114.07 4508.18 5064.67 3717.47 4504.86 5969.37 4928.35 4509.46 3844.54 5212.37 3538.53 996.652 6500.49 5058.51 4244.49 5036.98 4120.07 3840.21 5569.2 6746.66 5420.67 4827.61 5285.75 5409.08 5481.64 5673.75 5360.67 6263.3 4501.05 4537.03 6548.29 3990.96 4114.2 4326.06 5034.46 5757.29 5793.12 5469.17 5061.75 4373.2 6711.21 4971.29 5832.29 2606.51 4438.76 5401.4 5053.15 5124.17 5749.6 7320.78 4234.88 4834.44 3873.92 4092.07 5347.9 5657.55 5188.82 4717.73 4928.85 5072.5 4749.18 3663.0 4546.96 4316.0 6304.49 5134.72 4475.38 5287.25 5917.34 5740.98 5630.9 4728.55 4554.68 4658.11 4551.26 7142.95 4559.74 4383.68 6618.21 6666.67 6200.63 4583.94 1937.5 5046.31 4337.32 2628.22 5965.58 3352.34 4901.29 4050.03 4952.52 3429.57 5410.33 5661.6 6099.28 5372.25 5385.03 4169.15 3234.26 4778.37 5134.17 5968.54 4904.35 5592.54 3247.97 5124.34 4904.37 4358.81 4651.64 5729.92 5016.46 6224.13 4761.84 3769.24 3661.67 3743.76 5153.18 3425.69 5510.45 3864.92 6119.99 4159.81 4446.58 5372.82 4402.17 4775.49 4681.29 3845.9 4174.44 6331.74 4213.05 4224.3 5235.87 6502.99 5424.55 4770.51 6511.37 3787.08 4462.87 4218.16 6139.64 4140.92 4474.83 4585.04 6570.35 4242.63 7407.91 6063.44 4051.18 5849.53 4680.69 4420.11 5863.0 4802.98 4833.55 7224.99 3242.31 4898.29 4431.06 5730.2 4830.13 3494.16 5370.9 4074.16 4529.77 4325.13 6172.27 5390.33 5078.73 5278.54 5729.0 5192.92 5275.57 4179.87 4786.66 5891.25 5370.1 5393.76 3684.15 4730.14 3994.39 5906.57 7541.76 4990.23 5499.59 5667.51 4198.9 5431.29 4833.67 5325.91 5157.38 6203.03 4700.07 5273.37 4732.37 3904.07 5713.36 5553.94 4704.92 4287.25 4392.75 4921.1 3814.16 4191.01 5577.41 4216.44 4012.92 4346.07 4933.49 4692.32 5236.24 3127.83 3269.54 5836.26 6015.22 4651.99 6127.39 5640.12 4972.18 5329.76 4124.76 7200.89 3908.56 5265.63 5684.88 6523.78 4645.86 5620.88 4941.52 5900.0 4262.74 6241.77 3783.79 4248.14 5317.19 5279.19 4016.6 5821.49 7050.08 5580.44 5998.13 5902.67 5454.11 4236.86 6010.59 7123.04 4128.1 4932.29 3784.94 4506.66 4439.71 4141.21 4064.58 4646.51 4546.44 4184.21 6089.45 4985.3 3987.69 6219.34 4589.06 4920.88 3999.5 4013.86 4177.47 6102.49 5114.23 6061.85 6449.06 5241.75 4731.53 4577.73 4288.45 4147.49 5419.57 5760.98 4954.76 4642.74 5764.52 4390.64 5150.84 4608.01 4045.67 5087.97 6005.95 4308.49 4930.17 4581.1 4085.96 4745.44 5762.82 7360.12 6223.98 5462.6 5617.29 3035.06 4262.19 4597.88 5095.52 4763.4 5806.61 2955.36 4618.73 3965.3 3220.29 4125.9 5426.4 5951.86 5023.41 3791.41 952.938 5702.4 5473.89 5265.21 4657.24 4966.07 4400.14 4666.12 2918.64 5345.73 4770.63 4639.8 5678.58 4385.49 4263.18 5495.0 5512.44 4454.74 4826.52 2904.46 5120.92 4685.4 3763.9 4081.34 5384.86 3770.22 3402.44 4848.98 5184.98 4491.96 4467.51 5339.82 4519.03 5460.57 5110.27 5703.34 4612.68 6668.98 6649.52 4232.33 4939.56 4747.68 5770.92 3093.38 4878.93 2002.78 4941.02 5784.37 3682.35 3142.09 5182.13 6110.48 5515.73 6715.73 4564.41 5247.01 5853.12 4841.7 4678.7 5810.17 3450.07 4271.07 5674.63 5340.05 5759.79 4212.15 4489.29 4301.93 4924.07 3200.6 4918.64 6206.98 6638.25 4775.04 5162.67 4636.53 3646.95 5537.61 6084.88 4199.44 4397.06 4053.12 4479.5 6261.67 3435.13 5065.78 4431.46 4521.42 3207.84 3977.98 6043.34 4128.93 4959.72 4712.17 4845.91 3808.04 4723.71 4461.67 5003.3 3756.96 3954.77 6793.1 6016.87 5209.55 3306.84 3484.81 5308.33 6023.07 6710.14 4598.54 5218.42 4896.43 4462.35 5146.0 4788.7 5078.59 4607.18 2403.72 3228.27 4721.98 5252.82 3543.98 5056.26 5878.55 4014.44 6604.72 6002.77 3794.47 4610.55 4967.02 4614.49 5400.69 4462.5 5573.31 5004.68 4023.88 4405.61 5348.11 6273.6 3668.93 4009.24 6245.52 5077.29 3125.13 6740.35 4550.92 6506.63 5995.4 5188.22 4841.23 4512.07 4196.62 5984.8 3986.41 3469.18 6347.72 6240.42 3956.24 6334.53 7558.99 4142.1 3393.59 5043.14 5333.04 5445.91 4521.99 4812.59 6842.54 7115.67 5675.45 3361.11 6038.56 2807.46 5599.16 4179.8 3488.34 5658.35 5428.24 5684.05 4708.17 5167.53 5800.81 5166.05 7035.54 5866.91 4208.37 6019.35 6075.99 5191.26 4184.47 2804.54 3372.95 5819.0 3460.93 5580.95 3549.92 6598.99 4032.06 5246.81 5089.1 5888.95 5394.78 3463.34 5122.38 2853.68 5262.85 5329.84 4998.37 6559.82 3879.83 6565.95 4577.98 5043.34 5886.81 5136.87 2741.2 3779.45 6405.69 5763.05 5357.39 4252.18 6296.54 5797.21 3669.32 5700.79 3825.48 5124.86 4629.02 4927.73 4705.68 5469.35 5117.64 4313.38 5250.56 2468.16 3633.58 6294.14 4339.97 5203.75 5169.09 4691.15 2459.88 5470.67 4210.24 5901.71 5342.9 5225.11 5252.22 5733.12 4962.35 6436.29 7350.26 7145.73 4168.52 5233.76 4659.88 5685.74 4762.1 3495.3 5890.25 2832.83 5827.3 6036.99 4084.87 3010.1 3825.98 4589.22 5087.03 4667.84 3906.41 4123.08 4512.6 4260.38 4636.45 4932.27 5638.51 6793.49 3563.33 6060.19 6786.37 5591.77 4556.19 5106.46 6562.92 3612.44 4140.04 5766.05 4474.96 4758.76 4790.63 5259.29 3584.05 4916.75 4818.53 5097.85 5584.64 6189.04 6224.64 4221.03 3799.55 5082.66 4550.77 4337.93 3550.88 5536.0 4345.51 4048.73 5813.79 4644.88 5790.42 4068.31 4850.5 4683.28 4658.59 5532.75 6949.65 4608.62 5407.96 5367.05 4449.73 5647.11 4088.72 3945.62 3743.85 6236.46 5342.17 6379.3 5015.67 3795.63 5189.4 4576.71 6538.04 4894.15 6157.59 5201.3 5848.41 6223.33 4090.28 5024.32 3671.06 4176.32 3185.09 3587.93 5064.23 5721.14 5084.5 4987.28 4071.75 6562.03 4246.83 4493.79 4932.56 4279.44 2945.34 5676.61 6006.16 3565.32 5638.7 3667.93 3487.31 5399.43 5710.33 4096.86 3835.81 5695.44 4668.8 5322.11 4697.49 5735.08 4726.2 5034.05 4816.51 4711.15 4474.39 3810.68 6478.35 3990.94 4756.8 5477.8 5463.06 6069.78 5260.52 4241.68 4975.85 4095.83 5323.95 5846.95 5716.42 5268.15 5701.63 4603.04 4620.95 4870.94 5368.93 4488.39 6121.56 5914.5 4602.57 3419.07 3622.48 4796.12 5344.44 6432.8 4626.72 5131.77 5549.71 4815.47 4759.99 3899.7 5134.33 5214.4 2646.13 3629.49 5034.34 3769.2 3422.21 3916.42 5537.34 5884.99 5192.49 4899.19 6643.4 5058.34 4028.22 5575.11 4983.1 5293.13 4507.36 6224.85 6406.8 5403.97 4795.08 5648.78 6875.73 5501.73 6081.3 4697.24 4983.43 5117.52 6311.89 6549.8 2820.07 5129.68 4825.73 5076.84 4165.36 5288.33 4871.77 5811.26 5062.77 4884.93 5069.9 6028.63 3673.6 4494.15 5146.1 6215.87 6485.77 6060.06 5866.42 5544.27 5393.43 6896.55 4685.65 5377.01 6470.23 5939.22 4271.93 4215.05 3626.86 5125.17 4604.1 6371.96 4859.01 5076.11 5524.45 7133.44 4426.02 5600.21 3953.26 4750.81 4282.11 5467.51 5459.92 2347.41 4625.53 5453.77 4096.47 4357.11 5114.67 2809.19 5005.6 4916.7 5486.89 5589.53 7208.19 4549.51 5025.42 5196.08 4517.29 6379.38 5695.25 6257.79 4495.75 4849.5 6171.01 6229.83 5796.26 4468.26 4523.81 5578.18 5106.33 5791.25 5293.37 5198.94 5271.88 4028.35 5933.54 5559.79 7168.2 2980.31 3763.85 3148.79 4571.74 5740.78 5997.91 5001.51 4332.64 4742.82 5385.86 5115.42 3186.07 4082.4 4209.0 4410.82 4369.86 4967.51 4368.12 5173.82 6443.99 4365.58 3889.98 5193.58 3720.7 5490.64 5378.24 5698.53 3604.31 4507.46 4450.49 5036.14 3468.45 6022.78 4087.32 6647.85 5726.42 2569.12 4674.9 7025.09 3392.26 4433.12 3918.94 2549.95 5461.72 4361.24 5487.63 3768.46 3852.82 5138.93 5099.9 6945.69 5118.86 7086.69 5368.66 4304.64 6170.9 5833.78 4436.48 5226.42 5758.98 5615.35 3967.76 5288.64 6213.24 6734.39 4217.36 5679.74 5942.45 4150.76 4851.18 4228.53 6123.46 5005.72 5368.52 6142.88 5155.28 5111.26 5388.73 5205.38 4949.55 4764.83 1969.87 3132.34 4600.71 3957.38 4841.28 5262.79 5927.2 5035.71 6889.5 4710.88 4419.79 5300.17 5407.69 3869.39 5152.78 5960.5 5534.23 4117.9 4753.76 6025.77 4781.9 4638.09 6815.96 4441.91 5330.26 5339.6 5828.25 5917.08 4725.11 5483.37 5418.12 5322.07 5934.05 5770.07 4714.66 5990.75 5101.6 4984.17 4656.01 5781.62 6589.13 4037.86 5602.62 2030.03 3543.37 4542.16 5714.51 5628.97 4104.04 5353.66 2638.82 5030.33 5593.79 5104.39 5234.2 4612.13 4965.24 5846.6 5327.05 5438.55 5353.23 4434.65 6688.53 5977.66 5209.5 5065.74 4873.23 6731.89 5464.05 4733.41 5879.24 5410.6 5453.2 6348.93 5136.51 3901.53 6824.53 6815.51 5232.16 4422.23 6791.86 3989.26 6031.22 4820.68 4930.72 5482.76 5728.58 3745.02 7212.97 6297.99 4211.36 5918.95 3856.73 4538.89 5817.74 5887.71 5517.65 4009.68 5114.51 3303.49 4622.73 4655.37 4161.32 5256.75 5161.74 7336.37 5932.28 6599.28 5560.23 2960.5 5783.38 4975.32 3043.77 4298.7 3902.48 5237.55 4183.4 3909.94 6030.39 4733.79 4905.53 3799.01 4823.06 7392.65 5254.49 5319.1 3757.23 6828.8 6883.86 5987.88 3579.59 6161.94 4065.28 5057.59 4461.14 5285.6 5575.11 4574.54 5615.06 5490.54 5203.54 4047.95 5507.38 6142.94 4416.87 5001.69 6581.56 4052.43 4057.4 3980.46 4896.67 5383.9 3934.11 5158.44 3886.56 4466.22 4496.51 5715.51 6153.71 6561.94 5259.21 5092.93 4256.08 2803.01 5881.93 4444.0 6771.18 6182.19 5327.39 5910.66 7415.84 4981.81 4138.59 4970.55 4938.33 4484.78 4621.33 5527.27 5157.73 5847.91 4934.66 4984.01 4109.44 4903.84 4290.49 4557.1 4605.39 5927.1 6270.59 6175.27 5876.51 4103.76 4907.55 4286.61 4094.63 2932.52 5264.83 4603.66 4757.87 4969.68 6636.43 5431.14 6298.8 5313.86 4457.05 5178.07 5189.91 3618.64 5777.26 4171.02 5485.84 6424.77 4887.73 4335.79 5453.69 5797.32 5432.04 5689.56 6556.86 3921.27 5129.4 4746.15 3720.38 4758.84 5585.25 4731.37 5023.61 3976.0 6351.89 4672.86 6530.78 5059.37 4742.35 5394.79 4139.39 5645.54 6264.03 5088.64 4526.87 6589.8 4151.74 6920.92 4174.22 3729.16 3783.36 3573.84 3038.91 4181.93 3922.28 6570.43 3350.99 3820.19 3445.92 5236.69 4979.5 5524.28 4586.82 3133.28 4745.37 5939.29 6026.04 6200.05 5418.98 5859.17 4034.41 4052.49 5061.74 5522.34 5326.03 6189.67 4420.35 5717.45 4948.96 5256.82 4013.86 4061.87 4645.93 5165.31 5448.64 3798.09 4585.37 4288.5 6417.61 3721.69 4511.05 3456.3 6074.39 5317.83 6738.9 4399.52 4460.89 4554.24 4157.1 3939.96 8052.53 4867.12 6044.01 6520.19 4637.3 5141.03 1458.87 5734.07 4840.44 8123.59 3997.68 4819.83 5765.14 4801.16 4767.54 4541.22 4946.08 3539.68 5121.08 4696.03 6217.33 6177.68 4698.7 2848.44 6229.64 6045.26 4220.43 6500.45 5743.8 5084.76 6666.34 6605.11 4645.91 6834.92 3557.46 6379.33 5971.95 5652.73 3689.24 3979.46 6321.97 5151.19 6412.84 6509.54 5703.84 7012.36 3530.82 5128.59 5028.06 4002.99 4886.99 5159.67 5587.3 3161.1 3572.73 4864.38 3702.45 6275.25 6892.33 4505.3 4491.26 4452.36 4511.34 4068.41 6463.71 5009.21 4574.03 4379.91 5290.37 5850.38 5264.08 3562.8 4227.66 4730.97 4691.01 4594.89 5192.82 5245.95 5821.42 4067.89 4515.02 6294.09 4924.52 4571.57 5131.07 4121.07 2970.24 4197.87 5658.05 5105.54 5731.43 6353.81 3414.67 3518.14 5444.36 4150.44 5044.68 5771.98 2649.69 5899.78 5000.74 5117.83 5772.57 5268.27 4813.81 3882.37 4095.4 5244.95 4634.25 5901.8 6351.48 5395.12 5783.69 3830.7 6210.0 5432.4 3483.61 5350.9 4262.52 7430.48 5992.06 5545.68 6080.69 4970.12 4967.93 6369.66 5973.57 5922.62 6241.48 6033.28 5957.82 6286.27 5071.38 3717.22 6327.54 5616.66 2927.84 5688.77 4802.36 2943.17 5368.28 5466.13 5257.38 6263.87 5075.23 4975.56 7282.36 3826.01 4829.77 5581.01 3928.99 6959.88 4125.75 5749.53 5130.57 5090.48 5402.45 5582.28 3985.93 5945.25 6071.59 2589.19 6119.0 3856.4 3792.06 6079.55 5485.61 4993.49 4937.36 4293.3 5308.4 5310.33 6583.37 3688.83 5631.32 6126.5 6322.0 5793.14 6345.2 4609.65 5488.96 5704.61 4832.21 3720.92 5128.03 5410.73 5087.3 4942.63 6139.74 6637.38 4975.57 7066.26 3057.3 6150.31 3677.85 5214.71 4677.84 4811.11 3463.53 5379.52 6126.03 5314.67 6044.69 5563.47 5651.46 6593.1 4066.36 4000.51 5462.1 6032.45 5011.37 2827.92 4026.03 6908.32 3467.11 4817.75 6153.26 4848.15 5637.53 4439.09 5523.81 5648.59 4718.61 5188.57 3873.79 5717.67 5357.33 4432.32 5515.59 5252.37 3224.81 4499.54 5037.58 6457.89 5640.67 6572.17 3751.73 5555.89 4766.47 4871.1 5678.08 3917.09 6009.93 5872.45 4414.09 5270.1 5125.45 3784.68 4188.16 4947.64 6305.9 6649.21 5507.07 4654.92 5327.71 4880.78 4322.56 5509.09 5625.02 3873.72 5212.05 4592.49 5479.86 6474.5 4444.92 4702.32 4763.04 5971.9 3746.62 5247.73 4876.37 4532.67 5034.02 4769.62 5260.13 4649.5 5181.31 5985.75 4696.06 4137.16 6189.29 5984.55 6581.13 4569.32 4034.88 5108.84 3511.5 6007.1 5067.92 5357.14 3188.21 4850.95 5919.27 4793.06 6271.22 3421.81 6188.33 3920.64 6111.23 6916.18 5786.06 5873.62 3868.69 4996.91 3920.44 4450.51 6033.72 4866.8 3768.62 3851.47 4966.74 2329.93 4959.94 1635.31 5639.4 3162.27 6033.93 6185.73 4083.24 5516.37 5092.44 4441.44 5432.2 4232.44 4612.4 5336.61 3312.3 5563.09 6381.58 3282.57 5212.2 4798.13 4611.21 5108.42 6697.45 4630.5 6296.36 3354.94 5237.27 4451.76 7885.41 3775.38 4046.22 5782.25 4104.97 4844.2 4575.72 5114.61 6118.13 3374.62 4926.62 4420.3 6332.64 4202.12 6492.44 4613.32 4083.1 3482.73 5191.29 5130.56 4957.99 4063.26 5345.05 4997.89 4542.62 3470.69 4859.95 5286.55 4132.08 5522.18 5223.1 4699.77 4850.49 4981.55 5144.23 3625.98 6188.62 6153.07 4414.06 5908.57 5944.52 4413.56 5050.2 5316.05 2513.38 4821.41 4908.32 4924.53 3995.08 4499.52 5019.84 3874.12 4810.74 3900.93 5784.38 5475.83 4149.17 4329.8 5728.27 5672.46 5803.3 4582.12 4487.51 4295.25 4520.14 5354.48 7394.47 4729.45 6261.13 5374.09 4167.55 4720.34 5244.47 5378.75 4731.16 5510.89 6186.24 5822.7 3780.07 4137.41 4159.89 5466.49 5178.55 5447.74 4038.17 5007.41 4907.48 3692.99 6213.74 4488.41 4369.87 6938.87 5412.07 5512.57 4806.99 6520.96 3771.91 5856.43 5217.62 6178.19 4746.19 4616.81 5349.85 5715.25 5172.1 4362.94 4469.82 6545.78 4870.14 4404.87 5105.72 5767.65 4750.76 5003.49 4907.03 5497.27 4081.77 5617.91 4948.21 2181.29 4987.01 4706.31 2694.25 6265.48 4735.99 4203.68 4739.56 5145.39 3818.37 3996.93 3352.46 6351.95 5195.09 5200.1 7679.2 5093.28 4881.51 6131.52 4311.92 2626.41 6009.88 6729.99 5093.41 6842.35 5464.34 3621.63 4777.96 5801.89 6833.5 7296.47 5742.39 4780.16 3834.01 5616.11 4433.23 4813.24 4028.13 5759.19 4457.73 6476.35 3113.64 4304.75 6260.58 4067.24 3053.19 5202.33 3074.49 4246.24 6805.02 4919.13 5640.63 4900.26 5783.88 5002.38 6705.93 4865.11 5449.09 5502.14 6470.87 4495.33 5282.67 4131.08 5747.9 3864.19 4287.93 5146.69 6203.24 6818.23 5081.65 6679.12 5652.19 5806.74 3878.8 6578.62 4813.55 3465.03 4796.04 3839.0 5229.56 6011.4 5799.86 4672.34 6052.22 5376.41 5410.33 5533.52 5003.63 4747.24 2932.2 4695.7 4380.86 4944.08 4082.01 5269.39 3964.03 4216.33 5832.72 3903.9 4444.95 4721.2 5161.02 3943.77 3124.49 5242.38 6081.35 5003.81 6262.18 5566.5 4701.03 5663.36 6225.05 5434.04 5125.53 3997.52 4444.54 5403.81 5779.9 4909.74 5310.33 6664.54 3922.98 5161.73 5259.48 4008.67 5254.93 4803.4 6608.94 2613.78 3796.73 5417.07 5656.84 5738.37 6789.66 4739.41 5312.2 5847.27 4490.2 4706.59 5734.84 5480.86 6139.9 3982.31 4950.07 6571.26 5402.81 4328.76 4600.81 5561.63 4124.33 5168.97 4358.06 5093.51 5647.93 4280.92 6201.49 4696.92 5154.74 4605.61 4465.56 6898.8 5386.95 6540.57 5332.11 5315.71 6004.72 6158.93 4823.14 5438.5 4489.18 4621.32 5699.4 5237.76 4698.94 4286.84 6284.12 3948.21 5669.15 5296.05 3330.85 5263.86 6988.4 5056.32 4060.17 6051.35 5302.53 4909.13 5576.16 4305.35 5648.02 3308.75 5210.22 2451.27 5677.42 2701.42 4929.35 5606.22 6673.92 5151.68 4884.94 5459.52 4609.98 4738.72 4752.31 5240.97 4276.59 5579.04 5405.6 5994.21 4884.93 5082.25 4759.38 6964.78 4374.05 5299.03 5036.84 4565.36 5813.68 4025.08 5040.9 3618.53 5596.68 4770.21 4868.66 8013.28 3846.55 5159.9 5283.65 4644.68 3082.16 2892.36 5981.54 5911.29 5416.41 4694.27 6760.64 2515.5 5177.88 5551.79 6981.47 4720.22 4582.24 4333.23 5145.13 3747.96 5611.29 5940.5 6568.45 5004.22 4601.54 7263.57 3832.09 5705.96 6437.99 5739.69 6632.04 7360.62 4893.72 4985.45 4072.4 4983.56 5373.78 5699.51 4714.52 5345.65 2489.44 5499.37 5863.36 4632.75 4752.94 4994.98 3950.53 6423.96 6058.13 5894.69 4384.91 6550.61 4987.01 6635.51 6094.34 6779.82 5543.67 3999.81 4287.61 4867.13 4604.34 4439.17 4502.12 3255.93 5442.79 5051.39 6327.61 4633.59 5733.59 5362.15 4455.61 3695.72 6874.6 5106.9 5569.85 5523.96 3929.35 4223.53 4733.37 6960.97 3037.72 4287.15 4523.9 5282.51 5504.65 5669.41 5732.11 3760.4 3919.47 4951.02 4602.7 3783.35 4037.16 4004.39 6395.63 4987.48 5943.61 4248.58 5479.17 5020.37 4542.25 4414.23 5233.88 4849.21 4785.55 3793.83 5245.4 3916.15 6189.81 3860.8 5438.6 7370.52 4726.5 5467.05 4521.88 3724.23 5103.3 4963.88 5888.94 4727.98 4122.2 5175.88 5267.65 4516.26 4790.16 3509.34 3647.26 5360.88 3166.37 4977.64 5369.42 5207.08 5205.53 4587.19 5543.05 4883.13 6028.89 4836.76 5551.09 5755.98 5392.85 4501.1 5581.47 5077.2 4274.05 5275.27 4277.54 4713.56 5529.09 4531.46 5925.82 5448.68 4739.5 6210.48 6377.45 4863.27 4182.05 6853.07 5575.8 5268.93 5306.31 4535.94 5126.08 5604.0 3731.58 5333.16 4888.17 4072.95 4491.62 3865.5 
SCALARS Velocity float 1
LOOKUP_TABLE default
1.19178 1.19178 1.19178 1.19178 1.19178 1.19178 1.19178 1.19178 1.19178 1.19178 1.19178 1.19178 1.19178 1.19178 1.19178 1.19179 1.19178 1.19178 1.19179 1.19178 1.19178 1.19178 1.19178 1.19178 1.19178 1.19178 1.19178 1.19178 1.19178 1.19178 1.19178 1.19178 1.19178 1.19178 1.19178 1.19178 1.19178 1.19178 1.19178 1.19178 1.19178 1.19178 1.19178 1.19178 1.19178 1.19178 1.19178 1.19178 1.19178 1.19178 1.19178 1.19178 1.19178 1.19178 1.19178 1.19178 1.19178 1.19178 1.19178 1.19178 1.19178 1.19178 1.19178 1.19178 1.19178 1.19178 1.19178 1.19178 1.19178 1.19178 1.19178 1.19178 1.19178 1.19178 1.19178 1.19178 1.19178 1.19178 1.19178 1.19178 1.19178 1.19178 1.19178 1.19178 1.19178 1.19178 1.19178 1.19178 1.19178 1.19178 1.19179 1.19179 1.19178 1.19178 1.19178 1.19178 1.19178 1.19178 1.19178 1.19178 1.19178 1.19178 1.19178 1.19178 1.19178 1.19178 1.19178 1.19177 1.19178 1.19178 1.19179 1.19179 1.19179 1.19178 1.19179 1.19178 1.19178 1.19179 1.19178 1.19178 1.19178 1.19178 1.19178 1.19178 1.19179 1.19178 1.19178 1.19178 1.19178 1.19178 1.19178 1.19179 1.19179 1.19178 1.19178 1.19178 1.19178 1.19178 1.19178 1.19179 1.19178 1.19178 1.19178 1.19178 1.19178 1.19178 1.19178 1.19178 1.19178 1.19178 1.19178 1.19178 1.19178 1.19178 1.19178 1.19178 1.19178 1.19178 1.19178 1.19178 1.19178 1.19178 1.19178 1.19178 1.19178 1.19178 1.19178 1.19178 1.19178 1.19178 1.19178 1.19178 1.19178 1.19178 1.19178 1.19178 1.19178 1.19178 1.19178 1.19178 1.19178 1.19178 1.19178 1.19178 1.19178 1.19178 1.19178 1.19178 1.19178 1.19178 1.19178 1.19179 1.19178 1.19178 1.19178 1.19178 1.19178 1.19178 1.19178 1.19178 1.19178 1.19179 1.19178 1.19178 1.19178 1.19178 1.19178 1.19178 1.19178 1.19179 1.19178 1.19178 1.19178 1.19178 1.19178 1.19179 1.19179 1.19178 1.19178 1.19178 1.19178 1.19178 1.19178 1.19178 1.19178 1.19178 1.19178 1.19178 1.19179 1.19178 1.1918 1.19178 1.19177 1.19178 1.19178 1.19178 1.19178 1.19178 1.19178 1.19178 1.19178 1.19179 1.19178 1.19178 1.19178 1.19179 1.19179 1.19178 1.19178 1.19178 1.19178 1.19178 1.19178 1.19178 1.19178 1.19178 1.19178 1.19178 1.19178 1.19178 1.19178 1.19178 1.19178 1.19178 1.19178 1.19178 1.19178 1.19178 1.19178 1.19178 1.19178 1.19178 1.19178 1.19178 1.19178 1.19178 1.19178 1.19178 1.19178 1.19178 1.19178 1.19178 1.19178 1.19178 1.19178 1.19178 1.19178 1.19178 1.19178 1.19178 1.19178 1.19178 1.19178 1.19178 1.19178 1.19178 1.19178 1.19178 1.19178 1.19178 1.19178 1.19178 1.19178 1.19178 1.19178 1.19178 1.19178 1.19178 1.19178 1.19178 1.19179 1.19179 1.19179 1.19178 1.19179 1.19179 1.19178 1.19178 1.19178 1.19179 1.19179 1.19178 1.19179 1.19179 1.19178 1.19178 1.19178 1.19178 1.1918 1.19178 1.19178 1.1918 1.19178 1.19178 1.19179 1.19178 1.19179 1.19178 1.19177 1.19178 1.19178 1.19178 1.19178 1.19178 1.19178 1.19179 1.19179 1.19178 1.19178 1.19178 1.19178 1.19178 1.19178 1.19178 1.19178 1.19178 1.19178 1.19178 1.19178 1.19178 1.19178 1.19178 1.19178 1.19178 1.19178 1.19178 1.19178 1.19178 1.19178 1.19178 1.19178 1.19178 1.19178 1.19178 1.19178 1.19178 1.19178 1.19178 1.19178 1.19178 1.19178 1.19178 1.19178 1.19178 1.19178 1.19178 1.19177 1.19178 1.19177 1.19178 1.19178 1.19178 1.19178 1.19178 1.19178 1.19178 1.19178 1.19178 1.19179 1.19178 1.19178 1.19178 1.19178 1.19178 1.19178 1.19178 1.19179 1.19178 1.19179 1.19179 1.19178 1.19177 1.19179 1.19178 1.19178 1.19178 1.19179 1.19178 1.19178 1.19179 1.19179 1.19179 1.19177 1.19179 1.19179 1.19178 1.19178 1.19179 1.19178 1.19178 1.1918 1.19179 1.19178 1.19179 1.19178 1.19178 1.19179 1.1918 1.19178 1.19179 1.19178 1.19178 1.19178 1.19179 1.19179 1.19178 1.19178 1.19178 1.19178 1.19178 1.19179 1.19177 1.19178 1.19178 1.19178 1.19178 1.19178 1.19178 1.19178 1.19178 1.19178 1.19178 1.19178 1.19178 1.19178 1.19178 1.19178 1.19178 1.19178 1.19178 1.19178 1.19178 1.19178 1.19178 1.19178 1.19178 1.19178 1.19178 1.19178 1.19178 1.19178 1.19178 1.19178 1.19178 1.19178 1.19177 1.19178 1.19178 1.19178 1.19179 1.19178 1.19178 1.19178 1.19178 1.19178 1.19178 1.19178 1.19178 1.19178 1.19178 1.19179 1.19178 1.19179 1.19179 1.19178 1.19178 1.19178 1.19178 1.19178 1.19177 1.19178 1.19179 1.19179 1.19179 1.19179 1.19177 1.19178 1.19178 1.19179 1.19178 1.1918 1.19179 1.19178 1.19179 1.19178 1.19179 1.19177 1.19178 1.19179 1.19178 1.19178 1.19177 1.19179 1.19178 1.19178 1.19178 1.19179 1.19178 1.19178 1.19179 1.19178 1.19178 1.19178 1.19179 1.19179 1.19178 1.19178 1.19177 1.19178 1.19178 1.19179 1.19177 1.19178 1.19178 1.19178 1.19178 1.19178 1.19178 1.19178 1.19178 1.19178 1.19178 1.19178 1.19178 1.19178 1.19178 1.19177 1.19178 1.19178 1.19178 1.19178 1.19178 1.19178 1.19178 1.19178 1.19178 1.19178 1.19178 1.19178 1.19178 1.19178 1.19178 1.19177 1.19178 1.19178 1.19178 1.19178 1.19178 1.19178 1.19178 1.19178 1.19179 1.19178 1.19179 1.19179 1.19179 1.19179 1.19178 1.19178 1.19178 1.19178 1.19177 1.19177 1.19178 1.19177 1.19178 1.19179 1.19182 1.19178 1.19178 1.19177 1.19178 1.19178 1.19178 1.19179 1.19179 1.19178 1.19178 1.19178 1.19179 1.1918 1.19181 1.1918 1.1918 1.1918 1.19178 1.19177 1.19177 1.19179 1.19178 1.19177 1.19178 1.19178 1.19178 1.19178 1.19178 1.19179 1.19178 1.19177 1.19178 1.19178 1.19178 1.19178 1.19178 1.19178 1.19177 1.19178 1.19178 1.19178 1.19178 1.19178 1.19178 1.19177 1.19178 1.19178 1.19178 1.19178 1.19178 1.19178 1.19178 1.19177 1.19178 1.19178 1.19178 1.19178 1.19178 1.19178 1.19178 1.19178 1.19178 1.19178 1.19178 1.19177 1.19179 1.19178 1.19178 1.19178 1.19178 1.19177 1.19178 1.19178 1.19179 1.19179 1.19177 1.19178 1.19179 1.19178 1.19178 1.1918 1.19177 1.19177 1.19178 1.19177 1.19178 1.19179 1.19178 1.19177 1.19178 1.19177 1.19179 1.19178 1.19177 1.19178 1.19177 1.19178 1.19178 1.19179 1.19178 1.19179 1.19178 1.19178 1.1918 1.19179 1.19177 1.19179 1.19178 1.19179 1.19177 1.19178 1.19178 1.19179 1.19178 1.19178 1.19178 1.19178 1.19178 1.19179 1.19177 1.19178 1.19178 1.19178 1.19178 1.19177 1.19178 1.19178 1.19177 1.19178 1.19178 1.19179 1.19177 1.19178 1.19179 1.19178 1.19178 1.19178 1.19177 1.19178 1.19178 1.19177 1.19178 1.19178 1.19178 1.19178 1.19178 1.19178 1.19178 1.19178 1.19178 1.19178 1.19178 1.19178 1.19178 1.19177 1.19178 1.19178 1.19178 1.19178 1.19178 1.19178 1.19178 1.19178 1.19178 1.19178 1.19177 1.19179 1.19178 1.19178 1.19178 1.19177 1.19178 1.19177 1.19178 1.19179 1.19178 1.19178 1.19179 1.19179 1.19179 1.19178 1.19179 1.19179 1.19179 1.19179 1.19177 1.19179 1.19178 1.19177 1.19179 1.19177 1.19178 1.19178 1.19176 1.19178 1.19179 1.19178 1.19179 1.19178 1.19178 1.19177 1.19177 1.19178 1.19178 1.19178 1.19179 1.19178 1.19178 1.19178 1.19178 1.19178 1.1918 1.19178 1.19178 1.19178 1.19178 1.19178 1.19178 1.19179 1.19178 1.19177 1.19179 1.19179 1.19178 1.19179 1.19178 1.19178 1.19178 1.19177 1.19177 1.19178 1.19178 1.19177 1.19177 1.19178 1.19178 1.19178 1.19178 1.19178 1.19177 1.19178 1.19177 1.19179 1.19178 1.19178 1.19178 1.19177 1.19178 1.19178 1.19178 1.19178 1.19178 1.19178 1.19178 1.19177 1.19177 1.19178 1.19178 1.19178 1.19178 1.19178 1.19178 1.19178 1.19178 1.19178 1.19178 1.19178 1.19178 1.19179 1.19177 1.19179 1.19178 1.19179 1.19178 1.19178 1.19179 1.19178 1.19179 1.19179 1.19179 1.19179 1.1918 1.19179 1.19179 1.19177 1.19178 1.19178 1.19178 1.19178 1.19176 1.19179 1.19178 1.19179 1.19179 1.19178 1.19178 1.19178 1.19178 1.19178 1.19178 1.19179 1.19179 1.19178 1.19178 1.19178 1.19178 1.19179 1.19178 1.19177 1.19178 1.19179 1.19178 1.19178 1.19179 1.19179 1.19179 1.19178 1.19176 1.19178 1.19178 1.19178 1.19179 1.19178 1.19178 1.19177 1.19177 1.19177 1.19177 1.19177 1.19178 1.19177 1.19179 1.19178 1.19178 1.19178 1.19177 1.19178 1.19178 1.19178 1.19177 1.19178 1.19178 1.19178 1.19178 1.19178 1.19177 1.19177 1.19178 1.19178 1.19178 1.19178 1.19177 1.19177 1.19178 1.19178 1.19178 1.19178 1.19178 1.19177 1.19178 1.19177 1.19177 1.19178 1.19178 1.19178 1.19178 1.19178 1.19178 1.19178 1.19178 1.19178 1.19178 1.19178 1.19178 1.19178 1.19178 1.19178 1.19178 1.19178 1.19178 1.19179 1.19177 1.19176 1.19179 1.19178 1.19178 1.19178 1.19178 1.19178 1.1918 1.19179 1.19178 1.19179 1.19179 1.19179 1.19178 1.19179 1.19177 1.19177 1.19177 1.19178 1.19178 1.19175 1.19179 1.19177 1.19178 1.19178 1.19178 1.19178 1.19176 1.19175 1.19178 1.19177 1.19178 1.19179 1.19178 1.19178 1.19178 1.19178 1.19178 1.19178 1.19179 1.19179 1.19179 1.19177 1.1918 1.19176 1.19176 1.19178 1.19177 1.19178 1.19179 1.19179 1.19177 1.19179 1.1918 1.1918 1.19178 1.19179 1.19177 1.19177 1.19177 1.19177 1.19178 1.19179 1.19178 1.19178 1.19177 1.19177 1.19177 1.19177 1.19178 1.19177 1.19178 1.19178 1.19178 1.19178 1.19178 1.19178 1.19178 1.19177 1.19177 1.19178 1.19178 1.19178 1.19178 1.19178 1.19178 1.19178 1.19178 1.19178 1.19178 1.19178 1.19178 1.19178 1.19177 1.19177 1.19178 1.19178 1.19178 1.19178 1.19177 1.19178 1.19178 1.19178 1.19178 1.19177 1.19179 1.19177 1.19178 1.19178 1.19178 1.19178 1.19178 1.19179 1.19178 1.19179 1.19178 1.19178 1.19179 1.19179 1.19179 1.19178 1.19178 1.19178 1.19178 1.19178 1.19176 1.19179 1.19176 1.19176 1.19178 1.19177 1.19178 1.19178 1.19177 1.19179 1.19177 1.19177 1.19177 1.19178 1.19178 1.19179 1.19178 1.19178 1.19177 1.19177 1.19177 1.19178 1.19178 1.19178 1.19178 1.19178 1.19175 1.19178 1.19178 1.19177 1.19178 1.19176 1.19177 1.19178 1.19177 1.19178 1.19179 1.19173 1.1918 1.19177 1.19179 1.19177 1.19178 1.19178 1.19177 1.19177 1.19178 1.19178 1.19178 1.19177 1.19178 1.19177 1.19178 1.19177 1.19178 1.19178 1.19178 1.19178 1.19178 1.19178 1.19177 1.19177 1.19178 1.19178 1.19178 1.19178 1.19178 1.19178 1.19178 1.19178 1.19178 1.19178 1.19178 1.19177 1.19178 1.19178 1.19177 1.19178 1.19177 1.19178 1.19178 1.19177 1.19178 1.19178 1.19177 1.1918 1.19178 1.19179 1.19178 1.19178 1.19178 1.19178 1.19179 1.19179 1.19179 1.19178 1.1918 1.19177 1.19178 1.19178 1.19179 1.19176 1.19177 1.19178 1.19178 1.19178 1.19178 1.19178 1.19178 1.19178 1.19178 1.19178 1.19177 1.19178 1.19178 1.19177 1.19178 1.19177 1.19177 1.19177 1.19178 1.19176 1.19178 1.19178 1.19177 1.19177 1.19175 1.19177 1.19177 1.19176 1.19175 1.19177 1.19179 1.19174 1.19175 1.19175 1.19179 1.19178 1.19178 1.19179 1.19177 1.19179 1.19177 1.19178 1.19178 1.19178 1.19177 1.19177 1.19177 1.19177 1.19177 1.19177 1.19177 1.19178 1.19177 1.19178 1.19177 1.19177 1.19178 1.19177 1.19177 1.19178 1.19177 1.19177 1.19177 1.19178 1.19178 1.19177 1.19177 1.19177 1.19177 1.19178 1.19178 1.19177 1.19177 1.19178 1.19178 1.19178 1.19178 1.19178 1.19178 1.19178 1.19178 1.19178 1.19178 1.19178 1.19178 1.19176 1.19178 1.19179 1.19179 1.19178 1.19177 1.19178 1.19179 1.19178 1.19178 1.19179 1.19179 1.19179 1.19177 1.19178 1.19179 1.19179 1.19181 1.19179 1.19176 1.19178 1.19176 1.19177 1.19178 1.19177 1.19178 1.19178 1.1918 1.19178 1.19177 1.19178 1.19178 1.19177 1.19177 1.19178 1.19177 1.19177 1.19178 1.19177 1.19176 1.19178 1.19178 1.19178 1.19177 1.19176 1.19175 1.19178 1.19174 1.19174 1.19178 1.19177 1.19179 1.19179 1.19178 1.19177 1.19178 1.19178 1.19177 1.19178 1.19176 1.19177 1.19177 1.19177 1.19178 1.19178 1.19178 1.19178 1.19178 1.19178 1.19178 1.19177 1.19177 1.19178 1.19177 1.19177 1.19178 1.19178 1.19178 1.19178 1.19177 1.19177 1.19177 1.19178 1.19178 1.19177 1.19177 1.19178 1.19178 1.19178 1.19178 1.19178 1.19177 1.19177 1.19177 1.19177 1.19177 1.19178 1.19179 1.19179 1.19178 1.19177 1.19176 1.19178 1.19178 1.19178 1.19179 1.19178 1.19178 1.19178 1.19179 1.19178 1.19178 1.19178 1.19178 1.19178 1.19177 1.19178 1.19179 1.19181 1.19179 1.19176 1.19179 1.19179 1.19177 1.19179 1.19177 1.19177 1.1918 1.1918 1.19178 1.19177 1.19176 1.19177 1.19177 1.19178 1.19177 1.19177 1.19178 1.19177 1.19177 1.19177 1.19178 1.19177 1.19176 1.19177 1.19176 1.19177 1.19176 1.19178 1.19178 1.19178 1.19174 1.19177 1.19177 1.19177 1.19179 1.19178 1.19177 1.19178 1.19178 1.19178 1.19178 1.19176 1.19177 1.19178 1.19178 1.19177 1.19178 1.19178 1.19177 1.19177 1.19178 1.19178 1.19178 1.19178 1.19177 1.19177 1.19178 1.19178 1.19178 1.19177 1.19178 1.19178 1.19177 1.19177 1.19178 1.19178 1.19178 1.19178 1.19178 1.19178 1.19177 1.19177 1.19179 1.19178 1.19176 1.19177 1.19178 1.19179 1.19178 1.19178 1.19177 1.19177 1.19179 1.19179 1.19178 1.19179 1.19179 1.19178 1.19178 1.19177 1.19178 1.19177 1.19178 1.19178 1.19177 1.19178 1.1918 1.19176 1.19176 1.19179 1.19179 1.19179 1.19178 1.19178 1.19175 1.19178 1.19177 1.19177 1.19178 1.19177 1.19178 1.19178 1.19176 1.19176 1.19177 1.19177 1.19177 1.19177 1.19177 1.19177 1.19177 1.19177 1.19177 1.19177 1.19178 1.19177 1.19177 1.19178 1.19177 1.19177 1.19176 1.19178 1.19177 1.19178 1.19176 1.19178 1.19177 1.19177 1.19178 1.19177 1.19178 1.19177 1.19178 1.19178 1.19178 1.19178 1.19176 1.19178 1.19176 1.19177 1.19177 1.19178 1.19178 1.19178 1.19177 1.19177 1.19177 1.19178 1.19178 1.19178 1.19177 1.19177 1.19178 1.19177 1.19178 1.19177 1.19178 1.19178 1.19177 1.19178 1.19178 1.19177 1.19178 1.19177 1.19178 1.19177 1.19178 1.19178 1.19178 1.19178 1.19178 1.19178 1.19178 1.19178 1.19177 1.19178 1.19178 1.19179 1.19178 1.19178 1.19177 1.19178 1.19179 1.19178 1.19178 1.19178 1.19179 1.19177 1.19177 1.19177 1.19179 1.19178 1.19177 1.19178 1.19179 1.19178 1.19179 1.19179 1.19179 1.19177 1.19175 1.19177 1.19177 1.19177 1.19178 1.19177 1.19177 1.19177 1.19177 1.19177 1.19177 1.19177 1.19177 1.19177 1.19177 1.19178 1.19177 1.19177 1.19178 1.19177 1.19176 1.19176 1.19177 1.19177 1.19178 1.19177 1.19178 1.19177 1.19177 1.19178 1.19177 1.19176 1.19177 1.19177 1.19178 1.19178 1.19177 1.19178 1.19178 1.19177 1.19177 1.19177 1.19177 1.19178 1.19177 1.19178 1.19178 1.19177 1.19178 1.19178 1.19178 1.19177 1.19178 1.19177 1.19177 1.19177 1.19177 1.19178 1.19178 1.19177 1.19178 1.19178 1.19177 1.19177 1.19178 1.19178 1.19178 1.19177 1.19178 1.19178 1.19178 1.19175 1.19178 1.19178 1.1918 1.19177 1.19178 1.19178 1.19178 1.19178 1.1918 1.19177 1.19179 1.19178 1.19178 1.19178 1.19178 1.19178 1.19179 1.19178 1.19177 1.19179 1.19179 1.19178 1.19177 1.19178 1.19179 1.19179 1.19177 1.19177 1.19178 1.19177 1.19179 1.19177 1.19178 1.19176 1.19174 1.19177 1.19177 1.19176 1.19177 1.19178 1.19178 1.19178 1.19177 1.19178 1.19178 1.19177 1.19177 1.19177 1.19177 1.19177 1.19178 1.19178 1.19178 1.19177 1.19177 1.19176 1.19176 1.19176 1.19177 1.19176 1.19176 1.19177 1.19177 1.19177 1.19178 1.19177 1.19177 1.19177 1.19178 1.19177 1.19178 1.19177 1.19178 1.19177 1.19177 1.19177 1.19177 1.19176 1.19177 1.19178 1.19178 1.19177 1.19178 1.19178 1.19177 1.19177 1.19178 1.19177 1.19177 1.19177 1.19177 1.19177 1.19178 1.19178 1.19177 1.19178 1.19177 1.19178 1.19177 1.19177 1.19179 1.19178 1.19177 1.19177 1.19178 1.19178 1.19178 1.19178 1.19177 1.19179 1.1918 1.19179 1.19178 1.19178 1.19178 1.19177 1.1918 1.19176 1.19178 1.19178 1.19177 1.19178 1.19178 1.19178 1.19179 1.19178 1.19178 1.19177 1.19177 1.19179 1.19179 1.19178 1.19177 1.19178 1.19179 1.19177 1.19176 1.19177 1.19179 1.19178 1.19178 1.19176 1.19177 1.19178 1.19179 1.19177 1.19178 1.19178 1.19177 1.19177 1.19177 1.19178 1.19177 1.19177 1.19177 1.19177 1.19177 1.19176 1.19178 1.19177 1.19177 1.19177 1.19177 1.19177 1.19177 1.19178 1.19178 1.19178 1.19178 1.19177 1.19178 1.19178 1.19176 1.19176 1.19177 1.19177 1.19178 1.19177 1.19177 1.19178 1.19177 1.19177 1.19178 1.19178 1.19178 1.19177 1.19178 1.19177 1.19177 1.19177 1.19177 1.19177 1.19178 1.19178 1.19178 1.19178 1.19177 1.19177 1.19177 1.19178 1.19179 1.19178 1.19177 1.19178 1.19178 1.19178 1.19178 1.19178 1.19178 1.19179 1.19179 1.19178 1.19178 1.19178 1.19178 1.1918 1.19179 1.19177 1.19179 1.19177 1.19178 1.19177 1.19178 1.19178 1.19177 1.19177 1.19176 1.19179 1.19178 1.19177 1.19177 1.19178 1.19177 1.19177 1.19178 1.19177 1.19178 1.19178 1.19178 1.19176 1.19176 1.19177 1.19176 1.19178 1.19177 1.19178 1.19178 1.19178 1.19177 1.19177 1.19176 1.19178 1.19176 1.19176 1.19177 1.19177 1.19177 1.19176 1.19176 1.19178 1.19177 1.19177 1.19177 1.19177 1.19177 1.19178 1.19177 1.19177 1.19177 1.19177 1.19177 1.19178 1.19178 1.19178 1.19177 1.19178 1.19178 1.19176 1.19177 1.19177 1.19177 1.19177 1.19177 1.19178 1.19178 1.19177 1.19178 1.19178 1.19178 1.19177 1.19178 1.19177 1.19178 1.19178 1.19178 1.19177 1.19177 1.19178 1.19178 1.19178 1.19178 1.19177 1.19177 1.19178 1.19178 1.19178 1.19178 1.19178 1.19177 1.19177 1.19177 1.19177 1.19177 1.19178 1.19178 1.19178 1.19178 1.19177 1.19178 1.19178 1.19178 1.1918 1.19179 1.19177 1.19178 1.19177 1.19179 1.19178 1.19178 1.19177 1.19178 1.19177 1.19178 1.19178 1.19178 1.19178 1.19177 1.19179 1.19178 1.19177 1.19176 1.19176 1.19177 1.19177 1.19176 1.19176 1.19178 1.19178 1.19178 1.19178 1.19177 1.19176 1.19177 1.19177 1.19176 1.19177 1.19178 1.19177 1.19177 1.19177 1.19176 1.19177 1.19178 1.19178 1.19176 1.19177 1.19177 1.19178 1.19177 1.19177 1.19178 1.19177 1.19178 1.19178 1.19176 1.19178 1.19177 1.19177 1.19176 1.19177 1.19178 1.19177 1.19178 1.19178 1.19178 1.19178 1.19177 1.19178 1.19178 1.19178 1.19177 1.19177 1.19177 1.19176 1.19178 1.19177 1.19178 1.19178 1.19177 1.19177 1.19178 1.19178 1.19178 1.19178 1.19178 1.19178 1.19178 1.19177 1.19178 1.19178 1.19178 1.19178 1.19177 1.19178 1.19177 1.19177 1.19178 1.19178 1.19178 1.19178 1.19177 1.19177 1.19178 1.19178 1.19178 1.19178 1.19179 1.19178 1.19177 1.19176 1.19177 1.19178 1.1918 1.19177 1.19178 1.19178 1.19177 1.19176 1.19176 1.19179 1.19178 1.19177 1.19176 1.19177 1.19177 1.19178 1.19178 1.19178 1.19177 1.19178 1.19176 1.19177 1.19178 1.19177 1.19177 1.19178 1.19177 1.19177 1.19176 1.19176 1.19177 1.19177 1.19177 1.19176 1.19178 1.19178 1.19178 1.19176 1.19178 1.19177 1.19177 1.19177 1.19177 1.19178 1.19178 1.19176 1.19177 1.19177 1.19177 1.19178 1.19178 1.19178 1.19178 1.19178 1.19178 1.19178 1.19178 1.19178 1.19177 1.19177 1.19178 1.19178 1.19178 1.19178 1.19177 1.19177 1.19178 1.19178 1.19177 1.19177 1.19178 1.19178 1.19178 1.19178 1.19178 1.19178 1.19178 1.19178 1.19177 1.19178 1.19177 1.19177 1.19177 1.19178 1.19178 1.19178 1.19177 1.19177 1.19178 1.19178 1.19178 1.19178 1.19178 1.19177 1.19177 1.19176 1.19177 1.19177 1.1918 1.19176 1.19177 1.19177 1.19178 1.19178 1.19178 1.19176 1.19178 1.19178 1.19177 1.19178 1.19177 1.19177 1.19178 1.19176 1.19176 1.19177 1.19178 1.19178 1.19177 1.19178 1.19178 1.19176 1.19178 1.19178 1.19178 1.19177 1.19177 1.19178 1.19177 1.19177 1.19177 1.19176 1.19177 1.19177 1.19177 1.19178 1.19177 1.19178 1.19177 1.19177 1.19177 1.19178 1.19177 1.19177 1.19177 1.19178 1.19178 1.19178 1.19178 1.19178 1.19178 1.19178 1.19178 1.19178 1.19178 1.19178 1.19178 1.19177 1.19177 1.19178 1.19178 1.19178 1.19178 1.19178 1.19177 1.19178 1.19178 1.19178 1.19178 1.19178 1.19178 1.19177 1.19177 1.19178 1.19178 1.19178 1.19177 1.19177 1.19177 1.19177 1.19177 1.19177 1.19177 1.19177 1.19177 1.19177 1.19178 1.19177 1.19177 1.19177 1.19177 1.19177 1.19178 1.19178 1.19178 1.19178 1.19176 1.19176 1.19177 1.19175 1.19177 1.19176 1.19178 1.19177 1.19177 1.19176 1.19176 1.19176 1.19177 1.19177 1.19177 1.19177 1.19177 1.19177 1.19177 1.19177 1.19177 1.19177 1.19177 1.19177 1.19178 1.19178 1.19178 1.19177 1.19178 1.19178 1.19177 1.19177 1.19178 1.19177 1.19177 1.19177 1.19178 1.19177 1.19178 1.19178 1.19178 1.19177 1.19177 1.19177 1.19176 1.19177 1.19177 1.19177 1.19178 1.19178 1.19178 1.19178 1.19178 1.19178 1.19178 1.19178 1.19178 1.19178 1.19177 1.19178 1.19178 1.19178 1.19178 1.19178 1.19178 1.19177 1.19178 1.19178 1.19178 1.19178 1.19178 1.19177 1.19178 1.19178 1.19177 1.19178 1.19177 1.19177 1.19177 1.19177 1.19176 1.19177 1.19177 1.19177 1.19177 1.19178 1.19179 1.19178 1.19177 1.19176 1.19177 1.19177 1.19177 1.19177 1.19176 1.19177 1.19176 1.19176 1.19176 1.19175 1.19175 1.19177 1.19178 1.19176 1.19177 1.19177 1.19178 1.19178 1.19177 1.19177 1.19177 1.19177 1.19177 1.19177 1.19177 1.19178 1.19178 1.19177 1.19177 1.19178 1.19178 1.19178 1.19177 1.19176 1.19177 1.19177 1.19177 1.19177 1.19177 1.19178 1.19178 1.19176 1.19177 1.19177 1.19177 1.19178 1.19178 1.19178 1.19178 1.19177 1.19177 1.19177 1.19177 1.19177 1.19176 1.19177 1.19176 1.19177 1.19177 1.19177 1.19177 1.19178 1.19179 1.19178 1.19176 1.19176 1.19177 1.19177 1.19175 1.19178 1.19177 1.19177 1.19176 1.19177 1.19176 1.19177 1.19176 1.19178 1.19176 1.19176 1.19177 1.19177 1.19178 1.19177 1.19177 1.19177 1.19178 1.19177 1.19177 1.19177 1.19177 1.19176 1.19176 1.19177 1.19178 1.19176 1.19176 1.19177 1.19177 1.19178 1.19177 1.19178 1.19178 1.19178 1.19178 1.19178 1.19178 1.19177 1.19177 1.19177 1.19176 1.19176 1.19176 1.19177 1.19177 1.19176 1.19176 1.19177 1.19178 1.19177 1.19177 1.19177 1.19178 1.19177 1.19178 1.19178 1.19177 1.19178 1.19177 1.19177 1.19177 1.19177 1.19177 1.19176 1.19178 1.19176 1.19177 1.19177 1.19178 1.19177 1.19178 1.19177 1.19176 1.19177 1.19177 1.19177 1.19178 1.19178 1.19177 1.19177 1.19178 1.19176 1.19177 1.19178 1.19177 1.19176 1.19175 1.19176 1.19177 1.19178 1.19177 1.19177 1.19177 1.19176 1.19178 1.19177 1.19178 1.19178 1.19177 1.19177 1.19176 1.19177 1.19177 1.19176 1.19176 1.19176 1.19177 1.19178 1.19178 1.19178 1.19178 1.19178 1.19177 1.19177 1.19177 1.19177 1.19177 1.19177 1.19178 1.19178 1.19176 1.19178 1.19177 1.19177 1.19177 1.19179 1.19176 1.19175 1.19178 1.19178 1.19178 1.19178 1.19178 1.19178 1.19178 1.19178 1.19178 1.19178 1.19178 1.19178 1.19178 1.19178 1.19178 1.19178 1.19178 1.19178 1.19178 1.19177 1.19177 1.19177 1.19178 1.19177 1.19177 1.19177 1.19178 1.19179 1.19176 1.19178 1.19177 1.19178 1.19177 1.19178 1.19176 1.19178 1.19177 1.19178 1.19178 1.19178 1.19178 1.19178 1.19178 1.19178 1.19178 1.19178 1.19178 1.19178 1.19178 1.19178 1.19178 1.19178 1.19178 1.19178 1.19178 1.19178 1.19178 1.19178 1.19178 1.19178 1.19178 1.19178 1.19178 1.19178 1.19178 1.19178 1.19178 1.19178 1.19178 1.19178 1.19178 1.19177 1.19177 1.19178 1.19178 1.19177 1.19176 1.19177 1.19179 1.19177 1.19176 1.19177 1.19177 1.19178 1.19177 1.19176 1.19177 1.19178 1.19178 1.19178 1.19177 1.19178 1.19178 1.19178 1.19178 1.19178 1.19178 1.19178 1.19178 1.19178 1.19178 1.19178 1.19178 1.19178 1.19178 1.19178 1.19178 1.19178 1.19178 1.19178 1.19178 1.19178 1.19178 1.19178 1.19178 1.19178 1.19178 1.19178 1.19178 1.19178 1.19178 1.19178 1.19178 1.19178 1.19178 1.19178 1.19178 1.19178 1.19178 1.19178 1.19178 1.19178 1.19178 1.19178 1.19177 1.19177 1.19177 1.19178 1.19177 1.19176 1.19177 1.19177 1.19177 1.19177 1.19176 1.19177 1.19177 1.19176 1.19177 1.19178 1.19178 1.19177 1.19178 1.19177 1.19178 1.19178 1.19178 1.19178 1.19178 1.19178 1.19178 1.19178 1.19178 1.19178 1.19178 1.19178 1.19178 1.19178 1.19178 1.19178 1.19178 1.19178 1.19178 1.19178 1.19178 1.19178 1.19178 1.19178 1.19178 1.19178 1.19178 1.19178 1.19178 1.19178 1.19178 1.19178 1.19178 1.19178 1.19178 1.19178 1.19178 1.19178 1.19178 1.19178 1.19178 1.19178 1.19178 1.19178 1.19178 1.19178 1.19177 1.19178 1.19177 1.19177 1.19177 1.19178 1.19176 1.19177 1.19177 1.19177 1.19176 1.19175 1.19177 1.19177 1.19178 1.19178 1.19177 1.19177 1.19178 1.19178 1.19178 1.19178 1.19178 1.19178 1.19178 1.19178 1.19178 1.19178 1.19178 1.19178 1.19178 1.19178 1.19178 1.19178 1.19178 1.19178 1.19178 1.19178 1.19178 1.19178 1.19178 1.19178 1.19178 1.19178 1.19178 1.19178 1.19178 1.19178 1.19178 1.19178 1.19178 1.19178 1.19178 1.19178 1.19178 1.19178 1.19178 1.19178 1.19178 1.19178 1.19178 1.19178 1.19178 1.19178 1.19178 1.19178 1.19178 1.19177 1.19177 1.19177 1.19177 1.19178 1.19177 1.19177 1.19177 1.19177 1.19177 1.19177 1.19175 1.19178 1.19177 1.19177 1.19177 1.19177 1.19178 1.19178 1.19177 1.19178 1.19177 1.19178 1.19178 1.19178 1.19178 1.19178 1.19178 1.19178 1.19178 1.19178 1.19178 1.19178 1.19178 1.19178 1.19178 1.19178 1.19178 1.19178 1.19178 1.19178 1.19178 1.19178 1.19178 1.19178 1.19178 1.19178 1.19178 1.19178 1.19178 1.19178 1.19178 1.19178 1.19178 1.19178 1.19178 1.19178 1.19178 1.19178 1.19178 1.19178 1.19178 1.19178 1.19178 1.19178 1.19178 1.19178 1.19178 1.19178 1.19178 1.19178 1.19178 1.19178 1.19178 1.19178 1.19178 1.19178 1.19177 1.19177 1.19177 1.19177 1.19178 1.19177 1.19177 1.19178 1.19176 1.19177 1.19177 1.19177 1.19178 1.19177 1.19177 1.19177 1.19177 1.19178 1.19178 1.19178 1.19178 1.19178 1.19178 1.19178 1.19178 1.19178 1.19178 1.19178 1.19178 1.19178 1.19178 1.19178 1.19178 1.19178 1.19178 1.19178 1.19178 1.19178 1.19178 1.19178 1.19178 1.19178 1.19178 1.19178 1.19178 1.19178 1.19178 1.19178 1.19178 1.19178 1.19178 1.19178 1.19178 1.19178 1.19178 1.19178 1.19178 1.19178 1.19178 1.19178 1.19178 1.19178 1.19178 1.19178 1.19178 1.19178 1.19178 1.19178 1.19178 1.19178 1.19177 1.19177 1.19178 1.19177 1.19177 1.19178 1.19177 1.19177 1.19177 1.19177 1.19178 1.19177 1.19178 1.19177 1.19178 1.19176 1.19177 1.19177 1.19176 1.19177 1.19177 1.19177 1.19177 1.19178 1.19178 1.19178 1.19178 1.19178 1.19178 1.19178 1.19178 1.19178 1.19178 1.19178 1.19178 1.19178 1.19178 1.19178 1.19178 1.19178 1.19178 1.19178 1.19178 1.19178 1.19178 1.19178 1.19178 1.19178 1.19178 1.19178 1.19178 1.19178 1.19178 1.19178 1.19178 1.19178 1.19178 1.19178 1.19178 1.19178 1.19178 1.19178 1.19178 1.19178 1.19178 1.19178 1.19177 1.19178 1.19177 1.19178 1.19177 1.19177 1.19177 1.19177 1.19177 1.19177 1.19177 1.19178 1.19177 1.19177 1.19178 1.19178 1.19178 1.19177 1.19178 1.19178 1.19178 1.19178 1.19178 1.19178 1.19178 1.19178 1.19178 1.19178 1.19178 1.19178 1.19178 1.19178 1.19178 1.19178 1.19178 1.19178 1.19178 1.19178 1.19178 1.19178 1.19178 1.19178 1.19178 1.19178 1.19178 1.19178 1.19178 1.19178 1.19178 1.19178 1.19178 1.19178 1.19178 1.19178 1.19178 1.19178 1.19178 1.19178 1.19178 1.19178 1.19178 1.19178 1.19178 1.19178 1.19178 1.19178 1.19177 1.19178 1.19178 1.19177 1.19178 1.19178 1.19177 1.19178 1.19177 1.19177 1.19178 1.19177 1.19178 1.19177 1.19178 1.19177 1.19178 1.19178 1.19178 1.19178 1.19178 1.19178 1.19178 1.19178 1.19178 1.19178 1.19178 1.19178 1.19178 1.19178 1.19178 1.19178 1.19178 1.19178 1.19178 1.19178 1.19178 1.19178 1.19178 1.19178 1.19178 1.19178 1.19178 1.19178 1.19178 1.19178 1.19178 1.19178 1.19178 1.19178 1.19178 1.19178 1.19178 1.19178 1.19177 1.19177 1.19178 1.19178 1.19178 1.19178 1.19178 1.19178 1.19177 1.19177 1.19177 1.19177 1.19178 1.19177 1.19178 1.19178 1.19177 1.19178 1.19177 1.19178 1.19178 1.19178 1.19178 1.19178 1.19178 1.19178 1.19178 1.19178 1.19178 1.19178 1.19178 1.19178 1.19178 1.19178 1.19178 1.19178 1.19178 1.19178 1.19178 1.19178 1.19178 1.19178 1.19178 1.19178 1.19178 1.19178 1.19178 1.19178 1.19178 1.19178 1.19178 1.19178 1.19178 1.19178 1.19178 1.19178 1.19178 1.19178 1.19178 1.19177 1.19178 1.19178 1.19178 1.19177 1.19178 1.19177 1.19177 1.19178 1.19177 1.19178 1.19177 1.19178 1.19177 1.19177 1.19178 1.19177 1.19178 1.19178 1.19178 1.19178 1.19178 1.19178 1.19178 1.19178 1.19178 1.19178 1.19178 1.19178 1.19178 1.19178 1.19178 1.19178 1.19178 1.19178 1.19178 1.19178 1.19178 1.19178 1.19178 1.19178 1.19178 1.19178 1.19178 1.19178 1.19178 1.19178 1.19178 1.19178 1.19178 1.19178 1.19177 1.19178 1.19178 1.19177 1.19178 1.19177 1.19178 1.19177 1.19178 1.19177 1.19178 1.19177 1.19177 1.19177 1.19177 1.19178 1.19178 1.19178 1.19177 1.19178 1.19178 1.19178 1.19178 1.19178 1.19178 1.19178 1.19178 1.19178 1.19178 1.19178 1.19178 1.19178 1.19178 1.19178 1.19178 1.19178 1.19178 1.19178 1.19178 1.19178 1.19178 1.19178 1.19177 1.19178 1.19177 1.19178 1.19177 1.19177 1.19177 1.19177 1.19177 1.19177 1.19177 1.19177 1.19177 1.19178 1.19178 1.19178 1.19177 1.19178 1.19178 1.19178 1.19178 1.19178 1.19178 1.19178 1.19178 1.19178 1.19178 1.19178 1.19178 1.19178 1.19178 1.19178 1.19178 1.19178 1.19178 1.19178 1.19178 1.19178 1.19178 1.19177 1.19178 1.19178 1.19177 1.19178 1.19177 1.19177 1.19177 1.19177 1.19177 1.19177 1.19178 1.19177 1.19177 1.19178 1.19178 1.19178 1.19178 1.19177 1.19177 1.19178 1.19178 1.19178 1.19178 1.19178 1.19178 1.19178 1.19178 1.19178 1.19178 1.19178 1.19178 1.19178 1.19178 1.19178 1.19178 1.19178 1.19178 1.19177 1.19178 1.19178 1.19177 1.19177 1.19177 1.19177 1.19177 1.19178 1.19178 1.19178 1.19177 1.19178 1.19177 1.19178 1.19178 1.19178 1.19178 1.19178 1.19178 1.19178 1.19178 1.19178 1.19178 1.19178 1.19178 1.19178 1.19178 1.19178 1.19178 1.19178 1.19178 1.19178 1.19178 1.19178 1.19178 1.19178 1.19178 1.19178 1.19178 1.19177 1.19178 1.19177 1.19178 1.19178 1.19178 1.19178 1.19177 1.19177 1.19178 1.19177 1.19178 1.19178 1.19178 1.19178 1.19178 1.19178 1.19178 1.19178 1.19178 1.19178 1.19178 1.19178 1.19178 1.19178 1.19178 1.19178 1.19178 1.19178 1.19178 1.19177 1.19178 1.19178 1.19178 1.19177 1.19178 1.19178 1.19177 1.19178 1.19178 1.19178 1.19177 1.19178 1.19178 1.19178 1.19178 1.19178 1.19178 1.19178 1.19178 1.19178 1.19178 1.19178 1.19178 1.19178 1.19178 1.19178 1.19178 1.19178 1.19177 1.19178 1.19178 1.19178 1.19178 1.19178 1.19178 1.19178 1.19177 1.19178 1.19177 1.19178 1.19178 1.19178 1.19178 1.19178 1.19178 1.19178 1.19178 1.19178 1.19178 1.19178 1.19178 1.19178 1.19178 1.19178 1.19178 1.19178 1.19178 1.19178 1.19178 1.19178 1.19178 1.19178 1.19178 1.19178 1.19178 1.19178 1.19178 1.19178 1.19178 1.19178 1.19178 1.19178 1.19178 1.19178 1.19178 1.19178 1.19178 1.19178 1.19178 1.19178 1.19178 1.19178 1.19178 1.19178 1.19178 1.19178 1.19178 1.19178 1.19178 1.19178 1.19178 1.19178 1.19178 1.19178 1.19178 1.19178 1.19178 3.72493e-06 7.38283e-06 6.24134e-06 9.60715e-06 9.71403e-06 1.481e-05 2.15949e-05 2.33804e-05 2.5048e-05 3.06743e-05 3.03474e-05 3.47202e-05 3.66443e-05 3.48482e-05 3.92768e-05 3.36221e-05 3.15915e-05 2.73066e-05 2.73094e-05 3.1328e-05 3.07379e-05 2.50524e-05 2.21775e-05 2.01364e-05 2.18014e-05 2.5434e-05 1.86874e-05 1.37821e-05 1.33764e-05 1.6576e-05 2.30509e-05 2.38594e-05 3.62269e-05 2.41808e-05 2.3806e-05 2.04556e-05 1.68673e-05 1.56249e-05 1.13471e-05 4.23469e-06 1.03388e-05 1.52944e-05 1.4991e-05 6.75965e-06 4.57495e-06 1.54639e-05 1.4296e-05 9.57896e-06 1.92691e-05 1.54583e-05 1.67545e-05 2.00881e-05 1.82619e-05 2.77339e-05 4.55318e-05 6.43348e-05 6.57487e-05 5.55136e-05 6.07111e-05 8.10649e-05 7.92856e-05 7.89316e-05 6.74642e-05 6.12725e-05 6.04001e-05 5.43898e-05 4.9698e-05 5.58411e-05 5.0114e-05 5.84839e-05 7.56397e-05 7.59169e-05 9.41893e-05 0.000119442 0.000121638 0.000109134 0.000117517 0.000145955 0.000151747 0.000168874 0.000219456 0.000144893 7.76009e-05 0.000102237 9.64904e-05 2.57107e-05 4.25858e-05 4.22491e-05 4.4784e-05 4.12734e-05 2.25894e-05 7.91535e-05 7.50148e-05 0.000104827 9.73239e-05 7.50755e-05 5.15776e-05 2.81041e-05 8.77969e-05 7.7062e-05 8.71258e-05 6.20978e-05 9.25936e-06 2.77283e-06 7.41552e-06 1.361e-05 2.02489e-05 1.37646e-05 1.3746e-05 8.12089e-06 3.05972e-06 6.91925e-06 1.1404e-05 9.39561e-06 6.54566e-06 9.06313e-06 6.10952e-06 7.51658e-06 1.34341e-05 7.06855e-06 9.79281e-06 1.84097e-05 1.4785e-05 2.51742e-05 8.34501e-06 9.41968e-06 1.51498e-05 9.21071e-06 1.98723e-05 1.99734e-05 2.33836e-05 2.75617e-05 1.82737e-05 2.47109e-05 1.56119e-05 2.24633e-05 1.44447e-05 2.23226e-05 1.89869e-05 2.11367e-05 2.07124e-05 2.39247e-05 2.56576e-05 1.9285e-05 1.51409e-05 1.68083e-05 1.36455e-05 1.24149e-05 1.08334e-05 1.03963e-05 1.15527e-05 9.82951e-06 1.13214e-05 1.44031e-05 1.40671e-05 6.03025e-06 1.76734e-05 1.34495e-05 8.7166e-06 1.38023e-05 1.0948e-05 6.89515e-06 1.17588e-05 6.92054e-06 2.88875e-06 1.59497e-05 8.22227e-06 9.97049e-06 1.0477e-05 1.57553e-05 1.4825e-05 2.13355e-05 1.69443e-05 4.38757e-06 1.00548e-05 1.08259e-05 1.35917e-05 1.67249e-05 2.06626e-05 4.14259e-06 1.26972e-05 1.70594e-05 4.10487e-05 3.06327e-05 5.12754e-05 1.7174e-05 3.65842e-05 2.50011e-05 3.01071e-05 4.51443e-05 4.62692e-05 6.72625e-05 6.9385e-05 5.20427e-05 7.33206e-05 0.000100587 7.90138e-05 0.000103028 8.99061e-05 0.00011061 6.21242e-05 4.23371e-05 2.26641e-05 9.18566e-05 6.68565e-05 4.72029e-05 4.15326e-05 5.08593e-05 6.39014e-05 7.24213e-05 8.07619e-05 9.47244e-05 5.46484e-05 0.000139963 0.000117914 0.000137091 0.000147003 0.000137698 0.000179069 0.000174704 0.000170964 0.000154847 0.00011948 0.000138544 0.000195746 0.000115704 0.000125084 0.000149442 0.000112754 0.000107148 0.000103414 5.12884e-05 0.000109961 8.60665e-05 4.40123e-05 4.49717e-05 8.16836e-05 0.000116686 4.9659e-05 3.0319e-05 5.18337e-05 4.29267e-05 6.66856e-05 6.75078e-05 6.8002e-05 0.000101063 0.000115357 4.07743e-05 8.49832e-05 4.95875e-05 5.75538e-05 9.96291e-05 0.000100048 5.10337e-05 1.42612e-05 0.000115396 3.44865e-05 8.7779e-05 6.87562e-05 9.68277e-06 4.11054e-05 6.982e-05 4.65294e-05 9.22693e-05 7.0261e-05 6.66945e-05 1.22396e-05 1.87735e-05 1.60526e-05 1.03691e-05 1.90258e-05 5.11162e-06 7.13487e-06 1.00783e-05 7.18621e-06 7.13244e-06 1.17346e-05 7.81077e-06 1.28316e-06 3.52122e-06 1.3284e-05 2.55679e-06 1.09842e-05 1.01272e-05 1.49613e-05 9.08876e-06 1.20281e-05 1.00269e-05 8.66248e-06 1.65057e-05 1.8218e-05 2.07578e-05 2.09494e-05 2.04307e-05 2.14851e-05 1.86355e-05 1.86376e-05 1.53223e-05 8.28591e-06 1.27742e-05 1.61741e-05 8.55715e-06 3.37967e-06 3.73137e-06 6.98928e-06 3.89414e-06 8.83893e-06 1.33844e-05 9.35183e-06 8.11942e-06 1.15612e-05 1.25356e-05 1.59097e-05 1.44238e-05 8.84876e-06 1.30659e-05 1.86403e-05 1.45428e-05 1.22315e-05 1.51167e-05 1.5532e-05 2.14922e-05 2.54263e-06 4.424e-06 8.58943e-06 1.82529e-05 1.39887e-05 1.44921e-05 1.91428e-05 1.7416e-05 1.85167e-05 1.19009e-05 3.37704e-05 3.52688e-05 3.31634e-05 2.64758e-05 5.44497e-05 6.22483e-05 3.46841e-05 6.3631e-05 8.41503e-05 9.21615e-05 8.7431e-05 0.000110691 8.19406e-05 8.16084e-05 7.53509e-05 8.60333e-05 6.55808e-05 6.36973e-05 5.61618e-05 6.31145e-05 6.03381e-05 6.90805e-05 3.99129e-05 6.68417e-05 7.46309e-05 0.000119097 0.000146266 0.000123674 0.000137452 0.000137305 0.00012466 0.000118073 0.000146077 0.000122489 0.00013575 0.000144884 0.000155708 0.000135998 0.000117594 8.65465e-05 7.69861e-05 8.12529e-05 0.000108488 5.78472e-05 5.23703e-05 6.37994e-05 3.68794e-05 0.000111187 5.63586e-05 5.92391e-05 9.03744e-05 0.000103519 7.0909e-05 0.000121103 5.66065e-05 7.0589e-05 0.000131543 0.000143827 0.000133438 0.000110029 0.000124821 0.000163675 0.00010126 5.56526e-05 9.30004e-05 1.50085e-05 1.33398e-05 1.89763e-05 1.83227e-05 1.46318e-05 1.14059e-05 7.80595e-06 7.19545e-06 9.11526e-06 5.46315e-06 4.83079e-06 2.34063e-06 1.19493e-05 1.47686e-05 1.67107e-05 1.00282e-05 1.27444e-05 1.85075e-05 1.98492e-05 1.87244e-05 1.43153e-05 1.46073e-05 1.32996e-05 1.25469e-05 7.21314e-06 1.186e-05 1.03889e-05 1.08564e-05 5.53047e-06 6.13754e-06 1.01254e-05 1.02331e-05 6.58621e-06 9.86594e-06 2.02891e-06 1.02388e-05 5.69685e-06 8.04043e-06 1.14376e-05 1.17478e-05 1.29844e-05 1.58183e-05 1.51658e-05 1.01337e-05 7.12405e-06 1.07614e-05 1.73499e-05 9.61442e-06 1.82574e-05 3.86187e-06 5.42692e-06 1.81366e-05 1.9841e-05 2.32842e-05 1.24815e-05 1.83623e-05 1.73031e-05 2.58823e-05 2.11417e-05 3.75411e-05 3.83965e-05 6.5186e-05 5.79122e-05 4.30297e-05 7.0024e-05 7.543e-05 6.25167e-05 7.92008e-05 6.90193e-05 8.02253e-05 7.85974e-05 8.0428e-05 7.23537e-05 7.0129e-05 5.20558e-05 5.03213e-05 5.79035e-05 5.18223e-05 6.92985e-05 9.33318e-05 0.000103925 0.00011424 0.000109668 8.38683e-05 0.000110807 7.47832e-05 0.000110962 0.000118456 0.00013358 0.000190379 0.000159013 0.000122766 0.000138382 0.000203399 0.000141129 0.000179815 0.000168221 0.00015433 0.000165758 0.000158081 0.000166028 0.000145939 0.000166359 0.00011364 0.00012249 9.91582e-05 0.000145386 9.82349e-05 4.19482e-05 6.62174e-05 9.53865e-05 8.55859e-05 5.89836e-05 4.2457e-05 3.657e-05 8.68064e-05 8.03789e-05 0.00011302 0.00012485 0.000101109 0.000171839 0.000114105 0.00012122 0.000121244 0.000121473 0.000113507 0.00010647 1.23662e-05 2.02679e-05 2.0295e-05 1.44831e-05 1.84883e-05 9.4214e-06 1.37163e-05 9.24917e-06 1.01391e-05 7.83934e-06 2.02423e-06 6.65101e-06 7.38676e-06 9.97999e-06 1.20336e-05 1.5481e-05 1.25114e-05 1.81255e-05 1.48242e-05 1.35843e-05 1.85828e-05 2.09959e-05 1.46875e-05 1.47561e-05 1.16535e-05 1.19043e-05 7.56154e-06 1.16986e-05 1.48412e-05 3.50566e-06 7.77458e-06 1.97846e-06 6.75332e-06 9.37851e-06 2.53718e-06 8.16092e-06 9.89377e-06 2.9725e-06 9.70984e-06 3.7607e-06 9.69878e-06 6.66617e-06 1.46401e-05 1.48187e-05 1.30404e-05 1.40805e-05 7.849e-06 5.67878e-06 9.0661e-06 1.73006e-05 9.13476e-06 1.06635e-05 2.52533e-05 2.63924e-05 2.48964e-05 1.76371e-05 1.77286e-05 2.47733e-05 4.20589e-05 6.95864e-05 4.51439e-05 3.30196e-05 4.90991e-05 4.6368e-05 6.98611e-05 7.92975e-05 7.00634e-05 7.04509e-05 7.43963e-05 7.42851e-05 6.67001e-05 7.40274e-05 7.58339e-05 7.37763e-05 5.3752e-05 4.48926e-05 4.4193e-05 5.3099e-05 3.54836e-05 5.75494e-05 7.80262e-05 7.04173e-05 9.83192e-05 8.99709e-05 7.65218e-05 7.51048e-05 5.79913e-05 4.91069e-05 6.69058e-05 8.99919e-05 0.000126434 0.000150473 0.000121893 0.000102853 0.000131968 0.000164273 0.000181416 0.000177896 0.000203645 0.000159589 0.000181246 0.000130887 0.000148719 0.000128431 0.000121688 0.000135848 0.000146922 0.000127794 6.36247e-05 5.97843e-05 0.000101316 9.41756e-05 0.000151896 0.000124611 6.30042e-05 6.41094e-05 3.28153e-05 0.00010921 0.000128701 6.57128e-05 7.18492e-05 5.67158e-05 2.6232e-05 9.10558e-05 5.44746e-05 9.55103e-06 1.64465e-05 1.68462e-05 1.40204e-05 1.15528e-05 1.20075e-05 1.20069e-05 6.89562e-06 9.04915e-06 1.29163e-05 1.43414e-05 1.83968e-05 2.13536e-05 2.40941e-05 1.98699e-05 1.59492e-05 1.19379e-05 1.65244e-05 1.11304e-05 1.36938e-05 1.38604e-05 8.68091e-06 6.05436e-06 1.93967e-06 4.05717e-06 1.9785e-06 2.234e-06 3.36087e-06 8.62126e-06 4.25804e-06 1.04777e-05 1.34644e-05 4.53617e-06 5.6048e-06 1.32115e-05 1.12064e-05 1.25489e-05 1.06171e-05 8.87218e-06 7.89406e-06 1.23546e-05 2.45681e-05 1.95902e-05 1.58398e-05 1.73465e-05 9.59288e-06 9.45768e-06 1.60944e-05 2.91523e-05 2.26836e-05 2.81799e-05 2.23663e-05 2.55382e-05 2.82304e-05 2.81326e-05 7.20697e-05 8.30401e-05 7.89625e-05 8.15111e-05 7.6953e-05 7.96632e-05 7.67112e-05 7.48894e-05 6.56395e-05 4.62854e-05 4.6316e-05 6.15489e-05 3.89136e-05 6.01853e-05 3.94212e-05 4.32192e-05 4.54902e-05 3.26812e-05 7.76053e-05 3.93184e-05 6.17304e-05 2.78509e-05 3.03851e-05 4.95837e-05 4.92161e-05 5.70517e-05 7.09133e-05 7.65372e-05 0.000122354 0.0001287 0.000137596 0.000142638 0.000119231 0.000136067 0.000171136 0.00016563 0.000115514 0.000131312 0.000125396 0.000159281 0.000123921 0.000116796 0.000108304 8.04986e-05 0.000121746 0.000114754 6.06585e-05 9.54315e-05 0.000113176 6.4482e-05 0.000112836 0.000119474 0.000114542 0.000122008 0.00011888 3.24212e-05 0.000114674 6.91695e-05 3.05885e-05 1.21731e-05 1.6847e-05 1.85171e-05 1.63037e-05 1.46107e-05 1.51325e-05 1.41189e-05 1.04268e-05 1.29109e-05 1.13898e-05 1.38835e-05 1.52672e-05 1.51355e-05 1.50359e-05 2.14375e-05 2.34978e-05 2.34135e-05 1.90518e-05 1.60536e-05 9.83471e-06 1.35653e-05 9.45395e-06 4.96953e-06 4.85187e-06 3.13764e-06 8.6805e-07 3.12403e-06 2.93674e-06 5.34403e-06 2.15158e-06 4.45723e-06 5.16564e-06 2.58937e-06 1.16937e-05 1.35029e-05 1.5266e-05 1.35854e-05 1.16049e-05 1.0162e-05 1.08614e-05 1.15341e-05 1.04685e-05 2.13723e-05 2.09384e-05 1.37984e-05 8.45693e-06 1.81003e-05 1.66526e-05 2.8618e-05 2.61085e-05 2.22122e-05 8.50192e-05 9.23553e-05 8.81441e-05 8.40589e-05 7.68449e-05 5.91006e-05 5.69566e-05 3.24102e-05 1.84846e-05 2.17983e-05 1.35399e-05 2.56309e-05 5.15134e-05 2.62749e-05 3.3097e-05 4.96297e-05 2.92981e-05 3.78756e-05 5.54369e-05 4.8688e-05 4.67669e-05 5.53771e-05 5.34073e-05 6.3213e-05 4.40455e-05 6.08499e-05 6.87163e-05 6.33196e-05 8.11512e-05 0.000121773 9.87149e-05 0.000100569 0.00010576 0.000130722 0.000143475 0.00011255 0.000116165 0.000153013 0.000129732 0.000121661 9.20703e-05 0.000108562 6.33235e-05 6.65467e-05 0.000102122 5.42153e-05 4.28149e-05 3.88036e-05 0.000131735 0.000174769 0.000175665 7.56417e-05 0.000115259 0.000104959 8.86341e-05 2.42455e-05 7.79004e-05 3.52594e-05 8.65044e-05 0.00010893 1.40677e-05 1.68704e-05 7.80578e-06 2.15799e-05 2.07389e-05 1.71955e-05 1.50389e-05 1.38913e-05 1.34919e-05 1.48683e-05 9.24912e-06 8.7777e-06 1.16577e-05 1.64855e-05 1.97303e-05 2.0432e-05 2.31396e-05 2.15659e-05 1.67691e-05 1.79602e-05 1.4741e-05 9.1314e-06 1.09913e-05 1.00103e-05 5.73548e-06 5.87623e-06 5.47999e-06 1.01736e-05 8.08233e-06 9.96035e-06 1.11306e-05 6.55244e-06 6.13099e-06 5.24535e-06 3.90408e-06 1.42862e-05 1.24225e-05 1.3313e-05 1.40714e-05 1.42066e-05 1.38568e-05 1.88448e-05 1.58037e-05 2.22248e-05 2.32529e-05 3.12609e-05 2.32415e-05 2.14851e-05 2.08375e-05 2.50771e-05 1.31497e-05 1.20916e-05 1.30777e-05 1.07897e-05 2.18085e-05 1.96743e-05 1.96448e-05 9.16721e-05 9.74726e-05 8.321e-05 7.88853e-05 6.70359e-05 5.75176e-05 4.78677e-05 2.18188e-05 5.85717e-06 2.03359e-05 1.01848e-05 2.88379e-05 4.96883e-05 6.51475e-05 4.55763e-05 3.01488e-05 2.61046e-05 4.18432e-05 4.13944e-05 3.67635e-05 3.59978e-05 6.71306e-05 5.92553e-05 6.231e-05 4.70778e-05 4.99565e-05 5.40091e-05 5.91238e-05 4.71174e-05 5.01026e-05 7.96101e-05 8.62966e-05 0.000108769 0.000156262 0.000147371 0.000149974 0.000133932 0.000139459 5.76766e-05 6.58956e-05 0.000113758 0.000100595 7.60279e-05 0.000133444 0.000142808 0.000150174 0.000110349 0.000114379 0.000113997 0.000110199 3.99799e-05 9.81665e-05 3.35306e-05 0.000125136 1.27299e-05 2.36746e-05 2.74709e-05 2.47829e-05 2.51793e-05 2.26888e-05 1.7213e-05 1.31993e-05 1.281e-05 1.01919e-05 7.30768e-06 9.94933e-06 1.60293e-05 1.46136e-05 1.9745e-05 1.30211e-05 2.05733e-05 2.08361e-05 1.89951e-05 1.689e-05 1.09576e-05 1.55536e-05 1.09954e-05 7.62363e-06 1.45348e-05 6.61227e-06 6.98437e-06 1.57052e-05 1.68712e-05 8.81242e-06 5.27612e-06 9.03877e-06 1.02785e-05 7.04695e-06 1.12826e-05 1.91748e-05 2.61948e-05 2.81375e-05 2.69767e-05 2.85385e-05 2.33545e-05 2.7288e-05 1.28452e-05 1.55178e-05 1.83473e-05 2.41458e-05 2.19259e-05 1.65208e-05 2.55722e-05 2.21709e-05 1.81545e-05 1.87122e-05 9.47501e-05 8.45109e-05 6.34599e-05 6.22779e-05 4.85747e-05 4.58091e-05 3.11598e-05 3.22341e-05 4.81908e-05 8.38776e-05 7.20973e-05 5.48985e-05 7.06295e-05 6.04205e-05 7.34941e-05 5.91631e-05 6.78937e-05 3.93879e-05 2.73819e-05 3.98108e-05 6.13946e-05 4.43848e-05 6.39419e-05 7.23546e-05 0.000100802 0.000102214 0.000140652 0.000144753 0.000117097 0.000126041 0.000124733 0.000117694 0.000163252 0.000123089 0.000118443 0.000197587 0.000148731 0.000168945 0.000176547 0.000123629 0.000114347 0.000147898 0.000161108 0.000126627 7.8364e-05 5.61621e-05 7.46042e-05 0.000128393 0.000161274 1.25872e-05 3.319e-05 2.96599e-05 2.55573e-05 2.31987e-05 2.65838e-05 1.64912e-05 1.82261e-05 9.30256e-06 7.25557e-06 8.73679e-06 8.63959e-06 1.54182e-05 7.41271e-06 1.65992e-05 1.86754e-05 2.07474e-05 2.07368e-05 2.09262e-05 2.13006e-05 1.54788e-05 1.57246e-05 8.93815e-06 2.61419e-05 1.79233e-05 1.20322e-05 7.45199e-06 1.00068e-05 7.91768e-06 8.451e-06 1.7125e-05 2.03633e-05 2.53027e-05 2.95714e-05 2.62901e-05 2.06534e-05 1.84066e-05 1.22973e-05 1.98433e-05 2.09331e-05 2.15132e-05 2.22544e-05 2.49964e-05 2.56562e-05 2.51217e-05 2.96576e-05 1.90155e-05 1.55441e-05 8.90323e-05 7.14405e-05 7.56122e-05 5.53649e-05 5.7331e-05 5.76657e-05 5.03918e-05 4.85981e-05 4.36904e-05 5.39853e-05 4.6575e-05 0.000103662 6.96789e-05 7.24148e-05 6.66217e-05 6.91597e-05 7.35291e-05 6.65971e-05 5.90471e-05 2.88268e-05 2.23515e-05 4.30894e-05 8.76983e-05 8.0792e-05 4.57944e-05 9.9619e-05 7.17507e-05 8.92734e-05 0.000122469 0.000136056 0.000118145 9.41445e-05 0.000141173 0.000156439 0.00014122 0.000123143 0.000163463 0.000206088 0.00015682 0.000129602 0.000129466 7.15271e-05 3.67904e-05 0.000154578 8.77067e-05 0.000147442 0.000184894 1.22004e-05 3.47188e-05 3.25426e-05 3.24384e-05 2.98042e-05 2.29004e-05 1.55756e-05 7.47886e-06 7.00006e-06 1.83107e-06 5.20562e-06 6.75539e-06 1.15306e-05 1.47004e-05 1.82004e-05 2.52362e-05 2.02446e-05 1.91274e-05 2.21374e-05 2.61384e-05 2.99093e-05 4.37087e-05 3.05012e-05 3.95855e-05 2.45887e-05 1.75877e-05 1.21097e-05 1.51401e-05 1.37615e-05 1.59066e-05 1.47566e-05 2.18437e-05 1.63912e-05 2.56125e-05 2.49249e-05 2.52871e-05 2.96376e-05 2.51782e-05 2.87015e-05 1.5049e-05 1.50821e-05 1.0776e-05 2.32274e-05 2.15115e-05 2.23345e-05 2.85781e-05 2.88046e-05 2.77742e-05 6.34857e-06 1.51938e-05 8.54874e-05 7.26579e-05 5.09199e-05 5.09381e-05 5.87932e-05 5.84421e-05 6.88334e-05 7.60967e-05 9.00586e-05 0.000185709 9.81362e-05 6.47288e-05 3.43162e-05 7.82794e-05 5.53182e-05 5.72733e-05 4.58127e-05 4.02889e-05 3.21216e-05 9.08048e-05 8.64286e-05 4.22304e-05 4.48904e-05 2.49286e-05 3.61737e-05 8.11632e-05 0.000103661 6.37371e-05 0.000147794 0.000159095 0.000127292 0.000110003 0.000130958 0.000125339 0.000152673 0.000158319 0.000183747 0.000108289 5.03973e-05 6.85405e-06 4.05373e-05 3.49823e-05 0.000114051 0.000104784 0.000144186 0.000119938 9.58966e-05 3.41964e-05 3.17165e-05 2.6152e-05 2.11266e-05 1.90658e-05 4.52948e-06 5.37462e-06 8.13524e-06 1.08363e-05 1.22558e-05 1.68311e-05 2.72551e-05 2.26952e-05 2.45266e-05 2.30785e-05 3.85303e-05 4.32701e-05 4.3968e-05 4.78806e-05 5.16334e-05 4.03951e-05 2.60198e-05 2.08687e-05 2.79808e-05 2.1865e-05 3.22143e-05 3.03538e-05 2.20536e-05 2.4349e-05 2.1527e-05 2.70008e-05 2.96678e-05 3.14483e-05 2.41602e-05 8.84411e-06 1.82832e-05 1.60243e-05 2.77474e-05 2.82061e-05 2.58837e-05 3.64402e-05 3.12226e-05 3.10936e-05 2.73487e-05 1.93226e-05 8.7792e-05 8.54734e-05 6.03252e-05 4.4909e-05 5.38021e-05 6.95216e-05 6.4525e-05 6.94908e-05 7.56788e-05 8.29622e-05 0.000196881 0.000127533 2.6391e-05 0.000121552 7.59526e-05 7.16426e-05 0.000106794 0.000125326 6.80056e-05 5.92172e-05 5.20066e-05 6.20756e-05 5.7628e-05 6.80124e-05 3.20093e-05 5.84399e-05 9.86913e-05 8.98716e-05 0.000116281 0.000178688 0.000143371 0.000145281 0.000121016 0.000129575 0.000130661 0.000117346 0.000168467 0.000149578 0.000133195 0.00017407 7.701e-05 3.96281e-05 0.000106217 4.68874e-05 7.90444e-05 7.85524e-05 0.000103876 7.34759e-05 2.95582e-05 1.91036e-05 1.86732e-05 1.71319e-05 2.78374e-05 6.91121e-05 6.6124e-05 6.15734e-05 0.000150922 0.000158693 6.09481e-05 8.61654e-05 4.12103e-05 
SCALARS Stress float 1
LOOKUP_TABLE default
-12550300000.0 -12551400000.0 -12552900000.0 -12550000000.0 -12551200000.0 -12550700000.0 -12550300000.0 -12550200000.0 -12550500000.0 -12551200000.0 -12549900000.0 -12549800000.0 -12550300000.0 -12551900000.0 -12556000000.0 -12557700000.0 -12558500000.0 -12557800000.0 -12556200000.0 -12550900000.0 -12550400000.0 -12552600000.0 -12550300000.0 -12550200000.0 -12558300000.0 -12553100000.0 -12549700000.0 -12552100000.0 -12550200000.0 -12550700000.0 -12550700000.0 -12559800000.0 -12563300000.0 -12566300000.0 -12549700000.0 -12577300000.0 -12552000000.0 -12552000000.0 -12550000000.0 -12550400000.0 -12552100000.0 -12549700000.0 -12549700000.0 -12549700000.0 -12550200000.0 -12549700000.0 -12549700000.0 -12549700000.0 -12550100000.0 -12549700000.0 -12549700000.0 -12549900000.0 -12550700000.0 -12551200000.0 -12553600000.0 -12550600000.0 -12550300000.0 -12550100000.0 -12549900000.0 -12549700000.0 -12549700000.0 -12549700000.0 -12549700000.0 -12549900000.0 -12551200000.0 -12550200000.0 -12550300000.0 -12553000000.0 -12555900000.0 -12555200000.0 -12551800000.0 -12549800000.0 -12551100000.0 -12549700000.0 -12550200000.0 -12551500000.0 -12549700000.0 -12551800000.0 -12549700000.0 -12549700000.0 -12550300000.0 -12555100000.0 -12552000000.0 -12551700000.0 -12551800000.0 -12550300000.0 -12551100000.0 -12550100000.0 -12552200000.0 -12552600000.0 -12552200000.0 -12560000000.0 -12549800000.0 -12549800000.0 -12550300000.0 -12551100000.0 -12552200000.0 -12550600000.0 -12550300000.0 -12553700000.0 -12551500000.0 -12550500000.0 -12550400000.0 -12550200000.0 -12550100000.0 -12551800000.0 -12552400000.0 -12551400000.0 -12553900000.0 -12558000000.0 -12563700000.0 -12561700000.0 -12563800000.0 -12559600000.0 -12570400000.0 -12551300000.0 -12557800000.0 -12577600000.0 -12550400000.0 -12556200000.0 -12555700000.0 -12549700000.0 -12553000000.0 -12552200000.0 -12561600000.0 -12551000000.0 -12552000000.0 -12550000000.0 -12551600000.0 -12555600000.0 -12552300000.0 -12578800000.0 -12559800000.0 -12558400000.0 -12558800000.0 -12566700000.0 -12555200000.0 -12565600000.0 -12554900000.0 -12565000000.0 -12580500000.0 -12573800000.0 -12571200000.0 -12553500000.0 -12552100000.0 -12560900000.0 -12549700000.0 -12551000000.0 -12549700000.0 -12549700000.0 -12551700000.0 -12549700000.0 -12549700000.0 -12549700000.0 -12550600000.0 -12549700000.0 -12554800000.0 -12549700000.0 -12549700000.0 -12549700000.0 -12550700000.0 -12549800000.0 -12549700000.0 -12549700000.0 -12549700000.0 -12551300000.0 -12550000000.0 -12550800000.0 -12553900000.0 -12553100000.0 -12561300000.0 -12559200000.0 -12550300000.0 -12552500000.0 -12557900000.0 -12551700000.0 -12555300000.0 -12550200000.0 -12551200000.0 -12552100000.0 -12557500000.0 -12550300000.0 -12551900000.0 -12553100000.0 -12552600000.0 -12559500000.0 -12551500000.0 -12550500000.0 -12550000000.0 -12553200000.0 -12556100000.0 -12572900000.0 -12558500000.0 -12549700000.0 -12549700000.0 -12551100000.0 -12561000000.0 -12562400000.0 -12556500000.0 -12551500000.0 -12549700000.0 -12557500000.0 -12551900000.0 -12557500000.0 -12549700000.0 -12549700000.0 -12565200000.0 -12550700000.0 -12561500000.0 -12565000000.0 -12550800000.0 -12549800000.0 -12561600000.0 -12560900000.0 -12555100000.0 -12568900000.0 -12550800000.0 -12629700000.0 -12557100000.0 -12555200000.0 -12550900000.0 -12554000000.0 -12549800000.0 -12588600000.0 -12552800000.0 -12565300000.0 -12559900000.0 -12565800000.0 -12586600000.0 -12549700000.0 -12569300000.0 -12565100000.0 -12558200000.0 -12580400000.0 -12560400000.0 -12558500000.0 -12560900000.0 -12569600000.0 -12566800000.0 -12549700000.0 -12587700000.0 -12572100000.0 -12551600000.0 -12572200000.0 -12561300000.0 -12573100000.0 -12585300000.0 -12563100000.0 -12550400000.0 -12569500000.0 -12571700000.0 -12557200000.0 -12560100000.0 -12556600000.0 -12556900000.0 -12555400000.0 -12557600000.0 -12550500000.0 -12553800000.0 -12549700000.0 -12555700000.0 -12549700000.0 -12550600000.0 -12549700000.0 -12552500000.0 -12549700000.0 -12559000000.0 -12549800000.0 -12550400000.0 -12552600000.0 -12549700000.0 -12551600000.0 -12550900000.0 -12550600000.0 -12550800000.0 -12552100000.0 -12554200000.0 -12549900000.0 -12552200000.0 -12558600000.0 -12557200000.0 -12551800000.0 -12562100000.0 -12557400000.0 -12555100000.0 -12569300000.0 -12575900000.0 -12549700000.0 -12550000000.0 -12549700000.0 -12565100000.0 -12558500000.0 -12569900000.0 -12550600000.0 -12550000000.0 -12550400000.0 -12549800000.0 -12561200000.0 -12555400000.0 -12558200000.0 -12551100000.0 -12554200000.0 -12566100000.0 -12558700000.0 -12556700000.0 -12554900000.0 -12559700000.0 -12581500000.0 -12573400000.0 -12574600000.0 -12564600000.0 -12573500000.0 -12577900000.0 -12561600000.0 -12571100000.0 -12565600000.0 -12563600000.0 -12560200000.0 -12570300000.0 -12609500000.0 -12603600000.0 -12643700000.0 -12558600000.0 -12615100000.0 -12551300000.0 -12583200000.0 -12564300000.0 -12576500000.0 -12568900000.0 -12562100000.0 -12556700000.0 -12588400000.0 -12550400000.0 -12554600000.0 -12551700000.0 -12598600000.0 -12553000000.0 -12570800000.0 -12568400000.0 -12568000000.0 -12551400000.0 -12568100000.0 -12549700000.0 -12554100000.0 -12574000000.0 -12608400000.0 -12560000000.0 -12559700000.0 -12556300000.0 -12577100000.0 -12574900000.0 -12552700000.0 -12566400000.0 -12549700000.0 -12551700000.0 -12551400000.0 -12565000000.0 -12553900000.0 -12554400000.0 -12553000000.0 -12557500000.0 -12552700000.0 -12553800000.0 -12552600000.0 -12558300000.0 -12554300000.0 -12560900000.0 -12552400000.0 -12549700000.0 -12553000000.0 -12549800000.0 -12550100000.0 -12549900000.0 -12550500000.0 -12551600000.0 -12556200000.0 -12558200000.0 -12554200000.0 -12555400000.0 -12570300000.0 -12567700000.0 -12571200000.0 -12568600000.0 -12552300000.0 -12553200000.0 -12575900000.0 -12561200000.0 -12552500000.0 -12558900000.0 -12552500000.0 -12592900000.0 -12558400000.0 -12553400000.0 -12566000000.0 -12550200000.0 -12564400000.0 -12569900000.0 -12555100000.0 -12594800000.0 -12555200000.0 -12570200000.0 -12553600000.0 -12578400000.0 -12549700000.0 -12549700000.0 -12549700000.0 -12572400000.0 -12578600000.0 -12614600000.0 -12553400000.0 -12569500000.0 -12584000000.0 -12597400000.0 -12594900000.0 -12592300000.0 -12607300000.0 -12596400000.0 -12558900000.0 -12590300000.0 -12638300000.0 -12556100000.0 -12585600000.0 -12631000000.0 -12648300000.0 -12640000000.0 -12550600000.0 -12607700000.0 -12580500000.0 -12583600000.0 -12551200000.0 -12594900000.0 -12551400000.0 -12593500000.0 -12647700000.0 -12637600000.0 -12563200000.0 -12580200000.0 -12595100000.0 -12553500000.0 -12618000000.0 -12563800000.0 -12552000000.0 -12562700000.0 -12550900000.0 -12601200000.0 -12613200000.0 -12593400000.0 -12553000000.0 -12565000000.0 -12585900000.0 -12563500000.0 -12551900000.0 -12570000000.0 -12560200000.0 -12565000000.0 -12582600000.0 -12551800000.0 -12552300000.0 -12549900000.0 -12556300000.0 -12549700000.0 -12556400000.0 -12582000000.0 -12554700000.0 -12580800000.0 -12590300000.0 -12551600000.0 -12573800000.0 -12553700000.0 -12565800000.0 -12560700000.0 -12555800000.0 -12551800000.0 -12550100000.0 -12573800000.0 -12590600000.0 -12580800000.0 -12564200000.0 -12567000000.0 -12554000000.0 -12549800000.0 -12554100000.0 -12568900000.0 -12571200000.0 -12584700000.0 -12554100000.0 -12552300000.0 -12591200000.0 -12593300000.0 -12608100000.0 -12570300000.0 -12556600000.0 -12586700000.0 -12554200000.0 -12586800000.0 -12592500000.0 -12549700000.0 -12575300000.0 -12550200000.0 -12552000000.0 -12609600000.0 -12550800000.0 -12616100000.0 -12581000000.0 -12552000000.0 -12558000000.0 -12592900000.0 -12599500000.0 -12581700000.0 -12603600000.0 -12606000000.0 -12612300000.0 -12626500000.0 -12561800000.0 -12593100000.0 -12584600000.0 -12581400000.0 -12618300000.0 -12607800000.0 -12549800000.0 -12589900000.0 -12660300000.0 -12642200000.0 -12570500000.0 -12656800000.0 -12582600000.0 -12603500000.0 -12610600000.0 -12598100000.0 -12574500000.0 -12561800000.0 -12550600000.0 -12614400000.0 -12586700000.0 -12576000000.0 -12580700000.0 -12651800000.0 -12551000000.0 -12599600000.0 -12615200000.0 -12616800000.0 -12585400000.0 -12579000000.0 -12582000000.0 -12586400000.0 -12576000000.0 -12561000000.0 -12564000000.0 -12552100000.0 -12554400000.0 -12551500000.0 -12553700000.0 -12587700000.0 -12560400000.0 -12582600000.0 -12580600000.0 -12550100000.0 -12579800000.0 -12578100000.0 -12563000000.0 -12574500000.0 -12561400000.0 -12589000000.0 -12568300000.0 -12552900000.0 -12559700000.0 -12585800000.0 -12568000000.0 -12574500000.0 -12566800000.0 -12573000000.0 -12571700000.0 -12549700000.0 -12551700000.0 -12564900000.0 -12569000000.0 -12602500000.0 -12554500000.0 -12551900000.0 -12557900000.0 -12564000000.0 -12567700000.0 -12551900000.0 -12549900000.0 -12559100000.0 -12573000000.0 -12568400000.0 -12553200000.0 -12560000000.0 -12588700000.0 -12587700000.0 -12552500000.0 -12616500000.0 -12581100000.0 -12583100000.0 -12573200000.0 -12625000000.0 -12576600000.0 -12557200000.0 -12609200000.0 -12574400000.0 -12554700000.0 -12579000000.0 -12588000000.0 -12599300000.0 -12550500000.0 -12680300000.0 -12560800000.0 -12609900000.0 -12599400000.0 -12573700000.0 -12573900000.0 -12567100000.0 -12681200000.0 -12572000000.0 -12713000000.0 -12590500000.0 -12577800000.0 -12561400000.0 -12750900000.0 -12593700000.0 -12651400000.0 -12637100000.0 -12703900000.0 -12722300000.0 -12573700000.0 -12570800000.0 -12576200000.0 -12589100000.0 -12620000000.0 -12577800000.0 -12582900000.0 -12549700000.0 -12589000000.0 -12563300000.0 -12558900000.0 -12637300000.0 -12596000000.0 -12589900000.0 -12593800000.0 -12718700000.0 -12585100000.0 -12665500000.0 -12586600000.0 -12609900000.0 -12555600000.0 -12565400000.0 -12597900000.0 -12602200000.0 -12549700000.0 -12577700000.0 -12555000000.0 -12557200000.0 -12574300000.0 -12562400000.0 -12549800000.0 -12550600000.0 -12564100000.0 -12569500000.0 -12574700000.0 -12549800000.0 -12588800000.0 -12583000000.0 -12577800000.0 -12571600000.0 -12578800000.0 -12560200000.0 -12554500000.0 -12555500000.0 -12560300000.0 -12550700000.0 -12564300000.0 -12558500000.0 -12570500000.0 -12580900000.0 -12579900000.0 -12566700000.0 -12571000000.0 -12569000000.0 -12552600000.0 -12559200000.0 -12570800000.0 -12566300000.0 -12570500000.0 -12578900000.0 -12621400000.0 -12575000000.0 -12598500000.0 -12555200000.0 -12577000000.0 -12570700000.0 -12549700000.0 -12563700000.0 -12559400000.0 -12649700000.0 -12565900000.0 -12574000000.0 -12572500000.0 -12645300000.0 -12654900000.0 -12654700000.0 -12550900000.0 -12653000000.0 -12641300000.0 -12637100000.0 -12674000000.0 -12693100000.0 -12721400000.0 -12734100000.0 -12690500000.0 -12653800000.0 -12632600000.0 -12794000000.0 -12552300000.0 -12587600000.0 -12599900000.0 -12586500000.0 -12584700000.0 -12599700000.0 -12579100000.0 -12558600000.0 -12596400000.0 -12549700000.0 -12633700000.0 -12553500000.0 -12553200000.0 -12555200000.0 -12550700000.0 -12550100000.0 -12581100000.0 -12549700000.0 -12549700000.0 -12707500000.0 -12709000000.0 -12702000000.0 -12637700000.0 -12633400000.0 -12556400000.0 -12618500000.0 -12631800000.0 -12627700000.0 -12623700000.0 -12634600000.0 -12581300000.0 -12581200000.0 -12596900000.0 -12587800000.0 -12551600000.0 -12585200000.0 -12566700000.0 -12554700000.0 -12564700000.0 -12574100000.0 -12554900000.0 -12564700000.0 -12565200000.0 -12552500000.0 -12567200000.0 -12558600000.0 -12557700000.0 -12551800000.0 -12561800000.0 -12554600000.0 -12571000000.0 -12591100000.0 -12597200000.0 -12575500000.0 -12558900000.0 -12586300000.0 -12555900000.0 -12558500000.0 -12566900000.0 -12558300000.0 -12554100000.0 -12601200000.0 -12556500000.0 -12561400000.0 -12559100000.0 -12558500000.0 -12611900000.0 -12550000000.0 -12600700000.0 -12614000000.0 -12651100000.0 -12627800000.0 -12639600000.0 -12630300000.0 -12671300000.0 -12641200000.0 -12583500000.0 -12633900000.0 -12570700000.0 -12551800000.0 -12567400000.0 -12555000000.0 -12549700000.0 -12603300000.0 -12682900000.0 -12623400000.0 -12551500000.0 -12574900000.0 -12587700000.0 -12549700000.0 -12593700000.0 -12576900000.0 -12605000000.0 -12593100000.0 -12607700000.0 -12581400000.0 -12563700000.0 -12597800000.0 -12637700000.0 -12600000000.0 -12680600000.0 -12614500000.0 -12581200000.0 -12644600000.0 -12595200000.0 -12637000000.0 -12590600000.0 -12550000000.0 -12817500000.0 -12549700000.0 -12647600000.0 -12585100000.0 -12550200000.0 -12628600000.0 -12582000000.0 -12607700000.0 -12649800000.0 -12634000000.0 -12549800000.0 -12565800000.0 -12591100000.0 -12549700000.0 -12592500000.0 -12643900000.0 -12671800000.0 -12675400000.0 -12586100000.0 -12569800000.0 -12555200000.0 -12560300000.0 -12549700000.0 -12583600000.0 -12550300000.0 -12550000000.0 -12576900000.0 -12553000000.0 -12559000000.0 -12555100000.0 -12549700000.0 -12565600000.0 -12565900000.0 -12550900000.0 -12572000000.0 -12569100000.0 -12563700000.0 -12556100000.0 -12558800000.0 -12574200000.0 -12566100000.0 -12573200000.0 -12571500000.0 -12580100000.0 -12575100000.0 -12596500000.0 -12576000000.0 -12579800000.0 -12603500000.0 -12615200000.0 -12610200000.0 -12550000000.0 -12592700000.0 -12602700000.0 -12602100000.0 -12552000000.0 -12614300000.0 -12590700000.0 -12549700000.0 -12590800000.0 -12593700000.0 -12636700000.0 -12552200000.0 -12555800000.0 -12597700000.0 -12623100000.0 -12652500000.0 -12629400000.0 -12611400000.0 -12600100000.0 -12571300000.0 -12584700000.0 -12620700000.0 -12627100000.0 -12564300000.0 -12560400000.0 -12568300000.0 -12578500000.0 -12550200000.0 -12600700000.0 -12639100000.0 -12632900000.0 -12686700000.0 -12624000000.0 -12565700000.0 -12549700000.0 -12612100000.0 -12643400000.0 -12708000000.0 -12623300000.0 -12700500000.0 -12573700000.0 -12601000000.0 -12607900000.0 -12626200000.0 -12602300000.0 -12867400000.0 -12630900000.0 -12648200000.0 -12600600000.0 -12554400000.0 -12602700000.0 -12648800000.0 -12646000000.0 -12586800000.0 -12550700000.0 -12586500000.0 -12601100000.0 -12604000000.0 -12557900000.0 -12559200000.0 -12570500000.0 -12573400000.0 -12550700000.0 -12651800000.0 -12556300000.0 -12609800000.0 -12554200000.0 -12550500000.0 -12552300000.0 -12563600000.0 -12628500000.0 -12575500000.0 -12549700000.0 -12569100000.0 -12554500000.0 -12557200000.0 -12556200000.0 -12564800000.0 -12553000000.0 -12569100000.0 -12558900000.0 -12550900000.0 -12558600000.0 -12568000000.0 -12555400000.0 -12569600000.0 -12586100000.0 -12565000000.0 -12550500000.0 -12561100000.0 -12568300000.0 -12549800000.0 -12549900000.0 -12552200000.0 -12555500000.0 -12550200000.0 -12554800000.0 -12551600000.0 -12549700000.0 -12549800000.0 -12589500000.0 -12582400000.0 -12549700000.0 -12583200000.0 -12552200000.0 -12582900000.0 -12549900000.0 -12549700000.0 -12549700000.0 -12550300000.0 -12570500000.0 -12568800000.0 -12582300000.0 -12549700000.0 -12552400000.0 -12549700000.0 -12561800000.0 -12577800000.0 -12571500000.0 -12578500000.0 -12564400000.0 -12632800000.0 -12549700000.0 -12590500000.0 -12594200000.0 -12558200000.0 -12630100000.0 -12679100000.0 -12589000000.0 -12669000000.0 -12566900000.0 -12554500000.0 -12594500000.0 -12555500000.0 -12593300000.0 -12553200000.0 -12675500000.0 -12596300000.0 -12571900000.0 -12588900000.0 -12623400000.0 -12733300000.0 -12604600000.0 -12682300000.0 -12676000000.0 -12557100000.0 -12668400000.0 -12635300000.0 -12625700000.0 -12712100000.0 -12563500000.0 -12728900000.0 -12745800000.0 -12567400000.0 -12816600000.0 -12724700000.0 -12718300000.0 -12911100000.0 -12756000000.0 -12702000000.0 -12671800000.0 -12706900000.0 -12560200000.0 -12583800000.0 -12625800000.0 -12579700000.0 -12572900000.0 -12631600000.0 -12627200000.0 -12549900000.0 -12587600000.0 -12612200000.0 -12561500000.0 -12561300000.0 -12628500000.0 -12578600000.0 -12559300000.0 -12582200000.0 -12666900000.0 -12618800000.0 -12608100000.0 -12564900000.0 -12568800000.0 -12621600000.0 -12588600000.0 -12571300000.0 -12586800000.0 -12598100000.0 -12552400000.0 -12586000000.0 -12550300000.0 -12571100000.0 -12560000000.0 -12576200000.0 -12551200000.0 -12596700000.0 -12561900000.0 -12554800000.0 -12567200000.0 -12580700000.0 -12572600000.0 -12556000000.0 -12574900000.0 -12562600000.0 -12556700000.0 -12556400000.0 -12557700000.0 -12556500000.0 -12552200000.0 -12550000000.0 -12551500000.0 -12571100000.0 -12568400000.0 -12581500000.0 -12594200000.0 -12589200000.0 -12591800000.0 -12569300000.0 -12570200000.0 -12551200000.0 -12596800000.0 -12549700000.0 -12553200000.0 -12560400000.0 -12562300000.0 -12579200000.0 -12587600000.0 -12572500000.0 -12648200000.0 -12565400000.0 -12621900000.0 -12549700000.0 -12629000000.0 -12622700000.0 -12641200000.0 -12680400000.0 -12731600000.0 -12562300000.0 -12684800000.0 -12633800000.0 -12620400000.0 -12617600000.0 -12604400000.0 -12587600000.0 -12558300000.0 -12591800000.0 -12589400000.0 -12571200000.0 -12562400000.0 -12610400000.0 -12645800000.0 -12567300000.0 -12665700000.0 -12599000000.0 -12658600000.0 -12561200000.0 -12549700000.0 -12668700000.0 -12583800000.0 -12590300000.0 -12615600000.0 -12555100000.0 -12726600000.0 -12577200000.0 -12649900000.0 -12581700000.0 -12553300000.0 -12578500000.0 -12706200000.0 -12591000000.0 -12685000000.0 -12549700000.0 -12667400000.0 -12549700000.0 -12737200000.0 -12880000000.0 -12904200000.0 -12553100000.0 -12551100000.0 -12877900000.0 -12561300000.0 -12889300000.0 -12872200000.0 -12748300000.0 -12554200000.0 -12583900000.0 -12701300000.0 -12573100000.0 -12646100000.0 -12613300000.0 -12639400000.0 -12550300000.0 -12623700000.0 -12636800000.0 -12580800000.0 -12563500000.0 -12561900000.0 -12553300000.0 -12583400000.0 -12586800000.0 -12563200000.0 -12570800000.0 -12589900000.0 -12568200000.0 -12569800000.0 -12566600000.0 -12549700000.0 -12573800000.0 -12559000000.0 -12574600000.0 -12549700000.0 -12590900000.0 -12590600000.0 -12601800000.0 -12595400000.0 -12579800000.0 -12560100000.0 -12561300000.0 -12581300000.0 -12605300000.0 -12576100000.0 -12579300000.0 -12565200000.0 -12560900000.0 -12567700000.0 -12593500000.0 -12581000000.0 -12549900000.0 -12588700000.0 -12633000000.0 -12573300000.0 -12585900000.0 -12633300000.0 -12549700000.0 -12549700000.0 -12727000000.0 -12724800000.0 -12624900000.0 -12664200000.0 -12617900000.0 -12643500000.0 -12561400000.0 -12609100000.0 -12620700000.0 -12573600000.0 -12608700000.0 -12549700000.0 -12642400000.0 -12681300000.0 -12653100000.0 -12570700000.0 -12567300000.0 -12722800000.0 -12768500000.0 -12605200000.0 -12550100000.0 -12549700000.0 -12631700000.0 -12667400000.0 -12591400000.0 -12638600000.0 -12577500000.0 -12565400000.0 -12589800000.0 -12559300000.0 -12768000000.0 -12572600000.0 -12795200000.0 -12772600000.0 -12656800000.0 -12674200000.0 -12568900000.0 -12560400000.0 -12772400000.0 -12552900000.0 -12579200000.0 -12862400000.0 -12840900000.0 -12566200000.0 -12601900000.0 -12867500000.0 -12662400000.0 -12624400000.0 -12642100000.0 -12615200000.0 -12631300000.0 -12550200000.0 -12691200000.0 -12550300000.0 -12709300000.0 -12766600000.0 -12665400000.0 -12572300000.0 -12585800000.0 -12567400000.0 -12570600000.0 -12570700000.0 -12554900000.0 -12565400000.0 -12553300000.0 -12552100000.0 -12554900000.0 -12550700000.0 -12584800000.0 -12566300000.0 -12574100000.0 -12572200000.0 -12555000000.0 -12559900000.0 -12564100000.0 -12620700000.0 -12599600000.0 -12554900000.0 -12562200000.0 -12592000000.0 -12585300000.0 -12552800000.0 -12588300000.0 -12590700000.0 -12561400000.0 -12564900000.0 -12552200000.0 -12593000000.0 -12572400000.0 -12583900000.0 -12588300000.0 -12551100000.0 -12612700000.0 -12554900000.0 -12550300000.0 -12564300000.0 -12551900000.0 -12612400000.0 -12599400000.0 -12554300000.0 -12589700000.0 -12575500000.0 -12560900000.0 -12560600000.0 -12635500000.0 -12678400000.0 -12742300000.0 -12710200000.0 -12666500000.0 -12564500000.0 -12589900000.0 -12568500000.0 -12551900000.0 -12554800000.0 -12644800000.0 -12613500000.0 -12555300000.0 -12574600000.0 -12710800000.0 -12551000000.0 -12575100000.0 -12680300000.0 -12639300000.0 -12581100000.0 -12645000000.0 -12560200000.0 -12627000000.0 -12677300000.0 -12818500000.0 -12663000000.0 -12634900000.0 -12609000000.0 -12591700000.0 -12551600000.0 -12574000000.0 -12662500000.0 -12714000000.0 -12605400000.0 -12725100000.0 -12621100000.0 -12674700000.0 -12604800000.0 -12589000000.0 -12554800000.0 -12666400000.0 -12662600000.0 -12594700000.0 -12567400000.0 -12638800000.0 -12565300000.0 -12551800000.0 -12550300000.0 -12552700000.0 -12549700000.0 -12682900000.0 -12689500000.0 -12551900000.0 -12640100000.0 -12568200000.0 -12579500000.0 -12573500000.0 -12563400000.0 -12590800000.0 -12561700000.0 -12576300000.0 -12559300000.0 -12557800000.0 -12568000000.0 -12555200000.0 -12556100000.0 -12549900000.0 -12555300000.0 -12559800000.0 -12549700000.0 -12586200000.0 -12587700000.0 -12579200000.0 -12550200000.0 -12557000000.0 -12582800000.0 -12557900000.0 -12570600000.0 -12570900000.0 -12560700000.0 -12631200000.0 -12559400000.0 -12550200000.0 -12609900000.0 -12555400000.0 -12551000000.0 -12558400000.0 -12562200000.0 -12558200000.0 -12619000000.0 -12556900000.0 -12575300000.0 -12565500000.0 -12550400000.0 -12637500000.0 -12616100000.0 -12695400000.0 -12668700000.0 -12559000000.0 -12669000000.0 -12648200000.0 -12688900000.0 -12728000000.0 -12551400000.0 -12552400000.0 -12754100000.0 -12644400000.0 -12591900000.0 -12551700000.0 -12577900000.0 -12558600000.0 -12577400000.0 -12562000000.0 -12567800000.0 -12565400000.0 -12693600000.0 -12614000000.0 -12731900000.0 -12591500000.0 -12617000000.0 -12643200000.0 -12687600000.0 -12718700000.0 -12557700000.0 -12618100000.0 -12550100000.0 -12637200000.0 -12653100000.0 -12620600000.0 -12613000000.0 -12676100000.0 -12596300000.0 -12600700000.0 -12618500000.0 -12558000000.0 -12667500000.0 -12647700000.0 -12660900000.0 -12721000000.0 -12582000000.0 -12661100000.0 -12692900000.0 -12598100000.0 -12723200000.0 -12630400000.0 -12644700000.0 -12639800000.0 -12640500000.0 -12564100000.0 -12552500000.0 -12554600000.0 -12552300000.0 -12550400000.0 -12572800000.0 -12639100000.0 -12568300000.0 -12561700000.0 -12574000000.0 -12564400000.0 -12575200000.0 -12551100000.0 -12552900000.0 -12570000000.0 -12571100000.0 -12572400000.0 -12553800000.0 -12553400000.0 -12551600000.0 -12549800000.0 -12558300000.0 -12550500000.0 -12556300000.0 -12549900000.0 -12564000000.0 -12562000000.0 -12564600000.0 -12599800000.0 -12583300000.0 -12568700000.0 -12550400000.0 -12569500000.0 -12607900000.0 -12553900000.0 -12569400000.0 -12556300000.0 -12572900000.0 -12554100000.0 -12551000000.0 -12552800000.0 -12637700000.0 -12575900000.0 -12588700000.0 -12616200000.0 -12550500000.0 -12607800000.0 -12558500000.0 -12571800000.0 -12692900000.0 -12780300000.0 -12759000000.0 -12554600000.0 -12550000000.0 -12550300000.0 -12549800000.0 -12675800000.0 -12733000000.0 -12554600000.0 -12557600000.0 -12614600000.0 -12560900000.0 -12579500000.0 -12556100000.0 -12552500000.0 -12587300000.0 -12719500000.0 -12718600000.0 -12630400000.0 -12549700000.0 -12604200000.0 -12621300000.0 -12550100000.0 -12577000000.0 -12587700000.0 -12597100000.0 -12561200000.0 -12557400000.0 -12586100000.0 -12588800000.0 -12653600000.0 -12551700000.0 -12586500000.0 -12569100000.0 -12676100000.0 -12660300000.0 -12584700000.0 -12590000000.0 -12600700000.0 -12671100000.0 -12626600000.0 -12707200000.0 -12690700000.0 -12598800000.0 -12675700000.0 -12656600000.0 -12625900000.0 -12572200000.0 -12702300000.0 -12549700000.0 -12589600000.0 -12582700000.0 -12606600000.0 -12626400000.0 -12614300000.0 -12561300000.0 -12552200000.0 -12554800000.0 -12555500000.0 -12550300000.0 -12568500000.0 -12551200000.0 -12561200000.0 -12649200000.0 -12628500000.0 -12549800000.0 -12549700000.0 -12584300000.0 -12561800000.0 -12569400000.0 -12561100000.0 -12552100000.0 -12558400000.0 -12553100000.0 -12572700000.0 -12554000000.0 -12555800000.0 -12562100000.0 -12560400000.0 -12592200000.0 -12549700000.0 -12563400000.0 -12551600000.0 -12572300000.0 -12574000000.0 -12579100000.0 -12549700000.0 -12568400000.0 -12559200000.0 -12554700000.0 -12557000000.0 -12559300000.0 -12582000000.0 -12563300000.0 -12594300000.0 -12578300000.0 -12593800000.0 -12551400000.0 -12563300000.0 -12565700000.0 -12561300000.0 -12670600000.0 -12551500000.0 -12600200000.0 -12614900000.0 -12620500000.0 -12589200000.0 -12600400000.0 -12573400000.0 -12588400000.0 -12939800000.0 -12630600000.0 -12678400000.0 -12640100000.0 -12632200000.0 -12729300000.0 -12552700000.0 -12563900000.0 -12637000000.0 -12582900000.0 -12608600000.0 -12755800000.0 -12742700000.0 -12599900000.0 -12555100000.0 -12596200000.0 -12622000000.0 -12597100000.0 -12581100000.0 -12680900000.0 -12580100000.0 -12556800000.0 -12602800000.0 -12620200000.0 -12655700000.0 -12627700000.0 -12604100000.0 -12648300000.0 -12614800000.0 -12591200000.0 -12654000000.0 -12583100000.0 -12596000000.0 -12668200000.0 -12638500000.0 -12551300000.0 -12550700000.0 -12674500000.0 -12668400000.0 -12616300000.0 -12549700000.0 -12564900000.0 -12595600000.0 -12615200000.0 -12563600000.0 -12557500000.0 -12604900000.0 -12558800000.0 -12552200000.0 -12555500000.0 -12554500000.0 -12554800000.0 -12553400000.0 -12598200000.0 -12589100000.0 -12613400000.0 -12566800000.0 -12581700000.0 -12558000000.0 -12555700000.0 -12555900000.0 -12560400000.0 -12555100000.0 -12561500000.0 -12557200000.0 -12565700000.0 -12562200000.0 -12550900000.0 -12576300000.0 -12565300000.0 -12573400000.0 -12549700000.0 -12550300000.0 -12553400000.0 -12581300000.0 -12578600000.0 -12554800000.0 -12567800000.0 -12573300000.0 -12577600000.0 -12549700000.0 -12583100000.0 -12571100000.0 -12572200000.0 -12591600000.0 -12576900000.0 -12549700000.0 -12610700000.0 -12619100000.0 -12597500000.0 -12549700000.0 -12608300000.0 -12551200000.0 -12571800000.0 -12566700000.0 -12609400000.0 -12618700000.0 -12638600000.0 -12602500000.0 -13005600000.0 -12637300000.0 -12676300000.0 -12624100000.0 -12847000000.0 -12591000000.0 -12735600000.0 -12675600000.0 -12678000000.0 -12766800000.0 -12550500000.0 -12634100000.0 -12554900000.0 -12587000000.0 -12556600000.0 -12549700000.0 -12651300000.0 -12579400000.0 -12602800000.0 -12581500000.0 -12650800000.0 -12574500000.0 -12611900000.0 -12645900000.0 -12625600000.0 -12573300000.0 -12552900000.0 -12549700000.0 -12549700000.0 -12550100000.0 -12550000000.0 -12550800000.0 -12583500000.0 -12577500000.0 -12614300000.0 -12574600000.0 -12636600000.0 -12552900000.0 -12588500000.0 -12549900000.0 -12630600000.0 -12589800000.0 -12617200000.0 -12553300000.0 -12623800000.0 -12572700000.0 -12682500000.0 -12551800000.0 -12665300000.0 -12682800000.0 -12675800000.0 -12690200000.0 -12630600000.0 -12556300000.0 -12553100000.0 -12549700000.0 -12553600000.0 -12550600000.0 -12557500000.0 -12550400000.0 -12551300000.0 -12575200000.0 -12550900000.0 -12588900000.0 -12602000000.0 -12582900000.0 -12567400000.0 -12551400000.0 -12554800000.0 -12554600000.0 -12560600000.0 -12552200000.0 -12561900000.0 -12550700000.0 -12565200000.0 -12553600000.0 -12552000000.0 -12556300000.0 -12550300000.0 -12549800000.0 -12549900000.0 -12552800000.0 -12549700000.0 -12549900000.0 -12564700000.0 -12573000000.0 -12550100000.0 -12551100000.0 -12596500000.0 -12567500000.0 -12597000000.0 -12585000000.0 -12585900000.0 -12553000000.0 -12576100000.0 -12557800000.0 -12553900000.0 -12616500000.0 -12648200000.0 -12648800000.0 -12584800000.0 -12549800000.0 -12565300000.0 -12568100000.0 -12549900000.0 -12622300000.0 -12673100000.0 -12707400000.0 -12844700000.0 -12551000000.0 -12766000000.0 -12797100000.0 -12717200000.0 -12620600000.0 -12747900000.0 -12681700000.0 -12624800000.0 -12630700000.0 -12678800000.0 -12622900000.0 -12641300000.0 -12569200000.0 -12561000000.0 -12642200000.0 -12556300000.0 -12554400000.0 -12563400000.0 -12576800000.0 -12591200000.0 -12580000000.0 -12549700000.0 -12558100000.0 -12574600000.0 -12559300000.0 -12559800000.0 -12599600000.0 -12609600000.0 -12594600000.0 -12549700000.0 -12610200000.0 -12565000000.0 -12562600000.0 -12572800000.0 -12586000000.0 -12583900000.0 -12581000000.0 -12585800000.0 -12595000000.0 -12603500000.0 -12732100000.0 -12605700000.0 -12552100000.0 -12549700000.0 -12553600000.0 -12550700000.0 -12550400000.0 -12556100000.0 -12553700000.0 -12550300000.0 -12566200000.0 -12557300000.0 -12582600000.0 -12551800000.0 -12549700000.0 -12569200000.0 -12551400000.0 -12550400000.0 -12552200000.0 -12550900000.0 -12549800000.0 -12554500000.0 -12561200000.0 -12550800000.0 -12550400000.0 -12551900000.0 -12551700000.0 -12553600000.0 -12550300000.0 -12551600000.0 -12549700000.0 -12549800000.0 -12549700000.0 -12550200000.0 -12556100000.0 -12563600000.0 -12555700000.0 -12573500000.0 -12572900000.0 -12581000000.0 -12559200000.0 -12600200000.0 -12556200000.0 -12649000000.0 -12616600000.0 -12615500000.0 -12610700000.0 -12623700000.0 -12648100000.0 -12549900000.0 -12639600000.0 -12585800000.0 -12594200000.0 -12614500000.0 -12571000000.0 -12718100000.0 -12552900000.0 -12634900000.0 -12771100000.0 -12744400000.0 -12743100000.0 -12560900000.0 -12668700000.0 -12691700000.0 -12589500000.0 -12612200000.0 -12549700000.0 -12745600000.0 -12644500000.0 -12667900000.0 -12655200000.0 -12638700000.0 -12555400000.0 -12552800000.0 -12564400000.0 -12561300000.0 -12568800000.0 -12573400000.0 -12574100000.0 -12579300000.0 -12582200000.0 -12549800000.0 -12570000000.0 -12550200000.0 -12556500000.0 -12556300000.0 -12580000000.0 -12553200000.0 -12618100000.0 -12561200000.0 -12610500000.0 -12569200000.0 -12602400000.0 -12590200000.0 -12566100000.0 -12571000000.0 -12572800000.0 -12560400000.0 -12571400000.0 -12585400000.0 -12578300000.0 -12572800000.0 -12647500000.0 -12600500000.0 -12549900000.0 -12623000000.0 -12656800000.0 -12577700000.0 -12554000000.0 -12560600000.0 -12561300000.0 -12560500000.0 -12560500000.0 -12557900000.0 -12558300000.0 -12558200000.0 -12577200000.0 -12570000000.0 -12560100000.0 -12563700000.0 -12569700000.0 -12553900000.0 -12559700000.0 -12560500000.0 -12560400000.0 -12558300000.0 -12555300000.0 -12549800000.0 -12549700000.0 -12549800000.0 -12550300000.0 -12549700000.0 -12551500000.0 -12552600000.0 -12550500000.0 -12550300000.0 -12551600000.0 -12550200000.0 -12549700000.0 -12550200000.0 -12552700000.0 -12551000000.0 -12569300000.0 -12549800000.0 -12550400000.0 -12602700000.0 -12566400000.0 -12608300000.0 -12593800000.0 -12560700000.0 -12605600000.0 -12639600000.0 -12567900000.0 -12552300000.0 -12577100000.0 -12571600000.0 -12723900000.0 -12626300000.0 -12682100000.0 -12679500000.0 -12683600000.0 -12608500000.0 -12584500000.0 -12684400000.0 -12554600000.0 -12591700000.0 -12806800000.0 -12996300000.0 -12726300000.0 -12572600000.0 -12568400000.0 -12762900000.0 -12650700000.0 -12584900000.0 -12718600000.0 -12588200000.0 -12549700000.0 -12764100000.0 -12596700000.0 -12554200000.0 -12593600000.0 -12641200000.0 -12553900000.0 -12577100000.0 -12578100000.0 -12574400000.0 -12574200000.0 -12561500000.0 -12581600000.0 -12576500000.0 -12560100000.0 -12570900000.0 -12550000000.0 -12554600000.0 -12562600000.0 -12552500000.0 -12554100000.0 -12586300000.0 -12573300000.0 -12572900000.0 -12561100000.0 -12549700000.0 -12581300000.0 -12575500000.0 -12593500000.0 -12549700000.0 -12567700000.0 -12560300000.0 -12563800000.0 -12550800000.0 -12550100000.0 -12549800000.0 -12571500000.0 -12553200000.0 -12588000000.0 -12593200000.0 -12598500000.0 -12581100000.0 -12549700000.0 -12568500000.0 -12553900000.0 -12549700000.0 -12549700000.0 -12552200000.0 -12551400000.0 -12550700000.0 -12551900000.0 -12551400000.0 -12551300000.0 -12551500000.0 -12572700000.0 -12556800000.0 -12551200000.0 -12552000000.0 -12552200000.0 -12553000000.0 -12555100000.0 -12556800000.0 -12552900000.0 -12552600000.0 -12554200000.0 -12556000000.0 -12554600000.0 -12555500000.0 -12555600000.0 -12553600000.0 -12557200000.0 -12560300000.0 -12564200000.0 -12589300000.0 -12578500000.0 -12579000000.0 -12598200000.0 -12570700000.0 -12551100000.0 -12635100000.0 -12610200000.0 -12574100000.0 -12553800000.0 -12561400000.0 -12670600000.0 -12588400000.0 -12555900000.0 -12558900000.0 -12729100000.0 -12549700000.0 -12651800000.0 -12606400000.0 -12585700000.0 -12822500000.0 -12562500000.0 -12554900000.0 -12550300000.0 -12744900000.0 -12730200000.0 -12558400000.0 -12625100000.0 -12636600000.0 -12693000000.0 -12700900000.0 -12639800000.0 -12568200000.0 -12640800000.0 -12580900000.0 -12572000000.0 -12574500000.0 -12573600000.0 -12596800000.0 -12602300000.0 -12575300000.0 -12568200000.0 -12574000000.0 -12569600000.0 -12563700000.0 -12560500000.0 -12583200000.0 -12559100000.0 -12559000000.0 -12561100000.0 -12567600000.0 -12571900000.0 -12615800000.0 -12558600000.0 -12587000000.0 -12577400000.0 -12558400000.0 -12570600000.0 -12571100000.0 -12570100000.0 -12555900000.0 -12564100000.0 -12559000000.0 -12550100000.0 -12632900000.0 -12576300000.0 -12560500000.0 -12566000000.0 -12550100000.0 -12551400000.0 -12549700000.0 -12549800000.0 -12551000000.0 -12550300000.0 -12550700000.0 -12549800000.0 -12549700000.0 -12551400000.0 -12555600000.0 -12549700000.0 -12549700000.0 -12549700000.0 -12549700000.0 -12556800000.0 -12551700000.0 -12555300000.0 -12554900000.0 -12553500000.0 -12554400000.0 -12554200000.0 -12553200000.0 -12553900000.0 -12552700000.0 -12557900000.0 -12562900000.0 -12567900000.0 -12554300000.0 -12561200000.0 -12557700000.0 -12555100000.0 -12590400000.0 -12571400000.0 -12611600000.0 -12550000000.0 -12621800000.0 -12591700000.0 -12597700000.0 -12622100000.0 -12636400000.0 -12551700000.0 -12563000000.0 -12748300000.0 -12672300000.0 -12586100000.0 -12616700000.0 -12549900000.0 -12827400000.0 -12567300000.0 -12589800000.0 -12864400000.0 -12550300000.0 -12553000000.0 -12857000000.0 -12553500000.0 -12573600000.0 -12636300000.0 -12601500000.0 -12643600000.0 -12607000000.0 -12551600000.0 -12654100000.0 -12549700000.0 -12579900000.0 -12594300000.0 -12594800000.0 -12600000000.0 -12580000000.0 -12589100000.0 -12552800000.0 -12551300000.0 -12560900000.0 -12549700000.0 -12550300000.0 -12549700000.0 -12569800000.0 -12558100000.0 -12555000000.0 -12556800000.0 -12557000000.0 -12559900000.0 -12592800000.0 -12561000000.0 -12558400000.0 -12558300000.0 -12558800000.0 -12568600000.0 -12549700000.0 -12551800000.0 -12560900000.0 -12550200000.0 -12558700000.0 -12583200000.0 -12606500000.0 -12575800000.0 -12552200000.0 -12550000000.0 -12550700000.0 -12549700000.0 -12549700000.0 -12549700000.0 -12549800000.0 -12550600000.0 -12550100000.0 -12549700000.0 -12549700000.0 -12549700000.0 -12552400000.0 -12551100000.0 -12549700000.0 -12549700000.0 -12549700000.0 -12549900000.0 -12549700000.0 -12551500000.0 -12550300000.0 -12550200000.0 -12549700000.0 -12551400000.0 -12551200000.0 -12553400000.0 -12554900000.0 -12554800000.0 -12554600000.0 -12553800000.0 -12584700000.0 -12561200000.0 -12565300000.0 -12566800000.0 -12577300000.0 -12580000000.0 -12567100000.0 -12583800000.0 -12578100000.0 -12583400000.0 -12616000000.0 -12640700000.0 -12550000000.0 -12631300000.0 -12670900000.0 -12699600000.0 -12736800000.0 -12758300000.0 -12869800000.0 -12751100000.0 -12711600000.0 -12853800000.0 -12941700000.0 -12551400000.0 -12736200000.0 -12880400000.0 -12708400000.0 -12766100000.0 -12704300000.0 -12616500000.0 -12734300000.0 -12739100000.0 -12649200000.0 -12616000000.0 -12574600000.0 -12555900000.0 -12559500000.0 -12570000000.0 -12583400000.0 -12551900000.0 -12554400000.0 -12553600000.0 -12608600000.0 -12570200000.0 -12578800000.0 -12558900000.0 -12558300000.0 -12556700000.0 -12553700000.0 -12555800000.0 -12554200000.0 -12564500000.0 -12550800000.0 -12550000000.0 -12550900000.0 -12551100000.0 -12550200000.0 -12560000000.0 -12554500000.0 -12549700000.0 -12551500000.0 -12551900000.0 -12574700000.0 -12569900000.0 -12580400000.0 -12585200000.0 -12554500000.0 -12566300000.0 -12563800000.0 -12550400000.0 -12549700000.0 -12549700000.0 -12549700000.0 -12549700000.0 -12550000000.0 -12549800000.0 -12549700000.0 -12549700000.0 -12549700000.0 -12550200000.0 -12549700000.0 -12549700000.0 -12549700000.0 -12549700000.0 -12549700000.0 -12549800000.0 -12550900000.0 -12550500000.0 -12550400000.0 -12550400000.0 -12549900000.0 -12550100000.0 -12551200000.0 -12550200000.0 -12550900000.0 -12555300000.0 -12550900000.0 -12571200000.0 -12554400000.0 -12552500000.0 -12555000000.0 -12594100000.0 -12560800000.0 -12671400000.0 -12630600000.0 -12671100000.0 -12552900000.0 -12583200000.0 -12679100000.0 -12577500000.0 -12793800000.0 -12638800000.0 -12793200000.0 -12716500000.0 -12644600000.0 -12564100000.0 -12582200000.0 -12601200000.0 -12587000000.0 -12738700000.0 -12633300000.0 -12570700000.0 -12573000000.0 -12569900000.0 -12556300000.0 -12568600000.0 -12551600000.0 -12550200000.0 -12550000000.0 -12550400000.0 -12556200000.0 -12551900000.0 -12551700000.0 -12568500000.0 -12560300000.0 -12557600000.0 -12560400000.0 -12551400000.0 -12553200000.0 -12554000000.0 -12549700000.0 -12553600000.0 -12554900000.0 -12557300000.0 -12575000000.0 -12559100000.0 -12557100000.0 -12558800000.0 -12552500000.0 -12553400000.0 -12550700000.0 -12550900000.0 -12569400000.0 -12558400000.0 -12550400000.0 -12556700000.0 -12549800000.0 -12550000000.0 -12550500000.0 -12549800000.0 -12550700000.0 -12553000000.0 -12551800000.0 -12550700000.0 -12558800000.0 -12560300000.0 -12553100000.0 -12560700000.0 -12581400000.0 -12610600000.0 -12570500000.0 -12653900000.0 -12586000000.0 -12599000000.0 -12676900000.0 -12686000000.0 -12601200000.0 -12638800000.0 -12716200000.0 -12627200000.0 -12549800000.0 -12658000000.0 -12752900000.0 -12621600000.0 -12600500000.0 -12600400000.0 -12690800000.0 -12554000000.0 -12551100000.0 -12561500000.0 -12568600000.0 -12551700000.0 -12550300000.0 -12549700000.0 -12551800000.0 -12551500000.0 -12554100000.0 -12549700000.0 -12550500000.0 -12550700000.0 -12551300000.0 -12553800000.0 -12550400000.0 -12564400000.0 -12563600000.0 -12575500000.0 -12577400000.0 -12574600000.0 -12559600000.0 -12632100000.0 -12569500000.0 -12555200000.0 -12669100000.0 -12646500000.0 -12635400000.0 -12639300000.0 -12549700000.0 -12610800000.0 -12580300000.0 -12794400000.0 -12627400000.0 -12629300000.0 -12723100000.0 -12676400000.0 -12584800000.0 -12602700000.0 -12591200000.0 -12679700000.0 -12562100000.0 -12579600000.0 -12589300000.0 -12603900000.0 -12588100000.0 -12578000000.0 -12764400000.0 -12643600000.0 -12665600000.0 -12611500000.0 -12563000000.0 -12898000000.0 -12679300000.0 -12734800000.0 -12614700000.0 -12584900000.0 -12588800000.0 -12549700000.0 -12708300000.0 -12554200000.0 -12557900000.0 -12578900000.0 -12569200000.0 -12588500000.0 -12585700000.0 -12650800000.0 -12675100000.0 -12550300000.0 -12628100000.0 -12560700000.0 -12559600000.0 -12728700000.0 -12851100000.0 -12549700000.0 -12615800000.0 -12674000000.0 -12549700000.0 -12595100000.0 -12593000000.0 -12668400000.0 -12554800000.0 -12555500000.0 -12549700000.0 -12597800000.0 -12594000000.0 -12670400000.0 -12656000000.0 -12570000000.0 -12625700000.0 -12558600000.0 -12562000000.0 -12822600000.0 -12592700000.0 -12565200000.0 -12668200000.0 -12568300000.0 -12588400000.0 -12621500000.0 -12562200000.0 -12554900000.0 -12554200000.0 -12549700000.0 -12549700000.0 -12549700000.0 -12556500000.0 -12584200000.0 -12585000000.0 -12575800000.0 -12609200000.0 -12573000000.0 -12640300000.0 -12600300000.0 -12602000000.0 -12822600000.0 -12562300000.0 -12584900000.0 -12577700000.0 -12630700000.0 -12578300000.0 -12576600000.0 -12622000000.0 -12586300000.0 -12565200000.0 -12549700000.0 -12549700000.0 -12549700000.0 -12549700000.0 -12549700000.0 -12549700000.0 -12549700000.0 -12549700000.0 -12549700000.0 -12549700000.0 -12549700000.0 -12549700000.0 -12549700000.0 -12549700000.0 -12549700000.0 -12549700000.0 -12549700000.0 -12554400000.0 -12578500000.0 -12565800000.0 -12562100000.0 -12585900000.0 -12607400000.0 -12611800000.0 -12571200000.0 -12608800000.0 -12826100000.0 -12571500000.0 -12566600000.0 -12553300000.0 -12643300000.0 -12655600000.0 -12651000000.0 -12574600000.0 -12569600000.0 -12556400000.0 -12552700000.0 -12549700000.0 -12549700000.0 -12549700000.0 -12549700000.0 -12549700000.0 -12549700000.0 -12549700000.0 -12549700000.0 -12549700000.0 -12549700000.0 -12549700000.0 -12549700000.0 -12549700000.0 -12549700000.0 -12549700000.0 -12549700000.0 -12549700000.0 -12549700000.0 -12549700000.0 -12549700000.0 -12549700000.0 -12549700000.0 -12549700000.0 -12549700000.0 -12549700000.0 -12549700000.0 -12549700000.0 -12549700000.0 -12549700000.0 -12549700000.0 -12549700000.0 -12552000000.0 -12573200000.0 -12560000000.0 -12550600000.0 -12558800000.0 -12593300000.0 -12661700000.0 -12647000000.0 -12618600000.0 -12590000000.0 -12613900000.0 -12722100000.0 -12556000000.0 -12569500000.0 -12552800000.0 -12619400000.0 -12601500000.0 -12552100000.0 -12550100000.0 -12549900000.0 -12586800000.0 -12555300000.0 -12550400000.0 -12549700000.0 -12549700000.0 -12549700000.0 -12549700000.0 -12549700000.0 -12549700000.0 -12549700000.0 -12549700000.0 -12549700000.0 -12549700000.0 -12549700000.0 -12549700000.0 -12549700000.0 -12549700000.0 -12549700000.0 -12549700000.0 -12549700000.0 -12549700000.0 -12549700000.0 -12549700000.0 -12549700000.0 -12549700000.0 -12549700000.0 -12549700000.0 -12549700000.0 -12549700000.0 -12549700000.0 -12549700000.0 -12549700000.0 -12549700000.0 -12549700000.0 -12549700000.0 -12549700000.0 -12549700000.0 -12549700000.0 -12549700000.0 -12549700000.0 -12549700000.0 -12550100000.0 -12552700000.0 -12556300000.0 -12579900000.0 -12559700000.0 -12563000000.0 -12583300000.0 -12600500000.0 -12609300000.0 -12585300000.0 -12563100000.0 -12575400000.0 -12593300000.0 -12729600000.0 -12576200000.0 -12584600000.0 -12644600000.0 -12614500000.0 -12555300000.0 -12555900000.0 -12586700000.0 -12550500000.0 -12551700000.0 -12553500000.0 -12555300000.0 -12551600000.0 -12550300000.0 -12549700000.0 -12549700000.0 -12549700000.0 -12549700000.0 -12549700000.0 -12549700000.0 -12549700000.0 -12549700000.0 -12549700000.0 -12549700000.0 -12549700000.0 -12549700000.0 -12549700000.0 -12549700000.0 -12549700000.0 -12549700000.0 -12549700000.0 -12549700000.0 -12549700000.0 -12549700000.0 -12549700000.0 -12549700000.0 -12549700000.0 -12549700000.0 -12549700000.0 -12549700000.0 -12549700000.0 -12549700000.0 -12549700000.0 -12549700000.0 -12549700000.0 -12549700000.0 -12549700000.0 -12549700000.0 -12549700000.0 -12549700000.0 -12549700000.0 -12549700000.0 -12549700000.0 -12549700000.0 -12549700000.0 -12551700000.0 -12554400000.0 -12564700000.0 -12563800000.0 -12578600000.0 -12582800000.0 -12574400000.0 -12573200000.0 -12597600000.0 -12585100000.0 -12598400000.0 -12625800000.0 -12688100000.0 -12667400000.0 -12634200000.0 -12553000000.0 -12574300000.0 -12576500000.0 -12549800000.0 -12550000000.0 -12549700000.0 -12549700000.0 -12549700000.0 -12549700000.0 -12549700000.0 -12549700000.0 -12549700000.0 -12549700000.0 -12549700000.0 -12549700000.0 -12549700000.0 -12549700000.0 -12549700000.0 -12549700000.0 -12549700000.0 -12549700000.0 -12549700000.0 -12549700000.0 -12549700000.0 -12549700000.0 -12549700000.0 -12549700000.0 -12549700000.0 -12549700000.0 -12549700000.0 -12549700000.0 -12549700000.0 -12549700000.0 -12549700000.0 -12549700000.0 -12549700000.0 -12549700000.0 -12549700000.0 -12549700000.0 -12549700000.0 -12549700000.0 -12549700000.0 -12549700000.0 -12549700000.0 -12549700000.0 -12549700000.0 -12549700000.0 -12549700000.0 -12549700000.0 -12549700000.0 -12549700000.0 -12549700000.0 -12550400000.0 -12558100000.0 -12554100000.0 -12559500000.0 -12582800000.0 -12549700000.0 -12577200000.0 -12570100000.0 -12567600000.0 -12645700000.0 -12612600000.0 -12582600000.0 -12658800000.0 -12549700000.0 -12599300000.0 -12617200000.0 -12678900000.0 -12575200000.0 -12566400000.0 -12560200000.0 -12561200000.0 -12554100000.0 -12550900000.0 -12550200000.0 -12549800000.0 -12549700000.0 -12549700000.0 -12549700000.0 -12549700000.0 -12549700000.0 -12549700000.0 -12549700000.0 -12549700000.0 -12549700000.0 -12549700000.0 -12549700000.0 -12549700000.0 -12549700000.0 -12549700000.0 -12549700000.0 -12549700000.0 -12549700000.0 -12549700000.0 -12549700000.0 -12549700000.0 -12549700000.0 -12549700000.0 -12549700000.0 -12549700000.0 -12549700000.0 -12549700000.0 -12549700000.0 -12549700000.0 -12549700000.0 -12549700000.0 -12549700000.0 -12549700000.0 -12549700000.0 -12549700000.0 -12549700000.0 -12549700000.0 -12549700000.0 -12549700000.0 -12549700000.0 -12549700000.0 -12549700000.0 -12549700000.0 -12549700000.0 -12549700000.0 -12549700000.0 -12549700000.0 -12549700000.0 -12549700000.0 -12549700000.0 -12550400000.0 -12550700000.0 -12553800000.0 -12555900000.0 -12551100000.0 -12553100000.0 -12601700000.0 -12592600000.0 -12576800000.0 -12610900000.0 -12569700000.0 -12566700000.0 -12632800000.0 -12550900000.0 -12615300000.0 -12599800000.0 -12552500000.0 -12609500000.0 -12612600000.0 -12581500000.0 -12556400000.0 -12550100000.0 -12549700000.0 -12549700000.0 -12549700000.0 -12549700000.0 -12549700000.0 -12549700000.0 -12549700000.0 -12549700000.0 -12549700000.0 -12549700000.0 -12549700000.0 -12549700000.0 -12549700000.0 -12549700000.0 -12549700000.0 -12549700000.0 -12549700000.0 -12549700000.0 -12549700000.0 -12549700000.0 -12549700000.0 -12549700000.0 -12549700000.0 -12549700000.0 -12549700000.0 -12549700000.0 -12549700000.0 -12549700000.0 -12549700000.0 -12549700000.0 -12549700000.0 -12549700000.0 -12549700000.0 -12549700000.0 -12549700000.0 -12549700000.0 -12549700000.0 -12549700000.0 -12549700000.0 -12549700000.0 -12549700000.0 -12549700000.0 -12549700000.0 -12549700000.0 -12549700000.0 -12549700000.0 -12549700000.0 -12549700000.0 -12549700000.0 -12549700000.0 -12549700000.0 -12549700000.0 -12551400000.0 -12560400000.0 -12567300000.0 -12585300000.0 -12586100000.0 -12549700000.0 -12551800000.0 -12559000000.0 -12572000000.0 -12605100000.0 -12550000000.0 -12585700000.0 -12558000000.0 -12555600000.0 -12554700000.0 -12586700000.0 -12580900000.0 -12594400000.0 -12580000000.0 -12582100000.0 -12557500000.0 -12551000000.0 -12553900000.0 -12550800000.0 -12552500000.0 -12549900000.0 -12549700000.0 -12549700000.0 -12549700000.0 -12549700000.0 -12549700000.0 -12549700000.0 -12549700000.0 -12549700000.0 -12549700000.0 -12549700000.0 -12549700000.0 -12549700000.0 -12549700000.0 -12549700000.0 -12549700000.0 -12549700000.0 -12549700000.0 -12549700000.0 -12549700000.0 -12549700000.0 -12549700000.0 -12549700000.0 -12549700000.0 -12549700000.0 -12549700000.0 -12549700000.0 -12549700000.0 -12549700000.0 -12549700000.0 -12549700000.0 -12549700000.0 -12549700000.0 -12549700000.0 -12549700000.0 -12549700000.0 -12549700000.0 -12549700000.0 -12549700000.0 -12549700000.0 -12550700000.0 -12573200000.0 -12552100000.0 -12554900000.0 -12554700000.0 -12562300000.0 -12557600000.0 -12550600000.0 -12555500000.0 -12576800000.0 -12554900000.0 -12553500000.0 -12549700000.0 -12618300000.0 -12605700000.0 -12549700000.0 -12549700000.0 -12550900000.0 -12567800000.0 -12552500000.0 -12549700000.0 -12549700000.0 -12549700000.0 -12549700000.0 -12549700000.0 -12549700000.0 -12549700000.0 -12549700000.0 -12549700000.0 -12549700000.0 -12549700000.0 -12549700000.0 -12549700000.0 -12549700000.0 -12549700000.0 -12549700000.0 -12549700000.0 -12549700000.0 -12549700000.0 -12549700000.0 -12549700000.0 -12549700000.0 -12549700000.0 -12549700000.0 -12549700000.0 -12549700000.0 -12549700000.0 -12549700000.0 -12549700000.0 -12549700000.0 -12549700000.0 -12549700000.0 -12549700000.0 -12549700000.0 -12549700000.0 -12549700000.0 -12549700000.0 -12549700000.0 -12549700000.0 -12549700000.0 -12549700000.0 -12549700000.0 -12549700000.0 -12549700000.0 -12549700000.0 -12549700000.0 -12551200000.0 -12562900000.0 -12565200000.0 -12552400000.0 -12553800000.0 -12553600000.0 -12549700000.0 -12562900000.0 -12562500000.0 -12550700000.0 -12551700000.0 -12550200000.0 -12595900000.0 -12550200000.0 -12600300000.0 -12566000000.0 -12567300000.0 -12551800000.0 -12549700000.0 -12549700000.0 -12549700000.0 -12549700000.0 -12549700000.0 -12549700000.0 -12549700000.0 -12549700000.0 -12549700000.0 -12549700000.0 -12549700000.0 -12549700000.0 -12549700000.0 -12549700000.0 -12549700000.0 -12549700000.0 -12549700000.0 -12549700000.0 -12549700000.0 -12549700000.0 -12549700000.0 -12549700000.0 -12549700000.0 -12549700000.0 -12549700000.0 -12549700000.0 -12549700000.0 -12549700000.0 -12549700000.0 -12549700000.0 -12549700000.0 -12549700000.0 -12549700000.0 -12549700000.0 -12549700000.0 -12549700000.0 -12549700000.0 -12552200000.0 -12555000000.0 -12558000000.0 -12554700000.0 -12553000000.0 -12553300000.0 -12554500000.0 -12556400000.0 -12562000000.0 -12564200000.0 -12575000000.0 -12566400000.0 -12585000000.0 -12607000000.0 -12554300000.0 -12569500000.0 -12569800000.0 -12557800000.0 -12561900000.0 -12552900000.0 -12551100000.0 -12549700000.0 -12549700000.0 -12549700000.0 -12549700000.0 -12549700000.0 -12549700000.0 -12549700000.0 -12549700000.0 -12549700000.0 -12549700000.0 -12549700000.0 -12549700000.0 -12549700000.0 -12549700000.0 -12549700000.0 -12549700000.0 -12549700000.0 -12549700000.0 -12549700000.0 -12549700000.0 -12549700000.0 -12549700000.0 -12549700000.0 -12549700000.0 -12549700000.0 -12549700000.0 -12549700000.0 -12549700000.0 -12549700000.0 -12549700000.0 -12549700000.0 -12549700000.0 -12549700000.0 -12549700000.0 -12549700000.0 -12549700000.0 -12549800000.0 -12549700000.0 -12554400000.0 -12550600000.0 -12556500000.0 -12549800000.0 -12553000000.0 -12555100000.0 -12568600000.0 -12560400000.0 -12555300000.0 -12566600000.0 -12550500000.0 -12571700000.0 -12549700000.0 -12573700000.0 -12565400000.0 -12552300000.0 -12556400000.0 -12549800000.0 -12550100000.0 -12549700000.0 -12549700000.0 -12549700000.0 -12549700000.0 -12549700000.0 -12549700000.0 -12549700000.0 -12549700000.0 -12549700000.0 -12549700000.0 -12549700000.0 -12549700000.0 -12549700000.0 -12549700000.0 -12549700000.0 -12549700000.0 -12549700000.0 -12549700000.0 -12549700000.0 -12549700000.0 -12549700000.0 -12549700000.0 -12549700000.0 -12549700000.0 -12549700000.0 -12549700000.0 -12549700000.0 -12549700000.0 -12549700000.0 -12549700000.0 -12549700000.0 -12550100000.0 -12553800000.0 -12550300000.0 -12555900000.0 -12550600000.0 -12552900000.0 -12556700000.0 -12559300000.0 -12557200000.0 -12549800000.0 -12559600000.0 -12551000000.0 -12555400000.0 -12573400000.0 -12554000000.0 -12560600000.0 -12556000000.0 -12557200000.0 -12553000000.0 -12554700000.0 -12550200000.0 -12549700000.0 -12549700000.0 -12549700000.0 -12549700000.0 -12549700000.0 -12549700000.0 -12549700000.0 -12549700000.0 -12549700000.0 -12549700000.0 -12549700000.0 -12549700000.0 -12549700000.0 -12549700000.0 -12549700000.0 -12549700000.0 -12549700000.0 -12549700000.0 -12549700000.0 -12549700000.0 -12549700000.0 -12549700000.0 -12555900000.0 -12556800000.0 -12557100000.0 -12557800000.0 -12560400000.0 -12567000000.0 -12559900000.0 -12562100000.0 -12565200000.0 -12566900000.0 -12567300000.0 -12573700000.0 -12550800000.0 -12558700000.0 -12549800000.0 -12549700000.0 -12553400000.0 -12552600000.0 -12551700000.0 -12549700000.0 -12549700000.0 -12549700000.0 -12549700000.0 -12549700000.0 -12549700000.0 -12549700000.0 -12549700000.0 -12549700000.0 -12549700000.0 -12549700000.0 -12549700000.0 -12549700000.0 -12549700000.0 -12549700000.0 -12549700000.0 -12549700000.0 -12549700000.0 -12549700000.0 -12550200000.0 -12553200000.0 -12551500000.0 -12551000000.0 -12551600000.0 -12550800000.0 -12552100000.0 -12557100000.0 -12556400000.0 -12561700000.0 -12558100000.0 -12550700000.0 -12549700000.0 -12566700000.0 -12556700000.0 -12555900000.0 -12549700000.0 -12549700000.0 -12551600000.0 -12550700000.0 -12550300000.0 -12549700000.0 -12549700000.0 -12549700000.0 -12549700000.0 -12549700000.0 -12549700000.0 -12549700000.0 -12549700000.0 -12549700000.0 -12549700000.0 -12549700000.0 -12549700000.0 -12549700000.0 -12549700000.0 -12549700000.0 -12551800000.0 -12552100000.0 -12552000000.0 -12551700000.0 -12551600000.0 -12552000000.0 -12555700000.0 -12550900000.0 -12551900000.0 -12552600000.0 -12550600000.0 -12553000000.0 -12550000000.0 -12550500000.0 -12561800000.0 -12549700000.0 -12555700000.0 -12552200000.0 -12550400000.0 -12550000000.0 -12549700000.0 -12549700000.0 -12549700000.0 -12549700000.0 -12549700000.0 -12549700000.0 -12549700000.0 -12549700000.0 -12549700000.0 -12549700000.0 -12549700000.0 -12549700000.0 -12549700000.0 -12549700000.0 -12549700000.0 -12549700000.0 -12549800000.0 -12549900000.0 -12550300000.0 -12549800000.0 -12550100000.0 -12549800000.0 -12550400000.0 -12552700000.0 -12550000000.0 -12551000000.0 -12551900000.0 -12549700000.0 -12552000000.0 -12552900000.0 -12554700000.0 -12555000000.0 -12549700000.0 -12556000000.0 -12549700000.0 -12549700000.0 -12550000000.0 -12549700000.0 -12549700000.0 -12549700000.0 -12549700000.0 -12549700000.0 -12549700000.0 -12549700000.0 -12549700000.0 -12549700000.0 -12549700000.0 -12551000000.0 -12549700000.0 -12550200000.0 -12549700000.0 -12549700000.0 -12549800000.0 -12551500000.0 -12550100000.0 -12549700000.0 -12552100000.0 -12551000000.0 -12551000000.0 -12550400000.0 -12551200000.0 -12550400000.0 -12549900000.0 -12549700000.0 -12553600000.0 -12550400000.0 -12549700000.0 -12549700000.0 -12549700000.0 -12549700000.0 -12549700000.0 -12549700000.0 -12549700000.0 -12549700000.0 -12549800000.0 -12550000000.0 -12549800000.0 -12549700000.0 -12549700000.0 -12550700000.0 -12549700000.0 -12549800000.0 -12551700000.0 -12550800000.0 -12549700000.0 -12549700000.0 -12549700000.0 -12550000000.0 -12549800000.0 -12549800000.0 -12552300000.0 -12549700000.0 -12550100000.0 -12549700000.0 -12549700000.0 -12549700000.0 -12549700000.0 -12549700000.0 -12549700000.0 -12549700000.0 -12549700000.0 -12549700000.0 -12549700000.0 -12549700000.0 -12549700000.0 -12549700000.0 -12549800000.0 -12549800000.0 -12549800000.0 -12549900000.0 -12550500000.0 -12550300000.0 -12550700000.0 -12549700000.0 -12549800000.0 -12549800000.0 -12549800000.0 -12549700000.0 -12549700000.0 -12549700000.0 -12549700000.0 -12549700000.0 -12549700000.0 -12549700000.0 -12549700000.0 -12549700000.0 -12549700000.0 -12549700000.0 -12549700000.0 -12549700000.0 -12549700000.0 -12549700000.0 -12549700000.0 -12549700000.0 -12549700000.0 -12549700000.0 -12549700000.0 -12549700000.0 -12549700000.0 -12549700000.0 -12549700000.0 -12549700000.0 -12549700000.0 -12549700000.0 -12549700000.0 -12549700000.0 -12549700000.0 -12549700000.0 -12549700000.0 -12549700000.0 -12549700000.0 -2.66722e+12 -4.12053e+12 -3.67637e+12 -4.85578e+12 -4.04123e+12 -4.10355e+12 -3.92392e+12 -3.77822e+12 -3.53892e+12 -3.18893e+12 -5.79448e+12 -3.00195e+12 -3.50294e+12 -5.10606e+12 -4.78284e+12 -6.33741e+12 -4.40339e+12 -3.20081e+12 -3.93443e+12 -3.02611e+12 -4.30225e+12 -5.18913e+12 -5.40586e+12 -4.94632e+12 -4.91308e+12 -3.71533e+12 -3.64015e+12 -3.92397e+12 -4.41002e+12 -4.04218e+12 -5.43846e+12 -5.24275e+12 -3.42737e+12 -2.62669e+12 -2.98972e+12 -3.79293e+12 -4.64518e+12 -6.27169e+12 -3.59859e+12 -4.53421e+12 -4.62746e+12 -3.83536e+12 -3.61487e+12 -3.15616e+12 -3.80263e+12 -3.62816e+12 -2.34773e+12 -2.6997e+12 -3.72701e+12 -2.78316e+12 -2.11694e+12 -1.79804e+12 -3.47279e+12 -4.82868e+12 -5.3982e+12 -4.03294e+12 -6.67562e+12 -4.48174e+12 -3.01498e+12 -4.72681e+12 -4.50249e+12 -4.23927e+12 -3.93542e+12 -5.93442e+12 -6.56592e+12 -5.34021e+12 -3.74886e+12 -5.3289e+12 -7.39237e+12 -4.5736e+12 -5.02726e+12 -5.73953e+12 -4.64586e+12 -4.45682e+12 -6.68479e+12 -6.00775e+12 -2.58202e+12 -4.09649e+12 -3.84929e+12 -3.78908e+12 -4.67133e+12 -4.06117e+12 -3.94149e+12 -5.22605e+12 -4.63988e+12 -3.8965e+12 -4.43881e+12 -4.57194e+12 -2.70767e+12 -5.22868e+12 -4.18508e+12 -5.78377e+12 -6.51005e+12 -6.15704e+12 -5.77156e+12 -5.17027e+12 -4.70325e+12 -6.50727e+12 -4.14886e+12 -4.71004e+12 -6.27142e+12 -4.0066e+12 -4.89512e+12 -2.84834e+12 -2.59766e+12 -6.6209e+12 -5.44359e+12 -8.60552e+12 -6.14853e+12 -6.10459e+12 -7.73166e+12 -1.11409e+13 -5.47965e+12 -7.25868e+12 -4.07475e+12 -5.71666e+12 -4.73095e+12 -7.20259e+12 -7.03514e+12 -1.86865e+12 -5.1998e+12 -6.89298e+12 -4.28021e+12 -4.76656e+12 -6.09228e+12 -2.51547e+12 -5.82603e+12 -5.47128e+12 -6.83244e+12 -7.16524e+12 -1.11858e+13 -5.34717e+12 -6.22211e+12 -6.34001e+12 -5.45101e+12 -9.07361e+12 -7.69315e+12 -8.75472e+12 -5.61408e+12 -5.77328e+12 -8.90902e+12 -9.28681e+12 -8.0374e+12 -5.47166e+12 -5.22538e+12 -7.45323e+12 -6.32112e+12 -7.70165e+12 -7.09158e+12 -6.62897e+12 -6.98887e+12 -4.73445e+12 -8.2708e+12 -7.48458e+12 -1.08707e+13 -2.77263e+12 -3.95911e+12 -3.1667e+12 -5.00839e+12 -7.74364e+12 -8.23358e+12 -6.03852e+12 -4.82705e+12 -5.29812e+12 -6.86132e+12 -6.56246e+12 -2.89309e+12 -4.34272e+12 -4.1266e+12 -4.94419e+12 -4.69645e+12 -5.84791e+12 -5.06629e+12 -6.46314e+12 -9.19034e+12 -5.00189e+12 -4.0858e+12 -6.07538e+12 -3.85311e+12 -7.12035e+12 -6.39714e+12 -7.21198e+12 -3.71838e+12 -4.77521e+12 -4.94533e+12 -3.70922e+12 -2.42903e+12 -5.4213e+12 -4.3105e+12 -8.69393e+12 -8.11855e+12 -2.28657e+12 -5.25274e+12 -1.01826e+13 -3.26849e+12 -4.99001e+12 -3.96836e+12 -2.3683e+12 -7.16632e+12 -5.20116e+12 -7.55638e+12 -4.30367e+12 -4.24366e+12 -6.28704e+12 -6.16522e+12 -1.06671e+13 -6.56637e+12 -1.03287e+13 -7.26199e+12 -5.23916e+12 -9.01095e+12 -7.8206e+12 -5.3433e+12 -6.57111e+12 -7.66375e+12 -7.3639e+12 -4.62614e+12 -6.74519e+12 -8.82765e+12 -1.03475e+13 -5.12763e+12 -7.66656e+12 -7.81462e+12 -4.6226e+12 -5.67044e+12 -4.94329e+12 -8.36069e+12 -6.42987e+12 -6.83359e+12 -8.4034e+12 -6.82336e+12 -6.27826e+12 -7.10096e+12 -6.22363e+12 -5.61966e+12 -5.49184e+12 -1.48624e+12 -2.92792e+12 -4.98014e+12 -4.30665e+12 -5.56985e+12 -6.44051e+12 -8.51878e+12 -6.92095e+12 -1.02183e+13 -5.62684e+12 -4.92543e+12 -6.38008e+12 -7.26721e+12 -3.83249e+12 -6.44184e+12 -8.29549e+12 -7.11622e+12 -4.96182e+12 -6.02413e+12 -8.03031e+12 -6.43936e+12 -5.91807e+12 -9.85854e+12 -5.40761e+12 -7.21898e+12 -6.9707e+12 -8.22143e+12 -8.12714e+12 -4.10898e+12 -5.48292e+12 -4.70642e+12 -6.52453e+12 -7.27586e+12 -6.95847e+12 -5.09088e+12 -7.79991e+12 -6.07472e+12 -5.41477e+12 -5.11464e+12 -7.43906e+12 -9.08917e+12 -4.72402e+12 -6.39022e+12 -1.74904e+12 -3.55701e+12 -4.62908e+12 -6.71596e+12 -6.87191e+12 -4.23115e+12 -5.92605e+12 -2.25269e+12 -5.59414e+12 -7.26932e+12 -5.65321e+12 -5.96145e+12 -4.96841e+12 -5.73103e+12 -6.96316e+12 -6.60707e+12 -6.69937e+12 -6.89042e+12 -5.00346e+12 -8.63662e+12 -7.61897e+12 -6.15754e+12 -5.74931e+12 -5.40802e+12 -8.39951e+12 -6.5238e+12 -4.95755e+12 -7.61632e+12 -6.5293e+12 -6.47745e+12 -8.3808e+12 -5.83063e+12 -3.93428e+12 -9.97791e+12 -9.07394e+12 -6.04089e+12 -4.79479e+12 -9.58924e+12 -4.1624e+12 -7.48506e+12 -5.40777e+12 -5.39546e+12 -6.24993e+12 -7.16498e+12 -3.91621e+12 -1.06628e+13 -8.06305e+12 -4.50975e+12 -7.39431e+12 -3.98988e+12 -4.93345e+12 -7.10417e+12 -4.99427e+12 -4.77219e+12 -4.07207e+12 -5.12891e+12 -3.1114e+12 -4.79889e+12 -4.54885e+12 -4.42493e+12 -6.18168e+12 -6.56221e+12 -1.09611e+13 -8.10453e+12 -9.4117e+12 -6.79603e+12 -2.96935e+12 -6.74222e+12 -5.7944e+12 -2.65796e+12 -4.45896e+12 -3.84463e+12 -5.89987e+12 -4.26859e+12 -3.83504e+12 -7.53789e+12 -5.64323e+12 -5.48912e+12 -4.05949e+12 -5.78192e+12 -1.03781e+13 -6.62659e+12 -6.10841e+12 -3.86357e+12 -9.34982e+12 -9.62556e+12 -7.63385e+12 -3.7501e+12 -7.96657e+12 -4.60615e+12 -6.12259e+12 -4.86349e+12 -6.40828e+12 -6.144e+12 -5.10928e+12 -6.51898e+12 -6.52484e+12 -6.09954e+12 -4.45591e+12 -7.2931e+12 -8.10533e+12 -4.96526e+12 -5.83627e+12 -8.34096e+12 -3.92193e+12 -3.78568e+12 -3.68244e+12 -5.7385e+12 -5.94956e+12 -4.04265e+12 -5.90783e+12 -3.87811e+12 -5.27467e+12 -5.01842e+12 -6.04076e+12 -7.57533e+12 -9.01966e+12 -4.62195e+12 -4.13161e+12 -3.0705e+12 -2.143e+12 -6.59964e+12 -4.4217e+12 -8.96195e+12 -7.35437e+12 -6.20639e+12 -6.90233e+12 -1.01521e+13 -5.10709e+12 -3.77684e+12 -4.6016e+12 -5.91638e+12 -4.81826e+12 -4.98477e+12 -6.30412e+12 -4.83862e+12 -6.1454e+12 -4.95198e+12 -4.98697e+12 -4.16211e+12 -5.21162e+12 -4.13831e+12 -4.67431e+12 -4.1703e+12 -7.32662e+12 -7.36274e+12 -8.21767e+12 -7.21432e+12 -4.05546e+12 -4.85317e+12 -4.32636e+12 -3.55579e+12 -2.31673e+12 -6.15919e+12 -4.47529e+12 -4.45726e+12 -5.19334e+12 -8.07333e+12 -6.64872e+12 -7.40881e+12 -6.04879e+12 -4.24322e+12 -5.427e+12 -5.44417e+12 -3.28142e+12 -5.95231e+12 -3.87114e+12 -5.66595e+12 -7.63243e+12 -5.3349e+12 -4.59306e+12 -6.09602e+12 -6.24142e+12 -6.16054e+12 -6.84181e+12 -5.58303e+12 -3.63455e+12 -4.06435e+12 -5.16619e+12 -3.21709e+12 -4.56643e+12 -5.91532e+12 -4.43142e+12 -5.27953e+12 -3.83635e+12 -7.94314e+12 -4.7889e+12 -7.8244e+12 -5.31933e+12 -4.45052e+12 -5.886e+12 -4.33182e+12 -5.98203e+12 -7.34488e+12 -5.74073e+12 -4.24145e+12 -8.27815e+12 -4.34439e+12 -8.62644e+12 -3.44546e+12 -3.52923e+12 -3.01046e+12 -2.93403e+12 -2.30531e+12 -3.76417e+12 -3.78463e+12 -8.54031e+12 -2.91838e+12 -3.62414e+12 -3.02623e+12 -5.13091e+12 -5.44827e+12 -5.53993e+12 -4.68026e+12 -2.56799e+12 -5.01177e+12 -7.54464e+12 -6.80046e+12 -7.68122e+12 -6.34185e+12 -6.79671e+12 -3.56764e+12 -4.02951e+12 -5.7425e+12 -6.27014e+12 -6.02795e+12 -7.57137e+12 -4.39871e+12 -5.87835e+12 -5.52255e+12 -5.77275e+12 -3.29604e+12 -3.58656e+12 -4.26567e+12 -5.5127e+12 -5.3056e+12 -3.53353e+12 -4.41588e+12 -4.32703e+12 -7.35304e+12 -3.17907e+12 -4.05053e+12 -2.80283e+12 -7.11925e+12 -4.35891e+12 -5.71853e+12 -3.77917e+12 -4.22482e+12 -4.94527e+12 -2.9746e+12 -4.44153e+12 -1.00822e+13 -4.38088e+12 -6.67429e+12 -7.97691e+12 -4.1612e+12 -4.49798e+12 -648742000000.0 -5.97137e+12 -4.12589e+12 -9.69434e+12 -4.21621e+12 -5.00769e+12 -5.29619e+12 -4.94203e+12 -4.18675e+12 -3.77938e+12 -4.59909e+12 -2.95317e+12 -4.88368e+12 -4.2062e+12 -7.00571e+12 -6.11462e+12 -4.69268e+12 -2.74215e+12 -6.76285e+12 -6.66157e+12 -4.10706e+12 -8.11561e+12 -6.05271e+12 -5.17737e+12 -7.5294e+12 -7.50737e+12 -4.17679e+12 -7.21452e+12 -2.81101e+12 -6.05029e+12 -6.76699e+12 -5.83179e+12 -3.42548e+12 -3.76813e+12 -6.77287e+12 -5.17623e+12 -7.61177e+12 -7.27458e+12 -6.03642e+12 -7.58845e+12 -3.12348e+12 -4.41391e+12 -4.9491e+12 -3.52007e+12 -4.67842e+12 -5.4193e+12 -5.60883e+12 -2.19723e+12 -2.30758e+12 -2.87559e+12 -2.03265e+12 -5.04117e+12 -7.25647e+12 -4.44265e+12 -3.72672e+12 -3.67864e+12 -3.76322e+12 -2.80677e+12 -7.37001e+12 -4.66031e+12 -4.07629e+12 -3.91916e+12 -5.2667e+12 -6.4258e+12 -5.43204e+12 -3.05257e+12 -3.97387e+12 -3.68569e+12 -4.44954e+12 -3.74453e+12 -5.34132e+12 -4.94394e+12 -5.39176e+12 -3.19763e+12 -3.42126e+12 -6.28045e+12 -4.99947e+12 -4.25864e+12 -5.14218e+12 -3.36546e+12 -1.98487e+12 -3.65749e+12 -4.60122e+12 -5.65932e+12 -5.91731e+12 -7.27502e+12 -2.59674e+12 -2.90455e+12 -4.46329e+12 -3.43657e+12 -4.40905e+12 -5.87994e+12 -2.22166e+12 -6.08458e+12 -4.49522e+12 -4.97795e+12 -6.16618e+12 -5.27853e+12 -4.46296e+12 -3.26157e+12 -2.7534e+12 -5.24657e+12 -3.61481e+12 -6.36706e+12 -7.6373e+12 -5.66678e+12 -5.68013e+12 -3.25025e+12 -6.83184e+12 -5.47773e+12 -2.00987e+12 -5.80314e+12 -2.45784e+12 -6.28086e+12 -6.16093e+12 -4.36648e+12 -5.75828e+12 -3.91705e+12 -4.66963e+12 -6.11961e+12 -5.4396e+12 -5.82824e+12 -6.00598e+12 -5.81294e+12 -5.68943e+12 -6.17043e+12 -5.20026e+12 -2.50944e+12 -6.32812e+12 -5.29432e+12 -1.67937e+12 -4.73949e+12 -3.58115e+12 -1.44138e+12 -4.8028e+12 -5.26064e+12 -4.24857e+12 -5.65614e+12 -3.67577e+12 -4.80374e+12 -8.56861e+12 -3.34702e+12 -3.77409e+12 -5.48428e+12 -3.18658e+12 -6.64158e+12 -3.21464e+12 -5.51576e+12 -4.1937e+12 -3.89165e+12 -4.98717e+12 -3.93741e+12 -3.51243e+12 -5.96701e+12 -5.43677e+12 -1.98845e+12 -6.5096e+12 -2.482e+12 -3.87894e+12 -5.51662e+12 -3.79605e+12 -4.38585e+12 -3.896e+12 -3.03293e+12 -4.38163e+12 -4.31556e+12 -6.29257e+12 -1.83546e+12 -4.73425e+12 -4.26778e+12 -5.59071e+12 -5.98428e+12 -6.84052e+12 -3.63972e+12 -4.90203e+12 -4.57821e+12 -3.83692e+12 -2.60643e+12 -4.40361e+12 -3.99184e+12 -3.95972e+12 -4.29581e+12 -6.81093e+12 -6.88797e+12 -4.04828e+12 -8.42601e+12 -2.74021e+12 -5.93566e+12 -2.87593e+12 -4.11139e+12 -3.40952e+12 -3.67403e+12 -2.48944e+12 -3.61174e+12 -6.01949e+12 -4.87723e+12 -5.83279e+12 -5.79702e+12 -3.69831e+12 -6.51714e+12 -3.10969e+12 -2.32185e+12 -5.9683e+12 -5.28331e+12 -4.31105e+12 -1.98382e+12 -2.78887e+12 -6.71653e+12 -2.77906e+12 -4.02276e+12 -6.61235e+12 -3.99256e+12 -5.69643e+12 -2.94077e+12 -4.51623e+12 -5.14301e+12 -3.6612e+12 -4.97682e+12 -3.05482e+12 -5.88417e+12 -4.94679e+12 -2.53353e+12 -4.43688e+12 -5.35478e+12 -2.93229e+12 -3.70653e+12 -2.80279e+12 -3.86426e+12 -4.02064e+12 -4.58507e+12 -2.40492e+12 -3.82645e+12 -3.03149e+12 -4.60446e+12 -5.32578e+12 -2.66433e+12 -4.99629e+12 -4.30695e+12 -3.49012e+12 -2.71856e+12 -4.28772e+12 -3.05961e+12 -3.51495e+12 -3.72497e+12 -3.50017e+12 -5.57007e+12 -3.25318e+12 -2.88447e+12 -4.1391e+12 -3.44407e+12 -3.03787e+12 -2.78182e+12 -2.97652e+12 -2.20483e+12 -3.87521e+12 -2.46778e+12 -4.23605e+12 -4.6497e+12 -2.75049e+12 -3.40359e+12 -2.87357e+12 -4.55946e+12 -2.65411e+12 -4.24835e+12 -2.14896e+12 -2.61242e+12 -3.41953e+12 -4.05439e+12 -3.76608e+12 -2.77971e+12 -2.73985e+12 -4.16234e+12 -2.53632e+12 -3.06594e+12 -5.14169e+12 -5.26066e+12 -4.3856e+12 -2.33966e+12 -3.29584e+12 -2.75682e+12 -1.93919e+12 -4.41837e+12 -3.56198e+12 -4.10402e+12 -1.73295e+12 -3.12643e+12 -5.57566e+12 -3.08281e+12 -4.76272e+12 -2.35878e+12 -5.67741e+12 -2.7399e+12 -6.20017e+12 -6.98323e+12 -5.00796e+12 -5.44442e+12 -3.10388e+12 -3.04815e+12 -2.75328e+12 -2.21713e+12 -4.51633e+12 -3.91012e+12 -2.66713e+12 -2.88952e+12 -3.22681e+12 -1.09004e+12 -3.16018e+12 -769654000000.0 -3.88263e+12 -1.46513e+12 -4.61964e+12 -4.50378e+12 -2.89626e+12 -4.32575e+12 -3.03145e+12 -3.08413e+12 -3.97779e+12 -2.27611e+12 -3.47213e+12 -4.08122e+12 -2.23348e+12 -4.58943e+12 -5.43482e+12 -1.59294e+12 -3.05905e+12 -4.32988e+12 -3.05527e+12 -3.67394e+12 -5.76759e+12 -4.09945e+12 -5.2815e+12 -1.9427e+12 -2.60514e+12 -3.20967e+12 -6.88155e+12 -2.74979e+12 -2.21844e+12 -3.09079e+12 -2.06478e+12 -2.01025e+12 -2.20656e+12 -2.85571e+12 -4.61402e+12 -1.9841e+12 -3.05071e+12 -2.69563e+12 -3.8036e+12 -2.03882e+12 -4.5794e+12 -2.52064e+12 -2.14736e+12 -1.62538e+12 -4.00022e+12 -2.7293e+12 -3.07787e+12 -2.45806e+12 -3.20481e+12 -4.35772e+12 -3.43431e+12 -1.82302e+12 -2.91461e+12 -3.67212e+12 -2.35778e+12 -2.63736e+12 -3.15393e+12 -3.52643e+12 -2.78245e+12 -2.70721e+12 -2.85111e+12 -1.93177e+12 -3.83364e+12 -5.16152e+12 -2.06876e+12 -4.16769e+12 -4.85096e+12 -3.50765e+12 -3.36442e+12 -3.08813e+12 -1.46913e+12 -2.96663e+12 -2.97162e+12 -2.6632e+12 -1.39178e+12 -2.83538e+12 -3.00357e+12 -1.77909e+12 -2.80294e+12 -1.16717e+12 -3.27598e+12 -4.29527e+12 -2.95731e+12 -3.33088e+12 -3.06185e+12 -4.33298e+12 -2.90094e+12 -2.88441e+12 -1.70634e+12 -1.74747e+12 -3.28345e+12 -2.97353e+12 -5.78636e+12 -2.06107e+12 -3.76128e+12 -3.72946e+12 -2.15637e+12 -2.21831e+12 -2.93849e+12 -3.25072e+12 -1.59615e+12 -3.62751e+12 -5.34381e+12 -3.20393e+12 -1.67586e+12 -2.3545e+12 -2.25464e+12 -3.03846e+12 -2.66737e+12 -2.54676e+12 -2.48582e+12 -3.02614e+12 -2.50595e+12 -1.98428e+12 -4.24756e+12 -3.23512e+12 -2.18275e+12 -5.12336e+12 -2.86011e+12 -3.62551e+12 -4.10261e+12 -4.91265e+12 -1.77398e+12 -2.81773e+12 -3.55797e+12 -3.27856e+12 -3.04768e+12 -3.43015e+12 -3.70277e+12 -4.70314e+12 -2.39161e+12 -2.91232e+12 -1.89249e+12 -5.01203e+12 -3.41839e+12 -2.48331e+12 -3.45802e+12 -4.61104e+12 -3.55098e+12 -3.25758e+12 -2.15037e+12 -2.65268e+12 -2.30214e+12 -2.06321e+12 -2.34074e+12 -202678000000.0 -2.45744e+12 -2.46611e+12 -1.68799e+12 -3.53497e+12 -2.58064e+12 -2.20742e+12 -1.91207e+12 -2.13124e+12 -1.4227e+12 -1.64756e+12 -1.02397e+12 -2.90736e+12 -2.80197e+12 -2.12794e+12 -4.25416e+12 -3.1022e+12 -2.83356e+12 -3.4712e+12 -1.74933e+12 -1.40722e+12 -2.85373e+12 -4.32855e+12 -2.32313e+12 -4.18476e+12 -3.17857e+12 -1.58329e+12 -2.50787e+12 -3.9064e+12 -4.38367e+12 -5.64671e+12 -2.01779e+12 -1.77712e+12 -1.65455e+12 -2.6887e+12 -1.81867e+12 -1.48437e+12 -2.05779e+12 -2.50436e+12 -1.77958e+12 -3.75068e+12 -1.24852e+12 -2.19722e+12 -3.82689e+12 -2.20489e+12 -1.22588e+12 -2.00859e+12 -916215000000.0 -1.19493e+12 -4.0802e+12 -2.79499e+12 -1.91466e+12 -2.21313e+12 -3.3463e+12 -1.73508e+12 -3.33258e+12 -1.76103e+12 -2.59422e+12 -3.11003e+12 -3.66841e+12 -2.30085e+12 -2.08697e+12 -2.02837e+12 -2.19394e+12 -1.73922e+12 -1.52513e+12 -3.1138e+12 -4.14263e+12 -5.00433e+12 -2.9803e+12 -4.36663e+12 -3.06019e+12 -3.35879e+12 -1.46269e+12 -3.99729e+12 -1.16106e+12 -1.40775e+12 -2.08463e+12 -2.01853e+12 -2.73157e+12 -3.16233e+12 -3.09157e+12 -1.95858e+12 -3.61731e+12 -2.90435e+12 -2.83189e+12 -3.10942e+12 -2.55887e+12 -1.55276e+12 -1.14689e+12 -2.67867e+12 -1.67103e+12 -2.90015e+12 -1.08654e+12 -2.64963e+12 -1.29473e+12 -1.39091e+12 -1.94562e+12 -1.3358e+12 -824880000000.0 -1.79951e+12 -2.12666e+12 -1.45904e+12 -1.37675e+12 -1.24923e+12 -2.27008e+12 -1.67277e+12 -1.80968e+12 -1.36029e+12 -2.07127e+12 -2.09592e+12 -2.40433e+12 -1.99974e+12 -1.70894e+12 -1.78318e+12 -2.68487e+12 -1.13565e+12 -2.36627e+12 -2.4501e+12 -2.26566e+12 -3.61762e+12 -1.43695e+12 -2.22381e+12 -2.21388e+12 -1.53419e+12 -2.73752e+12 -1.4885e+12 -2.49196e+12 -1.0305e+12 -405548000000.0 -1.67625e+12 -2.09976e+12 -3.30692e+12 -2.94901e+12 -2.71944e+12 -1.76585e+12 -1.62891e+12 -1.67379e+12 -1.93585e+12 -3.06443e+12 -1.31177e+12 -2.99272e+12 -1.26639e+12 -1.09637e+12 -2.1766e+12 -1.38091e+12 -777737000000.0 -1.93969e+12 -2.3438e+12 -686675000000.0 -1.90103e+12 -2.53861e+12 -1.91834e+12 -2.86213e+12 -1.76452e+12 -3.29046e+12 -1.12122e+12 -1.74936e+12 -2.43005e+12 -940081000000.0 -1.79504e+12 -1.44555e+12 -3.62551e+12 -2.58614e+12 -2.49128e+12 -880355000000.0 -2.65962e+12 -2.18343e+12 -2.86006e+12 -2.14973e+12 -1.4575e+12 -2.01065e+12 -1.46572e+12 -1.52117e+12 -1.51376e+12 -2.40232e+12 -1.17888e+12 -2.28675e+12 -1.26715e+12 -589144000000.0 -2.55254e+12 -3.14785e+12 -2.90951e+12 -1.27672e+12 -1.96365e+12 -1.80928e+12 -1.93609e+12 -3.07226e+12 -1.68472e+12 -1.93471e+12 -1.16162e+12 -2.15756e+12 -328694000000.0 -2.21565e+12 -461203000000.0 -1.28035e+12 -2.09089e+12 -2.10185e+12 -890071000000.0 -987367000000.0 -1.50734e+12 -943197000000.0 -1.31155e+12 -1.43966e+12 -1.11346e+12 -932260000000.0 -2.2332e+12 -1.57711e+12 -1.83737e+12 -972744000000.0 -1.62361e+12 -1.326e+12 -2.263e+12 -844168000000.0 -1.30027e+12 -1.27314e+12 -1.28465e+12 -1.9527e+12 -600436000000.0 -1.14178e+12 -1.17323e+12 -1.07134e+12 -1.14471e+12 -839534000000.0 -2.17184e+12 -1.07085e+12 -1.29844e+12 -1.33068e+12 -1.08445e+12 -427703000000.0 -632872000000.0 -1.93885e+12 -608000000000.0 -1.20056e+12 -1.10771e+12 -2.08453e+12 -516757000000.0 -1.02843e+12 -2.47273e+12 -1.8833e+12 -1.00952e+12 -1.13097e+12 -612712000000.0 -1.57784e+12 -1.25776e+12 -2.25882e+12 -2.12261e+12 -2.47304e+12 -943498000000.0 -693338000000.0 -1.63847e+12 -700790000000.0 -1.49755e+12 -1.775e+12 -1.461e+12 -1.74487e+12 -2.03076e+12 -1.94579e+12 -1.14009e+12 -1.09408e+12 -666605000000.0 -882067000000.0 -1.2527e+12 -1.01091e+12 -1.55848e+12 -557931000000.0 -1.1157e+12 -1.92151e+12 -930202000000.0 -1.46011e+12 -1.25844e+12 -1.34574e+12 -2.34081e+12 -2.02112e+12 -1.15811e+12 -1.32943e+12 -1.42525e+12 -397027000000.0 -2.03604e+12 -1.03129e+12 -1.641e+12 -2.01588e+12 -1.01275e+12 -517880000000.0 -787081000000.0 -1.00591e+12 -909161000000.0 -196697000000.0 -82318600000.0 -1.15496e+12 -353793000000.0 -802243000000.0 -515101000000.0 -707204000000.0 -1.16928e+12 -942728000000.0 -288219000000.0 -667755000000.0 -504011000000.0 -684049000000.0 -244368000000.0 -461586000000.0 -158188000000.0 -359682000000.0 -1.09556e+12 -72057900000.0 -615794000000.0 -254701000000.0 -1.14911e+12 -871068000000.0 -916483000000.0 -738615000000.0 -235207000000.0 -619970000000.0 -247083000000.0 -175465000000.0 -168592000000.0 -153986000000.0 -658276000000.0 -450371000000.0 -538191000000.0 -983649000000.0 -875740000000.0 -447398000000.0 -447004000000.0 -605759000000.0 -210483000000.0 -324263000000.0 -409756000000.0 -226796000000.0 -566405000000.0 -244916000000.0 -345292000000.0 -456290000000.0 -575569000000.0 -255103000000.0 -709024000000.0 -509578000000.0 -306010000000.0 -657614000000.0 -152390000000.0 -880165000000.0 -903527000000.0 -675027000000.0 -268466000000.0 -605826000000.0 -455474000000.0 -745834000000.0 -167367000000.0 -988221000000.0 -429666000000.0 -86778100000.0 -791117000000.0 -181177000000.0 -405084000000.0 -399963000000.0 -371175000000.0 -234776000000.0 -158269000000.0 -255267000000.0 -681595000000.0 -452398000000.0 -1.29496e+12 -1.32457e+12 -883130000000.0 -217296000000.0 -1.22509e+12 -575018000000.0 -323756000000.0 -557554000000.0 -247422000000.0 -358038000000.0 -927103000000.0 -326659000000.0 -267813000000.0 -540979000000.0 -301791000000.0 -485807000000.0 -620033000000.0 -1.03215e+12 -596152000000.0 -178055000000.0 -649235000000.0 -446969000000.0 -258654000000.0 -261282000000.0 -195352000000.0 -271977000000.0 -369424000000.0 -102367000000.0 -270295000000.0 -218779000000.0 -141000000000.0 -197046000000.0 -143991000000.0 